
 stresses (elem, integ.pnt.,sxx,syy,szz,sxy,sxz,syz) for set ELALL and time  0.1000000E+01

         1   1  1.605717E+06  9.777837E+04  1.067243E+05  6.360005E+04  7.366663E+04  7.528078E+00
         1   2  1.597669E+06  2.669905E+04  5.349850E+04  3.067522E+04  4.619571E+04  2.276916E+00
         1   3  1.605785E+06  6.027203E+03  3.072784E+04 -2.249240E+03  1.872444E+04 -6.766992E-02
         1   4  1.605713E+06  9.777079E+04  1.067232E+05 -2.181496E-09  7.366663E+04  2.109264E-10
         1   5  1.597668E+06  2.669729E+04  5.349825E+04 -8.553261E-10  4.619571E+04  6.791974E-10
         1   6  1.605785E+06  6.027193E+03  3.072784E+04 -2.745428E-09  1.872444E+04  7.817027E-10
         1   7  1.605717E+06  9.777837E+04  1.067243E+05 -6.360005E+04  7.366663E+04 -7.528078E+00
         1   8  1.597669E+06  2.669905E+04  5.349850E+04 -3.067522E+04  4.619571E+04 -2.276916E+00
         1   9  1.605785E+06  6.027203E+03  3.072784E+04  2.249240E+03  1.872444E+04  6.766992E-02
         1  10  1.605711E+06  9.777692E+04  1.067142E+05  6.360005E+04 -7.429013E-10  1.470336E-10
         1  11  1.597667E+06  2.669848E+04  5.349450E+04  3.067522E+04 -5.001044E-10  5.301388E-10
         1  12  1.605785E+06  6.027109E+03  3.072718E+04 -2.249240E+03 -1.388380E-09  7.278690E-10
         1  13  1.605707E+06  9.776933E+04  1.067131E+05 -1.044663E-09 -5.220105E-10  1.333664E-10
         1  14  1.597666E+06  2.669672E+04  5.349425E+04 -2.279748E-10 -2.604970E-10  4.978293E-10
         1  15  1.605785E+06  6.027099E+03  3.072718E+04 -1.606320E-10  2.874768E-10  6.793902E-10
         1  16  1.605711E+06  9.777692E+04  1.067142E+05 -6.360005E+04  3.743019E-10  1.110323E-10
         1  17  1.597667E+06  2.669848E+04  5.349450E+04 -3.067522E+04  4.249385E-10  4.175094E-10
         1  18  1.605785E+06  6.027109E+03  3.072718E+04  2.249240E+03  8.870958E-10  7.163865E-10
         1  19  1.605717E+06  9.777837E+04  1.067243E+05  6.360005E+04 -7.366663E+04 -7.528078E+00
         1  20  1.597669E+06  2.669905E+04  5.349850E+04  3.067522E+04 -4.619571E+04 -2.276916E+00
         1  21  1.605785E+06  6.027203E+03  3.072784E+04 -2.249240E+03 -1.872444E+04  6.766992E-02
         1  22  1.605713E+06  9.777079E+04  1.067232E+05 -9.307694E-10 -7.366663E+04  4.849244E-11
         1  23  1.597668E+06  2.669729E+04  5.349825E+04  9.171620E-10 -4.619571E+04  3.071825E-10
         1  24  1.605785E+06  6.027193E+03  3.072784E+04  1.295936E-09 -1.872444E+04  5.731445E-10
         1  25  1.605717E+06  9.777837E+04  1.067243E+05 -6.360005E+04 -7.366663E+04  7.528078E+00
         1  26  1.597669E+06  2.669905E+04  5.349850E+04 -3.067522E+04 -4.619571E+04  2.276916E+00
         1  27  1.605785E+06  6.027203E+03  3.072784E+04  2.249240E+03 -1.872444E+04 -6.766992E-02
         2   1  1.602639E+06  5.531802E+03  2.445971E+04  2.984080E+03  1.456527E+04  6.983639E-02
         2   2  1.601631E+06  1.107615E+03  1.691751E+04  1.365721E+03  6.129178E+03  1.344985E-02
         2   3  1.602644E+06  3.886278E+02  1.578359E+04 -2.526397E+02 -2.306881E+03  9.364379E-04
         2   4  1.602639E+06  5.531786E+03  2.445970E+04 -2.782780E-09  1.456527E+04  7.541383E-10
         2   5  1.601631E+06  1.107612E+03  1.691751E+04 -3.691866E-09  6.129178E+03  4.603479E-10
         2   6  1.602644E+06  3.886276E+02  1.578359E+04 -7.455023E-09 -2.306881E+03 -3.060829E-10
         2   7  1.602639E+06  5.531802E+03  2.445971E+04 -2.984080E+03  1.456527E+04 -6.983639E-02
         2   8  1.601631E+06  1.107615E+03  1.691751E+04 -1.365721E+03  6.129178E+03 -1.344985E-02
         2   9  1.602644E+06  3.886278E+02  1.578359E+04  2.526397E+02 -2.306881E+03 -9.364387E-04
         2  10  1.602638E+06  5.531746E+03  2.445931E+04  2.984080E+03 -1.321845E-09  7.908186E-10
         2  11  1.601631E+06  1.107605E+03  1.691744E+04  1.365721E+03 -1.195210E-09  5.124857E-10
         2  12  1.602644E+06  3.886263E+02  1.578358E+04 -2.526397E+02 -1.326730E-09 -6.085167E-10
         2  13  1.602638E+06  5.531729E+03  2.445931E+04  6.985535E-10 -5.243777E-10  7.319995E-10
         2  14  1.601631E+06  1.107601E+03  1.691744E+04 -3.404560E-11  1.792143E-10  3.945276E-10
         2  15  1.602644E+06  3.886262E+02  1.578358E+04 -6.067060E-10 -3.029698E-10 -6.092579E-10
         2  16  1.602638E+06  5.531746E+03  2.445931E+04 -2.984080E+03  1.557653E-09  6.825565E-10
         2  17  1.601631E+06  1.107605E+03  1.691744E+04 -1.365721E+03  6.693008E-10  2.657346E-10
         2  18  1.602644E+06  3.886263E+02  1.578358E+04  2.526397E+02  1.270205E-09 -5.991311E-10
         2  19  1.602639E+06  5.531802E+03  2.445971E+04  2.984080E+03 -1.456527E+04 -6.983639E-02
         2  20  1.601631E+06  1.107615E+03  1.691751E+04  1.365721E+03 -6.129178E+03 -1.344985E-02
         2  21  1.602644E+06  3.886278E+02  1.578359E+04 -2.526397E+02  2.306881E+03 -9.364393E-04
         2  22  1.602639E+06  5.531786E+03  2.445970E+04  2.613941E-09 -1.456527E+04  7.161466E-10
         2  23  1.601631E+06  1.107612E+03  1.691751E+04  3.341723E-09 -6.129178E+03  3.594531E-10
         2  24  1.602644E+06  3.886276E+02  1.578359E+04  4.157896E-09  2.306881E+03 -8.840236E-10
         2  25  1.602639E+06  5.531802E+03  2.445971E+04 -2.984080E+03 -1.456527E+04  6.983639E-02
         2  26  1.601631E+06  1.107615E+03  1.691751E+04 -1.365721E+03 -6.129178E+03  1.344985E-02
         2  27  1.602644E+06  3.886278E+02  1.578359E+04  2.526397E+02  2.306881E+03  9.364376E-04
         3   1  1.602886E+06  3.735594E+02  1.708736E+04  9.500164E+02 -5.148429E+03 -7.858835E-03
         3   2  1.601324E+06  2.127146E+03  2.409218E+04 -2.013800E+03 -1.718083E+04  5.559223E-02
         3   3  1.602873E+06  1.007421E+04  4.046467E+04 -4.977558E+03 -2.921319E+04  2.336407E-01
         3   4  1.602886E+06  3.735578E+02  1.708736E+04  1.161091E-07 -5.148429E+03 -1.201106E-09
         3   5  1.601324E+06  2.127138E+03  2.409218E+04 -9.845251E-10 -1.718083E+04 -2.168283E-09
         3   6  1.602873E+06  1.007416E+04  4.046466E+04 -1.185700E-07 -2.921319E+04 -1.567722E-09
         3   7  1.602886E+06  3.735594E+02  1.708736E+04 -9.500164E+02 -5.148429E+03  7.858833E-03
         3   8  1.601324E+06  2.127146E+03  2.409218E+04  2.013800E+03 -1.718083E+04 -5.559223E-02
         3   9  1.602873E+06  1.007421E+04  4.046467E+04  4.977558E+03 -2.921319E+04 -2.336407E-01
         3  10  1.602886E+06  3.735523E+02  1.708731E+04  9.500164E+02 -6.169394E-08 -1.558420E-09
         3  11  1.601324E+06  2.127067E+03  2.409163E+04 -2.013800E+03  1.555678E-10 -2.227744E-09
         3  12  1.602872E+06  1.007398E+04  4.046307E+04 -4.977558E+03  6.121653E-08 -1.584854E-09
         3  13  1.602886E+06  3.735507E+02  1.708731E+04  9.772605E-10  1.996828E-10 -1.486244E-09
         3  14  1.601324E+06  2.127059E+03  2.409163E+04  4.719527E-10 -1.347110E-10 -2.201966E-09
         3  15  1.602872E+06  1.007394E+04  4.046306E+04 -1.127862E-09 -6.399687E-10 -1.558262E-09
         3  16  1.602886E+06  3.735523E+02  1.708731E+04 -9.500164E+02  6.143660E-08 -1.480333E-09
         3  17  1.601324E+06  2.127067E+03  2.409163E+04  2.013800E+03 -2.452301E-10 -2.153507E-09
         3  18  1.602872E+06  1.007398E+04  4.046307E+04  4.977558E+03 -6.131136E-08 -1.570043E-09
         3  19  1.602886E+06  3.735594E+02  1.708736E+04  9.500164E+02  5.148429E+03  7.858832E-03
         3  20  1.601324E+06  2.127146E+03  2.409218E+04 -2.013800E+03  1.718083E+04 -5.559223E-02
         3  21  1.602873E+06  1.007421E+04  4.046467E+04 -4.977558E+03  2.921319E+04 -2.336407E-01
         3  22  1.602886E+06  3.735578E+02  1.708736E+04 -1.173665E-07  5.148429E+03 -1.791406E-09
         3  23  1.601324E+06  2.127138E+03  2.409218E+04 -7.572947E-10  1.718083E+04 -2.263189E-09
         3  24  1.602873E+06  1.007416E+04  4.046466E+04  1.152620E-07  2.921319E+04 -1.556326E-09
         3  25  1.602886E+06  3.735594E+02  1.708736E+04 -9.500164E+02  5.148429E+03 -7.858836E-03
         3  26  1.601324E+06  2.127146E+03  2.409218E+04  2.013800E+03  1.718083E+04  5.559223E-02
         3  27  1.602873E+06  1.007421E+04  4.046467E+04  4.977558E+03  2.921319E+04  2.336407E-01
         4   1  1.608627E+06  1.093220E+04  5.268036E+04  4.321917E+03 -3.614481E+04 -2.509991E-01
         4   2  1.594079E+06  4.806584E+04  9.498769E+04 -5.492236E+04 -8.493725E+04  7.495649E+00
         4   3  1.608510E+06  1.758020E+05  1.916587E+05 -1.141702E+05 -1.337306E+05  2.453254E+01
         4   4  1.608627E+06  1.093216E+04  5.268036E+04  4.070373E-09 -3.614481E+04 -5.484649E-10
         4   5  1.594076E+06  4.806019E+04  9.498688E+04  3.245925E-09 -8.493725E+04  6.355149E-10
         4   6  1.608496E+06  1.757775E+05  1.916552E+05  1.360704E-09 -1.337306E+05  3.775425E-10
         4   7  1.608627E+06  1.093220E+04  5.268036E+04 -4.321917E+03 -3.614481E+04  2.509991E-01
         4   8  1.594079E+06  4.806584E+04  9.498769E+04  5.492236E+04 -8.493725E+04 -7.495649E+00
         4   9  1.608510E+06  1.758020E+05  1.916587E+05  1.141702E+05 -1.337306E+05 -2.453254E+01
         4  10  1.608626E+06  1.093185E+04  5.267791E+04  4.321917E+03  3.967748E-10 -6.053511E-10
         4  11  1.594071E+06  4.806391E+04  9.497416E+04 -5.492236E+04  7.717874E-10  3.957368E-10
         4  12  1.608491E+06  1.757972E+05  1.916252E+05 -1.141702E+05  8.962839E-10  2.655141E-10
         4  13  1.608626E+06  1.093181E+04  5.267791E+04 -3.110180E-10 -2.155797E-10 -5.867177E-10
         4  14  1.594068E+06  4.805826E+04  9.497336E+04  3.457396E-10 -4.579974E-10  4.669212E-10
         4  15  1.608477E+06  1.757728E+05  1.916217E+05  9.436053E-10 -6.016096E-10  2.904047E-10
         4  16  1.608626E+06  1.093185E+04  5.267791E+04 -4.321917E+03 -6.123546E-10 -5.662970E-10
         4  17  1.594071E+06  4.806391E+04  9.497416E+04  5.492236E+04 -8.055318E-10  5.120313E-10
         4  18  1.608491E+06  1.757972E+05  1.916252E+05  1.141702E+05 -1.769463E-09  3.143079E-10
         4  19  1.608627E+06  1.093220E+04  5.268036E+04  4.321917E+03  3.614481E+04  2.509991E-01
         4  20  1.594079E+06  4.806584E+04  9.498769E+04 -5.492236E+04  8.493725E+04 -7.495649E+00
         4  21  1.608510E+06  1.758020E+05  1.916587E+05 -1.141702E+05  1.337306E+05 -2.453254E+01
         4  22  1.608627E+06  1.093216E+04  5.268036E+04 -5.786918E-09  3.614481E+04 -6.292817E-10
         4  23  1.594076E+06  4.806019E+04  9.498688E+04 -2.693388E-09  8.493725E+04  3.131581E-10
         4  24  1.608496E+06  1.757775E+05  1.916552E+05 -1.271158E-09  1.337306E+05  1.914648E-10
         4  25  1.608627E+06  1.093220E+04  5.268036E+04 -4.321917E+03  3.614481E+04 -2.509991E-01
         4  26  1.594079E+06  4.806584E+04  9.498769E+04  5.492236E+04  8.493725E+04  7.495649E+00
         4  27  1.608510E+06  1.758020E+05  1.916587E+05  1.141702E+05  1.337306E+05  2.453254E+01
         5   1 -6.123903E+05 -1.531946E+06 -6.026119E+05  5.364198E+05 -2.223688E+04 -2.356799E+05
         5   2 -4.017248E+05 -1.115379E+06 -3.681243E+05  4.532264E+05 -6.864971E+04 -1.125218E+05
         5   3 -2.749637E+05 -7.355780E+05 -2.348970E+05  4.462499E+05 -6.988848E+04  1.073075E+04
         5   4 -1.339771E+05  4.028522E+05 -1.461265E+05  4.507666E+05 -2.209100E+04 -1.033635E+05
         5   5 -3.644285E+04  4.139385E+05 -7.128689E+04  4.125910E+05 -6.858097E+04 -6.666590E+04
         5   6 -7.661060E+03  4.032246E+05 -3.750070E+04  4.506537E+05 -6.993008E+04 -2.996311E+04
         5   7  3.442057E+05  2.341151E+06  3.101706E+05  3.648426E+05 -2.198205E+04  2.936414E+04
         5   8  3.287068E+05  1.945512E+06  2.254492E+05  3.718520E+05 -6.851837E+04 -2.069932E+04
         5   9  2.595727E+05  1.543303E+06  1.598567E+05  4.550649E+05 -6.997219E+04 -7.072936E+04
         5  10 -6.124058E+05 -1.532006E+06 -6.027174E+05  5.364156E+05 -7.585172E-11  2.471369E-10
         5  11 -4.017332E+05 -1.115394E+06 -3.681569E+05  4.532201E+05 -2.492007E-10 -1.746232E-10
         5  12 -2.749690E+05 -7.355795E+05 -2.349064E+05  4.462505E+05 -2.931883E-10 -5.420257E-10
         5  13 -1.339805E+05  4.028406E+05 -1.461475E+05  4.507648E+05  4.772919E-11 -4.627899E-11
         5  14 -3.644909E+04  4.139325E+05 -7.130407E+04  4.125873E+05  5.176430E-10 -1.423827E-11
         5  15 -7.666550E+03  4.032223E+05 -3.751157E+04  4.506520E+05 -2.173593E-10  1.668137E-11
         5  16  3.442050E+05  2.341150E+06  3.101681E+05  3.648432E+05 -6.447654E-10 -1.997666E-10
         5  17  3.287017E+05  1.945510E+06  2.254396E+05  3.718508E+05 -4.248414E-10  1.678317E-10
         5  18  2.595661E+05  1.543297E+06  1.598382E+05  4.550610E+05  1.640107E-10  4.852369E-10
         5  19 -6.123903E+05 -1.531946E+06 -6.026119E+05  5.364198E+05  2.223688E+04  2.356799E+05
         5  20 -4.017248E+05 -1.115379E+06 -3.681243E+05  4.532264E+05  6.864971E+04  1.125218E+05
         5  21 -2.749637E+05 -7.355780E+05 -2.348970E+05  4.462499E+05  6.988848E+04 -1.073075E+04
         5  22 -1.339771E+05  4.028522E+05 -1.461265E+05  4.507666E+05  2.209100E+04  1.033635E+05
         5  23 -3.644285E+04  4.139385E+05 -7.128689E+04  4.125910E+05  6.858097E+04  6.666590E+04
         5  24 -7.661060E+03  4.032246E+05 -3.750070E+04  4.506537E+05  6.993008E+04  2.996311E+04
         5  25  3.442057E+05  2.341151E+06  3.101706E+05  3.648426E+05  2.198205E+04 -2.936414E+04
         5  26  3.287068E+05  1.945512E+06  2.254492E+05  3.718520E+05  6.851837E+04  2.069932E+04
         5  27  2.595727E+05  1.543303E+06  1.598567E+05  4.550649E+05  6.997219E+04  7.072936E+04
         6   1 -2.136964E+05 -4.754502E+05 -1.779464E+05  4.539625E+05 -5.605323E+04  1.330961E+04
         6   2 -1.129326E+05 -7.644156E+04 -8.945128E+04  4.130092E+05 -3.481507E+04  2.350781E+04
         6   3 -1.614757E+04  3.203041E+05 -8.634069E+03  4.512261E+05 -1.131488E+04  3.370348E+04
         6   4 -6.896023E+03  4.077982E+05 -2.720606E+04  4.513101E+05 -5.610014E+04 -2.526962E+04
         6   5 -3.882929E+02  4.086892E+05 -1.175115E+04  4.117201E+05 -3.487468E+04 -1.941475E+04
         6   6  2.906080E+03  4.079230E+05 -9.492998E+02  4.512971E+05 -1.138828E+04 -1.356862E+04
         6   7  1.998637E+05  1.291817E+06  1.235141E+05  4.486534E+05 -5.614668E+04 -6.390201E+04
         6   8  1.121452E+05  8.940577E+05  6.594970E+04  4.104298E+05 -3.493409E+04 -6.236964E+04
         6   9  2.196070E+04  4.955549E+05  6.744069E+03  4.513682E+05 -1.146168E+04 -6.084696E+04
         6  10 -2.136998E+05 -4.754512E+05 -1.779527E+05  4.539631E+05 -3.453365E-10 -6.675986E-10
         6  11 -1.129341E+05 -7.644248E+04 -8.945460E+04  4.130099E+05 -8.142662E-10  3.411953E-10
         6  12 -1.614801E+04  3.203028E+05 -8.636445E+03  4.512264E+05 -2.014043E-10  1.265848E-09
         6  13 -6.899573E+03  4.077967E+05 -2.721317E+04  4.513090E+05 -1.328330E-11 -7.116633E-13
         6  14 -3.896996E+02  4.086884E+05 -1.175414E+04  4.117196E+05  7.410048E-11 -5.236493E-11
         6  15  2.905891E+03  4.079228E+05 -9.498888E+02  4.512970E+05  4.325901E-10 -4.281234E-11
         6  16  1.998593E+05  1.291812E+06  1.235005E+05  4.486505E+05  4.639942E-10  6.877584E-10
         6  17  1.121429E+05  8.940532E+05  6.594012E+04  4.104280E+05  8.273314E-12 -3.708622E-10
         6  18  2.195957E+04  4.955509E+05  6.736873E+03  4.513676E+05  3.840492E-10 -1.258847E-09
         6  19 -2.136964E+05 -4.754502E+05 -1.779464E+05  4.539625E+05  5.605323E+04 -1.330961E+04
         6  20 -1.129326E+05 -7.644156E+04 -8.945128E+04  4.130092E+05  3.481507E+04 -2.350781E+04
         6  21 -1.614757E+04  3.203041E+05 -8.634069E+03  4.512261E+05  1.131488E+04 -3.370348E+04
         6  22 -6.896023E+03  4.077982E+05 -2.720606E+04  4.513101E+05  5.610014E+04  2.526962E+04
         6  23 -3.882929E+02  4.086892E+05 -1.175115E+04  4.117201E+05  3.487468E+04  1.941475E+04
         6  24  2.906080E+03  4.079230E+05 -9.492998E+02  4.512971E+05  1.138828E+04  1.356862E+04
         6  25  1.998637E+05  1.291817E+06  1.235141E+05  4.486534E+05  5.614668E+04  6.390201E+04
         6  26  1.121452E+05  8.940577E+05  6.594970E+04  4.104298E+05  3.493409E+04  6.236964E+04
         6  27  2.196070E+04  4.955549E+05  6.744069E+03  4.513682E+05  1.146168E+04  6.084696E+04
         7   1  4.372419E+04  5.765702E+05  4.047277E+04  4.499229E+05  4.242262E+03  3.458096E+04
         7   2  1.464478E+05  9.680562E+05  1.343403E+05  4.232419E+05  1.750555E+04 -1.886868E+04
         7   3  2.751435E+05  1.373038E+06  2.694229E+05  4.744010E+05  7.269876E+03 -7.234092E+04
         7   4  3.035900E+03  4.095181E+05  3.967847E+03  4.510059E+05  4.167550E+03 -1.363686E+04
         7   5  1.056207E+04  4.066736E+05  1.601929E+04  4.120671E+05  1.750270E+04 -2.191824E+04
         7   6  3.624959E+04  4.093643E+05  3.795787E+04  4.509666E+05  7.331159E+03 -3.018822E+04
         7   7 -3.765300E+04  2.424972E+05 -3.253003E+04  4.520887E+05  4.092656E+03 -6.184189E+04
         7   8 -1.253435E+05 -1.544116E+05 -1.023194E+05  4.009023E+05  1.749997E+04 -2.496508E+04
         7   9 -2.027089E+05 -5.534564E+05 -1.935661E+05  4.275680E+05  7.389332E+03  1.189945E+04
         7  10  4.372385E+04  5.765689E+05  4.047049E+04  4.499227E+05  3.000829E-11 -1.126631E-09
         7  11  1.464474E+05  9.680557E+05  1.343390E+05  4.232422E+05  3.273165E-11 -2.467645E-10
         7  12  2.751421E+05  1.373033E+06  2.694129E+05  4.744015E+05  1.251475E-10  6.197504E-10
         7  13  3.035832E+03  4.095179E+05  3.967464E+03  4.510060E+05  6.031709E-10 -4.259949E-11
         7  14  1.056161E+04  4.066730E+05  1.601781E+04  4.120674E+05  5.242487E-11 -5.451595E-11
         7  15  3.624929E+04  4.093633E+05  3.795606E+04  4.509668E+05  8.447305E-11  1.062613E-11
         7  16 -3.765404E+04  2.424930E+05 -3.253725E+04  4.520889E+05  3.864339E-10  1.092425E-09
         7  17 -1.253440E+05 -1.544124E+05 -1.023211E+05  4.009027E+05  1.839364E-11  2.400526E-10
         7  18 -2.027090E+05 -5.534566E+05 -1.935665E+05  4.275680E+05 -1.440245E-10 -6.255800E-10
         7  19  4.372419E+04  5.765702E+05  4.047277E+04  4.499229E+05 -4.242262E+03 -3.458096E+04
         7  20  1.464478E+05  9.680562E+05  1.343403E+05  4.232419E+05 -1.750555E+04  1.886868E+04
         7  21  2.751435E+05  1.373038E+06  2.694229E+05  4.744010E+05 -7.269876E+03  7.234092E+04
         7  22  3.035900E+03  4.095181E+05  3.967847E+03  4.510059E+05 -4.167550E+03  1.363686E+04
         7  23  1.056207E+04  4.066736E+05  1.601929E+04  4.120671E+05 -1.750270E+04  2.191824E+04
         7  24  3.624959E+04  4.093643E+05  3.795787E+04  4.509666E+05 -7.331159E+03  3.018822E+04
         7  25 -3.765300E+04  2.424972E+05 -3.253003E+04  4.520887E+05 -4.092656E+03  6.184189E+04
         7  26 -1.253435E+05 -1.544116E+05 -1.023194E+05  4.009023E+05 -1.749997E+04  2.496508E+04
         7  27 -2.027089E+05 -5.534564E+05 -1.935661E+05  4.275680E+05 -7.389332E+03 -1.189945E+04
         8   1  4.098948E+05  6.158293E+04 -1.201918E+05  3.326632E+05 -2.563754E+04 -8.232660E+03
         8   2  4.696222E+05  8.858063E+04 -9.314894E+04  3.728068E+05 -2.183726E+04  1.969810E+04
         8   3  5.505661E+05  1.093873E+05 -7.546512E+04  4.021403E+05 -8.598652E+03  3.504965E+04
         8   4  9.349029E+05  3.946090E+05  4.071989E+04  5.747747E+05  1.731702E+04  2.397112E+04
         8   5  9.153985E+05  3.838880E+05  2.030385E+04  5.885953E+05 -3.058084E+03  3.377150E+04
         8   6  9.223394E+05  3.722079E+05  1.148794E+04  5.916044E+05 -1.400132E+04  3.099780E+04
         8   7  1.460199E+06  7.277426E+05  2.016069E+05  8.171008E+05  6.032047E+04  5.620631E+04
         8   8  1.361396E+06  6.792929E+05  1.337412E+05  8.045544E+05  1.573907E+04  4.785727E+04
         8   9  1.294273E+06  6.351137E+05  9.843257E+04  7.812001E+05 -1.940831E+04  2.694269E+04
         8  10  4.098941E+05  6.158268E+04 -1.201931E+05  3.326630E+05 -5.439966E-10 -3.232957E-10
         8  11  4.696216E+05  8.858009E+04 -9.315057E+04  3.728071E+05 -1.058510E-09 -5.759895E-11
         8  12  5.505657E+05  1.093860E+05 -7.546757E+04  4.021406E+05 -9.021419E-10  1.019625E-10
         8  13  9.349024E+05  3.946083E+05  4.071825E+04  5.747744E+05 -2.612085E-10  6.247862E-11
         8  14  9.153982E+05  3.838868E+05  2.030169E+04  5.885954E+05 -4.168243E-10  2.590234E-10
         8  15  9.223390E+05  3.722068E+05  1.148576E+04  5.916048E+05 -8.172536E-10  3.178797E-10
         8  16  1.460194E+06  7.277383E+05  2.015942E+05  8.170981E+05  1.986600E-10  3.755277E-10
         8  17  1.361395E+06  6.792904E+05  1.337365E+05  8.045538E+05 -2.917069E-10  5.921120E-10
         8  18  1.294273E+06  6.351128E+05  9.843050E+04  7.812005E+05  1.304795E-10  5.589068E-10
         8  19  4.098948E+05  6.158293E+04 -1.201918E+05  3.326632E+05  2.563754E+04  8.232660E+03
         8  20  4.696222E+05  8.858063E+04 -9.314894E+04  3.728068E+05  2.183726E+04 -1.969810E+04
         8  21  5.505661E+05  1.093873E+05 -7.546512E+04  4.021403E+05  8.598652E+03 -3.504965E+04
         8  22  9.349029E+05  3.946090E+05  4.071989E+04  5.747747E+05 -1.731702E+04 -2.397112E+04
         8  23  9.153985E+05  3.838880E+05  2.030385E+04  5.885953E+05  3.058084E+03 -3.377150E+04
         8  24  9.223394E+05  3.722079E+05  1.148794E+04  5.916044E+05  1.400132E+04 -3.099780E+04
         8  25  1.460199E+06  7.277426E+05  2.016069E+05  8.171008E+05 -6.032047E+04 -5.620631E+04
         8  26  1.361396E+06  6.792929E+05  1.337412E+05  8.045544E+05 -1.573907E+04 -4.785727E+04
         8  27  1.294273E+06  6.351137E+05  9.843257E+04  7.812001E+05  1.940831E+04 -2.694269E+04
         9   1  5.887078E+05  1.392415E+05 -6.711269E+04  4.226085E+05 -8.933266E+03  3.164361E+04
         9   2  6.432322E+05  1.902764E+05 -5.348637E+04  4.572781E+05 -6.361662E+03  2.864774E+04
         9   3  7.146654E+05  2.253230E+05 -3.983947E+04  4.868413E+05 -2.799957E+03  2.432894E+04
         9   4  9.217212E+05  3.714396E+05  9.003377E+03  5.910396E+05 -1.371787E+04  2.805573E+04
         9   5  9.126247E+05  3.784886E+05  5.851926E+03  5.941079E+05 -1.369011E+04  2.315498E+04
         9   6  9.209802E+05  3.700978E+05  4.923713E+03  5.920658E+05 -1.267262E+04  1.693172E+04
         9   7  1.254871E+06  6.037094E+05  8.511556E+04  7.595784E+05 -1.850599E+04  2.446525E+04
         9   8  1.182103E+06  5.667454E+05  6.518693E+04  7.310067E+05 -2.102280E+04  1.765907E+04
         9   9  1.127341E+06  5.148962E+05  4.968403E+04  6.973290E+05 -2.254945E+04  9.531385E+03
         9  10  5.887075E+05  1.392404E+05 -6.711472E+04  4.226088E+05 -1.971783E-09 -4.653509E-10
         9  11  6.432319E+05  1.902756E+05 -5.348799E+04  4.572783E+05 -1.551058E-09  1.996804E-10
         9  12  7.146652E+05  2.253224E+05 -3.984060E+04  4.868414E+05 -1.164629E-09  2.211821E-10
         9  13  9.217208E+05  3.714387E+05  9.001543E+03  5.910399E+05 -3.189561E-10  5.142792E-10
         9  14  9.126244E+05  3.784880E+05  5.850565E+03  5.941081E+05 -6.736840E-10  7.960173E-10
         9  15  9.209799E+05  3.700974E+05  4.922872E+03  5.920659E+05 -5.079078E-10  6.417468E-10
         9  16  1.254871E+06  6.037087E+05  8.511379E+04  7.595788E+05  1.011694E-09  1.339250E-09
         9  17  1.182102E+06  5.667450E+05  6.518551E+04  7.310070E+05  7.472902E-10  1.404550E-09
         9  18  1.127341E+06  5.148959E+05  4.968291E+04  6.973291E+05  4.026659E-10  1.066639E-09
         9  19  5.887078E+05  1.392415E+05 -6.711269E+04  4.226085E+05  8.933266E+03 -3.164361E+04
         9  20  6.432322E+05  1.902764E+05 -5.348637E+04  4.572781E+05  6.361662E+03 -2.864774E+04
         9  21  7.146654E+05  2.253230E+05 -3.983947E+04  4.868413E+05  2.799957E+03 -2.432894E+04
         9  22  9.217212E+05  3.714396E+05  9.003377E+03  5.910396E+05  1.371787E+04 -2.805573E+04
         9  23  9.126247E+05  3.784886E+05  5.851926E+03  5.941079E+05  1.369011E+04 -2.315498E+04
         9  24  9.209802E+05  3.700978E+05  4.923713E+03  5.920658E+05  1.267262E+04 -1.693172E+04
         9  25  1.254871E+06  6.037094E+05  8.511556E+04  7.595784E+05  1.850599E+04 -2.446525E+04
         9  26  1.182103E+06  5.667454E+05  6.518693E+04  7.310067E+05  2.102280E+04 -1.765907E+04
         9  27  1.127341E+06  5.148962E+05  4.968403E+04  6.973290E+05  2.254945E+04 -9.531385E+03
        10   1  7.543115E+05  2.535604E+05 -3.067643E+04  5.071961E+05 -1.299169E+03  2.071809E+04
        10   2  8.083478E+05  3.056921E+05 -1.559940E+04  5.414657E+05  5.407360E+01  1.372354E+04
        10   3  8.794904E+05  3.416989E+05  1.614355E+03  5.709123E+05  1.447961E+03  6.673137E+03
        10   4  9.209704E+05  3.700599E+05  5.060681E+03  5.920488E+05 -1.110744E+04  1.336989E+04
        10   5  9.124699E+05  3.782198E+05  6.548897E+03  5.943839E+05 -9.862044E+03  6.295238E+03
        10   6  9.210942E+05  3.702754E+05  1.026638E+04  5.918924E+05 -8.575689E+03 -8.350521E+02
        10   7  1.087663E+06  4.865768E+05  4.079717E+04  6.769281E+05 -2.091922E+04  6.019070E+03
        10   8  1.016606E+06  4.507552E+05  2.869770E+04  6.473131E+05 -1.978048E+04 -1.134781E+03
        10   9  9.627011E+05  3.988537E+05  1.891922E+04  6.128747E+05 -1.860044E+04 -8.344047E+03
        10  10  7.543113E+05  2.535600E+05 -3.067724E+04  5.071962E+05 -3.399491E-09 -9.719832E-10
        10  11  8.083478E+05  3.056919E+05 -1.559976E+04  5.414657E+05 -2.160442E-09 -4.170921E-10
        10  12  8.794904E+05  3.416988E+05  1.614267E+03  5.709123E+05 -1.187576E-09 -9.078974E-10
        10  13  9.209703E+05  3.700597E+05  5.060113E+03  5.920489E+05 -1.334173E-10  6.905210E-10
        10  14  9.124698E+05  3.782198E+05  6.548640E+03  5.943840E+05 -1.101732E-09  6.842772E-10
        10  15  9.210941E+05  3.702754E+05  1.026624E+04  5.918924E+05  5.555416E-10 -5.723363E-10
        10  16  1.087662E+06  4.865767E+05  4.079628E+04  6.769282E+05  1.555248E-09  2.438918E-09
        10  17  1.016606E+06  4.507551E+05  2.869697E+04  6.473131E+05  1.101441E-09  1.701320E-09
        10  18  9.627008E+05  3.988536E+05  1.891844E+04  6.128746E+05  1.843957E-09 -2.034447E-10
        10  19  7.543115E+05  2.535604E+05 -3.067643E+04  5.071961E+05  1.299169E+03 -2.071809E+04
        10  20  8.083478E+05  3.056921E+05 -1.559940E+04  5.414657E+05 -5.407360E+01 -1.372354E+04
        10  21  8.794904E+05  3.416989E+05  1.614355E+03  5.709123E+05 -1.447961E+03 -6.673137E+03
        10  22  9.209704E+05  3.700599E+05  5.060681E+03  5.920488E+05  1.110744E+04 -1.336989E+04
        10  23  9.124699E+05  3.782198E+05  6.548897E+03  5.943839E+05  9.862044E+03 -6.295238E+03
        10  24  9.210942E+05  3.702754E+05  1.026638E+04  5.918924E+05  8.575689E+03  8.350521E+02
        10  25  1.087663E+06  4.865768E+05  4.079717E+04  6.769281E+05  2.091922E+04 -6.019070E+03
        10  26  1.016606E+06  4.507552E+05  2.869770E+04  6.473131E+05  1.978048E+04  1.134781E+03
        10  27  9.627011E+05  3.988537E+05  1.891922E+04  6.128747E+05  1.860044E+04  8.344047E+03
        11   1  9.188828E+05  3.706703E+05  1.349179E+04  5.917148E+05  2.155130E+03  2.404269E+03
        11   2  9.758875E+05  4.205850E+05  3.700410E+04  6.233419E+05 -4.811116E+03 -1.036661E+04
        11   3  1.053997E+06  4.594224E+05  7.077735E+04  6.485637E+05 -1.236394E+04 -2.235704E+04
        11   4  9.214291E+05  3.704704E+05  1.320169E+04  5.921785E+05 -7.900202E+03 -5.127563E+03
        11   5  9.129130E+05  3.795155E+05  2.271709E+04  5.928706E+05 -1.336294E+04 -1.677259E+04
        11   6  9.251737E+05  3.771581E+05  4.119324E+04  5.871551E+05 -1.941092E+04 -2.763630E+04
        11   7  9.239756E+05  3.702706E+05  1.291218E+04  5.926423E+05 -1.795538E+04 -1.265922E+04
        11   8  8.499440E+05  3.384487E+05  8.430506E+03  5.624033E+05 -2.191351E+04 -2.317771E+04
        11   9  7.963701E+05  2.949019E+05  1.160844E+04  5.257606E+05 -2.645594E+04 -3.291425E+04
        11  10  9.188828E+05  3.706703E+05  1.349177E+04  5.917148E+05 -6.523502E-08 -5.092968E-08
        11  11  9.758874E+05  4.205849E+05  3.700386E+04  6.233418E+05  7.000034E-09  1.155182E-09
        11  12  1.053996E+06  4.594218E+05  7.077613E+04  6.485635E+05  7.119875E-08  5.005395E-08
        11  13  9.214290E+05  3.704703E+05  1.320153E+04  5.921785E+05  3.577055E-09 -1.782807E-10
        11  14  9.129127E+05  3.795152E+05  2.271623E+04  5.928705E+05  7.257747E-09  1.261455E-09
        11  15  9.251731E+05  3.771571E+05  4.119110E+04  5.871547E+05  3.015264E-09 -5.152075E-11
        11  16  9.239752E+05  3.702703E+05  1.291128E+04  5.926421E+05  7.212686E-08  5.052172E-08
        11  17  8.499433E+05  3.384480E+05  8.428597E+03  5.624029E+05  7.291047E-09  1.443819E-09
        11  18  7.963691E+05  2.949005E+05  1.160510E+04  5.257599E+05 -6.506134E-08 -5.022267E-08
        11  19  9.188828E+05  3.706703E+05  1.349179E+04  5.917148E+05 -2.155130E+03 -2.404269E+03
        11  20  9.758875E+05  4.205850E+05  3.700410E+04  6.233419E+05  4.811116E+03  1.036661E+04
        11  21  1.053997E+06  4.594224E+05  7.077735E+04  6.485637E+05  1.236394E+04  2.235704E+04
        11  22  9.214291E+05  3.704704E+05  1.320169E+04  5.921785E+05  7.900202E+03  5.127563E+03
        11  23  9.129130E+05  3.795155E+05  2.271709E+04  5.928706E+05  1.336294E+04  1.677259E+04
        11  24  9.251737E+05  3.771581E+05  4.119324E+04  5.871551E+05  1.941092E+04  2.763630E+04
        11  25  9.239756E+05  3.702706E+05  1.291218E+04  5.926423E+05  1.795538E+04  1.265922E+04
        11  26  8.499440E+05  3.384487E+05  8.430506E+03  5.624033E+05  2.191351E+04  2.317771E+04
        11  27  7.963701E+05  2.949019E+05  1.160844E+04  5.257606E+05  2.645594E+04  3.291425E+04
        12   1  1.089007E+06  5.000499E+05  9.407000E+04  6.742339E+05 -1.581136E+04 -2.880209E+04
        12   2  1.207441E+06  5.117721E+05  1.603738E+05  6.635250E+05 -7.117538E+04 -7.043312E+04
        12   3  1.398910E+06  5.828543E+05  2.963825E+05  6.169346E+05 -1.321798E+05 -1.045609E+05
        12   4  9.292762E+05  3.800542E+05  5.448620E+04  5.897052E+05 -2.322237E+04 -3.435397E+04
        12   5  9.255406E+05  4.075889E+05  9.970569E+04  5.658925E+05 -6.413328E+04 -6.516943E+04
        12   6  9.917098E+05  4.913778E+05  2.021312E+05  5.061980E+05 -1.106673E+05 -8.848351E+04
        12   7  7.695713E+05  2.600742E+05  1.489977E+04  5.052008E+05 -3.063099E+04 -3.990388E+04
        12   8  6.437352E+05  3.034177E+05  3.903509E+04  4.682966E+05 -5.709560E+04 -5.990701E+04
        12   9  5.847231E+05  3.999207E+05  1.078813E+05  3.955071E+05 -8.917526E+04 -7.240839E+04
        12  10  1.089007E+06  5.000489E+05  9.406797E+04  6.742335E+05  1.441036E-09 -6.602304E-10
        12  11  1.207434E+06  5.117655E+05  1.603550E+05  6.635210E+05  1.256252E-09  1.282060E-09
        12  12  1.398888E+06  5.828379E+05  2.963293E+05  6.169234E+05  1.484328E-09  1.725633E-09
        12  13  9.292753E+05  3.800528E+05  5.448298E+04  5.897046E+05  2.782901E-10 -5.035067E-10
        12  14  9.255351E+05  4.075833E+05  9.969001E+04  5.658892E+05 -9.381646E-11  6.246562E-10
        12  15  9.916945E+05  4.913661E+05  2.020936E+05  5.061902E+05 -3.189734E-11  2.586805E-10
        12  16  7.695699E+05  2.600722E+05  1.489502E+04  5.051998E+05 -9.717294E-10 -1.732759E-10
        12  17  6.437307E+05  3.034130E+05  3.902223E+04  4.682939E+05 -2.142995E-09  2.856470E-11
        12  18  5.847131E+05  3.999129E+05  1.078566E+05  3.955019E+05 -2.192934E-09 -1.023823E-09
        12  19  1.089007E+06  5.000499E+05  9.407000E+04  6.742339E+05  1.581136E+04  2.880209E+04
        12  20  1.207441E+06  5.117721E+05  1.603738E+05  6.635250E+05  7.117538E+04  7.043312E+04
        12  21  1.398910E+06  5.828543E+05  2.963825E+05  6.169346E+05  1.321798E+05  1.045609E+05
        12  22  9.292762E+05  3.800542E+05  5.448620E+04  5.897052E+05  2.322237E+04  3.435397E+04
        12  23  9.255406E+05  4.075889E+05  9.970569E+04  5.658925E+05  6.413328E+04  6.516943E+04
        12  24  9.917098E+05  4.913778E+05  2.021312E+05  5.061980E+05  1.106673E+05  8.848351E+04
        12  25  7.695713E+05  2.600742E+05  1.489977E+04  5.052008E+05  3.063099E+04  3.990388E+04
        12  26  6.437352E+05  3.034177E+05  3.903509E+04  4.682966E+05  5.709560E+04  5.990701E+04
        12  27  5.847231E+05  3.999207E+05  1.078813E+05  3.955071E+05  8.917526E+04  7.240839E+04
        13   1  9.914084E+05  5.678431E+04  6.199063E+04  3.692459E+04  4.270049E+04  2.535787E+00
        13   2  9.867228E+05  1.549666E+04  3.112137E+04  1.781423E+04  2.672337E+04  7.656381E-01
        13   3  9.914329E+05  3.492133E+03  1.796322E+04 -1.295842E+03  1.074626E+04 -2.239603E-02
        13   4  9.914070E+05  5.678175E+04  6.199026E+04 -1.029106E-09  4.270049E+04  1.025298E-10
        13   5  9.867225E+05  1.549607E+04  3.112129E+04 -2.882390E-10  2.672337E+04  2.281613E-10
        13   6  9.914329E+05  3.492130E+03  1.796322E+04  1.073376E-09  1.074626E+04 -2.597606E-11
        13   7  9.914084E+05  5.678431E+04  6.199063E+04 -3.692459E+04  4.270049E+04 -2.535787E+00
        13   8  9.867228E+05  1.549666E+04  3.112137E+04 -1.781423E+04  2.672337E+04 -7.656381E-01
        13   9  9.914329E+05  3.492133E+03  1.796322E+04  1.295842E+03  1.074626E+04  2.239603E-02
        13  10  9.914065E+05  5.678382E+04  6.198721E+04  3.692459E+04 -2.840433E-10  6.038435E-11
        13  11  9.867221E+05  1.549647E+04  3.112003E+04  1.781423E+04  5.283127E-10  1.350406E-10
        13  12  9.914327E+05  3.492102E+03  1.796300E+04 -1.295842E+03  7.748967E-10 -3.413550E-11
        13  13  9.914050E+05  5.678126E+04  6.198684E+04 -6.987037E-10 -1.303941E-10  2.123297E-11
        13  14  9.867217E+05  1.549588E+04  3.111995E+04 -4.544960E-10 -3.050800E-10  3.673128E-11
        13  15  9.914327E+05  3.492099E+03  1.796300E+04  1.937257E-10  1.445060E-10 -6.006260E-11
        13  16  9.914065E+05  5.678382E+04  6.198721E+04 -3.692459E+04 -2.915426E-10 -6.010447E-12
        13  17  9.867221E+05  1.549647E+04  3.112003E+04 -1.781423E+04 -1.395231E-10 -6.581552E-11
        13  18  9.914327E+05  3.492102E+03  1.796300E+04  1.295842E+03 -5.181667E-10 -1.217898E-10
        13  19  9.914084E+05  5.678431E+04  6.199063E+04  3.692459E+04 -4.270049E+04 -2.535787E+00
        13  20  9.867228E+05  1.549666E+04  3.112137E+04  1.781423E+04 -2.672337E+04 -7.656381E-01
        13  21  9.914329E+05  3.492133E+03  1.796322E+04 -1.295842E+03 -1.074626E+04  2.239603E-02
        13  22  9.914070E+05  5.678175E+04  6.199026E+04 -9.238508E-10 -4.270049E+04 -4.474391E-11
        13  23  9.867225E+05  1.549607E+04  3.112129E+04 -1.428796E-09 -2.672337E+04 -1.582243E-10
        13  24  9.914329E+05  3.492130E+03  1.796322E+04 -1.850901E-10 -1.074626E+04 -1.010421E-10
        13  25  9.914084E+05  5.678431E+04  6.199063E+04 -3.692459E+04 -4.270049E+04  2.535787E+00
        13  26  9.867228E+05  1.549666E+04  3.112137E+04 -1.781423E+04 -2.672337E+04  7.656381E-01
        13  27  9.914329E+05  3.492133E+03  1.796322E+04  1.295842E+03 -1.074626E+04 -2.239603E-02
        14   1  9.896102E+05  3.204820E+03  1.436912E+04  1.749673E+03  8.306849E+03  2.337522E-02
        14   2  9.890115E+05  6.359267E+02  1.012489E+04  8.134523E+02  3.259951E+03  4.264872E-03
        14   3  9.896122E+05  2.409176E+02  9.706017E+03 -1.227546E+02 -1.786863E+03  3.527699E-04
        14   4  9.896102E+05  3.204814E+03  1.436912E+04  1.036407E-11  8.306849E+03 -1.786373E-10
        14   5  9.890115E+05  6.359254E+02  1.012489E+04  1.093058E-10  3.259951E+03 -1.218966E-10
        14   6  9.896122E+05  2.409175E+02  9.706017E+03 -5.268886E-11 -1.786863E+03  1.422346E-10
        14   7  9.896102E+05  3.204820E+03  1.436912E+04 -1.749673E+03  8.306849E+03 -2.337522E-02
        14   8  9.890115E+05  6.359267E+02  1.012489E+04 -8.134523E+02  3.259951E+03 -4.264872E-03
        14   9  9.896122E+05  2.409176E+02  9.706017E+03  1.227546E+02 -1.786863E+03 -3.527697E-04
        14  10  9.896101E+05  3.204801E+03  1.436899E+04  1.749673E+03  2.643726E-10 -9.902572E-11
        14  11  9.890115E+05  6.359238E+02  1.012487E+04  8.134523E+02  1.675099E-10 -6.295324E-11
        14  12  9.896122E+05  2.409167E+02  9.706011E+03 -1.227546E+02 -5.797594E-11  1.740633E-10
        14  13  9.896101E+05  3.204796E+03  1.436899E+04  1.513556E-10  6.388221E-11 -1.038545E-10
        14  14  9.890115E+05  6.359226E+02  1.012487E+04  6.725708E-11 -4.553330E-11 -3.179420E-11
        14  15  9.896122E+05  2.409167E+02  9.706011E+03 -1.599365E-10  2.478042E-11  1.517055E-10
        14  16  9.896101E+05  3.204801E+03  1.436899E+04 -1.749673E+03  9.162954E-11 -8.255572E-11
        14  17  9.890115E+05  6.359238E+02  1.012487E+04 -8.134523E+02 -2.046227E-10  3.227828E-11
        14  18  9.896122E+05  2.409167E+02  9.706011E+03  1.227546E+02 -7.895130E-11  1.190231E-10
        14  19  9.896102E+05  3.204820E+03  1.436912E+04  1.749673E+03 -8.306849E+03 -2.337522E-02
        14  20  9.890115E+05  6.359267E+02  1.012489E+04  8.134523E+02 -3.259951E+03 -4.264872E-03
        14  21  9.896122E+05  2.409176E+02  9.706017E+03 -1.227546E+02  1.786863E+03 -3.527696E-04
        14  22  9.896102E+05  3.204814E+03  1.436912E+04 -8.881514E-10 -8.306849E+03 -3.320644E-11
        14  23  9.890115E+05  6.359254E+02  1.012489E+04 -7.765260E-10 -3.259951E+03  7.296203E-11
        14  24  9.896122E+05  2.409175E+02  9.706017E+03 -6.017662E-10  1.786863E+03  1.685629E-10
        14  25  9.896102E+05  3.204820E+03  1.436912E+04 -1.749673E+03 -8.306849E+03  2.337522E-02
        14  26  9.890115E+05  6.359267E+02  1.012489E+04 -8.134523E+02 -3.259951E+03  4.264872E-03
        14  27  9.896122E+05  2.409176E+02  9.706017E+03  1.227546E+02  1.786863E+03  3.527700E-04
        15   1  9.897854E+05  2.300174E+02  1.063904E+04  6.217683E+02 -3.544782E+03 -3.544707E-03
        15   2  9.887931E+05  1.365181E+03  1.525977E+04 -1.276787E+03 -1.116494E+04  2.292652E-02
        15   3  9.897799E+05  6.455470E+03  2.582471E+04 -3.175365E+03 -1.878528E+04  9.593434E-02
        15   4  9.897854E+05  2.300167E+02  1.063904E+04  3.093466E-10 -3.544782E+03  2.048579E-10
        15   5  9.887931E+05  1.365178E+03  1.525977E+04 -2.084085E-10 -1.116494E+04  9.054348E-11
        15   6  9.897799E+05  6.455451E+03  2.582471E+04 -1.136488E-09 -1.878528E+04  4.025715E-11
        15   7  9.897854E+05  2.300174E+02  1.063904E+04 -6.217683E+02 -3.544782E+03  3.544707E-03
        15   8  9.887931E+05  1.365181E+03  1.525977E+04  1.276787E+03 -1.116494E+04 -2.292652E-02
        15   9  9.897799E+05  6.455470E+03  2.582471E+04  3.175365E+03 -1.878528E+04 -9.593434E-02
        15  10  9.897854E+05  2.300141E+02  1.063901E+04  6.217683E+02  4.912691E-10  3.074530E-10
        15  11  9.887930E+05  1.365148E+03  1.525954E+04 -1.276787E+03 -4.321391E-11  1.581349E-10
        15  12  9.897795E+05  6.455375E+03  2.582405E+04 -3.175365E+03  1.026392E-10  1.366172E-10
        15  13  9.897854E+05  2.300133E+02  1.063901E+04 -2.526159E-11 -1.142788E-10  1.951880E-10
        15  14  9.887930E+05  1.365145E+03  1.525954E+04 -2.189333E-10 -4.941987E-10  1.482893E-10
        15  15  9.897795E+05  6.455357E+03  2.582405E+04 -2.542140E-11 -2.195446E-11  1.532555E-10
        15  16  9.897854E+05  2.300141E+02  1.063901E+04 -6.217683E+02 -3.102792E-10  1.186090E-10
        15  17  9.887930E+05  1.365148E+03  1.525954E+04  1.276787E+03 -2.364047E-10  6.947697E-11
        15  18  9.897795E+05  6.455375E+03  2.582405E+04  3.175365E+03 -1.668566E-10  1.880116E-10
        15  19  9.897854E+05  2.300174E+02  1.063904E+04  6.217683E+02  3.544782E+03  3.544707E-03
        15  20  9.887931E+05  1.365181E+03  1.525977E+04 -1.276787E+03  1.116494E+04 -2.292652E-02
        15  21  9.897799E+05  6.455470E+03  2.582471E+04 -3.175365E+03  1.878528E+04 -9.593434E-02
        15  22  9.897854E+05  2.300167E+02  1.063904E+04 -7.386328E-10  3.544782E+03  1.944423E-10
        15  23  9.887931E+05  1.365178E+03  1.525977E+04 -2.294572E-10  1.116494E+04  1.925050E-10
        15  24  9.897799E+05  6.455451E+03  2.582471E+04 -9.218340E-10  1.878528E+04  2.751509E-10
        15  25  9.897854E+05  2.300174E+02  1.063904E+04 -6.217683E+02  3.544782E+03 -3.544707E-03
        15  26  9.887931E+05  1.365181E+03  1.525977E+04  1.276787E+03  1.116494E+04  2.292652E-02
        15  27  9.897799E+05  6.455470E+03  2.582471E+04  3.175365E+03  1.878528E+04  9.593434E-02
        16   1  9.934702E+05  7.000171E+03  3.367567E+04  2.783114E+03 -2.320722E+04 -1.038759E-01
        16   2  9.841596E+05  3.078751E+04  6.081867E+04 -3.516374E+04 -5.444531E+04  3.079101E+00
        16   3  9.934241E+05  1.126425E+05  1.227953E+05 -7.311169E+04 -8.568350E+04  1.007512E+01
        16   4  9.934702E+05  7.000156E+03  3.367567E+04  1.204025E-09 -2.320722E+04 -4.777744E-11
        16   5  9.841583E+05  3.078519E+04  6.081834E+04  3.179028E-10 -5.444531E+04 -1.350502E-10
        16   6  9.934183E+05  1.126325E+05  1.227939E+05 -3.115036E-10 -8.568350E+04 -4.743853E-11
        16   7  9.934702E+05  7.000171E+03  3.367567E+04 -2.783114E+03 -2.320722E+04  1.038759E-01
        16   8  9.841596E+05  3.078751E+04  6.081867E+04  3.516374E+04 -5.444531E+04 -3.079101E+00
        16   9  9.934241E+05  1.126425E+05  1.227953E+05  7.311169E+04 -8.568350E+04 -1.007512E+01
        16  10  9.934696E+05  7.000027E+03  3.367466E+04  2.783114E+03 -2.261020E-11  6.699267E-11
        16  11  9.841564E+05  3.078671E+04  6.081311E+04 -3.516374E+04  1.670812E-10  4.404749E-11
        16  12  9.934162E+05  1.126405E+05  1.227815E+05 -7.311169E+04 -1.582980E-10  1.799831E-11
        16  13  9.934696E+05  7.000012E+03  3.367465E+04  1.347066E-09  2.777784E-10  1.151030E-10
        16  14  9.841551E+05  3.078439E+04  6.081277E+04  3.283966E-10  2.257360E-10 -4.940863E-12
        16  15  9.934104E+05  1.126305E+05  1.227801E+05 -4.798523E-10  8.666827E-11 -1.513240E-11
        16  16  9.934696E+05  7.000027E+03  3.367466E+04 -2.783114E+03 -2.015777E-10  1.418953E-10
        16  17  9.841564E+05  3.078671E+04  6.081311E+04  3.516374E+04 -2.382310E-10 -2.574925E-11
        16  18  9.934162E+05  1.126405E+05  1.227815E+05  7.311169E+04 -4.231312E-11 -3.479886E-11
        16  19  9.934702E+05  7.000171E+03  3.367567E+04  2.783114E+03  2.320722E+04  1.038759E-01
        16  20  9.841596E+05  3.078751E+04  6.081867E+04 -3.516374E+04  5.444531E+04 -3.079101E+00
        16  21  9.934241E+05  1.126425E+05  1.227953E+05 -7.311169E+04  8.568350E+04 -1.007512E+01
        16  22  9.934702E+05  7.000156E+03  3.367567E+04  4.064012E-10  2.320722E+04  2.745697E-10
        16  23  9.841583E+05  3.078519E+04  6.081834E+04  3.473223E-10  5.444531E+04  1.276834E-10
        16  24  9.934183E+05  1.126325E+05  1.227939E+05 -2.988688E-10  8.568350E+04  1.776273E-11
        16  25  9.934702E+05  7.000171E+03  3.367567E+04 -2.783114E+03  2.320722E+04 -1.038759E-01
        16  26  9.841596E+05  3.078751E+04  6.081867E+04  3.516374E+04  5.444531E+04  3.079101E+00
        16  27  9.934241E+05  1.126425E+05  1.227953E+05  7.311169E+04  8.568350E+04  1.007512E+01
        17   1 -3.487872E+05 -9.610328E+05 -3.623168E+05  2.316615E+05 -6.659399E+03 -2.023733E+05
        17   2 -1.665350E+05 -8.607705E+05 -2.058351E+05  1.508926E+05 -2.131732E+04 -1.173367E+05
        17   3 -1.008156E+05 -8.007168E+05 -1.338903E+05  8.520281E+04 -2.372339E+04 -3.228412E+04
        17   4 -2.174280E+05 -4.291578E+05 -2.374782E+05  9.048805E+04 -6.606092E+03 -1.624895E+05
        17   5 -5.938694E+04 -4.110687E+05 -1.199258E+05  8.291817E+04 -2.129928E+04 -1.009380E+05
        17   6 -1.376739E+04 -4.290917E+05 -7.055445E+04  9.044138E+04 -2.372461E+04 -3.938497E+04
        17   7 -8.601310E+04  1.030244E+05 -1.126423E+05 -5.080729E+04 -6.570982E+03 -1.225717E+05
        17   8  4.776674E+04  3.883883E+04 -3.402210E+04  1.489329E+04 -2.128484E+04 -8.452771E+04
        17   9  7.327363E+04 -5.733040E+04 -7.222959E+03  9.568317E+04 -2.372594E+04 -4.648994E+04
        17  10 -3.487983E+05 -9.610769E+05 -3.623940E+05  2.316604E+05 -1.079406E-10 -5.582353E-10
        17  11 -1.665392E+05 -8.607855E+05 -2.058618E+05  1.508906E+05  1.409223E-10  2.564224E-10
        17  12 -1.008165E+05 -8.007181E+05 -1.338933E+05  8.520220E+04  3.723514E-10  1.042428E-09
        17  13 -2.174352E+05 -4.291862E+05 -2.375279E+05  9.048718E+04 -9.491021E-11  2.811431E-12
        17  14 -5.939016E+04 -4.110797E+05 -1.199458E+05  8.291644E+04  7.815310E-11  1.986278E-11
        17  15 -1.376841E+04 -4.290935E+05 -7.055843E+04  9.044063E+04  7.403763E-11  2.758409E-11
        17  16 -8.601718E+04  1.030082E+05 -1.126706E+05 -5.080794E+04  3.488618E-11  5.654967E-10
        17  17  4.776433E+04  3.883104E+04 -3.403638E+04  1.489184E+04 -3.297634E-10 -2.309769E-10
        17  18  7.327244E+04 -5.733287E+04 -7.228078E+03  9.568228E+04  1.612414E-10 -1.040362E-09
        17  19 -3.487872E+05 -9.610328E+05 -3.623168E+05  2.316615E+05  6.659399E+03  2.023733E+05
        17  20 -1.665350E+05 -8.607705E+05 -2.058351E+05  1.508926E+05  2.131732E+04  1.173367E+05
        17  21 -1.008156E+05 -8.007168E+05 -1.338903E+05  8.520281E+04  2.372339E+04  3.228412E+04
        17  22 -2.174280E+05 -4.291578E+05 -2.374782E+05  9.048805E+04  6.606092E+03  1.624895E+05
        17  23 -5.938694E+04 -4.110687E+05 -1.199258E+05  8.291817E+04  2.129928E+04  1.009380E+05
        17  24 -1.376739E+04 -4.290917E+05 -7.055445E+04  9.044138E+04  2.372461E+04  3.938497E+04
        17  25 -8.601310E+04  1.030244E+05 -1.126423E+05 -5.080729E+04  6.570982E+03  1.225717E+05
        17  26  4.776674E+04  3.883883E+04 -3.402210E+04  1.489329E+04  2.128484E+04  8.452771E+04
        17  27  7.327363E+04 -5.733040E+04 -7.222959E+03  9.568317E+04  2.372594E+04  4.648994E+04
        18   1 -8.746622E+04 -7.423978E+05 -1.110611E+05  9.748428E+04 -2.118986E+04 -2.324452E+04
        18   2 -6.019154E+04 -6.591638E+05 -8.186253E+04  8.330832E+04 -1.723744E+04  5.994469E+02
        18   3 -4.569237E+04 -5.822291E+05 -7.139346E+04  8.507440E+04 -1.216406E+04  2.444545E+04
        18   4 -1.270877E+04 -4.223815E+05 -5.747732E+04  9.063200E+04 -2.119085E+04 -2.974425E+04
        18   5 -4.525380E+03 -4.194091E+05 -4.343179E+04  8.265969E+04 -1.724009E+04 -8.042588E+03
        18   6 -8.741775E+03 -4.223673E+05 -4.662131E+04  9.062985E+04 -1.216812E+04  1.365821E+04
        18   7  6.204353E+04 -1.022639E+05 -3.896554E+03  8.377605E+04 -2.119171E+04 -3.624721E+04
        18   8  5.113793E+04 -1.795972E+05 -5.002291E+03  8.201080E+04 -1.724273E+04 -1.668784E+04
        18   9  2.820775E+04 -2.624797E+05 -2.184929E+04  9.618677E+04 -1.217238E+04  2.868292E+03
        18  10 -8.746685E+04 -7.423985E+05 -1.110629E+05  9.748388E+04  3.122905E-10 -1.737007E-10
        18  11 -6.019186E+04 -6.591639E+05 -8.186309E+04  8.330833E+04  1.648485E-11  1.775314E-10
        18  12 -4.569269E+04 -5.822298E+05 -7.139486E+04  8.507464E+04  1.760560E-10  4.306197E-10
        18  13 -1.270949E+04 -4.223826E+05 -5.747982E+04  9.063149E+04  7.526306E-10  2.525205E-11
        18  14 -4.525717E+03 -4.194093E+05 -4.343247E+04  8.265958E+04  5.370541E-10  7.376615E-11
        18  15 -8.741984E+03 -4.223676E+05 -4.662194E+04  9.062998E+04  7.936551E-10  4.595771E-11
        18  16  6.204269E+04 -1.022655E+05 -3.899867E+03  8.377543E+04  6.372153E-10  1.500049E-10
        18  17  5.113754E+04 -1.795975E+05 -5.003373E+03  8.201057E+04  5.661585E-10 -1.349622E-10
        18  18  2.820759E+04 -2.624797E+05 -2.184958E+04  9.618680E+04  4.164696E-10 -4.441749E-10
        18  19 -8.746622E+04 -7.423978E+05 -1.110611E+05  9.748428E+04  2.118986E+04  2.324452E+04
        18  20 -6.019154E+04 -6.591638E+05 -8.186253E+04  8.330832E+04  1.723744E+04 -5.994469E+02
        18  21 -4.569237E+04 -5.822291E+05 -7.139346E+04  8.507440E+04  1.216406E+04 -2.444545E+04
        18  22 -1.270877E+04 -4.223815E+05 -5.747732E+04  9.063200E+04  2.119085E+04  2.974425E+04
        18  23 -4.525380E+03 -4.194091E+05 -4.343179E+04  8.265969E+04  1.724009E+04  8.042588E+03
        18  24 -8.741775E+03 -4.223673E+05 -4.662131E+04  9.062985E+04  1.216812E+04 -1.365821E+04
        18  25  6.204353E+04 -1.022639E+05 -3.896554E+03  8.377605E+04  2.119171E+04  3.624721E+04
        18  26  5.113793E+04 -1.795972E+05 -5.002291E+03  8.201080E+04  1.724273E+04  1.668784E+04
        18  27  2.820775E+04 -2.624797E+05 -2.184929E+04  9.618677E+04  1.217238E+04 -2.868292E+03
        19   1 -3.448391E+04 -5.353014E+05 -6.962993E+04  9.377826E+04 -8.770416E+03  3.214052E+04
        19   2 -4.642217E+04 -4.430764E+05 -8.614185E+04  3.624232E+04 -3.910088E+03  7.210069E+04
        19   3 -1.342259E+05 -3.750223E+05 -1.476443E+05 -5.365536E+03 -6.258780E+02  1.120652E+05
        19   4 -9.476772E+03 -4.265359E+05 -5.340468E+04  9.062282E+04 -8.775157E+03  2.133211E+04
        19   5 -4.013795E+04 -4.141941E+05 -8.383211E+04  8.268168E+04 -3.908066E+03  6.430520E+04
        19   6 -1.471966E+05 -4.265626E+05 -1.613465E+05  9.067238E+04 -6.106717E+02  1.072779E+05
        19   7  1.552991E+04 -3.177581E+05 -3.717921E+04  8.746680E+04 -8.779788E+03  1.052187E+04
        19   8 -3.384560E+04 -3.853062E+05 -8.152096E+04  1.291233E+05 -3.907212E+03  5.650938E+04
        19   9 -1.601329E+05 -4.780807E+05 -1.750438E+05  1.867024E+05 -5.969463E+02  1.024909E+05
        19  10 -3.448427E+04 -5.353026E+05 -6.963202E+04  9.377848E+04  3.067737E-10 -6.202909E-10
        19  11 -4.642358E+04 -4.430820E+05 -8.615165E+04  3.624254E+04  1.552038E-10 -1.830409E-10
        19  12 -1.342292E+05 -3.750358E+05 -1.476680E+05 -5.365480E+03  5.678649E-11  2.555880E-10
        19  13 -9.476977E+03 -4.265364E+05 -5.340568E+04  9.062297E+04  1.709671E-10  6.207435E-11
        19  14 -4.013907E+04 -4.141986E+05 -8.383992E+04  8.268188E+04 -5.940551E-11  5.605124E-12
        19  15 -1.471997E+05 -4.265750E+05 -1.613681E+05  9.067243E+04 -1.840038E-10  5.537969E-11
        19  16  1.552979E+04 -3.177582E+05 -3.717956E+04  8.746688E+04 -1.526828E-10  6.412948E-10
        19  17 -3.384648E+04 -3.853096E+05 -8.152700E+04  1.291235E+05 -1.169197E-10  1.989091E-10
        19  18 -1.601358E+05 -4.780920E+05 -1.750635E+05  1.867024E+05  2.685777E-11 -2.732531E-10
        19  19 -3.448391E+04 -5.353014E+05 -6.962993E+04  9.377826E+04  8.770416E+03 -3.214052E+04
        19  20 -4.642217E+04 -4.430764E+05 -8.614185E+04  3.624232E+04  3.910088E+03 -7.210069E+04
        19  21 -1.342259E+05 -3.750223E+05 -1.476443E+05 -5.365536E+03  6.258780E+02 -1.120652E+05
        19  22 -9.476772E+03 -4.265359E+05 -5.340468E+04  9.062282E+04  8.775157E+03 -2.133211E+04
        19  23 -4.013795E+04 -4.141941E+05 -8.383211E+04  8.268168E+04  3.908066E+03 -6.430520E+04
        19  24 -1.471966E+05 -4.265626E+05 -1.613465E+05  9.067238E+04  6.106717E+02 -1.072779E+05
        19  25  1.552991E+04 -3.177581E+05 -3.717921E+04  8.746680E+04  8.779788E+03 -1.052187E+04
        19  26 -3.384560E+04 -3.853062E+05 -8.152096E+04  1.291233E+05  3.907212E+03 -5.650938E+04
        19  27 -1.601329E+05 -4.780807E+05 -1.750438E+05  1.867024E+05  5.969463E+02 -1.024909E+05
        20   1  1.496228E+05 -8.166172E+04 -1.169164E+05  1.274336E+05 -3.946470E+04 -2.294773E+04
        20   2  1.882207E+05 -3.034600E+04 -7.783878E+04  1.449782E+05 -2.816477E+04  5.614507E+02
        20   3  2.289561E+05  9.674470E+02 -5.679613E+04  1.623756E+05 -1.106853E+04  1.634722E+04
        20   4  4.460771E+05  1.468408E+05 -1.833953E+04  2.827194E+05 -1.356376E+04 -3.528532E+03
        20   5  4.462434E+05  1.602892E+05 -8.954249E+03  2.790071E+05 -1.709710E+04  8.857836E+03
        20   6  4.517655E+05  1.569539E+05 -4.730957E+03  2.751448E+05 -1.483752E+04  1.352076E+04
        20   7  7.426314E+05  3.754067E+05  8.023109E+04  4.380950E+05  1.235440E+04  1.590499E+04
        20   8  7.043463E+05  3.509716E+05  5.992671E+04  4.131036E+05 -6.023081E+03  1.715928E+04
        20   9  6.746367E+05  3.129732E+05  4.733259E+04  3.879627E+05 -1.860839E+04  1.069290E+04
        20  10  1.496209E+05 -8.166271E+04 -1.169203E+05  1.274329E+05 -9.958955E-09 -7.276352E-09
        20  11  1.882198E+05 -3.034621E+04 -7.784027E+04  1.449783E+05  1.093710E-08  7.581491E-09
        20  12  2.289559E+05  9.671270E+02 -5.679686E+04  1.623758E+05  2.021661E-08  1.272721E-08
        20  13  4.460769E+05  1.468408E+05 -1.833990E+04  2.827193E+05  4.113299E-09  2.965410E-09
        20  14  4.462431E+05  1.602890E+05 -8.954946E+03  2.790072E+05  1.038830E-08  7.499283E-09
        20  15  4.517653E+05  1.569537E+05 -4.731714E+03  2.751449E+05  3.493315E-09  2.984048E-09
        20  16  7.426312E+05  3.754064E+05  8.023033E+04  4.380949E+05  1.809006E-08  1.327644E-08
        20  17  7.043461E+05  3.509713E+05  5.992608E+04  4.131037E+05  1.063154E-08  7.403764E-09
        20  18  6.746363E+05  3.129730E+05  4.733172E+04  3.879628E+05 -1.123702E-08 -6.797868E-09
        20  19  1.496228E+05 -8.166172E+04 -1.169164E+05  1.274336E+05  3.946470E+04  2.294773E+04
        20  20  1.882207E+05 -3.034600E+04 -7.783878E+04  1.449782E+05  2.816477E+04 -5.614507E+02
        20  21  2.289561E+05  9.674470E+02 -5.679613E+04  1.623756E+05  1.106853E+04 -1.634722E+04
        20  22  4.460771E+05  1.468408E+05 -1.833953E+04  2.827194E+05  1.356376E+04  3.528532E+03
        20  23  4.462434E+05  1.602892E+05 -8.954249E+03  2.790071E+05  1.709710E+04 -8.857836E+03
        20  24  4.517655E+05  1.569539E+05 -4.730957E+03  2.751448E+05  1.483752E+04 -1.352076E+04
        20  25  7.426314E+05  3.754067E+05  8.023109E+04  4.380950E+05 -1.235440E+04 -1.590499E+04
        20  26  7.043463E+05  3.509716E+05  5.992671E+04  4.131036E+05  6.023081E+03 -1.715928E+04
        20  27  6.746367E+05  3.129732E+05  4.733259E+04  3.879627E+05  1.860839E+04 -1.069290E+04
        21   1  2.569958E+05  1.906569E+04 -4.847949E+04  1.757539E+05 -9.940059E+03  1.504216E+04
        21   2  2.930314E+05  5.455583E+04 -3.569635E+04  1.979947E+05 -6.139157E+03  1.450178E+04
        21   3  3.392417E+05  7.839781E+04 -2.490572E+04  2.172203E+05 -1.730110E+03  1.314971E+04
        21   4  4.522969E+05  1.570720E+05 -3.444345E+03  2.753367E+05 -1.332920E+04  1.250080E+04
        21   5  4.472128E+05  1.630309E+05 -1.532531E+03  2.766192E+05 -1.108720E+04  1.079243E+04
        21   6  4.526406E+05  1.576795E+05 -2.606011E+02  2.748854E+05 -8.237312E+03  8.272392E+03
        21   7  6.476383E+05  2.950990E+05  4.158721E+04  3.749539E+05 -1.671970E+04  9.958418E+03
        21   8  6.014207E+05  2.715196E+05  3.262964E+04  3.552657E+05 -1.603683E+04  7.081884E+03
        21   9  5.660547E+05  2.369692E+05  2.438414E+04  3.325628E+05 -1.474609E+04  3.393896E+03
        21  10  2.569957E+05  1.906542E+04 -4.848011E+04  1.757540E+05  1.944479E-09 -8.155085E-10
        21  11  2.930313E+05  5.455559E+04 -3.569682E+04  1.979948E+05  5.914328E-10  1.982025E-10
        21  12  3.392417E+05  7.839763E+04 -2.490606E+04  2.172203E+05 -7.022637E-11  4.456093E-10
        21  13  4.522966E+05  1.570718E+05 -3.444973E+03  2.753368E+05 -5.724730E-10  5.283508E-11
        21  14  4.472127E+05  1.630307E+05 -1.532981E+03  2.766193E+05 -6.525466E-10  9.920104E-11
        21  15  4.526405E+05  1.576794E+05 -2.608573E+02  2.748855E+05 -3.990752E-10  2.498994E-10
        21  16  6.476380E+05  2.950988E+05  4.158650E+04  3.749540E+05 -2.288128E-09  9.031175E-10
        21  17  6.014204E+05  2.715194E+05  3.262907E+04  3.552658E+05 -1.031613E-09  1.775033E-10
        21  18  5.660544E+05  2.369691E+05  2.438371E+04  3.325629E+05 -8.365200E-10  7.488174E-11
        21  19  2.569958E+05  1.906569E+04 -4.847949E+04  1.757539E+05  9.940059E+03 -1.504216E+04
        21  20  2.930314E+05  5.455583E+04 -3.569635E+04  1.979947E+05  6.139157E+03 -1.450178E+04
        21  21  3.392417E+05  7.839781E+04 -2.490572E+04  2.172203E+05  1.730110E+03 -1.314971E+04
        21  22  4.522969E+05  1.570720E+05 -3.444345E+03  2.753367E+05  1.332920E+04 -1.250080E+04
        21  23  4.472128E+05  1.630309E+05 -1.532531E+03  2.766192E+05  1.108720E+04 -1.079243E+04
        21  24  4.526406E+05  1.576795E+05 -2.606011E+02  2.748854E+05  8.237312E+03 -8.272392E+03
        21  25  6.476383E+05  2.950990E+05  4.158721E+04  3.749539E+05  1.671970E+04 -9.958418E+03
        21  26  6.014207E+05  2.715196E+05  3.262964E+04  3.552657E+05  1.603683E+04 -7.081884E+03
        21  27  5.660547E+05  2.369692E+05  2.438414E+04  3.325628E+05  1.474609E+04 -3.393896E+03
        22   1  3.655643E+05  9.679776E+04 -1.840943E+04  2.305910E+05 -2.792006E+02  1.111538E+04
        22   2  4.012065E+05  1.311535E+05 -8.217103E+03  2.531230E+05  1.679639E+03  7.305304E+03
        22   3  4.478885E+05  1.546987E+05  2.468822E+03  2.724733E+05  3.656847E+03  3.470306E+03
        22   4  4.527025E+05  1.576899E+05  3.070110E+02  2.749264E+05 -6.748530E+03  6.266694E+03
        22   5  4.472138E+05  1.631518E+05  1.569426E+03  2.764735E+05 -4.837689E+03  2.420826E+03
        22   6  4.527723E+05  1.578122E+05  3.366555E+03  2.748367E+05 -2.908446E+03 -1.449883E+03
        22   7  5.398516E+05  2.185880E+05  1.902397E+04  3.192700E+05 -1.321920E+04  1.417011E+03
        22   8  4.932238E+05  1.951515E+05  1.135611E+04  2.998259E+05 -1.135566E+04 -2.464127E+03
        22   9  4.576562E+05  1.609257E+05  4.264508E+03  2.772002E+05 -9.473678E+03 -6.370019E+03
        22  10  3.655643E+05  9.679762E+04 -1.840966E+04  2.305910E+05  2.325767E-10  4.680865E-10
        22  11  4.012065E+05  1.311534E+05 -8.217209E+03  2.531230E+05  1.875487E-10  4.175412E-10
        22  12  4.478885E+05  1.546987E+05  2.468774E+03  2.724733E+05  3.644229E-10  3.671734E-10
        22  13  4.527025E+05  1.576898E+05  3.068515E+02  2.749265E+05 -6.253147E-11  2.449169E-10
        22  14  4.472138E+05  1.631518E+05  1.569371E+03  2.764735E+05 -5.463695E-10  1.392508E-10
        22  15  4.527723E+05  1.578122E+05  3.366536E+03  2.748367E+05  2.315996E-10  1.300164E-10
        22  16  5.398515E+05  2.185880E+05  1.902364E+04  3.192700E+05 -3.633340E-10  7.046041E-11
        22  17  4.932237E+05  1.951515E+05  1.135586E+04  2.998259E+05 -5.388945E-10 -5.129366E-11
        22  18  4.576561E+05  1.609256E+05  4.264263E+03  2.772002E+05 -1.319140E-10 -2.293197E-10
        22  19  3.655643E+05  9.679776E+04 -1.840943E+04  2.305910E+05  2.792006E+02 -1.111538E+04
        22  20  4.012065E+05  1.311535E+05 -8.217103E+03  2.531230E+05 -1.679639E+03 -7.305304E+03
        22  21  4.478885E+05  1.546987E+05  2.468822E+03  2.724733E+05 -3.656847E+03 -3.470306E+03
        22  22  4.527025E+05  1.576899E+05  3.070110E+02  2.749264E+05  6.748530E+03 -6.266694E+03
        22  23  4.472138E+05  1.631518E+05  1.569426E+03  2.764735E+05  4.837689E+03 -2.420826E+03
        22  24  4.527723E+05  1.578122E+05  3.366555E+03  2.748367E+05  2.908446E+03  1.449883E+03
        22  25  5.398516E+05  2.185880E+05  1.902397E+04  3.192700E+05  1.321920E+04 -1.417011E+03
        22  26  4.932238E+05  1.951515E+05  1.135611E+04  2.998259E+05  1.135566E+04  2.464127E+03
        22  27  4.576562E+05  1.609257E+05  4.264508E+03  2.772002E+05  9.473678E+03  6.370019E+03
        23   1  4.739371E+05  1.734755E+05  9.599947E+03  2.860120E+05  4.643477E+03  1.059048E+03
        23   2  5.106489E+05  2.069257E+05  2.264427E+04  3.075237E+05  2.547655E+03 -5.420290E+03
        23   3  5.600744E+05  2.316761E+05  3.996481E+04  3.252592E+05  2.265066E+01 -1.132761E+04
        23   4  4.529011E+05  1.578916E+05  4.604898E+03  2.749550E+05 -1.946059E+03 -3.879314E+03
        23   5  4.473724E+05  1.636236E+05  8.380052E+03  2.758960E+05 -2.941893E+03 -9.534548E+03
        23   6  4.543176E+05  1.604167E+05  1.547810E+04  2.730591E+05 -4.366568E+03 -1.461748E+04
        23   7  4.318657E+05  1.423081E+05 -3.899294E+02  2.638985E+05 -8.535304E+03 -8.817442E+03
        23   8  3.841001E+05  1.203235E+05 -5.884442E+03  2.442716E+05 -8.430753E+03 -1.364831E+04
        23   9  3.485715E+05  8.916197E+04 -9.009927E+03  2.208681E+05 -8.754876E+03 -1.790671E+04
        23  10  4.739371E+05  1.734755E+05  9.599904E+03  2.860120E+05  4.040325E-10  3.516969E-10
        23  11  5.106488E+05  2.069256E+05  2.264420E+04  3.075237E+05  6.261281E-10 -5.603261E-11
        23  12  5.600744E+05  2.316760E+05  3.996457E+04  3.252592E+05  4.036854E-12 -2.463267E-10
        23  13  4.529011E+05  1.578916E+05  4.604863E+03  2.749550E+05  3.438439E-11 -1.435549E-11
        23  14  4.473724E+05  1.636235E+05  8.379865E+03  2.758959E+05 -5.681569E-10 -7.537611E-11
        23  15  4.543175E+05  1.604165E+05  1.547767E+04  2.730591E+05  8.172402E-11 -3.599972E-11
        23  16  4.318656E+05  1.423080E+05 -3.902121E+02  2.638984E+05 -3.216660E-10 -3.426387E-10
        23  17  3.841000E+05  1.203233E+05 -5.884925E+03  2.442715E+05 -1.334000E-10 -1.825422E-10
        23  18  3.485713E+05  8.916161E+04 -9.010673E+03  2.208680E+05  4.751977E-11  2.083017E-10
        23  19  4.739371E+05  1.734755E+05  9.599947E+03  2.860120E+05 -4.643477E+03 -1.059048E+03
        23  20  5.106489E+05  2.069257E+05  2.264427E+04  3.075237E+05 -2.547655E+03  5.420290E+03
        23  21  5.600744E+05  2.316761E+05  3.996481E+04  3.252592E+05 -2.265066E+01  1.132761E+04
        23  22  4.529011E+05  1.578916E+05  4.604898E+03  2.749550E+05  1.946059E+03  3.879314E+03
        23  23  4.473724E+05  1.636236E+05  8.380052E+03  2.758960E+05  2.941893E+03  9.534548E+03
        23  24  4.543176E+05  1.604167E+05  1.547810E+04  2.730591E+05  4.366568E+03  1.461748E+04
        23  25  4.318657E+05  1.423081E+05 -3.899294E+02  2.638985E+05  8.535304E+03  8.817442E+03
        23  26  3.841001E+05  1.203235E+05 -5.884442E+03  2.442716E+05  8.430753E+03  1.364831E+04
        23  27  3.485715E+05  8.916197E+04 -9.009927E+03  2.208681E+05  8.754876E+03  1.790671E+04
        24   1  5.845498E+05  2.550606E+05  5.170188E+04  3.406852E+05 -6.538640E+02 -1.429982E+04
        24   2  6.444761E+05  2.740313E+05  8.332295E+04  3.457205E+05 -2.694469E+04 -3.350769E+04
        24   3  7.375774E+05  3.122064E+05  1.457509E+05  3.358755E+05 -5.735097E+04 -4.723164E+04
        24   4  4.558207E+05  1.615593E+05  2.054601E+04  2.740421E+05 -5.311226E+03 -1.779083E+04
        24   5  4.522168E+05  1.741829E+05  3.772461E+04  2.656659E+05 -2.105510E+04 -2.909535E+04
        24   6  4.795044E+05  2.037327E+05  7.657075E+04  2.424086E+05 -4.091119E+04 -3.491520E+04
        24   7  3.271137E+05  6.807083E+04 -1.060992E+04  2.074165E+05 -9.967204E+03 -2.128076E+04
        24   8  2.600021E+05  7.434622E+04 -7.875238E+03  1.856367E+05 -1.516806E+04 -2.468428E+04
        24   9  2.215074E+05  9.526990E+04  7.387429E+03  1.489755E+05 -2.448096E+04 -2.260215E+04
        24  10  5.845497E+05  2.550604E+05  5.170150E+04  3.406852E+05  1.953536E-10  1.415116E-10
        24  11  6.444750E+05  2.740299E+05  8.331948E+04  3.457198E+05  4.626864E-11  7.983872E-11
        24  12  7.375732E+05  3.122032E+05  1.457405E+05  3.358734E+05 -3.905456E-11 -2.410262E-11
        24  13  4.558206E+05  1.615589E+05  2.054536E+04  2.740420E+05  3.054938E-10  1.262525E-11
        24  14  4.522161E+05  1.741819E+05  3.772218E+04  2.656654E+05  9.667794E-11 -2.864445E-11
        24  15  4.795023E+05  2.037309E+05  7.656532E+04  2.424075E+05  2.510412E-10 -4.470788E-11
        24  16  3.271134E+05  6.807032E+04 -1.061095E+04  2.074164E+05 -3.890799E-10 -1.243801E-10
        24  17  2.600017E+05  7.434551E+04 -7.876815E+03  1.856364E+05  5.563439E-11 -1.404964E-10
        24  18  2.215066E+05  9.526919E+04  7.385343E+03  1.489750E+05  2.504307E-10 -8.142862E-12
        24  19  5.845498E+05  2.550606E+05  5.170188E+04  3.406852E+05  6.538640E+02  1.429982E+04
        24  20  6.444761E+05  2.740313E+05  8.332295E+04  3.457205E+05  2.694469E+04  3.350769E+04
        24  21  7.375774E+05  3.122064E+05  1.457509E+05  3.358755E+05  5.735097E+04  4.723164E+04
        24  22  4.558207E+05  1.615593E+05  2.054601E+04  2.740421E+05  5.311226E+03  1.779083E+04
        24  23  4.522168E+05  1.741829E+05  3.772461E+04  2.656659E+05  2.105510E+04  2.909535E+04
        24  24  4.795044E+05  2.037327E+05  7.657075E+04  2.424086E+05  4.091119E+04  3.491520E+04
        24  25  3.271137E+05  6.807083E+04 -1.060992E+04  2.074165E+05  9.967204E+03  2.128076E+04
        24  26  2.600021E+05  7.434622E+04 -7.875238E+03  1.856367E+05  1.516806E+04  2.468428E+04
        24  27  2.215074E+05  9.526990E+04  7.387429E+03  1.489755E+05  2.448096E+04  2.260215E+04
        25   1  6.752886E+05  5.125607E+04  5.592820E+04  3.330017E+04  3.868684E+04  2.072933E+00
        25   2  6.710595E+05  1.399285E+04  2.794678E+04  1.604785E+04  2.433823E+04  6.284670E-01
        25   3  6.753033E+05  3.161951E+03  1.590791E+04 -1.203979E+03  9.989863E+03 -1.935315E-02
        25   4  6.752874E+05  5.125399E+04  5.592790E+04 -5.207564E-10  3.868684E+04 -6.396373E-11
        25   5  6.710592E+05  1.399236E+04  2.794671E+04  8.316331E-11  2.433823E+04 -1.840676E-10
        25   6  6.753033E+05  3.161949E+03  1.590791E+04 -3.133903E-10  9.989863E+03 -1.320042E-10
        25   7  6.752886E+05  5.125607E+04  5.592820E+04 -3.330017E+04  3.868684E+04 -2.072933E+00
        25   8  6.710595E+05  1.399285E+04  2.794678E+04 -1.604785E+04  2.433823E+04 -6.284670E-01
        25   9  6.753033E+05  3.161951E+03  1.590791E+04  1.203979E+03  9.989863E+03  1.935315E-02
        25  10  6.752870E+05  5.125567E+04  5.592539E+04  3.330017E+04  2.691562E-10 -3.428745E-11
        25  11  6.710588E+05  1.399269E+04  2.794567E+04  1.604785E+04  1.703550E-11 -5.393005E-11
        25  12  6.753032E+05  3.161925E+03  1.590772E+04 -1.203979E+03 -2.516252E-10  7.831416E-11
        25  13  6.752858E+05  5.125359E+04  5.592509E+04 -5.933633E-10 -1.818995E-10 -4.767211E-11
        25  14  6.710585E+05  1.399221E+04  2.794560E+04 -3.008139E-10 -8.418454E-12 -1.063764E-10
        25  15  6.753032E+05  3.161922E+03  1.590772E+04  1.221851E-10  2.520111E-10  7.116111E-12
        25  16  6.752870E+05  5.125567E+04  5.592539E+04 -3.330017E+04 -5.894254E-11 -6.970491E-11
        25  17  6.710588E+05  1.399269E+04  2.794567E+04 -1.604785E+04 -2.190597E-10 -1.465201E-10
        25  18  6.753032E+05  3.161925E+03  1.590772E+04  1.203979E+03  9.877534E-12 -6.137952E-11
        25  19  6.752886E+05  5.125607E+04  5.592820E+04  3.330017E+04 -3.868684E+04 -2.072933E+00
        25  20  6.710595E+05  1.399285E+04  2.794678E+04  1.604785E+04 -2.433823E+04 -6.284670E-01
        25  21  6.753033E+05  3.161951E+03  1.590791E+04 -1.203979E+03 -9.989863E+03  1.935315E-02
        25  22  6.752874E+05  5.125399E+04  5.592790E+04 -9.805421E-10 -3.868684E+04 -2.809639E-11
        25  23  6.710592E+05  1.399236E+04  2.794671E+04 -8.867816E-10 -2.433823E+04 -1.687706E-11
        25  24  6.753033E+05  3.161949E+03  1.590791E+04 -3.006900E-10 -9.989863E+03  1.488076E-10
        25  25  6.752886E+05  5.125607E+04  5.592820E+04 -3.330017E+04 -3.868684E+04  2.072933E+00
        25  26  6.710595E+05  1.399285E+04  2.794678E+04 -1.604785E+04 -2.433823E+04  6.284670E-01
        25  27  6.753033E+05  3.161951E+03  1.590791E+04  1.203979E+03 -9.989863E+03 -1.935315E-02
        26   1  6.736465E+05  2.907382E+03  1.255183E+04  1.532532E+03  7.853633E+03  1.936663E-02
        26   2  6.731369E+05  5.897655E+02  8.387508E+03  6.814969E+02  3.671109E+03  4.025644E-03
        26   3  6.736479E+05  1.787588E+02  7.420741E+03 -1.695511E+02 -5.114679E+02  1.395381E-04
        26   4  6.736465E+05  2.907378E+03  1.255183E+04 -8.057345E-10  7.853633E+03 -1.166067E-10
        26   5  6.731369E+05  5.897646E+02  8.387507E+03 -2.629477E-10  3.671109E+03 -1.558751E-10
        26   6  6.736479E+05  1.787587E+02  7.420741E+03 -4.670888E-10 -5.114679E+02 -8.835826E-11
        26   7  6.736465E+05  2.907382E+03  1.255183E+04 -1.532532E+03  7.853633E+03 -1.936663E-02
        26   8  6.731369E+05  5.897655E+02  8.387508E+03 -6.814969E+02  3.671109E+03 -4.025645E-03
        26   9  6.736479E+05  1.787588E+02  7.420741E+03  1.695511E+02 -5.114679E+02 -1.395383E-04
        26  10  6.736464E+05  2.907366E+03  1.255171E+04  1.532532E+03 -5.588718E-11  9.318744E-11
        26  11  6.731369E+05  5.897619E+02  8.387482E+03  6.814969E+02 -8.615869E-11  5.881964E-11
        26  12  6.736479E+05  1.787587E+02  7.420740E+03 -1.695511E+02  2.903626E-11  1.281216E-10
        26  13  6.736464E+05  2.907362E+03  1.255171E+04  3.914552E-10  1.732814E-10  6.409703E-11
        26  14  6.731369E+05  5.897610E+02  8.387482E+03  1.894139E-10  3.772461E-10  4.096968E-11
        26  15  6.736479E+05  1.787587E+02  7.420740E+03 -1.935684E-10  5.234835E-10  1.888401E-11
        26  16  6.736464E+05  2.907366E+03  1.255171E+04 -1.532532E+03  1.358626E-10  3.115105E-11
        26  17  6.731369E+05  5.897619E+02  8.387482E+03 -6.814969E+02  2.671707E-10 -8.132425E-12
        26  18  6.736479E+05  1.787587E+02  7.420740E+03  1.695511E+02  8.542549E-11 -9.897392E-11
        26  19  6.736465E+05  2.907382E+03  1.255183E+04  1.532532E+03 -7.853633E+03 -1.936663E-02
        26  20  6.731369E+05  5.897655E+02  8.387508E+03  6.814969E+02 -3.671109E+03 -4.025644E-03
        26  21  6.736479E+05  1.787588E+02  7.420741E+03 -1.695511E+02  5.114679E+02 -1.395379E-04
        26  22  6.736465E+05  2.907378E+03  1.255183E+04 -4.207030E-10 -7.853633E+03  2.391511E-10
        26  23  6.731369E+05  5.897646E+02  8.387507E+03  6.480881E-10 -3.671109E+03  2.399753E-10
        26  24  6.736479E+05  1.787587E+02  7.420741E+03 -2.588019E-10  5.114679E+02  1.298724E-10
        26  25  6.736465E+05  2.907382E+03  1.255183E+04 -1.532532E+03 -7.853633E+03  1.936663E-02
        26  26  6.731369E+05  5.897655E+02  8.387508E+03 -6.814969E+02 -3.671109E+03  4.025645E-03
        26  27  6.736479E+05  1.787588E+02  7.420741E+03  1.695511E+02  5.114679E+02  1.395381E-04
        27   1  6.737240E+05  1.739437E+02  7.830416E+03  3.886574E+02 -1.828783E+03 -1.143675E-03
        27   2  6.730412E+05  9.098884E+02  1.064229E+04 -8.848419E+02 -7.141241E+03  1.016749E-02
        27   3  6.737215E+05  4.334723E+03  1.758238E+04 -2.158339E+03 -1.245372E+04  4.325068E-02
        27   4  6.737240E+05  1.739435E+02  7.830415E+03 -2.251192E-10 -1.828783E+03  4.232668E-11
        27   5  6.730412E+05  9.098870E+02  1.064229E+04 -1.493909E-10 -7.141241E+03  1.747921E-10
        27   6  6.737215E+05  4.334714E+03  1.758238E+04 -4.420607E-11 -1.245372E+04  5.034650E-11
        27   7  6.737240E+05  1.739437E+02  7.830416E+03 -3.886574E+02 -1.828783E+03  1.143675E-03
        27   8  6.730412E+05  9.098884E+02  1.064229E+04  8.848419E+02 -7.141241E+03 -1.016749E-02
        27   9  6.737215E+05  4.334723E+03  1.758238E+04  2.158339E+03 -1.245372E+04 -4.325068E-02
        27  10  6.737240E+05  1.739428E+02  7.830409E+03  3.886574E+02  1.118669E-14  1.546132E-10
        27  11  6.730412E+05  9.098747E+02  1.064220E+04 -8.848419E+02  3.274368E-10  9.659393E-11
        27  12  6.737214E+05  4.334681E+03  1.758209E+04 -2.158339E+03  1.957524E-10 -1.234709E-10
        27  13  6.737240E+05  1.739426E+02  7.830409E+03 -1.514582E-10  5.133811E-10  3.624598E-11
        27  14  6.730412E+05  9.098733E+02  1.064220E+04 -2.104597E-11  2.021389E-11  6.142910E-11
        27  15  6.737214E+05  4.334673E+03  1.758208E+04  1.009480E-10  3.200144E-11  5.048185E-12
        27  16  6.737240E+05  1.739428E+02  7.830409E+03 -3.886574E+02  2.238730E-10 -8.751981E-11
        27  17  6.730412E+05  9.098747E+02  1.064220E+04  8.848419E+02  1.733265E-10  5.663888E-11
        27  18  6.737214E+05  4.334681E+03  1.758209E+04  2.158339E+03 -8.129327E-11  1.272563E-10
        27  19  6.737240E+05  1.739437E+02  7.830416E+03  3.886574E+02  1.828783E+03  1.143676E-03
        27  20  6.730412E+05  9.098884E+02  1.064229E+04 -8.848419E+02  7.141241E+03 -1.016749E-02
        27  21  6.737215E+05  4.334723E+03  1.758238E+04 -2.158339E+03  1.245372E+04 -4.325069E-02
        27  22  6.737240E+05  1.739435E+02  7.830415E+03 -2.398148E-10  1.828783E+03  3.672422E-11
        27  23  6.730412E+05  9.098870E+02  1.064229E+04 -1.746454E-10  7.141241E+03 -5.943345E-11
        27  24  6.737215E+05  4.334714E+03  1.758238E+04  3.780524E-11  1.245372E+04 -3.616062E-11
        27  25  6.737240E+05  1.739437E+02  7.830416E+03 -3.886574E+02  1.828783E+03 -1.143676E-03
        27  26  6.730412E+05  9.098884E+02  1.064229E+04  8.848419E+02  7.141241E+03  1.016749E-02
        27  27  6.737215E+05  4.334723E+03  1.758238E+04  2.158339E+03  1.245372E+04  4.325069E-02
        28   1  6.761988E+05  4.701820E+03  2.280774E+04  1.858032E+03 -1.546002E+04 -4.622063E-02
        28   2  6.699353E+05  2.070687E+04  4.098805E+04 -2.366532E+04 -3.651010E+04  1.390283E+00
        28   3  6.761776E+05  7.578811E+04  8.263250E+04 -4.918879E+04 -5.755992E+04  4.555781E+00
        28   4  6.761988E+05  4.701813E+03  2.280774E+04 -1.005851E-09 -1.546002E+04  2.029381E-11
        28   5  6.699347E+05  2.070582E+04  4.098790E+04  6.090694E-11 -3.651010E+04  9.460279E-11
        28   6  6.761750E+05  7.578356E+04  8.263185E+04 -4.945531E-10 -5.755992E+04  7.594244E-11
        28   7  6.761988E+05  4.701820E+03  2.280774E+04 -1.858032E+03 -1.546002E+04  4.622063E-02
        28   8  6.699353E+05  2.070687E+04  4.098805E+04  2.366532E+04 -3.651010E+04 -1.390283E+00
        28   9  6.761776E+05  7.578811E+04  8.263250E+04  4.918879E+04 -5.755992E+04 -4.555781E+00
        28  10  6.761985E+05  4.701756E+03  2.280729E+04  1.858032E+03 -2.513173E-11 -1.398250E-10
        28  11  6.699338E+05  2.070651E+04  4.098555E+04 -2.366532E+04 -8.170801E-11 -4.305060E-11
        28  12  6.761741E+05  7.578722E+04  8.262628E+04 -4.918879E+04  2.942052E-11 -1.411531E-11
        28  13  6.761985E+05  4.701749E+03  2.280729E+04 -2.231599E-10  5.480511E-10 -3.996850E-11
        28  14  6.699332E+05  2.070546E+04  4.098540E+04 -8.523905E-12 -3.208056E-10 -5.612714E-11
        28  15  6.761715E+05  7.578268E+04  8.262563E+04  1.261705E-10  9.505808E-11 -1.687040E-11
        28  16  6.761985E+05  4.701756E+03  2.280729E+04 -1.858032E+03  1.572286E-11  6.954521E-11
        28  17  6.699338E+05  2.070651E+04  4.098555E+04  2.366532E+04  3.022490E-11 -6.066747E-11
        28  18  6.761741E+05  7.578722E+04  8.262628E+04  4.918879E+04  2.333480E-10 -2.745896E-11
        28  19  6.761988E+05  4.701820E+03  2.280774E+04  1.858032E+03  1.546002E+04  4.622063E-02
        28  20  6.699353E+05  2.070687E+04  4.098805E+04 -2.366532E+04  3.651010E+04 -1.390283E+00
        28  21  6.761776E+05  7.578811E+04  8.263250E+04 -4.918879E+04  5.755992E+04 -4.555781E+00
        28  22  6.761988E+05  4.701813E+03  2.280774E+04 -3.725510E-10  1.546002E+04 -9.995069E-11
        28  23  6.699347E+05  2.070582E+04  4.098790E+04  4.775056E-10  3.651010E+04 -2.016429E-10
        28  24  6.761750E+05  7.578356E+04  8.263185E+04 -2.988550E-10  5.755992E+04 -1.132838E-10
        28  25  6.761988E+05  4.701820E+03  2.280774E+04 -1.858032E+03  1.546002E+04 -4.622063E-02
        28  26  6.699353E+05  2.070687E+04  4.098805E+04  2.366532E+04  3.651010E+04  1.390283E+00
        28  27  6.761776E+05  7.578811E+04  8.263250E+04  4.918879E+04  5.755992E+04  4.555781E+00
        29   1 -1.874108E+05 -5.240999E+05 -1.998911E+05  1.088636E+05 -1.895446E+03 -1.265859E+05
        29   2 -7.194120E+04 -5.032791E+05 -1.090354E+05  5.616450E+04 -6.379458E+03 -7.686952E+04
        29   3 -3.745497E+04 -5.091810E+05 -7.080480E+04  4.720801E+03 -7.868201E+03 -2.715103E+04
        29   4 -1.545893E+05 -3.909358E+05 -1.689261E+05  8.356082E+03 -1.874683E+03 -1.150867E+05
        29   5 -4.222102E+04 -3.780597E+05 -8.567862E+04  7.723033E+03 -6.373121E+03 -7.112530E+04
        29   6 -9.837441E+03 -3.909076E+05 -5.105358E+04  8.348809E+03 -7.868223E+03 -2.716312E+04
        29   7 -1.217310E+05 -2.577333E+05 -1.379563E+05 -9.217313E+04 -1.857650E+03 -1.035850E+05
        29   8 -1.249291E+04 -2.528201E+05 -6.232112E+04 -4.072846E+04 -6.367683E+03 -6.537995E+04
        29   9  1.777941E+04 -2.726203E+05 -3.130278E+04  1.197753E+04 -7.868245E+03 -2.717520E+04
        29  10 -1.874152E+05 -5.241171E+05 -1.999212E+05  1.088634E+05  1.622663E-10 -1.906981E-10
        29  11 -7.194283E+04 -5.032855E+05 -1.090466E+05  5.616411E+04 -1.935496E-10  9.973742E-11
        29  12 -3.745524E+04 -5.091818E+05 -7.080631E+04  4.720629E+03  2.801490E-10  2.918736E-10
        29  13 -1.545929E+05 -3.909500E+05 -1.689510E+05  8.355909E+03 -1.681355E-10 -9.200705E-12
        29  14 -4.222242E+04 -3.780652E+05 -8.568821E+04  7.722668E+03  8.294739E-11  1.144937E-13
        29  15 -9.837705E+03 -3.909084E+05 -5.105508E+04  8.348637E+03 -2.699647E-11  1.984554E-11
        29  16 -1.217339E+05 -2.577448E+05 -1.379765E+05 -9.217329E+04 -2.415508E-10  1.782387E-10
        29  17 -1.249410E+04 -2.528247E+05 -6.232923E+04 -4.072880E+04 -3.906296E-10 -8.793373E-11
        29  18  1.777915E+04 -2.726211E+05 -3.130429E+04  1.197736E+04 -2.547355E-10 -3.271058E-10
        29  19 -1.874108E+05 -5.240999E+05 -1.998911E+05  1.088636E+05  1.895446E+03  1.265859E+05
        29  20 -7.194120E+04 -5.032791E+05 -1.090354E+05  5.616450E+04  6.379458E+03  7.686952E+04
        29  21 -3.745497E+04 -5.091810E+05 -7.080480E+04  4.720801E+03  7.868201E+03  2.715103E+04
        29  22 -1.545893E+05 -3.909358E+05 -1.689261E+05  8.356082E+03  1.874683E+03  1.150867E+05
        29  23 -4.222102E+04 -3.780597E+05 -8.567862E+04  7.723033E+03  6.373121E+03  7.112530E+04
        29  24 -9.837441E+03 -3.909076E+05 -5.105358E+04  8.348809E+03  7.868223E+03  2.716312E+04
        29  25 -1.217310E+05 -2.577333E+05 -1.379563E+05 -9.217313E+04  1.857650E+03  1.035850E+05
        29  26 -1.249291E+04 -2.528201E+05 -6.232112E+04 -4.072846E+04  6.367683E+03  6.537995E+04
        29  27  1.777941E+04 -2.726203E+05 -3.130278E+04  1.197753E+04  7.868245E+03  2.717520E+04
        30   1 -3.550186E+04 -4.995858E+05 -6.071881E+04  1.344567E+04 -7.782875E+03 -2.027029E+04
        30   2 -2.805749E+04 -4.898054E+05 -5.006468E+04  7.966286E+03 -7.610513E+03 -2.785065E+03
        30   3 -3.023462E+04 -4.847082E+05 -5.320472E+04  3.967609E+03 -6.943410E+03  1.470033E+04
        30   4 -9.086398E+03 -3.861971E+05 -4.208324E+04  8.398355E+03 -7.782568E+03 -2.012599E+04
        30   5 -3.479827E+03 -3.839376E+05 -3.309666E+04  7.657779E+03 -7.610459E+03 -3.587895E+03
        30   6 -7.329289E+03 -3.861960E+05 -3.724470E+04  8.397950E+03 -6.943385E+03  1.295018E+04
        30   7  1.732850E+04 -2.727956E+05 -2.344802E+04  3.350082E+03 -7.782264E+03 -1.998167E+04
        30   8  2.109728E+04 -2.780585E+05 -1.612894E+04  7.349216E+03 -7.610405E+03 -4.390858E+03
        30   9  1.557562E+04 -2.876740E+05 -2.128492E+04  1.282902E+04 -6.943386E+03  1.119975E+04
        30  10 -3.550203E+04 -4.995862E+05 -6.071970E+04  1.344555E+04  2.011244E-11 -9.218580E-11
        30  11 -2.805756E+04 -4.898054E+05 -5.006480E+04  7.966269E+03  1.813890E-11  6.481205E-12
        30  12 -3.023473E+04 -4.847085E+05 -5.320522E+04  3.967691E+03  3.436235E-10 -8.620046E-11
        30  13 -9.086572E+03 -3.861975E+05 -4.208411E+04  8.398228E+03  5.483886E-10  8.503330E-12
        30  14 -3.479893E+03 -3.839376E+05 -3.309680E+04  7.657757E+03  1.323485E-10  2.331537E-12
        30  15 -7.329386E+03 -3.861962E+05 -3.724511E+04  8.398022E+03  2.218316E-10  2.086775E-11
        30  16  1.732832E+04 -2.727960E+05 -2.344889E+04  3.349957E+03  1.420704E-11  7.928435E-11
        30  17  2.109721E+04 -2.780586E+05 -1.612909E+04  7.349189E+03  4.504383E-10  4.243648E-11
        30  18  1.557554E+04 -2.876742E+05 -2.128525E+04  1.282908E+04  7.727900E-11  1.701188E-11
        30  19 -3.550186E+04 -4.995858E+05 -6.071881E+04  1.344567E+04  7.782875E+03  2.027029E+04
        30  20 -2.805749E+04 -4.898054E+05 -5.006468E+04  7.966286E+03  7.610513E+03  2.785065E+03
        30  21 -3.023462E+04 -4.847082E+05 -5.320472E+04  3.967609E+03  6.943410E+03 -1.470033E+04
        30  22 -9.086398E+03 -3.861971E+05 -4.208324E+04  8.398355E+03  7.782568E+03  2.012599E+04
        30  23 -3.479827E+03 -3.839376E+05 -3.309666E+04  7.657779E+03  7.610459E+03  3.587895E+03
        30  24 -7.329289E+03 -3.861960E+05 -3.724470E+04  8.397950E+03  6.943385E+03 -1.295018E+04
        30  25  1.732850E+04 -2.727956E+05 -2.344802E+04  3.350082E+03  7.782264E+03  1.998167E+04
        30  26  2.109728E+04 -2.780585E+05 -1.612894E+04  7.349216E+03  7.610405E+03  4.390858E+03
        30  27  1.557562E+04 -2.876740E+05 -2.128492E+04  1.282902E+04  6.943386E+03 -1.119975E+04
        31   1 -2.979709E+04 -4.836337E+05 -5.878550E+04  1.116163E+04 -6.477962E+03  2.076209E+04
        31   2 -5.402713E+04 -4.655957E+05 -8.518478E+04 -3.118821E+04 -4.756324E+03  5.973986E+04
        31   3 -1.427488E+05 -4.687587E+05 -1.530916E+05 -7.190984E+04 -1.321515E+03  9.871686E+04
        31   4 -7.941438E+03 -3.897748E+05 -4.340915E+04  8.428894E+03 -6.478151E+03  1.911058E+04
        31   5 -3.366552E+04 -3.794701E+05 -6.959120E+04  7.621772E+03 -4.753158E+03  5.479482E+04
        31   6 -1.233109E+05 -3.897961E+05 -1.349912E+05  8.441377E+03 -1.309885E+03  9.047822E+04
        31   7  1.391379E+04 -2.959072E+05 -2.803304E+04  5.695734E+03 -6.478325E+03  1.745884E+04
        31   8 -1.329865E+04 -2.933341E+05 -5.399701E+04  4.643729E+04 -4.750612E+03  4.984910E+04
        31   9 -1.038492E+05 -3.108138E+05 -1.168875E+05  8.880291E+04 -1.300390E+03  8.223855E+04
        31  10 -2.979725E+04 -4.836342E+05 -5.878639E+04  1.116174E+04  5.941843E-11 -2.874542E-10
        31  11 -5.402811E+04 -4.655996E+05 -8.519153E+04 -3.118799E+04  3.712122E-11 -3.291470E-11
        31  12 -1.427514E+05 -4.687691E+05 -1.531099E+05 -7.190973E+04  8.759020E-11  8.532321E-11
        31  13 -7.941581E+03 -3.897752E+05 -4.340992E+04  8.428994E+03  5.215327E-11 -4.517883E-12
        31  14 -3.366635E+04 -3.794734E+05 -6.959688E+04  7.621982E+03 -5.741874E-10 -1.051340E-11
        31  15 -1.233131E+05 -3.898049E+05 -1.350066E+05  8.441472E+03 -1.056539E-10  5.411625E-11
        31  16  1.391367E+04 -2.959076E+05 -2.803369E+04  5.695825E+03 -2.814976E-10  2.752201E-10
        31  17 -1.329934E+04 -2.933367E+05 -5.400172E+04  4.643748E+04 -3.335839E-10  5.024962E-11
        31  18 -1.038510E+05 -3.108211E+05 -1.169002E+05  8.880299E+04  1.336316E-10 -1.320795E-10
        31  19 -2.979709E+04 -4.836337E+05 -5.878550E+04  1.116163E+04  6.477962E+03 -2.076209E+04
        31  20 -5.402713E+04 -4.655957E+05 -8.518478E+04 -3.118821E+04  4.756324E+03 -5.973986E+04
        31  21 -1.427488E+05 -4.687587E+05 -1.530916E+05 -7.190984E+04  1.321515E+03 -9.871686E+04
        31  22 -7.941438E+03 -3.897748E+05 -4.340915E+04  8.428894E+03  6.478151E+03 -1.911058E+04
        31  23 -3.366552E+04 -3.794701E+05 -6.959120E+04  7.621772E+03  4.753158E+03 -5.479482E+04
        31  24 -1.233109E+05 -3.897961E+05 -1.349912E+05  8.441377E+03  1.309885E+03 -9.047822E+04
        31  25  1.391379E+04 -2.959072E+05 -2.803304E+04  5.695734E+03  6.478325E+03 -1.745884E+04
        31  26 -1.329865E+04 -2.933341E+05 -5.399701E+04  4.643729E+04  4.750612E+03 -4.984910E+04
        31  27 -1.038492E+05 -3.108138E+05 -1.168875E+05  8.880291E+04  1.300390E+03 -8.223855E+04
        32   1  7.451344E+04 -6.603530E+04 -7.460360E+04  6.412985E+04 -2.503324E+04 -1.456985E+04
        32   2  9.991810E+04 -3.248673E+04 -4.945902E+04  7.579845E+04 -1.774340E+04  3.663104E+02
        32   3  1.269004E+05 -1.197012E+04 -3.585005E+04  8.731541E+04 -6.756314E+03  1.037502E+04
        32   4  2.632421E+05  7.956615E+04 -1.178455E+04  1.630327E+05 -8.663329E+03 -2.294953E+03
        32   5  2.632542E+05  8.830359E+04 -5.770755E+03  1.606752E+05 -1.083556E+04  5.545453E+03
        32   6  2.668968E+05  8.606273E+04 -3.079892E+03  1.581650E+05 -9.312045E+03  8.458410E+03
        32   7  4.520098E+05  2.251922E+05  5.103142E+04  2.619712E+05  7.713391E+03  9.985622E+03
        32   8  4.266195E+05  2.091107E+05  3.791506E+04  2.455776E+05 -3.925332E+03  1.072651E+04
        32   9  4.069137E+05  1.841057E+05  2.968828E+04  2.290319E+05 -1.186851E+04  6.541254E+03
        32  10  7.451271E+04 -6.603570E+04 -7.460517E+04  6.412956E+04  1.408384E-10  8.201914E-11
        32  11  9.991776E+04 -3.248681E+04 -4.945961E+04  7.579846E+04  5.047895E-10  1.085525E-10
        32  12  1.269003E+05 -1.197025E+04 -3.585033E+04  8.731547E+04  5.713089E-10  7.262977E-11
        32  13  2.632420E+05  7.956613E+04 -1.178470E+04  1.630327E+05 -2.940195E-10 -2.943761E-12
        32  14  2.632540E+05  8.830352E+04 -5.771033E+03  1.606752E+05 -6.063523E-10 -8.564747E-11
        32  15  2.668967E+05  8.606262E+04 -3.080189E+03  1.581651E+05  4.035336E-10 -2.247164E-10
        32  16  4.520097E+05  2.251921E+05  5.103112E+04  2.619711E+05 -7.805539E-11 -6.486529E-11
        32  17  4.266194E+05  2.091106E+05  3.791481E+04  2.455777E+05 -2.406602E-11 -2.771107E-10
        32  18  4.069135E+05  1.841056E+05  2.968794E+04  2.290320E+05 -3.161191E-10 -5.626056E-10
        32  19  7.451344E+04 -6.603530E+04 -7.460360E+04  6.412985E+04  2.503324E+04  1.456985E+04
        32  20  9.991810E+04 -3.248673E+04 -4.945902E+04  7.579845E+04  1.774340E+04 -3.663104E+02
        32  21  1.269004E+05 -1.197012E+04 -3.585005E+04  8.731541E+04  6.756314E+03 -1.037502E+04
        32  22  2.632421E+05  7.956615E+04 -1.178455E+04  1.630327E+05  8.663329E+03  2.294953E+03
        32  23  2.632542E+05  8.830359E+04 -5.770755E+03  1.606752E+05  1.083556E+04 -5.545453E+03
        32  24  2.668968E+05  8.606273E+04 -3.079892E+03  1.581650E+05  9.312045E+03 -8.458410E+03
        32  25  4.520098E+05  2.251922E+05  5.103142E+04  2.619712E+05 -7.713391E+03 -9.985622E+03
        32  26  4.266195E+05  2.091107E+05  3.791506E+04  2.455776E+05  3.925332E+03 -1.072651E+04
        32  27  4.069137E+05  1.841057E+05  2.968828E+04  2.290319E+05  1.186851E+04 -6.541254E+03
        33   1  1.453719E+05 -2.390369E+01 -3.042563E+04  9.614220E+04 -5.992216E+03  9.503595E+03
        33   2  1.691565E+05  2.338044E+04 -2.211439E+04  1.108290E+05 -3.465898E+03  9.111504E+03
        33   3  1.996674E+05  3.910291E+04 -1.511053E+04  1.235196E+05 -5.515976E+02  8.201875E+03
        33   4  2.672349E+05  8.613562E+04 -2.269284E+03  1.582861E+05 -8.305906E+03  7.768608E+03
        33   5  2.638745E+05  9.006402E+04 -1.085697E+03  1.591394E+05 -6.773522E+03  6.631538E+03
        33   6  2.674553E+05  8.652558E+04 -3.470555E+02  1.579959E+05 -4.853267E+03  4.976913E+03
        33   7  3.891154E+05  1.723044E+05  2.588625E+04  2.204443E+05 -1.062020E+04  6.033162E+03
        33   8  3.586042E+05  1.567540E+05  1.994296E+04  2.074590E+05 -1.008185E+04  4.151041E+03
        33   9  3.352501E+05  1.339522E+05  1.441681E+04  1.924772E+05 -9.155650E+03  1.751418E+03
        33  10  1.453719E+05 -2.401034E+01 -3.042586E+04  9.614225E+04 -1.781287E-09 -1.956929E-09
        33  11  1.691565E+05  2.338035E+04 -2.211457E+04  1.108290E+05  5.517225E-09  2.568152E-09
        33  12  1.996674E+05  3.910284E+04 -1.511066E+04  1.235196E+05  4.498582E-09  3.234179E-09
        33  13  2.672348E+05  8.613553E+04 -2.269527E+03  1.582862E+05  6.476724E-10  5.029949E-10
        33  14  2.638745E+05  9.006396E+04 -1.085866E+03  1.591395E+05 -8.439425E-10  6.927421E-11
        33  15  2.674553E+05  8.652555E+04 -3.471463E+02  1.579959E+05 -7.529265E-09 -5.067018E-09
        33  16  3.891152E+05  1.723044E+05  2.588597E+04  2.204444E+05  3.352613E-09  2.932452E-09
        33  17  3.586040E+05  1.567539E+05  1.994274E+04  2.074591E+05 -5.902015E-09 -2.427941E-09
        33  18  3.352500E+05  1.339521E+05  1.441664E+04  1.924772E+05 -1.938862E-08 -1.333371E-08
        33  19  1.453719E+05 -2.390369E+01 -3.042563E+04  9.614220E+04  5.992216E+03 -9.503595E+03
        33  20  1.691565E+05  2.338044E+04 -2.211439E+04  1.108290E+05  3.465898E+03 -9.111504E+03
        33  21  1.996674E+05  3.910291E+04 -1.511053E+04  1.235196E+05  5.515976E+02 -8.201875E+03
        33  22  2.672349E+05  8.613562E+04 -2.269284E+03  1.582861E+05  8.305906E+03 -7.768608E+03
        33  23  2.638745E+05  9.006402E+04 -1.085697E+03  1.591394E+05  6.773522E+03 -6.631538E+03
        33  24  2.674553E+05  8.652558E+04 -3.470555E+02  1.579959E+05  4.853267E+03 -4.976913E+03
        33  25  3.891154E+05  1.723044E+05  2.588625E+04  2.204443E+05  1.062020E+04 -6.033162E+03
        33  26  3.586042E+05  1.567540E+05  1.994296E+04  2.074590E+05  1.008185E+04 -4.151041E+03
        33  27  3.352501E+05  1.339522E+05  1.441681E+04  1.924772E+05  9.155650E+03 -1.751418E+03
        34   1  2.170459E+05  5.124428E+04 -1.089098E+04  1.323409E+05  4.392095E+02  6.880800E+03
        34   2  2.405895E+05  7.393291E+04 -4.363039E+03  1.472246E+05  1.902664E+03  4.489014E+03
        34   3  2.713878E+05  8.944958E+04  2.345984E+03  1.600056E+05  3.375483E+03  2.084584E+03
        34   4  2.674926E+05  8.653135E+04 -3.984767E+01  1.580192E+05 -3.838779E+03  3.673695E+03
        34   5  2.638789E+05  9.014356E+04  5.937983E+02  1.590491E+05 -2.399648E+03  1.263772E+03
        34   6  2.675250E+05  8.658911E+04  1.429789E+03  1.579760E+05 -9.511345E+02 -1.158798E+03
        34   7  3.179412E+05  1.218193E+05  1.081091E+04  1.836995E+05 -8.117142E+03  4.663115E+02
        34   8  2.871688E+05  1.063544E+05  5.550633E+03  1.708740E+05 -6.702128E+03 -1.961595E+03
        34   9  2.636623E+05  8.372869E+04  5.137047E+02  1.559463E+05 -5.277713E+03 -4.402150E+03
        34  10  2.170459E+05  5.124423E+04 -1.089107E+04  1.323409E+05 -1.968296E-08 -1.359080E-08
        34  11  2.405895E+05  7.393289E+04 -4.363084E+03  1.472246E+05 -6.213533E-09 -2.595443E-09
        34  12  2.713878E+05  8.944957E+04  2.345954E+03  1.600056E+05  3.126763E-09  2.756558E-09
        34  13  2.674925E+05  8.653133E+04 -3.990073E+01  1.580193E+05 -7.144408E-09 -5.089609E-09
        34  14  2.638789E+05  9.014355E+04  5.937845E+02  1.590491E+05  2.628111E-10  1.744274E-11
        34  15  2.675250E+05  8.658911E+04  1.429785E+03  1.579760E+05  1.093636E-09  5.750868E-10
        34  16  3.179411E+05  1.218192E+05  1.081079E+04  1.836995E+05  4.637592E-09  3.473648E-09
        34  17  2.871687E+05  1.063544E+05  5.550542E+03  1.708740E+05  5.866127E-09  2.759232E-09
        34  18  2.636622E+05  8.372866E+04  5.136159E+02  1.559463E+05 -1.264568E-09 -1.699710E-09
        34  19  2.170459E+05  5.124428E+04 -1.089098E+04  1.323409E+05 -4.392095E+02 -6.880800E+03
        34  20  2.405895E+05  7.393291E+04 -4.363039E+03  1.472246E+05 -1.902664E+03 -4.489014E+03
        34  21  2.713878E+05  8.944958E+04  2.345984E+03  1.600056E+05 -3.375483E+03 -2.084584E+03
        34  22  2.674926E+05  8.653135E+04 -3.984767E+01  1.580192E+05  3.838779E+03 -3.673695E+03
        34  23  2.638789E+05  9.014356E+04  5.937983E+02  1.590491E+05  2.399648E+03 -1.263772E+03
        34  24  2.675250E+05  8.658911E+04  1.429789E+03  1.579760E+05  9.511345E+02  1.158798E+03
        34  25  3.179412E+05  1.218193E+05  1.081091E+04  1.836995E+05  8.117142E+03 -4.663115E+02
        34  26  2.871688E+05  1.063544E+05  5.550633E+03  1.708740E+05  6.702128E+03  1.961595E+03
        34  27  2.636623E+05  8.372869E+04  5.137047E+02  1.559463E+05  5.277713E+03  4.402150E+03
        35   1  2.886215E+05  1.017721E+05  6.801466E+03  1.689020E+05  4.154767E+03  5.901158E+02
        35   2  3.126253E+05  1.240487E+05  1.462769E+04  1.833160E+05  3.469888E+03 -3.145871E+03
        35   3  3.446819E+05  1.401640E+05  2.457421E+04  1.953684E+05  2.487815E+03 -6.485697E+03
        35   4  2.675808E+05  8.662679E+04  1.990626E+03  1.580301E+05 -1.889287E+02 -2.666105E+03
        35   5  2.639497E+05  9.034725E+04  3.676417E+03  1.587928E+05 -1.124993E+02 -5.831519E+03
        35   6  2.682053E+05  8.774040E+04  6.822050E+03  1.571930E+05 -3.331186E+02 -8.600606E+03
        35   7  2.465401E+05  7.148151E+04 -2.820278E+03  1.471584E+05 -4.532515E+03 -5.922238E+03
        35   8  2.152770E+05  5.664724E+04 -7.274912E+03  1.342719E+05 -3.694512E+03 -8.516892E+03
        35   9  1.917370E+05  3.532128E+04 -1.092989E+04  1.190237E+05 -3.153531E+03 -1.071514E+04
        35  10  2.886215E+05  1.017721E+05  6.801433E+03  1.689020E+05  1.000323E-12 -4.417476E-10
        35  11  3.126253E+05  1.240487E+05  1.462765E+04  1.833160E+05 -1.449843E-11 -4.360797E-10
        35  12  3.446819E+05  1.401639E+05  2.457412E+04  1.953684E+05 -2.143495E-10 -2.247151E-10
        35  13  2.675808E+05  8.662678E+04  1.990612E+03  1.580301E+05 -1.775782E-10 -1.964910E-10
        35  14  2.639497E+05  9.034722E+04  3.676353E+03  1.587928E+05  1.324111E-10 -1.845913E-10
        35  15  2.682053E+05  8.774032E+04  6.821910E+03  1.571930E+05 -7.798884E-11 -9.678939E-11
        35  16  2.465401E+05  7.148147E+04 -2.820382E+03  1.471584E+05  3.447018E-10  8.849265E-11
        35  17  2.152769E+05  5.664716E+04 -7.275074E+03  1.342719E+05  1.774153E-10  7.684204E-12
        35  18  1.917370E+05  3.532115E+04 -1.093013E+04  1.190237E+05  5.253516E-10  9.940074E-11
        35  19  2.886215E+05  1.017721E+05  6.801466E+03  1.689020E+05 -4.154767E+03 -5.901158E+02
        35  20  3.126253E+05  1.240487E+05  1.462769E+04  1.833160E+05 -3.469888E+03  3.145871E+03
        35  21  3.446819E+05  1.401640E+05  2.457421E+04  1.953684E+05 -2.487815E+03  6.485697E+03
        35  22  2.675808E+05  8.662679E+04  1.990626E+03  1.580301E+05  1.889287E+02  2.666105E+03
        35  23  2.639497E+05  9.034725E+04  3.676417E+03  1.587928E+05  1.124993E+02  5.831519E+03
        35  24  2.682053E+05  8.774040E+04  6.822050E+03  1.571930E+05  3.331186E+02  8.600606E+03
        35  25  2.465401E+05  7.148151E+04 -2.820278E+03  1.471584E+05  4.532515E+03  5.922238E+03
        35  26  2.152770E+05  5.664724E+04 -7.274912E+03  1.342719E+05  3.694512E+03  8.516892E+03
        35  27  1.917370E+05  3.532128E+04 -1.092989E+04  1.190237E+05  3.153531E+03  1.071514E+04
        36   1  3.612684E+05  1.546124E+05  3.124683E+04  2.051188E+05  2.505737E+03 -8.076195E+03
        36   2  3.954991E+05  1.704824E+05  4.855653E+04  2.120232E+05 -1.188003E+04 -1.834281E+04
        36   3  4.472218E+05  1.931461E+05  8.176036E+04  2.116950E+05 -2.911228E+04 -2.481587E+04
        36   4  2.688445E+05  8.827095E+04  9.064314E+03  1.576357E+05 -5.009825E+02 -1.033048E+04
        36   5  2.661225E+05  9.497679E+04  1.665684E+04  1.542668E+05 -7.595189E+03 -1.513092E+04
        36   6  2.793119E+05  1.068974E+05  3.381990E+04  1.436644E+05 -1.753496E+04 -1.613705E+04
        36   7  1.764305E+05  2.193494E+04 -1.311874E+04  1.101609E+05 -3.507107E+03 -1.258430E+04
        36   8  1.367636E+05  1.947651E+04 -1.524441E+04  9.652233E+04 -3.311515E+03 -1.191969E+04
        36   9  1.114297E+05  2.065392E+04 -1.412346E+04  7.565022E+04 -5.961739E+03 -7.460134E+03
        36  10  3.612684E+05  1.546123E+05  3.124670E+04  2.051188E+05 -3.237067E-10  7.423929E-11
        36  11  3.954988E+05  1.704820E+05  4.855563E+04  2.120230E+05  2.951345E-12  7.127109E-11
        36  12  4.472208E+05  1.931452E+05  8.175761E+04  2.116944E+05  1.655233E-10  6.160364E-11
        36  13  2.688445E+05  8.827083E+04  9.064113E+03  1.576357E+05  1.327819E-10  5.992270E-12
        36  14  2.661224E+05  9.497652E+04  1.665630E+04  1.542667E+05 -1.254040E-10  6.761237E-11
        36  15  2.793115E+05  1.068970E+05  3.381883E+04  1.436642E+05  2.260665E-10  1.540791E-11
        36  16  1.764304E+05  2.193477E+04 -1.311906E+04  1.101609E+05  2.788133E-10 -4.262277E-11
        36  17  1.367635E+05  1.947636E+04 -1.524470E+04  9.652229E+04 -1.443791E-10 -3.535653E-11
        36  18  1.114296E+05  2.065385E+04 -1.412364E+04  7.565019E+04 -1.768926E-10 -1.938426E-11
        36  19  3.612684E+05  1.546124E+05  3.124683E+04  2.051188E+05 -2.505737E+03  8.076195E+03
        36  20  3.954991E+05  1.704824E+05  4.855653E+04  2.120232E+05  1.188003E+04  1.834281E+04
        36  21  4.472218E+05  1.931461E+05  8.176036E+04  2.116950E+05  2.911228E+04  2.481587E+04
        36  22  2.688445E+05  8.827095E+04  9.064314E+03  1.576357E+05  5.009825E+02  1.033048E+04
        36  23  2.661225E+05  9.497679E+04  1.665684E+04  1.542668E+05  7.595189E+03  1.513092E+04
        36  24  2.793119E+05  1.068974E+05  3.381990E+04  1.436644E+05  1.753496E+04  1.613705E+04
        36  25  1.764305E+05  2.193494E+04 -1.311874E+04  1.101609E+05  3.507107E+03  1.258430E+04
        36  26  1.367636E+05  1.947651E+04 -1.524441E+04  9.652233E+04  3.311515E+03  1.191969E+04
        36  27  1.114297E+05  2.065392E+04 -1.412346E+04  7.565022E+04  5.961739E+03  7.460134E+03
        37   1  4.848425E+05  3.886007E+04  4.239620E+04  2.523794E+04  2.936009E+04  1.192652E+00
        37   2  4.816351E+05  1.060899E+04  2.115529E+04  1.215855E+04  1.849844E+04  3.620097E-01
        37   3  4.848506E+05  2.398970E+03  1.199249E+04 -9.208893E+02  7.636639E+03 -1.131906E-02
        37   4  4.848419E+05  3.885888E+04  4.239603E+04 -1.630114E-10  2.936009E+04 -8.410162E-11
        37   5  4.816349E+05  1.060871E+04  2.115525E+04  8.168789E-10  1.849844E+04 -1.740057E-10
        37   6  4.848506E+05  2.398969E+03  1.199249E+04  4.187316E-10  7.636639E+03 -2.412211E-11
        37   7  4.848425E+05  3.886007E+04  4.239620E+04 -2.523794E+04  2.936009E+04 -1.192652E+00
        37   8  4.816351E+05  1.060899E+04  2.115529E+04 -1.215855E+04  1.849844E+04 -3.620097E-01
        37   9  4.848506E+05  2.398970E+03  1.199249E+04  9.208893E+02  7.636639E+03  1.131906E-02
        37  10  4.848416E+05  3.885984E+04  4.239458E+04  2.523794E+04  1.556169E-10 -4.352180E-11
        37  11  4.816347E+05  1.060890E+04  2.115465E+04  1.215855E+04 -1.236722E-10 -8.056814E-11
        37  12  4.848505E+05  2.398955E+03  1.199238E+04 -9.208893E+02 -9.375814E-12  7.451264E-12
        37  13  4.848409E+05  3.885864E+04  4.239441E+04  1.430913E-10  1.346505E-10 -4.477165E-11
        37  14  4.816345E+05  1.060862E+04  2.115461E+04  4.460801E-10  1.288134E-10 -9.463114E-11
        37  15  4.848505E+05  2.398953E+03  1.199238E+04  6.480850E-10  1.651357E-10  2.547455E-11
        37  16  4.848416E+05  3.885984E+04  4.239458E+04 -2.523794E+04 -3.845598E-10 -5.842406E-11
        37  17  4.816347E+05  1.060890E+04  2.115465E+04 -1.215855E+04  3.990141E-11 -1.281378E-10
        37  18  4.848505E+05  2.398955E+03  1.199238E+04  9.208893E+02  7.229982E-11  4.444613E-11
        37  19  4.848425E+05  3.886007E+04  4.239620E+04  2.523794E+04 -2.936009E+04 -1.192652E+00
        37  20  4.816351E+05  1.060899E+04  2.115529E+04  1.215855E+04 -1.849844E+04 -3.620097E-01
        37  21  4.848506E+05  2.398970E+03  1.199249E+04 -9.208893E+02 -7.636639E+03  1.131906E-02
        37  22  4.848419E+05  3.885888E+04  4.239603E+04 -6.427376E-10 -2.936009E+04 -6.174139E-12
        37  23  4.816349E+05  1.060871E+04  2.115525E+04  1.315555E-10 -1.849844E+04 -1.024388E-11
        37  24  4.848506E+05  2.398969E+03  1.199249E+04 -2.050042E-10 -7.636639E+03  7.868100E-11
        37  25  4.848425E+05  3.886007E+04  4.239620E+04 -2.523794E+04 -2.936009E+04  1.192652E+00
        37  26  4.816351E+05  1.060899E+04  2.115529E+04 -1.215855E+04 -1.849844E+04  3.620097E-01
        37  27  4.848506E+05  2.398970E+03  1.199249E+04  9.208893E+02 -7.636639E+03 -1.131906E-02
        38   1  4.835917E+05  2.207307E+03  9.423512E+03  1.151386E+03  6.031972E+03  1.117845E-02
        38   2  4.832121E+05  4.505326E+02  6.192848E+03  5.049493E+02  2.943487E+03  2.392276E-03
        38   3  4.835925E+05  1.269549E+02  5.330094E+03 -1.414877E+02 -1.449929E+02  3.301916E-05
        38   4  4.835917E+05  2.207305E+03  9.423512E+03 -5.468462E-11  6.031972E+03  1.065920E-10
        38   5  4.832121E+05  4.505321E+02  6.192848E+03 -2.977159E-10  2.943487E+03  1.316377E-10
        38   6  4.835925E+05  1.269548E+02  5.330094E+03 -7.658629E-10 -1.449929E+02 -1.060610E-12
        38   7  4.835917E+05  2.207307E+03  9.423512E+03 -1.151386E+03  6.031972E+03 -1.117845E-02
        38   8  4.832121E+05  4.505326E+02  6.192848E+03 -5.049493E+02  2.943487E+03 -2.392275E-03
        38   9  4.835925E+05  1.269549E+02  5.330094E+03  1.414877E+02 -1.449929E+02 -3.301916E-05
        38  10  4.835917E+05  2.207297E+03  9.423444E+03  1.151386E+03  1.508842E-10  6.017667E-11
        38  11  4.832121E+05  4.505303E+02  6.192832E+03  5.049493E+02  3.089136E-11  3.963499E-11
        38  12  4.835925E+05  1.269549E+02  5.330094E+03 -1.414877E+02 -1.345814E-10  1.819514E-11
        38  13  4.835917E+05  2.207295E+03  9.423443E+03  8.417113E-11  5.599870E-11  9.481509E-11
        38  14  4.832121E+05  4.505298E+02  6.192832E+03 -1.178396E-10  1.501829E-10  8.121415E-11
        38  15  4.835925E+05  1.269548E+02  5.330094E+03 -3.198505E-10 -1.193959E-10  3.778701E-11
        38  16  4.835917E+05  2.207297E+03  9.423444E+03 -1.151386E+03 -3.570662E-10  1.300383E-10
        38  17  4.832121E+05  4.505303E+02  6.192832E+03 -5.049493E+02 -1.713636E-10  1.316876E-10
        38  18  4.835925E+05  1.269549E+02  5.330094E+03  1.414877E+02  3.737312E-11  5.939404E-11
        38  19  4.835917E+05  2.207307E+03  9.423512E+03  1.151386E+03 -6.031972E+03 -1.117845E-02
        38  20  4.832121E+05  4.505326E+02  6.192848E+03  5.049493E+02 -2.943487E+03 -2.392276E-03
        38  21  4.835925E+05  1.269549E+02  5.330094E+03 -1.414877E+02  1.449929E+02 -3.301914E-05
        38  22  4.835917E+05  2.207305E+03  9.423512E+03 -3.313459E-10 -6.031972E+03  8.744155E-11
        38  23  4.832121E+05  4.505321E+02  6.192848E+03  4.638756E-10 -2.943487E+03  3.174236E-11
        38  24  4.835925E+05  1.269548E+02  5.330094E+03 -5.372137E-11  1.449929E+02  7.868042E-11
        38  25  4.835917E+05  2.207307E+03  9.423512E+03 -1.151386E+03 -6.031972E+03  1.117845E-02
        38  26  4.832121E+05  4.505326E+02  6.192848E+03 -5.049493E+02 -2.943487E+03  2.392276E-03
        38  27  4.835925E+05  1.269549E+02  5.330094E+03  1.414877E+02  1.449929E+02  3.301929E-05
        39   1  4.836325E+05  1.244183E+02  5.545314E+03  2.565950E+02 -1.084193E+03 -4.477710E-04
        39   2  4.831619E+05  6.186781E+02  7.377411E+03 -6.117460E+02 -4.766251E+03  4.692988E-03
        39   3  4.836313E+05  2.957144E+03  1.206641E+04 -1.480073E+03 -8.448265E+03  2.012574E-02
        39   4  4.836325E+05  1.244182E+02  5.545314E+03 -6.501962E-10 -1.084193E+03 -3.982749E-11
        39   5  4.831619E+05  6.186774E+02  7.377411E+03  2.727716E-11 -4.766251E+03 -5.913503E-12
        39   6  4.836313E+05  2.957140E+03  1.206641E+04 -7.911001E-10 -8.448265E+03 -6.575882E-11
        39   7  4.836325E+05  1.244183E+02  5.545314E+03 -2.565950E+02 -1.084193E+03  4.477709E-04
        39   8  4.831619E+05  6.186781E+02  7.377411E+03  6.117460E+02 -4.766251E+03 -4.692988E-03
        39   9  4.836313E+05  2.957144E+03  1.206641E+04  1.480073E+03 -8.448265E+03 -2.012574E-02
        39  10  4.836325E+05  1.244180E+02  5.545312E+03  2.565950E+02 -3.771332E-10  5.784900E-11
        39  11  4.831619E+05  6.186720E+02  7.377368E+03 -6.117460E+02 -2.367577E-10  9.806046E-11
        39  12  4.836312E+05  2.957125E+03  1.206628E+04 -1.480073E+03  1.144836E-11 -1.761074E-11
        39  13  4.836325E+05  1.244179E+02  5.545312E+03  5.460644E-11  9.470100E-28  3.212502E-11
        39  14  4.831619E+05  6.186713E+02  7.377368E+03  2.776339E-10 -1.698100E-10  4.323194E-11
        39  15  4.836312E+05  2.957121E+03  1.206628E+04 -4.418720E-10  3.054227E-10 -1.475506E-11
        39  16  4.836325E+05  1.244180E+02  5.545312E+03 -2.565950E+02  5.770017E-10  1.309311E-11
        39  17  4.831619E+05  6.186720E+02  7.377368E+03  6.117460E+02  4.226861E-10 -3.594043E-11
        39  18  4.836312E+05  2.957125E+03  1.206628E+04  1.480073E+03  1.535266E-12  1.810181E-12
        39  19  4.836325E+05  1.244183E+02  5.545314E+03  2.565950E+02  1.084193E+03  4.477711E-04
        39  20  4.831619E+05  6.186781E+02  7.377411E+03 -6.117460E+02  4.766251E+03 -4.692988E-03
        39  21  4.836313E+05  2.957144E+03  1.206641E+04 -1.480073E+03  8.448265E+03 -2.012574E-02
        39  22  4.836325E+05  1.244182E+02  5.545314E+03  9.143142E-11  1.084193E+03  9.704257E-11
        39  23  4.831619E+05  6.186774E+02  7.377411E+03  6.605343E-10  4.766251E+03  8.399205E-11
        39  24  4.836313E+05  2.957140E+03  1.206641E+04 -2.283431E-10  8.448265E+03  3.985259E-11
        39  25  4.836325E+05  1.244183E+02  5.545314E+03 -2.565950E+02  1.084193E+03 -4.477708E-04
        39  26  4.831619E+05  6.186781E+02  7.377411E+03  6.117460E+02  4.766251E+03  4.692988E-03
        39  27  4.836313E+05  2.957144E+03  1.206641E+04  1.480073E+03  8.448265E+03  2.012574E-02
        40   1  4.853211E+05  3.207885E+03  1.561755E+04  1.264450E+03 -1.051025E+04 -2.139020E-02
        40   2  4.810451E+05  1.413658E+04  2.800728E+04 -1.616018E+04 -2.489267E+04  6.474727E-01
        40   3  4.853106E+05  5.174946E+04  5.642681E+04 -3.358529E+04 -3.927533E+04  2.123107E+00
        40   4  4.853211E+05  3.207882E+03  1.561755E+04 -1.713799E-10 -1.051025E+04 -1.193471E-10
        40   5  4.810448E+05  1.413609E+04  2.800720E+04 -1.430245E-10 -2.489267E+04 -1.248730E-10
        40   6  4.853094E+05  5.174734E+04  5.642651E+04 -5.459728E-10 -3.927533E+04 -1.891688E-11
        40   7  4.853211E+05  3.207885E+03  1.561755E+04 -1.264450E+03 -1.051025E+04  2.139020E-02
        40   8  4.810451E+05  1.413658E+04  2.800728E+04  1.616018E+04 -2.489267E+04 -6.474727E-01
        40   9  4.853106E+05  5.174946E+04  5.642681E+04  3.358529E+04 -3.927533E+04 -2.123107E+00
        40  10  4.853209E+05  3.207855E+03  1.561735E+04  1.264450E+03  2.307493E-10 -8.508136E-11
        40  11  4.810444E+05  1.413641E+04  2.800611E+04 -1.616018E+04 -1.344711E-10 -6.361448E-11
        40  12  4.853090E+05  5.174905E+04  5.642392E+04 -3.358529E+04 -1.566492E-10 -9.803698E-12
        40  13  4.853209E+05  3.207852E+03  1.561735E+04  4.166468E-10  4.316689E-10 -4.914383E-11
        40  14  4.810442E+05  1.413592E+04  2.800604E+04  3.450747E-10  3.192997E-10 -4.823339E-11
        40  15  4.853078E+05  5.174693E+04  5.642361E+04  3.366266E-11 -8.026039E-11 -1.462287E-11
        40  16  4.853209E+05  3.207855E+03  1.561735E+04 -1.264450E+03  1.182475E-10 -3.858936E-12
        40  17  4.810444E+05  1.413641E+04  2.800611E+04  1.616018E+04  3.241329E-10 -2.308465E-11
        40  18  4.853090E+05  5.174905E+04  5.642392E+04  3.358529E+04  2.691880E-11 -1.295501E-11
        40  19  4.853211E+05  3.207885E+03  1.561755E+04  1.264450E+03  1.051025E+04  2.139020E-02
        40  20  4.810451E+05  1.413658E+04  2.800728E+04 -1.616018E+04  2.489267E+04 -6.474727E-01
        40  21  4.853106E+05  5.174946E+04  5.642681E+04 -3.358529E+04  3.927533E+04 -2.123107E+00
        40  22  4.853211E+05  3.207882E+03  1.561755E+04 -6.829732E-11  1.051025E+04  2.443707E-11
        40  23  4.810448E+05  1.413609E+04  2.800720E+04  4.260769E-10  2.489267E+04  2.919356E-11
        40  24  4.853094E+05  5.174734E+04  5.642651E+04 -2.871792E-10  3.927533E+04 -1.245378E-11
        40  25  4.853211E+05  3.207885E+03  1.561755E+04 -1.264450E+03  1.051025E+04 -2.139020E-02
        40  26  4.810451E+05  1.413658E+04  2.800728E+04  1.616018E+04  2.489267E+04  6.474727E-01
        40  27  4.853106E+05  5.174946E+04  5.642681E+04  3.358529E+04  3.927533E+04  2.123107E+00
        41   1 -1.078082E+05 -2.734378E+05 -1.173680E+05  5.439216E+04 -3.348955E+02 -8.120417E+04
        41   2 -3.351292E+04 -2.775979E+05 -6.209048E+04  1.988151E+04 -1.410361E+03 -5.078524E+04
        41   3 -1.425626E+04 -2.994786E+05 -4.037957E+04 -1.724228E+04 -2.418429E+03 -2.036634E+04
        41   4 -1.063226E+05 -2.671521E+05 -1.162063E+05 -1.476325E+04 -3.258966E+02 -7.906213E+04
        41   5 -2.903852E+04 -2.582956E+05 -5.902442E+04 -1.345683E+04 -1.407668E+03 -4.877917E+04
        41   6 -6.773584E+03 -2.671393E+05 -3.531561E+04 -1.476274E+04 -2.418531E+03 -1.849570E+04
        41   7 -1.048191E+05 -2.608561E+05 -1.150420E+05 -8.391938E+04 -3.173752E+02 -7.692007E+04
        41   8 -2.455996E+04 -2.389905E+05 -5.595776E+04 -4.679623E+04 -1.405190E+03 -4.677303E+04
        41   9  7.090654E+02 -2.347989E+05 -3.025166E+04 -1.228307E+04 -2.418617E+03 -1.662496E+04
        41  10 -1.078099E+05 -2.734448E+05 -1.173804E+05  5.439214E+04  7.034587E-11 -3.874207E-10
        41  11 -3.351362E+04 -2.776007E+05 -6.209533E+04  1.988145E+04 -3.803263E-11 -6.531462E-11
        41  12 -1.425638E+04 -2.994791E+05 -4.038036E+04 -1.724232E+04 -1.644602E-10  2.738891E-10
        41  13 -1.063243E+05 -2.671588E+05 -1.162181E+05 -1.476327E+04 -1.987308E-10  1.316834E-12
        41  14 -2.903916E+04 -2.582982E+05 -5.902890E+04 -1.345688E+04 -3.848351E-11 -5.802463E-12
        41  15 -6.773682E+03 -2.671396E+05 -3.531626E+04 -1.476278E+04  1.205145E-10 -3.885726E-12
        41  16 -1.048206E+05 -2.608624E+05 -1.150532E+05 -8.391940E+04 -1.356732E-10  3.839380E-10
        41  17 -2.456055E+04 -2.389929E+05 -5.596187E+04 -4.679629E+04 -3.429388E-10  6.600394E-11
        41  18  7.089849E+02 -2.347992E+05 -3.025219E+04 -1.228310E+04 -4.390428E-12 -2.830975E-10
        41  19 -1.078082E+05 -2.734378E+05 -1.173680E+05  5.439216E+04  3.348955E+02  8.120417E+04
        41  20 -3.351292E+04 -2.775979E+05 -6.209048E+04  1.988151E+04  1.410361E+03  5.078524E+04
        41  21 -1.425626E+04 -2.994786E+05 -4.037957E+04 -1.724228E+04  2.418429E+03  2.036634E+04
        41  22 -1.063226E+05 -2.671521E+05 -1.162063E+05 -1.476325E+04  3.258966E+02  7.906213E+04
        41  23 -2.903852E+04 -2.582956E+05 -5.902442E+04 -1.345683E+04  1.407668E+03  4.877917E+04
        41  24 -6.773584E+03 -2.671393E+05 -3.531561E+04 -1.476274E+04  2.418531E+03  1.849570E+04
        41  25 -1.048191E+05 -2.608561E+05 -1.150420E+05 -8.391938E+04  3.173752E+02  7.692007E+04
        41  26 -2.455996E+04 -2.389905E+05 -5.595776E+04 -4.679623E+04  1.405190E+03  4.677303E+04
        41  27  7.090654E+02 -2.347989E+05 -3.025166E+04 -1.228307E+04  2.418617E+03  1.662496E+04
        42   1 -1.566806E+04 -3.045450E+05 -3.563566E+04 -1.125266E+04 -2.995858E+03 -1.549884E+04
        42   2 -1.489063E+04 -3.159379E+05 -3.185395E+04 -1.328796E+04 -3.853100E+03 -3.394293E+03
        42   3 -2.084317E+04 -3.305897E+05 -3.763746E+04 -1.791485E+04 -4.459927E+03  8.710057E+03
        42   4 -6.255585E+03 -2.639127E+05 -2.921917E+04 -1.475820E+04 -2.995778E+03 -1.361400E+04
        42   5 -2.446238E+03 -2.623251E+05 -2.326249E+04 -1.346242E+04 -3.853074E+03 -1.989537E+03
        42   6 -5.283205E+03 -2.639129E+05 -2.653714E+04 -1.475829E+04 -4.459836E+03  9.634968E+03
        42   7  3.156856E+03 -2.232787E+05 -2.280270E+04 -1.826398E+04 -2.995720E+03 -1.172905E+04
        42   8  9.998007E+03 -2.087094E+05 -1.467110E+04 -1.363690E+04 -3.853048E+03 -5.846633E+02
        42   9  1.027657E+04 -1.972318E+05 -1.543695E+04 -1.160139E+04 -4.459735E+03  1.055998E+04
        42  10 -1.566813E+04 -3.045452E+05 -3.563613E+04 -1.125270E+04  9.742765E-11 -3.363583E-10
        42  11 -1.489065E+04 -3.159380E+05 -3.185400E+04 -1.328797E+04 -2.428562E-10  7.308349E-11
        42  12 -2.084321E+04 -3.305897E+05 -3.763764E+04 -1.791482E+04  9.696860E-12  4.579131E-10
        42  13 -6.255645E+03 -2.639129E+05 -2.921953E+04 -1.475823E+04  3.190678E-11  5.524849E-13
        42  14 -2.446255E+03 -2.623251E+05 -2.326253E+04 -1.346243E+04 -9.685497E-11  8.404815E-12
        42  15 -5.283251E+03 -2.639130E+05 -2.653735E+04 -1.475826E+04 -2.316770E-10 -7.840307E-12
        42  16  3.156809E+03 -2.232788E+05 -2.280297E+04 -1.826401E+04  4.101890E-11  3.361698E-10
        42  17  9.997991E+03 -2.087094E+05 -1.467113E+04 -1.363690E+04 -2.418107E-10 -5.668575E-11
        42  18  1.027652E+04 -1.972319E+05 -1.543719E+04 -1.160135E+04 -3.263125E-11 -4.532928E-10
        42  19 -1.566806E+04 -3.045450E+05 -3.563566E+04 -1.125266E+04  2.995858E+03  1.549884E+04
        42  20 -1.489063E+04 -3.159379E+05 -3.185395E+04 -1.328796E+04  3.853100E+03  3.394293E+03
        42  21 -2.084317E+04 -3.305897E+05 -3.763746E+04 -1.791485E+04  4.459927E+03 -8.710057E+03
        42  22 -6.255585E+03 -2.639127E+05 -2.921917E+04 -1.475820E+04  2.995778E+03  1.361400E+04
        42  23 -2.446238E+03 -2.623251E+05 -2.326249E+04 -1.346242E+04  3.853074E+03  1.989537E+03
        42  24 -5.283205E+03 -2.639129E+05 -2.653714E+04 -1.475829E+04  4.459836E+03 -9.634968E+03
        42  25  3.156856E+03 -2.232787E+05 -2.280270E+04 -1.826398E+04  2.995720E+03  1.172905E+04
        42  26  9.998007E+03 -2.087094E+05 -1.467110E+04 -1.363690E+04  3.853048E+03  5.846633E+02
        42  27  1.027657E+04 -1.972318E+05 -1.543695E+04 -1.160139E+04  4.459735E+03 -1.055998E+04
        43   1 -2.329205E+04 -3.416003E+05 -4.380060E+04 -1.273294E+04 -4.844947E+03  1.299112E+04
        43   2 -4.518414E+04 -3.468111E+05 -6.676427E+04 -4.149915E+04 -4.227716E+03  4.313497E+04
        43   3 -1.139640E+05 -3.676701E+05 -1.210798E+05 -7.269169E+04 -1.294061E+03  7.327732E+04
        43   4 -5.724857E+03 -2.665124E+05 -3.107811E+04 -1.472238E+04 -4.844925E+03  1.403060E+04
        43   5 -2.429962E+04 -2.590803E+05 -5.010685E+04 -1.350733E+04 -4.225806E+03  3.972614E+04
        43   6 -8.898929E+04 -2.665239E+05 -9.739569E+04 -1.472037E+04 -1.287501E+03  6.542112E+04
        43   7  1.184205E+04 -1.914189E+05 -1.835580E+04 -1.671207E+04 -4.844909E+03  1.507020E+04
        43   8 -3.412597E+03 -1.713405E+05 -3.344931E+04  1.448854E+04 -4.224203E+03  3.631685E+04
        43   9 -6.400258E+04 -1.653609E+05 -7.371026E+04  4.326047E+04 -1.282409E+03  5.756365E+04
        43  10 -2.329212E+04 -3.416005E+05 -4.380096E+04 -1.273289E+04  2.402094E-10 -2.751580E-10
        43  11 -4.518466E+04 -3.468131E+05 -6.676780E+04 -4.149900E+04 -1.502828E-10  6.761243E-12
        43  12 -1.139655E+05 -3.676759E+05 -1.210899E+05 -7.269161E+04 -5.694087E-11  3.215863E-10
        43  13 -5.724936E+03 -2.665126E+05 -3.107852E+04 -1.472233E+04 -1.659282E-10  9.725823E-12
        43  14 -2.430006E+04 -2.590820E+05 -5.010985E+04 -1.350720E+04 -1.820794E-10 -2.607500E-11
        43  15 -8.899044E+04 -2.665285E+05 -9.740374E+04 -1.472030E+04  5.155774E-11 -7.356530E-12
        43  16  1.184197E+04 -1.914192E+05 -1.835627E+04 -1.671201E+04  4.137943E-11  2.750902E-10
        43  17 -3.412970E+03 -1.713419E+05 -3.345182E+04  1.448867E+04 -7.985284E-11 -3.323495E-11
        43  18 -6.400348E+04 -1.653644E+05 -7.371649E+04  4.326053E+04  3.527292E-11 -3.051220E-10
        43  19 -2.329205E+04 -3.416003E+05 -4.380060E+04 -1.273294E+04  4.844947E+03 -1.299112E+04
        43  20 -4.518414E+04 -3.468111E+05 -6.676427E+04 -4.149915E+04  4.227716E+03 -4.313497E+04
        43  21 -1.139640E+05 -3.676701E+05 -1.210798E+05 -7.269169E+04  1.294061E+03 -7.327732E+04
        43  22 -5.724857E+03 -2.665124E+05 -3.107811E+04 -1.472238E+04  4.844925E+03 -1.403060E+04
        43  23 -2.429962E+04 -2.590803E+05 -5.010685E+04 -1.350733E+04  4.225806E+03 -3.972614E+04
        43  24 -8.898929E+04 -2.665239E+05 -9.739569E+04 -1.472037E+04  1.287501E+03 -6.542112E+04
        43  25  1.184205E+04 -1.914189E+05 -1.835580E+04 -1.671207E+04  4.844909E+03 -1.507020E+04
        43  26 -3.412597E+03 -1.713405E+05 -3.344931E+04  1.448854E+04  4.224203E+03 -3.631685E+04
        43  27 -6.400258E+04 -1.653609E+05 -7.371026E+04  4.326047E+04  1.282409E+03 -5.756365E+04
        44   1  5.620444E+04 -4.102127E+04 -4.976106E+04  4.688536E+04 -1.724185E+04 -1.029917E+04
        44   2  7.257651E+04 -1.742697E+04 -3.242055E+04  5.393397E+04 -1.205436E+04 -5.007128E+02
        44   3  8.931664E+04 -3.155349E+03 -2.313830E+04  6.128142E+04 -4.537141E+03  6.191956E+03
        44   4  1.734096E+05  5.222698E+04 -1.020161E+04  1.096028E+05 -6.998976E+03 -2.618092E+03
        44   5  1.741588E+05  5.905161E+04 -5.011065E+03  1.073460E+05 -7.775006E+03  2.708082E+03
        44   6  1.765707E+05  5.784813E+04 -2.702475E+03  1.053876E+05 -6.221748E+03  4.928597E+03
        44   7  2.906271E+05  1.454833E+05  2.935566E+04  1.723331E+05  3.246301E+03  5.065101E+03
        44   8  2.757516E+05  1.355365E+05  2.239720E+04  1.607678E+05 -3.494762E+03  5.917608E+03
        44   9  2.638335E+05  1.188561E+05  1.773287E+04  1.495010E+05 -7.906670E+03  3.665005E+03
        44  10  5.620409E+04 -4.102146E+04 -4.976182E+04  4.688522E+04 -1.117189E-10 -1.667208E-11
        44  11  7.257636E+04 -1.742700E+04 -3.242082E+04  5.393397E+04  1.454523E-10  7.219277E-11
        44  12  8.931660E+04 -3.155396E+03 -2.313841E+04  6.128144E+04  4.564311E-11  9.415122E-11
        44  13  1.734095E+05  5.222696E+04 -1.020171E+04  1.096028E+05 -1.066113E-10  3.105659E-11
        44  14  1.741587E+05  5.905159E+04 -5.011192E+03  1.073460E+05 -9.351365E-12  6.122990E-11
        44  15  1.765706E+05  5.784809E+04 -2.702593E+03  1.053877E+05 -1.576163E-10  9.165497E-11
        44  16  2.906270E+05  1.454833E+05  2.935559E+04  1.723331E+05  3.068893E-12  6.907888E-11
        44  17  2.757516E+05  1.355364E+05  2.239712E+04  1.607678E+05 -9.675536E-11  3.897797E-11
        44  18  2.638334E+05  1.188561E+05  1.773273E+04  1.495010E+05 -7.696078E-11  2.448752E-11
        44  19  5.620444E+04 -4.102127E+04 -4.976106E+04  4.688536E+04  1.724185E+04  1.029917E+04
        44  20  7.257651E+04 -1.742697E+04 -3.242055E+04  5.393397E+04  1.205436E+04  5.007128E+02
        44  21  8.931664E+04 -3.155349E+03 -2.313830E+04  6.128142E+04  4.537141E+03 -6.191956E+03
        44  22  1.734096E+05  5.222698E+04 -1.020161E+04  1.096028E+05  6.998976E+03  2.618092E+03
        44  23  1.741588E+05  5.905161E+04 -5.011065E+03  1.073460E+05  7.775006E+03 -2.708082E+03
        44  24  1.765707E+05  5.784813E+04 -2.702475E+03  1.053876E+05  6.221748E+03 -4.928597E+03
        44  25  2.906271E+05  1.454833E+05  2.935566E+04  1.723331E+05 -3.246301E+03 -5.065101E+03
        44  26  2.757516E+05  1.355365E+05  2.239720E+04  1.607678E+05  3.494762E+03 -5.917608E+03
        44  27  2.638335E+05  1.188561E+05  1.773287E+04  1.495010E+05  7.906670E+03 -3.665005E+03
        45   1  1.014276E+05  4.479889E+03 -1.947986E+04  6.698478E+04 -3.958569E+03  5.680401E+03
        45   2  1.168178E+05  1.972271E+04 -1.391011E+04  7.645171E+04 -2.199630E+03  5.498183E+03
        45   3  1.365063E+05  2.993423E+04 -9.298121E+03  8.464701E+04 -1.962030E+02  4.989935E+03
        45   4  1.768418E+05  5.793135E+04 -2.014370E+03  1.054985E+05 -5.490773E+03  4.531377E+03
        45   5  1.747204E+05  6.054792E+04 -1.030272E+03  1.060088E+05 -4.357919E+03  3.879778E+03
        45   6  1.770324E+05  5.826879E+04 -4.607012E+02  1.052470E+05 -2.980659E+03  2.902136E+03
        45   7  2.522642E+05  1.113875E+05  1.545133E+04  1.440184E+05 -7.023256E+03  3.382142E+03
        45   8  2.326270E+05  1.013752E+05  1.184942E+04  1.355690E+05 -6.516475E+03  2.261171E+03
        45   9  2.175596E+05  8.660379E+04  8.376401E+03  1.258482E+05 -5.765302E+03  8.141992E+02
        45  10  1.014275E+05  4.479850E+03 -1.947995E+04  6.698480E+04  1.239975E-10  1.850094E-10
        45  11  1.168178E+05  1.972268E+04 -1.391018E+04  7.645172E+04  3.128225E-10 -3.253083E-11
        45  12  1.365063E+05  2.993420E+04 -9.298168E+03  8.464701E+04  1.952798E-10 -9.427351E-11
        45  13  1.768417E+05  5.793132E+04 -2.014465E+03  1.054985E+05 -7.061168E-11 -2.031982E-11
        45  14  1.747204E+05  6.054790E+04 -1.030336E+03  1.060088E+05 -1.440710E-10 -8.805578E-11
        45  15  1.770324E+05  5.826878E+04 -4.607337E+02  1.052470E+05  4.195454E-11 -1.666405E-10
        45  16  2.522641E+05  1.113874E+05  1.545122E+04  1.440184E+05 -2.451486E-10 -1.940117E-10
        45  17  2.326270E+05  1.013752E+05  1.184934E+04  1.355691E+05 -1.221907E-10 -1.843689E-10
        45  18  2.175595E+05  8.660378E+04  8.376337E+03  1.258482E+05  6.355799E-12 -1.058684E-10
        45  19  1.014276E+05  4.479889E+03 -1.947986E+04  6.698478E+04  3.958569E+03 -5.680401E+03
        45  20  1.168178E+05  1.972271E+04 -1.391011E+04  7.645171E+04  2.199630E+03 -5.498183E+03
        45  21  1.365063E+05  2.993423E+04 -9.298121E+03  8.464701E+04  1.962030E+02 -4.989935E+03
        45  22  1.768418E+05  5.793135E+04 -2.014370E+03  1.054985E+05  5.490773E+03 -4.531377E+03
        45  23  1.747204E+05  6.054792E+04 -1.030272E+03  1.060088E+05  4.357919E+03 -3.879778E+03
        45  24  1.770324E+05  5.826879E+04 -4.607012E+02  1.052470E+05  2.980659E+03 -2.902136E+03
        45  25  2.522642E+05  1.113875E+05  1.545133E+04  1.440184E+05  7.023256E+03 -3.382142E+03
        45  26  2.326270E+05  1.013752E+05  1.184942E+04  1.355690E+05  6.516475E+03 -2.261171E+03
        45  27  2.175596E+05  8.660379E+04  8.376401E+03  1.258482E+05  5.765302E+03 -8.141992E+02
        46   1  1.477584E+05  3.777499E+04 -6.555035E+03  9.034951E+04  4.777126E+02  4.159386E+03
        46   2  1.629915E+05  5.245259E+04 -2.354654E+03  9.997571E+04  1.516938E+03  2.680745E+03
        46   3  1.828981E+05  6.247424E+04  1.883853E+03  1.082415E+05  2.560930E+03  1.195739E+03
        46   4  1.770587E+05  5.827373E+04 -2.467800E+02  1.052638E+05 -2.291847E+03  2.082804E+03
        46   5  1.747300E+05  6.061673E+04  1.432205E+02  1.059321E+05 -1.264910E+03  5.949654E+02
        46   6  1.770771E+05  5.830617E+04  5.819690E+02  1.052398E+05 -2.332007E+02 -8.992441E+02
        46   7  2.063600E+05  7.877303E+04  6.061490E+03  1.201789E+05 -5.061583E+03  6.091435E+00
        46   8  1.864688E+05  6.878106E+04  2.641179E+03  1.118888E+05 -4.046858E+03 -1.490888E+03
        46   9  1.712561E+05  5.413804E+04 -7.199140E+02  1.022380E+05 -3.027354E+03 -2.994244E+03
        46  10  1.477584E+05  3.777497E+04 -6.555068E+03  9.034950E+04 -2.236637E-10 -1.713547E-10
        46  11  1.629915E+05  5.245258E+04 -2.354672E+03  9.997570E+04 -2.383276E-11  1.156717E-10
        46  12  1.828981E+05  6.247424E+04  1.883838E+03  1.082415E+05  2.568320E-10  2.564197E-10
        46  13  1.770587E+05  5.827372E+04 -2.467980E+02  1.052638E+05  1.703858E-10 -3.881877E-11
        46  14  1.747300E+05  6.061673E+04  1.432168E+02  1.059321E+05  2.822044E-11  2.009800E-10
        46  15  1.770771E+05  5.830617E+04  5.819674E+02  1.052398E+05 -1.124695E-10  1.234973E-11
        46  16  2.063600E+05  7.877302E+04  6.061441E+03  1.201789E+05  2.828858E-10  1.076554E-10
        46  17  1.864688E+05  6.878105E+04  2.641144E+03  1.118888E+05 -4.012750E-10  1.321494E-10
        46  18  1.712561E+05  5.413803E+04 -7.199480E+02  1.022380E+05 -1.354877E-10 -8.075598E-11
        46  19  1.477584E+05  3.777499E+04 -6.555035E+03  9.034951E+04 -4.777126E+02 -4.159386E+03
        46  20  1.629915E+05  5.245259E+04 -2.354654E+03  9.997571E+04 -1.516938E+03 -2.680745E+03
        46  21  1.828981E+05  6.247424E+04  1.883853E+03  1.082415E+05 -2.560930E+03 -1.195739E+03
        46  22  1.770587E+05  5.827373E+04 -2.467800E+02  1.052638E+05  2.291847E+03 -2.082804E+03
        46  23  1.747300E+05  6.061673E+04  1.432205E+02  1.059321E+05  1.264910E+03 -5.949654E+02
        46  24  1.770771E+05  5.830617E+04  5.819690E+02  1.052398E+05  2.332007E+02  8.992441E+02
        46  25  2.063600E+05  7.877303E+04  6.061490E+03  1.201789E+05  5.061583E+03 -6.091435E+00
        46  26  1.864688E+05  6.878106E+04  2.641179E+03  1.118888E+05  4.046858E+03  1.490888E+03
        46  27  1.712561E+05  5.413804E+04 -7.199140E+02  1.022380E+05  3.027354E+03  2.994244E+03
        47   1  1.940583E+05  7.041370E+04  4.679575E+03  1.139789E+05  3.118618E+03  2.705132E+02
        47   2  2.094918E+05  8.489065E+04  9.457119E+03  1.233795E+05  2.943814E+03 -1.935679E+03
        47   3  2.300016E+05  9.522405E+04  1.533536E+04  1.313021E+05  2.570349E+03 -3.876931E+03
        47   4  1.771020E+05  5.832489E+04  8.571520E+02  1.052660E+05  3.129076E+02 -1.833165E+03
        47   5  1.747622E+05  6.070681E+04  1.654900E+03  1.058135E+05  6.470193E+02 -3.657823E+03
        47   6  1.773884E+05  5.883500E+04  3.111983E+03  1.048828E+05  7.824948E+02 -5.217521E+03
        47   7  1.601465E+05  4.623654E+04 -2.965116E+03  9.655368E+04 -2.492643E+03 -3.936723E+03
        47   8  1.400345E+05  3.652399E+04 -6.147222E+03  8.824885E+04 -1.649579E+03 -5.379822E+03
        47   9  1.247783E+05  2.244761E+04 -9.111530E+03  7.846618E+04 -1.005156E+03 -6.557961E+03
        47  10  1.940583E+05  7.041370E+04  4.679556E+03  1.139789E+05 -7.509633E-11  3.462790E-11
        47  11  2.094918E+05  8.489064E+04  9.457096E+03  1.233795E+05  3.915389E-10 -8.996880E-12
        47  12  2.300016E+05  9.522403E+04  1.533532E+04  1.313021E+05  4.665605E-10  9.474488E-11
        47  13  1.771020E+05  5.832489E+04  8.571455E+02  1.052660E+05 -3.194001E-11  8.949697E-11
        47  14  1.747622E+05  6.070680E+04  1.654874E+03  1.058135E+05  5.490944E-11 -4.864107E-11
        47  15  1.773883E+05  5.883497E+04  3.111930E+03  1.048828E+05 -1.664151E-10 -1.638057E-10
        47  16  1.601465E+05  4.623652E+04 -2.965156E+03  9.655368E+04 -3.362838E-11  1.188957E-10
        47  17  1.400344E+05  3.652395E+04 -6.147282E+03  8.824884E+04  1.049013E-10  7.278014E-12
        47  18  1.247783E+05  2.244756E+04 -9.111613E+03  7.846618E+04 -3.620220E-10 -4.406178E-10
        47  19  1.940583E+05  7.041370E+04  4.679575E+03  1.139789E+05 -3.118618E+03 -2.705132E+02
        47  20  2.094918E+05  8.489065E+04  9.457119E+03  1.233795E+05 -2.943814E+03  1.935679E+03
        47  21  2.300016E+05  9.522405E+04  1.533536E+04  1.313021E+05 -2.570349E+03  3.876931E+03
        47  22  1.771020E+05  5.832489E+04  8.571520E+02  1.052660E+05 -3.129076E+02  1.833165E+03
        47  23  1.747622E+05  6.070681E+04  1.654900E+03  1.058135E+05 -6.470193E+02  3.657823E+03
        47  24  1.773884E+05  5.883500E+04  3.111983E+03  1.048828E+05 -7.824948E+02  5.217521E+03
        47  25  1.601465E+05  4.623654E+04 -2.965116E+03  9.655368E+04  2.492643E+03  3.936723E+03
        47  26  1.400345E+05  3.652399E+04 -6.147222E+03  8.824885E+04  1.649579E+03  5.379822E+03
        47  27  1.247783E+05  2.244761E+04 -9.111530E+03  7.846618E+04  1.005156E+03  6.557961E+03
        48   1  2.408920E+05  1.041922E+05  1.924697E+04  1.374430E+05  2.759116E+03 -4.761329E+03
        48   2  2.610031E+05  1.157256E+05  2.910644E+04  1.432636E+05 -5.452114E+03 -1.049356E+04
        48   3  2.907543E+05  1.294231E+05  4.757960E+04  1.453914E+05 -1.556492E+04 -1.369132E+04
        48   4  1.776676E+05  5.909315E+04  4.145497E+03  1.050907E+05  8.470653E+02 -6.195094E+03
        48   5  1.757768E+05  6.281120E+04  7.635398E+03  1.037322E+05 -2.494570E+03 -8.276042E+03
        48   6  1.824697E+05  6.763736E+04  1.551420E+04  9.868047E+04 -7.737306E+03 -7.822065E+03
        48   7  1.144465E+05  1.399564E+04 -1.095666E+04  7.274170E+04 -1.064763E+03 -7.628688E+03
        48   8  9.055867E+04  9.899885E+03 -1.383616E+04  6.420670E+04  4.624241E+02 -6.058875E+03
        48   9  7.420011E+04  5.856591E+03 -1.655139E+04  5.197871E+04  8.826486E+01 -1.953976E+03
        48  10  2.408920E+05  1.041922E+05  1.924691E+04  1.374430E+05  1.259284E-10 -2.996797E-10
        48  11  2.610031E+05  1.157255E+05  2.910618E+04  1.432636E+05  4.188229E-12 -1.260666E-10
        48  12  2.907540E+05  1.294228E+05  4.757879E+04  1.453913E+05 -7.190649E-11 -4.553988E-11
        48  13  1.776676E+05  5.909311E+04  4.145423E+03  1.050908E+05  2.823656E-10 -2.450142E-10
        48  14  1.757768E+05  6.281112E+04  7.635257E+03  1.037322E+05 -7.712252E-11 -8.880803E-11
        48  15  1.824696E+05  6.763728E+04  1.551397E+04  9.868042E+04  5.607030E-11 -9.610546E-12
        48  16  1.144465E+05  1.399558E+04 -1.095677E+04  7.274169E+04  2.413215E-10 -1.134175E-10
        48  17  9.055866E+04  9.899845E+03 -1.383623E+04  6.420671E+04  3.851044E-10 -1.674756E-11
        48  18  7.420011E+04  5.856587E+03 -1.655140E+04  5.197872E+04  3.599174E-11  1.857041E-11
        48  19  2.408920E+05  1.041922E+05  1.924697E+04  1.374430E+05 -2.759116E+03  4.761329E+03
        48  20  2.610031E+05  1.157256E+05  2.910644E+04  1.432636E+05  5.452114E+03  1.049356E+04
        48  21  2.907543E+05  1.294231E+05  4.757960E+04  1.453914E+05  1.556492E+04  1.369132E+04
        48  22  1.776676E+05  5.909315E+04  4.145497E+03  1.050907E+05 -8.470653E+02  6.195094E+03
        48  23  1.757768E+05  6.281120E+04  7.635398E+03  1.037322E+05  2.494570E+03  8.276042E+03
        48  24  1.824697E+05  6.763736E+04  1.551420E+04  9.868047E+04  7.737306E+03  7.822065E+03
        48  25  1.144465E+05  1.399564E+04 -1.095666E+04  7.274170E+04  1.064763E+03  7.628688E+03
        48  26  9.055867E+04  9.899885E+03 -1.383616E+04  6.420670E+04 -4.624241E+02  6.058875E+03
        48  27  7.420011E+04  5.856591E+03 -1.655139E+04  5.197871E+04 -8.826486E+01  1.953976E+03
        49   1  3.633232E+05  2.820215E+04  3.076758E+04  1.831368E+04  2.131053E+04  6.282798E-01
        49   2  3.609947E+05  7.699000E+03  1.534830E+04  8.821999E+03  1.343038E+04  1.907388E-01
        49   3  3.633276E+05  1.741005E+03  8.693620E+03 -6.696121E+02  5.550240E+03 -5.982970E-03
        49   4  3.633229E+05  2.820152E+04  3.076749E+04 -6.474660E-10  2.131053E+04  3.232419E-11
        49   5  3.609946E+05  7.698853E+03  1.534828E+04 -2.735001E-10  1.343038E+04  3.025720E-11
        49   6  3.633276E+05  1.741004E+03  8.693620E+03 -7.131744E-10  5.550240E+03 -2.073574E-10
        49   7  3.633232E+05  2.820215E+04  3.076758E+04 -1.831368E+04  2.131053E+04 -6.282798E-01
        49   8  3.609947E+05  7.699000E+03  1.534830E+04 -8.821999E+03  1.343038E+04 -1.907388E-01
        49   9  3.633276E+05  1.741005E+03  8.693620E+03  6.696121E+02  5.550240E+03  5.982970E-03
        49  10  3.633227E+05  2.820203E+04  3.076673E+04  1.831368E+04 -5.250337E-11 -3.011686E-12
        49  11  3.609945E+05  7.698951E+03  1.534796E+04  8.821999E+03  3.373075E-11 -5.630640E-11
        49  12  3.633276E+05  1.740997E+03  8.693562E+03 -6.696121E+02  1.287030E-10 -1.124644E-10
        49  13  3.633224E+05  2.820140E+04  3.076664E+04 -1.409733E-10 -6.312248E-12  1.563724E-11
        49  14  3.609944E+05  7.698805E+03  1.534794E+04  1.367263E-10  8.780781E-12 -4.992677E-12
        49  15  3.633276E+05  1.740996E+03  8.693562E+03 -3.997350E-10  2.205332E-10 -1.472011E-10
        49  16  3.633227E+05  2.820203E+04  3.076673E+04 -1.831368E+04  1.008921E-10  4.253553E-11
        49  17  3.609945E+05  7.698951E+03  1.534796E+04 -8.821999E+03  2.274131E-10  3.261212E-11
        49  18  3.633276E+05  1.740997E+03  8.693562E+03  6.696121E+02 -1.982207E-10 -1.931735E-10
        49  19  3.633232E+05  2.820215E+04  3.076758E+04  1.831368E+04 -2.131053E+04 -6.282798E-01
        49  20  3.609947E+05  7.699000E+03  1.534830E+04  8.821999E+03 -1.343038E+04 -1.907388E-01
        49  21  3.633276E+05  1.741005E+03  8.693620E+03 -6.696121E+02 -5.550240E+03  5.982970E-03
        49  22  3.633229E+05  2.820152E+04  3.076749E+04 -4.460192E-10 -2.131053E+04  5.128571E-13
        49  23  3.609946E+05  7.698853E+03  1.534828E+04  1.388212E-10 -1.343038E+04 -3.961663E-11
        49  24  3.633276E+05  1.741004E+03  8.693620E+03 -2.272495E-10 -5.550240E+03 -8.236656E-11
        49  25  3.633232E+05  2.820215E+04  3.076758E+04 -1.831368E+04 -2.131053E+04  6.282798E-01
        49  26  3.609947E+05  7.699000E+03  1.534830E+04 -8.821999E+03 -1.343038E+04  1.907388E-01
        49  27  3.633276E+05  1.741005E+03  8.693620E+03  6.696121E+02 -5.550240E+03 -5.982970E-03
        50   1  3.624137E+05  1.602229E+03  6.825877E+03  8.340238E+02  4.387858E+03  5.891329E-03
        50   2  3.621390E+05  3.273885E+02  4.471210E+03  3.647816E+02  2.158003E+03  1.267265E-03
        50   3  3.624141E+05  9.093109E+01  3.827231E+03 -1.044538E+02 -7.181638E+01  1.207619E-05
        50   4  3.624137E+05  1.602228E+03  6.825877E+03 -2.618897E-10  4.387858E+03 -2.438873E-10
        50   5  3.621390E+05  3.273883E+02  4.471210E+03  2.524889E-10  2.158003E+03 -6.453994E-11
        50   6  3.624141E+05  9.093107E+01  3.827231E+03 -3.481313E-10 -7.181638E+01  2.532289E-11
        50   7  3.624137E+05  1.602229E+03  6.825877E+03 -8.340238E+02  4.387858E+03 -5.891330E-03
        50   8  3.621390E+05  3.273885E+02  4.471210E+03 -3.647816E+02  2.158003E+03 -1.267265E-03
        50   9  3.624141E+05  9.093109E+01  3.827231E+03  1.044538E+02 -7.181638E+01 -1.207616E-05
        50  10  3.624136E+05  1.602224E+03  6.825841E+03  8.340238E+02 -5.616138E-10 -1.170775E-10
        50  11  3.621390E+05  3.273873E+02  4.471201E+03  3.647816E+02  1.918458E-13 -3.991191E-11
        50  12  3.624141E+05  9.093109E+01  3.827231E+03 -1.044538E+02 -2.052799E-10  3.071180E-11
        50  13  3.624136E+05  1.602223E+03  6.825840E+03  3.219234E-10  1.388502E-10 -1.669819E-10
        50  14  3.621390E+05  3.273870E+02  4.471201E+03  2.020108E-10 -3.006653E-30 -4.103367E-11
        50  15  3.624141E+05  9.093107E+01  3.827231E+03  2.546079E-10 -4.791387E-11  4.952590E-11
        50  16  3.624136E+05  1.602224E+03  6.825841E+03 -8.340238E+02  4.133170E-10 -2.172542E-10
        50  17  3.621390E+05  3.273873E+02  4.471201E+03 -3.647816E+02  1.018200E-10 -5.481793E-11
        50  18  3.624141E+05  9.093109E+01  3.827231E+03  1.044538E+02  1.998708E-10  5.312711E-11
        50  19  3.624137E+05  1.602229E+03  6.825877E+03  8.340238E+02 -4.387858E+03 -5.891329E-03
        50  20  3.621390E+05  3.273885E+02  4.471210E+03  3.647816E+02 -2.158003E+03 -1.267265E-03
        50  21  3.624141E+05  9.093109E+01  3.827231E+03 -1.044538E+02  7.181638E+01 -1.207614E-05
        50  22  3.624137E+05  1.602228E+03  6.825877E+03  5.039164E-10 -4.387858E+03 -8.405955E-11
        50  23  3.621390E+05  3.273883E+02  4.471210E+03  4.881356E-10 -2.158003E+03 -1.038596E-11
        50  24  3.624141E+05  9.093107E+01  3.827231E+03  9.893576E-11  7.181638E+01  7.243877E-11
        50  25  3.624137E+05  1.602229E+03  6.825877E+03 -8.340238E+02 -4.387858E+03  5.891329E-03
        50  26  3.621390E+05  3.273885E+02  4.471210E+03 -3.647816E+02 -2.158003E+03  1.267265E-03
        50  27  3.624141E+05  9.093109E+01  3.827231E+03  1.044538E+02  7.181638E+01  1.207629E-05
        51   1  3.624407E+05  8.924116E+01  3.970303E+03  1.809687E+02 -7.451896E+02 -2.170962E-04
        51   2  3.621057E+05  4.391570E+02  5.258680E+03 -4.357613E+02 -3.369576E+03  2.363776E-03
        51   3  3.624401E+05  2.100691E+03  8.582828E+03 -1.052500E+03 -5.994007E+03  1.015598E-02
        51   4  3.624407E+05  8.924110E+01  3.970303E+03 -5.269630E-10 -7.451896E+02  7.165894E-11
        51   5  3.621057E+05  4.391567E+02  5.258680E+03 -3.124162E-10 -3.369576E+03  1.381197E-10
        51   6  3.624401E+05  2.100689E+03  8.582828E+03 -7.289985E-10 -5.994007E+03  1.099818E-10
        51   7  3.624407E+05  8.924116E+01  3.970303E+03 -1.809687E+02 -7.451896E+02  2.170963E-04
        51   8  3.621057E+05  4.391570E+02  5.258680E+03  4.357613E+02 -3.369576E+03 -2.363776E-03
        51   9  3.624401E+05  2.100691E+03  8.582828E+03  1.052500E+03 -5.994007E+03 -1.015598E-02
        51  10  3.624407E+05  8.924101E+01  3.970302E+03  1.809687E+02 -1.409025E-13  7.128842E-11
        51  11  3.621057E+05  4.391540E+02  5.258659E+03 -4.357613E+02 -4.433345E-11  8.642697E-11
        51  12  3.624400E+05  2.100682E+03  8.582761E+03 -1.052500E+03 -1.970025E-10  8.916090E-11
        51  13  3.624407E+05  8.924095E+01  3.970302E+03  1.914709E-10 -1.262255E-10  6.283256E-11
        51  14  3.621057E+05  4.391536E+02  5.258659E+03 -3.787334E-11  1.998634E-10  6.814892E-11
        51  15  3.624400E+05  2.100680E+03  8.582761E+03 -1.476270E-11  7.889373E-11  9.788022E-11
        51  16  3.624407E+05  8.924101E+01  3.970302E+03 -1.809687E+02  5.063815E-11  5.872688E-11
        51  17  3.621057E+05  4.391540E+02  5.258659E+03  4.357613E+02  1.106047E-10  3.657122E-11
        51  18  3.624400E+05  2.100682E+03  8.582761E+03  1.052500E+03  3.749589E-11  1.197693E-10
        51  19  3.624407E+05  8.924116E+01  3.970303E+03  1.809687E+02  7.451896E+02  2.170963E-04
        51  20  3.621057E+05  4.391570E+02  5.258680E+03 -4.357613E+02  3.369576E+03 -2.363776E-03
        51  21  3.624401E+05  2.100691E+03  8.582828E+03 -1.052500E+03  5.994007E+03 -1.015598E-02
        51  22  3.624407E+05  8.924110E+01  3.970303E+03 -2.313894E-10  7.451896E+02  6.141070E-11
        51  23  3.621057E+05  4.391567E+02  5.258680E+03 -2.924271E-10  3.369576E+03  3.515395E-12
        51  24  3.624401E+05  2.100689E+03  8.582828E+03 -5.943466E-10  5.994007E+03  9.246390E-11
        51  25  3.624407E+05  8.924116E+01  3.970303E+03 -1.809687E+02  7.451896E+02 -2.170962E-04
        51  26  3.621057E+05  4.391570E+02  5.258680E+03  4.357613E+02  3.369576E+03  2.363776E-03
        51  27  3.624401E+05  2.100691E+03  8.582828E+03  1.052500E+03  5.994007E+03  1.015598E-02
        52   1  3.636405E+05  2.278634E+03  1.110345E+04  8.982328E+02 -7.460233E+03 -1.078755E-02
        52   2  3.606026E+05  1.004386E+04  1.990328E+04 -1.148205E+04 -1.768094E+04  3.268202E-01
        52   3  3.636349E+05  3.677113E+04  4.009522E+04 -2.386244E+04 -2.790166E+04  1.071836E+00
        52   4  3.636405E+05  2.278633E+03  1.110345E+04 -7.226519E-10 -7.460233E+03  8.673985E-11
        52   5  3.606025E+05  1.004361E+04  1.990324E+04 -3.040148E-10 -1.768094E+04  5.735555E-11
        52   6  3.636343E+05  3.677006E+04  4.009507E+04 -5.322921E-10 -2.790166E+04  5.431128E-11
        52   7  3.636405E+05  2.278634E+03  1.110345E+04 -8.982328E+02 -7.460233E+03  1.078755E-02
        52   8  3.606026E+05  1.004386E+04  1.990328E+04  1.148205E+04 -1.768094E+04 -3.268202E-01
        52   9  3.636349E+05  3.677113E+04  4.009522E+04  2.386244E+04 -2.790166E+04 -1.071836E+00
        52  10  3.636405E+05  2.278619E+03  1.110335E+04  8.982328E+02  1.205737E-11  8.654682E-11
        52  11  3.606023E+05  1.004378E+04  1.990269E+04 -1.148205E+04 -3.050600E-11  6.091729E-11
        52  12  3.636341E+05  3.677093E+04  4.009376E+04 -2.386244E+04 -1.198441E-11  2.106942E-11
        52  13  3.636405E+05  2.278618E+03  1.110335E+04 -1.115159E-10  6.494044E-12  9.114813E-11
        52  14  3.606022E+05  1.004353E+04  1.990266E+04 -3.368408E-11 -3.247031E-12  3.664571E-11
        52  15  3.636335E+05  3.676986E+04  4.009361E+04 -2.251364E-10 -6.215483E-11  3.612359E-12
        52  16  3.636405E+05  2.278619E+03  1.110335E+04 -8.982328E+02  1.156106E-10  1.031486E-10
        52  17  3.606023E+05  1.004378E+04  1.990269E+04  1.148205E+04 -1.986255E-10  9.027589E-12
        52  18  3.636341E+05  3.677093E+04  4.009376E+04  2.386244E+04 -4.264183E-11  9.587837E-12
        52  19  3.636405E+05  2.278634E+03  1.110345E+04  8.982328E+02  7.460233E+03  1.078755E-02
        52  20  3.606026E+05  1.004386E+04  1.990328E+04 -1.148205E+04  1.768094E+04 -3.268202E-01
        52  21  3.636349E+05  3.677113E+04  4.009522E+04 -2.386244E+04  2.790166E+04 -1.071836E+00
        52  22  3.636405E+05  2.278633E+03  1.110345E+04 -3.545065E-10  7.460233E+03  9.216552E-11
        52  23  3.606025E+05  1.004361E+04  1.990324E+04  3.573608E-11  1.768094E+04  1.332419E-11
        52  24  3.636343E+05  3.677006E+04  4.009507E+04 -3.419005E-10  2.790166E+04 -4.550106E-11
        52  25  3.636405E+05  2.278634E+03  1.110345E+04 -8.982328E+02  7.460233E+03 -1.078755E-02
        52  26  3.606026E+05  1.004386E+04  1.990328E+04  1.148205E+04  1.768094E+04  3.268202E-01
        52  27  3.636349E+05  3.677113E+04  4.009522E+04  2.386244E+04  2.790166E+04  1.071836E+00
        53   1 -5.974839E+04 -1.045046E+05 -6.660117E+04  2.404698E+04  3.001387E+02 -5.064024E+04
        53   2 -1.351678E+04 -1.180372E+05 -3.404760E+04  2.211621E+03  6.585628E+02 -3.260479E+04
        53   3 -3.360025E+03 -1.429359E+05 -2.225471E+04 -2.338830E+04 -4.011256E+01 -1.456962E+04
        53   4 -7.039914E+04 -1.474028E+05 -7.694970E+04 -2.175071E+04  3.039394E+02 -5.233603E+04
        53   5 -1.922776E+04 -1.415401E+05 -3.910118E+04 -1.986761E+04  6.597115E+02 -3.227514E+04
        53   6 -4.486025E+03 -1.473977E+05 -2.342147E+04 -2.174902E+04 -4.025613E+01 -1.221392E+04
        53   7 -8.104214E+04 -1.902948E+05 -8.729722E+04 -6.754523E+04  3.079905E+02 -5.403171E+04
        53   8 -2.493694E+04 -1.650415E+05 -4.415454E+04 -4.194600E+04  6.608367E+02 -3.194550E+04
        53   9 -5.612014E+03 -1.518596E+05 -2.458821E+04 -2.010976E+04 -4.038725E+01 -9.858232E+03
        53  10 -5.974908E+04 -1.045073E+05 -6.660599E+04  2.404699E+04  5.546143E-12 -1.743857E-10
        53  11 -1.351707E+04 -1.180383E+05 -3.404959E+04  2.211638E+03 -1.141749E-10  4.671756E-11
        53  12 -3.360082E+03 -1.429361E+05 -2.225511E+04 -2.338831E+04  9.241985E-11  2.850583E-10
        53  13 -7.039988E+04 -1.474057E+05 -7.695485E+04 -2.175070E+04 -1.655422E-10  1.054470E-12
        53  14 -1.922804E+04 -1.415412E+05 -3.910314E+04 -1.986760E+04 -1.837028E-10 -9.378590E-12
        53  15 -4.486065E+03 -1.473979E+05 -2.342175E+04 -2.174902E+04 -9.820435E-12 -4.818172E-12
        53  16 -8.104293E+04 -1.902979E+05 -8.730271E+04 -6.754522E+04 -6.960341E-11  1.721778E-10
        53  17 -2.493722E+04 -1.650426E+05 -4.415646E+04 -4.194599E+04 -1.483533E-10 -5.867679E-11
        53  18 -5.612040E+03 -1.518597E+05 -2.458839E+04 -2.010976E+04  1.212401E-10 -2.818466E-10
        53  19 -5.974839E+04 -1.045046E+05 -6.660117E+04  2.404698E+04 -3.001387E+02  5.064024E+04
        53  20 -1.351678E+04 -1.180372E+05 -3.404760E+04  2.211621E+03 -6.585628E+02  3.260479E+04
        53  21 -3.360025E+03 -1.429359E+05 -2.225471E+04 -2.338830E+04  4.011256E+01  1.456962E+04
        53  22 -7.039914E+04 -1.474028E+05 -7.694970E+04 -2.175071E+04 -3.039394E+02  5.233603E+04
        53  23 -1.922776E+04 -1.415401E+05 -3.910118E+04 -1.986761E+04 -6.597115E+02  3.227514E+04
        53  24 -4.486025E+03 -1.473977E+05 -2.342147E+04 -2.174902E+04  4.025613E+01  1.221392E+04
        53  25 -8.104214E+04 -1.902948E+05 -8.729722E+04 -6.754523E+04 -3.079905E+02  5.403171E+04
        53  26 -2.493694E+04 -1.650415E+05 -4.415454E+04 -4.194600E+04 -6.608367E+02  3.194550E+04
        53  27 -5.612014E+03 -1.518596E+05 -2.458821E+04 -2.010976E+04  4.038725E+01  9.858232E+03
        54   1 -5.900025E+03 -1.530912E+05 -2.035677E+04 -1.943495E+04 -7.982668E+02 -1.128776E+04
        54   2 -7.898175E+03 -1.712219E+05 -1.982315E+04 -1.974220E+04 -1.941106E+03 -3.302668E+03
        54   3 -1.436504E+04 -1.915092E+05 -2.560604E+04 -2.387190E+04 -2.957810E+03  4.682219E+03
        54   4 -4.142253E+03 -1.452636E+05 -1.939797E+04 -2.176200E+04 -7.983263E+02 -8.973575E+03
        54   5 -1.628351E+03 -1.442063E+05 -1.549451E+04 -1.985075E+04 -1.941178E+03 -1.230572E+03
        54   6 -3.541035E+03 -1.452639E+05 -1.773937E+04 -2.176201E+04 -2.957839E+03  6.512458E+03
        54   7 -2.384461E+03 -1.374359E+05 -1.843915E+04 -2.408909E+04 -7.984032E+02 -6.659363E+03
        54   8  4.641439E+03 -1.171900E+05 -1.116588E+04 -1.995931E+04 -1.941250E+03  8.416121E+02
        54   9  7.282870E+03 -9.901649E+04 -9.872745E+03 -1.965196E+04 -2.957857E+03  8.342830E+03
        54  10 -5.900059E+03 -1.530914E+05 -2.035701E+04 -1.943496E+04  5.700232E-11 -4.630134E-10
        54  11 -7.898182E+03 -1.712219E+05 -1.982317E+04 -1.974221E+04  2.440657E-10 -8.753386E-11
        54  12 -1.436505E+04 -1.915092E+05 -2.560610E+04 -2.387189E+04  2.469333E-10  2.981511E-10
        54  13 -4.142276E+03 -1.452637E+05 -1.939812E+04 -2.176201E+04  5.864960E-11  6.334288E-12
        54  14 -1.628355E+03 -1.442063E+05 -1.549452E+04 -1.985076E+04  7.587385E-11  3.095968E-12
        54  15 -3.541056E+03 -1.452639E+05 -1.773946E+04 -2.176200E+04 -1.087177E-10 -2.596702E-12
        54  16 -2.384474E+03 -1.374360E+05 -1.843923E+04 -2.408909E+04  1.267963E-10  4.702649E-10
        54  17  4.641435E+03 -1.171900E+05 -1.116589E+04 -1.995931E+04  1.488634E-10  9.094644E-11
        54  18  7.282842E+03 -9.901657E+04 -9.872892E+03 -1.965194E+04 -2.180726E-10 -2.996229E-10
        54  19 -5.900025E+03 -1.530912E+05 -2.035677E+04 -1.943495E+04  7.982668E+02  1.128776E+04
        54  20 -7.898175E+03 -1.712219E+05 -1.982315E+04 -1.974220E+04  1.941106E+03  3.302668E+03
        54  21 -1.436504E+04 -1.915092E+05 -2.560604E+04 -2.387190E+04  2.957810E+03 -4.682219E+03
        54  22 -4.142253E+03 -1.452636E+05 -1.939797E+04 -2.176200E+04  7.983263E+02  8.973575E+03
        54  23 -1.628351E+03 -1.442063E+05 -1.549451E+04 -1.985075E+04  1.941178E+03  1.230572E+03
        54  24 -3.541035E+03 -1.452639E+05 -1.773937E+04 -2.176201E+04  2.957839E+03 -6.512458E+03
        54  25 -2.384461E+03 -1.374359E+05 -1.843915E+04 -2.408909E+04  7.984032E+02  6.659363E+03
        54  26  4.641439E+03 -1.171900E+05 -1.116588E+04 -1.995931E+04  1.941250E+03 -8.416121E+02
        54  27  7.282870E+03 -9.901649E+04 -9.872745E+03 -1.965196E+04  2.957857E+03 -8.342830E+03
        55   1 -1.758453E+04 -2.056047E+05 -3.092914E+04 -2.039127E+04 -3.619075E+03  7.515674E+03
        55   2 -3.478565E+04 -2.194643E+05 -4.857808E+04 -3.866372E+04 -3.499038E+03  2.907576E+04
        55   3 -8.366409E+04 -2.440507E+05 -8.818501E+04 -6.060755E+04 -1.120551E+03  5.063464E+04
        55   4 -3.837566E+03 -1.470102E+05 -2.080090E+04 -2.172879E+04 -3.619120E+03  9.452161E+03
        55   5 -1.629741E+04 -1.420258E+05 -3.358631E+04 -1.989280E+04 -3.498082E+03  2.667626E+04
        55   6 -5.968087E+04 -1.470152E+05 -6.531692E+04 -2.172939E+04 -1.117326E+03  4.390000E+04
        55   7  9.909223E+03 -8.841235E+04 -1.067276E+04 -2.306644E+04 -3.619173E+03  1.138883E+04
        55   8  2.191807E+03 -6.458086E+04 -1.859461E+04 -1.119483E+03 -3.497271E+03  2.427645E+04
        55   9 -3.569262E+04 -4.996760E+04 -4.244850E+04  1.715487E+04 -1.114945E+03  3.716431E+04
        55  10 -1.758456E+04 -2.056047E+05 -3.092928E+04 -2.039125E+04  2.567444E-10 -3.139625E-10
        55  11 -3.478589E+04 -2.194652E+05 -4.857969E+04 -3.866363E+04  8.922923E-11 -1.459403E-11
        55  12 -8.366478E+04 -2.440535E+05 -8.818983E+04 -6.060750E+04 -7.388521E-11  2.108528E-10
        55  13 -3.837604E+03 -1.470103E+05 -2.080109E+04 -2.172876E+04 -1.140545E-10  1.139787E-11
        55  14 -1.629761E+04 -1.420266E+05 -3.358767E+04 -1.989272E+04  5.526376E-11  9.978247E-12
        55  15 -5.968139E+04 -1.470172E+05 -6.532054E+04 -2.172935E+04 -6.235096E-11  2.846693E-11
        55  16  9.909174E+03 -8.841249E+04 -1.067303E+04 -2.306641E+04 -1.115674E-10  3.254119E-10
        55  17  2.191635E+03 -6.458149E+04 -1.859574E+04 -1.119414E+03 -1.093293E-11  3.753278E-11
        55  18 -3.569299E+04 -4.996909E+04 -4.245109E+04  1.715491E+04 -2.197257E-10 -2.160175E-10
        55  19 -1.758453E+04 -2.056047E+05 -3.092914E+04 -2.039127E+04  3.619075E+03 -7.515674E+03
        55  20 -3.478565E+04 -2.194643E+05 -4.857808E+04 -3.866372E+04  3.499038E+03 -2.907576E+04
        55  21 -8.366409E+04 -2.440507E+05 -8.818501E+04 -6.060755E+04  1.120551E+03 -5.063464E+04
        55  22 -3.837566E+03 -1.470102E+05 -2.080090E+04 -2.172879E+04  3.619120E+03 -9.452161E+03
        55  23 -1.629741E+04 -1.420258E+05 -3.358631E+04 -1.989280E+04  3.498082E+03 -2.667626E+04
        55  24 -5.968087E+04 -1.470152E+05 -6.531692E+04 -2.172939E+04  1.117326E+03 -4.390000E+04
        55  25  9.909223E+03 -8.841235E+04 -1.067276E+04 -2.306644E+04  3.619173E+03 -1.138883E+04
        55  26  2.191807E+03 -6.458086E+04 -1.859461E+04 -1.119483E+03  3.497271E+03 -2.427645E+04
        55  27 -3.569262E+04 -4.996760E+04 -4.244850E+04  1.715487E+04  1.114945E+03 -3.716431E+04
        56   1  4.631408E+04 -2.668912E+04 -3.641281E+04  3.794911E+04 -1.357266E+04 -8.502242E+03
        56   2  5.687218E+04 -8.021610E+03 -2.296304E+04  4.162789E+04 -9.311258E+03 -1.548953E+03
        56   3  6.647313E+04  2.998018E+03 -1.597216E+04  4.619792E+04 -3.560228E+03  3.418704E+03
        56   4  1.185675E+05  3.552804E+04 -1.113056E+04  7.879001E+04 -7.048603E+03 -3.609831E+03
        56   5  1.203566E+05  4.200418E+04 -5.479968E+03  7.604556E+04 -6.600061E+03  4.841200E+02
        56   6  1.220161E+05  4.165980E+04 -2.978603E+03  7.419207E+04 -4.662148E+03  2.592299E+03
        56   7  1.908279E+05  9.775093E+04  1.415163E+04  1.196375E+05 -5.234116E+02  1.283648E+03
        56   8  1.838467E+05  9.203396E+04  1.200317E+04  1.104681E+05 -3.888448E+03  2.517549E+03
        56   9  1.775635E+05  8.032410E+04  1.001510E+04  1.021896E+05 -5.764219E+03  1.765783E+03
        56  10  4.631386E+04 -2.668925E+04 -3.641329E+04  3.794902E+04 -1.661400E-10 -7.163405E-11
        56  11  5.687209E+04 -8.021635E+03 -2.296321E+04  4.162787E+04  1.708806E-10  3.341673E-11
        56  12  6.647311E+04  2.998002E+03 -1.597221E+04  4.619793E+04  1.177977E-11  1.019485E-10
        56  13  1.185675E+05  3.552801E+04 -1.113068E+04  7.878999E+04 -3.327211E-10 -3.314537E-12
        56  14  1.203566E+05  4.200417E+04 -5.480051E+03  7.604556E+04  3.430930E-10  6.350883E-11
        56  15  1.220160E+05  4.165979E+04 -2.978656E+03  7.419208E+04 -1.950248E-10  3.703890E-11
        56  16  1.908279E+05  9.775093E+04  1.415162E+04  1.196375E+05  1.136771E-10  1.089687E-10
        56  17  1.838467E+05  9.203395E+04  1.200313E+04  1.104681E+05  1.821473E-10  6.917479E-11
        56  18  1.775635E+05  8.032409E+04  1.001504E+04  1.021896E+05 -8.685868E-11 -5.349767E-11
        56  19  4.631408E+04 -2.668912E+04 -3.641281E+04  3.794911E+04  1.357266E+04  8.502242E+03
        56  20  5.687218E+04 -8.021610E+03 -2.296304E+04  4.162789E+04  9.311258E+03  1.548953E+03
        56  21  6.647313E+04  2.998018E+03 -1.597216E+04  4.619792E+04  3.560228E+03 -3.418704E+03
        56  22  1.185675E+05  3.552804E+04 -1.113056E+04  7.879001E+04  7.048603E+03  3.609831E+03
        56  23  1.203566E+05  4.200418E+04 -5.479968E+03  7.604556E+04  6.600061E+03 -4.841200E+02
        56  24  1.220161E+05  4.165980E+04 -2.978603E+03  7.419207E+04  4.662148E+03 -2.592299E+03
        56  25  1.908279E+05  9.775093E+04  1.415163E+04  1.196375E+05  5.234116E+02 -1.283648E+03
        56  26  1.838467E+05  9.203396E+04  1.200317E+04  1.104681E+05  3.888448E+03 -2.517549E+03
        56  27  1.775635E+05  8.032410E+04  1.001510E+04  1.021896E+05  5.764219E+03 -1.765783E+03
        57   1  7.462107E+04  7.794467E+03 -1.331289E+04  4.988737E+04 -3.054292E+03  3.181864E+03
        57   2  8.461430E+04  1.786740E+04 -9.309602E+03  5.596666E+04 -1.704159E+03  3.214348E+03
        57   3  9.729704E+04  2.456589E+04 -6.130518E+03  6.125638E+04 -1.977666E+02  3.038409E+03
        57   4  1.222863E+05  4.177637E+04 -2.239028E+03  7.432077E+04 -4.058723E+03  2.428592E+03
        57   5  1.210015E+05  4.360407E+04 -1.199232E+03  7.457759E+04 -3.108753E+03  2.161039E+03
        57   6  1.224932E+05  4.214428E+04 -6.362242E+02  7.404485E+04 -2.002537E+03  1.685063E+03
        57   7  1.699531E+05  7.575898E+04  8.834351E+03  9.875586E+04 -5.063235E+03  1.675257E+03
        57   8  1.573898E+05  6.934128E+04  6.910944E+03  9.318960E+04 -4.513441E+03  1.107658E+03
        57   9  1.476900E+05  5.972304E+04  4.858051E+03  8.683390E+04 -3.807404E+03  3.316453E+02
        57  10  7.462106E+04  7.794453E+03 -1.331292E+04  4.988738E+04 -1.276019E-10 -1.068194E-10
        57  11  8.461429E+04  1.786739E+04 -9.309627E+03  5.596667E+04  2.774200E-10  1.488681E-10
        57  12  9.729704E+04  2.456588E+04 -6.130535E+03  6.125639E+04  3.829333E-10  2.504242E-10
        57  13  1.222863E+05  4.177636E+04 -2.239070E+03  7.432078E+04 -1.152470E-10  8.901119E-11
        57  14  1.210015E+05  4.360406E+04 -1.199259E+03  7.457760E+04 -9.916730E-11  1.336246E-10
        57  15  1.224931E+05  4.214427E+04 -6.362371E+02  7.404485E+04  5.135056E-11 -3.370350E-11
        57  16  1.699531E+05  7.575897E+04  8.834297E+03  9.875587E+04  1.444298E-10  2.324703E-10
        57  17  1.573898E+05  6.934128E+04  6.910903E+03  9.318960E+04 -1.011236E-10  4.239236E-11
        57  18  1.476900E+05  5.972304E+04  4.858024E+03  8.683390E+04 -4.470686E-10 -3.256501E-10
        57  19  7.462107E+04  7.794467E+03 -1.331289E+04  4.988737E+04  3.054292E+03 -3.181864E+03
        57  20  8.461430E+04  1.786740E+04 -9.309602E+03  5.596666E+04  1.704159E+03 -3.214348E+03
        57  21  9.729704E+04  2.456589E+04 -6.130518E+03  6.125638E+04  1.977666E+02 -3.038409E+03
        57  22  1.222863E+05  4.177637E+04 -2.239028E+03  7.432077E+04  4.058723E+03 -2.428592E+03
        57  23  1.210015E+05  4.360407E+04 -1.199232E+03  7.457759E+04  3.108753E+03 -2.161039E+03
        57  24  1.224932E+05  4.214428E+04 -6.362242E+02  7.404485E+04  2.002537E+03 -1.685063E+03
        57  25  1.699531E+05  7.575898E+04  8.834351E+03  9.875586E+04  5.063235E+03 -1.675257E+03
        57  26  1.573898E+05  6.934128E+04  6.910944E+03  9.318960E+04  4.513441E+03 -1.107658E+03
        57  27  1.476900E+05  5.972304E+04  4.858051E+03  8.683390E+04  3.807404E+03 -3.316453E+02
        58   1  1.046131E+05  2.963003E+04 -4.301834E+03  6.495057E+04  2.826954E+02  2.532843E+03
        58   2  1.144933E+05  3.914670E+04 -1.540135E+03  7.118697E+04  1.052302E+03  1.646584E+03
        58   3  1.273825E+05  4.562842E+04  1.163854E+03  7.654105E+04  1.824569E+03  7.567724E+02
        58   4  1.225174E+05  4.215132E+04 -4.457597E+02  7.406126E+04 -1.512630E+03  1.186591E+03
        58   5  1.210182E+05  4.367855E+04 -1.523741E+02  7.449482E+04 -7.498607E+02  2.952062E+02
        58   6  1.225291E+05  4.217209E+04  8.913751E+01  7.404581E+04  1.555925E+01 -5.997248E+02
        58   7  1.404224E+05  5.467307E+04  3.410445E+03  8.317244E+04 -3.308060E+03 -1.597389E+02
        58   8  1.275431E+05  4.821043E+04  1.235404E+03  7.780270E+04 -2.552048E+03 -1.056191E+03
        58   9  1.176758E+05  3.871585E+04 -9.855264E+02  7.155066E+04 -1.793396E+03 -1.956181E+03
        58  10  1.046131E+05  2.963003E+04 -4.301846E+03  6.495057E+04 -1.662130E-10 -2.469865E-10
        58  11  1.144933E+05  3.914669E+04 -1.540142E+03  7.118697E+04 -1.684891E-10 -1.949195E-12
        58  12  1.273825E+05  4.562842E+04  1.163846E+03  7.654105E+04 -3.535292E-11  2.201874E-11
        58  13  1.225174E+05  4.215131E+04 -4.457666E+02  7.406126E+04 -1.155144E-10 -6.985405E-11
        58  14  1.210182E+05  4.367855E+04 -1.523754E+02  7.449482E+04 -4.011015E-11 -4.773583E-11
        58  15  1.225291E+05  4.217209E+04  8.913684E+01  7.404581E+04  8.105406E-11 -5.053316E-12
        58  16  1.404224E+05  5.467306E+04  3.410424E+03  8.317244E+04  3.431343E-10 -2.813486E-11
        58  17  1.275431E+05  4.821042E+04  1.235390E+03  7.780270E+04 -3.775928E-11 -4.535035E-11
        58  18  1.176758E+05  3.871585E+04 -9.855396E+02  7.155065E+04  1.192192E-10 -9.853417E-11
        58  19  1.046131E+05  2.963003E+04 -4.301834E+03  6.495057E+04 -2.826954E+02 -2.532843E+03
        58  20  1.144933E+05  3.914670E+04 -1.540135E+03  7.118697E+04 -1.052302E+03 -1.646584E+03
        58  21  1.273825E+05  4.562842E+04  1.163854E+03  7.654105E+04 -1.824569E+03 -7.567724E+02
        58  22  1.225174E+05  4.215132E+04 -4.457597E+02  7.406126E+04  1.512630E+03 -1.186591E+03
        58  23  1.210182E+05  4.367855E+04 -1.523741E+02  7.449482E+04  7.498607E+02 -2.952062E+02
        58  24  1.225291E+05  4.217209E+04  8.913751E+01  7.404581E+04 -1.555925E+01  5.997248E+02
        58  25  1.404224E+05  5.467307E+04  3.410445E+03  8.317244E+04  3.308060E+03  1.597389E+02
        58  26  1.275431E+05  4.821043E+04  1.235404E+03  7.780270E+04  2.552048E+03  1.056191E+03
        58  27  1.176758E+05  3.871585E+04 -9.855264E+02  7.155066E+04  1.793396E+03  1.956181E+03
        59   1  1.346244E+05  5.074883E+04  2.922427E+03  8.024656E+04  2.229667E+03  1.904770E+02
        59   2  1.445610E+05  6.017757E+04  5.823123E+03  8.639511E+04  2.324788E+03 -1.079725E+03
        59   3  1.576906E+05  6.680648E+04  9.231018E+03  9.162135E+04  2.289083E+03 -2.175458E+03
        59   4  1.225381E+05  4.218049E+04  2.144484E+02  7.405740E+04  4.130805E+02 -1.171703E+03
        59   5  1.210283E+05  4.370612E+04  5.338843E+02  7.445164E+04  8.432607E+02 -2.190687E+03
        59   6  1.226385E+05  4.235913E+04  1.069758E+03  7.392343E+04  1.142626E+03 -3.035190E+03
        59   7  1.104520E+05  3.361225E+04 -2.493522E+03  6.786837E+04 -1.403461E+03 -2.533848E+03
        59   8  9.749586E+04  2.723483E+04 -4.755460E+03  6.250856E+04 -6.382071E+02 -3.301605E+03
        59   9  8.758712E+04  1.791199E+04 -7.091823E+03  5.622631E+04 -3.768156E+00 -3.894876E+03
        59  10  1.346244E+05  5.074883E+04  2.922418E+03  8.024656E+04 -1.624501E-10 -5.106955E-11
        59  11  1.445610E+05  6.017757E+04  5.823110E+03  8.639511E+04  3.865130E-11 -5.383544E-12
        59  12  1.576906E+05  6.680647E+04  9.230999E+03  9.162135E+04 -1.874268E-10 -5.268865E-12
        59  13  1.225381E+05  4.218049E+04  2.144455E+02  7.405740E+04  1.267030E-10  2.160364E-11
        59  14  1.210282E+05  4.370612E+04  5.338739E+02  7.445164E+04  1.366418E-10  9.549245E-12
        59  15  1.226385E+05  4.235912E+04  1.069738E+03  7.392344E+04 -8.127803E-11  1.033549E-11
        59  16  1.104519E+05  3.361224E+04 -2.493537E+03  6.786837E+04  1.959365E-10  2.526551E-11
        59  17  9.749586E+04  2.723482E+04 -4.755481E+03  6.250856E+04  2.341487E-10  6.193544E-11
        59  18  8.758712E+04  1.791197E+04 -7.091852E+03  5.622631E+04 -1.404514E-10  4.359333E-11
        59  19  1.346244E+05  5.074883E+04  2.922427E+03  8.024656E+04 -2.229667E+03 -1.904770E+02
        59  20  1.445610E+05  6.017757E+04  5.823123E+03  8.639511E+04 -2.324788E+03  1.079725E+03
        59  21  1.576906E+05  6.680648E+04  9.231018E+03  9.162135E+04 -2.289083E+03  2.175458E+03
        59  22  1.225381E+05  4.218049E+04  2.144484E+02  7.405740E+04 -4.130805E+02  1.171703E+03
        59  23  1.210283E+05  4.370612E+04  5.338843E+02  7.445164E+04 -8.432607E+02  2.190687E+03
        59  24  1.226385E+05  4.235913E+04  1.069758E+03  7.392343E+04 -1.142626E+03  3.035190E+03
        59  25  1.104520E+05  3.361225E+04 -2.493522E+03  6.786837E+04  1.403461E+03  2.533848E+03
        59  26  9.749586E+04  2.723483E+04 -4.755460E+03  6.250856E+04  6.382071E+02  3.301605E+03
        59  27  8.758712E+04  1.791199E+04 -7.091823E+03  5.622631E+04  3.768156E+00  3.894876E+03
        60   1  1.648650E+05  7.234379E+04  1.147214E+04  9.548125E+04  2.540854E+03 -2.647690E+03
        60   2  1.764352E+05  8.073122E+04  1.686759E+04  1.002355E+05 -1.912964E+03 -5.683226E+03
        60   3  1.930345E+05  8.889628E+04  2.658870E+04  1.033057E+05 -7.618301E+03 -7.050059E+03
        60   4  1.227224E+05  4.246384E+04  1.441408E+03  7.400090E+04  1.312547E+03 -3.568821E+03
        60   5  1.214022E+05  4.442862E+04  2.682828E+03  7.371317E+04  6.384342E+01 -4.200873E+03
        60   6  1.244160E+05  4.547607E+04  5.468768E+03  7.174133E+04 -2.436379E+03 -3.164135E+03
        60   7  8.058282E+04  1.258563E+04 -8.589125E+03  5.252269E+04  8.437611E+01 -4.489849E+03
        60   8  6.637327E+04  8.127927E+03 -1.150196E+04  4.719371E+04  2.040392E+03 -2.718697E+03
        60   9  5.580261E+04  2.057822E+03 -1.565153E+04  4.018074E+04  2.744754E+03  7.212820E+02
        60  10  1.648650E+05  7.234378E+04  1.147212E+04  9.548126E+04  2.277170E-10  5.263550E-11
        60  11  1.764352E+05  8.073119E+04  1.686752E+04  1.002355E+05  1.178810E-10 -6.200190E-11
        60  12  1.930344E+05  8.889621E+04  2.658849E+04  1.033056E+05  4.389304E-11 -9.932164E-11
        60  13  1.227224E+05  4.246382E+04  1.441381E+03  7.400090E+04 -1.221741E-10 -1.731288E-11
        60  14  1.214022E+05  4.442860E+04  2.682795E+03  7.371317E+04  2.931193E-12 -5.295740E-11
        60  15  1.244160E+05  4.547605E+04  5.468738E+03  7.174132E+04  6.057357E-11 -2.296679E-11
        60  16  8.058282E+04  1.258561E+04 -8.589163E+03  5.252269E+04 -9.521425E-11 -8.803260E-11
        60  17  6.637327E+04  8.127918E+03 -1.150198E+04  4.719371E+04 -1.457093E-10 -5.430262E-11
        60  18  5.580260E+04  2.057819E+03 -1.565155E+04  4.018074E+04  1.927672E-10  5.665463E-11
        60  19  1.648650E+05  7.234379E+04  1.147214E+04  9.548125E+04 -2.540854E+03  2.647690E+03
        60  20  1.764352E+05  8.073122E+04  1.686759E+04  1.002355E+05  1.912964E+03  5.683226E+03
        60  21  1.930345E+05  8.889628E+04  2.658870E+04  1.033057E+05  7.618301E+03  7.050059E+03
        60  22  1.227224E+05  4.246384E+04  1.441408E+03  7.400090E+04 -1.312547E+03  3.568821E+03
        60  23  1.214022E+05  4.442862E+04  2.682828E+03  7.371317E+04 -6.384342E+01  4.200873E+03
        60  24  1.244160E+05  4.547607E+04  5.468768E+03  7.174133E+04  2.436379E+03  3.164135E+03
        60  25  8.058282E+04  1.258563E+04 -8.589125E+03  5.252269E+04 -8.437611E+01  4.489849E+03
        60  26  6.637327E+04  8.127927E+03 -1.150196E+04  4.719371E+04 -2.040392E+03  2.718697E+03
        60  27  5.580261E+04  2.057822E+03 -1.565153E+04  4.018074E+04 -2.744754E+03 -7.212820E+02
        61   1  2.733974E+05  1.935077E+04  2.111351E+04  1.256685E+04  1.460728E+04  2.955553E-01
        61   2  2.717988E+05  5.281760E+03  1.054399E+04  6.055103E+03  9.194122E+03  8.963447E-02
        61   3  2.733996E+05  1.193406E+03  5.992686E+03 -4.565197E+02  3.781050E+03 -2.779162E-03
        61   4  2.733972E+05  1.935047E+04  2.111347E+04 -2.240543E-10  1.460728E+04  8.451853E-12
        61   5  2.717987E+05  5.281691E+03  1.054398E+04  4.533268E-10  9.194122E+03  5.780860E-11
        61   6  2.733996E+05  1.193406E+03  5.992686E+03 -1.633394E-11  3.781050E+03  2.017253E-11
        61   7  2.733974E+05  1.935077E+04  2.111351E+04 -1.256685E+04  1.460728E+04 -2.955553E-01
        61   8  2.717988E+05  5.281760E+03  1.054399E+04 -6.055103E+03  9.194122E+03 -8.963447E-02
        61   9  2.733996E+05  1.193406E+03  5.992686E+03  4.565197E+02  3.781050E+03  2.779162E-03
        61  10  2.733971E+05  1.935071E+04  2.111311E+04  1.256685E+04 -7.617376E-11  6.067082E-12
        61  11  2.717987E+05  5.281737E+03  1.054383E+04  6.055103E+03  1.910080E-10  5.605118E-11
        61  12  2.733996E+05  1.193402E+03  5.992659E+03 -4.565197E+02  1.362771E-10  1.223291E-10
        61  13  2.733970E+05  1.935042E+04  2.111307E+04  1.051826E-10 -1.791266E-10  2.585114E-11
        61  14  2.717986E+05  5.281668E+03  1.054382E+04 -3.998895E-11 -1.643978E-10  7.221719E-11
        61  15  2.733996E+05  1.193402E+03  5.992659E+03  6.938708E-11 -2.898908E-11  5.298808E-11
        61  16  2.733971E+05  1.935071E+04  2.111311E+04 -1.256685E+04  4.041000E-11  4.320360E-11
        61  17  2.717987E+05  5.281737E+03  1.054383E+04 -6.055103E+03 -1.880068E-10  8.930501E-11
        61  18  2.733996E+05  1.193402E+03  5.992659E+03  4.565197E+02 -8.191415E-11 -1.440972E-11
        61  19  2.733974E+05  1.935077E+04  2.111351E+04  1.256685E+04 -1.460728E+04 -2.955553E-01
        61  20  2.717988E+05  5.281760E+03  1.054399E+04  6.055103E+03 -9.194122E+03 -8.963447E-02
        61  21  2.733996E+05  1.193406E+03  5.992686E+03 -4.565197E+02 -3.781050E+03  2.779162E-03
        61  22  2.733972E+05  1.935047E+04  2.111347E+04 -6.463632E-10 -1.460728E+04  4.328654E-11
        61  23  2.717987E+05  5.281691E+03  1.054398E+04 -6.027271E-10 -9.194122E+03  8.515459E-11
        61  24  2.733996E+05  1.193406E+03  5.992686E+03 -2.298678E-10 -3.781050E+03  8.682235E-11
        61  25  2.733974E+05  1.935077E+04  2.111351E+04 -1.256685E+04 -1.460728E+04  2.955553E-01
        61  26  2.717988E+05  5.281760E+03  1.054399E+04 -6.055103E+03 -9.194122E+03  8.963447E-02
        61  27  2.733996E+05  1.193406E+03  5.992686E+03  4.565197E+02 -3.781050E+03 -2.779162E-03
        62   1  2.727736E+05  1.097897E+03  4.721401E+03  5.763591E+02  2.977606E+03  2.763139E-03
        62   2  2.725823E+05  2.231183E+02  3.136262E+03  2.550352E+02  1.413799E+03  5.805373E-04
        62   3  2.727738E+05  6.589235E+01  2.748305E+03 -6.629359E+01 -1.500307E+02  1.601382E-05
        62   4  2.727736E+05  1.097896E+03  4.721401E+03 -3.071950E-10  2.977606E+03  1.476050E-11
        62   5  2.725823E+05  2.231182E+02  3.136262E+03  7.098536E-11  1.413799E+03  4.791937E-11
        62   6  2.727738E+05  6.589234E+01  2.748305E+03 -1.225130E-10 -1.500307E+02  2.435115E-12
        62   7  2.727736E+05  1.097897E+03  4.721401E+03 -5.763591E+02  2.977606E+03 -2.763139E-03
        62   8  2.725823E+05  2.231183E+02  3.136262E+03 -2.550352E+02  1.413799E+03 -5.805372E-04
        62   9  2.727738E+05  6.589235E+01  2.748305E+03  6.629359E+01 -1.500307E+02 -1.601382E-05
        62  10  2.727736E+05  1.097894E+03  4.721384E+03  5.763591E+02 -1.950082E-10  1.305924E-10
        62  11  2.725823E+05  2.231178E+02  3.136258E+03  2.550352E+02  1.455488E-10  1.037033E-10
        62  12  2.727738E+05  6.589235E+01  2.748305E+03 -6.629359E+01 -2.862161E-11  1.125457E-10
        62  13  2.727736E+05  1.097894E+03  4.721384E+03  2.098033E-11  3.935921E-11  3.183659E-11
        62  14  2.725823E+05  2.231176E+02  3.136258E+03  1.471271E-11  8.007551E-11  3.503260E-11
        62  15  2.727738E+05  6.589234E+01  2.748305E+03  1.935703E-10 -4.526356E-11  5.903690E-11
        62  16  2.727736E+05  1.097894E+03  4.721384E+03 -5.763591E+02 -8.980362E-11 -6.696731E-11
        62  17  2.725823E+05  2.231178E+02  3.136258E+03 -2.550352E+02 -1.082260E-10 -3.181682E-11
        62  18  2.727738E+05  6.589235E+01  2.748305E+03  6.629359E+01  8.036545E-11  1.881669E-11
        62  19  2.727736E+05  1.097897E+03  4.721401E+03  5.763591E+02 -2.977606E+03 -2.763139E-03
        62  20  2.725823E+05  2.231183E+02  3.136262E+03  2.550352E+02 -1.413799E+03 -5.805371E-04
        62  21  2.727738E+05  6.589235E+01  2.748305E+03 -6.629359E+01  1.500307E+02 -1.601362E-05
        62  22  2.727736E+05  1.097896E+03  4.721401E+03 -2.588122E-10 -2.977606E+03  4.639867E-11
        62  23  2.725823E+05  2.231182E+02  3.136262E+03 -4.459951E-10 -1.413799E+03  2.568987E-11
        62  24  2.727738E+05  6.589234E+01  2.748305E+03 -1.277654E-10  1.500307E+02  1.212179E-10
        62  25  2.727736E+05  1.097897E+03  4.721401E+03 -5.763591E+02 -2.977606E+03  2.763139E-03
        62  26  2.725823E+05  2.231183E+02  3.136262E+03 -2.550352E+02 -1.413799E+03  5.805371E-04
        62  27  2.727738E+05  6.589235E+01  2.748305E+03  6.629359E+01  1.500307E+02  1.601385E-05
        63   1  2.727994E+05  6.426185E+01  2.886056E+03  1.399640E+02 -6.365240E+02 -1.434410E-04
        63   2  2.725502E+05  3.307235E+02  3.894468E+03 -3.233669E+02 -2.580249E+03  1.343382E-03
        63   3  2.727991E+05  1.577835E+03  6.413096E+03 -7.866975E+02 -4.523978E+03  5.730210E-03
        63   4  2.727994E+05  6.426181E+01  2.886056E+03 -4.375498E-10 -6.365240E+02 -3.344765E-12
        63   5  2.725502E+05  3.307233E+02  3.894468E+03 -1.635432E-10 -2.580249E+03 -1.271804E-11
        63   6  2.727991E+05  1.577834E+03  6.413096E+03 -1.551270E-10 -4.523978E+03 -1.527871E-10
        63   7  2.727994E+05  6.426185E+01  2.886056E+03 -1.399640E+02 -6.365240E+02  1.434410E-04
        63   8  2.725502E+05  3.307235E+02  3.894468E+03  3.233669E+02 -2.580249E+03 -1.343382E-03
        63   9  2.727991E+05  1.577835E+03  6.413096E+03  7.866975E+02 -4.523978E+03 -5.730211E-03
        63  10  2.727994E+05  6.426174E+01  2.886055E+03  1.399640E+02  4.309627E-11  8.633497E-11
        63  11  2.725502E+05  3.307217E+02  3.894455E+03 -3.233669E+02 -1.407114E-11 -1.880539E-11
        63  12  2.727990E+05  1.577830E+03  6.413058E+03 -7.866975E+02  1.888248E-11 -5.422565E-11
        63  13  2.727994E+05  6.426170E+01  2.886055E+03 -2.733624E-11  2.145789E-10  4.689793E-11
        63  14  2.725502E+05  3.307215E+02  3.894455E+03 -8.834267E-11  4.909427E-11 -3.700386E-11
        63  15  2.727990E+05  1.577828E+03  6.413057E+03 -3.050229E-10 -1.167611E-10 -1.088669E-10
        63  16  2.727994E+05  6.426174E+01  2.886055E+03 -1.399640E+02  8.980340E-11  7.711027E-12
        63  17  2.725502E+05  3.307217E+02  3.894455E+03  3.233669E+02  1.512309E-11 -6.060731E-11
        63  18  2.727990E+05  1.577830E+03  6.413058E+03  7.866975E+02 -8.322113E-11 -1.572673E-10
        63  19  2.727994E+05  6.426185E+01  2.886056E+03  1.399640E+02  6.365240E+02  1.434411E-04
        63  20  2.725502E+05  3.307235E+02  3.894468E+03 -3.233669E+02  2.580249E+03 -1.343382E-03
        63  21  2.727991E+05  1.577835E+03  6.413096E+03 -7.866975E+02  4.523978E+03 -5.730211E-03
        63  22  2.727994E+05  6.426181E+01  2.886056E+03 -2.214085E-10  6.365240E+02  9.981746E-11
        63  23  2.725502E+05  3.307233E+02  3.894468E+03  1.209681E-10  2.580249E+03 -5.478243E-11
        63  24  2.727991E+05  1.577834E+03  6.413096E+03 -2.882000E-10  4.523978E+03 -6.250827E-11
        63  25  2.727994E+05  6.426185E+01  2.886056E+03 -1.399640E+02  6.365240E+02 -1.434409E-04
        63  26  2.725502E+05  3.307235E+02  3.894468E+03  3.233669E+02  2.580249E+03  1.343382E-03
        63  27  2.727991E+05  1.577835E+03  6.413096E+03  7.866975E+02  4.523978E+03  5.730210E-03
        64   1  2.737010E+05  1.710990E+03  8.312988E+03  6.767978E+02 -5.619866E+03 -6.123881E-03
        64   2  2.714214E+05  7.539372E+03  1.492969E+04 -8.616232E+03 -1.328663E+04  1.843215E-01
        64   3  2.736979E+05  2.760166E+04  3.009487E+04 -1.790919E+04 -2.095330E+04  6.041872E-01
        64   4  2.737010E+05  1.710990E+03  8.312988E+03 -2.066949E-10 -5.619866E+03 -1.782365E-10
        64   5  2.714213E+05  7.539233E+03  1.492967E+04  4.419379E-11 -1.328663E+04 -7.180870E-11
        64   6  2.736975E+05  2.760106E+04  3.009479E+04  1.609704E-10 -2.095330E+04 -6.439932E-13
        64   7  2.737010E+05  1.710990E+03  8.312988E+03 -6.767978E+02 -5.619866E+03  6.123880E-03
        64   8  2.714214E+05  7.539372E+03  1.492969E+04  8.616232E+03 -1.328663E+04 -1.843215E-01
        64   9  2.736979E+05  2.760166E+04  3.009487E+04  1.790919E+04 -2.095330E+04 -6.041872E-01
        64  10  2.737010E+05  1.710982E+03  8.312929E+03  6.767978E+02 -7.413384E-11 -7.011428E-11
        64  11  2.714212E+05  7.539325E+03  1.492936E+04 -8.616232E+03  1.835249E-11 -7.211572E-11
        64  12  2.736974E+05  2.760155E+04  3.009405E+04 -1.790919E+04 -1.300304E-12 -3.255260E-11
        64  13  2.737010E+05  1.710981E+03  8.312929E+03 -4.501953E-10 -1.929269E-10 -1.180697E-10
        64  14  2.714211E+05  7.539186E+03  1.492934E+04 -1.514464E-10 -6.731885E-11 -7.554162E-11
        64  15  2.736970E+05  2.760094E+04  3.009396E+04  4.460291E-10 -1.513585E-11 -1.864327E-11
        64  16  2.737010E+05  1.710982E+03  8.312929E+03 -6.767978E+02 -5.193621E-11 -1.683645E-10
        64  17  2.714212E+05  7.539325E+03  1.492936E+04  8.616232E+03 -1.064775E-10 -8.192615E-11
        64  18  2.736974E+05  2.760155E+04  3.009405E+04  1.790919E+04  2.013324E-10  2.606646E-12
        64  19  2.737010E+05  1.710990E+03  8.312988E+03  6.767978E+02  5.619866E+03  6.123880E-03
        64  20  2.714214E+05  7.539372E+03  1.492969E+04 -8.616232E+03  1.328663E+04 -1.843215E-01
        64  21  2.736979E+05  2.760166E+04  3.009487E+04 -1.790919E+04  2.095330E+04 -6.041872E-01
        64  22  2.737010E+05  1.710990E+03  8.312988E+03 -5.574809E-10  5.619866E+03 -5.805927E-11
        64  23  2.714213E+05  7.539233E+03  1.492967E+04 -3.507685E-10  1.328663E+04 -7.627750E-11
        64  24  2.736975E+05  2.760106E+04  3.009479E+04  2.714243E-10  2.095330E+04 -3.563544E-11
        64  25  2.737010E+05  1.710990E+03  8.312988E+03 -6.767978E+02  5.619866E+03 -6.123881E-03
        64  26  2.714214E+05  7.539372E+03  1.492969E+04  8.616232E+03  1.328663E+04  1.843215E-01
        64  27  2.736979E+05  2.760166E+04  3.009487E+04  1.790919E+04  2.095330E+04  6.041872E-01
        65   1 -3.219872E+04 -1.208234E+04 -3.728845E+04  6.522596E+03  5.868703E+02 -3.249556E+04
        65   2 -2.881418E+03 -3.035633E+04 -1.813986E+04 -7.622764E+03  1.594449E+03 -2.171513E+04
        65   3  1.939255E+03 -5.615707E+04 -1.213351E+04 -2.605757E+04  1.035335E+03 -1.093493E+04
        65   4 -4.835009E+04 -7.727539E+04 -5.285349E+04 -2.493482E+04  5.886698E+02 -3.593009E+04
        65   5 -1.320558E+04 -7.324904E+04 -2.687124E+04 -2.278924E+04  1.595009E+03 -2.214402E+04
        65   6 -3.081607E+03 -7.727306E+04 -1.611968E+04 -2.493324E+04  1.035171E+03 -8.357735E+03
        65   7 -6.449804E+04 -1.424624E+05 -6.841826E+04 -5.638892E+04  5.908176E+02 -3.936425E+04
        65   8 -2.352898E+04 -1.161395E+05 -3.560259E+04 -3.795465E+04  1.595590E+03 -2.257289E+04
        65   9 -8.102486E+03 -9.838860E+04 -2.010583E+04 -2.380895E+04  1.035017E+03 -5.780623E+03
        65  10 -3.219901E+04 -1.208347E+04 -3.729043E+04  6.522611E+03 -2.036743E-11 -9.267015E-11
        65  11 -2.881547E+03 -3.035684E+04 -1.814075E+04 -7.622736E+03 -1.921185E-10  1.607783E-11
        65  12  1.939222E+03 -5.615720E+04 -1.213374E+04 -2.605756E+04  1.677837E-11  1.109180E-10
        65  13 -4.835044E+04 -7.727678E+04 -5.285592E+04 -2.493481E+04 -1.707789E-11  3.686506E-13
        65  14 -1.320571E+04 -7.324956E+04 -2.687216E+04 -2.278921E+04  2.405391E-11 -1.946798E-12
        65  15 -3.081627E+03 -7.727314E+04 -1.611981E+04 -2.493323E+04 -2.532022E-12  1.116785E-11
        65  16 -6.449845E+04 -1.424641E+05 -6.842117E+04 -5.638890E+04 -1.235582E-10  9.228451E-11
        65  17 -2.352912E+04 -1.161400E+05 -3.560355E+04 -3.795462E+04  9.726967E-12 -2.561528E-11
        65  18 -8.102496E+03 -9.838864E+04 -2.010590E+04 -2.380895E+04 -7.317103E-12 -1.075374E-10
        65  19 -3.219872E+04 -1.208234E+04 -3.728845E+04  6.522596E+03 -5.868703E+02  3.249556E+04
        65  20 -2.881418E+03 -3.035633E+04 -1.813986E+04 -7.622764E+03 -1.594449E+03  2.171513E+04
        65  21  1.939255E+03 -5.615707E+04 -1.213351E+04 -2.605757E+04 -1.035335E+03  1.093493E+04
        65  22 -4.835009E+04 -7.727539E+04 -5.285349E+04 -2.493482E+04 -5.886698E+02  3.593009E+04
        65  23 -1.320558E+04 -7.324904E+04 -2.687124E+04 -2.278924E+04 -1.595009E+03  2.214402E+04
        65  24 -3.081607E+03 -7.727306E+04 -1.611968E+04 -2.493324E+04 -1.035171E+03  8.357735E+03
        65  25 -6.449804E+04 -1.424624E+05 -6.841826E+04 -5.638892E+04 -5.908176E+02  3.936425E+04
        65  26 -2.352898E+04 -1.161395E+05 -3.560259E+04 -3.795465E+04 -1.595590E+03  2.257289E+04
        65  27 -8.102486E+03 -9.838860E+04 -2.010583E+04 -2.380895E+04 -1.035017E+03  5.780623E+03
        66   1 -1.142067E+03 -6.880316E+04 -1.185953E+04 -2.335114E+04  1.947782E+02 -8.635822E+03
        66   2 -4.609062E+03 -9.008628E+04 -1.312927E+04 -2.269492E+04 -1.078177E+03 -3.141759E+03
        66   3 -1.116314E+04 -1.128561E+05 -1.874789E+04 -2.642158E+04 -2.281070E+03  2.352138E+03
        66   4 -2.845016E+03 -7.580947E+04 -1.336844E+04 -2.495406E+04  1.946542E+02 -6.125284E+03
        66   5 -1.126125E+03 -7.507764E+04 -1.072468E+04 -2.276259E+04 -1.078303E+03 -7.657969E+02
        66   6 -2.470911E+03 -7.580967E+04 -1.233635E+04 -2.495406E+04 -2.281173E+03  4.593706E+03
        66   7 -4.547955E+03 -8.281572E+04 -1.487732E+04 -2.655697E+04  1.945173E+02 -3.614773E+03
        66   8  2.356804E+03 -6.006877E+04 -8.320067E+03 -2.283027E+04 -1.078429E+03  1.610221E+03
        66   9  6.221251E+03 -3.876184E+04 -5.924849E+03 -2.348644E+04 -2.281264E+03  6.835404E+03
        66  10 -1.142087E+03 -6.880324E+04 -1.185967E+04 -2.335113E+04 -3.806919E-13 -2.349763E-10
        66  11 -4.609066E+03 -9.008629E+04 -1.312929E+04 -2.269492E+04 -7.036708E-11 -5.008963E-11
        66  12 -1.116314E+04 -1.128562E+05 -1.874791E+04 -2.642157E+04  2.816485E-11  1.150750E-10
        66  13 -2.845026E+03 -7.580951E+04 -1.336851E+04 -2.495406E+04 -9.902855E-11  2.498185E-12
        66  14 -1.126126E+03 -7.507764E+04 -1.072468E+04 -2.276260E+04 -3.219800E-11  2.658449E-12
        66  15 -2.470922E+03 -7.580970E+04 -1.233640E+04 -2.495405E+04 -1.233481E-10  8.647344E-13
        66  16 -4.547958E+03 -8.281573E+04 -1.487734E+04 -2.655697E+04  7.565328E-13  2.405504E-10
        66  17  2.356803E+03 -6.006877E+04 -8.320074E+03 -2.283027E+04 -1.413072E-10  3.985437E-11
        66  18  6.221233E+03 -3.876189E+04 -5.924946E+03 -2.348643E+04 -1.800459E-10 -1.132350E-10
        66  19 -1.142067E+03 -6.880316E+04 -1.185953E+04 -2.335114E+04 -1.947782E+02  8.635822E+03
        66  20 -4.609062E+03 -9.008628E+04 -1.312927E+04 -2.269492E+04  1.078177E+03  3.141759E+03
        66  21 -1.116314E+04 -1.128561E+05 -1.874789E+04 -2.642158E+04  2.281070E+03 -2.352138E+03
        66  22 -2.845016E+03 -7.580947E+04 -1.336844E+04 -2.495406E+04 -1.946542E+02  6.125284E+03
        66  23 -1.126125E+03 -7.507764E+04 -1.072468E+04 -2.276259E+04  1.078303E+03  7.657969E+02
        66  24 -2.470911E+03 -7.580967E+04 -1.233635E+04 -2.495406E+04  2.281173E+03 -4.593706E+03
        66  25 -4.547955E+03 -8.281572E+04 -1.487732E+04 -2.655697E+04 -1.945173E+02  3.614773E+03
        66  26  2.356804E+03 -6.006877E+04 -8.320067E+03 -2.283027E+04  1.078429E+03 -1.610221E+03
        66  27  6.221251E+03 -3.876184E+04 -5.924849E+03 -2.348644E+04  2.281264E+03 -6.835404E+03
        67   1 -1.471006E+04 -1.282210E+05 -2.345340E+04 -2.398520E+04 -3.067831E+03  4.294950E+03
        67   2 -2.880456E+04 -1.464075E+05 -3.769201E+04 -3.591040E+04 -3.172304E+03  2.060520E+04
        67   3 -6.523917E+04 -1.723023E+05 -6.813531E+04 -5.207359E+04 -1.042473E+03  3.691449E+04
        67   4 -2.678078E+03 -7.703194E+04 -1.448899E+04 -2.492203E+04 -3.067930E+03  6.639062E+03
        67   5 -1.138216E+04 -7.355140E+04 -2.343951E+04 -2.280314E+04 -3.171768E+03  1.865995E+04
        67   6 -4.168081E+04 -7.703445E+04 -4.561488E+04 -2.492307E+04 -1.040685E+03  3.068061E+04
        67   7  9.353771E+03 -2.584028E+04 -5.524656E+03 -2.585894E+04 -3.068037E+03  8.983361E+03
        67   8  6.040573E+03 -6.898551E+02 -9.187159E+03 -9.694309E+03 -3.171315E+03  1.671448E+04
        67   9 -1.812030E+04  1.824341E+04 -2.309453E+04  2.231637E+03 -1.039443E+03  2.444577E+04
        67  10 -1.471008E+04 -1.282210E+05 -2.345345E+04 -2.398519E+04  3.755611E-11 -4.874043E-12
        67  11 -2.880468E+04 -1.464079E+05 -3.769283E+04 -3.591035E+04 -1.923193E-10 -3.058576E-11
        67  12 -6.523954E+04 -1.723038E+05 -6.813788E+04 -5.207356E+04 -7.908527E-11 -1.971367E-11
        67  13 -2.678100E+03 -7.703199E+04 -1.448909E+04 -2.492202E+04 -9.852291E-11  7.684308E-12
        67  14 -1.138226E+04 -7.355178E+04 -2.344018E+04 -2.280309E+04 -2.098694E-10  1.581337E-12
        67  15 -4.168106E+04 -7.703546E+04 -4.561665E+04 -2.492305E+04  2.348851E-11 -8.837120E-12
        67  16  9.353739E+03 -2.584037E+04 -5.524825E+03 -2.585892E+04 -1.316543E-10  1.548548E-11
        67  17  6.040487E+03 -6.901578E+02 -9.187702E+03 -9.694266E+03 -1.421657E-10  2.527644E-11
        67  18 -1.812046E+04  1.824276E+04 -2.309565E+04  2.231658E+03 -2.669989E-11  9.616547E-12
        67  19 -1.471006E+04 -1.282210E+05 -2.345340E+04 -2.398520E+04  3.067831E+03 -4.294950E+03
        67  20 -2.880456E+04 -1.464075E+05 -3.769201E+04 -3.591040E+04  3.172304E+03 -2.060520E+04
        67  21 -6.523917E+04 -1.723023E+05 -6.813531E+04 -5.207359E+04  1.042473E+03 -3.691449E+04
        67  22 -2.678078E+03 -7.703194E+04 -1.448899E+04 -2.492203E+04  3.067930E+03 -6.639062E+03
        67  23 -1.138216E+04 -7.355140E+04 -2.343951E+04 -2.280314E+04  3.171768E+03 -1.865995E+04
        67  24 -4.168081E+04 -7.703445E+04 -4.561488E+04 -2.492307E+04  1.040685E+03 -3.068061E+04
        67  25  9.353771E+03 -2.584028E+04 -5.524656E+03 -2.585894E+04  3.068037E+03 -8.983361E+03
        67  26  6.040573E+03 -6.898551E+02 -9.187159E+03 -9.694309E+03  3.171315E+03 -1.671448E+04
        67  27 -1.812030E+04  1.824341E+04 -2.309453E+04  2.231637E+03  1.039443E+03 -2.444577E+04
        68   1  3.468534E+04 -2.484471E+04 -3.012176E+04  2.821519E+04 -1.111061E+04 -6.938792E+03
        68   2  4.377670E+04 -9.248844E+03 -1.898388E+04  3.152357E+04 -7.595727E+03 -1.191973E+03
        68   3  5.223918E+04 -2.653640E+00 -1.315398E+04  3.549984E+04 -2.832645E+03  2.890983E+03
        68   4  9.534956E+04  2.701555E+04 -8.956431E+03  6.232937E+04 -5.690355E+03 -2.873981E+03
        68   5  9.670494E+04  3.231068E+04 -4.412158E+03  6.014560E+04 -5.370336E+03  4.768560E+02
        68   6  9.812473E+04  3.194956E+04 -2.402611E+03  5.862953E+04 -3.802339E+03  2.163750E+03
        68   7  1.560180E+05  7.887922E+04  1.220861E+04  9.644779E+04 -2.693678E+02  1.191525E+03
        68   8  1.496360E+05  7.387206E+04  1.015920E+04  8.877040E+04 -3.144706E+03  2.145894E+03
        68   9  1.440120E+05  6.390248E+04  8.348366E+03  8.176082E+04 -4.772113E+03  1.436457E+03
        68  10  3.468519E+04 -2.484480E+04 -3.012208E+04  2.821512E+04  7.255963E-11  4.726273E-11
        68  11  4.377664E+04 -9.248861E+03 -1.898399E+04  3.152356E+04  5.395107E-11 -4.784629E-11
        68  12  5.223917E+04 -2.664769E+00 -1.315401E+04  3.549984E+04  1.032016E-11 -1.085170E-10
        68  13  9.534953E+04  2.701554E+04 -8.956507E+03  6.232936E+04 -1.304927E-10 -2.140029E-11
        68  14  9.670491E+04  3.231067E+04 -4.412213E+03  6.014560E+04  2.058852E-10 -6.235520E-11
        68  15  9.812472E+04  3.194955E+04 -2.402647E+03  5.862954E+04  1.620810E-10 -5.145124E-11
        68  16  1.560180E+05  7.887922E+04  1.220860E+04  9.644779E+04 -1.783657E-10 -1.034972E-10
        68  17  1.496360E+05  7.387205E+04  1.015918E+04  8.877040E+04 -6.134968E-11 -6.901640E-11
        68  18  1.440119E+05  6.390247E+04  8.348319E+03  8.176082E+04  2.014778E-11 -2.715130E-12
        68  19  3.468534E+04 -2.484471E+04 -3.012176E+04  2.821519E+04  1.111061E+04  6.938792E+03
        68  20  4.377670E+04 -9.248844E+03 -1.898388E+04  3.152357E+04  7.595727E+03  1.191973E+03
        68  21  5.223918E+04 -2.653640E+00 -1.315398E+04  3.549984E+04  2.832645E+03 -2.890983E+03
        68  22  9.534956E+04  2.701555E+04 -8.956431E+03  6.232937E+04  5.690355E+03  2.873981E+03
        68  23  9.670494E+04  3.231068E+04 -4.412158E+03  6.014560E+04  5.370336E+03 -4.768560E+02
        68  24  9.812473E+04  3.194956E+04 -2.402611E+03  5.862953E+04  3.802339E+03 -2.163750E+03
        68  25  1.560180E+05  7.887922E+04  1.220861E+04  9.644779E+04  2.693678E+02 -1.191525E+03
        68  26  1.496360E+05  7.387206E+04  1.015920E+04  8.877040E+04  3.144706E+03 -2.145894E+03
        68  27  1.440120E+05  6.390248E+04  8.348366E+03  8.176082E+04  4.772113E+03 -1.436457E+03
        69   1  5.921891E+04  4.153054E+03 -1.091323E+04  3.868168E+04 -2.407299E+03  2.671597E+03
        69   2  6.783351E+04  1.280968E+04 -7.541281E+03  4.393311E+04 -1.268138E+03  2.666997E+03
        69   3  7.878288E+04  1.857299E+04 -4.848904E+03  4.849802E+04  1.915870E+00  2.487870E+03
        69   4  9.834265E+04  3.204153E+04 -1.810002E+03  5.873204E+04 -3.295325E+03  2.005626E+03
        69   5  9.722234E+04  3.360012E+04 -9.798610E+02  5.896430E+04 -2.491303E+03  1.749727E+03
        69   6  9.850947E+04  3.233799E+04 -5.384136E+02  5.850991E+04 -1.556398E+03  1.319292E+03
        69   7  1.374682E+05  5.993100E+04  7.293153E+03  7.878389E+04 -4.183427E+03  1.339598E+03
        69   8  1.266125E+05  5.439133E+04  5.581635E+03  7.399648E+04 -3.714557E+03  8.323884E+02
        69   9  1.182369E+05  4.610353E+04  3.772216E+03  6.852238E+04 -3.114810E+03  1.506401E+02
        69  10  5.921890E+04  4.153044E+03 -1.091326E+04  3.868169E+04 -1.332919E-10 -1.531084E-10
        69  11  6.783351E+04  1.280967E+04 -7.541297E+03  4.393312E+04  4.389518E-11 -1.314624E-11
        69  12  7.878288E+04  1.857299E+04 -4.848916E+03  4.849802E+04  1.706660E-10  1.377717E-10
        69  13  9.834263E+04  3.204152E+04 -1.810030E+03  5.873205E+04  2.722649E-10  1.036818E-11
        69  14  9.722234E+04  3.360011E+04 -9.798784E+02  5.896430E+04  7.634109E-11  9.099735E-11
        69  15  9.850946E+04  3.233799E+04 -5.384214E+02  5.850991E+04  1.128871E-10  2.774937E-11
        69  16  1.374682E+05  5.993099E+04  7.293116E+03  7.878389E+04  2.040709E-10  1.687375E-10
        69  17  1.266125E+05  5.439133E+04  5.581607E+03  7.399648E+04 -6.616618E-11  1.139339E-10
        69  18  1.182369E+05  4.610352E+04  3.772198E+03  6.852238E+04 -1.866970E-10 -7.059660E-11
        69  19  5.921891E+04  4.153054E+03 -1.091323E+04  3.868168E+04  2.407299E+03 -2.671597E+03
        69  20  6.783351E+04  1.280968E+04 -7.541281E+03  4.393311E+04  1.268138E+03 -2.666997E+03
        69  21  7.878288E+04  1.857299E+04 -4.848904E+03  4.849802E+04 -1.915870E+00 -2.487870E+03
        69  22  9.834265E+04  3.204153E+04 -1.810002E+03  5.873204E+04  3.295325E+03 -2.005626E+03
        69  23  9.722234E+04  3.360012E+04 -9.798610E+02  5.896430E+04  2.491303E+03 -1.749727E+03
        69  24  9.850947E+04  3.233799E+04 -5.384136E+02  5.850991E+04  1.556398E+03 -1.319292E+03
        69  25  1.374682E+05  5.993100E+04  7.293153E+03  7.878389E+04  4.183427E+03 -1.339598E+03
        69  26  1.266125E+05  5.439133E+04  5.581635E+03  7.399648E+04  3.714557E+03 -8.323884E+02
        69  27  1.182369E+05  4.610353E+04  3.772216E+03  6.852238E+04  3.114810E+03 -1.506401E+02
        70   1  8.508941E+04  2.294116E+04 -3.291919E+03  5.168299E+04  4.170384E+02  2.051727E+03
        70   2  9.361169E+04  3.114841E+04 -9.540083E+02  5.706306E+04  1.099851E+03  1.300757E+03
        70   3  1.047250E+05  3.673426E+04  1.317969E+03  6.168176E+04  1.784125E+03  5.478179E+02
        70   4  9.852876E+04  3.234362E+04 -3.935984E+02  5.852272E+04 -1.133448E+03  8.890289E+02
        70   5  9.723661E+04  3.366072E+04 -1.836954E+02  5.889818E+04 -4.544143E+02  1.352394E+02
        70   6  9.853642E+04  3.235736E+04 -3.636898E+01  5.851229E+04  2.260831E+02 -6.205243E+02
        70   7  1.119680E+05  4.174599E+04  2.504630E+03  6.536249E+04 -2.683947E+03 -2.736781E+02
        70   8  1.008615E+05  3.617301E+04  5.866175E+02  6.073329E+04 -2.008675E+03 -1.030275E+03
        70   9  9.234787E+04  2.798050E+04 -1.390692E+03  5.534286E+04 -1.331937E+03 -1.788850E+03
        70  10  8.508941E+04  2.294116E+04 -3.291928E+03  5.168299E+04  2.090062E-10  3.862504E-11
        70  11  9.361169E+04  3.114841E+04 -9.540137E+02  5.706306E+04  5.342053E-11 -1.014710E-10
        70  12  1.047250E+05  3.673426E+04  1.317962E+03  6.168176E+04 -9.122087E-11 -2.022417E-10
        70  13  9.852876E+04  3.234362E+04 -3.936023E+02  5.852272E+04 -1.475606E-10 -8.070950E-11
        70  14  9.723661E+04  3.366072E+04 -1.836958E+02  5.889818E+04 -1.201037E-10 -4.699091E-11
        70  15  9.853642E+04  3.235736E+04 -3.636980E+01  5.851229E+04 -8.303906E-11 -5.074030E-11
        70  16  1.119680E+05  4.174599E+04  2.504617E+03  6.536249E+04 -1.471607E-10 -1.106918E-10
        70  17  1.008615E+05  3.617301E+04  5.866079E+02  6.073329E+04  1.602449E-10 -4.742390E-11
        70  18  9.234787E+04  2.798050E+04 -1.390702E+03  5.534286E+04  2.162202E-10  7.064858E-11
        70  19  8.508941E+04  2.294116E+04 -3.291919E+03  5.168299E+04 -4.170384E+02 -2.051727E+03
        70  20  9.361169E+04  3.114841E+04 -9.540083E+02  5.706306E+04 -1.099851E+03 -1.300757E+03
        70  21  1.047250E+05  3.673426E+04  1.317969E+03  6.168176E+04 -1.784125E+03 -5.478179E+02
        70  22  9.852876E+04  3.234362E+04 -3.935984E+02  5.852272E+04  1.133448E+03 -8.890289E+02
        70  23  9.723661E+04  3.366072E+04 -1.836954E+02  5.889818E+04  4.544143E+02 -1.352394E+02
        70  24  9.853642E+04  3.235736E+04 -3.636898E+01  5.851229E+04 -2.260831E+02  6.205243E+02
        70  25  1.119680E+05  4.174599E+04  2.504630E+03  6.536249E+04  2.683947E+03  2.736781E+02
        70  26  1.008615E+05  3.617301E+04  5.866175E+02  6.073329E+04  2.008675E+03  1.030275E+03
        70  27  9.234787E+04  2.798050E+04 -1.390692E+03  5.534286E+04  1.331937E+03  1.788850E+03
        71   1  1.109762E+05  4.113884E+04  2.793607E+03  6.487102E+04  2.152011E+03  7.392609E+01
        71   2  1.195102E+05  4.930006E+04  5.173241E+03  7.020619E+04  2.334447E+03 -9.407800E+02
        71   3  1.307462E+05  5.498355E+04  7.886909E+03  7.476633E+04  2.400130E+03 -1.799809E+03
        71   4  9.853960E+04  3.236239E+04  2.986410E+01  5.851849E+04  5.871266E+02 -1.099557E+03
        71   5  9.724026E+04  3.366804E+04  1.777321E+02  5.888020E+04  1.068534E+03 -1.890095E+03
        71   6  9.857780E+04  3.243083E+04  4.001033E+02  5.846668E+04  1.433196E+03 -2.524934E+03
        71   7  8.610294E+04  2.358585E+04 -2.733960E+03  5.216598E+04 -9.777470E+02 -2.273033E+03
        71   8  7.497093E+04  1.803633E+04 -4.817793E+03  4.755469E+04 -1.973182E+02 -2.839365E+03
        71   9  6.641133E+04  9.879212E+03 -7.086535E+03  4.216834E+04  4.663481E+02 -3.249995E+03
        71  10  1.109762E+05  4.113884E+04  2.793599E+03  6.487102E+04  8.469502E-11  3.368410E-11
        71  11  1.195102E+05  4.930005E+04  5.173229E+03  7.020619E+04  1.475894E-10  1.182752E-12
        71  12  1.307461E+05  5.498354E+04  7.886892E+03  7.476633E+04  9.995849E-11 -1.030242E-11
        71  13  9.853960E+04  3.236238E+04  2.986118E+01  5.851849E+04 -2.590440E-11  2.747741E-11
        71  14  9.724026E+04  3.366803E+04  1.777232E+02  5.888020E+04  9.263059E-12 -1.690945E-11
        71  15  9.857780E+04  3.243082E+04  4.000874E+02  5.846668E+04  7.089403E-11 -1.660156E-11
        71  16  8.610294E+04  2.358585E+04 -2.733972E+03  5.216598E+04 -8.979105E-11 -5.121236E-12
        71  17  7.497093E+04  1.803632E+04 -4.817809E+03  4.755469E+04 -6.925221E-11 -1.823984E-11
        71  18  6.641132E+04  9.879200E+03 -7.086555E+03  4.216834E+04 -1.177956E-10 -2.797924E-11
        71  19  1.109762E+05  4.113884E+04  2.793607E+03  6.487102E+04 -2.152011E+03 -7.392609E+01
        71  20  1.195102E+05  4.930006E+04  5.173241E+03  7.020619E+04 -2.334447E+03  9.407800E+02
        71  21  1.307462E+05  5.498355E+04  7.886909E+03  7.476633E+04 -2.400130E+03  1.799809E+03
        71  22  9.853960E+04  3.236239E+04  2.986410E+01  5.851849E+04 -5.871266E+02  1.099557E+03
        71  23  9.724026E+04  3.366804E+04  1.777321E+02  5.888020E+04 -1.068534E+03  1.890095E+03
        71  24  9.857780E+04  3.243083E+04  4.001033E+02  5.846668E+04 -1.433196E+03  2.524934E+03
        71  25  8.610294E+04  2.358585E+04 -2.733960E+03  5.216598E+04  9.777470E+02  2.273033E+03
        71  26  7.497093E+04  1.803633E+04 -4.817793E+03  4.755469E+04  1.973182E+02  2.839365E+03
        71  27  6.641133E+04  9.879212E+03 -7.086535E+03  4.216834E+04 -4.663481E+02  3.249995E+03
        72   1  1.370004E+05  5.960712E+04  9.656138E+03  7.802856E+04  2.688082E+03 -2.147102E+03
        72   2  1.461551E+05  6.735726E+04  1.378071E+04  8.267747E+04 -7.489509E+02 -4.408192E+03
        72   3  1.589727E+05  7.401768E+04  2.098577E+04  8.627522E+04 -5.301978E+03 -5.181467E+03
        72   4  9.859556E+04  3.248721E+04  5.496872E+02  5.850193E+04  1.648215E+03 -2.926933E+03
        72   5  9.740424E+04  3.392893E+04  1.040172E+03  5.858735E+04  1.068806E+03 -3.045053E+03
        72   6  9.925565E+04  3.366102E+04  2.131218E+03  5.762152E+04 -6.265813E+02 -1.675209E+03
        72   7  6.019241E+04  5.368189E+03 -8.556862E+03  3.897669E+04  6.084335E+02 -3.706700E+03
        72   8  4.865551E+04  5.015437E+02 -1.170073E+04  3.449911E+04  2.886390E+03 -1.682037E+03
        72   9  3.954124E+04 -6.694749E+03 -1.672407E+04  2.897027E+04  4.048298E+03  1.830689E+03
        72  10  1.370004E+05  5.960712E+04  9.656115E+03  7.802856E+04  3.912850E-11 -1.017400E-11
        72  11  1.461551E+05  6.735724E+04  1.378067E+04  8.267747E+04 -1.482771E-10  4.483590E-11
        72  12  1.589726E+05  7.401764E+04  2.098567E+04  8.627520E+04  3.318629E-11  5.095082E-11
        72  13  9.859555E+04  3.248720E+04  5.496660E+02  5.850193E+04  3.202842E-11 -2.448112E-11
        72  14  9.740424E+04  3.392892E+04  1.040152E+03  5.858735E+04  3.964494E-11  1.098825E-11
        72  15  9.925564E+04  3.366102E+04  2.131212E+03  5.762152E+04  7.778493E-11 -7.323740E-13
        72  16  6.019241E+04  5.368174E+03 -8.556888E+03  3.897670E+04  1.964457E-11 -2.752518E-11
        72  17  4.865550E+04  5.015384E+02 -1.170075E+04  3.449911E+04  1.480887E-10 -1.727164E-11
        72  18  3.954122E+04 -6.694757E+03 -1.672410E+04  2.897026E+04 -2.962602E-11 -1.707356E-11
        72  19  1.370004E+05  5.960712E+04  9.656138E+03  7.802856E+04 -2.688082E+03  2.147102E+03
        72  20  1.461551E+05  6.735726E+04  1.378071E+04  8.267747E+04  7.489509E+02  4.408192E+03
        72  21  1.589727E+05  7.401768E+04  2.098577E+04  8.627522E+04  5.301978E+03  5.181467E+03
        72  22  9.859556E+04  3.248721E+04  5.496872E+02  5.850193E+04 -1.648215E+03  2.926933E+03
        72  23  9.740424E+04  3.392893E+04  1.040172E+03  5.858735E+04 -1.068806E+03  3.045053E+03
        72  24  9.925565E+04  3.366102E+04  2.131218E+03  5.762152E+04  6.265813E+02  1.675209E+03
        72  25  6.019241E+04  5.368189E+03 -8.556862E+03  3.897669E+04 -6.084335E+02  3.706700E+03
        72  26  4.865551E+04  5.015437E+02 -1.170073E+04  3.449911E+04 -2.886390E+03  1.682037E+03
        72  27  3.954124E+04 -6.694749E+03 -1.672407E+04  2.897027E+04 -4.048298E+03 -1.830689E+03
        73   1  1.489163E+05  3.510433E+03  3.837406E+03  2.284843E+03  2.609625E+03  9.601960E-03
        73   2  1.486248E+05  9.561502E+02  1.950062E+03  1.105329E+03  1.609227E+03  2.864405E-03
        73   3  1.489165E+05  2.134709E+02  1.166820E+03 -7.420151E+01  6.088147E+02 -7.274831E-05
        73   4  1.489163E+05  3.510423E+03  3.837404E+03 -1.734388E-11  2.609625E+03 -1.855089E-11
        73   5  1.486248E+05  9.561479E+02  1.950062E+03  3.419936E-11  1.609227E+03 -2.778673E-11
        73   6  1.489165E+05  2.134709E+02  1.166820E+03  8.758334E-11  6.088147E+02  2.424194E-11
        73   7  1.489163E+05  3.510433E+03  3.837406E+03 -2.284843E+03  2.609625E+03 -9.601960E-03
        73   8  1.486248E+05  9.561502E+02  1.950062E+03 -1.105329E+03  1.609227E+03 -2.864405E-03
        73   9  1.489165E+05  2.134709E+02  1.166820E+03  7.420151E+01  6.088147E+02  7.274838E-05
        73  10  1.489163E+05  3.510431E+03  3.837393E+03  2.284843E+03  9.829220E-11 -9.162798E-12
        73  11  1.486248E+05  9.561495E+02  1.950057E+03  1.105329E+03  2.215911E-10 -1.097667E-11
        73  12  1.489165E+05  2.134708E+02  1.166819E+03 -7.420151E+01 -1.043010E-10  3.831234E-11
        73  13  1.489163E+05  3.510421E+03  3.837392E+03  1.683762E-11  1.187122E-10 -1.379429E-11
        73  14  1.486248E+05  9.561472E+02  1.950057E+03 -4.415803E-11  1.881313E-10 -1.780447E-11
        73  15  1.489165E+05  2.134708E+02  1.166819E+03  2.842436E-11 -9.703151E-12  4.329023E-11
        73  16  1.489163E+05  3.510431E+03  3.837393E+03 -2.284843E+03 -5.278544E-12 -2.027401E-11
        73  17  1.486248E+05  9.561495E+02  1.950057E+03 -1.105329E+03 -5.418035E-11 -3.217182E-11
        73  18  1.489165E+05  2.134708E+02  1.166819E+03  7.420151E+01  1.418377E-10  4.783181E-11
        73  19  1.489163E+05  3.510433E+03  3.837406E+03  2.284843E+03 -2.609625E+03 -9.601960E-03
        73  20  1.486248E+05  9.561502E+02  1.950062E+03  1.105329E+03 -1.609227E+03 -2.864405E-03
        73  21  1.489165E+05  2.134709E+02  1.166820E+03 -7.420151E+01 -6.088147E+02  7.274839E-05
        73  22  1.489163E+05  3.510423E+03  3.837404E+03 -2.829263E-10 -2.609625E+03 -8.941704E-12
        73  23  1.486248E+05  9.561479E+02  1.950062E+03 -2.587230E-10 -1.609227E+03 -7.016692E-12
        73  24  1.489165E+05  2.134709E+02  1.166820E+03 -2.047953E-11 -6.088147E+02  6.385501E-11
        73  25  1.489163E+05  3.510433E+03  3.837406E+03 -2.284843E+03 -2.609625E+03  9.601960E-03
        73  26  1.486248E+05  9.561502E+02  1.950062E+03 -1.105329E+03 -1.609227E+03  2.864405E-03
        73  27  1.489165E+05  2.134709E+02  1.166820E+03  7.420151E+01 -6.088147E+02 -7.274826E-05
        74   1  1.488060E+05  1.951393E+02  9.656076E+02  1.165586E+02  4.461196E+02  8.373768E-05
        74   2  1.487631E+05  3.623062E+01  7.655353E+02  5.997641E+01  6.504539E+01  6.282312E-06
        74   3  1.488060E+05  2.204160E+01  8.496949E+02  3.394206E+00 -3.160288E+02 -1.727454E-06
        74   4  1.488060E+05  1.951392E+02  9.656076E+02  1.052019E-10  4.461196E+02  2.316771E-11
        74   5  1.487631E+05  3.623061E+01  7.655353E+02  1.178142E-10  6.504539E+01 -2.846080E-11
        74   6  1.488060E+05  2.204160E+01  8.496949E+02 -9.413173E-11 -3.160288E+02 -2.370941E-11
        74   7  1.488060E+05  1.951393E+02  9.656076E+02 -1.165586E+02  4.461196E+02 -8.373763E-05
        74   8  1.487631E+05  3.623062E+01  7.655353E+02 -5.997641E+01  6.504539E+01 -6.282354E-06
        74   9  1.488060E+05  2.204160E+01  8.496949E+02 -3.394206E+00 -3.160288E+02  1.727399E-06
        74  10  1.488060E+05  1.951392E+02  9.656072E+02  1.165586E+02  1.620256E-10  4.324281E-11
        74  11  1.487631E+05  3.623062E+01  7.655353E+02  5.997641E+01  9.900784E-11 -4.639419E-12
        74  12  1.488060E+05  2.204157E+01  8.496947E+02  3.394206E+00  8.955481E-11 -3.216722E-11
        74  13  1.488060E+05  1.951392E+02  9.656072E+02  5.997203E-11  2.535445E-10  5.597378E-11
        74  14  1.487631E+05  3.623061E+01  7.655353E+02  1.283307E-10  1.324000E-11  1.356079E-11
        74  15  1.488060E+05  2.204157E+01  8.496947E+02  1.798607E-10 -7.684270E-11 -3.875019E-12
        74  16  1.488060E+05  1.951392E+02  9.656072E+02 -1.165586E+02 -4.951398E-11  7.123667E-11
        74  17  1.487631E+05  3.623062E+01  7.655353E+02 -5.997641E+01 -1.845288E-11  2.854163E-11
        74  18  1.488060E+05  2.204157E+01  8.496947E+02 -3.394206E+00 -3.934718E-11  3.350945E-11
        74  19  1.488060E+05  1.951393E+02  9.656076E+02  1.165586E+02 -4.461196E+02 -8.373760E-05
        74  20  1.487631E+05  3.623062E+01  7.655353E+02  5.997641E+01 -6.504539E+01 -6.282328E-06
        74  21  1.488060E+05  2.204160E+01  8.496949E+02  3.394206E+00  3.160288E+02  1.727372E-06
        74  22  1.488060E+05  1.951392E+02  9.656076E+02 -1.146284E-10 -4.461196E+02  8.953719E-11
        74  23  1.487631E+05  3.623061E+01  7.655353E+02  2.061622E-10 -6.504539E+01  5.251775E-11
        74  24  1.488060E+05  2.204160E+01  8.496949E+02  9.203559E-11  3.160288E+02  1.733722E-11
        74  25  1.488060E+05  1.951393E+02  9.656076E+02 -1.165586E+02 -4.461196E+02  8.373779E-05
        74  26  1.487631E+05  3.623062E+01  7.655353E+02 -5.997641E+01 -6.504539E+01  6.282436E-06
        74  27  1.488060E+05  2.204160E+01  8.496949E+02 -3.394206E+00  3.160288E+02 -1.727334E-06
        75   1  1.488317E+05  2.039922E+01  9.881956E+02  7.067752E+01 -4.747014E+02 -5.402908E-05
        75   2  1.487309E+05  1.444093E+02  1.527877E+03 -1.286679E+02 -1.237740E+03  2.564630E-04
        75   3  1.488316E+05  6.776870E+02  2.666561E+03 -3.280103E+02 -2.000767E+03  1.056840E-03
        75   4  1.488317E+05  2.039921E+01  9.881956E+02 -3.960004E-10 -4.747014E+02 -3.006392E-11
        75   5  1.487309E+05  1.444093E+02  1.527877E+03 -2.503361E-10 -1.237740E+03 -5.444595E-11
        75   6  1.488316E+05  6.776868E+02  2.666561E+03 -1.798752E-10 -2.000767E+03 -8.169633E-12
        75   7  1.488317E+05  2.039922E+01  9.881956E+02 -7.067752E+01 -4.747014E+02  5.402902E-05
        75   8  1.487309E+05  1.444093E+02  1.527877E+03  1.286679E+02 -1.237740E+03 -2.564631E-04
        75   9  1.488316E+05  6.776870E+02  2.666561E+03  3.280103E+02 -2.000767E+03 -1.056840E-03
        75  10  1.488317E+05  2.039916E+01  9.881952E+02  7.067752E+01 -7.935142E-11 -4.926281E-11
        75  11  1.487309E+05  1.444089E+02  1.527874E+03 -1.286679E+02 -9.695406E-11 -6.108919E-11
        75  12  1.488316E+05  6.776859E+02  2.666553E+03 -3.280103E+02  7.249097E-11 -6.110439E-11
        75  13  1.488317E+05  2.039915E+01  9.881952E+02 -1.893345E-11  2.210069E-11 -1.198983E-11
        75  14  1.487309E+05  1.444089E+02  1.527874E+03 -3.670863E-10  1.346300E-10 -3.727290E-11
        75  15  1.488316E+05  6.776857E+02  2.666553E+03 -3.628879E-10 -4.204551E-11 -5.227721E-11
        75  16  1.488317E+05  2.039916E+01  9.881952E+02 -7.067752E+01 -4.773833E-12  2.042374E-11
        75  17  1.487309E+05  1.444089E+02  1.527874E+03  1.286679E+02 -5.998479E-11 -2.273721E-11
        75  18  1.488316E+05  6.776859E+02  2.666553E+03  3.280103E+02  9.289514E-12 -4.534075E-11
        75  19  1.488317E+05  2.039922E+01  9.881956E+02  7.067752E+01  4.747014E+02  5.402898E-05
        75  20  1.487309E+05  1.444093E+02  1.527877E+03 -1.286679E+02  1.237740E+03 -2.564631E-04
        75  21  1.488316E+05  6.776870E+02  2.666561E+03 -3.280103E+02  2.000767E+03 -1.056840E-03
        75  22  1.488317E+05  2.039921E+01  9.881956E+02 -1.751263E-10  4.747014E+02  5.621867E-12
        75  23  1.487309E+05  1.444093E+02  1.527877E+03 -7.889541E-11  1.237740E+03 -2.329514E-11
        75  24  1.488316E+05  6.776868E+02  2.666561E+03 -3.844502E-10  2.000767E+03 -9.466597E-11
        75  25  1.488317E+05  2.039922E+01  9.881956E+02 -7.067752E+01  4.747014E+02 -5.402898E-05
        75  26  1.487309E+05  1.444093E+02  1.527877E+03  1.286679E+02  1.237740E+03  2.564631E-04
        75  27  1.488316E+05  6.776870E+02  2.666561E+03  3.280103E+02  2.000767E+03  1.056840E-03
        76   1  1.492196E+05  7.338493E+02  3.499856E+03  2.956696E+02 -2.457587E+03 -1.170148E-03
        76   2  1.482456E+05  3.226207E+03  6.359942E+03 -3.680333E+03 -5.723939E+03  3.392407E-02
        76   3  1.492188E+05  1.180686E+04  1.286827E+04 -7.656406E+03 -8.990341E+03  1.108477E-01
        76   4  1.492196E+05  7.338491E+02  3.499856E+03 -1.974984E-10 -2.457587E+03  1.581893E-12
        76   5  1.482456E+05  3.226181E+03  6.359938E+03 -6.917518E-11 -5.723939E+03 -2.808114E-11
        76   6  1.492188E+05  1.180675E+04  1.286825E+04 -3.334359E-10 -8.990341E+03 -5.191836E-12
        76   7  1.492196E+05  7.338493E+02  3.499856E+03 -2.956696E+02 -2.457587E+03  1.170148E-03
        76   8  1.482456E+05  3.226207E+03  6.359942E+03  3.680333E+03 -5.723939E+03 -3.392407E-02
        76   9  1.492188E+05  1.180686E+04  1.286827E+04  7.656406E+03 -8.990341E+03 -1.108477E-01
        76  10  1.492196E+05  7.338476E+02  3.499845E+03  2.956696E+02 -4.738848E-12 -4.183267E-11
        76  11  1.482456E+05  3.226198E+03  6.359881E+03 -3.680333E+03 -4.427584E-12  6.084962E-12
        76  12  1.492187E+05  1.180684E+04  1.286812E+04 -7.656406E+03  6.837607E-11  1.368684E-11
        76  13  1.492196E+05  7.338475E+02  3.499845E+03 -8.521658E-11  1.388376E-10 -3.412391E-11
        76  14  1.482456E+05  3.226173E+03  6.359877E+03 -5.260856E-11  4.087434E-11  7.709466E-12
        76  15  1.492187E+05  1.180673E+04  1.286810E+04 -3.744570E-10  8.683938E-11  7.692286E-12
        76  16  1.492196E+05  7.338476E+02  3.499845E+03 -2.956696E+02 -8.789266E-12 -2.781398E-11
        76  17  1.482456E+05  3.226198E+03  6.359881E+03  3.680333E+03 -1.479647E-11  8.546037E-12
        76  18  1.492187E+05  1.180684E+04  1.286812E+04  7.656406E+03 -7.438387E-11  8.877033E-12
        76  19  1.492196E+05  7.338493E+02  3.499856E+03  2.956696E+02  2.457587E+03  1.170148E-03
        76  20  1.482456E+05  3.226207E+03  6.359942E+03 -3.680333E+03  5.723939E+03 -3.392407E-02
        76  21  1.492188E+05  1.180686E+04  1.286827E+04 -7.656406E+03  8.990341E+03 -1.108477E-01
        76  22  1.492196E+05  7.338491E+02  3.499856E+03 -3.728797E-10  2.457587E+03 -7.100909E-11
        76  23  1.482456E+05  3.226181E+03  6.359938E+03 -3.058272E-10  5.723939E+03  4.185057E-11
        76  24  1.492188E+05  1.180675E+04  1.286825E+04 -5.640445E-10  8.990341E+03  2.069135E-11
        76  25  1.492196E+05  7.338493E+02  3.499856E+03 -2.956696E+02  2.457587E+03 -1.170148E-03
        76  26  1.482456E+05  3.226207E+03  6.359942E+03  3.680333E+03  5.723939E+03  3.392407E-02
        76  27  1.492188E+05  1.180686E+04  1.286827E+04  7.656406E+03  8.990341E+03  1.108477E-01
        77   1 -2.962422E+04 -3.224605E+04 -3.347394E+04  1.165640E+04  2.996861E+02 -2.637829E+04
        77   2 -5.076219E+03 -4.075229E+04 -1.668798E+04 -1.105394E+01  8.094270E+02 -1.707111E+04
        77   3  9.103371E+01 -5.531531E+04 -1.080651E+04 -1.392469E+04  5.096371E+02 -7.763977E+03
        77   4 -3.796141E+04 -6.589332E+04 -4.151099E+04 -1.305182E+04  3.007768E+02 -2.813183E+04
        77   5 -1.036801E+04 -6.272909E+04 -2.117084E+04 -1.192845E+04  8.097621E+02 -1.727168E+04
        77   6 -2.426031E+03 -6.589201E+04 -1.281417E+04 -1.305118E+04  5.095868E+02 -6.411365E+03
        77   7 -4.629639E+04 -9.953823E+04 -4.954778E+04 -3.775870E+04  3.020071E+02 -2.988528E+04
        77   8 -1.565930E+04 -8.470511E+04 -2.565365E+04 -2.384542E+04  8.101048E+02 -1.747225E+04
        77   9 -4.943097E+03 -7.646859E+04 -1.482183E+04 -1.217768E+04  5.095403E+02 -5.058776E+03
        77  10 -2.962440E+04 -3.224679E+04 -3.347525E+04  1.165640E+04  6.120029E-11 -2.231596E-10
        77  11 -5.076298E+03 -4.075261E+04 -1.668853E+04 -1.104281E+01  3.768512E-11  4.056711E-11
        77  12  9.101724E+01 -5.531537E+04 -1.080662E+04 -1.392469E+04 -1.781358E-11  3.053582E-10
        77  13 -3.796162E+04 -6.589417E+04 -4.151248E+04 -1.305182E+04 -3.098013E-11 -1.809406E-12
        77  14 -1.036809E+04 -6.272941E+04 -2.117140E+04 -1.192844E+04 -1.167814E-10  6.913812E-12
        77  15 -2.426042E+03 -6.589205E+04 -1.281425E+04 -1.305118E+04  1.338497E-11 -2.293222E-11
        77  16 -4.629663E+04 -9.953919E+04 -4.954946E+04 -3.775869E+04 -1.745861E-10  2.206972E-10
        77  17 -1.565938E+04 -8.470544E+04 -2.565423E+04 -2.384540E+04 -2.685506E-10 -3.204473E-11
        77  18 -4.943105E+03 -7.646862E+04 -1.482188E+04 -1.217768E+04  1.152736E-11 -2.991981E-10
        77  19 -2.962422E+04 -3.224605E+04 -3.347394E+04  1.165640E+04 -2.996861E+02  2.637829E+04
        77  20 -5.076219E+03 -4.075229E+04 -1.668798E+04 -1.105394E+01 -8.094270E+02  1.707111E+04
        77  21  9.103371E+01 -5.531531E+04 -1.080651E+04 -1.392469E+04 -5.096371E+02  7.763977E+03
        77  22 -3.796141E+04 -6.589332E+04 -4.151099E+04 -1.305182E+04 -3.007768E+02  2.813183E+04
        77  23 -1.036801E+04 -6.272909E+04 -2.117084E+04 -1.192845E+04 -8.097621E+02  1.727168E+04
        77  24 -2.426031E+03 -6.589201E+04 -1.281417E+04 -1.305118E+04 -5.095868E+02  6.411365E+03
        77  25 -4.629639E+04 -9.953823E+04 -4.954778E+04 -3.775870E+04 -3.020071E+02  2.988528E+04
        77  26 -1.565930E+04 -8.470511E+04 -2.565365E+04 -2.384542E+04 -8.101048E+02  1.747225E+04
        77  27 -4.943097E+03 -7.646859E+04 -1.482183E+04 -1.217768E+04 -5.095403E+02  5.058776E+03
        78   1 -1.458741E+03 -6.156156E+04 -1.000023E+04 -1.178017E+04  6.883765E+01 -5.944635E+03
        78   2 -2.859692E+03 -7.248297E+04 -1.014927E+04 -1.189526E+04 -5.985218E+02 -1.464998E+03
        78   3 -6.791725E+03 -8.462035E+04 -1.384766E+04 -1.430446E+04 -1.227000E+03  3.014566E+03
        78   4 -2.239513E+03 -6.475342E+04 -1.071244E+04 -1.306188E+04  6.881000E+01 -4.626311E+03
        78   5 -9.263950E+02 -6.415188E+04 -8.814526E+03 -1.191482E+04 -5.985559E+02 -2.213504E+02
        78   6 -2.131381E+03 -6.475348E+04 -1.041412E+04 -1.306189E+04 -1.227023E+03  4.183614E+03
        78   7 -3.020278E+03 -6.794526E+04 -1.142463E+04 -1.434359E+04  6.877691E+01 -3.307993E+03
        78   8  1.006899E+03 -5.582072E+04 -7.479780E+03 -1.193438E+04 -5.985900E+02  1.022313E+03
        78   9  2.528948E+03 -4.488621E+04 -6.980580E+03 -1.181928E+04 -1.227041E+03  5.352699E+03
        78  10 -1.458750E+03 -6.156160E+04 -1.000030E+04 -1.178017E+04 -4.393214E-12 -1.093914E-10
        78  11 -2.859693E+03 -7.248297E+04 -1.014927E+04 -1.189526E+04 -7.998302E-11 -6.164200E-11
        78  12 -6.791729E+03 -8.462036E+04 -1.384768E+04 -1.430445E+04  7.725068E-11 -1.661563E-11
        78  13 -2.239518E+03 -6.475344E+04 -1.071248E+04 -1.306188E+04  1.245621E-10 -1.097913E-11
        78  14 -9.263954E+02 -6.415188E+04 -8.814527E+03 -1.191482E+04  7.592253E-11  1.571568E-11
        78  15 -2.131387E+03 -6.475350E+04 -1.041415E+04 -1.306188E+04 -7.725717E-11 -1.814130E-11
        78  16 -3.020281E+03 -6.794527E+04 -1.142465E+04 -1.434359E+04 -4.267316E-12  1.111998E-10
        78  17  1.006899E+03 -5.582072E+04 -7.479783E+03 -1.193438E+04  7.206571E-11  7.993171E-11
        78  18  2.528939E+03 -4.488624E+04 -6.980637E+03 -1.181927E+04  2.800786E-12  2.697111E-11
        78  19 -1.458741E+03 -6.156156E+04 -1.000023E+04 -1.178017E+04 -6.883765E+01  5.944635E+03
        78  20 -2.859692E+03 -7.248297E+04 -1.014927E+04 -1.189526E+04  5.985218E+02  1.464998E+03
        78  21 -6.791725E+03 -8.462035E+04 -1.384766E+04 -1.430446E+04  1.227000E+03 -3.014566E+03
        78  22 -2.239513E+03 -6.475342E+04 -1.071244E+04 -1.306188E+04 -6.881000E+01  4.626311E+03
        78  23 -9.263950E+02 -6.415188E+04 -8.814526E+03 -1.191482E+04  5.985559E+02  2.213504E+02
        78  24 -2.131381E+03 -6.475348E+04 -1.041412E+04 -1.306189E+04  1.227023E+03 -4.183614E+03
        78  25 -3.020278E+03 -6.794526E+04 -1.142463E+04 -1.434359E+04 -6.877691E+01  3.307993E+03
        78  26  1.006899E+03 -5.582072E+04 -7.479780E+03 -1.193438E+04  5.985900E+02 -1.022313E+03
        78  27  2.528948E+03 -4.488621E+04 -6.980580E+03 -1.181928E+04  1.227041E+03 -5.352699E+03
        79   1 -8.718166E+03 -9.309256E+04 -1.711381E+04 -1.222565E+04 -1.637936E+03  4.691310E+03
        79   2 -1.907260E+04 -1.014265E+05 -2.772639E+04 -2.325821E+04 -1.685415E+03  1.730693E+04
        79   3 -4.848171E+04 -1.161668E+05 -5.131644E+04 -3.650822E+04 -5.529892E+02  2.992207E+04
        79   4 -2.309392E+03 -6.582231E+04 -1.234283E+04 -1.304496E+04 -1.637967E+03  5.914589E+03
        79   5 -9.840965E+03 -6.281649E+04 -2.017891E+04 -1.193621E+04 -1.685072E+03  1.626463E+04
        79   6 -3.603371E+04 -6.582369E+04 -3.941870E+04 -1.304542E+04 -5.518119E+02  2.661451E+04
        79   7  4.099344E+03 -3.855134E+04 -7.571876E+03 -1.386431E+04 -1.638001E+03  7.137921E+03
        79   8 -6.089333E+02 -2.420473E+04 -1.263143E+04 -6.134864E+02 -1.684767E+03  1.522228E+04
        79   9 -2.358383E+04 -1.547700E+04 -2.752079E+04  1.041930E+04 -5.508848E+02  2.330668E+04
        79  10 -8.718174E+03 -9.309258E+04 -1.711385E+04 -1.222565E+04 -5.087398E-11  3.343171E-12
        79  11 -1.907269E+04 -1.014269E+05 -2.772696E+04 -2.325819E+04  2.307281E-12 -6.058869E-11
        79  12 -4.848195E+04 -1.161678E+05 -5.131812E+04 -3.650821E+04  1.034612E-10 -1.154936E-10
        79  13 -2.309405E+03 -6.582235E+04 -1.234290E+04 -1.304495E+04  4.777913E-11 -1.076408E-12
        79  14 -9.841039E+03 -6.281677E+04 -2.017941E+04 -1.193619E+04 -1.494872E-10 -1.383384E-12
        79  15 -3.603390E+04 -6.582445E+04 -3.942003E+04 -1.304541E+04 -2.348368E-11  2.238571E-11
        79  16  4.099327E+03 -3.855139E+04 -7.571977E+03 -1.386430E+04 -1.715528E-11  3.025353E-12
        79  17 -6.089986E+02 -2.420498E+04 -1.263187E+04 -6.134657E+02  2.806401E-12  5.676152E-11
        79  18 -2.358397E+04 -1.547758E+04 -2.752181E+04  1.041931E+04  1.519981E-11  1.058285E-10
        79  19 -8.718166E+03 -9.309256E+04 -1.711381E+04 -1.222565E+04  1.637936E+03 -4.691310E+03
        79  20 -1.907260E+04 -1.014265E+05 -2.772639E+04 -2.325821E+04  1.685415E+03 -1.730693E+04
        79  21 -4.848171E+04 -1.161668E+05 -5.131644E+04 -3.650822E+04  5.529892E+02 -2.992207E+04
        79  22 -2.309392E+03 -6.582231E+04 -1.234283E+04 -1.304496E+04  1.637967E+03 -5.914589E+03
        79  23 -9.840965E+03 -6.281649E+04 -2.017891E+04 -1.193621E+04  1.685072E+03 -1.626463E+04
        79  24 -3.603371E+04 -6.582369E+04 -3.941870E+04 -1.304542E+04  5.518119E+02 -2.661451E+04
        79  25  4.099344E+03 -3.855134E+04 -7.571876E+03 -1.386431E+04  1.638001E+03 -7.137921E+03
        79  26 -6.089333E+02 -2.420473E+04 -1.263143E+04 -6.134864E+02  1.684767E+03 -1.522228E+04
        79  27 -2.358383E+04 -1.547700E+04 -2.752079E+04  1.041930E+04  5.508848E+02 -2.330668E+04
        80   1  6.993244E+04  2.770716E+04 -6.681450E+03  5.300993E+04 -6.128541E+01  8.602419E+02
        80   2  7.572221E+04  2.802020E+04 -6.004669E+03  5.754599E+04 -3.925881E+02  2.644245E+03
        80   3  8.445841E+04  2.884947E+04 -5.138638E+03  6.055842E+04  8.045696E+01  3.355785E+03
        80   4  1.163799E+05  5.389984E+04  6.974880E+03  7.290892E+04  3.466554E+03  3.506029E+03
        80   5  1.136030E+05  5.149772E+04  3.444275E+03  7.511129E+04  1.075769E+03  3.745427E+03
        80   6  1.142195E+05  5.005854E+04  1.890321E+03  7.579008E+04 -5.106860E+02  2.912442E+03
        80   7  1.628287E+05  8.009265E+04  2.063076E+04  9.280900E+04  6.994684E+03  6.151960E+03
        80   8  1.514851E+05  7.497559E+04  1.289299E+04  9.267756E+04  2.544231E+03  4.846674E+03
        80   9  1.439815E+05  7.126815E+04  8.919217E+03  9.102258E+04 -1.101866E+03  2.469071E+03
        80  10  6.993244E+04  2.770716E+04 -6.681452E+03  5.300993E+04  2.100758E-10  7.918548E-11
        80  11  7.572221E+04  2.802019E+04 -6.004682E+03  5.754599E+04  4.079869E-10  7.743485E-11
        80  12  8.445840E+04  2.884946E+04 -5.138659E+03  6.055842E+04  2.199835E-10  3.760338E-12
        80  13  1.163799E+05  5.389983E+04  6.974834E+03  7.290891E+04  1.079368E-10  1.073879E-11
        80  14  1.136030E+05  5.149770E+04  3.444247E+03  7.511128E+04 -6.763280E-11 -5.857040E-11
        80  15  1.142195E+05  5.005853E+04  1.890304E+03  7.579008E+04  1.450252E-10 -3.265749E-11
        80  16  1.628287E+05  8.009259E+04  2.063060E+04  9.280897E+04 -1.377466E-10 -9.961745E-11
        80  17  1.514851E+05  7.497557E+04  1.289293E+04  9.267755E+04 -3.480033E-11 -1.104952E-10
        80  18  1.439815E+05  7.126814E+04  8.919204E+03  9.102258E+04 -9.808666E-11 -6.984247E-11
        80  19  6.993244E+04  2.770716E+04 -6.681450E+03  5.300993E+04  6.128541E+01 -8.602419E+02
        80  20  7.572221E+04  2.802020E+04 -6.004669E+03  5.754599E+04  3.925881E+02 -2.644245E+03
        80  21  8.445841E+04  2.884947E+04 -5.138638E+03  6.055842E+04 -8.045696E+01 -3.355785E+03
        80  22  1.163799E+05  5.389984E+04  6.974880E+03  7.290892E+04 -3.466554E+03 -3.506029E+03
        80  23  1.136030E+05  5.149772E+04  3.444275E+03  7.511129E+04 -1.075769E+03 -3.745427E+03
        80  24  1.142195E+05  5.005854E+04  1.890321E+03  7.579008E+04  5.106860E+02 -2.912442E+03
        80  25  1.628287E+05  8.009265E+04  2.063076E+04  9.280900E+04 -6.994684E+03 -6.151960E+03
        80  26  1.514851E+05  7.497559E+04  1.289299E+04  9.267756E+04 -2.544231E+03 -4.846674E+03
        80  27  1.439815E+05  7.126815E+04  8.919217E+03  9.102258E+04  1.101866E+03 -2.469071E+03
        81   1  8.796976E+04  3.185511E+04 -4.559216E+03  6.255789E+04 -1.022806E+01  2.956782E+03
        81   2  9.328334E+04  3.670324E+04 -3.588464E+03  6.598401E+04  1.344064E+02  2.539092E+03
        81   3  1.003154E+05  4.006516E+04 -2.486951E+03  6.888499E+04  3.634506E+02  2.008829E+03
        81   4  1.140933E+05  4.994361E+04  1.436033E+03  7.569768E+04 -5.487836E+02  2.552881E+03
        81   5  1.131458E+05  5.054771E+04  8.111477E+02  7.604716E+04 -6.203372E+02  1.973071E+03
        81   6  1.139635E+05  4.971244E+04  5.045732E+02  7.587142E+04 -6.074823E+02  1.280696E+03
        81   7  1.402181E+05  6.803288E+04  7.431427E+03  8.883836E+04 -1.087380E+03  2.148950E+03
        81   8  1.330087E+05  6.439242E+04  5.210743E+03  8.611068E+04 -1.375113E+03  1.407025E+03
        81   9  1.276115E+05  5.935964E+04  3.495998E+03  8.285790E+04 -1.578424E+03  5.525562E+02
        81  10  8.796976E+04  3.185510E+04 -4.559232E+03  6.255789E+04  2.852210E-10  7.616370E-11
        81  11  9.328333E+04  3.670323E+04 -3.588476E+03  6.598401E+04  3.469903E-10 -3.134953E-11
        81  12  1.003154E+05  4.006516E+04 -2.486959E+03  6.888499E+04  4.634256E-10 -1.105023E-10
        81  13  1.140933E+05  4.994360E+04  1.436021E+03  7.569768E+04  1.042118E-10 -5.796064E-11
        81  14  1.131458E+05  5.054770E+04  8.111397E+02  7.604716E+04 -8.554279E-11 -1.328014E-10
        81  15  1.139635E+05  4.971244E+04  5.045695E+02  7.587142E+04 -2.212077E-11 -1.838061E-10
        81  16  1.402181E+05  6.803288E+04  7.431416E+03  8.883836E+04 -2.847846E-10 -1.897319E-10
        81  17  1.330087E+05  6.439242E+04  5.210735E+03  8.611069E+04 -3.355950E-10 -2.461551E-10
        81  18  1.276115E+05  5.935964E+04  3.495993E+03  8.285790E+04 -2.876715E-10 -2.511046E-10
        81  19  8.796976E+04  3.185511E+04 -4.559216E+03  6.255789E+04  1.022806E+01 -2.956782E+03
        81  20  9.328334E+04  3.670324E+04 -3.588464E+03  6.598401E+04 -1.344064E+02 -2.539092E+03
        81  21  1.003154E+05  4.006516E+04 -2.486951E+03  6.888499E+04 -3.634506E+02 -2.008829E+03
        81  22  1.140933E+05  4.994361E+04  1.436033E+03  7.569768E+04  5.487836E+02 -2.552881E+03
        81  23  1.131458E+05  5.054771E+04  8.111477E+02  7.604716E+04  6.203372E+02 -1.973071E+03
        81  24  1.139635E+05  4.971244E+04  5.045732E+02  7.587142E+04  6.074823E+02 -1.280696E+03
        81  25  1.402181E+05  6.803288E+04  7.431427E+03  8.883836E+04  1.087380E+03 -2.148950E+03
        81  26  1.330087E+05  6.439242E+04  5.210743E+03  8.611068E+04  1.375113E+03 -1.407025E+03
        81  27  1.276115E+05  5.935964E+04  3.495998E+03  8.285790E+04  1.578424E+03 -5.525562E+02
        82   1  1.041780E+05  4.282993E+04 -1.690707E+03  7.086963E+04  5.176508E+02  1.658622E+03
        82   2  1.094699E+05  4.793217E+04 -4.416617E+02  7.423015E+04  7.645992E+02  1.056475E+03
        82   3  1.164140E+05  5.143345E+04  9.199210E+02  7.711794E+04  1.013048E+03  4.523302E+02
        82   4  1.139542E+05  4.970454E+04  4.192953E+02  7.586209E+04 -4.481533E+02  9.343421E+02
        82   5  1.131272E+05  5.050386E+04  3.401717E+02  7.609910E+04 -2.050562E+02  3.293074E+02
        82   6  1.139533E+05  4.970300E+04  3.769174E+02  7.586333E+04  3.954306E+01 -2.777278E+02
        82   7  1.237304E+05  5.657922E+04  2.529302E+03  8.085466E+04 -1.413978E+03  2.100467E+02
        82   8  1.167846E+05  5.307559E+04  1.122024E+03  7.796809E+04 -1.174730E+03 -3.978737E+02
        82   9  1.114926E+05  4.797252E+04 -1.660990E+02  7.460871E+04 -9.339765E+02 -1.007797E+03
        82  10  1.041780E+05  4.282993E+04 -1.690713E+03  7.086963E+04 -4.196242E-09 -2.935428E-09
        82  11  1.094699E+05  4.793216E+04 -4.416649E+02  7.423015E+04  5.990276E-09  5.886003E-09
        82  12  1.164140E+05  5.143345E+04  9.199187E+02  7.711794E+04  2.056893E-08  1.669595E-08
        82  13  1.139542E+05  4.970454E+04  4.192933E+02  7.586209E+04 -5.924934E-10 -6.133115E-10
        82  14  1.131272E+05  5.050386E+04  3.401715E+02  7.609910E+04 -1.341636E-11  1.753883E-10
        82  15  1.139533E+05  4.970300E+04  3.769172E+02  7.586333E+04  5.216415E-09  4.551812E-09
        82  16  1.237304E+05  5.657922E+04  2.529298E+03  8.085466E+04  2.887020E-09  1.713431E-09
        82  17  1.167846E+05  5.307559E+04  1.122021E+03  7.796809E+04 -5.982600E-09 -5.524135E-09
        82  18  1.114926E+05  4.797252E+04 -1.661025E+02  7.460871E+04 -1.036475E-08 -7.614207E-09
        82  19  1.041780E+05  4.282993E+04 -1.690707E+03  7.086963E+04 -5.176508E+02 -1.658622E+03
        82  20  1.094699E+05  4.793217E+04 -4.416617E+02  7.423015E+04 -7.645992E+02 -1.056475E+03
        82  21  1.164140E+05  5.143345E+04  9.199210E+02  7.711794E+04 -1.013048E+03 -4.523302E+02
        82  22  1.139542E+05  4.970454E+04  4.192953E+02  7.586209E+04  4.481533E+02 -9.343421E+02
        82  23  1.131272E+05  5.050386E+04  3.401717E+02  7.609910E+04  2.050562E+02 -3.293074E+02
        82  24  1.139533E+05  4.970300E+04  3.769174E+02  7.586333E+04 -3.954306E+01  2.777278E+02
        82  25  1.237304E+05  5.657922E+04  2.529302E+03  8.085466E+04  1.413978E+03 -2.100467E+02
        82  26  1.167846E+05  5.307559E+04  1.122024E+03  7.796809E+04  1.174730E+03  3.978737E+02
        82  27  1.114926E+05  4.797252E+04 -1.660990E+02  7.460871E+04  9.339765E+02  1.007797E+03
        83   1  1.202970E+05  5.420710E+04  1.859080E+03  7.911748E+04  1.185082E+03  1.131148E+02
        83   2  1.256753E+05  5.925455E+04  3.484272E+03  8.239029E+04  1.083162E+03 -6.856533E+02
        83   3  1.328320E+05  6.286661E+04  5.528465E+03  8.514780E+04  9.111609E+02 -1.390966E+03
        83   4  1.139603E+05  4.970918E+04  4.371036E+02  7.587019E+04  2.074879E+02 -6.200120E+02
        83   5  1.131433E+05  5.054032E+04  6.737986E+02  7.605724E+04  2.850451E+02 -1.284187E+03
        83   6  1.140660E+05  4.989725E+04  1.173798E+03  7.572904E+04  2.925226E+02 -1.854908E+03
        83   7  1.076237E+05  4.521138E+04 -9.848231E+02  7.262300E+04 -7.700731E+02 -1.353114E+03
        83   8  1.006117E+05  4.182628E+04 -2.136632E+03  6.972441E+04 -5.130415E+02 -1.882698E+03
        83   9  9.530036E+04  3.692810E+04 -3.180882E+03  6.631061E+04 -3.260902E+02 -2.318831E+03
        83  10  1.202970E+05  5.420710E+04  1.859078E+03  7.911748E+04 -1.054023E-08 -7.652937E-09
        83  11  1.256753E+05  5.925455E+04  3.484269E+03  8.239029E+04 -6.038999E-09 -5.569400E-09
        83  12  1.328320E+05  6.286661E+04  5.528459E+03  8.514780E+04  3.049093E-09  1.691635E-09
        83  13  1.139603E+05  4.970918E+04  4.371028E+02  7.587019E+04  5.197087E-09  4.541133E-09
        83  14  1.131433E+05  5.054032E+04  6.737953E+02  7.605724E+04  3.345186E-12  1.931279E-10
        83  15  1.140660E+05  4.989724E+04  1.173792E+03  7.572904E+04 -4.663757E-10 -6.373331E-10
        83  16  1.076237E+05  4.521138E+04 -9.848277E+02  7.262300E+04  2.072358E-08  1.674254E-08
        83  17  1.006117E+05  4.182628E+04 -2.136640E+03  6.972441E+04  5.814591E-09  5.939868E-09
        83  18  9.530036E+04  3.692809E+04 -3.180893E+03  6.631061E+04 -4.047866E-09 -2.971584E-09
        83  19  1.202970E+05  5.420710E+04  1.859080E+03  7.911748E+04 -1.185082E+03 -1.131148E+02
        83  20  1.256753E+05  5.925455E+04  3.484272E+03  8.239029E+04 -1.083162E+03  6.856533E+02
        83  21  1.328320E+05  6.286661E+04  5.528465E+03  8.514780E+04 -9.111609E+02  1.390966E+03
        83  22  1.139603E+05  4.970918E+04  4.371036E+02  7.587019E+04 -2.074879E+02  6.200120E+02
        83  23  1.131433E+05  5.054032E+04  6.737986E+02  7.605724E+04 -2.850451E+02  1.284187E+03
        83  24  1.140660E+05  4.989725E+04  1.173798E+03  7.572904E+04 -2.925226E+02  1.854908E+03
        83  25  1.076237E+05  4.521138E+04 -9.848231E+02  7.262300E+04  7.700731E+02  1.353114E+03
        83  26  1.006117E+05  4.182628E+04 -2.136632E+03  6.972441E+04  5.130415E+02  1.882698E+03
        83  27  9.530036E+04  3.692810E+04 -3.180882E+03  6.631061E+04  3.260902E+02  2.318831E+03
        84   1  1.366207E+05  6.600942E+04  6.899608E+03  8.729440E+04  9.650762E+02 -1.706785E+03
        84   2  1.437088E+05  6.998132E+04  1.038802E+04  8.926715E+04 -1.977500E+03 -3.754200E+03
        84   3  1.542273E+05  7.480176E+04  1.697080E+04  8.991496E+04 -5.590594E+03 -4.907793E+03
        84   4  1.141680E+05  4.999092E+04  1.540026E+03  7.580401E+04  3.026203E+02 -2.203595E+03
        84   5  1.135151E+05  5.131113E+04  2.797298E+03  7.529755E+04 -9.231861E+02 -2.963541E+03
        84   6  1.159202E+05  5.310738E+04  5.659084E+03  7.346605E+04 -2.819411E+03 -2.829585E+03
        84   7  9.171534E+04  3.397241E+04 -3.819746E+03  6.431389E+04 -3.598167E+02 -2.700390E+03
        84   8  8.332251E+04  3.264133E+04 -4.793492E+03  6.132868E+04  1.310582E+02 -2.172926E+03
        84   9  7.761554E+04  3.141390E+04 -5.652499E+03  5.701850E+04 -4.851971E+01 -7.515484E+02
        84  10  1.366207E+05  6.600942E+04  6.899601E+03  8.729440E+04 -2.212113E-10 -3.440401E-10
        84  11  1.437088E+05  6.998130E+04  1.038799E+04  8.926715E+04 -1.465520E-10 -3.127237E-10
        84  12  1.542273E+05  7.480173E+04  1.697069E+04  8.991494E+04 -4.120543E-11 -1.798347E-10
        84  13  1.141680E+05  4.999092E+04  1.540016E+03  7.580401E+04  2.877709E-10 -2.051962E-10
        84  14  1.135151E+05  5.131112E+04  2.797280E+03  7.529755E+04  1.803403E-10 -1.253734E-10
        84  15  1.159202E+05  5.310737E+04  5.659054E+03  7.346605E+04  5.725599E-11  8.051233E-12
        84  16  9.171534E+04  3.397240E+04 -3.819760E+03  6.431388E+04  5.596154E-10 -4.439797E-11
        84  17  8.332251E+04  3.264133E+04 -4.793501E+03  6.132868E+04  3.500260E-10  2.405451E-11
        84  18  7.761554E+04  3.141390E+04 -5.652500E+03  5.701850E+04  1.797101E-10  9.863867E-11
        84  19  1.366207E+05  6.600942E+04  6.899608E+03  8.729440E+04 -9.650762E+02  1.706785E+03
        84  20  1.437088E+05  6.998132E+04  1.038802E+04  8.926715E+04  1.977500E+03  3.754200E+03
        84  21  1.542273E+05  7.480176E+04  1.697080E+04  8.991496E+04  5.590594E+03  4.907793E+03
        84  22  1.141680E+05  4.999092E+04  1.540026E+03  7.580401E+04 -3.026203E+02  2.203595E+03
        84  23  1.135151E+05  5.131113E+04  2.797298E+03  7.529755E+04  9.231861E+02  2.963541E+03
        84  24  1.159202E+05  5.310738E+04  5.659084E+03  7.346605E+04  2.819411E+03  2.829585E+03
        84  25  9.171534E+04  3.397241E+04 -3.819746E+03  6.431389E+04  3.598167E+02  2.700390E+03
        84  26  8.332251E+04  3.264133E+04 -4.793492E+03  6.132868E+04 -1.310582E+02  2.172926E+03
        84  27  7.761554E+04  3.141390E+04 -5.652499E+03  5.701850E+04  4.851971E+01  7.515484E+02
        85   1  1.184214E+04 -1.471861E+04 -1.605659E+04 -9.554617E+03 -1.112377E+04  1.711912E-01
        85   2  1.305860E+04 -4.017473E+03 -8.005233E+03 -4.601865E+03 -7.013892E+03  5.198869E-02
        85   3  1.184196E+04 -9.084518E+02 -4.527513E+03  3.509050E+02 -2.904013E+03 -1.641364E-03
        85   4  1.184204E+04 -1.471878E+04 -1.605662E+04  3.233962E-11 -1.112377E+04  4.792024E-12
        85   5  1.305858E+04 -4.017513E+03 -8.005239E+03  4.462000E-10 -7.013892E+03 -1.452385E-11
        85   6  1.184196E+04 -9.084520E+02 -4.527513E+03  2.458444E-10 -2.904013E+03  5.072665E-11
        85   7  1.184214E+04 -1.471861E+04 -1.605659E+04  9.554617E+03 -1.112377E+04 -1.711912E-01
        85   8  1.305860E+04 -4.017473E+03 -8.005233E+03  4.601865E+03 -7.013892E+03 -5.198869E-02
        85   9  1.184196E+04 -9.084518E+02 -4.527513E+03 -3.509050E+02 -2.904013E+03  1.641364E-03
        85  10  1.184200E+04 -1.471864E+04 -1.605682E+04 -9.554617E+03  1.330584E-10  3.724845E-11
        85  11  1.305855E+04 -4.017486E+03 -8.005326E+03 -4.601865E+03  2.141913E-10  6.522884E-11
        85  12  1.184195E+04 -9.084541E+02 -4.527529E+03  3.509050E+02  1.349780E-10  2.569744E-11
        85  13  1.184191E+04 -1.471881E+04 -1.605685E+04 -1.051743E-10  8.021381E-12 -1.612519E-12
        85  14  1.305852E+04 -4.017526E+03 -8.005331E+03  1.209507E-11  1.110913E-10 -1.417071E-12
        85  15  1.184195E+04 -9.084543E+02 -4.527529E+03  2.319091E-10  4.199104E-12  6.988553E-12
        85  16  1.184200E+04 -1.471864E+04 -1.605682E+04  9.554617E+03 -3.035030E-11 -1.965073E-11
        85  17  1.305855E+04 -4.017486E+03 -8.005326E+03  4.601865E+03 -1.940440E-10 -7.016435E-11
        85  18  1.184195E+04 -9.084541E+02 -4.527529E+03 -3.509050E+02 -1.647641E-10 -1.094121E-11
        85  19  1.184214E+04 -1.471861E+04 -1.605659E+04 -9.554617E+03  1.112377E+04 -1.711912E-01
        85  20  1.305860E+04 -4.017473E+03 -8.005233E+03 -4.601865E+03  7.013892E+03 -5.198869E-02
        85  21  1.184196E+04 -9.084518E+02 -4.527513E+03  3.509050E+02  2.904013E+03  1.641364E-03
        85  22  1.184204E+04 -1.471878E+04 -1.605662E+04 -1.099072E-10  1.112377E+04 -7.973669E-12
        85  23  1.305858E+04 -4.017513E+03 -8.005239E+03 -2.534687E-10  7.013892E+03  1.130960E-11
        85  24  1.184196E+04 -9.084520E+02 -4.527513E+03 -1.527644E-10  2.904013E+03 -3.451915E-11
        85  25  1.184214E+04 -1.471861E+04 -1.605659E+04  9.554617E+03  1.112377E+04  1.711912E-01
        85  26  1.305860E+04 -4.017473E+03 -8.005233E+03  4.601865E+03  7.013892E+03  5.198869E-02
        85  27  1.184196E+04 -9.084518E+02 -4.527513E+03 -3.509050E+02  2.904013E+03 -1.641364E-03
        86   1  1.231930E+04 -8.364412E+02 -3.549535E+03 -4.336544E+02 -2.299611E+03  1.606256E-03
        86   2  1.246185E+04 -1.712295E+02 -2.310884E+03 -1.887102E+02 -1.147206E+03  3.487011E-04
        86   3  1.231929E+04 -4.627010E+01 -1.957529E+03  5.623023E+01  5.182468E+00  4.694628E-07
        86   4  1.231930E+04 -8.364415E+02 -3.549535E+03  3.428017E-11 -2.299611E+03  6.048850E-11
        86   5  1.246185E+04 -1.712295E+02 -2.310884E+03  9.876462E-11 -1.147206E+03  3.548506E-11
        86   6  1.231929E+04 -4.627011E+01 -1.957529E+03  9.593775E-11  5.182468E+00  9.453835E-11
        86   7  1.231930E+04 -8.364412E+02 -3.549535E+03  4.336544E+02 -2.299611E+03 -1.606255E-03
        86   8  1.246185E+04 -1.712295E+02 -2.310884E+03  1.887102E+02 -1.147206E+03 -3.487011E-04
        86   9  1.231929E+04 -4.627010E+01 -1.957529E+03 -5.623023E+01  5.182468E+00 -4.692749E-07
        86  10  1.231930E+04 -8.364426E+02 -3.549545E+03 -4.336544E+02  1.928341E-10 -1.104075E-11
        86  11  1.246185E+04 -1.712298E+02 -2.310887E+03 -1.887102E+02  6.470408E-13 -7.258683E-12
        86  12  1.231929E+04 -4.627010E+01 -1.957529E+03  5.623023E+01  1.413222E-12  4.564782E-11
        86  13  1.231930E+04 -8.364429E+02 -3.549545E+03 -1.117471E-10  1.351480E-10  5.179274E-12
        86  14  1.246185E+04 -1.712299E+02 -2.310887E+03  5.028617E-11  1.635947E-10  1.059814E-11
        86  15  1.231929E+04 -4.627011E+01 -1.957529E+03  9.925497E-12  5.813330E-11  5.460140E-11
        86  16  1.231930E+04 -8.364426E+02 -3.549545E+03  4.336544E+02 -2.729242E-11  1.929119E-11
        86  17  1.246185E+04 -1.712298E+02 -2.310887E+03  1.887102E+02  1.366222E-10  2.732699E-11
        86  18  1.231929E+04 -4.627010E+01 -1.957529E+03 -5.623023E+01  7.764588E-12  6.464018E-11
        86  19  1.231930E+04 -8.364412E+02 -3.549535E+03 -4.336544E+02  2.299611E+03 -1.606256E-03
        86  20  1.246185E+04 -1.712295E+02 -2.310884E+03 -1.887102E+02  1.147206E+03 -3.487012E-04
        86  21  1.231929E+04 -4.627010E+01 -1.957529E+03  5.623023E+01 -5.182468E+00 -4.693701E-07
        86  22  1.231930E+04 -8.364415E+02 -3.549535E+03 -3.246586E-10  2.299611E+03 -5.014374E-11
        86  23  1.246185E+04 -1.712295E+02 -2.310884E+03  1.972006E-12  1.147206E+03 -1.485077E-11
        86  24  1.231929E+04 -4.627011E+01 -1.957529E+03 -3.193999E-10 -5.182468E+00  1.443437E-11
        86  25  1.231930E+04 -8.364412E+02 -3.549535E+03  4.336544E+02  2.299611E+03  1.606255E-03
        86  26  1.246185E+04 -1.712295E+02 -2.310884E+03  1.887102E+02  1.147206E+03  3.487011E-04
        86  27  1.231929E+04 -4.627010E+01 -1.957529E+03 -5.623023E+01 -5.182468E+00  4.694015E-07
        87   1  1.230777E+04 -4.553367E+01 -2.019492E+03 -8.936688E+01  3.485198E+02 -5.016715E-05
        87   2  1.247625E+04 -2.196218E+02 -2.651945E+03  2.194347E+02  1.671784E+03  5.908837E-04
        87   3  1.230779E+04 -1.052321E+03 -4.310524E+03  5.282410E+02  2.995066E+03  2.548326E-03
        87   4  1.230777E+04 -4.553368E+01 -2.019492E+03 -3.641693E-11  3.485198E+02  1.326901E-10
        87   5  1.247625E+04 -2.196219E+02 -2.651945E+03 -2.241189E-10  1.671784E+03  1.235343E-10
        87   6  1.230779E+04 -1.052322E+03 -4.310524E+03 -1.002434E-10  2.995066E+03  6.226947E-11
        87   7  1.230777E+04 -4.553367E+01 -2.019492E+03  8.936688E+01  3.485198E+02  5.016742E-05
        87   8  1.247625E+04 -2.196218E+02 -2.651945E+03 -2.194347E+02  1.671784E+03 -5.908835E-04
        87   9  1.230779E+04 -1.052321E+03 -4.310524E+03 -5.282410E+02  2.995066E+03 -2.548326E-03
        87  10  1.230777E+04 -4.553370E+01 -2.019492E+03 -8.936688E+01  1.390300E-10  8.933752E-11
        87  11  1.247625E+04 -2.196225E+02 -2.651950E+03  2.194347E+02 -1.202899E-11  9.832566E-11
        87  12  1.230778E+04 -1.052324E+03 -4.310541E+03  5.282410E+02  1.084991E-10  2.302156E-11
        87  13  1.230777E+04 -4.553371E+01 -2.019492E+03  2.951389E-11  1.354110E-10  7.575880E-11
        87  14  1.247625E+04 -2.196226E+02 -2.651950E+03 -1.152971E-10  3.028999E-10  5.790044E-11
        87  15  1.230778E+04 -1.052324E+03 -4.310541E+03 -1.087234E-10  8.728582E-11  8.502761E-12
        87  16  1.230777E+04 -4.553370E+01 -2.019492E+03  8.936688E+01  5.395418E-14  6.225287E-11
        87  17  1.247625E+04 -2.196225E+02 -2.651950E+03 -2.194347E+02  2.382015E-11  1.802967E-11
        87  18  1.230778E+04 -1.052324E+03 -4.310541E+03 -5.282410E+02  9.268845E-11 -7.859345E-12
        87  19  1.230777E+04 -4.553367E+01 -2.019492E+03 -8.936688E+01 -3.485198E+02  5.016733E-05
        87  20  1.247625E+04 -2.196218E+02 -2.651945E+03  2.194347E+02 -1.671784E+03 -5.908835E-04
        87  21  1.230779E+04 -1.052321E+03 -4.310524E+03  5.282410E+02 -2.995066E+03 -2.548326E-03
        87  22  1.230777E+04 -4.553368E+01 -2.019492E+03 -3.078313E-10 -3.485198E+02  1.856292E-11
        87  23  1.247625E+04 -2.196219E+02 -2.651945E+03  6.086902E-11 -1.671784E+03 -7.503812E-12
        87  24  1.230779E+04 -1.052322E+03 -4.310524E+03  2.779547E-10 -2.995066E+03 -4.587484E-11
        87  25  1.230777E+04 -4.553367E+01 -2.019492E+03  8.936688E+01 -3.485198E+02 -5.016729E-05
        87  26  1.247625E+04 -2.196218E+02 -2.651945E+03 -2.194347E+02 -1.671784E+03  5.908835E-04
        87  27  1.230779E+04 -1.052321E+03 -4.310524E+03 -5.282410E+02 -2.995066E+03  2.548326E-03
        88   1  1.170632E+04 -1.141218E+03 -5.571281E+03 -4.500584E+02  3.731016E+03 -2.704662E-03
        88   2  1.322818E+04 -5.033017E+03 -9.978149E+03  5.753834E+03  8.854687E+03  8.206278E-02
        88   3  1.170658E+04 -1.843049E+04 -2.009702E+04  1.195770E+04  1.397836E+04  2.692276E-01
        88   4  1.170632E+04 -1.141219E+03 -5.571281E+03 -2.601735E-10  3.731016E+03  9.217288E-12
        88   5  1.322815E+04 -5.033079E+03 -9.978158E+03 -8.538788E-11  8.854687E+03 -3.563954E-11
        88   6  1.170642E+04 -1.843076E+04 -2.009706E+04 -2.049233E-10  1.397836E+04 -4.525462E-11
        88   7  1.170632E+04 -1.141218E+03 -5.571281E+03  4.500584E+02  3.731016E+03  2.704662E-03
        88   8  1.322818E+04 -5.033017E+03 -9.978149E+03 -5.753834E+03  8.854687E+03 -8.206278E-02
        88   9  1.170658E+04 -1.843049E+04 -2.009702E+04 -1.195770E+04  1.397836E+04 -2.692277E-01
        88  10  1.170631E+04 -1.141222E+03 -5.571307E+03 -4.500584E+02  1.535676E-11 -2.422628E-11
        88  11  1.322810E+04 -5.033038E+03 -9.978297E+03  5.753834E+03  5.285444E-11 -4.216270E-11
        88  12  1.170637E+04 -1.843054E+04 -2.009739E+04  1.195770E+04 -3.080875E-11 -1.607915E-11
        88  13  1.170631E+04 -1.141222E+03 -5.571307E+03 -1.981210E-10  1.843360E-10 -1.436174E-11
        88  14  1.322806E+04 -5.033100E+03 -9.978306E+03 -2.165262E-10  8.490761E-11 -1.502741E-11
        88  15  1.170621E+04 -1.843081E+04 -2.009743E+04 -6.685020E-11  5.899289E-11 -5.172162E-12
        88  16  1.170631E+04 -1.141222E+03 -5.571307E+03  4.500584E+02  6.159183E-11 -5.921245E-12
        88  17  1.322810E+04 -5.033038E+03 -9.978297E+03 -5.753834E+03  3.757048E-12 -6.530932E-12
        88  18  1.170637E+04 -1.843054E+04 -2.009739E+04 -1.195770E+04  6.564177E-11  1.022093E-11
        88  19  1.170632E+04 -1.141218E+03 -5.571281E+03 -4.500584E+02 -3.731016E+03  2.704662E-03
        88  20  1.322818E+04 -5.033017E+03 -9.978149E+03  5.753834E+03 -8.854687E+03 -8.206278E-02
        88  21  1.170658E+04 -1.843049E+04 -2.009702E+04  1.195770E+04 -1.397836E+04 -2.692276E-01
        88  22  1.170632E+04 -1.141219E+03 -5.571281E+03 -1.281352E-12 -3.731016E+03 -3.782832E-11
        88  23  1.322815E+04 -5.033079E+03 -9.978158E+03 -1.793210E-10 -8.854687E+03  5.773010E-12
        88  24  1.170642E+04 -1.843076E+04 -2.009706E+04 -8.016128E-11 -1.397836E+04  2.268335E-11
        88  25  1.170632E+04 -1.141218E+03 -5.571281E+03  4.500584E+02 -3.731016E+03 -2.704662E-03
        88  26  1.322818E+04 -5.033017E+03 -9.978149E+03 -5.753834E+03 -8.854687E+03  8.206278E-02
        88  27  1.170658E+04 -1.843049E+04 -2.009702E+04 -1.195770E+04 -1.397836E+04  2.692277E-01
        89   1 -3.039969E+04 -4.675453E+04 -3.056395E+04  2.924656E+04 -8.592194E+02 -1.265705E+04
        89   2 -1.732484E+04 -2.574705E+04 -1.794453E+04  2.380859E+04 -2.585519E+03 -5.911487E+03
        89   3 -1.032208E+04 -7.135197E+03 -1.123494E+04  2.218907E+04 -2.415747E+03  8.344162E+02
        89   4 -1.046866E+04  3.382950E+04 -1.149103E+04  2.240492E+04 -8.588674E+02 -7.522393E+03
        89   5 -2.856800E+03  3.471185E+04 -6.061358E+03  2.049542E+04 -2.585395E+03 -4.416779E+03
        89   6 -6.848117E+02  3.383013E+04 -4.013462E+03  2.240454E+04 -2.415860E+03 -1.311111E+03
        89   7  9.462096E+03  1.144197E+05  7.581566E+03  1.556238E+04 -8.586286E+02 -2.387073E+03
        89   8  1.161106E+04  9.517428E+04  5.821652E+03  1.718193E+04 -2.585287E+03 -2.921928E+03
        89   9  8.952371E+03  7.479711E+04  3.207967E+03  2.262002E+04 -2.415974E+03 -3.456776E+03
        89  10 -3.039974E+04 -4.675471E+04 -3.056425E+04  2.924655E+04  2.091690E-11  1.224215E-10
        89  11 -1.732485E+04 -2.574709E+04 -1.794461E+04  2.380857E+04  1.412102E-10  8.993881E-12
        89  12 -1.032209E+04 -7.135199E+03 -1.123495E+04  2.218908E+04 -1.588905E-10 -1.588139E-10
        89  13 -1.046868E+04  3.382944E+04 -1.149114E+04  2.240491E+04  2.109707E-11 -3.361062E-12
        89  14 -2.856812E+03  3.471183E+04 -6.061407E+03  2.049541E+04 -9.317472E-12  1.361611E-11
        89  15 -6.848184E+02  3.383013E+04 -4.013477E+03  2.240454E+04 -7.987063E-11  2.151343E-11
        89  16  9.462093E+03  1.144197E+05  7.581554E+03  1.556238E+04 -4.761370E-11 -1.238332E-10
        89  17  1.161105E+04  9.517427E+04  5.821623E+03  1.718192E+04 -1.265762E-10  2.261903E-11
        89  18  8.952362E+03  7.479709E+04  3.207934E+03  2.262001E+04 -2.289618E-12  1.475723E-10
        89  19 -3.039969E+04 -4.675453E+04 -3.056395E+04  2.924656E+04  8.592194E+02  1.265705E+04
        89  20 -1.732484E+04 -2.574705E+04 -1.794453E+04  2.380859E+04  2.585519E+03  5.911487E+03
        89  21 -1.032208E+04 -7.135197E+03 -1.123494E+04  2.218907E+04  2.415747E+03 -8.344162E+02
        89  22 -1.046866E+04  3.382950E+04 -1.149103E+04  2.240492E+04  8.588674E+02  7.522393E+03
        89  23 -2.856800E+03  3.471185E+04 -6.061358E+03  2.049542E+04  2.585395E+03  4.416779E+03
        89  24 -6.848117E+02  3.383013E+04 -4.013462E+03  2.240454E+04  2.415860E+03  1.311111E+03
        89  25  9.462096E+03  1.144197E+05  7.581566E+03  1.556238E+04  8.586286E+02  2.387073E+03
        89  26  1.161106E+04  9.517428E+04  5.821652E+03  1.718193E+04  2.585287E+03  2.921928E+03
        89  27  8.952371E+03  7.479711E+04  3.207967E+03  2.262002E+04  2.415974E+03  3.456776E+03
        90   1 -7.270443E+03  5.852552E+03 -8.550784E+03  2.285386E+04 -1.699795E+03  1.338488E+03
        90   2 -2.341699E+03  2.590371E+04 -4.981409E+03  2.036566E+04 -6.072655E+02  3.226738E+03
        90   3  1.538070E+03  4.544701E+04 -2.903632E+03  2.181644E+04  5.247387E+02  5.115037E+03
        90   4 -6.306886E+02  3.411229E+04 -3.610844E+03  2.243130E+04 -1.699918E+03 -7.210956E+02
        90   5 -3.795745E+02  3.435991E+04 -3.626773E+03  2.046182E+04 -6.073972E+02  1.091363E+03
        90   6 -1.164257E+03  3.411243E+04 -5.081665E+03  2.243133E+04  5.246004E+02  2.903814E+03
        90   7  6.009026E+03  6.237283E+04  1.329082E+03  2.200873E+04 -1.700038E+03 -2.780770E+03
        90   8  1.582548E+03  4.281619E+04 -2.272121E+03  2.055798E+04 -6.075295E+02 -1.044040E+03
        90   9 -3.866588E+03  2.277798E+04 -7.259684E+03  2.304621E+04  5.244577E+02  6.926297E+02
        90  10 -7.270447E+03  5.852549E+03 -8.550793E+03  2.285386E+04 -9.948812E-11 -1.509561E-11
        90  11 -2.341702E+03  2.590370E+04 -4.981429E+03  2.036566E+04  1.272502E-10  2.174690E-11
        90  12  1.538063E+03  4.544699E+04 -2.903682E+03  2.181644E+04  3.415392E-11 -3.700355E-11
        90  13 -6.306918E+02  3.411229E+04 -3.610851E+03  2.243130E+04  6.534466E-11 -1.318858E-12
        90  14 -3.795752E+02  3.435991E+04 -3.626775E+03  2.046182E+04  1.420277E-10  3.015037E-11
        90  15 -1.164260E+03  3.411242E+04 -5.081681E+03  2.243133E+04  8.911354E-11  2.564313E-11
        90  16  6.009020E+03  6.237282E+04  1.329063E+03  2.200873E+04  1.001320E-10  2.522706E-12
        90  17  1.582548E+03  4.281619E+04 -2.272124E+03  2.055798E+04 -3.499166E-11  4.289926E-11
        90  18 -3.866589E+03  2.277798E+04 -7.259685E+03  2.304621E+04  6.516422E-11  1.454824E-11
        90  19 -7.270443E+03  5.852552E+03 -8.550784E+03  2.285386E+04  1.699795E+03 -1.338488E+03
        90  20 -2.341699E+03  2.590371E+04 -4.981409E+03  2.036566E+04  6.072655E+02 -3.226738E+03
        90  21  1.538070E+03  4.544701E+04 -2.903632E+03  2.181644E+04 -5.247387E+02 -5.115037E+03
        90  22 -6.306886E+02  3.411229E+04 -3.610844E+03  2.243130E+04  1.699918E+03  7.210956E+02
        90  23 -3.795745E+02  3.435991E+04 -3.626773E+03  2.046182E+04  6.073972E+02 -1.091363E+03
        90  24 -1.164257E+03  3.411243E+04 -5.081665E+03  2.243133E+04 -5.246004E+02 -2.903814E+03
        90  25  6.009026E+03  6.237283E+04  1.329082E+03  2.200873E+04  1.700038E+03  2.780770E+03
        90  26  1.582548E+03  4.281619E+04 -2.272121E+03  2.055798E+04  6.075295E+02  1.044040E+03
        90  27 -3.866588E+03  2.277798E+04 -7.259684E+03  2.304621E+04 -5.244577E+02 -6.926297E+02
        91   1  4.426914E+03  5.750793E+04 -1.920424E+03  2.289371E+04  1.270976E+03  6.037521E+03
        91   2  5.012314E+03  7.871897E+04 -2.179496E+03  1.424147E+04  1.697110E+03  8.741929E+03
        91   3 -4.216787E+03  9.712473E+04 -6.652709E+03  9.436081E+03  6.038259E+02  1.144641E+04
        91   4 -1.260599E+03  3.348631E+04 -6.337344E+03  2.241083E+04  1.270831E+03  3.760499E+03
        91   5 -5.456281E+03  3.514230E+04 -1.095201E+04  2.048776E+04  1.697243E+03  9.382061E+03
        91   6 -1.997340E+04  3.348605E+04 -2.180670E+04  2.241164E+04  6.042459E+02  1.500355E+04
        91   7 -6.948141E+03  9.465261E+03 -1.075427E+04  2.192796E+04  1.270689E+03  1.483563E+03
        91   8 -1.592485E+04 -8.432481E+03 -1.972461E+04  2.673361E+04  1.697389E+03  1.002215E+04
        91   9 -3.572966E+04 -3.014852E+04 -3.696083E+04  3.538587E+04  6.048146E+02  1.856032E+04
        91  10  4.426902E+03  5.750789E+04 -1.920496E+03  2.289370E+04  3.939538E-11 -3.662413E-10
        91  11  5.012290E+03  7.871888E+04 -2.179645E+03  1.424145E+04 -3.264812E-11 -1.081251E-11
        91  12 -4.216823E+03  9.712459E+04 -6.652956E+03  9.436076E+03 -3.534977E-11  2.640491E-10
        91  13 -1.260605E+03  3.348629E+04 -6.337373E+03  2.241082E+04 -2.673598E-11 -8.230003E-12
        91  14 -5.456308E+03  3.514220E+04 -1.095218E+04  2.048775E+04 -7.113953E-11  2.463799E-11
        91  15 -1.997346E+04  3.348581E+04 -2.180712E+04  2.241164E+04  2.836172E-11  1.074265E-11
        91  16 -6.948143E+03  9.465258E+03 -1.075427E+04  2.192796E+04  7.329257E-11  3.467529E-10
        91  17 -1.592488E+04 -8.432589E+03 -1.972480E+04  2.673359E+04 -1.185571E-10  6.165782E-11
        91  18 -3.572975E+04 -3.014889E+04 -3.696148E+04  3.538586E+04 -1.280296E-10 -2.638325E-10
        91  19  4.426914E+03  5.750793E+04 -1.920424E+03  2.289371E+04 -1.270976E+03 -6.037521E+03
        91  20  5.012314E+03  7.871897E+04 -2.179496E+03  1.424147E+04 -1.697110E+03 -8.741929E+03
        91  21 -4.216787E+03  9.712473E+04 -6.652709E+03  9.436081E+03 -6.038259E+02 -1.144641E+04
        91  22 -1.260599E+03  3.348631E+04 -6.337344E+03  2.241083E+04 -1.270831E+03 -3.760499E+03
        91  23 -5.456281E+03  3.514230E+04 -1.095201E+04  2.048776E+04 -1.697243E+03 -9.382061E+03
        91  24 -1.997340E+04  3.348605E+04 -2.180670E+04  2.241164E+04 -6.042459E+02 -1.500355E+04
        91  25 -6.948141E+03  9.465261E+03 -1.075427E+04  2.192796E+04 -1.270689E+03 -1.483563E+03
        91  26 -1.592485E+04 -8.432481E+03 -1.972461E+04  2.673361E+04 -1.697389E+03 -1.002215E+04
        91  27 -3.572966E+04 -3.014852E+04 -3.696083E+04  3.538587E+04 -6.048146E+02 -1.856032E+04
        92   1  1.219171E+05  1.165355E+05  2.745719E+04  9.539751E+04  1.114801E+04  7.616337E+03
        92   2  1.129161E+05  9.709457E+04  1.525925E+04  9.287918E+04  6.949189E+03  2.981228E+03
        92   3  1.055711E+05  8.572745E+04  8.844032E+03  8.892237E+04  1.950810E+03 -5.876502E+02
        92   4  8.903601E+04  7.932502E+04  1.415670E+04  7.273622E+04  8.298014E+03  5.478508E+03
        92   5  8.623723E+04  7.161174E+04  6.970429E+03  7.637975E+04  6.146819E+03  2.379337E+03
        92   6  8.465053E+04  7.152837E+04  3.790011E+03  7.858471E+04  3.195979E+03  3.463069E+02
        92   7  5.615564E+04  4.211572E+04  8.558361E+02  5.007621E+04  5.448169E+03  3.340911E+03
        92   8  5.955876E+04  4.612934E+04 -1.318645E+03  5.988096E+04  5.344480E+03  1.777486E+03
        92   9  6.373008E+04  5.732929E+04 -1.264154E+03  6.824728E+04  4.441114E+03  1.280240E+03
        92  10  1.219169E+05  1.165355E+05  2.745685E+04  9.539745E+04 -2.668400E-13 -1.232870E-11
        92  11  1.129160E+05  9.709455E+04  1.525914E+04  9.287917E+04  2.000047E-10  3.977719E-11
        92  12  1.055711E+05  8.572744E+04  8.844024E+03  8.892237E+04  1.028625E-10 -2.678596E-11
        92  13  8.903593E+04  7.932497E+04  1.415652E+04  7.273618E+04 -9.060402E-11 -5.245097E-11
        92  14  8.623719E+04  7.161173E+04  6.970348E+03  7.637973E+04  9.039480E-11  8.342800E-11
        92  15  8.465052E+04  7.152837E+04  3.789992E+03  7.858471E+04  4.438550E-11 -3.815554E-11
        92  16  5.615561E+04  4.211570E+04  8.557593E+02  5.007619E+04  2.805907E-11 -7.497326E-11
        92  17  5.955873E+04  4.612933E+04 -1.318705E+03  5.988095E+04  1.480077E-10  1.217782E-11
        92  18  6.373005E+04  5.732928E+04 -1.264194E+03  6.824727E+04  1.159775E-10 -6.402425E-11
        92  19  1.219171E+05  1.165355E+05  2.745719E+04  9.539751E+04 -1.114801E+04 -7.616337E+03
        92  20  1.129161E+05  9.709457E+04  1.525925E+04  9.287918E+04 -6.949189E+03 -2.981228E+03
        92  21  1.055711E+05  8.572745E+04  8.844032E+03  8.892237E+04 -1.950810E+03  5.876502E+02
        92  22  8.903601E+04  7.932502E+04  1.415670E+04  7.273622E+04 -8.298014E+03 -5.478508E+03
        92  23  8.623723E+04  7.161174E+04  6.970429E+03  7.637975E+04 -6.146819E+03 -2.379337E+03
        92  24  8.465053E+04  7.152837E+04  3.790011E+03  7.858471E+04 -3.195979E+03 -3.463069E+02
        92  25  5.615564E+04  4.211572E+04  8.558361E+02  5.007621E+04 -5.448169E+03 -3.340911E+03
        92  26  5.955876E+04  4.612934E+04 -1.318645E+03  5.988096E+04 -5.344480E+03 -1.777486E+03
        92  27  6.373008E+04  5.732929E+04 -1.264154E+03  6.824728E+04 -4.441114E+03 -1.280240E+03
        93   1  9.814990E+04  8.166590E+04  6.320869E+03  8.567799E+04  1.303951E+03 -4.322944E+02
        93   2  8.934643E+04  7.261965E+04  2.583357E+03  8.035409E+04 -2.698865E+01 -3.735699E+02
        93   3  7.822436E+04  6.663600E+04 -3.621118E+02  7.569443E+04 -1.440728E+03 -2.043630E+02
        93   4  8.433433E+04  7.135428E+04  2.850074E+03  7.841345E+04  2.496925E+03  4.625185E+02
        93   5  8.538554E+04  6.961268E+04  1.529175E+03  7.825666E+04  1.378090E+03  6.803323E+02
        93   6  8.407184E+04  7.088742E+04  8.161762E+02  7.876390E+04  1.764258E+02  1.008610E+03
        93   7  7.051928E+04  6.104300E+04 -6.206242E+02  7.114925E+04  3.689838E+03  1.357284E+03
        93   8  8.142472E+04  6.660576E+04  4.750186E+02  7.615928E+04  2.783142E+03  1.734213E+03
        93   9  8.991935E+04  7.513886E+04  1.994477E+03  8.183341E+04  1.793599E+03  2.221598E+03
        93  10  9.814990E+04  8.166590E+04  6.320865E+03  8.567799E+04  1.222219E-11 -1.037854E-11
        93  11  8.934643E+04  7.261965E+04  2.583357E+03  8.035409E+04  1.855391E-10  9.860171E-11
        93  12  7.822436E+04  6.663600E+04 -3.621158E+02  7.569443E+04 -5.038370E-11  4.682555E-11
        93  13  8.433433E+04  7.135427E+04  2.850062E+03  7.841345E+04  1.066079E-10 -6.115520E-11
        93  14  8.538554E+04  6.961268E+04  1.529170E+03  7.825666E+04 -5.949970E-11 -1.698558E-11
        93  15  8.407184E+04  7.088742E+04  8.161742E+02  7.876390E+04 -9.338710E-11 -1.284862E-11
        93  16  7.051927E+04  6.104300E+04 -6.206532E+02  7.114925E+04  1.120270E-10  1.799473E-11
        93  17  8.142471E+04  6.660575E+04  4.749984E+02  7.615927E+04  1.007904E-10 -1.287474E-11
        93  18  8.991935E+04  7.513885E+04  1.994462E+03  8.183341E+04 -7.317799E-11 -7.606801E-11
        93  19  9.814990E+04  8.166590E+04  6.320869E+03  8.567799E+04 -1.303951E+03  4.322944E+02
        93  20  8.934643E+04  7.261965E+04  2.583357E+03  8.035409E+04  2.698865E+01  3.735699E+02
        93  21  7.822436E+04  6.663600E+04 -3.621118E+02  7.569443E+04  1.440728E+03  2.043630E+02
        93  22  8.433433E+04  7.135428E+04  2.850074E+03  7.841345E+04 -2.496925E+03 -4.625185E+02
        93  23  8.538554E+04  6.961268E+04  1.529175E+03  7.825666E+04 -1.378090E+03 -6.803323E+02
        93  24  8.407184E+04  7.088742E+04  8.161762E+02  7.876390E+04 -1.764258E+02 -1.008610E+03
        93  25  7.051928E+04  6.104300E+04 -6.206242E+02  7.114925E+04 -3.689838E+03 -1.357284E+03
        93  26  8.142472E+04  6.660576E+04  4.750186E+02  7.615928E+04 -2.783142E+03 -1.734213E+03
        93  27  8.991935E+04  7.513886E+04  1.994477E+03  8.183341E+04 -1.793599E+03 -2.221598E+03
        94   1  7.175381E+04  6.218296E+04 -2.036745E+03  7.243421E+04 -1.903072E+03  2.217700E+02
        94   2  6.303776E+04  5.378546E+04 -4.567502E+03  6.693655E+04 -2.588062E+03  1.010818E+03
        94   3  5.166763E+04  4.806438E+04 -7.047263E+03  6.221731E+04 -3.263888E+03  1.787683E+03
        94   4  8.404385E+04  7.087568E+04  5.760463E+02  7.874216E+04 -2.902743E+02  1.431474E+03
        94   5  8.536107E+04  6.952194E+04  2.096102E+02  7.836267E+04 -9.986901E+02  2.202932E+03
        94   6  8.402935E+04  7.084984E+04 -8.541503E+01  7.876161E+04 -1.697937E+03  2.962199E+03
        94   7  9.633432E+04  7.956868E+04  3.188934E+03  8.505039E+04  1.322598E+03  2.641234E+03
        94   8  1.076850E+05  8.525874E+04  4.986716E+03  8.978926E+04  5.907575E+02  3.395104E+03
        94   9  1.163916E+05  9.363549E+04  6.876172E+03  9.530659E+04 -1.319083E+02  4.136774E+03
        94  10  7.175381E+04  6.218296E+04 -2.036752E+03  7.243421E+04 -7.640552E-11  4.776969E-12
        94  11  6.303775E+04  5.378546E+04 -4.567516E+03  6.693655E+04 -4.923772E-12 -7.477806E-11
        94  12  5.166761E+04  4.806437E+04 -7.047289E+03  6.221732E+04  1.004184E-10  8.044370E-11
        94  13  8.404385E+04  7.087568E+04  5.760423E+02  7.874216E+04 -3.770612E-11 -4.300574E-11
        94  14  8.536107E+04  6.952194E+04  2.095992E+02  7.836267E+04 -8.745409E-11  7.432944E-11
        94  15  8.402934E+04  7.084983E+04 -8.543694E+01  7.876162E+04 -1.931589E-11  4.392998E-11
        94  16  9.633432E+04  7.956867E+04  3.188917E+03  8.505038E+04 -1.149623E-10  4.438854E-11
        94  17  1.076850E+05  8.525873E+04  4.986693E+03  8.978926E+04 -2.133219E-10 -5.052277E-11
        94  18  1.163916E+05  9.363547E+04  6.876140E+03  9.530660E+04 -1.730941E-10 -4.398545E-11
        94  19  7.175381E+04  6.218296E+04 -2.036745E+03  7.243421E+04  1.903072E+03 -2.217700E+02
        94  20  6.303776E+04  5.378546E+04 -4.567502E+03  6.693655E+04  2.588062E+03 -1.010818E+03
        94  21  5.166763E+04  4.806438E+04 -7.047263E+03  6.221731E+04  3.263888E+03 -1.787683E+03
        94  22  8.404385E+04  7.087568E+04  5.760463E+02  7.874216E+04  2.902743E+02 -1.431474E+03
        94  23  8.536107E+04  6.952194E+04  2.096102E+02  7.836267E+04  9.986901E+02 -2.202932E+03
        94  24  8.402935E+04  7.084984E+04 -8.541503E+01  7.876161E+04  1.697937E+03 -2.962199E+03
        94  25  9.633432E+04  7.956868E+04  3.188934E+03  8.505039E+04 -1.322598E+03 -2.641234E+03
        94  26  1.076850E+05  8.525874E+04  4.986716E+03  8.978926E+04 -5.907575E+02 -3.395104E+03
        94  27  1.163916E+05  9.363549E+04  6.876172E+03  9.530659E+04  1.319083E+02 -4.136774E+03
        95   1  4.527774E+04  4.353617E+04 -8.648928E+03  5.894302E+04 -3.617539E+03  2.280798E+03
        95   2  3.649043E+04  3.523702E+04 -1.137903E+04  5.355318E+04 -3.465797E+03  3.500044E+03
        95   3  2.483196E+04  2.933256E+04 -1.473749E+04  4.898791E+04 -3.143595E+03  4.492025E+03
        95   4  8.401884E+04  7.083905E+04 -2.359348E+02  7.874763E+04 -2.040863E+03  3.463331E+03
        95   5  8.534784E+04  6.948954E+04 -6.143037E+02  7.841363E+04 -2.325472E+03  4.355254E+03
        95   6  8.390036E+04  7.062932E+04 -1.242250E+03  7.890410E+04 -2.439616E+03  5.019939E+03
        95   7  1.227617E+05  9.814289E+04  8.177014E+03  9.855371E+04 -4.640546E+02  4.645964E+03
        95   8  1.342086E+05  1.037439E+05  1.015049E+04  1.032766E+05 -1.185016E+03  5.210564E+03
        95   9  1.429741E+05  1.119291E+05  1.225322E+04  1.088242E+05 -1.735533E+03  5.547930E+03
        95  10  4.527773E+04  4.353616E+04 -8.648962E+03  5.894303E+04  1.841369E-11 -9.921108E-12
        95  11  3.649041E+04  3.523701E+04 -1.137907E+04  5.355319E+04 -2.662949E-10  7.135989E-11
        95  12  2.483194E+04  2.933254E+04 -1.473755E+04  4.898792E+04 -6.047263E-11  8.709328E-12
        95  13  8.401883E+04  7.083903E+04 -2.359652E+02  7.874764E+04 -3.757530E-11 -4.711440E-11
        95  14  8.534783E+04  6.948951E+04 -6.143496E+02  7.841364E+04 -2.111686E-11  2.874883E-11
        95  15  8.390034E+04  7.062929E+04 -1.242309E+03  7.890411E+04  8.935674E-13  1.181019E-10
        95  16  1.227617E+05  9.814287E+04  8.176973E+03  9.855371E+04  8.101577E-11  7.099225E-11
        95  17  1.342086E+05  1.037439E+05  1.015044E+04  1.032766E+05  1.526769E-10  2.444848E-11
        95  18  1.429741E+05  1.119291E+05  1.225316E+04  1.088242E+05  1.478069E-12  1.751079E-10
        95  19  4.527774E+04  4.353617E+04 -8.648928E+03  5.894302E+04  3.617539E+03 -2.280798E+03
        95  20  3.649043E+04  3.523702E+04 -1.137903E+04  5.355318E+04  3.465797E+03 -3.500044E+03
        95  21  2.483196E+04  2.933256E+04 -1.473749E+04  4.898791E+04  3.143595E+03 -4.492025E+03
        95  22  8.401884E+04  7.083905E+04 -2.359348E+02  7.874763E+04  2.040863E+03 -3.463331E+03
        95  23  8.534784E+04  6.948954E+04 -6.143037E+02  7.841363E+04  2.325472E+03 -4.355254E+03
        95  24  8.390036E+04  7.062932E+04 -1.242250E+03  7.890410E+04  2.439616E+03 -5.019939E+03
        95  25  1.227617E+05  9.814289E+04  8.177014E+03  9.855371E+04  4.640546E+02 -4.645964E+03
        95  26  1.342086E+05  1.037439E+05  1.015049E+04  1.032766E+05  1.185016E+03 -5.210564E+03
        95  27  1.429741E+05  1.119291E+05  1.225322E+04  1.088242E+05  1.735533E+03 -5.547930E+03
        96   1  1.851186E+04  2.430483E+04 -1.693034E+04  4.553158E+04 -3.311733E+03  4.852023E+03
        96   2  7.822364E+03  1.721948E+04 -2.276825E+04  4.180278E+04  2.607729E+03  8.265144E+03
        96   3 -7.937998E+03  9.430007E+03 -3.400035E+04  3.978114E+04  1.014481E+04  9.520622E+03
        96   4  8.380616E+04  7.050296E+04 -1.676425E+03  7.881303E+04 -2.501802E+03  5.459378E+03
        96   5  8.490475E+04  6.864998E+04 -3.125136E+03  7.927608E+04 -7.244680E+02  5.765979E+03
        96   6  8.183126E+04  6.699184E+04 -6.372761E+03  8.144605E+04  2.670560E+03  3.915255E+03
        96   7  1.491043E+05  1.167029E+05  1.357684E+04  1.120980E+05 -1.691772E+03  6.066809E+03
        96   8  1.619925E+05  1.200826E+05  1.651711E+04  1.167540E+05 -4.057166E+03  3.266470E+03
        96   9  1.716077E+05  1.245561E+05  2.125370E+04  1.231168E+05 -4.805045E+03 -1.690984E+03
        96  10  1.851184E+04  2.430480E+04 -1.693041E+04  4.553159E+04  1.018199E-11  9.610047E-11
        96  11  7.822338E+03  1.721941E+04 -2.276839E+04  4.180276E+04  1.433659E-10 -1.407079E-11
        96  12 -7.938133E+03  9.429882E+03 -3.400071E+04  3.978106E+04 -2.185214E-11 -1.484547E-11
        96  13  8.380615E+04  7.050293E+04 -1.676493E+03  7.881304E+04 -4.953886E-11  9.831281E-11
        96  14  8.490474E+04  6.864994E+04 -3.125200E+03  7.927608E+04  2.073568E-10  2.778663E-11
        96  15  8.183124E+04  6.699182E+04 -6.372804E+03  8.144604E+04  3.477803E-11 -4.651871E-11
        96  16  1.491043E+05  1.167029E+05  1.357677E+04  1.120980E+05 -2.210708E-10  1.125721E-10
        96  17  1.619925E+05  1.200826E+05  1.651706E+04  1.167540E+05 -6.115716E-11  7.940995E-11
        96  18  1.716077E+05  1.245561E+05  2.125365E+04  1.231168E+05 -1.162173E-10  8.500387E-12
        96  19  1.851186E+04  2.430483E+04 -1.693034E+04  4.553158E+04  3.311733E+03 -4.852023E+03
        96  20  7.822364E+03  1.721948E+04 -2.276825E+04  4.180278E+04 -2.607729E+03 -8.265144E+03
        96  21 -7.937998E+03  9.430007E+03 -3.400035E+04  3.978114E+04 -1.014481E+04 -9.520622E+03
        96  22  8.380616E+04  7.050296E+04 -1.676425E+03  7.881303E+04  2.501802E+03 -5.459378E+03
        96  23  8.490475E+04  6.864998E+04 -3.125136E+03  7.927608E+04  7.244680E+02 -5.765979E+03
        96  24  8.183126E+04  6.699184E+04 -6.372761E+03  8.144605E+04 -2.670560E+03 -3.915255E+03
        96  25  1.491043E+05  1.167029E+05  1.357684E+04  1.120980E+05  1.691772E+03 -6.066809E+03
        96  26  1.619925E+05  1.200826E+05  1.651711E+04  1.167540E+05  4.057166E+03 -3.266470E+03
        96  27  1.716077E+05  1.245561E+05  2.125370E+04  1.231168E+05  4.805045E+03  1.690984E+03
        97   1 -4.576128E+03  1.093615E+05 -1.714393E+03  9.023975E+02 -1.198702E+03  6.669904E+03
        97   2 -1.434037E+04  1.195791E+05 -5.473018E+03  6.049688E+03 -3.942630E+03  5.648243E+03
        97   3 -1.530976E+04  1.321294E+05 -6.367635E+03  1.331149E+04 -4.555909E+03  4.626533E+03
        97   4  1.841791E+04  2.025512E+05  2.008077E+04  1.285210E+04 -1.198378E+03  1.398605E+04
        97   5  5.033760E+03  2.010314E+05  9.957961E+03  1.179526E+04 -3.942414E+03  8.872474E+03
        97   6  1.153873E+03  2.025536E+05  5.539833E+03  1.285277E+04 -4.555910E+03  3.758844E+03
        97   7  4.141191E+04  2.957494E+05  4.187561E+04  2.480362E+04 -1.197773E+03  2.130328E+04
        97   8  2.440763E+04  2.824901E+05  2.538870E+04  1.754161E+04 -3.942139E+03  1.209712E+04
        97   9  1.761725E+04  2.729826E+05  1.744714E+04  1.239399E+04 -4.555909E+03  2.891061E+03
        97  10 -4.576142E+03  1.093614E+05 -1.714479E+03  9.024039E+02  1.527558E-11 -8.835169E-11
        97  11 -1.434040E+04  1.195791E+05 -5.473107E+03  6.049706E+03 -8.978009E-11 -8.490840E-11
        97  12 -1.530979E+04  1.321294E+05 -6.367714E+03  1.331151E+04 -3.454593E-11 -7.242745E-11
        97  13  1.841786E+04  2.025510E+05  2.008039E+04  1.285212E+04 -7.046196E-11  5.723163E-12
        97  14  5.033722E+03  2.010313E+05  9.957784E+03  1.179529E+04  1.180505E-10  4.152656E-11
        97  15  1.153847E+03  2.025535E+05  5.539767E+03  1.285279E+04 -1.255200E-10  3.626528E-11
        97  16  4.141178E+04  2.957489E+05  4.187475E+04  2.480364E+04 -4.547509E-11  7.893913E-11
        97  17  2.440758E+04  2.824899E+05  2.538840E+04  1.754165E+04 -8.353519E-11  1.208477E-10
        97  18  1.761723E+04  2.729826E+05  1.744709E+04  1.239401E+04 -7.968203E-11  8.203200E-11
        97  19 -4.576128E+03  1.093615E+05 -1.714393E+03  9.023975E+02  1.198702E+03 -6.669904E+03
        97  20 -1.434037E+04  1.195791E+05 -5.473018E+03  6.049688E+03  3.942630E+03 -5.648243E+03
        97  21 -1.530976E+04  1.321294E+05 -6.367635E+03  1.331149E+04  4.555909E+03 -4.626533E+03
        97  22  1.841791E+04  2.025512E+05  2.008077E+04  1.285210E+04  1.198378E+03 -1.398605E+04
        97  23  5.033760E+03  2.010314E+05  9.957961E+03  1.179526E+04  3.942414E+03 -8.872474E+03
        97  24  1.153873E+03  2.025536E+05  5.539833E+03  1.285277E+04  4.555910E+03 -3.758844E+03
        97  25  4.141191E+04  2.957494E+05  4.187561E+04  2.480362E+04  1.197773E+03 -2.130328E+04
        97  26  2.440763E+04  2.824901E+05  2.538870E+04  1.754161E+04  3.942139E+03 -1.209712E+04
        97  27  1.761725E+04  2.729826E+05  1.744714E+04  1.239399E+04  4.555909E+03 -2.891061E+03
        98   1 -1.364231E+04  1.388789E+05 -6.210351E+03  1.235987E+04 -4.228854E+03  3.793077E+03
        98   2 -1.171531E+04  1.501062E+05 -5.690993E+03  1.160003E+04 -3.711199E+03  2.963931E+03
        98   3 -9.129782E+03  1.616063E+05 -4.467270E+03  1.310098E+04 -2.952460E+03  2.134738E+03
        98   4  1.066746E+03  2.019561E+05  4.269532E+03  1.288528E+04 -4.228855E+03  3.030619E+03
        98   5  2.727017E+02  2.017799E+05  2.585573E+03  1.175493E+04 -3.711249E+03  1.738389E+03
        98   6  2.175218E+02  2.019566E+05  1.927426E+03  1.288534E+04 -2.952567E+03  4.461274E+02
        98   7  1.577560E+04  2.650371E+05  1.474930E+04  1.341074E+04 -4.228858E+03  2.268087E+03
        98   8  1.226058E+04  2.534562E+05  1.086207E+04  1.190984E+04 -3.711299E+03  5.127490E+02
        98   9  9.564746E+03  2.423086E+05  8.322092E+03  1.266969E+04 -2.952674E+03 -1.242589E+03
        98  10 -1.364234E+04  1.388789E+05 -6.210412E+03  1.235988E+04  4.280026E-11 -6.773267E-11
        98  11 -1.171533E+04  1.501062E+05 -5.691035E+03  1.160004E+04  2.111742E-11  1.090399E-11
        98  12 -9.129792E+03  1.616063E+05 -4.467295E+03  1.310098E+04 -2.352509E-12  5.204675E-11
        98  13  1.066724E+03  2.019560E+05  4.269481E+03  1.288529E+04  1.704460E-10  4.125161E-11
        98  14  2.726861E+02  2.017799E+05  2.585541E+03  1.175493E+04 -1.183218E-10  8.628160E-11
        98  15  2.175124E+02  2.019566E+05  1.927410E+03  1.288534E+04 -8.002735E-11  3.130266E-11
        98  16  1.577558E+04  2.650371E+05  1.474925E+04  1.341075E+04 -1.813299E-10  4.623006E-11
        98  17  1.226056E+04  2.534562E+05  1.086205E+04  1.190984E+04 -1.149862E-10  6.847504E-11
        98  18  9.564736E+03  2.423086E+05  8.322073E+03  1.266969E+04 -7.995127E-11 -3.564607E-11
        98  19 -1.364231E+04  1.388789E+05 -6.210351E+03  1.235987E+04  4.228854E+03 -3.793077E+03
        98  20 -1.171531E+04  1.501062E+05 -5.690993E+03  1.160003E+04  3.711199E+03 -2.963931E+03
        98  21 -9.129782E+03  1.616063E+05 -4.467270E+03  1.310098E+04  2.952460E+03 -2.134738E+03
        98  22  1.066746E+03  2.019561E+05  4.269532E+03  1.288528E+04  4.228855E+03 -3.030619E+03
        98  23  2.727017E+02  2.017799E+05  2.585573E+03  1.175493E+04  3.711249E+03 -1.738389E+03
        98  24  2.175218E+02  2.019566E+05  1.927426E+03  1.288534E+04  2.952567E+03 -4.461274E+02
        98  25  1.577560E+04  2.650371E+05  1.474930E+04  1.341074E+04  4.228858E+03 -2.268087E+03
        98  26  1.226058E+04  2.534562E+05  1.086207E+04  1.190984E+04  3.711299E+03 -5.127490E+02
        98  27  9.564746E+03  2.423086E+05  8.322092E+03  1.266969E+04  2.952674E+03  1.242589E+03
        99   1 -7.431187E+03  1.688842E+05 -3.388712E+03  1.285445E+04 -2.440533E+03  1.812895E+03
        99   2 -4.165866E+03  1.799824E+05 -1.405632E+03  1.282056E+04 -1.485474E+03  1.033303E+03
        99   3  7.742682E+02  1.916004E+05  1.503457E+03  1.507238E+04 -3.596717E+02  2.536906E+02
        99   4  2.374838E+02  2.020065E+05  1.839264E+03  1.289090E+04 -2.440650E+03  1.426336E+02
        99   5  8.952763E+02  2.017180E+05  2.170120E+03  1.174795E+04 -1.485631E+03 -9.648970E+02
        99   6  3.284820E+03  2.020064E+05  3.654697E+03  1.289070E+04 -3.598686E+02 -2.072432E+03
        99   7  7.906101E+03  2.351299E+05  7.067223E+03  1.292735E+04 -2.440767E+03 -1.527713E+03
        99   8  5.956401E+03  2.234542E+05  5.745874E+03  1.067530E+04 -1.485781E+03 -2.963165E+03
        99   9  5.795386E+03  2.124125E+05  5.805954E+03  1.070898E+04 -3.600491E+02 -4.398593E+03
        99  10 -7.431194E+03  1.688842E+05 -3.388730E+03  1.285446E+04 -5.601581E-11 -3.105265E-11
        99  11 -4.165869E+03  1.799824E+05 -1.405638E+03  1.282056E+04 -9.827878E-11  4.857152E-11
        99  12  7.742681E+02  1.916004E+05  1.503456E+03  1.507238E+04  1.104980E-11  7.119811E-11
        99  13  2.374774E+02  2.020065E+05  1.839252E+03  1.289090E+04 -7.215894E-11  6.641246E-11
        99  14  8.952737E+02  2.017180E+05  2.170114E+03  1.174795E+04  8.567976E-12  1.389218E-10
        99  15  3.284819E+03  2.020064E+05  3.654689E+03  1.289070E+04  9.810553E-12  3.090869E-11
        99  16  7.906094E+03  2.351299E+05  7.067207E+03  1.292734E+04 -1.566378E-11  8.800816E-12
        99  17  5.956396E+03  2.234542E+05  5.745853E+03  1.067529E+04 -1.023886E-10  8.196689E-11
        99  18  5.795380E+03  2.124125E+05  5.805918E+03  1.070898E+04 -5.917992E-12 -4.806401E-11
        99  19 -7.431187E+03  1.688842E+05 -3.388712E+03  1.285445E+04  2.440533E+03 -1.812895E+03
        99  20 -4.165866E+03  1.799824E+05 -1.405632E+03  1.282056E+04  1.485474E+03 -1.033303E+03
        99  21  7.742682E+02  1.916004E+05  1.503457E+03  1.507238E+04  3.596717E+02 -2.536906E+02
        99  22  2.374838E+02  2.020065E+05  1.839264E+03  1.289090E+04  2.440650E+03 -1.426336E+02
        99  23  8.952763E+02  2.017180E+05  2.170120E+03  1.174795E+04  1.485631E+03  9.648970E+02
        99  24  3.284820E+03  2.020064E+05  3.654697E+03  1.289070E+04  3.598686E+02  2.072432E+03
        99  25  7.906101E+03  2.351299E+05  7.067223E+03  1.292735E+04  2.440767E+03  1.527713E+03
        99  26  5.956401E+03  2.234542E+05  5.745874E+03  1.067530E+04  1.485781E+03  2.963165E+03
        99  27  5.795386E+03  2.124125E+05  5.805954E+03  1.070898E+04  3.600491E+02  4.398593E+03
       100   1  7.513633E+05  1.393911E+05  1.273811E+05  9.651152E+04  2.620499E+04 -8.820929E+03
       100   2  6.450385E+05  1.335343E+05  9.525375E+04  9.875495E+04  4.863814E+03 -2.850144E+04
       100   3  5.382499E+05  1.144554E+05  7.370754E+04  1.210471E+05 -1.646348E+04 -3.178587E+04
       100   4  3.905635E+04 -3.642662E+04 -3.960802E+04  1.202862E+05 -2.736683E+04 -8.800538E+03
       100   5  4.204884E+04 -1.003580E+04 -1.981026E+04  1.102657E+05 -1.720076E+04 -2.849732E+04
       100   6  3.909738E+04 -2.341741E+03 -1.130239E+04  1.202962E+05 -7.023906E+03 -3.178988E+04
       100   7 -6.727763E+05 -2.122767E+05 -2.066207E+05  1.440334E+05 -8.087761E+04 -8.784240E+03
       100   8 -5.605894E+05 -1.536265E+05 -1.348888E+05  1.217651E+05 -3.924443E+04 -2.849403E+04
       100   9 -4.598100E+05 -1.191521E+05 -9.632018E+04  1.195460E+05  2.408325E+03 -3.179391E+04
       100  10  7.513625E+05  1.393908E+05  1.273797E+05  9.651170E+04  4.067947E-10 -2.162821E-11
       100  11  6.450383E+05  1.335334E+05  9.525218E+04  9.875506E+04 -2.440589E-10 -8.579823E-11
       100  12  5.382493E+05  1.144543E+05  7.370513E+04  1.210467E+05 -1.754850E-10 -5.483475E-11
       100  13  3.905553E+04 -3.642691E+04 -3.960957E+04  1.202860E+05 -8.571075E-11 -2.772823E-11
       100  14  4.204831E+04 -1.003675E+04 -1.981234E+04  1.102653E+05 -4.036436E-10 -8.771094E-11
       100  15  3.909705E+04 -2.342840E+03 -1.130438E+04  1.202961E+05 -1.144123E-10 -6.683368E-11
       100  16 -6.727833E+05 -2.122786E+05 -2.066332E+05  1.440328E+05 -3.057739E-10 -1.210874E-11
       100  17 -5.605913E+05 -1.536278E+05 -1.348932E+05  1.217642E+05 -1.022493E-10 -9.714884E-11
       100  18 -4.598102E+05 -1.191532E+05 -9.632209E+04  1.195460E+05  2.503518E-10 -8.779691E-11
       100  19  7.513633E+05  1.393911E+05  1.273811E+05  9.651152E+04 -2.620499E+04  8.820929E+03
       100  20  6.450385E+05  1.335343E+05  9.525375E+04  9.875495E+04 -4.863814E+03  2.850144E+04
       100  21  5.382499E+05  1.144554E+05  7.370754E+04  1.210471E+05  1.646348E+04  3.178587E+04
       100  22  3.905635E+04 -3.642662E+04 -3.960802E+04  1.202862E+05  2.736683E+04  8.800538E+03
       100  23  4.204884E+04 -1.003580E+04 -1.981026E+04  1.102657E+05  1.720076E+04  2.849732E+04
       100  24  3.909738E+04 -2.341741E+03 -1.130239E+04  1.202962E+05  7.023906E+03  3.178988E+04
       100  25 -6.727763E+05 -2.122767E+05 -2.066207E+05  1.440334E+05  8.087761E+04  8.784240E+03
       100  26 -5.605894E+05 -1.536265E+05 -1.348888E+05  1.217651E+05  3.924443E+04  2.849403E+04
       100  27 -4.598100E+05 -1.191521E+05 -9.632018E+04  1.195460E+05 -2.408325E+03  3.179391E+04
       101   1  4.707938E+05  9.834568E+04  6.312019E+04  1.193833E+05 -1.413996E+04 -2.842493E+04
       101   2  3.644435E+05  7.467772E+04  4.599866E+04  1.094211E+05 -1.428149E+04 -2.310854E+04
       101   3  2.579455E+05  5.019270E+04  2.877175E+04  1.206387E+05 -1.442380E+04 -1.614701E+04
       101   4  4.027291E+04 -2.145292E+03 -8.944506E+03  1.205455E+05 -5.504239E+03 -2.842795E+04
       101   5  4.063812E+04 -4.766334E+02 -6.046438E+03  1.099553E+05 -2.487848E+03 -2.311080E+04
       101   6  4.029586E+04 -1.731046E+02 -5.447158E+03  1.205457E+05  5.277402E+02 -1.614806E+04
       101   7 -3.900651E+05 -1.026459E+05 -8.101467E+04  1.217069E+05  3.125695E+03 -2.843094E+04
       101   8 -2.830629E+05 -7.563619E+04 -5.809382E+04  1.104893E+05  9.299866E+03 -2.311304E+04
       101   9 -1.773061E+05 -5.054113E+04 -3.966639E+04  1.204528E+05  1.547424E+04 -1.614911E+04
       101  10  4.707934E+05  9.834476E+04  6.311829E+04  1.193830E+05  8.838284E-11 -1.519627E-11
       101  11  3.644432E+05  7.467709E+04  4.599728E+04  1.094209E+05  9.201787E-11  2.753274E-11
       101  12  2.579452E+05  5.019237E+04  2.877087E+04  1.206385E+05 -9.411548E-11  1.021274E-11
       101  13  4.027266E+04 -2.146168E+03 -8.946082E+03  1.205454E+05 -4.229186E-11 -5.123979E-11
       101  14  4.063797E+04 -4.772086E+02 -6.047453E+03  1.099553E+05 -3.434999E-12 -3.944997E-11
       101  15  4.029579E+04 -1.733847E+02 -5.447648E+03  1.205457E+05  1.562895E-10 -4.175121E-11
       101  16 -3.900653E+05 -1.026468E+05 -8.101621E+04  1.217070E+05  7.462185E-12 -1.201562E-10
       101  17 -2.830631E+05 -7.563679E+04 -5.809499E+04  1.104894E+05 -1.799776E-10 -1.374283E-10
       101  18 -1.773065E+05 -5.054148E+04 -3.966733E+04  1.204530E+05  6.545099E-11 -1.225501E-10
       101  19  4.707938E+05  9.834568E+04  6.312019E+04  1.193833E+05  1.413996E+04  2.842493E+04
       101  20  3.644435E+05  7.467772E+04  4.599866E+04  1.094211E+05  1.428149E+04  2.310854E+04
       101  21  2.579455E+05  5.019270E+04  2.877175E+04  1.206387E+05  1.442380E+04  1.614701E+04
       101  22  4.027291E+04 -2.145292E+03 -8.944506E+03  1.205455E+05  5.504239E+03  2.842795E+04
       101  23  4.063812E+04 -4.766334E+02 -6.046438E+03  1.099553E+05  2.487848E+03  2.311080E+04
       101  24  4.029586E+04 -1.731046E+02 -5.447158E+03  1.205457E+05 -5.277402E+02  1.614806E+04
       101  25 -3.900651E+05 -1.026459E+05 -8.101467E+04  1.217069E+05 -3.125695E+03  2.843094E+04
       101  26 -2.830629E+05 -7.563619E+04 -5.809382E+04  1.104893E+05 -9.299866E+03  2.311304E+04
       101  27 -1.773061E+05 -5.054113E+04 -3.966639E+04  1.204528E+05 -1.547424E+04  1.614911E+04
       102   1  1.900708E+05  3.441176E+04  1.724798E+04  1.202450E+05 -1.340944E+04 -1.152367E+04
       102   2  8.429371E+04  9.142201E+03 -2.245408E+03  1.106006E+05 -8.078310E+03 -4.108747E+03
       102   3 -2.271959E+04 -1.840272E+04 -2.577440E+04  1.221948E+05 -2.748572E+03  2.609749E+03
       102   4  4.023193E+04 -1.618768E+02 -5.802218E+03  1.205587E+05  1.498951E+03 -1.152419E+04
       102   5  4.074181E+04 -7.176612E+02 -7.996532E+03  1.099391E+05  5.491194E+03 -4.109017E+03
       102   6  4.023522E+04 -3.316388E+03 -1.329760E+04  1.205584E+05  9.482914E+03  2.609702E+03
       102   7 -1.095840E+05 -3.473648E+04 -2.885208E+04  1.208723E+05  1.640389E+04 -1.152470E+04
       102   8 -2.807755E+03 -1.057750E+04 -1.374698E+04  1.092778E+05  1.905979E+04 -4.109316E+03
       102   9  1.031941E+05  1.176979E+04 -8.204308E+02  1.189219E+05  2.171561E+04  2.609590E+03
       102  10  1.900706E+05  3.441157E+04  1.724739E+04  1.202448E+05  1.210266E-10  5.540070E-11
       102  11  8.429364E+04  9.142165E+03 -2.245562E+03  1.106005E+05  9.190190E-11  1.472322E-11
       102  12 -2.271960E+04 -1.840273E+04 -2.577443E+04  1.221948E+05  1.179634E-10 -2.057982E-10
       102  13  4.023189E+04 -1.620201E+02 -5.802472E+03  1.205587E+05 -3.223545E-11  9.410678E-12
       102  14  4.074178E+04 -7.176874E+02 -7.996620E+03  1.099392E+05 -1.042596E-12  5.255252E-11
       102  15  4.023512E+04 -3.316419E+03 -1.329778E+04  1.205584E+05  6.126635E-11 -9.774097E-11
       102  16 -1.095843E+05 -3.473669E+04 -2.885283E+04  1.208725E+05  2.874789E-10 -2.098237E-11
       102  17 -2.808150E+03 -1.057762E+04 -1.374769E+04  1.092778E+05 -8.508938E-12  3.875782E-11
       102  18  1.031936E+05  1.176966E+04 -8.213296E+02  1.189219E+05 -1.352244E-10 -5.135583E-12
       102  19  1.900708E+05  3.441176E+04  1.724798E+04  1.202450E+05  1.340944E+04  1.152367E+04
       102  20  8.429371E+04  9.142201E+03 -2.245408E+03  1.106006E+05  8.078310E+03  4.108747E+03
       102  21 -2.271959E+04 -1.840272E+04 -2.577440E+04  1.221948E+05  2.748572E+03 -2.609749E+03
       102  22  4.023193E+04 -1.618768E+02 -5.802218E+03  1.205587E+05 -1.498951E+03  1.152419E+04
       102  23  4.074181E+04 -7.176612E+02 -7.996532E+03  1.099391E+05 -5.491194E+03  4.109017E+03
       102  24  4.023522E+04 -3.316388E+03 -1.329760E+04  1.205584E+05 -9.482914E+03 -2.609702E+03
       102  25 -1.095840E+05 -3.473648E+04 -2.885208E+04  1.208723E+05 -1.640389E+04  1.152470E+04
       102  26 -2.807755E+03 -1.057750E+04 -1.374698E+04  1.092778E+05 -1.905979E+04  4.109316E+03
       102  27  1.031941E+05  1.176979E+04 -8.204308E+02  1.189219E+05 -2.171561E+04 -2.609590E+03
       103   1 -9.273449E+04 -3.469399E+04 -4.167364E+04  1.190247E+05 -8.758919E+02  6.699628E+03
       103   2 -1.930481E+05 -7.251370E+04 -7.872213E+04  1.280623E+05  3.101721E+04  9.129318E+03
       103   3 -3.055997E+05 -1.427754E+05 -1.446447E+05  1.577683E+05  6.290231E+04  3.263181E+03
       103   4  3.835279E+04 -3.596048E+03 -1.727479E+04  1.204335E+05  1.175526E+04  6.699355E+03
       103   5  4.308330E+04 -1.575387E+04 -3.109388E+04  1.100948E+05  2.772553E+04  9.128335E+03
       103   6  3.833734E+04 -5.758170E+04 -6.272327E+04  1.204272E+05  4.369337E+04  3.260951E+03
       103   7  1.694571E+05  2.750100E+04  7.123942E+03  1.218427E+05  2.438900E+04  6.699139E+03
       103   8  2.792686E+05  4.100373E+04  1.653171E+04  9.212028E+04  2.443262E+04  9.127543E+03
       103   9  3.823868E+05  2.760887E+04  1.919199E+04  8.306520E+04  2.447384E+04  3.261034E+03
       103  10 -9.273450E+04 -3.469404E+04 -4.167373E+04  1.190247E+05 -9.306904E-11 -2.250244E-10
       103  11 -1.930492E+05 -7.251404E+04 -7.872409E+04  1.280621E+05  2.460228E-10 -2.594720E-11
       103  12 -3.056040E+05 -1.427764E+05 -1.446521E+05  1.577681E+05  9.173702E-11  1.055210E-11
       103  13  3.835263E+04 -3.596133E+03 -1.727513E+04  1.204335E+05  2.410058E-10 -1.261463E-10
       103  14  4.308245E+04 -1.575416E+04 -3.109548E+04  1.100946E+05 -1.359343E-10  1.698690E-11
       103  15  3.833529E+04 -5.758222E+04 -6.272688E+04  1.204270E+05 -9.075059E-11  3.161798E-11
       103  16  1.694564E+05  2.750079E+04  7.122741E+03  1.218425E+05 -1.131482E-11 -2.683104E-11
       103  17  2.792679E+05  4.100348E+04  1.653043E+04  9.212010E+04 -5.979740E-10 -3.280305E-11
       103  18  3.823861E+05  2.760870E+04  1.919085E+04  8.306514E+04 -3.788740E-10 -2.726026E-11
       103  19 -9.273449E+04 -3.469399E+04 -4.167364E+04  1.190247E+05  8.758919E+02 -6.699628E+03
       103  20 -1.930481E+05 -7.251370E+04 -7.872213E+04  1.280623E+05 -3.101721E+04 -9.129318E+03
       103  21 -3.055997E+05 -1.427754E+05 -1.446447E+05  1.577683E+05 -6.290231E+04 -3.263181E+03
       103  22  3.835279E+04 -3.596048E+03 -1.727479E+04  1.204335E+05 -1.175526E+04 -6.699355E+03
       103  23  4.308330E+04 -1.575387E+04 -3.109388E+04  1.100948E+05 -2.772553E+04 -9.128335E+03
       103  24  3.833734E+04 -5.758170E+04 -6.272327E+04  1.204272E+05 -4.369337E+04 -3.260951E+03
       103  25  1.694571E+05  2.750100E+04  7.123942E+03  1.218427E+05 -2.438900E+04 -6.699139E+03
       103  26  2.792686E+05  4.100373E+04  1.653171E+04  9.212028E+04 -2.443262E+04 -9.127543E+03
       103  27  3.823868E+05  2.760887E+04  1.919199E+04  8.306520E+04 -2.447384E+04 -3.261034E+03
       104   1 -4.658022E+04 -1.232494E+04 -5.150603E+04  8.477331E+04  7.700813E+02 -2.916554E+04
       104   2 -2.322993E+03  4.049052E+04 -1.796743E+04  6.470614E+04  3.750184E+03 -1.603466E+04
       104   3  1.857833E+04  8.574551E+04  1.179023E+03  5.442587E+04  7.115522E+03 -2.902764E+03
       104   4 -4.501100E+04 -6.637509E+03 -4.910282E+04  5.556698E+04  7.677634E+02 -3.449708E+04
       104   5 -1.225890E+04 -2.920919E+03 -2.412216E+04  5.065933E+04  3.746436E+03 -2.210704E+04
       104   6 -2.735382E+03 -6.638804E+03 -1.301880E+04  5.554026E+04  7.110998E+03 -9.716903E+03
       104   7 -4.343856E+04 -9.481587E+02 -4.669905E+04  2.636040E+04  7.659472E+02 -3.982867E+04
       104   8 -2.219414E+04 -4.632995E+04 -3.027668E+04  3.661355E+04  3.742963E+03 -2.817900E+04
       104   9 -2.404948E+04 -9.901448E+04 -2.721663E+04  5.665447E+04  7.106449E+03 -1.653007E+04
       104  10 -4.658045E+04 -1.232585E+04 -5.150763E+04  8.477333E+04  1.515220E-10 -5.856355E-10
       104  11 -2.323077E+03  4.049024E+04 -1.796794E+04  6.470619E+04 -1.311143E-10 -9.138044E-11
       104  12  1.857828E+04  8.574549E+04  1.178912E+03  5.442588E+04 -1.281428E-10  5.694139E-10
       104  13 -4.501132E+04 -6.638787E+03 -4.910506E+04  5.556700E+04  2.623593E-10 -1.238012E-11
       104  14 -1.225905E+04 -2.921448E+03 -2.412311E+04  5.065940E+04 -4.477744E-10 -5.466302E-14
       104  15 -2.735461E+03 -6.638919E+03 -1.301907E+04  5.554031E+04 -4.062367E-10 -4.375710E-12
       104  16 -4.343899E+04 -9.498623E+02 -4.670203E+04  2.636043E+04 -1.899933E-10  5.890907E-10
       104  17 -2.219437E+04 -4.633080E+04 -3.027820E+04  3.661364E+04 -5.440356E-10  1.224134E-10
       104  18 -2.404961E+04 -9.901479E+04 -2.721724E+04  5.665456E+04 -3.409159E-10 -5.671781E-10
       104  19 -4.658022E+04 -1.232494E+04 -5.150603E+04  8.477331E+04 -7.700813E+02  2.916554E+04
       104  20 -2.322993E+03  4.049052E+04 -1.796743E+04  6.470614E+04 -3.750184E+03  1.603466E+04
       104  21  1.857833E+04  8.574551E+04  1.179023E+03  5.442587E+04 -7.115522E+03  2.902764E+03
       104  22 -4.501100E+04 -6.637509E+03 -4.910282E+04  5.556698E+04 -7.677634E+02  3.449708E+04
       104  23 -1.225890E+04 -2.920919E+03 -2.412216E+04  5.065933E+04 -3.746436E+03  2.210704E+04
       104  24 -2.735382E+03 -6.638804E+03 -1.301880E+04  5.554026E+04 -7.110998E+03  9.716903E+03
       104  25 -4.343856E+04 -9.481587E+02 -4.669905E+04  2.636040E+04 -7.659472E+02  3.982867E+04
       104  26 -2.219414E+04 -4.632995E+04 -3.027668E+04  3.661355E+04 -3.742963E+03  2.817900E+04
       104  27 -2.404948E+04 -9.901448E+04 -2.721663E+04  5.665447E+04 -7.106449E+03  1.653007E+04
       105   1  2.607077E+04  1.184856E+05  9.649189E+03  5.679666E+04  9.235421E+03 -1.213747E+03
       105   2  3.955834E+04  1.677182E+05  2.265240E+04  5.122443E+04  1.239221E+04 -2.712646E+02
       105   3  5.190279E+04  2.165339E+05  3.475281E+04  5.540564E+04  1.474378E+04  6.720443E+02
       105   4 -2.526652E+03 -5.140822E+03 -9.710429E+03  5.553538E+04  9.231035E+03 -8.046547E+03
       105   5 -4.696191E+02 -4.799906E+03 -4.982626E+03  5.065775E+04  1.238917E+04 -5.558282E+03
       105   6  1.759473E+02 -5.146483E+03 -2.231000E+03  5.553377E+04  1.474198E+04 -3.069252E+03
       105   7 -3.112479E+04 -1.287519E+05 -2.907024E+04  5.427437E+04  9.226676E+03 -1.487804E+04
       105   8 -4.049905E+04 -1.772884E+05 -3.261833E+04  5.009122E+04  1.238614E+04 -1.084388E+04
       105   9 -5.155345E+04 -2.267783E+05 -3.921627E+04  5.566185E+04  1.474017E+04 -6.809257E+03
       105  10  2.607067E+04  1.184856E+05  9.649026E+03  5.679667E+04 -1.683019E-10  1.210179E-10
       105  11  3.955817E+04  1.677182E+05  2.265211E+04  5.122444E+04 -4.734900E-10  4.606448E-11
       105  12  5.190256E+04  2.165339E+05  3.475240E+04  5.540563E+04 -4.318619E-10 -9.658399E-11
       105  13 -2.526761E+03 -5.140914E+03 -9.710711E+03  5.553544E+04 -2.600208E-10  1.506900E-11
       105  14 -4.697922E+02 -4.799981E+03 -4.982972E+03  5.065780E+04 -5.857043E-10 -4.981082E-11
       105  15  1.757114E+02 -5.146552E+03 -2.231426E+03  5.553381E+04 -2.772924E-10 -2.699057E-11
       105  16 -3.112494E+04 -1.287522E+05 -2.907082E+04  5.427448E+04  7.465699E-11 -1.518100E-10
       105  17 -4.049925E+04 -1.772886E+05 -3.261884E+04  5.009133E+04 -1.910989E-10 -1.079084E-10
       105  18 -5.155369E+04 -2.267785E+05 -3.921676E+04  5.566193E+04  5.088422E-11  1.199208E-10
       105  19  2.607077E+04  1.184856E+05  9.649189E+03  5.679666E+04 -9.235421E+03  1.213747E+03
       105  20  3.955834E+04  1.677182E+05  2.265240E+04  5.122443E+04 -1.239221E+04  2.712646E+02
       105  21  5.190279E+04  2.165339E+05  3.475281E+04  5.540564E+04 -1.474378E+04 -6.720443E+02
       105  22 -2.526652E+03 -5.140822E+03 -9.710429E+03  5.553538E+04 -9.231035E+03  8.046547E+03
       105  23 -4.696191E+02 -4.799906E+03 -4.982626E+03  5.065775E+04 -1.238917E+04  5.558282E+03
       105  24  1.759473E+02 -5.146483E+03 -2.231000E+03  5.553377E+04 -1.474198E+04  3.069252E+03
       105  25 -3.112479E+04 -1.287519E+05 -2.907024E+04  5.427437E+04 -9.226676E+03  1.487804E+04
       105  26 -4.049905E+04 -1.772884E+05 -3.261833E+04  5.009122E+04 -1.238614E+04  1.084388E+04
       105  27 -5.155345E+04 -2.267783E+05 -3.921627E+04  5.566185E+04 -1.474017E+04  6.809257E+03
       106   1  5.943527E+04  2.484224E+05  4.181390E+04  5.531565E+04  1.624541E+04  1.380740E+03
       106   2  7.259918E+04  2.959337E+05  5.804593E+04  5.181831E+04  1.435531E+04 -1.451681E+04
       106   3  9.005541E+04  3.465860E+05  8.569824E+04  5.752163E+04  4.396580E+03 -3.041262E+04
       106   4  1.763188E+02 -4.896434E+03 -1.200741E+03  5.541123E+04  1.624357E+04 -2.754634E+03
       106   5  9.370374E+02 -5.126367E+03  7.475721E+02  5.081004E+04  1.436203E+04 -3.153420E+03
       106   6  3.301186E+03 -4.905994E+03  3.356270E+03  5.540954E+04  4.410109E+03 -3.549265E+03
       106   7 -5.908602E+04 -2.581521E+05 -4.421741E+04  5.550677E+04  1.624173E+04 -6.888376E+03
       106   8 -7.073036E+04 -3.060988E+05 -5.655438E+04  4.980225E+04  1.436871E+04  8.204591E+03
       106   9 -8.346141E+04 -3.562826E+05 -7.899142E+04  5.329864E+04  4.423460E+03  2.329899E+04
       106  10  5.943499E+04  2.484223E+05  4.181341E+04  5.531563E+04 -3.897140E-11 -5.034527E-11
       106  11  7.259891E+04  2.959334E+05  5.804515E+04  5.181848E+04 -8.900039E-11  7.533369E-11
       106  12  9.005514E+04  3.465850E+05  8.569647E+04  5.752173E+04 -9.951829E-11  1.645632E-10
       106  13  1.760334E+02 -4.896513E+03 -1.201252E+03  5.541127E+04 -2.077507E-10 -5.078064E-11
       106  14  9.368132E+02 -5.126434E+03  7.471658E+02  5.081007E+04  1.134686E-10  7.345128E-12
       106  15  3.301161E+03 -4.906013E+03  3.356210E+03  5.540955E+04  1.824260E-12 -1.890474E-12
       106  16 -5.908632E+04 -2.581522E+05 -4.421800E+04  5.550686E+04 -1.733297E-10  4.893631E-11
       106  17 -7.073060E+04 -3.060989E+05 -5.655489E+04  4.980216E+04  1.799158E-10 -5.445739E-11
       106  18 -8.346158E+04 -3.562832E+05 -7.899248E+04  5.329855E+04 -2.403864E-10 -1.594331E-10
       106  19  5.943527E+04  2.484224E+05  4.181390E+04  5.531565E+04 -1.624541E+04 -1.380740E+03
       106  20  7.259918E+04  2.959337E+05  5.804593E+04  5.181831E+04 -1.435531E+04  1.451681E+04
       106  21  9.005541E+04  3.465860E+05  8.569824E+04  5.752163E+04 -4.396580E+03  3.041262E+04
       106  22  1.763188E+02 -4.896434E+03 -1.200741E+03  5.541123E+04 -1.624357E+04  2.754634E+03
       106  23  9.370374E+02 -5.126367E+03  7.475721E+02  5.081004E+04 -1.436203E+04  3.153420E+03
       106  24  3.301186E+03 -4.905994E+03  3.356270E+03  5.540954E+04 -4.410109E+03  3.549265E+03
       106  25 -5.908602E+04 -2.581521E+05 -4.421741E+04  5.550677E+04 -1.624173E+04  6.888376E+03
       106  26 -7.073036E+04 -3.060988E+05 -5.655438E+04  4.980225E+04 -1.436871E+04 -8.204591E+03
       106  27 -8.346141E+04 -3.562826E+05 -7.899142E+04  5.329864E+04 -4.423460E+03 -2.329899E+04
       107   1  5.027217E+05  4.355058E+05  1.301364E+05  3.424810E+05  5.278828E+04  3.358412E+04
       107   2  4.806936E+05  3.781965E+05  8.388954E+04  3.404424E+05  3.753939E+04  8.127223E+03
       107   3  4.684970E+05  3.459994E+05  6.178395E+04  3.327006E+05  1.748150E+04 -1.090489E+04
       107   4  2.708733E+05  2.246986E+05  4.738489E+04  2.061400E+05  2.933887E+04  1.601251E+04
       107   5  2.599681E+05  2.004245E+05  2.344216E+04  2.187805E+05  2.643738E+04 -1.927954E+02
       107   6  2.562230E+05  1.985904E+05  1.293973E+04  2.257160E+05  1.872461E+04 -9.974392E+03
       107   7  3.908881E+04  1.395093E+04 -3.536967E+04  6.986647E+04  5.901656E+03 -1.546635E+03
       107   8  3.930082E+04  2.269430E+04 -3.700803E+04  9.717289E+04  1.534072E+04 -8.508038E+03
       107   9  4.400169E+04  5.120818E+04 -3.590707E+04  1.187738E+05  1.996716E+04 -9.044317E+03
       107  10  5.027184E+05  4.355038E+05  1.301291E+05  3.424796E+05 -3.741305E-10 -2.424576E-10
       107  11  4.806921E+05  3.781960E+05  8.388677E+04  3.404422E+05 -7.500320E-11  2.565924E-10
       107  12  4.684966E+05  3.459992E+05  6.178316E+04  3.327007E+05  1.867067E-10  4.637939E-10
       107  13  2.708723E+05  2.246981E+05  4.738279E+04  2.061396E+05  1.778637E-11  1.346746E-10
       107  14  2.599673E+05  2.004243E+05  2.344085E+04  2.187805E+05  1.414992E-10  2.100206E-10
       107  15  2.562226E+05  1.985902E+05  1.293889E+04  2.257162E+05 -1.707819E-10  1.799324E-10
       107  16  3.908877E+04  1.395092E+04 -3.536974E+04  6.986648E+04  2.394674E-10  4.362227E-10
       107  17  3.930055E+04  2.269416E+04 -3.700861E+04  9.717299E+04  4.742100E-11  2.702641E-10
       107  18  4.400124E+04  5.120798E+04 -3.590797E+04  1.187739E+05 -3.359571E-10 -1.411991E-10
       107  19  5.027217E+05  4.355058E+05  1.301364E+05  3.424810E+05 -5.278828E+04 -3.358412E+04
       107  20  4.806936E+05  3.781965E+05  8.388954E+04  3.404424E+05 -3.753939E+04 -8.127223E+03
       107  21  4.684970E+05  3.459994E+05  6.178395E+04  3.327006E+05 -1.748150E+04  1.090489E+04
       107  22  2.708733E+05  2.246986E+05  4.738489E+04  2.061400E+05 -2.933887E+04 -1.601251E+04
       107  23  2.599681E+05  2.004245E+05  2.344216E+04  2.187805E+05 -2.643738E+04  1.927954E+02
       107  24  2.562230E+05  1.985904E+05  1.293973E+04  2.257160E+05 -1.872461E+04  9.974392E+03
       107  25  3.908881E+04  1.395093E+04 -3.536967E+04  6.986647E+04 -5.901656E+03  1.546635E+03
       107  26  3.930082E+04  2.269430E+04 -3.700803E+04  9.717289E+04 -1.534072E+04  8.508038E+03
       107  27  4.400169E+04  5.120818E+04 -3.590707E+04  1.187738E+05 -1.996716E+04  9.044317E+03
       108   1  4.502092E+05  3.370944E+05  5.448394E+04  3.252948E+05  1.601183E+04 -1.111236E+04
       108   2  4.298309E+05  3.156599E+05  4.369109E+04  3.134172E+05  1.179238E+04 -1.298938E+04
       108   3  4.047311E+05  3.017508E+05  3.627082E+04  3.029471E+05  7.064189E+03 -1.418771E+04
       108   4  2.551201E+05  1.980620E+05  9.890255E+03  2.251644E+05  1.693978E+04 -1.041793E+04
       108   5  2.571813E+05  1.936548E+05  5.751543E+03  2.250512E+05  1.402547E+04 -1.131662E+04
       108   6  2.542386E+05  1.964901E+05  3.854461E+03  2.263450E+05  1.060224E+04 -1.153657E+04
       108   7  6.007166E+04  5.905099E+04 -3.470695E+04  1.250688E+05  1.786735E+04 -9.723778E+03
       108   8  8.456686E+04  7.166848E+04 -3.218943E+04  1.367139E+05  1.625774E+04 -9.644475E+03
       108   9  1.037761E+05  9.124569E+04 -2.856179E+04  1.497662E+05  1.413908E+04 -8.886343E+03
       108  10  4.502089E+05  3.370942E+05  5.448322E+04  3.252950E+05 -2.188366E-10  1.644885E-10
       108  11  4.298307E+05  3.156597E+05  4.369051E+04  3.134174E+05  3.595313E-10  1.426463E-10
       108  12  4.047310E+05  3.017506E+05  3.627035E+04  3.029471E+05  3.295564E-10  2.008705E-10
       108  13  2.551198E+05  1.980619E+05  9.889511E+03  2.251646E+05  5.430009E-11  9.470642E-11
       108  14  2.571810E+05  1.936546E+05  5.750933E+03  2.250513E+05 -1.411988E-10  2.750856E-11
       108  15  2.542385E+05  1.964899E+05  3.853999E+03  2.263451E+05  1.298901E-12 -1.198716E-10
       108  16  6.007129E+04  5.905080E+04 -3.470773E+04  1.250690E+05  4.343847E-10  3.580625E-11
       108  17  8.456655E+04  7.166831E+04 -3.219010E+04  1.367140E+05 -1.160834E-10 -6.077845E-11
       108  18  1.037759E+05  9.124555E+04 -2.856232E+04  1.497663E+05 -1.811882E-11 -4.142106E-10
       108  19  4.502092E+05  3.370944E+05  5.448394E+04  3.252948E+05 -1.601183E+04  1.111236E+04
       108  20  4.298309E+05  3.156599E+05  4.369109E+04  3.134172E+05 -1.179238E+04  1.298938E+04
       108  21  4.047311E+05  3.017508E+05  3.627082E+04  3.029471E+05 -7.064189E+03  1.418771E+04
       108  22  2.551201E+05  1.980620E+05  9.890255E+03  2.251644E+05 -1.693978E+04  1.041793E+04
       108  23  2.571813E+05  1.936548E+05  5.751543E+03  2.250512E+05 -1.402547E+04  1.131662E+04
       108  24  2.542386E+05  1.964901E+05  3.854461E+03  2.263450E+05 -1.060224E+04  1.153657E+04
       108  25  6.007166E+04  5.905099E+04 -3.470695E+04  1.250688E+05 -1.786735E+04  9.723778E+03
       108  26  8.456686E+04  7.166848E+04 -3.218943E+04  1.367139E+05 -1.625774E+04  9.644475E+03
       108  27  1.037761E+05  9.124569E+04 -2.856179E+04  1.497662E+05 -1.413908E+04  8.886343E+03
       109   1  3.898396E+05  2.916890E+05  3.250055E+04  2.955437E+05  5.770981E+03 -1.345065E+04
       109   2  3.698439E+05  2.725208E+05  2.738188E+04  2.829826E+05  2.956800E+03 -1.266418E+04
       109   3  3.440683E+05  2.597012E+05  2.348894E+04  2.722132E+05  9.663867E+01 -1.181665E+04
       109   4  2.541622E+05  1.964649E+05  3.412923E+03  2.262984E+05  9.275030E+03 -1.082480E+04
       109   5  2.570774E+05  1.933235E+05  3.296495E+03  2.253890E+05  6.578494E+03 -9.949859E+03
       109   6  2.541865E+05  1.965053E+05  4.303806E+03  2.262709E+05  3.835883E+03 -9.013905E+03
       109   7  1.185065E+05  1.012522E+05 -2.567548E+04  1.570708E+05  1.277807E+04 -8.199710E+03
       109   8  1.443249E+05  1.141334E+05 -2.078980E+04  1.678070E+05  1.019935E+04 -7.236165E+03
       109   9  1.643124E+05  1.333132E+05 -1.488225E+04  1.803354E+05  7.574485E+03 -6.211641E+03
       109  10  3.898395E+05  2.916888E+05  3.250015E+04  2.955438E+05 -6.791932E-10 -3.491861E-10
       109  11  3.698438E+05  2.725206E+05  2.738157E+04  2.829827E+05 -1.785238E-10  1.921182E-10
       109  12  3.440683E+05  2.597010E+05  2.348868E+04  2.722132E+05  3.072360E-10  3.970454E-10
       109  13  2.541620E+05  1.964647E+05  3.412541E+03  2.262985E+05  3.927476E-10 -7.190735E-11
       109  14  2.570774E+05  1.933234E+05  3.296228E+03  2.253891E+05  2.901033E-11  1.879789E-10
       109  15  2.541865E+05  1.965053E+05  4.303626E+03  2.262709E+05 -2.633507E-10  6.911301E-11
       109  16  1.185063E+05  1.012521E+05 -2.567591E+04  1.570709E+05  7.508484E-10  2.004017E-10
       109  17  1.443248E+05  1.141333E+05 -2.079009E+04  1.678071E+05 -5.203365E-11  1.408119E-10
       109  18  1.643124E+05  1.333132E+05 -1.488244E+04  1.803355E+05 -3.871762E-10 -1.998907E-10
       109  19  3.898396E+05  2.916890E+05  3.250055E+04  2.955437E+05 -5.770981E+03  1.345065E+04
       109  20  3.698439E+05  2.725208E+05  2.738188E+04  2.829826E+05 -2.956800E+03  1.266418E+04
       109  21  3.440683E+05  2.597012E+05  2.348894E+04  2.722132E+05 -9.663867E+01  1.181665E+04
       109  22  2.541622E+05  1.964649E+05  3.412923E+03  2.262984E+05 -9.275030E+03  1.082480E+04
       109  23  2.570774E+05  1.933235E+05  3.296495E+03  2.253890E+05 -6.578494E+03  9.949859E+03
       109  24  2.541865E+05  1.965053E+05  4.303806E+03  2.262709E+05 -3.835883E+03  9.013905E+03
       109  25  1.185065E+05  1.012522E+05 -2.567548E+04  1.570708E+05 -1.277807E+04  8.199710E+03
       109  26  1.443249E+05  1.141334E+05 -2.078980E+04  1.678070E+05 -1.019935E+04  7.236165E+03
       109  27  1.643124E+05  1.333132E+05 -1.488225E+04  1.803354E+05 -7.574485E+03  6.211641E+03
       110   1  3.293358E+05  2.498634E+05  2.121547E+04  2.649950E+05 -1.423225E+03 -1.117692E+04
       110   2  3.105495E+05  2.299907E+05  1.966628E+04  2.514906E+05 -6.127986E+03 -1.173401E+04
       110   3  2.872434E+05  2.180602E+05  2.136183E+04  2.391841E+05 -1.076505E+04 -1.238113E+04
       110   4  2.543096E+05  1.965695E+05  5.270923E+03  2.263661E+05  2.316601E+03 -8.373603E+03
       110   5  2.572516E+05  1.938262E+05  8.637754E+03  2.248339E+05 -2.561169E+03 -9.060297E+03
       110   6  2.557103E+05  1.990617E+05  1.539920E+04  2.244986E+05 -7.371423E+03 -9.837175E+03
       110   7  1.792918E+05  1.432805E+05 -1.067322E+04  1.877436E+05  6.055750E+03 -5.570801E+03
       110   8  2.039578E+05  1.576637E+05 -2.390607E+03  1.981800E+05  1.005202E+03 -6.386907E+03
       110   9  2.241783E+05  1.800637E+05  9.436613E+03  2.098139E+05 -3.978028E+03 -7.293358E+03
       110  10  3.293358E+05  2.498633E+05  2.121523E+04  2.649950E+05 -9.978757E-11 -8.701767E-11
       110  11  3.105494E+05  2.299906E+05  1.966595E+04  2.514906E+05 -1.854334E-10  1.448181E-10
       110  12  2.872433E+05  2.180600E+05  2.136133E+04  2.391840E+05  1.144288E-10  1.758395E-10
       110  13  2.543096E+05  1.965695E+05  5.270781E+03  2.263662E+05 -2.645412E-10  2.731978E-11
       110  14  2.572516E+05  1.938261E+05  8.637588E+03  2.248338E+05  2.135472E-10  1.410463E-10
       110  15  2.557102E+05  1.990616E+05  1.539892E+04  2.244985E+05  4.876659E-11  1.197788E-10
       110  16  1.792917E+05  1.432805E+05 -1.067335E+04  1.877436E+05  1.050293E-10  1.463450E-10
       110  17  2.039577E+05  1.576636E+05 -2.390686E+03  1.981800E+05 -2.186187E-10 -1.605537E-12
       110  18  2.241783E+05  1.800637E+05  9.436484E+03  2.098138E+05 -2.395678E-10  1.130445E-11
       110  19  3.293358E+05  2.498634E+05  2.121547E+04  2.649950E+05  1.423225E+03  1.117692E+04
       110  20  3.105495E+05  2.299907E+05  1.966628E+04  2.514906E+05  6.127986E+03  1.173401E+04
       110  21  2.872434E+05  2.180602E+05  2.136183E+04  2.391841E+05  1.076505E+04  1.238113E+04
       110  22  2.543096E+05  1.965695E+05  5.270923E+03  2.263661E+05 -2.316601E+03  8.373603E+03
       110  23  2.572516E+05  1.938262E+05  8.637754E+03  2.248339E+05  2.561169E+03  9.060297E+03
       110  24  2.557103E+05  1.990617E+05  1.539920E+04  2.244986E+05  7.371423E+03  9.837175E+03
       110  25  1.792918E+05  1.432805E+05 -1.067322E+04  1.877436E+05 -6.055750E+03  5.570801E+03
       110  26  2.039578E+05  1.576637E+05 -2.390607E+03  1.981800E+05 -1.005202E+03  6.386907E+03
       110  27  2.241783E+05  1.800637E+05  9.436613E+03  2.098139E+05  3.978028E+03  7.293358E+03
       111   1  2.707593E+05  2.122968E+05  2.289947E+04  2.337152E+05 -1.372475E+04 -1.292915E+04
       111   2  2.748316E+05  1.782581E+05  3.386979E+04  2.051357E+05 -2.817846E+04 -2.168479E+04
       111   3  2.925685E+05  1.766312E+05  6.456164E+04  1.667191E+05 -4.194442E+04 -3.135725E+04
       111   4  2.572967E+05  2.000703E+05  2.029876E+04  2.254243E+05 -1.028699E+04 -1.035194E+04
       111   5  2.618817E+05  2.043373E+05  3.703377E+04  2.148485E+05 -2.650404E+04 -2.043108E+04
       111   6  2.805115E+05  2.413956E+05  7.501979E+04  1.944356E+05 -4.203297E+04 -3.142833E+04
       111   7  2.438341E+05  1.878438E+05  1.769801E+04  2.171336E+05 -6.849265E+03 -7.774786E+03
       111   8  2.489329E+05  2.304183E+05  4.019801E+04  2.245612E+05 -2.482967E+04 -1.917723E+04
       111   9  2.684584E+05  3.061684E+05  8.547866E+04  2.221517E+05 -4.212152E+04 -3.149944E+04
       111  10  2.707591E+05  2.122966E+05  2.289880E+04  2.337150E+05  1.047709E-10  1.169227E-10
       111  11  2.748306E+05  1.782573E+05  3.386741E+04  2.051352E+05  4.322838E-10  1.404847E-10
       111  12  2.925663E+05  1.766296E+05  6.455649E+04  1.667181E+05  2.833869E-10  2.094033E-10
       111  13  2.572966E+05  2.000702E+05  2.029836E+04  2.254242E+05 -6.910753E-11  1.251628E-10
       111  14  2.618809E+05  2.043366E+05  3.703167E+04  2.148481E+05 -9.460679E-11  8.637244E-11
       111  15  2.805094E+05  2.413940E+05  7.501461E+04  1.944345E+05 -4.037911E-10 -3.632666E-11
       111  16  2.438340E+05  1.878437E+05  1.769781E+04  2.171335E+05 -3.441195E-11  1.673984E-10
       111  17  2.489321E+05  2.304177E+05  4.019616E+04  2.245608E+05  2.485146E-10  1.550551E-10
       111  18  2.684562E+05  3.061669E+05  8.547346E+04  2.221506E+05 -1.086524E-10 -6.464580E-11
       111  19  2.707593E+05  2.122968E+05  2.289947E+04  2.337152E+05  1.372475E+04  1.292915E+04
       111  20  2.748316E+05  1.782581E+05  3.386979E+04  2.051357E+05  2.817846E+04  2.168479E+04
       111  21  2.925685E+05  1.766312E+05  6.456164E+04  1.667191E+05  4.194442E+04  3.135725E+04
       111  22  2.572967E+05  2.000703E+05  2.029876E+04  2.254243E+05  1.028699E+04  1.035194E+04
       111  23  2.618817E+05  2.043373E+05  3.703377E+04  2.148485E+05  2.650404E+04  2.043108E+04
       111  24  2.805115E+05  2.413956E+05  7.501979E+04  1.944356E+05  4.203297E+04  3.142833E+04
       111  25  2.438341E+05  1.878438E+05  1.769801E+04  2.171336E+05  6.849265E+03  7.774786E+03
       111  26  2.489329E+05  2.304183E+05  4.019801E+04  2.245612E+05  2.482967E+04  1.917723E+04
       111  27  2.684584E+05  3.061684E+05  8.547866E+04  2.221517E+05  4.212152E+04  3.149944E+04
       112   1  1.101410E+06  1.785409E+05  1.749970E+05  1.319242E+05  6.972777E+04 -6.942497E+03
       112   2  1.000304E+06  1.236495E+05  1.114637E+05  1.105462E+05  3.390638E+04 -2.219225E+04
       112   3  9.097150E+05  9.207116E+04  7.705449E+04  1.073240E+05 -1.904263E+03 -2.413885E+04
       112   4  5.258385E+05  3.652556E+04  3.991000E+04  1.081902E+05  2.760558E+04 -6.941540E+03
       112   5  5.228174E+05  9.932747E+03  1.993771E+04  9.911221E+04  1.737009E+04 -2.219383E+04
       112   6  5.258771E+05  2.226211E+03  1.134874E+04  1.081886E+05  7.139020E+03 -2.413968E+04
       112   7 -4.942380E+04 -1.055103E+05 -9.519269E+04  8.447820E+04 -1.447787E+04 -6.937370E+03
       112   8  4.555115E+04 -1.037968E+05 -7.159761E+04  8.768720E+04  8.462025E+02 -2.219481E+04
       112   9  1.421840E+05 -8.762654E+04 -5.436163E+04  1.090527E+05  1.617689E+04 -2.414050E+04
       112  10  1.101405E+06  1.785396E+05  1.749878E+05  1.319246E+05  2.292715E-10 -5.958325E-11
       112  11  1.000302E+06  1.236487E+05  1.114606E+05  1.105468E+05 -2.640279E-11 -1.744773E-10
       112  12  9.097149E+05  9.207053E+04  7.705339E+04  1.073239E+05 -4.254547E-10  2.145527E-11
       112  13  5.258377E+05  3.652530E+04  3.990848E+04  1.081903E+05 -8.379324E-11  9.368774E-12
       112  14  5.228169E+05  9.932136E+03  1.993622E+04  9.911252E+04  1.112811E-10 -1.097308E-10
       112  15  5.258769E+05  2.225571E+03  1.134755E+04  1.081888E+05 -2.435527E-10 -6.499327E-11
       112  16 -4.942404E+04 -1.055104E+05 -9.519318E+04  8.447812E+04 -4.253830E-10 -6.578770E-11
       112  17  4.555101E+04 -1.037974E+05 -7.159854E+04  8.768721E+04  3.672447E-11 -1.265750E-10
       112  18  1.421835E+05 -8.762723E+04 -5.436322E+04  1.090530E+05  5.131757E-11 -9.128730E-11
       112  19  1.101410E+06  1.785409E+05  1.749970E+05  1.319242E+05 -6.972777E+04  6.942497E+03
       112  20  1.000304E+06  1.236495E+05  1.114637E+05  1.105462E+05 -3.390638E+04  2.219225E+04
       112  21  9.097150E+05  9.207116E+04  7.705449E+04  1.073240E+05  1.904263E+03  2.413885E+04
       112  22  5.258385E+05  3.652556E+04  3.991000E+04  1.081902E+05 -2.760558E+04  6.941540E+03
       112  23  5.228174E+05  9.932747E+03  1.993771E+04  9.911221E+04 -1.737009E+04  2.219383E+04
       112  24  5.258771E+05  2.226211E+03  1.134874E+04  1.081886E+05 -7.139020E+03  2.413968E+04
       112  25 -4.942380E+04 -1.055103E+05 -9.519269E+04  8.447820E+04  1.447787E+04  6.937370E+03
       112  26  4.555115E+04 -1.037968E+05 -7.159761E+04  8.768720E+04 -8.462025E+02  2.219481E+04
       112  27  1.421840E+05 -8.762654E+04 -5.436163E+04  1.090527E+05 -1.617689E+04  2.414050E+04
       113   1  8.469110E+05  7.729884E+04  6.320221E+04  1.094850E+05 -2.779576E+03 -2.099042E+04
       113   2  7.506421E+05  5.296092E+04  4.254904E+04  9.935735E+04 -8.276330E+03 -1.596715E+04
       113   3  6.555565E+05  3.042002E+04  2.592243E+04  1.082753E+05 -1.377292E+04 -9.633385E+03
       113   4  5.246970E+05  2.056679E+03  8.950743E+03  1.083875E+05  5.614872E+03 -2.099066E+04
       113   5  5.243365E+05  4.175886E+02  5.972065E+03  9.886455E+04  2.637415E+03 -1.596640E+04
       113   6  5.247122E+05  1.390109E+02  5.272342E+03  1.083877E+05 -3.407193E+02 -9.631403E+03
       113   7  2.025854E+05 -7.319089E+04 -4.530375E+04  1.072905E+05  1.400511E+04 -2.099092E+04
       113   8  2.980819E+05 -5.212826E+04 -3.060586E+04  9.837194E+04  1.354733E+04 -1.596566E+04
       113   9  3.938854E+05 -3.014274E+04 -1.537750E+04  1.085000E+05  1.308876E+04 -9.629416E+03
       113  10  8.469108E+05  7.729837E+04  6.320137E+04  1.094850E+05  2.252114E-10  1.968142E-11
       113  11  7.506420E+05  5.296062E+04  4.254843E+04  9.935724E+04 -1.665236E-10 -3.390952E-11
       113  12  6.555562E+05  3.041987E+04  2.592190E+04  1.082752E+05 -2.008942E-10 -3.925200E-12
       113  13  5.246969E+05  2.056197E+03  8.949856E+03  1.083876E+05  3.128134E-10  2.961722E-12
       113  14  5.243364E+05  4.173129E+02  5.971573E+03  9.886459E+04 -8.739667E-11  2.037488E-11
       113  15  5.247122E+05  1.389113E+02  5.272167E+03  1.083877E+05 -4.030498E-10  2.173207E-11
       113  16  2.025851E+05 -7.319142E+04 -4.530495E+04  1.072907E+05 -2.270065E-10 -7.058854E-11
       113  17  2.980816E+05 -5.212859E+04 -3.060669E+04  9.837212E+04 -4.988935E-10  4.922297E-11
       113  18  3.938852E+05 -3.014289E+04 -1.537799E+04  1.085001E+05 -4.664437E-11  3.712847E-11
       113  19  8.469110E+05  7.729884E+04  6.320221E+04  1.094850E+05  2.779576E+03  2.099042E+04
       113  20  7.506421E+05  5.296092E+04  4.254904E+04  9.935735E+04  8.276330E+03  1.596715E+04
       113  21  6.555565E+05  3.042002E+04  2.592243E+04  1.082753E+05  1.377292E+04  9.633385E+03
       113  22  5.246970E+05  2.056679E+03  8.950743E+03  1.083875E+05 -5.614872E+03  2.099066E+04
       113  23  5.243365E+05  4.175886E+02  5.972065E+03  9.886455E+04 -2.637415E+03  1.596640E+04
       113  24  5.247122E+05  1.390109E+02  5.272342E+03  1.083877E+05  3.407193E+02  9.631403E+03
       113  25  2.025854E+05 -7.319089E+04 -4.530375E+04  1.072905E+05 -1.400511E+04  2.099092E+04
       113  26  2.980819E+05 -5.212826E+04 -3.060586E+04  9.837194E+04 -1.354733E+04  1.596566E+04
       113  27  3.938854E+05 -3.014274E+04 -1.537750E+04  1.085000E+05 -1.308876E+04  9.629416E+03
       114   1  5.946616E+05  1.623256E+04  1.617244E+04  1.086723E+05 -1.468457E+04 -5.479735E+03
       114   2  4.986667E+05 -5.466857E+03  2.516722E+03  9.822827E+04 -1.692101E+04  1.101802E+03
       114   3  4.033830E+05 -2.552900E+04 -9.274382E+03  1.068596E+05 -1.915716E+04  6.889900E+03
       114   4  5.247660E+05  1.391100E+02  5.556016E+03  1.083942E+05 -1.276724E+03 -5.477489E+03
       114   5  5.242807E+05  6.570219E+02  7.535467E+03  9.885641E+04 -5.038506E+03  1.103679E+03
       114   6  5.247630E+05  3.077383E+03  1.243787E+04  1.083938E+05 -8.800346E+03  6.891427E+03
       114   7  4.548756E+05 -1.595447E+04 -5.059834E+03  1.081160E+05  1.212967E+04 -5.475255E+03
       114   8  5.498956E+05  6.780938E+03  1.255471E+04  9.948457E+04  6.844475E+03  1.105580E+03
       114   9  6.461576E+05  3.168302E+04  3.414995E+04  1.099284E+05  1.558437E+03  6.893005E+03
       114  10  5.946614E+05  1.623247E+04  1.617198E+04  1.086723E+05 -3.892885E-10  2.766558E-11
       114  11  4.986664E+05 -5.466935E+03  2.516182E+03  9.822829E+04 -2.385361E-10  2.626413E-11
       114  12  4.033826E+05 -2.552915E+04 -9.275160E+03  1.068597E+05  8.896740E-11  7.810721E-11
       114  13  5.247660E+05  1.390773E+02  5.555957E+03  1.083941E+05 -4.354169E-10  3.004302E-11
       114  14  5.242807E+05  6.570138E+02  7.535417E+03  9.885641E+04  4.275651E-10  6.059214E-11
       114  15  5.247629E+05  3.077311E+03  1.243763E+04  1.083939E+05 -2.827975E-10  4.239963E-11
       114  16  4.548755E+05 -1.595455E+04 -5.060167E+03  1.081161E+05  1.142122E-10  7.215194E-11
       114  17  5.498955E+05  6.780924E+03  1.255462E+04  9.948456E+04 -4.356271E-10 -1.945199E-11
       114  18  6.461576E+05  3.168297E+04  3.414986E+04  1.099283E+05 -2.870354E-10 -5.195823E-11
       114  19  5.946616E+05  1.623256E+04  1.617244E+04  1.086723E+05  1.468457E+04  5.479735E+03
       114  20  4.986667E+05 -5.466857E+03  2.516722E+03  9.822827E+04  1.692101E+04 -1.101802E+03
       114  21  4.033830E+05 -2.552900E+04 -9.274382E+03  1.068596E+05  1.915716E+04 -6.889900E+03
       114  22  5.247660E+05  1.391100E+02  5.556016E+03  1.083942E+05  1.276724E+03  5.477489E+03
       114  23  5.242807E+05  6.570219E+02  7.535467E+03  9.885641E+04  5.038506E+03 -1.103679E+03
       114  24  5.247630E+05  3.077383E+03  1.243787E+04  1.083938E+05  8.800346E+03 -6.891427E+03
       114  25  4.548756E+05 -1.595447E+04 -5.059834E+03  1.081160E+05 -1.212967E+04  5.475255E+03
       114  26  5.498956E+05  6.780938E+03  1.255471E+04  9.948457E+04 -6.844475E+03 -1.105580E+03
       114  27  6.461576E+05  3.168302E+04  3.414995E+04  1.099284E+05 -1.558437E+03 -6.893005E+03
       115   1  3.438154E+05 -3.971078E+04 -1.647253E+04  1.095637E+05 -2.171172E+04  1.043500E+04
       115   2  2.451413E+05 -5.166998E+04 -2.570578E+04  8.228193E+04 -1.953240E+04  1.161249E+04
       115   3  1.523776E+05 -3.894425E+04 -3.018340E+04  7.348480E+04 -1.735448E+04  3.909835E+03
       115   4  5.265132E+05  3.331445E+03  1.613084E+04  1.082617E+05 -1.092775E+04  1.043638E+04
       115   5  5.220702E+05  1.463158E+04  2.897895E+04  9.901951E+04 -2.580777E+04  1.161094E+04
       115   6  5.264827E+05  5.356931E+04  5.841994E+04  1.082590E+05 -4.068914E+04  3.907290E+03
       115   7  7.092438E+05  4.637189E+04  4.873338E+04  1.069592E+05 -1.407020E+02  1.043772E+04
       115   8  7.990730E+05  8.092956E+04  8.366022E+04  1.157647E+05 -3.208587E+04  1.160904E+04
       115   9  9.007201E+05  1.460777E+05  1.470163E+05  1.430543E+05 -6.403776E+04  3.902134E+03
       115  10  3.438148E+05 -3.971103E+04 -1.647362E+04  1.095639E+05 -2.636404E-11  1.318302E-10
       115  11  2.451409E+05 -5.167023E+04 -2.570676E+04  8.228211E+04 -2.084767E-10  1.276959E-10
       115  12  1.523773E+05 -3.894435E+04 -3.018400E+04  7.348486E+04  1.145565E-10  3.565173E-11
       115  13  5.265130E+05  3.331296E+03  1.613041E+04  1.082618E+05  1.356481E-13  4.542916E-11
       115  14  5.220694E+05  1.463125E+04  2.897744E+04  9.901975E+04  1.114697E-10  2.325158E-11
       115  15  5.264810E+05  5.356885E+04  5.841680E+04  1.082592E+05  8.398013E-11  4.304175E-11
       115  16  7.092437E+05  4.637178E+04  4.873317E+04  1.069592E+05 -7.669636E-11 -9.787391E-11
       115  17  7.990719E+05  8.092914E+04  8.365803E+04  1.157650E+05  3.179551E-10  1.977856E-12
       115  18  9.007157E+05  1.460765E+05  1.470085E+05  1.430545E+05  2.055228E-10  2.733678E-11
       115  19  3.438154E+05 -3.971078E+04 -1.647253E+04  1.095637E+05  2.171172E+04 -1.043500E+04
       115  20  2.451413E+05 -5.166998E+04 -2.570578E+04  8.228193E+04  1.953240E+04 -1.161249E+04
       115  21  1.523776E+05 -3.894425E+04 -3.018340E+04  7.348480E+04  1.735448E+04 -3.909835E+03
       115  22  5.265132E+05  3.331445E+03  1.613084E+04  1.082617E+05  1.092775E+04 -1.043638E+04
       115  23  5.220702E+05  1.463158E+04  2.897895E+04  9.901951E+04  2.580777E+04 -1.161094E+04
       115  24  5.264827E+05  5.356931E+04  5.841994E+04  1.082590E+05  4.068914E+04 -3.907290E+03
       115  25  7.092438E+05  4.637189E+04  4.873338E+04  1.069592E+05  1.407020E+02 -1.043772E+04
       115  26  7.990730E+05  8.092956E+04  8.366022E+04  1.157647E+05  3.208587E+04 -1.160904E+04
       115  27  9.007201E+05  1.460777E+05  1.470163E+05  1.430543E+05  6.403776E+04 -3.902134E+03
       116   1 -2.075212E+05 -6.027997E+05 -2.108916E+05  2.121467E+05 -4.904063E+03 -9.466213E+04
       116   2 -1.066794E+05 -4.562202E+05 -1.167997E+05  1.693401E+05 -1.408256E+04 -4.796416E+04
       116   3 -5.495108E+04 -3.280028E+05 -6.541042E+04  1.531471E+05 -1.175268E+04 -1.257394E+03
       116   4 -8.756010E+04 -1.180187E+05 -9.570865E+04  1.554160E+05 -4.878728E+03 -6.597304E+04
       116   5 -2.383111E+04 -1.107335E+05 -4.796728E+04  1.420835E+05 -1.407574E+04 -4.134421E+04
       116   6 -5.366837E+03 -1.179828E+05 -2.757977E+04  1.553713E+05 -1.176287E+04 -1.671807E+04
       116   7  3.239668E+04  3.669869E+05  1.946277E+04  9.864062E+04 -4.858654E+03 -3.726163E+04
       116   8  5.901270E+04  2.348690E+05  2.085978E+04  1.148115E+05 -1.406950E+04 -3.472064E+04
       116   9  4.421509E+04  9.208069E+04  1.025006E+04  1.575963E+05 -1.177317E+04 -3.218383E+04
       116  10 -2.075237E+05 -6.028093E+05 -2.109085E+05  2.121463E+05  1.178648E-10 -1.202170E-12
       116  11 -1.066802E+05 -4.562227E+05 -1.168044E+05  1.693395E+05  8.761814E-11  8.945262E-11
       116  12 -5.495123E+04 -3.280029E+05 -6.541068E+04  1.531471E+05  2.917057E-10  3.194454E-10
       116  13 -8.756130E+04 -1.180234E+05 -9.571687E+04  1.554157E+05  7.796234E-11  3.787099E-11
       116  14 -2.383178E+04 -1.107354E+05 -4.797086E+04  1.420830E+05  2.895912E-10  7.924911E-11
       116  15 -5.367061E+03 -1.179832E+05 -2.758056E+04  1.553712E+05  4.049650E-10  1.069098E-10
       116  16  3.239629E+04  3.669854E+05  1.946012E+04  9.864047E+04 -9.161027E-11 -3.261558E-12
       116  17  5.901216E+04  2.348677E+05  2.085714E+04  1.148111E+05  2.523434E-10 -1.143243E-10
       116  18  4.421466E+04  9.207955E+04  1.024785E+04  1.575960E+05  1.275938E-10 -3.176303E-10
       116  19 -2.075212E+05 -6.027997E+05 -2.108916E+05  2.121467E+05  4.904063E+03  9.466213E+04
       116  20 -1.066794E+05 -4.562202E+05 -1.167997E+05  1.693401E+05  1.408256E+04  4.796416E+04
       116  21 -5.495108E+04 -3.280028E+05 -6.541042E+04  1.531471E+05  1.175268E+04  1.257394E+03
       116  22 -8.756010E+04 -1.180187E+05 -9.570865E+04  1.554160E+05  4.878728E+03  6.597304E+04
       116  23 -2.383111E+04 -1.107335E+05 -4.796728E+04  1.420835E+05  1.407574E+04  4.134421E+04
       116  24 -5.366837E+03 -1.179828E+05 -2.757977E+04  1.553713E+05  1.176287E+04  1.671807E+04
       116  25  3.239668E+04  3.669869E+05  1.946277E+04  9.864062E+04  4.858654E+03  3.726163E+04
       116  26  5.901270E+04  2.348690E+05  2.085978E+04  1.148115E+05  1.406950E+04  3.472064E+04
       116  27  4.421509E+04  9.208069E+04  1.025006E+04  1.575963E+05  1.177317E+04  3.218383E+04
       117   1 -3.377340E+04 -2.372009E+05 -4.416951E+04  1.581434E+05 -6.650165E+03  1.939992E+03
       117   2  2.103481E+03 -9.883750E+04 -1.287692E+04  1.423445E+05  1.107380E+03  9.460419E+03
       117   3  3.364899E+04  3.745581E+04  1.242658E+04  1.538720E+05  8.793058E+03  1.698254E+04
       117   4 -4.938380E+03 -1.152172E+05 -2.198172E+04  1.555319E+05 -6.660484E+03 -1.301106E+04
       117   5 -1.453604E+03 -1.141619E+05 -1.533259E+04  1.418676E+05  1.097247E+03 -5.353294E+03
       117   6 -2.322977E+03 -1.152184E+05 -1.476717E+04  1.555303E+05  8.783134E+03  2.304612E+03
       117   7  2.389595E+04  6.781419E+03  2.063165E+02  1.529199E+05 -6.670676E+03 -2.796498E+04
       117   8 -5.010582E+03 -1.294855E+05 -1.778744E+04  1.413908E+05  1.087137E+03 -2.016666E+04
       117   9 -3.829611E+04 -2.678694E+05 -4.196099E+04  1.571881E+05  8.773130E+03 -1.236981E+04
       117  10 -3.377345E+04 -2.372009E+05 -4.416960E+04  1.581434E+05  2.032316E-10 -2.743181E-10
       117  11  2.103455E+03 -9.883760E+04 -1.287709E+04  1.423445E+05  1.644446E-11 -1.122894E-10
       117  12  3.364883E+04  3.745548E+04  1.242589E+04  1.538719E+05  2.121951E-10 -1.994877E-11
       117  13 -4.938473E+03 -1.152174E+05 -2.198212E+04  1.555319E+05 -2.880381E-10  8.609783E-11
       117  14 -1.453613E+03 -1.141619E+05 -1.533264E+04  1.418676E+05 -2.698698E-11  3.033477E-11
       117  15 -2.323062E+03 -1.152184E+05 -1.476733E+04  1.555303E+05 -8.961167E-11  2.382398E-11
       117  16  2.389569E+04  6.780568E+03  2.047635E+02  1.529198E+05  3.073172E-10  3.078584E-10
       117  17 -5.010693E+03 -1.294860E+05 -1.778820E+04  1.413908E+05  2.327922E-10  1.133467E-10
       117  18 -3.829623E+04 -2.678696E+05 -4.196142E+04  1.571882E+05  2.695733E-10 -2.768730E-11
       117  19 -3.377340E+04 -2.372009E+05 -4.416951E+04  1.581434E+05  6.650165E+03 -1.939992E+03
       117  20  2.103481E+03 -9.883750E+04 -1.287692E+04  1.423445E+05 -1.107380E+03 -9.460419E+03
       117  21  3.364899E+04  3.745581E+04  1.242658E+04  1.538720E+05 -8.793058E+03 -1.698254E+04
       117  22 -4.938380E+03 -1.152172E+05 -2.198172E+04  1.555319E+05  6.660484E+03  1.301106E+04
       117  23 -1.453604E+03 -1.141619E+05 -1.533259E+04  1.418676E+05 -1.097247E+03  5.353294E+03
       117  24 -2.322977E+03 -1.152184E+05 -1.476717E+04  1.555303E+05 -8.783134E+03 -2.304612E+03
       117  25  2.389595E+04  6.781419E+03  2.063165E+02  1.529199E+05  6.670676E+03  2.796498E+04
       117  26 -5.010582E+03 -1.294855E+05 -1.778744E+04  1.413908E+05 -1.087137E+03  2.016666E+04
       117  27 -3.829611E+04 -2.678694E+05 -4.196099E+04  1.571881E+05 -8.773130E+03  1.236981E+04
       118   1  5.419260E+04  1.244802E+05  2.673158E+04  1.562816E+05  1.383934E+04  1.992853E+04
       118   2  7.902272E+04  2.633479E+05  5.048480E+04  1.292124E+05  1.566409E+04  8.810758E+03
       118   3  8.660576E+04  3.993616E+05  7.715914E+04  1.287040E+05  5.301713E+03 -2.306052E+03
       118   4 -2.545765E+03 -1.162971E+05 -1.618092E+04  1.553595E+05  1.382953E+04  4.703885E+03
       118   5 -1.108418E+04 -1.128463E+05 -2.397891E+04  1.420875E+05  1.566997E+04  1.698926E+04
       118   6 -4.093817E+04 -1.163331E+05 -4.510927E+04  1.553799E+05  5.319393E+03  2.927751E+04
       118   7 -5.928721E+04 -3.570173E+05 -5.909473E+04  1.544378E+05  1.381976E+04 -1.051502E+04
       118   8 -1.011990E+05 -4.889046E+05 -9.844926E+04  1.549546E+05  1.567619E+04  2.516290E+04
       118   9 -1.684980E+05 -6.317799E+05 -1.673920E+05  1.820335E+05  5.339797E+03  6.083498E+04
       118  10  5.419229E+04  1.244797E+05  2.673047E+04  1.562813E+05  2.170074E-10 -4.243584E-10
       118  11  7.902243E+04  2.633477E+05  5.048419E+04  1.292123E+05 -2.193673E-10 -8.577709E-11
       118  12  8.660573E+04  3.993615E+05  7.715908E+04  1.287040E+05 -2.099702E-11  1.195567E-10
       118  13 -2.545976E+03 -1.162972E+05 -1.618132E+04  1.553594E+05  5.182774E-10  8.220274E-11
       118  14 -1.108452E+04 -1.128467E+05 -2.397991E+04  1.420873E+05 -2.220388E-11  8.252997E-11
       118  15 -4.093843E+04 -1.163340E+05 -4.511093E+04  1.553798E+05  2.269861E-10  6.143358E-12
       118  16 -5.928745E+04 -3.570174E+05 -5.909530E+04  1.544379E+05  1.844131E-11  4.194689E-10
       118  17 -1.011995E+05 -4.889054E+05 -9.845091E+04  1.549543E+05  1.341085E-11  8.721618E-11
       118  18 -1.684990E+05 -6.317838E+05 -1.673991E+05  1.820333E+05 -9.822710E-11 -1.105031E-10
       118  19  5.419260E+04  1.244802E+05  2.673158E+04  1.562816E+05 -1.383934E+04 -1.992853E+04
       118  20  7.902272E+04  2.633479E+05  5.048480E+04  1.292124E+05 -1.566409E+04 -8.810758E+03
       118  21  8.660576E+04  3.993616E+05  7.715914E+04  1.287040E+05 -5.301713E+03  2.306052E+03
       118  22 -2.545765E+03 -1.162971E+05 -1.618092E+04  1.553595E+05 -1.382953E+04 -4.703885E+03
       118  23 -1.108418E+04 -1.128463E+05 -2.397891E+04  1.420875E+05 -1.566997E+04 -1.698926E+04
       118  24 -4.093817E+04 -1.163331E+05 -4.510927E+04  1.553799E+05 -5.319393E+03 -2.927751E+04
       118  25 -5.928721E+04 -3.570173E+05 -5.909473E+04  1.544378E+05 -1.381976E+04  1.051502E+04
       118  26 -1.011990E+05 -4.889046E+05 -9.844926E+04  1.549546E+05 -1.567619E+04 -2.516290E+04
       118  27 -1.684980E+05 -6.317799E+05 -1.673920E+05  1.820335E+05 -5.339797E+03 -6.083498E+04
       119   1  4.563154E+05  3.512458E+05  8.362301E+04  3.235825E+05  4.473475E+04  3.254507E+04
       119   2  4.580050E+05  2.981012E+05  4.515611E+04  3.388674E+05  2.961761E+04  1.868202E+04
       119   3  4.798340E+05  2.705758E+05  2.858877E+04  3.428630E+05  1.385204E+04  5.684189E+03
       119   4  4.611950E+05  2.842266E+05  7.215320E+04  2.934808E+05  4.079284E+04  2.958571E+04
       119   5  4.401455E+05  2.517258E+05  3.569649E+04  3.140282E+05  2.733564E+04  1.697010E+04
       119   6  4.388753E+05  2.444836E+05  1.969924E+04  3.232862E+05  1.323067E+04  5.218450E+03
       119   7  4.660777E+05  2.172173E+05  6.068430E+04  2.633798E+05  3.685084E+04  2.662714E+04
       119   8  4.222870E+05  2.053537E+05  2.623688E+04  2.891902E+05  2.505372E+04  1.525846E+04
       119   9  3.979178E+05  2.183917E+05  1.080935E+04  3.037104E+05  1.260936E+04  4.752737E+03
       119  10  4.563130E+05  3.512441E+05  8.361727E+04  3.235814E+05 -3.651762E-10 -1.228039E-10
       119  11  4.580040E+05  2.981006E+05  4.515381E+04  3.388670E+05  6.083039E-11  1.226118E-10
       119  12  4.798338E+05  2.705757E+05  2.858835E+04  3.428630E+05  1.349531E-10  1.607865E-10
       119  13  4.611930E+05  2.842252E+05  7.214844E+04  2.934798E+05 -7.468650E-12  1.124157E-10
       119  14  4.401447E+05  2.517253E+05  3.569455E+04  3.140278E+05 -2.479467E-10  7.435583E-11
       119  15  4.388751E+05  2.444835E+05  1.969887E+04  3.232861E+05  9.066047E-11  8.995266E-11
       119  16  4.660761E+05  2.172162E+05  6.068042E+04  2.633790E+05  2.509434E-10  1.831381E-10
       119  17  4.222862E+05  2.053533E+05  2.623527E+04  2.891899E+05 -4.097385E-11  2.244656E-10
       119  18  3.979176E+05  2.183916E+05  1.080901E+04  3.037103E+05  9.986906E-11  6.099948E-11
       119  19  4.563154E+05  3.512458E+05  8.362301E+04  3.235825E+05 -4.473475E+04 -3.254507E+04
       119  20  4.580050E+05  2.981012E+05  4.515611E+04  3.388674E+05 -2.961761E+04 -1.868202E+04
       119  21  4.798340E+05  2.705758E+05  2.858877E+04  3.428630E+05 -1.385204E+04 -5.684189E+03
       119  22  4.611950E+05  2.842266E+05  7.215320E+04  2.934808E+05 -4.079284E+04 -2.958571E+04
       119  23  4.401455E+05  2.517258E+05  3.569649E+04  3.140282E+05 -2.733564E+04 -1.697010E+04
       119  24  4.388753E+05  2.444836E+05  1.969924E+04  3.232862E+05 -1.323067E+04 -5.218450E+03
       119  25  4.660777E+05  2.172173E+05  6.068430E+04  2.633798E+05 -3.685084E+04 -2.662714E+04
       119  26  4.222870E+05  2.053537E+05  2.623688E+04  2.891902E+05 -2.505372E+04 -1.525846E+04
       119  27  3.979178E+05  2.183917E+05  1.080935E+04  3.037104E+05 -1.260936E+04 -4.752737E+03
       120   1  4.759542E+05  2.736498E+05  2.403749E+04  3.434819E+05  1.195214E+04  4.007461E+03
       120   2  4.769467E+05  2.718188E+05  1.782925E+04  3.452767E+05  8.502888E+03  9.553398E+02
       120   3  4.799660E+05  2.714356E+05  1.518260E+04  3.463984E+05  4.984051E+03 -2.003759E+03
       120   4  4.373528E+05  2.435123E+05  1.505327E+04  3.223995E+05  1.128812E+04  3.509651E+03
       120   5  4.356837E+05  2.416054E+05  8.745993E+03  3.236383E+05  8.017764E+03  5.916415E+02
       120   6  4.360027E+05  2.411076E+05  5.845438E+03  3.242039E+05  4.677796E+03 -2.233377E+03
       120   7  3.987540E+05  2.133766E+05  6.069263E+03  3.013191E+05  1.062418E+04  3.011898E+03
       120   8  3.944231E+05  2.113934E+05 -3.371842E+02  3.020018E+05  7.532688E+03  2.279810E+02
       120   9  3.920417E+05  2.107808E+05 -3.491794E+03  3.020114E+05  4.371569E+03 -2.462974E+03
       120  10  4.759541E+05  2.736497E+05  2.403719E+04  3.434819E+05  9.635602E-11 -4.545943E-11
       120  11  4.769466E+05  2.718188E+05  1.782911E+04  3.452767E+05  2.139323E-10  1.095106E-10
       120  12  4.799659E+05  2.714356E+05  1.518254E+04  3.463984E+05  1.154932E-11  8.497872E-11
       120  13  4.373526E+05  2.435123E+05  1.505301E+04  3.223995E+05  5.884219E-11  4.258197E-11
       120  14  4.356836E+05  2.416054E+05  8.745871E+03  3.236383E+05  5.347680E-10 -2.304099E-11
       120  15  4.360026E+05  2.411076E+05  5.845387E+03  3.242040E+05 -4.256553E-11 -8.398116E-11
       120  16  3.987538E+05  2.133766E+05  6.069034E+03  3.013190E+05  9.040046E-11  2.062091E-10
       120  17  3.944231E+05  2.113934E+05 -3.372908E+02  3.020018E+05 -3.078944E-10  1.738368E-11
       120  18  3.920417E+05  2.107807E+05 -3.491841E+03  3.020114E+05  3.644221E-11 -1.890077E-10
       120  19  4.759542E+05  2.736498E+05  2.403749E+04  3.434819E+05 -1.195214E+04 -4.007461E+03
       120  20  4.769467E+05  2.718188E+05  1.782925E+04  3.452767E+05 -8.502888E+03 -9.553398E+02
       120  21  4.799660E+05  2.714356E+05  1.518260E+04  3.463984E+05 -4.984051E+03  2.003759E+03
       120  22  4.373528E+05  2.435123E+05  1.505327E+04  3.223995E+05 -1.128812E+04 -3.509651E+03
       120  23  4.356837E+05  2.416054E+05  8.745993E+03  3.236383E+05 -8.017764E+03 -5.916415E+02
       120  24  4.360027E+05  2.411076E+05  5.845438E+03  3.242039E+05 -4.677796E+03  2.233377E+03
       120  25  3.987540E+05  2.133766E+05  6.069263E+03  3.013191E+05 -1.062418E+04 -3.011898E+03
       120  26  3.944231E+05  2.113934E+05 -3.371842E+02  3.020018E+05 -7.532688E+03 -2.279810E+02
       120  27  3.920417E+05  2.107808E+05 -3.491794E+03  3.020114E+05 -4.371569E+03  2.462974E+03
       121   1  4.805804E+05  2.724440E+05  1.472266E+04  3.469551E+05  4.287799E+03 -2.667358E+03
       121   2  4.817921E+05  2.737102E+05  1.486120E+04  3.478525E+05  2.384072E+03 -4.328385E+03
       121   3  4.838493E+05  2.749239E+05  1.673173E+04  3.486443E+05  4.615248E+02 -5.964396E+03
       121   4  4.358981E+05  2.410500E+05  5.164811E+03  3.241282E+05  3.975803E+03 -2.901287E+03
       121   5  4.354940E+05  2.411061E+05  4.963227E+03  3.241622E+05  2.120377E+03 -4.526117E+03
       121   6  4.359252E+05  2.410991E+05  6.451855E+03  3.240906E+05  2.461763E+02 -6.125892E+03
       121   7  3.912172E+05  2.096566E+05 -4.393438E+03  3.013028E+05  3.663831E+03 -3.135199E+03
       121   8  3.891985E+05  2.085034E+05 -4.934835E+03  3.004741E+05  1.856709E+03 -4.723829E+03
       121   9  3.880047E+05  2.072764E+05 -3.827783E+03  2.995397E+05  3.085419E+01 -6.287369E+03
       121  10  4.805804E+05  2.724440E+05  1.472261E+04  3.469551E+05 -1.173275E-10 -6.644982E-11
       121  11  4.817921E+05  2.737102E+05  1.486115E+04  3.478525E+05  1.013395E-10  3.861120E-11
       121  12  4.838493E+05  2.749238E+05  1.673166E+04  3.486443E+05  2.477863E-10  9.661349E-11
       121  13  4.358981E+05  2.410500E+05  5.164765E+03  3.241282E+05  2.831162E-10 -2.743073E-11
       121  14  4.354940E+05  2.411061E+05  4.963180E+03  3.241623E+05 -2.603582E-10 -1.111752E-10
       121  15  4.359251E+05  2.410990E+05  6.451784E+03  3.240906E+05  2.132589E-10 -2.567777E-11
       121  16  3.912172E+05  2.096566E+05 -4.393482E+03  3.013028E+05  4.206091E-10 -1.853659E-11
       121  17  3.891985E+05  2.085034E+05 -4.934883E+03  3.004741E+05 -9.230830E-11 -5.388861E-11
       121  18  3.880047E+05  2.072764E+05 -3.827857E+03  2.995397E+05 -2.065771E-10 -1.521571E-10
       121  19  4.805804E+05  2.724440E+05  1.472266E+04  3.469551E+05 -4.287799E+03  2.667358E+03
       121  20  4.817921E+05  2.737102E+05  1.486120E+04  3.478525E+05 -2.384072E+03  4.328385E+03
       121  21  4.838493E+05  2.749239E+05  1.673173E+04  3.486443E+05 -4.615248E+02  5.964396E+03
       121  22  4.358981E+05  2.410500E+05  5.164811E+03  3.241282E+05 -3.975803E+03  2.901287E+03
       121  23  4.354940E+05  2.411061E+05  4.963227E+03  3.241622E+05 -2.120377E+03  4.526117E+03
       121  24  4.359252E+05  2.410991E+05  6.451855E+03  3.240906E+05 -2.461763E+02  6.125892E+03
       121  25  3.912172E+05  2.096566E+05 -4.393438E+03  3.013028E+05 -3.663831E+03  3.135199E+03
       121  26  3.891985E+05  2.085034E+05 -4.934835E+03  3.004741E+05 -1.856709E+03  4.723829E+03
       121  27  3.880047E+05  2.072764E+05 -3.827783E+03  2.995397E+05 -3.085419E+01  6.287369E+03
       122   1  4.846324E+05  2.762439E+05  1.842929E+04  3.494683E+05 -4.737892E+02 -6.777681E+03
       122   2  4.875974E+05  2.764177E+05  2.395918E+04  3.489140E+05 -5.891836E+03 -1.090496E+04
       122   3  4.934173E+05  2.790845E+05  3.481206E+04  3.473739E+05 -1.142156E+04 -1.488341E+04
       122   4  4.361051E+05  2.411992E+05  7.892706E+03  3.242358E+05 -6.973509E+02 -6.945334E+03
       122   5  4.357528E+05  2.418430E+05  1.291651E+04  3.233335E+05 -5.828750E+03 -1.085776E+04
       122   6  4.381936E+05  2.449180E+05  2.301508E+04  3.214455E+05 -1.107184E+04 -1.462140E+04
       122   7  3.875806E+05  2.061559E+05 -2.643994E+03  2.990057E+05 -9.208897E+02 -7.112969E+03
       122   8  3.839109E+05  2.072694E+05  1.873519E+03  2.977552E+05 -5.765669E+03 -1.081056E+04
       122   9  3.829723E+05  2.107521E+05  1.121757E+04  2.955190E+05 -1.072215E+04 -1.435941E+04
       122  10  4.846324E+05  2.762439E+05  1.842920E+04  3.494683E+05 -4.959021E-11 -7.144979E-11
       122  11  4.875973E+05  2.764176E+05  2.395890E+04  3.489139E+05  4.639293E-10 -1.427660E-10
       122  12  4.934171E+05  2.790842E+05  3.481140E+04  3.473738E+05 -9.589553E-11 -1.604069E-10
       122  13  4.361051E+05  2.411991E+05  7.892614E+03  3.242358E+05 -1.932470E-10 -1.116125E-10
       122  14  4.357528E+05  2.418428E+05  1.291622E+04  3.233335E+05 -2.836884E-10 -1.707755E-10
       122  15  4.381934E+05  2.449177E+05  2.301445E+04  3.214453E+05 -2.646439E-10 -1.793478E-10
       122  16  3.875805E+05  2.061559E+05 -2.644091E+03  2.990056E+05 -1.082309E-10 -1.533542E-10
       122  17  3.839108E+05  2.072692E+05  1.873237E+03  2.977552E+05 -4.849262E-10 -2.007676E-10
       122  18  3.829721E+05  2.107519E+05  1.121697E+04  2.955189E+05 -4.370789E-11 -1.794916E-10
       122  19  4.846324E+05  2.762439E+05  1.842929E+04  3.494683E+05  4.737892E+02  6.777681E+03
       122  20  4.875974E+05  2.764177E+05  2.395918E+04  3.489140E+05  5.891836E+03  1.090496E+04
       122  21  4.934173E+05  2.790845E+05  3.481206E+04  3.473739E+05  1.142156E+04  1.488341E+04
       122  22  4.361051E+05  2.411992E+05  7.892706E+03  3.242358E+05  6.973509E+02  6.945334E+03
       122  23  4.357528E+05  2.418430E+05  1.291651E+04  3.233335E+05  5.828750E+03  1.085776E+04
       122  24  4.381936E+05  2.449180E+05  2.301508E+04  3.214455E+05  1.107184E+04  1.462140E+04
       122  25  3.875806E+05  2.061559E+05 -2.643994E+03  2.990057E+05  9.208897E+02  7.112969E+03
       122  26  3.839109E+05  2.072694E+05  1.873519E+03  2.977552E+05  5.765669E+03  1.081056E+04
       122  27  3.829723E+05  2.107521E+05  1.121757E+04  2.955190E+05  1.072215E+04  1.435941E+04
       123   1  4.916933E+05  2.866788E+05  4.259324E+04  3.508555E+05 -1.454393E+04 -1.715852E+04
       123   2  5.287708E+05  2.656643E+05  6.943097E+04  3.273049E+05 -4.061038E+04 -3.537768E+04
       123   3  5.966820E+05  2.849533E+05  1.303483E+05  2.863485E+05 -6.772705E+04 -5.219571E+04
       123   4  4.405131E+05  2.464752E+05  3.033447E+04  3.228424E+05 -1.426286E+04 -1.694776E+04
       123   5  4.427296E+05  2.574820E+05  5.533716E+04  3.083926E+05 -3.763846E+04 -3.315311E+04
       123   6  4.751956E+05  3.082085E+05  1.120885E+05  2.765373E+05 -6.206218E+04 -4.796009E+04
       123   7  3.893371E+05  2.062745E+05  1.807594E+04  2.948328E+05 -1.398183E+04 -1.673703E+04
       123   8  3.566995E+05  2.493010E+05  4.124392E+04  2.894815E+05 -3.466716E+04 -3.092853E+04
       123   9  3.537331E+05  3.314715E+05  9.383084E+04  2.667232E+05 -5.639893E+04 -4.372379E+04
       123  10  4.916930E+05  2.866785E+05  4.259229E+04  3.508553E+05  4.513739E-11 -6.899837E-11
       123  11  5.287686E+05  2.656625E+05  6.942552E+04  3.273037E+05  9.541581E-11  3.820995E-11
       123  12  5.966764E+05  2.849491E+05  1.303345E+05  2.863456E+05  1.092287E-11  7.955777E-11
       123  13  4.405128E+05  2.464748E+05  3.033355E+04  3.228422E+05  1.627675E-11 -6.001227E-11
       123  14  4.427278E+05  2.574804E+05  5.533244E+04  3.083916E+05 -3.161382E-10  3.174519E-11
       123  15  4.751908E+05  3.082050E+05  1.120769E+05  2.765349E+05 -3.762666E-10  9.263445E-11
       123  16  3.893368E+05  2.062741E+05  1.807504E+04  2.948326E+05  1.297549E-10 -7.661832E-11
       123  17  3.566980E+05  2.492996E+05  4.123987E+04  2.894806E+05 -2.150552E-10 -7.884018E-11
       123  18  3.537292E+05  3.314686E+05  9.382128E+04  2.667212E+05 -7.361440E-11 -3.314932E-11
       123  19  4.916933E+05  2.866788E+05  4.259324E+04  3.508555E+05  1.454393E+04  1.715852E+04
       123  20  5.287708E+05  2.656643E+05  6.943097E+04  3.273049E+05  4.061038E+04  3.537768E+04
       123  21  5.966820E+05  2.849533E+05  1.303483E+05  2.863485E+05  6.772705E+04  5.219571E+04
       123  22  4.405131E+05  2.464752E+05  3.033447E+04  3.228424E+05  1.426286E+04  1.694776E+04
       123  23  4.427296E+05  2.574820E+05  5.533716E+04  3.083926E+05  3.763846E+04  3.315311E+04
       123  24  4.751956E+05  3.082085E+05  1.120885E+05  2.765373E+05  6.206218E+04  4.796009E+04
       123  25  3.893371E+05  2.062745E+05  1.807594E+04  2.948328E+05  1.398183E+04  1.673703E+04
       123  26  3.566995E+05  2.493010E+05  4.124392E+04  2.894815E+05  3.466716E+04  3.092853E+04
       123  27  3.537331E+05  3.314715E+05  9.383084E+04  2.667232E+05  5.639893E+04  4.372379E+04
       124   1  8.383663E+05  1.306269E+05  1.317652E+05  9.707435E+04  6.286993E+04 -3.718657E+03
       124   2  7.774567E+05  7.574023E+04  7.835889E+04  7.387534E+04  3.402212E+04 -1.181676E+04
       124   3  7.277848E+05  5.076641E+04  5.119536E+04  6.118456E+04  5.178891E+03 -1.264992E+04
       124   4  5.250590E+05  5.329368E+04  5.815037E+04  6.245222E+04  4.031780E+04 -3.721923E+03
       124   5  5.206619E+05  1.454359E+04  2.898148E+04  5.719923E+04  2.543765E+04 -1.181826E+04
       124   6  5.250812E+05  3.289746E+03  1.636934E+04  6.245262E+04  1.055882E+04 -1.264992E+04
       124   7  2.118457E+05 -2.404173E+04 -1.546862E+04  2.784764E+04  1.777698E+04 -3.722678E+03
       124   8  2.639313E+05 -4.665587E+04 -2.039856E+04  4.053018E+04  1.685664E+04 -1.181929E+04
       124   9  3.224180E+05 -4.418909E+04 -1.845797E+04  6.372025E+04  1.593705E+04 -1.264991E+04
       124  10  8.383621E+05  1.306258E+05  1.317577E+05  9.707454E+04 -7.267179E-11  8.654339E-12
       124  11  7.774555E+05  7.573977E+04  7.835646E+04  7.387566E+04  8.848906E-11  8.475375E-11
       124  12  7.277848E+05  5.076623E+04  5.119501E+04  6.118461E+04 -1.651582E-12  1.960880E-10
       124  13  5.250573E+05  5.329323E+04  5.814729E+04  6.245234E+04 -4.971553E-11 -1.379426E-13
       124  14  5.206612E+05  1.454327E+04  2.898000E+04  5.719948E+04 -1.346461E-10  5.277815E-11
       124  15  5.250811E+05  3.289545E+03  1.636883E+04  6.245273E+04 -8.812999E-11  1.330787E-10
       124  16  2.118454E+05 -2.404183E+04 -1.546924E+04  2.784769E+04 -9.834705E-11 -5.042454E-11
       124  17  2.639309E+05 -4.665610E+04 -2.039935E+04  4.053034E+04 -2.935131E-10 -2.488833E-11
       124  18  3.224177E+05 -4.418933E+04 -1.845875E+04  6.372042E+04 -2.069547E-10  5.028401E-11
       124  19  8.383663E+05  1.306269E+05  1.317652E+05  9.707435E+04 -6.286993E+04  3.718657E+03
       124  20  7.774567E+05  7.574023E+04  7.835889E+04  7.387534E+04 -3.402212E+04  1.181676E+04
       124  21  7.277848E+05  5.076641E+04  5.119536E+04  6.118456E+04 -5.178891E+03  1.264992E+04
       124  22  5.250590E+05  5.329368E+04  5.815037E+04  6.245222E+04 -4.031780E+04  3.721923E+03
       124  23  5.206619E+05  1.454359E+04  2.898148E+04  5.719923E+04 -2.543765E+04  1.181826E+04
       124  24  5.250812E+05  3.289746E+03  1.636934E+04  6.245262E+04 -1.055882E+04  1.264992E+04
       124  25  2.118457E+05 -2.404173E+04 -1.546862E+04  2.784764E+04 -1.777698E+04  3.722678E+03
       124  26  2.639313E+05 -4.665587E+04 -2.039856E+04  4.053018E+04 -1.685664E+04  1.181929E+04
       124  27  3.224180E+05 -4.418909E+04 -1.845797E+04  6.372025E+04 -1.593705E+04  1.264991E+04
       125   1  6.905245E+05  4.209637E+04  4.108247E+04  6.413422E+04  3.347661E+03 -1.079599E+04
       125   2  6.346856E+05  2.661176E+04  2.645161E+04  5.774742E+04 -2.149140E+03 -7.825827E+03
       125   3  5.801121E+05  1.331433E+04  1.594344E+04  6.235526E+04 -7.645774E+03 -4.147692E+03
       125   4  5.233521E+05  3.031244E+03  1.281424E+04  6.256153E+04  8.374388E+03 -1.079584E+04
       125   5  5.228409E+05  6.254487E+02  8.291212E+03  5.706429E+04  4.238779E+03 -7.825337E+03
       125   6  5.233574E+05  1.713668E+02  6.947189E+03  6.256177E+04  1.028962E+02 -4.146806E+03
       125   7  3.562072E+05 -3.603533E+04 -1.545479E+04  6.098926E+04  1.339981E+04 -1.079572E+04
       125   8  4.110087E+05 -2.536147E+04 -9.869382E+03  5.638130E+04  1.062559E+04 -7.824862E+03
       125   9  4.666060E+05 -1.297172E+04 -2.048922E+03  6.276827E+04  7.850885E+03 -4.145916E+03
       125  10  6.905245E+05  4.209624E+04  4.108223E+04  6.413425E+04  1.071482E-10  1.777676E-10
       125  11  6.346855E+05  2.661169E+04  2.645149E+04  5.774740E+04 -1.842485E-10 -1.349273E-11
       125  12  5.801121E+05  1.331429E+04  1.594330E+04  6.235523E+04 -2.414348E-11 -2.085116E-10
       125  13  5.233520E+05  3.031100E+03  1.281389E+04  6.256160E+04  1.555892E-10  1.289863E-10
       125  14  5.228409E+05  6.253781E+02  8.291063E+03  5.706432E+04  1.882931E-10  1.048320E-10
       125  15  5.233574E+05  1.713483E+02  6.947156E+03  6.256177E+04 -4.885275E-11 -1.299094E-10
       125  16  3.562070E+05 -3.603550E+04 -1.545534E+04  6.098938E+04 -5.180579E-10  7.071272E-11
       125  17  4.110086E+05 -2.536157E+04 -9.869709E+03  5.638136E+04 -1.920274E-10  1.047778E-11
       125  18  4.666059E+05 -1.297176E+04 -2.049070E+03  6.276829E+04 -1.134678E-10 -5.377254E-11
       125  19  6.905245E+05  4.209637E+04  4.108247E+04  6.413422E+04 -3.347661E+03  1.079599E+04
       125  20  6.346856E+05  2.661176E+04  2.645161E+04  5.774742E+04  2.149140E+03  7.825827E+03
       125  21  5.801121E+05  1.331433E+04  1.594344E+04  6.235526E+04  7.645774E+03  4.147692E+03
       125  22  5.233521E+05  3.031244E+03  1.281424E+04  6.256153E+04 -8.374388E+03  1.079584E+04
       125  23  5.228409E+05  6.254487E+02  8.291212E+03  5.706429E+04 -4.238779E+03  7.825337E+03
       125  24  5.233574E+05  1.713668E+02  6.947189E+03  6.256177E+04 -1.028962E+02  4.146806E+03
       125  25  3.562072E+05 -3.603533E+04 -1.545479E+04  6.098926E+04 -1.339981E+04  1.079572E+04
       125  26  4.110087E+05 -2.536147E+04 -9.869382E+03  5.638130E+04 -1.062559E+04  7.824862E+03
       125  27  4.666060E+05 -1.297172E+04 -2.048922E+03  6.276827E+04 -7.850885E+03  4.145916E+03
       126   1  5.449764E+05  5.125895E+03  1.033035E+04  6.286996E+04 -8.851866E+03 -1.750718E+03
       126   2  4.892784E+05 -7.102197E+03  3.421540E+03  5.629317E+04 -1.250302E+04  2.024107E+03
       126   3  4.345892E+05 -1.720942E+04 -5.812652E+02  6.072187E+04 -1.615383E+04  5.292756E+03
       126   4  5.233905E+05  1.700561E+02  7.124119E+03  6.256414E+04 -1.112667E+03 -1.749768E+03
       126   5  5.228020E+05  7.676950E+02  9.265507E+03  5.706132E+04 -5.736800E+03  2.024847E+03
       126   6  5.233877E+05  3.654977E+03  1.498778E+04  6.256382E+04 -1.036089E+04  5.293291E+03
       126   7  5.018052E+05 -4.785772E+03  3.918100E+03  6.225834E+04  6.626274E+03 -1.748826E+03
       126   8  5.563268E+05  8.637553E+03  1.510961E+04  5.782950E+04  1.029772E+03  2.025604E+03
       126   9  6.121941E+05  2.451897E+04  3.055667E+04  6.440605E+04 -4.567156E+03  5.293860E+03
       126  10  5.449763E+05  5.125871E+03  1.033020E+04  6.286994E+04 -1.028246E-10 -1.052111E-10
       126  11  4.892782E+05 -7.102244E+03  3.421239E+03  5.629319E+04 -2.487078E-10  1.973810E-11
       126  12  4.345889E+05 -1.720952E+04 -5.818079E+02  6.072194E+04  1.364433E-10 -4.381422E-11
       126  13  5.233905E+05  1.700524E+02  7.124111E+03  6.256414E+04 -1.573105E-10 -1.080774E-10
       126  14  5.228019E+05  7.676817E+02  9.265438E+03  5.706133E+04  1.954799E-10 -7.012744E-11
       126  15  5.233876E+05  3.654918E+03  1.498753E+04  6.256387E+04  7.981532E-11 -6.224220E-11
       126  16  5.018051E+05 -4.785787E+03  3.918012E+03  6.225835E+04  5.842721E-11 -1.454170E-10
       126  17  5.563268E+05  8.637548E+03  1.510960E+04  5.782950E+04  1.804527E-10 -7.461074E-11
       126  18  6.121940E+05  2.451894E+04  3.055658E+04  6.440607E+04 -1.122562E-10  4.803594E-11
       126  19  5.449764E+05  5.125895E+03  1.033035E+04  6.286996E+04  8.851866E+03  1.750718E+03
       126  20  4.892784E+05 -7.102197E+03  3.421540E+03  5.629317E+04  1.250302E+04 -2.024107E+03
       126  21  4.345892E+05 -1.720942E+04 -5.812652E+02  6.072187E+04  1.615383E+04 -5.292756E+03
       126  22  5.233905E+05  1.700561E+02  7.124119E+03  6.256414E+04  1.112667E+03  1.749768E+03
       126  23  5.228020E+05  7.676950E+02  9.265507E+03  5.706132E+04  5.736800E+03 -2.024847E+03
       126  24  5.233877E+05  3.654977E+03  1.498778E+04  6.256382E+04  1.036089E+04 -5.293291E+03
       126  25  5.018052E+05 -4.785772E+03  3.918100E+03  6.225834E+04 -6.626274E+03  1.748826E+03
       126  26  5.563268E+05  8.637553E+03  1.510961E+04  5.782950E+04 -1.029772E+03 -2.025604E+03
       126  27  6.121941E+05  2.451897E+04  3.055667E+04  6.440605E+04  4.567156E+03 -5.293860E+03
       127   1  4.012607E+05 -2.524691E+04 -2.556415E+03  6.403006E+04 -1.898106E+04  7.301349E+03
       127   2  3.416510E+05 -2.523673E+04 -3.823211E+02  3.719608E+04 -2.611629E+04  7.689086E+03
       127   3  2.907586E+05  5.891111E+03  1.421644E+04  2.099961E+04 -3.325100E+04  2.539910E+03
       127   4  5.254717E+05  3.963468E+03  1.935031E+04  6.248154E+04 -1.292109E+04  7.301887E+03
       127   5  5.201835E+05  1.745417E+04  3.461635E+04  5.716240E+04 -3.069640E+04  7.687750E+03
       127   6  5.254497E+05  6.390153E+04  6.968854E+04  6.247879E+04 -4.847190E+04  2.536937E+03
       127   7  6.496979E+05  3.317303E+04  4.125661E+04  6.093270E+04 -6.859956E+03  7.302394E+03
       127   8  6.987474E+05  6.014466E+04  6.961377E+04  7.713459E+04 -3.527779E+04  7.686120E+03
       127   9  7.601957E+05  1.219146E+05  1.251586E+05  1.039737E+05 -6.369852E+04  2.531934E+03
       127  10  4.012603E+05 -2.524706E+04 -2.557191E+03  6.403017E+04  1.221149E-10 -8.096681E-11
       127  11  3.416502E+05 -2.523698E+04 -3.837133E+02  3.719624E+04  2.301795E-10 -5.736122E-11
       127  12  2.907574E+05  5.890808E+03  1.421435E+04  2.099968E+04  1.497954E-10 -4.755674E-11
       127  13  5.254715E+05  3.963366E+03  1.934990E+04  6.248162E+04  2.223737E-10  2.737062E-11
       127  14  5.201825E+05  1.745385E+04  3.461447E+04  5.716259E+04  4.254975E-11  5.041673E-11
       127  15  5.254472E+05  6.390090E+04  6.968412E+04  6.247889E+04  1.368000E-10  2.753302E-11
       127  16  6.496979E+05  3.317296E+04  4.125642E+04  6.093274E+04 -2.183497E-10  1.186433E-10
       127  17  6.987461E+05  6.014426E+04  6.961132E+04  7.713480E+04 -5.370364E-10  1.416725E-10
       127  18  7.601913E+05  1.219135E+05  1.251510E+05  1.039739E+05 -1.336500E-10  7.221305E-11
       127  19  4.012607E+05 -2.524691E+04 -2.556415E+03  6.403006E+04  1.898106E+04 -7.301349E+03
       127  20  3.416510E+05 -2.523673E+04 -3.823211E+02  3.719608E+04  2.611629E+04 -7.689086E+03
       127  21  2.907586E+05  5.891111E+03  1.421644E+04  2.099961E+04  3.325100E+04 -2.539910E+03
       127  22  5.254717E+05  3.963468E+03  1.935031E+04  6.248154E+04  1.292109E+04 -7.301887E+03
       127  23  5.201835E+05  1.745417E+04  3.461635E+04  5.716240E+04  3.069640E+04 -7.687750E+03
       127  24  5.254497E+05  6.390153E+04  6.968854E+04  6.247879E+04  4.847190E+04 -2.536937E+03
       127  25  6.496979E+05  3.317303E+04  4.125661E+04  6.093270E+04  6.859956E+03 -7.302394E+03
       127  26  6.987474E+05  6.014466E+04  6.961377E+04  7.713459E+04  3.527779E+04 -7.686120E+03
       127  27  7.601957E+05  1.219146E+05  1.251586E+05  1.039737E+05  6.369852E+04 -2.531934E+03
       128   1 -2.021911E+05 -6.954854E+05 -2.087977E+05  1.779332E+05 -3.897098E+03 -1.059428E+05
       128   2 -9.550747E+04 -5.914415E+05 -1.155054E+05  1.313608E+05 -1.152701E+04 -5.760215E+04
       128   3 -4.942581E+04 -5.088463E+05 -6.885782E+04  1.027970E+05 -1.051074E+04 -9.253594E+03
       128   4 -1.115177E+05 -3.289315E+05 -1.219271E+05  1.054825E+05 -3.877231E+03 -8.298806E+04
       128   5 -3.042472E+04 -3.196314E+05 -6.189904E+04  9.645866E+04 -1.152109E+04 -5.122729E+04
       128   6 -7.041301E+03 -3.288981E+05 -3.698112E+04  1.054501E+05 -1.051466E+04 -1.946697E+04
       128   7 -2.083395E+04  3.775843E+04 -3.506097E+04  3.298882E+04 -3.862735E+03 -6.001979E+04
       128   8  3.465816E+04 -4.774791E+04 -8.295501E+03  6.154087E+04 -1.151589E+04 -4.484970E+04
       128   9  3.534151E+04 -1.489181E+05 -5.105219E+03  1.081039E+05 -1.051866E+04 -2.968323E+04
       128  10 -2.021942E+05 -6.954975E+05 -2.088188E+05  1.779328E+05  6.727248E-11 -1.983537E-10
       128  11 -9.550850E+04 -5.914451E+05 -1.155119E+05  1.313603E+05  1.567330E-10  1.057084E-10
       128  12 -4.942595E+04 -5.088464E+05 -6.885819E+04  1.027969E+05  3.292111E-10  1.592000E-10
       128  13 -1.115196E+05 -3.289389E+05 -1.219400E+05  1.054823E+05  1.475311E-10 -2.200354E-11
       128  14 -3.042557E+04 -3.196343E+05 -6.190422E+04  9.645819E+04 -2.098163E-10 -2.005011E-11
       128  15 -7.041521E+03 -3.288985E+05 -3.698204E+04  1.054499E+05 -2.165619E-12  2.614414E-11
       128  16 -2.083493E+04  3.775456E+04 -3.506777E+04  3.298863E+04 -7.123319E-12  1.717795E-10
       128  17  3.465748E+04 -4.775010E+04 -8.299530E+03  6.154045E+04 -3.414132E-12 -1.411513E-10
       128  18  3.534115E+04 -1.489190E+05 -5.107083E+03  1.081037E+05  1.968535E-10 -2.507961E-10
       128  19 -2.021911E+05 -6.954854E+05 -2.087977E+05  1.779332E+05  3.897098E+03  1.059428E+05
       128  20 -9.550747E+04 -5.914415E+05 -1.155054E+05  1.313608E+05  1.152701E+04  5.760215E+04
       128  21 -4.942581E+04 -5.088463E+05 -6.885782E+04  1.027970E+05  1.051074E+04  9.253594E+03
       128  22 -1.115177E+05 -3.289315E+05 -1.219271E+05  1.054825E+05  3.877231E+03  8.298806E+04
       128  23 -3.042472E+04 -3.196314E+05 -6.189904E+04  9.645866E+04  1.152109E+04  5.122729E+04
       128  24 -7.041301E+03 -3.288981E+05 -3.698112E+04  1.054501E+05  1.051466E+04  1.946697E+04
       128  25 -2.083395E+04  3.775843E+04 -3.506097E+04  3.298882E+04  3.862735E+03  6.001979E+04
       128  26  3.465816E+04 -4.774791E+04 -8.295501E+03  6.154087E+04  1.151589E+04  4.484970E+04
       128  27  3.534151E+04 -1.489181E+05 -5.105219E+03  1.081039E+05  1.051866E+04  2.968323E+04
       129   1 -3.475470E+04 -4.456213E+05 -5.171503E+04  1.092091E+05 -7.110560E+03 -4.540466E+03
       129   2 -8.711861E+03 -3.506823E+05 -2.852904E+04  9.648370E+04 -1.925454E+03  7.804722E+03
       129   3  1.037635E+04 -2.590915E+05 -1.512575E+04  1.023201E+05  3.384859E+03  2.015154E+04
       129   4 -6.493389E+03 -3.255067E+05 -3.055848E+04  1.055739E+05 -7.114536E+03 -1.436207E+04
       129   5 -2.483133E+03 -3.238483E+05 -2.422885E+04  9.629251E+04 -1.929642E+03 -2.256689E+03
       129   6 -5.385135E+03 -3.255047E+05 -2.751442E+04  1.055734E+05  3.380581E+03  9.848590E+03
       129   7  2.176723E+04 -2.053777E+05 -9.402098E+03  1.019379E+05 -7.118396E+03 -2.418553E+04
       129   8  3.745613E+03 -2.970133E+05 -1.992829E+04  9.610130E+04 -1.933824E+03 -1.231852E+04
       129   9 -2.114678E+04 -3.919133E+05 -3.990287E+04  1.088264E+05  3.376193E+03 -4.532859E+02
       129  10 -3.475476E+04 -4.456214E+05 -5.171516E+04  1.092091E+05  4.410900E-12 -3.596722E-10
       129  11 -8.711881E+03 -3.506823E+05 -2.852917E+04  9.648372E+04 -4.607783E-11  1.282300E-10
       129  12  1.037623E+04 -2.590919E+05 -1.512653E+04  1.023200E+05  2.554789E-10  1.429502E-10
       129  13 -6.493499E+03 -3.255069E+05 -3.055897E+04  1.055738E+05  2.477868E-10  4.771986E-11
       129  14 -2.483138E+03 -3.238483E+05 -2.422886E+04  9.629250E+04  3.622569E-10  8.172206E-11
       129  15 -5.385174E+03 -3.255048E+05 -2.751462E+04  1.055734E+05 -1.396497E-10  1.243838E-10
       129  16  2.176702E+04 -2.053783E+05 -9.403293E+03  1.019377E+05  1.577167E-10  2.927902E-10
       129  17  3.745569E+03 -2.970135E+05 -1.992858E+04  9.610128E+04  3.406246E-10 -9.137342E-11
       129  18 -2.114679E+04 -3.919133E+05 -3.990289E+04  1.088264E+05  9.820738E-11 -2.012565E-10
       129  19 -3.475470E+04 -4.456213E+05 -5.171503E+04  1.092091E+05  7.110560E+03  4.540466E+03
       129  20 -8.711861E+03 -3.506823E+05 -2.852904E+04  9.648370E+04  1.925454E+03 -7.804722E+03
       129  21  1.037635E+04 -2.590915E+05 -1.512575E+04  1.023201E+05 -3.384859E+03 -2.015154E+04
       129  22 -6.493389E+03 -3.255067E+05 -3.055848E+04  1.055739E+05  7.114536E+03  1.436207E+04
       129  23 -2.483133E+03 -3.238483E+05 -2.422885E+04  9.629251E+04  1.929642E+03  2.256689E+03
       129  24 -5.385135E+03 -3.255047E+05 -2.751442E+04  1.055734E+05 -3.380581E+03 -9.848590E+03
       129  25  2.176723E+04 -2.053777E+05 -9.402098E+03  1.019379E+05  7.118396E+03  2.418553E+04
       129  26  3.745613E+03 -2.970133E+05 -1.992829E+04  9.610130E+04  1.933824E+03  1.231852E+04
       129  27 -2.114678E+04 -3.919133E+05 -3.990287E+04  1.088264E+05 -3.376193E+03  4.532859E+02
       130   1  2.400020E+04 -2.019815E+05 -9.198520E+03  1.075563E+05  6.881025E+03  2.503259E+04
       130   2  2.735628E+04 -1.022201E+05 -8.045819E+03  6.757392E+04  8.693915E+03  3.728539E+04
       130   3 -1.439797E+04 -1.532375E+04 -2.614867E+04  4.569500E+04  3.053407E+03  4.954132E+04
       130   4 -5.844149E+03 -3.281838E+05 -3.217191E+04  1.054702E+05  6.876604E+03  1.440187E+04
       130   5 -2.503620E+04 -3.205146E+05 -5.177757E+04  9.643062E+04  8.697281E+03  4.095390E+04
       130   6 -9.183459E+04 -3.282108E+05 -1.005774E+05  1.054982E+05  3.064574E+03  6.750661E+04
       130   7 -3.568932E+04 -4.543704E+05 -5.514550E+04  1.033846E+05  6.872254E+03  3.773254E+03
       130   8 -7.742848E+04 -5.387617E+05 -9.551124E+04  1.252770E+05  8.700989E+03  4.462115E+04
       130   9 -1.692646E+05 -6.409997E+05 -1.750099E+05  1.652711E+05  3.079206E+03  8.546289E+04
       130  10  2.399998E+04 -2.019821E+05 -9.199787E+03  1.075561E+05  2.452287E-10 -4.788814E-10
       130  11  2.735583E+04 -1.022216E+05 -8.048573E+03  6.757366E+04  2.650973E-10  8.875774E-11
       130  12 -1.439864E+04 -1.532639E+04 -2.615330E+04  4.569487E+04  3.354518E-11  1.671040E-10
       130  13 -5.844256E+03 -3.281840E+05 -3.217239E+04  1.054702E+05  2.384885E-10  3.982937E-12
       130  14 -2.503674E+04 -3.205164E+05 -5.178087E+04  9.643034E+04  3.310216E-10 -5.908082E-11
       130  15 -9.183582E+04 -3.282157E+05 -1.005860E+05  1.054980E+05  5.339182E-11  2.015474E-12
       130  16 -3.568937E+04 -4.543704E+05 -5.514562E+04  1.033846E+05  1.110495E-10  4.163514E-10
       130  17 -7.742910E+04 -5.387638E+05 -9.551513E+04  1.252767E+05 -1.546626E-10 -3.817910E-11
       130  18 -1.692666E+05 -6.410075E+05 -1.750237E+05  1.652709E+05 -5.432328E-11 -2.151494E-10
       130  19  2.400020E+04 -2.019815E+05 -9.198520E+03  1.075563E+05 -6.881025E+03 -2.503259E+04
       130  20  2.735628E+04 -1.022201E+05 -8.045819E+03  6.757392E+04 -8.693915E+03 -3.728539E+04
       130  21 -1.439797E+04 -1.532375E+04 -2.614867E+04  4.569500E+04 -3.053407E+03 -4.954132E+04
       130  22 -5.844149E+03 -3.281838E+05 -3.217191E+04  1.054702E+05 -6.876604E+03 -1.440187E+04
       130  23 -2.503620E+04 -3.205146E+05 -5.177757E+04  9.643062E+04 -8.697281E+03 -4.095390E+04
       130  24 -9.183459E+04 -3.282108E+05 -1.005774E+05  1.054982E+05 -3.064574E+03 -6.750661E+04
       130  25 -3.568932E+04 -4.543704E+05 -5.514550E+04  1.033846E+05 -6.872254E+03 -3.773254E+03
       130  26 -7.742848E+04 -5.387617E+05 -9.551124E+04  1.252770E+05 -8.700989E+03 -4.462115E+04
       130  27 -1.692646E+05 -6.409997E+05 -1.750099E+05  1.652711E+05 -3.079206E+03 -8.546289E+04
       131   1  2.729324E+05  1.879889E+05  3.589091E+04  1.965512E+05  2.671624E+04  2.146194E+04
       131   2  2.856401E+05  1.555677E+05  1.385424E+04  2.151087E+05  1.677494E+04  1.707924E+04
       131   3  3.166865E+05  1.400804E+05  5.483975E+03  2.235862E+05  8.200582E+03  1.087248E+04
       131   4  3.779770E+05  2.050376E+05  5.892708E+04  2.221118E+05  3.225102E+04  2.560913E+04
       131   5  3.593119E+05  1.799646E+05  2.913681E+04  2.393231E+05  1.880293E+04  1.859882E+04
       131   6  3.597419E+05  1.725835E+05  1.605229E+04  2.464546E+05  6.722569E+03  9.764413E+03
       131   7  4.830380E+05  2.220880E+05  8.196393E+04  2.476750E+05  3.778726E+04  2.975642E+04
       131   8  4.329904E+05  2.043624E+05  4.441926E+04  2.635397E+05  2.083124E+04  2.011847E+04
       131   9  4.027985E+05  2.050872E+05  2.662017E+04  2.693245E+05  5.244450E+03  8.656258E+03
       131  10  2.729315E+05  1.879882E+05  3.588870E+04  1.965507E+05 -1.104569E-10 -3.645267E-11
       131  11  2.856397E+05  1.555673E+05  1.385317E+04  2.151085E+05 -1.456472E-10 -3.006476E-11
       131  12  3.166864E+05  1.400802E+05  5.483627E+03  2.235861E+05 -3.028319E-11  1.912183E-11
       131  13  3.779757E+05  2.050366E+05  5.892390E+04  2.221111E+05  3.247502E-10  1.761055E-11
       131  14  3.593114E+05  1.799642E+05  2.913550E+04  2.393228E+05 -1.822739E-10  5.565265E-11
       131  15  3.597418E+05  1.725833E+05  1.605202E+04  2.464546E+05 -1.168094E-10  1.099903E-10
       131  16  4.830362E+05  2.220867E+05  8.195959E+04  2.476741E+05  2.187538E-10  9.158396E-11
       131  17  4.329898E+05  2.043618E+05  4.441769E+04  2.635394E+05  6.149725E-11  1.262529E-10
       131  18  4.027984E+05  2.050871E+05  2.661998E+04  2.693244E+05  4.338883E-11  2.755504E-10
       131  19  2.729324E+05  1.879889E+05  3.589091E+04  1.965512E+05 -2.671624E+04 -2.146194E+04
       131  20  2.856401E+05  1.555677E+05  1.385424E+04  2.151087E+05 -1.677494E+04 -1.707924E+04
       131  21  3.166865E+05  1.400804E+05  5.483975E+03  2.235862E+05 -8.200582E+03 -1.087248E+04
       131  22  3.779770E+05  2.050376E+05  5.892708E+04  2.221118E+05 -3.225102E+04 -2.560913E+04
       131  23  3.593119E+05  1.799646E+05  2.913681E+04  2.393231E+05 -1.880293E+04 -1.859882E+04
       131  24  3.597419E+05  1.725835E+05  1.605229E+04  2.464546E+05 -6.722569E+03 -9.764413E+03
       131  25  4.830380E+05  2.220880E+05  8.196393E+04  2.476750E+05 -3.778726E+04 -2.975642E+04
       131  26  4.329904E+05  2.043624E+05  4.441926E+04  2.635397E+05 -2.083124E+04 -2.011847E+04
       131  27  4.027985E+05  2.050872E+05  2.662017E+04  2.693245E+05 -5.244450E+03 -8.656258E+03
       132   1  3.212966E+05  1.480062E+05  3.834206E+03  2.279661E+05  6.809873E+03  9.043316E+03
       132   2  3.325386E+05  1.565505E+05  1.954393E+03  2.359222E+05  4.971190E+03  6.386565E+03
       132   3  3.484617E+05  1.630230E+05  2.510915E+03  2.424093E+05  3.275215E+03  3.539321E+03
       132   4  3.585436E+05  1.717453E+05  1.224454E+04  2.457161E+05  5.421033E+03  8.002064E+03
       132   5  3.556130E+05  1.717612E+05  7.053949E+03  2.471864E+05  3.216231E+03  5.070885E+03
       132   6  3.574424E+05  1.697845E+05  4.617042E+03  2.471875E+05  1.154183E+03  1.949233E+03
       132   7  3.957923E+05  1.954851E+05  2.065482E+04  2.634672E+05  4.032080E+03  6.960737E+03
       132   8  3.786882E+05  1.869724E+05  1.215358E+04  2.584511E+05  1.461166E+03  3.755130E+03
       132   9  3.664235E+05  1.765462E+05  6.723257E+03  2.519659E+05 -9.669338E+02  3.590786E+02
       132  10  3.212966E+05  1.480061E+05  3.833966E+03  2.279661E+05 -6.494804E-11  1.435727E-10
       132  11  3.325386E+05  1.565505E+05  1.954270E+03  2.359222E+05 -1.817054E-11  1.877343E-10
       132  12  3.484617E+05  1.630230E+05  2.510872E+03  2.424093E+05  1.215190E-10  1.633610E-10
       132  13  3.585436E+05  1.717452E+05  1.224436E+04  2.457161E+05 -7.953057E-11  1.726354E-10
       132  14  3.556129E+05  1.717612E+05  7.053881E+03  2.471863E+05 -2.009631E-10  1.305334E-10
       132  15  3.574424E+05  1.697845E+05  4.617032E+03  2.471875E+05  4.202729E-10 -7.705579E-11
       132  16  3.957923E+05  1.954850E+05  2.065469E+04  2.634672E+05 -5.695940E-11  1.256823E-10
       132  17  3.786882E+05  1.869724E+05  1.215355E+04  2.584511E+05 -2.967502E-10  3.892851E-11
       132  18  3.664235E+05  1.765462E+05  6.723255E+03  2.519659E+05 -8.275701E-11 -8.444935E-11
       132  19  3.212966E+05  1.480062E+05  3.834206E+03  2.279661E+05 -6.809873E+03 -9.043316E+03
       132  20  3.325386E+05  1.565505E+05  1.954393E+03  2.359222E+05 -4.971190E+03 -6.386565E+03
       132  21  3.484617E+05  1.630230E+05  2.510915E+03  2.424093E+05 -3.275215E+03 -3.539321E+03
       132  22  3.585436E+05  1.717453E+05  1.224454E+04  2.457161E+05 -5.421033E+03 -8.002064E+03
       132  23  3.556130E+05  1.717612E+05  7.053949E+03  2.471864E+05 -3.216231E+03 -5.070885E+03
       132  24  3.574424E+05  1.697845E+05  4.617042E+03  2.471875E+05 -1.154183E+03 -1.949233E+03
       132  25  3.957923E+05  1.954851E+05  2.065482E+04  2.634672E+05 -4.032080E+03 -6.960737E+03
       132  26  3.786882E+05  1.869724E+05  1.215358E+04  2.584511E+05 -1.461166E+03 -3.755130E+03
       132  27  3.664235E+05  1.765462E+05  6.723257E+03  2.519659E+05  9.669338E+02 -3.590786E+02
       133   1  3.565605E+05  1.691693E+05  3.805142E+03  2.467182E+05  3.151644E+03  2.431921E+03
       133   2  3.678826E+05  1.801388E+05  6.351332E+03  2.539862E+05  2.497183E+03  2.287153E+02
       133   3  3.830193E+05  1.878730E+05  1.016583E+04  2.602438E+05  1.837637E+03 -1.967722E+03
       133   4  3.573581E+05  1.697326E+05  4.010718E+03  2.471209E+05  1.038692E+03  8.478915E+02
       133   5  3.554587E+05  1.713633E+05  3.691424E+03  2.476173E+05  3.972494E+02 -1.345559E+03
       133   6  3.573711E+05  1.697559E+05  4.629277E+03  2.471031E+05 -2.492480E+02 -3.532228E+03
       133   7  3.581558E+05  1.702959E+05  4.216315E+03  2.475237E+05 -1.074220E+03 -7.361078E+02
       133   8  3.430351E+05  1.625879E+05  1.031583E+03  2.412485E+05 -1.702606E+03 -2.919775E+03
       133   9  3.317236E+05  1.516393E+05 -9.072714E+02  2.339631E+05 -2.336017E+03 -5.096646E+03
       133  10  3.565605E+05  1.691693E+05  3.805112E+03  2.467182E+05 -1.252156E-10  9.035136E-11
       133  11  3.678826E+05  1.801388E+05  6.351320E+03  2.539862E+05  6.080029E-11  5.608492E-11
       133  12  3.830193E+05  1.878730E+05  1.016581E+04  2.602438E+05  5.981816E-11 -1.244315E-11
       133  13  3.573581E+05  1.697326E+05  4.010714E+03  2.471209E+05 -1.366685E-10 -3.205498E-11
       133  14  3.554587E+05  1.713633E+05  3.691421E+03  2.476173E+05 -1.291146E-10 -1.580154E-11
       133  15  3.573711E+05  1.697559E+05  4.629253E+03  2.471031E+05 -1.694089E-10  1.039841E-10
       133  16  3.581558E+05  1.702959E+05  4.216311E+03  2.475237E+05  2.779844E-11 -9.302730E-11
       133  17  3.430351E+05  1.625879E+05  1.031562E+03  2.412485E+05  1.301654E-10 -2.220406E-11
       133  18  3.317236E+05  1.516392E+05 -9.073304E+02  2.339631E+05 -2.541534E-11  8.081861E-11
       133  19  3.565605E+05  1.691693E+05  3.805142E+03  2.467182E+05 -3.151644E+03 -2.431921E+03
       133  20  3.678826E+05  1.801388E+05  6.351332E+03  2.539862E+05 -2.497183E+03 -2.287153E+02
       133  21  3.830193E+05  1.878730E+05  1.016583E+04  2.602438E+05 -1.837637E+03  1.967722E+03
       133  22  3.573581E+05  1.697326E+05  4.010718E+03  2.471209E+05 -1.038692E+03 -8.478915E+02
       133  23  3.554587E+05  1.713633E+05  3.691424E+03  2.476173E+05 -3.972494E+02  1.345559E+03
       133  24  3.573711E+05  1.697559E+05  4.629277E+03  2.471031E+05  2.492480E+02  3.532228E+03
       133  25  3.581558E+05  1.702959E+05  4.216315E+03  2.475237E+05  1.074220E+03  7.361078E+02
       133  26  3.430351E+05  1.625879E+05  1.031583E+03  2.412485E+05  1.702606E+03  2.919775E+03
       133  27  3.317236E+05  1.516393E+05 -9.072714E+02  2.339631E+05  2.336017E+03  5.096646E+03
       134   1  3.912607E+05  1.942116E+05  1.304686E+04  2.647390E+05  1.620902E+03 -3.136916E+03
       134   2  4.038020E+05  2.044234E+05  1.956530E+04  2.709694E+05 -1.767132E+03 -7.183785E+03
       134   3  4.216004E+05  2.132370E+05  3.006477E+04  2.755799E+05 -5.346843E+03 -1.097538E+04
       134   4  3.574923E+05  1.698274E+05  5.600987E+03  2.472030E+05 -4.778125E+02 -4.710321E+03
       134   5  3.556446E+05  1.718755E+05  9.058190E+03  2.470403E+05 -3.374785E+03 -8.389121E+03
       134   6  3.589473E+05  1.724190E+05  1.607078E+04  2.452575E+05 -6.463240E+03 -1.181249E+04
       134   7  3.237245E+05  1.454435E+05 -1.845154E+03  2.296678E+05 -2.576417E+03 -6.283639E+03
       134   8  3.074899E+05  1.393291E+05 -1.449014E+03  2.231134E+05 -4.982270E+03 -9.594338E+03
       134   9  2.963001E+05  1.316038E+05  2.077014E+03  2.149391E+05 -7.579463E+03 -1.264948E+04
       134  10  3.912607E+05  1.942116E+05  1.304684E+04  2.647390E+05  2.775615E-10  1.389870E-10
       134  11  4.038020E+05  2.044233E+05  1.956519E+04  2.709694E+05  5.099634E-10  1.164887E-10
       134  12  4.216003E+05  2.132369E+05  3.006449E+04  2.755799E+05  3.482544E-10  1.549880E-10
       134  13  3.574923E+05  1.698274E+05  5.600945E+03  2.472030E+05 -1.672627E-10  1.122280E-10
       134  14  3.556446E+05  1.718755E+05  9.058037E+03  2.470403E+05  4.337393E-10  2.286848E-11
       134  15  3.589472E+05  1.724188E+05  1.607044E+04  2.452574E+05  4.323033E-10 -2.092856E-11
       134  16  3.237245E+05  1.454434E+05 -1.845241E+03  2.296678E+05 -4.114719E-10  1.236881E-11
       134  17  3.074899E+05  1.393289E+05 -1.449233E+03  2.231133E+05 -4.319992E-10 -9.384553E-11
       134  18  2.963000E+05  1.316036E+05  2.076605E+03  2.149390E+05  9.451881E-11 -7.066046E-11
       134  19  3.912607E+05  1.942116E+05  1.304686E+04  2.647390E+05 -1.620902E+03  3.136916E+03
       134  20  4.038020E+05  2.044234E+05  1.956530E+04  2.709694E+05  1.767132E+03  7.183785E+03
       134  21  4.216004E+05  2.132370E+05  3.006477E+04  2.755799E+05  5.346843E+03  1.097538E+04
       134  22  3.574923E+05  1.698274E+05  5.600987E+03  2.472030E+05  4.778125E+02  4.710321E+03
       134  23  3.556446E+05  1.718755E+05  9.058190E+03  2.470403E+05  3.374785E+03  8.389121E+03
       134  24  3.589473E+05  1.724190E+05  1.607078E+04  2.452575E+05  6.463240E+03  1.181249E+04
       134  25  3.237245E+05  1.454435E+05 -1.845154E+03  2.296678E+05  2.576417E+03  6.283639E+03
       134  26  3.074899E+05  1.393291E+05 -1.449014E+03  2.231134E+05  4.982270E+03  9.594338E+03
       134  27  2.963001E+05  1.316038E+05  2.077014E+03  2.149391E+05  7.579463E+03  1.264948E+04
       135   1  4.281507E+05  2.240394E+05  3.741318E+04  2.819501E+05 -7.096897E+03 -1.298841E+04
       135   2  4.644458E+05  2.194741E+05  6.018498E+04  2.719093E+05 -2.805405E+04 -2.780551E+04
       135   3  5.259233E+05  2.405234E+05  1.091417E+05  2.488379E+05 -5.083640E+04 -4.019045E+04
       135   4  3.605370E+05  1.735307E+05  2.116357E+04  2.462394E+05 -8.332406E+03 -1.391476E+04
       135   5  3.605420E+05  1.827410E+05  3.857622E+04  2.366187E+05 -2.461421E+04 -2.522832E+04
       135   6  3.847159E+05  2.165552E+05  7.812118E+04  2.139671E+05 -4.271954E+04 -3.411057E+04
       135   7  2.929287E+05  1.230252E+05  4.913657E+03  2.105333E+05 -9.567736E+03 -1.484097E+04
       135   8  2.566500E+05  1.460090E+05  1.696691E+04  2.013325E+05 -2.117514E+04 -2.265131E+04
       135   9  2.435310E+05  1.925890E+05  4.710036E+04  1.790995E+05 -3.460513E+04 -2.803064E+04
       135  10  4.281506E+05  2.240392E+05  3.741277E+04  2.819500E+05  3.124424E-11 -9.584392E-11
       135  11  4.644448E+05  2.194731E+05  6.018205E+04  2.719087E+05 -2.660062E-11  1.342368E-10
       135  12  5.259201E+05  2.405210E+05  1.091338E+05  2.488362E+05  1.163100E-10  1.906829E-10
       135  13  3.605369E+05  1.735305E+05  2.116308E+04  2.462393E+05 -5.419564E-11  2.845832E-11
       135  14  3.605411E+05  1.827402E+05  3.857389E+04  2.366182E+05  9.152172E-11  4.621620E-11
       135  15  3.847136E+05  2.165535E+05  7.811557E+04  2.139659E+05 -2.558862E-10  7.409501E-12
       135  16  2.929285E+05  1.230249E+05  4.913071E+03  2.105332E+05  3.792918E-10  1.282726E-10
       135  17  2.566494E+05  1.460084E+05  1.696510E+04  2.013321E+05 -5.282926E-11  7.606842E-11
       135  18  2.435296E+05  1.925878E+05  4.709664E+04  1.790988E+05 -2.643581E-10 -9.754902E-11
       135  19  4.281507E+05  2.240394E+05  3.741318E+04  2.819501E+05  7.096897E+03  1.298841E+04
       135  20  4.644458E+05  2.194741E+05  6.018498E+04  2.719093E+05  2.805405E+04  2.780551E+04
       135  21  5.259233E+05  2.405234E+05  1.091417E+05  2.488379E+05  5.083640E+04  4.019045E+04
       135  22  3.605370E+05  1.735307E+05  2.116357E+04  2.462394E+05  8.332406E+03  1.391476E+04
       135  23  3.605420E+05  1.827410E+05  3.857622E+04  2.366187E+05  2.461421E+04  2.522832E+04
       135  24  3.847159E+05  2.165552E+05  7.812118E+04  2.139671E+05  4.271954E+04  3.411057E+04
       135  25  2.929287E+05  1.230252E+05  4.913657E+03  2.105333E+05  9.567736E+03  1.484097E+04
       135  26  2.566500E+05  1.460090E+05  1.696691E+04  2.013325E+05  2.117514E+04  2.265131E+04
       135  27  2.435310E+05  1.925890E+05  4.710036E+04  1.790995E+05  3.460513E+04  2.803064E+04
       136   1  6.131333E+05  9.095811E+04  9.278598E+04  6.722777E+04  4.714542E+04 -2.218347E+03
       136   2  5.748255E+05  4.872624E+04  5.373379E+04  4.900896E+04  2.632903E+04 -7.032273E+03
       136   3  5.453334E+05  3.091879E+04  3.433144E+04  3.724127E+04  5.514034E+03 -7.479877E+03
       136   4  4.251084E+05  4.453470E+04  4.858321E+04  3.830455E+04  3.369925E+04 -2.220641E+03
       136   5  4.214337E+05  1.215780E+04  2.419981E+04  3.507969E+04  2.127413E+04 -7.033137E+03
       136   6  4.251205E+05  2.752465E+03  1.364545E+04  3.830529E+04  8.849167E+03 -7.479820E+03
       136   7  2.371182E+05 -1.888001E+03  4.379140E+03  9.390138E+03  2.025712E+04 -2.221683E+03
       136   8  2.680649E+05 -2.441129E+04 -5.335053E+03  2.115394E+04  1.622044E+04 -7.033774E+03
       136   9  3.049219E+05 -2.541463E+04 -7.040993E+03  3.936909E+04  1.218367E+04 -7.479753E+03
       136  10  6.131309E+05  9.095751E+04  9.278180E+04  6.722785E+04  6.812642E-11  3.436855E-11
       136  11  5.748247E+05  4.872600E+04  5.373240E+04  4.900911E+04 -1.117032E-11  1.097395E-10
       136  12  5.453334E+05  3.091872E+04  3.433128E+04  3.724131E+04  2.083286E-10  1.168148E-10
       136  13  4.251072E+05  4.453439E+04  4.858107E+04  3.830461E+04  1.245433E-10  2.185002E-11
       136  14  4.214332E+05  1.215763E+04  2.419887E+04  3.507981E+04  4.913888E-11  8.762749E-11
       136  15  4.251204E+05  2.752384E+03  1.364520E+04  3.830534E+04  1.294278E-10  1.353512E-10
       136  16  2.371178E+05 -1.888116E+03  4.378360E+03  9.390174E+03 -1.452583E-10 -6.758031E-13
       136  17  2.680646E+05 -2.441141E+04 -5.335640E+03  2.115403E+04 -1.372581E-10 -6.541982E-12
       136  18  3.049217E+05 -2.541473E+04 -7.041377E+03  3.936916E+04 -8.560019E-11  1.263452E-10
       136  19  6.131333E+05  9.095811E+04  9.278598E+04  6.722777E+04 -4.714542E+04  2.218347E+03
       136  20  5.748255E+05  4.872624E+04  5.373379E+04  4.900896E+04 -2.632903E+04  7.032273E+03
       136  21  5.453334E+05  3.091879E+04  3.433144E+04  3.724127E+04 -5.514034E+03  7.479877E+03
       136  22  4.251084E+05  4.453470E+04  4.858321E+04  3.830455E+04 -3.369925E+04  2.220641E+03
       136  23  4.214337E+05  1.215780E+04  2.419981E+04  3.507969E+04 -2.127413E+04  7.033137E+03
       136  24  4.251205E+05  2.752465E+03  1.364545E+04  3.830529E+04 -8.849167E+03  7.479820E+03
       136  25  2.371182E+05 -1.888001E+03  4.379140E+03  9.390138E+03 -2.025712E+04  2.221683E+03
       136  26  2.680649E+05 -2.441129E+04 -5.335053E+03  2.115394E+04 -1.622044E+04  7.033774E+03
       136  27  3.049219E+05 -2.541463E+04 -7.040993E+03  3.936909E+04 -1.218367E+04  7.479753E+03
       137   1  5.221049E+05  2.554627E+04  2.733971E+04  3.967803E+04  3.908341E+03 -6.334631E+03
       137   2  4.877528E+05  1.551678E+04  1.734778E+04  3.556260E+04 -3.240991E+02 -4.497215E+03
       137   3  4.543943E+05  7.253288E+03  1.055120E+04  3.819077E+04 -4.556398E+03 -2.236040E+03
       137   4  4.236742E+05  2.535512E+03  1.066419E+04  3.837057E+04  7.031178E+03 -6.334533E+03
       137   5  4.232496E+05  5.236339E+02  6.851991E+03  3.499884E+04  3.613232E+03 -4.496979E+03
       137   6  4.236765E+05  1.366336E+02  5.670172E+03  3.837072E+04  1.952095E+02 -2.235653E+03
       137   7  3.252531E+05 -2.047575E+04 -6.011606E+03  3.706332E+04  1.015354E+04 -6.334447E+03
       137   8  3.587506E+05 -1.446972E+04 -3.643857E+03  3.443514E+04  7.550168E+03 -4.496750E+03
       137   9  3.929596E+05 -6.980056E+03  7.892032E+02  3.855067E+04  4.946590E+03 -2.235263E+03
       137  10  5.221048E+05  2.554623E+04  2.733961E+04  3.967805E+04  2.577905E-10  7.683714E-11
       137  11  4.877528E+05  1.551676E+04  1.734774E+04  3.556259E+04  6.986750E-11 -1.159969E-11
       137  12  4.543943E+05  7.253277E+03  1.055115E+04  3.819076E+04 -1.436490E-10 -6.612349E-11
       137  13  4.236741E+05  2.535455E+03  1.066402E+04  3.837061E+04  3.318986E-10  9.828192E-11
       137  14  4.232496E+05  5.236087E+02  6.851929E+03  3.499885E+04  2.108544E-10  7.699798E-11
       137  15  4.236765E+05  1.366282E+02  5.670163E+03  3.837072E+04  7.058171E-12  9.147055E-12
       137  16  3.252529E+05 -2.047582E+04 -6.011875E+03  3.706337E+04 -2.909825E-10  1.504440E-10
       137  17  3.587506E+05 -1.446976E+04 -3.644002E+03  3.443517E+04 -1.961211E-10  7.623578E-11
       137  18  3.929596E+05 -6.980068E+03  7.891479E+02  3.855068E+04 -1.965805E-10  2.569442E-11
       137  19  5.221049E+05  2.554627E+04  2.733971E+04  3.967803E+04 -3.908341E+03  6.334631E+03
       137  20  4.877528E+05  1.551678E+04  1.734778E+04  3.556260E+04  3.240991E+02  4.497215E+03
       137  21  4.543943E+05  7.253288E+03  1.055120E+04  3.819077E+04  4.556398E+03  2.236040E+03
       137  22  4.236742E+05  2.535512E+03  1.066419E+04  3.837057E+04 -7.031178E+03  6.334533E+03
       137  23  4.232496E+05  5.236339E+02  6.851991E+03  3.499884E+04 -3.613232E+03  4.496979E+03
       137  24  4.236765E+05  1.366336E+02  5.670172E+03  3.837072E+04 -1.952095E+02  2.235653E+03
       137  25  3.252531E+05 -2.047575E+04 -6.011606E+03  3.706332E+04 -1.015354E+04  6.334447E+03
       137  26  3.587506E+05 -1.446972E+04 -3.643857E+03  3.443514E+04 -7.550168E+03  4.496750E+03
       137  27  3.929596E+05 -6.980056E+03  7.892032E+02  3.855067E+04 -4.946590E+03  2.235263E+03
       138   1  4.328451E+05  2.230493E+03  7.104483E+03  3.860979E+04 -5.540137E+03 -7.657888E+02
       138   2  3.985782E+05 -5.166131E+03  3.201355E+03  3.438269E+04 -8.630334E+03  1.544536E+03
       138   3  3.651447E+05 -1.084464E+04  1.738799E+03  3.690508E+04 -1.172031E+04  3.533878E+03
       138   4  4.236960E+05  1.356399E+02  5.774943E+03  3.837202E+04 -7.932758E+02 -7.653802E+02
       138   5  4.232260E+05  6.067339E+02  7.428796E+03  3.499722E+04 -4.500351E+03  1.544849E+03
       138   6  4.236945E+05  2.902810E+03  1.195106E+04  3.837183E+04 -8.207352E+03  3.534095E+03
       138   7  4.145471E+05 -1.959205E+03  4.445487E+03  3.813424E+04  3.953518E+03 -7.649752E+02
       138   8  4.478743E+05  6.379578E+03  1.165628E+04  3.561177E+04 -3.702098E+02  1.545170E+03
       138   9  4.822476E+05  1.665009E+04  2.216324E+04  3.983873E+04 -4.694075E+03  3.534328E+03
       138  10  4.328450E+05  2.230484E+03  7.104424E+03  3.860979E+04  2.451446E-11 -7.623839E-11
       138  11  3.985781E+05 -5.166154E+03  3.201210E+03  3.438270E+04 -1.929055E-10  4.947731E-11
       138  12  3.651445E+05 -1.084469E+04  1.738517E+03  3.690511E+04  5.404243E-11  9.165793E-11
       138  13  4.236960E+05  1.356391E+02  5.774941E+03  3.837202E+04  7.211446E-12 -5.684221E-11
       138  14  4.232259E+05  6.067260E+02  7.428753E+03  3.499722E+04 -8.924629E-11 -8.226848E-11
       138  15  4.236944E+05  2.902778E+03  1.195091E+04  3.837186E+04 -2.127555E-10  2.440159E-11
       138  16  4.145471E+05 -1.959210E+03  4.445456E+03  3.813425E+04  1.421769E-10 -3.419808E-11
       138  17  4.478743E+05  6.379575E+03  1.165628E+04  3.561177E+04  2.209964E-10 -5.819907E-11
       138  18  4.822476E+05  1.665007E+04  2.216318E+04  3.983874E+04  9.484205E-11 -4.282584E-11
       138  19  4.328451E+05  2.230493E+03  7.104483E+03  3.860979E+04  5.540137E+03  7.657888E+02
       138  20  3.985782E+05 -5.166131E+03  3.201355E+03  3.438269E+04  8.630334E+03 -1.544536E+03
       138  21  3.651447E+05 -1.084464E+04  1.738799E+03  3.690508E+04  1.172031E+04 -3.533878E+03
       138  22  4.236960E+05  1.356399E+02  5.774943E+03  3.837202E+04  7.932758E+02  7.653802E+02
       138  23  4.232260E+05  6.067339E+02  7.428796E+03  3.499722E+04  4.500351E+03 -1.544849E+03
       138  24  4.236945E+05  2.902810E+03  1.195106E+04  3.837183E+04  8.207352E+03 -3.534095E+03
       138  25  4.145471E+05 -1.959205E+03  4.445487E+03  3.813424E+04 -3.953518E+03  7.649752E+02
       138  26  4.478743E+05  6.379578E+03  1.165628E+04  3.561177E+04  3.702098E+02 -1.545170E+03
       138  27  4.822476E+05  1.665009E+04  2.216324E+04  3.983873E+04  4.694075E+03 -3.534328E+03
       139   1  3.450757E+05 -1.572111E+04  1.299380E+03  3.955037E+04 -1.392942E+04  4.757828E+03
       139   2  3.075734E+05 -1.327160E+04  5.319808E+03  1.918562E+04 -2.136994E+04  4.931893E+03
       139   3  2.773036E+05  1.422414E+04  2.044468E+04  5.335918E+03 -2.881019E+04  1.619689E+03
       139   4  4.253507E+05  3.149009E+03  1.541052E+04  3.831963E+04 -1.024811E+04  4.758064E+03
       139   5  4.211487E+05  1.387860E+04  2.753636E+04  3.506147E+04 -2.438747E+04  4.931120E+03
       139   6  4.253382E+05  5.081320E+04  5.541497E+04  3.831788E+04 -3.852719E+04  1.617791E+03
       139   7  5.056320E+05  2.201879E+04  2.952147E+04  3.708873E+04 -6.566342E+03  4.758286E+03
       139   8  5.347369E+05  4.102898E+04  4.975247E+04  5.094029E+04 -2.740554E+04  4.930194E+03
       139   9  5.733954E+05  8.740483E+04  9.038469E+04  7.130774E+04 -4.824650E+04  1.614862E+03
       139  10  3.450755E+05 -1.572119E+04  1.298973E+03  3.955043E+04  6.846878E-11  1.592784E-10
       139  11  3.075729E+05 -1.327175E+04  5.318904E+03  1.918570E+04 -3.034832E-11  1.133703E-10
       139  12  2.773027E+05  1.422391E+04  2.044311E+04  5.335956E+03  2.140536E-11  4.856267E-11
       139  13  4.253506E+05  3.148956E+03  1.541028E+04  3.831967E+04  1.671069E-10  1.093688E-10
       139  14  4.211481E+05  1.387841E+04  2.753520E+04  3.506157E+04 -4.549286E-11  9.642579E-11
       139  15  4.253366E+05  5.081280E+04  5.541218E+04  3.831793E+04 -2.007609E-11  1.802741E-11
       139  16  5.056320E+05  2.201875E+04  2.952135E+04  3.708876E+04  1.343193E-10 -2.239109E-11
       139  17  5.347361E+05  4.102875E+04  4.975101E+04  5.094040E+04  7.310361E-11 -9.396776E-12
       139  18  5.733929E+05  8.740420E+04  9.038031E+04  7.130780E+04 -9.482813E-11 -7.433369E-12
       139  19  3.450757E+05 -1.572111E+04  1.299380E+03  3.955037E+04  1.392942E+04 -4.757828E+03
       139  20  3.075734E+05 -1.327160E+04  5.319808E+03  1.918562E+04  2.136994E+04 -4.931893E+03
       139  21  2.773036E+05  1.422414E+04  2.044468E+04  5.335918E+03  2.881019E+04 -1.619689E+03
       139  22  4.253507E+05  3.149009E+03  1.541052E+04  3.831963E+04  1.024811E+04 -4.758064E+03
       139  23  4.211487E+05  1.387860E+04  2.753636E+04  3.506147E+04  2.438747E+04 -4.931120E+03
       139  24  4.253382E+05  5.081320E+04  5.541497E+04  3.831788E+04  3.852719E+04 -1.617791E+03
       139  25  5.056320E+05  2.201879E+04  2.952147E+04  3.708873E+04  6.566342E+03 -4.758286E+03
       139  26  5.347369E+05  4.102898E+04  4.975247E+04  5.094029E+04  2.740554E+04 -4.930194E+03
       139  27  5.733954E+05  8.740483E+04  9.038469E+04  7.130774E+04  4.824650E+04 -1.614862E+03
       140   1 -1.490902E+05 -5.153204E+05 -1.555341E+05  1.229714E+05 -2.396812E+03 -8.391800E+04
       140   2 -6.564791E+04 -4.519220E+05 -8.523724E+04  8.602149E+04 -7.160337E+03 -4.698867E+04
       140   3 -3.263638E+04 -4.059429E+05 -5.160271E+04  5.961080E+04 -6.685284E+03 -1.005537E+04
       140   4 -9.403692E+04 -2.927240E+05 -1.028302E+05  6.181418E+04 -2.385971E+03 -6.973879E+04
       140   5 -2.567101E+04 -2.848787E+05 -5.239588E+04  5.653497E+04 -7.157123E+03 -4.285943E+04
       140   6 -5.985237E+03 -2.927055E+05 -3.163485E+04  6.179884E+04 -6.686575E+03 -1.597993E+04
       140   7 -3.897304E+04 -7.007362E+04 -5.012695E+04  6.348633E+02 -2.377928E+03 -5.555452E+04
       140   8  1.430747E+04 -1.178066E+05 -1.955535E+04  2.704032E+04 -7.154302E+03 -3.872910E+04
       140   9  2.066524E+04 -1.794554E+05 -1.166732E+04  6.398728E+04 -6.687907E+03 -2.190553E+04
       140  10 -1.490921E+05 -5.153279E+05 -1.555474E+05  1.229713E+05  6.697144E-11 -4.365950E-10
       140  11 -6.564856E+04 -4.519244E+05 -8.524149E+04  8.602122E+04 -1.166037E-10 -6.448710E-11
       140  12 -3.263645E+04 -4.059430E+05 -5.160299E+04  5.961075E+04 -1.335962E-10  4.086769E-10
       140  13 -9.403823E+04 -2.927292E+05 -1.028394E+05  6.181404E+04  7.685571E-11  4.669919E-12
       140  14 -2.567156E+04 -2.848806E+05 -5.239943E+04  5.653472E+04 -5.077510E-10 -6.953811E-11
       140  15 -5.985353E+03 -2.927058E+05 -3.163541E+04  6.179875E+04 -3.358929E-10  1.141023E-11
       140  16 -3.897387E+04 -7.007694E+04 -5.013276E+04  6.347569E+02 -1.405399E-10  4.119629E-10
       140  17  1.430702E+04 -1.178082E+05 -1.955826E+04  2.704010E+04 -3.222920E-11  4.022792E-11
       140  18  2.066506E+04 -1.794560E+05 -1.166831E+04  6.398716E+04 -3.813609E-10 -3.656529E-10
       140  19 -1.490902E+05 -5.153204E+05 -1.555341E+05  1.229714E+05  2.396812E+03  8.391800E+04
       140  20 -6.564791E+04 -4.519220E+05 -8.523724E+04  8.602149E+04  7.160337E+03  4.698867E+04
       140  21 -3.263638E+04 -4.059429E+05 -5.160271E+04  5.961080E+04  6.685284E+03  1.005537E+04
       140  22 -9.403692E+04 -2.927240E+05 -1.028302E+05  6.181418E+04  2.385971E+03  6.973879E+04
       140  23 -2.567101E+04 -2.848787E+05 -5.239588E+04  5.653497E+04  7.157123E+03  4.285943E+04
       140  24 -5.985237E+03 -2.927055E+05 -3.163485E+04  6.179884E+04  6.686575E+03  1.597993E+04
       140  25 -3.897304E+04 -7.007362E+04 -5.012695E+04  6.348633E+02  2.377928E+03  5.555452E+04
       140  26  1.430747E+04 -1.178066E+05 -1.955535E+04  2.704032E+04  7.154302E+03  3.872910E+04
       140  27  2.066524E+04 -1.794554E+05 -1.166732E+04  6.398728E+04  6.687907E+03  2.190553E+04
       141   1 -2.389345E+04 -3.680415E+05 -4.005529E+04  6.502082E+04 -4.707079E+03 -5.895996E+03
       141   2 -7.699332E+03 -3.118980E+05 -2.533094E+04  5.650273E+04 -1.687341E+03  5.090101E+03
       141   3  2.299754E+03 -2.587347E+05 -1.931134E+04  5.886155E+04  1.442062E+03  1.607705E+04
       141   4 -5.523143E+03 -2.898772E+05 -2.638867E+04  6.187409E+04 -4.708356E+03 -1.158180E+04
       141   5 -2.245862E+03 -2.884035E+05 -2.156595E+04  5.643544E+04 -1.688742E+03 -8.057852E+02
       141   6 -5.126806E+03 -2.898762E+05 -2.530155E+04  6.187396E+04  1.440640E+03  9.970176E+03
       141   7  1.284689E+04 -2.117069E+05 -1.272214E+04  5.872695E+04 -4.709576E+03 -1.726831E+04
       141   8  3.207600E+03 -2.649084E+05 -1.780085E+04  5.636816E+04 -1.690142E+03 -6.701887E+03
       141   9 -1.255337E+04 -3.210167E+05 -3.129166E+04  6.488622E+04  1.439158E+03  3.863605E+03
       141  10 -2.389348E+04 -3.680415E+05 -4.005540E+04  6.502079E+04  4.650469E-11 -8.032104E-11
       141  11 -7.699342E+03 -3.118980E+05 -2.533099E+04  5.650273E+04 -6.358111E-11  1.698413E-10
       141  12  2.299682E+03 -2.587350E+05 -1.931183E+04  5.886153E+04 -1.493075E-10  4.824537E-10
       141  13 -5.523203E+03 -2.898773E+05 -2.638896E+04  6.187404E+04 -1.861379E-10  1.512588E-11
       141  14 -2.245865E+03 -2.884035E+05 -2.156596E+04  5.643544E+04 -2.218457E-10 -6.270107E-11
       141  15 -5.126835E+03 -2.898763E+05 -2.530174E+04  6.187395E+04 -8.693640E-11  3.422094E-12
       141  16  1.284678E+04 -2.117072E+05 -1.272274E+04  5.872689E+04 -1.176107E-10  7.568496E-11
       141  17  3.207585E+03 -2.649084E+05 -1.780094E+04  5.636815E+04  1.566093E-10 -1.436606E-10
       141  18 -1.255337E+04 -3.210168E+05 -3.129169E+04  6.488622E+04  2.718301E-10 -4.216647E-10
       141  19 -2.389345E+04 -3.680415E+05 -4.005529E+04  6.502082E+04  4.707079E+03  5.895996E+03
       141  20 -7.699332E+03 -3.118980E+05 -2.533094E+04  5.650273E+04  1.687341E+03 -5.090101E+03
       141  21  2.299754E+03 -2.587347E+05 -1.931134E+04  5.886155E+04 -1.442062E+03 -1.607705E+04
       141  22 -5.523143E+03 -2.898772E+05 -2.638867E+04  6.187409E+04  4.708356E+03  1.158180E+04
       141  23 -2.245862E+03 -2.884035E+05 -2.156595E+04  5.643544E+04  1.688742E+03  8.057852E+02
       141  24 -5.126806E+03 -2.898762E+05 -2.530155E+04  6.187396E+04 -1.440640E+03 -9.970176E+03
       141  25  1.284689E+04 -2.117069E+05 -1.272214E+04  5.872695E+04  4.709576E+03  1.726831E+04
       141  26  3.207600E+03 -2.649084E+05 -1.780085E+04  5.636816E+04  1.690142E+03  6.701887E+03
       141  27 -1.255337E+04 -3.210167E+05 -3.129166E+04  6.488622E+04 -1.439158E+03 -3.863605E+03
       142   1  1.011618E+04 -2.262822E+05 -1.774424E+04  6.380045E+04  3.504562E+03  2.046072E+04
       142   2  5.119717E+03 -1.650345E+05 -2.458390E+04  2.918131E+04  4.685384E+03  3.743335E+04
       142   3 -4.354359E+04 -1.169105E+05 -5.339122E+04  5.184422E+03  1.670773E+03  5.440777E+04
       142   4 -5.556858E+03 -2.924501E+05 -2.991737E+04  6.181653E+04  3.503007E+03  1.417129E+04
       142   5 -2.374544E+04 -2.851932E+05 -4.878118E+04  5.651225E+04  4.687490E+03  3.919065E+04
       142   6 -8.700652E+04 -2.924660E+05 -9.520571E+04  6.183176E+04  1.677771E+03  6.420997E+04
       142   7 -2.123011E+04 -3.586136E+05 -4.209054E+04  5.983282E+04  3.501491E+03  7.882517E+03
       142   8 -5.260868E+04 -4.053365E+05 -7.297880E+04  8.383779E+04  4.689751E+03  4.094762E+04
       142   9 -1.304595E+05 -4.679861E+05 -1.370203E+05  1.184630E+05  1.686559E+03  7.400942E+04
       142  10  1.011605E+04 -2.262826E+05 -1.774505E+04  6.380039E+04  4.252550E-11 -1.132251E-10
       142  11  5.119318E+03 -1.650360E+05 -2.458657E+04  2.918117E+04  1.667773E-10  1.778909E-11
       142  12 -4.354439E+04 -1.169136E+05 -5.339679E+04  5.184349E+03  2.708915E-12  1.112004E-10
       142  13 -5.556925E+03 -2.924503E+05 -2.991777E+04  6.181649E+04 -5.496042E-11 -9.745006E-12
       142  14 -2.374588E+04 -2.851949E+05 -4.878411E+04  5.651210E+04 -1.653199E-10 -5.355775E-11
       142  15 -8.700763E+04 -2.924704E+05 -9.521346E+04  6.183168E+04 -1.436610E-10 -4.619881E-11
       142  16 -2.123014E+04 -3.586137E+05 -4.209068E+04  5.983280E+04 -2.173972E-10  1.222744E-10
       142  17 -5.260916E+04 -4.053384E+05 -7.298199E+04  8.383763E+04  9.659480E-11 -6.024029E-11
       142  18 -1.304610E+05 -4.679919E+05 -1.370306E+05  1.184629E+05 -1.105381E-11 -8.611354E-11
       142  19  1.011618E+04 -2.262822E+05 -1.774424E+04  6.380045E+04 -3.504562E+03 -2.046072E+04
       142  20  5.119717E+03 -1.650345E+05 -2.458390E+04  2.918131E+04 -4.685384E+03 -3.743335E+04
       142  21 -4.354359E+04 -1.169105E+05 -5.339122E+04  5.184422E+03 -1.670773E+03 -5.440777E+04
       142  22 -5.556858E+03 -2.924501E+05 -2.991737E+04  6.181653E+04 -3.503007E+03 -1.417129E+04
       142  23 -2.374544E+04 -2.851932E+05 -4.878118E+04  5.651225E+04 -4.687490E+03 -3.919065E+04
       142  24 -8.700652E+04 -2.924660E+05 -9.520571E+04  6.183176E+04 -1.677771E+03 -6.420997E+04
       142  25 -2.123011E+04 -3.586136E+05 -4.209054E+04  5.983282E+04 -3.501491E+03 -7.882517E+03
       142  26 -5.260868E+04 -4.053365E+05 -7.297880E+04  8.383779E+04 -4.689751E+03 -4.094762E+04
       142  27 -1.304595E+05 -4.679861E+05 -1.370203E+05  1.184630E+05 -1.686559E+03 -7.400942E+04
       143   1  1.964311E+05  1.310693E+05  2.205493E+04  1.430977E+05  1.856930E+04  1.537120E+04
       143   2  2.073434E+05  1.078654E+05  6.752816E+03  1.577767E+05  1.140322E+04  1.318028E+04
       143   3  2.322632E+05  9.696728E+04  1.116621E+03  1.647490E+05  5.563603E+03  9.220389E+03
       143   4  2.915412E+05  1.551643E+05  4.450063E+04  1.702380E+05  2.418521E+04  1.958099E+04
       143   5  2.772814E+05  1.363900E+05  2.199414E+04  1.832826E+05  1.361944E+04  1.484157E+04
       143   6  2.777648E+05  1.306565E+05  1.210187E+04  1.886209E+05  4.380418E+03  8.333210E+03
       143   7  3.866604E+05  1.792598E+05  6.694578E+04  1.973805E+05  2.980223E+04  2.379085E+04
       143   8  3.472245E+05  1.649151E+05  3.723507E+04  2.087908E+05  1.583599E+04  1.650297E+04
       143   9  3.232687E+05  1.643471E+05  2.308698E+04  2.124949E+05  3.197118E+03  7.445938E+03
       143  10  1.964306E+05  1.310689E+05  2.205383E+04  1.430975E+05 -1.679579E-09 -7.777834E-10
       143  11  2.073432E+05  1.078652E+05  6.752245E+03  1.577766E+05 -8.841938E-10 -2.293199E-10
       143  12  2.322632E+05  9.696718E+04  1.116403E+03  1.647489E+05  1.504434E-10 -1.255751E-09
       143  13  2.915405E+05  1.551638E+05  4.449882E+04  1.702376E+05 -1.007955E-10  2.638259E-10
       143  14  2.772812E+05  1.363897E+05  2.199338E+04  1.832824E+05 -5.288332E-10  5.276971E-10
       143  15  2.777647E+05  1.306564E+05  1.210170E+04  1.886209E+05  5.113335E-10 -3.134570E-10
       143  16  3.866593E+05  1.792590E+05  6.694305E+04  1.973799E+05  1.403321E-09  1.319744E-09
       143  17  3.472241E+05  1.649147E+05  3.723409E+04  2.087905E+05  5.774913E-10  1.242264E-09
       143  18  3.232687E+05  1.643470E+05  2.308686E+04  2.124949E+05  3.369625E-10  5.994138E-10
       143  19  1.964311E+05  1.310693E+05  2.205493E+04  1.430977E+05 -1.856930E+04 -1.537120E+04
       143  20  2.073434E+05  1.078654E+05  6.752816E+03  1.577767E+05 -1.140322E+04 -1.318028E+04
       143  21  2.322632E+05  9.696728E+04  1.116621E+03  1.647490E+05 -5.563603E+03 -9.220389E+03
       143  22  2.915412E+05  1.551643E+05  4.450063E+04  1.702380E+05 -2.418521E+04 -1.958099E+04
       143  23  2.772814E+05  1.363900E+05  2.199414E+04  1.832826E+05 -1.361944E+04 -1.484157E+04
       143  24  2.777648E+05  1.306565E+05  1.210187E+04  1.886209E+05 -4.380418E+03 -8.333210E+03
       143  25  3.866604E+05  1.792598E+05  6.694578E+04  1.973805E+05 -2.980223E+04 -2.379085E+04
       143  26  3.472245E+05  1.649151E+05  3.723507E+04  2.087908E+05 -1.583599E+04 -1.650297E+04
       143  27  3.232687E+05  1.643471E+05  2.308698E+04  2.124949E+05 -3.197118E+03 -7.445938E+03
       144   1  2.366299E+05  1.035673E+05  1.149676E+02  1.684931E+05  4.522018E+03  7.794934E+03
       144   2  2.463018E+05  1.111566E+05 -9.317782E+02  1.752301E+05  3.267276E+03  5.817362E+03
       144   3  2.598430E+05  1.168092E+05 -2.235834E+02  1.807540E+05  2.151337E+03  3.654493E+03
       144   4  2.768672E+05  1.300163E+05  9.218911E+03  1.880605E+05  3.425504E+03  6.972720E+03
       144   5  2.744789E+05  1.302066E+05  5.277026E+03  1.892223E+05  1.814733E+03  4.728232E+03
       144   6  2.760365E+05  1.285373E+05  3.398645E+03  1.891707E+05  3.428342E+02  2.298516E+03
       144   7  3.171072E+05  1.564668E+05  1.832304E+04  2.076296E+05  2.328873E+03  6.150424E+03
       144   8  3.026570E+05  1.492571E+05  1.148580E+04  2.032152E+05  3.621010E+02  3.639040E+03
       144   9  2.922300E+05  1.402653E+05  7.020764E+03  1.975876E+05 -1.465696E+03  9.425167E+02
       144  10  2.366299E+05  1.035672E+05  1.148150E+02  1.684931E+05 -5.398523E-08 -4.342791E-08
       144  11  2.463018E+05  1.111565E+05 -9.318618E+02  1.752301E+05 -3.893065E-09 -5.868278E-09
       144  12  2.598430E+05  1.168091E+05 -2.236172E+02  1.807540E+05  5.192930E-08  3.803130E-08
       144  13  2.768672E+05  1.300163E+05  9.218797E+03  1.880604E+05 -7.373554E-10 -2.880677E-09
       144  14  2.744789E+05  1.302066E+05  5.276978E+03  1.892223E+05 -3.689959E-09 -5.992442E-09
       144  15  2.760365E+05  1.285372E+05  3.398635E+03  1.891707E+05 -9.446141E-10 -2.908746E-09
       144  16  3.171072E+05  1.564667E+05  1.832296E+04  2.076296E+05  5.172581E-08  3.772531E-08
       144  17  3.026569E+05  1.492571E+05  1.148578E+04  2.032152E+05 -3.787250E-09 -6.116046E-09
       144  18  2.922300E+05  1.402653E+05  7.020759E+03  1.975876E+05 -5.396778E-08 -4.376804E-08
       144  19  2.366299E+05  1.035673E+05  1.149676E+02  1.684931E+05 -4.522018E+03 -7.794934E+03
       144  20  2.463018E+05  1.111566E+05 -9.317782E+02  1.752301E+05 -3.267276E+03 -5.817362E+03
       144  21  2.598430E+05  1.168092E+05 -2.235834E+02  1.807540E+05 -2.151337E+03 -3.654493E+03
       144  22  2.768672E+05  1.300163E+05  9.218911E+03  1.880605E+05 -3.425504E+03 -6.972720E+03
       144  23  2.744789E+05  1.302066E+05  5.277026E+03  1.892223E+05 -1.814733E+03 -4.728232E+03
       144  24  2.760365E+05  1.285373E+05  3.398645E+03  1.891707E+05 -3.428342E+02 -2.298516E+03
       144  25  3.171072E+05  1.564668E+05  1.832304E+04  2.076296E+05 -2.328873E+03 -6.150424E+03
       144  26  3.026570E+05  1.492571E+05  1.148580E+04  2.032152E+05 -3.621010E+02 -3.639040E+03
       144  27  2.922300E+05  1.402653E+05  7.020764E+03  1.975876E+05  1.465696E+03 -9.425167E+02
       145   1  2.668151E+05  1.220476E+05  9.206555E+02  1.844391E+05  2.118704E+03  2.763666E+03
       145   2  2.765350E+05  1.314536E+05  3.050573E+03  1.906664E+05  1.794229E+03  1.057261E+03
       145   3  2.894744E+05  1.380433E+05  6.062752E+03  1.960263E+05  1.468853E+03 -6.479740E+02
       145   4  2.759717E+05  1.284969E+05  2.912419E+03  1.891182E+05  3.184399E+02  1.413879E+03
       145   5  2.743648E+05  1.299097E+05  2.584533E+03  1.895488E+05 -3.790419E+00 -2.908497E+02
       145   6  2.759767E+05  1.285056E+05  3.136936E+03  1.891118E+05 -3.269051E+02 -1.994404E+03
       145   7  2.851284E+05  1.349463E+05  4.904199E+03  1.937974E+05 -1.481861E+03  6.406512E+01
       145   8  2.721945E+05  1.283658E+05  2.118503E+03  1.884312E+05 -1.801821E+03 -1.638969E+03
       145   9  2.624788E+05  1.189677E+05  2.110317E+02  1.821973E+05 -2.122649E+03 -3.340822E+03
       145  10  2.668151E+05  1.220476E+05  9.206327E+02  1.844391E+05  8.088606E-10  1.003236E-09
       145  11  2.765350E+05  1.314536E+05  3.050565E+03  1.906664E+05  6.268504E-10  1.372050E-09
       145  12  2.894744E+05  1.380433E+05  6.062747E+03  1.960263E+05  1.213069E-09  1.675339E-09
       145  13  2.759717E+05  1.284969E+05  2.912415E+03  1.891182E+05  3.915569E-10 -4.395147E-10
       145  14  2.743648E+05  1.299097E+05  2.584532E+03  1.895488E+05 -4.819439E-10  4.309033E-10
       145  15  2.759767E+05  1.285055E+05  3.136928E+03  1.891118E+05 -5.693481E-10  5.133472E-10
       145  16  2.851284E+05  1.349463E+05  4.904195E+03  1.937974E+05  2.244572E-10 -1.849107E-09
       145  17  2.721945E+05  1.283658E+05  2.118492E+03  1.884312E+05 -1.479943E-09 -4.587664E-10
       145  18  2.624788E+05  1.189677E+05  2.110023E+02  1.821973E+05 -2.176968E-09 -4.838891E-10
       145  19  2.668151E+05  1.220476E+05  9.206555E+02  1.844391E+05 -2.118704E+03 -2.763666E+03
       145  20  2.765350E+05  1.314536E+05  3.050573E+03  1.906664E+05 -1.794229E+03 -1.057261E+03
       145  21  2.894744E+05  1.380433E+05  6.062752E+03  1.960263E+05 -1.468853E+03  6.479740E+02
       145  22  2.759717E+05  1.284969E+05  2.912419E+03  1.891182E+05 -3.184399E+02 -1.413879E+03
       145  23  2.743648E+05  1.299097E+05  2.584533E+03  1.895488E+05  3.790419E+00  2.908497E+02
       145  24  2.759767E+05  1.285056E+05  3.136936E+03  1.891118E+05  3.269051E+02  1.994404E+03
       145  25  2.851284E+05  1.349463E+05  4.904199E+03  1.937974E+05  1.481861E+03 -6.406512E+01
       145  26  2.721945E+05  1.283658E+05  2.118503E+03  1.884312E+05  1.801821E+03  1.638969E+03
       145  27  2.624788E+05  1.189677E+05  2.110317E+02  1.821973E+05  2.122649E+03  3.340822E+03
       146   1  2.965683E+05  1.433950E+05  8.314117E+03  1.998365E+05  1.413052E+03 -1.554757E+03
       146   2  3.070940E+05  1.523075E+05  1.316100E+04  2.053727E+05 -7.335724E+02 -4.478259E+03
       146   3  3.217894E+05  1.596182E+05  2.068981E+04  2.096405E+05 -3.027639E+03 -7.205128E+03
       146   4  2.760545E+05  1.285526E+05  3.755576E+03  1.891760E+05 -3.916020E+02 -2.907869E+03
       146   5  2.744904E+05  1.302486E+05  6.004375E+03  1.891693E+05 -2.160319E+03 -5.548050E+03
       146   6  2.770143E+05  1.302610E+05  1.060753E+04  1.878941E+05 -4.076441E+03 -7.991578E+03
       146   7  2.555416E+05  1.137108E+05 -8.028139E+02  1.785162E+05 -2.196139E+03 -4.260891E+03
       146   8  2.418885E+05  1.081904E+05 -1.152165E+03  1.729670E+05 -3.586951E+03 -6.617759E+03
       146   9  2.322415E+05  1.009048E+05  5.251594E+02  1.661494E+05 -5.125140E+03 -8.777958E+03
       146  10  2.965683E+05  1.433950E+05  8.314109E+03  1.998365E+05  3.410831E-10  1.018073E-09
       146  11  3.070940E+05  1.523075E+05  1.316096E+04  2.053727E+05  6.241773E-10  9.208708E-10
       146  12  3.217894E+05  1.596181E+05  2.068969E+04  2.096404E+05  6.115976E-10  7.754997E-10
       146  13  2.760545E+05  1.285526E+05  3.755560E+03  1.891760E+05 -3.998787E-10  5.194814E-10
       146  14  2.744904E+05  1.302485E+05  6.004309E+03  1.891693E+05  1.674035E-10  4.588033E-10
       146  15  2.770142E+05  1.302609E+05  1.060738E+04  1.878940E+05 -3.393054E-10  3.193594E-10
       146  16  2.555416E+05  1.137108E+05 -8.028571E+02  1.785162E+05 -1.386861E-09  9.822033E-12
       146  17  2.418884E+05  1.081904E+05 -1.152272E+03  1.729670E+05 -9.158829E-10  1.173832E-11
       146  18  2.322414E+05  1.009047E+05  5.249653E+02  1.661494E+05 -9.874388E-10 -2.367568E-10
       146  19  2.965683E+05  1.433950E+05  8.314117E+03  1.998365E+05 -1.413052E+03  1.554757E+03
       146  20  3.070940E+05  1.523075E+05  1.316100E+04  2.053727E+05  7.335724E+02  4.478259E+03
       146  21  3.217894E+05  1.596182E+05  2.068981E+04  2.096405E+05  3.027639E+03  7.205128E+03
       146  22  2.760545E+05  1.285526E+05  3.755576E+03  1.891760E+05  3.916020E+02  2.907869E+03
       146  23  2.744904E+05  1.302486E+05  6.004375E+03  1.891693E+05  2.160319E+03  5.548050E+03
       146  24  2.770143E+05  1.302610E+05  1.060753E+04  1.878941E+05  4.076441E+03  7.991578E+03
       146  25  2.555416E+05  1.137108E+05 -8.028139E+02  1.785162E+05  2.196139E+03  4.260891E+03
       146  26  2.418885E+05  1.081904E+05 -1.152165E+03  1.729670E+05  3.586951E+03  6.617759E+03
       146  27  2.322415E+05  1.009048E+05  5.251594E+02  1.661494E+05  5.125140E+03  8.777958E+03
       147   1  3.277799E+05  1.679249E+05  2.593739E+04  2.146894E+05 -4.089045E+03 -8.630403E+03
       147   2  3.539523E+05  1.670997E+05  4.176955E+04  2.094620E+05 -1.839697E+04 -1.882116E+04
       147   3  3.975010E+05  1.825936E+05  7.531099E+04  1.954540E+05 -3.411261E+04 -2.713632E+04
       147   4  2.780565E+05  1.309982E+05  1.395692E+04  1.885423E+05 -5.229623E+03 -9.485656E+03
       147   5  2.777251E+05  1.374010E+05  2.541971E+04  1.823018E+05 -1.593296E+04 -1.697438E+04
       147   6  2.939882E+05  1.593425E+05  5.146605E+04  1.672809E+05 -2.804281E+04 -2.258757E+04
       147   7  2.283349E+05  9.407250E+04  1.975928E+03  1.623972E+05 -6.370101E+03 -1.034083E+04
       147   8  2.015048E+05  1.077032E+05  9.069690E+03  1.551445E+05 -1.346936E+04 -1.512773E+04
       147   9  1.904908E+05  1.360931E+05  2.762162E+04  1.391111E+05 -2.197456E+04 -1.803904E+04
       147  10  3.277798E+05  1.679248E+05  2.593722E+04  2.146894E+05  3.020712E-10  3.550679E-10
       147  11  3.539519E+05  1.670993E+05  4.176825E+04  2.094617E+05 -1.255561E-10  2.756155E-10
       147  12  3.974996E+05  1.825925E+05  7.530742E+04  1.954533E+05  5.528063E-11  9.385194E-11
       147  13  2.780564E+05  1.309981E+05  1.395670E+04  1.885423E+05 -1.809468E-10  1.264056E-10
       147  14  2.777247E+05  1.374006E+05  2.541869E+04  1.823016E+05 -1.674133E-10  3.315022E-11
       147  15  2.939872E+05  1.593418E+05  5.146361E+04  1.672804E+05 -1.810916E-11  3.053821E-11
       147  16  2.283348E+05  9.407238E+04  1.975651E+03  1.623971E+05 -4.203609E-10 -9.250558E-11
       147  17  2.015045E+05  1.077029E+05  9.068919E+03  1.551444E+05 -5.189015E-10 -1.634345E-10
       147  18  1.904901E+05  1.360926E+05  2.762010E+04  1.391108E+05 -1.298826E-10 -8.841964E-11
       147  19  3.277799E+05  1.679249E+05  2.593739E+04  2.146894E+05  4.089045E+03  8.630403E+03
       147  20  3.539523E+05  1.670997E+05  4.176955E+04  2.094620E+05  1.839697E+04  1.882116E+04
       147  21  3.975010E+05  1.825936E+05  7.531099E+04  1.954540E+05  3.411261E+04  2.713632E+04
       147  22  2.780565E+05  1.309982E+05  1.395692E+04  1.885423E+05  5.229623E+03  9.485656E+03
       147  23  2.777251E+05  1.374010E+05  2.541971E+04  1.823018E+05  1.593296E+04  1.697438E+04
       147  24  2.939882E+05  1.593425E+05  5.146605E+04  1.672809E+05  2.804281E+04  2.258757E+04
       147  25  2.283349E+05  9.407250E+04  1.975928E+03  1.623972E+05  6.370101E+03  1.034083E+04
       147  26  2.015048E+05  1.077032E+05  9.069690E+03  1.551445E+05  1.346936E+04  1.512773E+04
       147  27  1.904908E+05  1.360931E+05  2.762162E+04  1.391111E+05  2.197456E+04  1.803904E+04
       148   1  4.370816E+05  5.849476E+04  6.037542E+04  4.271385E+04  3.263783E+04 -1.178834E+03
       148   2  4.154741E+05  2.865518E+04  3.403447E+04  2.961466E+04  1.875211E+04 -3.728101E+03
       148   3  4.002132E+05  1.697349E+04  2.126899E+04  2.002651E+04  4.866992E+03 -3.942818E+03
       148   4  3.366741E+05  3.369850E+04  3.675965E+04  2.083285E+04  2.549806E+04 -1.180031E+03
       148   5  3.338928E+05  9.200349E+03  1.830885E+04  1.907771E+04  1.609751E+04 -3.728503E+03
       148   6  3.366803E+05  2.082781E+03  1.032131E+04  2.083321E+04  6.697061E+03 -3.942792E+03
       148   7  2.362770E+05  8.903344E+03  1.314362E+04 -1.044601E+03  1.835943E+04 -1.180724E+03
       148   8  2.523182E+05 -1.025446E+04  2.583005E+03  8.542181E+03  1.344325E+04 -3.728814E+03
       148   9  2.731515E+05 -1.280814E+04 -6.264900E+02  2.163983E+04  8.526948E+03 -3.942760E+03
       148  10  4.370805E+05  5.849448E+04  6.037342E+04  4.271388E+04 -1.224898E-10  2.975950E-11
       148  11  4.154738E+05  2.865507E+04  3.403379E+04  2.961472E+04 -3.369237E-10  1.035469E-10
       148  12  4.002131E+05  1.697347E+04  2.126892E+04  2.002652E+04  2.504405E-11  9.888810E-11
       148  13  3.366734E+05  3.369832E+04  3.675842E+04  2.083287E+04  2.589685E-10  1.782384E-11
       148  14  3.338926E+05  9.200264E+03  1.830834E+04  1.907776E+04  1.585950E-10  4.609630E-11
       148  15  3.366803E+05  2.082752E+03  1.032120E+04  2.083323E+04  2.365411E-10  5.607893E-11
       148  16  2.362766E+05  8.903252E+03  1.314299E+04 -1.044583E+03  5.926227E-11  5.341308E-12
       148  17  2.523180E+05 -1.025452E+04  2.582639E+03  8.542222E+03 -8.019017E-13 -8.714190E-12
       148  18  2.731514E+05 -1.280818E+04 -6.266558E+02  2.163986E+04  2.009166E-10 -1.332962E-11
       148  19  4.370816E+05  5.849476E+04  6.037542E+04  4.271385E+04 -3.263783E+04  1.178834E+03
       148  20  4.154741E+05  2.865518E+04  3.403447E+04  2.961466E+04 -1.875211E+04  3.728101E+03
       148  21  4.002132E+05  1.697349E+04  2.126899E+04  2.002651E+04 -4.866992E+03  3.942818E+03
       148  22  3.366741E+05  3.369850E+04  3.675965E+04  2.083285E+04 -2.549806E+04  1.180031E+03
       148  23  3.338928E+05  9.200349E+03  1.830885E+04  1.907771E+04 -1.609751E+04  3.728503E+03
       148  24  3.366803E+05  2.082781E+03  1.032131E+04  2.083321E+04 -6.697061E+03  3.942792E+03
       148  25  2.362770E+05  8.903344E+03  1.314362E+04 -1.044601E+03 -1.835943E+04  1.180724E+03
       148  26  2.523182E+05 -1.025446E+04  2.583005E+03  8.542181E+03 -1.344325E+04  3.728814E+03
       148  27  2.731515E+05 -1.280814E+04 -6.264900E+02  2.163983E+04 -8.526948E+03  3.942760E+03
       149   1  3.872749E+05  1.400617E+04  1.683616E+04  2.185563E+04  3.605769E+03 -3.316190E+03
       149   2  3.685027E+05  8.124241E+03  1.059644E+04  1.945924E+04  5.894012E+02 -2.309652E+03
       149   3  3.504496E+05  3.546284E+03  6.645644E+03  2.073093E+04 -2.426857E+03 -1.077346E+03
       149   4  3.355857E+05  1.918236E+03  8.064699E+03  2.086825E+04  5.322357E+03 -3.316159E+03
       149   5  3.352645E+05  3.954347E+02  5.177385E+03  1.903425E+04  2.739804E+03 -2.309577E+03
       149   6  3.355866E+05  1.013319E+02  4.277913E+03  2.086831E+04  1.572690E+02 -1.077228E+03
       149   7  2.838992E+05 -1.016984E+04 -7.068369E+02  1.988095E+04  7.038807E+03 -3.316133E+03
       149   8  3.020275E+05 -7.333425E+03 -2.416867E+02  1.860927E+04  4.890095E+03 -2.309506E+03
       149   9  3.207239E+05 -3.343627E+03  1.910202E+03  2.100569E+04  2.741335E+03 -1.077108E+03
       149  10  3.872749E+05  1.400616E+04  1.683611E+04  2.185564E+04  9.162023E-11  5.603248E-11
       149  11  3.685027E+05  8.124236E+03  1.059643E+04  1.945924E+04  4.845226E-11  4.251954E-11
       149  12  3.504496E+05  3.546281E+03  6.645631E+03  2.073093E+04 -8.066219E-11  4.018613E-11
       149  13  3.355857E+05  1.918216E+03  8.064625E+03  2.086826E+04  2.779201E-10  2.524511E-11
       149  14  3.352645E+05  3.954270E+02  5.177361E+03  1.903425E+04  2.650731E-10  1.716245E-11
       149  15  3.355866E+05  1.013306E+02  4.277911E+03  2.086831E+04  1.144915E-10 -1.598608E-11
       149  16  2.838991E+05 -1.016986E+04 -7.069506E+02  1.988097E+04  1.836691E-10 -6.668844E-12
       149  17  3.020275E+05 -7.333437E+03 -2.417417E+02  1.860928E+04  1.127490E-10 -5.094810E-11
       149  18  3.207239E+05 -3.343631E+03  1.910186E+03  2.100569E+04  2.809248E-12 -6.148641E-11
       149  19  3.872749E+05  1.400617E+04  1.683616E+04  2.185563E+04 -3.605769E+03  3.316190E+03
       149  20  3.685027E+05  8.124241E+03  1.059644E+04  1.945924E+04 -5.894012E+02  2.309652E+03
       149  21  3.504496E+05  3.546284E+03  6.645644E+03  2.073093E+04  2.426857E+03  1.077346E+03
       149  22  3.355857E+05  1.918236E+03  8.064699E+03  2.086825E+04 -5.322357E+03  3.316159E+03
       149  23  3.352645E+05  3.954347E+02  5.177385E+03  1.903425E+04 -2.739804E+03  2.309577E+03
       149  24  3.355866E+05  1.013319E+02  4.277913E+03  2.086831E+04 -1.572690E+02  1.077228E+03
       149  25  2.838992E+05 -1.016984E+04 -7.068369E+02  1.988095E+04 -7.038807E+03  3.316133E+03
       149  26  3.020275E+05 -7.333425E+03 -2.416867E+02  1.860927E+04 -4.890095E+03  2.309506E+03
       149  27  3.207239E+05 -3.343627E+03  1.910202E+03  2.100569E+04 -2.741335E+03  1.077108E+03
       150   1  3.387320E+05  8.136861E+02  4.789138E+03  2.104711E+04 -3.170130E+03 -2.775749E+02
       150   2  3.199975E+05 -3.112053E+03  3.003270E+03  1.857137E+04 -5.616214E+03  9.769026E+02
       150   3  3.019096E+05 -5.724817E+03  3.137495E+03  1.976644E+04 -8.062261E+03  2.052018E+03
       150   4  3.356007E+05  1.004995E+02  4.353379E+03  2.086892E+04 -5.881291E+02 -2.774508E+02
       150   5  3.352471E+05  4.546943E+02  5.592786E+03  1.903348E+04 -3.378806E+03  9.769944E+02
       150   6  3.355999E+05  2.181715E+03  8.991502E+03  2.086884E+04 -6.169519E+03  2.052075E+03
       150   7  3.324694E+05 -6.126838E+02  3.917644E+03  2.069073E+04  1.993860E+03 -2.773282E+02
       150   8  3.504970E+05  4.021433E+03  8.182314E+03  1.949561E+04 -1.141344E+03  9.770894E+02
       150   9  3.692913E+05  1.008819E+04  1.484548E+04  2.197130E+04 -4.276677E+03  2.052138E+03
       150  10  3.387320E+05  8.136833E+02  4.789119E+03  2.104711E+04  2.346854E-11  1.216204E-10
       150  11  3.199975E+05 -3.112062E+03  3.003209E+03  1.857137E+04  4.155196E-11  7.600876E-11
       150  12  3.019096E+05 -5.724838E+03  3.137365E+03  1.976646E+04 -3.971426E-11 -1.653525E-11
       150  13  3.356007E+05  1.004993E+02  4.353378E+03  2.086892E+04  1.406241E-10  1.850766E-11
       150  14  3.352471E+05  4.546902E+02  5.592763E+03  1.903348E+04  1.276771E-10  7.050409E-11
       150  15  3.355999E+05  2.181700E+03  8.991422E+03  2.086885E+04  1.105419E-10  3.381868E-11
       150  16  3.324694E+05 -6.126850E+02  3.917636E+03  2.069073E+04  1.365514E-10 -6.656896E-11
       150  17  3.504970E+05  4.021431E+03  8.182310E+03  1.949561E+04  3.895703E-12  1.589638E-11
       150  18  3.692913E+05  1.008818E+04  1.484544E+04  2.197131E+04  4.616769E-11  4.852597E-11
       150  19  3.387320E+05  8.136861E+02  4.789138E+03  2.104711E+04  3.170130E+03  2.775749E+02
       150  20  3.199975E+05 -3.112053E+03  3.003270E+03  1.857137E+04  5.616214E+03 -9.769026E+02
       150  21  3.019096E+05 -5.724817E+03  3.137495E+03  1.976644E+04  8.062261E+03 -2.052018E+03
       150  22  3.356007E+05  1.004995E+02  4.353379E+03  2.086892E+04  5.881291E+02  2.774508E+02
       150  23  3.352471E+05  4.546943E+02  5.592786E+03  1.903348E+04  3.378806E+03 -9.769944E+02
       150  24  3.355999E+05  2.181715E+03  8.991502E+03  2.086884E+04  6.169519E+03 -2.052075E+03
       150  25  3.324694E+05 -6.126838E+02  3.917644E+03  2.069073E+04 -1.993860E+03  2.773282E+02
       150  26  3.504970E+05  4.021433E+03  8.182314E+03  1.949561E+04  1.141344E+03 -9.770894E+02
       150  27  3.692913E+05  1.008819E+04  1.484548E+04  2.197130E+04  4.276677E+03 -2.052138E+03
       151   1  2.913368E+05 -8.327428E+03  3.612666E+03  2.176702E+04 -9.690956E+03  2.714172E+03
       151   2  2.700723E+05 -4.765494E+03  8.288899E+03  7.130198E+03 -1.660442E+04  2.780156E+03
       151   3  2.544750E+05  1.786256E+04  2.223155E+04 -3.966040E+03 -2.351767E+04  9.090994E+02
       151   4  3.368457E+05  2.367030E+03  1.159250E+04  2.083984E+04 -7.704499E+03  2.714246E+03
       151   5  3.336866E+05  1.043799E+04  2.071166E+04  1.906932E+04 -1.833967E+04  2.779766E+03
       151   6  3.368390E+05  3.821917E+04  4.168005E+04  2.083912E+04 -2.897489E+04  9.080493E+02
       151   7  3.823566E+05  1.306138E+04  1.957228E+04  1.991260E+04 -5.717902E+03  2.714315E+03
       151   8  3.973051E+05  2.564177E+04  3.313431E+04  3.100969E+04 -2.007509E+04  2.779309E+03
       151   9  4.192106E+05  5.857764E+04  6.112853E+04  4.564758E+04 -3.443282E+04  9.065635E+02
       151  10  2.913367E+05 -8.327461E+03  3.612476E+03  2.176704E+04 -4.922944E-11 -5.902505E-11
       151  11  2.700720E+05 -4.765576E+03  8.288366E+03  7.130235E+03 -1.875454E-10 -8.994044E-11
       151  12  2.544744E+05  1.786241E+04  2.223051E+04 -3.966023E+03 -8.743183E-11 -2.876822E-11
       151  13  3.368456E+05  2.367006E+03  1.159238E+04  2.083986E+04  2.113570E-11 -3.099242E-11
       151  14  3.336862E+05  1.043789E+04  2.071101E+04  1.906936E+04  5.346206E-10 -4.199189E-11
       151  15  3.368381E+05  3.821895E+04  4.167848E+04  2.083914E+04  9.624498E-11 -2.525094E-11
       151  16  3.823566E+05  1.306136E+04  1.957221E+04  1.991261E+04  1.291937E-10  6.646512E-11
       151  17  3.973046E+05  2.564165E+04  3.313354E+04  3.100973E+04  1.032484E-10 -2.981866E-11
       151  18  4.192093E+05  5.857732E+04  6.112630E+04  4.564761E+04  2.629613E-10  1.326055E-11
       151  19  2.913368E+05 -8.327428E+03  3.612666E+03  2.176702E+04  9.690956E+03 -2.714172E+03
       151  20  2.700723E+05 -4.765494E+03  8.288899E+03  7.130198E+03  1.660442E+04 -2.780156E+03
       151  21  2.544750E+05  1.786256E+04  2.223155E+04 -3.966040E+03  2.351767E+04 -9.090994E+02
       151  22  3.368457E+05  2.367030E+03  1.159250E+04  2.083984E+04  7.704499E+03 -2.714246E+03
       151  23  3.336866E+05  1.043799E+04  2.071166E+04  1.906932E+04  1.833967E+04 -2.779766E+03
       151  24  3.368390E+05  3.821917E+04  4.168005E+04  2.083912E+04  2.897489E+04 -9.080493E+02
       151  25  3.823566E+05  1.306138E+04  1.957228E+04  1.991260E+04  5.717902E+03 -2.714315E+03
       151  26  3.973051E+05  2.564177E+04  3.313431E+04  3.100969E+04  2.007509E+04 -2.779309E+03
       151  27  4.192106E+05  5.857764E+04  6.112853E+04  4.564758E+04  3.443282E+04 -9.065635E+02
       152   1 -1.011248E+05 -3.205022E+05 -1.056214E+05  8.105344E+04 -1.603750E+03 -5.752922E+04
       152   2 -4.443608E+04 -2.801527E+05 -5.812339E+04  5.589824E+04 -4.853455E+03 -3.233391E+04
       152   3 -2.247565E+04 -2.517668E+05 -3.571560E+04  3.735463E+04 -4.660156E+03 -7.136719E+03
       152   4 -6.485007E+04 -1.738046E+05 -7.093053E+04  3.885186E+04 -1.598827E+03 -4.798276E+04
       152   5 -1.770705E+04 -1.683930E+05 -3.623743E+04  3.554201E+04 -4.851975E+03 -2.939473E+04
       152   6 -4.142732E+03 -1.737970E+05 -2.204195E+04  3.884558E+04 -4.660630E+03 -1.080650E+04
       152   7 -2.857012E+04 -2.708325E+04 -3.623984E+04 -3.359742E+03 -1.595203E+03 -3.843407E+04
       152   8  9.022793E+03 -5.662037E+04 -1.435182E+04  1.518204E+04 -4.850688E+03 -2.645503E+04
       152   9  1.418987E+04 -9.582120E+04 -8.368454E+03  4.033672E+04 -4.661123E+03 -1.447672E+04
       152  10 -1.011257E+05 -3.205058E+05 -1.056276E+05  8.105336E+04 -8.056802E-11 -3.431728E-10
       152  11 -4.443639E+04 -2.801538E+05 -5.812540E+04  5.589811E+04 -3.429840E-10 -2.903355E-11
       152  12 -2.247568E+04 -2.517669E+05 -3.571574E+04  3.735460E+04 -3.604438E-10  1.993949E-10
       152  13 -6.485069E+04 -1.738071E+05 -7.093487E+04  3.885180E+04 -4.329834E-11 -8.092628E-13
       152  14 -1.770731E+04 -1.683939E+05 -3.623910E+04  3.554190E+04 -3.753948E-10  5.120177E-11
       152  15 -4.142787E+03 -1.737971E+05 -2.204221E+04  3.884554E+04 -3.288423E-10  1.036530E-10
       152  16 -2.857052E+04 -2.708484E+04 -3.624262E+04 -3.359791E+03 -5.130986E-11  3.214989E-10
       152  17  9.022579E+03 -5.662112E+04 -1.435318E+04  1.518194E+04 -1.785010E-11  1.095209E-10
       152  18  1.418979E+04 -9.582143E+04 -8.368889E+03  4.033666E+04  1.452415E-11 -1.713344E-10
       152  19 -1.011248E+05 -3.205022E+05 -1.056214E+05  8.105344E+04  1.603750E+03  5.752922E+04
       152  20 -4.443608E+04 -2.801527E+05 -5.812339E+04  5.589824E+04  4.853455E+03  3.233391E+04
       152  21 -2.247565E+04 -2.517668E+05 -3.571560E+04  3.735463E+04  4.660156E+03  7.136719E+03
       152  22 -6.485007E+04 -1.738046E+05 -7.093053E+04  3.885186E+04  1.598827E+03  4.798276E+04
       152  23 -1.770705E+04 -1.683930E+05 -3.623743E+04  3.554201E+04  4.851975E+03  2.939473E+04
       152  24 -4.142732E+03 -1.737970E+05 -2.204195E+04  3.884558E+04  4.660630E+03  1.080650E+04
       152  25 -2.857012E+04 -2.708325E+04 -3.623984E+04 -3.359742E+03  1.595203E+03  3.843407E+04
       152  26  9.022793E+03 -5.662037E+04 -1.435182E+04  1.518204E+04  4.850688E+03  2.645503E+04
       152  27  1.418987E+04 -9.582120E+04 -8.368454E+03  4.033672E+04  4.661123E+03  1.447672E+04
       153   1 -1.694849E+04 -2.277830E+05 -2.820479E+04  4.110148E+04 -3.429660E+03 -4.214951E+03
       153   2 -6.618732E+03 -1.923682E+05 -1.889028E+04  3.547704E+04 -1.548773E+03  3.691331E+03
       153   3 -7.312365E+02 -1.590938E+05 -1.583512E+04  3.668713E+04  4.327683E+02  1.159799E+04
       153   4 -3.822968E+03 -1.718618E+05 -1.850745E+04  3.889512E+04 -3.430127E+03 -7.726816E+03
       153   5 -1.614770E+03 -1.708076E+05 -1.543560E+04  3.547779E+04 -1.549308E+03 -1.349793E+01
       153   6 -3.815165E+03 -1.718613E+05 -1.848882E+04  3.889510E+04  4.322174E+02  7.699784E+03
       153   7  9.302408E+03 -1.159375E+05 -8.810168E+03  3.668857E+04 -3.430569E+03 -1.123899E+04
       153   8  3.389177E+03 -1.492464E+05 -1.198088E+04  3.547855E+04 -1.549844E+03 -3.718451E+03
       153   9 -6.899078E+03 -1.846285E+05 -2.114246E+04  4.110303E+04  4.316389E+02  3.801661E+03
       153  10 -1.694851E+04 -2.277830E+05 -2.820484E+04  4.110147E+04  9.852290E-12  2.353391E-10
       153  11 -6.618738E+03 -1.923682E+05 -1.889031E+04  3.547704E+04  3.548588E-11  1.659909E-10
       153  12 -7.312728E+02 -1.590940E+05 -1.583537E+04  3.668712E+04  1.352729E-11 -8.812006E-11
       153  13 -3.822997E+03 -1.718618E+05 -1.850758E+04  3.889510E+04 -2.426583E-10  1.722773E-11
       153  14 -1.614772E+03 -1.708076E+05 -1.543561E+04  3.547779E+04 -1.128311E-10  1.243903E-10
       153  15 -3.815181E+03 -1.718613E+05 -1.848893E+04  3.889510E+04 -1.545499E-10  1.297201E-10
       153  16  9.302362E+03 -1.159376E+05 -8.810427E+03  3.668853E+04 -3.188277E-11 -2.382454E-10
       153  17  3.389170E+03 -1.492464E+05 -1.198091E+04  3.547854E+04 -3.627345E-10 -1.039724E-11
       153  18 -6.899082E+03 -1.846285E+05 -2.114249E+04  4.110302E+04 -6.719993E-11  1.342408E-10
       153  19 -1.694849E+04 -2.277830E+05 -2.820479E+04  4.110148E+04  3.429660E+03  4.214951E+03
       153  20 -6.618732E+03 -1.923682E+05 -1.889028E+04  3.547704E+04  1.548773E+03 -3.691331E+03
       153  21 -7.312365E+02 -1.590938E+05 -1.583512E+04  3.668713E+04 -4.327683E+02 -1.159799E+04
       153  22 -3.822968E+03 -1.718618E+05 -1.850745E+04  3.889512E+04  3.430127E+03  7.726816E+03
       153  23 -1.614770E+03 -1.708076E+05 -1.543560E+04  3.547779E+04  1.549308E+03  1.349793E+01
       153  24 -3.815165E+03 -1.718613E+05 -1.848882E+04  3.889510E+04 -4.322174E+02 -7.699784E+03
       153  25  9.302408E+03 -1.159375E+05 -8.810168E+03  3.668857E+04  3.430569E+03  1.123899E+04
       153  26  3.389177E+03 -1.492464E+05 -1.198088E+04  3.547855E+04  1.549844E+03  3.718451E+03
       153  27 -6.899078E+03 -1.846285E+05 -2.114246E+04  4.110303E+04 -4.316389E+02 -3.801661E+03
       154   1  4.126081E+03 -1.390221E+05 -1.549114E+04  4.034601E+04  1.740585E+03  1.478061E+04
       154   2 -1.140228E+03 -9.967558E+04 -2.222132E+04  1.519704E+04  2.585443E+03  2.857074E+04
       154   3 -3.909266E+04 -7.029496E+04 -4.610134E+04 -3.265533E+03  9.459037E+02  4.236164E+04
       154   4 -4.133872E+03 -1.737920E+05 -2.201257E+04  3.886175E+04  1.739958E+03  1.077609E+04
       154   5 -1.767187E+04 -1.683968E+05 -3.617545E+04  3.552177E+04  2.586505E+03  2.933219E+04
       154   6 -6.472749E+04 -1.737987E+05 -7.079999E+04  3.886874E+04  9.494970E+02  4.788813E+04
       154   7 -1.239388E+04 -2.085608E+05 -2.853400E+04  3.737757E+04  1.739350E+03  6.771787E+03
       154   8 -3.420225E+04 -2.371126E+05 -5.012961E+04  5.584422E+04  2.587617E+03  3.009356E+04
       154   9 -9.035640E+04 -2.772887E+05 -9.549832E+04  8.099595E+04  9.538412E+02  5.341371E+04
       154  10  4.126019E+03 -1.390223E+05 -1.549155E+04  4.034599E+04  1.801943E-11 -3.180975E-10
       154  11 -1.140454E+03 -9.967645E+04 -2.222287E+04  1.519698E+04 -1.807643E-10  5.808049E-11
       154  12 -3.909315E+04 -7.029688E+04 -4.610471E+04 -3.265566E+03 -8.975257E-11  2.969943E-10
       154  13 -4.133907E+03 -1.737922E+05 -2.201280E+04  3.886173E+04 -1.953047E-10 -1.634431E-11
       154  14 -1.767211E+04 -1.683977E+05 -3.617708E+04  3.552171E+04 -1.918698E-10  7.642719E-11
       154  15 -6.472811E+04 -1.738012E+05 -7.080430E+04  3.886870E+04 -9.961762E-12  5.143547E-11
       154  16 -1.239389E+04 -2.085608E+05 -2.853409E+04  3.737756E+04 -1.803456E-10  2.758930E-10
       154  17 -3.420250E+04 -2.371136E+05 -5.013133E+04  5.584415E+04 -3.300591E-10  1.087207E-11
       154  18 -9.035717E+04 -2.772918E+05 -9.550369E+04  8.099591E+04 -4.969884E-11 -2.822088E-10
       154  19  4.126081E+03 -1.390221E+05 -1.549114E+04  4.034601E+04 -1.740585E+03 -1.478061E+04
       154  20 -1.140228E+03 -9.967558E+04 -2.222132E+04  1.519704E+04 -2.585443E+03 -2.857074E+04
       154  21 -3.909266E+04 -7.029496E+04 -4.610134E+04 -3.265533E+03 -9.459037E+02 -4.236164E+04
       154  22 -4.133872E+03 -1.737920E+05 -2.201257E+04  3.886175E+04 -1.739958E+03 -1.077609E+04
       154  23 -1.767187E+04 -1.683968E+05 -3.617545E+04  3.552177E+04 -2.586505E+03 -2.933219E+04
       154  24 -6.472749E+04 -1.737987E+05 -7.079999E+04  3.886874E+04 -9.494970E+02 -4.788813E+04
       154  25 -1.239388E+04 -2.085608E+05 -2.853400E+04  3.737757E+04 -1.739350E+03 -6.771787E+03
       154  26 -3.420225E+04 -2.371126E+05 -5.012961E+04  5.584422E+04 -2.587617E+03 -3.009356E+04
       154  27 -9.035640E+04 -2.772887E+05 -9.549832E+04  8.099595E+04 -9.538412E+02 -5.341371E+04
       155   1  1.399196E+05  9.066931E+04  1.116655E+04  1.043607E+05  1.019638E+04  8.648123E+03
       155   2  1.461029E+05  7.686873E+04  2.494559E+03  1.127730E+05  6.060311E+03  7.807275E+03
       155   3  1.603488E+05  7.031870E+04 -7.318899E+02  1.166949E+05  2.801285E+03  5.796793E+03
       155   4  2.012469E+05  1.087580E+05  2.608500E+04  1.230420E+05  1.410012E+04  1.157517E+04
       155   5  1.929335E+05  9.770633E+04  1.289290E+04  1.306749E+05  7.717186E+03  9.049605E+03
       155   6  1.931696E+05  9.439191E+04  7.095634E+03  1.338176E+05  2.211344E+03  5.354381E+03
       155   7  2.625788E+05  1.268471E+05  4.100340E+04  1.417246E+05  1.800440E+04  1.450231E+04
       155   8  2.397673E+05  1.185446E+05  2.329131E+04  1.485782E+05  9.374252E+03  1.029202E+04
       155   9  2.259923E+05  1.184664E+05  1.492333E+04  1.509417E+05  1.621350E+03  4.911927E+03
       155  10  1.399195E+05  9.066920E+04  1.116622E+04  1.043607E+05 -2.613482E-10 -1.337470E-10
       155  11  1.461028E+05  7.686865E+04  2.494376E+03  1.127729E+05 -1.197897E-10 -2.009056E-11
       155  12  1.603488E+05  7.031866E+04 -7.319678E+02  1.166949E+05 -2.638213E-10 -3.303280E-11
       155  13  2.012467E+05  1.087578E+05  2.608437E+04  1.230419E+05 -7.241628E-11  3.215082E-11
       155  14  1.929335E+05  9.770623E+04  1.289264E+04  1.306748E+05  1.791270E-10  1.859468E-10
       155  15  1.931696E+05  9.439188E+04  7.095571E+03  1.338176E+05 -2.944017E-10  2.372882E-10
       155  16  2.625784E+05  1.268468E+05  4.100240E+04  1.417243E+05  1.696449E-10  2.329534E-10
       155  17  2.397672E+05  1.185445E+05  2.329094E+04  1.485781E+05  1.922223E-10  3.420663E-10
       155  18  2.259923E+05  1.184663E+05  1.492328E+04  1.509417E+05  4.762421E-11  4.974253E-10
       155  19  1.399196E+05  9.066931E+04  1.116655E+04  1.043607E+05 -1.019638E+04 -8.648123E+03
       155  20  1.461029E+05  7.686873E+04  2.494559E+03  1.127730E+05 -6.060311E+03 -7.807275E+03
       155  21  1.603488E+05  7.031870E+04 -7.318899E+02  1.166949E+05 -2.801285E+03 -5.796793E+03
       155  22  2.012469E+05  1.087580E+05  2.608500E+04  1.230420E+05 -1.410012E+04 -1.157517E+04
       155  23  1.929335E+05  9.770633E+04  1.289290E+04  1.306749E+05 -7.717186E+03 -9.049605E+03
       155  24  1.931696E+05  9.439191E+04  7.095634E+03  1.338176E+05 -2.211344E+03 -5.354381E+03
       155  25  2.625788E+05  1.268471E+05  4.100340E+04  1.417246E+05 -1.800440E+04 -1.450231E+04
       155  26  2.397673E+05  1.185446E+05  2.329131E+04  1.485782E+05 -9.374252E+03 -1.029202E+04
       155  27  2.259923E+05  1.184664E+05  1.492333E+04  1.509417E+05 -1.621350E+03 -4.911927E+03
       156   1  1.627259E+05  7.405744E+04 -1.339411E+03  1.187922E+05  2.163547E+03  4.983504E+03
       156   2  1.681358E+05  7.825814E+04 -1.976209E+03  1.225710E+05  1.415737E+03  3.893353E+03
       156   3  1.757254E+05  8.140012E+04 -1.606340E+03  1.256630E+05  7.600634E+02  2.680335E+03
       156   4  1.926464E+05  9.401467E+04  5.406854E+03  1.334887E+05  1.630926E+03  4.584071E+03
       156   5  1.912871E+05  9.408474E+04  3.098787E+03  1.341574E+05  6.470541E+02  3.316921E+03
       156   6  1.921588E+05  9.314734E+04  2.002225E+03  1.341393E+05 -2.446766E+02  1.926910E+03
       156   7  2.225673E+05  1.139719E+05  1.215286E+04  1.481856E+05  1.098282E+03  4.184622E+03
       156   8  2.144387E+05  1.099115E+05  8.173673E+03  1.457442E+05 -1.216593E+02  2.740467E+03
       156   9  2.085925E+05  1.048947E+05  5.610778E+03  1.426158E+05 -1.249451E+03  1.173457E+03
       156  10  1.627259E+05  7.405742E+04 -1.339466E+03  1.187922E+05 -5.743865E-10 -1.283961E-10
       156  11  1.681358E+05  7.825812E+04 -1.976241E+03  1.225710E+05 -1.950569E-10 -3.305717E-10
       156  12  1.757254E+05  8.140011E+04 -1.606354E+03  1.256630E+05  5.827448E-10 -1.315013E-09
       156  13  1.926464E+05  9.401465E+04  5.406809E+03  1.334887E+05 -5.615375E-10  2.854784E-10
       156  14  1.912871E+05  9.408473E+04  3.098766E+03  1.341574E+05 -4.530420E-10  2.168591E-10
       156  15  1.921588E+05  9.314733E+04  2.002218E+03  1.341393E+05  3.477218E-11 -1.337760E-10
       156  16  2.225673E+05  1.139719E+05  1.215282E+04  1.481856E+05  3.324269E-10  6.529018E-10
       156  17  2.144387E+05  1.099115E+05  8.173659E+03  1.457442E+05 -2.652201E-10  7.116677E-10
       156  18  2.085925E+05  1.048947E+05  5.610772E+03  1.426158E+05 -6.157136E-10  1.058217E-09
       156  19  1.627259E+05  7.405744E+04 -1.339411E+03  1.187922E+05 -2.163547E+03 -4.983504E+03
       156  20  1.681358E+05  7.825814E+04 -1.976209E+03  1.225710E+05 -1.415737E+03 -3.893353E+03
       156  21  1.757254E+05  8.140012E+04 -1.606340E+03  1.256630E+05 -7.600634E+02 -2.680335E+03
       156  22  1.926464E+05  9.401467E+04  5.406854E+03  1.334887E+05 -1.630926E+03 -4.584071E+03
       156  23  1.912871E+05  9.408474E+04  3.098787E+03  1.341574E+05 -6.470541E+02 -3.316921E+03
       156  24  1.921588E+05  9.314734E+04  2.002225E+03  1.341393E+05  2.446766E+02 -1.926910E+03
       156  25  2.225673E+05  1.139719E+05  1.215286E+04  1.481856E+05 -1.098282E+03 -4.184622E+03
       156  26  2.144387E+05  1.099115E+05  8.173673E+03  1.457442E+05  1.216593E+02 -2.740467E+03
       156  27  2.085925E+05  1.048947E+05  5.610778E+03  1.426158E+05  1.249451E+03 -1.173457E+03
       157   1  1.796193E+05  8.433567E+04 -9.731808E+02  1.277247E+05  7.261814E+02  2.172695E+03
       157   2  1.850522E+05  8.959609E+04  2.231159E+02  1.312072E+05  5.141593E+02  1.198381E+03
       157   3  1.922918E+05  9.328656E+04  1.937969E+03  1.342050E+05  3.046323E+02  2.206925E+02
       157   4  1.921215E+05  9.312342E+04  1.720570E+03  1.341086E+05 -2.729093E+02  1.423508E+03
       157   5  1.912193E+05  9.391088E+04  1.538578E+03  1.343487E+05 -4.914044E+02  4.443406E+02
       157   6  1.921250E+05  9.312970E+04  1.880691E+03  1.341040E+05 -7.073885E+02 -5.381815E+02
       157   7  2.046241E+05  1.019115E+05  4.414408E+03  1.404928E+05 -1.272047E+03  6.742861E+02
       157   8  1.973864E+05  9.822570E+04  2.854045E+03  1.374902E+05 -1.496981E+03 -3.097099E+02
       157   9  1.919583E+05  9.297284E+04  1.823419E+03  1.340030E+05 -1.719389E+03 -1.297040E+03
       157  10  1.796193E+05  8.433567E+04 -9.731907E+02  1.277247E+05 -2.126789E-08 -1.835931E-08
       157  11  1.850522E+05  8.959609E+04  2.231127E+02  1.312072E+05 -7.507072E-09 -6.617949E-09
       157  12  1.922918E+05  9.328656E+04  1.937969E+03  1.342050E+05  1.603055E-08  1.274153E-08
       157  13  1.921215E+05  9.312342E+04  1.720566E+03  1.341086E+05 -2.879300E-09 -2.832024E-09
       157  14  1.912193E+05  9.391088E+04  1.538578E+03  1.343487E+05 -7.241115E-09 -6.684539E-09
       157  15  1.921250E+05  9.312970E+04  1.880689E+03  1.341040E+05 -2.926334E-09 -2.866685E-09
       157  16  2.046241E+05  1.019114E+05  4.414404E+03  1.404928E+05  1.584847E-08  1.267092E-08
       157  17  1.973864E+05  9.822570E+04  2.854041E+03  1.374902E+05 -7.284929E-09 -6.737692E-09
       157  18  1.919583E+05  9.297284E+04  1.823411E+03  1.340030E+05 -2.160946E-08 -1.851816E-08
       157  19  1.796193E+05  8.433567E+04 -9.731808E+02  1.277247E+05 -7.261814E+02 -2.172695E+03
       157  20  1.850522E+05  8.959609E+04  2.231159E+02  1.312072E+05 -5.141593E+02 -1.198381E+03
       157  21  1.922918E+05  9.328656E+04  1.937969E+03  1.342050E+05 -3.046323E+02 -2.206925E+02
       157  22  1.921215E+05  9.312342E+04  1.720570E+03  1.341086E+05  2.729093E+02 -1.423508E+03
       157  23  1.912193E+05  9.391088E+04  1.538578E+03  1.343487E+05  4.914044E+02 -4.443406E+02
       157  24  1.921250E+05  9.312970E+04  1.880691E+03  1.341040E+05  7.073885E+02  5.381815E+02
       157  25  2.046241E+05  1.019115E+05  4.414408E+03  1.404928E+05  1.272047E+03 -6.742861E+02
       157  26  1.973864E+05  9.822570E+04  2.854045E+03  1.374902E+05  1.496981E+03  3.097099E+02
       157  27  1.919583E+05  9.297284E+04  1.823419E+03  1.340030E+05  1.719389E+03  1.297040E+03
       158   1  1.962514E+05  9.628923E+04  3.224237E+03  1.363406E+05  2.539095E+02 -3.035664E+02
       158   2  2.021682E+05  1.012486E+05  6.018277E+03  1.394104E+05 -1.003253E+03 -2.001727E+03
       158   3  2.104584E+05  1.053607E+05  1.038246E+04  1.417531E+05 -2.328460E+03 -3.609190E+03
       158   4  1.921727E+05  9.315784E+04  2.256846E+03  1.341429E+05 -7.619686E+02 -1.065331E+03
       158   5  1.912947E+05  9.411587E+04  3.617549E+03  1.341198E+05 -1.844860E+03 -2.632822E+03
       158   6  1.927523E+05  9.418881E+04  6.397207E+03  1.333695E+05 -2.995786E+03 -4.109612E+03
       158   7  1.880940E+05  9.002646E+04  1.289458E+03  1.319451E+05 -1.777839E+03 -1.827089E+03
       158   8  1.804212E+05  8.698310E+04  1.216779E+03  1.288292E+05 -2.686456E+03 -3.263910E+03
       158   9  1.750461E+05  8.301679E+04  2.411811E+03  1.249861E+05 -3.663100E+03 -4.610029E+03
       158  10  1.962514E+05  9.628923E+04  3.224237E+03  1.363406E+05 -1.177279E-10  1.124358E-09
       158  11  2.021682E+05  1.012486E+05  6.018268E+03  1.394104E+05  5.251603E-11  6.788087E-10
       158  12  2.104584E+05  1.053607E+05  1.038243E+04  1.417531E+05  1.127257E-10  5.462098E-10
       158  13  1.921727E+05  9.315783E+04  2.256842E+03  1.341429E+05 -1.036471E-10 -1.816827E-10
       158  14  1.912947E+05  9.411587E+04  3.617530E+03  1.341198E+05  2.823470E-11  1.168705E-10
       158  15  1.927522E+05  9.418879E+04  6.397158E+03  1.333695E+05 -3.628642E-10  2.335059E-10
       158  16  1.880940E+05  9.002645E+04  1.289446E+03  1.319451E+05  3.459730E-10 -1.503767E-09
       158  17  1.804212E+05  8.698309E+04  1.216745E+03  1.288292E+05 -4.666456E-10 -3.993215E-10
       158  18  1.750461E+05  8.301676E+04  2.411746E+03  1.249860E+05 -7.403213E-10 -5.540638E-11
       158  19  1.962514E+05  9.628923E+04  3.224237E+03  1.363406E+05 -2.539095E+02  3.035664E+02
       158  20  2.021682E+05  1.012486E+05  6.018277E+03  1.394104E+05  1.003253E+03  2.001727E+03
       158  21  2.104584E+05  1.053607E+05  1.038246E+04  1.417531E+05  2.328460E+03  3.609190E+03
       158  22  1.921727E+05  9.315784E+04  2.256846E+03  1.341429E+05  7.619686E+02  1.065331E+03
       158  23  1.912947E+05  9.411587E+04  3.617549E+03  1.341198E+05  1.844860E+03  2.632822E+03
       158  24  1.927523E+05  9.418881E+04  6.397207E+03  1.333695E+05  2.995786E+03  4.109612E+03
       158  25  1.880940E+05  9.002646E+04  1.289458E+03  1.319451E+05  1.777839E+03  1.827089E+03
       158  26  1.804212E+05  8.698310E+04  1.216779E+03  1.288292E+05  2.686456E+03  3.263910E+03
       158  27  1.750461E+05  8.301679E+04  2.411811E+03  1.249861E+05  3.663100E+03  4.610029E+03
       159   1  2.137427E+05  1.101302E+05  1.343721E+04  1.446325E+05 -2.982161E+03 -4.476931E+03
       159   2  2.291021E+05  1.092140E+05  2.260718E+04  1.412521E+05 -1.100265E+04 -1.038965E+04
       159   3  2.547269E+05  1.181455E+05  4.202528E+04  1.326054E+05 -1.967507E+04 -1.543296E+04
       159   4  1.933853E+05  9.462870E+04  8.418639E+03  1.337591E+05 -3.692044E+03 -5.009258E+03
       159   5  1.932414E+05  9.843730E+04  1.533617E+04  1.299782E+05 -1.004264E+04 -9.670042E+03
       159   6  2.030010E+05  1.117316E+05  3.105330E+04  1.209310E+05 -1.704497E+04 -1.346161E+04
       159   7  1.730288E+05  7.912789E+04  3.400200E+03  1.228864E+05 -4.401881E+03 -5.541548E+03
       159   8  1.573828E+05  8.766091E+04  8.065237E+03  1.187049E+05 -9.082731E+03 -8.950456E+03
       159   9  1.512786E+05  1.053182E+05  2.008139E+04  1.092571E+05 -1.441519E+04 -1.149026E+04
       159  10  2.137427E+05  1.101301E+05  1.343715E+04  1.446325E+05  5.072118E-10  7.169391E-10
       159  11  2.291019E+05  1.092138E+05  2.260675E+04  1.412520E+05  4.264758E-10  2.511627E-10
       159  12  2.547264E+05  1.181451E+05  4.202411E+04  1.326051E+05  8.836192E-11 -5.000827E-11
       159  13  1.933853E+05  9.462867E+04  8.418566E+03  1.337591E+05 -3.120367E-10  1.573014E-10
       159  14  1.932413E+05  9.843717E+04  1.533580E+04  1.299781E+05  1.780060E-10  1.188927E-11
       159  15  2.030006E+05  1.117314E+05  3.105241E+04  1.209308E+05 -1.161313E-10 -2.381280E-11
       159  16  1.730288E+05  7.912785E+04  3.400106E+03  1.228864E+05 -8.646865E-10 -3.764256E-10
       159  17  1.573826E+05  8.766080E+04  8.064932E+03  1.187048E+05 -5.971373E-10 -2.408353E-10
       159  18  1.512784E+05  1.053180E+05  2.008076E+04  1.092569E+05 -1.401810E-11  2.548311E-11
       159  19  2.137427E+05  1.101302E+05  1.343721E+04  1.446325E+05  2.982161E+03  4.476931E+03
       159  20  2.291021E+05  1.092140E+05  2.260718E+04  1.412521E+05  1.100265E+04  1.038965E+04
       159  21  2.547269E+05  1.181455E+05  4.202528E+04  1.326054E+05  1.967507E+04  1.543296E+04
       159  22  1.933853E+05  9.462870E+04  8.418639E+03  1.337591E+05  3.692044E+03  5.009258E+03
       159  23  1.932414E+05  9.843730E+04  1.533617E+04  1.299782E+05  1.004264E+04  9.670042E+03
       159  24  2.030010E+05  1.117316E+05  3.105330E+04  1.209310E+05  1.704497E+04  1.346161E+04
       159  25  1.730288E+05  7.912789E+04  3.400200E+03  1.228864E+05  4.401881E+03  5.541548E+03
       159  26  1.573828E+05  8.766091E+04  8.065237E+03  1.187049E+05  9.082731E+03  8.950456E+03
       159  27  1.512786E+05  1.053182E+05  2.008139E+04  1.092571E+05  1.441519E+04  1.149026E+04
       160   1  3.466771E+05  4.234084E+04  4.477092E+04  2.913254E+04  2.730071E+04 -4.885696E+02
       160   2  3.365565E+05  1.683041E+04  2.396375E+04  1.761295E+04  1.649370E+04 -1.553216E+03
       160   3  3.320682E+05  8.224456E+03  1.441579E+04  7.482460E+03  5.687045E+03 -1.660746E+03
       160   4  3.054466E+05  3.215907E+04  3.507887E+04  8.254062E+03  2.433704E+04 -4.894794E+02
       160   5  3.027923E+05  8.780676E+03  1.746770E+04  7.559697E+03  1.536831E+04 -1.553492E+03
       160   6  3.054513E+05  1.987848E+03  9.840004E+03  8.254055E+03  6.399747E+03 -1.660740E+03
       160   7  2.642187E+05  2.197882E+04  2.538697E+04 -1.262302E+04  2.137357E+04 -4.901900E+02
       160   8  2.690294E+05  7.312578E+02  1.097166E+04 -2.493000E+03  1.424299E+04 -1.553731E+03
       160   9  2.788351E+05 -4.248795E+03  5.264194E+03  9.025616E+03  7.112419E+03 -1.660732E+03
       160  10  3.466763E+05  4.234064E+04  4.476952E+04  2.913255E+04  3.716857E-11  1.350923E-11
       160  11  3.365563E+05  1.683033E+04  2.396323E+04  1.761297E+04  2.471033E-11  7.067338E-11
       160  12  3.320682E+05  8.224445E+03  1.441573E+04  7.482468E+03  1.228470E-11  1.220074E-10
       160  13  3.054460E+05  3.215891E+04  3.507776E+04  8.254072E+03 -1.266560E-10  1.578679E-11
       160  14  3.027921E+05  8.780610E+03  1.746726E+04  7.559716E+03 -4.020585E-11  3.606094E-11
       160  15  3.054513E+05  1.987834E+03  9.839922E+03  8.254063E+03  3.587221E-10  4.777845E-11
       160  16  2.642182E+05  2.197870E+04  2.538611E+04 -1.262301E+04  4.465779E-11 -1.142166E-11
       160  17  2.690292E+05  7.312007E+02  1.097128E+04 -2.492982E+03 -2.123229E-10 -1.809504E-11
       160  18  2.788350E+05 -4.248811E+03  5.264093E+03  9.025625E+03  1.391060E-10 -4.741320E-11
       160  19  3.466771E+05  4.234084E+04  4.477092E+04  2.913254E+04 -2.730071E+04  4.885696E+02
       160  20  3.365565E+05  1.683041E+04  2.396375E+04  1.761295E+04 -1.649370E+04  1.553216E+03
       160  21  3.320682E+05  8.224456E+03  1.441579E+04  7.482460E+03 -5.687045E+03  1.660746E+03
       160  22  3.054466E+05  3.215907E+04  3.507887E+04  8.254062E+03 -2.433704E+04  4.894794E+02
       160  23  3.027923E+05  8.780676E+03  1.746770E+04  7.559697E+03 -1.536831E+04  1.553492E+03
       160  24  3.054513E+05  1.987848E+03  9.840004E+03  8.254055E+03 -6.399747E+03  1.660740E+03
       160  25  2.642187E+05  2.197882E+04  2.538697E+04 -1.262302E+04 -2.137357E+04  4.901900E+02
       160  26  2.690294E+05  7.312578E+02  1.097166E+04 -2.493000E+03 -1.424299E+04  1.553731E+03
       160  27  2.788351E+05 -4.248795E+03  5.264194E+03  9.025616E+03 -7.112419E+03  1.660732E+03
       161   1  3.263279E+05  6.955266E+03  1.139231E+04  9.208470E+03  4.423706E+03 -1.415230E+03
       161   2  3.187097E+05  3.772737E+03  7.290997E+03  7.945076E+03  1.791818E+03 -1.021783E+03
       161   3  3.117344E+05  1.791935E+03  5.202944E+03  8.135253E+03 -8.400793E+02 -5.351532E+02
       161   4  3.044063E+05  1.830665E+03  7.683036E+03  8.268501E+03  5.089882E+03 -1.415235E+03
       161   5  3.041006E+05  3.772187E+02  4.917310E+03  7.541722E+03  2.637043E+03 -1.021776E+03
       161   6  3.044068E+05  9.448235E+01  4.040632E+03  8.268519E+03  1.841681E+02 -5.351392E+02
       161   7  2.824853E+05 -3.293958E+03  3.973753E+03  7.328567E+03  5.756035E+03 -1.415242E+03
       161   8  2.894918E+05 -3.018310E+03  2.543620E+03  7.138378E+03  3.482249E+03 -1.021771E+03
       161   9  2.970794E+05 -1.602972E+03  2.878324E+03  8.401783E+03  1.208404E+03 -5.351248E+02
       161  10  3.263278E+05  6.955259E+03  1.139227E+04  9.208475E+03  1.116663E-11  1.122115E-10
       161  11  3.187097E+05  3.772735E+03  7.290989E+03  7.945078E+03  2.354811E-11  4.701177E-11
       161  12  3.117344E+05  1.791935E+03  5.202942E+03  8.135253E+03  1.812053E-10  2.163999E-11
       161  13  3.044063E+05  1.830656E+03  7.682984E+03  8.268507E+03  3.782482E-10  5.360546E-11
       161  14  3.041006E+05  3.772157E+02  4.917295E+03  7.541725E+03  2.315879E-10  2.911828E-11
       161  15  3.044068E+05  9.448204E+01  4.040632E+03  8.268519E+03  5.573762E-11 -4.111734E-11
       161  16  2.824853E+05 -3.293969E+03  3.973687E+03  7.328573E+03  8.556643E-11 -2.440542E-11
       161  17  2.894918E+05 -3.018314E+03  2.543595E+03  7.138381E+03  1.992764E-10 -3.620456E-12
       161  18  2.970793E+05 -1.602973E+03  2.878321E+03  8.401783E+03 -8.017686E-11 -1.005675E-10
       161  19  3.263279E+05  6.955266E+03  1.139231E+04  9.208470E+03 -4.423706E+03  1.415230E+03
       161  20  3.187097E+05  3.772737E+03  7.290997E+03  7.945076E+03 -1.791818E+03  1.021783E+03
       161  21  3.117344E+05  1.791935E+03  5.202944E+03  8.135253E+03  8.400793E+02  5.351532E+02
       161  22  3.044063E+05  1.830665E+03  7.683036E+03  8.268501E+03 -5.089882E+03  1.415235E+03
       161  23  3.041006E+05  3.772187E+02  4.917310E+03  7.541722E+03 -2.637043E+03  1.021776E+03
       161  24  3.044068E+05  9.448235E+01  4.040632E+03  8.268519E+03 -1.841681E+02  5.351392E+02
       161  25  2.824853E+05 -3.293958E+03  3.973753E+03  7.328567E+03 -5.756035E+03  1.415242E+03
       161  26  2.894918E+05 -3.018310E+03  2.543620E+03  7.138378E+03 -3.482249E+03  1.021771E+03
       161  27  2.970794E+05 -1.602972E+03  2.878324E+03  8.401783E+03 -1.208404E+03  5.351248E+02
       162   1  3.070962E+05  7.086480E+02  4.495892E+03  8.433504E+03 -1.541760E+03 -2.181915E+02
       162   2  2.994806E+05 -6.579834E+02  4.439571E+03  7.108947E+03 -4.026775E+03  2.807483E+02
       162   3  2.925034E+05 -7.644639E+02  6.315599E+03  7.239415E+03 -6.511766E+03  7.123180E+02
       162   4  3.044177E+05  9.380195E+01  4.099217E+03  8.268840E+03 -5.186839E+02 -2.181760E+02
       162   5  3.040870E+05  4.230523E+02  5.239781E+03  7.541321E+03 -3.133127E+03  2.807574E+02
       162   6  3.044172E+05  2.034905E+03  8.402520E+03  8.268819E+03 -5.747574E+03  7.123162E+02
       162   7  3.017393E+05 -5.210438E+02  3.702547E+03  8.104176E+03  5.043877E+02 -2.181610E+02
       162   8  3.086935E+05  1.504088E+03  6.039994E+03  7.973699E+03 -2.239473E+03  2.807678E+02
       162   9  3.163312E+05  4.834271E+03  1.048944E+04  9.298243E+03 -4.983367E+03  7.123169E+02
       162  10  3.070962E+05  7.086473E+02  4.495887E+03  8.433504E+03  1.336959E-10 -4.033536E-12
       162  11  2.994805E+05 -6.579879E+02  4.439540E+03  7.108948E+03  1.173036E-10 -9.070772E-11
       162  12  2.925034E+05 -7.644758E+02  6.315518E+03  7.239419E+03 -2.366689E-12 -1.573797E-10
       162  13  3.044177E+05  9.380182E+01  4.099217E+03  8.268840E+03 -2.088598E-11 -7.048165E-11
       162  14  3.040870E+05  4.230496E+02  5.239762E+03  7.541322E+03  3.282254E-10 -1.035767E-10
       162  15  3.044172E+05  2.034896E+03  8.402457E+03  8.268822E+03 -9.156265E-11 -1.297867E-10
       162  16  3.017393E+05 -5.210439E+02  3.702546E+03  8.104176E+03 -1.578835E-10 -1.505527E-10
       162  17  3.086935E+05  1.504087E+03  6.039984E+03  7.973699E+03  5.249453E-11 -1.407232E-10
       162  18  3.163311E+05  4.834264E+03  1.048939E+04  9.298246E+03 -5.084716E-11 -9.447006E-11
       162  19  3.070962E+05  7.086480E+02  4.495892E+03  8.433504E+03  1.541760E+03  2.181915E+02
       162  20  2.994806E+05 -6.579834E+02  4.439571E+03  7.108947E+03  4.026775E+03 -2.807483E+02
       162  21  2.925034E+05 -7.644639E+02  6.315599E+03  7.239415E+03  6.511766E+03 -7.123180E+02
       162  22  3.044177E+05  9.380195E+01  4.099217E+03  8.268840E+03  5.186839E+02  2.181760E+02
       162  23  3.040870E+05  4.230523E+02  5.239781E+03  7.541321E+03  3.133127E+03 -2.807574E+02
       162  24  3.044172E+05  2.034905E+03  8.402520E+03  8.268819E+03  5.747574E+03 -7.123162E+02
       162  25  3.017393E+05 -5.210438E+02  3.702547E+03  8.104176E+03 -5.043877E+02  2.181610E+02
       162  26  3.086935E+05  1.504088E+03  6.039994E+03  7.973699E+03  2.239473E+03 -2.807678E+02
       162  27  3.163312E+05  4.834271E+03  1.048944E+04  9.298243E+03  4.983367E+03 -7.123169E+02
       163   1  2.889839E+05 -1.694982E+03  7.901424E+03  9.123090E+03 -7.981504E+03  9.775736E+02
       163   2  2.788562E+05  4.055485E+03  1.467353E+04 -3.587157E+03 -1.649463E+04  1.026262E+03
       163   3  2.743742E+05  2.795602E+04  3.152410E+04 -1.489168E+04 -2.500753E+04  3.392166E+02
       163   4  3.055796E+05  2.208102E+03  1.082681E+04  8.257807E+03 -7.181728E+03  9.775920E+02
       163   5  3.026318E+05  9.740866E+03  1.933285E+04  7.554970E+03 -1.710888E+04  1.025958E+03
       163   6  3.055744E+05  3.566811E+04  3.889861E+04  8.257653E+03 -2.703591E+04  3.382743E+02
       163   7  3.221756E+05  6.111174E+03  1.375218E+04  7.392499E+03 -6.381931E+03  9.776082E+02
       163   8  3.264083E+05  1.542668E+04  2.399221E+04  1.869753E+04 -1.772316E+04  1.025632E+03
       163   9  3.367767E+05  4.338215E+04  4.627336E+04  3.140815E+04 -2.906438E+04  3.371810E+02
       163  10  2.889838E+05 -1.695000E+03  7.901303E+03  9.123096E+03  1.042703E-10 -1.583779E-10
       163  11  2.788559E+05  4.055411E+03  1.467302E+04 -3.587143E+03  8.730194E-11 -9.505453E-11
       163  12  2.743735E+05  2.795585E+04  3.152292E+04 -1.489167E+04  8.155672E-12 -2.769631E-11
       163  13  3.055795E+05  2.208087E+03  1.082671E+04  8.257812E+03 -2.189606E-10 -1.341007E-10
       163  14  3.026315E+05  9.740787E+03  1.933230E+04  7.554984E+03 -2.692804E-10 -9.144138E-11
       163  15  3.055736E+05  3.566792E+04  3.889724E+04  8.257660E+03 -3.648183E-11 -2.383287E-11
       163  16  3.221755E+05  6.111162E+03  1.375210E+04  7.392504E+03 -1.202135E-10 -9.904544E-11
       163  17  3.264080E+05  1.542660E+04  2.399162E+04  1.869755E+04 -3.208195E-10 -1.101914E-10
       163  18  3.367758E+05  4.338193E+04  4.627178E+04  3.140816E+04  2.553658E-10 -1.960395E-11
       163  19  2.889839E+05 -1.694982E+03  7.901424E+03  9.123090E+03  7.981504E+03 -9.775736E+02
       163  20  2.788562E+05  4.055485E+03  1.467353E+04 -3.587157E+03  1.649463E+04 -1.026262E+03
       163  21  2.743742E+05  2.795602E+04  3.152410E+04 -1.489168E+04  2.500753E+04 -3.392166E+02
       163  22  3.055796E+05  2.208102E+03  1.082681E+04  8.257807E+03  7.181728E+03 -9.775920E+02
       163  23  3.026318E+05  9.740866E+03  1.933285E+04  7.554970E+03  1.710888E+04 -1.025958E+03
       163  24  3.055744E+05  3.566811E+04  3.889861E+04  8.257653E+03  2.703591E+04 -3.382743E+02
       163  25  3.221756E+05  6.111174E+03  1.375218E+04  7.392499E+03  6.381931E+03 -9.776082E+02
       163  26  3.264083E+05  1.542668E+04  2.399221E+04  1.869753E+04  1.772316E+04 -1.025632E+03
       163  27  3.367767E+05  4.338215E+04  4.627336E+04  3.140815E+04  2.906438E+04 -3.371810E+02
       164   1 -5.379162E+04 -1.244016E+05 -5.687188E+04  3.510493E+04 -6.907445E+02 -3.391563E+04
       164   2 -2.216359E+04 -1.129145E+05 -3.140988E+04  2.082123E+04 -2.236025E+03 -1.996538E+04
       164   3 -1.176377E+04 -1.085511E+05 -2.033800E+04  8.025649E+03 -2.514332E+03 -6.014690E+03
       164   4 -4.018314E+04 -6.927352E+04 -4.394894E+04  8.947683E+03 -6.891620E+02 -2.973118E+04
       164   5 -1.097446E+04 -6.592212E+04 -2.245422E+04  8.202572E+03 -2.235531E+03 -1.821337E+04
       164   6 -2.571386E+03 -6.927201E+04 -1.365965E+04  8.946098E+03 -2.514361E+03 -6.695401E+03
       164   7 -2.657229E+04 -1.414115E+04 -3.102579E+04 -1.721190E+04 -6.879322E+02 -2.554636E+04
       164   8  2.151435E+02 -1.892727E+04 -1.349855E+04 -4.417060E+03 -2.235107E+03 -1.646124E+04
       164   9  6.620921E+03 -2.999140E+04 -6.981355E+03  9.866607E+03 -2.514392E+03 -7.376153E+03
       164  10 -5.379193E+04 -1.244028E+05 -5.687404E+04  3.510491E+04  5.472342E-11 -1.142149E-10
       164  11 -2.216371E+04 -1.129149E+05 -3.141064E+04  2.082119E+04 -3.711969E-11 -5.245733E-13
       164  12 -1.176379E+04 -1.085511E+05 -2.033808E+04  8.025637E+03 -2.256953E-11  1.480597E-10
       164  13 -4.018338E+04 -6.927447E+04 -4.395061E+04  8.947667E+03 -1.212978E-11  5.737713E-12
       164  14 -1.097455E+04 -6.592247E+04 -2.245485E+04  8.202540E+03 -1.714498E-10  1.319277E-11
       164  15 -2.571405E+03 -6.927206E+04 -1.365975E+04  8.946085E+03  9.903399E-11  5.457779E-12
       164  16 -2.657247E+04 -1.414185E+04 -3.102701E+04 -1.721192E+04 -1.212116E-10  1.054227E-10
       164  17  2.150654E+02 -1.892756E+04 -1.349907E+04 -4.417090E+03 -2.680240E-11  2.415425E-11
       164  18  6.620900E+03 -2.999146E+04 -6.981469E+03  9.866593E+03  3.733659E-11 -1.363150E-10
       164  19 -5.379162E+04 -1.244016E+05 -5.687188E+04  3.510493E+04  6.907445E+02  3.391563E+04
       164  20 -2.216359E+04 -1.129145E+05 -3.140988E+04  2.082123E+04  2.236025E+03  1.996538E+04
       164  21 -1.176377E+04 -1.085511E+05 -2.033800E+04  8.025649E+03  2.514332E+03  6.014690E+03
       164  22 -4.018314E+04 -6.927352E+04 -4.394894E+04  8.947683E+03  6.891620E+02  2.973118E+04
       164  23 -1.097446E+04 -6.592212E+04 -2.245422E+04  8.202572E+03  2.235531E+03  1.821337E+04
       164  24 -2.571386E+03 -6.927201E+04 -1.365965E+04  8.946098E+03  2.514361E+03  6.695401E+03
       164  25 -2.657229E+04 -1.414115E+04 -3.102579E+04 -1.721190E+04  6.879322E+02  2.554636E+04
       164  26  2.151435E+02 -1.892727E+04 -1.349855E+04 -4.417060E+03  2.235107E+03  1.646124E+04
       164  27  6.620921E+03 -2.999140E+04 -6.981355E+03  9.866607E+03  2.514392E+03  7.376153E+03
       165   1 -1.035024E+04 -1.022464E+05 -1.717861E+04  1.033484E+04 -2.268858E+03 -4.167536E+03
       165   2 -7.094015E+03 -9.365713E+04 -1.377221E+04  8.177218E+03 -1.885043E+03  8.492621E+02
       165   3 -6.612090E+03 -8.641477E+04 -1.432585E+04  7.594742E+03 -1.378742E+03  5.866107E+03
       165   4 -2.373411E+03 -6.807313E+04 -1.147018E+04  8.965429E+03 -2.268871E+03 -4.786411E+03
       165   5 -1.005393E+03 -6.741999E+04 -9.568643E+03  8.177840E+03 -1.885085E+03 -4.589765E+00
       165   6 -2.370807E+03 -6.807299E+04 -1.146381E+04  8.965410E+03 -1.378793E+03  4.777218E+03
       165   7  5.603366E+03 -3.389869E+04 -5.761797E+03  7.595941E+03 -2.268881E+03 -5.405319E+03
       165   8  5.083195E+03 -4.118217E+04 -5.365090E+03  8.178462E+03 -1.885126E+03 -8.584764E+02
       165   9  1.870467E+03 -4.973086E+04 -8.601787E+03  1.033612E+04 -1.378849E+03  3.688299E+03
       165  10 -1.035025E+04 -1.022464E+05 -1.717865E+04  1.033483E+04  1.999967E-11  1.657599E-11
       165  11 -7.094019E+03 -9.365713E+04 -1.377222E+04  8.177219E+03 -3.661079E-11 -1.721255E-12
       165  12 -6.612101E+03 -8.641481E+04 -1.432591E+04  7.594748E+03  6.648833E-11 -1.455237E-11
       165  13 -2.373422E+03 -6.807315E+04 -1.147024E+04  8.965420E+03  1.071096E-10  1.483868E-11
       165  14 -1.005397E+03 -6.741999E+04 -9.568650E+03  8.177840E+03  1.270967E-10  1.136176E-11
       165  15 -2.370815E+03 -6.807301E+04 -1.146386E+04  8.965416E+03  2.791698E-11 -1.268844E-11
       165  16  5.603353E+03 -3.389872E+04 -5.761862E+03  7.595931E+03  5.773763E-11 -2.538196E-11
       165  17  5.083191E+03 -4.118217E+04 -5.365098E+03  8.178461E+03  1.474866E-10  3.742603E-11
       165  18  1.870462E+03 -4.973088E+04 -8.601816E+03  1.033613E+04  1.480919E-10  1.282640E-11
       165  19 -1.035024E+04 -1.022464E+05 -1.717861E+04  1.033484E+04  2.268858E+03  4.167536E+03
       165  20 -7.094015E+03 -9.365713E+04 -1.377221E+04  8.177218E+03  1.885043E+03 -8.492621E+02
       165  21 -6.612090E+03 -8.641477E+04 -1.432585E+04  7.594742E+03  1.378742E+03 -5.866107E+03
       165  22 -2.373411E+03 -6.807313E+04 -1.147018E+04  8.965429E+03  2.268871E+03  4.786411E+03
       165  23 -1.005393E+03 -6.741999E+04 -9.568643E+03  8.177840E+03  1.885085E+03  4.589765E+00
       165  24 -2.370807E+03 -6.807299E+04 -1.146381E+04  8.965410E+03  1.378793E+03 -4.777218E+03
       165  25  5.603366E+03 -3.389869E+04 -5.761797E+03  7.595941E+03  2.268881E+03  5.405319E+03
       165  26  5.083195E+03 -4.118217E+04 -5.365090E+03  8.178462E+03  1.885126E+03  8.584764E+02
       165  27  1.870467E+03 -4.973086E+04 -8.601787E+03  1.033612E+04  1.378849E+03 -3.688299E+03
       166   1 -5.632378E+03 -8.256524E+04 -1.567387E+04  9.883060E+03 -1.039275E+03  7.772893E+03
       166   2 -1.218220E+04 -7.131721E+04 -2.312890E+04 -4.430016E+03 -5.215113E+02  1.909081E+04
       166   3 -3.948326E+04 -6.673080E+04 -4.314039E+04 -1.716557E+04 -1.026868E+02  3.040868E+04
       166   4 -2.568452E+03 -6.927035E+04 -1.364960E+04  8.965685E+03 -1.039354E+03  6.685051E+03
       166   5 -1.096257E+04 -6.592352E+04 -2.243303E+04  8.178073E+03 -5.211809E+02  1.819203E+04
       166   6 -4.014136E+04 -6.927159E+04 -4.390430E+04  8.967808E+03 -1.014533E+02  2.969884E+04
       166   7  4.954692E+02 -5.597528E+04 -1.162534E+04  8.048289E+03 -1.039430E+03  5.597188E+03
       166   8 -9.742342E+03 -6.052945E+04 -2.173707E+04  2.078628E+04 -5.208870E+02  1.729325E+04
       166   9 -4.079690E+04 -7.181091E+04 -4.466785E+04  3.510108E+04 -1.002797E+02  2.898900E+04
       166  10 -5.632395E+03 -8.256530E+04 -1.567398E+04  9.883067E+03 -3.127812E-11 -2.149809E-10
       166  11 -1.218230E+04 -7.131760E+04 -2.312959E+04 -4.430008E+03 -9.351882E-11 -8.686643E-11
       166  12 -3.948351E+04 -6.673179E+04 -4.314213E+04 -1.716557E+04 -1.284883E-10  8.025995E-11
       166  13 -2.568465E+03 -6.927040E+04 -1.364969E+04  8.965691E+03 -3.458465E-11  3.679063E-12
       166  14 -1.096266E+04 -6.592387E+04 -2.243365E+04  8.178080E+03 -8.323797E-11 -1.671098E-12
       166  15 -4.014160E+04 -6.927254E+04 -4.390596E+04  8.967811E+03 -3.399643E-11 -2.219731E-11
       166  16  4.954596E+02 -5.597532E+04 -1.162540E+04  8.048294E+03  3.805173E-11  2.007393E-10
       166  17 -9.742423E+03 -6.052977E+04 -2.173763E+04  2.078628E+04  7.916422E-13  1.199098E-10
       166  18 -4.079712E+04 -7.181181E+04 -4.466943E+04  3.510109E+04 -6.674645E-11 -8.088195E-11
       166  19 -5.632378E+03 -8.256524E+04 -1.567387E+04  9.883060E+03  1.039275E+03 -7.772893E+03
       166  20 -1.218220E+04 -7.131721E+04 -2.312890E+04 -4.430016E+03  5.215113E+02 -1.909081E+04
       166  21 -3.948326E+04 -6.673080E+04 -4.314039E+04 -1.716557E+04  1.026868E+02 -3.040868E+04
       166  22 -2.568452E+03 -6.927035E+04 -1.364960E+04  8.965685E+03  1.039354E+03 -6.685051E+03
       166  23 -1.096257E+04 -6.592352E+04 -2.243303E+04  8.178073E+03  5.211809E+02 -1.819203E+04
       166  24 -4.014136E+04 -6.927159E+04 -4.390430E+04  8.967808E+03  1.014533E+02 -2.969884E+04
       166  25  4.954692E+02 -5.597528E+04 -1.162534E+04  8.048289E+03  1.039430E+03 -5.597188E+03
       166  26 -9.742342E+03 -6.052945E+04 -2.173707E+04  2.078628E+04  5.208870E+02 -1.729325E+04
       166  27 -4.079690E+04 -7.181091E+04 -4.466785E+04  3.510108E+04  1.002797E+02 -2.898900E+04
       167   1  6.108051E+04  1.357633E+04 -1.245944E+04  4.643493E+04 -2.021628E+03 -3.145551E+02
       167   2  6.903694E+04  1.688462E+04 -9.693603E+03  5.195815E+04 -1.733019E+03  2.583749E+03
       167   3  8.006447E+04  1.954463E+04 -7.674228E+03  5.596859E+04 -3.681397E+02  4.047114E+03
       167   4  1.211190E+05  5.057960E+04  5.793202E+03  7.360344E+04  2.652426E+03  3.190664E+03
       167   5  1.183882E+05  4.900988E+04  2.871550E+03  7.555656E+04  1.854964E+02  4.022447E+03
       167   6  1.193258E+05  4.738969E+04  1.594876E+03  7.599682E+04 -1.205273E+03  3.419316E+03
       167   7  1.811626E+05  8.758499E+04  2.404595E+04  1.007753E+05  7.327194E+03  6.696338E+03
       167   8  1.677422E+05  8.113633E+04  1.543653E+04  9.915705E+04  2.104218E+03  5.461284E+03
       167   9  1.585882E+05  7.523513E+04  1.086361E+04  9.602613E+04 -2.042460E+03  2.791476E+03
       167  10  6.108051E+04  1.357633E+04 -1.245945E+04  4.643493E+04 -1.554580E-10  2.416786E-12
       167  11  6.903693E+04  1.688461E+04 -9.693621E+03  5.195815E+04 -7.859314E-11  1.215069E-10
       167  12  8.006447E+04  1.954462E+04 -7.674259E+03  5.596859E+04  3.110886E-10  6.229196E-11
       167  13  1.211190E+05  5.057958E+04  5.793170E+03  7.360343E+04 -1.556237E-11  1.360828E-11
       167  14  1.183882E+05  4.900987E+04  2.871520E+03  7.555656E+04 -1.453769E-10 -2.335839E-12
       167  15  1.193258E+05  4.738968E+04  1.594851E+03  7.599683E+04 -1.043661E-10 -5.667422E-11
       167  16  1.811625E+05  8.758493E+04  2.404577E+04  1.007752E+05 -5.941773E-11  8.689107E-12
       167  17  1.677422E+05  8.113630E+04  1.543647E+04  9.915704E+04 -3.577841E-10 -8.795853E-11
       167  18  1.585882E+05  7.523512E+04  1.086359E+04  9.602614E+04 -4.037233E-10 -2.090201E-10
       167  19  6.108051E+04  1.357633E+04 -1.245944E+04  4.643493E+04  2.021628E+03  3.145551E+02
       167  20  6.903694E+04  1.688462E+04 -9.693603E+03  5.195815E+04  1.733019E+03 -2.583749E+03
       167  21  8.006447E+04  1.954463E+04 -7.674228E+03  5.596859E+04  3.681397E+02 -4.047114E+03
       167  22  1.211190E+05  5.057960E+04  5.793202E+03  7.360344E+04 -2.652426E+03 -3.190664E+03
       167  23  1.183882E+05  4.900988E+04  2.871550E+03  7.555656E+04 -1.854964E+02 -4.022447E+03
       167  24  1.193258E+05  4.738969E+04  1.594876E+03  7.599682E+04  1.205273E+03 -3.419316E+03
       167  25  1.811626E+05  8.758499E+04  2.404595E+04  1.007753E+05 -7.327194E+03 -6.696338E+03
       167  26  1.677422E+05  8.113633E+04  1.543653E+04  9.915705E+04 -2.104218E+03 -5.461284E+03
       167  27  1.585882E+05  7.523513E+04  1.086361E+04  9.602613E+04  2.042460E+03 -2.791476E+03
       168   1  8.517715E+04  2.357466E+04 -6.619967E+03  5.873033E+04 -3.833709E+02  3.570964E+03
       168   2  9.254059E+04  3.044972E+04 -4.917958E+03  6.342481E+04 -3.210779E+01  3.092918E+03
       168   3  1.022049E+05  3.517399E+04 -3.182334E+03  6.742364E+04  4.320181E+02  2.464355E+03
       168   4  1.192312E+05  4.728435E+04  1.226937E+03  7.591760E+04 -1.150132E+03  2.995952E+03
       168   5  1.179951E+05  4.823176E+04  7.356664E+02  7.633807E+04 -1.087933E+03  2.301156E+03
       168   6  1.191225E+05  4.709098E+04  5.288518E+02  7.606281E+04 -9.128753E+02  1.455841E+03
       168   7  1.532865E+05  7.099476E+04  9.073784E+03  9.310598E+04 -1.916950E+03  2.420899E+03
       168   8  1.434506E+05  6.601440E+04  6.389360E+03  8.925209E+04 -2.143828E+03  1.509342E+03
       168   9  1.360408E+05  5.900842E+04  4.240158E+03  8.470243E+04 -2.257845E+03  4.472687E+02
       168  10  8.517715E+04  2.357465E+04 -6.619991E+03  5.873034E+04  4.006466E-10  5.115359E-11
       168  11  9.254059E+04  3.044971E+04 -4.917976E+03  6.342481E+04  4.240690E-10 -2.850577E-10
       168  12  1.022049E+05  3.517398E+04 -3.182346E+03  6.742364E+04  8.626431E-10 -9.102302E-10
       168  13  1.192311E+05  4.728434E+04  1.226917E+03  7.591761E+04 -4.803978E-11 -9.109334E-11
       168  14  1.179951E+05  4.823175E+04  7.356542E+02  7.633808E+04  9.640092E-11 -7.018861E-11
       168  15  1.191225E+05  4.709098E+04  5.288462E+02  7.606281E+04 -2.077701E-10  1.556042E-10
       168  16  1.532865E+05  7.099475E+04  9.073766E+03  9.310598E+04 -3.125790E-10 -2.794591E-10
       168  17  1.434506E+05  6.601440E+04  6.389347E+03  8.925210E+04 -3.109779E-10  7.098388E-11
       168  18  1.360408E+05  5.900842E+04  4.240149E+03  8.470243E+04 -1.198978E-09  1.262041E-09
       168  19  8.517715E+04  2.357466E+04 -6.619967E+03  5.873033E+04  3.833709E+02 -3.570964E+03
       168  20  9.254059E+04  3.044972E+04 -4.917958E+03  6.342481E+04  3.210779E+01 -3.092918E+03
       168  21  1.022049E+05  3.517399E+04 -3.182334E+03  6.742364E+04 -4.320181E+02 -2.464355E+03
       168  22  1.192312E+05  4.728435E+04  1.226937E+03  7.591760E+04  1.150132E+03 -2.995952E+03
       168  23  1.179951E+05  4.823176E+04  7.356664E+02  7.633807E+04  1.087933E+03 -2.301156E+03
       168  24  1.191225E+05  4.709098E+04  5.288518E+02  7.606281E+04  9.128753E+02 -1.455841E+03
       168  25  1.532865E+05  7.099476E+04  9.073784E+03  9.310598E+04  1.916950E+03 -2.420899E+03
       168  26  1.434506E+05  6.601440E+04  6.389360E+03  8.925209E+04  2.143828E+03 -1.509342E+03
       168  27  1.360408E+05  5.900842E+04  4.240158E+03  8.470243E+04  2.257845E+03 -4.472687E+02
       169   1  1.075686E+05  3.899012E+04 -1.998942E+03  7.017280E+04  6.630997E+02  1.992603E+03
       169   2  1.148893E+05  4.605189E+04 -1.196075E+02  7.481669E+04  9.768485E+02  1.137925E+03
       169   3  1.245010E+05  5.090453E+04  1.939630E+03  7.880676E+04  1.291841E+03  2.815717E+02
       169   4  1.191180E+05  4.708428E+04  4.935381E+02  7.605735E+04 -6.750435E+02  9.891584E+02
       169   5  1.179749E+05  4.819361E+04  5.364754E+02  7.638032E+04 -3.645108E+02  1.320792E+02
       169   6  1.191237E+05  4.709460E+04  7.621733E+02  7.604950E+04 -5.272996E+01 -7.266762E+02
       169   7  1.306672E+05  5.517835E+04  2.985939E+03  8.194191E+04 -2.013192E+03 -1.429065E+01
       169   8  1.210605E+05  5.033531E+04  1.192557E+03  7.794394E+04 -1.705865E+03 -8.737619E+02
       169   9  1.137465E+05  4.328471E+04 -4.152725E+02  7.329227E+04 -1.397285E+03 -1.734912E+03
       169  10  1.075686E+05  3.899011E+04 -1.998951E+03  7.017280E+04  1.112053E-08  6.946474E-09
       169  11  1.148893E+05  4.605189E+04 -1.196117E+02  7.481669E+04 -1.087869E-08 -7.374046E-09
       169  12  1.245010E+05  5.090453E+04  1.939626E+03  7.880676E+04 -2.000404E-08 -1.262970E-08
       169  13  1.191180E+05  4.708428E+04  4.935354E+02  7.605735E+04 -4.591587E-09 -2.845992E-09
       169  14  1.179749E+05  4.819361E+04  5.364752E+02  7.638032E+04 -1.086104E-08 -7.339369E-09
       169  15  1.191237E+05  4.709460E+04  7.621723E+02  7.604950E+04 -4.436255E-09 -2.865461E-09
       169  16  1.306672E+05  5.517835E+04  2.985931E+03  8.194191E+04 -2.012784E-08 -1.252764E-08
       169  17  1.210605E+05  5.033531E+04  1.192550E+03  7.794394E+04 -1.093931E-08 -7.376672E-09
       169  18  1.137465E+05  4.328470E+04 -4.152818E+02  7.329226E+04  1.114377E-08  6.838021E-09
       169  19  1.075686E+05  3.899012E+04 -1.998942E+03  7.017280E+04 -6.630997E+02 -1.992603E+03
       169  20  1.148893E+05  4.605189E+04 -1.196075E+02  7.481669E+04 -9.768485E+02 -1.137925E+03
       169  21  1.245010E+05  5.090453E+04  1.939630E+03  7.880676E+04 -1.291841E+03 -2.815717E+02
       169  22  1.191180E+05  4.708428E+04  4.935381E+02  7.605735E+04  6.750435E+02 -9.891584E+02
       169  23  1.179749E+05  4.819361E+04  5.364754E+02  7.638032E+04  3.645108E+02 -1.320792E+02
       169  24  1.191237E+05  4.709460E+04  7.621733E+02  7.604950E+04  5.272996E+01  7.266762E+02
       169  25  1.306672E+05  5.517835E+04  2.985939E+03  8.194191E+04  2.013192E+03  1.429065E+01
       169  26  1.210605E+05  5.033531E+04  1.192557E+03  7.794394E+04  1.705865E+03  8.737619E+02
       169  27  1.137465E+05  4.328471E+04 -4.152725E+02  7.329227E+04  1.397285E+03  1.734912E+03
       170   1  1.298609E+05  5.476960E+04  3.349933E+03  8.158917E+04  1.489131E+03 -2.174971E+02
       170   2  1.373898E+05  6.168040E+04  5.926043E+03  8.603470E+04  1.065878E+03 -1.528502E+03
       170   3  1.475112E+05  6.676805E+04  9.359060E+03  8.971800E+04  5.417703E+02 -2.705072E+03
       170   4  1.191452E+05  4.710931E+04  9.562111E+02  7.606926E+04  1.386509E+02 -1.230184E+03
       170   5  1.180085E+05  4.828287E+04  1.606183E+03  7.627485E+04 -2.636663E+01 -2.347566E+03
       170   6  1.194080E+05  4.757706E+04  2.888929E+03  7.571804E+04 -2.922110E+02 -3.330479E+03
       170   7  1.084296E+05  3.944893E+04 -1.437582E+03  7.054936E+04 -1.211825E+03 -2.242867E+03
       170   8  9.862762E+04  3.488557E+04 -2.713690E+03  6.651534E+04 -1.118566E+03 -3.166596E+03
       170   9  9.130630E+04  2.838692E+04 -3.581049E+03  6.171907E+04 -1.126125E+03 -3.955837E+03
       170  10  1.298609E+05  5.476960E+04  3.349929E+03  8.158917E+04 -1.362556E-09  1.139197E-09
       170  11  1.373898E+05  6.168040E+04  5.926036E+03  8.603471E+04 -2.975838E-10  7.954531E-11
       170  12  1.475112E+05  6.676804E+04  9.359046E+03  8.971801E+04 -4.598214E-11 -3.286725E-10
       170  13  1.191452E+05  4.710931E+04  9.562082E+02  7.606926E+04 -2.577544E-10  1.435314E-10
       170  14  1.180085E+05  4.828287E+04  1.606173E+03  7.627484E+04  1.049744E-10 -1.241973E-10
       170  15  1.194080E+05  4.757705E+04  2.888908E+03  7.571803E+04  3.114302E-10 -2.240973E-10
       170  16  1.084296E+05  3.944892E+04 -1.437595E+03  7.054935E+04  1.192365E-09 -9.018721E-10
       170  17  9.862762E+04  3.488555E+04 -2.713711E+03  6.651534E+04  6.235713E-10 -3.064849E-10
       170  18  9.130630E+04  2.838690E+04 -3.581081E+03  6.171907E+04  3.812711E-10 -1.561316E-10
       170  19  1.298609E+05  5.476960E+04  3.349933E+03  8.158917E+04 -1.489131E+03  2.174971E+02
       170  20  1.373898E+05  6.168040E+04  5.926043E+03  8.603470E+04 -1.065878E+03  1.528502E+03
       170  21  1.475112E+05  6.676805E+04  9.359060E+03  8.971800E+04 -5.417703E+02  2.705072E+03
       170  22  1.191452E+05  4.710931E+04  9.562111E+02  7.606926E+04 -1.386509E+02  1.230184E+03
       170  23  1.180085E+05  4.828287E+04  1.606183E+03  7.627485E+04  2.636663E+01  2.347566E+03
       170  24  1.194080E+05  4.757706E+04  2.888929E+03  7.571804E+04  2.922110E+02  3.330479E+03
       170  25  1.084296E+05  3.944893E+04 -1.437582E+03  7.054936E+04  1.211825E+03  2.242867E+03
       170  26  9.862762E+04  3.488557E+04 -2.713690E+03  6.651534E+04  1.118566E+03  3.166596E+03
       170  27  9.130630E+04  2.838692E+04 -3.581049E+03  6.171907E+04  1.126125E+03  3.955837E+03
       171   1  1.525942E+05  7.149744E+04  1.168298E+04  9.285236E+04  4.414858E+02 -3.266193E+03
       171   2  1.644031E+05  7.572951E+04  1.797714E+04  9.421113E+04 -5.023034E+03 -7.089883E+03
       171   3  1.826568E+05  8.341253E+04  3.041569E+04  9.276410E+04 -1.145142E+04 -9.628642E+03
       171   4  1.196801E+05  4.779363E+04  3.814974E+03  7.590072E+04 -4.554685E+02 -3.938829E+03
       171   5  1.189137E+05  5.022722E+04  6.971750E+03  7.438497E+04 -3.451795E+03 -5.911697E+03
       171   6  1.240567E+05  5.557669E+04  1.413122E+04  7.006331E+04 -7.411890E+03 -6.599563E+03
       171   7  8.676723E+04  2.409050E+04 -4.053104E+03  5.895013E+04 -1.352360E+03 -4.611417E+03
       171   8  7.342614E+04  2.472534E+04 -4.033920E+03  5.456009E+04 -1.880697E+03 -4.733584E+03
       171   9  6.545927E+04  2.774099E+04 -2.153806E+03  4.736404E+04 -3.372806E+03 -3.570649E+03
       171  10  1.525942E+05  7.149743E+04  1.168296E+04  9.285236E+04 -2.400722E-10 -4.260518E-10
       171  11  1.644030E+05  7.572945E+04  1.797699E+04  9.421110E+04 -1.359955E-10 -2.631128E-10
       171  12  1.826566E+05  8.341240E+04  3.041527E+04  9.276401E+04 -5.036817E-11 -1.265844E-10
       171  13  1.196801E+05  4.779361E+04  3.814944E+03  7.590072E+04  2.333336E-10 -2.378549E-10
       171  14  1.189136E+05  5.022717E+04  6.971662E+03  7.438495E+04  1.743430E-10 -1.037334E-10
       171  15  1.240567E+05  5.557663E+04  1.413103E+04  7.006327E+04 -1.172978E-10 -2.938204E-11
       171  16  8.676723E+04  2.409048E+04 -4.053148E+03  5.895013E+04  5.911945E-10 -2.525380E-11
       171  17  7.342613E+04  2.472532E+04 -4.033969E+03  5.456009E+04  3.545525E-10  6.885031E-11
       171  18  6.545926E+04  2.774097E+04 -2.153852E+03  4.736403E+04  2.000979E-10  7.488979E-11
       171  19  1.525942E+05  7.149744E+04  1.168298E+04  9.285236E+04 -4.414858E+02  3.266193E+03
       171  20  1.644031E+05  7.572951E+04  1.797714E+04  9.421113E+04  5.023034E+03  7.089883E+03
       171  21  1.826568E+05  8.341253E+04  3.041569E+04  9.276410E+04  1.145142E+04  9.628642E+03
       171  22  1.196801E+05  4.779363E+04  3.814974E+03  7.590072E+04  4.554685E+02  3.938829E+03
       171  23  1.189137E+05  5.022722E+04  6.971750E+03  7.438497E+04  3.451795E+03  5.911697E+03
       171  24  1.240567E+05  5.557669E+04  1.413122E+04  7.006331E+04  7.411890E+03  6.599563E+03
       171  25  8.676723E+04  2.409050E+04 -4.053104E+03  5.895013E+04  1.352360E+03  4.611417E+03
       171  26  7.342614E+04  2.472534E+04 -4.033920E+03  5.456009E+04  1.880697E+03  4.733584E+03
       171  27  6.545927E+04  2.774099E+04 -2.153806E+03  4.736404E+04  3.372806E+03  3.570649E+03
       172   1  3.439304E+05  4.704100E+04  4.881731E+04  3.552374E+04  2.696228E+04 -8.377428E+02
       172   2  3.264276E+05  2.181521E+04  2.696867E+04  2.437778E+04  1.562325E+04 -2.613651E+03
       172   3  3.142688E+05  1.206287E+04  1.636796E+04  1.606917E+04  4.284396E+03 -2.672475E+03
       172   4  2.704827E+05  2.889415E+04  3.151050E+04  1.676911E+04  2.190242E+04 -8.386654E+02
       172   5  2.680988E+05  7.890892E+03  1.565930E+04  1.535082E+04  1.386175E+04 -2.613948E+03
       172   6  2.704869E+05  1.789277E+03  8.767033E+03  1.676975E+04  5.820982E+03 -2.672428E+03
       172   7  1.970408E+05  1.074825E+04  1.420361E+04 -1.983292E+03  1.684316E+04 -8.392825E+02
       172   8  2.097734E+05 -6.033320E+03  4.349826E+03  6.324733E+03  1.210041E+04 -2.614194E+03
       172   9  2.267069E+05 -8.484413E+03  1.166044E+03  1.747027E+04  7.357463E+03 -2.672377E+03
       172  10  3.439296E+05  4.704080E+04  4.881594E+04  3.552376E+04 -3.737233E-11 -2.047334E-11
       172  11  3.264274E+05  2.181514E+04  2.696820E+04  2.437782E+04  1.109286E-10  4.221909E-11
       172  12  3.142688E+05  1.206285E+04  1.636792E+04  1.606918E+04 -2.585135E-10  1.098236E-10
       172  13  2.704822E+05  2.889402E+04  3.150960E+04  1.676913E+04  1.572680E-10  1.368342E-11
       172  14  2.680986E+05  7.890833E+03  1.565893E+04  1.535085E+04  2.277184E-10  5.169341E-11
       172  15  2.704869E+05  1.789260E+03  8.766956E+03  1.676976E+04  7.018331E-11  6.265986E-11
       172  16  1.970405E+05  1.074817E+04  1.420307E+04 -1.983280E+03  4.186957E-11  5.141120E-12
       172  17  2.097733E+05 -6.033366E+03  4.349538E+03  6.324758E+03  2.522429E-10  6.858039E-11
       172  18  2.267069E+05 -8.484435E+03  1.165929E+03  1.747029E+04  2.851269E-10  1.207062E-10
       172  19  3.439304E+05  4.704100E+04  4.881731E+04  3.552374E+04 -2.696228E+04  8.377428E+02
       172  20  3.264276E+05  2.181521E+04  2.696867E+04  2.437778E+04 -1.562325E+04  2.613651E+03
       172  21  3.142688E+05  1.206287E+04  1.636796E+04  1.606917E+04 -4.284396E+03  2.672475E+03
       172  22  2.704827E+05  2.889415E+04  3.151050E+04  1.676911E+04 -2.190242E+04  8.386654E+02
       172  23  2.680988E+05  7.890892E+03  1.565930E+04  1.535082E+04 -1.386175E+04  2.613948E+03
       172  24  2.704869E+05  1.789277E+03  8.767033E+03  1.676975E+04 -5.820982E+03  2.672428E+03
       172  25  1.970408E+05  1.074825E+04  1.420361E+04 -1.983292E+03 -1.684316E+04  8.392825E+02
       172  26  2.097734E+05 -6.033320E+03  4.349826E+03  6.324733E+03 -1.210041E+04  2.614194E+03
       172  27  2.267069E+05 -8.484413E+03  1.166044E+03  1.747027E+04 -7.357463E+03  2.672377E+03
       173   1  3.038060E+05  9.673275E+03  1.267200E+04  1.762963E+04  3.206706E+03 -2.153675E+03
       173   2  2.886949E+05  4.867406E+03  7.444057E+03  1.566907E+04  7.803040E+02 -1.315681E+03
       173   3  2.741729E+05  1.154285E+03  4.068395E+03  1.666168E+04 -1.646053E+03 -3.149011E+02
       173   4  2.695452E+05  1.649251E+03  6.801913E+03  1.679550E+04  4.659964E+03 -2.153629E+03
       173   5  2.692781E+05  3.436615E+02  4.236081E+03  1.531895E+04  2.546301E+03 -1.315607E+03
       173   6  2.695457E+05  7.658731E+01  3.305504E+03  1.679557E+04  4.326285E+02 -3.148005E+02
       173   7  2.352855E+05 -6.374831E+03  9.317938E+02  1.596143E+04  6.113144E+03 -2.153586E+03
       173   8  2.498618E+05 -4.180101E+03  1.028107E+03  1.496884E+04  4.312245E+03 -1.315535E+03
       173   9  2.649187E+05 -1.001109E+03  2.542629E+03  1.692945E+04  2.511295E+03 -3.146990E+02
       173  10  3.038060E+05  9.673268E+03  1.267197E+04  1.762963E+04  1.868985E-11  1.371688E-10
       173  11  2.886949E+05  4.867404E+03  7.444053E+03  1.566907E+04  1.021056E-10  9.953531E-11
       173  12  2.741728E+05  1.154284E+03  4.068389E+03  1.666168E+04  6.273783E-12 -5.842229E-11
       173  13  2.695452E+05  1.649241E+03  6.801864E+03  1.679551E+04  3.156304E-10  1.364349E-10
       173  14  2.692781E+05  3.436579E+02  4.236066E+03  1.531895E+04  1.118118E-10  7.615845E-11
       173  15  2.695457E+05  7.658715E+01  3.305504E+03  1.679557E+04  5.133050E-11 -6.694352E-11
       173  16  2.352855E+05 -6.374846E+03  9.317149E+02  1.596144E+04 -4.088418E-11  5.060844E-11
       173  17  2.498618E+05 -4.180108E+03  1.028068E+03  1.496885E+04  7.906115E-11 -1.213369E-11
       173  18  2.649187E+05 -1.001111E+03  2.542617E+03  1.692945E+04 -8.602352E-12 -1.620777E-11
       173  19  3.038060E+05  9.673275E+03  1.267200E+04  1.762963E+04 -3.206706E+03  2.153675E+03
       173  20  2.886949E+05  4.867406E+03  7.444057E+03  1.566907E+04 -7.803040E+02  1.315681E+03
       173  21  2.741729E+05  1.154285E+03  4.068395E+03  1.666168E+04  1.646053E+03  3.149011E+02
       173  22  2.695452E+05  1.649251E+03  6.801913E+03  1.679550E+04 -4.659964E+03  2.153629E+03
       173  23  2.692781E+05  3.436615E+02  4.236081E+03  1.531895E+04 -2.546301E+03  1.315607E+03
       173  24  2.695457E+05  7.658731E+01  3.305504E+03  1.679557E+04 -4.326285E+02  3.148005E+02
       173  25  2.352855E+05 -6.374831E+03  9.317938E+02  1.596143E+04 -6.113144E+03  2.153586E+03
       173  26  2.498618E+05 -4.180101E+03  1.028107E+03  1.496884E+04 -4.312245E+03  1.315535E+03
       173  27  2.649187E+05 -1.001109E+03  2.542629E+03  1.692945E+04 -2.511295E+03  3.146990E+02
       174   1  2.647225E+05 -1.043584E+03  2.461229E+03  1.690146E+04 -2.212399E+03  3.287597E+02
       174   2  2.496875E+05 -4.264140E+03  7.106138E+02  1.499480E+04 -3.868055E+03  1.329364E+03
       174   3  2.350895E+05 -6.600529E+03  2.586625E+02  1.604138E+04 -5.523638E+03  2.166711E+03
       174   4  2.695360E+05  7.720686E+01  3.253152E+03  1.679557E+04 -1.337042E+02  3.288610E+02
       174   5  2.692903E+05  3.027634E+02  3.947925E+03  1.531894E+04 -2.103003E+03  1.329437E+03
       174   6  2.695355E+05  1.466847E+03  6.158985E+03  1.679552E+04 -4.072262E+03  2.166755E+03
       174   7  2.743496E+05  1.197999E+03  4.045091E+03  1.668969E+04  1.945006E+03  3.289616E+02
       174   8  2.888935E+05  4.869650E+03  7.185237E+03  1.564310E+04 -3.378971E+02  1.329511E+03
       174   9  3.039827E+05  9.534162E+03  1.205928E+04  1.754970E+04 -2.620807E+03  2.166803E+03
       174  10  2.647225E+05 -1.043586E+03  2.461220E+03  1.690146E+04 -9.031963E-11 -1.542899E-10
       174  11  2.496875E+05 -4.264146E+03  7.105823E+02  1.499481E+04 -2.768542E-10 -2.116679E-10
       174  12  2.350895E+05 -6.600542E+03  2.585964E+02  1.604139E+04 -7.300419E-11 -1.096933E-10
       174  13  2.695360E+05  7.720674E+01  3.253152E+03  1.679557E+04 -9.420354E-11 -9.095327E-11
       174  14  2.692903E+05  3.027603E+02  3.947914E+03  1.531895E+04 -1.640879E-10 -6.671443E-11
       174  15  2.695355E+05  1.466837E+03  6.158945E+03  1.679552E+04 -2.311489E-10 -9.637211E-11
       174  16  2.743496E+05  1.197998E+03  4.045084E+03  1.668969E+04 -1.408512E-10 -7.719694E-12
       174  17  2.888935E+05  4.869648E+03  7.185234E+03  1.564310E+04 -1.400134E-10 -2.817489E-11
       174  18  3.039827E+05  9.534155E+03  1.205925E+04  1.754971E+04  8.126103E-11  3.639788E-11
       174  19  2.647225E+05 -1.043584E+03  2.461229E+03  1.690146E+04  2.212399E+03 -3.287597E+02
       174  20  2.496875E+05 -4.264140E+03  7.106138E+02  1.499480E+04  3.868055E+03 -1.329364E+03
       174  21  2.350895E+05 -6.600529E+03  2.586625E+02  1.604138E+04  5.523638E+03 -2.166711E+03
       174  22  2.695360E+05  7.720686E+01  3.253152E+03  1.679557E+04  1.337042E+02 -3.288610E+02
       174  23  2.692903E+05  3.027634E+02  3.947925E+03  1.531894E+04  2.103003E+03 -1.329437E+03
       174  24  2.695355E+05  1.466847E+03  6.158985E+03  1.679552E+04  4.072262E+03 -2.166755E+03
       174  25  2.743496E+05  1.197999E+03  4.045091E+03  1.668969E+04 -1.945006E+03 -3.289616E+02
       174  26  2.888935E+05  4.869650E+03  7.185237E+03  1.564310E+04  3.378971E+02 -1.329511E+03
       174  27  3.039827E+05  9.534162E+03  1.205928E+04  1.754970E+04  2.620807E+03 -2.166803E+03
       175   1  2.264055E+05 -8.724633E+03  2.534380E+02  1.738631E+04 -6.657065E+03  2.685141E+03
       175   2  2.097308E+05 -6.935246E+03  2.648891E+03  7.298310E+03 -1.053561E+04  2.624029E+03
       175   3  1.967394E+05  7.566463E+03  1.074697E+04  4.670786E+01 -1.441410E+04  8.420248E+02
       175   4  2.703723E+05  1.592587E+03  7.885225E+03  1.676957E+04 -5.122209E+03  2.685190E+03
       175   5  2.682423E+05  7.033001E+03  1.399260E+04  1.535110E+04 -1.230640E+04  2.623822E+03
       175   6  2.703685E+05  2.575854E+04  2.809716E+04  1.676900E+04 -1.949073E+04  8.415285E+02
       175   7  3.143411E+05  1.190970E+04  1.551695E+04  1.615278E+04 -3.587248E+03  2.685235E+03
       175   8  3.267572E+05  2.100129E+04  2.533620E+04  2.340466E+04 -1.407736E+04  2.623569E+03
       175   9  3.440033E+05  4.395129E+04  4.544722E+04  3.349329E+04 -2.456795E+04  8.407589E+02
       175  10  2.264054E+05 -8.724653E+03  2.533412E+02  1.738632E+04  1.447170E-10 -5.150895E-11
       175  11  2.097307E+05 -6.935283E+03  2.648669E+03  7.298332E+03 -1.336660E-10  9.041851E-12
       175  12  1.967391E+05  7.566406E+03  1.074658E+04  4.671764E+01 -9.797896E-11  1.805614E-11
       175  13  2.703723E+05  1.592572E+03  7.885162E+03  1.676958E+04 -7.426663E-11 -8.131715E-12
       175  14  2.682421E+05  7.032953E+03  1.399230E+04  1.535112E+04 -8.136865E-11 -8.811631E-12
       175  15  2.703681E+05  2.575843E+04  2.809644E+04  1.676902E+04  2.701267E-11  8.766816E-12
       175  16  3.143411E+05  1.190969E+04  1.551691E+04  1.615279E+04 -2.602957E-11  4.314211E-11
       175  17  3.267570E+05  2.100123E+04  2.533581E+04  2.340469E+04 -1.541576E-10 -1.506265E-11
       175  18  3.440027E+05  4.395112E+04  4.544608E+04  3.349331E+04  8.751584E-11  7.058996E-13
       175  19  2.264055E+05 -8.724633E+03  2.534380E+02  1.738631E+04  6.657065E+03 -2.685141E+03
       175  20  2.097308E+05 -6.935246E+03  2.648891E+03  7.298310E+03  1.053561E+04 -2.624029E+03
       175  21  1.967394E+05  7.566463E+03  1.074697E+04  4.670786E+01  1.441410E+04 -8.420248E+02
       175  22  2.703723E+05  1.592587E+03  7.885225E+03  1.676957E+04  5.122209E+03 -2.685190E+03
       175  23  2.682423E+05  7.033001E+03  1.399260E+04  1.535110E+04  1.230640E+04 -2.623822E+03
       175  24  2.703685E+05  2.575854E+04  2.809716E+04  1.676900E+04  1.949073E+04 -8.415285E+02
       175  25  3.143411E+05  1.190970E+04  1.551695E+04  1.615278E+04  3.587248E+03 -2.685235E+03
       175  26  3.267572E+05  2.100129E+04  2.533620E+04  2.340466E+04  1.407736E+04 -2.623569E+03
       175  27  3.440033E+05  4.395129E+04  4.544722E+04  3.349329E+04  2.456795E+04 -8.407589E+02
       176   1 -3.365118E+04 -6.150308E+04 -3.766022E+04  1.339918E+04  2.168705E+02 -2.892003E+04
       176   2 -7.099596E+03 -6.975820E+04 -1.913973E+04  8.337692E+02  5.223863E+02 -1.863599E+04
       176   3 -1.351033E+03 -8.455289E+04 -1.251547E+04 -1.398527E+04  1.402275E+02 -8.351982E+03
       176   4 -4.063857E+04 -8.966520E+04 -4.442926E+04 -1.304491E+04  2.181181E+02 -3.016410E+04
       176   5 -1.109965E+04 -8.627963E+04 -2.261739E+04 -1.191803E+04  5.227692E+02 -1.856117E+04
       176   6 -2.593804E+03 -8.966342E+04 -1.361818E+04 -1.304469E+04  1.401908E+02 -6.958062E+03
       176   7 -4.762339E+04 -1.178251E+05 -5.119798E+04 -3.948780E+04  2.194717E+02 -3.140810E+04
       176   8 -1.509910E+04 -1.028005E+05 -2.609497E+04 -2.466949E+04  5.231489E+02 -1.848636E+04
       176   9 -3.836572E+03 -9.477391E+04 -1.472088E+04 -1.210412E+04  1.401584E+02 -5.564154E+03
       176  10 -3.365140E+04 -6.150397E+04 -3.766179E+04  1.339918E+04 -5.437784E-11 -1.384886E-10
       176  11 -7.099690E+03 -6.975858E+04 -1.914039E+04  8.337770E+02 -9.088403E-11 -5.861332E-11
       176  12 -1.351052E+03 -8.455297E+04 -1.251560E+04 -1.398527E+04 -1.136321E-10  7.481300E-11
       176  13 -4.063882E+04 -8.966618E+04 -4.443097E+04 -1.304491E+04 -1.528057E-11  4.616020E-12
       176  14 -1.109974E+04 -8.628000E+04 -2.261804E+04 -1.191803E+04 -5.985857E-11 -3.889651E-12
       176  15 -2.593817E+03 -8.966347E+04 -1.361827E+04 -1.304469E+04 -3.955180E-11  6.598260E-12
       176  16 -4.762366E+04 -1.178262E+05 -5.119983E+04 -3.948779E+04  4.099418E-11  1.359398E-10
       176  17 -1.509919E+04 -1.028008E+05 -2.609562E+04 -2.466949E+04  9.007462E-11  3.798415E-11
       176  18 -3.836580E+03 -9.477394E+04 -1.472094E+04 -1.210412E+04 -3.619764E-11 -6.724070E-11
       176  19 -3.365118E+04 -6.150308E+04 -3.766022E+04  1.339918E+04 -2.168705E+02  2.892003E+04
       176  20 -7.099596E+03 -6.975820E+04 -1.913973E+04  8.337692E+02 -5.223863E+02  1.863599E+04
       176  21 -1.351033E+03 -8.455289E+04 -1.251547E+04 -1.398527E+04 -1.402275E+02  8.351982E+03
       176  22 -4.063857E+04 -8.966520E+04 -4.442926E+04 -1.304491E+04 -2.181181E+02  3.016410E+04
       176  23 -1.109965E+04 -8.627963E+04 -2.261739E+04 -1.191803E+04 -5.227692E+02  1.856117E+04
       176  24 -2.593804E+03 -8.966342E+04 -1.361818E+04 -1.304469E+04 -1.401908E+02  6.958062E+03
       176  25 -4.762339E+04 -1.178251E+05 -5.119798E+04 -3.948780E+04 -2.194717E+02  3.140810E+04
       176  26 -1.509910E+04 -1.028005E+05 -2.609497E+04 -2.466949E+04 -5.231489E+02  1.848636E+04
       176  27 -3.836572E+03 -9.477391E+04 -1.472088E+04 -1.210412E+04 -1.401584E+02  5.564154E+03
       177   1 -2.883020E+03 -9.070087E+04 -1.150968E+04 -1.169576E+04 -3.100069E+02 -6.433638E+03
       177   2 -4.162272E+03 -1.015842E+05 -1.139465E+04 -1.186524E+04 -9.895711E+02 -1.718668E+03
       177   3 -8.087849E+03 -1.137429E+05 -1.501108E+04 -1.432720E+04 -1.604842E+03  2.996227E+03
       177   4 -2.394708E+03 -8.843793E+04 -1.133154E+04 -1.305334E+04 -3.100165E+02 -5.067463E+03
       177   5 -9.659851E+02 -8.781094E+04 -9.187941E+03 -1.190709E+04 -9.895867E+02 -4.759209E+02
       177   6 -2.162131E+03 -8.843802E+04 -1.069007E+04 -1.305335E+04 -1.604844E+03  4.115628E+03
       177   7 -1.906388E+03 -8.617496E+04 -1.115339E+04 -1.441092E+04 -3.100321E+02 -3.701283E+03
       177   8  2.230293E+03 -7.403751E+04 -6.981234E+03 -1.194894E+04 -9.896025E+02  7.668529E+02
       177   9  3.763560E+03 -6.313254E+04 -6.369084E+03 -1.177944E+04 -1.604842E+03  5.235073E+03
       177  10 -2.883031E+03 -9.070092E+04 -1.150976E+04 -1.169576E+04 -4.149102E-11 -1.555704E-10
       177  11 -4.162274E+03 -1.015842E+05 -1.139465E+04 -1.186524E+04 -9.496655E-11  3.265606E-11
       177  12 -8.087854E+03 -1.137429E+05 -1.501110E+04 -1.432719E+04  4.371908E-11  2.042917E-10
       177  13 -2.394715E+03 -8.843795E+04 -1.133158E+04 -1.305334E+04 -1.142499E-10  1.832630E-11
       177  14 -9.659862E+02 -8.781094E+04 -9.187943E+03 -1.190709E+04 -5.552480E-11 -9.373939E-13
       177  15 -2.162138E+03 -8.843803E+04 -1.069011E+04 -1.305334E+04  1.342156E-10  2.424537E-11
       177  16 -1.906392E+03 -8.617498E+04 -1.115341E+04 -1.441092E+04 -9.210371E-12  1.462961E-10
       177  17  2.230292E+03 -7.403751E+04 -6.981237E+03 -1.194894E+04 -2.077145E-10 -2.969410E-11
       177  18  3.763550E+03 -6.313257E+04 -6.369141E+03 -1.177944E+04  1.810290E-10 -1.971257E-10
       177  19 -2.883020E+03 -9.070087E+04 -1.150968E+04 -1.169576E+04  3.100069E+02  6.433638E+03
       177  20 -4.162272E+03 -1.015842E+05 -1.139465E+04 -1.186524E+04  9.895711E+02  1.718668E+03
       177  21 -8.087849E+03 -1.137429E+05 -1.501108E+04 -1.432720E+04  1.604842E+03 -2.996227E+03
       177  22 -2.394708E+03 -8.843793E+04 -1.133154E+04 -1.305334E+04  3.100165E+02  5.067463E+03
       177  23 -9.659851E+02 -8.781094E+04 -9.187941E+03 -1.190709E+04  9.895867E+02  4.759209E+02
       177  24 -2.162131E+03 -8.843802E+04 -1.069007E+04 -1.305335E+04  1.604844E+03 -4.115628E+03
       177  25 -1.906388E+03 -8.617496E+04 -1.115339E+04 -1.441092E+04  3.100321E+02  3.701283E+03
       177  26  2.230293E+03 -7.403751E+04 -6.981234E+03 -1.194894E+04  9.896025E+02 -7.668529E+02
       177  27  3.763560E+03 -6.313254E+04 -6.369084E+03 -1.177944E+04  1.604842E+03 -5.235073E+03
       178   1 -1.001975E+04 -1.222225E+05 -1.827590E+04 -1.221073E+04 -2.005718E+03  4.709822E+03
       178   2 -2.048011E+04 -1.304880E+05 -2.902875E+04 -2.340343E+04 -1.970253E+03  1.771257E+04
       178   3 -5.027803E+04 -1.452809E+05 -5.308209E+04 -3.680258E+04 -6.343268E+02  3.071480E+04
       178   4 -2.342908E+03 -8.951351E+04 -1.260468E+04 -1.303440E+04 -2.005727E+03  5.889944E+03
       178   5 -9.966222E+03 -8.646745E+04 -2.048448E+04 -1.193089E+04 -1.969911E+03  1.639582E+04
       178   6 -3.649334E+04 -8.951532E+04 -3.993026E+04 -1.303434E+04 -6.331613E+02  2.690150E+04
       178   7  5.333877E+03 -5.680346E+04 -6.933486E+03 -1.385811E+04 -2.005739E+03  7.070126E+03
       178   8  5.480509E+02 -4.244477E+04 -1.194022E+04 -4.575084E+02 -1.969618E+03  1.507897E+04
       178   9 -2.270673E+04 -3.374565E+04 -2.677829E+04  1.073605E+04 -6.322879E+02  2.308785E+04
       178  10 -1.001976E+04 -1.222225E+05 -1.827595E+04 -1.221072E+04 -7.214954E-11 -9.871010E-11
       178  11 -2.048020E+04 -1.304883E+05 -2.902935E+04 -2.340340E+04 -2.363553E-10 -3.949878E-11
       178  12 -5.027828E+04 -1.452819E+05 -5.308386E+04 -3.680257E+04 -3.173696E-12  2.327669E-11
       178  13 -2.342921E+03 -8.951355E+04 -1.260475E+04 -1.303439E+04  2.621852E-11  9.147815E-12
       178  14 -9.966298E+03 -8.646773E+04 -2.048499E+04 -1.193086E+04  6.892103E-11 -1.809651E-11
       178  15 -3.649353E+04 -8.951610E+04 -3.993162E+04 -1.303433E+04 -4.753782E-11  5.896519E-11
       178  16  5.333859E+03 -5.680352E+04 -6.933587E+03 -1.385810E+04  9.737374E-11  1.027073E-10
       178  17  5.479857E+02 -4.244502E+04 -1.194066E+04 -4.574845E+02  1.040847E-10  1.683666E-11
       178  18 -2.270688E+04 -3.374622E+04 -2.677930E+04  1.073606E+04 -1.273094E-11 -4.216297E-11
       178  19 -1.001975E+04 -1.222225E+05 -1.827590E+04 -1.221073E+04  2.005718E+03 -4.709822E+03
       178  20 -2.048011E+04 -1.304880E+05 -2.902875E+04 -2.340343E+04  1.970253E+03 -1.771257E+04
       178  21 -5.027803E+04 -1.452809E+05 -5.308209E+04 -3.680258E+04  6.343268E+02 -3.071480E+04
       178  22 -2.342908E+03 -8.951351E+04 -1.260468E+04 -1.303440E+04  2.005727E+03 -5.889944E+03
       178  23 -9.966222E+03 -8.646745E+04 -2.048448E+04 -1.193089E+04  1.969911E+03 -1.639582E+04
       178  24 -3.649334E+04 -8.951532E+04 -3.993026E+04 -1.303434E+04  6.331613E+02 -2.690150E+04
       178  25  5.333877E+03 -5.680346E+04 -6.933486E+03 -1.385811E+04  2.005739E+03 -7.070126E+03
       178  26  5.480509E+02 -4.244477E+04 -1.194022E+04 -4.575084E+02  1.969618E+03 -1.507897E+04
       178  27 -2.270673E+04 -3.374565E+04 -2.677829E+04  1.073605E+04  6.322879E+02 -2.308785E+04
       179   1  5.121027E+04 -6.020837E+03 -1.500787E+04  3.294593E+04 -9.826452E+02  7.795864E+02
       179   2  6.548551E+04  1.876578E+02 -1.140948E+04  4.303998E+04 -7.376783E+02  4.170517E+03
       179   3  8.553805E+04  5.214893E+03 -8.285915E+03  5.044164E+04  9.977136E+02  5.574238E+03
       179   4  1.343037E+05  4.325732E+04  1.000787E+04  6.963574E+04  4.867572E+03  5.166767E+03
       179   5  1.294518E+05  4.067856E+04  4.944608E+03  7.304878E+04  1.296505E+03  5.695878E+03
       179   6  1.312050E+05  3.774627E+04  2.718422E+03  7.376945E+04 -7.842520E+02  4.237955E+03
       179   7  2.174030E+05  9.253686E+04  3.502249E+04  1.063299E+05  1.071875E+04  9.554491E+03
       179   8  1.934221E+05  8.117085E+04  2.129816E+04  1.030606E+05  3.330950E+03  7.221406E+03
       179   9  1.768742E+05  7.027892E+04  1.372262E+04  9.709926E+04 -2.566392E+03  2.901539E+03
       179  10  5.121026E+04 -6.020838E+03 -1.500787E+04  3.294593E+04 -6.455263E-11  2.380479E-12
       179  11  6.548550E+04  1.876390E+02 -1.140951E+04  4.303998E+04  9.461551E-11  7.069466E-11
       179  12  8.553804E+04  5.214860E+03 -8.285975E+03  5.044163E+04  1.277186E-10  9.911982E-12
       179  13  1.343037E+05  4.325729E+04  1.000777E+04  6.963572E+04  5.498759E-11  1.616747E-11
       179  14  1.294518E+05  4.067852E+04  4.944544E+03  7.304877E+04  1.159177E-10  2.073438E-12
       179  15  1.312049E+05  3.774625E+04  2.718387E+03  7.376946E+04 -2.079830E-11  2.283015E-11
       179  16  2.174028E+05  9.253673E+04  3.502210E+04  1.063298E+05  6.524226E-12  7.765567E-12
       179  17  1.934221E+05  8.117079E+04  2.129804E+04  1.030606E+05 -1.286207E-10 -3.997638E-11
       179  18  1.768742E+05  7.027891E+04  1.372260E+04  9.709926E+04 -3.798648E-11 -4.388980E-11
       179  19  5.121027E+04 -6.020837E+03 -1.500787E+04  3.294593E+04  9.826452E+02 -7.795864E+02
       179  20  6.548551E+04  1.876578E+02 -1.140948E+04  4.303998E+04  7.376783E+02 -4.170517E+03
       179  21  8.553805E+04  5.214893E+03 -8.285915E+03  5.044164E+04 -9.977136E+02 -5.574238E+03
       179  22  1.343037E+05  4.325732E+04  1.000787E+04  6.963574E+04 -4.867572E+03 -5.166767E+03
       179  23  1.294518E+05  4.067856E+04  4.944608E+03  7.304878E+04 -1.296505E+03 -5.695878E+03
       179  24  1.312050E+05  3.774627E+04  2.718422E+03  7.376945E+04  7.842520E+02 -4.237955E+03
       179  25  2.174030E+05  9.253686E+04  3.502249E+04  1.063299E+05 -1.071875E+04 -9.554491E+03
       179  26  1.934221E+05  8.117085E+04  2.129816E+04  1.030606E+05 -3.330950E+03 -7.221406E+03
       179  27  1.768742E+05  7.027892E+04  1.372262E+04  9.709926E+04  2.566392E+03 -2.901539E+03
       180   1  9.486307E+04  1.253094E+04 -6.439522E+03  5.547896E+04  1.067157E+03  4.687782E+03
       180   2  1.082952E+05  2.508196E+04 -3.505920E+03  6.405724E+04  1.729339E+03  3.651934E+03
       180   3  1.259479E+05  3.370980E+04 -4.556114E+02  7.136538E+04  2.546778E+03  2.409015E+03
       180   4  1.310323E+05  3.757341E+04  2.068886E+03  7.363456E+04 -6.174933E+02  3.424494E+03
       180   5  1.287862E+05  3.932611E+04  1.178984E+03  7.439453E+04 -3.530091E+02  2.090447E+03
       180   6  1.308461E+05  3.724158E+04  7.507384E+02  7.388398E+04  6.672347E+01  5.493470E+02
       180   7  1.672039E+05  6.261716E+04  1.057748E+04  9.179174E+04 -2.302309E+03  2.161084E+03
       180   8  1.492776E+05  5.357052E+04  5.863890E+03  8.473222E+04 -2.435449E+03  5.288916E+02
       180   9  1.357443E+05  4.077332E+04  1.957088E+03  7.640257E+04 -2.413307E+03 -1.310304E+03
       180  10  9.486307E+04  1.253091E+04 -6.439566E+03  5.547896E+04  6.871398E-11 -9.860488E-12
       180  11  1.082952E+05  2.508194E+04 -3.505951E+03  6.405724E+04  5.615401E-11  1.108021E-11
       180  12  1.259479E+05  3.370979E+04 -4.556345E+02  7.136537E+04 -1.052692E-10 -1.092823E-10
       180  13  1.310323E+05  3.757339E+04  2.068863E+03  7.363456E+04  8.083425E-11 -3.708815E-11
       180  14  1.287862E+05  3.932610E+04  1.178976E+03  7.439453E+04  1.097714E-10 -6.641780E-11
       180  15  1.308461E+05  3.724158E+04  7.507378E+02  7.388398E+04  7.516264E-11 -9.689381E-11
       180  16  1.672038E+05  6.261716E+04  1.057746E+04  9.179175E+04 -9.768695E-11 -4.815580E-11
       180  17  1.492776E+05  5.357051E+04  5.863878E+03  8.473222E+04 -2.534876E-11 -8.787630E-12
       180  18  1.357443E+05  4.077332E+04  1.957074E+03  7.640257E+04  1.381181E-10  3.160713E-11
       180  19  9.486307E+04  1.253094E+04 -6.439522E+03  5.547896E+04 -1.067157E+03 -4.687782E+03
       180  20  1.082952E+05  2.508196E+04 -3.505920E+03  6.405724E+04 -1.729339E+03 -3.651934E+03
       180  21  1.259479E+05  3.370980E+04 -4.556114E+02  7.136538E+04 -2.546778E+03 -2.409015E+03
       180  22  1.310323E+05  3.757341E+04  2.068886E+03  7.363456E+04  6.174933E+02 -3.424494E+03
       180  23  1.287862E+05  3.932611E+04  1.178984E+03  7.439453E+04  3.530091E+02 -2.090447E+03
       180  24  1.308461E+05  3.724158E+04  7.507384E+02  7.388398E+04 -6.672347E+01 -5.493470E+02
       180  25  1.672039E+05  6.261716E+04  1.057748E+04  9.179174E+04  2.302309E+03 -2.161084E+03
       180  26  1.492776E+05  5.357052E+04  5.863890E+03  8.473222E+04  2.435449E+03 -5.288916E+02
       180  27  1.357443E+05  4.077332E+04  1.957088E+03  7.640257E+04  2.413307E+03  1.310304E+03
       181   1  1.357453E+05  4.066746E+04  1.646774E+03  7.638009E+04  3.010917E+03  1.570469E+03
       181   2  1.491290E+05  5.356571E+04  4.901762E+03  8.486926E+04  3.732525E+03  1.097921E+02
       181   3  1.666696E+05  6.240263E+04  8.362643E+03  9.216266E+04  4.445818E+03 -1.339741E+03
       181   4  1.308338E+05  3.722980E+04  6.369972E+02  7.387107E+04  5.395548E+02 -2.826748E+02
       181   5  1.287577E+05  3.926284E+04  5.497884E+02  7.446912E+04  1.282498E+03 -1.727394E+03
       181   6  1.308337E+05  3.722971E+04  6.499397E+02  7.387115E+04  2.017135E+03 -3.160972E+03
       181   7  1.259223E+05  3.379216E+04 -3.727462E+02  7.136209E+04 -1.931783E+03 -2.135801E+03
       181   8  1.083867E+05  2.496007E+04 -3.802246E+03  6.406928E+04 -1.167449E+03 -3.564520E+03
       181   9  9.499860E+04  1.205706E+04 -7.063049E+03  5.558051E+04 -4.114107E+02 -4.982101E+03
       181  10  1.357453E+05  4.066746E+04  1.646753E+03  7.638009E+04 -9.892831E-12 -3.145266E-11
       181  11  1.491290E+05  5.356571E+04  4.901736E+03  8.486926E+04  2.242439E-11 -2.148721E-11
       181  12  1.666696E+05  6.240263E+04  8.362602E+03  9.216267E+04 -1.585125E-10 -3.842710E-12
       181  13  1.308338E+05  3.722980E+04  6.369966E+02  7.387107E+04 -6.514940E-12 -3.358659E-11
       181  14  1.287577E+05  3.926284E+04  5.497797E+02  7.446912E+04  9.530500E-11 -4.398071E-11
       181  15  1.308337E+05  3.722970E+04  6.499132E+02  7.387116E+04 -1.603020E-10  6.451330E-11
       181  16  1.259223E+05  3.379215E+04 -3.727618E+02  7.136208E+04 -9.090239E-12 -1.434560E-12
       181  17  1.083867E+05  2.496006E+04 -3.802272E+03  6.406928E+04  2.425939E-11  7.302276E-12
       181  18  9.499860E+04  1.205703E+04 -7.063096E+03  5.558051E+04  2.379287E-11  9.937380E-11
       181  19  1.357453E+05  4.066746E+04  1.646774E+03  7.638009E+04 -3.010917E+03 -1.570469E+03
       181  20  1.491290E+05  5.356571E+04  4.901762E+03  8.486926E+04 -3.732525E+03 -1.097921E+02
       181  21  1.666696E+05  6.240263E+04  8.362643E+03  9.216266E+04 -4.445818E+03  1.339741E+03
       181  22  1.308338E+05  3.722980E+04  6.369972E+02  7.387107E+04 -5.395548E+02  2.826748E+02
       181  23  1.287577E+05  3.926284E+04  5.497884E+02  7.446912E+04 -1.282498E+03  1.727394E+03
       181  24  1.308337E+05  3.722971E+04  6.499397E+02  7.387115E+04 -2.017135E+03  3.160972E+03
       181  25  1.259223E+05  3.379216E+04 -3.727462E+02  7.136209E+04  1.931783E+03  2.135801E+03
       181  26  1.083867E+05  2.496007E+04 -3.802246E+03  6.406928E+04  1.167449E+03  3.564520E+03
       181  27  9.499860E+04  1.205706E+04 -7.063049E+03  5.558051E+04  4.114107E+02  4.982101E+03
       182   1  1.764967E+05  6.939398E+04  1.071562E+04  9.720721E+04  4.924557E+03 -2.154025E+03
       182   2  1.900342E+05  8.218842E+04  1.475234E+04  1.055142E+05  4.671277E+03 -4.086622E+03
       182   3  2.080079E+05  9.129460E+04  1.978960E+04  1.125505E+05  4.182969E+03 -5.705760E+03
       182   4  1.308440E+05  3.724309E+04  7.711148E+02  7.388503E+04  2.481310E+03 -3.986219E+03
       182   5  1.287876E+05  3.932428E+04  1.220695E+03  7.439116E+04  2.830117E+03 -5.467396E+03
       182   6  1.310368E+05  3.758684E+04  2.148574E+03  7.362645E+04  2.943903E+03 -6.635088E+03
       182   7  8.519479E+04  5.094217E+03 -9.173122E+03  5.056534E+04  3.835317E+01 -5.818195E+03
       182   8  6.754617E+04 -3.537056E+03 -1.231089E+04  4.327198E+04  9.892190E+02 -6.847975E+03
       182   9  5.407279E+04 -1.611730E+04 -1.549277E+04  3.470804E+04  1.705044E+03 -7.564264E+03
       182  10  1.764967E+05  6.939397E+04  1.071557E+04  9.720722E+04 -1.316878E-10 -3.412619E-11
       182  11  1.900342E+05  8.218840E+04  1.475227E+04  1.055143E+05  9.305122E-11  3.202440E-11
       182  12  2.080079E+05  9.129456E+04  1.978951E+04  1.125505E+05  1.918594E-10  6.772932E-11
       182  13  1.308440E+05  3.724307E+04  7.710734E+02  7.388504E+04 -5.555668E-11  1.946728E-11
       182  14  1.287876E+05  3.932425E+04  1.220624E+03  7.439117E+04  2.117486E-11  7.767618E-11
       182  15  1.310368E+05  3.758679E+04  2.148475E+03  7.362647E+04 -4.681218E-11 -8.119204E-12
       182  16  8.519478E+04  5.094181E+03 -9.173186E+03  5.056534E+04  1.636751E-10  1.413753E-10
       182  17  6.754616E+04 -3.537107E+03 -1.231098E+04  4.327198E+04 -1.326332E-10  1.114845E-10
       182  18  5.407277E+04 -1.611737E+04 -1.549288E+04  3.470805E+04 -7.656465E-11 -5.766382E-11
       182  19  1.764967E+05  6.939398E+04  1.071562E+04  9.720721E+04 -4.924557E+03  2.154025E+03
       182  20  1.900342E+05  8.218842E+04  1.475234E+04  1.055142E+05 -4.671277E+03  4.086622E+03
       182  21  2.080079E+05  9.129460E+04  1.978960E+04  1.125505E+05 -4.182969E+03  5.705760E+03
       182  22  1.308440E+05  3.724309E+04  7.711148E+02  7.388503E+04 -2.481310E+03  3.986219E+03
       182  23  1.287876E+05  3.932428E+04  1.220695E+03  7.439116E+04 -2.830117E+03  5.467396E+03
       182  24  1.310368E+05  3.758684E+04  2.148574E+03  7.362645E+04 -2.943903E+03  6.635088E+03
       182  25  8.519479E+04  5.094217E+03 -9.173122E+03  5.056534E+04 -3.835317E+01  5.818195E+03
       182  26  6.754617E+04 -3.537056E+03 -1.231089E+04  4.327198E+04 -9.892190E+02  6.847975E+03
       182  27  5.407279E+04 -1.611730E+04 -1.549277E+04  3.470804E+04 -1.705044E+03  7.564264E+03
       183   1  2.177137E+05  9.905637E+04  2.312092E+04  1.178880E+05  4.417428E+03 -6.327704E+03
       183   2  2.343743E+05  1.098664E+05  3.183856E+04  1.235768E+05 -3.996881E+03 -1.143651E+04
       183   3  2.588997E+05  1.217988E+05  4.847468E+04  1.265383E+05 -1.464734E+04 -1.356517E+04
       183   4  1.312001E+05  3.778330E+04  2.825112E+03  7.377211E+04  3.032175E+03 -7.366718E+03
       183   5  1.294991E+05  4.070827E+04  5.141181E+03  7.298558E+04  3.433506E+02 -8.181675E+03
       183   6  1.344212E+05  4.351368E+04  1.040763E+04  6.947134E+04 -4.581296E+03 -6.015921E+03
       183   7  4.469337E+04 -2.348640E+04 -1.747176E+04  2.966254E+04  1.647151E+03 -8.405556E+03
       183   8  2.463652E+04 -2.844435E+04 -2.155697E+04  2.240392E+04  4.682593E+03 -4.927517E+03
       183   9  9.962001E+03 -3.476356E+04 -2.765979E+04  1.241776E+04  5.481779E+03  1.531419E+03
       183  10  2.177137E+05  9.905633E+04  2.312081E+04  1.178880E+05 -2.552284E-11 -9.651617E-11
       183  11  2.343742E+05  1.098663E+05  3.183829E+04  1.235767E+05  4.704256E-11 -1.544221E-10
       183  12  2.588995E+05  1.217985E+05  4.847393E+04  1.265381E+05  3.315818E-11 -4.170060E-11
       183  13  1.312000E+05  3.778324E+04  2.824993E+03  7.377213E+04 -1.412989E-10 -5.695935E-11
       183  14  1.294991E+05  4.070820E+04  5.141055E+03  7.298559E+04  6.468683E-11  6.934675E-11
       183  15  1.344212E+05  4.351364E+04  1.040752E+04  6.947132E+04  7.576476E-11  2.554148E-11
       183  16  4.469335E+04 -2.348647E+04 -1.747190E+04  2.966255E+04 -7.671689E-11  1.736828E-11
       183  17  2.463649E+04 -2.844438E+04 -2.155706E+04  2.240394E+04 -1.092332E-10 -3.469837E-11
       183  18  9.961968E+03 -3.476357E+04 -2.765985E+04  1.241776E+04  1.044363E-11  4.096779E-11
       183  19  2.177137E+05  9.905637E+04  2.312092E+04  1.178880E+05 -4.417428E+03  6.327704E+03
       183  20  2.343743E+05  1.098664E+05  3.183856E+04  1.235768E+05  3.996881E+03  1.143651E+04
       183  21  2.588997E+05  1.217988E+05  4.847468E+04  1.265383E+05  1.464734E+04  1.356517E+04
       183  22  1.312001E+05  3.778330E+04  2.825112E+03  7.377211E+04 -3.032175E+03  7.366718E+03
       183  23  1.294991E+05  4.070827E+04  5.141181E+03  7.298558E+04 -3.433506E+02  8.181675E+03
       183  24  1.344212E+05  4.351368E+04  1.040763E+04  6.947134E+04  4.581296E+03  6.015921E+03
       183  25  4.469337E+04 -2.348640E+04 -1.747176E+04  2.966254E+04 -1.647151E+03  8.405556E+03
       183  26  2.463652E+04 -2.844435E+04 -2.155697E+04  2.240392E+04 -4.682593E+03  4.927517E+03
       183  27  9.962001E+03 -3.476356E+04 -2.765979E+04  1.241776E+04 -5.481779E+03 -1.531419E+03
       184   1  1.743577E+05  1.456811E+04  1.141381E+04  2.598583E+04 -5.728809E+03 -1.430098E+03
       184   2  1.415521E+05  1.901877E+04  9.595462E+03  2.908508E+04 -6.597712E+03 -4.272414E+03
       184   3  1.066913E+05  1.478599E+04  6.172036E+03  3.871050E+04 -7.466547E+03 -3.905279E+03
       184   4  3.898915E+04 -1.891141E+04 -2.063676E+04  3.826300E+04 -1.426676E+04 -1.430724E+03
       184   5  4.055352E+04 -5.159382E+03 -1.031149E+04  3.499923E+04 -8.973039E+03 -4.272702E+03
       184   6  3.899105E+04 -1.161553E+03 -5.870952E+03  3.826201E+04 -3.679260E+03 -3.904971E+03
       184   7 -9.636206E+04 -5.239165E+04 -5.268824E+04  5.053747E+04 -2.280286E+04 -1.431687E+03
       184   8 -6.043521E+04 -2.933802E+04 -3.021890E+04  4.091240E+04 -1.134799E+04 -4.273035E+03
       184   9 -2.870466E+04 -1.710935E+04 -1.791406E+04  3.781357E+04  1.076261E+02 -3.904669E+03
       184  10  1.743576E+05  1.456810E+04  1.141374E+04  2.598583E+04 -2.439781E-11  8.903599E-12
       184  11  1.415521E+05  1.901874E+04  9.595346E+03  2.908506E+04  3.167730E-11  7.855008E-11
       184  12  1.066912E+05  1.478596E+04  6.171902E+03  3.871048E+04  2.618906E-11 -5.190550E-11
       184  13  3.898893E+04 -1.891147E+04 -2.063714E+04  3.826298E+04  3.287131E-11  7.510107E-11
       184  14  4.055343E+04 -5.159423E+03 -1.031168E+04  3.499920E+04  6.520605E-11  1.233969E-10
       184  15  3.899103E+04 -1.161573E+03 -5.871006E+03  3.826200E+04  4.931872E-11  6.322575E-12
       184  16 -9.636262E+04 -5.239179E+04 -5.268922E+04  5.053744E+04  7.980269E-11  5.858100E-11
       184  17 -6.043535E+04 -2.933808E+04 -3.021918E+04  4.091236E+04 -9.231267E-11  1.736082E-11
       184  18 -2.870466E+04 -1.710936E+04 -1.791409E+04  3.781357E+04 -1.184291E-10 -3.745717E-12
       184  19  1.743577E+05  1.456811E+04  1.141381E+04  2.598583E+04  5.728809E+03  1.430098E+03
       184  20  1.415521E+05  1.901877E+04  9.595462E+03  2.908508E+04  6.597712E+03  4.272414E+03
       184  21  1.066913E+05  1.478599E+04  6.172036E+03  3.871050E+04  7.466547E+03  3.905279E+03
       184  22  3.898915E+04 -1.891141E+04 -2.063676E+04  3.826300E+04  1.426676E+04  1.430724E+03
       184  23  4.055352E+04 -5.159382E+03 -1.031149E+04  3.499923E+04  8.973039E+03  4.272702E+03
       184  24  3.899105E+04 -1.161553E+03 -5.870952E+03  3.826201E+04  3.679260E+03  3.904971E+03
       184  25 -9.636206E+04 -5.239165E+04 -5.268824E+04  5.053747E+04  2.280286E+04  1.431687E+03
       184  26 -6.043521E+04 -2.933802E+04 -3.021890E+04  4.091240E+04  1.134799E+04  4.273035E+03
       184  27 -2.870466E+04 -1.710935E+04 -1.791406E+04  3.781357E+04 -1.076261E+02  3.904669E+03
       185   1  8.561909E+04  9.771399E+03  3.548435E+03  3.774755E+04 -6.523220E+03 -2.657286E+03
       185   2  5.195214E+04  2.671933E+03 -8.376663E+02  3.468715E+04 -5.530964E+03 -6.216130E+02
       185   3  1.800560E+04 -5.034646E+03 -6.021471E+03  3.837121E+04 -4.538789E+03  1.702595E+03
       185   4  3.960250E+04 -1.067628E+03 -4.634112E+03  3.831048E+04 -2.891428E+03 -2.656963E+03
       185   5  3.979134E+04 -2.127818E+02 -3.101388E+03  3.493820E+04 -1.345362E+03 -6.212212E+02
       185   6  3.960274E+04 -6.131123E+01 -2.751192E+03  3.831041E+04  2.006659E+02  1.703059E+03
       185   7 -6.411997E+03 -1.190676E+04 -1.281669E+04  3.887337E+04  7.401031E+02 -2.656634E+03
       185   8  2.763072E+04 -3.097496E+03 -5.365050E+03  3.518924E+04  2.840161E+03 -6.208259E+02
       185   9  6.120039E+04  4.912014E+03  5.191621E+02  3.824960E+04  4.940279E+03  1.703523E+03
       185  10  8.561904E+04  9.771380E+03  3.548342E+03  3.774754E+04 -2.539061E-11  2.177390E-11
       185  11  5.195210E+04  2.671925E+03 -8.377245E+02  3.468715E+04 -1.666411E-10 -1.114230E-10
       185  12  1.800558E+04 -5.034655E+03 -6.021515E+03  3.837121E+04  6.066945E-11  3.043204E-11
       185  13  3.960249E+04 -1.067638E+03 -4.634141E+03  3.831048E+04  3.210813E-12 -3.611966E-11
       185  14  3.979133E+04 -2.127827E+02 -3.101392E+03  3.493820E+04 -1.462114E-11 -8.229506E-11
       185  15  3.960274E+04 -6.131435E+01 -2.751197E+03  3.831041E+04 -3.411870E-12 -3.667991E-11
       185  16 -6.412000E+03 -1.190677E+04 -1.281670E+04  3.887337E+04  1.205791E-10 -9.782324E-11
       185  17  2.763071E+04 -3.097498E+03 -5.365065E+03  3.518924E+04 -2.241642E-11 -9.377192E-11
       185  18  6.120036E+04  4.912004E+03  5.191108E+02  3.824960E+04 -4.601435E-12 -4.843183E-12
       185  19  8.561909E+04  9.771399E+03  3.548435E+03  3.774755E+04  6.523220E+03  2.657286E+03
       185  20  5.195214E+04  2.671933E+03 -8.376663E+02  3.468715E+04  5.530964E+03  6.216130E+02
       185  21  1.800560E+04 -5.034646E+03 -6.021471E+03  3.837121E+04  4.538789E+03 -1.702595E+03
       185  22  3.960250E+04 -1.067628E+03 -4.634112E+03  3.831048E+04  2.891428E+03  2.656963E+03
       185  23  3.979134E+04 -2.127818E+02 -3.101388E+03  3.493820E+04  1.345362E+03  6.212212E+02
       185  24  3.960274E+04 -6.131123E+01 -2.751192E+03  3.831041E+04 -2.006659E+02 -1.703059E+03
       185  25 -6.411997E+03 -1.190676E+04 -1.281669E+04  3.887337E+04 -7.401031E+02  2.656634E+03
       185  26  2.763072E+04 -3.097496E+03 -5.365050E+03  3.518924E+04 -2.840161E+03  6.208259E+02
       185  27  6.120039E+04  4.912014E+03  5.191621E+02  3.824960E+04 -4.940279E+03 -1.703523E+03
       186   1 -3.566164E+03 -1.005156E+04 -9.726521E+03  3.816033E+04 -4.057836E+03  3.171891E+03
       186   2 -3.704328E+04 -1.819980E+04 -1.640648E+04  3.526700E+04 -1.206837E+03  5.416679E+03
       186   3 -7.117900E+04 -2.750146E+04 -2.523109E+04  3.910758E+04  1.644159E+03  7.205754E+03
       186   4  3.957363E+04 -5.985157E+01 -2.907130E+03  3.830805E+04  6.890092E+02  3.172325E+03
       186   5  3.982640E+04 -3.366026E+02 -3.959954E+03  3.494117E+04  2.665228E+03  5.416931E+03
       186   6  3.957196E+04 -1.614624E+03 -6.549664E+03  3.830817E+04  4.641577E+03  7.205848E+03
       186   7  8.271533E+04  9.931772E+03  3.912298E+03  3.845578E+04  5.436172E+03  3.172761E+03
       186   8  1.167020E+05  1.752630E+04  8.486461E+03  3.461530E+04  6.537755E+03  5.417178E+03
       186   9  1.503350E+05  2.427157E+04  1.213141E+04  3.750861E+04  7.639513E+03  7.205935E+03
       186  10 -3.566184E+03 -1.005157E+04 -9.726571E+03  3.816034E+04 -4.877661E-12  4.672568E-11
       186  11 -3.704329E+04 -1.819983E+04 -1.640653E+04  3.526700E+04  3.398693E-11  2.380342E-11
       186  12 -7.117902E+04 -2.750152E+04 -2.523120E+04  3.910757E+04  2.174021E-10 -3.587890E-11
       186  13  3.957363E+04 -5.986251E+01 -2.907150E+03  3.830805E+04  6.906034E-11 -3.066805E-12
       186  14  3.982639E+04 -3.366360E+02 -3.960023E+03  3.494116E+04  4.809892E-16  1.897601E-11
       186  15  3.957192E+04 -1.614685E+03 -6.549803E+03  3.830814E+04  8.925270E-11 -6.134470E-11
       186  16  8.271530E+04  9.931753E+03  3.912224E+03  3.845577E+04  8.980334E-11  4.507301E-13
       186  17  1.167019E+05  1.752626E+04  8.486326E+03  3.461527E+04 -6.652249E-12  1.037943E-10
       186  18  1.503350E+05  2.427150E+04  1.213120E+04  3.750856E+04 -2.669897E-10 -4.177325E-11
       186  19 -3.566164E+03 -1.005156E+04 -9.726521E+03  3.816033E+04  4.057836E+03 -3.171891E+03
       186  20 -3.704328E+04 -1.819980E+04 -1.640648E+04  3.526700E+04  1.206837E+03 -5.416679E+03
       186  21 -7.117900E+04 -2.750146E+04 -2.523109E+04  3.910758E+04 -1.644159E+03 -7.205754E+03
       186  22  3.957363E+04 -5.985157E+01 -2.907130E+03  3.830805E+04 -6.890092E+02 -3.172325E+03
       186  23  3.982640E+04 -3.366026E+02 -3.959954E+03  3.494117E+04 -2.665228E+03 -5.416931E+03
       186  24  3.957196E+04 -1.614624E+03 -6.549664E+03  3.830817E+04 -4.641577E+03 -7.205848E+03
       186  25  8.271533E+04  9.931772E+03  3.912298E+03  3.845578E+04 -5.436172E+03 -3.172761E+03
       186  26  1.167020E+05  1.752630E+04  8.486461E+03  3.461530E+04 -6.537755E+03 -5.417178E+03
       186  27  1.503350E+05  2.427157E+04  1.213141E+04  3.750861E+04 -7.639513E+03 -7.205935E+03
       187   1 -9.386456E+04 -3.279986E+04 -3.122082E+04  3.753957E+04  2.536732E+03  8.325678E+03
       187   2 -1.246013E+05 -4.719586E+04 -4.706790E+04  4.384384E+04  1.928607E+04  7.686203E+03
       187   3 -1.615451E+05 -7.770932E+04 -7.784914E+04  5.656389E+04  3.603397E+04  2.408385E+03
       187   4  3.864793E+04 -1.751823E+03 -8.498211E+03  3.823766E+04  5.760562E+03  8.325714E+03
       187   5  4.097681E+04 -7.720906E+03 -1.527774E+04  3.502985E+04  1.360672E+04  7.685585E+03
       187   6  3.864479E+04 -2.825948E+04 -3.080687E+04  3.823831E+04  2.145251E+04  2.407168E+03
       187   7  1.711777E+05  2.929528E+04  1.422385E+04  3.893591E+04  8.985058E+03  8.325757E+03
       187   8  2.065815E+05  3.175274E+04  1.651133E+04  2.621345E+04  7.925880E+03  7.685128E+03
       187   9  2.388727E+05  2.118888E+04  1.623364E+04  1.990678E+04  6.866380E+03  2.406812E+03
       187  10 -9.386458E+04 -3.279994E+04 -3.122096E+04  3.753956E+04 -1.553600E-11 -5.683774E-11
       187  11 -1.246017E+05 -4.719602E+04 -4.706871E+04  4.384372E+04 -6.589050E-11 -6.154869E-12
       187  12 -1.615465E+05 -7.770968E+04 -7.785159E+04  5.656382E+04  7.262035E-12 -7.607610E-12
       187  13  3.864787E+04 -1.751906E+03 -8.498403E+03  3.823763E+04  9.419774E-11 -1.678416E-10
       187  14  4.097660E+04 -7.721019E+03 -1.527820E+04  3.502977E+04  1.575436E-11 -1.607382E-11
       187  15  3.864429E+04 -2.825961E+04 -3.080774E+04  3.823827E+04  7.800048E-11 -1.573543E-11
       187  16  1.711776E+05  2.929519E+04  1.422356E+04  3.893585E+04  1.060578E-10 -8.951341E-11
       187  17  2.065814E+05  3.175266E+04  1.651110E+04  2.621340E+04  1.569733E-10 -3.104247E-11
       187  18  2.388727E+05  2.118886E+04  1.623354E+04  1.990677E+04 -4.797171E-11  3.569526E-11
       187  19 -9.386456E+04 -3.279986E+04 -3.122082E+04  3.753957E+04 -2.536732E+03 -8.325678E+03
       187  20 -1.246013E+05 -4.719586E+04 -4.706790E+04  4.384384E+04 -1.928607E+04 -7.686203E+03
       187  21 -1.615451E+05 -7.770932E+04 -7.784914E+04  5.656389E+04 -3.603397E+04 -2.408385E+03
       187  22  3.864793E+04 -1.751823E+03 -8.498211E+03  3.823766E+04 -5.760562E+03 -8.325714E+03
       187  23  4.097681E+04 -7.720906E+03 -1.527774E+04  3.502985E+04 -1.360672E+04 -7.685585E+03
       187  24  3.864479E+04 -2.825948E+04 -3.080687E+04  3.823831E+04 -2.145251E+04 -2.407168E+03
       187  25  1.711777E+05  2.929528E+04  1.422385E+04  3.893591E+04 -8.985058E+03 -8.325757E+03
       187  26  2.065815E+05  3.175274E+04  1.651133E+04  2.621345E+04 -7.925880E+03 -7.685128E+03
       187  27  2.388727E+05  2.118888E+04  1.623364E+04  1.990678E+04 -6.866380E+03 -2.406812E+03
       188   1 -5.199240E+04 -1.315401E+05 -5.701887E+04  4.879588E+04  2.099239E+02 -3.672609E+04
       188   2 -1.140112E+04 -1.137300E+05 -2.704984E+04  3.010683E+04  1.017958E+03 -2.179284E+04
       188   3  2.508479E+03 -1.045350E+05 -1.347455E+04  1.411035E+04  1.938661E+03 -6.859062E+03
       188   4 -5.147320E+04 -1.296593E+05 -5.628211E+04  1.529773E+04  2.118551E+02 -3.816447E+04
       188   5 -1.405798E+04 -1.253689E+05 -2.868592E+04  1.395055E+04  1.018474E+03 -2.344904E+04
       188   6 -3.287908E+03 -1.296564E+05 -1.733217E+04  1.529683E+04  1.938596E+03 -8.733384E+03
       188   7 -5.094977E+04 -1.277762E+05 -5.554475E+04 -1.820052E+04  2.139415E+02 -3.960285E+04
       188   8 -1.671386E+04 -1.370070E+05 -3.032185E+04 -2.205414E+03  1.019075E+03 -2.510522E+04
       188   9 -9.084318E+03 -1.547771E+05 -2.118978E+04  1.648325E+04  1.938524E+03 -1.060763E+04
       188  10 -5.199276E+04 -1.315415E+05 -5.702141E+04  4.879588E+04 -6.223182E-11 -1.902619E-10
       188  11 -1.140124E+04 -1.137305E+05 -2.705074E+04  3.010685E+04 -1.005517E-12 -1.436168E-11
       188  12  2.508462E+03 -1.045351E+05 -1.347465E+04  1.411036E+04 -5.178857E-11  2.037074E-10
       188  13 -5.147359E+04 -1.296609E+05 -5.628485E+04  1.529773E+04 -2.782702E-11 -9.483873E-12
       188  14 -1.405813E+04 -1.253695E+05 -2.868696E+04  1.395057E+04 -1.448882E-10  1.500970E-11
       188  15 -3.287933E+03 -1.296565E+05 -1.733232E+04  1.529684E+04 -1.114610E-12  1.412423E-11
       188  16 -5.095019E+04 -1.277779E+05 -5.554769E+04 -1.820051E+04 -3.420247E-11  1.801544E-10
       188  17 -1.671403E+04 -1.370077E+05 -3.032304E+04 -2.205394E+03 -2.079287E-10  2.245727E-11
       188  18 -9.084353E+03 -1.547772E+05 -2.119000E+04  1.648327E+04 -4.926394E-11 -2.009191E-10
       188  19 -5.199240E+04 -1.315401E+05 -5.701887E+04  4.879588E+04 -2.099239E+02  3.672609E+04
       188  20 -1.140112E+04 -1.137300E+05 -2.704984E+04  3.010683E+04 -1.017958E+03  2.179284E+04
       188  21  2.508479E+03 -1.045350E+05 -1.347455E+04  1.411035E+04 -1.938661E+03  6.859062E+03
       188  22 -5.147320E+04 -1.296593E+05 -5.628211E+04  1.529773E+04 -2.118551E+02  3.816447E+04
       188  23 -1.405798E+04 -1.253689E+05 -2.868592E+04  1.395055E+04 -1.018474E+03  2.344904E+04
       188  24 -3.287908E+03 -1.296564E+05 -1.733217E+04  1.529683E+04 -1.938596E+03  8.733384E+03
       188  25 -5.094977E+04 -1.277762E+05 -5.554475E+04 -1.820052E+04 -2.139415E+02  3.960285E+04
       188  26 -1.671386E+04 -1.370070E+05 -3.032185E+04 -2.205414E+03 -1.019075E+03  2.510522E+04
       188  27 -9.084318E+03 -1.547771E+05 -2.118978E+04  1.648325E+04 -1.938524E+03  1.060763E+04
       189   1  4.766881E+03 -9.438265E+04 -9.186269E+03  1.702748E+04  2.521834E+03 -4.442838E+03
       189   2  9.705885E+03 -8.011044E+04 -4.284593E+03  1.398783E+04  3.390726E+03  1.053994E+03
       189   3  1.133436E+04 -6.738123E+04 -3.789449E+03  1.363453E+04  4.039220E+03  6.550962E+03
       189   4 -3.035582E+03 -1.281098E+05 -1.446669E+04  1.529535E+04  2.521806E+03 -6.321866E+03
       189   5 -1.245618E+03 -1.273016E+05 -1.184548E+04  1.395216E+04  3.390721E+03 -4.023292E+02
       189   6 -2.839729E+03 -1.281102E+05 -1.392457E+04  1.529538E+04  4.039260E+03  5.517232E+03
       189   7 -1.083809E+04 -1.618357E+05 -1.974713E+04  1.356331E+04  2.521788E+03 -8.200796E+03
       189   8 -1.219723E+04 -1.744906E+05 -1.940643E+04  1.391650E+04  3.390716E+03 -1.858546E+03
       189   9 -1.701399E+04 -1.888355E+05 -2.405979E+04  1.695607E+04  4.039294E+03  4.483600E+03
       189  10  4.766869E+03 -9.438267E+04 -9.186318E+03  1.702749E+04 -4.458995E-11 -1.935706E-10
       189  11  9.705873E+03 -8.011044E+04 -4.284617E+03  1.398783E+04 -1.226295E-10 -8.299627E-12
       189  12  1.133433E+04 -6.738128E+04 -3.789560E+03  1.363451E+04 -6.425880E-11  2.462438E-10
       189  13 -3.035600E+03 -1.281098E+05 -1.446678E+04  1.529536E+04  3.520225E-11  1.284337E-11
       189  14 -1.245631E+03 -1.273016E+05 -1.184551E+04  1.395216E+04 -1.888940E-10  5.396029E-12
       189  15 -2.839754E+03 -1.281102E+05 -1.392465E+04  1.529537E+04  1.576182E-11 -4.531191E-12
       189  16 -1.083811E+04 -1.618358E+05 -1.974727E+04  1.356332E+04  5.935924E-11  1.844058E-10
       189  17 -1.219725E+04 -1.744906E+05 -1.940645E+04  1.391650E+04 -8.583859E-11  5.915524E-12
       189  18 -1.701402E+04 -1.888355E+05 -2.405986E+04  1.695605E+04 -9.676622E-12 -2.220608E-10
       189  19  4.766881E+03 -9.438265E+04 -9.186269E+03  1.702748E+04 -2.521834E+03  4.442838E+03
       189  20  9.705885E+03 -8.011044E+04 -4.284593E+03  1.398783E+04 -3.390726E+03 -1.053994E+03
       189  21  1.133436E+04 -6.738123E+04 -3.789449E+03  1.363453E+04 -4.039220E+03 -6.550962E+03
       189  22 -3.035582E+03 -1.281098E+05 -1.446669E+04  1.529535E+04 -2.521806E+03  6.321866E+03
       189  23 -1.245618E+03 -1.273016E+05 -1.184548E+04  1.395216E+04 -3.390721E+03  4.023292E+02
       189  24 -2.839729E+03 -1.281102E+05 -1.392457E+04  1.529538E+04 -4.039260E+03 -5.517232E+03
       189  25 -1.083809E+04 -1.618357E+05 -1.974713E+04  1.356331E+04 -2.521788E+03  8.200796E+03
       189  26 -1.219723E+04 -1.744906E+05 -1.940643E+04  1.391650E+04 -3.390716E+03  1.858546E+03
       189  27 -1.701399E+04 -1.888355E+05 -2.405979E+04  1.695607E+04 -4.039294E+03 -4.483600E+03
       190   1  1.317171E+04 -6.008959E+04 -4.680102E+03  1.634947E+04  4.453431E+03  8.972654E+03
       190   2  6.562432E+03 -4.294369E+04 -1.115984E+04 -1.082063E+03  3.939364E+03  1.850742E+04
       190   3 -2.415051E+04 -3.306397E+04 -2.987289E+04 -1.598022E+04  1.208523E+03  2.804222E+04
       190   4 -3.076935E+03 -1.295301E+05 -1.647557E+04  1.526150E+04  4.453452E+03  7.830475E+03
       190   5 -1.310160E+04 -1.255287E+05 -2.688334E+04  1.399471E+04  3.939836E+03  2.161894E+04
       190   6 -4.797126E+04 -1.295337E+05 -5.247972E+04  1.526118E+04  1.209807E+03  3.540707E+04
       190   7 -1.932583E+04 -1.989659E+05 -2.827119E+04  1.417366E+04  4.453477E+03  6.688420E+03
       190   8 -3.276517E+04 -2.081066E+05 -4.260698E+04  2.906944E+04  3.940460E+03  2.473006E+04
       190   9 -7.178898E+04 -2.259926E+05 -7.508646E+04  4.649770E+04  1.211833E+03  4.277079E+04
       190  10  1.317166E+04 -6.008969E+04 -4.680291E+03  1.634944E+04  2.621642E-11 -2.181322E-10
       190  11  6.562323E+03 -4.294407E+04 -1.116051E+04 -1.082122E+03  2.836567E-11 -7.902928E-11
       190  12 -2.415072E+04 -3.306482E+04 -2.987437E+04 -1.598024E+04 -2.065966E-11  1.717845E-10
       190  13 -3.076973E+03 -1.295302E+05 -1.647572E+04  1.526148E+04 -5.790664E-12 -7.361587E-12
       190  14 -1.310174E+04 -1.255292E+05 -2.688424E+04  1.399465E+04 -2.084329E-10 -3.405725E-11
       190  15 -4.797160E+04 -1.295350E+05 -5.248208E+04  1.526115E+04 -8.703567E-11 -5.411881E-11
       190  16 -1.932586E+04 -1.989659E+05 -2.827132E+04  1.417364E+04 -3.349852E-12  2.203014E-10
       190  17 -3.276535E+04 -2.081072E+05 -4.260816E+04  2.906936E+04 -8.639360E-11 -2.828163E-13
       190  18 -7.178948E+04 -2.259945E+05 -7.508990E+04  4.649766E+04  3.741006E-11 -1.350311E-10
       190  19  1.317171E+04 -6.008959E+04 -4.680102E+03  1.634947E+04 -4.453431E+03 -8.972654E+03
       190  20  6.562432E+03 -4.294369E+04 -1.115984E+04 -1.082063E+03 -3.939364E+03 -1.850742E+04
       190  21 -2.415051E+04 -3.306397E+04 -2.987289E+04 -1.598022E+04 -1.208523E+03 -2.804222E+04
       190  22 -3.076935E+03 -1.295301E+05 -1.647557E+04  1.526150E+04 -4.453452E+03 -7.830475E+03
       190  23 -1.310160E+04 -1.255287E+05 -2.688334E+04  1.399471E+04 -3.939836E+03 -2.161894E+04
       190  24 -4.797126E+04 -1.295337E+05 -5.247972E+04  1.526118E+04 -1.209807E+03 -3.540707E+04
       190  25 -1.932583E+04 -1.989659E+05 -2.827119E+04  1.417366E+04 -4.453477E+03 -6.688420E+03
       190  26 -3.276517E+04 -2.081066E+05 -4.260698E+04  2.906944E+04 -3.940460E+03 -2.473006E+04
       190  27 -7.178898E+04 -2.259926E+05 -7.508646E+04  4.649770E+04 -1.211833E+03 -4.277079E+04
       191   1  2.412055E+05  1.492868E+05  4.296429E+04  1.513818E+05  3.223874E+04  2.501520E+04
       191   2  2.643589E+05  1.232733E+05  2.065169E+04  1.775350E+05  2.207295E+04  1.853695E+04
       191   3  3.103965E+05  1.127376E+05  1.352144E+04  1.919249E+05  1.319224E+04  1.034404E+04
       191   4  3.406201E+05  1.577036E+05  6.371894E+04  1.719530E+05  3.530007E+04  2.730768E+04
       191   5  3.189589E+05  1.320632E+05  3.141965E+04  1.909970E+05  2.183765E+04  1.835944E+04
       191   6  3.208925E+05  1.226128E+05  1.716015E+04  1.982776E+05  9.661188E+03  7.696304E+03
       191   7  4.400479E+05  1.661221E+05  8.447390E+04  1.925251E+05  3.836209E+04  2.960011E+04
       191   8  3.735634E+05  1.408536E+05  4.218777E+04  2.044597E+05  2.160232E+04  1.818192E+04
       191   9  3.313889E+05  1.324884E+05  2.079901E+04  2.046305E+05  6.129986E+03  5.048432E+03
       191  10  2.412042E+05  1.492858E+05  4.296116E+04  1.513812E+05  9.942269E-11  5.091308E-11
       191  11  2.643583E+05  1.232728E+05  2.065013E+04  1.775346E+05  5.163466E-11 -8.320173E-11
       191  12  3.103963E+05  1.127374E+05  1.352091E+04  1.919248E+05  6.229366E-11 -1.588912E-10
       191  13  3.406185E+05  1.577025E+05  6.371520E+04  1.719522E+05 -1.506637E-10 -7.187846E-11
       191  14  3.189583E+05  1.320628E+05  3.141812E+04  1.909967E+05  2.476508E-10 -3.080713E-11
       191  15  3.208924E+05  1.226127E+05  1.715987E+04  1.982775E+05  1.493703E-10 -1.231355E-10
       191  16  4.400461E+05  1.661207E+05  8.446949E+04  1.925242E+05 -3.360706E-10 -1.997988E-10
       191  17  3.735628E+05  1.408532E+05  4.218627E+04  2.044594E+05  2.302193E-10 -6.716042E-11
       191  18  3.313889E+05  1.324883E+05  2.079890E+04  2.046305E+05  1.153791E-10 -1.015855E-10
       191  19  2.412055E+05  1.492868E+05  4.296429E+04  1.513818E+05 -3.223874E+04 -2.501520E+04
       191  20  2.643589E+05  1.232733E+05  2.065169E+04  1.775350E+05 -2.207295E+04 -1.853695E+04
       191  21  3.103965E+05  1.127376E+05  1.352144E+04  1.919249E+05 -1.319224E+04 -1.034404E+04
       191  22  3.406201E+05  1.577036E+05  6.371894E+04  1.719530E+05 -3.530007E+04 -2.730768E+04
       191  23  3.189589E+05  1.320632E+05  3.141965E+04  1.909970E+05 -2.183765E+04 -1.835944E+04
       191  24  3.208925E+05  1.226128E+05  1.716015E+04  1.982776E+05 -9.661188E+03 -7.696304E+03
       191  25  4.400479E+05  1.661221E+05  8.447390E+04  1.925251E+05 -3.836209E+04 -2.960011E+04
       191  26  3.735634E+05  1.408536E+05  4.218777E+04  2.044597E+05 -2.160232E+04 -1.818192E+04
       191  27  3.313889E+05  1.324884E+05  2.079901E+04  2.046305E+05 -6.129986E+03 -5.048432E+03
       192   1  3.223482E+05  1.262022E+05  1.316754E+04  2.002121E+05  1.216976E+04  7.823906E+03
       192   2  3.440494E+05  1.445875E+05  1.314953E+04  2.148527E+05  1.106428E+04  4.054898E+03
       192   3  3.737258E+05  1.578050E+05  1.565783E+04  2.270408E+05  1.008961E+04  1.114137E+02
       192   4  3.195899E+05  1.217103E+05  1.296766E+04  1.974757E+05  8.721931E+03  5.238481E+03
       192   5  3.149729E+05  1.232026E+05  7.133872E+03  1.994936E+05  7.281180E+03  1.218048E+03
       192   6  3.184032E+05  1.195998E+05  4.117319E+03  1.990585E+05  5.971375E+03 -2.976800E+03
       192   7  3.168318E+05  1.172185E+05  1.276790E+04  1.947394E+05  5.274189E+03  2.653150E+03
       192   8  2.858977E+05  1.018185E+05  1.118381E+03  1.841355E+05  3.498359E+03 -1.618585E+03
       192   9  2.630843E+05  8.139660E+04 -7.423204E+03  1.710792E+05  1.853632E+03 -6.064654E+03
       192  10  3.223480E+05  1.262021E+05  1.316714E+04  2.002121E+05  2.255601E-10 -6.111533E-11
       192  11  3.440493E+05  1.445875E+05  1.314927E+04  2.148527E+05  4.234668E-10  7.627225E-11
       192  12  3.737257E+05  1.578049E+05  1.565764E+04  2.270408E+05  2.839548E-10  2.448354E-12
       192  13  3.195898E+05  1.217102E+05  1.296747E+04  1.974757E+05  3.342462E-11 -1.310855E-10
       192  14  3.149728E+05  1.232026E+05  7.133770E+03  1.994936E+05  3.416067E-11 -9.736898E-11
       192  15  3.184031E+05  1.195998E+05  4.117235E+03  1.990585E+05 -5.954487E-11 -8.725729E-11
       192  16  3.168318E+05  1.172185E+05  1.276783E+04  1.947394E+05  8.781588E-11 -1.060481E-10
       192  17  2.858977E+05  1.018185E+05  1.118353E+03  1.841355E+05 -9.436988E-11 -1.436052E-10
       192  18  2.630843E+05  8.139656E+04 -7.423280E+03  1.710792E+05 -1.848407E-10 -1.479929E-10
       192  19  3.223482E+05  1.262022E+05  1.316754E+04  2.002121E+05 -1.216976E+04 -7.823906E+03
       192  20  3.440494E+05  1.445875E+05  1.314953E+04  2.148527E+05 -1.106428E+04 -4.054898E+03
       192  21  3.737258E+05  1.578050E+05  1.565783E+04  2.270408E+05 -1.008961E+04 -1.114137E+02
       192  22  3.195899E+05  1.217103E+05  1.296766E+04  1.974757E+05 -8.721931E+03 -5.238481E+03
       192  23  3.149729E+05  1.232026E+05  7.133872E+03  1.994936E+05 -7.281180E+03 -1.218048E+03
       192  24  3.184032E+05  1.195998E+05  4.117319E+03  1.990585E+05 -5.971375E+03  2.976800E+03
       192  25  3.168318E+05  1.172185E+05  1.276790E+04  1.947394E+05 -5.274189E+03 -2.653150E+03
       192  26  2.858977E+05  1.018185E+05  1.118381E+03  1.841355E+05 -3.498359E+03  1.618585E+03
       192  27  2.630843E+05  8.139660E+04 -7.423204E+03  1.710792E+05 -1.853632E+03  6.064654E+03
       193   1  3.894885E+05  1.693264E+05  1.832341E+04  2.352341E+05  1.052191E+04 -1.527173E+03
       193   2  4.113260E+05  1.903779E+05  2.255550E+04  2.491667E+05  1.122723E+04 -4.302056E+03
       193   3  4.400706E+05  2.048762E+05  2.754579E+04  2.611484E+05  1.189345E+04 -7.024571E+03
       193   4  3.182959E+05  1.195393E+05  3.179671E+03  1.989685E+05  6.408570E+03 -4.611843E+03
       193   5  3.148320E+05  1.227906E+05  1.967945E+03  1.999704E+05  7.214472E+03 -7.311585E+03
       193   6  3.182526E+05  1.194657E+05  1.427025E+03  1.990203E+05  7.981324E+03 -9.958884E+03
       193   7  2.471079E+05  6.975447E+04 -1.196469E+04  1.627070E+05  2.295772E+03 -7.696107E+03
       193   8  2.183491E+05  5.520913E+04 -1.861992E+04  1.507830E+05  3.202546E+03 -1.032049E+04
       193   9  1.964547E+05  3.406630E+04 -2.469144E+04  1.369077E+05  4.070299E+03 -1.289237E+04
       193  10  3.894884E+05  1.693263E+05  1.832320E+04  2.352341E+05  1.980993E-10 -1.158409E-11
       193  11  4.113258E+05  1.903778E+05  2.255523E+04  2.491668E+05 -2.191320E-10 -2.383240E-10
       193  12  4.400705E+05  2.048761E+05  2.754543E+04  2.611485E+05  1.599871E-10  5.413545E-11
       193  13  3.182959E+05  1.195393E+05  3.179554E+03  1.989685E+05 -7.301727E-11 -1.242952E-10
       193  14  3.148319E+05  1.227905E+05  1.967747E+03  1.999704E+05  1.236232E-10 -1.258260E-11
       193  15  3.182525E+05  1.194656E+05  1.426719E+03  1.990204E+05  1.301055E-10  2.178707E-11
       193  16  2.471079E+05  6.975440E+04 -1.196481E+04  1.627070E+05 -1.490463E-10 -1.011660E-10
       193  17  2.183491E+05  5.520901E+04 -1.862014E+04  1.507830E+05 -2.331569E-10 -1.432312E-10
       193  18  1.964546E+05  3.406611E+04 -2.469179E+04  1.369078E+05 -1.580627E-10 -1.076645E-10
       193  19  3.894885E+05  1.693264E+05  1.832341E+04  2.352341E+05 -1.052191E+04  1.527173E+03
       193  20  4.113260E+05  1.903779E+05  2.255550E+04  2.491667E+05 -1.122723E+04  4.302056E+03
       193  21  4.400706E+05  2.048762E+05  2.754579E+04  2.611484E+05 -1.189345E+04  7.024571E+03
       193  22  3.182959E+05  1.195393E+05  3.179671E+03  1.989685E+05 -6.408570E+03  4.611843E+03
       193  23  3.148320E+05  1.227906E+05  1.967945E+03  1.999704E+05 -7.214472E+03  7.311585E+03
       193  24  3.182526E+05  1.194657E+05  1.427025E+03  1.990203E+05 -7.981324E+03  9.958884E+03
       193  25  2.471079E+05  6.975447E+04 -1.196469E+04  1.627070E+05 -2.295772E+03  7.696107E+03
       193  26  2.183491E+05  5.520913E+04 -1.861992E+04  1.507830E+05 -3.202546E+03  1.032049E+04
       193  27  1.964547E+05  3.406630E+04 -2.469144E+04  1.369077E+05 -4.070299E+03  1.289237E+04
       194   1  4.561549E+05  2.163210E+05  3.112612E+04  2.693914E+05  1.264355E+04 -8.362708E+03
       194   2  4.782006E+05  2.373872E+05  3.729558E+04  2.830756E+05  1.204747E+04 -1.148873E+04
       194   3  5.074272E+05  2.523134E+05  4.514250E+04  2.947537E+05  1.094335E+04 -1.393721E+04
       194   4  3.182442E+05  1.194803E+05  1.330761E+03  1.990223E+05  8.698179E+03 -1.132215E+04
       194   5  3.148819E+05  1.228471E+05  1.456000E+03  1.999076E+05  9.404283E+03 -1.347192E+04
       194   6  3.184175E+05  1.197913E+05  2.129427E+03  1.987862E+05  9.602352E+03 -1.494394E+04
       194   7  1.803560E+05  2.265135E+04 -2.846541E+04  1.286713E+05  4.753976E+03 -1.428073E+04
       194   8  1.515929E+05  8.322257E+03 -3.438545E+04  1.167641E+05  6.761996E+03 -1.545444E+04
       194   9  1.294457E+05 -1.271186E+04 -4.088702E+04  1.028506E+05  8.261869E+03 -1.595029E+04
       194  10  4.561547E+05  2.163209E+05  3.112568E+04  2.693915E+05  4.192391E-11  1.053807E-10
       194  11  4.782004E+05  2.373870E+05  3.729505E+04  2.830757E+05  4.005148E-10  3.268723E-10
       194  12  5.074271E+05  2.523132E+05  4.514191E+04  2.947538E+05  5.615926E-10  1.788880E-10
       194  13  3.182441E+05  1.194801E+05  1.330378E+03  1.990223E+05 -1.369688E-10 -1.104938E-10
       194  14  3.148818E+05  1.228469E+05  1.455493E+03  1.999077E+05 -2.085034E-11 -4.539588E-11
       194  15  3.184174E+05  1.197910E+05  2.128834E+03  1.987863E+05  2.155525E-10 -1.467637E-11
       194  16  1.803559E+05  2.265112E+04 -2.846583E+04  1.286713E+05 -1.229587E-10 -8.997424E-11
       194  17  1.515928E+05  8.321988E+03 -3.438599E+04  1.167642E+05 -1.904067E-10 -3.129247E-10
       194  18  1.294455E+05 -1.271215E+04 -4.088763E+04  1.028507E+05 -2.618287E-10 -3.050785E-10
       194  19  4.561549E+05  2.163210E+05  3.112612E+04  2.693914E+05 -1.264355E+04  8.362708E+03
       194  20  4.782006E+05  2.373872E+05  3.729558E+04  2.830756E+05 -1.204747E+04  1.148873E+04
       194  21  5.074272E+05  2.523134E+05  4.514250E+04  2.947537E+05 -1.094335E+04  1.393721E+04
       194  22  3.182442E+05  1.194803E+05  1.330761E+03  1.990223E+05 -8.698179E+03  1.132215E+04
       194  23  3.148819E+05  1.228471E+05  1.456000E+03  1.999076E+05 -9.404283E+03  1.347192E+04
       194  24  3.184175E+05  1.197913E+05  2.129427E+03  1.987862E+05 -9.602352E+03  1.494394E+04
       194  25  1.803560E+05  2.265135E+04 -2.846541E+04  1.286713E+05 -4.753976E+03  1.428073E+04
       194  26  1.515929E+05  8.322257E+03 -3.438545E+04  1.167641E+05 -6.761996E+03  1.545444E+04
       194  27  1.294457E+05 -1.271186E+04 -4.088702E+04  1.028506E+05 -8.261869E+03  1.595029E+04
       195   1  5.235986E+05  2.646964E+05  5.029339E+04  3.033338E+05  1.149220E+04 -1.461500E+04
       195   2  5.484259E+05  2.839714E+05  6.441017E+04  3.140436E+05 -4.523265E+03 -2.296234E+04
       195   3  5.845923E+05  3.031078E+05  9.189612E+04  3.215192E+05 -2.535476E+04 -2.489361E+04
       195   4  3.184908E+05  1.200305E+05  2.681601E+03  1.989320E+05  9.835585E+03 -1.585866E+04
       195   5  3.156044E+05  1.240089E+05  4.681000E+03  1.986164E+05  6.154354E+03 -1.495278E+04
       195   6  3.213832E+05  1.251758E+05  9.351078E+03  1.950664E+05 -2.343197E+03 -7.628974E+03
       195   7  1.134364E+05 -2.460625E+04 -4.493120E+04  9.457242E+04  8.179734E+03 -1.710174E+04
       195   8  8.284717E+04 -3.592182E+04 -5.505104E+04  8.323962E+04  1.682647E+04 -6.947207E+03
       195   9  5.824942E+04 -5.272227E+04 -7.319925E+04  6.867304E+04  2.065502E+04  9.626297E+03
       195  10  5.235984E+05  2.646961E+05  5.029274E+04  3.033339E+05 -1.421854E-10 -2.150807E-10
       195  11  5.484258E+05  2.839709E+05  6.440914E+04  3.140435E+05  1.006093E-10  6.616222E-10
       195  12  5.845914E+05  3.031070E+05  9.189375E+04  3.215187E+05  3.235179E-10  6.144335E-10
       195  13  3.184906E+05  1.200302E+05  2.680946E+03  1.989321E+05  1.719776E-10 -6.516619E-11
       195  14  3.156043E+05  1.240086E+05  4.680508E+03  1.986165E+05  8.888346E-11  4.451662E-10
       195  15  3.213832E+05  1.251757E+05  9.350958E+03  1.950664E+05  3.229948E-10  8.978443E-10
       195  16  1.134363E+05 -2.460658E+04 -4.493187E+04  9.457253E+04  4.973078E-10  4.501771E-10
       195  17  8.284685E+04 -3.592195E+04 -5.505166E+04  8.323971E+04  4.350496E-12  1.431374E-10
       195  18  5.824894E+04 -5.272248E+04 -7.320023E+04  6.867288E+04 -3.539488E-10 -1.884485E-10
       195  19  5.235986E+05  2.646964E+05  5.029339E+04  3.033338E+05 -1.149220E+04  1.461500E+04
       195  20  5.484259E+05  2.839714E+05  6.441017E+04  3.140436E+05  4.523265E+03  2.296234E+04
       195  21  5.845923E+05  3.031078E+05  9.189612E+04  3.215192E+05  2.535476E+04  2.489361E+04
       195  22  3.184908E+05  1.200305E+05  2.681601E+03  1.989320E+05 -9.835585E+03  1.585866E+04
       195  23  3.156044E+05  1.240089E+05  4.681000E+03  1.986164E+05 -6.154354E+03  1.495278E+04
       195  24  3.213832E+05  1.251758E+05  9.351078E+03  1.950664E+05  2.343197E+03  7.628974E+03
       195  25  1.134364E+05 -2.460625E+04 -4.493120E+04  9.457242E+04 -8.179734E+03  1.710174E+04
       195  26  8.284717E+04 -3.592182E+04 -5.505104E+04  8.323962E+04 -1.682647E+04  6.947207E+03
       195  27  5.824942E+04 -5.272227E+04 -7.319925E+04  6.867304E+04 -2.065502E+04 -9.626297E+03
       196   1 -4.154347E+04  5.323827E+04 -3.723545E+04  1.535689E+05 -1.641428E+03  1.496721E+04
       196   2 -2.510993E+04  2.051874E+05 -1.466589E+04  1.489421E+05 -2.589751E+03  2.056959E+04
       196   3  4.802821E+03  3.598040E+05  7.625670E+03  1.744281E+05  3.754028E+03  2.617339E+04
       196   4  3.093668E+04  3.448111E+05  3.358519E+04  1.736074E+05 -1.637736E+03  2.379919E+04
       196   5  8.512449E+03  3.422856E+05  1.635215E+04  1.585563E+05 -2.591295E+03  1.539556E+04
       196   6  1.996076E+03  3.448299E+05  8.562076E+03  1.736147E+05  3.746311E+03  6.991853E+03
       196   7  1.034121E+05  6.364626E+05  1.044002E+05  1.936553E+05 -1.633475E+03  3.263531E+04
       196   8  4.213389E+04  4.794015E+05  4.736914E+04  1.681726E+05 -2.592999E+03  1.022039E+04
       196   9 -8.104660E+02  3.298568E+05  9.499905E+03  1.728013E+05  3.738644E+03 -1.218928E+04
       196  10 -4.154353E+04  5.323803E+04 -3.723587E+04  1.535689E+05 -4.834666E-11 -1.596840E-10
       196  11 -2.511005E+04  2.051870E+05 -1.466670E+04  1.489422E+05  7.566596E-11  4.461091E-11
       196  12  4.802622E+03  3.598033E+05  7.624357E+03  1.744281E+05 -1.942290E-11  1.733669E-10
       196  13  3.093653E+04  3.448105E+05  3.358412E+04  1.736074E+05  2.450023E-11  9.321193E-11
       196  14  8.512378E+03  3.422854E+05  1.635169E+04  1.585563E+05 -7.496183E-11  2.253043E-10
       196  15  1.996048E+03  3.448298E+05  8.561958E+03  1.736147E+05  4.606103E-11  9.627276E-11
       196  16  1.034118E+05  6.364614E+05  1.043982E+05  1.936553E+05 -6.242875E-12  1.286318E-10
       196  17  4.213386E+04  4.794014E+05  4.736893E+04  1.681726E+05 -2.879677E-11  1.664586E-10
       196  18 -8.105209E+02  3.298566E+05  9.499600E+03  1.728013E+05  8.725004E-12 -1.498230E-10
       196  19 -4.154347E+04  5.323827E+04 -3.723545E+04  1.535689E+05  1.641428E+03 -1.496721E+04
       196  20 -2.510993E+04  2.051874E+05 -1.466589E+04  1.489421E+05  2.589751E+03 -2.056959E+04
       196  21  4.802821E+03  3.598040E+05  7.625670E+03  1.744281E+05 -3.754028E+03 -2.617339E+04
       196  22  3.093668E+04  3.448111E+05  3.358519E+04  1.736074E+05  1.637736E+03 -2.379919E+04
       196  23  8.512449E+03  3.422856E+05  1.635215E+04  1.585563E+05  2.591295E+03 -1.539556E+04
       196  24  1.996076E+03  3.448299E+05  8.562076E+03  1.736147E+05 -3.746311E+03 -6.991853E+03
       196  25  1.034121E+05  6.364626E+05  1.044002E+05  1.936553E+05  1.633475E+03 -3.263531E+04
       196  26  4.213389E+04  4.794015E+05  4.736914E+04  1.681726E+05  2.592999E+03 -1.022039E+04
       196  27 -8.104660E+02  3.298568E+05  9.499905E+03  1.728013E+05 -3.738644E+03  1.218928E+04
       197   1  2.760678E+04  4.567393E+05  2.204813E+04  1.729537E+05  9.885629E+03  2.483154E+04
       197   2  6.201569E+04  6.096409E+05  4.512069E+04  1.580896E+05  1.910910E+04  2.118842E+04
       197   3  9.756616E+04  7.633316E+05  7.084889E+04  1.737129E+05  2.709247E+04  1.754605E+04
       197   4  1.849395E+03  3.437789E+05  6.165132E+03  1.736983E+05  9.878362E+03  5.915396E+03
       197   5  3.154604E+02  3.435894E+05  2.521439E+03  1.584545E+05  1.910425E+04  4.653012E+03
       197   6 -4.890880E+02  3.437524E+05 -1.199385E+02  1.736990E+05  2.708975E+04  3.392224E+03
       197   7 -2.390836E+04  2.308321E+05 -9.716693E+03  1.744428E+05  9.871047E+03 -1.299746E+04
       197   8 -6.138817E+04  7.760885E+04 -4.007866E+04  1.588193E+05  1.909939E+04 -1.187557E+04
       197   9 -9.855350E+04 -7.565309E+04 -7.109368E+04  1.736850E+05  2.708702E+04 -1.075235E+04
       197  10  2.760651E+04  4.567387E+05  2.204679E+04  1.729535E+05  2.089621E-11 -1.677544E-10
       197  11  6.201518E+04  6.096403E+05  4.511916E+04  1.580892E+05  1.188372E-10  8.071468E-12
       197  12  9.756529E+04  7.633311E+05  7.084694E+04  1.737125E+05  6.669600E-11  2.830248E-11
       197  13  1.849281E+03  3.437788E+05  6.164883E+03  1.736983E+05 -1.363970E-11  9.339537E-11
       197  14  3.150626E+02  3.435893E+05  2.520712E+03  1.584545E+05  1.313814E-10  1.452444E-10
       197  15 -4.898792E+02  3.437522E+05 -1.213392E+02  1.736989E+05  7.444779E-11 -3.161941E-11
       197  16 -2.390851E+04  2.308319E+05 -9.717193E+03  1.744429E+05  6.864009E-11  7.830057E-11
       197  17 -6.138860E+04  7.760860E+04 -4.007961E+04  1.588195E+05  1.340511E-10  1.172655E-10
       197  18 -9.855432E+04 -7.565342E+04 -7.109528E+04  1.736852E+05 -3.066350E-11 -7.876099E-11
       197  19  2.760678E+04  4.567393E+05  2.204813E+04  1.729537E+05 -9.885629E+03 -2.483154E+04
       197  20  6.201569E+04  6.096409E+05  4.512069E+04  1.580896E+05 -1.910910E+04 -2.118842E+04
       197  21  9.756616E+04  7.633316E+05  7.084889E+04  1.737129E+05 -2.709247E+04 -1.754605E+04
       197  22  1.849395E+03  3.437789E+05  6.165132E+03  1.736983E+05 -9.878362E+03 -5.915396E+03
       197  23  3.154604E+02  3.435894E+05  2.521439E+03  1.584545E+05 -1.910425E+04 -4.653012E+03
       197  24 -4.890880E+02  3.437524E+05 -1.199385E+02  1.736990E+05 -2.708975E+04 -3.392224E+03
       197  25 -2.390836E+04  2.308321E+05 -9.716693E+03  1.744428E+05 -9.871047E+03  1.299746E+04
       197  26 -6.138817E+04  7.760885E+04 -4.007866E+04  1.588193E+05 -1.909939E+04  1.187557E+04
       197  27 -9.855350E+04 -7.565309E+04 -7.109368E+04  1.736850E+05 -2.708702E+04  1.075235E+04
       198   1  1.208461E+05  8.615549E+05  8.776658E+04  1.738119E+05  3.227292E+04  1.851660E+04
       198   2  1.566566E+05  1.012618E+06  1.242969E+05  1.559045E+05  3.053332E+04 -1.590093E+04
       198   3  1.939420E+05  1.168595E+06  1.835891E+05  1.672265E+05  9.664932E+03 -5.033281E+04
       198   4 -5.526636E+02  3.433273E+05 -1.364818E+03  1.734197E+05  3.227133E+04  3.455407E+03
       198   5 -2.721951E+03  3.440361E+05 -4.547610E+03  1.588045E+05  3.053915E+04  5.814840E+03
       198   6 -9.793976E+03  3.432622E+05 -1.048444E+04  1.734207E+05  9.668350E+03  8.168286E+03
       198   7 -1.219657E+05 -1.746364E+05 -9.050448E+04  1.730279E+05  3.226976E+04 -1.159362E+04
       198   8 -1.621267E+05 -3.241157E+05 -1.334111E+05  1.617013E+05  3.054518E+04  2.750779E+04
       198   9 -2.135765E+05 -4.814377E+05 -2.045919E+05  1.796067E+05  9.672944E+03  6.659218E+04
       198  10  1.208449E+05  8.615543E+05  8.776398E+04  1.738114E+05  3.074369E-11 -5.137468E-11
       198  11  1.566555E+05  1.012618E+06  1.242947E+05  1.559049E+05 -4.757547E-11 -4.019943E-12
       198  12  1.939412E+05  1.168593E+06  1.835842E+05  1.672268E+05 -2.957712E-12 -7.726812E-11
       198  13 -5.537852E+02  3.433270E+05 -1.366798E+03  1.734196E+05  7.544736E-11 -6.767042E-11
       198  14 -2.722962E+03  3.440358E+05 -4.549426E+03  1.588044E+05  5.517646E-11 -2.196926E-10
       198  15 -9.794095E+03  3.432621E+05 -1.048474E+04  1.734207E+05 -1.050901E-11 -8.001917E-11
       198  16 -1.219668E+05 -1.746368E+05 -9.050669E+04  1.730282E+05 -3.190054E-11  3.852453E-11
       198  17 -1.621279E+05 -3.241167E+05 -1.334143E+05  1.617007E+05  5.293364E-11 -2.171034E-10
       198  18 -2.135778E+05 -4.814425E+05 -2.046004E+05  1.796062E+05  2.346961E-11 -8.067764E-11
       198  19  1.208461E+05  8.615549E+05  8.776658E+04  1.738119E+05 -3.227292E+04 -1.851660E+04
       198  20  1.566566E+05  1.012618E+06  1.242969E+05  1.559045E+05 -3.053332E+04  1.590093E+04
       198  21  1.939420E+05  1.168595E+06  1.835891E+05  1.672265E+05 -9.664932E+03  5.033281E+04
       198  22 -5.526636E+02  3.433273E+05 -1.364818E+03  1.734197E+05 -3.227133E+04 -3.455407E+03
       198  23 -2.721951E+03  3.440361E+05 -4.547610E+03  1.588045E+05 -3.053915E+04 -5.814840E+03
       198  24 -9.793976E+03  3.432622E+05 -1.048444E+04  1.734207E+05 -9.668350E+03 -8.168286E+03
       198  25 -1.219657E+05 -1.746364E+05 -9.050448E+04  1.730279E+05 -3.226976E+04  1.159362E+04
       198  26 -1.621267E+05 -3.241157E+05 -1.334111E+05  1.617013E+05 -3.054518E+04 -2.750779E+04
       198  27 -2.135765E+05 -4.814377E+05 -2.045919E+05  1.796067E+05 -9.672944E+03 -6.659218E+04
       199   1  2.026415E+05  5.885948E+04  5.417342E+04  4.266819E+04  1.215483E+04 -3.554844E+03
       199   2  1.574968E+05  5.451021E+04  3.957204E+04  4.266675E+04  2.896443E+03 -1.144241E+04
       199   3  1.125021E+05  4.588600E+04  2.992876E+04  5.117037E+04 -6.358699E+03 -1.264912E+04
       199   4 -8.691115E+04 -1.264205E+04 -1.377219E+04  5.092960E+04 -9.410648E+03 -3.548491E+03
       199   5 -8.586781E+04 -3.470261E+03 -6.964823E+03  4.667847E+04 -5.838837E+03 -1.144052E+04
       199   6 -8.690352E+04 -8.015377E+02 -4.108604E+03  5.093271E+04 -2.264260E+03 -1.265036E+04
       199   7 -3.763854E+05 -8.414903E+04 -8.172175E+04  5.918713E+04 -3.096613E+04 -3.542710E+03
       199   8 -3.291751E+05 -6.145412E+04 -5.350408E+04  5.068857E+04 -1.457077E+04 -1.143874E+04
       199   9 -2.862700E+05 -4.749118E+04 -3.814722E+04  5.069512E+04  1.828905E+03 -1.265161E+04
       199  10  2.026413E+05  5.885942E+04  5.417312E+04  4.266823E+04  6.668656E-11 -1.202858E-11
       199  11  1.574967E+05  5.451006E+04  3.957178E+04  4.266678E+04 -1.616589E-10  5.179403E-11
       199  12  1.125020E+05  4.588582E+04  2.992838E+04  5.117031E+04  2.281289E-10  1.870030E-11
       199  13 -8.691125E+04 -1.264208E+04 -1.377238E+04  5.092957E+04 -1.317255E-10 -3.188914E-12
       199  14 -8.586788E+04 -3.470411E+03 -6.965133E+03  4.667841E+04 -1.119411E-10  1.344006E-11
       199  15 -8.690357E+04 -8.017109E+02 -4.108915E+03  5.093268E+04 -1.969889E-10  8.407086E-12
       199  16 -3.763865E+05 -8.414930E+04 -8.172358E+04  5.918704E+04 -1.359999E-10 -3.086975E-11
       199  17 -3.291754E+05 -6.145432E+04 -5.350473E+04  5.068844E+04  2.824805E-10 -2.194167E-11
       199  18 -2.862700E+05 -4.749135E+04 -3.814753E+04  5.069514E+04  5.176250E-11 -1.549289E-11
       199  19  2.026415E+05  5.885948E+04  5.417342E+04  4.266819E+04 -1.215483E+04  3.554844E+03
       199  20  1.574968E+05  5.451021E+04  3.957204E+04  4.266675E+04 -2.896443E+03  1.144241E+04
       199  21  1.125021E+05  4.588600E+04  2.992876E+04  5.117037E+04  6.358699E+03  1.264912E+04
       199  22 -8.691115E+04 -1.264205E+04 -1.377219E+04  5.092960E+04  9.410648E+03  3.548491E+03
       199  23 -8.586781E+04 -3.470261E+03 -6.964823E+03  4.667847E+04  5.838837E+03  1.144052E+04
       199  24 -8.690352E+04 -8.015377E+02 -4.108604E+03  5.093271E+04  2.264260E+03  1.265036E+04
       199  25 -3.763854E+05 -8.414903E+04 -8.172175E+04  5.918713E+04  3.096613E+04  3.542710E+03
       199  26 -3.291751E+05 -6.145412E+04 -5.350408E+04  5.068857E+04  1.457077E+04  1.143874E+04
       199  27 -2.862700E+05 -4.749118E+04 -3.814722E+04  5.069512E+04 -1.828905E+03  1.265161E+04
       200   1  8.388568E+04  3.906199E+04  2.523477E+04  5.059814E+04 -5.465264E+03 -1.120330E+04
       200   2  3.888853E+04  2.892742E+04  1.762523E+04  4.632958E+04 -5.472844E+03 -8.908158E+03
       200   3 -6.169623E+03  1.850590E+04  9.950836E+03  5.102628E+04 -5.480458E+03 -5.946996E+03
       200   4 -8.650289E+04 -7.340858E+02 -3.356906E+03  5.103451E+04 -1.697276E+03 -1.120432E+04
       200   5 -8.635847E+04 -1.578545E+02 -2.550941E+03  4.655187E+04 -4.263886E+02 -8.909239E+03
       200   6 -8.649909E+04 -9.051472E+01 -2.697810E+03  5.103463E+04  8.444644E+02 -5.948061E+03
       200   7 -2.568628E+05 -4.053167E+04 -3.194944E+04  5.147076E+04  2.069712E+03 -1.120534E+04
       200   8 -2.115898E+05 -2.924391E+04 -2.272744E+04  4.677412E+04  4.619085E+03 -8.910317E+03
       200   9 -1.668220E+05 -1.868722E+04 -1.534646E+04  5.104299E+04  7.168599E+03 -5.949126E+03
       200  10  8.388562E+04  3.906185E+04  2.523448E+04  5.059809E+04  1.106762E-10  2.474289E-11
       200  11  3.888848E+04  2.892733E+04  1.762502E+04  4.632954E+04  7.258955E-11 -4.416216E-12
       200  12 -6.169665E+03  1.850585E+04  9.950713E+03  5.102625E+04  1.789047E-10 -9.411698E-11
       200  13 -8.650292E+04 -7.342214E+02 -3.357148E+03  5.103450E+04 -2.669675E-10 -1.643448E-11
       200  14 -8.635849E+04 -1.579398E+02 -2.551091E+03  4.655187E+04  1.715650E-10  2.048422E-11
       200  15 -8.649910E+04 -9.055290E+01 -2.697878E+03  5.103464E+04 -2.757112E-10 -7.212043E-11
       200  16 -2.568628E+05 -4.053181E+04 -3.194968E+04  5.147078E+04 -3.704502E-11 -7.304609E-12
       200  17 -2.115899E+05 -2.924400E+04 -2.272763E+04  4.677415E+04  1.972755E-10 -5.121074E-12
       200  18 -1.668221E+05 -1.868727E+04 -1.534663E+04  5.104302E+04 -1.862529E-10 -2.807480E-11
       200  19  8.388568E+04  3.906199E+04  2.523477E+04  5.059814E+04  5.465264E+03  1.120330E+04
       200  20  3.888853E+04  2.892742E+04  1.762523E+04  4.632958E+04  5.472844E+03  8.908158E+03
       200  21 -6.169623E+03  1.850590E+04  9.950836E+03  5.102628E+04  5.480458E+03  5.946996E+03
       200  22 -8.650289E+04 -7.340858E+02 -3.356906E+03  5.103451E+04  1.697276E+03  1.120432E+04
       200  23 -8.635847E+04 -1.578545E+02 -2.550941E+03  4.655187E+04  4.263886E+02  8.909239E+03
       200  24 -8.649909E+04 -9.051472E+01 -2.697810E+03  5.103463E+04 -8.444644E+02  5.948061E+03
       200  25 -2.568628E+05 -4.053167E+04 -3.194944E+04  5.147076E+04 -2.069712E+03  1.120534E+04
       200  26 -2.115898E+05 -2.924391E+04 -2.272744E+04  4.677412E+04 -4.619085E+03  8.910317E+03
       200  27 -1.668220E+05 -1.868722E+04 -1.534646E+04  5.104299E+04 -7.168599E+03  5.949126E+03
       201   1 -3.493412E+04  1.182735E+04  4.839914E+03  5.082345E+04 -4.966156E+03 -3.990160E+03
       201   2 -7.960120E+04  9.975839E+02 -4.079204E+03  4.693639E+04 -2.013236E+03 -8.666893E+02
       201   3 -1.249819E+05 -1.118218E+04 -1.525683E+04  5.203617E+04  9.393256E+02  1.931616E+03
       201   4 -8.657010E+04 -8.488296E+01 -3.081413E+03  5.103944E+04  1.343596E+03 -3.991144E+03
       201   5 -8.626615E+04 -4.519026E+02 -4.661806E+03  4.654583E+04  3.671972E+03 -8.675596E+02
       201   6 -8.657004E+04 -2.060568E+03 -8.067165E+03  5.103910E+04  6.000200E+03  1.930854E+03
       201   7 -1.382033E+05 -1.199722E+04 -1.100265E+04  5.125542E+04  7.652844E+03 -3.992123E+03
       201   8 -9.293099E+04 -1.901373E+03 -5.244285E+03  4.615527E+04  9.357124E+03 -8.684371E+02
       201   9 -4.815665E+04  7.060980E+03 -8.774716E+02  5.004197E+04  1.106138E+04  1.930075E+03
       201  10 -3.493415E+04  1.182732E+04  4.839838E+03  5.082344E+04 -3.490273E-12 -7.206179E-11
       201  11 -7.960121E+04  9.975820E+02 -4.079213E+03  4.693639E+04 -3.574828E-10 -2.719540E-11
       201  12 -1.249819E+05 -1.118219E+04 -1.525683E+04  5.203617E+04 -6.018303E-11  4.949720E-11
       201  13 -8.657011E+04 -8.490055E+01 -3.081446E+03  5.103945E+04  1.386363E-10 -4.364905E-11
       201  14 -8.626617E+04 -4.519071E+02 -4.661833E+03  4.654583E+04  3.474559E-11  1.936431E-11
       201  15 -8.657008E+04 -2.060582E+03 -8.067240E+03  5.103909E+04  6.739494E-11  7.659031E-11
       201  16 -1.382034E+05 -1.199725E+04 -1.100279E+04  5.125544E+04 -1.955313E-10 -9.703218E-12
       201  17 -9.293108E+04 -1.901397E+03 -5.244451E+03  4.615527E+04  1.157799E-10  3.580737E-11
       201  18 -4.815678E+04  7.060943E+03 -8.777086E+02  5.004195E+04  7.642776E-12  5.634561E-11
       201  19 -3.493412E+04  1.182735E+04  4.839914E+03  5.082345E+04  4.966156E+03  3.990160E+03
       201  20 -7.960120E+04  9.975839E+02 -4.079204E+03  4.693639E+04  2.013236E+03  8.666893E+02
       201  21 -1.249819E+05 -1.118218E+04 -1.525683E+04  5.203617E+04 -9.393256E+02 -1.931616E+03
       201  22 -8.657010E+04 -8.488296E+01 -3.081413E+03  5.103944E+04 -1.343596E+03  3.991144E+03
       201  23 -8.626615E+04 -4.519026E+02 -4.661806E+03  4.654583E+04 -3.671972E+03  8.675596E+02
       201  24 -8.657004E+04 -2.060568E+03 -8.067165E+03  5.103910E+04 -6.000200E+03 -1.930854E+03
       201  25 -1.382033E+05 -1.199722E+04 -1.100265E+04  5.125542E+04 -7.652844E+03  3.992123E+03
       201  26 -9.293099E+04 -1.901373E+03 -5.244285E+03  4.615527E+04 -9.357124E+03  8.684371E+02
       201  27 -4.815665E+04  7.060980E+03 -8.774716E+02  5.004197E+04 -1.106138E+04 -1.930075E+03
       202   1 -1.549999E+05 -1.813791E+04 -2.283795E+04  5.010249E+04  2.138585E+03  3.639114E+03
       202   2 -1.964815E+05 -3.654898E+04 -4.149449E+04  5.772194E+04  1.922515E+04  4.481907E+03
       202   3 -2.450838E+05 -7.457142E+04 -7.617869E+04  7.406792E+04  3.630954E+04  1.554012E+03
       202   4 -8.773846E+04 -2.230426E+03 -1.056947E+04  5.098227E+04  7.381485E+03  3.638279E+03
       202   5 -8.480900E+04 -9.742382E+03 -1.917647E+04  4.661535E+04  1.723035E+04  4.481847E+03
       202   6 -8.774321E+04 -3.560703E+04 -3.878258E+04  5.097564E+04  2.707827E+04  1.554381E+03
       202   7 -2.047258E+04  1.367682E+04  1.698935E+03  5.186215E+04  1.262494E+04  3.637458E+03
       202   8  2.687564E+04  1.706391E+04  3.141006E+03  3.550672E+04  1.523519E+04  4.481859E+03
       202   9  6.962147E+04  3.357621E+03 -1.387602E+03  2.787748E+04  1.784467E+04  1.555437E+03
       202  10 -1.549999E+05 -1.813793E+04 -2.283798E+04  5.010249E+04  6.212208E-11  3.627224E-11
       202  11 -1.964819E+05 -3.654910E+04 -4.149523E+04  5.772187E+04 -2.993054E-10  4.910670E-12
       202  12 -2.450852E+05 -7.457178E+04 -7.618117E+04  7.406788E+04 -9.095181E-11 -2.288467E-12
       202  13 -8.773853E+04 -2.230455E+03 -1.056960E+04  5.098225E+04  4.008178E-10  8.445258E-11
       202  14 -8.480933E+04 -9.742484E+03 -1.917707E+04  4.661529E+04  3.647820E-11  1.184186E-10
       202  15 -8.774400E+04 -3.560723E+04 -3.878397E+04  5.097561E+04 -3.231178E-10 -2.975300E-11
       202  16 -2.047276E+04  1.367676E+04  1.698610E+03  5.186211E+04 -6.698305E-11  6.340660E-11
       202  17  2.687539E+04  1.706383E+04  3.140532E+03  3.550666E+04  1.558111E-10  1.582418E-11
       202  18  6.962113E+04  3.357533E+03 -1.388205E+03  2.787746E+04 -1.368506E-10  5.530811E-12
       202  19 -1.549999E+05 -1.813791E+04 -2.283795E+04  5.010249E+04 -2.138585E+03 -3.639114E+03
       202  20 -1.964815E+05 -3.654898E+04 -4.149449E+04  5.772194E+04 -1.922515E+04 -4.481907E+03
       202  21 -2.450838E+05 -7.457142E+04 -7.617869E+04  7.406792E+04 -3.630954E+04 -1.554012E+03
       202  22 -8.773846E+04 -2.230426E+03 -1.056947E+04  5.098227E+04 -7.381485E+03 -3.638279E+03
       202  23 -8.480900E+04 -9.742382E+03 -1.917647E+04  4.661535E+04 -1.723035E+04 -4.481847E+03
       202  24 -8.774321E+04 -3.560703E+04 -3.878258E+04  5.097564E+04 -2.707827E+04 -1.554381E+03
       202  25 -2.047258E+04  1.367682E+04  1.698935E+03  5.186215E+04 -1.262494E+04 -3.637458E+03
       202  26  2.687564E+04  1.706391E+04  3.141006E+03  3.550672E+04 -1.523519E+04 -4.481859E+03
       202  27  6.962147E+04  3.357621E+03 -1.387602E+03  2.787748E+04 -1.784467E+04 -1.555437E+03
       203   1 -4.114085E+04 -2.173310E+05 -4.294949E+04  4.013851E+04 -5.741169E+02 -2.281452E+04
       203   2 -1.691440E+04 -1.941912E+05 -2.235435E+04  2.943406E+04 -1.544397E+03 -1.276515E+04
       203   3 -6.495118E+03 -1.758156E+05 -1.175574E+04  2.277101E+04 -1.024096E+03 -2.715832E+03
       203   4 -2.576806E+04 -1.552175E+05 -2.812583E+04  2.342708E+04 -5.720825E+02 -1.951320E+04
       203   5 -7.028538E+03 -1.530825E+05 -1.400008E+04  2.140107E+04 -1.544032E+03 -1.232484E+04
       203   6 -1.599056E+03 -1.552151E+05 -7.883089E+03  2.341690E+04 -1.025165E+03 -5.136932E+03
       203   7 -1.039449E+04 -9.309991E+04 -1.330226E+04  6.713978E+03 -5.702260E+02 -1.621155E+04
       203   8  2.857463E+03 -1.119720E+05 -5.645863E+03  1.336753E+04 -1.543679E+03 -1.188449E+04
       203   9  3.296986E+03 -1.346142E+05 -4.010438E+03  2.406282E+04 -1.026240E+03 -7.558110E+03
       203  10 -4.114099E+04 -2.173315E+05 -4.295047E+04  4.013850E+04 -3.328963E-11 -1.886427E-10
       203  11 -1.691445E+04 -1.941913E+05 -2.235466E+04  2.943404E+04  7.789645E-11  4.685957E-11
       203  12 -6.495121E+03 -1.758156E+05 -1.175575E+04  2.277101E+04  6.728913E-11  4.253141E-10
       203  13 -2.576816E+04 -1.552179E+05 -2.812655E+04  2.342707E+04 -1.447998E-10  2.662858E-11
       203  14 -7.028582E+03 -1.530826E+05 -1.400037E+04  2.140105E+04  2.035340E-10  1.879154E-11
       203  15 -1.599064E+03 -1.552151E+05 -7.883140E+03  2.341690E+04  1.116769E-10  2.417172E-11
       203  16 -1.039456E+04 -9.310019E+04 -1.330275E+04  6.713970E+03  1.014893E-10  2.187912E-10
       203  17  2.857423E+03 -1.119722E+05 -5.646133E+03  1.336752E+04 -3.860490E-10 -7.103799E-11
       203  18  3.296969E+03 -1.346143E+05 -4.010547E+03  2.406281E+04 -9.267031E-11 -4.158085E-10
       203  19 -4.114085E+04 -2.173310E+05 -4.294949E+04  4.013851E+04  5.741169E+02  2.281452E+04
       203  20 -1.691440E+04 -1.941912E+05 -2.235435E+04  2.943406E+04  1.544397E+03  1.276515E+04
       203  21 -6.495118E+03 -1.758156E+05 -1.175574E+04  2.277101E+04  1.024096E+03  2.715832E+03
       203  22 -2.576806E+04 -1.552175E+05 -2.812583E+04  2.342708E+04  5.720825E+02  1.951320E+04
       203  23 -7.028538E+03 -1.530825E+05 -1.400008E+04  2.140107E+04  1.544032E+03  1.232484E+04
       203  24 -1.599056E+03 -1.552151E+05 -7.883089E+03  2.341690E+04  1.025165E+03  5.136932E+03
       203  25 -1.039449E+04 -9.309991E+04 -1.330226E+04  6.713978E+03  5.702260E+02  1.621155E+04
       203  26  2.857463E+03 -1.119720E+05 -5.645863E+03  1.336753E+04  1.543679E+03  1.188449E+04
       203  27  3.296986E+03 -1.346142E+05 -4.010438E+03  2.406282E+04  1.026240E+03  7.558110E+03
       204   1 -3.246370E+03 -1.617013E+05 -7.690034E+03  2.418527E+04 -2.335163E+02 -1.734632E+03
       204   2  2.717931E+03 -1.406991E+05 -1.789263E+03  2.156384E+04  9.641181E+02  1.130687E+02
       204   3  7.581091E+03 -1.202166E+05  2.631889E+03  2.307007E+04  2.099088E+03  1.960865E+03
       204   4 -1.476474E+03 -1.543870E+05 -6.152191E+03  2.343702E+04 -2.345590E+02 -4.092224E+03
       204   5 -3.961705E+02 -1.541165E+05 -3.939132E+03  2.137296E+04  9.631370E+02 -2.124254E+03
       204   6 -4.378707E+02 -1.543870E+05 -3.289195E+03  2.343657E+04  2.098170E+03 -1.562451E+02
       204   7  2.934229E+02 -1.470726E+05 -4.614331E+03  2.268876E+04 -2.355959E+02 -6.449843E+03
       204   8 -3.510279E+03 -1.675338E+05 -6.088987E+03  2.118208E+04  9.621572E+02 -4.361529E+03
       204   9 -8.456892E+03 -1.885562E+05 -9.210302E+03  2.380305E+04  2.097250E+03 -2.273243E+03
       204  10 -3.246371E+03 -1.617013E+05 -7.690039E+03  2.418526E+04  1.056540E-10 -3.479277E-10
       204  11  2.717930E+03 -1.406991E+05 -1.789265E+03  2.156384E+04 -7.323819E-11  6.924896E-11
       204  12  7.581085E+03 -1.202166E+05  2.631873E+03  2.307007E+04 -9.581986E-11  4.543973E-10
       204  13 -1.476479E+03 -1.543870E+05 -6.152223E+03  2.343702E+04  4.900179E-11 -2.122136E-12
       204  14 -3.961727E+02 -1.541166E+05 -3.939142E+03  2.137296E+04  5.200914E-11 -2.668034E-11
       204  15 -4.378754E+02 -1.543870E+05 -3.289203E+03  2.343657E+04  3.983354E-11  2.490160E-12
       204  16  2.934116E+02 -1.470727E+05 -4.614409E+03  2.268876E+04  2.941466E-12  3.613700E-10
       204  17 -3.510285E+03 -1.675338E+05 -6.089025E+03  2.118208E+04 -2.055654E-10 -6.494073E-11
       204  18 -8.456898E+03 -1.885563E+05 -9.210320E+03  2.380306E+04 -1.133377E-10 -4.708704E-10
       204  19 -3.246370E+03 -1.617013E+05 -7.690034E+03  2.418527E+04  2.335163E+02  1.734632E+03
       204  20  2.717931E+03 -1.406991E+05 -1.789263E+03  2.156384E+04 -9.641181E+02 -1.130687E+02
       204  21  7.581091E+03 -1.202166E+05  2.631889E+03  2.307007E+04 -2.099088E+03 -1.960865E+03
       204  22 -1.476474E+03 -1.543870E+05 -6.152191E+03  2.343702E+04  2.345590E+02  4.092224E+03
       204  23 -3.961705E+02 -1.541165E+05 -3.939132E+03  2.137296E+04 -9.631370E+02  2.124254E+03
       204  24 -4.378707E+02 -1.543870E+05 -3.289195E+03  2.343657E+04 -2.098170E+03  1.562451E+02
       204  25  2.934229E+02 -1.470726E+05 -4.614331E+03  2.268876E+04  2.355959E+02  6.449843E+03
       204  26 -3.510279E+03 -1.675338E+05 -6.088987E+03  2.118208E+04 -9.621572E+02  4.361529E+03
       204  27 -8.456892E+03 -1.885562E+05 -9.210302E+03  2.380305E+04 -2.097250E+03  2.273243E+03
       205   1  1.068530E+04 -1.070578E+05  4.963762E+03  2.353935E+04  2.841428E+03  2.582152E+03
       205   2  1.426806E+04 -8.602340E+04  8.810003E+03  1.909310E+04  2.948985E+03  8.639028E+02
       205   3  1.474053E+04 -6.554609E+04  1.299665E+04  1.864086E+04  9.681421E+02 -8.536069E+02
       205   4 -4.784466E+02 -1.545455E+05 -3.359611E+03  2.340667E+04  2.840484E+03  3.695102E+02
       205   5 -1.968666E+03 -1.539195E+05 -4.480074E+03  2.141104E+04  2.949773E+03  2.660477E+03
       205   6 -7.265440E+03 -1.545469E+05 -8.044713E+03  2.340947E+04  9.705447E+02  4.952177E+03
       205   7 -1.164232E+04 -2.020311E+05 -1.168305E+04  2.327400E+04  2.839541E+03 -1.842968E+03
       205   8 -1.820564E+04 -2.218112E+05 -1.777036E+04  2.372872E+04  2.950576E+03  4.456860E+03
       205   9 -2.927187E+04 -2.435404E+05 -2.908649E+04  2.817741E+04  9.730367E+02  1.075713E+04
       205  10  1.068529E+04 -1.070578E+05  4.963735E+03  2.353934E+04 -4.359316E-11  8.811773E-11
       205  11  1.426805E+04 -8.602340E+04  8.809985E+03  1.909310E+04 -2.115992E-10  3.360018E-11
       205  12  1.474053E+04 -6.554609E+04  1.299665E+04  1.864086E+04 -4.591484E-11  2.387746E-11
       205  13 -4.784553E+02 -1.545455E+05 -3.359626E+03  2.340667E+04 -2.422483E-10 -2.195067E-11
       205  14 -1.968677E+03 -1.539195E+05 -4.480103E+03  2.141103E+04 -7.747018E-11 -1.682403E-11
       205  15 -7.265447E+03 -1.545470E+05 -8.044761E+03  2.340947E+04  9.174312E-11  4.805710E-12
       205  16 -1.164233E+04 -2.020311E+05 -1.168307E+04  2.327401E+04  9.811949E-11 -1.123988E-10
       205  17 -1.820566E+04 -2.218112E+05 -1.777041E+04  2.372871E+04 -2.054388E-10  4.488523E-12
       205  18 -2.927190E+04 -2.435405E+05 -2.908671E+04  2.817740E+04 -9.238871E-11  2.378154E-11
       205  19  1.068530E+04 -1.070578E+05  4.963762E+03  2.353935E+04 -2.841428E+03 -2.582152E+03
       205  20  1.426806E+04 -8.602340E+04  8.810003E+03  1.909310E+04 -2.948985E+03 -8.639028E+02
       205  21  1.474053E+04 -6.554609E+04  1.299665E+04  1.864086E+04 -9.681421E+02  8.536069E+02
       205  22 -4.784466E+02 -1.545455E+05 -3.359611E+03  2.340667E+04 -2.840484E+03 -3.695102E+02
       205  23 -1.968666E+03 -1.539195E+05 -4.480074E+03  2.141104E+04 -2.949773E+03 -2.660477E+03
       205  24 -7.265440E+03 -1.545469E+05 -8.044713E+03  2.340947E+04 -9.705447E+02 -4.952177E+03
       205  25 -1.164232E+04 -2.020311E+05 -1.168305E+04  2.327400E+04 -2.839541E+03  1.842968E+03
       205  26 -1.820564E+04 -2.218112E+05 -1.777036E+04  2.372872E+04 -2.950576E+03 -4.456860E+03
       205  27 -2.927187E+04 -2.435404E+05 -2.908649E+04  2.817741E+04 -9.730367E+02 -1.075713E+04
       206   1  1.746417E+05  1.755622E+05  6.724983E+04  1.138502E+05  3.064016E+04  2.074049E+04
       206   2  1.683329E+05  1.411819E+05  4.071175E+04  1.180174E+05  2.116701E+04  8.337828E+03
       206   3  1.714004E+05  1.226062E+05  2.859378E+04  1.168835E+05  9.954818E+03 -1.743021E+03
       206   4  1.018584E+05  8.753821E+04  3.722997E+04  6.098124E+04  2.188841E+04  1.417996E+04
       206   5  9.189263E+04  6.986240E+04  1.839285E+04  7.132074E+04  1.687400E+04  5.119809E+03
       206   6  9.033717E+04  6.702470E+04  1.010842E+04  7.635872E+04  1.012028E+04 -1.619149E+03
       206   7  2.908316E+04 -4.730674E+02  7.210376E+03  8.122347E+03  1.313818E+04  7.621531E+03
       206   8  1.546003E+04 -1.449478E+03 -3.926161E+03  2.463211E+04  1.258173E+04  1.902574E+03
       206   9  9.281669E+03  1.144709E+04 -8.377289E+03  3.584002E+04  1.028571E+04 -1.495299E+03
       206  10  1.746405E+05  1.755615E+05  6.724726E+04  1.138497E+05 -2.185838E-08 -1.650331E-08
       206  11  1.683324E+05  1.411817E+05  4.071077E+04  1.180173E+05 -7.436637E-09 -5.558812E-09
       206  12  1.714003E+05  1.226061E+05  2.859358E+04  1.168835E+05  1.615249E-08  1.350796E-08
       206  13  1.018578E+05  8.753787E+04  3.722870E+04  6.098099E+04 -3.120649E-09 -2.537749E-09
       206  14  9.189231E+04  6.986229E+04  1.839227E+04  7.132067E+04 -7.933945E-09 -6.297367E-09
       206  15  9.033706E+04  6.702467E+04  1.010822E+04  7.635873E+04 -3.496509E-09 -2.477449E-09
       206  16  2.908296E+04 -4.731761E+02  7.209943E+03  8.122266E+03  1.556827E-08  1.152661E-08
       206  17  1.545986E+04 -1.449524E+03 -3.926466E+03  2.463209E+04 -7.955931E-09 -6.931738E-09
       206  18  9.281555E+03  1.144705E+04 -8.377492E+03  3.584004E+04 -2.225914E-08 -1.846232E-08
       206  19  1.746417E+05  1.755622E+05  6.724983E+04  1.138502E+05 -3.064016E+04 -2.074049E+04
       206  20  1.683329E+05  1.411819E+05  4.071175E+04  1.180174E+05 -2.116701E+04 -8.337828E+03
       206  21  1.714004E+05  1.226062E+05  2.859378E+04  1.168835E+05 -9.954818E+03  1.743021E+03
       206  22  1.018584E+05  8.753821E+04  3.722997E+04  6.098124E+04 -2.188841E+04 -1.417996E+04
       206  23  9.189263E+04  6.986240E+04  1.839285E+04  7.132074E+04 -1.687400E+04 -5.119809E+03
       206  24  9.033717E+04  6.702470E+04  1.010842E+04  7.635872E+04 -1.012028E+04  1.619149E+03
       206  25  2.908316E+04 -4.730674E+02  7.210376E+03  8.122347E+03 -1.313818E+04 -7.621531E+03
       206  26  1.546003E+04 -1.449478E+03 -3.926161E+03  2.463211E+04 -1.258173E+04 -1.902574E+03
       206  27  9.281669E+03  1.144709E+04 -8.377289E+03  3.584002E+04 -1.028571E+04  1.495299E+03
       207   1  1.645245E+05  1.208080E+05  2.488037E+04  1.147839E+05  8.923085E+03 -2.327422E+03
       207   2  1.585374E+05  1.135931E+05  1.951854E+04  1.116692E+05  6.588914E+03 -3.842317E+03
       207   3  1.517181E+05  1.091582E+05  1.628107E+04  1.087755E+05  4.070280E+03 -5.111162E+03
       207   4  8.951729E+04  6.655929E+04  7.691091E+03  7.590989E+04  8.974832E+03 -2.288789E+03
       207   5  8.963695E+04  6.460219E+04  4.376394E+03  7.626290E+04  7.113509E+03 -3.449247E+03
       207   6  8.882231E+04  6.532244E+04  2.776008E+03  7.683679E+04  5.067725E+03 -4.363634E+03
       207   7  1.451511E+04  1.231321E+04 -9.499039E+03  3.704070E+04  9.026571E+03 -2.250162E+03
       207   8  2.074213E+04  1.561429E+04 -1.076598E+04  4.086120E+04  7.638026E+03 -3.056237E+03
       207   9  2.593247E+04  2.149002E+04 -1.072878E+04  4.490251E+04  6.065016E+03 -3.616220E+03
       207  10  1.645245E+05  1.208079E+05  2.488021E+04  1.147839E+05 -3.161808E-11  1.687200E-09
       207  11  1.585373E+05  1.135931E+05  1.951843E+04  1.116692E+05  2.349553E-11  1.150413E-09
       207  12  1.517181E+05  1.091582E+05  1.628099E+04  1.087755E+05 -9.083285E-11  9.526949E-10
       207  13  8.951721E+04  6.655926E+04  7.690930E+03  7.590991E+04 -8.102827E-11  1.356409E-10
       207  14  8.963690E+04  6.460216E+04  4.376276E+03  7.626292E+04 -3.248484E-10  3.779020E-10
       207  15  8.882228E+04  6.532241E+04  2.775924E+03  7.683681E+04 -4.418242E-10  4.672502E-10
       207  16  1.451502E+04  1.231318E+04 -9.499202E+03  3.704072E+04  2.359672E-11 -1.446302E-09
       207  17  2.074207E+04  1.561427E+04 -1.076611E+04  4.086122E+04 -9.793082E-10 -3.573343E-10
       207  18  2.593243E+04  2.148999E+04 -1.072887E+04  4.490252E+04 -5.971293E-10 -1.102094E-11
       207  19  1.645245E+05  1.208080E+05  2.488037E+04  1.147839E+05 -8.923085E+03  2.327422E+03
       207  20  1.585374E+05  1.135931E+05  1.951854E+04  1.116692E+05 -6.588914E+03  3.842317E+03
       207  21  1.517181E+05  1.091582E+05  1.628107E+04  1.087755E+05 -4.070280E+03  5.111162E+03
       207  22  8.951729E+04  6.655929E+04  7.691091E+03  7.590989E+04 -8.974832E+03  2.288789E+03
       207  23  8.963695E+04  6.460219E+04  4.376394E+03  7.626290E+04 -7.113509E+03  3.449247E+03
       207  24  8.882231E+04  6.532244E+04  2.776008E+03  7.683679E+04 -5.067725E+03  4.363634E+03
       207  25  1.451511E+04  1.231321E+04 -9.499039E+03  3.704070E+04 -9.026571E+03  2.250162E+03
       207  26  2.074213E+04  1.561429E+04 -1.076598E+04  4.086120E+04 -7.638026E+03  3.056237E+03
       207  27  2.593247E+04  2.149002E+04 -1.072878E+04  4.490251E+04 -6.065016E+03  3.616220E+03
       208   1  1.473030E+05  1.063459E+05  1.488989E+04  1.066492E+05  3.493490E+03 -5.059924E+03
       208   2  1.415063E+05  1.008035E+05  1.310412E+04  1.030478E+05  2.247974E+03 -5.170237E+03
       208   3  1.341380E+05  9.716976E+04  1.204990E+04  9.996558E+04  9.811967E+02 -5.252226E+03
       208   4  8.876080E+04  6.529573E+04  2.348021E+03  7.679369E+04  4.478607E+03 -4.321614E+03
       208   5  8.955298E+04  6.434777E+04  2.007889E+03  7.653397E+04  3.287596E+03 -4.391033E+03
       208   6  8.876171E+04  6.529678E+04  2.352071E+03  7.679346E+04  2.075300E+03 -4.432137E+03
       208   7  3.022263E+04  2.424768E+04 -1.019401E+04  4.694146E+04  5.463601E+03 -3.583396E+03
       208   8  3.760234E+04  2.789335E+04 -9.088649E+03  5.002248E+04  4.327113E+03 -3.611907E+03
       208   9  4.338689E+04  3.342441E+04 -7.346178E+03  5.362284E+04  3.169319E+03 -3.612112E+03
       208  10  1.473030E+05  1.063459E+05  1.488982E+04  1.066492E+05  7.617579E-11  9.104310E-10
       208  11  1.415062E+05  1.008034E+05  1.310406E+04  1.030478E+05 -2.420762E-10  4.669241E-10
       208  12  1.341380E+05  9.716973E+04  1.204985E+04  9.996558E+04 -1.525526E-10  2.563274E-10
       208  13  8.876078E+04  6.529570E+04  2.347948E+03  7.679371E+04 -5.289003E-10  3.352362E-10
       208  14  8.955296E+04  6.434775E+04  2.007832E+03  7.653398E+04 -4.063351E-10  2.910933E-10
       208  15  8.876170E+04  6.529676E+04  2.352026E+03  7.679346E+04 -5.416394E-10  1.338451E-10
       208  16  3.022259E+04  2.424766E+04 -1.019409E+04  4.694148E+04 -7.927202E-10 -1.814641E-10
       208  17  3.760231E+04  2.789333E+04 -9.088708E+03  5.002249E+04 -5.150619E-10  1.762593E-11
       208  18  4.338687E+04  3.342439E+04 -7.346221E+03  5.362285E+04 -2.171298E-10  1.038454E-10
       208  19  1.473030E+05  1.063459E+05  1.488989E+04  1.066492E+05 -3.493490E+03  5.059924E+03
       208  20  1.415063E+05  1.008035E+05  1.310412E+04  1.030478E+05 -2.247974E+03  5.170237E+03
       208  21  1.341380E+05  9.716976E+04  1.204990E+04  9.996558E+04 -9.811967E+02  5.252226E+03
       208  22  8.876080E+04  6.529573E+04  2.348021E+03  7.679369E+04 -4.478607E+03  4.321614E+03
       208  23  8.955298E+04  6.434777E+04  2.007889E+03  7.653397E+04 -3.287596E+03  4.391033E+03
       208  24  8.876171E+04  6.529678E+04  2.352071E+03  7.679346E+04 -2.075300E+03  4.432137E+03
       208  25  3.022263E+04  2.424768E+04 -1.019401E+04  4.694146E+04 -5.463601E+03  3.583396E+03
       208  26  3.760234E+04  2.789335E+04 -9.088649E+03  5.002248E+04 -4.327113E+03  3.611907E+03
       208  27  4.338689E+04  3.342441E+04 -7.346178E+03  5.362284E+04 -3.169319E+03  3.612112E+03
       209   1  1.298605E+05  9.443294E+04  1.155662E+04  9.793214E+04  3.776449E+02 -5.187220E+03
       209   2  1.246722E+05  8.855680E+04  1.180324E+04  9.384065E+04 -1.860305E+03 -5.957367E+03
       209   3  1.185393E+05  8.539407E+04  1.381125E+04  8.997543E+04 -4.117120E+03 -6.702247E+03
       209   4  8.881852E+04  6.532897E+04  2.782325E+03  7.683801E+04  1.469280E+03 -4.368962E+03
       209   5  8.964523E+04  6.459864E+04  4.389330E+03  7.625954E+04 -7.201234E+02 -5.102702E+03
       209   6  8.951665E+04  6.657110E+04  7.715598E+03  7.590721E+04 -2.928435E+03 -5.811208E+03
       209   7  4.777946E+04  3.622670E+04 -5.991733E+03  5.574595E+04  2.560796E+03 -3.550793E+03
       209   8  5.462012E+04  4.064147E+04 -3.024491E+03  5.867976E+04  4.199600E+02 -4.248109E+03
       209   9  6.049498E+04  4.774858E+04  1.619926E+03  6.183975E+04 -1.739825E+03 -4.920220E+03
       209  10  1.298605E+05  9.443291E+04  1.155657E+04  9.793214E+04  3.279110E-10  3.661128E-10
       209  11  1.246722E+05  8.855676E+04  1.180316E+04  9.384065E+04  3.417177E-11  1.375736E-10
       209  12  1.185393E+05  8.539401E+04  1.381113E+04  8.997541E+04 -1.143880E-11 -2.563925E-11
       209  13  8.881851E+04  6.532894E+04  2.782285E+03  7.683801E+04 -4.834020E-10  7.838627E-11
       209  14  8.964522E+04  6.459861E+04  4.389280E+03  7.625954E+04 -1.846799E-10 -2.885103E-11
       209  15  8.951663E+04  6.657106E+04  7.715518E+03  7.590720E+04 -9.746570E-11  4.525439E-11
       209  16  4.777945E+04  3.622669E+04 -5.991769E+03  5.574595E+04 -5.400089E-10 -2.125187E-10
       209  17  5.462012E+04  4.064146E+04 -3.024525E+03  5.867976E+04  6.615697E-13 -2.017146E-10
       209  18  6.049497E+04  4.774855E+04  1.619875E+03  6.183974E+04  3.163671E-11  5.715444E-11
       209  19  1.298605E+05  9.443294E+04  1.155662E+04  9.793214E+04 -3.776449E+02  5.187220E+03
       209  20  1.246722E+05  8.855680E+04  1.180324E+04  9.384065E+04  1.860305E+03  5.957367E+03
       209  21  1.185393E+05  8.539407E+04  1.381125E+04  8.997543E+04  4.117120E+03  6.702247E+03
       209  22  8.881852E+04  6.532897E+04  2.782325E+03  7.683801E+04 -1.469280E+03  4.368962E+03
       209  23  8.964523E+04  6.459864E+04  4.389330E+03  7.625954E+04  7.201234E+02  5.102702E+03
       209  24  8.951665E+04  6.657110E+04  7.715598E+03  7.590721E+04  2.928435E+03  5.811208E+03
       209  25  4.777946E+04  3.622670E+04 -5.991733E+03  5.574595E+04 -2.560796E+03  3.550793E+03
       209  26  5.462012E+04  4.064147E+04 -3.024491E+03  5.867976E+04 -4.199600E+02  4.248109E+03
       209  27  6.049498E+04  4.774858E+04  1.619926E+03  6.183975E+04  1.739825E+03  4.920220E+03
       210   1  1.134206E+05  8.472468E+04  1.534722E+04  8.882386E+04 -5.427456E+03 -7.136919E+03
       210   2  1.196046E+05  7.179009E+04  2.250778E+04  7.711311E+04 -1.395975E+04 -1.240831E+04
       210   3  1.340903E+05  7.405530E+04  4.061078E+04  6.014856E+04 -2.265206E+04 -1.746642E+04
       210   4  9.029360E+04  6.708518E+04  1.014131E+04  7.637134E+04 -4.249381E+03 -6.253790E+03
       210   5  9.196863E+04  6.981916E+04  1.845359E+04  7.128404E+04 -1.237223E+04 -1.121863E+04
       210   6  1.018564E+05  8.766407E+04  3.735331E+04  6.094305E+04 -2.065480E+04 -1.597045E+04
       210   7  6.716680E+04  4.944572E+04  4.935212E+03  6.391914E+04 -3.071340E+03 -5.370691E+03
       210   8  6.433376E+04  6.784837E+04  1.439947E+04  6.545505E+04 -1.078481E+04 -1.002895E+04
       210   9  6.962504E+04  1.012737E+05  3.409619E+04  6.173710E+04 -1.865773E+04 -1.447440E+04
       210  10  1.134205E+05  8.472462E+04  1.534707E+04  8.882382E+04  2.404683E-10  2.440884E-10
       210  11  1.196043E+05  7.178987E+04  2.250712E+04  7.711297E+04 -1.870699E-10 -5.032742E-11
       210  12  1.340897E+05  7.405483E+04  4.060924E+04  6.014824E+04 -1.662403E-10 -1.346694E-10
       210  13  9.029357E+04  6.708513E+04  1.014120E+04  7.637132E+04 -1.392628E-10 -3.646053E-11
       210  14  9.196843E+04  6.981898E+04  1.845307E+04  7.128393E+04  4.215219E-11 -1.421122E-10
       210  15  1.018558E+05  8.766369E+04  3.735203E+04  6.094278E+04  5.404757E-11 -2.710671E-13
       210  16  6.716678E+04  4.944569E+04  4.935140E+03  6.391912E+04 -2.746677E-10 -2.289299E-10
       210  17  6.433360E+04  6.784823E+04  1.439906E+04  6.545496E+04 -1.385633E-10 -1.620860E-10
       210  18  6.962461E+04  1.012734E+05  3.409514E+04  6.173688E+04  1.616846E-10  4.339662E-11
       210  19  1.134206E+05  8.472468E+04  1.534722E+04  8.882386E+04  5.427456E+03  7.136919E+03
       210  20  1.196046E+05  7.179009E+04  2.250778E+04  7.711311E+04  1.395975E+04  1.240831E+04
       210  21  1.340903E+05  7.405530E+04  4.061078E+04  6.014856E+04  2.265206E+04  1.746642E+04
       210  22  9.029360E+04  6.708518E+04  1.014131E+04  7.637134E+04  4.249381E+03  6.253790E+03
       210  23  9.196863E+04  6.981916E+04  1.845359E+04  7.128404E+04  1.237223E+04  1.121863E+04
       210  24  1.018564E+05  8.766407E+04  3.735331E+04  6.094305E+04  2.065480E+04  1.597045E+04
       210  25  6.716680E+04  4.944572E+04  4.935212E+03  6.391914E+04  3.071340E+03  5.370691E+03
       210  26  6.433376E+04  6.784837E+04  1.439947E+04  6.545505E+04  1.078481E+04  1.002895E+04
       210  27  6.962504E+04  1.012737E+05  3.409619E+04  6.173710E+04  1.865773E+04  1.447440E+04
       211   1  4.863806E+05  9.941575E+04  9.302231E+04  7.915265E+04  2.402260E+04 -5.387006E+03
       211   2  4.088912E+05  8.518877E+04  6.491706E+04  7.574284E+04  7.249151E+03 -1.716935E+04
       211   3  3.330045E+05  6.854198E+04  4.712313E+04  8.687705E+04 -9.518982E+03 -1.854815E+04
       211   4  3.728954E+04 -1.147923E+04 -1.248780E+04  8.662491E+04 -8.605806E+03 -5.383132E+03
       211   5  3.823453E+04 -3.159309E+03 -6.261958E+03  7.935295E+04 -5.391694E+03 -1.716934E+04
       211   6  3.730783E+04 -7.287333E+02 -3.599796E+03  8.662577E+04 -2.174413E+03 -1.854894E+04
       211   7 -4.116135E+05 -1.223878E+05 -1.180077E+05  9.409172E+04 -4.121076E+04 -5.380043E+03
       211   8 -3.322896E+05 -9.151538E+04 -7.744669E+04  8.296085E+04 -1.802517E+04 -1.716948E+04
       211   9 -2.583028E+05 -7.000409E+04 -5.432546E+04  8.637460E+04  5.166768E+03 -1.854973E+04
       211  10  4.863800E+05  9.941556E+04  9.302118E+04  7.915276E+04  2.850895E-10  9.975108E-12
       211  11  4.088911E+05  8.518844E+04  6.491641E+04  7.574294E+04 -3.524129E-11 -7.204845E-11
       211  12  3.330043E+05  6.854159E+04  4.712232E+04  8.687691E+04 -5.625938E-11 -2.523968E-10
       211  13  3.728945E+04 -1.147928E+04 -1.248800E+04  8.662487E+04 -5.732908E-12 -2.994550E-11
       211  14  3.823442E+04 -3.159633E+03 -6.262567E+03  7.935287E+04 -2.905835E-11 -3.325985E-11
       211  15  3.730774E+04 -7.291040E+02 -3.600451E+03  8.662573E+04  7.433643E-11 -1.392667E-10
       211  16 -4.116154E+05 -1.223883E+05 -1.180110E+05  9.409154E+04 -3.571514E-10 -9.655817E-11
       211  17 -3.322900E+05 -9.151578E+04 -7.744785E+04  8.296060E+04  3.280315E-10 -2.397471E-10
       211  18 -2.583030E+05 -7.000447E+04 -5.432616E+04  8.637468E+04 -9.521363E-12 -7.929021E-11
       211  19  4.863806E+05  9.941575E+04  9.302231E+04  7.915265E+04 -2.402260E+04  5.387006E+03
       211  20  4.088912E+05  8.518877E+04  6.491706E+04  7.574284E+04 -7.249151E+03  1.716935E+04
       211  21  3.330045E+05  6.854198E+04  4.712313E+04  8.687705E+04  9.518982E+03  1.854815E+04
       211  22  3.728954E+04 -1.147923E+04 -1.248780E+04  8.662491E+04  8.605806E+03  5.383132E+03
       211  23  3.823453E+04 -3.159309E+03 -6.261958E+03  7.935295E+04  5.391694E+03  1.716934E+04
       211  24  3.730783E+04 -7.287333E+02 -3.599796E+03  8.662577E+04  2.174413E+03  1.854894E+04
       211  25 -4.116135E+05 -1.223878E+05 -1.180077E+05  9.409172E+04  4.121076E+04  5.380043E+03
       211  26 -3.322896E+05 -9.151538E+04 -7.744669E+04  8.296085E+04  1.802517E+04  1.716948E+04
       211  27 -2.583028E+05 -7.000409E+04 -5.432546E+04  8.637460E+04 -5.166768E+03  1.854973E+04
       212   1  2.840591E+05  5.691853E+04  3.871010E+04  8.642843E+04 -8.524433E+03 -1.600258E+04
       212   2  2.073992E+05  3.927340E+04  2.547926E+04  7.899279E+04 -9.486645E+03 -1.193311E+04
       212   3  1.308548E+05  2.153252E+04  1.285269E+04  8.681354E+04 -1.044911E+04 -6.843207E+03
       212   4  3.767729E+04 -6.644891E+02 -2.870833E+03  8.678375E+04 -1.687783E+03 -1.600298E+04
       212   5  3.779742E+04 -1.376654E+02 -1.999375E+03  7.915539E+04 -6.909103E+02 -1.193301E+04
       212   6  3.768596E+04 -4.676357E+01 -1.884447E+03  8.678373E+04  3.055648E+02 -6.842437E+03
       212   7 -2.086446E+05 -5.825067E+04 -4.445353E+04  8.713891E+04  5.146242E+03 -1.600338E+04
       212   8 -1.317757E+05 -3.955014E+04 -2.947852E+04  7.931795E+04  8.102507E+03 -1.193289E+04
       212   9 -5.547395E+04 -2.162642E+04 -1.662136E+04  8.675393E+04  1.105869E+04 -6.841668E+03
       212  10  2.840590E+05  5.691823E+04  3.870948E+04  8.642832E+04 -1.827941E-10 -2.821880E-10
       212  11  2.073990E+05  3.927322E+04  2.547883E+04  7.899270E+04 -4.605707E-11 -1.685287E-10
       212  12  1.308546E+05  2.153244E+04  1.285240E+04  8.681348E+04 -1.094793E-11 -1.533022E-10
       212  13  3.767722E+04 -6.647649E+02 -2.871320E+03  8.678373E+04  7.115842E-12 -9.916331E-11
       212  14  3.779738E+04 -1.378184E+02 -1.999643E+03  7.915539E+04 -7.657784E-11  8.045599E-11
       212  15  3.768595E+04 -4.681387E+01 -1.884535E+03  8.678373E+04 -5.167893E-10  2.995405E-11
       212  16 -2.086447E+05 -5.825096E+04 -4.445406E+04  8.713898E+04  6.032446E-11  2.036387E-11
       212  17 -1.317758E+05 -3.955031E+04 -2.947891E+04  7.931803E+04  6.707448E-11  6.229921E-11
       212  18 -5.547410E+04 -2.162650E+04 -1.662168E+04  8.675399E+04 -1.813464E-10  9.015173E-11
       212  19  2.840591E+05  5.691853E+04  3.871010E+04  8.642843E+04  8.524433E+03  1.600258E+04
       212  20  2.073992E+05  3.927340E+04  2.547926E+04  7.899279E+04  9.486645E+03  1.193311E+04
       212  21  1.308548E+05  2.153252E+04  1.285269E+04  8.681354E+04  1.044911E+04  6.843207E+03
       212  22  3.767729E+04 -6.644891E+02 -2.870833E+03  8.678375E+04  1.687783E+03  1.600298E+04
       212  23  3.779742E+04 -1.376654E+02 -1.999375E+03  7.915539E+04  6.909103E+02  1.193301E+04
       212  24  3.768596E+04 -4.676357E+01 -1.884447E+03  8.678373E+04 -3.055648E+02  6.842437E+03
       212  25 -2.086446E+05 -5.825067E+04 -4.445353E+04  8.713891E+04 -5.146242E+03  1.600338E+04
       212  26 -1.317757E+05 -3.955014E+04 -2.947852E+04  7.931795E+04 -8.102507E+03  1.193289E+04
       212  27 -5.547395E+04 -2.162642E+04 -1.662136E+04  8.675393E+04 -1.105869E+04  6.841668E+03
       213   1  8.201338E+04  1.016729E+04  4.645747E+03  8.667247E+04 -1.009350E+04 -3.514733E+03
       213   2  5.720179E+03 -7.851500E+03 -8.761526E+03  7.939186E+04 -7.360785E+03  1.745378E+03
       213   3 -7.116431E+04 -2.684629E+04 -2.419150E+04  8.739053E+04 -4.628340E+03  6.339991E+03
       213   4  3.765560E+04 -4.289806E+01 -2.050784E+03  8.678874E+04  6.449723E+02 -3.513825E+03
       213   5  3.784178E+04 -2.578036E+02 -2.913798E+03  7.914915E+04  2.099456E+03  1.746090E+03
       213   6  3.765401E+04 -1.226238E+03 -4.911652E+03  8.678880E+04  3.553968E+03  6.340526E+03
       213   7 -6.699965E+03 -1.025311E+04 -8.746923E+03  8.690500E+04  1.138271E+04 -3.512912E+03
       213   8  6.996457E+04  7.335883E+03  2.934225E+03  7.890642E+04  1.156017E+04  1.746794E+03
       213   9  1.464840E+05  2.439321E+04  1.436800E+04  8.618696E+04  1.173767E+04  6.341045E+03
       213  10  8.201326E+04  1.016725E+04  4.645533E+03  8.667244E+04  7.079523E-11 -7.464811E-11
       213  11  5.720120E+03 -7.851518E+03 -8.761634E+03  7.939188E+04 -9.014377E-11  9.592392E-11
       213  12 -7.116435E+04 -2.684634E+04 -2.419161E+04  8.739055E+04 -1.153772E-10  2.081276E-10
       213  13  3.765559E+04 -4.291143E+01 -2.050808E+03  8.678874E+04 -2.769254E-10  4.836016E-11
       213  14  3.784177E+04 -2.578080E+02 -2.913812E+03  7.914915E+04 -7.285674E-11  1.001562E-10
       213  15  3.765398E+04 -1.226284E+03 -4.911751E+03  8.678878E+04 -1.151325E-10  2.098992E-10
       213  16 -6.700108E+03 -1.025316E+04 -8.747189E+03  8.690503E+04 -2.753529E-10  8.480043E-11
       213  17  6.996443E+04  7.335844E+03  2.933968E+03  7.890640E+04 -3.479198E-10  2.963796E-11
       213  18  1.464839E+05  2.439313E+04  1.436767E+04  8.618690E+04  2.231067E-10  1.285152E-10
       213  19  8.201338E+04  1.016729E+04  4.645747E+03  8.667247E+04  1.009350E+04  3.514733E+03
       213  20  5.720179E+03 -7.851500E+03 -8.761526E+03  7.939186E+04  7.360785E+03 -1.745378E+03
       213  21 -7.116431E+04 -2.684629E+04 -2.419150E+04  8.739053E+04  4.628340E+03 -6.339991E+03
       213  22  3.765560E+04 -4.289806E+01 -2.050784E+03  8.678874E+04 -6.449723E+02  3.513825E+03
       213  23  3.784178E+04 -2.578036E+02 -2.913798E+03  7.914915E+04 -2.099456E+03 -1.746090E+03
       213  24  3.765401E+04 -1.226238E+03 -4.911652E+03  8.678880E+04 -3.553968E+03 -6.340526E+03
       213  25 -6.699965E+03 -1.025311E+04 -8.746923E+03  8.690500E+04 -1.138271E+04  3.512912E+03
       213  26  6.996457E+04  7.335883E+03  2.934225E+03  7.890642E+04 -1.156017E+04 -1.746794E+03
       213  27  1.464840E+05  2.439321E+04  1.436800E+04  8.618696E+04 -1.173767E+04 -6.341045E+03
       214   1 -1.209882E+05 -3.852982E+04 -3.443842E+04  8.614659E+04 -4.145790E+03  9.158469E+03
       214   2 -1.946355E+05 -6.171950E+04 -5.749396E+04  8.596305E+04  1.594090E+04  9.920572E+03
       214   3 -2.742566E+05 -9.839806E+04 -9.699952E+04  1.005563E+05  3.602359E+04  3.309108E+03
       214   4  3.695247E+04 -1.332145E+03 -6.399427E+03  8.667748E+04  4.393356E+03  9.158808E+03
       214   5  3.870670E+04 -5.858172E+03 -1.155241E+04  7.928865E+04  1.032764E+04  9.919980E+03
       214   6  3.694113E+04 -2.141270E+04 -2.332441E+04  8.667721E+04  1.626058E+04  3.308395E+03
       214   7  1.949177E+05  3.586420E+04  2.163891E+04  8.720851E+04  1.293461E+04  9.159162E+03
       214   8  2.721012E+05  5.000005E+04  3.438664E+04  7.261170E+04  4.712308E+03  9.919509E+03
       214   9  3.482292E+05  5.556663E+04  5.034554E+04  7.279112E+04 -3.512277E+03  3.308566E+03
       214  10 -1.209883E+05 -3.852992E+04 -3.443861E+04  8.614662E+04  1.895939E-10  2.468790E-10
       214  11 -1.946358E+05 -6.171968E+04 -5.749462E+04  8.596292E+04 -7.433744E-11 -4.695441E-13
       214  12 -2.742580E+05 -9.839842E+04 -9.700198E+04  1.005562E+05 -1.737400E-10 -5.074195E-11
       214  13  3.695243E+04 -1.332240E+03 -6.399620E+03  8.667745E+04  1.325424E-10  1.919208E-10
       214  14  3.870656E+04 -5.858306E+03 -1.155279E+04  7.928857E+04 -2.174333E-10  8.771683E-11
       214  15  3.694084E+04 -2.141279E+04 -2.332493E+04  8.667717E+04 -6.686043E-11  2.453455E-11
       214  16  1.949175E+05  3.586406E+04  2.163844E+04  8.720841E+04 -4.432056E-11  5.178681E-11
       214  17  2.721011E+05  4.999993E+04  3.438641E+04  7.261166E+04 -3.352511E-11 -2.660600E-11
       214  18  3.482291E+05  5.556662E+04  5.034550E+04  7.279113E+04 -4.425739E-11  3.584752E-11
       214  19 -1.209882E+05 -3.852982E+04 -3.443842E+04  8.614659E+04  4.145790E+03 -9.158469E+03
       214  20 -1.946355E+05 -6.171950E+04 -5.749396E+04  8.596305E+04 -1.594090E+04 -9.920572E+03
       214  21 -2.742566E+05 -9.839806E+04 -9.699952E+04  1.005563E+05 -3.602359E+04 -3.309108E+03
       214  22  3.695247E+04 -1.332145E+03 -6.399427E+03  8.667748E+04 -4.393356E+03 -9.158808E+03
       214  23  3.870670E+04 -5.858172E+03 -1.155241E+04  7.928865E+04 -1.032764E+04 -9.919980E+03
       214  24  3.694113E+04 -2.141270E+04 -2.332441E+04  8.667721E+04 -1.626058E+04 -3.308395E+03
       214  25  1.949177E+05  3.586420E+04  2.163891E+04  8.720851E+04 -1.293461E+04 -9.159162E+03
       214  26  2.721012E+05  5.000005E+04  3.438664E+04  7.261170E+04 -4.712308E+03 -9.919509E+03
       214  27  3.482292E+05  5.556663E+04  5.034554E+04  7.279112E+04  3.512277E+03 -3.308566E+03
       215   1 -9.565810E+04 -3.284432E+05 -9.640080E+04  1.096334E+05 -2.405949E+03 -3.946317E+04
       215   2 -5.049233E+04 -2.469454E+05 -5.291539E+04  9.079062E+04 -6.733892E+03 -1.859136E+04
       215   3 -2.465304E+04 -1.730012E+05 -2.785653E+04  8.704301E+04 -5.070583E+03  2.281962E+03
       215   4 -3.352623E+04 -7.750017E+04 -3.663824E+04  8.791732E+04 -2.398414E+03 -2.539299E+04
       215   5 -9.119061E+03 -7.471474E+04 -1.825752E+04  8.036260E+04 -6.732261E+03 -1.601732E+04
       215   6 -2.038741E+03 -7.749019E+04 -1.031456E+04  8.790443E+04 -5.074862E+03 -6.643073E+03
       215   7  2.860298E+04  1.735021E+05  2.312091E+04  6.619240E+04 -2.391867E+03 -1.131715E+04
       215   8  3.225279E+04  9.754451E+04  1.639891E+04  6.993162E+04 -6.730717E+03 -1.344258E+04
       215   9  2.057509E+04  1.802990E+04  7.227335E+03  8.876598E+04 -5.079165E+03 -1.556944E+04
       215  10 -9.565853E+04 -3.284449E+05 -9.640374E+04  1.096333E+05 -2.854991E-10 -1.603520E-10
       215  11 -5.049247E+04 -2.469458E+05 -5.291612E+04  9.079052E+04  2.438230E-10  7.648526E-11
       215  12 -2.465307E+04 -1.730013E+05 -2.785659E+04  8.704302E+04  4.494635E-11  2.750702E-10
       215  13 -3.352641E+04 -7.750087E+04 -3.663946E+04  8.791727E+04 -3.908603E-10  1.012950E-11
       215  14 -9.119179E+03 -7.471503E+04 -1.825809E+04  8.036251E+04  4.071383E-11  7.385966E-11
       215  15 -2.038781E+03 -7.749024E+04 -1.031469E+04  8.790440E+04 -1.075058E-10  7.979336E-11
       215  16  2.860294E+04  1.735020E+05  2.312066E+04  6.619238E+04  1.868181E-10  1.432069E-10
       215  17  3.225269E+04  9.754430E+04  1.639848E+04  6.993155E+04 -3.865569E-10 -5.234788E-11
       215  18  2.057499E+04  1.802964E+04  7.226832E+03  8.876592E+04  8.802934E-11 -2.551498E-10
       215  19 -9.565810E+04 -3.284432E+05 -9.640080E+04  1.096334E+05  2.405949E+03  3.946317E+04
       215  20 -5.049233E+04 -2.469454E+05 -5.291539E+04  9.079062E+04  6.733892E+03  1.859136E+04
       215  21 -2.465304E+04 -1.730012E+05 -2.785653E+04  8.704301E+04  5.070583E+03 -2.281962E+03
       215  22 -3.352623E+04 -7.750017E+04 -3.663824E+04  8.791732E+04  2.398414E+03  2.539299E+04
       215  23 -9.119061E+03 -7.471474E+04 -1.825752E+04  8.036260E+04  6.732261E+03  1.601732E+04
       215  24 -2.038741E+03 -7.749019E+04 -1.031456E+04  8.790443E+04  5.074862E+03  6.643073E+03
       215  25  2.860298E+04  1.735021E+05  2.312091E+04  6.619240E+04  2.391867E+03  1.131715E+04
       215  26  3.225279E+04  9.754451E+04  1.639891E+04  6.993162E+04  6.730717E+03  1.344258E+04
       215  27  2.057509E+04  1.802990E+04  7.227335E+03  8.876598E+04  5.079165E+03  1.556944E+04
       216   1 -1.277339E+04 -1.221451E+05 -1.683001E+04  8.895573E+04 -2.143713E+03  3.391502E+03
       216   2  6.923246E+03 -4.412468E+04 -1.344449E+02  8.049983E+04  2.296574E+03  5.727202E+03
       216   3  2.518085E+04  3.322570E+04  1.467660E+04  8.750161E+04  6.587738E+03  8.063322E+03
       216   4 -1.876895E+03 -7.641445E+04 -8.077874E+03  8.798586E+04 -2.147986E+03 -5.273936E+03
       216   5 -4.860581E+02 -7.605246E+04 -5.249782E+03  8.025666E+04  2.292539E+03 -2.652306E+03
       216   6 -5.836100E+02 -7.641602E+04 -4.504685E+03  8.798528E+04  6.583933E+03 -3.052777E+01
       216   7  9.019521E+03 -3.068157E+04  6.744529E+02  8.701591E+04 -2.152231E+03 -1.394000E+04
       216   8 -7.895376E+03 -1.079791E+05 -1.036488E+04  8.001350E+04  2.288511E+03 -1.103140E+04
       216   9 -2.634868E+04 -1.860458E+05 -2.368615E+04  8.846887E+04  6.580115E+03 -8.122992E+03
       216  10 -1.277340E+04 -1.221452E+05 -1.683004E+04  8.895574E+04  1.514427E-10 -5.326536E-10
       216  11  6.923232E+03 -4.412471E+04 -1.345164E+02  8.049982E+04 -1.570150E-10 -3.462794E-11
       216  12  2.518078E+04  3.322562E+04  1.467639E+04  8.750156E+04 -2.636298E-11  4.335103E-10
       216  13 -1.876908E+03 -7.641448E+04 -8.077934E+03  8.798585E+04  6.012919E-11  6.681672E-11
       216  14 -4.860657E+02 -7.605247E+04 -5.249805E+03  8.025666E+04 -1.304224E-10 -1.437692E-12
       216  15 -5.836565E+02 -7.641603E+04 -4.504767E+03  8.798528E+04  5.203582E-11  7.764291E-11
       216  16  9.019464E+03 -3.068178E+04  6.740790E+02  8.701589E+04  2.855098E-10  5.012834E-10
       216  17 -7.895414E+03 -1.079792E+05 -1.036512E+04  8.001352E+04  1.471237E-10 -5.618951E-12
       216  18 -2.634875E+04 -1.860459E+05 -2.368636E+04  8.846891E+04 -1.820591E-10 -4.349647E-10
       216  19 -1.277339E+04 -1.221451E+05 -1.683001E+04  8.895573E+04  2.143713E+03 -3.391502E+03
       216  20  6.923246E+03 -4.412468E+04 -1.344449E+02  8.049983E+04 -2.296574E+03 -5.727202E+03
       216  21  2.518085E+04  3.322570E+04  1.467660E+04  8.750161E+04 -6.587738E+03 -8.063322E+03
       216  22 -1.876895E+03 -7.641445E+04 -8.077874E+03  8.798586E+04  2.147986E+03  5.273936E+03
       216  23 -4.860581E+02 -7.605246E+04 -5.249782E+03  8.025666E+04 -2.292539E+03  2.652306E+03
       216  24 -5.836100E+02 -7.641602E+04 -4.504685E+03  8.798528E+04 -6.583933E+03  3.052777E+01
       216  25  9.019521E+03 -3.068157E+04  6.744529E+02  8.701591E+04  2.152231E+03  1.394000E+04
       216  26 -7.895376E+03 -1.079791E+05 -1.036488E+04  8.001350E+04 -2.288511E+03  1.103140E+04
       216  27 -2.634868E+04 -1.860458E+05 -2.368615E+04  8.846887E+04 -6.580115E+03  8.122992E+03
       217   1  3.688250E+04  8.284783E+04  2.346269E+04  8.810987E+04  9.399882E+03  9.120922E+03
       217   2  5.366670E+04  1.602496E+05  4.002439E+04  7.709841E+04  1.007858E+04 -1.849254E+03
       217   3  6.745758E+04  2.383311E+05  6.297701E+04  8.107332E+04  3.345496E+03 -1.281900E+04
       217   4 -6.445126E+02 -7.665643E+04 -4.668805E+03  8.788042E+04  9.396122E+03  6.908702E+02
       217   5 -2.810341E+03 -7.576450E+04 -6.376239E+03  8.038881E+04  1.008136E+04  3.954012E+03
       217   6 -1.044062E+04 -7.666879E+04 -1.157634E+04  8.788424E+04  3.353394E+03  7.218760E+03
       217   7 -3.817288E+04 -2.361357E+05 -3.280097E+04  8.765104E+04  9.392369E+03 -7.737079E+03
       217   8 -5.929069E+04 -3.117252E+05 -5.277944E+04  8.367792E+04  1.008421E+04  9.755119E+03
       217   9 -8.834555E+04 -3.915766E+05 -8.613504E+04  9.469168E+04  3.361735E+03  2.724641E+04
       217  10  3.688238E+04  8.284772E+04  2.346237E+04  8.810980E+04  2.277097E-10 -3.117747E-10
       217  11  5.366659E+04  1.602496E+05  4.002419E+04  7.709843E+04 -2.995486E-10 -1.002803E-10
       217  12  6.745752E+04  2.383309E+05  6.297668E+04  8.107335E+04 -1.245119E-10  1.206069E-10
       217  13 -6.446075E+02 -7.665646E+04 -4.668972E+03  8.788042E+04 -1.192674E-10  5.361393E-11
       217  14 -2.810455E+03 -7.576455E+04 -6.376459E+03  8.038878E+04  9.123426E-11  7.292101E-11
       217  15 -1.044065E+04 -7.666885E+04 -1.157646E+04  8.788422E+04 -1.247910E-10  2.016973E-11
       217  16 -3.817299E+04 -2.361358E+05 -3.280124E+04  8.765110E+04  1.588474E-10  2.532791E-10
       217  17 -5.929082E+04 -3.117253E+05 -5.277981E+04  8.367784E+04  4.301558E-11  1.468946E-10
       217  18 -8.834576E+04 -3.915774E+05 -8.613645E+04  9.469161E+04 -1.049752E-10 -7.525220E-11
       217  19  3.688250E+04  8.284783E+04  2.346269E+04  8.810987E+04 -9.399882E+03 -9.120922E+03
       217  20  5.366670E+04  1.602496E+05  4.002439E+04  7.709841E+04 -1.007858E+04  1.849254E+03
       217  21  6.745758E+04  2.383311E+05  6.297701E+04  8.107332E+04 -3.345496E+03  1.281900E+04
       217  22 -6.445126E+02 -7.665643E+04 -4.668805E+03  8.788042E+04 -9.396122E+03 -6.908702E+02
       217  23 -2.810341E+03 -7.576450E+04 -6.376239E+03  8.038881E+04 -1.008136E+04 -3.954012E+03
       217  24 -1.044062E+04 -7.666879E+04 -1.157634E+04  8.788424E+04 -3.353394E+03 -7.218760E+03
       217  25 -3.817288E+04 -2.361357E+05 -3.280097E+04  8.765104E+04 -9.392369E+03  7.737079E+03
       217  26 -5.929069E+04 -3.117252E+05 -5.277944E+04  8.367792E+04 -1.008421E+04 -9.755119E+03
       217  27 -8.834555E+04 -3.915766E+05 -8.613504E+04  9.469168E+04 -3.361735E+03 -2.724641E+04
       218   1  3.041185E+05  2.756358E+05  8.698190E+04  2.101070E+05  4.122938E+04  2.862404E+04
       218   2  2.969012E+05  2.263461E+05  5.058091E+04  2.172910E+05  2.785380E+04  1.318543E+04
       218   3  3.037356E+05  1.998145E+05  3.401268E+04  2.164079E+05  1.266369E+04  1.686267E+02
       218   4  2.381129E+05  1.743305E+05  5.572619E+04  1.522631E+05  3.224743E+04  2.188778E+04
       218   5  2.229676E+05  1.481069E+05  2.754732E+04  1.678063E+05  2.352337E+04  9.938102E+03
       218   6  2.208669E+05  1.436340E+05  1.516730E+04  1.752819E+05  1.298472E+04  4.091609E+02
       218   7  1.721136E+05  7.304085E+04  2.447031E+04  9.442897E+04  2.326668E+04  1.515392E+04
       218   8  1.490398E+05  6.987552E+04  4.512994E+03  1.183293E+05  1.919357E+04  6.691587E+03
       218   9  1.380046E+05  8.745616E+04 -3.679061E+03  1.341614E+05  1.330569E+04  6.496592E+02
       218  10  3.041165E+05  2.756344E+05  8.697717E+04  2.101060E+05  1.146525E-10  1.632528E-10
       218  11  2.969004E+05  2.263457E+05  5.057912E+04  2.172907E+05 -9.961971E-11 -5.230792E-11
       218  12  3.037354E+05  1.998144E+05  3.401238E+04  2.164079E+05 -1.403659E-10 -3.093055E-10
       218  13  2.381116E+05  1.743297E+05  5.572334E+04  1.522625E+05  4.358644E-10 -6.946127E-11
       218  14  2.229670E+05  1.481067E+05  2.754610E+04  1.678061E+05  2.866078E-10 -3.403397E-11
       218  15  2.208668E+05  1.436339E+05  1.516699E+04  1.752819E+05  1.410277E-11 -9.229580E-12
       218  16  1.721130E+05  7.304046E+04  2.446886E+04  9.442869E+04 -1.568227E-10 -2.382472E-10
       218  17  1.490394E+05  6.987537E+04  4.512218E+03  1.183291E+05  2.437800E-10  4.340004E-11
       218  18  1.380044E+05  8.745612E+04 -3.679394E+03  1.341614E+05  2.203837E-10  2.924093E-10
       218  19  3.041185E+05  2.756358E+05  8.698190E+04  2.101070E+05 -4.122938E+04 -2.862404E+04
       218  20  2.969012E+05  2.263461E+05  5.058091E+04  2.172910E+05 -2.785380E+04 -1.318543E+04
       218  21  3.037356E+05  1.998145E+05  3.401268E+04  2.164079E+05 -1.266369E+04 -1.686267E+02
       218  22  2.381129E+05  1.743305E+05  5.572619E+04  1.522631E+05 -3.224743E+04 -2.188778E+04
       218  23  2.229676E+05  1.481069E+05  2.754732E+04  1.678063E+05 -2.352337E+04 -9.938102E+03
       218  24  2.208669E+05  1.436340E+05  1.516730E+04  1.752819E+05 -1.298472E+04 -4.091609E+02
       218  25  1.721136E+05  7.304085E+04  2.447031E+04  9.442897E+04 -2.326668E+04 -1.515392E+04
       218  26  1.490398E+05  6.987552E+04  4.512994E+03  1.183293E+05 -1.919357E+04 -6.691587E+03
       218  27  1.380046E+05  8.745616E+04 -3.679061E+03  1.341614E+05 -1.330569E+04 -6.496592E+02
       219   1  2.948591E+05  1.980945E+05  2.893080E+04  2.139488E+05  1.106883E+04 -7.595844E+02
       219   2  2.877431E+05  1.890807E+05  2.168596E+04  2.104125E+05  7.747845E+03 -2.884116E+03
       219   3  2.798839E+05  1.836387E+05  1.746273E+04  2.070491E+05  4.234872E+03 -4.752330E+03
       219   4  2.196584E+05  1.429160E+05  1.156193E+04  1.746042E+05  1.127112E+04 -6.081006E+02
       219   5  2.195632E+05  1.402571E+05  6.640469E+03  1.752132E+05  8.442765E+03 -2.363263E+03
       219   6  2.186180E+05  1.410633E+05  4.313571E+03  1.759950E+05  5.422327E+03 -3.862166E+03
       219   7  1.444658E+05  8.774253E+04 -5.806702E+03  1.352662E+05  1.147336E+04 -4.566458E+02
       219   8  1.513896E+05  9.143711E+04 -8.404983E+03  1.400188E+05  9.137576E+03 -1.842494E+03
       219   9  1.573566E+05  9.849019E+04 -8.835732E+03  1.449445E+05  6.609626E+03 -2.972117E+03
       219  10  2.948590E+05  1.980944E+05  2.893057E+04  2.139488E+05  4.560900E-10  1.536920E-10
       219  11  2.877430E+05  1.890807E+05  2.168583E+04  2.104125E+05  3.985836E-10 -1.885220E-10
       219  12  2.798838E+05  1.836386E+05  1.746265E+04  2.070492E+05 -8.613296E-11 -2.372019E-10
       219  13  2.196582E+05  1.429159E+05  1.156169E+04  1.746043E+05 -1.840419E-12 -3.540286E-11
       219  14  2.195632E+05  1.402571E+05  6.640324E+03  1.752132E+05 -4.450792E-10 -1.434406E-10
       219  15  2.186179E+05  1.410632E+05  4.313487E+03  1.759950E+05  7.909480E-15  1.696093E-11
       219  16  1.444657E+05  8.774249E+04 -5.806949E+03  1.352662E+05 -5.095421E-10 -6.653450E-11
       219  17  1.513895E+05  9.143709E+04 -8.405146E+03  1.400189E+05 -1.858358E-10 -1.520121E-10
       219  18  1.573565E+05  9.849017E+04 -8.835830E+03  1.449445E+05  3.576545E-10  2.036653E-10
       219  19  2.948591E+05  1.980945E+05  2.893080E+04  2.139488E+05 -1.106883E+04  7.595844E+02
       219  20  2.877431E+05  1.890807E+05  2.168596E+04  2.104125E+05 -7.747845E+03  2.884116E+03
       219  21  2.798839E+05  1.836387E+05  1.746273E+04  2.070491E+05 -4.234872E+03  4.752330E+03
       219  22  2.196584E+05  1.429160E+05  1.156193E+04  1.746042E+05 -1.127112E+04  6.081006E+02
       219  23  2.195632E+05  1.402571E+05  6.640469E+03  1.752132E+05 -8.442765E+03  2.363263E+03
       219  24  2.186180E+05  1.410633E+05  4.313571E+03  1.759950E+05 -5.422327E+03  3.862166E+03
       219  25  1.444658E+05  8.774253E+04 -5.806702E+03  1.352662E+05 -1.147336E+04  4.566458E+02
       219  26  1.513896E+05  9.143711E+04 -8.404983E+03  1.400188E+05 -9.137576E+03  1.842494E+03
       219  27  1.573566E+05  9.849019E+04 -8.835732E+03  1.449445E+05 -6.609626E+03  2.972117E+03
       220   1  2.746101E+05  1.803718E+05  1.574243E+04  2.045483E+05  3.411266E+03 -4.795655E+03
       220   2  2.677381E+05  1.738212E+05  1.369226E+04  2.002981E+05  1.556452E+03 -5.210610E+03
       220   3  2.590903E+05  1.695926E+05  1.283392E+04  1.966638E+05 -3.180952E+02 -5.599315E+03
       220   4  2.185307E+05  1.410214E+05  3.723593E+03  1.759330E+05  4.585850E+03 -3.915110E+03
       220   5  2.194289E+05  1.398746E+05  3.370354E+03  1.756184E+05  2.781602E+03 -4.292107E+03
       220   6  2.185404E+05  1.410390E+05  4.165195E+03  1.759196E+05  9.576317E+02 -4.642854E+03
       220   7  1.624539E+05  1.016721E+05 -8.295767E+03  1.473202E+05  5.760315E+03 -3.034653E+03
       220   8  1.711224E+05  1.059295E+05 -6.951642E+03  1.509409E+05  4.006626E+03 -3.373698E+03
       220   9  1.779934E+05  1.124870E+05 -4.503301E+03  1.551774E+05  2.233222E+03 -3.686495E+03
       220  10  2.746100E+05  1.803718E+05  1.574236E+04  2.045483E+05 -4.242849E-11  5.059429E-11
       220  11  2.677381E+05  1.738211E+05  1.369220E+04  2.002981E+05 -1.163864E-10 -8.145483E-11
       220  12  2.590903E+05  1.695926E+05  1.283386E+04  1.966638E+05 -5.501896E-10 -8.837053E-11
       220  13  2.185306E+05  1.410214E+05  3.723525E+03  1.759331E+05 -1.956556E-10 -2.003058E-11
       220  14  2.194289E+05  1.398746E+05  3.370305E+03  1.756184E+05 -2.401634E-10 -7.346400E-11
       220  15  2.185404E+05  1.410390E+05  4.165153E+03  1.759196E+05 -4.390617E-10  5.473228E-11
       220  16  1.624538E+05  1.016721E+05 -8.295847E+03  1.473202E+05 -2.348864E-10 -1.523223E-10
       220  17  1.711224E+05  1.059295E+05 -6.951694E+03  1.509409E+05 -9.285421E-11  3.000703E-11
       220  18  1.779934E+05  1.124870E+05 -4.503336E+03  1.551774E+05  3.585037E-10  1.960422E-10
       220  19  2.746101E+05  1.803718E+05  1.574243E+04  2.045483E+05 -3.411266E+03  4.795655E+03
       220  20  2.677381E+05  1.738212E+05  1.369226E+04  2.002981E+05 -1.556452E+03  5.210610E+03
       220  21  2.590903E+05  1.695926E+05  1.283392E+04  1.966638E+05  3.180952E+02  5.599315E+03
       220  22  2.185307E+05  1.410214E+05  3.723593E+03  1.759330E+05 -4.585850E+03  3.915110E+03
       220  23  2.194289E+05  1.398746E+05  3.370354E+03  1.756184E+05 -2.781602E+03  4.292107E+03
       220  24  2.185404E+05  1.410390E+05  4.165195E+03  1.759196E+05 -9.576317E+02  4.642854E+03
       220  25  1.624539E+05  1.016721E+05 -8.295767E+03  1.473202E+05 -5.760315E+03  3.034653E+03
       220  26  1.711224E+05  1.059295E+05 -6.951642E+03  1.509409E+05 -4.006626E+03  3.373698E+03
       220  27  1.779934E+05  1.124870E+05 -4.503301E+03  1.551774E+05 -2.233222E+03  3.686495E+03
       221   1  2.539864E+05  1.664900E+05  1.259128E+04  1.943303E+05 -1.246324E+03 -5.689864E+03
       221   2  2.482214E+05  1.592872E+05  1.401051E+04  1.891877E+05 -4.960365E+03 -7.441319E+03
       221   3  2.418666E+05  1.559129E+05  1.859035E+04  1.841144E+05 -8.671418E+03 -9.196742E+03
       221   4  2.186511E+05  1.410993E+05  5.016141E+03  1.760064E+05  2.814458E+01 -4.734326E+03
       221   5  2.195932E+05  1.403371E+05  8.071774E+03  1.751071E+05 -3.693353E+03 -6.491360E+03
       221   6  2.199469E+05  1.434049E+05  1.429454E+04  1.742771E+05 -7.411940E+03 -8.252432E+03
       221   7  1.833173E+05  1.157095E+05 -2.559049E+03  1.576838E+05  1.302518E+03 -3.778862E+03
       221   8  1.909656E+05  1.213872E+05  2.132910E+03  1.610271E+05 -2.426405E+03 -5.541444E+03
       221   9  1.980274E+05  1.308969E+05  9.998578E+03  1.644399E+05 -6.152495E+03 -7.308135E+03
       221  10  2.539864E+05  1.664899E+05  1.259121E+04  1.943303E+05 -2.080656E-10  2.088157E-10
       221  11  2.482214E+05  1.592871E+05  1.401036E+04  1.891876E+05 -1.658884E-10 -7.161210E-12
       221  12  2.418665E+05  1.559128E+05  1.859005E+04  1.841143E+05 -2.594418E-10 -8.074994E-11
       221  13  2.186511E+05  1.410993E+05  5.016099E+03  1.760064E+05 -1.535064E-10  6.118772E-11
       221  14  2.195931E+05  1.403370E+05  8.071669E+03  1.751071E+05  3.355429E-10 -9.810344E-13
       221  15  2.199469E+05  1.434048E+05  1.429431E+04  1.742770E+05  4.578635E-11 -9.041221E-11
       221  16  1.833173E+05  1.157094E+05 -2.559079E+03  1.576838E+05 -1.338728E-10 -9.341223E-11
       221  17  1.909656E+05  1.213871E+05  2.132842E+03  1.610271E+05 -2.223622E-10 -2.815786E-11
       221  18  1.980273E+05  1.308968E+05  9.998406E+03  1.644399E+05  1.678150E-10  1.724144E-11
       221  19  2.539864E+05  1.664900E+05  1.259128E+04  1.943303E+05  1.246324E+03  5.689864E+03
       221  20  2.482214E+05  1.592872E+05  1.401051E+04  1.891877E+05  4.960365E+03  7.441319E+03
       221  21  2.418666E+05  1.559129E+05  1.859035E+04  1.841144E+05  8.671418E+03  9.196742E+03
       221  22  2.186511E+05  1.410993E+05  5.016141E+03  1.760064E+05 -2.814458E+01  4.734326E+03
       221  23  2.195932E+05  1.403371E+05  8.071774E+03  1.751071E+05  3.693353E+03  6.491360E+03
       221  24  2.199469E+05  1.434049E+05  1.429454E+04  1.742771E+05  7.411940E+03  8.252432E+03
       221  25  1.833173E+05  1.157095E+05 -2.559049E+03  1.576838E+05 -1.302518E+03  3.778862E+03
       221  26  1.909656E+05  1.213872E+05  2.132910E+03  1.610271E+05  2.426405E+03  5.541444E+03
       221  27  1.980274E+05  1.308969E+05  9.998578E+03  1.644399E+05  6.152495E+03  7.308135E+03
       222   1  2.351765E+05  1.566309E+05  2.201562E+04  1.834128E+05 -1.092353E+04 -1.028493E+04
       222   2  2.505560E+05  1.363057E+05  3.579841E+04  1.641861E+05 -2.536291E+04 -2.013289E+04
       222   3  2.824060E+05  1.428116E+05  6.915084E+04  1.348333E+05 -3.975544E+04 -3.004231E+04
       222   4  2.213997E+05  1.443525E+05  1.881710E+04  1.751377E+05 -9.661215E+03 -9.338388E+03
       222   5  2.238994E+05  1.500464E+05  3.428833E+04  1.658599E+05 -2.422043E+04 -1.927755E+04
       222   6  2.428944E+05  1.825953E+05  6.943332E+04  1.464559E+05 -3.873243E+04 -2.927939E+04
       222   7  2.076234E+05  1.320746E+05  1.561869E+04  1.668630E+05 -8.398961E+03 -8.391905E+03
       222   8  1.972446E+05  1.637880E+05  3.277851E+04  1.675333E+05 -2.307804E+04 -1.842216E+04
       222   9  2.033876E+05  2.223844E+05  6.971672E+04  1.580772E+05 -3.770952E+04 -2.851634E+04
       222  10  2.351764E+05  1.566307E+05  2.201520E+04  1.834127E+05 -9.504704E-11 -6.873605E-11
       222  11  2.505552E+05  1.363051E+05  3.579644E+04  1.641857E+05  4.422558E-11 -1.177435E-10
       222  12  2.824040E+05  1.428102E+05  6.914617E+04  1.348324E+05  5.072966E-12 -1.613406E-10
       222  13  2.213996E+05  1.443524E+05  1.881676E+04  1.751376E+05 -1.022247E-10 -3.886472E-11
       222  14  2.238987E+05  1.500459E+05  3.428653E+04  1.658595E+05 -4.721056E-10 -1.775071E-10
       222  15  2.428926E+05  1.825940E+05  6.942889E+04  1.464550E+05  2.019882E-10  2.242681E-11
       222  16  2.076233E+05  1.320745E+05  1.561842E+04  1.668629E+05  4.043313E-11 -4.347513E-11
       222  17  1.972440E+05  1.637875E+05  3.277687E+04  1.675330E+05  2.640693E-10  1.195488E-12
       222  18  2.033858E+05  2.223832E+05  6.971252E+04  1.580763E+05  6.982257E-11  1.188336E-10
       222  19  2.351765E+05  1.566309E+05  2.201562E+04  1.834128E+05  1.092353E+04  1.028493E+04
       222  20  2.505560E+05  1.363057E+05  3.579841E+04  1.641861E+05  2.536291E+04  2.013289E+04
       222  21  2.824060E+05  1.428116E+05  6.915084E+04  1.348333E+05  3.975544E+04  3.004231E+04
       222  22  2.213997E+05  1.443525E+05  1.881710E+04  1.751377E+05  9.661215E+03  9.338388E+03
       222  23  2.238994E+05  1.500464E+05  3.428833E+04  1.658599E+05  2.422043E+04  1.927755E+04
       222  24  2.428944E+05  1.825953E+05  6.943332E+04  1.464559E+05  3.873243E+04  2.927939E+04
       222  25  2.076234E+05  1.320746E+05  1.561869E+04  1.668630E+05  8.398961E+03  8.391905E+03
       222  26  1.972446E+05  1.637880E+05  3.277851E+04  1.675333E+05  2.307804E+04  1.842216E+04
       222  27  2.033876E+05  2.223844E+05  6.971672E+04  1.580772E+05  3.770952E+04  2.851634E+04
       223   1  6.236275E+05  1.134425E+05  1.100432E+05  9.122597E+04  3.963165E+04 -4.731665E+03
       223   2  5.484454E+05  8.185944E+04  7.078966E+04  7.946134E+04  1.771016E+04 -1.498145E+04
       223   3  4.787797E+05  6.086553E+04  4.844665E+04  8.147316E+04 -4.206424E+03 -1.592275E+04
       223   4  2.228390E+05  1.447877E+04  1.580879E+04  8.181815E+04  1.099107E+04 -4.732068E+03
       223   5  2.216427E+05  3.940915E+03  7.853337E+03  7.493020E+04  6.959301E+03 -1.498258E+04
       223   6  2.228559E+05  8.914040E+02  4.394920E+03  8.181835E+04  2.929331E+03 -1.592270E+04
       223   7 -1.777998E+05 -8.449566E+04 -7.843356E+04  7.241643E+04 -1.763114E+04 -4.731605E+03
       223   8 -1.050569E+05 -7.398381E+04 -5.508748E+04  7.040150E+04 -3.786035E+03 -1.498356E+04
       223   9 -3.300351E+04 -5.908620E+04 -3.965885E+04  8.216340E+04  1.006224E+04 -1.592263E+04
       223  10  6.236258E+05  1.134421E+05  1.100403E+05  9.122612E+04  4.838853E-10 -1.474349E-10
       223  11  5.484450E+05  8.185912E+04  7.078865E+04  7.946156E+04  7.489827E-10 -6.072192E-10
       223  12  4.787796E+05  6.086525E+04  4.844614E+04  8.147310E+04  1.175103E-09 -8.426772E-10
       223  13  2.228389E+05  1.447871E+04  1.580853E+04  8.181820E+04 -2.403619E-11 -8.086494E-11
       223  14  2.216426E+05  3.940661E+03  7.852824E+03  7.493029E+04  5.414711E-11 -4.187074E-10
       223  15  2.228558E+05  8.911294E+02  4.394427E+03  8.181839E+04  1.230275E-11 -7.984847E-10
       223  16 -1.778002E+05 -8.449577E+04 -7.843418E+04  7.241637E+04 -4.083752E-10 -6.359290E-11
       223  17 -1.050570E+05 -7.398405E+04 -5.508793E+04  7.040145E+04 -9.095302E-10 -3.814275E-10
       223  18 -3.300368E+04 -5.908650E+04 -3.965951E+04  8.216353E+04 -1.245672E-09 -7.874831E-10
       223  19  6.236275E+05  1.134425E+05  1.100432E+05  9.122597E+04 -3.963165E+04  4.731665E+03
       223  20  5.484454E+05  8.185944E+04  7.078966E+04  7.946134E+04 -1.771016E+04  1.498145E+04
       223  21  4.787797E+05  6.086553E+04  4.844665E+04  8.147316E+04  4.206424E+03  1.592275E+04
       223  22  2.228390E+05  1.447877E+04  1.580879E+04  8.181815E+04 -1.099107E+04  4.732068E+03
       223  23  2.216427E+05  3.940915E+03  7.853337E+03  7.493020E+04 -6.959301E+03  1.498258E+04
       223  24  2.228559E+05  8.914040E+02  4.394920E+03  8.181835E+04 -2.929331E+03  1.592270E+04
       223  25 -1.777998E+05 -8.449566E+04 -7.843356E+04  7.241643E+04  1.763114E+04  4.731605E+03
       223  26 -1.050569E+05 -7.398381E+04 -5.508748E+04  7.040150E+04  3.786035E+03  1.498356E+04
       223  27 -3.300351E+04 -5.908620E+04 -3.965885E+04  8.216340E+04 -1.006224E+04  1.592263E+04
       224   1  4.317687E+05  4.978492E+04  3.889118E+04  8.238607E+04 -4.335398E+03 -1.347357E+04
       224   2  3.591484E+05  3.200492E+04  2.439720E+04  7.493650E+04 -7.124612E+03 -9.543362E+03
       224   3  2.871034E+05  1.504676E+04  1.192391E+04  8.189662E+04 -9.913918E+03 -4.709947E+03
       224   4  2.223845E+05  8.269902E+02  3.406460E+03  8.195932E+04  2.347069E+03 -1.347323E+04
       224   5  2.222527E+05  1.781068E+02  2.112825E+03  7.475443E+04  1.292853E+03 -9.542475E+03
       224   6  2.223913E+05  5.059735E+01  1.635976E+03  8.195941E+04  2.382643E+02 -4.708408E+03
       224   7  1.304358E+04 -4.813324E+04 -3.207951E+04  8.153272E+04  9.027356E+03 -1.347290E+04
       224   8  8.537577E+04 -3.164963E+04 -2.017181E+04  7.457240E+04  9.708527E+03 -9.541592E+03
       224   9  1.576835E+05 -1.494572E+04 -8.651677E+03  8.202220E+04  1.038943E+04 -4.706867E+03
       224  10  4.317686E+05  4.978472E+04  3.889080E+04  8.238602E+04 -1.069293E-08 -5.741361E-10
       224  11  3.591483E+05  3.200481E+04  2.439694E+04  7.493644E+04  2.028699E-08  5.176194E-10
       224  12  2.871033E+05  1.504671E+04  1.192368E+04  8.189658E+04  4.895606E-08  1.640581E-09
       224  13  2.223845E+05  8.267937E+02  3.406109E+03  8.195935E+04  8.614460E-11 -5.445304E-10
       224  14  2.222527E+05  1.780085E+02  2.112650E+03  7.475444E+04 -5.466614E-11  6.012667E-10
       224  15  2.223913E+05  5.057352E+01  1.635934E+03  8.195941E+04 -3.594896E-10  1.660139E-09
       224  16  1.304345E+04 -4.813345E+04 -3.208001E+04  8.153282E+04  1.086694E-08 -5.213555E-10
       224  17  8.537565E+04 -3.164975E+04 -2.017216E+04  7.457247E+04 -1.991690E-08  5.949540E-10
       224  18  1.576834E+05 -1.494578E+04 -8.651921E+03  8.202224E+04 -4.907856E-08  1.754626E-09
       224  19  4.317687E+05  4.978492E+04  3.889118E+04  8.238607E+04  4.335398E+03  1.347357E+04
       224  20  3.591484E+05  3.200492E+04  2.439720E+04  7.493650E+04  7.124612E+03  9.543362E+03
       224  21  2.871034E+05  1.504676E+04  1.192391E+04  8.189662E+04  9.913918E+03  4.709947E+03
       224  22  2.223845E+05  8.269902E+02  3.406460E+03  8.195932E+04 -2.347069E+03  1.347323E+04
       224  23  2.222527E+05  1.781068E+02  2.112825E+03  7.475443E+04 -1.292853E+03  9.542475E+03
       224  24  2.223913E+05  5.059735E+01  1.635976E+03  8.195941E+04 -2.382643E+02  4.708408E+03
       224  25  1.304358E+04 -4.813324E+04 -3.207951E+04  8.153272E+04 -9.027356E+03  1.347290E+04
       224  26  8.537577E+04 -3.164963E+04 -2.017181E+04  7.457240E+04 -9.708527E+03  9.541592E+03
       224  27  1.576835E+05 -1.494572E+04 -8.651677E+03  8.202220E+04 -1.038943E+04  4.706867E+03
       225   1  2.410121E+05  4.316040E+03  4.299676E+03  8.201312E+04 -1.018396E+04 -1.567818E+03
       225   2  1.686850E+05 -1.239223E+04 -7.253278E+03  7.458969E+04 -9.822115E+03  3.369128E+03
       225   3  9.637340E+04 -2.887410E+04 -1.898525E+04  8.158850E+04 -9.460186E+03  7.617732E+03
       225   4  2.223852E+05  5.208337E+01  1.601760E+03  8.196213E+04 -4.183217E+01 -1.566197E+03
       225   5  2.222639E+05  1.569702E+02  1.925149E+03  7.475104E+04 -1.002467E+03  3.370385E+03
       225   6  2.223825E+05  7.179509E+02  2.987419E+03  8.196206E+04 -1.962976E+03  7.618661E+03
       225   7  2.037589E+05 -4.211834E+03 -1.095776E+03  8.191115E+04  1.010000E+04 -1.564578E+03
       225   8  2.758459E+05  1.270606E+04  1.110377E+04  7.491240E+04  7.817919E+03  3.371647E+03
       225   9  3.484073E+05  3.030917E+04  2.495974E+04  8.233569E+04  5.535710E+03  7.619599E+03
       225  10  2.410120E+05  4.316009E+03  4.299477E+03  8.201310E+04 -4.913351E-08  1.697041E-09
       225  11  1.686848E+05 -1.239227E+04 -7.253481E+03  7.458972E+04 -2.045838E-08  5.995098E-10
       225  12  9.637329E+04 -2.887419E+04 -1.898553E+04  8.158856E+04  1.061264E-08 -3.210796E-10
       225  13  2.223852E+05  5.208073E+01  1.601755E+03  8.196213E+04 -2.665823E-10  1.681135E-09
       225  14  2.222639E+05  1.569577E+02  1.925126E+03  7.475104E+04 -5.799017E-11  5.510334E-10
       225  15  2.223825E+05  7.178875E+02  2.987302E+03  8.196207E+04  2.342808E-12 -3.684467E-10
       225  16  2.037588E+05 -4.211864E+03 -1.095972E+03  8.191116E+04  4.908323E-08  1.789284E-09
       225  17  2.758459E+05  1.270603E+04  1.110364E+04  7.491238E+04  2.038850E-08  6.350459E-10
       225  18  3.484073E+05  3.030910E+04  2.495957E+04  8.233565E+04 -1.048396E-08 -3.295905E-10
       225  19  2.410121E+05  4.316040E+03  4.299676E+03  8.201312E+04  1.018396E+04  1.567818E+03
       225  20  1.686850E+05 -1.239223E+04 -7.253278E+03  7.458969E+04  9.822115E+03 -3.369128E+03
       225  21  9.637340E+04 -2.887410E+04 -1.898525E+04  8.158850E+04  9.460186E+03 -7.617732E+03
       225  22  2.223852E+05  5.208337E+01  1.601760E+03  8.196213E+04  4.183217E+01  1.566197E+03
       225  23  2.222639E+05  1.569702E+02  1.925149E+03  7.475104E+04  1.002467E+03 -3.370385E+03
       225  24  2.223825E+05  7.179509E+02  2.987419E+03  8.196206E+04  1.962976E+03 -7.618661E+03
       225  25  2.037589E+05 -4.211834E+03 -1.095776E+03  8.191115E+04 -1.010000E+04  1.564578E+03
       225  26  2.758459E+05  1.270606E+04  1.110377E+04  7.491240E+04 -7.817919E+03 -3.371647E+03
       225  27  3.484073E+05  3.030917E+04  2.495974E+04  8.233569E+04 -5.535710E+03 -7.619599E+03
       226   1  5.036447E+04 -3.976542E+04 -2.648694E+04  8.213758E+04 -1.033164E+04  1.023217E+04
       226   2 -2.180283E+04 -5.483818E+04 -4.087578E+04  7.098811E+04  5.446430E+02  1.059029E+04
       226   3 -9.438721E+04 -6.596998E+04 -6.135848E+04  7.375686E+04  1.141867E+04  3.474789E+03
       226   4  2.227860E+05  7.751065E+02  3.819884E+03  8.184986E+04 -2.472759E+03  1.023293E+04
       226   5  2.217461E+05  3.395736E+03  6.767171E+03  7.489084E+04 -5.945668E+03  1.058940E+04
       226   6  2.227732E+05  1.244710E+04  1.358341E+04  8.184922E+04 -9.419356E+03  3.473753E+03
       226   7  3.952368E+05  4.131404E+04  3.412587E+04  8.156206E+04  5.388234E+03  1.023369E+04
       226   8  4.653521E+05  6.162616E+04  5.440744E+04  7.879513E+04 -1.243847E+04  1.058844E+04
       226   9  5.400272E+05  9.085745E+04  8.852001E+04  8.994573E+04 -3.026797E+04  3.472173E+03
       226  10  5.036433E+04 -3.976556E+04 -2.648734E+04  8.213766E+04 -6.264493E-10 -6.138686E-10
       226  11 -2.180286E+04 -5.483830E+04 -4.087599E+04  7.098811E+04 -6.786170E-10 -4.731403E-10
       226  12 -9.438735E+04 -6.597003E+04 -6.135875E+04  7.375683E+04 -4.637031E-10 -1.400581E-10
       226  13  2.227860E+05  7.749924E+02  3.819676E+03  8.184988E+04  1.827089E-10 -5.921834E-10
       226  14  2.217461E+05  3.395606E+03  6.766894E+03  7.489089E+04 -1.152960E-10 -5.165024E-10
       226  15  2.227731E+05  1.244706E+04  1.358322E+04  8.184925E+04  3.180174E-12 -1.453868E-10
       226  16  3.952368E+05  4.131392E+04  3.412562E+04  8.156202E+04  1.114837E-09 -5.946981E-10
       226  17  4.653519E+05  6.162600E+04  5.440694E+04  7.879524E+04  5.638924E-10 -4.388946E-10
       226  18  5.400262E+05  9.085719E+04  8.851827E+04  8.994581E+04  5.888348E-10 -1.239857E-10
       226  19  5.036447E+04 -3.976542E+04 -2.648694E+04  8.213758E+04  1.033164E+04 -1.023217E+04
       226  20 -2.180283E+04 -5.483818E+04 -4.087578E+04  7.098811E+04 -5.446430E+02 -1.059029E+04
       226  21 -9.438721E+04 -6.596998E+04 -6.135848E+04  7.375686E+04 -1.141867E+04 -3.474789E+03
       226  22  2.227860E+05  7.751065E+02  3.819884E+03  8.184986E+04  2.472759E+03 -1.023293E+04
       226  23  2.217461E+05  3.395736E+03  6.767171E+03  7.489084E+04  5.945668E+03 -1.058940E+04
       226  24  2.227732E+05  1.244710E+04  1.358341E+04  8.184922E+04  9.419356E+03 -3.473753E+03
       226  25  3.952368E+05  4.131404E+04  3.412587E+04  8.156206E+04 -5.388234E+03 -1.023369E+04
       226  26  4.653521E+05  6.162616E+04  5.440744E+04  7.879513E+04  1.243847E+04 -1.058844E+04
       226  27  5.400272E+05  9.085745E+04  8.852001E+04  8.994573E+04  3.026797E+04 -3.472173E+03
       227   1 -1.461223E+05 -5.151159E+05 -1.487639E+05  1.511629E+05 -3.320596E+03 -6.694547E+04
       227   2 -7.381779E+04 -4.112407E+05 -8.203395E+04  1.203794E+05 -9.489873E+03 -3.376087E+04
       227   3 -3.695350E+04 -3.205468E+05 -4.578183E+04  1.084548E+05 -7.710997E+03 -5.713226E+02
       227   4 -6.338772E+04 -1.808844E+05 -6.929256E+04  1.100255E+05 -3.309052E+03 -4.746521E+04
       227   5 -1.727591E+04 -1.756059E+05 -3.495158E+04  1.005843E+05 -9.486860E+03 -2.952630E+04
       227   6 -3.948839E+03 -1.808641E+05 -2.048867E+04  1.100056E+05 -7.715621E+03 -1.158825E+04
       227   7  1.934542E+04  1.534542E+05  1.017326E+04  6.886587E+04 -3.300097E+03 -2.797451E+04
       227   8  3.926405E+04  6.008274E+04  1.212828E+04  8.078158E+04 -9.484118E+03 -2.529015E+04
       227   9  2.905480E+04 -4.116214E+04  4.804183E+03  1.115567E+05 -7.720298E+03 -2.260758E+04
       227  10 -1.461235E+05 -5.151207E+05 -1.487723E+05  1.511627E+05  8.274549E-11 -3.493671E-10
       227  11 -7.381819E+04 -4.112419E+05 -8.203626E+04  1.203791E+05 -1.399186E-11  4.196729E-12
       227  12 -3.695356E+04 -3.205468E+05 -4.578195E+04  1.084548E+05 -7.251897E-11  1.045826E-10
       227  13 -6.338833E+04 -1.808868E+05 -6.929682E+04  1.100254E+05 -1.314534E-10 -5.027399E-11
       227  14 -1.727624E+04 -1.756069E+05 -3.495338E+04  1.005841E+05 -1.579940E-10 -4.320344E-11
       227  15 -3.948939E+03 -1.808642E+05 -2.048903E+04  1.100055E+05 -5.633720E-11  7.261367E-11
       227  16  1.934520E+04  1.534534E+05  1.017176E+04  6.886580E+04 -1.811456E-10  2.769990E-10
       227  17  3.926379E+04  6.008203E+04  1.212691E+04  8.078138E+04 -3.012962E-10 -8.375190E-11
       227  18  2.905460E+04 -4.116270E+04  4.803111E+03  1.115565E+05 -2.143479E-10 -2.086135E-10
       227  19 -1.461223E+05 -5.151159E+05 -1.487639E+05  1.511629E+05  3.320596E+03  6.694547E+04
       227  20 -7.381779E+04 -4.112407E+05 -8.203395E+04  1.203794E+05  9.489873E+03  3.376087E+04
       227  21 -3.695350E+04 -3.205468E+05 -4.578183E+04  1.084548E+05  7.710997E+03  5.713226E+02
       227  22 -6.338772E+04 -1.808844E+05 -6.929256E+04  1.100255E+05  3.309052E+03  4.746521E+04
       227  23 -1.727591E+04 -1.756059E+05 -3.495158E+04  1.005843E+05  9.486860E+03  2.952630E+04
       227  24 -3.948839E+03 -1.808641E+05 -2.048867E+04  1.100056E+05  7.715621E+03  1.158825E+04
       227  25  1.934542E+04  1.534542E+05  1.017326E+04  6.886587E+04  3.300097E+03  2.797451E+04
       227  26  3.926405E+04  6.008274E+04  1.212828E+04  8.078158E+04  9.484118E+03  2.529015E+04
       227  27  2.905480E+04 -4.116214E+04  4.804183E+03  1.115567E+05  7.720298E+03  2.260758E+04
       228   1 -2.195817E+04 -2.562497E+05 -3.087441E+04  1.121008E+05 -4.082221E+03  1.871049E+03
       228   2  3.374303E+03 -1.581781E+05 -9.242217E+03  1.006728E+05  1.431112E+03  7.900767E+03
       228   3  2.519825E+04 -6.177020E+04  7.582476E+03  1.085948E+05  6.851533E+03  1.393147E+04
       228   4 -3.638477E+03 -1.788991E+05 -1.663572E+04  1.101155E+05 -4.086915E+03 -8.796198E+03
       228   5 -1.237373E+03 -1.780477E+05 -1.242613E+04  1.004401E+05  1.426576E+03 -2.588561E+03
       228   6 -2.375219E+03 -1.789002E+05 -1.314737E+04  1.101150E+05  6.847174E+03  3.619183E+03
       228   7  1.468095E+04 -1.015424E+05 -2.396845E+03  1.081300E+05 -4.091540E+03 -1.946474E+04
       228   8 -5.849010E+03 -1.979168E+05 -1.560965E+04  1.002074E+05  1.422049E+03 -1.307756E+04
       228   9 -2.994938E+04 -2.960165E+05 -3.387732E+04  1.116349E+05  6.842764E+03 -6.691219E+03
       228  10 -2.195819E+04 -2.562497E+05 -3.087445E+04  1.121008E+05 -1.763718E-11 -2.627969E-10
       228  11  3.374284E+03 -1.581781E+05 -9.242338E+03  1.006728E+05 -2.369727E-10  2.135945E-10
       228  12  2.519815E+04 -6.177042E+04  7.582023E+03  1.085948E+05  6.091719E-11  1.581447E-10
       228  13 -3.638516E+03 -1.788992E+05 -1.663590E+04  1.101155E+05 -6.963765E-11 -3.469185E-11
       228  14 -1.237377E+03 -1.780478E+05 -1.242615E+04  1.004401E+05 -7.026924E-11  2.582200E-11
       228  15 -2.375273E+03 -1.789002E+05 -1.314748E+04  1.101150E+05  1.732069E-10  7.991437E-11
       228  16  1.468083E+04 -1.015428E+05 -2.397589E+03  1.081299E+05  4.506709E-11  1.998037E-10
       228  17 -5.849058E+03 -1.979170E+05 -1.560997E+04  1.002074E+05  1.967067E-10 -1.560752E-10
       228  18 -2.994944E+04 -2.960166E+05 -3.387749E+04  1.116350E+05 -1.234271E-10 -2.795938E-10
       228  19 -2.195817E+04 -2.562497E+05 -3.087441E+04  1.121008E+05  4.082221E+03 -1.871049E+03
       228  20  3.374303E+03 -1.581781E+05 -9.242217E+03  1.006728E+05 -1.431112E+03 -7.900767E+03
       228  21  2.519825E+04 -6.177020E+04  7.582476E+03  1.085948E+05 -6.851533E+03 -1.393147E+04
       228  22 -3.638477E+03 -1.788991E+05 -1.663572E+04  1.101155E+05  4.086915E+03  8.796198E+03
       228  23 -1.237373E+03 -1.780477E+05 -1.242613E+04  1.004401E+05 -1.426576E+03  2.588561E+03
       228  24 -2.375219E+03 -1.789002E+05 -1.314737E+04  1.101150E+05 -6.847174E+03 -3.619183E+03
       228  25  1.468095E+04 -1.015424E+05 -2.396845E+03  1.081300E+05  4.091540E+03  1.946474E+04
       228  26 -5.849010E+03 -1.979168E+05 -1.560965E+04  1.002074E+05 -1.422049E+03  1.307756E+04
       228  27 -2.994938E+04 -2.960165E+05 -3.387732E+04  1.116349E+05 -6.842764E+03  6.691219E+03
       229   1  3.969847E+04 -5.274476E+02  1.690663E+04  1.109153E+05  1.040865E+04  1.648902E+04
       229   2  5.482665E+04  9.873495E+04  3.103623E+04  8.775957E+04  1.156688E+04  1.150437E+04
       229   3  5.170026E+04  1.940913E+05  4.384624E+04  8.339555E+04  3.893219E+03  6.520265E+03
       229   4 -2.586849E+03 -1.800496E+05 -1.497705E+04  1.099906E+05  1.040436E+04  5.778956E+03
       229   5 -1.111551E+04 -1.766292E+05 -2.335261E+04  1.005998E+05  1.156985E+04  1.775055E+04
       229   6 -4.084758E+04 -1.800705E+05 -4.482582E+04  1.100030E+05  3.901433E+03  2.972303E+04
       229   7 -4.487388E+04 -3.595401E+05 -4.686151E+04  1.090661E+05  1.040010E+04 -4.928098E+03
       229   8 -7.706162E+04 -4.519204E+05 -7.774494E+04  1.134342E+05  1.157309E+04  2.399401E+04
       229   9 -1.334025E+05 -5.541010E+05 -1.335052E+05  1.365942E+05  3.911640E+03  5.291188E+04
       229  10  3.969828E+04 -5.277686E+02  1.690591E+04  1.109152E+05 -4.489156E-12 -2.022990E-10
       229  11  5.482647E+04  9.873477E+04  3.103573E+04  8.775946E+04 -3.003650E-10  1.308965E-10
       229  12  5.170023E+04  1.940912E+05  4.384613E+04  8.339553E+04  1.077213E-12  1.389847E-10
       229  13 -2.586974E+03 -1.800497E+05 -1.497732E+04  1.099905E+05 -1.188719E-10  1.744520E-11
       229  14 -1.111573E+04 -1.766296E+05 -2.335345E+04  1.005996E+05  5.095454E-11  6.942994E-11
       229  15 -4.084784E+04 -1.800714E+05 -4.482751E+04  1.100029E+05  1.135892E-10  8.166901E-11
       229  16 -4.487400E+04 -3.595401E+05 -4.686175E+04  1.090661E+05  1.131854E-10  1.206966E-10
       229  17 -7.706192E+04 -4.519210E+05 -7.774627E+04  1.134339E+05  4.816840E-12  8.600879E-12
       229  18 -1.334033E+05 -5.541040E+05 -1.335105E+05  1.365940E+05  9.794864E-12 -9.917356E-11
       229  19  3.969847E+04 -5.274476E+02  1.690663E+04  1.109153E+05 -1.040865E+04 -1.648902E+04
       229  20  5.482665E+04  9.873495E+04  3.103623E+04  8.775957E+04 -1.156688E+04 -1.150437E+04
       229  21  5.170026E+04  1.940913E+05  4.384624E+04  8.339555E+04 -3.893219E+03 -6.520265E+03
       229  22 -2.586849E+03 -1.800496E+05 -1.497705E+04  1.099906E+05 -1.040436E+04 -5.778956E+03
       229  23 -1.111551E+04 -1.766292E+05 -2.335261E+04  1.005998E+05 -1.156985E+04 -1.775055E+04
       229  24 -4.084758E+04 -1.800705E+05 -4.482582E+04  1.100030E+05 -3.901433E+03 -2.972303E+04
       229  25 -4.487388E+04 -3.595401E+05 -4.686151E+04  1.090661E+05 -1.040010E+04  4.928098E+03
       229  26 -7.706162E+04 -4.519204E+05 -7.774494E+04  1.134342E+05 -1.157309E+04 -2.399401E+04
       229  27 -1.334025E+05 -5.541010E+05 -1.335052E+05  1.365942E+05 -3.911640E+03 -5.291188E+04
       230   1  2.918424E+05  2.435158E+05  6.863772E+04  2.051409E+05  3.734619E+04  2.741188E+04
       230   2  2.936146E+05  1.981175E+05  3.626182E+04  2.183915E+05  2.453340E+04  1.626646E+04
       230   3  3.126588E+05  1.746084E+05  2.229954E+04  2.219137E+05  1.135181E+04  5.612437E+03
       230   4  3.064330E+05  1.932427E+05  6.207203E+04  1.844180E+05  3.498553E+04  2.563856E+04
       230   5  2.882932E+05  1.653067E+05  3.068215E+04  2.021026E+05  2.311471E+04  1.520174E+04
       230   6  2.872201E+05  1.590548E+05  1.688760E+04  2.100588E+05  1.087596E+04  5.255689E+03
       230   7  3.210264E+05  1.429748E+05  5.550691E+04  1.636945E+05  3.262472E+04  2.386557E+04
       230   8  2.829724E+05  1.324980E+05  2.510263E+04  1.858143E+05  2.169602E+04  1.413715E+04
       230   9  2.617827E+05  1.435017E+05  1.147579E+04  1.982047E+05  1.040015E+04  4.898965E+03
       230  10  2.918407E+05  2.435146E+05  6.863369E+04  2.051400E+05 -1.655344E-10 -1.007860E-10
       230  11  2.936139E+05  1.981171E+05  3.626020E+04  2.183911E+05  2.775287E-11 -3.132768E-11
       230  12  3.126587E+05  1.746083E+05  2.229924E+04  2.219136E+05  1.852830E-10  8.559410E-12
       230  13  3.064315E+05  1.932416E+05  6.206850E+04  1.844173E+05  2.311043E-10  4.677204E-11
       230  14  2.882926E+05  1.653063E+05  3.068072E+04  2.021024E+05 -3.136881E-10  6.437207E-11
       230  15  2.872200E+05  1.590547E+05  1.688732E+04  2.100588E+05  1.401547E-10  4.019052E-11
       230  16  3.210251E+05  1.429739E+05  5.550384E+04  1.636939E+05 -1.588310E-11  1.558205E-10
       230  17  2.829718E+05  1.324976E+05  2.510137E+04  1.858140E+05  1.455198E-10  7.713312E-11
       230  18  2.617826E+05  1.435017E+05  1.147554E+04  1.982047E+05 -1.557287E-10 -2.113862E-11
       230  19  2.918424E+05  2.435158E+05  6.863772E+04  2.051409E+05 -3.734619E+04 -2.741188E+04
       230  20  2.936146E+05  1.981175E+05  3.626182E+04  2.183915E+05 -2.453340E+04 -1.626646E+04
       230  21  3.126588E+05  1.746084E+05  2.229954E+04  2.219137E+05 -1.135181E+04 -5.612437E+03
       230  22  3.064330E+05  1.932427E+05  6.207203E+04  1.844180E+05 -3.498553E+04 -2.563856E+04
       230  23  2.882932E+05  1.653067E+05  3.068215E+04  2.021026E+05 -2.311471E+04 -1.520174E+04
       230  24  2.872201E+05  1.590548E+05  1.688760E+04  2.100588E+05 -1.087596E+04 -5.255689E+03
       230  25  3.210264E+05  1.429748E+05  5.550691E+04  1.636945E+05 -3.262472E+04 -2.386557E+04
       230  26  2.829724E+05  1.324980E+05  2.510263E+04  1.858143E+05 -2.169602E+04 -1.413715E+04
       230  27  2.617827E+05  1.435017E+05  1.147579E+04  1.982047E+05 -1.040015E+04 -4.898965E+03
       231   1  3.095024E+05  1.773750E+05  1.843820E+04  2.225273E+05  9.708094E+03  4.178310E+03
       231   2  3.105989E+05  1.760210E+05  1.315925E+04  2.242048E+05  6.833013E+03  1.657769E+03
       231   3  3.134865E+05  1.758316E+05  1.085295E+04  2.252806E+05  3.918134E+03 -8.096860E+02
       231   4  2.859145E+05  1.582155E+05  1.286915E+04  2.092934E+05  9.208039E+03  3.803343E+03
       231   5  2.844499E+05  1.566119E+05  7.378730E+03  2.103689E+05  6.435091E+03  1.359393E+03
       231   6  2.847544E+05  1.561508E+05  4.772475E+03  2.108427E+05  3.622331E+03 -1.031495E+03
       231   7  2.623272E+05  1.390566E+05  7.300068E+03  1.960602E+05  8.708009E+03  3.428398E+03
       231   8  2.583015E+05  1.372031E+05  1.598078E+03  1.965335E+05  6.037187E+03  1.061031E+03
       231   9  2.560227E+05  1.364700E+05 -1.308246E+03  1.964052E+05  3.326540E+03 -1.253295E+03
       231  10  3.095023E+05  1.773749E+05  1.843799E+04  2.225272E+05 -3.554716E-11 -1.038388E-11
       231  11  3.105988E+05  1.760210E+05  1.315916E+04  2.242047E+05  1.065157E-11 -1.480920E-11
       231  12  3.134865E+05  1.758316E+05  1.085292E+04  2.252806E+05  3.298952E-10  1.495554E-10
       231  13  2.859144E+05  1.582155E+05  1.286896E+04  2.092934E+05  1.283813E-10  2.948305E-11
       231  14  2.844499E+05  1.566119E+05  7.378649E+03  2.103689E+05  2.446937E-10  9.407652E-11
       231  15  2.847544E+05  1.561508E+05  4.772449E+03  2.108427E+05 -1.803414E-11 -3.411825E-12
       231  16  2.623271E+05  1.390565E+05  7.299903E+03  1.960602E+05  1.145718E-10  1.472991E-10
       231  17  2.583015E+05  1.372030E+05  1.598008E+03  1.965335E+05 -2.684997E-10  1.047065E-10
       231  18  2.560227E+05  1.364700E+05 -1.308269E+03  1.964052E+05  1.425078E-11 -2.404847E-10
       231  19  3.095024E+05  1.773750E+05  1.843820E+04  2.225273E+05 -9.708094E+03 -4.178310E+03
       231  20  3.105989E+05  1.760210E+05  1.315925E+04  2.242048E+05 -6.833013E+03 -1.657769E+03
       231  21  3.134865E+05  1.758316E+05  1.085295E+04  2.252806E+05 -3.918134E+03  8.096860E+02
       231  22  2.859145E+05  1.582155E+05  1.286915E+04  2.092934E+05 -9.208039E+03 -3.803343E+03
       231  23  2.844499E+05  1.566119E+05  7.378730E+03  2.103689E+05 -6.435091E+03 -1.359393E+03
       231  24  2.847544E+05  1.561508E+05  4.772475E+03  2.108427E+05 -3.622331E+03  1.031495E+03
       231  25  2.623272E+05  1.390566E+05  7.300068E+03  1.960602E+05 -8.708009E+03 -3.428398E+03
       231  26  2.583015E+05  1.372031E+05  1.598078E+03  1.965335E+05 -6.037187E+03 -1.061031E+03
       231  27  2.560227E+05  1.364700E+05 -1.308246E+03  1.964052E+05 -3.326540E+03  1.253295E+03
       232   1  3.141856E+05  1.768038E+05  1.041551E+04  2.258342E+05  3.368516E+03 -1.360137E+03
       232   2  3.154659E+05  1.781058E+05  1.033992E+04  2.267529E+05  1.987998E+03 -2.625191E+03
       232   3  3.174910E+05  1.792487E+05  1.154546E+04  2.275585E+05  5.948046E+02 -3.873278E+03
       232   4  2.846596E+05  1.560993E+05  4.104508E+03  2.107714E+05  3.069389E+03 -1.584443E+03
       232   5  2.842950E+05  1.561900E+05  3.678731E+03  2.108222E+05  1.721515E+03 -2.825025E+03
       232   6  2.846683E+05  1.561147E+05  4.505862E+03  2.107600E+05  3.609557E+02 -4.048649E+03
       232   7  2.551352E+05  1.353957E+05 -2.206319E+03  1.957098E+05  2.770286E+03 -1.808731E+03
       232   8  2.531257E+05  1.342751E+05 -2.982379E+03  1.948926E+05  1.455052E+03 -3.024844E+03
       232   9  2.518468E+05  1.329813E+05 -2.533776E+03  1.939625E+05  1.271234E+02 -4.224006E+03
       232  10  3.141856E+05  1.768038E+05  1.041549E+04  2.258342E+05 -2.299797E-10 -1.601029E-10
       232  11  3.154658E+05  1.781058E+05  1.033990E+04  2.267529E+05 -3.462581E-10 -1.454341E-11
       232  12  3.174910E+05  1.792487E+05  1.154543E+04  2.275585E+05 -1.343313E-10 -4.663216E-12
       232  13  2.846596E+05  1.560993E+05  4.104485E+03  2.107714E+05 -5.984234E-11 -1.890845E-10
       232  14  2.842950E+05  1.561900E+05  3.678711E+03  2.108222E+05 -1.218741E-11  4.009420E-11
       232  15  2.846683E+05  1.561146E+05  4.505831E+03  2.107600E+05 -1.418346E-10  6.153179E-11
       232  16  2.551352E+05  1.353957E+05 -2.206340E+03  1.957098E+05  4.855179E-10  8.293662E-12
       232  17  2.531257E+05  1.342751E+05 -2.982400E+03  1.948926E+05 -2.571330E-10  1.042851E-10
       232  18  2.518468E+05  1.329813E+05 -2.533809E+03  1.939625E+05  2.577582E-11  7.209425E-11
       232  19  3.141856E+05  1.768038E+05  1.041551E+04  2.258342E+05 -3.368516E+03  1.360137E+03
       232  20  3.154659E+05  1.781058E+05  1.033992E+04  2.267529E+05 -1.987998E+03  2.625191E+03
       232  21  3.174910E+05  1.792487E+05  1.154546E+04  2.275585E+05 -5.948046E+02  3.873278E+03
       232  22  2.846596E+05  1.560993E+05  4.104508E+03  2.107714E+05 -3.069389E+03  1.584443E+03
       232  23  2.842950E+05  1.561900E+05  3.678731E+03  2.108222E+05 -1.721515E+03  2.825025E+03
       232  24  2.846683E+05  1.561147E+05  4.505862E+03  2.107600E+05 -3.609557E+02  4.048649E+03
       232  25  2.551352E+05  1.353957E+05 -2.206319E+03  1.957098E+05 -2.770286E+03  1.808731E+03
       232  26  2.531257E+05  1.342751E+05 -2.982379E+03  1.948926E+05 -1.455052E+03  3.024844E+03
       232  27  2.518468E+05  1.329813E+05 -2.533776E+03  1.939625E+05 -1.271234E+02  4.224006E+03
       233   1  3.183681E+05  1.803894E+05  1.270373E+04  2.282910E+05 -3.281832E+01 -4.462120E+03
       233   2  3.208304E+05  1.809883E+05  1.644068E+04  2.282355E+05 -3.659471E+03 -7.290806E+03
       233   3  3.253514E+05  1.831003E+05  2.376453E+04  2.274828E+05 -7.368468E+03 -1.000989E+04
       233   4  2.847848E+05  1.561806E+05  5.410751E+03  2.108531E+05 -2.725134E+02 -4.641876E+03
       233   5  2.844732E+05  1.566840E+05  8.679042E+03  2.102733E+05 -3.688249E+03 -7.312430E+03
       233   6  2.861748E+05  1.586548E+05  1.535147E+04  2.089963E+05 -7.186236E+03 -9.873322E+03
       233   7  2.512020E+05  1.319721E+05 -1.882523E+03  1.934160E+05 -5.121961E+02 -4.821622E+03
       233   8  2.481176E+05  1.323804E+05  9.173441E+02  1.923123E+05 -3.717025E+03 -7.334053E+03
       233   9  2.470008E+05  1.342105E+05  6.938606E+03  1.905115E+05 -7.004022E+03 -9.736770E+03
       233  10  3.183681E+05  1.803894E+05  1.270370E+04  2.282910E+05  3.045198E-10  1.560834E-10
       233  11  3.208304E+05  1.809882E+05  1.644056E+04  2.282354E+05  3.213716E-10 -9.803428E-11
       233  12  3.253513E+05  1.831002E+05  2.376424E+04  2.274827E+05 -4.944528E-11 -2.024601E-10
       233  13  2.847848E+05  1.561806E+05  5.410710E+03  2.108531E+05 -2.501901E-11 -7.337167E-12
       233  14  2.844732E+05  1.566839E+05  8.678916E+03  2.102733E+05 -5.923366E-11 -1.989702E-10
       233  15  2.861747E+05  1.586547E+05  1.535119E+04  2.089962E+05  6.274050E-11 -1.521972E-10
       233  16  2.512020E+05  1.319721E+05 -1.882568E+03  1.934160E+05 -2.854053E-10 -1.691922E-10
       233  17  2.481176E+05  1.323804E+05  9.172171E+02  1.923123E+05 -2.157434E-10 -2.070809E-10
       233  18  2.470007E+05  1.342104E+05  6.938336E+03  1.905114E+05  1.737337E-10 -8.575554E-11
       233  19  3.183681E+05  1.803894E+05  1.270373E+04  2.282910E+05  3.281832E+01  4.462120E+03
       233  20  3.208304E+05  1.809883E+05  1.644068E+04  2.282355E+05  3.659471E+03  7.290806E+03
       233  21  3.253514E+05  1.831003E+05  2.376453E+04  2.274828E+05  7.368468E+03  1.000989E+04
       233  22  2.847848E+05  1.561806E+05  5.410751E+03  2.108531E+05  2.725134E+02  4.641876E+03
       233  23  2.844732E+05  1.566840E+05  8.679042E+03  2.102733E+05  3.688249E+03  7.312430E+03
       233  24  2.861748E+05  1.586548E+05  1.535147E+04  2.089963E+05  7.186236E+03  9.873322E+03
       233  25  2.512020E+05  1.319721E+05 -1.882523E+03  1.934160E+05  5.121961E+02  4.821622E+03
       233  26  2.481176E+05  1.323804E+05  9.173441E+02  1.923123E+05  3.717025E+03  7.334053E+03
       233  27  2.470008E+05  1.342105E+05  6.938606E+03  1.905115E+05  7.004022E+03  9.736770E+03
       234   1  3.245676E+05  1.884119E+05  2.901926E+04  2.299828E+05 -9.430245E+03 -1.154298E+04
       234   2  3.497107E+05  1.749175E+05  4.706831E+04  2.146251E+05 -2.697452E+04 -2.378532E+04
       234   3  3.955436E+05  1.881200E+05  8.795188E+04  1.876530E+05 -4.529292E+04 -3.499585E+04
       234   4  2.877144E+05  1.596923E+05  2.020376E+04  2.099258E+05 -9.298758E+03 -1.144437E+04
       234   5  2.891206E+05  1.670799E+05  3.680639E+04  2.003397E+05 -2.486083E+04 -2.220191E+04
       234   6  3.107863E+05  2.007351E+05  7.452515E+04  1.791390E+05 -4.119610E+04 -3.192885E+04
       234   7  2.508627E+05  1.309737E+05  1.138817E+04  1.898702E+05 -9.167281E+03 -1.134577E+04
       234   8  2.285348E+05  1.592427E+05  2.654446E+04  1.860547E+05 -2.274741E+04 -2.061849E+04
       234   9  2.260386E+05  2.133537E+05  6.109905E+04  1.706239E+05 -3.710001E+04 -2.886149E+04
       234  10  3.245675E+05  1.884117E+05  2.901884E+04  2.299828E+05 -3.117545E-11 -1.050331E-10
       234  11  3.497098E+05  1.749167E+05  4.706588E+04  2.146246E+05  4.396847E-11 -1.072990E-10
       234  12  3.955411E+05  1.881181E+05  8.794573E+04  1.876517E+05 -1.502864E-10 -1.707711E-10
       234  13  2.877142E+05  1.596921E+05  2.020335E+04  2.099257E+05 -1.412183E-10 -2.048585E-10
       234  14  2.891198E+05  1.670792E+05  3.680430E+04  2.003392E+05  6.829081E-11 -1.613030E-11
       234  15  3.107842E+05  2.007335E+05  7.452005E+04  1.791380E+05  1.215457E-10 -4.318806E-11
       234  16  2.508625E+05  1.309735E+05  1.138777E+04  1.898701E+05  1.210137E-10 -1.055940E-10
       234  17  2.285341E+05  1.592421E+05  2.654269E+04  1.860543E+05  2.013641E-10  2.416981E-12
       234  18  2.260369E+05  2.133524E+05  6.109490E+04  1.706230E+05  2.122150E-10  8.239270E-11
       234  19  3.245676E+05  1.884119E+05  2.901926E+04  2.299828E+05  9.430245E+03  1.154298E+04
       234  20  3.497107E+05  1.749175E+05  4.706831E+04  2.146251E+05  2.697452E+04  2.378532E+04
       234  21  3.955436E+05  1.881200E+05  8.795188E+04  1.876530E+05  4.529292E+04  3.499585E+04
       234  22  2.877144E+05  1.596923E+05  2.020376E+04  2.099258E+05  9.298758E+03  1.144437E+04
       234  23  2.891206E+05  1.670799E+05  3.680639E+04  2.003397E+05  2.486083E+04  2.220191E+04
       234  24  3.107863E+05  2.007351E+05  7.452515E+04  1.791390E+05  4.119610E+04  3.192885E+04
       234  25  2.508627E+05  1.309737E+05  1.138817E+04  1.898702E+05  9.167281E+03  1.134577E+04
       234  26  2.285348E+05  1.592427E+05  2.654446E+04  1.860547E+05  2.274741E+04  2.061849E+04
       234  27  2.260386E+05  2.133537E+05  6.109905E+04  1.706239E+05  3.710001E+04  2.886149E+04
       235   1  5.784259E+05  9.784579E+04  9.614469E+04  7.964475E+04  3.795683E+04 -3.624691E+03
       235   2  5.171525E+05  6.564127E+04  5.992378E+04  6.696279E+04  1.817472E+04 -1.142132E+04
       235   3  4.617930E+05  4.676535E+04  3.990651E+04  6.539771E+04 -1.604785E+03 -1.199045E+04
       235   4  2.678884E+05  2.115591E+04  2.308045E+04  6.589918E+04  1.603189E+04 -3.626202E+03
       235   5  2.661424E+05  5.772148E+03  1.147797E+04  6.034138E+04  1.013907E+04 -1.142238E+04
       235   6  2.679005E+05  1.310407E+03  6.441908E+03  6.590007E+04  4.246979E+03 -1.199017E+04
       235   7 -4.255904E+04 -5.553988E+04 -4.998852E+04  5.216052E+04 -5.882151E+03 -3.626744E+03
       235   8  1.519301E+04 -5.410052E+04 -3.697051E+04  5.372270E+04  2.106600E+03 -1.142327E+04
       235   9  7.404505E+04 -4.414653E+04 -2.702385E+04  6.640227E+04  1.009697E+04 -1.198988E+04
       235  10  5.784243E+05  9.784539E+04  9.614196E+04  7.964486E+04  6.390103E-11  1.408148E-11
       235  11  5.171521E+05  6.564104E+04  5.992292E+04  6.696295E+04 -1.442019E-10 -1.632375E-11
       235  12  4.617929E+05  4.676519E+04  3.990624E+04  6.539769E+04 -2.424980E-11  5.056813E-11
       235  13  2.678881E+05  2.115583E+04  2.307994E+04  6.589923E+04 -4.210938E-12 -2.308185E-11
       235  14  2.661422E+05  5.771981E+03  1.147753E+04  6.034147E+04  1.367973E-10 -5.473239E-11
       235  15  2.679005E+05  1.310248E+03  6.441604E+03  6.590011E+04  1.490049E-11  4.995645E-11
       235  16 -4.255908E+04 -5.553990E+04 -4.998861E+04  5.216051E+04 -3.770040E-11 -3.676286E-11
       235  17  1.519297E+04 -5.410066E+04 -3.697076E+04  5.372272E+04 -4.938644E-11 -8.326811E-11
       235  18  7.404490E+04 -4.414671E+04 -2.702432E+04  6.640237E+04  1.349047E-10 -5.284463E-11
       235  19  5.784259E+05  9.784579E+04  9.614469E+04  7.964475E+04 -3.795683E+04  3.624691E+03
       235  20  5.171525E+05  6.564127E+04  5.992378E+04  6.696279E+04 -1.817472E+04  1.142132E+04
       235  21  4.617930E+05  4.676535E+04  3.990651E+04  6.539771E+04  1.604785E+03  1.199045E+04
       235  22  2.678884E+05  2.115591E+04  2.308045E+04  6.589918E+04 -1.603189E+04  3.626202E+03
       235  23  2.661424E+05  5.772148E+03  1.147797E+04  6.034138E+04 -1.013907E+04  1.142238E+04
       235  24  2.679005E+05  1.310407E+03  6.441908E+03  6.590007E+04 -4.246979E+03  1.199017E+04
       235  25 -4.255904E+04 -5.553988E+04 -4.998852E+04  5.216052E+04  5.882151E+03  3.626744E+03
       235  26  1.519301E+04 -5.410052E+04 -3.697051E+04  5.372270E+04 -2.106600E+03  1.142327E+04
       235  27  7.404505E+04 -4.414653E+04 -2.702385E+04  6.640227E+04 -1.009697E+04  1.198988E+04
       236   1  4.236461E+05  3.780551E+04  3.160987E+04  6.663148E+04 -2.108253E+03 -9.994208E+03
       236   2  3.650843E+05  2.307043E+04  1.918169E+04  6.047233E+04 -5.017652E+03 -6.783148E+03
       236   3  3.071544E+05  9.332702E+03  8.896050E+03  6.591813E+04 -7.927015E+03 -2.876168E+03
       236   4  2.672123E+05  1.211006E+03  5.009566E+03  6.600871E+04  3.391826E+03 -9.993765E+03
       236   5  2.670160E+05  2.578261E+02  3.151641E+03  6.020626E+04  1.819335E+03 -6.782337E+03
       236   6  2.672164E+05  7.025278E+01  2.508441E+03  6.600884E+04  2.466222E+02 -2.874934E+03
       236   7  1.108026E+05 -3.538477E+04 -2.159143E+04  6.538610E+04  8.890564E+03 -9.993332E+03
       236   8  1.689572E+05 -2.255525E+04 -1.287851E+04  5.994023E+04  8.655280E+03 -6.781532E+03
       236   9  2.272801E+05 -9.192241E+03 -3.878958E+03  6.609956E+04  8.419753E+03 -2.873697E+03
       236  10  4.236461E+05  3.780540E+04  3.160968E+04  6.663146E+04  5.198205E-11  6.669030E-11
       236  11  3.650843E+05  2.307038E+04  1.918156E+04  6.047230E+04  1.498273E-11 -6.736878E-12
       236  12  3.071543E+05  9.332676E+03  8.895916E+03  6.591811E+04  3.311288E-11  7.832765E-11
       236  13  2.672123E+05  1.210896E+03  5.009357E+03  6.600874E+04 -5.653879E-11  1.125222E-11
       236  14  2.670159E+05  2.577758E+02  3.151549E+03  6.020627E+04 -1.540951E-11  8.790082E-11
       236  15  2.672164E+05  7.024389E+01  2.508426E+03  6.600885E+04  1.605164E-10  1.647705E-10
       236  16  1.108025E+05 -3.538490E+04 -2.159176E+04  6.538617E+04  4.901121E-11 -6.734854E-12
       236  17  1.689571E+05 -2.255532E+04 -1.287874E+04  5.994028E+04 -4.646217E-11 -1.887203E-11
       236  18  2.272800E+05 -9.192268E+03 -3.879107E+03  6.609958E+04  3.454974E-10  1.282361E-10
       236  19  4.236461E+05  3.780551E+04  3.160987E+04  6.663148E+04  2.108253E+03  9.994208E+03
       236  20  3.650843E+05  2.307043E+04  1.918169E+04  6.047233E+04  5.017652E+03  6.783148E+03
       236  21  3.071544E+05  9.332702E+03  8.896050E+03  6.591813E+04  7.927015E+03  2.876168E+03
       236  22  2.672123E+05  1.211006E+03  5.009566E+03  6.600871E+04 -3.391826E+03  9.993765E+03
       236  23  2.670160E+05  2.578261E+02  3.151641E+03  6.020626E+04 -1.819335E+03  6.782337E+03
       236  24  2.672164E+05  7.025278E+01  2.508441E+03  6.600884E+04 -2.466222E+02  2.874934E+03
       236  25  1.108026E+05 -3.538477E+04 -2.159143E+04  6.538610E+04 -8.890564E+03  9.993332E+03
       236  26  1.689572E+05 -2.255525E+04 -1.287851E+04  5.994023E+04 -8.655280E+03  6.781532E+03
       236  27  2.272801E+05 -9.192241E+03 -3.878958E+03  6.609956E+04 -8.419753E+03  2.873697E+03
       237   1  2.700427E+05  6.914751E+02  2.773910E+03  6.609897E+04 -8.354518E+03 -3.460519E+02
       237   2  2.117073E+05 -1.266865E+04 -6.210874E+03  5.994603E+04 -8.773155E+03  3.614193E+03
       237   3  1.535683E+05 -2.547835E+04 -1.478559E+04  6.540482E+04 -9.191625E+03  6.988783E+03
       237   4  2.672146E+05  7.082434E+01  2.497929E+03  6.601031E+04 -1.860723E+02 -3.447826E+02
       237   5  2.670197E+05  2.519233E+02  3.094050E+03  6.020443E+04 -1.729971E+03  3.615158E+03
       237   6  2.672122E+05  1.178582E+03  4.880946E+03  6.601017E+04 -3.273723E+03  6.989473E+03
       237   7  2.643866E+05 -5.497909E+02  2.222200E+03  6.592165E+04  7.982339E+03 -3.435157E+02
       237   8  3.223353E+05  1.317237E+04  1.239906E+04  6.046286E+04  5.313820E+03  3.616129E+03
       237   9  3.808687E+05  2.783484E+04  2.454717E+04  6.661564E+04  2.645229E+03  6.990175E+03
       237  10  2.700426E+05  6.914562E+02  2.773778E+03  6.609896E+04 -2.119120E-11  3.513089E-11
       237  11  2.117072E+05 -1.266869E+04 -6.211043E+03  5.994606E+04  9.386547E-11  1.677336E-10
       237  12  1.535682E+05 -2.547843E+04 -1.478584E+04  6.540487E+04  1.036989E-10  1.177989E-11
       237  13  2.672146E+05  7.082420E+01  2.497929E+03  6.601031E+04  1.472593E-10  3.054876E-11
       237  14  2.670197E+05  2.519085E+02  3.094020E+03  6.020444E+04  2.453169E-10 -3.339250E-11
       237  15  2.672121E+05  1.178527E+03  4.880834E+03  6.601019E+04  3.296645E-10  7.785607E-11
       237  16  2.643865E+05 -5.498081E+02  2.222080E+03  6.592165E+04  3.943216E-10  9.022692E-11
       237  17  3.223352E+05  1.317235E+04  1.239899E+04  6.046285E+04  1.045987E-10  3.178483E-11
       237  18  3.808687E+05  2.783479E+04  2.454706E+04  6.661562E+04 -2.727973E-11  2.729645E-11
       237  19  2.700427E+05  6.914751E+02  2.773910E+03  6.609897E+04  8.354518E+03  3.460519E+02
       237  20  2.117073E+05 -1.266865E+04 -6.210874E+03  5.994603E+04  8.773155E+03 -3.614193E+03
       237  21  1.535683E+05 -2.547835E+04 -1.478559E+04  6.540482E+04  9.191625E+03 -6.988783E+03
       237  22  2.672146E+05  7.082434E+01  2.497929E+03  6.601031E+04  1.860723E+02  3.447826E+02
       237  23  2.670197E+05  2.519233E+02  3.094050E+03  6.020443E+04  1.729971E+03 -3.615158E+03
       237  24  2.672122E+05  1.178582E+03  4.880946E+03  6.601017E+04  3.273723E+03 -6.989473E+03
       237  25  2.643866E+05 -5.497909E+02  2.222200E+03  6.592165E+04 -7.982339E+03  3.435157E+02
       237  26  3.223353E+05  1.317237E+04  1.239906E+04  6.046286E+04 -5.313820E+03 -3.616129E+03
       237  27  3.808687E+05  2.783484E+04  2.454717E+04  6.661564E+04 -2.645229E+03 -6.990175E+03
       238   1  1.168434E+05 -3.420707E+04 -2.014639E+04  6.640057E+04 -1.032893E+04  9.069813E+03
       238   2  5.790062E+04 -4.416183E+04 -2.945347E+04  5.389546E+04 -3.979211E+03  9.168639E+03
       238   3  2.645255E+02 -4.561346E+04 -4.076752E+04  5.257649E+04  2.369600E+03  2.981366E+03
       238   4  2.678796E+05  1.276008E+03  6.265411E+03  6.591547E+04 -4.106733E+03  9.070403E+03
       238   5  2.661752E+05  5.606435E+03  1.114474E+04  6.032210E+04 -9.827900E+03  9.167837E+03
       238   6  2.678691E+05  2.053366E+04  2.239737E+04  6.591421E+04 -1.554962E+04  2.980281E+03
       238   7  4.189381E+05  3.675786E+04  3.267654E+04  6.543024E+04  2.116931E+03  9.070983E+03
       238   8  4.744916E+05  5.537227E+04  5.174103E+04  6.675095E+04 -1.567851E+04  9.166913E+03
       238   9  5.355405E+05  8.667650E+04  8.555863E+04  7.925770E+04 -3.347651E+04  2.978427E+03
       238  10  1.168433E+05 -3.420718E+04 -2.014674E+04  6.640064E+04  1.262337E-10  1.823878E-11
       238  11  5.790058E+04 -4.416193E+04 -2.945366E+04  5.389549E+04 -8.927239E-11 -9.480854E-12
       238  12  2.645171E+02 -4.561348E+04 -4.076755E+04  5.257649E+04 -8.165403E-11 -1.442917E-11
       238  13  2.678795E+05  1.275915E+03  6.265225E+03  6.591550E+04  2.380362E-10  1.015505E-10
       238  14  2.661751E+05  5.606319E+03  1.114440E+04  6.032217E+04  2.074504E-10  7.473355E-11
       238  15  2.678688E+05  2.053359E+04  2.239690E+04  6.591425E+04  4.591750E-11 -2.350289E-12
       238  16  4.189381E+05  3.675777E+04  3.267638E+04  6.543023E+04  1.431040E-10  5.423278E-11
       238  17  4.744913E+05  5.537212E+04  5.174041E+04  6.675106E+04  2.319118E-10  3.305310E-11
       238  18  5.355393E+05  8.667619E+04  8.555650E+04  7.925778E+04  2.158017E-11  9.360291E-13
       238  19  1.168434E+05 -3.420707E+04 -2.014639E+04  6.640057E+04  1.032893E+04 -9.069813E+03
       238  20  5.790062E+04 -4.416183E+04 -2.945347E+04  5.389546E+04  3.979211E+03 -9.168639E+03
       238  21  2.645255E+02 -4.561346E+04 -4.076752E+04  5.257649E+04 -2.369600E+03 -2.981366E+03
       238  22  2.678796E+05  1.276008E+03  6.265411E+03  6.591547E+04  4.106733E+03 -9.070403E+03
       238  23  2.661752E+05  5.606435E+03  1.114474E+04  6.032210E+04  9.827900E+03 -9.167837E+03
       238  24  2.678691E+05  2.053366E+04  2.239737E+04  6.591421E+04  1.554962E+04 -2.980281E+03
       238  25  4.189381E+05  3.675786E+04  3.267654E+04  6.543024E+04 -2.116931E+03 -9.070983E+03
       238  26  4.744916E+05  5.537227E+04  5.174103E+04  6.675095E+04  1.567851E+04 -9.166913E+03
       238  27  5.355405E+05  8.667650E+04  8.555863E+04  7.925770E+04  3.347651E+04 -2.978427E+03
       239   1 -1.452876E+05 -5.152715E+05 -1.496331E+05  1.415535E+05 -2.788737E+03 -7.281054E+04
       239   2 -6.816127E+04 -4.262667E+05 -8.162725E+04  1.080929E+05 -7.970375E+03 -3.841355E+04
       239   3 -3.251831E+04 -3.521122E+05 -4.639883E+04  9.044470E+04 -6.482507E+03 -4.011659E+03
       239   4 -7.585549E+04 -2.347796E+05 -8.293901E+04  9.225795E+04 -2.778644E+03 -5.645573E+04
       239   5 -2.069514E+04 -2.284557E+05 -4.210460E+04  8.434132E+04 -7.967691E+03 -3.485223E+04
       239   6 -4.789548E+03 -2.347609E+05 -2.515180E+04  9.224100E+04 -6.485377E+03 -1.324891E+04
       239   7 -6.419738E+03  4.579039E+04 -1.624808E+04  4.293999E+04 -2.771153E+03 -4.009355E+04
       239   8  2.677071E+04 -3.060596E+04 -2.583580E+03  6.058203E+04 -7.965279E+03 -3.128979E+04
       239   9  2.293850E+04 -1.173959E+05 -3.904998E+03  9.403765E+04 -6.488299E+03 -2.248786E+04
       239  10 -1.452890E+05 -5.152772E+05 -1.496431E+05  1.415533E+05 -1.221114E-10 -4.330305E-10
       239  11 -6.816173E+04 -4.262683E+05 -8.163014E+04  1.080926E+05 -3.859012E-11  1.693320E-10
       239  12 -3.251836E+04 -3.521122E+05 -4.639894E+04  9.044468E+04 -1.626268E-10  7.304378E-10
       239  13 -7.585635E+04 -2.347830E+05 -8.294502E+04  9.225783E+04 -1.136736E-11  1.741519E-11
       239  14 -2.069554E+04 -2.284570E+05 -4.210701E+04  8.434110E+04 -1.541067E-10 -9.792255E-11
       239  15 -4.789640E+03 -2.347611E+05 -2.515221E+04  9.224093E+04 -4.355949E-11 -5.590941E-11
       239  16 -6.420177E+03  4.578867E+04 -1.625111E+04  4.293990E+04  1.067859E-11  4.207750E-10
       239  17  2.677038E+04 -3.060703E+04 -2.585539E+03  6.058183E+04 -4.778864E-10 -2.418353E-10
       239  18  2.293832E+04 -1.173965E+05 -3.906028E+03  9.403753E+04 -4.445147E-11 -7.789555E-10
       239  19 -1.452876E+05 -5.152715E+05 -1.496331E+05  1.415535E+05  2.788737E+03  7.281054E+04
       239  20 -6.816127E+04 -4.262667E+05 -8.162725E+04  1.080929E+05  7.970375E+03  3.841355E+04
       239  21 -3.251831E+04 -3.521122E+05 -4.639883E+04  9.044470E+04  6.482507E+03  4.011659E+03
       239  22 -7.585549E+04 -2.347796E+05 -8.293901E+04  9.225795E+04  2.778644E+03  5.645573E+04
       239  23 -2.069514E+04 -2.284557E+05 -4.210460E+04  8.434132E+04  7.967691E+03  3.485223E+04
       239  24 -4.789548E+03 -2.347609E+05 -2.515180E+04  9.224100E+04  6.485377E+03  1.324891E+04
       239  25 -6.419738E+03  4.579039E+04 -1.624808E+04  4.293999E+04  2.771153E+03  4.009355E+04
       239  26  2.677071E+04 -3.060596E+04 -2.583580E+03  6.058203E+04  7.965279E+03  3.128979E+04
       239  27  2.293850E+04 -1.173959E+05 -3.904998E+03  9.403765E+04  6.488299E+03  2.248786E+04
       240   1 -1.983071E+04 -2.975349E+05 -3.275717E+04  9.481462E+04 -3.439615E+03 -8.334807E+02
       240   2  2.126513E+03 -2.148846E+05 -1.383517E+04  8.435897E+04  1.183936E+03  7.248345E+03
       240   3  1.940989E+04 -1.344545E+05 -1.346883E+03  9.012992E+04  5.730575E+03  1.533124E+04
       240   4 -4.417171E+03 -2.324537E+05 -2.078099E+04  9.233343E+04 -3.442528E+03 -9.776908E+03
       240   5 -1.690066E+03 -2.313279E+05 -1.647018E+04  8.421985E+04  1.181119E+03 -1.547743E+03
       240   6 -3.662091E+03 -2.324545E+05 -1.869519E+04  9.233323E+04  5.727905E+03  6.681493E+03
       240   7  1.099620E+04 -1.673682E+05 -8.804682E+03  8.985196E+04 -3.445370E+03 -1.872125E+04
       240   8 -5.506617E+03 -2.477708E+05 -1.910490E+04  8.408074E+04  1.178306E+03 -1.034361E+04
       240   9 -2.673454E+04 -3.304448E+05 -3.604357E+04  9.453617E+04  5.725173E+03 -1.966923E+03
       240  10 -1.983073E+04 -2.975349E+05 -3.275719E+04  9.481462E+04  1.445468E-11 -3.372761E-10
       240  11  2.126497E+03 -2.148846E+05 -1.383527E+04  8.435896E+04 -2.373736E-10 -9.718765E-11
       240  12  1.940979E+04 -1.344548E+05 -1.347386E+03  9.012985E+04 -2.096727E-12  5.381908E-11
       240  13 -4.417209E+03 -2.324538E+05 -2.078119E+04  9.233340E+04  1.139682E-10 -3.787002E-11
       240  14 -1.690068E+03 -2.313279E+05 -1.647018E+04  8.421985E+04  3.596134E-10 -1.991946E-10
       240  15 -3.662138E+03 -2.324545E+05 -1.869534E+04  9.233320E+04  1.713125E-10  4.482937E-11
       240  16  1.099609E+04 -1.673686E+05 -8.805363E+03  8.985191E+04  1.182940E-10  2.836885E-10
       240  17 -5.506648E+03 -2.477709E+05 -1.910510E+04  8.408074E+04  3.705943E-10  1.254840E-11
       240  18 -2.673458E+04 -3.304448E+05 -3.604364E+04  9.453618E+04  1.441381E-11 -3.425801E-11
       240  19 -1.983071E+04 -2.975349E+05 -3.275717E+04  9.481462E+04  3.439615E+03  8.334807E+02
       240  20  2.126513E+03 -2.148846E+05 -1.383517E+04  8.435897E+04 -1.183936E+03 -7.248345E+03
       240  21  1.940989E+04 -1.344545E+05 -1.346883E+03  9.012992E+04 -5.730575E+03 -1.533124E+04
       240  22 -4.417171E+03 -2.324537E+05 -2.078099E+04  9.233343E+04  3.442528E+03  9.776908E+03
       240  23 -1.690066E+03 -2.313279E+05 -1.647018E+04  8.421985E+04 -1.181119E+03  1.547743E+03
       240  24 -3.662091E+03 -2.324545E+05 -1.869519E+04  9.233323E+04 -5.727905E+03 -6.681493E+03
       240  25  1.099620E+04 -1.673682E+05 -8.804682E+03  8.985196E+04  3.445370E+03  1.872125E+04
       240  26 -5.506617E+03 -2.477708E+05 -1.910490E+04  8.408074E+04 -1.178306E+03  1.034361E+04
       240  27 -2.673454E+04 -3.304448E+05 -3.604357E+04  9.453617E+04 -5.725173E+03  1.966923E+03
       241   1  3.143427E+04 -8.395642E+04  4.845202E+03  9.365053E+04  8.714343E+03  1.875894E+04
       241   2  3.823308E+04  1.615368E+03  1.040053E+04  6.475839E+04  9.690972E+03  2.258633E+04
       241   3  1.517747E+04  7.923422E+04  6.000692E+03  5.162370E+04  3.264659E+03  2.641487E+04
       241   4 -3.975615E+03 -2.342740E+05 -2.185623E+04  9.222860E+04  8.711679E+03  9.775467E+03
       241   5 -1.701220E+04 -2.290678E+05 -3.516930E+04  8.435538E+04  9.693386E+03  2.781124E+04
       241   6 -6.237816E+04 -2.342929E+05 -6.830956E+04  9.224199E+04  3.271142E+03  4.584718E+04
       241   7 -3.938669E+04 -3.845693E+05 -4.855821E+04  9.080702E+04  8.709056E+03  7.941058E+02
       241   8 -7.225925E+04 -4.596991E+05 -8.074143E+04  1.039449E+05  9.696130E+03  3.303425E+04
       241   9 -1.399344E+05 -5.477254E+05 -1.426244E+05  1.328396E+05  3.280171E+03  6.526971E+04
       241  10  3.143409E+04 -8.395682E+04  4.844398E+03  9.365039E+04 -1.762404E-12 -1.826226E-10
       241  11  3.823284E+04  1.614795E+03  1.039940E+04  6.475821E+04 -1.334948E-10  2.360700E-11
       241  12  1.517727E+04  7.923347E+04  5.999361E+03  5.162363E+04 -9.890863E-11  2.637572E-10
       241  13 -3.975722E+03 -2.342741E+05 -2.185655E+04  9.222853E+04 -2.140682E-10  1.765307E-11
       241  14 -1.701251E+04 -2.290686E+05 -3.517093E+04  8.435517E+04 -3.021818E-10  1.799625E-11
       241  15 -6.237874E+04 -2.342952E+05 -6.831354E+04  9.224187E+04 -2.955162E-11  6.718606E-11
       241  16 -3.938677E+04 -3.845693E+05 -4.855835E+04  9.080701E+04 -1.523600E-10  1.759046E-10
       241  17 -7.225964E+04 -4.597003E+05 -8.074366E+04  1.039447E+05 -2.816365E-10  1.691684E-11
       241  18 -1.399356E+05 -5.477300E+05 -1.426324E+05  1.328395E+05 -8.763697E-11 -3.069808E-10
       241  19  3.143427E+04 -8.395642E+04  4.845202E+03  9.365053E+04 -8.714343E+03 -1.875894E+04
       241  20  3.823308E+04  1.615368E+03  1.040053E+04  6.475839E+04 -9.690972E+03 -2.258633E+04
       241  21  1.517747E+04  7.923422E+04  6.000692E+03  5.162370E+04 -3.264659E+03 -2.641487E+04
       241  22 -3.975615E+03 -2.342740E+05 -2.185623E+04  9.222860E+04 -8.711679E+03 -9.775467E+03
       241  23 -1.701220E+04 -2.290678E+05 -3.516930E+04  8.435538E+04 -9.693386E+03 -2.781124E+04
       241  24 -6.237816E+04 -2.342929E+05 -6.830956E+04  9.224199E+04 -3.271142E+03 -4.584718E+04
       241  25 -3.938669E+04 -3.845693E+05 -4.855821E+04  9.080702E+04 -8.709056E+03 -7.941058E+02
       241  26 -7.225925E+04 -4.596991E+05 -8.074143E+04  1.039449E+05 -9.696130E+03 -3.303425E+04
       241  27 -1.399344E+05 -5.477254E+05 -1.426244E+05  1.328396E+05 -3.280171E+03 -6.526971E+04
       242   1  2.580910E+05  2.057118E+05  5.337640E+04  1.838010E+05  3.217114E+04  2.448057E+04
       242   2  2.640652E+05  1.657770E+05  2.568652E+04  1.989050E+05  2.069008E+04  1.652912E+04
       242   3  2.874583E+05  1.455715E+05  1.414494E+04  2.042497E+05  9.624577E+03  8.023680E+03
       242   4  3.135655E+05  1.862687E+05  6.023959E+04  1.841913E+05  3.351701E+04  2.548682E+04
       242   5  2.954168E+05  1.597016E+05  2.976587E+04  2.015132E+05  2.096885E+04  1.673723E+04
       242   6  2.949171E+05  1.530929E+05  1.636482E+04  2.090763E+05  8.836818E+03  7.433044E+03
       242   7  3.690445E+05  1.668287E+05  6.710327E+04  1.845805E+05  3.486303E+04  2.649295E+04
       242   8  3.267697E+05  1.536269E+05  3.384530E+04  2.041212E+05  2.124764E+04  1.694533E+04
       242   9  3.023759E+05  1.606144E+05  1.858469E+04  2.139029E+05  8.049048E+03  6.842394E+03
       242  10  2.580897E+05  2.057108E+05  5.337333E+04  1.838004E+05 -2.136236E-10 -5.740677E-11
       242  11  2.640647E+05  1.657766E+05  2.568520E+04  1.989047E+05  6.235345E-11  1.359463E-10
       242  12  2.874582E+05  1.455714E+05  1.414464E+04  2.042496E+05  3.968030E-10  1.545222E-10
       242  13  3.135641E+05  1.862677E+05  6.023626E+04  1.841906E+05  3.494759E-11  1.535940E-11
       242  14  2.954163E+05  1.597012E+05  2.976452E+04  2.015130E+05 -2.397716E-10  1.414996E-11
       242  15  2.949170E+05  1.530928E+05  1.636457E+04  2.090762E+05 -3.956863E-11 -7.194951E-11
       242  16  3.690430E+05  1.668277E+05  6.709967E+04  1.845797E+05 -5.325348E-11  1.023648E-10
       242  17  3.267691E+05  1.536264E+05  3.384392E+04  2.041210E+05 -2.006621E-10 -4.688238E-11
       242  18  3.023758E+05  1.606143E+05  1.858448E+04  2.139028E+05 -1.530978E-10 -2.261962E-10
       242  19  2.580910E+05  2.057118E+05  5.337640E+04  1.838010E+05 -3.217114E+04 -2.448057E+04
       242  20  2.640652E+05  1.657770E+05  2.568652E+04  1.989050E+05 -2.069008E+04 -1.652912E+04
       242  21  2.874583E+05  1.455715E+05  1.414494E+04  2.042497E+05 -9.624577E+03 -8.023680E+03
       242  22  3.135655E+05  1.862687E+05  6.023959E+04  1.841913E+05 -3.351701E+04 -2.548682E+04
       242  23  2.954168E+05  1.597016E+05  2.976587E+04  2.015132E+05 -2.096885E+04 -1.673723E+04
       242  24  2.949171E+05  1.530929E+05  1.636482E+04  2.090763E+05 -8.836818E+03 -7.433044E+03
       242  25  3.690445E+05  1.668287E+05  6.710327E+04  1.845805E+05 -3.486303E+04 -2.649295E+04
       242  26  3.267697E+05  1.536269E+05  3.384530E+04  2.041212E+05 -2.124764E+04 -1.694533E+04
       242  27  3.023759E+05  1.606144E+05  1.858469E+04  2.139029E+05 -8.049048E+03 -6.842394E+03
       243   1  2.873003E+05  1.502761E+05  1.117751E+04  2.062886E+05  8.080656E+03  6.466730E+03
       243   2  2.922554E+05  1.527051E+05  7.255832E+03  2.103320E+05  5.672023E+03  3.997419E+03
       243   3  3.000697E+05  1.550478E+05  6.018032E+03  2.134487E+05  3.306201E+03  1.470855E+03
       243   4  2.936685E+05  1.522594E+05  1.245564E+04  2.083273E+05  7.320066E+03  5.896399E+03
       243   5  2.916645E+05  1.512896E+05  7.100065E+03  2.095418E+05  4.801469E+03  3.344653E+03
       243   6  2.925433E+05  1.502572E+05  4.523587E+03  2.098295E+05  2.325773E+03  7.357180E+02
       243   7  3.000368E+05  1.542428E+05  1.373380E+04  2.103660E+05  6.559450E+03  5.326053E+03
       243   8  2.910736E+05  1.498741E+05  6.944303E+03  2.087516E+05  3.930915E+03  2.691891E+03
       243   9  2.850171E+05  1.454667E+05  3.029197E+03  2.062105E+05  1.345381E+03  6.063296E-01
       243  10  2.873002E+05  1.502761E+05  1.117731E+04  2.062886E+05  4.581203E-11 -2.336582E-10
       243  11  2.922554E+05  1.527051E+05  7.255741E+03  2.103319E+05 -2.400188E-10 -8.620494E-11
       243  12  3.000697E+05  1.550478E+05  6.018008E+03  2.134487E+05 -3.284116E-10  1.321376E-10
       243  13  2.936684E+05  1.522594E+05  1.245547E+04  2.083272E+05  1.368828E-10 -7.730995E-11
       243  14  2.916645E+05  1.512896E+05  7.100001E+03  2.095418E+05 -5.413782E-11  1.147871E-10
       243  15  2.925433E+05  1.502572E+05  4.523576E+03  2.098295E+05  8.841479E-11  1.799603E-10
       243  16  3.000368E+05  1.542427E+05  1.373367E+04  2.103660E+05  2.830386E-10  1.747022E-10
       243  17  2.910736E+05  1.498741E+05  6.944261E+03  2.087516E+05  1.864241E-10  1.484530E-10
       243  18  2.850171E+05  1.454667E+05  3.029193E+03  2.062105E+05  1.796662E-10  2.495860E-10
       243  19  2.873003E+05  1.502761E+05  1.117751E+04  2.062886E+05 -8.080656E+03 -6.466730E+03
       243  20  2.922554E+05  1.527051E+05  7.255832E+03  2.103320E+05 -5.672023E+03 -3.997419E+03
       243  21  3.000697E+05  1.550478E+05  6.018032E+03  2.134487E+05 -3.306201E+03 -1.470855E+03
       243  22  2.936685E+05  1.522594E+05  1.245564E+04  2.083273E+05 -7.320066E+03 -5.896399E+03
       243  23  2.916645E+05  1.512896E+05  7.100065E+03  2.095418E+05 -4.801469E+03 -3.344653E+03
       243  24  2.925433E+05  1.502572E+05  4.523587E+03  2.098295E+05 -2.325773E+03 -7.357180E+02
       243  25  3.000368E+05  1.542428E+05  1.373380E+04  2.103660E+05 -6.559450E+03 -5.326053E+03
       243  26  2.910736E+05  1.498741E+05  6.944303E+03  2.087516E+05 -3.930915E+03 -2.691891E+03
       243  27  2.850171E+05  1.454667E+05  3.029197E+03  2.062105E+05 -1.345381E+03 -6.063296E-01
       244   1  3.035758E+05  1.579700E+05  6.199676E+03  2.154184E+05  2.945693E+03  7.326280E+02
       244   2  3.086710E+05  1.629356E+05  6.985041E+03  2.187460E+05  1.989968E+03 -7.723034E+02
       244   3  3.156431E+05  1.665487E+05  8.916897E+03  2.216195E+05  1.027261E+03 -2.267938E+03
       244   4  2.924513E+05  1.502053E+05  3.840605E+03  2.097578E+05  1.967329E+03 -9.637626E-01
       244   5  2.915158E+05  1.508852E+05  3.320438E+03  2.099837E+05  1.029522E+03 -1.492475E+03
       244   6  2.924532E+05  1.502086E+05  3.931237E+03  2.097554E+05  8.473679E+01 -2.974688E+03
       244   7  2.813270E+05  1.424407E+05  1.481531E+03  2.040974E+05  9.889884E+02 -7.345387E+02
       244   8  2.743608E+05  1.388348E+05 -3.442380E+02  2.012216E+05  6.910003E+01 -2.212628E+03
       244   9  2.692635E+05  1.338686E+05 -1.054611E+03  1.978916E+05 -8.577606E+02 -3.681418E+03
       244  10  3.035758E+05  1.579700E+05  6.199658E+03  2.154184E+05  1.688733E-10  4.228059E-10
       244  11  3.086710E+05  1.629356E+05  6.985033E+03  2.187460E+05  2.287700E-10  2.063490E-10
       244  12  3.156431E+05  1.665487E+05  8.916885E+03  2.216195E+05  3.769054E-10  8.921720E-12
       244  13  2.924513E+05  1.502053E+05  3.840597E+03  2.097578E+05 -1.539314E-10  1.257786E-10
       244  14  2.915158E+05  1.508851E+05  3.320432E+03  2.099837E+05  1.195936E-10 -6.411444E-12
       244  15  2.924532E+05  1.502086E+05  3.931221E+03  2.097554E+05  9.795461E-11 -1.489502E-10
       244  16  2.813270E+05  1.424407E+05  1.481528E+03  2.040974E+05 -1.583891E-10 -4.394805E-11
       244  17  2.743608E+05  1.388348E+05 -3.442472E+02  2.012216E+05 -3.014869E-10 -1.467760E-10
       244  18  2.692635E+05  1.338686E+05 -1.054638E+03  1.978916E+05  3.693824E-11 -3.266036E-10
       244  19  3.035758E+05  1.579700E+05  6.199676E+03  2.154184E+05 -2.945693E+03 -7.326280E+02
       244  20  3.086710E+05  1.629356E+05  6.985041E+03  2.187460E+05 -1.989968E+03  7.723034E+02
       244  21  3.156431E+05  1.665487E+05  8.916897E+03  2.216195E+05 -1.027261E+03  2.267938E+03
       244  22  2.924513E+05  1.502053E+05  3.840605E+03  2.097578E+05 -1.967329E+03  9.637626E-01
       244  23  2.915158E+05  1.508852E+05  3.320438E+03  2.099837E+05 -1.029522E+03  1.492475E+03
       244  24  2.924532E+05  1.502086E+05  3.931237E+03  2.097554E+05 -8.473679E+01  2.974688E+03
       244  25  2.813270E+05  1.424407E+05  1.481531E+03  2.040974E+05 -9.889884E+02  7.345387E+02
       244  26  2.743608E+05  1.388348E+05 -3.442380E+02  2.012216E+05 -6.910003E+01  2.212628E+03
       244  27  2.692635E+05  1.338686E+05 -1.054611E+03  1.978916E+05  8.577606E+02  3.681418E+03
       245   1  3.193365E+05  1.695957E+05  1.053185E+04  2.237437E+05  6.546521E+02 -3.004212E+03
       245   2  3.254349E+05  1.739745E+05  1.468868E+04  2.262351E+05 -2.266221E+03 -5.852036E+03
       245   3  3.345283E+05  1.784290E+05  2.198655E+04  2.277793E+05 -5.297132E+03 -8.553065E+03
       245   4  2.925489E+05  1.502644E+05  4.667616E+03  2.098322E+05 -2.949653E+02 -3.716290E+03
       245   5  2.916704E+05  1.513042E+05  7.393590E+03  2.095200E+05 -2.933663E+03 -6.352549E+03
       245   6  2.937258E+05  1.523587E+05  1.301606E+04  2.082607E+05 -5.682386E+03 -8.842015E+03
       245   7  2.657627E+05  1.309340E+05 -1.196447E+03  1.959216E+05 -1.244509E+03 -4.428311E+03
       245   8  2.579076E+05  1.286348E+05  9.857725E+01  1.928061E+05 -3.601050E+03 -6.853022E+03
       245   9  2.529252E+05  1.262893E+05  4.045488E+03  1.887435E+05 -6.067606E+03 -9.130943E+03
       245  10  3.193365E+05  1.695957E+05  1.053183E+04  2.237437E+05  1.690191E-10 -3.171250E-10
       245  11  3.254349E+05  1.739745E+05  1.468860E+04  2.262351E+05  3.586145E-10 -3.654910E-11
       245  12  3.345282E+05  1.784289E+05  2.198636E+04  2.277793E+05  5.304253E-10 -2.386634E-11
       245  13  2.925489E+05  1.502644E+05  4.667590E+03  2.098322E+05 -3.844829E-11 -1.445186E-10
       245  14  2.916704E+05  1.513042E+05  7.393498E+03  2.095199E+05 -3.618937E-10 -5.432180E-11
       245  15  2.937257E+05  1.523586E+05  1.301585E+04  2.082607E+05  9.419509E-11 -5.035769E-11
       245  16  2.657627E+05  1.309340E+05 -1.196486E+03  1.959216E+05  1.485324E-10  1.277197E-11
       245  17  2.579075E+05  1.286348E+05  9.846468E+01  1.928060E+05 -1.256779E-10 -3.158211E-11
       245  18  2.529252E+05  1.262892E+05  4.045262E+03  1.887435E+05 -3.197294E-10 -1.938132E-10
       245  19  3.193365E+05  1.695957E+05  1.053185E+04  2.237437E+05 -6.546521E+02  3.004212E+03
       245  20  3.254349E+05  1.739745E+05  1.468868E+04  2.262351E+05  2.266221E+03  5.852036E+03
       245  21  3.345283E+05  1.784290E+05  2.198655E+04  2.277793E+05  5.297132E+03  8.553065E+03
       245  22  2.925489E+05  1.502644E+05  4.667616E+03  2.098322E+05  2.949653E+02  3.716290E+03
       245  23  2.916704E+05  1.513042E+05  7.393590E+03  2.095200E+05  2.933663E+03  6.352549E+03
       245  24  2.937258E+05  1.523587E+05  1.301606E+04  2.082607E+05  5.682386E+03  8.842015E+03
       245  25  2.657627E+05  1.309340E+05 -1.196447E+03  1.959216E+05  1.244509E+03  4.428311E+03
       245  26  2.579076E+05  1.286348E+05  9.857725E+01  1.928061E+05  3.601050E+03  6.853022E+03
       245  27  2.529252E+05  1.262893E+05  4.045488E+03  1.887435E+05  6.067606E+03  9.130943E+03
       246   1  3.368385E+05  1.850349E+05  2.716085E+04  2.314069E+05 -6.879541E+03 -1.002081E+04
       246   2  3.621225E+05  1.774874E+05  4.394390E+04  2.208660E+05 -2.269921E+04 -2.116445E+04
       246   3  4.063143E+05  1.915555E+05  8.091444E+04  2.001529E+05 -3.956408E+04 -3.091572E+04
       246   4  2.950187E+05  1.532457E+05  1.711358E+04  2.090495E+05 -7.332955E+03 -1.036082E+04
       246   5  2.956147E+05  1.600888E+05  3.114833E+04  2.011118E+05 -2.047692E+04 -1.949915E+04
       246   6  3.145379E+05  1.879684E+05  6.305070E+04  1.830021E+05 -3.466479E+04 -2.724555E+04
       246   7  2.532002E+05  1.214570E+05  7.065884E+03  1.866934E+05 -7.786337E+03 -1.070080E+04
       246   8  2.291125E+05  1.426907E+05  1.835276E+04  1.813590E+05 -1.825497E+04 -1.783390E+04
       246   9  2.227749E+05  1.843830E+05  4.518784E+04  1.658521E+05 -2.976663E+04 -2.357532E+04
       246  10  3.368384E+05  1.850348E+05  2.716058E+04  2.314068E+05  2.233762E-10 -2.561141E-10
       246  11  3.621218E+05  1.774868E+05  4.394209E+04  2.208657E+05  1.963074E-10 -5.329020E-11
       246  12  4.063123E+05  1.915541E+05  8.090971E+04  2.001519E+05  8.949889E-11 -4.069598E-11
       246  13  2.950187E+05  1.532455E+05  1.711327E+04  2.090494E+05  3.463867E-10 -8.649269E-11
       246  14  2.956142E+05  1.600883E+05  3.114683E+04  2.011115E+05 -2.823370E-12 -7.789385E-11
       246  15  3.145364E+05  1.879672E+05  6.304705E+04  1.830013E+05 -4.200935E-11 -3.122904E-11
       246  16  2.532001E+05  1.214569E+05  7.065555E+03  1.866933E+05 -2.163624E-11 -3.211269E-11
       246  17  2.291121E+05  1.426903E+05  1.835154E+04  1.813587E+05 -9.541284E-11 -9.337304E-11
       246  18  2.227738E+05  1.843821E+05  4.518513E+04  1.658515E+05 -7.737039E-12 -1.615297E-11
       246  19  3.368385E+05  1.850349E+05  2.716085E+04  2.314069E+05  6.879541E+03  1.002081E+04
       246  20  3.621225E+05  1.774874E+05  4.394390E+04  2.208660E+05  2.269921E+04  2.116445E+04
       246  21  4.063143E+05  1.915555E+05  8.091444E+04  2.001529E+05  3.956408E+04  3.091572E+04
       246  22  2.950187E+05  1.532457E+05  1.711358E+04  2.090495E+05  7.332955E+03  1.036082E+04
       246  23  2.956147E+05  1.600888E+05  3.114833E+04  2.011118E+05  2.047692E+04  1.949915E+04
       246  24  3.145379E+05  1.879684E+05  6.305070E+04  1.830021E+05  3.466479E+04  2.724555E+04
       246  25  2.532002E+05  1.214570E+05  7.065884E+03  1.866934E+05  7.786337E+03  1.070080E+04
       246  26  2.291125E+05  1.426907E+05  1.835276E+04  1.813590E+05  1.825497E+04  1.783390E+04
       246  27  2.227749E+05  1.843830E+05  4.518784E+04  1.658521E+05  2.976663E+04  2.357532E+04
       247   1  4.202479E+05  6.150212E+04  5.982636E+04  5.314628E+04  2.139772E+04 -2.465335E+03
       247   2  3.766433E+05  4.319282E+04  3.783149E+04  4.622397E+04  9.384528E+03 -7.715783E+03
       247   3  3.361369E+05  3.100599E+04  2.518498E+04  4.733498E+04 -2.627411E+03 -7.971470E+03
       247   4  2.062299E+05  8.633295E+03  9.423321E+03  4.753249E+04  6.514239E+03 -2.465978E+03
       247   5  2.055165E+05  2.354331E+03  4.709517E+03  4.351603E+04  4.096918E+03 -7.716266E+03
       247   6  2.062354E+05  5.336504E+02  2.683887E+03  4.753279E+04  1.679954E+03 -7.971271E+03
       247   7 -7.745515E+03 -4.423856E+04 -4.098202E+04  4.192065E+04 -8.364140E+03 -2.466352E+03
       247   8  3.441788E+04 -3.848586E+04 -2.841372E+04  4.080885E+04 -1.189268E+03 -7.716702E+03
       247   9  7.635046E+04 -2.993959E+04 -1.981772E+04  4.773057E+04  5.986445E+03 -7.971069E+03
       247  10  4.202474E+05  6.150199E+04  5.982549E+04  5.314632E+04 -1.883290E-10  1.749835E-11
       247  11  3.766431E+05  4.319273E+04  3.783121E+04  4.622403E+04 -1.145515E-10 -1.105369E-11
       247  12  3.361369E+05  3.100592E+04  2.518485E+04  4.733496E+04  2.233477E-10 -7.957008E-11
       247  13  2.062298E+05  8.633277E+03  9.423230E+03  4.753250E+04  6.313439E-12  2.252866E-11
       247  14  2.055164E+05  2.354262E+03  4.709373E+03  4.351605E+04  2.062694E-11  5.091486E-11
       247  15  2.062354E+05  5.335814E+02  2.683762E+03  4.753281E+04  2.664451E-11 -4.528067E-11
       247  16 -7.745592E+03 -4.423859E+04 -4.098216E+04  4.192063E+04  2.135175E-10  4.155227E-11
       247  17  3.441787E+04 -3.848592E+04 -2.841383E+04  4.080884E+04  1.218421E-11  6.755691E-11
       247  18  7.635040E+04 -2.993967E+04 -1.981791E+04  4.773060E+04 -1.564100E-10 -2.602435E-11
       247  19  4.202479E+05  6.150212E+04  5.982636E+04  5.314628E+04 -2.139772E+04  2.465335E+03
       247  20  3.766433E+05  4.319282E+04  3.783149E+04  4.622397E+04 -9.384528E+03  7.715783E+03
       247  21  3.361369E+05  3.100599E+04  2.518498E+04  4.733498E+04  2.627411E+03  7.971470E+03
       247  22  2.062299E+05  8.633295E+03  9.423321E+03  4.753249E+04 -6.514239E+03  2.465978E+03
       247  23  2.055165E+05  2.354331E+03  4.709517E+03  4.351603E+04 -4.096918E+03  7.716266E+03
       247  24  2.062354E+05  5.336504E+02  2.683887E+03  4.753279E+04 -1.679954E+03  7.971271E+03
       247  25 -7.745515E+03 -4.423856E+04 -4.098202E+04  4.192065E+04  8.364140E+03  2.466352E+03
       247  26  3.441788E+04 -3.848586E+04 -2.841372E+04  4.080885E+04  1.189268E+03  7.716702E+03
       247  27  7.635046E+04 -2.993959E+04 -1.981772E+04  4.773057E+04 -5.986445E+03  7.971069E+03
       248   1  3.088552E+05  2.458181E+04  1.969725E+04  4.787142E+04 -2.745257E+03 -6.511797E+03
       248   2  2.666787E+05  1.426216E+04  1.142340E+04  4.354056E+04 -4.369248E+03 -4.157562E+03
       248   3  2.248365E+05  4.423985E+03  4.326913E+03  4.758158E+04 -5.993211E+03 -1.326925E+03
       248   4  2.059567E+05  4.926609E+02  2.119703E+03  4.760807E+04  1.319208E+03 -6.511519E+03
       248   5  2.058710E+05  1.036174E+02  1.421995E+03  4.342213E+04  6.101658E+02 -4.157109E+03
       248   6  2.059585E+05  3.720508E+01  1.266330E+03  4.760811E+04 -9.896653E+01 -1.326272E+03
       248   7  1.030686E+05 -2.359705E+04 -1.545814E+04  4.734477E+04  5.383021E+03 -6.511245E+03
       248   8  1.450670E+05 -1.405510E+04 -8.579426E+03  4.330372E+04  5.589108E+03 -4.156658E+03
       248   9  1.870808E+05 -4.349575E+03 -1.794133E+03  4.763464E+04  5.795105E+03 -1.325618E+03
       248  10  3.088552E+05  2.458177E+04  1.969716E+04  4.787140E+04  8.084909E-11 -1.336526E-10
       248  11  2.666787E+05  1.426213E+04  1.142333E+04  4.354055E+04 -7.232418E-11  2.211592E-11
       248  12  2.248365E+05  4.423974E+03  4.326843E+03  4.758158E+04 -3.016190E-10  4.327988E-11
       248  13  2.059567E+05  4.926149E+02  2.119620E+03  4.760808E+04  2.524262E-11 -1.152239E-10
       248  14  2.058710E+05  1.035987E+02  1.421961E+03  4.342214E+04 -1.294527E-10 -8.661948E-11
       248  15  2.059585E+05  3.720319E+01  1.266326E+03  4.760811E+04 -1.120898E-10 -8.043561E-11
       248  16  1.030686E+05 -2.359710E+04 -1.545827E+04  4.734480E+04  1.266023E-10 -7.032157E-11
       248  17  1.450670E+05 -1.405513E+04 -8.579517E+03  4.330373E+04  1.566764E-11 -2.242551E-10
       248  18  1.870808E+05 -4.349586E+03 -1.794200E+03  4.763465E+04  1.967185E-10 -1.083610E-10
       248  19  3.088552E+05  2.458181E+04  1.969725E+04  4.787142E+04  2.745257E+03  6.511797E+03
       248  20  2.666787E+05  1.426216E+04  1.142340E+04  4.354056E+04  4.369248E+03  4.157562E+03
       248  21  2.248365E+05  4.423985E+03  4.326913E+03  4.758158E+04  5.993211E+03  1.326925E+03
       248  22  2.059567E+05  4.926609E+02  2.119703E+03  4.760807E+04 -1.319208E+03  6.511519E+03
       248  23  2.058710E+05  1.036174E+02  1.421995E+03  4.342213E+04 -6.101658E+02  4.157109E+03
       248  24  2.059585E+05  3.720508E+01  1.266330E+03  4.760811E+04  9.896653E+01  1.326272E+03
       248  25  1.030686E+05 -2.359705E+04 -1.545814E+04  4.734477E+04 -5.383021E+03  6.511245E+03
       248  26  1.450670E+05 -1.405510E+04 -8.579426E+03  4.330372E+04 -5.589108E+03  4.156658E+03
       248  27  1.870808E+05 -4.349575E+03 -1.794133E+03  4.763464E+04 -5.795105E+03  1.325618E+03
       249   1  1.980830E+05 -1.810731E+03 -7.727209E+00  4.767534E+04 -6.217116E+03  4.981911E+02
       249   2  1.560337E+05 -1.145476E+04 -6.443121E+03  4.326690E+04 -6.270048E+03  3.342700E+03
       249   3  1.140713E+05 -2.078412E+04 -1.276564E+04  4.723217E+04 -6.322896E+03  5.739109E+03
       249   4  2.059723E+05  3.640966E+01  1.340476E+03  4.760850E+04 -3.242754E+02  4.988515E+02
       249   5  2.058540E+05  1.619621E+02  1.830158E+03  4.342164E+04 -1.237919E+03  3.343181E+03
       249   6  2.059708E+05  7.517677E+02  3.030368E+03  4.760843E+04 -2.151496E+03  5.739430E+03
       249   7  2.138617E+05  1.883565E+03  2.688808E+03  4.754165E+04  5.568638E+03  4.995106E+02
       249   8  2.556768E+05  1.177857E+04  1.010346E+04  4.357640E+04  3.794600E+03  3.343664E+03
       249   9  2.978785E+05  2.228722E+04  1.882615E+04  4.798476E+04  2.020503E+03  5.739755E+03
       249  10  1.980829E+05 -1.810741E+03 -7.800289E+00  4.767535E+04  1.157989E-10  9.160296E-11
       249  11  1.560337E+05 -1.145478E+04 -6.443216E+03  4.326692E+04  1.612837E-10 -5.331238E-11
       249  12  1.140713E+05 -2.078417E+04 -1.276578E+04  4.723219E+04 -1.763819E-10 -1.008380E-10
       249  13  2.059723E+05  3.640937E+01  1.340475E+03  4.760850E+04  8.415558E-12 -2.319826E-13
       249  14  2.058540E+05  1.619497E+02  1.830134E+03  4.342165E+04  1.751424E-10 -2.276831E-11
       249  15  2.059707E+05  7.517311E+02  3.030297E+03  4.760844E+04  8.075399E-11  1.174566E-11
       249  16  2.138617E+05  1.883557E+03  2.688749E+03  4.754165E+04 -1.490162E-10 -1.040704E-10
       249  17  2.556768E+05  1.177855E+04  1.010341E+04  4.357639E+04 -1.958478E-10 -5.305943E-11
       249  18  2.978785E+05  2.228718E+04  1.882608E+04  4.798475E+04  3.049191E-11  5.546927E-12
       249  19  1.980830E+05 -1.810731E+03 -7.727209E+00  4.767534E+04  6.217116E+03 -4.981911E+02
       249  20  1.560337E+05 -1.145476E+04 -6.443121E+03  4.326690E+04  6.270048E+03 -3.342700E+03
       249  21  1.140713E+05 -2.078412E+04 -1.276564E+04  4.723217E+04  6.322896E+03 -5.739109E+03
       249  22  2.059723E+05  3.640966E+01  1.340476E+03  4.760850E+04  3.242754E+02 -4.988515E+02
       249  23  2.058540E+05  1.619621E+02  1.830158E+03  4.342164E+04  1.237919E+03 -3.343181E+03
       249  24  2.059708E+05  7.517677E+02  3.030368E+03  4.760843E+04  2.151496E+03 -5.739430E+03
       249  25  2.138617E+05  1.883565E+03  2.688808E+03  4.754165E+04 -5.568638E+03 -4.995106E+02
       249  26  2.556768E+05  1.177857E+04  1.010346E+04  4.357640E+04 -3.794600E+03 -3.343664E+03
       249  27  2.978785E+05  2.228722E+04  1.882615E+04  4.798476E+04 -2.020503E+03 -5.739755E+03
       250   1  8.751575E+04 -2.709718E+04 -1.675609E+04  4.785316E+04 -7.071681E+03  7.220630E+03
       250   2  4.518075E+04 -3.467325E+04 -2.403570E+04  3.942464E+04 -1.574589E+03  7.137245E+03
       250   3  3.425762E+03 -3.708533E+04 -3.360228E+04  3.904819E+04  3.921862E+03  2.300437E+03
       250   4  2.063980E+05  8.131766E+02  3.932932E+03  4.753688E+04 -2.669702E+03  7.220889E+03
       250   5  2.053141E+05  3.570739E+03  7.070486E+03  4.351076E+04 -6.299933E+03  7.136813E+03
       250   6  2.063923E+05  1.307584E+04  1.425816E+04  4.753635E+04 -9.930456E+03  2.299956E+03
       250   7  3.252941E+05  2.872278E+04  2.462153E+04  4.722054E+04  1.733094E+03  7.221144E+03
       250   8  3.654722E+05  4.181326E+04  3.817555E+04  4.759797E+04 -1.102647E+04  7.136319E+03
       250   9  4.093974E+05  6.323444E+04  6.211653E+04  5.602731E+04 -2.378728E+04  2.299096E+03
       250  10  8.751568E+04 -2.709725E+04 -1.675628E+04  4.785320E+04  1.577400E-10 -1.431252E-11
       250  11  4.518073E+04 -3.467330E+04 -2.403580E+04  3.942464E+04  5.823931E-11  4.327540E-11
       250  12  3.425744E+03 -3.708534E+04 -3.360232E+04  3.904819E+04 -5.137311E-11  2.009294E-11
       250  13  2.063980E+05  8.131186E+02  3.932821E+03  4.753690E+04  6.120387E-11 -3.980083E-11
       250  14  2.053141E+05  3.570674E+03  7.070315E+03  4.351080E+04  3.216102E-11  9.224605E-12
       250  15  2.063922E+05  1.307581E+04  1.425797E+04  4.753637E+04  1.606198E-10  1.798903E-11
       250  16  3.252941E+05  2.872272E+04  2.462143E+04  4.722053E+04  9.908468E-11  7.232578E-11
       250  17  3.654721E+05  4.181318E+04  3.817523E+04  4.759803E+04 -7.629144E-11 -4.739267E-11
       250  18  4.093968E+05  6.323429E+04  6.211546E+04  5.602735E+04  3.495881E-11 -2.006243E-11
       250  19  8.751575E+04 -2.709718E+04 -1.675609E+04  4.785316E+04  7.071681E+03 -7.220630E+03
       250  20  4.518075E+04 -3.467325E+04 -2.403570E+04  3.942464E+04  1.574589E+03 -7.137245E+03
       250  21  3.425762E+03 -3.708533E+04 -3.360228E+04  3.904819E+04 -3.921862E+03 -2.300437E+03
       250  22  2.063980E+05  8.131766E+02  3.932932E+03  4.753688E+04  2.669702E+03 -7.220889E+03
       250  23  2.053141E+05  3.570739E+03  7.070486E+03  4.351076E+04  6.299933E+03 -7.136813E+03
       250  24  2.063923E+05  1.307584E+04  1.425816E+04  4.753635E+04  9.930456E+03 -2.299956E+03
       250  25  3.252941E+05  2.872278E+04  2.462153E+04  4.722054E+04 -1.733094E+03 -7.221144E+03
       250  26  3.654722E+05  4.181326E+04  3.817555E+04  4.759797E+04  1.102647E+04 -7.136319E+03
       250  27  4.093974E+05  6.323444E+04  6.211653E+04  5.602731E+04  2.378728E+04 -2.299096E+03
       251   1 -1.299429E+05 -4.409685E+05 -1.338462E+05  1.254830E+05 -2.504784E+03 -6.506448E+04
       251   2 -6.116527E+04 -3.624219E+05 -7.334260E+04  9.563760E+04 -7.199573E+03 -3.420664E+04
       251   3 -2.953849E+04 -2.971803E+05 -4.222600E+04  7.972103E+04 -5.941581E+03 -3.344717E+03
       251   4 -6.791633E+04 -1.903822E+05 -7.428804E+04  8.131313E+04 -2.497085E+03 -5.033438E+04
       251   5 -1.853313E+04 -1.847138E+05 -3.789062E+04  7.434120E+04 -7.197484E+03 -3.089658E+04
       251   6 -4.312134E+03 -1.903679E+05 -2.294067E+04  8.130122E+04 -5.943610E+03 -1.145876E+04
       251   7 -5.886872E+03  6.026647E+04 -1.473240E+04  3.712533E+04 -2.491486E+03 -3.559836E+04
       251   8  2.409878E+04 -6.974612E+03 -2.439935E+03  5.303858E+04 -7.195623E+03 -2.758560E+04
       251   9  2.091362E+04 -8.354431E+04 -3.655536E+03  8.288169E+04 -5.945680E+03 -1.957415E+04
       251  10 -1.299440E+05 -4.409731E+05 -1.338542E+05  1.254829E+05 -1.146706E-10 -2.722552E-10
       251  11 -6.116564E+04 -3.624232E+05 -7.334489E+04  9.563740E+04 -1.606296E-10  1.995720E-10
       251  12 -2.953853E+04 -2.971803E+05 -4.222608E+04  7.972101E+04 -1.193580E-10  4.834659E-10
       251  13 -6.791702E+04 -1.903849E+05 -7.429282E+04  8.131303E+04  4.136762E-11 -1.587135E-11
       251  14 -1.853344E+04 -1.847149E+05 -3.789251E+04  7.434102E+04 -3.420149E-10  1.112017E-10
       251  15 -4.312208E+03 -1.903681E+05 -2.294098E+04  8.130117E+04  2.088720E-10  1.509692E-10
       251  16 -5.887219E+03  6.026511E+04 -1.473479E+04  3.712526E+04  1.524598E-10  2.444440E-10
       251  17  2.409852E+04 -6.975443E+03 -2.441462E+03  5.303842E+04 -1.291730E-10 -9.457966E-11
       251  18  2.091348E+04 -8.354473E+04 -3.656322E+03  8.288160E+04  2.672179E-10 -4.675589E-10
       251  19 -1.299429E+05 -4.409685E+05 -1.338462E+05  1.254830E+05  2.504784E+03  6.506448E+04
       251  20 -6.116527E+04 -3.624219E+05 -7.334260E+04  9.563760E+04  7.199573E+03  3.420664E+04
       251  21 -2.953849E+04 -2.971803E+05 -4.222600E+04  7.972103E+04  5.941581E+03  3.344717E+03
       251  22 -6.791633E+04 -1.903822E+05 -7.428804E+04  8.131313E+04  2.497085E+03  5.033438E+04
       251  23 -1.853313E+04 -1.847138E+05 -3.789062E+04  7.434120E+04  7.197484E+03  3.089658E+04
       251  24 -4.312134E+03 -1.903679E+05 -2.294067E+04  8.130122E+04  5.943610E+03  1.145876E+04
       251  25 -5.886872E+03  6.026647E+04 -1.473240E+04  3.712533E+04  2.491486E+03  3.559836E+04
       251  26  2.409878E+04 -6.974612E+03 -2.439935E+03  5.303858E+04  7.195623E+03  2.758560E+04
       251  27  2.091362E+04 -8.354431E+04 -3.655536E+03  8.288169E+04  5.945680E+03  1.957415E+04
       252   1 -1.834851E+04 -2.490744E+05 -3.029097E+04  8.366897E+04 -3.266340E+03 -4.126049E+02
       252   2  9.450299E+02 -1.761466E+05 -1.402120E+04  7.426786E+04  7.998714E+02  7.382997E+03
       252   3  1.574579E+04 -1.053558E+05 -3.952423E+03  7.916643E+04  4.814155E+03  1.517948E+04
       252   4 -3.976709E+03 -1.883307E+05 -1.918390E+04  8.138376E+04 -3.268415E+03 -8.263779E+03
       252   5 -1.632241E+03 -1.872513E+05 -1.580062E+04  7.423377E+04  7.978538E+02 -3.687194E+02
       252   6 -3.797594E+03 -1.883312E+05 -1.868727E+04  8.138373E+04  4.812243E+03  7.526378E+03
       252   7  1.039494E+04 -1.275832E+05 -8.076752E+03  7.909832E+04 -3.270431E+03 -1.611570E+04
       252   8 -4.209485E+03 -1.983557E+05 -1.757982E+04  7.419967E+04  7.958371E+02 -8.120302E+03
       252   9 -2.334131E+04 -2.712997E+05 -3.342216E+04  8.360072E+04  4.810276E+03 -1.257305E+02
       252  10 -1.834852E+04 -2.490744E+05 -3.029099E+04  8.366896E+04  1.309423E-10 -4.874030E-11
       252  11  9.450145E+02 -1.761467E+05 -1.402130E+04  7.426786E+04  9.508929E-11  1.500443E-10
       252  12  1.574571E+04 -1.053561E+05 -3.952900E+03  7.916637E+04 -1.753200E-10  5.711467E-11
       252  13 -3.976739E+03 -1.883308E+05 -1.918405E+04  8.138374E+04  2.283947E-10 -1.261780E-11
       252  14 -1.632242E+03 -1.872513E+05 -1.580062E+04  7.423377E+04  7.380748E-11  1.580824E-11
       252  15 -3.797634E+03 -1.883313E+05 -1.868742E+04  8.138370E+04  1.776913E-10  1.543625E-10
       252  16  1.039486E+04 -1.275835E+05 -8.077260E+03  7.909828E+04  2.598360E-10  2.780789E-11
       252  17 -4.209504E+03 -1.983557E+05 -1.757994E+04  7.419968E+04  6.446744E-11 -4.559915E-12
       252  18 -2.334134E+04 -2.712997E+05 -3.342220E+04  8.360072E+04 -1.669399E-11 -4.172540E-11
       252  19 -1.834851E+04 -2.490744E+05 -3.029097E+04  8.366897E+04  3.266340E+03  4.126049E+02
       252  20  9.450299E+02 -1.761466E+05 -1.402120E+04  7.426786E+04 -7.998714E+02 -7.382997E+03
       252  21  1.574579E+04 -1.053558E+05 -3.952423E+03  7.916643E+04 -4.814155E+03 -1.517948E+04
       252  22 -3.976709E+03 -1.883307E+05 -1.918390E+04  8.138376E+04  3.268415E+03  8.263779E+03
       252  23 -1.632241E+03 -1.872513E+05 -1.580062E+04  7.423377E+04 -7.978538E+02  3.687194E+02
       252  24 -3.797594E+03 -1.883312E+05 -1.868727E+04  8.138373E+04 -4.812243E+03 -7.526378E+03
       252  25  1.039494E+04 -1.275832E+05 -8.076752E+03  7.909832E+04  3.270431E+03  1.611570E+04
       252  26 -4.209485E+03 -1.983557E+05 -1.757982E+04  7.419967E+04 -7.958371E+02  8.120302E+03
       252  27 -2.334131E+04 -2.712997E+05 -3.342216E+04  8.360072E+04 -4.810276E+03  1.257305E+02
       253   1  2.629410E+04 -6.117517E+04  8.127208E+02  8.278577E+04  7.449553E+03  1.857449E+04
       253   2  3.022691E+04  1.505287E+04  3.296240E+03  5.404065E+04  8.361883E+03  2.478669E+04
       253   3  2.803296E+03  8.264104E+04 -6.103154E+03  3.918754E+04  2.825601E+03  3.099998E+04
       253   4 -4.119334E+03 -1.902524E+05 -2.215594E+04  8.129288E+04  7.447625E+03  1.063134E+04
       253   5 -1.765766E+04 -1.848607E+05 -3.623933E+04  7.435135E+04  8.363874E+03  2.921988E+04
       253   6 -6.470880E+04 -1.902674E+05 -7.080470E+04  8.130386E+04  2.830991E+03  4.780834E+04
       253   7 -3.453365E+04 -3.193132E+05 -4.512499E+04  7.980031E+04  7.445735E+03  2.689791E+03
       253   8 -6.554309E+04 -3.847350E+05 -7.577656E+04  9.465537E+04  8.366155E+03  3.365167E+04
       253   9 -1.322194E+05 -4.631031E+05 -1.355094E+05  1.234016E+05  2.838664E+03  6.460935E+04
       253  10  2.629395E+04 -6.117555E+04  8.119681E+02  8.278566E+04 -2.106729E-10 -2.522135E-10
       253  11  3.022667E+04  1.505219E+04  3.294954E+03  5.404049E+04  2.469263E-12  9.482160E-11
       253  12  2.803029E+03  8.264000E+04 -6.104975E+03  3.918747E+04 -1.036714E-10  2.222559E-10
       253  13 -4.119424E+03 -1.902525E+05 -2.215626E+04  8.129282E+04  7.151411E-12 -2.002254E-11
       253  14 -1.765796E+04 -1.848616E+05 -3.624106E+04  7.435116E+04 -1.016891E-10  8.495576E-11
       253  15 -6.470943E+04 -1.902699E+05 -7.080901E+04  8.130375E+04 -1.148187E-10  1.274274E-10
       253  16 -3.453371E+04 -3.193133E+05 -4.512511E+04  7.980029E+04  9.690011E-11  2.370481E-10
       253  17 -6.554347E+04 -3.847363E+05 -7.577882E+04  9.465515E+04 -1.148680E-10  1.256954E-10
       253  18 -1.322206E+05 -4.631076E+05 -1.355173E+05  1.234014E+05  5.166824E-11 -2.348439E-10
       253  19  2.629410E+04 -6.117517E+04  8.127208E+02  8.278577E+04 -7.449553E+03 -1.857449E+04
       253  20  3.022691E+04  1.505287E+04  3.296240E+03  5.404065E+04 -8.361883E+03 -2.478669E+04
       253  21  2.803296E+03  8.264104E+04 -6.103154E+03  3.918754E+04 -2.825601E+03 -3.099998E+04
       253  22 -4.119334E+03 -1.902524E+05 -2.215594E+04  8.129288E+04 -7.447625E+03 -1.063134E+04
       253  23 -1.765766E+04 -1.848607E+05 -3.623933E+04  7.435135E+04 -8.363874E+03 -2.921988E+04
       253  24 -6.470880E+04 -1.902674E+05 -7.080470E+04  8.130386E+04 -2.830991E+03 -4.780834E+04
       253  25 -3.453365E+04 -3.193132E+05 -4.512499E+04  7.980031E+04 -7.445735E+03 -2.689791E+03
       253  26 -6.554309E+04 -3.847350E+05 -7.577656E+04  9.465537E+04 -8.366155E+03 -3.365167E+04
       253  27 -1.322194E+05 -4.631031E+05 -1.355094E+05  1.234016E+05 -2.838664E+03 -6.460935E+04
       254   1  2.579793E+05  2.166233E+05  5.496830E+04  1.892452E+05  3.180959E+04  2.416094E+04
       254   2  2.597712E+05  1.733985E+05  2.617129E+04  2.016084E+05  2.008397E+04  1.607472E+04
       254   3  2.775794E+05  1.508779E+05  1.361002E+04  2.047228E+05  8.608132E+03  7.655275E+03
       254   4  3.052350E+05  1.922909E+05  5.925955E+04  1.860182E+05  3.300358E+04  2.505348E+04
       254   5  2.879843E+05  1.655524E+05  2.927062E+04  2.028829E+05  2.063553E+04  1.648745E+04
       254   6  2.868881E+05  1.596559E+05  1.607369E+04  2.104992E+05  8.517693E+03  7.587485E+03
       254   7  3.524954E+05  1.679614E+05  6.355145E+04  1.827901E+05  3.419772E+04  2.594591E+04
       254   8  3.161991E+05  1.577068E+05  3.237015E+04  2.041573E+05  2.118713E+04  1.690017E+04
       254   9  2.961971E+05  1.684341E+05  1.853743E+04  2.162758E+05  8.427251E+03  7.519691E+03
       254  10  2.579781E+05  2.166224E+05  5.496530E+04  1.892446E+05  1.972217E-11  5.997188E-11
       254  11  2.597707E+05  1.733981E+05  2.617004E+04  2.016081E+05  3.733259E-11 -2.659223E-11
       254  12  2.775794E+05  1.508779E+05  1.360977E+04  2.047228E+05 -1.407766E-10 -4.144165E-11
       254  13  3.052337E+05  1.922899E+05  5.925632E+04  1.860176E+05 -8.363838E-11 -6.489195E-11
       254  14  2.879838E+05  1.655520E+05  2.926931E+04  2.028827E+05  2.035087E-11 -4.077746E-11
       254  15  2.868880E+05  1.596558E+05  1.607345E+04  2.104992E+05 -1.053764E-11 -2.929473E-11
       254  16  3.524939E+05  1.679604E+05  6.354799E+04  1.827894E+05 -8.868864E-11 -1.004235E-10
       254  17  3.161985E+05  1.577063E+05  3.236877E+04  2.041570E+05  1.854455E-11 -5.654002E-11
       254  18  2.961970E+05  1.684340E+05  1.853719E+04  2.162758E+05  1.952360E-10  1.910906E-11
       254  19  2.579793E+05  2.166233E+05  5.496830E+04  1.892452E+05 -3.180959E+04 -2.416094E+04
       254  20  2.597712E+05  1.733985E+05  2.617129E+04  2.016084E+05 -2.008397E+04 -1.607472E+04
       254  21  2.775794E+05  1.508779E+05  1.361002E+04  2.047228E+05 -8.608132E+03 -7.655275E+03
       254  22  3.052350E+05  1.922909E+05  5.925955E+04  1.860182E+05 -3.300358E+04 -2.505348E+04
       254  23  2.879843E+05  1.655524E+05  2.927062E+04  2.028829E+05 -2.063553E+04 -1.648745E+04
       254  24  2.868881E+05  1.596559E+05  1.607369E+04  2.104992E+05 -8.517693E+03 -7.587485E+03
       254  25  3.524954E+05  1.679614E+05  6.355145E+04  1.827901E+05 -3.419772E+04 -2.594591E+04
       254  26  3.161991E+05  1.577068E+05  3.237015E+04  2.041573E+05 -2.118713E+04 -1.690017E+04
       254  27  2.961971E+05  1.684341E+05  1.853743E+04  2.162758E+05 -8.427251E+03 -7.519691E+03
       255   1  2.744717E+05  1.534359E+05  9.998228E+03  2.052308E+05  6.943864E+03  6.348553E+03
       255   2  2.753399E+05  1.519619E+05  5.080533E+03  2.066741E+05  4.287674E+03  4.268818E+03
       255   3  2.778005E+05  1.516354E+05  2.817732E+03  2.075620E+05  1.657948E+03  2.153917E+03
       255   4  2.856556E+05  1.588399E+05  1.221867E+04  2.097630E+05  6.869778E+03  6.292966E+03
       255   5  2.842990E+05  1.572748E+05  6.922292E+03  2.107791E+05  4.145868E+03  4.162470E+03
       255   6  2.845494E+05  1.568719E+05  4.339554E+03  2.112397E+05  1.448409E+03  1.996789E+03
       255   7  2.968393E+05  1.642438E+05  1.443904E+04  2.142952E+05  6.795692E+03  6.237379E+03
       255   8  2.932580E+05  1.625877E+05  8.764016E+03  2.148841E+05  4.004061E+03  4.056122E+03
       255   9  2.912984E+05  1.621084E+05  5.861372E+03  2.149175E+05  1.238867E+03  1.839658E+03
       255  10  2.744716E+05  1.534358E+05  9.998062E+03  2.052308E+05 -5.798854E-11  5.534925E-11
       255  11  2.753399E+05  1.519618E+05  5.080464E+03  2.066741E+05  1.785073E-10  2.237558E-11
       255  12  2.778005E+05  1.516354E+05  2.817718E+03  2.075620E+05 -1.967013E-10  2.780662E-11
       255  13  2.856555E+05  1.588398E+05  1.221851E+04  2.097630E+05 -2.828614E-10 -2.049672E-11
       255  14  2.842990E+05  1.572748E+05  6.922227E+03  2.107791E+05 -1.557179E-10  5.540681E-11
       255  15  2.845494E+05  1.568719E+05  4.339542E+03  2.112397E+05 -2.338046E-11  3.335979E-11
       255  16  2.968393E+05  1.642438E+05  1.443888E+04  2.142952E+05 -3.568688E-11 -5.245084E-11
       255  17  2.932580E+05  1.625877E+05  8.763955E+03  2.148840E+05 -2.246163E-10  3.246792E-11
       255  18  2.912984E+05  1.621084E+05  5.861363E+03  2.149175E+05  1.249792E-10  1.155258E-10
       255  19  2.744717E+05  1.534359E+05  9.998228E+03  2.052308E+05 -6.943864E+03 -6.348553E+03
       255  20  2.753399E+05  1.519619E+05  5.080533E+03  2.066741E+05 -4.287674E+03 -4.268818E+03
       255  21  2.778005E+05  1.516354E+05  2.817732E+03  2.075620E+05 -1.657948E+03 -2.153917E+03
       255  22  2.856556E+05  1.588399E+05  1.221867E+04  2.097630E+05 -6.869778E+03 -6.292966E+03
       255  23  2.842990E+05  1.572748E+05  6.922292E+03  2.107791E+05 -4.145868E+03 -4.162470E+03
       255  24  2.845494E+05  1.568719E+05  4.339554E+03  2.112397E+05 -1.448409E+03 -1.996789E+03
       255  25  2.968393E+05  1.642438E+05  1.443904E+04  2.142952E+05 -6.795692E+03 -6.237379E+03
       255  26  2.932580E+05  1.625877E+05  8.764016E+03  2.148841E+05 -4.004061E+03 -4.056122E+03
       255  27  2.912984E+05  1.621084E+05  5.861372E+03  2.149175E+05 -1.238867E+03 -1.839658E+03
       256   1  2.783115E+05  1.524395E+05  2.305024E+03  2.079988E+05  1.149629E+03  1.671803E+03
       256   2  2.793292E+05  1.534711E+05  1.977543E+03  2.087408E+05  4.330653E+01  6.711006E+02
       256   3  2.809411E+05  1.543744E+05  2.671227E+03  2.093928E+05 -1.061073E+03 -3.322503E+02
       256   4  2.844568E+05  1.568205E+05  3.632034E+03  2.111668E+05  9.418055E+02  1.515959E+03
       256   5  2.841568E+05  1.568799E+05  3.011055E+03  2.112149E+05 -1.695914E+02  5.114513E+02
       256   6  2.844522E+05  1.568122E+05  3.415610E+03  2.111731E+05 -1.279019E+03 -4.956833E+02
       256   7  2.906022E+05  1.612016E+05  4.959086E+03  2.143349E+05  7.339747E+02  1.360109E+03
       256   8  2.889845E+05  1.602888E+05  4.044566E+03  2.136891E+05 -3.824915E+02  3.518004E+02
       256   9  2.879632E+05  1.592500E+05  4.159968E+03  2.129533E+05 -1.496962E+03 -6.591143E+02
       256  10  2.783115E+05  1.524395E+05  2.305016E+03  2.079988E+05  2.212858E-11  1.745753E-10
       256  11  2.793292E+05  1.534711E+05  1.977543E+03  2.087408E+05 -5.358526E-11 -2.531365E-11
       256  12  2.809411E+05  1.543744E+05  2.671225E+03  2.093928E+05 -2.567424E-10 -9.314877E-11
       256  13  2.844568E+05  1.568205E+05  3.632028E+03  2.111668E+05 -1.718129E-10  2.610007E-11
       256  14  2.841568E+05  1.568799E+05  3.011055E+03  2.112149E+05  2.228059E-10 -2.280269E-11
       256  15  2.844522E+05  1.568122E+05  3.415606E+03  2.111731E+05  9.777750E-11 -4.421458E-11
       256  16  2.906022E+05  1.612016E+05  4.959082E+03  2.143349E+05 -1.168041E-10 -1.083404E-10
       256  17  2.889845E+05  1.602888E+05  4.044565E+03  2.136891E+05 -1.441083E-11 -5.376082E-11
       256  18  2.879632E+05  1.592500E+05  4.159963E+03  2.129533E+05  1.466042E-10  3.720458E-11
       256  19  2.783115E+05  1.524395E+05  2.305024E+03  2.079988E+05 -1.149629E+03 -1.671803E+03
       256  20  2.793292E+05  1.534711E+05  1.977543E+03  2.087408E+05 -4.330653E+01 -6.711006E+02
       256  21  2.809411E+05  1.543744E+05  2.671227E+03  2.093928E+05  1.061073E+03  3.322503E+02
       256  22  2.844568E+05  1.568205E+05  3.632034E+03  2.111668E+05 -9.418055E+02 -1.515959E+03
       256  23  2.841568E+05  1.568799E+05  3.011055E+03  2.112149E+05  1.695914E+02 -5.114513E+02
       256  24  2.844522E+05  1.568122E+05  3.415610E+03  2.111731E+05  1.279019E+03  4.956833E+02
       256  25  2.906022E+05  1.612016E+05  4.959086E+03  2.143349E+05 -7.339747E+02 -1.360109E+03
       256  26  2.889845E+05  1.602888E+05  4.044566E+03  2.136891E+05  3.824915E+02 -3.518004E+02
       256  27  2.879632E+05  1.592500E+05  4.159968E+03  2.129533E+05  1.496962E+03  6.591143E+02
       257   1  2.816456E+05  1.552498E+05  3.442036E+03  2.099566E+05 -1.527678E+03 -7.862027E+02
       257   2  2.835088E+05  1.558046E+05  5.961551E+03  2.100131E+05 -3.950884E+03 -2.772985E+03
       257   3  2.868470E+05  1.573548E+05  1.093083E+04  2.095671E+05 -6.381586E+03 -4.749812E+03
       257   4  2.845320E+05  1.568567E+05  3.995313E+03  2.112344E+05 -1.745910E+03 -9.498489E+02
       257   5  2.842875E+05  1.572346E+05  6.221006E+03  2.108302E+05 -4.149958E+03 -2.922270E+03
       257   6  2.855139E+05  1.586037E+05  1.087983E+04  2.099235E+05 -6.561513E+03 -4.884758E+03
       257   7  2.874184E+05  1.584636E+05  4.548591E+03  2.125122E+05 -1.964144E+03 -1.113496E+03
       257   8  2.850662E+05  1.586646E+05  6.480466E+03  2.116473E+05 -4.349034E+03 -3.071558E+03
       257   9  2.841808E+05  1.598526E+05  1.082882E+04  2.102799E+05 -6.741443E+03 -5.019707E+03
       257  10  2.816456E+05  1.552498E+05  3.442031E+03  2.099566E+05 -2.907628E-10 -2.660983E-11
       257  11  2.835088E+05  1.558046E+05  5.961507E+03  2.100131E+05  2.779575E-11  5.471191E-11
       257  12  2.868470E+05  1.573547E+05  1.093071E+04  2.095671E+05  4.071179E-11  4.745151E-11
       257  13  2.845320E+05  1.568567E+05  3.995306E+03  2.112344E+05 -1.600824E-10 -3.894711E-11
       257  14  2.842875E+05  1.572346E+05  6.220957E+03  2.108302E+05  3.268922E-11  3.842886E-11
       257  15  2.855138E+05  1.586036E+05  1.087970E+04  2.099235E+05  7.541748E-11  1.543627E-11
       257  16  2.874184E+05  1.584636E+05  4.548581E+03  2.125122E+05  1.796004E-10  8.616490E-11
       257  17  2.850662E+05  1.586646E+05  6.480412E+03  2.116473E+05  1.349061E-10  5.236598E-11
       257  18  2.841807E+05  1.598526E+05  1.082869E+04  2.102799E+05 -1.721211E-10 -6.631859E-11
       257  19  2.816456E+05  1.552498E+05  3.442036E+03  2.099566E+05  1.527678E+03  7.862027E+02
       257  20  2.835088E+05  1.558046E+05  5.961551E+03  2.100131E+05  3.950884E+03  2.772985E+03
       257  21  2.868470E+05  1.573548E+05  1.093083E+04  2.095671E+05  6.381586E+03  4.749812E+03
       257  22  2.845320E+05  1.568567E+05  3.995313E+03  2.112344E+05  1.745910E+03  9.498489E+02
       257  23  2.842875E+05  1.572346E+05  6.221006E+03  2.108302E+05  4.149958E+03  2.922270E+03
       257  24  2.855139E+05  1.586037E+05  1.087983E+04  2.099235E+05  6.561513E+03  4.884758E+03
       257  25  2.874184E+05  1.584636E+05  4.548591E+03  2.125122E+05  1.964144E+03  1.113496E+03
       257  26  2.850662E+05  1.586646E+05  6.480466E+03  2.116473E+05  4.349034E+03  3.071558E+03
       257  27  2.841808E+05  1.598526E+05  1.082882E+04  2.102799E+05  6.741443E+03  5.019707E+03
       258   1  2.863630E+05  1.611234E+05  1.454146E+04  2.113680E+05 -7.824582E+03 -5.924031E+03
       258   2  3.042292E+05  1.517401E+05  2.660930E+04  2.007428E+05 -1.864801E+04 -1.411340E+04
       258   3  3.365183E+05  1.608200E+05  5.373340E+04  1.819011E+05 -2.954498E+04 -2.220432E+04
       258   4  2.866099E+05  1.593236E+05  1.428525E+04  2.105745E+05 -8.009256E+03 -6.062491E+03
       258   5  2.875527E+05  1.645811E+05  2.596778E+04  2.038295E+05 -1.864453E+04 -1.411149E+04
       258   6  3.028769E+05  1.882601E+05  5.254353E+04  1.888683E+05 -2.935298E+04 -2.206267E+04
       258   7  2.868568E+05  1.575238E+05  1.402906E+04  2.097810E+05 -8.193926E+03 -6.200947E+03
       258   8  2.708770E+05  1.774226E+05  2.532640E+04  2.069161E+05 -1.864104E+04 -1.410958E+04
       258   9  2.692384E+05  2.157031E+05  5.135418E+04  1.958347E+05 -2.916100E+04 -2.192100E+04
       258  10  2.863629E+05  1.611233E+05  1.454128E+04  2.113680E+05  3.242365E-10  3.366820E-11
       258  11  3.042288E+05  1.517398E+05  2.660827E+04  2.007426E+05  1.415788E-10 -5.777211E-11
       258  12  3.365172E+05  1.608193E+05  5.373083E+04  1.819006E+05 -1.859746E-12 -1.478107E-10
       258  13  2.866098E+05  1.593235E+05  1.428507E+04  2.105745E+05 -1.715197E-10 -9.409679E-11
       258  14  2.875522E+05  1.645808E+05  2.596676E+04  2.038293E+05  4.293207E-11 -1.096233E-10
       258  15  3.028758E+05  1.882594E+05  5.254100E+04  1.888678E+05  1.490273E-10 -1.585133E-11
       258  16  2.868567E+05  1.575238E+05  1.402886E+04  2.097810E+05 -1.562014E-10 -1.468709E-10
       258  17  2.708766E+05  1.774223E+05  2.532537E+04  2.069158E+05  7.152933E-11 -1.056092E-10
       258  18  2.692374E+05  2.157023E+05  5.135168E+04  1.958341E+05  2.593164E-10  1.045775E-10
       258  19  2.863630E+05  1.611234E+05  1.454146E+04  2.113680E+05  7.824582E+03  5.924031E+03
       258  20  3.042292E+05  1.517401E+05  2.660930E+04  2.007428E+05  1.864801E+04  1.411340E+04
       258  21  3.365183E+05  1.608200E+05  5.373340E+04  1.819011E+05  2.954498E+04  2.220432E+04
       258  22  2.866099E+05  1.593236E+05  1.428525E+04  2.105745E+05  8.009256E+03  6.062491E+03
       258  23  2.875527E+05  1.645811E+05  2.596778E+04  2.038295E+05  1.864453E+04  1.411149E+04
       258  24  3.028769E+05  1.882601E+05  5.254353E+04  1.888683E+05  2.935298E+04  2.206267E+04
       258  25  2.868568E+05  1.575238E+05  1.402906E+04  2.097810E+05  8.193926E+03  6.200947E+03
       258  26  2.708770E+05  1.774226E+05  2.532640E+04  2.069161E+05  1.864104E+04  1.410958E+04
       258  27  2.692384E+05  2.157031E+05  5.135418E+04  1.958347E+05  2.916100E+04  2.192100E+04
       259   1  2.857737E+05  3.338951E+04  3.324296E+04  2.466294E+04  1.465803E+04 -1.110705E+03
       259   2  2.687636E+05  2.109433E+04  2.043379E+04  1.962531E+04  7.584884E+03 -3.542477E+03
       259   3  2.542112E+05  1.494401E+04  1.376431E+04  1.758103E+04  5.121740E+02 -3.829203E+03
       259   4  1.931758E+05  1.052438E+04  1.148803E+04  1.782580E+04  7.926775E+03 -1.110756E+03
       259   5  1.923054E+05  2.870547E+03  5.752427E+03  1.632914E+04  4.973933E+03 -3.542534E+03
       259   6  1.931776E+05  6.468339E+02  3.296368E+03  1.782570E+04  2.021257E+03 -3.829227E+03
       259   7  1.005861E+05 -1.234115E+04 -1.026729E+04  1.098969E+04  1.196516E+03 -1.110658E+03
       259   8  1.158530E+05 -1.535353E+04 -8.929177E+03  1.303338E+04  2.363296E+03 -3.542564E+03
       259   9  1.321476E+05 -1.365054E+04 -7.171693E+03  1.807034E+04  3.530197E+03 -3.829250E+03
       259  10  2.857735E+05  3.338945E+04  3.324255E+04  2.466295E+04  1.145913E-10  9.013388E-12
       259  11  2.687635E+05  2.109430E+04  2.043366E+04  1.962533E+04  2.301159E-10 -5.257362E-12
       259  12  2.542112E+05  1.494400E+04  1.376428E+04  1.758103E+04  5.248180E-11  5.734721E-11
       259  13  1.931758E+05  1.052437E+04  1.148791E+04  1.782581E+04 -3.659893E-12  4.791055E-11
       259  14  1.923054E+05  2.870526E+03  5.752357E+03  1.632915E+04 -1.409581E-10  3.241330E-11
       259  15  1.931776E+05  6.468170E+02  3.296333E+03  1.782571E+04  8.473509E-11  4.475095E-11
       259  16  1.005861E+05 -1.234115E+04 -1.026730E+04  1.098969E+04  8.420234E-11  1.333164E-11
       259  17  1.158530E+05 -1.535355E+04 -8.929211E+03  1.303339E+04 -2.718240E-10  4.189309E-11
       259  18  1.321476E+05 -1.365056E+04 -7.171744E+03  1.807035E+04  5.377640E-11  7.427943E-12
       259  19  2.857737E+05  3.338951E+04  3.324296E+04  2.466294E+04 -1.465803E+04  1.110705E+03
       259  20  2.687636E+05  2.109433E+04  2.043379E+04  1.962531E+04 -7.584884E+03  3.542477E+03
       259  21  2.542112E+05  1.494401E+04  1.376431E+04  1.758103E+04 -5.121740E+02  3.829203E+03
       259  22  1.931758E+05  1.052438E+04  1.148803E+04  1.782580E+04 -7.926775E+03  1.110756E+03
       259  23  1.923054E+05  2.870547E+03  5.752427E+03  1.632914E+04 -4.973933E+03  3.542534E+03
       259  24  1.931776E+05  6.468339E+02  3.296368E+03  1.782570E+04 -2.021257E+03  3.829227E+03
       259  25  1.005861E+05 -1.234115E+04 -1.026729E+04  1.098969E+04 -1.196516E+03  1.110658E+03
       259  26  1.158530E+05 -1.535353E+04 -8.929177E+03  1.303338E+04 -2.363296E+03  3.542564E+03
       259  27  1.321476E+05 -1.365054E+04 -7.171693E+03  1.807034E+04 -3.530197E+03  3.829250E+03
       260   1  2.437251E+05  1.248678E+04  1.120454E+04  1.817725E+04  1.718517E+02 -3.305801E+03
       260   2  2.278200E+05  8.272119E+03  7.479998E+03  1.643361E+04 -1.127692E+03 -2.469221E+03
       260   3  2.122010E+05  4.524520E+03  4.718049E+03  1.782946E+04 -2.427242E+03 -1.422216E+03
       260   4  1.928385E+05  5.947596E+02  2.618351E+03  1.785824E+04  1.576432E+03 -3.305810E+03
       260   5  1.927307E+05  1.192223E+02  1.796317E+03  1.628849E+04  6.810772E+02 -2.469205E+03
       260   6  1.928390E+05  4.068304E+01  1.656367E+03  1.785825E+04 -2.143078E+02 -1.422169E+03
       260   7  1.419545E+05 -1.129739E+04 -5.967910E+03  1.753926E+04  2.980900E+03 -3.305820E+03
       260   8  1.576427E+05 -8.033735E+03 -3.887386E+03  1.614338E+04  2.489748E+03 -2.469190E+03
       260   9  1.734773E+05 -4.443170E+03 -1.405306E+03  1.788704E+04  1.998560E+03 -1.422123E+03
       260  10  2.437251E+05  1.248677E+04  1.120452E+04  1.817725E+04  7.414371E-11  5.404321E-11
       260  11  2.278200E+05  8.272112E+03  7.479984E+03  1.643361E+04  1.351604E-10 -6.900288E-13
       260  12  2.122010E+05  4.524516E+03  4.718034E+03  1.782946E+04 -1.094138E-10  2.155312E-11
       260  13  1.928385E+05  5.947472E+02  2.618326E+03  1.785825E+04  1.957292E-10  3.074547E-11
       260  14  1.927307E+05  1.192157E+02  1.796304E+03  1.628849E+04  2.372338E-10  1.192456E-11
       260  15  1.928390E+05  4.068086E+01  1.656363E+03  1.785825E+04 -3.742513E-11  6.002719E-13
       260  16  1.419544E+05 -1.129741E+04 -5.967948E+03  1.753927E+04 -1.197679E-10  1.005993E-11
       260  17  1.576427E+05 -8.033743E+03 -3.887409E+03  1.614339E+04  4.942805E-11  3.299367E-11
       260  18  1.734773E+05 -4.443173E+03 -1.405318E+03  1.788704E+04 -2.393606E-11  5.484734E-12
       260  19  2.437251E+05  1.248678E+04  1.120454E+04  1.817725E+04 -1.718517E+02  3.305801E+03
       260  20  2.278200E+05  8.272119E+03  7.479998E+03  1.643361E+04  1.127692E+03  2.469221E+03
       260  21  2.122010E+05  4.524520E+03  4.718049E+03  1.782946E+04  2.427242E+03  1.422216E+03
       260  22  1.928385E+05  5.947596E+02  2.618351E+03  1.785824E+04 -1.576432E+03  3.305810E+03
       260  23  1.927307E+05  1.192223E+02  1.796317E+03  1.628849E+04 -6.810772E+02  2.469205E+03
       260  24  1.928390E+05  4.068304E+01  1.656367E+03  1.785825E+04  2.143078E+02  1.422169E+03
       260  25  1.419545E+05 -1.129739E+04 -5.967910E+03  1.753926E+04 -2.980900E+03  3.305820E+03
       260  26  1.576427E+05 -8.033735E+03 -3.887386E+03  1.614338E+04 -2.489748E+03  2.469190E+03
       260  27  1.734773E+05 -4.443170E+03 -1.405306E+03  1.788704E+04 -1.998560E+03  1.422123E+03
       261   1  2.021818E+05  2.184183E+03  3.191029E+03  1.795621E+04 -2.720899E+03 -7.374345E+02
       261   2  1.862829E+05 -1.299114E+03  1.322916E+03  1.607919E+04 -3.704784E+03  3.448850E+02
       261   3  1.706611E+05 -4.188123E+03  2.438202E+02  1.734596E+04 -4.688645E+03  1.290770E+03
       261   4  1.928626E+05  3.925767E+01  1.783468E+03  1.785920E+04 -5.113142E+02 -7.373817E+02
       261   5  1.927014E+05  2.189204E+02  2.495957E+03  1.628730E+04 -1.757251E+03  3.449262E+02
       261   6  1.928624E+05  1.038353E+03  4.179372E+03  1.785919E+04 -3.003189E+03  1.290799E+03
       261   7  1.835435E+05 -2.105669E+03  3.759231E+02  1.776220E+04  1.698239E+03 -7.373295E+02
       261   8  1.991199E+05  1.736955E+03  3.669010E+03  1.649541E+04  1.903009E+02  3.449686E+02
       261   9  2.150641E+05  6.264805E+03  8.114915E+03  1.837243E+04 -1.317674E+03  1.290832E+03
       261  10  2.021818E+05  2.184180E+03  3.191014E+03  1.795621E+04 -1.417323E-11  5.550295E-11
       261  11  1.862829E+05 -1.299118E+03  1.322890E+03  1.607919E+04 -6.500837E-11 -3.531584E-11
       261  12  1.706611E+05 -4.188131E+03  2.437758E+02  1.734597E+04 -5.734606E-11 -1.176330E-10
       261  13  1.928626E+05  3.925702E+01  1.783466E+03  1.785920E+04 -1.388398E-10  1.105559E-11
       261  14  1.927014E+05  2.189195E+02  2.495951E+03  1.628730E+04  3.596210E-11 -1.082536E-11
       261  15  1.928624E+05  1.038349E+03  4.179351E+03  1.785919E+04 -8.819875E-11 -5.899999E-11
       261  16  1.835435E+05 -2.105671E+03  3.759166E+02  1.776220E+04  5.732175E-11 -3.125627E-11
       261  17  1.991199E+05  1.736954E+03  3.669010E+03  1.649541E+04  8.779162E-11 -2.153381E-11
       261  18  2.150641E+05  6.264803E+03  8.114909E+03  1.837243E+04  6.429760E-11 -1.095380E-11
       261  19  2.021818E+05  2.184183E+03  3.191029E+03  1.795621E+04  2.720899E+03  7.374345E+02
       261  20  1.862829E+05 -1.299114E+03  1.322916E+03  1.607919E+04  3.704784E+03 -3.448850E+02
       261  21  1.706611E+05 -4.188123E+03  2.438202E+02  1.734596E+04  4.688645E+03 -1.290770E+03
       261  22  1.928626E+05  3.925767E+01  1.783468E+03  1.785920E+04  5.113142E+02  7.373817E+02
       261  23  1.927014E+05  2.189204E+02  2.495957E+03  1.628730E+04  1.757251E+03 -3.449262E+02
       261  24  1.928624E+05  1.038353E+03  4.179372E+03  1.785919E+04  3.003189E+03 -1.290799E+03
       261  25  1.835435E+05 -2.105669E+03  3.759231E+02  1.776220E+04 -1.698239E+03  7.373295E+02
       261  26  1.991199E+05  1.736955E+03  3.669010E+03  1.649541E+04 -1.903009E+02 -3.449686E+02
       261  27  2.150641E+05  6.264805E+03  8.114915E+03  1.837243E+04  1.317674E+03 -1.290832E+03
       262   1  1.611461E+05 -6.482808E+03 -2.996314E+02  1.828398E+04 -5.476416E+03  1.870902E+03
       262   2  1.441278E+05 -6.492889E+03  3.824183E+02  1.065578E+04 -7.604147E+03  2.030580E+03
       262   3  1.296002E+05  2.348079E+03  4.662448E+03  6.069614E+03 -9.731822E+03  6.779055E+02
       262   4  1.934561E+05  1.125295E+03  5.437427E+03  1.783650E+04 -3.717875E+03  1.870932E+03
       262   5  1.919580E+05  4.954788E+03  9.799428E+03  1.631557E+04 -8.750221E+03  2.030486E+03
       262   6  1.934540E+05  1.813889E+04  1.977576E+04  1.783644E+04 -1.378254E+04  6.776988E+02
       262   7  2.257671E+05  8.733344E+03  1.117446E+04  1.738899E+04 -1.959244E+03  1.870959E+03
       262   8  2.397905E+05  1.640245E+04  1.921635E+04  2.197579E+04 -9.896380E+03  2.030371E+03
       262   9  2.573118E+05  3.392994E+04  3.488892E+04  2.960447E+04 -1.783367E+04  6.773387E+02
       262  10  1.611461E+05 -6.482820E+03 -2.996944E+02  1.828399E+04  8.223716E-11 -1.327631E-10
       262  11  1.441277E+05 -6.492909E+03  3.823019E+02  1.065580E+04 -6.112007E-11 -8.417955E-11
       262  12  1.296001E+05  2.348053E+03  4.662269E+03  6.069619E+03 -1.026645E-10 -2.834398E-11
       262  13  1.934561E+05  1.125288E+03  5.437395E+03  1.783650E+04 -4.083435E-12 -1.107717E-10
       262  14  1.919580E+05  4.954763E+03  9.799276E+03  1.631558E+04  3.128793E-11 -1.044243E-10
       262  15  1.934538E+05  1.813884E+04  1.977540E+04  1.783644E+04 -5.768477E-11 -2.732121E-11
       262  16  2.257671E+05  8.733339E+03  1.117444E+04  1.738899E+04 -8.585808E-12 -4.070587E-11
       262  17  2.397904E+05  1.640242E+04  1.921616E+04  2.197581E+04 -5.558555E-11 -1.161142E-10
       262  18  2.573115E+05  3.392985E+04  3.488833E+04  2.960448E+04  1.273986E-10 -4.696429E-11
       262  19  1.611461E+05 -6.482808E+03 -2.996314E+02  1.828398E+04  5.476416E+03 -1.870902E+03
       262  20  1.441278E+05 -6.492889E+03  3.824183E+02  1.065578E+04  7.604147E+03 -2.030580E+03
       262  21  1.296002E+05  2.348079E+03  4.662448E+03  6.069614E+03  9.731822E+03 -6.779055E+02
       262  22  1.934561E+05  1.125295E+03  5.437427E+03  1.783650E+04  3.717875E+03 -1.870932E+03
       262  23  1.919580E+05  4.954788E+03  9.799428E+03  1.631557E+04  8.750221E+03 -2.030486E+03
       262  24  1.934540E+05  1.813889E+04  1.977576E+04  1.783644E+04  1.378254E+04 -6.776988E+02
       262  25  2.257671E+05  8.733344E+03  1.117446E+04  1.738899E+04  1.959244E+03 -1.870959E+03
       262  26  2.397905E+05  1.640245E+04  1.921635E+04  2.197579E+04  9.896380E+03 -2.030371E+03
       262  27  2.573118E+05  3.392994E+04  3.488892E+04  2.960447E+04  1.783367E+04 -6.773387E+02
       263   1 -9.751509E+04 -2.920492E+05 -9.781068E+04  9.734721E+04 -2.784488E+03 -4.001239E+04
       263   2 -5.568147E+04 -2.206974E+05 -5.680868E+04  8.003085E+04 -8.288232E+03 -1.872961E+04
       263   3 -3.253194E+04 -1.567841E+05 -3.433794E+04  7.576944E+04 -7.547497E+03  2.555751E+03
       263   4 -3.201816E+04 -2.730278E+04 -3.508251E+04  7.649917E+04 -2.779964E+03 -2.345160E+04
       263   5 -8.730299E+03 -2.461822E+04 -1.813698E+04  6.996842E+04 -8.286740E+03 -1.415114E+04
       263   6 -2.042416E+03 -2.729369E+04 -1.139669E+04  7.649376E+04 -7.549204E+03 -4.850764E+03
       263   7  3.347551E+04  2.375096E+05  2.764206E+04  5.564219E+04 -2.776555E+03 -6.883791E+03
       263   8  3.821893E+04  1.714981E+05  2.053298E+04  5.990273E+04 -8.285396E+03 -9.571243E+03
       263   9  2.844622E+04  1.022132E+05  1.154415E+04  7.721824E+04 -7.550928E+03 -1.225878E+04
       263  10 -9.751553E+04 -2.920509E+05 -9.781370E+04  9.734712E+04 -5.487071E-12  1.221292E-10
       263  11 -5.568163E+04 -2.206978E+05 -5.680947E+04  8.003073E+04  3.577203E-11 -3.656239E-11
       263  12 -3.253200E+04 -1.567841E+05 -3.433806E+04  7.576945E+04  1.001488E-10 -1.337301E-10
       263  13 -3.201832E+04 -2.730337E+04 -3.508355E+04  7.649912E+04  1.206132E-10  5.952826E-12
       263  14 -8.730427E+03 -2.461845E+04 -1.813748E+04  6.996832E+04 -3.728357E-11 -5.086790E-12
       263  15 -2.042484E+03 -2.729373E+04 -1.139684E+04  7.649373E+04 -4.561774E-11 -2.989518E-11
       263  16  3.347549E+04  2.375095E+05  2.764196E+04  5.564217E+04  1.605497E-10 -1.373680E-10
       263  17  3.821883E+04  1.714980E+05  2.053268E+04  5.990267E+04 -9.369525E-12  4.903342E-11
       263  18  2.844612E+04  1.022130E+05  1.154376E+04  7.721817E+04  9.567087E-11  1.269071E-10
       263  19 -9.751509E+04 -2.920492E+05 -9.781068E+04  9.734721E+04  2.784488E+03  4.001239E+04
       263  20 -5.568147E+04 -2.206974E+05 -5.680868E+04  8.003085E+04  8.288232E+03  1.872961E+04
       263  21 -3.253194E+04 -1.567841E+05 -3.433794E+04  7.576944E+04  7.547497E+03 -2.555751E+03
       263  22 -3.201816E+04 -2.730278E+04 -3.508251E+04  7.649917E+04  2.779964E+03  2.345160E+04
       263  23 -8.730299E+03 -2.461822E+04 -1.813698E+04  6.996842E+04  8.286740E+03  1.415114E+04
       263  24 -2.042416E+03 -2.729369E+04 -1.139669E+04  7.649376E+04  7.549204E+03  4.850764E+03
       263  25  3.347551E+04  2.375096E+05  2.764206E+04  5.564219E+04  2.776555E+03  6.883791E+03
       263  26  3.821893E+04  1.714981E+05  2.053298E+04  5.990273E+04  8.285396E+03  9.571243E+03
       263  27  2.844622E+04  1.022132E+05  1.154415E+04  7.721824E+04  7.550928E+03  1.225878E+04
       264   1 -2.214015E+04 -1.124943E+05 -2.501556E+04  7.773498E+04 -5.083773E+03  3.898887E+03
       264   2 -5.204536E+03 -4.427785E+04 -1.186114E+04  6.974677E+04 -1.328014E+03  8.509488E+03
       264   3  9.165144E+03  2.269773E+04 -2.351391E+03  7.520860E+04  2.514207E+03  1.312050E+04
       264   4 -1.879495E+03 -2.637121E+04 -9.838987E+03  7.658164E+04 -5.085569E+03 -3.226339E+03
       264   5 -9.080068E+02 -2.576254E+04 -8.894962E+03  6.985663E+04 -1.329886E+03  1.218166E+03
       264   6 -2.473377E+03 -2.637038E+04 -1.148019E+04  7.658177E+04  2.512271E+03  5.662608E+03
       264   7  1.838079E+04  5.975920E+04  5.337505E+03  7.542813E+04 -5.087339E+03 -1.035252E+04
       264   8  3.388533E+03 -7.246772E+03 -5.928588E+03  6.996649E+04 -1.331760E+03 -6.073366E+03
       264   9 -1.411200E+04 -7.543604E+04 -2.060888E+04  7.795483E+04  2.510302E+03 -1.794706E+03
       264  10 -2.214018E+04 -1.124943E+05 -2.501563E+04  7.773500E+04  1.228226E-10  1.806423E-10
       264  11 -5.204557E+03 -4.427793E+04 -1.186128E+04  6.974678E+04  1.640696E-10 -1.320422E-11
       264  12  9.165091E+03  2.269754E+04 -2.351726E+03  7.520857E+04  4.233771E-11 -2.476682E-10
       264  13 -1.879525E+03 -2.637123E+04 -9.839055E+03  7.658163E+04  6.182538E-11 -1.582182E-12
       264  14 -9.080091E+02 -2.576254E+04 -8.894968E+03  6.985663E+04  4.476187E-11  4.745050E-12
       264  15 -2.473392E+03 -2.637042E+04 -1.148026E+04  7.658176E+04  1.393768E-10 -4.709712E-11
       264  16  1.838073E+04  5.975908E+04  5.337255E+03  7.542809E+04  1.221164E-10 -2.263434E-10
       264  17  3.388522E+03 -7.246812E+03 -5.928661E+03  6.996648E+04 -3.982686E-11  1.310580E-10
       264  18 -1.411201E+04 -7.543604E+04 -2.060890E+04  7.795483E+04 -7.354936E-11  2.264933E-10
       264  19 -2.214015E+04 -1.124943E+05 -2.501556E+04  7.773498E+04  5.083773E+03 -3.898887E+03
       264  20 -5.204536E+03 -4.427785E+04 -1.186114E+04  6.974677E+04  1.328014E+03 -8.509488E+03
       264  21  9.165144E+03  2.269773E+04 -2.351391E+03  7.520860E+04 -2.514207E+03 -1.312050E+04
       264  22 -1.879495E+03 -2.637121E+04 -9.838987E+03  7.658164E+04  5.085569E+03  3.226339E+03
       264  23 -9.080068E+02 -2.576254E+04 -8.894962E+03  6.985663E+04  1.329886E+03 -1.218166E+03
       264  24 -2.473377E+03 -2.637038E+04 -1.148019E+04  7.658177E+04 -2.512271E+03 -5.662608E+03
       264  25  1.838079E+04  5.975920E+04  5.337505E+03  7.542813E+04  5.087339E+03  1.035252E+04
       264  26  3.388533E+03 -7.246772E+03 -5.928588E+03  6.996649E+04  1.331760E+03  6.073366E+03
       264  27 -1.411200E+04 -7.543604E+04 -2.060888E+04  7.795483E+04 -2.510302E+03  1.794706E+03
       265   1  1.915764E+04  6.472464E+04  2.810073E+03  7.752611E+04  5.044249E+03  1.528011E+04
       265   2  2.656385E+04  1.350054E+05  8.265299E+03  5.661055E+04  6.341644E+03  1.698387E+04
       265   3  1.373129E+04  2.000094E+05  7.551565E+03  4.881228E+04  2.220063E+03  1.868823E+04
       265   4 -2.682610E+03 -2.767649E+04 -1.398985E+04  7.650758E+04  5.042296E+03  7.584567E+03
       265   5 -1.162769E+04 -2.413569E+04 -2.359405E+04  6.995206E+04  6.342758E+03  1.969197E+04
       265   6 -4.262121E+04 -2.768409E+04 -4.659327E+04  7.651521E+04  2.223684E+03  3.179952E+04
       265   7 -2.452331E+04 -1.200692E+05 -3.078988E+04  7.548921E+04  5.040367E+03 -1.098654E+02
       265   8 -4.982012E+04 -1.832522E+05 -5.545455E+04  8.329007E+04  6.343989E+03  2.239940E+04
       265   9 -9.897446E+04 -2.553280E+05 -1.007407E+05  1.042079E+05  2.228475E+03  4.490603E+04
       265  10  1.915755E+04  6.472439E+04  2.809586E+03  7.752605E+04 -7.875439E-11  8.302893E-11
       265  11  2.656373E+04  1.350051E+05  8.264682E+03  5.661046E+04 -9.358575E-11  3.476659E-11
       265  12  1.373119E+04  2.000091E+05  7.550900E+03  4.881225E+04 -4.888691E-11 -4.329073E-11
       265  13 -2.682653E+03 -2.767656E+04 -1.399000E+04  7.650755E+04 -1.283493E-10  8.376467E-12
       265  14 -1.162784E+04 -2.413611E+04 -2.359485E+04  6.995195E+04 -9.458010E-11  3.674908E-12
       265  15 -4.262148E+04 -2.768518E+04 -4.659518E+04  7.651515E+04 -3.918453E-11 -2.644431E-11
       265  16 -2.452334E+04 -1.200692E+05 -3.078993E+04  7.548921E+04 -7.300363E-11 -1.307584E-10
       265  17 -4.982029E+04 -1.832527E+05 -5.545557E+04  8.328996E+04 -7.324431E-11  7.254964E-11
       265  18 -9.897501E+04 -2.553302E+05 -1.007445E+05  1.042078E+05  5.946652E-11  1.871977E-11
       265  19  1.915764E+04  6.472464E+04  2.810073E+03  7.752611E+04 -5.044249E+03 -1.528011E+04
       265  20  2.656385E+04  1.350054E+05  8.265299E+03  5.661055E+04 -6.341644E+03 -1.698387E+04
       265  21  1.373129E+04  2.000094E+05  7.551565E+03  4.881228E+04 -2.220063E+03 -1.868823E+04
       265  22 -2.682610E+03 -2.767649E+04 -1.398985E+04  7.650758E+04 -5.042296E+03 -7.584567E+03
       265  23 -1.162769E+04 -2.413569E+04 -2.359405E+04  6.995206E+04 -6.342758E+03 -1.969197E+04
       265  24 -4.262121E+04 -2.768409E+04 -4.659327E+04  7.651521E+04 -2.223684E+03 -3.179952E+04
       265  25 -2.452331E+04 -1.200692E+05 -3.078988E+04  7.548921E+04 -5.040367E+03  1.098654E+02
       265  26 -4.982012E+04 -1.832522E+05 -5.545455E+04  8.329007E+04 -6.343989E+03 -2.239940E+04
       265  27 -9.897446E+04 -2.553280E+05 -1.007407E+05  1.042079E+05 -2.228475E+03 -4.490603E+04
       266   1  1.525796E+05  1.322718E+05  2.627657E+04  1.196238E+05  1.237590E+04  9.067043E+03
       266   2  1.461965E+05  1.104901E+05  1.304826E+04  1.197418E+05  7.406454E+03  5.077597E+03
       266   3  1.436034E+05  9.817342E+04  6.450676E+03  1.172360E+05  2.083601E+03  1.559386E+03
       266   4  1.471638E+05  1.082795E+05  2.060245E+04  1.076868E+05  1.160099E+04  8.485517E+03
       266   5  1.421768E+05  9.797213E+04  1.019947E+04  1.132538E+05  7.536366E+03  5.174918E+03
       266   6  1.407837E+05  9.693352E+04  5.642026E+03  1.161970E+05  3.118430E+03  2.335465E+03
       266   7  1.417481E+05  8.428784E+04  1.492825E+04  9.574986E+04  1.082606E+04  7.904032E+03
       266   8  1.381572E+05  8.545445E+04  7.350693E+03  1.067660E+05  7.666278E+03  5.272235E+03
       266   9  1.379640E+05  9.569364E+04  4.833398E+03  1.151581E+05  4.153232E+03  3.111526E+03
       266  10  1.525794E+05  1.322716E+05  2.627613E+04  1.196237E+05 -1.211489E-10 -1.203389E-11
       266  11  1.461964E+05  1.104900E+05  1.304811E+04  1.197417E+05 -6.249393E-11  2.770708E-11
       266  12  1.436034E+05  9.817342E+04  6.450663E+03  1.172360E+05  4.827166E-11  2.668362E-11
       266  13  1.471636E+05  1.082794E+05  2.060206E+04  1.076867E+05 -2.669516E-11  4.159171E-12
       266  14  1.421767E+05  9.797208E+04  1.019932E+04  1.132538E+05 -3.004806E-11 -3.026159E-11
       266  15  1.407837E+05  9.693351E+04  5.641998E+03  1.161970E+05 -3.869272E-11 -3.915716E-11
       266  16  1.417480E+05  8.428774E+04  1.492791E+04  9.574979E+04  1.199043E-12  6.086117E-12
       266  17  1.381571E+05  8.545441E+04  7.350530E+03  1.067659E+05 -7.272142E-11 -4.384478E-11
       266  18  1.379640E+05  9.569363E+04  4.833348E+03  1.151581E+05 -3.073425E-11 -8.386058E-11
       266  19  1.525796E+05  1.322718E+05  2.627657E+04  1.196238E+05 -1.237590E+04 -9.067043E+03
       266  20  1.461965E+05  1.104901E+05  1.304826E+04  1.197418E+05 -7.406454E+03 -5.077597E+03
       266  21  1.436034E+05  9.817342E+04  6.450676E+03  1.172360E+05 -2.083601E+03 -1.559386E+03
       266  22  1.471638E+05  1.082795E+05  2.060245E+04  1.076868E+05 -1.160099E+04 -8.485517E+03
       266  23  1.421768E+05  9.797213E+04  1.019947E+04  1.132538E+05 -7.536366E+03 -5.174918E+03
       266  24  1.407837E+05  9.693352E+04  5.642026E+03  1.161970E+05 -3.118430E+03 -2.335465E+03
       266  25  1.417481E+05  8.428784E+04  1.492825E+04  9.574986E+04 -1.082606E+04 -7.904032E+03
       266  26  1.381572E+05  8.545445E+04  7.350693E+03  1.067660E+05 -7.666278E+03 -5.272235E+03
       266  27  1.379640E+05  9.569364E+04  4.833398E+03  1.151581E+05 -4.153232E+03 -3.111526E+03
       267   1  1.375059E+05  9.555069E+04  4.021816E+03  1.148783E+05  1.268571E+03  1.460685E+03
       267   2  1.310035E+05  8.849799E+04  5.618415E+02  1.111012E+05 -2.513025E+02  1.181308E+03
       267   3  1.230149E+05  8.394510E+04 -1.830942E+03  1.077389E+05 -1.806956E+03  9.496772E+02
       267   4  1.403454E+05  9.666085E+04  4.322634E+03  1.159454E+05  2.280413E+03  2.219518E+03
       267   5  1.409050E+05  9.507703E+04  2.542246E+03  1.159959E+05  8.522176E+02  2.008891E+03
       267   6  1.399586E+05  9.597312E+04  1.749512E+03  1.164611E+05 -6.117865E+02  1.845992E+03
       267   7  1.431849E+05  9.777102E+04  4.623458E+03  1.170125E+05  3.292263E+03  2.978354E+03
       267   8  1.508068E+05  1.016562E+05  4.522692E+03  1.208907E+05  1.955773E+03  2.836500E+03
       267   9  1.569030E+05  1.080016E+05  5.330089E+03  1.251838E+05  5.834507E+02  2.742359E+03
       267  10  1.375059E+05  9.555068E+04  4.021809E+03  1.148783E+05  9.056133E-11 -8.738496E-11
       267  11  1.310035E+05  8.849799E+04  5.618387E+02  1.111012E+05  1.241483E-10 -2.380252E-11
       267  12  1.230149E+05  8.394510E+04 -1.830950E+03  1.077389E+05  1.653305E-10 -3.795410E-11
       267  13  1.403454E+05  9.666084E+04  4.322615E+03  1.159454E+05 -4.321864E-11 -4.622064E-11
       267  14  1.409050E+05  9.507703E+04  2.542237E+03  1.159959E+05 -9.052114E-12 -2.107712E-11
       267  15  1.399586E+05  9.597312E+04  1.749505E+03  1.164611E+05  1.003019E-10 -8.694639E-11
       267  16  1.431849E+05  9.777100E+04  4.623421E+03  1.170125E+05 -2.733582E-11  7.519600E-12
       267  17  1.508068E+05  1.016562E+05  4.522669E+03  1.208907E+05 -5.889127E-11 -1.671669E-11
       267  18  1.569030E+05  1.080016E+05  5.330074E+03  1.251838E+05 -1.341420E-10 -5.538985E-11
       267  19  1.375059E+05  9.555069E+04  4.021816E+03  1.148783E+05 -1.268571E+03 -1.460685E+03
       267  20  1.310035E+05  8.849799E+04  5.618415E+02  1.111012E+05  2.513025E+02 -1.181308E+03
       267  21  1.230149E+05  8.394510E+04 -1.830942E+03  1.077389E+05  1.806956E+03 -9.496772E+02
       267  22  1.403454E+05  9.666085E+04  4.322634E+03  1.159454E+05 -2.280413E+03 -2.219518E+03
       267  23  1.409050E+05  9.507703E+04  2.542246E+03  1.159959E+05 -8.522176E+02 -2.008891E+03
       267  24  1.399586E+05  9.597312E+04  1.749512E+03  1.164611E+05  6.117865E+02 -1.845992E+03
       267  25  1.431849E+05  9.777102E+04  4.623458E+03  1.170125E+05 -3.292263E+03 -2.978354E+03
       267  26  1.508068E+05  1.016562E+05  4.522692E+03  1.208907E+05 -1.955773E+03 -2.836500E+03
       267  27  1.569030E+05  1.080016E+05  5.330089E+03  1.251838E+05 -5.834507E+02 -2.742359E+03
       268   1  1.182137E+05  8.074069E+04 -3.043955E+03  1.053671E+05 -2.312325E+03  1.140452E+03
       268   2  1.117753E+05  7.457419E+04 -4.599656E+03  1.013275E+05 -3.377951E+03  1.300198E+03
       268   3  1.035064E+05  7.047531E+04 -5.635081E+03  9.786519E+04 -4.431669E+03  1.444155E+03
       268   4  1.399300E+05  9.595745E+04  1.581456E+03  1.164415E+05 -1.118467E+03  2.035774E+03
       268   5  1.408481E+05  9.493157E+04  1.604178E+03  1.161444E+05 -2.214513E+03  2.172676E+03
       268   6  1.399423E+05  9.597968E+04  2.173494E+03  1.164245E+05 -3.298669E+03  2.293781E+03
       268   7  1.616463E+05  1.111742E+05  6.206695E+03  1.275161E+05  7.542147E+01  2.931119E+03
       268   8  1.699216E+05  1.152893E+05  7.807873E+03  1.309620E+05 -1.051015E+03  3.045198E+03
       268   9  1.763797E+05  1.214849E+05  9.982009E+03  1.349850E+05 -2.165581E+03  3.143472E+03
       268  10  1.182137E+05  8.074069E+04 -3.043967E+03  1.053671E+05  1.558169E-10 -8.611047E-11
       268  11  1.117753E+05  7.457419E+04 -4.599680E+03  1.013275E+05  1.956321E-10 -1.127159E-10
       268  12  1.035064E+05  7.047530E+04 -5.635122E+03  9.786520E+04 -1.981452E-10 -2.469278E-10
       268  13  1.399300E+05  9.595744E+04  1.581445E+03  1.164415E+05  1.531952E-10 -1.212964E-10
       268  14  1.408481E+05  9.493157E+04  1.604160E+03  1.161444E+05  1.841287E-10 -1.039513E-10
       268  15  1.399423E+05  9.597967E+04  2.173464E+03  1.164245E+05 -9.745031E-11 -2.871967E-11
       268  16  1.616463E+05  1.111742E+05  6.206679E+03  1.275161E+05 -8.935728E-11 -1.127185E-10
       268  17  1.699216E+05  1.152892E+05  7.807854E+03  1.309620E+05  9.614425E-11 -8.516391E-11
       268  18  1.763797E+05  1.214848E+05  9.981982E+03  1.349850E+05  1.316329E-10  1.538916E-10
       268  19  1.182137E+05  8.074069E+04 -3.043955E+03  1.053671E+05  2.312325E+03 -1.140452E+03
       268  20  1.117753E+05  7.457419E+04 -4.599656E+03  1.013275E+05  3.377951E+03 -1.300198E+03
       268  21  1.035064E+05  7.047531E+04 -5.635081E+03  9.786519E+04  4.431669E+03 -1.444155E+03
       268  22  1.399300E+05  9.595745E+04  1.581456E+03  1.164415E+05  1.118467E+03 -2.035774E+03
       268  23  1.408481E+05  9.493157E+04  1.604178E+03  1.161444E+05  2.214513E+03 -2.172676E+03
       268  24  1.399423E+05  9.597968E+04  2.173494E+03  1.164245E+05  3.298669E+03 -2.293781E+03
       268  25  1.616463E+05  1.111742E+05  6.206695E+03  1.275161E+05 -7.542147E+01 -2.931119E+03
       268  26  1.699216E+05  1.152893E+05  7.807873E+03  1.309620E+05  1.051015E+03 -3.045198E+03
       268  27  1.763797E+05  1.214849E+05  9.982009E+03  1.349850E+05  2.165581E+03 -3.143472E+03
       269   1  9.872774E+04  6.737126E+04 -6.184344E+03  9.557904E+04 -5.043508E+03  1.536244E+03
       269   2  9.289171E+04  6.081476E+04 -6.170362E+03  9.107681E+04 -6.814462E+03  9.820959E+02
       269   3  8.585671E+04  5.710535E+04 -4.733661E+03  8.683994E+04 -8.435875E+03  2.285461E+02
       269   4  1.400095E+05  9.601012E+04  2.691140E+03  1.164747E+05 -3.900847E+03  2.393101E+03
       269   5  1.409306E+05  9.519076E+04  4.460628E+03  1.158576E+05 -6.054918E+03  1.551615E+03
       269   6  1.407358E+05  9.730172E+04  7.985257E+03  1.155060E+05 -8.059445E+03  5.107363E+02
       269   7  1.812941E+05  1.246506E+05  1.156684E+04  1.373724E+05 -2.758062E+03  3.250049E+03
       269   8  1.889723E+05  1.295683E+05  1.509151E+04  1.406407E+05 -5.295295E+03  2.121195E+03
       269   9  1.956173E+05  1.374993E+05  2.070361E+04  1.441745E+05 -7.682979E+03  7.929559E+02
       269  10  9.872771E+04  6.737125E+04 -6.184396E+03  9.557905E+04  1.749302E-10  1.080525E-10
       269  11  9.289166E+04  6.081475E+04 -6.170451E+03  9.107681E+04  1.079201E-11  5.023324E-11
       269  12  8.585663E+04  5.710533E+04 -4.733795E+03  8.683994E+04 -1.934436E-10 -9.235997E-11
       269  13  1.400095E+05  9.601011E+04  2.691101E+03  1.164747E+05 -1.995876E-10  7.635661E-12
       269  14  1.409306E+05  9.519075E+04  4.460555E+03  1.158576E+05 -2.543314E-10 -2.137490E-11
       269  15  1.407357E+05  9.730170E+04  7.985135E+03  1.155060E+05 -9.000606E-11 -2.812159E-11
       269  16  1.812941E+05  1.246506E+05  1.156681E+04  1.373724E+05 -2.334966E-10 -1.198200E-10
       269  17  1.889722E+05  1.295683E+05  1.509145E+04  1.406407E+05 -5.134014E-11 -1.477010E-10
       269  18  1.956172E+05  1.374993E+05  2.070350E+04  1.441745E+05  1.947493E-10 -2.366388E-11
       269  19  9.872774E+04  6.737126E+04 -6.184344E+03  9.557904E+04  5.043508E+03 -1.536244E+03
       269  20  9.289171E+04  6.081476E+04 -6.170362E+03  9.107681E+04  6.814462E+03 -9.820959E+02
       269  21  8.585671E+04  5.710535E+04 -4.733661E+03  8.683994E+04  8.435875E+03 -2.285461E+02
       269  22  1.400095E+05  9.601012E+04  2.691140E+03  1.164747E+05  3.900847E+03 -2.393101E+03
       269  23  1.409306E+05  9.519076E+04  4.460628E+03  1.158576E+05  6.054918E+03 -1.551615E+03
       269  24  1.407358E+05  9.730172E+04  7.985257E+03  1.155060E+05  8.059445E+03 -5.107363E+02
       269  25  1.812941E+05  1.246506E+05  1.156684E+04  1.373724E+05  2.758062E+03 -3.250049E+03
       269  26  1.889723E+05  1.295683E+05  1.509151E+04  1.406407E+05  5.295295E+03 -2.121195E+03
       269  27  1.956173E+05  1.374993E+05  2.070361E+04  1.441745E+05  7.682979E+03 -7.929559E+02
       270   1  8.010197E+04  5.602396E+04 -3.521100E+03  8.543757E+04 -9.773900E+03 -4.628003E+02
       270   2  8.615714E+04  4.211125E+04  1.638765E+03  7.334279E+04 -1.352708E+04 -4.369671E+03
       270   3  1.000572E+05  4.312146E+04  1.469336E+04  5.574620E+04 -1.586459E+04 -1.016437E+04
       270   4  1.415849E+05  9.779957E+04  1.053467E+04  1.159800E+05 -9.305024E+03 -1.112739E+02
       270   5  1.433042E+05  1.006794E+05  1.923513E+04  1.106800E+05 -1.668447E+04 -6.737608E+03
       270   6  1.536538E+05  1.192671E+05  3.897651E+04  9.987829E+04 -2.264844E+04 -1.525201E+04
       270   7  2.030723E+05  1.395773E+05  2.459023E+04  1.465259E+05 -8.836084E+03  2.402974E+02
       270   8  2.004559E+05  1.592530E+05  3.683150E+04  1.480222E+05 -1.984228E+04 -9.106032E+03
       270   9  2.072555E+05  1.954231E+05  6.326003E+04  1.440172E+05 -2.943317E+04 -2.034110E+04
       270  10  8.010186E+04  5.602393E+04 -3.521280E+03  8.543757E+04 -1.179808E-10 -7.808287E-11
       270  11  8.615694E+04  4.211118E+04  1.638385E+03  7.334275E+04 -6.555613E-11  4.070107E-11
       270  12  1.000569E+05  4.312128E+04  1.469269E+04  5.574607E+04  1.323982E-10  1.792630E-10
       270  13  1.415848E+05  9.779954E+04  1.053451E+04  1.159800E+05 -1.274085E-11 -5.049310E-11
       270  14  1.433039E+05  1.006793E+05  1.923453E+04  1.106799E+05  9.141512E-11  1.034118E-10
       270  15  1.536532E+05  1.192668E+05  3.897511E+04  9.987801E+04  7.666380E-11  1.102652E-10
       270  16  2.030722E+05  1.395773E+05  2.459009E+04  1.465259E+05  1.348522E-10  5.904200E-11
       270  17  2.004554E+05  1.592528E+05  3.683061E+04  1.480221E+05  2.536335E-12 -3.162711E-11
       270  18  2.072545E+05  1.954224E+05  6.325762E+04  1.440167E+05 -9.251266E-11 -2.646416E-11
       270  19  8.010197E+04  5.602396E+04 -3.521100E+03  8.543757E+04  9.773900E+03  4.628003E+02
       270  20  8.615714E+04  4.211125E+04  1.638765E+03  7.334279E+04  1.352708E+04  4.369671E+03
       270  21  1.000572E+05  4.312146E+04  1.469336E+04  5.574620E+04  1.586459E+04  1.016437E+04
       270  22  1.415849E+05  9.779957E+04  1.053467E+04  1.159800E+05  9.305024E+03  1.112739E+02
       270  23  1.433042E+05  1.006794E+05  1.923513E+04  1.106800E+05  1.668447E+04  6.737608E+03
       270  24  1.536538E+05  1.192671E+05  3.897651E+04  9.987829E+04  2.264844E+04  1.525201E+04
       270  25  2.030723E+05  1.395773E+05  2.459023E+04  1.465259E+05  8.836084E+03 -2.402974E+02
       270  26  2.004559E+05  1.592530E+05  3.683150E+04  1.480222E+05  1.984228E+04  9.106032E+03
       270  27  2.072555E+05  1.954231E+05  6.326003E+04  1.440172E+05  2.943317E+04  2.034110E+04
       271   1  3.359963E+05  4.855798E+04  5.095199E+04  2.480148E+04  3.150193E+04 -7.882033E+02
       271   2  3.311014E+05  2.203676E+04  2.876762E+04  1.284029E+04  1.939632E+04 -2.716654E+03
       271   3  3.324130E+05  1.403957E+04  1.909304E+04  1.143899E+03  7.290680E+03 -3.433173E+03
       271   4  2.814979E+05  3.513588E+04  3.831798E+04  1.997377E+03  2.663387E+04 -7.892590E+02
       271   5  2.785989E+05  9.595084E+03  1.904251E+04  1.864827E+03  1.685597E+04 -2.716983E+03
       271   6  2.815025E+05  2.174699E+03  1.066138E+04  1.997126E+03  7.077964E+03 -3.433188E+03
       271   7  2.270034E+05  2.171554E+04  2.568414E+04 -2.080471E+04  2.176625E+04 -7.899574E+02
       271   8  2.260992E+05 -2.846290E+03  9.317375E+03 -9.109682E+03  1.431582E+04 -2.717221E+03
       271   9  2.305946E+05 -9.690300E+03  2.229639E+03  2.850280E+03  6.865265E+03 -3.433204E+03
       271  10  3.359952E+05  4.855771E+04  5.095013E+04  2.480150E+04 -3.810723E-12 -5.838446E-12
       271  11  3.311010E+05  2.203665E+04  2.876689E+04  1.284033E+04  1.945431E-10 -8.400032E-12
       271  12  3.324129E+05  1.403954E+04  1.909292E+04  1.143919E+03 -2.605451E-11  4.742534E-11
       271  13  2.814971E+05  3.513569E+04  3.831665E+04  1.997394E+03  1.091306E-10 -2.198458E-11
       271  14  2.785986E+05  9.595000E+03  1.904196E+04  1.864864E+03  9.637744E-11  2.466668E-11
       271  15  2.815025E+05  2.174672E+03  1.066126E+04  1.997145E+03 -9.033001E-11  8.658827E-11
       271  16  2.270029E+05  2.171541E+04  2.568325E+04 -2.080470E+04  9.648499E-11 -3.252787E-11
       271  17  2.260990E+05 -2.846352E+03  9.316976E+03 -9.109651E+03  9.774468E-11  2.137700E-11
       271  18  2.305945E+05 -9.690326E+03  2.229529E+03  2.850299E+03  5.301576E-11  9.884220E-11
       271  19  3.359963E+05  4.855798E+04  5.095199E+04  2.480148E+04 -3.150193E+04  7.882033E+02
       271  20  3.311014E+05  2.203676E+04  2.876762E+04  1.284029E+04 -1.939632E+04  2.716654E+03
       271  21  3.324130E+05  1.403957E+04  1.909304E+04  1.143899E+03 -7.290680E+03  3.433173E+03
       271  22  2.814979E+05  3.513588E+04  3.831798E+04  1.997377E+03 -2.663387E+04  7.892590E+02
       271  23  2.785989E+05  9.595084E+03  1.904251E+04  1.864827E+03 -1.685597E+04  2.716983E+03
       271  24  2.815025E+05  2.174699E+03  1.066138E+04  1.997126E+03 -7.077964E+03  3.433188E+03
       271  25  2.270034E+05  2.171554E+04  2.568414E+04 -2.080471E+04 -2.176625E+04  7.899574E+02
       271  26  2.260992E+05 -2.846290E+03  9.317375E+03 -9.109682E+03 -1.431582E+04  2.717221E+03
       271  27  2.305946E+05 -9.690300E+03  2.229639E+03  2.850280E+03 -6.865265E+03  3.433204E+03
       272   1  3.300663E+05  1.356178E+04  1.636836E+04  3.028879E+03  5.938655E+03 -3.461072E+03
       272   2  3.279387E+05  1.150524E+04  1.270670E+04  2.267374E+03  3.104355E+03 -3.534268E+03
       272   3  3.265073E+05  1.075720E+04  1.121677E+04  1.853106E+03  2.700654E+02 -3.470342E+03
       272   4  2.803573E+05  2.004174E+03  8.271886E+03  2.015507E+03  5.666074E+03 -3.461108E+03
       272   5  2.800324E+05  4.164039E+02  5.152198E+03  1.841902E+03  3.095333E+03 -3.534296E+03
       272   6  2.803578E+05  9.145771E+01  4.021400E+03  2.015534E+03  5.245953E+02 -3.470363E+03
       272   7  2.306509E+05 -9.553550E+03  1.753455E+02  1.002218E+03  5.393514E+03 -3.461142E+03
       272   8  2.321283E+05 -1.067254E+04 -2.402355E+03  1.416464E+03  3.086313E+03 -3.534324E+03
       272   9  2.342105E+05 -1.057439E+04 -3.174023E+03  2.177951E+03  7.791069E+02 -3.470383E+03
       272  10  3.300662E+05  1.356175E+04  1.636827E+04  3.028896E+03  3.612163E-11  8.953484E-11
       272  11  3.279387E+05  1.150522E+04  1.270665E+04  2.267383E+03 -1.633932E-11  1.012171E-10
       272  12  3.265073E+05  1.075719E+04  1.121675E+04  1.853106E+03 -3.600797E-11 -8.242865E-12
       272  13  2.803573E+05  2.004153E+03  8.271804E+03  2.015523E+03  1.512831E-10  7.498801E-11
       272  14  2.800323E+05  4.163879E+02  5.152157E+03  1.841911E+03  1.181009E-10  5.418943E-11
       272  15  2.803578E+05  9.144470E+01  4.021377E+03  2.015536E+03  3.696054E-11  1.537080E-11
       272  16  2.306508E+05 -9.553571E+03  1.752684E+02  1.002233E+03 -2.402041E-11  5.585975E-11
       272  17  2.321283E+05 -1.067256E+04 -2.402397E+03  1.416472E+03  1.049547E-10 -5.231379E-11
       272  18  2.342105E+05 -1.057440E+04 -3.174047E+03  2.177953E+03  5.619404E-11  3.576376E-11
       272  19  3.300663E+05  1.356178E+04  1.636836E+04  3.028879E+03 -5.938655E+03  3.461072E+03
       272  20  3.279387E+05  1.150524E+04  1.270670E+04  2.267374E+03 -3.104355E+03  3.534268E+03
       272  21  3.265073E+05  1.075720E+04  1.121677E+04  1.853106E+03 -2.700654E+02  3.470342E+03
       272  22  2.803573E+05  2.004174E+03  8.271886E+03  2.015507E+03 -5.666074E+03  3.461108E+03
       272  23  2.800324E+05  4.164039E+02  5.152198E+03  1.841902E+03 -3.095333E+03  3.534296E+03
       272  24  2.803578E+05  9.145771E+01  4.021400E+03  2.015534E+03 -5.245953E+02  3.470363E+03
       272  25  2.306509E+05 -9.553550E+03  1.753455E+02  1.002218E+03 -5.393514E+03  3.461142E+03
       272  26  2.321283E+05 -1.067254E+04 -2.402355E+03  1.416464E+03 -3.086313E+03  3.534324E+03
       272  27  2.342105E+05 -1.057439E+04 -3.174023E+03  2.177951E+03 -7.791069E+02  3.470383E+03
       273   1  3.253636E+05  1.049440E+04  1.096730E+04  2.148361E+03 -4.083404E+02 -3.393180E+03
       273   2  3.232749E+05  1.036617E+04  1.158685E+04  1.445019E+03 -2.993633E+03 -3.217220E+03
       273   3  3.218165E+05  1.141299E+04  1.418272E+04  1.102402E+03 -5.578891E+03 -2.943227E+03
       273   4  2.803461E+05  9.223355E+01  3.958341E+03  2.018535E+03 -1.644067E+02 -3.393198E+03
       273   5  2.800471E+05  3.672939E+02  4.805125E+03  1.838161E+03 -2.561256E+03 -3.217232E+03
       273   6  2.803458E+05  1.784742E+03  7.497495E+03  2.018504E+03 -4.958080E+03 -2.943233E+03
       273   7  2.353307E+05 -1.031003E+04 -3.050667E+03  1.888719E+03  7.950989E+01 -3.393217E+03
       273   8  2.368213E+05 -9.631673E+03 -1.976643E+03  2.231275E+03 -2.128907E+03 -3.217243E+03
       273   9  2.388768E+05 -7.843588E+03  8.122226E+02  2.934543E+03 -4.337308E+03 -2.943237E+03
       273  10  3.253636E+05  1.049439E+04  1.096728E+04  2.148360E+03  3.122287E-11 -9.190856E-11
       273  11  3.232748E+05  1.036616E+04  1.158681E+04  1.445011E+03 -2.642953E-10 -1.463580E-10
       273  12  3.218164E+05  1.141297E+04  1.418265E+04  1.102389E+03 -1.276354E-10 -9.909201E-11
       273  13  2.803461E+05  9.222117E+01  3.958319E+03  2.018535E+03  4.222364E-11 -1.827442E-11
       273  14  2.800471E+05  3.672810E+02  4.805093E+03  1.838155E+03  3.120612E-12 -3.021132E-11
       273  15  2.803458E+05  1.784726E+03  7.497432E+03  2.018493E+03 -1.968835E-10 -8.342536E-11
       273  16  2.353307E+05 -1.031004E+04 -3.050689E+03  1.888719E+03 -1.868285E-10  4.230123E-11
       273  17  2.368212E+05 -9.631685E+03 -1.976671E+03  2.231269E+03  2.773472E-11 -3.186830E-11
       273  18  2.388768E+05 -7.843602E+03  8.121710E+02  2.934533E+03  1.165955E-10  3.320139E-11
       273  19  3.253636E+05  1.049440E+04  1.096730E+04  2.148361E+03  4.083404E+02  3.393180E+03
       273  20  3.232749E+05  1.036617E+04  1.158685E+04  1.445019E+03  2.993633E+03  3.217220E+03
       273  21  3.218165E+05  1.141299E+04  1.418272E+04  1.102402E+03  5.578891E+03  2.943227E+03
       273  22  2.803461E+05  9.223355E+01  3.958341E+03  2.018535E+03  1.644067E+02  3.393198E+03
       273  23  2.800471E+05  3.672939E+02  4.805125E+03  1.838161E+03  2.561256E+03  3.217232E+03
       273  24  2.803458E+05  1.784742E+03  7.497495E+03  2.018504E+03  4.958080E+03  2.943233E+03
       273  25  2.353307E+05 -1.031003E+04 -3.050667E+03  1.888719E+03 -7.950989E+01  3.393217E+03
       273  26  2.368213E+05 -9.631673E+03 -1.976643E+03  2.231275E+03  2.128907E+03  3.217243E+03
       273  27  2.388768E+05 -7.843588E+03  8.122226E+02  2.934543E+03  4.337308E+03  2.943237E+03
       274   1  3.217536E+05  1.133424E+04  1.620455E+04  2.784016E+03 -6.817139E+03 -2.790992E+03
       274   2  3.172652E+05  1.765913E+04  2.404407E+04 -7.979694E+03 -1.709923E+04 -2.089133E+03
       274   3  3.182247E+05  4.042369E+04  4.268539E+04 -1.832801E+04 -2.738154E+04 -5.875870E+02
       274   4  2.813646E+05  1.938116E+03  9.599253E+03  2.030844E+03 -6.236190E+03 -2.790979E+03
       274   5  2.787720E+05  8.562166E+03  1.703501E+04  1.822505E+03 -1.498253E+04 -2.089322E+03
       274   6  2.813606E+05  3.135948E+04  3.420666E+04  2.029774E+03 -2.372904E+04 -5.883056E+02
       274   7  2.409773E+05 -7.458091E+03  2.993910E+03  1.277723E+03 -5.655277E+03 -2.790967E+03
       274   8  2.402804E+05 -5.345222E+02  1.002596E+04  1.162408E+04 -1.286595E+04 -2.089445E+03
       274   9  2.444987E+05  2.229673E+04  2.572811E+04  2.238634E+04 -2.007676E+04 -5.887848E+02
       274  10  3.217535E+05  1.133422E+04  1.620445E+04  2.784000E+03 -2.530713E-11 -9.530243E-11
       274  11  3.172649E+05  1.765905E+04  2.404351E+04 -7.979723E+03 -1.494120E-10 -5.736142E-11
       274  12  3.182239E+05  4.042349E+04  4.268398E+04 -1.832802E+04 -8.768525E-11 -3.687773E-11
       274  13  2.813646E+05  1.938097E+03  9.599166E+03  2.030830E+03  1.977495E-10 -1.303783E-11
       274  14  2.787717E+05  8.562101E+03  1.703458E+04  1.822480E+03  9.059426E-11 -3.656747E-11
       274  15  2.813600E+05  3.135933E+04  3.420560E+04  2.029762E+03  1.483371E-10  5.611497E-11
       274  16  2.409773E+05 -7.458108E+03  2.993835E+03  1.277710E+03  1.430617E-10  7.288209E-11
       274  17  2.402802E+05 -5.345713E+02  1.002564E+04  1.162406E+04 -3.172810E-13 -1.829907E-11
       274  18  2.444983E+05  2.229663E+04  2.572736E+04  2.238633E+04  6.035621E-11  2.878677E-11
       274  19  3.217536E+05  1.133424E+04  1.620455E+04  2.784016E+03  6.817139E+03  2.790992E+03
       274  20  3.172652E+05  1.765913E+04  2.404407E+04 -7.979694E+03  1.709923E+04  2.089133E+03
       274  21  3.182247E+05  4.042369E+04  4.268539E+04 -1.832801E+04  2.738154E+04  5.875870E+02
       274  22  2.813646E+05  1.938116E+03  9.599253E+03  2.030844E+03  6.236190E+03  2.790979E+03
       274  23  2.787720E+05  8.562166E+03  1.703501E+04  1.822505E+03  1.498253E+04  2.089322E+03
       274  24  2.813606E+05  3.135948E+04  3.420666E+04  2.029774E+03  2.372904E+04  5.883056E+02
       274  25  2.409773E+05 -7.458091E+03  2.993910E+03  1.277723E+03  5.655277E+03  2.790967E+03
       274  26  2.402804E+05 -5.345222E+02  1.002596E+04  1.162408E+04  1.286595E+04  2.089445E+03
       274  27  2.444987E+05  2.229673E+04  2.572811E+04  2.238634E+04  2.007676E+04  5.887848E+02
       275   1 -4.014908E+04 -8.532963E+04 -4.065940E+04  1.185211E+04 -1.277023E+03 -2.252238E+04
       275   2 -2.528969E+04 -8.406387E+04 -2.618750E+04  5.428964E+03 -4.458844E+03 -1.346615E+04
       275   3 -2.111376E+04 -8.664774E+04 -2.028258E+04 -1.269265E+03 -5.777814E+03 -4.409755E+03
       275   4 -1.947269E+04 -1.348338E+03 -2.125834E+04 -7.946432E+02 -1.276315E+03 -1.462582E+04
       275   5 -5.321407E+03  2.658860E+02 -1.067684E+04 -6.576793E+02 -4.458472E+03 -9.145486E+03
       275   6 -1.232105E+03 -1.348382E+03 -6.178487E+03 -7.956659E+02 -5.777702E+03 -3.665094E+03
       275   7  1.203835E+03  8.263995E+04 -1.857435E+03 -1.344312E+04 -1.275929E+03 -6.728186E+03
       275   8  1.464662E+04  8.460266E+04  4.833618E+03 -6.745171E+03 -4.458184E+03 -4.824245E+03
       275   9  1.864918E+04  8.395817E+04  7.925395E+03 -3.219999E+02 -5.777589E+03 -2.920335E+03
       275  10 -4.014921E+04 -8.533018E+04 -4.066036E+04  1.185209E+04 -4.982571E-11 -2.093880E-10
       275  11 -2.528976E+04 -8.406407E+04 -2.618788E+04  5.428915E+03  6.549180E-11 -1.473674E-11
       275  12 -2.111380E+04 -8.664777E+04 -2.028268E+04 -1.269285E+03  4.612719E-11  2.368399E-10
       275  13 -1.947275E+04 -1.348568E+03 -2.125875E+04 -7.946582E+02 -4.411236E-11  4.293015E-11
       275  14 -5.321450E+03  2.657909E+02 -1.067703E+04 -6.577122E+02 -1.999357E-11 -2.817133E-11
       275  15 -1.232145E+03 -1.348405E+03 -6.178575E+03 -7.956830E+02 -1.639158E-10  1.448740E-10
       275  16  1.203821E+03  8.263990E+04 -1.857524E+03 -1.344313E+04 -5.054797E-12  2.287055E-10
       275  17  1.464659E+04  8.460263E+04  4.833537E+03 -6.745188E+03 -2.760121E-10 -8.024022E-11
       275  18  1.864914E+04  8.395815E+04  7.925316E+03 -3.220135E+02 -1.898967E-10 -2.923545E-10
       275  19 -4.014908E+04 -8.532963E+04 -4.065940E+04  1.185211E+04  1.277023E+03  2.252238E+04
       275  20 -2.528969E+04 -8.406387E+04 -2.618750E+04  5.428964E+03  4.458844E+03  1.346615E+04
       275  21 -2.111376E+04 -8.664774E+04 -2.028258E+04 -1.269265E+03  5.777814E+03  4.409755E+03
       275  22 -1.947269E+04 -1.348338E+03 -2.125834E+04 -7.946432E+02  1.276315E+03  1.462582E+04
       275  23 -5.321407E+03  2.658860E+02 -1.067684E+04 -6.576793E+02  4.458472E+03  9.145486E+03
       275  24 -1.232105E+03 -1.348382E+03 -6.178487E+03 -7.956659E+02  5.777702E+03  3.665094E+03
       275  25  1.203835E+03  8.263995E+04 -1.857435E+03 -1.344312E+04  1.275929E+03  6.728186E+03
       275  26  1.464662E+04  8.460266E+04  4.833618E+03 -6.745171E+03  4.458184E+03  4.824245E+03
       275  27  1.864918E+04  8.395817E+04  7.925395E+03 -3.219999E+02  5.777589E+03  2.920335E+03
       276   1 -2.105885E+04 -8.637269E+04 -1.891838E+04 -1.688514E+02 -5.957044E+03 -3.675103E+03
       276   2 -2.038605E+04 -8.673906E+04 -1.735360E+04 -6.091885E+02 -6.196045E+03 -1.134833E+03
       276   3 -2.085766E+04 -8.772171E+04 -1.772870E+04 -1.183724E+03 -6.032455E+03  1.405406E+03
       276   4 -1.138365E+03 -7.380889E+02 -4.954571E+03 -7.643196E+02 -5.956909E+03 -2.829784E+03
       276   5 -3.734205E+02 -4.970813E+02 -3.536871E+03 -6.972523E+02 -6.195958E+03 -1.062165E+03
       276   6 -6.186458E+02 -7.381309E+02 -3.522315E+03 -7.643831E+02 -6.032440E+03  7.054259E+02
       276   7  1.878175E+04  8.490378E+04  9.009033E+03 -1.359873E+03 -5.956776E+03 -1.984354E+03
       276   8  1.963884E+04  8.575229E+04  1.027966E+04 -7.853290E+02 -6.195871E+03 -9.894870E+02
       276   9  1.961998E+04  8.625294E+04  1.068386E+04 -3.449814E+02 -6.032427E+03  5.351134E+00
       276  10 -2.105890E+04 -8.637272E+04 -1.891847E+04 -1.688690E+02  5.667635E-11  4.883388E-12
       276  11 -2.038609E+04 -8.673908E+04 -1.735368E+04 -6.091942E+02 -1.098201E-10  3.346113E-12
       276  12 -2.085770E+04 -8.772172E+04 -1.772878E+04 -1.183717E+03 -1.018141E-10  2.250782E-13
       276  13 -1.138405E+03 -7.381071E+02 -4.954653E+03 -7.643331E+02  3.304157E-11  7.274929E-11
       276  14 -3.734620E+02 -4.970928E+02 -3.536946E+03 -6.972576E+02 -3.327677E-12 -7.799925E-11
       276  15 -6.186850E+02 -7.381412E+02 -3.522384E+03 -7.643797E+02  2.250327E-10  2.449304E-10
       276  16  1.878171E+04  8.490377E+04  9.008959E+03 -1.359882E+03 -1.114354E-11  5.209069E-12
       276  17  1.963880E+04  8.575228E+04  1.027959E+04 -7.853339E+02  2.241591E-10 -8.135926E-11
       276  18  1.961994E+04  8.625294E+04  1.068379E+04 -3.449814E+02  9.290612E-11 -1.139376E-10
       276  19 -2.105885E+04 -8.637269E+04 -1.891838E+04 -1.688514E+02  5.957044E+03  3.675103E+03
       276  20 -2.038605E+04 -8.673906E+04 -1.735360E+04 -6.091885E+02  6.196045E+03  1.134833E+03
       276  21 -2.085766E+04 -8.772171E+04 -1.772870E+04 -1.183724E+03  6.032455E+03 -1.405406E+03
       276  22 -1.138365E+03 -7.380889E+02 -4.954571E+03 -7.643196E+02  5.956909E+03  2.829784E+03
       276  23 -3.734205E+02 -4.970813E+02 -3.536871E+03 -6.972523E+02  6.195958E+03  1.062165E+03
       276  24 -6.186458E+02 -7.381309E+02 -3.522315E+03 -7.643831E+02  6.032440E+03 -7.054259E+02
       276  25  1.878175E+04  8.490378E+04  9.009033E+03 -1.359873E+03  5.956776E+03  1.984354E+03
       276  26  1.963884E+04  8.575229E+04  1.027966E+04 -7.853290E+02  6.195871E+03  9.894870E+02
       276  27  1.961998E+04  8.625294E+04  1.068386E+04 -3.449814E+02  6.032427E+03 -5.351134E+00
       277   1 -2.107501E+04 -8.852727E+04 -1.841627E+04 -5.293484E+02 -5.902966E+03  1.875241E+03
       277   2 -2.360923E+04 -8.802625E+04 -2.212903E+04 -3.980096E+03 -4.603052E+03  8.704977E+03
       277   3 -3.211187E+04 -8.990616E+04 -3.178051E+04 -7.416405E+03 -1.323868E+03  1.553427E+04
       277   4 -6.712084E+02 -1.013475E+03 -3.915547E+03 -7.314885E+02 -5.902951E+03  1.281043E+03
       277   5 -2.789803E+03 -1.529572E+02 -5.914389E+03 -7.381756E+02 -4.603457E+03  4.311280E+03
       277   6 -1.021674E+04 -1.013502E+03 -1.121303E+04 -7.305030E+02 -1.324747E+03  7.341176E+03
       277   7  1.973219E+04  8.650789E+04  1.058495E+04 -9.336582E+02 -5.902934E+03  6.867650E+02
       277   8  1.802924E+04  8.772789E+04  1.030001E+04  2.504216E+03 -4.603907E+03 -8.302204E+01
       277   9  1.167804E+04  8.788670E+04  9.354192E+03  5.956363E+03 -1.325801E+03 -8.530786E+02
       277  10 -2.107505E+04 -8.852729E+04 -1.841634E+04 -5.293395E+02  4.229153E-11 -1.200289E-10
       277  11 -2.360927E+04 -8.802634E+04 -2.212921E+04 -3.980064E+03 -1.504511E-10 -3.468376E-11
       277  12 -3.211194E+04 -8.990642E+04 -3.178096E+04 -7.416388E+03 -6.114587E-11  5.602683E-11
       277  13 -6.712462E+02 -1.013486E+03 -3.915616E+03 -7.314824E+02  6.329394E-11  1.181253E-10
       277  14 -2.789830E+03 -1.529829E+02 -5.914464E+03 -7.381596E+02  1.880030E-10 -1.168504E-10
       277  15 -1.021676E+04 -1.013561E+03 -1.121314E+04 -7.304951E+02  1.694190E-11  3.334090E-10
       277  16  1.973216E+04  8.650788E+04  1.058488E+04 -9.336549E+02  1.411347E-10  1.177990E-10
       277  17  1.802921E+04  8.772788E+04  1.029997E+04  2.504215E+03  1.216315E-10 -1.330184E-10
       277  18  1.167804E+04  8.788670E+04  9.354188E+03  5.956362E+03  1.504286E-10 -2.212961E-10
       277  19 -2.107501E+04 -8.852727E+04 -1.841627E+04 -5.293484E+02  5.902966E+03 -1.875241E+03
       277  20 -2.360923E+04 -8.802625E+04 -2.212903E+04 -3.980096E+03  4.603052E+03 -8.704977E+03
       277  21 -3.211187E+04 -8.990616E+04 -3.178051E+04 -7.416405E+03  1.323868E+03 -1.553427E+04
       277  22 -6.712084E+02 -1.013475E+03 -3.915547E+03 -7.314885E+02  5.902951E+03 -1.281043E+03
       277  23 -2.789803E+03 -1.529572E+02 -5.914389E+03 -7.381756E+02  4.603457E+03 -4.311280E+03
       277  24 -1.021674E+04 -1.013502E+03 -1.121303E+04 -7.305030E+02  1.324747E+03 -7.341176E+03
       277  25  1.973219E+04  8.650789E+04  1.058495E+04 -9.336582E+02  5.902934E+03 -6.867650E+02
       277  26  1.802924E+04  8.772789E+04  1.030001E+04  2.504216E+03  4.603907E+03  8.302204E+01
       277  27  1.167804E+04  8.788670E+04  9.354192E+03  5.956363E+03  1.325801E+03  8.530786E+02
       278   1  2.443428E+04 -2.142601E+04 -1.749819E+04  1.226735E+04 -7.538467E+03 -5.443339E+03
       278   2  3.089016E+04 -6.176871E+03 -8.633269E+03  1.387502E+04 -4.365471E+03 -2.813783E+03
       278   3  3.588993E+04  2.719407E+03 -3.902600E+03  1.676217E+04 -8.421742E+02 -6.513535E+02
       278   4  3.466096E+04 -2.544422E+03 -1.187810E+04  2.266164E+04 -6.782655E+03 -4.876665E+03
       278   5  3.713170E+04  3.806431E+03 -5.829938E+03  1.956807E+04 -4.506591E+03 -2.919649E+03
       278   6  3.834111E+04  3.999242E+03 -3.137416E+03  1.775399E+04 -1.880217E+03 -1.429798E+03
       278   7  4.488761E+04  1.633734E+04 -6.258145E+03  3.305601E+04 -6.026843E+03 -4.309964E+03
       278   8  4.337323E+04  1.378978E+04 -3.026646E+03  2.526115E+04 -4.647712E+03 -3.025517E+03
       278   9  4.079229E+04  5.279080E+03 -2.372228E+03  1.874582E+04 -2.918265E+03 -2.208245E+03
       278  10  2.443421E+04 -2.142605E+04 -1.749835E+04  1.226732E+04  1.368304E-12 -2.271810E-11
       278  11  3.089014E+04 -6.176884E+03 -8.633319E+03  1.387501E+04 -7.961723E-11 -4.370536E-11
       278  12  3.588993E+04  2.719406E+03 -3.902602E+03  1.676217E+04  2.008159E-10 -2.180268E-11
       278  13  3.466090E+04 -2.544460E+03 -1.187823E+04  2.266161E+04  8.342871E-11 -3.072451E-11
       278  14  3.713168E+04  3.806416E+03 -5.829992E+03  1.956806E+04 -6.046802E-11  2.896743E-11
       278  15  3.834110E+04  3.999239E+03 -3.137427E+03  1.775399E+04  1.299049E-10  1.495935E-11
       278  16  4.488757E+04  1.633731E+04 -6.258248E+03  3.305599E+04 -4.722721E-11 -5.451511E-12
       278  17  4.337321E+04  1.378976E+04 -3.026704E+03  2.526114E+04 -1.413555E-10  5.064646E-12
       278  18  4.079228E+04  5.279072E+03 -2.372253E+03  1.874581E+04 -1.826896E-10 -5.913409E-11
       278  19  2.443428E+04 -2.142601E+04 -1.749819E+04  1.226735E+04  7.538467E+03  5.443339E+03
       278  20  3.089016E+04 -6.176871E+03 -8.633269E+03  1.387502E+04  4.365471E+03  2.813783E+03
       278  21  3.588993E+04  2.719407E+03 -3.902600E+03  1.676217E+04  8.421742E+02  6.513535E+02
       278  22  3.466096E+04 -2.544422E+03 -1.187810E+04  2.266164E+04  6.782655E+03  4.876665E+03
       278  23  3.713170E+04  3.806431E+03 -5.829938E+03  1.956807E+04  4.506591E+03  2.919649E+03
       278  24  3.834111E+04  3.999242E+03 -3.137416E+03  1.775399E+04  1.880217E+03  1.429798E+03
       278  25  4.488761E+04  1.633734E+04 -6.258145E+03  3.305601E+04  6.026843E+03  4.309964E+03
       278  26  4.337323E+04  1.378978E+04 -3.026646E+03  2.526115E+04  4.647712E+03  3.025517E+03
       278  27  4.079229E+04  5.279080E+03 -2.372228E+03  1.874582E+04  2.918265E+03  2.208245E+03
       279   1  4.140424E+04  5.635842E+03 -1.987471E+03  1.913689E+04 -2.971207E+02 -7.565579E+02
       279   2  4.784026E+04  1.231896E+04  8.490886E+02  2.302718E+04  6.788521E+02 -8.876725E+02
       279   3  5.596679E+04  1.673476E+04  3.131446E+03  2.644450E+04  1.690301E+03 -1.066037E+03
       279   4  3.859929E+04  4.153147E+03 -2.332546E+03  1.790086E+04 -1.312355E+03 -1.517902E+03
       279   5  3.785362E+04  5.471596E+03 -1.176613E+03  1.799140E+04 -4.271441E+02 -1.717093E+03
       279   6  3.881799E+04  4.542245E+03 -4.961410E+02  1.760885E+04  4.935190E+02 -1.963543E+03
       279   7  3.579428E+04  2.670424E+03 -2.677633E+03  1.666481E+04 -2.327603E+03 -2.279258E+03
       279   8  2.786710E+04 -1.375707E+03 -3.202311E+03  1.295572E+04 -1.533117E+03 -2.546496E+03
       279   9  2.166990E+04 -7.649817E+03 -4.123610E+03  8.773671E+03 -7.031950E+02 -2.860998E+03
       279  10  4.140424E+04  5.635842E+03 -1.987473E+03  1.913689E+04  1.406206E-10 -1.339740E-11
       279  11  4.784026E+04  1.231896E+04  8.490862E+02  2.302718E+04  3.480023E-11  6.098541E-11
       279  12  5.596678E+04  1.673475E+04  3.131438E+03  2.644450E+04  2.534445E-10  5.711973E-11
       279  13  3.859928E+04  4.153144E+03 -2.332554E+03  1.790086E+04  7.868103E-11 -1.778780E-11
       279  14  3.785362E+04  5.471592E+03 -1.176619E+03  1.799140E+04 -3.599340E-11  3.979151E-12
       279  15  3.881799E+04  4.542240E+03 -4.961487E+02  1.760885E+04  1.237040E-10 -3.769843E-11
       279  16  3.579428E+04  2.670417E+03 -2.677653E+03  1.666481E+04 -1.375654E-11 -3.043929E-11
       279  17  2.786710E+04 -1.375715E+03 -3.202328E+03  1.295572E+04 -2.013785E-10 -2.907539E-12
       279  18  2.166990E+04 -7.649826E+03 -4.123626E+03  8.773670E+03 -2.069793E-10 -4.440134E-11
       279  19  4.140424E+04  5.635842E+03 -1.987471E+03  1.913689E+04  2.971207E+02  7.565579E+02
       279  20  4.784026E+04  1.231896E+04  8.490886E+02  2.302718E+04 -6.788521E+02  8.876725E+02
       279  21  5.596679E+04  1.673476E+04  3.131446E+03  2.644450E+04 -1.690301E+03  1.066037E+03
       279  22  3.859929E+04  4.153147E+03 -2.332546E+03  1.790086E+04  1.312355E+03  1.517902E+03
       279  23  3.785362E+04  5.471596E+03 -1.176613E+03  1.799140E+04  4.271441E+02  1.717093E+03
       279  24  3.881799E+04  4.542245E+03 -4.961410E+02  1.760885E+04 -4.935190E+02  1.963543E+03
       279  25  3.579428E+04  2.670424E+03 -2.677633E+03  1.666481E+04  2.327603E+03  2.279258E+03
       279  26  2.786710E+04 -1.375707E+03 -3.202311E+03  1.295572E+04  1.533117E+03  2.546496E+03
       279  27  2.166990E+04 -7.649817E+03 -4.123610E+03  8.773671E+03  7.031950E+02  2.860998E+03
       280   1  6.071012E+04  2.000038E+04  4.440169E+03  2.884004E+04  2.011522E+03 -1.395748E+03
       280   2  6.708144E+04  2.615109E+04  6.514359E+03  3.286028E+04  2.338511E+03 -2.110693E+03
       280   3  7.543360E+04  3.037544E+04  8.704026E+03  3.631213E+04  2.653504E+03 -2.809605E+03
       280   4  3.884382E+04  4.553775E+03 -2.338329E+02  1.763147E+04  8.161295E+02 -2.292219E+03
       280   5  3.786832E+04  5.540819E+03  2.602497E+02  1.790033E+04  1.173886E+03 -2.984117E+03
       280   6  3.886692E+04  4.594806E+03  8.431115E+02  1.760075E+04  1.519651E+03 -3.659983E+03
       280   7  1.697806E+04 -1.089254E+04 -4.907853E+03  6.423354E+03 -3.792078E+02 -3.188648E+03
       280   8  8.655898E+03 -1.506914E+04 -5.994000E+03  2.941046E+03  9.322410E+00 -3.857495E+03
       280   9  2.301043E+03 -2.118554E+04 -7.018123E+03 -1.109721E+03  3.858627E+02 -4.510311E+03
       280  10  6.071012E+04  2.000038E+04  4.440158E+03  2.884005E+04 -3.210082E-12 -6.765233E-11
       280  11  6.708143E+04  2.615108E+04  6.514340E+03  3.286028E+04 -8.768830E-11  4.737199E-11
       280  12  7.543359E+04  3.037543E+04  8.703998E+03  3.631214E+04  4.013414E-11  8.267188E-11
       280  13  3.884381E+04  4.553769E+03 -2.338440E+02  1.763147E+04 -3.297008E-11  1.360124E-11
       280  14  3.786832E+04  5.540809E+03  2.602304E+02  1.790033E+04  1.281728E-11  3.992556E-11
       280  15  3.886691E+04  4.594791E+03  8.430820E+02  1.760076E+04 -1.471358E-10  7.194470E-11
       280  16  1.697806E+04 -1.089255E+04 -4.907872E+03  6.423353E+03 -6.286638E-11  9.812392E-11
       280  17  8.655894E+03 -1.506915E+04 -5.994028E+03  2.941046E+03  1.035808E-10  7.507209E-11
       280  18  2.301037E+03 -2.118556E+04 -7.018161E+03 -1.109719E+03 -1.255907E-10  1.199863E-12
       280  19  6.071012E+04  2.000038E+04  4.440169E+03  2.884004E+04 -2.011522E+03  1.395748E+03
       280  20  6.708144E+04  2.615109E+04  6.514359E+03  3.286028E+04 -2.338511E+03  2.110693E+03
       280  21  7.543360E+04  3.037544E+04  8.704026E+03  3.631213E+04 -2.653504E+03  2.809605E+03
       280  22  3.884382E+04  4.553775E+03 -2.338329E+02  1.763147E+04 -8.161295E+02  2.292219E+03
       280  23  3.786832E+04  5.540819E+03  2.602497E+02  1.790033E+04 -1.173886E+03  2.984117E+03
       280  24  3.886692E+04  4.594806E+03  8.431115E+02  1.760075E+04 -1.519651E+03  3.659983E+03
       280  25  1.697806E+04 -1.089254E+04 -4.907853E+03  6.423354E+03  3.792078E+02  3.188648E+03
       280  26  8.655898E+03 -1.506914E+04 -5.994000E+03  2.941046E+03 -9.322410E+00  3.857495E+03
       280  27  2.301043E+03 -2.118554E+04 -7.018123E+03 -1.109721E+03 -3.858627E+02  4.510311E+03
       281   1  8.008262E+04  3.377605E+04  1.014593E+04  3.875595E+04  2.786481E+03 -3.261304E+03
       281   2  8.675240E+04  3.966902E+04  1.299944E+04  4.248226E+04  1.848685E+03 -4.738692E+03
       281   3  9.588872E+04  4.425213E+04  1.710706E+04  4.547391E+04  7.607712E+02 -6.015878E+03
       281   4  3.890311E+04  4.618107E+03  1.216519E+03  1.763577E+04  1.643003E+03 -4.118918E+03
       281   5  3.791107E+04  5.669557E+03  2.312749E+03  1.773681E+04  1.089735E+03 -5.307950E+03
       281   6  3.930223E+04  5.327917E+03  4.329497E+03  1.710326E+04  3.863475E+02 -6.296771E+03
       281   7 -2.273511E+03 -2.453812E+04 -7.712655E+03 -3.482332E+03  4.996488E+02 -4.976439E+03
       281   8 -1.092690E+04 -2.832807E+04 -8.373869E+03 -7.006106E+03  3.308720E+02 -5.877143E+03
       281   9 -1.728048E+04 -3.359439E+04 -8.448231E+03 -1.126440E+04  1.196975E+01 -6.577630E+03
       281  10  8.008261E+04  3.377604E+04  1.014589E+04  3.875596E+04 -7.581214E-11 -2.858891E-11
       281  11  8.675239E+04  3.966900E+04  1.299939E+04  4.248226E+04 -3.894605E-11  3.906453E-11
       281  12  9.588871E+04  4.425209E+04  1.710700E+04  4.547391E+04 -1.102627E-10  4.995920E-11
       281  13  3.890310E+04  4.618088E+03  1.216482E+03  1.763577E+04  5.013506E-11  4.972193E-11
       281  14  3.791106E+04  5.669526E+03  2.312694E+03  1.773682E+04 -8.250137E-11  6.805555E-11
       281  15  3.930221E+04  5.327874E+03  4.329423E+03  1.710326E+04  7.841680E-11  3.657953E-11
       281  16 -2.273518E+03 -2.453815E+04 -7.712702E+03 -3.482330E+03  8.575525E-12  1.126089E-10
       281  17 -1.092691E+04 -2.832811E+04 -8.373935E+03 -7.006104E+03 -5.110837E-11  1.165386E-10
       281  18 -1.728049E+04 -3.359444E+04 -8.448312E+03 -1.126440E+04 -3.695014E-11  9.180339E-11
       281  19  8.008262E+04  3.377605E+04  1.014593E+04  3.875595E+04 -2.786481E+03  3.261304E+03
       281  20  8.675240E+04  3.966902E+04  1.299944E+04  4.248226E+04 -1.848685E+03  4.738692E+03
       281  21  9.588872E+04  4.425213E+04  1.710706E+04  4.547391E+04 -7.607712E+02  6.015878E+03
       281  22  3.890311E+04  4.618107E+03  1.216519E+03  1.763577E+04 -1.643003E+03  4.118918E+03
       281  23  3.791107E+04  5.669557E+03  2.312749E+03  1.773681E+04 -1.089735E+03  5.307950E+03
       281  24  3.930223E+04  5.327917E+03  4.329497E+03  1.710326E+04 -3.863475E+02  6.296771E+03
       281  25 -2.273511E+03 -2.453812E+04 -7.712655E+03 -3.482332E+03 -4.996488E+02  4.976439E+03
       281  26 -1.092690E+04 -2.832807E+04 -8.373869E+03 -7.006106E+03 -3.308720E+02  5.877143E+03
       281  27 -1.728048E+04 -3.359439E+04 -8.448231E+03 -1.126440E+04 -1.196975E+01  6.577630E+03
       282   1  1.001015E+05  4.897353E+04  1.987814E+04  4.845142E+04  4.082064E+02 -6.591844E+03
       282   2  1.132926E+05  5.078515E+04  2.826970E+04  4.748071E+04 -8.116466E+03 -1.188567E+04
       282   3  1.348122E+05  5.930508E+04  4.591545E+04  4.265998E+04 -1.806270E+04 -1.528508E+04
       282   4  3.971928E+04  5.657248E+03  5.762289E+03  1.738299E+04 -5.905467E+01 -6.942373E+03
       282   5  3.928697E+04  8.631064E+03  1.060594E+04  1.485711E+04 -4.944906E+03 -9.507139E+03
       282   6  4.639382E+04  1.752419E+04  2.154593E+04  8.481039E+03 -1.125193E+04 -1.017728E+04
       282   7 -2.065988E+04 -3.765759E+04 -8.354215E+03 -1.368251E+04 -5.262644E+02 -7.292862E+03
       282   8 -3.471240E+04 -3.352106E+04 -7.058135E+03 -1.776244E+04 -1.773860E+03 -7.128896E+03
       282   9 -4.201403E+04 -2.425420E+04 -2.823461E+03 -2.569270E+04 -4.442642E+03 -5.070162E+03
       282  10  1.001015E+05  4.897348E+04  1.987806E+04  4.845142E+04 -9.246262E-11  4.122576E-11
       282  11  1.132925E+05  5.078498E+04  2.826931E+04  4.748064E+04 -7.344674E-11 -4.227076E-11
       282  12  1.348118E+05  5.930474E+04  4.591440E+04  4.265976E+04  1.197951E-10  5.932808E-11
       282  13  3.971927E+04  5.657196E+03  5.762198E+03  1.738299E+04  3.654656E-11  9.304403E-11
       282  14  3.928692E+04  8.630961E+03  1.060572E+04  1.485708E+04 -1.935591E-10  4.720164E-11
       282  15  4.639366E+04  1.752405E+04  2.154549E+04  8.480947E+03  6.457975E-11  1.599739E-10
       282  16 -2.065990E+04 -3.765764E+04 -8.354315E+03 -1.368251E+04 -9.330641E-11  8.737295E-11
       282  17 -3.471241E+04 -3.352111E+04 -7.058236E+03 -1.776245E+04 -5.751902E-11 -3.078181E-11
       282  18 -4.201406E+04 -2.425423E+04 -2.823546E+03 -2.569272E+04 -1.036218E-10 -6.799336E-11
       282  19  1.001015E+05  4.897353E+04  1.987814E+04  4.845142E+04 -4.082064E+02  6.591844E+03
       282  20  1.132926E+05  5.078515E+04  2.826970E+04  4.748071E+04  8.116466E+03  1.188567E+04
       282  21  1.348122E+05  5.930508E+04  4.591545E+04  4.265998E+04  1.806270E+04  1.528508E+04
       282  22  3.971928E+04  5.657248E+03  5.762289E+03  1.738299E+04  5.905467E+01  6.942373E+03
       282  23  3.928697E+04  8.631064E+03  1.060594E+04  1.485711E+04  4.944906E+03  9.507139E+03
       282  24  4.639382E+04  1.752419E+04  2.154593E+04  8.481039E+03  1.125193E+04  1.017728E+04
       282  25 -2.065988E+04 -3.765759E+04 -8.354215E+03 -1.368251E+04  5.262644E+02  7.292862E+03
       282  26 -3.471240E+04 -3.352106E+04 -7.058135E+03 -1.776244E+04  1.773860E+03  7.128896E+03
       282  27 -4.201403E+04 -2.425420E+04 -2.823461E+03 -2.569270E+04  4.442642E+03  5.070162E+03
       283   1  5.230616E+05  8.504866E+04  8.775649E+04  3.415982E+04  5.238896E+04 -1.985089E+03
       283   2  5.181009E+05  4.551879E+04  5.239898E+04  1.658373E+04  3.231794E+04 -6.947712E+03
       283   3  5.227578E+05  3.401109E+04  3.710805E+04 -1.189410E+03  1.224714E+04 -8.996257E+03
       283   4  3.907023E+05  5.246776E+04  5.717020E+04  1.304128E+02  4.005684E+04 -1.988657E+03
       283   5  3.863835E+05  1.434086E+04  2.817460E+04  2.313596E+02  2.558499E+04 -6.949197E+03
       283   6  3.907118E+05  3.266633E+03  1.536098E+04  1.350279E+02  1.111310E+04 -8.996517E+03
       283   7  2.583620E+05  1.989005E+04  2.658392E+04 -3.389169E+04  2.772732E+04 -1.990875E+03
       283   8  2.546836E+05 -1.683703E+04  3.949823E+03 -1.611745E+04  1.885344E+04 -6.950327E+03
       283   9  2.586830E+05 -2.747871E+04 -6.386597E+03  1.459175E+03  9.979303E+03 -8.996782E+03
       283  10  5.230586E+05  8.504792E+04  8.775133E+04  3.415991E+04 -4.393395E-10 -9.168521E-12
       283  11  5.180998E+05  4.551846E+04  5.239692E+04  1.658391E+04  5.858158E-11  2.028539E-10
       283  12  5.227576E+05  3.401096E+04  3.710762E+04 -1.189322E+03  6.202073E-11 -8.109761E-11
       283  13  3.907006E+05  5.246732E+04  5.716717E+04  1.304770E+02  2.036820E-10  1.550743E-10
       283  14  3.863828E+05  1.434063E+04  2.817328E+04  2.315028E+02  3.169009E-10  2.518692E-10
       283  15  3.907116E+05  3.266513E+03  1.536060E+04  1.351084E+02  1.354513E-10  1.297918E-11
       283  16  2.583612E+05  1.988984E+04  2.658247E+04 -3.389165E+04  3.512497E-10  4.411770E-11
       283  17  2.546833E+05 -1.683717E+04  3.949064E+03 -1.611734E+04 -6.158924E-11 -1.027424E-11
       283  18  2.586829E+05 -2.747882E+04 -6.386937E+03  1.459247E+03 -1.536372E-10 -6.427100E-11
       283  19  5.230616E+05  8.504866E+04  8.775649E+04  3.415982E+04 -5.238896E+04  1.985089E+03
       283  20  5.181009E+05  4.551879E+04  5.239898E+04  1.658373E+04 -3.231794E+04  6.947712E+03
       283  21  5.227578E+05  3.401109E+04  3.710805E+04 -1.189410E+03 -1.224714E+04  8.996257E+03
       283  22  3.907023E+05  5.246776E+04  5.717020E+04  1.304128E+02 -4.005684E+04  1.988657E+03
       283  23  3.863835E+05  1.434086E+04  2.817460E+04  2.313596E+02 -2.558499E+04  6.949197E+03
       283  24  3.907118E+05  3.266633E+03  1.536098E+04  1.350279E+02 -1.111310E+04  8.996517E+03
       283  25  2.583620E+05  1.989005E+04  2.658392E+04 -3.389169E+04 -2.772732E+04  1.990875E+03
       283  26  2.546836E+05 -1.683703E+04  3.949823E+03 -1.611745E+04 -1.885344E+04  6.950327E+03
       283  27  2.586830E+05 -2.747871E+04 -6.386597E+03  1.459175E+03 -9.979303E+03  8.996782E+03
       284   1  5.207799E+05  3.363849E+04  3.295160E+04  1.619217E+03  1.040229E+04 -9.252412E+03
       284   2  5.201752E+05  3.110066E+04  2.701557E+04  7.302480E+02  6.593419E+03 -9.747460E+03
       284   3  5.205416E+05  3.046000E+04  2.403250E+04 -1.570215E+02  2.784590E+03 -9.902242E+03
       284   4  3.889803E+05  3.018882E+03  1.158602E+04  1.788985E+02  9.123776E+03 -9.252758E+03
       284   5  3.885519E+05  6.490226E+02  6.312501E+03  1.782768E+02  5.969261E+03 -9.747743E+03
       284   6  3.889814E+05  6.302796E+01  3.538150E+03  1.793425E+02  2.814775E+03 -9.902435E+03
       284   7  2.571979E+05 -2.760160E+04 -9.780042E+03 -1.261104E+03  7.845522E+03 -9.253098E+03
       284   8  2.569460E+05 -2.980347E+04 -1.439099E+04 -3.735736E+02  5.345231E+03 -9.748025E+03
       284   9  2.574385E+05 -3.033479E+04 -1.695661E+04  5.156320E+02  2.844954E+03 -9.902629E+03
       284  10  5.207798E+05  3.363837E+04  3.295124E+04  1.619294E+03 -3.559884E-10 -3.450027E-12
       284  11  5.201751E+05  3.110055E+04  2.701531E+04  7.302998E+02 -4.642111E-10 -2.816423E-10
       284  12  5.205415E+05  3.045989E+04  2.403230E+04 -1.569993E+02  1.331381E-10 -3.392073E-11
       284  13  3.889802E+05  3.018768E+03  1.158570E+04  1.789665E+02 -4.202871E-12 -6.256347E-11
       284  14  3.885519E+05  6.489110E+02  6.312255E+03  1.783237E+02 -2.276046E-10 -1.356134E-10
       284  15  3.889814E+05  6.292052E+01  3.537951E+03  1.793649E+02  6.769193E-11 -1.301046E-10
       284  16  2.571978E+05 -2.760171E+04 -9.780319E+03 -1.261046E+03  2.550066E-10 -1.764972E-10
       284  17  2.569459E+05 -2.980358E+04 -1.439123E+04 -3.735316E+02 -1.118450E-10 -1.481141E-10
       284  18  2.574385E+05 -3.033490E+04 -1.695681E+04  5.156547E+02 -7.469523E-11  6.694860E-12
       284  19  5.207799E+05  3.363849E+04  3.295160E+04  1.619217E+03 -1.040229E+04  9.252412E+03
       284  20  5.201752E+05  3.110066E+04  2.701557E+04  7.302480E+02 -6.593419E+03  9.747460E+03
       284  21  5.205416E+05  3.046000E+04  2.403250E+04 -1.570215E+02 -2.784590E+03  9.902242E+03
       284  22  3.889803E+05  3.018882E+03  1.158602E+04  1.788985E+02 -9.123776E+03  9.252758E+03
       284  23  3.885519E+05  6.490226E+02  6.312501E+03  1.782768E+02 -5.969261E+03  9.747743E+03
       284  24  3.889814E+05  6.302796E+01  3.538150E+03  1.793425E+02 -2.814775E+03  9.902435E+03
       284  25  2.571979E+05 -2.760160E+04 -9.780042E+03 -1.261104E+03 -7.845522E+03  9.253098E+03
       284  26  2.569460E+05 -2.980347E+04 -1.439099E+04 -3.735736E+02 -5.345231E+03  9.748025E+03
       284  27  2.574385E+05 -3.033479E+04 -1.695661E+04  5.156320E+02 -2.844954E+03  9.902629E+03
       285   1  5.203069E+05  3.045456E+04  2.312940E+04  7.934723E+01  2.281367E+03 -9.897628E+03
       285   2  5.200984E+05  3.033750E+04  2.206033E+04  8.973831E+01  9.366093E+02 -9.729010E+03
       285   3  5.201147E+05  3.041400E+04  2.191500E+04  1.414953E+02 -4.082445E+02 -9.222410E+03
       285   4  3.888157E+05  7.356464E+01  2.646415E+03  1.881114E+02  2.280737E+03 -9.897828E+03
       285   5  3.887598E+05 -4.760254E+01  1.404393E+03  1.674441E+02  1.585476E+03 -9.729085E+03
       285   6  3.888159E+05 -8.789007E+01  6.354154E+02  1.881432E+02  8.901291E+02 -9.222324E+03
       285   7  2.573418E+05 -3.030827E+04 -1.783698E+04  2.968510E+02  2.280106E+03 -9.898028E+03
       285   8  2.574383E+05 -3.043356E+04 -1.925197E+04  2.451320E+02  2.234211E+03 -9.729160E+03
       285   9  2.575343E+05 -3.059065E+04 -2.064464E+04  2.347799E+02  2.188238E+03 -9.222238E+03
       285  10  5.203069E+05  3.045445E+04  2.312921E+04  7.936542E+01 -3.528001E-11 -2.962707E-11
       285  11  5.200984E+05  3.033740E+04  2.206015E+04  8.974565E+01  3.244738E-10 -9.175512E-11
       285  12  5.201147E+05  3.041391E+04  2.191484E+04  1.414923E+02  4.023428E-10 -3.682486E-10
       285  13  3.888157E+05  7.345803E+01  2.646221E+03  1.881296E+02 -1.261530E-11 -6.210416E-11
       285  14  3.887597E+05 -4.770488E+01  1.404210E+03  1.674565E+02 -8.791936E-12 -1.382183E-10
       285  15  3.888159E+05 -8.798163E+01  6.352541E+02  1.881498E+02  2.023392E-10 -2.718675E-10
       285  16  2.573417E+05 -3.030838E+04 -1.783717E+04  2.968692E+02  1.820446E-10 -2.309545E-11
       285  17  2.574383E+05 -3.043366E+04 -1.925215E+04  2.451495E+02  3.914241E-13  3.342191E-10
       285  18  2.575342E+05 -3.059074E+04 -2.064481E+04  2.347962E+02 -2.194756E-10 -8.878705E-11
       285  19  5.203069E+05  3.045456E+04  2.312940E+04  7.934723E+01 -2.281367E+03  9.897628E+03
       285  20  5.200984E+05  3.033750E+04  2.206033E+04  8.973831E+01 -9.366093E+02  9.729010E+03
       285  21  5.201147E+05  3.041400E+04  2.191500E+04  1.414953E+02  4.082445E+02  9.222410E+03
       285  22  3.888157E+05  7.356464E+01  2.646415E+03  1.881114E+02 -2.280737E+03  9.897828E+03
       285  23  3.887598E+05 -4.760254E+01  1.404393E+03  1.674441E+02 -1.585476E+03  9.729085E+03
       285  24  3.888159E+05 -8.789007E+01  6.354154E+02  1.881432E+02 -8.901291E+02  9.222324E+03
       285  25  2.573418E+05 -3.030827E+04 -1.783698E+04  2.968510E+02 -2.280106E+03  9.898028E+03
       285  26  2.574383E+05 -3.043356E+04 -1.925197E+04  2.451320E+02 -2.234211E+03  9.729160E+03
       285  27  2.575343E+05 -3.059065E+04 -2.064464E+04  2.347799E+02 -2.188238E+03  9.222238E+03
       286   1  5.201676E+05  3.051030E+04  2.197704E+04  1.630679E+02 -3.600964E+02 -8.958830E+03
       286   2  5.196959E+05  3.069833E+04  2.384371E+04  3.735177E+02 -5.794509E+03 -6.914580E+03
       286   3  5.200545E+05  3.137501E+04  2.936860E+04  8.221423E+02 -1.122978E+04 -1.981538E+03
       286   4  3.887616E+05 -8.427961E+01  3.411769E+02  2.318597E+02  7.945301E+02 -8.958753E+03
       286   5  3.888280E+05 -2.734893E+02 -2.148515E+02  1.128411E+02  9.102890E+02 -6.913099E+03
       286   6  3.887619E+05 -9.370659E+02 -9.647698E+02  2.320482E+02  1.025209E+03 -1.978369E+03
       286   7  2.573727E+05 -3.067974E+04 -2.129519E+04  3.006356E+02  1.948921E+03 -8.958675E+03
       286   8  2.579768E+05 -3.124625E+04 -2.427395E+04 -1.477801E+02  7.613712E+03 -6.911624E+03
       286   9  2.574855E+05 -3.325027E+04 -3.129872E+04 -3.579213E+02  1.327763E+04 -1.975223E+03
       286  10  5.201676E+05  3.051021E+04  2.197689E+04  1.630653E+02  6.390388E-12 -6.158540E-10
       286  11  5.196958E+05  3.069827E+04  2.384356E+04  3.734854E+02 -3.633288E-10 -8.636254E-10
       286  12  5.200544E+05  3.137497E+04  2.936835E+04  8.221244E+02 -6.516447E-10 -2.566941E-10
       286  13  3.887616E+05 -8.436598E+01  3.410249E+02  2.318654E+02 -3.920013E-10 -1.200781E-09
       286  14  3.888280E+05 -2.735408E+02 -2.149429E+02  1.128462E+02  5.589899E-10  3.062629E-10
       286  15  3.887619E+05 -9.370704E+02 -9.647791E+02  2.320498E+02  2.295416E-10 -7.098014E-11
       286  16  2.573727E+05 -3.067983E+04 -2.129535E+04  3.006497E+02  1.412813E-10 -3.162012E-10
       286  17  2.579767E+05 -3.124632E+04 -2.427415E+04 -1.477377E+02  3.490794E-10  1.718391E-10
       286  18  2.574853E+05 -3.325032E+04 -3.129906E+04 -3.579002E+02  5.668438E-10 -3.085318E-10
       286  19  5.201676E+05  3.051030E+04  2.197704E+04  1.630679E+02  3.600964E+02  8.958830E+03
       286  20  5.196959E+05  3.069833E+04  2.384371E+04  3.735177E+02  5.794509E+03  6.914580E+03
       286  21  5.200545E+05  3.137501E+04  2.936860E+04  8.221423E+02  1.122978E+04  1.981538E+03
       286  22  3.887616E+05 -8.427961E+01  3.411769E+02  2.318597E+02 -7.945301E+02  8.958753E+03
       286  23  3.888280E+05 -2.734893E+02 -2.148515E+02  1.128411E+02 -9.102890E+02  6.913099E+03
       286  24  3.887619E+05 -9.370659E+02 -9.647698E+02  2.320482E+02 -1.025209E+03  1.978369E+03
       286  25  2.573727E+05 -3.067974E+04 -2.129519E+04  3.006356E+02 -1.948921E+03  8.958675E+03
       286  26  2.579768E+05 -3.124625E+04 -2.427395E+04 -1.477801E+02 -7.613712E+03  6.911624E+03
       286  27  2.574855E+05 -3.325027E+04 -3.129872E+04 -3.579213E+02 -1.327763E+04  1.975223E+03
       287   1 -1.986349E+04 -6.888437E+03 -2.433357E+04  2.724481E+03  8.626061E+02 -2.530996E+04
       287   2  3.601964E+03 -2.446805E+04 -9.654431E+03 -8.784219E+03  2.580983E+03 -1.789778E+04
       287   3  7.039270E+03 -4.801934E+04 -4.807746E+03 -2.426075E+04  2.374661E+03 -1.048587E+04
       287   4 -4.006191E+04 -8.855516E+04 -4.367371E+04 -2.325302E+04  8.641331E+02 -3.045407E+04
       287   5 -1.094617E+04 -8.524671E+04 -2.162517E+04 -2.126739E+04  2.581505E+03 -1.934839E+04
       287   6 -2.501728E+03 -8.855270E+04 -1.197515E+04 -2.324971E+04  2.374413E+03 -8.242618E+03
       287   7 -6.025825E+04 -1.702142E+05 -6.301385E+04 -4.922708E+04  8.660907E+02 -3.559752E+04
       287   8 -2.549395E+04 -1.460215E+05 -3.359599E+04 -3.374932E+04  2.582085E+03 -2.079886E+04
       287   9 -1.204281E+04 -1.290844E+05 -1.914260E+04 -2.223874E+04  2.374173E+03 -5.999504E+03
       287  10 -1.986367E+04 -6.889126E+03 -2.433478E+04  2.724498E+03 -4.700614E-11 -6.858861E-11
       287  11  3.601871E+03 -2.446840E+04 -9.655046E+03 -8.784182E+03 -8.866043E-11 -6.128696E-11
       287  12  7.039234E+03 -4.801946E+04 -4.807963E+03 -2.426073E+04  4.719461E-11  1.211100E-10
       287  13 -4.006216E+04 -8.855616E+04 -4.367545E+04 -2.325300E+04 -5.819545E-11  9.217795E-12
       287  14 -1.094628E+04 -8.524711E+04 -2.162588E+04 -2.126735E+04 -3.351478E-11 -8.564030E-11
       287  15 -2.501752E+03 -8.855278E+04 -1.197529E+04 -2.324970E+04  2.960803E-11 -7.072831E-11
       287  16 -6.025859E+04 -1.702156E+05 -6.301624E+04 -4.922706E+04 -4.839468E-11  9.703705E-11
       287  17 -2.549407E+04 -1.460220E+05 -3.359682E+04 -3.374927E+04  1.582898E-11 -3.968061E-11
       287  18 -1.204282E+04 -1.290845E+05 -1.914268E+04 -2.223873E+04  4.758034E-11 -8.804214E-11
       287  19 -1.986349E+04 -6.888437E+03 -2.433357E+04  2.724481E+03 -8.626061E+02  2.530996E+04
       287  20  3.601964E+03 -2.446805E+04 -9.654431E+03 -8.784219E+03 -2.580983E+03  1.789778E+04
       287  21  7.039270E+03 -4.801934E+04 -4.807746E+03 -2.426075E+04 -2.374661E+03  1.048587E+04
       287  22 -4.006191E+04 -8.855516E+04 -4.367371E+04 -2.325302E+04 -8.641331E+02  3.045407E+04
       287  23 -1.094617E+04 -8.524671E+04 -2.162517E+04 -2.126739E+04 -2.581505E+03  1.934839E+04
       287  24 -2.501728E+03 -8.855270E+04 -1.197515E+04 -2.324971E+04 -2.374413E+03  8.242618E+03
       287  25 -6.025825E+04 -1.702142E+05 -6.301385E+04 -4.922708E+04 -8.660907E+02  3.559752E+04
       287  26 -2.549395E+04 -1.460215E+05 -3.359599E+04 -3.374932E+04 -2.582085E+03  2.079886E+04
       287  27 -1.204281E+04 -1.290844E+05 -1.914260E+04 -2.223874E+04 -2.374173E+03  5.999504E+03
       288   1  4.117555E+03 -5.990241E+04 -4.381327E+03 -2.215250E+04  1.627587E+03 -8.830668E+03
       288   2  1.007311E+03 -8.008766E+04 -4.351711E+03 -2.088517E+04  4.884451E+02 -6.173161E+03
       288   3 -3.645660E+03 -1.010049E+05 -6.438183E+03 -2.370720E+04 -6.823661E+02 -3.515736E+03
       288   4 -2.312439E+03 -8.724789E+04 -9.185043E+03 -2.327697E+04  1.627368E+03 -6.674495E+03
       288   5 -5.679743E+02 -8.687628E+04 -5.439356E+03 -2.123217E+04  4.882019E+02 -3.956349E+03
       288   6 -3.767958E+02 -8.724765E+04 -3.851999E+03 -2.327676E+04 -6.826274E+02 -1.238205E+03
       288   7 -8.742467E+03 -1.145926E+05 -1.398877E+04 -2.440138E+04  1.627141E+03 -4.518413E+03
       288   8 -2.143259E+03 -9.366485E+04 -6.526983E+03 -2.157917E+04  4.879563E+02 -1.739561E+03
       288   9  2.892061E+03 -7.349024E+04 -1.265805E+03 -2.284631E+04 -6.828856E+02  1.039377E+03
       288  10  4.117531E+03 -5.990249E+04 -4.381479E+03 -2.215249E+04 -3.943032E-11 -1.451006E-10
       288  11  1.007301E+03 -8.008771E+04 -4.351783E+03 -2.088517E+04  8.953722E-11 -8.974794E-11
       288  12 -3.645664E+03 -1.010049E+05 -6.438207E+03 -2.370720E+04  6.461577E-11  1.776380E-10
       288  13 -2.312454E+03 -8.724794E+04 -9.185132E+03 -2.327696E+04  6.338152E-12 -4.206534E-12
       288  14 -5.679787E+02 -8.687630E+04 -5.439386E+03 -2.123217E+04  1.682759E-11 -7.428505E-11
       288  15 -3.767967E+02 -8.724765E+04 -3.852003E+03 -2.327676E+04  3.309200E-11 -5.486839E-11
       288  16 -8.742475E+03 -1.145927E+05 -1.398881E+04 -2.440138E+04 -2.348846E-12  1.626966E-10
       288  17 -2.143260E+03 -9.366485E+04 -6.526989E+03 -2.157917E+04  2.004702E-12 -5.242942E-11
       288  18  2.892061E+03 -7.349024E+04 -1.265808E+03 -2.284631E+04  1.393995E-10 -1.078338E-10
       288  19  4.117555E+03 -5.990241E+04 -4.381327E+03 -2.215250E+04 -1.627587E+03  8.830668E+03
       288  20  1.007311E+03 -8.008766E+04 -4.351711E+03 -2.088517E+04 -4.884451E+02  6.173161E+03
       288  21 -3.645660E+03 -1.010049E+05 -6.438183E+03 -2.370720E+04  6.823661E+02  3.515736E+03
       288  22 -2.312439E+03 -8.724789E+04 -9.185043E+03 -2.327697E+04 -1.627368E+03  6.674495E+03
       288  23 -5.679743E+02 -8.687628E+04 -5.439356E+03 -2.123217E+04 -4.882019E+02  3.956349E+03
       288  24 -3.767958E+02 -8.724765E+04 -3.851999E+03 -2.327676E+04  6.826274E+02  1.238205E+03
       288  25 -8.742467E+03 -1.145926E+05 -1.398877E+04 -2.440138E+04 -1.627141E+03  4.518413E+03
       288  26 -2.143259E+03 -9.366485E+04 -6.526983E+03 -2.157917E+04 -4.879563E+02  1.739561E+03
       288  27  2.892061E+03 -7.349024E+04 -1.265805E+03 -2.284631E+04  6.828856E+02 -1.039377E+03
       289   1 -6.782369E+03 -1.142345E+05 -8.464806E+03 -2.321636E+04 -1.453591E+03 -2.984958E+03
       289   2 -1.285806E+04 -1.340243E+05 -1.336562E+04 -2.311118E+04 -1.866384E+03  2.111704E+03
       289   3 -2.244468E+04 -1.553555E+05 -2.246282E+04 -2.699626E+04 -6.573469E+02  7.208203E+03
       289   4 -4.127301E+02 -8.730513E+04 -3.549102E+03 -2.325474E+04 -1.453849E+03 -6.368549E+02
       289   5 -1.518703E+03 -8.680491E+04 -3.892022E+03 -2.125980E+04 -1.866287E+03  1.346432E+03
       289   6 -5.594926E+03 -8.730596E+04 -6.268979E+03 -2.325520E+04 -6.569214E+02  3.329776E+03
       289   7  5.956871E+03 -6.037508E+04  1.366594E+03 -2.329311E+04 -1.454107E+03  1.711347E+03
       289   8  9.820534E+03 -3.958336E+04  5.581469E+03 -1.940828E+04 -1.866195E+03  5.811034E+02
       289   9  1.125456E+04 -1.925212E+04  9.924604E+03 -1.951374E+04 -6.565428E+02 -5.490740E+02
       289  10 -6.782374E+03 -1.142345E+05 -8.464827E+03 -2.321637E+04  5.161434E-11 -1.158137E-10
       289  11 -1.285807E+04 -1.340243E+05 -1.336564E+04 -2.311117E+04  6.833667E-11 -1.308320E-10
       289  12 -2.244470E+04 -1.553555E+05 -2.246292E+04 -2.699625E+04 -9.750180E-11  1.351116E-11
       289  13 -4.127325E+02 -8.730513E+04 -3.549107E+03 -2.325474E+04  7.291321E-11  1.721347E-11
       289  14 -1.518707E+03 -8.680491E+04 -3.892032E+03 -2.125980E+04 -1.959546E-10 -7.972314E-11
       289  15 -5.594929E+03 -8.730597E+04 -6.269001E+03 -2.325520E+04 -2.746820E-11 -4.933052E-11
       289  16  5.956868E+03 -6.037509E+04  1.366584E+03 -2.329311E+04  1.306052E-10  1.799107E-10
       289  17  9.820531E+03 -3.958336E+04  5.581462E+03 -1.940828E+04  1.536906E-11 -6.010438E-12
       289  18  1.125456E+04 -1.925212E+04  9.924603E+03 -1.951374E+04  4.749114E-11  3.168256E-11
       289  19 -6.782369E+03 -1.142345E+05 -8.464806E+03 -2.321636E+04  1.453591E+03  2.984958E+03
       289  20 -1.285806E+04 -1.340243E+05 -1.336562E+04 -2.311118E+04  1.866384E+03 -2.111704E+03
       289  21 -2.244468E+04 -1.553555E+05 -2.246282E+04 -2.699626E+04  6.573469E+02 -7.208203E+03
       289  22 -4.127301E+02 -8.730513E+04 -3.549102E+03 -2.325474E+04  1.453849E+03  6.368549E+02
       289  23 -1.518703E+03 -8.680491E+04 -3.892022E+03 -2.125980E+04  1.866287E+03 -1.346432E+03
       289  24 -5.594926E+03 -8.730596E+04 -6.268979E+03 -2.325520E+04  6.569214E+02 -3.329776E+03
       289  25  5.956871E+03 -6.037508E+04  1.366594E+03 -2.329311E+04  1.454107E+03 -1.711347E+03
       289  26  9.820534E+03 -3.958336E+04  5.581469E+03 -1.940828E+04  1.866195E+03 -5.811034E+02
       289  27  1.125456E+04 -1.925212E+04  9.924604E+03 -1.951374E+04  6.565428E+02  5.490740E+02
       290   1  1.340063E+05  5.832560E+04  1.373287E+04  7.266606E+04  4.858979E+03  1.724410E+03
       290   2  1.399792E+05  6.909721E+04  1.461579E+04  7.584951E+04  5.732686E+03 -2.693361E+03
       290   3  1.469807E+05  7.594470E+04  1.613938E+04  7.942883E+04  5.472471E+03 -5.599303E+03
       290   4  6.519175E+04  1.595996E+04 -6.657305E+03  4.145636E+04 -2.827249E+03 -4.040605E+03
       290   5  6.602364E+04  2.006975E+04 -3.264326E+03  3.988365E+04  9.497927E+02 -6.280981E+03
       290   6  6.725392E+04  1.962519E+04 -1.750634E+03  3.870683E+04  3.592869E+03 -7.009365E+03
       290   7 -3.617565E+03 -2.640381E+04 -2.704766E+04  1.025034E+04 -1.051231E+04 -9.804901E+03
       290   8 -7.926381E+03 -2.895538E+04 -2.114496E+04  3.922235E+03 -3.832385E+03 -9.868110E+03
       290   9 -1.246705E+04 -3.669154E+04 -1.964155E+04 -2.009903E+03  1.713550E+03 -8.419213E+03
       290  10  1.340062E+05  5.832559E+04  1.373282E+04  7.266606E+04 -1.373257E-10 -1.089893E-10
       290  11  1.399792E+05  6.909719E+04  1.461572E+04  7.584952E+04  1.873303E-11  5.202206E-11
       290  12  1.469806E+05  7.594466E+04  1.613927E+04  7.942885E+04  6.556792E-12 -3.285465E-11
       290  13  6.519173E+04  1.595994E+04 -6.657351E+03  4.145635E+04 -8.934168E-11 -5.158826E-11
       290  14  6.602363E+04  2.006971E+04 -3.264402E+03  3.988365E+04  1.306747E-10  2.399523E-10
       290  15  6.725389E+04  1.962514E+04 -1.750751E+03  3.870685E+04 -6.062069E-12  1.431255E-11
       290  16 -3.617710E+03 -2.640395E+04 -2.704805E+04  1.025026E+04 -4.439299E-12  1.054122E-10
       290  17 -7.926422E+03 -2.895549E+04 -2.114517E+04  3.922204E+03 -3.926220E-11  2.328445E-10
       290  18 -1.246707E+04 -3.669162E+04 -1.964169E+04 -2.009892E+03  9.062216E-12  6.933372E-11
       290  19  1.340063E+05  5.832560E+04  1.373287E+04  7.266606E+04 -4.858979E+03 -1.724410E+03
       290  20  1.399792E+05  6.909721E+04  1.461579E+04  7.584951E+04 -5.732686E+03  2.693361E+03
       290  21  1.469807E+05  7.594470E+04  1.613938E+04  7.942883E+04 -5.472471E+03  5.599303E+03
       290  22  6.519175E+04  1.595996E+04 -6.657305E+03  4.145636E+04  2.827249E+03  4.040605E+03
       290  23  6.602364E+04  2.006975E+04 -3.264326E+03  3.988365E+04 -9.497927E+02  6.280981E+03
       290  24  6.725392E+04  1.962519E+04 -1.750634E+03  3.870683E+04 -3.592869E+03  7.009365E+03
       290  25 -3.617565E+03 -2.640381E+04 -2.704766E+04  1.025034E+04  1.051231E+04  9.804901E+03
       290  26 -7.926381E+03 -2.895538E+04 -2.114496E+04  3.922235E+03  3.832385E+03  9.868110E+03
       290  27 -1.246705E+04 -3.669154E+04 -1.964155E+04 -2.009903E+03 -1.713550E+03  8.419213E+03
       291   1  1.521773E+05  7.909635E+04  1.743077E+04  8.189518E+04  6.118718E+03 -5.933260E+03
       291   2  1.587699E+05  8.572054E+04  1.926353E+04  8.605654E+04  6.760271E+03 -6.913500E+03
       291   3  1.673496E+05  9.019548E+04  2.111077E+04  8.967460E+04  7.278269E+03 -7.728930E+03
       291   4  6.736502E+04  1.974283E+04 -1.296883E+03  3.879817E+04  4.164552E+03 -7.399310E+03
       291   5  6.646658E+04  2.095975E+04 -6.402917E+02  3.898858E+04  5.122567E+03 -8.142258E+03
       291   6  6.748651E+04  1.995896E+04 -2.437998E+02  3.863576E+04  5.957015E+03 -8.720387E+03
       291   7 -1.743693E+04 -3.960497E+04 -2.002426E+04 -4.291094E+03  2.210782E+03 -8.865065E+03
       291   8 -2.582562E+04 -4.379498E+04 -2.054413E+04 -8.070704E+03  3.485205E+03 -9.370760E+03
       291   9 -3.236466E+04 -5.027121E+04 -2.159877E+04 -1.239344E+04  4.636046E+03 -9.711631E+03
       291  10  1.521772E+05  7.909630E+04  1.743063E+04  8.189521E+04 -6.390381E-11 -1.171863E-10
       291  11  1.587699E+05  8.572047E+04  1.926336E+04  8.605658E+04  2.211060E-12  2.295316E-10
       291  12  1.673495E+05  9.019541E+04  2.111056E+04  8.967465E+04 -2.987568E-10  1.117180E-10
       291  13  6.736499E+04  1.974276E+04 -1.297018E+03  3.879819E+04 -2.019563E-11 -4.593718E-11
       291  14  6.646654E+04  2.095967E+04 -6.404656E+02  3.898861E+04 -8.889522E-12  5.096948E-11
       291  15  6.748645E+04  1.995887E+04 -2.440094E+02  3.863580E+04 -5.966753E-11  5.920643E-11
       291  16 -1.743696E+04 -3.960506E+04 -2.002441E+04 -4.291079E+03  1.264283E-10  4.303641E-11
       291  17 -2.582566E+04 -4.379508E+04 -2.054432E+04 -8.070677E+03  1.559027E-10  1.755577E-10
       291  18 -3.236471E+04 -5.027132E+04 -2.159899E+04 -1.239341E+04  1.220849E-10  2.533053E-10
       291  19  1.521773E+05  7.909635E+04  1.743077E+04  8.189518E+04 -6.118718E+03  5.933260E+03
       291  20  1.587699E+05  8.572054E+04  1.926353E+04  8.605654E+04 -6.760271E+03  6.913500E+03
       291  21  1.673496E+05  9.019548E+04  2.111077E+04  8.967460E+04 -7.278269E+03  7.728930E+03
       291  22  6.736502E+04  1.974283E+04 -1.296883E+03  3.879817E+04 -4.164552E+03  7.399310E+03
       291  23  6.646658E+04  2.095975E+04 -6.402917E+02  3.898858E+04 -5.122567E+03  8.142258E+03
       291  24  6.748651E+04  1.995896E+04 -2.437998E+02  3.863576E+04 -5.957015E+03  8.720387E+03
       291  25 -1.743693E+04 -3.960497E+04 -2.002426E+04 -4.291094E+03 -2.210782E+03  8.865065E+03
       291  26 -2.582562E+04 -4.379498E+04 -2.054413E+04 -8.070704E+03 -3.485205E+03  9.370760E+03
       291  27 -3.236466E+04 -5.027121E+04 -2.159877E+04 -1.239344E+04 -4.636046E+03  9.711631E+03
       292   1  1.722428E+05  9.360646E+04  2.232871E+04  9.216582E+04  7.608408E+03 -8.102636E+03
       292   2  1.788666E+05  1.000038E+05  2.424900E+04  9.636285E+04  7.898318E+03 -8.920702E+03
       292   3  1.875710E+05  1.044098E+05  2.634915E+04  9.996897E+04  8.142188E+03 -9.677286E+03
       292   4  6.749808E+04  1.996961E+04 -8.540127E+01  3.865095E+04  6.276970E+03 -9.101792E+03
       292   5  6.647672E+04  2.099042E+04  2.252266E+02  3.893634E+04  6.684946E+03 -9.831386E+03
       292   6  6.751046E+04  1.999385E+04  6.132384E+02  3.863059E+04  7.046879E+03 -1.049948E+04
       292   7 -3.723575E+04 -5.366187E+04 -2.250072E+04 -1.485443E+04  4.945804E+03 -1.010074E+04
       292   8 -4.589812E+04 -5.801500E+04 -2.379908E+04 -1.847801E+04  5.471866E+03 -1.074185E+04
       292   9 -5.253044E+04 -6.441131E+04 -2.512245E+04 -2.269268E+04  5.951874E+03 -1.132144E+04
       292  10  1.722427E+05  9.360638E+04  2.232848E+04  9.216587E+04  2.123233E-10  3.234430E-10
       292  11  1.788665E+05  1.000037E+05  2.424873E+04  9.636291E+04 -1.286588E-10 -4.946143E-10
       292  12  1.875709E+05  1.044097E+05  2.634885E+04  9.996904E+04 -1.671385E-10 -9.122317E-11
       292  13  6.749802E+04  1.996951E+04 -8.563100E+01  3.865099E+04 -7.888818E-11 -1.132856E-10
       292  14  6.647665E+04  2.099031E+04  2.249610E+02  3.893639E+04 -2.315413E-11  5.193903E-11
       292  15  6.751038E+04  1.999372E+04  6.129379E+02  3.863065E+04  7.200946E-12  6.560067E-11
       292  16 -3.723580E+04 -5.366199E+04 -2.250096E+04 -1.485439E+04 -2.659677E-10 -1.943745E-10
       292  17 -4.589818E+04 -5.801513E+04 -2.379936E+04 -1.847796E+04  1.601319E-10 -3.375649E-10
       292  18 -5.253051E+04 -6.441146E+04 -2.512276E+04 -2.269263E+04  7.854137E-11  2.635952E-11
       292  19  1.722428E+05  9.360646E+04  2.232871E+04  9.216582E+04 -7.608408E+03  8.102636E+03
       292  20  1.788666E+05  1.000038E+05  2.424900E+04  9.636285E+04 -7.898318E+03  8.920702E+03
       292  21  1.875710E+05  1.044098E+05  2.634915E+04  9.996897E+04 -8.142188E+03  9.677286E+03
       292  22  6.749808E+04  1.996961E+04 -8.540127E+01  3.865095E+04 -6.276970E+03  9.101792E+03
       292  23  6.647672E+04  2.099042E+04  2.252266E+02  3.893634E+04 -6.684946E+03  9.831386E+03
       292  24  6.751046E+04  1.999385E+04  6.132384E+02  3.863059E+04 -7.046879E+03  1.049948E+04
       292  25 -3.723575E+04 -5.366187E+04 -2.250072E+04 -1.485443E+04 -4.945804E+03  1.010074E+04
       292  26 -4.589812E+04 -5.801500E+04 -2.379908E+04 -1.847801E+04 -5.471866E+03  1.074185E+04
       292  27 -5.253044E+04 -6.441131E+04 -2.512245E+04 -2.269268E+04 -5.951874E+03  1.132144E+04
       293   1  1.924324E+05  1.079377E+05  2.774711E+04  1.025009E+05  8.325096E+03 -1.008795E+04
       293   2  1.992696E+05  1.141659E+05  3.055266E+04  1.064423E+05  7.142064E+03 -1.155458E+04
       293   3  2.085977E+05  1.189528E+05  3.470962E+04  1.096843E+05  5.642027E+03 -1.259873E+04
       293   4  6.753067E+04  2.001585E+04  8.681308E+02  3.865714E+04  7.208176E+03 -1.092641E+04
       293   5  6.651240E+04  2.107160E+04  1.624506E+03  3.882126E+04  6.836854E+03 -1.178407E+04
       293   6  6.780888E+04  2.051016E+04  3.027925E+03  3.828611E+04  6.148497E+03 -1.221916E+04
       293   7 -5.735265E+04 -6.789620E+04 -2.601158E+04 -2.517168E+04  6.091556E+03 -1.176465E+04
       293   8 -6.622537E+04 -7.201275E+04 -2.730499E+04 -2.878360E+04  6.531728E+03 -1.201349E+04
       293   9 -7.295964E+04 -7.792252E+04 -2.865586E+04 -3.309480E+04  6.654824E+03 -1.183970E+04
       293  10  1.924323E+05  1.079375E+05  2.774679E+04  1.025010E+05 -1.339426E-10  4.684554E-12
       293  11  1.992695E+05  1.141657E+05  3.055232E+04  1.064423E+05  1.224810E-10  2.989122E-10
       293  12  2.085976E+05  1.189526E+05  3.470926E+04  1.096844E+05  3.253436E-10  4.925061E-11
       293  13  6.753058E+04  2.001571E+04  8.678088E+02  3.865720E+04  1.629828E-10 -2.331791E-10
       293  14  6.651232E+04  2.107143E+04  1.624157E+03  3.882132E+04  1.505286E-11 -2.084299E-11
       293  15  6.780880E+04  2.050999E+04  3.027573E+03  3.828617E+04 -1.618936E-10  2.749706E-11
       293  16 -5.735273E+04 -6.789636E+04 -2.601191E+04 -2.517162E+04 -5.476010E-11  7.679486E-11
       293  17 -6.622545E+04 -7.201291E+04 -2.730534E+04 -2.878354E+04 -1.399901E-10 -2.371549E-10
       293  18 -7.295973E+04 -7.792268E+04 -2.865621E+04 -3.309473E+04 -6.854447E-12 -2.259162E-10
       293  19  1.924324E+05  1.079377E+05  2.774711E+04  1.025009E+05 -8.325096E+03  1.008795E+04
       293  20  1.992696E+05  1.141659E+05  3.055266E+04  1.064423E+05 -7.142064E+03  1.155458E+04
       293  21  2.085977E+05  1.189528E+05  3.470962E+04  1.096843E+05 -5.642027E+03  1.259873E+04
       293  22  6.753067E+04  2.001585E+04  8.681308E+02  3.865714E+04 -7.208176E+03  1.092641E+04
       293  23  6.651240E+04  2.107160E+04  1.624506E+03  3.882126E+04 -6.836854E+03  1.178407E+04
       293  24  6.780888E+04  2.051016E+04  3.027925E+03  3.828611E+04 -6.148497E+03  1.221916E+04
       293  25 -5.735265E+04 -6.789620E+04 -2.601158E+04 -2.517168E+04 -6.091556E+03  1.176465E+04
       293  26 -6.622537E+04 -7.201275E+04 -2.730499E+04 -2.878360E+04 -6.531728E+03  1.201349E+04
       293  27 -7.295964E+04 -7.792252E+04 -2.865586E+04 -3.309480E+04 -6.654824E+03  1.183970E+04
       294   1  2.132660E+05  1.235821E+05  3.742320E+04  1.126324E+05  5.441169E+03 -1.279100E+04
       294   2  2.246177E+05  1.269460E+05  4.661192E+04  1.128452E+05 -6.841015E+03 -1.865100E+04
       294   3  2.433212E+05  1.356657E+05  6.667830E+04  1.102460E+05 -2.210422E+04 -2.053970E+04
       294   4  6.804922E+04  2.078667E+04  4.025682E+03  3.849408E+04  5.752603E+03 -1.255779E+04
       294   5  6.753247E+04  2.307652E+04  7.403753E+03  3.679244E+04  1.099639E+03 -1.269223E+04
       294   6  7.271271E+04  2.906818E+04  1.503792E+04  3.227860E+04 -6.534556E+03 -8.854855E+03
       294   7 -7.713976E+04 -8.199340E+04 -2.937200E+04 -3.562245E+04  6.063933E+03 -1.232466E+04
       294   8 -8.952282E+04 -8.077916E+04 -3.180535E+04 -3.923797E+04  9.037499E+03 -6.735392E+03
       294   9 -9.786384E+04 -7.751743E+04 -3.660428E+04 -4.566585E+04  9.029226E+03  2.826280E+03
       294  10  2.132659E+05  1.235819E+05  3.742284E+04  1.126324E+05 -2.860552E-10 -2.478866E-10
       294  11  2.246176E+05  1.269456E+05  4.661118E+04  1.128451E+05  1.378156E-11  6.053546E-10
       294  12  2.433206E+05  1.356651E+05  6.667659E+04  1.102457E+05 -6.633108E-12  3.492486E-10
       294  13  6.804914E+04  2.078649E+04  4.025323E+03  3.849414E+04  1.945480E-10 -1.438040E-10
       294  14  6.753242E+04  2.307634E+04  7.403448E+03  3.679245E+04  1.475939E-10  2.926841E-10
       294  15  7.271265E+04  2.906809E+04  1.503769E+04  3.227856E+04 -6.836286E-11  1.074333E-09
       294  16 -7.713984E+04 -8.199358E+04 -2.937235E+04 -3.562239E+04  3.342463E-10  5.339018E-10
       294  17 -8.952292E+04 -8.077924E+04 -3.180559E+04 -3.923792E+04  2.841796E-10  2.007872E-10
       294  18 -9.786393E+04 -7.751746E+04 -3.660445E+04 -4.566587E+04 -2.170684E-11 -7.955444E-11
       294  19  2.132660E+05  1.235821E+05  3.742320E+04  1.126324E+05 -5.441169E+03  1.279100E+04
       294  20  2.246177E+05  1.269460E+05  4.661192E+04  1.128452E+05  6.841015E+03  1.865100E+04
       294  21  2.433212E+05  1.356657E+05  6.667830E+04  1.102460E+05  2.210422E+04  2.053970E+04
       294  22  6.804922E+04  2.078667E+04  4.025682E+03  3.849408E+04 -5.752603E+03  1.255779E+04
       294  23  6.753247E+04  2.307652E+04  7.403753E+03  3.679244E+04 -1.099639E+03  1.269223E+04
       294  24  7.271271E+04  2.906818E+04  1.503792E+04  3.227860E+04  6.534556E+03  8.854855E+03
       294  25 -7.713976E+04 -8.199340E+04 -2.937200E+04 -3.562245E+04 -6.063933E+03  1.232466E+04
       294  26 -8.952282E+04 -8.077916E+04 -3.180535E+04 -3.923797E+04 -9.037499E+03  6.735392E+03
       294  27 -9.786384E+04 -7.751743E+04 -3.660428E+04 -4.566585E+04 -9.029226E+03 -2.826280E+03
       295   1  1.404922E+06  2.395009E+05  2.320342E+05  1.355673E+05  9.197705E+04 -1.060969E+04
       295   2  1.299722E+06  1.818943E+05  1.565300E+05  1.143840E+05  4.572367E+04 -3.508764E+04
       295   3  1.206747E+06  1.490225E+05  1.172877E+05  1.115606E+05 -5.238481E+02 -4.072721E+04
       295   4  5.782891E+05  3.571870E+04  3.892103E+04  1.120479E+05  2.681244E+04 -1.064566E+04
       295   5  5.753457E+05  9.760655E+03  1.952352E+04  1.028789E+05  1.680850E+04 -3.510902E+04
       295   6  5.783448E+05  2.268243E+03  1.126003E+04  1.120682E+05  6.800943E+03 -4.072571E+04
       295   7 -2.477052E+05 -1.681075E+05 -1.542223E+05  8.855971E+04 -3.826615E+04 -1.067673E+04
       295   8 -1.485230E+05 -1.624026E+05 -1.175030E+05  9.138751E+04 -1.207381E+04 -3.512935E+04
       295   9 -4.966868E+04 -1.445067E+05 -9.478003E+04  1.125752E+05  1.411857E+04 -4.072419E+04
       295  10  1.404913E+06  2.394985E+05  2.320181E+05  1.355681E+05  1.198697E-09 -3.398033E-10
       295  11  1.299719E+06  1.818924E+05  1.565237E+05  1.143852E+05  1.939834E-10 -1.455362E-09
       295  12  1.206746E+06  1.490207E+05  1.172846E+05  1.115605E+05 -1.258027E-10 -1.216402E-09
       295  13  5.782882E+05  3.571839E+04  3.891947E+04  1.120481E+05  2.099778E-10  1.333451E-10
       295  14  5.753450E+05  9.759255E+03  1.952067E+04  1.028794E+05  1.571616E-10 -8.767374E-10
       295  15  5.783443E+05  2.266449E+03  1.125682E+04  1.120684E+05  6.344627E-10 -1.215250E-10
       295  16 -2.477068E+05 -1.681081E+05 -1.542253E+05  8.855938E+04 -1.272607E-09  2.034301E-11
       295  17 -1.485235E+05 -1.624040E+05 -1.175056E+05  9.138717E+04 -6.428769E-10 -1.700752E-09
       295  18 -4.966934E+04 -1.445085E+05 -9.478353E+04  1.125757E+05  2.046482E-10 -1.944622E-09
       295  19  1.404922E+06  2.395009E+05  2.320342E+05  1.355673E+05 -9.197705E+04  1.060969E+04
       295  20  1.299722E+06  1.818943E+05  1.565300E+05  1.143840E+05 -4.572367E+04  3.508764E+04
       295  21  1.206747E+06  1.490225E+05  1.172877E+05  1.115606E+05  5.238481E+02  4.072721E+04
       295  22  5.782891E+05  3.571870E+04  3.892103E+04  1.120479E+05 -2.681244E+04  1.064566E+04
       295  23  5.753457E+05  9.760655E+03  1.952352E+04  1.028789E+05 -1.680850E+04  3.510902E+04
       295  24  5.783448E+05  2.268243E+03  1.126003E+04  1.120682E+05 -6.800943E+03  4.072571E+04
       295  25 -2.477052E+05 -1.681075E+05 -1.542223E+05  8.855971E+04  3.826615E+04  1.067673E+04
       295  26 -1.485230E+05 -1.624026E+05 -1.175030E+05  9.138751E+04  1.207381E+04  3.512935E+04
       295  27 -4.966868E+04 -1.445067E+05 -9.478003E+04  1.125752E+05 -1.411857E+04  4.072419E+04
       296   1  1.141632E+06  1.335944E+05  1.025433E+05  1.137499E+05 -1.129809E+03 -3.793411E+04
       296   2  1.042094E+06  1.083091E+05  8.047302E+04  1.033126E+05 -8.023379E+03 -3.363419E+04
       296   3  9.439587E+05  8.506748E+04  6.339241E+04  1.125106E+05 -1.491898E+04 -2.738503E+04
       296   4  5.772033E+05  2.109534E+03  8.993996E+03  1.123507E+05  5.271131E+03 -3.793233E+04
       296   5  5.768466E+05  5.123222E+02  6.304903E+03  1.025335E+05  2.127555E+03 -3.362804E+04
       296   6  5.772347E+05  3.101916E+02  6.006336E+03  1.123523E+05 -1.019043E+03 -2.737376E+04
       296   7  1.308912E+04 -1.293918E+05 -8.456472E+04  1.109527E+05  1.166645E+04 -3.793058E+04
       296   8  1.118141E+05 -1.072952E+05 -6.786845E+04  1.017548E+05  1.227117E+04 -3.362191E+04
       296   9  2.106451E+05 -8.445360E+04 -5.138224E+04  1.121940E+05  1.287300E+04 -2.736249E+04
       296  10  1.141631E+06  1.335929E+05  1.025406E+05  1.137499E+05 -2.578086E-09 -1.380291E-09
       296  11  1.042094E+06  1.083079E+05  8.047078E+04  1.033124E+05 -5.059118E-10  6.066901E-10
       296  12  9.439583E+05  8.506661E+04  6.339058E+04  1.125102E+05 -2.415748E-10  8.076218E-10
       296  13  5.772029E+05  2.107981E+03  8.991240E+03  1.123509E+05  2.559620E-11 -9.372677E-10
       296  14  5.768463E+05  5.111063E+02  6.302769E+03  1.025335E+05  1.058199E-10 -5.753150E-11
       296  15  5.772345E+05  3.093865E+02  6.004926E+03  1.123522E+05 -1.926184E-11 -6.281328E-10
       296  16  1.308858E+04 -1.293934E+05 -8.456768E+04  1.109531E+05  2.324234E-09 -1.111354E-10
       296  17  1.118136E+05 -1.072965E+05 -6.787086E+04  1.017552E+05  6.676863E-10  6.208637E-10
       296  18  2.106447E+05 -8.445444E+04 -5.138396E+04  1.121943E+05  2.742526E-10  2.344334E-10
       296  19  1.141632E+06  1.335944E+05  1.025433E+05  1.137499E+05  1.129809E+03  3.793411E+04
       296  20  1.042094E+06  1.083091E+05  8.047302E+04  1.033126E+05  8.023379E+03  3.363419E+04
       296  21  9.439587E+05  8.506748E+04  6.339241E+04  1.125106E+05  1.491898E+04  2.738503E+04
       296  22  5.772033E+05  2.109534E+03  8.993996E+03  1.123507E+05 -5.271131E+03  3.793233E+04
       296  23  5.768466E+05  5.123222E+02  6.304903E+03  1.025335E+05 -2.127555E+03  3.362804E+04
       296  24  5.772347E+05  3.101916E+02  6.006336E+03  1.123523E+05  1.019043E+03  2.737376E+04
       296  25  1.308912E+04 -1.293918E+05 -8.456472E+04  1.109527E+05 -1.166645E+04  3.793058E+04
       296  26  1.118141E+05 -1.072952E+05 -6.786845E+04  1.017548E+05 -1.227117E+04  3.362191E+04
       296  27  2.106451E+05 -8.445360E+04 -5.138224E+04  1.121940E+05 -1.287300E+04  2.736249E+04
       297   1  8.811201E+05  7.042641E+04  5.358970E+04  1.129550E+05 -1.592817E+04 -2.309790E+04
       297   2  7.818207E+05  4.823220E+04  4.059439E+04  1.018652E+05 -2.018583E+04 -1.602320E+04
       297   3  6.836464E+05  2.842090E+04  3.095457E+04  1.105018E+05 -2.444370E+04 -9.171004E+03
       297   4  5.773415E+05  3.155397E+02  6.562282E+03  1.123726E+05 -2.108328E+03 -2.308580E+04
       297   5  5.767527E+05  1.008031E+03  9.371983E+03  1.025076E+05 -6.793334E+03 -1.601064E+04
       297   6  5.773531E+05  4.158183E+03  1.583362E+04  1.123692E+05 -1.147917E+04 -9.158026E+03
       297   7  2.736553E+05 -6.979971E+04 -4.046654E+04  1.117905E+05  1.170502E+04 -2.307372E+04
       297   8  3.717271E+05 -4.621806E+04 -2.185064E+04  1.031498E+05  6.594918E+03 -1.599804E+04
       297   9  4.710716E+05 -2.010494E+04  7.131325E+02  1.142362E+05  1.483238E+03 -9.144968E+03
       297  10  8.811197E+05  7.042577E+04  5.358822E+04  1.129547E+05 -8.522355E-10  1.421076E-09
       297  11  7.818202E+05  4.823181E+04  4.059314E+04  1.018649E+05  6.605218E-10  9.002779E-10
       297  12  6.836457E+05  2.842065E+04  3.095329E+04  1.105016E+05  1.496195E-09 -5.520838E-11
       297  13  5.773413E+05  3.149661E+02  6.561272E+03  1.123726E+05 -3.899609E-10 -1.218288E-09
       297  14  5.767525E+05  1.007743E+03  9.371414E+03  1.025075E+05  8.198154E-11  7.966521E-10
       297  15  5.773529E+05  4.158058E+03  1.583321E+04  1.123691E+05  5.803990E-10  1.529347E-09
       297  16  2.736550E+05 -6.980032E+04 -4.046779E+04  1.117908E+05  1.020425E-09  7.156732E-10
       297  17  3.717270E+05 -4.621834E+04 -2.185121E+04  1.031499E+05 -8.207724E-10  1.279125E-09
       297  18  4.710716E+05 -2.010503E+04  7.129711E+02  1.142362E+05 -1.838558E-09 -1.132300E-10
       297  19  8.811201E+05  7.042641E+04  5.358970E+04  1.129550E+05  1.592817E+04  2.309790E+04
       297  20  7.818207E+05  4.823220E+04  4.059439E+04  1.018652E+05  2.018583E+04  1.602320E+04
       297  21  6.836464E+05  2.842090E+04  3.095457E+04  1.105018E+05  2.444370E+04  9.171004E+03
       297  22  5.773415E+05  3.155397E+02  6.562282E+03  1.123726E+05  2.108328E+03  2.308580E+04
       297  23  5.767527E+05  1.008031E+03  9.371983E+03  1.025076E+05  6.793334E+03  1.601064E+04
       297  24  5.773531E+05  4.158183E+03  1.583362E+04  1.123692E+05  1.147917E+04  9.158026E+03
       297  25  2.736553E+05 -6.979971E+04 -4.046654E+04  1.117905E+05 -1.170502E+04  2.307372E+04
       297  26  3.717271E+05 -4.621806E+04 -2.185064E+04  1.031498E+05 -6.594918E+03  1.599804E+04
       297  27  4.710716E+05 -2.010494E+04  7.131325E+02  1.142362E+05 -1.483238E+03  9.144968E+03
       298   1  6.228953E+05  1.405262E+04  2.516628E+04  1.140483E+05 -2.734492E+04 -5.057015E+03
       298   2  5.191915E+05  5.262186E+03  2.330671E+04  8.098943E+04 -3.868287E+04 -2.515506E+02
       298   3  4.255038E+05  3.073472E+04  3.738184E+04  6.737255E+04 -5.001581E+04  4.955545E+02
       298   4  5.796145E+05  4.492962E+03  2.063832E+04  1.123113E+05 -1.419325E+04 -5.043485E+03
       298   5  5.739272E+05  1.904311E+04  3.725798E+04  1.025621E+05 -3.333244E+04 -2.474880E+02
       298   6  5.795925E+05  6.920484E+04  7.522265E+04  1.122510E+05 -5.246831E+04  4.894684E+02
       298   7  5.363360E+05 -5.066654E+03  1.611103E+04  1.105743E+05 -1.042450E+03 -5.030029E+03
       298   8  6.286666E+05  3.282556E+04  5.120938E+04  1.241366E+05 -2.798155E+04 -2.430541E+02
       298   9  7.337071E+05  1.076808E+05  1.130628E+05  1.571406E+05 -5.492142E+04  4.830291E+02
       298  10  6.228945E+05  1.405239E+04  2.516483E+04  1.140482E+05  4.039555E-10 -3.904755E-11
       298  11  5.191899E+05  5.261784E+03  2.330390E+04  8.098942E+04  1.061319E-09  2.149967E-09
       298  12  4.255011E+05  3.073405E+04  3.737714E+04  6.737257E+04  2.395802E-10  8.574033E-10
       298  13  5.796143E+05  4.492880E+03  2.063789E+04  1.123112E+05  2.519593E-11  3.725691E-10
       298  14  5.739260E+05  1.904281E+04  3.725590E+04  1.025621E+05  4.970699E-10  2.077487E-09
       298  15  5.795895E+05  6.920411E+04  7.521748E+04  1.122510E+05  3.023310E-10 -3.686876E-10
       298  16  5.363360E+05 -5.066682E+03  1.611098E+04  1.105743E+05 -5.072475E-10 -8.658799E-11
       298  17  6.286658E+05  3.282535E+04  5.120791E+04  1.241366E+05 -8.836596E-10  4.396211E-10
       298  18  7.337038E+05  1.076799E+05  1.130571E+05  1.571407E+05 -3.102008E-10 -5.887693E-10
       298  19  6.228953E+05  1.405262E+04  2.516628E+04  1.140483E+05  2.734492E+04  5.057015E+03
       298  20  5.191915E+05  5.262186E+03  2.330671E+04  8.098943E+04  3.868287E+04  2.515506E+02
       298  21  4.255038E+05  3.073472E+04  3.738184E+04  6.737255E+04  5.001581E+04 -4.955545E+02
       298  22  5.796145E+05  4.492962E+03  2.063832E+04  1.123113E+05  1.419325E+04  5.043485E+03
       298  23  5.739272E+05  1.904311E+04  3.725798E+04  1.025621E+05  3.333244E+04  2.474880E+02
       298  24  5.795925E+05  6.920484E+04  7.522265E+04  1.122510E+05  5.246831E+04 -4.894684E+02
       298  25  5.363360E+05 -5.066654E+03  1.611103E+04  1.105743E+05  1.042450E+03  5.030029E+03
       298  26  6.286666E+05  3.282556E+04  5.120938E+04  1.241366E+05  2.798155E+04  2.430541E+02
       298  27  7.337071E+05  1.076808E+05  1.130628E+05  1.571406E+05  5.492142E+04 -4.830291E+02
       299   1 -2.917805E+04  2.246130E+05 -3.418082E+04  3.506965E+04  1.087522E+03 -2.854156E+04
       299   2  4.285447E+03  2.331853E+05 -1.088827E+04  1.924105E+04  3.876881E+03 -1.910385E+04
       299   3  1.491217E+04  2.348221E+05  5.532810E+02  4.541446E+03  5.231147E+03 -9.666361E+03
       299   4 -4.533850E+04  1.588055E+05 -4.927297E+04  5.777237E+03  1.090624E+03 -3.527661E+04
       299   5 -1.240188E+04  1.625110E+05 -2.371062E+04  5.218529E+03  3.878431E+03 -2.308469E+04
       299   6 -2.782357E+03  1.588018E+05 -1.191223E+04  5.789392E+03  5.231533E+03 -1.089293E+04
       299   7 -6.149600E+04  9.300399E+04 -6.436477E+04 -2.351205E+04  1.094363E+03 -4.201094E+04
       299   8 -2.908874E+04  9.184203E+04 -3.653301E+04 -8.802352E+03  3.880161E+03 -2.706509E+04
       299   9 -2.047717E+04  8.278732E+04 -2.437791E+04  7.037181E+03  5.231914E+03 -1.211934E+04
       299  10 -2.917827E+04  2.246121E+05 -3.418235E+04  3.506968E+04 -2.254783E-11 -1.547087E-10
       299  11  4.285333E+03  2.331849E+05 -1.088898E+04  1.924111E+04 -2.889577E-10 -4.791904E-11
       299  12  1.491212E+04  2.348220E+05  5.530540E+02  4.541487E+03  1.457417E-11  1.303507E-10
       299  13 -4.533883E+04  1.588042E+05 -4.927531E+04  5.777268E+03  2.469838E-11 -3.179167E-10
       299  14 -1.240204E+04  1.625104E+05 -2.371165E+04  5.218601E+03 -1.078478E-10 -6.134963E-10
       299  15 -2.782418E+03  1.588017E+05 -1.191251E+04  5.789438E+03 -4.777492E-11 -1.429389E-10
       299  16 -6.149647E+04  9.300210E+04 -6.436809E+04 -2.351201E+04 -8.050318E-11  2.931912E-10
       299  17 -2.908895E+04  9.184124E+04 -3.653441E+04 -8.802267E+03  1.784871E-10 -4.217675E-10
       299  18 -2.047724E+04  8.278716E+04 -2.437823E+04  7.037232E+03 -1.485609E-10 -2.537943E-10
       299  19 -2.917805E+04  2.246130E+05 -3.418082E+04  3.506965E+04 -1.087522E+03  2.854156E+04
       299  20  4.285447E+03  2.331853E+05 -1.088827E+04  1.924105E+04 -3.876881E+03  1.910385E+04
       299  21  1.491217E+04  2.348221E+05  5.532810E+02  4.541446E+03 -5.231147E+03  9.666361E+03
       299  22 -4.533850E+04  1.588055E+05 -4.927297E+04  5.777237E+03 -1.090624E+03  3.527661E+04
       299  23 -1.240188E+04  1.625110E+05 -2.371062E+04  5.218529E+03 -3.878431E+03  2.308469E+04
       299  24 -2.782357E+03  1.588018E+05 -1.191223E+04  5.789392E+03 -5.231533E+03  1.089293E+04
       299  25 -6.149600E+04  9.300399E+04 -6.436477E+04 -2.351205E+04 -1.094363E+03  4.201094E+04
       299  26 -2.908874E+04  9.184203E+04 -3.653301E+04 -8.802352E+03 -3.880161E+03  2.706509E+04
       299  27 -2.047717E+04  8.278732E+04 -2.437791E+04  7.037181E+03 -5.231914E+03  1.211934E+04
       300   1  1.583042E+04  2.396032E+05  4.689420E+03  6.781771E+03  5.570879E+03 -8.143913E+03
       300   2  1.932997E+04  2.448096E+05  1.143343E+04  5.974002E+03  6.055683E+03 -7.866512E+03
       300   3  2.237015E+04  2.498664E+05  1.788244E+04  6.187168E+03  6.147245E+03 -7.589215E+03
       300   4 -2.576128E+03  1.603872E+05 -8.149230E+03  5.763928E+03  5.571338E+03 -9.451898E+03
       300   5 -2.218328E+02  1.605270E+05 -2.065540E+03  5.254090E+03  6.055937E+03 -8.419338E+03
       300   6  1.541982E+03  1.603862E+05  3.198856E+03  5.765199E+03  6.147268E+03 -7.386878E+03
       300   7 -2.098299E+04  8.117743E+04 -2.098805E+04  4.746220E+03  5.571800E+03 -1.075972E+04
       300   8 -1.977399E+04  7.625153E+04 -1.556469E+04  4.534281E+03  6.056192E+03 -8.972090E+03
       300   9 -1.928660E+04  7.091396E+04 -1.148496E+04  5.343293E+03  6.147291E+03 -7.184569E+03
       300  10  1.583037E+04  2.396031E+05  4.689237E+03  6.781808E+03  1.230800E-10 -1.076844E-10
       300  11  1.932992E+04  2.448095E+05  1.143324E+04  5.974040E+03  6.555727E-11 -2.278580E-10
       300  12  2.237009E+04  2.498663E+05  1.788226E+04  6.187205E+03  1.110515E-10  4.453941E-11
       300  13 -2.576186E+03  1.603871E+05 -8.149456E+03  5.763971E+03  1.592003E-11 -3.221429E-10
       300  14 -2.218912E+02  1.605269E+05 -2.065743E+03  5.254131E+03  4.251896E-11 -6.807986E-10
       300  15  1.541927E+03  1.603862E+05  3.198682E+03  5.765235E+03  2.276279E-10 -2.703663E-10
       300  16 -2.098305E+04  8.117730E+04 -2.098832E+04  4.746268E+03  7.168202E-12  2.321191E-10
       300  17 -1.977406E+04  7.625143E+04 -1.556491E+04  4.534324E+03 -2.573846E-10 -5.195521E-10
       300  18 -1.928665E+04  7.091390E+04 -1.148512E+04  5.343329E+03  7.666503E-11 -2.648537E-10
       300  19  1.583042E+04  2.396032E+05  4.689420E+03  6.781771E+03 -5.570879E+03  8.143913E+03
       300  20  1.932997E+04  2.448096E+05  1.143343E+04  5.974002E+03 -6.055683E+03  7.866512E+03
       300  21  2.237015E+04  2.498664E+05  1.788244E+04  6.187168E+03 -6.147245E+03  7.589215E+03
       300  22 -2.576128E+03  1.603872E+05 -8.149230E+03  5.763928E+03 -5.571338E+03  9.451898E+03
       300  23 -2.218328E+02  1.605270E+05 -2.065540E+03  5.254090E+03 -6.055937E+03  8.419338E+03
       300  24  1.541982E+03  1.603862E+05  3.198856E+03  5.765199E+03 -6.147268E+03  7.386878E+03
       300  25 -2.098299E+04  8.117743E+04 -2.098805E+04  4.746220E+03 -5.571800E+03  1.075972E+04
       300  26 -1.977399E+04  7.625153E+04 -1.556469E+04  4.534281E+03 -6.056192E+03  8.972090E+03
       300  27 -1.928660E+04  7.091396E+04 -1.148496E+04  5.343293E+03 -6.147291E+03  7.184569E+03
       301   1  2.332880E+04  2.543221E+05  2.149966E+04  4.869283E+03  6.186125E+03 -8.085704E+03
       301   2  3.080962E+04  2.568326E+05  3.219939E+04  1.386916E+04  4.988013E+03 -1.976142E+04
       301   3  5.340450E+04  2.646425E+05  5.427733E+04  2.372622E+04  1.470629E+03 -3.143807E+04
       301   4  1.662688E+03  1.614546E+05  6.017643E+03  5.727685E+03  6.186172E+03 -8.003739E+03
       301   5  7.657478E+03  1.591899E+05  1.402289E+04  5.303465E+03  4.986805E+03 -1.522473E+04
       301   6  2.799410E+04  1.614521E+05  3.031421E+04  5.736430E+03  1.468353E+03 -2.244652E+04
       301   7 -2.000387E+04  6.859555E+04 -9.464634E+03  6.585956E+03  6.186219E+03 -7.921787E+03
       301   8 -1.549493E+04  6.155667E+04 -4.153901E+03 -3.260849E+03  4.985472E+03 -1.068874E+04
       301   9  2.584216E+03  5.827236E+04  6.350842E+03 -1.225035E+04  1.465556E+03 -1.345645E+04
       301  10  2.332874E+04  2.543220E+05  2.149946E+04  4.869323E+03  1.406960E-10 -1.710490E-10
       301  11  3.080949E+04  2.568321E+05  3.219861E+04  1.386924E+04  8.426754E-11 -2.942038E-10
       301  12  5.340423E+04  2.646414E+05  5.427547E+04  2.372625E+04  2.082384E-11 -9.171910E-11
       301  13  1.662629E+03  1.614545E+05  6.017450E+03  5.727725E+03  2.263246E-10 -3.408279E-10
       301  14  7.657390E+03  1.591896E+05  1.402240E+04  5.303526E+03 -2.401312E-13 -7.210638E-10
       301  15  2.799396E+04  1.614515E+05  3.031325E+04  5.736457E+03  2.133613E-10 -2.449414E-10
       301  16 -2.000393E+04  6.859547E+04 -9.464824E+03  6.585995E+03 -8.789003E-11  3.769698E-10
       301  17 -1.549499E+04  6.155654E+04 -4.154162E+03 -3.260807E+03  5.823840E-11 -4.159589E-10
       301  18  2.584165E+03  5.827217E+04  6.350498E+03 -1.225033E+04  2.735913E-11 -1.319960E-10
       301  19  2.332880E+04  2.543221E+05  2.149966E+04  4.869283E+03 -6.186125E+03  8.085704E+03
       301  20  3.080962E+04  2.568326E+05  3.219939E+04  1.386916E+04 -4.988013E+03  1.976142E+04
       301  21  5.340450E+04  2.646425E+05  5.427733E+04  2.372622E+04 -1.470629E+03  3.143807E+04
       301  22  1.662688E+03  1.614546E+05  6.017643E+03  5.727685E+03 -6.186172E+03  8.003739E+03
       301  23  7.657478E+03  1.591899E+05  1.402289E+04  5.303465E+03 -4.986805E+03  1.522473E+04
       301  24  2.799410E+04  1.614521E+05  3.031421E+04  5.736430E+03 -1.468353E+03  2.244652E+04
       301  25 -2.000387E+04  6.859555E+04 -9.464634E+03  6.585956E+03 -6.186219E+03  7.921787E+03
       301  26 -1.549493E+04  6.155667E+04 -4.153901E+03 -3.260849E+03 -4.985472E+03  1.068874E+04
       301  27  2.584216E+03  5.827236E+04  6.350842E+03 -1.225035E+04 -1.465556E+03  1.345645E+04
       302   1  5.722009E+05  4.475094E+05  1.161131E+05  3.870015E+05  4.071367E+04  2.312374E+04
       302   2  5.471464E+05  4.122966E+05  8.212739E+04  3.773807E+05  3.106848E+04 -1.712467E+03
       302   3  5.231993E+05  3.915423E+05  6.538098E+04  3.672998E+05  1.551401E+04 -1.867119E+04
       302   4  2.620975E+05  2.129299E+05  1.437719E+04  2.264982E+05  1.150730E+04  1.201855E+03
       302   5  2.609564E+05  2.033862E+05  7.193203E+03  2.297005E+05  1.700467E+04 -1.227097E+04
       302   6  2.576428E+05  2.050192E+05  4.115183E+03  2.324420E+05  1.659015E+04 -1.786492E+04
       302   7 -4.790802E+04 -2.159192E+04 -8.736872E+04  6.608521E+04 -1.767986E+04 -2.070436E+04
       302   8 -2.513998E+04 -5.471371E+03 -6.774673E+04  8.210001E+04  2.949549E+03 -2.282266E+04
       302   9 -7.825893E+03  1.854303E+04 -5.715290E+04  9.765371E+04  1.766566E+04 -1.705912E+04
       302  10  5.721990E+05  4.475084E+05  1.161090E+05  3.870008E+05  4.757189E-10 -1.599506E-11
       302  11  5.471453E+05  4.122963E+05  8.212557E+04  3.773807E+05 -2.171729E-10 -1.433389E-09
       302  12  5.231990E+05  3.915419E+05  6.537988E+04  3.673001E+05 -5.467515E-10 -5.457080E-10
       302  13  2.620973E+05  2.129299E+05  1.437694E+04  2.264982E+05  2.079702E-10  3.427005E-10
       302  14  2.609561E+05  2.033860E+05  7.192376E+03  2.297007E+05  5.094467E-11  2.953401E-10
       302  15  2.576424E+05  2.050188E+05  4.114066E+03  2.324422E+05  4.966221E-11  1.446032E-10
       302  16 -4.790847E+04 -2.159246E+04 -8.737012E+04  6.608492E+04 -2.550051E-10 -2.803956E-10
       302  17 -2.514013E+04 -5.471933E+03 -6.774773E+04  8.210006E+04  3.750477E-10 -7.164255E-10
       302  18 -7.826307E+03  1.854263E+04 -5.715403E+04  9.765395E+04  6.391673E-10  6.197003E-10
       302  19  5.722009E+05  4.475094E+05  1.161131E+05  3.870015E+05 -4.071367E+04 -2.312374E+04
       302  20  5.471464E+05  4.122966E+05  8.212739E+04  3.773807E+05 -3.106848E+04  1.712467E+03
       302  21  5.231993E+05  3.915423E+05  6.538098E+04  3.672998E+05 -1.551401E+04  1.867119E+04
       302  22  2.620975E+05  2.129299E+05  1.437719E+04  2.264982E+05 -1.150730E+04 -1.201855E+03
       302  23  2.609564E+05  2.033862E+05  7.193203E+03  2.297005E+05 -1.700467E+04  1.227097E+04
       302  24  2.576428E+05  2.050192E+05  4.115183E+03  2.324420E+05 -1.659015E+04  1.786492E+04
       302  25 -4.790802E+04 -2.159192E+04 -8.736872E+04  6.608521E+04  1.767986E+04  2.070436E+04
       302  26 -2.513998E+04 -5.471371E+03 -6.774673E+04  8.210001E+04 -2.949549E+03  2.282266E+04
       302  27 -7.825893E+03  1.854303E+04 -5.715290E+04  9.765371E+04 -1.766566E+04  1.705912E+04
       303   1  5.054401E+05  3.803779E+05  5.969353E+04  3.590335E+05  1.503292E+04 -1.814836E+04
       303   2  4.830050E+05  3.582416E+05  5.105231E+04  3.454222E+05  1.196560E+04 -1.923969E+04
       303   3  4.545849E+05  3.435163E+05  4.463762E+04  3.336574E+05  8.272479E+03 -1.949783E+04
       303   4  2.572073E+05  2.049697E+05  3.262761E+03  2.323098E+05  1.572154E+04 -1.763286E+04
       303   5  2.602414E+05  2.011989E+05  2.219163E+03  2.315694E+05  1.425611E+04 -1.752113E+04
       303   6  2.569419E+05  2.044921E+05  2.012475E+03  2.326750E+05  1.216456E+04 -1.657611E+04
       303   7  9.046644E+03  2.959981E+04 -5.317150E+04  1.056451E+05  1.640980E+04 -1.711763E+04
       303   8  3.753396E+04  4.418565E+04 -4.661720E+04  1.177630E+05  1.654555E+04 -1.580339E+04
       303   9  5.934102E+04  6.548947E+04 -4.061579E+04  1.317280E+05  1.605508E+04 -1.365557E+04
       303  10  5.054398E+05  3.803775E+05  5.969249E+04  3.590337E+05  1.091464E-09  4.843841E-11
       303  11  4.830048E+05  3.582411E+05  5.105135E+04  3.454224E+05  4.620799E-10 -1.426461E-09
       303  12  4.545847E+05  3.435159E+05  4.463677E+04  3.336576E+05 -4.300092E-10 -1.513535E-09
       303  13  2.572070E+05  2.049693E+05  3.261712E+03  2.323100E+05  6.126121E-11 -6.201788E-10
       303  14  2.602411E+05  2.011985E+05  2.218204E+03  2.315696E+05  3.871353E-10 -5.795725E-10
       303  15  2.569416E+05  2.044918E+05  2.011680E+03  2.326752E+05  3.039904E-10 -1.794617E-09
       303  16  9.046276E+03  2.959942E+04 -5.317256E+04  1.056453E+05 -1.088754E-09 -1.585739E-10
       303  17  3.753360E+04  4.418531E+04 -4.661819E+04  1.177632E+05  4.962002E-10 -1.102920E-09
       303  18  5.934069E+04  6.548920E+04 -4.061663E+04  1.317282E+05  9.178498E-10  1.136444E-09
       303  19  5.054401E+05  3.803779E+05  5.969353E+04  3.590335E+05 -1.503292E+04  1.814836E+04
       303  20  4.830050E+05  3.582416E+05  5.105231E+04  3.454222E+05 -1.196560E+04  1.923969E+04
       303  21  4.545849E+05  3.435163E+05  4.463762E+04  3.336574E+05 -8.272479E+03  1.949783E+04
       303  22  2.572073E+05  2.049697E+05  3.262761E+03  2.323098E+05 -1.572154E+04  1.763286E+04
       303  23  2.602414E+05  2.011989E+05  2.219163E+03  2.315694E+05 -1.425611E+04  1.752113E+04
       303  24  2.569419E+05  2.044921E+05  2.012475E+03  2.326750E+05 -1.216456E+04  1.657611E+04
       303  25  9.046644E+03  2.959981E+04 -5.317150E+04  1.056451E+05 -1.640980E+04  1.711763E+04
       303  26  3.753396E+04  4.418565E+04 -4.661720E+04  1.177630E+05 -1.654555E+04  1.580339E+04
       303  27  5.934102E+04  6.548947E+04 -4.061579E+04  1.317280E+05 -1.605508E+04  1.365557E+04
       304   1  4.382997E+05  3.322416E+05  4.107539E+04  3.254623E+05  7.115922E+03 -1.848371E+04
       304   2  4.162053E+05  3.110188E+05  3.631463E+04  3.115127E+05  4.249308E+03 -1.743761E+04
       304   3  3.876527E+05  2.967886E+05  3.270023E+04  2.995335E+05  1.318914E+03 -1.630696E+04
       304   4  2.569226E+05  2.044985E+05  2.149219E+03  2.326791E+05  1.096566E+04 -1.559349E+04
       304   5  2.602026E+05  2.010750E+05  2.947782E+03  2.316555E+05  8.261842E+03 -1.442472E+04
       304   6  2.569873E+05  2.046083E+05  4.751165E+03  2.326015E+05  5.494147E+03 -1.317143E+04
       304   7  7.558853E+04  7.677898E+04 -3.677699E+04  1.399295E+05  1.481381E+04 -1.270445E+04
       304   8  1.042305E+05  9.114789E+04 -3.041944E+04  1.518226E+05  1.227299E+04 -1.141287E+04
       304   9  1.263424E+05  1.124389E+05 -2.319851E+04  1.656860E+05  9.668208E+03 -1.003678E+04
       304  10  4.382995E+05  3.322412E+05  4.107465E+04  3.254624E+05  8.437781E-12 -6.196728E-10
       304  11  4.162052E+05  3.110184E+05  3.631403E+04  3.115128E+05 -8.287872E-10 -1.054022E-09
       304  12  3.876526E+05  2.967883E+05  3.269973E+04  2.995335E+05 -1.201493E-09 -1.282095E-09
       304  13  2.569224E+05  2.044982E+05  2.148536E+03  2.326793E+05  5.525860E-10  2.658170E-10
       304  14  2.602024E+05  2.010747E+05  2.947263E+03  2.316556E+05  3.018735E-10  5.459947E-10
       304  15  2.569873E+05  2.046081E+05  4.750782E+03  2.326015E+05  8.830235E-11  1.184812E-09
       304  16  7.558825E+04  7.677874E+04 -3.677770E+04  1.399297E+05  4.864573E-10  3.004190E-10
       304  17  1.042303E+05  9.114771E+04 -3.041996E+04  1.518227E+05  1.169398E-09  1.683962E-09
       304  18  1.263423E+05  1.124388E+05 -2.319887E+04  1.656861E+05  6.831344E-10  1.333196E-09
       304  19  4.382997E+05  3.322416E+05  4.107539E+04  3.254623E+05 -7.115922E+03  1.848371E+04
       304  20  4.162053E+05  3.110188E+05  3.631463E+04  3.115127E+05 -4.249308E+03  1.743761E+04
       304  21  3.876527E+05  2.967886E+05  3.270023E+04  2.995335E+05 -1.318914E+03  1.630696E+04
       304  22  2.569226E+05  2.044985E+05  2.149219E+03  2.326791E+05 -1.096566E+04  1.559349E+04
       304  23  2.602026E+05  2.010750E+05  2.947782E+03  2.316555E+05 -8.261842E+03  1.442472E+04
       304  24  2.569873E+05  2.046083E+05  4.751165E+03  2.326015E+05 -5.494147E+03  1.317143E+04
       304  25  7.558853E+04  7.677898E+04 -3.677699E+04  1.399295E+05 -1.481381E+04  1.270445E+04
       304  26  1.042305E+05  9.114789E+04 -3.041944E+04  1.518226E+05 -1.227299E+04  1.141287E+04
       304  27  1.263424E+05  1.124389E+05 -2.319851E+04  1.656860E+05 -9.668208E+03  1.003678E+04
       305   1  3.713364E+05  2.859150E+05  3.051634E+04  2.915622E+05 -3.834040E+02 -1.560210E+04
       305   2  3.507259E+05  2.637199E+05  2.965181E+04  2.764297E+05 -6.226006E+03 -1.661016E+04
       305   3  3.253672E+05  2.506653E+05  3.296193E+04  2.625140E+05 -1.205479E+04 -1.763675E+04
       305   4  2.571530E+05  2.046960E+05  6.149351E+03  2.327355E+05  3.787664E+03 -1.246947E+04
       305   5  2.604110E+05  2.016959E+05  1.064875E+04  2.309449E+05 -2.090036E+03 -1.350365E+04
       305   6  2.589286E+05  2.078440E+05  1.935367E+04  2.303706E+05 -7.954020E+03 -1.455652E+04
       305   7  1.429828E+05  1.234838E+05 -1.821890E+04  1.739203E+05  7.957797E+03 -9.337555E+03
       305   8  1.701059E+05  1.396769E+05 -8.354549E+03  1.854678E+05  2.045132E+03 -1.039773E+04
       305   9  1.924967E+05  1.650259E+05  5.745788E+03  1.982317E+05 -3.853917E+03 -1.147674E+04
       305  10  3.713363E+05  2.859148E+05  3.051588E+04  2.915622E+05 -5.530651E-11 -8.086795E-10
       305  11  3.507258E+05  2.637196E+05  2.965122E+04  2.764296E+05 -2.904111E-10 -1.848256E-09
       305  12  3.253670E+05  2.506649E+05  3.296107E+04  2.625138E+05  4.421341E-10  1.386099E-09
       305  13  2.571529E+05  2.046959E+05  6.149031E+03  2.327355E+05 -3.592693E-10 -1.482896E-09
       305  14  2.604110E+05  2.016957E+05  1.064840E+04  2.309449E+05 -1.823020E-10  1.814011E-10
       305  15  2.589285E+05  2.078438E+05  1.935315E+04  2.303705E+05 -1.157096E-10 -8.038500E-10
       305  16  1.429827E+05  1.234837E+05 -1.821919E+04  1.739204E+05 -7.230783E-10  4.633536E-10
       305  17  1.701059E+05  1.396768E+05 -8.354760E+03  1.854678E+05 -8.879440E-11 -5.283154E-11
       305  18  1.924967E+05  1.650257E+05  5.745513E+03  1.982316E+05  4.489851E-11 -1.651075E-09
       305  19  3.713364E+05  2.859150E+05  3.051634E+04  2.915622E+05  3.834040E+02  1.560210E+04
       305  20  3.507259E+05  2.637199E+05  2.965181E+04  2.764297E+05  6.226006E+03  1.661016E+04
       305  21  3.253672E+05  2.506653E+05  3.296193E+04  2.625140E+05  1.205479E+04  1.763675E+04
       305  22  2.571530E+05  2.046960E+05  6.149351E+03  2.327355E+05 -3.787664E+03  1.246947E+04
       305  23  2.604110E+05  2.016959E+05  1.064875E+04  2.309449E+05  2.090036E+03  1.350365E+04
       305  24  2.589286E+05  2.078440E+05  1.935367E+04  2.303706E+05  7.954020E+03  1.455652E+04
       305  25  1.429828E+05  1.234838E+05 -1.821890E+04  1.739203E+05 -7.957797E+03  9.337555E+03
       305  26  1.701059E+05  1.396769E+05 -8.354549E+03  1.854678E+05 -2.045132E+03  1.039773E+04
       305  27  1.924967E+05  1.650259E+05  5.745788E+03  1.982317E+05  3.853917E+03  1.147674E+04
       306   1  3.068446E+05  2.450403E+05  3.561453E+04  2.567664E+05 -1.566407E+04 -1.838727E+04
       306   2  3.152208E+05  2.048506E+05  5.131305E+04  2.224139E+05 -3.594254E+04 -3.047036E+04
       306   3  3.422060E+05  2.052152E+05  9.350773E+04  1.753100E+05 -5.602930E+04 -4.280708E+04
       306   4  2.609235E+05  2.091425E+05  2.561024E+04  2.315526E+05 -1.155217E+04 -1.529838E+04
       306   5  2.663199E+05  2.149673E+05  4.689076E+04  2.182766E+05 -3.232043E+04 -2.775202E+04
       306   6  2.904293E+05  2.614493E+05  9.509288E+04  1.922479E+05 -5.289677E+04 -4.046189E+04
       306   7  2.150049E+05  1.732465E+05  1.560596E+04  2.063410E+05 -7.440666E+03 -1.220984E+04
       306   8  2.174226E+05  2.250854E+05  4.246884E+04  2.141388E+05 -2.869870E+04 -2.503346E+04
       306   9  2.386600E+05  3.176951E+05  9.667981E+04  2.091838E+05 -4.976459E+04 -3.811607E+04
       306  10  3.068442E+05  2.450399E+05  3.561344E+04  2.567662E+05  1.832581E-10  1.641082E-09
       306  11  3.152191E+05  2.048492E+05  5.130888E+04  2.224130E+05 -3.665972E-10  1.488773E-10
       306  12  3.422021E+05  2.052124E+05  9.349840E+04  1.753081E+05 -2.535930E-10 -1.799852E-10
       306  13  2.609233E+05  2.091422E+05  2.560955E+04  2.315524E+05  5.677958E-10 -3.025272E-10
       306  14  2.663186E+05  2.149662E+05  4.688735E+04  2.182759E+05 -2.042689E-10 -2.297291E-10
       306  15  2.904258E+05  2.614468E+05  9.508455E+04  1.922462E+05 -1.816648E-10 -1.172789E-09
       306  16  2.150048E+05  1.732463E+05  1.560557E+04  2.063409E+05  2.941728E-10 -1.340194E-09
       306  17  2.174215E+05  2.250845E+05  4.246611E+04  2.141382E+05  2.661116E-10 -1.028580E-09
       306  18  2.386569E+05  3.176929E+05  9.667244E+04  2.091823E+05  2.996715E-10  2.898099E-10
       306  19  3.068446E+05  2.450403E+05  3.561453E+04  2.567664E+05  1.566407E+04  1.838727E+04
       306  20  3.152208E+05  2.048506E+05  5.131305E+04  2.224139E+05  3.594254E+04  3.047036E+04
       306  21  3.422060E+05  2.052152E+05  9.350773E+04  1.753100E+05  5.602930E+04  4.280708E+04
       306  22  2.609235E+05  2.091425E+05  2.561024E+04  2.315526E+05  1.155217E+04  1.529838E+04
       306  23  2.663199E+05  2.149673E+05  4.689076E+04  2.182766E+05  3.232043E+04  2.775202E+04
       306  24  2.904293E+05  2.614493E+05  9.509288E+04  1.922479E+05  5.289677E+04  4.046189E+04
       306  25  2.150049E+05  1.732465E+05  1.560596E+04  2.063410E+05  7.440666E+03  1.220984E+04
       306  26  2.174226E+05  2.250854E+05  4.246884E+04  2.141388E+05  2.869870E+04  2.503346E+04
       306  27  2.386600E+05  3.176951E+05  9.667981E+04  2.091838E+05  4.976459E+04  3.811607E+04
       307   1  4.818649E+05  6.142980E+04  5.968837E+04  4.204338E+04  2.294443E+04 -2.565576E+03
       307   2  4.489877E+05  4.486030E+04  3.923165E+04  3.581012E+04  1.090604E+04 -8.356236E+03
       307   3  4.193304E+05  3.494184E+04  2.827213E+04  3.546186E+04 -1.135708E+03 -9.333727E+03
       307   4  2.727735E+05  9.812005E+03  1.066749E+04  3.554823E+04  7.216297E+03 -2.579834E+03
       307   5  2.719681E+05  2.708238E+03  5.451495E+03  3.260994E+04  4.425642E+03 -8.362409E+03
       307   6  2.727783E+05  6.519769E+02  3.314686E+03  3.555658E+04  1.631058E+03 -9.331314E+03
       307   7  6.372294E+04 -4.180861E+04 -3.835542E+04  2.905528E+04 -8.506572E+03 -2.593766E+03
       307   8  9.497872E+04 -3.944561E+04 -2.832992E+04  2.941069E+04 -2.052955E+03 -8.368517E+03
       307   9  1.262474E+05 -3.363902E+04 -2.164343E+04  3.565127E+04  4.397192E+03 -9.328899E+03
       307  10  4.818644E+05  6.142965E+04  5.968737E+04  4.204343E+04  2.043907E-09 -1.049118E-09
       307  11  4.489876E+05  4.486019E+04  3.923130E+04  3.581020E+04  6.199824E-10 -9.823065E-10
       307  12  4.193304E+05  3.494175E+04  2.827196E+04  3.546185E+04 -2.117329E-09 -8.603695E-10
       307  13  2.727735E+05  9.811984E+03  1.066738E+04  3.554825E+04  1.896751E-10  1.407572E-09
       307  14  2.719680E+05  2.708157E+03  5.451327E+03  3.260997E+04  1.999075E-10 -1.976790E-10
       307  15  2.727783E+05  6.518827E+02  3.314517E+03  3.555659E+04  3.630565E-10 -9.350060E-10
       307  16  6.372286E+04 -4.180863E+04 -3.835557E+04  2.905526E+04 -2.154770E-09  3.123771E-10
       307  17  9.497869E+04 -3.944568E+04 -2.833006E+04  2.941068E+04 -7.440654E-10 -9.276420E-10
       307  18  1.262473E+05 -3.363912E+04 -2.164363E+04  3.565131E+04  1.979334E-09 -1.080281E-09
       307  19  4.818649E+05  6.142980E+04  5.968837E+04  4.204338E+04 -2.294443E+04  2.565576E+03
       307  20  4.489877E+05  4.486030E+04  3.923165E+04  3.581012E+04 -1.090604E+04  8.356236E+03
       307  21  4.193304E+05  3.494184E+04  2.827213E+04  3.546186E+04  1.135708E+03  9.333727E+03
       307  22  2.727735E+05  9.812005E+03  1.066749E+04  3.554823E+04 -7.216297E+03  2.579834E+03
       307  23  2.719681E+05  2.708238E+03  5.451495E+03  3.260994E+04 -4.425642E+03  8.362409E+03
       307  24  2.727783E+05  6.519769E+02  3.314686E+03  3.555658E+04 -1.631058E+03  9.331314E+03
       307  25  6.372294E+04 -4.180861E+04 -3.835542E+04  2.905528E+04  8.506572E+03  2.593766E+03
       307  26  9.497872E+04 -3.944561E+04 -2.832992E+04  2.941069E+04  2.052955E+03  8.368517E+03
       307  27  1.262474E+05 -3.363902E+04 -2.164343E+04  3.565127E+04 -4.397192E+03  9.328899E+03
       308   1  3.988907E+05  3.010776E+04  2.394099E+04  3.605435E+04 -1.369062E+03 -8.347942E+03
       308   2  3.674636E+05  2.222852E+04  1.759055E+04  3.277026E+04 -3.445413E+03 -6.790586E+03
       308   3  3.364412E+05  1.493724E+04  1.273476E+04  3.570028E+04 -5.522216E+03 -4.750430E+03
       308   4  2.724742E+05  6.016474E+02  2.782256E+03  3.562891E+04  1.162465E+03 -8.345673E+03
       308   5  2.723538E+05  1.561388E+02  2.305836E+03  3.252205E+04  1.365777E+01 -6.787327E+03
       308   6  2.724762E+05  1.377302E+02  2.680291E+03  3.562936E+04 -1.135701E+03 -4.746143E+03
       308   7  1.460735E+05 -2.890530E+04 -1.837694E+04  3.520355E+04  3.693493E+03 -8.343408E+03
       308   8  1.772530E+05 -2.191669E+04 -1.297908E+04  3.227387E+04  3.472217E+03 -6.784070E+03
       308   9  2.085153E+05 -1.466197E+04 -7.374203E+03  3.555844E+04  3.250380E+03 -4.741856E+03
       308  10  3.988907E+05  3.010769E+04  2.394085E+04  3.605435E+04 -7.584481E-10  9.360756E-10
       308  11  3.674636E+05  2.222846E+04  1.759044E+04  3.277024E+04 -5.371637E-10  6.160088E-10
       308  12  3.364412E+05  1.493721E+04  1.273466E+04  3.570026E+04 -1.408450E-09  7.025078E-10
       308  13  2.724742E+05  6.015722E+02  2.782123E+03  3.562892E+04 -8.368163E-12  2.240520E-10
       308  14  2.723538E+05  1.560893E+02  2.305749E+03  3.252205E+04  4.916557E-11 -1.322609E-10
       308  15  2.724762E+05  1.377056E+02  2.680247E+03  3.562935E+04  3.592123E-10  5.451956E-10
       308  16  1.460734E+05 -2.890538E+04 -1.837710E+04  3.520358E+04  9.176877E-10  7.015689E-10
       308  17  1.772529E+05 -2.191674E+04 -1.297919E+04  3.227389E+04 -2.483274E-11 -2.596652E-09
       308  18  2.085153E+05 -1.466200E+04 -7.374265E+03  3.555845E+04  1.133274E-09 -4.491679E-10
       308  19  3.988907E+05  3.010776E+04  2.394099E+04  3.605435E+04  1.369062E+03  8.347942E+03
       308  20  3.674636E+05  2.222852E+04  1.759055E+04  3.277026E+04  3.445413E+03  6.790586E+03
       308  21  3.364412E+05  1.493724E+04  1.273476E+04  3.570028E+04  5.522216E+03  4.750430E+03
       308  22  2.724742E+05  6.016474E+02  2.782256E+03  3.562891E+04 -1.162465E+03  8.345673E+03
       308  23  2.723538E+05  1.561388E+02  2.305836E+03  3.252205E+04 -1.365777E+01  6.787327E+03
       308  24  2.724762E+05  1.377302E+02  2.680291E+03  3.562936E+04  1.135701E+03  4.746143E+03
       308  25  1.460735E+05 -2.890530E+04 -1.837694E+04  3.520355E+04 -3.693493E+03  8.343408E+03
       308  26  1.772530E+05 -2.191669E+04 -1.297908E+04  3.227387E+04 -3.472217E+03  6.784070E+03
       308  27  2.085153E+05 -1.466197E+04 -7.374203E+03  3.555844E+04 -3.250380E+03  4.741856E+03
       309   1  3.166387E+05  1.030019E+04  9.946622E+03  3.590329E+04 -6.015882E+03 -3.394679E+03
       309   2  2.851322E+05  3.457444E+03  6.695953E+03  3.210547E+04 -8.118887E+03 -1.221674E+03
       309   3  2.542090E+05 -2.094258E+03  5.132721E+03  3.453752E+04 -1.022160E+04  7.471670E+02
       309   4  2.725671E+05  1.325687E+02  3.168178E+03  3.563304E+04 -1.642023E+03 -3.390357E+03
       309   5  2.722420E+05  5.403685E+02  4.991605E+03  3.251706E+04 -4.137272E+03 -1.217731E+03
       309   6  2.725668E+05  2.307175E+03  8.774532E+03  3.563091E+04 -6.632326E+03  7.507264E+02
       309   7  2.284974E+05 -1.003513E+04 -3.610237E+03  3.536281E+04  2.731537E+03 -3.386039E+03
       309   8  2.593520E+05 -2.376705E+03  3.287315E+03  3.292865E+04 -1.557360E+02 -1.213782E+03
       309   9  2.909250E+05  6.708598E+03  1.241638E+04  3.672433E+04 -3.042944E+03  7.542983E+02
       309  10  3.166387E+05  1.030017E+04  9.946533E+03  3.590327E+04 -2.253120E-09  2.079222E-09
       309  11  2.851321E+05  3.457425E+03  6.695826E+03  3.210547E+04  5.134488E-10 -2.076377E-10
       309  12  2.542089E+05 -2.094286E+03  5.132523E+03  3.453753E+04  2.992695E-09  1.054667E-09
       309  13  2.725671E+05  1.325557E+02  3.168152E+03  3.563303E+04 -3.458649E-11  1.020796E-09
       309  14  2.722420E+05  5.403623E+02  4.991570E+03  3.251706E+04  1.123759E-10  6.212810E-10
       309  15  2.725667E+05  2.307162E+03  8.774448E+03  3.563091E+04  3.102313E-10 -1.125830E-09
       309  16  2.284974E+05 -1.003515E+04 -3.610273E+03  3.536281E+04  2.373610E-09  1.297687E-09
       309  17  2.593520E+05 -2.376707E+03  3.287312E+03  3.292865E+04 -1.019547E-09  1.186085E-09
       309  18  2.909250E+05  6.708595E+03  1.241636E+04  3.672434E+04 -3.230882E-09 -1.445047E-09
       309  19  3.166387E+05  1.030019E+04  9.946622E+03  3.590329E+04  6.015882E+03  3.394679E+03
       309  20  2.851322E+05  3.457444E+03  6.695953E+03  3.210547E+04  8.118887E+03  1.221674E+03
       309  21  2.542090E+05 -2.094258E+03  5.132721E+03  3.453752E+04  1.022160E+04 -7.471670E+02
       309  22  2.725671E+05  1.325687E+02  3.168178E+03  3.563304E+04  1.642023E+03  3.390357E+03
       309  23  2.722420E+05  5.403685E+02  4.991605E+03  3.251706E+04  4.137272E+03  1.217731E+03
       309  24  2.725668E+05  2.307175E+03  8.774532E+03  3.563091E+04  6.632326E+03 -7.507264E+02
       309  25  2.284974E+05 -1.003513E+04 -3.610237E+03  3.536281E+04 -2.731537E+03  3.386039E+03
       309  26  2.593520E+05 -2.376705E+03  3.287315E+03  3.292865E+04  1.557360E+02  1.213782E+03
       309  27  2.909250E+05  6.708598E+03  1.241638E+04  3.672433E+04  3.042944E+03 -7.542983E+02
       310   1  2.354969E+05 -6.601266E+03  4.395298E+03  3.654509E+04 -1.184317E+04  1.945155E+03
       310   2  2.014821E+05 -5.932364E+03  7.036747E+03  2.035133E+04 -1.795442E+04  2.654251E+03
       310   3  1.730756E+05  1.403809E+04  1.847837E+04  1.021224E+04 -2.406320E+04  9.333777E+02
       310   4  2.738483E+05  2.492226E+03  1.153358E+04  3.559563E+04 -8.137450E+03  1.948848E+03
       310   5  2.706370E+05  1.071317E+04  2.098708E+04  3.255088E+04 -1.891683E+04  2.652932E+03
       310   6  2.738420E+05  3.904401E+04  4.248075E+04  3.556041E+04 -2.969418E+04  9.269126E+02
       310   7  3.122012E+05  1.158564E+04  1.867186E+04  3.464611E+04 -4.431505E+03  1.952530E+03
       310   8  3.397967E+05  2.735896E+04  3.493724E+04  4.475180E+04 -1.987935E+04  2.651575E+03
       310   9  3.746191E+05  6.405162E+04  6.648287E+04  6.091272E+04 -3.532608E+04  9.199884E+02
       310  10  2.354967E+05 -6.601307E+03  4.395028E+03  3.654511E+04 -1.190279E-09  1.150904E-09
       310  11  2.014817E+05 -5.932458E+03  7.036128E+03  2.035137E+04  1.394411E-10 -7.405298E-10
       310  12  1.730749E+05  1.403793E+04  1.847728E+04  1.021225E+04  5.734714E-10 -3.137632E-10
       310  13  2.738482E+05  2.492204E+03  1.153345E+04  3.559564E+04  1.630370E-10  1.523115E-09
       310  14  2.706366E+05  1.071307E+04  2.098639E+04  3.255092E+04 -1.583017E-10 -2.627349E-09
       310  15  2.738410E+05  3.904377E+04  4.247909E+04  3.556044E+04  4.912921E-10  8.619866E-10
       310  16  3.122012E+05  1.158563E+04  1.867182E+04  3.464612E+04  1.357854E-09  3.668601E-10
       310  17  3.397963E+05  2.735885E+04  3.493649E+04  4.475185E+04 -4.836839E-10  1.019326E-09
       310  18  3.746178E+05  6.405128E+04  6.648052E+04  6.091275E+04 -7.854063E-10 -3.460444E-10
       310  19  2.354969E+05 -6.601266E+03  4.395298E+03  3.654509E+04  1.184317E+04 -1.945155E+03
       310  20  2.014821E+05 -5.932364E+03  7.036747E+03  2.035133E+04  1.795442E+04 -2.654251E+03
       310  21  1.730756E+05  1.403809E+04  1.847837E+04  1.021224E+04  2.406320E+04 -9.333777E+02
       310  22  2.738483E+05  2.492226E+03  1.153358E+04  3.559563E+04  8.137450E+03 -1.948848E+03
       310  23  2.706370E+05  1.071317E+04  2.098708E+04  3.255088E+04  1.891683E+04 -2.652932E+03
       310  24  2.738420E+05  3.904401E+04  4.248075E+04  3.556041E+04  2.969418E+04 -9.269126E+02
       310  25  3.122012E+05  1.158564E+04  1.867186E+04  3.464611E+04  4.431505E+03 -1.952530E+03
       310  26  3.397967E+05  2.735896E+04  3.493724E+04  4.475180E+04  1.987935E+04 -2.651575E+03
       310  27  3.746191E+05  6.405162E+04  6.648287E+04  6.091272E+04  3.532608E+04 -9.199884E+02
       311   1 -1.741107E+05 -5.831723E+05 -1.783299E+05  1.371343E+05 -3.805619E+03 -9.092899E+04
       311   2 -8.880044E+04 -5.052090E+05 -1.014929E+05  1.001354E+05 -1.199418E+04 -5.038398E+04
       311   3 -5.276935E+04 -4.448169E+05 -6.338572E+04  7.635396E+04 -1.228849E+04 -9.826431E+03
       311   4 -9.033728E+04 -2.447839E+05 -9.849499E+04  7.837227E+04 -3.812659E+03 -6.770379E+04
       311   5 -2.475506E+04 -2.373035E+05 -4.950697E+04  7.178951E+04 -1.199665E+04 -4.229903E+04
       311   6 -5.812339E+03 -2.447616E+05 -2.871949E+04  7.842846E+04 -1.228398E+04 -1.688722E+04
       311   7 -6.558762E+03  9.371844E+04 -1.866411E+04  1.957803E+04 -3.824098E+03 -4.446599E+04
       311   8  3.928908E+04  3.067291E+04  2.476255E+03  4.343116E+04 -1.199986E+04 -3.421066E+04
       311   9  4.114256E+04 -4.466695E+04  5.945553E+03  8.050366E+04 -1.227951E+04 -2.395021E+04
       311  10 -1.741130E+05 -5.831812E+05 -1.783455E+05  1.371340E+05  1.485614E-10  2.337262E-10
       311  11 -8.880128E+04 -5.052118E+05 -1.014979E+05  1.001349E+05 -7.437072E-11  1.895531E-09
       311  12 -5.276954E+04 -4.448170E+05 -6.338619E+04  7.635386E+04 -5.134852E-10 -2.981984E-10
       311  13 -9.033853E+04 -2.447888E+05 -9.850363E+04  7.837206E+04  3.486738E-10 -1.723445E-09
       311  14 -2.475569E+04 -2.373054E+05 -4.951060E+04  7.178911E+04  2.836283E-10  1.366235E-09
       311  15 -5.812577E+03 -2.447620E+05 -2.872031E+04  7.842829E+04  1.757796E-10 -4.028430E-10
       311  16 -6.559308E+03  9.371631E+04 -1.866785E+04  1.957789E+04  1.447570E-10 -1.159390E-09
       311  17  3.928861E+04  3.067161E+04  2.473785E+03  4.343083E+04  1.014204E-09 -2.487359E-10
       311  18  4.114224E+04 -4.466761E+04  5.944192E+03  8.050342E+04  6.301181E-10 -8.215557E-10
       311  19 -1.741107E+05 -5.831723E+05 -1.783299E+05  1.371343E+05  3.805619E+03  9.092899E+04
       311  20 -8.880044E+04 -5.052090E+05 -1.014929E+05  1.001354E+05  1.199418E+04  5.038398E+04
       311  21 -5.276935E+04 -4.448169E+05 -6.338572E+04  7.635396E+04  1.228849E+04  9.826431E+03
       311  22 -9.033728E+04 -2.447839E+05 -9.849499E+04  7.837227E+04  3.812659E+03  6.770379E+04
       311  23 -2.475506E+04 -2.373035E+05 -4.950697E+04  7.178951E+04  1.199665E+04  4.229903E+04
       311  24 -5.812339E+03 -2.447616E+05 -2.871949E+04  7.842846E+04  1.228398E+04  1.688722E+04
       311  25 -6.558762E+03  9.371844E+04 -1.866411E+04  1.957803E+04  3.824098E+03  4.446599E+04
       311  26  3.928908E+04  3.067291E+04  2.476255E+03  4.343116E+04  1.199986E+04  3.421066E+04
       311  27  4.114256E+04 -4.466695E+04  5.945553E+03  8.050366E+04  1.227951E+04  2.395021E+04
       312   1 -4.181720E+04 -3.975278E+05 -4.963421E+04  8.141002E+04 -9.889004E+03 -6.307095E+03
       312   2 -2.188308E+04 -3.271589E+05 -3.046820E+04  7.211259E+04 -6.207191E+03  2.778833E+03
       312   3 -6.853794E+03 -2.591697E+05 -1.843969E+04  7.658165E+04 -2.122140E+03  1.186580E+04
       312   4 -5.374623E+03 -2.419396E+05 -2.308683E+04  7.854286E+04 -9.884893E+03 -1.299780E+04
       312   5 -1.840183E+03 -2.408126E+05 -1.663116E+04  7.166016E+04 -6.202871E+03 -4.684573E+03
       312   6 -3.075608E+03 -2.419351E+05 -1.677508E+04  7.854412E+04 -2.117575E+03  3.628739E+03
       312   7  3.106672E+04 -8.632754E+04  3.459915E+03  7.567496E+04 -9.880721E+03 -1.969013E+04
       312   8  1.820237E+04 -1.544588E+05 -2.794108E+03  7.120768E+04 -6.198540E+03 -1.214898E+04
       312   9  7.026208E+02 -2.247001E+05 -1.511021E+04  8.050664E+04 -2.113063E+03 -4.608533E+03
       312  10 -4.181732E+04 -3.975278E+05 -4.963447E+04  8.140997E+04 -6.029942E-10  1.048310E-09
       312  11 -2.188312E+04 -3.271590E+05 -3.046828E+04  7.211260E+04 -2.033561E-10  1.935033E-09
       312  12 -6.853837E+03 -2.591699E+05 -1.843997E+04  7.658167E+04 -6.789575E-10 -1.427908E-10
       312  13 -5.374774E+03 -2.419398E+05 -2.308733E+04  7.854276E+04  1.002131E-11 -1.648039E-09
       312  14 -1.840230E+03 -2.408127E+05 -1.663127E+04  7.166014E+04  3.861588E-10  2.041148E-09
       312  15 -3.075616E+03 -2.419352E+05 -1.677511E+04  7.854412E+04 -2.222798E-10  4.791847E-11
       312  16  3.106651E+04 -8.632799E+04  3.459003E+03  7.567480E+04  4.028255E-10 -1.832022E-09
       312  17  1.820229E+04 -1.544590E+05 -2.794457E+03  7.120762E+04  9.337815E-10 -3.600737E-10
       312  18  7.026103E+02 -2.247001E+05 -1.511026E+04  8.050663E+04  2.116050E-10 -7.511720E-10
       312  19 -4.181720E+04 -3.975278E+05 -4.963421E+04  8.141002E+04  9.889004E+03  6.307095E+03
       312  20 -2.188308E+04 -3.271589E+05 -3.046820E+04  7.211259E+04  6.207191E+03 -2.778833E+03
       312  21 -6.853794E+03 -2.591697E+05 -1.843969E+04  7.658165E+04  2.122140E+03 -1.186580E+04
       312  22 -5.374623E+03 -2.419396E+05 -2.308683E+04  7.854286E+04  9.884893E+03  1.299780E+04
       312  23 -1.840183E+03 -2.408126E+05 -1.663116E+04  7.166016E+04  6.202871E+03  4.684573E+03
       312  24 -3.075608E+03 -2.419351E+05 -1.677508E+04  7.854412E+04  2.117575E+03 -3.628739E+03
       312  25  3.106672E+04 -8.632754E+04  3.459915E+03  7.567496E+04  9.880721E+03  1.969013E+04
       312  26  1.820237E+04 -1.544588E+05 -2.794108E+03  7.120768E+04  6.198540E+03  1.214898E+04
       312  27  7.026208E+02 -2.247001E+05 -1.511021E+04  8.050664E+04  2.113063E+03  4.608533E+03
       313   1  3.284833E+03 -2.162335E+05 -1.272814E+04  7.950500E+04  5.868850E+02  1.477421E+04
       313   2  9.603064E+03 -1.435700E+05 -8.302582E+03  5.603672E+04  2.934539E+03  2.162280E+04
       313   3 -8.420639E+03 -7.785324E+04 -1.441570E+04  4.609561E+04  1.235102E+03  2.846914E+04
       313   4 -3.328299E+03 -2.432799E+05 -1.874775E+04  7.849417E+04  5.914766E+02  6.374503E+03
       313   5 -1.357974E+04 -2.391337E+05 -2.851997E+04  7.171552E+04  2.935480E+03  2.098951E+04
       313   6 -4.952489E+04 -2.432896E+05 -5.422704E+04  7.846560E+04  1.232471E+03  3.560132E+04
       313   7 -9.941438E+03 -2.703254E+05 -2.476714E+04  7.748337E+04  5.960956E+02 -2.024844E+03
       313   8 -3.676221E+04 -3.346881E+05 -4.873775E+04  8.739188E+04  2.936388E+03  2.035632E+04
       313   9 -9.062718E+04 -4.086986E+05 -9.403959E+04  1.108269E+05  1.230583E+03  4.273162E+04
       313  10  3.284774E+03 -2.162337E+05 -1.272856E+04  7.950500E+04 -5.471391E-10  9.647683E-10
       313  11  9.602929E+03 -1.435706E+05 -8.303477E+03  5.603667E+04 -9.779125E-11  1.881636E-09
       313  12 -8.420859E+03 -7.785412E+04 -1.441722E+04  4.609558E+04 -7.967028E-11 -4.680139E-10
       313  13 -3.328310E+03 -2.432799E+05 -1.874783E+04  7.849416E+04 -3.535161E-10 -1.168576E-09
       313  14 -1.357987E+04 -2.391341E+05 -2.852082E+04  7.171548E+04 -2.102318E-10  1.562670E-09
       313  15 -4.952523E+04 -2.432910E+05 -5.422943E+04  7.846556E+04  1.380730E-10 -4.392583E-10
       313  16 -9.941440E+03 -2.703255E+05 -2.476715E+04  7.748337E+04  3.249069E-10 -1.526788E-09
       313  17 -3.676233E+04 -3.346886E+05 -4.873855E+04  8.739183E+04  3.811954E-10 -3.455957E-11
       313  18 -9.062767E+04 -4.087006E+05 -9.404303E+04  1.108269E+05 -1.937291E-10 -6.463832E-10
       313  19  3.284833E+03 -2.162335E+05 -1.272814E+04  7.950500E+04 -5.868850E+02 -1.477421E+04
       313  20  9.603064E+03 -1.435700E+05 -8.302582E+03  5.603672E+04 -2.934539E+03 -2.162280E+04
       313  21 -8.420639E+03 -7.785324E+04 -1.441570E+04  4.609561E+04 -1.235102E+03 -2.846914E+04
       313  22 -3.328299E+03 -2.432799E+05 -1.874775E+04  7.849417E+04 -5.914766E+02 -6.374503E+03
       313  23 -1.357974E+04 -2.391337E+05 -2.851997E+04  7.171552E+04 -2.935480E+03 -2.098951E+04
       313  24 -4.952489E+04 -2.432896E+05 -5.422704E+04  7.846560E+04 -1.232471E+03 -3.560132E+04
       313  25 -9.941438E+03 -2.703254E+05 -2.476714E+04  7.748337E+04 -5.960956E+02  2.024844E+03
       313  26 -3.676221E+04 -3.346881E+05 -4.873775E+04  8.739188E+04 -2.936388E+03 -2.035632E+04
       313  27 -9.062718E+04 -4.086986E+05 -9.403959E+04  1.108269E+05 -1.230583E+03 -4.273162E+04
       314   1  1.562793E+05  8.277814E+04  2.291008E+03  1.129102E+05  4.250323E+03  3.745613E+03
       314   2  1.627520E+05  7.998485E+04 -1.258118E+02  1.189887E+05  2.749396E+03  3.734714E+03
       314   3  1.738993E+05  7.934460E+04 -4.232577E+02  1.227000E+05  1.829991E+03  2.949785E+03
       314   4  1.929507E+05  9.717778E+04  1.197284E+04  1.257284E+05  6.364923E+03  5.334140E+03
       314   5  1.885945E+05  9.264820E+04  5.972013E+03  1.293855E+05  3.377229E+03  4.206332E+03
       314   6  1.892355E+05  9.059420E+04  3.381447E+03  1.306754E+05  9.710730E+02  2.304533E+03
       314   7  2.296229E+05  1.115773E+05  2.165439E+04  1.385471E+05  8.479656E+03  6.922690E+03
       314   8  2.144375E+05  1.053116E+05  1.206972E+04  1.397826E+05  4.005090E+03  4.677962E+03
       314   9  2.045720E+05  1.018439E+05  7.186135E+03  1.386510E+05  1.121269E+02  1.659260E+03
       314  10  1.562793E+05  8.277812E+04  2.290947E+03  1.129101E+05 -5.251244E-08 -4.087011E-08
       314  11  1.627520E+05  7.998483E+04 -1.258522E+02  1.189887E+05 -2.974772E-09 -3.565725E-09
       314  12  1.738993E+05  7.934459E+04 -4.232804E+02  1.227000E+05  5.137573E-08  3.899889E-08
       314  13  1.929507E+05  9.717774E+04  1.197271E+04  1.257284E+05 -1.957919E-09 -2.028689E-09
       314  14  1.885945E+05  9.264818E+04  5.971958E+03  1.293855E+05 -3.901516E-09  1.258454E-10
       314  15  1.892355E+05  9.059419E+04  3.381435E+03  1.306754E+05 -1.999187E-09 -8.270088E-10
       314  16  2.296228E+05  1.115772E+05  2.165417E+04  1.385470E+05  4.899667E-08  3.633184E-08
       314  17  2.144375E+05  1.053116E+05  1.206964E+04  1.397826E+05 -5.584392E-09 -5.582147E-09
       314  18  2.045720E+05  1.018439E+05  7.186130E+03  1.386510E+05 -5.610749E-08 -4.406067E-08
       314  19  1.562793E+05  8.277814E+04  2.291008E+03  1.129102E+05 -4.250323E+03 -3.745613E+03
       314  20  1.627520E+05  7.998485E+04 -1.258118E+02  1.189887E+05 -2.749396E+03 -3.734714E+03
       314  21  1.738993E+05  7.934460E+04 -4.232577E+02  1.227000E+05 -1.829991E+03 -2.949785E+03
       314  22  1.929507E+05  9.717778E+04  1.197284E+04  1.257284E+05 -6.364923E+03 -5.334140E+03
       314  23  1.885945E+05  9.264820E+04  5.972013E+03  1.293855E+05 -3.377229E+03 -4.206332E+03
       314  24  1.892355E+05  9.059420E+04  3.381447E+03  1.306754E+05 -9.710730E+02 -2.304533E+03
       314  25  2.296229E+05  1.115773E+05  2.165439E+04  1.385471E+05 -8.479656E+03 -6.922690E+03
       314  26  2.144375E+05  1.053116E+05  1.206972E+04  1.397826E+05 -4.005090E+03 -4.677962E+03
       314  27  2.045720E+05  1.018439E+05  7.186135E+03  1.386510E+05 -1.121269E+02 -1.659260E+03
       315   1  1.776148E+05  8.291062E+04 -3.860862E+01  1.249980E+05  1.643691E+03  2.365686E+03
       315   2  1.836325E+05  8.828725E+04  7.406260E+02  1.289871E+05  1.457919E+03  1.494572E+03
       315   3  1.917465E+05  9.208814E+04  2.043667E+03  1.323544E+05  1.332448E+03  5.431542E+02
       315   4  1.890019E+05  9.041653E+04  2.654040E+03  1.305259E+05  8.226605E+02  1.748896E+03
       315   5  1.878229E+05  9.098513E+04  1.734793E+03  1.309891E+05  4.826520E+02  7.619138E+02
       315   6  1.887733E+05  9.001133E+04  1.473187E+03  1.308305E+05  2.029582E+02 -3.053539E+02
       315   7  2.003895E+05  9.792267E+04  5.346761E+03  1.360541E+05  1.593443E+00  1.132080E+03
       315   8  1.920133E+05  9.368302E+04  2.728964E+03  1.329912E+05 -4.926243E+02  2.924922E+01
       315   9  1.858003E+05  8.793458E+04  9.027354E+02  1.293066E+05 -9.265019E+02 -1.153840E+03
       315  10  1.776148E+05  8.291061E+04 -3.862421E+01  1.249980E+05  2.977409E-09  4.498639E-09
       315  11  1.836325E+05  8.828725E+04  7.406178E+02  1.289871E+05  9.942976E-10  1.144315E-09
       315  12  1.917465E+05  9.208814E+04  2.043663E+03  1.323544E+05 -8.369529E-10  2.251447E-09
       315  13  1.890019E+05  9.041653E+04  2.654033E+03  1.305259E+05 -5.908565E-10 -1.301810E-09
       315  14  1.878229E+05  9.098513E+04  1.734791E+03  1.309891E+05 -6.932909E-10  8.154010E-10
       315  15  1.887733E+05  9.001133E+04  1.473187E+03  1.308305E+05 -1.076706E-09  3.453719E-10
       315  16  2.003895E+05  9.792267E+04  5.346758E+03  1.360541E+05 -4.178683E-09 -3.677827E-09
       315  17  1.920133E+05  9.368302E+04  2.728964E+03  1.329912E+05 -2.325456E-09 -2.454218E-09
       315  18  1.858003E+05  8.793458E+04  9.027313E+02  1.293066E+05 -1.346020E-09  1.739593E-10
       315  19  1.776148E+05  8.291062E+04 -3.860862E+01  1.249980E+05 -1.643691E+03 -2.365686E+03
       315  20  1.836325E+05  8.828725E+04  7.406260E+02  1.289871E+05 -1.457919E+03 -1.494572E+03
       315  21  1.917465E+05  9.208814E+04  2.043667E+03  1.323544E+05 -1.332448E+03 -5.431542E+02
       315  22  1.890019E+05  9.041653E+04  2.654040E+03  1.305259E+05 -8.226605E+02 -1.748896E+03
       315  23  1.878229E+05  9.098513E+04  1.734793E+03  1.309891E+05 -4.826520E+02 -7.619138E+02
       315  24  1.887733E+05  9.001133E+04  1.473187E+03  1.308305E+05 -2.029582E+02  3.053539E+02
       315  25  2.003895E+05  9.792267E+04  5.346761E+03  1.360541E+05 -1.593443E+00 -1.132080E+03
       315  26  1.920133E+05  9.368302E+04  2.728964E+03  1.329912E+05  4.926243E+02 -2.924922E+01
       315  27  1.858003E+05  8.793458E+04  9.027354E+02  1.293066E+05  9.265019E+02  1.153840E+03
       316   1  1.961315E+05  9.529983E+04  3.096718E+03  1.346506E+05  1.377030E+03  3.616403E+01
       316   2  2.021308E+05  1.011395E+05  5.076010E+03  1.384808E+05  1.012114E+03 -1.149153E+03
       316   3  2.101561E+05  1.052692E+05  7.745587E+03  1.417799E+05  6.412850E+02 -2.326603E+03
       316   4  1.887662E+05  9.000287E+04  1.522744E+03  1.308284E+05  2.507456E+02 -8.099354E+02
       316   5  1.877723E+05  9.089031E+04  1.987812E+03  1.310709E+05 -9.903514E+01 -1.983896E+03
       316   6  1.888010E+05  9.006443E+04  3.130033E+03  1.307821E+05 -4.547228E+02 -3.149990E+03
       316   7  1.814010E+05  8.470595E+04 -5.122607E+01  1.270062E+05 -8.755216E+02 -1.656022E+03
       316   8  1.734138E+05  8.064111E+04 -1.100443E+03  1.236611E+05 -1.210162E+03 -2.818622E+03
       316   9  1.674459E+05  7.485958E+04 -1.485691E+03  1.197846E+05 -1.550703E+03 -3.973355E+03
       316  10  1.961315E+05  9.529983E+04  3.096714E+03  1.346506E+05  1.075608E-09  3.546827E-09
       316  11  2.021308E+05  1.011395E+05  5.076005E+03  1.384808E+05  1.587127E-09  1.635833E-09
       316  12  2.101561E+05  1.052692E+05  7.745576E+03  1.417799E+05  3.896696E-09  7.881031E-10
       316  13  1.887662E+05  9.000287E+04  1.522743E+03  1.308284E+05 -7.597922E-10  9.589911E-10
       316  14  1.877723E+05  9.089031E+04  1.987804E+03  1.310709E+05 -2.747160E-10  1.304389E-09
       316  15  1.888010E+05  9.006442E+04  3.130014E+03  1.307821E+05  7.003936E-10 -1.964678E-09
       316  16  1.814010E+05  8.470594E+04 -5.123266E+01  1.270062E+05 -3.368860E-09 -2.653293E-10
       316  17  1.734138E+05  8.064110E+04 -1.100461E+03  1.236611E+05 -3.010608E-09 -1.255613E-09
       316  18  1.674459E+05  7.485956E+04 -1.485725E+03  1.197846E+05 -2.737577E-09 -3.473845E-09
       316  19  1.961315E+05  9.529983E+04  3.096718E+03  1.346506E+05 -1.377030E+03 -3.616403E+01
       316  20  2.021308E+05  1.011395E+05  5.076010E+03  1.384808E+05 -1.012114E+03  1.149153E+03
       316  21  2.101561E+05  1.052692E+05  7.745587E+03  1.417799E+05 -6.412850E+02  2.326603E+03
       316  22  1.887662E+05  9.000287E+04  1.522744E+03  1.308284E+05 -2.507456E+02  8.099354E+02
       316  23  1.877723E+05  9.089031E+04  1.987812E+03  1.310709E+05  9.903514E+01  1.983896E+03
       316  24  1.888010E+05  9.006443E+04  3.130033E+03  1.307821E+05  4.547228E+02  3.149990E+03
       316  25  1.814010E+05  8.470595E+04 -5.122607E+01  1.270062E+05  8.755216E+02  1.656022E+03
       316  26  1.734138E+05  8.064111E+04 -1.100443E+03  1.236611E+05  1.210162E+03  2.818622E+03
       316  27  1.674459E+05  7.485958E+04 -1.485691E+03  1.197846E+05  1.550703E+03  3.973355E+03
       317   1  2.144873E+05  1.087240E+05  9.659886E+03  1.442172E+05  4.083911E+02 -3.032662E+03
       317   2  2.214120E+05  1.139044E+05  1.421498E+04  1.472510E+05 -2.291202E+03 -5.837646E+03
       317   3  2.315501E+05  1.188681E+05  2.177050E+04  1.492681E+05 -5.107783E+03 -8.486875E+03
       317   4  1.889041E+05  9.012235E+04  4.029361E+03  1.308695E+05 -6.949675E+02 -3.861581E+03
       317   5  1.879064E+05  9.128507E+04  6.942538E+03  1.306096E+05 -3.095231E+03 -6.441714E+03
       317   6  1.900572E+05  9.216632E+04  1.259649E+04  1.293332E+05 -5.612464E+03 -8.866092E+03
       317   7  1.633222E+05  7.152159E+04 -1.600998E+03  1.175226E+05 -1.798243E+03 -4.690435E+03
       317   8  1.544024E+05  6.866665E+04 -3.298284E+02  1.139695E+05 -3.899193E+03 -7.045736E+03
       317   9  1.485664E+05  6.546544E+04  3.422393E+03  1.093998E+05 -6.117100E+03 -9.245279E+03
       317  10  2.144873E+05  1.087239E+05  9.659869E+03  1.442172E+05  3.367988E-13 -1.801206E-09
       317  11  2.214120E+05  1.139043E+05  1.421491E+04  1.472510E+05 -4.835819E-10 -1.071845E-09
       317  12  2.315500E+05  1.188680E+05  2.177032E+04  1.492680E+05 -5.511653E-10  1.030844E-09
       317  13  1.889041E+05  9.012233E+04  4.029332E+03  1.308694E+05  1.423629E-09 -1.165951E-09
       317  14  1.879064E+05  9.128502E+04  6.942442E+03  1.306096E+05  4.728591E-10 -7.584378E-10
       317  15  1.900571E+05  9.216623E+04  1.259628E+04  1.293331E+05 -5.915681E-10  2.225833E-09
       317  16  1.633222E+05  7.152157E+04 -1.601045E+03  1.175226E+05  1.712359E-09 -1.019624E-10
       317  17  1.544024E+05  6.866659E+04 -3.299502E+02  1.139695E+05  7.278918E-10 -5.735752E-11
       317  18  1.485663E+05  6.546534E+04  3.422162E+03  1.093997E+05 -1.239838E-11  2.611754E-10
       317  19  2.144873E+05  1.087240E+05  9.659886E+03  1.442172E+05 -4.083911E+02  3.032662E+03
       317  20  2.214120E+05  1.139044E+05  1.421498E+04  1.472510E+05  2.291202E+03  5.837646E+03
       317  21  2.315501E+05  1.188681E+05  2.177050E+04  1.492681E+05  5.107783E+03  8.486875E+03
       317  22  1.889041E+05  9.012235E+04  4.029361E+03  1.308695E+05  6.949675E+02  3.861581E+03
       317  23  1.879064E+05  9.128507E+04  6.942538E+03  1.306096E+05  3.095231E+03  6.441714E+03
       317  24  1.900572E+05  9.216632E+04  1.259649E+04  1.293332E+05  5.612464E+03  8.866092E+03
       317  25  1.633222E+05  7.152159E+04 -1.600998E+03  1.175226E+05  1.798243E+03  4.690435E+03
       317  26  1.544024E+05  6.866665E+04 -3.298284E+02  1.139695E+05  3.899193E+03  7.045736E+03
       317  27  1.485664E+05  6.546544E+04  3.422393E+03  1.093998E+05  6.117100E+03  9.245279E+03
       318   1  2.344991E+05  1.258394E+05  2.706242E+04  1.531740E+05 -6.598532E+03 -9.951166E+03
       318   2  2.602479E+05  1.193033E+05  4.394032E+04  1.434287E+05 -2.229445E+04 -2.105624E+04
       318   3  3.048861E+05  1.337315E+05  8.079735E+04  1.236192E+05 -3.910270E+04 -3.068231E+04
       318   4  1.913238E+05  9.304002E+04  1.666314E+04  1.301111E+05 -7.175533E+03 -1.038467E+04
       318   5  1.917865E+05  9.987525E+04  3.050024E+04  1.223608E+05 -2.002975E+04 -1.935590E+04
       318   6  2.105216E+05  1.270591E+05  6.185045E+04  1.045465E+05 -3.399498E+04 -2.684851E+04
       318   7  1.481497E+05  6.024134E+04  6.263429E+03  1.070498E+05 -7.752492E+03 -1.081813E+04
       318   8  1.233310E+05  8.044775E+04  1.706013E+04  1.012946E+05 -1.776540E+04 -1.765561E+04
       318   9  1.161710E+05  1.203884E+05  4.290438E+04  8.547491E+04 -2.888848E+04 -2.301467E+04
       318  10  2.344991E+05  1.258393E+05  2.706215E+04  1.531739E+05  3.355512E-09  2.395282E-09
       318  11  2.602473E+05  1.193027E+05  4.393856E+04  1.434283E+05  1.061056E-09  2.671068E-09
       318  12  3.048843E+05  1.337301E+05  8.079271E+04  1.236182E+05 -1.435970E-09 -1.342681E-09
       318  13  1.913237E+05  9.303989E+04  1.666284E+04  1.301111E+05  1.138970E-10 -1.133826E-09
       318  14  1.917860E+05  9.987474E+04  3.049878E+04  1.223605E+05  1.038972E-09 -1.342013E-09
       318  15  2.105202E+05  1.270580E+05  6.184692E+04  1.045457E+05  5.348680E-10  7.153399E-10
       318  16  1.481496E+05  6.024119E+04  6.263096E+03  1.070497E+05 -3.364103E-09 -1.902047E-09
       318  17  1.233306E+05  8.044733E+04  1.705895E+04  1.012944E+05 -5.042234E-10 -1.133001E-09
       318  18  1.161700E+05  1.203876E+05  4.290182E+04  8.547437E+04  1.989921E-09  3.934888E-10
       318  19  2.344991E+05  1.258394E+05  2.706242E+04  1.531740E+05  6.598532E+03  9.951166E+03
       318  20  2.602479E+05  1.193033E+05  4.394032E+04  1.434287E+05  2.229445E+04  2.105624E+04
       318  21  3.048861E+05  1.337315E+05  8.079735E+04  1.236192E+05  3.910270E+04  3.068231E+04
       318  22  1.913238E+05  9.304002E+04  1.666314E+04  1.301111E+05  7.175533E+03  1.038467E+04
       318  23  1.917865E+05  9.987525E+04  3.050024E+04  1.223608E+05  2.002975E+04  1.935590E+04
       318  24  2.105216E+05  1.270591E+05  6.185045E+04  1.045465E+05  3.399498E+04  2.684851E+04
       318  25  1.481497E+05  6.024134E+04  6.263429E+03  1.070498E+05  7.752492E+03  1.081813E+04
       318  26  1.233310E+05  8.044775E+04  1.706013E+04  1.012946E+05  1.776540E+04  1.765561E+04
       318  27  1.161710E+05  1.203884E+05  4.290438E+04  8.547491E+04  2.888848E+04  2.301467E+04
       319   1  2.285854E+05  3.747401E+04  3.627145E+04  3.033610E+04  1.286000E+04 -1.559844E+03
       319   2  2.036272E+05  2.717205E+04  2.344870E+04  2.651096E+04  5.619841E+03 -4.972444E+03
       319   3  1.804475E+05  2.024998E+04  1.618346E+04  2.726441E+04 -1.622808E+03 -5.290967E+03
       319   4  9.544545E+04  4.581196E+03  4.956431E+03  2.728781E+04  3.348028E+03 -1.569066E+03
       319   5  9.507296E+04  1.279122E+03  2.536559E+03  2.500059E+04  2.050516E+03 -4.976013E+03
       319   6  9.544735E+04  3.258189E+02  1.548545E+03  2.729194E+04  7.502101E+02 -5.288670E+03
       319   7 -3.767802E+04 -2.831280E+04 -2.635946E+04  2.424016E+04 -6.161923E+03 -1.578196E+03
       319   8 -1.346992E+04 -2.461449E+04 -1.837608E+04  2.349049E+04 -1.518198E+03 -4.979566E+03
       319   9  1.045425E+04 -1.959872E+04 -1.308660E+04  2.731946E+04  3.122913E+03 -5.286373E+03
       319  10  2.285853E+05  3.747397E+04  3.627114E+04  3.033612E+04 -2.874567E-09  7.853161E-10
       319  11  2.036272E+05  2.717201E+04  2.344859E+04  2.651098E+04 -3.321646E-10  2.939755E-09
       319  12  1.804475E+05  2.024995E+04  1.618340E+04  2.726440E+04  6.235742E-10  1.338283E-09
       319  13  9.544544E+04  4.581190E+03  4.956405E+03  2.728781E+04 -1.118843E-10 -2.393019E-09
       319  14  9.507295E+04  1.279094E+03  2.536504E+03  2.500060E+04  2.973448E-11 -2.859678E-09
       319  15  9.544734E+04  3.257887E+02  1.548491E+03  2.729194E+04  3.754971E-10  2.282642E-10
       319  16 -3.767806E+04 -2.831282E+04 -2.635954E+04  2.424016E+04  2.764737E-09 -3.305804E-10
       319  17 -1.346992E+04 -2.461452E+04 -1.837613E+04  2.349048E+04  2.477089E-11  1.855932E-09
       319  18  1.045424E+04 -1.959876E+04 -1.308667E+04  2.731947E+04 -8.476691E-10  2.494634E-10
       319  19  2.285854E+05  3.747401E+04  3.627145E+04  3.033610E+04 -1.286000E+04  1.559844E+03
       319  20  2.036272E+05  2.717205E+04  2.344870E+04  2.651096E+04 -5.619841E+03  4.972444E+03
       319  21  1.804475E+05  2.024998E+04  1.618346E+04  2.726441E+04  1.622808E+03  5.290967E+03
       319  22  9.544545E+04  4.581196E+03  4.956431E+03  2.728781E+04 -3.348028E+03  1.569066E+03
       319  23  9.507296E+04  1.279122E+03  2.536559E+03  2.500059E+04 -2.050516E+03  4.976013E+03
       319  24  9.544735E+04  3.258189E+02  1.548545E+03  2.729194E+04 -7.502101E+02  5.288670E+03
       319  25 -3.767802E+04 -2.831280E+04 -2.635946E+04  2.424016E+04  6.161923E+03  1.578196E+03
       319  26 -1.346992E+04 -2.461449E+04 -1.837608E+04  2.349049E+04  1.518198E+03  4.979566E+03
       319  27  1.045425E+04 -1.959872E+04 -1.308660E+04  2.731946E+04 -3.122913E+03  5.286373E+03
       320   1  1.648368E+05  1.656412E+04  1.309115E+04  2.754795E+04 -1.692031E+03 -4.476408E+03
       320   2  1.406848E+05  1.065841E+04  8.490449E+03  2.506262E+04 -2.813460E+03 -3.170189E+03
       320   3  1.167442E+05  5.056732E+03  4.692722E+03  2.736797E+04 -3.935161E+03 -1.563792E+03
       320   4  9.530637E+04  3.023586E+02  1.304463E+03  2.733866E+04  5.303162E+02 -4.474225E+03
       320   5  9.525148E+04  9.321753E+01  1.092809E+03  2.494341E+04 -1.467306E+01 -3.167389E+03
       320   6  9.530710E+04  8.800114E+01  1.283801E+03  2.733887E+04 -5.599834E+02 -1.560363E+03
       320   7  2.578069E+04 -1.595966E+04 -1.048236E+04  2.712938E+04  2.752422E+03 -4.472043E+03
       320   8  4.982025E+04 -1.047207E+04 -6.304859E+03  2.482421E+04  2.783916E+03 -3.164590E+03
       320   9  7.387047E+04 -4.880747E+03 -2.125089E+03  2.730977E+04  2.815082E+03 -1.556935E+03
       320  10  1.648368E+05  1.656410E+04  1.309111E+04  2.754795E+04 -5.159659E-10  6.013763E-10
       320  11  1.406848E+05  1.065839E+04  8.490415E+03  2.506261E+04  1.713847E-09  1.946034E-09
       320  12  1.167442E+05  5.056725E+03  4.692688E+03  2.736796E+04  2.678134E-09  2.454820E-09
       320  13  9.530636E+04  3.023371E+02  1.304424E+03  2.733866E+04  4.854079E-11  3.782698E-09
       320  14  9.525148E+04  9.320676E+01  1.092790E+03  2.494341E+04 -8.161764E-11 -5.854807E-09
       320  15  9.530710E+04  8.799844E+01  1.283796E+03  2.733887E+04  4.993241E-10  2.499042E-09
       320  16  2.578067E+04 -1.595968E+04 -1.048241E+04  2.712939E+04  3.817299E-10 -1.139978E-09
       320  17  4.982024E+04 -1.047209E+04 -6.304893E+03  2.482422E+04 -2.040557E-09 -1.080110E-09
       320  18  7.387046E+04 -4.880751E+03 -2.125109E+03  2.730977E+04 -2.759829E-09  1.026506E-09
       320  19  1.648368E+05  1.656412E+04  1.309115E+04  2.754795E+04  1.692031E+03  4.476408E+03
       320  20  1.406848E+05  1.065841E+04  8.490449E+03  2.506262E+04  2.813460E+03  3.170189E+03
       320  21  1.167442E+05  5.056732E+03  4.692722E+03  2.736797E+04  3.935161E+03  1.563792E+03
       320  22  9.530637E+04  3.023586E+02  1.304463E+03  2.733866E+04 -5.303162E+02  4.474225E+03
       320  23  9.525148E+04  9.321753E+01  1.092809E+03  2.494341E+04  1.467306E+01  3.167389E+03
       320  24  9.530710E+04  8.800114E+01  1.283801E+03  2.733887E+04  5.599834E+02  1.560363E+03
       320  25  2.578069E+04 -1.595966E+04 -1.048236E+04  2.712938E+04 -2.752422E+03  4.472043E+03
       320  26  4.982025E+04 -1.047207E+04 -6.304859E+03  2.482421E+04 -2.783916E+03  3.164590E+03
       320  27  7.387047E+04 -4.880747E+03 -2.125089E+03  2.730977E+04 -2.815082E+03  1.556935E+03
       321   1  1.014660E+05  1.485277E+03  2.407856E+03  2.745988E+04 -4.175336E+03 -5.191682E+02
       321   2  7.730498E+04 -3.910614E+03 -6.547857E+02  2.472495E+04 -4.940368E+03  1.121560E+03
       321   3  5.337823E+04 -8.722167E+03 -3.076740E+03  2.678494E+04 -5.705150E+03  2.533193E+03
       321   4  9.535160E+04  8.528355E+01  1.522990E+03  2.733991E+04 -8.033820E+02 -5.157333E+02
       321   5  9.519622E+04  2.806454E+02  2.409442E+03  2.494192E+04 -2.008390E+03  1.124528E+03
       321   6  9.535122E+04  1.136815E+03  4.242129E+03  2.733885E+04 -3.213182E+03  2.535697E+03
       321   7  8.923727E+04 -1.314706E+03  6.381671E+02  2.721993E+04  2.568540E+03 -5.122996E+02
       321   8  1.130878E+05  4.471893E+03  5.473692E+03  2.515890E+04  9.236702E+02  1.127497E+03
       321   9  1.373260E+05  1.099571E+04  1.156096E+04  2.789279E+04 -7.210501E+02  2.538205E+03
       321  10  1.014660E+05  1.485272E+03  2.407823E+03  2.745988E+04  2.096704E-09 -1.732014E-09
       321  11  7.730496E+04 -3.910622E+03 -6.548339E+02  2.472495E+04  6.185690E-10 -1.876273E-09
       321  12  5.337819E+04 -8.722183E+03 -3.076813E+03  2.678495E+04 -1.895046E-09 -7.322647E-10
       321  13  9.535160E+04  8.528310E+01  1.522989E+03  2.733990E+04 -1.829817E-11 -6.652623E-10
       321  14  9.519622E+04  2.806429E+02  2.409433E+03  2.494192E+04  1.328306E-10 -3.953712E-09
       321  15  9.535121E+04  1.136805E+03  4.242098E+03  2.733885E+04  3.694636E-10 -1.323160E-09
       321  16  8.923726E+04 -1.314708E+03  6.381542E+02  2.721993E+04 -2.139725E-09 -1.871576E-09
       321  17  1.130878E+05  4.471891E+03  5.473688E+03  2.515890E+04 -8.516574E-10  4.748305E-10
       321  18  1.373260E+05  1.099570E+04  1.156095E+04  2.789279E+04  1.774999E-09  6.963435E-10
       321  19  1.014660E+05  1.485277E+03  2.407856E+03  2.745988E+04  4.175336E+03  5.191682E+02
       321  20  7.730498E+04 -3.910614E+03 -6.547857E+02  2.472495E+04  4.940368E+03 -1.121560E+03
       321  21  5.337823E+04 -8.722167E+03 -3.076740E+03  2.678494E+04  5.705150E+03 -2.533193E+03
       321  22  9.535160E+04  8.528355E+01  1.522990E+03  2.733991E+04  8.033820E+02  5.157333E+02
       321  23  9.519622E+04  2.806454E+02  2.409442E+03  2.494192E+04  2.008390E+03 -1.124528E+03
       321  24  9.535122E+04  1.136815E+03  4.242129E+03  2.733885E+04  3.213182E+03 -2.535697E+03
       321  25  8.923727E+04 -1.314706E+03  6.381671E+02  2.721993E+04 -2.568540E+03  5.122996E+02
       321  26  1.130878E+05  4.471893E+03  5.473692E+03  2.515890E+04 -9.236702E+02 -1.127497E+03
       321  27  1.373260E+05  1.099571E+04  1.156096E+04  2.789279E+04  7.210501E+02 -2.538205E+03
       322   1  3.856421E+04 -1.227177E+04 -4.512424E+03  2.773214E+04 -6.553313E+03  3.401526E+03
       322   2  1.337624E+04 -1.419164E+04 -5.702625E+03  1.904552E+04 -6.993027E+03  3.518654E+03
       322   3 -9.537273E+03 -7.204564E+03 -4.381900E+03  1.497950E+04 -7.430386E+03  1.149306E+03
       322   4  9.597139E+04  1.225793E+03  5.577822E+03  2.730190E+04 -3.941010E+03  3.404136E+03
       322   5  9.441925E+04  5.201032E+03  1.015282E+04  2.498302E+04 -9.155313E+03  3.516402E+03
       322   6  9.596929E+04  1.891125E+04  2.055382E+04  2.728450E+04 -1.436731E+04  1.142332E+03
       322   7  1.533818E+05  1.472318E+04  1.566798E+04  2.687161E+04 -1.328472E+03  3.406743E+03
       322   8  1.754686E+05  2.459344E+04  2.600799E+04  3.092131E+04 -1.131788E+04  3.514109E+03
       322   9  2.014865E+05  4.502686E+04  4.548903E+04  3.959160E+04 -2.130541E+04  1.135084E+03
       322  10  3.856416E+04 -1.227179E+04 -4.512527E+03  2.773216E+04  4.237139E-09 -2.697448E-09
       322  11  1.337618E+04 -1.419166E+04 -5.702740E+03  1.904554E+04 -5.412566E-10 -2.300511E-09
       322  12 -9.537333E+03 -7.204580E+03 -4.382006E+03  1.497950E+04 -5.586732E-09 -7.576719E-10
       322  13  9.597137E+04  1.225777E+03  5.577771E+03  2.730191E+04  2.372978E-12 -8.508480E-10
       322  14  9.441916E+04  5.200996E+03  1.015264E+04  2.498305E+04  4.833325E-11 -5.421674E-09
       322  15  9.596906E+04  1.891119E+04  2.055343E+04  2.728451E+04  3.355765E-10 -1.595820E-09
       322  16  1.533818E+05  1.472316E+04  1.566795E+04  2.687161E+04 -4.343670E-09 -2.447409E-09
       322  17  1.754685E+05  2.459339E+04  2.600773E+04  3.092135E+04  2.668571E-10  2.935809E-12
       322  18  2.014860E+05  4.502673E+04  4.548818E+04  3.959162E+04  5.515265E-09 -5.247364E-10
       322  19  3.856421E+04 -1.227177E+04 -4.512424E+03  2.773214E+04  6.553313E+03 -3.401526E+03
       322  20  1.337624E+04 -1.419164E+04 -5.702625E+03  1.904552E+04  6.993027E+03 -3.518654E+03
       322  21 -9.537273E+03 -7.204564E+03 -4.381900E+03  1.497950E+04  7.430386E+03 -1.149306E+03
       322  22  9.597139E+04  1.225793E+03  5.577822E+03  2.730190E+04  3.941010E+03 -3.404136E+03
       322  23  9.441925E+04  5.201032E+03  1.015282E+04  2.498302E+04  9.155313E+03 -3.516402E+03
       322  24  9.596929E+04  1.891125E+04  2.055382E+04  2.728450E+04  1.436731E+04 -1.142332E+03
       322  25  1.533818E+05  1.472318E+04  1.566798E+04  2.687161E+04  1.328472E+03 -3.406743E+03
       322  26  1.754686E+05  2.459344E+04  2.600799E+04  3.092131E+04  1.131788E+04 -3.514109E+03
       322  27  2.014865E+05  4.502686E+04  4.548903E+04  3.959160E+04  2.130541E+04 -1.135084E+03
       323   1 -1.114845E+05 -4.462260E+05 -1.146049E+05  9.161887E+04 -2.245549E+03 -5.862478E+04
       323   2 -5.478447E+04 -3.942576E+05 -6.445410E+04  6.692919E+04 -7.005142E+03 -3.227402E+04
       323   3 -3.082290E+04 -3.538852E+05 -3.964993E+04  5.109342E+04 -6.917883E+03 -5.916139E+03
       323   4 -6.023443E+04 -2.393383E+05 -6.570815E+04  5.239802E+04 -2.253024E+03 -4.488411E+04
       323   5 -1.651077E+04 -2.343424E+05 -3.323969E+04  4.799297E+04 -7.007544E+03 -2.783203E+04
       323   6 -3.906788E+03 -2.393268E+05 -1.965370E+04  5.244380E+04 -6.914063E+03 -1.077522E+04
       323   7 -8.981541E+03 -3.240742E+04 -1.681289E+04  1.316402E+04 -2.262236E+03 -3.113889E+04
       323   8  2.176274E+04 -7.440179E+04 -2.026246E+03  2.905177E+04 -7.010217E+03 -2.338893E+04
       323   9  2.300863E+04 -1.247554E+05  3.421560E+02  5.379445E+04 -6.910264E+03 -1.563517E+04
       323  10 -1.114854E+05 -4.462297E+05 -1.146113E+05  9.161876E+04  3.118210E-11  2.289742E-09
       323  11 -5.478480E+04 -3.942587E+05 -6.445615E+04  6.692901E+04 -9.140657E-10  5.988170E-10
       323  12 -3.082296E+04 -3.538853E+05 -3.965009E+04  5.109339E+04 -2.820544E-10 -5.896160E-10
       323  13 -6.023498E+04 -2.393404E+05 -6.571195E+04  5.239794E+04  1.966777E-10  2.139625E-11
       323  14 -1.651103E+04 -2.343432E+05 -3.324124E+04  4.799281E+04 -5.242960E-10 -1.495844E-09
       323  15 -3.906871E+03 -2.393269E+05 -1.965401E+04  5.244374E+04 -6.729034E-10  1.219268E-09
       323  16 -8.981807E+03 -3.240847E+04 -1.681472E+04  1.316397E+04  8.629991E-11  4.451263E-10
       323  17  2.176255E+04 -7.440239E+04 -2.027366E+03  2.905164E+04  4.477815E-10 -3.740110E-09
       323  18  2.300851E+04 -1.247557E+05  3.416068E+02  5.379436E+04 -1.516639E-09 -1.490951E-10
       323  19 -1.114845E+05 -4.462260E+05 -1.146049E+05  9.161887E+04  2.245549E+03  5.862478E+04
       323  20 -5.478447E+04 -3.942576E+05 -6.445410E+04  6.692919E+04  7.005142E+03  3.227402E+04
       323  21 -3.082290E+04 -3.538852E+05 -3.964993E+04  5.109342E+04  6.917883E+03  5.916139E+03
       323  22 -6.023443E+04 -2.393383E+05 -6.570815E+04  5.239802E+04  2.253024E+03  4.488411E+04
       323  23 -1.651077E+04 -2.343424E+05 -3.323969E+04  4.799297E+04  7.007544E+03  2.783203E+04
       323  24 -3.906788E+03 -2.393268E+05 -1.965370E+04  5.244380E+04  6.914063E+03  1.077522E+04
       323  25 -8.981541E+03 -3.240742E+04 -1.681289E+04  1.316402E+04  2.262236E+03  3.113889E+04
       323  26  2.176274E+04 -7.440179E+04 -2.026246E+03  2.905177E+04  7.010217E+03  2.338893E+04
       323  27  2.300863E+04 -1.247554E+05  3.421560E+02  5.379445E+04  6.910264E+03  1.563517E+04
       324   1 -2.352668E+04 -3.223746E+05 -3.071064E+04  5.449978E+04 -5.282960E+03 -3.443232E+03
       324   2 -1.035561E+04 -2.753337E+05 -1.855291E+04  4.810917E+04 -2.782777E+03  3.078069E+03
       324   3 -7.893417E+02 -2.300214E+05 -1.153824E+04  5.090709E+04 -1.019303E+02  9.599917E+03
       324   4 -3.613649E+03 -2.374795E+05 -1.608586E+04  5.251268E+04 -5.279380E+03 -8.078441E+03
       324   5 -1.375019E+03 -2.366436E+05 -1.235297E+04  4.791870E+04 -2.779007E+03 -1.903510E+03
       324   6 -2.680750E+03 -2.374781E+05 -1.352215E+04  5.251336E+04 -9.794307E+01  4.271515E+03
       324   7  1.629902E+04 -1.525772E+05 -1.461247E+03  5.052529E+04 -5.275770E+03 -1.271427E+04
       324   8  7.605515E+03 -1.979520E+05 -6.152984E+03  4.772822E+04 -2.775235E+03 -6.885388E+03
       324   9 -4.572138E+03 -2.449347E+05 -1.550596E+04  5.411961E+04 -9.398343E+01 -1.056823E+03
       324  10 -2.352671E+04 -3.223746E+05 -3.071072E+04  5.449977E+04  1.708876E-10  3.376353E-09
       324  11 -1.035562E+04 -2.753337E+05 -1.855294E+04  4.810917E+04  7.296138E-10  1.478023E-09
       324  12 -7.893665E+02 -2.300215E+05 -1.153842E+04  5.090709E+04  8.109355E-10 -1.264732E-09
       324  13 -3.613696E+03 -2.374796E+05 -1.608604E+04  5.251264E+04 -5.072208E-10 -2.611936E-10
       324  14 -1.375028E+03 -2.366436E+05 -1.235299E+04  4.791870E+04  4.302848E-10 -2.060285E-09
       324  15 -2.680755E+03 -2.374781E+05 -1.352219E+04  5.251336E+04  2.735719E-10  1.923559E-09
       324  16  1.629895E+04 -1.525774E+05 -1.461604E+03  5.052524E+04 -9.806343E-10 -5.432717E-10
       324  17  7.605494E+03 -1.979521E+05 -6.153088E+03  4.772820E+04 -3.615045E-10 -3.932442E-09
       324  18 -4.572138E+03 -2.449347E+05 -1.550596E+04  5.411961E+04 -5.541988E-10  1.153499E-09
       324  19 -2.352668E+04 -3.223746E+05 -3.071064E+04  5.449978E+04  5.282960E+03  3.443232E+03
       324  20 -1.035561E+04 -2.753337E+05 -1.855291E+04  4.810917E+04  2.782777E+03 -3.078069E+03
       324  21 -7.893417E+02 -2.300214E+05 -1.153824E+04  5.090709E+04  1.019303E+02 -9.599917E+03
       324  22 -3.613649E+03 -2.374795E+05 -1.608586E+04  5.251268E+04  5.279380E+03  8.078441E+03
       324  23 -1.375019E+03 -2.366436E+05 -1.235297E+04  4.791870E+04  2.779007E+03  1.903510E+03
       324  24 -2.680750E+03 -2.374781E+05 -1.352215E+04  5.251336E+04  9.794307E+01 -4.271515E+03
       324  25  1.629902E+04 -1.525772E+05 -1.461247E+03  5.052529E+04  5.275770E+03  1.271427E+04
       324  26  7.605515E+03 -1.979520E+05 -6.152984E+03  4.772822E+04  2.775235E+03  6.885388E+03
       324  27 -4.572138E+03 -2.449347E+05 -1.550596E+04  5.411961E+04  9.398343E+01  1.056823E+03
       325   1  5.940350E+03 -2.016888E+05 -8.442673E+03  5.340461E+04  1.671627E+03  1.196337E+04
       325   2  7.990480E+03 -1.523943E+05 -7.735151E+03  3.418109E+04  2.948356E+03  1.864111E+04
       325   3 -1.152744E+04 -1.093390E+05 -1.676302E+04  2.395001E+04  1.101534E+03  2.531659E+04
       325   4 -2.899178E+03 -2.387255E+05 -1.560331E+04  5.247326E+04  1.675688E+03  6.503774E+03
       325   5 -1.197357E+04 -2.350872E+05 -2.471505E+04  4.796052E+04  2.948392E+03  1.917568E+04
       325   6 -4.365932E+04 -2.387327E+05 -4.772689E+04  5.244098E+04  1.097668E+03  3.184466E+04
       325   7 -1.173877E+04 -2.757607E+05 -2.276390E+04  5.154197E+04  1.679767E+03  1.044500E+03
       325   8 -3.193734E+04 -3.177732E+05 -4.169522E+04  6.173807E+04  2.948451E+03  1.971017E+04
       325   9 -7.578936E+04 -3.681092E+05 -7.869134E+04  8.092599E+04  1.094401E+03  3.837138E+04
       325  10  5.940309E+03 -2.016890E+05 -8.442948E+03  5.340459E+04  1.137786E-09  2.952553E-09
       325  11  7.990377E+03 -1.523947E+05 -7.735821E+03  3.418105E+04  1.656436E-09  1.136861E-09
       325  12 -1.152761E+04 -1.093397E+05 -1.676423E+04  2.394998E+04  4.613672E-10 -1.417674E-09
       325  13 -2.899192E+03 -2.387255E+05 -1.560339E+04  5.247325E+04  5.402421E-10  5.593944E-10
       325  14 -1.197368E+04 -2.350876E+05 -2.471576E+04  4.796047E+04  1.138369E-09 -1.014805E-09
       325  15 -4.365960E+04 -2.387338E+05 -4.772880E+04  5.244095E+04  5.662616E-10  1.029810E-09
       325  16 -1.173877E+04 -2.757607E+05 -2.276390E+04  5.154197E+04 -7.605323E-10 -3.561755E-10
       325  17 -3.193745E+04 -3.177736E+05 -4.169596E+04  6.173803E+04  1.050717E-09 -4.223621E-09
       325  18 -7.578975E+04 -3.681108E+05 -7.869411E+04  8.092596E+04  2.669546E-10  3.420433E-10
       325  19  5.940350E+03 -2.016888E+05 -8.442673E+03  5.340461E+04 -1.671627E+03 -1.196337E+04
       325  20  7.990480E+03 -1.523943E+05 -7.735151E+03  3.418109E+04 -2.948356E+03 -1.864111E+04
       325  21 -1.152744E+04 -1.093390E+05 -1.676302E+04  2.395001E+04 -1.101534E+03 -2.531659E+04
       325  22 -2.899178E+03 -2.387255E+05 -1.560331E+04  5.247326E+04 -1.675688E+03 -6.503774E+03
       325  23 -1.197357E+04 -2.350872E+05 -2.471505E+04  4.796052E+04 -2.948392E+03 -1.917568E+04
       325  24 -4.365932E+04 -2.387327E+05 -4.772689E+04  5.244098E+04 -1.097668E+03 -3.184466E+04
       325  25 -1.173877E+04 -2.757607E+05 -2.276390E+04  5.154197E+04 -1.679767E+03 -1.044500E+03
       325  26 -3.193734E+04 -3.177732E+05 -4.169522E+04  6.173807E+04 -2.948451E+03 -1.971017E+04
       325  27 -7.578936E+04 -3.681092E+05 -7.869134E+04  8.092599E+04 -1.094401E+03 -3.837138E+04
       326   1  7.935479E+04  5.655239E+04  1.084960E+04  5.801571E+04  7.886538E+03  6.356886E+03
       326   2  8.259255E+04  4.642286E+04  4.142450E+03  6.322050E+04  4.876992E+03  5.045229E+03
       326   3  9.113741E+04  4.148512E+04  1.531110E+03  6.547575E+04  2.261927E+03  3.208473E+03
       326   4  1.100434E+05  6.126913E+04  1.751659E+04  6.538462E+04  9.556883E+03  7.611770E+03
       326   5  1.045613E+05  5.374717E+04  8.675843E+03  7.047907E+04  5.538812E+03  5.542447E+03
       326   6  1.046051E+05  5.163582E+04  4.806610E+03  7.262398E+04  1.915270E+03  2.947993E+03
       326   7  1.407337E+05  6.598608E+04  2.418373E+04  7.275383E+04  1.122737E+04  8.866675E+03
       326   8  1.265311E+05  6.107168E+04  1.320933E+04  7.773797E+04  6.200676E+03  6.039682E+03
       326   9  1.180733E+05  6.178683E+04  8.082182E+03  7.977252E+04  1.568597E+03  2.687500E+03
       326  10  7.935471E+04  5.655233E+04  1.084940E+04  5.801567E+04 -1.818090E-09 -1.199957E-09
       326  11  8.259251E+04  4.642282E+04  4.142357E+03  6.322048E+04 -1.011541E-09 -5.205428E-10
       326  12  9.113740E+04  4.148511E+04  1.531081E+03  6.547574E+04 -1.203177E-10  1.526489E-09
       326  13  1.100433E+05  6.126904E+04  1.751631E+04  6.538456E+04 -4.534848E-10  1.346939E-11
       326  14  1.045613E+05  5.374713E+04  8.675728E+03  7.047905E+04 -1.597019E-09 -5.376341E-09
       326  15  1.046051E+05  5.163581E+04  4.806587E+03  7.262398E+04 -4.893567E-10 -1.039500E-09
       326  16  1.407335E+05  6.598596E+04  2.418335E+04  7.275375E+04  1.371994E-09  3.299026E-09
       326  17  1.265311E+05  6.107163E+04  1.320919E+04  7.773794E+04  1.283470E-10  2.113194E-09
       326  18  1.180732E+05  6.178682E+04  8.082164E+03  7.977252E+04 -1.092448E-09  1.082836E-09
       326  19  7.935479E+04  5.655239E+04  1.084960E+04  5.801571E+04 -7.886538E+03 -6.356886E+03
       326  20  8.259255E+04  4.642286E+04  4.142450E+03  6.322050E+04 -4.876992E+03 -5.045229E+03
       326  21  9.113741E+04  4.148512E+04  1.531110E+03  6.547575E+04 -2.261927E+03 -3.208473E+03
       326  22  1.100434E+05  6.126913E+04  1.751659E+04  6.538462E+04 -9.556883E+03 -7.611770E+03
       326  23  1.045613E+05  5.374717E+04  8.675843E+03  7.047907E+04 -5.538812E+03 -5.542447E+03
       326  24  1.046051E+05  5.163582E+04  4.806610E+03  7.262398E+04 -1.915270E+03 -2.947993E+03
       326  25  1.407337E+05  6.598608E+04  2.418373E+04  7.275383E+04 -1.122737E+04 -8.866675E+03
       326  26  1.265311E+05  6.107168E+04  1.320933E+04  7.773797E+04 -6.200676E+03 -6.039682E+03
       326  27  1.180733E+05  6.178683E+04  8.082182E+03  7.977252E+04 -1.568597E+03 -2.687500E+03
       327   1  9.212478E+04  4.357798E+04  9.682101E+02  6.658416E+04  1.822607E+03  2.688922E+03
       327   2  9.493702E+04  4.562622E+04  3.198495E+02  6.862325E+04  1.202223E+03  1.918219E+03
       327   3  9.898824E+04  4.721964E+04  4.275496E+02  7.027602E+04  6.231612E+02  1.092540E+03
       327   4  1.042501E+05  5.138680E+04  3.688697E+03  7.240524E+04  1.501647E+03  2.447747E+03
       327   5  1.034542E+05  5.131060E+04  2.186123E+03  7.281791E+04  7.756543E+02  1.597697E+03
       327   6  1.039202E+05  5.080254E+04  1.531348E+03  7.284428E+04  9.098314E+01  6.926692E+02
       327   7  1.163753E+05  5.919553E+04  6.409091E+03  7.822632E+04  1.180686E+03  2.206571E+03
       327   8  1.119713E+05  5.699495E+04  4.052362E+03  7.701259E+04  3.490822E+02  1.277172E+03
       327   9  1.088522E+05  5.438545E+04  2.635145E+03  7.541257E+04 -4.412001E+02  2.927943E+02
       327  10  9.212477E+04  4.357798E+04  9.681903E+02  6.658415E+04 -4.575119E-10  7.490183E-10
       327  11  9.493702E+04  4.562621E+04  3.198399E+02  6.862325E+04 -1.130909E-09  2.989812E-09
       327  12  9.898824E+04  4.721964E+04  4.275466E+02  7.027602E+04 -1.593135E-09  1.824858E-09
       327  13  1.042501E+05  5.138680E+04  3.688682E+03  7.240523E+04 -2.439232E-10  5.389438E-10
       327  14  1.034542E+05  5.131059E+04  2.186117E+03  7.281791E+04 -1.357743E-10  3.908929E-09
       327  15  1.039202E+05  5.080254E+04  1.531347E+03  7.284428E+04 -7.465734E-11 -1.869024E-09
       327  16  1.163753E+05  5.919552E+04  6.409079E+03  7.822632E+04 -3.104250E-10  1.965392E-10
       327  17  1.119713E+05  5.699495E+04  4.052359E+03  7.701259E+04  9.490149E-10  7.890776E-10
       327  18  1.088522E+05  5.438545E+04  2.635145E+03  7.541257E+04  7.887413E-10  1.346337E-09
       327  19  9.212478E+04  4.357798E+04  9.682101E+02  6.658416E+04 -1.822607E+03 -2.688922E+03
       327  20  9.493702E+04  4.562622E+04  3.198495E+02  6.862325E+04 -1.202223E+03 -1.918219E+03
       327  21  9.898824E+04  4.721964E+04  4.275496E+02  7.027602E+04 -6.231612E+02 -1.092540E+03
       327  22  1.042501E+05  5.138680E+04  3.688697E+03  7.240524E+04 -1.501647E+03 -2.447747E+03
       327  23  1.034542E+05  5.131060E+04  2.186123E+03  7.281791E+04 -7.756543E+02 -1.597697E+03
       327  24  1.039202E+05  5.080254E+04  1.531348E+03  7.284428E+04 -9.098314E+01 -6.926692E+02
       327  25  1.163753E+05  5.919553E+04  6.409091E+03  7.822632E+04 -1.180686E+03 -2.206571E+03
       327  26  1.119713E+05  5.699495E+04  4.052362E+03  7.701259E+04 -3.490822E+02 -1.277172E+03
       327  27  1.088522E+05  5.438545E+04  2.635145E+03  7.541257E+04  4.412001E+02 -2.927943E+02
       328   1  1.010101E+05  4.878925E+04  7.793075E+02  7.136893E+04  5.379199E+02  7.730651E+02
       328   2  1.038417E+05  5.155463E+04  1.566657E+03  7.319566E+04  1.641878E+02  6.084377E+01
       328   3  1.076783E+05  5.354340E+04  2.853722E+03  7.477189E+04 -2.097529E+02 -6.511326E+02
       328   4  1.038980E+05  5.078785E+04  1.402589E+03  7.282791E+04  8.177244E+00  3.750234E+02
       328   5  1.034025E+05  5.118824E+04  1.465532E+03  7.294414E+04 -3.650687E+02 -3.368350E+02
       328   6  1.039116E+05  5.081185E+04  2.027739E+03  7.280985E+04 -7.385098E+02 -1.048434E+03
       328   7  1.067861E+05  5.278650E+04  2.025892E+03  7.428691E+04 -5.215792E+02 -2.302866E+01
       328   8  1.029632E+05  5.082185E+04  1.364408E+03  7.269263E+04 -8.943247E+02 -7.345133E+02
       328   9  1.001450E+05  4.808036E+04  1.201784E+03  7.084786E+04 -1.267252E+03 -1.445724E+03
       328  10  1.010101E+05  4.878925E+04  7.793059E+02  7.136893E+04  1.935251E-09  1.571842E-09
       328  11  1.038417E+05  5.155463E+04  1.566657E+03  7.319566E+04  3.040138E-10 -2.163266E-09
       328  12  1.076783E+05  5.354340E+04  2.853721E+03  7.477189E+04 -1.544492E-09 -1.882015E-09
       328  13  1.038980E+05  5.078785E+04  1.402589E+03  7.282791E+04  1.760165E-10 -5.455982E-10
       328  14  1.034025E+05  5.118824E+04  1.465531E+03  7.294414E+04  7.354007E-10  2.906542E-09
       328  15  1.039116E+05  5.081185E+04  2.027736E+03  7.280985E+04  3.882357E-10  1.328399E-09
       328  16  1.067861E+05  5.278650E+04  2.025892E+03  7.428691E+04 -2.338082E-09 -2.401016E-09
       328  17  1.029632E+05  5.082185E+04  1.364406E+03  7.269263E+04  1.204224E-09  4.521407E-10
       328  18  1.001450E+05  4.808036E+04  1.201777E+03  7.084786E+04  2.372524E-09  6.026969E-10
       328  19  1.010101E+05  4.878925E+04  7.793075E+02  7.136893E+04 -5.379199E+02 -7.730651E+02
       328  20  1.038417E+05  5.155463E+04  1.566657E+03  7.319566E+04 -1.641878E+02 -6.084377E+01
       328  21  1.076783E+05  5.354340E+04  2.853722E+03  7.477189E+04  2.097529E+02  6.511326E+02
       328  22  1.038980E+05  5.078785E+04  1.402589E+03  7.282791E+04 -8.177244E+00 -3.750234E+02
       328  23  1.034025E+05  5.118824E+04  1.465532E+03  7.294414E+04  3.650687E+02  3.368350E+02
       328  24  1.039116E+05  5.081185E+04  2.027739E+03  7.280985E+04  7.385098E+02  1.048434E+03
       328  25  1.067861E+05  5.278650E+04  2.025892E+03  7.428691E+04  5.215792E+02  2.302866E+01
       328  26  1.029632E+05  5.082185E+04  1.364408E+03  7.269263E+04  8.943247E+02  7.345133E+02
       328  27  1.001450E+05  4.808036E+04  1.201784E+03  7.084786E+04  1.267252E+03  1.445724E+03
       329   1  1.097160E+05  5.522787E+04  3.832439E+03  7.594994E+04 -4.004113E+02 -1.049510E+03
       329   2  1.131119E+05  5.761581E+04  6.283551E+03  7.730126E+04 -2.006480E+03 -2.644229E+03
       329   3  1.181923E+05  6.008424E+04  1.048865E+04  7.811208E+04 -3.655739E+03 -4.181504E+03
       329   4  1.039717E+05  5.084543E+04  2.525615E+03  7.285932E+04 -9.317340E+02 -1.448738E+03
       329   5  1.034863E+05  5.142805E+04  4.211759E+03  7.267048E+04 -2.427420E+03 -2.960524E+03
       329   6  1.046615E+05  5.206721E+04  7.556042E+03  7.194113E+04 -3.966297E+03 -4.414872E+03
       329   7  9.822744E+04  4.646301E+04  1.218790E+03  6.976873E+04 -1.463051E+03 -1.847962E+03
       329   8  9.386074E+04  4.524026E+04  2.139929E+03  6.803973E+04 -2.848356E+03 -3.276817E+03
       329   9  9.113058E+04  4.405008E+04  4.623338E+03  6.577019E+04 -4.276854E+03 -4.648239E+03
       329  10  1.097160E+05  5.522787E+04  3.832437E+03  7.594994E+04 -2.258183E-09  9.424572E-10
       329  11  1.131119E+05  5.761580E+04  6.283530E+03  7.730125E+04  4.991775E-09  6.160786E-09
       329  12  1.181923E+05  6.008422E+04  1.048859E+04  7.811207E+04  5.545316E-09  2.215857E-09
       329  13  1.039717E+05  5.084542E+04  2.525610E+03  7.285932E+04  1.226796E-09 -8.638779E-10
       329  14  1.034863E+05  5.142804E+04  4.211732E+03  7.267047E+04 -3.795843E-10  1.806312E-09
       329  15  1.046614E+05  5.206719E+04  7.555976E+03  7.194111E+04 -7.454653E-09 -5.511834E-09
       329  16  9.822743E+04  4.646300E+04  1.218779E+03  6.976873E+04  4.594559E-09  2.242287E-09
       329  17  9.386073E+04  4.524025E+04  2.139894E+03  6.803972E+04 -6.553005E-09 -4.608035E-09
       329  18  9.113056E+04  4.405005E+04  4.623263E+03  6.577017E+04 -2.078068E-08 -1.326514E-08
       329  19  1.097160E+05  5.522787E+04  3.832439E+03  7.594994E+04  4.004113E+02  1.049510E+03
       329  20  1.131119E+05  5.761581E+04  6.283551E+03  7.730126E+04  2.006480E+03  2.644229E+03
       329  21  1.181923E+05  6.008424E+04  1.048865E+04  7.811208E+04  3.655739E+03  4.181504E+03
       329  22  1.039717E+05  5.084543E+04  2.525615E+03  7.285932E+04  9.317340E+02  1.448738E+03
       329  23  1.034863E+05  5.142805E+04  4.211759E+03  7.267048E+04  2.427420E+03  2.960524E+03
       329  24  1.046615E+05  5.206721E+04  7.556042E+03  7.194113E+04  3.966297E+03  4.414872E+03
       329  25  9.822744E+04  4.646301E+04  1.218790E+03  6.976873E+04  1.463051E+03  1.847962E+03
       329  26  9.386074E+04  4.524026E+04  2.139929E+03  6.803973E+04  2.848356E+03  3.276817E+03
       329  27  9.113058E+04  4.405008E+04  4.623338E+03  6.577019E+04  4.276854E+03  4.648239E+03
       330   1  1.193980E+05  6.384283E+04  1.346426E+04  8.016244E+04 -4.575568E+03 -5.058862E+03
       330   2  1.340371E+05  5.923598E+04  2.299064E+04  7.394446E+04 -1.318257E+04 -1.137200E+04
       330   3  1.596177E+05  6.719871E+04  4.388910E+04  6.177606E+04 -2.220158E+04 -1.713663E+04
       330   4  1.054226E+05  5.258238E+04  9.972772E+03  7.240302E+04 -4.912956E+03 -5.312370E+03
       330   5  1.057978E+05  5.656458E+04  1.821682E+04  6.774859E+04 -1.246691E+04 -1.083462E+04
       330   6  1.168859E+05  7.288762E+04  3.691873E+04  5.714381E+04 -2.043266E+04 -1.580869E+04
       330   7  9.144766E+04  4.132234E+04  6.481375E+03  6.464398E+04 -5.250327E+03 -5.565863E+03
       330   8  7.755991E+04  5.389334E+04  1.344310E+04  6.155289E+04 -1.175131E+04 -1.029725E+04
       330   9  7.415702E+04  7.857731E+04  2.994858E+04  5.251132E+04 -1.866391E+04 -1.448069E+04
       330  10  1.193980E+05  6.384280E+04  1.346418E+04  8.016242E+04 -2.091446E-08 -1.552792E-08
       330  11  1.340369E+05  5.923579E+04  2.299007E+04  7.394434E+04 -6.103831E-09 -3.703749E-09
       330  12  1.596171E+05  6.719827E+04  4.388762E+04  6.177575E+04  3.959387E-09  4.583948E-09
       330  13  1.054226E+05  5.258235E+04  9.972673E+03  7.240300E+04 -7.033236E-09 -2.667774E-09
       330  14  1.057976E+05  5.656441E+04  1.821630E+04  6.774848E+04  5.267756E-10  4.147753E-10
       330  15  1.168854E+05  7.288724E+04  3.691747E+04  5.714355E+04  8.869699E-10  3.891687E-09
       330  16  9.144762E+04  4.132230E+04  6.481265E+03  6.464395E+04  5.953454E-09  6.991430E-09
       330  17  7.755974E+04  5.389319E+04  1.344264E+04  6.155279E+04  5.168988E-09  2.147952E-09
       330  18  7.415659E+04  7.857699E+04  2.994753E+04  5.251110E+04 -2.460624E-09 -9.315519E-10
       330  19  1.193980E+05  6.384283E+04  1.346426E+04  8.016244E+04  4.575568E+03  5.058862E+03
       330  20  1.340371E+05  5.923598E+04  2.299064E+04  7.394446E+04  1.318257E+04  1.137200E+04
       330  21  1.596177E+05  6.719871E+04  4.388910E+04  6.177606E+04  2.220158E+04  1.713663E+04
       330  22  1.054226E+05  5.258238E+04  9.972772E+03  7.240302E+04  4.912956E+03  5.312370E+03
       330  23  1.057978E+05  5.656458E+04  1.821682E+04  6.774859E+04  1.246691E+04  1.083462E+04
       330  24  1.168859E+05  7.288762E+04  3.691873E+04  5.714381E+04  2.043266E+04  1.580869E+04
       330  25  9.144766E+04  4.132234E+04  6.481375E+03  6.464398E+04  5.250327E+03  5.565863E+03
       330  26  7.755991E+04  5.389334E+04  1.344310E+04  6.155289E+04  1.175131E+04  1.029725E+04
       330  27  7.415702E+04  7.857731E+04  2.994858E+04  5.251132E+04  1.866391E+04  1.448069E+04
       331   1  7.113252E+04  1.713526E+04  1.678317E+04  1.622731E+04  6.089990E+03 -6.175253E+02
       331   2  5.818331E+04  1.131433E+04  1.030581E+04  1.395260E+04  2.628200E+03 -1.908666E+03
       331   3  4.620312E+04  7.586709E+03  6.605058E+03  1.407077E+04 -8.346943E+02 -1.876162E+03
       331   4  1.485501E+04  3.217438E+03  3.492723E+03  1.410659E+04  2.346253E+03 -6.211391E+02
       331   5  1.459144E+04  8.921690E+02  1.796837E+03  1.291161E+04  1.426196E+03 -1.909841E+03
       331   6  1.485539E+04  2.190180E+02  1.112622E+03  1.410947E+04  5.049217E+02 -1.874868E+03
       331   7 -4.141954E+04 -1.070059E+04 -9.797891E+03  1.198607E+04 -1.397146E+03 -6.247275E+02
       331   8 -2.899860E+04 -9.530100E+03 -6.712226E+03  1.187069E+04  2.242752E+02 -1.911012E+03
       331   9 -1.649138E+04 -7.148726E+03 -4.379842E+03  1.414817E+04  1.844472E+03 -1.873573E+03
       331  10  7.113248E+04  1.713525E+04  1.678310E+04  1.622731E+04  1.571355E-09 -5.579217E-10
       331  11  5.818331E+04  1.131432E+04  1.030579E+04  1.395261E+04  3.762432E-10 -1.176035E-09
       331  12  4.620311E+04  7.586705E+03  6.605050E+03  1.407077E+04 -1.651671E-09 -4.154489E-10
       331  13  1.485501E+04  3.217436E+03  3.492712E+03  1.410659E+04  9.452900E-12  2.842494E-09
       331  14  1.459144E+04  8.921645E+02  1.796826E+03  1.291161E+04  1.865607E-10 -8.449673E-10
       331  15  1.485539E+04  2.190142E+02  1.112615E+03  1.410947E+04  4.578705E-10 -1.496686E-09
       331  16 -4.141955E+04 -1.070059E+04 -9.797895E+03  1.198607E+04 -1.615199E-09  7.352027E-10
       331  17 -2.899860E+04 -9.530104E+03 -6.712233E+03  1.187069E+04 -6.758748E-10 -3.059672E-09
       331  18 -1.649138E+04 -7.148730E+03 -4.379855E+03  1.414817E+04  1.610512E-09 -1.260665E-09
       331  19  7.113252E+04  1.713526E+04  1.678317E+04  1.622731E+04 -6.089990E+03  6.175253E+02
       331  20  5.818331E+04  1.131433E+04  1.030581E+04  1.395260E+04 -2.628200E+03  1.908666E+03
       331  21  4.620312E+04  7.586709E+03  6.605058E+03  1.407077E+04  8.346943E+02  1.876162E+03
       331  22  1.485501E+04  3.217438E+03  3.492723E+03  1.410659E+04 -2.346253E+03  6.211391E+02
       331  23  1.459144E+04  8.921690E+02  1.796837E+03  1.291161E+04 -1.426196E+03  1.909841E+03
       331  24  1.485539E+04  2.190180E+02  1.112622E+03  1.410947E+04 -5.049217E+02  1.874868E+03
       331  25 -4.141954E+04 -1.070059E+04 -9.797891E+03  1.198607E+04  1.397146E+03  6.247275E+02
       331  26 -2.899860E+04 -9.530100E+03 -6.712226E+03  1.187069E+04 -2.242752E+02  1.911012E+03
       331  27 -1.649138E+04 -7.148726E+03 -4.379842E+03  1.414817E+04 -1.844472E+03  1.873573E+03
       332   1  3.810641E+04  5.682304E+03  5.000941E+03  1.426050E+04 -9.299307E+02 -1.429090E+03
       332   2  2.558710E+04  2.597494E+03  2.664048E+03  1.295896E+04 -1.576387E+03 -7.040351E+02
       332   3  1.319263E+04 -3.006303E+02  7.930095E+02  1.414161E+04 -2.222962E+03  1.438386E+02
       332   4  1.475690E+04  2.018560E+02  9.489146E+02  1.412947E+04  3.455166E+02 -1.427851E+03
       332   5  1.471497E+04  5.498626E+01  8.241648E+02  1.288745E+04 -6.511165E+01 -7.025609E+02
       332   6  1.475699E+04  5.391772E+01  1.001560E+03  1.412962E+04 -4.758674E+02  1.455487E+02
       332   7 -8.592077E+03 -5.278621E+03 -3.103124E+03  1.399845E+04  1.620917E+03 -1.426612E+03
       332   8  3.842962E+03 -2.487527E+03 -1.015714E+03  1.281593E+04  1.446138E+03 -7.010870E+02
       332   9  1.632135E+04  4.084673E+02  1.210122E+03  1.411762E+04  1.271231E+03  1.472587E+02
       332  10  3.810641E+04  5.682302E+03  5.000935E+03  1.426050E+04 -3.161413E-09  1.490397E-10
       332  11  2.558709E+04  2.597493E+03  2.664042E+03  1.295896E+04  1.362143E-09 -1.163190E-09
       332  12  1.319263E+04 -3.006317E+02  7.930002E+02  1.414161E+04  5.079835E-09 -2.335016E-09
       332  13  1.475690E+04  2.018538E+02  9.489106E+02  1.412947E+04  6.742809E-11  4.209448E-10
       332  14  1.471497E+04  5.498573E+01  8.241639E+02  1.288745E+04  1.702511E-10  6.287868E-10
       332  15  1.475699E+04  5.391764E+01  1.001559E+03  1.412962E+04  4.328848E-10 -1.452305E-09
       332  16 -8.592080E+03 -5.278624E+03 -3.103133E+03  1.399845E+04  3.230778E-09  2.234109E-09
       332  17  3.842960E+03 -2.487528E+03 -1.015719E+03  1.281593E+04 -1.596512E-09 -1.721805E-09
       332  18  1.632135E+04  4.084669E+02  1.210119E+03  1.411762E+04 -5.149251E-09  1.451603E-10
       332  19  3.810641E+04  5.682304E+03  5.000941E+03  1.426050E+04  9.299307E+02  1.429090E+03
       332  20  2.558710E+04  2.597494E+03  2.664048E+03  1.295896E+04  1.576387E+03  7.040351E+02
       332  21  1.319263E+04 -3.006303E+02  7.930095E+02  1.414161E+04  2.222962E+03 -1.438386E+02
       332  22  1.475690E+04  2.018560E+02  9.489146E+02  1.412947E+04 -3.455166E+02  1.427851E+03
       332  23  1.471497E+04  5.498626E+01  8.241648E+02  1.288745E+04  6.511165E+01  7.025609E+02
       332  24  1.475699E+04  5.391772E+01  1.001560E+03  1.412962E+04  4.758674E+02 -1.455487E+02
       332  25 -8.592077E+03 -5.278621E+03 -3.103124E+03  1.399845E+04 -1.620917E+03  1.426612E+03
       332  26  3.842962E+03 -2.487527E+03 -1.015714E+03  1.281593E+04 -1.446138E+03  7.010870E+02
       332  27  1.632135E+04  4.084673E+02  1.210122E+03  1.411762E+04 -1.271231E+03 -1.472587E+02
       333   1  5.291746E+03 -2.151997E+03 -3.147391E+02  1.421597E+04 -2.414923E+03  6.850227E+02
       333   2 -7.265262E+03 -4.892193E+03 -1.655626E+03  1.270889E+04 -3.086448E+03  1.519273E+03
       333   3 -1.962125E+04 -7.155028E+03 -2.441653E+03  1.368403E+04 -3.757807E+03  2.202119E+03
       333   4  1.479416E+04  5.151492E+01  1.201553E+03  1.412925E+04 -6.665813E+02  6.867325E+02
       333   5  1.466841E+04  2.110506E+02  1.924989E+03  1.288774E+04 -1.628847E+03  1.520687E+03
       333   6  1.479397E+04  8.984122E+02  3.405155E+03  1.412843E+04 -2.590961E+03  2.203239E+03
       333   7  2.429668E+04  2.255024E+03  2.717855E+03  1.404253E+04  1.081787E+03  6.884418E+02
       333   8  3.660256E+04  5.314271E+03  5.505599E+03  1.306660E+04 -1.711971E+02  1.522101E+03
       333   9  4.921037E+04  8.951791E+03  9.251931E+03  1.457286E+04 -1.424052E+03  2.204361E+03
       333  10  5.291740E+03 -2.151999E+03 -3.147510E+02  1.421597E+04  2.458318E-09 -2.531331E-09
       333  11 -7.265272E+03 -4.892198E+03 -1.655648E+03  1.270890E+04  1.968720E-09  6.504421E-10
       333  12 -1.962127E+04 -7.155037E+03 -2.441689E+03  1.368403E+04  1.225152E-09 -2.595519E-10
       333  13  1.479416E+04  5.151429E+01  1.201552E+03  1.412925E+04 -4.150169E-11 -4.606917E-09
       333  14  1.466841E+04  2.110474E+02  1.924980E+03  1.288775E+04  2.355701E-10  1.709721E-09
       333  15  1.479396E+04  8.984052E+02  3.405134E+03  1.412843E+04  4.436246E-10  5.627272E-10
       333  16  2.429668E+04  2.255023E+03  2.717852E+03  1.404253E+04 -2.475727E-09 -2.492971E-09
       333  17  3.660256E+04  5.314268E+03  5.505595E+03  1.306660E+04 -2.217364E-09 -1.977311E-09
       333  18  4.921036E+04  8.951786E+03  9.251918E+03  1.457286E+04 -1.304598E-09  9.605669E-10
       333  19  5.291746E+03 -2.151997E+03 -3.147391E+02  1.421597E+04  2.414923E+03 -6.850227E+02
       333  20 -7.265262E+03 -4.892193E+03 -1.655626E+03  1.270889E+04  3.086448E+03 -1.519273E+03
       333  21 -1.962125E+04 -7.155028E+03 -2.441653E+03  1.368403E+04  3.757807E+03 -2.202119E+03
       333  22  1.479416E+04  5.151492E+01  1.201553E+03  1.412925E+04  6.665813E+02 -6.867325E+02
       333  23  1.466841E+04  2.110506E+02  1.924989E+03  1.288774E+04  1.628847E+03 -1.520687E+03
       333  24  1.479397E+04  8.984122E+02  3.405155E+03  1.412843E+04  2.590961E+03 -2.203239E+03
       333  25  2.429668E+04  2.255024E+03  2.717855E+03  1.404253E+04 -1.081787E+03 -6.884418E+02
       333  26  3.660256E+04  5.314271E+03  5.505599E+03  1.306660E+04  1.711971E+02 -1.522101E+03
       333  27  4.921037E+04  8.951791E+03  9.251931E+03  1.457286E+04  1.424052E+03 -2.204361E+03
       334   1 -2.713459E+04 -8.978340E+03 -2.836421E+03  1.445579E+04 -4.418004E+03  2.626740E+03
       334   2 -4.058080E+04 -8.874322E+03 -2.375388E+03  8.146320E+03 -5.600883E+03  2.489304E+03
       334   3 -5.205105E+04 -1.463712E+03  6.815622E+02  4.207679E+03 -6.782260E+03  7.840820E+02
       334   4  1.529312E+04  9.700384E+02  4.481608E+03  1.410510E+04 -3.174932E+03  2.627929E+03
       334   5  1.404388E+04  4.169692E+03  8.164944E+03  1.291297E+04 -7.368121E+03  2.487551E+03
       334   6  1.529258E+04  1.519805E+04  1.653445E+04  1.409152E+04 -1.155981E+04  7.794293E+02
       334   7  5.772260E+04  1.091832E+04  1.179958E+04  1.375438E+04 -1.931778E+03  2.629117E+03
       334   8  6.867148E+04  1.721361E+04  1.870516E+04  1.768006E+04 -9.135512E+03  2.485770E+03
       334   9  8.264065E+04  3.185986E+04  3.238717E+04  2.397643E+04 -1.633787E+04  7.746248E+02
       334  10 -2.713462E+04 -8.978352E+03 -2.836471E+03  1.445580E+04  6.254002E-08  1.228430E-09
       334  11 -4.058083E+04 -8.874337E+03 -2.375459E+03  8.146332E+03  4.443565E-09  1.017518E-09
       334  12 -5.205110E+04 -1.463725E+03  6.814746E+02  4.207683E+03 -5.469122E-08  3.259519E-09
       334  13  1.529311E+04  9.700283E+02  4.481576E+03  1.410511E+04  8.733837E-12  3.058016E-09
       334  14  1.404382E+04  4.169670E+03  8.164830E+03  1.291299E+04  1.655143E-10  2.228824E-09
       334  15  1.529244E+04  1.519801E+04  1.653420E+04  1.409152E+04  3.602323E-10  2.054920E-09
       334  16  5.772260E+04  1.091831E+04  1.179956E+04  1.375439E+04 -6.255160E-08  1.708324E-09
       334  17  6.867139E+04  1.721358E+04  1.870499E+04  1.768008E+04 -4.791299E-09  2.876253E-09
       334  18  8.264036E+04  3.185979E+04  3.238667E+04  2.397644E+04  5.444308E-08 -7.137725E-10
       334  19 -2.713459E+04 -8.978340E+03 -2.836421E+03  1.445579E+04  4.418004E+03 -2.626740E+03
       334  20 -4.058080E+04 -8.874322E+03 -2.375388E+03  8.146320E+03  5.600883E+03 -2.489304E+03
       334  21 -5.205105E+04 -1.463712E+03  6.815622E+02  4.207679E+03  6.782260E+03 -7.840820E+02
       334  22  1.529312E+04  9.700384E+02  4.481608E+03  1.410510E+04  3.174932E+03 -2.627929E+03
       334  23  1.404388E+04  4.169692E+03  8.164944E+03  1.291297E+04  7.368121E+03 -2.487551E+03
       334  24  1.529258E+04  1.519805E+04  1.653445E+04  1.409152E+04  1.155981E+04 -7.794293E+02
       334  25  5.772260E+04  1.091832E+04  1.179958E+04  1.375438E+04  1.931778E+03 -2.629117E+03
       334  26  6.867148E+04  1.721361E+04  1.870516E+04  1.768006E+04  9.135512E+03 -2.485770E+03
       334  27  8.264065E+04  3.185986E+04  3.238717E+04  2.397643E+04  1.633787E+04 -7.746248E+02
       335   1 -6.587956E+04 -3.057438E+05 -6.752105E+04  5.704076E+04 -1.372427E+03 -3.339692E+04
       335   2 -3.280218E+04 -2.715911E+05 -3.803048E+04  4.271655E+04 -4.230789E+03 -1.793184E+04
       335   3 -1.819281E+04 -2.440553E+05 -2.322756E+04  3.432362E+04 -4.042236E+03 -2.462806E+03
       335   4 -3.376234E+04 -1.761026E+05 -3.684240E+04  3.503161E+04 -1.378530E+03 -2.501365E+04
       335   5 -9.261548E+03 -1.732994E+05 -1.875372E+04  3.207932E+04 -4.232604E+03 -1.539558E+04
       335   6 -2.212036E+03 -1.760979E+05 -1.128967E+04  3.505909E+04 -4.039419E+03 -5.774494E+03
       335   7 -1.644472E+03 -4.644468E+04 -6.164398E+03  1.301783E+04 -1.385227E+03 -1.662864E+04
       335   8  1.427892E+04 -7.499820E+04  5.226452E+02  2.144036E+04 -4.234506E+03 -1.285892E+04
       335   9  1.376850E+04 -1.081359E+05  6.480949E+02  3.579464E+04 -4.036610E+03 -9.086533E+03
       335  10 -6.587986E+04 -3.057450E+05 -6.752315E+04  5.704073E+04 -2.185638E-10 -1.063378E-09
       335  11 -3.280228E+04 -2.715914E+05 -3.803111E+04  4.271648E+04 -6.777085E-10 -5.970388E-10
       335  12 -1.819283E+04 -2.440553E+05 -2.322760E+04  3.432362E+04  7.790913E-10  6.760337E-10
       335  13 -3.376251E+04 -1.761032E+05 -3.684358E+04  3.503158E+04  1.810043E-11  1.308628E-11
       335  14 -9.261631E+03 -1.732996E+05 -1.875420E+04  3.207926E+04 -4.748678E-10  1.338908E-09
       335  15 -2.212063E+03 -1.760979E+05 -1.128976E+04  3.505907E+04  7.595284E-10  8.382375E-10
       335  16 -1.644548E+03 -4.644498E+04 -6.164921E+03  1.301781E+04 -2.540091E-10  3.067656E-09
       335  17  1.427886E+04 -7.499838E+04  5.223008E+02  2.144032E+04  3.216011E-10  2.004897E-09
       335  18  1.376846E+04 -1.081360E+05  6.479091E+02  3.579461E+04  5.828335E-10 -6.292725E-10
       335  19 -6.587956E+04 -3.057438E+05 -6.752105E+04  5.704076E+04  1.372427E+03  3.339692E+04
       335  20 -3.280218E+04 -2.715911E+05 -3.803048E+04  4.271655E+04  4.230789E+03  1.793184E+04
       335  21 -1.819281E+04 -2.440553E+05 -2.322756E+04  3.432362E+04  4.042236E+03  2.462806E+03
       335  22 -3.376234E+04 -1.761026E+05 -3.684240E+04  3.503161E+04  1.378530E+03  2.501365E+04
       335  23 -9.261548E+03 -1.732994E+05 -1.875372E+04  3.207932E+04  4.232604E+03  1.539558E+04
       335  24 -2.212036E+03 -1.760979E+05 -1.128967E+04  3.505909E+04  4.039419E+03  5.774494E+03
       335  25 -1.644472E+03 -4.644468E+04 -6.164398E+03  1.301783E+04  1.385227E+03  1.662864E+04
       335  26  1.427892E+04 -7.499820E+04  5.226452E+02  2.144036E+04  4.234506E+03  1.285892E+04
       335  27  1.376850E+04 -1.081359E+05  6.480949E+02  3.579464E+04  4.036610E+03  9.086533E+03
       336   1 -1.335574E+04 -2.232331E+05 -1.776436E+04  3.625864E+04 -2.934900E+03 -1.033952E+03
       336   2 -4.869154E+03 -1.918603E+05 -1.038371E+04  3.207962E+04 -1.245080E+03  2.926656E+03
       336   3  1.404726E+03 -1.615416E+05 -6.131659E+03  3.403818E+04  5.254806E+02  6.887501E+03
       336   4 -2.046555E+03 -1.750812E+05 -9.392753E+03  3.510184E+04 -2.932231E+03 -4.206576E+03
       336   5 -8.554996E+02 -1.745670E+05 -7.612757E+03  3.203311E+04 -1.242302E+03 -4.008605E+02
       336   6 -1.850166E+03 -1.750809E+05 -8.853665E+03  3.510200E+04  5.283789E+02  3.404908E+03
       336   7  9.262519E+03 -1.269271E+05 -1.021184E+03  3.394495E+04 -2.929551E+03 -7.379439E+03
       336   8  3.158145E+03 -1.572734E+05 -4.841769E+03  3.198659E+04 -1.239524E+03 -3.728466E+03
       336   9 -5.105058E+03 -1.886199E+05 -1.157563E+04  3.616579E+04  5.312654E+02 -7.761032E+01
       336  10 -1.335575E+04 -2.232331E+05 -1.776438E+04  3.625864E+04  1.502616E-09 -5.925901E-08
       336  11 -4.869158E+03 -1.918603E+05 -1.038373E+04  3.207963E+04  2.381313E-09  5.780450E-10
       336  12  1.404713E+03 -1.615416E+05 -6.131749E+03  3.403818E+04  2.000564E-09  6.097140E-08
       336  13 -2.046569E+03 -1.750813E+05 -9.392802E+03  3.510183E+04  1.474388E-09  1.074935E-09
       336  14 -8.555013E+02 -1.745670E+05 -7.612760E+03  3.203311E+04  2.067531E-09 -1.181770E-11
       336  15 -1.850169E+03 -1.750809E+05 -8.853688E+03  3.510200E+04  1.495249E-09 -1.912550E-10
       336  16  9.262495E+03 -1.269272E+05 -1.021303E+03  3.394493E+04  1.242455E-09  6.088244E-08
       336  17  3.158140E+03 -1.572735E+05 -4.841798E+03  3.198659E+04  1.432952E-09  1.140525E-09
       336  18 -5.105058E+03 -1.886199E+05 -1.157564E+04  3.616579E+04  8.804815E-10 -6.321396E-08
       336  19 -1.335574E+04 -2.232331E+05 -1.776436E+04  3.625864E+04  2.934900E+03  1.033952E+03
       336  20 -4.869154E+03 -1.918603E+05 -1.038371E+04  3.207962E+04  1.245080E+03 -2.926656E+03
       336  21  1.404726E+03 -1.615416E+05 -6.131659E+03  3.403818E+04 -5.254806E+02 -6.887501E+03
       336  22 -2.046555E+03 -1.750812E+05 -9.392753E+03  3.510184E+04  2.932231E+03  4.206576E+03
       336  23 -8.554996E+02 -1.745670E+05 -7.612757E+03  3.203311E+04  1.242302E+03  4.008605E+02
       336  24 -1.850166E+03 -1.750809E+05 -8.853665E+03  3.510200E+04 -5.283789E+02 -3.404908E+03
       336  25  9.262519E+03 -1.269271E+05 -1.021184E+03  3.394495E+04  2.929551E+03  7.379439E+03
       336  26  3.158145E+03 -1.572734E+05 -4.841769E+03  3.198659E+04  1.239524E+03  3.728466E+03
       336  27 -5.105058E+03 -1.886199E+05 -1.157563E+04  3.616579E+04 -5.312654E+02  7.761032E+01
       337   1  5.901779E+03 -1.426636E+05 -4.236764E+03  3.573258E+04  1.694613E+03  8.455511E+03
       337   2  7.052131E+03 -1.096829E+05 -4.046546E+03  2.252360E+04  2.417368E+03  1.278511E+04
       337   3 -6.700059E+03 -8.097678E+04 -1.039782E+04  1.530621E+04  8.634517E+02  1.711281E+04
       337   4 -1.999824E+03 -1.759713E+05 -1.043797E+04  3.507214E+04  1.697586E+03  4.875171E+03
       337   5 -8.306988E+03 -1.734557E+05 -1.696116E+04  3.206401E+04  2.416918E+03  1.357444E+04
       337   6 -3.027666E+04 -1.759750E+05 -3.306138E+04  3.504777E+04  8.596123E+02  2.227149E+04
       337   7 -9.901481E+03 -2.092779E+05 -1.663918E+04  3.441174E+04  1.700567E+03  1.295017E+03
       337   8 -2.366602E+04 -2.372244E+05 -2.987594E+04  4.160342E+04  2.416492E+03  1.436369E+04
       337   9 -5.385244E+04 -2.709640E+05 -5.572527E+04  5.478631E+04  8.561008E+02  2.742939E+04
       337  10  5.901756E+03 -1.426637E+05 -4.236904E+03  3.573257E+04  8.159924E-10  1.604414E-09
       337  11  7.052081E+03 -1.096831E+05 -4.046864E+03  2.252358E+04 -1.084420E-10  2.190279E-09
       337  12 -6.700139E+03 -8.097709E+04 -1.039837E+04  1.530619E+04 -3.071150E-10  1.615616E-09
       337  13 -1.999833E+03 -1.759713E+05 -1.043802E+04  3.507213E+04  8.359954E-10 -5.227428E-10
       337  14 -8.307044E+03 -1.734559E+05 -1.696152E+04  3.206399E+04 -5.004076E-10  2.688215E-10
       337  15 -3.027679E+04 -1.759755E+05 -3.306231E+04  3.504776E+04 -2.449481E-10  6.498359E-10
       337  16 -9.901485E+03 -2.092779E+05 -1.663919E+04  3.441173E+04 -2.766339E-10 -2.707845E-10
       337  17 -2.366608E+04 -2.372247E+05 -2.987634E+04  4.160340E+04 -2.160801E-10 -1.164109E-09
       337  18 -5.385264E+04 -2.709649E+05 -5.572669E+04  5.478629E+04  1.076982E-10 -3.597905E-09
       337  19  5.901779E+03 -1.426636E+05 -4.236764E+03  3.573258E+04 -1.694613E+03 -8.455511E+03
       337  20  7.052131E+03 -1.096829E+05 -4.046546E+03  2.252360E+04 -2.417368E+03 -1.278511E+04
       337  21 -6.700059E+03 -8.097678E+04 -1.039782E+04  1.530621E+04 -8.634517E+02 -1.711281E+04
       337  22 -1.999824E+03 -1.759713E+05 -1.043797E+04  3.507214E+04 -1.697586E+03 -4.875171E+03
       337  23 -8.306988E+03 -1.734557E+05 -1.696116E+04  3.206401E+04 -2.416918E+03 -1.357444E+04
       337  24 -3.027666E+04 -1.759750E+05 -3.306138E+04  3.504777E+04 -8.596123E+02 -2.227149E+04
       337  25 -9.901481E+03 -2.092779E+05 -1.663918E+04  3.441174E+04 -1.700567E+03 -1.295017E+03
       337  26 -2.366602E+04 -2.372244E+05 -2.987594E+04  4.160342E+04 -2.416492E+03 -1.436369E+04
       337  27 -5.385244E+04 -2.709640E+05 -5.572527E+04  5.478631E+04 -8.561008E+02 -2.742939E+04
       338   1  1.228067E+04  1.447283E+04  4.576324E+03  1.100052E+04  4.386808E+03  3.855276E+03
       338   2  1.438000E+04  7.217344E+03  4.328451E+02  1.443895E+04  2.405693E+03  3.683912E+03
       338   3  2.000200E+04  3.605860E+03 -1.223094E+03  1.583962E+04  8.728474E+02  2.915968E+03
       338   4  4.333929E+04  2.458175E+04  1.227359E+04  2.091778E+04  6.576451E+03  5.500601E+03
       338   5  3.954809E+04  1.926046E+04  6.074972E+03  2.447292E+04  3.449730E+03  4.468412E+03
       338   6  3.952806E+04  1.783182E+04  3.358843E+03  2.599034E+04  7.713091E+02  2.839661E+03
       338   7  7.439917E+04  3.469081E+04  1.997087E+04  3.083546E+04  8.766255E+03  7.145967E+03
       338   8  6.471676E+04  3.130366E+04  1.171702E+04  3.450721E+04  4.493820E+03  5.252933E+03
       338   9  5.905424E+04  3.205778E+04  7.940643E+03  3.614127E+04  6.697681E+02  2.763352E+03
       338  10  1.228065E+04  1.447281E+04  4.576260E+03  1.100050E+04  2.574674E-09  2.369805E-09
       338  11  1.437999E+04  7.217328E+03  4.328087E+02  1.443894E+04 -6.442637E-09 -4.840062E-09
       338  12  2.000199E+04  3.605851E+03 -1.223111E+03  1.583962E+04 -2.024723E-08 -1.336122E-08
       338  13  4.333924E+04  2.458170E+04  1.227345E+04  2.091775E+04  4.080162E-10 -8.742520E-10
       338  14  3.954807E+04  1.926044E+04  6.074912E+03  2.447291E+04 -7.527169E-11  5.081683E-09
       338  15  3.952806E+04  1.783181E+04  3.358827E+03  2.599034E+04 -5.013010E-09 -3.327875E-09
       338  16  7.439907E+04  3.469073E+04  1.997063E+04  3.083541E+04 -1.338025E-09  1.831232E-10
       338  17  6.471673E+04  3.130363E+04  1.171693E+04  3.450719E+04  5.696914E-09  4.563298E-09
       338  18  5.905423E+04  3.205777E+04  7.940628E+03  3.614127E+04  9.806750E-09  4.482549E-09
       338  19  1.228067E+04  1.447283E+04  4.576324E+03  1.100052E+04 -4.386808E+03 -3.855276E+03
       338  20  1.438000E+04  7.217344E+03  4.328451E+02  1.443895E+04 -2.405693E+03 -3.683912E+03
       338  21  2.000200E+04  3.605860E+03 -1.223094E+03  1.583962E+04 -8.728474E+02 -2.915968E+03
       338  22  4.333929E+04  2.458175E+04  1.227359E+04  2.091778E+04 -6.576451E+03 -5.500601E+03
       338  23  3.954809E+04  1.926046E+04  6.074972E+03  2.447292E+04 -3.449730E+03 -4.468412E+03
       338  24  3.952806E+04  1.783182E+04  3.358843E+03  2.599034E+04 -7.713091E+02 -2.839661E+03
       338  25  7.439917E+04  3.469081E+04  1.997087E+04  3.083546E+04 -8.766255E+03 -7.145967E+03
       338  26  6.471676E+04  3.130366E+04  1.171702E+04  3.450721E+04 -4.493820E+03 -5.252933E+03
       338  27  5.905424E+04  3.205778E+04  7.940643E+03  3.614127E+04 -6.697681E+02 -2.763352E+03
       339   1  2.052123E+04  4.946052E+03 -1.626747E+03  1.651993E+04  5.283948E+02  2.580558E+03
       339   2  2.224313E+04  6.140024E+03 -2.088465E+03  1.777880E+04  9.945053E+01  2.149912E+03
       339   3  2.473974E+04  7.086225E+03 -2.068791E+03  1.879019E+04 -2.820570E+02  1.656131E+03
       339   4  3.928322E+04  1.765296E+04  2.572043E+03  2.583545E+04  4.561192E+02  2.526238E+03
       339   5  3.876729E+04  1.755931E+04  1.509173E+03  2.611277E+04 -9.406515E+01  2.004493E+03
       339   6  3.905240E+04  1.724417E+04  1.032990E+03  2.614260E+04 -5.968166E+02  1.419608E+03
       339   7  5.804565E+04  3.036008E+04  6.770820E+03  3.515129E+04  3.838406E+02  2.471917E+03
       339   8  5.529196E+04  2.897888E+04  5.106861E+03  3.444708E+04 -2.875898E+02  1.859066E+03
       339   9  5.336561E+04  2.740247E+04  4.134869E+03  3.349536E+04 -9.115923E+02  1.183072E+03
       339  10  2.052122E+04  4.946044E+03 -1.626760E+03  1.651993E+04 -1.548706E-09 -7.812092E-10
       339  11  2.224313E+04  6.140019E+03 -2.088473E+03  1.777880E+04  1.643762E-08  1.402147E-08
       339  12  2.473974E+04  7.086222E+03 -2.068797E+03  1.879019E+04  1.833770E-08  1.478127E-08
       339  13  3.928322E+04  1.765295E+04  2.572031E+03  2.583545E+04 -7.840670E-10 -2.273980E-09
       339  14  3.876729E+04  1.755930E+04  1.509166E+03  2.611277E+04  1.044943E-08  2.862608E-09
       339  15  3.905240E+04  1.724417E+04  1.032986E+03  2.614260E+04  5.221765E-09  2.951842E-09
       339  16  5.804565E+04  3.036007E+04  6.770808E+03  3.515129E+04 -1.165900E-12 -2.919806E-09
       339  17  5.529196E+04  2.897888E+04  5.106854E+03  3.444708E+04  4.862548E-09  5.226168E-11
       339  18  5.336561E+04  2.740247E+04  4.134864E+03  3.349537E+04 -8.482194E-09 -8.632216E-09
       339  19  2.052123E+04  4.946052E+03 -1.626747E+03  1.651993E+04 -5.283948E+02 -2.580558E+03
       339  20  2.224313E+04  6.140024E+03 -2.088465E+03  1.777880E+04 -9.945053E+01 -2.149912E+03
       339  21  2.473974E+04  7.086225E+03 -2.068791E+03  1.879019E+04  2.820570E+02 -1.656131E+03
       339  22  3.928322E+04  1.765296E+04  2.572043E+03  2.583545E+04 -4.561192E+02 -2.526238E+03
       339  23  3.876729E+04  1.755931E+04  1.509173E+03  2.611277E+04  9.406515E+01 -2.004493E+03
       339  24  3.905240E+04  1.724417E+04  1.032990E+03  2.614260E+04  5.968166E+02 -1.419608E+03
       339  25  5.804565E+04  3.036008E+04  6.770820E+03  3.515129E+04 -3.838406E+02 -2.471917E+03
       339  26  5.529196E+04  2.897888E+04  5.106861E+03  3.444708E+04  2.875898E+02 -1.859066E+03
       339  27  5.336561E+04  2.740247E+04  4.134869E+03  3.349536E+04  9.115923E+02 -1.183072E+03
       340   1  2.596828E+04  8.050685E+03 -1.874080E+03  1.945747E+04 -3.492456E+02  1.453311E+03
       340   2  2.769651E+04  9.738924E+03 -1.421795E+03  2.057392E+04 -5.835512E+02  1.018545E+03
       340   3  3.003902E+04  1.095330E+04 -6.611340E+02  2.153757E+04 -8.133268E+02  5.777572E+02
       340   4  3.903680E+04  1.723334E+04  9.299710E+02  2.613024E+04 -6.609351E+02  1.219096E+03
       340   5  3.873192E+04  1.747530E+04  9.345877E+02  2.620187E+04 -9.068177E+02  7.756354E+02
       340   6  3.904387E+04  1.724593E+04  1.257649E+03  2.612071E+04 -1.148172E+03  3.261509E+02
       340   7  5.210526E+04  2.641590E+04  3.733920E+03  3.280304E+04 -9.726269E+02  9.848792E+02
       340   8  4.976735E+04  2.521167E+04  3.290924E+03  3.182987E+04 -1.230089E+03  5.327228E+02
       340   9  4.804881E+04  2.353861E+04  3.176428E+03  3.070392E+04 -1.483023E+03  7.453992E+01
       340  10  2.596828E+04  8.050682E+03 -1.874085E+03  1.945747E+04  2.175092E-09  3.862240E-09
       340  11  2.769651E+04  9.738923E+03 -1.421798E+03  2.057392E+04  3.940872E-10 -1.286246E-09
       340  12  3.003902E+04  1.095330E+04 -6.611358E+02  2.153757E+04  1.034885E-09  1.835536E-09
       340  13  3.903680E+04  1.723334E+04  9.299674E+02  2.613024E+04  3.816289E-10  1.479246E-09
       340  14  3.873192E+04  1.747530E+04  9.345850E+02  2.620187E+04 -1.914696E-10 -6.508739E-09
       340  15  3.904387E+04  1.724593E+04  1.257647E+03  2.612071E+04  1.460200E-10  7.126927E-10
       340  16  5.210525E+04  2.641590E+04  3.733916E+03  3.280304E+04 -2.397432E-09 -2.528081E-09
       340  17  4.976735E+04  2.521167E+04  3.290920E+03  3.182987E+04 -8.784626E-10 -3.546987E-09
       340  18  4.804881E+04  2.353861E+04  3.176423E+03  3.070392E+04 -1.287664E-09 -5.164924E-10
       340  19  2.596828E+04  8.050685E+03 -1.874080E+03  1.945747E+04  3.492456E+02 -1.453311E+03
       340  20  2.769651E+04  9.738924E+03 -1.421795E+03  2.057392E+04  5.835512E+02 -1.018545E+03
       340  21  3.003902E+04  1.095330E+04 -6.611340E+02  2.153757E+04  8.133268E+02 -5.777572E+02
       340  22  3.903680E+04  1.723334E+04  9.299710E+02  2.613024E+04  6.609351E+02 -1.219096E+03
       340  23  3.873192E+04  1.747530E+04  9.345877E+02  2.620187E+04  9.068177E+02 -7.756354E+02
       340  24  3.904387E+04  1.724593E+04  1.257649E+03  2.612071E+04  1.148172E+03 -3.261509E+02
       340  25  5.210526E+04  2.641590E+04  3.733920E+03  3.280304E+04  9.726269E+02 -9.848792E+02
       340  26  4.976735E+04  2.521167E+04  3.290924E+03  3.182987E+04  1.230089E+03 -5.327228E+02
       340  27  4.804881E+04  2.353861E+04  3.176428E+03  3.070392E+04  1.483023E+03 -7.453992E+01
       341   1  3.128193E+04  1.198032E+04 -7.498426E+01  2.225615E+04 -9.318151E+02  3.291726E+02
       341   2  3.335439E+04  1.344086E+04  1.379029E+03  2.308821E+04 -1.840196E+03 -6.218663E+02
       341   3  3.644446E+04  1.493320E+04  3.853830E+03  2.359046E+04 -2.752780E+03 -1.567367E+03
       341   4  3.908067E+04  1.726563E+04  1.554197E+03  2.615016E+04 -1.266626E+03  7.759236E+01
       341   5  3.878285E+04  1.762244E+04  2.571001E+03  2.603591E+04 -2.164358E+03 -8.654459E+02
       341   6  3.950025E+04  1.800873E+04  4.599329E+03  2.559183E+04 -3.066269E+03 -1.802927E+03
       341   7  4.687965E+04  2.255109E+04  3.183431E+03  3.004432E+04 -1.601449E+03 -1.739969E+02
       341   8  4.421134E+04  2.180404E+04  3.762972E+03  2.898364E+04 -2.488523E+03 -1.109029E+03
       341   9  4.255599E+04  2.108421E+04  5.344803E+03  2.759318E+04 -3.379753E+03 -2.038484E+03
       341  10  3.128193E+04  1.198032E+04 -7.498610E+01  2.225615E+04  3.622658E-09  1.220566E-09
       341  11  3.335439E+04  1.344086E+04  1.379022E+03  2.308821E+04  7.418086E-10 -1.303736E-09
       341  12  3.644445E+04  1.493320E+04  3.853812E+03  2.359045E+04 -1.678574E-09 -1.947575E-09
       341  13  3.908067E+04  1.726563E+04  1.554194E+03  2.615017E+04  4.490976E-10  3.523749E-10
       341  14  3.878285E+04  1.762243E+04  2.570991E+03  2.603591E+04  4.319144E-10  8.734922E-10
       341  15  3.950024E+04  1.800873E+04  4.599306E+03  2.559183E+04 -4.384316E-10 -1.187825E-09
       341  16  4.687965E+04  2.255109E+04  3.183426E+03  3.004432E+04 -3.016725E-09  1.965458E-10
       341  17  4.421134E+04  2.180404E+04  3.762958E+03  2.898364E+04  2.138518E-10  1.965641E-10
       341  18  4.255598E+04  2.108420E+04  5.344774E+03  2.759317E+04  1.528109E-09 -2.867324E-10
       341  19  3.128193E+04  1.198032E+04 -7.498426E+01  2.225615E+04  9.318151E+02 -3.291726E+02
       341  20  3.335439E+04  1.344086E+04  1.379029E+03  2.308821E+04  1.840196E+03  6.218663E+02
       341  21  3.644446E+04  1.493320E+04  3.853830E+03  2.359046E+04  2.752780E+03  1.567367E+03
       341  22  3.908067E+04  1.726563E+04  1.554197E+03  2.615016E+04  1.266626E+03 -7.759236E+01
       341  23  3.878285E+04  1.762244E+04  2.571001E+03  2.603591E+04  2.164358E+03  8.654459E+02
       341  24  3.950025E+04  1.800873E+04  4.599329E+03  2.559183E+04  3.066269E+03  1.802927E+03
       341  25  4.687965E+04  2.255109E+04  3.183431E+03  3.004432E+04  1.601449E+03  1.739969E+02
       341  26  4.421134E+04  2.180404E+04  3.762972E+03  2.898364E+04  2.488523E+03  1.109029E+03
       341  27  4.255599E+04  2.108421E+04  5.344803E+03  2.759318E+04  3.379753E+03  2.038484E+03
       342   1  3.717043E+04  1.720182E+04  5.618481E+03  2.483483E+04 -3.307015E+03 -2.136717E+03
       342   2  4.608235E+04  1.441157E+04  1.111939E+04  2.111221E+04 -7.866785E+03 -5.774418E+03
       342   3  6.155985E+04  1.912106E+04  2.307737E+04  1.376408E+04 -1.247100E+04 -9.353033E+03
       342   4  3.996793E+04  1.831692E+04  6.066940E+03  2.587117E+04 -3.623407E+03 -2.374449E+03
       342   5  4.018254E+04  2.075178E+04  1.107649E+04  2.304566E+04 -8.069771E+03 -5.927068E+03
       342   6  4.693797E+04  3.066178E+04  2.244463E+04  1.659464E+04 -1.256053E+04 -9.420724E+03
       342   7  4.276544E+04  1.943203E+04  6.515401E+03  2.690751E+04 -3.939800E+03 -2.612182E+03
       342   8  3.428277E+04  2.709219E+04  1.103360E+04  2.497910E+04 -8.272756E+03 -6.079724E+03
       342   9  3.231633E+04  4.220326E+04  2.181197E+04  1.942510E+04 -1.265005E+04 -9.488420E+03
       342  10  3.717041E+04  1.720182E+04  5.618452E+03  2.483483E+04 -2.856689E-09 -2.819203E-09
       342  11  4.608227E+04  1.441152E+04  1.111921E+04  2.111218E+04 -7.957373E-10  8.149321E-10
       342  12  6.155965E+04  1.912093E+04  2.307691E+04  1.376399E+04  2.298972E-09  1.676534E-09
       342  13  3.996791E+04  1.831691E+04  6.066905E+03  2.587116E+04 -2.750943E-10 -9.310316E-10
       342  14  4.018246E+04  2.075172E+04  1.107630E+04  2.304562E+04 -1.457934E-09 -4.593659E-10
       342  15  4.693777E+04  3.066165E+04  2.244417E+04  1.659454E+04 -8.362422E-10  5.595184E-10
       342  16  4.276542E+04  1.943202E+04  6.515359E+03  2.690750E+04  1.039650E-09  2.313766E-09
       342  17  3.428269E+04  2.709213E+04  1.103341E+04  2.497905E+04 -1.810102E-09  1.869619E-09
       342  18  3.231613E+04  4.220312E+04  2.181150E+04  1.942500E+04 -3.309803E-09 -2.641889E-09
       342  19  3.717043E+04  1.720182E+04  5.618481E+03  2.483483E+04  3.307015E+03  2.136717E+03
       342  20  4.608235E+04  1.441157E+04  1.111939E+04  2.111221E+04  7.866785E+03  5.774418E+03
       342  21  6.155985E+04  1.912106E+04  2.307737E+04  1.376408E+04  1.247100E+04  9.353033E+03
       342  22  3.996793E+04  1.831692E+04  6.066940E+03  2.587117E+04  3.623407E+03  2.374449E+03
       342  23  4.018254E+04  2.075178E+04  1.107649E+04  2.304566E+04  8.069771E+03  5.927068E+03
       342  24  4.693797E+04  3.066178E+04  2.244463E+04  1.659464E+04  1.256053E+04  9.420724E+03
       342  25  4.276544E+04  1.943203E+04  6.515401E+03  2.690751E+04  3.939800E+03  2.612182E+03
       342  26  3.428277E+04  2.709219E+04  1.103360E+04  2.497910E+04  8.272756E+03  6.079724E+03
       342  27  3.231633E+04  4.220326E+04  2.181197E+04  1.942510E+04  1.265005E+04  9.488420E+03
       343   1 -3.206953E+04 -2.102651E+05 -3.271384E+04  2.541831E+04 -7.549434E+02 -1.600423E+04
       343   2 -1.699266E+04 -1.952854E+05 -1.902801E+04  1.892814E+04 -2.396092E+03 -8.550622E+03
       343   3 -1.044615E+04 -1.834031E+05 -1.232830E+04  1.500266E+04 -2.475321E+03 -1.095264E+03
       343   4 -1.547727E+04 -1.432311E+05 -1.690874E+04  1.530878E+04 -7.588353E+02 -1.136806E+04
       343   5 -4.244253E+03 -1.419419E+05 -8.691872E+03  1.403279E+04 -2.397465E+03 -6.912310E+03
       343   6 -1.020695E+03 -1.432296E+05 -5.378515E+03  1.532170E+04 -2.474112E+03 -2.455044E+03
       343   7  1.115056E+03 -7.619271E+04 -1.103806E+03  5.198156E+03 -7.628780E+02 -6.731389E+03
       343   8  8.504076E+03 -8.859563E+04  1.644156E+03  9.137019E+03 -2.398863E+03 -5.273860E+03
       343   9  8.404670E+03 -1.030545E+05  1.571224E+03  1.564075E+04 -2.472903E+03 -3.814909E+03
       343  10 -3.206960E+04 -2.102653E+05 -3.271432E+04  2.541830E+04  6.160551E-10  2.711255E-09
       343  11 -1.699269E+04 -1.952854E+05 -1.902816E+04  1.892812E+04  8.662788E-10  8.947345E-10
       343  12 -1.044615E+04 -1.834031E+05 -1.232832E+04  1.500266E+04 -1.757099E-10 -1.110823E-09
       343  13 -1.547731E+04 -1.432312E+05 -1.690898E+04  1.530877E+04  5.937488E-10  5.545631E-10
       343  14 -4.244272E+03 -1.419419E+05 -8.691973E+03  1.403278E+04  4.502772E-10  1.422705E-09
       343  15 -1.020704E+03 -1.432296E+05 -5.378537E+03  1.532169E+04 -4.977294E-10 -4.166672E-09
       343  16  1.115043E+03 -7.619275E+04 -1.103892E+03  5.198151E+03  7.751219E-11 -5.430899E-10
       343  17  8.504062E+03 -8.859567E+04  1.644093E+03  9.137009E+03  6.149788E-10 -4.125810E-10
       343  18  8.404659E+03 -1.030545E+05  1.571185E+03  1.564074E+04 -8.769699E-10 -1.827282E-09
       343  19 -3.206953E+04 -2.102651E+05 -3.271384E+04  2.541831E+04  7.549434E+02  1.600423E+04
       343  20 -1.699266E+04 -1.952854E+05 -1.902801E+04  1.892814E+04  2.396092E+03  8.550622E+03
       343  21 -1.044615E+04 -1.834031E+05 -1.232830E+04  1.500266E+04  2.475321E+03  1.095264E+03
       343  22 -1.547727E+04 -1.432311E+05 -1.690874E+04  1.530878E+04  7.588353E+02  1.136806E+04
       343  23 -4.244253E+03 -1.419419E+05 -8.691872E+03  1.403279E+04  2.397465E+03  6.912310E+03
       343  24 -1.020695E+03 -1.432296E+05 -5.378515E+03  1.532170E+04  2.474112E+03  2.455044E+03
       343  25  1.115056E+03 -7.619271E+04 -1.103806E+03  5.198156E+03  7.628780E+02  6.731389E+03
       343  26  8.504076E+03 -8.859563E+04  1.644156E+03  9.137019E+03  2.398863E+03  5.273860E+03
       343  27  8.404670E+03 -1.030545E+05  1.571224E+03  1.564075E+04  2.472903E+03  3.814909E+03
       344   1 -8.327916E+03 -1.743150E+05 -9.954121E+03  1.591110E+04 -2.012214E+03 -4.082307E+02
       344   2 -4.644023E+03 -1.606005E+05 -6.894588E+03  1.399370E+04 -1.301615E+03  1.751154E+03
       344   3 -2.134545E+03 -1.474545E+05 -5.533150E+03  1.474849E+04 -5.065380E+02  3.910649E+03
       344   4 -9.439083E+02 -1.427770E+05 -4.583635E+03  1.534422E+04 -2.011077E+03 -1.694892E+03
       344   5 -4.448530E+02 -1.425067E+05 -3.995460E+03  1.400805E+04 -1.300345E+03  3.023773E+02
       344   6 -1.092034E+03 -1.427769E+05 -4.992741E+03  1.534409E+04 -5.051317E+02  2.299713E+03
       344   7  6.440049E+03 -1.112381E+05  7.868246E+02  1.477732E+04 -2.009938E+03 -2.981617E+03
       344   8  3.754302E+03 -1.244126E+05 -1.096332E+03  1.402241E+04 -1.299075E+03 -1.146440E+03
       344   9 -4.952014E+01 -1.380992E+05 -4.452322E+03  1.593969E+04 -5.037285E+02  6.887663E+02
       344  10 -8.327921E+03 -1.743150E+05 -9.954129E+03  1.591110E+04 -7.375899E-10  4.544833E-09
       344  11 -4.644026E+03 -1.606005E+05 -6.894597E+03  1.399370E+04  1.926769E-10  1.639449E-09
       344  12 -2.134550E+03 -1.474545E+05 -5.533180E+03  1.474849E+04 -5.755451E-10 -5.835080E-10
       344  13 -9.439134E+02 -1.427770E+05 -4.583648E+03  1.534422E+04 -6.522353E-10 -2.154276E-09
       344  14 -4.448548E+02 -1.425067E+05 -3.995463E+03  1.400805E+04  4.290183E-10  8.671465E-10
       344  15 -1.092035E+03 -1.427769E+05 -4.992752E+03  1.534409E+04 -3.579850E-10 -4.139747E-09
       344  16  6.440042E+03 -1.112381E+05  7.868003E+02  1.477731E+04 -5.060349E-10 -2.975936E-09
       344  17  3.754300E+03 -1.244126E+05 -1.096337E+03  1.402241E+04 -1.979709E-11 -1.332925E-09
       344  18 -4.952054E+01 -1.380992E+05 -4.452323E+03  1.593969E+04 -4.982269E-11 -1.613354E-10
       344  19 -8.327916E+03 -1.743150E+05 -9.954121E+03  1.591110E+04  2.012214E+03  4.082307E+02
       344  20 -4.644023E+03 -1.606005E+05 -6.894588E+03  1.399370E+04  1.301615E+03 -1.751154E+03
       344  21 -2.134545E+03 -1.474545E+05 -5.533150E+03  1.474849E+04  5.065380E+02 -3.910649E+03
       344  22 -9.439083E+02 -1.427770E+05 -4.583635E+03  1.534422E+04  2.011077E+03  1.694892E+03
       344  23 -4.448530E+02 -1.425067E+05 -3.995460E+03  1.400805E+04  1.300345E+03 -3.023773E+02
       344  24 -1.092034E+03 -1.427769E+05 -4.992741E+03  1.534409E+04  5.051317E+02 -2.299713E+03
       344  25  6.440049E+03 -1.112381E+05  7.868246E+02  1.477732E+04  2.009938E+03  2.981617E+03
       344  26  3.754302E+03 -1.244126E+05 -1.096332E+03  1.402241E+04  1.299075E+03  1.146440E+03
       344  27 -4.952014E+01 -1.380992E+05 -4.452322E+03  1.593969E+04  5.037285E+02 -6.887663E+02
       345   1 -2.079929E+02 -1.394069E+05 -5.077091E+03  1.575356E+04  2.121090E+01  4.774895E+03
       345   2 -7.746575E+02 -1.246045E+05 -6.372379E+03  8.328738E+03  4.946781E+02  8.481525E+03
       345   3 -1.045692E+04 -1.125577E+05 -1.235860E+04  3.529092E+03  2.122512E+02  1.218750E+04
       345   4 -1.180424E+03 -1.433251E+05 -6.024912E+03  1.533519E+04  2.263577E+01  3.134084E+03
       345   5 -4.966633E+03 -1.418219E+05 -1.005222E+04  1.401511E+04  4.949227E+02  8.291557E+03
       345   6 -1.812062E+04 -1.433264E+05 -1.977824E+04  1.532023E+04  2.113789E+02  1.344827E+04
       345   7 -2.152854E+03 -1.472432E+05 -6.972723E+03  1.491682E+04  2.406285E+01  1.493283E+03
       345   8 -9.158507E+03 -1.590389E+05 -1.373206E+04  1.970132E+04  4.951639E+02  8.101595E+03
       345   9 -2.578387E+04 -1.740940E+05 -2.719786E+04  2.711077E+04  2.105543E+02  1.470898E+04
       345  10 -2.079990E+02 -1.394070E+05 -5.077134E+03  1.575356E+04  4.803968E-11  4.183133E-09
       345  11 -7.746771E+02 -1.246046E+05 -6.372514E+03  8.328735E+03  1.049367E-09  1.231697E-09
       345  12 -1.045696E+04 -1.125578E+05 -1.235888E+04  3.529090E+03  4.321327E-10 -1.447194E-09
       345  13 -1.180426E+03 -1.433251E+05 -6.024930E+03  1.533519E+04  7.325424E-11  1.046104E-11
       345  14 -4.966652E+03 -1.418219E+05 -1.005235E+04  1.401511E+04  1.018396E-09  2.472832E-09
       345  15 -1.812067E+04 -1.433266E+05 -1.977858E+04  1.532022E+04  3.848791E-10 -3.815824E-09
       345  16 -2.152854E+03 -1.472432E+05 -6.972727E+03  1.491682E+04  3.109872E-10 -1.800819E-09
       345  17 -9.158525E+03 -1.590390E+05 -1.373218E+04  1.970132E+04  1.019600E-09  1.001716E-09
       345  18 -2.578392E+04 -1.740943E+05 -2.719827E+04  2.711077E+04  6.140690E-10 -5.796420E-10
       345  19 -2.079929E+02 -1.394069E+05 -5.077091E+03  1.575356E+04 -2.121090E+01 -4.774895E+03
       345  20 -7.746575E+02 -1.246045E+05 -6.372379E+03  8.328738E+03 -4.946781E+02 -8.481525E+03
       345  21 -1.045692E+04 -1.125577E+05 -1.235860E+04  3.529092E+03 -2.122512E+02 -1.218750E+04
       345  22 -1.180424E+03 -1.433251E+05 -6.024912E+03  1.533519E+04 -2.263577E+01 -3.134084E+03
       345  23 -4.966633E+03 -1.418219E+05 -1.005222E+04  1.401511E+04 -4.949227E+02 -8.291557E+03
       345  24 -1.812062E+04 -1.433264E+05 -1.977824E+04  1.532023E+04 -2.113789E+02 -1.344827E+04
       345  25 -2.152854E+03 -1.472432E+05 -6.972723E+03  1.491682E+04 -2.406285E+01 -1.493283E+03
       345  26 -9.158507E+03 -1.590389E+05 -1.373206E+04  1.970132E+04 -4.951639E+02 -8.101595E+03
       345  27 -2.578387E+04 -1.740940E+05 -2.719786E+04  2.711077E+04 -2.105543E+02 -1.470898E+04
       346   1  1.449161E+05  6.586617E+04  6.189860E+04  4.381437E+04  1.823004E+04 -3.563509E+03
       346   2  1.027003E+05  5.660496E+04  4.373467E+04  4.148592E+04  6.949780E+03 -1.154443E+04
       346   3  6.191355E+04  4.713768E+04  3.286259E+04  4.695742E+04 -4.327270E+03 -1.295217E+04
       346   4 -1.408238E+05 -4.680524E+03 -5.088616E+03  4.690387E+04 -3.412322E+03 -3.557419E+03
       346   5 -1.404387E+05 -1.295813E+03 -2.622809E+03  4.300436E+04 -2.069282E+03 -1.154256E+04
       346   6 -1.408169E+05 -3.085378E+02 -1.630717E+03  4.690496E+04 -7.236551E+02 -1.295329E+04
       346   7 -4.264875E+05 -7.523274E+04 -7.207965E+04  4.999193E+04 -2.504478E+04 -3.551543E+03
       346   8 -3.835205E+05 -5.920001E+04 -4.898265E+04  4.452219E+04 -1.108489E+04 -1.154074E+04
       346   9 -3.435070E+05 -4.775693E+04 -3.612532E+04  4.685252E+04  2.878820E+03 -1.295441E+04
       346  10  1.449158E+05  6.586607E+04  6.189795E+04  4.381442E+04 -4.282172E-11  1.917104E-11
       346  11  1.027002E+05  5.660480E+04  4.373433E+04  4.148598E+04  3.092980E-10  6.558200E-11
       346  12  6.191348E+04  4.713749E+04  3.286224E+04  4.695737E+04  2.823460E-10 -4.939928E-11
       346  13 -1.408238E+05 -4.680541E+03 -5.088661E+03  4.690386E+04 -2.695713E-10  1.740054E-11
       346  14 -1.404387E+05 -1.295957E+03 -2.623067E+03  4.300434E+04 -1.188020E-10  2.660579E-11
       346  15 -1.408170E+05 -3.087181E+02 -1.631033E+03  4.690495E+04  5.808551E-11 -4.766910E-11
       346  16 -4.264881E+05 -7.523292E+04 -7.208085E+04  4.999186E+04  1.698083E-10 -1.169926E-11
       346  17 -3.835207E+05 -5.920018E+04 -4.898313E+04  4.452209E+04 -1.698774E-10 -2.095679E-11
       346  18 -3.435070E+05 -4.775711E+04 -3.612565E+04  4.685255E+04 -1.336582E-10 -6.583852E-11
       346  19  1.449161E+05  6.586617E+04  6.189860E+04  4.381437E+04 -1.823004E+04  3.563509E+03
       346  20  1.027003E+05  5.660496E+04  4.373467E+04  4.148592E+04 -6.949780E+03  1.154443E+04
       346  21  6.191355E+04  4.713768E+04  3.286259E+04  4.695742E+04  4.327270E+03  1.295217E+04
       346  22 -1.408238E+05 -4.680524E+03 -5.088616E+03  4.690387E+04  3.412322E+03  3.557419E+03
       346  23 -1.404387E+05 -1.295813E+03 -2.622809E+03  4.300436E+04  2.069282E+03  1.154256E+04
       346  24 -1.408169E+05 -3.085378E+02 -1.630717E+03  4.690496E+04  7.236551E+02  1.295329E+04
       346  25 -4.264875E+05 -7.523274E+04 -7.207965E+04  4.999193E+04  2.504478E+04  3.551543E+03
       346  26 -3.835205E+05 -5.920001E+04 -4.898265E+04  4.452219E+04  1.108489E+04  1.154074E+04
       346  27 -3.435070E+05 -4.775693E+04 -3.612532E+04  4.685252E+04 -2.878820E+03  1.295441E+04
       347   1  3.531494E+04  4.080416E+04  2.802895E+04  4.680885E+04 -3.772212E+03 -1.165851E+04
       347   2 -6.196780E+03  3.113669E+04  2.035575E+04  4.276397E+04 -4.433454E+03 -9.617644E+03
       347   3 -4.761118E+04  2.147944E+04  1.311736E+04  4.697180E+04 -5.094698E+03 -6.914141E+03
       347   4 -1.406733E+05 -2.805460E+02 -1.396555E+03  4.700542E+04 -4.898584E+02 -1.165942E+04
       347   5 -1.406088E+05 -6.441631E+01 -1.227003E+03  4.287902E+04  1.209841E+02 -9.618608E+03
       347   6 -1.406695E+05 -5.887046E+01 -1.506144E+03  4.700546E+04  7.317805E+02 -6.915076E+03
       347   7 -3.166309E+05 -4.136686E+04 -3.082298E+04  4.720192E+04  2.791596E+03 -1.166034E+04
       347   8 -2.750028E+05 -3.126642E+04 -2.281016E+04  4.299404E+04  4.674471E+03 -9.619570E+03
       347   9 -2.337192E+05 -2.159759E+04 -1.612974E+04  4.703911E+04  6.557418E+03 -6.916010E+03
       347  10  3.531489E+04  4.080401E+04  2.802867E+04  4.680881E+04  6.804005E-11 -9.776071E-11
       347  11 -6.196826E+03  3.113658E+04  2.035554E+04  4.276393E+04  1.649883E-10 -2.239011E-11
       347  12 -4.761122E+04  2.147938E+04  1.311723E+04  4.697177E+04  2.838689E-11  8.698750E-11
       347  13 -1.406733E+05 -2.806921E+02 -1.396811E+03  4.700541E+04 -1.435931E-10 -7.981568E-11
       347  14 -1.406088E+05 -6.451566E+01 -1.227176E+03  4.287902E+04 -1.563761E-10 -1.454692E-11
       347  15 -1.406696E+05 -5.892195E+01 -1.506235E+03  4.700546E+04 -7.886600E-11  1.604152E-11
       347  16 -3.166309E+05 -4.136701E+04 -3.082325E+04  4.720195E+04  4.104295E-11 -7.878051E-11
       347  17 -2.750028E+05 -3.126653E+04 -2.281038E+04  4.299408E+04 -1.745025E-10 -2.604260E-11
       347  18 -2.337193E+05 -2.159766E+04 -1.612991E+04  4.703914E+04  6.476635E-11  7.740893E-12
       347  19  3.531494E+04  4.080416E+04  2.802895E+04  4.680885E+04  3.772212E+03  1.165851E+04
       347  20 -6.196780E+03  3.113669E+04  2.035575E+04  4.276397E+04  4.433454E+03  9.617644E+03
       347  21 -4.761118E+04  2.147944E+04  1.311736E+04  4.697180E+04  5.094698E+03  6.914141E+03
       347  22 -1.406733E+05 -2.805460E+02 -1.396555E+03  4.700542E+04  4.898584E+02  1.165942E+04
       347  23 -1.406088E+05 -6.441631E+01 -1.227003E+03  4.287902E+04 -1.209841E+02  9.618608E+03
       347  24 -1.406695E+05 -5.887046E+01 -1.506144E+03  4.700546E+04 -7.317805E+02  6.915076E+03
       347  25 -3.166309E+05 -4.136686E+04 -3.082298E+04  4.720192E+04 -2.791596E+03  1.166034E+04
       347  26 -2.750028E+05 -3.126642E+04 -2.281016E+04  4.299404E+04 -4.674471E+03  9.619570E+03
       347  27 -2.337192E+05 -2.159759E+04 -1.612974E+04  4.703911E+04 -6.557418E+03  6.916010E+03
       348   1 -7.409106E+04  1.532866E+04  8.456901E+03  4.685965E+04 -4.789716E+03 -5.112060E+03
       348   2 -1.153200E+05  5.453265E+03  6.230481E+02  4.311468E+04 -2.852330E+03 -2.211978E+03
       348   3 -1.570142E+05 -5.302379E+03 -8.690946E+03  4.764881E+04 -9.152095E+02  4.379514E+02
       348   4 -1.407263E+05 -5.402626E+01 -1.813097E+03  4.701133E+04  1.018524E+03 -5.112904E+03
       348   5 -1.405339E+05 -2.979630E+02 -2.915900E+03  4.287165E+04  2.475405E+03 -2.212707E+03
       348   6 -1.407257E+05 -1.338816E+03 -5.165350E+03  4.701113E+04  3.932148E+03  4.373317E+02
       348   7 -2.073570E+05 -1.543691E+04 -1.208307E+04  4.716299E+04  6.826164E+03 -5.113745E+03
       348   8 -1.657472E+05 -6.049204E+03 -6.454750E+03  4.262864E+04  7.802932E+03 -2.213440E+03
       348   9 -1.244370E+05  2.624743E+03 -1.639680E+03  4.637343E+04  8.779631E+03  4.367021E+02
       348  10 -7.409110E+04  1.532863E+04  8.456809E+03  4.685963E+04  1.409246E-11  1.814084E-10
       348  11 -1.153200E+05  5.453257E+03  6.230236E+02  4.311468E+04  1.844353E-10  1.336628E-10
       348  12 -1.570142E+05 -5.302379E+03 -8.690948E+03  4.764881E+04  7.272132E-11  9.368128E-11
       348  13 -1.407263E+05 -5.405461E+01 -1.813148E+03  4.701133E+04 -4.259913E-11  1.003871E-10
       348  14 -1.405339E+05 -2.979699E+02 -2.915921E+03  4.287166E+04 -8.802434E-11  1.263506E-10
       348  15 -1.407257E+05 -1.338821E+03 -5.165379E+03  4.701113E+04 -1.225701E-12  4.243158E-11
       348  16 -2.073570E+05 -1.543695E+04 -1.208320E+04  4.716302E+04  4.880954E-11  4.676329E-11
       348  17 -1.657472E+05 -6.049225E+03 -6.454874E+03  4.262865E+04 -1.610327E-11  4.375006E-11
       348  18 -1.244371E+05  2.624722E+03 -1.639825E+03  4.637342E+04 -4.606074E-11 -5.722788E-11
       348  19 -7.409106E+04  1.532866E+04  8.456901E+03  4.685965E+04  4.789716E+03  5.112060E+03
       348  20 -1.153200E+05  5.453265E+03  6.230481E+02  4.311468E+04  2.852330E+03  2.211978E+03
       348  21 -1.570142E+05 -5.302379E+03 -8.690946E+03  4.764881E+04  9.152095E+02 -4.379514E+02
       348  22 -1.407263E+05 -5.402626E+01 -1.813097E+03  4.701133E+04 -1.018524E+03  5.112904E+03
       348  23 -1.405339E+05 -2.979630E+02 -2.915900E+03  4.287165E+04 -2.475405E+03  2.212707E+03
       348  24 -1.407257E+05 -1.338816E+03 -5.165350E+03  4.701113E+04 -3.932148E+03 -4.373317E+02
       348  25 -2.073570E+05 -1.543691E+04 -1.208307E+04  4.716299E+04 -6.826164E+03  5.113745E+03
       348  26 -1.657472E+05 -6.049204E+03 -6.454750E+03  4.262864E+04 -7.802932E+03  2.213440E+03
       348  27 -1.244370E+05  2.624743E+03 -1.639680E+03  4.637343E+04 -8.779631E+03 -4.367021E+02
       349   1 -1.843157E+05 -1.164580E+04 -1.495000E+04  4.639025E+04 -1.765579E+02  2.048292E+03
       349   2 -2.233874E+05 -2.648569E+04 -2.944367E+04  5.011346E+04  1.204619E+04  3.122357E+03
       349   3 -2.672699E+05 -5.422427E+04 -5.512042E+04  6.190712E+04  2.426749E+04  1.144900E+03
       349   4 -1.414836E+05 -1.448056E+03 -6.800308E+03  4.696532E+04  4.817445E+03  2.047627E+03
       349   5 -1.395886E+05 -6.309797E+03 -1.239376E+04  4.292805E+04  1.118300E+04  3.122312E+03
       349   6 -1.414874E+05 -2.305199E+04 -2.510104E+04  4.696161E+04  1.754790E+04  1.145358E+03
       349   7 -9.864971E+04  8.749593E+03  1.349400E+03  4.754043E+04  9.811784E+03  2.046972E+03
       349   8 -5.578309E+04  1.386586E+04  4.655818E+03  3.574166E+04  1.031971E+04  3.122286E+03
       349   9 -1.568989E+04  8.120007E+03  4.917511E+03  3.201305E+04  1.082695E+04  1.146140E+03
       349  10 -1.843157E+05 -1.164580E+04 -1.495001E+04  4.639025E+04 -1.209418E-10  8.589669E-11
       349  11 -2.233876E+05 -2.648574E+04 -2.944396E+04  5.011343E+04 -5.511488E-11 -5.755848E-11
       349  12 -2.672705E+05 -5.422443E+04 -5.512153E+04  6.190710E+04 -4.260635E-11  2.402714E-11
       349  13 -1.414837E+05 -1.448067E+03 -6.800359E+03  4.696531E+04 -1.173400E-10 -4.907253E-11
       349  14 -1.395888E+05 -6.309841E+03 -1.239401E+04  4.292803E+04 -8.617595E-11  7.699482E-11
       349  15 -1.414878E+05 -2.305207E+04 -2.510162E+04  4.696159E+04 -8.568975E-11  2.536579E-11
       349  16 -9.864981E+04  8.749562E+03  1.349212E+03  4.754041E+04  2.199523E-10 -7.711729E-11
       349  17 -5.578321E+04  1.386582E+04  4.655600E+03  3.574164E+04 -8.871445E-11 -7.121707E-12
       349  18 -1.569001E+04  8.119974E+03  4.917288E+03  3.201304E+04  1.547173E-11  5.349370E-12
       349  19 -1.843157E+05 -1.164580E+04 -1.495000E+04  4.639025E+04  1.765579E+02 -2.048292E+03
       349  20 -2.233874E+05 -2.648569E+04 -2.944367E+04  5.011346E+04 -1.204619E+04 -3.122357E+03
       349  21 -2.672699E+05 -5.422427E+04 -5.512042E+04  6.190712E+04 -2.426749E+04 -1.144900E+03
       349  22 -1.414836E+05 -1.448056E+03 -6.800308E+03  4.696532E+04 -4.817445E+03 -2.047627E+03
       349  23 -1.395886E+05 -6.309797E+03 -1.239376E+04  4.292805E+04 -1.118300E+04 -3.122312E+03
       349  24 -1.414874E+05 -2.305199E+04 -2.510104E+04  4.696161E+04 -1.754790E+04 -1.145358E+03
       349  25 -9.864971E+04  8.749593E+03  1.349400E+03  4.754043E+04 -9.811784E+03 -2.046972E+03
       349  26 -5.578309E+04  1.386586E+04  4.655818E+03  3.574166E+04 -1.031971E+04 -3.122286E+03
       349  27 -1.568989E+04  8.120007E+03  4.917511E+03  3.201305E+04 -1.082695E+04 -1.146140E+03
       350   1 -1.085826E+05 -5.877839E+05 -1.078196E+05  1.206262E+05 -3.303083E+03 -4.147370E+04
       350   2 -6.359779E+04 -4.933651E+05 -6.095672E+04  1.024144E+05 -9.572525E+03 -1.919640E+04
       350   3 -3.558358E+04 -4.060975E+05 -3.285168E+04  1.017942E+05 -8.116525E+03  3.082008E+03
       350   4 -2.796610E+04 -2.621058E+05 -3.046349E+04  1.026549E+05 -3.291005E+03 -2.201390E+04
       350   5 -7.584781E+03 -2.598060E+05 -1.449466E+04  9.385140E+04 -9.569263E+03 -1.455555E+04
       350   6 -1.595829E+03 -2.620884E+05 -6.983214E+03  1.026407E+05 -8.122741E+03 -7.099803E+03
       350   7  5.264417E+04  6.367123E+04  4.688678E+04  8.467398E+04 -3.280060E+03 -2.543925E+03
       350   8  4.842518E+04 -2.619454E+04  3.196480E+04  8.528511E+04 -9.566131E+03 -9.912986E+03
       350   9  3.239083E+04 -1.180588E+05  1.888484E+04  1.034875E+05 -8.128984E+03 -1.728391E+04
       350  10 -1.085831E+05 -5.877857E+05 -1.078228E+05  1.206261E+05 -2.576232E-11  4.738080E-11
       350  11 -6.359799E+04 -4.933656E+05 -6.095758E+04  1.024142E+05  1.476285E-10 -7.897160E-11
       350  12 -3.558366E+04 -4.060976E+05 -3.285182E+04  1.017942E+05 -3.331647E-10 -1.598241E-10
       350  13 -2.796624E+04 -2.621063E+05 -3.046442E+04  1.026548E+05 -1.967173E-10  3.987303E-11
       350  14 -7.584936E+03 -2.598063E+05 -1.449523E+04  9.385129E+04  5.993222E-10 -1.112823E-10
       350  15 -1.595914E+03 -2.620885E+05 -6.983432E+03  1.026407E+05 -1.872537E-10 -1.522165E-11
       350  16  5.264415E+04  6.367122E+04  4.688675E+04  8.467398E+04  7.727301E-11 -7.580355E-11
       350  17  4.842506E+04 -2.619467E+04  3.196445E+04  8.528503E+04  9.446103E-11  1.010849E-10
       350  18  3.239068E+04 -1.180592E+05  1.888415E+04  1.034873E+05 -6.406184E-12  2.333620E-10
       350  19 -1.085826E+05 -5.877839E+05 -1.078196E+05  1.206262E+05  3.303083E+03  4.147370E+04
       350  20 -6.359779E+04 -4.933651E+05 -6.095672E+04  1.024144E+05  9.572525E+03  1.919640E+04
       350  21 -3.558358E+04 -4.060975E+05 -3.285168E+04  1.017942E+05  8.116525E+03 -3.082008E+03
       350  22 -2.796610E+04 -2.621058E+05 -3.046349E+04  1.026549E+05  3.291005E+03  2.201390E+04
       350  23 -7.584781E+03 -2.598060E+05 -1.449466E+04  9.385140E+04  9.569263E+03  1.455555E+04
       350  24 -1.595829E+03 -2.620884E+05 -6.983214E+03  1.026407E+05  8.122741E+03  7.099803E+03
       350  25  5.264417E+04  6.367123E+04  4.688678E+04  8.467398E+04  3.280060E+03  2.543925E+03
       350  26  4.842518E+04 -2.619454E+04  3.196480E+04  8.528511E+04  9.566131E+03  9.912986E+03
       350  27  3.239083E+04 -1.180588E+05  1.888484E+04  1.034875E+05  8.128984E+03  1.728391E+04
       351   1 -2.173117E+04 -3.468658E+05 -2.002248E+04  1.032953E+05 -4.752555E+03  3.549494E+03
       351   2  1.233782E+03 -2.560396E+05  4.896909E+02  9.425300E+04  3.623562E+02  3.658508E+03
       351   3  2.413426E+04 -1.652555E+05  2.090829E+04  1.032816E+05  5.453667E+03  3.767565E+03
       351   4 -1.466971E+03 -2.610806E+05 -4.512289E+03  1.027484E+05 -4.758778E+03 -6.290198E+03
       351   5  6.961672E+01 -2.610516E+05 -3.137063E+02  9.371201E+04  3.561845E+02 -6.136243E+03
       351   6  1.534444E+03 -2.610801E+05  3.760463E+03  1.027466E+05  5.447534E+03 -5.982259E+03
       351   7  1.879687E+04 -1.752881E+05  1.099797E+04  1.022013E+05 -4.764983E+03 -1.613121E+04
       351   8 -1.094497E+03 -2.660634E+05 -1.116743E+03  9.317101E+04  3.500299E+02 -1.593092E+04
       351   9 -2.106583E+04 -3.568956E+05 -1.338736E+04  1.022116E+05  5.441417E+03 -1.573062E+04
       351  10 -2.173120E+04 -3.468658E+05 -2.002254E+04  1.032953E+05 -6.430730E-11  4.175526E-10
       351  11  1.233778E+03 -2.560396E+05  4.896655E+02  9.425300E+04  1.370078E-11  2.471960E-10
       351  12  2.413422E+04 -1.652556E+05  2.090821E+04  1.032816E+05  2.487889E-10  7.481693E-11
       351  13 -1.467006E+03 -2.610807E+05 -4.512406E+03  1.027483E+05 -9.032035E-11 -1.258383E-11
       351  14  6.960647E+01 -2.610516E+05 -3.137773E+02  9.371201E+04 -3.075866E-10  7.078529E-11
       351  15  1.534402E+03 -2.610802E+05  3.760340E+03  1.027466E+05 -3.322541E-10  5.100008E-11
       351  16  1.879678E+04 -1.752884E+05  1.099744E+04  1.022012E+05 -1.352654E-10 -4.207288E-10
       351  17 -1.094565E+03 -2.660636E+05 -1.117221E+03  9.317102E+04  1.774857E-10 -2.872126E-10
       351  18 -2.106592E+04 -3.568959E+05 -1.338788E+04  1.022117E+05  2.244511E-10 -9.075250E-11
       351  19 -2.173117E+04 -3.468658E+05 -2.002248E+04  1.032953E+05  4.752555E+03 -3.549494E+03
       351  20  1.233782E+03 -2.560396E+05  4.896909E+02  9.425300E+04 -3.623562E+02 -3.658508E+03
       351  21  2.413426E+04 -1.652555E+05  2.090829E+04  1.032816E+05 -5.453667E+03 -3.767565E+03
       351  22 -1.466971E+03 -2.610806E+05 -4.512289E+03  1.027484E+05  4.758778E+03  6.290198E+03
       351  23  6.961672E+01 -2.610516E+05 -3.137063E+02  9.371201E+04 -3.561845E+02  6.136243E+03
       351  24  1.534444E+03 -2.610801E+05  3.760463E+03  1.027466E+05 -5.447534E+03  5.982259E+03
       351  25  1.879687E+04 -1.752881E+05  1.099797E+04  1.022013E+05  4.764983E+03  1.613121E+04
       351  26 -1.094497E+03 -2.660634E+05 -1.116743E+03  9.317101E+04 -3.500299E+02  1.593092E+04
       351  27 -2.106583E+04 -3.568956E+05 -1.338736E+04  1.022116E+05 -5.441417E+03  1.573062E+04
       352   1  3.796893E+04 -1.060778E+05  3.361826E+04  1.019789E+05  8.798553E+03  3.431345E+03
       352   2  6.543538E+04 -1.861920E+04  6.131801E+04  1.017755E+05  1.007553E+04 -1.852005E+04
       352   3  1.086172E+05  7.562039E+04  1.072355E+05  1.191424E+05  3.406624E+03 -4.047181E+04
       352   4  1.642525E+03 -2.601528E+05  6.087549E+03  1.026364E+05  8.792439E+03 -6.672086E+03
       352   5  7.036356E+03 -2.622226E+05  1.301461E+04  9.384523E+04  1.007907E+04 -1.336609E+04
       352   6  2.550054E+04 -2.601642E+05  2.756514E+04  1.026237E+05  3.418976E+03 -2.005726E+04
       352   7 -3.468514E+04 -4.142045E+05 -2.144368E+04  1.032938E+05  8.786303E+03 -1.677308E+04
       352   8 -5.136604E+04 -5.057690E+05 -3.529160E+04  8.591818E+04  1.008247E+04 -8.214117E+03
       352   9 -5.762302E+04 -5.958437E+05 -5.211138E+04  8.611393E+04  3.430245E+03  3.463182E+02
       352  10  3.796885E+04 -1.060778E+05  3.361809E+04  1.019789E+05  1.698670E-11 -2.802029E-10
       352  11  6.543518E+04 -1.861960E+04  6.131718E+04  1.017756E+05 -4.744120E-11 -1.423009E-10
       352  12  1.086168E+05  7.561863E+04  1.072324E+05  1.191425E+05  9.481637E-11 -5.522848E-12
       352  13  1.642430E+03 -2.601529E+05  6.087320E+03  1.026365E+05  4.439000E-10 -6.921304E-11
       352  14  7.036199E+03 -2.622228E+05  1.301408E+04  9.384534E+04 -2.537732E-10  5.444586E-11
       352  15  2.550042E+04 -2.601646E+05  2.756436E+04  1.026237E+05  8.635926E-11 -2.909252E-11
       352  16 -3.468530E+04 -4.142048E+05 -2.144436E+04  1.032939E+05 -4.657231E-11  2.713967E-10
       352  17 -5.136617E+04 -5.057691E+05 -3.529192E+04  8.591824E+04 -2.002903E-10  2.367408E-10
       352  18 -5.762303E+04 -5.958437E+05 -5.211140E+04  8.611393E+04  8.246329E-11 -5.892542E-11
       352  19  3.796893E+04 -1.060778E+05  3.361826E+04  1.019789E+05 -8.798553E+03 -3.431345E+03
       352  20  6.543538E+04 -1.861920E+04  6.131801E+04  1.017755E+05 -1.007553E+04  1.852005E+04
       352  21  1.086172E+05  7.562039E+04  1.072355E+05  1.191424E+05 -3.406624E+03  4.047181E+04
       352  22  1.642525E+03 -2.601528E+05  6.087549E+03  1.026364E+05 -8.792439E+03  6.672086E+03
       352  23  7.036356E+03 -2.622226E+05  1.301461E+04  9.384523E+04 -1.007907E+04  1.336609E+04
       352  24  2.550054E+04 -2.601642E+05  2.756514E+04  1.026237E+05 -3.418976E+03  2.005726E+04
       352  25 -3.468514E+04 -4.142045E+05 -2.144368E+04  1.032938E+05 -8.786303E+03  1.677308E+04
       352  26 -5.136604E+04 -5.057690E+05 -3.529160E+04  8.591818E+04 -1.008247E+04  8.214117E+03
       352  27 -5.762302E+04 -5.958437E+05 -5.211138E+04  8.611393E+04 -3.430245E+03 -3.463182E+02
       353   1  1.445615E+05  1.700462E+05  7.799101E+04  8.796377E+04  3.565988E+04  2.415821E+04
       353   2  1.377306E+05  1.303914E+05  4.726000E+04  9.316044E+04  2.464916E+04  9.758781E+03
       353   3  1.419964E+05  1.090319E+05  3.330913E+04  9.211611E+04  1.164332E+04 -1.976902E+03
       353   4  6.138433E+04  6.849922E+04  4.351885E+04  2.710598E+04  2.554244E+04  1.657328E+04
       353   5  4.965562E+04  4.791708E+04  2.152470E+04  3.921387E+04  1.964674E+04  6.008708E+03
       353   6  4.791567E+04  4.452163E+04  1.187381E+04  4.508022E+04  1.175560E+04 -1.892931E+03
       353   7 -2.178260E+04 -3.303110E+04  9.046936E+03 -3.373873E+04  1.542698E+04  8.991148E+03
       353   8 -3.840928E+04 -3.454714E+04 -4.210804E+03 -1.472207E+04  1.464530E+04  2.259686E+03
       353   9 -4.615464E+04 -1.998344E+04 -9.561985E+03 -1.947456E+03  1.186786E+04 -1.808976E+03
       353  10  1.445600E+05  1.700453E+05  7.798753E+04  8.796308E+04  2.392630E-10  7.904178E-11
       353  11  1.377299E+05  1.303911E+05  4.725868E+04  9.316025E+04  1.737231E-10  2.627788E-11
       353  12  1.419963E+05  1.090318E+05  3.330887E+04  9.211613E+04  4.713935E-11 -1.857895E-11
       353  13  6.138355E+04  6.849875E+04  4.351711E+04  2.710564E+04 -1.148166E-10 -3.858120E-11
       353  14  4.965519E+04  4.791694E+04  2.152391E+04  3.921378E+04  1.386492E-10 -2.492508E-11
       353  15  4.791552E+04  4.452159E+04  1.187355E+04  4.508024E+04  7.799543E-11 -2.133069E-12
       353  16 -2.178288E+04 -3.303125E+04  9.046337E+03 -3.373884E+04  4.743124E-11 -8.968917E-11
       353  17 -3.840951E+04 -3.454721E+04 -4.211217E+03 -1.472210E+04 -1.021434E-11 -1.279565E-10
       353  18 -4.615479E+04 -1.998348E+04 -9.562255E+03 -1.947439E+03  3.889954E-11 -1.718289E-11
       353  19  1.445615E+05  1.700462E+05  7.799101E+04  8.796377E+04 -3.565988E+04 -2.415821E+04
       353  20  1.377306E+05  1.303914E+05  4.726000E+04  9.316044E+04 -2.464916E+04 -9.758781E+03
       353  21  1.419964E+05  1.090319E+05  3.330913E+04  9.211611E+04 -1.164332E+04  1.976902E+03
       353  22  6.138433E+04  6.849922E+04  4.351885E+04  2.710598E+04 -2.554244E+04 -1.657328E+04
       353  23  4.965562E+04  4.791708E+04  2.152470E+04  3.921387E+04 -1.964674E+04 -6.008708E+03
       353  24  4.791567E+04  4.452163E+04  1.187381E+04  4.508022E+04 -1.175560E+04  1.892931E+03
       353  25 -2.178260E+04 -3.303110E+04  9.046936E+03 -3.373873E+04 -1.542698E+04 -8.991148E+03
       353  26 -3.840928E+04 -3.454714E+04 -4.210804E+03 -1.472207E+04 -1.464530E+04 -2.259686E+03
       353  27 -4.615464E+04 -1.998344E+04 -9.561985E+03 -1.947456E+03 -1.186786E+04  1.808976E+03
       354   1  1.343492E+05  1.072052E+05  2.908454E+04  8.986077E+04  1.044427E+04 -2.695560E+03
       354   2  1.278666E+05  9.928282E+04  2.302455E+04  8.655387E+04  7.700551E+03 -4.545714E+03
       354   3  1.205770E+05  9.445201E+04  1.948684E+04  8.346199E+04  4.745045E+03 -6.113388E+03
       354   4  4.695912E+04  4.397703E+04  9.070594E+03  4.455663E+04  1.042621E+04 -2.709307E+03
       354   5  4.701403E+04  4.176552E+04  5.261652E+03  4.499213E+04  8.225379E+03 -4.152496E+03
       354   6  4.614469E+04  4.252787E+04  3.504213E+03  4.564262E+04  5.812764E+03 -5.313177E+03
       354   7 -4.042380E+04 -1.924742E+04 -1.094440E+04 -7.408957E+02  1.040814E+04 -2.723053E+03
       354   8 -3.383077E+04 -1.574757E+04 -1.250156E+04  3.436758E+03  8.750116E+03 -3.759347E+03
       354   9 -2.827952E+04 -9.391762E+03 -1.247813E+04  7.829294E+03  6.880290E+03 -4.513109E+03
       354  10  1.343491E+05  1.072052E+05  2.908432E+04  8.986079E+04  1.368225E-10  1.130259E-10
       354  11  1.278665E+05  9.928278E+04  2.302440E+04  8.655389E+04  2.536854E-10  1.684175E-11
       354  12  1.205770E+05  9.445196E+04  1.948673E+04  8.346201E+04 -3.493123E-10 -6.500479E-11
       354  13  4.695900E+04  4.397700E+04  9.070376E+03  4.455665E+04  1.893404E-11 -1.248439E-11
       354  14  4.701395E+04  4.176549E+04  5.261492E+03  4.499216E+04 -4.772001E-11 -3.003231E-11
       354  15  4.614465E+04  4.252783E+04  3.504096E+03  4.564265E+04  2.757431E-10  1.227023E-10
       354  16 -4.042392E+04 -1.924746E+04 -1.094462E+04 -7.408729E+02 -4.260888E-10 -1.666415E-10
       354  17 -3.383086E+04 -1.574761E+04 -1.250173E+04  3.436785E+03 -3.190494E-11 -2.639367E-12
       354  18 -2.827957E+04 -9.391797E+03 -1.247826E+04  7.829319E+03  3.796893E-10  2.907428E-10
       354  19  1.343492E+05  1.072052E+05  2.908454E+04  8.986077E+04 -1.044427E+04  2.695560E+03
       354  20  1.278666E+05  9.928282E+04  2.302455E+04  8.655387E+04 -7.700551E+03  4.545714E+03
       354  21  1.205770E+05  9.445201E+04  1.948684E+04  8.346199E+04 -4.745045E+03  6.113388E+03
       354  22  4.695912E+04  4.397703E+04  9.070594E+03  4.455663E+04 -1.042621E+04  2.709307E+03
       354  23  4.701403E+04  4.176552E+04  5.261652E+03  4.499213E+04 -8.225379E+03  4.152496E+03
       354  24  4.614469E+04  4.252787E+04  3.504213E+03  4.564262E+04 -5.812764E+03  5.313177E+03
       354  25 -4.042380E+04 -1.924742E+04 -1.094440E+04 -7.408957E+02 -1.040814E+04  2.723053E+03
       354  26 -3.383077E+04 -1.574757E+04 -1.250156E+04  3.436758E+03 -8.750116E+03  3.759347E+03
       354  27 -2.827952E+04 -9.391762E+03 -1.247813E+04  7.829294E+03 -6.880290E+03  4.513109E+03
       355   1  1.157965E+05  9.144694E+04  1.803078E+04  8.118146E+04  4.049665E+03 -6.116175E+03
       355   2  1.095237E+05  8.546929E+04  1.633041E+04  7.729358E+04  2.391606E+03 -6.475462E+03
       355   3  1.016226E+05  8.160858E+04  1.569152E+04  7.396845E+04  7.078767E+02 -6.800552E+03
       355   4  4.607740E+04  4.249802E+04  3.087713E+03  4.559787E+04  5.103235E+03 -5.326542E+03
       355   5  4.690712E+04  4.146112E+04  2.947103E+03  4.530598E+04  3.511021E+03 -5.636419E+03
       355   6  4.609408E+04  4.252699E+04  3.810915E+03  4.557684E+04  1.893103E+03 -5.912115E+03
       355   7 -2.363601E+04 -6.447890E+03 -1.185558E+04  1.001893E+04  6.156647E+03 -4.537026E+03
       355   8 -1.570550E+04 -2.545073E+03 -1.043660E+04  1.332182E+04  4.630297E+03 -4.797479E+03
       355   9 -9.431924E+03  3.446510E+03 -8.070218E+03  1.718762E+04  3.078213E+03 -5.023766E+03
       355  10  1.157965E+05  9.144689E+04  1.803068E+04  8.118148E+04  8.874989E-11  2.818207E-10
       355  11  1.095237E+05  8.546925E+04  1.633032E+04  7.729359E+04 -1.086312E-10  1.130202E-10
       355  12  1.016226E+05  8.160853E+04  1.569143E+04  7.396845E+04 -1.210423E-10  1.106577E-11
       355  13  4.607736E+04  4.249798E+04  3.087610E+03  4.559789E+04 -1.433583E-10  1.128226E-10
       355  14  4.690710E+04  4.146108E+04  2.947021E+03  4.530600E+04  1.157470E-10  2.386000E-11
       355  15  4.609407E+04  4.252696E+04  3.810843E+03  4.557685E+04 -7.916663E-11  1.357095E-11
       355  16 -2.363606E+04 -6.447923E+03 -1.185569E+04  1.001895E+04 -2.878098E-10 -2.230236E-11
       355  17 -1.570553E+04 -2.545104E+03 -1.043668E+04  1.332184E+04 -1.816379E-10  4.561728E-12
       355  18 -9.431941E+03  3.446481E+03 -8.070283E+03  1.718763E+04  2.547619E-10  3.664168E-11
       355  19  1.157965E+05  9.144694E+04  1.803078E+04  8.118146E+04 -4.049665E+03  6.116175E+03
       355  20  1.095237E+05  8.546929E+04  1.633041E+04  7.729358E+04 -2.391606E+03  6.475462E+03
       355  21  1.016226E+05  8.160858E+04  1.569152E+04  7.396845E+04 -7.078767E+02  6.800552E+03
       355  22  4.607740E+04  4.249802E+04  3.087713E+03  4.559787E+04 -5.103235E+03  5.326542E+03
       355  23  4.690712E+04  4.146112E+04  2.947103E+03  4.530598E+04 -3.511021E+03  5.636419E+03
       355  24  4.609408E+04  4.252699E+04  3.810915E+03  4.557684E+04 -1.893103E+03  5.912115E+03
       355  25 -2.363601E+04 -6.447890E+03 -1.185558E+04  1.001893E+04 -6.156647E+03  4.537026E+03
       355  26 -1.570550E+04 -2.545073E+03 -1.043660E+04  1.332182E+04 -4.630297E+03  4.797479E+03
       355  27 -9.431924E+03  3.446510E+03 -8.070218E+03  1.718762E+04 -3.078213E+03  5.023766E+03
       356   1  9.696006E+04  7.878691E+04  1.554273E+04  7.184501E+04 -1.453517E+02 -6.880765E+03
       356   2  9.172622E+04  7.217409E+04  1.704597E+04  6.710437E+04 -3.748498E+03 -8.586030E+03
       356   3  8.601873E+04  6.914660E+04  2.161242E+04  6.240824E+04 -7.385059E+03 -1.024655E+04
       356   4  4.619929E+04  4.258520E+04  4.654253E+03  4.566135E+04  1.036342E+03 -5.994948E+03
       356   5  4.706090E+04  4.189663E+04  7.604783E+03  4.481873E+04 -2.480783E+03 -7.635709E+03
       356   6  4.743002E+04  4.477466E+04  1.354395E+04  4.402046E+04 -6.031394E+03 -9.231792E+03
       356   7 -4.557318E+03  6.385963E+03 -6.233955E+03  1.948075E+04  2.217883E+03 -5.109248E+03
       356   8  2.398454E+03  1.162067E+04 -1.836310E+03  2.253517E+04 -1.213203E+03 -6.685485E+03
       356   9  8.843097E+03  2.040347E+04  5.475443E+03  2.563397E+04 -4.677843E+03 -8.217103E+03
       356  10  9.696004E+04  7.878686E+04  1.554264E+04  7.184501E+04  3.068837E-11  4.599915E-11
       356  11  9.172619E+04  7.217401E+04  1.704580E+04  6.710435E+04  2.321911E-10 -3.004222E-11
       356  12  8.601865E+04  6.914647E+04  2.161212E+04  6.240818E+04  2.481315E-10 -1.591241E-10
       356  13  4.619928E+04  4.258516E+04  4.654183E+03  4.566135E+04 -2.085406E-10  1.263472E-11
       356  14  4.706088E+04  4.189657E+04  7.604662E+03  4.481872E+04 -3.588250E-11 -9.930588E-11
       356  15  4.742995E+04  4.477456E+04  1.354372E+04  4.402042E+04 -2.482813E-11 -7.952628E-11
       356  16 -4.557330E+03  6.385933E+03 -6.234013E+03  1.948076E+04  4.926653E-11 -1.165568E-10
       356  17  2.398441E+03  1.162062E+04 -1.836396E+03  2.253517E+04 -6.939575E-11 -1.084343E-10
       356  18  8.843056E+03  2.040339E+04  5.475275E+03  2.563394E+04 -1.112405E-10 -4.886275E-11
       356  19  9.696006E+04  7.878691E+04  1.554273E+04  7.184501E+04  1.453517E+02  6.880765E+03
       356  20  9.172622E+04  7.217409E+04  1.704597E+04  6.710437E+04  3.748498E+03  8.586030E+03
       356  21  8.601873E+04  6.914660E+04  2.161242E+04  6.240824E+04  7.385059E+03  1.024655E+04
       356  22  4.619929E+04  4.258520E+04  4.654253E+03  4.566135E+04 -1.036342E+03  5.994948E+03
       356  23  4.706090E+04  4.189663E+04  7.604783E+03  4.481873E+04  2.480783E+03  7.635709E+03
       356  24  4.743002E+04  4.477466E+04  1.354395E+04  4.402046E+04  6.031394E+03  9.231792E+03
       356  25 -4.557318E+03  6.385963E+03 -6.233955E+03  1.948075E+04 -2.217883E+03  5.109248E+03
       356  26  2.398454E+03  1.162067E+04 -1.836310E+03  2.253517E+04  1.213203E+03  6.685485E+03
       356  27  8.843097E+03  2.040347E+04  5.475443E+03  2.563397E+04  4.677843E+03  8.217103E+03
       357   1  7.985747E+04  6.998387E+04  2.498607E+04  6.184020E+04 -9.517972E+03 -1.123273E+04
       357   2  9.469713E+04  5.090743E+04  3.863043E+04  4.364161E+04 -2.432141E+04 -2.093802E+04
       357   3  1.254059E+05  5.748092E+04  7.161957E+04  1.581271E+04 -3.942008E+04 -3.024957E+04
       357   4  4.880241E+04  4.568298E+04  1.784977E+04  4.484168E+04 -8.183747E+03 -1.023243E+04
       357   5  5.116169E+04  5.110961E+04  3.256163E+04  3.603423E+04 -2.223170E+04 -1.937256E+04
       357   6  6.922552E+04  8.202193E+04  6.596328E+04  1.759649E+04 -3.657422E+04 -2.811987E+04
       357   7  1.774797E+04  2.138245E+04  1.071325E+04  2.784394E+04 -6.849588E+03 -9.232196E+03
       357   8  7.628760E+03  5.131227E+04  2.649294E+04  2.842684E+04 -2.014220E+04 -1.780705E+04
       357   9  1.305148E+04  1.065664E+05  6.030785E+04  1.937894E+04 -3.372876E+04 -2.598991E+04
       357  10  7.985734E+04  6.998371E+04  2.498566E+04  6.184011E+04  3.561800E-10  5.782704E-11
       357  11  9.469638E+04  5.090680E+04  3.862850E+04  4.364120E+04  1.301186E-10 -1.021757E-11
       357  12  1.254040E+05  5.747952E+04  7.161493E+04  1.581175E+04 -4.156160E-11 -1.299104E-10
       357  13  4.880231E+04  4.568285E+04  1.784945E+04  4.484162E+04  1.211396E-10 -7.797552E-11
       357  14  5.116106E+04  5.110908E+04  3.256000E+04  3.603389E+04 -7.387118E-12 -7.853402E-11
       357  15  6.922387E+04  8.202073E+04  6.595928E+04  1.759566E+04  2.097435E-10 -7.054111E-11
       357  16  1.774789E+04  2.138235E+04  1.071300E+04  2.784389E+04 -2.829919E-10 -2.188131E-10
       357  17  7.628239E+03  5.131182E+04  2.649158E+04  2.842655E+04  1.569787E-10 -1.017786E-10
       357  18  1.305008E+04  1.065654E+05  6.030444E+04  1.937824E+04  1.071872E-10  4.112672E-11
       357  19  7.985747E+04  6.998387E+04  2.498607E+04  6.184020E+04  9.517972E+03  1.123273E+04
       357  20  9.469713E+04  5.090743E+04  3.863043E+04  4.364161E+04  2.432141E+04  2.093802E+04
       357  21  1.254059E+05  5.748092E+04  7.161957E+04  1.581271E+04  3.942008E+04  3.024957E+04
       357  22  4.880241E+04  4.568298E+04  1.784977E+04  4.484168E+04  8.183747E+03  1.023243E+04
       357  23  5.116169E+04  5.110961E+04  3.256163E+04  3.603423E+04  2.223170E+04  1.937256E+04
       357  24  6.922552E+04  8.202193E+04  6.596328E+04  1.759649E+04  3.657422E+04  2.811987E+04
       357  25  1.774797E+04  2.138245E+04  1.071325E+04  2.784394E+04  6.849588E+03  9.232196E+03
       357  26  7.628760E+03  5.131227E+04  2.649294E+04  2.842684E+04  2.014220E+04  1.780705E+04
       357  27  1.305148E+04  1.065664E+05  6.030785E+04  1.937894E+04  3.372876E+04  2.598991E+04
       358   1  1.903708E+05  5.819916E+04  5.248746E+04  4.566324E+04  7.961750E+03 -3.863759E+03
       358   2  1.386085E+05  5.761456E+04  3.967429E+04  4.763012E+04 -4.574394E+02 -1.237664E+04
       358   3  8.592791E+04  4.891811E+04  3.031432E+04  5.947920E+04 -8.874069E+03 -1.351666E+04
       358   4 -1.283923E+05 -2.052786E+04 -2.237306E+04  5.900842E+04 -1.546355E+04 -3.860700E+03
       358   5 -1.266972E+05 -5.618434E+03 -1.118089E+04  5.406795E+04 -9.724464E+03 -1.237624E+04
       358   6 -1.283821E+05 -1.280921E+03 -6.368033E+03  5.901033E+04 -3.983477E+03 -1.351729E+04
       358   7 -4.470603E+05 -9.926115E+04 -9.723839E+04  7.234670E+04 -3.887689E+04 -3.858648E+03
       358   8 -3.919348E+05 -6.885539E+04 -6.203895E+04  6.050296E+04 -1.898762E+04 -1.237604E+04
       358   9 -3.426468E+05 -5.148239E+04 -4.305183E+04  5.854162E+04  9.054805E+02 -1.351793E+04
       358  10  1.903707E+05  5.819913E+04  5.248731E+04  4.566326E+04 -1.423107E-10  2.435289E-11
       358  11  1.386085E+05  5.761440E+04  3.967400E+04  4.763011E+04 -1.802553E-11  8.346133E-12
       358  12  8.592778E+04  4.891790E+04  3.031383E+04  5.947910E+04 -5.370621E-12 -1.084784E-13
       358  13 -1.283925E+05 -2.052794E+04 -2.237354E+04  5.900837E+04 -1.096056E-10  8.826113E-12
       358  14 -1.266973E+05 -5.618624E+03 -1.118136E+04  5.406785E+04  2.299554E-11 -2.959813E-11
       358  15 -1.283821E+05 -1.281122E+03 -6.368406E+03  5.901029E+04 -2.733835E-11  4.355650E-12
       358  16 -4.470619E+05 -9.926158E+04 -9.724126E+04  7.234658E+04  6.003693E-11 -1.730597E-11
       358  17 -3.919352E+05 -6.885565E+04 -6.203992E+04  6.050277E+04 -1.702888E-11 -1.848109E-11
       358  18 -3.426469E+05 -5.148259E+04 -4.305218E+04  5.854163E+04  1.340013E-10  3.693821E-11
       358  19  1.903708E+05  5.819916E+04  5.248746E+04  4.566324E+04 -7.961750E+03  3.863759E+03
       358  20  1.386085E+05  5.761456E+04  3.967429E+04  4.763012E+04  4.574394E+02  1.237664E+04
       358  21  8.592791E+04  4.891811E+04  3.031432E+04  5.947920E+04  8.874069E+03  1.351666E+04
       358  22 -1.283923E+05 -2.052786E+04 -2.237306E+04  5.900842E+04  1.546355E+04  3.860700E+03
       358  23 -1.266972E+05 -5.618434E+03 -1.118089E+04  5.406795E+04  9.724464E+03  1.237624E+04
       358  24 -1.283821E+05 -1.280921E+03 -6.368033E+03  5.901033E+04  3.983477E+03  1.351729E+04
       358  25 -4.470603E+05 -9.926115E+04 -9.723839E+04  7.234670E+04  3.887689E+04  3.858648E+03
       358  26 -3.919348E+05 -6.885539E+04 -6.203895E+04  6.050296E+04  1.898762E+04  1.237604E+04
       358  27 -3.426468E+05 -5.148239E+04 -4.305183E+04  5.854162E+04 -9.054805E+02  1.351793E+04
       359   1  5.298880E+04  4.105014E+04  2.538953E+04  5.850063E+04 -7.659197E+03 -1.180791E+04
       359   2  8.927688E+02  2.958830E+04  1.737581E+04  5.364886E+04 -7.375977E+03 -9.084472E+03
       359   3 -5.136244E+04  1.760433E+04  9.048541E+03  5.918798E+04 -7.092954E+03 -5.632433E+03
       359   4 -1.277187E+05 -1.176405E+03 -5.029103E+03  5.912289E+04 -3.128707E+03 -1.180834E+04
       359   5 -1.275136E+05 -2.443422E+02 -3.372463E+03  5.392737E+04 -1.447133E+03 -9.084704E+03
       359   6 -1.277141E+05 -7.740972E+01 -3.001000E+03  5.912291E+04  2.342453E+02 -5.632382E+03
       359   7 -3.083939E+05 -4.340465E+04 -3.544869E+04  5.974496E+04  1.400507E+03 -1.180877E+04
       359   8 -2.559035E+05 -3.007780E+04 -2.412105E+04  5.420582E+04  4.480528E+03 -9.084932E+03
       359   9 -2.040598E+05 -1.775941E+04 -1.505048E+04  5.905785E+04  7.560577E+03 -5.632333E+03
       359  10  5.298870E+04  4.104997E+04  2.538915E+04  5.850056E+04  1.392295E-10 -1.975869E-11
       359  11  8.926882E+02  2.958820E+04  1.737555E+04  5.364881E+04 -5.347966E-11 -1.221839E-11
       359  12 -5.136250E+04  1.760428E+04  9.048387E+03  5.918794E+04 -5.228648E-11  6.308239E-11
       359  13 -1.277187E+05 -1.176557E+03 -5.029383E+03  5.912286E+04  1.311639E-10 -3.837074E-11
       359  14 -1.275136E+05 -2.444314E+02 -3.372622E+03  5.392736E+04  9.544596E-11 -6.933021E-11
       359  15 -1.277141E+05 -7.744379E+01 -3.001060E+03  5.912291E+04  1.267972E-10  1.998595E-12
       359  16 -3.083940E+05 -4.340480E+04 -3.544895E+04  5.974497E+04  5.817250E-11  5.004000E-11
       359  17 -2.559035E+05 -3.007790E+04 -2.412124E+04  5.420585E+04  7.236177E-11  1.192616E-10
       359  18 -2.040599E+05 -1.775946E+04 -1.505065E+04  5.905789E+04  1.888898E-10 -9.986480E-11
       359  19  5.298880E+04  4.105014E+04  2.538953E+04  5.850063E+04  7.659197E+03  1.180791E+04
       359  20  8.927688E+02  2.958830E+04  1.737581E+04  5.364886E+04  7.375977E+03  9.084472E+03
       359  21 -5.136244E+04  1.760433E+04  9.048541E+03  5.918798E+04  7.092954E+03  5.632433E+03
       359  22 -1.277187E+05 -1.176405E+03 -5.029103E+03  5.912289E+04  3.128707E+03  1.180834E+04
       359  23 -1.275136E+05 -2.443422E+02 -3.372463E+03  5.392737E+04  1.447133E+03  9.084704E+03
       359  24 -1.277141E+05 -7.740972E+01 -3.001000E+03  5.912291E+04 -2.342453E+02  5.632382E+03
       359  25 -3.083939E+05 -4.340465E+04 -3.544869E+04  5.974496E+04 -1.400507E+03  1.180877E+04
       359  26 -2.559035E+05 -3.007780E+04 -2.412105E+04  5.420582E+04 -4.480528E+03  9.084932E+03
       359  27 -2.040598E+05 -1.775941E+04 -1.505048E+04  5.905785E+04 -7.560577E+03  5.632333E+03
       360   1 -8.464480E+04  9.861354E+03  3.394656E+03  5.896647E+04 -6.545997E+03 -3.364682E+03
       360   2 -1.364705E+05 -2.567418E+03 -6.294483E+03  5.428226E+04 -3.574529E+03  2.348959E+02
       360   3 -1.889887E+05 -1.623684E+04 -1.822826E+04  6.000944E+04 -6.032925E+02  3.414388E+03
       360   4 -1.277464E+05 -7.420133E+01 -3.176459E+03  5.912743E+04  7.674196E+02 -3.364550E+03
       360   5 -1.274695E+05 -3.755734E+02 -4.337583E+03  5.392172E+04  2.932241E+03  2.350004E+02
       360   6 -1.277469E+05 -1.777187E+03 -7.182874E+03  5.912742E+04  5.097052E+03  3.414465E+03
       360   7 -1.708460E+05 -1.000982E+04 -9.747411E+03  5.928838E+04  8.080348E+03 -3.364414E+03
       360   8 -1.184683E+05  1.816289E+03 -2.380529E+03  5.356118E+04  9.439103E+03  2.350973E+02
       360   9 -6.650132E+04  1.268228E+04  3.862484E+03  5.824531E+04  1.079794E+04  3.414526E+03
       360  10 -8.464485E+04  9.861331E+03  3.394554E+03  5.896645E+04  1.081080E-10  5.831947E-11
       360  11 -1.364705E+05 -2.567422E+03 -6.294507E+03  5.428226E+04  5.711340E-11 -4.722369E-11
       360  12 -1.889887E+05 -1.623685E+04 -1.822828E+04  6.000944E+04 -3.107372E-11 -7.210839E-11
       360  13 -1.277464E+05 -7.421364E+01 -3.176481E+03  5.912743E+04  2.383425E-10 -3.641518E-12
       360  14 -1.274695E+05 -3.755758E+02 -4.337599E+03  5.392172E+04  5.862708E-12 -2.443331E-11
       360  15 -1.277469E+05 -1.777207E+03 -7.182945E+03  5.912740E+04 -3.467197E-12 -3.171492E-11
       360  16 -1.708461E+05 -1.000985E+04 -9.747555E+03  5.928840E+04 -2.752298E-11 -6.952497E-11
       360  17 -1.184684E+05  1.816265E+03 -2.380696E+03  5.356118E+04  9.719402E-11 -4.045787E-11
       360  18 -6.650145E+04  1.268223E+04  3.862243E+03  5.824528E+04  1.535087E-10 -4.871608E-11
       360  19 -8.464480E+04  9.861354E+03  3.394656E+03  5.896647E+04  6.545997E+03  3.364682E+03
       360  20 -1.364705E+05 -2.567418E+03 -6.294483E+03  5.428226E+04  3.574529E+03 -2.348959E+02
       360  21 -1.889887E+05 -1.623684E+04 -1.822826E+04  6.000944E+04  6.032925E+02 -3.414388E+03
       360  22 -1.277464E+05 -7.420133E+01 -3.176459E+03  5.912743E+04 -7.674196E+02  3.364550E+03
       360  23 -1.274695E+05 -3.755734E+02 -4.337583E+03  5.392172E+04 -2.932241E+03 -2.350004E+02
       360  24 -1.277469E+05 -1.777187E+03 -7.182874E+03  5.912742E+04 -5.097052E+03 -3.414465E+03
       360  25 -1.708460E+05 -1.000982E+04 -9.747411E+03  5.928838E+04 -8.080348E+03  3.364414E+03
       360  26 -1.184683E+05  1.816289E+03 -2.380529E+03  5.356118E+04 -9.439103E+03 -2.350973E+02
       360  27 -6.650132E+04  1.268228E+04  3.862484E+03  5.824531E+04 -1.079794E+04 -3.414526E+03
       361   1 -2.234509E+05 -2.426447E+04 -2.629958E+04  5.829451E+04  3.944688E+02  5.360191E+03
       361   2 -2.723024E+05 -4.349114E+04 -4.569793E+04  6.368978E+04  1.809905E+04  6.079489E+03
       361   3 -3.278472E+05 -8.029244E+04 -8.101865E+04  7.917174E+04  3.580129E+04  2.059695E+03
       361   4 -1.287611E+05 -1.927264E+03 -9.322406E+03  5.905574E+04  6.324061E+03  5.360187E+03
       361   5 -1.262073E+05 -8.478056E+03 -1.676451E+04  5.401138E+04  1.493330E+04  6.079143E+03
       361   6 -1.287680E+05 -3.102179E+04 -3.380969E+04  5.905453E+04  2.354183E+04  2.058925E+03
       361   7 -3.406254E+04  2.040947E+04  7.654560E+03  5.981708E+04  1.225453E+04  5.360196E+03
       361   8  1.990846E+04  2.653409E+04  1.216795E+04  4.433066E+04  1.176683E+04  6.078895E+03
       361   9  7.034887E+04  1.824761E+04  1.339730E+04  3.893083E+04  1.127845E+04  2.058950E+03
       361  10 -2.234509E+05 -2.426450E+04 -2.629964E+04  5.829451E+04 -1.174224E-12 -3.537175E-11
       361  11 -2.723027E+05 -4.349127E+04 -4.569862E+04  6.368969E+04 -5.810819E-11 -1.906564E-10
       361  12 -3.278486E+05 -8.029279E+04 -8.102107E+04  7.917168E+04 -5.433967E-11 -4.737765E-12
       361  13 -1.287612E+05 -1.927305E+03 -9.322535E+03  5.905571E+04  1.851841E-11 -8.279497E-11
       361  14 -1.262075E+05 -8.478156E+03 -1.676500E+04  5.401131E+04 -1.352451E-10 -5.796051E-11
       361  15 -1.287686E+05 -3.102194E+04 -3.381074E+04  5.905449E+04  2.052490E-10 -4.206756E-12
       361  16 -3.406271E+04  2.040940E+04  7.654223E+03  5.981703E+04  1.082144E-10 -3.571092E-11
       361  17  1.990830E+04  2.653401E+04  1.216762E+04  4.433061E+04 -1.712332E-10 -2.472467E-11
       361  18  7.034873E+04  1.824758E+04  1.339705E+04  3.893081E+04  1.124742E-10  4.441377E-12
       361  19 -2.234509E+05 -2.426447E+04 -2.629958E+04  5.829451E+04 -3.944688E+02 -5.360191E+03
       361  20 -2.723024E+05 -4.349114E+04 -4.569793E+04  6.368978E+04 -1.809905E+04 -6.079489E+03
       361  21 -3.278472E+05 -8.029244E+04 -8.101865E+04  7.917174E+04 -3.580129E+04 -2.059695E+03
       361  22 -1.287611E+05 -1.927264E+03 -9.322406E+03  5.905574E+04 -6.324061E+03 -5.360187E+03
       361  23 -1.262073E+05 -8.478056E+03 -1.676451E+04  5.401138E+04 -1.493330E+04 -6.079143E+03
       361  24 -1.287680E+05 -3.102179E+04 -3.380969E+04  5.905453E+04 -2.354183E+04 -2.058925E+03
       361  25 -3.406254E+04  2.040947E+04  7.654560E+03  5.981708E+04 -1.225453E+04 -5.360196E+03
       361  26  1.990846E+04  2.653409E+04  1.216795E+04  4.433066E+04 -1.176683E+04 -6.078895E+03
       361  27  7.034887E+04  1.824761E+04  1.339730E+04  3.893083E+04 -1.127845E+04 -2.058950E+03
       362   1 -7.429529E+04 -3.356104E+05 -7.289074E+04  9.800081E+04 -2.393504E+03 -2.348483E+04
       362   2 -4.455328E+04 -2.535211E+05 -4.037381E+04  8.634927E+04 -6.666280E+03 -8.967479E+03
       362   3 -2.271225E+04 -1.752987E+05 -1.928863E+04  9.027514E+04 -4.875461E+03  5.550698E+03
       362   4 -1.148390E+04 -8.201664E+04 -1.245802E+04  9.067541E+04 -2.387585E+03 -9.455916E+03
       362   5 -3.105071E+03 -8.108595E+04 -5.585136E+03  8.288454E+04 -6.665081E+03 -6.574628E+03
       362   6 -6.049584E+02 -8.200710E+04 -2.059663E+03  9.067134E+04 -4.879577E+03 -3.694640E+03
       362   7  5.132315E+04  1.716367E+05  4.797096E+04  8.334700E+04 -2.381998E+03  4.578708E+03
       362   8  3.834135E+04  9.137759E+04  2.920203E+04  7.941882E+04 -6.663908E+03 -4.181125E+03
       362   9  2.150188E+04  1.129307E+04  1.516926E+04  9.106760E+04 -4.883704E+03 -1.294133E+04
       362  10 -7.429544E+04 -3.356110E+05 -7.289178E+04  9.800076E+04 -4.729330E-10  5.817428E-08
       362  11 -4.455335E+04 -2.535212E+05 -4.037404E+04  8.634922E+04 -1.281981E-09 -1.983662E-09
       362  12 -2.271228E+04 -1.752987E+05 -1.928873E+04  9.027516E+04 -8.565182E-10 -6.271885E-08
       362  13 -1.148393E+04 -8.201674E+04 -1.245820E+04  9.067539E+04 -5.192616E-10  4.844080E-11
       362  14 -3.105130E+03 -8.108601E+04 -5.585300E+03  8.288450E+04 -6.885021E-10  1.804195E-11
       362  15 -6.049877E+02 -8.200712E+04 -2.059733E+03  9.067133E+04 -7.689705E-10  4.046046E-11
       362  16  5.132314E+04  1.716367E+05  4.797091E+04  8.334701E+04 -3.520003E-10 -5.820692E-08
       362  17  3.834129E+04  9.137755E+04  2.920192E+04  7.941880E+04 -1.003140E-09  2.004644E-09
       362  18  2.150181E+04  1.129289E+04  1.516890E+04  9.106755E+04 -4.872746E-10  6.270983E-08
       362  19 -7.429529E+04 -3.356104E+05 -7.289074E+04  9.800081E+04  2.393504E+03  2.348483E+04
       362  20 -4.455328E+04 -2.535211E+05 -4.037381E+04  8.634927E+04  6.666280E+03  8.967479E+03
       362  21 -2.271225E+04 -1.752987E+05 -1.928863E+04  9.027514E+04  4.875461E+03 -5.550698E+03
       362  22 -1.148390E+04 -8.201664E+04 -1.245802E+04  9.067541E+04  2.387585E+03  9.455916E+03
       362  23 -3.105071E+03 -8.108595E+04 -5.585136E+03  8.288454E+04  6.665081E+03  6.574628E+03
       362  24 -6.049584E+02 -8.200710E+04 -2.059663E+03  9.067134E+04  4.879577E+03  3.694640E+03
       362  25  5.132315E+04  1.716367E+05  4.797096E+04  8.334700E+04  2.381998E+03 -4.578708E+03
       362  26  3.834135E+04  9.137759E+04  2.920203E+04  7.941882E+04  6.663908E+03  4.181125E+03
       362  27  2.150188E+04  1.129307E+04  1.516926E+04  9.106760E+04  4.883704E+03  1.294133E+04
       363   1 -1.058180E+04 -1.234898E+05 -8.919366E+03  9.086228E+04 -1.847962E+03  5.456348E+03
       363   2  9.112874E+03 -4.352133E+04  8.008117E+03  8.318524E+04  2.742150E+03  4.164975E+03
       363   3  2.941885E+04  3.676357E+04  2.592550E+04  9.145154E+04  7.154107E+03  2.873608E+03
       363   4 -5.554956E+02 -8.153852E+04 -7.434458E+02  9.075303E+04 -1.852074E+03 -3.527834E+03
       363   5  2.609448E+02 -8.166498E+04  1.896847E+03  8.278089E+04  2.738308E+03 -4.477515E+03
       363   6  1.629750E+03 -8.154037E+04  5.289923E+03  9.075211E+04  7.150519E+03 -5.427031E+03
       363   7  9.470749E+03 -3.958540E+04  7.432694E+03  9.064377E+04 -1.856183E+03 -1.251261E+04
       363   8 -8.591016E+03 -1.198070E+05 -4.214181E+03  8.237656E+04  2.734476E+03 -1.311949E+04
       363   9 -2.616007E+04 -1.998305E+05 -1.534589E+04  9.005282E+04  7.146950E+03 -1.372614E+04
       363  10 -1.058181E+04 -1.234898E+05 -8.919428E+03  9.086229E+04  1.594583E-10 -2.102644E-09
       363  11  9.112861E+03 -4.352135E+04  8.008070E+03  8.318523E+04  1.012328E-09 -1.628875E-09
       363  12  2.941879E+04  3.676355E+04  2.592539E+04  9.145152E+04  1.301605E-09 -1.754735E-09
       363  13 -5.555026E+02 -8.153853E+04 -7.434756E+02  9.075302E+04  1.378526E-10  4.355889E-11
       363  14  2.609314E+02 -8.166501E+04  1.896795E+03  8.278090E+04  6.562069E-10  7.955646E-11
       363  15  1.629687E+03 -8.154042E+04  5.289771E+03  9.075214E+04  8.666227E-10  4.640542E-11
       363  16  9.470703E+03 -3.958557E+04  7.432393E+03  9.064375E+04  1.375954E-10  2.084467E-09
       363  17 -8.591071E+03 -1.198072E+05 -4.214518E+03  8.237659E+04  1.182338E-09  1.648253E-09
       363  18 -2.616017E+04 -1.998307E+05 -1.534634E+04  9.005290E+04  1.303557E-09  1.774761E-09
       363  19 -1.058180E+04 -1.234898E+05 -8.919366E+03  9.086228E+04  1.847962E+03 -5.456348E+03
       363  20  9.112874E+03 -4.352133E+04  8.008117E+03  8.318524E+04 -2.742150E+03 -4.164975E+03
       363  21  2.941885E+04  3.676357E+04  2.592550E+04  9.145154E+04 -7.154107E+03 -2.873608E+03
       363  22 -5.554956E+02 -8.153852E+04 -7.434458E+02  9.075303E+04  1.852074E+03  3.527834E+03
       363  23  2.609448E+02 -8.166498E+04  1.896847E+03  8.278089E+04 -2.738308E+03  4.477515E+03
       363  24  1.629750E+03 -8.154037E+04  5.289923E+03  9.075211E+04 -7.150519E+03  5.427031E+03
       363  25  9.470749E+03 -3.958540E+04  7.432694E+03  9.064377E+04  1.856183E+03  1.251261E+04
       363  26 -8.591016E+03 -1.198070E+05 -4.214181E+03  8.237656E+04 -2.734476E+03  1.311949E+04
       363  27 -2.616007E+04 -1.998305E+05 -1.534589E+04  9.005282E+04 -7.146950E+03  1.372614E+04
       364   1  4.167477E+04  8.914275E+04  3.735344E+04  8.995988E+04  1.004438E+04  2.298735E+03
       364   2  6.704446E+04  1.657734E+05  6.329521E+04  9.149561E+04  1.066144E+04 -2.004492E+04
       364   3  1.091472E+05  2.494966E+05  1.079637E+05  1.084792E+05  3.518064E+03 -4.239003E+04
       364   4  1.751582E+03 -8.059824E+04  7.473224E+03  9.064261E+04  1.004088E+04 -6.353993E+03
       364   5  7.550394E+03 -8.285588E+04  1.447724E+04  8.291451E+04  1.066449E+04 -1.379271E+04
       364   6  2.749907E+04 -8.061023E+04  2.986081E+04  9.063355E+04  3.526880E+03 -2.122997E+04
       364   7 -3.817314E+04 -2.503109E+05 -2.240776E+04  9.132515E+04  1.003736E+04 -1.500443E+04
       364   8 -5.194711E+04 -3.314257E+05 -3.434355E+04  7.433692E+04  1.066735E+04 -7.542950E+03
       364   9 -5.415547E+04 -4.106153E+05 -4.824779E+04  7.279741E+04  3.534483E+03 -8.108876E+01
       364  10  4.167466E+04  8.914272E+04  3.735324E+04  8.995986E+04  8.490113E-10 -1.623130E-09
       364  11  6.704423E+04  1.657729E+05  6.329424E+04  9.149578E+04  5.178645E-10 -1.157224E-09
       364  12  1.091467E+05  2.494947E+05  1.079603E+05  1.084793E+05  2.146966E-10 -8.580042E-10
       364  13  1.751462E+03 -8.059831E+04  7.472959E+03  9.064266E+04  1.175788E-09  2.947086E-11
       364  14  7.550221E+03 -8.285612E+04  1.447667E+04  8.291463E+04  3.383130E-10  1.473398E-11
       364  15  2.749894E+04 -8.061072E+04  2.985994E+04  9.063361E+04  1.846000E-10  1.223019E-11
       364  16 -3.817331E+04 -2.503111E+05 -2.240837E+04  9.132527E+04  8.857116E-10  1.602424E-09
       364  17 -5.194725E+04 -3.314258E+05 -3.434387E+04  7.433698E+04  4.423095E-10  1.191434E-09
       364  18 -5.415549E+04 -4.106153E+05 -4.824781E+04  7.279741E+04  1.769233E-10  7.736788E-10
       364  19  4.167477E+04  8.914275E+04  3.735344E+04  8.995988E+04 -1.004438E+04 -2.298735E+03
       364  20  6.704446E+04  1.657734E+05  6.329521E+04  9.149561E+04 -1.066144E+04  2.004492E+04
       364  21  1.091472E+05  2.494966E+05  1.079637E+05  1.084792E+05 -3.518064E+03  4.239003E+04
       364  22  1.751582E+03 -8.059824E+04  7.473224E+03  9.064261E+04 -1.004088E+04  6.353993E+03
       364  23  7.550394E+03 -8.285588E+04  1.447724E+04  8.291451E+04 -1.066449E+04  1.379271E+04
       364  24  2.749907E+04 -8.061023E+04  2.986081E+04  9.063355E+04 -3.526880E+03  2.122997E+04
       364  25 -3.817314E+04 -2.503109E+05 -2.240776E+04  9.132515E+04 -1.003736E+04  1.500443E+04
       364  26 -5.194711E+04 -3.314257E+05 -3.434355E+04  7.433692E+04 -1.066735E+04  7.542950E+03
       364  27 -5.415547E+04 -4.106153E+05 -4.824779E+04  7.279741E+04 -3.534483E+03  8.108876E+01
       365   1  1.776170E+05  1.822730E+05  6.941658E+04  1.166009E+05  3.027456E+04  2.012242E+04
       365   2  1.686022E+05  1.478146E+05  4.280168E+04  1.186122E+05  2.100425E+04  7.101575E+03
       365   3  1.675295E+05  1.288773E+05  3.039433E+04  1.160508E+05  9.669004E+03 -3.163750E+03
       365   4  8.588301E+04  8.401347E+04  3.389731E+04  5.583036E+04  2.016298E+04  1.254054E+04
       365   5  7.723861E+04  6.749018E+04  1.677188E+04  6.511771E+04  1.618499E+04  3.487976E+03
       365   6  7.538964E+04  6.534148E+04  9.263026E+03  6.983188E+04  1.014172E+04 -2.809518E+03
       365   7 -5.841382E+03 -1.423322E+04 -1.622754E+03 -4.927962E+03  1.005336E+04  4.961165E+03
       365   8 -1.411634E+04 -1.282664E+04 -9.258947E+03  1.163267E+04  1.136663E+04 -1.247244E+02
       365   9 -1.674228E+04  1.809234E+03 -1.186944E+04  2.361994E+04  1.061435E+04 -2.455347E+03
       365  10  1.776159E+05  1.822723E+05  6.941410E+04  1.166004E+05  1.241131E-10  6.245306E-11
       365  11  1.686018E+05  1.478144E+05  4.280075E+04  1.186121E+05  5.344274E-11 -1.927970E-12
       365  12  1.675294E+05  1.288773E+05  3.039414E+04  1.160508E+05 -3.981505E-11  1.411609E-10
       365  13  8.588253E+04  8.401319E+04  3.389625E+04  5.583016E+04  7.527908E-12  5.557936E-11
       365  14  7.723832E+04  6.749010E+04  1.677136E+04  6.511766E+04 -4.225379E-11  5.921300E-11
       365  15  7.538953E+04  6.534144E+04  9.262818E+03  6.983190E+04 -1.404484E-10  1.676357E-10
       365  16 -5.841497E+03 -1.423327E+04 -1.622990E+03 -4.928003E+03  7.870655E-11 -5.462603E-11
       365  17 -1.411648E+04 -1.282667E+04 -9.259190E+03  1.163267E+04  4.337944E-11 -3.557698E-11
       365  18 -1.674240E+04  1.809197E+03 -1.186966E+04  2.361996E+04  7.407423E-11  1.217315E-10
       365  19  1.776170E+05  1.822730E+05  6.941658E+04  1.166009E+05 -3.027456E+04 -2.012242E+04
       365  20  1.686022E+05  1.478146E+05  4.280168E+04  1.186122E+05 -2.100425E+04 -7.101575E+03
       365  21  1.675295E+05  1.288773E+05  3.039433E+04  1.160508E+05 -9.669004E+03  3.163750E+03
       365  22  8.588301E+04  8.401347E+04  3.389731E+04  5.583036E+04 -2.016298E+04 -1.254054E+04
       365  23  7.723861E+04  6.749018E+04  1.677188E+04  6.511771E+04 -1.618499E+04 -3.487976E+03
       365  24  7.538964E+04  6.534148E+04  9.263026E+03  6.983188E+04 -1.014172E+04  2.809518E+03
       365  25 -5.841382E+03 -1.423322E+04 -1.622754E+03 -4.927962E+03 -1.005336E+04 -4.961165E+03
       365  26 -1.411634E+04 -1.282664E+04 -9.258947E+03  1.163267E+04 -1.136663E+04  1.247244E+02
       365  27 -1.674228E+04  1.809234E+03 -1.186944E+04  2.361994E+04 -1.061435E+04  2.455347E+03
       366   1  1.590093E+05  1.256668E+05  2.644515E+04  1.130106E+05  8.663212E+03 -3.562862E+03
       366   2  1.505087E+05  1.161746E+05  2.071501E+04  1.082805E+05  6.211043E+03 -4.898799E+03
       366   3  1.403690E+05  1.101632E+05  1.707983E+04  1.040228E+05  3.540402E+03 -5.943210E+03
       366   4  7.463129E+04  6.492851E+04  7.084399E+03  6.942676E+04  9.000823E+03 -3.309918E+03
       366   5  7.519500E+04  6.268468E+04  4.133453E+03  6.961430E+04  7.108727E+03 -4.225883E+03
       366   6  7.399782E+04  6.380032E+04  2.791632E+03  7.027410E+04  4.998069E+03 -4.850356E+03
       366   7 -9.736574E+03  4.196139E+03 -1.227613E+04  2.585076E+04  9.338366E+03 -3.057025E+03
       366   8 -1.111595E+02  9.199035E+03 -1.244809E+04  3.095403E+04  8.006257E+03 -3.553084E+03
       366   9  7.631957E+03  1.744015E+04 -1.149673E+04  3.652966E+04  6.455527E+03 -3.757658E+03
       366  10  1.590092E+05  1.256668E+05  2.644498E+04  1.130106E+05  1.036296E-10  2.799582E-10
       366  11  1.505087E+05  1.161745E+05  2.071489E+04  1.082805E+05  1.085463E-10  1.653082E-10
       366  12  1.403689E+05  1.101632E+05  1.707974E+04  1.040228E+05 -1.152357E-10 -2.621856E-11
       366  13  7.463120E+04  6.492848E+04  7.084226E+03  6.942678E+04 -1.197721E-10  7.663374E-11
       366  14  7.519494E+04  6.268465E+04  4.133324E+03  6.961433E+04  3.650222E-11  5.369558E-11
       366  15  7.399779E+04  6.380028E+04  2.791541E+03  7.027411E+04  5.213904E-11  3.854959E-11
       366  16 -9.736670E+03  4.196106E+03 -1.227631E+04  2.585079E+04 -2.874906E-10 -7.347528E-11
       366  17 -1.112317E+02  9.199004E+03 -1.244824E+04  3.095406E+04 -9.876595E-11 -7.750462E-12
       366  18  7.631909E+03  1.744012E+04 -1.149683E+04  3.652968E+04 -5.580417E-11  3.585474E-11
       366  19  1.590093E+05  1.256668E+05  2.644515E+04  1.130106E+05 -8.663212E+03  3.562862E+03
       366  20  1.505087E+05  1.161746E+05  2.071501E+04  1.082805E+05 -6.211043E+03  4.898799E+03
       366  21  1.403690E+05  1.101632E+05  1.707983E+04  1.040228E+05 -3.540402E+03  5.943210E+03
       366  22  7.463129E+04  6.492851E+04  7.084399E+03  6.942676E+04 -9.000823E+03  3.309918E+03
       366  23  7.519500E+04  6.268468E+04  4.133453E+03  6.961430E+04 -7.108727E+03  4.225883E+03
       366  24  7.399782E+04  6.380032E+04  2.791632E+03  7.027410E+04 -4.998069E+03  4.850356E+03
       366  25 -9.736574E+03  4.196139E+03 -1.227613E+04  2.585076E+04 -9.338366E+03  3.057025E+03
       366  26 -1.111595E+02  9.199035E+03 -1.244809E+04  3.095403E+04 -8.006257E+03  3.553084E+03
       366  27  7.631957E+03  1.744015E+04 -1.149673E+04  3.652966E+04 -6.455527E+03  3.757658E+03
       367   1  1.341290E+05  1.060586E+05  1.539774E+04  1.009691E+05  2.847548E+03 -5.758586E+03
       367   2  1.258188E+05  9.810782E+04  1.327947E+04  9.577361E+04  1.253743E+03 -5.757943E+03
       367   3  1.152039E+05  9.286450E+04  1.203828E+04  9.132246E+04 -3.608717E+02 -5.729622E+03
       367   4  7.394539E+04  6.377854E+04  2.487157E+03  7.024082E+04  4.290912E+03 -4.676415E+03
       367   5  7.511157E+04  6.244517E+04  2.438930E+03  6.985766E+04  2.750364E+03 -4.635779E+03
       367   6  7.396167E+04  6.380765E+04  3.221686E+03  7.021883E+04  1.189012E+03 -4.567471E+03
       367   7  1.376489E+04  2.149992E+04 -1.042400E+04  3.951540E+04  5.734119E+03 -3.594362E+03
       367   8  2.440740E+04  2.678415E+04 -8.401708E+03  4.394420E+04  4.246823E+03 -3.513737E+03
       367   9  3.272232E+04  3.475249E+04 -5.594681E+03  4.911727E+04  2.738727E+03 -3.405447E+03
       367  10  1.341290E+05  1.060585E+05  1.539767E+04  1.009691E+05  1.174064E-10  1.293209E-10
       367  11  1.258188E+05  9.810778E+04  1.327940E+04  9.577361E+04  1.187859E-11  1.209535E-10
       367  12  1.152039E+05  9.286446E+04  1.203822E+04  9.132246E+04 -6.649644E-11  7.500483E-11
       367  13  7.394537E+04  6.377851E+04  2.487081E+03  7.024083E+04 -2.556572E-11  7.652288E-11
       367  14  7.511155E+04  6.244515E+04  2.438875E+03  6.985767E+04  3.509425E-11  7.029219E-11
       367  15  7.396167E+04  6.380763E+04  3.221644E+03  7.021884E+04  5.682774E-11  1.459765E-10
       367  16  1.376485E+04  2.149989E+04 -1.042409E+04  3.951542E+04 -2.432811E-10 -9.438739E-11
       367  17  2.440737E+04  2.678414E+04 -8.401765E+03  4.394421E+04  8.140024E-11  8.198472E-11
       367  18  3.272231E+04  3.475248E+04 -5.594717E+03  4.911728E+04  1.275994E-10 -1.728088E-11
       367  19  1.341290E+05  1.060586E+05  1.539774E+04  1.009691E+05 -2.847548E+03  5.758586E+03
       367  20  1.258188E+05  9.810782E+04  1.327947E+04  9.577361E+04 -1.253743E+03  5.757943E+03
       367  21  1.152039E+05  9.286450E+04  1.203828E+04  9.132246E+04  3.608717E+02  5.729622E+03
       367  22  7.394539E+04  6.377854E+04  2.487157E+03  7.024082E+04 -4.290912E+03  4.676415E+03
       367  23  7.511157E+04  6.244517E+04  2.438930E+03  6.985766E+04 -2.750364E+03  4.635779E+03
       367  24  7.396167E+04  6.380765E+04  3.221686E+03  7.021883E+04 -1.189012E+03  4.567471E+03
       367  25  1.376489E+04  2.149992E+04 -1.042400E+04  3.951540E+04 -5.734119E+03  3.594362E+03
       367  26  2.440740E+04  2.678415E+04 -8.401708E+03  4.394420E+04 -4.246823E+03  3.513737E+03
       367  27  3.272232E+04  3.475249E+04 -5.594681E+03  4.911727E+04 -2.738727E+03  3.405447E+03
       368   1  1.090486E+05  8.892338E+04  1.143701E+04  8.840246E+04 -1.213435E+03 -5.631659E+03
       368   2  1.016300E+05  8.042200E+04  1.196823E+04  8.248628E+04 -4.360930E+03 -6.751908E+03
       368   3  9.288497E+04  7.586629E+04  1.501689E+04  7.686751E+04 -7.488561E+03 -7.898629E+03
       368   4  7.405474E+04  6.385751E+04  3.960082E+03  7.029266E+04  3.362531E+02 -4.469632E+03
       368   5  7.524135E+04  6.281957E+04  6.513974E+03  6.943883E+04 -2.861968E+03 -5.627899E+03
       368   6  7.511233E+04  6.573832E+04  1.162934E+04  6.888230E+04 -6.040396E+03 -6.812699E+03
       368   7  3.906235E+04  3.879244E+04 -3.516897E+03  5.218406E+04  1.885826E+03 -3.307694E+03
       368   8  4.885323E+04  4.521733E+04  1.059602E+03  5.639186E+04 -1.363074E+03 -4.503938E+03
       368   9  5.733969E+04  5.561026E+04  8.241681E+03  6.089716E+04 -4.592257E+03 -5.726778E+03
       368  10  1.090486E+05  8.892335E+04  1.143695E+04  8.840246E+04  1.952237E-10  1.093593E-10
       368  11  1.016300E+05  8.042195E+04  1.196811E+04  8.248626E+04  2.114386E-10 -2.180884E-11
       368  12  9.288489E+04  7.586621E+04  1.501667E+04  7.686746E+04  9.828391E-11 -1.584192E-10
       368  13  7.405473E+04  6.385749E+04  3.960044E+03  7.029267E+04 -1.072925E-10  2.210393E-11
       368  14  7.524133E+04  6.281953E+04  6.513899E+03  6.943881E+04 -7.426781E-11 -1.097233E-10
       368  15  7.511228E+04  6.573826E+04  1.162919E+04  6.888226E+04 -4.073867E-11 -8.722504E-11
       368  16  3.906234E+04  3.879243E+04 -3.516924E+03  5.218407E+04  2.121203E-11 -8.582606E-11
       368  17  4.885322E+04  4.521730E+04  1.059560E+03  5.639186E+04 -2.085113E-11 -9.993646E-11
       368  18  5.733966E+04  5.561022E+04  8.241580E+03  6.089714E+04  2.629112E-11 -1.857766E-11
       368  19  1.090486E+05  8.892338E+04  1.143701E+04  8.840246E+04  1.213435E+03  5.631659E+03
       368  20  1.016300E+05  8.042200E+04  1.196823E+04  8.248628E+04  4.360930E+03  6.751908E+03
       368  21  9.288497E+04  7.586629E+04  1.501689E+04  7.686751E+04  7.488561E+03  7.898629E+03
       368  22  7.405474E+04  6.385751E+04  3.960082E+03  7.029266E+04 -3.362531E+02  4.469632E+03
       368  23  7.524135E+04  6.281957E+04  6.513974E+03  6.943883E+04  2.861968E+03  5.627899E+03
       368  24  7.511233E+04  6.573832E+04  1.162934E+04  6.888230E+04  6.040396E+03  6.812699E+03
       368  25  3.906235E+04  3.879244E+04 -3.516897E+03  5.218406E+04 -1.885826E+03  3.307694E+03
       368  26  4.885323E+04  4.521733E+04  1.059602E+03  5.639186E+04  1.363074E+03  4.503938E+03
       368  27  5.733969E+04  5.561026E+04  8.241681E+03  6.089716E+04  4.592257E+03  5.726778E+03
       369   1  8.541727E+04  7.503292E+04  1.734683E+04  7.527496E+04 -9.436229E+03 -8.653672E+03
       369   2  9.526415E+04  5.581979E+04  2.771814E+04  5.789873E+04 -2.086414E+04 -1.625176E+04
       369   3  1.176552E+05  5.923699E+04  5.368698E+04  3.248911E+04 -3.208249E+04 -2.412862E+04
       369   4  7.630299E+04  6.650770E+04  1.533381E+04  6.958490E+04 -7.974485E+03 -7.557484E+03
       369   5  7.875252E+04  7.075007E+04  2.798437E+04  6.189155E+04 -1.993908E+04 -1.555893E+04
       369   6  9.386162E+04  9.773734E+04  5.669819E+04  4.616481E+04 -3.169387E+04 -2.383992E+04
       369   7  6.718898E+04  5.798273E+04  1.332086E+04  6.389505E+04 -6.512793E+03 -6.461346E+03
       369   8  6.224194E+04  8.568090E+04  2.825076E+04  6.588409E+04 -1.901407E+04 -1.486607E+04
       369   9  7.007100E+04  1.362413E+05  5.970996E+04  5.983964E+04 -3.130528E+04 -2.355118E+04
       369  10  8.541715E+04  7.503282E+04  1.734652E+04  7.527490E+04 -1.415104E-10 -1.619550E-10
       369  11  9.526361E+04  5.581939E+04  2.771683E+04  5.789846E+04 -5.708449E-11  7.482459E-12
       369  12  1.176539E+05  5.923609E+04  5.368395E+04  3.248848E+04  1.312074E-10  1.861899E-10
       369  13  7.630290E+04  6.650762E+04  1.533358E+04  6.958485E+04 -6.448480E-11  4.097396E-11
       369  14  7.875203E+04  7.074970E+04  2.798317E+04  6.189130E+04  6.889717E-12  1.033522E-10
       369  15  9.386039E+04  9.773646E+04  5.669524E+04  4.616420E+04  5.894153E-11  1.172807E-10
       369  16  6.718892E+04  5.798267E+04  1.332070E+04  6.389502E+04  3.981182E-11  1.424765E-10
       369  17  6.224149E+04  8.568056E+04  2.824966E+04  6.588387E+04 -1.356277E-10  1.026489E-10
       369  18  7.006980E+04  1.362404E+05  5.970708E+04  5.983905E+04 -1.100222E-10 -4.900291E-11
       369  19  8.541727E+04  7.503292E+04  1.734683E+04  7.527496E+04  9.436229E+03  8.653672E+03
       369  20  9.526415E+04  5.581979E+04  2.771814E+04  5.789873E+04  2.086414E+04  1.625176E+04
       369  21  1.176552E+05  5.923699E+04  5.368698E+04  3.248911E+04  3.208249E+04  2.412862E+04
       369  22  7.630299E+04  6.650770E+04  1.533381E+04  6.958490E+04  7.974485E+03  7.557484E+03
       369  23  7.875252E+04  7.075007E+04  2.798437E+04  6.189155E+04  1.993908E+04  1.555893E+04
       369  24  9.386162E+04  9.773734E+04  5.669819E+04  4.616481E+04  3.169387E+04  2.383992E+04
       369  25  6.718898E+04  5.798273E+04  1.332086E+04  6.389505E+04  6.512793E+03  6.461346E+03
       369  26  6.224194E+04  8.568090E+04  2.825076E+04  6.588409E+04  1.901407E+04  1.486607E+04
       369  27  7.007100E+04  1.362413E+05  5.970996E+04  5.983964E+04  3.130528E+04  2.355118E+04
       370   1  3.332525E+05  7.557928E+04  7.137899E+04  6.192605E+04  2.015600E+04 -3.831265E+03
       370   2  2.751653E+05  6.187306E+04  4.855856E+04  5.787260E+04  6.940538E+03 -1.216005E+04
       370   3  2.189085E+05  4.855934E+04  3.443792E+04  6.468355E+04 -6.272259E+03 -1.299962E+04
       370   4  1.061950E+04 -4.105027E+03 -4.475087E+03  6.459530E+04 -3.033767E+03 -3.830830E+03
       370   5  1.095948E+04 -1.127002E+03 -2.281544E+03  5.916294E+04 -1.863005E+03 -1.216061E+04
       370   6  1.062932E+04 -2.534465E+02 -1.375764E+03  6.459529E+04 -6.910773E+02 -1.299966E+04
       370   7 -3.119165E+05 -8.379644E+04 -8.033429E+04  6.726316E+04 -2.621156E+04 -3.830594E+03
       370   8 -2.531790E+05 -6.413116E+04 -5.312458E+04  6.045271E+04 -1.066289E+04 -1.216121E+04
       370   9 -1.976072E+05 -4.906853E+04 -3.719080E+04  6.450705E+04  4.888291E+03 -1.299970E+04
       370  10  3.332521E+05  7.557915E+04  7.137820E+04  6.192611E+04  2.968028E-11  1.707817E-11
       370  11  2.751652E+05  6.187289E+04  4.855819E+04  5.787267E+04  1.418073E-10  1.159234E-10
       370  12  2.189084E+05  4.855914E+04  3.443753E+04  6.468349E+04  2.804171E-10  1.428605E-10
       370  13  1.061949E+04 -4.105045E+03 -4.475132E+03  6.459529E+04 -3.613673E-12 -1.981435E-11
       370  14  1.095943E+04 -1.127162E+03 -2.281828E+03  5.916292E+04  2.461966E-10  4.855553E-11
       370  15  1.062928E+04 -2.536281E+02 -1.376082E+03  6.459528E+04  8.857617E-11 -5.984873E-11
       370  16 -3.119173E+05 -8.379664E+04 -8.033561E+04  6.726307E+04  8.215969E-11 -5.952741E-11
       370  17 -2.531792E+05 -6.413134E+04 -5.312507E+04  6.045260E+04 -3.256228E-12 -1.974695E-11
       370  18 -1.976073E+05 -4.906872E+04 -3.719117E+04  6.450710E+04 -1.959891E-10 -2.434837E-12
       370  19  3.332525E+05  7.557928E+04  7.137899E+04  6.192605E+04 -2.015600E+04  3.831265E+03
       370  20  2.751653E+05  6.187306E+04  4.855856E+04  5.787260E+04 -6.940538E+03  1.216005E+04
       370  21  2.189085E+05  4.855934E+04  3.443792E+04  6.468355E+04  6.272259E+03  1.299962E+04
       370  22  1.061950E+04 -4.105027E+03 -4.475087E+03  6.459530E+04  3.033767E+03  3.830830E+03
       370  23  1.095948E+04 -1.127002E+03 -2.281544E+03  5.916294E+04  1.863005E+03  1.216061E+04
       370  24  1.062932E+04 -2.534465E+02 -1.375764E+03  6.459529E+04  6.910773E+02  1.299966E+04
       370  25 -3.119165E+05 -8.379644E+04 -8.033429E+04  6.726316E+04  2.621156E+04  3.830594E+03
       370  26 -2.531790E+05 -6.413116E+04 -5.312458E+04  6.045271E+04  1.066289E+04  1.216121E+04
       370  27 -1.976072E+05 -4.906853E+04 -3.719080E+04  6.450705E+04 -4.888291E+03  1.299970E+04
       371   1  1.822852E+05  3.987934E+04  2.788294E+04  6.457630E+04 -5.714617E+03 -1.107738E+04
       371   2  1.250998E+05  2.653217E+04  1.764185E+04  5.895174E+04 -6.650748E+03 -7.996581E+03
       371   3  6.805878E+04  1.325678E+04  8.028246E+03  6.470588E+04 -7.587044E+03 -4.186317E+03
       371   4  1.075835E+04 -2.281176E+02 -1.147730E+03  6.470951E+04 -4.984255E+02 -1.107723E+04
       371   5  1.081114E+04 -3.866665E+01 -9.331500E+02  5.902008E+04 -3.399269E+01 -7.996088E+03
       371   6  1.076272E+04 -2.020155E+01 -1.063427E+03  6.470949E+04  4.302149E+02 -4.185405E+03
       371   7 -1.607394E+05 -4.033712E+04 -3.017925E+04  6.484267E+04  4.716372E+03 -1.107708E+04
       371   8 -1.034645E+05 -2.661014E+04 -1.950835E+04  5.908840E+04  6.581588E+03 -7.995594E+03
       371   9 -4.652995E+04 -1.329732E+04 -1.015494E+04  6.471311E+04  8.446761E+03 -4.184494E+03
       371  10  1.822851E+05  3.987920E+04  2.788265E+04  6.457625E+04  2.035550E-10  1.302375E-11
       371  11  1.250998E+05  2.653209E+04  1.764165E+04  5.895170E+04  2.769803E-11 -8.710551E-11
       371  12  6.805872E+04  1.325675E+04  8.028105E+03  6.470585E+04  6.296872E-11 -2.011160E-11
       371  13  1.075832E+04 -2.282494E+02 -1.147961E+03  6.470950E+04  1.211125E-10  2.243008E-11
       371  14  1.081112E+04 -3.873531E+01 -9.332701E+02  5.902008E+04  2.044471E-10  6.506538E-11
       371  15  1.076271E+04 -2.022041E+01 -1.063460E+03  6.470949E+04 -3.342410E-11  5.588556E-11
       371  16 -1.607395E+05 -4.033725E+04 -3.017952E+04  6.484271E+04 -1.242104E-10  1.340166E-11
       371  17 -1.034646E+05 -2.661022E+04 -1.950855E+04  5.908845E+04 -4.760134E-12  6.207974E-11
       371  18 -4.653003E+04 -1.329735E+04 -1.015511E+04  6.471314E+04 -8.531336E-11  7.507334E-11
       371  19  1.822852E+05  3.987934E+04  2.788294E+04  6.457630E+04  5.714617E+03  1.107738E+04
       371  20  1.250998E+05  2.653217E+04  1.764185E+04  5.895174E+04  6.650748E+03  7.996581E+03
       371  21  6.805878E+04  1.325678E+04  8.028246E+03  6.470588E+04  7.587044E+03  4.186317E+03
       371  22  1.075835E+04 -2.281176E+02 -1.147730E+03  6.470951E+04  4.984255E+02  1.107723E+04
       371  23  1.081114E+04 -3.866665E+01 -9.331500E+02  5.902008E+04  3.399269E+01  7.996088E+03
       371  24  1.076272E+04 -2.020155E+01 -1.063427E+03  6.470949E+04 -4.302149E+02  4.185405E+03
       371  25 -1.607394E+05 -4.033712E+04 -3.017925E+04  6.484267E+04 -4.716372E+03  1.107708E+04
       371  26 -1.034645E+05 -2.661014E+04 -1.950835E+04  5.908840E+04 -6.581588E+03  7.995594E+03
       371  27 -4.652995E+04 -1.329732E+04 -1.015494E+04  6.471311E+04 -8.446761E+03  4.184494E+03
       372   1  3.163206E+04  4.782666E+03  1.847498E+03  6.462112E+04 -7.378562E+03 -1.704440E+03
       372   2 -2.525921E+04 -8.657568E+03 -8.228524E+03  5.917951E+04 -5.389758E+03  2.202813E+03
       372   3 -8.258100E+04 -2.279918E+04 -1.977481E+04  6.512894E+04 -3.401066E+03  5.582427E+03
       372   4  1.072846E+04 -1.719464E+01 -1.248935E+03  6.471219E+04  6.294976E+02 -1.703470E+03
       372   5  1.085667E+04 -1.794033E+02 -1.953770E+03  5.901673E+04  1.604991E+03  2.203583E+03
       372   6  1.072710E+04 -8.669098E+02 -3.425227E+03  6.471227E+04  2.580546E+03  5.583015E+03
       372   7 -1.017456E+04 -4.817041E+03 -4.345136E+03  6.480326E+04  8.637298E+03 -1.702498E+03
       372   8  4.697393E+04  8.298717E+03  4.321121E+03  5.885394E+04  8.600136E+03  2.204350E+03
       372   9  1.040438E+05  2.106491E+04  1.292418E+04  6.429554E+04  8.563030E+03  5.583595E+03
       372  10  3.163200E+04  4.782648E+03  1.847391E+03  6.462111E+04  2.206228E-10  4.382760E-11
       372  11 -2.525925E+04 -8.657581E+03 -8.228588E+03  5.917952E+04 -1.148782E-10 -6.096142E-11
       372  12 -8.258102E+04 -2.279922E+04 -1.977489E+04  6.512895E+04 -1.308703E-10  1.161474E-10
       372  13  1.072846E+04 -1.719787E+01 -1.248941E+03  6.471219E+04 -5.941653E-11 -3.213030E-11
       372  14  1.085666E+04 -1.794092E+02 -1.953784E+03  5.901673E+04  6.663761E-11 -6.989596E-11
       372  15  1.072709E+04 -8.669451E+02 -3.425298E+03  6.471226E+04  6.108211E-12  6.911692E-11
       372  16 -1.017464E+04 -4.817064E+03 -4.345281E+03  6.480328E+04 -1.578455E-10  3.426437E-11
       372  17  4.697385E+04  8.298692E+03  4.320973E+03  5.885392E+04  1.623794E-10 -2.629278E-11
       372  18  1.040437E+05  2.106485E+04  1.292398E+04  6.429550E+04  2.959811E-10  4.022578E-11
       372  19  3.163206E+04  4.782666E+03  1.847498E+03  6.462112E+04  7.378562E+03  1.704440E+03
       372  20 -2.525921E+04 -8.657568E+03 -8.228524E+03  5.917951E+04  5.389758E+03 -2.202813E+03
       372  21 -8.258100E+04 -2.279918E+04 -1.977481E+04  6.512894E+04  3.401066E+03 -5.582427E+03
       372  22  1.072846E+04 -1.719464E+01 -1.248935E+03  6.471219E+04 -6.294976E+02  1.703470E+03
       372  23  1.085667E+04 -1.794033E+02 -1.953770E+03  5.901673E+04 -1.604991E+03 -2.203583E+03
       372  24  1.072710E+04 -8.669098E+02 -3.425227E+03  6.471227E+04 -2.580546E+03 -5.583015E+03
       372  25 -1.017456E+04 -4.817041E+03 -4.345136E+03  6.480326E+04 -8.637298E+03  1.702498E+03
       372  26  4.697393E+04  8.298717E+03  4.321121E+03  5.885394E+04 -8.600136E+03 -2.204350E+03
       372  27  1.040438E+05  2.106491E+04  1.292418E+04  6.429554E+04 -8.563030E+03 -5.583595E+03
       373   1 -1.197238E+05 -3.151614E+04 -2.741447E+04  6.423780E+04 -3.094172E+03  7.659879E+03
       373   2 -1.746565E+05 -4.868310E+04 -4.467533E+04  6.385671E+04  1.217927E+04  8.039289E+03
       373   3 -2.340101E+05 -7.560807E+04 -7.431999E+04  7.447422E+04  2.745046E+04  2.652309E+03
       373   4  1.022691E+04 -9.412307E+02 -4.499758E+03  6.462519E+04  3.166849E+03  7.660361E+03
       373   5  1.147435E+04 -4.155880E+03 -8.185904E+03  5.912600E+04  7.372017E+03  8.038684E+03
       373   6  1.022002E+04 -1.520520E+04 -1.656789E+04  6.462578E+04  1.157662E+04  2.651162E+03
       373   7  1.401943E+05  2.963277E+04  1.841448E+04  6.501266E+04  9.429142E+03  7.660850E+03
       373   8  1.976385E+05  4.036935E+04  2.830195E+04  5.439384E+04  2.563350E+03  8.038152E+03
       373   9  2.545057E+05  4.519390E+04  4.118107E+04  5.477345E+04 -4.303443E+03  2.650518E+03
       373  10 -1.197239E+05 -3.151620E+04 -2.741459E+04  6.423782E+04  1.958579E-10  1.059641E-10
       373  11 -1.746567E+05 -4.868321E+04 -4.467573E+04  6.385663E+04  5.479663E-11  3.440464E-11
       373  12 -2.340109E+05 -7.560828E+04 -7.432142E+04  7.447416E+04  6.188781E-11  7.376749E-12
       373  13  1.022688E+04 -9.412964E+02 -4.499887E+03  6.462517E+04 -1.378433E-10  1.718022E-10
       373  14  1.147427E+04 -4.155964E+03 -8.186127E+03  5.912595E+04 -1.141886E-11 -2.704196E-11
       373  15  1.021988E+04 -1.520524E+04 -1.656816E+04  6.462576E+04 -9.583485E-11 -6.101797E-11
       373  16  1.401941E+05  2.963268E+04  1.841420E+04  6.501260E+04 -1.301849E-10  7.303989E-11
       373  17  1.976385E+05  4.036928E+04  2.830182E+04  5.439382E+04 -2.113151E-10  2.880287E-12
       373  18  2.545057E+05  4.519389E+04  4.118102E+04  5.477346E+04  5.615136E-11 -1.408724E-11
       373  19 -1.197238E+05 -3.151614E+04 -2.741447E+04  6.423780E+04  3.094172E+03 -7.659879E+03
       373  20 -1.746565E+05 -4.868310E+04 -4.467533E+04  6.385671E+04 -1.217927E+04 -8.039289E+03
       373  21 -2.340101E+05 -7.560807E+04 -7.431999E+04  7.447422E+04 -2.745046E+04 -2.652309E+03
       373  22  1.022691E+04 -9.412307E+02 -4.499758E+03  6.462519E+04 -3.166849E+03 -7.660361E+03
       373  23  1.147435E+04 -4.155880E+03 -8.185904E+03  5.912600E+04 -7.372017E+03 -8.038684E+03
       373  24  1.022002E+04 -1.520520E+04 -1.656789E+04  6.462578E+04 -1.157662E+04 -2.651162E+03
       373  25  1.401943E+05  2.963277E+04  1.841448E+04  6.501266E+04 -9.429142E+03 -7.660850E+03
       373  26  1.976385E+05  4.036935E+04  2.830195E+04  5.439384E+04 -2.563350E+03 -8.038152E+03
       373  27  2.545057E+05  4.519390E+04  4.118107E+04  5.477345E+04  4.303443E+03 -2.650518E+03
       374   1 -8.135950E+04 -3.246397E+05 -8.140375E+04  9.894780E+04 -2.159911E+03 -3.140976E+04
       374   2 -4.407388E+04 -2.481564E+05 -4.438850E+04  8.360370E+04 -5.987793E+03 -1.419758E+04
       374   3 -2.116789E+04 -1.775084E+05 -2.217907E+04  8.255970E+04 -4.306513E+03  3.016323E+03
       374   4 -2.433409E+04 -9.440397E+04 -2.652008E+04  8.322492E+04 -2.155454E+03 -1.876905E+04
       374   5 -6.627675E+03 -9.239800E+04 -1.292086E+04  7.607144E+04 -5.986871E+03 -1.212849E+04
       374   6 -1.462745E+03 -9.439537E+04 -6.781774E+03  8.321894E+04 -4.309309E+03 -5.488521E+03
       374   7  3.268851E+04  1.358813E+05  2.836061E+04  6.749618E+04 -2.151638E+03 -6.123669E+03
       374   8  3.081724E+04  6.338365E+04  1.854557E+04  6.853725E+04 -5.985999E+03 -1.005890E+04
       374   9  1.824205E+04 -1.127551E+04  8.615504E+03  8.387827E+04 -4.312122E+03 -1.399447E+04
       374  10 -8.135977E+04 -3.246408E+05 -8.140561E+04  9.894775E+04 -4.720896E-12 -6.653169E-11
       374  11 -4.407397E+04 -2.481566E+05 -4.438895E+04  8.360364E+04 -7.010301E-11  1.733644E-10
       374  12 -2.116792E+04 -1.775084E+05 -2.217912E+04  8.255971E+04  4.553271E-11  1.433733E-10
       374  13 -2.433419E+04 -9.440435E+04 -2.652075E+04  8.322489E+04 -1.342143E-10  2.019753E-11
       374  14 -6.627753E+03 -9.239817E+04 -1.292121E+04  7.607138E+04  1.420605E-10 -1.411460E-11
       374  15 -1.462773E+03 -9.439541E+04 -6.781866E+03  8.321892E+04  8.991253E-11  4.175694E-11
       374  16  3.268849E+04  1.358812E+05  2.836053E+04  6.749617E+04 -3.166056E-12 -3.769239E-12
       374  17  3.081718E+04  6.338353E+04  1.854531E+04  6.853720E+04  2.166942E-10 -1.639580E-10
       374  18  1.824198E+04 -1.127572E+04  8.615101E+03  8.387822E+04  1.712526E-10 -2.540587E-10
       374  19 -8.135950E+04 -3.246397E+05 -8.140375E+04  9.894780E+04  2.159911E+03  3.140976E+04
       374  20 -4.407388E+04 -2.481564E+05 -4.438850E+04  8.360370E+04  5.987793E+03  1.419758E+04
       374  21 -2.116789E+04 -1.775084E+05 -2.217907E+04  8.255970E+04  4.306513E+03 -3.016323E+03
       374  22 -2.433409E+04 -9.440397E+04 -2.652008E+04  8.322492E+04  2.155454E+03  1.876905E+04
       374  23 -6.627675E+03 -9.239800E+04 -1.292086E+04  7.607144E+04  5.986871E+03  1.212849E+04
       374  24 -1.462745E+03 -9.439537E+04 -6.781774E+03  8.321894E+04  4.309309E+03  5.488521E+03
       374  25  3.268851E+04  1.358813E+05  2.836061E+04  6.749618E+04  2.151638E+03  6.123669E+03
       374  26  3.081724E+04  6.338365E+04  1.854557E+04  6.853725E+04  5.985999E+03  1.005890E+04
       374  27  1.824205E+04 -1.127551E+04  8.615504E+03  8.387827E+04  4.312122E+03  1.399447E+04
       375   1 -9.967689E+03 -1.295658E+05 -1.199498E+04  8.389753E+04 -1.523189E+03  3.629785E+03
       375   2  8.527476E+03 -5.591782E+04  3.950484E+03  7.630142E+04  2.696176E+03  4.321595E+03
       375   3  2.649891E+04  1.750833E+04  1.931222E+04  8.333762E+04  6.740359E+03  5.013619E+03
       375   4 -1.348717E+03 -9.356816E+04 -4.899986E+03  8.329309E+04 -1.526002E+03 -4.638146E+03
       375   5 -1.770015E+02 -9.342636E+04 -2.059052E+03  7.597663E+04  2.693583E+03 -3.610319E+03
       375   6  4.129351E+02 -9.356985E+04 -3.506335E+01  8.329256E+04  6.737972E+03 -2.582353E+03
       375   7  7.270215E+03 -5.756915E+04  2.195198E+03  8.268862E+04 -1.528797E+03 -1.290655E+04
       375   8 -8.881516E+03 -1.309334E+05 -8.068389E+03  7.565185E+04  2.690997E+03 -1.154177E+04
       375   9 -2.567367E+04 -2.046358E+05 -1.938257E+04  8.324751E+04  6.735585E+03 -1.017701E+04
       375  10 -9.967695E+03 -1.295658E+05 -1.199500E+04  8.389753E+04  2.084115E-10 -2.620818E-10
       375  11  8.527463E+03 -5.591784E+04  3.950436E+03  7.630141E+04 -8.283803E-11  8.416994E-11
       375  12  2.649885E+04  1.750829E+04  1.931209E+04  8.333760E+04  1.155269E-10  1.827553E-10
       375  13 -1.348725E+03 -9.356819E+04 -4.900030E+03  8.329309E+04  7.195345E-11 -3.050912E-11
       375  14 -1.770128E+02 -9.342638E+04 -2.059090E+03  7.597664E+04 -3.437353E-10  7.319564E-12
       375  15  4.128845E+02 -9.356987E+04 -3.516121E+01  8.329258E+04 -1.214993E-10  1.351479E-10
       375  16  7.270168E+03 -5.756932E+04  2.194881E+03  8.268860E+04  3.896306E-12  1.688258E-10
       375  17 -8.881559E+03 -1.309335E+05 -8.068653E+03  7.565188E+04  2.623087E-10 -1.581610E-10
       375  18 -2.567375E+04 -2.046359E+05 -1.938285E+04  8.324757E+04  4.811582E-11 -2.886114E-10
       375  19 -9.967689E+03 -1.295658E+05 -1.199498E+04  8.389753E+04  1.523189E+03 -3.629785E+03
       375  20  8.527476E+03 -5.591782E+04  3.950484E+03  7.630142E+04 -2.696176E+03 -4.321595E+03
       375  21  2.649891E+04  1.750833E+04  1.931222E+04  8.333762E+04 -6.740359E+03 -5.013619E+03
       375  22 -1.348717E+03 -9.356816E+04 -4.899986E+03  8.329309E+04  1.526002E+03  4.638146E+03
       375  23 -1.770015E+02 -9.342636E+04 -2.059052E+03  7.597663E+04 -2.693583E+03  3.610319E+03
       375  24  4.129351E+02 -9.356985E+04 -3.506335E+01  8.329256E+04 -6.737972E+03  2.582353E+03
       375  25  7.270215E+03 -5.756915E+04  2.195198E+03  8.268862E+04  1.528797E+03  1.290655E+04
       375  26 -8.881516E+03 -1.309334E+05 -8.068389E+03  7.565185E+04 -2.690997E+03  1.154177E+04
       375  27 -2.567367E+04 -2.046358E+05 -1.938257E+04  8.324751E+04 -6.735585E+03  1.017701E+04
       376   1  3.766188E+04  6.502714E+04  2.874299E+04  8.297734E+04  9.388906E+03  5.308623E+03
       376   2  5.715199E+04  1.368550E+05  4.851949E+04  7.827944E+04  9.921078E+03 -1.015730E+04
       376   3  8.264232E+04  2.122004E+05  7.986335E+04  8.775519E+04  3.275046E+03 -2.562438E+04
       376   4  4.367763E+02 -9.325962E+04  9.049310E+02  8.319079E+04  9.386619E+03 -2.613900E+03
       376   5  1.963416E+03 -9.382575E+04  3.255876E+03  7.610313E+04  9.923014E+03 -4.294439E+03
       376   6  7.098883E+03 -9.327040E+04  7.602587E+03  8.318917E+04  3.280098E+03 -5.974394E+03
       376   7 -3.678966E+04 -2.515217E+05 -2.693380E+04  8.340418E+04  9.384326E+03 -1.053446E+04
       376   8 -5.322833E+04 -3.244554E+05 -4.201018E+04  7.392763E+04  9.924910E+03  1.566293E+03
       376   9 -6.845096E+04 -3.986546E+05 -6.466318E+04  7.862539E+04  3.284862E+03  1.366598E+04
       376  10  3.766178E+04  6.502709E+04  2.874277E+04  8.297730E+04  1.032761E-10 -1.830178E-11
       376  11  5.715186E+04  1.368548E+05  4.851911E+04  7.827952E+04  9.891106E-11 -1.959116E-11
       376  12  8.264214E+04  2.121997E+05  7.986209E+04  8.775526E+04  7.482391E-11 -1.105329E-10
       376  13  4.366799E+02 -9.325965E+04  9.047526E+02  8.319081E+04  1.042941E-10 -5.080794E-11
       376  14  1.963305E+03 -9.382580E+04  3.255656E+03  7.610316E+04 -8.650130E-11  6.762207E-11
       376  15  7.098862E+03 -9.327044E+04  7.602500E+03  8.318918E+04 -3.737900E-11 -2.114256E-11
       376  16 -3.678979E+04 -2.515219E+05 -2.693418E+04  8.340426E+04 -6.672436E-11  4.671178E-11
       376  17 -5.322844E+04 -3.244554E+05 -4.201037E+04  7.392762E+04  1.516600E-11  1.588619E-10
       376  18 -6.845103E+04 -3.986548E+05 -6.466355E+04  7.862535E+04  5.689005E-11  8.436644E-11
       376  19  3.766188E+04  6.502714E+04  2.874299E+04  8.297734E+04 -9.388906E+03 -5.308623E+03
       376  20  5.715199E+04  1.368550E+05  4.851949E+04  7.827944E+04 -9.921078E+03  1.015730E+04
       376  21  8.264232E+04  2.122004E+05  7.986335E+04  8.775519E+04 -3.275046E+03  2.562438E+04
       376  22  4.367763E+02 -9.325962E+04  9.049310E+02  8.319079E+04 -9.386619E+03  2.613900E+03
       376  23  1.963416E+03 -9.382575E+04  3.255876E+03  7.610313E+04 -9.923014E+03  4.294439E+03
       376  24  7.098883E+03 -9.327040E+04  7.602587E+03  8.318917E+04 -3.280098E+03  5.974394E+03
       376  25 -3.678966E+04 -2.515217E+05 -2.693380E+04  8.340418E+04 -9.384326E+03  1.053446E+04
       376  26 -5.322833E+04 -3.244554E+05 -4.201018E+04  7.392763E+04 -9.924910E+03 -1.566293E+03
       376  27 -6.845096E+04 -3.986546E+05 -6.466318E+04  7.862539E+04 -3.284862E+03 -1.366598E+04
       377   1  1.927319E+05  1.797629E+05  6.132439E+04  1.301880E+05  2.911666E+04  2.015688E+04
       377   2  1.883931E+05  1.460699E+05  3.599009E+04  1.356639E+05  1.981665E+04  9.171734E+03
       377   3  1.940973E+05  1.280383E+05  2.456353E+04  1.354488E+05  9.215326E+03 -7.780404E+01
       377   4  1.445049E+05  1.075534E+05  3.885228E+04  8.876297E+04  2.251776E+04  1.520733E+04
       377   5  1.338292E+05  8.938407E+04  1.920628E+04  9.963282E+04  1.655106E+04  6.722545E+03
       377   6  1.324742E+05  8.615369E+04  1.057598E+04  1.048114E+05  9.283285E+03 -2.691854E+01
       377   7  9.628019E+04  3.535039E+04  1.637959E+04  4.734223E+04  1.591938E+04  1.025894E+04
       377   8  7.926887E+04  3.270273E+04  2.422253E+03  6.360613E+04  1.328584E+04  4.273818E+03
       377   9  7.085680E+04  4.427209E+04 -3.411361E+03  7.417806E+04  9.351233E+03  2.395945E+01
       377  10  1.927309E+05  1.797623E+05  6.132204E+04  1.301875E+05  1.203415E-10  6.892192E-11
       377  11  1.883927E+05  1.460697E+05  3.598919E+04  1.356637E+05  1.016538E-10 -1.353082E-10
       377  12  1.940972E+05  1.280383E+05  2.456337E+04  1.354488E+05 -3.231645E-10 -3.969150E-11
       377  13  1.445043E+05  1.075530E+05  3.885089E+04  8.876270E+04  7.496162E-11 -6.523794E-11
       377  14  1.338289E+05  8.938394E+04  1.920568E+04  9.963273E+04  4.205200E-11 -6.641661E-11
       377  15  1.324741E+05  8.615367E+04  1.057582E+04  1.048114E+05 -1.632278E-10  8.547775E-11
       377  16  9.627989E+04  3.535021E+04  1.637891E+04  4.734210E+04 -1.496191E-10 -1.260795E-10
       377  17  7.926867E+04  3.270266E+04  2.421887E+03  6.360608E+04 -9.382359E-11 -1.036470E-10
       377  18  7.085670E+04  4.427207E+04 -3.411526E+03  7.417806E+04  1.182065E-10  1.315109E-10
       377  19  1.927319E+05  1.797629E+05  6.132439E+04  1.301880E+05 -2.911666E+04 -2.015688E+04
       377  20  1.883931E+05  1.460699E+05  3.599009E+04  1.356639E+05 -1.981665E+04 -9.171734E+03
       377  21  1.940973E+05  1.280383E+05  2.456353E+04  1.354488E+05 -9.215326E+03  7.780404E+01
       377  22  1.445049E+05  1.075534E+05  3.885228E+04  8.876297E+04 -2.251776E+04 -1.520733E+04
       377  23  1.338292E+05  8.938407E+04  1.920628E+04  9.963282E+04 -1.655106E+04 -6.722545E+03
       377  24  1.324742E+05  8.615369E+04  1.057598E+04  1.048114E+05 -9.283285E+03  2.691854E+01
       377  25  9.628019E+04  3.535039E+04  1.637959E+04  4.734223E+04 -1.591938E+04 -1.025894E+04
       377  26  7.926887E+04  3.270273E+04  2.422253E+03  6.360613E+04 -1.328584E+04 -4.273818E+03
       377  27  7.085680E+04  4.427209E+04 -3.411361E+03  7.417806E+04 -9.351233E+03 -2.395945E+01
       378   1  1.884271E+05  1.272040E+05  2.112905E+04  1.339998E+05  8.139992E+03 -7.692835E+02
       378   2  1.841767E+05  1.216029E+05  1.623951E+04  1.319877E+05  5.872331E+03 -2.339601E+03
       378   3  1.796299E+05  1.182762E+05  1.346779E+04  1.300321E+05  3.466654E+03 -3.725844E+03
       378   4  1.316316E+05  8.565509E+04  8.063613E+03  1.043400E+05  8.122806E+03 -7.822638E+02
       378   5  1.314552E+05  8.391010E+04  4.634760E+03  1.047965E+05  6.208912E+03 -2.087284E+03
       378   6  1.309055E+05  8.436311E+04  3.016939E+03  1.053096E+05  4.156955E+03 -3.208249E+03
       378   7  7.483984E+04  4.410830E+04 -5.002027E+03  7.468329E+04  8.105623E+03 -7.952426E+02
       378   8  7.873629E+04  4.621872E+04 -6.970329E+03  7.760769E+04  6.545460E+03 -1.834993E+03
       378   9  8.218292E+04  5.045069E+04 -7.434373E+03  8.058879E+04  4.847198E+03 -2.690697E+03
       378  10  1.884270E+05  1.272040E+05  2.112893E+04  1.339998E+05 -2.449644E-10  1.389388E-10
       378  11  1.841767E+05  1.216028E+05  1.623944E+04  1.319877E+05  6.602706E-11  5.837393E-11
       378  12  1.796299E+05  1.182762E+05  1.346774E+04  1.300321E+05  1.774340E-10  1.475789E-10
       378  13  1.316315E+05  8.565507E+04  8.063488E+03  1.043400E+05 -7.100563E-11  1.626595E-10
       378  14  1.314551E+05  8.391008E+04  4.634679E+03  1.047965E+05  1.809612E-12  4.344924E-11
       378  15  1.309055E+05  8.436309E+04  3.016887E+03  1.053096E+05  1.119416E-10  2.405408E-11
       378  16  7.483977E+04  4.410828E+04 -5.002151E+03  7.468330E+04 -3.320240E-11  6.316387E-11
       378  17  7.873624E+04  4.621870E+04 -6.970416E+03  7.760770E+04 -7.392489E-11  4.596699E-11
       378  18  8.218289E+04  5.045068E+04 -7.434431E+03  8.058880E+04 -1.092661E-10 -1.476239E-10
       378  19  1.884271E+05  1.272040E+05  2.112905E+04  1.339998E+05 -8.139992E+03  7.692835E+02
       378  20  1.841767E+05  1.216029E+05  1.623951E+04  1.319877E+05 -5.872331E+03  2.339601E+03
       378  21  1.796299E+05  1.182762E+05  1.346779E+04  1.300321E+05 -3.466654E+03  3.725844E+03
       378  22  1.316316E+05  8.565509E+04  8.063613E+03  1.043400E+05 -8.122806E+03  7.822638E+02
       378  23  1.314552E+05  8.391010E+04  4.634760E+03  1.047965E+05 -6.208912E+03  2.087284E+03
       378  24  1.309055E+05  8.436311E+04  3.016939E+03  1.053096E+05 -4.156955E+03  3.208249E+03
       378  25  7.483984E+04  4.410830E+04 -5.002027E+03  7.468329E+04 -8.105623E+03  7.952426E+02
       378  26  7.873629E+04  4.621872E+04 -6.970329E+03  7.760769E+04 -6.545460E+03  1.834993E+03
       378  27  8.218292E+04  5.045069E+04 -7.434373E+03  8.058879E+04 -4.847198E+03  2.690697E+03
       379   1  1.764772E+05  1.163671E+05  1.238745E+04  1.285558E+05  2.922477E+03 -3.798618E+03
       379   2  1.723962E+05  1.124832E+05  1.114188E+04  1.260427E+05  1.664929E+03 -4.170205E+03
       379   3  1.672985E+05  1.100036E+05  1.074172E+04  1.238952E+05  3.906160E+02 -4.519393E+03
       379   4  1.308438E+05  8.433354E+04  2.608555E+03  1.052661E+05  3.603473E+03 -3.287987E+03
       379   5  1.313609E+05  8.364280E+04  2.372166E+03  1.050785E+05  2.388983E+03 -3.627269E+03
       379   6  1.308517E+05  8.434701E+04  2.943840E+03  1.052565E+05  1.157705E+03 -3.944164E+03
       379   7  8.521394E+04  5.230202E+04 -7.170099E+03  8.197883E+04  4.284388E+03 -2.777417E+03
       379   8  9.032801E+04  5.480381E+04 -6.397463E+03  8.411615E+04  3.112965E+03 -3.084387E+03
       379   9  9.440648E+04  5.869128E+04 -4.854088E+03  8.661902E+04  1.924734E+03 -3.368980E+03
       379  10  1.764771E+05  1.163670E+05  1.238741E+04  1.285558E+05 -9.807308E-11 -1.086572E-10
       379  11  1.723962E+05  1.124832E+05  1.114184E+04  1.260427E+05 -8.738754E-12  3.050851E-11
       379  12  1.672985E+05  1.100036E+05  1.074168E+04  1.238952E+05  2.204804E-11  1.284450E-10
       379  13  1.308438E+05  8.433353E+04  2.608511E+03  1.052661E+05 -4.286817E-11 -5.060613E-12
       379  14  1.313609E+05  8.364278E+04  2.372131E+03  1.050785E+05  5.730332E-11  3.364976E-12
       379  15  1.308517E+05  8.434699E+04  2.943808E+03  1.052565E+05  9.830751E-12 -5.240369E-11
       379  16  8.521392E+04  5.230201E+04 -7.170148E+03  8.197884E+04  1.468406E-10  4.342957E-11
       379  17  9.032800E+04  5.480380E+04 -6.397499E+03  8.411616E+04  2.006363E-10  1.069034E-10
       379  18  9.440647E+04  5.869127E+04 -4.854117E+03  8.661902E+04  3.903005E-11 -6.958642E-11
       379  19  1.764772E+05  1.163671E+05  1.238745E+04  1.285558E+05 -2.922477E+03  3.798618E+03
       379  20  1.723962E+05  1.124832E+05  1.114188E+04  1.260427E+05 -1.664929E+03  4.170205E+03
       379  21  1.672985E+05  1.100036E+05  1.074172E+04  1.238952E+05 -3.906160E+02  4.519393E+03
       379  22  1.308438E+05  8.433354E+04  2.608555E+03  1.052661E+05 -3.603473E+03  3.287987E+03
       379  23  1.313609E+05  8.364280E+04  2.372166E+03  1.050785E+05 -2.388983E+03  3.627269E+03
       379  24  1.308517E+05  8.434701E+04  2.943840E+03  1.052565E+05 -1.157705E+03  3.944164E+03
       379  25  8.521394E+04  5.230202E+04 -7.170099E+03  8.197883E+04 -4.284388E+03  2.777417E+03
       379  26  9.032801E+04  5.480381E+04 -6.397463E+03  8.411615E+04 -3.112965E+03  3.084387E+03
       379  27  9.440648E+04  5.869128E+04 -4.854088E+03  8.661902E+04 -1.924734E+03  3.368980E+03
       380   1  1.642617E+05  1.082131E+05  1.070595E+04  1.225369E+05 -2.324099E+02 -4.624604E+03
       380   2  1.609654E+05  1.038660E+05  1.194290E+04  1.193858E+05 -2.886415E+03 -5.969380E+03
       380   3  1.575041E+05  1.020080E+05  1.547551E+04  1.162134E+05 -5.563173E+03 -7.283905E+03
       380   4  1.309297E+05  8.439041E+04  3.549986E+03  1.053184E+05  5.322071E+02 -4.051215E+03
       380   5  1.314780E+05  8.396964E+04  5.720922E+03  1.047157E+05 -2.063550E+03 -5.352295E+03
       380   6  1.318488E+05  8.602541E+04  1.013708E+04  1.040917E+05 -4.682028E+03 -6.623116E+03
       380   7  9.759829E+04  6.056794E+04 -3.606256E+03  8.810068E+04  1.296785E+03 -3.477855E+03
       380   8  1.019916E+05  6.407379E+04 -5.010911E+02  9.004643E+04 -1.240737E+03 -4.735248E+03
       380   9  1.061949E+05  7.004348E+04  4.798810E+03  9.197081E+04 -3.800950E+03 -5.962371E+03
       380  10  1.642617E+05  1.082131E+05  1.070591E+04  1.225369E+05 -1.378562E-10  2.579963E-11
       380  11  1.609654E+05  1.038659E+05  1.194282E+04  1.193858E+05  1.099867E-10  2.943594E-11
       380  12  1.575041E+05  1.020079E+05  1.547535E+04  1.162133E+05  1.561639E-10 -4.200427E-13
       380  13  1.309297E+05  8.439040E+04  3.549955E+03  1.053184E+05  3.973036E-11  1.148401E-11
       380  14  1.314780E+05  8.396960E+04  5.720860E+03  1.047157E+05  1.073141E-10 -5.250785E-11
       380  15  1.318488E+05  8.602536E+04  1.013696E+04  1.040917E+05  2.894651E-11 -1.668407E-10
       380  16  9.759829E+04  6.056792E+04 -3.606282E+03  8.810068E+04 -5.198070E-11 -4.510045E-11
       380  17  1.019916E+05  6.407377E+04 -5.011361E+02  9.004642E+04 -6.002470E-11 -1.380351E-10
       380  18  1.061949E+05  7.004344E+04  4.798716E+03  9.197079E+04 -2.482813E-11 -1.766086E-10
       380  19  1.642617E+05  1.082131E+05  1.070595E+04  1.225369E+05  2.324099E+02  4.624604E+03
       380  20  1.609654E+05  1.038660E+05  1.194290E+04  1.193858E+05  2.886415E+03  5.969380E+03
       380  21  1.575041E+05  1.020080E+05  1.547551E+04  1.162134E+05  5.563173E+03  7.283905E+03
       380  22  1.309297E+05  8.439041E+04  3.549986E+03  1.053184E+05 -5.322071E+02  4.051215E+03
       380  23  1.314780E+05  8.396964E+04  5.720922E+03  1.047157E+05  2.063550E+03  5.352295E+03
       380  24  1.318488E+05  8.602541E+04  1.013708E+04  1.040917E+05  4.682028E+03  6.623116E+03
       380  25  9.759829E+04  6.056794E+04 -3.606256E+03  8.810068E+04 -1.296785E+03  3.477855E+03
       380  26  1.019916E+05  6.407379E+04 -5.010911E+02  9.004643E+04  1.240737E+03  4.735248E+03
       380  27  1.061949E+05  7.004348E+04  4.798810E+03  9.197081E+04  3.800950E+03  5.962371E+03
       381   1  1.533518E+05  1.029475E+05  1.808382E+04  1.160165E+05 -7.131466E+03 -8.061887E+03
       381   2  1.650509E+05  8.928830E+04  2.838375E+04  1.028243E+05 -1.807784E+04 -1.535603E+04
       381   3  1.887806E+05  9.457666E+04  5.308631E+04  8.238500E+04 -2.922497E+04 -2.238243E+04
       381   4  1.328737E+05  8.670351E+04  1.334603E+04  1.047043E+05 -6.263693E+03 -7.411075E+03
       381   5  1.345421E+05  9.084860E+04  2.432206E+04  9.815436E+04 -1.669616E+04 -1.432049E+04
       381   6  1.481291E+05  1.138296E+05  4.925502E+04  8.435716E+04 -2.732918E+04 -2.096279E+04
       381   7  1.123961E+05  7.045985E+04  8.608213E+03  9.339262E+04 -5.395957E+03 -6.760295E+03
       381   8  1.040343E+05  9.240918E+04  2.026040E+04  9.348436E+04 -1.531457E+04 -1.328491E+04
       381   9  1.074801E+05  1.330850E+05  4.542412E+04  8.632862E+04 -2.543354E+04 -1.954298E+04
       381  10  1.533517E+05  1.029474E+05  1.808360E+04  1.160164E+05 -4.906964E-11 -1.188766E-11
       381  11  1.650505E+05  8.928796E+04  2.838269E+04  1.028241E+05  7.961044E-11  3.059063E-11
       381  12  1.887796E+05  9.457589E+04  5.308376E+04  8.238447E+04  2.837799E-11  5.366721E-11
       381  13  1.328737E+05  8.670344E+04  1.334585E+04  1.047043E+05 -1.713238E-11 -3.649467E-11
       381  14  1.345417E+05  9.084830E+04  2.432115E+04  9.815417E+04  1.775951E-10  2.920102E-11
       381  15  1.481282E+05  1.138289E+05  4.925280E+04  8.435670E+04 -7.332359E-11 -2.013372E-11
       381  16  1.123961E+05  7.045979E+04  8.608072E+03  9.339259E+04  1.108415E-10 -3.354402E-11
       381  17  1.040340E+05  9.240893E+04  2.025963E+04  9.348419E+04 -2.369252E-11 -7.306807E-11
       381  18  1.074793E+05  1.330844E+05  4.542218E+04  8.632822E+04 -2.624691E-11 -4.162789E-11
       381  19  1.533518E+05  1.029475E+05  1.808382E+04  1.160165E+05  7.131466E+03  8.061887E+03
       381  20  1.650509E+05  8.928830E+04  2.838375E+04  1.028243E+05  1.807784E+04  1.535603E+04
       381  21  1.887806E+05  9.457666E+04  5.308631E+04  8.238500E+04  2.922497E+04  2.238243E+04
       381  22  1.328737E+05  8.670351E+04  1.334603E+04  1.047043E+05  6.263693E+03  7.411075E+03
       381  23  1.345421E+05  9.084860E+04  2.432206E+04  9.815436E+04  1.669616E+04  1.432049E+04
       381  24  1.481291E+05  1.138296E+05  4.925502E+04  8.435716E+04  2.732918E+04  2.096279E+04
       381  25  1.123961E+05  7.045985E+04  8.608213E+03  9.339262E+04  5.395957E+03  6.760295E+03
       381  26  1.040343E+05  9.240918E+04  2.026040E+04  9.348436E+04  1.531457E+04  1.328491E+04
       381  27  1.074801E+05  1.330850E+05  4.542412E+04  8.632862E+04  2.543354E+04  1.954298E+04
       382   1  4.511689E+05  8.575634E+04  8.353624E+04  7.153778E+04  3.077139E+04 -3.415466E+03
       382   2  3.932598E+05  6.007447E+04  5.284679E+04  6.175559E+04  1.397030E+04 -1.074640E+04
       382   3  3.398272E+05  4.352554E+04  3.537398E+04  6.259119E+04 -2.828745E+03 -1.124271E+04
       382   4  1.577370E+05  1.327835E+04  1.447485E+04  6.291467E+04  1.012325E+04 -3.416825E+03
       382   5  1.566431E+05  3.625592E+03  7.145920E+03  5.760621E+04  6.453826E+03 -1.074738E+04
       382   6  1.577466E+05  8.292669E+02  3.920079E+03  6.291539E+04  2.784974E+03 -1.124236E+04
       382   7 -1.356146E+05 -5.920528E+04 -5.459082E+04  5.429565E+04 -1.051520E+04 -3.417611E+03
       382   8 -7.991964E+04 -5.282652E+04 -3.855733E+04  5.345845E+04 -1.059850E+03 -1.074827E+04
       382   9 -2.430146E+04 -4.186878E+04 -2.753485E+04  6.323949E+04  8.397098E+03 -1.124200E+04
       382  10  4.511679E+05  8.575607E+04  8.353444E+04  7.153786E+04 -5.079905E-11 -1.410312E-11
       382  11  3.932595E+05  6.007429E+04  5.284620E+04  6.175571E+04 -1.219182E-10 -2.229065E-11
       382  12  3.398272E+05  4.352541E+04  3.537373E+04  6.259116E+04 -1.054317E-11  1.162301E-10
       382  13  1.577369E+05  1.327831E+04  1.447464E+04  6.291469E+04  9.157734E-11 -5.327570E-11
       382  14  1.566430E+05  3.625457E+03  7.145625E+03  5.760627E+04  1.020358E-10 -9.162130E-11
       382  15  1.577466E+05  8.291291E+02  3.919827E+03  6.291541E+04 -4.929529E-11  1.863053E-11
       382  16 -1.356147E+05 -5.920532E+04 -5.459105E+04  5.429562E+04 -9.861179E-11 -3.051937E-11
       382  17 -7.991968E+04 -5.282665E+04 -3.855755E+04  5.345844E+04 -9.838457E-11 -4.955797E-11
       382  18 -2.430157E+04 -4.186893E+04 -2.753522E+04  6.323956E+04  1.451925E-10 -2.466513E-11
       382  19  4.511689E+05  8.575634E+04  8.353624E+04  7.153778E+04 -3.077139E+04  3.415466E+03
       382  20  3.932598E+05  6.007447E+04  5.284679E+04  6.175559E+04 -1.397030E+04  1.074640E+04
       382  21  3.398272E+05  4.352554E+04  3.537398E+04  6.259119E+04  2.828745E+03  1.124271E+04
       382  22  1.577370E+05  1.327835E+04  1.447485E+04  6.291467E+04 -1.012325E+04  3.416825E+03
       382  23  1.566431E+05  3.625592E+03  7.145920E+03  5.760621E+04 -6.453826E+03  1.074738E+04
       382  24  1.577466E+05  8.292669E+02  3.920079E+03  6.291539E+04 -2.784974E+03  1.124236E+04
       382  25 -1.356146E+05 -5.920528E+04 -5.459082E+04  5.429565E+04  1.051520E+04  3.417611E+03
       382  26 -7.991964E+04 -5.282652E+04 -3.855733E+04  5.345845E+04  1.059850E+03  1.074827E+04
       382  27 -2.430146E+04 -4.186878E+04 -2.753485E+04  6.323949E+04 -8.397098E+03  1.124200E+04
       383   1  3.036321E+05  3.500777E+04  2.788367E+04  6.339480E+04 -3.006766E+03 -9.330473E+03
       383   2  2.477992E+05  2.125385E+04  1.650402E+04  5.762628E+04 -5.104616E+03 -6.252600E+03
       383   3  1.924120E+05  8.177395E+03  6.658914E+03  6.293896E+04 -7.202495E+03 -2.517986E+03
       383   4  1.573101E+05  7.695159E+02  2.975624E+03  6.301845E+04  2.274369E+03 -9.329978E+03
       383   5  1.572000E+05  1.722858E+02  1.674354E+03  5.747784E+04  1.437846E+03 -6.251761E+03
       383   6  1.573136E+05  3.380375E+01  1.032053E+03  6.301855E+04  6.011176E+02 -2.516751E+03
       383   7  1.100934E+04 -3.346986E+04 -2.193302E+04  6.264218E+04  7.554299E+03 -9.329490E+03
       383   8  6.660899E+04 -2.090968E+04 -1.315539E+04  5.732944E+04  7.979387E+03 -6.250925E+03
       383   9  1.222166E+05 -8.109817E+03 -4.594612E+03  6.309812E+04  8.404305E+03 -2.515514E+03
       383  10  3.036320E+05  3.500767E+04  2.788349E+04  6.339478E+04  6.771605E-11  8.542137E-11
       383  11  2.477992E+05  2.125380E+04  1.650390E+04  5.762625E+04 -4.561053E-11 -1.266035E-10
       383  12  1.924119E+05  8.177374E+03  6.658805E+03  6.293895E+04  3.082944E-11 -6.178732E-12
       383  13  1.573101E+05  7.694210E+02  2.975451E+03  6.301846E+04 -1.618834E-11  5.116486E-11
       383  14  1.572000E+05  1.722433E+02  1.674276E+03  5.747785E+04 -9.523967E-11  8.123280E-11
       383  15  1.573136E+05  3.379685E+01  1.032040E+03  6.301855E+04 -2.172706E-11  5.580216E-11
       383  16  1.100925E+04 -3.346996E+04 -2.193329E+04  6.264224E+04  4.891715E-11  1.980206E-11
       383  17  6.660891E+04 -2.090974E+04 -1.315558E+04  5.732948E+04 -7.134696E-11  6.195554E-12
       383  18  1.222165E+05 -8.109842E+03 -4.594757E+03  6.309814E+04 -1.255549E-10  3.088224E-11
       383  19  3.036321E+05  3.500777E+04  2.788367E+04  6.339480E+04  3.006766E+03  9.330473E+03
       383  20  2.477992E+05  2.125385E+04  1.650402E+04  5.762628E+04  5.104616E+03  6.252600E+03
       383  21  1.924120E+05  8.177395E+03  6.658914E+03  6.293896E+04  7.202495E+03  2.517986E+03
       383  22  1.573101E+05  7.695159E+02  2.975624E+03  6.301845E+04 -2.274369E+03  9.329978E+03
       383  23  1.572000E+05  1.722858E+02  1.674354E+03  5.747784E+04 -1.437846E+03  6.251761E+03
       383  24  1.573136E+05  3.380375E+01  1.032053E+03  6.301855E+04 -6.011176E+02  2.516751E+03
       383  25  1.100934E+04 -3.346986E+04 -2.193302E+04  6.264218E+04 -7.554299E+03  9.329490E+03
       383  26  6.660899E+04 -2.090968E+04 -1.315539E+04  5.732944E+04 -7.979387E+03  6.250925E+03
       383  27  1.222166E+05 -8.109817E+03 -4.594612E+03  6.309812E+04 -8.404305E+03  2.515514E+03
       384   1  1.569459E+05 -7.235663E+01  6.407897E+02  6.300517E+04 -7.361216E+03 -1.019174E+02
       384   2  1.014000E+05 -1.300759E+04 -8.689271E+03  5.742042E+04 -6.606997E+03  3.676194E+03
       384   3  4.573992E+04 -2.602057E+04 -1.852990E+04  6.292259E+04 -5.852724E+03  6.887249E+03
       384   4  1.572799E+05  3.630843E+01  8.500905E+02  6.301977E+04  4.381995E+02 -1.006565E+02
       384   5  1.572434E+05  3.195158E+01  6.729979E+02  5.747635E+04  1.031589E+02  3.677159E+03
       384   6  1.572778E+05  1.388046E+02  7.412841E+02  6.301976E+04 -2.317480E+02  6.887946E+03
       384   7  1.576140E+05  1.450061E+02  1.059620E+03  6.303438E+04  8.237620E+03 -9.939524E+01
       384   8  2.130899E+05  1.307135E+04  1.003534E+04  5.753228E+04  6.813898E+03  3.678124E+03
       384   9  2.688280E+05  2.629753E+04  2.001216E+04  6.311695E+04  5.390206E+03  6.888644E+03
       384  10  1.569459E+05 -7.237118E+01  6.406878E+02  6.300517E+04  1.961676E-11 -8.627565E-11
       384  11  1.013999E+05 -1.300761E+04 -8.689378E+03  5.742044E+04 -1.927584E-11  2.725340E-11
       384  12  4.573987E+04 -2.602063E+04 -1.853005E+04  6.292262E+04  3.492287E-11  8.465433E-12
       384  13  1.572799E+05  3.630836E+01  8.500901E+02  6.301977E+04  3.082795E-11 -2.615764E-11
       384  14  1.572434E+05  3.193706E+01  6.729724E+02  5.747635E+04 -1.012484E-11 -1.952512E-10
       384  15  1.572778E+05  1.387537E+02  7.411949E+02  6.301976E+04  1.366170E-10 -6.910513E-12
       384  16  1.576139E+05  1.449879E+02  1.059492E+03  6.303438E+04  2.368484E-11 -1.183744E-11
       384  17  2.130899E+05  1.307132E+04  1.003523E+04  5.753226E+04  5.793957E-11 -6.499417E-11
       384  18  2.688280E+05  2.629747E+04  2.001202E+04  6.311692E+04 -7.937513E-11  4.418320E-12
       384  19  1.569459E+05 -7.235663E+01  6.407897E+02  6.300517E+04  7.361216E+03  1.019174E+02
       384  20  1.014000E+05 -1.300759E+04 -8.689271E+03  5.742042E+04  6.606997E+03 -3.676194E+03
       384  21  4.573992E+04 -2.602057E+04 -1.852990E+04  6.292259E+04  5.852724E+03 -6.887249E+03
       384  22  1.572799E+05  3.630843E+01  8.500905E+02  6.301977E+04 -4.381995E+02  1.006565E+02
       384  23  1.572434E+05  3.195158E+01  6.729979E+02  5.747635E+04 -1.031589E+02 -3.677159E+03
       384  24  1.572778E+05  1.388046E+02  7.412841E+02  6.301976E+04  2.317480E+02 -6.887946E+03
       384  25  1.576140E+05  1.450061E+02  1.059620E+03  6.303438E+04 -8.237620E+03  9.939524E+01
       384  26  2.130899E+05  1.307135E+04  1.003534E+04  5.753228E+04 -6.813898E+03 -3.678124E+03
       384  27  2.688280E+05  2.629753E+04  2.001216E+04  6.311695E+04 -5.390206E+03 -6.888644E+03
       385   1  1.010725E+04 -3.444048E+04 -2.486516E+04  6.296125E+04 -6.271266E+03  8.868568E+03
       385   2 -4.473292E+04 -4.758947E+04 -3.796860E+04  5.682356E+04  4.689163E+03  8.916048E+03
       385   3 -1.011906E+05 -6.152459E+04 -5.840376E+04  6.135976E+04  1.564837E+04  2.893668E+03
       385   4  1.573500E+05  1.495492E+02  8.553846E+02  6.292795E+04 -3.560768E+02  8.869159E+03
       385   5  1.571445E+05  6.483312E+02  1.353376E+03  5.759104E+04 -1.048755E+03  8.915271E+03
       385   6  1.573425E+05  2.384414E+03  2.611975E+03  6.292778E+04 -1.741804E+03  2.892459E+03
       385   7  3.046140E+05  3.473842E+04  2.657529E+04  6.289464E+04  5.560473E+03  8.869750E+03
       385   8  3.590611E+05  4.888371E+04  4.067354E+04  5.835876E+04 -6.788498E+03  8.914481E+03
       385   9  4.159377E+05  6.628880E+04  6.362424E+04  6.449645E+04 -1.913918E+04  2.891164E+03
       385  10  1.010719E+04 -3.444057E+04 -2.486538E+04  6.296129E+04  8.141041E-12  3.521865E-11
       385  11 -4.473296E+04 -4.758956E+04 -3.796879E+04  5.682353E+04  1.866271E-10  2.354727E-11
       385  12 -1.011909E+05 -6.152466E+04 -5.840424E+04  6.135973E+04  9.777368E-11  1.197805E-11
       385  13  1.573500E+05  1.494647E+02  8.552365E+02  6.292795E+04  6.714850E-11  1.582904E-10
       385  14  1.571445E+05  6.482456E+02  1.353225E+03  5.759104E+04  1.509682E-10  2.021588E-10
       385  15  1.573425E+05  2.384404E+03  2.611954E+03  6.292778E+04  4.721818E-11  1.437403E-11
       385  16  3.046140E+05  3.473832E+04  2.657509E+04  6.289460E+04 -1.629305E-11  8.735271E-11
       385  17  3.590610E+05  4.888361E+04  4.067330E+04  5.835881E+04 -5.212414E-11  9.949574E-11
       385  18  4.159373E+05  6.628870E+04  6.362353E+04  6.449649E+04 -2.497999E-10  9.654725E-12
       385  19  1.010725E+04 -3.444048E+04 -2.486516E+04  6.296125E+04  6.271266E+03 -8.868568E+03
       385  20 -4.473292E+04 -4.758947E+04 -3.796860E+04  5.682356E+04 -4.689163E+03 -8.916048E+03
       385  21 -1.011906E+05 -6.152459E+04 -5.840376E+04  6.135976E+04 -1.564837E+04 -2.893668E+03
       385  22  1.573500E+05  1.495492E+02  8.553846E+02  6.292795E+04  3.560768E+02 -8.869159E+03
       385  23  1.571445E+05  6.483312E+02  1.353376E+03  5.759104E+04  1.048755E+03 -8.915271E+03
       385  24  1.573425E+05  2.384414E+03  2.611975E+03  6.292778E+04  1.741804E+03 -2.892459E+03
       385  25  3.046140E+05  3.473842E+04  2.657529E+04  6.289464E+04 -5.560473E+03 -8.869750E+03
       385  26  3.590611E+05  4.888371E+04  4.067354E+04  5.835876E+04  6.788498E+03 -8.914481E+03
       385  27  4.159377E+05  6.628880E+04  6.362424E+04  6.449645E+04  1.913918E+04 -2.891164E+03
       386   1 -8.772052E+04 -3.153723E+05 -9.019263E+04  9.675653E+04 -1.594351E+03 -4.222595E+04
       386   2 -3.987585E+04 -2.506857E+05 -4.769869E+04  7.609862E+04 -4.287839E+03 -2.170622E+04
       386   3 -1.613589E+04 -1.946968E+05 -2.459529E+04  6.718858E+04 -2.728014E+03 -1.184335E+03
       386   4 -4.388754E+04 -1.384511E+05 -4.793256E+04  6.826324E+04 -1.590586E+03 -3.296863E+04
       386   5 -1.197693E+04 -1.348064E+05 -2.407650E+04  6.238497E+04 -4.287069E+03 -2.061062E+04
       386   6 -2.751317E+03 -1.384437E+05 -1.393875E+04  6.825622E+04 -2.729626E+03 -8.252689E+03
       386   7 -5.372489E+01  3.850076E+04 -5.673936E+03  3.976179E+04 -1.587671E+03 -2.370868E+04
       386   8  1.592186E+04 -1.891388E+04 -4.549143E+02  4.866871E+04 -4.286347E+03 -1.951483E+04
       386   9  1.063310E+04 -8.218751E+04 -3.282157E+03  6.932396E+04 -2.731262E+03 -1.532167E+04
       386  10 -8.772100E+04 -3.153742E+05 -9.019599E+04  9.675648E+04 -9.975829E-11 -1.697528E-10
       386  11 -3.987600E+04 -2.506862E+05 -4.769961E+04  7.609855E+04 -1.255064E-10  5.241449E-11
       386  12 -1.613590E+04 -1.946968E+05 -2.459531E+04  6.718858E+04 -4.558812E-11  2.831494E-10
       386  13 -4.388783E+04 -1.384523E+05 -4.793461E+04  6.826320E+04 -1.839837E-10 -1.480672E-11
       386  14 -1.197706E+04 -1.348068E+05 -2.407733E+04  6.238490E+04 -3.798072E-11 -8.161454E-11
       386  15 -2.751344E+03 -1.384438E+05 -1.393889E+04  6.825620E+04  5.837639E-12 -2.816694E-11
       386  16 -5.387848E+01  3.850016E+04 -5.674996E+03  3.976176E+04 -6.718589E-11  1.785770E-10
       386  17  1.592174E+04 -1.891430E+04 -4.556645E+02  4.866865E+04 -2.850170E-10 -8.700223E-11
       386  18  1.063303E+04 -8.218776E+04 -3.282612E+03  6.932393E+04  1.148308E-10 -2.240514E-10
       386  19 -8.772052E+04 -3.153723E+05 -9.019263E+04  9.675653E+04  1.594351E+03  4.222595E+04
       386  20 -3.987585E+04 -2.506857E+05 -4.769869E+04  7.609862E+04  4.287839E+03  2.170622E+04
       386  21 -1.613589E+04 -1.946968E+05 -2.459529E+04  6.718858E+04  2.728014E+03  1.184335E+03
       386  22 -4.388754E+04 -1.384511E+05 -4.793256E+04  6.826324E+04  1.590586E+03  3.296863E+04
       386  23 -1.197693E+04 -1.348064E+05 -2.407650E+04  6.238497E+04  4.287069E+03  2.061062E+04
       386  24 -2.751317E+03 -1.384437E+05 -1.393875E+04  6.825622E+04  2.729626E+03  8.252689E+03
       386  25 -5.372489E+01  3.850076E+04 -5.673936E+03  3.976179E+04  1.587671E+03  2.370868E+04
       386  26  1.592186E+04 -1.891388E+04 -4.549143E+02  4.866871E+04  4.286347E+03  1.951483E+04
       386  27  1.063310E+04 -8.218751E+04 -3.282157E+03  6.932396E+04  2.731262E+03  1.532167E+04
       387   1 -6.839166E+03 -1.546907E+05 -1.505976E+04  6.966405E+04 -4.235238E+02  5.193323E+02
       387   2  9.079111E+03 -9.386566E+04 -1.163185E+03  6.252591E+04  3.065775E+03  4.133232E+03
       387   3  2.278198E+04 -3.406409E+04  9.825262E+03  6.738914E+04  6.355840E+03  7.747584E+03
       387   4 -2.539419E+03 -1.370681E+05 -1.118294E+04  6.831275E+04 -4.251376E+02 -6.368648E+03
       387   5 -8.203116E+02 -1.365222E+05 -7.997736E+03  6.231188E+04  3.064345E+03 -2.372588E+03
       387   6 -1.382837E+03 -1.370697E+05 -7.986041E+03  6.831254E+04  6.354595E+03  1.623596E+03
       387   7  1.760340E+03 -1.194451E+05 -7.305958E+03  6.696141E+04 -4.267215E+02 -1.325682E+04
       387   8 -1.071980E+04 -1.791769E+05 -1.483218E+04  6.209786E+04  3.062920E+03 -8.877977E+03
       387   9 -2.554821E+04 -2.400648E+05 -2.579757E+04  6.923578E+04  6.353333E+03 -4.499407E+03
       387  10 -6.839166E+03 -1.546907E+05 -1.505976E+04  6.966405E+04 -1.101020E-10 -4.377391E-10
       387  11  9.079096E+03 -9.386568E+04 -1.163235E+03  6.252590E+04 -2.311496E-10 -1.574882E-10
       387  12  2.278192E+04 -3.406416E+04  9.825073E+03  6.738910E+04  6.232895E-12  2.023116E-10
       387  13 -2.539430E+03 -1.370682E+05 -1.118302E+04  6.831275E+04 -9.909294E-11  1.050107E-12
       387  14 -8.203232E+02 -1.365222E+05 -7.997765E+03  6.231188E+04 -2.167708E-10 -9.219676E-11
       387  15 -1.382881E+03 -1.370697E+05 -7.986122E+03  6.831253E+04 -1.628437E-10 -3.505112E-11
       387  16  1.760292E+03 -1.194453E+05 -7.306288E+03  6.696140E+04  7.329994E-11  4.203331E-10
       387  17 -1.071983E+04 -1.791770E+05 -1.483234E+04  6.209788E+04 -6.508926E-11  1.000779E-10
       387  18 -2.554825E+04 -2.400649E+05 -2.579768E+04  6.923581E+04 -1.422436E-10 -2.343092E-10
       387  19 -6.839166E+03 -1.546907E+05 -1.505976E+04  6.966405E+04  4.235238E+02 -5.193323E+02
       387  20  9.079111E+03 -9.386566E+04 -1.163185E+03  6.252591E+04 -3.065775E+03 -4.133232E+03
       387  21  2.278198E+04 -3.406409E+04  9.825262E+03  6.738914E+04 -6.355840E+03 -7.747584E+03
       387  22 -2.539419E+03 -1.370681E+05 -1.118294E+04  6.831275E+04  4.251376E+02  6.368648E+03
       387  23 -8.203116E+02 -1.365222E+05 -7.997736E+03  6.231188E+04 -3.064345E+03  2.372588E+03
       387  24 -1.382837E+03 -1.370697E+05 -7.986041E+03  6.831254E+04 -6.354595E+03 -1.623596E+03
       387  25  1.760340E+03 -1.194451E+05 -7.305958E+03  6.696141E+04  4.267215E+02  1.325682E+04
       387  26 -1.071980E+04 -1.791769E+05 -1.483218E+04  6.209786E+04 -3.062920E+03  8.877977E+03
       387  27 -2.554821E+04 -2.400648E+05 -2.579757E+04  6.923578E+04 -6.353333E+03  4.499407E+03
       388   1  3.180598E+04  4.039331E+03  1.591794E+04  6.871909E+04  8.507322E+03  9.334707E+03
       388   2  4.174144E+04  6.532352E+04  2.586618E+04  5.508737E+04  8.765715E+03  4.410916E+03
       388   3  4.165900E+04  1.247498E+05  3.651550E+04  5.305971E+04  2.870896E+03 -5.131601E+02
       388   4 -1.504747E+03 -1.376980E+05 -8.887532E+03  6.822424E+04  8.506148E+03  2.928138E+03
       388   5 -6.333690E+03 -1.357461E+05 -1.344649E+04  6.242342E+04  8.766930E+03  9.818448E+03
       388   6 -2.323349E+04 -1.377074E+05 -2.550967E+04  6.822743E+04  2.873458E+03  1.670871E+04
       388   7 -3.481655E+04 -2.794156E+05 -3.369357E+04  6.772951E+04  8.504985E+03 -3.477012E+03
       388   8 -5.441103E+04 -3.367768E+05 -5.276096E+04  6.975704E+04  8.768273E+03  1.522427E+04
       388   9 -8.812989E+04 -4.001000E+05 -8.753838E+04  8.338869E+04  2.876862E+03  3.392334E+04
       388  10  3.180588E+04  4.039218E+03  1.591765E+04  6.871902E+04 -1.630033E-10 -1.953144E-12
       388  11  4.174135E+04  6.532348E+04  2.586600E+04  5.508733E+04 -1.748405E-10 -8.730472E-12
       388  12  4.165899E+04  1.247498E+05  3.651548E+04  5.305971E+04 -1.958929E-11 -7.721037E-12
       388  13 -1.504827E+03 -1.376980E+05 -8.887684E+03  6.822422E+04  6.244719E-12 -9.322073E-11
       388  14 -6.333798E+03 -1.357462E+05 -1.344682E+04  6.242335E+04 -3.577057E-11 -4.313434E-11
       388  15 -2.323357E+04 -1.377077E+05 -2.551022E+04  6.822739E+04 -3.877775E-11 -2.789375E-11
       388  16 -3.481663E+04 -2.794156E+05 -3.369373E+04  6.772954E+04 -1.934821E-10 -8.679440E-11
       388  17 -5.441118E+04 -3.367771E+05 -5.276154E+04  6.975693E+04  7.453771E-11  9.049828E-11
       388  18 -8.813021E+04 -4.001013E+05 -8.754056E+04  8.338861E+04  5.116110E-11  3.726673E-11
       388  19  3.180598E+04  4.039331E+03  1.591794E+04  6.871909E+04 -8.507322E+03 -9.334707E+03
       388  20  4.174144E+04  6.532352E+04  2.586618E+04  5.508737E+04 -8.765715E+03 -4.410916E+03
       388  21  4.165900E+04  1.247498E+05  3.651550E+04  5.305971E+04 -2.870896E+03  5.131601E+02
       388  22 -1.504747E+03 -1.376980E+05 -8.887532E+03  6.822424E+04 -8.506148E+03 -2.928138E+03
       388  23 -6.333690E+03 -1.357461E+05 -1.344649E+04  6.242342E+04 -8.766930E+03 -9.818448E+03
       388  24 -2.323349E+04 -1.377074E+05 -2.550967E+04  6.822743E+04 -2.873458E+03 -1.670871E+04
       388  25 -3.481655E+04 -2.794156E+05 -3.369357E+04  6.772951E+04 -8.504985E+03  3.477012E+03
       388  26 -5.441103E+04 -3.367768E+05 -5.276096E+04  6.975704E+04 -8.768273E+03 -1.522427E+04
       388  27 -8.812989E+04 -4.001000E+05 -8.753838E+04  8.338869E+04 -2.876862E+03 -3.392334E+04
       389   1  1.928689E+05  1.595583E+05  4.664836E+04  1.332946E+05  2.547717E+04  1.863042E+04
       389   2  1.949861E+05  1.299351E+05  2.500602E+04  1.428076E+05  1.692223E+04  1.094485E+04
       389   3  2.090206E+05  1.147475E+05  1.579147E+04  1.456944E+05  8.094816E+03  3.623044E+03
       389   4  2.009544E+05  1.245480E+05  4.172179E+04  1.185118E+05  2.356798E+04  1.719718E+04
       389   5  1.886116E+05  1.059170E+05  2.060471E+04  1.304425E+05  1.571045E+04  1.003567E+04
       389   6  1.880347E+05  1.015697E+05  1.131002E+04  1.357472E+05  7.580641E+03  3.237479E+03
       389   7  2.090409E+05  8.954132E+04  3.679564E+04  1.037293E+05  2.165877E+04  1.576417E+04
       389   8  1.822375E+05  8.190029E+04  1.620352E+04  1.180780E+05  1.449869E+04  9.126579E+03
       389   9  1.670494E+05  8.839202E+04  6.828566E+03  1.258003E+05  7.066490E+03  2.851930E+03
       389  10  1.928681E+05  1.595577E+05  4.664649E+04  1.332942E+05  5.312955E-08  4.039241E-08
       389  11  1.949858E+05  1.299349E+05  2.500525E+04  1.428074E+05  3.034705E-09  3.479176E-09
       389  12  2.090205E+05  1.147475E+05  1.579132E+04  1.456944E+05 -5.272812E-08 -3.994676E-08
       389  13  2.009537E+05  1.245475E+05  4.172019E+04  1.185115E+05  1.563607E-09  1.855501E-09
       389  14  1.886113E+05  1.059168E+05  2.060405E+04  1.304424E+05  4.546670E-09  4.922424E-09
       389  15  1.880346E+05  1.015696E+05  1.130990E+04  1.357471E+05  1.772027E-09  1.955994E-09
       389  16  2.090403E+05  8.954093E+04  3.679430E+04  1.037291E+05 -4.939667E-08 -3.646872E-08
       389  17  1.822372E+05  8.190014E+04  1.620297E+04  1.180779E+05  5.982700E-09  6.314426E-09
       389  18  1.670493E+05  8.839200E+04  6.828457E+03  1.258003E+05  5.620106E-08  4.406357E-08
       389  19  1.928689E+05  1.595583E+05  4.664836E+04  1.332946E+05 -2.547717E+04 -1.863042E+04
       389  20  1.949861E+05  1.299351E+05  2.500602E+04  1.428076E+05 -1.692223E+04 -1.094485E+04
       389  21  2.090206E+05  1.147475E+05  1.579147E+04  1.456944E+05 -8.094816E+03 -3.623044E+03
       389  22  2.009544E+05  1.245480E+05  4.172179E+04  1.185118E+05 -2.356798E+04 -1.719718E+04
       389  23  1.886116E+05  1.059170E+05  2.060471E+04  1.304425E+05 -1.571045E+04 -1.003567E+04
       389  24  1.880347E+05  1.015697E+05  1.131002E+04  1.357472E+05 -7.580641E+03 -3.237479E+03
       389  25  2.090409E+05  8.954132E+04  3.679564E+04  1.037293E+05 -2.165877E+04 -1.576417E+04
       389  26  1.822375E+05  8.190029E+04  1.620352E+04  1.180780E+05 -1.449869E+04 -9.126579E+03
       389  27  1.670494E+05  8.839202E+04  6.828566E+03  1.258003E+05 -7.066490E+03 -2.851930E+03
       390   1  2.075878E+05  1.170909E+05  1.332841E+04  1.464570E+05  7.042349E+03  2.607706E+03
       390   2  2.092732E+05  1.170848E+05  9.954186E+03  1.481815E+05  5.217641E+03  8.377463E+02
       390   3  2.124487E+05  1.175703E+05  8.551872E+03  1.494146E+05  3.363142E+03 -8.925700E+02
       390   4  1.871562E+05  1.010062E+05  8.593718E+03  1.352317E+05  6.510346E+03  2.208736E+03
       390   5  1.860299E+05  1.000760E+05  4.858170E+03  1.359970E+05  4.761895E+03  4.959618E+02
       390   6  1.863772E+05  9.962075E+04  3.028348E+03  1.362708E+05  2.983703E+03 -1.177132E+03
       390   7  1.667247E+05  8.492143E+04  3.858852E+03  1.240067E+05  5.978357E+03  1.809777E+03
       390   8  1.627873E+05  8.306754E+04 -2.378704E+02  1.238130E+05  4.306172E+03  1.541952E+02
       390   9  1.603070E+05  8.167198E+04 -2.495023E+03  1.231278E+05  2.604292E+03 -1.461673E+03
       390  10  2.075877E+05  1.170909E+05  1.332831E+04  1.464570E+05 -1.338272E-09 -2.470028E-09
       390  11  2.092732E+05  1.170848E+05  9.954133E+03  1.481815E+05 -7.213321E-10 -2.295147E-09
       390  12  2.124487E+05  1.175703E+05  8.551849E+03  1.494146E+05 -1.067179E-09 -2.247548E-09
       390  13  1.871562E+05  1.010061E+05  8.593629E+03  1.352317E+05  1.192044E-10 -2.768715E-10
       390  14  1.860299E+05  1.000760E+05  4.858127E+03  1.359970E+05  7.707941E-10 -9.180878E-10
       390  15  1.863772E+05  9.962075E+04  3.028328E+03  1.362708E+05  1.033962E-09 -8.838576E-10
       390  16  1.667247E+05  8.492141E+04  3.858778E+03  1.240067E+05  1.639208E-09  2.069574E-09
       390  17  1.627873E+05  8.306753E+04 -2.379052E+02  1.238130E+05  2.244473E-09  5.086291E-10
       390  18  1.603070E+05  8.167198E+04 -2.495039E+03  1.231278E+05  2.435901E-09  3.510568E-10
       390  19  2.075878E+05  1.170909E+05  1.332841E+04  1.464570E+05 -7.042349E+03 -2.607706E+03
       390  20  2.092732E+05  1.170848E+05  9.954186E+03  1.481815E+05 -5.217641E+03 -8.377463E+02
       390  21  2.124487E+05  1.175703E+05  8.551872E+03  1.494146E+05 -3.363142E+03  8.925700E+02
       390  22  1.871562E+05  1.010062E+05  8.593718E+03  1.352317E+05 -6.510346E+03 -2.208736E+03
       390  23  1.860299E+05  1.000760E+05  4.858170E+03  1.359970E+05 -4.761895E+03 -4.959618E+02
       390  24  1.863772E+05  9.962075E+04  3.028348E+03  1.362708E+05 -2.983703E+03  1.177132E+03
       390  25  1.667247E+05  8.492143E+04  3.858852E+03  1.240067E+05 -5.978357E+03 -1.809777E+03
       390  26  1.627873E+05  8.306754E+04 -2.378704E+02  1.238130E+05 -4.306172E+03 -1.541952E+02
       390  27  1.603070E+05  8.167198E+04 -2.495023E+03  1.231278E+05 -2.604292E+03  1.461673E+03
       391   1  2.136114E+05  1.187007E+05  8.352640E+03  1.501322E+05  3.065235E+03 -1.294626E+03
       391   2  2.154274E+05  1.204843E+05  8.356099E+03  1.513528E+05  2.361646E+03 -2.120434E+03
       391   3  2.180019E+05  1.218434E+05  9.087603E+03  1.524115E+05  1.646029E+03 -2.930200E+03
       391   4  1.863104E+05  9.958575E+04  2.521795E+03  1.362194E+05  2.683213E+03 -1.581129E+03
       391   5  1.859321E+05  9.979699E+04  2.058428E+03  1.363037E+05  2.010493E+03 -2.383797E+03
       391   6  1.863056E+05  9.957703E+04  2.296352E+03  1.362261E+05  1.325740E+03 -3.170425E+03
       391   7  1.590103E+05  8.047123E+04 -3.309088E+03  1.223072E+05  2.301212E+03 -1.867616E+03
       391   8  1.564375E+05  7.910997E+04 -4.239391E+03  1.212552E+05  1.659358E+03 -2.647146E+03
       391   9  1.546098E+05  7.731082E+04 -4.495174E+03  1.200412E+05  1.005466E+03 -3.410639E+03
       391  10  2.136114E+05  1.187007E+05  8.352619E+03  1.501322E+05 -6.167566E-10 -1.724949E-09
       391  11  2.154274E+05  1.204843E+05  8.356080E+03  1.513528E+05 -3.795406E-10 -1.237781E-09
       391  12  2.180019E+05  1.218434E+05  9.087582E+03  1.524115E+05 -6.238956E-11 -9.407600E-10
       391  13  1.863104E+05  9.958575E+04  2.521777E+03  1.362194E+05  6.401218E-10 -7.918945E-10
       391  14  1.859321E+05  9.979698E+04  2.058410E+03  1.363037E+05  5.916647E-10 -5.507958E-10
       391  15  1.863056E+05  9.957701E+04  2.296330E+03  1.362261E+05  5.784603E-10 -4.082152E-10
       391  16  1.590103E+05  8.047123E+04 -3.309104E+03  1.223072E+05  1.870877E-09  1.787137E-10
       391  17  1.564375E+05  7.910996E+04 -4.239410E+03  1.212552E+05  1.247069E-09 -1.989317E-11
       391  18  1.546098E+05  7.731081E+04 -4.495198E+03  1.200412E+05  9.020333E-10  2.037490E-12
       391  19  2.136114E+05  1.187007E+05  8.352640E+03  1.501322E+05 -3.065235E+03  1.294626E+03
       391  20  2.154274E+05  1.204843E+05  8.356099E+03  1.513528E+05 -2.361646E+03  2.120434E+03
       391  21  2.180019E+05  1.218434E+05  9.087603E+03  1.524115E+05 -1.646029E+03  2.930200E+03
       391  22  1.863104E+05  9.958575E+04  2.521795E+03  1.362194E+05 -2.683213E+03  1.581129E+03
       391  23  1.859321E+05  9.979699E+04  2.058428E+03  1.363037E+05 -2.010493E+03  2.383797E+03
       391  24  1.863056E+05  9.957703E+04  2.296352E+03  1.362261E+05 -1.325740E+03  3.170425E+03
       391  25  1.590103E+05  8.047123E+04 -3.309088E+03  1.223072E+05 -2.301212E+03  1.867616E+03
       391  26  1.564375E+05  7.910997E+04 -4.239391E+03  1.212552E+05 -1.659358E+03  2.647146E+03
       391  27  1.546098E+05  7.731082E+04 -4.495174E+03  1.200412E+05 -1.005466E+03  3.410639E+03
       392   1  2.193181E+05  1.230262E+05  9.791269E+03  1.532175E+05  1.382135E+03 -3.287660E+03
       392   2  2.217001E+05  1.245049E+05  1.183438E+04  1.539671E+05 -4.018266E+02 -4.801667E+03
       392   3  2.254474E+05  1.263418E+05  1.568136E+04  1.542844E+05 -2.271455E+03 -6.201381E+03
       392   4  1.863556E+05  9.960773E+04  2.669687E+03  1.362662E+05  1.055917E+03 -3.532336E+03
       392   5  1.860215E+05  1.000298E+05  4.127542E+03  1.360492E+05 -5.084364E+02 -4.881655E+03
       392   6  1.870049E+05  1.007625E+05  7.198830E+03  1.353999E+05 -2.158469E+03 -6.116691E+03
       392   7  1.533951E+05  7.619048E+04 -4.451701E+03  1.193163E+05  7.297296E+02 -3.776989E+03
       392   8  1.503447E+05  7.555564E+04 -3.579220E+03  1.181327E+05 -6.150368E+02 -4.961636E+03
       392   9  1.485643E+05  7.518400E+04 -1.283768E+03  1.165169E+05 -2.045492E+03 -6.032006E+03
       392  10  2.193181E+05  1.230262E+05  9.791245E+03  1.532175E+05 -7.945893E-11 -8.008060E-10
       392  11  2.217001E+05  1.245049E+05  1.183434E+04  1.539671E+05  1.768054E-10 -3.300053E-10
       392  12  2.254474E+05  1.263418E+05  1.568128E+04  1.542844E+05  2.611145E-11 -2.816775E-10
       392  13  1.863556E+05  9.960771E+04  2.669661E+03  1.362662E+05  9.135935E-11 -4.034407E-10
       392  14  1.860215E+05  1.000297E+05  4.127497E+03  1.360492E+05  2.411964E-10 -1.048956E-10
       392  15  1.870049E+05  1.007625E+05  7.198751E+03  1.353999E+05 -3.252900E-11 -1.927073E-10
       392  16  1.533951E+05  7.619047E+04 -4.451729E+03  1.193163E+05  6.890296E-10 -2.288631E-11
       392  17  1.503447E+05  7.555562E+04 -3.579267E+03  1.181327E+05  4.776937E-10 -6.562977E-11
       392  18  1.485642E+05  7.518396E+04 -1.283845E+03  1.165168E+05  1.891225E-10  3.265831E-11
       392  19  2.193181E+05  1.230262E+05  9.791269E+03  1.532175E+05 -1.382135E+03  3.287660E+03
       392  20  2.217001E+05  1.245049E+05  1.183438E+04  1.539671E+05  4.018266E+02  4.801667E+03
       392  21  2.254474E+05  1.263418E+05  1.568136E+04  1.542844E+05  2.271455E+03  6.201381E+03
       392  22  1.863556E+05  9.960773E+04  2.669687E+03  1.362662E+05 -1.055917E+03  3.532336E+03
       392  23  1.860215E+05  1.000298E+05  4.127542E+03  1.360492E+05  5.084364E+02  4.881655E+03
       392  24  1.870049E+05  1.007625E+05  7.198830E+03  1.353999E+05  2.158469E+03  6.116691E+03
       392  25  1.533951E+05  7.619048E+04 -4.451701E+03  1.193163E+05 -7.297296E+02  3.776989E+03
       392  26  1.503447E+05  7.555564E+04 -3.579220E+03  1.181327E+05  6.150368E+02  4.961636E+03
       392  27  1.485643E+05  7.518400E+04 -1.283768E+03  1.165169E+05  2.045492E+03  6.032006E+03
       393   1  2.260188E+05  1.295027E+05  1.841386E+04  1.559240E+05 -3.194668E+03 -6.916500E+03
       393   2  2.389656E+05  1.244102E+05  2.773498E+04  1.494459E+05 -1.273897E+04 -1.318561E+04
       393   3  2.621289E+05  1.316775E+05  4.869210E+04  1.374611E+05 -2.309002E+04 -1.837951E+04
       393   4  1.877109E+05  1.012566E+05  9.446816E+03  1.358357E+05 -3.134491E+03 -6.871394E+03
       393   5  1.882035E+05  1.048617E+05  1.716354E+04  1.314165E+05 -1.061311E+04 -1.159163E+04
       393   6  1.984648E+05  1.203791E+05  3.472436E+04  1.214906E+05 -1.889808E+04 -1.523677E+04
       393   7  1.494040E+05  7.301096E+04  4.794566E+02  1.157485E+05 -3.074318E+03 -6.826291E+03
       393   8  1.374442E+05  8.531357E+04  6.591948E+03  1.133882E+05 -8.487472E+03 -9.997705E+03
       393   9  1.348060E+05  1.090813E+05  2.075676E+04  1.055210E+05 -1.470678E+04 -1.209407E+04
       393  10  2.260188E+05  1.295026E+05  1.841375E+04  1.559240E+05  2.190712E-11 -2.315777E-10
       393  11  2.389654E+05  1.244100E+05  2.773435E+04  1.494457E+05 -1.828319E-10 -2.904221E-10
       393  12  2.621283E+05  1.316770E+05  4.869046E+04  1.374608E+05 -1.071577E-10 -9.583532E-11
       393  13  1.877108E+05  1.012565E+05  9.446709E+03  1.358357E+05  1.088527E-10 -3.853327E-11
       393  14  1.882034E+05  1.048616E+05  1.716308E+04  1.314164E+05 -1.578452E-11 -6.169871E-11
       393  15  1.984643E+05  1.203788E+05  3.472325E+04  1.214904E+05 -4.964861E-11  3.047454E-11
       393  16  1.494040E+05  7.301091E+04  4.793513E+02  1.157485E+05  1.504298E-10  3.321410E-11
       393  17  1.374441E+05  8.531344E+04  6.591625E+03  1.133882E+05  5.830603E-11  7.527499E-11
       393  18  1.348058E+05  1.090811E+05  2.075608E+04  1.055209E+05  7.984235E-11  9.218073E-11
       393  19  2.260188E+05  1.295027E+05  1.841386E+04  1.559240E+05  3.194668E+03  6.916500E+03
       393  20  2.389656E+05  1.244102E+05  2.773498E+04  1.494459E+05  1.273897E+04  1.318561E+04
       393  21  2.621289E+05  1.316775E+05  4.869210E+04  1.374611E+05  2.309002E+04  1.837951E+04
       393  22  1.877109E+05  1.012566E+05  9.446816E+03  1.358357E+05  3.134491E+03  6.871394E+03
       393  23  1.882035E+05  1.048617E+05  1.716354E+04  1.314165E+05  1.061311E+04  1.159163E+04
       393  24  1.984648E+05  1.203791E+05  3.472436E+04  1.214906E+05  1.889808E+04  1.523677E+04
       393  25  1.494040E+05  7.301096E+04  4.794566E+02  1.157485E+05  3.074318E+03  6.826291E+03
       393  26  1.374442E+05  8.531357E+04  6.591948E+03  1.133882E+05  8.487472E+03  9.997705E+03
       393  27  1.348060E+05  1.090813E+05  2.075676E+04  1.055210E+05  1.470678E+04  1.209407E+04
       394   1  4.969118E+05  8.340936E+04  8.133828E+04  7.731485E+04  2.898259E+04 -3.207652E+03
       394   2  4.336490E+05  5.696825E+04  5.042183E+04  6.718405E+04  1.257839E+04 -9.907896E+03
       394   3  3.747245E+05  3.931271E+04  3.237613E+04  6.876563E+04 -3.823639E+03 -9.896335E+03
       394   4  2.107025E+05  1.268784E+04  1.382729E+04  6.906956E+04  9.664258E+03 -3.209647E+03
       394   5  2.096583E+05  3.467909E+03  6.831628E+03  6.321400E+04  6.156392E+03 -9.908970E+03
       394   6  2.107127E+05  7.977164E+02  3.756861E+03  6.907060E+04  2.648935E+03 -9.895600E+03
       394   7 -7.543054E+04 -5.803909E+04 -5.368792E+04  6.082809E+04 -9.645221E+03 -3.211130E+03
       394   8 -1.428419E+04 -5.003536E+04 -3.676079E+04  5.924540E+04 -2.633441E+02 -9.909962E+03
       394   9  4.672734E+04 -3.771871E+04 -2.486321E+04  6.937549E+04  9.119852E+03 -9.894859E+03
       394  10  4.969109E+05  8.340913E+04  8.133669E+04  7.731493E+04  5.170889E-11  1.573998E-11
       394  11  4.336488E+05  5.696811E+04  5.042135E+04  6.718415E+04 -1.814254E-10 -1.136625E-10
       394  12  3.747244E+05  3.931260E+04  3.237592E+04  6.876560E+04  1.080450E-10 -1.216757E-10
       394  13  2.107024E+05  1.268780E+04  1.382710E+04  6.906959E+04 -8.045351E-11 -2.359406E-11
       394  14  2.096582E+05  3.467793E+03  6.831373E+03  6.321405E+04 -4.742704E-11 -1.614153E-10
       394  15  2.107127E+05  7.976094E+02  3.756664E+03  6.907062E+04 -7.656321E-12 -6.592314E-11
       394  16 -7.543064E+04 -5.803913E+04 -5.368811E+04  6.082806E+04 -3.512227E-11 -3.393886E-11
       394  17 -1.428422E+04 -5.003546E+04 -3.676098E+04  5.924540E+04 -8.863466E-11 -1.180835E-10
       394  18  4.672723E+04 -3.771884E+04 -2.486355E+04  6.937556E+04 -1.342956E-10 -9.478619E-11
       394  19  4.969118E+05  8.340936E+04  8.133828E+04  7.731485E+04 -2.898259E+04  3.207652E+03
       394  20  4.336490E+05  5.696825E+04  5.042183E+04  6.718405E+04 -1.257839E+04  9.907896E+03
       394  21  3.747245E+05  3.931271E+04  3.237613E+04  6.876563E+04  3.823639E+03  9.896335E+03
       394  22  2.107025E+05  1.268784E+04  1.382729E+04  6.906956E+04 -9.664258E+03  3.209647E+03
       394  23  2.096583E+05  3.467909E+03  6.831628E+03  6.321400E+04 -6.156392E+03  9.908970E+03
       394  24  2.107127E+05  7.977164E+02  3.756861E+03  6.907060E+04 -2.648935E+03  9.895600E+03
       394  25 -7.543054E+04 -5.803909E+04 -5.368792E+04  6.082809E+04  9.645221E+03  3.211130E+03
       394  26 -1.428419E+04 -5.003536E+04 -3.676079E+04  5.924540E+04  2.633441E+02  9.909962E+03
       394  27  4.672734E+04 -3.771871E+04 -2.486321E+04  6.937549E+04 -9.119852E+03  9.894859E+03
       395   1  3.351085E+05  3.000225E+04  2.439453E+04  6.953457E+04 -3.988339E+03 -7.726952E+03
       395   2  2.738628E+05  1.502990E+04  1.227868E+04  6.323164E+04 -6.009442E+03 -4.212775E+03
       395   3  2.130467E+05  7.079974E+02  1.640510E+03  6.909541E+04 -8.030492E+03 -7.013499E+01
       395   4  2.102963E+05  7.404884E+02  2.859197E+03  6.917161E+04  2.158389E+03 -7.726084E+03
       395   5  2.101899E+05  1.689839E+02  1.629521E+03  6.308828E+04  1.344193E+03 -4.211573E+03
       395   6  2.102990E+05  3.842183E+01  1.039463E+03  6.917171E+04  5.298448E+02 -6.856225E+01
       395   7  8.549947E+04 -2.852209E+04 -1.867653E+04  6.880871E+04  8.303919E+03 -7.725224E+03
       395   8  1.465210E+05 -1.469212E+04 -9.019558E+03  6.294493E+04  8.697098E+03 -4.210374E+03
       395   9  2.075514E+05 -6.311149E+02  4.386909E+02  6.924802E+04  9.090144E+03 -6.698740E+01
       395  10  3.351084E+05  3.000218E+04  2.439439E+04  6.953455E+04 -2.077726E-10 -1.969272E-10
       395  11  2.738628E+05  1.502988E+04  1.227858E+04  6.323162E+04 -2.741515E-11  3.213394E-11
       395  12  2.130467E+05  7.079801E+02  1.640389E+03  6.909540E+04 -1.278324E-10 -4.025972E-11
       395  13  2.102963E+05  7.404230E+02  2.859076E+03  6.917162E+04  1.629924E-10 -5.375603E-11
       395  14  2.101899E+05  1.689644E+02  1.629484E+03  6.308828E+04  1.147540E-10 -2.777279E-11
       395  15  2.102990E+05  3.842175E+01  1.039463E+03  6.917171E+04 -1.268813E-10 -5.601719E-11
       395  16  8.549938E+04 -2.852217E+04 -1.867677E+04  6.880876E+04  2.050558E-10 -1.245463E-11
       395  17  1.465209E+05 -1.469216E+04 -9.019733E+03  6.294496E+04  2.275785E-10 -1.150610E-10
       395  18  2.075514E+05 -6.311371E+02  4.385357E+02  6.924802E+04  1.027942E-11  5.167256E-11
       395  19  3.351085E+05  3.000225E+04  2.439453E+04  6.953457E+04  3.988339E+03  7.726952E+03
       395  20  2.738628E+05  1.502990E+04  1.227868E+04  6.323164E+04  6.009442E+03  4.212775E+03
       395  21  2.130467E+05  7.079974E+02  1.640510E+03  6.909541E+04  8.030492E+03  7.013499E+01
       395  22  2.102963E+05  7.404884E+02  2.859197E+03  6.917161E+04 -2.158389E+03  7.726084E+03
       395  23  2.101899E+05  1.689839E+02  1.629521E+03  6.308828E+04 -1.344193E+03  4.211573E+03
       395  24  2.102990E+05  3.842183E+01  1.039463E+03  6.917171E+04 -5.298448E+02  6.856225E+01
       395  25  8.549947E+04 -2.852209E+04 -1.867653E+04  6.880871E+04 -8.303919E+03  7.725224E+03
       395  26  1.465210E+05 -1.469212E+04 -9.019558E+03  6.294493E+04 -8.697098E+03  4.210374E+03
       395  27  2.075514E+05 -6.311149E+02  4.386909E+02  6.924802E+04 -9.090144E+03  6.698740E+01
       396   1  1.741301E+05 -8.347296E+03 -4.921180E+03  6.915968E+04 -8.200646E+03  2.581470E+03
       396   2  1.131787E+05 -2.254114E+04 -1.513292E+04  6.302153E+04 -7.210464E+03  6.683970E+03
       396   3  5.207700E+04 -3.683167E+04 -2.601393E+04  6.904503E+04 -6.220112E+03  1.007177E+04
       396   4  2.102698E+05  3.990997E+01  8.829432E+02  6.917054E+04  3.633273E+02  2.583017E+03
       396   5  2.102252E+05  4.483383E+01  7.677909E+02  6.308977E+04 -1.923007E+01  6.685036E+03
       396   6  2.102658E+05  1.917292E+02  9.366222E+02  6.917052E+04 -4.015455E+02  1.007241E+04
       396   7  2.464109E+05  8.427090E+03  6.687307E+03  6.918141E+04  8.927781E+03  2.584564E+03
       396   8  3.072812E+05  2.263035E+04  1.666843E+04  6.315803E+04  7.173089E+03  6.686103E+03
       396   9  3.684794E+05  3.721382E+04  2.788648E+04  6.929605E+04  5.418456E+03  1.007306E+04
       396  10  1.741301E+05 -8.347321E+03 -4.921319E+03  6.915969E+04  1.664164E-10  9.380761E-11
       396  11  1.131786E+05 -2.254120E+04 -1.513311E+04  6.302156E+04 -1.333921E-10 -2.358234E-11
       396  12  5.207693E+04 -3.683179E+04 -2.601420E+04  6.904508E+04 -2.533078E-10 -8.434114E-12
       396  13  2.102698E+05  3.990277E+01  8.829305E+02  6.917054E+04  3.643398E-11  6.633757E-12
       396  14  2.102252E+05  4.478584E+01  7.677069E+02  6.308977E+04 -4.900472E-11 -4.695058E-12
       396  15  2.102658E+05  1.916202E+02  9.364312E+02  6.917053E+04 -1.426526E-10  2.101719E-11
       396  16  2.464108E+05  8.427061E+03  6.687145E+03  6.918139E+04 -2.122644E-10 -1.988564E-11
       396  17  3.072811E+05  2.263029E+04  1.666825E+04  6.315799E+04  1.261079E-10 -4.691107E-11
       396  18  3.684793E+05  3.721370E+04  2.788623E+04  6.929600E+04  1.963180E-10 -1.055023E-10
       396  19  1.741301E+05 -8.347296E+03 -4.921180E+03  6.915968E+04  8.200646E+03 -2.581470E+03
       396  20  1.131787E+05 -2.254114E+04 -1.513292E+04  6.302153E+04  7.210464E+03 -6.683970E+03
       396  21  5.207700E+04 -3.683167E+04 -2.601393E+04  6.904503E+04  6.220112E+03 -1.007177E+04
       396  22  2.102698E+05  3.990997E+01  8.829432E+02  6.917054E+04 -3.633273E+02 -2.583017E+03
       396  23  2.102252E+05  4.483383E+01  7.677909E+02  6.308977E+04  1.923007E+01 -6.685036E+03
       396  24  2.102658E+05  1.917292E+02  9.366222E+02  6.917052E+04  4.015455E+02 -1.007241E+04
       396  25  2.464109E+05  8.427090E+03  6.687307E+03  6.918141E+04 -8.927781E+03 -2.584564E+03
       396  26  3.072812E+05  2.263035E+04  1.666843E+04  6.315803E+04 -7.173089E+03 -6.686103E+03
       396  27  3.684794E+05  3.721382E+04  2.788648E+04  6.929605E+04 -5.418456E+03 -1.007306E+04
       397   1  1.294898E+04 -4.609939E+04 -3.300841E+04  6.911250E+04 -6.740389E+03  1.217549E+04
       397   2 -4.717870E+04 -6.049554E+04 -4.787494E+04  6.217301E+04  6.618419E+03  1.167105E+04
       397   3 -1.092271E+05 -7.565772E+04 -7.162877E+04  6.688990E+04  1.997517E+04  3.715496E+03
       397   4  2.103686E+05  2.054790E+02  1.119954E+03  6.905820E+04 -5.596545E+02  1.217597E+04
       397   5  2.100837E+05  8.973581E+02  1.847175E+03  6.323005E+04 -1.505463E+03  1.166994E+04
       397   6  2.103580E+05  3.306693E+03  3.620251E+03  6.905798E+04 -2.451948E+03  3.714267E+03
       397   7  4.078265E+05  4.650828E+04  3.524712E+04  6.900388E+04  5.622985E+03  1.217645E+04
       397   8  4.674099E+05  6.228636E+04  5.156645E+04  6.428754E+04 -9.632635E+03  1.166881E+04
       397   9  5.300381E+05  8.226410E+04  7.886414E+04  7.122717E+04 -2.489054E+04  3.712882E+03
       397  10  1.294889E+04 -4.609957E+04 -3.300878E+04  6.911256E+04 -1.959854E-11  4.022745E-11
       397  11 -4.717878E+04 -6.049570E+04 -4.787527E+04  6.217295E+04 -1.021376E-10 -4.473620E-11
       397  12 -1.092275E+05 -7.565784E+04 -7.162955E+04  6.688984E+04 -1.382753E-10 -8.180094E-12
       397  13  2.103685E+05  2.053197E+02  1.119675E+03  6.905820E+04 -5.236921E-11 -8.568996E-11
       397  14  2.100837E+05  8.972112E+02  1.846915E+03  6.323007E+04 -1.024672E-10 -2.258814E-11
       397  15  2.103580E+05  3.306676E+03  3.620214E+03  6.905798E+04  2.776946E-10 -1.300245E-11
       397  16  4.078264E+05  4.650811E+04  3.524678E+04  6.900382E+04  1.540630E-10  4.058292E-12
       397  17  4.674098E+05  6.228618E+04  5.156602E+04  6.428763E+04 -3.378617E-11 -9.324855E-11
       397  18  5.300375E+05  8.226392E+04  7.886295E+04  7.122724E+04  2.218610E-10 -2.652329E-11
       397  19  1.294898E+04 -4.609939E+04 -3.300841E+04  6.911250E+04  6.740389E+03 -1.217549E+04
       397  20 -4.717870E+04 -6.049554E+04 -4.787494E+04  6.217301E+04 -6.618419E+03 -1.167105E+04
       397  21 -1.092271E+05 -7.565772E+04 -7.162877E+04  6.688990E+04 -1.997517E+04 -3.715496E+03
       397  22  2.103686E+05  2.054790E+02  1.119954E+03  6.905820E+04  5.596545E+02 -1.217597E+04
       397  23  2.100837E+05  8.973581E+02  1.847175E+03  6.323005E+04  1.505463E+03 -1.166994E+04
       397  24  2.103580E+05  3.306693E+03  3.620251E+03  6.905798E+04  2.451948E+03 -3.714267E+03
       397  25  4.078265E+05  4.650828E+04  3.524712E+04  6.900388E+04 -5.622985E+03 -1.217645E+04
       397  26  4.674099E+05  6.228636E+04  5.156645E+04  6.428754E+04  9.632635E+03 -1.166881E+04
       397  27  5.300381E+05  8.226410E+04  7.886414E+04  7.122717E+04  2.489054E+04 -3.712882E+03
       398   1 -9.260176E+04 -2.981609E+05 -9.720842E+04  9.348362E+04 -1.094894E+03 -5.129353E+04
       398   2 -3.599102E+04 -2.448603E+05 -5.044950E+04  6.837974E+04 -2.805314E+03 -2.796599E+04
       398   3 -1.183992E+04 -2.027126E+05 -2.699768E+04  5.258581E+04 -1.401251E+03 -4.636313E+03
       398   4 -6.069440E+04 -1.694258E+05 -6.637286E+04  5.399678E+04 -1.090736E+03 -4.501472E+04
       398   5 -1.656923E+04 -1.643644E+05 -3.382159E+04  4.933740E+04 -2.804383E+03 -2.766445E+04
       398   6 -3.864261E+03 -1.694186E+05 -2.042276E+04  5.399009E+04 -1.402194E+03 -1.031402E+04
       398   7 -2.878235E+04 -4.067220E+04 -3.553749E+04  1.450171E+04 -1.087379E+03 -3.873461E+04
       398   8  2.853506E+03 -8.386164E+04 -1.719384E+04  3.029254E+04 -2.803470E+03 -2.736288E+04
       398   9  4.111353E+03 -1.361235E+05 -1.384777E+04  5.539444E+04 -1.403163E+03 -1.599203E+04
       398  10 -9.260247E+04 -2.981637E+05 -9.721337E+04  9.348358E+04 -5.145035E-11 -1.138144E-10
       398  11 -3.599124E+04 -2.448611E+05 -5.045099E+04  6.837967E+04 -1.502260E-10  6.851613E-11
       398  12 -1.183992E+04 -2.027126E+05 -2.699772E+04  5.258580E+04 -1.164131E-10  1.068910E-10
       398  13 -6.069494E+04 -1.694280E+05 -6.637667E+04  5.399674E+04 -1.427816E-10  7.835386E-11
       398  14 -1.656945E+04 -1.643652E+05 -3.382305E+04  4.933733E+04  1.776878E-10 -3.833460E-11
       398  15 -3.864291E+03 -1.694187E+05 -2.042296E+04  5.399007E+04 -5.162511E-11  8.818057E-11
       398  16 -2.878276E+04 -4.067381E+04 -3.554031E+04  1.450168E+04  4.965299E-11  9.978336E-11
       398  17  2.853296E+03 -8.386244E+04 -1.719526E+04  3.029248E+04  1.227168E-10  1.040043E-10
       398  18  4.111282E+03 -1.361238E+05 -1.384826E+04  5.539442E+04  5.136825E-11 -7.710939E-11
       398  19 -9.260176E+04 -2.981609E+05 -9.720842E+04  9.348362E+04  1.094894E+03  5.129353E+04
       398  20 -3.599102E+04 -2.448603E+05 -5.044950E+04  6.837974E+04  2.805314E+03  2.796599E+04
       398  21 -1.183992E+04 -2.027126E+05 -2.699768E+04  5.258581E+04  1.401251E+03  4.636313E+03
       398  22 -6.069440E+04 -1.694258E+05 -6.637286E+04  5.399678E+04  1.090736E+03  4.501472E+04
       398  23 -1.656923E+04 -1.643644E+05 -3.382159E+04  4.933740E+04  2.804383E+03  2.766445E+04
       398  24 -3.864261E+03 -1.694186E+05 -2.042276E+04  5.399009E+04  1.402194E+03  1.031402E+04
       398  25 -2.878235E+04 -4.067220E+04 -3.553749E+04  1.450171E+04  1.087379E+03  3.873461E+04
       398  26  2.853506E+03 -8.386164E+04 -1.719384E+04  3.029254E+04  2.803470E+03  2.736288E+04
       398  27  4.111353E+03 -1.361235E+05 -1.384777E+04  5.539444E+04  1.403163E+03  1.599203E+04
       399   1 -4.364204E+03 -1.703451E+05 -1.827801E+04  5.607013E+04  4.416910E+02 -1.925831E+03
       399   2  8.970621E+03 -1.217263E+05 -6.731095E+03  4.933355E+04  3.228192E+03  4.631622E+03
       399   3  1.839787E+04 -7.493723E+04 -4.313829E+02  5.208944E+04  5.804869E+03  1.118964E+04
       399   4 -3.566444E+03 -1.675935E+05 -1.703747E+04  5.403069E+04  4.407702E+02 -7.474094E+03
       399   5 -1.453594E+03 -1.666433E+05 -1.392796E+04  4.928436E+04  3.227410E+03 -5.143119E+02
       399   6 -3.318226E+03 -1.675949E+05 -1.634522E+04  5.403070E+04  5.804258E+03  6.445567E+03
       399   7 -2.768652E+03 -1.648418E+05 -1.579680E+04  5.199124E+04  4.398859E+02 -1.302238E+04
       399   8 -1.187790E+04 -2.115581E+05 -2.112479E+04  4.923517E+04  3.226630E+03 -5.659887E+03
       399   9 -2.503475E+04 -2.602441E+05 -3.225925E+04  5.597166E+04  5.803618E+03  1.702178E+03
       399  10 -4.364206E+03 -1.703451E+05 -1.827802E+04  5.607013E+04 -5.186127E-11 -1.164932E-10
       399  11  8.970604E+03 -1.217264E+05 -6.731155E+03  4.933354E+04  1.397160E-10  1.623920E-10
       399  12  1.839780E+04 -7.493737E+04 -4.316815E+02  5.208939E+04  1.378068E-10  1.533682E-10
       399  13 -3.566459E+03 -1.675935E+05 -1.703757E+04  5.403069E+04  6.746068E-11  3.260410E-11
       399  14 -1.453605E+03 -1.666433E+05 -1.392798E+04  4.928436E+04  2.637779E-11  1.704692E-10
       399  15 -3.318273E+03 -1.675949E+05 -1.634536E+04  5.403067E+04  8.860345E-11  1.858750E-10
       399  16 -2.768698E+03 -1.648420E+05 -1.579712E+04  5.199124E+04  2.745107E-12  4.804521E-11
       399  17 -1.187792E+04 -2.115582E+05 -2.112487E+04  4.923519E+04 -2.228195E-11  3.470646E-11
       399  18 -2.503479E+04 -2.602441E+05 -3.225932E+04  5.597165E+04  9.353155E-11 -1.306810E-10
       399  19 -4.364204E+03 -1.703451E+05 -1.827801E+04  5.607013E+04 -4.416910E+02  1.925831E+03
       399  20  8.970621E+03 -1.217263E+05 -6.731095E+03  4.933355E+04 -3.228192E+03 -4.631622E+03
       399  21  1.839787E+04 -7.493723E+04 -4.313829E+02  5.208944E+04 -5.804869E+03 -1.118964E+04
       399  22 -3.566444E+03 -1.675935E+05 -1.703747E+04  5.403069E+04 -4.407702E+02  7.474094E+03
       399  23 -1.453594E+03 -1.666433E+05 -1.392796E+04  4.928436E+04 -3.227410E+03  5.143119E+02
       399  24 -3.318226E+03 -1.675949E+05 -1.634522E+04  5.403070E+04 -5.804258E+03 -6.445567E+03
       399  25 -2.768652E+03 -1.648418E+05 -1.579680E+04  5.199124E+04 -4.398859E+02  1.302238E+04
       399  26 -1.187790E+04 -2.115581E+05 -2.112479E+04  4.923517E+04 -3.226630E+03  5.659887E+03
       399  27 -2.503475E+04 -2.602441E+05 -3.225925E+04  5.597166E+04 -5.803618E+03 -1.702178E+03
       400   1  2.536112E+04 -4.595460E+04  2.145245E+03  5.524138E+04  7.486906E+03  1.414147E+04
       400   2  2.531552E+04  5.619421E+03  1.630635E+03  3.171772E+04  7.522233E+03  2.048708E+04
       400   3 -2.139344E+03  4.952036E+04 -9.866826E+03  1.735221E+04  2.440295E+03  2.683318E+04
       400   4 -3.597685E+03 -1.692585E+05 -1.932885E+04  5.395640E+04  7.486300E+03  9.160013E+03
       400   5 -1.535205E+04 -1.645714E+05 -3.151990E+04  4.937930E+04  7.523525E+03  2.532696E+04
       400   6 -5.622651E+04 -1.692681E+05 -6.151729E+04  5.396131E+04  2.443227E+03  4.149356E+04
       400   7 -3.255729E+04 -2.925474E+05 -4.080339E+04  5.267169E+04  7.485715E+03  4.179515E+03
       400   8 -5.602016E+04 -3.347337E+05 -6.467156E+04  6.703594E+04  7.525092E+03  3.016555E+04
       400   9 -1.103120E+05 -3.880092E+05 -1.131695E+05  9.055743E+04  2.447889E+03  5.614881E+04
       400  10  2.536100E+04 -4.595483E+04  2.144764E+03  5.524129E+04  1.720374E-11 -2.858046E-10
       400  11  2.531534E+04  5.618955E+03  1.629740E+03  3.171760E+04  1.213180E-10  1.810108E-11
       400  12 -2.139544E+03  4.951958E+04 -9.868190E+03  1.735215E+04  2.964139E-11  1.667886E-10
       400  13 -3.597768E+03 -1.692586E+05 -1.932911E+04  5.395635E+04  6.894441E-11  7.711823E-12
       400  14 -1.535228E+04 -1.645721E+05 -3.152122E+04  4.937915E+04 -1.606501E-10  5.381476E-12
       400  15 -5.622698E+04 -1.692699E+05 -6.152053E+04  5.396122E+04 -1.334432E-10 -2.256491E-11
       400  16 -3.255736E+04 -2.925474E+05 -4.080353E+04  5.267167E+04  1.098051E-10  2.848058E-10
       400  17 -5.602047E+04 -3.347347E+05 -6.467338E+04  6.703576E+04 -7.300208E-11  1.258518E-10
       400  18 -1.103128E+05 -3.880126E+05 -1.131755E+05  9.055732E+04 -9.782101E-12 -1.296259E-10
       400  19  2.536112E+04 -4.595460E+04  2.145245E+03  5.524138E+04 -7.486906E+03 -1.414147E+04
       400  20  2.531552E+04  5.619421E+03  1.630635E+03  3.171772E+04 -7.522233E+03 -2.048708E+04
       400  21 -2.139344E+03  4.952036E+04 -9.866826E+03  1.735221E+04 -2.440295E+03 -2.683318E+04
       400  22 -3.597685E+03 -1.692585E+05 -1.932885E+04  5.395640E+04 -7.486300E+03 -9.160013E+03
       400  23 -1.535205E+04 -1.645714E+05 -3.151990E+04  4.937930E+04 -7.523525E+03 -2.532696E+04
       400  24 -5.622651E+04 -1.692681E+05 -6.151729E+04  5.396131E+04 -2.443227E+03 -4.149356E+04
       400  25 -3.255729E+04 -2.925474E+05 -4.080339E+04  5.267169E+04 -7.485715E+03 -4.179515E+03
       400  26 -5.602016E+04 -3.347337E+05 -6.467156E+04  6.703594E+04 -7.525092E+03 -3.016555E+04
       400  27 -1.103120E+05 -3.880092E+05 -1.131695E+05  9.055743E+04 -2.447889E+03 -5.614881E+04
       401   1  2.187435E+05  1.655627E+05  4.124510E+04  1.548446E+05  2.737961E+04  2.134317E+04
       401   2  2.279300E+05  1.325983E+05  1.833416E+04  1.707617E+05  1.753472E+04  1.562239E+04
       401   3  2.538241E+05  1.164319E+05  9.189920E+03  1.774477E+05  8.520493E+03  8.793455E+03
       401   4  2.931276E+05  1.645482E+05  5.513727E+04  1.669139E+05  3.049196E+04  2.367477E+04
       401   5  2.760081E+05  1.407359E+05  2.719928E+04  1.829186E+05  1.851632E+04  1.635771E+04
       401   6  2.760563E+05  1.341818E+05  1.487514E+04  1.896924E+05  7.371814E+03  7.932118E+03
       401   7  3.675196E+05  1.635352E+05  6.902984E+04  1.789831E+05  3.360485E+04  2.600626E+04
       401   8  3.240897E+05  1.488739E+05  3.606456E+04  1.950760E+05  1.949803E+04  1.709304E+04
       401   9  2.982895E+05  1.519325E+05  2.056051E+04  2.019379E+05  6.223057E+03  7.070715E+03
       401  10  2.187426E+05  1.655620E+05  4.124284E+04  1.548442E+05  5.592306E-11  3.185077E-11
       401  11  2.279296E+05  1.325979E+05  1.833313E+04  1.707615E+05  9.930202E-11  4.294583E-11
       401  12  2.538240E+05  1.164318E+05  9.189639E+03  1.774477E+05  1.960476E-10  4.827740E-11
       401  13  2.931264E+05  1.645474E+05  5.513447E+04  1.669133E+05 -1.619047E-10 -1.170748E-11
       401  14  2.760076E+05  1.407355E+05  2.719814E+04  1.829183E+05 -1.084365E-10 -6.182257E-11
       401  15  2.760562E+05  1.341817E+05  1.487492E+04  1.896924E+05 -5.515545E-11 -4.665124E-11
       401  16  3.675182E+05  1.635342E+05  6.902645E+04  1.789824E+05  4.748542E-11 -4.003140E-11
       401  17  3.240892E+05  1.488735E+05  3.606330E+04  1.950757E+05 -8.045778E-11 -6.015572E-11
       401  18  2.982895E+05  1.519325E+05  2.056034E+04  2.019379E+05 -4.729331E-11 -1.118046E-10
       401  19  2.187435E+05  1.655627E+05  4.124510E+04  1.548446E+05 -2.737961E+04 -2.134317E+04
       401  20  2.279300E+05  1.325983E+05  1.833416E+04  1.707617E+05 -1.753472E+04 -1.562239E+04
       401  21  2.538241E+05  1.164319E+05  9.189920E+03  1.774477E+05 -8.520493E+03 -8.793455E+03
       401  22  2.931276E+05  1.645482E+05  5.513727E+04  1.669139E+05 -3.049196E+04 -2.367477E+04
       401  23  2.760081E+05  1.407359E+05  2.719928E+04  1.829186E+05 -1.851632E+04 -1.635771E+04
       401  24  2.760563E+05  1.341818E+05  1.487514E+04  1.896924E+05 -7.371814E+03 -7.932118E+03
       401  25  3.675196E+05  1.635352E+05  6.902984E+04  1.789831E+05 -3.360485E+04 -2.600626E+04
       401  26  3.240897E+05  1.488739E+05  3.606456E+04  1.950760E+05 -1.949803E+04 -1.709304E+04
       401  27  2.982895E+05  1.519325E+05  2.056051E+04  2.019379E+05 -6.223057E+03 -7.070715E+03
       402   1  2.562816E+05  1.225523E+05  7.095710E+03  1.806155E+05  7.207287E+03  7.212039E+03
       402   2  2.643382E+05  1.281425E+05  4.405855E+03  1.865053E+05  5.405131E+03  4.880331E+03
       402   3  2.760334E+05  1.325583E+05  3.983434E+03  1.912307E+05  3.689341E+03  2.433459E+03
       402   4  2.749229E+05  1.334082E+05  1.125758E+04  1.890013E+05  6.112722E+03  6.391231E+03
       402   5  2.725664E+05  1.330583E+05  6.239406E+03  1.902685E+05  4.089205E+03  3.893568E+03
       402   6  2.738965E+05  1.315820E+05  3.680705E+03  1.903714E+05  2.152087E+03  1.280752E+03
       402   7  2.935641E+05  1.442640E+05  1.541931E+04  1.973872E+05  5.018136E+03  5.570413E+03
       402   8  2.807945E+05  1.379741E+05  8.072933E+03  1.940317E+05  2.773271E+03  2.906801E+03
       402   9  2.717595E+05  1.306057E+05  3.377991E+03  1.895121E+05  6.148409E+02  1.280493E+02
       402  10  2.562816E+05  1.225522E+05  7.095514E+03  1.806155E+05 -8.354612E-11 -8.734353E-11
       402  11  2.643382E+05  1.281425E+05  4.405756E+03  1.865053E+05 -1.041393E-10  1.102595E-10
       402  12  2.760334E+05  1.325583E+05  3.983397E+03  1.912307E+05 -1.523786E-11  1.246440E-10
       402  13  2.749228E+05  1.334081E+05  1.125743E+04  1.890013E+05 -2.227803E-10 -1.440321E-12
       402  14  2.725663E+05  1.330583E+05  6.239346E+03  1.902685E+05 -8.151206E-11  1.207608E-10
       402  15  2.738964E+05  1.315820E+05  3.680693E+03  1.903714E+05  1.249131E-10  1.125901E-10
       402  16  2.935641E+05  1.442640E+05  1.541920E+04  1.973871E+05  4.414054E-11  7.807188E-11
       402  17  2.807945E+05  1.379741E+05  8.072903E+03  1.940317E+05 -1.546440E-10  1.050045E-10
       402  18  2.717595E+05  1.306057E+05  3.377990E+03  1.895121E+05 -9.208041E-11  9.077735E-12
       402  19  2.562816E+05  1.225523E+05  7.095710E+03  1.806155E+05 -7.207287E+03 -7.212039E+03
       402  20  2.643382E+05  1.281425E+05  4.405855E+03  1.865053E+05 -5.405131E+03 -4.880331E+03
       402  21  2.760334E+05  1.325583E+05  3.983434E+03  1.912307E+05 -3.689341E+03 -2.433459E+03
       402  22  2.749229E+05  1.334082E+05  1.125758E+04  1.890013E+05 -6.112722E+03 -6.391231E+03
       402  23  2.725664E+05  1.330583E+05  6.239406E+03  1.902685E+05 -4.089205E+03 -3.893568E+03
       402  24  2.738965E+05  1.315820E+05  3.680705E+03  1.903714E+05 -2.152087E+03 -1.280752E+03
       402  25  2.935641E+05  1.442640E+05  1.541931E+04  1.973872E+05 -5.018136E+03 -5.570413E+03
       402  26  2.807945E+05  1.379741E+05  8.072933E+03  1.940317E+05 -2.773271E+03 -2.906801E+03
       402  27  2.717595E+05  1.306057E+05  3.377991E+03  1.895121E+05 -6.148409E+02 -1.280493E+02
       403   1  2.818085E+05  1.370083E+05  4.577223E+03  1.943188E+05  3.580686E+03  1.617225E+03
       403   2  2.899885E+05  1.449093E+05  5.709418E+03  1.995844E+05  3.373862E+03  2.231194E+02
       403   3  3.008682E+05  1.504264E+05  7.530632E+03  2.041186E+05  3.159910E+03 -1.161519E+03
       403   4  2.738053E+05  1.315312E+05  2.907296E+03  1.902956E+05  2.048055E+03  4.679749E+02
       403   5  2.724445E+05  1.327021E+05  1.976179E+03  1.906785E+05  1.859446E+03 -9.124961E+02
       403   6  2.737792E+05  1.314850E+05  1.718183E+03  1.903299E+05  1.663735E+03 -2.283469E+03
       403   7  2.658021E+05  1.260539E+05  1.237326E+03  1.862723E+05  5.154191E+02 -6.812786E+02
       403   8  2.549009E+05  1.204951E+05 -1.757060E+03  1.817730E+05  3.450876E+02 -2.048070E+03
       403   9  2.466916E+05  1.125444E+05 -4.094095E+03  1.765423E+05  1.676778E+02 -3.405331E+03
       403  10  2.818085E+05  1.370083E+05  4.577194E+03  1.943188E+05 -2.149339E-10 -8.372612E-11
       403  11  2.899885E+05  1.449093E+05  5.709396E+03  1.995844E+05 -1.857743E-10 -1.687186E-11
       403  12  3.008682E+05  1.504264E+05  7.530611E+03  2.041186E+05  1.824749E-10 -3.464737E-11
       403  13  2.738053E+05  1.315312E+05  2.907288E+03  1.902956E+05  4.403914E-11  3.806270E-11
       403  14  2.724445E+05  1.327021E+05  1.976171E+03  1.906785E+05  2.633504E-10  9.392352E-11
       403  15  2.737792E+05  1.314850E+05  1.718168E+03  1.903299E+05  5.269302E-11 -3.854555E-11
       403  16  2.658021E+05  1.260539E+05  1.237324E+03  1.862723E+05  7.427419E-11  1.357663E-10
       403  17  2.549009E+05  1.204951E+05 -1.757068E+03  1.817730E+05  1.767111E-10  7.037876E-11
       403  18  2.466916E+05  1.125444E+05 -4.094117E+03  1.765423E+05 -4.200048E-11 -7.301828E-11
       403  19  2.818085E+05  1.370083E+05  4.577223E+03  1.943188E+05 -3.580686E+03 -1.617225E+03
       403  20  2.899885E+05  1.449093E+05  5.709418E+03  1.995844E+05 -3.373862E+03 -2.231194E+02
       403  21  3.008682E+05  1.504264E+05  7.530632E+03  2.041186E+05 -3.159910E+03  1.161519E+03
       403  22  2.738053E+05  1.315312E+05  2.907296E+03  1.902956E+05 -2.048055E+03 -4.679749E+02
       403  23  2.724445E+05  1.327021E+05  1.976179E+03  1.906785E+05 -1.859446E+03  9.124961E+02
       403  24  2.737792E+05  1.314850E+05  1.718183E+03  1.903299E+05 -1.663735E+03  2.283469E+03
       403  25  2.658021E+05  1.260539E+05  1.237326E+03  1.862723E+05 -5.154191E+02  6.812786E+02
       403  26  2.549009E+05  1.204951E+05 -1.757060E+03  1.817730E+05 -3.450876E+02  2.048070E+03
       403  27  2.466916E+05  1.125444E+05 -4.094095E+03  1.765423E+05 -1.676778E+02  3.405331E+03
       404   1  3.068848E+05  1.548234E+05  8.982499E+03  2.072613E+05  3.270140E+03 -1.802348E+03
       404   2  3.153960E+05  1.626159E+05  1.180987E+04  2.122405E+05  2.431382E+03 -3.494770E+03
       404   3  3.269158E+05  1.684464E+05  1.589998E+04  2.163511E+05  1.437832E+03 -4.980790E+03
       404   4  2.737965E+05  1.315016E+05  1.789611E+03  1.903436E+05  1.764233E+03 -2.931611E+03
       404   5  2.725071E+05  1.328313E+05  2.386686E+03  1.905487E+05  1.322101E+03 -4.326654E+03
       404   6  2.741401E+05  1.321130E+05  3.902467E+03  1.898849E+05  7.251899E+02 -5.515272E+03
       404   7  2.407095E+05  1.081806E+05 -5.403323E+03  1.734270E+05  2.584310E+02 -4.060794E+03
       404   8  2.296199E+05  1.030476E+05 -7.036749E+03  1.688583E+05  2.129097E+02 -5.158471E+03
       404   9  2.213666E+05  9.578044E+04 -8.095582E+03  1.634208E+05  1.261397E+01 -6.049706E+03
       404  10  3.068848E+05  1.548233E+05  8.982473E+03  2.072613E+05 -3.380615E-11 -2.426190E-10
       404  11  3.153960E+05  1.626158E+05  1.180984E+04  2.122406E+05  7.726032E-11 -1.407173E-10
       404  12  3.269157E+05  1.684463E+05  1.589993E+04  2.163511E+05  3.380071E-10 -2.338393E-11
       404  13  2.737965E+05  1.315016E+05  1.789589E+03  1.903436E+05 -1.042178E-10 -9.330703E-11
       404  14  2.725071E+05  1.328313E+05  2.386647E+03  1.905487E+05  2.169285E-10 -6.226495E-11
       404  15  2.741401E+05  1.321129E+05  3.902409E+03  1.898849E+05  5.501568E-11 -1.092706E-10
       404  16  2.407095E+05  1.081806E+05 -5.403355E+03  1.734270E+05  1.702743E-10  1.003539E-10
       404  17  2.296199E+05  1.030475E+05 -7.036799E+03  1.688583E+05  9.298319E-12 -6.766334E-12
       404  18  2.213666E+05  9.578040E+04 -8.095651E+03  1.634208E+05 -5.322467E-11 -9.291712E-11
       404  19  3.068848E+05  1.548234E+05  8.982499E+03  2.072613E+05 -3.270140E+03  1.802348E+03
       404  20  3.153960E+05  1.626159E+05  1.180987E+04  2.122405E+05 -2.431382E+03  3.494770E+03
       404  21  3.269158E+05  1.684464E+05  1.589998E+04  2.163511E+05 -1.437832E+03  4.980790E+03
       404  22  2.737965E+05  1.315016E+05  1.789611E+03  1.903436E+05 -1.764233E+03  2.931611E+03
       404  23  2.725071E+05  1.328313E+05  2.386686E+03  1.905487E+05 -1.322101E+03  4.326654E+03
       404  24  2.741401E+05  1.321130E+05  3.902467E+03  1.898849E+05 -7.251899E+02  5.515272E+03
       404  25  2.407095E+05  1.081806E+05 -5.403323E+03  1.734270E+05 -2.584310E+02  4.060794E+03
       404  26  2.296199E+05  1.030476E+05 -7.036749E+03  1.688583E+05 -2.129097E+02  5.158471E+03
       404  27  2.213666E+05  9.578044E+04 -8.095582E+03  1.634208E+05 -1.261397E+01  6.049706E+03
       405   1  3.326198E+05  1.739674E+05  1.870869E+04  2.199591E+05  1.229044E+03 -5.613665E+03
       405   2  3.466718E+05  1.782984E+05  2.679758E+04  2.209079E+05 -6.679240E+03 -1.066999E+04
       405   3  3.687778E+05  1.875964E+05  4.333782E+04  2.183520E+05 -1.605881E+04 -1.376486E+04
       405   4  2.744835E+05  1.323968E+05  5.049829E+03  1.901187E+05  4.201101E+02 -6.220375E+03
       405   5  2.736883E+05  1.353438E+05  9.054440E+03  1.881032E+05 -3.719349E+03 -8.450448E+03
       405   6  2.801303E+05  1.424410E+05  1.824130E+04  1.825832E+05 -9.329904E+03 -8.718986E+03
       405   7  2.163522E+05  9.082914E+04 -8.608884E+03  1.602820E+05 -3.887091E+02 -6.826997E+03
       405   8  2.007123E+05  9.239192E+04 -8.688612E+03  1.553032E+05 -7.599803E+02 -6.231226E+03
       405   9  1.914931E+05  9.728825E+04 -6.855206E+03  1.468199E+05 -2.602444E+03 -3.673831E+03
       405  10  3.326198E+05  1.739673E+05  1.870863E+04  2.199591E+05  1.939366E-11 -1.218121E-10
       405  11  3.466717E+05  1.782983E+05  2.679728E+04  2.209078E+05 -5.447109E-11 -1.270694E-10
       405  12  3.687775E+05  1.875961E+05  4.333698E+04  2.183518E+05  1.586662E-10  5.973405E-11
       405  13  2.744835E+05  1.323968E+05  5.049756E+03  1.901187E+05 -9.811681E-12 -9.064523E-11
       405  14  2.736883E+05  1.353437E+05  9.054279E+03  1.881032E+05  2.932258E-11 -6.416256E-11
       405  15  2.801302E+05  1.424409E+05  1.824100E+04  1.825831E+05  2.995618E-11  2.691802E-11
       405  16  2.163522E+05  9.082909E+04 -8.608971E+03  1.602820E+05  2.220664E-10  3.696741E-11
       405  17  2.007123E+05  9.239188E+04 -8.688686E+03  1.553032E+05  3.981270E-11  4.962642E-11
       405  18  1.914931E+05  9.728823E+04 -6.855244E+03  1.468199E+05  3.246930E-11  8.688289E-12
       405  19  3.326198E+05  1.739674E+05  1.870869E+04  2.199591E+05 -1.229044E+03  5.613665E+03
       405  20  3.466718E+05  1.782984E+05  2.679758E+04  2.209079E+05  6.679240E+03  1.066999E+04
       405  21  3.687778E+05  1.875964E+05  4.333782E+04  2.183520E+05  1.605881E+04  1.376486E+04
       405  22  2.744835E+05  1.323968E+05  5.049829E+03  1.901187E+05 -4.201101E+02  6.220375E+03
       405  23  2.736883E+05  1.353438E+05  9.054440E+03  1.881032E+05  3.719349E+03  8.450448E+03
       405  24  2.801303E+05  1.424410E+05  1.824130E+04  1.825832E+05  9.329904E+03  8.718986E+03
       405  25  2.163522E+05  9.082914E+04 -8.608884E+03  1.602820E+05  3.887091E+02  6.826997E+03
       405  26  2.007123E+05  9.239192E+04 -8.688612E+03  1.553032E+05  7.599803E+02  6.231226E+03
       405  27  1.914931E+05  9.728825E+04 -6.855206E+03  1.468199E+05  2.602444E+03  3.673831E+03
       406   1  1.620289E+05  4.416745E+03 -1.535977E+03  2.420406E+04 -2.049848E+04 -2.069087E+03
       406   2  1.186453E+05  2.304008E+04  5.316748E+03  3.430811E+04 -1.727960E+04 -6.243153E+03
       406   3  6.966078E+04  2.090535E+04  4.885850E+03  5.330483E+04 -1.406075E+04 -5.863504E+03
       406   4 -3.056045E+04 -4.321112E+04 -4.709305E+04  5.222389E+04 -3.287939E+04 -2.070291E+03
       406   5 -2.699595E+04 -1.180706E+04 -2.328832E+04  4.777656E+04 -2.091874E+04 -6.243788E+03
       406   6 -3.055545E+04 -2.682561E+03 -1.283972E+04  5.222313E+04 -8.957878E+03 -5.863228E+03
       406   7 -2.231137E+05 -9.083861E+04 -9.265169E+04  8.023497E+04 -4.525649E+04 -2.072614E+03
       406   8 -1.726165E+05 -4.665480E+04 -5.189427E+04  6.124179E+04 -2.455705E+04 -6.244581E+03
       406   9 -1.307618E+05 -2.627101E+04 -3.056557E+04  5.114161E+04 -3.855803E+03 -5.862971E+03
       406  10  1.620284E+05  4.416628E+03 -1.536774E+03  2.420403E+04  4.771512E-11 -2.528377E-11
       406  11  1.186450E+05  2.303996E+04  5.316114E+03  3.430803E+04 -8.510688E-11 -5.629987E-11
       406  12  6.966056E+04  2.090526E+04  4.885414E+03  5.330476E+04 -2.322127E-10  3.456087E-11
       406  13 -3.056162E+04 -4.321141E+04 -4.709509E+04  5.222383E+04 -9.217875E-11  1.328258E-11
       406  14 -2.699643E+04 -1.180722E+04 -2.328921E+04  4.777646E+04 -6.988160E-11 -6.581221E-11
       406  15 -3.055554E+04 -2.682620E+03 -1.283994E+04  5.222309E+04 -2.141658E-10  6.145990E-11
       406  16 -2.231159E+05 -9.083916E+04 -9.265555E+04  8.023490E+04 -8.196512E-11 -1.651156E-11
       406  17 -1.726172E+05 -4.665500E+04 -5.189547E+04  6.124166E+04 -1.422220E-11 -4.092626E-11
       406  18 -1.307618E+05 -2.627105E+04 -3.056566E+04  5.114159E+04  1.168615E-10  4.441099E-11
       406  19  1.620289E+05  4.416745E+03 -1.535977E+03  2.420406E+04  2.049848E+04  2.069087E+03
       406  20  1.186453E+05  2.304008E+04  5.316748E+03  3.430811E+04  1.727960E+04  6.243153E+03
       406  21  6.966078E+04  2.090535E+04  4.885850E+03  5.330483E+04  1.406075E+04  5.863504E+03
       406  22 -3.056045E+04 -4.321112E+04 -4.709305E+04  5.222389E+04  3.287939E+04  2.070291E+03
       406  23 -2.699595E+04 -1.180706E+04 -2.328832E+04  4.777656E+04  2.091874E+04  6.243788E+03
       406  24 -3.055545E+04 -2.682561E+03 -1.283972E+04  5.222313E+04  8.957878E+03  5.863228E+03
       406  25 -2.231137E+05 -9.083861E+04 -9.265169E+04  8.023497E+04  4.525649E+04  2.072614E+03
       406  26 -1.726165E+05 -4.665480E+04 -5.189427E+04  6.124179E+04  2.455705E+04  6.244581E+03
       406  27 -1.307618E+05 -2.627101E+04 -3.056557E+04  5.114161E+04  3.855803E+03  5.862971E+03
       407   1  4.146836E+04  1.413169E+04  2.630459E+03  5.108924E+04 -1.216157E+04 -4.175145E+03
       407   2 -4.377584E+03  5.216873E+03 -1.357755E+03  4.721356E+04 -1.012308E+04 -1.425762E+03
       407   3 -5.082806E+04 -5.063874E+03 -7.014476E+03  5.254373E+04 -8.084710E+03  1.737544E+03
       407   4 -2.913682E+04 -2.475710E+03 -9.803081E+03  5.229233E+04 -7.279815E+03 -4.174851E+03
       407   5 -2.876439E+04 -5.236134E+02 -5.673443E+03  4.768930E+04 -4.447043E+03 -1.425356E+03
       407   6 -2.913603E+04 -7.520632E+01 -3.764060E+03  5.229219E+04 -1.614245E+03  1.738069E+03
       407   7 -9.973707E+04 -1.908336E+04 -2.223671E+04  5.349528E+04 -2.398599E+03 -4.174538E+03
       407   8 -5.315055E+04 -6.264114E+03 -9.989032E+03  4.816502E+04  1.228773E+03 -1.424941E+03
       407   9 -7.443435E+03  4.913462E+03 -5.134954E+02  5.204064E+04  4.856436E+03  1.738588E+03
       407  10  4.146820E+04  1.413163E+04  2.630148E+03  5.108920E+04  3.352327E-11  3.272432E-11
       407  11 -4.377695E+03  5.216843E+03 -1.357951E+03  4.721355E+04 -2.839316E-11  1.039194E-11
       407  12 -5.082813E+04 -5.063895E+03 -7.014605E+03  5.254374E+04  1.115506E-10 -6.171655E-11
       407  13 -2.913688E+04 -2.475743E+03 -9.803214E+03  5.229230E+04 -1.670214E-11  7.506188E-11
       407  14 -2.876441E+04 -5.236209E+02 -5.673484E+03  4.768929E+04 -8.416139E-11  5.488948E-11
       407  15 -2.913603E+04 -7.521027E+01 -3.764070E+03  5.229219E+04  1.994229E-11 -3.976863E-11
       407  16 -9.973708E+04 -1.908338E+04 -2.223676E+04  5.349527E+04 -1.972155E-11  2.109049E-11
       407  17 -5.315055E+04 -6.264117E+03 -9.989038E+03  4.816502E+04  7.503902E-11  3.313742E-11
       407  18 -7.443461E+03  4.913452E+03 -5.135454E+02  5.204063E+04 -4.201238E-11  3.054866E-11
       407  19  4.146836E+04  1.413169E+04  2.630459E+03  5.108924E+04  1.216157E+04  4.175145E+03
       407  20 -4.377584E+03  5.216873E+03 -1.357755E+03  4.721356E+04  1.012308E+04  1.425762E+03
       407  21 -5.082806E+04 -5.063874E+03 -7.014476E+03  5.254373E+04  8.084710E+03 -1.737544E+03
       407  22 -2.913682E+04 -2.475710E+03 -9.803081E+03  5.229233E+04  7.279815E+03  4.174851E+03
       407  23 -2.876439E+04 -5.236134E+02 -5.673443E+03  4.768930E+04  4.447043E+03  1.425356E+03
       407  24 -2.913603E+04 -7.520632E+01 -3.764060E+03  5.229219E+04  1.614245E+03 -1.738069E+03
       407  25 -9.973707E+04 -1.908336E+04 -2.223671E+04  5.349528E+04  2.398599E+03  4.174538E+03
       407  26 -5.315055E+04 -6.264114E+03 -9.989032E+03  4.816502E+04 -1.228773E+03  1.424941E+03
       407  27 -7.443435E+03  4.913462E+03 -5.134954E+02  5.204064E+04 -4.856436E+03 -1.738588E+03
       408   1 -8.014904E+04 -1.192063E+04 -1.140081E+04  5.228087E+04 -7.482796E+03  3.743342E+03
       408   2 -1.260157E+05 -2.275208E+04 -1.891531E+04  4.793994E+04 -4.758830E+03  6.817299E+03
       408   3 -1.724402E+05 -3.441196E+04 -2.841023E+04  5.279318E+04 -2.034905E+03  9.289203E+03
       408   4 -2.905093E+04 -8.126499E+01 -3.305426E+03  5.228956E+04 -1.004184E+03  3.743819E+03
       408   5 -2.887278E+04 -1.685529E+02 -3.149319E+03  4.769254E+04  5.640161E+02  6.817514E+03
       408   6 -2.905394E+04 -8.834421E+02 -4.170901E+03  5.228960E+04  2.132365E+03  9.289205E+03
       408   7  2.204987E+04  1.175800E+04  4.790045E+03  5.229826E+04  5.474941E+03  3.744295E+03
       408   8  6.827951E+04  2.241451E+04  1.261651E+04  4.744509E+04  5.887665E+03  6.817725E+03
       408   9  1.143526E+05  3.264400E+04  2.006784E+04  5.178589E+04  6.300567E+03  9.289200E+03
       408  10 -8.014911E+04 -1.192066E+04 -1.140094E+04  5.228089E+04  3.912988E-11 -7.245287E-12
       408  11 -1.260157E+05 -2.275214E+04 -1.891544E+04  4.793997E+04 -7.174869E-11  3.443916E-11
       408  12 -1.724402E+05 -3.441206E+04 -2.841040E+04  5.279320E+04 -1.262479E-11  7.395311E-11
       408  13 -2.905094E+04 -8.128031E+01 -3.305454E+03  5.228957E+04  1.286585E-10  1.876453E-13
       408  14 -2.887280E+04 -1.686029E+02 -3.149407E+03  4.769253E+04 -7.920368E-11  2.363907E-11
       408  15 -2.905397E+04 -8.835360E+02 -4.171072E+03  5.228958E+04 -1.073209E-10  2.969193E-12
       408  16  2.204983E+04  1.175797E+04  4.789963E+03  5.229824E+04 -1.177317E-10  2.337962E-11
       408  17  6.827946E+04  2.241445E+04  1.261636E+04  4.744505E+04  2.635861E-10 -1.432534E-11
       408  18  1.143526E+05  3.264390E+04  2.006760E+04  5.178584E+04  9.989546E-11 -6.623783E-11
       408  19 -8.014904E+04 -1.192063E+04 -1.140081E+04  5.228087E+04  7.482796E+03 -3.743342E+03
       408  20 -1.260157E+05 -2.275208E+04 -1.891531E+04  4.793994E+04  4.758830E+03 -6.817299E+03
       408  21 -1.724402E+05 -3.441196E+04 -2.841023E+04  5.279318E+04  2.034905E+03 -9.289203E+03
       408  22 -2.905093E+04 -8.126499E+01 -3.305426E+03  5.228956E+04  1.004184E+03 -3.743819E+03
       408  23 -2.887278E+04 -1.685529E+02 -3.149319E+03  4.769254E+04 -5.640161E+02 -6.817514E+03
       408  24 -2.905394E+04 -8.834421E+02 -4.170901E+03  5.228960E+04 -2.132365E+03 -9.289205E+03
       408  25  2.204987E+04  1.175800E+04  4.790045E+03  5.229826E+04 -5.474941E+03 -3.744295E+03
       408  26  6.827951E+04  2.241451E+04  1.261651E+04  4.744509E+04 -5.887665E+03 -6.817725E+03
       408  27  1.143526E+05  3.264400E+04  2.006784E+04  5.178589E+04 -6.300567E+03 -9.289200E+03
       409   1 -2.026340E+05 -4.153409E+04 -3.484870E+04  5.185103E+04 -1.630773E+03  1.083341E+04
       409   2 -2.464914E+05 -5.634629E+04 -5.065360E+04  5.275552E+04  1.465060E+04  1.008075E+04
       409   3 -2.950036E+05 -8.132742E+04 -7.960160E+04  6.243190E+04  3.092943E+04  3.167731E+03
       409   4 -2.955425E+04 -9.664957E+02 -5.114482E+03  5.219599E+04  2.836747E+03  1.083328E+04
       409   5 -2.825619E+04 -4.298404E+03 -8.686609E+03  4.780974E+04  7.295065E+03  1.008039E+04
       409   6 -2.956103E+04 -1.574442E+04 -1.718888E+04  5.219574E+04  1.175239E+04  3.167856E+03
       409   7  1.435550E+05  3.959951E+04  2.461879E+04  5.254104E+04  7.305474E+03  1.083316E+04
       409   8  1.900251E+05  4.774678E+04  3.327841E+04  4.286218E+04 -6.299695E+01  1.008015E+04
       409   9  2.359474E+05  4.983414E+04  4.522044E+04  4.195518E+04 -7.432800E+03  3.168614E+03
       409  10 -2.026340E+05 -4.153422E+04 -3.484892E+04  5.185105E+04 -1.282963E-10  4.193371E-11
       409  11 -2.464917E+05 -5.634646E+04 -5.065420E+04  5.275540E+04 -2.166565E-10 -4.542396E-11
       409  12 -2.950046E+05 -8.132769E+04 -7.960342E+04  6.243182E+04 -2.509812E-10 -5.349033E-11
       409  13 -2.955429E+04 -9.666239E+02 -5.114718E+03  5.219596E+04 -7.763059E-11  2.593496E-11
       409  14 -2.825627E+04 -4.298527E+03 -8.686900E+03  4.780968E+04 -2.402387E-11 -2.349023E-11
       409  15 -2.956118E+04 -1.574447E+04 -1.718916E+04  5.219571E+04 -6.555977E-11  2.145152E-11
       409  16  1.435549E+05  3.959937E+04  2.461847E+04  5.254098E+04  1.876748E-10 -4.641451E-11
       409  17  1.900250E+05  4.774667E+04  3.327822E+04  4.286218E+04  1.509746E-10  4.127622E-11
       409  18  2.359473E+05  4.983411E+04  4.522031E+04  4.195520E+04  1.412798E-10 -6.191305E-11
       409  19 -2.026340E+05 -4.153409E+04 -3.484870E+04  5.185103E+04  1.630773E+03 -1.083341E+04
       409  20 -2.464914E+05 -5.634629E+04 -5.065360E+04  5.275552E+04 -1.465060E+04 -1.008075E+04
       409  21 -2.950036E+05 -8.132742E+04 -7.960160E+04  6.243190E+04 -3.092943E+04 -3.167731E+03
       409  22 -2.955425E+04 -9.664957E+02 -5.114482E+03  5.219599E+04 -2.836747E+03 -1.083328E+04
       409  23 -2.825619E+04 -4.298404E+03 -8.686609E+03  4.780974E+04 -7.295065E+03 -1.008039E+04
       409  24 -2.956103E+04 -1.574442E+04 -1.718888E+04  5.219574E+04 -1.175239E+04 -3.167856E+03
       409  25  1.435550E+05  3.959951E+04  2.461879E+04  5.254104E+04 -7.305474E+03 -1.083316E+04
       409  26  1.900251E+05  4.774678E+04  3.327841E+04  4.286218E+04  6.299695E+01 -1.008015E+04
       409  27  2.359474E+05  4.983414E+04  4.522044E+04  4.195518E+04  7.432800E+03 -3.168614E+03
       410   1 -1.188747E+05 -3.707171E+05 -1.243596E+05  1.243172E+05 -1.566441E+03 -6.277802E+04
       410   2 -4.775217E+04 -2.962783E+05 -6.532253E+04  9.296424E+04 -4.019715E+03 -3.294008E+04
       410   3 -1.621943E+04 -2.356226E+05 -3.561669E+04  7.478689E+04 -2.044427E+03 -3.098556E+03
       410   4 -7.349300E+04 -1.876034E+05 -8.050459E+04  7.642331E+04 -1.559712E+03 -5.380809E+04
       410   5 -2.005044E+04 -1.814433E+05 -4.162077E+04  6.982779E+04 -4.018325E+03 -3.246797E+04
       410   6 -4.718914E+03 -1.875920E+05 -2.616030E+04  7.641126E+04 -2.046371E+03 -1.112778E+04
       410   7 -2.810501E+04 -4.453776E+03 -3.665042E+04  2.851521E+04 -1.554370E+03 -4.483552E+04
       410   8  7.652469E+03 -6.659463E+04 -1.791943E+04  4.668698E+04 -4.016970E+03 -3.199577E+04
       410   9  6.781511E+03 -1.395591E+05 -1.670378E+04  7.803575E+04 -2.048357E+03 -1.915762E+04
       410  10 -1.188758E+05 -3.707213E+05 -1.243670E+05  1.243171E+05 -8.388996E-12 -8.111339E-11
       410  11 -4.775248E+04 -2.962794E+05 -6.532460E+04  9.296414E+04  4.573160E-11 -9.959843E-11
       410  12 -1.621944E+04 -2.356227E+05 -3.561672E+04  7.478689E+04  2.760533E-11 -8.508155E-11
       410  13 -7.349378E+04 -1.876065E+05 -8.051004E+04  7.642324E+04 -2.639947E-11  3.056018E-11
       410  14 -2.005074E+04 -1.814444E+05 -4.162278E+04  6.982769E+04  1.755640E-11 -5.691384E-11
       410  15 -4.718952E+03 -1.875922E+05 -2.616054E+04  7.641124E+04 -2.597135E-11 -1.900601E-11
       410  16 -2.810556E+04 -4.455936E+03 -3.665421E+04  2.851516E+04  5.620921E-11  5.762933E-11
       410  17  7.652177E+03 -6.659573E+04 -1.792138E+04  4.668688E+04 -1.998177E-11  1.665860E-10
       410  18  6.781408E+03 -1.395594E+05 -1.670448E+04  7.803572E+04  1.982843E-11  4.451005E-11
       410  19 -1.188747E+05 -3.707171E+05 -1.243596E+05  1.243172E+05  1.566441E+03  6.277802E+04
       410  20 -4.775217E+04 -2.962783E+05 -6.532253E+04  9.296424E+04  4.019715E+03  3.294008E+04
       410  21 -1.621943E+04 -2.356226E+05 -3.561669E+04  7.478689E+04  2.044427E+03  3.098556E+03
       410  22 -7.349300E+04 -1.876034E+05 -8.050459E+04  7.642331E+04  1.559712E+03  5.380809E+04
       410  23 -2.005044E+04 -1.814433E+05 -4.162077E+04  6.982779E+04  4.018325E+03  3.246797E+04
       410  24 -4.718914E+03 -1.875920E+05 -2.616030E+04  7.641126E+04  2.046371E+03  1.112778E+04
       410  25 -2.810501E+04 -4.453776E+03 -3.665042E+04  2.851521E+04  1.554370E+03  4.483552E+04
       410  26  7.652469E+03 -6.659463E+04 -1.791943E+04  4.668698E+04  4.016970E+03  3.199577E+04
       410  27  6.781511E+03 -1.395591E+05 -1.670378E+04  7.803575E+04  2.048357E+03  1.915762E+04
       411   1 -5.690719E+03 -1.902783E+05 -2.449220E+04  7.914739E+04  5.627728E+02  4.469386E+02
       411   2  1.241868E+04 -1.214148E+05 -1.038935E+04  6.951291E+04  4.505502E+03  1.009489E+04
       411   3  2.479226E+04 -5.523933E+04 -4.003463E+03  7.331390E+04  8.155479E+03  1.974399E+04
       411   4 -4.350943E+03 -1.854769E+05 -2.258835E+04  7.646919E+04  5.608467E+02 -7.397961E+03
       411   5 -2.125208E+03 -1.840832E+05 -2.043053E+04  6.975143E+04  4.503875E+03  2.810905E+03
       411   6 -5.732866E+03 -1.854799E+05 -2.637969E+04  7.646956E+04  8.154220E+03  1.301994E+04
       411   7 -3.011110E+03 -1.806753E+05 -2.068427E+04  7.379096E+04  5.589882E+02 -1.524292E+04
       411   8 -1.666926E+04 -2.467476E+05 -3.047161E+04  6.998993E+04  4.502243E+03 -4.472371E+03
       411   9 -3.625884E+04 -3.157037E+05 -4.875631E+04  7.962455E+04  8.152893E+03  6.297256E+03
       411  10 -5.690719E+03 -1.902783E+05 -2.449220E+04  7.914739E+04 -3.994731E-11  4.800647E-11
       411  11  1.241863E+04 -1.214149E+05 -1.038958E+04  6.951288E+04  6.709545E-11 -5.720188E-11
       411  12  2.479208E+04 -5.523977E+04 -4.004321E+03  7.331377E+04  8.118587E-11 -1.270666E-10
       411  13 -4.350958E+03 -1.854769E+05 -2.258846E+04  7.646919E+04 -1.563123E-11 -1.261842E-11
       411  14 -2.125232E+03 -1.840832E+05 -2.043058E+04  6.975142E+04  4.599272E-10 -1.063507E-10
       411  15 -5.732983E+03 -1.854801E+05 -2.638013E+04  7.646948E+04 -8.007666E-11  1.035940E-11
       411  16 -3.011173E+03 -1.806755E+05 -2.068471E+04  7.379097E+04  4.070241E-12 -1.048486E-10
       411  17 -1.666929E+04 -2.467477E+05 -3.047168E+04  6.998995E+04  5.401819E-11  1.089393E-10
       411  18 -3.625892E+04 -3.157037E+05 -4.875651E+04  7.962450E+04 -6.242913E-11  1.791094E-10
       411  19 -5.690719E+03 -1.902783E+05 -2.449220E+04  7.914739E+04 -5.627728E+02 -4.469386E+02
       411  20  1.241868E+04 -1.214148E+05 -1.038935E+04  6.951291E+04 -4.505502E+03 -1.009489E+04
       411  21  2.479226E+04 -5.523933E+04 -4.003463E+03  7.331390E+04 -8.155479E+03 -1.974399E+04
       411  22 -4.350943E+03 -1.854769E+05 -2.258835E+04  7.646919E+04 -5.608467E+02  7.397961E+03
       411  23 -2.125208E+03 -1.840832E+05 -2.043053E+04  6.975143E+04 -4.503875E+03 -2.810905E+03
       411  24 -5.732866E+03 -1.854799E+05 -2.637969E+04  7.646956E+04 -8.154220E+03 -1.301994E+04
       411  25 -3.011110E+03 -1.806753E+05 -2.068427E+04  7.379096E+04 -5.589882E+02  1.524292E+04
       411  26 -1.666926E+04 -2.467476E+05 -3.047161E+04  6.998993E+04 -4.502243E+03  4.472371E+03
       411  27 -3.625884E+04 -3.157037E+05 -4.875631E+04  7.962455E+04 -8.152893E+03 -6.297256E+03
       412   1  3.456423E+04 -1.486553E+04 -1.906173E+03  7.869429E+04  1.053844E+04  2.449690E+04
       412   2  3.057700E+04  5.964387E+04 -7.473262E+03  3.919498E+04  1.060198E+04  3.846273E+04
       412   3 -2.168048E+04  1.202801E+05 -3.419744E+04  1.265782E+04  3.440938E+03  5.243023E+04
       412   4 -6.212551E+03 -1.884824E+05 -3.215004E+04  7.636428E+04  1.053713E+04  1.743691E+04
       412   5 -2.676528E+04 -1.803451E+05 -5.422693E+04  6.988849E+04  1.060535E+04  4.526422E+04
       412   6 -9.800981E+04 -1.885014E+05 -1.070942E+05  7.637724E+04  3.449207E+03  7.309093E+04
       412   7 -4.699092E+04 -3.620696E+05 -6.239478E+04  7.403493E+04  1.053586E+04  1.037882E+04
       412   8 -8.410744E+04 -4.202767E+05 -1.009826E+05  1.005699E+05  1.060940E+04  5.206313E+04
       412   9 -1.743305E+05 -4.971856E+05 -1.799937E+05  1.400648E+05  3.461720E+03  9.374141E+04
       412  10  3.456395E+04 -1.486620E+04 -1.907510E+03  7.869409E+04 -4.211958E-11 -5.019658E-11
       412  11  3.057648E+04  5.964225E+04 -7.476253E+03  3.919465E+04  6.513066E-11 -4.405683E-11
       412  12 -2.168123E+04  1.202771E+05 -3.420263E+04  1.265768E+04  4.250682E-11 -1.715934E-12
       412  13 -6.212752E+03 -1.884827E+05 -3.215082E+04  7.636413E+04  5.768961E-11 -2.282421E-11
       412  14 -2.676595E+04 -1.803473E+05 -5.423099E+04  6.988811E+04  9.005542E-11 -3.859619E-11
       412  15 -9.801125E+04 -1.885072E+05 -1.071042E+05  7.637704E+04  3.223214E-11 -2.734610E-11
       412  16 -4.699107E+04 -3.620697E+05 -6.239519E+04  7.403484E+04 -1.854480E-11  6.034674E-11
       412  17 -8.410829E+04 -4.202796E+05 -1.009880E+05  1.005694E+05 -9.237204E-11  1.536544E-10
       412  18 -1.743328E+05 -4.971951E+05 -1.800102E+05  1.400645E+05  2.940320E-11 -2.016602E-12
       412  19  3.456423E+04 -1.486553E+04 -1.906173E+03  7.869429E+04 -1.053844E+04 -2.449690E+04
       412  20  3.057700E+04  5.964387E+04 -7.473262E+03  3.919498E+04 -1.060198E+04 -3.846273E+04
       412  21 -2.168048E+04  1.202801E+05 -3.419744E+04  1.265782E+04 -3.440938E+03 -5.243023E+04
       412  22 -6.212551E+03 -1.884824E+05 -3.215004E+04  7.636428E+04 -1.053713E+04 -1.743691E+04
       412  23 -2.676528E+04 -1.803451E+05 -5.422693E+04  6.988849E+04 -1.060535E+04 -4.526422E+04
       412  24 -9.800981E+04 -1.885014E+05 -1.070942E+05  7.637724E+04 -3.449207E+03 -7.309093E+04
       412  25 -4.699092E+04 -3.620696E+05 -6.239478E+04  7.403493E+04 -1.053586E+04 -1.037882E+04
       412  26 -8.410744E+04 -4.202767E+05 -1.009826E+05  1.005699E+05 -1.060940E+04 -5.206313E+04
       412  27 -1.743305E+05 -4.971856E+05 -1.799937E+05  1.400648E+05 -3.461720E+03 -9.374141E+04
       413   1  3.901933E+05  3.507973E+05  9.552103E+04  2.918476E+05  5.791948E+04  4.493169E+04
       413   2  3.949890E+05  2.679390E+05  4.212037E+04  3.163462E+05  3.572110E+04  3.185643E+04
       413   3  4.308030E+05  2.248002E+05  1.886053E+04  3.227834E+05  1.466639E+04  1.725460E+04
       413   4  5.182814E+05  3.290532E+05  1.153485E+05  3.034864E+05  6.379872E+04  4.933017E+04
       413   5  4.846093E+05  2.771202E+05  5.700299E+04  3.363436E+05  3.865731E+04  3.405492E+04
       413   6  4.825863E+05  2.655366E+05  3.134440E+04  3.511410E+05  1.466205E+04  1.725140E+04
       413   7  6.463983E+05  3.073168E+05  1.351787E+05  3.151226E+05  6.967985E+04  5.372805E+04
       413   8  5.742407E+05  2.863026E+05  7.188597E+04  3.563421E+05  4.159411E+04  3.625337E+04
       413   9  5.343717E+05  3.062744E+05  4.382771E+04  3.795009E+05  1.465772E+04  1.724820E+04
       413  10  3.901891E+05  3.507942E+05  9.551094E+04  2.918455E+05 -1.446255E-10 -8.007308E-11
       413  11  3.949873E+05  2.679376E+05  4.211607E+04  3.163452E+05 -1.732547E-10 -2.035244E-10
       413  12  4.308027E+05  2.247999E+05  1.885957E+04  3.227832E+05 -2.635658E-10 -7.372426E-11
       413  13  5.182764E+05  3.290495E+05  1.153363E+05  3.034838E+05  9.014691E-11  2.985547E-11
       413  14  4.846074E+05  2.771185E+05  5.699801E+04  3.363425E+05 -3.907303E-10 -1.277054E-10
       413  15  4.825860E+05  2.655363E+05  3.134343E+04  3.511408E+05 -8.605050E-11  9.916082E-11
       413  16  6.463923E+05  3.073124E+05  1.351641E+05  3.151196E+05 -1.383598E-10 -2.247472E-11
       413  17  5.742385E+05  2.863007E+05  7.188026E+04  3.563409E+05  2.191837E-10  2.022060E-10
       413  18  5.343714E+05  3.062740E+05  4.382675E+04  3.795007E+05  1.104516E-10  3.429967E-10
       413  19  3.901933E+05  3.507973E+05  9.552103E+04  2.918476E+05 -5.791948E+04 -4.493169E+04
       413  20  3.949890E+05  2.679390E+05  4.212037E+04  3.163462E+05 -3.572110E+04 -3.185643E+04
       413  21  4.308030E+05  2.248002E+05  1.886053E+04  3.227834E+05 -1.466639E+04 -1.725460E+04
       413  22  5.182814E+05  3.290532E+05  1.153485E+05  3.034864E+05 -6.379872E+04 -4.933017E+04
       413  23  4.846093E+05  2.771202E+05  5.700299E+04  3.363436E+05 -3.865731E+04 -3.405492E+04
       413  24  4.825863E+05  2.655366E+05  3.134440E+04  3.511410E+05 -1.466205E+04 -1.725140E+04
       413  25  6.463983E+05  3.073168E+05  1.351787E+05  3.151226E+05 -6.967985E+04 -5.372805E+04
       413  26  5.742407E+05  2.863026E+05  7.188597E+04  3.563421E+05 -4.159411E+04 -3.625337E+04
       413  27  5.343717E+05  3.062744E+05  4.382771E+04  3.795009E+05 -1.465772E+04 -1.724820E+04
       414   1  4.255152E+05  2.302967E+05  1.214291E+04  3.241331E+05  1.135399E+04  1.469579E+04
       414   2  4.281736E+05  2.283741E+05  3.110531E+03  3.275236E+05  6.261298E+03  1.080693E+04
       414   3  4.341793E+05  2.283703E+05 -8.668436E+02  3.297545E+05  1.290109E+03  6.755978E+03
       414   4  4.802020E+05  2.639319E+05  2.386000E+04  3.497054E+05  1.142456E+04  1.474853E+04
       414   5  4.774179E+05  2.610217E+05  1.360976E+04  3.517241E+05  6.019813E+03  1.062578E+04
       414   6  4.780483E+05  2.600978E+05  8.684726E+03  3.525831E+05  7.365757E+02  6.340899E+03
       414   7  5.348924E+05  2.975684E+05  3.557697E+04  3.752802E+05  1.149514E+04  1.480128E+04
       414   8  5.266655E+05  2.936710E+05  2.410906E+04  3.759270E+05  5.778300E+03  1.044460E+04
       414   9  5.219206E+05  2.918272E+05  1.823653E+04  3.754141E+05  1.829792E+02  5.925771E+03
       414  10  4.255150E+05  2.302964E+05  1.214226E+04  3.241330E+05 -1.513645E-10  1.979357E-10
       414  11  4.281736E+05  2.283739E+05  3.110238E+03  3.275236E+05 -9.251005E-11 -2.060331E-12
       414  12  4.341793E+05  2.283703E+05 -8.669325E+02  3.297545E+05 -5.138536E-10 -1.226921E-10
       414  13  4.802018E+05  2.639316E+05  2.385935E+04  3.497053E+05 -4.141861E-10  1.139151E-10
       414  14  4.774178E+05  2.610216E+05  1.360948E+04  3.517241E+05 -3.089442E-10  1.031544E-10
       414  15  4.780483E+05  2.600977E+05  8.684650E+03  3.525831E+05 -1.859699E-11  1.192971E-10
       414  16  5.348922E+05  2.975681E+05  3.557631E+04  3.752800E+05 -3.363271E-10  7.207610E-11
       414  17  5.266654E+05  2.936709E+05  2.410879E+04  3.759270E+05  1.644277E-10  2.347141E-10
       414  18  5.219206E+05  2.918272E+05  1.823647E+04  3.754141E+05  2.054880E-10  2.903871E-10
       414  19  4.255152E+05  2.302967E+05  1.214291E+04  3.241331E+05 -1.135399E+04 -1.469579E+04
       414  20  4.281736E+05  2.283741E+05  3.110531E+03  3.275236E+05 -6.261298E+03 -1.080693E+04
       414  21  4.341793E+05  2.283703E+05 -8.668436E+02  3.297545E+05 -1.290109E+03 -6.755978E+03
       414  22  4.802020E+05  2.639319E+05  2.386000E+04  3.497054E+05 -1.142456E+04 -1.474853E+04
       414  23  4.774179E+05  2.610217E+05  1.360976E+04  3.517241E+05 -6.019813E+03 -1.062578E+04
       414  24  4.780483E+05  2.600978E+05  8.684726E+03  3.525831E+05 -7.365757E+02 -6.340899E+03
       414  25  5.348924E+05  2.975684E+05  3.557697E+04  3.752802E+05 -1.149514E+04 -1.480128E+04
       414  26  5.266655E+05  2.936710E+05  2.410906E+04  3.759270E+05 -5.778300E+03 -1.044460E+04
       414  27  5.219206E+05  2.918272E+05  1.823653E+04  3.754141E+05 -1.829792E+02 -5.925771E+03
       415   1  4.358659E+05  2.304347E+05 -1.622128E+03  3.309653E+05  2.904178E+02  5.737095E+03
       415   2  4.387627E+05  2.333396E+05 -1.781143E+03  3.329904E+05 -1.989475E+03  3.568361E+03
       415   3  4.431382E+05  2.357455E+05  2.073800E+02  3.347598E+05 -4.253849E+03  1.378973E+03
       415   4  4.778739E+05  2.599983E+05  7.383557E+03  3.524465E+05 -2.545617E+02  5.328433E+03
       415   5  4.771327E+05  2.602481E+05  6.407713E+03  3.525709E+05 -2.574386E+03  3.129779E+03
       415   6  4.778789E+05  2.600073E+05  7.613949E+03  3.524395E+05 -4.878695E+03  9.104671E+02
       415   7  5.198831E+05  2.895624E+05  1.638886E+04  3.739288E+05 -7.995791E+02  4.919744E+03
       415   8  5.155040E+05  2.871571E+05  1.459636E+04  3.721525E+05 -3.159338E+03  2.691166E+03
       415   9  5.126210E+05  2.842700E+05  1.502046E+04  3.701204E+05 -5.503587E+03  4.419273E+02
       415  10  4.358659E+05  2.304346E+05 -1.622190E+03  3.309653E+05  5.185514E-11  3.164444E-11
       415  11  4.387627E+05  2.333396E+05 -1.781174E+03  3.329904E+05 -8.103989E-11 -9.930061E-11
       415  12  4.431382E+05  2.357454E+05  2.073424E+02  3.347598E+05  8.876086E-11 -2.059171E-10
       415  13  4.778739E+05  2.599983E+05  7.383504E+03  3.524465E+05 -8.173749E-11 -1.186495E-11
       415  14  4.771327E+05  2.602481E+05  6.407682E+03  3.525709E+05 -3.196258E-11 -8.897966E-11
       415  15  4.778789E+05  2.600073E+05  7.613903E+03  3.524395E+05  3.582344E-11 -2.030118E-10
       415  16  5.198831E+05  2.895624E+05  1.638881E+04  3.739288E+05 -2.287021E-10 -4.350930E-11
       415  17  5.155040E+05  2.871571E+05  1.459633E+04  3.721525E+05  9.270153E-11 -1.807968E-10
       415  18  5.126210E+05  2.842700E+05  1.502040E+04  3.701204E+05  5.091773E-10 -1.571851E-10
       415  19  4.358659E+05  2.304347E+05 -1.622128E+03  3.309653E+05 -2.904178E+02 -5.737095E+03
       415  20  4.387627E+05  2.333396E+05 -1.781143E+03  3.329904E+05  1.989475E+03 -3.568361E+03
       415  21  4.431382E+05  2.357455E+05  2.073800E+02  3.347598E+05  4.253849E+03 -1.378973E+03
       415  22  4.778739E+05  2.599983E+05  7.383557E+03  3.524465E+05  2.545617E+02 -5.328433E+03
       415  23  4.771327E+05  2.602481E+05  6.407713E+03  3.525709E+05  2.574386E+03 -3.129779E+03
       415  24  4.778789E+05  2.600073E+05  7.613949E+03  3.524395E+05  4.878695E+03 -9.104671E+02
       415  25  5.198831E+05  2.895624E+05  1.638886E+04  3.739288E+05  7.995791E+02 -4.919744E+03
       415  26  5.155040E+05  2.871571E+05  1.459636E+04  3.721525E+05  3.159338E+03 -2.691166E+03
       415  27  5.126210E+05  2.842700E+05  1.502046E+04  3.701204E+05  5.503587E+03 -4.419273E+02
       416   1  4.451467E+05  2.380216E+05  2.160013E+03  3.362560E+05 -5.277071E+03  3.181203E+02
       416   2  4.499808E+05  2.397690E+05  8.204019E+03  3.367031E+05 -1.068443E+04 -4.270987E+03
       416   3  4.583731E+05  2.436546E+05  1.980845E+04  3.359298E+05 -1.606358E+04 -8.898135E+03
       416   4  4.780706E+05  2.601114E+05  9.051302E+03  3.525877E+05 -5.898931E+03 -1.481352E+02
       416   5  4.774268E+05  2.610694E+05  1.435645E+04  3.516706E+05 -1.137953E+04 -4.792178E+03
       416   6  4.803568E+05  2.641815E+05  2.528536E+04  3.495333E+05 -1.683175E+04 -9.474176E+03
       416   7  5.109965E+05  2.822022E+05  1.594278E+04  3.689207E+05 -6.520848E+03 -6.144309E+02
       416   8  5.048737E+05  2.823705E+05  2.050885E+04  3.666390E+05 -1.207467E+04 -5.313403E+03
       416   9  5.023407E+05  2.847087E+05  3.076207E+04  3.631371E+05 -1.759994E+04 -1.005024E+04
       416  10  4.451467E+05  2.380216E+05  2.159960E+03  3.362560E+05  7.783818E-11 -1.296385E-10
       416  11  4.499806E+05  2.397689E+05  8.203771E+03  3.367030E+05  4.344818E-10  1.922334E-11
       416  12  4.583728E+05  2.436544E+05  1.980781E+04  3.359297E+05  7.820797E-10  2.020650E-11
       416  13  4.780706E+05  2.601113E+05  9.051236E+03  3.525877E+05 -2.092513E-10 -1.598998E-10
       416  14  4.774266E+05  2.610694E+05  1.435616E+04  3.516706E+05 -5.477814E-11 -2.177702E-10
       416  15  4.803565E+05  2.641814E+05  2.528466E+04  3.495332E+05  2.367478E-10 -3.569251E-10
       416  16  5.109965E+05  2.822022E+05  1.594270E+04  3.689207E+05 -2.533093E-11 -2.659846E-10
       416  17  5.048735E+05  2.823704E+05  2.050852E+04  3.666389E+05 -3.792351E-10 -4.623312E-10
       416  18  5.023403E+05  2.847085E+05  3.076130E+04  3.631370E+05 -7.332096E-11 -7.299353E-10
       416  19  4.451467E+05  2.380216E+05  2.160013E+03  3.362560E+05  5.277071E+03 -3.181203E+02
       416  20  4.499808E+05  2.397690E+05  8.204019E+03  3.367031E+05  1.068443E+04  4.270987E+03
       416  21  4.583731E+05  2.436546E+05  1.980845E+04  3.359298E+05  1.606358E+04  8.898135E+03
       416  22  4.780706E+05  2.601114E+05  9.051302E+03  3.525877E+05  5.898931E+03  1.481352E+02
       416  23  4.774268E+05  2.610694E+05  1.435645E+04  3.516706E+05  1.137953E+04  4.792178E+03
       416  24  4.803568E+05  2.641815E+05  2.528536E+04  3.495333E+05  1.683175E+04  9.474176E+03
       416  25  5.109965E+05  2.822022E+05  1.594278E+04  3.689207E+05  6.520848E+03  6.144309E+02
       416  26  5.048737E+05  2.823705E+05  2.050885E+04  3.666390E+05  1.207467E+04  5.313403E+03
       416  27  5.023407E+05  2.847087E+05  3.076207E+04  3.631371E+05  1.759994E+04  1.005024E+04
       417   1  4.575684E+05  2.526376E+05  2.823369E+04  3.402941E+05 -1.938766E+04 -1.172944E+04
       417   2  4.997048E+05  2.312182E+05  5.591293E+04  3.159204E+05 -4.317884E+04 -3.044037E+04
       417   3  5.754182E+05  2.524049E+05  1.177284E+05  2.723341E+05 -6.671506E+04 -4.949189E+04
       417   4  4.829237E+05  2.658510E+05  3.324824E+04  3.510482E+05 -2.013909E+04 -1.229269E+04
       417   5  4.850177E+05  2.782083E+05  6.051942E+04  3.353507E+05 -4.458877E+04 -3.150113E+04
       417   6  5.208259E+05  3.333111E+05  1.224982E+05  3.004422E+05 -6.878140E+04 -5.105321E+04
       417   7  5.082799E+05  2.790646E+05  3.826277E+04  3.618027E+05 -2.089057E+04 -1.285595E+04
       417   8  4.703327E+05  3.252044E+05  6.512662E+04  3.547810E+05 -4.599865E+04 -3.256210E+04
       417   9  4.662448E+05  4.142385E+05  1.272709E+05  3.285477E+05 -7.084750E+04 -5.261511E+04
       417  10  4.575679E+05  2.526373E+05  2.823272E+04  3.402939E+05  2.580518E-10 -3.824842E-10
       417  11  4.997026E+05  2.312167E+05  5.590769E+04  3.159193E+05  4.026074E-11 -2.207617E-10
       417  12  5.754128E+05  2.524010E+05  1.177155E+05  2.723314E+05  7.034132E-11 -2.273886E-10
       417  13  4.829232E+05  2.658507E+05  3.324719E+04  3.510480E+05  2.357209E-10 -4.200567E-10
       417  14  4.850153E+05  2.782067E+05  6.051382E+04  3.353496E+05  6.123194E-12 -1.670781E-10
       417  15  5.208201E+05  3.333071E+05  1.224844E+05  3.004394E+05  6.401189E-11  4.264879E-11
       417  16  5.082794E+05  2.790643E+05  3.826164E+04  3.618025E+05  4.187183E-10 -3.501028E-10
       417  17  4.703301E+05  3.252027E+05  6.512066E+04  3.547798E+05 -1.757881E-10 -1.446222E-10
       417  18  4.662387E+05  4.142342E+05  1.272563E+05  3.285447E+05  1.866793E-10  5.366840E-11
       417  19  4.575684E+05  2.526376E+05  2.823369E+04  3.402941E+05  1.938766E+04  1.172944E+04
       417  20  4.997048E+05  2.312182E+05  5.591293E+04  3.159204E+05  4.317884E+04  3.044037E+04
       417  21  5.754182E+05  2.524049E+05  1.177284E+05  2.723341E+05  6.671506E+04  4.949189E+04
       417  22  4.829237E+05  2.658510E+05  3.324824E+04  3.510482E+05  2.013909E+04  1.229269E+04
       417  23  4.850177E+05  2.782083E+05  6.051942E+04  3.353507E+05  4.458877E+04  3.150113E+04
       417  24  5.208259E+05  3.333111E+05  1.224982E+05  3.004422E+05  6.878140E+04  5.105321E+04
       417  25  5.082799E+05  2.790646E+05  3.826277E+04  3.618027E+05  2.089057E+04  1.285595E+04
       417  26  4.703327E+05  3.252044E+05  6.512662E+04  3.547810E+05  4.599865E+04  3.256210E+04
       417  27  4.662448E+05  4.142385E+05  1.272709E+05  3.285477E+05  7.084750E+04  5.261511E+04
       418   1  8.391383E+04  1.600987E+04  1.085199E+04 -3.473984E+03 -6.852647E+03 -2.521500E+03
       418   2  7.182605E+04  3.219703E+04  1.590558E+04  5.185971E+03 -6.696422E+03 -8.515467E+03
       418   3  5.628603E+04  3.464354E+04  1.742254E+04  1.628798E+04 -6.539661E+03 -1.036574E+04
       418   4 -9.996870E+04 -2.933630E+04 -3.196668E+04  1.555662E+04 -2.233600E+04 -2.520199E+03
       418   5 -9.754992E+04 -8.020326E+03 -1.579417E+04  1.433649E+04 -1.422472E+04 -8.515199E+03
       418   6 -9.996586E+04 -1.828588E+03 -8.683834E+03  1.555836E+04 -6.112681E+03 -1.036599E+04
       418   7 -2.838187E+05 -7.468337E+04 -7.478655E+04  3.458155E+04 -3.781479E+04 -2.519847E+03
       418   8 -2.668979E+05 -4.823900E+04 -4.749491E+04  2.348445E+04 -2.175102E+04 -8.515153E+03
       418   9 -2.561937E+05 -3.830199E+04 -3.479096E+04  1.482892E+04 -5.685806E+03 -1.036625E+04
       418  10  8.391377E+04  1.600985E+04  1.085189E+04 -3.473998E+03 -2.811208E-10  1.171506E-10
       418  11  7.182599E+04  3.219694E+04  1.590536E+04  5.185925E+03  1.256499E-10 -3.766820E-11
       418  12  5.628596E+04  3.464341E+04  1.742226E+04  1.628793E+04  4.155849E-10  1.499072E-12
       418  13 -9.996923E+04 -2.933644E+04 -3.196763E+04  1.555657E+04 -2.965616E-11 -6.029042E-11
       418  14 -9.755016E+04 -8.020459E+03 -1.579469E+04  1.433639E+04  4.064255E-11 -5.999502E-12
       418  15 -9.996593E+04 -1.828713E+03 -8.684106E+03  1.555830E+04  4.126934E-11  1.863470E-11
       418  16 -2.838203E+05 -7.468376E+04 -7.478925E+04  3.458147E+04  1.730787E-10 -5.119570E-11
       418  17 -2.668984E+05 -4.823920E+04 -4.749593E+04  2.348430E+04  1.976888E-11  2.067399E-11
       418  18 -2.561937E+05 -3.830211E+04 -3.479122E+04  1.482887E+04 -4.432263E-10 -1.438621E-10
       418  19  8.391383E+04  1.600987E+04  1.085199E+04 -3.473984E+03  6.852647E+03  2.521500E+03
       418  20  7.182605E+04  3.219703E+04  1.590558E+04  5.185971E+03  6.696422E+03  8.515467E+03
       418  21  5.628603E+04  3.464354E+04  1.742254E+04  1.628798E+04  6.539661E+03  1.036574E+04
       418  22 -9.996870E+04 -2.933630E+04 -3.196668E+04  1.555662E+04  2.233600E+04  2.520199E+03
       418  23 -9.754992E+04 -8.020326E+03 -1.579417E+04  1.433649E+04  1.422472E+04  8.515199E+03
       418  24 -9.996586E+04 -1.828588E+03 -8.683834E+03  1.555836E+04  6.112681E+03  1.036599E+04
       418  25 -2.838187E+05 -7.468337E+04 -7.478655E+04  3.458155E+04  3.781479E+04  2.519847E+03
       418  26 -2.668979E+05 -4.823900E+04 -4.749491E+04  2.348445E+04  2.175102E+04  8.515153E+03
       418  27 -2.561937E+05 -3.830199E+04 -3.479096E+04  1.482892E+04  5.685806E+03  1.036625E+04
       419   1  4.824650E+04  3.259617E+04  1.756342E+04  1.480425E+04 -5.203267E+03 -1.011119E+04
       419   2  3.462907E+04  3.054047E+04  1.736149E+04  1.393679E+04 -4.182429E+03 -9.770855E+03
       419   3  2.066454E+04  2.762008E+04  1.627933E+04  1.579955E+04 -3.161657E+03 -8.981016E+03
       419   4 -9.900156E+04 -1.688959E+03 -6.610452E+03  1.562210E+04 -4.980436E+03 -1.011142E+04
       419   5 -9.875228E+04 -3.632187E+02 -3.771393E+03  1.425696E+04 -3.096885E+03 -9.771068E+03
       419   6 -9.900019E+04 -5.207495E+01 -2.411914E+03  1.562209E+04 -1.213375E+03 -8.981160E+03
       419   7 -2.462282E+05 -3.597520E+04 -3.078495E+04  1.643974E+04 -4.757657E+03 -1.011166E+04
       419   8 -2.321159E+05 -3.126779E+04 -2.490472E+04  1.457706E+04 -2.011565E+03 -9.771281E+03
       419   9 -2.186506E+05 -2.772493E+04 -2.110349E+04  1.544467E+04  7.345447E+02 -8.981305E+03
       419  10  4.824644E+04  3.259605E+04  1.756317E+04  1.480421E+04 -9.967082E-11 -6.389434E-12
       419  11  3.462902E+04  3.054036E+04  1.736128E+04  1.393676E+04 -4.207114E-11  5.468054E-11
       419  12  2.066451E+04  2.761999E+04  1.627916E+04  1.579953E+04  5.436959E-11  1.557888E-10
       419  13 -9.900161E+04 -1.689075E+03 -6.610691E+03  1.562206E+04 -2.620321E-12 -1.411773E-10
       419  14 -9.875232E+04 -3.633238E+02 -3.771591E+03  1.425693E+04 -1.302961E-10  2.540850E-12
       419  15 -9.900021E+04 -5.216196E+01 -2.412068E+03  1.562208E+04  6.801958E-11  1.112540E-10
       419  16 -2.462282E+05 -3.597532E+04 -3.078518E+04  1.643970E+04  2.246285E-10 -1.145709E-10
       419  17 -2.321159E+05 -3.126789E+04 -2.490491E+04  1.457704E+04  7.404627E-11 -1.921715E-11
       419  18 -2.186506E+05 -2.772501E+04 -2.110364E+04  1.544468E+04  6.429724E-11  5.455439E-11
       419  19  4.824650E+04  3.259617E+04  1.756342E+04  1.480425E+04  5.203267E+03  1.011119E+04
       419  20  3.462907E+04  3.054047E+04  1.736149E+04  1.393679E+04  4.182429E+03  9.770855E+03
       419  21  2.066454E+04  2.762008E+04  1.627933E+04  1.579955E+04  3.161657E+03  8.981016E+03
       419  22 -9.900156E+04 -1.688959E+03 -6.610452E+03  1.562210E+04  4.980436E+03  1.011142E+04
       419  23 -9.875228E+04 -3.632187E+02 -3.771393E+03  1.425696E+04  3.096885E+03  9.771068E+03
       419  24 -9.900019E+04 -5.207495E+01 -2.411914E+03  1.562209E+04  1.213375E+03  8.981160E+03
       419  25 -2.462282E+05 -3.597520E+04 -3.078495E+04  1.643974E+04  4.757657E+03  1.011166E+04
       419  26 -2.321159E+05 -3.126779E+04 -2.490472E+04  1.457706E+04  2.011565E+03  9.771281E+03
       419  27 -2.186506E+05 -2.772493E+04 -2.110349E+04  1.544467E+04 -7.345447E+02  8.981305E+03
       420   1  1.194253E+04  2.556912E+04  1.518913E+04  1.564520E+04 -2.749802E+03 -8.381650E+03
       420   2 -1.773688E+03  2.235844E+04  1.332955E+04  1.438879E+04 -2.132849E+03 -7.307762E+03
       420   3 -1.563974E+04  1.886520E+04  1.099794E+04  1.590018E+04 -1.515986E+03 -6.087985E+03
       420   4 -9.893351E+04 -5.576505E+01 -2.054231E+03  1.563043E+04 -8.278458E+02 -8.381752E+03
       420   5 -9.883363E+04 -8.094619E+01 -1.802196E+03  1.424651E+04  6.905427E+01 -7.307791E+03
       420   6 -9.893262E+04 -4.373837E+02 -2.216740E+03  1.563043E+04  9.658727E+02 -6.087930E+03
       420   7 -2.097973E+05 -2.568125E+04 -1.929786E+04  1.561567E+04  1.093780E+03 -8.381854E+03
       420   8 -1.958842E+05 -2.252079E+04 -1.693414E+04  1.410426E+04  2.270626E+03 -7.307822E+03
       420   9 -1.822186E+05 -1.974031E+04 -1.543158E+04  1.536072E+04  3.447410E+03 -6.087878E+03
       420  10  1.194250E+04  2.556904E+04  1.518898E+04  1.564518E+04  1.641797E-10  1.221289E-10
       420  11 -1.773707E+03  2.235838E+04  1.332944E+04  1.438878E+04 -2.668129E-11 -4.560707E-12
       420  12 -1.563975E+04  1.886516E+04  1.099787E+04  1.590018E+04 -9.181449E-12  6.494858E-11
       420  13 -9.893353E+04 -5.584067E+01 -2.054364E+03  1.563043E+04  3.422785E-11  7.103248E-11
       420  14 -9.883364E+04 -8.100354E+01 -1.802296E+03  1.424651E+04  1.376263E-10  4.961509E-11
       420  15 -9.893263E+04 -4.374238E+02 -2.216811E+03  1.563044E+04  9.610837E-11 -7.534852E-11
       420  16 -2.097973E+05 -2.568132E+04 -1.929799E+04  1.561567E+04 -2.135733E-11  2.018424E-11
       420  17 -1.958842E+05 -2.252085E+04 -1.693425E+04  1.410427E+04  1.809496E-10 -5.780170E-11
       420  18 -1.822186E+05 -1.974035E+04 -1.543167E+04  1.536073E+04  2.139399E-10 -5.286236E-11
       420  19  1.194253E+04  2.556912E+04  1.518913E+04  1.564520E+04  2.749802E+03  8.381650E+03
       420  20 -1.773688E+03  2.235844E+04  1.332955E+04  1.438879E+04  2.132849E+03  7.307762E+03
       420  21 -1.563974E+04  1.886520E+04  1.099794E+04  1.590018E+04  1.515986E+03  6.087985E+03
       420  22 -9.893351E+04 -5.576505E+01 -2.054231E+03  1.563043E+04  8.278458E+02  8.381752E+03
       420  23 -9.883363E+04 -8.094619E+01 -1.802196E+03  1.424651E+04 -6.905427E+01  7.307791E+03
       420  24 -9.893262E+04 -4.373837E+02 -2.216740E+03  1.563043E+04 -9.658727E+02  6.087930E+03
       420  25 -2.097973E+05 -2.568125E+04 -1.929786E+04  1.561567E+04 -1.093780E+03  8.381854E+03
       420  26 -1.958842E+05 -2.252079E+04 -1.693414E+04  1.410426E+04 -2.270626E+03  7.307822E+03
       420  27 -1.822186E+05 -1.974031E+04 -1.543158E+04  1.536072E+04 -3.447410E+03  6.087878E+03
       421   1 -2.460751E+04  1.682167E+04  9.266119E+03  1.548495E+04 -1.094910E+03 -5.376639E+03
       421   2 -3.789489E+04  1.209969E+04  6.208067E+03  1.671942E+04 -6.453630E+02 -3.637929E+03
       421   3 -5.218144E+04  3.615202E+03  1.916633E+03  2.079093E+04 -1.958970E+02 -9.570814E+02
       421   4 -9.917998E+04 -4.785555E+02 -2.657583E+03  1.564578E+04  1.338729E+03 -5.376554E+03
       421   5 -9.852325E+04 -2.149484E+03 -4.402882E+03  1.422741E+04  3.596952E+03 -3.637666E+03
       421   6 -9.917977E+04 -7.897117E+03 -8.637710E+03  1.564613E+04  5.855119E+03 -9.566030E+02
       421   7 -1.737469E+05 -1.777905E+04 -1.458141E+04  1.580658E+04  3.772086E+03 -5.376467E+03
       421   8 -1.591480E+05 -1.639883E+04 -1.501389E+04  1.173564E+04  7.838866E+03 -3.637437E+03
       421   9 -1.461759E+05 -1.940947E+04 -1.919204E+04  1.050173E+04  1.190568E+04 -9.562249E+02
       421  10 -2.460752E+04  1.682163E+04  9.266062E+03  1.548495E+04 -6.954074E-11  5.464074E-12
       421  11 -3.789489E+04  1.209968E+04  6.208041E+03  1.671942E+04 -1.727188E-10 -1.123849E-10
       421  12 -5.218144E+04  3.615201E+03  1.916631E+03  2.079093E+04 -1.277630E-10 -1.118505E-10
       421  13 -9.917999E+04 -4.785871E+02 -2.657641E+03  1.564578E+04  1.572468E-10 -1.417231E-11
       421  14 -9.852326E+04 -2.149501E+03 -4.402931E+03  1.422742E+04 -7.156315E-11 -5.831868E-11
       421  15 -9.917980E+04 -7.897128E+03 -8.637776E+03  1.564614E+04  6.084272E-11  7.238290E-11
       421  16 -1.737469E+05 -1.777909E+04 -1.458149E+04  1.580659E+04  2.849822E-11 -7.643869E-12
       421  17 -1.591480E+05 -1.639886E+04 -1.501403E+04  1.173567E+04  2.166512E-10 -3.909950E-11
       421  18 -1.461761E+05 -1.940951E+04 -1.919231E+04  1.050174E+04 -8.263508E-12  4.382406E-11
       421  19 -2.460751E+04  1.682167E+04  9.266119E+03  1.548495E+04  1.094910E+03  5.376639E+03
       421  20 -3.789489E+04  1.209969E+04  6.208067E+03  1.671942E+04  6.453630E+02  3.637929E+03
       421  21 -5.218144E+04  3.615202E+03  1.916633E+03  2.079093E+04  1.958970E+02  9.570814E+02
       421  22 -9.917998E+04 -4.785555E+02 -2.657583E+03  1.564578E+04 -1.338729E+03  5.376554E+03
       421  23 -9.852325E+04 -2.149484E+03 -4.402882E+03  1.422741E+04 -3.596952E+03  3.637666E+03
       421  24 -9.917977E+04 -7.897117E+03 -8.637710E+03  1.564613E+04 -5.855119E+03  9.566030E+02
       421  25 -1.737469E+05 -1.777905E+04 -1.458141E+04  1.580658E+04 -3.772086E+03  5.376467E+03
       421  26 -1.591480E+05 -1.639883E+04 -1.501389E+04  1.173564E+04 -7.838866E+03  3.637437E+03
       421  27 -1.461759E+05 -1.940947E+04 -1.919204E+04  1.050173E+04 -1.190568E+04  9.562249E+02
       422   1 -1.650021E+05 -5.959159E+05 -1.559420E+05  2.051233E+05 -7.680673E+03 -3.253132E+04
       422   2 -1.250939E+05 -4.031712E+05 -9.801572E+04  1.924691E+05 -2.278292E+04 -3.836801E+03
       422   3 -8.209035E+04 -2.133445E+05 -5.800864E+04  2.167723E+05 -2.049503E+04  2.486541E+04
       422   4  1.725116E+04  1.405044E+05  1.863396E+04  2.164690E+05 -7.656963E+03  1.316596E+04
       422   5  4.813721E+03  1.391197E+05  9.104547E+03  1.979961E+05 -2.277407E+04  8.497211E+03
       422   6  1.265320E+03  1.405735E+05  4.834065E+03  2.164770E+05 -2.050857E+04  3.826731E+03
       422   7  1.994671E+05  8.774279E+05  1.931801E+05  2.278280E+05 -7.631604E+03  5.891720E+04
       422   8  1.347037E+05  6.816925E+05  1.162110E+05  2.035280E+05 -2.276501E+04  2.084177E+04
       422   9  8.461433E+04  4.946148E+05  6.767375E+04  2.161815E+05 -2.052208E+04 -1.722360E+04
       422  10 -1.650025E+05 -5.959171E+05 -1.559441E+05  2.051231E+05 -5.955188E-11  2.144217E-10
       422  11 -1.250945E+05 -4.031713E+05 -9.801672E+04  1.924690E+05  1.706049E-11 -2.017933E-10
       422  12 -8.209097E+04 -2.133453E+05 -5.801059E+04  2.167727E+05 -9.622206E-11 -4.068568E-10
       422  13  1.725105E+04  1.405042E+05  1.863352E+04  2.164691E+05 -1.205723E-10  1.572951E-10
       422  14  4.813144E+03  1.391195E+05  9.103437E+03  1.979962E+05  6.107270E-10 -2.305390E-10
       422  15  1.264864E+03  1.405734E+05  4.833247E+03  2.164771E+05  4.220095E-11  8.425835E-10
       422  16  1.994661E+05  8.774241E+05  1.931734E+05  2.278284E+05  1.400280E-10 -2.320416E-10
       422  17  1.347030E+05  6.816919E+05  1.162092E+05  2.035283E+05  2.383757E-10 -1.737584E-10
       422  18  8.461380E+04  4.946144E+05  6.767241E+04  2.161812E+05  8.646123E-11  3.853890E-11
       422  19 -1.650021E+05 -5.959159E+05 -1.559420E+05  2.051233E+05  7.680673E+03  3.253132E+04
       422  20 -1.250939E+05 -4.031712E+05 -9.801572E+04  1.924691E+05  2.278292E+04  3.836801E+03
       422  21 -8.209035E+04 -2.133445E+05 -5.800864E+04  2.167723E+05  2.049503E+04 -2.486541E+04
       422  22  1.725116E+04  1.405044E+05  1.863396E+04  2.164690E+05  7.656963E+03 -1.316596E+04
       422  23  4.813721E+03  1.391197E+05  9.104547E+03  1.979961E+05  2.277407E+04 -8.497211E+03
       422  24  1.265320E+03  1.405735E+05  4.834065E+03  2.164770E+05  2.050857E+04 -3.826731E+03
       422  25  1.994671E+05  8.774279E+05  1.931801E+05  2.278280E+05  7.631604E+03 -5.891720E+04
       422  26  1.347037E+05  6.816925E+05  1.162110E+05  2.035280E+05  2.276501E+04 -2.084177E+04
       422  27  8.461433E+04  4.946148E+05  6.767375E+04  2.161815E+05  2.052208E+04  1.722360E+04
       423   1 -5.323126E+04 -9.127110E+04 -3.738008E+04  2.161797E+05 -1.350662E+04  2.346932E+04
       423   2 -8.910807E+03  9.986230E+04 -4.816128E+03  1.974690E+05 -2.859672E+03  2.302804E+04
       423   3  3.583405E+04  2.911690E+05  2.813135E+04  2.168026E+05  7.974331E+03  2.258629E+04
       423   4  1.205427E+03  1.400005E+05  3.531455E+03  2.167187E+05 -1.352072E+04  3.207411E+03
       423   5  3.794229E+02  1.399033E+05  1.596924E+03  1.976970E+05 -2.874290E+03  2.403602E+03
       423   6  4.207562E+01  1.400057E+05  2.964205E+02  2.167195E+05  7.959140E+03  1.599442E+03
       423   7  5.563940E+04  3.713252E+05  4.444255E+04  2.172580E+05 -1.353486E+04 -1.706182E+04
       423   8  9.669801E+03  1.799467E+05  8.011532E+03  1.979251E+05 -2.888922E+03 -1.822212E+04
       423   9 -3.575096E+04 -1.113443E+04 -2.753780E+04  2.166364E+05  7.943952E+03 -1.938244E+04
       423  10 -5.323160E+04 -9.127174E+04 -3.738146E+04  2.161800E+05 -8.589340E-11 -2.673285E-10
       423  11 -8.910958E+03  9.986172E+04 -4.817140E+03  1.974690E+05 -3.189008E-10  1.021787E-10
       423  12  3.583384E+04  2.911684E+05  2.813027E+04  2.168025E+05  1.128798E-10  4.805183E-10
       423  13  1.205228E+03  1.400004E+05  3.531092E+03  2.167188E+05 -1.474041E-10  3.811076E-10
       423  14  3.794125E+02  1.399033E+05  1.596898E+03  1.976971E+05 -4.813977E-10 -4.678998E-10
       423  15  4.200691E+01  1.400057E+05  2.962967E+02  2.167195E+05 -2.865117E-10  9.321074E-10
       423  16  5.563912E+04  3.713248E+05  4.444166E+04  2.172578E+05 -6.928334E-11  2.363116E-10
       423  17  9.669703E+03  1.799464E+05  8.010893E+03  1.979251E+05  2.126722E-10 -6.592439E-10
       423  18 -3.575113E+04 -1.113485E+04 -2.753863E+04  2.166365E+05 -1.345516E-12 -9.194067E-10
       423  19 -5.323126E+04 -9.127110E+04 -3.738008E+04  2.161797E+05  1.350662E+04 -2.346932E+04
       423  20 -8.910807E+03  9.986230E+04 -4.816128E+03  1.974690E+05  2.859672E+03 -2.302804E+04
       423  21  3.583405E+04  2.911690E+05  2.813135E+04  2.168026E+05 -7.974331E+03 -2.258629E+04
       423  22  1.205427E+03  1.400005E+05  3.531455E+03  2.167187E+05  1.352072E+04 -3.207411E+03
       423  23  3.794229E+02  1.399033E+05  1.596924E+03  1.976970E+05  2.874290E+03 -2.403602E+03
       423  24  4.207562E+01  1.400057E+05  2.964205E+02  2.167195E+05 -7.959140E+03 -1.599442E+03
       423  25  5.563940E+04  3.713252E+05  4.444255E+04  2.172580E+05  1.353486E+04  1.706182E+04
       423  26  9.669801E+03  1.799467E+05  8.011532E+03  1.979251E+05  2.888922E+03  1.822212E+04
       423  27 -3.575096E+04 -1.113443E+04 -2.753780E+04  2.166364E+05 -7.943952E+03  1.938244E+04
       424   1  6.466444E+04  4.136016E+05  4.928398E+04  2.167712E+05  1.510564E+04  2.324010E+04
       424   2  1.100684E+05  6.026637E+05  9.072739E+04  1.970218E+05  1.856834E+04 -5.864228E+03
       424   3  1.588140E+05  7.963786E+05  1.519387E+05  2.143578E+05  6.436165E+03 -3.497496E+04
       424   4  1.408685E+01  1.398234E+05 -2.779283E+02  2.165067E+05  1.509079E+04  1.566760E+03
       424   5 -8.817516E+02  1.400830E+05 -1.652228E+03  1.979639E+05  1.857460E+04  2.427432E+03
       424   6 -3.632071E+03  1.397657E+05 -4.056191E+03  2.165086E+05  6.458070E+03  3.290358E+03
       424   7 -6.464021E+04 -1.338809E+05 -4.984103E+04  2.162424E+05  1.507595E+04 -2.009729E+04
       424   8 -1.118449E+05 -3.222933E+05 -9.404235E+04  1.989052E+05  1.858089E+04  1.071304E+04
       424   9 -1.661084E+05 -5.164486E+05 -1.600757E+05  2.186570E+05  6.480257E+03  4.151544E+04
       424  10  6.466405E+04  4.136009E+05  4.928254E+04  2.167709E+05  1.408617E-11 -1.740786E-10
       424  11  1.100680E+05  6.026636E+05  9.072667E+04  1.970219E+05  5.632513E-11 -1.860331E-10
       424  12  1.588137E+05  7.963772E+05  1.519364E+05  2.143580E+05  1.354814E-10 -1.432650E-10
       424  13  1.384164E+01  1.398233E+05 -2.783609E+02  2.165067E+05  5.341708E-10  4.266603E-10
       424  14 -8.821237E+02  1.400829E+05 -1.652887E+03  1.979639E+05 -9.801667E-11 -3.493999E-10
       424  15 -3.632119E+03  1.397657E+05 -4.056289E+03  2.165086E+05  1.545532E-10  5.446659E-10
       424  16 -6.464057E+04 -1.338813E+05 -4.984222E+04  2.162426E+05  1.146894E-10  1.553898E-10
       424  17 -1.118454E+05 -3.222935E+05 -9.404321E+04  1.989051E+05  2.288292E-11 -2.462578E-10
       424  18 -1.661089E+05 -5.164505E+05 -1.600790E+05  2.186568E+05  1.310307E-10 -1.169671E-10
       424  19  6.466444E+04  4.136016E+05  4.928398E+04  2.167712E+05 -1.510564E+04 -2.324010E+04
       424  20  1.100684E+05  6.026637E+05  9.072739E+04  1.970218E+05 -1.856834E+04  5.864228E+03
       424  21  1.588140E+05  7.963786E+05  1.519387E+05  2.143578E+05 -6.436165E+03  3.497496E+04
       424  22  1.408685E+01  1.398234E+05 -2.779283E+02  2.165067E+05 -1.509079E+04 -1.566760E+03
       424  23 -8.817516E+02  1.400830E+05 -1.652228E+03  1.979639E+05 -1.857460E+04 -2.427432E+03
       424  24 -3.632071E+03  1.397657E+05 -4.056191E+03  2.165086E+05 -6.458070E+03 -3.290358E+03
       424  25 -6.464021E+04 -1.338809E+05 -4.984103E+04  2.162424E+05 -1.507595E+04  2.009729E+04
       424  26 -1.118449E+05 -3.222933E+05 -9.404235E+04  1.989052E+05 -1.858089E+04 -1.071304E+04
       424  27 -1.661084E+05 -5.164486E+05 -1.600757E+05  2.186570E+05 -6.480257E+03 -4.151544E+04
       425   1  1.232301E+05  1.016533E+05  3.220471E+04  7.877430E+04  1.084910E+04  5.902600E+03
       425   2  1.164614E+05  9.358005E+04  2.352917E+04  7.591350E+04  8.460967E+03 -1.205170E+03
       425   3  1.096278E+05  8.877177E+04  1.935199E+04  7.320912E+04  4.322501E+03 -5.978046E+03
       425   4  2.985739E+04  3.335131E+04  2.016660E+03  3.153074E+04  2.070964E+03 -6.795775E+02
       425   5  3.006533E+04  3.165159E+04  1.115809E+03  3.186824E+04  4.166843E+03 -4.425264E+03
       425   6  2.923551E+04  3.224419E+04  8.222066E+02  3.236210E+04  4.512067E+03 -5.836045E+03
       425   7 -6.350387E+04 -3.494409E+04 -2.817140E+04 -1.570367E+04 -6.705196E+03 -7.260219E+03
       425   8 -5.632124E+04 -3.027156E+04 -2.129773E+04 -1.216941E+04 -1.264342E+02 -7.644709E+03
       425   9 -5.114919E+04 -2.427938E+04 -1.770794E+04 -8.478755E+03  4.701600E+03 -5.694069E+03
       425  10  1.232299E+05  1.016533E+05  3.220442E+04  7.877425E+04 -4.739819E-11 -6.821547E-11
       425  11  1.164613E+05  9.358003E+04  2.352903E+04  7.591350E+04 -1.475668E-11 -1.284456E-10
       425  12  1.096278E+05  8.877173E+04  1.935189E+04  7.320915E+04  6.113013E-11 -3.283342E-11
       425  13  2.985739E+04  3.335131E+04  2.016651E+03  3.153074E+04 -1.262427E-12 -1.181367E-10
       425  14  3.006530E+04  3.165157E+04  1.115739E+03  3.186826E+04  1.907780E-10  1.509284E-10
       425  15  2.923548E+04  3.224415E+04  8.221044E+02  3.236212E+04 -4.383079E-11 -1.610590E-11
       425  16 -6.350394E+04 -3.494416E+04 -2.817158E+04 -1.570371E+04 -7.881615E-11  7.471865E-11
       425  17 -5.632126E+04 -3.027163E+04 -2.129784E+04 -1.216941E+04 -9.117469E-12 -6.187712E-11
       425  18 -5.114922E+04 -2.427943E+04 -1.770804E+04 -8.478734E+03 -1.269273E-10  8.675877E-11
       425  19  1.232301E+05  1.016533E+05  3.220471E+04  7.877430E+04 -1.084910E+04 -5.902600E+03
       425  20  1.164614E+05  9.358005E+04  2.352917E+04  7.591350E+04 -8.460967E+03  1.205170E+03
       425  21  1.096278E+05  8.877177E+04  1.935199E+04  7.320912E+04 -4.322501E+03  5.978046E+03
       425  22  2.985739E+04  3.335131E+04  2.016660E+03  3.153074E+04 -2.070964E+03  6.795775E+02
       425  23  3.006533E+04  3.165159E+04  1.115809E+03  3.186824E+04 -4.166843E+03  4.425264E+03
       425  24  2.923551E+04  3.224419E+04  8.222066E+02  3.236210E+04 -4.512067E+03  5.836045E+03
       425  25 -6.350387E+04 -3.494409E+04 -2.817140E+04 -1.570367E+04  6.705196E+03  7.260219E+03
       425  26 -5.632124E+04 -3.027156E+04 -2.129773E+04 -1.216941E+04  1.264342E+02  7.644709E+03
       425  27 -5.114919E+04 -2.427938E+04 -1.770794E+04 -8.478755E+03 -4.701600E+03  5.694069E+03
       426   1  1.050124E+05  8.574700E+04  1.800409E+04  7.101975E+04  4.235873E+03 -5.842362E+03
       426   2  9.900785E+04  7.995002E+04  1.604571E+04  6.739531E+04  3.271407E+03 -6.311360E+03
       426   3  9.141338E+04  7.610070E+04  1.481694E+04  6.428999E+04  2.121302E+03 -6.532864E+03
       426   4  2.915557E+04  3.226074E+04  7.967779E+02  3.235625E+04  4.310819E+03 -5.786301E+03
       426   5  2.997845E+04  3.129695E+04  9.260594E+02  3.212770E+04  3.821720E+03 -5.898793E+03
       426   6  2.910859E+04  3.217759E+04  1.372457E+03  3.241823E+04  3.146974E+03 -5.763770E+03
       426   7 -4.669612E+04 -2.122305E+04 -1.641139E+04 -6.302507E+03  4.385754E+03 -5.730248E+03
       426   8 -3.904531E+04 -1.735312E+04 -1.419382E+04 -3.135335E+03  4.371952E+03 -5.486287E+03
       426   9 -3.319030E+04 -1.174214E+04 -1.207175E+04  5.508592E+02  4.172489E+03 -4.994794E+03
       426  10  1.050124E+05  8.574695E+04  1.800399E+04  7.101977E+04  2.092234E-10  1.326808E-10
       426  11  9.900783E+04  7.994998E+04  1.604562E+04  6.739533E+04  1.516031E-10  1.653160E-11
       426  12  9.141336E+04  7.610065E+04  1.481685E+04  6.429000E+04 -1.612700E-11 -5.893622E-11
       426  13  2.915554E+04  3.226070E+04  7.966801E+02  3.235627E+04  1.298742E-10  2.719513E-11
       426  14  2.997843E+04  3.129691E+04  9.259666E+02  3.212771E+04  5.921636E-11 -6.826583E-11
       426  15  2.910857E+04  3.217755E+04  1.372376E+03  3.241825E+04  4.232490E-11 -2.539273E-11
       426  16 -4.669615E+04 -2.122309E+04 -1.641148E+04 -6.302487E+03 -3.869185E-10 -1.900353E-10
       426  17 -3.904534E+04 -1.735316E+04 -1.419391E+04 -3.135316E+03 -1.880616E-12  1.772348E-11
       426  18 -3.319032E+04 -1.174217E+04 -1.207183E+04  5.508760E+02 -2.396354E-11  8.335741E-11
       426  19  1.050124E+05  8.574700E+04  1.800409E+04  7.101975E+04 -4.235873E+03  5.842362E+03
       426  20  9.900785E+04  7.995002E+04  1.604571E+04  6.739531E+04 -3.271407E+03  6.311360E+03
       426  21  9.141338E+04  7.610070E+04  1.481694E+04  6.428999E+04 -2.121302E+03  6.532864E+03
       426  22  2.915557E+04  3.226074E+04  7.967779E+02  3.235625E+04 -4.310819E+03  5.786301E+03
       426  23  2.997845E+04  3.129695E+04  9.260594E+02  3.212770E+04 -3.821720E+03  5.898793E+03
       426  24  2.910859E+04  3.217759E+04  1.372457E+03  3.241823E+04 -3.146974E+03  5.763770E+03
       426  25 -4.669612E+04 -2.122305E+04 -1.641139E+04 -6.302507E+03 -4.385754E+03  5.730248E+03
       426  26 -3.904531E+04 -1.735312E+04 -1.419382E+04 -3.135335E+03 -4.371952E+03  5.486287E+03
       426  27 -3.319030E+04 -1.174214E+04 -1.207175E+04  5.508592E+02 -4.172489E+03  4.994794E+03
       427   1  8.706967E+04  7.314032E+04  1.420020E+04  6.214494E+04  1.671199E+03 -6.373210E+03
       427   2  8.111430E+04  6.748765E+04  1.390829E+04  5.839893E+04  4.770287E+01 -6.744454E+03
       427   3  7.361382E+04  6.386132E+04  1.466354E+04  5.518925E+04 -1.596847E+03 -7.087662E+03
       427   4  2.912318E+04  3.218713E+04  1.743818E+03  3.244386E+04  2.684557E+03 -5.613328E+03
       427   5  2.993865E+04  3.124528E+04  2.935408E+03  3.212683E+04  1.115033E+03 -5.944053E+03
       427   6  2.919717E+04  3.231813E+04  5.127347E+03  3.234612E+04 -4.755771E+02 -6.246760E+03
       427   7 -2.881936E+04 -8.763950E+03 -1.071272E+04  2.746013E+03  3.697790E+03 -4.853540E+03
       427   8 -2.123445E+04 -4.995829E+03 -8.037781E+03  5.856993E+03  2.182258E+03 -5.143733E+03
       427   9 -1.521809E+04  7.755243E+02 -4.409255E+03  9.504447E+03  6.456097E+02 -5.405922E+03
       427  10  8.706966E+04  7.314027E+04  1.420012E+04  6.214495E+04  1.377510E-10  9.336967E-11
       427  11  8.111429E+04  6.748760E+04  1.390821E+04  5.839893E+04  2.185951E-11  7.222295E-11
       427  12  7.361381E+04  6.386127E+04  1.466344E+04  5.518924E+04  5.388505E-11  1.202691E-12
       427  13  2.912317E+04  3.218709E+04  1.743745E+03  3.244387E+04 -5.011230E-11  8.676889E-12
       427  14  2.993864E+04  3.124524E+04  2.935339E+03  3.212683E+04  4.695980E-11  1.355414E-11
       427  15  2.919715E+04  3.231808E+04  5.127273E+03  3.234612E+04  1.114022E-10 -3.012365E-11
       427  16 -2.881938E+04 -8.763979E+03 -1.071279E+04  2.746028E+03 -6.080882E-11 -6.560811E-12
       427  17 -2.123446E+04 -4.995859E+03 -8.037839E+03  5.857002E+03 -1.104987E-10 -1.208169E-11
       427  18 -1.521810E+04  7.754928E+02 -4.409311E+03  9.504450E+03  4.681117E-11 -1.623341E-11
       427  19  8.706967E+04  7.314032E+04  1.420020E+04  6.214494E+04 -1.671199E+03  6.373210E+03
       427  20  8.111430E+04  6.748765E+04  1.390829E+04  5.839893E+04 -4.770287E+01  6.744454E+03
       427  21  7.361382E+04  6.386132E+04  1.466354E+04  5.518925E+04  1.596847E+03  7.087662E+03
       427  22  2.912318E+04  3.218713E+04  1.743818E+03  3.244386E+04 -2.684557E+03  5.613328E+03
       427  23  2.993865E+04  3.124528E+04  2.935408E+03  3.212683E+04 -1.115033E+03  5.944053E+03
       427  24  2.919717E+04  3.231813E+04  5.127347E+03  3.234612E+04  4.755771E+02  6.246760E+03
       427  25 -2.881936E+04 -8.763950E+03 -1.071272E+04  2.746013E+03 -3.697790E+03  4.853540E+03
       427  26 -2.123445E+04 -4.995829E+03 -8.037781E+03  5.856993E+03 -2.182258E+03  5.143733E+03
       427  27 -1.521809E+04  7.755243E+02 -4.409255E+03  9.504447E+03 -6.456097E+02  5.405922E+03
       428   1  6.910009E+04  6.136371E+04  1.534052E+04  5.328235E+04 -2.670318E+03 -7.361953E+03
       428   2  6.473796E+04  5.455411E+04  1.907386E+04  4.820022E+04 -7.907598E+03 -1.036334E+04
       428   3  6.082475E+04  5.226462E+04  2.754500E+04  4.280929E+04 -1.316029E+04 -1.334393E+04
       428   4  2.938356E+04  3.241576E+04  6.753617E+03  3.250073E+04 -1.551200E+03 -6.522639E+03
       428   5  3.015916E+04  3.192999E+04  1.188943E+04  3.132798E+04 -6.748454E+03 -9.494024E+03
       428   6  3.137484E+04  3.595552E+04  2.172839E+04  2.984627E+04 -1.196122E+04 -1.244471E+04
       428   7 -1.033023E+04  3.469533E+03 -1.833053E+03  1.172111E+04 -4.321996E+02 -5.683418E+03
       428   8 -4.417837E+03  9.306759E+03  4.705088E+03  1.445699E+04 -5.589409E+03 -8.624774E+03
       428   9  1.926002E+03  1.964675E+04  1.591177E+04  1.688390E+04 -1.076222E+04 -1.154554E+04
       428  10  6.910006E+04  6.136365E+04  1.534041E+04  5.328234E+04  3.569395E-11 -6.767690E-11
       428  11  6.473786E+04  5.455398E+04  1.907354E+04  4.820015E+04 -2.412370E-11 -3.265223E-11
       428  12  6.082451E+04  5.226438E+04  2.754434E+04  4.280915E+04  2.340547E-11 -1.603929E-11
       428  13  2.938355E+04  3.241572E+04  6.753532E+03  3.250072E+04  1.776574E-11 -4.163881E-11
       428  14  3.015908E+04  3.192988E+04  1.188918E+04  3.132793E+04 -9.196768E-11 -4.767036E-11
       428  15  3.137465E+04  3.595531E+04  2.172783E+04  2.984615E+04 -2.446144E-11 -4.697502E-11
       428  16 -1.033024E+04  3.469498E+03 -1.833114E+03  1.172111E+04  1.070303E-10 -8.743060E-12
       428  17 -4.417891E+03  9.306671E+03  4.704889E+03  1.445695E+04 -6.956729E-11  1.480311E-11
       428  18  1.925842E+03  1.964657E+04  1.591130E+04  1.688380E+04 -7.204354E-11 -1.545147E-11
       428  19  6.910009E+04  6.136371E+04  1.534052E+04  5.328235E+04  2.670318E+03  7.361953E+03
       428  20  6.473796E+04  5.455411E+04  1.907386E+04  4.820022E+04  7.907598E+03  1.036334E+04
       428  21  6.082475E+04  5.226462E+04  2.754500E+04  4.280929E+04  1.316029E+04  1.334393E+04
       428  22  2.938356E+04  3.241576E+04  6.753617E+03  3.250073E+04  1.551200E+03  6.522639E+03
       428  23  3.015916E+04  3.192999E+04  1.188943E+04  3.132798E+04  6.748454E+03  9.494024E+03
       428  24  3.137484E+04  3.595552E+04  2.172839E+04  2.984627E+04  1.196122E+04  1.244471E+04
       428  25 -1.033023E+04  3.469533E+03 -1.833053E+03  1.172111E+04  4.321996E+02  5.683418E+03
       428  26 -4.417837E+03  9.306759E+03  4.705088E+03  1.445699E+04  5.589409E+03  8.624774E+03
       428  27  1.926002E+03  1.964675E+04  1.591177E+04  1.688390E+04  1.076222E+04  1.154554E+04
       429   1  5.382026E+04  5.569654E+04  3.367907E+04  4.341150E+04 -1.640183E+04 -1.521972E+04
       429   2  8.202310E+04  2.866738E+04  5.641954E+04  1.657823E+04 -3.893528E+04 -3.101607E+04
       429   3  1.370902E+05  4.176372E+04  1.097493E+05 -2.626958E+04 -6.159819E+04 -4.663989E+04
       429   4  3.361252E+04  3.742165E+04  2.878412E+04  3.118076E+04 -1.521129E+04 -1.432668E+04
       429   5  3.679728E+04  4.686990E+04  5.275852E+04  1.708010E+04 -3.741588E+04 -2.987953E+04
       429   6  6.677208E+04  9.637041E+04  1.070378E+05 -1.303448E+04 -5.974821E+04 -4.526222E+04
       429   7  1.340493E+04  1.914692E+04  2.388902E+04  1.895035E+04 -1.402079E+04 -1.343368E+04
       429   8 -8.424918E+03  6.507459E+04  4.909797E+04  1.758117E+04 -3.589664E+04 -2.874287E+04
       429   9 -3.533360E+03  1.509886E+05  1.043285E+05  1.971516E+02 -5.789856E+04 -4.388420E+04
       429  10  5.381991E+04  5.569622E+04  3.367813E+04  4.341130E+04  6.699263E-11  2.298960E-11
       429  11  8.202121E+04  2.866594E+04  5.641488E+04  1.657725E+04 -9.124189E-11  5.395890E-12
       429  12  1.370855E+05  4.176037E+04  1.097381E+05 -2.627189E+04 -3.587585E-11 -1.438880E-11
       429  13  3.361222E+04  3.742137E+04  2.878330E+04  3.118059E+04 -6.981601E-11 -5.687886E-11
       429  14  3.679553E+04  4.686857E+04  5.275422E+04  1.707919E+04  3.161992E-11  3.161576E-11
       429  15  6.676769E+04  9.636725E+04  1.070272E+05 -1.303666E+04 -7.346050E-11  2.007125E-11
       429  16  1.340467E+04  1.914667E+04  2.388831E+04  1.895020E+04 -1.237568E-10 -4.897105E-11
       429  17 -8.426523E+03  6.507336E+04  4.909400E+04  1.758034E+04 -3.130043E-11 -2.705515E-11
       429  18 -3.537477E+03  1.509856E+05  1.043186E+05  1.951056E+02 -7.071182E-11  5.384569E-12
       429  19  5.382026E+04  5.569654E+04  3.367907E+04  4.341150E+04  1.640183E+04  1.521972E+04
       429  20  8.202310E+04  2.866738E+04  5.641954E+04  1.657823E+04  3.893528E+04  3.101607E+04
       429  21  1.370902E+05  4.176372E+04  1.097493E+05 -2.626958E+04  6.159819E+04  4.663989E+04
       429  22  3.361252E+04  3.742165E+04  2.878412E+04  3.118076E+04  1.521129E+04  1.432668E+04
       429  23  3.679728E+04  4.686990E+04  5.275852E+04  1.708010E+04  3.741588E+04  2.987953E+04
       429  24  6.677208E+04  9.637041E+04  1.070378E+05 -1.303448E+04  5.974821E+04  4.526222E+04
       429  25  1.340493E+04  1.914692E+04  2.388902E+04  1.895035E+04  1.402079E+04  1.343368E+04
       429  26 -8.424918E+03  6.507459E+04  4.909797E+04  1.758117E+04  3.589664E+04  2.874287E+04
       429  27 -3.533360E+03  1.509886E+05  1.043285E+05  1.971516E+02  5.789856E+04  4.388420E+04
       430   1  8.675329E+04  3.871804E+04  3.472244E+04 -4.508515E+03  1.033867E+04 -2.993484E+03
       430   2  8.453667E+04  4.401277E+04  3.058771E+04 -9.029552E+02  4.864842E+03 -1.040768E+04
       430   3  8.200168E+04  4.516995E+04  2.898326E+04  2.829003E+03 -6.090622E+02 -1.336813E+04
       430   4 -1.147395E+05 -1.090602E+04 -1.190852E+04  2.565223E+03 -8.171951E+03 -2.994727E+03
       430   5 -1.138374E+05 -2.978342E+03 -5.996048E+03  2.501431E+03 -5.093824E+03 -1.040895E+04
       430   6 -1.147387E+05 -6.737973E+02 -3.492492E+03  2.563920E+03 -2.015794E+03 -1.336871E+04
       430   7 -3.161940E+05 -6.053255E+04 -5.854089E+04  9.636648E+03 -2.667660E+04 -2.996392E+03
       430   8 -3.121730E+05 -4.997160E+04 -4.258106E+04  5.904700E+03 -1.504939E+04 -1.041033E+04
       430   9 -3.114409E+05 -4.651954E+04 -3.596939E+04  2.298923E+03 -3.422096E+03 -1.336929E+04
       430  10  8.675317E+04  3.871800E+04  3.472223E+04 -4.508490E+03 -2.108897E-10  2.019616E-14
       430  11  8.453662E+04  4.401265E+04  3.058746E+04 -9.029144E+02 -2.199900E-10  1.612707E-10
       430  12  8.200163E+04  4.516976E+04  2.898293E+04  2.828997E+03  7.915346E-11 -1.710606E-10
       430  13 -1.147396E+05 -1.090604E+04 -1.190866E+04  2.565203E+03 -4.770167E-11  1.656681E-10
       430  14 -1.138374E+05 -2.978465E+03 -5.996300E+03  2.501388E+03 -8.840688E-11  2.622380E-10
       430  15 -1.147388E+05 -6.739903E+02 -3.492836E+03  2.563898E+03  1.370719E-10  1.642339E-11
       430  16 -3.161948E+05 -6.053276E+04 -5.854224E+04  9.636584E+03  1.008468E-11  1.258243E-10
       430  17 -3.121733E+05 -4.997178E+04 -4.258169E+04  5.904574E+03  6.646692E-11  1.574334E-11
       430  18 -3.114409E+05 -4.651973E+04 -3.596974E+04  2.298886E+03  6.444080E-11 -8.932145E-12
       430  19  8.675329E+04  3.871804E+04  3.472244E+04 -4.508515E+03 -1.033867E+04  2.993484E+03
       430  20  8.453667E+04  4.401277E+04  3.058771E+04 -9.029552E+02 -4.864842E+03  1.040768E+04
       430  21  8.200168E+04  4.516995E+04  2.898326E+04  2.829003E+03  6.090622E+02  1.336813E+04
       430  22 -1.147395E+05 -1.090602E+04 -1.190852E+04  2.565223E+03  8.171951E+03  2.994727E+03
       430  23 -1.138374E+05 -2.978342E+03 -5.996048E+03  2.501431E+03  5.093824E+03  1.040895E+04
       430  24 -1.147387E+05 -6.737973E+02 -3.492492E+03  2.563920E+03  2.015794E+03  1.336871E+04
       430  25 -3.161940E+05 -6.053255E+04 -5.854089E+04  9.636648E+03  2.667660E+04  2.996392E+03
       430  26 -3.121730E+05 -4.997160E+04 -4.258106E+04  5.904700E+03  1.504939E+04  1.041033E+04
       430  27 -3.114409E+05 -4.651954E+04 -3.596939E+04  2.298923E+03  3.422096E+03  1.336929E+04
       431   1  8.060705E+04  4.471596E+04  2.885462E+04  2.313587E+03  8.873078E+01 -1.366116E+04
       431   2  7.828791E+04  4.445203E+04  2.827349E+04  2.277865E+03  1.224706E+02 -1.425109E+04
       431   3  7.590414E+04  4.393553E+04  2.760814E+04  2.678900E+03  1.561292E+02 -1.432566E+04
       431   4 -1.143904E+05 -6.185962E+02 -2.818971E+03  2.633006E+03 -1.538528E+03 -1.366181E+04
       431   5 -1.142720E+05 -1.257663E+02 -2.053360E+03  2.414561E+03 -5.154080E+02 -1.425163E+04
       431   6 -1.143901E+05 -5.734455E+01 -2.059140E+03  2.632884E+03  5.076164E+02 -1.432600E+04
       431   7 -3.093502E+05 -4.595508E+04 -3.449361E+04  2.952319E+03 -3.165293E+03 -1.366246E+04
       431   8 -3.067950E+05 -4.470540E+04 -3.238112E+04  2.551211E+03 -1.153096E+03 -1.425216E+04
       431   9 -3.046482E+05 -4.405200E+04 -3.172728E+04  2.586880E+03  8.589999E+02 -1.432635E+04
       431  10  8.060700E+04  4.471576E+04  2.885427E+04  2.313588E+03 -2.940749E-10 -2.472461E-11
       431  11  7.828785E+04  4.445181E+04  2.827311E+04  2.277867E+03 -3.611205E-10 -4.490342E-10
       431  12  7.590408E+04  4.393531E+04  2.760776E+04  2.678902E+03  2.247298E-10 -1.363407E-10
       431  13 -1.143905E+05 -6.187972E+02 -2.819326E+03  2.632989E+03  1.509528E-10 -6.985312E-11
       431  14 -1.142721E+05 -1.259845E+02 -2.053742E+03  2.414555E+03  3.248082E-10 -2.075881E-10
       431  15 -1.143902E+05 -5.756500E+01 -2.059526E+03  2.632890E+03 -7.677836E-11 -1.923262E-10
       431  16 -3.093503E+05 -4.595528E+04 -3.449398E+04  2.952284E+03  4.405426E-10 -1.780932E-10
       431  17 -3.067951E+05 -4.470562E+04 -3.238150E+04  2.551198E+03  3.802294E-10 -1.461018E-10
       431  18 -3.046483E+05 -4.405222E+04 -3.172766E+04  2.586890E+03 -2.041315E-10  8.890562E-11
       431  19  8.060705E+04  4.471596E+04  2.885462E+04  2.313587E+03 -8.873078E+01  1.366116E+04
       431  20  7.828791E+04  4.445203E+04  2.827349E+04  2.277865E+03 -1.224706E+02  1.425109E+04
       431  21  7.590414E+04  4.393553E+04  2.760814E+04  2.678900E+03 -1.561292E+02  1.432566E+04
       431  22 -1.143904E+05 -6.185962E+02 -2.818971E+03  2.633006E+03  1.538528E+03  1.366181E+04
       431  23 -1.142720E+05 -1.257663E+02 -2.053360E+03  2.414561E+03  5.154080E+02  1.425163E+04
       431  24 -1.143901E+05 -5.734455E+01 -2.059140E+03  2.632884E+03 -5.076164E+02  1.432600E+04
       431  25 -3.093502E+05 -4.595508E+04 -3.449361E+04  2.952319E+03  3.165293E+03  1.366246E+04
       431  26 -3.067950E+05 -4.470540E+04 -3.238112E+04  2.551211E+03  1.153096E+03  1.425216E+04
       431  27 -3.046482E+05 -4.405200E+04 -3.172728E+04  2.586880E+03 -8.589999E+02  1.432635E+04
       432   1  7.435998E+04  4.358933E+04  2.711844E+04  2.535747E+03  5.758688E+02 -1.422335E+04
       432   2  7.214928E+04  4.281986E+04  2.591391E+04  2.717738E+03  1.378265E+03 -1.383071E+04
       432   3  6.965327E+04  4.131695E+04  2.400435E+04  3.400928E+03  2.180504E+03 -1.297444E+04
       432   4 -1.144352E+05 -5.428719E+01 -2.301872E+03  2.647167E+03  8.841555E+02 -1.422369E+04
       432   5 -1.142152E+05 -3.144984E+02 -3.389362E+03  2.396728E+03  2.576390E+03 -1.383079E+04
       432   6 -1.144350E+05 -1.462770E+03 -5.800017E+03  2.647492E+03  4.268479E+03 -1.297419E+04
       432   7 -3.031948E+05 -4.369965E+04 -3.172302E+04  2.758550E+03  1.192352E+03 -1.422403E+04
       432   8 -3.005450E+05 -4.345057E+04 -3.269347E+04  2.075815E+03  3.774167E+03 -1.383087E+04
       432   9 -2.984897E+05 -4.424421E+04 -3.560530E+04  1.894285E+03  6.355857E+03 -1.297395E+04
       432  10  7.435992E+04  4.358911E+04  2.711806E+04  2.535753E+03  1.809502E-11 -6.863043E-11
       432  11  7.214923E+04  4.281965E+04  2.591354E+04  2.717753E+03 -1.902183E-11 -3.619973E-11
       432  12  6.965322E+04  4.131677E+04  2.400402E+04  3.400951E+03  6.145612E-10 -4.237498E-10
       432  13 -1.144353E+05 -5.450464E+01 -2.302254E+03  2.647177E+03  2.570607E-10 -1.219519E-10
       432  14 -1.142152E+05 -3.147056E+02 -3.389734E+03  2.396756E+03  2.702020E-10 -1.539716E-10
       432  15 -1.144351E+05 -1.462956E+03 -5.800368E+03  2.647537E+03  2.439510E-10 -2.521630E-10
       432  16 -3.031949E+05 -4.369987E+04 -3.172340E+04  2.758564E+03  5.114364E-11 -1.929050E-11
       432  17 -3.005451E+05 -4.345078E+04 -3.269386E+04  2.075857E+03 -3.331864E-10  4.664793E-10
       432  18 -2.984898E+05 -4.424440E+04 -3.560569E+04  1.894352E+03 -5.747933E-10  1.149623E-10
       432  19  7.435998E+04  4.358933E+04  2.711844E+04  2.535747E+03 -5.758688E+02  1.422335E+04
       432  20  7.214928E+04  4.281986E+04  2.591391E+04  2.717738E+03 -1.378265E+03  1.383071E+04
       432  21  6.965327E+04  4.131695E+04  2.400435E+04  3.400928E+03 -2.180504E+03  1.297444E+04
       432  22 -1.144352E+05 -5.428719E+01 -2.301872E+03  2.647167E+03 -8.841555E+02  1.422369E+04
       432  23 -1.142152E+05 -3.144984E+02 -3.389362E+03  2.396728E+03 -2.576390E+03  1.383079E+04
       432  24 -1.144350E+05 -1.462770E+03 -5.800017E+03  2.647492E+03 -4.268479E+03  1.297419E+04
       432  25 -3.031948E+05 -4.369965E+04 -3.172302E+04  2.758550E+03 -1.192352E+03  1.422403E+04
       432  26 -3.005450E+05 -4.345057E+04 -3.269347E+04  2.075815E+03 -3.774167E+03  1.383087E+04
       432  27 -2.984897E+05 -4.424421E+04 -3.560530E+04  1.894285E+03 -6.355857E+03  1.297395E+04
       433   1  6.753967E+04  4.098982E+04  2.247546E+04  2.117299E+03  3.367005E+03 -1.251623E+04
       433   2  6.664765E+04  3.561401E+04  1.926199E+04  1.030182E+04  2.911641E+03 -9.575313E+03
       433   3  6.286307E+04  1.842247E+04  1.339099E+04  1.926393E+04  2.454784E+03 -2.726177E+03
       433   4 -1.152696E+05 -1.583656E+03 -7.581327E+03  2.708052E+03  5.260823E+03 -1.251598E+04
       433   5 -1.131720E+05 -6.954564E+03 -1.372477E+04  2.322847E+03  1.230871E+04 -9.572415E+03
       433   6 -1.152706E+05 -2.544607E+04 -2.773730E+04  2.715460E+03  1.935499E+04 -2.720097E+03
       433   7 -2.980458E+05 -4.415885E+04 -3.763908E+04  3.298624E+03  7.154103E+03 -1.251573E+04
       433   8 -2.929599E+05 -4.952469E+04 -4.671248E+04 -5.653755E+03  2.170312E+04 -9.569759E+03
       433   9 -2.933737E+05 -6.931565E+04 -6.886649E+04 -1.382823E+04  3.625039E+04 -2.714918E+03
       433  10  6.753962E+04  4.098965E+04  2.247515E+04  2.117332E+03  1.656247E-10 -7.794386E-10
       433  11  6.664762E+04  3.561391E+04  1.926180E+04  1.030184E+04 -5.727267E-10 -1.201616E-09
       433  12  6.286306E+04  1.842246E+04  1.339096E+04  1.926393E+04 -7.512336E-10 -3.405481E-10
       433  13 -1.152697E+05 -1.583832E+03 -7.581674E+03  2.708106E+03  3.508828E-10 -1.538854E-09
       433  14 -1.131722E+05 -6.954704E+03 -1.372523E+04  2.322942E+03  1.734154E-10  5.711967E-10
       433  15 -1.152710E+05 -2.544618E+04 -2.773802E+04  2.715502E+03  8.429332E-11 -6.324403E-11
       433  16 -2.980459E+05 -4.415903E+04 -3.763947E+04  3.298696E+03 -1.947819E-10 -1.023422E-10
       433  17 -2.929604E+05 -4.952492E+04 -4.671354E+04 -5.653588E+03  3.475169E-10  5.343887E-10
       433  18 -2.933751E+05 -6.931601E+04 -6.886897E+04 -1.382815E+04  9.910266E-10 -3.142166E-10
       433  19  6.753967E+04  4.098982E+04  2.247546E+04  2.117299E+03 -3.367005E+03  1.251623E+04
       433  20  6.664765E+04  3.561401E+04  1.926199E+04  1.030182E+04 -2.911641E+03  9.575313E+03
       433  21  6.286307E+04  1.842247E+04  1.339099E+04  1.926393E+04 -2.454784E+03  2.726177E+03
       433  22 -1.152696E+05 -1.583656E+03 -7.581327E+03  2.708052E+03 -5.260823E+03  1.251598E+04
       433  23 -1.131720E+05 -6.954564E+03 -1.372477E+04  2.322847E+03 -1.230871E+04  9.572415E+03
       433  24 -1.152706E+05 -2.544607E+04 -2.773730E+04  2.715460E+03 -1.935499E+04  2.720097E+03
       433  25 -2.980458E+05 -4.415885E+04 -3.763908E+04  3.298624E+03 -7.154103E+03  1.251573E+04
       433  26 -2.929599E+05 -4.952469E+04 -4.671248E+04 -5.653755E+03 -2.170312E+04  9.569759E+03
       433  27 -2.933737E+05 -6.931565E+04 -6.886649E+04 -1.382823E+04 -3.625039E+04  2.714918E+03
       434   1 -7.615005E+04 -3.607809E+05 -7.192228E+04  8.721261E+04 -3.484510E+03 -1.920181E+04
       434   2 -5.742706E+04 -2.800053E+05 -4.395117E+04  8.106297E+04 -1.049465E+04 -6.599669E+03
       434   3 -3.872303E+04 -2.008628E+05 -2.419225E+04  9.032828E+04 -9.824909E+03  6.004908E+03
       434   4  4.585664E+03 -3.443413E+04  5.329556E+03  9.043881E+04 -3.482306E+03  1.624599E+03
       434   5  1.240882E+03 -3.488754E+04  4.222363E+03  8.273179E+04 -1.049349E+04 -5.116333E+02
       434   6  4.366913E+02 -3.442133E+04  5.141233E+03  9.043918E+04 -9.826259E+03 -2.647340E+03
       434   7  8.531400E+04  2.920115E+05  8.257564E+04  9.366669E+04 -3.479886E+03  2.246190E+04
       434   8  5.990522E+04  2.102879E+05  5.239312E+04  8.440128E+04 -1.049230E+04  5.578756E+03
       434   9  3.959494E+04  1.320474E+05  3.447399E+04  9.055010E+04 -9.827611E+03 -1.130184E+04
       434  10 -7.615016E+04 -3.607813E+05 -7.192300E+04  8.721256E+04 -8.560976E-12 -3.404123E-11
       434  11 -5.742719E+04 -2.800053E+05 -4.395146E+04  8.106292E+04 -1.047860E-11 -3.922367E-11
       434  12 -3.872315E+04 -2.008628E+05 -2.419250E+04  9.032833E+04 -1.174068E-10 -1.018114E-10
       434  13  4.585650E+03 -3.443414E+04  5.329528E+03  9.043881E+04 -1.118179E-10 -3.421536E-13
       434  14  1.240764E+03 -3.488757E+04  4.222155E+03  8.273179E+04 -6.679538E-11 -1.106621E-11
       434  15  4.365857E+02 -3.442136E+04  5.141038E+03  9.043916E+04 -7.814815E-11  4.567842E-11
       434  16  8.531385E+04  2.920110E+05  8.257467E+04  9.366676E+04  2.920419E-11  5.915235E-11
       434  17  5.990509E+04  2.102878E+05  5.239286E+04  8.440133E+04 -2.329758E-10  5.503112E-11
       434  18  3.959480E+04  1.320472E+05  3.447357E+04  9.055001E+04  5.063130E-11  7.859426E-11
       434  19 -7.615005E+04 -3.607809E+05 -7.192228E+04  8.721261E+04  3.484510E+03  1.920181E+04
       434  20 -5.742706E+04 -2.800053E+05 -4.395117E+04  8.106297E+04  1.049465E+04  6.599669E+03
       434  21 -3.872303E+04 -2.008628E+05 -2.419225E+04  9.032828E+04  9.824909E+03 -6.004908E+03
       434  22  4.585664E+03 -3.443413E+04  5.329556E+03  9.043881E+04  3.482306E+03 -1.624599E+03
       434  23  1.240882E+03 -3.488754E+04  4.222363E+03  8.273179E+04  1.049349E+04  5.116333E+02
       434  24  4.366913E+02 -3.442133E+04  5.141233E+03  9.043918E+04  9.826259E+03  2.647340E+03
       434  25  8.531400E+04  2.920115E+05  8.257564E+04  9.366669E+04  3.479886E+03 -2.246190E+04
       434  26  5.990522E+04  2.102879E+05  5.239312E+04  8.440128E+04  1.049230E+04 -5.578756E+03
       434  27  3.959494E+04  1.320474E+05  3.447399E+04  9.055010E+04  9.827611E+03  1.130184E+04
       435   1 -2.665699E+04 -1.494713E+05 -1.390550E+04  8.985633E+04 -6.936575E+03  4.708195E+03
       435   2 -7.095850E+03 -7.021113E+04  4.385351E+03  8.334857E+04 -2.529619E+03  1.289368E+01
       435   3  1.527681E+04  1.036877E+04  2.643524E+04  9.274346E+04  2.041361E+03 -4.683112E+03
       435   4  4.001783E+02 -3.431884E+04  6.213774E+03  9.054767E+04 -6.938086E+03 -3.596340E+03
       435   5  1.074220E+03 -3.500211E+04  1.002616E+04  8.259613E+04 -2.531291E+03 -8.607258E+03
       435   6  4.614918E+03 -3.431673E+04  1.781697E+04  9.054699E+04  2.039535E+03 -1.361832E+04
       435   7  2.745667E+04  8.084678E+04  2.633283E+04  9.123914E+04 -6.939614E+03 -1.190237E+04
       435   8  9.244270E+03  2.083014E+02  1.566721E+04  8.184364E+04 -2.532942E+03 -1.722788E+04
       435   9 -6.047030E+03 -7.900013E+04  9.198910E+03  8.835068E+04  2.037772E+03 -2.255290E+04
       435  10 -2.665705E+04 -1.494714E+05 -1.390563E+04  8.985635E+04 -1.901511E-10  3.117434E-10
       435  11 -7.095857E+03 -7.021113E+04  4.385339E+03  8.334857E+04 -2.935377E-11  1.301552E-10
       435  12  1.527680E+04  1.036874E+04  2.643519E+04  9.274347E+04 -1.493801E-10 -2.377309E-10
       435  13  4.001231E+02 -3.431886E+04  6.213659E+03  9.054765E+04  2.783834E-11  5.262687E-12
       435  14  1.074193E+03 -3.500219E+04  1.002601E+04  8.259611E+04  3.305607E-10  4.740752E-11
       435  15  4.614864E+03 -3.431693E+04  1.781661E+04  9.054701E+04 -2.525055E-10  6.066190E-11
       435  16  2.745658E+04  8.084662E+04  2.633248E+04  9.123907E+04 -5.649592E-12 -3.584728E-10
       435  17  9.244183E+03  2.079810E+02  1.566664E+04  8.184361E+04  4.590848E-12  2.458196E-12
       435  18 -6.047171E+03 -7.900068E+04  9.197946E+03  8.835072E+04 -4.912326E-11  2.305690E-10
       435  19 -2.665699E+04 -1.494713E+05 -1.390550E+04  8.985633E+04  6.936575E+03 -4.708195E+03
       435  20 -7.095850E+03 -7.021113E+04  4.385351E+03  8.334857E+04  2.529619E+03 -1.289368E+01
       435  21  1.527681E+04  1.036877E+04  2.643524E+04  9.274346E+04 -2.041361E+03  4.683112E+03
       435  22  4.001783E+02 -3.431884E+04  6.213774E+03  9.054767E+04  6.938086E+03  3.596340E+03
       435  23  1.074220E+03 -3.500211E+04  1.002616E+04  8.259613E+04  2.531291E+03  8.607258E+03
       435  24  4.614918E+03 -3.431673E+04  1.781697E+04  9.054699E+04 -2.039535E+03  1.361832E+04
       435  25  2.745667E+04  8.084678E+04  2.633283E+04  9.123914E+04  6.939614E+03  1.190237E+04
       435  26  9.244270E+03  2.083014E+02  1.566721E+04  8.184364E+04  2.532942E+03  1.722788E+04
       435  27 -6.047030E+03 -7.900013E+04  9.198910E+03  8.835068E+04 -2.037772E+03  2.255290E+04
       436   1  2.769820E+04  6.420091E+04  4.112867E+04  8.845749E+04  5.054919E+03 -7.473075E+03
       436   2  6.378085E+04  1.365804E+05  7.802657E+04  1.074952E+05  6.784386E+03 -4.119008E+04
       436   3  1.429431E+05  2.241249E+05  1.476440E+05  1.420698E+05  2.403068E+03 -7.491149E+04
       436   4  4.987317E+03 -3.170470E+04  2.347401E+04  9.046544E+04  5.053113E+03 -1.667104E+04
       436   5  2.175912E+04 -3.827285E+04  4.280719E+04  8.269413E+04  6.786604E+03 -3.865366E+04
       436   6  7.957903E+04 -3.171266E+04  8.671651E+04  9.045640E+04  2.411428E+03 -6.063620E+04
       436   7 -1.772403E+04 -1.276012E+05  5.819290E+03  9.247308E+04  5.051248E+03 -2.586762E+04
       436   8 -2.026219E+04 -2.130956E+05  7.586602E+03  5.790017E+04  6.788621E+03 -3.611795E+04
       436   9  1.622040E+04 -2.874840E+05  2.578661E+04  3.886439E+04  2.417419E+03 -4.636675E+04
       436  10  2.769816E+04  6.420085E+04  4.112852E+04  8.845752E+04 -1.615175E-10 -1.087300E-10
       436  11  6.378034E+04  1.365786E+05  7.802330E+04  1.074954E+05  5.465526E-11  1.255543E-11
       436  12  1.429415E+05  2.241189E+05  1.476335E+05  1.420699E+05  5.255644E-11  8.959087E-11
       436  13  4.987215E+03 -3.170500E+04  2.347344E+04  9.046551E+04  1.904312E-11  5.476457E-12
       436  14  2.175866E+04 -3.827446E+04  4.280430E+04  8.269434E+04  5.977191E-11  2.621889E-11
       436  15  7.957804E+04 -3.171661E+04  8.670959E+04  9.045652E+04 -1.274344E-11  1.734759E-11
       436  16 -1.772424E+04 -1.276019E+05  5.817985E+03  9.247319E+04 -1.222900E-10  8.153727E-11
       436  17 -2.026259E+04 -2.130971E+05  7.584063E+03  5.790036E+04 -2.041453E-10  1.025282E-10
       436  18  1.621981E+04 -2.874863E+05  2.578255E+04  3.886448E+04 -6.417135E-11 -9.031825E-11
       436  19  2.769820E+04  6.420091E+04  4.112867E+04  8.845749E+04 -5.054919E+03  7.473075E+03
       436  20  6.378085E+04  1.365804E+05  7.802657E+04  1.074952E+05 -6.784386E+03  4.119008E+04
       436  21  1.429431E+05  2.241249E+05  1.476440E+05  1.420698E+05 -2.403068E+03  7.491149E+04
       436  22  4.987317E+03 -3.170470E+04  2.347401E+04  9.046544E+04 -5.053113E+03  1.667104E+04
       436  23  2.175912E+04 -3.827285E+04  4.280719E+04  8.269413E+04 -6.786604E+03  3.865366E+04
       436  24  7.957903E+04 -3.171266E+04  8.671651E+04  9.045640E+04 -2.411428E+03  6.063620E+04
       436  25 -1.772403E+04 -1.276012E+05  5.819290E+03  9.247308E+04 -5.051248E+03  2.586762E+04
       436  26 -2.026219E+04 -2.130956E+05  7.586602E+03  5.790017E+04 -6.788621E+03  3.611795E+04
       436  27  1.622040E+04 -2.874840E+05  2.578661E+04  3.886439E+04 -2.417419E+03  4.636675E+04
       437   1  1.123229E+05  1.084461E+05  5.201119E+04  5.705960E+04  1.742917E+04  9.178961E+03
       437   2  1.030733E+05  9.904060E+04  3.915654E+04  5.306794E+04  1.417439E+04 -2.648123E+03
       437   3  9.364301E+04  9.347258E+04  3.309551E+04  4.957525E+04  7.945814E+03 -1.050988E+04
       437   4 -4.869481E+04 -6.528214E+03  5.545854E+02 -2.312568E+04  2.088309E+03 -2.328868E+03
       437   5 -4.786307E+04 -7.772679E+03  3.582434E+02 -2.326030E+04  6.448735E+03 -8.444201E+03
       437   6 -4.886451E+04 -6.831768E+03  3.457992E+02 -2.289600E+04  7.834691E+03 -1.059373E+04
       437   7 -2.096845E+05 -1.214880E+05 -5.090398E+04 -1.032873E+05 -1.324715E+04 -1.383261E+04
       437   8 -1.987750E+05 -1.145734E+05 -3.844212E+04 -9.956791E+04 -1.274482E+03 -1.423844E+04
       437   9 -1.913513E+05 -1.071258E+05 -3.240613E+04 -9.534939E+04  7.723601E+03 -1.067756E+04
       437  10  1.123226E+05  1.084459E+05  5.201046E+04  5.705947E+04 -1.415242E-11 -1.060663E-10
       437  11  1.030731E+05  9.904054E+04  3.915615E+04  5.306797E+04 -4.532033E-11  1.346191E-10
       437  12  9.364291E+04  9.347244E+04  3.309518E+04  4.957532E+04  1.067773E-11  6.332168E-11
       437  13 -4.869481E+04 -6.528221E+03  5.545670E+02 -2.312568E+04 -1.854122E-10 -5.889728E-11
       437  14 -4.786314E+04 -7.772767E+03  3.580312E+02 -2.326026E+04 -2.908235E-10  2.920143E-10
       437  15 -4.886461E+04 -6.831905E+03  3.454729E+02 -2.289593E+04 -7.263721E-11  6.554304E-11
       437  16 -2.096847E+05 -1.214883E+05 -5.090467E+04 -1.032875E+05  8.799175E-11  4.853321E-11
       437  17 -1.987751E+05 -1.145737E+05 -3.844250E+04 -9.956792E+04 -2.285413E-10  2.159842E-10
       437  18 -1.913514E+05 -1.071259E+05 -3.240645E+04 -9.534933E+04  5.953918E-12  8.036720E-11
       437  19  1.123229E+05  1.084461E+05  5.201119E+04  5.705960E+04 -1.742917E+04 -9.178961E+03
       437  20  1.030733E+05  9.904060E+04  3.915654E+04  5.306794E+04 -1.417439E+04  2.648123E+03
       437  21  9.364301E+04  9.347258E+04  3.309551E+04  4.957525E+04 -7.945814E+03  1.050988E+04
       437  22 -4.869481E+04 -6.528214E+03  5.545854E+02 -2.312568E+04 -2.088309E+03  2.328868E+03
       437  23 -4.786307E+04 -7.772679E+03  3.582434E+02 -2.326030E+04 -6.448735E+03  8.444201E+03
       437  24 -4.886451E+04 -6.831768E+03  3.457992E+02 -2.289600E+04 -7.834691E+03  1.059373E+04
       437  25 -2.096845E+05 -1.214880E+05 -5.090398E+04 -1.032873E+05  1.324715E+04  1.383261E+04
       437  26 -1.987750E+05 -1.145734E+05 -3.844212E+04 -9.956791E+04  1.274482E+03  1.423844E+04
       437  27 -1.913513E+05 -1.071258E+05 -3.240613E+04 -9.534939E+04 -7.723601E+03  1.067756E+04
       438   1  8.765682E+04  8.939843E+04  3.125556E+04  4.668865E+04  8.025730E+03 -1.031430E+04
       438   2  7.977998E+04  8.183284E+04  2.842551E+04  4.191932E+04  6.958719E+03 -1.103460E+04
       438   3  6.980208E+04  7.678786E+04  2.648302E+04  3.783330E+04  5.575507E+03 -1.133347E+04
       438   4 -4.894721E+04 -6.766607E+03  3.839554E+02 -2.287860E+04  7.719951E+03 -1.054417E+04
       438   5 -4.781582E+04 -7.952861E+03  5.539685E+02 -2.320889E+04  7.462309E+03 -1.065718E+04
       438   6 -4.896158E+04 -6.794147E+03  9.089207E+02 -2.285599E+04  6.888383E+03 -1.034873E+04
       438   7 -1.855264E+05 -1.029180E+05 -3.048767E+04 -9.242657E+04  7.414269E+03 -1.077398E+04
       438   8 -1.753909E+05 -9.772735E+04 -2.731786E+04 -8.832077E+04  7.965756E+03 -1.027988E+04
       438   9 -1.677084E+05 -9.036720E+04 -2.466577E+04 -8.353166E+04  8.200923E+03 -9.364253E+03
       438  10  8.765672E+04  8.939830E+04  3.125524E+04  4.668871E+04  1.250655E-10  4.530446E-11
       438  11  7.977989E+04  8.183270E+04  2.842519E+04  4.191938E+04 -5.779417E-11  2.457419E-10
       438  12  6.980201E+04  7.678771E+04  2.648272E+04  3.783335E+04 -4.837893E-10  2.507257E-11
       438  13 -4.894730E+04 -6.766743E+03  3.836345E+02 -2.287853E+04  4.437610E-11 -2.543428E-11
       438  14 -4.781591E+04 -7.952998E+03  5.536505E+02 -2.320883E+04 -3.044710E-12  5.890800E-11
       438  15 -4.896166E+04 -6.794275E+03  9.086303E+02 -2.285594E+04 -2.332107E-10  1.004709E-10
       438  16 -1.855265E+05 -1.029181E+05 -3.048799E+04 -9.242651E+04 -1.307916E-10  1.771250E-10
       438  17 -1.753910E+05 -9.772748E+04 -2.731818E+04 -8.832070E+04  3.099618E-10  2.921320E-10
       438  18 -1.677085E+05 -9.036731E+04 -2.466606E+04 -8.353159E+04  2.928197E-10  2.758361E-10
       438  19  8.765682E+04  8.939843E+04  3.125556E+04  4.668865E+04 -8.025730E+03  1.031430E+04
       438  20  7.977998E+04  8.183284E+04  2.842551E+04  4.191932E+04 -6.958719E+03  1.103460E+04
       438  21  6.980208E+04  7.678786E+04  2.648302E+04  3.783330E+04 -5.575507E+03  1.133347E+04
       438  22 -4.894721E+04 -6.766607E+03  3.839554E+02 -2.287860E+04 -7.719951E+03  1.054417E+04
       438  23 -4.781582E+04 -7.952861E+03  5.539685E+02 -2.320889E+04 -7.462309E+03  1.065718E+04
       438  24 -4.896158E+04 -6.794147E+03  9.089207E+02 -2.285599E+04 -6.888383E+03  1.034873E+04
       438  25 -1.855264E+05 -1.029180E+05 -3.048767E+04 -9.242657E+04 -7.414269E+03  1.077398E+04
       438  26 -1.753909E+05 -9.772735E+04 -2.731786E+04 -8.832077E+04 -7.965756E+03  1.027988E+04
       438  27 -1.677084E+05 -9.036720E+04 -2.466577E+04 -8.353166E+04 -8.200923E+03  9.364253E+03
       439   1  6.411894E+04  7.285871E+04  2.544569E+04  3.499176E+04  5.138644E+03 -1.102038E+04
       439   2  5.636180E+04  6.544432E+04  2.433466E+04  3.010118E+04  3.695868E+03 -1.100715E+04
       439   3  4.643974E+04  6.056127E+04  2.401328E+04  2.590545E+04  2.210139E+03 -1.093682E+04
       439   4 -4.895421E+04 -6.781019E+03  1.182756E+03 -2.283521E+04  6.430379E+03 -1.005145E+04
       439   5 -4.783364E+04 -7.987715E+03  2.036572E+03 -2.321801E+04  5.097438E+03 -9.955688E+03
       439   6 -4.890147E+04 -6.687049E+03  3.584823E+03 -2.290603E+04  3.721544E+03 -9.802836E+03
       439   7 -1.620145E+05 -8.641433E+04 -2.308154E+04 -8.065099E+04  7.721827E+03 -9.082724E+03
       439   8 -1.520162E+05 -8.141287E+04 -2.026197E+04 -7.652672E+04  6.498694E+03 -8.904461E+03
       439   9 -1.442299E+05 -7.392819E+04 -1.684334E+04 -7.170775E+04  5.232611E+03 -8.669103E+03
       439  10  6.411888E+04  7.285857E+04  2.544542E+04  3.499180E+04  1.007869E-10  3.677001E-10
       439  11  5.636175E+04  6.544419E+04  2.433440E+04  3.010122E+04 -6.155731E-11 -5.829479E-10
       439  12  4.643970E+04  6.056114E+04  2.401304E+04  2.590547E+04  1.864289E-10 -7.914002E-11
       439  13 -4.895428E+04 -6.781139E+03  1.182488E+03 -2.283515E+04 -2.621457E-10 -7.945034E-11
       439  14 -4.783369E+04 -7.987828E+03  2.036337E+03 -2.321797E+04 -1.721353E-10  1.188841E-10
       439  15 -4.890151E+04 -6.687155E+03  3.584617E+03 -2.290600E+04  1.614769E-10 -3.855468E-11
       439  16 -1.620146E+05 -8.641443E+04 -2.308180E+04 -8.065093E+04 -1.530550E-10 -9.430114E-11
       439  17 -1.520162E+05 -8.141296E+04 -2.026220E+04 -7.652667E+04  8.472630E-11 -3.582249E-10
       439  18 -1.442299E+05 -7.392828E+04 -1.684354E+04 -7.170772E+04  4.337974E-11 -1.561903E-10
       439  19  6.411894E+04  7.285871E+04  2.544569E+04  3.499176E+04 -5.138644E+03  1.102038E+04
       439  20  5.636180E+04  6.544432E+04  2.433466E+04  3.010118E+04 -3.695868E+03  1.100715E+04
       439  21  4.643974E+04  6.056127E+04  2.401328E+04  2.590545E+04 -2.210139E+03  1.093682E+04
       439  22 -4.895421E+04 -6.781019E+03  1.182756E+03 -2.283521E+04 -6.430379E+03  1.005145E+04
       439  23 -4.783364E+04 -7.987715E+03  2.036572E+03 -2.321801E+04 -5.097438E+03  9.955688E+03
       439  24 -4.890147E+04 -6.687049E+03  3.584823E+03 -2.290603E+04 -3.721544E+03  9.802836E+03
       439  25 -1.620145E+05 -8.641433E+04 -2.308154E+04 -8.065099E+04 -7.721827E+03  9.082724E+03
       439  26 -1.520162E+05 -8.141287E+04 -2.026197E+04 -7.652672E+04 -6.498694E+03  8.904461E+03
       439  27 -1.442299E+05 -7.392819E+04 -1.684334E+04 -7.170775E+04 -5.232611E+03  8.669103E+03
       440   1  4.065333E+04  5.697162E+04  2.392381E+04  2.323258E+04  1.303202E+03 -1.090789E+04
       440   2  3.401933E+04  4.874762E+04  2.578766E+04  1.738108E+04 -2.900537E+03 -1.274250E+04
       440   3  2.664048E+04  4.484880E+04  3.115735E+04  1.163435E+04 -7.197050E+03 -1.445355E+04
       440   4 -4.877198E+04 -6.614703E+03  4.729730E+03 -2.279592E+04  2.806657E+03 -9.779813E+03
       440   5 -4.767366E+04 -7.509337E+03  8.338421E+03 -2.377993E+04 -1.159277E+03 -1.143588E+04
       440   6 -4.737189E+04 -4.130135E+03  1.524676E+04 -2.465927E+04 -5.218081E+03 -1.296845E+04
       440   7 -1.381878E+05 -7.019589E+04 -1.446471E+04 -6.881665E+04  4.309826E+03 -8.651955E+03
       440   8 -1.293596E+05 -6.376293E+04 -9.111397E+03 -6.493510E+04  5.816968E+02 -1.012947E+04
       440   9 -1.213794E+05 -5.310716E+04 -6.646006E+02 -6.094872E+04 -3.239387E+03 -1.148354E+04
       440  10  4.065329E+04  5.697149E+04  2.392358E+04  2.323259E+04 -5.165655E-10 -4.388447E-10
       440  11  3.401928E+04  4.874744E+04  2.578734E+04  1.738105E+04 -4.045127E-10  4.161186E-10
       440  12  2.664037E+04  4.484856E+04  3.115686E+04  1.163426E+04 -2.706865E-10  3.134600E-10
       440  13 -4.877201E+04 -6.614808E+03  4.729535E+03 -2.279589E+04  2.925675E-10 -3.553467E-10
       440  14 -4.767370E+04 -7.509477E+03  8.338173E+03 -2.377994E+04  1.529368E-10  9.140522E-11
       440  15 -4.737196E+04 -4.130323E+03  1.524639E+04 -2.465932E+04  3.504222E-10  1.698811E-10
       440  16 -1.381879E+05 -7.019598E+04 -1.446489E+04 -6.881662E+04  6.588702E-10  4.364437E-10
       440  17 -1.293597E+05 -6.376304E+04 -9.111591E+03 -6.493510E+04  4.910486E-10  2.832379E-11
       440  18 -1.213794E+05 -5.310730E+04 -6.648682E+02 -6.094875E+04 -1.087021E-10 -1.099243E-10
       440  19  4.065333E+04  5.697162E+04  2.392381E+04  2.323258E+04 -1.303202E+03  1.090789E+04
       440  20  3.401933E+04  4.874762E+04  2.578766E+04  1.738108E+04  2.900537E+03  1.274250E+04
       440  21  2.664048E+04  4.484880E+04  3.115735E+04  1.163435E+04  7.197050E+03  1.445355E+04
       440  22 -4.877198E+04 -6.614703E+03  4.729730E+03 -2.279592E+04 -2.806657E+03  9.779813E+03
       440  23 -4.767366E+04 -7.509337E+03  8.338421E+03 -2.377993E+04  1.159277E+03  1.143588E+04
       440  24 -4.737189E+04 -4.130135E+03  1.524676E+04 -2.465927E+04  5.218081E+03  1.296845E+04
       440  25 -1.381878E+05 -7.019589E+04 -1.446471E+04 -6.881665E+04 -4.309826E+03  8.651955E+03
       440  26 -1.293596E+05 -6.376293E+04 -9.111397E+03 -6.493510E+04 -5.816968E+02  1.012947E+04
       440  27 -1.213794E+05 -5.310716E+04 -6.646006E+02 -6.094872E+04  3.239387E+03  1.148354E+04
       441   1  1.914559E+04  4.548928E+04  3.504294E+04  1.073641E+04 -9.646465E+03 -1.543406E+04
       441   2  3.536132E+04  2.305547E+04  5.119896E+04 -1.054186E+04 -2.818586E+04 -2.690414E+04
       441   3  6.966858E+04  3.038672E+04  9.049842E+04 -4.271696E+04 -4.756847E+04 -3.725010E+04
       441   4 -4.582120E+04 -3.082731E+03  2.019925E+04 -2.371747E+04 -7.722454E+03 -1.399004E+04
       441   5 -4.298387E+04  2.948828E+03  3.702703E+04 -3.378819E+04 -2.410432E+04 -2.384242E+04
       441   6 -2.252353E+04  3.827640E+04  7.512611E+04 -5.475616E+04 -4.132865E+04 -3.257208E+04
       441   7 -1.107818E+05 -5.165084E+04  5.355748E+03 -5.816644E+04 -5.798742E+03 -1.254627E+04
       441   8 -1.213198E+05 -1.715666E+04  2.285555E+04 -5.703209E+04 -2.002356E+04 -2.078086E+04
       441   9 -1.147012E+05  4.616896E+04  5.975511E+04 -6.679583E+04 -3.509028E+04 -2.789374E+04
       441  10  1.914542E+04  4.548900E+04  3.504232E+04  1.073629E+04 -7.948091E-10 -2.075091E-10
       441  11  3.536027E+04  2.305448E+04  5.119611E+04 -1.054247E+04 -2.631460E-10  6.575050E-10
       441  12  6.966577E+04  3.038463E+04  9.049156E+04 -4.271839E+04  1.441420E-10  5.812844E-10
       441  13 -4.582132E+04 -3.082957E+03  2.019877E+04 -2.371756E+04  1.798425E-10 -1.059863E-11
       441  14 -4.298464E+04  2.948061E+03  3.702487E+04 -3.378865E+04 -1.661302E-10  1.857990E-09
       441  15 -2.252565E+04  3.827480E+04  7.512091E+04 -5.475724E+04 -3.003485E-10  9.697350E-10
       441  16 -1.107819E+05 -5.165102E+04  5.355389E+03 -5.816650E+04  7.935158E-10  5.624632E-10
       441  17 -1.213204E+05 -1.715724E+04  2.285398E+04 -5.703243E+04  2.199700E-10  5.056174E-10
       441  18 -1.147027E+05  4.616780E+04  5.975133E+04 -6.679662E+04 -4.507816E-10 -1.705102E-10
       441  19  1.914559E+04  4.548928E+04  3.504294E+04  1.073641E+04  9.646465E+03  1.543406E+04
       441  20  3.536132E+04  2.305547E+04  5.119896E+04 -1.054186E+04  2.818586E+04  2.690414E+04
       441  21  6.966858E+04  3.038672E+04  9.049842E+04 -4.271696E+04  4.756847E+04  3.725010E+04
       441  22 -4.582120E+04 -3.082731E+03  2.019925E+04 -2.371747E+04  7.722454E+03  1.399004E+04
       441  23 -4.298387E+04  2.948828E+03  3.702703E+04 -3.378819E+04  2.410432E+04  2.384242E+04
       441  24 -2.252353E+04  3.827640E+04  7.512611E+04 -5.475616E+04  4.132865E+04  3.257208E+04
       441  25 -1.107818E+05 -5.165084E+04  5.355748E+03 -5.816644E+04  5.798742E+03  1.254627E+04
       441  26 -1.213198E+05 -1.715666E+04  2.285555E+04 -5.703209E+04  2.002356E+04  2.078086E+04
       441  27 -1.147012E+05  4.616896E+04  5.975511E+04 -6.679583E+04  3.509028E+04  2.789374E+04
       442   1  2.903054E+05  7.914928E+04  6.900138E+04  3.721180E+04  7.257371E+03 -6.348160E+03
       442   2  2.350178E+05  9.108518E+04  5.887509E+04  4.595000E+04 -2.573754E+03 -2.097363E+04
       442   3  1.765904E+05  8.530343E+04  5.072330E+04  6.520165E+04 -1.240776E+04 -2.443655E+04
       442   4 -1.991544E+05 -4.158983E+04 -4.541056E+04  6.404530E+04 -3.152914E+04 -6.367450E+03
       442   5 -1.957100E+05 -1.133257E+04 -2.258486E+04  5.877677E+04 -1.992386E+04 -2.098464E+04
       442   6 -1.991348E+05 -2.522309E+03 -1.267331E+04  6.402298E+04 -8.322436E+03 -2.443529E+04
       442   7 -6.883887E+05 -1.623424E+05 -1.598327E+05  9.085748E+04 -7.028526E+04 -6.390101E+03
       442   8 -6.262577E+05 -1.137604E+05 -1.040518E+05  7.159440E+04 -3.726222E+04 -2.099637E+04
       442   9 -5.747209E+05 -9.035547E+04 -7.607436E+04  6.284501E+04 -4.239498E+03 -2.443404E+04
       442  10  2.903054E+05  7.914923E+04  6.900121E+04  3.721184E+04  1.246331E-09 -1.971297E-10
       442  11  2.350177E+05  9.108471E+04  5.887425E+04  4.594995E+04  1.366400E-10 -1.173918E-09
       442  12  1.765901E+05  8.530275E+04  5.072189E+04  6.520141E+04  1.619379E-10 -1.120166E-09
       442  13 -1.991555E+05 -4.159014E+04 -4.541250E+04  6.404514E+04  3.488920E-10  2.040808E-10
       442  14 -1.957105E+05 -1.133315E+04 -2.258643E+04  5.877643E+04  2.901468E-10 -9.031132E-10
       442  15 -1.991350E+05 -2.522969E+03 -1.267456E+04  6.402281E+04  2.987681E-10 -1.598791E-10
       442  16 -6.883940E+05 -1.623438E+05 -1.598421E+05  9.085712E+04 -1.507228E-09 -1.664107E-11
       442  17 -6.262593E+05 -1.137612E+05 -1.040552E+05  7.159377E+04  1.903271E-10 -1.812775E-09
       442  18 -5.747211E+05 -9.035611E+04 -7.607551E+04  6.284493E+04  1.714603E-10 -1.771348E-09
       442  19  2.903054E+05  7.914928E+04  6.900138E+04  3.721180E+04 -7.257371E+03  6.348160E+03
       442  20  2.350178E+05  9.108518E+04  5.887509E+04  4.595000E+04  2.573754E+03  2.097363E+04
       442  21  1.765904E+05  8.530343E+04  5.072330E+04  6.520165E+04  1.240776E+04  2.443655E+04
       442  22 -1.991544E+05 -4.158983E+04 -4.541056E+04  6.404530E+04  3.152914E+04  6.367450E+03
       442  23 -1.957100E+05 -1.133257E+04 -2.258486E+04  5.877677E+04  1.992386E+04  2.098464E+04
       442  24 -1.991348E+05 -2.522309E+03 -1.267331E+04  6.402298E+04  8.322436E+03  2.443529E+04
       442  25 -6.883887E+05 -1.623424E+05 -1.598327E+05  9.085748E+04  7.028526E+04  6.390101E+03
       442  26 -6.262577E+05 -1.137604E+05 -1.040518E+05  7.159440E+04  3.726222E+04  2.099637E+04
       442  27 -5.747209E+05 -9.035547E+04 -7.607436E+04  6.284501E+04  4.239498E+03  2.443404E+04
       443   1  1.412035E+05  7.671906E+04  4.632536E+04  6.315314E+04 -1.017995E+04 -2.285746E+04
       443   2  8.461672E+04  6.496563E+04  3.875622E+04  5.818506E+04 -9.309935E+03 -2.043596E+04
       443   3  2.763399E+04  5.211136E+04  3.034301E+04  6.450379E+04 -8.441270E+03 -1.685395E+04
       443   4 -1.977782E+05 -2.313571E+03 -9.858760E+03  6.419654E+04 -6.642652E+03 -2.285627E+04
       443   5 -1.973800E+05 -4.292597E+02 -6.210433E+03  5.855213E+04 -3.545631E+03 -2.043276E+04
       443   6 -1.977671E+05 -3.251291E+01 -4.953335E+03  6.419489E+04 -4.498485E+02 -1.684846E+04
       443   7 -5.366463E+05 -8.135215E+04 -6.604627E+04  6.523933E+04 -3.107219E+03 -2.285506E+04
       443   8 -4.792975E+05 -6.582811E+04 -5.117902E+04  5.891900E+04  2.216151E+03 -2.042954E+04
       443   9 -4.231175E+05 -5.217885E+04 -4.025066E+04  6.388611E+04  7.538780E+03 -1.684298E+04
       443  10  1.412032E+05  7.671848E+04  4.632418E+04  6.315296E+04 -1.948063E-09 -1.343125E-09
       443  11  8.461651E+04  6.496516E+04  3.875527E+04  5.818491E+04 -1.200485E-09  4.253563E-10
       443  12  2.763384E+04  5.211104E+04  3.034234E+04  6.450367E+04  5.933937E-10  5.140622E-10
       443  13 -1.977784E+05 -2.314144E+03 -9.859825E+03  6.419642E+04  4.246481E-10 -7.657022E-10
       443  14 -1.973801E+05 -4.297114E+02 -6.211241E+03  5.855207E+04  2.306146E-10  5.321002E-11
       443  15 -1.977672E+05 -3.281776E+01 -4.953869E+03  6.419489E+04  3.689876E-10 -7.033258E-10
       443  16 -5.366465E+05 -8.135271E+04 -6.604727E+04  6.523927E+04  1.685285E-09  7.865661E-11
       443  17 -4.792977E+05 -6.582856E+04 -5.117982E+04  5.891904E+04  8.977162E-10  6.590142E-10
       443  18 -4.231176E+05 -5.217917E+04 -4.025130E+04  6.388621E+04 -2.667458E-10  1.565116E-10
       443  19  1.412035E+05  7.671906E+04  4.632536E+04  6.315314E+04  1.017995E+04  2.285746E+04
       443  20  8.461672E+04  6.496563E+04  3.875622E+04  5.818506E+04  9.309935E+03  2.043596E+04
       443  21  2.763399E+04  5.211136E+04  3.034301E+04  6.450379E+04  8.441270E+03  1.685395E+04
       443  22 -1.977782E+05 -2.313571E+03 -9.858760E+03  6.419654E+04  6.642652E+03  2.285627E+04
       443  23 -1.973800E+05 -4.292597E+02 -6.210433E+03  5.855213E+04  3.545631E+03  2.043276E+04
       443  24 -1.977671E+05 -3.251291E+01 -4.953335E+03  6.419489E+04  4.498485E+02  1.684846E+04
       443  25 -5.366463E+05 -8.135215E+04 -6.604627E+04  6.523933E+04  3.107219E+03  2.285506E+04
       443  26 -4.792975E+05 -6.582811E+04 -5.117902E+04  5.891900E+04 -2.216151E+03  2.042954E+04
       443  27 -4.231175E+05 -5.217885E+04 -4.025066E+04  6.388611E+04 -7.538780E+03  1.684298E+04
       444   1 -8.552766E+03  4.368445E+04  2.439321E+04  6.413883E+04 -7.541750E+03 -1.438529E+04
       444   2 -6.493680E+04  3.014498E+04  1.411683E+04  5.911354E+04 -4.309859E+03 -1.028993E+04
       444   3 -1.221297E+05  1.511242E+04  1.357656E+03  6.544410E+04 -1.078552E+03 -6.284067E+03
       444   4 -1.977636E+05 -2.841588E+01 -4.940745E+03  6.421017E+04  4.022927E+02 -1.437953E+04
       444   5 -1.973702E+05 -3.976051E+02 -6.138569E+03  5.853296E+04  3.461403E+03 -1.028396E+04
       444   6 -1.977589E+05 -2.229934E+03 -9.699583E+03  6.421181E+04  6.520203E+03 -6.277899E+03
       444   7 -3.869385E+05 -4.374300E+04 -3.427528E+04  6.428147E+04  8.344006E+03 -1.437376E+04
       444   8 -3.297858E+05 -3.094100E+04 -2.639412E+04  5.795251E+04  1.123107E+04 -1.027800E+04
       444   9 -2.733822E+05 -1.957252E+04 -2.075670E+04  6.297967E+04  1.411807E+04 -6.271762E+03
       444  10 -8.552882E+03  4.368421E+04  2.439271E+04  6.413875E+04 -9.112007E-10  1.104433E-09
       444  11 -6.493685E+04  3.014486E+04  1.411659E+04  5.911351E+04 -4.944832E-10  9.429415E-10
       444  12 -1.221297E+05  1.511238E+04  1.357580E+03  6.544410E+04  1.320489E-09 -7.322017E-11
       444  13 -1.977636E+05 -2.863794E+01 -4.941134E+03  6.421017E+04  7.644475E-10 -1.118044E-09
       444  14 -1.973702E+05 -3.977219E+02 -6.138790E+03  5.853299E+04  5.227199E-10  6.534442E-10
       444  15 -1.977589E+05 -2.229987E+03 -9.699737E+03  6.421184E+04 -1.893893E-10  1.293892E-09
       444  16 -3.869386E+05 -4.374324E+04 -3.427580E+04  6.428157E+04  8.317752E-10  3.691954E-10
       444  17 -3.297860E+05 -3.094115E+04 -2.639455E+04  5.795260E+04  3.051331E-10  1.121995E-09
       444  18 -2.733824E+05 -1.957261E+04 -2.075715E+04  6.297974E+04 -1.188042E-09  2.053259E-10
       444  19 -8.552766E+03  4.368445E+04  2.439321E+04  6.413883E+04  7.541750E+03  1.438529E+04
       444  20 -6.493680E+04  3.014498E+04  1.411683E+04  5.911354E+04  4.309859E+03  1.028993E+04
       444  21 -1.221297E+05  1.511242E+04  1.357656E+03  6.544410E+04  1.078552E+03  6.284067E+03
       444  22 -1.977636E+05 -2.841588E+01 -4.940745E+03  6.421017E+04 -4.022927E+02  1.437953E+04
       444  23 -1.973702E+05 -3.976051E+02 -6.138569E+03  5.853296E+04 -3.461403E+03  1.028396E+04
       444  24 -1.977589E+05 -2.229934E+03 -9.699583E+03  6.421181E+04 -6.520203E+03  6.277899E+03
       444  25 -3.869385E+05 -4.374300E+04 -3.427528E+04  6.428147E+04 -8.344006E+03  1.437376E+04
       444  26 -3.297858E+05 -3.094100E+04 -2.639412E+04  5.795251E+04 -1.123107E+04  1.027800E+04
       444  27 -2.733822E+05 -1.957252E+04 -2.075670E+04  6.297967E+04 -1.411807E+04  6.271762E+03
       445   1 -1.596908E+05  6.451736E+03 -7.459315E+03  6.321805E+04  4.789749E+02 -3.883057E+03
       445   2 -2.127943E+05 -1.553356E+04 -2.754609E+04  7.133241E+04  1.573470E+04 -8.720745E+02
       445   3 -2.733359E+05 -5.925406E+04 -6.300661E+04  9.068023E+04  3.099018E+04  1.209419E+02
       445   4 -1.990880E+05 -2.426766E+03 -1.245596E+04  6.418181E+04  8.171652E+03 -3.876723E+03
       445   5 -1.957062E+05 -1.106503E+04 -2.217087E+04  5.857909E+04  1.955258E+04 -8.692683E+02
       445   6 -1.990924E+05 -4.076567E+04 -4.456771E+04  6.421140E+04  3.093467E+04  1.195715E+02
       445   7 -2.384835E+05 -1.130530E+04 -1.745238E+04  6.514551E+04  1.586386E+04 -3.870365E+03
       445   8 -1.786174E+05 -6.595904E+03 -1.679553E+04  4.582544E+04  2.337056E+04 -8.666191E+02
       445   9 -1.248425E+05 -2.227506E+04 -2.612884E+04  3.773941E+04  3.087915E+04  1.182059E+02
       445  10 -1.596908E+05  6.451720E+03 -7.459343E+03  6.321805E+04  1.817317E-10 -3.311560E-10
       445  11 -2.127946E+05 -1.553363E+04 -2.754656E+04  7.133242E+04 -5.147968E-10  1.916896E-09
       445  12 -2.733369E+05 -5.925432E+04 -6.300841E+04  9.068022E+04  3.669366E-10  5.429233E-10
       445  13 -1.990881E+05 -2.426800E+03 -1.245611E+04  6.418184E+04  5.221756E-10  3.210432E-10
       445  14 -1.957066E+05 -1.106513E+04 -2.217159E+04  5.857911E+04 -1.141485E-11  1.949190E-09
       445  15 -1.990935E+05 -4.076593E+04 -4.456951E+04  6.421140E+04  2.208473E-10 -3.654500E-10
       445  16 -2.384838E+05 -1.130538E+04 -1.745288E+04  6.514556E+04 -2.667775E-10  1.971477E-10
       445  17 -1.786180E+05 -6.596051E+03 -1.679656E+04  4.582546E+04  3.036774E-10  6.064853E-11
       445  18 -1.248435E+05 -2.227531E+04 -2.613063E+04  3.773941E+04 -4.954134E-10 -4.968804E-10
       445  19 -1.596908E+05  6.451736E+03 -7.459315E+03  6.321805E+04 -4.789749E+02  3.883057E+03
       445  20 -2.127943E+05 -1.553356E+04 -2.754609E+04  7.133241E+04 -1.573470E+04  8.720745E+02
       445  21 -2.733359E+05 -5.925406E+04 -6.300661E+04  9.068023E+04 -3.099018E+04 -1.209419E+02
       445  22 -1.990880E+05 -2.426766E+03 -1.245596E+04  6.418181E+04 -8.171652E+03  3.876723E+03
       445  23 -1.957062E+05 -1.106503E+04 -2.217087E+04  5.857909E+04 -1.955258E+04  8.692683E+02
       445  24 -1.990924E+05 -4.076567E+04 -4.456771E+04  6.421140E+04 -3.093467E+04 -1.195715E+02
       445  25 -2.384835E+05 -1.130530E+04 -1.745238E+04  6.514551E+04 -1.586386E+04  3.870365E+03
       445  26 -1.786174E+05 -6.595904E+03 -1.679553E+04  4.582544E+04 -2.337056E+04  8.666191E+02
       445  27 -1.248425E+05 -2.227506E+04 -2.612884E+04  3.773941E+04 -3.087915E+04 -1.182059E+02
       446   1 -7.259810E+04 -2.690870E+05 -6.828451E+04  9.112756E+04 -3.294222E+03 -1.678548E+04
       446   2 -5.428743E+04 -1.839834E+05 -4.076600E+04  8.515115E+04 -9.756514E+03 -5.073674E+03
       446   3 -3.494852E+04 -1.001216E+05 -2.061607E+04  9.550457E+04 -8.668956E+03  6.642873E+03
       446   4  6.453643E+03  5.038515E+04  7.470861E+03  9.555670E+04 -3.298185E+03  2.860203E+03
       446   5  1.712499E+03  4.975839E+04  5.477120E+03  8.739147E+04 -9.757116E+03  8.120989E+01
       446   6  5.156545E+02  5.039820E+04  6.179795E+03  9.555538E+04 -8.667587E+03 -2.694905E+03
       446   7  8.549833E+04  3.699520E+05  8.322059E+04  9.998813E+04 -3.301867E+03  2.251595E+04
       446   8  5.770914E+04  2.835525E+05  5.171765E+04  8.963264E+04 -9.757680E+03  5.237994E+03
       446   9  3.597863E+04  2.009403E+05  3.297514E+04  9.560620E+04 -8.666220E+03 -1.203488E+04
       446  10 -7.259818E+04 -2.690873E+05 -6.828506E+04  9.112752E+04 -4.221208E-11  1.064033E-10
       446  11 -5.428754E+04 -1.839834E+05 -4.076623E+04  8.515111E+04  2.300420E-11  1.651342E-10
       446  12 -3.494862E+04 -1.001217E+05 -2.061630E+04  9.550462E+04  3.769192E-10  3.206389E-10
       446  13  6.453629E+03  5.038514E+04  7.470825E+03  9.555671E+04  2.582380E-10 -3.936854E-10
       446  14  1.712396E+03  4.975836E+04  5.476941E+03  8.739147E+04 -4.831437E-11 -7.274930E-10
       446  15  5.155719E+02  5.039817E+04  6.179640E+03  9.555536E+04  4.734461E-10 -2.268300E-10
       446  16  8.549818E+04  3.699514E+05  8.321961E+04  9.998819E+04 -7.524359E-12  4.663937E-11
       446  17  5.770903E+04  2.835525E+05  5.171742E+04  8.963268E+04  1.007070E-11 -7.133352E-10
       446  18  3.597851E+04  2.009401E+05  3.297472E+04  9.560611E+04  3.280829E-10 -4.882150E-10
       446  19 -7.259810E+04 -2.690870E+05 -6.828451E+04  9.112756E+04  3.294222E+03  1.678548E+04
       446  20 -5.428743E+04 -1.839834E+05 -4.076600E+04  8.515115E+04  9.756514E+03  5.073674E+03
       446  21 -3.494852E+04 -1.001216E+05 -2.061607E+04  9.550457E+04  8.668956E+03 -6.642873E+03
       446  22  6.453643E+03  5.038515E+04  7.470861E+03  9.555670E+04  3.298185E+03 -2.860203E+03
       446  23  1.712499E+03  4.975839E+04  5.477120E+03  8.739147E+04  9.757116E+03 -8.120989E+01
       446  24  5.156545E+02  5.039820E+04  6.179795E+03  9.555538E+04  8.667587E+03  2.694905E+03
       446  25  8.549833E+04  3.699520E+05  8.322059E+04  9.998813E+04  3.301867E+03 -2.251595E+04
       446  26  5.770914E+04  2.835525E+05  5.171765E+04  8.963264E+04  9.757680E+03 -5.237994E+03
       446  27  3.597863E+04  2.009403E+05  3.297514E+04  9.560620E+04  8.666220E+03  1.203488E+04
       447   1 -2.222917E+04 -4.588992E+04 -9.836295E+03  9.487247E+04 -5.571982E+03  5.187874E+03
       447   2 -1.595222E+03  3.777191E+04  9.533185E+03  8.809879E+04 -8.557745E+02 -4.221807E+02
       447   3  2.227978E+04  1.229942E+05  3.336783E+04  9.812663E+04  3.915682E+03 -6.033006E+03
       447   4  4.673703E+02  5.046868E+04  7.288919E+03  9.566034E+04 -5.570863E+03 -3.812813E+03
       447   5  1.168675E+03  4.968268E+04  1.144118E+04  8.726005E+04 -8.546800E+02 -9.529599E+03
       447   6  5.130017E+03  5.046921E+04  2.013304E+04  9.566105E+04  3.916770E+03 -1.524644E+04
       447   7  2.316345E+04  1.468365E+05  2.441409E+04  9.644833E+04 -5.569768E+03 -1.281486E+04
       447   8  3.932613E+03  6.159376E+04  1.334949E+04  8.642130E+04 -8.535609E+02 -1.863718E+04
       447   9 -1.201998E+04 -2.205047E+04  6.898371E+03  9.319576E+04  3.917932E+03 -2.445883E+04
       447  10 -2.222921E+04 -4.588996E+04 -9.836404E+03  9.487250E+04  1.573326E-10 -6.336962E-11
       447  11 -1.595223E+03  3.777191E+04  9.533184E+03  8.809879E+04  2.232560E-10 -3.411373E-10
       447  12  2.227976E+04  1.229942E+05  3.336773E+04  9.812665E+04  1.239221E-11 -3.549242E-10
       447  13  4.673331E+02  5.046865E+04  7.288833E+03  9.566032E+04  6.267389E-10 -3.285890E-10
       447  14  1.168650E+03  4.968258E+04  1.144101E+04  8.726005E+04  3.849705E-10 -5.657855E-10
       447  15  5.129938E+03  5.046896E+04  2.013258E+04  9.566110E+04  1.667448E-10 -2.475386E-10
       447  16  2.316337E+04  1.468363E+05  2.441372E+04  9.644827E+04  4.215490E-10  1.628159E-10
       447  17  3.932519E+03  6.159339E+04  1.334883E+04  8.642129E+04  2.646277E-10 -2.210493E-10
       447  18 -1.202015E+04 -2.205112E+04  6.897218E+03  9.319584E+04 -2.373231E-11  1.578955E-10
       447  19 -2.222917E+04 -4.588992E+04 -9.836295E+03  9.487247E+04  5.571982E+03 -5.187874E+03
       447  20 -1.595222E+03  3.777191E+04  9.533185E+03  8.809879E+04  8.557745E+02  4.221807E+02
       447  21  2.227978E+04  1.229942E+05  3.336783E+04  9.812663E+04 -3.915682E+03  6.033006E+03
       447  22  4.673703E+02  5.046868E+04  7.288919E+03  9.566034E+04  5.570863E+03  3.812813E+03
       447  23  1.168675E+03  4.968268E+04  1.144118E+04  8.726005E+04  8.546800E+02  9.529599E+03
       447  24  5.130017E+03  5.046921E+04  2.013304E+04  9.566105E+04 -3.916770E+03  1.524644E+04
       447  25  2.316345E+04  1.468365E+05  2.441409E+04  9.644833E+04  5.569768E+03  1.281486E+04
       447  26  3.932613E+03  6.159376E+04  1.334949E+04  8.642130E+04  8.535609E+02  1.863718E+04
       447  27 -1.201998E+04 -2.205047E+04  6.898371E+03  9.319576E+04 -3.917932E+03  2.445883E+04
       448   1  3.544908E+04  1.800711E+05  4.931831E+04  9.328073E+04  7.054922E+03 -9.172419E+03
       448   2  7.477534E+04  2.560210E+05  9.004773E+04  1.152398E+05  8.509856E+03 -4.739765E+04
       448   3  1.626033E+05  3.490921E+05  1.677873E+05  1.535831E+05  2.946120E+03 -8.563068E+04
       448   4  5.549049E+03  5.340312E+04  2.647346E+04  9.556490E+04  7.056163E+03 -1.869330E+04
       448   5  2.441910E+04  4.600487E+04  4.818828E+04  8.738336E+04  8.511578E+03 -4.343837E+04
       448   6  8.945846E+04  5.338932E+04  9.756017E+04  9.558214E+04  2.950940E+03 -6.818575E+04
       448   7 -2.435181E+04 -7.324901E+04  3.628340E+03  9.784859E+04  7.057333E+03 -2.821229E+04
       448   8 -2.593691E+04 -1.639674E+05  6.327093E+03  5.953652E+04  8.512945E+03 -3.948039E+04
       448   9  1.632016E+04 -2.422254E+05  2.732985E+04  3.760890E+04  2.952505E+03 -5.074907E+04
       448  10  3.544900E+04  1.800710E+05  4.931806E+04  9.328078E+04 -1.108087E-10 -9.181016E-11
       448  11  7.477466E+04  2.560185E+05  9.004337E+04  1.152401E+05 -3.435964E-10 -4.087616E-11
       448  12  1.626013E+05  3.490843E+05  1.677736E+05  1.535833E+05 -2.055333E-10  1.313918E-10
       448  13  5.548901E+03  5.340273E+04  2.647271E+04  9.556500E+04 -2.233845E-10 -2.233995E-10
       448  14  2.441852E+04  4.600283E+04  4.818460E+04  8.738366E+04  7.788672E-11 -6.799513E-10
       448  15  8.945720E+04  5.338433E+04  9.755142E+04  9.558230E+04 -1.539837E-10 -1.803330E-10
       448  16 -2.435207E+04 -7.324988E+04  3.626750E+03  9.784875E+04 -2.653531E-10  2.888782E-10
       448  17 -2.593740E+04 -1.639691E+05  6.324027E+03  5.953679E+04 -1.327546E-10 -4.879654E-10
       448  18  1.631946E+04 -2.422281E+05  2.732499E+04  3.760902E+04 -2.477173E-10 -3.494000E-10
       448  19  3.544908E+04  1.800711E+05  4.931831E+04  9.328073E+04 -7.054922E+03  9.172419E+03
       448  20  7.477534E+04  2.560210E+05  9.004773E+04  1.152398E+05 -8.509856E+03  4.739765E+04
       448  21  1.626033E+05  3.490921E+05  1.677873E+05  1.535831E+05 -2.946120E+03  8.563068E+04
       448  22  5.549049E+03  5.340312E+04  2.647346E+04  9.556490E+04 -7.056163E+03  1.869330E+04
       448  23  2.441910E+04  4.600487E+04  4.818828E+04  8.738336E+04 -8.511578E+03  4.343837E+04
       448  24  8.945846E+04  5.338932E+04  9.756017E+04  9.558214E+04 -2.950940E+03  6.818575E+04
       448  25 -2.435181E+04 -7.324901E+04  3.628340E+03  9.784859E+04 -7.057333E+03  2.821229E+04
       448  26 -2.593691E+04 -1.639674E+05  6.327093E+03  5.953652E+04 -8.512945E+03  3.948039E+04
       448  27  1.632016E+04 -2.422254E+05  2.732985E+04  3.760890E+04 -2.952505E+03  5.074907E+04
       449   1  2.843012E+05  2.724901E+05  9.975636E+04  1.813901E+05  3.683474E+04  2.193653E+04
       449   2  2.640229E+05  2.368691E+05  6.820571E+04  1.752898E+05  2.728335E+04  1.284667E+03
       449   3  2.469516E+05  2.162729E+05  5.281919E+04  1.673898E+05  1.315282E+04 -1.326454E+04
       449   4  5.022431E+04  8.541965E+04  2.103308E+04  5.567175E+04  1.440732E+04  5.099338E+03
       449   5  4.663036E+04  7.339174E+04  1.047515E+04  6.091772E+04  1.658047E+04 -6.751724E+03
       449   6  4.370233E+04  7.384661E+04  5.906873E+03  6.436298E+04  1.417296E+04 -1.249953E+04
       449   7 -1.837978E+05 -1.016139E+05 -5.769656E+04 -6.999229E+04 -8.009106E+03 -1.172820E+04
       449   8 -1.707082E+05 -9.005284E+04 -4.725882E+04 -5.340685E+04  5.882609E+03 -1.478403E+04
       449   9 -1.594945E+05 -6.855161E+04 -4.100645E+04 -3.862274E+04  1.519263E+04 -1.173487E+04
       449  10  2.842996E+05  2.724893E+05  9.975291E+04  1.813894E+05  2.741848E-10 -6.395889E-12
       449  11  2.640221E+05  2.368689E+05  6.820430E+04  1.752898E+05  6.727604E-11 -1.021309E-09
       449  12  2.469513E+05  2.162726E+05  5.281853E+04  1.673900E+05  1.136579E-10 -7.003399E-11
       449  13  5.022408E+04  8.541957E+04  2.103264E+04  5.567169E+04  1.008635E-10  3.528479E-10
       449  14  4.663005E+04  7.339162E+04  1.047455E+04  6.091781E+04  3.904889E-11  1.378051E-10
       449  15  4.370207E+04  7.384639E+04  5.906202E+03  6.436312E+04  1.764392E-10 -2.607730E-10
       449  16 -1.837979E+05 -1.016140E+05 -5.769694E+04 -6.999237E+04 -4.302047E-10  2.836004E-10
       449  17 -1.707083E+05 -9.005308E+04 -4.725929E+04 -5.340678E+04  3.849441E-10 -1.073374E-09
       449  18 -1.594948E+05 -6.855182E+04 -4.100714E+04 -3.862259E+04  5.735040E-11 -7.048391E-10
       449  19  2.843012E+05  2.724901E+05  9.975636E+04  1.813901E+05 -3.683474E+04 -2.193653E+04
       449  20  2.640229E+05  2.368691E+05  6.820571E+04  1.752898E+05 -2.728335E+04 -1.284667E+03
       449  21  2.469516E+05  2.162729E+05  5.281919E+04  1.673898E+05 -1.315282E+04  1.326454E+04
       449  22  5.022431E+04  8.541965E+04  2.103308E+04  5.567175E+04 -1.440732E+04 -5.099338E+03
       449  23  4.663036E+04  7.339174E+04  1.047515E+04  6.091772E+04 -1.658047E+04  6.751724E+03
       449  24  4.370233E+04  7.384661E+04  5.906873E+03  6.436298E+04 -1.417296E+04  1.249953E+04
       449  25 -1.837978E+05 -1.016139E+05 -5.769656E+04 -6.999229E+04  8.009106E+03  1.172820E+04
       449  26 -1.707082E+05 -9.005284E+04 -4.725882E+04 -5.340685E+04 -5.882609E+03  1.478403E+04
       449  27 -1.594945E+05 -6.855161E+04 -4.100645E+04 -3.862274E+04 -1.519263E+04  1.173487E+04
       450   1  2.318213E+05  2.074507E+05  4.762635E+04  1.606388E+05  1.245097E+04 -1.301772E+04
       450   2  2.134136E+05  1.889255E+05  3.985062E+04  1.495991E+05  9.504741E+03 -1.413827E+04
       450   3  1.902813E+05  1.766968E+05  3.428180E+04  1.400027E+05  6.073664E+03 -1.461328E+04
       450   4  4.315720E+04  7.367418E+04  4.616737E+03  6.413920E+04  1.317167E+04 -1.247744E+04
       450   5  4.545756E+04  7.030923E+04  2.964493E+03  6.368345E+04  1.146597E+04 -1.266627E+04
       450   6  4.276357E+04  7.297191E+04  2.442547E+03  6.467072E+04  9.275200E+03 -1.220952E+04
       450   7 -1.454653E+05 -6.008003E+04 -3.839491E+04 -3.232627E+04  1.389207E+04 -1.193738E+04
       450   8 -1.224669E+05 -4.829053E+04 -3.392362E+04 -2.220595E+04  1.342651E+04 -1.119480E+04
       450   9 -1.047315E+05 -3.074152E+04 -2.939871E+04 -1.064187E+04  1.247579E+04 -9.806479E+03
       450  10  2.318211E+05  2.074504E+05  4.762574E+04  1.606390E+05  1.269425E-10 -3.745725E-10
       450  11  2.134134E+05  1.889252E+05  3.985007E+04  1.495992E+05  3.183519E-10 -4.741183E-10
       450  12  1.902812E+05  1.766965E+05  3.428133E+04  1.400028E+05  1.957027E-11 -7.492209E-10
       450  13  4.315697E+04  7.367396E+04  4.616119E+03  6.413933E+04  4.549664E-11 -9.754495E-10
       450  14  4.545738E+04  7.030902E+04  2.963944E+03  6.368357E+04  6.826929E-10 -5.807011E-11
       450  15  4.276344E+04  7.297172E+04  2.442105E+03  6.467081E+04 -2.794356E-10 -1.297646E-09
       450  16 -1.454655E+05 -6.008023E+04 -3.839555E+04 -3.232613E+04  1.928824E-10 -1.753248E-10
       450  17 -1.224671E+05 -4.829071E+04 -3.392419E+04 -2.220583E+04 -3.788089E-10 -1.372997E-09
       450  18 -1.047317E+05 -3.074166E+04 -2.939919E+04 -1.064177E+04 -2.506626E-10  7.160035E-10
       450  19  2.318213E+05  2.074507E+05  4.762635E+04  1.606388E+05 -1.245097E+04  1.301772E+04
       450  20  2.134136E+05  1.889255E+05  3.985062E+04  1.495991E+05 -9.504741E+03  1.413827E+04
       450  21  1.902813E+05  1.766968E+05  3.428180E+04  1.400027E+05 -6.073664E+03  1.461328E+04
       450  22  4.315720E+04  7.367418E+04  4.616737E+03  6.413920E+04 -1.317167E+04  1.247744E+04
       450  23  4.545756E+04  7.030923E+04  2.964493E+03  6.368345E+04 -1.146597E+04  1.266627E+04
       450  24  4.276357E+04  7.297191E+04  2.442547E+03  6.467072E+04 -9.275200E+03  1.220952E+04
       450  25 -1.454653E+05 -6.008003E+04 -3.839491E+04 -3.232627E+04 -1.389207E+04  1.193738E+04
       450  26 -1.224669E+05 -4.829053E+04 -3.392362E+04 -2.220595E+04 -1.342651E+04  1.119480E+04
       450  27 -1.047315E+05 -3.074152E+04 -2.939871E+04 -1.064187E+04 -1.247579E+04  9.806479E+03
       451   1  1.768818E+05  1.674932E+05  3.129372E+04  1.332924E+05  5.014362E+03 -1.386066E+04
       451   2  1.587409E+05  1.500764E+05  2.741386E+04  1.218552E+05  2.383007E+03 -1.320749E+04
       451   3  1.353586E+05  1.384464E+05  2.471275E+04  1.120364E+05 -2.949341E+02 -1.249244E+04
       451   4  4.273462E+04  7.296993E+04  2.481934E+03  6.466578E+04  8.184216E+03 -1.148050E+04
       451   5  4.539765E+04  7.013920E+04  3.154990E+03  6.382123E+04  5.671905E+03 -1.073769E+04
       451   6  4.279231E+04  7.306892E+04  4.903269E+03  6.459459E+04  3.112922E+03 -9.933035E+03
       451   7 -9.138828E+04 -2.153988E+04 -2.632961E+04 -3.942066E+03  1.135309E+04 -9.101089E+03
       451   8 -6.792903E+04 -9.788965E+03 -2.110395E+04  5.800349E+03  8.959969E+03 -8.268524E+03
       451   9 -4.976371E+04  7.696966E+03 -1.490649E+04  1.716112E+04  6.520100E+03 -7.374146E+03
       451  10  1.768817E+05  1.674930E+05  3.129331E+04  1.332925E+05  6.329075E-10 -1.199832E-10
       451  11  1.587408E+05  1.500762E+05  2.741352E+04  1.218552E+05  5.866465E-11 -6.561234E-10
       451  12  1.353586E+05  1.384462E+05  2.471246E+04  1.120364E+05 -8.332932E-10 -1.213428E-09
       451  13  4.273451E+04  7.296977E+04  2.481560E+03  6.466586E+04  2.789477E-10  8.126848E-10
       451  14  4.539758E+04  7.013907E+04  3.154712E+03  6.382128E+04 -4.198413E-10  8.447056E-10
       451  15  4.279227E+04  7.306881E+04  4.903065E+03  6.459461E+04 -2.107818E-10  9.929175E-10
       451  16 -9.138844E+04 -2.154001E+04 -2.633000E+04 -3.941983E+03 -2.823069E-10  6.770776E-10
       451  17 -6.792914E+04 -9.789060E+03 -2.110423E+04  5.800409E+03  1.101428E-10  2.014865E-09
       451  18 -4.976377E+04  7.696896E+03 -1.490668E+04  1.716116E+04  6.718478E-11  1.328963E-09
       451  19  1.768818E+05  1.674932E+05  3.129372E+04  1.332924E+05 -5.014362E+03  1.386066E+04
       451  20  1.587409E+05  1.500764E+05  2.741386E+04  1.218552E+05 -2.383007E+03  1.320749E+04
       451  21  1.353586E+05  1.384464E+05  2.471275E+04  1.120364E+05  2.949341E+02  1.249244E+04
       451  22  4.273462E+04  7.296993E+04  2.481934E+03  6.466578E+04 -8.184216E+03  1.148050E+04
       451  23  4.539765E+04  7.013920E+04  3.154990E+03  6.382123E+04 -5.671905E+03  1.073769E+04
       451  24  4.279231E+04  7.306892E+04  4.903269E+03  6.459459E+04 -3.112922E+03  9.933035E+03
       451  25 -9.138828E+04 -2.153988E+04 -2.632961E+04 -3.942066E+03 -1.135309E+04  9.101089E+03
       451  26 -6.792903E+04 -9.788965E+03 -2.110395E+04  5.800349E+03 -8.959969E+03  8.268524E+03
       451  27 -4.976371E+04  7.696966E+03 -1.490649E+04  1.716112E+04 -6.520100E+03  7.374146E+03
       452   1  1.219308E+05  1.296156E+05  2.315762E+04  1.055455E+05 -1.848094E+03 -1.203656E+04
       452   2  1.052712E+05  1.112067E+05  2.323326E+04  9.290765E+04 -7.376940E+03 -1.345623E+04
       452   3  8.508444E+04  1.007410E+05  2.748735E+04  8.112745E+04 -1.286599E+04 -1.492894E+04
       452   4  4.295768E+04  7.315646E+04  6.292581E+03  6.472876E+04  1.559104E+03 -9.477513E+03
       452   5  4.560791E+04  7.076497E+04  1.080951E+04  6.310506E+04 -4.071303E+03 -1.097335E+04
       452   6  4.475301E+04  7.633870E+04  1.959341E+04  6.233872E+04 -9.661977E+03 -1.252234E+04
       452   7 -3.600956E+04  1.670026E+04 -1.057322E+04  2.391731E+04  4.965795E+03 -6.918859E+03
       452   8 -1.405116E+04  3.032531E+04 -1.614303E+03  3.330578E+04 -7.660894E+02 -8.490778E+03
       452   9  4.424384E+03  5.193762E+04  1.169974E+04  4.355172E+04 -6.458308E+03 -1.011597E+04
       452  10  1.219307E+05  1.296154E+05  2.315734E+04  1.055455E+05  1.111356E-10 -6.717982E-10
       452  11  1.052711E+05  1.112065E+05  2.323281E+04  9.290757E+04 -5.627125E-10 -1.952357E-09
       452  12  8.508420E+04  1.007408E+05  2.748662E+04  8.112730E+04 -1.011996E-09  1.359761E-09
       452  13  4.295765E+04  7.315636E+04  6.292408E+03  6.472877E+04  3.769846E-10 -1.404825E-09
       452  14  4.560786E+04  7.076483E+04  1.080926E+04  6.310503E+04 -1.131482E-10 -2.323012E-10
       452  15  4.475287E+04  7.633850E+04  1.959294E+04  6.233863E+04  1.254121E-10 -4.813433E-10
       452  16 -3.600960E+04  1.670020E+04 -1.057335E+04  2.391734E+04 -6.893153E-10  4.485161E-10
       452  17 -1.405118E+04  3.032523E+04 -1.614440E+03  3.330578E+04  4.834287E-10  1.525250E-10
       452  18  4.424312E+03  5.193750E+04  1.169947E+04  4.355166E+04  3.899474E-10 -9.523277E-10
       452  19  1.219308E+05  1.296156E+05  2.315762E+04  1.055455E+05  1.848094E+03  1.203656E+04
       452  20  1.052712E+05  1.112067E+05  2.323326E+04  9.290765E+04  7.376940E+03  1.345623E+04
       452  21  8.508444E+04  1.007410E+05  2.748735E+04  8.112745E+04  1.286599E+04  1.492894E+04
       452  22  4.295768E+04  7.315646E+04  6.292581E+03  6.472876E+04 -1.559104E+03  9.477513E+03
       452  23  4.560791E+04  7.076497E+04  1.080951E+04  6.310506E+04  4.071303E+03  1.097335E+04
       452  24  4.475301E+04  7.633870E+04  1.959341E+04  6.233872E+04  9.661977E+03  1.252234E+04
       452  25 -3.600956E+04  1.670026E+04 -1.057322E+04  2.391731E+04 -4.965795E+03  6.918859E+03
       452  26 -1.405116E+04  3.032531E+04 -1.614303E+03  3.330578E+04  7.660894E+02  8.490778E+03
       452  27  4.424384E+03  5.193762E+04  1.169974E+04  4.355172E+04  6.458308E+03  1.011597E+04
       453   1  6.940465E+04  9.718960E+04  3.079238E+04  7.687770E+04 -1.632959E+04 -1.597194E+04
       453   2  8.205358E+04  6.058613E+04  4.734557E+04  4.485379E+04 -3.576951E+04 -2.838307E+04
       453   3  1.147111E+05  6.356468E+04  9.019043E+04 -4.481188E+02 -5.478474E+04 -4.135823E+04
       453   4  4.677459E+04  7.764512E+04  2.591387E+04  6.353320E+04 -1.309876E+04 -1.354496E+04
       453   5  5.157828E+04  8.419209E+04  4.742653E+04  5.030002E+04 -3.362465E+04 -2.677446E+04
       453   6  7.662356E+04  1.305532E+05  9.617391E+04  2.378815E+04 -5.372553E+04 -4.057049E+04
       453   7  2.414516E+04  5.810118E+04  2.103540E+04  5.018932E+04 -9.868071E+03 -1.111814E+04
       453   8  2.110501E+04  1.078005E+05  4.750791E+04  5.574568E+04 -3.147993E+04 -2.516566E+04
       453   9  3.854238E+04  1.975556E+05  1.021592E+05  4.802324E+04 -5.266641E+04 -3.978250E+04
       453  10  6.940430E+04  9.718925E+04  3.079139E+04  7.687749E+04  5.066486E-10  2.540134E-09
       453  11  8.205199E+04  6.058492E+04  4.734165E+04  4.485297E+04  1.135629E-10  6.563843E-10
       453  12  1.147075E+05  6.356203E+04  9.018158E+04 -4.499433E+02 -1.066515E-09 -2.894368E-10
       453  13  4.677435E+04  7.764488E+04  2.591320E+04  6.353306E+04  3.801565E-10 -2.177459E-11
       453  14  5.157687E+04  8.419102E+04  4.742306E+04  5.029930E+04  2.836620E-11 -2.183793E-10
       453  15  7.662002E+04  1.305506E+05  9.616540E+04  2.378640E+04 -3.667238E-10 -8.914737E-10
       453  16  2.414502E+04  5.810103E+04  2.103499E+04  5.018924E+04 -4.803358E-10 -2.185703E-09
       453  17  2.110378E+04  1.077995E+05  4.750486E+04  5.574504E+04  3.485931E-10 -1.721665E-09
       453  18  3.853898E+04  1.975532E+05  1.021511E+05  4.802155E+04  5.405606E-10  2.081769E-10
       453  19  6.940465E+04  9.718960E+04  3.079238E+04  7.687770E+04  1.632959E+04  1.597194E+04
       453  20  8.205358E+04  6.058613E+04  4.734557E+04  4.485379E+04  3.576951E+04  2.838307E+04
       453  21  1.147111E+05  6.356468E+04  9.019043E+04 -4.481188E+02  5.478474E+04  4.135823E+04
       453  22  4.677459E+04  7.764512E+04  2.591387E+04  6.353320E+04  1.309876E+04  1.354496E+04
       453  23  5.157828E+04  8.419209E+04  4.742653E+04  5.030002E+04  3.362465E+04  2.677446E+04
       453  24  7.662356E+04  1.305532E+05  9.617391E+04  2.378815E+04  5.372553E+04  4.057049E+04
       453  25  2.414516E+04  5.810118E+04  2.103540E+04  5.018932E+04  9.868071E+03  1.111814E+04
       453  26  2.110501E+04  1.078005E+05  4.750791E+04  5.574568E+04  3.147993E+04  2.516566E+04
       453  27  3.854238E+04  1.975556E+05  1.021592E+05  4.802324E+04  5.266641E+04  3.978250E+04
       454   1  3.254682E+05  8.267019E+04  7.582484E+04  6.114487E+04  1.610080E+04 -5.019930E+03
       454   2  2.605460E+05  7.711348E+04  5.572239E+04  6.138882E+04  3.155915E+03 -1.619283E+04
       454   3  1.956432E+05  6.493052E+04  4.239072E+04  7.389480E+04 -9.794363E+03 -1.786334E+04
       454   4 -8.620665E+04 -1.895016E+04 -2.078294E+04  7.324617E+04 -1.445840E+04 -5.045854E+03
       454   5 -8.462254E+04 -5.107314E+03 -1.031343E+04  6.710682E+04 -9.151930E+03 -1.620465E+04
       454   6 -8.619132E+04 -1.060833E+03 -5.746070E+03  7.323021E+04 -3.851921E+03 -1.785835E+04
       454   7 -4.977232E+05 -1.205815E+05 -1.173987E+05  8.533936E+04 -4.499747E+04 -5.072977E+03
       454   8 -4.296760E+05 -8.733493E+04 -7.635409E+04  7.282153E+04 -2.145309E+04 -1.621669E+04
       454   9 -3.679477E+05 -6.705639E+04 -5.388536E+04  7.256590E+04  2.087910E+03 -1.785337E+04
       454  10  3.254680E+05  8.267010E+04  7.582430E+04  6.114493E+04  2.236456E-09 -9.392204E-10
       454  11  2.605459E+05  7.711320E+04  5.572188E+04  6.138886E+04 -1.877950E-09 -8.589286E-10
       454  12  1.956431E+05  6.493015E+04  4.238994E+04  7.389466E+04 -4.652699E-09 -2.424444E-10
       454  13 -8.620688E+04 -1.895024E+04 -2.078339E+04  7.324611E+04  2.652218E-10  1.135956E-09
       454  14 -8.462270E+04 -5.107618E+03 -1.031408E+04  6.710670E+04  1.138962E-10 -6.574355E-10
       454  15 -8.619143E+04 -1.061179E+03 -5.746697E+03  7.323015E+04 -1.499193E-11 -3.568642E-10
       454  16 -4.977254E+05 -1.205821E+05 -1.174026E+05  8.533917E+04 -2.686539E-09  3.615739E-10
       454  17 -4.296766E+05 -8.733533E+04 -7.635545E+04  7.282125E+04  1.356951E-09 -6.731591E-10
       454  18 -3.679478E+05 -6.705674E+04 -5.388597E+04  7.256593E+04  4.512018E-09 -3.612968E-10
       454  19  3.254682E+05  8.267019E+04  7.582484E+04  6.114487E+04 -1.610080E+04  5.019930E+03
       454  20  2.605460E+05  7.711348E+04  5.572239E+04  6.138882E+04 -3.155915E+03  1.619283E+04
       454  21  1.956432E+05  6.493052E+04  4.239072E+04  7.389480E+04  9.794363E+03  1.786334E+04
       454  22 -8.620665E+04 -1.895016E+04 -2.078294E+04  7.324617E+04  1.445840E+04  5.045854E+03
       454  23 -8.462254E+04 -5.107314E+03 -1.031343E+04  6.710682E+04  9.151930E+03  1.620465E+04
       454  24 -8.619132E+04 -1.060833E+03 -5.746070E+03  7.323021E+04  3.851921E+03  1.785835E+04
       454  25 -4.977232E+05 -1.205815E+05 -1.173987E+05  8.533936E+04  4.499747E+04  5.072977E+03
       454  26 -4.296760E+05 -8.733493E+04 -7.635409E+04  7.282153E+04  2.145309E+04  1.621669E+04
       454  27 -3.679477E+05 -6.705639E+04 -5.388536E+04  7.256590E+04 -2.087910E+03  1.785337E+04
       455   1  1.544917E+05  5.510751E+04  3.587285E+04  7.300421E+04 -8.574388E+03 -1.576968E+04
       455   2  8.967773E+04  4.054863E+04  2.551166E+04  6.682427E+04 -9.040517E+03 -1.244539E+04
       455   3  2.481828E+04  2.565082E+04  1.536232E+04  7.355427E+04 -9.507862E+03 -8.175848E+03
       455   4 -8.556774E+04 -9.630493E+02 -4.437679E+03  7.337562E+04 -3.096487E+03 -1.576484E+04
       455   5 -8.538151E+04 -1.063199E+02 -2.707582E+03  6.691998E+04 -1.748153E+03 -1.243837E+04
       455   6 -8.556007E+04  9.652870E+01 -2.025965E+03  7.337456E+04 -4.010807E+02 -8.166488E+03
       455   7 -3.255703E+05 -5.703661E+04 -4.474991E+04  7.374686E+04  2.379365E+03 -1.576000E+04
       455   8 -2.604102E+05 -4.076279E+04 -3.092746E+04  6.701566E+04  5.542228E+03 -1.243133E+04
       455   9 -1.959261E+05 -2.545833E+04 -1.941424E+04  7.319488E+04  8.704142E+03 -8.157133E+03
       455  10  1.544916E+05  5.510722E+04  3.587225E+04  7.300411E+04 -2.721757E-09  2.068733E-09
       455  11  8.967760E+04  4.054844E+04  2.551122E+04  6.682418E+04 -3.844461E-09  1.370457E-09
       455  12  2.481816E+04  2.565073E+04  1.536202E+04  7.355421E+04 -3.736129E-09  1.002007E-09
       455  13 -8.556781E+04 -9.633187E+02 -4.438164E+03  7.337558E+04  3.312295E-10  6.132134E-10
       455  14 -8.538155E+04 -1.064868E+02 -2.707879E+03  6.691997E+04  2.404010E-10  1.326110E-09
       455  15 -8.556009E+04  9.645704E+01 -2.026091E+03  7.337456E+04  1.284091E-10  7.708269E-10
       455  16 -3.255704E+05 -5.703688E+04 -4.475039E+04  7.374689E+04  2.445630E-09  1.920788E-09
       455  17 -2.604103E+05 -4.076296E+04 -3.092781E+04  6.701571E+04  3.688331E-09 -1.292072E-09
       455  18 -1.959262E+05 -2.545842E+04 -1.941451E+04  7.319493E+04  3.944363E-09 -8.494982E-11
       455  19  1.544917E+05  5.510751E+04  3.587285E+04  7.300421E+04  8.574388E+03  1.576968E+04
       455  20  8.967773E+04  4.054863E+04  2.551166E+04  6.682427E+04  9.040517E+03  1.244539E+04
       455  21  2.481828E+04  2.565082E+04  1.536232E+04  7.355427E+04  9.507862E+03  8.175848E+03
       455  22 -8.556774E+04 -9.630493E+02 -4.437679E+03  7.337562E+04  3.096487E+03  1.576484E+04
       455  23 -8.538151E+04 -1.063199E+02 -2.707582E+03  6.691998E+04  1.748153E+03  1.243837E+04
       455  24 -8.556007E+04  9.652870E+01 -2.025965E+03  7.337456E+04  4.010807E+02  8.166488E+03
       455  25 -3.255703E+05 -5.703661E+04 -4.474991E+04  7.374686E+04 -2.379365E+03  1.576000E+04
       455  26 -2.604102E+05 -4.076279E+04 -3.092746E+04  6.701566E+04 -5.542228E+03  1.243133E+04
       455  27 -1.959261E+05 -2.545833E+04 -1.941424E+04  7.319488E+04 -8.704142E+03  8.157133E+03
       456   1 -1.648093E+04  1.602723E+04  8.639195E+03  7.338346E+04 -9.147525E+03 -5.357825E+03
       456   2 -8.108291E+04  8.340278E+02 -2.239137E+03  6.709794E+04 -7.106104E+03 -8.641819E+02
       456   3 -1.461390E+05 -1.501388E+04 -1.461879E+04  7.375188E+04 -5.064518E+03  3.147534E+03
       456   4 -8.554393E+04  9.763352E+01 -1.942414E+03  7.338109E+04 -6.151532E+01 -5.348332E+03
       456   5 -8.539460E+04 -3.029126E+01 -2.246411E+03  6.691173E+04  1.054150E+03 -8.556397E+02
       456   6 -8.554378E+04 -6.522921E+02 -3.409251E+03  7.338185E+04  2.170195E+03  3.155126E+03
       456   7 -1.546020E+05 -1.583215E+04 -1.252382E+04  7.337872E+04  9.023522E+03 -5.338839E+03
       456   8 -8.970614E+04 -8.945745E+02 -2.253433E+03  6.672553E+04  9.214353E+03 -8.471024E+02
       456   9 -2.494493E+04  1.370912E+04  7.800337E+03  7.301178E+04  9.405596E+03  3.162710E+03
       456  10 -1.648103E+04  1.602718E+04  8.638984E+03  7.338342E+04 -5.219206E-08  1.091026E-09
       456  11 -8.108296E+04  8.340134E+02 -2.239233E+03  6.709793E+04 -2.138092E-08 -2.629336E-09
       456  12 -1.461390E+05 -1.501390E+04 -1.461886E+04  7.375189E+04  1.383469E-08 -1.590990E-09
       456  13 -8.554394E+04  9.760280E+01 -1.942468E+03  7.338109E+04  6.248757E-10 -2.712752E-10
       456  14 -8.539461E+04 -3.029235E+01 -2.246414E+03  6.691173E+04  2.266376E-10 -1.278700E-09
       456  15 -8.554379E+04 -6.523040E+02 -3.409278E+03  7.338184E+04 -8.961789E-11 -3.930098E-09
       456  16 -1.546021E+05 -1.583220E+04 -1.252402E+04  7.337876E+04  5.187623E-08 -1.483557E-10
       456  17 -8.970623E+04 -8.945981E+02 -2.253593E+03  6.672553E+04  2.114980E-08 -2.197297E-09
       456  18 -2.494503E+04  1.370908E+04  7.800152E+03  7.301175E+04 -1.376675E-08 -5.093802E-09
       456  19 -1.648093E+04  1.602723E+04  8.639195E+03  7.338346E+04  9.147525E+03  5.357825E+03
       456  20 -8.108291E+04  8.340278E+02 -2.239137E+03  6.709794E+04  7.106104E+03  8.641819E+02
       456  21 -1.461390E+05 -1.501388E+04 -1.461879E+04  7.375188E+04  5.064518E+03 -3.147534E+03
       456  22 -8.554393E+04  9.763352E+01 -1.942414E+03  7.338109E+04  6.151532E+01  5.348332E+03
       456  23 -8.539460E+04 -3.029126E+01 -2.246411E+03  6.691173E+04 -1.054150E+03  8.556397E+02
       456  24 -8.554378E+04 -6.522921E+02 -3.409251E+03  7.338185E+04 -2.170195E+03 -3.155126E+03
       456  25 -1.546020E+05 -1.583215E+04 -1.252382E+04  7.337872E+04 -9.023522E+03  5.338839E+03
       456  26 -8.970614E+04 -8.945745E+02 -2.253433E+03  6.672553E+04 -9.214353E+03  8.471024E+02
       456  27 -2.494493E+04  1.370912E+04  7.800337E+03  7.301178E+04 -9.405596E+03 -3.162710E+03
       457   1 -1.881360E+05 -2.486218E+04 -2.287310E+04  7.288651E+04 -4.754588E+03  5.596206E+03
       457   2 -2.509106E+05 -4.354079E+04 -4.075216E+04  7.128818E+04  9.815954E+03  6.746258E+03
       457   3 -3.178729E+05 -7.128721E+04 -7.039281E+04  8.225606E+04  2.438982E+04  2.349832E+03
       457   4 -8.599884E+04 -7.231629E+02 -4.336004E+03  7.329764E+04  2.747542E+03  5.603963E+03
       457   5 -8.483228E+04 -3.707833E+03 -7.646639E+03  6.702088E+04  6.672737E+03  6.742859E+03
       457   6 -8.600648E+04 -1.390995E+04 -1.532352E+04  7.331055E+04  1.060270E+04  2.335740E+03
       457   7  1.614857E+04  2.341530E+04  1.420089E+04  7.370884E+04  1.025087E+04  5.611728E+03
       457   8  8.127249E+04  3.612351E+04  2.545755E+04  6.275242E+04  3.528695E+03  6.739503E+03
       457   9  1.459099E+05  4.346385E+04  3.974277E+04  6.436167E+04 -3.189543E+03  2.322048E+03
       457  10 -1.881360E+05 -2.486222E+04 -2.287321E+04  7.288653E+04  4.892207E-08 -6.560940E-10
       457  11 -2.509108E+05 -4.354086E+04 -4.075243E+04  7.128813E+04  2.022511E-08 -5.703390E-10
       457  12 -3.178735E+05 -7.128737E+04 -7.039394E+04  8.225601E+04 -9.171625E-09 -3.088154E-10
       457  13 -8.599886E+04 -7.231986E+02 -4.336077E+03  7.329763E+04  5.562311E-10 -8.124134E-11
       457  14 -8.483234E+04 -3.707894E+03 -7.646808E+03  6.702085E+04  6.387370E-10 -2.273644E-09
       457  15 -8.600660E+04 -1.390998E+04 -1.532374E+04  7.331053E+04  1.026483E-10  1.070074E-09
       457  16  1.614845E+04  2.341524E+04  1.420064E+04  7.370879E+04 -4.927078E-08 -1.836070E-09
       457  17  8.127247E+04  3.612346E+04  2.545744E+04  6.275240E+04 -2.061098E-08  1.531671E-10
       457  18  1.459099E+05  4.346384E+04  3.974274E+04  6.436168E+04  9.154100E-09 -1.923319E-10
       457  19 -1.881360E+05 -2.486218E+04 -2.287310E+04  7.288651E+04  4.754588E+03 -5.596206E+03
       457  20 -2.509106E+05 -4.354079E+04 -4.075216E+04  7.128818E+04 -9.815954E+03 -6.746258E+03
       457  21 -3.178729E+05 -7.128721E+04 -7.039281E+04  8.225606E+04 -2.438982E+04 -2.349832E+03
       457  22 -8.599884E+04 -7.231629E+02 -4.336004E+03  7.329764E+04 -2.747542E+03 -5.603963E+03
       457  23 -8.483228E+04 -3.707833E+03 -7.646639E+03  6.702088E+04 -6.672737E+03 -6.742859E+03
       457  24 -8.600648E+04 -1.390995E+04 -1.532352E+04  7.331055E+04 -1.060270E+04 -2.335740E+03
       457  25  1.614857E+04  2.341530E+04  1.420089E+04  7.370884E+04 -1.025087E+04 -5.611728E+03
       457  26  8.127249E+04  3.612351E+04  2.545755E+04  6.275242E+04 -3.528695E+03 -6.739503E+03
       457  27  1.459099E+05  4.346385E+04  3.974277E+04  6.436167E+04  3.189543E+03 -2.322048E+03
       458   1 -1.394840E+05 -5.722097E+05 -1.358723E+05  1.585642E+05 -4.954572E+03 -4.573094E+04
       458   2 -9.007337E+04 -4.399157E+05 -7.930631E+04  1.394648E+05 -1.468130E+04 -1.892285E+04
       458   3 -5.450374E+04 -3.145078E+05 -4.366070E+04  1.452746E+05 -1.297176E+04  7.900011E+03
       458   4 -1.979470E+04 -8.873335E+04 -2.117165E+04  1.458216E+05 -4.966886E+03 -1.612488E+04
       458   5 -5.525682E+03 -8.717385E+04 -9.452591E+03  1.333710E+05 -1.468359E+04 -1.125433E+04
       458   6 -1.281849E+03 -8.870269E+04 -3.407428E+03  1.458303E+05 -1.296644E+04 -6.375239E+03
       458   7  9.987886E+04  3.949600E+05  9.351609E+04  1.330690E+05 -4.980413E+03  1.350414E+04
       458   8  7.901460E+04  2.656873E+05  6.039523E+04  1.272736E+05 -1.468602E+04 -3.581541E+03
       458   9  5.193733E+04  1.371526E+05  3.684468E+04  1.463861E+05 -1.296114E+04 -2.065553E+04
       458  10 -1.394846E+05 -5.722119E+05 -1.358763E+05  1.585640E+05  1.500863E-10 -5.741449E-11
       458  11 -9.007370E+04 -4.399161E+05 -7.930739E+04  1.394645E+05  2.006076E-10  1.853644E-09
       458  12 -5.450393E+04 -3.145079E+05 -4.366113E+04  1.452747E+05  1.785045E-10  5.082424E-10
       458  13 -1.979480E+04 -8.873364E+04 -2.117219E+04  1.458215E+05  4.631872E-10 -1.487893E-09
       458  14 -5.525948E+03 -8.717405E+04 -9.453234E+03  1.333708E+05 -2.375873E-10  1.014492E-09
       458  15 -1.282040E+03 -8.870278E+04 -3.407821E+03  1.458302E+05  2.377458E-10 -1.733042E-10
       458  16  9.987878E+04  3.949598E+05  9.351570E+04  1.330690E+05  8.304865E-11 -7.520444E-10
       458  17  7.901436E+04  2.656872E+05  6.039480E+04  1.272736E+05  3.315642E-10 -3.458222E-10
       458  18  5.193703E+04  1.371521E+05  3.684356E+04  1.463859E+05  3.947204E-10 -1.324071E-09
       458  19 -1.394840E+05 -5.722097E+05 -1.358723E+05  1.585642E+05  4.954572E+03  4.573094E+04
       458  20 -9.007337E+04 -4.399157E+05 -7.930631E+04  1.394648E+05  1.468130E+04  1.892285E+04
       458  21 -5.450374E+04 -3.145078E+05 -4.366070E+04  1.452746E+05  1.297176E+04 -7.900011E+03
       458  22 -1.979470E+04 -8.873335E+04 -2.117165E+04  1.458216E+05  4.966886E+03  1.612488E+04
       458  23 -5.525682E+03 -8.717385E+04 -9.452591E+03  1.333710E+05  1.468359E+04  1.125433E+04
       458  24 -1.281849E+03 -8.870269E+04 -3.407428E+03  1.458303E+05  1.296644E+04  6.375239E+03
       458  25  9.987886E+04  3.949600E+05  9.351609E+04  1.330690E+05  4.980413E+03 -1.350414E+04
       458  26  7.901460E+04  2.656873E+05  6.039523E+04  1.272736E+05  1.468602E+04  3.581541E+03
       458  27  5.193733E+04  1.371526E+05  3.684468E+04  1.463861E+05  1.296114E+04  2.065553E+04
       459   1 -3.493848E+04 -2.310882E+05 -2.664400E+04  1.462296E+05 -8.239503E+03  7.657667E+03
       459   2 -3.092943E+03 -1.025233E+05  1.153493E+03  1.338666E+05 -1.034994E+03  6.062900E+03
       459   3  2.968960E+04  2.653987E+04  3.023241E+04  1.471360E+05  6.236251E+03  4.467785E+03
       459   4 -1.193408E+03 -8.789851E+04 -1.136127E+03  1.459894E+05 -8.234851E+03 -6.107258E+03
       459   5  2.431129E+02 -8.815024E+04  3.456144E+03  1.331740E+05 -1.030358E+03 -7.831132E+03
       459   6  2.640038E+03 -8.789691E+04  9.420017E+03  1.459909E+05  6.240848E+03 -9.555046E+03
       459   7  3.255063E+04  5.531157E+04  2.437168E+04  1.457492E+05 -8.230190E+03 -1.987527E+04
       459   8  3.579264E+03 -7.377660E+04  5.759516E+03  1.324814E+05 -1.025691E+03 -2.172548E+04
       459   9 -2.441015E+04 -2.023205E+05 -1.139216E+04  1.448460E+05  6.245498E+03 -2.357536E+04
       459  10 -3.493857E+04 -2.310882E+05 -2.664423E+04  1.462296E+05 -5.231701E-11  6.397970E-10
       459  11 -3.092954E+03 -1.025233E+05  1.153422E+03  1.338666E+05  4.730134E-11  1.712207E-09
       459  12  2.968955E+04  2.653984E+04  3.023230E+04  1.471359E+05 -7.433109E-10 -3.745835E-10
       459  13 -1.193491E+03 -8.789857E+04 -1.136324E+03  1.459894E+05  2.337776E-10 -1.093883E-09
       459  14  2.430953E+02 -8.815031E+04  3.456027E+03  1.331740E+05 -9.510884E-10  5.743013E-10
       459  15  2.639972E+03 -8.789701E+04  9.419772E+03  1.459909E+05 -1.856488E-10 -5.443489E-10
       459  16  3.255045E+04  5.531113E+04  2.437081E+04  1.457490E+05  5.093830E-10 -9.845569E-10
       459  17  3.579136E+03 -7.377710E+04  5.758627E+03  1.324814E+05 -1.311453E-10 -1.886278E-10
       459  18 -2.441034E+04 -2.023211E+05 -1.139328E+04  1.448461E+05 -5.231040E-10 -4.994832E-10
       459  19 -3.493848E+04 -2.310882E+05 -2.664400E+04  1.462296E+05  8.239503E+03 -7.657667E+03
       459  20 -3.092943E+03 -1.025233E+05  1.153493E+03  1.338666E+05  1.034994E+03 -6.062900E+03
       459  21  2.968960E+04  2.653987E+04  3.023241E+04  1.471360E+05 -6.236251E+03 -4.467785E+03
       459  22 -1.193408E+03 -8.789851E+04 -1.136127E+03  1.459894E+05  8.234851E+03  6.107258E+03
       459  23  2.431129E+02 -8.815024E+04  3.456144E+03  1.331740E+05  1.030358E+03  7.831132E+03
       459  24  2.640038E+03 -8.789691E+04  9.420017E+03  1.459909E+05 -6.240848E+03  9.555046E+03
       459  25  3.255063E+04  5.531157E+04  2.437168E+04  1.457492E+05  8.230190E+03  1.987527E+04
       459  26  3.579264E+03 -7.377660E+04  5.759516E+03  1.324814E+05  1.025691E+03  2.172548E+04
       459  27 -2.441015E+04 -2.023205E+05 -1.139216E+04  1.448460E+05 -6.245498E+03  2.357536E+04
       460   1  4.936218E+04  1.108110E+05  4.875522E+04  1.444853E+05  1.101906E+04  3.297442E+03
       460   2  9.086390E+04  2.339172E+05  9.021013E+04  1.483290E+05  1.318729E+04 -3.060579E+04
       460   3  1.609640E+05  3.686481E+05  1.608923E+05  1.771516E+05  4.565252E+03 -6.452387E+04
       460   4  2.856359E+03 -8.623169E+04  1.327097E+04  1.458421E+05  1.102425E+04 -1.120073E+04
       460   5  1.313908E+04 -9.025455E+04  2.564957E+04  1.333645E+05  1.318610E+04 -2.437767E+04
       460   6  4.843172E+04 -8.625706E+04  5.287002E+04  1.458633E+05  4.556887E+03 -3.756223E+04
       460   7 -4.365151E+04 -2.832361E+05 -2.221401E+04  1.471985E+05  1.102937E+04 -2.569443E+04
       460   8 -6.459131E+04 -4.143254E+05 -3.891598E+04  1.184080E+05  1.318462E+04 -1.815273E+04
       460   9 -6.411136E+04 -5.409686E+05 -5.516347E+04  1.145981E+05  4.545805E+03 -1.062023E+04
       460  10  4.936205E+04  1.108110E+05  4.875497E+04  1.444853E+05 -6.842064E-10  1.077935E-09
       460  11  9.086346E+04  2.339162E+05  9.020805E+04  1.483294E+05 -4.638780E-10  2.036237E-09
       460  12  1.609629E+05  3.686437E+05  1.608845E+05  1.771518E+05 -3.518126E-10 -2.358631E-11
       460  13  2.856195E+03 -8.623185E+04  1.327050E+04  1.458422E+05 -1.172194E-09 -9.912734E-10
       460  14  1.313873E+04 -9.025524E+04  2.564813E+04  1.333648E+05 -6.034914E-10  1.404999E-09
       460  15  4.843132E+04 -8.625858E+04  5.286733E+04  1.458634E+05 -1.328711E-10  2.865354E-11
       460  16 -4.365182E+04 -2.832369E+05 -2.221548E+04  1.471987E+05 -6.144705E-10 -1.689532E-09
       460  17 -6.459158E+04 -4.143258E+05 -3.891692E+04  1.184082E+05  1.205558E-10 -4.315514E-10
       460  18 -6.411141E+04 -5.409688E+05 -5.516372E+04  1.145981E+05 -7.532199E-11 -8.031965E-10
       460  19  4.936218E+04  1.108110E+05  4.875522E+04  1.444853E+05 -1.101906E+04 -3.297442E+03
       460  20  9.086390E+04  2.339172E+05  9.021013E+04  1.483290E+05 -1.318729E+04  3.060579E+04
       460  21  1.609640E+05  3.686481E+05  1.608923E+05  1.771516E+05 -4.565252E+03  6.452387E+04
       460  22  2.856359E+03 -8.623169E+04  1.327097E+04  1.458421E+05 -1.102425E+04  1.120073E+04
       460  23  1.313908E+04 -9.025455E+04  2.564957E+04  1.333645E+05 -1.318610E+04  2.437767E+04
       460  24  4.843172E+04 -8.625706E+04  5.287002E+04  1.458633E+05 -4.556887E+03  3.756223E+04
       460  25 -4.365151E+04 -2.832361E+05 -2.221401E+04  1.471985E+05 -1.102937E+04  2.569443E+04
       460  26 -6.459131E+04 -4.143254E+05 -3.891598E+04  1.184080E+05 -1.318462E+04  1.815273E+04
       460  27 -6.411136E+04 -5.409686E+05 -5.516347E+04  1.145981E+05 -4.545805E+03  1.062023E+04
       461   1  2.407909E+05  2.343647E+05  8.379501E+04  1.606284E+05  3.747617E+04  2.527775E+04
       461   2  2.315046E+05  1.916176E+05  5.100096E+04  1.646669E+05  2.585454E+04  9.736500E+03
       461   3  2.330765E+05  1.683294E+05  3.590708E+04  1.625023E+05  1.194878E+04 -2.761936E+03
       461   4  1.433431E+05  1.214673E+05  4.449630E+04  9.219270E+04  2.618949E+04  1.679706E+04
       461   5  1.316429E+05  1.001348E+05  2.203607E+04  1.044897E+05  2.041195E+04  5.647130E+03
       461   6  1.295344E+05  9.699383E+04  1.220356E+04  1.105829E+05  1.234982E+04 -2.460888E+03
       461   7  4.590870E+04  8.589947E+03  5.197673E+03  2.377361E+04  1.490537E+04  8.319785E+03
       461   8  3.179401E+04  8.664239E+03 -6.929175E+03  4.432566E+04  1.497057E+04  1.559018E+03
       461   9  2.600495E+04  2.566461E+04 -1.150055E+04  5.867352E+04  1.275077E+04 -2.159905E+03
       461  10  2.407892E+05  2.343636E+05  8.379117E+04  1.606277E+05  2.131995E-08  1.618066E-08
       461  11  2.315038E+05  1.916173E+05  5.099952E+04  1.646667E+05  6.626592E-09  6.079105E-09
       461  12  2.330763E+05  1.683293E+05  3.590679E+04  1.625023E+05 -1.705453E-08 -1.310790E-08
       461  13  1.433423E+05  1.214668E+05  4.449448E+04  9.219235E+04  2.971332E-09  2.553512E-09
       461  14  1.316424E+05  1.001347E+05  2.203522E+04  1.044896E+05  7.421380E-09  8.383002E-09
       461  15  1.295342E+05  9.699379E+04  1.220326E+04  1.105829E+05  2.798288E-09  3.669212E-09
       461  16  4.590844E+04  8.589813E+03  5.197125E+03  2.377351E+04 -1.554684E-08 -1.126781E-08
       461  17  3.179377E+04  8.664176E+03 -6.929601E+03  4.432564E+04  8.184095E-09  7.633286E-09
       461  18  2.600478E+04  2.566456E+04 -1.150086E+04  5.867354E+04  2.257968E-08  1.799620E-08
       461  19  2.407909E+05  2.343647E+05  8.379501E+04  1.606284E+05 -3.747617E+04 -2.527775E+04
       461  20  2.315046E+05  1.916176E+05  5.100096E+04  1.646669E+05 -2.585454E+04 -9.736500E+03
       461  21  2.330765E+05  1.683294E+05  3.590708E+04  1.625023E+05 -1.194878E+04  2.761936E+03
       461  22  1.433431E+05  1.214673E+05  4.449630E+04  9.219270E+04 -2.618949E+04 -1.679706E+04
       461  23  1.316429E+05  1.001348E+05  2.203607E+04  1.044897E+05 -2.041195E+04 -5.647130E+03
       461  24  1.295344E+05  9.699383E+04  1.220356E+04  1.105829E+05 -1.234982E+04  2.460888E+03
       461  25  4.590870E+04  8.589947E+03  5.197673E+03  2.377361E+04 -1.490537E+04 -8.319785E+03
       461  26  3.179401E+04  8.664239E+03 -6.929175E+03  4.432566E+04 -1.497057E+04 -1.559018E+03
       461  27  2.600495E+04  2.566461E+04 -1.150055E+04  5.867352E+04 -1.275077E+04  2.159905E+03
       462   1  2.236507E+05  1.653297E+05  3.120867E+04  1.593803E+05  1.065581E+04 -3.397970E+03
       462   2  2.148468E+05  1.551300E+05  2.446626E+04  1.546391E+05  7.607911E+03 -5.230101E+03
       462   3  2.045792E+05  1.487707E+05  2.040924E+04  1.503088E+05  4.318063E+03 -6.740238E+03
       462   4  1.285530E+05  9.644155E+04  9.361122E+03  1.100503E+05  1.090783E+04 -3.208873E+03
       462   5  1.289334E+05  9.384721E+04  5.536474E+03  1.104019E+05  8.478857E+03 -4.575964E+03
       462   6  1.277162E+05  9.495898E+04  3.860184E+03  1.111643E+05  5.807908E+03 -5.621045E+03
       462   7  3.346397E+04  2.755798E+04 -1.248761E+04  6.072816E+04  1.115981E+04 -3.019811E+03
       462   8  4.302870E+04  3.256922E+04 -1.339366E+04  6.617184E+04  9.349643E+03 -3.921951E+03
       462   9  5.086185E+04  4.115212E+04 -1.268858E+04  7.202618E+04  7.297479E+03 -4.502058E+03
       462  10  2.236506E+05  1.653296E+05  3.120843E+04  1.593803E+05 -3.272429E-09 -2.970459E-09
       462  11  2.148467E+05  1.551299E+05  2.446610E+04  1.546392E+05  5.961287E-09  2.854828E-09
       462  12  2.045792E+05  1.487706E+05  2.040912E+04  1.503088E+05  1.951571E-08  1.617326E-08
       462  13  1.285529E+05  9.644151E+04  9.360879E+03  1.100503E+05 -7.774639E-10 -2.232009E-09
       462  14  1.289333E+05  9.384716E+04  5.536300E+03  1.104019E+05  1.726184E-10  1.294676E-10
       462  15  1.277162E+05  9.495894E+04  3.860061E+03  1.111643E+05  5.298153E-09  2.843463E-09
       462  16  3.346383E+04  2.755794E+04 -1.248786E+04  6.072819E+04  2.250243E-09  2.189185E-09
       462  17  4.302860E+04  3.256918E+04 -1.339386E+04  6.617187E+04 -5.582441E-09 -6.629129E-09
       462  18  5.086179E+04  4.115208E+04 -1.268872E+04  7.202621E+04 -9.235333E-09 -7.970317E-09
       462  19  2.236507E+05  1.653297E+05  3.120867E+04  1.593803E+05 -1.065581E+04  3.397970E+03
       462  20  2.148468E+05  1.551300E+05  2.446626E+04  1.546391E+05 -7.607911E+03  5.230101E+03
       462  21  2.045792E+05  1.487707E+05  2.040924E+04  1.503088E+05 -4.318063E+03  6.740238E+03
       462  22  1.285530E+05  9.644155E+04  9.361122E+03  1.100503E+05 -1.090783E+04  3.208873E+03
       462  23  1.289334E+05  9.384721E+04  5.536474E+03  1.104019E+05 -8.478857E+03  4.575964E+03
       462  24  1.277162E+05  9.495898E+04  3.860184E+03  1.111643E+05 -5.807908E+03  5.621045E+03
       462  25  3.346397E+04  2.755798E+04 -1.248761E+04  6.072816E+04 -1.115981E+04  3.019811E+03
       462  26  4.302870E+04  3.256922E+04 -1.339366E+04  6.617184E+04 -9.349643E+03  3.921951E+03
       462  27  5.086185E+04  4.115212E+04 -1.268858E+04  7.202618E+04 -7.297479E+03  4.502058E+03
       463   1  1.981055E+05  1.445889E+05  1.865307E+04  1.471761E+05  3.470506E+03 -6.655445E+03
       463   2  1.895226E+05  1.363844E+05  1.665103E+04  1.418234E+05  1.370692E+03 -7.006749E+03
       463   3  1.786623E+05  1.310549E+05  1.594929E+04  1.372365E+05 -7.540207E+02 -7.324965E+03
       463   4  1.276522E+05  9.493020E+04  3.523590E+03  1.111245E+05  4.944324E+03 -5.548252E+03
       463   5  1.288149E+05  9.352921E+04  3.653766E+03  1.107197E+05  2.908258E+03 -5.851591E+03
       463   6  1.276861E+05  9.498948E+04  5.028968E+03  1.110807E+05  8.472445E+02 -6.121868E+03
       463   7  5.720474E+04  4.527458E+04 -1.160612E+04  7.507775E+04  6.417921E+03 -4.441226E+03
       463   8  6.811084E+04  5.067590E+04 -9.343875E+03  7.961932E+04  4.445641E+03 -4.696571E+03
       463   9  7.671187E+04  5.892498E+04 -5.891828E+03  8.492693E+04  2.448368E+03 -4.918879E+03
       463  10  1.981055E+05  1.445889E+05  1.865297E+04  1.471761E+05 -9.701421E-09 -6.872114E-09
       463  11  1.895226E+05  1.363843E+05  1.665093E+04  1.418234E+05 -4.187952E-09 -5.881371E-09
       463  12  1.786623E+05  1.310548E+05  1.594919E+04  1.372365E+05  5.518946E-09  2.170240E-09
       463  13  1.276522E+05  9.493016E+04  3.523486E+03  1.111246E+05  5.611776E-09  3.940472E-09
       463  14  1.288148E+05  9.352917E+04  3.653686E+03  1.107197E+05 -4.591499E-10  1.040849E-10
       463  15  1.276861E+05  9.498944E+04  5.028896E+03  1.110807E+05  5.736906E-10 -3.137224E-09
       463  16  5.720469E+04  4.527455E+04 -1.160623E+04  7.507778E+04  2.030394E-08  1.640411E-08
       463  17  6.811081E+04  5.067587E+04 -9.343953E+03  7.961933E+04  4.390253E-09  4.045174E-09
       463  18  7.671186E+04  5.892495E+04 -5.891885E+03  8.492694E+04 -5.325658E-09 -7.660328E-09
       463  19  1.981055E+05  1.445889E+05  1.865307E+04  1.471761E+05 -3.470506E+03  6.655445E+03
       463  20  1.895226E+05  1.363844E+05  1.665103E+04  1.418234E+05 -1.370692E+03  7.006749E+03
       463  21  1.786623E+05  1.310549E+05  1.594929E+04  1.372365E+05  7.540207E+02  7.324965E+03
       463  22  1.276522E+05  9.493020E+04  3.523590E+03  1.111245E+05 -4.944324E+03  5.548252E+03
       463  23  1.288149E+05  9.352921E+04  3.653766E+03  1.107197E+05 -2.908258E+03  5.851591E+03
       463  24  1.276861E+05  9.498948E+04  5.028968E+03  1.110807E+05 -8.472445E+02  6.121868E+03
       463  25  5.720474E+04  4.527458E+04 -1.160612E+04  7.507775E+04 -6.417921E+03  4.441226E+03
       463  26  6.811084E+04  5.067590E+04 -9.343875E+03  7.961932E+04 -4.445641E+03  4.696571E+03
       463  27  7.671187E+04  5.892498E+04 -5.891828E+03  8.492693E+04 -2.448368E+03  4.918879E+03
       464   1  1.722672E+05  1.271622E+05  1.580174E+04  1.343172E+05 -1.900651E+03 -7.425358E+03
       464   2  1.651044E+05  1.180489E+05  1.790568E+04  1.278092E+05 -6.675135E+03 -9.713362E+03
       464   3  1.572757E+05  1.138407E+05  2.410136E+04  1.213474E+05 -1.144605E+04 -1.200585E+04
       464   4  1.278362E+05  9.506998E+04  6.254243E+03  1.112014E+05 -3.007967E+02 -6.223284E+03
       464   5  1.290208E+05  9.412648E+04  1.041401E+04  1.100438E+05 -5.083863E+03 -8.517734E+03
       464   6  1.295411E+05  9.808980E+04  1.867299E+04  1.089324E+05 -9.863469E+03 -1.081678E+04
       464   7  8.340861E+04  6.297974E+04 -3.292994E+03  8.808808E+04  1.298873E+03 -5.021354E+03
       464   8  9.293923E+04  7.020505E+04  2.922434E+03  9.227991E+04 -3.492731E+03 -7.322205E+03
       464   9  1.018075E+05  8.233918E+04  1.324462E+04  9.651788E+04 -8.280987E+03 -9.627756E+03
       464  10  1.722672E+05  1.271622E+05  1.580163E+04  1.343172E+05  2.046136E-08  1.536322E-08
       464  11  1.651043E+05  1.180488E+05  1.790542E+04  1.278091E+05  6.092520E-09  4.913555E-09
       464  12  1.572755E+05  1.138405E+05  2.410084E+04  1.213473E+05 -1.778711E-08 -1.200945E-08
       464  13  1.278362E+05  9.506993E+04  6.254170E+03  1.112014E+05  4.474055E-09  8.004882E-10
       464  14  1.290208E+05  9.412640E+04  1.041382E+04  1.100438E+05  7.943475E-09  4.717336E-09
       464  15  1.295410E+05  9.808965E+04  1.867259E+04  1.089323E+05  2.882892E-09  3.435098E-09
       464  16  8.340860E+04  6.297971E+04 -3.293044E+03  8.808808E+04 -1.255181E-08 -1.292052E-08
       464  17  9.293920E+04  7.020499E+04  2.922310E+03  9.227989E+04  9.696547E-09  7.004803E-09
       464  18  1.018074E+05  8.233907E+04  1.324432E+04  9.651782E+04  2.220133E-08  1.877274E-08
       464  19  1.722672E+05  1.271622E+05  1.580174E+04  1.343172E+05  1.900651E+03  7.425358E+03
       464  20  1.651044E+05  1.180489E+05  1.790568E+04  1.278092E+05  6.675135E+03  9.713362E+03
       464  21  1.572757E+05  1.138407E+05  2.410136E+04  1.213474E+05  1.144605E+04  1.200585E+04
       464  22  1.278362E+05  9.506998E+04  6.254243E+03  1.112014E+05  3.007967E+02  6.223284E+03
       464  23  1.290208E+05  9.412648E+04  1.041401E+04  1.100438E+05  5.083863E+03  8.517734E+03
       464  24  1.295411E+05  9.808980E+04  1.867299E+04  1.089324E+05  9.863469E+03  1.081678E+04
       464  25  8.340861E+04  6.297974E+04 -3.292994E+03  8.808808E+04 -1.298873E+03  5.021354E+03
       464  26  9.293923E+04  7.020505E+04  2.922434E+03  9.227991E+04  3.492731E+03  7.322205E+03
       464  27  1.018075E+05  8.233918E+04  1.324462E+04  9.651788E+04  8.280987E+03  9.627756E+03
       465   1  1.487711E+05  1.149769E+05  2.869219E+04  1.205600E+05 -1.437306E+04 -1.344978E+04
       465   2  1.694126E+05  8.859377E+04  4.694159E+04  9.559527E+04 -3.330167E+04 -2.643825E+04
       465   3  2.118411E+05  9.731885E+04  9.090251E+04  5.727720E+04 -5.217458E+04 -3.950062E+04
       465   4  1.314485E+05  9.933725E+04  2.464302E+04  1.100659E+05 -1.278713E+04 -1.225802E+04
       465   5  1.347000E+05  1.068504E+05  4.501008E+04  9.789241E+04 -3.185972E+04 -2.535697E+04
       465   6  1.597676E+05  1.495012E+05  9.121423E+04  7.236589E+04 -5.087553E+04 -3.853162E+04
       465   7  1.141260E+05  8.369773E+04  2.059375E+04  9.957203E+04 -1.120123E+04 -1.106629E+04
       465   8  9.998975E+04  1.251089E+05  4.307891E+04  1.001890E+05 -3.041789E+04 -2.427559E+04
       465   9  1.077024E+05  2.016927E+05  9.152754E+04  8.745224E+04 -4.957665E+04 -3.756240E+04
       465  10  1.487708E+05  1.149766E+05  2.869146E+04  1.205598E+05  2.804779E-09  1.811062E-10
       465  11  1.694112E+05  8.859272E+04  4.693820E+04  9.559456E+04  1.347736E-09 -4.193003E-10
       465  12  2.118378E+05  9.731644E+04  9.089447E+04  5.727554E+04 -2.579317E-09 -2.371608E-09
       465  13  1.314483E+05  9.933705E+04  2.464243E+04  1.100658E+05 -4.490165E-10 -2.120113E-09
       465  14  1.346987E+05  1.068495E+05  4.500696E+04  9.789176E+04  6.417665E-10 -1.954070E-09
       465  15  1.597644E+05  1.494989E+05  9.120658E+04  7.236431E+04 -6.345678E-10  2.471568E-13
       465  16  1.141258E+05  8.369756E+04  2.059329E+04  9.957193E+04 -3.610561E-09  2.756820E-10
       465  17  9.998860E+04  1.251080E+05  4.307607E+04  1.001884E+05 -9.753416E-10  6.540688E-10
       465  18  1.076993E+05  2.016905E+05  9.152028E+04  8.745074E+04  2.507944E-09  1.170618E-09
       465  19  1.487711E+05  1.149769E+05  2.869219E+04  1.205600E+05  1.437306E+04  1.344978E+04
       465  20  1.694126E+05  8.859377E+04  4.694159E+04  9.559527E+04  3.330167E+04  2.643825E+04
       465  21  2.118411E+05  9.731885E+04  9.090251E+04  5.727720E+04  5.217458E+04  3.950062E+04
       465  22  1.314485E+05  9.933725E+04  2.464302E+04  1.100659E+05  1.278713E+04  1.225802E+04
       465  23  1.347000E+05  1.068504E+05  4.501008E+04  9.789241E+04  3.185972E+04  2.535697E+04
       465  24  1.597676E+05  1.495012E+05  9.121423E+04  7.236589E+04  5.087553E+04  3.853162E+04
       465  25  1.141260E+05  8.369773E+04  2.059375E+04  9.957203E+04  1.120123E+04  1.106629E+04
       465  26  9.998975E+04  1.251089E+05  4.307891E+04  1.001890E+05  3.041789E+04  2.427559E+04
       465  27  1.077024E+05  2.016927E+05  9.152754E+04  8.745224E+04  4.957665E+04  3.756240E+04
       466   1  2.097600E+05  5.690872E+04  5.323147E+04  4.747730E+04  1.358955E+04 -3.015131E+03
       466   2  1.638121E+05  4.818668E+04  3.682438E+04  4.522409E+04  3.944778E+03 -9.601977E+03
       466   3  1.188009E+05  3.824101E+04  2.638970E+04  5.161838E+04 -5.704292E+03 -1.025903E+04
       466   4 -4.558864E+04 -6.155678E+03 -6.812717E+03  5.134675E+04 -4.735380E+03 -3.032671E+03
       466   5 -4.506438E+04 -1.622499E+03 -3.382728E+03  4.702001E+04 -2.991737E+03 -9.609080E+03
       466   6 -4.558231E+04 -2.900685E+02 -1.887870E+03  5.134103E+04 -1.253126E+03 -1.025471E+04
       466   7 -3.008765E+05 -6.922449E+04 -6.686011E+04  5.521459E+04 -2.305282E+04 -3.050443E+03
       466   8 -2.538988E+05 -5.143423E+04 -4.359167E+04  4.881530E+04 -9.925973E+03 -9.616224E+03
       466   9 -2.099389E+05 -3.882258E+04 -3.016629E+04  5.106374E+04  3.196898E+03 -1.025040E+04
       466  10  2.097598E+05  5.690866E+04  5.323110E+04  4.747733E+04 -1.270954E-08  3.819021E-10
       466  11  1.638120E+05  4.818658E+04  3.682417E+04  4.522412E+04  1.891113E-08  3.363963E-09
       466  12  1.188008E+05  3.824088E+04  2.638944E+04  5.161833E+04  4.978571E-08  2.793744E-09
       466  13 -4.558866E+04 -6.155693E+03 -6.812777E+03  5.134674E+04  4.965638E-10 -1.706498E-09
       466  14 -4.506442E+04 -1.622600E+03 -3.382919E+03  4.701999E+04  5.260214E-10 -2.223926E-09
       466  15 -4.558234E+04 -2.901818E+02 -1.888071E+03  5.134102E+04  2.461378E-10  2.701466E-09
       466  16 -3.008771E+05 -6.922464E+04 -6.686113E+04  5.521453E+04  1.251804E-08  3.522022E-10
       466  17 -2.538989E+05 -5.143436E+04 -4.359203E+04  4.881523E+04 -1.957062E-08  2.494648E-09
       466  18 -2.099390E+05 -3.882270E+04 -3.016650E+04  5.106377E+04 -4.953134E-08  1.609863E-09
       466  19  2.097600E+05  5.690872E+04  5.323147E+04  4.747730E+04 -1.358955E+04  3.015131E+03
       466  20  1.638121E+05  4.818668E+04  3.682438E+04  4.522409E+04 -3.944778E+03  9.601977E+03
       466  21  1.188009E+05  3.824101E+04  2.638970E+04  5.161838E+04  5.704292E+03  1.025903E+04
       466  22 -4.558864E+04 -6.155678E+03 -6.812717E+03  5.134675E+04  4.735380E+03  3.032671E+03
       466  23 -4.506438E+04 -1.622499E+03 -3.382728E+03  4.702001E+04  2.991737E+03  9.609080E+03
       466  24 -4.558231E+04 -2.900685E+02 -1.887870E+03  5.134103E+04  1.253126E+03  1.025471E+04
       466  25 -3.008765E+05 -6.922449E+04 -6.686011E+04  5.521459E+04  2.305282E+04  3.050443E+03
       466  26 -2.538988E+05 -5.143423E+04 -4.359167E+04  4.881530E+04  9.925973E+03  9.616224E+03
       466  27 -2.099389E+05 -3.882258E+04 -3.016629E+04  5.106374E+04 -3.196898E+03  1.025040E+04
       467   1  8.977353E+04  3.134882E+04  2.142456E+04  5.135634E+04 -5.167650E+03 -8.726647E+03
       467   2  4.430840E+04  2.085713E+04  1.367467E+04  4.690067E+04 -5.829289E+03 -6.271356E+03
       467   3 -1.092113E+03  1.035271E+04  6.346762E+03  5.149661E+04 -6.491579E+03 -3.239038E+03
       467   4 -4.537808E+04 -2.574112E+02 -1.460739E+03  5.143137E+04 -1.005502E+03 -8.722500E+03
       467   5 -4.531149E+04  1.863975E+01 -8.987467E+02  4.690534E+04 -5.594132E+02 -6.265913E+03
       467   6 -4.537535E+04  8.952609E+01 -6.842843E+02  5.143101E+04 -1.140372E+02 -3.232254E+03
       467   7 -1.805117E+05 -3.186460E+04 -2.434656E+04  5.150638E+04  3.155769E+03 -8.718350E+03
       467   8 -1.349233E+05 -2.082025E+04 -1.547228E+04  4.691001E+04  4.709729E+03 -6.260469E+03
       467   9 -8.965654E+04 -1.017373E+04 -7.715228E+03  5.136543E+04  6.263066E+03 -3.225471E+03
       467  10  8.977349E+04  3.134873E+04  2.142437E+04  5.135631E+04 -4.965023E-08  1.430642E-09
       467  11  4.430835E+04  2.085708E+04  1.367453E+04  4.690064E+04 -2.121284E-08  2.536175E-09
       467  12 -1.092161E+03  1.035268E+04  6.346663E+03  5.149659E+04  1.174634E-08  1.987867E-09
       467  13 -4.537810E+04 -2.574932E+02 -1.460884E+03  5.143137E+04  7.668698E-10  5.567367E-09
       467  14 -4.531150E+04  1.859751E+01 -8.988210E+02  4.690534E+04  4.274171E-10 -4.588060E-09
       467  15 -4.537535E+04  8.951487E+01 -6.843040E+02  5.143101E+04  1.427118E-10  3.059127E-09
       467  16 -1.805117E+05 -3.186468E+04 -2.434673E+04  5.150640E+04  4.937443E-08 -3.592983E-10
       467  17 -1.349234E+05 -2.082030E+04 -1.547240E+04  4.691003E+04  2.108076E-08 -6.719626E-10
       467  18 -8.965658E+04 -1.017375E+04 -7.715321E+03  5.136544E+04 -1.163860E-08  6.255753E-10
       467  19  8.977353E+04  3.134882E+04  2.142456E+04  5.135634E+04  5.167650E+03  8.726647E+03
       467  20  4.430840E+04  2.085713E+04  1.367467E+04  4.690067E+04  5.829289E+03  6.271356E+03
       467  21 -1.092113E+03  1.035271E+04  6.346762E+03  5.149661E+04  6.491579E+03  3.239038E+03
       467  22 -4.537808E+04 -2.574112E+02 -1.460739E+03  5.143137E+04  1.005502E+03  8.722500E+03
       467  23 -4.531149E+04  1.863975E+01 -8.987467E+02  4.690534E+04  5.594132E+02  6.265913E+03
       467  24 -4.537535E+04  8.952609E+01 -6.842843E+02  5.143101E+04  1.140372E+02  3.232254E+03
       467  25 -1.805117E+05 -3.186460E+04 -2.434656E+04  5.150638E+04 -3.155769E+03  8.718350E+03
       467  26 -1.349233E+05 -2.082025E+04 -1.547228E+04  4.691001E+04 -4.709729E+03  6.260469E+03
       467  27 -8.965654E+04 -1.017373E+04 -7.715228E+03  5.136543E+04 -6.263066E+03  3.225471E+03
       468   1 -3.003948E+04  3.608461E+03  1.597690E+03  5.142610E+04 -6.370401E+03 -1.264424E+03
       468   2 -7.534142E+04 -7.007391E+03 -5.979837E+03  4.694296E+04 -5.170115E+03  1.843522E+03
       468   3 -1.208970E+05 -1.792997E+04 -1.442212E+04  5.152150E+04 -3.969442E+03  4.528326E+03
       468   4 -4.537134E+04  8.976919E+01 -6.634908E+02  5.143323E+04  1.805765E-01 -1.257611E+03
       468   5 -4.531485E+04  3.738627E+01 -7.839967E+02  4.690255E+04  3.879582E+02  1.849414E+03
       468   6 -4.537226E+04 -1.803892E+02 -1.204837E+03  5.143351E+04  7.761946E+02  4.533310E+03
       468   7 -6.070288E+04 -3.428912E+03 -2.924524E+03  5.144037E+04  6.370612E+03 -1.250798E+03
       468   8 -1.528732E+04  7.082132E+03  4.411929E+03  4.686214E+04  5.946293E+03  1.855305E+03
       468   9  3.015811E+04  1.756889E+04  1.201233E+04  5.134551E+04  5.522391E+03  4.538292E+03
       468  10 -3.003952E+04  3.608449E+03  1.597611E+03  5.142609E+04  2.095362E-09 -2.210728E-09
       468  11 -7.534145E+04 -7.007402E+03 -5.979894E+03  4.694297E+04 -8.945404E-10 -2.425642E-09
       468  12 -1.208970E+05 -1.793000E+04 -1.442219E+04  5.152152E+04 -1.855409E-09 -1.878063E-09
       468  13 -4.537134E+04  8.976749E+01 -6.634938E+02  5.143323E+04  6.679676E-10 -5.738716E-10
       468  14 -4.531485E+04  3.738256E+01 -7.840034E+02  4.690255E+04  2.817514E-10 -2.601525E-09
       468  15 -4.537227E+04 -1.804114E+02 -1.204877E+03  5.143351E+04  1.867308E-10 -2.779087E-09
       468  16 -6.070292E+04 -3.428925E+03 -2.924603E+03  5.144037E+04 -2.293412E-09 -2.080612E-09
       468  17 -1.528736E+04  7.082119E+03  4.411856E+03  4.686213E+04  6.512848E-10  4.649067E-10
       468  18  3.015807E+04  1.756886E+04  1.201223E+04  5.134549E+04  1.831567E-09  1.004323E-09
       468  19 -3.003948E+04  3.608461E+03  1.597690E+03  5.142610E+04  6.370401E+03  1.264424E+03
       468  20 -7.534142E+04 -7.007391E+03 -5.979837E+03  4.694296E+04  5.170115E+03 -1.843522E+03
       468  21 -1.208970E+05 -1.792997E+04 -1.442212E+04  5.152150E+04  3.969442E+03 -4.528326E+03
       468  22 -4.537134E+04  8.976919E+01 -6.634908E+02  5.143323E+04 -1.805764E-01  1.257611E+03
       468  23 -4.531485E+04  3.738627E+01 -7.839967E+02  4.690255E+04 -3.879582E+02 -1.849414E+03
       468  24 -4.537226E+04 -1.803892E+02 -1.204837E+03  5.143351E+04 -7.761946E+02 -4.533310E+03
       468  25 -6.070288E+04 -3.428912E+03 -2.924524E+03  5.144037E+04 -6.370612E+03  1.250798E+03
       468  26 -1.528732E+04  7.082132E+03  4.411929E+03  4.686214E+04 -5.946293E+03 -1.855305E+03
       468  27  3.015811E+04  1.756889E+04  1.201233E+04  5.134551E+04 -5.522391E+03 -4.538292E+03
       469   1 -1.502103E+05 -2.483311E+04 -1.998075E+04  5.116267E+04 -3.989723E+03  6.178420E+03
       469   2 -1.944823E+05 -3.700171E+04 -3.198589E+04  4.843989E+04  6.266780E+03  6.469755E+03
       469   3 -2.411312E+05 -5.326833E+04 -5.169823E+04  5.446607E+04  1.652665E+04  2.145086E+03
       469   4 -4.553459E+04 -2.063946E+02 -1.536992E+03  5.136354E+04  9.794549E+02  6.183554E+03
       469   5 -4.511686E+04 -1.274702E+03 -2.719139E+03  4.699142E+04  2.375752E+03  6.465627E+03
       469   6 -4.553914E+04 -4.901909E+03 -5.454230E+03  5.136826E+04  3.776215E+03  2.132152E+03
       469   7  5.915194E+04  2.441973E+04  1.690646E+04  5.156445E+04  5.949446E+03  6.188690E+03
       469   8  1.042700E+05  3.445098E+04  2.654660E+04  4.554258E+04 -1.516191E+03  6.461517E+03
       469   9  1.500885E+05  4.346190E+04  4.078773E+04  4.826946E+04 -8.978218E+03  2.119347E+03
       469  10 -1.502104E+05 -2.483315E+04 -1.998085E+04  5.116269E+04  3.958696E-09 -3.991198E-09
       469  11 -1.944823E+05 -3.700177E+04 -3.198604E+04  4.843986E+04 -1.778523E-09 -2.312781E-09
       469  12 -2.411315E+05 -5.326841E+04 -5.169875E+04  5.446604E+04 -4.870389E-09 -9.681323E-10
       469  13 -4.553460E+04 -2.064359E+02 -1.537066E+03  5.136354E+04  5.231258E-10 -2.261017E-09
       469  14 -4.511688E+04 -1.274749E+03 -2.719228E+03  4.699141E+04  2.208843E-10 -4.284512E-09
       469  15 -4.553916E+04 -4.901917E+03 -5.454265E+03  5.136825E+04 -1.496289E-12 -1.747578E-09
       469  16  5.915189E+04  2.441968E+04  1.690632E+04  5.156442E+04 -3.946851E-09 -1.572602E-09
       469  17  1.042700E+05  3.445093E+04  2.654651E+04  4.554259E+04  1.466728E-09 -2.984587E-10
       469  18  1.500884E+05  4.346187E+04  4.078757E+04  4.826947E+04  4.697894E-09  5.560825E-10
       469  19 -1.502103E+05 -2.483311E+04 -1.998075E+04  5.116267E+04  3.989723E+03 -6.178420E+03
       469  20 -1.944823E+05 -3.700171E+04 -3.198589E+04  4.843989E+04 -6.266780E+03 -6.469755E+03
       469  21 -2.411312E+05 -5.326833E+04 -5.169823E+04  5.446607E+04 -1.652665E+04 -2.145086E+03
       469  22 -4.553459E+04 -2.063946E+02 -1.536992E+03  5.136354E+04 -9.794549E+02 -6.183554E+03
       469  23 -4.511686E+04 -1.274702E+03 -2.719139E+03  4.699142E+04 -2.375752E+03 -6.465627E+03
       469  24 -4.553914E+04 -4.901909E+03 -5.454230E+03  5.136826E+04 -3.776215E+03 -2.132152E+03
       469  25  5.915194E+04  2.441973E+04  1.690646E+04  5.156445E+04 -5.949446E+03 -6.188690E+03
       469  26  1.042700E+05  3.445098E+04  2.654660E+04  4.554258E+04  1.516191E+03 -6.461517E+03
       469  27  1.500885E+05  4.346190E+04  4.078773E+04  4.826946E+04  8.978218E+03 -2.119347E+03
       470   1 -1.133916E+05 -5.035084E+05 -1.124579E+05  1.309449E+05 -3.302806E+03 -4.234765E+04
       470   2 -6.542080E+04 -4.011145E+05 -6.322946E+04  1.114443E+05 -9.565846E+03 -1.890141E+04
       470   3 -3.529804E+04 -3.061848E+05 -3.373179E+04  1.110664E+05 -7.780026E+03  4.556239E+03
       470   4 -2.956883E+04 -1.651546E+05 -3.199169E+04  1.117499E+05 -3.314520E+03 -2.264160E+04
       470   5 -8.189489E+03 -1.627515E+05 -1.558728E+04  1.021974E+05 -9.567986E+03 -1.463617E+04
       470   6 -1.971914E+03 -1.651369E+05 -8.181949E+03  1.117689E+05 -7.773266E+03 -6.623507E+03
       470   7  5.424729E+04  1.733059E+05  4.846815E+04  9.254444E+04 -3.327451E+03 -2.924851E+03
       470   8  4.903866E+04  7.566614E+04  3.205214E+04  9.294691E+04 -9.570254E+03 -1.036932E+04
       470   9  3.135317E+04 -2.406940E+04  1.736758E+04  1.124716E+05 -7.766531E+03 -1.780572E+04
       470  10 -1.133921E+05 -5.035103E+05 -1.124613E+05  1.309448E+05  2.174693E-11  2.406554E-09
       470  11 -6.542099E+04 -4.011150E+05 -6.323030E+04  1.114441E+05  7.338749E-11  1.988729E-09
       470  12 -3.529811E+04 -3.061848E+05 -3.373194E+04  1.110664E+05  6.003911E-10 -9.819876E-11
       470  13 -2.956898E+04 -1.651552E+05 -3.199268E+04  1.117499E+05  5.761342E-10  3.657769E-11
       470  14 -8.189645E+03 -1.627517E+05 -1.558786E+04  1.021973E+05 -3.254297E-10 -2.078860E-09
       470  15 -1.971991E+03 -1.651370E+05 -8.182145E+03  1.117689E+05 -3.183728E-10  1.089461E-09
       470  16  5.424728E+04  1.733059E+05  4.846812E+04  9.254443E+04  1.912796E-10 -6.494084E-10
       470  17  4.903853E+04  7.566600E+04  3.205176E+04  9.294683E+04 -3.289803E-12 -4.842247E-09
       470  18  3.135302E+04 -2.406976E+04  1.736687E+04  1.124715E+05 -1.021067E-09 -7.122206E-10
       470  19 -1.133916E+05 -5.035084E+05 -1.124579E+05  1.309449E+05  3.302806E+03  4.234765E+04
       470  20 -6.542080E+04 -4.011145E+05 -6.322946E+04  1.114443E+05  9.565846E+03  1.890141E+04
       470  21 -3.529804E+04 -3.061848E+05 -3.373179E+04  1.110664E+05  7.780026E+03 -4.556239E+03
       470  22 -2.956883E+04 -1.651546E+05 -3.199169E+04  1.117499E+05  3.314520E+03  2.264160E+04
       470  23 -8.189489E+03 -1.627515E+05 -1.558728E+04  1.021974E+05  9.567986E+03  1.463617E+04
       470  24 -1.971914E+03 -1.651369E+05 -8.181949E+03  1.117689E+05  7.773266E+03  6.623507E+03
       470  25  5.424729E+04  1.733059E+05  4.846815E+04  9.254444E+04  3.327451E+03  2.924851E+03
       470  26  4.903866E+04  7.566614E+04  3.205214E+04  9.294691E+04  9.570254E+03  1.036932E+04
       470  27  3.135317E+04 -2.406940E+04  1.736758E+04  1.124716E+05  7.766531E+03  1.780572E+04
       471   1 -2.026730E+04 -2.419502E+05 -2.025040E+04  1.126565E+05 -4.099353E+03  5.232170E+03
       471   2  4.428784E+03 -1.431735E+05  8.459703E+02  1.024360E+05  1.491511E+03  6.293350E+03
       471   3  2.841668E+04 -4.466230E+04  2.108397E+04  1.118446E+05  6.985065E+03  7.354690E+03
       471   4 -1.832751E+03 -1.641385E+05 -5.912996E+03  1.118788E+05 -4.093034E+03 -5.594420E+03
       471   5 -4.007366E+02 -1.639856E+05 -2.488808E+03  1.020649E+05  1.497805E+03 -4.346955E+03
       471   6  2.912793E+02 -1.641396E+05 -5.212446E+01  1.118801E+05  6.991318E+03 -3.099485E+03
       471   7  1.660152E+04 -8.632078E+04  8.424595E+03  1.111010E+05 -4.086689E+03 -1.642233E+04
       471   8 -5.230218E+03 -1.847969E+05 -5.823173E+03  1.016938E+05  1.504111E+03 -1.498692E+04
       471   9 -2.783484E+04 -2.836027E+05 -2.118834E+04  1.119156E+05  6.997571E+03 -1.355171E+04
       471  10 -2.026733E+04 -2.419502E+05 -2.025048E+04  1.126565E+05  4.335440E-10  2.683424E-09
       471  11  4.428771E+03 -1.431736E+05  8.458917E+02  1.024360E+05  6.210257E-10  7.464897E-10
       471  12  2.841661E+04 -4.466237E+04  2.108378E+04  1.118445E+05  4.094992E-10 -1.061948E-09
       471  13 -1.832777E+03 -1.641386E+05 -5.913086E+03  1.118788E+05  1.766413E-10 -5.342974E-10
       471  14 -4.007441E+02 -1.639856E+05 -2.488848E+03  1.020649E+05  6.861104E-10 -1.747717E-09
       471  15  2.912242E+02 -1.641396E+05 -5.223438E+01  1.118801E+05  8.610592E-10  1.595964E-09
       471  16  1.660143E+04 -8.632107E+04  8.424057E+03  1.111009E+05 -8.146486E-10 -1.042872E-09
       471  17 -5.230281E+03 -1.847971E+05 -5.823599E+03  1.016938E+05  1.433465E-10 -4.776606E-09
       471  18 -2.783494E+04 -2.836029E+05 -2.118878E+04  1.119157E+05 -3.104656E-10  2.686317E-10
       471  19 -2.026730E+04 -2.419502E+05 -2.025040E+04  1.126565E+05  4.099353E+03 -5.232170E+03
       471  20  4.428784E+03 -1.431735E+05  8.459703E+02  1.024360E+05 -1.491511E+03 -6.293350E+03
       471  21  2.841668E+04 -4.466230E+04  2.108397E+04  1.118446E+05 -6.985065E+03 -7.354690E+03
       471  22 -1.832751E+03 -1.641385E+05 -5.912996E+03  1.118788E+05  4.093034E+03  5.594420E+03
       471  23 -4.007366E+02 -1.639856E+05 -2.488808E+03  1.020649E+05 -1.497805E+03  4.346955E+03
       471  24  2.912793E+02 -1.641396E+05 -5.212446E+01  1.118801E+05 -6.991318E+03  3.099485E+03
       471  25  1.660152E+04 -8.632078E+04  8.424595E+03  1.111010E+05  4.086689E+03  1.642233E+04
       471  26 -5.230218E+03 -1.847969E+05 -5.823173E+03  1.016938E+05 -1.504111E+03  1.498692E+04
       471  27 -2.783484E+04 -2.836027E+05 -2.118834E+04  1.119156E+05 -6.997571E+03  1.355171E+04
       472   1  4.336727E+04  1.900512E+04  3.353084E+04  1.113657E+05  1.059072E+04  7.724249E+03
       472   2  6.921880E+04  1.155271E+05  5.919621E+04  1.046343E+05  1.177077E+04 -1.151911E+04
       472   3  1.023539E+05  2.164306E+05  9.921897E+04  1.169687E+05  3.978183E+03 -3.077355E+04
       472   4  3.189815E+02 -1.637674E+05  1.078251E+03  1.117541E+05  1.059753E+04 -3.132859E+03
       472   5  2.163996E+03 -1.644681E+05  3.901325E+03  1.022239E+05  1.176708E+04 -5.145064E+03
       472   6  8.303798E+03 -1.637848E+05  9.117325E+03  1.117597E+05  3.962311E+03 -7.165394E+03
       472   7 -4.273108E+04 -3.465071E+05 -3.137514E+04  1.121423E+05  1.060432E+04 -1.398686E+04
       472   8 -6.489552E+04 -4.443881E+05 -5.139725E+04  9.981465E+04  1.176334E+04  1.226169E+03
       472   9 -8.575633E+04 -5.438662E+05 -8.099227E+04  1.065539E+05  3.946039E+03  1.642839E+04
       472  10  4.336713E+04  1.900503E+04  3.353051E+04  1.113657E+05  5.829863E-10  2.895431E-09
       472  11  6.921861E+04  1.155269E+05  5.919570E+04  1.046344E+05  2.158216E-10  1.705351E-09
       472  12  1.023537E+05  2.164295E+05  9.921716E+04  1.169688E+05 -2.546119E-10  1.950497E-10
       472  13  3.188582E+02 -1.637675E+05  1.078021E+03  1.117541E+05 -5.564683E-10 -8.398675E-10
       472  14  2.163840E+03 -1.644681E+05  3.901015E+03  1.022240E+05  1.173083E-09 -1.220268E-09
       472  15  8.303768E+03 -1.637849E+05  9.117199E+03  1.117597E+05 -8.550982E-11  1.577650E-09
       472  16 -4.273125E+04 -3.465073E+05 -3.137572E+04  1.121425E+05 -7.709100E-11 -8.869464E-10
       472  17 -6.489567E+04 -4.443881E+05 -5.139751E+04  9.981464E+04  1.476511E-09 -4.470037E-09
       472  18 -8.575642E+04 -5.438664E+05 -8.099280E+04  1.065538E+05  3.390394E-10 -6.951631E-10
       472  19  4.336727E+04  1.900512E+04  3.353084E+04  1.113657E+05 -1.059072E+04 -7.724249E+03
       472  20  6.921880E+04  1.155271E+05  5.919621E+04  1.046343E+05 -1.177077E+04  1.151911E+04
       472  21  1.023539E+05  2.164306E+05  9.921897E+04  1.169687E+05 -3.978183E+03  3.077355E+04
       472  22  3.189815E+02 -1.637674E+05  1.078251E+03  1.117541E+05 -1.059753E+04  3.132859E+03
       472  23  2.163996E+03 -1.644681E+05  3.901325E+03  1.022239E+05 -1.176708E+04  5.145064E+03
       472  24  8.303798E+03 -1.637848E+05  9.117325E+03  1.117597E+05 -3.962311E+03  7.165394E+03
       472  25 -4.273108E+04 -3.465071E+05 -3.137514E+04  1.121423E+05 -1.060432E+04  1.398686E+04
       472  26 -6.489552E+04 -4.443881E+05 -5.139725E+04  9.981465E+04 -1.176334E+04 -1.226169E+03
       472  27 -8.575633E+04 -5.438662E+05 -8.099227E+04  1.065539E+05 -3.946039E+03 -1.642839E+04
       473   1  1.477065E+05  1.512880E+05  5.602331E+04  1.001211E+05  2.722361E+04  1.919236E+04
       473   2  1.438708E+05  1.181573E+05  3.190478E+04  1.057647E+05  1.822582E+04  9.433235E+03
       473   3  1.499799E+05  1.004172E+05  2.101151E+04  1.056998E+05  8.226537E+03  1.007412E+03
       473   4  1.160129E+05  9.076329E+04  3.879575E+04  6.692664E+04  2.226340E+04  1.546387E+04
       473   5  1.052958E+05  7.267755E+04  1.918564E+04  7.779814E+04  1.582572E+04  7.629342E+03
       473   6  1.039682E+05  6.942706E+04  1.057791E+04  8.296098E+04  8.386547E+03  1.127611E+03
       473   7  8.432120E+04  3.024446E+04  2.156824E+04  3.373515E+04  1.730350E+04  1.173619E+04
       473   8  6.672222E+04  2.720034E+04  6.466229E+03  4.983381E+04  1.342579E+04  5.825707E+03
       473   9  5.795805E+04  3.843747E+04  1.438620E+02  6.022361E+04  8.546545E+03  1.247801E+03
       473  10  1.477056E+05  1.512874E+05  5.602123E+04  1.001207E+05 -5.516259E-13  7.767978E-10
       473  11  1.438704E+05  1.181571E+05  3.190398E+04  1.057646E+05 -1.656452E-10  5.023622E-10
       473  12  1.499798E+05  1.004171E+05  2.101138E+04  1.056998E+05 -6.245690E-10  2.813050E-10
       473  13  1.160123E+05  9.076290E+04  3.879437E+04  6.692636E+04  2.345553E-11 -3.458859E-11
       473  14  1.052955E+05  7.267742E+04  1.918506E+04  7.779804E+04  1.804706E-10 -1.850379E-09
       473  15  1.039682E+05  6.942704E+04  1.057778E+04  8.296098E+04 -3.279927E-10 -1.065884E-09
       473  16  8.432084E+04  3.024423E+04  2.156741E+04  3.373499E+04 -3.497309E-10  2.616092E-10
       473  17  6.672202E+04  2.720026E+04  6.465827E+03  4.983375E+04  2.284501E-10 -2.603366E-09
       473  18  5.795797E+04  3.843745E+04  1.437218E+02  6.022360E+04  5.092581E-10  1.822056E-09
       473  19  1.477065E+05  1.512880E+05  5.602331E+04  1.001211E+05 -2.722361E+04 -1.919236E+04
       473  20  1.438708E+05  1.181573E+05  3.190478E+04  1.057647E+05 -1.822582E+04 -9.433235E+03
       473  21  1.499799E+05  1.004172E+05  2.101151E+04  1.056998E+05 -8.226537E+03 -1.007412E+03
       473  22  1.160129E+05  9.076329E+04  3.879575E+04  6.692664E+04 -2.226340E+04 -1.546387E+04
       473  23  1.052958E+05  7.267755E+04  1.918564E+04  7.779814E+04 -1.582572E+04 -7.629342E+03
       473  24  1.039682E+05  6.942706E+04  1.057791E+04  8.296098E+04 -8.386547E+03 -1.127611E+03
       473  25  8.432120E+04  3.024446E+04  2.156824E+04  3.373515E+04 -1.730350E+04 -1.173619E+04
       473  26  6.672222E+04  2.720034E+04  6.466229E+03  4.983381E+04 -1.342579E+04 -5.825707E+03
       473  27  5.795805E+04  3.843747E+04  1.438620E+02  6.022361E+04 -8.546545E+03 -1.247801E+03
       474   1  1.446120E+05  9.977876E+04  1.771007E+04  1.043833E+05  7.119119E+03  3.147801E+02
       474   2  1.407352E+05  9.453772E+04  1.304702E+04  1.025900E+05  4.893082E+03 -1.170137E+03
       474   3  1.366500E+05  9.144713E+04  1.044168E+04  1.008217E+05  2.561030E+03 -2.513834E+03
       474   4  1.031345E+05  6.892027E+04  8.075636E+03  8.248746E+04  7.213762E+03  3.858404E+02
       474   5  1.029044E+05  6.722979E+04  4.671573E+03  8.295982E+04  5.258996E+03 -8.952216E+02
       474   6  1.024068E+05  6.763090E+04  3.089759E+03  8.345701E+04  3.198172E+03 -2.035095E+03
       474   7  6.165995E+04  3.806365E+04 -1.558591E+03  6.059383E+04  7.308394E+03  4.568924E+02
       474   8  6.507569E+04  3.992312E+04 -3.703801E+03  6.333122E+04  5.624877E+03 -6.203321E+02
       474   9  6.816514E+04  4.381541E+04 -4.262205E+03  6.609347E+04  3.835265E+03 -1.556391E+03
       474  10  1.446120E+05  9.977875E+04  1.770998E+04  1.043833E+05  8.529849E-10  6.549817E-10
       474  11  1.407352E+05  9.453771E+04  1.304698E+04  1.025901E+05 -1.264908E-09  1.788923E-09
       474  12  1.366500E+05  9.144712E+04  1.044166E+04  1.008217E+05 -3.142916E-09  5.692225E-10
       474  13  1.031345E+05  6.892025E+04  8.075538E+03  8.248746E+04  5.472930E-10 -2.194408E-10
       474  14  1.029044E+05  6.722978E+04  4.671520E+03  8.295983E+04  2.877923E-10  1.780900E-09
       474  15  1.024068E+05  6.763089E+04  3.089732E+03  8.345701E+04 -2.719793E-10 -3.092019E-10
       474  16  6.165990E+04  3.806364E+04 -1.558692E+03  6.059383E+04 -8.571725E-10 -1.194350E-10
       474  17  6.507566E+04  3.992311E+04 -3.703861E+03  6.333123E+04  9.876913E-10  2.204384E-09
       474  18  6.816512E+04  4.381541E+04 -4.262238E+03  6.609348E+04  2.264227E-09  2.549279E-09
       474  19  1.446120E+05  9.977876E+04  1.771007E+04  1.043833E+05 -7.119119E+03 -3.147801E+02
       474  20  1.407352E+05  9.453772E+04  1.304702E+04  1.025900E+05 -4.893082E+03  1.170137E+03
       474  21  1.366500E+05  9.144713E+04  1.044168E+04  1.008217E+05 -2.561030E+03  2.513834E+03
       474  22  1.031345E+05  6.892027E+04  8.075636E+03  8.248746E+04 -7.213762E+03 -3.858404E+02
       474  23  1.029044E+05  6.722979E+04  4.671573E+03  8.295982E+04 -5.258996E+03  8.952216E+02
       474  24  1.024068E+05  6.763090E+04  3.089759E+03  8.345701E+04 -3.198172E+03  2.035095E+03
       474  25  6.165995E+04  3.806365E+04 -1.558591E+03  6.059383E+04 -7.308394E+03 -4.568924E+02
       474  26  6.507569E+04  3.992312E+04 -3.703801E+03  6.333122E+04 -5.624877E+03  6.203321E+02
       474  27  6.816514E+04  4.381541E+04 -4.262205E+03  6.609347E+04 -3.835265E+03  1.556391E+03
       475   1  1.337610E+05  8.972180E+04  9.450384E+03  9.947927E+04  2.015089E+03 -2.615252E+03
       475   2  1.300355E+05  8.617561E+04  8.376903E+03  9.718775E+04  7.253049E+02 -3.059423E+03
       475   3  1.254117E+05  8.393633E+04  8.196173E+03  9.522875E+04 -5.756794E+02 -3.488732E+03
       475   4  1.023481E+05  6.760153E+04  2.707236E+03  8.341560E+04  2.645230E+03 -2.141763E+03
       475   5  1.028062E+05  6.696179E+04  2.547787E+03  8.324125E+04  1.384056E+03 -2.564420E+03
       475   6  1.023599E+05  6.762273E+04  3.256303E+03  8.339943E+04  1.116953E+02 -2.972209E+03
       475   7  7.093566E+04  4.548142E+04 -4.036176E+03  6.735255E+04  3.275342E+03 -1.668296E+03
       475   8  7.557774E+04  4.774844E+04 -3.281358E+03  6.929547E+04  2.042768E+03 -2.069445E+03
       475   9  7.930927E+04  5.130981E+04 -1.683425E+03  7.157086E+04  7.990224E+02 -2.455722E+03
       475  10  1.337610E+05  8.972179E+04  9.450363E+03  9.947928E+04  2.396900E-09  1.148460E-09
       475  11  1.300355E+05  8.617560E+04  8.376884E+03  9.718776E+04 -1.829716E-10 -3.219281E-09
       475  12  1.254117E+05  8.393631E+04  8.196149E+03  9.522875E+04 -2.065949E-09 -2.700744E-09
       475  13  1.023481E+05  6.760152E+04  2.707214E+03  8.341560E+04 -4.172731E-10  6.441434E-10
       475  14  1.028062E+05  6.696178E+04  2.547771E+03  8.324126E+04 -4.921726E-11  3.955241E-09
       475  15  1.023599E+05  6.762272E+04  3.256286E+03  8.339943E+04 -2.129109E-10  2.173736E-10
       475  16  7.093565E+04  4.548141E+04 -4.036201E+03  6.735255E+04 -1.989871E-09 -2.516155E-09
       475  17  7.557774E+04  4.774843E+04 -3.281374E+03  6.929547E+04  7.781555E-10  6.833330E-10
       475  18  7.930927E+04  5.130981E+04 -1.683437E+03  7.157086E+04  2.454221E-09  2.089355E-09
       475  19  1.337610E+05  8.972180E+04  9.450384E+03  9.947927E+04 -2.015089E+03  2.615252E+03
       475  20  1.300355E+05  8.617561E+04  8.376903E+03  9.718775E+04 -7.253049E+02  3.059423E+03
       475  21  1.254117E+05  8.393633E+04  8.196173E+03  9.522875E+04  5.756794E+02  3.488732E+03
       475  22  1.023481E+05  6.760153E+04  2.707236E+03  8.341560E+04 -2.645230E+03  2.141763E+03
       475  23  1.028062E+05  6.696179E+04  2.547787E+03  8.324125E+04 -1.384056E+03  2.564420E+03
       475  24  1.023599E+05  6.762273E+04  3.256303E+03  8.339943E+04 -1.116953E+02  2.972209E+03
       475  25  7.093566E+04  4.548142E+04 -4.036176E+03  6.735255E+04 -3.275342E+03  1.668296E+03
       475  26  7.557774E+04  4.774844E+04 -3.281358E+03  6.929547E+04 -2.042768E+03  2.069445E+03
       475  27  7.930927E+04  5.130981E+04 -1.683425E+03  7.157086E+04 -7.990224E+02  2.455722E+03
       476   1  1.226222E+05  8.235547E+04  8.314702E+03  9.401824E+04 -1.233238E+03 -3.656244E+03
       476   2  1.197760E+05  7.826907E+04  9.924687E+03  9.101278E+04 -4.080553E+03 -5.235591E+03
       476   3  1.170012E+05  7.671597E+04  1.407092E+04  8.790011E+04 -6.928784E+03 -6.813722E+03
       476   4  1.024498E+05  6.767171E+04  3.963161E+03  8.347086E+04 -5.466625E+02 -3.140315E+03
       476   5  1.029366E+05  6.733027E+04  6.450932E+03  8.282928E+04 -3.391545E+03 -4.717834E+03
       476   6  1.034944E+05  6.952165E+04  1.147286E+04  8.208046E+04 -6.237387E+03 -6.294178E+03
       476   7  8.227784E+04  5.298823E+04 -3.884010E+02  7.292389E+04  1.398838E+02 -2.624410E+03
       476   8  8.609743E+04  5.639150E+04  2.977107E+03  7.464595E+04 -2.702555E+03 -4.200089E+03
       476   9  8.998744E+04  6.232723E+04  8.874706E+03  7.626082E+04 -5.545996E+03 -5.774634E+03
       476  10  1.226222E+05  8.235546E+04  8.314674E+03  9.401823E+04  9.777932E-10  3.781262E-09
       476  11  1.197760E+05  7.826903E+04  9.924604E+03  9.101277E+04 -6.646678E-09 -2.912432E-09
       476  12  1.170011E+05  7.671591E+04  1.407074E+04  8.790008E+04 -1.698486E-08 -1.673894E-08
       476  13  1.024498E+05  6.767170E+04  3.963142E+03  8.347086E+04  5.489187E-10 -1.164829E-09
       476  14  1.029366E+05  6.733024E+04  6.450869E+03  8.282927E+04 -7.419956E-10 -3.083149E-09
       476  15  1.034943E+05  6.952159E+04  1.147271E+04  8.208043E+04 -4.602209E-09 -4.389803E-09
       476  16  8.227784E+04  5.298822E+04 -3.884140E+02  7.292389E+04 -7.263161E-10  1.389697E-09
       476  17  8.609742E+04  5.639148E+04  2.977060E+03  7.464594E+04  4.782751E-09  4.203343E-09
       476  18  8.998740E+04  6.232719E+04  8.874585E+03  7.626079E+04  7.386292E-09  5.303783E-09
       476  19  1.226222E+05  8.235547E+04  8.314702E+03  9.401824E+04  1.233238E+03  3.656244E+03
       476  20  1.197760E+05  7.826907E+04  9.924687E+03  9.101278E+04  4.080553E+03  5.235591E+03
       476  21  1.170012E+05  7.671597E+04  1.407092E+04  8.790011E+04  6.928784E+03  6.813722E+03
       476  22  1.024498E+05  6.767171E+04  3.963161E+03  8.347086E+04  5.466625E+02  3.140315E+03
       476  23  1.029366E+05  6.733027E+04  6.450932E+03  8.282928E+04  3.391545E+03  4.717834E+03
       476  24  1.034944E+05  6.952165E+04  1.147286E+04  8.208046E+04  6.237387E+03  6.294178E+03
       476  25  8.227784E+04  5.298823E+04 -3.884010E+02  7.292389E+04 -1.398838E+02  2.624410E+03
       476  26  8.609743E+04  5.639150E+04  2.977107E+03  7.464595E+04  2.702555E+03  4.200089E+03
       476  27  8.998744E+04  6.232723E+04  8.874706E+03  7.626082E+04  5.545996E+03  5.774634E+03
       477   1  1.129289E+05  7.821406E+04  1.712790E+04  8.799681E+04 -8.659065E+03 -7.785973E+03
       477   2  1.271063E+05  6.355175E+04  2.870221E+04  7.368674E+04 -2.024197E+04 -1.592837E+04
       477   3  1.551102E+05  6.992964E+04  5.609338E+04  5.106601E+04 -3.182304E+04 -2.407280E+04
       477   4  1.046604E+05  7.028576E+04  1.511580E+04  8.277394E+04 -7.967550E+03 -7.266280E+03
       477   5  1.064165E+05  7.512001E+04  2.756668E+04  7.538959E+04 -1.955545E+04 -1.541329E+04
       477   6  1.219995E+05  1.009942E+05  5.583892E+04  5.969476E+04 -3.114113E+04 -2.356303E+04
       477   7  9.639206E+04  6.235769E+04  1.310376E+04  7.755126E+04 -7.276060E+03 -6.746609E+03
       477   8  8.572807E+04  8.668871E+04  2.643132E+04  7.709218E+04 -1.886898E+04 -1.489819E+04
       477   9  8.889254E+04  1.320617E+05  5.558506E+04  6.832249E+04 -3.045928E+04 -2.305319E+04
       477  10  1.129288E+05  7.821397E+04  1.712765E+04  8.799675E+04 -1.591507E-08 -1.383832E-08
       477  11  1.271057E+05  6.355136E+04  2.870096E+04  7.368648E+04 -2.886067E-09 -5.839296E-10
       477  12  1.551090E+05  6.992874E+04  5.609039E+04  5.106539E+04  1.515383E-08  1.464117E-08
       477  13  1.046603E+05  7.028568E+04  1.511558E+04  8.277389E+04 -7.211186E-09 -5.355283E-09
       477  14  1.064160E+05  7.511965E+04  2.756551E+04  7.538935E+04 -8.520557E-09 -6.013938E-09
       477  15  1.219983E+05  1.009934E+05  5.583606E+04  5.969417E+04 -3.346365E-09 -2.388592E-09
       477  16  9.639200E+04  6.235763E+04  1.310357E+04  7.755122E+04  3.088631E-10  1.063981E-09
       477  17  8.572763E+04  8.668838E+04  2.643023E+04  7.709196E+04 -1.318564E-08 -1.261009E-08
       477  18  8.889140E+04  1.320609E+05  5.558232E+04  6.832193E+04 -2.091405E-08 -1.523945E-08
       477  19  1.129289E+05  7.821406E+04  1.712790E+04  8.799681E+04  8.659065E+03  7.785973E+03
       477  20  1.271063E+05  6.355175E+04  2.870221E+04  7.368674E+04  2.024197E+04  1.592837E+04
       477  21  1.551102E+05  6.992964E+04  5.609338E+04  5.106601E+04  3.182304E+04  2.407280E+04
       477  22  1.046604E+05  7.028576E+04  1.511580E+04  8.277394E+04  7.967550E+03  7.266280E+03
       477  23  1.064165E+05  7.512001E+04  2.756668E+04  7.538959E+04  1.955545E+04  1.541329E+04
       477  24  1.219995E+05  1.009942E+05  5.583892E+04  5.969476E+04  3.114113E+04  2.356303E+04
       477  25  9.639206E+04  6.235769E+04  1.310376E+04  7.755126E+04  7.276060E+03  6.746609E+03
       477  26  8.572807E+04  8.668871E+04  2.643132E+04  7.709218E+04  1.886898E+04  1.489819E+04
       477  27  8.889254E+04  1.320617E+05  5.558506E+04  6.832249E+04  3.045928E+04  2.305319E+04
       478   1  8.828515E+04  2.730233E+04  2.573401E+04  2.716808E+04  6.417109E+03 -1.328702E+03
       478   2  6.282116E+04  2.170786E+04  1.700691E+04  2.544059E+04  1.639281E+03 -4.123424E+03
       478   3  3.793582E+04  1.597632E+04  1.135539E+04  2.853874E+04 -3.140800E+03 -4.134201E+03
       478   4 -3.041015E+04 -2.033567E+03 -2.269593E+03  2.843175E+04 -1.613204E+03 -1.336442E+03
       478   5 -3.023419E+04 -5.227281E+02 -1.099869E+03  2.601795E+04 -1.045128E+03 -4.126094E+03
       478   6 -3.040859E+04 -7.709646E+01 -5.668074E+02  2.842986E+04 -4.795827E+02 -4.131599E+03
       478   7 -1.490924E+05 -3.137043E+04 -3.027393E+04  2.969518E+04 -9.641992E+03 -1.344215E+03
       478   8 -1.232812E+05 -2.275383E+04 -1.920703E+04  2.659522E+04 -3.729143E+03 -4.128769E+03
       478   9 -9.874841E+04 -1.613077E+04 -1.248915E+04  2.832099E+04  2.181351E+03 -4.128996E+03
       478  10  8.828511E+04  2.730231E+04  2.573393E+04  2.716809E+04  1.354034E-09  8.159107E-10
       478  11  6.282116E+04  2.170784E+04  1.700687E+04  2.544060E+04 -1.115076E-09 -2.170126E-09
       478  12  3.793581E+04  1.597630E+04  1.135534E+04  2.853873E+04 -1.577990E-09 -8.432902E-10
       478  13 -3.041015E+04 -2.033570E+03 -2.269601E+03  2.843175E+04  6.055115E-10  2.333483E-09
       478  14 -3.023420E+04 -5.227467E+02 -1.099903E+03  2.601795E+04  4.906814E-11 -1.706197E-09
       478  15 -3.040859E+04 -7.711486E+01 -5.668399E+02  2.842986E+04  1.877834E-10 -3.425119E-10
       478  16 -1.490925E+05 -3.137045E+04 -3.027410E+04  2.969517E+04 -1.641948E-09  2.275478E-10
       478  17 -1.232812E+05 -2.275385E+04 -1.920709E+04  2.659521E+04  9.541233E-10 -4.731101E-09
       478  18 -9.874842E+04 -1.613078E+04 -1.248919E+04  2.832100E+04  1.670037E-09 -1.351415E-09
       478  19  8.828515E+04  2.730233E+04  2.573401E+04  2.716808E+04 -6.417109E+03  1.328702E+03
       478  20  6.282116E+04  2.170786E+04  1.700691E+04  2.544059E+04 -1.639281E+03  4.123424E+03
       478  21  3.793582E+04  1.597632E+04  1.135539E+04  2.853874E+04  3.140800E+03  4.134201E+03
       478  22 -3.041015E+04 -2.033567E+03 -2.269593E+03  2.843175E+04  1.613204E+03  1.336442E+03
       478  23 -3.023419E+04 -5.227281E+02 -1.099869E+03  2.601795E+04  1.045128E+03  4.126094E+03
       478  24 -3.040859E+04 -7.709646E+01 -5.668074E+02  2.842986E+04  4.795827E+02  4.131599E+03
       478  25 -1.490924E+05 -3.137043E+04 -3.027393E+04  2.969518E+04  9.641992E+03  1.344215E+03
       478  26 -1.232812E+05 -2.275383E+04 -1.920703E+04  2.659522E+04  3.729143E+03  4.128769E+03
       478  27 -9.874841E+04 -1.613077E+04 -1.248915E+04  2.832099E+04 -2.181351E+03  4.128996E+03
       479   1  2.185066E+04  1.217036E+04  8.598974E+03  2.846121E+04 -2.936870E+03 -3.241031E+03
       479   2 -3.329016E+03  6.322460E+03  4.365138E+03  2.597086E+04 -3.367499E+03 -1.795316E+03
       479   3 -2.845589E+04  5.082180E+02  4.167120E+02  2.849605E+04 -3.798390E+03 -8.857995E+01
       479   4 -3.033803E+04 -6.725168E+01 -4.006172E+02  2.847225E+04 -4.107971E+02 -3.238533E+03
       479   5 -3.032057E+04  2.244449E+01 -1.429609E+02  2.596441E+04 -3.403018E+02 -1.792292E+03
       479   6 -3.033757E+04  5.891308E+01  5.218351E+01  2.847213E+04 -2.700775E+02 -8.502489E+01
       479   7 -8.252402E+04 -1.230500E+04 -9.400278E+03  2.848329E+04  2.115070E+03 -3.236034E+03
       479   8 -5.731139E+04 -6.277604E+03 -4.651048E+03  2.595797E+04  2.686768E+03 -1.789269E+03
       479   9 -3.221922E+04 -3.903853E+02 -3.122984E+02  2.844820E+04  3.258225E+03 -8.147010E+01
       479  10  2.185065E+04  1.217034E+04  8.598938E+03  2.846120E+04 -1.003999E-10 -3.410856E-10
       479  11 -3.329029E+03  6.322454E+03  4.365111E+03  2.597086E+04  4.653733E-10 -2.884321E-09
       479  12 -2.845590E+04  5.082141E+02  4.166849E+02  2.849605E+04  3.381050E-09 -6.701895E-10
       479  13 -3.033803E+04 -6.726299E+01 -4.006372E+02  2.847225E+04  6.460843E-10  7.354741E-10
       479  14 -3.032057E+04  2.244101E+01 -1.429671E+02  2.596441E+04  3.921263E-10  4.263439E-10
       479  15 -3.033757E+04  5.891305E+01  5.218336E+01  2.847213E+04  2.983202E-10  7.638591E-10
       479  16 -8.252403E+04 -1.230501E+04 -9.400306E+03  2.848330E+04 -5.961178E-11  2.579829E-09
       479  17 -5.731139E+04 -6.277609E+03 -4.651068E+03  2.595797E+04 -6.904591E-10  7.383188E-10
       479  18 -3.221923E+04 -3.903882E+02 -3.123184E+02  2.844820E+04 -3.135963E-09  1.261763E-09
       479  19  2.185066E+04  1.217036E+04  8.598974E+03  2.846121E+04  2.936870E+03  3.241031E+03
       479  20 -3.329016E+03  6.322460E+03  4.365138E+03  2.597086E+04  3.367499E+03  1.795316E+03
       479  21 -2.845589E+04  5.082180E+02  4.167120E+02  2.849605E+04  3.798390E+03  8.857995E+01
       479  22 -3.033803E+04 -6.725168E+01 -4.006172E+02  2.847225E+04  4.107971E+02  3.238533E+03
       479  23 -3.032057E+04  2.244449E+01 -1.429609E+02  2.596441E+04  3.403018E+02  1.792292E+03
       479  24 -3.033757E+04  5.891308E+01  5.218351E+01  2.847213E+04  2.700775E+02  8.502489E+01
       479  25 -8.252402E+04 -1.230500E+04 -9.400278E+03  2.848329E+04 -2.115070E+03  3.236034E+03
       479  26 -5.731139E+04 -6.277604E+03 -4.651048E+03  2.595797E+04 -2.686768E+03  1.789269E+03
       479  27 -3.221922E+04 -3.903853E+02 -3.122984E+02  2.844820E+04 -3.258225E+03  8.147010E+01
       480   1 -4.446601E+04 -3.226937E+03 -2.126317E+03  2.849071E+04 -3.818288E+03  1.004595E+03
       480   2 -6.959350E+04 -9.039598E+03 -6.042516E+03  2.590083E+04 -3.455452E+03  2.697106E+03
       480   3 -9.477052E+04 -1.481643E+04 -1.018941E+04  2.832436E+04 -3.092316E+03  4.096893E+03
       480   4 -3.031941E+04  5.769443E+01  1.499000E+02  2.847169E+04 -2.886299E+02  1.008147E+03
       480   5 -3.034344E+04  9.847143E+01  3.948772E+02  2.596488E+04 -4.878480E+02  2.700054E+03
       480   6 -3.032007E+04  2.726777E+02  7.994661E+02  2.847147E+04 -6.867520E+02  4.099246E+03
       480   7 -1.617259E+04  3.342323E+03  2.426159E+03  2.845266E+04  3.241106E+03  1.011699E+03
       480   8  8.908155E+03  9.236467E+03  6.832259E+03  2.602894E+04  2.479937E+03  2.703002E+03
       480   9  3.413448E+04  1.536157E+04  1.178823E+04  2.861860E+04  1.719053E+03  4.101600E+03
       480  10 -4.446603E+04 -3.226942E+03 -2.126347E+03  2.849072E+04  6.413416E-08 -1.336197E-10
       480  11 -6.959351E+04 -9.039609E+03 -6.042553E+03  2.590084E+04 -7.157825E-10  2.667294E-09
       480  12 -9.477053E+04 -1.481645E+04 -1.018946E+04  2.832437E+04 -6.337795E-08  5.463655E-10
       480  13 -3.031941E+04  5.769332E+01  1.498980E+02  2.847169E+04  6.843992E-10 -1.224539E-09
       480  14 -3.034344E+04  9.846354E+01  3.948630E+02  2.596489E+04  1.126432E-10  4.269768E-09
       480  15 -3.032007E+04  2.726596E+02  7.994336E+02  2.847147E+04 -1.167929E-11  1.767312E-10
       480  16 -1.617260E+04  3.342319E+03  2.426137E+03  2.845266E+04 -6.427736E-08  5.758138E-10
       480  17  8.908147E+03  9.236457E+03  6.832234E+03  2.602894E+04  6.479171E-10 -2.194416E-09
       480  18  3.413448E+04  1.536155E+04  1.178819E+04  2.861859E+04  6.349828E-08  2.239403E-09
       480  19 -4.446601E+04 -3.226937E+03 -2.126317E+03  2.849071E+04  3.818288E+03 -1.004595E+03
       480  20 -6.959350E+04 -9.039598E+03 -6.042516E+03  2.590083E+04  3.455452E+03 -2.697106E+03
       480  21 -9.477052E+04 -1.481643E+04 -1.018941E+04  2.832436E+04  3.092316E+03 -4.096893E+03
       480  22 -3.031941E+04  5.769443E+01  1.499000E+02  2.847169E+04  2.886299E+02 -1.008147E+03
       480  23 -3.034344E+04  9.847143E+01  3.948772E+02  2.596488E+04  4.878480E+02 -2.700054E+03
       480  24 -3.032007E+04  2.726777E+02  7.994661E+02  2.847147E+04  6.867520E+02 -4.099246E+03
       480  25 -1.617259E+04  3.342323E+03  2.426159E+03  2.845266E+04 -3.241106E+03 -1.011699E+03
       480  26  8.908155E+03  9.236467E+03  6.832259E+03  2.602894E+04 -2.479937E+03 -2.703002E+03
       480  27  3.413448E+04  1.536157E+04  1.178823E+04  2.861860E+04 -1.719053E+03 -4.101600E+03
       481   1 -1.108143E+05 -1.862485E+04 -1.286637E+04  2.846395E+04 -3.379446E+03  4.965348E+03
       481   2 -1.357818E+05 -2.405439E+04 -1.834688E+04  2.477400E+04  1.452133E+03  4.773140E+03
       481   3 -1.611538E+05 -2.854917E+04 -2.674150E+04  2.588805E+04  6.286174E+03  1.525998E+03
       481   4 -3.019489E+04  2.893439E+02  1.079243E+03  2.842527E+04 -8.253916E+02  4.967813E+03
       481   5 -3.050207E+04  1.078079E+03  2.011500E+03  2.602163E+04 -1.858306E+03  4.769869E+03
       481   6 -3.019656E+04  3.819643E+03  4.102496E+03  2.842188E+04 -2.888471E+03  1.517250E+03
       481   7  5.043090E+04  1.920319E+04  1.502465E+04  2.838659E+04  1.728984E+03  4.970278E+03
       481   8  7.478832E+04  2.620990E+04  2.236940E+04  2.726948E+04 -5.169293E+03  4.766585E+03
       481   9  1.007767E+05  3.618730E+04  3.494564E+04  3.095624E+04 -1.206504E+04  1.508428E+03
       481  10 -1.108143E+05 -1.862487E+04 -1.286643E+04  2.846396E+04 -3.008434E-10  6.113285E-10
       481  11 -1.357818E+05 -2.405442E+04 -1.834693E+04  2.477400E+04 -3.045326E-10 -2.735043E-10
       481  12 -1.611539E+05 -2.854919E+04 -2.674158E+04  2.588804E+04  1.156198E-09  2.784403E-09
       481  13 -3.019490E+04  2.893172E+02  1.079196E+03  2.842528E+04  2.331782E-10  8.788267E-10
       481  14 -3.050207E+04  1.078053E+03  2.011451E+03  2.602164E+04  3.152069E-10 -8.160725E-10
       481  15 -3.019657E+04  3.819638E+03  4.102476E+03  2.842188E+04 -3.842190E-11  4.465810E-10
       481  16  5.043089E+04  1.920316E+04  1.502460E+04  2.838659E+04  2.692883E-11  1.472946E-09
       481  17  7.478829E+04  2.620987E+04  2.236931E+04  2.726950E+04 -3.838471E-10  2.117223E-09
       481  18  1.007765E+05  3.618726E+04  3.494536E+04  3.095626E+04 -1.188217E-09  1.474211E-10
       481  19 -1.108143E+05 -1.862485E+04 -1.286637E+04  2.846395E+04  3.379446E+03 -4.965348E+03
       481  20 -1.357818E+05 -2.405439E+04 -1.834688E+04  2.477400E+04 -1.452133E+03 -4.773140E+03
       481  21 -1.611538E+05 -2.854917E+04 -2.674150E+04  2.588805E+04 -6.286174E+03 -1.525998E+03
       481  22 -3.019489E+04  2.893439E+02  1.079243E+03  2.842527E+04  8.253916E+02 -4.967813E+03
       481  23 -3.050207E+04  1.078079E+03  2.011500E+03  2.602163E+04  1.858306E+03 -4.769869E+03
       481  24 -3.019656E+04  3.819643E+03  4.102496E+03  2.842188E+04  2.888471E+03 -1.517250E+03
       481  25  5.043090E+04  1.920319E+04  1.502465E+04  2.838659E+04 -1.728984E+03 -4.970278E+03
       481  26  7.478832E+04  2.620990E+04  2.236940E+04  2.726948E+04  5.169293E+03 -4.766585E+03
       481  27  1.007767E+05  3.618730E+04  3.494564E+04  3.095624E+04  1.206504E+04 -1.508428E+03
       482   1 -6.900729E+04 -3.211622E+05 -6.890032E+04  8.128381E+04 -1.834516E+03 -2.664516E+04
       482   2 -3.791124E+04 -2.589523E+05 -3.817006E+04  6.846348E+04 -5.229228E+03 -1.195865E+04
       482   3 -1.910185E+04 -2.016966E+05 -2.007334E+04  6.723745E+04 -3.988884E+03  2.733850E+03
       482   4 -2.088466E+04 -1.269776E+05 -2.265468E+04  6.768997E+04 -1.842582E+03 -1.570576E+04
       482   5 -5.779419E+03 -1.252683E+05 -1.128667E+04  6.190039E+04 -5.230602E+03 -9.913764E+03
       482   6 -1.414597E+03 -1.269711E+05 -6.372099E+03  6.770575E+04 -3.983694E+03 -4.117397E+03
       482   7  2.723600E+04  6.724225E+04  2.358887E+04  5.409186E+04 -1.851126E+03 -4.762950E+03
       482   8  2.635147E+04  8.432886E+03  1.559584E+04  5.533586E+04 -5.232020E+03 -7.868444E+03
       482   9  1.627237E+04 -5.224015E+04  7.329088E+03  6.817411E+04 -3.978515E+03 -1.096945E+04
       482  10 -6.900749E+04 -3.211630E+05 -6.890166E+04  8.128377E+04 -6.280646E-11  9.303852E-10
       482  11 -3.791131E+04 -2.589525E+05 -3.817038E+04  6.846343E+04  6.132500E-11  7.616211E-10
       482  12 -1.910187E+04 -2.016966E+05 -2.007338E+04  6.723746E+04  9.834193E-10  1.395347E-09
       482  13 -2.088473E+04 -1.269779E+05 -2.265515E+04  6.768994E+04  4.810534E-10  5.591621E-10
       482  14 -5.779475E+03 -1.252684E+05 -1.128691E+04  6.190035E+04 -8.234097E-10  4.948677E-10
       482  15 -1.414619E+03 -1.269712E+05 -6.372161E+03  6.770574E+04  1.787975E-10  1.202289E-09
       482  16  2.723599E+04  6.724223E+04  2.358882E+04  5.409185E+04  2.052523E-10  1.556727E-09
       482  17  2.635142E+04  8.432812E+03  1.559567E+04  5.533583E+04  2.789783E-10  8.579222E-10
       482  18  1.627232E+04 -5.224029E+04  7.328833E+03  6.817407E+04 -4.648491E-10 -2.156716E-09
       482  19 -6.900729E+04 -3.211622E+05 -6.890032E+04  8.128381E+04  1.834516E+03  2.664516E+04
       482  20 -3.791124E+04 -2.589523E+05 -3.817006E+04  6.846348E+04  5.229228E+03  1.195865E+04
       482  21 -1.910185E+04 -2.016966E+05 -2.007334E+04  6.723745E+04  3.988884E+03 -2.733850E+03
       482  22 -2.088466E+04 -1.269776E+05 -2.265468E+04  6.768997E+04  1.842582E+03  1.570576E+04
       482  23 -5.779419E+03 -1.252683E+05 -1.128667E+04  6.190039E+04  5.230602E+03  9.913764E+03
       482  24 -1.414597E+03 -1.269711E+05 -6.372099E+03  6.770575E+04  3.983694E+03  4.117397E+03
       482  25  2.723600E+04  6.724225E+04  2.358887E+04  5.409186E+04  1.851126E+03  4.762950E+03
       482  26  2.635147E+04  8.432886E+03  1.559584E+04  5.533586E+04  5.232020E+03  7.868444E+03
       482  27  1.627237E+04 -5.224015E+04  7.329088E+03  6.817411E+04  3.978515E+03  1.096945E+04
       483   1 -9.995112E+03 -1.627554E+05 -1.192705E+04  6.839824E+04 -1.741865E+03  3.380772E+03
       483   2  4.956111E+03 -1.028436E+05  4.937761E+02  6.195749E+04  1.667005E+03  4.790282E+03
       483   3  1.900001E+04 -4.331199E+04  1.177683E+04  6.740019E+04  4.967287E+03  6.199878E+03
       483   4 -1.314767E+03 -1.263054E+05 -4.986955E+03  6.776808E+04 -1.736899E+03 -3.269445E+03
       483   5 -4.398152E+02 -1.260960E+05 -3.231786E+03  6.182664E+04  1.671869E+03 -1.651705E+03
       483   6 -5.081692E+02 -1.263063E+05 -2.758976E+03  6.776871E+04  4.972045E+03 -3.400480E+01
       483   7  7.365525E+03 -8.985411E+04  1.953246E+03  6.713789E+04 -1.731920E+03 -9.920043E+03
       483   8 -5.835746E+03 -1.493477E+05 -6.957206E+03  6.169579E+04  1.676737E+03 -8.093459E+03
       483   9 -2.001671E+04 -2.092937E+05 -1.729488E+04  6.813719E+04  4.976797E+03 -6.267079E+03
       483  10 -9.995118E+03 -1.627554E+05 -1.192708E+04  6.839824E+04  4.079461E-10  1.380020E-10
       483  11  4.956102E+03 -1.028437E+05  4.937277E+02  6.195749E+04  7.167633E-11  2.731478E-11
       483  12  1.899998E+04 -4.331204E+04  1.177671E+04  6.740016E+04  2.006985E-10 -4.385736E-10
       483  13 -1.314773E+03 -1.263054E+05 -4.986981E+03  6.776808E+04  3.047996E-10 -6.262727E-12
       483  14 -4.398189E+02 -1.260960E+05 -3.231796E+03  6.182664E+04  8.087157E-10  1.381247E-09
       483  15 -5.081958E+02 -1.263063E+05 -2.759023E+03  6.776871E+04  4.024345E-10  3.277754E-11
       483  16  7.365496E+03 -8.985422E+04  1.953055E+03  6.713787E+04 -5.603490E-10  1.438376E-09
       483  17 -5.835767E+03 -1.493478E+05 -6.957335E+03  6.169580E+04 -6.116107E-10  6.167994E-10
       483  18 -2.001674E+04 -2.092938E+05 -1.729500E+04  6.813721E+04 -8.662933E-10 -1.600237E-09
       483  19 -9.995112E+03 -1.627554E+05 -1.192705E+04  6.839824E+04  1.741865E+03 -3.380772E+03
       483  20  4.956111E+03 -1.028436E+05  4.937761E+02  6.195749E+04 -1.667005E+03 -4.790282E+03
       483  21  1.900001E+04 -4.331199E+04  1.177683E+04  6.740019E+04 -4.967287E+03 -6.199878E+03
       483  22 -1.314767E+03 -1.263054E+05 -4.986955E+03  6.776808E+04  1.736899E+03  3.269445E+03
       483  23 -4.398152E+02 -1.260960E+05 -3.231786E+03  6.182664E+04 -1.671869E+03  1.651705E+03
       483  24 -5.081692E+02 -1.263063E+05 -2.758976E+03  6.776871E+04 -4.972045E+03  3.400480E+01
       483  25  7.365525E+03 -8.985411E+04  1.953246E+03  6.713789E+04  1.731920E+03  9.920043E+03
       483  26 -5.835746E+03 -1.493477E+05 -6.957206E+03  6.169579E+04 -1.676737E+03  8.093459E+03
       483  27 -2.001671E+04 -2.092937E+05 -1.729488E+04  6.813719E+04 -4.976797E+03  6.267079E+03
       484   1  2.800461E+04 -5.124860E+03  1.856192E+04  6.772141E+04  7.130779E+03  6.900672E+03
       484   2  4.127510E+04  5.421799E+04  3.155757E+04  5.977216E+04  7.683014E+03 -2.000959E+03
       484   3  5.309205E+04  1.143886E+05  4.999079E+04  6.334380E+04  2.565449E+03 -1.090873E+04
       484   4 -5.449429E+02 -1.264511E+05 -2.851830E+03  6.768866E+04  7.135854E+03  4.099879E+02
       484   5 -1.845418E+03 -1.259223E+05 -3.878257E+03  6.192559E+04  7.679687E+03  2.395149E+03
       484   6 -6.489490E+03 -1.264585E+05 -7.027474E+03  6.768376E+04  2.552902E+03  4.374876E+03
       484   7 -2.909528E+04 -2.477629E+05 -2.426596E+04  6.765592E+04  7.140930E+03 -6.079465E+03
       484   8 -4.496788E+04 -3.060314E+05 -3.931559E+04  6.407838E+04  7.676390E+03  6.790008E+03
       484   9 -6.607500E+04 -3.672518E+05 -6.404888E+04  7.202204E+04  2.540565E+03  1.965258E+04
       484  10  2.800454E+04 -5.124925E+03  1.856173E+04  6.772137E+04  6.112891E-10  1.250689E-09
       484  11  4.127504E+04  5.421797E+04  3.155745E+04  5.977217E+04  3.167876E-10  1.453728E-09
       484  12  5.309201E+04  1.143884E+05  4.999056E+04  6.334382E+04 -1.515150E-10  4.376876E-10
       484  13 -5.449976E+02 -1.264511E+05 -2.851926E+03  6.768866E+04 -6.195605E-10 -2.703048E-11
       484  14 -1.845483E+03 -1.259223E+05 -3.878379E+03  6.192557E+04  1.085669E-09 -5.164888E-10
       484  15 -6.489503E+03 -1.264585E+05 -7.027522E+03  6.768375E+04  1.938885E-10  1.399638E-09
       484  16 -2.909534E+04 -2.477629E+05 -2.426613E+04  6.765595E+04 -2.612958E-10 -4.205916E-10
       484  17 -4.496795E+04 -3.060315E+05 -3.931578E+04  6.407834E+04  1.009746E-09  1.069416E-09
       484  18 -6.607511E+04 -3.672522E+05 -6.404962E+04  7.202200E+04  5.993350E-11 -1.063068E-09
       484  19  2.800461E+04 -5.124860E+03  1.856192E+04  6.772141E+04 -7.130779E+03 -6.900672E+03
       484  20  4.127510E+04  5.421799E+04  3.155757E+04  5.977216E+04 -7.683014E+03  2.000959E+03
       484  21  5.309205E+04  1.143886E+05  4.999079E+04  6.334380E+04 -2.565449E+03  1.090873E+04
       484  22 -5.449429E+02 -1.264511E+05 -2.851830E+03  6.768866E+04 -7.135854E+03 -4.099879E+02
       484  23 -1.845418E+03 -1.259223E+05 -3.878257E+03  6.192559E+04 -7.679687E+03 -2.395149E+03
       484  24 -6.489490E+03 -1.264585E+05 -7.027474E+03  6.768376E+04 -2.552902E+03 -4.374876E+03
       484  25 -2.909528E+04 -2.477629E+05 -2.426596E+04  6.765592E+04 -7.140930E+03  6.079465E+03
       484  26 -4.496788E+04 -3.060314E+05 -3.931559E+04  6.407838E+04 -7.676390E+03 -6.790008E+03
       484  27 -6.607500E+04 -3.672518E+05 -6.404888E+04  7.202204E+04 -2.540565E+03 -1.965258E+04
       485   1  6.649713E+04  7.455771E+04  2.849888E+04  4.696806E+04  1.519528E+04  1.122507E+04
       485   2  6.569030E+04  5.431167E+04  1.468398E+04  5.151118E+04  9.775567E+03  6.708607E+03
       485   3  7.158216E+04  4.358818E+04  8.516753E+03  5.216091E+04  4.190497E+03  2.412019E+03
       485   4  7.241110E+04  5.363927E+04  2.568416E+04  3.836293E+04  1.444008E+04  1.065701E+04
       485   5  6.511988E+04  4.186095E+04  1.269140E+04  4.561725E+04  9.442274E+03  6.457982E+03
       485   6  6.443553E+04  3.951351E+04  6.979628E+03  4.897817E+04  4.279308E+03  2.478760E+03
       485   7  7.832561E+04  3.272149E+04  2.286950E+04  2.975761E+04  1.368485E+04  1.008898E+04
       485   8  6.454956E+04  2.941057E+04  1.069885E+04  3.972337E+04  9.108979E+03  6.207369E+03
       485   9  5.728911E+04  3.543895E+04  5.442548E+03  4.579554E+04  4.368116E+03  2.545498E+03
       485  10  6.649685E+04  7.455752E+04  2.849821E+04  4.696792E+04  8.425615E-10 -7.855145E-11
       485  11  6.569019E+04  5.431160E+04  1.468372E+04  5.151112E+04  4.595550E-10 -2.303639E-09
       485  12  7.158214E+04  4.358817E+04  8.516709E+03  5.216090E+04 -2.981398E-10 -9.907628E-10
       485  13  7.241084E+04  5.363910E+04  2.568355E+04  3.836281E+04  3.250759E-10 -3.209734E-09
       485  14  6.511978E+04  4.186089E+04  1.269116E+04  4.561720E+04  4.486418E-10  3.882466E-09
       485  15  6.443551E+04  3.951350E+04  6.979582E+03  4.897816E+04  2.966923E-10 -1.061437E-09
       485  16  7.832538E+04  3.272133E+04  2.286896E+04  2.975750E+04 -8.113510E-10 -4.561867E-10
       485  17  6.454946E+04  2.941050E+04  1.069862E+04  3.972333E+04  3.371484E-10 -7.395996E-10
       485  18  5.728909E+04  3.543894E+04  5.442500E+03  4.579553E+04  9.229756E-10  5.281575E-10
       485  19  6.649713E+04  7.455771E+04  2.849888E+04  4.696806E+04 -1.519528E+04 -1.122507E+04
       485  20  6.569030E+04  5.431167E+04  1.468398E+04  5.151118E+04 -9.775567E+03 -6.708607E+03
       485  21  7.158216E+04  4.358818E+04  8.516753E+03  5.216091E+04 -4.190497E+03 -2.412019E+03
       485  22  7.241110E+04  5.363927E+04  2.568416E+04  3.836293E+04 -1.444008E+04 -1.065701E+04
       485  23  6.511988E+04  4.186095E+04  1.269140E+04  4.561725E+04 -9.442274E+03 -6.457982E+03
       485  24  6.443553E+04  3.951351E+04  6.979628E+03  4.897817E+04 -4.279308E+03 -2.478760E+03
       485  25  7.832561E+04  3.272149E+04  2.286950E+04  2.975761E+04 -1.368485E+04 -1.008898E+04
       485  26  6.454956E+04  2.941057E+04  1.069885E+04  3.972337E+04 -9.108979E+03 -6.207369E+03
       485  27  5.728911E+04  3.543895E+04  5.442548E+03  4.579554E+04 -4.368116E+03 -2.545498E+03
       486   1  6.915919E+04  4.394790E+04  6.666730E+03  5.184274E+04  3.448006E+03  1.906699E+03
       486   2  6.809265E+04  4.192162E+04  4.100620E+03  5.157324E+04  2.152876E+03  1.015187E+03
       486   3  6.730047E+04  4.084338E+04  2.760731E+03  5.118988E+04  8.403572E+02  1.468191E+02
       486   4  6.389563E+04  3.916621E+04  5.314318E+03  4.866095E+04  3.526020E+03  1.965315E+03
       486   5  6.352262E+04  3.827075E+04  3.034670E+03  4.903824E+04  2.275353E+03  1.107219E+03
       486   6  6.341432E+04  3.831371E+04  1.942649E+03  4.930167E+04  1.007283E+03  2.722545E+02
       486   7  5.863210E+04  3.438455E+04  3.961902E+03  4.547921E+04  3.604034E+03  2.023931E+03
       486   8  5.895256E+04  3.461987E+04  1.968702E+03  4.650324E+04  2.397830E+03  1.199251E+03
       486   9  5.952811E+04  3.578399E+04  1.124538E+03  4.741343E+04  1.174210E+03  3.976915E+02
       486  10  6.915918E+04  4.394789E+04  6.666701E+03  5.184273E+04 -2.201129E-09 -3.825759E-09
       486  11  6.809264E+04  4.192161E+04  4.100609E+03  5.157324E+04 -1.071123E-09 -6.341902E-10
       486  12  6.730047E+04  4.084338E+04  2.760730E+03  5.118988E+04  1.690326E-09  2.793490E-09
       486  13  6.389561E+04  3.916621E+04  5.314287E+03  4.866095E+04  5.789521E-10 -2.566843E-09
       486  14  6.352261E+04  3.827075E+04  3.034658E+03  4.903824E+04 -8.009038E-10 -3.209454E-09
       486  15  6.341432E+04  3.831371E+04  1.942647E+03  4.930167E+04 -7.675241E-10  3.373333E-10
       486  16  5.863208E+04  3.438455E+04  3.961870E+03  4.547920E+04  2.483965E-09  2.003823E-09
       486  17  5.895255E+04  3.461986E+04  1.968688E+03  4.650324E+04  1.009203E-10 -6.130870E-11
       486  18  5.952811E+04  3.578399E+04  1.124535E+03  4.741343E+04 -2.060083E-09 -3.287056E-09
       486  19  6.915919E+04  4.394790E+04  6.666730E+03  5.184274E+04 -3.448006E+03 -1.906699E+03
       486  20  6.809265E+04  4.192162E+04  4.100620E+03  5.157324E+04 -2.152876E+03 -1.015187E+03
       486  21  6.730047E+04  4.084338E+04  2.760731E+03  5.118988E+04 -8.403572E+02 -1.468191E+02
       486  22  6.389563E+04  3.916621E+04  5.314318E+03  4.866095E+04 -3.526020E+03 -1.965315E+03
       486  23  6.352262E+04  3.827075E+04  3.034670E+03  4.903824E+04 -2.275353E+03 -1.107219E+03
       486  24  6.341432E+04  3.831371E+04  1.942649E+03  4.930167E+04 -1.007283E+03 -2.722545E+02
       486  25  5.863210E+04  3.438455E+04  3.961902E+03  4.547921E+04 -3.604034E+03 -2.023931E+03
       486  26  5.895256E+04  3.461987E+04  1.968702E+03  4.650324E+04 -2.397830E+03 -1.199251E+03
       486  27  5.952811E+04  3.578399E+04  1.124538E+03  4.741343E+04 -1.174210E+03 -3.976915E+02
       487   1  6.647306E+04  4.045801E+04  2.321054E+03  5.084802E+04  5.521907E+02  1.064161E+01
       487   2  6.548387E+04  3.952963E+04  1.882826E+03  5.026471E+04 -8.909215E+01 -3.352387E+02
       487   3  6.432772E+04  3.899448E+04  1.940076E+03  4.977001E+04 -7.311961E+02 -6.799962E+02
       487   4  6.337466E+04  3.829233E+04  1.656200E+03  4.927156E+04  7.180364E+02  1.352656E+02
       487   5  6.345925E+04  3.809748E+04  1.448921E+03  4.922613E+04  7.889090E+01 -2.090096E+02
       487   6  6.337640E+04  3.829538E+04  1.735262E+03  4.926929E+04 -5.610831E+02 -5.521666E+02
       487   7  6.027634E+04  3.612670E+04  9.913682E+02  4.769514E+04  8.838777E+02  2.598861E+02
       487   8  6.143466E+04  3.666535E+04  1.015024E+03  4.818757E+04  2.468714E+02 -8.278228E+01
       487   9  6.242507E+04  3.759629E+04  1.530448E+03  4.876858E+04 -3.909707E+02 -4.243375E+02
       487  10  6.647306E+04  4.045801E+04  2.321053E+03  5.084802E+04  3.304811E-09  3.986731E-09
       487  11  6.548387E+04  3.952963E+04  1.882826E+03  5.026471E+04  1.013826E-09 -2.649145E-09
       487  12  6.432772E+04  3.899448E+04  1.940074E+03  4.977001E+04 -3.530403E-09 -3.202196E-10
       487  13  6.337466E+04  3.829233E+04  1.656199E+03  4.927156E+04  1.139790E-09  2.460347E-09
       487  14  6.345925E+04  3.809748E+04  1.448921E+03  4.922613E+04  1.727490E-10  2.949728E-10
       487  15  6.337640E+04  3.829538E+04  1.735261E+03  4.926929E+04 -8.936097E-10  2.361164E-09
       487  16  6.027634E+04  3.612670E+04  9.913666E+02  4.769514E+04 -3.065146E-09 -3.171902E-09
       487  17  6.143466E+04  3.666535E+04  1.015024E+03  4.818757E+04  5.151704E-10 -1.431426E-09
       487  18  6.242507E+04  3.759629E+04  1.530447E+03  4.876858E+04  1.915525E-09  4.298866E-09
       487  19  6.647306E+04  4.045801E+04  2.321054E+03  5.084802E+04 -5.521907E+02 -1.064161E+01
       487  20  6.548387E+04  3.952963E+04  1.882826E+03  5.026471E+04  8.909215E+01  3.352387E+02
       487  21  6.432772E+04  3.899448E+04  1.940076E+03  4.977001E+04  7.311961E+02  6.799962E+02
       487  22  6.337466E+04  3.829233E+04  1.656200E+03  4.927156E+04 -7.180364E+02 -1.352656E+02
       487  23  6.345925E+04  3.809748E+04  1.448921E+03  4.922613E+04 -7.889090E+01  2.090096E+02
       487  24  6.337640E+04  3.829538E+04  1.735262E+03  4.926929E+04  5.610831E+02  5.521666E+02
       487  25  6.027634E+04  3.612670E+04  9.913682E+02  4.769514E+04 -8.838777E+02 -2.598861E+02
       487  26  6.143466E+04  3.666535E+04  1.015024E+03  4.818757E+04 -2.468714E+02  8.278228E+01
       487  27  6.242507E+04  3.759629E+04  1.530448E+03  4.876858E+04  3.909707E+02  4.243375E+02
       488   1  6.357590E+04  3.866296E+04  2.121291E+03  4.949486E+04 -1.035549E+03 -8.270035E+02
       488   2  6.303544E+04  3.747104E+04  3.106785E+03  4.855150E+04 -2.387315E+03 -1.713575E+03
       488   3  6.280399E+04  3.727480E+04  5.361391E+03  4.747499E+04 -3.729680E+03 -2.612710E+03
       488   4  6.342063E+04  3.831930E+04  2.068375E+03  4.930360E+04 -8.649302E+02 -6.987929E+02
       488   5  6.352693E+04  3.828540E+04  3.290834E+03  4.901953E+04 -2.240802E+03 -1.603480E+03
       488   6  6.394748E+04  3.925244E+04  5.803357E+03  4.860232E+04 -3.607248E+03 -2.520716E+03
       488   7  6.326535E+04  3.797563E+04  2.015457E+03  4.911234E+04 -6.943080E+02 -5.705800E+02
       488   8  6.401841E+04  3.909976E+04  3.474883E+03  4.948755E+04 -2.094289E+03 -1.493385E+03
       488   9  6.509095E+04  4.123005E+04  6.245311E+03  4.972962E+04 -3.484818E+03 -2.428723E+03
       488  10  6.357590E+04  3.866296E+04  2.121288E+03  4.949486E+04  3.023425E-09  4.092799E-09
       488  11  6.303544E+04  3.747103E+04  3.106769E+03  4.855150E+04 -1.106518E-10 -1.062549E-09
       488  12  6.280397E+04  3.727479E+04  5.361352E+03  4.747499E+04 -2.704439E-09 -1.095677E-09
       488  13  6.342063E+04  3.831930E+04  2.068372E+03  4.930360E+04 -4.615284E-10  9.064886E-10
       488  14  6.352692E+04  3.828540E+04  3.290820E+03  4.901952E+04 -7.021235E-10 -2.898577E-09
       488  15  6.394747E+04  3.925243E+04  5.803321E+03  4.860231E+04  1.176879E-11 -3.599754E-09
       488  16  6.326535E+04  3.797563E+04  2.015455E+03  4.911234E+04 -4.293769E-09 -1.959382E-10
       488  17  6.401841E+04  3.909976E+04  3.474871E+03  4.948755E+04  3.332493E-10 -3.373616E-09
       488  18  6.509094E+04  4.123004E+04  6.245277E+03  4.972961E+04  2.224082E-09 -1.280854E-09
       488  19  6.357590E+04  3.866296E+04  2.121291E+03  4.949486E+04  1.035549E+03  8.270035E+02
       488  20  6.303544E+04  3.747104E+04  3.106785E+03  4.855150E+04  2.387315E+03  1.713575E+03
       488  21  6.280399E+04  3.727480E+04  5.361391E+03  4.747499E+04  3.729680E+03  2.612710E+03
       488  22  6.342063E+04  3.831930E+04  2.068375E+03  4.930360E+04  8.649302E+02  6.987929E+02
       488  23  6.352693E+04  3.828540E+04  3.290834E+03  4.901953E+04  2.240802E+03  1.603480E+03
       488  24  6.394748E+04  3.925244E+04  5.803357E+03  4.860232E+04  3.607248E+03  2.520716E+03
       488  25  6.326535E+04  3.797563E+04  2.015457E+03  4.911234E+04  6.943080E+02  5.705800E+02
       488  26  6.401841E+04  3.909976E+04  3.474883E+03  4.948755E+04  2.094289E+03  1.493385E+03
       488  27  6.509095E+04  4.123005E+04  6.245311E+03  4.972962E+04  3.484818E+03  2.428723E+03
       489   1  6.140302E+04  3.848403E+04  7.022091E+03  4.785683E+04 -4.562765E+03 -3.172110E+03
       489   2  6.944372E+04  3.196282E+04  1.293640E+04  4.123738E+04 -1.004188E+04 -7.279090E+03
       489   3  8.468831E+04  3.570738E+04  2.662403E+04  3.034756E+04 -1.543029E+04 -1.150677E+04
       489   4  6.453695E+04  3.963525E+04  7.632933E+03  4.895084E+04 -4.434485E+03 -3.075708E+03
       489   5  6.527886E+04  4.221474E+04  1.389799E+04  4.527121E+04 -1.014554E+04 -7.357188E+03
       489   6  7.327478E+04  5.511022E+04  2.813780E+04  3.732119E+04 -1.576585E+04 -1.175958E+04
       489   7  6.767089E+04  4.078648E+04  8.243775E+03  5.004486E+04 -4.306205E+03 -2.979307E+03
       489   8  6.111408E+04  5.246704E+04  1.485962E+04  4.930506E+04 -1.024920E+04 -7.435291E+03
       489   9  6.186164E+04  7.451453E+04  2.965176E+04  4.429482E+04 -1.610142E+04 -1.201241E+04
       489  10  6.140300E+04  3.848401E+04  7.022033E+03  4.785681E+04 -3.265399E-09 -3.392502E-10
       489  11  6.944360E+04  3.196274E+04  1.293611E+04  4.123733E+04 -1.127505E-10  1.523042E-09
       489  12  8.468802E+04  3.570717E+04  2.662333E+04  3.034742E+04  2.330342E-09  1.084975E-09
       489  13  6.453692E+04  3.963524E+04  7.632878E+03  4.895083E+04  2.005532E-10 -3.438736E-10
       489  14  6.527873E+04  4.221465E+04  1.389769E+04  4.527115E+04 -7.409990E-10 -2.253565E-10
       489  15  7.327448E+04  5.511000E+04  2.813708E+04  3.732104E+04 -7.775272E-10 -3.761946E-10
       489  16  6.767086E+04  4.078647E+04  8.243723E+03  5.004485E+04  2.088040E-09  7.443951E-10
       489  17  6.111395E+04  5.246695E+04  1.485931E+04  4.930499E+04 -1.274831E-09  2.031292E-09
       489  18  6.186133E+04  7.451430E+04  2.965101E+04  4.429466E+04 -4.190778E-09 -1.546868E-09
       489  19  6.140302E+04  3.848403E+04  7.022091E+03  4.785683E+04  4.562765E+03  3.172110E+03
       489  20  6.944372E+04  3.196282E+04  1.293640E+04  4.123738E+04  1.004188E+04  7.279090E+03
       489  21  8.468831E+04  3.570738E+04  2.662403E+04  3.034756E+04  1.543029E+04  1.150677E+04
       489  22  6.453695E+04  3.963525E+04  7.632933E+03  4.895084E+04  4.434485E+03  3.075708E+03
       489  23  6.527886E+04  4.221474E+04  1.389799E+04  4.527121E+04  1.014554E+04  7.357188E+03
       489  24  7.327478E+04  5.511022E+04  2.813780E+04  3.732119E+04  1.576585E+04  1.175958E+04
       489  25  6.767089E+04  4.078648E+04  8.243775E+03  5.004486E+04  4.306205E+03  2.979307E+03
       489  26  6.111408E+04  5.246704E+04  1.485962E+04  4.930506E+04  1.024920E+04  7.435291E+03
       489  27  6.186164E+04  7.451453E+04  2.965176E+04  4.429482E+04  1.610142E+04  1.201241E+04
       490   1 -2.939177E+04 -1.756285E+05 -2.910531E+04  3.691337E+04 -8.554174E+02 -9.946707E+03
       490   2 -1.687869E+04 -1.460541E+05 -1.639115E+04  3.186321E+04 -2.418720E+03 -3.799874E+03
       490   3 -8.570244E+03 -1.183177E+05 -8.729199E+03  3.237876E+04 -1.797344E+03  2.349329E+03
       490   4 -6.738436E+03 -8.420264E+04 -7.323232E+03  3.249468E+04 -8.596391E+02 -4.859166E+03
       490   5 -1.875710E+03 -8.364652E+04 -3.813603E+03  2.971444E+04 -2.419437E+03 -2.905768E+03
       490   6 -4.892533E+02 -8.420121E+04 -2.443392E+03  3.250001E+04 -1.794612E+03 -9.503577E+02
       490   7  1.591439E+04  7.230940E+03  1.445837E+04  2.807533E+04 -8.639329E+02  2.291212E+02
       490   8  1.312705E+04 -2.123525E+04  8.763746E+03  2.756546E+04 -2.420160E+03 -2.011574E+03
       490   9  7.591677E+03 -5.008356E+04  3.842408E+03  3.262128E+04 -1.791881E+03 -4.250221E+03
       490  10 -2.939180E+04 -1.756286E+05 -2.910550E+04  3.691336E+04  4.329474E-10  2.760679E-09
       490  11 -1.687870E+04 -1.460541E+05 -1.639119E+04  3.186320E+04  6.542823E-10  1.445456E-09
       490  12 -8.570249E+03 -1.183177E+05 -8.729215E+03  3.237876E+04  2.315746E-10  5.008471E-10
       490  13 -6.738443E+03 -8.420267E+04 -7.323278E+03  3.249467E+04  7.261111E-10  1.788327E-11
       490  14 -1.875718E+03 -8.364653E+04 -3.813630E+03  2.971444E+04 -4.448571E-10  2.693786E-10
       490  15 -4.892570E+02 -8.420122E+04 -2.443399E+03  3.250001E+04  1.696418E-10 -2.807742E-09
       490  16  1.591438E+04  7.230940E+03  1.445837E+04  2.807533E+04 -1.324907E-10  9.506664E-10
       490  17  1.312704E+04 -2.123525E+04  8.763727E+03  2.756545E+04 -3.063346E-10  1.400891E-09
       490  18  7.591668E+03 -5.008358E+04  3.842368E+03  3.262127E+04 -4.967456E-10 -9.262552E-10
       490  19 -2.939177E+04 -1.756285E+05 -2.910531E+04  3.691337E+04  8.554174E+02  9.946707E+03
       490  20 -1.687869E+04 -1.460541E+05 -1.639115E+04  3.186321E+04  2.418720E+03  3.799874E+03
       490  21 -8.570244E+03 -1.183177E+05 -8.729199E+03  3.237876E+04  1.797344E+03 -2.349329E+03
       490  22 -6.738436E+03 -8.420264E+04 -7.323232E+03  3.249468E+04  8.596391E+02  4.859166E+03
       490  23 -1.875710E+03 -8.364652E+04 -3.813603E+03  2.971444E+04  2.419437E+03  2.905768E+03
       490  24 -4.892533E+02 -8.420121E+04 -2.443392E+03  3.250001E+04  1.794612E+03  9.503577E+02
       490  25  1.591439E+04  7.230940E+03  1.445837E+04  2.807533E+04  8.639329E+02 -2.291212E+02
       490  26  1.312705E+04 -2.123525E+04  8.763746E+03  2.756546E+04  2.420160E+03  2.011574E+03
       490  27  7.591677E+03 -5.008356E+04  3.842408E+03  3.262128E+04  1.791881E+03  4.250221E+03
       491   1 -4.217233E+03 -9.977152E+04 -5.190146E+03  3.279256E+04 -7.164874E+02  2.608380E+03
       491   2  2.725552E+03 -7.100219E+04  4.256538E+01  2.963448E+04  9.223654E+02  3.504291E+03
       491   3  9.101124E+03 -4.247761E+04  4.553569E+03  3.217642E+04  2.501106E+03  4.400201E+03
       491   4 -4.552953E+02 -8.401323E+04 -2.142982E+03  3.252931E+04 -7.138492E+02 -5.970020E+02
       491   5 -2.630941E+02 -8.388056E+04 -2.020773E+03  2.967921E+04  9.249239E+02  4.142407E+02
       491   6 -6.581049E+02 -8.401349E+04 -2.700395E+03  3.252914E+04  2.503583E+03  1.425444E+03
       491   7  3.306633E+03 -6.825468E+04  9.042096E+02  3.226605E+04 -7.112082E+02 -3.802464E+03
       491   8 -3.251743E+03 -9.675875E+04 -4.084079E+03  2.972393E+04  9.274819E+02 -2.675748E+03
       491   9 -1.041742E+04 -1.255477E+05 -9.954387E+03  3.288184E+04  2.506057E+03 -1.549120E+03
       491  10 -4.217235E+03 -9.977153E+04 -5.190160E+03  3.279256E+04 -3.354594E-10  3.156855E-09
       491  11  2.725548E+03 -7.100220E+04  4.254071E+01  2.963448E+04  4.587482E-10  1.449277E-09
       491  12  9.101112E+03 -4.247763E+04  4.553521E+03  3.217641E+04 -1.329688E-09 -1.441046E-09
       491  13 -4.552960E+02 -8.401323E+04 -2.142983E+03  3.252931E+04 -9.324251E-11 -1.615370E-09
       491  14 -2.630951E+02 -8.388057E+04 -2.020775E+03  2.967921E+04  6.885240E-10  1.108373E-09
       491  15 -6.581122E+02 -8.401350E+04 -2.700410E+03  3.252914E+04  3.316748E-10 -3.259951E-09
       491  16  3.306629E+03 -6.825469E+04  9.041815E+02  3.226605E+04  3.203042E-10 -3.258675E-10
       491  17 -3.251746E+03 -9.675876E+04 -4.084094E+03  2.972393E+04  3.706247E-10 -9.409825E-11
       491  18 -1.041743E+04 -1.255477E+05 -9.954403E+03  3.288184E+04  2.912714E-10 -6.798884E-10
       491  19 -4.217233E+03 -9.977152E+04 -5.190146E+03  3.279256E+04  7.164874E+02 -2.608380E+03
       491  20  2.725552E+03 -7.100219E+04  4.256538E+01  2.963448E+04 -9.223654E+02 -3.504291E+03
       491  21  9.101124E+03 -4.247761E+04  4.553569E+03  3.217642E+04 -2.501106E+03 -4.400201E+03
       491  22 -4.552953E+02 -8.401323E+04 -2.142982E+03  3.252931E+04  7.138492E+02  5.970020E+02
       491  23 -2.630941E+02 -8.388056E+04 -2.020773E+03  2.967921E+04 -9.249239E+02 -4.142407E+02
       491  24 -6.581049E+02 -8.401349E+04 -2.700395E+03  3.252914E+04 -2.503583E+03 -1.425444E+03
       491  25  3.306633E+03 -6.825468E+04  9.042096E+02  3.226605E+04  7.112082E+02  3.802464E+03
       491  26 -3.251743E+03 -9.675875E+04 -4.084079E+03  2.972393E+04 -9.274819E+02  2.675748E+03
       491  27 -1.041742E+04 -1.255477E+05 -9.954387E+03  3.288184E+04 -2.506057E+03  1.549120E+03
       492   1  1.338833E+04 -2.440730E+04  7.233343E+03  3.269607E+04  3.535550E+03  4.979791E+03
       492   2  1.823318E+04  4.640434E+03  1.164760E+04  2.644788E+04  3.772891E+03  2.592865E+03
       492   3  1.867181E+04  3.291117E+04  1.651697E+04  2.572083E+04  1.252056E+03  2.033286E+02
       492   4 -7.083263E+02 -8.433193E+04 -3.324059E+03  3.249031E+04  3.538157E+03  1.879806E+03
       492   5 -2.862158E+03 -8.348441E+04 -5.667121E+03  2.972553E+04  3.771086E+03  4.788435E+03
       492   6 -1.034192E+04 -8.433398E+04 -1.123280E+04  3.248202E+04  1.245632E+03  7.694473E+03
       492   7 -1.480517E+04 -1.442530E+05 -1.388156E+04  3.228457E+04  3.540766E+03 -1.219889E+03
       492   8 -2.395793E+04 -1.716018E+05 -2.298220E+04  3.300270E+04  3.769303E+03  6.983701E+03
       492   9 -3.935643E+04 -2.015663E+05 -3.898329E+04  3.924193E+04  1.239370E+03  1.518421E+04
       492  10  1.338831E+04 -2.440733E+04  7.233273E+03  3.269606E+04 -5.568352E-10  6.185405E-09
       492  11  1.823317E+04  4.640423E+03  1.164756E+04  2.644787E+04  2.275008E-09  3.279956E-10
       492  12  1.867180E+04  3.291117E+04  1.651697E+04  2.572083E+04  7.912918E-10 -1.213312E-09
       492  13 -7.083407E+02 -8.433193E+04 -3.324090E+03  3.249031E+04 -5.247013E-10 -1.529446E-11
       492  14 -2.862179E+03 -8.348444E+04 -5.667190E+03  2.972551E+04  1.624738E-09  2.222825E-09
       492  15 -1.034193E+04 -8.433405E+04 -1.123291E+04  3.248201E+04  4.387507E-10 -4.351744E-09
       492  16 -1.480519E+04 -1.442530E+05 -1.388158E+04  3.228458E+04  2.600723E-10 -1.964267E-09
       492  17 -2.395795E+04 -1.716018E+05 -2.298232E+04  3.300268E+04  1.069858E-09 -3.854912E-10
       492  18 -3.935649E+04 -2.015665E+05 -3.898373E+04  3.924191E+04  1.543850E-10  8.608574E-10
       492  19  1.338833E+04 -2.440730E+04  7.233343E+03  3.269607E+04 -3.535550E+03 -4.979791E+03
       492  20  1.823318E+04  4.640434E+03  1.164760E+04  2.644788E+04 -3.772891E+03 -2.592865E+03
       492  21  1.867181E+04  3.291117E+04  1.651697E+04  2.572083E+04 -1.252056E+03 -2.033286E+02
       492  22 -7.083263E+02 -8.433193E+04 -3.324059E+03  3.249031E+04 -3.538157E+03 -1.879806E+03
       492  23 -2.862158E+03 -8.348441E+04 -5.667121E+03  2.972553E+04 -3.771086E+03 -4.788435E+03
       492  24 -1.034192E+04 -8.433398E+04 -1.123280E+04  3.248202E+04 -1.245632E+03 -7.694473E+03
       492  25 -1.480517E+04 -1.442530E+05 -1.388156E+04  3.228457E+04 -3.540766E+03  1.219889E+03
       492  26 -2.395793E+04 -1.716018E+05 -2.298220E+04  3.300270E+04 -3.769303E+03 -6.983701E+03
       492  27 -3.935643E+04 -2.015663E+05 -3.898329E+04  3.924193E+04 -1.239370E+03 -1.518421E+04
       493   1 -1.778079E+05  6.003519E+04  5.328497E+04  3.868329E+04  7.020109E+03 -4.377033E+03
       493   2 -2.262209E+05  6.392813E+04  4.250001E+04  4.286848E+04 -1.016876E+03 -1.422925E+04
       493   3 -2.762720E+05  5.701668E+04  3.424849E+04  5.628892E+04 -9.050312E+03 -1.605680E+04
       493   4 -5.268353E+05 -2.617385E+04 -2.853932E+04  5.573092E+04 -1.959134E+04 -4.370111E+03
       493   5 -5.246688E+05 -7.162309E+03 -1.435743E+04  5.111567E+04 -1.222586E+04 -1.422742E+04
       493   6 -5.268194E+05 -1.633450E+03 -8.343992E+03  5.573624E+04 -4.857140E+03 -1.605806E+04
       493   7 -8.757483E+05 -1.123901E+05 -1.103691E+05  7.276891E+04 -4.618791E+04 -4.364649E+03
       493   8 -8.230304E+05 -7.825766E+04 -7.121838E+04  5.935881E+04 -2.342957E+04 -1.422589E+04
       493   9 -7.773050E+05 -6.028690E+04 -5.093846E+04  5.518378E+04 -6.656072E+02 -1.605934E+04
       493  10 -1.778079E+05  6.003515E+04  5.328484E+04  3.868331E+04  9.293396E-11  1.651076E-11
       493  11 -2.262210E+05  6.392791E+04  4.249963E+04  4.286847E+04  1.610137E-10  2.847975E-11
       493  12 -2.762722E+05  5.701638E+04  3.424785E+04  5.628880E+04  1.741595E-10  1.795488E-11
       493  13 -5.268357E+05 -2.617397E+04 -2.854008E+04  5.573085E+04 -2.102775E-11 -5.847865E-12
       493  14 -5.246690E+05 -7.162566E+03 -1.435809E+04  5.111553E+04  1.553939E-10 -1.601336E-11
       493  15 -5.268195E+05 -1.633734E+03 -8.344521E+03  5.573617E+04 -2.180749E-11 -3.042010E-11
       493  16 -8.757506E+05 -1.123907E+05 -1.103732E+05  7.276874E+04  1.910203E-11 -7.138357E-12
       493  17 -8.230310E+05 -7.825803E+04 -7.121979E+04  5.935854E+04 -4.045999E-11 -6.743131E-11
       493  18 -7.773050E+05 -6.028718E+04 -5.093894E+04  5.518377E+04 -4.378006E-11 -4.308237E-11
       493  19 -1.778079E+05  6.003519E+04  5.328497E+04  3.868329E+04 -7.020109E+03  4.377033E+03
       493  20 -2.262209E+05  6.392813E+04  4.250001E+04  4.286848E+04  1.016876E+03  1.422925E+04
       493  21 -2.762720E+05  5.701668E+04  3.424849E+04  5.628892E+04  9.050312E+03  1.605680E+04
       493  22 -5.268353E+05 -2.617385E+04 -2.853932E+04  5.573092E+04  1.959134E+04  4.370111E+03
       493  23 -5.246688E+05 -7.162309E+03 -1.435743E+04  5.111567E+04  1.222586E+04  1.422742E+04
       493  24 -5.268194E+05 -1.633450E+03 -8.343992E+03  5.573624E+04  4.857140E+03  1.605806E+04
       493  25 -8.757483E+05 -1.123901E+05 -1.103691E+05  7.276891E+04  4.618791E+04  4.364649E+03
       493  26 -8.230304E+05 -7.825766E+04 -7.121838E+04  5.935881E+04  2.342957E+04  1.422589E+04
       493  27 -7.773050E+05 -6.028690E+04 -5.093846E+04  5.518378E+04  6.656072E+02  1.605934E+04
       494   1 -3.071898E+05  4.959042E+04  2.982633E+04  5.501504E+04 -7.520291E+03 -1.454004E+04
       494   2 -3.562686E+05  3.903067E+04  2.232542E+04  5.055326E+04 -6.658074E+03 -1.215391E+04
       494   3 -4.056360E+05  2.772376E+04  1.407824E+04  5.588961E+04 -5.796062E+03 -8.954943E+03
       494   4 -5.259826E+05 -1.498422E+03 -6.721471E+03  5.586044E+04 -3.719458E+03 -1.454106E+04
       494   5 -5.256985E+05 -3.093826E+02 -4.860077E+03  5.096136E+04 -1.298061E+03 -1.215486E+04
       494   6 -5.259765E+05 -1.384176E+02 -4.828668E+03  5.586060E+04  1.123194E+03 -8.955709E+03
       494   7 -7.447281E+05 -5.258975E+04 -4.327069E+04  5.670553E+04  8.008065E+01 -1.454207E+04
       494   8 -6.950998E+05 -3.965086E+04 -3.204623E+04  5.136934E+04  4.060540E+03 -1.215580E+04
       494   9 -6.463025E+05 -2.800129E+04 -2.373575E+04  5.583161E+04  8.041158E+03 -8.956475E+03
       494  10 -3.071899E+05  4.959017E+04  2.982582E+04  5.501495E+04  1.401048E-10 -1.593210E-11
       494  11 -3.562687E+05  3.903050E+04  2.232506E+04  5.055320E+04  1.935692E-10 -8.539411E-12
       494  12 -4.056361E+05  2.772367E+04  1.407803E+04  5.588957E+04  1.815934E-10 -4.201287E-11
       494  13 -5.259826E+05 -1.498653E+03 -6.721894E+03  5.586039E+04  3.708129E-11 -8.998184E-12
       494  14 -5.256986E+05 -3.095416E+02 -4.860358E+03  5.096135E+04  1.703401E-10  1.502798E-11
       494  15 -5.259766E+05 -1.385041E+02 -4.828821E+03  5.586061E+04 -2.218136E-11 -2.523835E-12
       494  16 -7.447281E+05 -5.258998E+04 -4.327108E+04  5.670553E+04 -6.239453E-11 -2.750407E-11
       494  17 -6.950999E+05 -3.965103E+04 -3.204654E+04  5.136938E+04 -8.068077E-11 -5.494675E-11
       494  18 -6.463026E+05 -2.800139E+04 -2.373602E+04  5.583166E+04 -1.031000E-10 -4.893147E-11
       494  19 -3.071898E+05  4.959042E+04  2.982633E+04  5.501504E+04  7.520291E+03  1.454004E+04
       494  20 -3.562686E+05  3.903067E+04  2.232542E+04  5.055326E+04  6.658074E+03  1.215391E+04
       494  21 -4.056360E+05  2.772376E+04  1.407824E+04  5.588961E+04  5.796062E+03  8.954943E+03
       494  22 -5.259826E+05 -1.498422E+03 -6.721471E+03  5.586044E+04  3.719458E+03  1.454106E+04
       494  23 -5.256985E+05 -3.093826E+02 -4.860077E+03  5.096136E+04  1.298061E+03  1.215486E+04
       494  24 -5.259765E+05 -1.384176E+02 -4.828668E+03  5.586060E+04 -1.123194E+03  8.955709E+03
       494  25 -7.447281E+05 -5.258975E+04 -4.327069E+04  5.670553E+04 -8.008065E+01  1.454207E+04
       494  26 -6.950998E+05 -3.965086E+04 -3.204623E+04  5.136934E+04 -4.060540E+03  1.215580E+04
       494  27 -6.463025E+05 -2.800129E+04 -2.373575E+04  5.583161E+04 -8.041158E+03  8.956475E+03
       495   1 -4.371156E+05  2.041924E+04  8.357703E+03  5.552730E+04 -4.891937E+03 -6.814213E+03
       495   2 -4.857968E+05  8.380857E+03 -2.125461E+03  5.160647E+04 -4.376731E+02 -3.356754E+03
       495   3 -5.355898E+05 -5.813747E+03 -1.604793E+04  5.752142E+04  4.016028E+03 -1.708087E+02
       495   4 -5.260780E+05 -1.299909E+02 -5.377015E+03  5.586898E+04  2.003950E+03 -6.814841E+03
       495   5 -5.255660E+05 -7.278682E+02 -7.877498E+03  5.095086E+04  5.936656E+03 -3.357250E+03
       495   6 -5.260782E+05 -3.391492E+03 -1.345518E+04  5.586865E+04  9.869136E+03 -1.711945E+02
       495   7 -6.150324E+05 -2.067958E+04 -1.911173E+04  5.621061E+04  8.898886E+03 -6.815461E+03
       495   8 -5.653335E+05 -9.836642E+03 -1.362941E+04  5.029529E+04  1.231059E+04 -3.357760E+03
       495   9 -5.165665E+05 -9.692163E+02 -1.086231E+04  5.421585E+04  1.572233E+04 -1.716115E+02
       495  10 -4.371157E+05  2.041919E+04  8.357571E+03  5.552727E+04  8.541279E-11 -5.029952E-12
       495  11 -4.857968E+05  8.380845E+03 -2.125482E+03  5.160647E+04  1.111296E-10  4.930020E-11
       495  12 -5.355898E+05 -5.813752E+03 -1.604796E+04  5.752142E+04  1.065703E-10  1.451546E-12
       495  13 -5.260780E+05 -1.300419E+02 -5.377109E+03  5.586899E+04  2.024199E-11  1.820603E-12
       495  14 -5.255660E+05 -7.278898E+02 -7.877585E+03  5.095088E+04  7.940750E-11  1.080945E-11
       495  15 -5.260784E+05 -3.391519E+03 -1.345536E+04  5.586865E+04  8.443415E-12  6.872707E-12
       495  16 -6.150325E+05 -2.067966E+04 -1.911197E+04  5.621066E+04 -4.427924E-11 -4.527807E-11
       495  17 -5.653337E+05 -9.836695E+03 -1.362971E+04  5.029533E+04 -3.368983E-11 -3.084058E-11
       495  18 -5.165668E+05 -9.692828E+02 -1.086277E+04  5.421585E+04 -1.251748E-11  3.126594E-12
       495  19 -4.371156E+05  2.041924E+04  8.357703E+03  5.552730E+04  4.891937E+03  6.814213E+03
       495  20 -4.857968E+05  8.380857E+03 -2.125461E+03  5.160647E+04  4.376731E+02  3.356754E+03
       495  21 -5.355898E+05 -5.813747E+03 -1.604793E+04  5.752142E+04 -4.016028E+03  1.708087E+02
       495  22 -5.260780E+05 -1.299909E+02 -5.377015E+03  5.586898E+04 -2.003950E+03  6.814841E+03
       495  23 -5.255660E+05 -7.278682E+02 -7.877498E+03  5.095086E+04 -5.936656E+03  3.357250E+03
       495  24 -5.260782E+05 -3.391492E+03 -1.345518E+04  5.586865E+04 -9.869136E+03  1.711945E+02
       495  25 -6.150324E+05 -2.067958E+04 -1.911173E+04  5.621061E+04 -8.898886E+03  6.815461E+03
       495  26 -5.653335E+05 -9.836642E+03 -1.362941E+04  5.029529E+04 -1.231059E+04  3.357760E+03
       495  27 -5.165665E+05 -9.692163E+02 -1.086231E+04  5.421585E+04 -1.572233E+04  1.716115E+02
       496   1 -5.690373E+05 -1.349306E+04 -2.564005E+04  5.435069E+04  6.153190E+03  1.762031E+03
       496   2 -6.128573E+05 -3.776985E+04 -5.026573E+04  6.940385E+04  2.903028E+04  3.192113E+03
       496   3 -6.675466E+05 -9.361534E+04 -9.768657E+04  9.405670E+04  5.190506E+04  1.214099E+03
       496   4 -5.280129E+05 -3.671497E+03 -1.758048E+04  5.581741E+04  1.217037E+04  1.761636E+03
       496   5 -5.231553E+05 -1.612412E+04 -3.181614E+04  5.101364E+04  2.850793E+04  3.191261E+03
       496   6 -5.280302E+05 -5.900752E+04 -6.430052E+04  5.581103E+04  4.484502E+04  1.211552E+03
       496   7 -4.869867E+05  6.149994E+03 -9.520854E+03  5.728423E+04  1.818794E+04  1.761269E+03
       496   8 -4.334449E+05  5.522378E+03 -1.336679E+04  3.262072E+04  2.798552E+04  3.190439E+03
       496   9 -3.884927E+05 -2.439557E+04 -3.091487E+04  1.755672E+04  3.778340E+04  1.209877E+03
       496  10 -5.690373E+05 -1.349308E+04 -2.564013E+04  5.435069E+04  8.289000E-11  3.236618E-11
       496  11 -6.128582E+05 -3.777008E+04 -5.026734E+04  6.940378E+04  1.863703E-10  1.106983E-11
       496  12 -6.675495E+05 -9.361607E+04 -9.769164E+04  9.405665E+04  2.380178E-11  4.637284E-11
       496  13 -5.280130E+05 -3.671540E+03 -1.758076E+04  5.581739E+04  1.885666E-11  7.164957E-11
       496  14 -5.231561E+05 -1.612435E+04 -3.181768E+04  5.101357E+04  1.333131E-10  1.206105E-10
       496  15 -5.280324E+05 -5.900806E+04 -6.430430E+04  5.581099E+04 -3.276597E-11  5.439590E-11
       496  16 -4.869871E+05  6.149901E+03 -9.521482E+03  5.728420E+04  3.460219E-11  2.650337E-11
       496  17 -4.334457E+05  5.522157E+03 -1.336828E+04  3.262065E+04 -9.407314E-11  6.905482E-12
       496  18 -3.884943E+05 -2.439596E+04 -3.091755E+04  1.755668E+04 -4.197467E-11  2.526016E-11
       496  19 -5.690373E+05 -1.349306E+04 -2.564005E+04  5.435069E+04 -6.153190E+03 -1.762031E+03
       496  20 -6.128573E+05 -3.776985E+04 -5.026573E+04  6.940385E+04 -2.903028E+04 -3.192113E+03
       496  21 -6.675466E+05 -9.361534E+04 -9.768657E+04  9.405670E+04 -5.190506E+04 -1.214099E+03
       496  22 -5.280129E+05 -3.671497E+03 -1.758048E+04  5.581741E+04 -1.217037E+04 -1.761636E+03
       496  23 -5.231553E+05 -1.612412E+04 -3.181614E+04  5.101364E+04 -2.850793E+04 -3.191261E+03
       496  24 -5.280302E+05 -5.900752E+04 -6.430052E+04  5.581103E+04 -4.484502E+04 -1.211552E+03
       496  25 -4.869867E+05  6.149994E+03 -9.520854E+03  5.728423E+04 -1.818794E+04 -1.761269E+03
       496  26 -4.334449E+05  5.522378E+03 -1.336679E+04  3.262072E+04 -2.798552E+04 -3.190439E+03
       496  27 -3.884927E+05 -2.439557E+04 -3.091487E+04  1.755672E+04 -3.778340E+04 -1.209877E+03
       497   1 -1.624750E+05  2.307597E+04  1.774038E+04  1.584019E+04 -6.099324E+03 -2.649932E+03
       497   2 -1.918072E+05  3.508049E+04  1.844328E+04  2.285494E+04 -7.243497E+03 -8.597287E+03
       497   3 -2.243778E+05  3.351075E+04  1.649818E+04  3.568616E+04 -8.386704E+03 -9.645077E+03
       497   4 -3.753220E+05 -2.949619E+04 -3.217483E+04  3.500334E+04 -2.221388E+04 -2.648161E+03
       497   5 -3.728805E+05 -8.055200E+03 -1.609235E+04  3.209628E+04 -1.395451E+04 -8.596941E+03
       497   6 -3.753132E+05 -1.824263E+03 -9.191558E+03  3.500612E+04 -5.694124E+03 -9.645461E+03
       497   7 -5.881258E+05 -8.207005E+04 -8.209196E+04  5.415987E+04 -3.832295E+04 -2.647385E+03
       497   8 -5.539219E+05 -5.119248E+04 -5.062924E+04  4.133486E+04 -2.066361E+04 -8.596794E+03
       497   9 -5.262262E+05 -3.716047E+04 -3.488201E+04  3.432626E+04 -3.002179E+03 -9.645852E+03
       497  10 -1.624750E+05  2.307595E+04  1.774029E+04  1.584018E+04  1.602822E-10  2.899702E-11
       497  11 -1.918073E+05  3.508040E+04  1.844304E+04  2.285489E+04  1.353565E-10 -3.140634E-11
       497  12 -2.243779E+05  3.351063E+04  1.649787E+04  3.568609E+04  2.916312E-11 -2.215541E-12
       497  13 -3.753225E+05 -2.949633E+04 -3.217577E+04  3.500329E+04  3.364585E-11 -4.833537E-11
       497  14 -3.728807E+05 -8.055332E+03 -1.609285E+04  3.209618E+04  1.670195E-10  2.345428E-11
       497  15 -3.753133E+05 -1.824371E+03 -9.191793E+03  3.500608E+04  6.944925E-11 -8.527667E-11
       497  16 -5.881274E+05 -8.207045E+04 -8.209473E+04  5.415979E+04 -5.073074E-11 -2.177499E-11
       497  17 -5.539224E+05 -5.119267E+04 -5.063019E+04  4.133472E+04  5.471083E-11 -5.038918E-11
       497  18 -5.262262E+05 -3.716058E+04 -3.488221E+04  3.432623E+04  9.659712E-11 -1.245509E-10
       497  19 -1.624750E+05  2.307597E+04  1.774038E+04  1.584019E+04  6.099324E+03  2.649932E+03
       497  20 -1.918072E+05  3.508049E+04  1.844328E+04  2.285494E+04  7.243497E+03  8.597287E+03
       497  21 -2.243778E+05  3.351075E+04  1.649818E+04  3.568616E+04  8.386704E+03  9.645077E+03
       497  22 -3.753220E+05 -2.949619E+04 -3.217483E+04  3.500334E+04  2.221388E+04  2.648161E+03
       497  23 -3.728805E+05 -8.055200E+03 -1.609235E+04  3.209628E+04  1.395451E+04  8.596941E+03
       497  24 -3.753132E+05 -1.824263E+03 -9.191558E+03  3.500612E+04  5.694124E+03  9.645461E+03
       497  25 -5.881258E+05 -8.207005E+04 -8.209196E+04  5.415987E+04  3.832295E+04  2.647385E+03
       497  26 -5.539219E+05 -5.119248E+04 -5.062924E+04  4.133486E+04  2.066361E+04  8.596794E+03
       497  27 -5.262262E+05 -3.716047E+04 -3.488201E+04  3.432626E+04  3.002179E+03  9.645852E+03
       498   1 -2.433773E+05  2.891021E+04  1.462991E+04  3.418706E+04 -6.910779E+03 -8.678791E+03
       498   2 -2.741013E+05  2.286862E+04  1.112222E+04  3.159817E+04 -5.398634E+03 -7.154290E+03
       498   3 -3.052534E+05  1.588629E+04  6.395385E+03  3.516788E+04 -3.886648E+03 -5.135908E+03
       498   4 -3.743614E+05 -1.677547E+03 -7.278765E+03  3.508162E+04 -4.457752E+03 -8.679101E+03
       498   5 -3.740630E+05 -3.424057E+02 -4.934395E+03  3.200230E+04 -1.998166E+03 -7.154539E+03
       498   6 -3.743589E+05 -1.127571E+02 -4.467760E+03  3.508168E+04  4.613182E+02 -5.136057E+03
       498   7 -5.053285E+05 -3.226620E+04 -2.918795E+04  3.597598E+04 -2.005225E+03 -8.679404E+03
       498   8 -4.740147E+05 -2.355393E+04 -2.099123E+04  3.240636E+04  1.401773E+03 -7.154784E+03
       498   9 -4.434596E+05 -1.611203E+04 -1.533095E+04  3.499549E+04  4.808818E+03 -5.136208E+03
       498  10 -2.433774E+05  2.891012E+04  1.462968E+04  3.418701E+04  7.737723E-11 -1.834844E-12
       498  11 -2.741013E+05  2.286856E+04  1.112207E+04  3.159814E+04  5.868988E-12  1.283841E-11
       498  12 -3.052534E+05  1.588626E+04  6.395308E+03  3.516787E+04  1.937782E-11 -7.876490E-11
       498  13 -3.743614E+05 -1.677633E+03 -7.278944E+03  3.508158E+04  2.096912E-11 -6.864835E-11
       498  14 -3.740630E+05 -3.424617E+02 -4.934498E+03  3.200229E+04  6.855242E-11  3.616457E-11
       498  15 -3.743589E+05 -1.127855E+02 -4.467810E+03  3.508168E+04 -7.877793E-11 -1.971029E-11
       498  16 -5.053285E+05 -3.226628E+04 -2.918810E+04  3.597596E+04 -7.661604E-11 -1.044585E-10
       498  17 -4.740148E+05 -2.355398E+04 -2.099133E+04  3.240637E+04 -5.084396E-11 -8.764187E-11
       498  18 -4.434596E+05 -1.611207E+04 -1.533105E+04  3.499551E+04 -1.105499E-11 -6.216056E-11
       498  19 -2.433773E+05  2.891021E+04  1.462991E+04  3.418706E+04  6.910779E+03  8.678791E+03
       498  20 -2.741013E+05  2.286862E+04  1.112222E+04  3.159817E+04  5.398634E+03  7.154290E+03
       498  21 -3.052534E+05  1.588629E+04  6.395385E+03  3.516788E+04  3.886648E+03  5.135908E+03
       498  22 -3.743614E+05 -1.677547E+03 -7.278765E+03  3.508162E+04  4.457752E+03  8.679101E+03
       498  23 -3.740630E+05 -3.424057E+02 -4.934395E+03  3.200230E+04  1.998166E+03  7.154539E+03
       498  24 -3.743589E+05 -1.127571E+02 -4.467760E+03  3.508168E+04 -4.613182E+02  5.136057E+03
       498  25 -5.053285E+05 -3.226620E+04 -2.918795E+04  3.597598E+04  2.005225E+03  8.679404E+03
       498  26 -4.740147E+05 -2.355393E+04 -2.099123E+04  3.240636E+04 -1.401773E+03  7.154784E+03
       498  27 -4.434596E+05 -1.611203E+04 -1.533095E+04  3.499549E+04 -4.808818E+03  5.136208E+03
       499   1 -3.250294E+05  1.129512E+04  2.843791E+03  3.483505E+04 -3.076116E+03 -3.790632E+03
       499   2 -3.555178E+05  3.639407E+03 -4.005445E+03  3.254422E+04  5.744946E+02 -1.625934E+03
       499   3 -3.869161E+05 -5.760382E+03 -1.366817E+04  3.643334E+04  4.224933E+03  3.511992E+02
       499   4 -3.744148E+05 -1.084930E+02 -4.769193E+03  3.508641E+04  1.258500E+03 -3.790733E+03
       499   5 -3.739911E+05 -5.743424E+02 -6.593275E+03  3.199637E+04  4.548964E+03 -1.626003E+03
       499   6 -3.744152E+05 -2.721556E+03 -1.098052E+04  3.508633E+04  7.839421E+03  3.511521E+02
       499   7 -4.237976E+05 -1.151222E+04 -1.238216E+04  3.533776E+04  5.592785E+03 -3.790831E+03
       499   8 -3.924641E+05 -4.788098E+03 -9.181051E+03  3.144855E+04  8.523321E+03 -1.626078E+03
       499   9 -3.619142E+05  3.172724E+02 -8.292833E+03  3.373929E+04  1.145398E+04  3.510892E+02
       499  10 -3.250294E+05  1.129511E+04  2.843746E+03  3.483504E+04 -3.350532E-11 -4.134610E-11
       499  11 -3.555178E+05  3.639404E+03 -4.005450E+03  3.254422E+04 -1.633243E-10 -7.086658E-11
       499  12 -3.869161E+05 -5.760387E+03 -1.366821E+04  3.643333E+04  9.128713E-11 -2.282494E-11
       499  13 -3.744148E+05 -1.085088E+02 -4.769223E+03  3.508642E+04 -8.400777E-12 -4.657638E-11
       499  14 -3.739912E+05 -5.743508E+02 -6.593319E+03  3.199638E+04  2.167625E-11  1.302941E-11
       499  15 -3.744153E+05 -2.721573E+03 -1.098064E+04  3.508633E+04 -1.215679E-10 -2.383122E-11
       499  16 -4.237977E+05 -1.151224E+04 -1.238225E+04  3.533777E+04 -2.425808E-11 -1.770262E-11
       499  17 -3.924642E+05 -4.788120E+03 -9.181193E+03  3.144856E+04  1.503035E-10  2.547337E-11
       499  18 -3.619143E+05  3.172370E+02 -8.293080E+03  3.373929E+04 -4.746221E-11 -7.291086E-11
       499  19 -3.250294E+05  1.129512E+04  2.843791E+03  3.483505E+04  3.076116E+03  3.790632E+03
       499  20 -3.555178E+05  3.639407E+03 -4.005445E+03  3.254422E+04 -5.744946E+02  1.625934E+03
       499  21 -3.869161E+05 -5.760382E+03 -1.366817E+04  3.643334E+04 -4.224933E+03 -3.511992E+02
       499  22 -3.744148E+05 -1.084930E+02 -4.769193E+03  3.508641E+04 -1.258500E+03  3.790733E+03
       499  23 -3.739911E+05 -5.743424E+02 -6.593275E+03  3.199637E+04 -4.548964E+03  1.626003E+03
       499  24 -3.744152E+05 -2.721556E+03 -1.098052E+04  3.508633E+04 -7.839421E+03 -3.511521E+02
       499  25 -4.237976E+05 -1.151222E+04 -1.238216E+04  3.533776E+04 -5.592785E+03  3.790831E+03
       499  26 -3.924641E+05 -4.788098E+03 -9.181051E+03  3.144855E+04 -8.523321E+03  1.626078E+03
       499  27 -3.619142E+05  3.172724E+02 -8.292833E+03  3.373929E+04 -1.145398E+04 -3.510892E+02
       500   1 -4.082824E+05 -1.064201E+04 -2.040962E+04  3.387934E+04  5.990771E+03  1.552778E+03
       500   2 -4.349345E+05 -2.812790E+04 -3.848025E+04  4.686813E+04  2.356804E+04  2.350572E+03
       500   3 -4.701973E+05 -7.090091E+04 -7.432124E+04  6.587947E+04  4.114412E+04  8.631023E+02
       500   4 -3.759707E+05 -2.948760E+03 -1.426905E+04  3.505189E+04  9.715417E+03  1.552736E+03
       500   5 -3.720511E+05 -1.298650E+04 -2.568976E+04  3.203918E+04  2.290668E+04  2.350006E+03
       500   6 -3.759803E+05 -4.754879E+04 -5.183258E+04  3.504995E+04  3.609769E+04  8.612134E+02
       500   7 -3.436579E+05  4.744443E+03 -8.128471E+03  3.622449E+04  1.344025E+04  1.552708E+03
       500   8 -3.091635E+05  2.155487E+03 -1.289937E+04  1.720869E+04  2.224525E+04  2.349472E+03
       500   9 -2.817530E+05 -2.419372E+04 -2.934393E+04  4.215732E+03  3.105049E+04  8.598262E+02
       500  10 -4.082825E+05 -1.064202E+04 -2.040969E+04  3.387933E+04  1.718036E-10 -1.308798E-10
       500  11 -4.349351E+05 -2.812806E+04 -3.848130E+04  4.686809E+04  4.699464E-11 -1.007652E-10
       500  12 -4.701991E+05 -7.090137E+04 -7.432443E+04  6.587944E+04 -1.486948E-10 -3.379076E-11
       500  13 -3.759708E+05 -2.948788E+03 -1.426923E+04  3.505187E+04  1.260900E-11 -5.752910E-11
       500  14 -3.720517E+05 -1.298664E+04 -2.569076E+04  3.203913E+04 -3.818403E-11 -9.988790E-11
       500  15 -3.759817E+05 -4.754914E+04 -5.183503E+04  3.504993E+04  9.031150E-11  2.320307E-11
       500  16 -3.436581E+05  4.744392E+03 -8.128815E+03  3.622448E+04 -1.962652E-10 -1.152889E-10
       500  17 -3.091640E+05  2.155348E+03 -1.290031E+04  1.720864E+04 -1.720709E-10 -1.291661E-10
       500  18 -2.817540E+05 -2.419398E+04 -2.934574E+04  4.215711E+03  1.312951E-10 -1.080293E-10
       500  19 -4.082824E+05 -1.064201E+04 -2.040962E+04  3.387934E+04 -5.990771E+03 -1.552778E+03
       500  20 -4.349345E+05 -2.812790E+04 -3.848025E+04  4.686813E+04 -2.356804E+04 -2.350572E+03
       500  21 -4.701973E+05 -7.090091E+04 -7.432124E+04  6.587947E+04 -4.114412E+04 -8.631023E+02
       500  22 -3.759707E+05 -2.948760E+03 -1.426905E+04  3.505189E+04 -9.715417E+03 -1.552736E+03
       500  23 -3.720511E+05 -1.298650E+04 -2.568976E+04  3.203918E+04 -2.290668E+04 -2.350006E+03
       500  24 -3.759803E+05 -4.754879E+04 -5.183258E+04  3.504995E+04 -3.609769E+04 -8.612134E+02
       500  25 -3.436579E+05  4.744443E+03 -8.128471E+03  3.622449E+04 -1.344025E+04 -1.552708E+03
       500  26 -3.091635E+05  2.155487E+03 -1.289937E+04  1.720869E+04 -2.224525E+04 -2.349472E+03
       500  27 -2.817530E+05 -2.419372E+04 -2.934393E+04  4.215732E+03 -3.105049E+04 -8.598262E+02
       501   1  5.826435E+03  3.690486E+04  3.334914E+04  2.756839E+04  5.641344E+03 -2.431122E+03
       501   2 -2.535968E+04  3.638688E+04  2.515687E+04  2.870483E+04  2.821140E+02 -7.819757E+03
       501   3 -5.703419E+04  3.110473E+04  1.926314E+04  3.577743E+04 -5.076295E+03 -8.615423E+03
       501   4 -1.930461E+05 -1.221136E+04 -1.333559E+04  3.550976E+04 -9.112854E+03 -2.430704E+03
       501   5 -1.920331E+05 -3.331578E+03 -6.741836E+03  3.254157E+04 -5.653679E+03 -7.819913E+03
       501   6 -1.930416E+05 -7.479816E+02 -3.974394E+03  3.550984E+04 -2.194069E+03 -8.615516E+03
       501   7 -3.918816E+05 -6.133003E+04 -6.002217E+04  4.344856E+04 -2.386235E+04 -2.430664E+03
       501   8 -3.586797E+05 -4.305160E+04 -3.864167E+04  3.637726E+04 -1.158792E+04 -7.820143E+03
       501   9 -3.290308E+05 -3.260168E+04 -2.721251E+04  3.524231E+04  6.875456E+02 -8.615611E+03
       501  10  5.826399E+03  3.690484E+04  3.334907E+04  2.756840E+04  5.847229E-11 -5.705287E-12
       501  11 -2.535969E+04  3.638681E+04  2.515675E+04  2.870484E+04  1.312132E-10  4.354271E-11
       501  12 -5.703424E+04  3.110465E+04  1.926295E+04  3.577740E+04  1.926472E-10  8.605142E-12
       501  13 -1.930462E+05 -1.221138E+04 -1.333576E+04  3.550974E+04 -5.223837E-11  3.622649E-11
       501  14 -1.920332E+05 -3.331653E+03 -6.742011E+03  3.254154E+04  6.549961E-11 -7.848317E-11
       501  15 -1.930416E+05 -7.480626E+02 -3.974543E+03  3.550982E+04  1.287374E-11 -6.067349E-11
       501  16 -3.918822E+05 -6.133019E+04 -6.002326E+04  4.344852E+04 -4.999418E-11 -6.695856E-11
       501  17 -3.586799E+05 -4.305170E+04 -3.864203E+04  3.637719E+04 -9.780989E-11 -3.861880E-11
       501  18 -3.290308E+05 -3.260176E+04 -2.721265E+04  3.524231E+04 -1.215258E-10 -7.594088E-12
       501  19  5.826435E+03  3.690486E+04  3.334914E+04  2.756839E+04 -5.641344E+03  2.431122E+03
       501  20 -2.535968E+04  3.638688E+04  2.515687E+04  2.870483E+04 -2.821140E+02  7.819757E+03
       501  21 -5.703419E+04  3.110473E+04  1.926314E+04  3.577743E+04  5.076295E+03  8.615423E+03
       501  22 -1.930461E+05 -1.221136E+04 -1.333559E+04  3.550976E+04  9.112854E+03  2.430704E+03
       501  23 -1.920331E+05 -3.331578E+03 -6.741836E+03  3.254157E+04  5.653679E+03  7.819913E+03
       501  24 -1.930416E+05 -7.479816E+02 -3.974394E+03  3.550984E+04  2.194069E+03  8.615516E+03
       501  25 -3.918816E+05 -6.133003E+04 -6.002217E+04  4.344856E+04  2.386235E+04  2.430664E+03
       501  26 -3.586797E+05 -4.305160E+04 -3.864167E+04  3.637726E+04  1.158792E+04  7.820143E+03
       501  27 -3.290308E+05 -3.260168E+04 -2.721251E+04  3.524231E+04 -6.875456E+02  8.615611E+03
       502   1 -7.688007E+04  2.636349E+04  1.620250E+04  3.518908E+04 -4.304258E+03 -7.600600E+03
       502   2 -1.082215E+05  1.944921E+04  1.113225E+04  3.226036E+04 -3.956083E+03 -5.987785E+03
       502   3 -1.396908E+05  1.219907E+04  5.751448E+03  3.558620E+04 -3.608013E+03 -3.918252E+03
       502   4 -1.926539E+05 -6.841505E+02 -3.244819E+03  3.558047E+04 -1.646175E+03 -7.600630E+03
       502   5 -1.925126E+05 -1.302148E+02 -2.459664E+03  3.245315E+04 -4.214162E+02 -5.987689E+03
       502   6 -1.926520E+05 -6.422485E+01 -2.593883E+03  3.558045E+04  8.032666E+02 -3.917995E+03
       502   7 -3.084144E+05 -2.773249E+04 -2.269253E+04  3.597179E+04  1.011428E+03 -7.600658E+03
       502   8 -2.767967E+05 -1.970999E+04 -1.605173E+04  3.264591E+04  3.112787E+03 -5.987590E+03
       502   9 -2.456104E+05 -1.232765E+04 -1.093921E+04  3.557469E+04  5.214184E+03 -3.917739E+03
       502  10 -7.688011E+04  2.636342E+04  1.620235E+04  3.518906E+04  2.581842E-10 -9.159834E-11
       502  11 -1.082215E+05  1.944917E+04  1.113216E+04  3.226035E+04 -8.925510E-11 -1.018248E-10
       502  12 -1.396908E+05  1.219905E+04  5.751394E+03  3.558619E+04 -2.216837E-10 -3.443815E-11
       502  13 -1.926539E+05 -6.842132E+02 -3.244933E+03  3.558046E+04  9.989488E-11 -5.355491E-11
       502  14 -1.925126E+05 -1.302533E+02 -2.459732E+03  3.245315E+04 -2.358596E-10 -1.419190E-10
       502  15 -1.926520E+05 -6.424151E+01 -2.593913E+03  3.558045E+04  9.014937E-11  7.183224E-11
       502  16 -3.084144E+05 -2.773255E+04 -2.269264E+04  3.597179E+04 -2.662175E-10 -7.131933E-11
       502  17 -2.767967E+05 -1.971003E+04 -1.605181E+04  3.264593E+04  2.378780E-11 -7.530200E-11
       502  18 -2.456105E+05 -1.232768E+04 -1.093929E+04  3.557471E+04  1.551075E-10 -2.492411E-11
       502  19 -7.688007E+04  2.636349E+04  1.620250E+04  3.518908E+04  4.304258E+03  7.600600E+03
       502  20 -1.082215E+05  1.944921E+04  1.113225E+04  3.226036E+04  3.956083E+03  5.987785E+03
       502  21 -1.396908E+05  1.219907E+04  5.751448E+03  3.558620E+04  3.608013E+03  3.918252E+03
       502  22 -1.926539E+05 -6.841505E+02 -3.244819E+03  3.558047E+04  1.646175E+03  7.600630E+03
       502  23 -1.925126E+05 -1.302148E+02 -2.459664E+03  3.245315E+04  4.214162E+02  5.987689E+03
       502  24 -1.926520E+05 -6.422485E+01 -2.593883E+03  3.558045E+04 -8.032666E+02  3.917995E+03
       502  25 -3.084144E+05 -2.773249E+04 -2.269253E+04  3.597179E+04 -1.011428E+03  7.600658E+03
       502  26 -2.767967E+05 -1.970999E+04 -1.605173E+04  3.264591E+04 -3.112787E+03  5.987590E+03
       502  27 -2.456104E+05 -1.232765E+04 -1.093921E+04  3.557469E+04 -5.214184E+03  3.917739E+03
       503   1 -1.597728E+05  7.540784E+03  2.088137E+03  3.538525E+04 -3.119027E+03 -2.553041E+03
       503   2 -1.908464E+05 -1.121946E+02 -4.547153E+03  3.282472E+04 -4.361585E+02 -3.773247E+02
       503   3 -2.225844E+05 -9.029461E+03 -1.324565E+04  3.653295E+04  2.246569E+03  1.563621E+03
       503   4 -1.927198E+05 -5.938115E+01 -2.959262E+03  3.558359E+04  1.282453E+03 -2.552750E+03
       503   5 -1.924264E+05 -4.130205E+02 -4.470616E+03  3.244925E+04  3.514555E+03 -3.770594E+02
       503   6 -1.927201E+05 -1.952614E+03 -7.732053E+03  3.558369E+04  5.746643E+03  1.563855E+03
       503   7 -2.256657E+05 -7.659588E+03 -8.006612E+03  3.578192E+04  5.683708E+03 -2.552456E+03
       503   8 -1.940064E+05 -7.138374E+02 -4.394020E+03  3.207378E+04  7.465259E+03 -3.767989E+02
       503   9 -1.628549E+05  5.124192E+03 -2.218450E+03  3.463439E+04  9.246881E+03  1.564080E+03
       503  10 -1.597729E+05  7.540774E+03  2.088106E+03  3.538524E+04  1.416471E-10 -3.938816E-11
       503  11 -1.908464E+05 -1.121948E+02 -4.547154E+03  3.282472E+04 -9.614628E-12 -8.532944E-11
       503  12 -2.225845E+05 -9.029465E+03 -1.324566E+04  3.653294E+04 -2.469020E-10 -4.923635E-11
       503  13 -1.927198E+05 -5.938859E+01 -2.959278E+03  3.558359E+04  4.205384E-12 -2.907013E-11
       503  14 -1.924264E+05 -4.130239E+02 -4.470639E+03  3.244925E+04 -9.220992E-11  1.072937E-10
       503  15 -1.927202E+05 -1.952625E+03 -7.732119E+03  3.558368E+04  2.615847E-11  5.161207E-11
       503  16 -2.256657E+05 -7.659604E+03 -8.006685E+03  3.578194E+04 -1.792993E-10  4.268792E-11
       503  17 -1.940064E+05 -7.138525E+02 -4.394125E+03  3.207378E+04  8.802546E-11  8.148391E-11
       503  18 -1.628550E+05  5.124166E+03 -2.218615E+03  3.463438E+04  2.087160E-10  7.975602E-11
       503  19 -1.597728E+05  7.540784E+03  2.088137E+03  3.538525E+04  3.119027E+03  2.553041E+03
       503  20 -1.908464E+05 -1.121946E+02 -4.547153E+03  3.282472E+04  4.361585E+02  3.773247E+02
       503  21 -2.225844E+05 -9.029461E+03 -1.324565E+04  3.653295E+04 -2.246569E+03 -1.563621E+03
       503  22 -1.927198E+05 -5.938115E+01 -2.959262E+03  3.558359E+04 -1.282453E+03  2.552750E+03
       503  23 -1.924264E+05 -4.130205E+02 -4.470616E+03  3.244925E+04 -3.514555E+03  3.770594E+02
       503  24 -1.927201E+05 -1.952614E+03 -7.732053E+03  3.558369E+04 -5.746643E+03 -1.563855E+03
       503  25 -2.256657E+05 -7.659588E+03 -8.006612E+03  3.578192E+04 -5.683708E+03  2.552456E+03
       503  26 -1.940064E+05 -7.138374E+02 -4.394020E+03  3.207378E+04 -7.465259E+03  3.767989E+02
       503  27 -1.628549E+05  5.124192E+03 -2.218450E+03  3.463439E+04 -9.246881E+03 -1.564080E+03
       504   1 -2.438304E+05 -1.392858E+04 -1.919424E+04  3.468885E+04  3.439446E+03  2.748929E+03
       504   2 -2.719911E+05 -2.873519E+04 -3.450784E+04  4.312452E+04  1.805519E+04  3.291953E+03
       504   3 -3.066755E+05 -6.202608E+04 -6.396046E+04  5.764464E+04  3.266982E+04  1.136805E+03
       504   4 -1.938397E+05 -2.114824E+03 -1.012917E+04  3.554289E+04  7.069966E+03  2.749155E+03
       504   5 -1.910297E+05 -9.313357E+03 -1.837545E+04  3.250082E+04  1.650691E+04  3.291531E+03
       504   6 -1.938444E+05 -3.409590E+04 -3.716263E+04  3.554400E+04  2.594363E+04  1.135356E+03
       504   7 -1.438465E+05  9.698806E+03 -1.064156E+03  3.639700E+04  1.070077E+04  2.749391E+03
       504   8 -1.100618E+05  1.010850E+04 -2.243324E+03  2.187570E+04  1.495843E+04  3.291161E+03
       504   9 -8.100048E+04 -6.164769E+03 -1.036525E+04  1.343931E+04  1.921622E+04  1.134387E+03
       504  10 -2.438304E+05 -1.392860E+04 -1.919428E+04  3.468885E+04  1.642624E-10  1.758399E-11
       504  11 -2.719915E+05 -2.873529E+04 -3.450847E+04  4.312447E+04  7.894075E-11  6.730552E-11
       504  12 -3.066766E+05 -6.202637E+04 -6.396247E+04  5.764461E+04 -1.463620E-10  2.207869E-11
       504  13 -1.938397E+05 -2.114846E+03 -1.012928E+04  3.554288E+04  3.589255E-11  1.593688E-10
       504  14 -1.910300E+05 -9.313442E+03 -1.837598E+04  3.250078E+04  3.658534E-11 -3.135429E-11
       504  15 -1.938451E+05 -3.409608E+04 -3.716390E+04  3.554397E+04 -9.218177E-12 -1.330139E-10
       504  16 -1.438466E+05  9.698767E+03 -1.064386E+03  3.639697E+04 -6.538687E-11  1.072791E-10
       504  17 -1.100620E+05  1.010843E+04 -2.243765E+03  2.187567E+04  1.024072E-10 -7.402299E-11
       504  18 -8.100087E+04 -6.164869E+03 -1.036595E+04  1.343929E+04  6.818301E-11 -1.038644E-11
       504  19 -2.438304E+05 -1.392858E+04 -1.919424E+04  3.468885E+04 -3.439446E+03 -2.748929E+03
       504  20 -2.719911E+05 -2.873519E+04 -3.450784E+04  4.312452E+04 -1.805519E+04 -3.291953E+03
       504  21 -3.066755E+05 -6.202608E+04 -6.396046E+04  5.764464E+04 -3.266982E+04 -1.136805E+03
       504  22 -1.938397E+05 -2.114824E+03 -1.012917E+04  3.554289E+04 -7.069966E+03 -2.749155E+03
       504  23 -1.910297E+05 -9.313357E+03 -1.837545E+04  3.250082E+04 -1.650691E+04 -3.291531E+03
       504  24 -1.938444E+05 -3.409590E+04 -3.716263E+04  3.554400E+04 -2.594363E+04 -1.135356E+03
       504  25 -1.438465E+05  9.698806E+03 -1.064156E+03  3.639700E+04 -1.070077E+04 -2.749391E+03
       504  26 -1.100618E+05  1.010850E+04 -2.243324E+03  2.187570E+04 -1.495843E+04 -3.291161E+03
       504  27 -8.100048E+04 -6.164769E+03 -1.036525E+04  1.343931E+04 -1.921622E+04 -1.134387E+03
       505   1  2.060772E+05  5.201049E+04  5.105795E+04  4.051572E+04  2.056115E+04 -1.950826E+03
       505   2  1.751526E+05  3.521675E+04  3.192537E+04  3.390072E+04  1.013213E+04 -6.190378E+03
       505   3  1.473678E+05  2.554536E+04  2.136187E+04  3.286791E+04 -2.963652E+02 -6.606279E+03
       505   4  4.142551E+04  1.134109E+04  1.234053E+04  3.317099E+04  8.747584E+03 -1.951562E+03
       505   5  4.049422E+04  3.103775E+03  6.003793E+03  3.038021E+04  5.662551E+03 -6.190806E+03
       505   6  4.142831E+04  7.150526E+02  3.137810E+03  3.317154E+04  2.577593E+03 -6.606145E+03
       505   7 -1.232009E+05 -2.932997E+04 -2.637819E+04  2.582822E+04 -3.062872E+03 -1.952020E+03
       505   8 -9.414666E+04 -2.901021E+04 -1.991854E+04  2.686048E+04  1.193919E+03 -6.191183E+03
       505   9 -6.450018E+04 -2.411585E+04 -1.508660E+04  3.347511E+04  5.451077E+03 -6.606008E+03
       505  10  2.060768E+05  5.201037E+04  5.105715E+04  4.051575E+04  2.058505E-11 -3.267817E-11
       505  11  1.751525E+05  3.521668E+04  3.192511E+04  3.390077E+04 -2.403926E-10 -4.813666E-11
       505  12  1.473678E+05  2.554531E+04  2.136178E+04  3.286791E+04 -1.560554E-10  3.586419E-11
       505  13  4.142543E+04  1.134106E+04  1.234038E+04  3.317100E+04  2.610823E-13 -5.690262E-11
       505  14  4.049418E+04  3.103725E+03  6.003661E+03  3.038024E+04  1.812969E-10 -2.027100E-11
       505  15  4.142829E+04  7.150040E+02  3.137715E+03  3.317155E+04 -6.612786E-11 -1.309697E-11
       505  16 -1.232009E+05 -2.932998E+04 -2.637822E+04  2.582822E+04  1.138255E-10  3.609004E-11
       505  17 -9.414668E+04 -2.901025E+04 -1.991862E+04  2.686049E+04  2.075907E-10 -1.668057E-10
       505  18 -6.450022E+04 -2.411590E+04 -1.508673E+04  3.347514E+04  2.437303E-10 -6.132603E-11
       505  19  2.060772E+05  5.201049E+04  5.105795E+04  4.051572E+04 -2.056115E+04  1.950826E+03
       505  20  1.751526E+05  3.521675E+04  3.192537E+04  3.390072E+04 -1.013213E+04  6.190378E+03
       505  21  1.473678E+05  2.554536E+04  2.136187E+04  3.286791E+04  2.963652E+02  6.606279E+03
       505  22  4.142551E+04  1.134109E+04  1.234053E+04  3.317099E+04 -8.747584E+03  1.951562E+03
       505  23  4.049422E+04  3.103775E+03  6.003793E+03  3.038021E+04 -5.662551E+03  6.190806E+03
       505  24  4.142831E+04  7.150526E+02  3.137810E+03  3.317154E+04 -2.577593E+03  6.606145E+03
       505  25 -1.232009E+05 -2.932997E+04 -2.637819E+04  2.582822E+04  3.062872E+03  1.952020E+03
       505  26 -9.414666E+04 -2.901021E+04 -1.991854E+04  2.686048E+04 -1.193919E+03  6.191183E+03
       505  27 -6.450018E+04 -2.411585E+04 -1.508660E+04  3.347511E+04 -5.451077E+03  6.606008E+03
       506   1  1.281186E+05  2.102647E+04  1.699875E+04  3.351529E+04 -5.013343E+02 -5.617294E+03
       506   2  9.865663E+04  1.356593E+04  1.029511E+04  3.039646E+04 -1.674882E+03 -4.031632E+03
       506   3  6.946733E+04  6.582296E+03  4.474495E+03  3.312025E+04 -2.848454E+03 -2.073970E+03
       506   4  4.104730E+04  6.650858E+02  2.254687E+03  3.322942E+04  2.186444E+03 -5.617121E+03
       506   5  4.097396E+04  1.542894E+02  9.149644E+02  3.030813E+04  1.727251E+03 -4.031334E+03
       506   6  4.104846E+04 -3.523074E+00 -3.770038E+01  3.322949E+04  1.267979E+03 -2.073529E+03
       506   7 -4.601649E+04 -1.969670E+04 -1.248959E+04  3.294360E+04  4.873858E+03 -5.616950E+03
       506   8 -1.670538E+04 -1.325751E+04 -8.465234E+03  3.021981E+04  5.129078E+03 -4.031036E+03
       506   9  1.263043E+04 -6.589373E+03 -4.549853E+03  3.333873E+04  5.384231E+03 -2.073086E+03
       506  10  1.281186E+05  2.102644E+04  1.699869E+04  3.351529E+04  1.409550E-10 -7.254672E-11
       506  11  9.865662E+04  1.356591E+04  1.029508E+04  3.039645E+04 -8.027964E-11 -3.669252E-12
       506  12  6.946732E+04  6.582289E+03  4.474472E+03  3.312024E+04 -1.200523E-10 -4.180430E-11
       506  13  4.104728E+04  6.650506E+02  2.254619E+03  3.322943E+04  6.126244E-11 -3.773174E-11
       506  14  4.097395E+04  1.542711E+02  9.149282E+02  3.030814E+04  8.455191E-11  1.600415E-11
       506  15  4.104845E+04 -3.528122E+00 -3.771148E+01  3.322949E+04  4.275200E-11  6.622107E-11
       506  16 -4.601652E+04 -1.969674E+04 -1.248970E+04  3.294362E+04 -9.774806E-11 -8.951847E-11
       506  17 -1.670542E+04 -1.325754E+04 -8.465314E+03  3.021983E+04  9.442391E-11 -1.340143E-10
       506  18  1.263040E+04 -6.589385E+03 -4.549915E+03  3.333874E+04  2.778665E-12 -5.649089E-11
       506  19  1.281186E+05  2.102647E+04  1.699875E+04  3.351529E+04  5.013343E+02  5.617294E+03
       506  20  9.865663E+04  1.356593E+04  1.029511E+04  3.039646E+04  1.674882E+03  4.031632E+03
       506  21  6.946733E+04  6.582296E+03  4.474495E+03  3.312025E+04  2.848454E+03  2.073970E+03
       506  22  4.104730E+04  6.650858E+02  2.254687E+03  3.322942E+04 -2.186444E+03  5.617121E+03
       506  23  4.097396E+04  1.542894E+02  9.149644E+02  3.030813E+04 -1.727251E+03  4.031334E+03
       506  24  4.104846E+04 -3.523074E+00 -3.770038E+01  3.322949E+04 -1.267979E+03  2.073529E+03
       506  25 -4.601649E+04 -1.969670E+04 -1.248959E+04  3.294360E+04 -4.873858E+03  5.616950E+03
       506  26 -1.670538E+04 -1.325751E+04 -8.465234E+03  3.021981E+04 -5.129078E+03  4.031036E+03
       506  27  1.263043E+04 -6.589373E+03 -4.549853E+03  3.333873E+04 -5.384231E+03  2.073086E+03
       507   1  5.069710E+04  2.235221E+03  9.440651E+02  3.310085E+04 -2.798658E+03 -7.996236E+02
       507   2  2.153426E+04 -4.782568E+03 -4.952924E+03  3.044442E+04 -1.485941E+03  1.205337E+03
       507   3 -7.949277E+03 -1.240213E+04 -1.185512E+04  3.363679E+04 -1.732720E+02  2.936817E+03
       507   4  4.096446E+04  2.049804E+00 -4.898329E+02  3.323084E+04  1.313369E+03 -7.991677E+02
       507   5  4.107968E+04 -1.977901E+02 -1.573604E+03  3.030649E+04  2.100908E+03  1.205713E+03
       507   6  4.096412E+04 -9.082953E+02 -3.298001E+03  3.323094E+04  2.888465E+03  2.937119E+03
       507   7  3.123195E+04 -2.231116E+03 -1.923669E+03  3.336084E+04  5.425333E+03 -7.987101E+02
       507   8  6.062550E+04  4.386974E+03  1.805752E+03  3.016856E+04  5.687866E+03  1.206088E+03
       507   9  8.987988E+04  1.058542E+04  5.259069E+03  3.282505E+04  5.950436E+03  2.937416E+03
       507  10  5.069709E+04  2.235218E+03  9.440492E+02  3.310084E+04  1.455348E-10 -3.333090E-11
       507  11  2.153425E+04 -4.782570E+03 -4.952931E+03  3.044442E+04  6.169297E-11  1.606606E-11
       507  12 -7.949279E+03 -1.240214E+04 -1.185514E+04  3.363679E+04 -1.317665E-10 -3.902030E-11
       507  13  4.096446E+04  2.048655E+00 -4.898373E+02  3.323084E+04 -7.204476E-11 -5.244016E-12
       507  14  4.107967E+04 -1.977928E+02 -1.573615E+03  3.030649E+04 -4.355718E-11 -8.071690E-11
       507  15  4.096411E+04 -9.083069E+02 -3.298033E+03  3.323093E+04 -1.977923E-11  3.761313E-12
       507  16  3.123192E+04 -2.231125E+03 -1.923726E+03  3.336084E+04 -1.174241E-10  3.421968E-11
       507  17  6.062547E+04  4.386964E+03  1.805689E+03  3.016856E+04  5.365611E-11 -4.140598E-11
       507  18  8.987984E+04  1.058540E+04  5.258987E+03  3.282504E+04 -1.028766E-10  1.845791E-11
       507  19  5.069710E+04  2.235221E+03  9.440651E+02  3.310085E+04  2.798658E+03  7.996236E+02
       507  20  2.153426E+04 -4.782568E+03 -4.952924E+03  3.044442E+04  1.485941E+03 -1.205337E+03
       507  21 -7.949277E+03 -1.240213E+04 -1.185512E+04  3.363679E+04  1.732720E+02 -2.936817E+03
       507  22  4.096446E+04  2.049804E+00 -4.898329E+02  3.323084E+04 -1.313369E+03  7.991677E+02
       507  23  4.107968E+04 -1.977901E+02 -1.573604E+03  3.030649E+04 -2.100908E+03 -1.205713E+03
       507  24  4.096412E+04 -9.082953E+02 -3.298001E+03  3.323094E+04 -2.888465E+03 -2.937119E+03
       507  25  3.123195E+04 -2.231116E+03 -1.923669E+03  3.336084E+04 -5.425333E+03  7.987101E+02
       507  26  6.062550E+04  4.386974E+03  1.805752E+03  3.016856E+04 -5.687866E+03 -1.206088E+03
       507  27  8.987988E+04  1.058542E+04  5.259069E+03  3.282505E+04 -5.950436E+03 -2.937416E+03
       508   1 -2.729177E+04 -1.691371E+04 -1.640927E+04  3.276680E+04  2.509738E+02  4.001510E+03
       508   2 -5.484448E+04 -2.740271E+04 -2.731165E+04  3.524836E+04  1.028885E+04  4.181005E+03
       508   3 -8.598096E+04 -4.700133E+04 -4.702672E+04  4.337524E+04  2.032636E+04  1.377869E+03
       508   4  4.043955E+04 -9.812390E+02 -4.478310E+03  3.318569E+04  3.457254E+03  4.001790E+03
       508   5  4.173350E+04 -4.303846E+03 -8.392047E+03  3.036347E+04  7.769194E+03  4.180665E+03
       508   6  4.043800E+04 -1.574109E+04 -1.714146E+04  3.318672E+04  1.208121E+04  1.376950E+03
       508   7  1.081754E+05  1.495099E+04  7.452522E+03  3.360463E+04  6.663875E+03  4.002075E+03
       508   8  1.383205E+05  1.879455E+04  1.052714E+04  2.547782E+04  5.249154E+03  4.180364E+03
       508   9  1.668720E+05  1.551843E+04  1.274300E+04  2.299612E+04  3.834382E+03  1.376302E+03
       508  10 -2.729178E+04 -1.691373E+04 -1.640930E+04  3.276680E+04  2.099700E-11 -9.041557E-11
       508  11 -5.484460E+04 -2.740276E+04 -2.731188E+04  3.524832E+04 -1.209377E-10 -1.052591E-10
       508  12 -8.598141E+04 -4.700144E+04 -4.702750E+04  4.337522E+04  2.784121E-11 -4.559643E-11
       508  13  4.043953E+04 -9.812594E+02 -4.478362E+03  3.318568E+04  1.485208E-10  5.320747E-11
       508  14  4.173343E+04 -4.303881E+03 -8.392194E+03  3.036345E+04 -9.265508E-11  1.025399E-10
       508  15  4.043784E+04 -1.574113E+04 -1.714174E+04  3.318671E+04  5.702574E-11  3.755620E-12
       508  16  1.081753E+05  1.495096E+04  7.452408E+03  3.360461E+04  8.820924E-11  1.028621E-10
       508  17  1.383205E+05  1.879452E+04  1.052706E+04  2.547780E+04  7.721383E-11 -9.145293E-12
       508  18  1.668720E+05  1.551843E+04  1.274297E+04  2.299611E+04 -6.724204E-11 -1.661191E-11
       508  19 -2.729177E+04 -1.691371E+04 -1.640927E+04  3.276680E+04 -2.509738E+02 -4.001510E+03
       508  20 -5.484448E+04 -2.740271E+04 -2.731165E+04  3.524836E+04 -1.028885E+04 -4.181005E+03
       508  21 -8.598096E+04 -4.700133E+04 -4.702672E+04  4.337524E+04 -2.032636E+04 -1.377869E+03
       508  22  4.043955E+04 -9.812390E+02 -4.478310E+03  3.318569E+04 -3.457254E+03 -4.001790E+03
       508  23  4.173350E+04 -4.303846E+03 -8.392047E+03  3.036347E+04 -7.769194E+03 -4.180665E+03
       508  24  4.043800E+04 -1.574109E+04 -1.714146E+04  3.318672E+04 -1.208121E+04 -1.376950E+03
       508  25  1.081754E+05  1.495099E+04  7.452522E+03  3.360463E+04 -6.663875E+03 -4.002075E+03
       508  26  1.383205E+05  1.879455E+04  1.052714E+04  2.547782E+04 -5.249154E+03 -4.180364E+03
       508  27  1.668720E+05  1.551843E+04  1.274300E+04  2.299612E+04 -3.834382E+03 -1.376302E+03
       509   1  4.745503E+05  7.614973E+04  7.796183E+04  6.030897E+04  4.014384E+04 -1.691690E+03
       509   2  4.398979E+05  3.891428E+04  4.398697E+04  4.414837E+04  2.260295E+04 -5.264135E+03
       509   3  4.128736E+05  2.305993E+04  2.677150E+04  3.389244E+04  5.063085E+03 -5.337469E+03
       509   4  3.250364E+05  3.920782E+04  4.271980E+04  3.487881E+04  2.992098E+04 -1.694100E+03
       509   5  3.218094E+05  1.071909E+04  2.106073E+04  3.192827E+04  1.910335E+04 -5.264973E+03
       509   6  3.250447E+05  2.446735E+03  1.149630E+04  3.488169E+04  8.285723E+03 -5.337173E+03
       509   7  1.755446E+05  2.266807E+03  7.476964E+03  9.454794E+03  1.970056E+04 -1.695675E+03
       509   8  2.037347E+05 -1.747636E+04 -1.866044E+03  1.971054E+04  1.560439E+04 -5.265673E+03
       509   9  2.372233E+05 -1.816686E+04 -3.779121E+03  3.587080E+04  1.150792E+04 -5.336867E+03
       509  10  4.745486E+05  7.614929E+04  7.795880E+04  6.030903E+04  1.126395E-12 -6.944431E-12
       509  11  4.398974E+05  3.891411E+04  4.398596E+04  4.414847E+04 -9.436358E-11 -1.281063E-10
       509  12  4.128736E+05  2.305989E+04  2.677139E+04  3.389246E+04  8.895431E-11 -9.216947E-11
       509  13  3.250354E+05  3.920758E+04  4.271811E+04  3.487885E+04  4.207090E-12 -3.381018E-11
       509  14  3.218090E+05  1.071897E+04  2.105999E+04  3.192835E+04 -3.573792E-10 -1.755765E-10
       509  15  3.250446E+05  2.446686E+03  1.149612E+04  3.488173E+04  3.094632E-11 -7.070416E-11
       509  16  1.755442E+05  2.266700E+03  7.476229E+03  9.454821E+03 -9.824324E-12 -3.239990E-12
       509  17  2.037344E+05 -1.747645E+04 -1.866553E+03  1.971060E+04 -3.822719E-11  2.098916E-11
       509  18  2.372232E+05 -1.816693E+04 -3.779423E+03  3.587085E+04 -7.180287E-11 -6.620674E-11
       509  19  4.745503E+05  7.614973E+04  7.796183E+04  6.030897E+04 -4.014384E+04  1.691690E+03
       509  20  4.398979E+05  3.891428E+04  4.398697E+04  4.414837E+04 -2.260295E+04  5.264135E+03
       509  21  4.128736E+05  2.305993E+04  2.677150E+04  3.389244E+04 -5.063085E+03  5.337469E+03
       509  22  3.250364E+05  3.920782E+04  4.271980E+04  3.487881E+04 -2.992098E+04  1.694100E+03
       509  23  3.218094E+05  1.071909E+04  2.106073E+04  3.192827E+04 -1.910335E+04  5.264973E+03
       509  24  3.250447E+05  2.446735E+03  1.149630E+04  3.488169E+04 -8.285723E+03  5.337173E+03
       509  25  1.755446E+05  2.266807E+03  7.476964E+03  9.454794E+03 -1.970056E+04  1.695675E+03
       509  26  2.037347E+05 -1.747636E+04 -1.866044E+03  1.971054E+04 -1.560439E+04  5.265673E+03
       509  27  2.372233E+05 -1.816686E+04 -3.779121E+03  3.587080E+04 -1.150792E+04  5.336867E+03
       510   1  3.917874E+05  1.820131E+04  2.036788E+04  3.600951E+04  3.742238E+03 -4.252592E+03
       510   2  3.606026E+05  9.156857E+03  1.092840E+04  3.227241E+04  7.280197E+02 -2.498283E+03
       510   3  3.301723E+05  1.559421E+03  3.811911E+03  3.467574E+04 -2.286066E+03 -4.137638E+02
       510   4  3.237518E+05  2.262377E+03  8.682356E+03  3.493407E+04  6.795230E+03 -4.252282E+03
       510   5  3.234309E+05  4.920660E+02  4.762137E+03  3.186400E+04  4.415457E+03 -2.497851E+03
       510   6  3.237533E+05  5.869760E+01  2.724591E+03  3.493433E+04  2.035667E+03 -4.132057E+02
       510   7  2.557208E+05 -1.367680E+04 -3.003289E+03  3.385876E+04  9.847898E+03 -4.251982E+03
       510   8  2.862607E+05 -8.172789E+03 -1.404117E+03  3.145561E+04  8.102682E+03 -2.497424E+03
       510   9  3.173343E+05 -1.442018E+03  1.637339E+03  3.519291E+04  6.357356E+03 -4.126441E+02
       510  10  3.917873E+05  1.820129E+04  2.036782E+04  3.600952E+04  2.139736E-11 -8.984608E-11
       510  11  3.606026E+05  9.156850E+03  1.092839E+04  3.227242E+04  1.874582E-11 -3.002866E-11
       510  12  3.301723E+05  1.559420E+03  3.811901E+03  3.467574E+04 -1.912723E-10  5.852605E-11
       510  13  3.237517E+05  2.262345E+03  8.682235E+03  3.493410E+04 -6.310933E-11 -8.144399E-11
       510  14  3.234309E+05  4.920541E+02  4.762089E+03  3.186401E+04  3.198878E-11 -1.339044E-10
       510  15  3.237532E+05  5.869630E+01  2.724583E+03  3.493433E+04 -1.896868E-12 -7.091143E-12
       510  16  2.557207E+05 -1.367684E+04 -3.003505E+03  3.385879E+04 -1.006867E-10 -9.862686E-11
       510  17  2.862606E+05 -8.172813E+03 -1.404252E+03  3.145562E+04 -4.474343E-11 -2.423357E-10
       510  18  3.173342E+05 -1.442029E+03  1.637263E+03  3.519291E+04  3.637689E-10  2.860872E-11
       510  19  3.917874E+05  1.820131E+04  2.036788E+04  3.600951E+04 -3.742238E+03  4.252592E+03
       510  20  3.606026E+05  9.156857E+03  1.092840E+04  3.227241E+04 -7.280197E+02  2.498283E+03
       510  21  3.301723E+05  1.559421E+03  3.811911E+03  3.467574E+04  2.286066E+03  4.137638E+02
       510  22  3.237518E+05  2.262377E+03  8.682356E+03  3.493407E+04 -6.795230E+03  4.252282E+03
       510  23  3.234309E+05  4.920660E+02  4.762137E+03  3.186400E+04 -4.415457E+03  2.497851E+03
       510  24  3.237533E+05  5.869760E+01  2.724591E+03  3.493433E+04 -2.035667E+03  4.132057E+02
       510  25  2.557208E+05 -1.367680E+04 -3.003289E+03  3.385876E+04 -9.847898E+03  4.251982E+03
       510  26  2.862607E+05 -8.172789E+03 -1.404117E+03  3.145561E+04 -8.102682E+03  2.497424E+03
       510  27  3.173343E+05 -1.442018E+03  1.637339E+03  3.519291E+04 -6.357356E+03  4.126441E+02
       511   1  3.104236E+05 -3.004064E+03 -6.105916E+01  3.484972E+04 -2.702291E+03  9.245018E+02
       511   2  2.796204E+05 -1.024405E+04 -5.996076E+03  3.177315E+04 -2.648508E+03  3.001152E+03
       511   3  2.488097E+05 -1.748592E+04 -1.196696E+04  3.483603E+04 -2.594658E+03  4.730103E+03
       511   4  3.236343E+05  6.622805E+01  2.084348E+03  3.493409E+04  1.620211E+03  9.250577E+02
       511   5  3.235800E+05 -8.276791E+00  1.238183E+03  3.186439E+04  1.006117E+03  3.001569E+03
       511   6  3.236335E+05  3.140442E+01  8.199134E+02  3.493410E+04  3.920836E+02  4.730394E+03
       511   7  3.368452E+05  3.136521E+03  4.229821E+03  3.501845E+04  5.942802E+03  9.256148E+02
       511   8  3.675414E+05  1.022740E+04  8.472435E+03  3.195563E+04  4.660992E+03  3.001987E+03
       511   9  3.984627E+05  1.754843E+04  1.360663E+04  3.503218E+04  3.379174E+03  4.730687E+03
       511  10  3.104236E+05 -3.004067E+03 -6.107449E+01  3.484972E+04  3.055380E-10  2.003931E-10
       511  11  2.796204E+05 -1.024406E+04 -5.996106E+03  3.177316E+04 -1.095442E-10  3.793475E-11
       511  12  2.488097E+05 -1.748594E+04 -1.196701E+04  3.483603E+04 -3.337777E-10  3.236406E-11
       511  13  3.236343E+05  6.622642E+01  2.084342E+03  3.493408E+04  1.220148E-10  6.884197E-11
       511  14  3.235799E+05 -8.286738E+00  1.238164E+03  3.186438E+04  9.537647E-11  3.742640E-11
       511  15  3.236335E+05  3.138035E+01  8.198710E+02  3.493410E+04  2.115688E-11  9.756617E-11
       511  16  3.368451E+05  3.136511E+03  4.229753E+03  3.501845E+04 -1.957799E-10 -7.518277E-12
       511  17  3.675414E+05  1.022738E+04  8.472378E+03  3.195562E+04  4.262595E-11 -7.369944E-12
       511  18  3.984627E+05  1.754840E+04  1.360657E+04  3.503217E+04  2.198770E-10  2.959743E-11
       511  19  3.104236E+05 -3.004064E+03 -6.105916E+01  3.484972E+04  2.702291E+03 -9.245018E+02
       511  20  2.796204E+05 -1.024405E+04 -5.996076E+03  3.177315E+04  2.648508E+03 -3.001152E+03
       511  21  2.488097E+05 -1.748592E+04 -1.196696E+04  3.483603E+04  2.594658E+03 -4.730103E+03
       511  22  3.236343E+05  6.622805E+01  2.084348E+03  3.493409E+04 -1.620211E+03 -9.250577E+02
       511  23  3.235800E+05 -8.276791E+00  1.238183E+03  3.186439E+04 -1.006117E+03 -3.001569E+03
       511  24  3.236335E+05  3.140442E+01  8.199134E+02  3.493410E+04 -3.920836E+02 -4.730394E+03
       511  25  3.368452E+05  3.136521E+03  4.229821E+03  3.501845E+04 -5.942802E+03 -9.256148E+02
       511  26  3.675414E+05  1.022740E+04  8.472435E+03  3.195563E+04 -4.660992E+03 -3.001987E+03
       511  27  3.984627E+05  1.754843E+04  1.360663E+04  3.503218E+04 -3.379174E+03 -4.730687E+03
       512   1  2.290211E+05 -2.215736E+04 -1.568351E+04  3.484494E+04 -2.902920E+03  5.801810E+03
       512   2  1.987080E+05 -2.957298E+04 -2.349630E+04  3.161775E+04  3.762138E+03  5.625380E+03
       512   3  1.673379E+05 -3.775402E+04 -3.583834E+04  3.428319E+04  1.042683E+04  1.799540E+03
       512   4  3.236441E+05  4.051691E+01  7.122144E+02  3.487925E+04  2.612305E+02  5.802069E+03
       512   5  3.235636E+05  2.256630E+02  6.771900E+02  3.193293E+04 -8.207453E+01  5.624963E+03
       512   6  3.236415E+05  8.618594E+02  9.784364E+02  3.487919E+04 -4.253955E+02  1.798791E+03
       512   7  4.182759E+05  2.223792E+04  1.710766E+04  3.491355E+04  3.425848E+03  5.802329E+03
       512   8  4.484342E+05  3.002339E+04  2.485001E+04  3.224818E+04 -3.927043E+03  5.624543E+03
       512   9  4.799678E+05  3.947606E+04  3.779397E+04  3.547533E+04 -1.128034E+04  1.798021E+03
       512  10  2.290211E+05 -2.215740E+04 -1.568359E+04  3.484496E+04  7.852993E-11  3.746928E-11
       512  11  1.987079E+05 -2.957302E+04 -2.349639E+04  3.161773E+04 -1.739016E-10 -8.965344E-11
       512  12  1.673378E+05 -3.775405E+04 -3.583855E+04  3.428318E+04 -1.935908E-10 -4.161220E-11
       512  13  3.236441E+05  4.048074E+01  7.121510E+02  3.487924E+04 -5.375278E-11 -8.094033E-13
       512  14  3.235636E+05  2.256291E+02  6.771306E+02  3.193293E+04  1.099482E-10 -3.366397E-11
       512  15  3.236415E+05  8.618558E+02  9.784300E+02  3.487919E+04  7.462431E-11 -2.061914E-11
       512  16  4.182759E+05  2.223788E+04  1.710758E+04  3.491354E+04  4.314268E-11  1.616787E-10
       512  17  4.484342E+05  3.002335E+04  2.484992E+04  3.224820E+04 -3.449710E-11 -8.051513E-11
       512  18  4.799677E+05  3.947602E+04  3.779372E+04  3.547535E+04  2.599353E-10 -6.144549E-12
       512  19  2.290211E+05 -2.215736E+04 -1.568351E+04  3.484494E+04  2.902920E+03 -5.801810E+03
       512  20  1.987080E+05 -2.957298E+04 -2.349630E+04  3.161775E+04 -3.762138E+03 -5.625380E+03
       512  21  1.673379E+05 -3.775402E+04 -3.583834E+04  3.428319E+04 -1.042683E+04 -1.799540E+03
       512  22  3.236441E+05  4.051691E+01  7.122144E+02  3.487925E+04 -2.612305E+02 -5.802069E+03
       512  23  3.235636E+05  2.256630E+02  6.771900E+02  3.193293E+04  8.207453E+01 -5.624963E+03
       512  24  3.236415E+05  8.618594E+02  9.784364E+02  3.487919E+04  4.253955E+02 -1.798791E+03
       512  25  4.182759E+05  2.223792E+04  1.710766E+04  3.491355E+04 -3.425848E+03 -5.802329E+03
       512  26  4.484342E+05  3.002339E+04  2.485001E+04  3.224818E+04  3.927043E+03 -5.624543E+03
       512  27  4.799678E+05  3.947606E+04  3.779397E+04  3.547533E+04  1.128034E+04 -1.798021E+03
       513   1  9.850757E+05  1.422408E+05  1.470188E+05  1.353851E+05  7.492726E+04 -2.450418E+03
       513   2  9.037292E+05  6.437974E+04  7.900603E+04  1.013533E+05  4.097194E+04 -7.037867E+03
       513   3  8.375963E+05  2.970505E+04  4.387142E+04  8.162142E+04  7.021616E+03 -5.579491E+03
       513   4  7.328639E+05  7.984739E+04  8.711020E+04  8.348307E+04  6.030542E+04 -2.458928E+03
       513   5  7.262828E+05  2.181088E+04  4.349355E+04  7.634001E+04  3.797502E+04 -7.040191E+03
       513   6  7.328995E+05  4.950317E+03  2.469747E+04  8.349300E+04  1.564507E+04 -5.577770E+03
       513   7  4.807165E+05  1.745960E+04  2.719940E+04  3.160221E+04  4.568948E+04 -2.465000E+03
       513   8  5.488679E+05 -2.075755E+04  7.979841E+03  5.133399E+04  3.497894E+04 -7.042275E+03
       513   9  6.282134E+05 -1.980498E+04  5.523356E+03  8.536425E+04  2.426710E+04 -5.575997E+03
       513  10  9.850697E+05  1.422393E+05  1.470083E+05  1.353852E+05  3.576527E-10 -8.268236E-11
       513  11  9.037274E+05  6.437923E+04  7.900278E+04  1.013535E+05  1.407491E-10 -4.630768E-11
       513  12  8.375963E+05  2.970500E+04  4.387126E+04  8.162145E+04 -2.467898E-10  2.723487E-10
       513  13  7.328600E+05  7.984641E+04  8.710336E+04  8.348319E+04 -1.988249E-10 -1.797102E-10
       513  14  7.262813E+05  2.181044E+04  4.349075E+04  7.634023E+04 -2.456654E-10 -2.714117E-10
       513  15  7.328992E+05  4.950218E+03  2.469695E+04  8.349307E+04  4.030396E-10  3.491064E-10
       513  16  4.807143E+05  1.745904E+04  2.719547E+04  3.160230E+04 -3.373297E-10 -8.842873E-11
       513  17  5.488665E+05 -2.075793E+04  7.977450E+03  5.133419E+04 -2.533235E-10 -1.930769E-10
       513  18  6.282127E+05 -1.980518E+04  5.522192E+03  8.536436E+04  3.427108E-10  9.054895E-11
       513  19  9.850757E+05  1.422408E+05  1.470188E+05  1.353851E+05 -7.492726E+04  2.450418E+03
       513  20  9.037292E+05  6.437974E+04  7.900603E+04  1.013533E+05 -4.097194E+04  7.037867E+03
       513  21  8.375963E+05  2.970505E+04  4.387142E+04  8.162142E+04 -7.021616E+03  5.579491E+03
       513  22  7.328639E+05  7.984739E+04  8.711020E+04  8.348307E+04 -6.030542E+04  2.458928E+03
       513  23  7.262828E+05  2.181088E+04  4.349355E+04  7.634001E+04 -3.797502E+04  7.040191E+03
       513  24  7.328995E+05  4.950317E+03  2.469747E+04  8.349300E+04 -1.564507E+04  5.577770E+03
       513  25  4.807165E+05  1.745960E+04  2.719940E+04  3.160221E+04 -4.568948E+04  2.465000E+03
       513  26  5.488679E+05 -2.075755E+04  7.979841E+03  5.133399E+04 -3.497894E+04  7.042275E+03
       513  27  6.282134E+05 -1.980498E+04  5.523356E+03  8.536425E+04 -2.426710E+04  5.575997E+03
       514   1  7.878040E+05  1.822268E+04  3.032416E+04  8.596395E+04  4.000182E+03 -2.778227E+03
       514   2  7.132429E+05 -2.669715E+03  1.106208E+04  7.727803E+04 -3.410013E+03  1.816139E+03
       514   3  6.404303E+05 -2.043262E+04 -2.598826E+03  8.329287E+04 -1.081941E+04  6.928913E+03
       514   4  7.303158E+05  4.556646E+03  1.943861E+04  8.358238E+04  1.233396E+04 -2.776479E+03
       514   5  7.295306E+05  9.441106E+02  1.285949E+04  7.623242E+04  5.919943E+03  1.818058E+03
       514   6  7.303173E+05  2.889024E+02  1.119104E+04  8.358307E+04 -4.940804E+02  6.930968E+03
       514   7  6.728309E+05 -9.109519E+03  8.553169E+03  8.120104E+04  2.066698E+04 -2.774795E+03
       514   8  7.458188E+05  4.557977E+03  1.465722E+04  7.518678E+04  1.525013E+04  1.819945E+03
       514   9  8.202126E+05  2.101010E+04  2.498112E+04  8.387331E+04  9.832686E+03  6.933033E+03
       514  10  7.878040E+05  1.822266E+04  3.032412E+04  8.596396E+04  3.759981E-10  1.386358E-10
       514  11  7.132429E+05 -2.669722E+03  1.106205E+04  7.727804E+04  3.311868E-10  1.358262E-10
       514  12  6.404302E+05 -2.043271E+04 -2.599136E+03  8.329293E+04 -4.776103E-11  1.114046E-10
       514  13  7.303156E+05  4.556597E+03  1.943831E+04  8.358241E+04  2.289423E-10  3.418127E-10
       514  14  7.295306E+05  9.440976E+02  1.285941E+04  7.623241E+04  3.292737E-10  2.383480E-10
       514  15  7.303173E+05  2.888507E+02  1.119095E+04  8.358307E+04 -9.060171E-11 -6.902659E-12
       514  16  6.728304E+05 -9.109642E+03  8.552352E+03  8.120108E+04 -6.517169E-10  1.816581E-11
       514  17  7.458185E+05  4.557912E+03  1.465678E+04  7.518675E+04  6.786054E-11  2.201384E-10
       514  18  8.202125E+05  2.101002E+04  2.498085E+04  8.387325E+04  1.957276E-10 -6.569645E-12
       514  19  7.878040E+05  1.822268E+04  3.032416E+04  8.596395E+04 -4.000182E+03  2.778227E+03
       514  20  7.132429E+05 -2.669715E+03  1.106208E+04  7.727803E+04  3.410013E+03 -1.816139E+03
       514  21  6.404303E+05 -2.043262E+04 -2.598826E+03  8.329287E+04  1.081941E+04 -6.928913E+03
       514  22  7.303158E+05  4.556646E+03  1.943861E+04  8.358238E+04 -1.233396E+04  2.776479E+03
       514  23  7.295306E+05  9.441106E+02  1.285949E+04  7.623242E+04 -5.919943E+03 -1.818058E+03
       514  24  7.303173E+05  2.889024E+02  1.119104E+04  8.358307E+04  4.940804E+02 -6.930968E+03
       514  25  6.728309E+05 -9.109519E+03  8.553169E+03  8.120104E+04 -2.066698E+04  2.774795E+03
       514  26  7.458188E+05  4.557977E+03  1.465722E+04  7.518678E+04 -1.525013E+04 -1.819945E+03
       514  27  8.202126E+05  2.101010E+04  2.498112E+04  8.387331E+04 -9.832686E+03 -6.933033E+03
       515   1  5.935754E+05 -3.137074E+04 -9.809181E+03  8.411862E+04 -1.282467E+04  1.012873E+04
       515   2  5.190351E+05 -4.747879E+04 -1.813112E+04  7.491995E+04 -1.854707E+04  1.496476E+04
       515   3  4.461440E+05 -6.000648E+04 -2.183377E+04  8.039264E+04 -2.426826E+04  1.869825E+04
       515   4  7.304128E+05  2.798182E+02  1.170975E+04  8.357642E+04 -2.472904E+03  1.013059E+04
       515   5  7.294004E+05  1.333970E+03  1.571259E+04  7.624054E+04 -1.031638E+04  1.496555E+04
       515   6  7.303987E+05  6.335686E+03  2.580484E+04  8.357546E+04 -1.815930E+04  1.869814E+04
       515   7  8.672690E+05  3.192951E+04  3.322863E+04  8.303410E+04  7.881062E+03  1.013242E+04
       515   8  9.398098E+05  5.014455E+04  4.955538E+04  7.756158E+04 -2.083003E+03  1.496638E+04
       515   9  1.014733E+06  7.267369E+04  7.344108E+04  8.675978E+04 -1.204764E+04  1.869810E+04
       515  10  5.935752E+05 -3.137090E+04 -9.809683E+03  8.411872E+04  5.580150E-10  2.336699E-10
       515  11  5.190347E+05 -4.747913E+04 -1.813219E+04  7.492017E+04  2.481782E-11 -1.910980E-10
       515  12  4.461433E+05 -6.000701E+04 -2.183554E+04  8.039301E+04 -1.549449E-10 -3.058215E-10
       515  13  7.304128E+05  2.797063E+02  1.170955E+04  8.357644E+04 -2.525621E-11  1.883890E-11
       515  14  7.294002E+05  1.333701E+03  1.571197E+04  7.624066E+04  1.003169E-10 -1.380428E-10
       515  15  7.303982E+05  6.335222E+03  2.580357E+04  8.357573E+04 -9.155863E-11 -3.088308E-10
       515  16  8.672689E+05  3.192939E+04  3.322832E+04  8.303403E+04 -2.908375E-10 -9.303373E-11
       515  17  9.398097E+05  5.014431E+04  4.955495E+04  7.756161E+04 -1.094175E-11 -1.806095E-10
       515  18  1.014733E+06  7.267327E+04  7.344015E+04  8.675996E+04  3.132347E-10 -2.559001E-10
       515  19  5.935754E+05 -3.137074E+04 -9.809181E+03  8.411862E+04  1.282467E+04 -1.012873E+04
       515  20  5.190351E+05 -4.747879E+04 -1.813112E+04  7.491995E+04  1.854707E+04 -1.496476E+04
       515  21  4.461440E+05 -6.000648E+04 -2.183377E+04  8.039264E+04  2.426826E+04 -1.869825E+04
       515  22  7.304128E+05  2.798182E+02  1.170975E+04  8.357642E+04  2.472904E+03 -1.013059E+04
       515  23  7.294004E+05  1.333970E+03  1.571259E+04  7.624054E+04  1.031638E+04 -1.496555E+04
       515  24  7.303987E+05  6.335686E+03  2.580484E+04  8.357546E+04  1.815930E+04 -1.869814E+04
       515  25  8.672690E+05  3.192951E+04  3.322863E+04  8.303410E+04 -7.881062E+03 -1.013242E+04
       515  26  9.398098E+05  5.014455E+04  4.955538E+04  7.756158E+04  2.083003E+03 -1.496638E+04
       515  27  1.014733E+06  7.267369E+04  7.344108E+04  8.675978E+04  1.204764E+04 -1.869810E+04
       516   1  4.022544E+05 -7.075796E+04 -2.313661E+04  8.611096E+04 -2.921672E+04  2.105270E+04
       516   2  3.210476E+05 -6.586932E+04 -1.714411E+04  4.181709E+04 -3.879472E+04  1.899677E+04
       516   3  2.544983E+05 -7.452386E+03  8.469415E+03  1.146830E+04 -4.837285E+04  5.896324E+03
       516   4  7.340194E+05  6.866103E+03  3.343007E+04  8.341223E+04 -2.257143E+04  2.105249E+04
       516   5  7.248318E+05  3.026753E+04  5.999692E+04  7.644043E+04 -5.337896E+04  1.899312E+04
       516   6  7.339624E+05  1.108550E+05  1.209067E+05  8.340980E+04 -8.418849E+04  5.891390E+03
       516   7  1.065893E+06  8.448438E+04  8.999330E+04  8.071200E+04 -1.592270E+04  2.105222E+04
       516   8  1.128776E+06  1.263994E+05  1.371320E+05  1.110868E+05 -6.797245E+04  1.898785E+04
       516   9  1.213652E+06  2.291662E+05  2.333360E+05  1.554072E+05 -1.200316E+05  5.878166E+03
       516  10  4.022534E+05 -7.075867E+04 -2.313905E+04  8.611146E+04  1.888453E-10 -3.799789E-10
       516  11  3.210459E+05 -6.587011E+04 -1.714761E+04  4.181769E+04  1.414417E-10 -3.990035E-10
       516  12  2.544957E+05 -7.453052E+03  8.464955E+03  1.146853E+04 -3.674917E-10 -2.082574E-10
       516  13  7.340187E+05  6.865490E+03  3.342828E+04  8.341261E+04 -4.771559E-10 -4.295944E-10
       516  14  7.248287E+05  3.026638E+04  5.999089E+04  7.644125E+04  6.273004E-11 -3.830317E-10
       516  15  7.339547E+05  1.108531E+05  1.208934E+05  8.341020E+04 -6.677004E-11 -7.902824E-11
       516  16  1.065892E+06  8.448384E+04  8.999199E+04  8.071227E+04 -2.444336E-10 -3.472818E-10
       516  17  1.128771E+06  1.263978E+05  1.371226E+05  1.110878E+05 -3.057832E-10 -3.162541E-10
       516  18  1.213636E+06  2.291623E+05  2.333089E+05  1.554077E+05  7.647510E-10 -1.242322E-10
       516  19  4.022544E+05 -7.075796E+04 -2.313661E+04  8.611096E+04  2.921672E+04 -2.105270E+04
       516  20  3.210476E+05 -6.586932E+04 -1.714411E+04  4.181709E+04  3.879472E+04 -1.899677E+04
       516  21  2.544983E+05 -7.452386E+03  8.469415E+03  1.146830E+04  4.837285E+04 -5.896324E+03
       516  22  7.340194E+05  6.866103E+03  3.343007E+04  8.341223E+04  2.257143E+04 -2.105249E+04
       516  23  7.248318E+05  3.026753E+04  5.999692E+04  7.644043E+04  5.337896E+04 -1.899312E+04
       516  24  7.339624E+05  1.108550E+05  1.209067E+05  8.340980E+04  8.418849E+04 -5.891390E+03
       516  25  1.065893E+06  8.448438E+04  8.999330E+04  8.071200E+04  1.592270E+04 -2.105222E+04
       516  26  1.128776E+06  1.263994E+05  1.371320E+05  1.110868E+05  6.797245E+04 -1.898785E+04
       516  27  1.213652E+06  2.291662E+05  2.333360E+05  1.554072E+05  1.200316E+05 -5.878166E+03
       517   1 -7.866517E+05 -1.725126E+05 -1.949265E+05 -1.260550E+05 -1.508075E+05 -2.553566E+03
       517   2 -7.835245E+05 -1.830425E+04 -8.559438E+04 -5.343189E+04 -9.823629E+04 -8.790467E+03
       517   3 -8.151918E+05  2.411757E+04 -3.845689E+04  2.171426E+04 -4.566543E+04 -1.071969E+04
       517   4 -9.767660E+05 -2.195264E+05 -2.392467E+05  1.623077E+04 -1.667969E+05 -2.585831E+03
       517   5 -9.585926E+05 -5.994091E+04 -1.183925E+05  1.498253E+04 -1.060022E+05 -8.800563E+03
       517   6 -9.766651E+05 -1.360973E+04 -6.546317E+04  1.625348E+04 -4.520542E+04 -1.071958E+04
       517   7 -1.166803E+06 -2.664664E+05 -2.835575E+05  1.584726E+05 -1.827815E+05 -2.625444E+03
       517   8 -1.133621E+06 -1.015617E+05 -1.511892E+05  8.337716E+04 -1.137661E+05 -8.812376E+03
       517   9 -1.138113E+06 -5.133827E+04 -9.247024E+04  1.079417E+04 -4.474552E+04 -1.071949E+04
       517  10 -7.866761E+05 -1.725187E+05 -1.949693E+05 -1.260553E+05 -3.199411E-10  2.538358E-10
       517  11 -7.835349E+05 -1.830693E+04 -8.561268E+04 -5.343259E+04 -1.213708E-10 -1.245642E-10
       517  12 -8.151941E+05  2.411689E+04 -3.846103E+04  2.171386E+04  1.226061E-09 -1.851205E-10
       517  13 -9.767959E+05 -2.195339E+05 -2.392991E+05  1.623042E+04 -3.112333E-10 -7.219610E-11
       517  14 -9.586047E+05 -5.994402E+04 -1.184138E+05  1.498178E+04 -2.478898E-10  3.449791E-11
       517  15 -9.766673E+05 -1.361040E+04 -6.546723E+04  1.625309E+04  3.815073E-10 -1.698741E-10
       517  16 -1.166839E+06 -2.664754E+05 -2.836204E+05  1.584722E+05  1.418603E-10  5.465375E-11
       517  17 -1.133635E+06 -1.015653E+05 -1.512137E+05  8.337636E+04 -6.068543E-10  6.336310E-11
       517  18 -1.138115E+06 -5.133894E+04 -9.247422E+04  1.079379E+04 -1.601738E-09 -4.873659E-10
       517  19 -7.866517E+05 -1.725126E+05 -1.949265E+05 -1.260550E+05  1.508075E+05  2.553566E+03
       517  20 -7.835245E+05 -1.830425E+04 -8.559438E+04 -5.343189E+04  9.823629E+04  8.790467E+03
       517  21 -8.151918E+05  2.411757E+04 -3.845689E+04  2.171426E+04  4.566543E+04  1.071969E+04
       517  22 -9.767660E+05 -2.195264E+05 -2.392467E+05  1.623077E+04  1.667969E+05  2.585831E+03
       517  23 -9.585926E+05 -5.994091E+04 -1.183925E+05  1.498253E+04  1.060022E+05  8.800563E+03
       517  24 -9.766651E+05 -1.360973E+04 -6.546317E+04  1.625348E+04  4.520542E+04  1.071958E+04
       517  25 -1.166803E+06 -2.664664E+05 -2.835575E+05  1.584726E+05  1.827815E+05  2.625444E+03
       517  26 -1.133621E+06 -1.015617E+05 -1.511892E+05  8.337716E+04  1.137661E+05  8.812376E+03
       517  27 -1.138113E+06 -5.133827E+04 -9.247024E+04  1.079417E+04  4.474552E+04  1.071949E+04
       518   1 -8.173515E+05  2.288109E+04 -2.513771E+04  1.015956E+04 -3.688431E+04 -1.045254E+04
       518   2 -8.298530E+05  2.927204E+04 -7.608990E+03  1.243270E+04 -2.307860E+04 -1.009512E+04
       518   3 -8.460346E+05  2.813339E+04 -9.580088E+02  1.754748E+04 -9.273038E+03 -9.271163E+03
       518   4 -9.694689E+05 -1.257439E+04 -5.013742E+04  1.632169E+04 -3.663720E+04 -1.045316E+04
       518   5 -9.675449E+05 -2.662466E+03 -2.944745E+04  1.490104E+04 -2.194025E+04 -1.009548E+04
       518   6 -9.694572E+05 -4.362582E+02 -2.025680E+04  1.632219E+04 -7.243114E+03 -9.271389E+03
       518   7 -1.121563E+06 -4.803092E+04 -7.513779E+04  2.248225E+04 -3.639016E+04 -1.045378E+04
       518   8 -1.105218E+06 -3.459789E+04 -5.128638E+04  1.736882E+04 -2.080214E+04 -1.009584E+04
       518   9 -1.092865E+06 -2.900665E+04 -3.955594E+04  1.509716E+04 -5.213579E+03 -9.271624E+03
       518  10 -8.173529E+05  2.288061E+04 -2.514047E+04  1.015925E+04 -3.629774E-10 -2.284616E-10
       518  11 -8.298536E+05  2.927179E+04 -7.610183E+03  1.243251E+04 -3.948081E-10 -4.925332E-11
       518  12 -8.460347E+05  2.813327E+04 -9.583321E+02  1.754741E+04 -8.915777E-11  3.638905E-10
       518  13 -9.694704E+05 -1.257487E+04 -5.014015E+04  1.632138E+04 -2.549632E-10 -4.551319E-10
       518  14 -9.675455E+05 -2.662705E+03 -2.944855E+04  1.490087E+04 -4.175171E-10 -4.430073E-11
       518  15 -9.694573E+05 -4.363646E+02 -2.025706E+04  1.632214E+04  3.347150E-10  2.514437E-10
       518  16 -1.121565E+06 -4.803139E+04 -7.514049E+04  2.248195E+04  5.082448E-10 -3.992058E-10
       518  17 -1.105218E+06 -3.459812E+04 -5.128739E+04  1.736865E+04 -7.970983E-11  6.606025E-11
       518  18 -1.092865E+06 -2.900675E+04 -3.955615E+04  1.509712E+04  2.155199E-10  7.712410E-11
       518  19 -8.173515E+05  2.288109E+04 -2.513771E+04  1.015956E+04  3.688431E+04  1.045254E+04
       518  20 -8.298530E+05  2.927204E+04 -7.608990E+03  1.243270E+04  2.307860E+04  1.009512E+04
       518  21 -8.460346E+05  2.813339E+04 -9.580088E+02  1.754748E+04  9.273038E+03  9.271163E+03
       518  22 -9.694689E+05 -1.257439E+04 -5.013742E+04  1.632169E+04  3.663720E+04  1.045316E+04
       518  23 -9.675449E+05 -2.662466E+03 -2.944745E+04  1.490104E+04  2.194025E+04  1.009548E+04
       518  24 -9.694572E+05 -4.362582E+02 -2.025680E+04  1.632219E+04  7.243114E+03  9.271389E+03
       518  25 -1.121563E+06 -4.803092E+04 -7.513779E+04  2.248225E+04  3.639016E+04  1.045378E+04
       518  26 -1.105218E+06 -3.459789E+04 -5.128638E+04  1.736882E+04  2.080214E+04  1.009584E+04
       518  27 -1.092865E+06 -2.900665E+04 -3.955594E+04  1.509716E+04  5.213579E+03  9.271624E+03
       519   1 -8.548285E+05  2.597495E+04 -5.112256E+02  1.614670E+04 -5.921433E+03 -8.646098E+03
       519   2 -8.681420E+05  2.197565E+04 -3.092031E+03  1.637833E+04  3.093436E+03 -7.527098E+03
       519   3 -8.836032E+05  1.408152E+04 -1.252103E+04  1.949873E+04  1.210789E+04 -6.258546E+03
       519   4 -9.690928E+05 -4.593157E+02 -1.829967E+04  1.633253E+04 -3.917616E+03 -8.646298E+03
       519   5 -9.679948E+05 -1.131946E+03 -1.867287E+04  1.488801E+04  5.382563E+03 -7.527239E+03
       519   6 -9.690951E+05 -5.749451E+03 -2.609341E+04  1.633234E+04  1.468251E+04 -6.258665E+03
       519   7 -1.083344E+06 -2.689422E+04 -3.608841E+04  1.651833E+04 -1.914154E+03 -8.646497E+03
       519   8 -1.067838E+06 -2.424002E+04 -3.425392E+04  1.339793E+04  7.671335E+03 -7.527391E+03
       519   9 -1.054580E+06 -2.558075E+04 -3.966595E+04  1.316641E+04  1.725679E+04 -6.258810E+03
       519  10 -8.548286E+05  2.597486E+04 -5.114319E+02  1.614666E+04  3.266460E-10  4.148758E-10
       519  11 -8.681420E+05  2.197559E+04 -3.092156E+03  1.637835E+04  8.005209E-10  2.844269E-10
       519  12 -8.836034E+05  1.408144E+04 -1.252138E+04  1.949879E+04 -4.352453E-11  1.881847E-10
       519  13 -9.690928E+05 -4.594000E+02 -1.829984E+04  1.633251E+04  3.905352E-10  1.820660E-10
       519  14 -9.679949E+05 -1.132015E+03 -1.867303E+04  1.488804E+04  9.701269E-12  1.496404E-11
       519  15 -9.690954E+05 -5.749551E+03 -2.609389E+04  1.633242E+04  7.023292E-10 -4.755177E-11
       519  16 -1.083344E+06 -2.689430E+04 -3.608856E+04  1.651832E+04  1.967407E-10 -9.768851E-11
       519  17 -1.067838E+06 -2.424010E+04 -3.425414E+04  1.339798E+04  2.913771E-10 -1.886364E-10
       519  18 -1.054580E+06 -2.558087E+04 -3.966659E+04  1.316650E+04  1.996860E-10 -2.901964E-10
       519  19 -8.548285E+05  2.597495E+04 -5.112256E+02  1.614670E+04  5.921433E+03  8.646098E+03
       519  20 -8.681420E+05  2.197565E+04 -3.092031E+03  1.637833E+04 -3.093436E+03  7.527098E+03
       519  21 -8.836032E+05  1.408152E+04 -1.252103E+04  1.949873E+04 -1.210789E+04  6.258546E+03
       519  22 -9.690928E+05 -4.593157E+02 -1.829967E+04  1.633253E+04  3.917616E+03  8.646298E+03
       519  23 -9.679948E+05 -1.131946E+03 -1.867287E+04  1.488801E+04 -5.382563E+03  7.527239E+03
       519  24 -9.690951E+05 -5.749451E+03 -2.609341E+04  1.633234E+04 -1.468251E+04  6.258665E+03
       519  25 -1.083344E+06 -2.689422E+04 -3.608841E+04  1.651833E+04  1.914154E+03  8.646497E+03
       519  26 -1.067838E+06 -2.424002E+04 -3.425392E+04  1.339793E+04 -7.671335E+03  7.527391E+03
       519  27 -1.054580E+06 -2.558075E+04 -3.966595E+04  1.316641E+04 -1.725679E+04  6.258810E+03
       520   1 -8.959856E+05  1.147909E+04 -2.026714E+04  1.402127E+04  1.657347E+04 -5.518229E+03
       520   2 -9.021042E+05 -1.330468E+04 -4.524035E+04  4.687601E+04  4.351040E+04 -3.720935E+03
       520   3 -9.248414E+05 -9.050286E+04 -1.008712E+05  8.269418E+04  7.044723E+04 -9.678025E+02
       520   4 -9.723678E+05 -6.257187E+03 -3.248526E+04  1.634907E+04  1.909986E+04 -5.518187E+03
       520   5 -9.639208E+05 -2.784761E+04 -5.605531E+04  1.486691E+04  4.786217E+04 -3.723102E+03
       520   6 -9.724129E+05 -1.021766E+05 -1.115536E+05  1.634950E+04  7.662480E+04 -9.751174E+02
       520   7 -1.048744E+06 -2.399373E+04 -4.470350E+04  1.867657E+04  2.162596E+04 -5.518126E+03
       520   8 -1.025731E+06 -4.238689E+04 -6.686978E+04 -1.713890E+04  5.221352E+04 -3.725718E+03
       520   9 -1.019973E+06 -1.138340E+05 -1.222336E+05 -4.999003E+04  8.280189E+04 -9.837551E+02
       520  10 -8.959859E+05  1.147898E+04 -2.026771E+04  1.402135E+04 -4.543788E-10  9.006609E-11
       520  11 -9.021062E+05 -1.330521E+04 -4.524394E+04  4.687614E+04  6.868406E-11 -5.858658E-11
       520  12 -9.248468E+05 -9.050420E+04 -1.008806E+05  8.269423E+04  3.303825E-10 -8.805293E-11
       520  13 -9.723682E+05 -6.257318E+03 -3.248600E+04  1.634915E+04  1.429725E-10 -1.934483E-11
       520  14 -9.639233E+05 -2.784825E+04 -5.605965E+04  1.486705E+04  1.795954E-10  7.896295E-11
       520  15 -9.724192E+05 -1.021782E+05 -1.115647E+05  1.634957E+04 -3.269377E-10  5.616510E-11
       520  16 -1.048745E+06 -2.399389E+04 -4.470444E+04  1.867666E+04  3.176227E-10 -1.356613E-10
       520  17 -1.025734E+06 -4.238763E+04 -6.687494E+04 -1.713875E+04  3.559194E-10  1.767502E-10
       520  18 -1.019980E+06 -1.138359E+05 -1.222466E+05 -4.998996E+04 -3.921071E-10  1.042097E-10
       520  19 -8.959856E+05  1.147909E+04 -2.026714E+04  1.402127E+04 -1.657347E+04  5.518229E+03
       520  20 -9.021042E+05 -1.330468E+04 -4.524035E+04  4.687601E+04 -4.351040E+04  3.720935E+03
       520  21 -9.248414E+05 -9.050286E+04 -1.008712E+05  8.269418E+04 -7.044723E+04  9.678025E+02
       520  22 -9.723678E+05 -6.257187E+03 -3.248526E+04  1.634907E+04 -1.909986E+04  5.518187E+03
       520  23 -9.639208E+05 -2.784761E+04 -5.605531E+04  1.486691E+04 -4.786217E+04  3.723102E+03
       520  24 -9.724129E+05 -1.021766E+05 -1.115536E+05  1.634950E+04 -7.662480E+04  9.751174E+02
       520  25 -1.048744E+06 -2.399373E+04 -4.470350E+04  1.867657E+04 -2.162596E+04  5.518126E+03
       520  26 -1.025731E+06 -4.238689E+04 -6.686978E+04 -1.713890E+04 -5.221352E+04  3.725718E+03
       520  27 -1.019973E+06 -1.138340E+05 -1.222336E+05 -4.999003E+04 -8.280189E+04  9.837551E+02
       521   1 -5.152056E+05  3.631927E+03 -7.828036E+03 -2.292115E+04 -3.060707E+04 -4.489634E+03
       521   2 -5.340674E+05  5.054587E+04  1.463271E+04  8.272249E+02 -2.329550E+04 -1.517212E+04
       521   3 -5.631738E+05  6.026359E+04  2.303382E+04  2.880568E+04 -1.598458E+04 -1.849448E+04
       521   4 -8.415279E+05 -7.688520E+04 -8.385469E+04  2.692816E+04 -5.814372E+04 -4.494224E+03
       521   5 -8.351582E+05 -2.098657E+04 -4.173391E+04  2.480800E+04 -3.671870E+04 -1.517523E+04
       521   6 -8.414935E+05 -4.749277E+03 -2.348767E+04  2.691813E+04 -1.529346E+04 -1.849508E+04
       521   7 -1.167745E+06 -1.574001E+05 -1.598844E+05  7.675107E+04 -8.566597E+04 -4.503241E+03
       521   8 -1.136160E+06 -9.252199E+04 -9.810346E+04  4.877683E+04 -5.013554E+04 -1.517937E+04
       521   9 -1.119737E+06 -6.976618E+04 -7.001154E+04  2.503145E+04 -1.460265E+04 -1.849568E+04
       521  10 -5.152066E+05  3.631653E+03 -7.829835E+03 -2.292126E+04 -3.067129E-10  9.304716E-11
       521  11 -5.340681E+05  5.054548E+04  1.463125E+04  8.269402E+02 -5.098012E-10  2.840536E-10
       521  12 -5.631742E+05  6.026315E+04  2.303270E+04  2.880545E+04  1.789037E-10  2.629433E-11
       521  13 -8.415316E+05 -7.688613E+04 -8.386109E+04  2.692795E+04 -5.694527E-10  1.739217E-10
       521  14 -8.351597E+05 -2.098718E+04 -4.173688E+04  2.480755E+04 -6.350721E-10  3.908671E-10
       521  15 -8.414938E+05 -4.749707E+03 -2.348875E+04  2.691791E+04 -6.091138E-11  1.345990E-10
       521  16 -1.167753E+06 -1.574021E+05 -1.598982E+05  7.675076E+04 -2.559709E-10  1.739008E-10
       521  17 -1.136162E+06 -9.252291E+04 -9.810862E+04  4.877622E+04  3.416386E-10  1.008227E-10
       521  18 -1.119737E+06 -6.976660E+04 -7.001259E+04  2.503124E+04 -1.044007E-11  3.452017E-11
       521  19 -5.152056E+05  3.631927E+03 -7.828036E+03 -2.292115E+04  3.060707E+04  4.489634E+03
       521  20 -5.340674E+05  5.054587E+04  1.463271E+04  8.272249E+02  2.329550E+04  1.517212E+04
       521  21 -5.631738E+05  6.026359E+04  2.303382E+04  2.880568E+04  1.598458E+04  1.849448E+04
       521  22 -8.415279E+05 -7.688520E+04 -8.385469E+04  2.692816E+04  5.814372E+04  4.494224E+03
       521  23 -8.351582E+05 -2.098657E+04 -4.173391E+04  2.480800E+04  3.671870E+04  1.517523E+04
       521  24 -8.414935E+05 -4.749277E+03 -2.348767E+04  2.691813E+04  1.529346E+04  1.849508E+04
       521  25 -1.167745E+06 -1.574001E+05 -1.598844E+05  7.675107E+04  8.566597E+04  4.503241E+03
       521  26 -1.136160E+06 -9.252199E+04 -9.810346E+04  4.877683E+04  5.013554E+04  1.517937E+04
       521  27 -1.119737E+06 -6.976618E+04 -7.001154E+04  2.503145E+04  1.460265E+04  1.849568E+04
       522   1 -5.763428E+05  5.682255E+04  2.481540E+04  2.483184E+04 -1.250209E+04 -1.806263E+04
       522   2 -5.997678E+05  5.439769E+04  2.611952E+04  2.373759E+04 -8.206239E+03 -1.749191E+04
       522   3 -6.243798E+05  4.944992E+04  2.399527E+04  2.739872E+04 -3.910941E+03 -1.612056E+04
       522   4 -8.389937E+05 -4.376617E+03 -1.832510E+04  2.703534E+04 -1.217302E+04 -1.806332E+04
       522   5 -8.382628E+05 -9.016055E+02 -1.169075E+04  2.465702E+04 -6.343206E+03 -1.749213E+04
       522   6 -8.389870E+05 -2.168052E+02 -9.552209E+03  2.703427E+04 -5.137983E+02 -1.612017E+04
       522   7 -1.101576E+06 -6.557932E+04 -6.146759E+04  2.923787E+04 -1.184408E+04 -1.806401E+04
       522   8 -1.076701E+06 -5.620373E+04 -4.950244E+04  2.557608E+04 -4.480862E+03 -1.749235E+04
       522   9 -1.053548E+06 -4.988579E+04 -4.310075E+04  2.666995E+04  2.882213E+03 -1.611979E+04
       522  10 -5.763431E+05  5.682216E+04  2.481449E+04  2.483166E+04 -3.497385E-10  1.756107E-10
       522  11 -5.997679E+05  5.439734E+04  2.611881E+04  2.373747E+04  3.559479E-10 -4.844848E-10
       522  12 -6.243799E+05  4.944964E+04  2.399476E+04  2.739867E+04  1.109984E-10 -2.996114E-10
       522  13 -8.389939E+05 -4.377008E+03 -1.832599E+04  2.703516E+04 -2.748327E-15  3.135232E-11
       522  14 -8.382629E+05 -9.019447E+02 -1.169140E+04  2.465693E+04 -3.400105E-11 -1.864810E-10
       522  15 -8.389871E+05 -2.170842E+02 -9.552698E+03  2.703426E+04  7.704011E-11 -3.026153E-10
       522  16 -1.101576E+06 -6.557971E+04 -6.146846E+04  2.923769E+04  5.463496E-10 -1.638300E-10
       522  17 -1.076701E+06 -5.620406E+04 -4.950305E+04  2.557602E+04  3.076156E-10 -1.577846E-10
       522  18 -1.053548E+06 -4.988607E+04 -4.310125E+04  2.666998E+04 -5.144190E-10  7.491547E-11
       522  19 -5.763428E+05  5.682255E+04  2.481540E+04  2.483184E+04  1.250209E+04  1.806263E+04
       522  20 -5.997678E+05  5.439769E+04  2.611952E+04  2.373759E+04  8.206239E+03  1.749191E+04
       522  21 -6.243798E+05  4.944992E+04  2.399527E+04  2.739872E+04  3.910941E+03  1.612056E+04
       522  22 -8.389937E+05 -4.376617E+03 -1.832510E+04  2.703534E+04  1.217302E+04  1.806332E+04
       522  23 -8.382628E+05 -9.016055E+02 -1.169075E+04  2.465702E+04  6.343206E+03  1.749213E+04
       522  24 -8.389870E+05 -2.168052E+02 -9.552209E+03  2.703427E+04  5.137983E+02  1.612017E+04
       522  25 -1.101576E+06 -6.557932E+04 -6.146759E+04  2.923787E+04  1.184408E+04  1.806401E+04
       522  26 -1.076701E+06 -5.620373E+04 -4.950244E+04  2.557608E+04  4.480862E+03  1.749235E+04
       522  27 -1.053548E+06 -4.988579E+04 -4.310075E+04  2.666995E+04 -2.882213E+03  1.611979E+04
       523   1 -6.397297E+05  4.587884E+04  2.135871E+04  2.671289E+04 -2.208379E+03 -1.507401E+04
       523   2 -6.630794E+05  3.955136E+04  1.504854E+04  2.568604E+04  3.402560E+03 -1.318982E+04
       523   3 -6.878880E+05  3.031614E+04  4.355324E+03  2.949664E+04  9.013075E+03 -1.103486E+04
       523   4 -8.390068E+05 -2.136940E+02 -9.661066E+03  2.705242E+04  1.143475E+03 -1.507350E+04
       523   5 -8.382322E+05 -9.773239E+02 -1.228892E+04  2.463426E+04  7.272243E+03 -1.318895E+04
       523   6 -8.390071E+05 -4.739045E+03 -1.966043E+04  2.705366E+04  1.340079E+04 -1.103363E+04
       523   7 -1.038244E+06 -4.630817E+04 -4.068173E+04  2.739183E+04  4.494294E+03 -1.507299E+04
       523   8 -1.013354E+06 -4.150751E+04 -3.962706E+04  2.358278E+04  1.114087E+04 -1.318810E+04
       523   9 -9.901034E+05 -3.979534E+04 -4.367670E+04  2.461130E+04  1.778747E+04 -1.103243E+04
       523  10 -6.397298E+05  4.587860E+04  2.135828E+04  2.671286E+04 -2.287490E-10 -2.165284E-10
       523  11 -6.630794E+05  3.955117E+04  1.504820E+04  2.568608E+04 -2.350109E-10 -9.520574E-11
       523  12 -6.878881E+05  3.031599E+04  4.354943E+03  2.949672E+04  3.599455E-10 -6.415996E-10
       523  13 -8.390068E+05 -2.139382E+02 -9.661495E+03  2.705243E+04 -5.042897E-11 -2.444465E-10
       523  14 -8.382323E+05 -9.775248E+02 -1.228935E+04  2.463434E+04 -2.142045E-10 -2.860556E-10
       523  15 -8.390073E+05 -4.739224E+03 -1.966100E+04  2.705378E+04 -1.375377E-10 -2.952879E-10
       523  16 -1.038244E+06 -4.630842E+04 -4.068220E+04  2.739188E+04 -3.877950E-11 -1.088062E-10
       523  17 -1.013355E+06 -4.150773E+04 -3.962762E+04  2.358290E+04 -7.422114E-10  3.307971E-10
       523  18 -9.901038E+05 -3.979556E+04 -4.367752E+04  2.461146E+04 -7.736973E-10  1.950408E-10
       523  19 -6.397297E+05  4.587884E+04  2.135871E+04  2.671289E+04  2.208379E+03  1.507401E+04
       523  20 -6.630794E+05  3.955136E+04  1.504854E+04  2.568604E+04 -3.402560E+03  1.318982E+04
       523  21 -6.878880E+05  3.031614E+04  4.355324E+03  2.949664E+04 -9.013075E+03  1.103486E+04
       523  22 -8.390068E+05 -2.136940E+02 -9.661066E+03  2.705242E+04 -1.143475E+03  1.507350E+04
       523  23 -8.382322E+05 -9.773239E+02 -1.228892E+04  2.463426E+04 -7.272243E+03  1.318895E+04
       523  24 -8.390071E+05 -4.739045E+03 -1.966043E+04  2.705366E+04 -1.340079E+04  1.103363E+04
       523  25 -1.038244E+06 -4.630817E+04 -4.068173E+04  2.739183E+04 -4.494294E+03  1.507299E+04
       523  26 -1.013354E+06 -4.150751E+04 -3.962706E+04  2.358278E+04 -1.114087E+04  1.318810E+04
       523  27 -9.901034E+05 -3.979534E+04 -4.367670E+04  2.461130E+04 -1.778747E+04  1.103243E+04
       524   1 -7.058363E+05  2.641677E+04 -3.547114E+03  2.508872E+04  1.245348E+04 -9.779048E+03
       524   2 -7.233798E+05  3.506934E+03 -2.562099E+04  5.066079E+04  3.225829E+04 -6.642755E+03
       524   3 -7.541181E+05 -6.183450E+04 -7.120845E+04  8.121430E+04  5.206186E+04 -1.732776E+03
       524   4 -8.417241E+05 -5.137507E+03 -2.531965E+04  2.708303E+04  1.675160E+04 -9.777661E+03
       524   5 -8.348453E+05 -2.274522E+04 -4.519575E+04  2.460464E+04  3.995240E+04 -6.641321E+03
       524   6 -8.417548E+05 -8.338140E+04 -9.094788E+04  2.710957E+04  6.315240E+04 -1.732942E+03
       524   7 -9.775935E+05 -3.669268E+04 -4.709260E+04  2.907690E+04  2.104881E+04 -9.776246E+03
       524   8 -9.462971E+05 -4.899547E+04 -6.477038E+04 -1.446690E+03  4.764517E+04 -6.640533E+03
       524   9 -9.293777E+05 -1.049178E+05 -1.106858E+05 -2.698744E+04  7.424139E+04 -1.735043E+03
       524  10 -7.058365E+05  2.641662E+04 -3.547586E+03  2.508881E+04  3.642123E-10 -1.033438E-09
       524  11 -7.233809E+05  3.506607E+03 -2.562303E+04  5.066096E+04  4.570337E-11 -1.301868E-09
       524  12 -7.541210E+05 -6.183523E+04 -7.121356E+04  8.121437E+04 -5.725703E-10 -3.822907E-10
       524  13 -8.417244E+05 -5.137685E+03 -2.532036E+04  2.708317E+04  8.824348E-10 -1.672473E-09
       524  14 -8.348470E+05 -2.274570E+04 -4.519884E+04  2.460485E+04 -1.271505E-09  7.269794E-10
       524  15 -8.417590E+05 -8.338248E+04 -9.095539E+04  2.710966E+04 -1.769414E-10  4.541816E-11
       524  16 -9.775940E+05 -3.669291E+04 -4.709361E+04  2.907706E+04 -5.819022E-10  7.846116E-11
       524  17 -9.462996E+05 -4.899612E+04 -6.477474E+04 -1.446435E+03 -6.845817E-10  6.755769E-10
       524  18 -9.293837E+05 -1.049192E+05 -1.106961E+05 -2.698733E+04  7.063179E-10 -2.576224E-10
       524  19 -7.058363E+05  2.641677E+04 -3.547114E+03  2.508872E+04 -1.245348E+04  9.779048E+03
       524  20 -7.233798E+05  3.506934E+03 -2.562099E+04  5.066079E+04 -3.225829E+04  6.642755E+03
       524  21 -7.541181E+05 -6.183450E+04 -7.120845E+04  8.121430E+04 -5.206186E+04  1.732776E+03
       524  22 -8.417241E+05 -5.137507E+03 -2.531965E+04  2.708303E+04 -1.675160E+04  9.777661E+03
       524  23 -8.348453E+05 -2.274522E+04 -4.519575E+04  2.460464E+04 -3.995240E+04  6.641321E+03
       524  24 -8.417548E+05 -8.338140E+04 -9.094788E+04  2.710957E+04 -6.315240E+04  1.732942E+03
       524  25 -9.775935E+05 -3.669268E+04 -4.709260E+04  2.907690E+04 -2.104881E+04  9.776246E+03
       524  26 -9.462971E+05 -4.899547E+04 -6.477038E+04 -1.446690E+03 -4.764517E+04  6.640533E+03
       524  27 -9.293777E+05 -1.049178E+05 -1.106858E+05 -2.698744E+04 -7.424139E+04  1.735043E+03
       525   1 -3.514436E+05  3.552087E+04  2.273569E+04  6.358662E+03 -2.116767E+04 -5.915606E+03
       525   2 -3.962860E+05  7.440474E+04  3.432948E+04  2.726765E+04 -1.973523E+04 -1.958872E+04
       525   3 -4.502109E+05  7.766959E+04  3.609111E+04  5.727000E+04 -1.830680E+04 -2.298998E+04
       525   4 -8.021723E+05 -7.570662E+04 -8.262207E+04  5.533986E+04 -5.723878E+04 -5.934401E+03
       525   5 -7.958927E+05 -2.063946E+04 -4.115947E+04  5.077316E+04 -3.610287E+04 -1.959915E+04
       525   6 -8.021316E+05 -4.630326E+03 -2.322893E+04  5.530154E+04 -1.497049E+04 -2.298913E+04
       525   7 -1.252706E+06 -1.869388E+05 -1.879874E+05  1.042852E+05 -9.328385E+04 -5.958902E+03
       525   8 -1.195343E+06 -1.156907E+05 -1.166542E+05  7.426314E+04 -5.246022E+04 -1.961083E+04
       525   9 -1.153930E+06 -8.693674E+04 -8.255285E+04  5.333421E+04 -1.163602E+04 -2.298831E+04
       525  10 -3.514441E+05  3.552071E+04  2.273478E+04  6.358561E+03  1.065905E-09 -2.062787E-10
       525  11 -3.962865E+05  7.440422E+04  3.432803E+04  2.726734E+04  2.962283E-10 -1.149755E-09
       525  12 -4.502114E+05  7.766893E+04  3.608948E+04  5.726967E+04 -1.074374E-10 -7.770533E-10
       525  13 -8.021759E+05 -7.570753E+04 -8.262830E+04  5.533958E+04 -2.327891E-10  1.689189E-10
       525  14 -7.958942E+05 -2.064022E+04 -4.116264E+04  5.077259E+04 -3.029658E-10 -8.082550E-10
       525  15 -8.021319E+05 -4.630954E+03 -2.323034E+04  5.530127E+04 -5.905091E-10  5.445835E-11
       525  16 -1.252715E+06 -1.869412E+05 -1.880039E+05  1.042848E+05 -1.394445E-09  5.186351E-12
       525  17 -1.195346E+06 -1.156919E+05 -1.166601E+05  7.426231E+04  5.107005E-10 -1.812337E-09
       525  18 -1.153930E+06 -8.693734E+04 -8.255410E+04  5.333400E+04  5.043261E-10 -1.727820E-09
       525  19 -3.514436E+05  3.552087E+04  2.273569E+04  6.358662E+03  2.116767E+04  5.915606E+03
       525  20 -3.962860E+05  7.440474E+04  3.432948E+04  2.726765E+04  1.973523E+04  1.958872E+04
       525  21 -4.502109E+05  7.766959E+04  3.609111E+04  5.727000E+04  1.830680E+04  2.298998E+04
       525  22 -8.021723E+05 -7.570662E+04 -8.262207E+04  5.533986E+04  5.723878E+04  5.934401E+03
       525  23 -7.958927E+05 -2.063946E+04 -4.115947E+04  5.077316E+04  3.610287E+04  1.959915E+04
       525  24 -8.021316E+05 -4.630326E+03 -2.322893E+04  5.530154E+04  1.497049E+04  2.298913E+04
       525  25 -1.252706E+06 -1.869388E+05 -1.879874E+05  1.042852E+05  9.328385E+04  5.958902E+03
       525  26 -1.195343E+06 -1.156907E+05 -1.166542E+05  7.426314E+04  5.246022E+04  1.961083E+04
       525  27 -1.153930E+06 -8.693674E+04 -8.255285E+04  5.333421E+04  1.163602E+04  2.298831E+04
       526   1 -4.797205E+05  7.037020E+04  3.480088E+04  5.339085E+04 -1.471007E+04 -2.166451E+04
       526   2 -5.285604E+05  6.189857E+04  3.135402E+04  4.972592E+04 -1.092078E+04 -1.965043E+04
       526   3 -5.784990E+05  5.103098E+04  2.483791E+04  5.587858E+04 -7.132809E+03 -1.656033E+04
       526   4 -7.996717E+05 -4.258056E+03 -1.817571E+04  5.546549E+04 -1.187784E+04 -2.166382E+04
       526   5 -7.989362E+05 -8.338190E+02 -1.173714E+04  5.055511E+04 -6.026522E+03 -1.964799E+04
       526   6 -7.996601E+05 -1.643346E+02 -9.802196E+03  5.546269E+04 -1.762038E+02 -1.655592E+04
       526   7 -1.119521E+06 -7.889159E+04 -7.115532E+04  5.753900E+04 -9.047019E+03 -2.166311E+04
       526   8 -1.069239E+06 -6.356985E+04 -5.483009E+04  5.138392E+04 -1.134320E+03 -1.964555E+04
       526   9 -1.020772E+06 -5.136204E+04 -4.444329E+04  5.504695E+04  6.778014E+03 -1.655153E+04
       526  10 -4.797209E+05  7.036964E+04  3.479959E+04  5.339060E+04 -2.749236E-09 -7.056652E-10
       526  11 -5.285606E+05  6.189812E+04  3.135307E+04  4.972574E+04 -1.731430E-09  1.068166E-09
       526  12 -5.784991E+05  5.103067E+04  2.483730E+04  5.587849E+04 -7.829691E-10  1.462942E-09
       526  13 -7.996719E+05 -4.258598E+03 -1.817685E+04  5.546528E+04 -8.243413E-12 -4.094189E-10
       526  14 -7.989363E+05 -8.342432E+02 -1.173793E+04  5.055502E+04 -1.764199E-10  8.882881E-10
       526  15 -7.996602E+05 -1.646289E+02 -9.802711E+03  5.546269E+04  4.066295E-10 -2.028833E-10
       526  16 -1.119522E+06 -7.889212E+04 -7.115635E+04  5.753884E+04  2.367540E-09  2.880470E-10
       526  17 -1.069239E+06 -6.357026E+04 -5.483082E+04  5.138390E+04  1.149323E-09  1.537356E-09
       526  18 -1.020772E+06 -5.136234E+04 -4.444389E+04  5.504704E+04  3.594470E-10  5.644334E-10
       526  19 -4.797205E+05  7.037020E+04  3.480088E+04  5.339085E+04  1.471007E+04  2.166451E+04
       526  20 -5.285604E+05  6.189857E+04  3.135402E+04  4.972592E+04  1.092078E+04  1.965043E+04
       526  21 -5.784990E+05  5.103098E+04  2.483791E+04  5.587858E+04  7.132809E+03  1.656033E+04
       526  22 -7.996717E+05 -4.258056E+03 -1.817571E+04  5.546549E+04  1.187784E+04  2.166382E+04
       526  23 -7.989362E+05 -8.338190E+02 -1.173714E+04  5.055511E+04  6.026522E+03  1.964799E+04
       526  24 -7.996601E+05 -1.643346E+02 -9.802196E+03  5.546269E+04  1.762038E+02  1.655592E+04
       526  25 -1.119521E+06 -7.889159E+04 -7.115532E+04  5.753900E+04  9.047019E+03  2.166311E+04
       526  26 -1.069239E+06 -6.356985E+04 -5.483009E+04  5.138392E+04  1.134320E+03  1.964555E+04
       526  27 -1.020772E+06 -5.136204E+04 -4.444329E+04  5.504695E+04 -6.778014E+03  1.655153E+04
       527   1 -6.100406E+05  4.369355E+04  1.941041E+04  5.515494E+04 -5.377730E+03 -1.440967E+04
       527   2 -6.586526E+05  3.138572E+04  8.548935E+03  5.168520E+04  1.142173E+03 -1.080880E+04
       527   3 -7.089284E+05  1.587197E+04 -7.366377E+03  5.811120E+04  7.661239E+03 -7.220593E+03
       527   4 -7.997026E+05 -1.578398E+02 -1.003624E+04  5.547990E+04  1.533647E+03 -1.440503E+04
       527   5 -7.988711E+05 -9.976479E+02 -1.302333E+04  5.053363E+04  8.027604E+03 -1.080387E+04
       527   6 -7.997013E+05 -5.039150E+03 -2.104690E+04  5.548334E+04  1.452120E+04 -7.215389E+03
       527   7 -9.893286E+05 -4.401096E+04 -3.948353E+04  5.580476E+04  8.442992E+03 -1.440038E+04
       527   8 -9.390697E+05 -3.338194E+04 -3.459585E+04  4.938233E+04  1.491154E+04 -1.079895E+04
       527   9 -8.904657E+05 -2.595062E+04 -3.472740E+04  5.285588E+04  2.138020E+04 -7.210243E+03
       527  10 -6.100407E+05  4.369332E+04  1.940997E+04  5.515487E+04  8.211340E-09  1.747617E-09
       527  11 -6.586527E+05  3.138559E+04  8.548713E+03  5.168521E+04 -2.136052E-08  4.561510E-10
       527  12 -7.089285E+05  1.587190E+04 -7.366585E+03  5.811124E+04 -4.781066E-08 -2.006324E-09
       527  13 -7.997027E+05 -1.580632E+02 -1.003663E+04  5.547992E+04  4.507790E-10 -5.813387E-10
       527  14 -7.988712E+05 -9.977905E+02 -1.302367E+04  5.053370E+04 -7.606363E-10  3.901811E-10
       527  15 -7.997015E+05 -5.039263E+03 -2.104739E+04  5.548342E+04 -4.047808E-10 -4.659237E-10
       527  16 -9.893287E+05 -4.401121E+04 -3.948406E+04  5.580486E+04 -8.537183E-09  5.894964E-10
       527  17 -9.390700E+05 -3.338212E+04 -3.459649E+04  4.938246E+04  2.070331E-08  4.216308E-10
       527  18 -8.904662E+05 -2.595080E+04 -3.472836E+04  5.285601E+04  4.750296E-08 -1.517398E-09
       527  19 -6.100406E+05  4.369355E+04  1.941041E+04  5.515494E+04  5.377730E+03  1.440967E+04
       527  20 -6.586526E+05  3.138572E+04  8.548935E+03  5.168520E+04 -1.142173E+03  1.080880E+04
       527  21 -7.089284E+05  1.587197E+04 -7.366377E+03  5.811120E+04 -7.661239E+03  7.220593E+03
       527  22 -7.997026E+05 -1.578398E+02 -1.003624E+04  5.547990E+04 -1.533647E+03  1.440503E+04
       527  23 -7.988711E+05 -9.976479E+02 -1.302333E+04  5.053363E+04 -8.027604E+03  1.080387E+04
       527  24 -7.997013E+05 -5.039150E+03 -2.104690E+04  5.548334E+04 -1.452120E+04  7.215389E+03
       527  25 -9.893286E+05 -4.401096E+04 -3.948353E+04  5.580476E+04 -8.442992E+03  1.440038E+04
       527  26 -9.390697E+05 -3.338194E+04 -3.459585E+04  4.938233E+04 -1.491154E+04  1.079895E+04
       527  27 -8.904657E+05 -2.595062E+04 -3.472740E+04  5.285588E+04 -2.138020E+04  7.210243E+03
       528   1 -7.433788E+05  8.082740E+03 -1.870055E+04  5.330608E+04  1.119312E+04 -5.077228E+03
       528   2 -7.852814E+05 -2.240208E+04 -4.871229E+04  7.858174E+04  3.846292E+04 -2.053298E+03
       528   3 -8.424316E+05 -9.958412E+04 -1.081725E+05  1.136986E+05  6.573098E+04 -2.359837E+02
       528   4 -8.026285E+05 -5.467178E+03 -2.716783E+04  5.546537E+04  1.810879E+04 -5.071807E+03
       528   5 -7.952214E+05 -2.442311E+04 -4.860253E+04  5.057403E+04  4.305862E+04 -2.051442E+03
       528   6 -8.026615E+05 -8.967622E+04 -9.787290E+04  5.552750E+04  6.800877E+04 -2.403556E+02
       528   7 -8.618745E+05 -1.901721E+04 -3.563498E+04  5.762444E+04  2.502383E+04 -5.066337E+03
       528   8 -8.051596E+05 -2.644117E+04 -4.849225E+04  2.256682E+04  4.765425E+04 -2.050001E+03
       528   9 -7.628827E+05 -7.975571E+04 -8.757155E+04 -2.647313E+03  7.028671E+04 -2.451546E+02
       528  10 -7.433790E+05  8.082678E+03 -1.870083E+04  5.330612E+04  4.852233E-08 -1.809438E-09
       528  11 -7.852830E+05 -2.240248E+04 -4.871508E+04  7.858180E+04  1.962433E-08  1.263755E-09
       528  12 -8.424363E+05 -9.958528E+04 -1.081807E+05  1.136986E+05 -1.049125E-08  6.406502E-10
       528  13 -8.026288E+05 -5.467294E+03 -2.716850E+04  5.546544E+04 -2.022614E-11 -1.530076E-09
       528  14 -7.952234E+05 -2.442361E+04 -4.860602E+04  5.057410E+04 -8.035231E-10  1.029434E-09
       528  15 -8.026665E+05 -8.967747E+04 -9.788160E+04  5.552751E+04  2.272644E-10 -4.213007E-10
       528  16 -8.618752E+05 -1.901741E+04 -3.563621E+04  5.762454E+04 -4.866413E-08 -1.443144E-09
       528  17 -8.051620E+05 -2.644179E+04 -4.849653E+04  2.256690E+04 -2.059794E-08  5.798395E-11
       528  18 -7.628880E+05 -7.975704E+04 -8.758084E+04 -2.647299E+03  1.020787E-08 -3.563926E-10
       528  19 -7.433788E+05  8.082740E+03 -1.870055E+04  5.330608E+04 -1.119312E+04  5.077228E+03
       528  20 -7.852814E+05 -2.240208E+04 -4.871229E+04  7.858174E+04 -3.846292E+04  2.053298E+03
       528  21 -8.424316E+05 -9.958412E+04 -1.081725E+05  1.136986E+05 -6.573098E+04  2.359837E+02
       528  22 -8.026285E+05 -5.467178E+03 -2.716783E+04  5.546537E+04 -1.810879E+04  5.071807E+03
       528  23 -7.952214E+05 -2.442311E+04 -4.860253E+04  5.057403E+04 -4.305862E+04  2.051442E+03
       528  24 -8.026615E+05 -8.967622E+04 -9.787290E+04  5.552750E+04 -6.800877E+04  2.403556E+02
       528  25 -8.618745E+05 -1.901721E+04 -3.563498E+04  5.762444E+04 -2.502383E+04  5.066337E+03
       528  26 -8.051596E+05 -2.644117E+04 -4.849225E+04  2.256682E+04 -4.765425E+04  2.050001E+03
       528  27 -7.628827E+05 -7.975571E+04 -8.757155E+04 -2.647313E+03 -7.028671E+04  2.451546E+02
       529   1 -1.965273E+05  4.839834E+04  3.907727E+04  3.102704E+04 -6.511484E+03 -4.897436E+03
       529   2 -2.493761E+05  6.643432E+04  3.736311E+04  4.196819E+04 -1.027395E+04 -1.591579E+04
       529   3 -3.071892E+05  6.267681E+04  3.265417E+04  6.330040E+04 -1.404244E+04 -1.795132E+04
       529   4 -5.871680E+05 -4.802106E+04 -5.249696E+04  6.201734E+04 -3.626246E+04 -4.922222E+03
       529   5 -5.831725E+05 -1.304529E+04 -2.623486E+04  5.680183E+04 -2.278696E+04 -1.592757E+04
       529   6 -5.871429E+05 -2.864786E+03 -1.494765E+04  6.197842E+04 -9.317272E+03 -1.794767E+04
       529   7 -9.776639E+05 -1.444472E+05 -1.440778E+05  9.298798E+04 -6.599482E+04 -4.949988E+03
       529   8 -9.168607E+05 -9.253053E+04 -8.983715E+04  7.162728E+04 -3.529340E+04 -1.593995E+04
       529   9 -8.670194E+05 -6.841052E+04 -6.255194E+04  6.065704E+04 -4.594164E+03 -1.794404E+04
       529  10 -1.965274E+05  4.839830E+04  3.907714E+04  3.102702E+04  2.808003E-09 -9.394937E-10
       529  11 -2.493762E+05  6.643402E+04  3.736244E+04  4.196805E+04 -3.845678E-10 -1.333523E-09
       529  12 -3.071895E+05  6.267641E+04  3.265319E+04  6.330019E+04 -3.217922E-09 -8.407523E-10
       529  13 -5.871694E+05 -4.802144E+04 -5.249948E+04  6.201720E+04 -5.633011E-10  1.256490E-09
       529  14 -5.831732E+05 -1.304571E+04 -2.623632E+04  5.680154E+04 -1.481076E-10 -4.366881E-10
       529  15 -5.871431E+05 -2.865155E+03 -1.494842E+04  6.197829E+04  3.632845E-10 -1.044904E-09
       529  16 -9.776686E+05 -1.444484E+05 -1.440860E+05  9.298771E+04 -3.268694E-09  2.557032E-10
       529  17 -9.168621E+05 -9.253114E+04 -8.983997E+04  7.162683E+04 -2.205102E-10 -9.964072E-10
       529  18 -8.670195E+05 -6.841087E+04 -6.255259E+04  6.065698E+04  3.021456E-09 -1.093013E-09
       529  19 -1.965273E+05  4.839834E+04  3.907727E+04  3.102704E+04  6.511484E+03  4.897436E+03
       529  20 -2.493761E+05  6.643432E+04  3.736311E+04  4.196819E+04  1.027395E+04  1.591579E+04
       529  21 -3.071892E+05  6.267681E+04  3.265417E+04  6.330040E+04  1.404244E+04  1.795132E+04
       529  22 -5.871680E+05 -4.802106E+04 -5.249696E+04  6.201734E+04  3.626246E+04  4.922222E+03
       529  23 -5.831725E+05 -1.304529E+04 -2.623486E+04  5.680183E+04  2.278696E+04  1.592757E+04
       529  24 -5.871429E+05 -2.864786E+03 -1.494765E+04  6.197842E+04  9.317272E+03  1.794767E+04
       529  25 -9.776639E+05 -1.444472E+05 -1.440778E+05  9.298798E+04  6.599482E+04  4.949988E+03
       529  26 -9.168607E+05 -9.253053E+04 -8.983715E+04  7.162728E+04  3.529340E+04  1.593995E+04
       529  27 -8.670194E+05 -6.841052E+04 -6.255194E+04  6.065704E+04  4.594164E+03  1.794404E+04
       530   1 -3.412989E+05  5.441933E+04  2.900654E+04  6.084954E+04 -1.159825E+04 -1.624176E+04
       530   2 -3.962599E+05  4.339470E+04  2.237465E+04  5.610562E+04 -9.391400E+03 -1.355310E+04
       530   3 -4.518934E+05  3.090030E+04  1.393262E+04  6.236996E+04 -7.185916E+03 -9.955075E+03
       530   4 -5.855875E+05 -2.623766E+03 -1.180889E+04  6.211914E+04 -7.312768E+03 -1.623832E+04
       530   5 -5.850940E+05 -4.526445E+02 -7.930264E+03  5.661363E+04 -3.362228E+03 -1.354763E+04
       530   6 -5.855794E+05 -5.445638E+01 -7.074167E+03  6.211665E+04  5.871375E+02 -9.947446E+03
       530   7 -8.298172E+05 -5.966996E+04 -5.262609E+04  6.338821E+04 -3.028922E+03 -1.623486E+04
       530   8 -7.738926E+05 -4.430176E+04 -3.823598E+04  5.712146E+04  2.665174E+03 -1.354215E+04
       530   9 -7.192476E+05 -3.101006E+04 -2.808117E+04  6.186340E+04  8.358579E+03 -9.939821E+03
       530  10 -3.412991E+05  5.441901E+04  2.900579E+04  6.084939E+04 -6.038277E-10  8.378570E-10
       530  11 -3.962600E+05  4.339447E+04  2.237414E+04  5.610552E+04 -9.526392E-10  2.250609E-10
       530  12 -4.518934E+05  3.090018E+04  1.393234E+04  6.236990E+04 -1.560281E-09  5.013860E-10
       530  13 -5.855877E+05 -2.624064E+03 -1.180949E+04  6.211905E+04  2.355614E-10  4.003598E-10
       530  14 -5.850941E+05 -4.528446E+02 -7.930630E+03  5.661359E+04 -4.029232E-10  5.864325E-10
       530  15 -5.855795E+05 -5.456270E+01 -7.074353E+03  6.211666E+04  2.668492E-10  5.274889E-10
       530  16 -8.298173E+05 -5.967025E+04 -5.262660E+04  6.338817E+04  2.472169E-10  5.405713E-10
       530  17 -7.738927E+05 -4.430196E+04 -3.823634E+04  5.712149E+04  1.075568E-09 -2.568636E-09
       530  18 -7.192477E+05 -3.101018E+04 -2.808148E+04  6.186346E+04  1.223860E-09 -5.139354E-10
       530  19 -3.412989E+05  5.441933E+04  2.900654E+04  6.084954E+04  1.159825E+04  1.624176E+04
       530  20 -3.962599E+05  4.339470E+04  2.237465E+04  5.610562E+04  9.391400E+03  1.355310E+04
       530  21 -4.518934E+05  3.090030E+04  1.393262E+04  6.236996E+04  7.185916E+03  9.955075E+03
       530  22 -5.855875E+05 -2.623766E+03 -1.180889E+04  6.211914E+04  7.312768E+03  1.623832E+04
       530  23 -5.850940E+05 -4.526445E+02 -7.930264E+03  5.661363E+04  3.362228E+03  1.354763E+04
       530  24 -5.855794E+05 -5.445638E+01 -7.074167E+03  6.211665E+04 -5.871375E+02  9.947446E+03
       530  25 -8.298172E+05 -5.966996E+04 -5.262609E+04  6.338821E+04  3.028922E+03  1.623486E+04
       530  26 -7.738926E+05 -4.430176E+04 -3.823598E+04  5.712146E+04 -2.665174E+03  1.354215E+04
       530  27 -7.192476E+05 -3.101006E+04 -2.808117E+04  6.186340E+04 -8.358579E+03  9.939821E+03
       531   1 -4.872210E+05  2.269058E+04  7.699088E+03  6.181960E+04 -5.905275E+03 -7.548638E+03
       531   2 -5.418190E+05  9.116144E+03 -4.030159E+03  5.748655E+04 -1.981122E+02 -3.659868E+03
       531   3 -5.978531E+05 -7.141595E+03 -2.015543E+04  6.420466E+04  5.508621E+03 -7.997321E+01
       531   4 -5.856574E+05 -4.705695E+01 -7.496827E+03  6.212596E+04  1.841866E+03 -7.540867E+03
       531   5 -5.849892E+05 -7.706701E+02 -1.025554E+04  5.660229E+04  6.955617E+03 -3.652589E+03
       531   6 -5.856579E+05 -4.074641E+03 -1.699829E+04  6.212994E+04  1.206942E+04 -7.321772E+01
       531   7 -6.840840E+05 -2.278514E+04 -2.269273E+04  6.243227E+04  9.587824E+03 -7.533087E+03
       531   8 -6.281576E+05 -1.065754E+04 -1.648076E+04  5.571809E+04  1.410887E+04 -3.645330E+03
       531   9 -5.734624E+05 -1.007660E+03 -1.384101E+04  6.005518E+04  1.863035E+04 -6.650620E+01
       531  10 -4.872210E+05  2.269051E+04  7.698915E+03  6.181957E+04 -2.181348E-09  2.328455E-09
       531  11 -5.418190E+05  9.116130E+03 -4.030184E+03  5.748655E+04 -4.232998E-10  6.715168E-10
       531  12 -5.978531E+05 -7.141604E+03 -2.015549E+04  6.420466E+04  1.838210E-09  1.722518E-09
       531  13 -5.856574E+05 -4.711891E+01 -7.496940E+03  6.212597E+04  1.422734E-10  1.121851E-09
       531  14 -5.849893E+05 -7.706974E+02 -1.025566E+04  5.660231E+04 -3.540090E-10  1.608441E-09
       531  15 -5.856580E+05 -4.074681E+03 -1.699857E+04  6.212994E+04  2.610277E-11  2.834918E-10
       531  16 -6.840841E+05 -2.278522E+04 -2.269301E+04  6.243233E+04  1.919239E-09  5.458149E-10
       531  17 -6.281578E+05 -1.065761E+04 -1.648116E+04  5.571814E+04  1.792738E-10  1.582630E-10
       531  18 -5.734628E+05 -1.007753E+03 -1.384166E+04  6.005518E+04 -1.628526E-09 -2.122873E-09
       531  19 -4.872210E+05  2.269058E+04  7.699088E+03  6.181960E+04  5.905275E+03  7.548638E+03
       531  20 -5.418190E+05  9.116144E+03 -4.030159E+03  5.748655E+04  1.981122E+02  3.659868E+03
       531  21 -5.978531E+05 -7.141595E+03 -2.015543E+04  6.420466E+04 -5.508621E+03  7.997321E+01
       531  22 -5.856574E+05 -4.705695E+01 -7.496827E+03  6.212596E+04 -1.841866E+03  7.540867E+03
       531  23 -5.849892E+05 -7.706701E+02 -1.025554E+04  5.660229E+04 -6.955617E+03  3.652589E+03
       531  24 -5.856579E+05 -4.074641E+03 -1.699829E+04  6.212994E+04 -1.206942E+04  7.321772E+01
       531  25 -6.840840E+05 -2.278514E+04 -2.269273E+04  6.243227E+04 -9.587824E+03  7.533087E+03
       531  26 -6.281576E+05 -1.065754E+04 -1.648076E+04  5.571809E+04 -1.410887E+04  3.645330E+03
       531  27 -5.734624E+05 -1.007660E+03 -1.384101E+04  6.005518E+04 -1.863035E+04  6.650620E+01
       532   1 -6.356498E+05 -1.581526E+04 -3.136936E+04  6.022341E+04  8.223195E+03  2.091567E+03
       532   2 -6.843198E+05 -4.456524E+04 -6.069338E+04  7.951889E+04  3.601036E+04  3.705369E+03
       532   3 -7.464235E+05 -1.124646E+05 -1.179146E+05  1.096231E+05  6.379865E+04  1.457271E+03
       532   4 -5.880590E+05 -4.425460E+03 -2.206607E+04  6.206955E+04  1.497016E+04  2.098525E+03
       532   5 -5.819982E+05 -1.994071E+04 -3.968938E+04  5.669766E+04  3.534719E+04  3.703322E+03
       532   6 -5.880828E+05 -7.331554E+04 -8.005730E+04  6.213667E+04  5.572786E+04  1.444303E+03
       532   7 -5.404659E+05  6.964235E+03 -1.276271E+04  6.391583E+04  2.171764E+04  2.105522E+03
       532   8 -4.796655E+05  4.685125E+03 -1.868565E+04  3.387259E+04  3.468391E+04  3.701325E+03
       532   9 -4.297140E+05 -3.415980E+04 -4.220033E+04  1.463804E+04  4.765503E+04  1.432573E+03
       532  10 -6.356499E+05 -1.581528E+04 -3.136949E+04  6.022340E+04 -1.349197E-09  1.778370E-09
       532  11 -6.843212E+05 -4.456560E+04 -6.069584E+04  7.951878E+04 -4.361882E-10 -3.609888E-10
       532  12 -7.464279E+05 -1.124657E+05 -1.179222E+05  1.096230E+05 -1.546415E-11 -5.511238E-10
       532  13 -5.880592E+05 -4.425525E+03 -2.206650E+04  6.206953E+04 -2.781429E-10  1.319933E-09
       532  14 -5.819995E+05 -1.994106E+04 -3.969175E+04  5.669755E+04  1.924726E-10 -2.226762E-09
       532  15 -5.880861E+05 -7.331638E+04 -8.006314E+04  6.213661E+04 -1.537172E-11  1.042695E-09
       532  16 -5.404664E+05  6.964104E+03 -1.276361E+04  6.391580E+04  5.718930E-10  2.765916E-10
       532  17 -4.796668E+05  4.684787E+03 -1.868794E+04  3.387248E+04  1.149484E-10  1.174259E-09
       532  18 -4.297165E+05 -3.416041E+04 -4.220460E+04  1.463799E+04 -2.156228E-10 -2.220028E-11
       532  19 -6.356498E+05 -1.581526E+04 -3.136936E+04  6.022341E+04 -8.223195E+03 -2.091567E+03
       532  20 -6.843198E+05 -4.456524E+04 -6.069338E+04  7.951889E+04 -3.601036E+04 -3.705369E+03
       532  21 -7.464235E+05 -1.124646E+05 -1.179146E+05  1.096231E+05 -6.379865E+04 -1.457271E+03
       532  22 -5.880590E+05 -4.425460E+03 -2.206607E+04  6.206955E+04 -1.497016E+04 -2.098525E+03
       532  23 -5.819982E+05 -1.994071E+04 -3.968938E+04  5.669766E+04 -3.534719E+04 -3.703322E+03
       532  24 -5.880828E+05 -7.331554E+04 -8.005730E+04  6.213667E+04 -5.572786E+04 -1.444303E+03
       532  25 -5.404659E+05  6.964235E+03 -1.276271E+04  6.391583E+04 -2.171764E+04 -2.105522E+03
       532  26 -4.796655E+05  4.685125E+03 -1.868565E+04  3.387259E+04 -3.468391E+04 -3.701325E+03
       532  27 -4.297140E+05 -3.415980E+04 -4.220033E+04  1.463804E+04 -4.765503E+04 -1.432573E+03
       533   1 -9.011743E+04  3.463328E+04  3.015401E+04  2.989581E+04  1.174614E+03 -2.623169E+03
       533   2 -1.271887E+05  3.779529E+04  2.396500E+04  3.286150E+04 -3.064738E+03 -8.361112E+03
       533   3 -1.658205E+05  3.255272E+04  1.843586E+04  4.301634E+04 -7.308339E+03 -9.010847E+03
       533   4 -3.094829E+05 -1.953413E+04 -2.141306E+04  4.247858E+04 -1.471404E+04 -2.638583E+03
       533   5 -3.078498E+05 -5.276439E+03 -1.076071E+04  3.887472E+04 -9.186014E+03 -8.367426E+03
       533   6 -3.094757E+05 -1.121030E+03 -6.233731E+03  4.246044E+04 -3.662440E+03 -9.007291E+03
       533   7 -5.288032E+05 -7.370423E+04 -7.298240E+04  5.505687E+04 -3.059712E+04 -2.654643E+03
       533   8 -4.884792E+05 -4.834994E+04 -4.548775E+04  4.488614E+04 -1.530555E+04 -8.373859E+03
       533   9 -4.531105E+05 -3.479588E+04 -3.090397E+04  4.190467E+04 -1.735868E+01 -9.003740E+03
       533  10 -9.011743E+04  3.463327E+04  3.015399E+04  2.989581E+04 -2.552367E-09 -3.616577E-10
       533  11 -1.271888E+05  3.779521E+04  2.396485E+04  3.286148E+04 -9.303110E-10  2.226818E-09
       533  12 -1.658206E+05  3.255262E+04  1.843561E+04  4.301629E+04  8.459703E-10  1.501390E-09
       533  13 -3.094832E+05 -1.953420E+04 -2.141348E+04  4.247855E+04  3.405856E-10 -2.205445E-09
       533  14 -3.078499E+05 -5.276537E+03 -1.076100E+04  3.887466E+04  5.320983E-11 -4.266765E-09
       533  15 -3.094757E+05 -1.121120E+03 -6.233909E+03  4.246041E+04 -1.207538E-10  3.740784E-11
       533  16 -5.288042E+05 -7.370449E+04 -7.298417E+04  5.505680E+04  2.241418E-09  1.433539E-10
       533  17 -4.884795E+05 -4.835008E+04 -4.548832E+04  4.488604E+04  7.276556E-11  1.381050E-09
       533  18 -4.531105E+05 -3.479597E+04 -3.090412E+04  4.190467E+04 -1.201140E-09 -7.476813E-10
       533  19 -9.011743E+04  3.463328E+04  3.015401E+04  2.989581E+04 -1.174614E+03  2.623169E+03
       533  20 -1.271887E+05  3.779529E+04  2.396500E+04  3.286150E+04  3.064738E+03  8.361112E+03
       533  21 -1.658205E+05  3.255272E+04  1.843586E+04  4.301634E+04  7.308339E+03  9.010847E+03
       533  22 -3.094829E+05 -1.953413E+04 -2.141306E+04  4.247858E+04  1.471404E+04  2.638583E+03
       533  23 -3.078498E+05 -5.276439E+03 -1.076071E+04  3.887472E+04  9.186014E+03  8.367426E+03
       533  24 -3.094757E+05 -1.121030E+03 -6.233731E+03  4.246044E+04  3.662440E+03  9.007291E+03
       533  25 -5.288032E+05 -7.370423E+04 -7.298240E+04  5.505687E+04  3.059712E+04  2.654643E+03
       533  26 -4.884792E+05 -4.834994E+04 -4.548775E+04  4.488614E+04  1.530555E+04  8.373859E+03
       533  27 -4.531105E+05 -3.479588E+04 -3.090397E+04  4.190467E+04  1.735868E+01  9.003740E+03
       534   1 -1.895278E+05  2.688048E+04  1.515583E+04  4.202328E+04 -6.213655E+03 -7.747766E+03
       534   2 -2.272108E+05  1.878975E+04  9.630135E+03  3.854856E+04 -5.389256E+03 -5.727943E+03
       534   3 -2.651609E+05  1.012365E+04  3.419107E+03  4.260856E+04 -4.565516E+03 -3.209940E+03
       534   4 -3.088471E+05 -1.020920E+03 -5.005561E+03  4.253900E+04 -2.815888E+03 -7.744381E+03
       534   5 -3.086284E+05 -1.395837E+02 -3.577535E+03  3.877107E+04 -1.035625E+03 -5.723453E+03
       534   6 -3.088448E+05  2.183537E-01 -3.499193E+03  4.253794E+04  7.440123E+02 -3.204311E+03
       534   7 -4.281523E+05 -2.892306E+04 -2.516736E+04  4.305461E+04  5.812470E+02 -7.740990E+03
       534   8 -3.900393E+05 -1.906924E+04 -1.678532E+04  3.899354E+04  3.317456E+03 -5.718960E+03
       534   9 -3.525268E+05 -1.012329E+04 -1.041744E+04  4.246733E+04  6.053181E+03 -3.198684E+03
       534  10 -1.895279E+05  2.688040E+04  1.515564E+04  4.202325E+04 -1.324646E-09 -7.881095E-11
       534  11 -2.272109E+05  1.878970E+04  9.630019E+03  3.854854E+04 -3.616376E-10  1.584689E-09
       534  12 -2.651609E+05  1.012363E+04  3.419049E+03  4.260854E+04  1.428757E-09  2.762691E-09
       534  13 -3.088471E+05 -1.020986E+03 -5.005688E+03  4.253898E+04  2.804833E-11  4.173208E-09
       534  14 -3.086284E+05 -1.396192E+02 -3.577599E+03  3.877106E+04  6.804245E-10 -5.517745E-09
       534  15 -3.088448E+05  2.071807E-01 -3.499214E+03  4.253794E+04 -9.154960E-11  3.647048E-09
       534  16 -4.281523E+05 -2.892312E+04 -2.516747E+04  4.305461E+04  1.394928E-09 -2.900191E-09
       534  17 -3.900394E+05 -1.906928E+04 -1.678540E+04  3.899356E+04  1.412817E-10 -8.549720E-10
       534  18 -3.525269E+05 -1.012331E+04 -1.041752E+04  4.246735E+04 -1.941822E-09  1.539892E-09
       534  19 -1.895278E+05  2.688048E+04  1.515583E+04  4.202328E+04  6.213655E+03  7.747766E+03
       534  20 -2.272108E+05  1.878975E+04  9.630135E+03  3.854856E+04  5.389256E+03  5.727943E+03
       534  21 -2.651609E+05  1.012365E+04  3.419107E+03  4.260856E+04  4.565516E+03  3.209940E+03
       534  22 -3.088471E+05 -1.020920E+03 -5.005561E+03  4.253900E+04  2.815888E+03  7.744381E+03
       534  23 -3.086284E+05 -1.395837E+02 -3.577535E+03  3.877107E+04  1.035625E+03  5.723453E+03
       534  24 -3.088448E+05  2.183537E-01 -3.499193E+03  4.253794E+04 -7.440123E+02  3.204311E+03
       534  25 -4.281523E+05 -2.892306E+04 -2.516736E+04  4.305461E+04 -5.812470E+02  7.740990E+03
       534  26 -3.900393E+05 -1.906924E+04 -1.678532E+04  3.899354E+04 -3.317456E+03  5.718960E+03
       534  27 -3.525268E+05 -1.012329E+04 -1.041744E+04  4.246733E+04 -6.053181E+03  3.198684E+03
       535   1 -2.893305E+05  4.511731E+03 -9.239813E+02  4.232171E+04 -3.924062E+03 -1.565115E+03
       535   2 -3.267198E+05 -4.713585E+03 -8.872775E+03  3.922396E+04 -4.792049E+02  1.033880E+03
       535   3 -3.649664E+05 -1.550105E+04 -1.946130E+04  4.367261E+04  2.965847E+03  3.298215E+03
       535   4 -3.089137E+05  5.086812E+00 -3.870218E+03  4.254036E+04  1.378270E+03 -1.559463E+03
       535   5 -3.085411E+05 -4.270581E+02 -5.619611E+03  3.876836E+04  4.180794E+03  1.038822E+03
       535   6 -3.089148E+05 -2.309530E+03 -9.562263E+03  4.254278E+04  6.983701E+03  3.302447E+03
       535   7 -3.284965E+05 -4.501561E+03 -6.816356E+03  4.275900E+04  6.680441E+03 -1.553808E+03
       535   8 -2.903619E+05  3.859463E+03 -2.366378E+03  3.831275E+04  8.840926E+03  1.043758E+03
       535   9 -2.528601E+05  1.088183E+04  3.367199E+02  4.141284E+04  1.100191E+04  3.306664E+03
       535  10 -2.893305E+05  4.511725E+03 -9.240149E+02  4.232170E+04  1.810325E-09 -1.638129E-09
       535  11 -3.267198E+05 -4.713586E+03 -8.872778E+03  3.922396E+04  8.542612E-11 -1.314363E-09
       535  12 -3.649664E+05 -1.550106E+04 -1.946134E+04  4.367260E+04 -1.648507E-09 -7.715871E-10
       535  13 -3.089137E+05  5.083690E+00 -3.870226E+03  4.254036E+04  5.427467E-10 -1.270637E-10
       535  14 -3.085411E+05 -4.270640E+02 -5.619646E+03  3.876836E+04 -5.614322E-10 -2.155341E-09
       535  15 -3.089149E+05 -2.309555E+03 -9.562375E+03  4.254276E+04 -3.981678E-10 -1.993060E-09
       535  16 -3.284965E+05 -4.501575E+03 -6.816445E+03  4.275901E+04 -1.450173E-09 -1.635043E-09
       535  17 -2.903620E+05  3.859440E+03 -2.366527E+03  3.831274E+04 -9.131878E-11  1.395143E-09
       535  18 -2.528602E+05  1.088179E+04  3.364718E+02  4.141282E+04  8.899739E-10  2.139847E-09
       535  19 -2.893305E+05  4.511731E+03 -9.239813E+02  4.232171E+04  3.924062E+03  1.565115E+03
       535  20 -3.267198E+05 -4.713585E+03 -8.872775E+03  3.922396E+04  4.792049E+02 -1.033880E+03
       535  21 -3.649664E+05 -1.550105E+04 -1.946130E+04  4.367261E+04 -2.965847E+03 -3.298215E+03
       535  22 -3.089137E+05  5.086812E+00 -3.870218E+03  4.254036E+04 -1.378270E+03  1.559463E+03
       535  23 -3.085411E+05 -4.270581E+02 -5.619611E+03  3.876836E+04 -4.180794E+03 -1.038822E+03
       535  24 -3.089148E+05 -2.309530E+03 -9.562263E+03  4.254278E+04 -6.983701E+03 -3.302447E+03
       535  25 -3.284965E+05 -4.501561E+03 -6.816356E+03  4.275900E+04 -6.680441E+03  1.553808E+03
       535  26 -2.903619E+05  3.859463E+03 -2.366378E+03  3.831275E+04 -8.840926E+03 -1.043758E+03
       535  27 -2.528601E+05  1.088183E+04  3.367199E+02  4.141284E+04 -1.100191E+04 -3.306664E+03
       536   1 -3.905928E+05 -2.142622E+04 -2.671578E+04  4.138181E+04  4.420546E+03  4.687373E+03
       536   2 -4.243825E+05 -3.946263E+04 -4.569011E+04  5.180371E+04  2.309949E+04  5.047031E+03
       536   3 -4.663219E+05 -8.029741E+04 -8.253378E+04  6.953147E+04  4.178059E+04  1.713756E+03
       536   4 -3.102866E+05 -2.509486E+03 -1.248381E+04  4.248536E+04  8.617527E+03  4.691754E+03
       536   5 -3.068319E+05 -1.135171E+04 -2.257475E+04  3.885192E+04  2.021000E+04  5.043483E+03
       536   6 -3.102956E+05 -4.175952E+04 -4.561018E+04  4.252524E+04  3.180591E+04  1.701754E+03
       536   7 -2.299741E+05  1.640690E+04  1.747992E+03  4.358905E+04  1.281503E+04  4.696149E+03
       536   8 -1.892677E+05  1.675901E+04  5.400592E+02  2.589761E+04  1.731997E+04  5.040056E+03
       536   9 -1.542451E+05 -3.220561E+03 -8.687499E+03  1.551218E+04  2.182873E+04  1.690623E+03
       536  10 -3.905928E+05 -2.142624E+04 -2.671586E+04  4.138180E+04  5.832584E-09 -3.586671E-09
       536  11 -4.243831E+05 -3.946280E+04 -4.569116E+04  5.180362E+04 -1.006749E-09 -3.348153E-09
       536  12 -4.663237E+05 -8.029789E+04 -8.253707E+04  6.953141E+04 -6.439318E-09 -1.467781E-09
       536  13 -3.102867E+05 -2.509530E+03 -1.248399E+04  4.248533E+04  9.256758E-12 -8.882685E-10
       536  14 -3.068324E+05 -1.135185E+04 -2.257557E+04  3.885184E+04 -4.341337E-10 -5.384122E-09
       536  15 -3.102967E+05 -4.175979E+04 -4.561209E+04  4.252520E+04 -3.601325E-11 -2.261413E-09
       536  16 -2.299743E+05  1.640683E+04  1.747641E+03  4.358900E+04 -6.209928E-09 -6.135967E-10
       536  17 -1.892680E+05  1.675891E+04  5.394476E+02  2.589754E+04  2.995233E-10 -1.556133E-11
       536  18 -1.542456E+05 -3.220692E+03 -8.688400E+03  1.551215E+04  5.482827E-09  8.243550E-11
       536  19 -3.905928E+05 -2.142622E+04 -2.671578E+04  4.138181E+04 -4.420546E+03 -4.687373E+03
       536  20 -4.243825E+05 -3.946263E+04 -4.569011E+04  5.180371E+04 -2.309949E+04 -5.047031E+03
       536  21 -4.663219E+05 -8.029741E+04 -8.253378E+04  6.953147E+04 -4.178059E+04 -1.713756E+03
       536  22 -3.102866E+05 -2.509486E+03 -1.248381E+04  4.248536E+04 -8.617527E+03 -4.691754E+03
       536  23 -3.068319E+05 -1.135171E+04 -2.257475E+04  3.885192E+04 -2.021000E+04 -5.043483E+03
       536  24 -3.102956E+05 -4.175952E+04 -4.561018E+04  4.252524E+04 -3.180591E+04 -1.701754E+03
       536  25 -2.299741E+05  1.640690E+04  1.747992E+03  4.358905E+04 -1.281503E+04 -4.696149E+03
       536  26 -1.892677E+05  1.675901E+04  5.400592E+02  2.589761E+04 -1.731997E+04 -5.040056E+03
       536  27 -1.542451E+05 -3.220561E+03 -8.687499E+03  1.551218E+04 -2.182873E+04 -1.690623E+03
       537   1 -2.640334E+04  1.764215E+04  1.634942E+04  2.030555E+04  2.969282E+03 -9.218601E+02
       537   2 -4.645206E+04  1.462587E+04  1.077516E+04  1.953521E+04  1.096509E+02 -2.802705E+03
       537   3 -6.641672E+04  1.048774E+04  6.781660E+03  2.261620E+04 -2.751732E+03 -2.669823E+03
       537   4 -1.116955E+05 -3.445833E+03 -3.818206E+03  2.251635E+04 -2.569377E+03 -9.272931E+02
       537   5 -1.114010E+05 -9.094353E+02 -1.959476E+03  2.058905E+04 -1.562748E+03 -2.804384E+03
       537   6 -1.116945E+05 -1.662800E+02 -1.205146E+03  2.251314E+04 -5.580198E+02 -2.667641E+03
       537   7 -1.969810E+05 -2.453431E+04 -2.398622E+04  2.472685E+04 -8.107279E+03 -9.327659E+02
       537   8 -1.763460E+05 -1.644499E+04 -1.469430E+04  2.164277E+04 -3.234976E+03 -2.806070E+03
       537   9 -1.569703E+05 -1.082041E+04 -9.192009E+03  2.241008E+04  1.635537E+03 -2.665460E+03
       537  10 -2.640335E+04  1.764215E+04  1.634940E+04  2.030555E+04 -8.454092E-09  1.259791E-10
       537  11 -4.645206E+04  1.462586E+04  1.077514E+04  1.953522E+04  2.049750E-08 -5.053583E-10
       537  12 -6.641673E+04  1.048773E+04  6.781633E+03  2.261619E+04  4.702397E-08  1.182056E-09
       537  13 -1.116955E+05 -3.445836E+03 -3.818220E+03  2.251635E+04  1.873273E-10  2.498451E-09
       537  14 -1.114011E+05 -9.094444E+02 -1.959496E+03  2.058904E+04 -5.132698E-10  5.108424E-10
       537  15 -1.116945E+05 -1.662878E+02 -1.205160E+03  2.251313E+04 -2.733964E-11  1.430475E-09
       537  16 -1.969810E+05 -2.453432E+04 -2.398634E+04  2.472684E+04  8.401183E-09  6.522576E-10
       537  17 -1.763460E+05 -1.644500E+04 -1.469433E+04  2.164276E+04 -2.058373E-08 -3.370886E-09
       537  18 -1.569703E+05 -1.082042E+04 -9.192027E+03  2.241008E+04 -4.753745E-08 -2.280252E-10
       537  19 -2.640334E+04  1.764215E+04  1.634942E+04  2.030555E+04 -2.969282E+03  9.218601E+02
       537  20 -4.645206E+04  1.462587E+04  1.077516E+04  1.953521E+04 -1.096509E+02  2.802705E+03
       537  21 -6.641672E+04  1.048774E+04  6.781660E+03  2.261620E+04  2.751732E+03  2.669823E+03
       537  22 -1.116955E+05 -3.445833E+03 -3.818206E+03  2.251635E+04  2.569377E+03  9.272931E+02
       537  23 -1.114010E+05 -9.094353E+02 -1.959476E+03  2.058905E+04  1.562748E+03  2.804384E+03
       537  24 -1.116945E+05 -1.662800E+02 -1.205146E+03  2.251314E+04  5.580198E+02  2.667641E+03
       537  25 -1.969810E+05 -2.453431E+04 -2.398622E+04  2.472685E+04  8.107279E+03  9.327659E+02
       537  26 -1.763460E+05 -1.644499E+04 -1.469430E+04  2.164277E+04  3.234976E+03  2.806070E+03
       537  27 -1.569703E+05 -1.082041E+04 -9.192009E+03  2.241008E+04 -1.635537E+03  2.665460E+03
       538   1 -7.913726E+04  7.480854E+03  4.666868E+03  2.244572E+04 -2.483574E+03 -1.941865E+03
       538   2 -9.910808E+04  2.925260E+03  1.289491E+03  2.049173E+04 -2.403831E+03 -7.578379E+02
       538   3 -1.191197E+05 -1.713411E+03 -2.163325E+03  2.252572E+04 -2.324274E+03  6.103549E+02
       538   4 -1.115864E+05 -1.471832E+02 -1.022040E+03  2.254382E+04 -3.874102E+02 -1.939767E+03
       538   5 -1.115352E+05  7.123074E+00 -8.733638E+02  2.054975E+04  4.585943E+01 -7.553748E+02
       538   6 -1.115862E+05  1.706165E+01 -1.045592E+03  2.254366E+04  4.789500E+02  6.131847E+02
       538   7 -1.440345E+05 -7.775276E+03 -6.710969E+03  2.264192E+04  1.708647E+03 -1.937667E+03
       538   8 -1.239621E+05 -2.911019E+03 -3.036202E+03  2.060777E+04  2.495502E+03 -7.529112E+02
       538   9 -1.040527E+05  1.747535E+03  7.217017E+01  2.256160E+04  3.282207E+03  6.160146E+02
       538  10 -7.913727E+04  7.480849E+03  4.666850E+03  2.244571E+04 -5.287645E-08  2.097687E-09
       538  11 -9.910809E+04  2.925257E+03  1.289479E+03  2.049173E+04 -2.198766E-08 -7.533714E-10
       538  12 -1.191197E+05 -1.713412E+03 -2.163336E+03  2.252572E+04  1.221166E-08 -8.171239E-10
       538  13 -1.115864E+05 -1.471873E+02 -1.022047E+03  2.254382E+04  1.464389E-11  2.146870E-09
       538  14 -1.115352E+05  7.122460E+00 -8.733649E+02  2.054975E+04 -6.590157E-10  1.801944E-09
       538  15 -1.115862E+05  1.706119E+01 -1.045593E+03  2.254366E+04  6.064230E-10 -3.657036E-10
       538  16 -1.440345E+05 -7.775281E+03 -6.710981E+03  2.264192E+04  5.297020E-08  3.522192E-09
       538  17 -1.239621E+05 -2.911021E+03 -3.036214E+03  2.060777E+04  2.174573E-08 -9.858107E-10
       538  18 -1.040527E+05  1.747532E+03  7.214921E+01  2.256160E+04 -1.229499E-08 -7.755521E-11
       538  19 -7.913726E+04  7.480854E+03  4.666868E+03  2.244572E+04  2.483574E+03  1.941865E+03
       538  20 -9.910808E+04  2.925260E+03  1.289491E+03  2.049173E+04  2.403831E+03  7.578379E+02
       538  21 -1.191197E+05 -1.713411E+03 -2.163325E+03  2.252572E+04  2.324274E+03 -6.103549E+02
       538  22 -1.115864E+05 -1.471832E+02 -1.022040E+03  2.254382E+04  3.874102E+02  1.939767E+03
       538  23 -1.115352E+05  7.123074E+00 -8.733638E+02  2.054975E+04 -4.585943E+01  7.553748E+02
       538  24 -1.115862E+05  1.706165E+01 -1.045592E+03  2.254366E+04 -4.789500E+02 -6.131847E+02
       538  25 -1.440345E+05 -7.775276E+03 -6.710969E+03  2.264192E+04 -1.708647E+03  1.937667E+03
       538  26 -1.239621E+05 -2.911019E+03 -3.036202E+03  2.060777E+04 -2.495502E+03  7.529112E+02
       538  27 -1.040527E+05  1.747535E+03  7.217017E+01  2.256160E+04 -3.282207E+03 -6.160146E+02
       539   1 -1.318964E+05 -4.679293E+03 -4.465138E+03  2.243088E+04 -2.130297E+03  1.479500E+03
       539   2 -1.517090E+05 -9.504127E+03 -8.526589E+03  2.068880E+04 -6.466461E+02  2.814892E+03
       539   3 -1.718784E+05 -1.494602E+04 -1.371114E+04  2.293031E+04  8.372347E+02  3.894288E+03
       539   4 -1.116240E+05  1.937514E+01 -1.248329E+03  2.254259E+04  6.760686E+02  1.482325E+03
       539   5 -1.114884E+05 -1.517093E+02 -1.989388E+03  2.055124E+04  1.668323E+03  2.817191E+03
       539   6 -1.116246E+05 -8.544782E+02 -3.512204E+03  2.254347E+04  2.660852E+03  3.896069E+03
       539   7 -9.135109E+04  4.718028E+03  1.968499E+03  2.265431E+04  3.482523E+03  1.485151E+03
       539   8 -7.126618E+04  9.200629E+03  4.547787E+03  2.041368E+04  3.983436E+03  2.819489E+03
       539   9 -5.136723E+04  1.323687E+04  6.686628E+03  2.215659E+04  4.484641E+03  3.897847E+03
       539  10 -1.318964E+05 -4.679297E+03 -4.465151E+03  2.243088E+04  1.352142E-09 -5.172289E-10
       539  11 -1.517090E+05 -9.504136E+03 -8.526605E+03  2.068880E+04 -1.106755E-09  1.253362E-09
       539  12 -1.718784E+05 -1.494603E+04 -1.371117E+04  2.293030E+04 -2.564336E-09 -6.547286E-10
       539  13 -1.116240E+05  1.937266E+01 -1.248334E+03  2.254259E+04  6.235918E-10 -3.980992E-09
       539  14 -1.114884E+05 -1.517186E+02 -1.989408E+03  2.055124E+04 -5.045601E-10  2.461174E-09
       539  15 -1.116246E+05 -8.544964E+02 -3.512246E+03  2.254346E+04 -5.289558E-13  6.988540E-10
       539  16 -9.135110E+04  4.718022E+03  1.968472E+03  2.265431E+04 -1.452348E-09 -2.650977E-09
       539  17 -7.126620E+04  9.200616E+03  4.547743E+03  2.041367E+04  7.238550E-10 -3.096809E-09
       539  18 -5.136725E+04  1.323685E+04  6.686562E+03  2.215657E+04  2.572810E-09  8.153635E-10
       539  19 -1.318964E+05 -4.679293E+03 -4.465138E+03  2.243088E+04  2.130297E+03 -1.479500E+03
       539  20 -1.517090E+05 -9.504127E+03 -8.526589E+03  2.068880E+04  6.466461E+02 -2.814892E+03
       539  21 -1.718784E+05 -1.494602E+04 -1.371114E+04  2.293031E+04 -8.372347E+02 -3.894288E+03
       539  22 -1.116240E+05  1.937514E+01 -1.248329E+03  2.254259E+04 -6.760686E+02 -1.482325E+03
       539  23 -1.114884E+05 -1.517093E+02 -1.989388E+03  2.055124E+04 -1.668323E+03 -2.817191E+03
       539  24 -1.116246E+05 -8.544782E+02 -3.512204E+03  2.254347E+04 -2.660852E+03 -3.896069E+03
       539  25 -9.135109E+04  4.718028E+03  1.968499E+03  2.265431E+04 -3.482523E+03 -1.485151E+03
       539  26 -7.126618E+04  9.200629E+03  4.547787E+03  2.041368E+04 -3.983436E+03 -2.819489E+03
       539  27 -5.136723E+04  1.323687E+04  6.686628E+03  2.215659E+04 -4.484641E+03 -3.897847E+03
       540   1 -1.852525E+05 -1.807001E+04 -1.719480E+04  2.205504E+04  1.310243E+03  4.567401E+03
       540   2 -2.035386E+05 -2.633186E+04 -2.625408E+04  2.540887E+04  1.067599E+04  4.279462E+03
       540   3 -2.252854E+05 -4.352557E+04 -4.364648E+04  3.257083E+04  2.004364E+04  1.364065E+03
       540   4 -1.121389E+05 -9.289638E+02 -4.620626E+03  2.250303E+04  3.261902E+03  4.569284E+03
       540   5 -1.108474E+05 -4.233798E+03 -8.415592E+03  2.060595E+04  7.584480E+03  4.276318E+03
       540   6 -1.121410E+05 -1.559415E+04 -1.704043E+04  2.251723E+04  1.190939E+04  1.355915E+03
       540   7 -3.902009E+04  1.621180E+04  7.953377E+03  2.295107E+04  5.213784E+03  4.571170E+03
       540   8 -1.814788E+04  1.786385E+04  9.422550E+03  1.580228E+04  4.492517E+03  4.273222E+03
       540   9  1.015612E+03  1.233677E+04  9.565046E+03  1.246178E+04  3.773658E+03  1.348030E+03
       540  10 -1.852525E+05 -1.807004E+04 -1.719484E+04  2.205504E+04  1.108712E-09 -1.929808E-10
       540  11 -2.035388E+05 -2.633192E+04 -2.625433E+04  2.540884E+04  1.303330E-09 -6.022421E-10
       540  12 -2.252858E+05 -4.352567E+04 -4.364724E+04  3.257081E+04  1.487896E-09  2.287427E-09
       540  13 -1.121389E+05 -9.289891E+02 -4.620685E+03  2.250302E+04 -2.647965E-10  8.818861E-10
       540  14 -1.108475E+05 -4.233833E+03 -8.415735E+03  2.060592E+04 -5.072904E-10  1.016992E-09
       540  15 -1.121411E+05 -1.559419E+04 -1.704070E+04  2.251722E+04  5.541841E-11  9.773220E-11
       540  16 -3.902013E+04  1.621177E+04  7.953287E+03  2.295105E+04 -1.553824E-09  1.473726E-09
       540  17 -1.814790E+04  1.786383E+04  9.422478E+03  1.580227E+04 -1.814423E-09  1.662779E-09
       540  18  1.015596E+03  1.233677E+04  9.565016E+03  1.246177E+04 -1.736390E-09 -2.486492E-10
       540  19 -1.852525E+05 -1.807001E+04 -1.719480E+04  2.205504E+04 -1.310243E+03 -4.567401E+03
       540  20 -2.035386E+05 -2.633186E+04 -2.625408E+04  2.540887E+04 -1.067599E+04 -4.279462E+03
       540  21 -2.252854E+05 -4.352557E+04 -4.364648E+04  3.257083E+04 -2.004364E+04 -1.364065E+03
       540  22 -1.121389E+05 -9.289638E+02 -4.620626E+03  2.250303E+04 -3.261902E+03 -4.569284E+03
       540  23 -1.108474E+05 -4.233798E+03 -8.415592E+03  2.060595E+04 -7.584480E+03 -4.276318E+03
       540  24 -1.121410E+05 -1.559415E+04 -1.704043E+04  2.251723E+04 -1.190939E+04 -1.355915E+03
       540  25 -3.902009E+04  1.621180E+04  7.953377E+03  2.295107E+04 -5.213784E+03 -4.571170E+03
       540  26 -1.814788E+04  1.786385E+04  9.422550E+03  1.580228E+04 -4.492517E+03 -4.273222E+03
       540  27  1.015612E+03  1.233677E+04  9.565046E+03  1.246178E+04 -3.773658E+03 -1.348030E+03
