    1C
    1UUSER                                                              
    1UDATE              12.september.2022                               
    1UTIME              21:48:46                                        
    1UHOST                                                              
    1UPGM               CalculiX                                        
    1UVERSION           Version 2.19                             
    1UCOMPILETIME       Fri Dec 17 13:15:26 CET 2021                    
    1UDIR                                                               
    1UDBN                                                               
    1UMAT    1MESH_MATERIAL                                             
    2C                          1001                                     1
 -1         1 0.00000E+00 0.00000E+00 0.00000E+00
 -1         2 8.33333E-03 0.00000E+00 0.00000E+00
 -1         3 1.66667E-02 0.00000E+00 0.00000E+00
 -1         4 2.50000E-02 0.00000E+00 0.00000E+00
 -1         5 3.33333E-02 0.00000E+00 0.00000E+00
 -1         6 4.16667E-02 0.00000E+00 0.00000E+00
 -1         7 5.00000E-02 0.00000E+00 0.00000E+00
 -1         8 5.83333E-02 0.00000E+00 0.00000E+00
 -1         9 6.66667E-02 0.00000E+00 0.00000E+00
 -1        14 0.00000E+00 6.25000E-03 0.00000E+00
 -1        15 8.33333E-03 6.25000E-03 0.00000E+00
 -1        16 1.66667E-02 6.25000E-03 0.00000E+00
 -1        17 2.50000E-02 6.25000E-03 0.00000E+00
 -1        18 3.33333E-02 6.25000E-03 0.00000E+00
 -1        19 4.16667E-02 6.25000E-03 0.00000E+00
 -1        20 5.00000E-02 6.25000E-03 0.00000E+00
 -1        21 5.83333E-02 6.25000E-03 0.00000E+00
 -1        22 6.66667E-02 6.25000E-03 0.00000E+00
 -1        27 0.00000E+00 1.25000E-02 0.00000E+00
 -1        28 8.33333E-03 1.25000E-02 0.00000E+00
 -1        29 1.66667E-02 1.25000E-02 0.00000E+00
 -1        30 2.50000E-02 1.25000E-02 0.00000E+00
 -1        31 3.33333E-02 1.25000E-02 0.00000E+00
 -1        32 4.16667E-02 1.25000E-02 0.00000E+00
 -1        33 5.00000E-02 1.25000E-02 0.00000E+00
 -1        34 5.83333E-02 1.25000E-02 0.00000E+00
 -1        35 6.66667E-02 1.25000E-02 0.00000E+00
 -1        36 7.50000E-02 1.25000E-02 0.00000E+00
 -1        37 8.33333E-02 1.25000E-02 0.00000E+00
 -1        38 9.16667E-02 1.25000E-02 0.00000E+00
 -1        39 1.00000E-01 1.25000E-02 0.00000E+00
 -1        40 0.00000E+00 1.87500E-02 0.00000E+00
 -1        41 8.33333E-03 1.87500E-02 0.00000E+00
 -1        42 1.66667E-02 1.87500E-02 0.00000E+00
 -1        43 2.50000E-02 1.87500E-02 0.00000E+00
 -1        44 3.33333E-02 1.87500E-02 0.00000E+00
 -1        45 4.16667E-02 1.87500E-02 0.00000E+00
 -1        46 5.00000E-02 1.87500E-02 0.00000E+00
 -1        47 5.83333E-02 1.87500E-02 0.00000E+00
 -1        48 6.66667E-02 1.87500E-02 0.00000E+00
 -1        49 7.50000E-02 1.87500E-02 0.00000E+00
 -1        50 8.33333E-02 1.87500E-02 0.00000E+00
 -1        51 9.16667E-02 1.87500E-02 0.00000E+00
 -1        52 1.00000E-01 1.87500E-02 0.00000E+00
 -1        53 0.00000E+00 2.50000E-02 0.00000E+00
 -1        54 8.33333E-03 2.50000E-02 0.00000E+00
 -1        55 1.66667E-02 2.50000E-02 0.00000E+00
 -1        56 2.50000E-02 2.50000E-02 0.00000E+00
 -1        57 3.33333E-02 2.50000E-02 0.00000E+00
 -1        58 4.16667E-02 2.50000E-02 0.00000E+00
 -1        59 5.00000E-02 2.50000E-02 0.00000E+00
 -1        60 5.83333E-02 2.50000E-02 0.00000E+00
 -1        61 6.66667E-02 2.50000E-02 0.00000E+00
 -1        62 7.50000E-02 2.50000E-02 0.00000E+00
 -1        63 8.33333E-02 2.50000E-02 0.00000E+00
 -1        64 9.16667E-02 2.50000E-02 0.00000E+00
 -1        65 1.00000E-01 2.50000E-02 0.00000E+00
 -1        66 1.04167E-03 0.00000E+00 0.00000E+00
 -1        67 2.08333E-03 0.00000E+00 0.00000E+00
 -1        68 3.12500E-03 0.00000E+00 0.00000E+00
 -1        69 4.16667E-03 0.00000E+00 0.00000E+00
 -1        70 5.20833E-03 0.00000E+00 0.00000E+00
 -1        71 6.25000E-03 0.00000E+00 0.00000E+00
 -1        72 7.29167E-03 0.00000E+00 0.00000E+00
 -1        73 0.00000E+00 1.04167E-03 0.00000E+00
 -1        74 0.00000E+00 2.08333E-03 0.00000E+00
 -1        75 0.00000E+00 3.12500E-03 0.00000E+00
 -1        76 0.00000E+00 4.16667E-03 0.00000E+00
 -1        77 0.00000E+00 5.20833E-03 0.00000E+00
 -1        78 8.33330E-04 6.25000E-04 0.00000E+00
 -1        79 1.66667E-03 1.25000E-03 0.00000E+00
 -1        80 2.50000E-03 1.87500E-03 0.00000E+00
 -1        81 3.33333E-03 2.50000E-03 0.00000E+00
 -1        82 4.16667E-03 3.12500E-03 0.00000E+00
 -1        83 5.00000E-03 3.75000E-03 0.00000E+00
 -1        84 5.83333E-03 4.37500E-03 0.00000E+00
 -1        85 6.66667E-03 5.00000E-03 0.00000E+00
 -1        86 7.50000E-03 5.62500E-03 0.00000E+00
 -1        87 9.37500E-03 0.00000E+00 0.00000E+00
 -1        88 1.04167E-02 0.00000E+00 0.00000E+00
 -1        89 1.14583E-02 0.00000E+00 0.00000E+00
 -1        90 1.25000E-02 0.00000E+00 0.00000E+00
 -1        91 1.35417E-02 0.00000E+00 0.00000E+00
 -1        92 1.45833E-02 0.00000E+00 0.00000E+00
 -1        93 1.56250E-02 0.00000E+00 0.00000E+00
 -1        94 8.33333E-03 1.04167E-03 0.00000E+00
 -1        95 8.33333E-03 2.08333E-03 0.00000E+00
 -1        96 8.33333E-03 3.12500E-03 0.00000E+00
 -1        97 8.33333E-03 4.16667E-03 0.00000E+00
 -1        98 8.33333E-03 5.20833E-03 0.00000E+00
 -1        99 9.16667E-03 6.25000E-04 0.00000E+00
 -1       100 1.00000E-02 1.25000E-03 0.00000E+00
 -1       101 1.08333E-02 1.87500E-03 0.00000E+00
 -1       102 1.16667E-02 2.50000E-03 0.00000E+00
 -1       103 1.25000E-02 3.12500E-03 0.00000E+00
 -1       104 1.33333E-02 3.75000E-03 0.00000E+00
 -1       105 1.41667E-02 4.37500E-03 0.00000E+00
 -1       106 1.50000E-02 5.00000E-03 0.00000E+00
 -1       107 1.58333E-02 5.62500E-03 0.00000E+00
 -1       108 1.77083E-02 0.00000E+00 0.00000E+00
 -1       109 1.87500E-02 0.00000E+00 0.00000E+00
 -1       110 1.97917E-02 0.00000E+00 0.00000E+00
 -1       111 2.08333E-02 0.00000E+00 0.00000E+00
 -1       112 2.18750E-02 0.00000E+00 0.00000E+00
 -1       113 2.29167E-02 0.00000E+00 0.00000E+00
 -1       114 2.39583E-02 0.00000E+00 0.00000E+00
 -1       115 1.66667E-02 1.04167E-03 0.00000E+00
 -1       116 1.66667E-02 2.08333E-03 0.00000E+00
 -1       117 1.66667E-02 3.12500E-03 0.00000E+00
 -1       118 1.66667E-02 4.16667E-03 0.00000E+00
 -1       119 1.66667E-02 5.20833E-03 0.00000E+00
 -1       120 1.75000E-02 6.25000E-04 0.00000E+00
 -1       121 1.83333E-02 1.25000E-03 0.00000E+00
 -1       122 1.91667E-02 1.87500E-03 0.00000E+00
 -1       123 2.00000E-02 2.50000E-03 0.00000E+00
 -1       124 2.08333E-02 3.12500E-03 0.00000E+00
 -1       125 2.16667E-02 3.75000E-03 0.00000E+00
 -1       126 2.25000E-02 4.37500E-03 0.00000E+00
 -1       127 2.33333E-02 5.00000E-03 0.00000E+00
 -1       128 2.41667E-02 5.62500E-03 0.00000E+00
 -1       129 2.60417E-02 0.00000E+00 0.00000E+00
 -1       130 2.70833E-02 0.00000E+00 0.00000E+00
 -1       131 2.81250E-02 0.00000E+00 0.00000E+00
 -1       132 2.91667E-02 0.00000E+00 0.00000E+00
 -1       133 3.02083E-02 0.00000E+00 0.00000E+00
 -1       134 3.12500E-02 0.00000E+00 0.00000E+00
 -1       135 3.22917E-02 0.00000E+00 0.00000E+00
 -1       136 2.50000E-02 1.04167E-03 0.00000E+00
 -1       137 2.50000E-02 2.08333E-03 0.00000E+00
 -1       138 2.50000E-02 3.12500E-03 0.00000E+00
 -1       139 2.50000E-02 4.16667E-03 0.00000E+00
 -1       140 2.50000E-02 5.20833E-03 0.00000E+00
 -1       141 2.58333E-02 6.25000E-04 0.00000E+00
 -1       142 2.66667E-02 1.25000E-03 0.00000E+00
 -1       143 2.75000E-02 1.87500E-03 0.00000E+00
 -1       144 2.83333E-02 2.50000E-03 0.00000E+00
 -1       145 2.91667E-02 3.12500E-03 0.00000E+00
 -1       146 3.00000E-02 3.75000E-03 0.00000E+00
 -1       147 3.08333E-02 4.37500E-03 0.00000E+00
 -1       148 3.16667E-02 5.00000E-03 0.00000E+00
 -1       149 3.25000E-02 5.62500E-03 0.00000E+00
 -1       150 3.43750E-02 0.00000E+00 0.00000E+00
 -1       151 3.54167E-02 0.00000E+00 0.00000E+00
 -1       152 3.64583E-02 0.00000E+00 0.00000E+00
 -1       153 3.75000E-02 0.00000E+00 0.00000E+00
 -1       154 3.85417E-02 0.00000E+00 0.00000E+00
 -1       155 3.95833E-02 0.00000E+00 0.00000E+00
 -1       156 4.06250E-02 0.00000E+00 0.00000E+00
 -1       157 3.33333E-02 1.04167E-03 0.00000E+00
 -1       158 3.33333E-02 2.08333E-03 0.00000E+00
 -1       159 3.33333E-02 3.12500E-03 0.00000E+00
 -1       160 3.33333E-02 4.16667E-03 0.00000E+00
 -1       161 3.33333E-02 5.20833E-03 0.00000E+00
 -1       162 3.41667E-02 6.25000E-04 0.00000E+00
 -1       163 3.50000E-02 1.25000E-03 0.00000E+00
 -1       164 3.58333E-02 1.87500E-03 0.00000E+00
 -1       165 3.66667E-02 2.50000E-03 0.00000E+00
 -1       166 3.75000E-02 3.12500E-03 0.00000E+00
 -1       167 3.83333E-02 3.75000E-03 0.00000E+00
 -1       168 3.91667E-02 4.37500E-03 0.00000E+00
 -1       169 4.00000E-02 5.00000E-03 0.00000E+00
 -1       170 4.08333E-02 5.62500E-03 0.00000E+00
 -1       171 4.27083E-02 0.00000E+00 0.00000E+00
 -1       172 4.37500E-02 0.00000E+00 0.00000E+00
 -1       173 4.47917E-02 0.00000E+00 0.00000E+00
 -1       174 4.58333E-02 0.00000E+00 0.00000E+00
 -1       175 4.68750E-02 0.00000E+00 0.00000E+00
 -1       176 4.79167E-02 0.00000E+00 0.00000E+00
 -1       177 4.89583E-02 0.00000E+00 0.00000E+00
 -1       178 4.16667E-02 1.04167E-03 0.00000E+00
 -1       179 4.16667E-02 2.08333E-03 0.00000E+00
 -1       180 4.16667E-02 3.12500E-03 0.00000E+00
 -1       181 4.16667E-02 4.16667E-03 0.00000E+00
 -1       182 4.16667E-02 5.20833E-03 0.00000E+00
 -1       183 4.25000E-02 6.25000E-04 0.00000E+00
 -1       184 4.33333E-02 1.25000E-03 0.00000E+00
 -1       185 4.41667E-02 1.87500E-03 0.00000E+00
 -1       186 4.50000E-02 2.50000E-03 0.00000E+00
 -1       187 4.58333E-02 3.12500E-03 0.00000E+00
 -1       188 4.66667E-02 3.75000E-03 0.00000E+00
 -1       189 4.75000E-02 4.37500E-03 0.00000E+00
 -1       190 4.83333E-02 5.00000E-03 0.00000E+00
 -1       191 4.91667E-02 5.62500E-03 0.00000E+00
 -1       192 5.10417E-02 0.00000E+00 0.00000E+00
 -1       193 5.20833E-02 0.00000E+00 0.00000E+00
 -1       194 5.31250E-02 0.00000E+00 0.00000E+00
 -1       195 5.41667E-02 0.00000E+00 0.00000E+00
 -1       196 5.52083E-02 0.00000E+00 0.00000E+00
 -1       197 5.62500E-02 0.00000E+00 0.00000E+00
 -1       198 5.72917E-02 0.00000E+00 0.00000E+00
 -1       199 5.00000E-02 1.04167E-03 0.00000E+00
 -1       200 5.00000E-02 2.08333E-03 0.00000E+00
 -1       201 5.00000E-02 3.12500E-03 0.00000E+00
 -1       202 5.00000E-02 4.16667E-03 0.00000E+00
 -1       203 5.00000E-02 5.20833E-03 0.00000E+00
 -1       204 5.08333E-02 6.25000E-04 0.00000E+00
 -1       205 5.16667E-02 1.25000E-03 0.00000E+00
 -1       206 5.25000E-02 1.87500E-03 0.00000E+00
 -1       207 5.33333E-02 2.50000E-03 0.00000E+00
 -1       208 5.41667E-02 3.12500E-03 0.00000E+00
 -1       209 5.50000E-02 3.75000E-03 0.00000E+00
 -1       210 5.58333E-02 4.37500E-03 0.00000E+00
 -1       211 5.66667E-02 5.00000E-03 0.00000E+00
 -1       212 5.75000E-02 5.62500E-03 0.00000E+00
 -1       213 5.93750E-02 0.00000E+00 0.00000E+00
 -1       214 6.04167E-02 0.00000E+00 0.00000E+00
 -1       215 6.14583E-02 0.00000E+00 0.00000E+00
 -1       216 6.25000E-02 0.00000E+00 0.00000E+00
 -1       217 6.35417E-02 0.00000E+00 0.00000E+00
 -1       218 6.45833E-02 0.00000E+00 0.00000E+00
 -1       219 6.56250E-02 0.00000E+00 0.00000E+00
 -1       220 5.83333E-02 1.04167E-03 0.00000E+00
 -1       221 5.83333E-02 2.08333E-03 0.00000E+00
 -1       222 5.83333E-02 3.12500E-03 0.00000E+00
 -1       223 5.83333E-02 4.16667E-03 0.00000E+00
 -1       224 5.83333E-02 5.20833E-03 0.00000E+00
 -1       225 5.91667E-02 6.25000E-04 0.00000E+00
 -1       226 6.00000E-02 1.25000E-03 0.00000E+00
 -1       227 6.08333E-02 1.87500E-03 0.00000E+00
 -1       228 6.16667E-02 2.50000E-03 0.00000E+00
 -1       229 6.25000E-02 3.12500E-03 0.00000E+00
 -1       230 6.33333E-02 3.75000E-03 0.00000E+00
 -1       231 6.41667E-02 4.37500E-03 0.00000E+00
 -1       232 6.50000E-02 5.00000E-03 0.00000E+00
 -1       233 6.58333E-02 5.62500E-03 0.00000E+00
 -1       241 6.66667E-02 1.04167E-03 0.00000E+00
 -1       242 6.66667E-02 2.08333E-03 0.00000E+00
 -1       243 6.66667E-02 3.12500E-03 0.00000E+00
 -1       244 6.66667E-02 4.16667E-03 0.00000E+00
 -1       245 6.66667E-02 5.20833E-03 0.00000E+00
 -1       323 1.04167E-03 6.25000E-03 0.00000E+00
 -1       324 2.08333E-03 6.25000E-03 0.00000E+00
 -1       325 3.12500E-03 6.25000E-03 0.00000E+00
 -1       326 4.16667E-03 6.25000E-03 0.00000E+00
 -1       327 5.20833E-03 6.25000E-03 0.00000E+00
 -1       328 6.25000E-03 6.25000E-03 0.00000E+00
 -1       329 7.29167E-03 6.25000E-03 0.00000E+00
 -1       330 0.00000E+00 7.29167E-03 0.00000E+00
 -1       331 0.00000E+00 8.33333E-03 0.00000E+00
 -1       332 0.00000E+00 9.37500E-03 0.00000E+00
 -1       333 0.00000E+00 1.04167E-02 0.00000E+00
 -1       334 0.00000E+00 1.14583E-02 0.00000E+00
 -1       335 8.33330E-04 6.87500E-03 0.00000E+00
 -1       336 1.66667E-03 7.50000E-03 0.00000E+00
 -1       337 2.50000E-03 8.12500E-03 0.00000E+00
 -1       338 3.33333E-03 8.75000E-03 0.00000E+00
 -1       339 4.16667E-03 9.37500E-03 0.00000E+00
 -1       340 5.00000E-03 1.00000E-02 0.00000E+00
 -1       341 5.83333E-03 1.06250E-02 0.00000E+00
 -1       342 6.66667E-03 1.12500E-02 0.00000E+00
 -1       343 7.50000E-03 1.18750E-02 0.00000E+00
 -1       344 9.37500E-03 6.25000E-03 0.00000E+00
 -1       345 1.04167E-02 6.25000E-03 0.00000E+00
 -1       346 1.14583E-02 6.25000E-03 0.00000E+00
 -1       347 1.25000E-02 6.25000E-03 0.00000E+00
 -1       348 1.35417E-02 6.25000E-03 0.00000E+00
 -1       349 1.45833E-02 6.25000E-03 0.00000E+00
 -1       350 1.56250E-02 6.25000E-03 0.00000E+00
 -1       351 8.33333E-03 7.29167E-03 0.00000E+00
 -1       352 8.33333E-03 8.33333E-03 0.00000E+00
 -1       353 8.33333E-03 9.37500E-03 0.00000E+00
 -1       354 8.33333E-03 1.04167E-02 0.00000E+00
 -1       355 8.33333E-03 1.14583E-02 0.00000E+00
 -1       356 9.16667E-03 6.87500E-03 0.00000E+00
 -1       357 1.00000E-02 7.50000E-03 0.00000E+00
 -1       358 1.08333E-02 8.12500E-03 0.00000E+00
 -1       359 1.16667E-02 8.75000E-03 0.00000E+00
 -1       360 1.25000E-02 9.37500E-03 0.00000E+00
 -1       361 1.33333E-02 1.00000E-02 0.00000E+00
 -1       362 1.41667E-02 1.06250E-02 0.00000E+00
 -1       363 1.50000E-02 1.12500E-02 0.00000E+00
 -1       364 1.58333E-02 1.18750E-02 0.00000E+00
 -1       365 1.77083E-02 6.25000E-03 0.00000E+00
 -1       366 1.87500E-02 6.25000E-03 0.00000E+00
 -1       367 1.97917E-02 6.25000E-03 0.00000E+00
 -1       368 2.08333E-02 6.25000E-03 0.00000E+00
 -1       369 2.18750E-02 6.25000E-03 0.00000E+00
 -1       370 2.29167E-02 6.25000E-03 0.00000E+00
 -1       371 2.39583E-02 6.25000E-03 0.00000E+00
 -1       372 1.66667E-02 7.29167E-03 0.00000E+00
 -1       373 1.66667E-02 8.33333E-03 0.00000E+00
 -1       374 1.66667E-02 9.37500E-03 0.00000E+00
 -1       375 1.66667E-02 1.04167E-02 0.00000E+00
 -1       376 1.66667E-02 1.14583E-02 0.00000E+00
 -1       377 1.75000E-02 6.87500E-03 0.00000E+00
 -1       378 1.83333E-02 7.50000E-03 0.00000E+00
 -1       379 1.91667E-02 8.12500E-03 0.00000E+00
 -1       380 2.00000E-02 8.75000E-03 0.00000E+00
 -1       381 2.08333E-02 9.37500E-03 0.00000E+00
 -1       382 2.16667E-02 1.00000E-02 0.00000E+00
 -1       383 2.25000E-02 1.06250E-02 0.00000E+00
 -1       384 2.33333E-02 1.12500E-02 0.00000E+00
 -1       385 2.41667E-02 1.18750E-02 0.00000E+00
 -1       386 2.60417E-02 6.25000E-03 0.00000E+00
 -1       387 2.70833E-02 6.25000E-03 0.00000E+00
 -1       388 2.81250E-02 6.25000E-03 0.00000E+00
 -1       389 2.91667E-02 6.25000E-03 0.00000E+00
 -1       390 3.02083E-02 6.25000E-03 0.00000E+00
 -1       391 3.12500E-02 6.25000E-03 0.00000E+00
 -1       392 3.22917E-02 6.25000E-03 0.00000E+00
 -1       393 2.50000E-02 7.29167E-03 0.00000E+00
 -1       394 2.50000E-02 8.33333E-03 0.00000E+00
 -1       395 2.50000E-02 9.37500E-03 0.00000E+00
 -1       396 2.50000E-02 1.04167E-02 0.00000E+00
 -1       397 2.50000E-02 1.14583E-02 0.00000E+00
 -1       398 2.58333E-02 6.87500E-03 0.00000E+00
 -1       399 2.66667E-02 7.50000E-03 0.00000E+00
 -1       400 2.75000E-02 8.12500E-03 0.00000E+00
 -1       401 2.83333E-02 8.75000E-03 0.00000E+00
 -1       402 2.91667E-02 9.37500E-03 0.00000E+00
 -1       403 3.00000E-02 1.00000E-02 0.00000E+00
 -1       404 3.08333E-02 1.06250E-02 0.00000E+00
 -1       405 3.16667E-02 1.12500E-02 0.00000E+00
 -1       406 3.25000E-02 1.18750E-02 0.00000E+00
 -1       407 3.43750E-02 6.25000E-03 0.00000E+00
 -1       408 3.54167E-02 6.25000E-03 0.00000E+00
 -1       409 3.64583E-02 6.25000E-03 0.00000E+00
 -1       410 3.75000E-02 6.25000E-03 0.00000E+00
 -1       411 3.85417E-02 6.25000E-03 0.00000E+00
 -1       412 3.95833E-02 6.25000E-03 0.00000E+00
 -1       413 4.06250E-02 6.25000E-03 0.00000E+00
 -1       414 3.33333E-02 7.29167E-03 0.00000E+00
 -1       415 3.33333E-02 8.33333E-03 0.00000E+00
 -1       416 3.33333E-02 9.37500E-03 0.00000E+00
 -1       417 3.33333E-02 1.04167E-02 0.00000E+00
 -1       418 3.33333E-02 1.14583E-02 0.00000E+00
 -1       419 3.41667E-02 6.87500E-03 0.00000E+00
 -1       420 3.50000E-02 7.50000E-03 0.00000E+00
 -1       421 3.58333E-02 8.12500E-03 0.00000E+00
 -1       422 3.66667E-02 8.75000E-03 0.00000E+00
 -1       423 3.75000E-02 9.37500E-03 0.00000E+00
 -1       424 3.83333E-02 1.00000E-02 0.00000E+00
 -1       425 3.91667E-02 1.06250E-02 0.00000E+00
 -1       426 4.00000E-02 1.12500E-02 0.00000E+00
 -1       427 4.08333E-02 1.18750E-02 0.00000E+00
 -1       428 4.27083E-02 6.25000E-03 0.00000E+00
 -1       429 4.37500E-02 6.25000E-03 0.00000E+00
 -1       430 4.47917E-02 6.25000E-03 0.00000E+00
 -1       431 4.58333E-02 6.25000E-03 0.00000E+00
 -1       432 4.68750E-02 6.25000E-03 0.00000E+00
 -1       433 4.79167E-02 6.25000E-03 0.00000E+00
 -1       434 4.89583E-02 6.25000E-03 0.00000E+00
 -1       435 4.16667E-02 7.29167E-03 0.00000E+00
 -1       436 4.16667E-02 8.33333E-03 0.00000E+00
 -1       437 4.16667E-02 9.37500E-03 0.00000E+00
 -1       438 4.16667E-02 1.04167E-02 0.00000E+00
 -1       439 4.16667E-02 1.14583E-02 0.00000E+00
 -1       440 4.25000E-02 6.87500E-03 0.00000E+00
 -1       441 4.33333E-02 7.50000E-03 0.00000E+00
 -1       442 4.41667E-02 8.12500E-03 0.00000E+00
 -1       443 4.50000E-02 8.75000E-03 0.00000E+00
 -1       444 4.58333E-02 9.37500E-03 0.00000E+00
 -1       445 4.66667E-02 1.00000E-02 0.00000E+00
 -1       446 4.75000E-02 1.06250E-02 0.00000E+00
 -1       447 4.83333E-02 1.12500E-02 0.00000E+00
 -1       448 4.91667E-02 1.18750E-02 0.00000E+00
 -1       449 5.10417E-02 6.25000E-03 0.00000E+00
 -1       450 5.20833E-02 6.25000E-03 0.00000E+00
 -1       451 5.31250E-02 6.25000E-03 0.00000E+00
 -1       452 5.41667E-02 6.25000E-03 0.00000E+00
 -1       453 5.52083E-02 6.25000E-03 0.00000E+00
 -1       454 5.62500E-02 6.25000E-03 0.00000E+00
 -1       455 5.72917E-02 6.25000E-03 0.00000E+00
 -1       456 5.00000E-02 7.29167E-03 0.00000E+00
 -1       457 5.00000E-02 8.33333E-03 0.00000E+00
 -1       458 5.00000E-02 9.37500E-03 0.00000E+00
 -1       459 5.00000E-02 1.04167E-02 0.00000E+00
 -1       460 5.00000E-02 1.14583E-02 0.00000E+00
 -1       461 5.08333E-02 6.87500E-03 0.00000E+00
 -1       462 5.16667E-02 7.50000E-03 0.00000E+00
 -1       463 5.25000E-02 8.12500E-03 0.00000E+00
 -1       464 5.33333E-02 8.75000E-03 0.00000E+00
 -1       465 5.41667E-02 9.37500E-03 0.00000E+00
 -1       466 5.50000E-02 1.00000E-02 0.00000E+00
 -1       467 5.58333E-02 1.06250E-02 0.00000E+00
 -1       468 5.66667E-02 1.12500E-02 0.00000E+00
 -1       469 5.75000E-02 1.18750E-02 0.00000E+00
 -1       470 5.93750E-02 6.25000E-03 0.00000E+00
 -1       471 6.04167E-02 6.25000E-03 0.00000E+00
 -1       472 6.14583E-02 6.25000E-03 0.00000E+00
 -1       473 6.25000E-02 6.25000E-03 0.00000E+00
 -1       474 6.35417E-02 6.25000E-03 0.00000E+00
 -1       475 6.45833E-02 6.25000E-03 0.00000E+00
 -1       476 6.56250E-02 6.25000E-03 0.00000E+00
 -1       477 5.83333E-02 7.29167E-03 0.00000E+00
 -1       478 5.83333E-02 8.33333E-03 0.00000E+00
 -1       479 5.83333E-02 9.37500E-03 0.00000E+00
 -1       480 5.83333E-02 1.04167E-02 0.00000E+00
 -1       481 5.83333E-02 1.14583E-02 0.00000E+00
 -1       482 5.91667E-02 6.87500E-03 0.00000E+00
 -1       483 6.00000E-02 7.50000E-03 0.00000E+00
 -1       484 6.08333E-02 8.12500E-03 0.00000E+00
 -1       485 6.16667E-02 8.75000E-03 0.00000E+00
 -1       486 6.25000E-02 9.37500E-03 0.00000E+00
 -1       487 6.33333E-02 1.00000E-02 0.00000E+00
 -1       488 6.41667E-02 1.06250E-02 0.00000E+00
 -1       489 6.50000E-02 1.12500E-02 0.00000E+00
 -1       490 6.58333E-02 1.18750E-02 0.00000E+00
 -1       498 6.66667E-02 7.29167E-03 0.00000E+00
 -1       499 6.66667E-02 8.33333E-03 0.00000E+00
 -1       500 6.66667E-02 9.37500E-03 0.00000E+00
 -1       501 6.66667E-02 1.04167E-02 0.00000E+00
 -1       502 6.66667E-02 1.14583E-02 0.00000E+00
 -1       580 1.04167E-03 1.25000E-02 0.00000E+00
 -1       581 2.08333E-03 1.25000E-02 0.00000E+00
 -1       582 3.12500E-03 1.25000E-02 0.00000E+00
 -1       583 4.16667E-03 1.25000E-02 0.00000E+00
 -1       584 5.20833E-03 1.25000E-02 0.00000E+00
 -1       585 6.25000E-03 1.25000E-02 0.00000E+00
 -1       586 7.29167E-03 1.25000E-02 0.00000E+00
 -1       587 0.00000E+00 1.35417E-02 0.00000E+00
 -1       588 0.00000E+00 1.45833E-02 0.00000E+00
 -1       589 0.00000E+00 1.56250E-02 0.00000E+00
 -1       590 0.00000E+00 1.66667E-02 0.00000E+00
 -1       591 0.00000E+00 1.77083E-02 0.00000E+00
 -1       592 8.33330E-04 1.31250E-02 0.00000E+00
 -1       593 1.66667E-03 1.37500E-02 0.00000E+00
 -1       594 2.50000E-03 1.43750E-02 0.00000E+00
 -1       595 3.33333E-03 1.50000E-02 0.00000E+00
 -1       596 4.16667E-03 1.56250E-02 0.00000E+00
 -1       597 5.00000E-03 1.62500E-02 0.00000E+00
 -1       598 5.83333E-03 1.68750E-02 0.00000E+00
 -1       599 6.66667E-03 1.75000E-02 0.00000E+00
 -1       600 7.50000E-03 1.81250E-02 0.00000E+00
 -1       601 9.37500E-03 1.25000E-02 0.00000E+00
 -1       602 1.04167E-02 1.25000E-02 0.00000E+00
 -1       603 1.14583E-02 1.25000E-02 0.00000E+00
 -1       604 1.25000E-02 1.25000E-02 0.00000E+00
 -1       605 1.35417E-02 1.25000E-02 0.00000E+00
 -1       606 1.45833E-02 1.25000E-02 0.00000E+00
 -1       607 1.56250E-02 1.25000E-02 0.00000E+00
 -1       608 8.33333E-03 1.35417E-02 0.00000E+00
 -1       609 8.33333E-03 1.45833E-02 0.00000E+00
 -1       610 8.33333E-03 1.56250E-02 0.00000E+00
 -1       611 8.33333E-03 1.66667E-02 0.00000E+00
 -1       612 8.33333E-03 1.77083E-02 0.00000E+00
 -1       613 9.16667E-03 1.31250E-02 0.00000E+00
 -1       614 1.00000E-02 1.37500E-02 0.00000E+00
 -1       615 1.08333E-02 1.43750E-02 0.00000E+00
 -1       616 1.16667E-02 1.50000E-02 0.00000E+00
 -1       617 1.25000E-02 1.56250E-02 0.00000E+00
 -1       618 1.33333E-02 1.62500E-02 0.00000E+00
 -1       619 1.41667E-02 1.68750E-02 0.00000E+00
 -1       620 1.50000E-02 1.75000E-02 0.00000E+00
 -1       621 1.58333E-02 1.81250E-02 0.00000E+00
 -1       622 1.77083E-02 1.25000E-02 0.00000E+00
 -1       623 1.87500E-02 1.25000E-02 0.00000E+00
 -1       624 1.97917E-02 1.25000E-02 0.00000E+00
 -1       625 2.08333E-02 1.25000E-02 0.00000E+00
 -1       626 2.18750E-02 1.25000E-02 0.00000E+00
 -1       627 2.29167E-02 1.25000E-02 0.00000E+00
 -1       628 2.39583E-02 1.25000E-02 0.00000E+00
 -1       629 1.66667E-02 1.35417E-02 0.00000E+00
 -1       630 1.66667E-02 1.45833E-02 0.00000E+00
 -1       631 1.66667E-02 1.56250E-02 0.00000E+00
 -1       632 1.66667E-02 1.66667E-02 0.00000E+00
 -1       633 1.66667E-02 1.77083E-02 0.00000E+00
 -1       634 1.75000E-02 1.31250E-02 0.00000E+00
 -1       635 1.83333E-02 1.37500E-02 0.00000E+00
 -1       636 1.91667E-02 1.43750E-02 0.00000E+00
 -1       637 2.00000E-02 1.50000E-02 0.00000E+00
 -1       638 2.08333E-02 1.56250E-02 0.00000E+00
 -1       639 2.16667E-02 1.62500E-02 0.00000E+00
 -1       640 2.25000E-02 1.68750E-02 0.00000E+00
 -1       641 2.33333E-02 1.75000E-02 0.00000E+00
 -1       642 2.41667E-02 1.81250E-02 0.00000E+00
 -1       643 2.60417E-02 1.25000E-02 0.00000E+00
 -1       644 2.70833E-02 1.25000E-02 0.00000E+00
 -1       645 2.81250E-02 1.25000E-02 0.00000E+00
 -1       646 2.91667E-02 1.25000E-02 0.00000E+00
 -1       647 3.02083E-02 1.25000E-02 0.00000E+00
 -1       648 3.12500E-02 1.25000E-02 0.00000E+00
 -1       649 3.22917E-02 1.25000E-02 0.00000E+00
 -1       650 2.50000E-02 1.35417E-02 0.00000E+00
 -1       651 2.50000E-02 1.45833E-02 0.00000E+00
 -1       652 2.50000E-02 1.56250E-02 0.00000E+00
 -1       653 2.50000E-02 1.66667E-02 0.00000E+00
 -1       654 2.50000E-02 1.77083E-02 0.00000E+00
 -1       655 2.58333E-02 1.31250E-02 0.00000E+00
 -1       656 2.66667E-02 1.37500E-02 0.00000E+00
 -1       657 2.75000E-02 1.43750E-02 0.00000E+00
 -1       658 2.83333E-02 1.50000E-02 0.00000E+00
 -1       659 2.91667E-02 1.56250E-02 0.00000E+00
 -1       660 3.00000E-02 1.62500E-02 0.00000E+00
 -1       661 3.08333E-02 1.68750E-02 0.00000E+00
 -1       662 3.16667E-02 1.75000E-02 0.00000E+00
 -1       663 3.25000E-02 1.81250E-02 0.00000E+00
 -1       664 3.43750E-02 1.25000E-02 0.00000E+00
 -1       665 3.54167E-02 1.25000E-02 0.00000E+00
 -1       666 3.64583E-02 1.25000E-02 0.00000E+00
 -1       667 3.75000E-02 1.25000E-02 0.00000E+00
 -1       668 3.85417E-02 1.25000E-02 0.00000E+00
 -1       669 3.95833E-02 1.25000E-02 0.00000E+00
 -1       670 4.06250E-02 1.25000E-02 0.00000E+00
 -1       671 3.33333E-02 1.35417E-02 0.00000E+00
 -1       672 3.33333E-02 1.45833E-02 0.00000E+00
 -1       673 3.33333E-02 1.56250E-02 0.00000E+00
 -1       674 3.33333E-02 1.66667E-02 0.00000E+00
 -1       675 3.33333E-02 1.77083E-02 0.00000E+00
 -1       676 3.41667E-02 1.31250E-02 0.00000E+00
 -1       677 3.50000E-02 1.37500E-02 0.00000E+00
 -1       678 3.58333E-02 1.43750E-02 0.00000E+00
 -1       679 3.66667E-02 1.50000E-02 0.00000E+00
 -1       680 3.75000E-02 1.56250E-02 0.00000E+00
 -1       681 3.83333E-02 1.62500E-02 0.00000E+00
 -1       682 3.91667E-02 1.68750E-02 0.00000E+00
 -1       683 4.00000E-02 1.75000E-02 0.00000E+00
 -1       684 4.08333E-02 1.81250E-02 0.00000E+00
 -1       685 4.27083E-02 1.25000E-02 0.00000E+00
 -1       686 4.37500E-02 1.25000E-02 0.00000E+00
 -1       687 4.47917E-02 1.25000E-02 0.00000E+00
 -1       688 4.58333E-02 1.25000E-02 0.00000E+00
 -1       689 4.68750E-02 1.25000E-02 0.00000E+00
 -1       690 4.79167E-02 1.25000E-02 0.00000E+00
 -1       691 4.89583E-02 1.25000E-02 0.00000E+00
 -1       692 4.16667E-02 1.35417E-02 0.00000E+00
 -1       693 4.16667E-02 1.45833E-02 0.00000E+00
 -1       694 4.16667E-02 1.56250E-02 0.00000E+00
 -1       695 4.16667E-02 1.66667E-02 0.00000E+00
 -1       696 4.16667E-02 1.77083E-02 0.00000E+00
 -1       697 4.25000E-02 1.31250E-02 0.00000E+00
 -1       698 4.33333E-02 1.37500E-02 0.00000E+00
 -1       699 4.41667E-02 1.43750E-02 0.00000E+00
 -1       700 4.50000E-02 1.50000E-02 0.00000E+00
 -1       701 4.58333E-02 1.56250E-02 0.00000E+00
 -1       702 4.66667E-02 1.62500E-02 0.00000E+00
 -1       703 4.75000E-02 1.68750E-02 0.00000E+00
 -1       704 4.83333E-02 1.75000E-02 0.00000E+00
 -1       705 4.91667E-02 1.81250E-02 0.00000E+00
 -1       706 5.10417E-02 1.25000E-02 0.00000E+00
 -1       707 5.20833E-02 1.25000E-02 0.00000E+00
 -1       708 5.31250E-02 1.25000E-02 0.00000E+00
 -1       709 5.41667E-02 1.25000E-02 0.00000E+00
 -1       710 5.52083E-02 1.25000E-02 0.00000E+00
 -1       711 5.62500E-02 1.25000E-02 0.00000E+00
 -1       712 5.72917E-02 1.25000E-02 0.00000E+00
 -1       713 5.00000E-02 1.35417E-02 0.00000E+00
 -1       714 5.00000E-02 1.45833E-02 0.00000E+00
 -1       715 5.00000E-02 1.56250E-02 0.00000E+00
 -1       716 5.00000E-02 1.66667E-02 0.00000E+00
 -1       717 5.00000E-02 1.77083E-02 0.00000E+00
 -1       718 5.08333E-02 1.31250E-02 0.00000E+00
 -1       719 5.16667E-02 1.37500E-02 0.00000E+00
 -1       720 5.25000E-02 1.43750E-02 0.00000E+00
 -1       721 5.33333E-02 1.50000E-02 0.00000E+00
 -1       722 5.41667E-02 1.56250E-02 0.00000E+00
 -1       723 5.50000E-02 1.62500E-02 0.00000E+00
 -1       724 5.58333E-02 1.68750E-02 0.00000E+00
 -1       725 5.66667E-02 1.75000E-02 0.00000E+00
 -1       726 5.75000E-02 1.81250E-02 0.00000E+00
 -1       727 5.93750E-02 1.25000E-02 0.00000E+00
 -1       728 6.04167E-02 1.25000E-02 0.00000E+00
 -1       729 6.14583E-02 1.25000E-02 0.00000E+00
 -1       730 6.25000E-02 1.25000E-02 0.00000E+00
 -1       731 6.35417E-02 1.25000E-02 0.00000E+00
 -1       732 6.45833E-02 1.25000E-02 0.00000E+00
 -1       733 6.56250E-02 1.25000E-02 0.00000E+00
 -1       734 5.83333E-02 1.35417E-02 0.00000E+00
 -1       735 5.83333E-02 1.45833E-02 0.00000E+00
 -1       736 5.83333E-02 1.56250E-02 0.00000E+00
 -1       737 5.83333E-02 1.66667E-02 0.00000E+00
 -1       738 5.83333E-02 1.77083E-02 0.00000E+00
 -1       739 5.91667E-02 1.31250E-02 0.00000E+00
 -1       740 6.00000E-02 1.37500E-02 0.00000E+00
 -1       741 6.08333E-02 1.43750E-02 0.00000E+00
 -1       742 6.16667E-02 1.50000E-02 0.00000E+00
 -1       743 6.25000E-02 1.56250E-02 0.00000E+00
 -1       744 6.33333E-02 1.62500E-02 0.00000E+00
 -1       745 6.41667E-02 1.68750E-02 0.00000E+00
 -1       746 6.50000E-02 1.75000E-02 0.00000E+00
 -1       747 6.58333E-02 1.81250E-02 0.00000E+00
 -1       748 6.77083E-02 1.25000E-02 0.00000E+00
 -1       749 6.87500E-02 1.25000E-02 0.00000E+00
 -1       750 6.97917E-02 1.25000E-02 0.00000E+00
 -1       751 7.08333E-02 1.25000E-02 0.00000E+00
 -1       752 7.18750E-02 1.25000E-02 0.00000E+00
 -1       753 7.29167E-02 1.25000E-02 0.00000E+00
 -1       754 7.39583E-02 1.25000E-02 0.00000E+00
 -1       755 6.66667E-02 1.35417E-02 0.00000E+00
 -1       756 6.66667E-02 1.45833E-02 0.00000E+00
 -1       757 6.66667E-02 1.56250E-02 0.00000E+00
 -1       758 6.66667E-02 1.66667E-02 0.00000E+00
 -1       759 6.66667E-02 1.77083E-02 0.00000E+00
 -1       760 6.75000E-02 1.31250E-02 0.00000E+00
 -1       761 6.83333E-02 1.37500E-02 0.00000E+00
 -1       762 6.91667E-02 1.43750E-02 0.00000E+00
 -1       763 7.00000E-02 1.50000E-02 0.00000E+00
 -1       764 7.08333E-02 1.56250E-02 0.00000E+00
 -1       765 7.16667E-02 1.62500E-02 0.00000E+00
 -1       766 7.25000E-02 1.68750E-02 0.00000E+00
 -1       767 7.33333E-02 1.75000E-02 0.00000E+00
 -1       768 7.41667E-02 1.81250E-02 0.00000E+00
 -1       769 7.60417E-02 1.25000E-02 0.00000E+00
 -1       770 7.70833E-02 1.25000E-02 0.00000E+00
 -1       771 7.81250E-02 1.25000E-02 0.00000E+00
 -1       772 7.91667E-02 1.25000E-02 0.00000E+00
 -1       773 8.02083E-02 1.25000E-02 0.00000E+00
 -1       774 8.12500E-02 1.25000E-02 0.00000E+00
 -1       775 8.22917E-02 1.25000E-02 0.00000E+00
 -1       776 7.50000E-02 1.35417E-02 0.00000E+00
 -1       777 7.50000E-02 1.45833E-02 0.00000E+00
 -1       778 7.50000E-02 1.56250E-02 0.00000E+00
 -1       779 7.50000E-02 1.66667E-02 0.00000E+00
 -1       780 7.50000E-02 1.77083E-02 0.00000E+00
 -1       781 7.58333E-02 1.31250E-02 0.00000E+00
 -1       782 7.66667E-02 1.37500E-02 0.00000E+00
 -1       783 7.75000E-02 1.43750E-02 0.00000E+00
 -1       784 7.83333E-02 1.50000E-02 0.00000E+00
 -1       785 7.91667E-02 1.56250E-02 0.00000E+00
 -1       786 8.00000E-02 1.62500E-02 0.00000E+00
 -1       787 8.08333E-02 1.68750E-02 0.00000E+00
 -1       788 8.16667E-02 1.75000E-02 0.00000E+00
 -1       789 8.25000E-02 1.81250E-02 0.00000E+00
 -1       790 8.43750E-02 1.25000E-02 0.00000E+00
 -1       791 8.54167E-02 1.25000E-02 0.00000E+00
 -1       792 8.64583E-02 1.25000E-02 0.00000E+00
 -1       793 8.75000E-02 1.25000E-02 0.00000E+00
 -1       794 8.85417E-02 1.25000E-02 0.00000E+00
 -1       795 8.95833E-02 1.25000E-02 0.00000E+00
 -1       796 9.06250E-02 1.25000E-02 0.00000E+00
 -1       797 8.33333E-02 1.35417E-02 0.00000E+00
 -1       798 8.33333E-02 1.45833E-02 0.00000E+00
 -1       799 8.33333E-02 1.56250E-02 0.00000E+00
 -1       800 8.33333E-02 1.66667E-02 0.00000E+00
 -1       801 8.33333E-02 1.77083E-02 0.00000E+00
 -1       802 8.41667E-02 1.31250E-02 0.00000E+00
 -1       803 8.50000E-02 1.37500E-02 0.00000E+00
 -1       804 8.58333E-02 1.43750E-02 0.00000E+00
 -1       805 8.66667E-02 1.50000E-02 0.00000E+00
 -1       806 8.75000E-02 1.56250E-02 0.00000E+00
 -1       807 8.83333E-02 1.62500E-02 0.00000E+00
 -1       808 8.91667E-02 1.68750E-02 0.00000E+00
 -1       809 9.00000E-02 1.75000E-02 0.00000E+00
 -1       810 9.08333E-02 1.81250E-02 0.00000E+00
 -1       811 9.27083E-02 1.25000E-02 0.00000E+00
 -1       812 9.37500E-02 1.25000E-02 0.00000E+00
 -1       813 9.47917E-02 1.25000E-02 0.00000E+00
 -1       814 9.58333E-02 1.25000E-02 0.00000E+00
 -1       815 9.68750E-02 1.25000E-02 0.00000E+00
 -1       816 9.79167E-02 1.25000E-02 0.00000E+00
 -1       817 9.89583E-02 1.25000E-02 0.00000E+00
 -1       818 9.16667E-02 1.35417E-02 0.00000E+00
 -1       819 9.16667E-02 1.45833E-02 0.00000E+00
 -1       820 9.16667E-02 1.56250E-02 0.00000E+00
 -1       821 9.16667E-02 1.66667E-02 0.00000E+00
 -1       822 9.16667E-02 1.77083E-02 0.00000E+00
 -1       823 9.25000E-02 1.31250E-02 0.00000E+00
 -1       824 9.33333E-02 1.37500E-02 0.00000E+00
 -1       825 9.41667E-02 1.43750E-02 0.00000E+00
 -1       826 9.50000E-02 1.50000E-02 0.00000E+00
 -1       827 9.58333E-02 1.56250E-02 0.00000E+00
 -1       828 9.66667E-02 1.62500E-02 0.00000E+00
 -1       829 9.75000E-02 1.68750E-02 0.00000E+00
 -1       830 9.83333E-02 1.75000E-02 0.00000E+00
 -1       831 9.91667E-02 1.81250E-02 0.00000E+00
 -1       832 1.00000E-01 1.35417E-02 0.00000E+00
 -1       833 1.00000E-01 1.45833E-02 0.00000E+00
 -1       834 1.00000E-01 1.56250E-02 0.00000E+00
 -1       835 1.00000E-01 1.66667E-02 0.00000E+00
 -1       836 1.00000E-01 1.77083E-02 0.00000E+00
 -1       837 1.04167E-03 1.87500E-02 0.00000E+00
 -1       838 2.08333E-03 1.87500E-02 0.00000E+00
 -1       839 3.12500E-03 1.87500E-02 0.00000E+00
 -1       840 4.16667E-03 1.87500E-02 0.00000E+00
 -1       841 5.20833E-03 1.87500E-02 0.00000E+00
 -1       842 6.25000E-03 1.87500E-02 0.00000E+00
 -1       843 7.29167E-03 1.87500E-02 0.00000E+00
 -1       844 0.00000E+00 1.97917E-02 0.00000E+00
 -1       845 0.00000E+00 2.08333E-02 0.00000E+00
 -1       846 0.00000E+00 2.18750E-02 0.00000E+00
 -1       847 0.00000E+00 2.29167E-02 0.00000E+00
 -1       848 0.00000E+00 2.39583E-02 0.00000E+00
 -1       849 8.33330E-04 1.93750E-02 0.00000E+00
 -1       850 1.66667E-03 2.00000E-02 0.00000E+00
 -1       851 2.50000E-03 2.06250E-02 0.00000E+00
 -1       852 3.33333E-03 2.12500E-02 0.00000E+00
 -1       853 4.16667E-03 2.18750E-02 0.00000E+00
 -1       854 5.00000E-03 2.25000E-02 0.00000E+00
 -1       855 5.83333E-03 2.31250E-02 0.00000E+00
 -1       856 6.66667E-03 2.37500E-02 0.00000E+00
 -1       857 7.50000E-03 2.43750E-02 0.00000E+00
 -1       858 9.37500E-03 1.87500E-02 0.00000E+00
 -1       859 1.04167E-02 1.87500E-02 0.00000E+00
 -1       860 1.14583E-02 1.87500E-02 0.00000E+00
 -1       861 1.25000E-02 1.87500E-02 0.00000E+00
 -1       862 1.35417E-02 1.87500E-02 0.00000E+00
 -1       863 1.45833E-02 1.87500E-02 0.00000E+00
 -1       864 1.56250E-02 1.87500E-02 0.00000E+00
 -1       865 8.33333E-03 1.97917E-02 0.00000E+00
 -1       866 8.33333E-03 2.08333E-02 0.00000E+00
 -1       867 8.33333E-03 2.18750E-02 0.00000E+00
 -1       868 8.33333E-03 2.29167E-02 0.00000E+00
 -1       869 8.33333E-03 2.39583E-02 0.00000E+00
 -1       870 9.16667E-03 1.93750E-02 0.00000E+00
 -1       871 1.00000E-02 2.00000E-02 0.00000E+00
 -1       872 1.08333E-02 2.06250E-02 0.00000E+00
 -1       873 1.16667E-02 2.12500E-02 0.00000E+00
 -1       874 1.25000E-02 2.18750E-02 0.00000E+00
 -1       875 1.33333E-02 2.25000E-02 0.00000E+00
 -1       876 1.41667E-02 2.31250E-02 0.00000E+00
 -1       877 1.50000E-02 2.37500E-02 0.00000E+00
 -1       878 1.58333E-02 2.43750E-02 0.00000E+00
 -1       879 1.77083E-02 1.87500E-02 0.00000E+00
 -1       880 1.87500E-02 1.87500E-02 0.00000E+00
 -1       881 1.97917E-02 1.87500E-02 0.00000E+00
 -1       882 2.08333E-02 1.87500E-02 0.00000E+00
 -1       883 2.18750E-02 1.87500E-02 0.00000E+00
 -1       884 2.29167E-02 1.87500E-02 0.00000E+00
 -1       885 2.39583E-02 1.87500E-02 0.00000E+00
 -1       886 1.66667E-02 1.97917E-02 0.00000E+00
 -1       887 1.66667E-02 2.08333E-02 0.00000E+00
 -1       888 1.66667E-02 2.18750E-02 0.00000E+00
 -1       889 1.66667E-02 2.29167E-02 0.00000E+00
 -1       890 1.66667E-02 2.39583E-02 0.00000E+00
 -1       891 1.75000E-02 1.93750E-02 0.00000E+00
 -1       892 1.83333E-02 2.00000E-02 0.00000E+00
 -1       893 1.91667E-02 2.06250E-02 0.00000E+00
 -1       894 2.00000E-02 2.12500E-02 0.00000E+00
 -1       895 2.08333E-02 2.18750E-02 0.00000E+00
 -1       896 2.16667E-02 2.25000E-02 0.00000E+00
 -1       897 2.25000E-02 2.31250E-02 0.00000E+00
 -1       898 2.33333E-02 2.37500E-02 0.00000E+00
 -1       899 2.41667E-02 2.43750E-02 0.00000E+00
 -1       900 2.60417E-02 1.87500E-02 0.00000E+00
 -1       901 2.70833E-02 1.87500E-02 0.00000E+00
 -1       902 2.81250E-02 1.87500E-02 0.00000E+00
 -1       903 2.91667E-02 1.87500E-02 0.00000E+00
 -1       904 3.02083E-02 1.87500E-02 0.00000E+00
 -1       905 3.12500E-02 1.87500E-02 0.00000E+00
 -1       906 3.22917E-02 1.87500E-02 0.00000E+00
 -1       907 2.50000E-02 1.97917E-02 0.00000E+00
 -1       908 2.50000E-02 2.08333E-02 0.00000E+00
 -1       909 2.50000E-02 2.18750E-02 0.00000E+00
 -1       910 2.50000E-02 2.29167E-02 0.00000E+00
 -1       911 2.50000E-02 2.39583E-02 0.00000E+00
 -1       912 2.58333E-02 1.93750E-02 0.00000E+00
 -1       913 2.66667E-02 2.00000E-02 0.00000E+00
 -1       914 2.75000E-02 2.06250E-02 0.00000E+00
 -1       915 2.83333E-02 2.12500E-02 0.00000E+00
 -1       916 2.91667E-02 2.18750E-02 0.00000E+00
 -1       917 3.00000E-02 2.25000E-02 0.00000E+00
 -1       918 3.08333E-02 2.31250E-02 0.00000E+00
 -1       919 3.16667E-02 2.37500E-02 0.00000E+00
 -1       920 3.25000E-02 2.43750E-02 0.00000E+00
 -1       921 3.43750E-02 1.87500E-02 0.00000E+00
 -1       922 3.54167E-02 1.87500E-02 0.00000E+00
 -1       923 3.64583E-02 1.87500E-02 0.00000E+00
 -1       924 3.75000E-02 1.87500E-02 0.00000E+00
 -1       925 3.85417E-02 1.87500E-02 0.00000E+00
 -1       926 3.95833E-02 1.87500E-02 0.00000E+00
 -1       927 4.06250E-02 1.87500E-02 0.00000E+00
 -1       928 3.33333E-02 1.97917E-02 0.00000E+00
 -1       929 3.33333E-02 2.08333E-02 0.00000E+00
 -1       930 3.33333E-02 2.18750E-02 0.00000E+00
 -1       931 3.33333E-02 2.29167E-02 0.00000E+00
 -1       932 3.33333E-02 2.39583E-02 0.00000E+00
 -1       933 3.41667E-02 1.93750E-02 0.00000E+00
 -1       934 3.50000E-02 2.00000E-02 0.00000E+00
 -1       935 3.58333E-02 2.06250E-02 0.00000E+00
 -1       936 3.66667E-02 2.12500E-02 0.00000E+00
 -1       937 3.75000E-02 2.18750E-02 0.00000E+00
 -1       938 3.83333E-02 2.25000E-02 0.00000E+00
 -1       939 3.91667E-02 2.31250E-02 0.00000E+00
 -1       940 4.00000E-02 2.37500E-02 0.00000E+00
 -1       941 4.08333E-02 2.43750E-02 0.00000E+00
 -1       942 4.27083E-02 1.87500E-02 0.00000E+00
 -1       943 4.37500E-02 1.87500E-02 0.00000E+00
 -1       944 4.47917E-02 1.87500E-02 0.00000E+00
 -1       945 4.58333E-02 1.87500E-02 0.00000E+00
 -1       946 4.68750E-02 1.87500E-02 0.00000E+00
 -1       947 4.79167E-02 1.87500E-02 0.00000E+00
 -1       948 4.89583E-02 1.87500E-02 0.00000E+00
 -1       949 4.16667E-02 1.97917E-02 0.00000E+00
 -1       950 4.16667E-02 2.08333E-02 0.00000E+00
 -1       951 4.16667E-02 2.18750E-02 0.00000E+00
 -1       952 4.16667E-02 2.29167E-02 0.00000E+00
 -1       953 4.16667E-02 2.39583E-02 0.00000E+00
 -1       954 4.25000E-02 1.93750E-02 0.00000E+00
 -1       955 4.33333E-02 2.00000E-02 0.00000E+00
 -1       956 4.41667E-02 2.06250E-02 0.00000E+00
 -1       957 4.50000E-02 2.12500E-02 0.00000E+00
 -1       958 4.58333E-02 2.18750E-02 0.00000E+00
 -1       959 4.66667E-02 2.25000E-02 0.00000E+00
 -1       960 4.75000E-02 2.31250E-02 0.00000E+00
 -1       961 4.83333E-02 2.37500E-02 0.00000E+00
 -1       962 4.91667E-02 2.43750E-02 0.00000E+00
 -1       963 5.10417E-02 1.87500E-02 0.00000E+00
 -1       964 5.20833E-02 1.87500E-02 0.00000E+00
 -1       965 5.31250E-02 1.87500E-02 0.00000E+00
 -1       966 5.41667E-02 1.87500E-02 0.00000E+00
 -1       967 5.52083E-02 1.87500E-02 0.00000E+00
 -1       968 5.62500E-02 1.87500E-02 0.00000E+00
 -1       969 5.72917E-02 1.87500E-02 0.00000E+00
 -1       970 5.00000E-02 1.97917E-02 0.00000E+00
 -1       971 5.00000E-02 2.08333E-02 0.00000E+00
 -1       972 5.00000E-02 2.18750E-02 0.00000E+00
 -1       973 5.00000E-02 2.29167E-02 0.00000E+00
 -1       974 5.00000E-02 2.39583E-02 0.00000E+00
 -1       975 5.08333E-02 1.93750E-02 0.00000E+00
 -1       976 5.16667E-02 2.00000E-02 0.00000E+00
 -1       977 5.25000E-02 2.06250E-02 0.00000E+00
 -1       978 5.33333E-02 2.12500E-02 0.00000E+00
 -1       979 5.41667E-02 2.18750E-02 0.00000E+00
 -1       980 5.50000E-02 2.25000E-02 0.00000E+00
 -1       981 5.58333E-02 2.31250E-02 0.00000E+00
 -1       982 5.66667E-02 2.37500E-02 0.00000E+00
 -1       983 5.75000E-02 2.43750E-02 0.00000E+00
 -1       984 5.93750E-02 1.87500E-02 0.00000E+00
 -1       985 6.04167E-02 1.87500E-02 0.00000E+00
 -1       986 6.14583E-02 1.87500E-02 0.00000E+00
 -1       987 6.25000E-02 1.87500E-02 0.00000E+00
 -1       988 6.35417E-02 1.87500E-02 0.00000E+00
 -1       989 6.45833E-02 1.87500E-02 0.00000E+00
 -1       990 6.56250E-02 1.87500E-02 0.00000E+00
 -1       991 5.83333E-02 1.97917E-02 0.00000E+00
 -1       992 5.83333E-02 2.08333E-02 0.00000E+00
 -1       993 5.83333E-02 2.18750E-02 0.00000E+00
 -1       994 5.83333E-02 2.29167E-02 0.00000E+00
 -1       995 5.83333E-02 2.39583E-02 0.00000E+00
 -1       996 5.91667E-02 1.93750E-02 0.00000E+00
 -1       997 6.00000E-02 2.00000E-02 0.00000E+00
 -1       998 6.08333E-02 2.06250E-02 0.00000E+00
 -1       999 6.16667E-02 2.12500E-02 0.00000E+00
 -1      1000 6.25000E-02 2.18750E-02 0.00000E+00
 -1      1001 6.33333E-02 2.25000E-02 0.00000E+00
 -1      1002 6.41667E-02 2.31250E-02 0.00000E+00
 -1      1003 6.50000E-02 2.37500E-02 0.00000E+00
 -1      1004 6.58333E-02 2.43750E-02 0.00000E+00
 -1      1005 6.77083E-02 1.87500E-02 0.00000E+00
 -1      1006 6.87500E-02 1.87500E-02 0.00000E+00
 -1      1007 6.97917E-02 1.87500E-02 0.00000E+00
 -1      1008 7.08333E-02 1.87500E-02 0.00000E+00
 -1      1009 7.18750E-02 1.87500E-02 0.00000E+00
 -1      1010 7.29167E-02 1.87500E-02 0.00000E+00
 -1      1011 7.39583E-02 1.87500E-02 0.00000E+00
 -1      1012 6.66667E-02 1.97917E-02 0.00000E+00
 -1      1013 6.66667E-02 2.08333E-02 0.00000E+00
 -1      1014 6.66667E-02 2.18750E-02 0.00000E+00
 -1      1015 6.66667E-02 2.29167E-02 0.00000E+00
 -1      1016 6.66667E-02 2.39583E-02 0.00000E+00
 -1      1017 6.75000E-02 1.93750E-02 0.00000E+00
 -1      1018 6.83333E-02 2.00000E-02 0.00000E+00
 -1      1019 6.91667E-02 2.06250E-02 0.00000E+00
 -1      1020 7.00000E-02 2.12500E-02 0.00000E+00
 -1      1021 7.08333E-02 2.18750E-02 0.00000E+00
 -1      1022 7.16667E-02 2.25000E-02 0.00000E+00
 -1      1023 7.25000E-02 2.31250E-02 0.00000E+00
 -1      1024 7.33333E-02 2.37500E-02 0.00000E+00
 -1      1025 7.41667E-02 2.43750E-02 0.00000E+00
 -1      1026 7.60417E-02 1.87500E-02 0.00000E+00
 -1      1027 7.70833E-02 1.87500E-02 0.00000E+00
 -1      1028 7.81250E-02 1.87500E-02 0.00000E+00
 -1      1029 7.91667E-02 1.87500E-02 0.00000E+00
 -1      1030 8.02083E-02 1.87500E-02 0.00000E+00
 -1      1031 8.12500E-02 1.87500E-02 0.00000E+00
 -1      1032 8.22917E-02 1.87500E-02 0.00000E+00
 -1      1033 7.50000E-02 1.97917E-02 0.00000E+00
 -1      1034 7.50000E-02 2.08333E-02 0.00000E+00
 -1      1035 7.50000E-02 2.18750E-02 0.00000E+00
 -1      1036 7.50000E-02 2.29167E-02 0.00000E+00
 -1      1037 7.50000E-02 2.39583E-02 0.00000E+00
 -1      1038 7.58333E-02 1.93750E-02 0.00000E+00
 -1      1039 7.66667E-02 2.00000E-02 0.00000E+00
 -1      1040 7.75000E-02 2.06250E-02 0.00000E+00
 -1      1041 7.83333E-02 2.12500E-02 0.00000E+00
 -1      1042 7.91667E-02 2.18750E-02 0.00000E+00
 -1      1043 8.00000E-02 2.25000E-02 0.00000E+00
 -1      1044 8.08333E-02 2.31250E-02 0.00000E+00
 -1      1045 8.16667E-02 2.37500E-02 0.00000E+00
 -1      1046 8.25000E-02 2.43750E-02 0.00000E+00
 -1      1047 8.43750E-02 1.87500E-02 0.00000E+00
 -1      1048 8.54167E-02 1.87500E-02 0.00000E+00
 -1      1049 8.64583E-02 1.87500E-02 0.00000E+00
 -1      1050 8.75000E-02 1.87500E-02 0.00000E+00
 -1      1051 8.85417E-02 1.87500E-02 0.00000E+00
 -1      1052 8.95833E-02 1.87500E-02 0.00000E+00
 -1      1053 9.06250E-02 1.87500E-02 0.00000E+00
 -1      1054 8.33333E-02 1.97917E-02 0.00000E+00
 -1      1055 8.33333E-02 2.08333E-02 0.00000E+00
 -1      1056 8.33333E-02 2.18750E-02 0.00000E+00
 -1      1057 8.33333E-02 2.29167E-02 0.00000E+00
 -1      1058 8.33333E-02 2.39583E-02 0.00000E+00
 -1      1059 8.41667E-02 1.93750E-02 0.00000E+00
 -1      1060 8.50000E-02 2.00000E-02 0.00000E+00
 -1      1061 8.58333E-02 2.06250E-02 0.00000E+00
 -1      1062 8.66667E-02 2.12500E-02 0.00000E+00
 -1      1063 8.75000E-02 2.18750E-02 0.00000E+00
 -1      1064 8.83333E-02 2.25000E-02 0.00000E+00
 -1      1065 8.91667E-02 2.31250E-02 0.00000E+00
 -1      1066 9.00000E-02 2.37500E-02 0.00000E+00
 -1      1067 9.08333E-02 2.43750E-02 0.00000E+00
 -1      1068 9.27083E-02 1.87500E-02 0.00000E+00
 -1      1069 9.37500E-02 1.87500E-02 0.00000E+00
 -1      1070 9.47917E-02 1.87500E-02 0.00000E+00
 -1      1071 9.58333E-02 1.87500E-02 0.00000E+00
 -1      1072 9.68750E-02 1.87500E-02 0.00000E+00
 -1      1073 9.79167E-02 1.87500E-02 0.00000E+00
 -1      1074 9.89583E-02 1.87500E-02 0.00000E+00
 -1      1075 9.16667E-02 1.97917E-02 0.00000E+00
 -1      1076 9.16667E-02 2.08333E-02 0.00000E+00
 -1      1077 9.16667E-02 2.18750E-02 0.00000E+00
 -1      1078 9.16667E-02 2.29167E-02 0.00000E+00
 -1      1079 9.16667E-02 2.39583E-02 0.00000E+00
 -1      1080 9.25000E-02 1.93750E-02 0.00000E+00
 -1      1081 9.33333E-02 2.00000E-02 0.00000E+00
 -1      1082 9.41667E-02 2.06250E-02 0.00000E+00
 -1      1083 9.50000E-02 2.12500E-02 0.00000E+00
 -1      1084 9.58333E-02 2.18750E-02 0.00000E+00
 -1      1085 9.66667E-02 2.25000E-02 0.00000E+00
 -1      1086 9.75000E-02 2.31250E-02 0.00000E+00
 -1      1087 9.83333E-02 2.37500E-02 0.00000E+00
 -1      1088 9.91667E-02 2.43750E-02 0.00000E+00
 -1      1089 1.00000E-01 1.97917E-02 0.00000E+00
 -1      1090 1.00000E-01 2.08333E-02 0.00000E+00
 -1      1091 1.00000E-01 2.18750E-02 0.00000E+00
 -1      1092 1.00000E-01 2.29167E-02 0.00000E+00
 -1      1093 1.00000E-01 2.39583E-02 0.00000E+00
 -1      1094 1.04167E-03 2.50000E-02 0.00000E+00
 -1      1095 2.08333E-03 2.50000E-02 0.00000E+00
 -1      1096 3.12500E-03 2.50000E-02 0.00000E+00
 -1      1097 4.16667E-03 2.50000E-02 0.00000E+00
 -1      1098 5.20833E-03 2.50000E-02 0.00000E+00
 -1      1099 6.25000E-03 2.50000E-02 0.00000E+00
 -1      1100 7.29167E-03 2.50000E-02 0.00000E+00
 -1      1101 9.37500E-03 2.50000E-02 0.00000E+00
 -1      1102 1.04167E-02 2.50000E-02 0.00000E+00
 -1      1103 1.14583E-02 2.50000E-02 0.00000E+00
 -1      1104 1.25000E-02 2.50000E-02 0.00000E+00
 -1      1105 1.35417E-02 2.50000E-02 0.00000E+00
 -1      1106 1.45833E-02 2.50000E-02 0.00000E+00
 -1      1107 1.56250E-02 2.50000E-02 0.00000E+00
 -1      1108 1.77083E-02 2.50000E-02 0.00000E+00
 -1      1109 1.87500E-02 2.50000E-02 0.00000E+00
 -1      1110 1.97917E-02 2.50000E-02 0.00000E+00
 -1      1111 2.08333E-02 2.50000E-02 0.00000E+00
 -1      1112 2.18750E-02 2.50000E-02 0.00000E+00
 -1      1113 2.29167E-02 2.50000E-02 0.00000E+00
 -1      1114 2.39583E-02 2.50000E-02 0.00000E+00
 -1      1115 2.60417E-02 2.50000E-02 0.00000E+00
 -1      1116 2.70833E-02 2.50000E-02 0.00000E+00
 -1      1117 2.81250E-02 2.50000E-02 0.00000E+00
 -1      1118 2.91667E-02 2.50000E-02 0.00000E+00
 -1      1119 3.02083E-02 2.50000E-02 0.00000E+00
 -1      1120 3.12500E-02 2.50000E-02 0.00000E+00
 -1      1121 3.22917E-02 2.50000E-02 0.00000E+00
 -1      1122 3.43750E-02 2.50000E-02 0.00000E+00
 -1      1123 3.54167E-02 2.50000E-02 0.00000E+00
 -1      1124 3.64583E-02 2.50000E-02 0.00000E+00
 -1      1125 3.75000E-02 2.50000E-02 0.00000E+00
 -1      1126 3.85417E-02 2.50000E-02 0.00000E+00
 -1      1127 3.95833E-02 2.50000E-02 0.00000E+00
 -1      1128 4.06250E-02 2.50000E-02 0.00000E+00
 -1      1129 4.27083E-02 2.50000E-02 0.00000E+00
 -1      1130 4.37500E-02 2.50000E-02 0.00000E+00
 -1      1131 4.47917E-02 2.50000E-02 0.00000E+00
 -1      1132 4.58333E-02 2.50000E-02 0.00000E+00
 -1      1133 4.68750E-02 2.50000E-02 0.00000E+00
 -1      1134 4.79167E-02 2.50000E-02 0.00000E+00
 -1      1135 4.89583E-02 2.50000E-02 0.00000E+00
 -1      1136 5.10417E-02 2.50000E-02 0.00000E+00
 -1      1137 5.20833E-02 2.50000E-02 0.00000E+00
 -1      1138 5.31250E-02 2.50000E-02 0.00000E+00
 -1      1139 5.41667E-02 2.50000E-02 0.00000E+00
 -1      1140 5.52083E-02 2.50000E-02 0.00000E+00
 -1      1141 5.62500E-02 2.50000E-02 0.00000E+00
 -1      1142 5.72917E-02 2.50000E-02 0.00000E+00
 -1      1143 5.93750E-02 2.50000E-02 0.00000E+00
 -1      1144 6.04167E-02 2.50000E-02 0.00000E+00
 -1      1145 6.14583E-02 2.50000E-02 0.00000E+00
 -1      1146 6.25000E-02 2.50000E-02 0.00000E+00
 -1      1147 6.35417E-02 2.50000E-02 0.00000E+00
 -1      1148 6.45833E-02 2.50000E-02 0.00000E+00
 -1      1149 6.56250E-02 2.50000E-02 0.00000E+00
 -1      1150 6.77083E-02 2.50000E-02 0.00000E+00
 -1      1151 6.87500E-02 2.50000E-02 0.00000E+00
 -1      1152 6.97917E-02 2.50000E-02 0.00000E+00
 -1      1153 7.08333E-02 2.50000E-02 0.00000E+00
 -1      1154 7.18750E-02 2.50000E-02 0.00000E+00
 -1      1155 7.29167E-02 2.50000E-02 0.00000E+00
 -1      1156 7.39583E-02 2.50000E-02 0.00000E+00
 -1      1157 7.60417E-02 2.50000E-02 0.00000E+00
 -1      1158 7.70833E-02 2.50000E-02 0.00000E+00
 -1      1159 7.81250E-02 2.50000E-02 0.00000E+00
 -1      1160 7.91667E-02 2.50000E-02 0.00000E+00
 -1      1161 8.02083E-02 2.50000E-02 0.00000E+00
 -1      1162 8.12500E-02 2.50000E-02 0.00000E+00
 -1      1163 8.22917E-02 2.50000E-02 0.00000E+00
 -1      1164 8.43750E-02 2.50000E-02 0.00000E+00
 -1      1165 8.54167E-02 2.50000E-02 0.00000E+00
 -1      1166 8.64583E-02 2.50000E-02 0.00000E+00
 -1      1167 8.75000E-02 2.50000E-02 0.00000E+00
 -1      1168 8.85417E-02 2.50000E-02 0.00000E+00
 -1      1169 8.95833E-02 2.50000E-02 0.00000E+00
 -1      1170 9.06250E-02 2.50000E-02 0.00000E+00
 -1      1171 9.27083E-02 2.50000E-02 0.00000E+00
 -1      1172 9.37500E-02 2.50000E-02 0.00000E+00
 -1      1173 9.47917E-02 2.50000E-02 0.00000E+00
 -1      1174 9.58333E-02 2.50000E-02 0.00000E+00
 -1      1175 9.68750E-02 2.50000E-02 0.00000E+00
 -1      1176 9.79167E-02 2.50000E-02 0.00000E+00
 -1      1177 9.89583E-02 2.50000E-02 0.00000E+00
 -3
    3C                           540                                     1
 -1         1   12    0    1
 -2         1        67        66
 -1         2   12    0    1
 -2        67        69        68
 -1         3   12    0    1
 -2        69        71        70
 -1         4   12    0    1
 -2        71         2        72
 -1         5   12    0    1
 -2         1        74        73
 -1         6   12    0    1
 -2        74        76        75
 -1         7   12    0    1
 -2        76        14        77
 -1         8   12    0    1
 -2         1        79        78
 -1         9   12    0    1
 -2        79        81        80
 -1        10   12    0    1
 -2        81        83        82
 -1        11   12    0    1
 -2        83        85        84
 -1        12   12    0    1
 -2        85        15        86
 -1        13   12    0    1
 -2         2        88        87
 -1        14   12    0    1
 -2        88        90        89
 -1        15   12    0    1
 -2        90        92        91
 -1        16   12    0    1
 -2        92         3        93
 -1        17   12    0    1
 -2         2        95        94
 -1        18   12    0    1
 -2        95        97        96
 -1        19   12    0    1
 -2        97        15        98
 -1        20   12    0    1
 -2         2       100        99
 -1        21   12    0    1
 -2       100       102       101
 -1        22   12    0    1
 -2       102       104       103
 -1        23   12    0    1
 -2       104       106       105
 -1        24   12    0    1
 -2       106        16       107
 -1        25   12    0    1
 -2         3       109       108
 -1        26   12    0    1
 -2       109       111       110
 -1        27   12    0    1
 -2       111       113       112
 -1        28   12    0    1
 -2       113         4       114
 -1        29   12    0    1
 -2         3       116       115
 -1        30   12    0    1
 -2       116       118       117
 -1        31   12    0    1
 -2       118        16       119
 -1        32   12    0    1
 -2         3       121       120
 -1        33   12    0    1
 -2       121       123       122
 -1        34   12    0    1
 -2       123       125       124
 -1        35   12    0    1
 -2       125       127       126
 -1        36   12    0    1
 -2       127        17       128
 -1        37   12    0    1
 -2         4       130       129
 -1        38   12    0    1
 -2       130       132       131
 -1        39   12    0    1
 -2       132       134       133
 -1        40   12    0    1
 -2       134         5       135
 -1        41   12    0    1
 -2         4       137       136
 -1        42   12    0    1
 -2       137       139       138
 -1        43   12    0    1
 -2       139        17       140
 -1        44   12    0    1
 -2         4       142       141
 -1        45   12    0    1
 -2       142       144       143
 -1        46   12    0    1
 -2       144       146       145
 -1        47   12    0    1
 -2       146       148       147
 -1        48   12    0    1
 -2       148        18       149
 -1        49   12    0    1
 -2         5       151       150
 -1        50   12    0    1
 -2       151       153       152
 -1        51   12    0    1
 -2       153       155       154
 -1        52   12    0    1
 -2       155         6       156
 -1        53   12    0    1
 -2         5       158       157
 -1        54   12    0    1
 -2       158       160       159
 -1        55   12    0    1
 -2       160        18       161
 -1        56   12    0    1
 -2         5       163       162
 -1        57   12    0    1
 -2       163       165       164
 -1        58   12    0    1
 -2       165       167       166
 -1        59   12    0    1
 -2       167       169       168
 -1        60   12    0    1
 -2       169        19       170
 -1        61   12    0    1
 -2         6       172       171
 -1        62   12    0    1
 -2       172       174       173
 -1        63   12    0    1
 -2       174       176       175
 -1        64   12    0    1
 -2       176         7       177
 -1        65   12    0    1
 -2         6       179       178
 -1        66   12    0    1
 -2       179       181       180
 -1        67   12    0    1
 -2       181        19       182
 -1        68   12    0    1
 -2         6       184       183
 -1        69   12    0    1
 -2       184       186       185
 -1        70   12    0    1
 -2       186       188       187
 -1        71   12    0    1
 -2       188       190       189
 -1        72   12    0    1
 -2       190        20       191
 -1        73   12    0    1
 -2         7       193       192
 -1        74   12    0    1
 -2       193       195       194
 -1        75   12    0    1
 -2       195       197       196
 -1        76   12    0    1
 -2       197         8       198
 -1        77   12    0    1
 -2         7       200       199
 -1        78   12    0    1
 -2       200       202       201
 -1        79   12    0    1
 -2       202        20       203
 -1        80   12    0    1
 -2         7       205       204
 -1        81   12    0    1
 -2       205       207       206
 -1        82   12    0    1
 -2       207       209       208
 -1        83   12    0    1
 -2       209       211       210
 -1        84   12    0    1
 -2       211        21       212
 -1        85   12    0    1
 -2         8       214       213
 -1        86   12    0    1
 -2       214       216       215
 -1        87   12    0    1
 -2       216       218       217
 -1        88   12    0    1
 -2       218         9       219
 -1        89   12    0    1
 -2         8       221       220
 -1        90   12    0    1
 -2       221       223       222
 -1        91   12    0    1
 -2       223        21       224
 -1        92   12    0    1
 -2         8       226       225
 -1        93   12    0    1
 -2       226       228       227
 -1        94   12    0    1
 -2       228       230       229
 -1        95   12    0    1
 -2       230       232       231
 -1        96   12    0    1
 -2       232        22       233
 -1        97   12    0    1
 -2         9       242       241
 -1        98   12    0    1
 -2       242       244       243
 -1        99   12    0    1
 -2       244        22       245
 -1       100   12    0    1
 -2        14       324       323
 -1       101   12    0    1
 -2       324       326       325
 -1       102   12    0    1
 -2       326       328       327
 -1       103   12    0    1
 -2       328        15       329
 -1       104   12    0    1
 -2        14       331       330
 -1       105   12    0    1
 -2       331       333       332
 -1       106   12    0    1
 -2       333        27       334
 -1       107   12    0    1
 -2        14       336       335
 -1       108   12    0    1
 -2       336       338       337
 -1       109   12    0    1
 -2       338       340       339
 -1       110   12    0    1
 -2       340       342       341
 -1       111   12    0    1
 -2       342        28       343
 -1       112   12    0    1
 -2        15       345       344
 -1       113   12    0    1
 -2       345       347       346
 -1       114   12    0    1
 -2       347       349       348
 -1       115   12    0    1
 -2       349        16       350
 -1       116   12    0    1
 -2        15       352       351
 -1       117   12    0    1
 -2       352       354       353
 -1       118   12    0    1
 -2       354        28       355
 -1       119   12    0    1
 -2        15       357       356
 -1       120   12    0    1
 -2       357       359       358
 -1       121   12    0    1
 -2       359       361       360
 -1       122   12    0    1
 -2       361       363       362
 -1       123   12    0    1
 -2       363        29       364
 -1       124   12    0    1
 -2        16       366       365
 -1       125   12    0    1
 -2       366       368       367
 -1       126   12    0    1
 -2       368       370       369
 -1       127   12    0    1
 -2       370        17       371
 -1       128   12    0    1
 -2        16       373       372
 -1       129   12    0    1
 -2       373       375       374
 -1       130   12    0    1
 -2       375        29       376
 -1       131   12    0    1
 -2        16       378       377
 -1       132   12    0    1
 -2       378       380       379
 -1       133   12    0    1
 -2       380       382       381
 -1       134   12    0    1
 -2       382       384       383
 -1       135   12    0    1
 -2       384        30       385
 -1       136   12    0    1
 -2        17       387       386
 -1       137   12    0    1
 -2       387       389       388
 -1       138   12    0    1
 -2       389       391       390
 -1       139   12    0    1
 -2       391        18       392
 -1       140   12    0    1
 -2        17       394       393
 -1       141   12    0    1
 -2       394       396       395
 -1       142   12    0    1
 -2       396        30       397
 -1       143   12    0    1
 -2        17       399       398
 -1       144   12    0    1
 -2       399       401       400
 -1       145   12    0    1
 -2       401       403       402
 -1       146   12    0    1
 -2       403       405       404
 -1       147   12    0    1
 -2       405        31       406
 -1       148   12    0    1
 -2        18       408       407
 -1       149   12    0    1
 -2       408       410       409
 -1       150   12    0    1
 -2       410       412       411
 -1       151   12    0    1
 -2       412        19       413
 -1       152   12    0    1
 -2        18       415       414
 -1       153   12    0    1
 -2       415       417       416
 -1       154   12    0    1
 -2       417        31       418
 -1       155   12    0    1
 -2        18       420       419
 -1       156   12    0    1
 -2       420       422       421
 -1       157   12    0    1
 -2       422       424       423
 -1       158   12    0    1
 -2       424       426       425
 -1       159   12    0    1
 -2       426        32       427
 -1       160   12    0    1
 -2        19       429       428
 -1       161   12    0    1
 -2       429       431       430
 -1       162   12    0    1
 -2       431       433       432
 -1       163   12    0    1
 -2       433        20       434
 -1       164   12    0    1
 -2        19       436       435
 -1       165   12    0    1
 -2       436       438       437
 -1       166   12    0    1
 -2       438        32       439
 -1       167   12    0    1
 -2        19       441       440
 -1       168   12    0    1
 -2       441       443       442
 -1       169   12    0    1
 -2       443       445       444
 -1       170   12    0    1
 -2       445       447       446
 -1       171   12    0    1
 -2       447        33       448
 -1       172   12    0    1
 -2        20       450       449
 -1       173   12    0    1
 -2       450       452       451
 -1       174   12    0    1
 -2       452       454       453
 -1       175   12    0    1
 -2       454        21       455
 -1       176   12    0    1
 -2        20       457       456
 -1       177   12    0    1
 -2       457       459       458
 -1       178   12    0    1
 -2       459        33       460
 -1       179   12    0    1
 -2        20       462       461
 -1       180   12    0    1
 -2       462       464       463
 -1       181   12    0    1
 -2       464       466       465
 -1       182   12    0    1
 -2       466       468       467
 -1       183   12    0    1
 -2       468        34       469
 -1       184   12    0    1
 -2        21       471       470
 -1       185   12    0    1
 -2       471       473       472
 -1       186   12    0    1
 -2       473       475       474
 -1       187   12    0    1
 -2       475        22       476
 -1       188   12    0    1
 -2        21       478       477
 -1       189   12    0    1
 -2       478       480       479
 -1       190   12    0    1
 -2       480        34       481
 -1       191   12    0    1
 -2        21       483       482
 -1       192   12    0    1
 -2       483       485       484
 -1       193   12    0    1
 -2       485       487       486
 -1       194   12    0    1
 -2       487       489       488
 -1       195   12    0    1
 -2       489        35       490
 -1       196   12    0    1
 -2        22       499       498
 -1       197   12    0    1
 -2       499       501       500
 -1       198   12    0    1
 -2       501        35       502
 -1       199   12    0    1
 -2        27       581       580
 -1       200   12    0    1
 -2       581       583       582
 -1       201   12    0    1
 -2       583       585       584
 -1       202   12    0    1
 -2       585        28       586
 -1       203   12    0    1
 -2        27       588       587
 -1       204   12    0    1
 -2       588       590       589
 -1       205   12    0    1
 -2       590        40       591
 -1       206   12    0    1
 -2        27       593       592
 -1       207   12    0    1
 -2       593       595       594
 -1       208   12    0    1
 -2       595       597       596
 -1       209   12    0    1
 -2       597       599       598
 -1       210   12    0    1
 -2       599        41       600
 -1       211   12    0    1
 -2        28       602       601
 -1       212   12    0    1
 -2       602       604       603
 -1       213   12    0    1
 -2       604       606       605
 -1       214   12    0    1
 -2       606        29       607
 -1       215   12    0    1
 -2        28       609       608
 -1       216   12    0    1
 -2       609       611       610
 -1       217   12    0    1
 -2       611        41       612
 -1       218   12    0    1
 -2        28       614       613
 -1       219   12    0    1
 -2       614       616       615
 -1       220   12    0    1
 -2       616       618       617
 -1       221   12    0    1
 -2       618       620       619
 -1       222   12    0    1
 -2       620        42       621
 -1       223   12    0    1
 -2        29       623       622
 -1       224   12    0    1
 -2       623       625       624
 -1       225   12    0    1
 -2       625       627       626
 -1       226   12    0    1
 -2       627        30       628
 -1       227   12    0    1
 -2        29       630       629
 -1       228   12    0    1
 -2       630       632       631
 -1       229   12    0    1
 -2       632        42       633
 -1       230   12    0    1
 -2        29       635       634
 -1       231   12    0    1
 -2       635       637       636
 -1       232   12    0    1
 -2       637       639       638
 -1       233   12    0    1
 -2       639       641       640
 -1       234   12    0    1
 -2       641        43       642
 -1       235   12    0    1
 -2        30       644       643
 -1       236   12    0    1
 -2       644       646       645
 -1       237   12    0    1
 -2       646       648       647
 -1       238   12    0    1
 -2       648        31       649
 -1       239   12    0    1
 -2        30       651       650
 -1       240   12    0    1
 -2       651       653       652
 -1       241   12    0    1
 -2       653        43       654
 -1       242   12    0    1
 -2        30       656       655
 -1       243   12    0    1
 -2       656       658       657
 -1       244   12    0    1
 -2       658       660       659
 -1       245   12    0    1
 -2       660       662       661
 -1       246   12    0    1
 -2       662        44       663
 -1       247   12    0    1
 -2        31       665       664
 -1       248   12    0    1
 -2       665       667       666
 -1       249   12    0    1
 -2       667       669       668
 -1       250   12    0    1
 -2       669        32       670
 -1       251   12    0    1
 -2        31       672       671
 -1       252   12    0    1
 -2       672       674       673
 -1       253   12    0    1
 -2       674        44       675
 -1       254   12    0    1
 -2        31       677       676
 -1       255   12    0    1
 -2       677       679       678
 -1       256   12    0    1
 -2       679       681       680
 -1       257   12    0    1
 -2       681       683       682
 -1       258   12    0    1
 -2       683        45       684
 -1       259   12    0    1
 -2        32       686       685
 -1       260   12    0    1
 -2       686       688       687
 -1       261   12    0    1
 -2       688       690       689
 -1       262   12    0    1
 -2       690        33       691
 -1       263   12    0    1
 -2        32       693       692
 -1       264   12    0    1
 -2       693       695       694
 -1       265   12    0    1
 -2       695        45       696
 -1       266   12    0    1
 -2        32       698       697
 -1       267   12    0    1
 -2       698       700       699
 -1       268   12    0    1
 -2       700       702       701
 -1       269   12    0    1
 -2       702       704       703
 -1       270   12    0    1
 -2       704        46       705
 -1       271   12    0    1
 -2        33       707       706
 -1       272   12    0    1
 -2       707       709       708
 -1       273   12    0    1
 -2       709       711       710
 -1       274   12    0    1
 -2       711        34       712
 -1       275   12    0    1
 -2        33       714       713
 -1       276   12    0    1
 -2       714       716       715
 -1       277   12    0    1
 -2       716        46       717
 -1       278   12    0    1
 -2        33       719       718
 -1       279   12    0    1
 -2       719       721       720
 -1       280   12    0    1
 -2       721       723       722
 -1       281   12    0    1
 -2       723       725       724
 -1       282   12    0    1
 -2       725        47       726
 -1       283   12    0    1
 -2        34       728       727
 -1       284   12    0    1
 -2       728       730       729
 -1       285   12    0    1
 -2       730       732       731
 -1       286   12    0    1
 -2       732        35       733
 -1       287   12    0    1
 -2        34       735       734
 -1       288   12    0    1
 -2       735       737       736
 -1       289   12    0    1
 -2       737        47       738
 -1       290   12    0    1
 -2        34       740       739
 -1       291   12    0    1
 -2       740       742       741
 -1       292   12    0    1
 -2       742       744       743
 -1       293   12    0    1
 -2       744       746       745
 -1       294   12    0    1
 -2       746        48       747
 -1       295   12    0    1
 -2        35       749       748
 -1       296   12    0    1
 -2       749       751       750
 -1       297   12    0    1
 -2       751       753       752
 -1       298   12    0    1
 -2       753        36       754
 -1       299   12    0    1
 -2        35       756       755
 -1       300   12    0    1
 -2       756       758       757
 -1       301   12    0    1
 -2       758        48       759
 -1       302   12    0    1
 -2        35       761       760
 -1       303   12    0    1
 -2       761       763       762
 -1       304   12    0    1
 -2       763       765       764
 -1       305   12    0    1
 -2       765       767       766
 -1       306   12    0    1
 -2       767        49       768
 -1       307   12    0    1
 -2        36       770       769
 -1       308   12    0    1
 -2       770       772       771
 -1       309   12    0    1
 -2       772       774       773
 -1       310   12    0    1
 -2       774        37       775
 -1       311   12    0    1
 -2        36       777       776
 -1       312   12    0    1
 -2       777       779       778
 -1       313   12    0    1
 -2       779        49       780
 -1       314   12    0    1
 -2        36       782       781
 -1       315   12    0    1
 -2       782       784       783
 -1       316   12    0    1
 -2       784       786       785
 -1       317   12    0    1
 -2       786       788       787
 -1       318   12    0    1
 -2       788        50       789
 -1       319   12    0    1
 -2        37       791       790
 -1       320   12    0    1
 -2       791       793       792
 -1       321   12    0    1
 -2       793       795       794
 -1       322   12    0    1
 -2       795        38       796
 -1       323   12    0    1
 -2        37       798       797
 -1       324   12    0    1
 -2       798       800       799
 -1       325   12    0    1
 -2       800        50       801
 -1       326   12    0    1
 -2        37       803       802
 -1       327   12    0    1
 -2       803       805       804
 -1       328   12    0    1
 -2       805       807       806
 -1       329   12    0    1
 -2       807       809       808
 -1       330   12    0    1
 -2       809        51       810
 -1       331   12    0    1
 -2        38       812       811
 -1       332   12    0    1
 -2       812       814       813
 -1       333   12    0    1
 -2       814       816       815
 -1       334   12    0    1
 -2       816        39       817
 -1       335   12    0    1
 -2        38       819       818
 -1       336   12    0    1
 -2       819       821       820
 -1       337   12    0    1
 -2       821        51       822
 -1       338   12    0    1
 -2        38       824       823
 -1       339   12    0    1
 -2       824       826       825
 -1       340   12    0    1
 -2       826       828       827
 -1       341   12    0    1
 -2       828       830       829
 -1       342   12    0    1
 -2       830        52       831
 -1       343   12    0    1
 -2        39       833       832
 -1       344   12    0    1
 -2       833       835       834
 -1       345   12    0    1
 -2       835        52       836
 -1       346   12    0    1
 -2        40       838       837
 -1       347   12    0    1
 -2       838       840       839
 -1       348   12    0    1
 -2       840       842       841
 -1       349   12    0    1
 -2       842        41       843
 -1       350   12    0    1
 -2        40       845       844
 -1       351   12    0    1
 -2       845       847       846
 -1       352   12    0    1
 -2       847        53       848
 -1       353   12    0    1
 -2        40       850       849
 -1       354   12    0    1
 -2       850       852       851
 -1       355   12    0    1
 -2       852       854       853
 -1       356   12    0    1
 -2       854       856       855
 -1       357   12    0    1
 -2       856        54       857
 -1       358   12    0    1
 -2        41       859       858
 -1       359   12    0    1
 -2       859       861       860
 -1       360   12    0    1
 -2       861       863       862
 -1       361   12    0    1
 -2       863        42       864
 -1       362   12    0    1
 -2        41       866       865
 -1       363   12    0    1
 -2       866       868       867
 -1       364   12    0    1
 -2       868        54       869
 -1       365   12    0    1
 -2        41       871       870
 -1       366   12    0    1
 -2       871       873       872
 -1       367   12    0    1
 -2       873       875       874
 -1       368   12    0    1
 -2       875       877       876
 -1       369   12    0    1
 -2       877        55       878
 -1       370   12    0    1
 -2        42       880       879
 -1       371   12    0    1
 -2       880       882       881
 -1       372   12    0    1
 -2       882       884       883
 -1       373   12    0    1
 -2       884        43       885
 -1       374   12    0    1
 -2        42       887       886
 -1       375   12    0    1
 -2       887       889       888
 -1       376   12    0    1
 -2       889        55       890
 -1       377   12    0    1
 -2        42       892       891
 -1       378   12    0    1
 -2       892       894       893
 -1       379   12    0    1
 -2       894       896       895
 -1       380   12    0    1
 -2       896       898       897
 -1       381   12    0    1
 -2       898        56       899
 -1       382   12    0    1
 -2        43       901       900
 -1       383   12    0    1
 -2       901       903       902
 -1       384   12    0    1
 -2       903       905       904
 -1       385   12    0    1
 -2       905        44       906
 -1       386   12    0    1
 -2        43       908       907
 -1       387   12    0    1
 -2       908       910       909
 -1       388   12    0    1
 -2       910        56       911
 -1       389   12    0    1
 -2        43       913       912
 -1       390   12    0    1
 -2       913       915       914
 -1       391   12    0    1
 -2       915       917       916
 -1       392   12    0    1
 -2       917       919       918
 -1       393   12    0    1
 -2       919        57       920
 -1       394   12    0    1
 -2        44       922       921
 -1       395   12    0    1
 -2       922       924       923
 -1       396   12    0    1
 -2       924       926       925
 -1       397   12    0    1
 -2       926        45       927
 -1       398   12    0    1
 -2        44       929       928
 -1       399   12    0    1
 -2       929       931       930
 -1       400   12    0    1
 -2       931        57       932
 -1       401   12    0    1
 -2        44       934       933
 -1       402   12    0    1
 -2       934       936       935
 -1       403   12    0    1
 -2       936       938       937
 -1       404   12    0    1
 -2       938       940       939
 -1       405   12    0    1
 -2       940        58       941
 -1       406   12    0    1
 -2        45       943       942
 -1       407   12    0    1
 -2       943       945       944
 -1       408   12    0    1
 -2       945       947       946
 -1       409   12    0    1
 -2       947        46       948
 -1       410   12    0    1
 -2        45       950       949
 -1       411   12    0    1
 -2       950       952       951
 -1       412   12    0    1
 -2       952        58       953
 -1       413   12    0    1
 -2        45       955       954
 -1       414   12    0    1
 -2       955       957       956
 -1       415   12    0    1
 -2       957       959       958
 -1       416   12    0    1
 -2       959       961       960
 -1       417   12    0    1
 -2       961        59       962
 -1       418   12    0    1
 -2        46       964       963
 -1       419   12    0    1
 -2       964       966       965
 -1       420   12    0    1
 -2       966       968       967
 -1       421   12    0    1
 -2       968        47       969
 -1       422   12    0    1
 -2        46       971       970
 -1       423   12    0    1
 -2       971       973       972
 -1       424   12    0    1
 -2       973        59       974
 -1       425   12    0    1
 -2        46       976       975
 -1       426   12    0    1
 -2       976       978       977
 -1       427   12    0    1
 -2       978       980       979
 -1       428   12    0    1
 -2       980       982       981
 -1       429   12    0    1
 -2       982        60       983
 -1       430   12    0    1
 -2        47       985       984
 -1       431   12    0    1
 -2       985       987       986
 -1       432   12    0    1
 -2       987       989       988
 -1       433   12    0    1
 -2       989        48       990
 -1       434   12    0    1
 -2        47       992       991
 -1       435   12    0    1
 -2       992       994       993
 -1       436   12    0    1
 -2       994        60       995
 -1       437   12    0    1
 -2        47       997       996
 -1       438   12    0    1
 -2       997       999       998
 -1       439   12    0    1
 -2       999      1001      1000
 -1       440   12    0    1
 -2      1001      1003      1002
 -1       441   12    0    1
 -2      1003        61      1004
 -1       442   12    0    1
 -2        48      1006      1005
 -1       443   12    0    1
 -2      1006      1008      1007
 -1       444   12    0    1
 -2      1008      1010      1009
 -1       445   12    0    1
 -2      1010        49      1011
 -1       446   12    0    1
 -2        48      1013      1012
 -1       447   12    0    1
 -2      1013      1015      1014
 -1       448   12    0    1
 -2      1015        61      1016
 -1       449   12    0    1
 -2        48      1018      1017
 -1       450   12    0    1
 -2      1018      1020      1019
 -1       451   12    0    1
 -2      1020      1022      1021
 -1       452   12    0    1
 -2      1022      1024      1023
 -1       453   12    0    1
 -2      1024        62      1025
 -1       454   12    0    1
 -2        49      1027      1026
 -1       455   12    0    1
 -2      1027      1029      1028
 -1       456   12    0    1
 -2      1029      1031      1030
 -1       457   12    0    1
 -2      1031        50      1032
 -1       458   12    0    1
 -2        49      1034      1033
 -1       459   12    0    1
 -2      1034      1036      1035
 -1       460   12    0    1
 -2      1036        62      1037
 -1       461   12    0    1
 -2        49      1039      1038
 -1       462   12    0    1
 -2      1039      1041      1040
 -1       463   12    0    1
 -2      1041      1043      1042
 -1       464   12    0    1
 -2      1043      1045      1044
 -1       465   12    0    1
 -2      1045        63      1046
 -1       466   12    0    1
 -2        50      1048      1047
 -1       467   12    0    1
 -2      1048      1050      1049
 -1       468   12    0    1
 -2      1050      1052      1051
 -1       469   12    0    1
 -2      1052        51      1053
 -1       470   12    0    1
 -2        50      1055      1054
 -1       471   12    0    1
 -2      1055      1057      1056
 -1       472   12    0    1
 -2      1057        63      1058
 -1       473   12    0    1
 -2        50      1060      1059
 -1       474   12    0    1
 -2      1060      1062      1061
 -1       475   12    0    1
 -2      1062      1064      1063
 -1       476   12    0    1
 -2      1064      1066      1065
 -1       477   12    0    1
 -2      1066        64      1067
 -1       478   12    0    1
 -2        51      1069      1068
 -1       479   12    0    1
 -2      1069      1071      1070
 -1       480   12    0    1
 -2      1071      1073      1072
 -1       481   12    0    1
 -2      1073        52      1074
 -1       482   12    0    1
 -2        51      1076      1075
 -1       483   12    0    1
 -2      1076      1078      1077
 -1       484   12    0    1
 -2      1078        64      1079
 -1       485   12    0    1
 -2        51      1081      1080
 -1       486   12    0    1
 -2      1081      1083      1082
 -1       487   12    0    1
 -2      1083      1085      1084
 -1       488   12    0    1
 -2      1085      1087      1086
 -1       489   12    0    1
 -2      1087        65      1088
 -1       490   12    0    1
 -2        52      1090      1089
 -1       491   12    0    1
 -2      1090      1092      1091
 -1       492   12    0    1
 -2      1092        65      1093
 -1       493   12    0    1
 -2        53      1095      1094
 -1       494   12    0    1
 -2      1095      1097      1096
 -1       495   12    0    1
 -2      1097      1099      1098
 -1       496   12    0    1
 -2      1099        54      1100
 -1       497   12    0    1
 -2        54      1102      1101
 -1       498   12    0    1
 -2      1102      1104      1103
 -1       499   12    0    1
 -2      1104      1106      1105
 -1       500   12    0    1
 -2      1106        55      1107
 -1       501   12    0    1
 -2        55      1109      1108
 -1       502   12    0    1
 -2      1109      1111      1110
 -1       503   12    0    1
 -2      1111      1113      1112
 -1       504   12    0    1
 -2      1113        56      1114
 -1       505   12    0    1
 -2        56      1116      1115
 -1       506   12    0    1
 -2      1116      1118      1117
 -1       507   12    0    1
 -2      1118      1120      1119
 -1       508   12    0    1
 -2      1120        57      1121
 -1       509   12    0    1
 -2        57      1123      1122
 -1       510   12    0    1
 -2      1123      1125      1124
 -1       511   12    0    1
 -2      1125      1127      1126
 -1       512   12    0    1
 -2      1127        58      1128
 -1       513   12    0    1
 -2        58      1130      1129
 -1       514   12    0    1
 -2      1130      1132      1131
 -1       515   12    0    1
 -2      1132      1134      1133
 -1       516   12    0    1
 -2      1134        59      1135
 -1       517   12    0    1
 -2        59      1137      1136
 -1       518   12    0    1
 -2      1137      1139      1138
 -1       519   12    0    1
 -2      1139      1141      1140
 -1       520   12    0    1
 -2      1141        60      1142
 -1       521   12    0    1
 -2        60      1144      1143
 -1       522   12    0    1
 -2      1144      1146      1145
 -1       523   12    0    1
 -2      1146      1148      1147
 -1       524   12    0    1
 -2      1148        61      1149
 -1       525   12    0    1
 -2        61      1151      1150
 -1       526   12    0    1
 -2      1151      1153      1152
 -1       527   12    0    1
 -2      1153      1155      1154
 -1       528   12    0    1
 -2      1155        62      1156
 -1       529   12    0    1
 -2        62      1158      1157
 -1       530   12    0    1
 -2      1158      1160      1159
 -1       531   12    0    1
 -2      1160      1162      1161
 -1       532   12    0    1
 -2      1162        63      1163
 -1       533   12    0    1
 -2        63      1165      1164
 -1       534   12    0    1
 -2      1165      1167      1166
 -1       535   12    0    1
 -2      1167      1169      1168
 -1       536   12    0    1
 -2      1169        64      1170
 -1       537   12    0    1
 -2        64      1172      1171
 -1       538   12    0    1
 -2      1172      1174      1173
 -1       539   12    0    1
 -2      1174      1176      1175
 -1       540   12    0    1
 -2      1176        65      1177
 -3
    1PSTEP                         1           1           1          
  100CL  101 1.000000000        1001                     0    1           1
 -4  DISP        4    1
 -5  D1          1    2    1    0
 -5  D2          1    2    2    0
 -5  D3          1    2    3    0
 -5  ALL         1    2    0    0    1ALL
 -1         1-1.55332E-05 0.00000E+00 0.00000E+00
 -1         2-1.11045E-05 0.00000E+00 0.00000E+00
 -1         3-8.36876E-06 0.00000E+00 0.00000E+00
 -1         4-6.50829E-06 0.00000E+00 0.00000E+00
 -1         5-5.17246E-06 0.00000E+00 0.00000E+00
 -1         6-4.17077E-06 0.00000E+00 0.00000E+00
 -1         7-3.41644E-06 0.00000E+00 0.00000E+00
 -1         8-3.00305E-06 0.00000E+00 0.00000E+00
 -1         9-2.96271E-06 0.00000E+00 0.00000E+00
 -1        14-9.45928E-06 8.70593E-07 0.00000E+00
 -1        15-9.33044E-06-8.21426E-07 0.00000E+00
 -1        16-7.87971E-06-7.60765E-07 0.00000E+00
 -1        17-6.43753E-06-5.18865E-07 0.00000E+00
 -1        18-5.27005E-06-2.81558E-07 0.00000E+00
 -1        19-4.34460E-06-1.42994E-07 0.00000E+00
 -1        20-3.50559E-06-1.22654E-07 0.00000E+00
 -1        21-2.76171E-06 7.69538E-08 0.00000E+00
 -1        22-2.64261E-06 4.19645E-07 0.00000E+00
 -1        27-5.84901E-06 8.66310E-07 0.00000E+00
 -1        28-6.08274E-06-1.04081E-06 0.00000E+00
 -1        29-5.97165E-06-1.40762E-06 0.00000E+00
 -1        30-5.35470E-06-1.09480E-06 0.00000E+00
 -1        31-4.61504E-06-6.19021E-07 0.00000E+00
 -1        32-4.04303E-06-2.71491E-07 0.00000E+00
 -1        33-3.50892E-06-2.94429E-07 0.00000E+00
 -1        34-2.73693E-06-1.74070E-07 0.00000E+00
 -1        35-1.65897E-06 1.13658E-06 0.00000E+00
 -1        36-6.60850E-08 7.57610E-06 0.00000E+00
 -1        37 6.83689E-07 1.53961E-05 0.00000E+00
 -1        38 9.42245E-07 2.35449E-05 0.00000E+00
 -1        39 9.76544E-07 3.15264E-05 0.00000E+00
 -1        40-3.25779E-06 5.47863E-07 0.00000E+00
 -1        41-3.64660E-06-1.19362E-06 0.00000E+00
 -1        42-3.99472E-06-1.76453E-06 0.00000E+00
 -1        43-3.96127E-06-1.55791E-06 0.00000E+00
 -1        44-3.52426E-06-9.90529E-07 0.00000E+00
 -1        45-2.93919E-06-3.13587E-07 0.00000E+00
 -1        46-3.01007E-06-2.90720E-07 0.00000E+00
 -1        47-3.28022E-06-3.48962E-07 0.00000E+00
 -1        48-3.59395E-06 1.47570E-06 0.00000E+00
 -1        49-4.13408E-06 7.09187E-06 0.00000E+00
 -1        50-4.37077E-06 1.49141E-05 0.00000E+00
 -1        51-4.49950E-06 2.31865E-05 0.00000E+00
 -1        52-4.58835E-06 3.12304E-05 0.00000E+00
 -1        53 0.00000E+00 0.00000E+00 0.00000E+00
 -1        54-1.45652E-06-1.36776E-06 0.00000E+00
 -1        55-2.49004E-06-1.95784E-06 0.00000E+00
 -1        56-3.02070E-06-1.83352E-06 0.00000E+00
 -1        57-2.90526E-06-1.32129E-06 0.00000E+00
 -1        58-2.00742E-06-6.72182E-07 0.00000E+00
 -1        59 0.00000E+00 0.00000E+00 0.00000E+00
 -1        60-2.65488E-06-4.35940E-07 0.00000E+00
 -1        61-4.97402E-06 1.56418E-06 0.00000E+00
 -1        62-7.18349E-06 6.90121E-06 0.00000E+00
 -1        63-8.80333E-06 1.45716E-05 0.00000E+00
 -1        64-9.66027E-06 2.29241E-05 0.00000E+00
 -1        65-9.97283E-06 3.10548E-05 0.00000E+00
 -1        66-1.49846E-05-8.80120E-22 1.32349E-23
 -1        67-1.44285E-05-1.78009E-21 0.00000E+00
 -1        68-1.38708E-05-2.14405E-21 0.00000E+00
 -1        69-1.33125E-05-2.74624E-21-6.61744E-24
 -1        70-1.27544E-05-2.00509E-21 0.00000E+00
 -1        71-1.21978E-05-1.51539E-21 0.00000E+00
 -1        72-1.16443E-05-8.27181E-22 0.00000E+00
 -1        73-1.49696E-05 1.57383E-07-3.30872E-24
 -1        74-1.40778E-05 3.04145E-07-3.30872E-24
 -1        75-1.29680E-05 4.48294E-07 4.96308E-24
 -1        76-1.17531E-05 5.90767E-07-1.65436E-24
 -1        77-1.05462E-05 7.32168E-07 6.61744E-24
 -1        78-1.50851E-05 1.47009E-07 0.00000E+00
 -1        79-1.45576E-05 1.92964E-07 0.00000E+00
 -1        80-1.39667E-05 1.55376E-07 0.00000E+00
 -1        81-1.33274E-05 5.36782E-08 0.00000E+00
 -1        82-1.26547E-05-9.26364E-08-1.32349E-23
 -1        83-1.19636E-05-2.63969E-07-6.61744E-24
 -1        84-1.12690E-05-4.40769E-07 0.00000E+00
 -1        85-1.05867E-05-6.04057E-07 0.00000E+00
 -1        86-9.93275E-06-7.35108E-07 0.00000E+00
 -1        87-1.07652E-05-6.61744E-23-6.61744E-24
 -1        88-1.04216E-05 1.38966E-22 0.00000E+00
 -1        89-1.00770E-05-1.19114E-22 0.00000E+00
 -1        90-9.73208E-06-1.85288E-22 6.61744E-24
 -1        91-9.38734E-06-2.71315E-22-1.32349E-23
 -1        92-9.04357E-06-5.75718E-22 0.00000E+00
 -1        93-8.70177E-06-3.30872E-23 6.61744E-24
 -1        94-1.09759E-05-1.22830E-07 1.65436E-24
 -1        95-1.07508E-05-2.62384E-07 0.00000E+00
 -1        96-1.04508E-05-4.05368E-07 3.30872E-24
 -1        97-1.00990E-05-5.49031E-07 0.00000E+00
 -1        98-9.71790E-06-6.90770E-07 0.00000E+00
 -1        99-1.08748E-05 5.23275E-08 0.00000E+00
 -1       100-1.05994E-05 4.15937E-08-3.30872E-24
 -1       101-1.02870E-05-1.91628E-08-6.61744E-24
 -1       102-9.94700E-06-1.16949E-07 0.00000E+00
 -1       103-9.58914E-06-2.38770E-07-6.61744E-24
 -1       104-9.22315E-06-3.71670E-07 0.00000E+00
 -1       105-8.85883E-06-5.02715E-07 0.00000E+00
 -1       106-8.50627E-06-6.19211E-07 0.00000E+00
 -1       107-8.17561E-06-7.08577E-07 6.61744E-24
 -1       108-8.13920E-06 3.30872E-23-6.61744E-24
 -1       109-7.90567E-06 4.06973E-22-3.30872E-24
 -1       110-7.67128E-06 6.71671E-22-6.61744E-24
 -1       111-7.43654E-06 7.17993E-22 0.00000E+00
 -1       112-7.20187E-06 7.61006E-22 0.00000E+00
 -1       113-6.96782E-06 6.58436E-22 0.00000E+00
 -1       114-6.73510E-06 2.81241E-22 6.61744E-24
 -1       115-8.34792E-06-1.17312E-07 0.00000E+00
 -1       116-8.30013E-06-2.46475E-07-3.30872E-24
 -1       117-8.22728E-06-3.78009E-07 3.30872E-24
 -1       118-8.13150E-06-5.09843E-07 1.65436E-24
 -1       119-8.01489E-06-6.39972E-07 0.00000E+00
 -1       120-8.23145E-06 2.51354E-08-3.30872E-24
 -1       121-8.06524E-06 1.03231E-08-1.65436E-24
 -1       122-7.87578E-06-3.58298E-08 3.30872E-24
 -1       123-7.66940E-06-1.04739E-07-1.65436E-24
 -1       124-7.45246E-06-1.87824E-07-3.30872E-24
 -1       125-7.23140E-06-2.76519E-07-1.65436E-24
 -1       126-7.01268E-06-3.62267E-07 3.30872E-24
 -1       127-6.80287E-06-4.36630E-07 1.65436E-24
 -1       128-6.60858E-06-4.91222E-07 0.00000E+00
 -1       129-6.34371E-06 1.62127E-22-3.30872E-24
 -1       130-6.17612E-06 5.06235E-22-1.65436E-24
 -1       131-6.00786E-06 5.22778E-22-6.61744E-24
 -1       132-5.83933E-06 3.17637E-22 0.00000E+00
 -1       133-5.67084E-06-5.95570E-23-6.61744E-24
 -1       134-5.50277E-06-3.44107E-22 0.00000E+00
 -1       135-5.33560E-06-5.79026E-23 3.30872E-24
 -1       136-6.51931E-06-8.00730E-08 5.16988E-26
 -1       137-6.52616E-06-1.68288E-07-8.27181E-25
 -1       138-6.52509E-06-2.58119E-07-1.65436E-24
 -1       139-6.51240E-06-3.48116E-07 8.27181E-25
 -1       140-6.48440E-06-4.36865E-07 0.00000E+00
 -1       141-6.41778E-06 1.81601E-08 3.30872E-24
 -1       142-6.30933E-06 1.11629E-08-1.65436E-24
 -1       143-6.18647E-06-1.53330E-08-1.65436E-24
 -1       144-6.05328E-06-5.57639E-08 8.27181E-25
 -1       145-5.91385E-06-1.04570E-07 0.00000E+00
 -1       146-5.77235E-06-1.56205E-07-1.65436E-24
 -1       147-5.63295E-06-2.05129E-07 0.00000E+00
 -1       148-5.49986E-06-2.45864E-07 0.00000E+00
 -1       149-5.37732E-06-2.72955E-07 3.30872E-24
 -1       150-5.04901E-06-1.19114E-22 3.30872E-24
 -1       151-4.92337E-06-2.33265E-22 0.00000E+00
 -1       152-4.79725E-06 3.97047E-23 3.30872E-24
 -1       153-4.67092E-06 3.30872E-22 1.65436E-24
 -1       154-4.54462E-06 4.30134E-22-3.30872E-24
 -1       155-4.41863E-06 2.87859E-22 0.00000E+00
 -1       156-4.29327E-06 1.77017E-22 0.00000E+00
 -1       157-5.19427E-06-4.27069E-08 4.13590E-25
 -1       158-5.22110E-06-9.08033E-08-2.06795E-25
 -1       159-5.24754E-06-1.39968E-07-8.27181E-25
 -1       160-5.26813E-06-1.89234E-07-4.13590E-25
 -1       161-5.27740E-06-2.37660E-07 0.00000E+00
 -1       162-5.11014E-06 1.47375E-08 1.65436E-24
 -1       163-5.03664E-06 1.32381E-08-8.27181E-25
 -1       164-4.95405E-06-6.79791E-10 1.65436E-24
 -1       165-4.86499E-06-2.33903E-08 8.27181E-25
 -1       166-4.77210E-06-5.12736E-08-1.65436E-24
 -1       167-4.67806E-06-8.07309E-08 0.00000E+00
 -1       168-4.58557E-06-1.08167E-07-1.65436E-24
 -1       169-4.49733E-06-1.30015E-07 0.00000E+00
 -1       170-4.41606E-06-1.42721E-07 0.00000E+00
 -1       171-4.07764E-06-6.94832E-23 0.00000E+00
 -1       172-3.98300E-06-2.94476E-22 1.65436E-24
 -1       173-3.88804E-06-6.13768E-22 3.30872E-24
 -1       174-3.79294E-06-4.99617E-22-1.65436E-24
 -1       175-3.69787E-06-4.06973E-22-3.30872E-24
 -1       176-3.60302E-06-3.09366E-22 0.00000E+00
 -1       177-3.50866E-06-2.79587E-22-1.65436E-24
 -1       178-4.19748E-06-2.09536E-08 0.00000E+00
 -1       179-4.23338E-06-4.56074E-08 6.46235E-27
 -1       180-4.27229E-06-7.09923E-08 0.00000E+00
 -1       181-4.30795E-06-9.64406E-08-2.06795E-25
 -1       182-4.33409E-06-1.21299E-07 0.00000E+00
 -1       183-4.12037E-06 1.05701E-08 1.65436E-24
 -1       184-4.06064E-06 7.63911E-09-8.27181E-25
 -1       185-3.99343E-06-5.51831E-09 1.65436E-24
 -1       186-3.92099E-06-2.57762E-08 8.27181E-25
 -1       187-3.84560E-06-5.00146E-08-1.65436E-24
 -1       188-3.76957E-06-7.51288E-08-8.27181E-25
 -1       189-3.69523E-06-9.80154E-08 0.00000E+00
 -1       190-3.62490E-06-1.15590E-07-8.27181E-25
 -1       191-3.56091E-06-1.24777E-07 0.00000E+00
 -1       192-3.36483E-06 1.67090E-22 0.00000E+00
 -1       193-3.31295E-06 4.85555E-22 0.00000E+00
 -1       194-3.26102E-06 7.23783E-22-1.65436E-24
 -1       195-3.20907E-06 8.16427E-22 0.00000E+00
 -1       196-3.15715E-06 7.57697E-22 0.00000E+00
 -1       197-3.10534E-06 5.40149E-22-8.27181E-25
 -1       198-3.05373E-06 2.53117E-22 1.65436E-24
 -1       199-3.43037E-06-1.82738E-08-4.13590E-25
 -1       200-3.44901E-06-3.94459E-08 0.00000E+00
 -1       201-3.46912E-06-6.11812E-08-2.06795E-25
 -1       202-3.48743E-06-8.29348E-08 0.00000E+00
 -1       203-3.50065E-06-1.04166E-07-2.06795E-25
 -1       204-3.36298E-06 2.28473E-08-1.65436E-24
 -1       205-3.30272E-06 3.74776E-08 0.00000E+00
 -1       206-3.23738E-06 4.55137E-08-1.65436E-24
 -1       207-3.16844E-06 4.88465E-08 0.00000E+00
 -1       208-3.09738E-06 4.93775E-08-1.65436E-24
 -1       209-3.02565E-06 4.90318E-08-8.27181E-25
 -1       210-2.95473E-06 4.97346E-08 0.00000E+00
 -1       211-2.88608E-06 5.33933E-08-8.27181E-25
 -1       212-2.82119E-06 6.19064E-08 0.00000E+00
 -1       213-2.99707E-06-5.41803E-23 0.00000E+00
 -1       214-2.99224E-06 1.95938E-23 0.00000E+00
 -1       215-2.98766E-06 2.75038E-23 0.00000E+00
 -1       216-2.98318E-06-7.96161E-24 0.00000E+00
 -1       217-2.97869E-06-7.88924E-23-2.06795E-25
 -1       218-2.97406E-06-8.81981E-23 2.06795E-25
 -1       219-2.96910E-06-3.39144E-23 0.00000E+00
 -1       220-2.97670E-06 1.31461E-08 4.13590E-25
 -1       221-2.93738E-06 2.55131E-08 0.00000E+00
 -1       222-2.89061E-06 3.77578E-08 0.00000E+00
 -1       223-2.84200E-06 5.00929E-08 0.00000E+00
 -1       224-2.79718E-06 6.27520E-08 8.27181E-25
 -1       225-2.97196E-06 4.63601E-08 1.65436E-24
 -1       226-2.94548E-06 1.00552E-07 0.00000E+00
 -1       227-2.92190E-06 1.59012E-07 1.65436E-24
 -1       228-2.89896E-06 2.18517E-07 8.27181E-25
 -1       229-2.87433E-06 2.75853E-07 1.65436E-24
 -1       230-2.84565E-06 3.27843E-07 0.00000E+00
 -1       231-2.81055E-06 3.71316E-07 0.00000E+00
 -1       232-2.76663E-06 4.03134E-07 0.00000E+00
 -1       233-2.71150E-06 4.20178E-07 0.00000E+00
 -1       241-2.94259E-06 6.84968E-08 0.00000E+00
 -1       242-2.90496E-06 1.38428E-07 8.27181E-25
 -1       243-2.85292E-06 2.08679E-07 1.65436E-24
 -1       244-2.78969E-06 2.79074E-07 0.00000E+00
 -1       245-2.71850E-06 3.49469E-07 1.65436E-24
 -1       323-9.44124E-06 4.14739E-07 0.00000E+00
 -1       324-9.42594E-06 8.84040E-08 0.00000E+00
 -1       325-9.41121E-06-1.37597E-07 0.00000E+00
 -1       326-9.39670E-06-2.93489E-07 0.00000E+00
 -1       327-9.38211E-06-4.09546E-07 0.00000E+00
 -1       328-9.36705E-06-5.16103E-07-8.27181E-25
 -1       329-9.35098E-06-6.43468E-07 0.00000E+00
 -1       330-8.78751E-06 8.73693E-07 1.65436E-24
 -1       331-8.12521E-06 8.73262E-07 0.00000E+00
 -1       332-7.48632E-06 8.72025E-07 0.00000E+00
 -1       333-6.88480E-06 8.70347E-07 0.00000E+00
 -1       334-6.33456E-06 8.68488E-07 0.00000E+00
 -1       335-9.00073E-06 5.13230E-07 6.61744E-24
 -1       336-8.58094E-06 2.13278E-07 3.30872E-24
 -1       337-8.19698E-06-3.75922E-08 6.61744E-24
 -1       338-7.84376E-06-2.46780E-07 0.00000E+00
 -1       339-7.51616E-06-4.21647E-07 6.61744E-24
 -1       340-7.20887E-06-5.69483E-07 0.00000E+00
 -1       341-6.91659E-06-6.97596E-07 0.00000E+00
 -1       342-6.63428E-06-8.13467E-07-1.65436E-24
 -1       343-6.35701E-06-9.24658E-07 0.00000E+00
 -1       344-9.15129E-06-9.84410E-07 0.00000E+00
 -1       345-8.96927E-06-1.04493E-06 3.30872E-24
 -1       346-8.78663E-06-1.02931E-06 0.00000E+00
 -1       347-8.60373E-06-9.64749E-07-3.30872E-24
 -1       348-8.42088E-06-8.78441E-07-6.61744E-24
 -1       349-8.23847E-06-7.97625E-07 0.00000E+00
 -1       350-8.05700E-06-7.49513E-07-3.30872E-24
 -1       351-8.84548E-06-8.51797E-07 5.16988E-26
 -1       352-8.28644E-06-8.88971E-07 0.00000E+00
 -1       353-7.69167E-06-9.27597E-07 0.00000E+00
 -1       354-7.10023E-06-9.66665E-07 0.00000E+00
 -1       355-6.55115E-06-1.00527E-06 0.00000E+00
 -1       356-8.96308E-06-9.29511E-07 0.00000E+00
 -1       357-8.59829E-06-1.02555E-06 3.30872E-24
 -1       358-8.23971E-06-1.11136E-06-6.61744E-24
 -1       359-7.88821E-06-1.18676E-06 0.00000E+00
 -1       360-7.54453E-06-1.25149E-06-6.61744E-24
 -1       361-7.20924E-06-1.30514E-06-3.30872E-24
 -1       362-6.88289E-06-1.34731E-06-6.61744E-24
 -1       363-6.56641E-06-1.37789E-06 0.00000E+00
 -1       364-6.26090E-06-1.39689E-06 0.00000E+00
 -1       365-7.70289E-06-8.14785E-07 6.61744E-24
 -1       366-7.52192E-06-8.13699E-07 0.00000E+00
 -1       367-7.34004E-06-7.72738E-07 0.00000E+00
 -1       368-7.15777E-06-7.07587E-07 0.00000E+00
 -1       369-6.97553E-06-6.33950E-07 0.00000E+00
 -1       370-6.79380E-06-5.67541E-07-1.65436E-24
 -1       371-6.61318E-06-5.24061E-07-3.30872E-24
 -1       372-7.62007E-06-8.61803E-07-1.65436E-24
 -1       373-7.30210E-06-9.71397E-07 3.30872E-24
 -1       374-6.95179E-06-1.08270E-06 1.65436E-24
 -1       375-6.59567E-06-1.19419E-06 8.27181E-25
 -1       376-6.26026E-06-1.30439E-06-4.13590E-25
 -1       377-7.63895E-06-7.84961E-07 0.00000E+00
 -1       378-7.38462E-06-8.20220E-07 0.00000E+00
 -1       379-7.12237E-06-8.64447E-07 0.00000E+00
 -1       380-6.85571E-06-9.13757E-07-3.30872E-24
 -1       381-6.58806E-06-9.64193E-07-6.61744E-24
 -1       382-6.32267E-06-1.01166E-06 3.30872E-24
 -1       383-6.06280E-06-1.05207E-06 6.61744E-24
 -1       384-5.81196E-06-1.08152E-06 0.00000E+00
 -1       385-5.57377E-06-1.09624E-06 3.30872E-24
 -1       386-6.29453E-06-5.37791E-07 0.00000E+00
 -1       387-6.14807E-06-5.23796E-07 0.00000E+00
 -1       388-6.00084E-06-4.86226E-07 0.00000E+00
 -1       389-5.85328E-06-4.34704E-07 0.00000E+00
 -1       390-5.70575E-06-3.78864E-07 0.00000E+00
 -1       391-5.55861E-06-3.28343E-07 0.00000E+00
 -1       392-5.41235E-06-2.92770E-07 0.00000E+00
 -1       393-6.29546E-06-6.09416E-07 8.27181E-25
 -1       394-6.11754E-06-7.07155E-07 8.27181E-25
 -1       395-5.91898E-06-8.06299E-07 1.65436E-24
 -1       396-5.71534E-06-9.05510E-07 0.00000E+00
 -1       397-5.52214E-06-1.00347E-06 0.00000E+00
 -1       398-6.27197E-06-5.11700E-07 3.30872E-24
 -1       399-6.09362E-06-5.16280E-07 0.00000E+00
 -1       400-5.90703E-06-5.30629E-07 0.00000E+00
 -1       401-5.71518E-06-5.51391E-07 0.00000E+00
 -1       402-5.52096E-06-5.75158E-07-3.30872E-24
 -1       403-5.32713E-06-5.98407E-07 0.00000E+00
 -1       404-5.13649E-06-6.17620E-07 0.00000E+00
 -1       405-4.95194E-06-6.29411E-07-1.65436E-24
 -1       406-4.77650E-06-6.30457E-07 3.30872E-24
 -1       407-5.15659E-06-2.89273E-07 0.00000E+00
 -1       408-5.04052E-06-2.79477E-07-1.65436E-24
 -1       409-4.92386E-06-2.57257E-07 0.00000E+00
 -1       410-4.80696E-06-2.27846E-07 1.65436E-24
 -1       411-4.69007E-06-1.96486E-07 3.30872E-24
 -1       412-4.57348E-06-1.68420E-07 0.00000E+00
 -1       413-4.45755E-06-1.48883E-07-1.65436E-24
 -1       414-5.18868E-06-3.34183E-07 0.00000E+00
 -1       415-5.08332E-06-3.91755E-07-4.13590E-25
 -1       416-4.96352E-06-4.50279E-07-8.27181E-25
 -1       417-4.83906E-06-5.08805E-07 0.00000E+00
 -1       418-4.71969E-06-5.66381E-07 0.00000E+00
 -1       419-5.16269E-06-2.63037E-07 3.30872E-24
 -1       420-5.04680E-06-2.52788E-07 0.00000E+00
 -1       421-4.92496E-06-2.49758E-07 0.00000E+00
 -1       422-4.79884E-06-2.52080E-07-1.65436E-24
 -1       423-4.67007E-06-2.57851E-07 3.30872E-24
 -1       424-4.54019E-06-2.65103E-07 0.00000E+00
 -1       425-4.41077E-06-2.71871E-07 3.30872E-24
 -1       426-4.28345E-06-2.76268E-07 0.00000E+00
 -1       427-4.15992E-06-2.76444E-07 0.00000E+00
 -1       428-4.24187E-06-1.51460E-07 0.00000E+00
 -1       429-4.13663E-06-1.52678E-07 0.00000E+00
 -1       430-4.03084E-06-1.48661E-07 0.00000E+00
 -1       431-3.92481E-06-1.41483E-07 1.65436E-24
 -1       432-3.81879E-06-1.33220E-07 0.00000E+00
 -1       433-3.71306E-06-1.25952E-07 0.00000E+00
 -1       434-3.60793E-06-1.21753E-07-1.65436E-24
 -1       435-4.31223E-06-1.62169E-07 0.00000E+00
 -1       436-4.26975E-06-1.84409E-07 0.00000E+00
 -1       437-4.21935E-06-2.07238E-07 0.00000E+00
 -1       438-4.16325E-06-2.30068E-07 0.00000E+00
 -1       439-4.10373E-06-2.52310E-07 0.00000E+00
 -1       440-4.27569E-06-1.39061E-07 0.00000E+00
 -1       441-4.19796E-06-1.46188E-07 0.00000E+00
 -1       442-4.11361E-06-1.61999E-07-1.65436E-24
 -1       443-4.02466E-06-1.83860E-07 0.00000E+00
 -1       444-3.93315E-06-2.09127E-07 0.00000E+00
 -1       445-3.84109E-06-2.35140E-07 8.27181E-25
 -1       446-3.75052E-06-2.59237E-07 1.65436E-24
 -1       447-3.66350E-06-2.78800E-07 0.00000E+00
 -1       448-3.58211E-06-2.91235E-07 0.00000E+00
 -1       449-3.41466E-06-1.12307E-07 1.65436E-24
 -1       450-3.32148E-06-8.94418E-08 0.00000E+00
 -1       451-3.22781E-06-5.81644E-08 0.00000E+00
 -1       452-3.13390E-06-2.26887E-08 0.00000E+00
 -1       453-3.03999E-06 1.27665E-08 3.30872E-24
 -1       454-2.94627E-06 4.39833E-08-8.27181E-25
 -1       455-2.85299E-06 6.67475E-08 0.00000E+00
 -1       456-3.50816E-06-1.48904E-07 2.06795E-25
 -1       457-3.51426E-06-1.78261E-07 0.00000E+00
 -1       458-3.52065E-06-2.08228E-07 0.00000E+00
 -1       459-3.52406E-06-2.38234E-07 2.06795E-25
 -1       460-3.52122E-06-2.67718E-07 0.00000E+00
 -1       461-3.43466E-06-1.21045E-07-1.65436E-24
 -1       462-3.35230E-06-1.33486E-07-8.27181E-25
 -1       463-3.26251E-06-1.55568E-07-1.65436E-24
 -1       464-3.16900E-06-1.82472E-07 8.27181E-25
 -1       465-3.07547E-06-2.09361E-07 1.65436E-24
 -1       466-2.98561E-06-2.31363E-07-8.27181E-25
 -1       467-2.90309E-06-2.43606E-07-1.65436E-24
 -1       468-2.83162E-06-2.41262E-07 8.27181E-25
 -1       469-2.77491E-06-2.19524E-07 3.30872E-24
 -1       470-2.74572E-06 1.10778E-07 0.00000E+00
 -1       471-2.73119E-06 1.66265E-07 4.13590E-25
 -1       472-2.71699E-06 2.33993E-07 0.00000E+00
 -1       473-2.70292E-06 3.04338E-07 0.00000E+00
 -1       474-2.68881E-06 3.67664E-07-8.27181E-25
 -1       475-2.67447E-06 4.14348E-07-1.03398E-25
 -1       476-2.65964E-06 4.34780E-07-4.13590E-25
 -1       477-2.73845E-06 3.80819E-08 0.00000E+00
 -1       478-2.71774E-06-4.72174E-09-2.06795E-25
 -1       479-2.70340E-06-4.82920E-08 0.00000E+00
 -1       480-2.69929E-06-9.18957E-08 2.06795E-25
 -1       481-2.70923E-06-1.34808E-07 0.00000E+00
 -1       482-2.61364E-06 1.23570E-07 3.30872E-24
 -1       483-2.45537E-06 1.64210E-07 1.65436E-24
 -1       484-2.29563E-06 2.04628E-07 3.30872E-24
 -1       485-2.14080E-06 2.52510E-07 3.30872E-24
 -1       486-1.99716E-06 3.15618E-07 0.00000E+00
 -1       487-1.87081E-06 4.01893E-07 0.00000E+00
 -1       488-1.76777E-06 5.19291E-07 0.00000E+00
 -1       489-1.69410E-06 6.75724E-07 0.00000E+00
 -1       490-1.65581E-06 8.79079E-07 0.00000E+00
 -1       498-2.40722E-06 5.36299E-07 0.00000E+00
 -1       499-2.14266E-06 6.55387E-07-1.65436E-24
 -1       500-1.89213E-06 7.75063E-07 0.00000E+00
 -1       501-1.69918E-06 8.95125E-07 6.61744E-24
 -1       502-1.60735E-06 1.01545E-06-6.61744E-24
 -1       580-5.87788E-06 5.33401E-07-4.13590E-25
 -1       581-5.90770E-06 2.52782E-07 0.00000E+00
 -1       582-5.93771E-06 1.20806E-08 2.06795E-25
 -1       583-5.96777E-06-2.01497E-07 4.13590E-25
 -1       584-5.99775E-06-4.00765E-07 0.00000E+00
 -1       585-6.02742E-06-5.98563E-07 0.00000E+00
 -1       586-6.05647E-06-8.07718E-07 0.00000E+00
 -1       587-5.41965E-06 8.15185E-07 0.00000E+00
 -1       588-4.98150E-06 7.62054E-07-8.27181E-25
 -1       589-4.54034E-06 7.08482E-07-1.65436E-24
 -1       590-4.10210E-06 6.54734E-07 8.27181E-25
 -1       591-3.67266E-06 6.01037E-07 8.27181E-25
 -1       592-5.57970E-06 5.90443E-07 0.00000E+00
 -1       593-5.32364E-06 3.36723E-07 8.27181E-25
 -1       594-5.08108E-06 1.02014E-07 0.00000E+00
 -1       595-4.85071E-06-1.15915E-07 0.00000E+00
 -1       596-4.63117E-06-3.19260E-07 1.65436E-24
 -1       597-4.42097E-06-5.10138E-07 0.00000E+00
 -1       598-4.21862E-06-6.90677E-07-1.65436E-24
 -1       599-4.02276E-06-8.63088E-07 0.00000E+00
 -1       600-3.83205E-06-1.02962E-06-8.27181E-25
 -1       601-6.06830E-06-1.21454E-06 0.00000E+00
 -1       602-6.05473E-06-1.30868E-06 0.00000E+00
 -1       603-6.04134E-06-1.34432E-06 0.00000E+00
 -1       604-6.02802E-06-1.34326E-06 0.00000E+00
 -1       605-6.01466E-06-1.32728E-06 0.00000E+00
 -1       606-6.00113E-06-1.31822E-06 5.16988E-26
 -1       607-5.98722E-06-1.33789E-06 3.10193E-25
 -1       608-5.69602E-06-1.06376E-06 0.00000E+00
 -1       609-5.27240E-06-1.08933E-06 0.00000E+00
 -1       610-4.83361E-06-1.11548E-06 0.00000E+00
 -1       611-4.40173E-06-1.14184E-06 1.55096E-25
 -1       612-3.99885E-06-1.16811E-06 0.00000E+00
 -1       613-5.82700E-06-1.18202E-06-3.30872E-24
 -1       614-5.58393E-06-1.29967E-06 1.65436E-24
 -1       615-5.35428E-06-1.39790E-06 3.30872E-24
 -1       616-5.13661E-06-1.47940E-06 0.00000E+00
 -1       617-4.92937E-06-1.54678E-06 3.30872E-24
 -1       618-4.73084E-06-1.60259E-06-1.65436E-24
 -1       619-4.53930E-06-1.64935E-06-3.30872E-24
 -1       620-4.35325E-06-1.68975E-06 1.65436E-24
 -1       621-4.17131E-06-1.72656E-06-1.65436E-24
 -1       622-5.89558E-06-1.47165E-06 0.00000E+00
 -1       623-5.81838E-06-1.46554E-06 0.00000E+00
 -1       624-5.74092E-06-1.40924E-06-3.30872E-24
 -1       625-5.66334E-06-1.32333E-06-1.65436E-24
 -1       626-5.58576E-06-1.22838E-06 1.65436E-24
 -1       627-5.50827E-06-1.14501E-06 0.00000E+00
 -1       628-5.43100E-06-1.09378E-06 0.00000E+00
 -1       629-5.67718E-06-1.46294E-06 8.27181E-25
 -1       630-5.33218E-06-1.52315E-06 0.00000E+00
 -1       631-4.96385E-06-1.58437E-06 0.00000E+00
 -1       632-4.59982E-06-1.64581E-06 4.13590E-25
 -1       633-4.26774E-06-1.70671E-06-6.20385E-25
 -1       634-5.75117E-06-1.45558E-06 3.30872E-24
 -1       635-5.53111E-06-1.49556E-06 1.65436E-24
 -1       636-5.31466E-06-1.52906E-06 0.00000E+00
 -1       637-5.10260E-06-1.55584E-06-1.65436E-24
 -1       638-4.89566E-06-1.57559E-06 0.00000E+00
 -1       639-4.69433E-06-1.58787E-06 1.65436E-24
 -1       640-4.49916E-06-1.59225E-06-3.30872E-24
 -1       641-4.31088E-06-1.58846E-06 1.65436E-24
 -1       642-4.13037E-06-1.57634E-06 0.00000E+00
 -1       643-5.26371E-06-1.10918E-06 0.00000E+00
 -1       644-5.17108E-06-1.06968E-06 0.00000E+00
 -1       645-5.07808E-06-9.92404E-07 0.00000E+00
 -1       646-4.98492E-06-8.93918E-07 0.00000E+00
 -1       647-4.89176E-06-7.90799E-07-3.30872E-24
 -1       648-4.79875E-06-6.99630E-07 8.27181E-25
 -1       649-4.70609E-06-6.36979E-07 0.00000E+00
 -1       650-5.15194E-06-1.16738E-06 0.00000E+00
 -1       651-4.90677E-06-1.24578E-06-8.27181E-25
 -1       652-4.64198E-06-1.32534E-06 0.00000E+00
 -1       653-4.38075E-06-1.40502E-06-4.13590E-25
 -1       654-4.14627E-06-1.48384E-06 5.16988E-26
 -1       655-5.16973E-06-1.09397E-06-3.30872E-24
 -1       656-4.97870E-06-1.09405E-06 0.00000E+00
 -1       657-4.78566E-06-1.09516E-06 0.00000E+00
 -1       658-4.59245E-06-1.09568E-06 0.00000E+00
 -1       659-4.40077E-06-1.09392E-06 3.30872E-24
 -1       660-4.21219E-06-1.08805E-06 0.00000E+00
 -1       661-4.02824E-06-1.07623E-06-3.30872E-24
 -1       662-3.85067E-06-1.05679E-06 1.65436E-24
 -1       663-3.68129E-06-1.02813E-06 3.30872E-24
 -1       664-4.54404E-06-6.21340E-07 0.00000E+00
 -1       665-4.47237E-06-5.86931E-07 0.00000E+00
 -1       666-4.40055E-06-5.27424E-07 0.00000E+00
 -1       667-4.32868E-06-4.54765E-07 8.27181E-25
 -1       668-4.25681E-06-3.80915E-07 0.00000E+00
 -1       669-4.18506E-06-3.17837E-07 0.00000E+00
 -1       670-4.11354E-06-2.77479E-07 1.65436E-24
 -1       671-4.46105E-06-6.77062E-07 0.00000E+00
 -1       672-4.26896E-06-7.40293E-07-8.27181E-25
 -1       673-4.05885E-06-8.04532E-07 0.00000E+00
 -1       674-3.85114E-06-8.68802E-07 0.00000E+00
 -1       675-3.66626E-06-9.32131E-07 0.00000E+00
 -1       676-4.45670E-06-5.83322E-07-3.30872E-24
 -1       677-4.29284E-06-5.47904E-07 1.65436E-24
 -1       678-4.12639E-06-5.14335E-07 0.00000E+00
 -1       679-3.95804E-06-4.82477E-07 1.65436E-24
 -1       680-3.78839E-06-4.52122E-07-3.30872E-24
 -1       681-3.61787E-06-4.22922E-07 0.00000E+00
 -1       682-3.44688E-06-3.94525E-07 3.30872E-24
 -1       683-3.27600E-06-3.66701E-07 0.00000E+00
 -1       684-3.10589E-06-3.39278E-07-3.30872E-24
 -1       685-3.97683E-06-3.00812E-07 0.00000E+00
 -1       686-3.90981E-06-3.13716E-07-8.27181E-25
 -1       687-3.84262E-06-3.14546E-07 0.00000E+00
 -1       688-3.77536E-06-3.07782E-07-8.27181E-25
 -1       689-3.70812E-06-2.97909E-07 1.65436E-24
 -1       690-3.64104E-06-2.89418E-07-8.27181E-25
 -1       691-3.57427E-06-2.86794E-07 1.65436E-24
 -1       692-3.90085E-06-2.77012E-07 3.10193E-25
 -1       693-3.71660E-06-2.84958E-07 0.00000E+00
 -1       694-3.50912E-06-2.93340E-07 1.03398E-25
 -1       695-3.29764E-06-3.01622E-07 8.27181E-25
 -1       696-3.10136E-06-3.09242E-07 0.00000E+00
 -1       697-3.95376E-06-2.56667E-07 1.65436E-24
 -1       698-3.86500E-06-2.38685E-07-8.27181E-25
 -1       699-3.77598E-06-2.20518E-07 1.65436E-24
 -1       700-3.68507E-06-2.04581E-07-8.27181E-25
 -1       701-3.59065E-06-1.93271E-07 1.65436E-24
 -1       702-3.49103E-06-1.88945E-07 8.27181E-25
 -1       703-3.38452E-06-1.93965E-07-1.65436E-24
 -1       704-3.26959E-06-2.10777E-07-8.27181E-25
 -1       705-3.14474E-06-2.41870E-07 1.65436E-24
 -1       706-3.41492E-06-3.15608E-07-1.65436E-24
 -1       707-3.31819E-06-3.25495E-07 0.00000E+00
 -1       708-3.22084E-06-3.24507E-07 0.00000E+00
 -1       709-3.12323E-06-3.13141E-07 1.65436E-24
 -1       710-3.02560E-06-2.91896E-07 0.00000E+00
 -1       711-2.92820E-06-2.61284E-07 0.00000E+00
 -1       712-2.83134E-06-2.21819E-07 1.65436E-24
 -1       713-3.47201E-06-2.92467E-07 3.10193E-25
 -1       714-3.41694E-06-2.92009E-07 0.00000E+00
 -1       715-3.34340E-06-2.91868E-07 0.00000E+00
 -1       716-3.25117E-06-2.91816E-07 0.00000E+00
 -1       717-3.14008E-06-2.91647E-07 0.00000E+00
 -1       718-3.47169E-06-3.16741E-07 0.00000E+00
 -1       719-3.43347E-06-3.41796E-07 1.24077E-24
 -1       720-3.39546E-06-3.66909E-07 8.27181E-25
 -1       721-3.35932E-06-3.89710E-07 0.00000E+00
 -1       722-3.32675E-06-4.07838E-07 8.27181E-25
 -1       723-3.29948E-06-4.18973E-07 0.00000E+00
 -1       724-3.27928E-06-4.20803E-07 0.00000E+00
 -1       725-3.26798E-06-4.11092E-07 0.00000E+00
 -1       726-3.26743E-06-3.87633E-07 0.00000E+00
 -1       727-2.60692E-06-1.09775E-07 0.00000E+00
 -1       728-2.47281E-06-1.71429E-08 1.65436E-24
 -1       729-2.33777E-06 1.04004E-07 0.00000E+00
 -1       730-2.20223E-06 2.53663E-07 0.00000E+00
 -1       731-2.06653E-06 4.31821E-07-6.61744E-24
 -1       732-1.93074E-06 6.38428E-07 3.30872E-24
 -1       733-1.79490E-06 8.73429E-07 3.30872E-24
 -1       734-2.81414E-06-2.00031E-07 0.00000E+00
 -1       735-2.90440E-06-2.29119E-07 0.00000E+00
 -1       736-3.00197E-06-2.58908E-07 0.00000E+00
 -1       737-3.10101E-06-2.89025E-07 4.13590E-25
 -1       738-3.19568E-06-3.19172E-07 8.27181E-25
 -1       739-2.74196E-06-1.15250E-07 0.00000E+00
 -1       740-2.76025E-06-3.95679E-08 0.00000E+00
 -1       741-2.79339E-06 5.57322E-08 0.00000E+00
 -1       742-2.84318E-06 1.73119E-07 0.00000E+00
 -1       743-2.91142E-06 3.15044E-07 0.00000E+00
 -1       744-2.99992E-06 4.83924E-07 0.00000E+00
 -1       745-3.11051E-06 6.82172E-07 1.65436E-24
 -1       746-3.24507E-06 9.12125E-07 0.00000E+00
 -1       747-3.40546E-06 1.17609E-06-1.65436E-24
 -1       748-1.46142E-06 1.59038E-06 6.61744E-24
 -1       749-1.26118E-06 2.19971E-06 0.00000E+00
 -1       750-1.06040E-06 2.93772E-06 0.00000E+00
 -1       751-8.59479E-07 3.77641E-06 0.00000E+00
 -1       752-6.58707E-07 4.68772E-06 0.00000E+00
 -1       753-4.58559E-07 5.64349E-06-6.61744E-24
 -1       754-2.59636E-07 6.61557E-06 0.00000E+00
 -1       755-1.93840E-06 1.19767E-06 0.00000E+00
 -1       756-2.23305E-06 1.25515E-06 0.00000E+00
 -1       757-2.54449E-06 1.31172E-06 0.00000E+00
 -1       758-2.87417E-06 1.36758E-06-8.27181E-25
 -1       759-3.22356E-06 1.42279E-06 0.00000E+00
 -1       760-1.74428E-06 1.51647E-06 0.00000E+00
 -1       761-1.88038E-06 1.96575E-06 0.00000E+00
 -1       762-2.06234E-06 2.47649E-06 0.00000E+00
 -1       763-2.28431E-06 3.04068E-06 0.00000E+00
 -1       764-2.54043E-06 3.65030E-06-6.61744E-24
 -1       765-2.82477E-06 4.29731E-06 3.30872E-24
 -1       766-3.13144E-06 4.97361E-06 0.00000E+00
 -1       767-3.45488E-06 5.67087E-06 0.00000E+00
 -1       768-3.78969E-06 6.38068E-06 0.00000E+00
 -1       769 2.76523E-08 8.48184E-06 0.00000E+00
 -1       770 1.22102E-07 9.42559E-06 0.00000E+00
 -1       771 2.16673E-07 1.03988E-05-3.30872E-24
 -1       772 3.11251E-07 1.13926E-05 0.00000E+00
 -1       773 4.05726E-07 1.23981E-05 0.00000E+00
 -1       774 4.99848E-07 1.34064E-05 8.27181E-25
 -1       775 5.93286E-07 1.44087E-05 1.65436E-24
 -1       776-8.23259E-07 7.50149E-06 0.00000E+00
 -1       777-1.52287E-06 7.41996E-06-8.27181E-25
 -1       778-2.18412E-06 7.33701E-06-1.65436E-24
 -1       779-2.82665E-06 7.25368E-06 0.00000E+00
 -1       780-3.47014E-06 7.17094E-06 8.27181E-25
 -1       781-4.94830E-07 8.30751E-06 3.30872E-24
 -1       782-9.18890E-07 9.03411E-06 0.00000E+00
 -1       783-1.34042E-06 9.75765E-06 0.00000E+00
 -1       784-1.76116E-06 1.04803E-05 0.00000E+00
 -1       785-2.18285E-06 1.12042E-05 0.00000E+00
 -1       786-2.60720E-06 1.19314E-05 0.00000E+00
 -1       787-3.03596E-06 1.26643E-05 0.00000E+00
 -1       788-3.47106E-06 1.34048E-05 0.00000E+00
 -1       789-3.91456E-06 1.41547E-05 1.65436E-24
 -1       790 7.16035E-07 1.63804E-05-1.65436E-24
 -1       791 7.48705E-07 1.73881E-05 0.00000E+00
 -1       792 7.81427E-07 1.84125E-05 0.00000E+00
 -1       793 8.14150E-07 1.94466E-05 0.00000E+00
 -1       794 8.46825E-07 2.04838E-05 8.27181E-25
 -1       795 8.79334E-07 2.15171E-05 0.00000E+00
 -1       796 9.11518E-07 2.25397E-05-2.06795E-25
 -1       797-2.01343E-07 1.53195E-05 0.00000E+00
 -1       798-1.05202E-06 1.52384E-05 0.00000E+00
 -1       799-1.88120E-06 1.51563E-05-1.65436E-24
 -1       800-2.70199E-06 1.50741E-05 8.27181E-25
 -1       801-3.52752E-06 1.49925E-05-8.27181E-25
 -1       802 1.60281E-07 1.61803E-05 1.65436E-24
 -1       803-3.59073E-07 1.69613E-05-8.27181E-25
 -1       804-8.75914E-07 1.77394E-05-1.65436E-24
 -1       805-1.39115E-06 1.85155E-05 0.00000E+00
 -1       806-1.90565E-06 1.92908E-05 0.00000E+00
 -1       807-2.42026E-06 2.00661E-05 0.00000E+00
 -1       808-2.93583E-06 2.08426E-05 0.00000E+00
 -1       809-3.45331E-06 2.16211E-05 0.00000E+00
 -1       810-3.97374E-06 2.24025E-05 8.27181E-25
 -1       811 9.46577E-07 2.45344E-05 0.00000E+00
 -1       812 9.51142E-07 2.55333E-05 2.06795E-25
 -1       813 9.55748E-07 2.65381E-05 2.06795E-25
 -1       814 9.60355E-07 2.75453E-05 2.58494E-26
 -1       815 9.64927E-07 2.85512E-05 5.16988E-26
 -1       816 9.69365E-07 2.95524E-05 0.00000E+00
 -1       817 9.73542E-07 3.05453E-05 0.00000E+00
 -1       818 1.14345E-08 2.34871E-05 0.00000E+00
 -1       819-8.98264E-07 2.34268E-05 0.00000E+00
 -1       820-1.79546E-06 2.33660E-05 1.65436E-24
 -1       821-2.68890E-06 2.33051E-05-8.27181E-25
 -1       822-3.58736E-06 2.32447E-05 8.27181E-25
 -1       823 3.76815E-07 2.43287E-05-2.06795E-25
 -1       824-1.84029E-07 2.51079E-05 2.06795E-25
 -1       825-7.41281E-07 2.58827E-05-4.13590E-25
 -1       826-1.29550E-06 2.66535E-05 2.06795E-25
 -1       827-1.84723E-06 2.74211E-05 0.00000E+00
 -1       828-2.39699E-06 2.81861E-05 0.00000E+00
 -1       829-2.94529E-06 2.89490E-05-4.13590E-25
 -1       830-3.49273E-06 2.97104E-05 0.00000E+00
 -1       831-4.03992E-06 3.04709E-05 0.00000E+00
 -1       832 3.29717E-08 3.14779E-05 0.00000E+00
 -1       833-8.99133E-07 3.14281E-05 0.00000E+00
 -1       834-1.82351E-06 3.13782E-05-1.65436E-24
 -1       835-2.74396E-06 3.13283E-05-8.27181E-25
 -1       836-3.66431E-06 3.12786E-05-8.27181E-25
 -1       837-3.30649E-06 2.28699E-07-1.65436E-24
 -1       838-3.35553E-06-3.82118E-08-4.13590E-25
 -1       839-3.40463E-06-2.64231E-07 8.27181E-25
 -1       840-3.45372E-06-4.61134E-07-4.13590E-25
 -1       841-3.50275E-06-6.40721E-07 8.27181E-25
 -1       842-3.55157E-06-8.14818E-07 0.00000E+00
 -1       843-3.59999E-06-9.95243E-07-8.27181E-25
 -1       844-2.75484E-06 4.59611E-07 0.00000E+00
 -1       845-2.20179E-06 3.69092E-07 0.00000E+00
 -1       846-1.62401E-06 2.77975E-07-3.30872E-24
 -1       847-1.04732E-06 1.86350E-07 1.65436E-24
 -1       848-4.97531E-07 9.41893E-08-3.30872E-24
 -1       849-3.01931E-06 2.73896E-07 0.00000E+00
 -1       850-2.79611E-06 2.55176E-08 0.00000E+00
 -1       851-2.58860E-06-2.00750E-07 0.00000E+00
 -1       852-2.39541E-06-4.07327E-07 0.00000E+00
 -1       853-2.21509E-06-5.96592E-07 0.00000E+00
 -1       854-2.04607E-06-7.70842E-07 0.00000E+00
 -1       855-1.88678E-06-9.32389E-07 0.00000E+00
 -1       856-1.73585E-06-1.08371E-06 0.00000E+00
 -1       857-1.59202E-06-1.22735E-06 0.00000E+00
 -1       858-3.68895E-06-1.36185E-06-2.06795E-25
 -1       859-3.73287E-06-1.47310E-06 1.29247E-25
 -1       860-3.77713E-06-1.54170E-06 4.13590E-25
 -1       861-3.82153E-06-1.58249E-06 0.00000E+00
 -1       862-3.86589E-06-1.61034E-06 0.00000E+00
 -1       863-3.91000E-06-1.64010E-06 0.00000E+00
 -1       864-3.95357E-06-1.68665E-06 0.00000E+00
 -1       865-3.29869E-06-1.22091E-06 8.27181E-25
 -1       866-2.91383E-06-1.24918E-06 4.13590E-25
 -1       867-2.51445E-06-1.27775E-06 0.00000E+00
 -1       868-2.12333E-06-1.30668E-06 8.27181E-25
 -1       869-1.76325E-06-1.33614E-06 0.00000E+00
 -1       870-3.47828E-06-1.34369E-06 0.00000E+00
 -1       871-3.32591E-06-1.46844E-06 0.00000E+00
 -1       872-3.18890E-06-1.57178E-06 1.65436E-24
 -1       873-3.06527E-06-1.65683E-06-2.48154E-24
 -1       874-2.95295E-06-1.72668E-06-3.30872E-24
 -1       875-2.84979E-06-1.78438E-06 0.00000E+00
 -1       876-2.75363E-06-1.83298E-06 0.00000E+00
 -1       877-2.66251E-06-1.87565E-06 0.00000E+00
 -1       878-2.57455E-06-1.91565E-06-1.03398E-25
 -1       879-3.99050E-06-1.82485E-06 0.00000E+00
 -1       880-3.98659E-06-1.82844E-06 0.00000E+00
 -1       881-3.98274E-06-1.79105E-06 8.27181E-25
 -1       882-3.97890E-06-1.72892E-06 0.00000E+00
 -1       883-3.97502E-06-1.65831E-06-1.29247E-25
 -1       884-3.97101E-06-1.59549E-06 2.06795E-25
 -1       885-3.96673E-06-1.55673E-06 2.06795E-25
 -1       886-3.75828E-06-1.79452E-06 0.00000E+00
 -1       887-3.48847E-06-1.82644E-06 0.00000E+00
 -1       888-3.20588E-06-1.85881E-06 0.00000E+00
 -1       889-2.93142E-06-1.89149E-06-2.06795E-25
 -1       890-2.68598E-06-1.92437E-06 0.00000E+00
 -1       891-3.85979E-06-1.82579E-06 0.00000E+00
 -1       892-3.73423E-06-1.86991E-06-8.27181E-25
 -1       893-3.61878E-06-1.89950E-06 0.00000E+00
 -1       894-3.51262E-06-1.91618E-06 0.00000E+00
 -1       895-3.41486E-06-1.92151E-06 3.30872E-24
 -1       896-3.32450E-06-1.91700E-06 0.00000E+00
 -1       897-3.24053E-06-1.90416E-06 1.65436E-24
 -1       898-3.16212E-06-1.88461E-06 8.27181E-25
 -1       899-3.08847E-06-1.86003E-06 0.00000E+00
 -1       900-3.90779E-06-1.55521E-06 0.00000E+00
 -1       901-3.85327E-06-1.50172E-06 0.00000E+00
 -1       902-3.79852E-06-1.41281E-06-1.65436E-24
 -1       903-3.74365E-06-1.30431E-06-8.27181E-25
 -1       904-3.68874E-06-1.19204E-06 1.65436E-24
 -1       905-3.63383E-06-1.09183E-06 0.00000E+00
 -1       906-3.57896E-06-1.01952E-06-1.65436E-24
 -1       907-3.80985E-06-1.60083E-06 0.00000E+00
 -1       908-3.63362E-06-1.64714E-06 0.00000E+00
 -1       909-3.44947E-06-1.69416E-06 0.00000E+00
 -1       910-3.27457E-06-1.74137E-06 0.00000E+00
 -1       911-3.12606E-06-1.78831E-06-2.06795E-25
 -1       912-3.83744E-06-1.56367E-06-1.65436E-24
 -1       913-3.71440E-06-1.56338E-06 0.00000E+00
 -1       914-3.59454E-06-1.55773E-06 0.00000E+00
 -1       915-3.47866E-06-1.54619E-06 0.00000E+00
 -1       916-3.36747E-06-1.52823E-06 0.00000E+00
 -1       917-3.26158E-06-1.50318E-06 0.00000E+00
 -1       918-3.16158E-06-1.47041E-06 3.30872E-24
 -1       919-3.06815E-06-1.42934E-06 0.00000E+00
 -1       920-2.98204E-06-1.37946E-06 3.30872E-24
 -1       921-3.45220E-06-9.53733E-07 0.00000E+00
 -1       922-3.37915E-06-8.68877E-07-1.65436E-24
 -1       923-3.30588E-06-7.52899E-07 0.00000E+00
 -1       924-3.23248E-06-6.23159E-07 0.00000E+00
 -1       925-3.15906E-06-4.97037E-07 0.00000E+00
 -1       926-3.08565E-06-3.91911E-07 8.27181E-25
 -1       927-3.01229E-06-3.25133E-07-1.65436E-24
 -1       928-3.41929E-06-1.04215E-06 0.00000E+00
 -1       929-3.29709E-06-1.09841E-06 4.13590E-25
 -1       930-3.17106E-06-1.15557E-06 0.00000E+00
 -1       931-3.05475E-06-1.21278E-06 4.13590E-25
 -1       932-2.96174E-06-1.26917E-06 0.00000E+00
 -1       933-3.37555E-06-9.62220E-07 0.00000E+00
 -1       934-3.21783E-06-9.39324E-07 1.65436E-24
 -1       935-3.05576E-06-9.20733E-07-3.30872E-24
 -1       936-2.89192E-06-9.03699E-07-1.65436E-24
 -1       937-2.72886E-06-8.85402E-07 0.00000E+00
 -1       938-2.56889E-06-8.62880E-07 1.65436E-24
 -1       939-2.41434E-06-8.33157E-07 0.00000E+00
 -1       940-2.26756E-06-7.93299E-07 1.65436E-24
 -1       941-2.13093E-06-7.40398E-07 3.30872E-24
 -1       942-2.94449E-06-3.28923E-07 0.00000E+00
 -1       943-2.95316E-06-3.13013E-07 0.00000E+00
 -1       944-2.96259E-06-2.78705E-07 0.00000E+00
 -1       945-2.97240E-06-2.39138E-07 0.00000E+00
 -1       946-2.98230E-06-2.07463E-07-8.27181E-25
 -1       947-2.99212E-06-1.96820E-07 0.00000E+00
 -1       948-3.00170E-06-2.20329E-07 0.00000E+00
 -1       949-2.78183E-06-3.69934E-07 0.00000E+00
 -1       950-2.59989E-06-4.31838E-07 4.13590E-25
 -1       951-2.41233E-06-4.94741E-07-8.27181E-25
 -1       952-2.23834E-06-5.57409E-07-1.03398E-25
 -1       953-2.09712E-06-6.18557E-07 0.00000E+00
 -1       954-2.68789E-06-2.38830E-07 6.61744E-24
 -1       955-2.41967E-06-1.72844E-07 0.00000E+00
 -1       956-2.14046E-06-1.18406E-07 0.00000E+00
 -1       957-1.85184E-06-7.49133E-08 0.00000E+00
 -1       958-1.55526E-06-4.16301E-08 0.00000E+00
 -1       959-1.25178E-06-1.75489E-08-3.30872E-24
 -1       960-9.42512E-07-1.66417E-09 0.00000E+00
 -1       961-6.28910E-07 6.74535E-09-3.30872E-24
 -1       962-3.12632E-07 8.26161E-09 0.00000E+00
 -1       963-3.04137E-06-3.98847E-07 0.00000E+00
 -1       964-3.07495E-06-4.70542E-07 1.03398E-25
 -1       965-3.10906E-06-5.09434E-07-4.65289E-25
 -1       966-3.14342E-06-5.19421E-07 0.00000E+00
 -1       967-3.17785E-06-5.04412E-07-4.13590E-25
 -1       968-3.21226E-06-4.68355E-07 4.13590E-25
 -1       969-3.24654E-06-4.15200E-07 4.13590E-25
 -1       970-2.61993E-06-2.43779E-07-8.27181E-25
 -1       971-2.11346E-06-1.95509E-07 5.68687E-25
 -1       972-1.54399E-06-1.46935E-07-8.27181E-25
 -1       973-9.65836E-07-9.81641E-08 0.00000E+00
 -1       974-4.33362E-07-4.92576E-08 0.00000E+00
 -1       975-2.92235E-06-3.72316E-07 0.00000E+00
 -1       976-2.85000E-06-4.33209E-07 0.00000E+00
 -1       977-2.79162E-06-4.75423E-07 0.00000E+00
 -1       978-2.74569E-06-5.01085E-07 0.00000E+00
 -1       979-2.71064E-06-5.12333E-07 0.00000E+00
 -1       980-2.68496E-06-5.11355E-07 4.13590E-25
 -1       981-2.66718E-06-5.00365E-07 0.00000E+00
 -1       982-2.65618E-06-4.81866E-07-4.13590E-25
 -1       983-2.65104E-06-4.58491E-07-1.65436E-24
 -1       984-3.31897E-06-2.66565E-07 2.58494E-25
 -1       985-3.35857E-06-1.41468E-07-1.29247E-25
 -1       986-3.39835E-06 2.59925E-08-7.23783E-25
 -1       987-3.43819E-06 2.35196E-07 3.36042E-25
 -1       988-3.47800E-06 4.85499E-07-6.20385E-25
 -1       989-3.51760E-06 7.76201E-07-3.10193E-25
 -1       990-3.55676E-06 1.10659E-06 0.00000E+00
 -1       991-3.23260E-06-3.61640E-07 0.00000E+00
 -1       992-3.13237E-06-3.74120E-07 0.00000E+00
 -1       993-3.00181E-06-3.86778E-07 8.27181E-25
 -1       994-2.86361E-06-4.00150E-07-8.27181E-25
 -1       995-2.74051E-06-4.14934E-07-1.65436E-24
 -1       996-3.35190E-06-2.85974E-07-6.20385E-25
 -1       997-3.45044E-06-1.87116E-07 2.06795E-25
 -1       998-3.57400E-06-5.49091E-08 0.00000E+00
 -1       999-3.72054E-06 1.07886E-07 4.13590E-25
 -1      1000-3.88800E-06 2.98485E-07 8.27181E-25
 -1      1001-4.07434E-06 5.14052E-07 3.71585E-25
 -1      1002-4.27754E-06 7.51735E-07-8.27181E-25
 -1      1003-4.49585E-06 1.00846E-06-4.13590E-25
 -1      1004-4.72762E-06 1.28107E-06 1.65436E-24
 -1      1005-3.65847E-06 1.96466E-06 0.00000E+00
 -1      1006-3.72627E-06 2.54621E-06-2.06795E-25
 -1      1007-3.79483E-06 3.20497E-06 1.03398E-25
 -1      1008-3.86374E-06 3.92483E-06 4.13590E-25
 -1      1009-3.93269E-06 4.68965E-06-1.65436E-24
 -1      1010-4.00134E-06 5.48321E-06 0.00000E+00
 -1      1011-4.06930E-06 6.28931E-06-8.27181E-25
 -1      1012-3.87010E-06 1.49237E-06 0.00000E+00
 -1      1013-4.09612E-06 1.50938E-06 0.00000E+00
 -1      1014-4.29557E-06 1.52622E-06 0.00000E+00
 -1      1015-4.49243E-06 1.54227E-06-4.13590E-25
 -1      1016-4.71072E-06 1.55673E-06-8.27181E-25
 -1      1017-3.83204E-06 1.85678E-06 0.00000E+00
 -1      1018-4.10866E-06 2.29167E-06 0.00000E+00
 -1      1019-4.42016E-06 2.77358E-06 0.00000E+00
 -1      1020-4.76180E-06 3.29587E-06 0.00000E+00
 -1      1021-5.12882E-06 3.85195E-06 0.00000E+00
 -1      1022-5.51637E-06 4.43520E-06 0.00000E+00
 -1      1023-5.91966E-06 5.03896E-06 0.00000E+00
 -1      1024-6.33421E-06 5.65634E-06 2.06795E-25
 -1      1025-6.75570E-06 6.28033E-06-8.27181E-25
 -1      1026-4.16214E-06 7.93756E-06 0.00000E+00
 -1      1027-4.19174E-06 8.85740E-06 0.00000E+00
 -1      1028-4.22172E-06 9.83358E-06-6.20385E-25
 -1      1029-4.25189E-06 1.08477E-05-3.10193E-25
 -1      1030-4.28209E-06 1.18812E-05 0.00000E+00
 -1      1031-4.31220E-06 1.29157E-05 0.00000E+00
 -1      1032-4.34205E-06 1.39327E-05 0.00000E+00
 -1      1033-4.71067E-06 7.06303E-06 0.00000E+00
 -1      1034-5.21158E-06 7.03260E-06 0.00000E+00
 -1      1035-5.67277E-06 7.00169E-06 0.00000E+00
 -1      1036-6.13084E-06 6.97014E-06-4.13590E-25
 -1      1037-6.62241E-06 6.93762E-06 8.27181E-25
 -1      1038-4.54003E-06 7.75465E-06 1.65436E-24
 -1      1039-4.96339E-06 8.44594E-06-1.65436E-24
 -1      1040-5.40402E-06 9.16138E-06 0.00000E+00
 -1      1041-5.85991E-06 9.89773E-06 0.00000E+00
 -1      1042-6.32901E-06 1.06518E-05-3.30872E-24
 -1      1043-6.80913E-06 1.14204E-05 0.00000E+00
 -1      1044-7.29808E-06 1.22003E-05 1.65436E-24
 -1      1045-7.79401E-06 1.29883E-05 0.00000E+00
 -1      1046-8.29518E-06 1.37808E-05 2.06795E-25
 -1      1047-4.38635E-06 1.58806E-05 0.00000E+00
 -1      1048-4.40245E-06 1.68920E-05 2.06795E-25
 -1      1049-4.41868E-06 1.79357E-05-4.13590E-25
 -1      1050-4.43499E-06 1.89987E-05 0.00000E+00
 -1      1051-4.45130E-06 2.00683E-05 0.00000E+00
 -1      1052-4.46758E-06 2.11313E-05-8.27181E-25
 -1      1053-4.48375E-06 2.21750E-05 0.00000E+00
 -1      1054-5.14471E-06 1.48597E-05 0.00000E+00
 -1      1055-5.86752E-06 1.48030E-05-8.27181E-25
 -1      1056-6.56680E-06 1.47458E-05-1.65436E-24
 -1      1057-7.27059E-06 1.46881E-05 4.13590E-25
 -1      1058-8.00693E-06 1.46303E-05-1.65436E-24
 -1      1059-4.87376E-06 1.56765E-05 0.00000E+00
 -1      1060-5.38331E-06 1.64521E-05-8.27181E-25
 -1      1061-5.90020E-06 1.72386E-05 0.00000E+00
 -1      1062-6.42373E-06 1.80345E-05 0.00000E+00
 -1      1063-6.95311E-06 1.88382E-05-1.65436E-24
 -1      1064-7.48742E-06 1.96485E-05-8.27181E-25
 -1      1065-8.02576E-06 2.04639E-05 1.65436E-24
 -1      1066-8.56742E-06 2.12830E-05 0.00000E+00
 -1      1067-9.11176E-06 2.21041E-05 0.00000E+00
 -1      1068-4.51032E-06 2.41717E-05-1.55096E-25
 -1      1069-4.52132E-06 2.51769E-05 8.07794E-26
 -1      1070-4.53237E-06 2.61951E-05-2.06795E-25
 -1      1071-4.54346E-06 2.72191E-05 0.00000E+00
 -1      1072-4.55456E-06 2.82418E-05 4.13590E-25
 -1      1073-4.56570E-06 2.92559E-05-8.27181E-25
 -1      1074-4.57689E-06 3.02545E-05 0.00000E+00
 -1      1075-5.37518E-06 2.31443E-05 0.00000E+00
 -1      1076-6.22219E-06 2.31005E-05 0.00000E+00
 -1      1077-7.05726E-06 2.30564E-05 0.00000E+00
 -1      1078-7.89738E-06 2.30121E-05 4.13590E-25
 -1      1079-8.75950E-06 2.29679E-05 0.00000E+00
 -1      1080-5.04512E-06 2.39681E-05 4.13590E-25
 -1      1081-5.59062E-06 2.47526E-05-4.13590E-25
 -1      1082-6.13690E-06 2.55388E-05-8.27181E-25
 -1      1083-6.68389E-06 2.63263E-05-4.13590E-25
 -1      1084-7.23145E-06 2.71147E-05 0.00000E+00
 -1      1085-7.77937E-06 2.79035E-05-4.13590E-25
 -1      1086-8.32747E-06 2.86925E-05 8.27181E-25
 -1      1087-8.87561E-06 2.94811E-05 4.13590E-25
 -1      1088-9.42373E-06 3.02690E-05 0.00000E+00
 -1      1089-5.49229E-06 3.12014E-05 8.27181E-25
 -1      1090-6.38285E-06 3.11719E-05 0.00000E+00
 -1      1091-7.26806E-06 3.11423E-05 0.00000E+00
 -1      1092-8.15606E-06 3.11128E-05-2.06795E-25
 -1      1093-9.05499E-06 3.10834E-05-8.27181E-25
 -1      1094-1.81003E-07-2.98962E-07-3.30872E-24
 -1      1095-3.64003E-07-5.33744E-07-1.65436E-24
 -1      1096-5.47415E-07-7.17818E-07 0.00000E+00
 -1      1097-7.30965E-07-8.65168E-07 0.00000E+00
 -1      1098-9.14406E-07-9.89809E-07-6.61744E-24
 -1      1099-1.09734E-06-1.10580E-06 0.00000E+00
 -1      1100-1.27923E-06-1.22717E-06 3.30872E-24
 -1      1101-1.58408E-06-1.51701E-06-3.30872E-24
 -1      1102-1.71391E-06-1.62734E-06 0.00000E+00
 -1      1103-1.84423E-06-1.70721E-06-3.30872E-24
 -1      1104-1.97475E-06-1.76542E-06-1.65436E-24
 -1      1105-2.10521E-06-1.81077E-06 3.30872E-24
 -1      1106-2.23528E-06-1.85211E-06 0.00000E+00
 -1      1107-2.36451E-06-1.89824E-06 0.00000E+00
 -1      1108-2.55600E-06-2.00592E-06-8.27181E-25
 -1      1109-2.62290E-06-2.01817E-06-8.27181E-25
 -1      1110-2.68999E-06-2.00325E-06-1.65436E-24
 -1      1111-2.75714E-06-1.97007E-06 8.27181E-25
 -1      1112-2.82422E-06-1.92757E-06 1.65436E-24
 -1      1113-2.89100E-06-1.88471E-06-8.27181E-25
 -1      1114-2.95718E-06-1.85043E-06 0.00000E+00
 -1      1115-3.00763E-06-1.81297E-06 0.00000E+00
 -1      1116-2.99366E-06-1.76350E-06 0.00000E+00
 -1      1117-2.97948E-06-1.69321E-06 0.00000E+00
 -1      1118-2.96517E-06-1.61043E-06 0.00000E+00
 -1      1119-2.95077E-06-1.52352E-06 0.00000E+00
 -1      1120-2.93621E-06-1.44082E-06 0.00000E+00
 -1      1121-2.92135E-06-1.37069E-06 0.00000E+00
 -1      1122-2.79655E-06-1.26809E-06-3.30872E-24
 -1      1123-2.68477E-06-1.18956E-06-1.65436E-24
 -1      1124-2.57229E-06-1.09423E-06 3.30872E-24
 -1      1125-2.45944E-06-9.90859E-07-1.65436E-24
 -1      1126-2.34647E-06-8.88228E-07 3.30872E-24
 -1      1127-2.23345E-06-7.95103E-07 1.65436E-24
 -1      1128-2.12041E-06-7.20244E-07-3.30872E-24
 -1      1129-1.76132E-06-5.75434E-07 6.61744E-24
 -1      1130-1.50903E-06-4.40692E-07 0.00000E+00
 -1      1131-1.25539E-06-2.88552E-07 6.61744E-24
 -1      1132-1.00119E-06-1.39982E-07 0.00000E+00
 -1      1133-7.47080E-07-1.59644E-08 6.61744E-24
 -1      1134-4.93881E-07 6.25437E-08 1.65436E-24
 -1      1135-2.42616E-07 7.46132E-08 6.61744E-24
 -1      1136-3.14245E-07-1.58703E-07-3.30872E-24
 -1      1137-6.45618E-07-2.79702E-07 3.30872E-24
 -1      1138-9.80844E-07-3.66764E-07 6.61744E-24
 -1      1139-1.31796E-06-4.23946E-07 0.00000E+00
 -1      1140-1.65545E-06-4.55324E-07-6.61744E-24
 -1      1141-1.99234E-06-4.65019E-07-3.30872E-24
 -1      1142-2.32756E-06-4.57158E-07 0.00000E+00
 -1      1143-2.93959E-06-3.66396E-07 0.00000E+00
 -1      1144-3.23029E-06-2.32024E-07 0.00000E+00
 -1      1145-3.52230E-06-3.91227E-08 0.00000E+00
 -1      1146-3.81491E-06 2.05523E-07 0.00000E+00
 -1      1147-4.10751E-06 4.95090E-07 6.61744E-24
 -1      1148-4.39945E-06 8.22680E-07 0.00000E+00
 -1      1149-4.68998E-06 1.18139E-06 6.61744E-24
 -1      1150-5.24518E-06 2.02685E-06 0.00000E+00
 -1      1151-5.52227E-06 2.57551E-06 3.30872E-24
 -1      1152-5.80068E-06 3.19682E-06 6.61744E-24
 -1      1153-6.07969E-06 3.87676E-06 0.00000E+00
 -1      1154-6.35868E-06 4.60130E-06-6.61744E-24
 -1      1155-6.63697E-06 5.35630E-06 0.00000E+00
 -1      1156-6.91372E-06 6.12762E-06 0.00000E+00
 -1      1157-7.38308E-06 7.71736E-06-6.61744E-24
 -1      1158-7.58646E-06 8.60528E-06 1.65436E-24
 -1      1159-7.79070E-06 9.54984E-06-6.61744E-24
 -1      1160-7.99529E-06 1.05353E-05-3.30872E-24
 -1      1161-8.19983E-06 1.15460E-05 0.00000E+00
 -1      1162-8.40377E-06 1.25661E-05 3.30872E-24
 -1      1163-8.60643E-06 1.35798E-05 0.00000E+00
 -1      1164-8.90952E-06 1.55543E-05 1.65436E-24
 -1      1165-9.01725E-06 1.65757E-05 8.27181E-25
 -1      1166-9.12534E-06 1.76256E-05 3.30872E-24
 -1      1167-9.23355E-06 1.86930E-05 0.00000E+00
 -1      1168-9.34170E-06 1.97674E-05 3.30872E-24
 -1      1169-9.44949E-06 2.08378E-05 0.00000E+00
 -1      1170-9.55653E-06 2.18935E-05 3.30872E-24
 -1      1171-9.69935E-06 2.39311E-05 0.00000E+00
 -1      1172-9.73871E-06 2.49521E-05-4.13590E-25
 -1      1173-9.77813E-06 2.59814E-05 8.27181E-25
 -1      1174-9.81756E-06 2.70135E-05 0.00000E+00
 -1      1175-9.85695E-06 2.80425E-05 0.00000E+00
 -1      1176-9.89618E-06 2.90628E-05 0.00000E+00
 -1      1177-9.93513E-06 3.00687E-05-8.27181E-25
 -3
    1PSTEP                         2           1           1          
  100CL  101 1.000000000        1001                     0    1           1
 -4  STRESS      6    1
 -5  SXX         1    4    1    1
 -5  SYY         1    4    2    2
 -5  SZZ         1    4    3    3
 -5  SXY         1    4    1    2
 -5  SYZ         1    4    2    3
 -5  SZX         1    4    3    1
 -1         1 7.93774E+05 3.08093E+05 3.28054E+02 3.48269E+05 2.42532E-11 3.63192E-10
 -1         2 6.93811E+05 8.10258E+02-5.44246E+02 9.48116E+04-5.04770E-11 4.18368E-11
 -1         3 4.34834E+05-2.75084E+04-4.93116E+02 4.31179E+04 2.06910E-11-5.96629E-10
 -1         4 3.00416E+05-1.85717E+04-3.42052E+02 2.36721E+04-3.18323E-12 1.46883E-10
 -1         5 2.19725E+05-3.58057E+03-2.19511E+02 1.41892E+04-3.03544E-11 2.43517E-10
 -1         6 1.67948E+05 4.47371E+03-1.49088E+02 9.18274E+03-3.14913E-11 6.25278E-11
 -1         7 1.23113E+05 6.87198E+03-1.49534E+02 1.45452E+04-2.11031E-11 1.87896E-10
 -1         8 5.93156E+04 2.81089E+04-1.29306E+02 2.37700E+04-8.23093E-11-1.70758E-10
 -1         9 1.73947E+04 8.97252E+04-8.11908E+00 6.77900E+03 6.66205E-11 3.48791E-10
 -1        14 7.52752E+04 1.47813E+05-8.67131E+02 2.16033E+05-3.18323E-12 1.50067E-10
 -1        15 2.91903E+05 3.99699E+04-9.30519E+02 2.11543E+05 6.06330E-12-1.90388E-10
 -1        16 2.71762E+05-2.67722E+04-8.05318E+02 1.24819E+05-5.53276E-11-3.94114E-11
 -1        17 2.16943E+05-2.55067E+04-6.01627E+02 7.67506E+04 2.00089E-11-4.47168E-10
 -1        18 1.65832E+05-5.74144E+03-4.08722E+02 4.95157E+04 3.45608E-11-2.52385E-11
 -1        19 1.31286E+05 6.31296E+03-2.54762E+02 2.62421E+04-4.52474E-11 1.14899E-10
 -1        20 1.19429E+05 3.23321E+02-2.14777E+02 2.06912E+04-6.29825E-11-3.76682E-11
 -1        21 1.14132E+05 2.17921E+04-2.06466E+02 5.58192E+04-1.30967E-10 1.12171E-10
 -1        22 4.05077E+04 1.44581E+05 1.12970E+01 8.00168E+04 1.08514E-10 6.43532E-11
 -1        27-2.65686E+03-2.05860E+04-3.27439E+02 4.84975E+04-3.18323E-12 2.13731E-10
 -1        28 6.38606E+04 3.08477E+04-3.81877E+02 1.22560E+05 9.07979E-11-4.47168E-12
 -1        29 1.43614E+05 1.54686E+03-5.37766E+02 1.41204E+05-1.98421E-10 4.22915E-11
 -1        30 1.66329E+05-1.05754E+04-5.18609E+02 1.16866E+05 9.23137E-11-2.18279E-10
 -1        31 1.52886E+05 6.55277E+03-4.21493E+02 9.79177E+04-2.94070E-11-2.85809E-10
 -1        32 1.10571E+05 2.67910E+04-2.62889E+02 6.37088E+04-6.80226E-11 1.03417E-10
 -1        33 9.41659E+04 4.64636E+03-1.39110E+02 1.63936E+04-3.99420E-11-6.63931E-11
 -1        34 1.27267E+05-9.17247E+03-1.69591E+02 1.72836E+04-9.36780E-11-2.00013E-10
 -1        35 2.47374E+05 1.47999E+05 2.98797E+02 1.21137E+05-4.72937E-11-2.01415E-10
 -1        36 2.33423E+05-1.18430E+04-1.60343E+02 9.07974E+04 3.76872E-10-1.18337E-09
 -1        37 1.01390E+05-3.02737E+04-1.87973E+02 4.62658E+04 2.52783E-09-4.32692E-10
 -1        38 2.82560E+04-3.05384E+04-1.29814E+02 2.50564E+04 8.16806E-09-7.74207E-11
 -1        39-2.06073E+03-6.21014E+04-1.85321E+02 1.55202E+04 1.17407E-08-6.78455E-10
 -1        40-3.01132E+04-8.67187E+04-2.31464E+01 5.12922E+04-5.36602E-11 1.10504E-10
 -1        41-1.74884E+04-4.92424E+03-4.63711E+01 6.83162E+04-1.86067E-11 1.00044E-10
 -1        42 3.25986E+04-1.85328E+03-2.26273E+02 9.30476E+04-1.83870E-10 1.45974E-10
 -1        43 9.27553E+04-5.48863E+03-3.47842E+02 9.81593E+04 4.82032E-11 2.24342E-10
 -1        44 1.38281E+05 4.64875E+03-4.23486E+02 1.03133E+05 7.97324E-11 1.23161E-10
 -1        45 1.44968E+05 4.60795E+04-4.44370E+02 1.27213E+05 4.79001E-11 1.20356E-10
 -1        46 1.08515E+04 4.05419E+04-1.30977E+02 7.11193E+04-1.49006E-10-1.67574E-10
 -1        47-3.59325E+04-2.17987E+04 9.92803E+01 1.21871E+04 1.06108E-12-1.31119E-11
 -1        48-2.43378E+04 4.14897E+04 1.11120E+02 4.36403E+04 1.85158E-10-3.64480E-10
 -1        49 1.17355E+04-8.40037E+00-1.96952E+02 1.08680E+05-1.14460E-09 2.60722E-10
 -1        50 1.86532E+04-3.27489E+04-2.02650E+02 7.75691E+04-1.75620E-09-1.20122E-09
 -1        51 9.11444E+03-2.93398E+04-1.39353E+02 4.68935E+04 2.60313E-09-6.04738E-10
 -1        52-3.08996E+03-4.72380E+04-1.37524E+02 2.36492E+04 3.13185E-09-5.97282E-10
 -1        53-2.47416E+05-1.46463E+05-4.89460E+02 8.36402E+04-7.98082E-11-3.57431E-10
 -1        54-1.98684E+05-2.47493E+04-1.63882E+02 5.05353E+04-7.20526E-11-2.21917E-10
 -1        55-1.15588E+05-1.52849E+04-2.16742E+02 5.06313E+04-2.98019E-11-3.24235E-10
 -1        56-7.43355E+03-1.11670E+04-2.68079E+02 5.59159E+04 3.60068E-11-6.41194E-11
 -1        57 1.24120E+05-3.62887E+03-3.01891E+02 6.16201E+04-1.28543E-10-3.41061E-11
 -1        58 3.04026E+05 1.42634E+04-1.93464E+02 9.65223E+04-3.88347E-11-1.20963E-10
 -1        59 7.10678E+04 8.88031E+04 1.21103E+01 1.55163E+05-4.45652E-10-5.30235E-10
 -1        60-4.09748E+05-3.58131E+04-4.09453E+02 2.91243E+04-2.62970E-10 7.95808E-11
 -1        61-3.87158E+05-2.39260E+04-2.21772E+02 3.13214E+04 2.08210E-10 4.81805E-10
 -1        62-3.11534E+05-2.80188E+04-3.33697E+02 7.30159E+04-2.63364E-09 1.56660E-09
 -1        63-1.80137E+05-2.90525E+04-2.85317E+02 7.27867E+04-4.76541E-09 3.51520E-10
 -1        64-7.59474E+04-1.83655E+04-1.54095E+02 4.84601E+04 4.43755E-09 9.39053E-10
 -1        65-1.65149E+04-1.48326E+04-4.53096E+01 3.07696E+04 4.38999E-09 3.32875E-10
 -1        66 1.59775E+06 2.67039E+04 5.35055E+04 1.96451E-10 4.91887E-10 1.34605E-10
 -1        67 1.60718E+06 8.49563E+03 2.88378E+04-2.44199E-10 6.90724E-10-1.43700E-10
 -1        68 1.60171E+06 1.10773E+03 1.69186E+04-5.58998E-10 4.26354E-10-5.30235E-10
 -1        69 1.60356E+06 9.50819E+02 1.67318E+04 1.19584E-09-1.03198E-09-9.82254E-11
 -1        70 1.60140E+06 2.12741E+03 2.40940E+04 1.29523E-09-2.20399E-09-5.31145E-10
 -1        71 1.61104E+06 1.53425E+04 4.87798E+04 6.94854E-10-1.03612E-09-1.14596E-09
 -1        72 1.59417E+06 4.80790E+04 9.50061E+04-1.26965E-09 4.67606E-10-2.40107E-10
 -1        73-3.65579E+04 4.15890E+05-7.13652E+04 4.12518E+05 0.00000E+00 6.43922E-10
 -1        74-1.08310E+04 4.02375E+05-3.39904E+04 4.76877E+05-1.30967E-10 4.22006E-10
 -1        75-3.99061E+02 4.08960E+05-1.17504E+04 4.11741E+05-6.73026E-11-1.81899E-11
 -1        76 3.76463E+03 4.09302E+05 1.83056E+03 4.77302E+05 1.81899E-11 1.19553E-09
 -1        77 1.05422E+04 4.06991E+05 1.60043E+04 4.12099E+05 5.82077E-11-4.98403E-10
 -1        78 9.15630E+05 3.83989E+05 2.02935E+04 5.88768E+05 2.75577E-10-7.85803E-10
 -1        79 9.28572E+05 3.67611E+05 1.07161E+04 5.89893E+05 3.28328E-10 8.51514E-11
 -1        80 9.12744E+05 3.78546E+05 5.85038E+03 5.94196E+05 8.56744E-10-2.30466E-09
 -1        81 9.26668E+05 3.64709E+05 5.05745E+03 5.90488E+05 6.02085E-10-9.79355E-10
 -1        82 9.12529E+05 3.78246E+05 6.54980E+03 5.94424E+05 7.06677E-10-2.00373E-09
 -1        83 9.27277E+05 3.65302E+05 1.19413E+04 5.90492E+05-1.06274E-09-1.52681E-10
 -1        84 9.12965E+05 3.79537E+05 2.27193E+04 5.92905E+05 1.37425E-09 7.37964E-09
 -1        85 9.38040E+05 3.78463E+05 5.01569E+04 5.87084E+05-1.08412E-09 9.68612E-11
 -1        86 9.25680E+05 4.07626E+05 9.97236E+04 5.65953E+05 6.43922E-10-9.27685E-10
 -1        87 9.86773E+05 1.54988E+04 3.11244E+04 2.56478E-10 3.92618E-11 9.09495E-10
 -1        88 9.92249E+05 4.92906E+03 1.68906E+04 6.84054E-10-9.47211E-11-4.27235E-10
 -1        89 9.89061E+05 6.35989E+02 1.01255E+04-1.18973E-10-8.95943E-12 5.50699E-10
 -1        90 9.90189E+05 5.88349E+02 1.03561E+04-8.12364E-10 2.90025E-10 1.18644E-09
 -1        91 9.88843E+05 1.36533E+03 1.52608E+04 3.19005E-10 1.67451E-10-5.17502E-10
 -1        92 9.95013E+05 9.83001E+03 3.11653E+04-2.02408E-09 1.45098E-10-6.70752E-10
 -1        93 9.84214E+05 3.07937E+04 6.08275E+04 5.54792E-10 7.54052E-11-3.49246E-10
 -1        94-5.93774E+04-4.10903E+05-1.19918E+05 8.28780E+04-9.45874E-11 2.00998E-10
 -1        95-1.95205E+04-4.32631E+05-6.68997E+04 9.57100E+04-3.50155E-11 3.31056E-10
 -1        96-4.52788E+03-4.19380E+05-4.34342E+04 8.26636E+04-5.20686E-11-3.66526E-10
 -1        97-1.36021E+04-4.29528E+05-5.20896E+04 9.59322E+04 3.45608E-11 8.84029E-10
 -1        98-4.01299E+04-4.14202E+05-8.38277E+04 8.26856E+04-1.12777E-10-8.13998E-10
 -1        99 4.46333E+05 1.60337E+05-8.95729E+03 2.79078E+05 7.51743E-09 9.56970E-09
 -1       100 4.55089E+05 1.53037E+05-4.29764E+03 2.74217E+05-1.12777E-10 1.87561E-09
 -1       101 4.47258E+05 1.63051E+05-1.53380E+03 2.76652E+05 2.93767E-10-5.81622E-10
 -1       102 4.56277E+05 1.54034E+05 1.51099E+01 2.73843E+05 4.59295E-10-1.28506E-09
 -1       103 4.47239E+05 1.63162E+05 1.56979E+03 2.76490E+05 2.82398E-10-1.83718E-10
 -1       104 4.56640E+05 1.54380E+05 4.06023E+03 2.73855E+05-1.56888E-11 3.72893E-10
 -1       105 4.47399E+05 1.63634E+05 8.38035E+03 2.75913E+05-1.95996E-10 2.99679E-10
 -1       106 4.60669E+05 1.59436E+05 1.88907E+04 2.72604E+05-1.55978E-10 1.22191E-09
 -1       107 4.52279E+05 1.74202E+05 3.77275E+04 2.65701E+05-8.36735E-11-7.18501E-10
 -1       108 6.71094E+05 1.39946E+04 2.79494E+04-9.09495E-13-8.36723E-11 7.12134E-10
 -1       109 6.76031E+05 4.45673E+03 1.48807E+04-1.13278E-09 9.35310E-11-4.39286E-10
 -1       110 6.73171E+05 5.89821E+02 8.38800E+03 3.85427E-10 5.62139E-11-2.00316E-10
 -1       111 6.74056E+05 4.40996E+02 7.76333E+03 1.52485E-09-1.22211E-12-3.47029E-10
 -1       112 6.73075E+05 9.09978E+02 1.06430E+04 6.60009E-10 4.70231E-11-6.32099E-11
 -1       113 6.77246E+05 6.60898E+03 2.11494E+04 7.20775E-11-9.85885E-12-3.54703E-11
 -1       114 6.69971E+05 2.07101E+04 4.09928E+04 3.81988E-11-6.54407E-11-4.67480E-10
 -1       115-4.22127E+04-3.78055E+05-8.56735E+04 7.71503E+03 7.27596E-12 9.73159E-11
 -1       116-1.39670E+04-3.93566E+05-4.86373E+04 8.83066E+03-9.64064E-11 1.05410E-09
 -1       117-3.48045E+03-3.83947E+05-3.30983E+04 7.65813E+03 5.52518E-11 1.10504E-10
 -1       118-1.13445E+04-3.92154E+05-4.20369E+04 8.92953E+03-1.55069E-10 6.09134E-10
 -1       119-3.36605E+04-3.79476E+05-6.95889E+04 7.62652E+03-3.63798E-12 5.22959E-11
 -1       120 2.63292E+05 8.83222E+04-5.77292E+03 1.60705E+05 1.47793E-12 3.18323E-10
 -1       121 2.69082E+05 8.34734E+04-2.80999E+03 1.57540E+05-2.56932E-10 1.03876E-09
 -1       122 2.63898E+05 9.00739E+04-1.08573E+03 1.59155E+05 1.59616E-10-2.62617E-11
 -1       123 2.69847E+05 8.41119E+04-2.00863E+02 1.57302E+05-7.26050E-09-1.08962E-08
 -1       124 2.63893E+05 9.01482E+04 5.93810E+02 1.59058E+05 2.78533E-10-1.17529E-09
 -1       125 2.70023E+05 8.42784E+04 1.74260E+03 1.57310E+05-1.37561E-10-6.52335E-10
 -1       126 2.63966E+05 9.03532E+04 3.67667E+03 1.58803E+05-4.35421E-11 2.01453E-10
 -1       127 2.71771E+05 8.65470E+04 8.33167E+03 1.56770E+05 5.61613E-11 7.44194E-10
 -1       128 2.66151E+05 9.49862E+04 1.66569E+04 1.54285E+05-3.54703E-11-2.34650E-10
 -1       129 4.81660E+05 1.06102E+04 2.11571E+04 1.05547E-09-6.93723E-11-3.53793E-10
 -1       130 4.85399E+05 3.38046E+03 1.12009E+04 1.42245E-09 1.07848E-10-1.04023E-09
 -1       131 4.83236E+05 4.50574E+02 6.19320E+03-4.17714E-10 1.05605E-10-4.45084E-10
 -1       132 4.83877E+05 3.14447E+02 5.53597E+03-9.77479E-10 1.94147E-11 2.93738E-11
 -1       133 4.83186E+05 6.18735E+02 7.37785E+03 1.56410E-09 4.88652E-11-8.23093E-11
 -1       134 4.86038E+05 4.51117E+03 1.44943E+04 7.62839E-11-3.04684E-11-6.93490E-11
 -1       135 4.81070E+05 1.41384E+04 2.80100E+04 1.05501E-10-2.62262E-12 2.34650E-10
 -1       136-2.90349E+04-2.58303E+05-5.90228E+04-1.34581E+04-1.09139E-11 7.84439E-11
 -1       137-9.62074E+03-2.68994E+05-3.36941E+04-1.56272E+04-3.54703E-11-7.28733E-10
 -1       138-2.44650E+03-2.62336E+05-2.32636E+04-1.34631E+04 2.54659E-11-3.74257E-10
 -1       139-8.16938E+03-2.68206E+05-3.00356E+04-1.55771E+04 7.43512E-11 1.32752E-09
 -1       140-2.42977E+04-2.59084E+05-5.01066E+04-1.35045E+04 1.09139E-11 2.73758E-10
 -1       141 1.74176E+05 5.90598E+04-5.01229E+03 1.07360E+05 3.83693E-11-7.60338E-10
 -1       142 1.77939E+05 5.61218E+04-2.47507E+03 1.04994E+05 6.13909E-12-9.87654E-10
 -1       143 1.74733E+05 6.05528E+04-1.03037E+03 1.06017E+05-6.75300E-11-2.36753E-10
 -1       144 1.78570E+05 5.66998E+04-3.62087E+02 1.04796E+05-3.41061E-12 2.63242E-10
 -1       145 1.74739E+05 6.06199E+04 1.43282E+02 1.05938E+05 2.25100E-10-1.88493E-10
 -1       146 1.78670E+05 5.67939E+04 7.33863E+02 1.04802E+05 6.34657E-11-2.53067E-10
 -1       147 1.74773E+05 6.07107E+04 1.65506E+03 1.05820E+05-5.04770E-11-3.02407E-11
 -1       148 1.79453E+05 5.78541E+04 3.80649E+03 1.04561E+05-2.37037E-10-2.19188E-10
 -1       149 1.75793E+05 6.28171E+04 7.63554E+03 1.03742E+05-6.09361E-11 1.11868E-10
 -1       150 3.61013E+05 7.69978E+03 1.53495E+04-4.44743E-10-4.77702E-11 2.65572E-10
 -1       151 3.63725E+05 2.45343E+03 8.11738E+03-2.20325E-10-2.08186E-10 1.76897E-10
 -1       152 3.62157E+05 3.27417E+02 4.47146E+03 5.13580E-10-4.36647E-11 6.13909E-11
 -1       153 3.62616E+05 2.25440E+02 3.96923E+03 5.16913E-10 7.19419E-11-7.37188E-11
 -1       154 3.62124E+05 4.39196E+02 5.25899E+03-5.19293E-10 9.07614E-11-2.21689E-10
 -1       155 3.64149E+05 3.20513E+03 1.03069E+04-7.70569E-10 1.37558E-10-6.19934E-10
 -1       156 3.60621E+05 1.00450E+04 1.99050E+04-6.19366E-10-1.38051E-11 4.54747E-11
 -1       157-1.92266E+04-1.41544E+05-3.91013E+04-1.98677E+04-2.36469E-11 1.51061E-10
 -1       158-6.37182E+03-1.48631E+05-2.23548E+04-2.30192E+04-3.38787E-11 5.86041E-10
 -1       159-1.62849E+03-1.44213E+05-1.54953E+04-1.98518E+04-6.82121E-12-5.27507E-11
 -1       160-5.47449E+03-1.48144E+05-2.00924E+04-2.29941E+04 1.45519E-11-2.60798E-10
 -1       161-1.62970E+04-1.42026E+05-3.35869E+04-1.98917E+04 6.36646E-11 3.29237E-10
 -1       162 1.20367E+05 4.20096E+04-5.48016E+03 7.60535E+04 2.61480E-11 3.65162E-10
 -1       163 1.22826E+05 4.04523E+04-2.73667E+03 7.39579E+04 6.73026E-11-3.62547E-10
 -1       164 1.21009E+05 4.36067E+04-1.19946E+03 7.45822E+04 5.57066E-11-2.60457E-10
 -1       165 1.23480E+05 4.11182E+04-5.51296E+02 7.37529E+04-2.13504E-10 2.30102E-10
 -1       166 1.21024E+05 4.36808E+04-1.52340E+02 7.44986E+04-4.16094E-11 2.63924E-10
 -1       167 1.23544E+05 4.11788E+04 1.55943E+02 7.37565E+04 1.66835E-11-2.83080E-10
 -1       168 1.21035E+05 4.37084E+04 5.33816E+02 7.44557E+04 3.66072E-11 9.04947E-11
 -1       169 1.23803E+05 4.15728E+04 1.31821E+03 7.36806E+04-6.80416E-11 3.66072E-11
 -1       170 1.21412E+05 4.44324E+04 2.68296E+03 7.37193E+04-8.86757E-11 1.38584E-10
 -1       171 2.71813E+05 5.28224E+03 1.05447E+04-3.50383E-10 3.96214E-11 1.03682E-10
 -1       172 2.73673E+05 1.68260E+03 5.60277E+03-4.07965E-10 3.14046E-11 3.05533E-10
 -1       173 2.72596E+05 2.23138E+02 3.13644E+03-1.03057E-10 3.31410E-11 3.83693E-11
 -1       174 2.72923E+05 1.62897E+02 2.86811E+03-6.02444E-10 7.89657E-11-4.16165E-11
 -1       175 2.72564E+05 3.30752E+02 3.89469E+03-2.46274E-10-1.95591E-11 1.34492E-10
 -1       176 2.74082E+05 2.40640E+03 7.71096E+03-1.57286E-10-1.12221E-10 2.17938E-10
 -1       177 2.71435E+05 7.54013E+03 1.49308E+04-5.66160E-10-1.05252E-10-6.91216E-11
 -1       178-1.32054E+04-7.32501E+04-2.68718E+04-2.27893E+04-1.81899E-11-8.73115E-11
 -1       179-4.37768E+03-7.81240E+04-1.53937E+04-2.63882E+04 1.09139E-11-3.21336E-10
 -1       180-1.12622E+03-7.50810E+04-1.07252E+04-2.27638E+04-1.63709E-11-1.53079E-10
 -1       181-3.81934E+03-7.78210E+04-1.39859E+04-2.63742E+04-9.03810E-12-3.55840E-10
 -1       182-1.13824E+04-7.35500E+04-2.34403E+04-2.28029E+04 1.54614E-11-1.34037E-10
 -1       183 9.67122E+04 3.23139E+04-4.41265E+03 6.01510E+04-5.55929E-11 2.01908E-10
 -1       184 9.88329E+04 3.09194E+04-2.20933E+03 5.84234E+04-2.63753E-11 2.16062E-10
 -1       185 9.72284E+04 3.36024E+04-9.79853E+02 5.89681E+04 1.28807E-10 1.58991E-10
 -1       186 9.93603E+04 3.14534E+04-4.74645E+02 5.82574E+04 1.43473E-10 1.26263E-10
 -1       187 9.72415E+04 3.36624E+04-1.83716E+02 5.89011E+04-4.00178E-11 2.13731E-10
 -1       188 9.94032E+04 3.14940E+04-2.24656E+00 5.82599E+04-9.87370E-11 2.66823E-10
 -1       189 9.72457E+04 3.36700E+04 1.77755E+02 5.88836E+04 4.65832E-11-2.09297E-10
 -1       190 9.94857E+04 3.16694E+04 4.99350E+02 5.82390E+04 2.23963E-11-3.95630E-11
 -1       191 9.74109E+04 3.39314E+04 1.03993E+03 5.85918E+04 2.41016E-11-8.59472E-11
 -1       192 1.48632E+05 9.56220E+02 1.95018E+03-1.18234E-10-9.14148E-12 3.09797E-10
 -1       193 1.48967E+05 3.03064E+02 1.11169E+03-4.45858E-10 8.65106E-11 3.22927E-10
 -1       194 1.48771E+05 3.62339E+01 7.65577E+02 1.97694E-10 1.75022E-11 7.16618E-11
 -1       195 1.48861E+05 5.31337E+01 9.35565E+02-2.56179E-10-2.87774E-12 1.79774E-10
 -1       196 1.48738E+05 1.44421E+02 1.52796E+03-1.18838E-10-4.05305E-11 8.67999E-11
 -1       197 1.49378E+05 1.03083E+03 3.23144E+03-3.14429E-10-4.86671E-11 2.30841E-10
 -1       198 1.48253E+05 3.22647E+03 6.36036E+03-3.01270E-10 8.95422E-12-5.86624E-11
 -1       199-1.03680E+04-6.27312E+04-2.11714E+04-1.19286E+04 2.72848E-11-4.53042E-11
 -1       200-3.45012E+03-6.65752E+04-1.22769E+04-1.38128E+04 1.54614E-11-1.92621E-10
 -1       201-9.26465E+02-6.41550E+04-8.81497E+03-1.19154E+04 3.99041E-11-2.16659E-10
 -1       202-3.28874E+03-6.64876E+04-1.18700E+04-1.38050E+04 1.09139E-11 1.33326E-10
 -1       203-9.84107E+03-6.28179E+04-2.01795E+04-1.19362E+04-7.27596E-12-2.93767E-10
 -1       204 1.13610E+05 5.15006E+04 3.44429E+03 7.51158E+04-4.67253E-11-1.68768E-10
 -1       205 1.14865E+05 4.96576E+04 1.74351E+03 7.55971E+04-3.22871E-11-1.52411E-10
 -1       206 1.13152E+05 5.05505E+04 8.11196E+02 7.60513E+04-1.28011E-10-1.50962E-10
 -1       207 1.14515E+05 4.91831E+04 4.69539E+02 7.57100E+04-1.53250E-10 1.91207E-10
 -1       208 1.13133E+05 5.05064E+04 3.40199E+02 7.61029E+04 2.03784E-10-3.50894E-10
 -1       209 1.14510E+05 4.91779E+04 4.13523E+02 7.57094E+04 6.49345E-09 7.13197E-09
 -1       210 1.13149E+05 5.05430E+04 6.73865E+02 7.60612E+04 1.81331E-10-8.30482E-11
 -1       211 1.14792E+05 4.95627E+04 1.42196E+03 7.56168E+04-1.92472E-10-1.43388E-10
 -1       212 1.13522E+05 5.13140E+04 2.79743E+03 7.53019E+04-1.80762E-10 1.21872E-10
 -1       213 1.30593E+04-4.01768E+03-8.00559E+03 5.13637E-10 4.00477E-11-3.63798E-11
 -1       214 1.16271E+04-1.28052E+03-4.22520E+03-4.84420E-10 1.72430E-11-8.42419E-11
 -1       215 1.24625E+04-1.71243E+02-2.31101E+03 2.53166E-10 1.19887E-11-5.41718E-11
 -1       216 1.22094E+04-1.14968E+02-2.02448E+03 9.37632E-11 7.55901E-11-2.16986E-10
 -1       217 1.24769E+04-2.19638E+02-2.65208E+03-2.69551E-10 6.58036E-11 1.11072E-10
 -1       218 1.14431E+04-1.60613E+03-5.17357E+03-7.74776E-11-1.35642E-11 3.84716E-10
 -1       219 1.32289E+04-5.03326E+03-9.97856E+03 2.74895E-10 2.94101E-11 2.38742E-10
 -1       220-2.85714E+03 3.47167E+04-6.06179E+03 2.04962E+04 1.59162E-11-8.02629E-11
 -1       221-9.86372E+02 3.35942E+04-3.96440E+03 2.37100E+04-1.43700E-10-9.11768E-11
 -1       222-3.79610E+02 3.43618E+04-3.62695E+03 2.04629E+04 3.31966E-11-2.17881E-10
 -1       223-1.78260E+03 3.31635E+04-5.97061E+03 2.37179E+04-1.67347E-10-4.91809E-10
 -1       224-5.45657E+03 3.51458E+04-1.09525E+04 2.04884E+04 3.27418E-11-3.11502E-11
 -1       225 8.62419E+04 7.16158E+04 6.97067E+03 7.63841E+04-2.59547E-10-1.59616E-10
 -1       226 8.39972E+04 7.26797E+04 3.48258E+03 7.87671E+04-9.93623E-11-1.39622E-10
 -1       227 8.53899E+04 6.96163E+04 1.52929E+03 7.82607E+04-2.78675E-10 6.73595E-12
 -1       228 8.32009E+04 7.17964E+04 7.09506E+02 7.90145E+04 2.02078E-11-1.96110E-10
 -1       229 8.53658E+04 6.95257E+04 2.09600E+02 7.83670E+04 2.46700E-11-1.07434E-10
 -1       230 8.31248E+04 7.17172E+04-1.65422E+02 7.90094E+04 1.76328E-10 2.37833E-10
 -1       231 8.53550E+04 6.94946E+04-6.14238E+02 7.84197E+04-1.06184E-10-1.48020E-10
 -1       232 8.28307E+04 7.12530E+04-1.53230E+03 7.91002E+04 8.68567E-11-1.03000E-10
 -1       233 8.49135E+04 6.86552E+04-3.12599E+03 7.92839E+04 8.82210E-11-2.84217E-11
 -1       241 5.03395E+03 2.01047E+05 9.95847E+03 1.17965E+04-1.61435E-11 1.42791E-10
 -1       242 1.62295E+03 2.02816E+05 5.13857E+03 1.35976E+04 8.77662E-11-8.71978E-11
 -1       243 2.72619E+02 2.01792E+05 2.58568E+03 1.17555E+04-6.82121E-13-1.78034E-10
 -1       244 3.55710E+02 2.02130E+05 1.94402E+03 1.36454E+04 1.59957E-10-6.03677E-11
 -1       245 8.95326E+02 2.01729E+05 2.17025E+03 1.17485E+04 3.96767E-11-1.89857E-11
 -1       323 4.23472E+04-1.00539E+04-1.98222E+04 1.10261E+05-1.32786E-10 5.18412E-10
 -1       324 3.87495E+04-3.25873E+03-1.05867E+04 1.27290E+05-7.63976E-11 5.82077E-11
 -1       325 4.07309E+04-4.80860E+02-6.04815E+03 1.09961E+05-5.00222E-11-6.35737E-10
 -1       326 3.99994E+04-3.63346E+02-5.72508E+03 1.27617E+05-6.41194E-11 5.11136E-10
 -1       327 4.07496E+04-7.17830E+02-7.99632E+03 1.09945E+05 3.81988E-11 6.98037E-10
 -1       328 3.75473E+04-5.04348E+03-1.60101E+04 1.27478E+05-9.34506E-11 7.09406E-11
 -1       329 4.31346E+04-1.57565E+04-3.10966E+04 1.10094E+05 3.86535E-11-4.65661E-10
 -1       330-1.22588E+04-2.91771E+03-2.41225E+04 5.06624E+04-3.72893E-11-3.91083E-10
 -1       331-3.85885E+03-7.23445E+03-1.19252E+04 5.87908E+04-7.38964E-11-1.29899E-09
 -1       332-4.70826E+02-4.77463E+03-4.98327E+03 5.06605E+04-1.22611E-10-2.94676E-10
 -1       333 1.75294E+02-5.01499E+03-1.72348E+03 5.86292E+04-1.81899E-10-2.87400E-10
 -1       334 9.32638E+02-5.05294E+03 7.44848E+02 5.08131E+04 5.36602E-11-3.68345E-10
 -1       335 2.60030E+05 2.00470E+05 2.34422E+04 2.18837E+05 2.34650E-10 4.23825E-10
 -1       336 2.55058E+05 2.01499E+05 1.19588E+04 2.26084E+05 1.17780E-10-3.71074E-10
 -1       337 2.57224E+05 1.93680E+05 5.75098E+03 2.25086E+05 6.73026E-11 2.10093E-10
 -1       338 2.52345E+05 1.98625E+05 3.69069E+03 2.26951E+05-1.65528E-10 4.06430E-10
 -1       339 2.57102E+05 1.93339E+05 3.29613E+03 2.25410E+05 1.88265E-10-2.35332E-10
 -1       340 2.52429E+05 1.98738E+05 4.86801E+03 2.26947E+05 2.18279E-11-6.56740E-10
 -1       341 2.57268E+05 1.93838E+05 8.63852E+03 2.24848E+05 1.93722E-10 2.18733E-10
 -1       342 2.56499E+05 2.03527E+05 1.87111E+04 2.25631E+05 8.09450E-11 3.01952E-10
 -1       343 2.61897E+05 2.04351E+05 3.70379E+04 2.14859E+05 2.00998E-10 4.01997E-10
 -1       344 5.23030E+05 9.92265E+03 1.99320E+04 9.91253E+04-2.04636E-10 7.74889E-10
 -1       345 5.26502E+05 3.15516E+03 1.06138E+04 1.14482E+05-1.27784E-10 9.00400E-11
 -1       346 5.24408E+05 4.15532E+02 5.97183E+03 9.88698E+04 4.54747E-12-1.42336E-10
 -1       347 5.25008E+05 3.29508E+02 5.51320E+03 1.14740E+05 2.81943E-11 4.86580E-10
 -1       348 5.24311E+05 6.56984E+02 7.53632E+03 9.88616E+04 1.51601E-10 3.30147E-10
 -1       349 5.27271E+05 4.68536E+03 1.49601E+04 1.14582E+05-1.27557E-10 1.27784E-10
 -1       350 5.22162E+05 1.46299E+04 2.89788E+04 9.90318E+04 2.54659E-11-1.59162E-10
 -1       351-2.38356E+04-1.10635E+05-4.79715E+04 1.42076E+05-1.38243E-10 6.20275E-10
 -1       352-7.63338E+03-1.19353E+05-2.59206E+04 1.64436E+05 1.68257E-11-1.86446E-11
 -1       353-1.45391E+03-1.14161E+05-1.53327E+04 1.41875E+05-1.82808E-10 8.68283E-10
 -1       354-3.72992E+03-1.17236E+05-1.60797E+04 1.64420E+05-2.31012E-10 5.85032E-10
 -1       355-1.10919E+04-1.12733E+05-2.39852E+04 1.42087E+05-6.91216E-11-1.02773E-10
 -1       356 4.40170E+05 2.51742E+05 3.57003E+04 3.14045E+05 2.69210E-10-1.63709E-10
 -1       357 4.40200E+05 2.45716E+05 1.82065E+04 3.22875E+05 3.63798E-11 5.25915E-10
 -1       358 4.35708E+05 2.41619E+05 8.74663E+03 3.23656E+05 6.46310E-11 7.59428E-11
 -1       359 4.36305E+05 2.41116E+05 5.59056E+03 3.24159E+05 1.00613E-11-4.51337E-10
 -1       360 4.35518E+05 2.41119E+05 4.96346E+03 3.24180E+05 7.27596E-12 4.71346E-10
 -1       361 4.36455E+05 2.41269E+05 7.29297E+03 3.24171E+05-4.22915E-11 5.74616E-10
 -1       362 4.35777E+05 2.41856E+05 1.29172E+04 3.23352E+05-1.25510E-10 3.63343E-10
 -1       363 4.42473E+05 2.48492E+05 2.79623E+04 3.22234E+05-1.64164E-10 2.13504E-10
 -1       364 4.42764E+05 2.57499E+05 5.53451E+04 3.08409E+05-9.82254E-11-2.60115E-10
 -1       365 5.20743E+05 1.45427E+04 2.89822E+04 5.72085E+04 6.09361E-11 1.38425E-09
 -1       366 5.25864E+05 4.63678E+03 1.52667E+04 6.60871E+04 1.10731E-10 1.36367E-10
 -1       367 5.22878E+05 6.24986E+02 8.29159E+03 5.70674E+04 2.68301E-11 7.41238E-11
 -1       368 5.23720E+05 4.16003E+02 7.16319E+03 6.62272E+04-6.13909E-11 1.90084E-10
 -1       369 5.22830E+05 7.67697E+02 9.26618E+03 5.70643E+04-1.10163E-10-1.57343E-10
 -1       370 5.26373E+05 5.57534E+03 1.79755E+04 6.61262E+04-6.90079E-11-2.80124E-10
 -1       371 5.20238E+05 1.74557E+04 3.46189E+04 5.71708E+04 1.00044E-11-2.89219E-10
 -1       372-3.04246E+04-3.19580E+05-6.19000E+04 9.64489E+04-6.54836E-11 2.36923E-10
 -1       373-1.00182E+04-3.30820E+05-3.52646E+04 1.11604E+05-4.27804E-10-8.61746E-11
 -1       374-2.48341E+03-3.23861E+05-2.42297E+04 9.62974E+04-7.91260E-11 7.69660E-11
 -1       375-8.36456E+03-3.29940E+05-3.11121E+04 1.11629E+05-4.72937E-10 7.44876E-10
 -1       376-2.50364E+04-3.20486E+05-5.17790E+04 9.64256E+04 8.91305E-11-3.01043E-10
 -1       377 3.59337E+05 1.79975E+05 2.91396E+04 2.39337E+05 4.27463E-11-1.94632E-10
 -1       378 3.61858E+05 1.72556E+05 1.48262E+04 2.45816E+05 1.56433E-10-3.21052E-10
 -1       379 3.55632E+05 1.71770E+05 7.05443E+03 2.47199E+05 1.72349E-10-4.07681E-10
 -1       380 3.58734E+05 1.68736E+05 4.38225E+03 2.46839E+05 1.20735E-10 8.13998E-11
 -1       381 3.55477E+05 1.71372E+05 3.69167E+03 2.47630E+05 5.18696E-11 2.56023E-10
 -1       382 3.58807E+05 1.68808E+05 5.20011E+03 2.46845E+05 1.28637E-10-1.06263E-09
 -1       383 3.55665E+05 1.71885E+05 9.05875E+03 2.47055E+05 1.31877E-11-3.39810E-10
 -1       384 3.62965E+05 1.73879E+05 1.95152E+04 2.45507E+05-3.63798E-11 4.23825E-10
 -1       385 3.60572E+05 1.82752E+05 3.85800E+04 2.36634E+05 1.14596E-10 1.29148E-10
 -1       386 4.21475E+05 1.21584E+04 2.42013E+04 3.50847E+04 1.44155E-10 3.52884E-10
 -1       387 4.25759E+05 3.87724E+03 1.27186E+04 4.05349E+04 1.17097E-10-2.62787E-10
 -1       388 4.23275E+05 5.23507E+02 6.85236E+03 3.50007E+04 5.68434E-11-6.48015E-11
 -1       389 4.23968E+05 3.35257E+02 5.82614E+03 4.06187E+04-2.16545E-10-3.61979E-10
 -1       390 4.23248E+05 6.06756E+02 7.42927E+03 3.49991E+04-7.84439E-11-5.87988E-10
 -1       391 4.26065E+05 4.43046E+03 1.43223E+04 4.05545E+04 1.23919E-11 2.66482E-10
 -1       392 4.21182E+05 1.38802E+04 2.75386E+04 3.50660E+04 1.24146E-10 1.26420E-10
 -1       393-2.56698E+04-2.84866E+05-5.23961E+04 5.65303E+04 6.36646E-11-3.25599E-10
 -1       394-8.51713E+03-2.94376E+05-3.02823E+04 6.54043E+04 1.75419E-10 4.43265E-10
 -1       395-2.24606E+03-2.88416E+05-2.15669E+04 5.64383E+04 1.51431E-10 4.21778E-11
 -1       396-7.92581E+03-2.94063E+05-2.87993E+04 6.54262E+04 3.09228E-10-1.64050E-10
 -1       397-2.37441E+04-2.85192E+05-4.87813E+04 5.65099E+04 2.36469E-11-3.93356E-11
 -1       398 2.77300E+05 1.36398E+05 2.19957E+04 1.83294E+05 4.84761E-10-4.76575E-10
 -1       399 2.79480E+05 1.30521E+05 1.11725E+04 1.88105E+05-7.60338E-10 3.77440E-11
 -1       400 2.74494E+05 1.30214E+05 5.27735E+03 1.89232E+05-5.95833E-09-3.97426E-09
 -1       401 2.77126E+05 1.27624E+05 3.20618E+03 1.88871E+05-7.38510E-10 1.01954E-09
 -1       402 2.74379E+05 1.29916E+05 2.58467E+03 1.89558E+05 5.62238E-10-1.18689E-10
 -1       403 2.77153E+05 1.27650E+05 3.50305E+03 1.88873E+05 6.04146E-10-4.21210E-10
 -1       404 2.74506E+05 1.30256E+05 6.00481E+03 1.89180E+05 4.13593E-10-1.74140E-10
 -1       405 2.79883E+05 1.30996E+05 1.28738E+04 1.87991E+05 1.65414E-10-2.48775E-10
 -1       406 2.77746E+05 1.37409E+05 2.54219E+04 1.82313E+05 5.09317E-11-3.92902E-10
 -1       407 3.33916E+05 9.20121E+03 1.83102E+04 1.90800E+04-1.56888E-11-6.84850E-10
 -1       408 3.37158E+05 2.93366E+03 9.61962E+03 2.20462E+04 3.27418E-11-7.86713E-10
 -1       409 3.35282E+05 3.95423E+02 5.17767E+03 1.90353E+04 1.73941E-11-7.68381E-11
 -1       410 3.35805E+05 2.50887E+02 4.39370E+03 2.20910E+04 6.26414E-11-8.89031E-11
 -1       411 3.35264E+05 4.54723E+02 5.59312E+03 1.90345E+04 6.81553E-11 2.27374E-12
 -1       412 3.37380E+05 3.33084E+03 1.07746E+04 2.20552E+04 3.47313E-11 1.90084E-10
 -1       413 3.33707E+05 1.04392E+04 2.07133E+04 1.90715E+04-7.19638E-11 1.51886E-10
 -1       414-1.77068E+04-1.68389E+05-3.62381E+04 3.55404E+04 1.18234E-10-2.25327E-10
 -1       415-5.89806E+03-1.74973E+05-2.11557E+04 4.11103E+04 1.38130E-10-7.95694E-10
 -1       416-1.61491E+03-1.70815E+05-1.54363E+04 3.54796E+04 2.49202E-10-2.10491E-10
 -1       417-5.88653E+03-1.74971E+05-2.11302E+04 4.11304E+04 1.32786E-10-2.11003E-10
 -1       418-1.76713E+04-1.68399E+05-3.61759E+04 3.55213E+04 1.50976E-10-6.89965E-10
 -1       419 1.92946E+05 9.77120E+04 1.28939E+04 1.30683E+05 1.69621E-10-2.04409E-10
 -1       420 1.94146E+05 9.43396E+04 6.55141E+03 1.33522E+05 2.59774E-10-4.26780E-10
 -1       421 1.91297E+05 9.40895E+04 3.09887E+03 1.34164E+05 2.06910E-10-2.50793E-10
 -1       422 1.92770E+05 9.26389E+04 1.89128E+03 1.33971E+05-3.06500E-10 3.04624E-10
 -1       423 1.91229E+05 9.39156E+04 1.53868E+03 1.34355E+05-6.66284E-09-7.35668E-09
 -1       424 1.92790E+05 9.26565E+04 2.10294E+03 1.33972E+05-2.58602E-10 5.27692E-10
 -1       425 1.91304E+05 9.41206E+04 3.61772E+03 1.34127E+05 1.46997E-10-2.68187E-10
 -1       426 1.94444E+05 9.46693E+04 7.76507E+03 1.33438E+05 1.35060E-10-1.05501E-10
 -1       427 1.93253E+05 9.84427E+04 1.53374E+04 1.29985E+05-8.77662E-11-1.22327E-10
 -1       428 3.02809E+05 8.78174E+03 1.74691E+04 7.56059E+03-6.82121E-12-2.41926E-10
 -1       429 3.05905E+05 2.79957E+03 9.16853E+03 8.73458E+03 4.96243E-11-2.04523E-10
 -1       430 3.04116E+05 3.77243E+02 4.91759E+03 7.54212E+03 2.62048E-11-1.63766E-10
 -1       431 3.04612E+05 2.35472E+02 4.14351E+03 8.75312E+03-4.84306E-11 1.74168E-10
 -1       432 3.04102E+05 4.23089E+02 5.24009E+03 7.54172E+03-6.86100E-11 1.45519E-10
 -1       433 3.06078E+05 3.10756E+03 1.00652E+04 8.73968E+03-1.16586E-10 7.23048E-11
 -1       434 3.02648E+05 9.74215E+03 1.93345E+04 7.55577E+03-1.39153E-10 6.00267E-11
 -1       435-1.09745E+04-6.59229E+04-2.24548E+04 8.20214E+03 1.36424E-11-1.47566E-10
 -1       436-3.65931E+03-7.00034E+04-1.31107E+04 9.46607E+03-7.84439E-12-1.25681E-10
 -1       437-1.00549E+03-6.74228E+04-9.56914E+03 8.17826E+03 5.11022E-11-3.65731E-10
 -1       438-3.65545E+03-7.00023E+04-1.31020E+04 9.49047E+03-1.50067E-11-1.53193E-11
 -1       439-1.09625E+04-6.59261E+04-2.24336E+04 8.17853E+03 1.63709E-11-9.23421E-11
 -1       440 1.18397E+05 4.90134E+04 2.87161E+03 7.55621E+04 4.88853E-12-2.21917E-10
 -1       441 1.20157E+05 4.67610E+04 1.47755E+03 7.57505E+04-9.25411E-11-3.29550E-11
 -1       442 1.18002E+05 4.82346E+04 7.35760E+02 7.63425E+04-4.38831E-11-1.12266E-10
 -1       443 1.19883E+05 4.63549E+04 5.18729E+02 7.58434E+04 2.76032E-10-2.94676E-10
 -1       444 1.17981E+05 4.81960E+04 5.36494E+02 7.63841E+04-7.31569E-09-1.05941E-08
 -1       445 1.19916E+05 4.63854E+04 8.73972E+02 7.58452E+04 1.03654E-10 4.20641E-11
 -1       446 1.18015E+05 4.82855E+04 1.60629E+03 7.62790E+04-4.21778E-11-1.27898E-11
 -1       447 1.20649E+05 4.73247E+04 3.51450E+03 7.56117E+04-1.81331E-10 1.72577E-10
 -1       448 1.18921E+05 5.02301E+04 6.97197E+03 7.43897E+04-5.95719E-11 3.15140E-10
 -1       449 2.68115E+05 7.89168E+03 1.56604E+04 1.53524E+04 9.27685E-11 2.18279E-10
 -1       450 2.70891E+05 2.51809E+03 8.14941E+03 1.77469E+04 7.30438E-11-3.27759E-10
 -1       451 2.69292E+05 3.43675E+02 4.23632E+03 1.53198E+04 5.13865E-11-1.08955E-10
 -1       452 2.69701E+05 1.90876E+02 3.33865E+03 1.77793E+04-6.41709E-11 3.91083E-11
 -1       453 2.69304E+05 3.02773E+02 3.94815E+03 1.53197E+04-5.28644E-12 3.33557E-10
 -1       454 2.70736E+05 2.24299E+03 7.34818E+03 1.77467E+04 1.10731E-10 5.18412E-11
 -1       455 2.68259E+05 7.03364E+03 1.39936E+04 1.53526E+04 5.16138E-11 1.81899E-11
 -1       456-1.10996E+04-8.62830E+04-2.26180E+04-1.19183E+04-3.81988E-11-3.84773E-10
 -1       457-3.68616E+03-9.03844E+04-1.30225E+04-1.38062E+04 1.61435E-11 3.36151E-10
 -1       458-9.66062E+02-8.78151E+04-9.18841E+03-1.19077E+04-7.50333E-12-1.16927E-10
 -1       459-3.33906E+03-9.01962E+04-1.21475E+04-1.37934E+04 3.78009E-11 1.51545E-10
 -1       460-9.96634E+03-8.64696E+04-2.04851E+04-1.19307E+04-5.82077E-11 2.91720E-10
 -1       461 1.29462E+05 4.06818E+04 4.94446E+03 7.30550E+04-4.22915E-11-8.12861E-11
 -1       462 1.32722E+05 3.65842E+04 2.50899E+03 7.33226E+04-7.56017E-11-4.14957E-11
 -1       463 1.28793E+05 3.93284E+04 1.17909E+03 7.43987E+04 1.38243E-10-4.19618E-10
 -1       464 1.32231E+05 3.58927E+04 7.05182E+02 7.34815E+04 9.52696E-11-1.80080E-10
 -1       465 1.28764E+05 3.92649E+04 5.49757E+02 7.44731E+04 1.01551E-10-2.05318E-10
 -1       466 1.32231E+05 3.58966E+04 7.22190E+02 7.34841E+04 1.00499E-10-8.83347E-11
 -1       467 1.28798E+05 3.93286E+04 1.22083E+03 7.43982E+04 5.72982E-11-6.09361E-11
 -1       468 1.32720E+05 3.66380E+04 2.60614E+03 7.33287E+04-4.84306E-11-2.21007E-10
 -1       469 1.29516E+05 4.07150E+04 5.14095E+03 7.29972E+04-2.38742E-10 1.68711E-10
 -1       470 4.05642E+04-5.16011E+03-1.03123E+04 3.50001E+04-6.95763E-11-1.45974E-10
 -1       471 3.87134E+04-1.63937E+03-5.49289E+03 4.04967E+04 1.66892E-10 2.21007E-10
 -1       472 3.97939E+04-2.12814E+02-3.10150E+03 3.49400E+04-2.74696E-10 5.18412E-11
 -1       473 3.94396E+04-1.58349E+02-2.88019E+03 4.05541E+04-8.48672E-11-2.04636E-10
 -1       474 3.98337E+04-3.36870E+02-3.96022E+03 3.49429E+04 6.41194E-11 1.19371E-10
 -1       475 3.82588E+04-2.46337E+03-7.88023E+03 4.04635E+04-1.42109E-10 1.31820E-10
 -1       476 4.10016E+04-7.72242E+03-1.52791E+04 3.50295E+04-2.54659E-11-3.18323E-10
 -1       477-1.40576E+04-1.25374E+05-2.86864E+04 1.39514E+04-3.27418E-11 1.39778E-10
 -1       478-4.67515E+03-1.30576E+05-1.65950E+04 1.61921E+04-7.95808E-13 4.21551E-10
 -1       479-1.24579E+03-1.27306E+05-1.18461E+04 1.39529E+04 1.49498E-11 1.41654E-10
 -1       480-4.38276E+03-1.30415E+05-1.58555E+04 1.61481E+04 8.00355E-11 1.95087E-10
 -1       481-1.31017E+04-1.25528E+05-2.68841E+04 1.39936E+04-3.18323E-11-2.75804E-10
 -1       482 3.18980E+05 1.32071E+05 3.14229E+04 1.91007E+05-3.49246E-10-5.92081E-10
 -1       483 3.24152E+05 1.21606E+05 1.57958E+04 1.97299E+05-1.01409E-10 1.44610E-10
 -1       484 3.14990E+05 1.23210E+05 7.13446E+03 1.99505E+05-2.16232E-10-2.28738E-10
 -1       485 3.20745E+05 1.17473E+05 3.71299E+03 1.98385E+05-2.26308E-11 1.49612E-10
 -1       486 3.14858E+05 1.22802E+05 1.96799E+03 1.99988E+05-2.41016E-11-1.74168E-10
 -1       487 3.20535E+05 1.17284E+05 1.39660E+03 1.98388E+05 5.28416E-10 4.77485E-10
 -1       488 3.14923E+05 1.22866E+05 1.45477E+03 1.99938E+05-8.13543E-10-4.07454E-10
 -1       489 3.20875E+05 1.18036E+05 2.51343E+03 1.98272E+05 6.57110E-11 6.16637E-10
 -1       490 3.15674E+05 1.24042E+05 4.67917E+03 1.98668E+05 3.52884E-10 5.00222E-12
 -1       498 8.51189E+03 3.42325E+05 1.63523E+04 1.58567E+05 7.00311E-11-8.43556E-11
 -1       499 2.76069E+03 3.45191E+05 7.74265E+03 1.83749E+05 1.90994E-10-1.62800E-10
 -1       500 3.12500E+02 3.43673E+05 2.52114E+03 1.58463E+05 2.54659E-11-2.91038E-11
 -1       501-7.21898E+02 3.43511E+05-8.31372E+02 1.83507E+05-3.05590E-10-1.02773E-10
 -1       502-2.74488E+03 3.44419E+05-4.56294E+03 1.58810E+05-5.00222E-11 1.38243E-10
 -1       580-8.58238E+04-3.47337E+03-6.96703E+03 4.66795E+04-2.18279E-11 5.53882E-10
 -1       581-8.70662E+04-1.12305E+03-3.89539E+03 5.38939E+04-1.06866E-11 9.96351E-10
 -1       582-8.63491E+04-1.58499E+02-2.55128E+03 4.65542E+04 4.00178E-11 3.60615E-10
 -1       583-8.66770E+04-1.88973E+02-2.94165E+03 5.40271E+04-5.18412E-11-2.65118E-10
 -1       584-8.62697E+04-4.51947E+02-4.66193E+03 4.65482E+04-3.36513E-11 2.97632E-10
 -1       585-8.82277E+04-3.12662E+03-9.76532E+03 5.39619E+04-6.63931E-11 2.19188E-10
 -1       586-8.48022E+04-9.74312E+03-1.91775E+04 4.66158E+04 2.50111E-12 3.49246E-10
 -1       587-7.02879E+03-1.53088E+05-1.40006E+04 2.14016E+04 9.09495E-12 2.60627E-10
 -1       588-2.26017E+03-1.55596E+05-7.34817E+03 2.47870E+04 6.68621E-11-9.61748E-10
 -1       589-3.96211E+02-1.54124E+05-3.93932E+03 2.13741E+04 8.99547E-11-9.85722E-10
 -1       590-7.10248E+02-1.54758E+05-3.44299E+03 2.47741E+04-8.18545E-11 2.62162E-10
 -1       591-1.96902E+03-1.53923E+05-4.48048E+03 2.14119E+04-9.00684E-11 6.39602E-10
 -1       592 9.19040E+04 6.98728E+04 1.83943E+04 7.13310E+04-6.23868E-09-7.94898E-09
 -1       593 9.03872E+04 6.83081E+04 9.32761E+03 7.63402E+04 6.23004E-11 9.31323E-10
 -1       594 8.96461E+04 6.46080E+04 4.37650E+03 7.62705E+04 4.43606E-10 3.95175E-10
 -1       595 8.83221E+04 6.59812E+04 2.60395E+03 7.70062E+04 4.36557E-10-6.21981E-10
 -1       596 8.95597E+04 6.43521E+04 2.00779E+03 7.65398E+04 1.62117E-10 7.94671E-11
 -1       597 8.83145E+04 6.59876E+04 2.60900E+03 7.70061E+04 1.60071E-10 3.73348E-10
 -1       598 8.96513E+04 6.46028E+04 4.38969E+03 7.62645E+04-3.18323E-11 4.85784E-10
 -1       599 9.03208E+04 6.83876E+04 9.35808E+03 7.63535E+04 4.00178E-11 3.80510E-10
 -1       600 9.19745E+04 6.98232E+04 1.84551E+04 7.12877E+04-1.24601E-10-1.63709E-11
 -1       601 3.83485E+04-3.16639E+03-6.26677E+03 7.93551E+04-1.70076E-10 1.98725E-10
 -1       602 3.71992E+04-1.01622E+03-3.38154E+03 9.16687E+04-1.79625E-10 2.67846E-10
 -1       603 3.78252E+04-1.38864E+02-1.99978E+03 7.91595E+04 1.40972E-11 1.90539E-10
 -1       604 3.75704E+04-1.12007E+02-2.00243E+03 9.18722E+04 1.27329E-10-6.93944E-10
 -1       605 3.78466E+04-2.57914E+02-2.91371E+03 7.91532E+04 1.04478E-10-1.67347E-10
 -1       606 3.66655E+04-1.86843E+03-5.92444E+03 9.17397E+04 2.66709E-10-2.67846E-10
 -1       607 3.87541E+04-5.86128E+03-1.15549E+04 7.92904E+04 3.91083E-11-5.27507E-11
 -1       608-9.12084E+03-7.46926E+04-1.82593E+04 8.03639E+04-8.54925E-11 2.31921E-11
 -1       609-2.89682E+03-7.79948E+04-9.62715E+03 9.30338E+04 1.32786E-10-6.29143E-10
 -1       610-4.86198E+02-7.60533E+04-5.24988E+03 8.02608E+04-8.18545E-11-1.01318E-09
 -1       611-9.66506E+02-7.69405E+04-4.75334E+03 9.30035E+04-2.23736E-10-4.13820E-11
 -1       612-2.81348E+03-7.57220E+04-6.37869E+03 8.03918E+04-4.77485E-11 6.25278E-10
 -1       613 2.22984E+05 1.48122E+05 2.75494E+04 1.67821E+05 8.73115E-11-4.40195E-10
 -1       614 2.21113E+05 1.45376E+05 1.40057E+04 1.75199E+05 1.70871E-10-2.26009E-10
 -1       615 2.19580E+05 1.40267E+05 6.64097E+03 1.75226E+05-1.20508E-10 3.20142E-10
 -1       616 2.18052E+05 1.41865E+05 4.08238E+03 1.76193E+05 7.50333E-11 2.30671E-10
 -1       617 2.19442E+05 1.39883E+05 3.37048E+03 1.75629E+05-4.18368E-11 3.59933E-10
 -1       618 2.18100E+05 1.41922E+05 4.66687E+03 1.76196E+05 6.18456E-11 1.35856E-10
 -1       619 2.19605E+05 1.40344E+05 8.07220E+03 1.75116E+05 7.63976E-11 2.02817E-10
 -1       620 2.21846E+05 1.46372E+05 1.73541E+04 1.74986E+05-1.90994E-11 4.15866E-10
 -1       621 2.23913E+05 1.50056E+05 3.42921E+04 1.65868E+05-2.05546E-10 1.70985E-10
 -1       622 2.21741E+05 3.93586E+03 7.85028E+03 7.49363E+04-5.74801E-10 4.23825E-10
 -1       623 2.23101E+05 1.26007E+03 4.08367E+03 8.65829E+04-8.64929E-10 2.52385E-10
 -1       624 2.22281E+05 1.77331E+02 2.11279E+03 7.47583E+04 5.49790E-10-6.04814E-11
 -1       625 2.22464E+05 1.09424E+02 1.64885E+03 8.67629E+04 2.08217E-09-3.29237E-10
 -1       626 2.22279E+05 1.56820E+02 1.92541E+03 7.47549E+04 5.31827E-10-6.34827E-10
 -1       627 2.22977E+05 1.09281E+03 3.56172E+03 8.66258E+04-6.85077E-10 2.28283E-10
 -1       628 2.21806E+05 3.39290E+03 6.76541E+03 7.48962E+04-4.15639E-10 1.75191E-10
 -1       629-1.72782E+04-1.75566E+05-3.49541E+04 1.00582E+05-1.01863E-10-2.69210E-10
 -1       630-5.61520E+03-1.81908E+05-1.93992E+04 1.16425E+05-2.52612E-10-8.95852E-10
 -1       631-1.23758E+03-1.78053E+05-1.24265E+04 1.00445E+05 2.53294E-10-3.71756E-11
 -1       632-3.72966E+03-1.80880E+05-1.46409E+04 1.16406E+05-4.57476E-10 1.77351E-10
 -1       633-1.11196E+04-1.76574E+05-2.33562E+04 1.00599E+05-8.82210E-11 1.59162E-10
 -1       634 2.88309E+05 1.65318E+05 3.06853E+04 2.02113E+05 6.82121E-11 4.39286E-10
 -1       635 2.88382E+05 1.60096E+05 1.55925E+04 2.09700E+05 1.44610E-10 3.01043E-10
 -1       636 2.84465E+05 1.56620E+05 7.37909E+03 2.10380E+05-3.97904E-11 1.72804E-11
 -1       637 2.85029E+05 1.56131E+05 4.50950E+03 2.10794E+05-2.90697E-10 2.39197E-10
 -1       638 2.84310E+05 1.56199E+05 3.67901E+03 2.10834E+05-1.03682E-10-9.48035E-10
 -1       639 2.85074E+05 1.56180E+05 5.04004E+03 2.10798E+05 7.73070E-11-3.45040E-11
 -1       640 2.84489E+05 1.56692E+05 8.67957E+03 2.10285E+05-6.86668E-11 3.39014E-10
 -1       641 2.89069E+05 1.60984E+05 1.86344E+04 2.09507E+05-9.84528E-11 1.90539E-10
 -1       642 2.89140E+05 1.67090E+05 3.68104E+04 2.00350E+05-3.18323E-11 1.14596E-10
 -1       643 2.66207E+05 5.76955E+03 1.14767E+04 6.03470E+04 2.72848E-12-2.58296E-10
 -1       644 2.68220E+05 1.84656E+03 5.99326E+03 6.97384E+04-5.00222E-11 2.02363E-10
 -1       645 2.67038E+05 2.57434E+02 3.15177E+03 6.02094E+04-1.52340E-10 2.07820E-10
 -1       646 2.67335E+05 1.58895E+02 2.54890E+03 6.98765E+04-1.15335E-10 1.06411E-10
 -1       647 2.67037E+05 2.51790E+02 3.09430E+03 6.02076E+04-3.47882E-11 2.68301E-11
 -1       648 2.68180E+05 1.79648E+03 5.83307E+03 6.97595E+04-5.09317E-11 6.36646E-11
 -1       649 2.66224E+05 5.60476E+03 1.11440E+04 6.03272E+04-3.31966E-11-5.02496E-10
 -1       650-2.06959E+04-2.28431E+05-4.21061E+04 8.43382E+04-1.30967E-10-2.41471E-10
 -1       651-6.81376E+03-2.36073E+05-2.39825E+04 9.76243E+04 2.56705E-10 5.72982E-11
 -1       652-1.69026E+03-2.31337E+05-1.64708E+04 8.42241E+04 4.18368E-11 3.30715E-10
 -1       653-5.68666E+03-2.35458E+05-2.11374E+04 9.76087E+04 2.05546E-10-4.37240E-10
 -1       654-1.70143E+04-2.29033E+05-3.51717E+04 8.43527E+04-3.09228E-11-2.25100E-10
 -1       655 2.95434E+05 1.59711E+05 2.97688E+04 2.01523E+05 6.36646E-11 7.63976E-11
 -1       656 2.96428E+05 1.53718E+05 1.51030E+04 2.08614E+05-1.63709E-11 6.29825E-10
 -1       657 2.91679E+05 1.51297E+05 7.10052E+03 2.09552E+05 1.35515E-10 2.78533E-10
 -1       658 2.93196E+05 1.49843E+05 4.24991E+03 2.09665E+05 1.92358E-10-1.94177E-10
 -1       659 2.91531E+05 1.50893E+05 3.32056E+03 2.09994E+05 5.20686E-11-1.44610E-10
 -1       660 2.93206E+05 1.49855E+05 4.36967E+03 2.09667E+05-2.57103E-10 1.02432E-10
 -1       661 2.91686E+05 1.51313E+05 7.39412E+03 2.09531E+05-9.18590E-11 1.71326E-10
 -1       662 2.96570E+05 1.53931E+05 1.57896E+04 2.08576E+05-3.81988E-11 2.29761E-10
 -1       663 2.95635E+05 1.60098E+05 3.11515E+04 2.01123E+05-9.36780E-11 2.20098E-10
 -1       664 2.05551E+05 2.35302E+03 4.70879E+03 4.35190E+04-2.04636E-11-4.01542E-10
 -1       665 2.06366E+05 7.53305E+02 2.51161E+03 5.03027E+04-1.45519E-10-7.04404E-10
 -1       666 2.05885E+05 1.03462E+02 1.42207E+03 4.34244E+04-9.18590E-11-3.96540E-10
 -1       667 2.06025E+05 8.28247E+01 1.32721E+03 5.03974E+04 2.07336E-10-2.65572E-10
 -1       668 2.05867E+05 1.61859E+02 1.83028E+03 4.34239E+04-1.97815E-11-4.95675E-11
 -1       669 2.06584E+05 1.14386E+03 3.64651E+03 5.03082E+04 3.63798E-12 1.54841E-10
 -1       670 2.05346E+05 3.56974E+03 7.07004E+03 4.35140E+04 1.95541E-11 1.10049E-10
 -1       671-1.85339E+04-1.84694E+05-3.78921E+04 7.43391E+04 1.36424E-10-2.66937E-10
 -1       672-6.14210E+03-1.91585E+05-2.19814E+04 8.60449E+04 2.17142E-10-1.93950E-10
 -1       673-1.63241E+03-1.87259E+05-1.58012E+04 7.42375E+04 2.99224E-10-1.07320E-10
 -1       674-5.87466E+03-1.91436E+05-2.13040E+04 8.60345E+04 5.82077E-11-2.97860E-10
 -1       675-1.76590E+04-1.84835E+05-3.62412E+04 7.43489E+04 1.30967E-10-3.61069E-10
 -1       676 2.88001E+05 1.65562E+05 2.92736E+04 2.02893E+05-5.27507E-11 2.03727E-10
 -1       677 2.87966E+05 1.60678E+05 1.48275E+04 2.10163E+05-3.18323E-12 1.03682E-10
 -1       678 2.84313E+05 1.57283E+05 6.92269E+03 2.10790E+05 1.12095E-10 2.34422E-10
 -1       679 2.84779E+05 1.56870E+05 4.05132E+03 2.11194E+05 1.05501E-10 3.40862E-10
 -1       680 2.84171E+05 1.56888E+05 3.01122E+03 2.11226E+05 3.15481E-12 9.90418E-10
 -1       681 2.84753E+05 1.56844E+05 3.76508E+03 2.11192E+05 5.81082E-11 4.48381E-10
 -1       682 2.84302E+05 1.57242E+05 6.22139E+03 2.10841E+05 6.13909E-11-2.31921E-11
 -1       683 2.87580E+05 1.60214E+05 1.31869E+04 2.10271E+05-2.72848E-11 1.82808E-10
 -1       684 2.87568E+05 1.64591E+05 2.59703E+04 2.03840E+05-1.20963E-10 1.27329E-11
 -1       685 1.92320E+05 2.87051E+03 5.75260E+03 1.63304E+04 1.36424E-12 2.14186E-10
 -1       686 1.93329E+05 9.13479E+02 3.09144E+03 1.88633E+04 2.18279E-11 3.48251E-10
 -1       687 1.92741E+05 1.19182E+02 1.79640E+03 1.62893E+04 1.18234E-11-7.94671E-11
 -1       688 1.92933E+05 9.97585E+01 1.75105E+03 1.89052E+04 3.65787E-11-2.20098E-10
 -1       689 1.92711E+05 2.18935E+02 2.49611E+03 1.62881E+04-1.17950E-12 1.65073E-10
 -1       690 1.93705E+05 1.58228E+03 5.03682E+03 1.88780E+04-5.86340E-11 1.24828E-10
 -1       691 1.91970E+05 4.95517E+03 9.80003E+03 1.63168E+04-1.27898E-10-1.07775E-10
 -1       692-8.73248E+03-2.45870E+04-1.81391E+04 6.99690E+04 1.16415E-10-7.04858E-11
 -1       693-2.92655E+03-2.79195E+04-1.10638E+04 8.09526E+04-5.45697E-11-1.08230E-10
 -1       694-9.08134E+02-2.57619E+04-8.89528E+03 6.98602E+04 1.27329E-10 1.48020E-10
 -1       695-3.81299E+03-2.84041E+04-1.33024E+04 8.09699E+04-8.91305E-11-3.34694E-10
 -1       696-1.16290E+04-2.41146E+04-2.35957E+04 6.99523E+04-1.72804E-11 6.75300E-11
 -1       697 1.42184E+05 9.79774E+04 1.02002E+04 1.13260E+05-2.72848E-12-1.17780E-10
 -1       698 1.40471E+05 9.79759E+04 5.21971E+03 1.16280E+05-1.03199E-10-4.66684E-11
 -1       699 1.40912E+05 9.50820E+04 2.54243E+03 1.16002E+05-3.59819E-11-1.59730E-11
 -1       700 1.39355E+05 9.66689E+04 1.69082E+03 1.16651E+05-1.24601E-10-9.59517E-11
 -1       701 1.40856E+05 9.49366E+04 1.60417E+03 1.16151E+05-1.00613E-10 4.10182E-10
 -1       702 1.39430E+05 9.67339E+04 2.47386E+03 1.16656E+05-4.03588E-11 4.57362E-10
 -1       703 1.40940E+05 9.51968E+04 4.46081E+03 1.15865E+05-2.47269E-11 2.56478E-10
 -1       704 1.41585E+05 9.91861E+04 9.70766E+03 1.15969E+05 1.42120E-10-2.69210E-10
 -1       705 1.43316E+05 1.00690E+05 1.92368E+04 1.10690E+05 1.20963E-10-2.96041E-10
 -1       706 2.78616E+05 9.59624E+03 1.90441E+04 1.86571E+03 3.67208E-11 3.38332E-10
 -1       707 2.81997E+05 3.06066E+03 9.91035E+03 2.10810E+03 1.11413E-10-6.01517E-10
 -1       708 2.80048E+05 4.16355E+02 5.15246E+03 1.84202E+03 3.93356E-11-4.88853E-11
 -1       709 2.80551E+05 2.30325E+02 4.06199E+03 2.13495E+03-2.80806E-11-1.10699E-10
 -1       710 2.80063E+05 3.67257E+02 4.80537E+03 1.83824E+03 1.59162E-12-8.75389E-11
 -1       711 2.81809E+05 2.72965E+03 8.94530E+03 2.15414E+03 1.22895E-10 2.85581E-10
 -1       712 2.78788E+05 8.56318E+03 1.70364E+04 1.82210E+03 8.87894E-11 1.27329E-10
 -1       713-5.32191E+03 2.71833E+02-1.06774E+04-6.58405E+02-1.72804E-10-1.00499E-10
 -1       714-1.74153E+03-1.65561E+03-5.82120E+03-8.48115E+02-7.43512E-11-4.50200E-10
 -1       715-3.73736E+02-4.90944E+02-3.53718E+03-6.97296E+02-3.30544E-10-4.45425E-10
 -1       716-9.65963E+02-1.23667E+03-3.86759E+03-7.68001E+02-1.40744E-10-2.17369E-10
 -1       717-2.79030E+03-1.46658E+02-5.91485E+03-7.37826E+02-4.58840E-10 8.59472E-11
 -1       718 3.71336E+04 3.80663E+03-5.83026E+03 1.95691E+04-1.20508E-11-3.72893E-11
 -1       719 3.87952E+04 3.12279E+03-2.87105E+03 1.76252E+04-1.04389E-10-4.02522E-11
 -1       720 3.78557E+04 5.47195E+03-1.17665E+03 1.79924E+04-2.10889E-11-2.37833E-10
 -1       721 3.94582E+04 3.87668E+03-3.74089E+02 1.74272E+04-4.95390E-11-1.56888E-11
 -1       722 3.78708E+04 5.54134E+03 2.60151E+02 1.79018E+04 1.14255E-10-2.40789E-10
 -1       723 3.95838E+04 4.00408E+03 1.04984E+03 1.74381E+04-1.19371E-11-3.25599E-10
 -1       724 3.79158E+04 5.67137E+03 2.31296E+03 1.77398E+04 6.93490E-11 6.87805E-11
 -1       725 4.07088E+04 5.43632E+03 5.29289E+03 1.70896E+04 9.77707E-11-6.87805E-12
 -1       726 3.92945E+04 8.63326E+03 1.06065E+04 1.48612E+04-1.55069E-10-7.41238E-11
 -1       727 3.86418E+05 1.43424E+04 2.81770E+04 2.34269E+02-3.26963E-10-7.78527E-10
 -1       728 3.91429E+05 4.58311E+03 1.41296E+04 1.24160E+02 2.78305E-10 5.25461E-10
 -1       729 3.88586E+05 6.48433E+02 6.31266E+03 1.78356E+02-5.44333E-10-4.87489E-10
 -1       730 3.89059E+05 1.75140E+02 3.14809E+03 1.90847E+02-2.91266E-10-1.35458E-10
 -1       731 3.88794E+05-4.82504E+01 1.40423E+03 1.67430E+02-1.53705E-10-6.59099E-11
 -1       732 3.88784E+05-1.02022E+02 4.83204E+02 2.56558E+02-1.10549E-09-4.25771E-10
 -1       733 3.88861E+05-2.74285E+02-2.15237E+02 1.12892E+02 1.15961E-10 2.43745E-10
 -1       734-1.09463E+04-8.52472E+04-2.16258E+04-2.12673E+04-9.00400E-11-1.19712E-10
 -1       735-3.51929E+03-8.91222E+04-1.10876E+04-2.46053E+04 4.53838E-10 3.13321E-10
 -1       736-5.68019E+02-8.68804E+04-5.43961E+03-2.12333E+04-6.63931E-11 2.06228E-10
 -1       737-6.30796E+02-8.75634E+04-3.81321E+03-2.46114E+04 4.31555E-10 3.68345E-10
 -1       738-1.51892E+03-8.68074E+04-3.89232E+03-2.12608E+04-5.83213E-11-2.02704E-10
 -1       739 6.60316E+04 2.00727E+04-3.26488E+03 3.98894E+04-5.20686E-10-4.55202E-10
 -1       740 6.78408E+04 1.88091E+04-1.60006E+03 3.85435E+04 2.90811E-10-1.05160E-10
 -1       741 6.64792E+04 2.09659E+04-6.40240E+02 3.89977E+04-3.39696E-10 1.44610E-10
 -1       742 6.81689E+04 1.92762E+04-1.69906E+02 3.84501E+04 1.22782E-10 3.96994E-10
 -1       743 6.64927E+04 2.09982E+04 2.24982E+02 3.89484E+04-1.22782E-10 1.45519E-10
 -1       744 6.82432E+04 1.93731E+04 7.55254E+02 3.84655E+04 1.06775E-09 2.63981E-10
 -1       745 6.65320E+04 2.10810E+04 1.62368E+03 3.88366E+04-1.26420E-09-3.21961E-10
 -1       746 6.89625E+04 2.04393E+04 3.69906E+03 3.82448E+04 1.80989E-10 3.08319E-10
 -1       747 6.75609E+04 2.30892E+04 7.40362E+03 3.68129E+04 3.22871E-10-3.40151E-10
 -1       748 5.75800E+05 9.73651E+03 1.95098E+04 1.02896E+05-3.70346E-09-9.16771E-10
 -1       749 5.79156E+05 3.18255E+03 1.05789E+04 1.18537E+05-1.12141E-09-3.80169E-10
 -1       750 5.77058E+05 5.03948E+02 6.30206E+03 1.02539E+05 3.19596E-09 1.93268E-10
 -1       751 5.77678E+05 5.40713E+02 6.39863E+03 1.18919E+05-1.33696E-09-1.19962E-09
 -1       752 5.76820E+05 1.00659E+03 9.37273E+03 1.02513E+05-5.70071E-09-2.42562E-09
 -1       753 5.80554E+05 6.24129E+03 1.91050E+04 1.18867E+05-9.11245E-09-1.96815E-09
 -1       754 5.73964E+05 1.90464E+04 3.72620E+04 1.02570E+05-3.07347E-09-1.73168E-09
 -1       755-1.24019E+04 1.62524E+05-2.37111E+04 5.22009E+03-5.09317E-11-4.52474E-10
 -1       756-3.86746E+03 1.58310E+05-1.05684E+04 6.13540E+03-8.21956E-10 3.63912E-10
 -1       757-2.22110E+02 1.60541E+05-2.06568E+03 5.25442E+03-1.87356E-10 5.66615E-10
 -1       758 2.27759E+03 1.61629E+05 4.91026E+03 6.05844E+03-8.63452E-10 1.08230E-10
 -1       759 7.65795E+03 1.59206E+05 1.40238E+04 5.30489E+03-4.91127E-11-4.57248E-10
 -1       760 2.61047E+05 2.03441E+05 7.18935E+03 2.29778E+05-2.57143E-09-5.03860E-10
 -1       761 2.55760E+05 2.07522E+05 3.85571E+03 2.33057E+05-1.37379E-09-6.85759E-10
 -1       762 2.60302E+05 2.01234E+05 2.21719E+03 2.31620E+05-4.52928E-10 3.78805E-10
 -1       763 2.54795E+05 2.06800E+05 2.10668E+03 2.33364E+05-1.11686E-09 8.32870E-10
 -1       764 2.60242E+05 2.01099E+05 2.94801E+03 2.31688E+05 4.08272E-09 1.02875E-09
 -1       765 2.55076E+05 2.07114E+05 5.54630E+03 2.33368E+05 3.72438E-10-3.25258E-10
 -1       766 2.60432E+05 2.01710E+05 1.06493E+04 2.30963E+05-4.09273E-11 1.40517E-10
 -1       767 2.60230E+05 2.13211E+05 2.35741E+04 2.31720E+05 1.25328E-09 3.27418E-11
 -1       768 2.66338E+05 2.14982E+05 4.68969E+04 2.18288E+05 1.52613E-09-1.20053E-10
 -1       769 2.72007E+05 2.70692E+03 5.45086E+03 3.26124E+04-1.58752E-09-8.87667E-10
 -1       770 2.72940E+05 9.05813E+02 3.17547E+03 3.76083E+04 3.49610E-09-2.29647E-11
 -1       771 2.72375E+05 1.55790E+02 2.30584E+03 3.25238E+04-2.95040E-09-1.05092E-09
 -1       772 2.72662E+05 2.40781E+02 2.97723E+03 3.77040E+04 9.14383E-10-2.69210E-10
 -1       773 2.72256E+05 5.40404E+02 4.99195E+03 3.25188E+04 1.07434E-09-7.43967E-10
 -1       774 2.74375E+05 3.47641E+03 1.06431E+04 3.76614E+04 9.14326E-11-4.63842E-11
 -1       775 2.70655E+05 1.07144E+04 2.09887E+04 3.25539E+04 3.75167E-12-6.27551E-10
 -1       776-2.47564E+04-2.37253E+05-4.95087E+04 7.17819E+04 3.53612E-09-1.18234E-10
 -1       777-8.18070E+03-2.46181E+05-2.70856E+04 8.29866E+04 1.74248E-09 5.99130E-10
 -1       778-1.84064E+03-2.40817E+05-1.66319E+04 7.16638E+04 2.79465E-09 5.18412E-10
 -1       779-4.75071E+03-2.44358E+05-1.84757E+04 8.30680E+04 2.35923E-09-6.29740E-10
 -1       780-1.35801E+04-2.39136E+05-2.85211E+04 7.17166E+04 2.30375E-09-2.08615E-10
 -1       781 1.88604E+05 9.26529E+04 5.97228E+03 1.29392E+05-5.19503E-09-4.57669E-09
 -1       782 1.90046E+05 9.02079E+04 3.15647E+03 1.30435E+05 4.57260E-09-1.15733E-09
 -1       783 1.87832E+05 9.09897E+04 1.73491E+03 1.30996E+05 2.10377E-09-1.31854E-09
 -1       784 1.89435E+05 8.94269E+04 1.51753E+03 1.30658E+05-2.33791E-09-2.54772E-09
 -1       785 1.87782E+05 9.08949E+04 1.98787E+03 1.31078E+05-1.52335E-09-9.82538E-10
 -1       786 1.89626E+05 8.96134E+04 3.64282E+03 1.30671E+05-5.83759E-09 3.74087E-10
 -1       787 1.87917E+05 9.12904E+04 6.94304E+03 1.30617E+05-1.19212E-09-5.28644E-10
 -1       788 1.92941E+05 9.36182E+04 1.53400E+04 1.29620E+05-4.17458E-10-9.19499E-10
 -1       789 1.91802E+05 9.98815E+04 3.05033E+04 1.22368E+05-1.35242E-09-6.18456E-11
 -1       790 9.50874E+04 1.27862E+03 2.53631E+03 2.50021E+04-6.27824E-09-1.14414E-09
 -1       791 9.55207E+04 4.45295E+02 1.48565E+03 2.88760E+04-3.13003E-09-5.27962E-10
 -1       792 9.52582E+04 9.31372E+01 1.09285E+03 2.49447E+04-2.79999E-09-9.56334E-10
 -1       793 9.53957E+04 1.38670E+02 1.42885E+03 2.89360E+04-1.15705E-10-2.08729E-10
 -1       794 9.52015E+04 2.80649E+02 2.40960E+03 2.49432E+04-4.76348E-11-5.81622E-10
 -1       795 9.62281E+04 1.70353E+03 5.14666E+03 2.88896E+04-6.02944E-09-3.27418E-10
 -1       796 9.44296E+04 5.20122E+03 1.01533E+04 2.49850E+04 2.43631E-09-8.81755E-10
 -1       797-1.65114E+04-2.34331E+05-3.32409E+04 4.79909E+04-7.65249E-09-8.05812E-10
 -1       798-5.50764E+03-2.40328E+05-1.86692E+04 5.54877E+04-1.03852E-08-4.28940E-10
 -1       799-1.37519E+03-2.36653E+05-1.23535E+04 4.79211E+04-7.86258E-09 9.09608E-10
 -1       800-4.11576E+03-2.39585E+05-1.51721E+04 5.55243E+04-8.84665E-09-3.04681E-10
 -1       801-1.19739E+04-2.35092E+05-2.47160E+04 4.79611E+04-9.12405E-09 7.43512E-11
 -1       802 1.04568E+05 5.37501E+04 8.67651E+03 7.04829E+04-4.14070E-09-2.70120E-10
 -1       803 1.05183E+05 5.16807E+04 4.44955E+03 7.24506E+04-8.64071E-09-3.96710E-10
 -1       804 1.03459E+05 5.13131E+04 2.18621E+03 7.28216E+04-6.24232E-09-6.99060E-10
 -1       805 1.04258E+05 5.05475E+04 1.48898E+03 7.27603E+04-2.51123E-09-2.22400E-10
 -1       806 1.03408E+05 5.11908E+04 1.46562E+03 7.29478E+04 1.88553E-09 4.97465E-10
 -1       807 1.04333E+05 5.06195E+04 2.31565E+03 7.27654E+04-2.13981E-09-3.16787E-10
 -1       808 1.03492E+05 5.14306E+04 4.21197E+03 7.26741E+04-4.38695E-09-1.46667E-09
 -1       809 1.06316E+05 5.30006E+04 9.18880E+03 7.21310E+04-1.38258E-08-1.03217E-08
 -1       810 1.05805E+05 5.65679E+04 1.82184E+04 6.77521E+04-9.89439E-09-6.38465E-10
 -1       811 1.45937E+04 8.92135E+02 1.79687E+03 1.29123E+04 6.24607E-09-5.44787E-10
 -1       812 1.49080E+04 3.02662E+02 1.07269E+03 1.49320E+04 5.14410E-09-2.46246E-10
 -1       813 1.47159E+04 5.49843E+01 8.24213E+02 1.28881E+04-1.28998E-09-7.95808E-10
 -1       814 1.48308E+04 9.26073E+01 1.12150E+03 1.49567E+04-2.11870E-09-1.40062E-10
 -1       815 1.46696E+04 2.11047E+02 1.92509E+03 1.28884E+04 1.51738E-09-7.85349E-10
 -1       816 1.55023E+04 1.35329E+03 4.13373E+03 1.49259E+04-1.40102E-09-3.42425E-10
 -1       817 1.40472E+04 4.16994E+03 8.16540E+03 1.29140E+04 7.28062E-09-7.18046E-10
 -1       818-9.26213E+03-1.73300E+05-1.87546E+04 3.20794E+04-5.60249E-10-5.13182E-10
 -1       819-3.12100E+03-1.76685E+05-1.07952E+04 3.70930E+04 2.21561E-09 3.21324E-09
 -1       820-8.55582E+02-1.74575E+05-7.61313E+03 3.20348E+04 8.00355E-10 2.94727E-09
 -1       821-2.82804E+03-1.76529E+05-1.00599E+04 3.71093E+04 7.69433E-09 1.06581E-09
 -1       822-8.30734E+03-1.73460E+05-1.69619E+04 3.20647E+04 8.69022E-10-2.19404E-09
 -1       823 3.95506E+04 1.92615E+04 6.07531E+03 2.44744E+04 4.90490E-09-6.43126E-10
 -1       824 3.99058E+04 1.78922E+04 3.10680E+03 2.58779E+04-6.40381E-09-6.74149E-09
 -1       825 3.87697E+04 1.75604E+04 1.50930E+03 2.61144E+04 5.67286E-09 1.07797E-08
 -1       826 3.92622E+04 1.70920E+04 9.96476E+02 2.60919E+04-4.95515E-09 1.06638E-09
 -1       827 3.87339E+04 1.74762E+04 9.34598E+02 2.62032E+04-7.22105E-09-6.94513E-10
 -1       828 3.93029E+04 1.71284E+04 1.42984E+03 2.60940E+04-6.03393E-10-9.65954E-10
 -1       829 3.87849E+04 1.76233E+04 2.57115E+03 2.60372E+04 1.63772E-09 7.16909E-10
 -1       830 4.05152E+04 1.85687E+04 5.59119E+03 2.57056E+04-6.56473E-09-2.87685E-10
 -1       831 4.01847E+04 2.07532E+04 1.10773E+04 2.30468E+04-6.40716E-09-1.63618E-09
 -1       832-4.24457E+03-1.41947E+05-8.69236E+03 1.40331E+04 1.06002E-09 4.42810E-10
 -1       833-1.44567E+03-1.43516E+05-5.19372E+03 1.62062E+04-5.25185E-09-2.29193E-10
 -1       834-4.44900E+02-1.42513E+05-3.99567E+03 1.40088E+04-6.49379E-10 4.74131E-10
 -1       835-1.66679E+03-1.43637E+05-5.75175E+03 1.62231E+04-5.84623E-09-1.78290E-09
 -1       836-4.96683E+03-1.41829E+05-1.00527E+04 1.40157E+04 5.26143E-10-1.35799E-10
 -1       837-1.40398E+05-1.29882E+03-2.62478E+03 4.30061E+04 3.95630E-11 4.93856E-10
 -1       838-1.40858E+05-4.28566E+02-1.57505E+03 4.96290E+04-1.27329E-10 2.78760E-10
 -1       839-1.40600E+05-6.51411E+01-1.22732E+03 4.28812E+04 5.45697E-12 2.03272E-10
 -1       840-1.40772E+05-1.14931E+02-1.68945E+03 4.97619E+04 8.58336E-11 1.08685E-10
 -1       841-1.40540E+05-2.98014E+02-2.91596E+03 4.28739E+04 6.11635E-11 1.88265E-10
 -1       842-1.41795E+05-2.02792E+03-6.27165E+03 4.97118E+04-4.57021E-11 4.22006E-10
 -1       843-1.39589E+05-6.31038E+03-1.23945E+04 4.29293E+04-3.41061E-12-6.13909E-11
 -1       844-7.58796E+03-2.59773E+05-1.44973E+04 9.38531E+04-6.54836E-11 6.45741E-11
 -1       845-2.24204E+03-2.62339E+05-6.07116E+03 1.08634E+05-4.86580E-11 1.65528E-10
 -1       846 6.95373E+01-2.61062E+05-3.13430E+02 9.37169E+04 4.32010E-11-5.99286E-10
 -1       847 2.23700E+03-2.59918E+05 5.21304E+03 1.08628E+05 4.59295E-11-5.27507E-10
 -1       848 7.03389E+03-2.62186E+05 1.30133E+04 9.38531E+04 7.18501E-11-6.20275E-10
 -1       849 4.96670E+04 4.79285E+04 2.15265E+04 3.92248E+04-4.72937E-11-3.65617E-10
 -1       850 4.80329E+04 4.59715E+04 1.09727E+04 4.50468E+04 3.36513E-11 5.80030E-10
 -1       851 4.70228E+04 4.17711E+04 5.26176E+03 4.49997E+04-1.06866E-11 1.52795E-10
 -1       852 4.56269E+04 4.32531E+04 3.34772E+03 4.58331E+04 1.80535E-10-1.62231E-10
 -1       853 4.69128E+04 4.14649E+04 2.94699E+03 4.53111E+04-2.13731E-11-2.27260E-10
 -1       854 4.57033E+04 4.33436E+04 4.30367E+03 4.58386E+04-4.72937E-11 3.69511E-10
 -1       855 4.70657E+04 4.19001E+04 7.60538E+03 4.48228E+04-5.50244E-11 3.37195E-10
 -1       856 4.92537E+04 4.75846E+04 1.64551E+04 4.46954E+04-2.27374E-10-4.20187E-10
 -1       857 5.11674E+04 5.11137E+04 3.25651E+04 3.60361E+04-2.23736E-10-4.63842E-11
 -1       858-1.26646E+05-5.62214E+03-1.11836E+04 5.40682E+04-3.72893E-11 2.54659E-10
 -1       859-1.28645E+05-1.79917E+03-5.95951E+03 6.24439E+04 1.81899E-11-3.63798E-12
 -1       860-1.27505E+05-2.45034E+02-3.37283E+03 5.39301E+04 1.06411E-10 3.20142E-10
 -1       861-1.27883E+05-1.82873E+02-3.14426E+03 6.25900E+04 1.09139E-10 2.06455E-10
 -1       862-1.27475E+05-3.75624E+02-4.33768E+03 5.39245E+04-1.25056E-12 1.30512E-10
 -1       863-1.29190E+05-2.70829E+03-8.64340E+03 6.25063E+04 4.18368E-11 3.31397E-10
 -1       864-1.26195E+05-8.47933E+03-1.67659E+04 5.40120E+04 2.33968E-10 1.10958E-10
 -1       865-3.10695E+03-8.10644E+04-5.58669E+03 8.28879E+04-6.41194E-11-9.20863E-10
 -1       866-8.35349E+02-8.20346E+04-1.51603E+03 9.59621E+04-1.14596E-10-5.95719E-11
 -1       867 2.60842E+02-8.16656E+04 1.89714E+03 8.27852E+04-7.00311E-11 6.14250E-10
 -1       868 2.42598E+03-8.02587E+04 6.71337E+03 9.59256E+04-8.64020E-11 3.26281E-10
 -1       869 7.54797E+03-8.28083E+04 1.44760E+04 8.29221E+04 2.27374E-11 8.91305E-11
 -1       870 7.72500E+04 6.75003E+04 1.67724E+04 6.51289E+04 6.54836E-11 3.83807E-10
 -1       871 7.51370E+04 6.68153E+04 8.56398E+03 6.99062E+04 1.14142E-10 2.13049E-10
 -1       872 7.52051E+04 6.26914E+04 4.13378E+03 6.96228E+04-1.16415E-10 2.18961E-10
 -1       873 7.32451E+04 6.47135E+04 2.67986E+03 7.05234E+04 2.50907E-10 4.02451E-11
 -1       874 7.51178E+04 6.24497E+04 2.43899E+03 6.98632E+04 1.16870E-10-2.56875E-10
 -1       875 7.33261E+04 6.48052E+04 3.65173E+03 7.05289E+04 1.50067E-11-4.15099E-10
 -1       876 7.52456E+04 6.28230E+04 6.51431E+03 6.94428E+04 1.05047E-10 9.20863E-11
 -1       877 7.63945E+04 6.84351E+04 1.41334E+04 6.95430E+04-1.29148E-10-2.50566E-10
 -1       878 7.87581E+04 7.07551E+04 2.79872E+04 6.18945E+04-2.18279E-11-3.10138E-10
 -1       879 1.10170E+04-1.13061E+03-2.28399E+03 5.91655E+04 1.01863E-10 6.32099E-11
 -1       880 1.05935E+04-3.56203E+02-1.31502E+03 6.83572E+04 1.37334E-10 6.94854E-10
 -1       881 1.08236E+04-3.92170E+01-9.33317E+02 5.90231E+04 7.04858E-11 2.11003E-10
 -1       882 1.06855E+04-5.77413E+01-1.17666E+03 6.85033E+04 6.16183E-11-9.64064E-11
 -1       883 1.08594E+04-1.79499E+02-1.95376E+03 5.90198E+04-1.07548E-10-4.54747E-11
 -1       884 1.00258E+04-1.32177E+03-4.15314E+03 6.83981E+04 3.81988E-11-4.33374E-10
 -1       885 1.15037E+04-4.15790E+03-8.18756E+03 5.91277E+04 1.66892E-10-6.27551E-11
 -1       886-6.62925E+03-9.23815E+04-1.29224E+04 7.60735E+04-1.34605E-10 1.60526E-10
 -1       887-2.05698E+03-9.46916E+04-6.13775E+03 8.80750E+04-4.82942E-10 2.42153E-10
 -1       888-1.77126E+02-9.34280E+04-2.05901E+03 7.59806E+04-2.09184E-11-3.58227E-10
 -1       889 5.72280E+02-9.32584E+04 4.97965E+02 8.80394E+04-4.27463E-10-5.77302E-10
 -1       890 1.96072E+03-9.37863E+04 3.25407E+03 7.61078E+04 9.45874E-11-2.73303E-10
 -1       891 1.33839E+05 8.93927E+04 1.92077E+04 9.96414E+04-3.16049E-10 1.03682E-10
 -1       892 1.32721E+05 8.72961E+04 9.76712E+03 1.04733E+05-7.44649E-11-4.14502E-10
 -1       893 1.31464E+05 8.39155E+04 4.63479E+03 1.04804E+05-3.13776E-11-3.00133E-11
 -1       894 1.30585E+05 8.48499E+04 2.85751E+03 1.05427E+05-1.53250E-10 3.55612E-10
 -1       895 1.31370E+05 8.36482E+04 2.37239E+03 1.05085E+05-3.52429E-11-8.80505E-11
 -1       896 1.30619E+05 8.48930E+04 3.30062E+03 1.05430E+05-7.91260E-11 3.05889E-12
 -1       897 1.31485E+05 8.39743E+04 5.72124E+03 1.04722E+05-2.57387E-10-2.75122E-11
 -1       898 1.33270E+05 8.80588E+04 1.23080E+04 1.04574E+05-9.18590E-11-5.84805E-10
 -1       899 1.34550E+05 9.08542E+04 2.43243E+04 9.81593E+04 1.63709E-11-7.63976E-11
 -1       900 1.56697E+05 3.62306E+03 7.14448E+03 5.76107E+04-7.04858E-11 3.15595E-10
 -1       901 1.57947E+05 1.16536E+03 3.61444E+03 6.65807E+04-9.64064E-11-2.19188E-10
 -1       902 1.57216E+05 1.71944E+02 1.67441E+03 5.74808E+04-2.54886E-10 8.18545E-12
 -1       903 1.57339E+05 6.91530E+01 9.58511E+02 6.67114E+04-1.43359E-10 9.23137E-11
 -1       904 1.57255E+05 3.18000E+01 6.73096E+02 5.74793E+04-1.35742E-10 7.95808E-11
 -1       905 1.57400E+05 2.13227E+02 8.30049E+02 6.65981E+04 1.70530E-11-1.68711E-10
 -1       906 1.57186E+05 6.46243E+02 1.35198E+03 5.75943E+04 2.59206E-11 1.97815E-10
 -1       907-1.19776E+04-1.34801E+05-2.40776E+04 6.23856E+04 1.40062E-10-5.50244E-11
 -1       908-3.89762E+03-1.39146E+05-1.31348E+04 7.22404E+04 1.70985E-10-3.45608E-11
 -1       909-8.20479E+02-1.36526E+05-7.99806E+03 6.23151E+04-3.97904E-11-4.26098E-10
 -1       910-2.17124E+03-1.38202E+05-8.77425E+03 7.22002E+04-6.82121E-12-2.02817E-10
 -1       911-6.33600E+03-1.35719E+05-1.34485E+04 6.24244E+04 1.46656E-11-1.82808E-10
 -1       912 1.88622E+05 1.05924E+05 2.06066E+04 1.30449E+05 4.86443E-09 4.36467E-09
 -1       913 1.88911E+05 1.02172E+05 1.04315E+04 1.35476E+05 1.01636E-10-1.52568E-10
 -1       914 1.86040E+05 1.00081E+05 4.85845E+03 1.36004E+05-8.02402E-10 8.42419E-10
 -1       915 1.86652E+05 9.95070E+04 2.82103E+03 1.36207E+05-8.43130E-10 5.39558E-10
 -1       916 1.85942E+05 9.98022E+04 2.05842E+03 1.36311E+05-7.41352E-10 2.24532E-10
 -1       917 1.86622E+05 9.94842E+04 2.52275E+03 1.36206E+05-5.25631E-10 4.62705E-10
 -1       918 1.86032E+05 1.00036E+05 4.12786E+03 1.36057E+05-2.10093E-10 3.35916E-10
 -1       919 1.88464E+05 1.01736E+05 8.72224E+03 1.35604E+05-1.15961E-10-6.82121E-11
 -1       920 1.88216E+05 1.04868E+05 1.71648E+04 1.31424E+05-1.85537E-10 2.72848E-12
 -1       921 2.09710E+05 3.46560E+03 6.83027E+03 6.32186E+04-1.55978E-10-1.41881E-10
 -1       922 2.10898E+05 1.11946E+03 3.46742E+03 7.30981E+04-2.86263E-10-1.42791E-10
 -1       923 2.10205E+05 1.68800E+02 1.62968E+03 6.30916E+04-5.45697E-11 3.81988E-11
 -1       924 2.10325E+05 7.43031E+01 9.79090E+02 7.32232E+04 3.84063E-10 5.29781E-10
 -1       925 2.10245E+05 4.44277E+01 7.67797E+02 6.30931E+04-4.36557E-11 1.21872E-10
 -1       926 2.10441E+05 2.92803E+02 1.07140E+03 7.30812E+04-9.16316E-11-4.73847E-10
 -1       927 2.10148E+05 8.94030E+02 1.84501E+03 6.32337E+04-1.09139E-11 5.91172E-11
 -1       928-1.65689E+04-1.64365E+05-3.38222E+04 4.93374E+04 2.61934E-10-1.21986E-10
 -1       929-5.49830E+03-1.70503E+05-1.95498E+04 5.71424E+04 6.83826E-11 1.56774E-10
 -1       930-1.45380E+03-1.66649E+05-1.39286E+04 4.92869E+04 1.26647E-10-3.15367E-10
 -1       931-5.12752E+03-1.70292E+05-1.86056E+04 5.71005E+04-8.91305E-11-1.90994E-11
 -1       932-1.53530E+04-1.64554E+05-3.15214E+04 4.93773E+04 1.60071E-10-2.63299E-10
 -1       933 2.76026E+05 1.40744E+05 2.72020E+04 1.82928E+05 2.91038E-11-2.27374E-10
 -1       934 2.77787E+05 1.34402E+05 1.36998E+04 1.89165E+05 6.18456E-11 1.69848E-10
 -1       935 2.72580E+05 1.33065E+05 6.23976E+03 1.90278E+05 8.89031E-11 1.73259E-10
 -1       936 2.74831E+05 1.30836E+05 3.35118E+03 1.90107E+05 9.36780E-11-9.41327E-11
 -1       937 2.72459E+05 1.32709E+05 1.97631E+03 1.90688E+05 2.92459E-11-2.02363E-10
 -1       938 2.74688E+05 1.30702E+05 1.77899E+03 1.90099E+05-1.19144E-10-2.46700E-10
 -1       939 2.72522E+05 1.32839E+05 2.38662E+03 1.90559E+05-9.23137E-11 1.97929E-10
 -1       940 2.75611E+05 1.31915E+05 4.68657E+03 1.89783E+05-9.59517E-11 1.27102E-10
 -1       941 2.73708E+05 1.35353E+05 9.05515E+03 1.88116E+05-5.45697E-12 2.58296E-10
 -1       942-2.69789E+04-1.18081E+04-2.32896E+04 4.77760E+04 7.68523E-11 2.71939E-10
 -1       943-3.11511E+04-3.76917E+03-1.18643E+04 5.52728E+04 9.91349E-11 3.35604E-10
 -1       944-2.87646E+04-5.23691E+02-5.67364E+03 4.76918E+04-1.27329E-11 4.04725E-11
 -1       945-2.92758E+04-2.00407E+02-3.59842E+03 5.53555E+04 1.51203E-11 4.36557E-10
 -1       946-2.88657E+04-1.68959E+02-3.14958E+03 4.76950E+04 8.41283E-11 2.62844E-10
 -1       947-2.97767E+04-1.36596E+03-4.84537E+03 5.52354E+04-4.54747E-12 2.47837E-11
 -1       948-2.82186E+04-4.30099E+03-8.68856E+03 4.78106E+04 5.41149E-11-3.01952E-10
 -1       949-2.00499E+04-1.81438E+05-4.16215E+04 6.98269E+04 1.20053E-10-4.41105E-11
 -1       950-6.75478E+03-1.89044E+05-2.53988E+04 8.08730E+04-1.44382E-11-2.76387E-10
 -1       951-2.12554E+03-1.84088E+05-2.04314E+04 6.97550E+04 1.22327E-10-2.95586E-12
 -1       952-8.81652E+03-1.90137E+05-3.05706E+04 8.08151E+04 6.36646E-11 1.03910E-10
 -1       953-2.67653E+04-1.80302E+05-5.42279E+04 6.98810E+04 1.63709E-10-3.22871E-11
 -1       954 4.84646E+05 2.77138E+05 5.70111E+04 3.36362E+05 2.54659E-10-5.38421E-10
 -1       955 4.84779E+05 2.67438E+05 2.89277E+04 3.50466E+05 1.47793E-10 1.74850E-10
 -1       956 4.77445E+05 2.61036E+05 1.36108E+04 3.51744E+05 1.31877E-10 8.84484E-11
 -1       957 4.78604E+05 2.60008E+05 8.16407E+03 3.52476E+05 1.72463E-10 3.65048E-10
 -1       958 4.77158E+05 2.60262E+05 6.40791E+03 3.52590E+05-3.06954E-11-5.07043E-11
 -1       959 4.78635E+05 2.60032E+05 8.46893E+03 3.52476E+05-8.04334E-11 6.72230E-10
 -1       960 4.77452E+05 2.61083E+05 1.43575E+04 3.51689E+05-1.70530E-10 2.25555E-10
 -1       961 4.85244E+05 2.67876E+05 3.06742E+04 3.50332E+05-3.88354E-10-8.27640E-10
 -1       962 4.85047E+05 2.78231E+05 6.05286E+04 3.35368E+05-1.09139E-11 2.74667E-10
 -1       963-9.75312E+04-8.02180E+03-1.57954E+04 1.43351E+04-1.12777E-10 2.43972E-10
 -1       964-1.00349E+05-2.56716E+03-8.01573E+03 1.64522E+04 1.11413E-11 4.36103E-10
 -1       965-9.87424E+04-3.63923E+02-3.77185E+03 1.42577E+04 1.07775E-10 2.65800E-10
 -1       966-9.90679E+04-1.31843E+02-2.27352E+03 1.65420E+04 9.73159E-11 4.55657E-10
 -1       967-9.88307E+04-8.13014E+01-1.80240E+03 1.42473E+04 8.86757E-11 5.66160E-11
 -1       968-9.92992E+04-6.80853E+02-2.53988E+03 1.65716E+04 1.39948E-10 2.29420E-10
 -1       969-9.85251E+04-2.14975E+03-4.40313E+03 1.42283E+04 1.40972E-10 2.33058E-11
 -1       970 4.79813E+03 1.39372E+05 9.09358E+03 1.98011E+05-8.28550E-10-1.21872E-10
 -1       971 1.71776E+03 1.40846E+05 4.39637E+03 2.29089E+05-5.22050E-10 1.67347E-10
 -1       972 3.78993E+02 1.39924E+05 1.59809E+03 1.97707E+05-1.44792E-09 6.30962E-11
 -1       973-1.93608E+01 1.39871E+05-1.58876E+01 2.29127E+05-5.62068E-10-2.06228E-10
 -1       974-8.93896E+02 1.40271E+05-1.66131E+03 1.97973E+05-1.18916E-09-3.50155E-10
 -1       975 3.00747E+04 3.16576E+04 1.11577E+03 3.18762E+04-1.83405E-10 1.45519E-11
 -1       976 2.87025E+04 3.28687E+04 8.34202E+02 3.25308E+04-2.41016E-11 1.33014E-11
 -1       977 2.99846E+04 3.13010E+04 9.25958E+02 3.21331E+04 1.25965E-10-1.16188E-10
 -1       978 2.85686E+04 3.28111E+04 1.57354E+03 3.26205E+04 5.11591E-11 8.18545E-12
 -1       979 2.99423E+04 3.12480E+04 2.93537E+03 3.21303E+04 6.04814E-11 2.62744E-10
 -1       980 2.89652E+04 3.32063E+04 6.04741E+03 3.26475E+04-6.20730E-11 2.16005E-10
 -1       981 3.01623E+04 3.19325E+04 1.18904E+04 3.13307E+04 4.18368E-11 3.07409E-10
 -1       982 3.47626E+04 4.00824E+04 2.64853E+04 3.08162E+04 6.45741E-11 1.59389E-10
 -1       983 3.68049E+04 4.68768E+04 5.27658E+04 1.70807E+04-2.25555E-10 7.27596E-12
 -1       984-1.13811E+05-2.98029E+03-5.99722E+03 2.50064E+03-2.11458E-10-1.77806E-10
 -1       985-1.14868E+05-9.51934E+02-3.29596E+03 2.69227E+03 4.52019E-10-4.80782E-10
 -1       986-1.14247E+05-1.27171E+02-2.05400E+03 2.41465E+03-7.21229E-10-1.76982E-10
 -1       987-1.14491E+05-1.32554E+02-2.22014E+03 2.79619E+03-3.73802E-10-3.50042E-10
 -1       988-1.14192E+05-3.15823E+02-3.39001E+03 2.39692E+03-3.18323E-11-5.53769E-10
 -1       989-1.15593E+05-2.22557E+03-7.01107E+03 2.89001E+03-1.30967E-09-4.72710E-10
 -1       990-1.13151E+05-6.95618E+03-1.37259E+04 2.32489E+03 3.32420E-10-5.70708E-11
 -1       991 1.23775E+03-3.48394E+04 4.22030E+03 8.27367E+04 5.91172E-12 2.72848E-11
 -1       992 7.10548E+02-3.39731E+04 5.82002E+03 9.57094E+04-2.63299E-10-1.16415E-10
 -1       993 1.07421E+03-3.50005E+04 1.00270E+04 8.26004E+04 6.29825E-11-1.25283E-10
 -1       994 6.99906E+03-3.05917E+04 2.16465E+04 9.57413E+04-1.47452E-10-8.04903E-11
 -1       995 2.17620E+04-3.82454E+04 4.28111E+04 8.27054E+04 1.81899E-11-1.67347E-10
 -1       996-4.78451E+04-7.76258E+03 3.56707E+02-2.32442E+04-5.91342E-10 1.20963E-10
 -1       997-4.95812E+04-6.05381E+03 3.72254E+02-2.26589E+04-2.34422E-10-3.72893E-11
 -1       998-4.78009E+04-7.94377E+03 5.53955E+02-2.31964E+04-7.80801E-10-3.88354E-10
 -1       999-4.96931E+04-5.98125E+03 1.05503E+03-2.25982E+04 2.51248E-10 2.61025E-10
 -1      1000-4.78253E+04-7.98231E+03 2.03643E+03-2.32105E+04-6.68479E-11 7.09406E-11
 -1      1001-4.94208E+04-5.68889E+03 4.23257E+03-2.25790E+04 1.12959E-09 1.41881E-10
 -1      1002-4.76701E+04-7.50671E+03 8.33858E+03-2.37762E+04-1.33332E-09-5.78439E-10
 -1      1003-4.53798E+04-8.37326E+02 1.85858E+04-2.38595E+04 1.88265E-10 3.72893E-11
 -1      1004-4.29770E+04 2.95159E+03 3.70315E+04-3.37876E+04-6.00267E-10-1.58252E-10
 -1      1005-1.95568E+05-1.13415E+04-2.25907E+04 5.87719E+04-3.72438E-09 3.81988E-10
 -1      1006-1.99620E+05-3.56874E+03-1.17939E+04 6.77409E+04-8.42647E-10-3.30147E-10
 -1      1007-1.97323E+05-4.32384E+02-6.21192E+03 5.85550E+04 3.05045E-09-8.15817E-10
 -1      1008-1.97984E+05-1.97566E+02-5.03635E+03 6.79737E+04-1.40881E-09-2.71029E-10
 -1      1009-1.97364E+05-3.98275E+02-6.13886E+03 5.85361E+04-4.28281E-09-5.56611E-10
 -1      1010-1.99672E+05-3.45338E+03-1.15946E+04 6.79576E+04-8.04414E-09 3.35149E-10
 -1      1011-1.95714E+05-1.10650E+04-2.21714E+04 5.85814E+04-3.60353E-09-3.99268E-10
 -1      1012 1.70964E+03 4.98066E+04 5.47526E+03 8.73968E+04-2.39197E-10-3.31966E-11
 -1      1013 8.53921E+02 5.09149E+04 6.91170E+03 1.01126E+05-7.76708E-10 9.27685E-11
 -1      1014 1.16871E+03 4.96879E+04 1.14422E+04 8.72646E+04-1.73827E-10 1.18234E-11
 -1      1015 7.81088E+03 5.46655E+04 2.44306E+04 1.01137E+05-4.43833E-10 3.97449E-10
 -1      1016 2.44223E+04 4.60484E+04 4.81928E+04 8.73972E+04-2.36469E-10-1.78716E-10
 -1      1017 4.66778E+04 7.34229E+04 1.04733E+04 6.09604E+04-2.44677E-09 8.29459E-10
 -1      1018 4.23011E+04 7.60728E+04 5.50533E+03 6.48140E+04-3.38878E-09 4.06317E-10
 -1      1019 4.54864E+04 7.03268E+04 2.96334E+03 6.37086E+04-7.39419E-10 1.61435E-10
 -1      1020 4.10235E+04 7.48848E+04 2.49494E+03 6.52353E+04-2.36014E-10-2.76714E-10
 -1      1021 4.54140E+04 7.01506E+04 3.15532E+03 6.38354E+04 4.00269E-09 1.32189E-09
 -1      1022 4.12906E+04 7.51763E+04 5.69605E+03 6.52456E+04 3.91083E-11-6.30735E-10
 -1      1023 4.56138E+04 7.07704E+04 1.08102E+04 6.31111E+04-1.69166E-10 1.14596E-10
 -1      1024 4.65110E+04 8.13341E+04 2.38585E+04 6.35820E+04 5.94810E-10 1.61890E-09
 -1      1025 5.15845E+04 8.42012E+04 4.74328E+04 5.03027E+04 2.13186E-09-7.80346E-10
 -1      1026-8.45296E+04-5.11344E+03-1.03177E+04 6.71074E+04-1.32059E-09-1.48611E-09
 -1      1027-8.64075E+04-1.53164E+03-5.33272E+03 7.74951E+04 5.19321E-09-2.05910E-09
 -1      1028-8.53589E+04-1.07570E+02-2.70811E+03 6.69234E+04-2.26328E-09-9.62245E-10
 -1      1029-8.56538E+04 3.72525E+01-2.01956E+03 7.76831E+04-8.81528E-10-9.49512E-10
 -1      1030-8.53973E+04-3.03248E+01-2.24632E+03 6.69152E+04-1.95138E-09-9.84983E-10
 -1      1031-8.62037E+04-1.06821E+03-4.05053E+03 7.75872E+04-3.50678E-09-7.16682E-10
 -1      1032-8.48132E+04-3.70954E+03-7.64812E+03 6.70232E+04 8.28095E-10-1.19780E-09
 -1      1033-5.53271E+03-8.70738E+04-9.45789E+03 1.33375E+05 2.63572E-09 5.69344E-10
 -1      1034-1.68110E+03-8.87049E+04-2.46403E+03 1.54329E+05 2.28101E-09 6.41194E-10
 -1      1035 2.42961E+02-8.81487E+04 3.45690E+03 1.33181E+05 2.78851E-09 5.11875E-10
 -1      1036 4.03887E+03-8.56255E+04 1.19346E+04 1.54343E+05 1.14051E-09-3.25826E-10
 -1      1037 1.31353E+04-9.01692E+04 2.56478E+04 1.33379E+05 2.97405E-09 1.85537E-10
 -1      1038 1.31661E+05 1.00151E+05 2.20378E+04 1.04506E+05 7.92852E-09 8.37463E-09
 -1      1039 1.29436E+05 9.86944E+04 1.12944E+04 1.10611E+05 5.91535E-09-1.05456E-09
 -1      1040 1.28947E+05 9.38559E+04 5.53657E+03 1.10413E+05 1.40062E-09 6.84850E-10
 -1      1041 1.26974E+05 9.59267E+04 3.74773E+03 1.11425E+05 3.27827E-09 7.57564E-09
 -1      1042 1.28824E+05 9.35355E+04 3.65372E+03 1.10728E+05-2.94358E-09 1.23919E-10
 -1      1043 1.27144E+05 9.61064E+04 5.73798E+03 1.11436E+05-6.51562E-09-4.74756E-10
 -1      1044 1.29029E+05 9.41322E+04 1.04148E+04 1.10051E+05 4.82669E-09 6.93262E-09
 -1      1045 1.32078E+05 1.01953E+05 2.27061E+04 1.09855E+05 2.74690E-09-2.32831E-10
 -1      1046 1.34711E+05 1.06859E+05 4.50158E+04 9.78971E+04-4.20187E-09 2.34650E-10
 -1      1047-4.50310E+04-1.62481E+03-3.38436E+03 4.70219E+04-5.44969E-09-1.25010E-09
 -1      1048-4.56560E+04-4.40660E+02-1.75321E+03 5.43338E+04-1.64073E-09-7.92170E-10
 -1      1049-4.53064E+04 1.83018E+01-8.98864E+02 4.69078E+04-3.22962E-09-1.48657E-09
 -1      1050-4.54122E+04 7.28192E+01-6.85801E+02 5.44490E+04-2.33786E-09-8.79027E-10
 -1      1051-4.53156E+04 3.73316E+01-7.83971E+02 4.69050E+04-1.25442E-09-3.77440E-10
 -1      1052-4.56046E+04-3.25703E+02-1.43418E+03 5.43647E+04-6.36032E-09-2.55568E-10
 -1      1053-4.51007E+04-1.27597E+03-2.72012E+03 4.69935E+04 1.05956E-10-6.85304E-10
 -1      1054-8.19283E+03-1.62711E+05-1.55901E+04 1.02199E+05-5.94446E-09 4.94765E-10
 -1      1055-2.69939E+03-1.65474E+05-7.40539E+03 1.18280E+05-8.51060E-09-5.04087E-10
 -1      1056-4.00881E+02-1.63990E+05-2.48863E+03 1.02070E+05-7.14545E-09 1.60242E-10
 -1      1057 4.70614E+02-1.63752E+05 5.88883E+02 1.18261E+05-8.64566E-09 3.63571E-10
 -1      1058 2.15990E+03-1.64411E+05 3.89849E+03 1.02230E+05-7.96535E-09 2.00953E-09
 -1      1059 1.05303E+05 7.26838E+04 1.91870E+04 7.78039E+04-2.28147E-09-2.58296E-10
 -1      1060 1.04246E+05 7.05342E+04 9.77338E+03 8.28712E+04-8.64456E-09-8.09450E-11
 -1      1061 1.02911E+05 6.72342E+04 4.67193E+03 8.29653E+04-3.18073E-09-1.30353E-09
 -1      1062 1.02125E+05 6.80838E+04 2.94388E+03 8.35649E+04-2.20842E-09-1.03091E-09
 -1      1063 1.02812E+05 6.69655E+04 2.54790E+03 8.32460E+04 1.01682E-09 1.71170E-09
 -1      1064 1.02187E+05 6.81508E+04 3.67024E+03 8.35699E+04-8.71523E-10 1.59395E-09
 -1      1065 1.02942E+05 6.73337E+04 6.45128E+03 8.28336E+04-1.42245E-09-4.91809E-10
 -1      1066 1.05204E+05 7.17299E+04 1.39363E+04 8.25991E+04-1.33446E-08-6.08225E-09
 -1      1067 1.06424E+05 7.51250E+04 2.75694E+04 7.53932E+04-1.39898E-08-9.20045E-09
 -1      1068-3.02286E+04-5.23215E+02-1.10024E+03 2.60192E+04 3.00361E-09-8.17181E-10
 -1      1069-3.04334E+04-1.25528E+02-5.09320E+02 3.00901E+04 5.23130E-09-8.88576E-10
 -1      1070-3.03213E+04 2.24099E+01-1.42958E+02 2.59658E+04-2.48133E-09-6.53699E-10
 -1      1071-3.03253E+04 6.52258E+01 1.02956E+02 3.01423E+04-3.81544E-09-7.10543E-10
 -1      1072-3.03435E+04 9.84104E+01 3.94894E+02 2.59662E+04 3.53498E-09-1.43336E-09
 -1      1073-3.01421E+04 3.87309E+02 9.86259E+02 3.00837E+04-1.77988E-09-1.30626E-09
 -1      1074-3.04945E+04 1.07759E+03 2.01124E+03 2.60232E+04 1.59002E-09-1.12050E-09
 -1      1075-5.78063E+03-1.25259E+05-1.12879E+04 6.19022E+04-1.61617E-09-4.75438E-10
 -1      1076-1.95403E+03-1.27270E+05-5.94588E+03 7.16487E+04 8.35826E-10-7.69376E-10
 -1      1077-4.39905E+02-1.26101E+05-3.23186E+03 6.18298E+04-9.69521E-10 6.90989E-10
 -1      1078-7.50105E+02-1.26614E+05-2.90692E+03 7.16273E+04 2.97405E-10 3.27304E-10
 -1      1079-1.84727E+03-1.25902E+05-3.87971E+03 6.19282E+04-1.34696E-09 1.31013E-09
 -1      1080 6.51235E+04 4.18635E+04 1.26924E+04 4.56195E+04-3.16504E-09 8.32188E-11
 -1      1081 6.47631E+04 4.01008E+04 6.44257E+03 4.88755E+04-1.71440E-09-1.63908E-09
 -1      1082 6.35258E+04 3.82727E+04 3.03483E+03 4.90407E+04-1.76664E-09-1.74100E-09
 -1      1083 6.33730E+04 3.84611E+04 1.82849E+03 4.93272E+04-5.94938E-09-1.34497E-09
 -1      1084 6.34624E+04 3.80994E+04 1.44901E+03 4.92286E+04-5.31831E-09 1.99085E-09
 -1      1085 6.33822E+04 3.84704E+04 1.93302E+03 4.93279E+04-1.85025E-09-1.72230E-09
 -1      1086 6.35301E+04 3.82873E+04 3.29102E+03 4.90220E+04 5.07180E-09-4.76916E-10
 -1      1087 6.49036E+04 4.02703E+04 7.04182E+03 4.88358E+04-1.42336E-09 2.09684E-09
 -1      1088 6.52824E+04 4.22175E+04 1.38991E+04 4.52735E+04-6.17547E-09-1.36788E-09
 -1      1089-1.87604E+03-8.36473E+04-3.81397E+03 2.97158E+04 1.52363E-09-9.37916E-11
 -1      1090-6.80068E+02-8.43330E+04-2.38766E+03 3.43915E+04-1.97497E-09-7.32257E-10
 -1      1091-2.63128E+02-8.38843E+04-2.02086E+03 2.96807E+04 3.24144E-09-4.71516E-10
 -1      1092-9.82629E+02-8.44946E+04-3.14799E+03 3.43794E+04-1.68393E-09-1.28603E-09
 -1      1093-2.86272E+03-8.34821E+04-5.66769E+03 2.97266E+04-8.52765E-10 2.00907E-09
 -1      1094-5.24622E+05-7.16686E+03-1.43607E+04 5.11148E+04-2.91038E-11-3.58568E-10
 -1      1095-5.27148E+05-2.29822E+03-7.86821E+03 5.89695E+04-6.68479E-11-4.35193E-10
 -1      1096-5.25700E+05-3.10546E+02-4.86073E+03 5.09639E+04-1.48702E-10-1.81444E-10
 -1      1097-5.26262E+05-3.12241E+02-5.19498E+03 5.91350E+04-1.16643E-10-2.61934E-10
 -1      1098-5.25590E+05-7.27979E+02-7.87774E+03 5.09535E+04-7.20775E-11-1.26192E-10
 -1      1099-5.28817E+05-5.15885E+03-1.62601E+04 5.90813E+04-1.94632E-10-3.61808E-10
 -1      1100-5.23173E+05-1.61240E+04-3.18167E+04 5.10135E+04-7.13953E-11-3.21961E-10
 -1      1101-3.72872E+05-8.05694E+03-1.60939E+04 3.20955E+04-6.63931E-11-1.52113E-10
 -1      1102-3.75717E+05-2.57141E+03-8.61078E+03 3.70391E+04 1.09139E-10-1.05501E-10
 -1      1103-3.74073E+05-3.42830E+02-4.93479E+03 3.20039E+04 1.90084E-10 1.90994E-11
 -1      1104-3.74609E+05-2.71224E+02-4.70197E+03 3.71391E+04 2.00657E-10-6.63931E-11
 -1      1105-3.74009E+05-5.74397E+02-6.59354E+03 3.19980E+04 5.41149E-11 3.39924E-11
 -1      1106-3.76627E+05-4.14800E+03-1.32241E+04 3.71021E+04 8.12861E-12 1.63368E-10
 -1      1107-3.72065E+05-1.29865E+04-2.56904E+04 3.20393E+04-2.82853E-10 1.09139E-11
 -1      1108-1.92020E+05-3.33312E+03-6.74304E+03 3.25423E+04-1.25056E-10-7.73070E-12
 -1      1109-1.93211E+05-1.05837E+03-3.76695E+03 3.75758E+04-2.15550E-10 2.04636E-12
 -1      1110-1.92516E+05-1.30513E+02-2.45988E+03 3.24548E+04-1.47793E-11-1.17780E-10
 -1      1111-1.92822E+05-1.57967E+02-2.82670E+03 3.76679E+04 6.21867E-11 2.71939E-10
 -1      1112-1.92436E+05-4.13056E+02-4.47079E+03 3.24509E+04-8.37872E-11 1.13857E-10
 -1      1113-1.94306E+05-2.97297E+03-9.35915E+03 3.76211E+04-6.38920E-11 1.05445E-11
 -1      1114-1.91033E+05-9.31378E+03-1.83762E+04 3.25012E+04-9.79981E-11-2.26464E-10
 -1      1115 4.05111E+04 3.10313E+03 6.00358E+03 3.03825E+04-5.00222E-12-5.10681E-10
 -1      1116 4.15791E+04 9.98812E+02 2.83617E+03 3.51032E+04 6.24141E-11-2.93483E-10
 -1      1117 4.09791E+04 1.54162E+02 9.14989E+02 3.03097E+04-8.23093E-11-6.12772E-11
 -1      1118 4.09910E+04-9.41325E+00-2.68424E+02 3.51774E+04-3.05533E-11 3.62888E-10
 -1      1119 4.10824E+04-1.97827E+02-1.57365E+03 3.03081E+04-3.97335E-11 4.33602E-10
 -1      1120 4.02326E+04-1.37474E+03-4.08373E+03 3.51228E+04 3.83125E-11 1.78090E-10
 -1      1121 4.17434E+04-4.30451E+03-8.39275E+03 3.03643E+04 2.86491E-11 2.50111E-11
 -1      1122 3.21838E+05 1.07199E+04 2.10621E+04 3.19321E+04-4.91127E-11-1.07320E-10
 -1      1123 3.25574E+05 3.43202E+03 1.05800E+04 3.69137E+04-7.76481E-11-2.68386E-10
 -1      1124 3.23449E+05 4.92045E+02 4.76244E+03 3.18657E+04 2.61480E-11 7.25606E-11
 -1      1125 3.23806E+05 1.46545E+02 2.44806E+03 3.69795E+04 4.30838E-10 6.20275E-10
 -1      1126 3.23598E+05-8.36182E+00 1.23825E+03 3.18660E+04 6.93490E-11 3.36968E-10
 -1      1127 3.23676E+05 6.76250E+01 7.81924E+02 3.69107E+04 1.13232E-10 2.22144E-10
 -1      1128 3.23593E+05 2.24876E+02 6.76685E+02 3.19346E+04 5.16138E-11-3.86535E-11
 -1      1129 7.26349E+05 2.18138E+04 4.34975E+04 7.63510E+04-1.55524E-10-1.65528E-10
 -1      1130 7.34045E+05 6.96935E+03 2.30812E+04 8.83666E+04 5.79348E-10 2.13106E-10
 -1      1131 7.29569E+05 9.44166E+02 1.28605E+04 7.62364E+04 4.92264E-11-1.45064E-10
 -1      1132 7.30942E+05 6.83739E+02 1.16579E+04 8.84717E+04 3.30147E-10 6.67569E-10
 -1      1133 7.29476E+05 1.33234E+03 1.57131E+04 7.62449E+04 1.91903E-10 5.61158E-10
 -1      1134 7.35646E+05 9.65959E+03 3.10135E+04 8.82558E+04-1.78261E-10 6.54836E-11
 -1      1135 7.25007E+05 3.02677E+04 6.00006E+04 7.64647E+04-4.35648E-10-7.96717E-10
 -1      1136-9.58593E+05-5.99223E+04-1.18378E+05 1.49666E+04-4.90672E-10-8.84029E-10
 -1      1137-9.79685E+05-1.91545E+04-6.05684E+04 1.71850E+04-4.69299E-10 1.00044E-09
 -1      1138-9.67577E+05-2.66324E+03-2.94484E+04 1.49014E+04-4.59295E-11-1.00954E-10
 -1      1139-9.70229E+05-1.11871E+03-1.96279E+04 1.72821E+04 1.23464E-10 3.33785E-10
 -1      1140-9.68035E+05-1.13238E+03-1.86738E+04 1.48890E+04-1.02318E-10-5.86624E-10
 -1      1141-9.73875E+05-8.85750E+03-3.05991E+04 1.73153E+04-2.36014E-10-1.14596E-09
 -1      1142-9.63961E+05-2.78444E+04-5.60539E+04 1.48701E+04 1.09139E-11-4.63842E-10
 -1      1143-8.35124E+05-2.09893E+04-4.17360E+04 2.47992E+04 1.00044E-11 1.05501E-09
 -1      1144-8.42508E+05-6.69555E+03-2.18817E+04 2.84744E+04 5.81167E-10-6.69388E-10
 -1      1145-8.38257E+05-9.03835E+02-1.16921E+04 2.46580E+04-9.20409E-10 1.35424E-09
 -1      1146-8.39428E+05-5.49600E+02-9.78085E+03 2.86410E+04-5.94355E-10 5.42059E-10
 -1      1147-8.38248E+05-9.78517E+02-1.22898E+04 2.46357E+04-2.14641E-10-3.64935E-11
 -1      1148-8.42870E+05-7.24694E+03-2.35456E+04 2.87017E+04-1.62709E-09 1.02568E-09
 -1      1149-8.34873E+05-2.27438E+04-4.51953E+04 2.46095E+04 5.18867E-10 7.27596E-11
 -1      1150-7.95800E+05-2.06457E+04-4.11638E+04 5.07624E+04-3.37877E-09 2.18915E-09
 -1      1151-8.03105E+05-6.54409E+03-2.16644E+04 5.85333E+04-7.18501E-10 6.33008E-10
 -1      1152-7.98914E+05-8.36709E+02-1.17388E+04 5.05575E+04 3.78532E-09-3.56067E-10
 -1      1153-8.00135E+05-5.02289E+02-1.00988E+04 5.87544E+04-7.79437E-10 9.11314E-10
 -1      1154-7.98894E+05-9.98424E+02-1.30240E+04 5.05364E+04-4.79622E-09 2.05364E-09
 -1      1155-8.03879E+05-7.73188E+03-2.52422E+04 5.87582E+04-9.75069E-09 4.19823E-09
 -1      1156-7.95257E+05-2.44208E+04-4.86015E+04 5.05762E+04-4.60761E-09 1.45337E-09
 -1      1157-5.83110E+05-1.30506E+04-2.62387E+04 5.67976E+04-1.34969E-09 6.83940E-10
 -1      1158-5.87776E+05-4.07643E+03-1.39912E+04 6.56118E+04 3.57841E-09 3.25599E-10
 -1      1159-5.85093E+05-4.54095E+02-7.93116E+03 5.66164E+04-3.23871E-09 2.35696E-09
 -1      1160-5.85970E+05-2.96724E+02-7.41711E+03 6.57951E+04 1.38243E-10 1.11504E-09
 -1      1161-5.85016E+05-7.70795E+02-1.02558E+04 5.66052E+04 1.18234E-11 1.01909E-09
 -1      1162-5.89081E+05-6.27101E+03-2.04583E+04 6.57372E+04 8.85933E-10 1.71360E-09
 -1      1163-5.82016E+05-1.99400E+04-3.96897E+04 5.66967E+04 1.85787E-09 7.60338E-10
 -1      1164-3.07838E+05-5.27826E+03-1.07622E+04 3.88751E+04-5.63023E-09 1.72486E-09
 -1      1165-3.09751E+05-1.61349E+03-5.87076E+03 4.49512E+04-2.74895E-09 6.19366E-10
 -1      1166-3.08638E+05-1.39872E+02-3.57779E+03 3.87731E+04-3.47609E-09 1.84264E-09
 -1      1167-3.09063E+05-1.19946E+02-3.75121E+03 4.50508E+04 1.91466E-09 2.50839E-09
 -1      1168-3.08556E+05-4.27114E+02-5.61983E+03 3.87704E+04 1.31809E-09 1.41586E-09
 -1      1169-3.10862E+05-3.55834E+03-1.15496E+04 4.49857E+04-4.23336E-09 2.83671E-09
 -1      1170-3.06835E+05-1.13524E+04-2.25757E+04 3.88516E+04 1.08048E-09 1.34605E-09
 -1      1171-1.11403E+05-9.09718E+02-1.95974E+03 2.05900E+04 4.99153E-09 3.11275E-10
 -1      1172-1.11750E+05-2.53044E+02-1.15928E+03 2.38340E+04 6.41398E-09 1.67483E-09
 -1      1173-1.11540E+05 7.11222E+00-8.73397E+02 2.05508E+04 6.54978E-10 8.38668E-10
 -1      1174-1.11663E+05-1.89218E+01-1.16766E+03 2.38708E+04-5.00108E-10 1.34219E-09
 -1      1175-1.11493E+05-1.51789E+02-1.98951E+03 2.05523E+04 2.25441E-09 1.22930E-09
 -1      1176-1.12350E+05-1.31964E+03-4.26268E+03 2.38202E+04-6.72117E-09 1.27781E-09
 -1      1177-1.10846E+05-4.23440E+03-8.41624E+03 2.06064E+04 3.39946E-09 5.31600E-10
 -3
 9999
