    1C
    1UUSER                                                              
    1UDATE              11.october.2022                                 
    1UTIME              17:30:41                                        
    1UHOST                                                              
    1UPGM               CalculiX                                        
    1UVERSION           Version 2.20                             
    1UCOMPILETIME       Sun Jul 31 18:08:37 CEST 2022                    
    1UDIR                                                               
    1UDBN                                                               
    1UMAT    1MESH_MATERIAL                                             
    2C                           841                                     1
 -1         1 0.00000E+00 0.00000E+00 0.00000E+00
 -1         2 1.66667E-02 0.00000E+00 0.00000E+00
 -1         3 3.33333E-02 0.00000E+00 0.00000E+00
 -1         4 5.00000E-02 0.00000E+00 0.00000E+00
 -1         5 6.66667E-02 0.00000E+00 0.00000E+00
 -1         8 0.00000E+00 6.25000E-03 0.00000E+00
 -1         9 1.66667E-02 6.25000E-03 0.00000E+00
 -1        10 3.33333E-02 6.25000E-03 0.00000E+00
 -1        11 5.00000E-02 6.25000E-03 0.00000E+00
 -1        12 6.66667E-02 6.25000E-03 0.00000E+00
 -1        15 0.00000E+00 1.25000E-02 0.00000E+00
 -1        16 1.66667E-02 1.25000E-02 0.00000E+00
 -1        17 3.33333E-02 1.25000E-02 0.00000E+00
 -1        18 5.00000E-02 1.25000E-02 0.00000E+00
 -1        19 6.66667E-02 1.25000E-02 0.00000E+00
 -1        20 8.33333E-02 1.25000E-02 0.00000E+00
 -1        21 1.00000E-01 1.25000E-02 0.00000E+00
 -1        22 0.00000E+00 1.87500E-02 0.00000E+00
 -1        23 1.66667E-02 1.87500E-02 0.00000E+00
 -1        24 3.33333E-02 1.87500E-02 0.00000E+00
 -1        25 5.00000E-02 1.87500E-02 0.00000E+00
 -1        26 6.66667E-02 1.87500E-02 0.00000E+00
 -1        27 8.33333E-02 1.87500E-02 0.00000E+00
 -1        28 1.00000E-01 1.87500E-02 0.00000E+00
 -1        29 0.00000E+00 2.50000E-02 0.00000E+00
 -1        30 1.66667E-02 2.50000E-02 0.00000E+00
 -1        31 3.33333E-02 2.50000E-02 0.00000E+00
 -1        32 5.00000E-02 2.50000E-02 0.00000E+00
 -1        33 6.66667E-02 2.50000E-02 0.00000E+00
 -1        34 8.33333E-02 2.50000E-02 0.00000E+00
 -1        35 1.00000E-01 2.50000E-02 0.00000E+00
 -1        36 1.04167E-03 0.00000E+00 0.00000E+00
 -1        37 2.08333E-03 0.00000E+00 0.00000E+00
 -1        38 3.12500E-03 0.00000E+00 0.00000E+00
 -1        39 4.16667E-03 0.00000E+00 0.00000E+00
 -1        40 5.20833E-03 0.00000E+00 0.00000E+00
 -1        41 6.25000E-03 0.00000E+00 0.00000E+00
 -1        42 7.29167E-03 0.00000E+00 0.00000E+00
 -1        43 8.33333E-03 0.00000E+00 0.00000E+00
 -1        44 9.37500E-03 0.00000E+00 0.00000E+00
 -1        45 1.04167E-02 0.00000E+00 0.00000E+00
 -1        46 1.14583E-02 0.00000E+00 0.00000E+00
 -1        47 1.25000E-02 0.00000E+00 0.00000E+00
 -1        48 1.35417E-02 0.00000E+00 0.00000E+00
 -1        49 1.45833E-02 0.00000E+00 0.00000E+00
 -1        50 1.56250E-02 0.00000E+00 0.00000E+00
 -1        51 0.00000E+00 1.04167E-03 0.00000E+00
 -1        52 0.00000E+00 2.08333E-03 0.00000E+00
 -1        53 0.00000E+00 3.12500E-03 0.00000E+00
 -1        54 0.00000E+00 4.16667E-03 0.00000E+00
 -1        55 0.00000E+00 5.20833E-03 0.00000E+00
 -1        56 1.04167E-03 3.90630E-04 0.00000E+00
 -1        57 2.08333E-03 7.81250E-04 0.00000E+00
 -1        58 3.12500E-03 1.17188E-03 0.00000E+00
 -1        59 4.16667E-03 1.56250E-03 0.00000E+00
 -1        60 5.20833E-03 1.95312E-03 0.00000E+00
 -1        61 6.25000E-03 2.34375E-03 0.00000E+00
 -1        62 7.29167E-03 2.73438E-03 0.00000E+00
 -1        63 8.33333E-03 3.12500E-03 0.00000E+00
 -1        64 9.37500E-03 3.51563E-03 0.00000E+00
 -1        65 1.04167E-02 3.90625E-03 0.00000E+00
 -1        66 1.14583E-02 4.29688E-03 0.00000E+00
 -1        67 1.25000E-02 4.68750E-03 0.00000E+00
 -1        68 1.35417E-02 5.07813E-03 0.00000E+00
 -1        69 1.45833E-02 5.46875E-03 0.00000E+00
 -1        70 1.56250E-02 5.85938E-03 0.00000E+00
 -1        71 1.77083E-02 0.00000E+00 0.00000E+00
 -1        72 1.87500E-02 0.00000E+00 0.00000E+00
 -1        73 1.97917E-02 0.00000E+00 0.00000E+00
 -1        74 2.08333E-02 0.00000E+00 0.00000E+00
 -1        75 2.18750E-02 0.00000E+00 0.00000E+00
 -1        76 2.29167E-02 0.00000E+00 0.00000E+00
 -1        77 2.39583E-02 0.00000E+00 0.00000E+00
 -1        78 2.50000E-02 0.00000E+00 0.00000E+00
 -1        79 2.60417E-02 0.00000E+00 0.00000E+00
 -1        80 2.70833E-02 0.00000E+00 0.00000E+00
 -1        81 2.81250E-02 0.00000E+00 0.00000E+00
 -1        82 2.91667E-02 0.00000E+00 0.00000E+00
 -1        83 3.02083E-02 0.00000E+00 0.00000E+00
 -1        84 3.12500E-02 0.00000E+00 0.00000E+00
 -1        85 3.22917E-02 0.00000E+00 0.00000E+00
 -1        86 1.66667E-02 1.04167E-03 0.00000E+00
 -1        87 1.66667E-02 2.08333E-03 0.00000E+00
 -1        88 1.66667E-02 3.12500E-03 0.00000E+00
 -1        89 1.66667E-02 4.16667E-03 0.00000E+00
 -1        90 1.66667E-02 5.20833E-03 0.00000E+00
 -1        91 1.77083E-02 3.90630E-04 0.00000E+00
 -1        92 1.87500E-02 7.81250E-04 0.00000E+00
 -1        93 1.97917E-02 1.17188E-03 0.00000E+00
 -1        94 2.08333E-02 1.56250E-03 0.00000E+00
 -1        95 2.18750E-02 1.95312E-03 0.00000E+00
 -1        96 2.29167E-02 2.34375E-03 0.00000E+00
 -1        97 2.39583E-02 2.73438E-03 0.00000E+00
 -1        98 2.50000E-02 3.12500E-03 0.00000E+00
 -1        99 2.60417E-02 3.51563E-03 0.00000E+00
 -1       100 2.70833E-02 3.90625E-03 0.00000E+00
 -1       101 2.81250E-02 4.29688E-03 0.00000E+00
 -1       102 2.91667E-02 4.68750E-03 0.00000E+00
 -1       103 3.02083E-02 5.07813E-03 0.00000E+00
 -1       104 3.12500E-02 5.46875E-03 0.00000E+00
 -1       105 3.22917E-02 5.85938E-03 0.00000E+00
 -1       106 3.43750E-02 0.00000E+00 0.00000E+00
 -1       107 3.54167E-02 0.00000E+00 0.00000E+00
 -1       108 3.64583E-02 0.00000E+00 0.00000E+00
 -1       109 3.75000E-02 0.00000E+00 0.00000E+00
 -1       110 3.85417E-02 0.00000E+00 0.00000E+00
 -1       111 3.95833E-02 0.00000E+00 0.00000E+00
 -1       112 4.06250E-02 0.00000E+00 0.00000E+00
 -1       113 4.16667E-02 0.00000E+00 0.00000E+00
 -1       114 4.27083E-02 0.00000E+00 0.00000E+00
 -1       115 4.37500E-02 0.00000E+00 0.00000E+00
 -1       116 4.47917E-02 0.00000E+00 0.00000E+00
 -1       117 4.58333E-02 0.00000E+00 0.00000E+00
 -1       118 4.68750E-02 0.00000E+00 0.00000E+00
 -1       119 4.79167E-02 0.00000E+00 0.00000E+00
 -1       120 4.89583E-02 0.00000E+00 0.00000E+00
 -1       121 3.33333E-02 1.04167E-03 0.00000E+00
 -1       122 3.33333E-02 2.08333E-03 0.00000E+00
 -1       123 3.33333E-02 3.12500E-03 0.00000E+00
 -1       124 3.33333E-02 4.16667E-03 0.00000E+00
 -1       125 3.33333E-02 5.20833E-03 0.00000E+00
 -1       126 3.43750E-02 3.90630E-04 0.00000E+00
 -1       127 3.54167E-02 7.81250E-04 0.00000E+00
 -1       128 3.64583E-02 1.17188E-03 0.00000E+00
 -1       129 3.75000E-02 1.56250E-03 0.00000E+00
 -1       130 3.85417E-02 1.95312E-03 0.00000E+00
 -1       131 3.95833E-02 2.34375E-03 0.00000E+00
 -1       132 4.06250E-02 2.73438E-03 0.00000E+00
 -1       133 4.16667E-02 3.12500E-03 0.00000E+00
 -1       134 4.27083E-02 3.51563E-03 0.00000E+00
 -1       135 4.37500E-02 3.90625E-03 0.00000E+00
 -1       136 4.47917E-02 4.29688E-03 0.00000E+00
 -1       137 4.58333E-02 4.68750E-03 0.00000E+00
 -1       138 4.68750E-02 5.07813E-03 0.00000E+00
 -1       139 4.79167E-02 5.46875E-03 0.00000E+00
 -1       140 4.89583E-02 5.85938E-03 0.00000E+00
 -1       141 5.10417E-02 0.00000E+00 0.00000E+00
 -1       142 5.20833E-02 0.00000E+00 0.00000E+00
 -1       143 5.31250E-02 0.00000E+00 0.00000E+00
 -1       144 5.41667E-02 0.00000E+00 0.00000E+00
 -1       145 5.52083E-02 0.00000E+00 0.00000E+00
 -1       146 5.62500E-02 0.00000E+00 0.00000E+00
 -1       147 5.72917E-02 0.00000E+00 0.00000E+00
 -1       148 5.83333E-02 0.00000E+00 0.00000E+00
 -1       149 5.93750E-02 0.00000E+00 0.00000E+00
 -1       150 6.04167E-02 0.00000E+00 0.00000E+00
 -1       151 6.14583E-02 0.00000E+00 0.00000E+00
 -1       152 6.25000E-02 0.00000E+00 0.00000E+00
 -1       153 6.35417E-02 0.00000E+00 0.00000E+00
 -1       154 6.45833E-02 0.00000E+00 0.00000E+00
 -1       155 6.56250E-02 0.00000E+00 0.00000E+00
 -1       156 5.00000E-02 1.04167E-03 0.00000E+00
 -1       157 5.00000E-02 2.08333E-03 0.00000E+00
 -1       158 5.00000E-02 3.12500E-03 0.00000E+00
 -1       159 5.00000E-02 4.16667E-03 0.00000E+00
 -1       160 5.00000E-02 5.20833E-03 0.00000E+00
 -1       161 5.10417E-02 3.90630E-04 0.00000E+00
 -1       162 5.20833E-02 7.81250E-04 0.00000E+00
 -1       163 5.31250E-02 1.17188E-03 0.00000E+00
 -1       164 5.41667E-02 1.56250E-03 0.00000E+00
 -1       165 5.52083E-02 1.95312E-03 0.00000E+00
 -1       166 5.62500E-02 2.34375E-03 0.00000E+00
 -1       167 5.72917E-02 2.73438E-03 0.00000E+00
 -1       168 5.83333E-02 3.12500E-03 0.00000E+00
 -1       169 5.93750E-02 3.51563E-03 0.00000E+00
 -1       170 6.04167E-02 3.90625E-03 0.00000E+00
 -1       171 6.14583E-02 4.29688E-03 0.00000E+00
 -1       172 6.25000E-02 4.68750E-03 0.00000E+00
 -1       173 6.35417E-02 5.07813E-03 0.00000E+00
 -1       174 6.45833E-02 5.46875E-03 0.00000E+00
 -1       175 6.56250E-02 5.85938E-03 0.00000E+00
 -1       191 6.66667E-02 1.04167E-03 0.00000E+00
 -1       192 6.66667E-02 2.08333E-03 0.00000E+00
 -1       193 6.66667E-02 3.12500E-03 0.00000E+00
 -1       194 6.66667E-02 4.16667E-03 0.00000E+00
 -1       195 6.66667E-02 5.20833E-03 0.00000E+00
 -1       251 1.04167E-03 6.25000E-03 0.00000E+00
 -1       252 2.08333E-03 6.25000E-03 0.00000E+00
 -1       253 3.12500E-03 6.25000E-03 0.00000E+00
 -1       254 4.16667E-03 6.25000E-03 0.00000E+00
 -1       255 5.20833E-03 6.25000E-03 0.00000E+00
 -1       256 6.25000E-03 6.25000E-03 0.00000E+00
 -1       257 7.29167E-03 6.25000E-03 0.00000E+00
 -1       258 8.33333E-03 6.25000E-03 0.00000E+00
 -1       259 9.37500E-03 6.25000E-03 0.00000E+00
 -1       260 1.04167E-02 6.25000E-03 0.00000E+00
 -1       261 1.14583E-02 6.25000E-03 0.00000E+00
 -1       262 1.25000E-02 6.25000E-03 0.00000E+00
 -1       263 1.35417E-02 6.25000E-03 0.00000E+00
 -1       264 1.45833E-02 6.25000E-03 0.00000E+00
 -1       265 1.56250E-02 6.25000E-03 0.00000E+00
 -1       266 0.00000E+00 7.29167E-03 0.00000E+00
 -1       267 0.00000E+00 8.33333E-03 0.00000E+00
 -1       268 0.00000E+00 9.37500E-03 0.00000E+00
 -1       269 0.00000E+00 1.04167E-02 0.00000E+00
 -1       270 0.00000E+00 1.14583E-02 0.00000E+00
 -1       271 1.04167E-03 6.64063E-03 0.00000E+00
 -1       272 2.08333E-03 7.03125E-03 0.00000E+00
 -1       273 3.12500E-03 7.42188E-03 0.00000E+00
 -1       274 4.16667E-03 7.81250E-03 0.00000E+00
 -1       275 5.20833E-03 8.20313E-03 0.00000E+00
 -1       276 6.25000E-03 8.59375E-03 0.00000E+00
 -1       277 7.29167E-03 8.98438E-03 0.00000E+00
 -1       278 8.33333E-03 9.37500E-03 0.00000E+00
 -1       279 9.37500E-03 9.76562E-03 0.00000E+00
 -1       280 1.04167E-02 1.01562E-02 0.00000E+00
 -1       281 1.14583E-02 1.05469E-02 0.00000E+00
 -1       282 1.25000E-02 1.09375E-02 0.00000E+00
 -1       283 1.35417E-02 1.13281E-02 0.00000E+00
 -1       284 1.45833E-02 1.17188E-02 0.00000E+00
 -1       285 1.56250E-02 1.21094E-02 0.00000E+00
 -1       286 1.77083E-02 6.25000E-03 0.00000E+00
 -1       287 1.87500E-02 6.25000E-03 0.00000E+00
 -1       288 1.97917E-02 6.25000E-03 0.00000E+00
 -1       289 2.08333E-02 6.25000E-03 0.00000E+00
 -1       290 2.18750E-02 6.25000E-03 0.00000E+00
 -1       291 2.29167E-02 6.25000E-03 0.00000E+00
 -1       292 2.39583E-02 6.25000E-03 0.00000E+00
 -1       293 2.50000E-02 6.25000E-03 0.00000E+00
 -1       294 2.60417E-02 6.25000E-03 0.00000E+00
 -1       295 2.70833E-02 6.25000E-03 0.00000E+00
 -1       296 2.81250E-02 6.25000E-03 0.00000E+00
 -1       297 2.91667E-02 6.25000E-03 0.00000E+00
 -1       298 3.02083E-02 6.25000E-03 0.00000E+00
 -1       299 3.12500E-02 6.25000E-03 0.00000E+00
 -1       300 3.22917E-02 6.25000E-03 0.00000E+00
 -1       301 1.66667E-02 7.29167E-03 0.00000E+00
 -1       302 1.66667E-02 8.33333E-03 0.00000E+00
 -1       303 1.66667E-02 9.37500E-03 0.00000E+00
 -1       304 1.66667E-02 1.04167E-02 0.00000E+00
 -1       305 1.66667E-02 1.14583E-02 0.00000E+00
 -1       306 1.77083E-02 6.64063E-03 0.00000E+00
 -1       307 1.87500E-02 7.03125E-03 0.00000E+00
 -1       308 1.97917E-02 7.42188E-03 0.00000E+00
 -1       309 2.08333E-02 7.81250E-03 0.00000E+00
 -1       310 2.18750E-02 8.20313E-03 0.00000E+00
 -1       311 2.29167E-02 8.59375E-03 0.00000E+00
 -1       312 2.39583E-02 8.98438E-03 0.00000E+00
 -1       313 2.50000E-02 9.37500E-03 0.00000E+00
 -1       314 2.60417E-02 9.76562E-03 0.00000E+00
 -1       315 2.70833E-02 1.01562E-02 0.00000E+00
 -1       316 2.81250E-02 1.05469E-02 0.00000E+00
 -1       317 2.91667E-02 1.09375E-02 0.00000E+00
 -1       318 3.02083E-02 1.13281E-02 0.00000E+00
 -1       319 3.12500E-02 1.17188E-02 0.00000E+00
 -1       320 3.22917E-02 1.21094E-02 0.00000E+00
 -1       321 3.43750E-02 6.25000E-03 0.00000E+00
 -1       322 3.54167E-02 6.25000E-03 0.00000E+00
 -1       323 3.64583E-02 6.25000E-03 0.00000E+00
 -1       324 3.75000E-02 6.25000E-03 0.00000E+00
 -1       325 3.85417E-02 6.25000E-03 0.00000E+00
 -1       326 3.95833E-02 6.25000E-03 0.00000E+00
 -1       327 4.06250E-02 6.25000E-03 0.00000E+00
 -1       328 4.16667E-02 6.25000E-03 0.00000E+00
 -1       329 4.27083E-02 6.25000E-03 0.00000E+00
 -1       330 4.37500E-02 6.25000E-03 0.00000E+00
 -1       331 4.47917E-02 6.25000E-03 0.00000E+00
 -1       332 4.58333E-02 6.25000E-03 0.00000E+00
 -1       333 4.68750E-02 6.25000E-03 0.00000E+00
 -1       334 4.79167E-02 6.25000E-03 0.00000E+00
 -1       335 4.89583E-02 6.25000E-03 0.00000E+00
 -1       336 3.33333E-02 7.29167E-03 0.00000E+00
 -1       337 3.33333E-02 8.33333E-03 0.00000E+00
 -1       338 3.33333E-02 9.37500E-03 0.00000E+00
 -1       339 3.33333E-02 1.04167E-02 0.00000E+00
 -1       340 3.33333E-02 1.14583E-02 0.00000E+00
 -1       341 3.43750E-02 6.64063E-03 0.00000E+00
 -1       342 3.54167E-02 7.03125E-03 0.00000E+00
 -1       343 3.64583E-02 7.42188E-03 0.00000E+00
 -1       344 3.75000E-02 7.81250E-03 0.00000E+00
 -1       345 3.85417E-02 8.20313E-03 0.00000E+00
 -1       346 3.95833E-02 8.59375E-03 0.00000E+00
 -1       347 4.06250E-02 8.98438E-03 0.00000E+00
 -1       348 4.16667E-02 9.37500E-03 0.00000E+00
 -1       349 4.27083E-02 9.76562E-03 0.00000E+00
 -1       350 4.37500E-02 1.01562E-02 0.00000E+00
 -1       351 4.47917E-02 1.05469E-02 0.00000E+00
 -1       352 4.58333E-02 1.09375E-02 0.00000E+00
 -1       353 4.68750E-02 1.13281E-02 0.00000E+00
 -1       354 4.79167E-02 1.17188E-02 0.00000E+00
 -1       355 4.89583E-02 1.21094E-02 0.00000E+00
 -1       356 5.10417E-02 6.25000E-03 0.00000E+00
 -1       357 5.20833E-02 6.25000E-03 0.00000E+00
 -1       358 5.31250E-02 6.25000E-03 0.00000E+00
 -1       359 5.41667E-02 6.25000E-03 0.00000E+00
 -1       360 5.52083E-02 6.25000E-03 0.00000E+00
 -1       361 5.62500E-02 6.25000E-03 0.00000E+00
 -1       362 5.72917E-02 6.25000E-03 0.00000E+00
 -1       363 5.83333E-02 6.25000E-03 0.00000E+00
 -1       364 5.93750E-02 6.25000E-03 0.00000E+00
 -1       365 6.04167E-02 6.25000E-03 0.00000E+00
 -1       366 6.14583E-02 6.25000E-03 0.00000E+00
 -1       367 6.25000E-02 6.25000E-03 0.00000E+00
 -1       368 6.35417E-02 6.25000E-03 0.00000E+00
 -1       369 6.45833E-02 6.25000E-03 0.00000E+00
 -1       370 6.56250E-02 6.25000E-03 0.00000E+00
 -1       371 5.00000E-02 7.29167E-03 0.00000E+00
 -1       372 5.00000E-02 8.33333E-03 0.00000E+00
 -1       373 5.00000E-02 9.37500E-03 0.00000E+00
 -1       374 5.00000E-02 1.04167E-02 0.00000E+00
 -1       375 5.00000E-02 1.14583E-02 0.00000E+00
 -1       376 5.10417E-02 6.64063E-03 0.00000E+00
 -1       377 5.20833E-02 7.03125E-03 0.00000E+00
 -1       378 5.31250E-02 7.42188E-03 0.00000E+00
 -1       379 5.41667E-02 7.81250E-03 0.00000E+00
 -1       380 5.52083E-02 8.20313E-03 0.00000E+00
 -1       381 5.62500E-02 8.59375E-03 0.00000E+00
 -1       382 5.72917E-02 8.98438E-03 0.00000E+00
 -1       383 5.83333E-02 9.37500E-03 0.00000E+00
 -1       384 5.93750E-02 9.76562E-03 0.00000E+00
 -1       385 6.04167E-02 1.01562E-02 0.00000E+00
 -1       386 6.14583E-02 1.05469E-02 0.00000E+00
 -1       387 6.25000E-02 1.09375E-02 0.00000E+00
 -1       388 6.35417E-02 1.13281E-02 0.00000E+00
 -1       389 6.45833E-02 1.17188E-02 0.00000E+00
 -1       390 6.56250E-02 1.21094E-02 0.00000E+00
 -1       406 6.66667E-02 7.29167E-03 0.00000E+00
 -1       407 6.66667E-02 8.33333E-03 0.00000E+00
 -1       408 6.66667E-02 9.37500E-03 0.00000E+00
 -1       409 6.66667E-02 1.04167E-02 0.00000E+00
 -1       410 6.66667E-02 1.14583E-02 0.00000E+00
 -1       466 1.04167E-03 1.25000E-02 0.00000E+00
 -1       467 2.08333E-03 1.25000E-02 0.00000E+00
 -1       468 3.12500E-03 1.25000E-02 0.00000E+00
 -1       469 4.16667E-03 1.25000E-02 0.00000E+00
 -1       470 5.20833E-03 1.25000E-02 0.00000E+00
 -1       471 6.25000E-03 1.25000E-02 0.00000E+00
 -1       472 7.29167E-03 1.25000E-02 0.00000E+00
 -1       473 8.33333E-03 1.25000E-02 0.00000E+00
 -1       474 9.37500E-03 1.25000E-02 0.00000E+00
 -1       475 1.04167E-02 1.25000E-02 0.00000E+00
 -1       476 1.14583E-02 1.25000E-02 0.00000E+00
 -1       477 1.25000E-02 1.25000E-02 0.00000E+00
 -1       478 1.35417E-02 1.25000E-02 0.00000E+00
 -1       479 1.45833E-02 1.25000E-02 0.00000E+00
 -1       480 1.56250E-02 1.25000E-02 0.00000E+00
 -1       481 0.00000E+00 1.35417E-02 0.00000E+00
 -1       482 0.00000E+00 1.45833E-02 0.00000E+00
 -1       483 0.00000E+00 1.56250E-02 0.00000E+00
 -1       484 0.00000E+00 1.66667E-02 0.00000E+00
 -1       485 0.00000E+00 1.77083E-02 0.00000E+00
 -1       486 1.04167E-03 1.28906E-02 0.00000E+00
 -1       487 2.08333E-03 1.32813E-02 0.00000E+00
 -1       488 3.12500E-03 1.36719E-02 0.00000E+00
 -1       489 4.16667E-03 1.40625E-02 0.00000E+00
 -1       490 5.20833E-03 1.44531E-02 0.00000E+00
 -1       491 6.25000E-03 1.48437E-02 0.00000E+00
 -1       492 7.29167E-03 1.52344E-02 0.00000E+00
 -1       493 8.33333E-03 1.56250E-02 0.00000E+00
 -1       494 9.37500E-03 1.60156E-02 0.00000E+00
 -1       495 1.04167E-02 1.64062E-02 0.00000E+00
 -1       496 1.14583E-02 1.67969E-02 0.00000E+00
 -1       497 1.25000E-02 1.71875E-02 0.00000E+00
 -1       498 1.35417E-02 1.75781E-02 0.00000E+00
 -1       499 1.45833E-02 1.79687E-02 0.00000E+00
 -1       500 1.56250E-02 1.83594E-02 0.00000E+00
 -1       501 1.77083E-02 1.25000E-02 0.00000E+00
 -1       502 1.87500E-02 1.25000E-02 0.00000E+00
 -1       503 1.97917E-02 1.25000E-02 0.00000E+00
 -1       504 2.08333E-02 1.25000E-02 0.00000E+00
 -1       505 2.18750E-02 1.25000E-02 0.00000E+00
 -1       506 2.29167E-02 1.25000E-02 0.00000E+00
 -1       507 2.39583E-02 1.25000E-02 0.00000E+00
 -1       508 2.50000E-02 1.25000E-02 0.00000E+00
 -1       509 2.60417E-02 1.25000E-02 0.00000E+00
 -1       510 2.70833E-02 1.25000E-02 0.00000E+00
 -1       511 2.81250E-02 1.25000E-02 0.00000E+00
 -1       512 2.91667E-02 1.25000E-02 0.00000E+00
 -1       513 3.02083E-02 1.25000E-02 0.00000E+00
 -1       514 3.12500E-02 1.25000E-02 0.00000E+00
 -1       515 3.22917E-02 1.25000E-02 0.00000E+00
 -1       516 1.66667E-02 1.35417E-02 0.00000E+00
 -1       517 1.66667E-02 1.45833E-02 0.00000E+00
 -1       518 1.66667E-02 1.56250E-02 0.00000E+00
 -1       519 1.66667E-02 1.66667E-02 0.00000E+00
 -1       520 1.66667E-02 1.77083E-02 0.00000E+00
 -1       521 1.77083E-02 1.28906E-02 0.00000E+00
 -1       522 1.87500E-02 1.32813E-02 0.00000E+00
 -1       523 1.97917E-02 1.36719E-02 0.00000E+00
 -1       524 2.08333E-02 1.40625E-02 0.00000E+00
 -1       525 2.18750E-02 1.44531E-02 0.00000E+00
 -1       526 2.29167E-02 1.48437E-02 0.00000E+00
 -1       527 2.39583E-02 1.52344E-02 0.00000E+00
 -1       528 2.50000E-02 1.56250E-02 0.00000E+00
 -1       529 2.60417E-02 1.60156E-02 0.00000E+00
 -1       530 2.70833E-02 1.64062E-02 0.00000E+00
 -1       531 2.81250E-02 1.67969E-02 0.00000E+00
 -1       532 2.91667E-02 1.71875E-02 0.00000E+00
 -1       533 3.02083E-02 1.75781E-02 0.00000E+00
 -1       534 3.12500E-02 1.79687E-02 0.00000E+00
 -1       535 3.22917E-02 1.83594E-02 0.00000E+00
 -1       536 3.43750E-02 1.25000E-02 0.00000E+00
 -1       537 3.54167E-02 1.25000E-02 0.00000E+00
 -1       538 3.64583E-02 1.25000E-02 0.00000E+00
 -1       539 3.75000E-02 1.25000E-02 0.00000E+00
 -1       540 3.85417E-02 1.25000E-02 0.00000E+00
 -1       541 3.95833E-02 1.25000E-02 0.00000E+00
 -1       542 4.06250E-02 1.25000E-02 0.00000E+00
 -1       543 4.16667E-02 1.25000E-02 0.00000E+00
 -1       544 4.27083E-02 1.25000E-02 0.00000E+00
 -1       545 4.37500E-02 1.25000E-02 0.00000E+00
 -1       546 4.47917E-02 1.25000E-02 0.00000E+00
 -1       547 4.58333E-02 1.25000E-02 0.00000E+00
 -1       548 4.68750E-02 1.25000E-02 0.00000E+00
 -1       549 4.79167E-02 1.25000E-02 0.00000E+00
 -1       550 4.89583E-02 1.25000E-02 0.00000E+00
 -1       551 3.33333E-02 1.35417E-02 0.00000E+00
 -1       552 3.33333E-02 1.45833E-02 0.00000E+00
 -1       553 3.33333E-02 1.56250E-02 0.00000E+00
 -1       554 3.33333E-02 1.66667E-02 0.00000E+00
 -1       555 3.33333E-02 1.77083E-02 0.00000E+00
 -1       556 3.43750E-02 1.28906E-02 0.00000E+00
 -1       557 3.54167E-02 1.32813E-02 0.00000E+00
 -1       558 3.64583E-02 1.36719E-02 0.00000E+00
 -1       559 3.75000E-02 1.40625E-02 0.00000E+00
 -1       560 3.85417E-02 1.44531E-02 0.00000E+00
 -1       561 3.95833E-02 1.48437E-02 0.00000E+00
 -1       562 4.06250E-02 1.52344E-02 0.00000E+00
 -1       563 4.16667E-02 1.56250E-02 0.00000E+00
 -1       564 4.27083E-02 1.60156E-02 0.00000E+00
 -1       565 4.37500E-02 1.64062E-02 0.00000E+00
 -1       566 4.47917E-02 1.67969E-02 0.00000E+00
 -1       567 4.58333E-02 1.71875E-02 0.00000E+00
 -1       568 4.68750E-02 1.75781E-02 0.00000E+00
 -1       569 4.79167E-02 1.79687E-02 0.00000E+00
 -1       570 4.89583E-02 1.83594E-02 0.00000E+00
 -1       571 5.10417E-02 1.25000E-02 0.00000E+00
 -1       572 5.20833E-02 1.25000E-02 0.00000E+00
 -1       573 5.31250E-02 1.25000E-02 0.00000E+00
 -1       574 5.41667E-02 1.25000E-02 0.00000E+00
 -1       575 5.52083E-02 1.25000E-02 0.00000E+00
 -1       576 5.62500E-02 1.25000E-02 0.00000E+00
 -1       577 5.72917E-02 1.25000E-02 0.00000E+00
 -1       578 5.83333E-02 1.25000E-02 0.00000E+00
 -1       579 5.93750E-02 1.25000E-02 0.00000E+00
 -1       580 6.04167E-02 1.25000E-02 0.00000E+00
 -1       581 6.14583E-02 1.25000E-02 0.00000E+00
 -1       582 6.25000E-02 1.25000E-02 0.00000E+00
 -1       583 6.35417E-02 1.25000E-02 0.00000E+00
 -1       584 6.45833E-02 1.25000E-02 0.00000E+00
 -1       585 6.56250E-02 1.25000E-02 0.00000E+00
 -1       586 5.00000E-02 1.35417E-02 0.00000E+00
 -1       587 5.00000E-02 1.45833E-02 0.00000E+00
 -1       588 5.00000E-02 1.56250E-02 0.00000E+00
 -1       589 5.00000E-02 1.66667E-02 0.00000E+00
 -1       590 5.00000E-02 1.77083E-02 0.00000E+00
 -1       591 5.10417E-02 1.28906E-02 0.00000E+00
 -1       592 5.20833E-02 1.32813E-02 0.00000E+00
 -1       593 5.31250E-02 1.36719E-02 0.00000E+00
 -1       594 5.41667E-02 1.40625E-02 0.00000E+00
 -1       595 5.52083E-02 1.44531E-02 0.00000E+00
 -1       596 5.62500E-02 1.48437E-02 0.00000E+00
 -1       597 5.72917E-02 1.52344E-02 0.00000E+00
 -1       598 5.83333E-02 1.56250E-02 0.00000E+00
 -1       599 5.93750E-02 1.60156E-02 0.00000E+00
 -1       600 6.04167E-02 1.64062E-02 0.00000E+00
 -1       601 6.14583E-02 1.67969E-02 0.00000E+00
 -1       602 6.25000E-02 1.71875E-02 0.00000E+00
 -1       603 6.35417E-02 1.75781E-02 0.00000E+00
 -1       604 6.45833E-02 1.79687E-02 0.00000E+00
 -1       605 6.56250E-02 1.83594E-02 0.00000E+00
 -1       606 6.77083E-02 1.25000E-02 0.00000E+00
 -1       607 6.87500E-02 1.25000E-02 0.00000E+00
 -1       608 6.97917E-02 1.25000E-02 0.00000E+00
 -1       609 7.08333E-02 1.25000E-02 0.00000E+00
 -1       610 7.18750E-02 1.25000E-02 0.00000E+00
 -1       611 7.29167E-02 1.25000E-02 0.00000E+00
 -1       612 7.39583E-02 1.25000E-02 0.00000E+00
 -1       613 7.50000E-02 1.25000E-02 0.00000E+00
 -1       614 7.60417E-02 1.25000E-02 0.00000E+00
 -1       615 7.70833E-02 1.25000E-02 0.00000E+00
 -1       616 7.81250E-02 1.25000E-02 0.00000E+00
 -1       617 7.91667E-02 1.25000E-02 0.00000E+00
 -1       618 8.02083E-02 1.25000E-02 0.00000E+00
 -1       619 8.12500E-02 1.25000E-02 0.00000E+00
 -1       620 8.22917E-02 1.25000E-02 0.00000E+00
 -1       621 6.66667E-02 1.35417E-02 0.00000E+00
 -1       622 6.66667E-02 1.45833E-02 0.00000E+00
 -1       623 6.66667E-02 1.56250E-02 0.00000E+00
 -1       624 6.66667E-02 1.66667E-02 0.00000E+00
 -1       625 6.66667E-02 1.77083E-02 0.00000E+00
 -1       626 6.77083E-02 1.28906E-02 0.00000E+00
 -1       627 6.87500E-02 1.32813E-02 0.00000E+00
 -1       628 6.97917E-02 1.36719E-02 0.00000E+00
 -1       629 7.08333E-02 1.40625E-02 0.00000E+00
 -1       630 7.18750E-02 1.44531E-02 0.00000E+00
 -1       631 7.29167E-02 1.48437E-02 0.00000E+00
 -1       632 7.39583E-02 1.52344E-02 0.00000E+00
 -1       633 7.50000E-02 1.56250E-02 0.00000E+00
 -1       634 7.60417E-02 1.60156E-02 0.00000E+00
 -1       635 7.70833E-02 1.64062E-02 0.00000E+00
 -1       636 7.81250E-02 1.67969E-02 0.00000E+00
 -1       637 7.91667E-02 1.71875E-02 0.00000E+00
 -1       638 8.02083E-02 1.75781E-02 0.00000E+00
 -1       639 8.12500E-02 1.79687E-02 0.00000E+00
 -1       640 8.22917E-02 1.83594E-02 0.00000E+00
 -1       641 8.43750E-02 1.25000E-02 0.00000E+00
 -1       642 8.54167E-02 1.25000E-02 0.00000E+00
 -1       643 8.64583E-02 1.25000E-02 0.00000E+00
 -1       644 8.75000E-02 1.25000E-02 0.00000E+00
 -1       645 8.85417E-02 1.25000E-02 0.00000E+00
 -1       646 8.95833E-02 1.25000E-02 0.00000E+00
 -1       647 9.06250E-02 1.25000E-02 0.00000E+00
 -1       648 9.16667E-02 1.25000E-02 0.00000E+00
 -1       649 9.27083E-02 1.25000E-02 0.00000E+00
 -1       650 9.37500E-02 1.25000E-02 0.00000E+00
 -1       651 9.47917E-02 1.25000E-02 0.00000E+00
 -1       652 9.58333E-02 1.25000E-02 0.00000E+00
 -1       653 9.68750E-02 1.25000E-02 0.00000E+00
 -1       654 9.79167E-02 1.25000E-02 0.00000E+00
 -1       655 9.89583E-02 1.25000E-02 0.00000E+00
 -1       656 8.33333E-02 1.35417E-02 0.00000E+00
 -1       657 8.33333E-02 1.45833E-02 0.00000E+00
 -1       658 8.33333E-02 1.56250E-02 0.00000E+00
 -1       659 8.33333E-02 1.66667E-02 0.00000E+00
 -1       660 8.33333E-02 1.77083E-02 0.00000E+00
 -1       661 8.43750E-02 1.28906E-02 0.00000E+00
 -1       662 8.54167E-02 1.32813E-02 0.00000E+00
 -1       663 8.64583E-02 1.36719E-02 0.00000E+00
 -1       664 8.75000E-02 1.40625E-02 0.00000E+00
 -1       665 8.85417E-02 1.44531E-02 0.00000E+00
 -1       666 8.95833E-02 1.48437E-02 0.00000E+00
 -1       667 9.06250E-02 1.52344E-02 0.00000E+00
 -1       668 9.16667E-02 1.56250E-02 0.00000E+00
 -1       669 9.27083E-02 1.60156E-02 0.00000E+00
 -1       670 9.37500E-02 1.64062E-02 0.00000E+00
 -1       671 9.47917E-02 1.67969E-02 0.00000E+00
 -1       672 9.58333E-02 1.71875E-02 0.00000E+00
 -1       673 9.68750E-02 1.75781E-02 0.00000E+00
 -1       674 9.79167E-02 1.79687E-02 0.00000E+00
 -1       675 9.89583E-02 1.83594E-02 0.00000E+00
 -1       676 1.00000E-01 1.35417E-02 0.00000E+00
 -1       677 1.00000E-01 1.45833E-02 0.00000E+00
 -1       678 1.00000E-01 1.56250E-02 0.00000E+00
 -1       679 1.00000E-01 1.66667E-02 0.00000E+00
 -1       680 1.00000E-01 1.77083E-02 0.00000E+00
 -1       681 1.04167E-03 1.87500E-02 0.00000E+00
 -1       682 2.08333E-03 1.87500E-02 0.00000E+00
 -1       683 3.12500E-03 1.87500E-02 0.00000E+00
 -1       684 4.16667E-03 1.87500E-02 0.00000E+00
 -1       685 5.20833E-03 1.87500E-02 0.00000E+00
 -1       686 6.25000E-03 1.87500E-02 0.00000E+00
 -1       687 7.29167E-03 1.87500E-02 0.00000E+00
 -1       688 8.33333E-03 1.87500E-02 0.00000E+00
 -1       689 9.37500E-03 1.87500E-02 0.00000E+00
 -1       690 1.04167E-02 1.87500E-02 0.00000E+00
 -1       691 1.14583E-02 1.87500E-02 0.00000E+00
 -1       692 1.25000E-02 1.87500E-02 0.00000E+00
 -1       693 1.35417E-02 1.87500E-02 0.00000E+00
 -1       694 1.45833E-02 1.87500E-02 0.00000E+00
 -1       695 1.56250E-02 1.87500E-02 0.00000E+00
 -1       696 0.00000E+00 1.97917E-02 0.00000E+00
 -1       697 0.00000E+00 2.08333E-02 0.00000E+00
 -1       698 0.00000E+00 2.18750E-02 0.00000E+00
 -1       699 0.00000E+00 2.29167E-02 0.00000E+00
 -1       700 0.00000E+00 2.39583E-02 0.00000E+00
 -1       701 1.04167E-03 1.91406E-02 0.00000E+00
 -1       702 2.08333E-03 1.95312E-02 0.00000E+00
 -1       703 3.12500E-03 1.99219E-02 0.00000E+00
 -1       704 4.16667E-03 2.03125E-02 0.00000E+00
 -1       705 5.20833E-03 2.07031E-02 0.00000E+00
 -1       706 6.25000E-03 2.10938E-02 0.00000E+00
 -1       707 7.29167E-03 2.14844E-02 0.00000E+00
 -1       708 8.33333E-03 2.18750E-02 0.00000E+00
 -1       709 9.37500E-03 2.22656E-02 0.00000E+00
 -1       710 1.04167E-02 2.26563E-02 0.00000E+00
 -1       711 1.14583E-02 2.30469E-02 0.00000E+00
 -1       712 1.25000E-02 2.34375E-02 0.00000E+00
 -1       713 1.35417E-02 2.38281E-02 0.00000E+00
 -1       714 1.45833E-02 2.42187E-02 0.00000E+00
 -1       715 1.56250E-02 2.46094E-02 0.00000E+00
 -1       716 1.77083E-02 1.87500E-02 0.00000E+00
 -1       717 1.87500E-02 1.87500E-02 0.00000E+00
 -1       718 1.97917E-02 1.87500E-02 0.00000E+00
 -1       719 2.08333E-02 1.87500E-02 0.00000E+00
 -1       720 2.18750E-02 1.87500E-02 0.00000E+00
 -1       721 2.29167E-02 1.87500E-02 0.00000E+00
 -1       722 2.39583E-02 1.87500E-02 0.00000E+00
 -1       723 2.50000E-02 1.87500E-02 0.00000E+00
 -1       724 2.60417E-02 1.87500E-02 0.00000E+00
 -1       725 2.70833E-02 1.87500E-02 0.00000E+00
 -1       726 2.81250E-02 1.87500E-02 0.00000E+00
 -1       727 2.91667E-02 1.87500E-02 0.00000E+00
 -1       728 3.02083E-02 1.87500E-02 0.00000E+00
 -1       729 3.12500E-02 1.87500E-02 0.00000E+00
 -1       730 3.22917E-02 1.87500E-02 0.00000E+00
 -1       731 1.66667E-02 1.97917E-02 0.00000E+00
 -1       732 1.66667E-02 2.08333E-02 0.00000E+00
 -1       733 1.66667E-02 2.18750E-02 0.00000E+00
 -1       734 1.66667E-02 2.29167E-02 0.00000E+00
 -1       735 1.66667E-02 2.39583E-02 0.00000E+00
 -1       736 1.77083E-02 1.91406E-02 0.00000E+00
 -1       737 1.87500E-02 1.95312E-02 0.00000E+00
 -1       738 1.97917E-02 1.99219E-02 0.00000E+00
 -1       739 2.08333E-02 2.03125E-02 0.00000E+00
 -1       740 2.18750E-02 2.07031E-02 0.00000E+00
 -1       741 2.29167E-02 2.10938E-02 0.00000E+00
 -1       742 2.39583E-02 2.14844E-02 0.00000E+00
 -1       743 2.50000E-02 2.18750E-02 0.00000E+00
 -1       744 2.60417E-02 2.22656E-02 0.00000E+00
 -1       745 2.70833E-02 2.26563E-02 0.00000E+00
 -1       746 2.81250E-02 2.30469E-02 0.00000E+00
 -1       747 2.91667E-02 2.34375E-02 0.00000E+00
 -1       748 3.02083E-02 2.38281E-02 0.00000E+00
 -1       749 3.12500E-02 2.42187E-02 0.00000E+00
 -1       750 3.22917E-02 2.46094E-02 0.00000E+00
 -1       751 3.43750E-02 1.87500E-02 0.00000E+00
 -1       752 3.54167E-02 1.87500E-02 0.00000E+00
 -1       753 3.64583E-02 1.87500E-02 0.00000E+00
 -1       754 3.75000E-02 1.87500E-02 0.00000E+00
 -1       755 3.85417E-02 1.87500E-02 0.00000E+00
 -1       756 3.95833E-02 1.87500E-02 0.00000E+00
 -1       757 4.06250E-02 1.87500E-02 0.00000E+00
 -1       758 4.16667E-02 1.87500E-02 0.00000E+00
 -1       759 4.27083E-02 1.87500E-02 0.00000E+00
 -1       760 4.37500E-02 1.87500E-02 0.00000E+00
 -1       761 4.47917E-02 1.87500E-02 0.00000E+00
 -1       762 4.58333E-02 1.87500E-02 0.00000E+00
 -1       763 4.68750E-02 1.87500E-02 0.00000E+00
 -1       764 4.79167E-02 1.87500E-02 0.00000E+00
 -1       765 4.89583E-02 1.87500E-02 0.00000E+00
 -1       766 3.33333E-02 1.97917E-02 0.00000E+00
 -1       767 3.33333E-02 2.08333E-02 0.00000E+00
 -1       768 3.33333E-02 2.18750E-02 0.00000E+00
 -1       769 3.33333E-02 2.29167E-02 0.00000E+00
 -1       770 3.33333E-02 2.39583E-02 0.00000E+00
 -1       771 3.43750E-02 1.91406E-02 0.00000E+00
 -1       772 3.54167E-02 1.95312E-02 0.00000E+00
 -1       773 3.64583E-02 1.99219E-02 0.00000E+00
 -1       774 3.75000E-02 2.03125E-02 0.00000E+00
 -1       775 3.85417E-02 2.07031E-02 0.00000E+00
 -1       776 3.95833E-02 2.10938E-02 0.00000E+00
 -1       777 4.06250E-02 2.14844E-02 0.00000E+00
 -1       778 4.16667E-02 2.18750E-02 0.00000E+00
 -1       779 4.27083E-02 2.22656E-02 0.00000E+00
 -1       780 4.37500E-02 2.26563E-02 0.00000E+00
 -1       781 4.47917E-02 2.30469E-02 0.00000E+00
 -1       782 4.58333E-02 2.34375E-02 0.00000E+00
 -1       783 4.68750E-02 2.38281E-02 0.00000E+00
 -1       784 4.79167E-02 2.42187E-02 0.00000E+00
 -1       785 4.89583E-02 2.46094E-02 0.00000E+00
 -1       786 5.10417E-02 1.87500E-02 0.00000E+00
 -1       787 5.20833E-02 1.87500E-02 0.00000E+00
 -1       788 5.31250E-02 1.87500E-02 0.00000E+00
 -1       789 5.41667E-02 1.87500E-02 0.00000E+00
 -1       790 5.52083E-02 1.87500E-02 0.00000E+00
 -1       791 5.62500E-02 1.87500E-02 0.00000E+00
 -1       792 5.72917E-02 1.87500E-02 0.00000E+00
 -1       793 5.83333E-02 1.87500E-02 0.00000E+00
 -1       794 5.93750E-02 1.87500E-02 0.00000E+00
 -1       795 6.04167E-02 1.87500E-02 0.00000E+00
 -1       796 6.14583E-02 1.87500E-02 0.00000E+00
 -1       797 6.25000E-02 1.87500E-02 0.00000E+00
 -1       798 6.35417E-02 1.87500E-02 0.00000E+00
 -1       799 6.45833E-02 1.87500E-02 0.00000E+00
 -1       800 6.56250E-02 1.87500E-02 0.00000E+00
 -1       801 5.00000E-02 1.97917E-02 0.00000E+00
 -1       802 5.00000E-02 2.08333E-02 0.00000E+00
 -1       803 5.00000E-02 2.18750E-02 0.00000E+00
 -1       804 5.00000E-02 2.29167E-02 0.00000E+00
 -1       805 5.00000E-02 2.39583E-02 0.00000E+00
 -1       806 5.10417E-02 1.91406E-02 0.00000E+00
 -1       807 5.20833E-02 1.95312E-02 0.00000E+00
 -1       808 5.31250E-02 1.99219E-02 0.00000E+00
 -1       809 5.41667E-02 2.03125E-02 0.00000E+00
 -1       810 5.52083E-02 2.07031E-02 0.00000E+00
 -1       811 5.62500E-02 2.10938E-02 0.00000E+00
 -1       812 5.72917E-02 2.14844E-02 0.00000E+00
 -1       813 5.83333E-02 2.18750E-02 0.00000E+00
 -1       814 5.93750E-02 2.22656E-02 0.00000E+00
 -1       815 6.04167E-02 2.26563E-02 0.00000E+00
 -1       816 6.14583E-02 2.30469E-02 0.00000E+00
 -1       817 6.25000E-02 2.34375E-02 0.00000E+00
 -1       818 6.35417E-02 2.38281E-02 0.00000E+00
 -1       819 6.45833E-02 2.42187E-02 0.00000E+00
 -1       820 6.56250E-02 2.46094E-02 0.00000E+00
 -1       821 6.77083E-02 1.87500E-02 0.00000E+00
 -1       822 6.87500E-02 1.87500E-02 0.00000E+00
 -1       823 6.97917E-02 1.87500E-02 0.00000E+00
 -1       824 7.08333E-02 1.87500E-02 0.00000E+00
 -1       825 7.18750E-02 1.87500E-02 0.00000E+00
 -1       826 7.29167E-02 1.87500E-02 0.00000E+00
 -1       827 7.39583E-02 1.87500E-02 0.00000E+00
 -1       828 7.50000E-02 1.87500E-02 0.00000E+00
 -1       829 7.60417E-02 1.87500E-02 0.00000E+00
 -1       830 7.70833E-02 1.87500E-02 0.00000E+00
 -1       831 7.81250E-02 1.87500E-02 0.00000E+00
 -1       832 7.91667E-02 1.87500E-02 0.00000E+00
 -1       833 8.02083E-02 1.87500E-02 0.00000E+00
 -1       834 8.12500E-02 1.87500E-02 0.00000E+00
 -1       835 8.22917E-02 1.87500E-02 0.00000E+00
 -1       836 6.66667E-02 1.97917E-02 0.00000E+00
 -1       837 6.66667E-02 2.08333E-02 0.00000E+00
 -1       838 6.66667E-02 2.18750E-02 0.00000E+00
 -1       839 6.66667E-02 2.29167E-02 0.00000E+00
 -1       840 6.66667E-02 2.39583E-02 0.00000E+00
 -1       841 6.77083E-02 1.91406E-02 0.00000E+00
 -1       842 6.87500E-02 1.95312E-02 0.00000E+00
 -1       843 6.97917E-02 1.99219E-02 0.00000E+00
 -1       844 7.08333E-02 2.03125E-02 0.00000E+00
 -1       845 7.18750E-02 2.07031E-02 0.00000E+00
 -1       846 7.29167E-02 2.10938E-02 0.00000E+00
 -1       847 7.39583E-02 2.14844E-02 0.00000E+00
 -1       848 7.50000E-02 2.18750E-02 0.00000E+00
 -1       849 7.60417E-02 2.22656E-02 0.00000E+00
 -1       850 7.70833E-02 2.26563E-02 0.00000E+00
 -1       851 7.81250E-02 2.30469E-02 0.00000E+00
 -1       852 7.91667E-02 2.34375E-02 0.00000E+00
 -1       853 8.02083E-02 2.38281E-02 0.00000E+00
 -1       854 8.12500E-02 2.42187E-02 0.00000E+00
 -1       855 8.22917E-02 2.46094E-02 0.00000E+00
 -1       856 8.43750E-02 1.87500E-02 0.00000E+00
 -1       857 8.54167E-02 1.87500E-02 0.00000E+00
 -1       858 8.64583E-02 1.87500E-02 0.00000E+00
 -1       859 8.75000E-02 1.87500E-02 0.00000E+00
 -1       860 8.85417E-02 1.87500E-02 0.00000E+00
 -1       861 8.95833E-02 1.87500E-02 0.00000E+00
 -1       862 9.06250E-02 1.87500E-02 0.00000E+00
 -1       863 9.16667E-02 1.87500E-02 0.00000E+00
 -1       864 9.27083E-02 1.87500E-02 0.00000E+00
 -1       865 9.37500E-02 1.87500E-02 0.00000E+00
 -1       866 9.47917E-02 1.87500E-02 0.00000E+00
 -1       867 9.58333E-02 1.87500E-02 0.00000E+00
 -1       868 9.68750E-02 1.87500E-02 0.00000E+00
 -1       869 9.79167E-02 1.87500E-02 0.00000E+00
 -1       870 9.89583E-02 1.87500E-02 0.00000E+00
 -1       871 8.33333E-02 1.97917E-02 0.00000E+00
 -1       872 8.33333E-02 2.08333E-02 0.00000E+00
 -1       873 8.33333E-02 2.18750E-02 0.00000E+00
 -1       874 8.33333E-02 2.29167E-02 0.00000E+00
 -1       875 8.33333E-02 2.39583E-02 0.00000E+00
 -1       876 8.43750E-02 1.91406E-02 0.00000E+00
 -1       877 8.54167E-02 1.95312E-02 0.00000E+00
 -1       878 8.64583E-02 1.99219E-02 0.00000E+00
 -1       879 8.75000E-02 2.03125E-02 0.00000E+00
 -1       880 8.85417E-02 2.07031E-02 0.00000E+00
 -1       881 8.95833E-02 2.10938E-02 0.00000E+00
 -1       882 9.06250E-02 2.14844E-02 0.00000E+00
 -1       883 9.16667E-02 2.18750E-02 0.00000E+00
 -1       884 9.27083E-02 2.22656E-02 0.00000E+00
 -1       885 9.37500E-02 2.26563E-02 0.00000E+00
 -1       886 9.47917E-02 2.30469E-02 0.00000E+00
 -1       887 9.58333E-02 2.34375E-02 0.00000E+00
 -1       888 9.68750E-02 2.38281E-02 0.00000E+00
 -1       889 9.79167E-02 2.42187E-02 0.00000E+00
 -1       890 9.89583E-02 2.46094E-02 0.00000E+00
 -1       891 1.00000E-01 1.97917E-02 0.00000E+00
 -1       892 1.00000E-01 2.08333E-02 0.00000E+00
 -1       893 1.00000E-01 2.18750E-02 0.00000E+00
 -1       894 1.00000E-01 2.29167E-02 0.00000E+00
 -1       895 1.00000E-01 2.39583E-02 0.00000E+00
 -1       896 1.04167E-03 2.50000E-02 0.00000E+00
 -1       897 2.08333E-03 2.50000E-02 0.00000E+00
 -1       898 3.12500E-03 2.50000E-02 0.00000E+00
 -1       899 4.16667E-03 2.50000E-02 0.00000E+00
 -1       900 5.20833E-03 2.50000E-02 0.00000E+00
 -1       901 6.25000E-03 2.50000E-02 0.00000E+00
 -1       902 7.29167E-03 2.50000E-02 0.00000E+00
 -1       903 8.33333E-03 2.50000E-02 0.00000E+00
 -1       904 9.37500E-03 2.50000E-02 0.00000E+00
 -1       905 1.04167E-02 2.50000E-02 0.00000E+00
 -1       906 1.14583E-02 2.50000E-02 0.00000E+00
 -1       907 1.25000E-02 2.50000E-02 0.00000E+00
 -1       908 1.35417E-02 2.50000E-02 0.00000E+00
 -1       909 1.45833E-02 2.50000E-02 0.00000E+00
 -1       910 1.56250E-02 2.50000E-02 0.00000E+00
 -1       911 1.77083E-02 2.50000E-02 0.00000E+00
 -1       912 1.87500E-02 2.50000E-02 0.00000E+00
 -1       913 1.97917E-02 2.50000E-02 0.00000E+00
 -1       914 2.08333E-02 2.50000E-02 0.00000E+00
 -1       915 2.18750E-02 2.50000E-02 0.00000E+00
 -1       916 2.29167E-02 2.50000E-02 0.00000E+00
 -1       917 2.39583E-02 2.50000E-02 0.00000E+00
 -1       918 2.50000E-02 2.50000E-02 0.00000E+00
 -1       919 2.60417E-02 2.50000E-02 0.00000E+00
 -1       920 2.70833E-02 2.50000E-02 0.00000E+00
 -1       921 2.81250E-02 2.50000E-02 0.00000E+00
 -1       922 2.91667E-02 2.50000E-02 0.00000E+00
 -1       923 3.02083E-02 2.50000E-02 0.00000E+00
 -1       924 3.12500E-02 2.50000E-02 0.00000E+00
 -1       925 3.22917E-02 2.50000E-02 0.00000E+00
 -1       926 3.43750E-02 2.50000E-02 0.00000E+00
 -1       927 3.54167E-02 2.50000E-02 0.00000E+00
 -1       928 3.64583E-02 2.50000E-02 0.00000E+00
 -1       929 3.75000E-02 2.50000E-02 0.00000E+00
 -1       930 3.85417E-02 2.50000E-02 0.00000E+00
 -1       931 3.95833E-02 2.50000E-02 0.00000E+00
 -1       932 4.06250E-02 2.50000E-02 0.00000E+00
 -1       933 4.16667E-02 2.50000E-02 0.00000E+00
 -1       934 4.27083E-02 2.50000E-02 0.00000E+00
 -1       935 4.37500E-02 2.50000E-02 0.00000E+00
 -1       936 4.47917E-02 2.50000E-02 0.00000E+00
 -1       937 4.58333E-02 2.50000E-02 0.00000E+00
 -1       938 4.68750E-02 2.50000E-02 0.00000E+00
 -1       939 4.79167E-02 2.50000E-02 0.00000E+00
 -1       940 4.89583E-02 2.50000E-02 0.00000E+00
 -1       941 5.10417E-02 2.50000E-02 0.00000E+00
 -1       942 5.20833E-02 2.50000E-02 0.00000E+00
 -1       943 5.31250E-02 2.50000E-02 0.00000E+00
 -1       944 5.41667E-02 2.50000E-02 0.00000E+00
 -1       945 5.52083E-02 2.50000E-02 0.00000E+00
 -1       946 5.62500E-02 2.50000E-02 0.00000E+00
 -1       947 5.72917E-02 2.50000E-02 0.00000E+00
 -1       948 5.83333E-02 2.50000E-02 0.00000E+00
 -1       949 5.93750E-02 2.50000E-02 0.00000E+00
 -1       950 6.04167E-02 2.50000E-02 0.00000E+00
 -1       951 6.14583E-02 2.50000E-02 0.00000E+00
 -1       952 6.25000E-02 2.50000E-02 0.00000E+00
 -1       953 6.35417E-02 2.50000E-02 0.00000E+00
 -1       954 6.45833E-02 2.50000E-02 0.00000E+00
 -1       955 6.56250E-02 2.50000E-02 0.00000E+00
 -1       956 6.77083E-02 2.50000E-02 0.00000E+00
 -1       957 6.87500E-02 2.50000E-02 0.00000E+00
 -1       958 6.97917E-02 2.50000E-02 0.00000E+00
 -1       959 7.08333E-02 2.50000E-02 0.00000E+00
 -1       960 7.18750E-02 2.50000E-02 0.00000E+00
 -1       961 7.29167E-02 2.50000E-02 0.00000E+00
 -1       962 7.39583E-02 2.50000E-02 0.00000E+00
 -1       963 7.50000E-02 2.50000E-02 0.00000E+00
 -1       964 7.60417E-02 2.50000E-02 0.00000E+00
 -1       965 7.70833E-02 2.50000E-02 0.00000E+00
 -1       966 7.81250E-02 2.50000E-02 0.00000E+00
 -1       967 7.91667E-02 2.50000E-02 0.00000E+00
 -1       968 8.02083E-02 2.50000E-02 0.00000E+00
 -1       969 8.12500E-02 2.50000E-02 0.00000E+00
 -1       970 8.22917E-02 2.50000E-02 0.00000E+00
 -1       971 8.43750E-02 2.50000E-02 0.00000E+00
 -1       972 8.54167E-02 2.50000E-02 0.00000E+00
 -1       973 8.64583E-02 2.50000E-02 0.00000E+00
 -1       974 8.75000E-02 2.50000E-02 0.00000E+00
 -1       975 8.85417E-02 2.50000E-02 0.00000E+00
 -1       976 8.95833E-02 2.50000E-02 0.00000E+00
 -1       977 9.06250E-02 2.50000E-02 0.00000E+00
 -1       978 9.16667E-02 2.50000E-02 0.00000E+00
 -1       979 9.27083E-02 2.50000E-02 0.00000E+00
 -1       980 9.37500E-02 2.50000E-02 0.00000E+00
 -1       981 9.47917E-02 2.50000E-02 0.00000E+00
 -1       982 9.58333E-02 2.50000E-02 0.00000E+00
 -1       983 9.68750E-02 2.50000E-02 0.00000E+00
 -1       984 9.79167E-02 2.50000E-02 0.00000E+00
 -1       985 9.89583E-02 2.50000E-02 0.00000E+00
 -3
    3C                           440                                     1
 -1         1   12    0    1
 -2         1        37        36
 -1         2   12    0    1
 -2        37        39        38
 -1         3   12    0    1
 -2        39        41        40
 -1         4   12    0    1
 -2        41        43        42
 -1         5   12    0    1
 -2        43        45        44
 -1         6   12    0    1
 -2        45        47        46
 -1         7   12    0    1
 -2        47        49        48
 -1         8   12    0    1
 -2        49         2        50
 -1         9   12    0    1
 -2         1        52        51
 -1        10   12    0    1
 -2        52        54        53
 -1        11   12    0    1
 -2        54         8        55
 -1        12   12    0    1
 -2         1        57        56
 -1        13   12    0    1
 -2        57        59        58
 -1        14   12    0    1
 -2        59        61        60
 -1        15   12    0    1
 -2        61        63        62
 -1        16   12    0    1
 -2        63        65        64
 -1        17   12    0    1
 -2        65        67        66
 -1        18   12    0    1
 -2        67        69        68
 -1        19   12    0    1
 -2        69         9        70
 -1        20   12    0    1
 -2         2        72        71
 -1        21   12    0    1
 -2        72        74        73
 -1        22   12    0    1
 -2        74        76        75
 -1        23   12    0    1
 -2        76        78        77
 -1        24   12    0    1
 -2        78        80        79
 -1        25   12    0    1
 -2        80        82        81
 -1        26   12    0    1
 -2        82        84        83
 -1        27   12    0    1
 -2        84         3        85
 -1        28   12    0    1
 -2         2        87        86
 -1        29   12    0    1
 -2        87        89        88
 -1        30   12    0    1
 -2        89         9        90
 -1        31   12    0    1
 -2         2        92        91
 -1        32   12    0    1
 -2        92        94        93
 -1        33   12    0    1
 -2        94        96        95
 -1        34   12    0    1
 -2        96        98        97
 -1        35   12    0    1
 -2        98       100        99
 -1        36   12    0    1
 -2       100       102       101
 -1        37   12    0    1
 -2       102       104       103
 -1        38   12    0    1
 -2       104        10       105
 -1        39   12    0    1
 -2         3       107       106
 -1        40   12    0    1
 -2       107       109       108
 -1        41   12    0    1
 -2       109       111       110
 -1        42   12    0    1
 -2       111       113       112
 -1        43   12    0    1
 -2       113       115       114
 -1        44   12    0    1
 -2       115       117       116
 -1        45   12    0    1
 -2       117       119       118
 -1        46   12    0    1
 -2       119         4       120
 -1        47   12    0    1
 -2         3       122       121
 -1        48   12    0    1
 -2       122       124       123
 -1        49   12    0    1
 -2       124        10       125
 -1        50   12    0    1
 -2         3       127       126
 -1        51   12    0    1
 -2       127       129       128
 -1        52   12    0    1
 -2       129       131       130
 -1        53   12    0    1
 -2       131       133       132
 -1        54   12    0    1
 -2       133       135       134
 -1        55   12    0    1
 -2       135       137       136
 -1        56   12    0    1
 -2       137       139       138
 -1        57   12    0    1
 -2       139        11       140
 -1        58   12    0    1
 -2         4       142       141
 -1        59   12    0    1
 -2       142       144       143
 -1        60   12    0    1
 -2       144       146       145
 -1        61   12    0    1
 -2       146       148       147
 -1        62   12    0    1
 -2       148       150       149
 -1        63   12    0    1
 -2       150       152       151
 -1        64   12    0    1
 -2       152       154       153
 -1        65   12    0    1
 -2       154         5       155
 -1        66   12    0    1
 -2         4       157       156
 -1        67   12    0    1
 -2       157       159       158
 -1        68   12    0    1
 -2       159        11       160
 -1        69   12    0    1
 -2         4       162       161
 -1        70   12    0    1
 -2       162       164       163
 -1        71   12    0    1
 -2       164       166       165
 -1        72   12    0    1
 -2       166       168       167
 -1        73   12    0    1
 -2       168       170       169
 -1        74   12    0    1
 -2       170       172       171
 -1        75   12    0    1
 -2       172       174       173
 -1        76   12    0    1
 -2       174        12       175
 -1        77   12    0    1
 -2         5       192       191
 -1        78   12    0    1
 -2       192       194       193
 -1        79   12    0    1
 -2       194        12       195
 -1        80   12    0    1
 -2         8       252       251
 -1        81   12    0    1
 -2       252       254       253
 -1        82   12    0    1
 -2       254       256       255
 -1        83   12    0    1
 -2       256       258       257
 -1        84   12    0    1
 -2       258       260       259
 -1        85   12    0    1
 -2       260       262       261
 -1        86   12    0    1
 -2       262       264       263
 -1        87   12    0    1
 -2       264         9       265
 -1        88   12    0    1
 -2         8       267       266
 -1        89   12    0    1
 -2       267       269       268
 -1        90   12    0    1
 -2       269        15       270
 -1        91   12    0    1
 -2         8       272       271
 -1        92   12    0    1
 -2       272       274       273
 -1        93   12    0    1
 -2       274       276       275
 -1        94   12    0    1
 -2       276       278       277
 -1        95   12    0    1
 -2       278       280       279
 -1        96   12    0    1
 -2       280       282       281
 -1        97   12    0    1
 -2       282       284       283
 -1        98   12    0    1
 -2       284        16       285
 -1        99   12    0    1
 -2         9       287       286
 -1       100   12    0    1
 -2       287       289       288
 -1       101   12    0    1
 -2       289       291       290
 -1       102   12    0    1
 -2       291       293       292
 -1       103   12    0    1
 -2       293       295       294
 -1       104   12    0    1
 -2       295       297       296
 -1       105   12    0    1
 -2       297       299       298
 -1       106   12    0    1
 -2       299        10       300
 -1       107   12    0    1
 -2         9       302       301
 -1       108   12    0    1
 -2       302       304       303
 -1       109   12    0    1
 -2       304        16       305
 -1       110   12    0    1
 -2         9       307       306
 -1       111   12    0    1
 -2       307       309       308
 -1       112   12    0    1
 -2       309       311       310
 -1       113   12    0    1
 -2       311       313       312
 -1       114   12    0    1
 -2       313       315       314
 -1       115   12    0    1
 -2       315       317       316
 -1       116   12    0    1
 -2       317       319       318
 -1       117   12    0    1
 -2       319        17       320
 -1       118   12    0    1
 -2        10       322       321
 -1       119   12    0    1
 -2       322       324       323
 -1       120   12    0    1
 -2       324       326       325
 -1       121   12    0    1
 -2       326       328       327
 -1       122   12    0    1
 -2       328       330       329
 -1       123   12    0    1
 -2       330       332       331
 -1       124   12    0    1
 -2       332       334       333
 -1       125   12    0    1
 -2       334        11       335
 -1       126   12    0    1
 -2        10       337       336
 -1       127   12    0    1
 -2       337       339       338
 -1       128   12    0    1
 -2       339        17       340
 -1       129   12    0    1
 -2        10       342       341
 -1       130   12    0    1
 -2       342       344       343
 -1       131   12    0    1
 -2       344       346       345
 -1       132   12    0    1
 -2       346       348       347
 -1       133   12    0    1
 -2       348       350       349
 -1       134   12    0    1
 -2       350       352       351
 -1       135   12    0    1
 -2       352       354       353
 -1       136   12    0    1
 -2       354        18       355
 -1       137   12    0    1
 -2        11       357       356
 -1       138   12    0    1
 -2       357       359       358
 -1       139   12    0    1
 -2       359       361       360
 -1       140   12    0    1
 -2       361       363       362
 -1       141   12    0    1
 -2       363       365       364
 -1       142   12    0    1
 -2       365       367       366
 -1       143   12    0    1
 -2       367       369       368
 -1       144   12    0    1
 -2       369        12       370
 -1       145   12    0    1
 -2        11       372       371
 -1       146   12    0    1
 -2       372       374       373
 -1       147   12    0    1
 -2       374        18       375
 -1       148   12    0    1
 -2        11       377       376
 -1       149   12    0    1
 -2       377       379       378
 -1       150   12    0    1
 -2       379       381       380
 -1       151   12    0    1
 -2       381       383       382
 -1       152   12    0    1
 -2       383       385       384
 -1       153   12    0    1
 -2       385       387       386
 -1       154   12    0    1
 -2       387       389       388
 -1       155   12    0    1
 -2       389        19       390
 -1       156   12    0    1
 -2        12       407       406
 -1       157   12    0    1
 -2       407       409       408
 -1       158   12    0    1
 -2       409        19       410
 -1       159   12    0    1
 -2        15       467       466
 -1       160   12    0    1
 -2       467       469       468
 -1       161   12    0    1
 -2       469       471       470
 -1       162   12    0    1
 -2       471       473       472
 -1       163   12    0    1
 -2       473       475       474
 -1       164   12    0    1
 -2       475       477       476
 -1       165   12    0    1
 -2       477       479       478
 -1       166   12    0    1
 -2       479        16       480
 -1       167   12    0    1
 -2        15       482       481
 -1       168   12    0    1
 -2       482       484       483
 -1       169   12    0    1
 -2       484        22       485
 -1       170   12    0    1
 -2        15       487       486
 -1       171   12    0    1
 -2       487       489       488
 -1       172   12    0    1
 -2       489       491       490
 -1       173   12    0    1
 -2       491       493       492
 -1       174   12    0    1
 -2       493       495       494
 -1       175   12    0    1
 -2       495       497       496
 -1       176   12    0    1
 -2       497       499       498
 -1       177   12    0    1
 -2       499        23       500
 -1       178   12    0    1
 -2        16       502       501
 -1       179   12    0    1
 -2       502       504       503
 -1       180   12    0    1
 -2       504       506       505
 -1       181   12    0    1
 -2       506       508       507
 -1       182   12    0    1
 -2       508       510       509
 -1       183   12    0    1
 -2       510       512       511
 -1       184   12    0    1
 -2       512       514       513
 -1       185   12    0    1
 -2       514        17       515
 -1       186   12    0    1
 -2        16       517       516
 -1       187   12    0    1
 -2       517       519       518
 -1       188   12    0    1
 -2       519        23       520
 -1       189   12    0    1
 -2        16       522       521
 -1       190   12    0    1
 -2       522       524       523
 -1       191   12    0    1
 -2       524       526       525
 -1       192   12    0    1
 -2       526       528       527
 -1       193   12    0    1
 -2       528       530       529
 -1       194   12    0    1
 -2       530       532       531
 -1       195   12    0    1
 -2       532       534       533
 -1       196   12    0    1
 -2       534        24       535
 -1       197   12    0    1
 -2        17       537       536
 -1       198   12    0    1
 -2       537       539       538
 -1       199   12    0    1
 -2       539       541       540
 -1       200   12    0    1
 -2       541       543       542
 -1       201   12    0    1
 -2       543       545       544
 -1       202   12    0    1
 -2       545       547       546
 -1       203   12    0    1
 -2       547       549       548
 -1       204   12    0    1
 -2       549        18       550
 -1       205   12    0    1
 -2        17       552       551
 -1       206   12    0    1
 -2       552       554       553
 -1       207   12    0    1
 -2       554        24       555
 -1       208   12    0    1
 -2        17       557       556
 -1       209   12    0    1
 -2       557       559       558
 -1       210   12    0    1
 -2       559       561       560
 -1       211   12    0    1
 -2       561       563       562
 -1       212   12    0    1
 -2       563       565       564
 -1       213   12    0    1
 -2       565       567       566
 -1       214   12    0    1
 -2       567       569       568
 -1       215   12    0    1
 -2       569        25       570
 -1       216   12    0    1
 -2        18       572       571
 -1       217   12    0    1
 -2       572       574       573
 -1       218   12    0    1
 -2       574       576       575
 -1       219   12    0    1
 -2       576       578       577
 -1       220   12    0    1
 -2       578       580       579
 -1       221   12    0    1
 -2       580       582       581
 -1       222   12    0    1
 -2       582       584       583
 -1       223   12    0    1
 -2       584        19       585
 -1       224   12    0    1
 -2        18       587       586
 -1       225   12    0    1
 -2       587       589       588
 -1       226   12    0    1
 -2       589        25       590
 -1       227   12    0    1
 -2        18       592       591
 -1       228   12    0    1
 -2       592       594       593
 -1       229   12    0    1
 -2       594       596       595
 -1       230   12    0    1
 -2       596       598       597
 -1       231   12    0    1
 -2       598       600       599
 -1       232   12    0    1
 -2       600       602       601
 -1       233   12    0    1
 -2       602       604       603
 -1       234   12    0    1
 -2       604        26       605
 -1       235   12    0    1
 -2        19       607       606
 -1       236   12    0    1
 -2       607       609       608
 -1       237   12    0    1
 -2       609       611       610
 -1       238   12    0    1
 -2       611       613       612
 -1       239   12    0    1
 -2       613       615       614
 -1       240   12    0    1
 -2       615       617       616
 -1       241   12    0    1
 -2       617       619       618
 -1       242   12    0    1
 -2       619        20       620
 -1       243   12    0    1
 -2        19       622       621
 -1       244   12    0    1
 -2       622       624       623
 -1       245   12    0    1
 -2       624        26       625
 -1       246   12    0    1
 -2        19       627       626
 -1       247   12    0    1
 -2       627       629       628
 -1       248   12    0    1
 -2       629       631       630
 -1       249   12    0    1
 -2       631       633       632
 -1       250   12    0    1
 -2       633       635       634
 -1       251   12    0    1
 -2       635       637       636
 -1       252   12    0    1
 -2       637       639       638
 -1       253   12    0    1
 -2       639        27       640
 -1       254   12    0    1
 -2        20       642       641
 -1       255   12    0    1
 -2       642       644       643
 -1       256   12    0    1
 -2       644       646       645
 -1       257   12    0    1
 -2       646       648       647
 -1       258   12    0    1
 -2       648       650       649
 -1       259   12    0    1
 -2       650       652       651
 -1       260   12    0    1
 -2       652       654       653
 -1       261   12    0    1
 -2       654        21       655
 -1       262   12    0    1
 -2        20       657       656
 -1       263   12    0    1
 -2       657       659       658
 -1       264   12    0    1
 -2       659        27       660
 -1       265   12    0    1
 -2        20       662       661
 -1       266   12    0    1
 -2       662       664       663
 -1       267   12    0    1
 -2       664       666       665
 -1       268   12    0    1
 -2       666       668       667
 -1       269   12    0    1
 -2       668       670       669
 -1       270   12    0    1
 -2       670       672       671
 -1       271   12    0    1
 -2       672       674       673
 -1       272   12    0    1
 -2       674        28       675
 -1       273   12    0    1
 -2        21       677       676
 -1       274   12    0    1
 -2       677       679       678
 -1       275   12    0    1
 -2       679        28       680
 -1       276   12    0    1
 -2        22       682       681
 -1       277   12    0    1
 -2       682       684       683
 -1       278   12    0    1
 -2       684       686       685
 -1       279   12    0    1
 -2       686       688       687
 -1       280   12    0    1
 -2       688       690       689
 -1       281   12    0    1
 -2       690       692       691
 -1       282   12    0    1
 -2       692       694       693
 -1       283   12    0    1
 -2       694        23       695
 -1       284   12    0    1
 -2        22       697       696
 -1       285   12    0    1
 -2       697       699       698
 -1       286   12    0    1
 -2       699        29       700
 -1       287   12    0    1
 -2        22       702       701
 -1       288   12    0    1
 -2       702       704       703
 -1       289   12    0    1
 -2       704       706       705
 -1       290   12    0    1
 -2       706       708       707
 -1       291   12    0    1
 -2       708       710       709
 -1       292   12    0    1
 -2       710       712       711
 -1       293   12    0    1
 -2       712       714       713
 -1       294   12    0    1
 -2       714        30       715
 -1       295   12    0    1
 -2        23       717       716
 -1       296   12    0    1
 -2       717       719       718
 -1       297   12    0    1
 -2       719       721       720
 -1       298   12    0    1
 -2       721       723       722
 -1       299   12    0    1
 -2       723       725       724
 -1       300   12    0    1
 -2       725       727       726
 -1       301   12    0    1
 -2       727       729       728
 -1       302   12    0    1
 -2       729        24       730
 -1       303   12    0    1
 -2        23       732       731
 -1       304   12    0    1
 -2       732       734       733
 -1       305   12    0    1
 -2       734        30       735
 -1       306   12    0    1
 -2        23       737       736
 -1       307   12    0    1
 -2       737       739       738
 -1       308   12    0    1
 -2       739       741       740
 -1       309   12    0    1
 -2       741       743       742
 -1       310   12    0    1
 -2       743       745       744
 -1       311   12    0    1
 -2       745       747       746
 -1       312   12    0    1
 -2       747       749       748
 -1       313   12    0    1
 -2       749        31       750
 -1       314   12    0    1
 -2        24       752       751
 -1       315   12    0    1
 -2       752       754       753
 -1       316   12    0    1
 -2       754       756       755
 -1       317   12    0    1
 -2       756       758       757
 -1       318   12    0    1
 -2       758       760       759
 -1       319   12    0    1
 -2       760       762       761
 -1       320   12    0    1
 -2       762       764       763
 -1       321   12    0    1
 -2       764        25       765
 -1       322   12    0    1
 -2        24       767       766
 -1       323   12    0    1
 -2       767       769       768
 -1       324   12    0    1
 -2       769        31       770
 -1       325   12    0    1
 -2        24       772       771
 -1       326   12    0    1
 -2       772       774       773
 -1       327   12    0    1
 -2       774       776       775
 -1       328   12    0    1
 -2       776       778       777
 -1       329   12    0    1
 -2       778       780       779
 -1       330   12    0    1
 -2       780       782       781
 -1       331   12    0    1
 -2       782       784       783
 -1       332   12    0    1
 -2       784        32       785
 -1       333   12    0    1
 -2        25       787       786
 -1       334   12    0    1
 -2       787       789       788
 -1       335   12    0    1
 -2       789       791       790
 -1       336   12    0    1
 -2       791       793       792
 -1       337   12    0    1
 -2       793       795       794
 -1       338   12    0    1
 -2       795       797       796
 -1       339   12    0    1
 -2       797       799       798
 -1       340   12    0    1
 -2       799        26       800
 -1       341   12    0    1
 -2        25       802       801
 -1       342   12    0    1
 -2       802       804       803
 -1       343   12    0    1
 -2       804        32       805
 -1       344   12    0    1
 -2        25       807       806
 -1       345   12    0    1
 -2       807       809       808
 -1       346   12    0    1
 -2       809       811       810
 -1       347   12    0    1
 -2       811       813       812
 -1       348   12    0    1
 -2       813       815       814
 -1       349   12    0    1
 -2       815       817       816
 -1       350   12    0    1
 -2       817       819       818
 -1       351   12    0    1
 -2       819        33       820
 -1       352   12    0    1
 -2        26       822       821
 -1       353   12    0    1
 -2       822       824       823
 -1       354   12    0    1
 -2       824       826       825
 -1       355   12    0    1
 -2       826       828       827
 -1       356   12    0    1
 -2       828       830       829
 -1       357   12    0    1
 -2       830       832       831
 -1       358   12    0    1
 -2       832       834       833
 -1       359   12    0    1
 -2       834        27       835
 -1       360   12    0    1
 -2        26       837       836
 -1       361   12    0    1
 -2       837       839       838
 -1       362   12    0    1
 -2       839        33       840
 -1       363   12    0    1
 -2        26       842       841
 -1       364   12    0    1
 -2       842       844       843
 -1       365   12    0    1
 -2       844       846       845
 -1       366   12    0    1
 -2       846       848       847
 -1       367   12    0    1
 -2       848       850       849
 -1       368   12    0    1
 -2       850       852       851
 -1       369   12    0    1
 -2       852       854       853
 -1       370   12    0    1
 -2       854        34       855
 -1       371   12    0    1
 -2        27       857       856
 -1       372   12    0    1
 -2       857       859       858
 -1       373   12    0    1
 -2       859       861       860
 -1       374   12    0    1
 -2       861       863       862
 -1       375   12    0    1
 -2       863       865       864
 -1       376   12    0    1
 -2       865       867       866
 -1       377   12    0    1
 -2       867       869       868
 -1       378   12    0    1
 -2       869        28       870
 -1       379   12    0    1
 -2        27       872       871
 -1       380   12    0    1
 -2       872       874       873
 -1       381   12    0    1
 -2       874        34       875
 -1       382   12    0    1
 -2        27       877       876
 -1       383   12    0    1
 -2       877       879       878
 -1       384   12    0    1
 -2       879       881       880
 -1       385   12    0    1
 -2       881       883       882
 -1       386   12    0    1
 -2       883       885       884
 -1       387   12    0    1
 -2       885       887       886
 -1       388   12    0    1
 -2       887       889       888
 -1       389   12    0    1
 -2       889        35       890
 -1       390   12    0    1
 -2        28       892       891
 -1       391   12    0    1
 -2       892       894       893
 -1       392   12    0    1
 -2       894        35       895
 -1       393   12    0    1
 -2        29       897       896
 -1       394   12    0    1
 -2       897       899       898
 -1       395   12    0    1
 -2       899       901       900
 -1       396   12    0    1
 -2       901       903       902
 -1       397   12    0    1
 -2       903       905       904
 -1       398   12    0    1
 -2       905       907       906
 -1       399   12    0    1
 -2       907       909       908
 -1       400   12    0    1
 -2       909        30       910
 -1       401   12    0    1
 -2        30       912       911
 -1       402   12    0    1
 -2       912       914       913
 -1       403   12    0    1
 -2       914       916       915
 -1       404   12    0    1
 -2       916       918       917
 -1       405   12    0    1
 -2       918       920       919
 -1       406   12    0    1
 -2       920       922       921
 -1       407   12    0    1
 -2       922       924       923
 -1       408   12    0    1
 -2       924        31       925
 -1       409   12    0    1
 -2        31       927       926
 -1       410   12    0    1
 -2       927       929       928
 -1       411   12    0    1
 -2       929       931       930
 -1       412   12    0    1
 -2       931       933       932
 -1       413   12    0    1
 -2       933       935       934
 -1       414   12    0    1
 -2       935       937       936
 -1       415   12    0    1
 -2       937       939       938
 -1       416   12    0    1
 -2       939        32       940
 -1       417   12    0    1
 -2        32       942       941
 -1       418   12    0    1
 -2       942       944       943
 -1       419   12    0    1
 -2       944       946       945
 -1       420   12    0    1
 -2       946       948       947
 -1       421   12    0    1
 -2       948       950       949
 -1       422   12    0    1
 -2       950       952       951
 -1       423   12    0    1
 -2       952       954       953
 -1       424   12    0    1
 -2       954        33       955
 -1       425   12    0    1
 -2        33       957       956
 -1       426   12    0    1
 -2       957       959       958
 -1       427   12    0    1
 -2       959       961       960
 -1       428   12    0    1
 -2       961       963       962
 -1       429   12    0    1
 -2       963       965       964
 -1       430   12    0    1
 -2       965       967       966
 -1       431   12    0    1
 -2       967       969       968
 -1       432   12    0    1
 -2       969        34       970
 -1       433   12    0    1
 -2        34       972       971
 -1       434   12    0    1
 -2       972       974       973
 -1       435   12    0    1
 -2       974       976       975
 -1       436   12    0    1
 -2       976       978       977
 -1       437   12    0    1
 -2       978       980       979
 -1       438   12    0    1
 -2       980       982       981
 -1       439   12    0    1
 -2       982       984       983
 -1       440   12    0    1
 -2       984        35       985
 -3
    1PSTEP                         1           1           1          
  100CL  101 1.000000000         841                     0    1           1
 -4  DISP        4    1
 -5  D1          1    2    1    0
 -5  D2          1    2    2    0
 -5  D3          1    2    3    0
 -5  ALL         1    2    0    0    1ALL
 -1         1 5.45260E-05 0.00000E+00 0.00000E+00
 -1         2 4.43468E-05 0.00000E+00 0.00000E+00
 -1         3 4.11562E-05 0.00000E+00 0.00000E+00
 -1         4 4.07143E-05 0.00000E+00 0.00000E+00
 -1         5 4.06042E-05 0.00000E+00 0.00000E+00
 -1         8 3.33641E-05-1.65291E-06 0.00000E+00
 -1         9 3.70303E-05 1.06876E-06 0.00000E+00
 -1        10 3.72196E-05 1.87042E-07 0.00000E+00
 -1        11 3.84578E-05 1.56448E-07 0.00000E+00
 -1        12 3.93442E-05 3.53287E-06 0.00000E+00
 -1        15 1.81470E-05-1.87823E-06 0.00000E+00
 -1        16 2.25774E-05 1.40357E-06 0.00000E+00
 -1        17 2.62829E-05 3.65360E-07 0.00000E+00
 -1        18 3.02487E-05 1.37517E-07 0.00000E+00
 -1        19 3.47751E-05 7.03663E-06 0.00000E+00
 -1        20 3.64730E-05 6.33707E-05 0.00000E+00
 -1        21 3.64396E-05 1.19874E-04 0.00000E+00
 -1        22 8.55958E-06-1.19476E-06 0.00000E+00
 -1        23 1.10060E-05 1.76919E-06 0.00000E+00
 -1        24 1.29650E-05 4.65733E-07 0.00000E+00
 -1        25 1.69119E-05 1.56153E-07 0.00000E+00
 -1        26 2.04016E-05 9.47152E-06 0.00000E+00
 -1        27 1.79600E-05 6.27517E-05 0.00000E+00
 -1        28 1.69485E-05 1.19318E-04 0.00000E+00
 -1        29 0.00000E+00 0.00000E+00 0.00000E+00
 -1        30 4.29933E-06 2.17720E-06 0.00000E+00
 -1        31 5.19884E-06 1.11948E-06 0.00000E+00
 -1        32 0.00000E+00 0.00000E+00 0.00000E+00
 -1        33 4.55908E-06 1.08098E-05 0.00000E+00
 -1        34 1.09886E-06 6.25390E-05 0.00000E+00
 -1        35-1.12949E-06 1.18992E-04 0.00000E+00
 -1        36 5.38896E-05 4.30796E-21 0.00000E+00
 -1        37 5.32517E-05 2.97123E-21 0.00000E+00
 -1        38 5.26136E-05 2.58080E-21 0.00000E+00
 -1        39 5.19754E-05 4.91014E-21-1.32349E-23
 -1        40 5.13371E-05 5.79026E-21 2.64698E-23
 -1        41 5.06988E-05 5.62483E-21 1.32349E-23
 -1        42 5.00604E-05 6.88876E-21 0.00000E+00
 -1        43 4.94221E-05 6.23363E-21-1.32349E-23
 -1        44 4.87839E-05 4.45354E-21 2.64698E-23
 -1        45 4.81457E-05 2.12420E-21 0.00000E+00
 -1        46 4.75076E-05 3.32857E-21 2.64698E-23
 -1        47 4.68699E-05 3.14329E-21 0.00000E+00
 -1        48 4.62328E-05 3.19623E-21 0.00000E+00
 -1        49 4.55975E-05 3.52710E-21 0.00000E+00
 -1        50 4.49639E-05 1.68745E-21-1.32349E-23
 -1        51 5.29790E-05-2.88212E-07 1.65436E-24
 -1        52 4.99873E-05-5.63201E-07 8.27181E-25
 -1        53 4.60366E-05-8.38495E-07 0.00000E+00
 -1        54 4.16207E-05-1.11306E-06-3.30872E-24
 -1        55 3.72332E-05-1.38641E-06 0.00000E+00
 -1        56 5.36029E-05-3.46835E-07 0.00000E+00
 -1        57 5.26572E-05-6.79128E-07 0.00000E+00
 -1        58 5.16998E-05-9.83679E-07-2.64698E-23
 -1        59 5.07273E-05-1.25277E-06-1.32349E-23
 -1        60 4.97378E-05-1.47814E-06 2.64698E-23
 -1        61 4.87288E-05-1.65200E-06 0.00000E+00
 -1        62 4.76974E-05-1.76667E-06-2.64698E-23
 -1        63 4.66410E-05-1.81465E-06 1.32349E-23
 -1        64 4.55568E-05-1.78858E-06 2.64698E-23
 -1        65 4.44422E-05-1.68124E-06 0.00000E+00
 -1        66 4.32947E-05-1.48556E-06 0.00000E+00
 -1        67 4.21122E-05-1.19460E-06 0.00000E+00
 -1        68 4.08924E-05-8.01567E-07 2.64698E-23
 -1        69 3.96356E-05-2.99129E-07 0.00000E+00
 -1        70 3.83385E-05 3.18554E-07 0.00000E+00
 -1        71 4.41436E-05 9.67801E-22 6.61744E-24
 -1        72 4.39432E-05-6.58436E-22 3.30872E-24
 -1        73 4.37430E-05-2.11262E-21-6.61744E-24
 -1        74 4.35431E-05-4.25171E-21 3.30872E-24
 -1        75 4.33433E-05-4.22358E-21-6.61744E-24
 -1        76 4.31436E-05-6.09301E-21 0.00000E+00
 -1        77 4.29439E-05-7.15015E-21 6.61744E-24
 -1        78 4.27442E-05-1.06326E-20 3.30872E-24
 -1        79 4.25445E-05-1.05250E-20 0.00000E+00
 -1        80 4.23449E-05-1.06822E-20-3.30872E-24
 -1        81 4.21453E-05-5.53384E-21 0.00000E+00
 -1        82 4.19458E-05-3.39309E-21 0.00000E+00
 -1        83 4.17465E-05 1.04887E-21-6.61744E-24
 -1        84 4.15477E-05 2.51628E-21 0.00000E+00
 -1        85 4.13495E-05 2.00674E-21 3.30872E-24
 -1        86 4.38669E-05 1.64188E-07 0.00000E+00
 -1        87 4.28857E-05 3.47535E-07 0.00000E+00
 -1        88 4.15564E-05 5.31946E-07 0.00000E+00
 -1        89 4.00341E-05 7.16569E-07 0.00000E+00
 -1        90 3.84740E-05 9.00314E-07 0.00000E+00
 -1        91 4.39722E-05-1.61972E-07 0.00000E+00
 -1        92 4.35978E-05-3.41550E-07-6.61744E-24
 -1        93 4.32256E-05-5.28468E-07 0.00000E+00
 -1        94 4.28524E-05-7.14393E-07 6.61744E-24
 -1        95 4.24754E-05-8.90773E-07 1.32349E-23
 -1        96 4.20915E-05-1.04920E-06-6.61744E-24
 -1        97 4.16978E-05-1.18128E-06-1.32349E-23
 -1        98 4.12910E-05-1.27867E-06 0.00000E+00
 -1        99 4.08681E-05-1.33303E-06 0.00000E+00
 -1       100 4.04260E-05-1.33610E-06 0.00000E+00
 -1       101 3.99616E-05-1.27961E-06 0.00000E+00
 -1       102 3.94721E-05-1.15535E-06 0.00000E+00
 -1       103 3.89545E-05-9.55130E-07 1.32349E-23
 -1       104 3.84068E-05-6.70568E-07-3.30872E-24
 -1       105 3.78255E-05-2.93809E-07 6.61744E-24
 -1       106 4.11255E-05 1.71847E-22 0.00000E+00
 -1       107 4.10974E-05 5.79647E-22 0.00000E+00
 -1       108 4.10695E-05 3.55626E-21-8.27181E-25
 -1       109 4.10418E-05 5.65523E-21 0.00000E+00
 -1       110 4.10143E-05 6.99505E-21 8.27181E-25
 -1       111 4.09868E-05 5.45422E-21 4.13590E-25
 -1       112 4.09593E-05 5.46270E-21 8.27181E-25
 -1       113 4.09318E-05 6.45222E-21-4.13590E-25
 -1       114 4.09044E-05 5.42113E-21 8.27181E-25
 -1       115 4.08770E-05 5.42113E-21-4.13590E-25
 -1       116 4.08495E-05 1.20272E-21-8.27181E-25
 -1       117 4.08221E-05-1.26352E-21 0.00000E+00
 -1       118 4.07948E-05-2.01563E-21 0.00000E+00
 -1       119 4.07675E-05-1.63368E-22 0.00000E+00
 -1       120 4.07403E-05 7.83754E-22 0.00000E+00
 -1       121 4.09109E-05 2.80304E-08 0.00000E+00
 -1       122 4.04002E-05 6.11135E-08 0.00000E+00
 -1       123 3.96993E-05 9.44045E-08 0.00000E+00
 -1       124 3.88847E-05 1.27537E-07 0.00000E+00
 -1       125 3.80328E-05 1.60244E-07 0.00000E+00
 -1       126 4.10233E-05-7.82955E-08 0.00000E+00
 -1       127 4.08980E-05-1.85075E-07 0.00000E+00
 -1       128 4.07797E-05-3.11077E-07 0.00000E+00
 -1       129 4.06651E-05-4.47868E-07 0.00000E+00
 -1       130 4.05513E-05-5.86910E-07 3.30872E-24
 -1       131 4.04351E-05-7.19723E-07 1.65436E-24
 -1       132 4.03133E-05-8.37834E-07 0.00000E+00
 -1       133 4.01829E-05-9.32781E-07 0.00000E+00
 -1       134 4.00405E-05-9.96105E-07-3.30872E-24
 -1       135 3.98832E-05-1.01936E-06-1.65436E-24
 -1       136 3.97078E-05-9.94121E-07-3.30872E-24
 -1       137 3.95111E-05-9.11941E-07 0.00000E+00
 -1       138 3.92901E-05-7.64405E-07-3.30872E-24
 -1       139 3.90421E-05-5.42986E-07 0.00000E+00
 -1       140 3.87638E-05-2.39399E-07 1.65436E-24
 -1       141 4.07060E-05 1.83955E-21-2.06795E-25
 -1       142 4.06975E-05 1.10915E-21 1.03398E-25
 -1       143 4.06890E-05-9.37299E-22 0.00000E+00
 -1       144 4.06805E-05-2.03000E-21 0.00000E+00
 -1       145 4.06719E-05-6.73428E-22 0.00000E+00
 -1       146 4.06634E-05 2.36139E-21 1.03398E-25
 -1       147 4.06549E-05 6.43164E-21 2.06795E-25
 -1       148 4.06463E-05 1.11933E-20 1.03398E-25
 -1       149 4.06378E-05 1.03197E-20-2.06795E-25
 -1       150 4.06294E-05 3.78818E-21 0.00000E+00
 -1       151 4.06211E-05 1.35079E-21-2.58494E-26
 -1       152 4.06131E-05 1.73181E-21 0.00000E+00
 -1       153 4.06056E-05-1.78878E-23 8.27181E-25
 -1       154 4.05997E-05-3.95951E-21 8.27181E-25
 -1       155 4.05950E-05-1.76314E-21 0.00000E+00
 -1       156 4.05981E-05 2.53057E-08 0.00000E+00
 -1       157 4.03383E-05 5.18897E-08 0.00000E+00
 -1       158 3.99643E-05 7.85185E-08 1.65436E-24
 -1       159 3.95061E-05 1.05092E-07 0.00000E+00
 -1       160 3.89940E-05 1.31540E-07 0.00000E+00
 -1       161 4.07010E-05 2.31566E-08 0.00000E+00
 -1       162 4.06723E-05 8.72980E-08 0.00000E+00
 -1       163 4.06294E-05 1.89401E-07 0.00000E+00
 -1       164 4.05734E-05 3.26278E-07 5.16988E-26
 -1       165 4.05056E-05 4.94753E-07 0.00000E+00
 -1       166 4.04271E-05 6.91648E-07 0.00000E+00
 -1       167 4.03392E-05 9.13779E-07-1.03398E-25
 -1       168 4.02430E-05 1.15796E-06 2.58494E-26
 -1       169 4.01397E-05 1.42103E-06 5.16988E-26
 -1       170 4.00307E-05 1.69980E-06 0.00000E+00
 -1       171 3.99170E-05 1.99111E-06 2.06795E-25
 -1       172 3.98001E-05 2.29184E-06-2.06795E-25
 -1       173 3.96813E-05 2.59886E-06 0.00000E+00
 -1       174 3.95629E-05 2.90941E-06 0.00000E+00
 -1       175 3.94457E-05 3.22015E-06 0.00000E+00
 -1       191 4.05425E-05 5.80013E-07 1.32349E-23
 -1       192 4.04034E-05 1.17247E-06 6.61744E-24
 -1       193 4.02004E-05 1.76596E-06 0.00000E+00
 -1       194 3.99472E-05 2.35950E-06 0.00000E+00
 -1       195 3.96572E-05 2.95210E-06 1.32349E-23
 -1       251 3.35731E-05 6.79456E-07 0.00000E+00
 -1       252 3.38004E-05 2.35036E-06 0.00000E+00
 -1       253 3.40302E-05 3.43839E-06 4.96308E-24
 -1       254 3.42624E-05 4.02427E-06 0.00000E+00
 -1       255 3.44954E-05 4.18843E-06-3.30872E-24
 -1       256 3.47288E-05 4.01119E-06-1.65436E-24
 -1       257 3.49623E-05 3.57273E-06 6.61744E-24
 -1       258 3.51958E-05 2.95312E-06 3.30872E-24
 -1       259 3.54292E-05 2.23232E-06 0.00000E+00
 -1       260 3.56625E-05 1.49027E-06 3.30872E-24
 -1       261 3.58958E-05 8.06896E-07 6.61744E-24
 -1       262 3.61287E-05 2.62126E-07 0.00000E+00
 -1       263 3.63610E-05-6.40261E-08 6.61744E-24
 -1       264 3.65914E-05-9.15304E-08 0.00000E+00
 -1       265 3.68200E-05 2.59848E-07 0.00000E+00
 -1       266 3.04381E-05-1.69705E-06 0.00000E+00
 -1       267 2.75302E-05-1.73581E-06 0.00000E+00
 -1       268 2.47436E-05-1.77366E-06 0.00000E+00
 -1       269 2.21821E-05-1.81017E-06 1.65436E-24
 -1       270 1.99493E-05-1.84560E-06 0.00000E+00
 -1       271 3.19546E-05 5.42219E-07 0.00000E+00
 -1       272 3.07549E-05 2.13046E-06 0.00000E+00
 -1       273 2.97546E-05 3.18585E-06-1.32349E-23
 -1       274 2.89260E-05 3.77959E-06 0.00000E+00
 -1       275 2.82431E-05 3.98382E-06 0.00000E+00
 -1       276 2.76790E-05 3.87101E-06-6.61744E-24
 -1       277 2.72063E-05 3.51391E-06 0.00000E+00
 -1       278 2.67977E-05 2.98564E-06-6.61744E-24
 -1       279 2.64259E-05 2.35946E-06 0.00000E+00
 -1       280 2.60632E-05 1.70880E-06-6.61744E-24
 -1       281 2.56824E-05 1.10713E-06 0.00000E+00
 -1       282 2.52562E-05 6.27853E-07 0.00000E+00
 -1       283 2.47572E-05 3.44304E-07 0.00000E+00
 -1       284 2.41597E-05 3.29913E-07 0.00000E+00
 -1       285 2.34357E-05 6.57161E-07-6.61744E-24
 -1       286 3.70328E-05 1.99493E-06-3.30872E-24
 -1       287 3.70438E-05 2.58882E-06 1.65436E-24
 -1       288 3.70557E-05 2.89258E-06 0.00000E+00
 -1       289 3.70685E-05 2.94965E-06 0.00000E+00
 -1       290 3.70817E-05 2.80336E-06 0.00000E+00
 -1       291 3.70950E-05 2.49715E-06 0.00000E+00
 -1       292 3.71084E-05 2.07442E-06-4.13590E-25
 -1       293 3.71218E-05 1.57857E-06 0.00000E+00
 -1       294 3.71352E-05 1.05301E-06 8.27181E-25
 -1       295 3.71485E-05 5.41158E-07-8.27181E-25
 -1       296 3.71619E-05 8.63983E-08 0.00000E+00
 -1       297 3.71751E-05-2.67855E-07 0.00000E+00
 -1       298 3.71882E-05-4.78191E-07 0.00000E+00
 -1       299 3.72008E-05-5.01257E-07 0.00000E+00
 -1       300 3.72128E-05-2.93627E-07 1.24077E-24
 -1       301 3.51197E-05 1.11695E-06 0.00000E+00
 -1       302 3.26391E-05 1.17454E-06 0.00000E+00
 -1       303 2.98653E-05 1.23256E-06-8.27181E-25
 -1       304 2.70777E-05 1.29103E-06 0.00000E+00
 -1       305 2.45562E-05 1.34973E-06 0.00000E+00
 -1       306 3.60896E-05 1.79963E-06 1.32349E-23
 -1       307 3.52428E-05 2.22247E-06 0.00000E+00
 -1       308 3.44922E-05 2.38474E-06 0.00000E+00
 -1       309 3.38212E-05 2.32872E-06 0.00000E+00
 -1       310 3.32152E-05 2.09759E-06 2.64698E-23
 -1       311 3.26584E-05 1.73441E-06 0.00000E+00
 -1       312 3.21347E-05 1.28240E-06-1.32349E-23
 -1       313 3.16280E-05 7.84857E-07 0.00000E+00
 -1       314 3.11222E-05 2.85153E-07 1.32349E-23
 -1       315 3.06010E-05-1.73342E-07-6.61744E-24
 -1       316 3.00482E-05-5.47318E-07-1.32349E-23
 -1       317 2.94480E-05-7.93535E-07 0.00000E+00
 -1       318 2.87845E-05-8.68892E-07 0.00000E+00
 -1       319 2.80433E-05-7.30094E-07 0.00000E+00
 -1       320 2.72077E-05-3.34875E-07 6.61744E-24
 -1       321 3.72880E-05 7.31112E-07 0.00000E+00
 -1       322 3.73645E-05 1.07936E-06-2.06795E-25
 -1       323 3.74418E-05 1.25759E-06 1.65436E-24
 -1       324 3.75200E-05 1.29235E-06 0.00000E+00
 -1       325 3.75985E-05 1.21012E-06 1.65436E-24
 -1       326 3.76772E-05 1.03739E-06 8.27181E-25
 -1       327 3.77559E-05 8.00642E-07 0.00000E+00
 -1       328 3.78347E-05 5.26353E-07 0.00000E+00
 -1       329 3.79134E-05 2.40994E-07 0.00000E+00
 -1       330 3.79922E-05-2.89766E-08 1.65436E-24
 -1       331 3.80709E-05-2.57086E-07 0.00000E+00
 -1       332 3.81496E-05-4.16860E-07 0.00000E+00
 -1       333 3.82282E-05-4.81817E-07 0.00000E+00
 -1       334 3.83063E-05-4.25487E-07 0.00000E+00
 -1       335 3.83840E-05-2.21355E-07-1.65436E-24
 -1       336 3.59509E-05 2.13356E-07 0.00000E+00
 -1       337 3.41650E-05 2.45027E-07 0.00000E+00
 -1       338 3.20824E-05 2.76636E-07 0.00000E+00
 -1       339 2.99262E-05 3.08117E-07 8.27181E-25
 -1       340 2.79194E-05 3.39462E-07 0.00000E+00
 -1       341 3.66466E-05 5.87448E-07-6.61744E-24
 -1       342 3.61364E-05 7.82973E-07 0.00000E+00
 -1       343 3.56889E-05 8.08529E-07-1.32349E-23
 -1       344 3.52918E-05 6.95547E-07-6.61744E-24
 -1       345 3.49342E-05 4.75998E-07-1.32349E-23
 -1       346 3.46045E-05 1.81700E-07 0.00000E+00
 -1       347 3.42907E-05-1.55485E-07 0.00000E+00
 -1       348 3.39810E-05-5.03674E-07 6.61744E-24
 -1       349 3.36634E-05-8.30976E-07-1.32349E-23
 -1       350 3.33262E-05-1.10553E-06-6.61744E-24
 -1       351 3.29573E-05-1.29550E-06 0.00000E+00
 -1       352 3.25452E-05-1.36911E-06-6.61744E-24
 -1       353 3.20780E-05-1.29467E-06-6.61744E-24
 -1       354 3.15452E-05-1.04028E-06 3.30872E-24
 -1       355 3.09344E-05-5.74756E-07-6.61744E-24
 -1       356 3.85085E-05 6.11430E-07-6.20385E-25
 -1       357 3.85620E-05 9.94231E-07-4.13590E-25
 -1       358 3.86158E-05 1.31315E-06 8.27181E-25
 -1       359 3.86699E-05 1.57674E-06 0.00000E+00
 -1       360 3.87242E-05 1.79354E-06-1.65436E-24
 -1       361 3.87785E-05 1.97211E-06 0.00000E+00
 -1       362 3.88328E-05 2.12097E-06 0.00000E+00
 -1       363 3.88872E-05 2.24867E-06 0.00000E+00
 -1       364 3.89416E-05 2.36376E-06-1.65436E-24
 -1       365 3.89961E-05 2.47476E-06 0.00000E+00
 -1       366 3.90506E-05 2.59021E-06 1.65436E-24
 -1       367 3.91055E-05 2.71866E-06 0.00000E+00
 -1       368 3.91607E-05 2.86863E-06 3.30872E-24
 -1       369 3.92172E-05 3.04865E-06 0.00000E+00
 -1       370 3.92748E-05 3.26728E-06 0.00000E+00
 -1       371 3.75468E-05 1.53824E-07 0.00000E+00
 -1       372 3.62571E-05 1.51158E-07 0.00000E+00
 -1       373 3.47347E-05 1.48219E-07 0.00000E+00
 -1       374 3.31275E-05 1.45053E-07 0.00000E+00
 -1       375 3.15833E-05 1.41844E-07 0.00000E+00
 -1       376 3.82515E-05 5.26456E-07 1.65436E-24
 -1       377 3.80950E-05 7.56580E-07 0.00000E+00
 -1       378 3.79789E-05 8.78675E-07 0.00000E+00
 -1       379 3.78911E-05 9.24352E-07-8.27181E-25
 -1       380 3.78201E-05 9.25286E-07 0.00000E+00
 -1       381 3.77539E-05 9.13131E-07 8.27181E-25
 -1       382 3.76807E-05 9.19543E-07 1.65436E-24
 -1       383 3.75887E-05 9.76168E-07 8.27181E-25
 -1       384 3.74661E-05 1.11465E-06-1.65436E-24
 -1       385 3.73008E-05 1.36661E-06-8.27181E-25
 -1       386 3.70813E-05 1.76368E-06-4.13590E-25
 -1       387 3.67956E-05 2.33748E-06-2.06795E-25
 -1       388 3.64321E-05 3.11962E-06-8.27181E-25
 -1       389 3.59801E-05 4.14196E-06 0.00000E+00
 -1       390 3.54271E-05 5.43586E-06 3.30872E-24
 -1       406 3.90984E-05 4.10990E-06 1.32349E-23
 -1       407 3.87366E-05 4.69848E-06 0.00000E+00
 -1       408 3.81912E-05 5.28780E-06 0.00000E+00
 -1       409 3.73942E-05 5.87667E-06 0.00000E+00
 -1       410 3.62778E-05 6.46396E-06 0.00000E+00
 -1       466 1.84113E-05-7.00315E-07 1.65436E-24
 -1       467 1.86878E-05 1.13384E-07-3.30872E-24
 -1       468 1.89658E-05 6.12374E-07 6.61744E-24
 -1       469 1.92451E-05 8.47327E-07-3.30872E-24
 -1       470 1.95250E-05 8.68739E-07 0.00000E+00
 -1       471 1.98050E-05 7.27032E-07 0.00000E+00
 -1       472 2.00852E-05 4.72556E-07 0.00000E+00
 -1       473 2.03654E-05 1.55589E-07 0.00000E+00
 -1       474 2.06456E-05-1.73626E-07 0.00000E+00
 -1       475 2.09257E-05-4.64844E-07 0.00000E+00
 -1       476 2.12057E-05-6.67807E-07 0.00000E+00
 -1       477 2.14854E-05-7.32204E-07-6.61744E-24
 -1       478 2.17645E-05-6.07658E-07 0.00000E+00
 -1       479 2.20418E-05-2.43735E-07 0.00000E+00
 -1       480 2.23175E-05 4.10180E-07 0.00000E+00
 -1       481 1.65490E-05-1.76834E-06 3.30872E-24
 -1       482 1.48498E-05-1.65393E-06 1.65436E-24
 -1       483 1.31252E-05-1.53917E-06-3.30872E-24
 -1       484 1.14513E-05-1.42401E-06 1.65436E-24
 -1       485 9.90431E-06-1.30867E-06-1.65436E-24
 -1       486 1.73771E-05-7.43381E-07 6.61744E-24
 -1       487 1.66987E-05 1.04037E-07 3.30872E-24
 -1       488 1.61127E-05 7.02471E-07 0.00000E+00
 -1       489 1.56055E-05 1.08646E-06-6.61744E-24
 -1       490 1.51651E-05 1.29118E-06 0.00000E+00
 -1       491 1.47786E-05 1.35166E-06 6.61744E-24
 -1       492 1.44329E-05 1.30301E-06 1.32349E-23
 -1       493 1.41148E-05 1.18043E-06 6.61744E-24
 -1       494 1.38113E-05 1.01911E-06 1.32349E-23
 -1       495 1.35092E-05 8.54307E-07-6.61744E-24
 -1       496 1.31952E-05 7.21284E-07 0.00000E+00
 -1       497 1.28563E-05 6.55295E-07 0.00000E+00
 -1       498 1.24795E-05 6.91563E-07-6.61744E-24
 -1       499 1.20525E-05 8.65477E-07-3.30872E-24
 -1       500 1.15618E-05 1.21192E-06-3.30872E-24
 -1       501 2.27946E-05 2.36202E-06 4.13590E-25
 -1       502 2.30257E-05 2.92609E-06 0.00000E+00
 -1       503 2.32583E-05 3.15015E-06 3.30872E-24
 -1       504 2.34924E-05 3.08991E-06-3.30872E-24
 -1       505 2.37269E-05 2.80090E-06 0.00000E+00
 -1       506 2.39617E-05 2.33860E-06 0.00000E+00
 -1       507 2.41965E-05 1.75842E-06 0.00000E+00
 -1       508 2.44314E-05 1.11571E-06 3.30872E-24
 -1       509 2.46663E-05 4.65781E-07-6.61744E-24
 -1       510 2.49011E-05-1.36029E-07 0.00000E+00
 -1       511 2.51358E-05-6.34396E-07-6.61744E-24
 -1       512 2.53703E-05-9.73919E-07-3.30872E-24
 -1       513 2.56043E-05-1.09915E-06 6.61744E-24
 -1       514 2.58366E-05-9.54577E-07 0.00000E+00
 -1       515 2.60674E-05-4.84536E-07 0.00000E+00
 -1       516 2.08362E-05 1.46032E-06 0.00000E+00
 -1       517 1.87313E-05 1.52249E-06 0.00000E+00
 -1       518 1.64784E-05 1.58482E-06 0.00000E+00
 -1       519 1.42951E-05 1.64744E-06 4.13590E-25
 -1       520 1.23992E-05 1.71027E-06 0.00000E+00
 -1       521 2.16686E-05 2.23158E-06 1.32349E-23
 -1       522 2.08572E-05 2.73648E-06-6.61744E-24
 -1       523 2.01473E-05 2.96630E-06 0.00000E+00
 -1       524 1.95223E-05 2.96320E-06-6.61744E-24
 -1       525 1.89678E-05 2.77029E-06 1.32349E-23
 -1       526 1.84679E-05 2.43056E-06 0.00000E+00
 -1       527 1.80067E-05 1.98711E-06 0.00000E+00
 -1       528 1.75681E-05 1.48315E-06 0.00000E+00
 -1       529 1.71360E-05 9.61960E-07-1.32349E-23
 -1       530 1.66942E-05 4.66838E-07 6.61744E-24
 -1       531 1.62265E-05 4.10508E-08-1.32349E-23
 -1       532 1.57170E-05-2.72181E-07 0.00000E+00
 -1       533 1.51497E-05-4.29752E-07-1.32349E-23
 -1       534 1.45100E-05-3.88406E-07 6.61744E-24
 -1       535 1.37813E-05-1.05727E-07 6.61744E-24
 -1       536 2.65138E-05 1.24436E-06-2.42984E-24
 -1       537 2.67605E-05 1.78023E-06 1.65436E-24
 -1       538 2.70088E-05 2.02022E-06 3.30872E-24
 -1       539 2.72590E-05 2.01273E-06 0.00000E+00
 -1       540 2.75096E-05 1.80599E-06 6.61744E-24
 -1       541 2.77606E-05 1.44817E-06-3.30872E-24
 -1       542 2.80117E-05 9.87395E-07 0.00000E+00
 -1       543 2.82628E-05 4.71717E-07-3.30872E-24
 -1       544 2.85139E-05-5.08230E-08 0.00000E+00
 -1       545 2.87650E-05-5.32203E-07 3.30872E-24
 -1       546 2.90160E-05-9.24371E-07 0.00000E+00
 -1       547 2.92668E-05-1.17923E-06 3.30872E-24
 -1       548 2.95172E-05-1.24862E-06 0.00000E+00
 -1       549 2.97661E-05-1.08435E-06 3.30872E-24
 -1       550 3.00138E-05-6.38057E-07 0.00000E+00
 -1       551 2.44486E-05 3.79333E-07 0.00000E+00
 -1       552 2.21004E-05 3.97969E-07 0.00000E+00
 -1       553 1.95070E-05 4.16550E-07-8.27181E-25
 -1       554 1.69395E-05 4.35027E-07 0.00000E+00
 -1       555 1.46695E-05 4.53422E-07 0.00000E+00
 -1       556 2.54525E-05 1.06232E-06-1.32349E-23
 -1       557 2.47263E-05 1.42554E-06 6.61744E-24
 -1       558 2.41030E-05 1.50949E-06 0.00000E+00
 -1       559 2.35636E-05 1.36414E-06 6.61744E-24
 -1       560 2.30906E-05 1.04013E-06-1.32349E-23
 -1       561 2.26652E-05 5.87994E-07 0.00000E+00
 -1       562 2.22687E-05 5.83433E-08 0.00000E+00
 -1       563 2.18822E-05-4.98146E-07 0.00000E+00
 -1       564 2.14868E-05-1.03078E-06-1.32349E-23
 -1       565 2.10635E-05-1.48891E-06 0.00000E+00
 -1       566 2.05935E-05-1.82192E-06-1.32349E-23
 -1       567 2.00580E-05-1.97933E-06 0.00000E+00
 -1       568 1.94383E-05-1.91078E-06 1.32349E-23
 -1       569 1.87171E-05-1.56587E-06 0.00000E+00
 -1       570 1.78753E-05-8.94908E-07 1.32349E-23
 -1       571 3.05151E-05 9.50521E-07-3.30872E-24
 -1       572 3.07956E-05 1.51172E-06 1.65436E-24
 -1       573 3.10779E-05 1.86344E-06-6.61744E-24
 -1       574 3.13617E-05 2.04896E-06 0.00000E+00
 -1       575 3.16461E-05 2.11151E-06 0.00000E+00
 -1       576 3.19308E-05 2.09428E-06 3.30872E-24
 -1       577 3.22156E-05 2.04044E-06 0.00000E+00
 -1       578 3.25004E-05 1.99314E-06 3.30872E-24
 -1       579 3.27853E-05 1.99554E-06 0.00000E+00
 -1       580 3.30702E-05 2.09081E-06 6.61744E-24
 -1       581 3.33551E-05 2.32216E-06-1.32349E-23
 -1       582 3.36398E-05 2.73291E-06 0.00000E+00
 -1       583 3.39245E-05 3.36639E-06-1.32349E-23
 -1       584 3.42087E-05 4.26602E-06 0.00000E+00
 -1       585 3.44926E-05 5.47536E-06 0.00000E+00
 -1       586 2.85998E-05 1.41191E-07 0.00000E+00
 -1       587 2.64254E-05 1.45782E-07 0.00000E+00
 -1       588 2.39463E-05 1.49864E-07 0.00000E+00
 -1       589 2.13858E-05 1.53455E-07-8.27181E-25
 -1       590 1.89673E-05 1.56837E-07 0.00000E+00
 -1       591 2.95990E-05 8.55415E-07 6.61744E-24
 -1       592 2.90146E-05 1.35638E-06 0.00000E+00
 -1       593 2.84932E-05 1.68590E-06 0.00000E+00
 -1       594 2.80188E-05 1.88576E-06-6.61744E-24
 -1       595 2.75767E-05 1.99819E-06 0.00000E+00
 -1       596 2.71514E-05 2.06523E-06 0.00000E+00
 -1       597 2.67272E-05 2.12893E-06 0.00000E+00
 -1       598 2.62885E-05 2.23133E-06 0.00000E+00
 -1       599 2.58194E-05 2.41442E-06-1.32349E-23
 -1       600 2.53044E-05 2.72012E-06 3.30872E-24
 -1       601 2.47278E-05 3.19031E-06 6.61744E-24
 -1       602 2.40740E-05 3.86676E-06-3.30872E-24
 -1       603 2.33276E-05 4.79114E-06 0.00000E+00
 -1       604 2.24743E-05 6.00521E-06 3.30872E-24
 -1       605 2.14984E-05 7.55015E-06 0.00000E+00
 -1       606 3.48936E-05 9.09389E-06 0.00000E+00
 -1       607 3.50046E-05 1.15198E-05 0.00000E+00
 -1       608 3.51140E-05 1.42783E-05 0.00000E+00
 -1       609 3.52219E-05 1.73319E-05 0.00000E+00
 -1       610 3.53287E-05 2.06430E-05 0.00000E+00
 -1       611 3.54348E-05 2.41744E-05 0.00000E+00
 -1       612 3.55401E-05 2.78884E-05 0.00000E+00
 -1       613 3.56449E-05 3.17477E-05 1.65436E-24
 -1       614 3.57492E-05 3.57149E-05-3.30872E-24
 -1       615 3.58533E-05 3.97527E-05 0.00000E+00
 -1       616 3.59572E-05 4.38237E-05 0.00000E+00
 -1       617 3.60610E-05 4.78905E-05 1.65436E-24
 -1       618 3.61649E-05 5.19159E-05 0.00000E+00
 -1       619 3.62687E-05 5.58625E-05-8.27181E-25
 -1       620 3.63724E-05 5.96930E-05-8.27181E-25
 -1       621 3.27117E-05 7.44135E-06-1.32349E-23
 -1       622 3.04105E-05 7.85182E-06 0.00000E+00
 -1       623 2.79496E-05 8.26215E-06 0.00000E+00
 -1       624 2.54084E-05 8.67134E-06-6.61744E-24
 -1       625 2.28662E-05 9.07896E-06 0.00000E+00
 -1       626 3.42369E-05 9.17125E-06 0.00000E+00
 -1       627 3.35618E-05 1.16640E-05 0.00000E+00
 -1       628 3.27651E-05 1.44780E-05 0.00000E+00
 -1       629 3.18616E-05 1.75743E-05 3.30872E-24
 -1       630 3.08658E-05 2.09144E-05-6.61744E-24
 -1       631 2.97922E-05 2.44597E-05-3.30872E-24
 -1       632 2.86555E-05 2.81716E-05 6.61744E-24
 -1       633 2.74701E-05 3.20120E-05-3.30872E-24
 -1       634 2.62506E-05 3.59423E-05 6.61744E-24
 -1       635 2.50115E-05 3.99242E-05 0.00000E+00
 -1       636 2.37672E-05 4.39195E-05 6.61744E-24
 -1       637 2.25322E-05 4.78899E-05 0.00000E+00
 -1       638 2.13208E-05 5.17970E-05 0.00000E+00
 -1       639 2.01468E-05 5.56024E-05 0.00000E+00
 -1       640 1.90248E-05 5.92676E-05 0.00000E+00
 -1       641 3.64723E-05 6.69230E-05 4.13590E-25
 -1       642 3.64705E-05 7.04912E-05 0.00000E+00
 -1       643 3.64686E-05 7.40713E-05 0.00000E+00
 -1       644 3.64665E-05 7.76594E-05 0.00000E+00
 -1       645 3.64644E-05 8.12514E-05 1.03398E-25
 -1       646 3.64622E-05 8.48433E-05 0.00000E+00
 -1       647 3.64601E-05 8.84312E-05-5.16988E-26
 -1       648 3.64579E-05 9.20109E-05 0.00000E+00
 -1       649 3.64558E-05 9.55784E-05 0.00000E+00
 -1       650 3.64538E-05 9.91298E-05-5.16988E-26
 -1       651 3.64518E-05 1.02661E-04 0.00000E+00
 -1       652 3.64498E-05 1.06168E-04 0.00000E+00
 -1       653 3.64479E-05 1.09647E-04 0.00000E+00
 -1       654 3.64458E-05 1.13093E-04 0.00000E+00
 -1       655 3.64437E-05 1.16504E-04 0.00000E+00
 -1       656 3.31448E-05 6.32709E-05 0.00000E+00
 -1       657 3.00138E-05 6.31661E-05 0.00000E+00
 -1       658 2.70053E-05 6.30613E-05 3.30872E-24
 -1       659 2.40437E-05 6.29566E-05 8.27181E-25
 -1       660 2.10537E-05 6.28520E-05 0.00000E+00
 -1       661 3.52197E-05 6.69474E-05 0.00000E+00
 -1       662 3.39661E-05 7.05328E-05-8.27181E-25
 -1       663 3.27112E-05 7.41221E-05 0.00000E+00
 -1       664 3.14567E-05 7.77112E-05-1.65436E-24
 -1       665 3.02038E-05 8.12963E-05 0.00000E+00
 -1       666 2.89540E-05 8.48732E-05-1.65436E-24
 -1       667 2.77088E-05 8.84381E-05 0.00000E+00
 -1       668 2.64698E-05 9.19869E-05 0.00000E+00
 -1       669 2.52383E-05 9.55156E-05 3.30872E-24
 -1       670 2.40159E-05 9.90204E-05 0.00000E+00
 -1       671 2.28041E-05 1.02497E-04-3.30872E-24
 -1       672 2.16043E-05 1.05942E-04-1.65436E-24
 -1       673 2.04179E-05 1.09350E-04 0.00000E+00
 -1       674 1.92462E-05 1.12719E-04 8.27181E-25
 -1       675 1.80908E-05 1.16043E-04 0.00000E+00
 -1       676 3.31252E-05 1.19782E-04 1.65436E-24
 -1       677 2.98474E-05 1.19689E-04-1.65436E-24
 -1       678 2.65984E-05 1.19595E-04-3.30872E-24
 -1       679 2.33707E-05 1.19502E-04 0.00000E+00
 -1       680 2.01567E-05 1.19408E-04-1.65436E-24
 -1       681 8.70908E-06-2.48428E-07-1.65436E-24
 -1       682 8.86226E-06 4.32656E-07 0.00000E+00
 -1       683 9.01590E-06 8.82923E-07-3.30872E-24
 -1       684 9.17001E-06 1.13773E-06 1.65436E-24
 -1       685 9.32427E-06 1.23234E-06 3.30872E-24
 -1       686 9.47862E-06 1.20200E-06 0.00000E+00
 -1       687 9.63299E-06 1.08195E-06-3.30872E-24
 -1       688 9.78736E-06 9.07365E-07-1.65436E-24
 -1       689 9.94172E-06 7.13428E-07 0.00000E+00
 -1       690 1.00960E-05 5.35311E-07 3.30872E-24
 -1       691 1.02503E-05 4.08190E-07 6.61744E-24
 -1       692 1.04044E-05 3.67255E-07 3.30872E-24
 -1       693 1.05581E-05 4.47722E-07-6.61744E-24
 -1       694 1.07109E-05 6.84801E-07-6.61744E-24
 -1       695 1.08628E-05 1.11380E-06 0.00000E+00
 -1       696 7.23623E-06-1.00130E-06 0.00000E+00
 -1       697 5.76534E-06-8.02466E-07 0.00000E+00
 -1       698 4.22624E-06-6.03128E-07 0.00000E+00
 -1       699 2.69906E-06-4.02993E-07 3.30872E-24
 -1       700 1.26388E-06-2.02397E-07 0.00000E+00
 -1       701 8.02983E-06-2.49081E-07-3.30872E-24
 -1       702 7.56392E-06 4.94312E-07 0.00000E+00
 -1       703 7.16386E-06 1.05998E-06 0.00000E+00
 -1       704 6.82117E-06 1.46949E-06 0.00000E+00
 -1       705 6.52850E-06 1.74481E-06 0.00000E+00
 -1       706 6.27778E-06 1.90778E-06 3.30872E-24
 -1       707 6.06093E-06 1.98024E-06 0.00000E+00
 -1       708 5.86980E-06 1.98406E-06 0.00000E+00
 -1       709 5.69620E-06 1.94114E-06 6.61744E-24
 -1       710 5.53195E-06 1.87338E-06-3.30872E-24
 -1       711 5.36887E-06 1.80270E-06 0.00000E+00
 -1       712 5.19885E-06 1.75105E-06 1.65436E-24
 -1       713 5.01380E-06 1.74038E-06 0.00000E+00
 -1       714 4.80627E-06 1.79283E-06 0.00000E+00
 -1       715 4.56775E-06 1.93016E-06 1.65436E-24
 -1       716 1.11212E-05 2.37868E-06 8.27181E-25
 -1       717 1.12438E-05 2.69417E-06 4.13590E-25
 -1       718 1.13672E-05 2.75812E-06 0.00000E+00
 -1       719 1.14914E-05 2.61407E-06 8.27181E-25
 -1       720 1.16158E-05 2.30545E-06 0.00000E+00
 -1       721 1.17404E-05 1.87570E-06 0.00000E+00
 -1       722 1.18650E-05 1.36826E-06 0.00000E+00
 -1       723 1.19895E-05 8.26494E-07 0.00000E+00
 -1       724 1.21141E-05 2.93815E-07 3.30872E-24
 -1       725 1.22387E-05-1.86384E-07-1.65436E-24
 -1       726 1.23632E-05-5.70708E-07 0.00000E+00
 -1       727 1.24874E-05-8.15722E-07 0.00000E+00
 -1       728 1.26113E-05-8.77966E-07 0.00000E+00
 -1       729 1.27339E-05-7.13991E-07 0.00000E+00
 -1       730 1.28553E-05-2.80234E-07 0.00000E+00
 -1       731 9.91386E-06 1.83268E-06-1.65436E-24
 -1       732 8.64636E-06 1.90086E-06-8.27181E-25
 -1       733 7.32689E-06 1.96944E-06-8.27181E-25
 -1       734 6.07986E-06 2.03858E-06 8.27181E-25
 -1       735 5.02968E-06 2.10801E-06-8.27181E-25
 -1       736 1.04263E-05 2.34749E-06 0.00000E+00
 -1       737 9.90380E-06 2.73411E-06 0.00000E+00
 -1       738 9.44235E-06 2.95517E-06 0.00000E+00
 -1       739 9.03308E-06 3.03304E-06 0.00000E+00
 -1       740 8.66849E-06 2.99064E-06 0.00000E+00
 -1       741 8.34022E-06 2.85072E-06 6.61744E-24
 -1       742 8.03985E-06 2.63610E-06 0.00000E+00
 -1       743 7.75888E-06 2.36960E-06-6.61744E-24
 -1       744 7.48878E-06 2.07410E-06 0.00000E+00
 -1       745 7.22100E-06 1.77249E-06 0.00000E+00
 -1       746 6.94699E-06 1.48768E-06-1.32349E-23
 -1       747 6.65829E-06 1.24256E-06 3.30872E-24
 -1       748 6.34644E-06 1.06004E-06 6.61744E-24
 -1       749 6.00360E-06 9.63139E-07 3.30872E-24
 -1       750 5.62097E-06 9.74504E-07 0.00000E+00
 -1       751 1.31936E-05 1.17140E-06-1.24077E-24
 -1       752 1.34394E-05 1.52114E-06 3.30872E-24
 -1       753 1.36869E-05 1.56967E-06-3.30872E-24
 -1       754 1.39363E-05 1.37294E-06 0.00000E+00
 -1       755 1.41863E-05 9.86708E-07 0.00000E+00
 -1       756 1.44365E-05 4.66706E-07 3.30872E-24
 -1       757 1.46869E-05-1.31406E-07 0.00000E+00
 -1       758 1.49373E-05-7.52000E-07 0.00000E+00
 -1       759 1.51878E-05-1.33945E-06-6.61744E-24
 -1       760 1.54382E-05-1.83814E-06 3.30872E-24
 -1       761 1.56886E-05-2.19239E-06-6.61744E-24
 -1       762 1.59386E-05-2.34644E-06 0.00000E+00
 -1       763 1.61881E-05-2.24446E-06-6.61744E-24
 -1       764 1.64358E-05-1.83054E-06 0.00000E+00
 -1       765 1.66817E-05-1.04858E-06-6.61744E-24
 -1       766 1.16717E-05 5.67128E-07 0.00000E+00
 -1       767 1.01754E-05 6.79116E-07 1.65436E-24
 -1       768 8.62747E-06 7.91742E-07 8.27181E-25
 -1       769 7.18060E-06 9.04552E-07 2.06795E-25
 -1       770 5.98743E-06 1.01699E-06 0.00000E+00
 -1       771 1.19796E-05 9.86377E-07-1.32349E-23
 -1       772 1.10637E-05 1.24229E-06-1.32349E-23
 -1       773 1.02270E-05 1.28004E-06-2.64698E-23
 -1       774 9.45444E-06 1.13874E-06 0.00000E+00
 -1       775 8.73308E-06 8.58478E-07 2.64698E-23
 -1       776 8.04839E-06 4.79038E-07 1.32349E-23
 -1       777 7.38573E-06 4.02846E-08 2.64698E-23
 -1       778 6.73025E-06-4.17866E-07-1.32349E-23
 -1       779 6.06707E-06-8.55485E-07 0.00000E+00
 -1       780 5.38131E-06-1.23270E-06-1.32349E-23
 -1       781 4.65813E-06-1.50966E-06 0.00000E+00
 -1       782 3.88293E-06-1.64668E-06 0.00000E+00
 -1       783 3.04112E-06-1.60419E-06-1.32349E-23
 -1       784 2.11971E-06-1.34248E-06 0.00000E+00
 -1       785 1.10375E-06-8.22725E-07-1.32349E-23
 -1       786 1.71139E-05 1.38924E-06-1.24077E-24
 -1       787 1.73305E-05 2.26367E-06 0.00000E+00
 -1       788 1.75486E-05 2.83680E-06-6.61744E-24
 -1       789 1.77685E-05 3.16727E-06 1.65436E-24
 -1       790 1.79889E-05 3.31354E-06 6.61744E-24
 -1       791 1.82096E-05 3.33403E-06 0.00000E+00
 -1       792 1.84304E-05 3.28716E-06 0.00000E+00
 -1       793 1.86514E-05 3.23128E-06 0.00000E+00
 -1       794 1.88723E-05 3.22474E-06 0.00000E+00
 -1       795 1.90932E-05 3.32594E-06 3.30872E-24
 -1       796 1.93140E-05 3.59329E-06 6.61744E-24
 -1       797 1.95345E-05 4.08530E-06-3.30872E-24
 -1       798 1.97546E-05 4.86055E-06 6.61744E-24
 -1       799 1.99736E-05 5.97769E-06-3.30872E-24
 -1       800 2.01914E-05 7.49558E-06 0.00000E+00
 -1       801 1.45783E-05 1.30185E-07 1.65436E-24
 -1       802 1.15933E-05 1.06292E-07 4.13590E-25
 -1       803 8.29840E-06 8.16959E-08 1.65436E-24
 -1       804 5.03851E-06 5.66535E-08 0.00000E+00
 -1       805 2.15857E-06 3.18070E-08 0.00000E+00
 -1       806 1.59769E-05 1.30475E-06-1.32349E-23
 -1       807 1.51198E-05 2.19806E-06-6.61744E-24
 -1       808 1.43404E-05 2.88007E-06-1.32349E-23
 -1       809 1.36235E-05 3.39061E-06 6.61744E-24
 -1       810 1.29554E-05 3.77009E-06-1.32349E-23
 -1       811 1.23211E-05 4.05873E-06 0.00000E+00
 -1       812 1.17056E-05 4.29683E-06 1.32349E-23
 -1       813 1.10939E-05 4.52469E-06 6.61744E-24
 -1       814 1.04709E-05 4.78264E-06 0.00000E+00
 -1       815 9.82157E-06 5.11095E-06 0.00000E+00
 -1       816 9.13082E-06 5.54984E-06-1.32349E-23
 -1       817 8.38379E-06 6.13948E-06-6.61744E-24
 -1       818 7.56562E-06 6.91992E-06 0.00000E+00
 -1       819 6.66270E-06 7.93134E-06 0.00000E+00
 -1       820 5.65984E-06 9.21328E-06 6.61744E-24
 -1       821 2.02616E-05 1.19148E-05-1.44757E-24
 -1       822 2.01117E-05 1.45909E-05 1.65436E-24
 -1       823 1.99603E-05 1.74762E-05 3.30872E-24
 -1       824 1.98073E-05 2.05458E-05-1.65436E-24
 -1       825 1.96535E-05 2.37753E-05 3.30872E-24
 -1       826 1.94991E-05 2.71399E-05 1.65436E-24
 -1       827 1.93443E-05 3.06147E-05 0.00000E+00
 -1       828 1.91892E-05 3.41751E-05 0.00000E+00
 -1       829 1.90338E-05 3.77960E-05 0.00000E+00
 -1       830 1.88783E-05 4.14527E-05 0.00000E+00
 -1       831 1.87229E-05 4.51202E-05-3.30872E-24
 -1       832 1.85677E-05 4.87738E-05 1.65436E-24
 -1       833 1.84128E-05 5.23885E-05 0.00000E+00
 -1       834 1.82588E-05 5.59396E-05 1.65436E-24
 -1       835 1.81059E-05 5.94020E-05 0.00000E+00
 -1       836 1.78327E-05 9.69140E-06 6.61744E-24
 -1       837 1.50725E-05 9.91786E-06 0.00000E+00
 -1       838 1.22426E-05 1.01444E-05 0.00000E+00
 -1       839 9.46550E-06 1.03705E-05 1.65436E-24
 -1       840 6.86390E-06 1.05960E-05-8.27181E-25
 -1       841 1.95252E-05 1.19214E-05 0.00000E+00
 -1       842 1.85623E-05 1.45967E-05 0.00000E+00
 -1       843 1.75227E-05 1.74749E-05 0.00000E+00
 -1       844 1.64152E-05 2.05320E-05 0.00000E+00
 -1       845 1.52489E-05 2.37445E-05 0.00000E+00
 -1       846 1.40328E-05 2.70886E-05 0.00000E+00
 -1       847 1.27758E-05 3.05404E-05 0.00000E+00
 -1       848 1.14870E-05 3.40762E-05 0.00000E+00
 -1       849 1.01754E-05 3.76725E-05 1.65436E-24
 -1       850 8.84982E-06 4.13052E-05 0.00000E+00
 -1       851 7.51933E-06 4.49509E-05 0.00000E+00
 -1       852 6.19289E-06 4.85857E-05 0.00000E+00
 -1       853 4.87934E-06 5.21858E-05-8.27181E-25
 -1       854 3.58731E-06 5.57275E-05-2.06795E-25
 -1       855 2.32588E-06 5.91870E-05 1.65436E-24
 -1       856 1.79006E-05 6.60733E-05 2.06795E-25
 -1       857 1.78381E-05 6.94852E-05 8.27181E-25
 -1       858 1.77750E-05 7.29745E-05 0.00000E+00
 -1       859 1.77115E-05 7.65278E-05 8.27181E-25
 -1       860 1.76476E-05 8.01319E-05 0.00000E+00
 -1       861 1.75836E-05 8.37734E-05-8.27181E-25
 -1       862 1.75195E-05 8.74390E-05 1.65436E-24
 -1       863 1.74553E-05 9.11154E-05 8.27181E-25
 -1       864 1.73912E-05 9.47893E-05-1.65436E-24
 -1       865 1.73271E-05 9.84474E-05 8.27181E-25
 -1       866 1.72631E-05 1.02076E-04 1.65436E-24
 -1       867 1.71992E-05 1.05663E-04 0.00000E+00
 -1       868 1.71356E-05 1.09193E-04 1.65436E-24
 -1       869 1.70724E-05 1.12655E-04-8.27181E-25
 -1       870 1.70096E-05 1.16034E-04 0.00000E+00
 -1       871 1.49788E-05 6.27180E-05 0.00000E+00
 -1       872 1.22028E-05 6.26833E-05 0.00000E+00
 -1       873 9.52998E-06 6.26487E-05-8.27181E-25
 -1       874 6.85699E-06 6.26136E-05 4.13590E-25
 -1       875 4.08067E-06 6.25778E-05 2.06795E-25
 -1       876 1.68262E-05 6.60954E-05-3.30872E-24
 -1       877 1.56717E-05 6.95087E-05 0.00000E+00
 -1       878 1.44955E-05 7.29802E-05-3.30872E-24
 -1       879 1.33015E-05 7.65004E-05 0.00000E+00
 -1       880 1.20930E-05 8.00594E-05 3.30872E-24
 -1       881 1.08735E-05 8.36474E-05-1.65436E-24
 -1       882 9.64679E-06 8.72548E-05 0.00000E+00
 -1       883 8.41642E-06 9.08719E-05 0.00000E+00
 -1       884 7.18601E-06 9.44890E-05-3.30872E-24
 -1       885 5.95927E-06 9.80964E-05 0.00000E+00
 -1       886 4.73980E-06 1.01685E-04-3.30872E-24
 -1       887 3.53124E-06 1.05243E-04 1.65436E-24
 -1       888 2.33714E-06 1.08764E-04 0.00000E+00
 -1       889 1.16075E-06 1.12235E-04 8.27181E-25
 -1       890 5.87911E-09 1.15648E-04 0.00000E+00
 -1       891 1.38623E-05 1.19264E-04 0.00000E+00
 -1       892 1.08773E-05 1.19209E-04-8.27181E-25
 -1       893 7.93981E-06 1.19155E-04 0.00000E+00
 -1       894 4.99556E-06 1.19100E-04 4.13590E-25
 -1       895 1.99036E-06 1.19045E-04 0.00000E+00
 -1       896 2.67630E-07 9.08327E-07 6.61744E-24
 -1       897 5.37001E-07 1.59180E-06-3.30872E-24
 -1       898 8.06648E-07 2.07610E-06 0.00000E+00
 -1       899 1.07654E-06 2.38763E-06 3.30872E-24
 -1       900 1.34652E-06 2.55268E-06 0.00000E+00
 -1       901 1.61656E-06 2.59749E-06 3.30872E-24
 -1       902 1.88661E-06 2.54823E-06 0.00000E+00
 -1       903 2.15664E-06 2.43104E-06 3.30872E-24
 -1       904 2.42666E-06 2.27201E-06 6.61744E-24
 -1       905 2.69663E-06 2.09721E-06 0.00000E+00
 -1       906 2.96652E-06 1.93271E-06-6.61744E-24
 -1       907 3.23621E-06 1.80456E-06-3.30872E-24
 -1       908 3.50558E-06 1.73887E-06-6.61744E-24
 -1       909 3.77391E-06 1.76171E-06 0.00000E+00
 -1       910 4.04132E-06 1.89926E-06-6.61744E-24
 -1       911 4.35645E-06 2.46591E-06 8.27181E-25
 -1       912 4.41361E-06 2.61624E-06 0.00000E+00
 -1       913 4.47079E-06 2.64729E-06 0.00000E+00
 -1       914 4.52797E-06 2.57872E-06 4.13590E-25
 -1       915 4.58514E-06 2.43010E-06-1.65436E-24
 -1       916 4.64230E-06 2.22105E-06 8.27181E-25
 -1       917 4.69945E-06 1.97119E-06-1.65436E-24
 -1       918 4.75658E-06 1.70010E-06-8.27181E-25
 -1       919 4.81370E-06 1.42740E-06 0.00000E+00
 -1       920 4.87078E-06 1.17269E-06-8.27181E-25
 -1       921 4.92779E-06 9.55556E-07-1.65436E-24
 -1       922 4.98465E-06 7.95616E-07 0.00000E+00
 -1       923 5.04123E-06 7.12480E-07 0.00000E+00
 -1       924 5.09694E-06 7.25743E-07 0.00000E+00
 -1       925 5.15186E-06 8.55038E-07-1.80946E-25
 -1       926 4.88376E-06 1.31174E-06 0.00000E+00
 -1       927 4.55978E-06 1.28333E-06 0.00000E+00
 -1       928 4.23494E-06 1.07315E-06 0.00000E+00
 -1       929 3.90907E-06 7.21103E-07 0.00000E+00
 -1       930 3.58286E-06 2.67144E-07 0.00000E+00
 -1       931 3.25643E-06-2.48649E-07 6.61744E-24
 -1       932 2.92992E-06-7.86187E-07-1.32349E-23
 -1       933 2.60338E-06-1.30534E-06-6.61744E-24
 -1       934 2.27685E-06-1.76600E-06-1.32349E-23
 -1       935 1.95037E-06-2.12811E-06 0.00000E+00
 -1       936 1.62396E-06-2.35164E-06 0.00000E+00
 -1       937 1.29767E-06-2.39670E-06 0.00000E+00
 -1       938 9.71525E-07-2.22347E-06 6.61744E-24
 -1       939 6.45861E-07-1.79237E-06-3.30872E-24
 -1       940 3.20514E-07-1.06388E-06 6.61744E-24
 -1       941 2.60949E-07 1.09897E-06-8.27181E-25
 -1       942 5.44047E-07 1.94348E-06 3.30872E-24
 -1       943 8.29449E-07 2.57539E-06 0.00000E+00
 -1       944 1.11738E-06 3.03740E-06 0.00000E+00
 -1       945 1.40612E-06 3.37206E-06 0.00000E+00
 -1       946 1.69537E-06 3.62191E-06 0.00000E+00
 -1       947 1.98481E-06 3.82946E-06-6.61744E-24
 -1       948 2.27435E-06 4.03715E-06-3.30872E-24
 -1       949 2.56389E-06 4.28747E-06 0.00000E+00
 -1       950 2.85335E-06 4.62290E-06 0.00000E+00
 -1       951 3.14263E-06 5.08598E-06 0.00000E+00
 -1       952 3.43149E-06 5.71933E-06 0.00000E+00
 -1       953 3.71966E-06 6.56564E-06-1.32349E-23
 -1       954 4.00590E-06 7.66769E-06 3.30872E-24
 -1       955 4.29030E-06 9.06847E-06 0.00000E+00
 -1       956 4.35321E-06 1.29635E-05 1.65436E-24
 -1       957 4.13978E-06 1.53869E-05 3.30872E-24
 -1       958 3.92495E-06 1.80542E-05 3.30872E-24
 -1       959 3.70880E-06 2.09383E-05 0.00000E+00
 -1       960 3.49187E-06 2.40121E-05 0.00000E+00
 -1       961 3.27431E-06 2.72486E-05 0.00000E+00
 -1       962 3.05627E-06 3.06203E-05 0.00000E+00
 -1       963 2.83785E-06 3.41000E-05 0.00000E+00
 -1       964 2.61916E-06 3.76603E-05 0.00000E+00
 -1       965 2.40030E-06 4.12738E-05 0.00000E+00
 -1       966 2.18141E-06 4.49132E-05 0.00000E+00
 -1       967 1.96263E-06 4.85510E-05-3.30872E-24
 -1       968 1.74416E-06 5.21597E-05 6.61744E-24
 -1       969 1.52647E-06 5.57122E-05 0.00000E+00
 -1       970 1.30971E-06 5.91809E-05 0.00000E+00
 -1       971 9.62142E-07 6.58563E-05 0.00000E+00
 -1       972 8.23055E-07 6.92577E-05 0.00000E+00
 -1       973 6.83527E-07 7.27317E-05 3.30872E-24
 -1       974 5.43563E-07 7.62661E-05 0.00000E+00
 -1       975 4.03363E-07 7.98489E-05 0.00000E+00
 -1       976 2.62995E-07 8.34680E-05-1.65436E-24
 -1       977 1.22527E-07 8.71112E-05 3.30872E-24
 -1       978-1.79887E-08 9.07666E-05 0.00000E+00
 -1       979-1.58496E-07 9.44219E-05 0.00000E+00
 -1       980-2.98940E-07 9.80651E-05-1.65436E-24
 -1       981-4.39257E-07 1.01684E-04 0.00000E+00
 -1       982-5.79343E-07 1.05266E-04 0.00000E+00
 -1       983-7.19095E-07 1.08801E-04 0.00000E+00
 -1       984-8.58100E-07 1.12274E-04 0.00000E+00
 -1       985-9.96387E-07 1.15675E-04-3.30872E-24
 -3
    1PSTEP                         2           1           1          
  100CL  101 1.000000000         841                     0    1           1
 -4  STRESS      6    1
 -5  SXX         1    4    1    1
 -5  SYY         1    4    2    2
 -5  SZZ         1    4    3    3
 -5  SXY         1    4    1    2
 -5  SYZ         1    4    2    3
 -5  SZX         1    4    3    1
 -1         1-1.32825E+06-4.35406E+05-1.05742E+04-6.01132E+05 1.33393E-10 2.97587E-09
 -1         2-7.67997E+05 2.91616E+04 1.26869E+03-1.55306E+05-7.70797E-11 4.87216E-09
 -1         3-2.32778E+05-8.04353E+03 5.30591E+02-6.70311E+04-3.84262E-11-3.88854E-09
 -1         4-2.40515E+04 1.49354E+04 1.22499E+02-1.31784E+04 3.56124E-11-2.74463E-09
 -1         5 8.32278E+04 7.48827E+05-8.93894E+03-1.38010E+04 6.40284E-10 1.01738E-09
 -1         8-1.50629E+05-2.69948E+05 2.95795E+03-4.52614E+05 8.73115E-11 1.93177E-09
 -1         9-4.70404E+05-2.94393E+04-1.20203E+03-3.83988E+05-4.88096E-10 2.64845E-09
 -1        10-2.49810E+05-4.06459E+04 8.31901E+02-2.16864E+05-1.02788E-09-4.54141E-10
 -1        11-1.42310E+04-8.75588E+03 2.05402E+02-9.59385E+04 4.57703E-10-2.78093E-09
 -1        12 1.18865E+05 7.59654E+05-7.72735E+03 4.08709E+04 5.33873E-10 2.53122E-11
 -1        15 1.37385E+04 1.98644E+04 7.44154E+02-1.68613E+05-1.25510E-10-1.28603E-09
 -1        16-1.68316E+05-3.92209E+04-6.66379E+02-3.46425E+05-5.39330E-10 9.59214E-10
 -1        17-2.04785E+05-6.74925E+04 4.61988E+03-3.49373E+05-3.11654E-10 8.36735E-10
 -1        18-3.96075E+04-5.25682E+04-4.73837E+01-2.53017E+05-1.04289E-09 1.12777E-10
 -1        19 3.05197E+05 4.43405E+05-2.24064E+03 3.61344E+04-1.00924E-09-1.02227E-09
 -1        20 1.15068E+05-4.53428E+04-2.08441E+03 7.24511E+04 1.27432E-08-1.49566E-09
 -1        21-1.00115E+04-1.12161E+05-4.60501E+02 1.05548E+04 5.45051E-08 4.69456E-10
 -1        22 3.46511E+04 1.85311E+05 4.20867E+02-1.16854E+05 1.13687E-10-7.22139E-10
 -1        23-1.13416E+05 1.33575E+03 5.47353E+02-2.16393E+05 3.71377E-11-2.35559E-10
 -1        24-3.05744E+05-4.81182E+04 6.63062E+03-3.44921E+05 4.41408E-10 4.34132E-10
 -1        25-1.55977E+05-8.10161E+04 9.17538E+03-3.54716E+05-1.17416E-09 4.03816E-10
 -1        26-4.01634E+04 2.37367E+05 2.04955E+03-1.10579E+05-1.46838E-09-1.71470E-09
 -1        27 2.50101E+04-2.45570E+04-2.84379E+03 1.20604E+05 2.76880E-09-1.26844E-09
 -1        28-2.10327E+02-7.95354E+04-4.02976E+02 4.86113E+04 1.80171E-08-2.08386E-09
 -1        29 3.75921E+05 2.99992E+05 8.77213E+02-9.38613E+04 1.96110E-11-6.12999E-10
 -1        30 1.33174E+05 3.30376E+04 5.41314E+02-1.08290E+05 3.01213E-10-1.36424E-10
 -1        31-3.60335E+05 1.39152E+04 9.86742E+02-1.66957E+05-4.14737E-10-1.07320E-10
 -1        32-4.46181E+05-9.85639E+04 1.00764E+04-3.42854E+05-4.16389E-09 1.75260E-09
 -1        33-1.81151E+05 8.64000E+04 1.15638E+04-1.59513E+05 1.54370E-09 1.24930E-09
 -1        34-2.18458E+05-2.28812E+04 1.02837E+03 7.92267E+04-6.94720E-09-5.30378E-09
 -1        35-3.65161E+04-2.85746E+04-3.20347E+02 6.91289E+04 2.03660E-08-8.65839E-10
 -1        36-1.82296E+06-1.38834E+03-9.97918E+03-9.97352E-09 2.87215E-10-3.88718E-09
 -1        37-1.82534E+06-1.37568E+03-5.51474E+03 4.28429E-09-3.94682E-10 5.69332E-09
 -1        38-1.82409E+06-1.49412E+01-2.46864E+03-1.20091E-08 5.47615E-10-2.51396E-09
 -1        39-1.82413E+06-4.89149E+01-1.30990E+03 2.37367E-09 1.73263E-09-4.52923E-09
 -1        40-1.82417E+06 1.31816E+01-7.04635E+02-8.18630E-09-3.10994E-10 2.56961E-10
 -1        41-1.82404E+06 3.09884E+00-5.09637E+02-1.08224E-08 1.18171E-10 2.67370E-10
 -1        42-1.82417E+06 1.25433E+01-5.47226E+02-8.20808E-09 3.13752E-10-6.57839E-09
 -1        43-1.82406E+06 9.01338E+00-8.86456E+02 7.13668E-09 1.20614E-10 2.02158E-09
 -1        44-1.82415E+06 3.65271E+01-1.63306E+03-1.14181E-08-1.82704E-09-4.37694E-11
 -1        45-1.82419E+06 8.41839E+00-3.28653E+03-3.86529E-09-1.56314E-09-2.02721E-09
 -1        46-1.82405E+06 1.15577E+02-6.43074E+03-4.88440E-09 7.92063E-10-1.01272E-09
 -1        47-1.82513E+06-5.24435E+02-1.33543E+04-4.44601E-09 1.86300E-09-2.91948E-10
 -1        48-1.82323E+06-1.64108E+02-2.58985E+04 3.78179E-10 5.38261E-10-1.86355E-09
 -1        49-1.83803E+06-1.45766E+04-5.83011E+04 9.71977E-09 4.13047E-10-3.39332E-09
 -1        50-1.81121E+06-1.46989E+04-1.05640E+05-7.76708E-10-1.41980E-09 2.25918E-09
 -1        51 1.69622E+04-7.63418E+05 9.16737E+04-7.09587E+05-1.60071E-10 4.27826E-09
 -1        52 1.75219E+04-7.46236E+05 4.77780E+04-9.84840E+05-1.52795E-10-4.68572E-09
 -1        53 5.28281E+03-7.62052E+05 1.52212E+04-7.07129E+05-2.76486E-10 1.84809E-09
 -1        54 5.07990E+03-7.67614E+05-5.48423E+03-9.86162E+05-2.83762E-10 3.52486E-09
 -1        55-1.18378E+03-7.57750E+05-2.74462E+04-7.08203E+05 2.72848E-11 1.47702E-09
 -1        56-2.34373E+06-3.43386E+05-8.95324E+04-8.83779E+05 1.09139E-10 5.80621E-09
 -1        57-2.36350E+06-3.53863E+05-4.85056E+04-8.93751E+05 2.31103E-09 4.77121E-09
 -1        58-2.35253E+06-3.37049E+05-2.01782E+04-8.90428E+05 4.69754E-10 7.58519E-10
 -1        59-2.35121E+06-3.40588E+05-1.00832E+04-8.94089E+05 1.14233E-09-2.13709E-09
 -1        60-2.35317E+06-3.37059E+05-4.67667E+03-8.90751E+05-5.15229E-10-1.58271E-09
 -1        61-2.35041E+06-3.39929E+05-2.48112E+03-8.93919E+05-1.45883E-09-2.49111E-09
 -1        62-2.35321E+06-3.37148E+05-1.56120E+03-8.90794E+05 5.26143E-10 3.44016E-10
 -1        63-2.35042E+06-3.39840E+05-1.63778E+03-8.93819E+05-5.53882E-10-8.32767E-09
 -1        64-2.35315E+06-3.37168E+05-2.57157E+03-8.90834E+05-1.93268E-10-5.14865E-09
 -1        65-2.35070E+06-3.39816E+05-5.15369E+03-8.93784E+05 1.34150E-11 8.24684E-10
 -1        66-2.35290E+06-3.37077E+05-1.03771E+04-8.90857E+05-3.44698E-10-1.79625E-09
 -1        67-2.35272E+06-3.41092E+05-2.27391E+04-8.93900E+05-4.40878E-10-4.38422E-09
 -1        68-2.35132E+06-3.37174E+05-4.56662E+04-8.90240E+05-7.63919E-10-1.90266E-09
 -1        69-2.38084E+06-3.70876E+05-1.09866E+05-8.92780E+05-1.97360E-10 1.54614E-10
 -1        70-2.33118E+06-3.51658E+05-2.02749E+05-8.75331E+05-1.35333E-09 2.53931E-09
 -1        71-5.73192E+05 2.39607E+03 1.71722E+04-1.25069E-08 2.50324E-10 2.25828E-09
 -1        72-5.68755E+05 2.36639E+03 9.47140E+03-9.23092E-09-1.18344E-09 9.02446E-10
 -1        73-5.71237E+05 2.70049E+01 4.20364E+03-6.55683E-09-5.97334E-11-3.88809E-11
 -1        74-5.70850E+05 8.52277E+01 2.15599E+03 1.05367E-08 7.71221E-10-2.47920E-09
 -1        75-5.71102E+05-1.80674E+01 1.01483E+03 2.02595E-09 3.94933E-10 6.65295E-10
 -1        76-5.71004E+05-6.47655E-01 4.70560E+02-3.33901E-09-2.84581E-11 3.39514E-09
 -1        77-5.71083E+05-3.01354E+00 1.39122E+02 1.43438E-09-5.45260E-10 1.70927E-09
 -1        78-5.71034E+05 1.16571E+00-1.14435E+02-4.43457E-09 5.17175E-10 1.99697E-09
 -1        79-5.71073E+05 9.34676E+00-4.20532E+02-8.31050E-09 2.65664E-10 1.79284E-09
 -1        80-5.71079E+05 2.15277E+00-9.60315E+02 1.25111E-08-7.45997E-11 8.45915E-09
 -1        81-5.71039E+05 3.46717E+01-1.93507E+03-2.28733E-09-8.95104E-11 5.84123E-10
 -1        82-5.71364E+05-1.58924E+02-4.04639E+03 9.92762E-09-1.07252E-10-3.59552E-09
 -1        83-5.70789E+05-5.01792E+01-7.85955E+03-7.27334E-09-7.18032E-10 5.27507E-10
 -1        84-5.75275E+05-4.41912E+03-1.76918E+04-6.12795E-09 6.23591E-10 2.96859E-09
 -1        85-5.67134E+05-4.47276E+03-3.20643E+04-3.83534E-09-5.34890E-10 1.10231E-09
 -1        86 1.73829E+04 5.29040E+05 1.30770E+05-1.87969E+05 1.45519E-11-2.65209E-09
 -1        87 1.83685E+04 5.61910E+05 8.16059E+04-2.74096E+05 3.22871E-11-1.68802E-09
 -1        88 8.08987E+02 5.41762E+05 5.51478E+04-1.87315E+05-1.80989E-10-1.65346E-09
 -1        89 1.55072E+04 5.58159E+05 7.10976E+04-2.74478E+05 2.43745E-10-3.35831E-10
 -1        90 1.46679E+04 5.31048E+05 1.07628E+05-1.87542E+05-2.51021E-10-2.21462E-10
 -1        91-9.64922E+05-1.45054E+05-3.37224E+04-3.69214E+05 7.44876E-10 2.74667E-10
 -1        92-9.70419E+05-1.50922E+05-1.82677E+04-3.75206E+05 1.26573E-09 2.63299E-09
 -1        93-9.68272E+05-1.42629E+05-7.60470E+03-3.71698E+05 5.88784E-10 3.93584E-09
 -1        94-9.65766E+05-1.45963E+05-3.80085E+03-3.75372E+05-4.99767E-10 1.05273E-09
 -1        95-9.68524E+05-1.42624E+05-1.76327E+03-3.71812E+05 9.53605E-10 1.37305E-09
 -1        96-9.65453E+05-1.45730E+05-9.35041E+02-3.75324E+05-5.26597E-10 2.91789E-09
 -1        97-9.68545E+05-1.42651E+05-5.86378E+02-3.71821E+05 1.93495E-10 2.29670E-09
 -1        98-9.65442E+05-1.45708E+05-6.12746E+02-3.75298E+05 5.76620E-10-1.68325E-09
 -1        99-9.68524E+05-1.42656E+05-9.58980E+02-3.71829E+05-5.17048E-10 2.13186E-09
 -1       100-9.65534E+05-1.45709E+05-1.91858E+03-3.75293E+05-3.12184E-10-2.80556E-09
 -1       101-9.68431E+05-1.42620E+05-3.86162E+03-3.71830E+05-1.04137E-09-2.83035E-09
 -1       102-9.66271E+05-1.46191E+05-8.45571E+03-3.75339E+05 2.29193E-10-7.25777E-10
 -1       103-9.67836E+05-1.42657E+05-1.69768E+04-3.71594E+05 1.05001E-09-3.48064E-09
 -1       104-9.76730E+05-1.57203E+05-4.08105E+04-3.74875E+05 1.83888E-09 1.37152E-09
 -1       105-9.60298E+05-1.48119E+05-7.53394E+04-3.66086E+05-2.17005E-09-1.77170E-09
 -1       106-8.05159E+04 2.25976E+03 1.61837E+04 1.21099E-09-5.13600E-11-1.20144E-09
 -1       107-7.63740E+04 2.22926E+03 8.92872E+03 1.69166E-10 4.63934E-10 2.91084E-09
 -1       108-7.86707E+04 2.53816E+01 3.96780E+03-1.02118E-08 4.89157E-10 3.60251E-09
 -1       109-7.83468E+04 8.01214E+01 2.04358E+03 1.61057E-09-9.55148E-11-3.38457E-09
 -1       110-7.85440E+04-1.75460E+01 9.78814E+02-8.19638E-09 4.04517E-10-2.71854E-09
 -1       111-7.84906E+04-1.13721E+00 4.88606E+02-1.68848E-09-7.65478E-10 7.00624E-10
 -1       112-7.85271E+04-4.88850E+00 2.19659E+02-3.56301E-09-2.93211E-10 4.46916E-09
 -1       113-7.85125E+04-7.40671E-01 7.26743E+01 1.32972E-08 4.18901E-10 8.82297E-09
 -1       114-7.85221E+04 8.67203E-01-4.09538E+01-5.99905E-09-3.88062E-11 1.67709E-09
 -1       115-7.85252E+04 1.77246E-01-1.77647E+02-4.37221E-09 3.14264E-10-2.16547E-09
 -1       116-7.85144E+04 7.00659E+00-3.94604E+02-1.20744E-08 2.00015E-10-2.95967E-09
 -1       117-7.85859E+04-3.34021E+01-8.43677E+02-7.81064E-10-1.61429E-10-7.17584E-09
 -1       118-7.84615E+04-1.06241E+01-1.64729E+03-1.03459E-08-8.72575E-10 2.51305E-10
 -1       119-7.94067E+04-9.27280E+02-3.71240E+03-1.47856E-08 9.45631E-10 2.97058E-09
 -1       120-7.76937E+04-9.39783E+02-6.73045E+03-9.98762E-09 4.33575E-10 1.46701E-09
 -1       121 4.60493E+03 9.60023E+04 3.53524E+04-9.22534E+04 2.14641E-10-1.15688E-09
 -1       122 4.94082E+03 1.04902E+05 2.31151E+04-1.34598E+05 3.85853E-10-6.48561E-09
 -1       123 2.26140E+02 9.92971E+04 1.74917E+04-9.19089E+04 5.95719E-10 3.56522E-10
 -1       124 5.72983E+03 1.05304E+05 2.53273E+04-1.34839E+05 3.56522E-10 2.90856E-09
 -1       125 5.53340E+03 9.50965E+04 4.02794E+04-9.20035E+04 6.29370E-10-1.60048E-09
 -1       126-3.57640E+05-5.82141E+04-1.59533E+04-1.42251E+05 7.49651E-10-1.61435E-09
 -1       127-3.58632E+05-6.26036E+04-8.64161E+03-1.46945E+05-7.75344E-11-5.73436E-10
 -1       128-3.59245E+05-5.70465E+04-3.59884E+03-1.43410E+05-1.29137E-09 2.21462E-09
 -1       129-3.56416E+05-6.02775E+04-1.79892E+03-1.47047E+05-9.51474E-10-1.06022E-09
 -1       130-3.59367E+05-5.70419E+04-8.34959E+02-1.43462E+05 4.30958E-10 3.67959E-09
 -1       131-3.56265E+05-6.01706E+04-4.43302E+02-1.47028E+05 2.34479E-10 1.91631E-09
 -1       132-3.59378E+05-5.70534E+04-2.79135E+02-1.43464E+05 1.63709E-11-6.43013E-10
 -1       133-3.56255E+05-6.01648E+04-2.93496E+02-1.47019E+05 1.28284E-09 4.66571E-10
 -1       134-3.59369E+05-5.70539E+04-4.60545E+02-1.43465E+05-9.06539E-10-1.57729E-09
 -1       135-3.56293E+05-6.01699E+04-9.22513E+02-1.47020E+05-6.37328E-10-2.08718E-09
 -1       136-3.59324E+05-5.70366E+04-1.85714E+03-1.43462E+05 3.52429E-10-3.44721E-09
 -1       137-3.56639E+05-6.04052E+04-4.06446E+03-1.47043E+05 3.65389E-10 1.33059E-09
 -1       138-3.59036E+05-5.70550E+04-8.16070E+03-1.43345E+05-9.54969E-11 1.50021E-09
 -1       139-3.61685E+05-6.56690E+04-1.96094E+04-1.46786E+05 1.62777E-09 3.22143E-09
 -1       140-3.55377E+05-5.97161E+04-3.62034E+04-1.40725E+05 3.85398E-10-2.29193E-09
 -1       141-2.42886E+04-2.00575E+02-1.44096E+03-1.08858E-08-4.04707E-10-1.95121E-09
 -1       142-2.46542E+04-1.97844E+02-8.02777E+02 3.87675E-09 5.52445E-10 1.13340E-09
 -1       143-2.44523E+04-1.77824E+00-3.72759E+02-1.86357E-09 1.76472E-12 3.84100E-09
 -1       144-2.44805E+04-6.61730E+00-2.23583E+02 5.56225E-09 1.32097E-10 5.06733E-09
 -1       145-2.44624E+04 3.49420E+00-1.70101E+02-9.39355E-09-4.47942E-10-5.54634E-10
 -1       146-2.44734E+04 2.06533E+00-2.13197E+02 2.40644E-09 2.80239E-10-2.16668E-09
 -1       147-2.44593E+04 8.17378E+00-3.54056E+02 3.16242E-09-8.40966E-11-3.61823E-09
 -1       148-2.44952E+04 7.02632E+00-6.89330E+02 1.09912E-08-3.29250E-10-1.93882E-09
 -1       149-2.44406E+04 2.99705E+01-1.34097E+03-4.00922E-09 5.37218E-10-2.18989E-09
 -1       150-2.46045E+04 7.04586E+00-2.73620E+03-4.06279E-09 3.91664E-10-1.97724E-09
 -1       151-2.43499E+04 9.64789E+01-5.37088E+03-1.42318E-08-8.16393E-10-2.70097E-09
 -1       152-2.53857E+04-4.36475E+02-1.11568E+04-9.80208E-10 1.50564E-10-3.47609E-09
 -1       153-2.36591E+04-1.38037E+02-2.16338E+04-2.13369E-09 2.68055E-10-4.60204E-10
 -1       154-3.61365E+04-1.21504E+04-4.86686E+04 2.40379E-09-3.82184E-10-1.90812E-09
 -1       155-1.35873E+04-1.23078E+04-8.81773E+04-1.37115E-08 4.44142E-10 3.20142E-09
 -1       156 1.15873E+03 7.64237E+04 8.97301E+03-3.63631E+04-3.05590E-10 1.18689E-09
 -1       157 1.23959E+03 7.86910E+04 5.87993E+03-5.29536E+04-3.36513E-11-3.15822E-09
 -1       158 4.53317E+01 7.72629E+04 4.47053E+03-3.61875E+04-2.25555E-10 9.23137E-10
 -1       159 1.46360E+03 7.88026E+04 6.50527E+03-5.31308E+04-4.83396E-10 1.49635E-09
 -1       160 1.42283E+03 7.61652E+04 1.03658E+04-3.61842E+04-1.40062E-10-3.71983E-10
 -1       161-1.23358E+04 7.44662E+02-1.70189E+02-1.29117E+03-4.49063E-10 9.97716E-10
 -1       162-1.34852E+04 1.83897E+03-9.63258E+01-3.49897E+01 9.24501E-10-7.63407E-11
 -1       163-1.23235E+04 7.28127E+02-4.95063E+01-1.33858E+03 3.82215E-10 1.50749E-10
 -1       164-1.34958E+04 1.89568E+03-4.36361E+01-1.60088E+00 1.07957E-09 3.15475E-09
 -1       165-1.23249E+04 7.27702E+02-6.00094E+01-1.34176E+03 1.03546E-09 3.24007E-09
 -1       166-1.35011E+04 1.89965E+03-1.13389E+02-2.21868E+00 1.18951E-09 1.21179E-09
 -1       167-1.23211E+04 7.32443E+02-2.26712E+02-1.34286E+03-4.75438E-09-4.30123E-09
 -1       168-1.35205E+04 1.90022E+03-4.83262E+02-1.03278E+01-2.56705E-10 3.64352E-09
 -1       169-1.23051E+04 7.49856E+02-9.91533E+02-1.34340E+03 5.76506E-10-1.04978E-09
 -1       170-1.36176E+04 1.87740E+03-2.13661E+03-4.28769E+01-1.28273E-09-4.09540E-09
 -1       171-1.22184E+04 8.11922E+02-4.37301E+03-1.33262E+03-3.91388E-10-1.73600E-09
 -1       172-1.44292E+04 1.29926E+03-9.61376E+03-1.45271E+02 1.10782E-09 7.98423E-10
 -1       173-1.15691E+04 7.97827E+02-1.93141E+04-1.04239E+03 1.43245E-10 9.94078E-10
 -1       174-2.62013E+04-1.13416E+04-4.64232E+04 2.24966E+02 6.70298E-10-4.69890E-09
 -1       175-3.08148E+03-5.32244E+03-8.56896E+04 5.34839E+03 6.18456E-11 3.86353E-09
 -1       191 1.58883E+04 1.69935E+06 8.57111E+04-2.00957E+04-4.14730E-10 9.09495E-12
 -1       192 1.09453E+04 1.71999E+06 5.36070E+04-2.76619E+04-1.23691E-10-1.28398E-09
 -1       193 4.81782E+02 1.70769E+06 3.83320E+04-2.00086E+04-9.52468E-10-2.82535E-09
 -1       194 1.04557E+04 1.71951E+06 5.19160E+04-2.77508E+04-4.46562E-10 4.94992E-10
 -1       195 1.51282E+04 1.69979E+06 8.19018E+04-1.99970E+04-8.07631E-10-1.72167E-09
 -1       251 6.57519E+05 1.39716E+04 1.08247E+05-9.72240E+04 8.00355E-11 1.03682E-10
 -1       252 6.85477E+05 1.40363E+04 5.98266E+04-1.41136E+05-6.54836E-11 3.68891E-09
 -1       253 6.69155E+05-4.82743E+02 2.65148E+04-9.64455E+04-5.09317E-11-7.23958E-10
 -1       254 6.71222E+05 1.40398E+02 1.37620E+04-1.41792E+05 1.45519E-11-3.64162E-09
 -1       255 6.69437E+05-3.51772E+02 6.66411E+03-9.64821E+04 1.74623E-10-2.96677E-09
 -1       256 6.69583E+05-3.65777E+01 3.58643E+03-1.41719E+05 3.01952E-10 2.17369E-10
 -1       257 6.69191E+05-1.59632E+01 2.06922E+03-9.65234E+04-1.89175E-10 3.01952E-10
 -1       258 6.69117E+05 1.53801E+02 1.72854E+03-1.41660E+05 4.32010E-11-1.63709E-09
 -1       259 6.69053E+05 8.37023E+01 2.15041E+03-9.65418E+04-1.93722E-10-1.34060E-09
 -1       260 6.69187E+05 1.82818E+02 3.76204E+03-1.41651E+05 4.93856E-10-7.53971E-10
 -1       261 6.69020E+05-5.38783E+01 7.05234E+03-9.65321E+04 9.69521E-10-4.61114E-10
 -1       262 6.70466E+05 6.08218E+02 1.44928E+04-1.41666E+05-7.02130E-10 1.21690E-09
 -1       263 6.68419E+05 3.43589E+01 2.79760E+04-9.65244E+04-7.16682E-10 9.44056E-10
 -1       264 6.84976E+05 1.54481E+04 6.29478E+04-1.41165E+05-1.67347E-10 2.08502E-09
 -1       265 6.55889E+05 1.54560E+04 1.13988E+05-9.70770E+04-4.62023E-10-6.62112E-10
 -1       266 5.41966E+03-9.99608E+04 3.31976E+04-1.24343E+05-2.36469E-11 2.68051E-09
 -1       267 5.57903E+03-9.16865E+04 1.71423E+04-1.82622E+05-3.81988E-11 6.32099E-11
 -1       268 5.71960E+02-9.58001E+04 5.19794E+03-1.24313E+05 9.82254E-11 1.26784E-09
 -1       269-8.18014E+02-9.67001E+04-2.68855E+03-1.82134E+05-4.18368E-11 2.82307E-09
 -1       270-1.59357E+03-9.35972E+04-1.07523E+04-1.24865E+05-1.74623E-10 2.29920E-09
 -1       271-1.27105E+06-2.45161E+05-1.00108E+05-5.48687E+05-5.49335E-10-4.00178E-10
 -1       272-1.27106E+06-2.78485E+05-5.41511E+04-5.84907E+05 4.82032E-10 9.14952E-10
 -1       273-1.28186E+06-2.37218E+05-2.26171E+04-5.55781E+05-8.18545E-10-2.94676E-10
 -1       274-1.25721E+06-2.64239E+05-1.12407E+04-5.86548E+05 5.14774E-10 7.45786E-10
 -1       275-1.28306E+06-2.36850E+05-5.20512E+03-5.56195E+05 3.05590E-10 1.91494E-09
 -1       276-1.25648E+06-2.63597E+05-2.63623E+03-5.86931E+05 4.32556E-09 4.30703E-09
 -1       277-1.28343E+06-2.36702E+05-1.47665E+03-5.56270E+05 1.67347E-09-2.56875E-10
 -1       278-1.25653E+06-2.63578E+05-1.23209E+03-5.87166E+05 6.36192E-10 6.86214E-10
 -1       279-1.28353E+06-2.36612E+05-1.65343E+03-5.56296E+05-7.99446E-10-2.22371E-10
 -1       280-1.25666E+06-2.63612E+05-3.13636E+03-5.87237E+05-2.81091E-10-1.99179E-10
 -1       281-1.28336E+06-2.36572E+05-6.24177E+03-5.56268E+05-1.97360E-10-1.31058E-09
 -1       282-1.25774E+06-2.64412E+05-1.36274E+04-5.87178E+05-4.43833E-10-1.13323E-09
 -1       283-1.28221E+06-2.36781E+05-2.73786E+04-5.55829E+05-1.76442E-10-2.54659E-10
 -1       284-1.27455E+06-2.81979E+05-6.57602E+04-5.85869E+05-3.55612E-10 1.64982E-09
 -1       285-1.26956E+06-2.45990E+05-1.21458E+05-5.47061E+05-8.92214E-10 1.47702E-09
 -1       286 3.27097E+04 7.03193E+03 5.23212E+04-5.25862E+04 9.65883E-10 4.16549E-10
 -1       287 4.61460E+04 7.02000E+03 2.88949E+04-7.62122E+04 7.38510E-10 2.57205E-09
 -1       288 3.84828E+04-5.62376E+01 1.28251E+04-5.21741E+04-1.63709E-10-1.66892E-09
 -1       289 3.94870E+04 1.97910E+02 6.63731E+03-7.66222E+04-1.09139E-11-1.30603E-09
 -1       290 3.87445E+04-8.63628E+01 3.20914E+03-5.21574E+04 1.58252E-10 3.36149E-09
 -1       291 3.88514E+04 2.76883E+01 1.68820E+03-7.66392E+04 6.28461E-10-1.62800E-09
 -1       292 3.87116E+04 1.41505E+01 9.17257E+02-5.21581E+04 8.21728E-10-8.31278E-10
 -1       293 3.87157E+04 6.89400E+01 6.59461E+02-7.66386E+04 7.21229E-10-1.51067E-09
 -1       294 3.86941E+04 3.51795E+01 6.96637E+02-5.21581E+04-6.12772E-11 5.25233E-10
 -1       295 3.87573E+04 6.38006E+01 1.11912E+03-7.66385E+04 3.72211E-10 6.07542E-10
 -1       296 3.87048E+04-1.70307E+01 2.04019E+03-5.21582E+04 1.64619E-10-1.22327E-09
 -1       297 3.91531E+04 1.70448E+02 4.16643E+03-7.66234E+04 1.87993E-09-5.40695E-10
 -1       298 3.85539E+04-6.73338E+00 8.02594E+03-5.21727E+04 2.71029E-10 3.38446E-09
 -1       299 4.33514E+04 4.41598E+03 1.80651E+04-7.62803E+04-8.36735E-10-1.56854E-09
 -1       300 3.49793E+04 4.39732E+03 3.26978E+04-5.25087E+04-7.76708E-10-3.71438E-09
 -1       301 1.39640E+04 1.75221E+05 6.85331E+04-4.04162E+05-6.47560E-10 1.39335E-09
 -1       302 1.16591E+04 1.90213E+05 4.08962E+04-5.61098E+05-2.68483E-09-9.35870E-10
 -1       303 2.43044E+03 1.80628E+05 2.52874E+04-4.03236E+05-1.33332E-09-6.46537E-10
 -1       304 8.13230E+03 1.86780E+05 2.87800E+04-5.61138E+05-2.32467E-09-1.28421E-09
 -1       305 8.49946E+03 1.78391E+05 4.12403E+04-4.04128E+05-1.36788E-09-2.07365E-10
 -1       306-1.48094E+06-2.51815E+05-1.14719E+05-5.95739E+05-1.00499E-09 1.66619E-09
 -1       307-1.49508E+06-2.76424E+05-6.21300E+04-6.21500E+05 8.18545E-10-1.00408E-09
 -1       308-1.49267E+06-2.43281E+05-2.58623E+04-6.04005E+05 5.98448E-10-6.47924E-09
 -1       309-1.47910E+06-2.59809E+05-1.28886E+04-6.22543E+05 2.11003E-10 3.10820E-10
 -1       310-1.49368E+06-2.43134E+05-5.92595E+03-6.04372E+05 6.90306E-10 4.99267E-09
 -1       311-1.47801E+06-2.59086E+05-3.01767E+03-6.22586E+05 6.94854E-10 9.88926E-10
 -1       312-1.49386E+06-2.43151E+05-1.66836E+03-6.04383E+05 9.09040E-10 9.02673E-10
 -1       313-1.47792E+06-2.59071E+05-1.38500E+03-6.22613E+05-4.67253E-11 2.29693E-09
 -1       314-1.49386E+06-2.43146E+05-1.83179E+03-6.04383E+05 1.82513E-09 2.77669E-09
 -1       315-1.47804E+06-2.59094E+05-3.45066E+03-6.22600E+05 5.65933E-10 1.44610E-09
 -1       316-1.49366E+06-2.43111E+05-6.84694E+03-6.04369E+05 2.54659E-10-1.27784E-09
 -1       317-1.47930E+06-2.59942E+05-1.49382E+04-6.22586E+05-9.39053E-10-2.70666E-09
 -1       318-1.49251E+06-2.43259E+05-2.99841E+04-6.03940E+05-3.37423E-10-1.34605E-10
 -1       319-1.49781E+06-2.79270E+05-7.20570E+04-6.21473E+05 1.16870E-09-2.02817E-09
 -1       320-1.47897E+06-2.53082E+05-1.33028E+05-5.94305E+05-1.01500E-09-1.40426E-09
 -1       321 2.19455E+05 7.03341E+03 5.10330E+04-3.20940E+04 8.54925E-11 9.84073E-10
 -1       322 2.32496E+05 6.96249E+03 2.81667E+04-4.65630E+04-3.67436E-10-7.27596E-12
 -1       323 2.25205E+05 3.27905E+01 1.25181E+04-3.18613E+04-4.29281E-10-1.51158E-09
 -1       324 2.26178E+05 2.32182E+02 6.46822E+03-4.67910E+04-4.77485E-11-2.06319E-09
 -1       325 2.25553E+05-6.49446E+01 3.12816E+03-3.18550E+04 6.87578E-10-4.94765E-10
 -1       326 2.25668E+05 7.55692E+00 1.63029E+03-4.67941E+04-2.70575E-10-2.17915E-09
 -1       327 2.25576E+05-6.84706E+00 8.66086E+02-3.18587E+04-8.13088E-10-3.97608E-09
 -1       328 2.25586E+05 1.97214E+01 5.82898E+02-4.67900E+04 7.61872E-10-4.11410E-09
 -1       329 2.25577E+05 3.48766E+00 5.64448E+02-3.18593E+04 1.94439E-09-9.98853E-10
 -1       330 2.25613E+05 1.70416E+01 8.58051E+02-4.67908E+04-5.60249E-10 4.45311E-09
 -1       331 2.25573E+05-2.54868E+01 1.53728E+03-3.18578E+04-9.47239E-10 3.45995E-09
 -1       332 2.25872E+05 1.16530E+02 3.12105E+03-4.67873E+04-3.34694E-10 3.08728E-09
 -1       333 2.25424E+05 9.27240E+00 6.01008E+03-3.18626E+04 1.30058E-10 3.57437E-09
 -1       334 2.28937E+05 3.32687E+03 1.35117E+04-4.65850E+04 2.47383E-10 4.36557E-11
 -1       335 2.22693E+05 3.34525E+03 2.44659E+04-3.20642E+04-1.04137E-09-5.58430E-10
 -1       336 5.66470E+03 9.62858E+04 4.03395E+04-2.69003E+05 1.10958E-09-6.25732E-10
 -1       337 6.94561E+03 1.05656E+05 2.60259E+04-3.93162E+05 7.09406E-10-2.52476E-09
 -1       338 1.19391E+03 9.93371E+04 1.88356E+04-2.68277E+05 1.40062E-09 8.89031E-10
 -1       339 7.18683E+03 1.05265E+05 2.61461E+04-3.93318E+05 4.91127E-10 3.74712E-10
 -1       340 6.09627E+03 9.57235E+04 4.06689E+04-2.68840E+05 1.05501E-09 3.86353E-09
 -1       341-9.37800E+05-1.63062E+05-7.46676E+04-3.81792E+05-8.65384E-10 4.48927E-09
 -1       342-9.45572E+05-1.80526E+05-4.04394E+04-4.00238E+05 7.53516E-10-5.32054E-10
 -1       343-9.45416E+05-1.57520E+05-1.68353E+04-3.87175E+05 1.20053E-10-4.37467E-10
 -1       344-9.35172E+05-1.69699E+05-8.39331E+03-4.00865E+05-1.23327E-09-9.08585E-10
 -1       345-9.46045E+05-1.57448E+05-3.86100E+03-3.87418E+05-3.33330E-10-1.13528E-09
 -1       346-9.34473E+05-1.69217E+05-1.97477E+03-4.00851E+05 8.87212E-10-1.87674E-09
 -1       347-9.46141E+05-1.57478E+05-1.10427E+03-3.87428E+05-3.62661E-10 5.95264E-10
 -1       348-9.34410E+05-1.69199E+05-9.40981E+02-4.00842E+05 1.34420E-09 3.35831E-09
 -1       349-9.46126E+05-1.57484E+05-1.27255E+03-3.87428E+05 4.99995E-10 3.52884E-10
 -1       350-9.34492E+05-1.69214E+05-2.41651E+03-4.00823E+05-1.77351E-10-6.12545E-10
 -1       351-9.45984E+05-1.57460E+05-4.80490E+03-3.87416E+05 3.76531E-10-1.57797E-09
 -1       352-9.35368E+05-1.69815E+05-1.04829E+04-4.00825E+05 1.25056E-10-2.02681E-09
 -1       353-9.45188E+05-1.57552E+05-2.10425E+04-3.87109E+05-5.17502E-10 2.58660E-09
 -1       354-9.48362E+05-1.83365E+05-5.05545E+04-4.00054E+05 1.04092E-09 1.17234E-09
 -1       355-9.35680E+05-1.64456E+05-9.33335E+04-3.80358E+05-3.90401E-10-4.73665E-09
 -1       356 1.53395E+05 2.44447E+03 1.76232E+04-1.03223E+04-1.46429E-10 2.02999E-09
 -1       357 1.57891E+05 2.41166E+03 9.71850E+03-1.49711E+04-2.75122E-11 5.39785E-09
 -1       358 1.55398E+05 1.62579E+01 4.30568E+03-1.02394E+04-5.00222E-11 7.95353E-10
 -1       359 1.55729E+05 7.70612E+01 2.19435E+03-1.50537E+04 4.12911E-10-7.58746E-10
 -1       360 1.55530E+05-2.44454E+01 1.00287E+03-1.02371E+04 3.48791E-10 1.97372E-09
 -1       361 1.55560E+05-5.90972E+00 4.03861E+02-1.50553E+04 4.77485E-10 1.63891E-09
 -1       362 1.55548E+05-3.09632E+00-1.40138E+01-1.02378E+04 4.28372E-10 9.95442E-10
 -1       363 1.55514E+05 7.60037E-01-4.37591E+02-1.50541E+04 7.33507E-10 5.54962E-10
 -1       364 1.55566E+05 2.14062E+01-1.06235E+03-1.02384E+04-8.29431E-10 8.30482E-10
 -1       365 1.55416E+05 2.32150E+00-2.27650E+03-1.50536E+04 9.88535E-10 2.15437E-10
 -1       366 1.55644E+05 7.83719E+01-4.52176E+03-1.02384E+04-4.83851E-10-5.62977E-10
 -1       367 1.54757E+05-3.73557E+02-9.42012E+03-1.50514E+04-4.54747E-13 3.17209E-09
 -1       368 1.56232E+05-1.21891E+02-1.82793E+04-1.02407E+04 4.50655E-10 1.88084E-09
 -1       369 1.45680E+05-1.02742E+04-4.11258E+04-1.49953E+04-7.33166E-10-2.00816E-09
 -1       370 1.64751E+05-1.04138E+04-7.45177E+04-1.02878E+04-3.65162E-10-2.35741E-09
 -1       371 3.60530E+02-4.85880E+03 2.18487E+03-1.78189E+05-8.45830E-10 4.36557E-10
 -1       372 9.61511E+02-4.73424E+03 2.09916E+03-2.60404E+05-8.13088E-10-2.81580E-09
 -1       373 5.30469E+02-5.26318E+03 2.57306E+03-1.77669E+05-4.94765E-10-7.54881E-11
 -1       374 2.02343E+03-4.22525E+03 5.04185E+03-2.60584E+05-2.38288E-09-2.68142E-09
 -1       375 1.61836E+03-6.09561E+03 8.74141E+03-1.78005E+05-3.18323E-11 8.34916E-10
 -1       376-1.32494E+05-4.45067E+04-1.41525E+04-8.19554E+04-3.13685E-09-3.80714E-09
 -1       377-1.24707E+05-5.70620E+04-7.66308E+03-9.60711E+04 4.74301E-10 2.79107E-09
 -1       378-1.34047E+05-4.33531E+04-3.19945E+03-8.29014E+04 2.71484E-10-1.02511E-09
 -1       379-1.22685E+05-5.50848E+04-1.60860E+03-9.63035E+04-3.07637E-10-4.54742E-09
 -1       380-1.34175E+05-4.33318E+04-7.71277E+02-8.29528E+04-7.25322E-11 3.57795E-09
 -1       381-1.22558E+05-5.49929E+04-4.60460E+02-9.63008E+04 5.54536E-10 2.31103E-09
 -1       382-1.34178E+05-4.33425E+04-3.89423E+02-8.29504E+04-7.93989E-10-1.27329E-10
 -1       383-1.22532E+05-5.49972E+04-5.64000E+02-9.62817E+04 1.02136E-09-2.75350E-09
 -1       384-1.34136E+05-4.33534E+04-1.04201E+03-8.29323E+04-4.42014E-10 2.08729E-10
 -1       385-1.22570E+05-5.50425E+04-2.17316E+03-9.62631E+04 3.60615E-10 1.66619E-09
 -1       386-1.33984E+05-4.33279E+04-4.42957E+03-8.28879E+04-2.95859E-09-5.65706E-10
 -1       387-1.23314E+05-5.56452E+04-9.70291E+03-9.62756E+04-2.23554E-09 4.55975E-09
 -1       388-1.33241E+05-4.34158E+04-1.95037E+04-8.25634E+04-2.40289E-09-3.02498E-09
 -1       389-1.35292E+05-6.81928E+04-4.68214E+04-9.55308E+04 2.30739E-09 6.70298E-09
 -1       390-1.24383E+05-4.98509E+04-8.64573E+04-7.62909E+04-1.65255E-09 3.69619E-09
 -1       406 1.48015E+04 1.68866E+06 8.12476E+04 9.68455E+04-1.00772E-09 2.07456E-09
 -1       407 1.01632E+04 1.70841E+06 5.25389E+04 1.35488E+05-8.54925E-10 3.61251E-09
 -1       408 2.35680E+02 1.69660E+06 4.05393E+04 9.68650E+04-2.66573E-09 1.77897E-09
 -1       409 1.18661E+04 1.71072E+06 5.91347E+04 1.35040E+05-1.87674E-09 1.11322E-09
 -1       410 1.73677E+04 1.68751E+06 9.60483E+04 9.73496E+04-5.10772E-09 1.63709E-10
 -1       466 7.93610E+05 1.02238E+04 7.56516E+04-6.10066E+04 2.36469E-10-5.78439E-10
 -1       467 8.12958E+05 1.01595E+04 4.17787E+04-8.87306E+04-1.81899E-10 6.93944E-10
 -1       468 8.02001E+05-6.20066E+01 1.85669E+04-6.06027E+04 1.40062E-10 7.27596E-11
 -1       469 8.03394E+05 2.77579E+02 9.62577E+03-8.90782E+04-1.32786E-10 5.32964E-10
 -1       470 8.02414E+05-1.31337E+02 4.69594E+03-6.06260E+04 0.00000E+00 7.48514E-10
 -1       471 8.02526E+05 6.63173E+00 2.54211E+03-8.90350E+04 3.27418E-11 2.04773E-09
 -1       472 8.02392E+05-9.75481E+00 1.52341E+03-6.06474E+04 6.82121E-12 4.04270E-10
 -1       473 8.02380E+05 4.38020E+01 1.35055E+03-8.90112E+04 6.23004E-10-1.30922E-09
 -1       474 8.02377E+05-7.86885E+00 1.78748E+03-6.06502E+04 2.17824E-10-6.30735E-10
 -1       475 8.02530E+05 2.20051E+01 3.21464E+03-8.90262E+04-6.36646E-11-1.13641E-09
 -1       476 8.02353E+05-1.32952E+02 6.08406E+03-6.06319E+04 1.41881E-10-9.77252E-10
 -1       477 8.03573E+05 4.25218E+02 1.25367E+04-8.90594E+04-7.18501E-11 1.82814E-09
 -1       478 8.01737E+05 1.31724E+01 2.42307E+04-6.06153E+04 1.69166E-10 3.22871E-10
 -1       479 8.15914E+05 1.33845E+04 5.45111E+04-8.87223E+04-4.78394E-10-2.50157E-09
 -1       480 7.90695E+05 1.35079E+04 9.87485E+04-6.10072E+04-1.22964E-09-8.51287E-10
 -1       481 4.45930E+03 3.31388E+05 3.05301E+04-9.23412E+04 2.81943E-10-9.86802E-10
 -1       482 4.64424E+03 3.38988E+05 1.78968E+04-1.34955E+05-2.02363E-10 3.79208E-09
 -1       483 3.61791E+02 3.34693E+05 1.00480E+04-9.21856E+04 5.04770E-11 1.05683E-09
 -1       484 2.14207E+03 3.36830E+05 9.92398E+03-1.34856E+05 1.86446E-10-4.55657E-10
 -1       485 1.76843E+03 3.33772E+05 1.28802E+04-9.24489E+04 1.45292E-10-1.85355E-09
 -1       486-7.66409E+05-1.42946E+05-8.69953E+04-3.20785E+05 6.78710E-11-1.16415E-09
 -1       487-7.76258E+05-1.62477E+05-4.71115E+04-3.41348E+05 4.18368E-11-4.07454E-10
 -1       488-7.75330E+05-1.36449E+05-1.96201E+04-3.27055E+05-3.18323E-10 1.53068E-09
 -1       489-7.64148E+05-1.49886E+05-9.77077E+03-3.42146E+05 4.72937E-11 1.63709E-11
 -1       490-7.76097E+05-1.36344E+05-4.48555E+03-3.27352E+05-1.36424E-10 1.88265E-10
 -1       491-7.63360E+05-1.49322E+05-2.25734E+03-3.42172E+05-1.37788E-10 3.40208E-10
 -1       492-7.76243E+05-1.36352E+05-1.19739E+03-3.27371E+05 1.74623E-10-1.46656E-09
 -1       493-7.63300E+05-1.49306E+05-8.99433E+02-3.42206E+05 4.72937E-11-3.00815E-10
 -1       494-7.76268E+05-1.36337E+05-1.07537E+03-3.27375E+05 7.57154E-11-1.35583E-09
 -1       495-7.63367E+05-1.49326E+05-1.94059E+03-3.42229E+05 3.12184E-10-2.78760E-10
 -1       496-7.76178E+05-1.36303E+05-3.80290E+03-3.27363E+05-7.50333E-11-4.21096E-10
 -1       497-7.64052E+05-1.49809E+05-8.27417E+03-3.42251E+05-2.52612E-10 2.46928E-10
 -1       498-7.75557E+05-1.36371E+05-1.65965E+04-3.27116E+05-2.15550E-10-1.84627E-09
 -1       499-7.74294E+05-1.60485E+05-3.98669E+04-3.41628E+05-2.65345E-10 4.82032E-11
 -1       500-7.68035E+05-1.41845E+05-7.36090E+04-3.21802E+05-5.50244E-10 1.28784E-09
 -1       501 6.63041E+05 1.16534E+04 8.60458E+04-6.73310E+04 9.64064E-10 7.67614E-10
 -1       502 6.85047E+05 1.16055E+04 4.75162E+04-9.77888E+04-9.45874E-11 7.42148E-10
 -1       503 6.72569E+05-3.54012E+01 2.11121E+04-6.68751E+04 1.63709E-11-4.71118E-10
 -1       504 6.74152E+05 3.73169E+02 1.09395E+04-9.81931E+04 2.09184E-10 5.49335E-10
 -1       505 6.73031E+05-1.08409E+02 5.32460E+03-6.68928E+04 4.94765E-10 2.94676E-10
 -1       506 6.73156E+05 6.86768E+01 2.85830E+03-9.81571E+04 7.14408E-10-1.27238E-09
 -1       507 6.73005E+05 3.19409E+01 1.66763E+03-6.69129E+04 1.26329E-09 8.95852E-11
 -1       508 6.72988E+05 1.10383E+02 1.40289E+03-9.81362E+04 5.51836E-10-4.86580E-10
 -1       509 6.72997E+05 3.46829E+01 1.77002E+03-6.69140E+04-1.13687E-11 7.27596E-11
 -1       510 6.73150E+05 7.89903E+01 3.11844E+03-9.81522E+04 1.22918E-09 1.14505E-09
 -1       511 6.72999E+05-1.02984E+02 5.86210E+03-6.68966E+04 2.63753E-10-1.97542E-09
 -1       512 6.74205E+05 4.38988E+02 1.20649E+04-9.81838E+04 6.04814E-10-5.21027E-10
 -1       513 6.72453E+05 3.73164E+00 2.33027E+04-6.68806E+04 5.63887E-11 5.86624E-10
 -1       514 6.86165E+05 1.28647E+04 5.24379E+04-9.77894E+04-3.25599E-10 1.58934E-09
 -1       515 6.61897E+05 1.29364E+04 9.49756E+04-6.73255E+04-3.63798E-12 1.15688E-09
 -1       516 6.10887E+03 1.84274E+05 4.00244E+04-2.62627E+05 1.18234E-10-2.52840E-10
 -1       517 7.14014E+03 1.93650E+05 2.49504E+04-3.84135E+05 1.80080E-10 3.09819E-09
 -1       518 1.20462E+03 1.87950E+05 1.66209E+04-2.62080E+05-3.07409E-10 3.31102E-09
 -1       519 5.76262E+03 1.92949E+05 2.10878E+04-3.83993E+05 9.24047E-10 8.98581E-10
 -1       520 4.48762E+03 1.85856E+05 3.14216E+04-2.62778E+05-2.39652E-10-3.31056E-10
 -1       521-1.33555E+06-2.32319E+05-1.26244E+05-5.40703E+05-2.06910E-10-2.29193E-09
 -1       522-1.35269E+06-2.57854E+05-6.83745E+04-5.67290E+05 2.47383E-10-1.10504E-09
 -1       523-1.34843E+06-2.22958E+05-2.84604E+04-5.49832E+05 1.85537E-10-6.76664E-10
 -1       524-1.33513E+06-2.39539E+05-1.41759E+04-5.68394E+05-1.98997E-09-2.93812E-09
 -1       525-1.34954E+06-2.22806E+05-6.50237E+03-5.50244E+05-8.82210E-11 4.48381E-10
 -1       526-1.33395E+06-2.38735E+05-3.27562E+03-5.68431E+05 3.90173E-10-3.69369E-10
 -1       527-1.34974E+06-2.22825E+05-1.74079E+03-5.50260E+05-4.04725E-11-1.00158E-10
 -1       528-1.33384E+06-2.38718E+05-1.31765E+03-5.68466E+05-1.11390E-09-1.26965E-09
 -1       529-1.34976E+06-2.22817E+05-1.58874E+03-5.50260E+05 6.33804E-11-6.13909E-11
 -1       530-1.33394E+06-2.38740E+05-2.87786E+03-5.68465E+05-2.56114E-09-4.26280E-09
 -1       531-1.34960E+06-2.22788E+05-5.64925E+03-5.50246E+05-4.28372E-10 7.82165E-11
 -1       532-1.33496E+06-2.39441E+05-1.22926E+04-5.68449E+05-5.90262E-10 1.27739E-09
 -1       533-1.34864E+06-2.22916E+05-2.46614E+04-5.49890E+05 2.31012E-10-4.02906E-09
 -1       534-1.35019E+06-2.55303E+05-5.92511E+04-5.67482E+05 9.05857E-10-2.35923E-09
 -1       535-1.33746E+06-2.31046E+05-1.09396E+05-5.41996E+05 1.82126E-10 1.37879E-09
 -1       536 7.07578E+05 1.36290E+04 9.95373E+04-5.84574E+04 2.94676E-10 2.37924E-09
 -1       537 7.33007E+05 1.35116E+04 5.49458E+04-8.49118E+04-1.36788E-09-3.81078E-10
 -1       538 7.18715E+05 2.21657E+01 2.44219E+04-5.80609E+04 3.20142E-10-8.80391E-10
 -1       539 7.20571E+05 4.44818E+02 1.26364E+04-8.52582E+04 5.13865E-10-3.01952E-10
 -1       540 7.19335E+05-1.25058E+02 6.13290E+03-5.80753E+04 4.72937E-11 2.00635E-09
 -1       541 7.19514E+05 4.15411E+01 3.24504E+03-8.52265E+04-4.06544E-10 1.37970E-09
 -1       542 7.19350E+05 6.77770E+00 1.81249E+03-5.80945E+04-2.66937E-10 6.56655E-10
 -1       543 7.19346E+05 7.29957E+01 1.38558E+03-8.52065E+04 2.35048E-10-1.02318E-10
 -1       544 7.19349E+05 1.59276E+01 1.58545E+03-5.80957E+04 1.00499E-10 2.97405E-09
 -1       545 7.19467E+05 5.16584E+01 2.66339E+03-8.52200E+04-8.20819E-10-1.59525E-09
 -1       546 7.19344E+05-9.12177E+01 4.93515E+03-5.80808E+04 3.43789E-10-2.00316E-09
 -1       547 7.20330E+05 3.63806E+02 1.01155E+04-8.52489E+04 8.21274E-10 3.31670E-09
 -1       548 7.18870E+05 1.12832E+01 1.95212E+04-5.80653E+04-6.02085E-10-4.32919E-10
 -1       549 7.30311E+05 1.07839E+04 4.39108E+04-8.49192E+04 2.64663E-10 3.93584E-09
 -1       550 7.10004E+05 1.08570E+04 7.95276E+04-5.84364E+04-1.16415E-09 2.13913E-09
 -1       551 7.92450E+03 6.22315E+04 3.77591E+04-3.91730E+05-3.04863E-09-4.51109E-10
 -1       552 7.44909E+03 6.99370E+04 2.48301E+04-5.44070E+05 2.20462E-09 2.36832E-09
 -1       553 2.14275E+03 6.45150E+04 1.94035E+04-3.90875E+05-3.16140E-09 2.39902E-09
 -1       554 8.47442E+03 7.11904E+04 2.86427E+04-5.44005E+05 1.77897E-09-1.70257E-09
 -1       555 9.48247E+03 6.14613E+04 4.63234E+04-3.91797E+05-2.30420E-09-9.82254E-10
 -1       556-1.25539E+06-2.38613E+05-1.11414E+05-5.26963E+05 1.09060E-09 6.54836E-11
 -1       557-1.26361E+06-2.59049E+05-5.92064E+04-5.57744E+05-5.82077E-11-4.98858E-09
 -1       558-1.26560E+06-2.24961E+05-2.48361E+04-5.36737E+05-2.27374E-10-1.40062E-09
 -1       559-1.24891E+06-2.44080E+05-1.23087E+04-5.58678E+05-1.57524E-09-4.78099E-09
 -1       560-1.26653E+06-2.24643E+05-5.66985E+03-5.37162E+05-1.10958E-10 3.64480E-10
 -1       561-1.24799E+06-2.43471E+05-2.86808E+03-5.58705E+05 3.57431E-10 2.32126E-09
 -1       562-1.26671E+06-2.24668E+05-1.55459E+03-5.37188E+05-1.42381E-09-2.84172E-09
 -1       563-1.24791E+06-2.43454E+05-1.23422E+03-5.58706E+05 7.56259E-10 1.44246E-09
 -1       564-1.26669E+06-2.24684E+05-1.56663E+03-5.37182E+05 2.93767E-10-1.75532E-10
 -1       565-1.24797E+06-2.43468E+05-2.89674E+03-5.58647E+05-1.12777E-09 7.08496E-10
 -1       566-1.26646E+06-2.24694E+05-5.73397E+03-5.37148E+05-1.36424E-10-1.17871E-09
 -1       567-1.24887E+06-2.44080E+05-1.24379E+04-5.58562E+05 4.72028E-10 9.74069E-10
 -1       568-1.26547E+06-2.25044E+05-2.50992E+04-5.36708E+05-2.71029E-10 2.29193E-10
 -1       569-1.26375E+06-2.59172E+05-5.98189E+04-5.57533E+05 2.03545E-09-1.30058E-09
 -1       570-1.25509E+06-2.38881E+05-1.12562E+05-5.26852E+05-1.71531E-09 1.63709E-09
 -1       571 8.05382E+05 1.72066E+04 8.98315E+04-6.24933E+04 8.07631E-10-2.19734E-09
 -1       572 8.27132E+05 1.14592E+04 4.87233E+04-8.64017E+04 1.27329E-10-3.03407E-09
 -1       573 8.14961E+05 1.63182E+02 2.17772E+04-6.21457E+04-1.09139E-10 7.34872E-10
 -1       574 8.16524E+05 3.11902E+02 1.12032E+04-8.67126E+04-5.88898E-10 1.62072E-09
 -1       575 8.15518E+05-1.29164E+02 5.40705E+03-6.21490E+04-3.01043E-10 4.42924E-10
 -1       576 8.15676E+05-1.36725E+01 2.76501E+03-8.67054E+04 5.32054E-10-3.84716E-10
 -1       577 8.15576E+05-3.08250E+01 1.36927E+03-6.21543E+04 8.16840E-11 2.37515E-09
 -1       578 8.15578E+05-8.86616E+00 7.30704E+02-8.67095E+04 3.45608E-10-1.85855E-09
 -1       579 8.15638E+05-3.77930E+01 4.17672E+02-6.21452E+04-2.16460E-10-2.49793E-09
 -1       580 8.15676E+05-6.55044E+01 3.42682E+02-8.67427E+04-1.63709E-11 3.82806E-09
 -1       581 8.15756E+05-1.21825E+02 4.05223E+02-6.21209E+04-1.06229E-09-1.62117E-09
 -1       582 8.15939E+05-1.61262E+02 7.34037E+02-8.67780E+04-6.76664E-10 2.00862E-09
 -1       583 8.15912E+05-2.37937E+02 1.33946E+03-6.21092E+04-6.54836E-11 2.18188E-09
 -1       584 8.16925E+05 3.73486E+02 3.03011E+03-8.63865E+04-4.37285E-09 1.64528E-09
 -1       585 8.15559E+05 6.50680E+02 5.51778E+03-6.25141E+04 8.58563E-10 2.95404E-09
 -1       586 2.75667E+03 2.07702E+04 1.24893E+04-3.22489E+05-3.51793E-09-8.29459E-10
 -1       587 3.52194E+03 2.26351E+04 9.76301E+03-4.47636E+05-6.73754E-09 3.15049E-09
 -1       588 1.64310E+03 2.04587E+04 1.00155E+04-3.21658E+05-4.40195E-09 1.43791E-09
 -1       589 6.17586E+03 2.43153E+04 1.78513E+04-4.47830E+05-7.81438E-09 3.83625E-09
 -1       590 6.97228E+03 1.78492E+04 3.07871E+04-3.22282E+05-3.51884E-09-1.34241E-09
 -1       591-8.37120E+05-1.68503E+05-8.48942E+04-3.61455E+05 5.38648E-10-4.36557E-11
 -1       592-8.41963E+05-1.85564E+05-4.51222E+04-3.86592E+05-5.92991E-10 1.09776E-09
 -1       593-8.44822E+05-1.58160E+05-1.89234E+04-3.68929E+05 4.10182E-10-5.64796E-10
 -1       594-8.30752E+05-1.74116E+05-9.38842E+03-3.87183E+05-6.17547E-10-2.31830E-09
 -1       595-8.45473E+05-1.57970E+05-4.33324E+03-3.69247E+05 4.13820E-11-2.79056E-09
 -1       596-8.30031E+05-1.73643E+05-2.21846E+03-3.87125E+05 1.35287E-10-2.09775E-09
 -1       597-8.45552E+05-1.58026E+05-1.25165E+03-3.69255E+05 2.38288E-10 4.57931E-10
 -1       598-8.29942E+05-1.73631E+05-1.08276E+03-3.87067E+05-8.53106E-10 5.76620E-10
 -1       599-8.45486E+05-1.58064E+05-1.48828E+03-3.69237E+05 1.08776E-09-3.12866E-10
 -1       600-8.29982E+05-1.73656E+05-2.83219E+03-3.86989E+05 2.32922E-09-5.74801E-10
 -1       601-8.45258E+05-1.58072E+05-5.64971E+03-3.69190E+05-1.54796E-09 8.18545E-11
 -1       602-8.30857E+05-1.74274E+05-1.22682E+04-3.86926E+05-1.51886E-10 3.32147E-09
 -1       603-8.44307E+05-1.58400E+05-2.47624E+04-3.68751E+05 3.93811E-09-4.34193E-09
 -1       604-8.45509E+05-1.89174E+05-5.89959E+04-3.85977E+05-2.94312E-09-2.90311E-09
 -1       605-8.34130E+05-1.71987E+05-1.11009E+05-3.58992E+05 6.44832E-10 1.18598E-09
 -1       606 3.25604E+05-8.45329E+03-4.34392E+04 5.54192E+04-1.46829E-08 2.08092E-09
 -1       607 3.15009E+05-5.43346E+03-2.35284E+04 7.57893E+04-5.73527E-09 1.36788E-09
 -1       608 3.20666E+05-1.89140E+01-1.05539E+04 5.49586E+04 1.15688E-08-1.38971E-09
 -1       609 3.19700E+05 1.59066E+02-5.40193E+03 7.62379E+04-7.18592E-09 9.74978E-10
 -1       610 3.20150E+05 2.99422E+02-2.60817E+03 5.49487E+04-1.84700E-08-3.42561E-09
 -1       611 3.19828E+05 4.70318E+02-1.28431E+03 7.62320E+04-3.63725E-08 4.05180E-09
 -1       612 3.19967E+05 3.61292E+02-5.68881E+02 5.49602E+04-1.38152E-08-2.40107E-10
 -1       613 3.19732E+05 5.48970E+02-1.47287E+02 7.62126E+04-2.18038E-08 1.22282E-09
 -1       614 3.19870E+05 4.00959E+02 1.93963E+02 5.49662E+04-3.17596E-09-2.44654E-09
 -1       615 3.19697E+05 5.84413E+02 6.48350E+02 7.62024E+04 1.41545E-08 6.61976E-09
 -1       616 3.19819E+05 3.95889E+02 1.39003E+03 5.49694E+04-1.51750E-08-2.72212E-09
 -1       617 3.19902E+05 6.81416E+02 2.94273E+03 7.61897E+04-5.27871E-09 7.11498E-09
 -1       618 3.19675E+05 4.70247E+02 5.74719E+03 5.49780E+04-3.44698E-09-2.92857E-09
 -1       619 3.22741E+05 3.61199E+03 1.28761E+04 7.59646E+04-4.26144E-09 5.55019E-09
 -1       620 3.17179E+05 4.94603E+03 2.37354E+04 5.51706E+04 5.16684E-09-1.95996E-09
 -1       621 8.54408E+03 1.18451E+06 4.70072E+04-1.17467E+05-6.48652E-09 1.90994E-09
 -1       622 6.61257E+03 1.19549E+06 3.46468E+04-1.61903E+05-6.12363E-09 4.62751E-09
 -1       623 9.61006E+02 1.18814E+06 3.38748E+04-1.17163E+05-6.56109E-09 1.53977E-09
 -1       624 1.37902E+04 1.20187E+06 5.86266E+04-1.62057E+05-5.07134E-09 2.23372E-09
 -1       625 1.97582E+04 1.17768E+06 1.01086E+05-1.17263E+05-6.41012E-09-5.58839E-09
 -1       626 5.45446E+05 1.13180E+05-9.40903E+03 2.55422E+05 1.06229E-09-1.47702E-09
 -1       627 5.29348E+05 1.26953E+05-4.97413E+03 2.70281E+05 2.83944E-09 3.79055E-09
 -1       628 5.44733E+05 1.14114E+05-2.11323E+03 2.54151E+05-6.77028E-09 7.18501E-10
 -1       629 5.30075E+05 1.28582E+05-1.02074E+03 2.70409E+05 1.45219E-08 2.27146E-09
 -1       630 5.44530E+05 1.14225E+05-4.54208E+02 2.54036E+05 6.80666E-09-4.80622E-09
 -1       631 5.30021E+05 1.28672E+05-1.56618E+02 2.70286E+05-1.27920E-08-2.71518E-09
 -1       632 5.44413E+05 1.14291E+05 4.35396E+01 2.53992E+05 1.24019E-08 3.32562E-09
 -1       633 5.29971E+05 1.28691E+05 2.83679E+02 2.70200E+05 2.22531E-08 1.97815E-11
 -1       634 5.44340E+05 1.14315E+05 6.62906E+02 2.53968E+05 1.36065E-08 4.04998E-09
 -1       635 5.30008E+05 1.28707E+05 1.46867E+03 2.70186E+05-1.42722E-09 1.50294E-09
 -1       636 5.44271E+05 1.14275E+05 3.02217E+03 2.53960E+05-1.41674E-08-4.74120E-09
 -1       637 5.30557E+05 1.29035E+05 6.62922E+03 2.70275E+05 1.55466E-08 2.85581E-10
 -1       638 5.43890E+05 1.14346E+05 1.33770E+04 2.53762E+05 1.31340E-08-2.83035E-09
 -1       639 5.38630E+05 1.37072E+05 3.19153E+04 2.69974E+05 1.17250E-08-4.55839E-09
 -1       640 5.38585E+05 1.21583E+05 6.00362E+04 2.48538E+05-8.29368E-09 1.81899E-11
 -1       641 1.22879E+04-9.02466E+02-6.69940E+03 4.89558E+03-1.67871E-08 2.69665E-10
 -1       642 1.05593E+04-8.74192E+02-3.69545E+03 7.11286E+03-7.00504E-09-1.35685E-09
 -1       643 1.15229E+04 2.29065E+01-1.64043E+03 4.86957E+03-2.54846E-09-1.74566E-09
 -1       644 1.13752E+04 1.60348E+01-8.41269E+02 7.13400E+03 6.08257E-09 1.29953E-09
 -1       645 1.14701E+04 4.07038E+01-3.95772E+02 4.86822E+03 4.12060E-10-1.92063E-09
 -1       646 1.14354E+04 4.95075E+01-1.82962E+02 7.13527E+03-1.38714E-08-2.94290E-09
 -1       647 1.14628E+04 3.45944E+01-5.29447E+01 4.86814E+03 1.56814E-08-3.10126E-09
 -1       648 1.14479E+04 4.83288E+01 4.74804E+01 7.13550E+03 4.16994E-08 1.54694E-09
 -1       649 1.14594E+04 2.90616E+01 1.69531E+02 4.86803E+03 1.80781E-08-1.39642E-09
 -1       650 1.14673E+04 4.70454E+01 3.85979E+02 7.13539E+03 2.00912E-08-1.23271E-09
 -1       651 1.14472E+04 1.78872E+01 7.76873E+02 4.86830E+03-4.19095E-09-8.14339E-10
 -1       652 1.15842E+04 1.10290E+02 1.62435E+03 7.13310E+03 3.26827E-09 2.46359E-10
 -1       653 1.13482E+04 5.05909E+01 3.15435E+03 4.87001E+03 1.69796E-08-2.92857E-09
 -1       654 1.31564E+04 1.81717E+03 7.09958E+03 7.08534E+03-6.02950E-09 8.68681E-10
 -1       655 9.88261E+03 1.82609E+03 1.28675E+04 4.90489E+03 1.41629E-08 2.18824E-09
 -1       656-5.69239E+03-2.86029E+05-3.77293E+04 9.18493E+04-1.37334E-09 1.48248E-09
 -1       657-5.96090E+03-2.95439E+05-2.35477E+04 1.33871E+05-8.49286E-09 7.63976E-10
 -1       658-6.38037E+02-2.90087E+05-1.60086E+04 9.16073E+04-2.31012E-09 1.90039E-09
 -1       659-5.06289E+03-2.94743E+05-2.07722E+04 1.33977E+05-3.20142E-09 3.08455E-09
 -1       660-4.70410E+03-2.86930E+05-3.15790E+04 9.17531E+04-6.24823E-10 4.11637E-09
 -1       661 2.11758E+05 3.48405E+04 1.54450E+04 8.37605E+04 4.61182E-09-1.68984E-09
 -1       662 2.14228E+05 3.75931E+04 8.36608E+03 8.65716E+04-6.54450E-09-2.33274E-09
 -1       663 2.13287E+05 3.37338E+04 3.48451E+03 8.49106E+04-6.93461E-09 1.12993E-09
 -1       664 2.12098E+05 3.53257E+04 1.74111E+03 8.66493E+04-1.95374E-08-6.12748E-09
 -1       665 2.13404E+05 3.37306E+04 8.05938E+02 8.49628E+04-1.74941E-09 2.91266E-09
 -1       666 2.11953E+05 3.52224E+04 4.23337E+02 8.66332E+04-1.24633E-08 7.90692E-10
 -1       667 2.13420E+05 3.37392E+04 2.57206E+02 8.49645E+04-3.18391E-09-2.72115E-09
 -1       668 2.11942E+05 3.52196E+04 2.55991E+02 8.66328E+04-4.00291E-09-1.49225E-09
 -1       669 2.13418E+05 3.37345E+04 3.87251E+02 8.49640E+04 1.19558E-08 1.34833E-09
 -1       670 2.11972E+05 3.52289E+04 7.67910E+02 8.66461E+04 1.47520E-08-7.66249E-10
 -1       671 2.13391E+05 3.37119E+04 1.54014E+03 8.49598E+04-1.09592E-08-2.91038E-10
 -1       672 2.12256E+05 3.54316E+04 3.37071E+03 8.66845E+04-1.87993E-09-4.41912E-09
 -1       673 2.13166E+05 3.37151E+04 6.76448E+03 8.48584E+04-3.12502E-09-6.68797E-09
 -1       674 2.16416E+05 3.98201E+04 1.62544E+04 8.65164E+04 2.89111E-09-1.06120E-08
 -1       675 2.10176E+05 3.58839E+04 3.00113E+04 8.26471E+04 6.19582E-09-4.25280E-09
 -1       676-1.89520E+03-2.53121E+05-1.40005E+04 1.00667E+04-7.02039E-09-7.33280E-10
 -1       677-1.99655E+03-2.56640E+05-9.32853E+03 1.43140E+04-1.65700E-08-2.12810E-09
 -1       678-1.11087E+02-2.54493E+05-7.38025E+03 1.00303E+04-2.33292E-08 3.42993E-09
 -1       679-2.54187E+03-2.57148E+05-1.11051E+04 1.43619E+04-5.76892E-09-5.34135E-09
 -1       680-2.46915E+03-2.52623E+05-1.79285E+04 1.00160E+04-2.22262E-08-6.07145E-10
 -1       681 4.39494E+05 2.87021E+03 2.19284E+04-4.26247E+04-4.18368E-11-1.09276E-09
 -1       682 4.45113E+05 2.87622E+03 1.21217E+04-6.19371E+04 2.91038E-11-1.53159E-09
 -1       683 4.41873E+05-6.99276E+01 5.38307E+03-4.23344E+04 5.09317E-11-4.43379E-10
 -1       684 4.42260E+05 4.55484E+01 2.80347E+03-6.22173E+04-2.04636E-10-1.18325E-09
 -1       685 4.41950E+05-5.90229E+01 1.38306E+03-4.23374E+04-9.09495E-12-4.46562E-10
 -1       686 4.41959E+05-6.34039E+00 7.87432E+02-6.22062E+04-6.13909E-11-5.63432E-10
 -1       687 4.41917E+05-6.57448E+00 5.39640E+02-4.23459E+04-1.31877E-10 8.04903E-11
 -1       688 4.41898E+05 1.66349E+01 5.92701E+02-6.21952E+04 1.05729E-11 9.30868E-10
 -1       689 4.41899E+05-6.28230E+00 9.12768E+02-4.23484E+04-7.28733E-11-4.98858E-10
 -1       690 4.41974E+05 1.02496E+01 1.73855E+03-6.21983E+04 6.23004E-11-4.44743E-10
 -1       691 4.41873E+05-6.84898E+01 3.34571E+03-4.23427E+04 9.00400E-11-2.52612E-10
 -1       692 4.42532E+05 2.44151E+02 6.92160E+03-6.22019E+04-2.45564E-11 4.01485E-10
 -1       693 4.41517E+05 2.41750E+01 1.33949E+04-4.23441E+04-1.80080E-10 9.50422E-10
 -1       694 4.49329E+05 7.42644E+03 3.01401E+04-6.19496E+04-4.61114E-10 2.27601E-10
 -1       695 4.35392E+05 7.49482E+03 5.46021E+04-4.26091E+04-8.69477E-10-6.29370E-10
 -1       696 5.13924E+03 5.71866E+05 3.46824E+04-9.73854E+04 1.05501E-10 2.46473E-10
 -1       697 5.20559E+03 5.80510E+05 1.82364E+04-1.42103E+05 1.00954E-10-7.65795E-10
 -1       698 3.25379E+02 5.75869E+05 6.25553E+03-9.71829E+04-3.93356E-11 6.62226E-10
 -1       699-7.00974E+02 5.75111E+05-9.18189E+02-1.42084E+05-1.76442E-10 1.70076E-09
 -1       700-1.12865E+03 5.77331E+05-7.68672E+03-9.74163E+04-1.90084E-10 1.61162E-09
 -1       701-3.95101E+05-7.82851E+04-6.40301E+04-1.68579E+05-1.48930E-11-1.30240E-09
 -1       702-4.03764E+05-9.12819E+04-3.46784E+04-1.82139E+05-1.20053E-10-7.49424E-10
 -1       703-4.01625E+05-7.35340E+04-1.44419E+04-1.73201E+05 1.25510E-10-1.06411E-10
 -1       704-3.94849E+05-8.19968E+04-7.19571E+03-1.82663E+05-1.34105E-09-3.60797E-09
 -1       705-4.02161E+05-7.34815E+04-3.30548E+03-1.73420E+05 4.27463E-11-4.82032E-11
 -1       706-3.94263E+05-8.15745E+04-1.66948E+03-1.82648E+05-1.41881E-10 4.31555E-10
 -1       707-4.02253E+05-7.34992E+04-8.95622E+02-1.73433E+05 1.59616E-10-4.95845E-10
 -1       708-3.94219E+05-8.15597E+04-6.90733E+02-1.82662E+05 3.00133E-11 3.47313E-11
 -1       709-4.02270E+05-7.34884E+04-8.48804E+02-1.73437E+05-1.65983E-10-2.45336E-10
 -1       710-3.94278E+05-8.15753E+04-1.54987E+03-1.82689E+05 1.46656E-11-2.11003E-10
 -1       711-4.02213E+05-7.34483E+04-3.04554E+03-1.73430E+05-3.67208E-11 3.29237E-10
 -1       712-3.94836E+05-8.19688E+04-6.63229E+03-1.82744E+05 2.46700E-11 4.86580E-10
 -1       713-4.01750E+05-7.34744E+04-1.33000E+04-1.73233E+05-1.03455E-10 2.30102E-10
 -1       714-4.03018E+05-9.05786E+04-3.19542E+04-1.82356E+05-1.15961E-10 6.18456E-10
 -1       715-3.95801E+05-7.77893E+04-5.89892E+04-1.68931E+05-3.03316E-10 3.12866E-10
 -1       716 3.51701E+05 6.26231E+03 4.62647E+04-5.26636E+04 5.94810E-10 2.83762E-10
 -1       717 3.63528E+05 6.25326E+03 2.55540E+04-7.64819E+04 4.12001E-10-2.66482E-10
 -1       718 3.56811E+05-9.25651E+00 1.13566E+04-5.23194E+04-1.49157E-10 3.51065E-10
 -1       719 3.57654E+05 2.18420E+02 5.89271E+03-7.68154E+04-2.47383E-10 1.17961E-09
 -1       720 3.57054E+05-4.47972E+01 2.88421E+03-5.23177E+04 3.05590E-10 1.86628E-09
 -1       721 3.57117E+05 5.54498E+01 1.57937E+03-7.68111E+04-5.36147E-10 3.22416E-10
 -1       722 3.57041E+05 2.74966E+01 9.80065E+02-5.23243E+04 9.22910E-10 9.59517E-11
 -1       723 3.57041E+05 7.15804E+01 9.23604E+02-7.68053E+04 2.33615E-09-1.49612E-10
 -1       724 3.57042E+05 1.58508E+01 1.28372E+03-5.23236E+04 4.92946E-10 7.21684E-10
 -1       725 3.57177E+05 4.32068E+01 2.35713E+03-7.68143E+04 5.63887E-11 6.67114E-10
 -1       726 3.57039E+05-8.82571E+01 4.48612E+03-5.23151E+04-1.72804E-10 1.17780E-09
 -1       727 3.57972E+05 3.29493E+02 9.26398E+03-7.68208E+04 5.44787E-10 1.31200E-09
 -1       728 3.56600E+05 8.22778E+00 1.79110E+04-5.23159E+04-4.54747E-11-3.15595E-10
 -1       729 3.67127E+05 9.90672E+03 4.03145E+04-7.64668E+04-4.68390E-10-1.46952E-09
 -1       730 3.48452E+05 9.97069E+03 7.30255E+04-5.26919E+04-2.76486E-10-9.64064E-10
 -1       731 4.61850E+03 1.97292E+05 3.12026E+04-1.50102E+05-8.36735E-11-5.54792E-11
 -1       732 4.86389E+03 2.04994E+05 1.75587E+04-2.19626E+05 4.33829E-10-1.57979E-09
 -1       733 4.11312E+02 2.00708E+05 8.41899E+03-1.49825E+05-3.74712E-10 1.45428E-09
 -1       734 1.12016E+03 2.01886E+05 5.76054E+03-2.19480E+05 3.67436E-10 1.79716E-09
 -1       735 5.58745E+02 2.00925E+05 5.07235E+03-1.50254E+05-2.14641E-10 1.55342E-09
 -1       736-8.13174E+05-1.38864E+05-7.75090E+04-3.25737E+05-2.27828E-10-4.00178E-10
 -1       737-8.24966E+05-1.53289E+05-4.19802E+04-3.40630E+05-4.86580E-11-7.11225E-10
 -1       738-8.21033E+05-1.33148E+05-1.74729E+04-3.31344E+05 4.82032E-11 3.56522E-10
 -1       739-8.14175E+05-1.42031E+05-8.70427E+03-3.41232E+05-8.19909E-10 1.57343E-10
 -1       740-8.21677E+05-1.33085E+05-3.98727E+03-3.31594E+05-1.78261E-10 3.44926E-10
 -1       741-8.13439E+05-1.41532E+05-1.99931E+03-3.41215E+05 8.10360E-10 8.44977E-10
 -1       742-8.21786E+05-1.33111E+05-1.04114E+03-3.31602E+05 4.21551E-10-5.33646E-10
 -1       743-8.13367E+05-1.41521E+05-7.46840E+02-3.41226E+05 1.00158E-10-1.10589E-09
 -1       744-8.21802E+05-1.33104E+05-8.44741E+02-3.31601E+05 5.88898E-11-1.14687E-09
 -1       745-8.13415E+05-1.41538E+05-1.48359E+03-3.41245E+05 4.84022E-10-6.23345E-10
 -1       746-8.21742E+05-1.33074E+05-2.88381E+03-3.31595E+05-7.91260E-11 4.85215E-10
 -1       747-8.13944E+05-1.41902E+05-6.26356E+03-3.41277E+05-2.53931E-09-1.16415E-09
 -1       748-8.21289E+05-1.33111E+05-1.25543E+04-3.31414E+05-3.85171E-10-3.99268E-10
 -1       749-8.21702E+05-1.49993E+05-3.01624E+04-3.40853E+05 1.07252E-09-8.66748E-10
 -1       750-8.15640E+05-1.37222E+05-5.56856E+04-3.27393E+05 1.03910E-10 7.45786E-10
 -1       751 7.04758E+05 1.48522E+04 1.08316E+05-6.76742E+04 5.63887E-11 3.81988E-10
 -1       752 7.32403E+05 1.47424E+04 5.97928E+04-9.83369E+04-1.03319E-09-1.49885E-09
 -1       753 7.16853E+05 6.03162E+01 2.65820E+04-6.72564E+04-1.63709E-10 5.03860E-10
 -1       754 7.18854E+05 5.33074E+02 1.37587E+04-9.87081E+04-1.10958E-09-2.60115E-10
 -1       755 7.17526E+05-9.87073E+01 6.68926E+03-6.72682E+04 3.07409E-10 7.56700E-10
 -1       756 7.17716E+05 8.77444E+01 3.55596E+03-9.86840E+04-6.09361E-11 6.94854E-10
 -1       757 7.17560E+05 3.09820E+01 2.01872E+03-6.72825E+04-4.61114E-10-3.89264E-10
 -1       758 7.17576E+05 9.93344E+01 1.59853E+03-9.86766E+04-1.73713E-10 1.44519E-09
 -1       759 7.17593E+05 1.04981E+01 1.89917E+03-6.72760E+04 2.72848E-12 1.31467E-09
 -1       760 7.17793E+05 3.82664E+01 3.25765E+03-9.87071E+04-7.91260E-10 8.65839E-10
 -1       761 7.17632E+05-1.57092E+02 6.06845E+03-6.72516E+04-4.00178E-11 1.49134E-09
 -1       762 7.18934E+05 3.82550E+02 1.24733E+04-9.87528E+04 7.09406E-10 1.34327E-09
 -1       763 7.17102E+05-7.16255E+01 2.40730E+04-6.72280E+04-7.63976E-11 5.45697E-11
 -1       764 7.31344E+05 1.31989E+04 5.41853E+04-9.83365E+04 8.58563E-10-1.62345E-10
 -1       765 7.06222E+05 1.32710E+04 9.81271E+04-6.77136E+04-1.76442E-09 1.39698E-09
 -1       766 1.02570E+04 3.24540E+05 7.37923E+04-1.84330E+05 8.03993E-10 6.89397E-10
 -1       767 1.09052E+04 3.42970E+05 4.69482E+04-2.69664E+05 5.94810E-10 3.95630E-10
 -1       768 7.29203E+02 3.31955E+05 3.33375E+04-1.84008E+05 1.00772E-09 1.98816E-09
 -1       769 1.02243E+04 3.42919E+05 4.53593E+04-2.69460E+05 2.07365E-10-1.09958E-09
 -1       770 9.37003E+03 3.25486E+05 7.02170E+04-1.84551E+05 4.65661E-10 1.33150E-09
 -1       771-1.76939E+06-3.06862E+05-1.57064E+05-7.03820E+05 5.36602E-10-1.14960E-09
 -1       772-1.79225E+06-3.24577E+05-8.34987E+04-7.34340E+05 1.32786E-10-8.22183E-10
 -1       773-1.78344E+06-2.87920E+05-3.49956E+04-7.17710E+05 7.18501E-11-1.21872E-09
 -1       774-1.77152E+06-3.03301E+05-1.73482E+04-7.35280E+05-5.44787E-10-1.01591E-09
 -1       775-1.78464E+06-2.87562E+05-7.97599E+03-7.18265E+05 2.67391E-10 4.41560E-10
 -1       776-1.77015E+06-3.02455E+05-4.01959E+03-7.35215E+05-8.00355E-10-1.65801E-09
 -1       777-1.78484E+06-2.87634E+05-2.13906E+03-7.18278E+05-1.33832E-09-2.08888E-09
 -1       778-1.77002E+06-3.02434E+05-1.62685E+03-7.35191E+05-3.72765E-10-1.07138E-09
 -1       779-1.78482E+06-2.87652E+05-1.96888E+03-7.18278E+05 4.14730E-10-1.80989E-10
 -1       780-1.77013E+06-3.02437E+05-3.56778E+03-7.35151E+05-2.49202E-10 6.08452E-10
 -1       781-1.78461E+06-2.87628E+05-7.01316E+03-7.18268E+05-2.26464E-10-1.22054E-09
 -1       782-1.77132E+06-3.03158E+05-1.52088E+04-7.35136E+05 9.88621E-10-1.71167E-09
 -1       783-1.78350E+06-2.87981E+05-3.06670E+04-7.17783E+05 1.78261E-10 7.58519E-10
 -1       784-1.78954E+06-3.21718E+05-7.31473E+04-7.34168E+05 5.08408E-10 1.05319E-09
 -1       785-1.77108E+06-3.04661E+05-1.37598E+05-7.05673E+05-2.29011E-09 3.90719E-09
 -1       786 6.21972E+05 1.21859E+04 8.98302E+04-7.05936E+04 7.58519E-10-2.79397E-09
 -1       787 6.44934E+05 1.20959E+04 4.95951E+04-1.02754E+05-1.07320E-09-3.61615E-09
 -1       788 6.31948E+05-3.66830E+01 2.20371E+04-7.01618E+04-1.23691E-10 1.90630E-09
 -1       789 6.33620E+05 3.43475E+02 1.13960E+04-1.03137E+05 7.97627E-10 1.06456E-09
 -1       790 6.32472E+05-1.42952E+02 5.51408E+03-7.01706E+04-1.23691E-10 1.86446E-09
 -1       791 6.32644E+05-9.67889E+00 2.87940E+03-1.03120E+05-1.77351E-09 2.12822E-10
 -1       792 6.32497E+05-2.88362E+01 1.53356E+03-7.01800E+04-2.15493E-10 1.28011E-09
 -1       793 6.32531E+05-4.87605E+00 1.03674E+03-1.03119E+05 6.69161E-10 2.51612E-09
 -1       794 6.32555E+05-5.31878E+01 1.00112E+03-7.01719E+04 4.14730E-10-8.26731E-10
 -1       795 6.32718E+05-8.52373E+01 1.52977E+03-1.03154E+05 7.78527E-10 9.09949E-10
 -1       796 6.32678E+05-2.01546E+02 2.72286E+03-7.01446E+04-1.30422E-09 8.33097E-10
 -1       797 6.33428E+05-4.19481E+01 5.55997E+03-1.03195E+05-1.19508E-09-2.00089E-11
 -1       798 6.32615E+05-2.90397E+02 1.06736E+04-7.01286E+04-6.43922E-10-1.55796E-09
 -1       799 6.39262E+05 5.50387E+03 2.40805E+04-1.02739E+05-6.65023E-09-3.57045E-09
 -1       800 6.28002E+05 5.46862E+03 4.35374E+04-7.06283E+04 1.25146E-09-1.12777E-10
 -1       801 4.44641E+03-5.51634E+04 2.49048E+04-4.15378E+05-2.21917E-09 7.23958E-10
 -1       802 7.12020E+03-5.08813E+04 1.90568E+04-6.07695E+05-2.75759E-09-1.62981E-09
 -1       803 2.69535E+03-5.46925E+04 1.85100E+04-4.14403E+05-6.14818E-10 3.18846E-09
 -1       804 1.10283E+04-4.68333E+04 3.22394E+04-6.07611E+05-5.16957E-09-3.42152E-09
 -1       805 8.45279E+03-5.85058E+04 5.40198E+04-4.15460E+05 6.12999E-10 9.49512E-10
 -1       806-1.11341E+06-2.07641E+05-9.63943E+04-4.62649E+05-1.07252E-09-1.14960E-09
 -1       807-1.12171E+06-2.24196E+05-5.12344E+04-4.87921E+05 1.70985E-09-2.36832E-09
 -1       808-1.12216E+06-1.95900E+05-2.14866E+04-4.71127E+05 1.51977E-09-1.10776E-09
 -1       809-1.10896E+06-2.11215E+05-1.06548E+04-4.88630E+05-1.32059E-09 2.15937E-09
 -1       810-1.12293E+06-1.95662E+05-4.91223E+03-4.71485E+05-6.36646E-11 4.94083E-10
 -1       811-1.10815E+06-2.10687E+05-2.49729E+03-4.88608E+05 5.47743E-10-2.04773E-09
 -1       812-1.12306E+06-1.95699E+05-1.37548E+03-4.71500E+05 6.12772E-10-2.12185E-09
 -1       813-1.10807E+06-2.10672E+05-1.13246E+03-4.88592E+05-6.46537E-10 3.90173E-10
 -1       814-1.12303E+06-1.95713E+05-1.48630E+03-4.71495E+05 1.92722E-09 2.99224E-09
 -1       815-1.10814E+06-2.10686E+05-2.78676E+03-4.88554E+05 1.10595E-09-1.56433E-09
 -1       816-1.12284E+06-1.95699E+05-5.53021E+03-4.71470E+05-1.56979E-09 8.43102E-10
 -1       817-1.10905E+06-2.11275E+05-1.20134E+04-4.88528E+05 1.70985E-10-1.83900E-09
 -1       818-1.12195E+06-1.95996E+05-2.42373E+04-4.71063E+05 3.29783E-09-1.27875E-09
 -1       819-1.12342E+06-2.25890E+05-5.77798E+04-4.87672E+05-3.25235E-09 1.33878E-09
 -1       820-1.11205E+06-2.09251E+05-1.08710E+05-4.61503E+05-2.00089E-11 6.76664E-10
 -1       821-4.19101E+05-8.32729E+03-6.00207E+04 2.87304E+04-1.60308E-08-1.30785E-09
 -1       822-4.34434E+05-8.10736E+03-3.31148E+04 4.20047E+04-4.74756E-09-1.02045E-09
 -1       823-4.26020E+05 5.59255E+00-1.47403E+04 2.84183E+04 1.14360E-08-3.36604E-09
 -1       824-4.27238E+05-7.92880E+01-7.61034E+03 4.23157E+04-3.07682E-09-4.64343E-09
 -1       825-4.26554E+05 2.14570E+02-3.70007E+03 2.83854E+04-1.79580E-08-2.87400E-09
 -1       826-4.26793E+05 2.68676E+02-1.94164E+03 4.23586E+04-3.34117E-08-9.31323E-10
 -1       827-4.26659E+05 2.06169E+02-1.07318E+03 2.83725E+04-1.58152E-08-2.78283E-09
 -1       828-4.26782E+05 2.99988E+02-7.91928E+02 4.23783E+04-2.02476E-08-2.85831E-09
 -1       829-4.26688E+05 2.20716E+02-8.78776E+02 2.83649E+04-6.23663E-09-3.53975E-09
 -1       830-4.26842E+05 3.08784E+02-1.45057E+03 4.23861E+04 1.56591E-08-7.05654E-09
 -1       831-4.26651E+05 2.52777E+02-2.68291E+03 2.83643E+04-1.25276E-08-5.13012E-09
 -1       832-4.27213E+05 8.58158E+01-5.48763E+03 4.23750E+04 2.46746E-09-4.92815E-09
 -1       833-4.26299E+05 1.25186E+02-1.06050E+04 2.83775E+04 5.65251E-10-3.98336E-09
 -1       834-4.32436E+05-5.67194E+03-2.38339E+04 4.22157E+04 1.96906E-10-3.22484E-09
 -1       835-4.21342E+05-5.85670E+03-4.31890E+04 2.85600E+04 6.17729E-09-4.44015E-09
 -1       836 7.19884E+03 6.59414E+05 5.05968E+04-1.49509E+05-1.03682E-09 1.19144E-10
 -1       837 8.05289E+03 6.71785E+05 3.54006E+04-2.18031E+05-2.67391E-10-9.91349E-10
 -1       838 9.99020E+02 6.63998E+05 3.07548E+04-1.49240E+05-1.04410E-09 2.51657E-09
 -1       839 1.23834E+04 6.76012E+05 4.97371E+04-2.17930E+05-1.54978E-09-1.40790E-09
 -1       840 1.17226E+04 6.55560E+05 8.22915E+04-1.49601E+05-2.36469E-09 6.31189E-10
 -1       841 8.09311E+04 2.96656E+04-7.02058E+03 5.57328E+04-1.12232E-08-3.09956E-09
 -1       842 7.06954E+04 3.75740E+04-3.79202E+03 6.47892E+04-4.42560E-09 4.91241E-10
 -1       843 8.03499E+04 3.00298E+04-1.58726E+03 5.49829E+04 1.12232E-08-7.74435E-10
 -1       844 7.14089E+04 3.88058E+04-7.77691E+02 6.49039E+04 3.41424E-09-1.69916E-09
 -1       845 8.02607E+04 3.00555E+04-3.44674E+02 5.49235E+04-2.42289E-09 1.74168E-09
 -1       846 7.14156E+04 3.88775E+04-1.33660E+02 6.48793E+04-2.11785E-08-3.97108E-10
 -1       847 8.02213E+04 3.00713E+04 3.35946E+00 5.49037E+04-9.52241E-09 2.27180E-09
 -1       848 7.13986E+04 3.88923E+04 1.46586E+02 6.48587E+04 1.41774E-08 1.01554E-08
 -1       849 8.01949E+04 3.00747E+04 3.63209E+02 5.48925E+04 1.78306E-09 8.41021E-09
 -1       850 7.14237E+04 3.89068E+04 8.14297E+02 6.48602E+04 1.12307E-08 2.94222E-10
 -1       851 8.01570E+04 3.00537E+04 1.67923E+03 5.48862E+04 1.24925E-08-3.48382E-09
 -1       852 7.17457E+04 3.91238E+04 3.69822E+03 6.48984E+04 4.46573E-09 1.21418E-10
 -1       853 7.99126E+04 3.00551E+04 7.42945E+03 5.47843E+04 1.05533E-08-2.22826E-09
 -1       854 7.63947E+04 4.38835E+04 1.78608E+04 6.46661E+04 2.33899E-09-2.06728E-09
 -1       855 7.65974E+04 3.24763E+04 3.29749E+04 5.24268E+04 3.86331E-09 3.50155E-09
 -1       856-1.62975E+05-2.36575E+03-1.75766E+04 1.55490E+04-1.52381E-08-3.78532E-09
 -1       857-1.67497E+05-2.27674E+03-9.69741E+03 2.28028E+04-1.28123E-08-6.09816E-09
 -1       858-1.64994E+05 7.08380E+01-4.31372E+03 1.54272E+04-1.11786E-08-5.00108E-09
 -1       859-1.65377E+05 6.85927E+01-2.22641E+03 2.29187E+04-4.83215E-09-5.93900E-09
 -1       860-1.65142E+05 1.26052E+02-1.07798E+03 1.54182E+04 4.78212E-09-6.06815E-09
 -1       861-1.65235E+05 1.63904E+02-5.60414E+02 2.29283E+04-1.27604E-08-2.87787E-09
 -1       862-1.65165E+05 1.17355E+02-2.97887E+02 1.54170E+04 9.90769E-09-3.88286E-09
 -1       863-1.65219E+05 1.66329E+02-2.00293E+02 2.29294E+04 3.92784E-08-5.47504E-09
 -1       864-1.65167E+05 1.14667E+02-1.95327E+02 1.54170E+04 2.46250E-08-5.15229E-09
 -1       865-1.65219E+05 1.62467E+02-2.98082E+02 2.29275E+04 2.24017E-08-5.76915E-09
 -1       866-1.65152E+05 1.15125E+02-5.37317E+02 1.54189E+04 2.60889E-09-4.53372E-09
 -1       867-1.65280E+05 1.11480E+02-1.08940E+03 2.29176E+04-3.26622E-09-3.41061E-09
 -1       868-1.65073E+05 8.29173E+01-2.10265E+03 1.54273E+04-5.33873E-09-6.14104E-09
 -1       869-1.66297E+05-1.03607E+03-4.71879E+03 2.27962E+04-9.18590E-09-3.85535E-09
 -1       870-1.64083E+05-1.10894E+03-8.55323E+03 1.55477E+04 5.40149E-09-4.82487E-09
 -1       871-2.92341E+03-8.74768E+04-9.62626E+03 1.49196E+05-2.66073E-08-1.05138E-09
 -1       872-2.34999E+03-8.96193E+04-3.73302E+03 2.07139E+05-2.25391E-08-5.11864E-09
 -1       873-7.52543E+02-8.89188E+04 1.25855E+03 1.48870E+05-2.56314E-08 3.53072E-09
 -1       874 8.83897E+02-8.66209E+04 7.20405E+03 2.07137E+05-2.68228E-08 7.14863E-10
 -1       875 2.09915E+03-9.04731E+04 1.50157E+04 1.49224E+05-3.33275E-08 3.81442E-09
 -1       876 2.82059E+05 5.06492E+04 2.94971E+04 1.15833E+05 6.90716E-09-2.51202E-09
 -1       877 2.86073E+05 5.66235E+04 1.59765E+04 1.22015E+05 4.92446E-09-1.22759E-09
 -1       878 2.85009E+05 4.85028E+04 6.65180E+03 1.17986E+05-8.12156E-09-1.24237E-09
 -1       879 2.81964E+05 5.23305E+04 3.31930E+03 1.22196E+05-2.35433E-08-1.57172E-10
 -1       880 2.85227E+05 4.85002E+04 1.52685E+03 1.18083E+05-3.11024E-09 1.31939E-09
 -1       881 2.81683E+05 5.21329E+04 7.82384E+02 1.22157E+05-6.92489E-09 1.31377E-09
 -1       882 2.85253E+05 4.85225E+04 4.37593E+02 1.18086E+05-7.03778E-09 1.34412E-09
 -1       883 2.81657E+05 5.21244E+04 3.72862E+02 1.22147E+05-7.51984E-09 8.32227E-09
 -1       884 2.85251E+05 4.85211E+04 5.01933E+02 1.18086E+05 8.32028E-09 7.15090E-09
 -1       885 2.81693E+05 5.21346E+04 9.52819E+02 1.22160E+05 2.45982E-08-3.22734E-09
 -1       886 2.85218E+05 4.84936E+04 1.89009E+03 1.18082E+05-8.16976E-09-1.24078E-09
 -1       887 2.82043E+05 5.23811E+04 4.12522E+03 1.22208E+05 1.34909E-08-3.51156E-09
 -1       888 2.84944E+05 4.84962E+04 8.27340E+03 1.17960E+05 4.13729E-09 1.87629E-09
 -1       889 2.87144E+05 5.77366E+04 1.98770E+04 1.21996E+05 9.57192E-09-1.29385E-08
 -1       890 2.81284E+05 5.11547E+04 3.66982E+04 1.15267E+05 2.84034E-08-1.78261E-09
 -1       891-1.31438E+03-1.43759E+05-6.94979E+03 6.57202E+04-1.42036E-08 2.20416E-09
 -1       892-1.48998E+03-1.45368E+05-4.56295E+03 9.59590E+04 1.42909E-08-6.85463E-09
 -1       893-3.94041E+02-1.44488E+05-3.51324E+03 6.55744E+04-2.61252E-09 8.72092E-10
 -1       894-1.67912E+03-1.45528E+05-5.16282E+03 9.59441E+04-2.50020E-09-2.96768E-09
 -1       895-1.51847E+03-1.43577E+05-8.27775E+03 6.57337E+04-5.40501E-09 4.20459E-09
 -1       896 7.72032E+05 1.24859E+03 9.93541E+03-3.16388E+04 1.27329E-11-4.71573E-10
 -1       897 7.74550E+05 1.25863E+03 5.49957E+03-4.60379E+04 3.16504E-10-1.47566E-10
 -1       898 7.73087E+05-6.76010E+01 2.44330E+03-3.14182E+04-2.12822E-10-2.18279E-10
 -1       899 7.73220E+05-7.71759E+00 1.28686E+03-4.62391E+04-1.67347E-10 9.73159E-11
 -1       900 7.73100E+05-4.72495E+01 6.56568E+02-3.14348E+04 3.72893E-11-6.95763E-11
 -1       901 7.73056E+05-1.62137E+01 4.23559E+02-4.62055E+04 2.27374E-10 3.96085E-10
 -1       902 7.73066E+05-1.29154E+01 3.75242E+02-3.14520E+04-5.91172E-12-1.31195E-10
 -1       903 7.73016E+05 4.49642E+00 5.38097E+02-4.61797E+04 1.69621E-10-3.19687E-10
 -1       904 7.73037E+05-1.17964E+01 9.44144E+02-3.14607E+04-1.45292E-10 7.79892E-11
 -1       905 7.73077E+05 1.05308E+01 1.87340E+03-4.61727E+04-3.79487E-10-1.33923E-10
 -1       906 7.72980E+05-5.96016E+01 3.64837E+03-3.14589E+04 1.19371E-10-8.21956E-11
 -1       907 7.73628E+05 2.97845E+02 7.56316E+03-4.61771E+04-9.45874E-11 4.97380E-13
 -1       908 7.72538E+05 7.95185E+01 1.46533E+04-3.14559E+04-2.18279E-11 1.16870E-10
 -1       909 7.80961E+05 8.19488E+03 3.29549E+04-4.60290E+04-2.68301E-11-4.62023E-10
 -1       910 7.65767E+05 8.30390E+03 5.97197E+04-3.16147E+04-6.82121E-11-1.45519E-10
 -1       911 1.63692E+05-3.77871E+01 5.14130E+01-2.37513E+04 8.45830E-11 3.04681E-10
 -1       912 1.63700E+05-1.92329E+01 3.77229E+01-3.44816E+04-1.37334E-10 3.96767E-10
 -1       913 1.63662E+05-1.89347E+01 2.17182E+01-2.35932E+04-1.74623E-10-2.65231E-10
 -1       914 1.63643E+05-3.12638E+00 3.14119E+01-3.46444E+04-1.01863E-10 8.34461E-11
 -1       915 1.63636E+05-4.05689E-01 4.98026E+01-2.35885E+04 2.07820E-10 1.56206E-10
 -1       916 1.63616E+05 1.17113E+01 9.92392E+01-3.46476E+04 1.21418E-10 3.44016E-10
 -1       917 1.63620E+05 6.32359E+00 1.91851E+02-2.35900E+04 9.73159E-11-5.16366E-10
 -1       918 1.63619E+05 1.45047E+01 3.90175E+02-3.46461E+04-1.07150E-10-4.09273E-12
 -1       919 1.63608E+05-5.96056E+00 7.66085E+02-2.35900E+04 3.91083E-11 6.38920E-11
 -1       920 1.63691E+05 9.66398E+00 1.56705E+03-3.46473E+04 9.02673E-11-1.50408E-10
 -1       921 1.63568E+05-5.33019E+01 3.07556E+03-2.35887E+04 9.73159E-11 2.41016E-10
 -1       922 1.64166E+05 2.48511E+02 6.39145E+03-3.46438E+04-1.81899E-11-1.77877E-10
 -1       923 1.63198E+05 6.24315E+01 1.23905E+04-2.35931E+04 4.54747E-12 5.50244E-11
 -1       924 1.70372E+05 6.93375E+03 2.78794E+04-3.44812E+04 5.45697E-12-6.02313E-10
 -1       925 1.57472E+05 7.01707E+03 5.05254E+04-2.37574E+04-7.63976E-11-1.49157E-10
 -1       926-9.26287E+05-8.03722E+03-5.69805E+04-4.80032E+04 3.78350E-10 1.85537E-10
 -1       927-9.40763E+05-7.88389E+03-3.14322E+04-6.98749E+04 2.80124E-10 6.16637E-10
 -1       928-9.32889E+05-1.02819E+02-1.39807E+04-4.77075E+04-1.16415E-10 2.09184E-11
 -1       929-9.33960E+05-2.43259E+02-7.21334E+03-7.02188E+04-1.27693E-09-7.16796E-10
 -1       930-9.33400E+05 9.93998E+01-3.49412E+03-4.76672E+04 1.86446E-10 4.77485E-12
 -1       931-9.33519E+05 7.74086E+01-1.82174E+03-7.02641E+04-2.79329E-10 3.54248E-10
 -1       932-9.33471E+05 6.94139E+01-9.81923E+02-4.76614E+04-2.11344E-10 1.86446E-11
 -1       933-9.33438E+05 6.92152E+01-6.86048E+02-7.02561E+04-6.43468E-11 6.41194E-11
 -1       934-9.33436E+05 3.41521E+01-7.13359E+02-4.76751E+04 4.85670E-10-1.08230E-10
 -1       935-9.33365E+05 1.25363E+01-1.12579E+03-7.02063E+04-6.71662E-10-5.38876E-10
 -1       936-9.33313E+05-1.37422E+01-2.06673E+03-4.77114E+04 3.60160E-10 2.74213E-10
 -1       937-9.33476E+05-2.49755E+02-4.18716E+03-7.00982E+04 4.43833E-10-8.09905E-10
 -1       938-9.32913E+05-2.09541E+02-8.10588E+03-4.77835E+04 3.51065E-10-8.06722E-10
 -1       939-9.37222E+05-4.74409E+03-1.81537E+04-6.95769E+04 1.51704E-09-9.03128E-10
 -1       940-9.28988E+05-4.87665E+03-3.29382E+04-4.82184E+04-6.73026E-10 1.38766E-09
 -1       941 8.12310E+05 1.93484E+04 1.39814E+05-5.11975E+04 1.09321E-09-5.16593E-10
 -1       942 8.47982E+05 1.90680E+04 7.71443E+04-7.46220E+04-6.73936E-10-1.90630E-09
 -1       943 8.28111E+05 1.08493E+02 3.43124E+04-5.08707E+04-5.56611E-10-2.92857E-10
 -1       944 8.30773E+05 6.07467E+02 1.77372E+04-7.48829E+04-5.20231E-10-8.71296E-10
 -1       945 8.29118E+05-1.98493E+02 8.60679E+03-5.08826E+04 3.77440E-10 2.55568E-10
 -1       946 8.29453E+05-4.74169E+01 4.52519E+03-7.48645E+04 9.56788E-10 1.22054E-09
 -1       947 8.29228E+05-7.67700E+01 2.48594E+03-5.08907E+04 7.82649E-10 8.95398E-10
 -1       948 8.29306E+05-5.26714E+01 1.82207E+03-7.48661E+04 3.86308E-10 4.28372E-10
 -1       949 8.29268E+05-8.84109E+01 1.98597E+03-5.08814E+04-6.94854E-10-1.27284E-09
 -1       950 8.29478E+05-9.40658E+01 3.25439E+03-7.49024E+04 1.33150E-09 1.32331E-09
 -1       951 8.29267E+05-2.19771E+02 5.98153E+03-5.08538E+04-1.69712E-09-1.16665E-09
 -1       952 8.30502E+05 2.93354E+02 1.22392E+04-7.49509E+04-1.12686E-09-8.57355E-10
 -1       953 8.28664E+05-7.41419E+01 2.36110E+04-5.08311E+04-8.76753E-10-1.25510E-10
 -1       954 8.42501E+05 1.29277E+04 5.31008E+04-7.46316E+04-5.48243E-09-6.04359E-10
 -1       955 8.17884E+05 1.30884E+04 9.61850E+04-5.12282E+04 7.47605E-10 1.02591E-09
 -1       956-6.02777E+05-8.68465E+03-4.49958E+04 3.77487E+04-1.33678E-08-4.04452E-09
 -1       957-6.13668E+05-5.66492E+03-2.43896E+04 5.23199E+04-1.45428E-09-3.55976E-09
 -1       958-6.07767E+05-3.22803E+01-1.09273E+04 3.73538E+04 1.15051E-08-7.84894E-09
 -1       959-6.08634E+05 5.60825E+01-5.62019E+03 5.27364E+04-5.78984E-09-4.03338E-09
 -1       960-6.08200E+05 2.27531E+02-2.74528E+03 3.73071E+04-1.95596E-08-8.06904E-09
 -1       961-6.08386E+05 3.16299E+02-1.44237E+03 5.27996E+04-3.21024E-08-2.43472E-09
 -1       962-6.08317E+05 2.46267E+02-8.08977E+02 3.72876E+04-1.60608E-08-8.40691E-09
 -1       963-6.08426E+05 3.60709E+02-6.11065E+02 5.28301E+04-2.38383E-08-3.17823E-09
 -1       964-6.08364E+05 2.75794E+02-7.00562E+02 3.72755E+04-1.55660E-09-9.78798E-09
 -1       965-6.08499E+05 3.84063E+02-1.17426E+03 5.28443E+04 1.91826E-08-5.83441E-09
 -1       966-6.08345E+05 3.12815E+02-2.18551E+03 3.72727E+04-9.25087E-09-9.06903E-09
 -1       967-6.08794E+05 2.31351E+02-4.46940E+03 5.28337E+04 6.40773E-09-4.58454E-09
 -1       968-6.08068E+05 1.53930E+02-8.67162E+03 3.72873E+04 1.10822E-09-9.26480E-09
 -1       969-6.12888E+05-4.27257E+03-1.93847E+04 5.26519E+04 2.35559E-10-4.93401E-09
 -1       970-6.04153E+05-6.68887E+03-3.57470E+04 3.74899E+04 3.86717E-09-9.78253E-09
 -1       971-3.82041E+05-1.79330E+03-1.34072E+04 1.33272E+04-1.98634E-08-6.34827E-10
 -1       972-3.85473E+05-1.71880E+03-7.39877E+03 1.98970E+04-1.23514E-08-1.44837E-09
 -1       973-3.83582E+05 6.54403E+01-3.29563E+03 1.32119E+04-6.01585E-09-8.03084E-10
 -1       974-3.83858E+05 7.14853E+01-1.70959E+03 2.00118E+04 9.07494E-09-2.05659E-09
 -1       975-3.83695E+05 1.08778E+02-8.45315E+02 1.32008E+04-1.97133E-10-1.90232E-09
 -1       976-3.83753E+05 1.45444E+02-4.74723E+02 2.00250E+04-1.13326E-08-1.49441E-09
 -1       977-3.83712E+05 1.04354E+02-3.20575E+02 1.31983E+04 1.58599E-08-1.84184E-09
 -1       978-3.83748E+05 1.49199E+02-3.43451E+02 2.00275E+04 4.51198E-08-3.56727E-09
 -1       979-3.83709E+05 1.08853E+02-5.24566E+02 1.31982E+04 9.51957E-09-2.27544E-09
 -1       980-3.83780E+05 1.46452E+02-9.96254E+02 2.00245E+04 8.23286E-09-3.25542E-09
 -1       981-3.83672E+05 1.27985E+02-1.92047E+03 1.32013E+04 1.95246E-09-1.64732E-09
 -1       982-3.84046E+05-1.74859E+01-3.97002E+03 2.00115E+04-6.79506E-09-1.58406E-09
 -1       983-3.83418E+05 3.72762E+01-7.69178E+03 1.32123E+04 1.03091E-08-2.22553E-09
 -1       984-3.87848E+05-4.19120E+03-1.72973E+04 1.98987E+04 8.93124E-10-2.14436E-09
 -1       985-3.79832E+05-4.29637E+03-3.13471E+04 1.33406E+04 1.68779E-08-1.84627E-09
 -3
 9999
