
 stresses (elem, integ.pnt.,sxx,syy,szz,sxy,sxz,syz) for set ELALL and time  0.1000000E+01

         1   1 -1.825094E+06 -1.834418E+04 -2.141886E+04 -9.846920E+03 -1.476035E+04  2.347719E-01
         1   2 -1.822869E+06 -1.388204E+03 -9.978770E+03 -3.779512E+03 -9.527080E+03  5.816262E-02
         1   3 -1.825077E+06  5.812737E+02 -5.699882E+03  2.288021E+03 -4.293738E+03 -1.586886E-02
         1   4 -1.825094E+06 -1.834436E+04 -2.141889E+04  1.541881E-08 -1.476035E+04  2.807887E-10
         1   5 -1.822869E+06 -1.388231E+03 -9.978774E+03  6.113165E-09 -9.527080E+03  1.040950E-09
         1   6 -1.825077E+06  5.812638E+02 -5.699883E+03  6.455279E-09 -4.293738E+03  1.405223E-09
         1   7 -1.825094E+06 -1.834418E+04 -2.141886E+04  9.846920E+03 -1.476035E+04 -2.347719E-01
         1   8 -1.822869E+06 -1.388204E+03 -9.978770E+03  3.779512E+03 -9.527080E+03 -5.816262E-02
         1   9 -1.825077E+06  5.812737E+02 -5.699882E+03 -2.288021E+03 -4.293738E+03  1.586886E-02
         1  10 -1.825094E+06 -1.834424E+04 -2.141927E+04 -9.846920E+03  6.149583E-10  1.809729E-10
         1  11 -1.822869E+06 -1.388228E+03 -9.978942E+03 -3.779512E+03  9.972429E-10  4.323877E-10
         1  12 -1.825077E+06  5.812687E+02 -5.699917E+03  2.288021E+03  4.213374E-10  2.066416E-10
         1  13 -1.825094E+06 -1.834442E+04 -2.141930E+04  6.956439E-09  1.680295E-11  1.383076E-10
         1  14 -1.822869E+06 -1.388255E+03 -9.978945E+03  6.052262E-09  5.278024E-10  2.712381E-10
         1  15 -1.825077E+06  5.812589E+02 -5.699918E+03 -3.469822E-09  1.010062E-09 -1.773409E-10
         1  16 -1.825094E+06 -1.834424E+04 -2.141927E+04  9.846920E+03 -2.513395E-11  9.059314E-11
         1  17 -1.822869E+06 -1.388228E+03 -9.978942E+03  3.779512E+03 -1.795376E-09  1.070938E-10
         1  18 -1.825077E+06  5.812687E+02 -5.699917E+03 -2.288021E+03  5.494739E-10 -5.120616E-10
         1  19 -1.825094E+06 -1.834418E+04 -2.141886E+04 -9.846920E+03  1.476035E+04 -2.347719E-01
         1  20 -1.822869E+06 -1.388204E+03 -9.978770E+03 -3.779512E+03  9.527080E+03 -5.816262E-02
         1  21 -1.825077E+06  5.812737E+02 -5.699882E+03  2.288021E+03  4.293738E+03  1.586886E-02
         1  22 -1.825094E+06 -1.834436E+04 -2.141889E+04  1.140817E-08  1.476035E+04  6.630075E-12
         1  23 -1.822869E+06 -1.388231E+03 -9.978774E+03  1.705507E-09  9.527080E+03 -5.187689E-10
         1  24 -1.825077E+06  5.812638E+02 -5.699883E+03  5.967991E-09  4.293738E+03 -1.784601E-09
         1  25 -1.825094E+06 -1.834418E+04 -2.141886E+04  9.846920E+03  1.476035E+04  2.347719E-01
         1  26 -1.822869E+06 -1.388204E+03 -9.978770E+03  3.779512E+03  9.527080E+03  5.816262E-02
         1  27 -1.825077E+06  5.812737E+02 -5.699882E+03 -2.288021E+03  4.293738E+03 -1.586886E-02
         2   1 -1.824168E+06 -7.498655E+02 -4.466076E+03 -2.446721E+02 -3.517903E+03  1.390331E-03
         2   2 -1.824002E+06 -1.493498E+01 -2.468517E+03 -4.503221E+01 -2.285636E+03  1.662561E-04
         2   3 -1.824166E+06  4.243575E+01 -1.444371E+03  1.546075E+02 -1.053366E+03 -2.630613E-04
         2   4 -1.824168E+06 -7.498656E+02 -4.466076E+03  7.061489E-09 -3.517903E+03  6.340253E-10
         2   5 -1.824002E+06 -1.493499E+01 -2.468517E+03  6.284079E-09 -2.285636E+03 -4.134725E-10
         2   6 -1.824166E+06  4.243571E+01 -1.444371E+03  3.104154E-09 -1.053366E+03  1.274058E-09
         2   7 -1.824168E+06 -7.498655E+02 -4.466076E+03  2.446721E+02 -3.517903E+03 -1.390330E-03
         2   8 -1.824002E+06 -1.493498E+01 -2.468517E+03  4.503221E+01 -2.285636E+03 -1.662572E-04
         2   9 -1.824166E+06  4.243575E+01 -1.444371E+03 -1.546075E+02 -1.053366E+03  2.630636E-04
         2  10 -1.824168E+06 -7.498689E+02 -4.466099E+03 -2.446721E+02  8.953517E-10 -5.223247E-11
         2  11 -1.824002E+06 -1.493639E+01 -2.468527E+03 -4.503221E+01  2.664950E-10  3.893379E-10
         2  12 -1.824166E+06  4.243546E+01 -1.444373E+03  1.546075E+02 -1.906744E-09  1.675225E-09
         2  13 -1.824168E+06 -7.498690E+02 -4.466099E+03 -1.327438E-09  1.150991E-09 -2.013404E-10
         2  14 -1.824002E+06 -1.493639E+01 -2.468527E+03  1.193013E-09  1.717286E-09  6.025618E-10
         2  15 -1.824166E+06  4.243541E+01 -1.444373E+03  3.705060E-09 -9.298802E-10  1.464534E-09
         2  16 -1.824168E+06 -7.498689E+02 -4.466099E+03  2.446721E+02 -2.732476E-10 -4.390934E-10
         2  17 -1.824002E+06 -1.493639E+01 -2.468527E+03  4.503221E+01 -6.823176E-10  9.060990E-10
         2  18 -1.824166E+06  4.243546E+01 -1.444373E+03 -1.546075E+02  2.033766E-09  1.213574E-09
         2  19 -1.824168E+06 -7.498655E+02 -4.466076E+03 -2.446721E+02  3.517903E+03 -1.390331E-03
         2  20 -1.824002E+06 -1.493498E+01 -2.468517E+03 -4.503221E+01  2.285636E+03 -1.662555E-04
         2  21 -1.824166E+06  4.243575E+01 -1.444371E+03  1.546075E+02  1.053366E+03  2.630648E-04
         2  22 -1.824168E+06 -7.498656E+02 -4.466076E+03  1.037064E-09  3.517903E+03 -1.049415E-09
         2  23 -1.824002E+06 -1.493499E+01 -2.468517E+03 -1.785589E-09  2.285636E+03  1.634716E-09
         2  24 -1.824166E+06  4.243571E+01 -1.444371E+03  1.635001E-08  1.053366E+03  1.699414E-09
         2  25 -1.824168E+06 -7.498655E+02 -4.466076E+03  2.446721E+02  3.517903E+03  1.390329E-03
         2  26 -1.824002E+06 -1.493498E+01 -2.468517E+03  4.503221E+01  2.285636E+03  1.662586E-04
         2  27 -1.824166E+06  4.243575E+01 -1.444371E+03 -1.546075E+02  1.053366E+03 -2.630614E-04
         3   1 -1.824105E+06 -1.530662E+01 -1.124374E+03  3.518971E+01 -8.267394E+02 -4.699096E-05
         3   2 -1.824078E+06  1.318115E+01 -7.045976E+02  2.306834E+01 -4.783182E+02 -1.782233E-05
         3   3 -1.824104E+06  9.167033E+00 -5.202790E+02  1.094715E+01 -1.299021E+02 -2.296716E-06
         3   4 -1.824105E+06 -1.530662E+01 -1.124374E+03  5.251207E-09 -8.267394E+02  1.730144E-09
         3   5 -1.824078E+06  1.318115E+01 -7.045976E+02 -4.763403E-09 -4.783182E+02  5.174999E-10
         3   6 -1.824104E+06  9.167033E+00 -5.202790E+02 -8.184295E-09 -1.299021E+02  2.738108E-10
         3   7 -1.824105E+06 -1.530662E+01 -1.124374E+03 -3.518971E+01 -8.267394E+02  4.699426E-05
         3   8 -1.824078E+06  1.318115E+01 -7.045976E+02 -2.306834E+01 -4.783182E+02  1.782336E-05
         3   9 -1.824104E+06  9.167033E+00 -5.202790E+02 -1.094715E+01 -1.299021E+02  2.297290E-06
         3  10 -1.824105E+06 -1.530680E+01 -1.124376E+03  3.518971E+01 -1.071948E-09  1.552493E-09
         3  11 -1.824078E+06  1.318109E+01 -7.045980E+02  2.306834E+01  1.459541E-09 -8.131142E-11
         3  12 -1.824104E+06  9.167028E+00 -5.202790E+02  1.094715E+01 -3.472758E-09 -5.414895E-10
         3  13 -1.824105E+06 -1.530681E+01 -1.124376E+03  5.674175E-09  1.252311E-10  1.070817E-09
         3  14 -1.824078E+06  1.318109E+01 -7.045980E+02 -3.901459E-09  1.832134E-27 -2.908004E-10
         3  15 -1.824104E+06  9.167028E+00 -5.202790E+02  5.048809E-10 -2.253182E-09 -2.441488E-10
         3  16 -1.824105E+06 -1.530680E+01 -1.124376E+03 -3.518971E+01 -6.363228E-10  6.517459E-10
         3  17 -1.824078E+06  1.318109E+01 -7.045980E+02 -2.306834E+01 -1.658337E-10 -4.460165E-10
         3  18 -1.824104E+06  9.167028E+00 -5.202790E+02 -1.094715E+01  8.639593E-10  2.765463E-11
         3  19 -1.824105E+06 -1.530662E+01 -1.124374E+03  3.518971E+01  8.267394E+02  4.699418E-05
         3  20 -1.824078E+06  1.318115E+01 -7.045976E+02  2.306834E+01  4.783182E+02  1.782225E-05
         3  21 -1.824104E+06  9.167033E+00 -5.202790E+02  1.094715E+01  1.299021E+02  2.295821E-06
         3  22 -1.824105E+06 -1.530662E+01 -1.124374E+03  1.684007E-08  8.267394E+02  4.052467E-10
         3  23 -1.824078E+06  1.318115E+01 -7.045976E+02  7.722312E-09  4.783182E+02 -1.132163E-09
         3  24 -1.824104E+06  9.167033E+00 -5.202790E+02  5.473626E-09  1.299021E+02 -7.133242E-10
         3  25 -1.824105E+06 -1.530662E+01 -1.124374E+03 -3.518971E+01  8.267394E+02 -4.699303E-05
         3  26 -1.824078E+06  1.318115E+01 -7.045976E+02 -2.306834E+01  4.783182E+02 -1.782447E-05
         3  27 -1.824104E+06  9.167033E+00 -5.202790E+02 -1.094715E+01  1.299021E+02 -2.297621E-06
         4   1 -1.824100E+06  6.739433E+00 -4.914012E+02  2.887599E+00 -3.835133E+01 -1.784714E-07
         4   2 -1.824082E+06  1.254271E+01 -5.471968E+02 -1.566042E+01  2.317945E+02 -5.862820E-06
         4   3 -1.824101E+06  1.437228E+01 -7.802499E+02 -3.420872E+01  5.019444E+02 -2.773603E-05
         4   4 -1.824100E+06  6.739433E+00 -4.914012E+02  2.117177E-09 -3.835133E+01  2.974583E-10
         4   5 -1.824082E+06  1.254271E+01 -5.471968E+02 -7.172014E-09  2.317945E+02  1.495325E-10
         4   6 -1.824101E+06  1.437228E+01 -7.802499E+02 -2.878600E-09  5.019444E+02  7.255619E-11
         4   7 -1.824100E+06  6.739433E+00 -4.914012E+02 -2.887599E+00 -3.835133E+01  1.792686E-07
         4   8 -1.824082E+06  1.254271E+01 -5.471968E+02  1.566042E+01  2.317945E+02  5.862992E-06
         4   9 -1.824101E+06  1.437228E+01 -7.802499E+02  3.420872E+01  5.019444E+02  2.773622E-05
         4  10 -1.824100E+06  6.739432E+00 -4.914012E+02  2.887599E+00 -1.831120E-09  8.825056E-11
         4  11 -1.824082E+06  1.254269E+01 -5.471969E+02 -1.566042E+01 -1.762327E-09  7.917554E-10
         4  12 -1.824101E+06  1.437222E+01 -7.802504E+02 -3.420872E+01 -9.924790E-10 -2.337869E-10
         4  13 -1.824100E+06  6.739432E+00 -4.914012E+02 -2.153948E-09 -4.420766E-09  1.255084E-10
         4  14 -1.824082E+06  1.254269E+01 -5.471969E+02  3.696658E-10  2.234797E-09  2.275387E-10
         4  15 -1.824101E+06  1.437221E+01 -7.802504E+02  1.295808E-09 -5.966781E-10  1.728723E-10
         4  16 -1.824100E+06  6.739432E+00 -4.914012E+02 -2.887599E+00 -3.532677E-10  1.798845E-10
         4  17 -1.824082E+06  1.254269E+01 -5.471969E+02  1.566042E+01  7.491070E-10 -1.349821E-10
         4  18 -1.824101E+06  1.437222E+01 -7.802504E+02  3.420872E+01  3.444528E-09  6.784764E-10
         4  19 -1.824100E+06  6.739433E+00 -4.914012E+02  2.887599E+00  3.835133E+01  1.790086E-07
         4  20 -1.824082E+06  1.254271E+01 -5.471968E+02 -1.566042E+01 -2.317945E+02  5.864280E-06
         4  21 -1.824101E+06  1.437228E+01 -7.802499E+02 -3.420872E+01 -5.019444E+02  2.773596E-05
         4  22 -1.824100E+06  6.739433E+00 -4.914012E+02  1.295462E-08  3.835133E+01 -4.856447E-11
         4  23 -1.824082E+06  1.254271E+01 -5.471968E+02 -2.842079E-09 -2.317945E+02  3.046835E-10
         4  24 -1.824101E+06  1.437228E+01 -7.802499E+02  1.218166E-08 -5.019444E+02  2.672277E-10
         4  25 -1.824100E+06  6.739433E+00 -4.914012E+02 -2.887599E+00  3.835133E+01 -1.786725E-07
         4  26 -1.824082E+06  1.254271E+01 -5.471968E+02  1.566042E+01 -2.317945E+02 -5.863592E-06
         4  27 -1.824101E+06  1.437228E+01 -7.802499E+02  3.420872E+01 -5.019444E+02 -2.773526E-05
         5   1 -1.824117E+06  1.417016E+01 -9.814624E+02 -4.193761E+01  6.617284E+02 -4.482737E-05
         5   2 -1.824062E+06  3.652499E+01 -1.632982E+03 -9.370714E+01  1.468100E+03 -2.222188E-04
         5   3 -1.824118E+06  3.867732E+01 -2.815690E+03 -1.454767E+02  2.274471E+03 -5.344711E-04
         5   4 -1.824117E+06  1.417016E+01 -9.814624E+02  5.573762E-08  6.617284E+02 -4.279139E-10
         5   5 -1.824062E+06  3.652497E+01 -1.632982E+03  1.907271E-08  1.468100E+03 -1.222328E-09
         5   6 -1.824118E+06  3.867728E+01 -2.815690E+03 -6.298603E-09  2.274471E+03 -9.918262E-10
         5   7 -1.824117E+06  1.417016E+01 -9.814624E+02  4.193761E+01  6.617284E+02  4.482650E-05
         5   8 -1.824062E+06  3.652499E+01 -1.632982E+03  9.370714E+01  1.468100E+03  2.222160E-04
         5   9 -1.824118E+06  3.867732E+01 -2.815690E+03  1.454767E+02  2.274471E+03  5.344690E-04
         5  10 -1.824117E+06  1.417004E+01 -9.814632E+02 -4.193761E+01 -1.623480E-08 -1.196429E-09
         5  11 -1.824062E+06  3.652441E+01 -1.632986E+03 -9.370714E+01 -8.228967E-09 -1.690506E-09
         5  12 -1.824118E+06  3.867593E+01 -2.815700E+03 -1.454767E+02  3.379376E-09 -1.792425E-09
         5  13 -1.824117E+06  1.417004E+01 -9.814632E+02 -1.907140E-09  1.241027E-09 -4.641769E-10
         5  14 -1.824062E+06  3.652439E+01 -1.632986E+03 -4.580399E-09  2.772875E-09 -1.687729E-09
         5  15 -1.824118E+06  3.867589E+01 -2.815700E+03 -1.872744E-09 -3.667440E-10 -1.682718E-09
         5  16 -1.824117E+06  1.417004E+01 -9.814632E+02  4.193761E+01  1.842156E-08  2.364946E-10
         5  17 -1.824062E+06  3.652441E+01 -1.632986E+03  9.370714E+01  7.988929E-09 -1.619474E-09
         5  18 -1.824118E+06  3.867593E+01 -2.815700E+03  1.454767E+02 -4.001481E-09 -1.516666E-09
         5  19 -1.824117E+06  1.417016E+01 -9.814624E+02 -4.193761E+01 -6.617284E+02  4.482520E-05
         5  20 -1.824062E+06  3.652499E+01 -1.632982E+03 -9.370714E+01 -1.468100E+03  2.222153E-04
         5  21 -1.824118E+06  3.867732E+01 -2.815690E+03 -1.454767E+02 -2.274471E+03  5.344675E-04
         5  22 -1.824117E+06  1.417016E+01 -9.814624E+02 -4.020792E-08 -6.617284E+02 -5.121317E-10
         5  23 -1.824062E+06  3.652497E+01 -1.632982E+03 -1.963034E-08 -1.468100E+03 -2.107889E-09
         5  24 -1.824118E+06  3.867728E+01 -2.815690E+03  1.156826E-08 -2.274471E+03 -2.381947E-09
         5  25 -1.824117E+06  1.417016E+01 -9.814624E+02  4.193761E+01 -6.617284E+02 -4.482624E-05
         5  26 -1.824062E+06  3.652499E+01 -1.632982E+03  9.370714E+01 -1.468100E+03 -2.222197E-04
         5  27 -1.824118E+06  3.867732E+01 -2.815690E+03  1.454767E+02 -2.274471E+03 -5.344725E-04
         6   1 -1.824205E+06  6.109685E+01 -3.701975E+03 -2.175089E+02  2.863053E+03 -1.005903E-03
         6   2 -1.823957E+06  1.155661E+02 -6.430451E+03 -3.093899E+02  6.043841E+03 -3.020427E-03
         6   3 -1.824209E+06 -1.702458E+02 -1.131934E+04 -4.012698E+02  9.224565E+03 -5.979042E-03
         6   4 -1.824205E+06  6.109676E+01 -3.701975E+03 -3.646719E-08  2.863053E+03 -2.870146E-10
         6   5 -1.823957E+06  1.155659E+02 -6.430451E+03 -1.251743E-08  6.043841E+03  8.047120E-10
         6   6 -1.824209E+06 -1.702461E+02 -1.131934E+04  1.208821E-08  9.224565E+03  1.506456E-09
         6   7 -1.824205E+06  6.109685E+01 -3.701975E+03  2.175089E+02  2.863053E+03  1.005902E-03
         6   8 -1.823957E+06  1.155661E+02 -6.430451E+03  3.093899E+02  6.043841E+03  3.020428E-03
         6   9 -1.824209E+06 -1.702458E+02 -1.131934E+04  4.012698E+02  9.224565E+03  5.979045E-03
         6  10 -1.824205E+06  6.109464E+01 -3.701991E+03 -2.175089E+02  1.933318E-08 -8.542751E-10
         6  11 -1.823957E+06  1.155563E+02 -6.430520E+03 -3.093899E+02  9.864861E-09  1.094771E-09
         6  12 -1.824209E+06 -1.702687E+02 -1.131951E+04 -4.012698E+02 -5.922114E-09  1.818589E-09
         6  13 -1.824205E+06  6.109455E+01 -3.701991E+03  1.873535E-09 -3.443698E-09 -8.401902E-10
         6  14 -1.823957E+06  1.155561E+02 -6.430520E+03  4.901249E-09 -2.855192E-09  8.364344E-10
         6  15 -1.824209E+06 -1.702690E+02 -1.131951E+04 -1.218617E-09 -8.985718E-11  1.793678E-09
         6  16 -1.824205E+06  6.109464E+01 -3.701991E+03  2.175089E+02 -1.768367E-08 -7.993221E-10
         6  17 -1.823957E+06  1.155563E+02 -6.430520E+03  3.093899E+02 -1.056770E-08  5.780518E-10
         6  18 -1.824209E+06 -1.702687E+02 -1.131951E+04  4.012698E+02  5.099315E-09  1.621715E-09
         6  19 -1.824205E+06  6.109685E+01 -3.701975E+03 -2.175089E+02 -2.863053E+03  1.005902E-03
         6  20 -1.823957E+06  1.155661E+02 -6.430451E+03 -3.093899E+02 -6.043841E+03  3.020429E-03
         6  21 -1.824209E+06 -1.702458E+02 -1.131934E+04 -4.012698E+02 -9.224565E+03  5.979046E-03
         6  22 -1.824205E+06  6.109676E+01 -3.701975E+03  5.526824E-08 -2.863053E+03 -1.386899E-09
         6  23 -1.823957E+06  1.155659E+02 -6.430451E+03  1.371675E-08 -6.043841E+03  8.957695E-10
         6  24 -1.824209E+06 -1.702461E+02 -1.131934E+04 -8.089327E-09 -9.224565E+03  2.104743E-09
         6  25 -1.824205E+06  6.109685E+01 -3.701975E+03  2.175089E+02 -2.863053E+03 -1.005904E-03
         6  26 -1.823957E+06  1.155661E+02 -6.430451E+03  3.093899E+02 -6.043841E+03 -3.020427E-03
         6  27 -1.824209E+06 -1.702458E+02 -1.131934E+04  4.012698E+02 -9.224565E+03 -5.979042E-03
         7   1 -1.824871E+06  4.406204E+02 -1.485426E+04 -1.663427E+03  1.153120E+04 -3.098333E-02
         7   2 -1.823139E+06 -1.641711E+02 -2.589808E+04  4.608282E+02  2.446130E+04  1.820819E-02
         7   3 -1.824891E+06 -7.946777E+03 -4.717185E+04  2.585135E+03  3.739136E+04  1.561360E-01
         7   4 -1.824871E+06  4.406152E+02 -1.485426E+04 -1.786897E-09  1.153120E+04  1.428108E-09
         7   5 -1.823139E+06 -1.641715E+02 -2.589808E+04 -7.130058E-09  2.446130E+04  1.135732E-09
         7   6 -1.824891E+06 -7.946789E+03 -4.717185E+04 -1.071180E-08  3.739136E+04  1.249342E-09
         7   7 -1.824871E+06  4.406204E+02 -1.485426E+04  1.663427E+03  1.153120E+04  3.098333E-02
         7   8 -1.823139E+06 -1.641711E+02 -2.589808E+04 -4.608282E+02  2.446130E+04 -1.820819E-02
         7   9 -1.824891E+06 -7.946777E+03 -4.717185E+04 -2.585135E+03  3.739136E+04 -1.561360E-01
         7  10 -1.824872E+06  4.405846E+02 -1.485451E+04 -1.663427E+03 -8.617279E-10  1.448069E-09
         7  11 -1.823140E+06 -1.643323E+02 -2.589921E+04  4.608282E+02 -2.098815E-09  7.099517E-10
         7  12 -1.824892E+06 -7.947153E+03 -4.717448E+04  2.585135E+03 -3.969612E-09  1.047335E-09
         7  13 -1.824872E+06  4.405793E+02 -1.485451E+04 -3.360616E-11  1.374908E-09  1.535602E-09
         7  14 -1.823140E+06 -1.643327E+02 -2.589921E+04 -6.230320E-09  4.760563E-09  6.278854E-10
         7  15 -1.824892E+06 -7.947166E+03 -4.717448E+04 -6.760704E-11  1.868234E-09  3.733632E-10
         7  16 -1.824872E+06  4.405846E+02 -1.485451E+04  1.663427E+03  1.383010E-09  1.521922E-09
         7  17 -1.823140E+06 -1.643323E+02 -2.589921E+04 -4.608282E+02  3.657813E-09  4.148467E-10
         7  18 -1.824892E+06 -7.947153E+03 -4.717448E+04 -2.585135E+03  4.369300E-09 -1.475621E-10
         7  19 -1.824871E+06  4.406204E+02 -1.485426E+04 -1.663427E+03 -1.153120E+04  3.098333E-02
         7  20 -1.823139E+06 -1.641711E+02 -2.589808E+04  4.608282E+02 -2.446130E+04 -1.820819E-02
         7  21 -1.824891E+06 -7.946777E+03 -4.717185E+04  2.585135E+03 -3.739136E+04 -1.561360E-01
         7  22 -1.824871E+06  4.406152E+02 -1.485426E+04  1.137178E-08 -1.153120E+04  1.661453E-09
         7  23 -1.823139E+06 -1.641715E+02 -2.589808E+04  8.647355E-09 -2.446130E+04  1.047893E-10
         7  24 -1.824891E+06 -7.946789E+03 -4.717185E+04  1.289926E-08 -3.739136E+04 -4.507093E-10
         7  25 -1.824871E+06  4.406204E+02 -1.485426E+04  1.663427E+03 -1.153120E+04 -3.098333E-02
         7  26 -1.823139E+06 -1.641711E+02 -2.589808E+04 -4.608282E+02 -2.446130E+04  1.820819E-02
         7  27 -1.824891E+06 -7.946777E+03 -4.717185E+04 -2.585135E+03 -3.739136E+04  1.561360E-01
         8   1 -1.834526E+06  6.157993E+03 -6.027885E+04 -2.424809E+04  4.558727E+04 -1.785567E+00
         8   2 -1.811135E+06 -1.470612E+04 -1.056515E+05  4.003965E+04  1.010112E+05  6.532768E+00
         8   3 -1.834691E+06 -1.943266E+05 -2.268656E+05  1.043237E+05  1.564354E+05  2.636103E+01
         8   4 -1.834526E+06  6.156885E+03 -6.027901E+04  6.664949E-08  4.558727E+04  6.316433E-10
         8   5 -1.811136E+06 -1.470914E+04 -1.056519E+05 -4.273830E-10  1.010112E+05 -6.823835E-10
         8   6 -1.834703E+06 -1.943471E+05 -2.268685E+05 -7.113957E-08  1.564354E+05 -4.188025E-10
         8   7 -1.834526E+06  6.157993E+03 -6.027885E+04  2.424809E+04  4.558727E+04  1.785567E+00
         8   8 -1.811135E+06 -1.470612E+04 -1.056515E+05 -4.003965E+04  1.010112E+05 -6.532768E+00
         8   9 -1.834691E+06 -1.943266E+05 -2.268656E+05 -1.043237E+05  1.564354E+05 -2.636103E+01
         8  10 -1.834528E+06  6.157433E+03 -6.028277E+04 -2.424809E+04 -2.223883E-08  3.526383E-10
         8  11 -1.811146E+06 -1.470887E+04 -1.056707E+05  4.003965E+04 -1.041006E-09 -1.186956E-09
         8  12 -1.834717E+06 -1.943332E+05 -2.269117E+05  1.043237E+05  2.003247E-08 -5.822317E-10
         8  13 -1.834529E+06  6.156325E+03 -6.028293E+04 -2.226436E-09  2.768235E-28 -1.542852E-10
         8  14 -1.811147E+06 -1.471189E+04 -1.056712E+05  5.196986E-11  8.075699E-11 -1.143632E-09
         8  15 -1.834729E+06 -1.943537E+05 -2.269147E+05 -2.512414E-09 -1.163551E-09 -4.931541E-10
         8  16 -1.834528E+06  6.157433E+03 -6.028277E+04  2.424809E+04  2.101798E-08 -6.355168E-10
         8  17 -1.811146E+06 -1.470887E+04 -1.056707E+05 -4.003965E+04 -5.463940E-10 -1.178015E-09
         8  18 -1.834717E+06 -1.943332E+05 -2.269117E+05 -1.043237E+05 -1.944565E-08 -4.257974E-10
         8  19 -1.834526E+06  6.157993E+03 -6.027885E+04 -2.424809E+04 -4.558727E+04  1.785567E+00
         8  20 -1.811135E+06 -1.470612E+04 -1.056515E+05  4.003965E+04 -1.010112E+05 -6.532768E+00
         8  21 -1.834691E+06 -1.943266E+05 -2.268656E+05  1.043237E+05 -1.564354E+05 -2.636103E+01
         8  22 -1.834526E+06  6.156885E+03 -6.027901E+04 -5.281935E-08 -4.558727E+04 -9.404612E-10
         8  23 -1.811136E+06 -1.470914E+04 -1.056519E+05  1.616021E-09 -1.010112E+05 -1.609633E-09
         8  24 -1.834703E+06 -1.943471E+05 -2.268685E+05  6.859902E-08 -1.564354E+05 -6.147441E-10
         8  25 -1.834526E+06  6.157993E+03 -6.027885E+04  2.424809E+04 -4.558727E+04 -1.785567E+00
         8  26 -1.811135E+06 -1.470612E+04 -1.056515E+05 -4.003965E+04 -1.010112E+05  6.532768E+00
         8  27 -1.834691E+06 -1.943266E+05 -2.268656E+05 -1.043237E+05 -1.564354E+05  2.636103E+01
         9   1  1.541215E+06  4.764160E+06  1.523028E+06 -9.781255E+05  6.715372E+04  4.070465E+05
         9   2  1.082446E+06  3.619408E+06  1.022867E+06 -7.559854E+05  2.054536E+05  1.732632E+05
         9   3  7.937181E+05  2.551000E+06  7.170992E+05 -8.616337E+05  1.962429E+05 -6.016569E+04
         9   4  1.746897E+05 -7.585888E+05  2.008355E+05 -8.729536E+05  6.773769E+04  1.408373E+05
         9   5  1.802776E+04 -7.789094E+05  9.255082E+04 -7.092596E+05  2.057956E+05  9.280080E+04
         9   6  1.247933E+01 -7.556321E+05  5.068500E+04 -8.733765E+05  1.959127E+05  4.467836E+04
         9   7 -1.193970E+06 -6.253337E+06 -1.123246E+06 -7.686850E+05  6.823599E+04 -1.230314E+05
         9   8 -1.047631E+06 -5.159017E+06 -8.388400E+05 -6.628467E+05  2.061273E+05  1.289557E+04
         9   9 -7.943625E+05 -4.051840E+06 -6.162495E+05 -8.850391E+05  1.955774E+05  1.489760E+05
         9  10  1.541166E+06  4.763982E+06  1.522711E+06 -9.781475E+05 -1.135974E-09 -6.140864E-10
         9  11  1.082393E+06  3.619365E+06  1.022732E+06 -7.560141E+05 -2.915261E-09 -1.398158E-09
         9  12  7.936758E+05  2.550986E+06  7.170201E+05 -8.616243E+05 -7.111104E-10 -1.464897E-09
         9  13  1.746795E+05 -7.586114E+05  2.007895E+05 -8.729613E+05 -1.039108E-10 -3.360376E-11
         9  14  1.797995E+04 -7.789300E+05  9.245496E+04 -7.092750E+05 -1.729861E-09  2.909895E-11
         9  15 -2.927556E+01 -7.556446E+05  5.060908E+04 -8.733836E+05 -2.005826E-09  2.265816E-11
         9  16 -1.193979E+06 -6.253355E+06 -1.123283E+06 -7.686783E+05 -6.772538E-10  7.363907E-10
         9  17 -1.047677E+06 -5.159029E+06 -8.389201E+05 -6.628488E+05  9.455641E-10  1.303523E-09
         9  18 -7.944096E+05 -4.051874E+06 -6.163636E+05 -8.850626E+05  1.741523E-10  1.573142E-09
         9  19  1.541215E+06  4.764160E+06  1.523028E+06 -9.781255E+05 -6.715372E+04 -4.070465E+05
         9  20  1.082446E+06  3.619408E+06  1.022867E+06 -7.559854E+05 -2.054536E+05 -1.732632E+05
         9  21  7.937181E+05  2.551000E+06  7.170992E+05 -8.616337E+05 -1.962429E+05  6.016569E+04
         9  22  1.746897E+05 -7.585888E+05  2.008355E+05 -8.729536E+05 -6.773769E+04 -1.408373E+05
         9  23  1.802776E+04 -7.789094E+05  9.255082E+04 -7.092596E+05 -2.057956E+05 -9.280080E+04
         9  24  1.247933E+01 -7.556321E+05  5.068500E+04 -8.733765E+05 -1.959127E+05 -4.467836E+04
         9  25 -1.193970E+06 -6.253337E+06 -1.123246E+06 -7.686850E+05 -6.823599E+04  1.230314E+05
         9  26 -1.047631E+06 -5.159017E+06 -8.388400E+05 -6.628467E+05 -2.061273E+05 -1.289557E+04
         9  27 -7.943625E+05 -4.051840E+06 -6.162495E+05 -8.850391E+05 -1.955774E+05 -1.489760E+05
        10   1  6.166157E+05  1.752662E+06  5.455557E+05 -8.839585E+05  1.487665E+05 -3.470608E+04
        10   2  3.434854E+05  6.457529E+05  2.958499E+05 -7.117484E+05  8.869102E+04 -4.767792E+04
        10   3  7.729539E+04 -4.587236E+05  5.564318E+04 -8.756716E+05  2.446771E+04 -6.072912E+04
        10   4  1.189964E+04 -7.642879E+05  3.748772E+04 -8.751518E+05  1.484968E+05  3.779814E+04
        10   5  5.398404E+03 -7.639971E+05  1.528956E+04 -7.070836E+05  8.835076E+04  2.999014E+04
        10   6  5.023976E+03 -7.633117E+05 -9.308885E+02 -8.751903E+05  2.404885E+04  2.208056E+04
        10   7 -5.932060E+05 -3.275198E+06 -4.708871E+05 -8.663712E+05  1.482285E+05  1.100144E+05
        10   8 -3.328069E+05 -2.171835E+06 -2.653474E+05 -7.024265E+05  8.801119E+04  1.074855E+05
        10   9 -6.724908E+04 -1.067795E+06 -5.748308E+04 -8.747090E+05  2.362998E+04  1.048506E+05
        10  10  6.165916E+05  1.752655E+06  5.455119E+05 -8.839544E+05 -2.446091E-09  7.882307E-10
        10  11  3.434763E+05  6.457484E+05  2.958309E+05 -7.117450E+05  1.756647E-09 -9.197922E-10
        10  12  7.729376E+04 -4.587277E+05  5.563513E+04 -8.756704E+05 -1.558976E-09 -1.661440E-09
        10  13  1.187558E+04 -7.642954E+05  3.744357E+04 -8.751564E+05 -2.157076E-09  8.258510E-11
        10  14  5.389778E+03 -7.640002E+05  1.527319E+04 -7.070857E+05 -7.447324E-10  1.847815E-10
        10  15  5.023223E+03 -7.633124E+05 -9.328959E+02 -8.751907E+05 -2.545175E-10  1.762560E-10
        10  16 -5.932329E+05 -3.275217E+06 -4.709513E+05 -8.663843E+05 -2.470909E-09 -7.192101E-10
        10  17 -3.328183E+05 -2.171850E+06 -2.653838E+05 -7.024341E+05 -4.667486E-10  8.493739E-10
        10  18 -6.725264E+04 -1.067807E+06 -5.750484E+04 -8.747110E+05 -2.418246E-09  1.864351E-09
        10  19  6.166157E+05  1.752662E+06  5.455557E+05 -8.839585E+05 -1.487665E+05  3.470608E+04
        10  20  3.434854E+05  6.457529E+05  2.958499E+05 -7.117484E+05 -8.869102E+04  4.767792E+04
        10  21  7.729539E+04 -4.587236E+05  5.564318E+04 -8.756716E+05 -2.446771E+04  6.072912E+04
        10  22  1.189964E+04 -7.642879E+05  3.748772E+04 -8.751518E+05 -1.484968E+05 -3.779814E+04
        10  23  5.398404E+03 -7.639971E+05  1.528956E+04 -7.070836E+05 -8.835076E+04 -2.999014E+04
        10  24  5.023976E+03 -7.633117E+05 -9.308885E+02 -8.751903E+05 -2.404885E+04 -2.208056E+04
        10  25 -5.932060E+05 -3.275198E+06 -4.708871E+05 -8.663712E+05 -1.482285E+05 -1.100144E+05
        10  26 -3.328069E+05 -2.171835E+06 -2.653474E+05 -7.024265E+05 -8.801119E+04 -1.074855E+05
        10  27 -6.724908E+04 -1.067795E+06 -5.748308E+04 -8.747090E+05 -2.362998E+04 -1.048506E+05
        11   1 -1.080806E+05 -1.247595E+06 -1.111782E+05 -8.654314E+05 -2.115662E+04 -7.606116E+04
        11   2 -3.858211E+05 -2.337070E+06 -3.719904E+05 -7.157065E+05 -6.202411E+04  3.421545E+04
        11   3 -7.218644E+05 -3.456412E+06 -7.200036E+05 -8.985058E+05 -2.578242E+04  1.445231E+05
        11   4  8.904546E+03 -7.665860E+05 -8.282487E+03 -8.743209E+05 -2.165145E+04  2.219969E+04
        11   5 -1.012597E+03 -7.600320E+05 -2.729825E+04 -7.081932E+05 -6.202217E+04  3.650915E+04
        11   6 -5.237694E+04 -7.677062E+05 -6.664924E+04 -8.745638E+05 -2.536690E+04  5.104938E+04
        11   7  1.258800E+05 -2.853377E+05  9.463619E+04 -8.832171E+05 -2.214885E+04  1.205357E+05
        11   8  3.836303E+05  8.193430E+05  3.172437E+05 -7.006566E+05 -6.202017E+04  3.880853E+04
        11   9  6.165855E+05  1.927649E+06  5.862154E+05 -8.505060E+05 -2.495977E+04 -4.283015E+04
        11  10 -1.080826E+05 -1.247602E+06 -1.111899E+05 -8.654327E+05 -1.263704E-09  1.735307E-09
        11  11 -3.858256E+05 -2.337072E+06 -3.719998E+05 -7.157048E+05  4.487618E-11  7.614787E-10
        11  12 -7.218707E+05 -3.456435E+06 -7.200443E+05 -8.985028E+05 -3.650374E-10 -3.425692E-10
        11  13  8.903911E+03 -7.665867E+05 -8.284291E+03 -8.743205E+05  1.991316E-10  1.477170E-10
        11  14 -1.017080E+03 -7.600345E+05 -2.730797E+04 -7.081913E+05 -5.575690E-10  7.595158E-11
        11  15 -5.237833E+04 -7.677092E+05 -6.665535E+04 -8.745628E+05 -4.061376E-10 -3.297527E-11
        11  16  1.258755E+05 -2.853534E+05  9.460797E+04 -8.832149E+05 -9.892399E-10 -1.706010E-09
        11  17  3.836257E+05  8.193403E+05  3.172337E+05 -7.006547E+05  9.609942E-10 -8.149819E-10
        11  18  6.165844E+05  1.927647E+06  5.862108E+05 -8.505068E+05  8.099467E-10  3.417601E-10
        11  19 -1.080806E+05 -1.247595E+06 -1.111782E+05 -8.654314E+05  2.115662E+04  7.606116E+04
        11  20 -3.858211E+05 -2.337070E+06 -3.719904E+05 -7.157065E+05  6.202411E+04 -3.421545E+04
        11  21 -7.218644E+05 -3.456412E+06 -7.200036E+05 -8.985058E+05  2.578242E+04 -1.445231E+05
        11  22  8.904546E+03 -7.665860E+05 -8.282487E+03 -8.743209E+05  2.165145E+04 -2.219969E+04
        11  23 -1.012597E+03 -7.600320E+05 -2.729825E+04 -7.081932E+05  6.202217E+04 -3.650915E+04
        11  24 -5.237694E+04 -7.677062E+05 -6.664924E+04 -8.745638E+05  2.536690E+04 -5.104938E+04
        11  25  1.258800E+05 -2.853377E+05  9.463619E+04 -8.832171E+05  2.214885E+04 -1.205357E+05
        11  26  3.836303E+05  8.193430E+05  3.172437E+05 -7.006566E+05  6.202017E+04 -3.880853E+04
        11  27  6.165855E+05  1.927649E+06  5.862154E+05 -8.505060E+05  2.495977E+04  4.283015E+04
        12   1 -2.288507E+06 -5.378895E+05 -1.934492E+05 -8.972448E+05 -1.265599E+05 -4.827772E+04
        12   2 -2.273806E+06 -3.476191E+05 -7.850645E+04 -8.957619E+05 -7.906415E+04 -3.277647E+04
        12   3 -2.312563E+06 -2.965346E+05 -3.550128E+04 -8.640225E+05 -3.187438E+04 -1.645513E+04
        12   4 -2.381626E+06 -4.918615E+05 -2.023198E+05 -8.391011E+05 -1.291441E+05 -4.926769E+04
        12   5 -2.343624E+06 -3.433757E+05 -8.954102E+04 -8.837348E+05 -8.078394E+04 -3.342635E+04
        12   6 -2.359259E+06 -3.342678E+05 -4.939471E+04 -8.981129E+05 -3.272718E+04 -1.677359E+04
        12   7 -2.474721E+06 -4.458088E+05 -2.111861E+05 -7.809660E+05 -1.317277E+05 -5.025835E+04
        12   8 -2.413435E+06 -3.391300E+05 -1.005751E+05 -8.717096E+05 -8.250351E+04 -3.407637E+04
        12   9 -2.405952E+06 -3.719975E+05 -6.328817E+04 -9.322001E+05 -3.357992E+04 -1.709195E+04
        12  10 -2.288525E+06 -5.378963E+05 -1.934838E+05 -8.972497E+05  2.571109E-09  2.403539E-10
        12  11 -2.273813E+06 -3.476219E+05 -7.852027E+04 -8.957640E+05  4.934666E-09  1.888523E-10
        12  12 -2.312564E+06 -2.965351E+05 -3.550371E+04 -8.640230E+05  3.147502E-09  5.199253E-10
        12  13 -2.381645E+06 -4.918686E+05 -2.023559E+05 -8.391062E+05  1.211531E-10 -1.618276E-10
        12  14 -2.343632E+06 -3.433786E+05 -8.955544E+04 -8.837370E+05  4.264392E-09  1.369456E-10
        12  15 -2.359260E+06 -3.342684E+05 -4.939726E+04 -8.981133E+05 -6.047122E-11  1.737099E-09
        12  16 -2.474740E+06 -4.458163E+05 -2.112236E+05 -7.809713E+05  2.536721E-10 -5.238857E-10
        12  17 -2.413443E+06 -3.391331E+05 -1.005901E+05 -8.717119E+05  4.644624E-09  1.869589E-10
        12  18 -2.405954E+06 -3.719981E+05 -6.329085E+04 -9.322006E+05  4.606546E-09  2.978971E-09
        12  19 -2.288507E+06 -5.378895E+05 -1.934492E+05 -8.972448E+05  1.265599E+05  4.827772E+04
        12  20 -2.273806E+06 -3.476191E+05 -7.850645E+04 -8.957619E+05  7.906415E+04  3.277647E+04
        12  21 -2.312563E+06 -2.965346E+05 -3.550128E+04 -8.640225E+05  3.187438E+04  1.645513E+04
        12  22 -2.381626E+06 -4.918615E+05 -2.023198E+05 -8.391011E+05  1.291441E+05  4.926769E+04
        12  23 -2.343624E+06 -3.433757E+05 -8.954102E+04 -8.837348E+05  8.078394E+04  3.342635E+04
        12  24 -2.359259E+06 -3.342678E+05 -4.939471E+04 -8.981129E+05  3.272718E+04  1.677359E+04
        12  25 -2.474721E+06 -4.458088E+05 -2.111861E+05 -7.809660E+05  1.317277E+05  5.025835E+04
        12  26 -2.413435E+06 -3.391300E+05 -1.005751E+05 -8.717096E+05  8.250351E+04  3.407637E+04
        12  27 -2.405952E+06 -3.719975E+05 -6.328817E+04 -9.322001E+05  3.357992E+04  1.709195E+04
        13   1 -2.279472E+06 -3.207032E+05 -2.222073E+04 -8.726304E+05 -2.549100E+04 -1.461593E+04
        13   2 -2.266637E+06 -3.058302E+05 -8.779856E+02 -8.673142E+05 -1.499697E+04 -1.178655E+04
        13   3 -2.254079E+06 -3.010216E+05  1.115245E+04 -8.647236E+05 -4.519409E+03 -8.911536E+03
        13   4 -2.353067E+06 -3.455789E+05 -3.855398E+04 -8.904376E+05 -2.655531E+04 -1.501526E+04
        13   5 -2.352419E+06 -3.370327E+05 -2.017752E+04 -8.903864E+05 -1.601360E+04 -1.216795E+04
        13   6 -2.352059E+06 -3.385610E+05 -1.115183E+04 -8.930608E+05 -5.488634E+03 -9.275161E+03
        13   7 -2.426656E+06 -3.704544E+05 -5.488751E+04 -9.082428E+05 -2.761948E+04 -1.541455E+04
        13   8 -2.438194E+06 -3.682345E+05 -3.947735E+04 -9.134554E+05 -1.703008E+04 -1.254928E+04
        13   9 -2.450029E+06 -3.760990E+05 -3.345641E+04 -9.213935E+05 -6.457681E+03 -9.638715E+03
        13  10 -2.279473E+06 -3.207036E+05 -2.222236E+04 -8.726307E+05  4.692867E-09  2.075457E-09
        13  11 -2.266637E+06 -3.058304E+05 -8.786719E+02 -8.673144E+05 -1.134697E-09  7.457457E-10
        13  12 -2.254079E+06 -3.010217E+05  1.115226E+04 -8.647236E+05 -2.604245E-09 -5.886528E-12
        13  13 -2.353068E+06 -3.455793E+05 -3.855573E+04 -8.904379E+05  2.516761E-09  1.869075E-09
        13  14 -2.352420E+06 -3.370329E+05 -2.017828E+04 -8.903865E+05 -1.136246E-09  5.583463E-10
        13  15 -2.352059E+06 -3.385611E+05 -1.115205E+04 -8.930608E+05  2.463075E-09  8.149223E-10
        13  16 -2.426657E+06 -3.704548E+05 -5.488940E+04 -9.082432E+05 -4.177434E-10  1.549352E-09
        13  17 -2.438194E+06 -3.682347E+05 -3.947819E+04 -9.134556E+05 -2.350316E-09  3.543973E-10
        13  18 -2.450029E+06 -3.760991E+05 -3.345667E+04 -9.213935E+05 -3.881486E-10  1.450376E-09
        13  19 -2.279472E+06 -3.207032E+05 -2.222073E+04 -8.726304E+05  2.549100E+04  1.461593E+04
        13  20 -2.266637E+06 -3.058302E+05 -8.779856E+02 -8.673142E+05  1.499697E+04  1.178655E+04
        13  21 -2.254079E+06 -3.010216E+05  1.115245E+04 -8.647236E+05  4.519409E+03  8.911536E+03
        13  22 -2.353067E+06 -3.455789E+05 -3.855398E+04 -8.904376E+05  2.655531E+04  1.501526E+04
        13  23 -2.352419E+06 -3.370327E+05 -2.017752E+04 -8.903864E+05  1.601360E+04  1.216795E+04
        13  24 -2.352059E+06 -3.385610E+05 -1.115183E+04 -8.930608E+05  5.488634E+03  9.275161E+03
        13  25 -2.426656E+06 -3.704544E+05 -5.488751E+04 -9.082428E+05  2.761948E+04  1.541455E+04
        13  26 -2.438194E+06 -3.682345E+05 -3.947735E+04 -9.134554E+05  1.703008E+04  1.254928E+04
        13  27 -2.450029E+06 -3.760990E+05 -3.345641E+04 -9.213935E+05  6.457681E+03  9.638715E+03
        14   1 -2.242724E+06 -2.985507E+05  1.622887E+04 -8.624365E+05 -2.749638E+03 -8.845945E+03
        14   2 -2.230955E+06 -2.917202E+05  2.293162E+04 -8.569239E+05 -9.265118E+01 -8.875103E+03
        14   3 -2.216218E+06 -2.886236E+05  2.782244E+04 -8.553127E+05  2.560222E+03 -8.892789E+03
        14   4 -2.351601E+06 -3.390280E+05 -8.445338E+03 -8.926188E+05 -3.721877E+03 -9.210757E+03
        14   5 -2.353066E+06 -3.370428E+05 -4.675430E+03 -8.907114E+05 -1.052996E+03 -9.235539E+03
        14   6 -2.351565E+06 -3.387941E+05 -2.726991E+03 -8.927054E+05  1.611709E+03 -9.248867E+03
        14   7 -2.460467E+06 -3.795050E+05 -3.312073E+04 -9.227967E+05 -4.693944E+03 -9.575504E+03
        14   8 -2.475162E+06 -3.823648E+05 -3.228381E+04 -9.244931E+05 -2.013146E+03 -9.595900E+03
        14   9 -2.486895E+06 -3.889635E+05 -3.327789E+04 -9.300910E+05  6.634137E+02 -9.604862E+03
        14  10 -2.242724E+06 -2.985507E+05  1.622871E+04 -8.624365E+05  1.300813E-09  3.855984E-10
        14  11 -2.230955E+06 -2.917203E+05  2.293147E+04 -8.569239E+05  1.541692E-10 -8.654879E-10
        14  12 -2.216218E+06 -2.886237E+05  2.782228E+04 -8.553127E+05  1.261684E-09 -5.778583E-10
        14  13 -2.351601E+06 -3.390281E+05 -8.445524E+03 -8.926189E+05 -2.844917E-10  4.029407E-10
        14  14 -2.353066E+06 -3.370429E+05 -4.675593E+03 -8.907114E+05  3.980133E-09 -5.499088E-10
        14  15 -2.351565E+06 -3.387942E+05 -2.727156E+03 -8.927054E+05  2.544497E-09 -1.085024E-09
        14  16 -2.460467E+06 -3.795051E+05 -3.312095E+04 -9.227968E+05  6.521184E-10  4.527264E-10
        14  17 -2.475162E+06 -3.823649E+05 -3.228399E+04 -9.244931E+05  2.492392E-09 -6.738750E-10
        14  18 -2.486895E+06 -3.889636E+05 -3.327807E+04 -9.300910E+05 -1.226567E-09 -1.770682E-09
        14  19 -2.242724E+06 -2.985507E+05  1.622887E+04 -8.624365E+05  2.749638E+03  8.845945E+03
        14  20 -2.230955E+06 -2.917202E+05  2.293162E+04 -8.569239E+05  9.265118E+01  8.875103E+03
        14  21 -2.216218E+06 -2.886236E+05  2.782244E+04 -8.553127E+05 -2.560222E+03  8.892789E+03
        14  22 -2.351601E+06 -3.390280E+05 -8.445338E+03 -8.926188E+05  3.721877E+03  9.210757E+03
        14  23 -2.353066E+06 -3.370428E+05 -4.675430E+03 -8.907114E+05  1.052996E+03  9.235539E+03
        14  24 -2.351565E+06 -3.387941E+05 -2.726991E+03 -8.927054E+05 -1.611709E+03  9.248867E+03
        14  25 -2.460467E+06 -3.795050E+05 -3.312073E+04 -9.227967E+05  4.693944E+03  9.575504E+03
        14  26 -2.475162E+06 -3.823648E+05 -3.228381E+04 -9.244931E+05  2.013146E+03  9.595900E+03
        14  27 -2.486895E+06 -3.889635E+05 -3.327789E+04 -9.300910E+05 -6.634137E+02  9.604862E+03
        15   1 -2.206381E+06 -2.850299E+05  3.066865E+04 -8.526200E+05  3.147872E+03 -9.255179E+03
        15   2 -2.195163E+06 -2.786958E+05  3.411778E+04 -8.472484E+05  4.237744E+03 -9.836362E+03
        15   3 -2.180776E+06 -2.756623E+05  3.699463E+04 -8.456511E+05  5.323591E+03 -1.040626E+04
        15   4 -2.351533E+06 -3.387826E+05 -2.171518E+03 -8.926459E+05  2.208786E+03 -9.607771E+03
        15   5 -2.353118E+06 -3.371325E+05 -1.560042E+03 -8.907583E+05  3.310544E+03 -1.018459E+04
        15   6 -2.351534E+06 -3.387852E+05 -1.530392E+03 -8.926450E+05  4.408268E+03 -1.075013E+04
        15   7 -2.496663E+06 -3.925331E+05 -3.501258E+04 -9.326626E+05  1.269949E+03 -9.960270E+03
        15   8 -2.511046E+06 -3.955670E+05 -3.723930E+04 -9.342579E+05  2.383605E+03 -1.053271E+04
        15   9 -2.522264E+06 -4.019063E+05 -4.005749E+04 -9.396273E+05  3.493215E+03 -1.109389E+04
        15  10 -2.206381E+06 -2.850300E+05  3.066847E+04 -8.526200E+05  1.551661E-09 -6.793702E-10
        15  11 -2.195164E+06 -2.786959E+05  3.411756E+04 -8.472484E+05  7.950514E-10  1.374396E-10
        15  12 -2.180776E+06 -2.756624E+05  3.699438E+04 -8.456510E+05  1.079407E-09 -3.915004E-10
        15  13 -2.351534E+06 -3.387827E+05 -2.171700E+03 -8.926459E+05 -2.063919E-09 -4.746835E-10
        15  14 -2.353118E+06 -3.371326E+05 -1.560257E+03 -8.907583E+05  1.608376E-09  3.760777E-10
        15  15 -2.351534E+06 -3.387854E+05 -1.530645E+03 -8.926450E+05 -4.021492E-09 -1.833501E-10
        15  16 -2.496663E+06 -3.925332E+05 -3.501277E+04 -9.326626E+05  1.457738E-09 -1.791436E-10
        15  17 -2.511046E+06 -3.955672E+05 -3.723952E+04 -9.342579E+05  6.804738E-10  1.067140E-09
        15  18 -2.522264E+06 -4.019064E+05 -4.005774E+04 -9.396273E+05 -5.865332E-09  2.368746E-10
        15  19 -2.206381E+06 -2.850299E+05  3.066865E+04 -8.526200E+05 -3.147872E+03  9.255179E+03
        15  20 -2.195163E+06 -2.786958E+05  3.411778E+04 -8.472484E+05 -4.237744E+03  9.836362E+03
        15  21 -2.180776E+06 -2.756623E+05  3.699463E+04 -8.456511E+05 -5.323591E+03  1.040626E+04
        15  22 -2.351533E+06 -3.387826E+05 -2.171518E+03 -8.926459E+05 -2.208786E+03  9.607771E+03
        15  23 -2.353118E+06 -3.371325E+05 -1.560042E+03 -8.907583E+05 -3.310544E+03  1.018459E+04
        15  24 -2.351534E+06 -3.387852E+05 -1.530392E+03 -8.926450E+05 -4.408268E+03  1.075013E+04
        15  25 -2.496663E+06 -3.925331E+05 -3.501258E+04 -9.326626E+05 -1.269949E+03  9.960270E+03
        15  26 -2.511046E+06 -3.955670E+05 -3.723930E+04 -9.342579E+05 -2.383605E+03  1.053271E+04
        15  27 -2.522264E+06 -4.019063E+05 -4.005749E+04 -9.396273E+05 -3.493215E+03  1.109389E+04
        16   1 -2.171405E+06 -2.721485E+05  3.902179E+04 -8.430454E+05  5.766014E+03 -1.080174E+04
        16   2 -2.160603E+06 -2.660756E+05  4.088074E+04 -8.379146E+05  7.341511E+03 -1.116004E+04
        16   3 -2.146837E+06 -2.631948E+05  4.179139E+04 -8.364194E+05  8.911697E+03 -1.150357E+04
        16   4 -2.351581E+06 -3.387579E+05 -1.711184E+03 -8.926160E+05  4.862867E+03 -1.114109E+04
        16   5 -2.353062E+06 -3.371531E+05 -2.569650E+03 -8.908016E+05  6.453803E+03 -1.149371E+04
        16   6 -2.351581E+06 -3.387434E+05 -4.388881E+03 -8.926226E+05  8.039408E+03 -1.183156E+04
        16   7 -2.531723E+06 -4.053645E+05 -4.244595E+04 -9.421731E+05  3.960011E+03 -1.148033E+04
        16   8 -2.545483E+06 -4.082278E+05 -4.602243E+04 -9.436734E+05  5.566395E+03 -1.182726E+04
        16   9 -2.556285E+06 -4.142892E+05 -5.057220E+04 -9.488091E+05  7.167427E+03 -1.215944E+04
        16  10 -2.171405E+06 -2.721486E+05  3.902151E+04 -8.430453E+05 -2.767857E-09 -8.705624E-10
        16  11 -2.160603E+06 -2.660758E+05  4.088041E+04 -8.379146E+05  3.870817E-10  3.167828E-10
        16  12 -2.146837E+06 -2.631950E+05  4.179099E+04 -8.364193E+05 -1.033810E-09 -2.519594E-10
        16  13 -2.351581E+06 -3.387581E+05 -1.711461E+03 -8.926160E+05 -8.006813E-10 -6.549958E-10
        16  14 -2.353062E+06 -3.371532E+05 -2.569976E+03 -8.908015E+05  1.396619E-10 -3.497453E-10
        16  15 -2.351581E+06 -3.387435E+05 -4.389265E+03 -8.926225E+05 -4.390302E-10 -7.953679E-11
        16  16 -2.531723E+06 -4.053646E+05 -4.244623E+04 -9.421731E+05 -4.030398E-09 -2.259953E-10
        16  17 -2.545483E+06 -4.082279E+05 -4.602275E+04 -9.436734E+05 -2.219552E-09 -8.880792E-10
        16  18 -2.556285E+06 -4.142894E+05 -5.057258E+04 -9.488091E+05  6.835018E-10  1.549041E-10
        16  19 -2.171405E+06 -2.721485E+05  3.902179E+04 -8.430454E+05 -5.766014E+03  1.080174E+04
        16  20 -2.160603E+06 -2.660756E+05  4.088074E+04 -8.379146E+05 -7.341511E+03  1.116004E+04
        16  21 -2.146837E+06 -2.631948E+05  4.179139E+04 -8.364194E+05 -8.911697E+03  1.150357E+04
        16  22 -2.351581E+06 -3.387579E+05 -1.711184E+03 -8.926160E+05 -4.862867E+03  1.114109E+04
        16  23 -2.353062E+06 -3.371531E+05 -2.569650E+03 -8.908016E+05 -6.453803E+03  1.149371E+04
        16  24 -2.351581E+06 -3.387434E+05 -4.388881E+03 -8.926226E+05 -8.039408E+03  1.183156E+04
        16  25 -2.531723E+06 -4.053645E+05 -4.244595E+04 -9.421731E+05 -3.960011E+03  1.148033E+04
        16  26 -2.545483E+06 -4.082278E+05 -4.602243E+04 -9.436734E+05 -5.566395E+03  1.182726E+04
        16  27 -2.556285E+06 -4.142892E+05 -5.057220E+04 -9.488091E+05 -7.167427E+03  1.215944E+04
        17   1 -2.137962E+06 -2.598962E+05  4.250129E+04 -8.340942E+05  9.919258E+03 -1.166126E+04
        17   2 -2.127387E+06 -2.540593E+05  4.048379E+04 -8.291410E+05  1.534989E+04 -1.051524E+04
        17   3 -2.114768E+06 -2.519838E+05  3.445020E+04 -8.276396E+05  2.076732E+04 -9.333350E+03
        17   4 -2.351761E+06 -3.386801E+05 -5.781168E+03 -8.926542E+05  9.056838E+03 -1.198561E+04
        17   5 -2.352822E+06 -3.370639E+05 -1.037440E+04 -8.908297E+05  1.452418E+04 -1.082593E+04
        17   6 -2.351848E+06 -3.392169E+05 -1.901399E+04 -8.924572E+05  1.997818E+04 -9.630403E+03
        17   7 -2.565515E+06 -4.174606E+05 -5.406656E+04 -9.511957E+05  8.194741E+03 -1.230985E+04
        17   8 -2.578206E+06 -4.200644E+05 -6.123564E+04 -9.524976E+05  1.369879E+04 -1.113649E+04
        17   9 -2.588869E+06 -4.264453E+05 -7.248137E+04 -9.572517E+05  1.918937E+04 -9.927333E+03
        17  10 -2.137962E+06 -2.598964E+05  4.250085E+04 -8.340941E+05 -3.382572E-10 -5.778758E-10
        17  11 -2.127387E+06 -2.540595E+05  4.048313E+04 -8.291409E+05 -9.539020E-10 -3.661007E-10
        17  12 -2.114768E+06 -2.519840E+05  3.444922E+04 -8.276394E+05 -5.058056E-10 -2.360960E-10
        17  13 -2.351762E+06 -3.386803E+05 -5.781592E+03 -8.926541E+05 -7.174030E-11 -5.133953E-13
        17  14 -2.352823E+06 -3.370640E+05 -1.037501E+04 -8.908296E+05  3.224731E-10 -2.561247E-10
        17  15 -2.351848E+06 -3.392171E+05 -1.901491E+04 -8.924570E+05  3.533785E-10 -7.524150E-11
        17  16 -2.565515E+06 -4.174607E+05 -5.406697E+04 -9.511956E+05  1.383677E-09  4.263520E-10
        17  17 -2.578207E+06 -4.200646E+05 -6.123623E+04 -9.524975E+05 -2.689066E-10  7.399017E-11
        17  18 -2.588870E+06 -4.264455E+05 -7.248225E+04 -9.572515E+05 -9.550449E-10 -2.465105E-10
        17  19 -2.137962E+06 -2.598962E+05  4.250129E+04 -8.340942E+05 -9.919258E+03  1.166126E+04
        17  20 -2.127387E+06 -2.540593E+05  4.048379E+04 -8.291410E+05 -1.534989E+04  1.051524E+04
        17  21 -2.114768E+06 -2.519838E+05  3.445020E+04 -8.276396E+05 -2.076732E+04  9.333350E+03
        17  22 -2.351761E+06 -3.386801E+05 -5.781168E+03 -8.926542E+05 -9.056838E+03  1.198561E+04
        17  23 -2.352822E+06 -3.370639E+05 -1.037440E+04 -8.908297E+05 -1.452418E+04  1.082593E+04
        17  24 -2.351848E+06 -3.392169E+05 -1.901399E+04 -8.924572E+05 -1.997818E+04  9.630403E+03
        17  25 -2.565515E+06 -4.174606E+05 -5.406656E+04 -9.511957E+05 -8.194741E+03  1.230985E+04
        17  26 -2.578206E+06 -4.200644E+05 -6.123564E+04 -9.524976E+05 -1.369879E+04  1.113649E+04
        17  27 -2.588869E+06 -4.264453E+05 -7.248137E+04 -9.572517E+05 -1.918937E+04  9.927333E+03
        18   1 -2.105604E+06 -2.495264E+05  3.025709E+04 -8.282991E+05  2.457317E+04 -8.434789E+03
        18   2 -2.096137E+06 -2.415537E+05  1.227153E+04 -8.186978E+05  4.738329E+04 -5.502663E+02
        18   3 -2.092308E+06 -2.512090E+05 -2.651266E+04 -8.094186E+05  7.003442E+04  7.758306E+03
        18   4 -2.352972E+06 -3.380726E+05 -2.517424E+04 -8.933566E+05  2.369228E+04 -8.766295E+03
        18   5 -2.351256E+06 -3.371622E+05 -4.566347E+04 -8.902181E+05  4.694868E+04 -7.143828E+02
        18   6 -2.355269E+06 -3.539734E+05 -8.731263E+04 -8.874020E+05  7.004566E+04  7.761145E+03
        18   7 -2.600281E+06 -4.266156E+05 -8.060989E+04 -9.583910E+05  2.281178E+04 -9.097672E+03
        18   8 -2.606310E+06 -4.327655E+05 -1.036030E+05 -9.617114E+05  4.651425E+04 -8.784262E+02
        18   9 -2.618160E+06 -4.567305E+05 -1.481173E+05 -9.653542E+05  7.005689E+04  7.763980E+03
        18  10 -2.105604E+06 -2.495267E+05  3.025581E+04 -8.282989E+05  3.340221E-10  2.394545E-10
        18  11 -2.096139E+06 -2.415543E+05  1.226730E+04 -8.186977E+05  2.698617E-10 -2.936255E-10
        18  12 -2.092313E+06 -2.512104E+05 -2.652202E+04 -8.094190E+05  1.125459E-09 -5.676113E-10
        18  13 -2.352973E+06 -3.380728E+05 -2.517544E+04 -8.933564E+05  3.111930E-10 -4.821761E-10
        18  14 -2.351258E+06 -3.371628E+05 -4.566763E+04 -8.902180E+05 -3.427533E-10 -6.746717E-10
        18  15 -2.355274E+06 -3.539748E+05 -8.732200E+04 -8.874024E+05  1.674232E-09 -7.219744E-10
        18  16 -2.600282E+06 -4.266158E+05 -8.061103E+04 -9.583909E+05 -1.647727E-09 -7.986805E-10
        18  17 -2.606312E+06 -4.327661E+05 -1.036071E+05 -9.617114E+05 -2.566774E-09 -7.570922E-10
        18  18 -2.618166E+06 -4.567319E+05 -1.481267E+05 -9.653547E+05 -1.271947E-09 -2.472684E-10
        18  19 -2.105604E+06 -2.495264E+05  3.025709E+04 -8.282991E+05 -2.457317E+04  8.434789E+03
        18  20 -2.096137E+06 -2.415537E+05  1.227153E+04 -8.186978E+05 -4.738329E+04  5.502663E+02
        18  21 -2.092308E+06 -2.512090E+05 -2.651266E+04 -8.094186E+05 -7.003442E+04 -7.758306E+03
        18  22 -2.352972E+06 -3.380726E+05 -2.517424E+04 -8.933566E+05 -2.369228E+04  8.766295E+03
        18  23 -2.351256E+06 -3.371622E+05 -4.566347E+04 -8.902181E+05 -4.694868E+04  7.143828E+02
        18  24 -2.355269E+06 -3.539734E+05 -8.731263E+04 -8.874020E+05 -7.004566E+04 -7.761145E+03
        18  25 -2.600281E+06 -4.266156E+05 -8.060989E+04 -9.583910E+05 -2.281178E+04  9.097672E+03
        18  26 -2.606310E+06 -4.327655E+05 -1.036030E+05 -9.617114E+05 -4.651425E+04  8.784262E+02
        18  27 -2.618160E+06 -4.567305E+05 -1.481173E+05 -9.653542E+05 -7.005689E+04 -7.763980E+03
        19   1 -2.060538E+06 -2.603308E+05 -4.956428E+04 -8.675898E+05  8.615378E+04  1.276533E+04
        19   2 -2.096803E+06 -1.961509E+05 -1.362254E+05 -7.401561E+05  1.842314E+05  5.212807E+04
        19   3 -2.258634E+06 -4.398351E+05 -3.802466E+05 -5.373672E+05  2.791599E+05  9.987471E+04
        19   4 -2.369423E+06 -3.282185E+05 -1.118741E+05 -9.046424E+05  8.394663E+04  1.194222E+04
        19   5 -2.331165E+06 -3.517131E+05 -2.028040E+05 -8.753429E+05  1.909617E+05  5.463385E+04
        19   6 -2.420347E+06 -6.849812E+05 -4.582448E+05 -7.706550E+05  2.948384E+05  1.056692E+05
        19   7 -2.678207E+06 -3.961074E+05 -1.741868E+05 -9.416848E+05  8.174069E+04  1.111915E+04
        19   8 -2.565458E+06 -5.072231E+05 -2.693850E+05 -1.010471E+06  1.976892E+05  5.713671E+04
        19   9 -2.581950E+06 -9.299053E+05 -5.362276E+05 -1.003851E+06  3.105127E+05  1.114504E+05
        19  10 -2.060546E+06 -2.603329E+05 -4.957859E+04 -8.675907E+05  1.082281E-09 -2.042631E-10
        19  11 -2.096840E+06 -1.961630E+05 -1.362945E+05 -7.401638E+05 -2.321545E-09  8.851398E-10
        19  12 -2.258721E+06 -4.398669E+05 -3.804124E+05 -5.373897E+05 -4.087796E-10  3.172394E-10
        19  13 -2.369431E+06 -3.282205E+05 -1.118876E+05 -9.046433E+05  9.355152E-10 -6.099619E-11
        19  14 -2.331205E+06 -3.517261E+05 -2.028785E+05 -8.753513E+05 -1.338420E-09 -4.108592E-11
        19  15 -2.420444E+06 -6.850167E+05 -4.584299E+05 -7.706802E+05 -2.836938E-09  3.136427E-10
        19  16 -2.678214E+06 -3.961094E+05 -1.741997E+05 -9.416855E+05 -1.917426E-10 -3.132172E-10
        19  17 -2.565501E+06 -5.072372E+05 -2.694650E+05 -1.010480E+06  5.962606E-10 -6.647200E-10
        19  18 -2.582057E+06 -9.299448E+05 -5.364332E+05 -1.003879E+06 -4.652859E-10 -3.162375E-10
        19  19 -2.060538E+06 -2.603308E+05 -4.956428E+04 -8.675898E+05 -8.615378E+04 -1.276533E+04
        19  20 -2.096803E+06 -1.961509E+05 -1.362254E+05 -7.401561E+05 -1.842314E+05 -5.212807E+04
        19  21 -2.258634E+06 -4.398351E+05 -3.802466E+05 -5.373672E+05 -2.791599E+05 -9.987471E+04
        19  22 -2.369423E+06 -3.282185E+05 -1.118741E+05 -9.046424E+05 -8.394663E+04 -1.194222E+04
        19  23 -2.331165E+06 -3.517131E+05 -2.028040E+05 -8.753429E+05 -1.909617E+05 -5.463385E+04
        19  24 -2.420347E+06 -6.849812E+05 -4.582448E+05 -7.706550E+05 -2.948384E+05 -1.056692E+05
        19  25 -2.678207E+06 -3.961074E+05 -1.741868E+05 -9.416848E+05 -8.174069E+04 -1.111915E+04
        19  26 -2.565458E+06 -5.072231E+05 -2.693850E+05 -1.010471E+06 -1.976892E+05 -5.713671E+04
        19  27 -2.581950E+06 -9.299053E+05 -5.362276E+05 -1.003851E+06 -3.105127E+05 -1.114504E+05
        20   1 -5.693488E+05  3.157023E+04  3.686065E+04  1.696679E+04  2.543795E+04  6.958099E-01
        20   2 -5.731640E+05  2.395440E+03  1.717075E+04  6.512768E+03  1.642956E+04  1.725049E-01
        20   3 -5.693583E+05 -9.982943E+02  9.795135E+03 -3.940998E+03  7.421289E+03 -4.715119E-02
        20   4 -5.693491E+05  3.156969E+04  3.686057E+04  6.137179E-09  2.543795E+04  1.085199E-10
        20   5 -5.731640E+05  2.395360E+03  1.717073E+04  5.133407E-09  1.642956E+04  1.002882E-10
        20   6 -5.693583E+05 -9.983235E+02  9.795130E+03  4.262205E-09  7.421289E+03 -5.042665E-10
        20   7 -5.693488E+05  3.157023E+04  3.686065E+04 -1.696679E+04  2.543795E+04 -6.958099E-01
        20   8 -5.731640E+05  2.395440E+03  1.717075E+04 -6.512768E+03  1.642956E+04 -1.725049E-01
        20   9 -5.693583E+05 -9.982943E+02  9.795135E+03  3.940998E+03  7.421289E+03  4.715119E-02
        20  10 -5.693495E+05  3.157005E+04  3.685943E+04  1.696679E+04 -1.187885E-09  2.928890E-10
        20  11 -5.731643E+05  2.395368E+03  1.717024E+04  6.512768E+03  1.893582E-09  4.056284E-10
        20  12 -5.693584E+05 -9.983091E+02  9.795031E+03 -3.940998E+03  1.501032E-09 -8.180194E-10
        20  13 -5.693498E+05  3.156951E+04  3.685935E+04  1.997371E-09  5.214763E-11  1.968006E-10
        20  14 -5.731643E+05  2.395288E+03  1.717023E+04  3.911614E-09 -2.153479E-09  2.353514E-10
        20  15 -5.693584E+05 -9.983383E+02  9.795027E+03 -9.399584E-11  1.102809E-09 -7.184415E-10
        20  16 -5.693495E+05  3.157005E+04  3.685943E+04 -1.696679E+04  1.028927E-09  8.179786E-11
        20  17 -5.731643E+05  2.395368E+03  1.717024E+04 -6.512768E+03 -6.995100E-10  4.841815E-11
        20  18 -5.693584E+05 -9.983091E+02  9.795031E+03  3.940998E+03 -1.972731E-09 -6.111637E-10
        20  19 -5.693488E+05  3.157023E+04  3.686065E+04  1.696679E+04 -2.543795E+04 -6.958099E-01
        20  20 -5.731640E+05  2.395440E+03  1.717075E+04  6.512768E+03 -1.642956E+04 -1.725049E-01
        20  21 -5.693583E+05 -9.982943E+02  9.795135E+03 -3.940998E+03 -7.421289E+03  4.715119E-02
        20  22 -5.693491E+05  3.156969E+04  3.686057E+04  5.393678E-09 -2.543795E+04  2.894199E-10
        20  23 -5.731640E+05  2.395360E+03  1.717073E+04 -2.692732E-09 -1.642956E+04  3.758864E-10
        20  24 -5.693583E+05 -9.983235E+02  9.795130E+03  5.504228E-09 -7.421289E+03 -9.279664E-10
        20  25 -5.693488E+05  3.157023E+04  3.686065E+04 -1.696679E+04 -2.543795E+04  6.958099E-01
        20  26 -5.731640E+05  2.395440E+03  1.717075E+04 -6.512768E+03 -1.642956E+04  1.725049E-01
        20  27 -5.693583E+05 -9.982943E+02  9.795135E+03  3.940998E+03 -7.421289E+03 -4.715119E-02
        21   1 -5.709250E+05  1.290268E+03  7.663538E+03  4.196710E+02  6.087805E+03  4.118867E-03
        21   2 -5.712080E+05  2.698813E+01  4.203387E+03  7.419518E+01  3.988366E+03  4.770669E-04
        21   3 -5.709261E+05 -7.127224E+01  2.402310E+03 -2.712863E+02  1.888903E+03 -8.261228E-04
        21   4 -5.709250E+05  1.290268E+03  7.663538E+03  2.506108E-09  6.087805E+03 -8.345645E-10
        21   5 -5.712080E+05  2.698812E+01  4.203387E+03  8.386171E-09  3.988366E+03 -9.245798E-11
        21   6 -5.709261E+05 -7.127238E+01  2.402309E+03 -1.886739E-09  1.888903E+03  2.014610E-09
        21   7 -5.709250E+05  1.290268E+03  7.663538E+03 -4.196710E+02  6.087805E+03 -4.118869E-03
        21   8 -5.712080E+05  2.698813E+01  4.203387E+03 -7.419518E+01  3.988366E+03 -4.770670E-04
        21   9 -5.709261E+05 -7.127224E+01  2.402310E+03  2.712863E+02  1.888903E+03  8.261267E-04
        21  10 -5.709251E+05  1.290258E+03  7.663469E+03  4.196710E+02  6.262328E-10 -8.797187E-10
        21  11 -5.712081E+05  2.698386E+01  4.203357E+03  7.419518E+01 -4.348239E-11  2.480453E-10
        21  12 -5.709261E+05 -7.127320E+01  2.402303E+03 -2.712863E+02 -5.519639E-10  2.402187E-10
        21  13 -5.709251E+05  1.290258E+03  7.663469E+03  2.803615E-09 -9.817584E-10 -9.013162E-10
        21  14 -5.712081E+05  2.698385E+01  4.203357E+03  2.166560E-09  1.408326E-09 -4.921346E-11
        21  15 -5.709261E+05 -7.127334E+01  2.402303E+03 -4.384075E-09  8.204696E-10  6.381843E-10
        21  16 -5.709251E+05  1.290258E+03  7.663469E+03 -4.196710E+02  2.078214E-09 -9.217548E-10
        21  17 -5.712081E+05  2.698386E+01  4.203357E+03 -7.419518E+01 -1.097863E-09 -3.698509E-10
        21  18 -5.709261E+05 -7.127320E+01  2.402303E+03  2.712863E+02  1.694040E-09  1.031925E-09
        21  19 -5.709250E+05  1.290268E+03  7.663538E+03  4.196710E+02 -6.087805E+03 -4.118869E-03
        21  20 -5.712080E+05  2.698813E+01  4.203387E+03  7.419518E+01 -3.988366E+03 -4.770662E-04
        21  21 -5.709261E+05 -7.127224E+01  2.402310E+03 -2.712863E+02 -1.888903E+03  8.261234E-04
        21  22 -5.709250E+05  1.290268E+03  7.663538E+03  5.246161E-09 -6.087805E+03 -9.630458E-10
        21  23 -5.712080E+05  2.698812E+01  4.203387E+03  2.591023E-10 -3.988366E+03 -4.258014E-12
        21  24 -5.709261E+05 -7.127238E+01  2.402309E+03 -2.885659E-10 -1.888903E+03 -7.412098E-10
        21  25 -5.709250E+05  1.290268E+03  7.663538E+03 -4.196710E+02 -6.087805E+03  4.118867E-03
        21  26 -5.712080E+05  2.698813E+01  4.203387E+03 -7.419518E+01 -3.988366E+03  4.770662E-04
        21  27 -5.709261E+05 -7.127224E+01  2.402310E+03  2.712863E+02 -1.888903E+03 -8.261248E-04
        22   1 -5.710340E+05  2.780956E+01  1.823115E+03 -6.627768E+01  1.516217E+03 -1.620066E-04
        22   2 -5.710737E+05 -1.806728E+01  1.014773E+03 -5.239873E+01  1.014020E+03 -8.565923E-05
        22   3 -5.710342E+05 -8.846123E+00  5.473851E+02 -3.851977E+01  5.118235E+02 -3.178427E-05
        22   4 -5.710340E+05  2.780955E+01  1.823115E+03  2.901942E-09  1.516217E+03  2.064218E-09
        22   5 -5.710737E+05 -1.806729E+01  1.014773E+03 -9.892245E-10  1.014020E+03  2.070399E-10
        22   6 -5.710342E+05 -8.846126E+00  5.473851E+02 -4.399470E-10  5.118235E+02 -2.570562E-10
        22   7 -5.710340E+05  2.780956E+01  1.823115E+03  6.627768E+01  1.516217E+03  1.620106E-04
        22   8 -5.710737E+05 -1.806728E+01  1.014773E+03  5.239873E+01  1.014020E+03  8.565955E-05
        22   9 -5.710342E+05 -8.846123E+00  5.473851E+02  3.851977E+01  5.118235E+02  3.178373E-05
        22  10 -5.710340E+05  2.780894E+01  1.823111E+03 -6.627768E+01 -2.452998E-10  1.906022E-10
        22  11 -5.710737E+05 -1.806756E+01  1.014771E+03 -5.239873E+01 -7.347249E-10  4.505350E-10
        22  12 -5.710342E+05 -8.846194E+00  5.473846E+02 -3.851977E+01 -9.301959E-10  2.345004E-10
        22  13 -5.710340E+05  2.780893E+01  1.823111E+03  6.643888E-10 -1.681999E-11  7.258073E-10
        22  14 -5.710737E+05 -1.806756E+01  1.014771E+03 -1.086991E-09  6.932285E-10  4.075647E-10
        22  15 -5.710342E+05 -8.846196E+00  5.473846E+02 -2.842576E-09 -2.544782E-09  7.226527E-11
        22  16 -5.710340E+05  2.780894E+01  1.823111E+03  6.627768E+01  4.970810E-10  1.269982E-09
        22  17 -5.710737E+05 -1.806756E+01  1.014771E+03  5.239873E+01 -1.418730E-09  3.884978E-10
        22  18 -5.710342E+05 -8.846193E+00  5.473846E+02  3.851977E+01  1.006712E-09 -1.207001E-10
        22  19 -5.710340E+05  2.780956E+01  1.823115E+03 -6.627768E+01 -1.516217E+03  1.620070E-04
        22  20 -5.710737E+05 -1.806728E+01  1.014773E+03 -5.239873E+01 -1.014020E+03  8.566014E-05
        22  21 -5.710342E+05 -8.846123E+00  5.473851E+02 -3.851977E+01 -5.118235E+02  3.178486E-05
        22  22 -5.710340E+05  2.780955E+01  1.823115E+03  5.950252E-09 -1.516217E+03 -6.180106E-10
        22  23 -5.710737E+05 -1.806729E+01  1.014773E+03 -1.191065E-09 -1.014020E+03  6.364878E-10
        22  24 -5.710342E+05 -8.846126E+00  5.473851E+02  2.157287E-09 -5.118235E+02  4.047364E-10
        22  25 -5.710340E+05  2.780956E+01  1.823115E+03  6.627768E+01 -1.516217E+03 -1.620081E-04
        22  26 -5.710737E+05 -1.806728E+01  1.014773E+03  5.239873E+01 -1.014020E+03 -8.565887E-05
        22  27 -5.710342E+05 -8.846123E+00  5.473851E+02  3.851977E+01 -5.118235E+02 -3.178408E-05
        23   1 -5.710497E+05 -5.305877E+00  3.855164E+02 -2.721159E+01  4.275442E+02 -1.875600E-05
        23   2 -5.710545E+05 -3.013438E+00  1.391146E+02 -2.318469E+01  3.588003E+02 -1.341083E-05
        23   3 -5.710498E+05  1.893694E+00 -6.184979E+01 -1.915784E+01  2.900574E+02 -8.958058E-06
        23   4 -5.710497E+05 -5.305878E+00  3.855164E+02 -1.310104E-09  4.275442E+02 -1.899820E-10
        23   5 -5.710545E+05 -3.013439E+00  1.391146E+02  4.218168E-09  3.588003E+02 -9.931430E-11
        23   6 -5.710498E+05  1.893693E+00 -6.184979E+01  3.303413E-10  2.900574E+02  5.827206E-10
        23   7 -5.710497E+05 -5.305877E+00  3.855164E+02  2.721159E+01  4.275442E+02  1.875565E-05
        23   8 -5.710545E+05 -3.013438E+00  1.391146E+02  2.318469E+01  3.588003E+02  1.341067E-05
        23   9 -5.710498E+05  1.893694E+00 -6.184979E+01  1.915784E+01  2.900574E+02  8.959130E-06
        23  10 -5.710497E+05 -5.305926E+00  3.855161E+02 -2.721159E+01 -4.896480E-10 -5.392099E-11
        23  11 -5.710545E+05 -3.013472E+00  1.391143E+02 -2.318469E+01 -4.815608E-10 -2.884477E-10
        23  12 -5.710498E+05  1.893671E+00 -6.184994E+01 -1.915784E+01 -2.318783E-09  8.177740E-11
        23  13 -5.710497E+05 -5.305928E+00  3.855161E+02 -4.793694E-10 -9.479934E-11 -2.907929E-10
        23  14 -5.710545E+05 -3.013473E+00  1.391143E+02  5.899487E-09 -2.588608E-09 -5.550200E-10
        23  15 -5.710498E+05  1.893670E+00 -6.184994E+01  2.036828E-09 -1.544432E-09  1.613498E-10
        23  16 -5.710497E+05 -5.305926E+00  3.855161E+02  2.721159E+01 -1.564801E-09 -5.175445E-10
        23  17 -5.710545E+05 -3.013472E+00  1.391143E+02  2.318469E+01  3.155877E-10 -8.204642E-10
        23  18 -5.710498E+05  1.893671E+00 -6.184994E+01  1.915784E+01  2.497121E-10  2.766892E-10
        23  19 -5.710497E+05 -5.305877E+00  3.855164E+02 -2.721159E+01 -4.275442E+02  1.875600E-05
        23  20 -5.710545E+05 -3.013438E+00  1.391146E+02 -2.318469E+01 -3.588003E+02  1.341035E-05
        23  21 -5.710498E+05  1.893694E+00 -6.184979E+01 -1.915784E+01 -2.900574E+02  8.958200E-06
        23  22 -5.710497E+05 -5.305878E+00  3.855164E+02  3.776461E-10 -4.275442E+02 -3.885870E-10
        23  23 -5.710545E+05 -3.013439E+00  1.391146E+02  3.278105E-09 -3.588003E+02 -9.981481E-10
        23  24 -5.710498E+05  1.893693E+00 -6.184979E+01  1.485757E-09 -2.900574E+02 -2.755848E-10
        23  25 -5.710497E+05 -5.305877E+00  3.855164E+02  2.721159E+01 -4.275442E+02 -1.875677E-05
        23  26 -5.710545E+05 -3.013438E+00  1.391146E+02  2.318469E+01 -3.588003E+02 -1.341231E-05
        23  27 -5.710498E+05  1.893694E+00 -6.184979E+01  1.915784E+01 -2.900574E+02 -8.958761E-06
        24   1 -5.710582E+05  1.792664E+00 -1.655801E+02 -2.015707E+01  3.107083E+02 -1.009603E-05
        24   2 -5.710440E+05  9.346293E+00 -4.205104E+02 -3.326581E+01  5.184585E+02 -2.780386E-05
        24   3 -5.710583E+05  1.117288E+01 -8.122177E+02 -4.637476E+01  7.262118E+02 -5.429415E-05
        24   4 -5.710582E+05  1.792663E+00 -1.655801E+02  2.434137E-09  3.107083E+02  9.331291E-10
        24   5 -5.710440E+05  9.346291E+00 -4.205104E+02 -4.794810E-09  5.184585E+02  6.621878E-10
        24   6 -5.710583E+05  1.117288E+01 -8.122177E+02 -1.541441E-09  7.262118E+02 -1.001836E-10
        24   7 -5.710582E+05  1.792664E+00 -1.655801E+02  2.015707E+01  3.107083E+02  1.009786E-05
        24   8 -5.710440E+05  9.346293E+00 -4.205104E+02  3.326581E+01  5.184585E+02  2.780521E-05
        24   9 -5.710583E+05  1.117288E+01 -8.122177E+02  4.637476E+01  7.262118E+02  5.429401E-05
        24  10 -5.710582E+05  1.792638E+00 -1.655802E+02 -2.015707E+01  2.649783E-11  3.824918E-10
        24  11 -5.710440E+05  9.346221E+00 -4.205109E+02 -3.326581E+01 -6.199568E-10  5.032618E-10
        24  12 -5.710583E+05  1.117274E+01 -8.122187E+02 -4.637476E+01 -6.074807E-10 -8.922171E-12
        24  13 -5.710582E+05  1.792637E+00 -1.655802E+02  2.312747E-10 -3.238589E-09  4.856950E-10
        24  14 -5.710440E+05  9.346219E+00 -4.205109E+02 -2.172376E-09 -1.778279E-09  2.572550E-10
        24  15 -5.710583E+05  1.117274E+01 -8.122187E+02  2.734486E-10 -1.693597E-09  1.056620E-11
        24  16 -5.710582E+05  1.792638E+00 -1.655802E+02  2.015707E+01 -7.182415E-10  5.850258E-10
        24  17 -5.710440E+05  9.346221E+00 -4.205109E+02  3.326581E+01 -8.440099E-11 -3.546501E-11
        24  18 -5.710583E+05  1.117274E+01 -8.122187E+02  4.637476E+01  7.157153E-10  8.411700E-13
        24  19 -5.710582E+05  1.792664E+00 -1.655801E+02 -2.015707E+01 -3.107083E+02  1.009686E-05
        24  20 -5.710440E+05  9.346293E+00 -4.205104E+02 -3.326581E+01 -5.184585E+02  2.780502E-05
        24  21 -5.710583E+05  1.117288E+01 -8.122177E+02 -4.637476E+01 -7.262118E+02  5.429424E-05
        24  22 -5.710582E+05  1.792663E+00 -1.655801E+02  3.381559E-09 -3.107083E+02  4.681569E-11
        24  23 -5.710440E+05  9.346291E+00 -4.205104E+02 -3.864207E-09 -5.184585E+02 -1.611874E-10
        24  24 -5.710583E+05  1.117288E+01 -8.122177E+02  7.591845E-09 -7.262118E+02  1.275572E-10
        24  25 -5.710582E+05  1.792664E+00 -1.655801E+02  2.015707E+01 -3.107083E+02 -1.009677E-05
        24  26 -5.710440E+05  9.346293E+00 -4.205104E+02  3.326581E+01 -5.184585E+02 -2.780529E-05
        24  27 -5.710583E+05  1.117288E+01 -8.122177E+02  4.637476E+01 -7.262118E+02 -5.429405E-05
        25   1 -5.710855E+05  1.791097E+01 -1.092099E+03 -6.800990E+01  8.983348E+02 -9.849615E-05
        25   2 -5.710104E+05  3.467023E+01 -1.934971E+03 -9.533831E+01  1.855890E+03 -2.852511E-04
        25   3 -5.710858E+05 -5.162352E+01 -3.427442E+03 -1.226668E+02  2.813443E+03 -5.563824E-04
        25   4 -5.710855E+05  1.791096E+01 -1.092099E+03  1.735425E-09  8.983348E+02 -1.673644E-10
        25   5 -5.710104E+05  3.467022E+01 -1.934971E+03 -4.805265E-09  1.855890E+03  1.562832E-10
        25   6 -5.710858E+05 -5.162355E+01 -3.427442E+03 -3.392479E-09  2.813443E+03 -2.541387E-10
        25   7 -5.710855E+05  1.791097E+01 -1.092099E+03  6.800990E+01  8.983348E+02  9.849583E-05
        25   8 -5.710104E+05  3.467023E+01 -1.934971E+03  9.533831E+01  1.855890E+03  2.852513E-04
        25   9 -5.710858E+05 -5.162352E+01 -3.427442E+03  1.226668E+02  2.813443E+03  5.563819E-04
        25  10 -5.710855E+05  1.791075E+01 -1.092100E+03 -6.800990E+01 -1.194770E-09 -1.432557E-10
        25  11 -5.710104E+05  3.466931E+01 -1.934978E+03 -9.533831E+01 -2.909582E-10  7.590098E-12
        25  12 -5.710858E+05 -5.162565E+01 -3.427456E+03 -1.226668E+02 -8.466912E-10 -4.557548E-10
        25  13 -5.710855E+05  1.791075E+01 -1.092100E+03  2.801640E-09 -9.820086E-10 -5.589689E-11
        25  14 -5.710104E+05  3.466929E+01 -1.934978E+03 -4.270055E-09 -1.171442E-09 -6.317613E-11
        25  15 -5.710858E+05 -5.162567E+01 -3.427456E+03 -5.434471E-09 -9.667134E-10 -7.116944E-11
        25  16 -5.710855E+05  1.791075E+01 -1.092100E+03  6.800990E+01  1.455541E-09  4.588053E-12
        25  17 -5.710104E+05  3.466931E+01 -1.934978E+03  9.533831E+01  2.259280E-10 -1.054178E-10
        25  18 -5.710858E+05 -5.162565E+01 -3.427456E+03  1.226668E+02  6.469648E-10  3.768790E-10
        25  19 -5.710855E+05  1.791097E+01 -1.092099E+03 -6.800990E+01 -8.983348E+02  9.849595E-05
        25  20 -5.710104E+05  3.467023E+01 -1.934971E+03 -9.533831E+01 -1.855890E+03  2.852511E-04
        25  21 -5.710858E+05 -5.162352E+01 -3.427442E+03 -1.226668E+02 -2.813443E+03  5.563815E-04
        25  22 -5.710855E+05  1.791096E+01 -1.092099E+03  7.127470E-09 -8.983348E+02  4.842938E-11
        25  23 -5.710104E+05  3.467022E+01 -1.934971E+03 -2.121856E-09 -1.855890E+03 -2.645090E-10
        25  24 -5.710858E+05 -5.162355E+01 -3.427442E+03  5.059421E-09 -2.813443E+03  1.135885E-10
        25  25 -5.710855E+05  1.791097E+01 -1.092099E+03  6.800990E+01 -8.983348E+02 -9.849594E-05
        25  26 -5.710104E+05  3.467023E+01 -1.934971E+03  9.533831E+01 -1.855890E+03 -2.852516E-04
        25  27 -5.710858E+05 -5.162352E+01 -3.427442E+03  1.226668E+02 -2.813443E+03 -5.563813E-04
        26   1 -5.712870E+05  1.334523E+02 -4.503442E+03 -5.056413E+02  3.513059E+03 -2.863757E-03
        26   2 -5.707600E+05 -5.016816E+01 -7.859213E+03  1.392087E+02  7.438552E+03  1.669406E-03
        26   3 -5.712888E+05 -2.409499E+03 -1.431625E+04  7.840509E+02  1.136397E+04  1.436421E-02
        26   4 -5.712870E+05  1.334518E+02 -4.503442E+03 -3.164394E-09  3.513059E+03 -5.141745E-10
        26   5 -5.707600E+05 -5.016820E+01 -7.859213E+03 -4.647343E-09  7.438552E+03 -4.376709E-10
        26   6 -5.712888E+05 -2.409500E+03 -1.431626E+04  4.494012E-09  1.136397E+04 -2.767485E-10
        26   7 -5.712870E+05  1.334523E+02 -4.503442E+03  5.056413E+02  3.513059E+03  2.863756E-03
        26   8 -5.707600E+05 -5.016816E+01 -7.859213E+03 -1.392087E+02  7.438552E+03 -1.669407E-03
        26   9 -5.712888E+05 -2.409499E+03 -1.431625E+04 -7.840509E+02  1.136397E+04 -1.436421E-02
        26  10 -5.712870E+05  1.334490E+02 -4.503466E+03 -5.056413E+02  9.819361E-10 -1.120832E-09
        26  11 -5.707601E+05 -5.018303E+01 -7.859317E+03  1.392087E+02 -7.166210E-10 -1.404490E-09
        26  12 -5.712889E+05 -2.409534E+03 -1.431650E+04  7.840509E+02 -3.634470E-09 -5.195497E-11
        26  13 -5.712870E+05  1.334485E+02 -4.503466E+03  1.958540E-09 -1.093542E-09 -3.835467E-10
        26  14 -5.707601E+05 -5.018307E+01 -7.859317E+03 -7.254014E-09 -2.486072E-09 -6.888443E-10
        26  15 -5.712889E+05 -2.409535E+03 -1.431650E+04 -2.464879E-09 -3.772950E-09  1.725035E-10
        26  16 -5.712870E+05  1.334490E+02 -4.503466E+03  5.056413E+02 -1.701887E-10  3.618939E-10
        26  17 -5.707601E+05 -5.018303E+01 -7.859317E+03 -1.392087E+02  3.520137E-13  2.703130E-11
        26  18 -5.712889E+05 -2.409534E+03 -1.431650E+04 -7.840509E+02  2.052794E-09  3.758176E-10
        26  19 -5.712870E+05  1.334523E+02 -4.503442E+03 -5.056413E+02 -3.513059E+03  2.863755E-03
        26  20 -5.707600E+05 -5.016816E+01 -7.859213E+03  1.392087E+02 -7.438552E+03 -1.669409E-03
        26  21 -5.712888E+05 -2.409499E+03 -1.431625E+04  7.840509E+02 -1.136397E+04 -1.436421E-02
        26  22 -5.712870E+05  1.334518E+02 -4.503442E+03  5.993180E-09 -3.513059E+03 -2.502066E-10
        26  23 -5.707600E+05 -5.016820E+01 -7.859213E+03 -3.393995E-09 -7.438552E+03 -9.384031E-10
        26  24 -5.712888E+05 -2.409500E+03 -1.431626E+04  6.212993E-09 -1.136397E+04  6.065056E-10
        26  25 -5.712870E+05  1.334523E+02 -4.503442E+03  5.056413E+02 -3.513059E+03 -2.863755E-03
        26  26 -5.707600E+05 -5.016816E+01 -7.859213E+03 -1.392087E+02 -7.438552E+03  1.669407E-03
        26  27 -5.712888E+05 -2.409499E+03 -1.431625E+04 -7.840509E+02 -1.136397E+04  1.436421E-02
        27   1 -5.742142E+05  1.864634E+03 -1.829503E+04 -7.359537E+03  1.385478E+04 -1.643841E-01
        27   2 -5.671071E+05 -4.472942E+03 -3.206414E+04  1.216290E+04  3.067869E+04  6.015591E-01
        27   3 -5.742299E+05 -5.895256E+04 -6.882829E+04  3.168529E+04  4.750288E+04  2.426520E+00
        27   4 -5.742142E+05  1.864532E+03 -1.829504E+04 -1.899070E-09  1.385478E+04 -3.736062E-10
        27   5 -5.671072E+05 -4.473221E+03 -3.206418E+04  7.332037E-10  3.067869E+04 -6.164844E-10
        27   6 -5.742310E+05 -5.895444E+04 -6.882856E+04  1.482151E-09  4.750288E+04 -2.669385E-10
        27   7 -5.742142E+05  1.864634E+03 -1.829503E+04  7.359537E+03  1.385478E+04  1.643841E-01
        27   8 -5.671071E+05 -4.472942E+03 -3.206414E+04 -1.216290E+04  3.067869E+04 -6.015591E-01
        27   9 -5.742299E+05 -5.895256E+04 -6.882829E+04 -3.168529E+04  4.750288E+04 -2.426520E+00
        27  10 -5.742144E+05  1.864582E+03 -1.829539E+04 -7.359537E+03  3.758315E-10  5.139764E-10
        27  11 -5.671081E+05 -4.473195E+03 -3.206592E+04  1.216290E+04  3.131931E-10  1.867231E-10
        27  12 -5.742323E+05 -5.895316E+04 -6.883254E+04  3.168529E+04  2.951712E-11 -1.127795E-11
        27  13 -5.742144E+05  1.864480E+03 -1.829540E+04  4.184993E-09 -2.347339E-09  2.596728E-10
        27  14 -5.671082E+05 -4.473474E+03 -3.206595E+04  2.809953E-09 -1.380201E-09 -4.474442E-10
        27  15 -5.742334E+05 -5.895505E+04 -6.883281E+04 -1.807927E-09  6.729935E-10 -2.374281E-10
        27  16 -5.742144E+05  1.864582E+03 -1.829539E+04  7.359537E+03 -3.240380E-09  3.576609E-12
        27  17 -5.671081E+05 -4.473195E+03 -3.206592E+04 -1.216290E+04 -2.493979E-09 -1.067194E-09
        27  18 -5.742323E+05 -5.895316E+04 -6.883254E+04 -3.168529E+04  3.387619E-10 -4.756965E-10
        27  19 -5.742142E+05  1.864634E+03 -1.829503E+04 -7.359537E+03 -1.385478E+04  1.643841E-01
        27  20 -5.671071E+05 -4.472942E+03 -3.206414E+04  1.216290E+04 -3.067869E+04 -6.015591E-01
        27  21 -5.742299E+05 -5.895256E+04 -6.882829E+04  3.168529E+04 -4.750288E+04 -2.426520E+00
        27  22 -5.742142E+05  1.864532E+03 -1.829504E+04 -1.565578E-09 -1.385478E+04  8.890450E-10
        27  23 -5.671072E+05 -4.473221E+03 -3.206418E+04 -3.730365E-09 -3.067869E+04 -2.902300E-10
        27  24 -5.742310E+05 -5.895444E+04 -6.882856E+04 -1.178136E-09 -4.750288E+04 -2.099888E-10
        27  25 -5.742142E+05  1.864634E+03 -1.829503E+04  7.359537E+03 -1.385478E+04 -1.643841E-01
        27  26 -5.671071E+05 -4.472942E+03 -3.206414E+04 -1.216290E+04 -3.067869E+04  6.015591E-01
        27  27 -5.742299E+05 -5.895256E+04 -6.882829E+04 -3.168529E+04 -4.750288E+04  2.426520E+00
        28   1  6.620887E+05  2.290939E+06  6.887726E+05 -3.652639E+05  2.148337E+04  2.606424E+05
        28   2  3.598142E+05  1.937967E+06  4.335166E+05 -2.370639E+05  6.580397E+04  1.380322E+05
        28   3  2.570061E+05  1.651113E+06  3.078136E+05 -2.116251E+05  6.340143E+04  1.547967E+04
        28   4  2.321114E+05  5.556460E+05  2.719063E+05 -2.391303E+05  2.158059E+04  1.822860E+05
        28   5  1.747372E+04  5.274067E+05  1.308333E+05 -1.878534E+05  6.584647E+04  1.138111E+05
        28   6 -6.830199E+03  5.559807E+05  8.197554E+04 -2.393070E+05  6.337161E+04  4.532439E+04
        28   7 -1.980221E+05 -1.176851E+06 -1.451425E+05 -1.133486E+05  2.164627E+04  1.041466E+05
        28   8 -3.249877E+05 -8.812813E+05 -1.719627E+05 -1.387553E+05  6.588521E+04  8.964394E+04
        28   9 -2.707388E+05 -5.380125E+05 -1.439234E+05 -2.669388E+05  6.333909E+04  7.511745E+04
        28  10  6.620701E+05  2.290866E+06  6.886445E+05 -3.652685E+05 -1.011812E-09  2.295527E-10
        28  11  3.598044E+05  1.937946E+06  4.334728E+05 -2.370713E+05 -9.645167E-10  4.608690E-11
        28  12  2.570018E+05  1.651111E+06  3.078056E+05 -2.116259E+05 -1.259143E-09 -5.246383E-10
        28  13  2.321020E+05  5.556102E+05  2.718431E+05 -2.391334E+05  6.361854E-11  7.736861E-11
        28  14  1.746558E+04  5.273917E+05  1.308008E+05 -1.878594E+05  6.057555E-10 -5.656526E-12
        28  15 -6.835065E+03  5.559774E+05  8.196413E+04 -2.393093E+05  1.864711E-09  2.864374E-10
        28  16 -1.980255E+05 -1.176863E+06 -1.451638E+05 -1.133504E+05  1.650281E-09 -2.294019E-10
        28  17 -3.249946E+05 -8.812911E+05 -1.719860E+05 -1.387601E+05 -1.760699E-10  5.866385E-11
        28  18 -2.707446E+05 -5.380197E+05 -1.439416E+05 -2.669427E+05  1.120145E-09  6.218753E-10
        28  19  6.620887E+05  2.290939E+06  6.887726E+05 -3.652639E+05 -2.148337E+04 -2.606424E+05
        28  20  3.598142E+05  1.937967E+06  4.335166E+05 -2.370639E+05 -6.580397E+04 -1.380322E+05
        28  21  2.570061E+05  1.651113E+06  3.078136E+05 -2.116251E+05 -6.340143E+04 -1.547967E+04
        28  22  2.321114E+05  5.556460E+05  2.719063E+05 -2.391303E+05 -2.158059E+04 -1.822860E+05
        28  23  1.747372E+04  5.274067E+05  1.308333E+05 -1.878534E+05 -6.584647E+04 -1.138111E+05
        28  24 -6.830199E+03  5.559807E+05  8.197554E+04 -2.393070E+05 -6.337161E+04 -4.532439E+04
        28  25 -1.980221E+05 -1.176851E+06 -1.451425E+05 -1.133486E+05 -2.164627E+04 -1.041466E+05
        28  26 -3.249877E+05 -8.812813E+05 -1.719627E+05 -1.387553E+05 -6.588521E+04 -8.964394E+04
        28  27 -2.707388E+05 -5.380125E+05 -1.439234E+05 -2.669388E+05 -6.333909E+04 -7.511745E+04
        29   1  2.170218E+05  1.405613E+06  2.477655E+05 -2.452882E+05  4.926502E+04  1.488076E+04
        29   2  1.311561E+05  1.082783E+06  1.659944E+05 -1.879556E+05  3.250101E+04 -1.437902E+04
        29   3  6.127979E+04  7.676250E+05  1.071810E+05 -2.355196E+05  1.430089E+04 -4.363617E+04
        29   4  9.503939E+03  5.450620E+05  6.984222E+04 -2.397524E+05  4.924414E+04  3.341548E+04
        29   5  8.249848E+02  5.414698E+05  5.515567E+04 -1.873041E+05  3.247252E+04  5.837009E+03
        29   6  7.859665E+03  5.451704E+05  6.228149E+04 -2.397556E+05  1.426432E+04 -2.175328E+04
        29   7 -1.980605E+05 -3.147878E+05 -1.081198E+05 -2.342240E+05  4.922358E+04  5.192497E+04
        29   8 -1.295242E+05  4.353548E+02 -5.569712E+04 -1.866531E+05  3.244406E+04  2.603575E+04
        29   9 -4.556320E+04  3.227640E+05  1.738125E+04 -2.439901E+05  1.422744E+04  1.219220E+02
        29  10  2.170191E+05  1.405612E+06  2.477605E+05 -2.452887E+05  6.542625E-10  7.446398E-10
        29  11  1.311549E+05  1.082782E+06  1.659921E+05 -1.879552E+05  3.118433E-10  1.839041E-10
        29  12  6.127906E+04  7.676229E+05  1.071770E+05 -2.355191E+05 -4.502006E-10 -1.199771E-09
        29  13  9.501034E+03  5.450602E+05  6.983556E+04 -2.397537E+05  2.361093E-09  5.203055E-10
        29  14  8.238431E+02  5.414695E+05  5.515363E+04 -1.873043E+05  1.174862E-09  4.624676E-11
        29  15  7.859320E+03  5.451699E+05  6.228022E+04 -2.397554E+05  6.274260E-10  5.003768E-10
        29  16 -1.980638E+05 -3.147913E+05 -1.081295E+05 -2.342260E+05  6.708923E-10 -4.711288E-10
        29  17 -1.295256E+05  4.343439E+02 -5.570037E+04 -1.866538E+05 -2.453946E-10  6.868809E-11
        29  18 -4.556341E+04  3.227640E+05  1.738087E+04 -2.439901E+05  6.681830E-11  1.344638E-09
        29  19  2.170218E+05  1.405613E+06  2.477655E+05 -2.452882E+05 -4.926502E+04 -1.488076E+04
        29  20  1.311561E+05  1.082783E+06  1.659944E+05 -1.879556E+05 -3.250101E+04  1.437902E+04
        29  21  6.127979E+04  7.676250E+05  1.071810E+05 -2.355196E+05 -1.430089E+04  4.363617E+04
        29  22  9.503939E+03  5.450620E+05  6.984222E+04 -2.397524E+05 -4.924414E+04 -3.341548E+04
        29  23  8.249848E+02  5.414698E+05  5.515567E+04 -1.873041E+05 -3.247252E+04 -5.837009E+03
        29  24  7.859665E+03  5.451704E+05  6.228149E+04 -2.397556E+05 -1.426432E+04  2.175328E+04
        29  25 -1.980605E+05 -3.147878E+05 -1.081198E+05 -2.342240E+05 -4.922358E+04 -5.192497E+04
        29  26 -1.295242E+05  4.353548E+02 -5.569712E+04 -1.866531E+05 -3.244406E+04 -2.603575E+04
        29  27 -4.556320E+04  3.227640E+05  1.738125E+04 -2.439901E+05 -1.422744E+04 -1.219220E+02
        30   1 -7.791670E+03  5.427543E+05  6.682820E+04 -2.624229E+05  1.357188E+03 -5.831498E+04
        30   2 -6.563450E+04  2.031360E+05  3.447488E+04 -1.479852E+05 -1.157508E+04 -9.242113E+04
        30   3  2.628406E+04 -9.474381E+04  6.170382E+04 -1.374780E+05 -5.267201E+03 -1.264853E+05
        30   4 -4.972590E+03  5.536629E+05  7.047572E+04 -2.395911E+05  1.310240E+03 -3.227100E+04
        30   5  1.466268E+04  5.308932E+05  1.076146E+05 -1.875038E+05 -1.157492E+04 -8.858571E+04
        30   6  1.878500E+05  5.535515E+05  2.197126E+05 -2.393140E+05 -5.217791E+03 -1.448762E+05
        30   7 -2.151199E+03  5.645741E+05  7.412605E+04 -2.167588E+05  1.265207E+03 -6.226544E+03
        30   8  9.495838E+04  8.587537E+05  1.807484E+05 -2.270435E+05 -1.157525E+04 -8.474827E+04
        30   9  3.494239E+05  1.202253E+06  3.776977E+05 -3.412565E+05 -5.162386E+03 -1.632861E+05
        30  10 -7.792584E+03  5.427507E+05  6.682181E+04 -2.624228E+05  5.951667E-10  9.268223E-10
        30  11 -6.563694E+04  2.031268E+05  3.445858E+04 -1.479861E+05 -2.048880E-09  9.097683E-11
        30  12  2.627973E+04 -9.476100E+04  6.167370E+04 -1.374785E+05  1.616893E-11 -7.447879E-10
        30  13 -4.972871E+03  5.536618E+05  7.047376E+04 -2.395910E+05  2.157001E-09  6.610258E-10
        30  14  1.466043E+04  5.308847E+05  1.075996E+05 -1.875047E+05  2.595073E-09 -6.504935E-11
        30  15  1.878444E+05  5.535290E+05  2.196732E+05 -2.393146E+05  6.210323E-10  3.485433E-10
        30  16 -2.151211E+03  5.645741E+05  7.412597E+04 -2.167588E+05  5.055926E-10 -5.868678E-10
        30  17  9.495631E+04  8.587460E+05  1.807347E+05 -2.270443E+05  1.200115E-09  7.684680E-11
        30  18  3.494167E+05  1.202224E+06  3.776476E+05 -3.412572E+05  6.460054E-10  7.588314E-10
        30  19 -7.791670E+03  5.427543E+05  6.682820E+04 -2.624229E+05 -1.357188E+03  5.831498E+04
        30  20 -6.563450E+04  2.031360E+05  3.447488E+04 -1.479852E+05  1.157508E+04  9.242113E+04
        30  21  2.628406E+04 -9.474381E+04  6.170382E+04 -1.374780E+05  5.267201E+03  1.264853E+05
        30  22 -4.972590E+03  5.536629E+05  7.047572E+04 -2.395911E+05 -1.310240E+03  3.227100E+04
        30  23  1.466268E+04  5.308932E+05  1.076146E+05 -1.875038E+05  1.157492E+04  8.858571E+04
        30  24  1.878500E+05  5.535515E+05  2.197126E+05 -2.393140E+05  5.217791E+03  1.448762E+05
        30  25 -2.151199E+03  5.645741E+05  7.412605E+04 -2.167588E+05 -1.265207E+03  6.226544E+03
        30  26  9.495838E+04  8.587537E+05  1.807484E+05 -2.270435E+05  1.157525E+04  8.474827E+04
        30  27  3.494239E+05  1.202253E+06  3.776977E+05 -3.412565E+05  5.162386E+03  1.632861E+05
        31   1 -1.007356E+06 -2.436527E+05 -8.987884E+04 -3.931829E+05 -5.108931E+04 -1.843768E+04
        31   2 -9.934760E+05 -1.670229E+05 -4.248787E+04 -3.888062E+05 -3.188027E+04 -9.935872E+03
        31   3 -9.977986E+05 -1.454671E+05 -2.376724E+04 -3.756823E+05 -1.207897E+04 -3.012945E+03
        31   4 -9.779934E+05 -2.020700E+05 -7.615796E+04 -3.537097E+05 -4.901101E+04 -1.766151E+04
        31   5 -9.648758E+05 -1.450476E+05 -3.372223E+04 -3.691962E+05 -3.150338E+04 -9.795286E+03
        31   6 -9.696222E+05 -1.427609E+05 -1.860645E+04 -3.759359E+05 -1.340335E+04 -3.509334E+03
        31   7 -9.486283E+05 -1.604821E+05 -6.243702E+04 -3.142347E+05 -4.693265E+04 -1.688507E+04
        31   8 -9.362747E+05 -1.230714E+05 -2.495672E+04 -3.495853E+05 -3.112648E+04 -9.654678E+03
        31   9 -9.414448E+05 -1.400546E+05 -1.344566E+04 -3.761897E+05 -1.472779E+04 -4.005706E+03
        31  10 -1.007359E+06 -2.436537E+05 -8.988439E+04 -3.931837E+05  9.378411E-10  1.719703E-11
        31  11 -9.934771E+05 -1.670233E+05 -4.248997E+04 -3.888065E+05  1.173868E-09  7.607554E-10
        31  12 -9.977988E+05 -1.454672E+05 -2.376753E+04 -3.756823E+05  7.965854E-10  1.649326E-09
        31  13 -9.779961E+05 -2.020710E+05 -7.616307E+04 -3.537104E+05  8.835581E-11  2.796532E-10
        31  14 -9.648769E+05 -1.450480E+05 -3.372427E+04 -3.691965E+05  4.475580E-10  8.828833E-10
        31  15 -9.696224E+05 -1.427609E+05 -1.860682E+04 -3.759360E+05  3.716837E-09  1.406226E-09
        31  16 -9.486308E+05 -1.604830E+05 -6.244170E+04 -3.142353E+05 -9.143951E-11  3.416738E-10
        31  17 -9.362758E+05 -1.230717E+05 -2.495872E+04 -3.495856E+05 -1.499497E-11  6.675354E-10
        31  18 -9.414451E+05 -1.400546E+05 -1.344610E+04 -3.761897E+05  3.487369E-09  8.475048E-10
        31  19 -1.007356E+06 -2.436527E+05 -8.987884E+04 -3.931829E+05  5.108931E+04  1.843768E+04
        31  20 -9.934760E+05 -1.670229E+05 -4.248787E+04 -3.888062E+05  3.188027E+04  9.935872E+03
        31  21 -9.977986E+05 -1.454671E+05 -2.376724E+04 -3.756823E+05  1.207897E+04  3.012945E+03
        31  22 -9.779934E+05 -2.020700E+05 -7.615796E+04 -3.537097E+05  4.901101E+04  1.766151E+04
        31  23 -9.648758E+05 -1.450476E+05 -3.372223E+04 -3.691962E+05  3.150338E+04  9.795286E+03
        31  24 -9.696222E+05 -1.427609E+05 -1.860645E+04 -3.759359E+05  1.340335E+04  3.509334E+03
        31  25 -9.486283E+05 -1.604821E+05 -6.243702E+04 -3.142347E+05  4.693265E+04  1.688507E+04
        31  26 -9.362747E+05 -1.230714E+05 -2.495672E+04 -3.495853E+05  3.112648E+04  9.654678E+03
        31  27 -9.414448E+05 -1.400546E+05 -1.344566E+04 -3.761897E+05  1.472779E+04  4.005706E+03
        32   1 -9.782348E+05 -1.519750E+05 -1.719748E+04 -3.770021E+05 -9.992477E+03 -2.988587E+03
        32   2 -9.651996E+05 -1.416998E+05 -6.976064E+03 -3.710443E+05 -5.744353E+03 -2.393498E+03
        32   3 -9.498909E+05 -1.376266E+05 -3.387273E+02 -3.688597E+05 -1.467307E+03 -1.874814E+03
        32   4 -9.672662E+05 -1.470342E+05 -1.452334E+04 -3.730721E+05 -1.089361E+04 -3.326478E+03
        32   5 -9.682237E+05 -1.426214E+05 -7.604392E+03 -3.716797E+05 -6.727794E+03 -2.762240E+03
        32   6 -9.668918E+05 -1.443943E+05 -4.204184E+03 -3.740605E+05 -2.533212E+03 -2.274466E+03
        32   7 -9.562974E+05 -1.420933E+05 -1.184917E+04 -3.691420E+05 -1.179476E+04 -3.664382E+03
        32   8 -9.712478E+05 -1.435429E+05 -8.232714E+03 -3.723150E+05 -7.711227E+03 -3.130979E+03
        32   9 -9.838922E+05 -1.511618E+05 -8.069569E+03 -3.792611E+05 -3.599067E+03 -2.674097E+03
        32  10 -9.782349E+05 -1.519750E+05 -1.719769E+04 -3.770021E+05  4.644273E-09  1.902744E-09
        32  11 -9.651996E+05 -1.416999E+05 -6.976137E+03 -3.710444E+05  5.827476E-09  7.608470E-10
        32  12 -9.498909E+05 -1.376266E+05 -3.387380E+02 -3.688597E+05  3.432746E-09 -6.386058E-10
        32  13 -9.672664E+05 -1.470342E+05 -1.452359E+04 -3.730721E+05  3.863378E-09  1.265725E-09
        32  14 -9.682238E+05 -1.426214E+05 -7.604492E+03 -3.716797E+05  3.354316E-09  5.964680E-10
        32  15 -9.668919E+05 -1.443943E+05 -4.204206E+03 -3.740605E+05 -5.100172E-10 -1.671163E-10
        32  16 -9.562976E+05 -1.420934E+05 -1.184946E+04 -3.691420E+05  4.474912E-09  6.877450E-10
        32  17 -9.712479E+05 -1.435429E+05 -8.232844E+03 -3.723150E+05  5.465911E-10  6.342500E-10
        32  18 -9.838922E+05 -1.511618E+05 -8.069607E+03 -3.792611E+05 -1.125875E-09  3.749682E-10
        32  19 -9.782348E+05 -1.519750E+05 -1.719748E+04 -3.770021E+05  9.992477E+03  2.988587E+03
        32  20 -9.651996E+05 -1.416998E+05 -6.976064E+03 -3.710443E+05  5.744353E+03  2.393498E+03
        32  21 -9.498909E+05 -1.376266E+05 -3.387273E+02 -3.688597E+05  1.467307E+03  1.874814E+03
        32  22 -9.672662E+05 -1.470342E+05 -1.452334E+04 -3.730721E+05  1.089361E+04  3.326478E+03
        32  23 -9.682237E+05 -1.426214E+05 -7.604392E+03 -3.716797E+05  6.727794E+03  2.762240E+03
        32  24 -9.668918E+05 -1.443943E+05 -4.204184E+03 -3.740605E+05  2.533212E+03  2.274466E+03
        32  25 -9.562974E+05 -1.420933E+05 -1.184917E+04 -3.691420E+05  1.179476E+04  3.664382E+03
        32  26 -9.712478E+05 -1.435429E+05 -8.232714E+03 -3.723150E+05  7.711227E+03  3.130979E+03
        32  27 -9.838922E+05 -1.511618E+05 -8.069569E+03 -3.792611E+05  3.599067E+03  2.674097E+03
        33   1 -9.385164E+05 -1.340759E+05  3.229120E+03 -3.660584E+05 -6.805409E+02 -2.233779E+03
        33   2 -9.258073E+05 -1.267966E+05  7.865926E+03 -3.599807E+05  5.655023E+02 -2.874118E+03
        33   3 -9.095592E+05 -1.233485E+05  1.181471E+04 -3.581505E+05  1.812406E+03 -3.516517E+03
        33   4 -9.667133E+05 -1.445760E+05 -3.184054E+03 -3.739016E+05 -1.725352E+03 -2.625532E+03
        33   5 -9.684766E+05 -1.426169E+05 -1.762947E+03 -3.717941E+05 -4.816038E+02 -3.266766E+03
        33   6 -9.667005E+05 -1.444884E+05 -1.027984E+03 -3.739342E+05  7.629895E+02 -3.910070E+03
        33   7 -9.949096E+05 -1.550761E+05 -9.597338E+03 -3.817445E+05 -2.770121E+03 -3.017268E+03
        33   8 -1.011145E+06 -1.584372E+05 -1.139210E+04 -3.836069E+05 -1.528647E+03 -3.659391E+03
        33   9 -1.023840E+06 -1.656284E+05 -1.387121E+04 -3.897169E+05 -2.863432E+02 -4.303592E+03
        33  10 -9.385164E+05 -1.340759E+05  3.229110E+03 -3.660584E+05 -6.648298E-10 -1.172441E-09
        33  11 -9.258073E+05 -1.267966E+05  7.865910E+03 -3.599807E+05 -2.105989E-09  8.771378E-10
        33  12 -9.095592E+05 -1.233485E+05  1.181468E+04 -3.581505E+05  7.178574E-10  4.078036E-10
        33  13 -9.667133E+05 -1.445760E+05 -3.184073E+03 -3.739016E+05 -2.213699E-09 -1.834916E-11
        33  14 -9.684766E+05 -1.426169E+05 -1.762968E+03 -3.717941E+05 -1.771092E-09  7.943252E-10
        33  15 -9.667005E+05 -1.444884E+05 -1.028013E+03 -3.739342E+05  2.137998E-10 -7.762550E-11
        33  16 -9.949096E+05 -1.550761E+05 -9.597370E+03 -3.817445E+05  7.641653E-10  1.138995E-09
        33  17 -1.011145E+06 -1.584372E+05 -1.139213E+04 -3.836069E+05 -3.084589E-09  6.324479E-10
        33  18 -1.023840E+06 -1.656285E+05 -1.387124E+04 -3.897169E+05 -1.915405E-09 -8.588445E-10
        33  19 -9.385164E+05 -1.340759E+05  3.229120E+03 -3.660584E+05  6.805409E+02  2.233779E+03
        33  20 -9.258073E+05 -1.267966E+05  7.865926E+03 -3.599807E+05 -5.655023E+02  2.874118E+03
        33  21 -9.095592E+05 -1.233485E+05  1.181471E+04 -3.581505E+05 -1.812406E+03  3.516517E+03
        33  22 -9.667133E+05 -1.445760E+05 -3.184054E+03 -3.739016E+05  1.725352E+03  2.625532E+03
        33  23 -9.684766E+05 -1.426169E+05 -1.762947E+03 -3.717941E+05  4.816038E+02  3.266766E+03
        33  24 -9.667005E+05 -1.444884E+05 -1.027984E+03 -3.739342E+05 -7.629895E+02  3.910070E+03
        33  25 -9.949096E+05 -1.550761E+05 -9.597338E+03 -3.817445E+05  2.770121E+03  3.017268E+03
        33  26 -1.011145E+06 -1.584372E+05 -1.139210E+04 -3.836069E+05  1.528647E+03  3.659391E+03
        33  27 -1.023840E+06 -1.656284E+05 -1.387121E+04 -3.897169E+05  2.863432E+02  4.303592E+03
        34   1 -8.987007E+05 -1.193524E+05  1.455957E+04 -3.551793E+05  2.174904E+03 -4.026573E+03
        34   2 -8.861292E+05 -1.122196E+05  1.798478E+04 -3.491191E+05  2.828451E+03 -4.888408E+03
        34   3 -8.699205E+05 -1.087766E+05  2.119273E+04 -3.472835E+05  3.481311E+03 -5.748160E+03
        34   4 -9.666843E+05 -1.444890E+05 -8.182180E+02 -3.739175E+05  1.128368E+03 -4.419072E+03
        34   5 -9.685030E+05 -1.426449E+05 -5.862102E+02 -3.718050E+05  1.784102E+03 -5.280135E+03
        34   6 -9.666851E+05 -1.444909E+05 -5.731415E+02 -3.739171E+05  2.439144E+03 -6.139121E+03
        34   7 -1.034662E+06 -1.696248E+05 -1.619595E+04 -3.926535E+05  8.197586E+01 -4.811517E+03
        34   8 -1.050869E+06 -1.730694E+05 -1.915740E+04 -3.944880E+05  7.399133E+02 -5.671802E+03
        34   9 -1.063440E+06 -1.802045E+05 -2.233954E+04 -4.005468E+05  1.397156E+03 -6.530014E+03
        34  10 -8.987007E+05 -1.193525E+05  1.455953E+04 -3.551793E+05 -1.615954E-09 -7.781856E-10
        34  11 -8.861292E+05 -1.122196E+05  1.798472E+04 -3.491191E+05  1.512346E-09  1.859650E-10
        34  12 -8.699205E+05 -1.087766E+05  2.119264E+04 -3.472835E+05  1.344639E-09  6.660775E-10
        34  13 -9.666843E+05 -1.444891E+05 -8.182570E+02 -3.739175E+05 -8.919591E-10 -4.749964E-10
        34  14 -9.685030E+05 -1.426450E+05 -5.862686E+02 -3.718050E+05  1.015536E-09  1.843232E-10
        34  15 -9.666851E+05 -1.444910E+05 -5.732235E+02 -3.739170E+05  2.093487E-11  6.123065E-10
        34  16 -1.034662E+06 -1.696248E+05 -1.619600E+04 -3.926535E+05  7.821377E-10 -1.493327E-10
        34  17 -1.050869E+06 -1.730695E+05 -1.915746E+04 -3.944879E+05 -1.447415E-09 -6.913722E-11
        34  18 -1.063440E+06 -1.802045E+05 -2.233962E+04 -4.005468E+05 -2.143134E-09  5.092587E-10
        34  19 -8.987007E+05 -1.193524E+05  1.455957E+04 -3.551793E+05 -2.174904E+03  4.026573E+03
        34  20 -8.861292E+05 -1.122196E+05  1.798478E+04 -3.491191E+05 -2.828451E+03  4.888408E+03
        34  21 -8.699205E+05 -1.087766E+05  2.119273E+04 -3.472835E+05 -3.481311E+03  5.748160E+03
        34  22 -9.666843E+05 -1.444890E+05 -8.182180E+02 -3.739175E+05 -1.128368E+03  4.419072E+03
        34  23 -9.685030E+05 -1.426449E+05 -5.862102E+02 -3.718050E+05 -1.784102E+03  5.280135E+03
        34  24 -9.666851E+05 -1.444909E+05 -5.731415E+02 -3.739171E+05 -2.439144E+03  6.139121E+03
        34  25 -1.034662E+06 -1.696248E+05 -1.619595E+04 -3.926535E+05 -8.197586E+01  4.811517E+03
        34  26 -1.050869E+06 -1.730694E+05 -1.915740E+04 -3.944880E+05 -7.399133E+02  5.671802E+03
        34  27 -1.063440E+06 -1.802045E+05 -2.233954E+04 -4.005468E+05 -1.397156E+03  6.530014E+03
        35   1 -8.591670E+05 -1.047827E+05  2.364736E+04 -3.443232E+05  3.790455E+03 -6.273613E+03
        35   2 -8.466908E+05 -9.771278E+04  2.649237E+04 -3.383229E+05  4.623744E+03 -7.058874E+03
        35   3 -8.306341E+05 -9.430724E+04  2.898360E+04 -3.365133E+05  5.455520E+03 -7.839630E+03
        35   4 -9.666979E+05 -1.444845E+05 -6.395029E+02 -3.739101E+05  2.751182E+03 -6.663531E+03
        35   5 -9.684880E+05 -1.426498E+05 -9.581304E+02 -3.718156E+05  3.589177E+03 -7.447111E+03
        35   6 -9.666989E+05 -1.444806E+05 -1.634381E+03 -3.739122E+05  4.425646E+03 -8.226189E+03
        35   7 -1.074218E+06 -1.841857E+05 -2.492730E+04 -4.034924E+05  1.712098E+03 -7.053378E+03
        35   8 -1.090271E+06 -1.875859E+05 -2.840969E+04 -4.053024E+05  2.554827E+03 -7.835267E+03
        35   9 -1.102745E+06 -1.946527E+05 -3.225356E+04 -4.113035E+05  3.396016E+03 -8.612656E+03
        35  10 -8.591670E+05 -1.047827E+05  2.364726E+04 -3.443232E+05  1.950201E-09  6.775820E-10
        35  11 -8.466908E+05 -9.771284E+04  2.649223E+04 -3.383229E+05  1.122066E-09 -9.024668E-10
        35  12 -8.306341E+05 -9.430731E+04  2.898343E+04 -3.365133E+05 -1.945479E-10 -9.116503E-10
        35  13 -9.666979E+05 -1.444845E+05 -6.396005E+02 -3.739101E+05  9.227372E-10  1.426513E-10
        35  14 -9.684880E+05 -1.426499E+05 -9.582588E+02 -3.718156E+05  4.450631E-10 -5.508430E-10
        35  15 -9.666989E+05 -1.444807E+05 -1.634545E+03 -3.739121E+05  1.821861E-09 -5.877849E-10
        35  16 -1.074218E+06 -1.841857E+05 -2.492740E+04 -4.034924E+05 -2.546389E-09 -1.475935E-10
        35  17 -1.090271E+06 -1.875859E+05 -2.840982E+04 -4.053024E+05  9.233285E-10 -5.066663E-10
        35  18 -1.102745E+06 -1.946528E+05 -3.225372E+04 -4.113035E+05  1.187252E-09 -1.848481E-10
        35  19 -8.591670E+05 -1.047827E+05  2.364736E+04 -3.443232E+05 -3.790455E+03  6.273613E+03
        35  20 -8.466908E+05 -9.771278E+04  2.649237E+04 -3.383229E+05 -4.623744E+03  7.058874E+03
        35  21 -8.306341E+05 -9.430724E+04  2.898360E+04 -3.365133E+05 -5.455520E+03  7.839630E+03
        35  22 -9.666979E+05 -1.444845E+05 -6.395029E+02 -3.739101E+05 -2.751182E+03  6.663531E+03
        35  23 -9.684880E+05 -1.426498E+05 -9.581304E+02 -3.718156E+05 -3.589177E+03  7.447111E+03
        35  24 -9.666989E+05 -1.444806E+05 -1.634381E+03 -3.739122E+05 -4.425646E+03  8.226189E+03
        35  25 -1.074218E+06 -1.841857E+05 -2.492730E+04 -4.034924E+05 -1.712098E+03  7.053378E+03
        35  26 -1.090271E+06 -1.875859E+05 -2.840969E+04 -4.053024E+05 -2.554827E+03  7.835267E+03
        35  27 -1.102745E+06 -1.946527E+05 -3.225356E+04 -4.113035E+05 -3.396016E+03  8.612656E+03
        36   1 -8.200211E+05 -9.037654E+04  3.095740E+04 -3.336446E+05  5.978586E+03 -8.278834E+03
        36   2 -8.075753E+05 -8.336098E+04  3.237693E+04 -3.276816E+05  8.236772E+03 -8.509947E+03
        36   3 -7.918707E+05 -8.023589E+04  3.231176E+04 -3.258594E+05  1.048710E+04 -8.719480E+03
        36   4 -9.667622E+05 -1.444611E+05 -2.152156E+03 -3.739279E+05  4.948286E+03 -8.665609E+03
        36   5 -9.684045E+05 -1.426143E+05 -3.860184E+03 -3.718202E+05  7.229163E+03 -8.888311E+03
        36   6 -9.667928E+05 -1.446625E+05 -7.071174E+03 -3.738534E+05  9.502145E+03 -9.089446E+03
        36   7 -1.113481E+06 -1.985437E+05 -3.526285E+04 -4.142023E+05  3.918256E+03 -9.052282E+03
        36   8 -1.129208E+06 -2.018656E+05 -4.009895E+04 -4.159484E+05  6.221837E+03 -9.266570E+03
        36   9 -1.141685E+06 -2.090871E+05 -4.645637E+04 -4.218352E+05  8.517488E+03 -9.459303E+03
        36  10 -8.200212E+05 -9.037662E+04  3.095721E+04 -3.336446E+05  2.937142E-09 -2.738184E-10
        36  11 -8.075754E+05 -8.336108E+04  3.237666E+04 -3.276815E+05 -1.529601E-09 -4.126555E-10
        36  12 -7.918709E+05 -8.023600E+04  3.231141E+04 -3.258594E+05 -3.624932E-10  3.912807E-10
        36  13 -9.667623E+05 -1.444612E+05 -2.152343E+03 -3.739279E+05  2.368709E-10 -7.198064E-10
        36  14 -9.684046E+05 -1.426144E+05 -3.860431E+03 -3.718202E+05 -1.221665E-09 -8.604390E-10
        36  15 -9.667929E+05 -1.446626E+05 -7.071498E+03 -3.738533E+05 -1.597059E-09  9.180808E-11
        36  16 -1.113481E+06 -1.985437E+05 -3.526303E+04 -4.142023E+05 -1.309449E-09 -1.288259E-09
        36  17 -1.129208E+06 -2.018657E+05 -4.009919E+04 -4.159483E+05 -3.199366E-09 -1.460456E-09
        36  18 -1.141685E+06 -2.090873E+05 -4.645667E+04 -4.218352E+05 -2.455346E-09 -6.787075E-10
        36  19 -8.200211E+05 -9.037654E+04  3.095740E+04 -3.336446E+05 -5.978586E+03  8.278834E+03
        36  20 -8.075753E+05 -8.336098E+04  3.237693E+04 -3.276816E+05 -8.236772E+03  8.509947E+03
        36  21 -7.918707E+05 -8.023589E+04  3.231176E+04 -3.258594E+05 -1.048710E+04  8.719480E+03
        36  22 -9.667622E+05 -1.444611E+05 -2.152156E+03 -3.739279E+05 -4.948286E+03  8.665609E+03
        36  23 -9.684045E+05 -1.426143E+05 -3.860184E+03 -3.718202E+05 -7.229163E+03  8.888311E+03
        36  24 -9.667928E+05 -1.446625E+05 -7.071174E+03 -3.738534E+05 -9.502145E+03  9.089446E+03
        36  25 -1.113481E+06 -1.985437E+05 -3.526285E+04 -4.142023E+05 -3.918256E+03  9.052282E+03
        36  26 -1.129208E+06 -2.018656E+05 -4.009895E+04 -4.159484E+05 -6.221837E+03  9.266570E+03
        36  27 -1.141685E+06 -2.090871E+05 -4.645637E+04 -4.218352E+05 -8.517488E+03  9.459303E+03
        37   1 -7.811132E+05 -7.659986E+04  3.246411E+04 -3.240825E+05  1.210634E+04 -8.760688E+03
        37   2 -7.690506E+05 -6.876775E+04  2.800773E+04 -3.163817E+05  2.060484E+04 -6.504502E+03
        37   3 -7.565301E+05 -6.993643E+04  1.599726E+04 -3.116678E+05  2.897196E+04 -3.897649E+03
        37   4 -9.672100E+05 -1.442399E+05 -9.361280E+03 -3.741883E+05  1.103411E+04 -9.163469E+03
        37   5 -9.678218E+05 -1.426524E+05 -1.697452E+04 -3.715890E+05  1.990768E+04 -6.766638E+03
        37   6 -9.680512E+05 -1.501415E+05 -3.244124E+04 -3.719770E+05  2.864963E+04 -4.019212E+03
        37   7 -1.153272E+06 -2.118776E+05 -5.118887E+04 -4.242804E+05  9.962237E+03 -9.566125E+03
        37   8 -1.166553E+06 -2.165337E+05 -6.195915E+04 -4.267799E+05  1.921077E+04 -7.028682E+03
        37   9 -1.179526E+06 -2.303421E+05 -8.088233E+04 -4.322666E+05  2.832742E+04 -4.140728E+03
        37  10 -7.811134E+05 -7.659998E+04  3.246369E+04 -3.240824E+05  1.906448E-08  8.624506E-09
        37  11 -7.690511E+05 -6.876791E+04  2.800685E+04 -3.163816E+05 -3.341908E-09  1.106827E-09
        37  12 -7.565310E+05 -6.993668E+04  1.599566E+04 -3.116678E+05 -2.316982E-08 -7.404574E-09
        37  13 -9.672101E+05 -1.442400E+05 -9.361667E+03 -3.741882E+05 -4.215855E-09  6.392525E-10
        37  14 -9.678223E+05 -1.426526E+05 -1.697536E+04 -3.715889E+05 -4.352235E-09  1.019038E-09
        37  15 -9.680521E+05 -1.501418E+05 -3.244281E+04 -3.719769E+05 -1.025867E-09  7.650273E-10
        37  16 -1.153272E+06 -2.118777E+05 -5.118923E+04 -4.242803E+05 -2.344627E-08 -7.147802E-09
        37  17 -1.166553E+06 -2.165338E+05 -6.195994E+04 -4.267798E+05 -3.025042E-09  1.282724E-09
        37  18 -1.179527E+06 -2.303423E+05 -8.088387E+04 -4.322665E+05  1.987308E-08  9.253513E-09
        37  19 -7.811132E+05 -7.659986E+04  3.246411E+04 -3.240825E+05 -1.210634E+04  8.760688E+03
        37  20 -7.690506E+05 -6.876775E+04  2.800773E+04 -3.163817E+05 -2.060484E+04  6.504502E+03
        37  21 -7.565301E+05 -6.993643E+04  1.599726E+04 -3.116678E+05 -2.897196E+04  3.897649E+03
        37  22 -9.672100E+05 -1.442399E+05 -9.361280E+03 -3.741883E+05 -1.103411E+04  9.163469E+03
        37  23 -9.678218E+05 -1.426524E+05 -1.697452E+04 -3.715890E+05 -1.990768E+04  6.766638E+03
        37  24 -9.680512E+05 -1.501415E+05 -3.244124E+04 -3.719770E+05 -2.864963E+04  4.019212E+03
        37  25 -1.153272E+06 -2.118776E+05 -5.118887E+04 -4.242804E+05 -9.962237E+03  9.566125E+03
        37  26 -1.166553E+06 -2.165337E+05 -6.195915E+04 -4.267799E+05 -1.921077E+04  7.028682E+03
        37  27 -1.179526E+06 -2.303421E+05 -8.088233E+04 -4.322666E+05 -2.832742E+04  4.140728E+03
        38   1 -7.372822E+05 -7.054177E+04  9.000841E+03 -3.311595E+05  3.628426E+04 -2.259022E+03
        38   2 -7.423836E+05 -4.186198E+04 -2.000627E+04 -2.798655E+05  6.814657E+04  1.142029E+04
        38   3 -7.908148E+05 -1.289513E+05 -1.039702E+05 -2.033290E+05  9.733998E+04  3.220962E+04
        38   4 -9.733506E+05 -1.405572E+05 -4.156605E+04 -3.783327E+05  3.406193E+04 -3.092975E+03
        38   5 -9.602972E+05 -1.481269E+05 -7.534167E+04 -3.660950E+05  7.356751E+04  1.345275E+04
        38   6 -9.921116E+05 -2.730161E+05 -1.701514E+05 -3.286096E+05  1.104040E+05  3.710435E+04
        38   7 -1.209364E+06 -2.105731E+05 -9.213635E+04 -4.254919E+05  3.184050E+04 -3.926746E+03
        38   8 -1.178162E+06 -2.543773E+05 -1.306806E+05 -4.522936E+05  7.898641E+04  1.548389E+04
        38   9 -1.193356E+06 -4.170344E+05 -2.363343E+05 -4.538428E+05  1.234634E+05  4.199372E+04
        38  10 -7.372836E+05 -7.054213E+04  8.998355E+03 -3.311594E+05 -1.475191E-09 -8.828217E-10
        38  11 -7.423887E+05 -4.186337E+04 -2.001526E+04 -2.798661E+05 -1.049345E-09 -9.127680E-10
        38  12 -7.908253E+05 -1.289549E+05 -1.039900E+05 -2.033315E+05 -1.748514E-09 -1.053427E-09
        38  13 -9.733518E+05 -1.405576E+05 -4.156825E+04 -3.783326E+05  1.441491E-11  1.757866E-11
        38  14 -9.603031E+05 -1.481285E+05 -7.535220E+04 -3.660958E+05  7.916243E-10 -9.307223E-10
        38  15 -9.921251E+05 -2.730208E+05 -1.701770E+05 -3.286129E+05  1.728703E-12 -5.603761E-10
        38  16 -1.209365E+06 -2.105734E+05 -9.213829E+04 -4.254918E+05  1.435862E-09  8.390564E-10
        38  17 -1.178168E+06 -2.543792E+05 -1.306928E+05 -4.522945E+05  7.643440E-10 -7.253972E-10
        38  18 -1.193373E+06 -4.170404E+05 -2.363663E+05 -4.538470E+05  1.614500E-09 -2.303128E-10
        38  19 -7.372822E+05 -7.054177E+04  9.000841E+03 -3.311595E+05 -3.628426E+04  2.259022E+03
        38  20 -7.423836E+05 -4.186198E+04 -2.000627E+04 -2.798655E+05 -6.814657E+04 -1.142029E+04
        38  21 -7.908148E+05 -1.289513E+05 -1.039702E+05 -2.033290E+05 -9.733998E+04 -3.220962E+04
        38  22 -9.733506E+05 -1.405572E+05 -4.156605E+04 -3.783327E+05 -3.406193E+04  3.092975E+03
        38  23 -9.602972E+05 -1.481269E+05 -7.534167E+04 -3.660950E+05 -7.356751E+04 -1.345275E+04
        38  24 -9.921116E+05 -2.730161E+05 -1.701514E+05 -3.286096E+05 -1.104040E+05 -3.710435E+04
        38  25 -1.209364E+06 -2.105731E+05 -9.213635E+04 -4.254919E+05 -3.184050E+04  3.926746E+03
        38  26 -1.178162E+06 -2.543773E+05 -1.306806E+05 -4.522936E+05 -7.898641E+04 -1.548389E+04
        38  27 -1.193356E+06 -4.170344E+05 -2.363343E+05 -4.538428E+05 -1.234634E+05 -4.199372E+04
        39   1 -7.692229E+04  2.974727E+04  3.473219E+04  1.599498E+04  2.397772E+04  6.178314E-01
        39   2 -8.051223E+04  2.259178E+03  1.618238E+04  6.140330E+03  1.548650E+04  1.531879E-01
        39   3 -7.692381E+04 -9.401642E+02  9.233693E+03 -3.714230E+03  6.995274E+03 -4.185528E-02
        39   4 -7.692256E+04  2.974679E+04  3.473212E+04  3.379141E-09  2.397772E+04  1.074291E-10
        39   5 -8.051227E+04  2.259107E+03  1.618237E+04  7.289547E-09  1.548650E+04  4.322866E-10
        39   6 -7.692383E+04 -9.401901E+02  9.233689E+03  7.701291E-09  6.995274E+03  5.170967E-10
        39   7 -7.692229E+04  2.974727E+04  3.473219E+04 -1.599498E+04  2.397772E+04 -6.178314E-01
        39   8 -8.051223E+04  2.259178E+03  1.618238E+04 -6.140330E+03  1.548650E+04 -1.531879E-01
        39   9 -7.692381E+04 -9.401642E+02  9.233693E+03  3.714230E+03  6.995274E+03  4.185529E-02
        39  10 -7.692290E+04  2.974712E+04  3.473111E+04  1.599498E+04  8.832390E-10 -1.182222E-10
        39  11 -8.051248E+04  2.259114E+03  1.618193E+04  6.140330E+03  9.286462E-10 -2.839869E-10
        39  12 -7.692387E+04 -9.401773E+02  9.233601E+03 -3.714230E+03  2.336433E-10 -5.166588E-11
        39  13 -7.692318E+04  2.974664E+04  3.473104E+04 -2.027703E-09  1.072751E-09 -3.017480E-11
        39  14 -8.051252E+04  2.259043E+03  1.618192E+04  6.807601E-09 -1.569782E-09  2.321966E-11
        39  15 -7.692388E+04 -9.402032E+02  9.233597E+03  5.678086E-09 -2.016975E-09  3.227196E-10
        39  16 -7.692290E+04  2.974712E+04  3.473111E+04 -1.599498E+04  2.000266E-10  6.496434E-11
        39  17 -8.051248E+04  2.259114E+03  1.618193E+04 -6.140330E+03 -1.702128E-09  3.119234E-10
        39  18 -7.692387E+04 -9.401773E+02  9.233601E+03  3.714230E+03 -8.300159E-10  6.964137E-10
        39  19 -7.692229E+04  2.974727E+04  3.473219E+04  1.599498E+04 -2.397772E+04 -6.178314E-01
        39  20 -8.051223E+04  2.259178E+03  1.618238E+04  6.140330E+03 -1.548650E+04 -1.531879E-01
        39  21 -7.692381E+04 -9.401642E+02  9.233693E+03 -3.714230E+03 -6.995274E+03  4.185528E-02
        39  22 -7.692256E+04  2.974679E+04  3.473212E+04 -2.046367E-09 -2.397772E+04 -1.699219E-10
        39  23 -8.051227E+04  2.259107E+03  1.618237E+04 -3.368583E-09 -1.548650E+04 -3.851382E-10
        39  24 -7.692383E+04 -9.401901E+02  9.233689E+03  4.867750E-09 -6.995274E+03  1.238772E-10
        39  25 -7.692229E+04  2.974727E+04  3.473219E+04 -1.599498E+04 -2.397772E+04  6.178314E-01
        39  26 -8.051223E+04  2.259178E+03  1.618238E+04 -6.140330E+03 -1.548650E+04  1.531879E-01
        39  27 -7.692381E+04 -9.401642E+02  9.233693E+03  3.714230E+03 -6.995274E+03 -4.185528E-02
        40   1 -7.840050E+04  1.215537E+03  7.225744E+03  3.956336E+02  5.737544E+03  3.656764E-03
        40   2 -7.866681E+04  2.536604E+01  3.967563E+03  7.021542E+01  3.755564E+03  4.248012E-04
        40   3 -7.840065E+04 -6.734181E+01  2.274211E+03 -2.551984E+02  1.773619E+03 -7.291485E-04
        40   4 -7.840051E+04  1.215537E+03  7.225744E+03  8.091245E-09  5.737544E+03  3.571359E-10
        40   5 -7.866681E+04  2.536603E+01  3.967563E+03  4.168436E-09  3.755564E+03 -2.113805E-10
        40   6 -7.840065E+04 -6.734193E+01  2.274211E+03  1.087987E-08  1.773619E+03 -7.856925E-10
        40   7 -7.840050E+04  1.215537E+03  7.225744E+03 -3.956336E+02  5.737544E+03 -3.656763E-03
        40   8 -7.866681E+04  2.536604E+01  3.967563E+03 -7.021542E+01  3.755564E+03 -4.248016E-04
        40   9 -7.840065E+04 -6.734181E+01  2.274211E+03  2.551984E+02  1.773619E+03  7.291470E-04
        40  10 -7.840054E+04  1.215529E+03  7.225682E+03  3.956336E+02 -1.505354E-09  4.161252E-10
        40  11 -7.866683E+04  2.536225E+01  3.967536E+03  7.021542E+01 -6.070088E-10  9.514810E-10
        40  12 -7.840065E+04 -6.734265E+01  2.274205E+03 -2.551984E+02  1.540475E-09  5.776381E-10
        40  13 -7.840054E+04  1.215528E+03  7.225682E+03  1.029626E-08  6.774359E-27  5.184298E-10
        40  14 -7.866683E+04  2.536224E+01  3.967536E+03  8.712356E-10 -1.076943E-09  4.955645E-10
        40  15 -7.840065E+04 -6.734277E+01  2.274205E+03  1.944783E-09  1.092788E-09  9.707098E-11
        40  16 -7.840054E+04  1.215529E+03  7.225682E+03 -3.956336E+02 -1.189459E-09  6.195644E-10
        40  17 -7.866683E+04  2.536225E+01  3.967536E+03 -7.021542E+01 -7.319906E-10  3.764576E-11
        40  18 -7.840065E+04 -6.734265E+01  2.274205E+03  2.551984E+02  1.075127E-10 -3.837351E-10
        40  19 -7.840050E+04  1.215537E+03  7.225744E+03  3.956336E+02 -5.737544E+03 -3.656763E-03
        40  20 -7.866681E+04  2.536604E+01  3.967563E+03  7.021542E+01 -3.755564E+03 -4.247993E-04
        40  21 -7.840065E+04 -6.734181E+01  2.274211E+03 -2.551984E+02 -1.773619E+03  7.291497E-04
        40  22 -7.840051E+04  1.215537E+03  7.225744E+03  9.270979E-09 -5.737544E+03  6.792514E-10
        40  23 -7.866681E+04  2.536603E+01  3.967563E+03  4.035135E-09 -3.755564E+03  1.199786E-09
        40  24 -7.840065E+04 -6.734193E+01  2.274211E+03  1.050995E-08 -1.773619E+03  9.823224E-10
        40  25 -7.840050E+04  1.215537E+03  7.225744E+03 -3.956336E+02 -5.737544E+03  3.656765E-03
        40  26 -7.866681E+04  2.536604E+01  3.967563E+03 -7.021542E+01 -3.755564E+03  4.248017E-04
        40  27 -7.840065E+04 -6.734181E+01  2.274211E+03  2.551984E+02 -1.773619E+03 -7.291477E-04
        41   1 -7.850207E+04  2.600146E+01  1.731321E+03 -6.192767E+01  1.420087E+03 -1.416699E-04
        41   2 -7.854012E+04 -1.754584E+01  9.787601E+02 -4.805082E+01  9.356550E+02 -7.242507E-05
        41   3 -7.850209E+04 -9.106620E+00  5.546187E+02 -3.417375E+01  4.512164E+02 -2.483961E-05
        41   4 -7.850207E+04  2.600145E+01  1.731321E+03  7.689553E-09  1.420087E+03 -3.755990E-10
        41   5 -7.854012E+04 -1.754585E+01  9.787601E+02  1.578733E-09  9.356550E+02  8.274125E-10
        41   6 -7.850209E+04 -9.106623E+00  5.546187E+02  9.878838E-10  4.512164E+02  8.212973E-10
        41   7 -7.850207E+04  2.600146E+01  1.731321E+03  6.192767E+01  1.420087E+03  1.416691E-04
        41   8 -7.854012E+04 -1.754584E+01  9.787601E+02  4.805082E+01  9.356550E+02  7.242671E-05
        41   9 -7.850209E+04 -9.106621E+00  5.546187E+02  3.417375E+01  4.512164E+02  2.484125E-05
        41  10 -7.850207E+04  2.600092E+01  1.731317E+03 -6.192767E+01  9.858129E-12  4.875573E-10
        41  11 -7.854012E+04 -1.754608E+01  9.787584E+02 -4.805082E+01 -2.620093E-10  4.660996E-10
        41  12 -7.850209E+04 -9.106675E+00  5.546183E+02 -3.417375E+01  4.115167E-10 -5.888492E-10
        41  13 -7.850207E+04  2.600091E+01  1.731317E+03  4.693914E-09  2.152832E-09  1.705432E-10
        41  14 -7.854012E+04 -1.754608E+01  9.787584E+02  2.034515E-09 -1.629639E-09  4.105997E-10
        41  15 -7.850209E+04 -9.106677E+00  5.546183E+02  5.297759E-09 -9.462817E-10 -3.530502E-10
        41  16 -7.850207E+04  2.600092E+01  1.731317E+03  6.192767E+01  1.058640E-09 -1.479317E-10
        41  17 -7.854012E+04 -1.754608E+01  9.787584E+02  4.805082E+01 -1.433957E-11  3.562880E-10
        41  18 -7.850209E+04 -9.106675E+00  5.546183E+02  3.417375E+01 -1.326398E-09 -1.152604E-10
        41  19 -7.850207E+04  2.600146E+01  1.731321E+03 -6.192767E+01 -1.420087E+03  1.416708E-04
        41  20 -7.854012E+04 -1.754584E+01  9.787601E+02 -4.805082E+01 -9.356550E+02  7.242601E-05
        41  21 -7.850209E+04 -9.106620E+00  5.546187E+02 -3.417375E+01 -4.512164E+02  2.483844E-05
        41  22 -7.850207E+04  2.600145E+01  1.731321E+03  6.006031E-09 -1.420087E+03  7.155344E-10
        41  23 -7.854012E+04 -1.754585E+01  9.787601E+02  5.720328E-09 -9.356550E+02 -8.878422E-12
        41  24 -7.850209E+04 -9.106623E+00  5.546187E+02  7.723648E-09 -4.512164E+02 -1.528096E-09
        41  25 -7.850207E+04  2.600146E+01  1.731321E+03  6.192767E+01 -1.420087E+03 -1.416694E-04
        41  26 -7.854012E+04 -1.754584E+01  9.787601E+02  4.805082E+01 -9.356550E+02 -7.242602E-05
        41  27 -7.850209E+04 -9.106620E+00  5.546187E+02  3.417375E+01 -4.512164E+02 -2.484149E-05
        42   1 -7.851570E+04 -5.701752E+00  4.143218E+02 -2.322848E+01  3.635984E+02 -1.360558E-05
        42   2 -7.852314E+04 -4.888303E+00  2.196470E+02 -1.635299E+01  2.550640E+02 -6.719497E-06
        42   3 -7.851571E+04 -1.147271E+00  9.637151E+01 -9.477503E+00  1.465296E+02 -2.237297E-06
        42   4 -7.851570E+04 -5.701753E+00  4.143218E+02  2.818698E-09  3.635984E+02  3.357207E-10
        42   5 -7.852314E+04 -4.888304E+00  2.196470E+02  6.372494E-09  2.550640E+02 -2.229981E-10
        42   6 -7.851571E+04 -1.147272E+00  9.637151E+01  1.154104E-08  1.465296E+02 -2.998097E-10
        42   7 -7.851570E+04 -5.701751E+00  4.143218E+02  2.322848E+01  3.635984E+02  1.360625E-05
        42   8 -7.852314E+04 -4.888303E+00  2.196470E+02  1.635299E+01  2.550640E+02  6.719046E-06
        42   9 -7.851571E+04 -1.147271E+00  9.637151E+01  9.477503E+00  1.465296E+02  2.236698E-06
        42  10 -7.851570E+04 -5.701787E+00  4.143215E+02 -2.322848E+01 -8.656957E-10 -9.016270E-10
        42  11 -7.852314E+04 -4.888321E+00  2.196469E+02 -1.635299E+01  6.848085E-11 -2.601030E-10
        42  12 -7.851571E+04 -1.147277E+00  9.637147E+01 -9.477503E+00 -4.843797E-10  4.045889E-10
        42  13 -7.851570E+04 -5.701788E+00  4.143215E+02  3.997255E-09  1.104283E-09 -6.771759E-10
        42  14 -7.852314E+04 -4.888321E+00  2.196469E+02  2.748860E-09  5.242730E-10 -2.896368E-10
        42  15 -7.851571E+04 -1.147277E+00  9.637147E+01  7.424949E-09 -5.474089E-10  2.397130E-10
        42  16 -7.851570E+04 -5.701787E+00  4.143215E+02  2.322848E+01  5.783198E-10 -4.459038E-10
        42  17 -7.852314E+04 -4.888321E+00  2.196469E+02  1.635299E+01 -5.785566E-10 -3.193720E-10
        42  18 -7.851571E+04 -1.147277E+00  9.637147E+01  9.477503E+00  7.820767E-10  7.478524E-11
        42  19 -7.851570E+04 -5.701751E+00  4.143218E+02 -2.322848E+01 -3.635984E+02  1.360377E-05
        42  20 -7.852314E+04 -4.888303E+00  2.196470E+02 -1.635299E+01 -2.550640E+02  6.718976E-06
        42  21 -7.851571E+04 -1.147271E+00  9.637151E+01 -9.477503E+00 -1.465296E+02  2.238108E-06
        42  22 -7.851570E+04 -5.701753E+00  4.143218E+02  8.406501E-09 -3.635984E+02 -1.688689E-09
        42  23 -7.852314E+04 -4.888304E+00  2.196470E+02  2.025602E-10 -2.550640E+02 -3.561996E-10
        42  24 -7.851571E+04 -1.147272E+00  9.637151E+01  1.057491E-08 -1.465296E+02  7.798165E-10
        42  25 -7.851570E+04 -5.701751E+00  4.143218E+02  2.322848E+01 -3.635984E+02 -1.360716E-05
        42  26 -7.852314E+04 -4.888303E+00  2.196470E+02  1.635299E+01 -2.550640E+02 -6.719697E-06
        42  27 -7.851571E+04 -1.147271E+00  9.637151E+01  9.477503E+00 -1.465296E+02 -2.236547E-06
        43   1 -7.851965E+04 -1.193917E+00  4.806410E+01 -8.842649E+00  1.334099E+02 -1.900472E-06
        43   2 -7.851821E+04  8.671650E-01 -4.095162E+01 -9.949233E+00  1.536540E+02 -2.462584E-06
        43   3 -7.851965E+04  1.974988E+00 -1.433874E+02 -1.105580E+01  1.738979E+02 -3.096571E-06
        43   4 -7.851965E+04 -1.193917E+00  4.806410E+01  1.152338E-08  1.334099E+02 -1.895180E-10
        43   5 -7.851821E+04  8.671649E-01 -4.095162E+01  8.013442E-09  1.536540E+02  1.018962E-10
        43   6 -7.851965E+04  1.974987E+00 -1.433874E+02  6.657908E-09  1.738979E+02  6.025091E-10
        43   7 -7.851965E+04 -1.193917E+00  4.806410E+01  8.842649E+00  1.334099E+02  1.900091E-06
        43   8 -7.851821E+04  8.671650E-01 -4.095162E+01  9.949233E+00  1.536540E+02  2.462790E-06
        43   9 -7.851965E+04  1.974987E+00 -1.433874E+02  1.105580E+01  1.738979E+02  3.097773E-06
        43  10 -7.851965E+04 -1.193922E+00  4.806407E+01 -8.842649E+00  1.368676E-09  3.722203E-10
        43  11 -7.851821E+04  8.671587E-01 -4.095166E+01 -9.949233E+00  3.190960E-10 -2.937721E-11
        43  12 -7.851965E+04  1.974979E+00 -1.433874E+02 -1.105580E+01 -1.480438E-09  1.382512E-10
        43  13 -7.851965E+04 -1.193922E+00  4.806407E+01  7.048275E-09  2.101271E-11  2.468369E-10
        43  14 -7.851821E+04  8.671585E-01 -4.095166E+01 -6.154876E-10 -1.588088E-09 -3.485969E-11
        43  15 -7.851965E+04  1.974979E+00 -1.433874E+02  4.106350E-09  4.948574E-10  1.659742E-10
        43  16 -7.851965E+04 -1.193922E+00  4.806407E+01  8.842649E+00 -2.912102E-10  1.166999E-10
        43  17 -7.851821E+04  8.671587E-01 -4.095166E+01  9.949233E+00 -3.049089E-10 -4.480714E-11
        43  18 -7.851965E+04  1.974979E+00 -1.433874E+02  1.105580E+01 -6.575213E-10  1.942000E-10
        43  19 -7.851965E+04 -1.193917E+00  4.806410E+01 -8.842649E+00 -1.334099E+02  1.901233E-06
        43  20 -7.851821E+04  8.671650E-01 -4.095162E+01 -9.949233E+00 -1.536540E+02  2.462537E-06
        43  21 -7.851965E+04  1.974987E+00 -1.433874E+02 -1.105580E+01 -1.738979E+02  3.096856E-06
        43  22 -7.851965E+04 -1.193917E+00  4.806410E+01  1.118935E-08 -1.334099E+02  6.836091E-10
        43  23 -7.851821E+04  8.671649E-01 -4.095162E+01  5.833270E-09 -1.536540E+02 -1.731421E-10
        43  24 -7.851965E+04  1.974987E+00 -1.433874E+02  8.016169E-09 -1.738979E+02 -2.708091E-10
        43  25 -7.851965E+04 -1.193917E+00  4.806410E+01  8.842649E+00 -1.334099E+02 -1.899875E-06
        43  26 -7.851821E+04  8.671650E-01 -4.095162E+01  9.949233E+00 -1.536540E+02 -2.462890E-06
        43  27 -7.851965E+04  1.974988E+00 -1.433874E+02  1.105580E+01 -1.738979E+02 -3.097401E-06
        44   1 -7.852587E+04  3.351958E+00 -2.087700E+02 -1.544625E+01  2.057205E+02 -5.118361E-06
        44   2 -7.851046E+04  7.006422E+00 -3.945835E+02 -2.077525E+01  4.010296E+02 -1.342129E-05
        44   3 -7.852588E+04 -1.091309E+01 -7.129554E+02 -2.610434E+01  5.963416E+02 -2.507719E-05
        44   4 -7.852587E+04  3.351957E+00 -2.087700E+02  3.026705E-09  2.057205E+02  6.688651E-10
        44   5 -7.851046E+04  7.006421E+00 -3.945835E+02 -6.950491E-10  4.010296E+02  4.750884E-10
        44   6 -7.852588E+04 -1.091309E+01 -7.129554E+02 -1.591150E-09  5.963416E+02  6.046283E-10
        44   7 -7.852587E+04  3.351958E+00 -2.087700E+02  1.544625E+01  2.057205E+02  5.119701E-06
        44   8 -7.851046E+04  7.006422E+00 -3.945835E+02  2.077525E+01  4.010296E+02  1.342224E-05
        44   9 -7.852588E+04 -1.091309E+01 -7.129554E+02  2.610434E+01  5.963416E+02  2.507838E-05
        44  10 -7.852587E+04  3.351946E+00 -2.087701E+02 -1.544625E+01  1.135005E-09  1.961668E-10
        44  11 -7.851046E+04  7.006378E+00 -3.945838E+02 -2.077525E+01 -8.986593E-10 -8.494781E-11
        44  12 -7.852588E+04 -1.091318E+01 -7.129561E+02 -2.610434E+01 -7.180139E-10 -2.767281E-10
        44  13 -7.852587E+04  3.351946E+00 -2.087701E+02 -3.447031E-09  1.043336E-09  3.103508E-10
        44  14 -7.851046E+04  7.006378E+00 -3.945838E+02  2.478193E-09 -5.809892E-10  1.998174E-10
        44  15 -7.852588E+04 -1.091318E+01 -7.129561E+02 -1.019022E-09  2.163457E-09 -5.386431E-11
        44  16 -7.852587E+04  3.351946E+00 -2.087701E+02  1.544625E+01  1.321965E-09  4.287824E-10
        44  17 -7.851046E+04  7.006378E+00 -3.945838E+02  2.077525E+01  4.134860E-11  4.869378E-10
        44  18 -7.852588E+04 -1.091318E+01 -7.129561E+02  2.610434E+01  1.919661E-09  1.715869E-10
        44  19 -7.852587E+04  3.351958E+00 -2.087700E+02 -1.544625E+01 -2.057205E+02  5.118757E-06
        44  20 -7.851046E+04  7.006422E+00 -3.945835E+02 -2.077525E+01 -4.010296E+02  1.342114E-05
        44  21 -7.852588E+04 -1.091309E+01 -7.129554E+02 -2.610434E+01 -5.963416E+02  2.507663E-05
        44  22 -7.852587E+04  3.351957E+00 -2.087700E+02  4.078799E-09 -2.057205E+02 -4.736706E-11
        44  23 -7.851046E+04  7.006421E+00 -3.945835E+02  3.497554E-09 -4.010296E+02 -7.249786E-11
        44  24 -7.852588E+04 -1.091309E+01 -7.129554E+02  7.897422E-09 -5.963416E+02 -7.110698E-10
        44  25 -7.852587E+04  3.351958E+00 -2.087700E+02  1.544625E+01 -2.057205E+02 -5.118857E-06
        44  26 -7.851046E+04  7.006422E+00 -3.945835E+02  2.077525E+01 -4.010296E+02 -1.342127E-05
        44  27 -7.852588E+04 -1.091309E+01 -7.129554E+02  2.610434E+01 -5.963416E+02 -2.507806E-05
        45   1 -7.856820E+04  2.790249E+01 -9.405196E+02 -1.064593E+02  7.422356E+02 -1.272925E-04
        45   2 -7.845758E+04 -1.061955E+01 -1.647210E+03  2.900678E+01  1.565119E+03  7.313398E-05
        45   3 -7.856825E+04 -5.056265E+02 -3.003800E+03  1.644729E+02  2.388001E+03  6.327123E-04
        45   4 -7.856820E+04  2.790246E+01 -9.405196E+02  5.054513E-09  7.422356E+02 -5.611086E-11
        45   5 -7.845758E+04 -1.061955E+01 -1.647210E+03  4.827943E-09  1.565119E+03 -1.091202E-09
        45   6 -7.856825E+04 -5.056266E+02 -3.003801E+03  7.023703E-09  2.388001E+03  2.883169E-10
        45   7 -7.856820E+04  2.790249E+01 -9.405196E+02  1.064593E+02  7.422356E+02  1.272924E-04
        45   8 -7.845758E+04 -1.061955E+01 -1.647210E+03 -2.900678E+01  1.565119E+03 -7.313619E-05
        45   9 -7.856825E+04 -5.056265E+02 -3.003800E+03 -1.644729E+02  2.388001E+03 -6.327117E-04
        45  10 -7.856820E+04  2.790234E+01 -9.405206E+02 -1.064593E+02  5.930700E-10 -4.774778E-10
        45  11 -7.845759E+04 -1.062021E+01 -1.647214E+03  2.900678E+01 -1.695221E-10 -5.943395E-10
        45  12 -7.856826E+04 -5.056280E+02 -3.003811E+03  1.644729E+02 -1.288105E-09 -3.511429E-11
        45  13 -7.856820E+04  2.790232E+01 -9.405206E+02 -3.902276E-09  2.103331E-12 -5.336058E-10
        45  14 -7.845759E+04 -1.062021E+01 -1.647214E+03  2.810122E-09 -1.091056E-09 -8.602217E-10
        45  15 -7.856826E+04 -5.056281E+02 -3.003811E+03 -3.132059E-09  9.571154E-10  3.236397E-10
        45  16 -7.856820E+04  2.790234E+01 -9.405206E+02  1.064593E+02 -1.429010E-09 -5.892367E-10
        45  17 -7.845759E+04 -1.062021E+01 -1.647214E+03 -2.900678E+01 -9.074166E-10 -1.129222E-09
        45  18 -7.856826E+04 -5.056280E+02 -3.003811E+03 -1.644729E+02  2.700873E-09  6.827067E-10
        45  19 -7.856820E+04  2.790249E+01 -9.405196E+02 -1.064593E+02 -7.422356E+02  1.272916E-04
        45  20 -7.845758E+04 -1.061955E+01 -1.647210E+03  2.900678E+01 -1.565119E+03 -7.313521E-05
        45  21 -7.856825E+04 -5.056265E+02 -3.003800E+03  1.644729E+02 -2.388001E+03 -6.327123E-04
        45  22 -7.856820E+04  2.790246E+01 -9.405196E+02  8.678036E-09 -7.422356E+02 -1.009934E-09
        45  23 -7.845758E+04 -1.061955E+01 -1.647210E+03 -2.849035E-10 -1.565119E+03 -6.288274E-10
        45  24 -7.856825E+04 -5.056266E+02 -3.003801E+03  4.886608E-09 -2.388001E+03  3.587695E-10
        45  25 -7.856820E+04  2.790249E+01 -9.405196E+02  1.064593E+02 -7.422356E+02 -1.272936E-04
        45  26 -7.845758E+04 -1.061955E+01 -1.647210E+03 -2.900678E+01 -1.565119E+03  7.313394E-05
        45  27 -7.856825E+04 -5.056265E+02 -3.003800E+03 -1.644729E+02 -2.388001E+03  6.327130E-04
        46   1 -7.918249E+04  3.910640E+02 -3.839429E+03 -1.545045E+03  2.910854E+03 -7.245020E-03
        46   2 -7.768988E+04 -9.396739E+02 -6.730140E+03  2.554059E+03  6.442547E+03  2.650729E-02
        46   3 -7.918293E+04 -1.237302E+04 -1.444598E+04  6.653087E+03  9.974189E+03  1.069001E-01
        46   4 -7.918249E+04  3.910595E+02 -3.839429E+03  5.064147E-09  2.910854E+03  9.652017E-10
        46   5 -7.768989E+04 -9.396862E+02 -6.730142E+03  2.137541E-10  6.442547E+03  4.413641E-10
        46   6 -7.918297E+04 -1.237311E+04 -1.444599E+04  4.115451E-09  9.974189E+03  6.887033E-11
        46   7 -7.918249E+04  3.910640E+02 -3.839429E+03  1.545045E+03  2.910854E+03  7.245022E-03
        46   8 -7.768988E+04 -9.396739E+02 -6.730140E+03 -2.554059E+03  6.442547E+03 -2.650729E-02
        46   9 -7.918293E+04 -1.237302E+04 -1.444598E+04 -6.653087E+03  9.974189E+03 -1.069001E-01
        46  10 -7.918250E+04  3.910617E+02 -3.839445E+03 -1.545045E+03 -6.042739E-10  3.913423E-10
        46  11 -7.768993E+04 -9.396851E+02 -6.730218E+03  2.554059E+03 -4.110677E-10  5.402622E-10
        46  12 -7.918303E+04 -1.237305E+04 -1.444616E+04  6.653087E+03  9.110611E-10  1.961244E-10
        46  13 -7.918250E+04  3.910573E+02 -3.839445E+03 -4.585960E-10 -1.021890E-09  8.220984E-10
        46  14 -7.768993E+04 -9.396973E+02 -6.730220E+03  2.250376E-09  5.384675E-10  4.189460E-10
        46  15 -7.918308E+04 -1.237313E+04 -1.444618E+04  1.729552E-09  6.855073E-10  8.479115E-11
        46  16 -7.918250E+04  3.910617E+02 -3.839445E+03  1.545045E+03  8.856932E-10  1.254434E-09
        46  17 -7.768993E+04 -9.396851E+02 -6.730218E+03 -2.554059E+03 -6.449615E-10  2.984562E-10
        46  18 -7.918303E+04 -1.237305E+04 -1.444616E+04 -6.653087E+03  1.667232E-10 -2.877872E-11
        46  19 -7.918249E+04  3.910640E+02 -3.839429E+03 -1.545045E+03 -2.910854E+03  7.245020E-03
        46  20 -7.768988E+04 -9.396739E+02 -6.730140E+03  2.554059E+03 -6.442547E+03 -2.650729E-02
        46  21 -7.918293E+04 -1.237302E+04 -1.444598E+04  6.653087E+03 -9.974189E+03 -1.069001E-01
        46  22 -7.918249E+04  3.910595E+02 -3.839429E+03  4.787686E-09 -2.910854E+03  6.788093E-10
        46  23 -7.768989E+04 -9.396862E+02 -6.730142E+03 -2.011524E-11 -6.442547E+03  3.983714E-10
        46  24 -7.918297E+04 -1.237311E+04 -1.444599E+04  4.729776E-09 -9.974189E+03  1.010589E-10
        46  25 -7.918249E+04  3.910640E+02 -3.839429E+03  1.545045E+03 -2.910854E+03 -7.245019E-03
        46  26 -7.768988E+04 -9.396739E+02 -6.730140E+03 -2.554059E+03 -6.442547E+03  2.650729E-02
        46  27 -7.918293E+04 -1.237302E+04 -1.444598E+04 -6.653087E+03 -9.974189E+03  1.069001E-01
        47   1  2.864463E+05  1.008989E+06  2.902548E+05 -1.510441E+05  1.142900E+04  8.931797E+04
        47   2  1.858162E+05  8.417024E+05  1.954863E+05 -1.053819E+05  3.507685E+04  4.269961E+04
        47   3  1.407755E+05  6.944782E+05  1.449508E+05 -1.101537E+05  3.437018E+04 -3.909088E+03
        47   4  6.182995E+04  1.031103E+05  7.252385E+04 -1.174373E+05  1.144565E+04  4.797586E+04
        47   5  4.634039E+03  9.555293E+04  3.537507E+04 -9.223357E+04  3.508667E+04  2.947524E+04
        47   6 -1.811359E+03  1.031850E+05  2.297699E+04 -1.174617E+05  3.436303E+04  1.097172E+04
        47   7 -1.628410E+05 -8.020118E+05 -1.452585E+05 -8.387953E+04  1.145785E+04  6.693721E+03
        47   8 -1.765838E+05 -6.500728E+05 -1.247679E+05 -7.910110E+04  3.509594E+04  1.626650E+04
        47   9 -1.444200E+05 -4.877762E+05 -9.901483E+04 -1.247626E+05  3.435552E+04  2.583862E+04
        47  10  2.864440E+05  1.008980E+06  2.902396E+05 -1.510450E+05  1.915305E-10 -3.719959E-10
        47  11  1.858144E+05  8.417002E+05  1.954806E+05 -1.053832E+05 -3.252541E-10 -1.325693E-09
        47  12  1.407743E+05  6.944779E+05  1.449486E+05 -1.101535E+05 -1.864972E-09 -1.728187E-09
        47  13  6.182919E+04  1.031078E+05  7.251928E+04 -1.174378E+05 -1.142754E-09  1.712926E-12
        47  14  4.632483E+03  9.555167E+04  3.537112E+04 -9.223440E+04  4.626831E-10  1.753624E-10
        47  15 -1.812660E+03  1.031846E+05  2.297455E+04 -1.174620E+05 -1.579782E-09 -2.558187E-11
        47  16 -1.628411E+05 -8.020119E+05 -1.452588E+05 -8.387960E+04 -8.440842E-11  3.115886E-10
        47  17 -1.765852E+05 -6.500734E+05 -1.247707E+05 -7.910156E+04 -1.158160E-09  6.561063E-10
        47  18 -1.444215E+05 -4.877772E+05 -9.901831E+04 -1.247633E+05 -2.158780E-09  1.616171E-09
        47  19  2.864463E+05  1.008989E+06  2.902548E+05 -1.510441E+05 -1.142900E+04 -8.931797E+04
        47  20  1.858162E+05  8.417024E+05  1.954863E+05 -1.053819E+05 -3.507685E+04 -4.269961E+04
        47  21  1.407755E+05  6.944782E+05  1.449508E+05 -1.101537E+05 -3.437018E+04  3.909088E+03
        47  22  6.182995E+04  1.031103E+05  7.252385E+04 -1.174373E+05 -1.144565E+04 -4.797586E+04
        47  23  4.634039E+03  9.555293E+04  3.537507E+04 -9.223357E+04 -3.508667E+04 -2.947524E+04
        47  24 -1.811359E+03  1.031850E+05  2.297699E+04 -1.174617E+05 -3.436303E+04 -1.097172E+04
        47  25 -1.628410E+05 -8.020118E+05 -1.452585E+05 -8.387953E+04 -1.145785E+04 -6.693721E+03
        47  26 -1.765838E+05 -6.500728E+05 -1.247679E+05 -7.910110E+04 -3.509594E+04 -1.626650E+04
        47  27 -1.444200E+05 -4.877762E+05 -9.901483E+04 -1.247626E+05 -3.435552E+04 -2.583862E+04
        48   1  1.173022E+05  5.762498E+05  1.185723E+05 -1.194077E+05  2.735148E+04 -1.402713E+03
        48   2  7.703908E+04  4.180160E+05  8.281592E+04 -9.205543E+04  1.915188E+04 -1.113223E+04
        48   3  4.191996E+04  2.623035E+05  5.466156E+04 -1.163472E+05  1.010181E+04 -2.086290E+04
        48   4  2.475364E+03  1.003522E+05  2.015923E+04 -1.177264E+05  2.734649E+04  7.563872E+03
        48   5  2.315635E+02  9.920361E+04  1.749482E+04 -9.190361E+04  1.914468E+04 -1.181388E+03
        48   6  2.964026E+03  1.003833E+05  2.175268E+04 -1.177261E+05  1.009215E+04 -9.930167E+03
        48   7 -1.123658E+05 -3.753308E+05 -7.826582E+04 -1.160463E+05  2.734154E+04  1.652371E+04
        48   8 -7.658228E+04 -2.195121E+05 -4.783131E+04 -9.175185E+04  1.913748E+04  8.764438E+03
        48   9 -3.599347E+04 -6.151174E+04 -1.115712E+04 -1.191047E+05  1.008245E+04  9.997676E+02
        48  10  1.173014E+05  5.762496E+05  1.185709E+05 -1.194077E+05 -1.274347E-09  3.746980E-09
        48  11  7.703865E+04  4.180158E+05  8.281499E+04 -9.205526E+04  1.824060E-09 -9.129045E-09
        48  12  4.191973E+04  2.623030E+05  5.466055E+04 -1.163470E+05  4.108831E-10 -1.805782E-08
        48  13  2.474546E+03  1.003519E+05  2.015772E+04 -1.177265E+05 -2.301098E-09  1.400435E-11
        48  14  2.311695E+02  9.920351E+04  1.749413E+04 -9.190359E+04  1.298714E-09  3.748011E-10
        48  15  2.963890E+03  1.003831E+05  2.175231E+04 -1.177260E+05  1.781320E-09 -4.936230E-11
        48  16 -1.123666E+05 -3.753313E+05 -7.826774E+04 -1.160467E+05 -9.978415E-10 -4.192937E-09
        48  17 -7.658269E+04 -2.195123E+05 -4.783214E+04 -9.175198E+04 -7.289207E-10  7.597921E-09
        48  18 -3.599358E+04 -6.151177E+04 -1.115731E+04 -1.191047E+05 -7.730976E-10  1.785325E-08
        48  19  1.173022E+05  5.762498E+05  1.185723E+05 -1.194077E+05 -2.735148E+04  1.402713E+03
        48  20  7.703908E+04  4.180160E+05  8.281592E+04 -9.205543E+04 -1.915188E+04  1.113223E+04
        48  21  4.191996E+04  2.623035E+05  5.466156E+04 -1.163472E+05 -1.010181E+04  2.086290E+04
        48  22  2.475364E+03  1.003522E+05  2.015923E+04 -1.177264E+05 -2.734649E+04 -7.563872E+03
        48  23  2.315635E+02  9.920361E+04  1.749482E+04 -9.190361E+04 -1.914468E+04  1.181388E+03
        48  24  2.964026E+03  1.003833E+05  2.175268E+04 -1.177261E+05 -1.009215E+04  9.930167E+03
        48  25 -1.123658E+05 -3.753308E+05 -7.826582E+04 -1.160463E+05 -2.734154E+04 -1.652371E+04
        48  26 -7.658228E+04 -2.195121E+05 -4.783131E+04 -9.175185E+04 -1.913748E+04 -8.764438E+03
        48  27 -3.599347E+04 -6.151174E+04 -1.115712E+04 -1.191047E+05 -1.008245E+04 -9.997676E+02
        49   1  9.224053E+03  1.507844E+05  3.434334E+04 -1.264369E+05  3.773642E+03 -2.627002E+04
        49   2 -2.129088E+04 -1.398815E+04  1.536775E+04 -7.709054E+04 -3.115052E+03 -3.797125E+04
        49   3  4.922442E+03 -1.631046E+05  1.817403E+04 -7.900936E+04 -1.855293E+03 -4.966386E+04
        49   4 -2.001264E+03  1.037050E+05  2.538313E+04 -1.176527E+05  3.761632E+03 -1.362924E+04
        49   5  5.532130E+03  9.507285E+04  4.027593E+04 -9.199422E+04 -3.116943E+03 -3.472315E+04
        49   6  7.141560E+04  1.036914E+05  8.346654E+04 -1.175944E+05 -1.846849E+03 -5.581128E+04
        49   7 -1.322634E+04  5.662822E+04  1.642347E+04 -1.088692E+05  3.749979E+03 -9.894082E+02
        49   8  3.235515E+04  2.041454E+05  6.518349E+04 -1.069005E+05 -3.118990E+03 -3.147448E+04
        49   9  1.379091E+05  3.705555E+05  1.487548E+05 -1.561960E+05 -1.837644E+03 -6.196133E+04
        49  10  9.223853E+03  1.507837E+05  3.434202E+04 -1.264368E+05  4.544770E-10  1.670867E-08
        49  11 -2.129128E+04 -1.398970E+04  1.536502E+04 -7.709064E+04 -1.169656E-09  7.793603E-09
        49  12  4.921776E+03 -1.631073E+05  1.816939E+04 -7.900944E+04  1.996978E-11 -1.988432E-09
        49  13 -2.001329E+03  1.037048E+05  2.538276E+04 -1.176527E+05  3.402621E-09 -5.060873E-12
        49  14  5.531796E+03  9.507155E+04  4.027365E+04 -9.199431E+04 -3.624742E-11  3.815983E-10
        49  15  7.141477E+04  1.036880E+05  8.346068E+04 -1.175944E+05  9.571563E-10 -4.707529E-11
        49  16 -1.322635E+04  5.662821E+04  1.642344E+04 -1.088692E+05  6.998403E-10 -1.733792E-08
        49  17  3.235488E+04  2.041443E+05  6.518161E+04 -1.069006E+05  1.417315E-09 -9.474117E-09
        49  18  1.379081E+05  3.705513E+05  1.487476E+05 -1.561961E+05  1.662079E-09  1.806832E-09
        49  19  9.224053E+03  1.507844E+05  3.434334E+04 -1.264369E+05 -3.773642E+03  2.627002E+04
        49  20 -2.129088E+04 -1.398815E+04  1.536775E+04 -7.709054E+04  3.115052E+03  3.797125E+04
        49  21  4.922442E+03 -1.631046E+05  1.817403E+04 -7.900936E+04  1.855293E+03  4.966386E+04
        49  22 -2.001264E+03  1.037050E+05  2.538313E+04 -1.176527E+05 -3.761632E+03  1.362924E+04
        49  23  5.532130E+03  9.507285E+04  4.027593E+04 -9.199422E+04  3.116943E+03  3.472315E+04
        49  24  7.141560E+04  1.036914E+05  8.346654E+04 -1.175944E+05  1.846849E+03  5.581128E+04
        49  25 -1.322634E+04  5.662822E+04  1.642347E+04 -1.088692E+05 -3.749979E+03  9.894082E+02
        49  26  3.235515E+04  2.041454E+05  6.518349E+04 -1.069005E+05  3.118990E+03  3.147448E+04
        49  27  1.379091E+05  3.705555E+05  1.487548E+05 -1.561960E+05  1.837644E+03  6.196133E+04
        50   1 -4.327720E+05 -1.268493E+05 -5.731671E+04 -1.699643E+05 -2.714366E+04 -8.936927E+03
        50   2 -4.191992E+05 -8.641456E+04 -3.138537E+04 -1.647189E+05 -1.692046E+04 -2.591490E+03
        50   3 -4.126577E+05 -7.428959E+04 -2.040312E+04 -1.575374E+05 -5.805190E+03  1.375698E+03
        50   4 -3.628611E+05 -8.613623E+04 -3.601890E+04 -1.360210E+05 -2.348862E+04 -7.567174E+03
        50   5 -3.576254E+05 -5.821172E+04 -1.595248E+04 -1.422462E+05 -1.582870E+04 -2.182340E+03
        50   6 -3.589119E+05 -5.808778E+04 -8.802652E+03 -1.465357E+05 -7.276814E+03  8.239604E+02
        50   7 -2.929462E+05 -4.542114E+04 -1.472187E+04 -1.020742E+05 -1.983320E+04 -6.197063E+03
        50   8 -2.960480E+05 -3.000813E+04 -5.199530E+02 -1.197713E+05 -1.473682E+04 -1.773124E+03
        50   9 -3.051627E+05 -4.188581E+04  2.797787E+03 -1.355332E+05 -8.748590E+03  2.721883E+02
        50  10 -4.327728E+05 -1.268496E+05 -5.731825E+04 -1.699645E+05 -3.394079E-10 -1.404822E-10
        50  11 -4.191995E+05 -8.641465E+04 -3.138592E+04 -1.647189E+05 -2.118591E-09  1.632684E-10
        50  12 -4.126578E+05 -7.428960E+04 -2.040318E+04 -1.575374E+05 -3.305177E-09 -1.967838E-10
        50  13 -3.628617E+05 -8.613644E+04 -3.602004E+04 -1.360212E+05 -8.001319E-11  2.621711E-10
        50  14 -3.576257E+05 -5.821180E+04 -1.595296E+04 -1.422462E+05  7.182959E-10  5.677567E-10
        50  15 -3.589120E+05 -5.808780E+04 -8.802753E+03 -1.465357E+05 -1.032038E-09  4.430777E-10
        50  16 -2.929466E+05 -4.542129E+04 -1.472268E+04 -1.020743E+05  9.781751E-10  6.839720E-10
        50  17 -2.960482E+05 -3.000819E+04 -5.203672E+02 -1.197713E+05  1.493737E-09  1.269408E-09
        50  18 -3.051628E+05 -4.188583E+04  2.797643E+03 -1.355332E+05  2.665147E-09  8.586240E-10
        50  19 -4.327720E+05 -1.268493E+05 -5.731671E+04 -1.699643E+05  2.714366E+04  8.936927E+03
        50  20 -4.191992E+05 -8.641456E+04 -3.138537E+04 -1.647189E+05  1.692046E+04  2.591490E+03
        50  21 -4.126577E+05 -7.428959E+04 -2.040312E+04 -1.575374E+05  5.805190E+03 -1.375698E+03
        50  22 -3.628611E+05 -8.613623E+04 -3.601890E+04 -1.360210E+05  2.348862E+04  7.567174E+03
        50  23 -3.576254E+05 -5.821172E+04 -1.595248E+04 -1.422462E+05  1.582870E+04  2.182340E+03
        50  24 -3.589119E+05 -5.808778E+04 -8.802652E+03 -1.465357E+05  7.276814E+03 -8.239604E+02
        50  25 -2.929462E+05 -4.542114E+04 -1.472187E+04 -1.020742E+05  1.983320E+04  6.197063E+03
        50  26 -2.960480E+05 -3.000813E+04 -5.199530E+02 -1.197713E+05  1.473682E+04  1.773124E+03
        50  27 -3.051627E+05 -4.188581E+04  2.797787E+03 -1.355332E+05  8.748590E+03 -2.721883E+02
        51   1 -3.975139E+05 -7.521772E+04 -1.599826E+04 -1.565592E+05 -5.103620E+03  8.199106E+02
        51   2 -3.845574E+05 -6.648618E+04 -9.352123E+03 -1.504667E+05 -2.850787E+03  7.166003E+02
        51   3 -3.685592E+05 -6.268637E+04 -4.468629E+03 -1.484311E+05 -5.545417E+02  4.975680E+02
        51   4 -3.577828E+05 -6.012149E+04 -6.871119E+03 -1.451974E+05 -5.937441E+03  5.072788E+02
        51   5 -3.592277E+05 -5.704362E+04 -3.598587E+03 -1.434029E+05 -3.809240E+03  3.572614E+02
        51   6 -3.576064E+05 -5.887268E+04 -1.989808E+03 -1.456652E+05 -1.637706E+03  9.150241E+01
        51   7 -3.180500E+05 -4.502505E+04  2.255959E+03 -1.338349E+05 -6.771322E+03  1.946227E+02
        51   8 -3.338976E+05 -4.760111E+04  2.154837E+03 -1.363389E+05 -4.767726E+03 -2.089946E+00
        51   9 -3.466538E+05 -5.505908E+04  4.889372E+02 -1.428994E+05 -2.720864E+03 -3.145601E+02
        51  10 -3.975139E+05 -7.521773E+04 -1.599831E+04 -1.565592E+05 -2.050687E-08 -7.887155E-09
        51  11 -3.845574E+05 -6.648618E+04 -9.352139E+03 -1.504667E+05  4.763946E-09 -1.018572E-09
        51  12 -3.685592E+05 -6.268637E+04 -4.468630E+03 -1.484311E+05  2.529106E-08  6.944481E-09
        51  13 -3.577829E+05 -6.012150E+04 -6.871186E+03 -1.451974E+05 -1.744600E-11 -3.036892E-10
        51  14 -3.592277E+05 -5.704362E+04 -3.598615E+03 -1.434029E+05  5.129341E-09 -8.534987E-10
        51  15 -3.576065E+05 -5.887268E+04 -1.989813E+03 -1.456652E+05  3.614606E-09 -1.136777E-09
        51  16 -3.180501E+05 -4.502506E+04  2.255873E+03 -1.338349E+05  2.487091E-08  7.354322E-09
        51  17 -3.338976E+05 -4.760111E+04  2.154794E+03 -1.363389E+05  4.940917E-09 -1.014187E-09
        51  18 -3.466538E+05 -5.505908E+04  4.889231E+02 -1.428994E+05 -2.086144E-08 -9.225850E-09
        51  19 -3.975139E+05 -7.521772E+04 -1.599826E+04 -1.565592E+05  5.103620E+03 -8.199106E+02
        51  20 -3.845574E+05 -6.648618E+04 -9.352123E+03 -1.504667E+05  2.850787E+03 -7.166003E+02
        51  21 -3.685592E+05 -6.268637E+04 -4.468629E+03 -1.484311E+05  5.545417E+02 -4.975680E+02
        51  22 -3.577828E+05 -6.012149E+04 -6.871119E+03 -1.451974E+05  5.937441E+03 -5.072788E+02
        51  23 -3.592277E+05 -5.704362E+04 -3.598587E+03 -1.434029E+05  3.809240E+03 -3.572614E+02
        51  24 -3.576064E+05 -5.887268E+04 -1.989808E+03 -1.456652E+05  1.637706E+03 -9.150241E+01
        51  25 -3.180500E+05 -4.502505E+04  2.255959E+03 -1.338349E+05  6.771322E+03 -1.946227E+02
        51  26 -3.338976E+05 -4.760111E+04  2.154837E+03 -1.363389E+05  4.767726E+03  2.089946E+00
        51  27 -3.466538E+05 -5.505908E+04  4.889372E+02 -1.428994E+05  2.720864E+03  3.145601E+02
        52   1 -3.573332E+05 -5.884471E+04 -1.417747E+03 -1.455025E+05 -8.676001E+01  1.021744E+01
        52   2 -3.445275E+05 -5.153857E+04  2.507357E+03 -1.393423E+05  7.024917E+02 -8.101031E+02
        52   3 -3.280599E+05 -4.803408E+04  6.103207E+03 -1.374711E+05  1.493769E+03 -1.635672E+03
        52   4 -3.575208E+05 -5.896005E+04 -1.507177E+03 -1.455919E+05 -1.139021E+03 -3.842599E+02
        52   5 -3.593491E+05 -5.703897E+04 -8.348494E+02 -1.434551E+05 -3.554599E+02 -1.206735E+03
        52   6 -3.575147E+05 -5.891857E+04 -4.872928E+02 -1.456074E+05  4.301141E+02 -2.034461E+03
        52   7 -3.577084E+05 -5.907538E+04 -1.596604E+03 -1.456814E+05 -2.191303E+03 -7.787451E+02
        52   8 -3.741708E+05 -6.253945E+04 -4.177137E+03 -1.475679E+05 -1.413403E+03 -1.603364E+03
        52   9 -3.869691E+05 -6.980316E+04 -7.077960E+03 -1.537435E+05 -6.335017E+02 -2.433235E+03
        52  10 -3.573332E+05 -5.884471E+04 -1.417747E+03 -1.455025E+05  2.938875E-09  1.544366E-10
        52  11 -3.445275E+05 -5.153857E+04  2.507354E+03 -1.393423E+05  1.611806E-09  1.005375E-09
        52  12 -3.280599E+05 -4.803409E+04  6.103198E+03 -1.374711E+05  2.302961E-09  1.048708E-09
        52  13 -3.575208E+05 -5.896005E+04 -1.507180E+03 -1.455919E+05 -8.706647E-10 -5.221164E-10
        52  14 -3.593491E+05 -5.703897E+04 -8.348524E+02 -1.434551E+05 -2.959613E-09  2.645870E-10
        52  15 -3.575147E+05 -5.891858E+04 -4.873009E+02 -1.456074E+05 -2.713282E-10  4.255542E-10
        52  16 -3.577084E+05 -5.907539E+04 -1.596614E+03 -1.456814E+05 -1.133737E-09 -1.040160E-09
        52  17 -3.741708E+05 -6.253946E+04 -4.177145E+03 -1.475679E+05 -2.794129E-09 -3.189720E-10
        52  18 -3.869691E+05 -6.980316E+04 -7.077972E+03 -1.537435E+05 -2.388285E-09 -2.133778E-10
        52  19 -3.573332E+05 -5.884471E+04 -1.417747E+03 -1.455025E+05  8.676001E+01 -1.021744E+01
        52  20 -3.445275E+05 -5.153857E+04  2.507357E+03 -1.393423E+05 -7.024917E+02  8.101031E+02
        52  21 -3.280599E+05 -4.803408E+04  6.103207E+03 -1.374711E+05 -1.493769E+03  1.635672E+03
        52  22 -3.575208E+05 -5.896005E+04 -1.507177E+03 -1.455919E+05  1.139021E+03  3.842599E+02
        52  23 -3.593491E+05 -5.703897E+04 -8.348494E+02 -1.434551E+05  3.554599E+02  1.206735E+03
        52  24 -3.575147E+05 -5.891857E+04 -4.872928E+02 -1.456074E+05 -4.301141E+02  2.034461E+03
        52  25 -3.577084E+05 -5.907538E+04 -1.596604E+03 -1.456814E+05  2.191303E+03  7.787451E+02
        52  26 -3.741708E+05 -6.253945E+04 -4.177137E+03 -1.475679E+05  1.413403E+03  1.603364E+03
        52  27 -3.869691E+05 -6.980316E+04 -7.077960E+03 -1.537435E+05  6.335017E+02  2.433235E+03
        53   1 -3.170658E+05 -4.397700E+04  8.770792E+03 -1.344590E+05  1.779718E+03 -2.183049E+03
        53   2 -3.043054E+05 -3.672936E+04  1.212330E+04 -1.282967E+05  2.287534E+03 -3.115787E+03
        53   3 -2.878301E+05 -3.322214E+04  1.537179E+04 -1.264195E+05  2.795285E+03 -4.048185E+03
        53   4 -3.575059E+05 -5.892022E+04 -3.882201E+02 -1.456011E+05  7.178699E+02 -2.581173E+03
        53   5 -3.593634E+05 -5.705077E+04 -2.790428E+02 -1.434584E+05  1.226014E+03 -3.513817E+03
        53   6 -3.575062E+05 -5.892162E+04 -2.740834E+02 -1.456006E+05  1.734096E+03 -4.446130E+03
        53   7 -3.979434E+05 -7.386295E+04 -9.547062E+03 -1.567423E+05 -3.438778E+02 -2.979260E+03
        53   8 -4.144180E+05 -7.737179E+04 -1.268147E+04 -1.586187E+05  1.646040E+02 -3.911807E+03
        53   9 -4.271782E+05 -8.462099E+04 -1.592046E+04 -1.647800E+05  6.730243E+02 -4.844030E+03
        53  10 -3.170658E+05 -4.397701E+04  8.770777E+03 -1.344590E+05  3.247165E-09  6.065542E-10
        53  11 -3.043055E+05 -3.672938E+04  1.212327E+04 -1.282967E+05  5.452355E-10  4.629786E-11
        53  12 -2.878302E+05 -3.322216E+04  1.537174E+04 -1.264195E+05 -2.748747E-09  2.370174E-10
        53  13 -3.575059E+05 -5.892023E+04 -3.882336E+02 -1.456011E+05 -1.094158E-09  6.453566E-11
        53  14 -3.593634E+05 -5.705078E+04 -2.790688E+02 -1.434584E+05 -1.822479E-09 -3.533575E-10
        53  15 -3.575063E+05 -5.892164E+04 -2.741262E+02 -1.456006E+05 -2.751302E-10  6.274060E-10
        53  16 -3.979434E+05 -7.386295E+04 -9.547079E+03 -1.567423E+05 -1.117876E-09 -6.476190E-10
        53  17 -4.144180E+05 -7.737181E+04 -1.268149E+04 -1.586187E+05 -7.964651E-10 -3.663975E-10
        53  18 -4.271782E+05 -8.462101E+04 -1.592050E+04 -1.647800E+05  1.399203E-09  1.006119E-09
        53  19 -3.170658E+05 -4.397700E+04  8.770792E+03 -1.344590E+05 -1.779718E+03  2.183049E+03
        53  20 -3.043054E+05 -3.672936E+04  1.212330E+04 -1.282967E+05 -2.287534E+03  3.115787E+03
        53  21 -2.878301E+05 -3.322214E+04  1.537179E+04 -1.264195E+05 -2.795285E+03  4.048185E+03
        53  22 -3.575059E+05 -5.892022E+04 -3.882201E+02 -1.456011E+05 -7.178699E+02  2.581173E+03
        53  23 -3.593634E+05 -5.705077E+04 -2.790428E+02 -1.434584E+05 -1.226014E+03  3.513817E+03
        53  24 -3.575062E+05 -5.892162E+04 -2.740834E+02 -1.456006E+05 -1.734096E+03  4.446130E+03
        53  25 -3.979434E+05 -7.386295E+04 -9.547062E+03 -1.567423E+05  3.438778E+02  2.979260E+03
        53  26 -4.144180E+05 -7.737179E+04 -1.268147E+04 -1.586187E+05 -1.646040E+02  3.911807E+03
        53  27 -4.271782E+05 -8.462099E+04 -1.592046E+04 -1.647800E+05 -6.730243E+02  4.844030E+03
        54   1 -2.768720E+05 -2.916100E+04  1.790455E+04 -1.234086E+05  3.057722E+03 -4.602945E+03
        54   2 -2.641353E+05 -2.192992E+04  2.098570E+04 -1.172633E+05  3.653507E+03 -5.500310E+03
        54   3 -2.477042E+05 -1.843497E+04  2.389640E+04 -1.153951E+05  4.248739E+03 -6.395893E+03
        54   4 -3.575113E+05 -5.892035E+04 -3.064776E+02 -1.455993E+05  1.997287E+03 -5.000640E+03
        54   5 -3.593588E+05 -5.705167E+04 -4.601653E+02 -1.434611E+05  2.594933E+03 -5.897372E+03
        54   6 -3.575123E+05 -5.891955E+04 -7.857651E+02 -1.456001E+05  3.192018E+03 -6.792321E+03
        54   7 -4.381440E+05 -8.867919E+04 -1.851791E+04 -1.677873E+05  9.370019E+02 -5.398279E+03
        54   8 -4.545729E+05 -9.217262E+04 -2.190652E+04 -1.696551E+05  1.536539E+03 -6.294366E+03
        54   9 -4.673077E+05 -9.940295E+04 -2.546850E+04 -1.758001E+05  2.135507E+03 -7.188672E+03
        54  10 -2.768720E+05 -2.916103E+04  1.790449E+04 -1.234086E+05  4.502866E-11  9.708450E-10
        54  11 -2.641353E+05 -2.192996E+04  2.098562E+04 -1.172633E+05 -2.851838E-09 -8.659977E-10
        54  12 -2.477042E+05 -1.843502E+04  2.389629E+04 -1.153950E+05 -2.506496E-09 -8.866147E-10
        54  13 -3.575113E+05 -5.892037E+04 -3.065321E+02 -1.455993E+05 -1.817294E-10  4.549198E-10
        54  14 -3.593588E+05 -5.705171E+04 -4.602433E+02 -1.434610E+05 -3.956034E-09 -8.370985E-10
        54  15 -3.575123E+05 -5.891961E+04 -7.858709E+02 -1.456001E+05  6.724361E-10 -9.327795E-10
        54  16 -4.381441E+05 -8.867923E+04 -1.851797E+04 -1.677873E+05 -1.735086E-09 -5.559649E-11
        54  17 -4.545729E+05 -9.217266E+04 -2.190660E+04 -1.696551E+05 -3.299509E-09 -7.719334E-10
        54  18 -4.673077E+05 -9.940301E+04 -2.546861E+04 -1.758001E+05 -1.718033E-10 -9.338250E-10
        54  19 -2.768720E+05 -2.916100E+04  1.790455E+04 -1.234086E+05 -3.057722E+03  4.602945E+03
        54  20 -2.641353E+05 -2.192992E+04  2.098570E+04 -1.172633E+05 -3.653507E+03  5.500310E+03
        54  21 -2.477042E+05 -1.843497E+04  2.389640E+04 -1.153951E+05 -4.248739E+03  6.395893E+03
        54  22 -3.575113E+05 -5.892035E+04 -3.064776E+02 -1.455993E+05 -1.997287E+03  5.000640E+03
        54  23 -3.593588E+05 -5.705167E+04 -4.601653E+02 -1.434611E+05 -2.594933E+03  5.897372E+03
        54  24 -3.575123E+05 -5.891955E+04 -7.857651E+02 -1.456001E+05 -3.192018E+03  6.792321E+03
        54  25 -4.381440E+05 -8.867919E+04 -1.851791E+04 -1.677873E+05 -9.370019E+02  5.398279E+03
        54  26 -4.545729E+05 -9.217262E+04 -2.190652E+04 -1.696551E+05 -1.536539E+03  6.294366E+03
        54  27 -4.673077E+05 -9.940295E+04 -2.546850E+04 -1.758001E+05 -2.135507E+03  7.188672E+03
        55   1 -2.367868E+05 -1.439372E+04  2.620448E+04 -1.124195E+05  4.616951E+03 -6.909941E+03
        55   2 -2.240397E+05 -7.173901E+03  2.860898E+04 -1.062794E+05  5.890770E+03 -7.543339E+03
        55   3 -2.077421E+05 -3.802182E+03  3.030629E+04 -1.043984E+05  7.158454E+03 -8.159803E+03
        55   4 -3.575405E+05 -5.891159E+04 -1.034564E+03 -1.456088E+05  3.557386E+03 -7.307485E+03
        55   5 -3.593216E+05 -5.703474E+04 -1.856071E+03 -1.434611E+05  4.849198E+03 -7.934228E+03
        55   6 -3.575560E+05 -5.900985E+04 -3.399228E+03 -1.455727E+05  6.134850E+03 -8.544043E+03
        55   7 -4.782804E+05 -1.034287E+05 -2.827475E+04 -1.787924E+05  2.498037E+03 -7.704947E+03
        55   8 -4.945854E+05 -1.068944E+05 -3.232242E+04 -1.806354E+05  3.807870E+03 -8.325027E+03
        55   9 -5.073474E+05 -1.142158E+05 -3.710619E+04 -1.867379E+05  5.111514E+03 -8.928182E+03
        55  10 -2.367868E+05 -1.439378E+04  2.620435E+04 -1.124195E+05 -9.062089E-10 -4.766802E-10
        55  11 -2.240398E+05 -7.173971E+03  2.860881E+04 -1.062794E+05 -5.099919E-10 -1.667636E-10
        55  12 -2.077422E+05 -3.802267E+03  3.030607E+04 -1.043984E+05 -8.610400E-10  2.310323E-10
        55  13 -3.575406E+05 -5.891165E+04 -1.034688E+03 -1.456088E+05  3.381972E-09 -4.126116E-10
        55  14 -3.593216E+05 -5.703482E+04 -1.856234E+03 -1.434610E+05  1.288080E-09  6.420527E-11
        55  15 -3.575561E+05 -5.900994E+04 -3.399436E+03 -1.455726E+05 -9.381911E-10  1.060121E-10
        55  16 -4.782804E+05 -1.034287E+05 -2.827488E+04 -1.787924E+05  1.312109E-09 -3.397004E-10
        55  17 -4.945855E+05 -1.068945E+05 -3.232258E+04 -1.806354E+05  6.285994E-10  3.701944E-10
        55  18 -5.073475E+05 -1.142159E+05 -3.710639E+04 -1.867378E+05 -1.270741E-09  2.030531E-10
        55  19 -2.367868E+05 -1.439372E+04  2.620448E+04 -1.124195E+05 -4.616951E+03  6.909941E+03
        55  20 -2.240397E+05 -7.173901E+03  2.860898E+04 -1.062794E+05 -5.890770E+03  7.543339E+03
        55  21 -2.077421E+05 -3.802182E+03  3.030629E+04 -1.043984E+05 -7.158454E+03  8.159803E+03
        55  22 -3.575405E+05 -5.891159E+04 -1.034564E+03 -1.456088E+05 -3.557386E+03  7.307485E+03
        55  23 -3.593216E+05 -5.703474E+04 -1.856071E+03 -1.434611E+05 -4.849198E+03  7.934228E+03
        55  24 -3.575560E+05 -5.900985E+04 -3.399228E+03 -1.455727E+05 -6.134850E+03  8.544043E+03
        55  25 -4.782804E+05 -1.034287E+05 -2.827475E+04 -1.787924E+05 -2.498037E+03  7.704947E+03
        55  26 -4.945854E+05 -1.068944E+05 -3.232242E+04 -1.806354E+05 -3.807870E+03  8.325027E+03
        55  27 -5.073474E+05 -1.142158E+05 -3.710619E+04 -1.867379E+05 -5.111514E+03  8.928182E+03
        56   1 -1.967289E+05  1.074359E+02  3.173866E+04 -1.019385E+05  8.096291E+03 -8.477979E+03
        56   2 -1.841432E+05  7.738827E+03  3.136380E+04 -9.495430E+04  1.219857E+04 -7.927772E+03
        56   3 -1.693149E+05  9.093837E+03  2.748907E+04 -9.168006E+04  1.618181E+04 -7.059678E+03
        56   4 -3.577556E+05 -5.880823E+04 -4.499939E+03 -1.457345E+05  6.989519E+03 -8.893482E+03
        56   5 -3.590436E+05 -5.705413E+04 -8.158863E+03 -1.433479E+05  1.143337E+04 -8.215224E+03
        56   6 -3.581574E+05 -6.164460E+04 -1.558912E+04 -1.446712E+05  1.575810E+04 -7.219070E+03
        56   7 -5.187553E+05 -1.177217E+05 -4.073992E+04 -1.895200E+05  5.883064E+03 -9.308867E+03
        56   8 -5.339133E+05 -1.218447E+05 -4.768350E+04 -1.917291E+05  1.066840E+04 -8.502587E+03
        56   9 -5.469652E+05 -1.323805E+05 -5.866998E+04 -1.976479E+05  1.533453E+04 -7.378409E+03
        56  10 -1.967290E+05  1.073411E+02  3.173840E+04 -1.019385E+05  1.440555E-10  1.877619E-10
        56  11 -1.841434E+05  7.738720E+03  3.136340E+04 -9.495423E+04 -1.971476E-10 -3.135033E-10
        56  12 -1.693152E+05  9.093713E+03  2.748848E+04 -9.167997E+04 -3.539567E-10  9.588314E-10
        56  13 -3.577557E+05 -5.880833E+04 -4.500179E+03 -1.457345E+05 -1.025021E-09 -1.127510E-10
        56  14 -3.590438E+05 -5.705424E+04 -8.159236E+03 -1.433478E+05 -5.626673E-10 -2.029227E-10
        56  15 -3.581576E+05 -6.164472E+04 -1.558968E+04 -1.446712E+05  2.513347E-09  8.091913E-10
        56  16 -5.187553E+05 -1.177218E+05 -4.074015E+04 -1.895199E+05 -1.321526E-09 -5.773434E-10
        56  17 -5.339134E+05 -1.218448E+05 -4.768385E+04 -1.917290E+05  1.114253E-09 -5.621973E-11
        56  18 -5.469655E+05 -1.323807E+05 -5.867052E+04 -1.976478E+05  4.542285E-09  8.926072E-10
        56  19 -1.967289E+05  1.074359E+02  3.173866E+04 -1.019385E+05 -8.096291E+03  8.477979E+03
        56  20 -1.841432E+05  7.738827E+03  3.136380E+04 -9.495430E+04 -1.219857E+04  7.927772E+03
        56  21 -1.693149E+05  9.093837E+03  2.748907E+04 -9.168006E+04 -1.618181E+04  7.059678E+03
        56  22 -3.577556E+05 -5.880823E+04 -4.499939E+03 -1.457345E+05 -6.989519E+03  8.893482E+03
        56  23 -3.590436E+05 -5.705413E+04 -8.158863E+03 -1.433479E+05 -1.143337E+04  8.215224E+03
        56  24 -3.581574E+05 -6.164460E+04 -1.558912E+04 -1.446712E+05 -1.575810E+04  7.219070E+03
        56  25 -5.187553E+05 -1.177217E+05 -4.073992E+04 -1.895200E+05 -5.883064E+03  9.308867E+03
        56  26 -5.339133E+05 -1.218447E+05 -4.768350E+04 -1.917291E+05 -1.066840E+04  8.502587E+03
        56  27 -5.469652E+05 -1.323805E+05 -5.866998E+04 -1.976479E+05 -1.533453E+04  7.378409E+03
        57   1 -1.541383E+05  1.100844E+04  2.537456E+04 -9.936942E+04  2.071514E+04 -6.453732E+03
        57   2 -1.499415E+05  2.866234E+04  1.394735E+04 -7.159755E+04  3.249139E+04 -6.106619E+02
        57   3 -1.639961E+05 -1.051180E+04 -2.122627E+04 -3.386498E+04  4.182420E+04  1.174070E+04
        57   4 -3.607295E+05 -5.702049E+04 -1.997372E+04 -1.476973E+05  1.854633E+04 -7.267934E+03
        57   5 -3.553966E+05 -5.972005E+04 -3.620126E+04 -1.407374E+05  3.733499E+04  1.206717E+03
        57   6 -3.697129E+05 -1.206501E+05 -8.173864E+04 -1.238150E+05  5.367941E+04  1.618958E+04
        57   7 -5.672778E+05 -1.250482E+05 -6.532452E+04 -1.960113E+05  1.637830E+04 -8.081915E+03
        57   8 -5.608082E+05 -1.480947E+05 -8.635267E+04 -2.098547E+05  4.217684E+04  3.023195E+03
        57   9 -5.753838E+05 -2.307699E+05 -1.422538E+05 -2.137330E+05  6.553026E+04  2.063525E+04
        57  10 -1.541388E+05  1.100828E+04  2.537367E+04 -9.936931E+04  2.679871E-09  1.893768E-09
        57  11 -1.499426E+05  2.866206E+04  1.394537E+04 -7.159754E+04  3.037998E-09  1.951895E-10
        57  12 -1.639981E+05 -1.051242E+04 -2.122981E+04 -3.386538E+04 -5.288510E-11 -1.583615E-10
        57  13 -3.607299E+05 -5.702064E+04 -1.997446E+04 -1.476972E+05  5.290184E-09  5.333300E-10
        57  14 -3.553981E+05 -5.972043E+04 -3.620389E+04 -1.407375E+05  1.393686E-09 -1.027300E-09
        57  15 -3.697161E+05 -1.206512E+05 -8.174456E+04 -1.238157E+05 -9.996804E-10 -1.982881E-10
        57  16 -5.672782E+05 -1.250484E+05 -6.532515E+04 -1.960112E+05  1.432858E-09  3.399369E-10
        57  17 -5.608101E+05 -1.480952E+05 -8.635603E+04 -2.098548E+05 -1.398323E-09 -4.935200E-10
        57  18 -5.753886E+05 -2.307716E+05 -1.422627E+05 -2.137341E+05  7.940351E-10 -9.372992E-11
        57  19 -1.541383E+05  1.100844E+04  2.537456E+04 -9.936942E+04 -2.071514E+04  6.453732E+03
        57  20 -1.499415E+05  2.866234E+04  1.394735E+04 -7.159755E+04 -3.249139E+04  6.106619E+02
        57  21 -1.639961E+05 -1.051180E+04 -2.122627E+04 -3.386498E+04 -4.182420E+04 -1.174070E+04
        57  22 -3.607295E+05 -5.702049E+04 -1.997372E+04 -1.476973E+05 -1.854633E+04  7.267934E+03
        57  23 -3.553966E+05 -5.972005E+04 -3.620126E+04 -1.407374E+05 -3.733499E+04 -1.206717E+03
        57  24 -3.697129E+05 -1.206501E+05 -8.173864E+04 -1.238150E+05 -5.367941E+04 -1.618958E+04
        57  25 -5.672778E+05 -1.250482E+05 -6.532452E+04 -1.960113E+05 -1.637830E+04  8.081915E+03
        57  26 -5.608082E+05 -1.480947E+05 -8.635267E+04 -2.098547E+05 -4.217684E+04 -3.023195E+03
        57  27 -5.753838E+05 -2.307699E+05 -1.422538E+05 -2.137330E+05 -6.553026E+04 -2.063525E+04
        58   1 -2.460627E+04 -2.641596E+03 -3.084915E+03 -1.420750E+03 -2.125233E+03  4.863685E-03
        58   2 -2.428743E+04 -2.005455E+02 -1.440883E+03 -5.457282E+02 -1.369251E+03  1.203650E-03
        58   3 -2.460624E+04  8.365976E+01 -8.282627E+02  3.293068E+02 -6.132565E+02 -3.252994E-04
        58   4 -2.460628E+04 -2.641600E+03 -3.084916E+03  5.377127E-09 -2.125233E+03 -2.022104E-10
        58   5 -2.428743E+04 -2.005461E+02 -1.440883E+03  1.131270E-09 -1.369251E+03 -2.987699E-10
        58   6 -2.460625E+04  8.365956E+01 -8.282627E+02  3.852134E-10 -6.132565E+02  5.579533E-10
        58   7 -2.460627E+04 -2.641596E+03 -3.084915E+03  1.420750E+03 -2.125233E+03 -4.863686E-03
        58   8 -2.428743E+04 -2.005455E+02 -1.440883E+03  5.457282E+02 -1.369251E+03 -1.203651E-03
        58   9 -2.460624E+04  8.365976E+01 -8.282627E+02 -3.293068E+02 -6.132565E+02  3.253005E-04
        58  10 -2.460628E+04 -2.641597E+03 -3.084923E+03 -1.420750E+03  9.052327E-10 -3.187634E-10
        58  11 -2.428743E+04 -2.005460E+02 -1.440887E+03 -5.457282E+02 -1.048495E-09 -5.923010E-10
        58  12 -2.460625E+04  8.365966E+01 -8.282634E+02  3.293068E+02 -2.936835E-09  4.187416E-10
        58  13 -2.460628E+04 -2.641601E+03 -3.084924E+03  3.034320E-09 -8.790284E-12 -2.083778E-10
        58  14 -2.428743E+04 -2.005466E+02 -1.440887E+03  2.815225E-09 -5.471401E-10 -3.991714E-10
        58  15 -2.460625E+04  8.365946E+01 -8.282634E+02  4.481177E-09 -2.818206E-09  2.227903E-10
        58  16 -2.460628E+04 -2.641597E+03 -3.084923E+03  1.420750E+03 -1.448043E-09 -9.593418E-11
        58  17 -2.428743E+04 -2.005460E+02 -1.440887E+03  5.457282E+02 -5.885961E-10 -2.065910E-10
        58  18 -2.460625E+04  8.365966E+01 -8.282634E+02 -3.293068E+02  1.044230E-09  2.600928E-11
        58  19 -2.460627E+04 -2.641596E+03 -3.084915E+03 -1.420750E+03  2.125233E+03 -4.863686E-03
        58  20 -2.428743E+04 -2.005455E+02 -1.440883E+03 -5.457282E+02  1.369251E+03 -1.203652E-03
        58  21 -2.460624E+04  8.365976E+01 -8.282627E+02  3.293068E+02  6.132565E+02  3.253003E-04
        58  22 -2.460628E+04 -2.641600E+03 -3.084916E+03  4.998740E-09  2.125233E+03 -2.143633E-10
        58  23 -2.428743E+04 -2.005461E+02 -1.440883E+03  1.268173E-09  1.369251E+03 -4.995664E-10
        58  24 -2.460625E+04  8.365956E+01 -8.282627E+02  2.922422E-09  6.132565E+02 -1.118827E-10
        58  25 -2.460627E+04 -2.641596E+03 -3.084915E+03  1.420750E+03  2.125233E+03  4.863685E-03
        58  26 -2.428743E+04 -2.005455E+02 -1.440883E+03  5.457282E+02  1.369251E+03  1.203651E-03
        58  27 -2.460624E+04  8.365976E+01 -8.282627E+02 -3.293068E+02  6.132565E+02 -3.253005E-04
        59   1 -2.447535E+04 -1.077907E+02 -6.530195E+02 -3.573318E+01 -4.997794E+02  2.876768E-05
        59   2 -2.445104E+04 -1.777203E+00 -3.727386E+02 -7.557483E+00 -3.136890E+02  3.818858E-06
        59   3 -2.447535E+04  6.704239E+00 -2.379971E+02  2.061821E+01 -1.275986E+02 -4.237023E-06
        59   4 -2.447535E+04 -1.077907E+02 -6.530195E+02  1.738029E-09 -4.997794E+02  6.329297E-10
        59   5 -2.445104E+04 -1.777203E+00 -3.727386E+02 -2.896031E-09 -3.136890E+02  7.393748E-11
        59   6 -2.447535E+04  6.704239E+00 -2.379971E+02  3.508786E-09 -1.275986E+02  5.288280E-10
        59   7 -2.447535E+04 -1.077907E+02 -6.530195E+02  3.573318E+01 -4.997794E+02 -2.876643E-05
        59   8 -2.445104E+04 -1.777203E+00 -3.727386E+02  7.557483E+00 -3.136890E+02 -3.818706E-06
        59   9 -2.447535E+04  6.704239E+00 -2.379971E+02 -2.061821E+01 -1.275986E+02  4.238078E-06
        59  10 -2.447535E+04 -1.077908E+02 -6.530200E+02 -3.573318E+01 -1.810965E-09  6.352450E-10
        59  11 -2.445104E+04 -1.777229E+00 -3.727388E+02 -7.557483E+00 -1.181837E-09  5.609195E-11
        59  12 -2.447535E+04  6.704235E+00 -2.379972E+02  2.061821E+01 -1.944798E-09  2.677950E-10
        59  13 -2.447535E+04 -1.077908E+02 -6.530200E+02 -2.752002E-09 -3.239436E-09  3.724541E-10
        59  14 -2.445104E+04 -1.777229E+00 -3.727388E+02  2.827345E-10 -2.705622E-09  3.899100E-12
        59  15 -2.447535E+04  6.704234E+00 -2.379972E+02 -1.827927E-10 -5.291462E-10  4.466093E-11
        59  16 -2.447535E+04 -1.077908E+02 -6.530200E+02  3.573318E+01 -8.761170E-10  1.075257E-10
        59  17 -2.445104E+04 -1.777229E+00 -3.727388E+02  7.557483E+00 -9.853039E-10 -5.042132E-11
        59  18 -2.447535E+04  6.704235E+00 -2.379972E+02 -2.061821E+01 -1.016357E-09 -1.791374E-10
        59  19 -2.447535E+04 -1.077907E+02 -6.530195E+02 -3.573318E+01  4.997794E+02 -2.876641E-05
        59  20 -2.445104E+04 -1.777203E+00 -3.727386E+02 -7.557483E+00  3.136890E+02 -3.818737E-06
        59  21 -2.447535E+04  6.704239E+00 -2.379971E+02  2.061821E+01  1.275986E+02  4.237564E-06
        59  22 -2.447535E+04 -1.077907E+02 -6.530195E+02  5.681696E-09  4.997794E+02  1.114621E-10
        59  23 -2.445104E+04 -1.777203E+00 -3.727386E+02 -2.461636E-09  3.136890E+02 -6.758996E-11
        59  24 -2.447535E+04  6.704239E+00 -2.379971E+02 -1.586021E-09  1.275986E+02 -4.403248E-10
        59  25 -2.447535E+04 -1.077907E+02 -6.530195E+02  3.573318E+01  4.997794E+02  2.876663E-05
        59  26 -2.445104E+04 -1.777203E+00 -3.727386E+02  7.557483E+00  3.136890E+02  3.818601E-06
        59  27 -2.447535E+04  6.704239E+00 -2.379971E+02 -2.061821E+01  1.275986E+02 -4.238443E-06
        60   1 -2.446725E+04 -1.659882E+00 -2.014298E+02  3.205397E+00 -8.859239E+01 -4.569931E-07
        60   2 -2.446116E+04  3.494075E+00 -1.700921E+02 -9.664118E-01 -4.487577E+00  6.386994E-09
        60   3 -2.446725E+04  3.703398E+00 -1.947475E+02 -5.138159E+00  7.961598E+01 -6.580893E-07
        60   4 -2.446725E+04 -1.659882E+00 -2.014298E+02  6.683288E-09 -8.859239E+01  2.814058E-10
        60   5 -2.446116E+04  3.494075E+00 -1.700921E+02  1.522244E-09 -4.487577E+00 -4.508614E-10
        60   6 -2.446725E+04  3.703398E+00 -1.947475E+02  9.149978E-09  7.961598E+01  7.175145E-10
        60   7 -2.446725E+04 -1.659882E+00 -2.014298E+02 -3.205397E+00 -8.859239E+01  4.575549E-07
        60   8 -2.446116E+04  3.494075E+00 -1.700921E+02  9.664118E-01 -4.487577E+00 -7.286768E-09
        60   9 -2.446725E+04  3.703398E+00 -1.947475E+02  5.138159E+00  7.961598E+01  6.595266E-07
        60  10 -2.446725E+04 -1.659884E+00 -2.014298E+02  3.205397E+00  1.311309E-09  3.582137E-11
        60  11 -2.446116E+04  3.494075E+00 -1.700921E+02 -9.664118E-01  1.570559E-09 -5.956959E-10
        60  12 -2.446725E+04  3.703396E+00 -1.947475E+02 -5.138159E+00 -1.597996E-09  1.381155E-10
        60  13 -2.446725E+04 -1.659884E+00 -2.014298E+02  3.221283E-09 -2.147728E-09 -1.116568E-10
        60  14 -2.446116E+04  3.494075E+00 -1.700921E+02  6.925040E-09 -2.153927E-09 -4.471218E-10
        60  15 -2.446725E+04  3.703396E+00 -1.947475E+02  2.282065E-09  1.520139E-10  2.420880E-12
        60  16 -2.446725E+04 -1.659884E+00 -2.014298E+02 -3.205397E+00 -1.569805E-09 -2.586190E-10
        60  17 -2.446116E+04  3.494075E+00 -1.700921E+02  9.664118E-01 -1.810977E-09 -2.976622E-10
        60  18 -2.446725E+04  3.703396E+00 -1.947475E+02  5.138159E+00  8.604482E-10 -1.326938E-10
        60  19 -2.446725E+04 -1.659882E+00 -2.014298E+02  3.205397E+00  8.859239E+01  4.570650E-07
        60  20 -2.446116E+04  3.494075E+00 -1.700921E+02 -9.664118E-01  4.487577E+00 -7.580024E-09
        60  21 -2.446725E+04  3.703398E+00 -1.947475E+02 -5.138159E+00 -7.961598E+01  6.583701E-07
        60  22 -2.446725E+04 -1.659882E+00 -2.014298E+02 -1.316633E-09  8.859239E+01 -5.053418E-10
        60  23 -2.446116E+04  3.494075E+00 -1.700921E+02 -3.826487E-09  4.487577E+00 -4.438837E-10
        60  24 -2.446725E+04  3.703398E+00 -1.947475E+02  5.645372E-09 -7.961598E+01 -7.128475E-10
        60  25 -2.446725E+04 -1.659882E+00 -2.014298E+02 -3.205397E+00  8.859239E+01 -4.580787E-07
        60  26 -2.446116E+04  3.494075E+00 -1.700921E+02  9.664118E-01  4.487577E+00  6.689017E-09
        60  27 -2.446725E+04  3.703398E+00 -1.947475E+02  5.138159E+00 -7.961598E+01 -6.597950E-07
        61   1 -2.446972E+04  3.139055E+00 -2.289094E+02 -7.188283E+00  1.180913E+02 -1.366202E-06
        61   2 -2.445808E+04  8.173369E+00 -3.540378E+02 -1.943403E+01  2.929779E+02 -9.171643E-06
        61   3 -2.446972E+04  1.119220E+01 -5.935308E+02 -3.167996E+01  4.678670E+02 -2.387575E-05
        61   4 -2.446972E+04  3.139055E+00 -2.289094E+02  2.567734E-09  1.180913E+02  8.264517E-10
        61   5 -2.445808E+04  8.173368E+00 -3.540378E+02 -2.200322E-09  2.929779E+02 -4.800877E-10
        61   6 -2.446972E+04  1.119220E+01 -5.935308E+02  6.089644E-09  4.678670E+02 -6.780455E-10
        61   7 -2.446972E+04  3.139055E+00 -2.289094E+02  7.188283E+00  1.180913E+02  1.367851E-06
        61   8 -2.445808E+04  8.173369E+00 -3.540378E+02  1.943403E+01  2.929779E+02  9.170676E-06
        61   9 -2.446972E+04  1.119220E+01 -5.935308E+02  3.167996E+01  4.678670E+02  2.387440E-05
        61  10 -2.446972E+04  3.139051E+00 -2.289094E+02 -7.188283E+00  5.934744E-10  5.279808E-10
        61  11 -2.445808E+04  8.173346E+00 -3.540380E+02 -1.943403E+01  2.557801E-10  2.343915E-10
        61  12 -2.446972E+04  1.119215E+01 -5.935312E+02 -3.167996E+01  4.515845E-10 -7.331980E-11
        61  13 -2.446972E+04  3.139051E+00 -2.289094E+02  2.471633E-09 -1.076437E-09  1.889979E-10
        61  14 -2.445808E+04  8.173345E+00 -3.540380E+02 -3.351891E-09  4.407108E-12 -8.200175E-11
        61  15 -2.446972E+04  1.119214E+01 -5.935312E+02  5.172578E-10 -8.173754E-10 -2.825841E-10
        61  16 -2.446972E+04  3.139051E+00 -2.289094E+02  7.188283E+00 -1.404421E-09 -1.489413E-10
        61  17 -2.445808E+04  8.173346E+00 -3.540380E+02  1.943403E+01  2.227489E-11 -3.972596E-10
        61  18 -2.446972E+04  1.119215E+01 -5.935312E+02  3.167996E+01 -1.728907E-09 -4.919101E-10
        61  19 -2.446972E+04  3.139055E+00 -2.289094E+02 -7.188283E+00 -1.180913E+02  1.367255E-06
        61  20 -2.445808E+04  8.173369E+00 -3.540378E+02 -1.943403E+01 -2.929779E+02  9.172112E-06
        61  21 -2.446972E+04  1.119220E+01 -5.935308E+02 -3.167996E+01 -4.678670E+02  2.387560E-05
        61  22 -2.446972E+04  3.139055E+00 -2.289094E+02  1.297846E-09 -1.180913E+02 -4.489904E-10
        61  23 -2.445808E+04  8.173368E+00 -3.540378E+02 -1.272701E-09 -2.929779E+02  3.160142E-10
        61  24 -2.446972E+04  1.119220E+01 -5.935308E+02  3.965002E-09 -4.678670E+02  1.129649E-10
        61  25 -2.446972E+04  3.139055E+00 -2.289094E+02  7.188283E+00 -1.180913E+02 -1.368153E-06
        61  26 -2.445808E+04  8.173369E+00 -3.540378E+02  1.943403E+01 -2.929779E+02 -9.171480E-06
        61  27 -2.446972E+04  1.119220E+01 -5.935308E+02  3.167996E+01 -4.678670E+02 -2.387538E-05
        62   1 -2.448465E+04  1.101596E+01 -7.764679E+02 -3.770214E+01  5.923142E+02 -3.597165E-05
        62   2 -2.443942E+04  2.996884E+01 -1.340898E+03 -8.017609E+01  1.254885E+03 -1.620648E-04
        62   3 -2.448466E+04  3.221103E+01 -2.340878E+03 -1.226501E+02  1.917455E+03 -3.788209E-04
        62   4 -2.448465E+04  1.101596E+01 -7.764679E+02  8.066148E-09  5.923142E+02  9.016058E-12
        62   5 -2.443942E+04  2.996883E+01 -1.340898E+03 -3.425876E-09  1.254885E+03  1.099372E-09
        62   6 -2.448466E+04  3.221100E+01 -2.340878E+03 -5.494698E-09  1.917455E+03  1.012163E-09
        62   7 -2.448465E+04  1.101596E+01 -7.764679E+02  3.770214E+01  5.923142E+02  3.597168E-05
        62   8 -2.443942E+04  2.996884E+01 -1.340898E+03  8.017609E+01  1.254885E+03  1.620670E-04
        62   9 -2.448466E+04  3.221103E+01 -2.340878E+03  1.226501E+02  1.917455E+03  3.788229E-04
        62  10 -2.448465E+04  1.101587E+01 -7.764686E+02 -3.770214E+01  1.431107E-10 -1.192092E-10
        62  11 -2.443943E+04  2.996842E+01 -1.340901E+03 -8.017609E+01  5.065950E-10 -3.381227E-11
        62  12 -2.448466E+04  3.221005E+01 -2.340885E+03 -1.226501E+02  3.500142E-10 -6.554938E-11
        62  13 -2.448465E+04  1.101587E+01 -7.764686E+02 -1.343058E-09  1.060539E-09 -4.241265E-11
        62  14 -2.443943E+04  2.996841E+01 -1.340901E+03 -1.087477E-08 -1.721249E-11  5.451257E-10
        62  15 -2.448466E+04  3.221002E+01 -2.340885E+03 -2.905948E-09 -3.232584E-09  5.230355E-10
        62  16 -2.448465E+04  1.101587E+01 -7.764686E+02  3.770214E+01  6.601111E-10  3.451991E-11
        62  17 -2.443943E+04  2.996842E+01 -1.340901E+03  8.017609E+01 -1.049708E-09  1.124350E-09
        62  18 -2.448466E+04  3.221005E+01 -2.340885E+03  1.226501E+02 -9.504753E-10  1.111365E-09
        62  19 -2.448465E+04  1.101596E+01 -7.764679E+02 -3.770214E+01 -5.923142E+02  3.597141E-05
        62  20 -2.443942E+04  2.996884E+01 -1.340898E+03 -8.017609E+01 -1.254885E+03  1.620648E-04
        62  21 -2.448466E+04  3.221103E+01 -2.340878E+03 -1.226501E+02 -1.917455E+03  3.788207E-04
        62  22 -2.448465E+04  1.101596E+01 -7.764679E+02  1.093978E-09 -5.923142E+02 -9.374319E-11
        62  23 -2.443942E+04  2.996883E+01 -1.340898E+03 -9.708246E-09 -1.254885E+03 -9.295071E-12
        62  24 -2.448466E+04  3.221100E+01 -2.340878E+03 -6.240895E-09 -1.917455E+03  3.042163E-11
        62  25 -2.448465E+04  1.101596E+01 -7.764679E+02  3.770214E+01 -5.923142E+02 -3.597161E-05
        62  26 -2.443942E+04  2.996884E+01 -1.340898E+03  8.017609E+01 -1.254885E+03 -1.620648E-04
        62  27 -2.448466E+04  3.221103E+01 -2.340878E+03  1.226501E+02 -1.917455E+03 -3.788207E-04
        63   1 -2.455723E+04  5.088395E+01 -3.085583E+03 -1.827758E+02  2.408244E+03 -7.090233E-04
        63   2 -2.434873E+04  9.647099E+01 -5.370638E+03 -2.596796E+02  5.066502E+03 -2.119275E-03
        63   3 -2.455724E+04 -1.414345E+02 -9.457220E+03 -3.365826E+02  7.724708E+03 -4.188079E-03
        63   4 -2.455723E+04  5.088389E+01 -3.085583E+03 -2.308006E-09  2.408244E+03  6.608001E-11
        63   5 -2.434873E+04  9.647086E+01 -5.370638E+03 -3.888678E-09  5.066502E+03 -8.940055E-10
        63   6 -2.455724E+04 -1.414347E+02 -9.457220E+03 -2.191609E-10  7.724708E+03  3.593015E-10
        63   7 -2.455723E+04  5.088395E+01 -3.085583E+03  1.827758E+02  2.408244E+03  7.090235E-04
        63   8 -2.434873E+04  9.647099E+01 -5.370638E+03  2.596796E+02  5.066502E+03  2.119273E-03
        63   9 -2.455724E+04 -1.414345E+02 -9.457220E+03  3.365826E+02  7.724708E+03  4.188080E-03
        63  10 -2.455723E+04  5.088240E+01 -3.085594E+03 -1.827758E+02  6.668064E-10 -2.237969E-10
        63  11 -2.434876E+04  9.646410E+01 -5.370686E+03 -2.596796E+02  1.205291E-10 -3.414401E-10
        63  12 -2.455731E+04 -1.414505E+02 -9.457332E+03 -3.365826E+02 -2.187528E-09  2.881714E-11
        63  13 -2.455723E+04  5.088233E+01 -3.085594E+03  2.633291E-09 -1.076829E-09 -6.011216E-11
        63  14 -2.434876E+04  9.646397E+01 -5.370686E+03  9.276332E-10  2.701079E-09 -8.063827E-10
        63  15 -2.455731E+04 -1.414507E+02 -9.457332E+03  5.681815E-10  1.619642E-09 -2.481398E-10
        63  16 -2.455723E+04  5.088240E+01 -3.085594E+03  1.827758E+02 -9.308513E-10  1.026534E-10
        63  17 -2.434876E+04  9.646410E+01 -5.370686E+03  2.596796E+02 -9.527397E-11 -1.271145E-09
        63  18 -2.455731E+04 -1.414505E+02 -9.457332E+03  3.365826E+02  1.948392E-09 -5.248686E-10
        63  19 -2.455723E+04  5.088395E+01 -3.085583E+03 -1.827758E+02 -2.408244E+03  7.090229E-04
        63  20 -2.434873E+04  9.647099E+01 -5.370638E+03 -2.596796E+02 -5.066502E+03  2.119274E-03
        63  21 -2.455724E+04 -1.414345E+02 -9.457220E+03 -3.365826E+02 -7.724708E+03  4.188079E-03
        63  22 -2.455723E+04  5.088389E+01 -3.085583E+03 -2.117964E-09 -2.408244E+03 -1.863132E-10
        63  23 -2.434873E+04  9.647086E+01 -5.370638E+03 -3.948258E-09 -5.066502E+03 -7.187667E-10
        63  24 -2.455724E+04 -1.414347E+02 -9.457220E+03  4.452437E-09 -7.724708E+03 -8.439880E-10
        63  25 -2.455723E+04  5.088395E+01 -3.085583E+03  1.827758E+02 -2.408244E+03 -7.090233E-04
        63  26 -2.434873E+04  9.647099E+01 -5.370638E+03  2.596796E+02 -5.066502E+03 -2.119276E-03
        63  27 -2.455724E+04 -1.414345E+02 -9.457220E+03  3.365826E+02 -7.724708E+03 -4.188081E-03
        64   1 -2.510956E+04  3.673869E+02 -1.241118E+04 -1.390181E+03  9.655013E+03 -2.162050E-02
        64   2 -2.365825E+04 -1.380701E+02 -2.163331E+04  3.833461E+02  2.046245E+04  1.263540E-02
        64   3 -2.510937E+04 -6.625330E+03 -3.938640E+04  2.156914E+03  3.126990E+04  1.086425E-01
        64   4 -2.510956E+04  3.673833E+02 -1.241118E+04 -2.466283E-09  9.655013E+03  4.382023E-10
        64   5 -2.365825E+04 -1.380704E+02 -2.163331E+04 -3.868248E-09  2.046245E+04 -6.293360E-10
        64   6 -2.510937E+04 -6.625339E+03 -3.938640E+04 -1.770019E-09  3.126990E+04  3.192964E-10
        64   7 -2.510956E+04  3.673869E+02 -1.241118E+04  1.390181E+03  9.655013E+03  2.162050E-02
        64   8 -2.365825E+04 -1.380701E+02 -2.163331E+04 -3.833461E+02  2.046245E+04 -1.263540E-02
        64   9 -2.510937E+04 -6.625330E+03 -3.938640E+04 -2.156914E+03  3.126990E+04 -1.086425E-01
        64  10 -2.510966E+04  3.673619E+02 -1.241135E+04 -1.390181E+03 -7.441261E-11  1.020163E-10
        64  11 -2.365870E+04 -1.381825E+02 -2.163410E+04  3.833461E+02 -6.016129E-10 -1.676894E-10
        64  12 -2.511042E+04 -6.625592E+03 -3.938823E+04  2.156914E+03 -4.838666E-10 -2.073045E-10
        64  13 -2.510966E+04  3.673583E+02 -1.241136E+04  7.851286E-10  4.206824E-12  1.902352E-10
        64  14 -2.365870E+04 -1.381828E+02 -2.163410E+04 -3.393117E-09 -1.077997E-09  1.236315E-10
        64  15 -2.511042E+04 -6.625601E+03 -3.938824E+04 -7.570728E-09 -2.556469E-09 -2.073730E-10
        64  16 -2.510966E+04  3.673619E+02 -1.241135E+04  1.390181E+03 -1.983135E-10  2.782933E-10
        64  17 -2.365870E+04 -1.381825E+02 -2.163410E+04 -3.833461E+02 -7.601694E-10  4.168301E-10
        64  18 -2.511042E+04 -6.625592E+03 -3.938823E+04 -2.156914E+03 -1.509610E-09 -2.265922E-10
        64  19 -2.510956E+04  3.673869E+02 -1.241118E+04 -1.390181E+03 -9.655013E+03  2.162050E-02
        64  20 -2.365825E+04 -1.380701E+02 -2.163331E+04  3.833461E+02 -2.046245E+04 -1.263540E-02
        64  21 -2.510937E+04 -6.625330E+03 -3.938640E+04  2.156914E+03 -3.126990E+04 -1.086425E-01
        64  22 -2.510956E+04  3.673833E+02 -1.241118E+04  8.057033E-10 -9.655013E+03 -5.651589E-11
        64  23 -2.365825E+04 -1.380704E+02 -2.163331E+04 -3.994327E-09 -2.046245E+04  8.773162E-10
        64  24 -2.510937E+04 -6.625339E+03 -3.938640E+04  2.110428E-09 -3.126990E+04 -7.368267E-10
        64  25 -2.510956E+04  3.673869E+02 -1.241118E+04  1.390181E+03 -9.655013E+03 -2.162050E-02
        64  26 -2.365825E+04 -1.380701E+02 -2.163331E+04 -3.833461E+02 -2.046245E+04  1.263540E-02
        64  27 -2.510937E+04 -6.625330E+03 -3.938640E+04 -2.156914E+03 -3.126990E+04  1.086425E-01
        65   1 -3.315618E+04  5.125678E+03 -5.032700E+04 -2.024537E+04  3.812484E+04 -1.243311E+00
        65   2 -1.359578E+04 -1.231249E+04 -8.818463E+04  3.347210E+04  8.441068E+04  4.551049E+00
        65   3 -3.314802E+04 -1.621155E+05 -1.892610E+05  8.718697E+04  1.306967E+05  1.835495E+01
        65   4 -3.315662E+04  5.124908E+03 -5.032711E+04  1.577595E-09  3.812484E+04  6.415946E-10
        65   5 -1.359698E+04 -1.231460E+04 -8.818493E+04  7.015470E-10  8.441068E+04 -6.480786E-11
        65   6 -3.315618E+04 -1.621297E+05 -1.892630E+05  6.023306E-09  1.306967E+05 -5.345166E-10
        65   7 -3.315618E+04  5.125678E+03 -5.032700E+04  2.024537E+04  3.812484E+04  1.243311E+00
        65   8 -1.359578E+04 -1.231249E+04 -8.818463E+04 -3.347210E+04  8.441068E+04 -4.551049E+00
        65   9 -3.314802E+04 -1.621155E+05 -1.892610E+05 -8.718697E+04  1.306967E+05 -1.835495E+01
        65  10 -3.315775E+04  5.125288E+03 -5.032974E+04 -2.024537E+04 -1.444972E-09 -1.888431E-10
        65  11 -1.360343E+04 -1.231441E+04 -8.819802E+04  3.347210E+04 -1.427907E-10 -2.606865E-10
        65  12 -3.316636E+04 -1.621200E+05 -1.892931E+05  8.718697E+04 -6.504662E-10 -8.707370E-11
        65  13 -3.315819E+04  5.124517E+03 -5.032985E+04  2.761706E-09 -1.096580E-09 -2.436130E-10
        65  14 -1.360464E+04 -1.231651E+04 -8.819832E+04  2.363355E-09 -1.612506E-09 -4.250958E-12
        65  15 -3.317453E+04 -1.621343E+05 -1.892951E+05 -7.306056E-10 -4.134609E-10  3.167008E-11
        65  16 -3.315775E+04  5.125288E+03 -5.032974E+04  2.024537E+04 -1.597606E-10 -2.937569E-10
        65  17 -1.360343E+04 -1.231441E+04 -8.819802E+04 -3.347210E+04 -1.177854E-10  1.359689E-10
        65  18 -3.316636E+04 -1.621200E+05 -1.892931E+05 -8.718697E+04 -2.623124E-10  1.513972E-10
        65  19 -3.315618E+04  5.125678E+03 -5.032700E+04 -2.024537E+04 -3.812484E+04  1.243311E+00
        65  20 -1.359578E+04 -1.231249E+04 -8.818463E+04  3.347210E+04 -8.441068E+04 -4.551049E+00
        65  21 -3.314802E+04 -1.621155E+05 -1.892610E+05  8.718697E+04 -1.306967E+05 -1.835495E+01
        65  22 -3.315663E+04  5.124908E+03 -5.032711E+04  3.944458E-09 -3.812484E+04 -1.121237E-09
        65  23 -1.359698E+04 -1.231460E+04 -8.818493E+04 -4.596301E-09 -8.441068E+04  7.017957E-11
        65  24 -3.315618E+04 -1.621297E+05 -1.892630E+05  4.496698E-09 -1.306967E+05  4.165672E-10
        65  25 -3.315618E+04  5.125678E+03 -5.032700E+04  2.024537E+04 -3.812484E+04 -1.243311E+00
        65  26 -1.359578E+04 -1.231249E+04 -8.818463E+04 -3.347210E+04 -8.441068E+04  4.551049E+00
        65  27 -3.314802E+04 -1.621155E+05 -1.892610E+05 -8.718697E+04 -1.306967E+05  1.835495E+01
        66   1  1.314765E+05  5.452534E+05  1.304943E+05 -5.473067E+04  6.160606E+03  3.450577E+04
        66   2  9.919830E+04  4.801481E+05  9.540212E+04 -3.969814E+04  1.934195E+04  1.551374E+04
        66   3  8.227148E+04  4.213825E+05  7.651176E+04 -4.437061E+04  2.012584E+04 -3.476898E+03
        66   4  1.568277E+04  7.821288E+04  1.839989E+04 -4.621014E+04  6.163858E+03  1.216299E+04
        66   5  1.167432E+03  7.629082E+04  8.979923E+03 -3.635912E+04  1.934466E+04  7.466807E+03
        66   6 -4.714605E+02  7.822875E+04  5.842705E+03 -4.621325E+04  2.012469E+04  2.770110E+03
        66   7 -1.001263E+05 -3.886268E+05 -9.370805E+04 -3.769602E+04  6.166499E+03 -1.016306E+04
        66   8 -9.687402E+04 -3.274129E+05 -7.745150E+04 -3.302230E+04  1.934729E+04 -5.749735E+02
        66   9 -8.322179E+04 -2.648132E+05 -6.483253E+04 -4.805485E+04  2.012351E+04  9.013728E+03
        66  10  1.314762E+05  5.452521E+05  1.304920E+05 -5.473084E+04  1.329453E-09  7.091739E-10
        66  11  9.919784E+04  4.801478E+05  9.540097E+04 -3.969838E+04  1.426502E-09 -4.987924E-10
        66  12  8.227104E+04  4.213824E+05  7.651098E+04 -4.437055E+04  7.055327E-10 -1.195614E-09
        66  13  1.568269E+04  7.821271E+04  1.839954E+04 -4.621020E+04  2.531621E-10 -2.892659E-12
        66  14  1.167015E+03  7.629066E+04  8.979115E+03 -3.635924E+04  1.144116E-09  8.633909E-11
        66  15 -4.718975E+02  7.822863E+04  5.841930E+03 -4.621330E+04  3.551749E-11 -4.310382E-10
        66  16 -1.001264E+05 -3.886269E+05 -9.370832E+04 -3.769597E+04 -1.691799E-11 -7.710507E-10
        66  17 -9.687442E+04 -3.274130E+05 -7.745220E+04 -3.302229E+04 -1.281794E-09  4.946078E-10
        66  18 -8.322225E+04 -2.648134E+05 -6.483344E+04 -4.805500E+04  3.875169E-11  9.416340E-10
        66  19  1.314765E+05  5.452534E+05  1.304943E+05 -5.473067E+04 -6.160606E+03 -3.450577E+04
        66  20  9.919830E+04  4.801481E+05  9.540212E+04 -3.969814E+04 -1.934195E+04 -1.551374E+04
        66  21  8.227148E+04  4.213825E+05  7.651176E+04 -4.437061E+04 -2.012584E+04  3.476898E+03
        66  22  1.568277E+04  7.821288E+04  1.839989E+04 -4.621014E+04 -6.163858E+03 -1.216299E+04
        66  23  1.167432E+03  7.629082E+04  8.979923E+03 -3.635912E+04 -1.934466E+04 -7.466807E+03
        66  24 -4.714605E+02  7.822875E+04  5.842705E+03 -4.621325E+04 -2.012469E+04 -2.770110E+03
        66  25 -1.001263E+05 -3.886268E+05 -9.370805E+04 -3.769602E+04 -6.166499E+03  1.016306E+04
        66  26 -9.687402E+04 -3.274129E+05 -7.745150E+04 -3.302230E+04 -1.934729E+04  5.749735E+02
        66  27 -8.322179E+04 -2.648132E+05 -6.483253E+04 -4.805485E+04 -2.012351E+04 -9.013728E+03
        67   1  7.242026E+04  3.751563E+05  6.659217E+04 -4.679861E+04  1.724361E+04 -1.287727E+03
        67   2  5.685531E+04  3.129917E+05  5.278426E+04 -3.625004E+04  1.416065E+04 -4.249713E+03
        67   3  4.268841E+04  2.515603E+05  4.125208E+04 -4.603467E+04  1.044775E+04 -7.212509E+03
        67   4  6.149621E+02  7.751112E+04  5.133218E+03 -4.635226E+04  1.724306E+04  1.903134E+03
        67   5  4.815854E+01  7.721380E+04  4.472525E+03 -3.618542E+04  1.415939E+04 -3.321203E+02
        67   6  7.538068E+02  7.752018E+04  5.583657E+03 -4.635223E+04  1.044567E+04 -2.568469E+03
        67   7 -7.119594E+04 -2.200501E+05 -5.633048E+04 -4.590612E+04  1.724251E+04  5.092492E+03
        67   8 -5.676248E+04 -1.585113E+05 -4.384211E+04 -3.612083E+04  1.415814E+04  3.584012E+03
        67   9 -4.118269E+04 -9.649116E+04 -3.008630E+04 -4.666969E+04  1.044358E+04  2.074294E+03
        67  10  7.241994E+04  3.751562E+05  6.659161E+04 -4.679860E+04  5.345280E-10 -2.763459E-10
        67  11  5.685509E+04  3.129916E+05  5.278385E+04 -3.624999E+04  1.139662E-10 -5.797328E-10
        67  12  4.268828E+04  2.515602E+05  4.125178E+04 -4.603461E+04  8.602510E-10 -5.312356E-10
        67  13  6.146419E+02  7.751104E+04  5.132652E+03 -4.635229E+04 -1.062033E-09  1.998274E-12
        67  14  4.794322E+01  7.721374E+04  4.472148E+03 -3.618542E+04  6.604214E-10  2.051222E-10
        67  15  7.536878E+02  7.752014E+04  5.583439E+03 -4.635220E+04  7.771772E-10 -7.432475E-10
        67  16 -7.119626E+04 -2.200502E+05 -5.633109E+04 -4.590619E+04 -1.229000E-11 -1.935249E-10
        67  17 -5.676270E+04 -1.585114E+05 -4.384251E+04 -3.612087E+04  9.015041E-11  5.861944E-10
        67  18 -4.118281E+04 -9.649120E+04 -3.008651E+04 -4.666971E+04 -1.025680E-09  5.223784E-11
        67  19  7.242026E+04  3.751563E+05  6.659217E+04 -4.679861E+04 -1.724361E+04  1.287727E+03
        67  20  5.685531E+04  3.129917E+05  5.278426E+04 -3.625004E+04 -1.416065E+04  4.249713E+03
        67  21  4.268841E+04  2.515603E+05  4.125208E+04 -4.603467E+04 -1.044775E+04  7.212509E+03
        67  22  6.149621E+02  7.751112E+04  5.133218E+03 -4.635226E+04 -1.724306E+04 -1.903134E+03
        67  23  4.815854E+01  7.721380E+04  4.472525E+03 -3.618542E+04 -1.415939E+04  3.321203E+02
        67  24  7.538068E+02  7.752018E+04  5.583657E+03 -4.635223E+04 -1.044567E+04  2.568469E+03
        67  25 -7.119594E+04 -2.200501E+05 -5.633048E+04 -4.590612E+04 -1.724251E+04 -5.092492E+03
        67  26 -5.676248E+04 -1.585113E+05 -4.384211E+04 -3.612083E+04 -1.415814E+04 -3.584012E+03
        67  27 -4.118269E+04 -9.649116E+04 -3.008630E+04 -4.666969E+04 -1.044358E+04 -2.074294E+03
        68   1  3.049203E+04  2.072915E+05  3.269534E+04 -4.865810E+04  8.072889E+03 -8.107896E+03
        68   2  1.756782E+04  1.433369E+05  2.394234E+04 -3.238703E+04  4.293631E+03 -1.307322E+04
        68   3  1.958674E+04  8.374751E+04  2.215207E+04 -3.645185E+04  9.174414E+02 -1.803810E+04
        68   4 -5.241297E+02  7.837585E+04  6.522782E+03 -4.635466E+04  8.070592E+03 -3.517694E+03
        68   5  1.422775E+03  7.615639E+04  1.036525E+04 -3.618229E+04  4.291552E+03 -8.947338E+03
        68   6  1.839387E+04  7.837777E+04  2.149272E+04 -4.634526E+04  9.156857E+02 -1.437699E+04
        68   7 -3.154129E+04 -5.052389E+04 -1.965056E+04 -4.405171E+04  8.068330E+03  1.071573E+03
        68   8 -1.472249E+04  8.980261E+03 -3.211996E+03 -3.997713E+04  4.289423E+03 -4.821899E+03
        68   9  1.720137E+04  7.300829E+04  2.083346E+04 -5.623858E+04  9.138133E+02 -1.071591E+04
        68  10  3.049194E+04  2.072914E+05  3.269509E+04 -4.865805E+04 -8.906314E-11 -5.505169E-10
        68  11  1.756776E+04  1.433367E+05  2.394199E+04 -3.238698E+04  2.659278E-10 -6.592024E-10
        68  12  1.958666E+04  8.374716E+04  2.215146E+04 -3.645184E+04  5.749908E-11 -4.324957E-12
        68  13 -5.242029E+02  7.837582E+04  6.522636E+03 -4.635464E+04 -2.536299E-09 -9.113560E-12
        68  14  1.422733E+03  7.615630E+04  1.036507E+04 -3.618225E+04  1.365152E-09  2.719769E-10
        68  15  1.839381E+04  7.837754E+04  2.149233E+04 -4.634525E+04  1.150530E-09 -8.544617E-10
        68  16 -3.154136E+04 -5.052391E+04 -1.965069E+04 -4.405172E+04 -2.821114E-09 -1.968240E-10
        68  17 -1.472251E+04  8.980231E+03 -3.212074E+03 -3.997711E+04 -2.421156E-09  6.829855E-10
        68  18  1.720134E+04  7.300816E+04  2.083325E+04 -5.623857E+04  3.639747E-10 -5.211874E-10
        68  19  3.049203E+04  2.072915E+05  3.269534E+04 -4.865810E+04 -8.072889E+03  8.107896E+03
        68  20  1.756782E+04  1.433369E+05  2.394234E+04 -3.238703E+04 -4.293631E+03  1.307322E+04
        68  21  1.958674E+04  8.374751E+04  2.215207E+04 -3.645185E+04 -9.174414E+02  1.803810E+04
        68  22 -5.241297E+02  7.837585E+04  6.522782E+03 -4.635466E+04 -8.070592E+03  3.517694E+03
        68  23  1.422775E+03  7.615639E+04  1.036525E+04 -3.618229E+04 -4.291552E+03  8.947338E+03
        68  24  1.839387E+04  7.837777E+04  2.149272E+04 -4.634526E+04 -9.156857E+02  1.437699E+04
        68  25 -3.154129E+04 -5.052389E+04 -1.965056E+04 -4.405171E+04 -8.068330E+03 -1.071573E+03
        68  26 -1.472249E+04  8.980261E+03 -3.211996E+03 -3.997713E+04 -4.289423E+03  4.821899E+03
        68  27  1.720137E+04  7.300829E+04  2.083346E+04 -5.623858E+04 -9.138133E+02  1.071591E+04
        69   1  9.065585E+04  3.989589E+04  2.690378E+04  2.765205E+04  5.756558E+03  3.548909E+02
        69   2  8.541483E+04  3.689730E+04  2.266714E+04  2.550980E+04  4.023889E+03 -4.341690E+03
        69   3  7.940048E+04  3.556495E+04  2.079267E+04  2.491360E+04  1.195014E+03 -6.115079E+03
        69   4 -1.306342E+04  1.118066E+03 -3.782749E+02 -4.664282E+02  3.525559E+02 -1.671756E+03
        69   5 -1.234348E+04  7.439181E+02 -1.697558E+02 -1.294408E+03  1.773467E+03 -5.185795E+03
        69   6 -1.302134E+04  1.411717E+03 -9.678309E+01 -5.762309E+02  2.098088E+03 -5.776431E+03
        69   7 -1.167710E+05 -3.765866E+04 -2.766079E+04 -2.858034E+04 -5.050393E+03 -3.698011E+03
        69   8 -1.100919E+05 -3.540863E+04 -2.300719E+04 -2.809468E+04 -4.765622E+02 -6.029752E+03
        69   9 -1.054350E+05 -3.274101E+04 -2.098689E+04 -2.606270E+04  3.001020E+03 -5.437835E+03
        69  10  9.065582E+04  3.989589E+04  2.690372E+04  2.765205E+04  1.123669E-09 -1.635379E-10
        69  11  8.541480E+04  3.689727E+04  2.266707E+04  2.550982E+04  1.469803E-09 -1.094126E-09
        69  12  7.940047E+04  3.556491E+04  2.079259E+04  2.491361E+04 -2.441032E-09 -1.711141E-10
        69  13 -1.306342E+04  1.118063E+03 -3.782804E+02 -4.664277E+02  1.151845E-09 -2.518566E-10
        69  14 -1.234349E+04  7.438883E+02 -1.698123E+02 -1.294401E+03 -1.441469E-09 -5.186632E-10
        69  15 -1.302136E+04  1.411680E+03 -9.685407E+01 -5.762212E+02 -1.331120E-09  2.098563E-10
        69  16 -1.167711E+05 -3.765868E+04 -2.766087E+04 -2.858036E+04 -1.242683E-09 -3.417855E-10
        69  17 -1.100919E+05 -3.540867E+04 -2.300726E+04 -2.809468E+04  8.038530E-10 -1.668828E-11
        69  18 -1.054350E+05 -3.274105E+04 -2.098696E+04 -2.606268E+04  1.088187E-09  8.292663E-10
        69  19  9.065585E+04  3.989589E+04  2.690378E+04  2.765205E+04 -5.756558E+03 -3.548909E+02
        69  20  8.541483E+04  3.689730E+04  2.266714E+04  2.550980E+04 -4.023889E+03  4.341690E+03
        69  21  7.940048E+04  3.556495E+04  2.079267E+04  2.491360E+04 -1.195014E+03  6.115079E+03
        69  22 -1.306342E+04  1.118066E+03 -3.782749E+02 -4.664282E+02 -3.525559E+02  1.671756E+03
        69  23 -1.234348E+04  7.439181E+02 -1.697558E+02 -1.294408E+03 -1.773467E+03  5.185795E+03
        69  24 -1.302134E+04  1.411717E+03 -9.678309E+01 -5.762309E+02 -2.098088E+03  5.776431E+03
        69  25 -1.167710E+05 -3.765866E+04 -2.766079E+04 -2.858034E+04  5.050393E+03  3.698011E+03
        69  26 -1.100919E+05 -3.540863E+04 -2.300719E+04 -2.809468E+04  4.765622E+02  6.029752E+03
        69  27 -1.054350E+05 -3.274101E+04 -2.098689E+04 -2.606270E+04 -3.001020E+03  5.437835E+03
        70   1  7.520153E+04  3.399857E+04  1.996253E+04  2.375148E+04  1.844497E+03 -5.422906E+03
        70   2  7.038263E+04  3.125519E+04  1.861445E+04  2.143832E+04  1.648581E+03 -5.290496E+03
        70   3  6.418632E+04  2.993060E+04  1.736609E+04  2.073197E+04  1.399410E+03 -5.016206E+03
        70   4 -1.303397E+04  1.414577E+03 -7.829415E+01 -5.349571E+02  1.962714E+03 -5.378636E+03
        70   5 -1.232908E+04  7.274429E+02 -4.930491E+01 -1.340969E+03  1.919860E+03 -5.188798E+03
        70   6 -1.303184E+04  1.428757E+03 -4.180730E+01 -5.402213E+02  1.823749E+03 -4.857071E+03
        70   7 -1.012614E+05 -3.116876E+04 -2.011957E+04 -2.481819E+04  2.080913E+03 -5.334374E+03
        70   8 -9.503333E+04 -2.979957E+04 -1.871333E+04 -2.411732E+04  2.191099E+03 -5.087116E+03
        70   9 -9.024309E+04 -2.707229E+04 -1.744984E+04 -2.180974E+04  2.248025E+03 -4.697959E+03
        70  10  7.520152E+04  3.399854E+04  1.996247E+04  2.375149E+04  1.045625E-09  1.192831E-09
        70  11  7.038262E+04  3.125516E+04  1.861439E+04  2.143833E+04 -5.534541E-10  8.449029E-10
        70  12  6.418631E+04  2.993058E+04  1.736604E+04  2.073198E+04 -1.514764E-09  5.213001E-10
        70  13 -1.303398E+04  1.414545E+03 -7.835575E+01 -5.349486E+02 -1.300879E-09  6.960508E-10
        70  14 -1.232909E+04  7.274130E+02 -4.936243E+01 -1.340961E+03 -2.847692E-09  3.413644E-10
        70  15 -1.303185E+04  1.428731E+03 -4.185788E+01 -5.402142E+02 -9.843406E-10  1.047363E-09
        70  16 -1.012615E+05 -3.116879E+04 -2.011963E+04 -2.481818E+04 -6.069751E-10 -2.343540E-11
        70  17 -9.503334E+04 -2.979960E+04 -1.871339E+04 -2.411731E+04 -4.593652E-11  4.507411E-10
        70  18 -9.024310E+04 -2.707231E+04 -1.744989E+04 -2.180974E+04  1.429382E-09  1.413540E-09
        70  19  7.520153E+04  3.399857E+04  1.996253E+04  2.375148E+04 -1.844497E+03  5.422906E+03
        70  20  7.038263E+04  3.125519E+04  1.861445E+04  2.143832E+04 -1.648581E+03  5.290496E+03
        70  21  6.418632E+04  2.993060E+04  1.736609E+04  2.073197E+04 -1.399410E+03  5.016206E+03
        70  22 -1.303397E+04  1.414577E+03 -7.829415E+01 -5.349571E+02 -1.962714E+03  5.378636E+03
        70  23 -1.232908E+04  7.274429E+02 -4.930491E+01 -1.340969E+03 -1.919860E+03  5.188798E+03
        70  24 -1.303184E+04  1.428757E+03 -4.180730E+01 -5.402213E+02 -1.823749E+03  4.857071E+03
        70  25 -1.012614E+05 -3.116876E+04 -2.011957E+04 -2.481819E+04 -2.080913E+03  5.334374E+03
        70  26 -9.503333E+04 -2.979957E+04 -1.871333E+04 -2.411732E+04 -2.191099E+03  5.087116E+03
        70  27 -9.024309E+04 -2.707229E+04 -1.744984E+04 -2.180974E+04 -2.248025E+03  4.697959E+03
        71   1  6.005136E+04  2.839844E+04  1.640339E+04  1.959554E+04  1.360347E+03 -4.774918E+03
        71   2  5.525254E+04  2.566726E+04  1.515896E+04  1.727302E+04  1.246990E+03 -4.405056E+03
        71   3  4.904721E+04  2.434303E+04  1.389881E+04  1.655953E+04  1.131006E+03 -4.028294E+03
        71   4 -1.303178E+04  1.428999E+03 -4.364474E+01 -5.381144E+02  1.746613E+03 -4.630054E+03
        71   5 -1.232753E+04  7.275818E+02 -5.961709E+01 -1.343085E+03  1.640699E+03 -4.257380E+03
        71   6 -1.303136E+04  1.431596E+03 -9.723101E+01 -5.390627E+02  1.532158E+03 -3.877806E+03
        71   7 -8.611058E+04 -2.554042E+04 -1.649130E+04 -2.066988E+04  2.132836E+03 -4.485206E+03
        71   8 -7.990373E+04 -2.421203E+04 -1.527869E+04 -1.995754E+04  2.034366E+03 -4.109720E+03
        71   9 -7.510654E+04 -2.147973E+04 -1.409365E+04 -1.763623E+04  1.933269E+03 -3.727334E+03
        71  10  6.005135E+04  2.839841E+04  1.640334E+04  1.959554E+04 -1.843663E-09  1.147137E-09
        71  11  5.525253E+04  2.566724E+04  1.515892E+04  1.727302E+04  6.737637E-10  1.018586E-09
        71  12  4.904721E+04  2.434302E+04  1.389877E+04  1.655954E+04  3.799488E-10 -1.007247E-10
        71  13 -1.303179E+04  1.428975E+03 -4.369076E+01 -5.381078E+02  7.239791E-10  9.297911E-10
        71  14 -1.232753E+04  7.275616E+02 -5.965621E+01 -1.343080E+03  3.352878E-09  1.607308E-09
        71  15 -1.303136E+04  1.431580E+03 -9.726368E+01 -5.390579E+02  5.508366E-09  1.541554E-09
        71  16 -8.611059E+04 -2.554044E+04 -1.649135E+04 -2.066987E+04  5.632521E-10  9.840191E-10
        71  17 -7.990374E+04 -2.421205E+04 -1.527873E+04 -1.995753E+04  2.549718E-09  1.107780E-09
        71  18 -7.510655E+04 -2.147975E+04 -1.409368E+04 -1.763622E+04  6.058902E-09  3.436883E-09
        71  19  6.005136E+04  2.839844E+04  1.640339E+04  1.959554E+04 -1.360347E+03  4.774918E+03
        71  20  5.525254E+04  2.566726E+04  1.515896E+04  1.727302E+04 -1.246990E+03  4.405056E+03
        71  21  4.904721E+04  2.434303E+04  1.389881E+04  1.655953E+04 -1.131006E+03  4.028294E+03
        71  22 -1.303178E+04  1.428999E+03 -4.364474E+01 -5.381144E+02 -1.746613E+03  4.630054E+03
        71  23 -1.232753E+04  7.275818E+02 -5.961709E+01 -1.343085E+03 -1.640699E+03  4.257380E+03
        71  24 -1.303136E+04  1.431596E+03 -9.723101E+01 -5.390627E+02 -1.532158E+03  3.877806E+03
        71  25 -8.611058E+04 -2.554042E+04 -1.649130E+04 -2.066988E+04 -2.132836E+03  4.485206E+03
        71  26 -7.990373E+04 -2.421203E+04 -1.527869E+04 -1.995754E+04 -2.034366E+03  4.109720E+03
        71  27 -7.510654E+04 -2.147973E+04 -1.409365E+04 -1.763623E+04 -1.933269E+03  3.727334E+03
        72   1  4.491262E+04  2.281160E+04  1.290251E+04  1.542289E+04  1.070480E+03 -3.804357E+03
        72   2  4.012610E+04  2.007914E+04  1.158185E+04  1.309531E+04  1.043950E+03 -3.391822E+03
        72   3  3.391765E+04  1.875068E+04  1.017746E+04  1.237366E+04  1.017269E+03 -2.978946E+03
        72   4 -1.303465E+04  1.431193E+03 -1.273964E+02 -5.397718E+02  1.469793E+03 -3.654550E+03
        72   5 -1.232300E+04  7.321415E+02 -2.266182E+02 -1.343791E+03  1.443627E+03 -3.241866E+03
        72   6 -1.303339E+04  1.437101E+03 -4.098401E+02 -5.418019E+02  1.417311E+03 -2.828840E+03
        72   7 -7.097786E+04 -1.994871E+04 -1.315733E+04 -1.650089E+04  1.869060E+03 -3.504760E+03
        72   8 -6.476914E+04 -1.861457E+04 -1.203520E+04 -1.578172E+04  1.843265E+03 -3.091926E+03
        72   9 -5.998241E+04 -1.587639E+04 -1.099734E+04 -1.345643E+04  1.817321E+03 -2.678746E+03
        72  10  4.491261E+04  2.281159E+04  1.290248E+04  1.542289E+04 -1.394889E-08 -7.439271E-09
        72  11  4.012610E+04  2.007913E+04  1.158182E+04  1.309531E+04 -3.466954E-09 -4.336223E-09
        72  12  3.391765E+04  1.875067E+04  1.017744E+04  1.237367E+04  1.452016E-08  4.749475E-09
        72  13 -1.303466E+04  1.431178E+03 -1.274255E+02 -5.397675E+02  2.191231E-09 -4.341091E-10
        72  14 -1.232301E+04  7.321297E+02 -2.266419E+02 -1.343788E+03 -4.701923E-09 -4.794986E-09
        72  15 -1.303339E+04  1.437092E+03 -4.098590E+02 -5.417987E+02 -2.149340E-09 -1.699821E-09
        72  16 -7.097787E+04 -1.994872E+04 -1.315736E+04 -1.650088E+04  1.644979E-08  6.495408E-09
        72  17 -6.476915E+04 -1.861458E+04 -1.203523E+04 -1.578171E+04 -7.028512E-09 -3.883989E-09
        72  18 -5.998242E+04 -1.587640E+04 -1.099736E+04 -1.345642E+04 -1.989668E-08 -8.509814E-09
        72  19  4.491262E+04  2.281160E+04  1.290251E+04  1.542289E+04 -1.070480E+03  3.804357E+03
        72  20  4.012610E+04  2.007914E+04  1.158185E+04  1.309531E+04 -1.043950E+03  3.391822E+03
        72  21  3.391765E+04  1.875068E+04  1.017746E+04  1.237366E+04 -1.017269E+03  2.978946E+03
        72  22 -1.303465E+04  1.431193E+03 -1.273964E+02 -5.397718E+02 -1.469793E+03  3.654550E+03
        72  23 -1.232300E+04  7.321415E+02 -2.266182E+02 -1.343791E+03 -1.443627E+03  3.241866E+03
        72  24 -1.303339E+04  1.437101E+03 -4.098401E+02 -5.418019E+02 -1.417311E+03  2.828840E+03
        72  25 -7.097786E+04 -1.994871E+04 -1.315733E+04 -1.650089E+04 -1.869060E+03  3.504760E+03
        72  26 -6.476914E+04 -1.861457E+04 -1.203520E+04 -1.578172E+04 -1.843265E+03  3.091926E+03
        72  27 -5.998241E+04 -1.587639E+04 -1.099734E+04 -1.345643E+04 -1.817321E+03  2.678746E+03
        73   1  2.977650E+04  1.721480E+04  9.073636E+03  1.123010E+04  1.016177E+03 -2.733123E+03
        73   2  2.503368E+04  1.447969E+04  7.408052E+03  8.890431E+03  1.370748E+03 -2.177034E+03
        73   3  1.881329E+04  1.312672E+04  5.371384E+03  8.141787E+03  1.725304E+03 -1.620962E+03
        73   4 -1.304537E+04  1.435200E+03 -5.470656E+02 -5.462512E+02  1.416149E+03 -2.583036E+03
        73   5 -1.230564E+04  7.497094E+02 -9.914179E+02 -1.343821E+03  1.770676E+03 -2.026955E+03
        73   6 -1.304354E+04  1.446397E+03 -1.806834E+03 -5.503422E+02  2.125196E+03 -1.470886E+03
        73   7 -5.586513E+04 -1.434416E+04 -1.016781E+04 -1.232179E+04  1.816089E+03 -2.432961E+03
        73   8 -4.964356E+04 -1.298017E+04 -9.390976E+03 -1.157751E+04  2.170578E+03 -1.876886E+03
        73   9 -4.489956E+04 -1.023393E+04 -8.985171E+03 -9.242118E+03  2.525067E+03 -1.320817E+03
        73  10  2.977650E+04  1.721479E+04  9.073620E+03  1.123010E+04  2.540685E-10  1.627639E-09
        73  11  2.503368E+04  1.447968E+04  7.408039E+03  8.890433E+03 -1.376197E-09  1.747953E-09
        73  12  1.881329E+04  1.312672E+04  5.371374E+03  8.141789E+03  2.105092E-09  1.056418E-09
        73  13 -1.304537E+04  1.435193E+03 -5.470819E+02 -5.462482E+02 -1.308015E-09  1.179182E-09
        73  14 -1.230564E+04  7.497041E+02 -9.914315E+02 -1.343818E+03 -9.479855E-10  1.315872E-09
        73  15 -1.304355E+04  1.446393E+03 -1.806847E+03 -5.503397E+02 -3.211531E-10  2.571744E-10
        73  16 -5.586513E+04 -1.434417E+04 -1.016783E+04 -1.232178E+04 -1.064137E-10 -3.071015E-10
        73  17 -4.964356E+04 -1.298017E+04 -9.390991E+03 -1.157751E+04 -3.339934E-10  1.356959E-09
        73  18 -4.489956E+04 -1.023393E+04 -8.985187E+03 -9.242116E+03 -2.402619E-09 -7.419405E-10
        73  19  2.977650E+04  1.721480E+04  9.073636E+03  1.123010E+04 -1.016177E+03  2.733123E+03
        73  20  2.503368E+04  1.447969E+04  7.408052E+03  8.890431E+03 -1.370748E+03  2.177034E+03
        73  21  1.881329E+04  1.312672E+04  5.371384E+03  8.141787E+03 -1.725304E+03  1.620962E+03
        73  22 -1.304537E+04  1.435200E+03 -5.470656E+02 -5.462512E+02 -1.416149E+03  2.583036E+03
        73  23 -1.230564E+04  7.497094E+02 -9.914179E+02 -1.343821E+03 -1.770676E+03  2.026955E+03
        73  24 -1.304354E+04  1.446397E+03 -1.806834E+03 -5.503422E+02 -2.125196E+03  1.470886E+03
        73  25 -5.586513E+04 -1.434416E+04 -1.016781E+04 -1.232179E+04 -1.816089E+03  2.432961E+03
        73  26 -4.964356E+04 -1.298017E+04 -9.390976E+03 -1.157751E+04 -2.170578E+03  1.876886E+03
        73  27 -4.489956E+04 -1.023393E+04 -8.985171E+03 -9.242118E+03 -2.525067E+03  1.320817E+03
        74   1  1.466063E+04  1.156554E+04  3.800956E+03  6.927371E+03  1.993574E+03 -1.273968E+03
        74   2  1.007099E+04  8.863627E+03  6.172161E+02  4.626972E+03  4.038229E+03 -8.384615E+01
        74   3  3.676948E+03  7.230566E+03 -4.270523E+03  3.911635E+03  6.083207E+03  1.105286E+03
        74   4 -1.310477E+04  1.457440E+03 -2.410585E+03 -5.819463E+02  2.393724E+03 -1.123790E+03
        74   5 -1.221828E+04  8.118166E+02 -4.372796E+03 -1.332746E+03  4.437257E+03  6.591688E+01
        74   6 -1.313602E+04  1.235235E+03 -8.038163E+03 -4.985136E+02  6.481126E+03  1.254639E+03
        74   7 -4.086940E+04 -8.650604E+03 -8.622172E+03 -8.090957E+03  2.793854E+03 -9.736188E+02
        74   8 -3.450697E+04 -7.239933E+03 -9.362819E+03 -7.292251E+03  4.836268E+03  2.156739E+02
        74   9 -2.994859E+04 -4.760041E+03 -1.180579E+04 -4.908527E+03  6.879032E+03  1.403988E+03
        74  10  1.466063E+04  1.156554E+04  3.800945E+03  6.927373E+03  2.790970E-10 -3.107116E-11
        74  11  1.007098E+04  8.863622E+03  6.171854E+02  4.626972E+03 -2.122004E-09 -3.881659E-12
        74  12  3.676908E+03  7.230555E+03 -4.270595E+03  3.911630E+03  1.624872E-11 -1.784093E-10
        74  13 -1.310478E+04  1.457437E+03 -2.410598E+03 -5.819442E+02  1.122910E-10 -4.691306E-10
        74  14 -1.221830E+04  8.118113E+02 -4.372833E+03 -1.332746E+03 -1.555664E-09 -4.051955E-10
        74  15 -1.313606E+04  1.235222E+03 -8.038245E+03 -4.985201E+02 -1.140167E-09  3.078213E-10
        74  16 -4.086941E+04 -8.650607E+03 -8.622189E+03 -8.090955E+03  5.459655E-10 -1.276669E-09
        74  17 -3.450700E+04 -7.239940E+03 -9.362863E+03 -7.292252E+03 -1.325873E-09 -4.441471E-10
        74  18 -2.994864E+04 -4.760056E+03 -1.180588E+04 -4.908535E+03  9.780997E-10  1.362707E-09
        74  19  1.466063E+04  1.156554E+04  3.800956E+03  6.927371E+03 -1.993574E+03  1.273968E+03
        74  20  1.007099E+04  8.863627E+03  6.172161E+02  4.626972E+03 -4.038229E+03  8.384615E+01
        74  21  3.676948E+03  7.230566E+03 -4.270523E+03  3.911635E+03 -6.083207E+03 -1.105286E+03
        74  22 -1.310477E+04  1.457440E+03 -2.410585E+03 -5.819463E+02 -2.393724E+03  1.123790E+03
        74  23 -1.221828E+04  8.118166E+02 -4.372796E+03 -1.332746E+03 -4.437257E+03 -6.591688E+01
        74  24 -1.313602E+04  1.235235E+03 -8.038163E+03 -4.985136E+02 -6.481126E+03 -1.254639E+03
        74  25 -4.086940E+04 -8.650604E+03 -8.622172E+03 -8.090957E+03 -2.793854E+03  9.736188E+02
        74  26 -3.450697E+04 -7.239933E+03 -9.362819E+03 -7.292251E+03 -4.836268E+03 -2.156739E+02
        74  27 -2.994859E+04 -4.760041E+03 -1.180579E+04 -4.908527E+03 -6.879032E+03 -1.403988E+03
        75   1 -1.386621E+02  5.388143E+03 -7.846572E+03  1.488519E+03  7.496913E+03  1.883617E+03
        75   2 -4.901354E+03  3.742581E+03 -1.773848E+04  1.297970E+03  1.713318E+04  5.915488E+03
        75   3 -1.465865E+04 -2.808221E+03 -3.657748E+04  3.907520E+03  2.677729E+04  9.926393E+03
        75   4 -1.359182E+04  1.697870E+03 -1.064822E+04 -9.000379E+02  7.900490E+03  2.035112E+03
        75   5 -1.156876E+04  7.977269E+02 -1.931356E+04 -1.042456E+03  1.751400E+04  6.058407E+03
        75   6 -1.453567E+04 -5.003166E+03 -3.690791E+04  1.615246E+03  2.713544E+04  1.006070E+04
        75   7 -2.704488E+04 -1.992429E+03 -1.344991E+04 -3.288571E+03  8.304059E+03  2.186606E+03
        75   8 -1.823614E+04 -2.147128E+03 -2.088864E+04 -3.382865E+03  1.789481E+04  6.201325E+03
        75   9 -1.441267E+04 -7.198086E+03 -3.723834E+04 -6.770261E+02  2.749358E+04  1.019500E+04
        75  10 -1.387234E+02  5.388124E+03 -7.846684E+03  1.488508E+03  2.953796E-09  1.132060E-09
        75  11 -4.901679E+03  3.742465E+03 -1.773910E+04  1.297889E+03 -7.869867E-10  5.160045E-10
        75  12 -1.465945E+04 -2.808519E+03 -3.657901E+04  3.907306E+03 -1.011969E-09 -3.006847E-10
        75  13 -1.359189E+04  1.697849E+03 -1.064835E+04 -9.000509E+02  8.911075E-10  5.800257E-10
        75  14 -1.156910E+04  7.976052E+02 -1.931420E+04 -1.042542E+03  2.627742E-09 -3.239376E-10
        75  15 -1.453649E+04 -5.003473E+03 -3.690949E+04  1.615026E+03  9.185182E-10  5.135865E-10
        75  16 -2.704495E+04 -1.992453E+03 -1.345005E+04 -3.288586E+03 -1.478114E-09  6.248013E-10
        75  17 -1.823649E+04 -2.147255E+03 -2.088931E+04 -3.382955E+03 -1.954989E-09 -4.913940E-10
        75  18 -1.441351E+04 -7.198400E+03 -3.723995E+04 -6.772519E+02 -8.307044E-11  1.091835E-09
        75  19 -1.386621E+02  5.388143E+03 -7.846572E+03  1.488519E+03 -7.496913E+03 -1.883617E+03
        75  20 -4.901354E+03  3.742581E+03 -1.773848E+04  1.297970E+03 -1.713318E+04 -5.915488E+03
        75  21 -1.465865E+04 -2.808221E+03 -3.657748E+04  3.907520E+03 -2.677729E+04 -9.926393E+03
        75  22 -1.359182E+04  1.697870E+03 -1.064822E+04 -9.000379E+02 -7.900490E+03 -2.035112E+03
        75  23 -1.156876E+04  7.977269E+02 -1.931356E+04 -1.042456E+03 -1.751400E+04 -6.058407E+03
        75  24 -1.453567E+04 -5.003166E+03 -3.690791E+04  1.615246E+03 -2.713544E+04 -1.006070E+04
        75  25 -2.704488E+04 -1.992429E+03 -1.344991E+04 -3.288571E+03 -8.304059E+03 -2.186606E+03
        75  26 -1.823614E+04 -2.147128E+03 -2.088864E+04 -3.382865E+03 -1.789481E+04 -6.201325E+03
        75  27 -1.441267E+04 -7.198086E+03 -3.723834E+04 -6.770261E+02 -2.749358E+04 -1.019500E+04
        76   1 -8.787575E+03 -9.500428E+03 -4.790833E+04 -2.283209E+04  3.232026E+04  1.228185E+04
        76   2 -3.227801E+04  1.275041E+04 -8.764559E+04  2.725928E+04  7.829941E+04  2.979943E+04
        76   3 -1.118600E+05 -9.346354E+04 -1.971300E+05  1.117710E+05  1.244393E+05  4.688933E+04
        76   4 -2.048432E+04  5.802332E+03 -4.728929E+04 -5.711582E+03  3.279465E+04  1.246121E+04
        76   5 -3.091246E+03 -5.329535E+03 -8.569731E+04  5.347215E+03  7.830673E+04  2.979755E+04
        76   6 -4.170373E+04 -1.448395E+05 -1.934815E+05  5.082927E+04  1.239827E+05  4.669829E+04
        76   7 -3.217999E+04  2.110683E+04 -4.667000E+04  1.140873E+04  3.326903E+04  1.264060E+04
        76   8  2.609804E+04 -2.340596E+04 -8.374851E+04 -1.656552E+04  7.831405E+04  2.979568E+04
        76   9  2.847016E+04 -1.961897E+05 -1.898291E+05 -1.011686E+04  1.235260E+05  4.650737E+04
        76  10 -8.788738E+03 -9.500871E+03 -4.791058E+04 -2.283241E+04  5.090364E-10  2.507229E-10
        76  11 -3.228484E+04  1.274781E+04 -8.765878E+04  2.725740E+04  3.226118E-10  2.181909E-10
        76  12 -1.118772E+05 -9.347006E+04 -1.971632E+05  1.117663E+05  2.558501E-10  3.279411E-10
        76  13 -2.048551E+04  5.801876E+03 -4.729161E+04 -5.711911E+03  8.021945E-10 -1.197307E-10
        76  14 -3.098070E+03 -5.332135E+03 -8.571050E+04  5.345335E+03  7.684759E-10  1.284307E-09
        76  15 -4.172083E+04 -1.448460E+05 -1.935145E+05  5.082461E+04 -4.698160E-10  2.799694E-10
        76  16 -3.218122E+04  2.110636E+04 -4.667238E+04  1.140839E+04 -4.981609E-10  1.210949E-09
        76  17  2.609122E+04 -2.340856E+04 -8.376170E+04 -1.656740E+04  2.789369E-09  9.732113E-10
        76  18  2.845319E+04 -1.961961E+05 -1.898619E+05 -1.012149E+04  8.014089E-10  8.527430E-11
        76  19 -8.787575E+03 -9.500428E+03 -4.790833E+04 -2.283209E+04 -3.232026E+04 -1.228185E+04
        76  20 -3.227801E+04  1.275041E+04 -8.764559E+04  2.725928E+04 -7.829941E+04 -2.979943E+04
        76  21 -1.118600E+05 -9.346354E+04 -1.971300E+05  1.117710E+05 -1.244393E+05 -4.688933E+04
        76  22 -2.048432E+04  5.802332E+03 -4.728929E+04 -5.711582E+03 -3.279465E+04 -1.246121E+04
        76  23 -3.091246E+03 -5.329535E+03 -8.569731E+04  5.347215E+03 -7.830673E+04 -2.979755E+04
        76  24 -4.170373E+04 -1.448395E+05 -1.934815E+05  5.082927E+04 -1.239827E+05 -4.669829E+04
        76  25 -3.217999E+04  2.110683E+04 -4.667000E+04  1.140873E+04 -3.326903E+04 -1.264060E+04
        76  26  2.609804E+04 -2.340596E+04 -8.374851E+04 -1.656552E+04 -7.831405E+04 -2.979568E+04
        76  27  2.847016E+04 -1.961897E+05 -1.898291E+05 -1.011686E+04 -1.235260E+05 -4.650737E+04
        77   1  2.174509E+05  1.983879E+06  2.393119E+05 -1.094510E+05  3.583378E+03  1.316462E+05
        77   2  7.280710E+04  1.934841E+06  1.351298E+05 -5.404797E+04  1.150121E+04  7.818913E+04
        77   3  4.597834E+04  1.922185E+06  9.513173E+04 -7.643163E+03  1.245240E+04  2.473447E+04
        77   4  1.513343E+05  1.716589E+06  1.755577E+05 -2.457186E+04  3.602257E+03  1.173775E+05
        77   5  1.588123E+04  1.699214E+06  8.569854E+04 -2.008312E+04  1.150643E+04  7.264241E+04
        77   6 -3.252040E+03  1.716719E+06  5.399429E+04 -2.458872E+04  1.245151E+04  2.790632E+04
        77   7  8.523971E+04  1.449380E+06  1.118031E+05  6.027074E+04  3.617253E+03  1.031150E+05
        77   8 -4.104386E+04  1.463641E+06  3.626492E+04  1.386868E+04  1.151104E+04  6.709775E+04
        77   9 -5.248393E+04  1.511294E+06  1.285490E+04 -4.152857E+04  1.245044E+04  3.107715E+04
        77  10  2.174462E+05  1.983861E+06  2.392794E+05 -1.094514E+05  1.916703E-10  6.902846E-10
        77  11  7.280532E+04  1.934835E+06  1.351181E+05 -5.404870E+04  1.572794E-09 -7.379382E-10
        77  12  4.597801E+04  1.922184E+06  9.513029E+04 -7.643411E+03 -3.464700E-10 -1.401008E-09
        77  13  1.513306E+05  1.716574E+06  1.755318E+05 -2.457220E+04 -9.346238E-10  4.122646E-11
        77  14  1.587967E+04  1.699208E+06  8.568840E+04 -2.008379E+04  3.974242E-10 -1.574634E-11
        77  15 -3.252415E+03  1.716718E+06  5.399253E+04 -2.458900E+04 -3.259001E-10  1.996916E-10
        77  16  8.523685E+04  1.449369E+06  1.117832E+05  6.027044E+04 -6.172149E-10 -6.759019E-10
        77  17 -4.104521E+04  1.463636E+06  3.625623E+04  1.386806E+04 -1.639081E-10  6.364751E-10
        77  18 -5.248435E+04  1.511293E+06  1.285280E+04 -4.152888E+04 -2.274546E-10  1.395064E-09
        77  19  2.174509E+05  1.983879E+06  2.393119E+05 -1.094510E+05 -3.583378E+03 -1.316462E+05
        77  20  7.280710E+04  1.934841E+06  1.351298E+05 -5.404797E+04 -1.150121E+04 -7.818913E+04
        77  21  4.597834E+04  1.922185E+06  9.513173E+04 -7.643163E+03 -1.245240E+04 -2.473447E+04
        77  22  1.513343E+05  1.716589E+06  1.755577E+05 -2.457186E+04 -3.602257E+03 -1.173775E+05
        77  23  1.588123E+04  1.699214E+06  8.569854E+04 -2.008312E+04 -1.150643E+04 -7.264241E+04
        77  24 -3.252040E+03  1.716719E+06  5.399429E+04 -2.458872E+04 -1.245151E+04 -2.790632E+04
        77  25  8.523971E+04  1.449380E+06  1.118031E+05  6.027074E+04 -3.617253E+03 -1.031150E+05
        77  26 -4.104386E+04  1.463641E+06  3.626492E+04  1.386868E+04 -1.151104E+04 -6.709775E+04
        77  27 -5.248393E+04  1.511294E+06  1.285490E+04 -4.152857E+04 -1.245044E+04 -3.107715E+04
        78   1  4.952984E+04  1.893544E+06  8.317418E+04 -2.774733E+04  1.106690E+04  1.848863E+04
        78   2  3.706698E+04  1.860450E+06  6.868970E+04 -2.004659E+04  9.575702E+03 -1.214251E+03
        78   3  3.453910E+04  1.832397E+06  6.948928E+04 -2.163188E+04  7.641334E+03 -2.091654E+04
        78   4  5.547566E+03  1.710052E+06  4.639029E+04 -2.465041E+04  1.106693E+04  2.007797E+04
        78   5  4.827229E+02  1.707581E+06  3.833030E+04 -2.000750E+04  9.575387E+03  9.338405E+02
        78   6  5.257687E+03  1.710055E+06  4.516993E+04 -2.465062E+04  7.640811E+03 -1.821063E+04
        78   7 -3.843674E+04  1.526591E+06  9.604702E+03 -2.155441E+04  1.106698E+04  2.166685E+04
        78   8 -3.610295E+04  1.554735E+06  7.969767E+03 -1.996842E+04  9.575072E+03  3.081416E+03
        78   9 -2.402460E+04  1.587728E+06  2.084987E+04 -2.766874E+04  7.640261E+03 -1.550524E+04
        78  10  4.952962E+04  1.893544E+06  8.317331E+04 -2.774749E+04 -9.025377E-10  1.669166E-09
        78  11  3.706688E+04  1.860450E+06  6.868952E+04 -2.004658E+04  1.048788E-10  9.996520E-10
        78  12  3.453892E+04  1.832396E+06  6.948835E+04 -2.163176E+04 -9.645831E-10  1.053813E-09
        78  13  5.547326E+03  1.710051E+06  4.638930E+04 -2.465059E+04 -4.943215E-10  1.670456E-10
        78  14  4.826241E+02  1.707581E+06  3.833013E+04 -2.000751E+04 -2.424457E-09 -1.800619E-10
        78  15  5.257535E+03  1.710055E+06  4.516920E+04 -2.465051E+04  2.699521E-10  4.841759E-10
        78  16 -3.843699E+04  1.526591E+06  9.603592E+03 -2.155461E+04 -1.737721E-09 -1.540766E-09
        78  17 -3.610306E+04  1.554735E+06  7.969577E+03 -1.996844E+04  1.003883E-09 -1.327051E-09
        78  18 -2.402473E+04  1.587728E+06  2.084931E+04 -2.766865E+04  6.859434E-10 -9.738594E-10
        78  19  4.952984E+04  1.893544E+06  8.317418E+04 -2.774733E+04 -1.106690E+04 -1.848863E+04
        78  20  3.706698E+04  1.860450E+06  6.868970E+04 -2.004659E+04 -9.575702E+03  1.214251E+03
        78  21  3.453910E+04  1.832397E+06  6.948928E+04 -2.163188E+04 -7.641334E+03  2.091654E+04
        78  22  5.547566E+03  1.710052E+06  4.639029E+04 -2.465041E+04 -1.106693E+04 -2.007797E+04
        78  23  4.827229E+02  1.707581E+06  3.833030E+04 -2.000750E+04 -9.575387E+03 -9.338405E+02
        78  24  5.257687E+03  1.710055E+06  4.516993E+04 -2.465062E+04 -7.640811E+03  1.821063E+04
        78  25 -3.843674E+04  1.526591E+06  9.604702E+03 -2.155441E+04 -1.106698E+04 -2.166685E+04
        78  26 -3.610295E+04  1.554735E+06  7.969767E+03 -1.996842E+04 -9.575072E+03 -3.081416E+03
        78  27 -2.402460E+04  1.587728E+06  2.084987E+04 -2.766874E+04 -7.640261E+03  1.550524E+04
        79   1  2.103449E+04  1.817133E+06  7.203416E+04 -4.078358E+04  6.459840E+03 -2.826280E+04
        79   2  3.197472E+04  1.770020E+06  9.608337E+04  1.231204E+04  4.139020E+03 -7.194459E+04
        79   3  1.537650E+05  1.756276E+06  1.762295E+05  5.613137E+04  1.061112E+03 -1.156240E+05
        79   4 -3.074437E+03  1.716351E+06  5.212871E+04 -2.465668E+04  6.458480E+03 -2.581663E+04
        79   5  1.511921E+04  1.699692E+06  8.188826E+04 -1.999813E+04  4.141760E+03 -6.855620E+04
        79   6  1.439966E+05  1.716233E+06  1.670925E+05 -2.461499E+04  1.074706E+03 -1.112952E+05
        79   7 -2.718300E+04  1.615579E+06  3.222293E+04 -8.532454E+03  6.457246E+03 -2.337085E+04
        79   8 -1.732684E+03  1.629371E+06  6.769350E+04 -5.230458E+04  4.144148E+03 -6.516819E+04
        79   9  1.342526E+05  1.676206E+06  1.579590E+05 -1.053561E+05  1.087177E+03 -1.069667E+05
        79  10  2.103423E+04  1.817132E+06  7.203259E+04 -4.078343E+04 -1.442227E-09  1.626140E-09
        79  11  3.197331E+04  1.770015E+06  9.607364E+04  1.231228E+04  7.353534E-11  3.698126E-11
        79  12  1.537614E+05  1.756262E+06  1.762044E+05  5.613147E+04  1.049485E-09 -3.657703E-10
        79  13 -3.074660E+03  1.716350E+06  5.212739E+04 -2.465655E+04 -1.050785E-09  3.159007E-10
        79  14  1.511793E+04  1.699687E+06  8.187942E+04 -1.999790E+04 -8.296572E-10  6.744187E-11
        79  15  1.439933E+05  1.716220E+06  1.670693E+05 -2.461489E+04  6.674127E-10  3.711532E-10
        79  16 -2.718319E+04  1.615578E+06  3.222182E+04 -8.532333E+03  3.666829E-10 -1.559885E-09
        79  17 -1.733839E+03  1.629367E+06  6.768551E+04 -5.230436E+04  1.033548E-09 -3.483169E-10
        79  18  1.342496E+05  1.676193E+06  1.579375E+05 -1.053560E+05 -2.529148E-10  4.483151E-10
        79  19  2.103449E+04  1.817133E+06  7.203416E+04 -4.078358E+04 -6.459840E+03  2.826280E+04
        79  20  3.197472E+04  1.770020E+06  9.608337E+04  1.231204E+04 -4.139020E+03  7.194459E+04
        79  21  1.537650E+05  1.756276E+06  1.762295E+05  5.613137E+04 -1.061112E+03  1.156240E+05
        79  22 -3.074437E+03  1.716351E+06  5.212871E+04 -2.465668E+04 -6.458480E+03  2.581663E+04
        79  23  1.511921E+04  1.699692E+06  8.188826E+04 -1.999813E+04 -4.141760E+03  6.855620E+04
        79  24  1.439966E+05  1.716233E+06  1.670925E+05 -2.461499E+04 -1.074706E+03  1.112952E+05
        79  25 -2.718300E+04  1.615579E+06  3.222293E+04 -8.532454E+03 -6.457246E+03  2.337085E+04
        79  26 -1.732684E+03  1.629371E+06  6.769350E+04 -5.230458E+04 -4.144148E+03  6.516819E+04
        79  27  1.342526E+05  1.676206E+06  1.579590E+05 -1.053561E+05 -1.087177E+03  1.069667E+05
        80   1 -1.351536E+06 -3.044535E+05 -2.538455E+05 -1.975226E+04  5.785305E+04  2.832391E+04
        80   2 -1.203552E+06 -4.368009E+05 -2.882209E+05 -5.858030E+04  6.193128E+04  9.092360E+04
        80   3 -1.016809E+06 -4.163505E+05 -2.869086E+05 -1.498458E+05  6.614457E+04  1.005441E+05
        80   4  6.792208E+05  1.985702E+05  2.328055E+05 -1.235180E+05  1.606613E+05  2.854554E+04
        80   5  6.547488E+05  1.414338E+04  1.083771E+05 -9.711702E+04  1.036816E+05  9.097592E+04
        80   6  6.794720E+05 -7.148939E+03  6.192938E+04 -1.231353E+05  4.684094E+04  1.004997E+05
        80   7  2.713806E+06  7.013422E+05  7.192106E+05 -2.276269E+05  2.638044E+05  2.873245E+04
        80   8  2.516311E+06  4.648695E+05  5.047832E+05 -1.357722E+05  1.455549E+05  9.102298E+04
        80   9  2.378488E+06  4.018741E+05  4.106151E+05 -9.635109E+04  2.748530E+04  1.004537E+05
        80  10 -1.351540E+06 -3.044553E+05 -2.538533E+05 -1.975358E+04  3.599233E-10 -9.981896E-11
        80  11 -1.203558E+06 -4.368109E+05 -2.882436E+05 -5.858484E+04  2.197735E-09 -2.890182E-10
        80  12 -1.016816E+06 -4.163625E+05 -2.869359E+05 -1.498511E+05  1.645785E-10  1.341020E-10
        80  13  6.791929E+05  1.985624E+05  2.327555E+05 -1.235217E+05  3.445640E-10  2.345772E-12
        80  14  6.547351E+05  1.413161E+04  1.083413E+05 -9.712462E+04 -2.747724E-10 -2.065696E-11
        80  15  6.794670E+05 -7.160377E+03  6.190627E+04 -1.231391E+05 -3.401050E-10  4.242154E-11
        80  16  2.713731E+06  7.013227E+05  7.190788E+05 -2.276330E+05  5.486753E-10  1.442195E-10
        80  17  2.516286E+06  4.648549E+05  5.047280E+05 -1.357829E+05 -9.507689E-10  2.820116E-10
        80  18  2.378484E+06  4.018631E+05  4.105947E+05 -9.635331E+04 -3.123005E-10 -1.651883E-10
        80  19 -1.351536E+06 -3.044535E+05 -2.538455E+05 -1.975226E+04 -5.785305E+04 -2.832391E+04
        80  20 -1.203552E+06 -4.368009E+05 -2.882209E+05 -5.858030E+04 -6.193128E+04 -9.092360E+04
        80  21 -1.016809E+06 -4.163505E+05 -2.869086E+05 -1.498458E+05 -6.614457E+04 -1.005441E+05
        80  22  6.792208E+05  1.985702E+05  2.328055E+05 -1.235180E+05 -1.606613E+05 -2.854554E+04
        80  23  6.547488E+05  1.414338E+04  1.083771E+05 -9.711702E+04 -1.036816E+05 -9.097592E+04
        80  24  6.794720E+05 -7.148939E+03  6.192938E+04 -1.231353E+05 -4.684094E+04 -1.004997E+05
        80  25  2.713806E+06  7.013422E+05  7.192106E+05 -2.276269E+05 -2.638044E+05 -2.873245E+04
        80  26  2.516311E+06  4.648695E+05  5.047832E+05 -1.357722E+05 -1.455549E+05 -9.102298E+04
        80  27  2.378488E+06  4.018741E+05  4.106151E+05 -9.635109E+04 -2.748530E+04 -1.004537E+05
        81   1 -9.040703E+05 -3.722998E+05 -2.761263E+05 -1.224170E+05  4.464959E+04  9.189498E+04
        81   2 -7.402620E+05 -3.396219E+05 -2.616462E+05 -9.684224E+04  3.460266E+04  8.501469E+04
        81   3 -5.728457E+05 -3.001446E+05 -2.387785E+05 -1.257513E+05  2.454248E+04  7.536431E+04
        81   4  6.695313E+05  7.395856E+03  4.845512E+04 -1.236824E+05  3.840515E+04  9.186996E+04
        81   5  6.675421E+05 -3.836990E+02  2.659158E+04 -9.644175E+04  2.513981E+04  8.499272E+04
        81   6  6.696833E+05 -8.144215E+02  1.533273E+04 -1.236769E+05  1.186388E+04  7.534837E+04
        81   7  2.245483E+06  3.869352E+05  3.729032E+05 -1.249514E+05  3.214504E+04  9.184502E+04
        81   8  2.077230E+06  3.387303E+05  3.147245E+05 -9.604053E+04  1.565584E+04  8.497076E+04
        81   9  1.913680E+06  2.984191E+05  2.693628E+05 -1.215983E+05 -8.396537E+02  7.533237E+04
        81  10 -9.040747E+05 -3.723094E+05 -2.761459E+05 -1.224203E+05 -9.009592E-10  2.248750E-10
        81  11 -7.402653E+05 -3.396300E+05 -2.616620E+05 -9.684461E+04 -9.874563E-10 -4.272210E-11
        81  12 -5.728479E+05 -3.001508E+05 -2.387903E+05 -1.257528E+05  5.897517E-10 -3.320158E-10
        81  13  6.695274E+05  7.386394E+03  4.843649E+04 -1.236852E+05 -8.931020E-10 -8.767325E-11
        81  14  6.675395E+05 -3.916282E+02  2.657682E+04 -9.644347E+04 -2.845844E-09 -1.675232E-10
        81  15  6.696816E+05 -8.205578E+02  1.532179E+04 -1.236777E+05 -2.228186E-10  1.266905E-10
        81  16  2.245479E+06  3.869258E+05  3.728854E+05 -1.249538E+05 -7.700348E-10 -1.919617E-10
        81  17  2.077227E+06  3.387225E+05  3.147105E+05 -9.604160E+04 -3.477603E-10  1.616595E-10
        81  18  1.913678E+06  2.984130E+05  2.693521E+05 -1.215983E+05 -5.844313E-10  3.082794E-10
        81  19 -9.040703E+05 -3.722998E+05 -2.761263E+05 -1.224170E+05 -4.464959E+04 -9.189498E+04
        81  20 -7.402620E+05 -3.396219E+05 -2.616462E+05 -9.684224E+04 -3.460266E+04 -8.501469E+04
        81  21 -5.728457E+05 -3.001446E+05 -2.387785E+05 -1.257513E+05 -2.454248E+04 -7.536431E+04
        81  22  6.695313E+05  7.395856E+03  4.845512E+04 -1.236824E+05 -3.840515E+04 -9.186996E+04
        81  23  6.675421E+05 -3.836990E+02  2.659158E+04 -9.644175E+04 -2.513981E+04 -8.499272E+04
        81  24  6.696833E+05 -8.144215E+02  1.533273E+04 -1.236769E+05 -1.186388E+04 -7.534837E+04
        81  25  2.245483E+06  3.869352E+05  3.729032E+05 -1.249514E+05 -3.214504E+04 -9.184502E+04
        81  26  2.077230E+06  3.387303E+05  3.147245E+05 -9.604053E+04 -1.565584E+04 -8.497076E+04
        81  27  1.913680E+06  2.984191E+05  2.693628E+05 -1.215983E+05  8.396537E+02 -7.533237E+04
        82   1 -4.530028E+05 -2.702676E+05 -2.170204E+05 -1.242655E+05  2.145709E+04  6.901183E+04
        82   2 -2.885376E+05 -2.307858E+05 -1.886577E+05 -9.679962E+04  1.830945E+04  5.853339E+04
        82   3 -1.233307E+05 -1.909630E+05 -1.581049E+05 -1.236825E+05  1.515060E+04  4.792230E+04
        82   4  6.689906E+05 -1.409893E+02  1.169804E+04 -1.236492E+05  9.481081E+03  6.900028E+04
        82   5  6.686684E+05 -3.060560E+02  6.699507E+03 -9.647747E+04  6.173886E+03  5.852734E+04
        82   6  6.690904E+05 -1.011697E+02  3.999423E+03 -1.236495E+05  2.856305E+03  4.792194E+04
        82   7  1.792181E+06  2.699070E+05  2.403508E+05 -1.230318E+05 -2.516197E+03  6.898871E+04
        82   8  1.626745E+06  2.301165E+05  2.020089E+05 -9.615473E+04 -5.980051E+03  5.852128E+04
        82   9  1.462108E+06  1.907214E+05  1.660710E+05 -1.236163E+05 -9.453395E+03  4.792157E+04
        82  10 -4.530046E+05 -2.702728E+05 -2.170302E+05 -1.242667E+05 -7.921256E-10 -4.803649E-10
        82  11 -2.885388E+05 -2.307896E+05 -1.886647E+05 -9.680048E+04 -2.031004E-09 -3.971440E-11
        82  12 -1.233316E+05 -1.909655E+05 -1.581096E+05 -1.236831E+05 -1.642679E-09  9.040225E-11
        82  13  6.689892E+05 -1.461277E+02  1.168892E+04 -1.236498E+05 -1.068885E-09  1.167865E-10
        82  14  6.686674E+05 -3.097457E+02  6.692996E+03 -9.647776E+04 -1.630423E-09 -2.064163E-10
        82  15  6.690897E+05 -1.036388E+02  3.995091E+03 -1.236496E+05 -1.189507E-10  2.800243E-10
        82  16  1.792180E+06  2.699019E+05  2.403418E+05 -1.230317E+05 -1.081536E-09  1.281067E-10
        82  17  1.626744E+06  2.301128E+05  2.020024E+05 -9.615445E+04  4.783344E-11  1.865680E-10
        82  18  1.462107E+06  1.907189E+05  1.660665E+05 -1.236159E+05  1.188106E-09  5.178939E-10
        82  19 -4.530028E+05 -2.702676E+05 -2.170204E+05 -1.242655E+05 -2.145709E+04 -6.901183E+04
        82  20 -2.885376E+05 -2.307858E+05 -1.886577E+05 -9.679962E+04 -1.830945E+04 -5.853339E+04
        82  21 -1.233307E+05 -1.909630E+05 -1.581049E+05 -1.236825E+05 -1.515060E+04 -4.792230E+04
        82  22  6.689906E+05 -1.409893E+02  1.169804E+04 -1.236492E+05 -9.481081E+03 -6.900028E+04
        82  23  6.686684E+05 -3.060560E+02  6.699507E+03 -9.647747E+04 -6.173886E+03 -5.852734E+04
        82  24  6.690904E+05 -1.011697E+02  3.999423E+03 -1.236495E+05 -2.856305E+03 -4.792194E+04
        82  25  1.792181E+06  2.699070E+05  2.403508E+05 -1.230318E+05  2.516197E+03 -6.898871E+04
        82  26  1.626745E+06  2.301165E+05  2.020089E+05 -9.615473E+04  5.980051E+03 -5.852128E+04
        82  27  1.462108E+06  1.907214E+05  1.660710E+05 -1.236163E+05  9.453395E+03 -4.792157E+04
        83   1 -3.386995E+03 -1.618289E+05 -1.336132E+05 -1.235631E+05  1.445710E+04  4.171524E+04
        83   2  1.609046E+05 -1.222926E+05 -1.015560E+05 -9.640188E+04  1.343080E+04  3.108245E+04
        83   3  3.253832E+05 -8.268686E+04 -6.881236E+04 -1.234415E+05  1.239864E+04  2.044984E+04
        83   4  6.689973E+05 -4.937032E+01  3.132336E+03 -1.236171E+05  2.208957E+03  4.171747E+04
        83   5  6.689441E+05 -2.811464E+00  2.079043E+03 -9.651803E+04  1.180312E+03  3.108762E+04
        83   6  6.690496E+05  1.142127E+02  1.712811E+03 -1.236171E+05  1.460719E+02  2.045804E+04
        83   7  1.341812E+06  1.617020E+05  1.398548E+05 -1.236711E+05 -1.005220E+04  4.171970E+04
        83   8  1.177229E+06  1.222709E+05  1.057011E+05 -9.663422E+04 -1.108001E+04  3.109280E+04
        83   9  1.012828E+06  8.290794E+04  7.223225E+04 -1.237928E+05 -1.211315E+04  2.046625E+04
        83  10 -3.387687E+03 -1.618308E+05 -1.336169E+05 -1.235636E+05 -1.433682E-09 -3.617803E-11
        83  11  1.609042E+05 -1.222936E+05 -1.015582E+05 -9.640222E+04 -1.344851E-09 -4.692316E-10
        83  12  3.253830E+05 -8.268735E+04 -6.881344E+04 -1.234417E+05 -1.796713E-09 -7.193524E-10
        83  13  6.689968E+05 -5.124107E+01  3.129055E+03 -1.236172E+05 -1.107210E-09  1.830736E-10
        83  14  6.689438E+05 -3.849959E+00  2.077224E+03 -9.651806E+04  2.282992E-11 -1.812538E-11
        83  15  6.690494E+05  1.137632E+02  1.712024E+03 -1.236171E+05 -5.154778E-10 -2.203265E-10
        83  16  1.341811E+06  1.617001E+05  1.398513E+05 -1.236708E+05  1.898463E-10  4.548401E-10
        83  17  1.177229E+06  1.222698E+05  1.056990E+05 -9.663394E+04  5.226952E-10  1.447168E-10
        83  18  1.012828E+06  8.290745E+04  7.223119E+04 -1.237926E+05 -5.225676E-12  1.651766E-10
        83  19 -3.386995E+03 -1.618289E+05 -1.336132E+05 -1.235631E+05 -1.445710E+04 -4.171524E+04
        83  20  1.609046E+05 -1.222926E+05 -1.015560E+05 -9.640188E+04 -1.343080E+04 -3.108245E+04
        83  21  3.253832E+05 -8.268686E+04 -6.881236E+04 -1.234415E+05 -1.239864E+04 -2.044984E+04
        83  22  6.689973E+05 -4.937032E+01  3.132336E+03 -1.236171E+05 -2.208957E+03 -4.171747E+04
        83  23  6.689441E+05 -2.811464E+00  2.079043E+03 -9.651803E+04 -1.180312E+03 -3.108762E+04
        83  24  6.690496E+05  1.142127E+02  1.712811E+03 -1.236171E+05 -1.460719E+02 -2.045804E+04
        83  25  1.341812E+06  1.617020E+05  1.398548E+05 -1.236711E+05  1.005220E+04 -4.171970E+04
        83  26  1.177229E+06  1.222709E+05  1.057011E+05 -9.663422E+04  1.108001E+04 -3.109280E+04
        83  27  1.012828E+06  8.290794E+04  7.223225E+04 -1.237928E+05  1.211315E+04 -2.046625E+04
        84   1  4.452110E+05 -5.365844E+04 -4.349865E+04 -1.234785E+05  1.207740E+04  1.426342E+04
        84   2  6.093969E+05 -1.426058E+04 -1.000441E+04 -9.642680E+04  1.100240E+04  3.641164E+03
        84   3  7.736934E+05  2.521878E+04  2.418784E+04 -1.235073E+05  9.926469E+03 -6.974894E+03
        84   4  6.690472E+05  1.252001E+02  1.720855E+03 -1.236024E+05 -1.713468E+02  1.427264E+04
        84   5  6.690082E+05  8.427503E+01  2.150249E+03 -9.653642E+04 -1.240811E+03  3.650677E+03
        84   6  6.690530E+05  1.253177E+02  3.274136E+03 -1.236023E+05 -2.310928E+03 -6.964994E+03
        84   7  8.929314E+05  5.390582E+04  4.693834E+04 -1.237263E+05 -1.242442E+04  1.428185E+04
        84   8  7.286232E+05  1.442899E+04  1.430529E+04 -9.664604E+04 -1.348517E+04  3.660193E+03
        84   9  5.644234E+05 -2.496874E+04 -1.763956E+04 -1.236973E+05 -1.454631E+04 -6.955089E+03
        84  10  4.452108E+05 -5.365870E+04 -4.349931E+04 -1.234786E+05 -1.008223E-09 -4.129576E-10
        84  11  6.093968E+05 -1.426063E+04 -1.000466E+04 -9.642684E+04 -4.081908E-10  1.239112E-10
        84  12  7.736933E+05  2.521871E+04  2.418757E+04 -1.235073E+05 -1.275349E-09  3.028849E-10
        84  13  6.690472E+05  1.249812E+02  1.720472E+03 -1.236024E+05 -1.459086E-10 -4.262080E-11
        84  14  6.690082E+05  8.426030E+01  2.150221E+03 -9.653642E+04  4.908012E-11  1.189182E-10
        84  15  6.690530E+05  1.252641E+02  3.274035E+03 -1.236023E+05  1.423478E-10  3.985672E-10
        84  16  8.929312E+05  5.390556E+04  4.693767E+04 -1.237262E+05 -5.570342E-10  1.312804E-10
        84  17  7.286230E+05  1.442893E+04  1.430492E+04 -9.664600E+04 -5.182534E-10  3.597905E-12
        84  18  5.644232E+05 -2.496885E+04 -1.764005E+04 -1.236974E+05  1.563384E-09  2.250023E-11
        84  19  4.452110E+05 -5.365844E+04 -4.349865E+04 -1.234785E+05 -1.207740E+04 -1.426342E+04
        84  20  6.093969E+05 -1.426058E+04 -1.000441E+04 -9.642680E+04 -1.100240E+04 -3.641164E+03
        84  21  7.736934E+05  2.521878E+04  2.418784E+04 -1.235073E+05 -9.926469E+03  6.974894E+03
        84  22  6.690472E+05  1.252001E+02  1.720855E+03 -1.236024E+05  1.713468E+02 -1.427264E+04
        84  23  6.690082E+05  8.427503E+01  2.150249E+03 -9.653642E+04  1.240811E+03 -3.650677E+03
        84  24  6.690530E+05  1.253177E+02  3.274136E+03 -1.236023E+05  2.310928E+03  6.964994E+03
        84  25  8.929314E+05  5.390582E+04  4.693834E+04 -1.237263E+05  1.242442E+04 -1.428185E+04
        84  26  7.286232E+05  1.442899E+04  1.430529E+04 -9.664604E+04  1.348517E+04 -3.660193E+03
        84  27  5.644234E+05 -2.496874E+04 -1.763956E+04 -1.236973E+05  1.454631E+04  6.955089E+03
        85   1  8.936391E+05  5.419481E+04  5.039169E+04 -1.235115E+05  9.275327E+03 -1.316209E+04
        85   2  1.057750E+06  9.351943E+04  8.637810E+04 -9.636537E+04  5.656976E+03 -2.374544E+04
        85   3  1.222436E+06  1.332812E+05  1.248142E+05 -1.233824E+05  2.042019E+03 -3.422786E+04
        85   4  6.691443E+05  9.445979E+01  4.183920E+03 -1.236098E+05 -2.991830E+03 -1.315275E+04
        85   5  6.688576E+05 -4.601133E+01  7.057669E+03 -9.652699E+04 -6.493127E+03 -2.373850E+04
        85   6  6.691030E+05  2.328767E+02  1.230250E+04 -1.236094E+05 -9.990106E+03 -3.422322E+04
        85   7  4.446976E+05 -5.400898E+04 -4.202599E+04 -1.237081E+05 -1.525464E+04 -1.314341E+04
        85   8  2.801092E+05 -9.362082E+04 -7.227017E+04 -9.668848E+04 -1.863577E+04 -2.373156E+04
        85   9  1.160615E+05 -1.328344E+05 -1.002247E+05 -1.238362E+05 -2.201172E+04 -3.421856E+04
        85  10  8.936389E+05  5.419460E+04  5.039120E+04 -1.235114E+05 -1.201467E-09  2.380068E-10
        85  11  1.057750E+06  9.351882E+04  8.637698E+04 -9.636526E+04 -9.050839E-11  3.471944E-10
        85  12  1.222435E+06  1.332800E+05  1.248120E+05 -1.233824E+05  2.601640E-10 -1.894131E-10
        85  13  6.691442E+05  9.427155E+01  4.183578E+03 -1.236098E+05 -3.274542E-09  1.112408E-10
        85  14  6.688574E+05 -4.662798E+01  7.056530E+03 -9.652711E+04  1.210149E-09  1.835253E-10
        85  15  6.691026E+05  2.315918E+02  1.230011E+04 -1.236097E+05 -9.029385E-10 -4.621209E-10
        85  16  4.446973E+05 -5.400923E+04 -4.202675E+04 -1.237082E+05 -6.565308E-10  4.086287E-10
        85  17  2.801087E+05 -9.362152E+04 -7.227188E+04 -9.668883E+04 -8.991434E-10  2.170753E-10
        85  18  1.160607E+05 -1.328358E+05 -1.002278E+05 -1.238368E+05 -1.212410E-09 -3.911179E-10
        85  19  8.936391E+05  5.419481E+04  5.039169E+04 -1.235115E+05 -9.275327E+03  1.316209E+04
        85  20  1.057750E+06  9.351943E+04  8.637810E+04 -9.636537E+04 -5.656976E+03  2.374544E+04
        85  21  1.222436E+06  1.332812E+05  1.248142E+05 -1.233824E+05 -2.042019E+03  3.422786E+04
        85  22  6.691443E+05  9.445979E+01  4.183920E+03 -1.236098E+05  2.991830E+03  1.315275E+04
        85  23  6.688576E+05 -4.601133E+01  7.057669E+03 -9.652699E+04  6.493127E+03  2.373850E+04
        85  24  6.691030E+05  2.328767E+02  1.230250E+04 -1.236094E+05  9.990106E+03  3.422322E+04
        85  25  4.446976E+05 -5.400898E+04 -4.202599E+04 -1.237081E+05  1.525464E+04  1.314341E+04
        85  26  2.801092E+05 -9.362082E+04 -7.227017E+04 -9.668848E+04  1.863577E+04  2.373156E+04
        85  27  1.160615E+05 -1.328344E+05 -1.002247E+05 -1.238362E+05  2.201172E+04  3.421856E+04
        86   1  1.343317E+06  1.616506E+05  1.539129E+05 -1.220388E+05  3.648967E+01 -4.050848E+04
        86   2  1.506019E+06  2.017998E+05  1.995019E+05 -9.711519E+04 -1.628967E+04 -5.037246E+04
        86   3  1.673059E+06  2.501162E+05  2.577736E+05 -1.263776E+05 -3.261227E+04 -5.822859E+04
        86   4  6.698235E+05 -4.494665E+02  1.611788E+04 -1.236153E+05 -1.250386E+04 -4.050575E+04
        86   5  6.678205E+05  6.957413E+01  2.800157E+04 -9.651902E+04 -2.649650E+04 -5.037526E+04
        86   6  6.697305E+05  8.359708E+03  5.096220E+04 -1.236126E+05 -4.048133E+04 -5.823566E+04
        86   7 -3.239982E+03 -1.625779E+05 -1.217006E+05 -1.251900E+05 -2.503087E+04 -4.050296E+04
        86   8 -1.697121E+05 -2.017046E+05 -1.435356E+05 -9.592357E+04 -3.668981E+04 -5.037808E+04
        86   9 -3.326452E+05 -2.334602E+05 -1.559032E+05 -1.208521E+05 -4.833789E+04 -5.824280E+04
        86  10  1.343317E+06  1.616489E+05  1.539098E+05 -1.220388E+05 -1.484580E-09 -4.661952E-10
        86  11  1.506018E+06  2.017970E+05  1.994966E+05 -9.711585E+04 -1.436619E-09 -1.532781E-10
        86  12  1.673057E+06  2.501122E+05  2.577652E+05 -1.263791E+05  9.007417E-10  1.031358E-10
        86  13  6.698229E+05 -4.512710E+02  1.611450E+04 -1.236157E+05 -1.226206E-10 -5.849818E-10
        86  14  6.678191E+05  6.665980E+01  2.799548E+04 -9.652009E+04 -5.096480E-10 -5.177106E-10
        86  15  6.697278E+05  8.355625E+03  5.095274E+04 -1.236145E+05 -5.340273E-10 -1.085341E-10
        86  16 -3.241096E+03 -1.625798E+05 -1.217048E+05 -1.251908E+05  9.593728E-10 -9.010059E-10
        86  17 -1.697143E+05 -2.017077E+05 -1.435429E+05 -9.592506E+04  8.689096E-10 -7.282003E-10
        86  18 -3.326486E+05 -2.334644E+05 -1.559140E+05 -1.208543E+05  1.492437E-11 -3.266367E-10
        86  19  1.343317E+06  1.616506E+05  1.539129E+05 -1.220388E+05 -3.648967E+01  4.050848E+04
        86  20  1.506019E+06  2.017998E+05  1.995019E+05 -9.711519E+04  1.628967E+04  5.037246E+04
        86  21  1.673059E+06  2.501162E+05  2.577736E+05 -1.263776E+05  3.261227E+04  5.822859E+04
        86  22  6.698235E+05 -4.494665E+02  1.611788E+04 -1.236153E+05  1.250386E+04  4.050575E+04
        86  23  6.678205E+05  6.957413E+01  2.800157E+04 -9.651902E+04  2.649650E+04  5.037526E+04
        86  24  6.697305E+05  8.359708E+03  5.096220E+04 -1.236126E+05  4.048133E+04  5.823566E+04
        86  25 -3.239982E+03 -1.625779E+05 -1.217006E+05 -1.251900E+05  2.503087E+04  4.050296E+04
        86  26 -1.697121E+05 -2.017046E+05 -1.435356E+05 -9.592357E+04  3.668981E+04  5.037808E+04
        86  27 -3.326452E+05 -2.334602E+05 -1.559032E+05 -1.208521E+05  4.833789E+04  5.824280E+04
        87   1  1.805250E+06  2.640683E+05  2.963719E+05 -9.683979E+04 -3.201351E+04 -6.615087E+04
        87   2  1.941885E+06  3.275223E+05  3.888385E+05 -1.398603E+05 -1.361726E+05 -6.209417E+04
        87   3  2.137188E+06  5.698444E+05  5.937977E+05 -2.354832E+05 -2.404053E+05 -1.971747E+04
        87   4  6.801662E+05 -6.887169E+03  6.512439E+04 -1.232293E+05 -4.936311E+04 -6.616087E+04
        87   5  6.545334E+05  1.552923E+04  1.140362E+05 -9.699249E+04 -1.091796E+05 -6.210037E+04
        87   6  6.799693E+05  2.093144E+05  2.448090E+05 -1.233407E+05 -1.690353E+05 -1.970719E+04
        87   7 -4.437168E+05 -2.779195E+05 -1.661893E+05 -1.495701E+05 -6.668183E+04 -6.616941E+04
        87   8 -6.312568E+05 -2.965644E+05 -1.608582E+05 -5.421466E+04 -8.224140E+04 -6.210287E+04
        87   9 -7.752709E+05 -1.513193E+05 -1.043040E+05 -1.146194E+04 -9.783122E+04 -1.967122E+04
        87  10  1.805247E+06  2.640633E+05  2.963617E+05 -9.684149E+04  1.322816E-09  2.678780E-11
        87  11  1.941864E+06  3.275132E+05  3.887965E+05 -1.398671E+05 -9.204774E-10 -3.276901E-10
        87  12  2.137126E+06  5.698285E+05  5.936887E+05 -2.354870E+05 -4.277934E-10 -2.808171E-10
        87  13  6.801624E+05 -6.892525E+03  6.511158E+04 -1.232319E+05  4.446482E-11 -2.128175E-11
        87  14  6.545195E+05  1.552189E+04  1.140065E+05 -9.699795E+04 -1.311899E-10 -2.274590E-10
        87  15  6.799385E+05  2.093063E+05  2.447546E+05 -1.233434E+05 -3.005070E-10 -6.044370E-12
        87  16 -4.437227E+05 -2.779254E+05 -1.662059E+05 -1.495737E+05  6.759438E-11 -4.976463E-11
        87  17 -6.312651E+05 -2.965704E+05 -1.608782E+05 -5.421878E+04 -9.220848E-10  3.387783E-10
        87  18 -7.752813E+05 -1.513223E+05 -1.043227E+05 -1.146349E+04  3.922471E-10  2.481847E-11
        87  19  1.805250E+06  2.640683E+05  2.963719E+05 -9.683979E+04  3.201351E+04  6.615087E+04
        87  20  1.941885E+06  3.275223E+05  3.888385E+05 -1.398603E+05  1.361726E+05  6.209417E+04
        87  21  2.137188E+06  5.698444E+05  5.937977E+05 -2.354832E+05  2.404053E+05  1.971747E+04
        87  22  6.801662E+05 -6.887169E+03  6.512439E+04 -1.232293E+05  4.936311E+04  6.616087E+04
        87  23  6.545334E+05  1.552923E+04  1.140362E+05 -9.699249E+04  1.091796E+05  6.210037E+04
        87  24  6.799693E+05  2.093144E+05  2.448090E+05 -1.233407E+05  1.690353E+05  1.970719E+04
        87  25 -4.437168E+05 -2.779195E+05 -1.661893E+05 -1.495701E+05  6.668183E+04  6.616941E+04
        87  26 -6.312568E+05 -2.965644E+05 -1.608582E+05 -5.421466E+04  8.224140E+04  6.210287E+04
        87  27 -7.752709E+05 -1.513193E+05 -1.043040E+05 -1.146194E+04  9.783122E+04  1.967122E+04
        88   1  1.041086E+05  7.064859E+04  1.135489E+05 -1.928057E+05 -5.462734E+02  4.805123E+04
        88   2 -6.160735E+03 -1.500482E+05  2.493982E+04 -1.369948E+05 -5.735051E+03  2.366935E+04
        88   3 -6.421188E+04 -3.549394E+05 -3.485309E+04 -1.509456E+05 -1.694021E+04 -7.193100E+02
        88   4  6.297219E+04 -9.268366E+04  7.237060E+04 -1.591227E+05 -5.513331E+02  5.064493E+04
        88   5  5.418529E+03 -9.997398E+04  3.319421E+04 -1.243349E+05 -5.762156E+03  3.319581E+04
        88   6 -1.116971E+03 -9.269427E+04  1.802917E+04 -1.593014E+05 -1.698760E+04  1.573196E+04
        88   7  2.183795E+04 -2.559894E+05  3.119087E+04 -1.254486E+05 -5.561119E+02  5.323795E+04
        88   8  1.699832E+04 -4.989676E+04  4.144895E+04 -1.116740E+05 -5.788871E+03  4.272301E+04
        88   9  6.197407E+04  1.696172E+05  7.090895E+04 -1.676608E+05 -1.703542E+04  3.219004E+04
        88  10  1.041080E+05  7.064612E+04  1.135446E+05 -1.928056E+05  6.128890E-10  8.683026E-10
        88  11 -6.160920E+03 -1.500488E+05  2.493871E+04 -1.369947E+05  1.125829E-09 -4.526150E-10
        88  12 -6.421218E+04 -3.549395E+05 -3.485363E+04 -1.509456E+05 -8.791381E-10 -1.721588E-09
        88  13  6.297151E+04 -9.268641E+04  7.236577E+04 -1.591227E+05 -1.138208E-10 -2.146412E-11
        88  14  5.418197E+03 -9.997517E+04  3.319208E+04 -1.243348E+05  8.681702E-10 -2.705914E-11
        88  15 -1.117348E+03 -9.269461E+04  1.802816E+04 -1.593012E+05 -8.493289E-10  1.020119E-10
        88  16  2.183719E+04 -2.559924E+05  3.118554E+04 -1.254486E+05 -1.878228E-10 -8.166911E-10
        88  17  1.699779E+04 -4.989873E+04  4.144546E+04 -1.116738E+05  6.509561E-10  3.256015E-10
        88  18  6.197348E+04  1.696160E+05  7.090646E+04 -1.676603E+05 -1.159897E-10  1.525531E-09
        88  19  1.041086E+05  7.064859E+04  1.135489E+05 -1.928057E+05  5.462734E+02 -4.805123E+04
        88  20 -6.160735E+03 -1.500482E+05  2.493982E+04 -1.369948E+05  5.735051E+03 -2.366935E+04
        88  21 -6.421188E+04 -3.549394E+05 -3.485309E+04 -1.509456E+05  1.694021E+04  7.193100E+02
        88  22  6.297219E+04 -9.268366E+04  7.237060E+04 -1.591227E+05  5.513331E+02 -5.064493E+04
        88  23  5.418529E+03 -9.997398E+04  3.319421E+04 -1.243349E+05  5.762156E+03 -3.319581E+04
        88  24 -1.116971E+03 -9.269427E+04  1.802917E+04 -1.593014E+05  1.698760E+04 -1.573196E+04
        88  25  2.183795E+04 -2.559894E+05  3.119087E+04 -1.254486E+05  5.561119E+02 -5.323795E+04
        88  26  1.699832E+04 -4.989676E+04  4.144895E+04 -1.116740E+05  5.788871E+03 -4.272301E+04
        88  27  6.197407E+04  1.696172E+05  7.090895E+04 -1.676608E+05  1.703542E+04 -3.219004E+04
        89   1 -9.726387E+04 -5.136942E+05 -7.211047E+04 -1.590639E+05 -2.531896E+04 -2.096322E+03
        89   2 -1.514081E+05 -7.265392E+05 -1.240541E+05 -1.232741E+05 -3.787694E+04 -2.790670E+03
        89   3 -2.040717E+05 -9.392153E+05 -1.752671E+05 -1.575395E+05 -4.874815E+04 -3.472708E+03
        89   4  3.434537E+03 -9.585058E+04  1.339373E+04 -1.593254E+05 -2.536182E+04  1.333967E+04
        89   5  5.925491E+02 -9.612505E+04  5.213543E+03 -1.243051E+05 -3.790992E+04  1.070109E+04
        89   6 -4.285300E+02 -9.593476E+04 -8.831366E+02 -1.593355E+05 -4.877219E+04  8.074633E+03
        89   7  1.041221E+05  3.221596E+05  9.888957E+04 -1.595869E+05 -2.540467E+04  2.878586E+04
        89   8  1.525683E+05  5.346673E+05  1.344607E+05 -1.253369E+05 -3.794292E+04  2.420632E+04
        89   9  2.031696E+05  7.480210E+05  1.734628E+05 -1.611334E+05 -4.879629E+04  1.963740E+04
        89  10 -9.726456E+04 -5.136944E+05 -7.211168E+04 -1.590639E+05 -7.367255E-10  8.558719E-10
        89  11 -1.514097E+05 -7.265396E+05 -1.240568E+05 -1.232742E+05 -1.920654E-10 -2.383847E-11
        89  12 -2.040742E+05 -9.392160E+05 -1.752716E+05 -1.575397E+05 -2.012955E-10 -7.345141E-10
        89  13  3.433798E+03 -9.585095E+04  1.339219E+04 -1.593251E+05  7.637721E-10  6.194757E-12
        89  14  5.909753E+02 -9.612556E+04  5.210628E+03 -1.243048E+05  9.569769E-10  2.551928E-10
        89  15 -4.311016E+02 -9.593547E+04 -8.877285E+02 -1.593352E+05  4.092986E-10  2.462500E-10
        89  16  1.041212E+05  3.221585E+05  9.888680E+04 -1.595863E+05 -3.605826E-10 -7.986352E-10
        89  17  1.525666E+05  5.346662E+05  1.344569E+05 -1.253361E+05  1.369657E-09  2.382780E-10
        89  18  2.031670E+05  7.480199E+05  1.734576E+05 -1.611326E+05 -1.120699E-10  9.615851E-10
        89  19 -9.726387E+04 -5.136942E+05 -7.211047E+04 -1.590639E+05  2.531896E+04  2.096322E+03
        89  20 -1.514081E+05 -7.265392E+05 -1.240541E+05 -1.232741E+05  3.787694E+04  2.790670E+03
        89  21 -2.040717E+05 -9.392153E+05 -1.752671E+05 -1.575395E+05  4.874815E+04  3.472708E+03
        89  22  3.434537E+03 -9.585058E+04  1.339373E+04 -1.593254E+05  2.536182E+04 -1.333967E+04
        89  23  5.925491E+02 -9.612505E+04  5.213543E+03 -1.243051E+05  3.790992E+04 -1.070109E+04
        89  24 -4.285300E+02 -9.593476E+04 -8.831366E+02 -1.593355E+05  4.877219E+04 -8.074633E+03
        89  25  1.041221E+05  3.221596E+05  9.888957E+04 -1.595869E+05  2.540467E+04 -2.878586E+04
        89  26  1.525683E+05  5.346673E+05  1.344607E+05 -1.253369E+05  3.794292E+04 -2.420632E+04
        89  27  2.031696E+05  7.480210E+05  1.734628E+05 -1.611334E+05  4.879629E+04 -1.963740E+04
        90   1 -2.400255E+05 -1.096907E+06 -2.098225E+05 -1.542302E+05 -5.846257E+04 -1.257009E+04
        90   2 -2.953065E+05 -1.303525E+06 -2.699542E+05 -1.275271E+05 -5.763819E+04  3.695239E+04
        90   3 -3.758860E+05 -1.522868E+06 -3.686861E+05 -1.689246E+05 -1.867230E+04  8.651334E+04
        90   4  1.318353E+03 -9.723807E+04 -3.591729E+03 -1.588890E+05 -5.850494E+04  8.295234E+03
        90   5 -1.512437E+03 -9.475265E+04 -1.068370E+04 -1.248635E+05 -5.758267E+04  1.396917E+04
        90   6 -2.199388E+04 -9.739724E+04 -2.587839E+04 -1.589348E+05 -1.855125E+04  1.970058E+04
        90   7  2.425994E+05  9.033813E+05  2.025868E+05 -1.635547E+05 -5.854758E+04  2.919360E+04
        90   8  2.921861E+05  1.115397E+06  2.485036E+05 -1.221939E+05 -5.752741E+04 -9.058268E+03
        90   9  3.317530E+05  1.329946E+06  3.168016E+05 -1.489210E+05 -1.843250E+04 -4.726533E+04
        90  10 -2.400293E+05 -1.096908E+06 -2.098293E+05 -1.542308E+05 -5.243808E-10  9.132968E-10
        90  11 -2.953104E+05 -1.303527E+06 -2.699630E+05 -1.275254E+05  5.042369E-10  9.723639E-11
        90  12 -3.758884E+05 -1.522876E+06 -3.687008E+05 -1.689233E+05  2.078426E-10 -6.026978E-10
        90  13  1.314659E+03 -9.723907E+04 -3.598289E+03 -1.588886E+05 -6.437128E-10  2.581556E-10
        90  14 -1.516049E+03 -9.475375E+04 -1.069029E+04 -1.248629E+05 -6.889398E-10  1.476044E-10
        90  15 -2.199436E+04 -9.739774E+04 -2.587976E+04 -1.589345E+05  1.955331E-10  3.115354E-12
        90  16  2.425954E+05  9.033794E+05  2.025788E+05 -1.635534E+05  2.779025E-10 -7.152741E-10
        90  17  2.921826E+05  1.115396E+06  2.484972E+05 -1.221943E+05  5.214108E-10  1.026586E-10
        90  18  3.317520E+05  1.329944E+06  3.167967E+05 -1.489217E+05  4.765235E-10  6.554219E-10
        90  19 -2.400255E+05 -1.096907E+06 -2.098225E+05 -1.542302E+05  5.846257E+04  1.257009E+04
        90  20 -2.953065E+05 -1.303525E+06 -2.699542E+05 -1.275271E+05  5.763819E+04 -3.695239E+04
        90  21 -3.758860E+05 -1.522868E+06 -3.686861E+05 -1.689246E+05  1.867230E+04 -8.651334E+04
        90  22  1.318353E+03 -9.723807E+04 -3.591729E+03 -1.588890E+05  5.850494E+04 -8.295234E+03
        90  23 -1.512437E+03 -9.475265E+04 -1.068370E+04 -1.248635E+05  5.758267E+04 -1.396917E+04
        90  24 -2.199388E+04 -9.739724E+04 -2.587839E+04 -1.589348E+05  1.855125E+04 -1.970058E+04
        90  25  2.425994E+05  9.033813E+05  2.025868E+05 -1.635547E+05  5.854758E+04 -2.919360E+04
        90  26  2.921861E+05  1.115397E+06  2.485036E+05 -1.221939E+05  5.752741E+04  9.058268E+03
        90  27  3.317530E+05  1.329946E+06  3.168016E+05 -1.489210E+05  1.843250E+04  4.726533E+04
        91   1 -2.790123E+06 -1.076202E+06 -6.368907E+05 -1.014610E+06 -2.320715E+05 -6.102152E+04
        91   2 -2.675094E+06 -8.015112E+05 -4.351704E+05 -9.712397E+05 -1.506102E+05  2.840959E+04
        91   3 -2.603442E+06 -7.167509E+05 -3.523010E+05 -9.227259E+05 -5.229435E+04  7.334444E+04
        91   4 -1.302125E+06 -4.231985E+05 -2.256732E+05 -5.138150E+05 -1.532069E+05 -3.127913E+04
        91   5 -1.272648E+06 -2.453383E+05 -1.000068E+05 -5.494137E+05 -1.194363E+05  4.014412E+04
        91   6 -1.276920E+06 -2.477197E+05 -5.511603E+04 -5.799168E+05 -6.885282E+04  6.709098E+04
        91   7  1.880509E+05  2.301728E+05  1.853630E+05 -1.185321E+04 -7.413455E+04 -1.429124E+03
        91   8  1.317716E+05  3.110531E+05  2.350177E+05 -1.266874E+05 -8.818563E+04  5.191199E+04
        91   9  5.137874E+04  2.214084E+05  2.419601E+05 -2.364502E+05 -8.544984E+04  6.082457E+04
        91  10 -2.790182E+06 -1.076221E+06 -6.369995E+05 -1.014622E+06  7.934475E-10  1.541190E-11
        91  11 -2.675119E+06 -8.015182E+05 -4.352147E+05 -9.712362E+05 -1.677429E-10 -4.038557E-10
        91  12 -2.603446E+06 -7.167574E+05 -3.523162E+05 -9.227228E+05 -1.609403E-09 -8.647081E-11
        91  13 -1.302150E+06 -4.232059E+05 -2.257192E+05 -5.138189E+05 -2.432652E-09 -2.054234E-10
        91  14 -1.272664E+06 -2.453439E+05 -1.000367E+05 -5.494098E+05  7.195676E-10 -4.267353E-10
        91  15 -1.276926E+06 -2.477258E+05 -5.513339E+04 -5.799131E+05 -3.623525E-10  2.182708E-10
        91  16  1.880450E+05  2.301713E+05  1.853527E+05 -1.185329E+04 -1.165528E-09 -4.154712E-10
        91  17  1.317625E+05  3.110481E+05  2.349980E+05 -1.266837E+05 -7.170686E-10 -4.152379E-10
        91  18  5.136992E+04  2.214025E+05  2.419394E+05 -2.364460E+05  8.685336E-10  4.469955E-10
        91  19 -2.790123E+06 -1.076202E+06 -6.368907E+05 -1.014610E+06  2.320715E+05  6.102152E+04
        91  20 -2.675094E+06 -8.015112E+05 -4.351704E+05 -9.712397E+05  1.506102E+05 -2.840959E+04
        91  21 -2.603442E+06 -7.167509E+05 -3.523010E+05 -9.227259E+05  5.229435E+04 -7.334444E+04
        91  22 -1.302125E+06 -4.231985E+05 -2.256732E+05 -5.138150E+05  1.532069E+05  3.127913E+04
        91  23 -1.272648E+06 -2.453383E+05 -1.000068E+05 -5.494137E+05  1.194363E+05 -4.014412E+04
        91  24 -1.276920E+06 -2.477197E+05 -5.511603E+04 -5.799168E+05  6.885282E+04 -6.709098E+04
        91  25  1.880509E+05  2.301728E+05  1.853630E+05 -1.185321E+04  7.413455E+04  1.429124E+03
        91  26  1.317716E+05  3.110531E+05  2.350177E+05 -1.266874E+05  8.818563E+04 -5.191199E+04
        91  27  5.137874E+04  2.214084E+05  2.419601E+05 -2.364502E+05  8.544984E+04 -6.082457E+04
        92   1 -2.484330E+06 -7.138789E+05 -3.204006E+05 -9.099370E+05 -5.464366E+04  6.387556E+04
        92   2 -2.375605E+06 -6.425546E+05 -2.700461E+05 -8.582173E+05 -3.886586E+04  6.361258E+04
        92   3 -2.239553E+06 -6.105635E+05 -2.319063E+05 -8.410644E+05 -2.226552E+04  6.114333E+04
        92   4 -1.269534E+06 -2.607534E+05 -4.303089E+04 -5.719481E+05 -5.933842E+04  6.209389E+04
        92   5 -1.282807E+06 -2.372865E+05 -2.255813E+04 -5.561608E+05 -4.590857E+04  6.095215E+04
        92   6 -1.268295E+06 -2.526741E+05 -1.241711E+04 -5.749434E+05 -3.165981E+04  5.760501E+04
        92   7 -5.325917E+04  1.924866E+05  2.342393E+05 -2.333520E+05 -6.404312E+04  6.030844E+04
        92   8 -1.888058E+05  1.680742E+05  2.248525E+05 -2.536153E+05 -5.296476E+04  5.828666E+04
        92   9 -2.960795E+05  1.052877E+05  2.070131E+05 -3.084393E+05 -4.107014E+04  5.406073E+04
        92  10 -2.484334E+06 -7.138841E+05 -3.204139E+05 -9.099342E+05  9.431920E-10  5.687154E-10
        92  11 -2.375607E+06 -6.425594E+05 -2.700566E+05 -8.582154E+05  1.708446E-10 -8.318799E-10
        92  12 -2.239554E+06 -6.105677E+05 -2.319142E+05 -8.410633E+05 -5.284573E-10 -5.988905E-10
        92  13 -1.269539E+06 -2.607585E+05 -4.304475E+04 -5.719451E+05 -1.817687E-09  1.840265E-10
        92  14 -1.282811E+06 -2.372911E+05 -2.256907E+04 -5.561585E+05 -6.128772E-10 -6.348706E-10
        92  15 -1.268297E+06 -2.526780E+05 -1.242522E+04 -5.749420E+05 -3.666529E-10 -5.645202E-10
        92  16 -5.326454E+04  1.924816E+05  2.342248E+05 -2.333489E+05 -2.403378E-09 -2.298263E-10
        92  17 -1.888097E+05  1.680698E+05  2.248409E+05 -2.536128E+05 -4.173402E-10 -8.328400E-10
        92  18 -2.960821E+05  1.052841E+05  2.070044E+05 -3.084375E+05  2.474155E-10 -3.591395E-10
        92  19 -2.484330E+06 -7.138789E+05 -3.204006E+05 -9.099370E+05  5.464366E+04 -6.387556E+04
        92  20 -2.375605E+06 -6.425546E+05 -2.700461E+05 -8.582173E+05  3.886586E+04 -6.361258E+04
        92  21 -2.239553E+06 -6.105635E+05 -2.319063E+05 -8.410644E+05  2.226552E+04 -6.114333E+04
        92  22 -1.269534E+06 -2.607534E+05 -4.303089E+04 -5.719481E+05  5.933842E+04 -6.209389E+04
        92  23 -1.282807E+06 -2.372865E+05 -2.255813E+04 -5.561608E+05  4.590857E+04 -6.095215E+04
        92  24 -1.268295E+06 -2.526741E+05 -1.241711E+04 -5.749434E+05  3.165981E+04 -5.760501E+04
        92  25 -5.325917E+04  1.924866E+05  2.342393E+05 -2.333520E+05  6.404312E+04 -6.030844E+04
        92  26 -1.888058E+05  1.680742E+05  2.248525E+05 -2.536153E+05  5.296476E+04 -5.828666E+04
        92  27 -2.960795E+05  1.052877E+05  2.070131E+05 -3.084393E+05  4.107014E+04 -5.406073E+04
        93   1 -2.144581E+06 -5.773008E+05 -2.070444E+05 -8.159771E+05 -1.916961E+04  5.657478E+04
        93   2 -2.035344E+06 -5.145915E+05 -1.748566E+05 -7.631771E+05 -1.332431E+04  4.930312E+04
        93   3 -1.894363E+06 -4.843044E+05 -1.447520E+05 -7.470240E+05 -7.435453E+03  4.189347E+04
        93   4 -1.267664E+06 -2.532978E+05 -9.399347E+03 -5.746132E+05 -2.802342E+04  5.324277E+04
        93   5 -1.283477E+06 -2.368750E+05 -5.177258E+03 -5.563597E+05 -2.232224E+04  4.592137E+04
        93   6 -1.267536E+06 -2.528434E+05 -2.921987E+03 -5.747556E+05 -1.657814E+04  3.846191E+04
        93   7 -3.899703E+05  7.076392E+04  1.881966E+05 -3.329363E+05 -3.689083E+04  4.990568E+04
        93   8 -5.310429E+05  4.088358E+04  1.644653E+05 -3.493130E+05 -3.133198E+04  4.253519E+04
        93   9 -6.403168E+05 -2.135422E+04  1.388818E+05 -4.023287E+05 -2.573081E+04  3.502661E+04
        93  10 -2.144583E+06 -5.773044E+05 -2.070511E+05 -8.159762E+05 -6.825548E-10 -6.625898E-10
        93  11 -2.035345E+06 -5.145941E+05 -1.748615E+05 -7.631766E+05  1.156694E-08  3.661905E-09
        93  12 -1.894364E+06 -4.843063E+05 -1.447554E+05 -7.470237E+05  2.190690E-08  8.719585E-09
        93  13 -1.267665E+06 -2.533010E+05 -9.406145E+03 -5.746120E+05 -4.144747E-11 -6.321487E-10
        93  14 -1.283478E+06 -2.368774E+05 -5.182153E+03 -5.563588E+05  4.322782E-09  2.529284E-10
        93  15 -1.267537E+06 -2.528451E+05 -2.925281E+03 -5.747551E+05  5.944944E-09  2.962697E-09
        93  16 -3.899724E+05  7.076088E+04  1.881893E+05 -3.329348E+05  3.075291E-09 -3.631687E-11
        93  17 -5.310444E+05  4.088137E+04  1.644600E+05 -3.493119E+05 -4.033227E-09 -3.123798E-09
        93  18 -6.403178E+05 -2.135571E+04  1.388782E+05 -4.023280E+05 -1.234126E-08 -2.430020E-09
        93  19 -2.144581E+06 -5.773008E+05 -2.070444E+05 -8.159771E+05  1.916961E+04 -5.657478E+04
        93  20 -2.035344E+06 -5.145915E+05 -1.748566E+05 -7.631771E+05  1.332431E+04 -4.930312E+04
        93  21 -1.894363E+06 -4.843044E+05 -1.447520E+05 -7.470240E+05  7.435453E+03 -4.189347E+04
        93  22 -1.267664E+06 -2.532978E+05 -9.399347E+03 -5.746132E+05  2.802342E+04 -5.324277E+04
        93  23 -1.283477E+06 -2.368750E+05 -5.177258E+03 -5.563597E+05  2.232224E+04 -4.592137E+04
        93  24 -1.267536E+06 -2.528434E+05 -2.921987E+03 -5.747556E+05  1.657814E+04 -3.846191E+04
        93  25 -3.899703E+05  7.076392E+04  1.881966E+05 -3.329363E+05  3.689083E+04 -4.990568E+04
        93  26 -5.310429E+05  4.088358E+04  1.644653E+05 -3.493130E+05  3.133198E+04 -4.253519E+04
        93  27 -6.403168E+05 -2.135422E+04  1.388818E+05 -4.023287E+05  2.573081E+04 -3.502661E+04
        94   1 -1.799706E+06 -4.493323E+05 -1.219421E+05 -7.211589E+05 -5.153569E+03  3.710308E+04
        94   2 -1.689607E+06 -3.865985E+05 -9.306753E+04 -6.679328E+05 -1.208937E+03  2.888156E+04
        94   3 -1.547262E+06 -3.561706E+05 -6.474730E+04 -6.517236E+05  2.739641E+03  2.063710E+04
        94   4 -1.267419E+06 -2.529020E+05 -2.272572E+03 -5.747990E+05 -1.429275E+04  3.367492E+04
        94   5 -1.283508E+06 -2.367010E+05 -1.468562E+03 -5.562991E+05 -1.037235E+04  2.544668E+04
        94   6 -1.267369E+06 -2.528018E+05 -1.200917E+03 -5.748208E+05 -6.448219E+03  1.719557E+04
        94   7 -7.348407E+05 -5.644800E+04  1.173807E+05 -4.283225E+05 -2.344053E+04  3.024354E+04
        94   8 -8.772449E+05 -8.679146E+04  9.011971E+04 -4.445987E+05 -1.954223E+04  2.200938E+04
        94   9 -9.874027E+05 -1.494289E+05  6.233932E+04 -4.978876E+05 -1.564042E+04  1.375241E+04
        94  10 -1.799707E+06 -4.493338E+05 -1.219448E+05 -7.211587E+05  1.045021E-08  5.711750E-09
        94  11 -1.689607E+06 -3.865994E+05 -9.306910E+04 -6.679328E+05 -8.650701E-09 -1.701844E-09
        94  12 -1.547262E+06 -3.561711E+05 -6.474811E+04 -6.517236E+05 -2.101875E-08 -6.532013E-09
        94  13 -1.267420E+06 -2.529033E+05 -2.275085E+03 -5.747986E+05  1.733270E-09  3.431316E-09
        94  14 -1.283509E+06 -2.367017E+05 -1.469980E+03 -5.562988E+05 -3.600465E-09  1.153271E-09
        94  15 -1.267369E+06 -2.528021E+05 -1.201551E+03 -5.748207E+05 -4.637285E-10  3.661901E-10
        94  16 -7.348416E+05 -5.644913E+04  1.173780E+05 -4.283219E+05 -8.260294E-09  1.153937E-09
        94  17 -8.772455E+05 -8.679208E+04  9.011809E+04 -4.445983E+05  3.111773E-09  4.060483E-09
        94  18 -9.874030E+05 -1.494291E+05  6.233851E+04 -4.978875E+05  1.807914E-08  7.210837E-09
        94  19 -1.799706E+06 -4.493323E+05 -1.219421E+05 -7.211589E+05  5.153569E+03 -3.710308E+04
        94  20 -1.689607E+06 -3.865985E+05 -9.306753E+04 -6.679328E+05  1.208937E+03 -2.888156E+04
        94  21 -1.547262E+06 -3.561706E+05 -6.474730E+04 -6.517236E+05 -2.739641E+03 -2.063710E+04
        94  22 -1.267419E+06 -2.529020E+05 -2.272572E+03 -5.747990E+05  1.429275E+04 -3.367492E+04
        94  23 -1.283508E+06 -2.367010E+05 -1.468562E+03 -5.562991E+05  1.037235E+04 -2.544668E+04
        94  24 -1.267369E+06 -2.528018E+05 -1.200917E+03 -5.748208E+05  6.448219E+03 -1.719557E+04
        94  25 -7.348407E+05 -5.644800E+04  1.173807E+05 -4.283225E+05  2.344053E+04 -3.024354E+04
        94  26 -8.772449E+05 -8.679146E+04  9.011971E+04 -4.445987E+05  1.954223E+04 -2.200938E+04
        94  27 -9.874027E+05 -1.494289E+05  6.233932E+04 -4.978876E+05  1.564042E+04 -1.375241E+04
        95   1 -1.452140E+06 -3.209564E+05 -4.249774E+04 -6.256881E+05  4.814212E+03  1.574477E+04
        95   2 -1.341569E+06 -2.580993E+05 -1.476185E+04 -5.723028E+05  8.837027E+03  7.509086E+03
        95   3 -1.198731E+06 -2.276535E+05  1.235240E+04 -5.560802E+05  1.285901E+04 -7.253587E+02
        95   4 -1.267355E+06 -2.528191E+05 -1.239366E+03 -5.748530E+05 -4.383786E+03  1.230030E+04
        95   5 -1.283477E+06 -2.366012E+05 -1.653396E+03 -5.562714E+05 -3.604385E+02  4.065076E+03
        95   6 -1.267346E+06 -2.527959E+05 -2.688956E+03 -5.748591E+05  3.661891E+03 -4.168942E+03
        95   7 -1.082534E+06 -1.846786E+05  4.001763E+04 -5.240035E+05 -1.358483E+04  8.854692E+03
        95   8 -1.225380E+06 -2.151024E+05  1.145543E+04 -5.402384E+05 -9.558968E+03  6.206663E+02
        95   9 -1.335957E+06 -2.779384E+05 -1.773062E+04 -5.936364E+05 -5.534314E+03 -7.612186E+03
        95  10 -1.452140E+06 -3.209567E+05 -4.249825E+04 -6.256882E+05 -1.690886E-09 -1.884353E-10
        95  11 -1.341569E+06 -2.580994E+05 -1.476210E+04 -5.723029E+05 -1.029187E-09 -1.339065E-09
        95  12 -1.198732E+06 -2.276536E+05  1.235208E+04 -5.560802E+05 -2.223354E-09 -1.570364E-09
        95  13 -1.267355E+06 -2.528193E+05 -1.239686E+03 -5.748530E+05  1.323627E-10 -1.164052E-10
        95  14 -1.283477E+06 -2.366012E+05 -1.653428E+03 -5.562714E+05 -1.298415E-10 -1.029090E-09
        95  15 -1.267346E+06 -2.527959E+05 -2.689014E+03 -5.748591E+05 -9.351817E-10 -7.475772E-10
        95  16 -1.082535E+06 -1.846787E+05  4.001713E+04 -5.240034E+05  1.388268E-09 -8.266439E-12
        95  17 -1.225380E+06 -2.151024E+05  1.145526E+04 -5.402384E+05  1.481186E-09 -5.715299E-10
        95  18 -1.335957E+06 -2.779384E+05 -1.773079E+04 -5.936364E+05  1.352935E-09 -4.096169E-10
        95  19 -1.452140E+06 -3.209564E+05 -4.249774E+04 -6.256881E+05 -4.814212E+03 -1.574477E+04
        95  20 -1.341569E+06 -2.580993E+05 -1.476185E+04 -5.723028E+05 -8.837027E+03 -7.509086E+03
        95  21 -1.198731E+06 -2.276535E+05  1.235240E+04 -5.560802E+05 -1.285901E+04  7.253587E+02
        95  22 -1.267355E+06 -2.528191E+05 -1.239366E+03 -5.748530E+05  4.383786E+03 -1.230030E+04
        95  23 -1.283477E+06 -2.366012E+05 -1.653396E+03 -5.562714E+05  3.604385E+02 -4.065076E+03
        95  24 -1.267346E+06 -2.527959E+05 -2.688956E+03 -5.748591E+05 -3.661891E+03  4.168942E+03
        95  25 -1.082534E+06 -1.846786E+05  4.001763E+04 -5.240035E+05  1.358483E+04 -8.854692E+03
        95  26 -1.225380E+06 -2.151024E+05  1.145543E+04 -5.402384E+05  9.558968E+03 -6.206663E+02
        95  27 -1.335957E+06 -2.779384E+05 -1.773062E+04 -5.936364E+05  5.534314E+03  7.612186E+03
        96   1 -1.103585E+06 -1.924361E+05  3.382817E+04 -5.300813E+05  1.525174E+04 -5.505856E+03
        96   2 -9.930063E+05 -1.296489E+05  5.920867E+04 -4.766834E+05  2.146142E+04 -1.288467E+04
        96   3 -8.506207E+05 -9.964302E+04  8.223258E+04 -4.603770E+05  2.764218E+04 -2.017586E+04
        96   4 -1.267443E+06 -2.527708E+05 -3.505359E+03 -5.748877E+05  6.038262E+03 -8.955988E+03
        96   5 -1.283371E+06 -2.365666E+05 -6.238137E+03 -5.562711E+05  1.233912E+04 -1.630234E+04
        96   6 -1.267524E+06 -2.531631E+05 -1.139988E+04 -5.747527E+05  1.861039E+04 -2.356127E+04
        96   7 -1.431270E+06 -3.131024E+05 -4.083946E+04 -6.196824E+05 -3.172410E+03 -1.240508E+04
        96   8 -1.573647E+06 -3.434767E+05 -7.168917E+04 -6.358239E+05  3.221532E+03 -1.971825E+04
        96   9 -1.684252E+06 -4.066696E+05 -1.050428E+05 -6.890576E+05  9.585207E+03 -2.694421E+04
        96  10 -1.103585E+06 -1.924362E+05  3.382767E+04 -5.300812E+05 -1.758927E-09 -5.927186E-10
        96  11 -9.930068E+05 -1.296492E+05  5.920749E+04 -4.766832E+05  5.796151E-10 -2.019662E-10
        96  12 -8.506217E+05 -9.964366E+04  8.223038E+04 -4.603766E+05  1.622083E-09 -3.241225E-10
        96  13 -1.267443E+06 -2.527709E+05 -3.505579E+03 -5.748876E+05 -3.941081E-10 -5.807604E-10
        96  14 -1.283371E+06 -2.365669E+05 -6.238922E+03 -5.562710E+05  4.877545E-10  1.040006E-11
        96  15 -1.267525E+06 -2.531637E+05 -1.140158E+04 -5.747523E+05  1.592526E-09 -3.132219E-10
        96  16 -1.431270E+06 -3.131026E+05 -4.083977E+04 -6.196824E+05  1.446973E-09  1.780349E-11
        96  17 -1.573647E+06 -3.434771E+05 -7.168992E+04 -6.358239E+05  9.794254E-10 -4.828614E-10
        96  18 -1.684252E+06 -4.066704E+05 -1.050443E+05 -6.890574E+05 -1.043065E-09 -1.464968E-10
        96  19 -1.103585E+06 -1.924361E+05  3.382817E+04 -5.300813E+05 -1.525174E+04  5.505856E+03
        96  20 -9.930063E+05 -1.296489E+05  5.920867E+04 -4.766834E+05 -2.146142E+04  1.288467E+04
        96  21 -8.506207E+05 -9.964302E+04  8.223258E+04 -4.603770E+05 -2.764218E+04  2.017586E+04
        96  22 -1.267443E+06 -2.527708E+05 -3.505359E+03 -5.748877E+05 -6.038262E+03  8.955988E+03
        96  23 -1.283371E+06 -2.365666E+05 -6.238137E+03 -5.562711E+05 -1.233912E+04  1.630234E+04
        96  24 -1.267524E+06 -2.531631E+05 -1.139988E+04 -5.747527E+05 -1.861039E+04  2.356127E+04
        96  25 -1.431270E+06 -3.131024E+05 -4.083946E+04 -6.196824E+05  3.172410E+03  1.240508E+04
        96  26 -1.573647E+06 -3.434767E+05 -7.168917E+04 -6.358239E+05 -3.221532E+03  1.971825E+04
        96  27 -1.684252E+06 -4.066696E+05 -1.050428E+05 -6.890576E+05 -9.585207E+03  2.694421E+04
        97   1 -7.553537E+05 -6.487681E+04  1.007010E+05 -4.360609E+05  3.205753E+04 -2.427718E+04
        97   2 -6.459381E+05 -9.681193E+02  1.167126E+05 -3.800197E+05  4.716081E+04 -2.769081E+04
        97   3 -5.090547E+05  2.230086E+04  1.214421E+05 -3.589833E+05  6.168013E+04 -2.952219E+04
        97   4 -1.268224E+06 -2.524588E+05 -1.507867E+04 -5.752441E+05  2.262606E+04 -2.781398E+04
        97   5 -1.282492E+06 -2.367959E+05 -2.735794E+04 -5.559399E+05  3.941727E+04 -3.059862E+04
        97   6 -1.269651E+06 -2.621202E+05 -5.226896E+04 -5.716513E+05  5.562158E+04 -3.180118E+04
        97   7 -1.780833E+06 -4.400234E+05 -1.308759E+05 -7.143233E+05  1.320298E+04 -3.134771E+04
        97   8 -1.918641E+06 -4.725931E+05 -1.714551E+05 -7.316951E+05  3.168231E+04 -3.350318E+04
        97   9 -2.029665E+06 -5.464943E+05 -2.260182E+05 -7.840793E+05  4.957105E+04 -3.407709E+04
        97  10 -7.553549E+05 -6.487772E+04  1.006980E+05 -4.360603E+05  1.533285E-09 -6.567169E-10
        97  11 -6.459407E+05 -9.695388E+02  1.167070E+05 -3.800187E+05  4.743712E-10 -3.894535E-10
        97  12 -5.090590E+05  2.229891E+04  1.214333E+05 -3.589819E+05  1.276081E-09  1.977127E-11
        97  13 -1.268225E+06 -2.524598E+05 -1.508108E+04 -5.752436E+05 -4.179333E-10 -2.369547E-10
        97  14 -1.282494E+06 -2.367973E+05 -2.736262E+04 -5.559390E+05  3.099417E-10 -1.814297E-10
        97  15 -1.269654E+06 -2.621222E+05 -5.227668E+04 -5.716499E+05  2.469237E-10 -8.471090E-11
        97  16 -1.780833E+06 -4.400245E+05 -1.308781E+05 -7.143229E+05  2.139783E-10  5.443611E-11
        97  17 -1.918642E+06 -4.725946E+05 -1.714591E+05 -7.316943E+05 -5.480497E-10  4.365647E-11
        97  18 -2.029668E+06 -5.464962E+05 -2.260250E+05 -7.840779E+05 -5.534847E-10 -7.523992E-11
        97  19 -7.553537E+05 -6.487681E+04  1.007010E+05 -4.360609E+05 -3.205753E+04  2.427718E+04
        97  20 -6.459381E+05 -9.681193E+02  1.167126E+05 -3.800197E+05 -4.716081E+04  2.769081E+04
        97  21 -5.090547E+05  2.230086E+04  1.214421E+05 -3.589833E+05 -6.168013E+04  2.952219E+04
        97  22 -1.268224E+06 -2.524588E+05 -1.507867E+04 -5.752441E+05 -2.262606E+04  2.781398E+04
        97  23 -1.282492E+06 -2.367959E+05 -2.735794E+04 -5.559399E+05 -3.941727E+04  3.059862E+04
        97  24 -1.269651E+06 -2.621202E+05 -5.226896E+04 -5.716513E+05 -5.562158E+04  3.180118E+04
        97  25 -1.780833E+06 -4.400234E+05 -1.308759E+05 -7.143233E+05 -1.320298E+04  3.134771E+04
        97  26 -1.918641E+06 -4.725931E+05 -1.714551E+05 -7.316951E+05 -3.168231E+04  3.350318E+04
        97  27 -2.029665E+06 -5.464943E+05 -2.260182E+05 -7.840793E+05 -4.957105E+04  3.407709E+04
        98   1 -4.002811E+05  5.035299E+04  1.274806E+05 -3.685395E+05  8.095538E+04 -3.011196E+04
        98   2 -3.207731E+05  1.473664E+05  1.085264E+05 -2.438312E+05  1.101414E+05 -1.629263E+04
        98   3 -2.809281E+05  3.717139E+04  1.872030E+04 -1.074143E+05  1.272825E+05  2.957549E+04
        98   4 -1.278406E+06 -2.464779E+05 -6.696040E+04 -5.816157E+05  6.632085E+04 -3.560897E+04
        98   5 -1.270276E+06 -2.460979E+05 -1.214231E+05 -5.474129E+05  1.299711E+05 -8.857224E+03
        98   6 -1.308780E+06 -4.599688E+05 -2.741709E+05 -5.014880E+05  1.815587E+05  4.995715E+04
        98   7 -2.155750E+06 -5.432791E+05 -2.614464E+05 -7.944279E+05  5.170885E+04 -4.109919E+04
        98   8 -2.218869E+06 -6.394319E+05 -3.514370E+05 -8.505472E+05  1.497677E+05 -1.437573E+03
        98   9 -2.335570E+06 -9.568239E+05 -5.671492E+05 -8.949024E+05  2.357366E+05  7.027748E+04
        98  10 -4.002884E+05  5.035026E+04  1.274666E+05 -3.685375E+05  5.194316E-10  2.801808E-10
        98  11 -3.207862E+05  1.473628E+05  1.085031E+05 -2.438297E+05 -1.996062E-10  8.112661E-10
        98  12 -2.809457E+05  3.716610E+04  1.868819E+04 -1.074173E+05 -2.814689E-11  2.522986E-10
        98  13 -1.278411E+06 -2.464804E+05 -6.697106E+04 -5.816138E+05 -6.460674E-10  1.367878E-10
        98  14 -1.270294E+06 -2.461025E+05 -1.214551E+05 -5.474120E+05  4.090582E-10  1.807767E-10
        98  15 -1.308817E+06 -4.599803E+05 -2.742377E+05 -5.014953E+05 -4.976249E-10  3.823709E-10
        98  16 -2.155754E+06 -5.432816E+05 -2.614546E+05 -7.944262E+05 -6.539494E-10 -1.018048E-10
        98  17 -2.218893E+06 -6.394380E+05 -3.514793E+05 -8.505470E+05 -2.220199E-09 -3.176458E-10
        98  18 -2.335631E+06 -9.568442E+05 -5.672634E+05 -8.949157E+05  4.464487E-11 -1.506968E-10
        98  19 -4.002811E+05  5.035299E+04  1.274806E+05 -3.685395E+05 -8.095538E+04  3.011196E+04
        98  20 -3.207731E+05  1.473664E+05  1.085264E+05 -2.438312E+05 -1.101414E+05  1.629263E+04
        98  21 -2.809281E+05  3.717139E+04  1.872030E+04 -1.074143E+05 -1.272825E+05 -2.957549E+04
        98  22 -1.278406E+06 -2.464779E+05 -6.696040E+04 -5.816157E+05 -6.632085E+04  3.560897E+04
        98  23 -1.270276E+06 -2.460979E+05 -1.214231E+05 -5.474129E+05 -1.299711E+05  8.857224E+03
        98  24 -1.308780E+06 -4.599688E+05 -2.741709E+05 -5.014880E+05 -1.815587E+05 -4.995715E+04
        98  25 -2.155750E+06 -5.432791E+05 -2.614464E+05 -7.944279E+05 -5.170885E+04  4.109919E+04
        98  26 -2.218869E+06 -6.394319E+05 -3.514370E+05 -8.505472E+05 -1.497677E+05  1.437573E+03
        98  27 -2.335570E+06 -9.568239E+05 -5.671492E+05 -8.949024E+05 -2.357366E+05 -7.027748E+04
        99   1 -9.813643E+05 -1.580632E+05 -1.333498E+05 -1.552219E+04  2.599057E+04  1.419083E+04
        99   2 -9.010320E+05 -2.194456E+05 -1.468738E+05 -3.318237E+04  2.938234E+04  4.555175E+04
        99   3 -8.025221E+05 -2.074089E+05 -1.442150E+05 -7.884747E+04  3.280225E+04  5.010046E+04
        99   4  4.374332E+04  9.610009E+04  1.124207E+05 -6.659274E+04  7.758456E+04  1.423474E+04
        99   5  3.201794E+04  7.074981E+03  5.235295E+04 -5.255771E+04  5.009454E+04  4.555988E+04
        99   6  4.379489E+04 -3.230899E+03  2.989557E+04 -6.652338E+04  2.263412E+04  5.009141E+04
        99   7  1.069826E+06  3.501984E+05  3.581283E+05 -1.177482E+05  1.292634E+05  1.427012E+04
        99   8  9.658901E+05  2.335405E+05  2.515312E+05 -7.196275E+04  7.083742E+04  4.556672E+04
        99   9  8.907927E+05  2.009026E+05  2.039682E+05 -5.418221E+04  1.245234E+04  5.008196E+04
        99  10 -9.813651E+05 -1.580636E+05 -1.333514E+05 -1.552249E+04 -6.619008E-10  6.782883E-11
        99  11 -9.010335E+05 -2.194481E+05 -1.468793E+05 -3.318344E+04 -8.543106E-10 -4.233771E-10
        99  12 -8.025239E+05 -2.074119E+05 -1.442217E+05 -7.884879E+04 -4.266910E-10 -2.233850E-10
        99  13  4.373681E+04  9.609826E+04  1.124091E+05 -6.659363E+04  1.212506E-10 -3.066935E-10
        99  14  3.201469E+04  7.072078E+03  5.234433E+04 -5.255955E+04  9.707176E-10 -3.021471E-10
        99  15  4.379367E+04 -3.233732E+03  2.988989E+04 -6.652429E+04  7.466077E-10 -1.319401E-10
        99  16  1.069808E+06  3.501937E+05  3.580966E+05 -1.177497E+05 -4.089490E-10  2.028698E-10
        99  17  9.658841E+05  2.335369E+05  2.515179E+05 -7.196535E+04  7.589126E-10 -4.499282E-10
        99  18  8.907919E+05  2.008998E+05  2.039632E+05 -5.418271E+04  1.608494E-09  1.014750E-10
        99  19 -9.813643E+05 -1.580632E+05 -1.333498E+05 -1.552219E+04 -2.599057E+04 -1.419083E+04
        99  20 -9.010320E+05 -2.194456E+05 -1.468738E+05 -3.318237E+04 -2.938234E+04 -4.555175E+04
        99  21 -8.025221E+05 -2.074089E+05 -1.442150E+05 -7.884747E+04 -3.280225E+04 -5.010046E+04
        99  22  4.374332E+04  9.610009E+04  1.124207E+05 -6.659274E+04 -7.758456E+04 -1.423474E+04
        99  23  3.201794E+04  7.074981E+03  5.235295E+04 -5.255771E+04 -5.009454E+04 -4.555988E+04
        99  24  4.379489E+04 -3.230899E+03  2.989557E+04 -6.652338E+04 -2.263412E+04 -5.009141E+04
        99  25  1.069826E+06  3.501984E+05  3.581283E+05 -1.177482E+05 -1.292634E+05 -1.427012E+04
        99  26  9.658901E+05  2.335405E+05  2.515312E+05 -7.196275E+04 -7.083742E+04 -4.556672E+04
        99  27  8.907927E+05  2.009026E+05  2.039682E+05 -5.418221E+04 -1.245234E+04 -5.008196E+04
       100   1 -7.414491E+05 -1.845924E+05 -1.376508E+05 -6.575942E+04  2.212505E+04  4.554048E+04
       100   2 -6.531122E+05 -1.666420E+05 -1.287322E+05 -5.203801E+04  1.734617E+04  4.172322E+04
       100   3 -5.631979E+05 -1.454108E+05 -1.158483E+05 -6.764367E+04  1.256338E+04  3.649417E+04
       100   4  3.900497E+04  3.773497E+03  2.339305E+04 -6.683395E+04  1.856157E+04  4.553490E+04
       100   5  3.809949E+04 -3.232697E+01  1.284333E+04 -5.217130E+04  1.215031E+04  4.171889E+04
       100   6  3.904341E+04 -2.765383E+02  7.388208E+03 -6.683358E+04  5.735777E+03  3.649185E+04
       100   7  8.200372E+05  1.921009E+05  1.844041E+05 -6.790987E+04  1.499367E+04  4.552934E+04
       100   8  7.297654E+05  1.665473E+05  1.543936E+05 -5.230475E+04  6.948753E+03  4.171457E+04
       100   9  6.416297E+05  1.448350E+05  1.306056E+05 -6.602268E+04 -1.098332E+03  3.648951E+04
       100  10 -7.414502E+05 -1.845948E+05 -1.376557E+05 -6.576023E+04 -1.201628E-09 -3.005152E-10
       100  11 -6.531130E+05 -1.666439E+05 -1.287360E+05 -5.203859E+04 -1.851744E-09 -2.556745E-10
       100  12 -5.631985E+05 -1.454123E+05 -1.158511E+05 -6.764403E+04 -1.348612E-10 -6.471754E-10
       100  13  3.900405E+04  3.771178E+03  2.338851E+04 -6.683463E+04 -1.032311E-09 -3.597028E-10
       100  14  3.809886E+04 -3.423563E+01  1.283978E+04 -5.217171E+04  2.136305E-09 -2.524797E-10
       100  15  3.904301E+04 -2.779772E+02  7.385643E+03 -6.683375E+04  2.803122E-10 -1.060071E-11
       100  16  8.200364E+05  1.920987E+05  1.843998E+05 -6.791042E+04  1.188759E-10  1.284191E-10
       100  17  7.297649E+05  1.665455E+05  1.543902E+05 -5.230498E+04  8.129816E-10 -2.784981E-10
       100  18  6.416293E+05  1.448336E+05  1.306031E+05 -6.602265E+04 -8.780996E-10  9.013168E-10
       100  19 -7.414491E+05 -1.845924E+05 -1.376508E+05 -6.575942E+04 -2.212505E+04 -4.554048E+04
       100  20 -6.531122E+05 -1.666420E+05 -1.287322E+05 -5.203801E+04 -1.734617E+04 -4.172322E+04
       100  21 -5.631979E+05 -1.454108E+05 -1.158483E+05 -6.764367E+04 -1.256338E+04 -3.649417E+04
       100  22  3.900497E+04  3.773497E+03  2.339305E+04 -6.683395E+04 -1.856157E+04 -4.553490E+04
       100  23  3.809949E+04 -3.232697E+01  1.284333E+04 -5.217130E+04 -1.215031E+04 -4.171889E+04
       100  24  3.904341E+04 -2.765383E+02  7.388208E+03 -6.683358E+04 -5.735777E+03 -3.649185E+04
       100  25  8.200372E+05  1.921009E+05  1.844041E+05 -6.790987E+04 -1.499367E+04 -4.552934E+04
       100  26  7.297654E+05  1.665473E+05  1.543936E+05 -5.230475E+04 -6.948753E+03 -4.171457E+04
       100  27  6.416297E+05  1.448350E+05  1.306056E+05 -6.602268E+04  1.098332E+03 -3.648951E+04
       101   1 -4.984658E+05 -1.293330E+05 -1.038920E+05 -6.700443E+04  1.106639E+04  3.307209E+04
       101   2 -4.094991E+05 -1.080106E+05 -8.827285E+04 -5.223649E+04  9.562193E+03  2.740474E+04
       101   3 -3.202522E+05 -8.651907E+04 -7.162308E+04 -6.685493E+04  8.055124E+03  2.166336E+04
       101   4  3.871188E+04  3.812050E+01  5.634187E+03 -6.684712E+04  4.586571E+03  3.307083E+04
       101   5  3.858066E+04 -7.630245E+01  3.216799E+03 -5.215460E+04  2.995461E+03  2.740489E+04
       101   6  3.873683E+04 -6.261650E+00  1.889640E+03 -6.684720E+04  1.401693E+03  2.166497E+04
       101   7  5.761641E+05  1.293912E+05  1.151454E+05 -6.668965E+04 -1.898760E+03  3.306957E+04
       101   8  4.868515E+05  1.078455E+05  9.469601E+04 -5.207264E+04 -3.575926E+03  2.740504E+04
       101   9  3.978484E+05  8.649848E+04  7.539569E+04 -6.683945E+04 -5.255517E+03  2.166659E+04
       101  10 -4.984662E+05 -1.293342E+05 -1.038943E+05 -6.700472E+04  1.317549E-09 -2.978557E-10
       101  11 -4.094994E+05 -1.080114E+05 -8.827443E+04 -5.223670E+04  9.932687E-10  4.803571E-10
       101  12 -3.202524E+05 -8.651959E+04 -7.162409E+04 -6.685507E+04 -1.340971E-09 -2.395034E-10
       101  13  3.871156E+04  3.694039E+01  5.632092E+03 -6.684724E+04 -1.084084E-09  1.733765E-10
       101  14  3.858045E+04 -7.711135E+01  3.215370E+03 -5.215467E+04 -2.144376E-09  2.340232E-10
       101  15  3.873670E+04 -6.766213E+00  1.888755E+03 -6.684723E+04 -1.455260E-09  4.463252E-10
       101  16  5.761638E+05  1.293900E+05  1.151433E+05 -6.668960E+04 -5.227223E-10  7.420271E-10
       101  17  4.868513E+05  1.078447E+05  9.469458E+04 -5.207256E+04 -2.236892E-09 -4.109963E-10
       101  18  3.978482E+05  8.649797E+04  7.539475E+04 -6.683936E+04  6.065010E-10  2.315478E-10
       101  19 -4.984658E+05 -1.293330E+05 -1.038920E+05 -6.700443E+04 -1.106639E+04 -3.307209E+04
       101  20 -4.094991E+05 -1.080106E+05 -8.827285E+04 -5.223649E+04 -9.562193E+03 -2.740474E+04
       101  21 -3.202522E+05 -8.651907E+04 -7.162308E+04 -6.685493E+04 -8.055124E+03 -2.166336E+04
       101  22  3.871188E+04  3.812050E+01  5.634187E+03 -6.684712E+04 -4.586571E+03 -3.307083E+04
       101  23  3.858066E+04 -7.630245E+01  3.216799E+03 -5.215460E+04 -2.995461E+03 -2.740489E+04
       101  24  3.873683E+04 -6.261650E+00  1.889640E+03 -6.684720E+04 -1.401693E+03 -2.166497E+04
       101  25  5.761641E+05  1.293912E+05  1.151454E+05 -6.668965E+04  1.898760E+03 -3.306957E+04
       101  26  4.868515E+05  1.078455E+05  9.469601E+04 -5.207264E+04  3.575926E+03 -2.740504E+04
       101  27  3.978484E+05  8.649848E+04  7.539569E+04 -6.683945E+04  5.255517E+03 -2.166659E+04
       102   1 -2.552737E+05 -7.074385E+04 -5.831035E+04 -6.682949E+04  7.732520E+03  1.830221E+04
       102   2 -1.661941E+05 -4.932338E+04 -4.089539E+04 -5.212837E+04  7.281642E+03  1.253885E+04
       102   3 -7.705914E+04 -2.787153E+04 -2.318415E+04 -6.681087E+04  6.829486E+03  6.771851E+03
       102   4  3.869298E+04  1.182499E+01  1.461810E+03 -6.684673E+04  1.097198E+03  1.830445E+04
       102   5  3.867374E+04  1.634435E+01  9.188019E+02 -5.215521E+04  6.415531E+02  1.254173E+04
       102   6  3.870438E+04  5.379014E+01  6.757056E+02 -6.684673E+04  1.846935E+02  6.775401E+03
       102   7  3.327420E+05  7.076214E+04  6.122961E+04 -6.686397E+04 -5.541208E+03  1.830669E+04
       102   8  2.435816E+05  4.935347E+04  4.273095E+04 -5.218205E+04 -6.000687E+03  1.254461E+04
       102   9  1.544807E+05  2.797829E+04  2.453501E+04 -6.688259E+04 -6.461316E+03  6.778952E+03
       102  10 -2.552739E+05 -7.074423E+04 -5.831109E+04 -6.682960E+04 -1.114038E-09  9.320857E-11
       102  11 -1.661942E+05 -4.932356E+04 -4.089579E+04 -5.212844E+04 -5.761289E-10  9.447225E-10
       102  12 -7.705920E+04 -2.787159E+04 -2.318433E+04 -6.681091E+04 -6.641557E-11 -4.447277E-11
       102  13  3.869289E+04  1.146486E+01  1.461178E+03 -6.684675E+04 -3.727242E-11  5.662775E-11
       102  14  3.867369E+04  1.617532E+01  9.185056E+02 -5.215522E+04 -4.942334E-10  4.624183E-10
       102  15  3.870437E+04  5.374084E+01  6.756193E+02 -6.684673E+04  9.301130E-10  1.501396E-10
       102  16  3.327419E+05  7.076177E+04  6.122892E+04 -6.686389E+04  5.918237E-10  6.966879E-10
       102  17  2.435815E+05  4.935329E+04  4.273058E+04 -5.218199E+04 -6.268424E-11 -3.408643E-11
       102  18  1.544807E+05  2.797823E+04  2.453484E+04 -6.688256E+04 -9.836039E-10  2.502367E-10
       102  19 -2.552737E+05 -7.074385E+04 -5.831035E+04 -6.682949E+04 -7.732520E+03 -1.830221E+04
       102  20 -1.661941E+05 -4.932338E+04 -4.089539E+04 -5.212837E+04 -7.281642E+03 -1.253885E+04
       102  21 -7.705914E+04 -2.787153E+04 -2.318415E+04 -6.681087E+04 -6.829486E+03 -6.771851E+03
       102  22  3.869298E+04  1.182499E+01  1.461810E+03 -6.684673E+04 -1.097198E+03 -1.830445E+04
       102  23  3.867374E+04  1.634435E+01  9.188019E+02 -5.215521E+04 -6.415531E+02 -1.254173E+04
       102  24  3.870438E+04  5.379014E+01  6.757056E+02 -6.684673E+04 -1.846935E+02 -6.775401E+03
       102  25  3.327420E+05  7.076214E+04  6.122961E+04 -6.686397E+04  5.541208E+03 -1.830669E+04
       102  26  2.435816E+05  4.935347E+04  4.273095E+04 -5.218205E+04  6.000687E+03 -1.254461E+04
       102  27  1.544807E+05  2.797829E+04  2.453501E+04 -6.688259E+04  6.461316E+03 -6.778952E+03
       103   1 -1.203184E+04 -1.211469E+04 -9.485508E+03 -6.683350E+04  6.708549E+03  3.414409E+03
       103   2  7.707006E+04  9.277873E+03  8.530125E+03 -5.215182E+04  6.358416E+03 -2.351861E+03
       103   3  1.662036E+05  3.070217E+04  2.677326E+04 -6.685318E+04  6.008459E+03 -8.115050E+03
       103   4  3.870048E+04  5.550547E+01  6.336950E+02 -6.684675E+04  6.363667E+01  3.418121E+03
       103   5  3.868837E+04  3.536912E+01  6.966044E+02 -5.215518E+04 -2.834250E+02 -2.348287E+03
       103   6  3.869834E+04  4.651261E+01  9.846069E+02 -6.684675E+04 -6.302621E+02 -8.111587E+03
       103   7  8.943535E+04  1.222556E+04  1.075293E+04 -6.686001E+04 -6.581808E+03  3.421833E+03
       103   8  3.081714E+02 -9.207203E+03 -7.136828E+03 -5.215854E+04 -6.924863E+03 -2.344712E+03
       103   9 -8.879131E+04 -3.061013E+04 -2.480472E+04 -6.684032E+04 -7.267646E+03 -8.108123E+03
       103  10 -1.203189E+04 -1.211471E+04 -9.485615E+03 -6.683352E+04 -2.945418E-10 -2.835898E-10
       103  11  7.707002E+04  9.277856E+03  8.530039E+03 -5.215181E+04  3.321085E-10  2.517960E-10
       103  12  1.662035E+05  3.070209E+04  2.677307E+04 -6.685314E+04  5.626332E-10 -8.133861E-10
       103  13  3.870047E+04  5.549292E+01  6.336730E+02 -6.684676E+04 -6.010070E-11  3.681661E-11
       103  14  3.868837E+04  3.536318E+01  6.965939E+02 -5.215518E+04 -2.084444E-09 -6.124754E-10
       103  15  3.869832E+04  4.644185E+01  9.844825E+02 -6.684676E+04 -1.634905E-09 -4.206976E-10
       103  16  8.943530E+04  1.222554E+04  1.075283E+04 -6.685999E+04  5.000120E-11  5.928831E-10
       103  17  3.081184E+02 -9.207222E+03 -7.136929E+03 -5.215855E+04 -1.119085E-09 -4.607832E-10
       103  18 -8.879138E+04 -3.061022E+04 -2.480494E+04 -6.684037E+04 -1.869390E-09 -4.985538E-10
       103  19 -1.203184E+04 -1.211469E+04 -9.485508E+03 -6.683350E+04 -6.708549E+03 -3.414409E+03
       103  20  7.707006E+04  9.277873E+03  8.530125E+03 -5.215182E+04 -6.358416E+03  2.351861E+03
       103  21  1.662036E+05  3.070217E+04  2.677326E+04 -6.685318E+04 -6.008459E+03  8.115050E+03
       103  22  3.870048E+04  5.550547E+01  6.336950E+02 -6.684675E+04 -6.363667E+01 -3.418121E+03
       103  23  3.868837E+04  3.536912E+01  6.966044E+02 -5.215518E+04  2.834250E+02  2.348287E+03
       103  24  3.869834E+04  4.651261E+01  9.846069E+02 -6.684675E+04  6.302621E+02  8.111587E+03
       103  25  8.943535E+04  1.222556E+04  1.075293E+04 -6.686001E+04  6.581808E+03 -3.421833E+03
       103  26  3.081714E+02 -9.207203E+03 -7.136828E+03 -5.215854E+04  6.924863E+03  2.344712E+03
       103  27 -8.879131E+04 -3.061013E+04 -2.480472E+04 -6.684032E+04  7.267646E+03  8.108123E+03
       104   1  2.312767E+05  4.644571E+04  4.076176E+04 -6.685519E+04  5.821491E+03 -1.147451E+04
       104   2  3.203264E+05  6.781185E+04  5.953878E+04 -5.214284E+04  4.735698E+03 -1.721741E+04
       104   3  4.095540E+05  8.931636E+04  7.905410E+04 -6.681221E+04  3.651440E+03 -2.289789E+04
       104   4  3.872415E+04  3.604034E+01  1.234928E+03 -6.684662E+04 -8.330646E+02 -1.147135E+04
       104   5  3.863736E+04 -1.298541E+01  2.043149E+03 -5.215533E+04 -1.846917E+03 -1.721520E+04
       104   6  3.870847E+04  6.438181E+01  3.540113E+03 -6.684657E+04 -2.859085E+03 -2.289657E+04
       104   7 -1.537931E+05 -4.637594E+04 -3.829372E+04 -6.683806E+04 -7.485594E+03 -1.146819E+04
       104   8 -2.429762E+05 -6.784276E+04 -5.545650E+04 -5.216781E+04 -8.426602E+03 -1.721298E+04
       104   9 -3.320062E+05 -8.919616E+04 -7.198093E+04 -6.688088E+04 -9.365796E+03 -2.289525E+04
       104  10  2.312766E+05  4.644556E+04  4.076145E+04 -6.685513E+04  3.599926E-10 -8.489127E-10
       104  11  3.203263E+05  6.781152E+04  5.953818E+04 -5.214278E+04 -8.832230E-10 -6.413278E-12
       104  12  4.095538E+05  8.931580E+04  7.905309E+04 -6.681215E+04 -1.195942E-09  9.577681E-10
       104  13  3.872411E+04  3.589885E+01  1.234680E+03 -6.684663E+04 -1.138649E-09 -4.102444E-10
       104  14  3.863727E+04 -1.330458E+01  2.042585E+03 -5.215536E+04  5.893108E-10 -3.677499E-10
       104  15  3.870832E+04  6.381664E+01  3.539113E+03 -6.684662E+04 -3.479509E-10  6.343772E-10
       104  16 -1.537932E+05 -4.637610E+04 -3.829407E+04 -6.683813E+04 -2.498528E-10 -4.517836E-10
       104  17 -2.429763E+05 -6.784310E+04 -5.545719E+04 -5.216792E+04  1.053678E-09  1.275538E-10
       104  18 -3.320064E+05 -8.919675E+04 -7.198208E+04 -6.688105E+04  2.543404E-10  7.107401E-10
       104  19  2.312767E+05  4.644571E+04  4.076176E+04 -6.685519E+04 -5.821491E+03  1.147451E+04
       104  20  3.203264E+05  6.781185E+04  5.953878E+04 -5.214284E+04 -4.735698E+03  1.721741E+04
       104  21  4.095540E+05  8.931636E+04  7.905410E+04 -6.681221E+04 -3.651440E+03  2.289789E+04
       104  22  3.872415E+04  3.604034E+01  1.234928E+03 -6.684662E+04  8.330646E+02  1.147135E+04
       104  23  3.863736E+04 -1.298541E+01  2.043149E+03 -5.215533E+04  1.846917E+03  1.721520E+04
       104  24  3.870847E+04  6.438181E+01  3.540113E+03 -6.684657E+04  2.859085E+03  2.289657E+04
       104  25 -1.537931E+05 -4.637594E+04 -3.829372E+04 -6.683806E+04  7.485594E+03  1.146819E+04
       104  26 -2.429762E+05 -6.784276E+04 -5.545650E+04 -5.216781E+04  8.426602E+03  1.721298E+04
       104  27 -3.320062E+05 -8.919616E+04 -7.198093E+04 -6.688088E+04  9.365796E+03  2.289525E+04
       105   1  4.748684E+05  1.048750E+05  9.385698E+04 -6.641007E+04  3.223046E+03 -2.630758E+04
       105   2  5.633536E+05  1.264730E+05  1.155319E+05 -5.235458E+04 -2.165486E+03 -3.161602E+04
       105   3  6.532218E+05  1.505438E+05  1.413428E+05 -6.762744E+04 -7.551902E+03 -3.573574E+04
       105   4  3.891568E+04 -1.333638E+02  4.632526E+03 -6.683492E+04 -3.581546E+03 -2.630695E+04
       105   5  3.833108E+04  7.118362E+00  8.036466E+03 -5.216979E+04 -7.596796E+03 -3.161728E+04
       105   6  3.888647E+04  2.384225E+03  1.462589E+04 -6.683445E+04 -1.160920E+04 -3.573839E+04
       105   7 -3.968565E+05 -1.051536E+05 -8.460184E+04 -6.725946E+04 -1.038145E+04 -2.630631E+04
       105   8 -4.864297E+05 -1.264761E+05 -9.947351E+04 -5.198514E+04 -1.302360E+04 -3.161854E+04
       105   9 -5.750912E+05 -1.457992E+05 -1.121113E+05 -6.604223E+04 -1.566254E+04 -3.574106E+04
       105  10  4.748682E+05  1.048743E+05  9.385566E+04 -6.641000E+04  2.812832E-10  1.180367E-09
       105  11  5.633533E+05  1.264720E+05  1.155300E+05 -5.235464E+04 -6.928595E-10  1.564582E-10
       105  12  6.532214E+05  1.505424E+05  1.413403E+05 -6.762766E+04 -8.426564E-10 -4.730651E-10
       105  13  3.891548E+04 -1.341105E+02  4.631201E+03 -6.683500E+04 -2.592228E-11  9.954571E-10
       105  14  3.833075E+04  6.029376E+00  8.034479E+03 -5.216999E+04 -3.238278E-09  2.441945E-10
       105  15  3.888598E+04  2.382817E+03  1.462323E+04 -6.683478E+04  1.674684E-10 -4.856863E-10
       105  16 -3.968568E+05 -1.051544E+05 -8.460334E+04 -6.725968E+04 -1.428489E-09  8.159988E-10
       105  17 -4.864301E+05 -1.264772E+05 -9.947570E+04 -5.198547E+04  6.669493E-10 -6.345695E-11
       105  18 -5.750918E+05 -1.458006E+05 -1.121142E+05 -6.604268E+04 -7.015200E-10 -5.086637E-10
       105  19  4.748684E+05  1.048750E+05  9.385698E+04 -6.641007E+04 -3.223046E+03  2.630758E+04
       105  20  5.633536E+05  1.264730E+05  1.155319E+05 -5.235458E+04  2.165486E+03  3.161602E+04
       105  21  6.532218E+05  1.505438E+05  1.413428E+05 -6.762744E+04  7.551902E+03  3.573574E+04
       105  22  3.891568E+04 -1.333638E+02  4.632526E+03 -6.683492E+04  3.581546E+03  2.630695E+04
       105  23  3.833108E+04  7.118362E+00  8.036466E+03 -5.216979E+04  7.596796E+03  3.161728E+04
       105  24  3.888647E+04  2.384225E+03  1.462589E+04 -6.683445E+04  1.160920E+04  3.573839E+04
       105  25 -3.968565E+05 -1.051536E+05 -8.460184E+04 -6.725946E+04  1.038145E+04  2.630631E+04
       105  26 -4.864297E+05 -1.264761E+05 -9.947351E+04 -5.198514E+04  1.302360E+04  3.161854E+04
       105  27 -5.750912E+05 -1.457992E+05 -1.121113E+05 -6.604223E+04  1.566254E+04  3.574106E+04
       106   1  7.220367E+05  1.619501E+05  1.585745E+05 -5.899222E+04 -4.526775E+03 -4.010001E+04
       106   2  8.018560E+05  1.905821E+05  1.965790E+05 -6.475213E+04 -4.772881E+04 -3.718388E+04
       106   3  9.008778E+05  2.729165E+05  2.761473E+05 -9.869942E+04 -9.095296E+04 -1.170320E+04
       106   4  4.188156E+04 -1.997829E+03  1.868969E+04 -6.657565E+04 -1.415666E+04 -4.010409E+04
       106   5  3.451200E+04  4.427477E+03  3.272089E+04 -5.249243E+04 -3.131871E+04 -3.718356E+04
       106   6  4.183899E+04  6.007144E+04  7.026303E+04 -6.659460E+04 -4.849495E+04 -1.168864E+04
       106   7 -6.378346E+05 -1.659747E+05 -1.212196E+05 -7.415062E+04 -2.377618E+04 -4.010793E+04
       106   8 -7.322773E+05 -1.817648E+05 -1.311702E+05 -4.024811E+04 -1.492855E+04 -3.718259E+04
       106   9 -8.165183E+05 -1.528223E+05 -1.356662E+05 -3.453437E+04 -6.095341E+03 -1.166968E+04
       106  10  7.220363E+05  1.619484E+05  1.585715E+05 -5.899236E+04 -1.992590E-09 -6.452335E-10
       106  11  8.018532E+05  1.905800E+05  1.965721E+05 -6.475355E+04  3.231907E-11 -6.495715E-10
       106  12  9.008689E+05  2.729141E+05  2.761315E+05 -9.870028E+04 -9.250523E-10 -3.427288E-10
       106  13  4.188092E+04 -1.999610E+03  1.868629E+04 -6.657611E+04 -2.127204E-09 -4.914218E-10
       106  14  3.451058E+04  4.425729E+03  3.271645E+04 -5.249337E+04  1.041175E-09 -4.115019E-11
       106  15  4.183643E+04  6.007066E+04  7.025836E+04 -6.659506E+04  7.507038E-10 -2.621578E-10
       106  16 -6.378356E+05 -1.659766E+05 -1.212237E+05 -7.415139E+04  1.704081E-11 -5.547929E-10
       106  17 -7.322779E+05 -1.817663E+05 -1.311732E+05 -4.024856E+04 -1.186250E-09 -4.482154E-10
       106  18 -8.165184E+05 -1.528224E+05 -1.356665E+05 -3.453443E+04 -3.916212E-10 -3.701444E-10
       106  19  7.220367E+05  1.619501E+05  1.585745E+05 -5.899222E+04  4.526775E+03  4.010001E+04
       106  20  8.018560E+05  1.905821E+05  1.965790E+05 -6.475213E+04  4.772881E+04  3.718388E+04
       106  21  9.008778E+05  2.729165E+05  2.761473E+05 -9.869942E+04  9.095296E+04  1.170320E+04
       106  22  4.188156E+04 -1.997829E+03  1.868969E+04 -6.657565E+04  1.415666E+04  4.010409E+04
       106  23  3.451200E+04  4.427477E+03  3.272089E+04 -5.249243E+04  3.131871E+04  3.718356E+04
       106  24  4.183899E+04  6.007144E+04  7.026303E+04 -6.659460E+04  4.849495E+04  1.168864E+04
       106  25 -6.378346E+05 -1.659747E+05 -1.212196E+05 -7.415062E+04  2.377618E+04  4.010793E+04
       106  26 -7.322773E+05 -1.817648E+05 -1.311702E+05 -4.024811E+04  1.492855E+04  3.718259E+04
       106  27 -8.165183E+05 -1.528223E+05 -1.356662E+05 -3.453437E+04  6.095341E+03  1.166968E+04
       107   1  7.126550E+05  2.557980E+06  7.129184E+05 -5.703123E+05  2.657386E+04  2.014535E+05
       107   2  4.350823E+05  1.908734E+06  4.387612E+05 -4.345635E+05  7.780784E+04  8.453948E+04
       107   3  2.675966E+05  1.302324E+06  2.679784E+05 -4.860542E+05  6.431379E+04 -3.234532E+04
       107   4  1.248670E+05  1.866667E+05  1.429486E+05 -4.975344E+05  2.682068E+04  9.694297E+04
       107   5  1.413220E+04  1.727294E+05  6.867081E+04 -4.040577E+05  7.788468E+04  6.120112E+04
       107   6 -3.732921E+02  1.873566E+05  4.168120E+04 -4.978089E+05  6.415443E+04  2.536618E+04
       107   7 -4.633053E+05 -2.179480E+06 -4.273776E+05 -4.250301E+05  2.704368E+04 -7.171714E+03
       107   8 -4.070106E+05 -1.560440E+06 -3.015908E+05 -3.736357E+05  7.795938E+04  3.792673E+04
       107   9 -2.684181E+05 -9.264216E+05 -1.846682E+05 -5.095408E+05  6.399270E+04  8.297611E+04
       107  10  7.126434E+05  2.557936E+06  7.128410E+05 -5.703166E+05 -6.354576E-10 -3.583148E-10
       107  11  4.350739E+05  1.908724E+06  4.387364E+05 -4.345688E+05 -2.664591E-11 -1.771817E-09
       107  12  2.675918E+05  1.302321E+06  2.679687E+05 -4.860526E+05 -7.279624E-10 -1.058289E-09
       107  13  1.248637E+05  1.866564E+05  1.429296E+05 -4.975365E+05 -1.329334E-09 -7.408065E-10
       107  14  1.412467E+04  1.727238E+05  6.865236E+04 -4.040615E+05  8.143052E-10 -5.963115E-10
       107  15 -3.778867E+02  1.873548E+05  4.167225E+04 -4.978102E+05 -4.972477E-10 -1.212156E-09
       107  16 -4.633060E+05 -2.179480E+06 -4.273791E+05 -4.250300E+05  4.282299E-10 -1.244780E-10
       107  17 -4.070175E+05 -1.560443E+06 -3.016050E+05 -3.736381E+05  9.316753E-11 -5.527197E-10
       107  18 -2.684243E+05 -9.264301E+05 -1.846888E+05 -5.095450E+05  8.124830E-11  6.719782E-10
       107  19  7.126550E+05  2.557980E+06  7.129184E+05 -5.703123E+05 -2.657386E+04 -2.014535E+05
       107  20  4.350823E+05  1.908734E+06  4.387612E+05 -4.345635E+05 -7.780784E+04 -8.453948E+04
       107  21  2.675966E+05  1.302324E+06  2.679784E+05 -4.860542E+05 -6.431379E+04  3.234532E+04
       107  22  1.248670E+05  1.866667E+05  1.429486E+05 -4.975344E+05 -2.682068E+04 -9.694297E+04
       107  23  1.413220E+04  1.727294E+05  6.867081E+04 -4.040577E+05 -7.788468E+04 -6.120112E+04
       107  24 -3.732921E+02  1.873566E+05  4.168120E+04 -4.978089E+05 -6.415443E+04 -2.536618E+04
       107  25 -4.633053E+05 -2.179480E+06 -4.273776E+05 -4.250301E+05 -2.704368E+04  7.171714E+03
       107  26 -4.070106E+05 -1.560440E+06 -3.015908E+05 -3.736357E+05 -7.795938E+04 -3.792673E+04
       107  27 -2.684181E+05 -9.264216E+05 -1.846682E+05 -5.095408E+05 -6.399270E+04 -8.297611E+04
       108   1  1.680019E+05  8.500692E+05  1.708273E+05 -5.019514E+05  3.788534E+04 -2.451488E+04
       108   2  1.236576E+04  2.218994E+05  3.352654E+04 -4.033955E+05  2.709596E+03 -3.736767E+04
       108   3 -1.359495E+05 -4.033921E+05 -9.387817E+04 -4.954246E+05 -3.258816E+04 -5.020975E+04
       108   4  7.141704E+03  1.817212E+05  3.456232E+04 -4.985013E+05  3.775414E+04  1.937988E+04
       108   5  2.436665E+03  1.804889E+05  2.528474E+04 -4.032131E+05  2.577780E+03  6.668062E+03
       108   6  5.051416E+03  1.817379E+05  2.581941E+04 -4.985078E+05 -3.272165E+04 -6.045442E+03
       108   7 -1.537453E+05 -4.861984E+05 -1.017189E+05 -4.950545E+05  3.762333E+04  6.322830E+04
       108   8 -7.491493E+03  1.390842E+05  1.705014E+04 -4.030307E+05  2.445984E+03  5.070091E+04
       108   9  1.460320E+05  7.671976E+05  1.455062E+05 -5.015935E+05 -3.285551E+04  3.815975E+04
       108  10  1.680002E+05  8.500682E+05  1.708235E+05 -5.019507E+05  9.664918E-11  2.222012E-09
       108  11  1.236538E+04  2.218979E+05  3.352390E+04 -4.033954E+05  9.184736E-10 -1.633945E-09
       108  12 -1.359514E+05 -4.033951E+05 -9.388491E+04 -4.954259E+05 -7.000195E-10 -2.775798E-09
       108  13  7.140072E+03  1.817204E+05  3.455894E+04 -4.985019E+05  8.267607E-10 -1.242317E-09
       108  14  2.436646E+03  1.804888E+05  2.528464E+04 -4.032131E+05  2.083844E-09 -5.813434E-10
       108  15  5.050256E+03  1.817376E+05  2.581732E+04 -4.985079E+05  2.036512E-09 -1.451905E-09
       108  16 -1.537479E+05 -4.862031E+05 -1.017291E+05 -4.950564E+05 -7.557239E-11 -2.738607E-09
       108  17 -7.492190E+03  1.390814E+05  1.704530E+04 -4.030308E+05  1.282611E-09 -1.500024E-09
       108  18  1.460304E+05  7.671958E+05  1.455014E+05 -5.015925E+05 -2.910609E-10  2.284174E-09
       108  19  1.680019E+05  8.500692E+05  1.708273E+05 -5.019514E+05 -3.788534E+04  2.451488E+04
       108  20  1.236576E+04  2.218994E+05  3.352654E+04 -4.033955E+05 -2.709596E+03  3.736767E+04
       108  21 -1.359495E+05 -4.033921E+05 -9.387817E+04 -4.954246E+05  3.258816E+04  5.020975E+04
       108  22  7.141704E+03  1.817212E+05  3.456232E+04 -4.985013E+05 -3.775414E+04 -1.937988E+04
       108  23  2.436665E+03  1.804889E+05  2.528474E+04 -4.032131E+05 -2.577780E+03 -6.668062E+03
       108  24  5.051416E+03  1.817379E+05  2.581941E+04 -4.985078E+05  3.272165E+04  6.045442E+03
       108  25 -1.537453E+05 -4.861984E+05 -1.017189E+05 -4.950545E+05 -3.762333E+04 -6.322830E+04
       108  26 -7.491493E+03  1.390842E+05  1.705014E+04 -4.030307E+05 -2.445984E+03 -5.070091E+04
       108  27  1.460320E+05  7.671976E+05  1.455062E+05 -5.015935E+05  3.285551E+04 -3.815975E+04
       109   1 -2.472988E+05 -8.462177E+05 -1.814724E+05 -5.035205E+05 -5.891161E+04 -6.788385E+04
       109   2 -3.924369E+05 -1.474510E+06 -3.116494E+05 -3.852540E+05 -7.378925E+04 -1.114916E+04
       109   3 -4.953018E+05 -2.099461E+06 -4.683421E+05 -4.544114E+05 -2.586624E+04  4.562231E+04
       109   4  8.865797E+02  1.847118E+05  2.831823E+04 -4.978232E+05 -5.907503E+04 -1.044164E+04
       109   5  8.656944E+03  1.761235E+05  4.137199E+04 -4.040582E+05 -7.372245E+04 -3.197353E+04
       109   6  7.225041E+04  1.840582E+05  8.228161E+04 -4.976633E+05 -2.564927E+04 -5.341098E+04
       109   7  2.490076E+05  1.216660E+06  2.380656E+05 -4.921152E+05 -5.923721E+04  4.709429E+04
       109   8  4.095741E+05  1.829326E+06  3.942372E+05 -4.229108E+05 -7.365450E+04 -5.285248E+04
       109   9  6.394335E+05  2.472382E+06  6.325704E+05 -5.410710E+05 -2.541899E+04 -1.528078E+05
       109  10 -2.473038E+05 -8.462236E+05 -1.814876E+05 -5.035238E+05 -1.430391E-09 -2.760631E-10
       109  11 -3.924428E+05 -1.474511E+06 -3.116598E+05 -3.852547E+05 -1.455883E-10 -9.069718E-10
       109  12 -4.953031E+05 -2.099464E+06 -4.683473E+05 -4.544104E+05  3.326170E-10  3.031337E-10
       109  13  8.828019E+02  1.847108E+05  2.831146E+04 -4.978237E+05 -1.050188E-09 -1.249540E-09
       109  14  8.650831E+03  1.761209E+05  4.135985E+04 -4.040601E+05 -7.066565E-10 -4.645861E-10
       109  15  7.224894E+04  1.840549E+05  8.227501E+04 -4.976644E+05 -5.612313E-10 -8.226594E-10
       109  16  2.490032E+05  1.216657E+06  2.380549E+05 -4.921130E+05 -8.925418E-10 -3.498202E-10
       109  17  4.095676E+05  1.829321E+06  3.942217E+05 -4.229139E+05 -1.237588E-09 -1.365348E-09
       109  18  6.394266E+05  2.472357E+06  6.325255E+05 -5.410742E+05 -5.927201E-11 -6.101806E-10
       109  19 -2.472988E+05 -8.462177E+05 -1.814724E+05 -5.035205E+05  5.891161E+04  6.788385E+04
       109  20 -3.924369E+05 -1.474510E+06 -3.116494E+05 -3.852540E+05  7.378925E+04  1.114916E+04
       109  21 -4.953018E+05 -2.099461E+06 -4.683421E+05 -4.544114E+05  2.586624E+04 -4.562231E+04
       109  22  8.865797E+02  1.847118E+05  2.831823E+04 -4.978232E+05  5.907503E+04  1.044164E+04
       109  23  8.656944E+03  1.761235E+05  4.137199E+04 -4.040582E+05  7.372245E+04  3.197353E+04
       109  24  7.225041E+04  1.840582E+05  8.228161E+04 -4.976633E+05  2.564927E+04  5.341098E+04
       109  25  2.490076E+05  1.216660E+06  2.380656E+05 -4.921152E+05  5.923721E+04 -4.709429E+04
       109  26  4.095741E+05  1.829326E+06  3.942372E+05 -4.229108E+05  7.365450E+04  5.285248E+04
       109  27  6.394335E+05  2.472382E+06  6.325704E+05 -5.410710E+05  2.541899E+04  1.528078E+05
       110   1 -2.237967E+06 -8.215509E+05 -4.680579E+05 -8.480907E+05 -2.097540E+05 -6.550172E+04
       110   2 -2.168096E+06 -5.457282E+05 -2.826103E+05 -8.247898E+05 -1.339904E+05 -7.887138E+03
       110   3 -2.158603E+06 -4.661250E+05 -2.095129E+05 -7.775191E+05 -4.966482E+04  2.701395E+04
       110   4 -1.523350E+06 -4.483505E+05 -2.590520E+05 -5.460904E+05 -1.702022E+05 -5.067177E+04
       110   5 -1.481275E+06 -2.518782E+05 -1.147063E+05 -5.959192E+05 -1.188149E+05 -2.197216E+03
       110   6 -1.494659E+06 -2.466797E+05 -6.326724E+04 -6.218042E+05 -5.887815E+04  2.355147E+04
       110   7 -8.081999E+05 -7.495682E+04 -5.008625E+04 -2.437259E+05 -1.306005E+05 -3.580621E+04
       110   8 -7.939780E+05  4.205127E+04  5.316341E+04 -3.668013E+05 -1.036211E+05  3.501984E+03
       110   9 -8.302761E+05 -2.722345E+04  8.295097E+04 -4.659469E+05 -6.810213E+04  2.008599E+04
       110  10 -2.238016E+06 -8.215674E+05 -4.681490E+05 -8.481018E+05  2.264487E-09 -1.288716E-11
       110  11 -2.168115E+06 -5.457331E+05 -2.826443E+05 -8.247906E+05  1.368816E-09 -5.236564E-10
       110  12 -2.158606E+06 -4.661265E+05 -2.095189E+05 -7.775180E+05  1.733856E-09 -1.777687E-11
       110  13 -1.523382E+06 -4.483610E+05 -2.591115E+05 -5.460974E+05  1.314578E-09 -8.216389E-10
       110  14 -1.481291E+06 -2.518820E+05 -1.147328E+05 -5.959194E+05  6.326209E-10 -1.328550E-09
       110  15 -1.494663E+06 -2.466812E+05 -6.327481E+04 -6.218030E+05 -9.307767E-10 -3.383235E-10
       110  16 -8.082186E+05 -7.496278E+04 -5.012077E+04 -2.437297E+05 -1.196670E-09 -7.217547E-10
       110  17 -7.939895E+05  4.204837E+04  5.314318E+04 -3.668010E+05 -2.002284E-09 -1.296797E-09
       110  18 -8.302812E+05 -2.722513E+04  8.294149E+04 -4.659458E+05 -1.894998E-09 -1.131012E-10
       110  19 -2.237967E+06 -8.215509E+05 -4.680579E+05 -8.480907E+05  2.097540E+05  6.550172E+04
       110  20 -2.168096E+06 -5.457282E+05 -2.826103E+05 -8.247898E+05  1.339904E+05  7.887138E+03
       110  21 -2.158603E+06 -4.661250E+05 -2.095129E+05 -7.775191E+05  4.966482E+04 -2.701395E+04
       110  22 -1.523350E+06 -4.483505E+05 -2.590520E+05 -5.460904E+05  1.702022E+05  5.067177E+04
       110  23 -1.481275E+06 -2.518782E+05 -1.147063E+05 -5.959192E+05  1.188149E+05  2.197216E+03
       110  24 -1.494659E+06 -2.466797E+05 -6.326724E+04 -6.218042E+05  5.887815E+04 -2.355147E+04
       110  25 -8.081999E+05 -7.495682E+04 -5.008625E+04 -2.437259E+05  1.306005E+05  3.580621E+04
       110  26 -7.939780E+05  4.205127E+04  5.316341E+04 -3.668013E+05  1.036211E+05 -3.501984E+03
       110  27 -8.302761E+05 -2.722345E+04  8.295097E+04 -4.659469E+05  6.810213E+04 -2.008599E+04
       111   1 -2.073664E+06 -4.817646E+05 -1.836925E+05 -7.770790E+05 -4.645607E+04  2.337786E+04
       111   2 -2.008247E+06 -4.345269E+05 -1.426049E+05 -7.466469E+05 -3.091090E+04  2.525342E+04
       111   3 -1.929029E+06 -4.147231E+05 -1.144237E+05 -7.360638E+05 -1.494361E+04  2.600315E+04
       111   4 -1.486460E+06 -2.614103E+05 -4.938427E+04 -6.123015E+05 -4.960783E+04  2.219102E+04
       111   5 -1.492819E+06 -2.432876E+05 -2.584930E+04 -6.040658E+05 -3.526154E+04  2.361808E+04
       111   6 -1.485141E+06 -2.523549E+05 -1.425929E+04 -6.156806E+05 -2.049516E+04  2.391899E+04
       111   7 -8.989035E+05 -4.102586E+04  8.490220E+04 -4.473789E+05 -5.276284E+04  2.100293E+04
       111   8 -9.771212E+05 -5.202691E+04  9.088957E+04 -4.613753E+05 -3.961612E+04  2.198125E+04
       111   9 -1.041055E+06 -8.997274E+04  8.589259E+04 -4.952188E+05 -2.605104E+04  2.183324E+04
       111  10 -2.073667E+06 -4.817658E+05 -1.836976E+05 -7.770782E+05  2.035999E-08  8.444918E-09
       111  11 -2.008249E+06 -4.345279E+05 -1.426079E+05 -7.466463E+05 -4.823237E-09  5.946658E-10
       111  12 -1.929029E+06 -4.147239E+05 -1.144254E+05 -7.360635E+05 -2.319093E-08 -7.189911E-09
       111  13 -1.486462E+06 -2.614115E+05 -4.938982E+04 -6.123006E+05 -9.668732E-10  4.423326E-10
       111  14 -1.492821E+06 -2.432885E+05 -2.585268E+04 -6.040651E+05 -2.196757E-09  4.888127E-10
       111  15 -1.485142E+06 -2.523556E+05 -1.426115E+04 -6.156802E+05 -5.137834E-10  3.127758E-10
       111  16 -8.989067E+05 -4.102708E+04  8.489614E+04 -4.473780E+05 -2.403195E-08 -7.485734E-09
       111  17 -9.771231E+05 -5.202785E+04  9.088571E+04 -4.613746E+05 -3.151817E-09  4.599000E-10
       111  18 -1.041056E+06 -8.997343E+04  8.589042E+04 -4.952184E+05  2.071977E-08  7.783056E-09
       111  19 -2.073664E+06 -4.817646E+05 -1.836925E+05 -7.770790E+05  4.645607E+04 -2.337786E+04
       111  20 -2.008247E+06 -4.345269E+05 -1.426049E+05 -7.466469E+05  3.091090E+04 -2.525342E+04
       111  21 -1.929029E+06 -4.147231E+05 -1.144237E+05 -7.360638E+05  1.494361E+04 -2.600315E+04
       111  22 -1.486460E+06 -2.614103E+05 -4.938427E+04 -6.123015E+05  4.960783E+04 -2.219102E+04
       111  23 -1.492819E+06 -2.432876E+05 -2.584930E+04 -6.040658E+05  3.526154E+04 -2.361808E+04
       111  24 -1.485141E+06 -2.523549E+05 -1.425929E+04 -6.156806E+05  2.049516E+04 -2.391899E+04
       111  25 -8.989035E+05 -4.102586E+04  8.490220E+04 -4.473789E+05  5.276284E+04 -2.100293E+04
       111  26 -9.771212E+05 -5.202691E+04  9.088957E+04 -4.613753E+05  3.961612E+04 -2.198125E+04
       111  27 -1.041055E+06 -8.997274E+04  8.589259E+04 -4.952188E+05  2.605104E+04 -2.183324E+04
       112   1 -1.871787E+06 -3.958098E+05 -9.797018E+04 -7.215075E+05 -1.209752E+04  2.368140E+04
       112   2 -1.806722E+06 -3.585300E+05 -7.652881E+04 -6.902542E+05 -7.220808E+03  1.988161E+04
       112   3 -1.723173E+06 -3.407088E+05 -5.744516E+04 -6.807944E+05 -2.320240E+03  1.601348E+04
       112   4 -1.484478E+06 -2.530249E+05 -1.078420E+04 -6.152108E+05 -1.737282E+04  2.170172E+04
       112   5 -1.493691E+06 -2.431284E+05 -5.920967E+03 -6.043749E+05 -1.256784E+04  1.787612E+04
       112   6 -1.484411E+06 -2.526759E+05 -3.357258E+03 -6.153341E+05 -7.739397E+03  1.398204E+04
       112   7 -1.097019E+06 -1.102297E+05  7.639161E+04 -5.088540E+05 -2.265165E+04  1.972072E+04
       112   8 -1.180561E+06 -1.277195E+05  6.468069E+04 -5.184558E+05 -1.791781E+04  1.586952E+04
       112   9 -1.245591E+06 -1.646383E+05  5.072747E+04 -5.498504E+05 -1.316085E+04  1.194975E+04
       112  10 -1.871788E+06 -3.958104E+05 -9.797151E+04 -7.215073E+05 -2.010373E-09 -2.014200E-10
       112  11 -1.806723E+06 -3.585304E+05 -7.652965E+04 -6.902541E+05  1.443878E-09 -1.010177E-10
       112  12 -1.723173E+06 -3.407090E+05 -5.744565E+04 -6.807943E+05  6.385298E-10 -3.174809E-10
       112  13 -1.484478E+06 -2.530255E+05 -1.078565E+04 -6.152105E+05  5.152782E-10  3.689048E-10
       112  14 -1.493691E+06 -2.431288E+05 -5.921863E+03 -6.043747E+05  3.220641E-09  1.246257E-10
       112  15 -1.484412E+06 -2.526762E+05 -3.357738E+03 -6.153340E+05  9.124246E-10  2.068479E-10
       112  16 -1.097019E+06 -1.102302E+05  7.638991E+04 -5.088536E+05  4.946297E-09  7.479275E-10
       112  17 -1.180561E+06 -1.277199E+05  6.467961E+04 -5.184556E+05  4.495373E-09  8.836618E-10
       112  18 -1.245591E+06 -1.646385E+05  5.072687E+04 -5.498502E+05  9.806522E-10 -1.889780E-10
       112  19 -1.871787E+06 -3.958098E+05 -9.797018E+04 -7.215075E+05  1.209752E+04 -2.368140E+04
       112  20 -1.806722E+06 -3.585300E+05 -7.652881E+04 -6.902542E+05  7.220808E+03 -1.988161E+04
       112  21 -1.723173E+06 -3.407088E+05 -5.744516E+04 -6.807944E+05  2.320240E+03 -1.601348E+04
       112  22 -1.484478E+06 -2.530249E+05 -1.078420E+04 -6.152108E+05  1.737282E+04 -2.170172E+04
       112  23 -1.493691E+06 -2.431284E+05 -5.920967E+03 -6.043749E+05  1.256784E+04 -1.787612E+04
       112  24 -1.484411E+06 -2.526759E+05 -3.357258E+03 -6.153341E+05  7.739397E+03 -1.398204E+04
       112  25 -1.097019E+06 -1.102297E+05  7.639161E+04 -5.088540E+05  2.265165E+04 -1.972072E+04
       112  26 -1.180561E+06 -1.277195E+05  6.468069E+04 -5.184558E+05  1.791781E+04 -1.586952E+04
       112  27 -1.245591E+06 -1.646383E+05  5.072747E+04 -5.498504E+05  1.316085E+04 -1.194975E+04
       113   1 -1.667005E+06 -3.200315E+05 -4.355910E+04 -6.654766E+05 -7.329702E+02  1.326441E+04
       113   2 -1.601773E+06 -2.829544E+05 -2.601678E+04 -6.339959E+05  1.992752E+03  8.543514E+03
       113   3 -1.517551E+06 -2.650147E+05 -9.104384E+03 -6.244449E+05  4.720766E+03  3.814562E+03
       113   4 -1.484311E+06 -2.527125E+05 -2.600810E+03 -6.153224E+05 -6.147691E+03  1.123508E+04
       113   5 -1.493800E+06 -2.431392E+05 -1.667581E+03 -6.043575E+05 -3.430571E+03  6.511336E+03
       113   6 -1.484304E+06 -2.527017E+05 -1.357398E+03 -6.153240E+05 -7.113008E+02  1.779549E+03
       113   7 -1.301582E+06 -1.853906E+05  3.835566E+04 -5.651544E+05 -1.156416E+04  9.205095E+03
       113   8 -1.385817E+06 -2.033235E+05  2.268069E+04 -5.747146E+05 -8.854863E+03  4.478795E+03
       113   9 -1.451056E+06 -2.403888E+05  6.389414E+03 -6.062027E+05 -6.143552E+03 -2.555334E+02
       113  10 -1.667005E+06 -3.200317E+05 -4.355943E+04 -6.654766E+05 -1.809097E-09 -6.817170E-10
       113  11 -1.601773E+06 -2.829545E+05 -2.601693E+04 -6.339959E+05  1.590458E-10 -2.918533E-10
       113  12 -1.517551E+06 -2.650148E+05 -9.104453E+03 -6.244449E+05  2.309687E-10  1.947475E-10
       113  13 -1.484311E+06 -2.527126E+05 -2.601118E+03 -6.153223E+05 -8.641809E-10 -1.646082E-10
       113  14 -1.493800E+06 -2.431393E+05 -1.667682E+03 -6.043574E+05 -3.124565E-11  8.336966E-11
       113  15 -1.484304E+06 -2.527017E+05 -1.357405E+03 -6.153240E+05 -3.671556E-10  2.921883E-10
       113  16 -1.301582E+06 -1.853908E+05  3.835525E+04 -5.651544E+05  2.195364E-09  3.853059E-10
       113  17 -1.385817E+06 -2.033236E+05  2.268050E+04 -5.747146E+05 -1.381511E-10  1.973116E-10
       113  18 -1.451056E+06 -2.403888E+05  6.389342E+03 -6.062027E+05 -2.268755E-10 -6.523688E-10
       113  19 -1.667005E+06 -3.200315E+05 -4.355910E+04 -6.654766E+05  7.329702E+02 -1.326441E+04
       113  20 -1.601773E+06 -2.829544E+05 -2.601678E+04 -6.339959E+05 -1.992752E+03 -8.543514E+03
       113  21 -1.517551E+06 -2.650147E+05 -9.104384E+03 -6.244449E+05 -4.720766E+03 -3.814562E+03
       113  22 -1.484311E+06 -2.527125E+05 -2.600810E+03 -6.153224E+05  6.147691E+03 -1.123508E+04
       113  23 -1.493800E+06 -2.431392E+05 -1.667581E+03 -6.043575E+05  3.430571E+03 -6.511336E+03
       113  24 -1.484304E+06 -2.527017E+05 -1.357398E+03 -6.153240E+05  7.113008E+02 -1.779549E+03
       113  25 -1.301582E+06 -1.853906E+05  3.835566E+04 -5.651544E+05  1.156416E+04 -9.205095E+03
       113  26 -1.385817E+06 -2.033235E+05  2.268069E+04 -5.747146E+05  8.854863E+03 -4.478795E+03
       113  27 -1.451056E+06 -2.403888E+05  6.389414E+03 -6.062027E+05  6.143552E+03  2.555334E+02
       114   1 -1.461324E+06 -2.441891E+05  4.042775E+03 -6.090371E+05  6.050192E+03  9.624414E+02
       114   2 -1.396066E+06 -2.071179E+05  2.020259E+04 -5.775481E+05  8.843259E+03 -3.741733E+03
       114   3 -1.311824E+06 -1.891868E+05  3.568404E+04 -5.679939E+05  1.163433E+04 -8.438109E+03
       114   4 -1.484306E+06 -2.527026E+05 -1.386813E+03 -6.153257E+05  6.176775E+02 -1.072724E+03
       114   5 -1.493796E+06 -2.431341E+05 -1.830898E+03 -6.043565E+05  3.418457E+03 -5.774417E+03
       114   6 -1.484311E+06 -2.527087E+05 -2.959665E+03 -6.153252E+05  6.217110E+03 -1.046833E+04
       114   7 -1.507287E+06 -2.612163E+05 -6.816443E+03 -6.216142E+05 -4.814729E+03 -3.107849E+03
       114   8 -1.591519E+06 -2.791503E+05 -2.386535E+04 -6.311614E+05 -2.005513E+03 -7.806791E+03
       114   9 -1.656770E+06 -3.162292E+05 -4.160583E+04 -6.626451E+05  8.014467E+02 -1.249797E+04
       114  10 -1.461324E+06 -2.441891E+05  4.042704E+03 -6.090371E+05 -1.595849E-09 -2.808396E-10
       114  11 -1.396066E+06 -2.071179E+05  2.020242E+04 -5.775481E+05  4.333774E-09  1.769747E-09
       114  12 -1.311824E+06 -1.891869E+05  3.568366E+04 -5.679939E+05  3.594684E-09  7.680039E-10
       114  13 -1.484306E+06 -2.527026E+05 -1.386816E+03 -6.153257E+05 -6.954451E-10  3.401635E-10
       114  14 -1.493796E+06 -2.431342E+05 -1.830982E+03 -6.043565E+05  4.766009E-09  1.759796E-09
       114  15 -1.484311E+06 -2.527088E+05 -2.959943E+03 -6.153252E+05  2.542472E-09  7.474725E-10
       114  16 -1.507287E+06 -2.612163E+05 -6.816505E+03 -6.216142E+05  3.196382E-09  1.104697E-09
       114  17 -1.591519E+06 -2.791503E+05 -2.386547E+04 -6.311615E+05  3.480482E-09  2.109152E-09
       114  18 -1.656770E+06 -3.162294E+05 -4.160612E+04 -6.626451E+05 -3.803786E-10 -1.168281E-10
       114  19 -1.461324E+06 -2.441891E+05  4.042775E+03 -6.090371E+05 -6.050192E+03 -9.624414E+02
       114  20 -1.396066E+06 -2.071179E+05  2.020259E+04 -5.775481E+05 -8.843259E+03  3.741733E+03
       114  21 -1.311824E+06 -1.891868E+05  3.568404E+04 -5.679939E+05 -1.163433E+04  8.438109E+03
       114  22 -1.484306E+06 -2.527026E+05 -1.386813E+03 -6.153257E+05 -6.176775E+02  1.072724E+03
       114  23 -1.493796E+06 -2.431341E+05 -1.830898E+03 -6.043565E+05 -3.418457E+03  5.774417E+03
       114  24 -1.484311E+06 -2.527087E+05 -2.959665E+03 -6.153252E+05 -6.217110E+03  1.046833E+04
       114  25 -1.507287E+06 -2.612163E+05 -6.816443E+03 -6.216142E+05  4.814729E+03  3.107849E+03
       114  26 -1.591519E+06 -2.791503E+05 -2.386535E+04 -6.311614E+05  2.005513E+03  7.806791E+03
       114  27 -1.656770E+06 -3.162292E+05 -4.160583E+04 -6.626451E+05 -8.014467E+02  1.249797E+04
       115   1 -1.255840E+06 -1.684430E+05  4.791911E+04 -5.527102E+05  1.330230E+04 -1.115661E+04
       115   2 -1.190733E+06 -1.315021E+05  6.145284E+04 -5.212993E+05  1.852156E+04 -1.490517E+04
       115   3 -1.107200E+06 -1.140736E+05  7.238028E+04 -5.116977E+05  2.371806E+04 -1.858651E+04
       115   4 -1.484428E+06 -2.526713E+05 -3.852533E+03 -6.153464E+05  7.879641E+03 -1.318928E+04
       115   5 -1.493666E+06 -2.431053E+05 -6.842646E+03 -6.043704E+05  1.316875E+04 -1.691269E+04
       115   6 -1.484499E+06 -2.530660E+05 -1.249511E+04 -6.152055E+05  1.843471E+04 -2.056902E+04
       115   7 -1.712958E+06 -3.368935E+05 -5.562591E+04 -6.779599E+05  2.459278E+03 -1.522110E+04
       115   8 -1.796506E+06 -3.547009E+05 -7.514332E+04 -6.874037E+05  7.818798E+03 -1.891914E+04
       115   9 -1.861659E+06 -3.920491E+05 -9.738055E+04 -7.186567E+05  1.315480E+04 -2.255025E+04
       115  10 -1.255840E+06 -1.684432E+05  4.791855E+04 -5.527101E+05  9.405005E-11 -3.040202E-10
       115  11 -1.190733E+06 -1.315024E+05  6.145178E+04 -5.212991E+05  2.819000E-11  1.746593E-10
       115  12 -1.107201E+06 -1.140741E+05  7.237857E+04 -5.116973E+05 -1.625553E-10  2.007930E-11
       115  13 -1.484428E+06 -2.526715E+05 -3.852977E+03 -6.153463E+05  5.210620E-10 -1.309867E-10
       115  14 -1.493667E+06 -2.431057E+05 -6.843509E+03 -6.043702E+05  4.385879E-10 -1.641684E-10
       115  15 -1.484500E+06 -2.530665E+05 -1.249654E+04 -6.152052E+05  8.999111E-10 -7.598621E-10
       115  16 -1.712958E+06 -3.368937E+05 -5.562636E+04 -6.779599E+05  8.726531E-11  8.837454E-11
       115  17 -1.796506E+06 -3.547013E+05 -7.514411E+04 -6.874036E+05 -6.779241E-11 -6.486350E-10
       115  18 -1.861659E+06 -3.920497E+05 -9.738183E+04 -7.186565E+05 -9.903834E-11 -1.283441E-09
       115  19 -1.255840E+06 -1.684430E+05  4.791911E+04 -5.527102E+05 -1.330230E+04  1.115661E+04
       115  20 -1.190733E+06 -1.315021E+05  6.145284E+04 -5.212993E+05 -1.852156E+04  1.490517E+04
       115  21 -1.107200E+06 -1.140736E+05  7.238028E+04 -5.116977E+05 -2.371806E+04  1.858651E+04
       115  22 -1.484428E+06 -2.526713E+05 -3.852533E+03 -6.153464E+05 -7.879641E+03  1.318928E+04
       115  23 -1.493666E+06 -2.431053E+05 -6.842646E+03 -6.043704E+05 -1.316875E+04  1.691269E+04
       115  24 -1.484499E+06 -2.530660E+05 -1.249511E+04 -6.152055E+05 -1.843471E+04  2.056902E+04
       115  25 -1.712958E+06 -3.368935E+05 -5.562591E+04 -6.779599E+05 -2.459278E+03  1.522110E+04
       115  26 -1.796506E+06 -3.547009E+05 -7.514332E+04 -6.874037E+05 -7.818798E+03  1.891914E+04
       115  27 -1.861659E+06 -3.920491E+05 -9.738055E+04 -7.186567E+05 -1.315480E+04  2.255025E+04
       116   1 -1.051139E+06 -9.387329E+04  8.132958E+04 -4.983323E+05  2.743424E+04 -2.058121E+04
       116   2 -9.871409E+05 -5.567094E+04  8.448280E+04 -4.640129E+05  4.309855E+04 -1.995059E+04
       116   3 -9.096327E+05 -4.578213E+04  7.472659E+04 -4.493041E+05  5.834962E+04 -1.820682E+04
       116   4 -1.485261E+06 -2.522980E+05 -1.652966E+04 -6.157630E+05  2.187671E+04 -2.266737E+04
       116   5 -1.492655E+06 -2.432644E+05 -2.997173E+04 -6.039978E+05  3.872646E+04 -2.159379E+04
       116   6 -1.486783E+06 -2.627875E+05 -5.727270E+04 -6.118470E+05  5.516100E+04 -1.940741E+04
       116   7 -1.919194E+06 -4.107096E+05 -1.144009E+05 -7.331188E+05  1.632339E+04 -2.475198E+04
       116   8 -1.997910E+06 -4.308372E+05 -1.444423E+05 -7.438776E+05  3.435824E+04 -2.323553E+04
       116   9 -2.063595E+06 -4.797633E+05 -1.892930E+05 -7.742492E+05  5.197561E+04 -2.060675E+04
       116  10 -1.051140E+06 -9.387395E+04  8.132737E+04 -4.983318E+05 -1.179855E-09 -6.663206E-10
       116  11 -9.871430E+05 -5.567187E+04  8.447856E+04 -4.640122E+05 -7.047974E-10 -4.405140E-10
       116  12 -9.096365E+05 -4.578340E+04  7.471956E+04 -4.493032E+05 -1.169110E-09 -6.463026E-11
       116  13 -1.485262E+06 -2.522987E+05 -1.653153E+04 -6.157626E+05  4.463155E-11 -6.462140E-10
       116  14 -1.492657E+06 -2.432653E+05 -2.997542E+04 -6.039972E+05 -8.783482E-11 -3.903097E-10
       116  15 -1.486787E+06 -2.627887E+05 -5.727913E+04 -6.118461E+05  8.119538E-10  1.946511E-11
       116  16 -1.919194E+06 -4.107103E+05 -1.144025E+05 -7.331185E+05 -1.092758E-10 -9.021214E-10
       116  17 -1.997911E+06 -4.308381E+05 -1.444455E+05 -7.438769E+05 -8.605480E-10 -2.936306E-10
       116  18 -2.063598E+06 -4.797645E+05 -1.892989E+05 -7.742483E+05 -9.502456E-11  2.527696E-10
       116  19 -1.051139E+06 -9.387329E+04  8.132958E+04 -4.983323E+05 -2.743424E+04  2.058121E+04
       116  20 -9.871409E+05 -5.567094E+04  8.448280E+04 -4.640129E+05 -4.309855E+04  1.995059E+04
       116  21 -9.096327E+05 -4.578213E+04  7.472659E+04 -4.493041E+05 -5.834962E+04  1.820682E+04
       116  22 -1.485261E+06 -2.522980E+05 -1.652966E+04 -6.157630E+05 -2.187671E+04  2.266737E+04
       116  23 -1.492655E+06 -2.432644E+05 -2.997173E+04 -6.039978E+05 -3.872646E+04  2.159379E+04
       116  24 -1.486783E+06 -2.627875E+05 -5.727270E+04 -6.118470E+05 -5.516100E+04  1.940741E+04
       116  25 -1.919194E+06 -4.107096E+05 -1.144009E+05 -7.331188E+05 -1.632339E+04  2.475198E+04
       116  26 -1.997910E+06 -4.308372E+05 -1.444423E+05 -7.438776E+05 -3.435824E+04  2.323553E+04
       116  27 -2.063595E+06 -4.797633E+05 -1.892930E+05 -7.742492E+05 -5.197561E+04  2.060675E+04
       117   1 -8.388195E+05 -3.306603E+04  7.057748E+04 -4.733423E+05  7.484036E+04 -1.684291E+04
       117   2 -8.064339E+05  4.158768E+04  3.252733E+04 -3.629612E+05  1.204370E+05  3.420444E+03
       117   3 -8.363121E+05 -9.788174E+04 -9.406703E+04 -2.216531E+05  1.575973E+05  4.614530E+04
       117   4 -1.496252E+06 -2.457440E+05 -7.337555E+04 -6.229200E+05  6.565291E+04 -2.029339E+04
       117   5 -1.479305E+06 -2.531552E+05 -1.330245E+05 -5.944877E+05  1.353700E+05  9.018577E+03
       117   6 -1.529517E+06 -4.796466E+05 -3.004372E+05 -5.351131E+05  1.966408E+05  6.078840E+04
       117   7 -2.153255E+06 -4.584147E+05 -2.173555E+05 -7.723647E+05  5.647593E+04 -2.374109E+04
       117   8 -2.151714E+06 -5.478105E+05 -2.986084E+05 -8.257657E+05  1.502854E+05  1.460733E+04
       117   9 -2.222201E+06 -8.611825E+05 -5.068411E+05 -8.481958E+05  2.356359E+05  7.539414E+04
       117  10 -8.388256E+05 -3.306784E+04  7.056642E+04 -4.733413E+05 -2.947930E-10  7.578636E-11
       117  11 -8.064495E+05  4.158377E+04  3.250002E+04 -3.629615E+05 -1.052387E-09  9.560513E-10
       117  12 -8.363394E+05 -9.789070E+04 -9.411778E+04 -2.216589E+05  2.600107E-10  5.831703E-10
       117  13 -1.496256E+06 -2.457456E+05 -7.338444E+04 -6.229189E+05 -1.694386E-10  3.294423E-10
       117  14 -1.479325E+06 -2.531602E+05 -1.330592E+05 -5.944887E+05 -7.270837E-10  4.739751E-10
       117  15 -1.529560E+06 -4.796610E+05 -3.005170E+05 -5.351227E+05  1.310728E-09 -1.483528E-11
       117  16 -2.153259E+06 -4.584162E+05 -2.173626E+05 -7.723636E+05 -3.540958E-10  5.191056E-10
       117  17 -2.151738E+06 -5.478168E+05 -2.986514E+05 -8.257674E+05 -3.039068E-10  4.091628E-10
       117  18 -2.222263E+06 -8.612037E+05 -5.069566E+05 -8.482101E+05 -5.571573E-10 -7.961976E-11
       117  19 -8.388195E+05 -3.306603E+04  7.057748E+04 -4.733423E+05 -7.484036E+04  1.684291E+04
       117  20 -8.064339E+05  4.158768E+04  3.252733E+04 -3.629612E+05 -1.204370E+05 -3.420444E+03
       117  21 -8.363121E+05 -9.788174E+04 -9.406703E+04 -2.216531E+05 -1.575973E+05 -4.614530E+04
       117  22 -1.496252E+06 -2.457440E+05 -7.337555E+04 -6.229200E+05 -6.565291E+04  2.029339E+04
       117  23 -1.479305E+06 -2.531552E+05 -1.330245E+05 -5.944877E+05 -1.353700E+05 -9.018577E+03
       117  24 -1.529517E+06 -4.796466E+05 -3.004372E+05 -5.351131E+05 -1.966408E+05 -6.078840E+04
       117  25 -2.153255E+06 -4.584147E+05 -2.173555E+05 -7.723647E+05 -5.647593E+04  2.374109E+04
       117  26 -2.151714E+06 -5.478105E+05 -2.986084E+05 -8.257657E+05 -1.502854E+05 -1.460733E+04
       117  27 -2.222201E+06 -8.611825E+05 -5.068411E+05 -8.481958E+05 -2.356359E+05 -7.539414E+04
       118   1 -3.758722E+05 -5.653078E+04 -3.578898E+04  9.529359E+03  4.521048E+04  8.378941E+03
       118   2 -3.309226E+05 -1.264560E+05 -6.639534E+04 -1.288048E+04  3.671066E+04  2.681838E+04
       118   3 -2.663931E+05 -1.228784E+05 -7.307439E+04 -5.245919E+04  2.821922E+04  2.939286E+04
       118   4  2.305528E+05  9.376023E+04  1.095550E+05 -4.068050E+04  7.563470E+04  8.391187E+03
       118   5  2.192014E+05  7.045788E+03  5.103951E+04 -3.207735E+04  4.884586E+04  2.682033E+04
       118   6  2.305810E+05 -3.029992E+03  2.913373E+04 -4.064085E+04  2.206711E+04  2.939002E+04
       118   7  8.373222E+05  2.440346E+05  2.548778E+05 -9.093967E+04  1.060885E+05  8.398507E+03
       118   8  7.696116E+05  1.405293E+05  1.684576E+05 -5.129150E+04  6.099164E+04  2.682153E+04
       118   9  7.277898E+05  1.168034E+05  1.313288E+05 -2.881290E+04  1.591015E+04  2.938695E+04
       118  10 -3.758744E+05 -5.653141E+04 -3.579295E+04  9.529053E+03 -5.002773E-10  2.250071E-11
       118  11 -3.309242E+05 -1.264572E+05 -6.639922E+04 -1.288128E+04  1.477931E-10 -3.998772E-10
       118  12 -2.663942E+05 -1.228795E+05 -7.307752E+04 -5.245985E+04  1.113359E-09  3.370044E-10
       118  13  2.305466E+05  9.375861E+04  1.095441E+05 -4.068101E+04  1.159453E-09 -1.912310E-11
       118  14  2.191987E+05  7.044375E+03  5.103368E+04 -3.207840E+04  1.979190E-09 -7.075615E-10
       118  15  2.305802E+05 -3.031051E+03  2.913119E+04 -4.064137E+04  5.216690E-10  1.470076E-10
       118  16  8.373101E+05  2.440315E+05  2.548565E+05 -9.094039E+04 -6.148786E-10 -9.008033E-11
       118  17  7.696074E+05  1.405276E+05  1.684493E+05 -5.129281E+04 -1.507688E-09 -1.763491E-10
       118  18  7.277893E+05  1.168024E+05  1.313267E+05 -2.881327E+04 -1.177183E-09 -2.558711E-10
       118  19 -3.758722E+05 -5.653078E+04 -3.578898E+04  9.529359E+03 -4.521048E+04 -8.378941E+03
       118  20 -3.309226E+05 -1.264560E+05 -6.639534E+04 -1.288048E+04 -3.671066E+04 -2.681838E+04
       118  21 -2.663931E+05 -1.228784E+05 -7.307439E+04 -5.245919E+04 -2.821922E+04 -2.939286E+04
       118  22  2.305528E+05  9.376023E+04  1.095550E+05 -4.068050E+04 -7.563470E+04 -8.391187E+03
       118  23  2.192014E+05  7.045788E+03  5.103951E+04 -3.207735E+04 -4.884586E+04 -2.682033E+04
       118  24  2.305810E+05 -3.029992E+03  2.913373E+04 -4.064085E+04 -2.206711E+04 -2.939002E+04
       118  25  8.373222E+05  2.440346E+05  2.548778E+05 -9.093967E+04 -1.060885E+05 -8.398507E+03
       118  26  7.696116E+05  1.405293E+05  1.684576E+05 -5.129150E+04 -6.099164E+04 -2.682153E+04
       118  27  7.277898E+05  1.168034E+05  1.313288E+05 -2.881290E+04 -1.591015E+04 -2.938695E+04
       119   1 -2.307876E+05 -1.064069E+05 -7.140846E+04 -3.963858E+04  2.033607E+04  2.662973E+04
       119   2 -1.770947E+05 -9.685918E+04 -6.982008E+04 -3.167016E+04  1.504581E+04  2.426016E+04
       119   3 -1.218433E+05 -8.401393E+04 -6.395173E+04 -4.161501E+04  9.754070E+03  2.105655E+04
       119   4  2.259188E+05  3.777631E+03  2.279943E+04 -4.081593E+04  1.809740E+04  2.662777E+04
       119   5  2.250649E+05  4.083723E+01  1.252368E+04 -3.185958E+04  1.184235E+04  2.425868E+04
       119   6  2.259335E+05 -2.321282E+02  7.195480E+03 -4.081572E+04  5.586285E+03  2.105579E+04
       119   7  6.828230E+05  1.139490E+05  1.169961E+05 -4.199416E+04  1.585710E+04  2.662582E+04
       119   8  6.273781E+05  9.693071E+04  9.485890E+04 -3.204912E+04  8.636842E+03  2.425720E+04
       119   9  5.738252E+05  8.354210E+04  7.833634E+04 -4.001597E+04  1.416207E+03  2.105502E+04
       119  10 -2.307882E+05 -1.064078E+05 -7.141057E+04 -3.963902E+04  8.391505E-10 -3.108625E-11
       119  11 -1.770951E+05 -9.685987E+04 -6.982161E+04 -3.167045E+04 -8.073615E-10 -7.087084E-10
       119  12 -1.218435E+05 -8.401443E+04 -6.395274E+04 -4.161518E+04 -3.221586E-10 -4.949661E-10
       119  13  2.259183E+05  3.776781E+03  2.279748E+04 -4.081631E+04  4.372057E-11  1.313400E-11
       119  14  2.250646E+05  4.016759E+01  1.252231E+04 -3.185981E+04 -1.634414E-09 -3.725271E-10
       119  15  2.259333E+05 -2.326127E+02  7.194588E+03 -4.081581E+04 -5.675736E-10 -2.753653E-10
       119  16  6.828226E+05  1.139482E+05  1.169943E+05 -4.199450E+04 -7.179270E-10  8.383130E-11
       119  17  6.273779E+05  9.693006E+04  9.485765E+04 -3.204929E+04  4.445718E-11 -8.446810E-12
       119  18  5.738251E+05  8.354162E+04  7.833551E+04 -4.001599E+04 -5.537625E-10 -9.927537E-11
       119  19 -2.307876E+05 -1.064069E+05 -7.140846E+04 -3.963858E+04 -2.033607E+04 -2.662973E+04
       119  20 -1.770947E+05 -9.685918E+04 -6.982008E+04 -3.167016E+04 -1.504581E+04 -2.426016E+04
       119  21 -1.218433E+05 -8.401393E+04 -6.395173E+04 -4.161501E+04 -9.754070E+03 -2.105655E+04
       119  22  2.259188E+05  3.777631E+03  2.279943E+04 -4.081593E+04 -1.809740E+04 -2.662777E+04
       119  23  2.250649E+05  4.083723E+01  1.252368E+04 -3.185958E+04 -1.184235E+04 -2.425868E+04
       119  24  2.259335E+05 -2.321282E+02  7.195480E+03 -4.081572E+04 -5.586285E+03 -2.105579E+04
       119  25  6.828230E+05  1.139490E+05  1.169961E+05 -4.199416E+04 -1.585710E+04 -2.662582E+04
       119  26  6.273781E+05  9.693071E+04  9.485890E+04 -3.204912E+04 -8.636842E+03 -2.425720E+04
       119  27  5.738252E+05  8.354210E+04  7.833634E+04 -4.001597E+04 -1.416207E+03 -2.105502E+04
       120   1 -8.242672E+04 -7.409259E+04 -5.728991E+04 -4.100164E+04  8.426829E+03  1.896866E+04
       120   2 -2.815724E+04 -6.114071E+04 -4.864291E+04 -3.197990E+04  6.927795E+03  1.550804E+04
       120   3  2.636225E+04 -4.802809E+04 -3.897681E+04 -4.089367E+04  5.427696E+03  1.200467E+04
       120   4  2.256128E+05  6.664153E+01  5.487366E+03 -4.082083E+04  4.466553E+03  1.896827E+04
       120   5  2.254898E+05 -6.171736E+01  3.130485E+03 -3.185332E+04  2.917364E+03  1.550814E+04
       120   6  2.256216E+05 -2.081442E+01  1.826866E+03 -4.082088E+04  1.367237E+03  1.200527E+04
       120   7  5.337426E+05  7.421995E+04  6.825972E+04 -4.063993E+04  5.043480E+02  1.896788E+04
       120   8  4.791980E+05  6.101325E+04  5.490054E+04 -3.172669E+04 -1.094675E+03  1.550824E+04
       120   9  4.249187E+05  4.798397E+04  4.262850E+04 -4.074807E+04 -2.694501E+03  1.200587E+04
       120  10 -8.242689E+04 -7.409299E+04 -5.729072E+04 -4.100176E+04 -6.409744E-11  1.331411E-10
       120  11 -2.815735E+04 -6.114098E+04 -4.864345E+04 -3.197999E+04  1.597294E-09  5.733493E-10
       120  12  2.636218E+04 -4.802825E+04 -3.897714E+04 -4.089372E+04  1.056219E-09  2.439499E-10
       120  13  2.256127E+05  6.624977E+01  5.486653E+03 -4.082090E+04 -2.169122E-09  1.307324E-10
       120  14  2.254897E+05 -6.197793E+01  3.130017E+03 -3.185336E+04  5.417349E-11  4.405890E-10
       120  15  2.256216E+05 -2.096971E+01  1.826592E+03 -4.082089E+04 -8.433042E-10  1.052621E-10
       120  16  5.337425E+05  7.421956E+04  6.825904E+04 -4.063993E+04 -1.022366E-09  1.918888E-11
       120  17  4.791979E+05  6.101300E+04  5.490009E+04 -3.172668E+04 -1.978522E-09  3.565027E-10
       120  18  4.249187E+05  4.798382E+04  4.262821E+04 -4.074804E+04 -1.652461E-09  2.194003E-10
       120  19 -8.242672E+04 -7.409259E+04 -5.728991E+04 -4.100164E+04 -8.426829E+03 -1.896866E+04
       120  20 -2.815724E+04 -6.114071E+04 -4.864291E+04 -3.197990E+04 -6.927795E+03 -1.550804E+04
       120  21  2.636225E+04 -4.802809E+04 -3.897681E+04 -4.089367E+04 -5.427696E+03 -1.200467E+04
       120  22  2.256128E+05  6.664153E+01  5.487366E+03 -4.082083E+04 -4.466553E+03 -1.896827E+04
       120  23  2.254898E+05 -6.171736E+01  3.130485E+03 -3.185332E+04 -2.917364E+03 -1.550814E+04
       120  24  2.256216E+05 -2.081442E+01  1.826866E+03 -4.082088E+04 -1.367237E+03 -1.200527E+04
       120  25  5.337426E+05  7.421995E+04  6.825972E+04 -4.063993E+04 -5.043480E+02 -1.896788E+04
       120  26  4.791980E+05  6.101325E+04  5.490054E+04 -3.172669E+04  1.094675E+03 -1.550824E+04
       120  27  4.249187E+05  4.798397E+04  4.262850E+04 -4.074807E+04  2.694501E+03 -1.200587E+04
       121   1  6.599520E+04 -3.840412E+04 -3.101554E+04 -4.086013E+04  5.122982E+03  9.954528E+03
       121   2  1.203260E+05 -2.534236E+04 -2.060526E+04 -3.187868E+04  4.696454E+03  6.439331E+03
       121   3  1.747130E+05 -1.226370E+04 -9.914906E+03 -4.081965E+04  4.269507E+03  2.922437E+03
       121   4  2.255799E+05 -7.628960E+00  1.407420E+03 -4.081802E+04  1.074137E+03  9.955340E+03
       121   5  2.255549E+05 -6.255395E+00  8.664537E+02 -3.185691E+04  6.453907E+02  6.440343E+03
       121   6  2.255835E+05  1.254269E+01  6.070574E+02 -4.081803E+04  2.162622E+02  2.923659E+03
       121   7  3.851889E+05  3.838729E+04  3.382911E+04 -4.077591E+04 -2.975730E+03  9.956151E+03
       121   8  3.307943E+05  2.532917E+04  2.233764E+04 -3.183514E+04 -3.406347E+03  6.441354E+03
       121   9  2.764566E+05  1.228863E+04  1.112894E+04 -4.081641E+04 -3.837309E+03  2.924880E+03
       121  10  6.599514E+04 -3.840424E+04 -3.101577E+04 -4.086017E+04  1.350023E-09 -3.640156E-10
       121  11  1.203260E+05 -2.534241E+04 -2.060538E+04 -3.187871E+04  9.918305E-10 -3.961140E-10
       121  12  1.747129E+05 -1.226371E+04 -9.914957E+03 -4.081966E+04  8.639762E-10  4.093618E-10
       121  13  2.255799E+05 -7.735707E+00  1.407231E+03 -4.081803E+04 -1.186968E-09 -2.088294E-10
       121  14  2.255549E+05 -6.300052E+00  8.663750E+02 -3.185692E+04  6.113023E-10 -6.907407E-10
       121  15  2.255835E+05  1.253350E+01  6.070412E+02 -4.081803E+04  1.173450E-09  1.962988E-10
       121  16  3.851889E+05  3.838718E+04  3.382890E+04 -4.077588E+04 -1.230790E-09 -7.011127E-10
       121  17  3.307943E+05  2.532912E+04  2.233754E+04 -3.183512E+04 -2.191563E-09 -6.475197E-10
       121  18  2.764566E+05  1.228861E+04  1.112890E+04 -4.081640E+04 -3.393587E-10  2.094196E-10
       121  19  6.599520E+04 -3.840412E+04 -3.101554E+04 -4.086013E+04 -5.122982E+03 -9.954528E+03
       121  20  1.203260E+05 -2.534236E+04 -2.060526E+04 -3.187868E+04 -4.696454E+03 -6.439331E+03
       121  21  1.747130E+05 -1.226370E+04 -9.914906E+03 -4.081965E+04 -4.269507E+03 -2.922437E+03
       121  22  2.255799E+05 -7.628960E+00  1.407420E+03 -4.081802E+04 -1.074137E+03 -9.955340E+03
       121  23  2.255549E+05 -6.255395E+00  8.664537E+02 -3.185691E+04 -6.453907E+02 -6.440343E+03
       121  24  2.255835E+05  1.254269E+01  6.070574E+02 -4.081803E+04 -2.162622E+02 -2.923659E+03
       121  25  3.851889E+05  3.838729E+04  3.382911E+04 -4.077591E+04  2.975730E+03 -9.956151E+03
       121  26  3.307943E+05  2.532917E+04  2.233764E+04 -3.183514E+04  3.406347E+03 -6.441354E+03
       121  27  2.764566E+05  1.228863E+04  1.112894E+04 -4.081641E+04  3.837309E+03 -2.924880E+03
       122   1  2.143694E+05 -2.657297E+03 -1.593422E+03 -4.082387E+04  4.163501E+03  8.751222E+02
       122   2  2.687098E+05  1.039129E+04  9.368088E+03 -3.185570E+04  3.881748E+03 -2.641252E+03
       122   3  3.230827E+05  2.345314E+04  2.051337E+04 -4.080749E+04  3.600132E+03 -6.155900E+03
       122   4  2.255788E+05  1.288740E+01  5.508890E+02 -4.081754E+04  1.103310E+02  8.763806E+02
       122   5  2.255630E+05  3.623544E+00  5.644707E+02 -3.185752E+04 -1.695549E+02 -2.640083E+03
       122   6  2.255774E+05  7.667875E+00  7.607887E+02 -4.081754E+04 -4.492797E+02 -6.154811E+03
       122   7  2.367884E+05  2.683074E+03  2.695256E+03 -4.081121E+04 -3.942910E+03  8.776390E+02
       122   8  1.824180E+05 -1.038415E+04 -8.239183E+03 -3.185934E+04 -4.220581E+03 -2.638914E+03
       122   9  1.280811E+05 -2.343838E+04 -1.899222E+04 -4.082759E+04 -4.498067E+03 -6.153721E+03
       122  10  2.143694E+05 -2.657303E+03 -1.593456E+03 -4.082388E+04  2.121320E-08  1.131715E-09
       122  11  2.687098E+05  1.039128E+04  9.368047E+03 -3.185569E+04 -8.497005E-10  1.563151E-09
       122  12  3.230827E+05  2.345309E+04  2.051327E+04 -4.080748E+04 -2.157820E-08  4.441841E-10
       122  13  2.255788E+05  1.288657E+01  5.508876E+02 -4.081754E+04  9.725621E-10  1.652674E-09
       122  14  2.255630E+05  3.616051E+00  5.644576E+02 -3.185752E+04  1.018964E-09  2.143583E-09
       122  15  2.255774E+05  7.627138E+00  7.607171E+02 -4.081754E+04 -9.266460E-11  1.269535E-10
       122  16  2.367884E+05  2.683069E+03  2.695225E+03 -4.081121E+04 -2.093449E-08  1.556604E-09
       122  17  1.824180E+05 -1.038416E+04 -8.239229E+03 -3.185935E+04  1.698611E-09  2.311158E-09
       122  18  1.280810E+05 -2.343843E+04 -1.899233E+04 -4.082761E+04  2.213633E-08  4.511666E-10
       122  19  2.143694E+05 -2.657297E+03 -1.593422E+03 -4.082387E+04 -4.163501E+03 -8.751222E+02
       122  20  2.687098E+05  1.039129E+04  9.368088E+03 -3.185570E+04 -3.881748E+03  2.641252E+03
       122  21  3.230827E+05  2.345314E+04  2.051337E+04 -4.080749E+04 -3.600132E+03  6.155900E+03
       122  22  2.255788E+05  1.288740E+01  5.508890E+02 -4.081754E+04 -1.103310E+02 -8.763806E+02
       122  23  2.255630E+05  3.623544E+00  5.644707E+02 -3.185752E+04  1.695549E+02  2.640083E+03
       122  24  2.255774E+05  7.667875E+00  7.607887E+02 -4.081754E+04  4.492797E+02  6.154811E+03
       122  25  2.367884E+05  2.683074E+03  2.695256E+03 -4.081121E+04  3.942910E+03 -8.776390E+02
       122  26  1.824180E+05 -1.038415E+04 -8.239183E+03 -3.185934E+04  4.220581E+03  2.638914E+03
       122  27  1.280811E+05 -2.343838E+04 -1.899222E+04 -4.082759E+04  4.498067E+03  6.153721E+03
       123   1  3.627773E+05  3.305400E+04  2.907219E+04 -4.079891E+04  3.455924E+03 -8.205000E+03
       123   2  4.170996E+05  4.609457E+04  4.063232E+04 -3.181312E+04  2.648914E+03 -1.170806E+04
       123   3  4.715556E+05  5.922803E+04  5.274083E+04 -4.075219E+04  1.842519E+03 -1.517239E+04
       123   4  2.255959E+05  8.233988E-01  9.414302E+02 -4.081869E+04 -6.039918E+02 -8.204047E+03
       123   5  2.255314E+05 -2.362709E+01  1.538623E+03 -3.185608E+04 -1.366346E+03 -1.170749E+04
       123   6  2.255893E+05  3.705717E+01  2.653146E+03 -4.081866E+04 -2.128016E+03 -1.517219E+04
       123   7  8.843233E+04 -3.305353E+04 -2.719027E+04 -4.083847E+04 -4.663027E+03 -8.203093E+03
       123   8  3.399813E+04 -4.614411E+04 -3.755695E+04 -3.189902E+04 -5.380391E+03 -1.170692E+04
       123   9 -2.031952E+04 -5.915769E+04 -4.743765E+04 -4.088511E+04 -6.097008E+03 -1.517200E+04
       123  10  3.627773E+05  3.305392E+04  2.907204E+04 -4.079889E+04 -1.832607E-09 -1.647006E-10
       123  11  4.170996E+05  4.609442E+04  4.063205E+04 -3.181309E+04  1.048806E-09 -9.328229E-10
       123  12  4.715555E+05  5.922778E+04  5.274039E+04 -4.075216E+04 -4.249119E-10 -8.713177E-10
       123  13  2.255958E+05  7.510175E-01  9.413030E+02 -4.081869E+04 -2.105985E-09 -7.462089E-10
       123  14  2.255314E+05 -2.377479E+01  1.538362E+03 -3.185609E+04  6.783858E-10 -1.281685E-09
       123  15  2.255892E+05  3.680874E+01  2.652705E+03 -4.081869E+04  6.080855E-10 -5.539335E-10
       123  16  8.843228E+04 -3.305360E+04 -2.719044E+04 -4.083850E+04  1.984855E-09 -5.233861E-10
       123  17  3.399806E+04 -4.614426E+04 -3.755726E+04 -3.189908E+04  2.278803E-10 -1.375453E-09
       123  18 -2.031962E+04 -5.915794E+04 -4.743815E+04 -4.088519E+04  4.365540E-10 -3.987349E-10
       123  19  3.627773E+05  3.305400E+04  2.907219E+04 -4.079891E+04 -3.455924E+03  8.205000E+03
       123  20  4.170996E+05  4.609457E+04  4.063232E+04 -3.181312E+04 -2.648914E+03  1.170806E+04
       123  21  4.715556E+05  5.922803E+04  5.274083E+04 -4.075219E+04 -1.842519E+03  1.517239E+04
       123  22  2.255959E+05  8.233988E-01  9.414302E+02 -4.081869E+04  6.039918E+02  8.204047E+03
       123  23  2.255314E+05 -2.362709E+01  1.538623E+03 -3.185608E+04  1.366346E+03  1.170749E+04
       123  24  2.255893E+05  3.705717E+01  2.653146E+03 -4.081866E+04  2.128016E+03  1.517219E+04
       123  25  8.843233E+04 -3.305353E+04 -2.719027E+04 -4.083847E+04  4.663027E+03  8.203093E+03
       123  26  3.399813E+04 -4.614411E+04 -3.755695E+04 -3.189902E+04  5.380391E+03  1.170692E+04
       123  27 -2.031952E+04 -5.915769E+04 -4.743765E+04 -4.088511E+04  6.097008E+03  1.517200E+04
       124   1  5.114446E+05  6.869888E+04  6.192140E+04 -4.045325E+04  1.489050E+03 -1.725477E+04
       124   2  5.654120E+05  8.192613E+04  7.563327E+04 -3.196784E+04 -2.382774E+03 -2.048632E+04
       124   3  6.203666E+05  9.696735E+04  9.232360E+04 -4.138978E+04 -6.253881E+03 -2.296687E+04
       124   4  2.257431E+05 -1.077174E+02  3.467581E+03 -4.081483E+04 -2.668705E+03 -1.725486E+04
       124   5  2.253198E+05  1.506534E+01  6.014342E+03 -3.186082E+04 -5.673354E+03 -2.048710E+04
       124   6  2.257310E+05  1.802165E+03  1.093881E+04 -4.081473E+04 -8.676956E+03 -2.296814E+04
       124   7 -5.988083E+04 -6.891942E+04 -5.499050E+04 -4.117623E+04 -6.824583E+03 -1.725495E+04
       124   8 -1.146626E+05 -8.190325E+04 -6.361068E+04 -3.175386E+04 -8.962166E+03 -2.048788E+04
       124   9 -1.687569E+05 -9.337284E+04 -7.045436E+04 -4.024005E+04 -1.109852E+04 -2.296942E+04
       124  10  5.114445E+05  6.869856E+04  6.192084E+04 -4.045323E+04  5.392590E-10 -4.386934E-10
       124  11  5.654119E+05  8.192568E+04  7.563247E+04 -3.196788E+04 -2.726708E-09  5.541491E-10
       124  12  6.203664E+05  9.696677E+04  9.232253E+04 -4.138990E+04 -1.095454E-09  1.589614E-10
       124  13  2.257430E+05 -1.080391E+02  3.467008E+03 -4.081487E+04 -2.235964E-11 -1.631143E-10
       124  14  2.253197E+05  1.460594E+01  6.013492E+03 -3.186092E+04 -5.025684E-10  2.226818E-10
       124  15  2.257308E+05  1.801578E+03  1.093767E+04 -4.081489E+04 -1.196287E-09  2.035562E-10
       124  16 -5.988096E+04 -6.891976E+04 -5.499115E+04 -4.117632E+04  3.501001E-10  2.501665E-11
       124  17 -1.146628E+05 -8.190372E+04 -6.361162E+04 -3.175401E+04 -8.793001E-10 -6.757499E-11
       124  18 -1.687571E+05 -9.337344E+04 -7.045558E+04 -4.024025E+04 -2.342850E-10  3.518048E-10
       124  19  5.114446E+05  6.869888E+04  6.192140E+04 -4.045325E+04 -1.489050E+03  1.725477E+04
       124  20  5.654120E+05  8.192613E+04  7.563327E+04 -3.196784E+04  2.382774E+03  2.048632E+04
       124  21  6.203666E+05  9.696735E+04  9.232360E+04 -4.138978E+04  6.253881E+03  2.296687E+04
       124  22  2.257431E+05 -1.077174E+02  3.467581E+03 -4.081483E+04  2.668705E+03  1.725486E+04
       124  23  2.253198E+05  1.506534E+01  6.014342E+03 -3.186082E+04  5.673354E+03  2.048710E+04
       124  24  2.257310E+05  1.802165E+03  1.093881E+04 -4.081473E+04  8.676956E+03  2.296814E+04
       124  25 -5.988083E+04 -6.891942E+04 -5.499050E+04 -4.117623E+04  6.824583E+03  1.725495E+04
       124  26 -1.146626E+05 -8.190325E+04 -6.361068E+04 -3.175386E+04  8.962166E+03  2.048788E+04
       124  27 -1.687569E+05 -9.337284E+04 -7.045436E+04 -4.024005E+04  1.109852E+04  2.296942E+04
       125   1  6.628333E+05  1.033472E+05  1.033939E+05 -3.498794E+04 -4.630564E+03 -2.565549E+04
       125   2  7.106318E+05  1.217675E+05  1.286822E+05 -4.125616E+04 -3.394456E+04 -2.368611E+04
       125   3  7.722095E+05  1.797975E+05  1.829575E+05 -6.474167E+04 -6.326791E+04 -7.437213E+03
       125   4  2.279681E+05 -1.466374E+03  1.397571E+04 -4.065821E+04 -1.058168E+04 -2.565754E+04
       125   5  2.224930E+05  3.357003E+03  2.447433E+04 -3.205603E+04 -2.342224E+04 -2.368535E+04
       125   6  2.279469E+05  4.494829E+04  5.253671E+04 -4.067043E+04 -3.626922E+04 -7.429966E+03
       125   7 -2.067177E+05 -1.062917E+05 -7.545250E+04 -4.632444E+04 -1.652871E+04 -2.565949E+04
       125   8 -2.654212E+05 -1.150686E+05 -7.974685E+04 -2.286323E+04 -1.290807E+04 -2.368428E+04
       125   9 -3.160419E+05 -8.991987E+04 -7.790198E+04 -1.662036E+04 -9.294072E+03 -7.420625E+03
       125  10  6.628331E+05  1.033465E+05  1.033927E+05 -3.498804E+04 -9.425265E-11 -3.232562E-10
       125  11  7.106304E+05  1.217666E+05  1.286790E+05 -4.125681E+04  1.420219E-09 -4.520722E-10
       125  12  7.722052E+05  1.797964E+05  1.829499E+05 -6.474205E+04 -2.714304E-10  1.471723E-11
       125  13  2.279678E+05 -1.467111E+03  1.397427E+04 -4.065843E+04 -1.208493E-09 -4.125975E-10
       125  14  2.224923E+05  3.356254E+03  2.447224E+04 -3.205647E+04 -1.119569E-09 -5.318150E-10
       125  15  2.279454E+05  4.494788E+04  5.253414E+04 -4.067064E+04  2.694832E-09 -3.908884E-10
       125  16 -2.067182E+05 -1.062925E+05 -7.545425E+04 -4.632479E+04 -1.654812E-09  4.677344E-11
       125  17 -2.654216E+05 -1.150693E+05 -7.974822E+04 -2.286348E+04 -1.506454E-09 -8.228549E-10
       125  18 -3.160420E+05 -8.991995E+04 -7.790224E+04 -1.662042E+04 -6.843204E-11  3.617586E-11
       125  19  6.628333E+05  1.033472E+05  1.033939E+05 -3.498794E+04  4.630564E+03  2.565549E+04
       125  20  7.106318E+05  1.217675E+05  1.286822E+05 -4.125616E+04  3.394456E+04  2.368611E+04
       125  21  7.722095E+05  1.797975E+05  1.829575E+05 -6.474167E+04  6.326791E+04  7.437213E+03
       125  22  2.279681E+05 -1.466374E+03  1.397571E+04 -4.065821E+04  1.058168E+04  2.565754E+04
       125  23  2.224930E+05  3.357003E+03  2.447433E+04 -3.205603E+04  2.342224E+04  2.368535E+04
       125  24  2.279469E+05  4.494829E+04  5.253671E+04 -4.067043E+04  3.626922E+04  7.429966E+03
       125  25 -2.067177E+05 -1.062917E+05 -7.545250E+04 -4.632444E+04  1.652871E+04  2.565949E+04
       125  26 -2.654212E+05 -1.150686E+05 -7.974685E+04 -2.286323E+04  1.290807E+04  2.368428E+04
       125  27 -3.160419E+05 -8.991987E+04 -7.790198E+04 -1.662036E+04  9.294072E+03  7.420625E+03
       126   1  5.477486E+05  2.022653E+06  5.457948E+05 -3.834096E+05  2.238725E+04  1.363479E+05
       126   2  3.593132E+05  1.549554E+06  3.542198E+05 -2.855248E+05  6.606171E+04  5.436965E+04
       126   3  2.404427E+05  1.104717E+06  2.332967E+05 -3.357931E+05  5.708418E+04 -2.759732E+04
       126   4  7.175934E+04  1.031544E+05  8.344098E+04 -3.429746E+05  2.250989E+04  5.556105E+04
       126   5  5.784612E+03  9.456303E+04  4.044038E+04 -2.689515E+05  6.610800E+04  3.446245E+04
       126   6 -1.069425E+03  1.035682E+05  2.596833E+04 -3.430842E+05  5.700468E+04  1.331276E+04
       126   7 -4.044891E+05 -1.812964E+06 -3.791505E+05 -3.026627E+05  2.262228E+04 -2.497779E+04
       126   8 -3.478821E+05 -1.358441E+06 -2.734622E+05 -2.524162E+05  6.615331E+04  1.460110E+04
       126   9 -2.426440E+05 -8.966280E+05 -1.814082E+05 -3.503625E+05  5.692415E+04  5.415808E+04
       126  10  5.477431E+05  2.022633E+06  5.457590E+05 -3.834121E+05  2.525541E-10  1.798731E-09
       126  11  3.593077E+05  1.549549E+06  3.542061E+05 -2.855277E+05  3.263289E-10 -2.461303E-09
       126  12  2.404390E+05  1.104715E+06  2.332891E+05 -3.357918E+05  3.510061E-10 -3.942624E-09
       126  13  7.175797E+04  1.031510E+05  8.343423E+04 -3.429756E+05 -1.647385E-09 -3.645347E-12
       126  14  5.779599E+03  9.456058E+04  4.042993E+04 -2.689533E+05  1.669313E-10  7.228039E-10
       126  15 -1.072963E+03  1.035672E+05  2.596189E+04 -3.430848E+05  5.388868E-10 -1.254897E-10
       126  16 -4.044898E+05 -1.812965E+06 -3.791526E+05 -3.026622E+05  1.673451E-09 -2.520836E-09
       126  17 -3.478869E+05 -1.358443E+06 -2.734709E+05 -2.524170E+05  1.376719E-09 -3.343714E-10
       126  18 -2.426482E+05 -8.966320E+05 -1.814198E+05 -3.503650E+05  1.503347E-10  3.433096E-09
       126  19  5.477486E+05  2.022653E+06  5.457948E+05 -3.834096E+05 -2.238725E+04 -1.363479E+05
       126  20  3.593132E+05  1.549554E+06  3.542198E+05 -2.855248E+05 -6.606171E+04 -5.436965E+04
       126  21  2.404427E+05  1.104717E+06  2.332967E+05 -3.357931E+05 -5.708418E+04  2.759732E+04
       126  22  7.175934E+04  1.031544E+05  8.344098E+04 -3.429746E+05 -2.250989E+04 -5.556105E+04
       126  23  5.784612E+03  9.456303E+04  4.044038E+04 -2.689515E+05 -6.610800E+04 -3.446245E+04
       126  24 -1.069425E+03  1.035682E+05  2.596833E+04 -3.430842E+05 -5.700468E+04 -1.331276E+04
       126  25 -4.044891E+05 -1.812964E+06 -3.791505E+05 -3.026627E+05 -2.262228E+04  2.497779E+04
       126  26 -3.478821E+05 -1.358441E+06 -2.734622E+05 -2.524162E+05 -6.615331E+04 -1.460110E+04
       126  27 -2.426440E+05 -8.966280E+05 -1.814082E+05 -3.503625E+05 -5.692415E+04 -5.415808E+04
       127   1  1.645251E+05  7.650195E+05  1.606284E+05 -3.462111E+05  3.736380E+04 -1.896979E+04
       127   2  5.093534E+04  3.056571E+05  6.113516E+04 -2.685731E+05  1.246096E+04 -2.905780E+04
       127   3 -5.677615E+04 -1.513334E+05 -3.049748E+04 -3.416873E+05 -1.299202E+04 -3.914525E+04
       127   4  4.001559E+03  1.002328E+05  2.250769E+04 -3.436383E+05  3.730274E+04  9.442687E+03
       127   5  1.199509E+03  9.923045E+04  1.883643E+04 -2.682614E+05  1.239593E+04 -1.475374E+01
       127   6  4.179565E+03  1.002917E+05  2.259637E+04 -3.436382E+05 -1.306171E+04 -9.478781E+03
       127   7 -1.565496E+05 -5.641340E+05 -1.156342E+05 -3.410681E+05  3.724187E+04  3.782528E+04
       127   8 -4.853855E+04 -1.071539E+05 -2.346140E+04 -2.679498E+05  1.233091E+04  2.901881E+04
       127   9  6.513168E+04  3.519784E+05  7.568996E+04 -3.455898E+05 -1.313157E+04  2.019952E+04
       127  10  1.645235E+05  7.650187E+05  1.606251E+05 -3.462105E+05  2.599561E-10  2.891962E-10
       127  11  5.093495E+04  3.056561E+05  6.113329E+04 -2.685728E+05  5.600393E-10 -2.723838E-09
       127  12 -5.677674E+04 -1.513351E+05 -3.050068E+04 -3.416877E+05 -4.026050E-11 -2.191506E-09
       127  13  4.000041E+03  1.002323E+05  2.250491E+04 -3.436386E+05 -2.737117E-10 -2.039310E-11
       127  14  1.199344E+03  9.923041E+04  1.883614E+04 -2.682614E+05  8.159009E-10  1.039424E-09
       127  15  4.179358E+03  1.002915E+05  2.259589E+04 -3.436383E+05 -3.901803E-10 -1.143293E-10
       127  16 -1.565515E+05 -5.641359E+05 -1.156395E+05 -3.410692E+05  1.222190E-10 -1.691112E-09
       127  17 -4.853893E+04 -1.071548E+05 -2.346327E+04 -2.679501E+05 -9.934318E-10 -1.564083E-09
       127  18  6.513138E+04  3.519779E+05  7.568887E+04 -3.455896E+05 -1.072755E-09  1.712997E-09
       127  19  1.645251E+05  7.650195E+05  1.606284E+05 -3.462111E+05 -3.736380E+04  1.896979E+04
       127  20  5.093534E+04  3.056571E+05  6.113516E+04 -2.685731E+05 -1.246096E+04  2.905780E+04
       127  21 -5.677615E+04 -1.513334E+05 -3.049748E+04 -3.416873E+05  1.299202E+04  3.914525E+04
       127  22  4.001559E+03  1.002328E+05  2.250769E+04 -3.436383E+05 -3.730274E+04 -9.442687E+03
       127  23  1.199509E+03  9.923045E+04  1.883643E+04 -2.682614E+05 -1.239593E+04  1.475374E+01
       127  24  4.179565E+03  1.002917E+05  2.259637E+04 -3.436382E+05  1.306171E+04  9.478781E+03
       127  25 -1.565496E+05 -5.641340E+05 -1.156342E+05 -3.410681E+05 -3.724187E+04 -3.782528E+04
       127  26 -4.853855E+04 -1.071539E+05 -2.346140E+04 -2.679498E+05 -1.233091E+04 -2.901881E+04
       127  27  6.513168E+04  3.519784E+05  7.568996E+04 -3.455898E+05  1.313157E+04 -2.019952E+04
       128   1 -1.428161E+05 -4.836266E+05 -9.648735E+04 -3.510537E+05 -3.223045E+04 -5.277716E+04
       128   2 -2.475103E+05 -9.463285E+05 -1.855939E+05 -2.524304E+05 -4.543273E+04 -2.546965E+04
       128   3 -3.012294E+05 -1.399887E+06 -2.798330E+05 -3.025302E+05 -1.639890E+04  1.875221E+03
       128   4 -8.654245E+02  1.036306E+05  2.608383E+04 -3.432072E+05 -3.231952E+04 -1.336322E+04
       128   5  6.159732E+03  9.480632E+04  4.072192E+04 -2.687971E+05 -4.540838E+04 -3.468334E+04
       128   6  7.256379E+04  1.033329E+05  8.398977E+04 -3.430772E+05 -1.629526E+04 -5.594609E+04
       128   7  1.410643E+05  6.912177E+05  1.486419E+05 -3.353529E+05 -3.240754E+04  2.608742E+04
       128   8  2.597589E+05  1.136959E+06  2.669734E+05 -2.851909E+05 -4.538356E+04 -4.391225E+04
       128   9  4.461991E+05  1.608631E+06  4.476635E+05 -3.837215E+05 -1.618422E+04 -1.139071E+05
       128  10 -1.428179E+05 -4.836299E+05 -9.649455E+04 -3.510551E+05 -1.032939E-09  4.921676E-10
       128  11 -2.475127E+05 -9.463298E+05 -1.855990E+05 -2.524313E+05 -1.220146E-10 -1.964944E-09
       128  12 -3.012297E+05 -1.399887E+06 -2.798336E+05 -3.025301E+05  1.021335E-10 -1.114075E-09
       128  13 -8.665945E+02  1.036301E+05  2.608153E+04 -3.432076E+05 -8.502051E-10  5.035677E-11
       128  14  6.157194E+03  9.480447E+04  4.071579E+04 -2.687984E+05 -1.671234E-09  9.164857E-10
       128  15  7.256267E+04  1.033294E+05  8.398338E+04 -3.430779E+05  1.075212E-09 -6.801289E-11
       128  16  1.410630E+05  6.912167E+05  1.486386E+05 -3.353523E+05 -4.918720E-10 -1.857712E-09
       128  17  2.597561E+05  1.136957E+06  2.669659E+05 -2.851926E+05  9.964894E-10 -1.381575E-09
       128  18  4.461953E+05  1.608617E+06  4.476387E+05 -3.837230E+05  9.406302E-12  7.201995E-10
       128  19 -1.428161E+05 -4.836266E+05 -9.648735E+04 -3.510537E+05  3.223045E+04  5.277716E+04
       128  20 -2.475103E+05 -9.463285E+05 -1.855939E+05 -2.524304E+05  4.543273E+04  2.546965E+04
       128  21 -3.012294E+05 -1.399887E+06 -2.798330E+05 -3.025302E+05  1.639890E+04 -1.875221E+03
       128  22 -8.654245E+02  1.036306E+05  2.608383E+04 -3.432072E+05  3.231952E+04  1.336322E+04
       128  23  6.159732E+03  9.480632E+04  4.072192E+04 -2.687971E+05  4.540838E+04  3.468334E+04
       128  24  7.256379E+04  1.033329E+05  8.398977E+04 -3.430772E+05  1.629526E+04  5.594609E+04
       128  25  1.410643E+05  6.912177E+05  1.486419E+05 -3.353529E+05  3.240754E+04 -2.608742E+04
       128  26  2.597589E+05  1.136959E+06  2.669734E+05 -2.851909E+05  4.538356E+04  4.391225E+04
       128  27  4.461991E+05  1.608631E+06  4.476635E+05 -3.837215E+05  1.618422E+04  1.139071E+05
       129   1 -1.447613E+06 -5.413097E+05 -3.093220E+05 -5.519523E+05 -1.372827E+05 -4.265576E+04
       129   2 -1.395925E+06 -3.582145E+05 -1.864699E+05 -5.337831E+05 -8.743527E+04 -4.666604E+03
       129   3 -1.381855E+06 -3.047114E+05 -1.371927E+05 -5.021038E+05 -3.181855E+04  1.798825E+04
       129   4 -9.643876E+05 -2.918585E+05 -1.685922E+05 -3.504915E+05 -1.108955E+05 -3.276345E+04
       129   5 -9.379366E+05 -1.630867E+05 -7.466036E+04 -3.818659E+05 -7.753420E+04 -9.550698E+02
       129   6 -9.457981E+05 -1.605913E+05 -4.118606E+04 -3.997425E+05 -3.840951E+04  1.551385E+04
       129   7 -4.809236E+05 -4.232437E+04 -2.788163E+04 -1.488686E+05 -8.448597E+04 -2.285546E+04
       129   8 -4.797359E+05  3.207626E+04  3.713414E+04 -2.298392E+05 -6.762518E+04  2.760472E+03
       129   9 -5.095474E+05 -1.646497E+04  5.480997E+04 -2.973189E+05 -4.500553E+04  1.303800E+04
       129  10 -1.447633E+06 -5.413168E+05 -3.093609E+05 -5.519570E+05  3.512498E-10 -1.563994E-10
       129  11 -1.395933E+06 -3.582166E+05 -1.864843E+05 -5.337834E+05 -5.604727E-10  3.779447E-10
       129  12 -1.381856E+06 -3.047120E+05 -1.371952E+05 -5.021033E+05 -1.100050E-09  8.607799E-10
       129  13 -9.644012E+05 -2.918630E+05 -1.686173E+05 -3.504944E+05 -1.196605E-10  2.674645E-10
       129  14 -9.379430E+05 -1.630883E+05 -7.467168E+04 -3.818660E+05  3.773787E-11  6.023504E-10
       129  15 -9.457998E+05 -1.605919E+05 -4.118929E+04 -3.997421E+05  3.057438E-10  1.055390E-09
       129  16 -4.809314E+05 -4.232685E+04 -2.789604E+04 -1.488701E+05 -5.484800E-10  4.064918E-10
       129  17 -4.797408E+05  3.207503E+04  3.712553E+04 -2.298391E+05 -1.687254E-10  1.084098E-09
       129  18 -5.095496E+05 -1.646570E+04  5.480584E+04 -2.973184E+05 -2.487023E-10  1.271697E-09
       129  19 -1.447613E+06 -5.413097E+05 -3.093220E+05 -5.519523E+05  1.372827E+05  4.265576E+04
       129  20 -1.395925E+06 -3.582145E+05 -1.864699E+05 -5.337831E+05  8.743527E+04  4.666604E+03
       129  21 -1.381855E+06 -3.047114E+05 -1.371927E+05 -5.021038E+05  3.181855E+04 -1.798825E+04
       129  22 -9.643876E+05 -2.918585E+05 -1.685922E+05 -3.504915E+05  1.108955E+05  3.276345E+04
       129  23 -9.379366E+05 -1.630867E+05 -7.466036E+04 -3.818659E+05  7.753420E+04  9.550698E+02
       129  24 -9.457981E+05 -1.605913E+05 -4.118606E+04 -3.997425E+05  3.840951E+04 -1.551385E+04
       129  25 -4.809236E+05 -4.232437E+04 -2.788163E+04 -1.488686E+05  8.448597E+04  2.285546E+04
       129  26 -4.797359E+05  3.207626E+04  3.713414E+04 -2.298392E+05  6.762518E+04 -2.760472E+03
       129  27 -5.095474E+05 -1.646497E+04  5.480997E+04 -2.973189E+05  4.500553E+04 -1.303800E+04
       130   1 -1.321391E+06 -3.129810E+05 -1.192078E+05 -5.004064E+05 -2.976878E+04  1.526152E+04
       130   2 -1.272886E+06 -2.789120E+05 -9.094430E+04 -4.777585E+05 -1.946326E+04  1.607126E+04
       130   3 -1.213704E+06 -2.644182E+05 -7.110147E+04 -4.700095E+05 -8.875432E+03  1.612722E+04
       130   4 -9.404644E+05 -1.701645E+05 -3.214773E+04 -3.935436E+05 -3.225795E+04  1.432612E+04
       130   5 -9.454598E+05 -1.575191E+05 -1.682929E+04 -3.871922E+05 -2.275885E+04  1.483407E+04
       130   6 -9.396184E+05 -1.642861E+05 -9.287423E+03 -3.957400E+05 -1.297841E+04  1.458806E+04
       130   7 -5.593915E+05 -2.733590E+04  5.490277E+04 -2.866204E+05 -3.474878E+04  1.339008E+04
       130   8 -6.179262E+05 -3.611831E+04  5.727851E+04 -2.965823E+05 -2.605632E+04  1.359617E+04
       130   9 -6.654589E+05 -6.414940E+04  5.252138E+04 -3.214412E+05 -1.708333E+04  1.304820E+04
       130  10 -1.321392E+06 -3.129815E+05 -1.192099E+05 -5.004060E+05  2.038537E-10  1.022220E-09
       130  11 -1.272887E+06 -2.789123E+05 -9.094550E+04 -4.777583E+05  2.859226E-09  7.282027E-10
       130  12 -1.213704E+06 -2.644185E+05 -7.110211E+04 -4.700094E+05  3.271730E-09 -4.097719E-10
       130  13 -9.404656E+05 -1.701650E+05 -3.215007E+04 -3.935432E+05  3.029253E-09  9.224730E-10
       130  14 -9.454604E+05 -1.575195E+05 -1.683068E+04 -3.871919E+05  5.286293E-09  3.505880E-10
       130  15 -9.396186E+05 -1.642864E+05 -9.288139E+03 -3.957399E+05  3.580529E-09 -4.533962E-10
       130  16 -5.593929E+05 -2.733642E+04  5.490016E+04 -2.866200E+05  1.212602E-09  7.710880E-10
       130  17 -6.179270E+05 -3.611869E+04  5.727689E+04 -2.965820E+05  5.018204E-09 -3.419397E-11
       130  18 -6.654593E+05 -6.414967E+04  5.252051E+04 -3.214410E+05  1.533900E-09 -4.257257E-10
       130  19 -1.321391E+06 -3.129810E+05 -1.192078E+05 -5.004064E+05  2.976878E+04 -1.526152E+04
       130  20 -1.272886E+06 -2.789120E+05 -9.094430E+04 -4.777585E+05  1.946326E+04 -1.607126E+04
       130  21 -1.213704E+06 -2.644182E+05 -7.110147E+04 -4.700095E+05  8.875432E+03 -1.612722E+04
       130  22 -9.404644E+05 -1.701645E+05 -3.214773E+04 -3.935436E+05  3.225795E+04 -1.432612E+04
       130  23 -9.454598E+05 -1.575191E+05 -1.682929E+04 -3.871922E+05  2.275885E+04 -1.483407E+04
       130  24 -9.396184E+05 -1.642861E+05 -9.287423E+03 -3.957400E+05  1.297841E+04 -1.458806E+04
       130  25 -5.593915E+05 -2.733590E+04  5.490277E+04 -2.866204E+05  3.474878E+04 -1.339008E+04
       130  26 -6.179262E+05 -3.611831E+04  5.727851E+04 -2.965823E+05  2.605632E+04 -1.359617E+04
       130  27 -6.654589E+05 -6.414940E+04  5.252138E+04 -3.214412E+05  1.708333E+04 -1.304820E+04
       131   1 -1.171467E+06 -2.502628E+05 -5.923251E+04 -4.591570E+05 -6.935810E+03  1.435103E+04
       131   2 -1.123401E+06 -2.227768E+05 -4.383404E+04 -4.360597E+05 -3.596980E+03  1.143851E+04
       131   3 -1.061649E+06 -2.096224E+05 -2.997160E+04 -4.290615E+05 -2.433183E+02  8.484649E+03
       131   4 -9.391996E+05 -1.647121E+05 -7.025032E+03 -3.954213E+05 -1.084659E+04  1.288433E+04
       131   5 -9.460259E+05 -1.574427E+05 -3.859470E+03 -3.874099E+05 -7.551674E+03  9.955789E+03
       131   6 -9.391613E+05 -1.644965E+05 -2.194931E+03 -3.954986E+05 -4.242124E+03  6.985849E+03
       131   7 -7.068760E+05 -7.915677E+04  4.517947E+04 -3.316634E+05 -1.475899E+04  1.141703E+04
       131   8 -7.686181E+05 -9.210601E+04  3.611331E+04 -3.387471E+05 -1.150761E+04  8.472602E+03
       131   9 -8.166584E+05 -1.193694E+05  2.558083E+04 -3.619296E+05 -8.241786E+03  5.486730E+03
       131  10 -1.171467E+06 -2.502630E+05 -5.923298E+04 -4.591569E+05  8.367910E-10 -1.014102E-09
       131  11 -1.123401E+06 -2.227769E+05 -4.383431E+04 -4.360597E+05  8.315282E-10 -2.417612E-10
       131  12 -1.061649E+06 -2.096225E+05 -2.997173E+04 -4.290615E+05 -5.651072E-10  1.617613E-10
       131  13 -9.391998E+05 -1.647123E+05 -7.025565E+03 -3.954212E+05  2.291511E-10 -6.995685E-10
       131  14 -9.460260E+05 -1.574428E+05 -3.859764E+03 -3.874098E+05  8.709658E-10 -6.457801E-10
       131  15 -9.391613E+05 -1.644965E+05 -2.195057E+03 -3.954986E+05 -1.340783E-09  3.757849E-10
       131  16 -7.068763E+05 -7.915697E+04  4.517882E+04 -3.316633E+05 -7.247039E-10 -3.981343E-10
       131  17 -7.686183E+05 -9.210612E+04  3.611292E+04 -3.387470E+05  1.168487E-09 -7.381526E-10
       131  18 -8.166585E+05 -1.193694E+05  2.558065E+04 -3.619296E+05 -4.818242E-10  5.040031E-10
       131  19 -1.171467E+06 -2.502628E+05 -5.923251E+04 -4.591570E+05  6.935810E+03 -1.435103E+04
       131  20 -1.123401E+06 -2.227768E+05 -4.383404E+04 -4.360597E+05  3.596980E+03 -1.143851E+04
       131  21 -1.061649E+06 -2.096224E+05 -2.997160E+04 -4.290615E+05  2.433183E+02 -8.484649E+03
       131  22 -9.391996E+05 -1.647121E+05 -7.025032E+03 -3.954213E+05  1.084659E+04 -1.288433E+04
       131  23 -9.460259E+05 -1.574427E+05 -3.859470E+03 -3.874099E+05  7.551674E+03 -9.955789E+03
       131  24 -9.391613E+05 -1.644965E+05 -2.194931E+03 -3.954986E+05  4.242124E+03 -6.985849E+03
       131  25 -7.068760E+05 -7.915677E+04  4.517947E+04 -3.316634E+05  1.475899E+04 -1.141703E+04
       131  26 -7.686181E+05 -9.210601E+04  3.611331E+04 -3.387471E+05  1.150761E+04 -8.472602E+03
       131  27 -8.166584E+05 -1.193694E+05  2.558083E+04 -3.619296E+05  8.241786E+03 -5.486730E+03
       132   1 -1.020257E+06 -1.943713E+05 -1.980911E+04 -4.177515E+05  8.827852E+02  6.442634E+03
       132   2 -9.722138E+05 -1.670774E+05 -6.986779E+03 -3.945608E+05  2.825007E+03  2.942033E+03
       132   3 -9.101829E+05 -1.538708E+05  5.420145E+03 -3.875124E+05  4.768081E+03 -5.611673E+02
       132   4 -9.391038E+05 -1.645132E+05 -1.704208E+03 -3.954814E+05 -3.109563E+03  4.946416E+03
       132   5 -9.460956E+05 -1.574699E+05 -1.104174E+03 -3.874094E+05 -1.170241E+03  1.444799E+03
       132   6 -9.391031E+05 -1.645136E+05 -9.173257E+02 -3.954810E+05  7.698696E+02 -2.059417E+03
       132   7 -8.579439E+05 -1.346547E+05  1.640030E+04 -3.732087E+05 -7.102467E+03  3.449990E+03
       132   8 -9.199768E+05 -1.478624E+05  4.778404E+03 -3.802578E+05 -5.165644E+03 -5.249182E+01
       132   9 -9.680221E+05 -1.751562E+05 -7.254683E+03 -4.034490E+05 -3.228093E+03 -3.557574E+03
       132  10 -1.020257E+06 -1.943713E+05 -1.980919E+04 -4.177515E+05  1.607376E-09  1.252670E-09
       132  11 -9.722138E+05 -1.670774E+05 -6.986811E+03 -3.945608E+05  6.236568E-10  7.824561E-10
       132  12 -9.101830E+05 -1.538708E+05  5.420102E+03 -3.875124E+05  3.735434E-10  2.784468E-10
       132  13 -9.391038E+05 -1.645132E+05 -1.704272E+03 -3.954814E+05 -8.269127E-10  5.941290E-10
       132  14 -9.460956E+05 -1.574699E+05 -1.104181E+03 -3.874094E+05  3.078800E-11 -1.375742E-10
       132  15 -9.391031E+05 -1.645136E+05 -9.173348E+02 -3.954810E+05  3.336749E-09  1.560512E-09
       132  16 -8.579440E+05 -1.346547E+05  1.640018E+04 -3.732087E+05 -3.165596E-09 -4.358744E-10
       132  17 -9.199769E+05 -1.478624E+05  4.778354E+03 -3.802578E+05  7.341222E-10  2.215114E-10
       132  18 -9.680221E+05 -1.751562E+05 -7.254726E+03 -4.034490E+05  5.032783E-09  2.276917E-09
       132  19 -1.020257E+06 -1.943713E+05 -1.980911E+04 -4.177515E+05 -8.827852E+02 -6.442634E+03
       132  20 -9.722138E+05 -1.670774E+05 -6.986779E+03 -3.945608E+05 -2.825007E+03 -2.942033E+03
       132  21 -9.101829E+05 -1.538708E+05  5.420145E+03 -3.875124E+05 -4.768081E+03  5.611673E+02
       132  22 -9.391038E+05 -1.645132E+05 -1.704208E+03 -3.954814E+05  3.109563E+03 -4.946416E+03
       132  23 -9.460956E+05 -1.574699E+05 -1.104174E+03 -3.874094E+05  1.170241E+03 -1.444799E+03
       132  24 -9.391031E+05 -1.645136E+05 -9.173257E+02 -3.954810E+05 -7.698696E+02  2.059417E+03
       132  25 -8.579439E+05 -1.346547E+05  1.640030E+04 -3.732087E+05  7.102467E+03 -3.449990E+03
       132  26 -9.199768E+05 -1.478624E+05  4.778404E+03 -3.802578E+05  5.165644E+03  5.249182E+01
       132  27 -9.680221E+05 -1.751562E+05 -7.254683E+03 -4.034490E+05  3.228093E+03  3.557574E+03
       133   1 -8.688420E+05 -1.385574E+05  1.507206E+04 -3.761704E+05  5.731406E+03 -2.663429E+03
       133   2 -8.208488E+05 -1.112968E+05  2.695130E+04 -3.530024E+05  7.747559E+03 -6.135328E+03
       133   3 -7.588900E+05 -9.810971E+04  3.836073E+04 -3.459589E+05  9.762168E+03 -9.601153E+03
       133   4 -9.391085E+05 -1.645110E+05 -9.467821E+02 -3.954772E+05  1.734550E+03 -4.161250E+03
       133   5 -9.460925E+05 -1.574772E+05 -1.271448E+03 -3.874138E+05  3.756839E+03 -7.631205E+03
       133   6 -9.391138E+05 -1.645183E+05 -2.070500E+03 -3.954764E+05  5.777516E+03 -1.109509E+04
       133   7 -1.009371E+06 -1.904647E+05 -1.696616E+04 -4.147824E+05 -2.261871E+03 -5.658909E+03
       133   8 -1.071322E+06 -2.036568E+05 -2.949551E+04 -4.218193E+05 -2.330512E+02 -9.126772E+03
       133   9 -1.119306E+06 -2.309250E+05 -4.250412E+04 -4.449810E+05  1.794088E+03 -1.258857E+04
       133  10 -8.688420E+05 -1.385574E+05  1.507199E+04 -3.761704E+05  4.859812E-09  1.426033E-09
       133  11 -8.208489E+05 -1.112969E+05  2.695112E+04 -3.530024E+05  1.945126E-09 -2.899318E-11
       133  12 -7.588901E+05 -9.810984E+04  3.836038E+04 -3.459588E+05 -6.404045E-10 -4.133865E-10
       133  13 -9.391085E+05 -1.645110E+05 -9.468203E+02 -3.954772E+05  3.854310E-09  1.516192E-09
       133  14 -9.460925E+05 -1.574772E+05 -1.271584E+03 -3.874138E+05 -4.761441E-10  4.522602E-10
       133  15 -9.391139E+05 -1.645185E+05 -2.070794E+03 -3.954763E+05  1.213639E-09 -3.001140E-10
       133  16 -1.009371E+06 -1.904647E+05 -1.696623E+04 -4.147824E+05  6.827377E-10  1.431615E-09
       133  17 -1.071322E+06 -2.036569E+05 -2.949567E+04 -4.218193E+05  8.320341E-10  6.005407E-10
       133  18 -1.119306E+06 -2.309252E+05 -4.250442E+04 -4.449810E+05 -1.218100E-09 -5.243614E-10
       133  19 -8.688420E+05 -1.385574E+05  1.507206E+04 -3.761704E+05 -5.731406E+03  2.663429E+03
       133  20 -8.208488E+05 -1.112968E+05  2.695130E+04 -3.530024E+05 -7.747559E+03  6.135328E+03
       133  21 -7.588900E+05 -9.810971E+04  3.836073E+04 -3.459589E+05 -9.762168E+03  9.601153E+03
       133  22 -9.391085E+05 -1.645110E+05 -9.467821E+02 -3.954772E+05 -1.734550E+03  4.161250E+03
       133  23 -9.460925E+05 -1.574772E+05 -1.271448E+03 -3.874138E+05 -3.756839E+03  7.631205E+03
       133  24 -9.391138E+05 -1.645183E+05 -2.070500E+03 -3.954764E+05 -5.777516E+03  1.109509E+04
       133  25 -1.009371E+06 -1.904647E+05 -1.696616E+04 -4.147824E+05  2.261871E+03  5.658909E+03
       133  26 -1.071322E+06 -2.036568E+05 -2.949551E+04 -4.218193E+05  2.330512E+02  9.126772E+03
       133  27 -1.119306E+06 -2.309250E+05 -4.250412E+04 -4.449810E+05 -1.794088E+03  1.258857E+04
       134   1 -7.177169E+05 -8.285622E+04  4.737979E+04 -3.347082E+05  1.097103E+04 -1.160631E+04
       134   2 -6.698107E+05 -5.567435E+04  5.743272E+04 -3.115884E+05  1.469259E+04 -1.440537E+04
       134   3 -6.083231E+05 -4.282778E+04  6.566308E+04 -3.045076E+05  1.839669E+04 -1.715349E+04
       134   4 -9.391946E+05 -1.644929E+05 -2.699213E+03 -3.954917E+05  6.980680E+03 -1.310270E+04
       134   5 -9.460026E+05 -1.574570E+05 -4.801231E+03 -3.874223E+05  1.075552E+04 -1.588248E+04
       134   6 -9.392436E+05 -1.647677E+05 -8.768778E+03 -3.953933E+05  1.451268E+04 -1.861139E+04
       134   7 -1.160620E+06 -2.461250E+05 -5.278061E+04 -4.562546E+05  2.991923E+03 -1.459849E+04
       134   8 -1.222117E+06 -2.592335E+05 -6.703973E+04 -4.632249E+05  6.820359E+03 -1.735887E+04
       134   9 -1.270055E+06 -2.866999E+05 -8.320797E+04 -4.862351E+05  1.063091E+04 -2.006846E+04
       134  10 -7.177171E+05 -8.285640E+04  4.737931E+04 -3.347081E+05 -9.036099E-10 -3.031785E-10
       134  11 -6.698110E+05 -5.567463E+04  5.743193E+04 -3.115883E+05 -1.446735E-09  2.079602E-10
       134  12 -6.083235E+05 -4.282818E+04  6.566189E+04 -3.045073E+05  4.147705E-11  3.058827E-10
       134  13 -9.391947E+05 -1.644931E+05 -2.699627E+03 -3.954916E+05 -9.298890E-11 -6.021171E-11
       134  14 -9.460028E+05 -1.574573E+05 -4.801922E+03 -3.874221E+05 -3.464679E-09  1.654507E-10
       134  15 -9.392439E+05 -1.647681E+05 -8.769824E+03 -3.953931E+05 -1.251216E-09  3.878730E-10
       134  16 -1.160620E+06 -2.461253E+05 -5.278102E+04 -4.562546E+05 -4.675347E-10  3.872458E-10
       134  17 -1.222117E+06 -2.592338E+05 -6.704039E+04 -4.632248E+05 -7.312661E-10  8.893609E-10
       134  18 -1.270055E+06 -2.867003E+05 -8.320894E+04 -4.862349E+05 -7.985483E-10  4.243860E-10
       134  19 -7.177169E+05 -8.285622E+04  4.737979E+04 -3.347082E+05 -1.097103E+04  1.160631E+04
       134  20 -6.698107E+05 -5.567435E+04  5.743272E+04 -3.115884E+05 -1.469259E+04  1.440537E+04
       134  21 -6.083231E+05 -4.282778E+04  6.566308E+04 -3.045076E+05 -1.839669E+04  1.715349E+04
       134  22 -9.391946E+05 -1.644929E+05 -2.699213E+03 -3.954917E+05 -6.980680E+03  1.310270E+04
       134  23 -9.460026E+05 -1.574570E+05 -4.801231E+03 -3.874223E+05 -1.075552E+04  1.588248E+04
       134  24 -9.392436E+05 -1.647677E+05 -8.768778E+03 -3.953933E+05 -1.451268E+04  1.861139E+04
       134  25 -1.160620E+06 -2.461250E+05 -5.278061E+04 -4.562546E+05 -2.991923E+03  1.459849E+04
       134  26 -1.222117E+06 -2.592335E+05 -6.703973E+04 -4.632249E+05 -6.820359E+03  1.735887E+04
       134  27 -1.270055E+06 -2.866999E+05 -8.320797E+04 -4.862351E+05 -1.063091E+04  2.006846E+04
       135   1 -5.670404E+05 -2.794436E+04  7.238453E+04 -2.945973E+05  2.107862E+04 -1.864774E+04
       135   2 -5.198048E+05  1.847075E+02  7.521287E+04 -2.693927E+05  3.200860E+04 -1.838632E+04
       135   3 -4.623876E+05  7.800047E+03  6.907932E+04 -2.587205E+05  4.260811E+04 -1.723734E+04
       135   4 -9.397721E+05 -1.642352E+05 -1.160098E+04 -3.957919E+05  1.696971E+04 -2.019053E+04
       135   5 -9.452947E+05 -1.575565E+05 -2.103318E+04 -3.871509E+05  2.884834E+04 -1.957422E+04
       135   6 -9.408296E+05 -1.715838E+05 -4.018460E+04 -3.930438E+05  4.039554E+04 -1.807042E+04
       135   7 -1.312362E+06 -3.005154E+05 -9.559472E+04 -4.969305E+05  1.286350E+04 -2.173232E+04
       135   8 -1.370602E+06 -3.152836E+05 -1.172909E+05 -5.048350E+05  2.569042E+04 -2.076124E+04
       135   9 -1.419045E+06 -3.509499E+05 -1.494644E+05 -5.272726E+05  3.818481E+04 -1.890280E+04
       135  10 -5.670409E+05 -2.794485E+04  7.238304E+04 -2.945970E+05  1.327152E-09  3.595631E-10
       135  11 -5.198060E+05  1.840698E+02  7.521031E+04 -2.693923E+05 -4.890438E-10 -4.907182E-10
       135  12 -4.623896E+05  7.799240E+03  6.907534E+04 -2.587199E+05 -4.872585E-10 -9.205582E-11
       135  13 -9.397725E+05 -1.642357E+05 -1.160229E+04 -3.957916E+05 -2.686863E-09 -6.492456E-11
       135  14 -9.452957E+05 -1.575571E+05 -2.103546E+04 -3.871504E+05 -2.480886E-09 -6.345704E-10
       135  15 -9.408315E+05 -1.715846E+05 -4.018828E+04 -3.930432E+05 -1.138165E-09 -1.778654E-10
       135  16 -1.312362E+06 -3.005159E+05 -9.559592E+04 -4.969303E+05 -2.022856E-09 -4.123130E-10
       135  17 -1.370603E+06 -3.152842E+05 -1.172930E+05 -5.048346E+05 -8.763187E-10 -7.342918E-10
       135  18 -1.419046E+06 -3.509507E+05 -1.494679E+05 -5.272720E+05 -7.772954E-10 -5.538406E-11
       135  19 -5.670404E+05 -2.794436E+04  7.238453E+04 -2.945973E+05 -2.107862E+04  1.864774E+04
       135  20 -5.198048E+05  1.847075E+02  7.521287E+04 -2.693927E+05 -3.200860E+04  1.838632E+04
       135  21 -4.623876E+05  7.800047E+03  6.907932E+04 -2.587205E+05 -4.260811E+04  1.723734E+04
       135  22 -9.397721E+05 -1.642352E+05 -1.160098E+04 -3.957919E+05 -1.696971E+04  2.019053E+04
       135  23 -9.452947E+05 -1.575565E+05 -2.103318E+04 -3.871509E+05 -2.884834E+04  1.957422E+04
       135  24 -9.408296E+05 -1.715838E+05 -4.018460E+04 -3.930438E+05 -4.039554E+04  1.807042E+04
       135  25 -1.312362E+06 -3.005154E+05 -9.559472E+04 -4.969305E+05 -1.286350E+04  2.173232E+04
       135  26 -1.370602E+06 -3.152836E+05 -1.172909E+05 -5.048350E+05 -2.569042E+04  2.076124E+04
       135  27 -1.419045E+06 -3.509499E+05 -1.494644E+05 -5.272726E+05 -3.818481E+04  1.890280E+04
       136   1 -4.105878E+05  1.748437E+04  6.655262E+04 -2.749826E+05  5.489057E+04 -1.629171E+04
       136   2 -3.854634E+05  7.129041E+04  4.107273E+04 -1.964464E+05  8.420053E+04 -2.417666E+03
       136   3 -4.028715E+05 -2.527635E+04 -4.456274E+04 -9.698177E+04  1.067386E+05  2.948004E+04
       136   4 -9.474843E+05 -1.596302E+05 -5.148373E+04 -4.008071E+05  4.785370E+04 -1.893528E+04
       136   5 -9.359037E+05 -1.644997E+05 -9.332668E+04 -3.804767E+05  9.655117E+04  2.216015E+03
       136   6 -9.707588E+05 -3.236793E+05 -2.107436E+05 -3.392091E+05  1.384701E+05  4.139120E+04
       136   7 -1.484093E+06 -3.367375E+05 -1.695378E+05 -5.265386E+05  4.082341E+04 -2.157700E+04
       136   8 -1.486031E+06 -4.002352E+05 -2.277460E+05 -5.643456E+05  1.088898E+05  6.843581E+03
       136   9 -1.538296E+06 -6.219497E+05 -3.769453E+05 -5.811984E+05  1.701692E+05  5.327917E+04
       136  10 -4.105911E+05  1.748328E+04  6.654646E+04 -2.749819E+05  4.463471E-10  4.240542E-10
       136  11 -3.854710E+05  7.128850E+04  4.105939E+04 -1.964463E+05 -2.430676E-09 -6.253696E-10
       136  12 -4.028840E+05 -2.528035E+04 -4.458580E+04 -9.698431E+04 -1.874617E-09 -1.585160E-09
       136  13 -9.474868E+05 -1.596312E+05 -5.148871E+04 -4.008063E+05 -1.334854E-09 -9.127148E-10
       136  14 -9.359137E+05 -1.645023E+05 -9.334423E+04 -3.804769E+05 -3.162459E-09 -2.843928E-09
       136  15 -9.707798E+05 -3.236863E+05 -2.107829E+05 -3.392137E+05 -2.486304E-09 -6.289032E-10
       136  16 -1.484095E+06 -3.367384E+05 -1.695418E+05 -5.265379E+05 -5.210756E-09 -6.319943E-10
       136  17 -1.486044E+06 -4.002384E+05 -2.277685E+05 -5.643462E+05 -4.504304E-09 -2.053568E-09
       136  18 -1.538328E+06 -6.219605E+05 -3.770052E+05 -5.812057E+05  1.684616E-11  3.438985E-10
       136  19 -4.105878E+05  1.748437E+04  6.655262E+04 -2.749826E+05 -5.489057E+04  1.629171E+04
       136  20 -3.854634E+05  7.129041E+04  4.107273E+04 -1.964464E+05 -8.420053E+04  2.417666E+03
       136  21 -4.028715E+05 -2.527635E+04 -4.456274E+04 -9.698177E+04 -1.067386E+05 -2.948004E+04
       136  22 -9.474843E+05 -1.596302E+05 -5.148373E+04 -4.008071E+05 -4.785370E+04  1.893528E+04
       136  23 -9.359037E+05 -1.644997E+05 -9.332668E+04 -3.804767E+05 -9.655117E+04 -2.216015E+03
       136  24 -9.707588E+05 -3.236793E+05 -2.107436E+05 -3.392091E+05 -1.384701E+05 -4.139120E+04
       136  25 -1.484093E+06 -3.367375E+05 -1.695378E+05 -5.265386E+05 -4.082341E+04  2.157700E+04
       136  26 -1.486031E+06 -4.002352E+05 -2.277460E+05 -5.643456E+05 -1.088898E+05 -6.843581E+03
       136  27 -1.538296E+06 -6.219497E+05 -3.769453E+05 -5.811984E+05 -1.701692E+05 -5.327917E+04
       137   1 -6.373422E+04 -2.237898E+04 -1.510744E+04  4.276464E+03  1.491746E+04  3.080767E+03
       137   2 -4.941864E+04 -4.675057E+04 -2.562800E+04 -3.691343E+03  1.230591E+04  9.921846E+03
       137   3 -2.841982E+04 -4.581278E+04 -2.811919E+04 -1.715729E+04  9.696887E+03  1.100147E+04
       137   4  1.572684E+05  3.238763E+04  3.783152E+04 -1.307529E+04  2.612396E+04  3.085266E+03
       137   5  1.533544E+05  2.445954E+03  1.762351E+04 -1.031981E+04  1.687321E+04  9.923267E+03
       137   6  1.572730E+05 -1.038818E+03  1.005274E+04 -1.306208E+04  7.625091E+03  1.100058E+04
       137   7  3.783167E+05  8.715190E+04  9.076766E+04 -3.043325E+04  3.733443E+04  3.089137E+03
       137   8  3.561664E+05  5.163997E+04  6.087275E+04 -1.695047E+04  2.144198E+04  9.924591E+03
       137   9  3.429987E+05  4.373303E+04  4.822284E+04 -8.965627E+03  5.552686E+03  1.099965E+04
       137  10 -6.373446E+04 -2.237905E+04 -1.510788E+04  4.276427E+03  1.036753E-09 -6.261387E-10
       137  11 -4.941883E+04 -4.675071E+04 -2.562847E+04 -3.691441E+03 -3.689223E-10 -2.341547E-10
       137  12 -2.841995E+04 -4.581293E+04 -2.811959E+04 -1.715738E+04 -1.433909E-09 -1.575890E-10
       137  13  1.572677E+05  3.238744E+04  3.783022E+04 -1.307535E+04 -2.038912E-09  4.204068E-11
       137  14  1.533541E+05  2.445772E+03  1.762279E+04 -1.031994E+04  1.612715E-09 -4.170504E-10
       137  15  1.572730E+05 -1.038964E+03  1.005240E+04 -1.306215E+04  7.398121E-10 -3.427163E-11
       137  16  3.783152E+05  8.715151E+04  9.076503E+04 -3.043334E+04 -9.351196E-10 -3.733786E-12
       137  17  3.561659E+05  5.163974E+04  6.087170E+04 -1.695065E+04 -5.222694E-10 -4.036154E-10
       137  18  3.429986E+05  4.373289E+04  4.822256E+04 -8.965676E+03  1.534939E-09  1.290237E-09
       137  19 -6.373422E+04 -2.237898E+04 -1.510744E+04  4.276464E+03 -1.491746E+04 -3.080767E+03
       137  20 -4.941864E+04 -4.675057E+04 -2.562800E+04 -3.691343E+03 -1.230591E+04 -9.921846E+03
       137  21 -2.841982E+04 -4.581278E+04 -2.811919E+04 -1.715729E+04 -9.696887E+03 -1.100147E+04
       137  22  1.572684E+05  3.238763E+04  3.783152E+04 -1.307529E+04 -2.612396E+04 -3.085266E+03
       137  23  1.533544E+05  2.445954E+03  1.762351E+04 -1.031981E+04 -1.687321E+04 -9.923267E+03
       137  24  1.572730E+05 -1.038818E+03  1.005274E+04 -1.306208E+04 -7.625091E+03 -1.100058E+04
       137  25  3.783167E+05  8.715190E+04  9.076766E+04 -3.043325E+04 -3.733443E+04 -3.089137E+03
       137  26  3.561664E+05  5.163997E+04  6.087275E+04 -1.695047E+04 -2.144198E+04 -9.924591E+03
       137  27  3.429987E+05  4.373303E+04  4.822284E+04 -8.965627E+03 -5.552686E+03 -1.099965E+04
       138   1 -1.701996E+04 -4.034554E+04 -2.774533E+04 -1.273839E+04  6.906091E+03  1.008133E+04
       138   2  2.860909E+02 -3.734614E+04 -2.743950E+04 -1.019649E+04  5.104716E+03  9.364084E+03
       138   3  1.811979E+04 -3.321425E+04 -2.567541E+04 -1.343068E+04  3.303230E+03  8.343718E+03
       138   4  1.556637E+05  1.310118E+03  7.862890E+03 -1.312703E+04  6.256267E+03  1.008091E+04
       138   5  1.553708E+05  1.744526E+01  4.306383E+03 -1.023886E+04  4.105158E+03  9.363629E+03
       138   6  1.556657E+05 -8.220935E+01  2.450649E+03 -1.312667E+04  1.953987E+03  8.343267E+03
       138   7  3.283757E+05  4.296389E+04  4.346951E+04 -1.351579E+04  5.606264E+03  1.008048E+04
       138   8  3.104783E+05  3.737952E+04  3.605099E+04 -1.028124E+04  3.105354E+03  9.363174E+03
       138   9  2.932295E+05  3.304864E+04  3.057571E+04 -1.282259E+04  6.044512E+02  8.342815E+03
       138  10 -1.702004E+04 -4.034566E+04 -2.774561E+04 -1.273844E+04  1.227944E-09  2.660824E-11
       138  11  2.860394E+02 -3.734624E+04 -2.743971E+04 -1.019653E+04  1.877681E-09  2.222399E-10
       138  12  1.811976E+04 -3.321432E+04 -2.567556E+04 -1.343071E+04 -1.648483E-09  2.271845E-10
       138  13  1.556636E+05  1.309998E+03  7.862625E+03 -1.312709E+04 -9.745492E-10  9.690700E-10
       138  14  1.553707E+05  1.734658E+01  4.306186E+03 -1.023889E+04 -1.571157E-09  4.869504E-10
       138  15  1.556657E+05 -8.228513E+01  2.450511E+03 -1.312668E+04 -2.120332E-09 -4.705389E-11
       138  16  3.283756E+05  4.296377E+04  4.346926E+04 -1.351584E+04 -1.249804E-09  1.148840E-09
       138  17  3.104782E+05  3.737942E+04  3.605081E+04 -1.028126E+04 -8.183984E-10  1.640337E-10
       138  18  2.932295E+05  3.304857E+04  3.057558E+04 -1.282259E+04  1.584470E-09  2.630369E-10
       138  19 -1.701996E+04 -4.034554E+04 -2.774533E+04 -1.273839E+04 -6.906091E+03 -1.008133E+04
       138  20  2.860909E+02 -3.734614E+04 -2.743950E+04 -1.019649E+04 -5.104716E+03 -9.364084E+03
       138  21  1.811979E+04 -3.321425E+04 -2.567541E+04 -1.343068E+04 -3.303230E+03 -8.343718E+03
       138  22  1.556637E+05  1.310118E+03  7.862890E+03 -1.312703E+04 -6.256267E+03 -1.008091E+04
       138  23  1.553708E+05  1.744526E+01  4.306383E+03 -1.023886E+04 -4.105158E+03 -9.363629E+03
       138  24  1.556657E+05 -8.220935E+01  2.450649E+03 -1.312667E+04 -1.953987E+03 -8.343267E+03
       138  25  3.283757E+05  4.296389E+04  4.346951E+04 -1.351579E+04 -5.606264E+03 -1.008048E+04
       138  26  3.104783E+05  3.737952E+04  3.605099E+04 -1.028124E+04 -3.105354E+03 -9.363174E+03
       138  27  2.932295E+05  3.304864E+04  3.057571E+04 -1.282259E+04 -6.044512E+02 -8.342815E+03
       139   1  3.082829E+04 -3.000828E+04 -2.357707E+04 -1.321834E+04  2.848597E+03  7.668715E+03
       139   2  4.833486E+04 -2.583235E+04 -2.087251E+04 -1.030852E+04  2.370365E+03  6.554844E+03
       139   3  6.592211E+04 -2.160517E+04 -1.784249E+04 -1.318262E+04  1.892005E+03  5.425338E+03
       139   4  1.555544E+05  1.995628E+01  1.850210E+03 -1.312851E+04  1.574693E+03  7.668330E+03
       139   5  1.555131E+05 -2.387206E+01  1.003266E+03 -1.023659E+04  1.078349E+03  6.554521E+03
       139   6  1.555556E+05 -1.324797E+01  4.943772E+02 -1.312851E+04  5.818918E+02  5.425080E+03
       139   7  2.802952E+05  3.004722E+04  2.727668E+04 -1.303867E+04  3.005373E+02  7.667944E+03
       139   8  2.627023E+05  2.578388E+04  2.287844E+04 -1.016464E+04 -2.138853E+02  6.554198E+03
       139   9  2.451967E+05  2.157817E+04  1.883082E+04 -1.307440E+04 -7.284072E+02  5.424821E+03
       139  10  3.082826E+04 -3.000834E+04 -2.357720E+04 -1.321836E+04 -1.116273E-09  2.206000E-10
       139  11  4.833484E+04 -2.583239E+04 -2.087260E+04 -1.030853E+04 -1.119072E-09 -3.717106E-10
       139  12  6.592209E+04 -2.160520E+04 -1.784255E+04 -1.318263E+04 -2.648262E-10 -7.096201E-10
       139  13  1.555543E+05  1.989247E+01  1.850094E+03 -1.312852E+04 -2.098124E-11  2.539567E-10
       139  14  1.555131E+05 -2.391851E+01  1.003183E+03 -1.023659E+04 -1.642748E-09 -1.123360E-10
       139  15  1.555556E+05 -1.327966E+01  4.943212E+02 -1.312852E+04 -1.397166E-09 -6.116994E-10
       139  16  2.802952E+05  3.004716E+04  2.727657E+04 -1.303868E+04 -6.073319E-10  1.861108E-10
       139  17  2.627022E+05  2.578384E+04  2.287836E+04 -1.016464E+04 -2.253335E-10 -3.987803E-10
       139  18  2.451967E+05  2.157814E+04  1.883077E+04 -1.307440E+04 -8.788019E-10  1.227193E-10
       139  19  3.082829E+04 -3.000828E+04 -2.357707E+04 -1.321834E+04 -2.848597E+03 -7.668715E+03
       139  20  4.833486E+04 -2.583235E+04 -2.087251E+04 -1.030852E+04 -2.370365E+03 -6.554844E+03
       139  21  6.592211E+04 -2.160517E+04 -1.784249E+04 -1.318262E+04 -1.892005E+03 -5.425338E+03
       139  22  1.555544E+05  1.995628E+01  1.850210E+03 -1.312851E+04 -1.574693E+03 -7.668330E+03
       139  23  1.555131E+05 -2.387206E+01  1.003266E+03 -1.023659E+04 -1.078349E+03 -6.554521E+03
       139  24  1.555556E+05 -1.324797E+01  4.943772E+02 -1.312851E+04 -5.818918E+02 -5.425080E+03
       139  25  2.802952E+05  3.004722E+04  2.727668E+04 -1.303867E+04 -3.005373E+02 -7.667944E+03
       139  26  2.627023E+05  2.578388E+04  2.287844E+04 -1.016464E+04  2.138853E+02 -6.554198E+03
       139  27  2.451967E+05  2.157817E+04  1.883082E+04 -1.307440E+04  7.284072E+02 -5.424821E+03
       140   1  7.870384E+04 -1.850090E+04 -1.532719E+04 -1.316895E+04  1.815597E+03  4.763911E+03
       140   2  9.623658E+04 -1.428153E+04 -1.211456E+04 -1.027695E+04  1.823349E+03  3.630100E+03
       140   3  1.137719E+05 -1.006198E+04 -8.906134E+03 -1.316650E+04  1.831032E+03  2.495680E+03
       140   4  1.555379E+05 -9.390635E+00  3.060964E+02 -1.312800E+04  5.097180E+02  4.763685E+03
       140   5  1.555372E+05 -2.917755E+00 -1.387745E+01 -1.023724E+04  5.167377E+02  3.629911E+03
       140   6  1.555386E+05  3.821182E+00 -3.376363E+02 -1.312800E+04  5.236882E+02  2.495528E+03
       140   7  2.323776E+05  1.848175E+04  1.593908E+04 -1.308705E+04 -7.963197E+02  4.763458E+03
       140   8  2.148411E+05  1.427548E+04  1.208662E+04 -1.019753E+04 -7.899960E+02  3.629721E+03
       140   9  1.973069E+05  1.006951E+04  8.230775E+03 -1.308950E+04 -7.837419E+02  2.495376E+03
       140  10  7.870384E+04 -1.850092E+04 -1.532724E+04 -1.316895E+04 -9.725539E-10 -7.190216E-10
       140  11  9.623658E+04 -1.428155E+04 -1.211459E+04 -1.027695E+04 -7.244515E-10 -7.461913E-11
       140  12  1.137719E+05 -1.006199E+04 -8.906152E+03 -1.316650E+04 -1.621659E-09  2.741181E-11
       140  13  1.555379E+05 -9.415074E+00  3.060532E+02 -1.312800E+04  1.325074E-11 -2.741364E-10
       140  14  1.555372E+05 -2.931977E+00 -1.390272E+01 -1.023724E+04 -4.760005E-11 -4.355690E-11
       140  15  1.555386E+05  3.814420E+00 -3.376486E+02 -1.312800E+04 -2.171476E-09  4.751627E-10
       140  16  2.323776E+05  1.848172E+04  1.593904E+04 -1.308704E+04  7.315430E-10  2.828858E-10
       140  17  2.148411E+05  1.427547E+04  1.208660E+04 -1.019753E+04  5.727029E-10 -1.271963E-10
       140  18  1.973069E+05  1.006951E+04  8.230762E+03 -1.308950E+04  1.960633E-10  6.028379E-10
       140  19  7.870384E+04 -1.850090E+04 -1.532719E+04 -1.316895E+04 -1.815597E+03 -4.763911E+03
       140  20  9.623658E+04 -1.428153E+04 -1.211456E+04 -1.027695E+04 -1.823349E+03 -3.630100E+03
       140  21  1.137719E+05 -1.006198E+04 -8.906134E+03 -1.316650E+04 -1.831032E+03 -2.495680E+03
       140  22  1.555379E+05 -9.390635E+00  3.060964E+02 -1.312800E+04 -5.097180E+02 -4.763685E+03
       140  23  1.555372E+05 -2.917755E+00 -1.387745E+01 -1.023724E+04 -5.167377E+02 -3.629911E+03
       140  24  1.555386E+05  3.821182E+00 -3.376363E+02 -1.312800E+04 -5.236882E+02 -2.495528E+03
       140  25  2.323776E+05  1.848175E+04  1.593908E+04 -1.308705E+04  7.963197E+02 -4.763458E+03
       140  26  2.148411E+05  1.427548E+04  1.208662E+04 -1.019753E+04  7.899960E+02 -3.629721E+03
       140  27  1.973069E+05  1.006951E+04  8.230775E+03 -1.308950E+04  7.837419E+02 -2.495376E+03
       141   1  1.265484E+05 -6.963379E+03 -6.398142E+03 -1.316877E+04  1.909924E+03  1.835300E+03
       141   2  1.441125E+05 -2.734336E+03 -3.397498E+03 -1.031103E+04  2.434374E+03  7.011126E+02
       141   3  1.616067E+05  1.479605E+03 -7.415702E+02 -1.323263E+04  2.958824E+03 -4.325166E+02
       141   4  1.555227E+05  3.781263E+00 -5.320577E+02 -1.312752E+04  6.027642E+02  1.835161E+03
       141   5  1.555579E+05  2.141603E+01 -1.062288E+03 -1.023785E+04  1.127846E+03  7.009809E+02
       141   6  1.555229E+05  2.385063E+01 -1.937678E+03 -1.312753E+04  1.652913E+03 -4.326404E+02
       141   7  1.844977E+05  6.970890E+03  5.333989E+03 -1.308626E+04 -7.044555E+02  1.835022E+03
       141   8  1.670034E+05  2.777160E+03  1.272922E+03 -1.016467E+04 -1.787060E+02  7.008489E+02
       141   9  1.494390E+05 -1.431905E+03 -3.133780E+03 -1.302242E+04  3.470152E+02 -4.327646E+02
       141  10  1.265484E+05 -6.963383E+03 -6.398155E+03 -1.316878E+04  1.542418E-09 -1.287341E-10
       141  11  1.441125E+05 -2.734338E+03 -3.397510E+03 -1.031103E+04 -1.792280E-09 -4.247520E-11
       141  12  1.616067E+05  1.479602E+03 -7.415870E+02 -1.323263E+04 -1.338067E-10 -2.966979E-10
       141  13  1.555227E+05  3.777549E+00 -5.320647E+02 -1.312752E+04 -9.436332E-10  3.105760E-10
       141  14  1.555579E+05  2.141516E+01 -1.062291E+03 -1.023785E+04  6.327840E-10 -2.424927E-10
       141  15  1.555229E+05  2.384969E+01 -1.937683E+03 -1.312753E+04  6.032904E-10 -6.222212E-12
       141  16  1.844977E+05  6.970886E+03  5.333982E+03 -1.308626E+04 -1.515384E-09  3.532597E-10
       141  17  1.670034E+05  2.777160E+03  1.272921E+03 -1.016467E+04 -4.448829E-10 -6.986914E-10
       141  18  1.494390E+05 -1.431905E+03 -3.133781E+03 -1.302242E+04  1.101615E-09  3.252185E-10
       141  19  1.265484E+05 -6.963379E+03 -6.398142E+03 -1.316877E+04 -1.909924E+03 -1.835300E+03
       141  20  1.441125E+05 -2.734336E+03 -3.397498E+03 -1.031103E+04 -2.434374E+03 -7.011126E+02
       141  21  1.616067E+05  1.479605E+03 -7.415702E+02 -1.323263E+04 -2.958824E+03  4.325166E+02
       141  22  1.555227E+05  3.781263E+00 -5.320577E+02 -1.312752E+04 -6.027642E+02 -1.835161E+03
       141  23  1.555579E+05  2.141603E+01 -1.062288E+03 -1.023785E+04 -1.127846E+03 -7.009809E+02
       141  24  1.555229E+05  2.385063E+01 -1.937678E+03 -1.312753E+04 -1.652913E+03  4.326404E+02
       141  25  1.844977E+05  6.970890E+03  5.333989E+03 -1.308626E+04  7.044555E+02 -1.835022E+03
       141  26  1.670034E+05  2.777160E+03  1.272922E+03 -1.016467E+04  1.787060E+02 -7.008489E+02
       141  27  1.494390E+05 -1.431905E+03 -3.133780E+03 -1.302242E+04 -3.470152E+02  4.327646E+02
       142   1  1.743367E+05  4.593555E+03  1.320984E+03 -1.328241E+04  3.370017E+03 -1.093210E+03
       142   2  1.920421E+05  8.844667E+03  2.910502E+03 -1.045513E+04  5.595888E+03 -2.223261E+03
       142   3  2.094003E+05  1.285693E+04  2.992009E+03 -1.340748E+04  7.821819E+03 -3.342460E+03
       142   4  1.554608E+05  3.952014E+01 -2.576979E+03 -1.312760E+04  2.061319E+03 -1.093338E+03
       142   5  1.556354E+05  7.843632E+01 -4.521500E+03 -1.023778E+04  4.299564E+03 -2.223410E+03
       142   6  1.554606E+05 -1.235944E+02 -7.982651E+03 -1.312760E+04  6.537808E+03 -3.342629E+03
       142   7  1.365852E+05 -4.514537E+03 -6.474955E+03 -1.297279E+04  7.526595E+02 -1.093467E+03
       142   8  1.192300E+05 -8.687876E+03 -1.195357E+04 -1.002044E+04  3.003314E+03 -2.223560E+03
       142   9  1.015238E+05 -1.310430E+04 -1.895746E+04 -1.284774E+04  5.253907E+03 -3.342798E+03
       142  10  1.743367E+05  4.593551E+03  1.320960E+03 -1.328241E+04  8.111813E-10  1.897919E-10
       142  11  1.920420E+05  8.844653E+03  2.910434E+03 -1.045512E+04  1.098302E-09  2.214082E-10
       142  12  2.094002E+05  1.285690E+04  2.991873E+03 -1.340746E+04  1.033846E-09 -2.624806E-10
       142  13  1.554608E+05  3.951772E+01 -2.576989E+03 -1.312760E+04  1.395737E-11  1.946280E-10
       142  14  1.556354E+05  7.842605E+01 -4.521544E+03 -1.023777E+04 -6.124787E-10 -2.772932E-10
       142  15  1.554606E+05 -1.236179E+02 -7.982752E+03 -1.312758E+04  6.876360E-10 -1.295708E-10
       142  16  1.365852E+05 -4.514538E+03 -6.474958E+03 -1.297279E+04 -5.613741E-10  2.914961E-10
       142  17  1.192300E+05 -8.687884E+03 -1.195359E+04 -1.002043E+04  8.044794E-11 -4.166851E-10
       142  18  1.015237E+05 -1.310432E+04 -1.895753E+04 -1.284773E+04  5.372425E-11  2.272132E-10
       142  19  1.743367E+05  4.593555E+03  1.320984E+03 -1.328241E+04 -3.370017E+03  1.093210E+03
       142  20  1.920421E+05  8.844667E+03  2.910502E+03 -1.045513E+04 -5.595888E+03  2.223261E+03
       142  21  2.094003E+05  1.285693E+04  2.992009E+03 -1.340748E+04 -7.821819E+03  3.342460E+03
       142  22  1.554608E+05  3.952014E+01 -2.576979E+03 -1.312760E+04 -2.061319E+03  1.093338E+03
       142  23  1.556354E+05  7.843632E+01 -4.521500E+03 -1.023778E+04 -4.299564E+03  2.223410E+03
       142  24  1.554606E+05 -1.235944E+02 -7.982651E+03 -1.312760E+04 -6.537808E+03  3.342629E+03
       142  25  1.365852E+05 -4.514537E+03 -6.474955E+03 -1.297279E+04 -7.526595E+02  1.093467E+03
       142  26  1.192300E+05 -8.687876E+03 -1.195357E+04 -1.002044E+04 -3.003314E+03  2.223560E+03
       142  27  1.015238E+05 -1.310430E+04 -1.895746E+04 -1.284774E+04 -5.253907E+03  3.342798E+03
       143   1  2.217373E+05  1.638593E+04  3.190940E+03 -1.429455E+04  9.503882E+03 -4.012014E+03
       143   2  2.404844E+05  2.018013E+04 -1.017468E+03 -9.906300E+03  1.839667E+04 -5.065230E+03
       143   3  2.568259E+05  1.896077E+04 -1.226550E+04 -1.128854E+04  2.728977E+04 -5.909670E+03
       143   4  1.549939E+05  3.060085E+02 -1.048150E+04 -1.312583E+04  8.167918E+03 -4.012197E+03
       143   5  1.562183E+05 -1.215464E+02 -1.827853E+04 -1.024010E+04  1.730007E+04 -5.065458E+03
       143   6  1.549944E+05 -5.604774E+03 -3.328225E+04 -1.312498E+04  2.643230E+04 -5.909971E+03
       143   7  8.825466E+04 -1.577418E+04 -2.415416E+04 -1.195724E+04  6.832095E+03 -4.012386E+03
       143   8  7.195892E+04 -2.042367E+04 -3.553996E+04 -1.057385E+04  1.620362E+04 -5.065685E+03
       143   9  5.317280E+04 -3.017096E+04 -5.429956E+04 -1.496111E+04  2.557498E+04 -5.910267E+03
       143  10  2.217372E+05  1.638588E+04  3.190740E+03 -1.429451E+04  4.511025E-10 -6.482147E-10
       143  11  2.404841E+05  2.018001E+04 -1.018152E+03 -9.906225E+03 -1.905481E-09 -5.203651E-10
       143  12  2.568251E+05  1.896054E+04 -1.226697E+04 -1.128841E+04 -2.639576E-12  2.558398E-10
       143  13  1.549938E+05  3.059733E+02 -1.048165E+04 -1.312580E+04  1.995272E-11 -1.497285E-10
       143  14  1.562180E+05 -1.216543E+02 -1.827914E+04 -1.024003E+04 -1.095791E-09  1.691730E-11
       143  15  1.549937E+05 -5.604999E+03 -3.328363E+04 -1.312485E+04 -9.821115E-10  3.477124E-10
       143  16  8.825461E+04 -1.577421E+04 -2.415428E+04 -1.195722E+04 -6.886001E-10  6.889104E-10
       143  17  7.195863E+04 -2.042377E+04 -3.554050E+04 -1.057379E+04 -9.755722E-11  9.304848E-10
       143  18  5.317209E+04 -3.017118E+04 -5.430086E+04 -1.496098E+04  4.676230E-10  4.024764E-10
       143  19  2.217373E+05  1.638593E+04  3.190940E+03 -1.429455E+04 -9.503882E+03  4.012014E+03
       143  20  2.404844E+05  2.018013E+04 -1.017468E+03 -9.906300E+03 -1.839667E+04  5.065230E+03
       143  21  2.568259E+05  1.896077E+04 -1.226550E+04 -1.128854E+04 -2.728977E+04  5.909670E+03
       143  22  1.549939E+05  3.060085E+02 -1.048150E+04 -1.312583E+04 -8.167918E+03  4.012197E+03
       143  23  1.562183E+05 -1.215464E+02 -1.827853E+04 -1.024010E+04 -1.730007E+04  5.065458E+03
       143  24  1.549944E+05 -5.604774E+03 -3.328225E+04 -1.312498E+04 -2.643230E+04  5.909971E+03
       143  25  8.825466E+04 -1.577418E+04 -2.415416E+04 -1.195724E+04 -6.832095E+03  4.012386E+03
       143  26  7.195892E+04 -2.042367E+04 -3.553996E+04 -1.057385E+04 -1.620362E+04  5.065685E+03
       143  27  5.317280E+04 -3.017096E+04 -5.429956E+04 -1.496111E+04 -2.557498E+04  5.910267E+03
       144   1  2.629689E+05  3.198842E+04 -1.890671E+04 -3.017672E+04  3.406333E+04 -6.747140E+03
       144   2  2.966769E+05  2.162572E+04 -4.630956E+04  1.802244E+04  6.861675E+04 -6.344301E+03
       144   3  2.981451E+05 -9.977484E+04 -1.239533E+05  6.067146E+04  1.031706E+05 -1.971742E+03
       144   4  1.481938E+05  4.322065E+03 -4.252840E+04 -1.308355E+04  3.222609E+04 -6.746643E+03
       144   5  1.647213E+05 -1.041752E+04 -7.452165E+04 -1.029265E+04  7.134150E+04 -6.346917E+03
       144   6  1.482050E+05 -1.370076E+05 -1.599310E+05 -1.305131E+04  1.104560E+05 -1.982145E+03
       144   7  3.343186E+04 -2.334402E+04 -6.615062E+04  4.006400E+03  3.038918E+04 -6.746246E+03
       144   8  3.278375E+04 -4.245888E+04 -1.027343E+05 -3.860164E+04  7.406567E+04 -6.349783E+03
       144   9 -1.702825E+03 -1.742215E+05 -1.959072E+05 -8.675621E+04  1.177396E+05 -1.994279E+03
       144  10  2.629677E+05  3.198806E+04 -1.890898E+04 -3.017653E+04  8.959212E-10 -1.849920E-10
       144  11  2.966719E+05  2.162442E+04 -4.631848E+04  1.802279E+04 -5.315492E-10 -1.551710E-09
       144  12  2.981337E+05 -9.977770E+04 -1.239733E+05  6.067163E+04 -1.110370E-09 -5.180523E-10
       144  13  1.481927E+05  4.321737E+03 -4.253044E+04 -1.308338E+04  2.006418E-09 -8.845272E-10
       144  14  1.647158E+05 -1.041893E+04 -7.453129E+04 -1.029229E+04  1.245433E-09 -4.831745E-10
       144  15  1.481919E+05 -1.370108E+05 -1.599539E+05 -1.305113E+04 -1.778045E-09 -4.667350E-10
       144  16  3.343086E+04 -2.334432E+04 -6.615244E+04  4.006565E+03 -2.476075E-09 -3.072535E-10
       144  17  3.277785E+04 -4.246039E+04 -1.027447E+05 -3.860126E+04 -3.165217E-10 -5.014817E-10
       144  18 -1.717714E+03 -1.742252E+05 -1.959332E+05 -8.675602E+04  3.021677E-10 -4.985813E-10
       144  19  2.629689E+05  3.198842E+04 -1.890671E+04 -3.017672E+04 -3.406333E+04  6.747140E+03
       144  20  2.966769E+05  2.162572E+04 -4.630956E+04  1.802244E+04 -6.861675E+04  6.344301E+03
       144  21  2.981451E+05 -9.977484E+04 -1.239533E+05  6.067146E+04 -1.031706E+05  1.971742E+03
       144  22  1.481938E+05  4.322065E+03 -4.252840E+04 -1.308355E+04 -3.222609E+04  6.746643E+03
       144  23  1.647213E+05 -1.041752E+04 -7.452165E+04 -1.029265E+04 -7.134150E+04  6.346917E+03
       144  24  1.482050E+05 -1.370076E+05 -1.599310E+05 -1.305131E+04 -1.104560E+05  1.982145E+03
       144  25  3.343186E+04 -2.334402E+04 -6.615062E+04  4.006400E+03 -3.038918E+04  6.746246E+03
       144  26  3.278375E+04 -4.245888E+04 -1.027343E+05 -3.860164E+04 -7.406567E+04  6.349783E+03
       144  27 -1.702825E+03 -1.742215E+05 -1.959072E+05 -8.675621E+04 -1.177396E+05  1.994279E+03
       145   1  3.442088E+05  1.367638E+06  3.347011E+05 -2.300857E+05  1.642373E+04  6.141798E+04
       145   2  2.591657E+05  1.059202E+06  2.316293E+05 -1.798220E+05  4.889441E+04  1.702331E+04
       145   3  1.848895E+05  7.593627E+05  1.601238E+05 -2.276068E+05  4.388117E+04 -2.737562E+04
       145   4  3.708875E+03 -5.361184E+03  4.089417E+03 -2.272038E+05  1.648285E+04  2.377249E+03
       145   5  4.254614E+02 -5.772551E+03  2.240461E+03 -1.781769E+05  4.891961E+04  1.250495E+03
       145   6  4.216973E+02 -5.161980E+03  1.958391E+03 -2.272075E+05  4.384359E+04  9.780509E+01
       145   7 -3.369265E+05 -1.376631E+06 -3.266436E+05 -2.243275E+05  1.654150E+04 -5.653361E+04
       145   8 -2.583891E+05 -1.069682E+06 -2.272142E+05 -1.765341E+05  4.894474E+04 -1.449567E+04
       145   9 -1.840827E+05 -7.691314E+05 -1.562359E+05 -2.268083E+05  4.380602E+04  2.753801E+04
       145  10  3.442075E+05  1.367634E+06  3.346935E+05 -2.300865E+05 -3.227809E-10 -8.462216E-12
       145  11  2.591630E+05  1.059201E+06  2.316243E+05 -1.798227E+05 -1.600162E-09 -1.227021E-09
       145  12  1.848872E+05  7.593614E+05  1.601187E+05 -2.276059E+05 -1.004731E-09 -1.284830E-09
       145  13  3.708581E+03 -5.361263E+03  4.088896E+03 -2.272038E+05  1.222372E-09 -9.597988E-12
       145  14  4.228911E+02 -5.773195E+03  2.235960E+03 -1.781769E+05  6.408270E-10  4.723325E-10
       145  15  4.196332E+02 -5.162496E+03  1.954779E+03 -2.272075E+05 -3.349899E-10 -2.000608E-09
       145  16 -3.369276E+05 -1.376634E+06 -3.266502E+05 -2.243267E+05  2.190158E-10 -9.406843E-10
       145  17 -2.583918E+05 -1.069683E+06 -2.272191E+05 -1.765336E+05  7.610719E-10  1.241823E-09
       145  18 -1.840850E+05 -7.691327E+05 -1.562409E+05 -2.268093E+05  2.583052E-10 -1.629591E-11
       145  19  3.442088E+05  1.367638E+06  3.347011E+05 -2.300857E+05 -1.642373E+04 -6.141798E+04
       145  20  2.591657E+05  1.059202E+06  2.316293E+05 -1.798220E+05 -4.889441E+04 -1.702331E+04
       145  21  1.848895E+05  7.593627E+05  1.601238E+05 -2.276068E+05 -4.388117E+04  2.737562E+04
       145  22  3.708875E+03 -5.361184E+03  4.089417E+03 -2.272038E+05 -1.648285E+04 -2.377249E+03
       145  23  4.254614E+02 -5.772551E+03  2.240461E+03 -1.781769E+05 -4.891961E+04 -1.250495E+03
       145  24  4.216973E+02 -5.161980E+03  1.958391E+03 -2.272075E+05 -4.384359E+04 -9.780509E+01
       145  25 -3.369265E+05 -1.376631E+06 -3.266436E+05 -2.243275E+05 -1.654150E+04  5.653361E+04
       145  26 -2.583891E+05 -1.069682E+06 -2.272142E+05 -1.765341E+05 -4.894474E+04  1.449567E+04
       145  27 -1.840827E+05 -7.691314E+05 -1.562359E+05 -2.268083E+05 -4.380602E+04 -2.753801E+04
       146   1  1.314433E+05  5.362700E+05  1.143716E+05 -2.284031E+05  3.069844E+04 -1.878135E+04
       146   2  5.782779E+04  2.324336E+05  5.130064E+04 -1.778975E+05  1.431415E+04 -2.081777E+04
       146   3 -1.469258E+04 -7.107406E+04 -1.025335E+04 -2.273142E+05 -2.705308E+03 -2.285837E+04
       146   4  6.920787E+02 -5.302948E+03  2.022077E+03 -2.276217E+05  3.067045E+04 -2.588057E+02
       146   5  5.348432E+02 -5.337511E+03  2.575296E+03 -1.776589E+05  1.428290E+04 -1.566876E+03
       146   6  1.351492E+03 -5.257978E+03  4.141791E+03 -2.276207E+05 -2.740213E+03 -2.880076E+03
       146   7 -1.300776E+05 -5.465974E+05 -1.103421E+05 -2.268408E+05  3.064250E+04  1.824787E+04
       146   8 -5.676145E+04 -2.430541E+05 -4.615167E+04 -1.774204E+05  1.425167E+04  1.767678E+04
       146   9  1.739549E+04  6.056302E+04  1.853817E+04 -2.279272E+05 -2.775135E+03  1.710031E+04
       146  10  1.314422E+05  5.362693E+05  1.143691E+05 -2.284026E+05 -8.927839E-10  2.043134E-10
       146  11  5.782745E+04  2.324331E+05  5.129945E+04 -1.778972E+05  2.354517E-10 -1.458723E-09
       146  12 -1.469273E+04 -7.107463E+04 -1.025434E+04 -2.273143E+05 -6.944777E-10 -1.488961E-09
       146  13  6.910686E+02 -5.303201E+03  2.020309E+03 -2.276217E+05 -1.466393E-10  3.128134E-11
       146  14  5.346235E+02 -5.337568E+03  2.574908E+03 -1.776589E+05  1.663895E-10  8.054492E-10
       146  15  1.351482E+03 -5.257989E+03  4.141761E+03 -2.276207E+05 -1.606355E-09 -2.448809E-09
       146  16 -1.300787E+05 -5.465980E+05 -1.103445E+05 -2.268413E+05 -9.203000E-10 -2.252402E-09
       146  17 -5.676176E+04 -2.430545E+05 -4.615264E+04 -1.774206E+05 -1.601494E-09  1.507782E-09
       146  18  1.739541E+04  6.056270E+04  1.853760E+04 -2.279271E+05 -1.156965E-09 -2.045601E-11
       146  19  1.314433E+05  5.362700E+05  1.143716E+05 -2.284031E+05 -3.069844E+04  1.878135E+04
       146  20  5.782779E+04  2.324336E+05  5.130064E+04 -1.778975E+05 -1.431415E+04  2.081777E+04
       146  21 -1.469258E+04 -7.107406E+04 -1.025335E+04 -2.273142E+05  2.705308E+03  2.285837E+04
       146  22  6.920787E+02 -5.302948E+03  2.022077E+03 -2.276217E+05 -3.067045E+04  2.588057E+02
       146  23  5.348432E+02 -5.337511E+03  2.575296E+03 -1.776589E+05 -1.428290E+04  1.566876E+03
       146  24  1.351492E+03 -5.257978E+03  4.141791E+03 -2.276207E+05  2.740213E+03  2.880076E+03
       146  25 -1.300776E+05 -5.465974E+05 -1.103421E+05 -2.268408E+05 -3.064250E+04 -1.824787E+04
       146  26 -5.676145E+04 -2.430541E+05 -4.615167E+04 -1.774204E+05 -1.425167E+04 -1.767678E+04
       146  27  1.739549E+04  6.056302E+04  1.853817E+04 -2.279272E+05  2.775135E+03 -1.710031E+04
       147   1 -6.956900E+04 -2.926971E+05 -5.535228E+04 -2.289883E+05 -1.535865E+04 -2.940430E+04
       147   2 -1.420104E+05 -5.957825E+05 -1.198256E+05 -1.740544E+05 -2.508163E+04 -4.734020E+03
       147   3 -2.061544E+05 -9.001163E+05 -1.983527E+05 -2.178322E+05 -9.381097E+03  1.995275E+04
       147   4  1.822028E+02 -4.468256E+03  5.158005E+03 -2.273543E+05 -1.540256E+04 -3.623853E+03
       147   5  1.639983E+03 -6.394454E+03  8.759975E+03 -1.779914E+05 -2.507452E+04 -8.224737E+03
       147   6  1.647793E+04 -4.578803E+03  1.864173E+04 -2.273315E+05 -9.334344E+03 -1.279670E+04
       147   7  6.992844E+04  2.838405E+05  6.566615E+04 -2.257195E+05 -1.544633E+04  2.216838E+04
       147   8  1.452673E+05  5.833193E+05  1.373247E+05 -1.819321E+05 -2.506738E+04 -1.171873E+04
       147   9  2.390523E+05  8.916945E+05  2.355825E+05 -2.368443E+05 -9.286627E+03 -4.559328E+04
       147  10 -6.956949E+04 -2.926980E+05 -5.535435E+04 -2.289887E+05 -1.974163E-09  1.365717E-09
       147  11 -1.420111E+05 -5.957827E+05 -1.198269E+05 -1.740545E+05  2.289937E-10 -6.269618E-10
       147  12 -2.061546E+05 -9.001168E+05 -1.983536E+05 -2.178320E+05  1.375124E-10 -1.295590E-09
       147  13  1.819445E+02 -4.468333E+03  5.157535E+03 -2.273544E+05 -1.070514E-09 -3.990537E-11
       147  14  1.639290E+03 -6.394696E+03  8.758666E+03 -1.779916E+05  1.164882E-09  6.908766E-10
       147  15  1.647779E+04 -4.579002E+03  1.864126E+04 -2.273316E+05 -1.235269E-11 -1.807763E-09
       147  16  6.992805E+04  2.838399E+05  6.566478E+04 -2.257193E+05 -1.695805E-09 -3.626743E-09
       147  17  1.452666E+05  5.833190E+05  1.373233E+05 -1.819323E+05 -1.296850E-09  6.538858E-10
       147  18  2.390516E+05  8.916923E+05  2.355784E+05 -2.368446E+05  3.994339E-10  2.344938E-10
       147  19 -6.956900E+04 -2.926971E+05 -5.535228E+04 -2.289883E+05  1.535865E+04  2.940430E+04
       147  20 -1.420104E+05 -5.957825E+05 -1.198256E+05 -1.740544E+05  2.508163E+04  4.734020E+03
       147  21 -2.061544E+05 -9.001163E+05 -1.983527E+05 -2.178322E+05  9.381097E+03 -1.995275E+04
       147  22  1.822028E+02 -4.468256E+03  5.158005E+03 -2.273543E+05  1.540256E+04  3.623853E+03
       147  23  1.639983E+03 -6.394454E+03  8.759975E+03 -1.779914E+05  2.507452E+04  8.224737E+03
       147  24  1.647793E+04 -4.578803E+03  1.864173E+04 -2.273315E+05  9.334344E+03  1.279670E+04
       147  25  6.992844E+04  2.838405E+05  6.566615E+04 -2.257195E+05  1.544633E+04 -2.216838E+04
       147  26  1.452673E+05  5.833193E+05  1.373247E+05 -1.819321E+05  2.506738E+04  1.171873E+04
       147  27  2.390523E+05  8.916945E+05  2.355825E+05 -2.368443E+05  9.286627E+03  4.559328E+04
       148   1 -5.100833E+05 -2.293105E+05 -1.343574E+05 -1.986695E+05 -4.092713E+04 -9.143093E+03
       148   2 -4.603524E+05 -1.708480E+05 -9.199898E+04 -1.770140E+05 -2.553414E+04  9.701698E+03
       148   3 -4.084702E+05 -1.497186E+05 -7.072737E+04 -1.654219E+05 -5.897891E+03  1.725417E+04
       148   4 -1.320549E+05 -7.440239E+04 -3.192492E+04 -8.236086E+04 -2.250465E+04 -2.228041E+03
       148   5 -1.325786E+05 -4.451326E+04 -1.414612E+04 -8.199089E+04 -1.927874E+04  1.204846E+04
       148   6 -1.285377E+05 -4.953910E+04 -7.803984E+03 -9.168694E+04 -1.181293E+04  1.503411E+04
       148   7  2.461156E+05  8.052319E+04  7.049688E+04  3.401532E+04 -4.069743E+03  4.692639E+03
       148   8  1.953036E+05  8.183206E+04  6.369956E+04  1.307916E+04 -1.301972E+04  1.439669E+04
       148   9  1.514735E+05  5.064511E+04  5.511457E+04 -1.792207E+04 -1.773086E+04  1.281305E+04
       148  10 -5.100851E+05 -2.293110E+05 -1.343607E+05 -1.986698E+05 -1.847223E-08 -6.872453E-09
       148  11 -4.603532E+05 -1.708483E+05 -9.200039E+04 -1.770138E+05 -3.834030E-09 -2.799203E-09
       148  12 -4.084703E+05 -1.497189E+05 -7.072800E+04 -1.654218E+05  1.484350E-08  6.294080E-09
       148  13 -1.320554E+05 -7.440253E+04 -3.192588E+04 -8.236090E+04 -8.621771E-10 -7.035244E-10
       148  14 -1.325791E+05 -4.451352E+04 -1.414709E+04 -8.199071E+04 -5.244725E-09 -2.863696E-09
       148  15 -1.285379E+05 -4.953938E+04 -7.804671E+03 -9.168680E+04 -3.410604E-09 -9.937787E-10
       148  16  2.461156E+05  8.052316E+04  7.049681E+04  3.401533E+04  1.390328E-08  5.490601E-09
       148  17  1.953033E+05  8.183179E+04  6.369885E+04  1.307931E+04 -8.474636E-09 -3.582759E-09
       148  18  1.514731E+05  5.064485E+04  5.511367E+04 -1.792188E+04 -2.193731E-08 -7.644264E-09
       148  19 -5.100833E+05 -2.293105E+05 -1.343574E+05 -1.986695E+05  4.092713E+04  9.143093E+03
       148  20 -4.603524E+05 -1.708480E+05 -9.199898E+04 -1.770140E+05  2.553414E+04 -9.701698E+03
       148  21 -4.084702E+05 -1.497186E+05 -7.072737E+04 -1.654219E+05  5.897891E+03 -1.725417E+04
       148  22 -1.320549E+05 -7.440239E+04 -3.192492E+04 -8.236086E+04  2.250465E+04  2.228041E+03
       148  23 -1.325786E+05 -4.451326E+04 -1.414612E+04 -8.199089E+04  1.927874E+04 -1.204846E+04
       148  24 -1.285377E+05 -4.953910E+04 -7.803984E+03 -9.168694E+04  1.181293E+04 -1.503411E+04
       148  25  2.461156E+05  8.052319E+04  7.049688E+04  3.401532E+04  4.069743E+03 -4.692639E+03
       148  26  1.953036E+05  8.183206E+04  6.369956E+04  1.307916E+04  1.301972E+04 -1.439669E+04
       148  27  1.514735E+05  5.064511E+04  5.511457E+04 -1.792207E+04  1.773086E+04 -1.281305E+04
       149   1 -3.634092E+05 -1.389751E+05 -5.986812E+04 -1.559258E+05 -6.916728E+03  1.364377E+04
       149   2 -3.154935E+05 -1.104237E+05 -4.423172E+04 -1.329493E+05 -3.604074E+03  1.152084E+04
       149   3 -2.543152E+05 -9.698370E+04 -3.053888E+04 -1.257551E+05 -8.608654E+01  8.848859E+03
       149   4 -1.274624E+05 -5.141275E+04 -6.094221E+03 -9.059059E+04 -9.802651E+03  1.256061E+04
       149   5 -1.340687E+05 -4.335303E+04 -3.197647E+03 -8.290861E+04 -7.081331E+03  1.021624E+04
       149   6 -1.272980E+05 -5.028745E+04 -1.775471E+03 -9.101004E+04 -4.154907E+03  7.322840E+03
       149   7  1.085389E+05  3.615335E+04  4.767565E+04 -2.523299E+04 -1.268975E+04  1.147700E+04
       149   8  4.738922E+04  2.372012E+04  3.783435E+04 -3.285454E+04 -1.055969E+04  8.911232E+03
       149   9 -2.638656E+02 -3.589709E+03  2.698717E+04 -5.625828E+04 -8.224655E+03  5.796476E+03
       149  10 -3.634093E+05 -1.389753E+05 -5.986856E+04 -1.559258E+05  1.517242E-09  1.795158E-09
       149  11 -3.154935E+05 -1.104238E+05 -4.423200E+04 -1.329493E+05  6.685943E-11  8.726097E-10
       149  12 -2.543152E+05 -9.698378E+04 -3.053902E+04 -1.257551E+05  2.006304E-09  9.478812E-11
       149  13 -1.274625E+05 -5.141294E+04 -6.094698E+03 -9.059049E+04 -1.295182E-09  7.021175E-10
       149  14 -1.340688E+05 -4.335315E+04 -3.197937E+03 -8.290855E+04 -2.230234E-09  3.084599E-10
       149  15 -1.272981E+05 -5.028751E+04 -1.775604E+03 -9.101002E+04 -6.719620E-10 -1.516272E-10
       149  16  1.085387E+05  3.615316E+04  4.767510E+04 -2.523287E+04 -4.383590E-09 -6.215348E-10
       149  17  4.738907E+04  2.372001E+04  3.783399E+04 -3.285447E+04 -3.575776E-09  3.127141E-10
       149  18 -2.639472E+02 -3.589763E+03  2.698698E+04 -5.625824E+04 -2.732464E-09 -4.409278E-10
       149  19 -3.634092E+05 -1.389751E+05 -5.986812E+04 -1.559258E+05  6.916728E+03 -1.364377E+04
       149  20 -3.154935E+05 -1.104237E+05 -4.423172E+04 -1.329493E+05  3.604074E+03 -1.152084E+04
       149  21 -2.543152E+05 -9.698370E+04 -3.053888E+04 -1.257551E+05  8.608654E+01 -8.848859E+03
       149  22 -1.274624E+05 -5.141275E+04 -6.094221E+03 -9.059059E+04  9.802651E+03 -1.256061E+04
       149  23 -1.340687E+05 -4.335303E+04 -3.197647E+03 -8.290861E+04  7.081331E+03 -1.021624E+04
       149  24 -1.272980E+05 -5.028745E+04 -1.775471E+03 -9.101004E+04  4.154907E+03 -7.322840E+03
       149  25  1.085389E+05  3.615335E+04  4.767565E+04 -2.523299E+04  1.268975E+04 -1.147700E+04
       149  26  4.738922E+04  2.372012E+04  3.783435E+04 -3.285454E+04  1.055969E+04 -8.911232E+03
       149  27 -2.638656E+02 -3.589709E+03  2.698717E+04 -5.625828E+04  8.224655E+03 -5.796476E+03
       150   1 -2.130271E+05 -8.197610E+04 -2.052891E+04 -1.145552E+05  8.356655E+02  6.709451E+03
       150   2 -1.652729E+05 -5.478199E+04 -7.778963E+03 -9.148612E+04  2.618729E+03  3.213900E+03
       150   3 -1.036102E+05 -4.162959E+04  4.648239E+03 -8.443494E+04  4.411656E+03 -3.084568E+02
       150   4 -1.272183E+05 -5.036844E+04 -1.352740E+03 -9.095113E+04 -3.086737E+03  5.238503E+03
       150   5 -1.341706E+05 -4.332963E+04 -7.711982E+02 -8.294925E+04 -1.332641E+03  1.732166E+03
       150   6 -1.272115E+05 -5.032684E+04 -4.892874E+02 -9.096629E+04  4.312718E+02 -1.800975E+03
       150   7 -4.140219E+04 -1.876021E+04  1.782303E+04 -6.734405E+04 -7.009725E+03  3.767336E+03
       150   8 -1.030675E+05 -3.187723E+04  6.236542E+03 -7.441201E+04 -5.284213E+03  2.503572E+02
       150   9 -1.508121E+05 -5.902397E+04 -5.626737E+03 -9.749737E+04 -3.548924E+03 -3.293421E+03
       150  10 -2.130271E+05 -8.197615E+04 -2.052900E+04 -1.145552E+05  7.720621E-10 -3.663851E-10
       150  11 -1.652729E+05 -5.478200E+04 -7.778995E+03 -9.148613E+04 -1.896447E-09 -1.659578E-10
       150  12 -1.036103E+05 -4.162960E+04  4.648203E+03 -8.443493E+04 -8.433551E-10  4.206353E-11
       150  13 -1.272184E+05 -5.036847E+04 -1.352809E+03 -9.095112E+04 -9.340981E-10 -3.895418E-10
       150  14 -1.341706E+05 -4.332963E+04 -7.712072E+02 -8.294925E+04  5.357521E-10 -1.249185E-10
       150  15 -1.272115E+05 -5.032684E+04 -4.892939E+02 -9.096629E+04 -9.098253E-10  3.185455E-10
       150  16 -4.140225E+04 -1.876024E+04  1.782291E+04 -6.734403E+04 -1.029702E-09 -4.254251E-10
       150  17 -1.030675E+05 -3.187723E+04  6.236490E+03 -7.441201E+04  1.055580E-09 -8.142206E-11
       150  18 -1.508121E+05 -5.902399E+04 -5.626781E+03 -9.749738E+04  7.755316E-10  7.015873E-10
       150  19 -2.130271E+05 -8.197610E+04 -2.052891E+04 -1.145552E+05 -8.356655E+02 -6.709451E+03
       150  20 -1.652729E+05 -5.478199E+04 -7.778963E+03 -9.148612E+04 -2.618729E+03 -3.213900E+03
       150  21 -1.036102E+05 -4.162959E+04  4.648239E+03 -8.443494E+04 -4.411656E+03  3.084568E+02
       150  22 -1.272183E+05 -5.036844E+04 -1.352740E+03 -9.095113E+04  3.086737E+03 -5.238503E+03
       150  23 -1.341706E+05 -4.332963E+04 -7.711982E+02 -8.294925E+04  1.332641E+03 -1.732166E+03
       150  24 -1.272115E+05 -5.032684E+04 -4.892874E+02 -9.096629E+04 -4.312718E+02  1.800975E+03
       150  25 -4.140219E+04 -1.876021E+04  1.782303E+04 -6.734405E+04  7.009725E+03 -3.767336E+03
       150  26 -1.030675E+05 -3.187723E+04  6.236542E+03 -7.441201E+04  5.284213E+03 -2.503572E+02
       150  27 -1.508121E+05 -5.902397E+04 -5.626737E+03 -9.749737E+04  3.548924E+03  3.293421E+03
       151   1 -6.251651E+04 -2.642312E+04  1.432600E+04 -7.315382E+04  5.285030E+03 -2.429975E+03
       151   2 -1.479484E+04  7.114718E+02  2.649565E+04 -5.007535E+04  6.861120E+03 -6.041103E+03
       151   3  4.688616E+04  1.386164E+04  3.852077E+04 -4.301267E+04  8.437975E+03 -9.652667E+03
       151   4 -1.272043E+05 -5.032950E+04 -4.208681E+02 -9.096106E+04  1.311882E+03 -3.919852E+03
       151   5 -1.341851E+05 -4.334149E+04 -3.889133E+02 -8.295150E+04  2.887152E+03 -7.531606E+03
       151   6 -1.272109E+05 -5.033902E+04 -5.012799E+02 -9.095982E+04  4.463154E+03 -1.114377E+04
       151   7 -1.918884E+05 -7.423581E+04 -1.516813E+04 -1.087668E+05 -2.660859E+03 -5.409576E+03
       151   8 -2.535605E+05 -8.739319E+04 -2.727420E+04 -1.158217E+05 -1.085972E+03 -9.021793E+03
       151   9 -3.012744E+05 -1.145362E+05 -3.952433E+04 -1.388938E+05  4.896106E+02 -1.263439E+04
       151  10 -6.251655E+04 -2.642313E+04  1.432593E+04 -7.315381E+04  1.445662E-09  4.152674E-10
       151  11 -1.479490E+04  7.114200E+02  2.649549E+04 -5.007531E+04 -4.403256E-10 -7.817279E-10
       151  12  4.688606E+04  1.386152E+04  3.852046E+04 -4.301260E+04 -2.231917E-09 -1.424101E-10
       151  13 -1.272043E+05 -5.032952E+04 -4.209002E+02 -9.096105E+04 -1.031244E-09 -6.935759E-11
       151  14 -1.341851E+05 -4.334156E+04 -3.890355E+02 -8.295148E+04  8.814463E-10 -8.030929E-10
       151  15 -1.272110E+05 -5.033916E+04 -5.015507E+02 -9.095978E+04 -1.129201E-09  6.400372E-10
       151  16 -1.918884E+05 -7.423584E+04 -1.516819E+04 -1.087668E+05 -1.447229E-09 -5.598464E-10
       151  17 -2.535605E+05 -8.739328E+04 -2.727435E+04 -1.158217E+05 -9.976620E-10 -7.187337E-10
       151  18 -3.012744E+05 -1.145363E+05 -3.952463E+04 -1.388938E+05  2.119973E-09  1.277820E-09
       151  19 -6.251651E+04 -2.642312E+04  1.432600E+04 -7.315382E+04 -5.285030E+03  2.429975E+03
       151  20 -1.479484E+04  7.114718E+02  2.649565E+04 -5.007535E+04 -6.861120E+03  6.041103E+03
       151  21  4.688616E+04  1.386164E+04  3.852077E+04 -4.301267E+04 -8.437975E+03  9.652667E+03
       151  22 -1.272043E+05 -5.032950E+04 -4.208681E+02 -9.096106E+04 -1.311882E+03  3.919852E+03
       151  23 -1.341851E+05 -4.334149E+04 -3.889133E+02 -8.295150E+04 -2.887152E+03  7.531606E+03
       151  24 -1.272109E+05 -5.033902E+04 -5.012799E+02 -9.095982E+04 -4.463154E+03  1.114377E+04
       151  25 -1.918884E+05 -7.423581E+04 -1.516813E+04 -1.087668E+05  2.660859E+03  5.409576E+03
       151  26 -2.535605E+05 -8.739319E+04 -2.727420E+04 -1.158217E+05  1.085972E+03  9.021793E+03
       151  27 -3.012744E+05 -1.145362E+05 -3.952433E+04 -1.388938E+05 -4.896106E+02  1.263439E+04
       152   1  8.793992E+04  2.907067E+04  4.801155E+04 -3.172961E+04  9.334959E+03 -1.176242E+04
       152   2  1.356390E+05  5.619125E+04  5.971656E+04 -8.658245E+03  1.122931E+04 -1.525200E+04
       152   3  1.972669E+05  6.932059E+04  7.104324E+04 -1.595369E+03  1.312354E+04 -1.873731E+04
       152   4 -1.272200E+05 -5.034057E+04 -6.154572E+02 -9.095918E+04  5.360720E+03 -1.325360E+04
       152   5 -1.341883E+05 -4.335470E+04 -1.037580E+03 -8.295201E+04  7.258994E+03 -1.674243E+04
       152   6 -1.272306E+05 -5.036127E+04 -1.840890E+03 -9.095483E+04  9.157098E+03 -2.022700E+04
       152   7 -3.423351E+05 -1.297490E+05 -4.924587E+04 -1.501705E+05  1.387942E+03 -1.474423E+04
       152   8 -4.039462E+05 -1.428966E+05 -6.179739E+04 -1.572173E+05  3.290490E+03 -1.823218E+04
       152   9 -4.516289E+05 -1.700376E+05 -7.473351E+04 -1.802734E+05  5.192823E+03 -2.171589E+04
       152  10  8.793979E+04  2.907050E+04  4.801112E+04 -3.172952E+04  1.648319E-09  1.426798E-09
       152  11  1.356388E+05  5.619096E+04  5.971589E+04 -8.658107E+03  5.321009E-10  3.266107E-11
       152  12  1.972666E+05  6.932017E+04  7.104226E+04 -1.595171E+03  9.636896E-10  5.845374E-10
       152  13 -1.272200E+05 -5.034077E+04 -6.158413E+02 -9.095913E+04 -1.555882E-09  1.036775E-09
       152  14 -1.341884E+05 -4.335502E+04 -1.038206E+03 -8.295191E+04  2.171045E-09  7.021083E-11
       152  15 -1.272308E+05 -5.036173E+04 -1.841816E+03 -9.095468E+04  3.633841E-09  9.362103E-10
       152  16 -3.423351E+05 -1.297492E+05 -4.924628E+04 -1.501704E+05 -2.476189E-09  1.755587E-10
       152  17 -4.039463E+05 -1.428969E+05 -6.179803E+04 -1.572172E+05  2.117630E-09  3.987055E-11
       152  18 -4.516291E+05 -1.700381E+05 -7.473444E+04 -1.802733E+05  4.494533E-09  1.338845E-09
       152  19  8.793992E+04  2.907067E+04  4.801155E+04 -3.172961E+04 -9.334959E+03  1.176242E+04
       152  20  1.356390E+05  5.619125E+04  5.971656E+04 -8.658245E+03 -1.122931E+04  1.525200E+04
       152  21  1.972669E+05  6.932059E+04  7.104324E+04 -1.595369E+03 -1.312354E+04  1.873731E+04
       152  22 -1.272200E+05 -5.034057E+04 -6.154572E+02 -9.095918E+04 -5.360720E+03  1.325360E+04
       152  23 -1.341883E+05 -4.335470E+04 -1.037580E+03 -8.295201E+04 -7.258994E+03  1.674243E+04
       152  24 -1.272306E+05 -5.036127E+04 -1.840890E+03 -9.095483E+04 -9.157098E+03  2.022700E+04
       152  25 -3.423351E+05 -1.297490E+05 -4.924587E+04 -1.501705E+05 -1.387942E+03  1.474423E+04
       152  26 -4.039462E+05 -1.428966E+05 -6.179739E+04 -1.572173E+05 -3.290490E+03  1.823218E+04
       152  27 -4.516289E+05 -1.700376E+05 -7.473351E+04 -1.802734E+05 -5.192823E+03  2.171589E+04
       153   1  2.382583E+05  8.450387E+04  8.003522E+04  9.624413E+03  1.429661E+04 -2.074396E+04
       153   2  2.860097E+05  1.116458E+05  9.017982E+04  3.273056E+04  1.782127E+04 -2.359664E+04
       153   3  3.473813E+05  1.245045E+05  9.865995E+04  3.985930E+04  2.132759E+04 -2.639452E+04
       153   4 -1.273005E+05 -5.035051E+04 -2.443671E+03 -9.098142E+04  1.031766E+04 -2.223889E+04
       153   5 -1.341298E+05 -4.333860E+04 -4.421902E+03 -8.294437E+04  1.389937E+04 -2.507119E+04
       153   6 -1.273526E+05 -5.062146E+04 -8.110201E+03 -9.088582E+04  1.746255E+04 -2.784876E+04
       153   7 -4.927184E+05 -1.851923E+05 -8.492926E+04 -1.915313E+05  6.341315E+03 -2.373284E+04
       153   8 -5.540874E+05 -1.983080E+05 -9.903367E+04 -1.985466E+05  9.980392E+03 -2.654466E+04
       153   9 -6.018587E+05 -2.257299E+05 -1.148944E+05 -2.215392E+05  1.360073E+04 -2.930179E+04
       153  10  2.382580E+05  8.450335E+04  8.003403E+04  9.624651E+03  4.952523E-09  1.387428E-09
       153  11  2.860092E+05  1.116451E+05  9.017817E+04  3.273089E+04  1.468276E-09 -8.796823E-10
       153  12  3.473806E+05  1.245036E+05  9.865779E+04  3.985976E+04 -3.433045E-10 -2.222495E-09
       153  13 -1.273008E+05 -5.035107E+04 -2.444801E+03 -9.098123E+04  9.626656E-10  6.353250E-10
       153  14 -1.341301E+05 -4.333933E+04 -4.423446E+03 -8.294409E+04 -1.166147E-09 -1.448527E-09
       153  15 -1.273531E+05 -5.062237E+04 -8.112231E+03 -9.088542E+04 -4.079844E-10 -2.175417E-09
       153  16 -4.927186E+05 -1.851929E+05 -8.493039E+04 -1.915312E+05  5.363922E-10 -2.837123E-10
       153  17 -5.540877E+05 -1.983087E+05 -9.903519E+04 -1.985463E+05 -1.290915E-09 -1.749674E-09
       153  18 -6.018591E+05 -2.257308E+05 -1.148964E+05 -2.215389E+05 -9.506836E-10 -9.672950E-10
       153  19  2.382583E+05  8.450387E+04  8.003522E+04  9.624413E+03 -1.429661E+04  2.074396E+04
       153  20  2.860097E+05  1.116458E+05  9.017982E+04  3.273056E+04 -1.782127E+04  2.359664E+04
       153  21  3.473813E+05  1.245045E+05  9.865995E+04  3.985930E+04 -2.132759E+04  2.639452E+04
       153  22 -1.273005E+05 -5.035051E+04 -2.443671E+03 -9.098142E+04 -1.031766E+04  2.223889E+04
       153  23 -1.341298E+05 -4.333860E+04 -4.421902E+03 -8.294437E+04 -1.389937E+04  2.507119E+04
       153  24 -1.273526E+05 -5.062146E+04 -8.110201E+03 -9.088582E+04 -1.746255E+04  2.784876E+04
       153  25 -4.927184E+05 -1.851923E+05 -8.492926E+04 -1.915313E+05 -6.341315E+03  2.373284E+04
       153  26 -5.540874E+05 -1.983080E+05 -9.903367E+04 -1.985466E+05 -9.980392E+03  2.654466E+04
       153  27 -6.018587E+05 -2.257299E+05 -1.148944E+05 -2.215392E+05 -1.360073E+04  2.930179E+04
       154   1  3.886581E+05  1.394112E+05  1.055698E+05  4.989540E+04  2.395547E+04 -2.792076E+04
       154   2  4.360222E+05  1.675930E+05  1.091732E+05  7.505414E+04  3.388420E+04 -2.796145E+04
       154   3  4.940018E+05  1.757740E+05  1.047120E+05  8.556884E+04  4.341211E+04 -2.692714E+04
       154   4 -1.278232E+05 -5.014509E+04 -1.073722E+04 -9.126869E+04  1.980458E+04 -2.948316E+04
       154   5 -1.335061E+05 -4.343468E+04 -1.948696E+04 -8.266909E+04  3.088376E+04 -2.909282E+04
       154   6 -1.288081E+05 -5.695921E+04 -3.721901E+04 -8.871637E+04  4.156112E+04 -2.762732E+04
       154   7 -6.440399E+05 -2.396832E+05 -1.270622E+05 -2.323267E+05  1.565739E+04 -3.104418E+04
       154   8 -7.027104E+05 -2.544379E+05 -1.481685E+05 -2.402604E+05  2.788629E+04 -3.022307E+04
       154   9 -7.512289E+05 -2.896610E+05 -1.791756E+05 -2.628411E+05  3.971213E+04 -2.832673E+04
       154  10  3.886573E+05  1.394102E+05  1.055672E+05  4.989594E+04 -4.054537E-09 -2.333028E-09
       154  11  4.360208E+05  1.675918E+05  1.091695E+05  7.505491E+04  1.053760E-09  2.849830E-09
       154  12  4.939996E+05  1.757728E+05  1.047071E+05  8.556978E+04  1.453072E-08  5.962748E-09
       154  13 -1.278238E+05 -5.014613E+04 -1.073959E+04 -9.126822E+04 -1.003862E-09 -1.742330E-09
       154  14 -1.335073E+05 -4.343585E+04 -1.949034E+04 -8.266837E+04 -3.882694E-09 -1.782626E-09
       154  15 -1.288101E+05 -5.696049E+04 -3.722369E+04 -8.871545E+04  1.833547E-09  1.947574E-09
       154  16 -6.440404E+05 -2.396843E+05 -1.270645E+05 -2.323263E+05  1.453957E-09  9.607738E-11
       154  17 -7.027115E+05 -2.544391E+05 -1.481717E+05 -2.402597E+05 -9.055880E-09 -4.407109E-09
       154  18 -7.512308E+05 -2.896623E+05 -1.791800E+05 -2.628402E+05 -1.058446E-08 -3.595298E-09
       154  19  3.886581E+05  1.394112E+05  1.055698E+05  4.989540E+04 -2.395547E+04  2.792076E+04
       154  20  4.360222E+05  1.675930E+05  1.091732E+05  7.505414E+04 -3.388420E+04  2.796145E+04
       154  21  4.940018E+05  1.757740E+05  1.047120E+05  8.556884E+04 -4.341211E+04  2.692714E+04
       154  22 -1.278232E+05 -5.014509E+04 -1.073722E+04 -9.126869E+04 -1.980458E+04  2.948316E+04
       154  23 -1.335061E+05 -4.343468E+04 -1.948696E+04 -8.266909E+04 -3.088376E+04  2.909282E+04
       154  24 -1.288081E+05 -5.695921E+04 -3.721901E+04 -8.871637E+04 -4.156112E+04  2.762732E+04
       154  25 -6.440399E+05 -2.396832E+05 -1.270622E+05 -2.323267E+05 -1.565739E+04  3.104418E+04
       154  26 -7.027104E+05 -2.544379E+05 -1.481685E+05 -2.402604E+05 -2.788629E+04  3.022307E+04
       154  27 -7.512289E+05 -2.896610E+05 -1.791756E+05 -2.628411E+05 -3.971213E+04  2.832673E+04
       155   1  5.454485E+05  1.859827E+05  1.029244E+05  7.156231E+04  5.643778E+04 -2.599030E+04
       155   2  5.723215E+05  2.382368E+05  8.169768E+04  1.459820E+05  7.721371E+04 -1.377432E+04
       155   3  5.620319E+05  1.515636E+05  9.419502E+03  2.387288E+05  8.968452E+04  2.048879E+04
       155   4 -1.349827E+05 -4.589545E+04 -4.768399E+04 -9.589062E+04  4.866233E+04 -2.891903E+04
       155   5 -1.247982E+05 -4.991363E+04 -8.643879E+04 -7.649104E+04  9.319236E+04 -7.765041E+03
       155   6 -1.565447E+05 -1.976676E+05 -1.951135E+05 -3.875272E+04  1.294094E+05  3.544296E+04
       155   7 -8.149491E+05 -2.777550E+05 -1.983204E+05 -2.631831E+05  4.089611E+04 -3.184493E+04
       155   8 -8.214221E+05 -3.379919E+05 -2.546077E+05 -2.987221E+05  1.091514E+05 -1.765063E+03
       155   9 -8.745864E+05 -5.467489E+05 -3.996838E+05 -3.159037E+05  1.690831E+05  5.036522E+04
       155  10  5.454449E+05  1.859811E+05  1.029172E+05  7.156349E+04 -1.221366E-08 -4.525702E-09
       155  11  5.723151E+05  2.382350E+05  8.168613E+04  1.459829E+05 -5.896156E-09 -4.331106E-09
       155  12  5.620232E+05  1.515610E+05  9.403614E+03  2.387273E+05  4.203573E-09  1.601011E-09
       155  13 -1.349855E+05 -4.589699E+04 -4.769001E+04 -9.588949E+04  4.546449E-09 -1.269049E-09
       155  14 -1.248075E+05 -4.991602E+04 -8.645522E+04 -7.649046E+04 -1.149319E-09  4.312955E-09
       155  15 -1.565631E+05 -1.976735E+05 -1.951474E+05 -3.875642E+04 -6.532459E-11  7.726760E-10
       155  16 -8.149512E+05 -2.777566E+05 -1.983255E+05 -2.631820E+05  2.059808E-08  8.570426E-09
       155  17 -8.214349E+05 -3.379951E+05 -2.546301E+05 -2.987219E+05  6.847434E-09  6.567324E-09
       155  18 -8.746178E+05 -5.467593E+05 -3.997424E+05 -3.159106E+05 -3.881851E-09 -3.178447E-10
       155  19  5.454485E+05  1.859827E+05  1.029244E+05  7.156231E+04 -5.643778E+04  2.599030E+04
       155  20  5.723215E+05  2.382368E+05  8.169768E+04  1.459820E+05 -7.721371E+04  1.377432E+04
       155  21  5.620319E+05  1.515636E+05  9.419502E+03  2.387288E+05 -8.968452E+04 -2.048879E+04
       155  22 -1.349827E+05 -4.589545E+04 -4.768399E+04 -9.589062E+04 -4.866233E+04  2.891903E+04
       155  23 -1.247982E+05 -4.991363E+04 -8.643879E+04 -7.649104E+04 -9.319236E+04  7.765041E+03
       155  24 -1.565447E+05 -1.976676E+05 -1.951135E+05 -3.875272E+04 -1.294094E+05 -3.544296E+04
       155  25 -8.149491E+05 -2.777550E+05 -1.983204E+05 -2.631831E+05 -4.089611E+04  3.184493E+04
       155  26 -8.214221E+05 -3.379919E+05 -2.546077E+05 -2.987221E+05 -1.091514E+05  1.765063E+03
       155  27 -8.745864E+05 -5.467489E+05 -3.996838E+05 -3.159037E+05 -1.690831E+05 -5.036522E+04
       156   1  1.912760E+05  1.906138E+06  2.108004E+05  4.040463E+04  5.177353E+03  1.308222E+05
       156   2  9.943092E+04  2.041072E+06  1.524327E+05  6.484909E+04  2.062890E+04  8.369313E+04
       156   3  1.174777E+05  2.209691E+06  1.521844E+05  1.357143E+05  3.228492E+04  3.655524E+04
       156   4  1.418617E+05  1.704836E+06  1.647911E+05  1.200806E+05  5.196565E+03  1.091132E+05
       156   5  1.479892E+04  1.688460E+06  8.123839E+04  9.685125E+04  2.063774E+04  6.673226E+04
       156   6 -3.175109E+03  1.704918E+06  5.251722E+04  1.200339E+05  3.228953E+04  2.435245E+04
       156   7  9.246860E+04  1.503587E+06  1.187843E+05  1.997306E+05  5.210225E+03  8.741117E+04
       156   8 -6.983677E+04  1.335970E+06  1.003926E+04  1.288349E+05  2.064483E+04  4.978081E+04
       156   9 -1.238424E+05  1.200390E+06 -4.716176E+04  1.043665E+05  3.229475E+04  1.215933E+04
       156  10  1.912714E+05  1.906119E+06  2.107683E+05  4.040408E+04  2.765248E-10  8.874350E-10
       156  11  9.942859E+04  2.041065E+06  1.524188E+05  6.484770E+04  5.777062E-10 -5.245396E-10
       156  12  1.174762E+05  2.209689E+06  1.521799E+05  1.357134E+05  1.102544E-10 -2.040855E-09
       156  13  1.418585E+05  1.704823E+06  1.647687E+05  1.200802E+05 -1.991435E-09  4.143785E-10
       156  14  1.479727E+04  1.688456E+06  8.122924E+04  9.685014E+04 -2.424134E-10  1.606623E-10
       156  15 -3.176388E+03  1.704917E+06  5.251415E+04  1.200333E+05 -7.578806E-10  6.288763E-10
       156  16  9.246652E+04  1.503578E+06  1.187700E+05  1.997303E+05  2.439073E-10 -7.809588E-10
       156  17 -6.983789E+04  1.335967E+06  1.003381E+04  1.288341E+05 -3.701284E-10  1.946252E-10
       156  18 -1.238435E+05  1.200389E+06 -4.716400E+04  1.043662E+05  4.409262E-12  1.787146E-09
       156  19  1.912760E+05  1.906138E+06  2.108004E+05  4.040463E+04 -5.177353E+03 -1.308222E+05
       156  20  9.943092E+04  2.041072E+06  1.524327E+05  6.484909E+04 -2.062890E+04 -8.369313E+04
       156  21  1.174777E+05  2.209691E+06  1.521844E+05  1.357143E+05 -3.228492E+04 -3.655524E+04
       156  22  1.418617E+05  1.704836E+06  1.647911E+05  1.200806E+05 -5.196565E+03 -1.091132E+05
       156  23  1.479892E+04  1.688460E+06  8.123839E+04  9.685125E+04 -2.063774E+04 -6.673226E+04
       156  24 -3.175109E+03  1.704918E+06  5.251722E+04  1.200339E+05 -3.228953E+04 -2.435245E+04
       156  25  9.246860E+04  1.503587E+06  1.187843E+05  1.997306E+05 -5.210225E+03 -8.741117E+04
       156  26 -6.983677E+04  1.335970E+06  1.003926E+04  1.288349E+05 -2.064483E+04 -4.978081E+04
       156  27 -1.238424E+05  1.200390E+06 -4.716176E+04  1.043665E+05 -3.229475E+04 -1.215933E+04
       157   1  1.514840E+05  2.311098E+06  1.677631E+05  1.166481E+05  3.819231E+04  3.013122E+04
       157   2  1.832053E+05  2.460736E+06  1.923719E+05  9.653342E+04  4.787775E+04  7.090046E+03
       157   3  2.257666E+05  2.616295E+06  2.346974E+05  1.227522E+05  5.534883E+04 -1.595169E+04
       157   4  4.960212E+03  1.698787E+06  4.607634E+04  1.200281E+05  3.820034E+04  1.662070E+04
       157   5  2.639931E+02  1.696038E+06  4.055810E+04  9.685994E+04  4.788853E+04 -3.629625E+03
       157   6  5.933654E+03  1.698711E+06  5.083543E+04  1.200279E+05  5.536121E+04 -2.387507E+04
       157   7 -1.415863E+05  1.086833E+06 -7.562843E+04  1.234047E+05  3.820822E+04  3.123175E+03
       157   8 -1.827128E+05  9.318969E+05 -1.112843E+05  9.718608E+04  4.789930E+04 -1.433640E+04
       157   9 -2.139509E+05  7.819266E+05 -1.330690E+05  1.173078E+05  5.537367E+04 -3.178700E+04
       157  10  1.514822E+05  2.311096E+06  1.677587E+05  1.166471E+05  1.318414E-09 -2.135423E-08
       157  11  1.832028E+05  2.460736E+06  1.923675E+05  9.653314E+04  3.794089E-09 -7.740876E-10
       157  12  2.257633E+05  2.616294E+06  2.346912E+05  1.227529E+05  9.977324E-10  2.244563E-08
       157  13  4.958570E+03  1.698786E+06  4.607307E+04  1.200276E+05  6.737419E-10  5.063296E-10
       157  14  2.615251E+02  1.696038E+06  4.055376E+04  9.686008E+04  2.344884E-09 -5.399383E-10
       157  15  5.930208E+03  1.698710E+06  5.082860E+04  1.200290E+05  4.976941E-10  1.028651E-09
       157  16 -1.415879E+05  1.086833E+06 -7.563119E+04  1.234047E+05 -5.690749E-10  2.153218E-08
       157  17 -1.827153E+05  9.318960E+05 -1.112890E+05  9.718664E+04 -3.072236E-10  1.695714E-11
       157  18 -2.139545E+05  7.819247E+05 -1.330767E+05  1.173093E+05  1.683878E-10 -2.278816E-08
       157  19  1.514840E+05  2.311098E+06  1.677631E+05  1.166481E+05 -3.819231E+04 -3.013122E+04
       157  20  1.832053E+05  2.460736E+06  1.923719E+05  9.653342E+04 -4.787775E+04 -7.090046E+03
       157  21  2.257666E+05  2.616295E+06  2.346974E+05  1.227522E+05 -5.534883E+04  1.595169E+04
       157  22  4.960212E+03  1.698787E+06  4.607634E+04  1.200281E+05 -3.820034E+04 -1.662070E+04
       157  23  2.639931E+02  1.696038E+06  4.055810E+04  9.685994E+04 -4.788853E+04  3.629625E+03
       157  24  5.933654E+03  1.698711E+06  5.083543E+04  1.200279E+05 -5.536121E+04  2.387507E+04
       157  25 -1.415863E+05  1.086833E+06 -7.562843E+04  1.234047E+05 -3.820822E+04 -3.123175E+03
       157  26 -1.827128E+05  9.318969E+05 -1.112843E+05  9.718608E+04 -4.789930E+04  1.433640E+04
       157  27 -2.139509E+05  7.819266E+05 -1.330690E+05  1.173078E+05 -5.537367E+04  3.178700E+04
       158   1  2.419886E+05  2.733519E+06  2.653856E+05  9.973451E+04  6.226255E+04 -1.664138E+04
       158   2  3.016990E+05  2.864307E+06  3.430483E+05  1.344703E+05  5.765223E+04 -1.103873E+05
       158   3  5.000585E+05  3.042293E+06  5.163037E+05  2.142458E+05  1.829448E+04 -2.042192E+05
       158   4 -4.093412E+03  1.706308E+06  5.980955E+04  1.196909E+05  6.228401E+04 -3.247411E+04
       158   5  1.742953E+04  1.686322E+06  9.608994E+04  9.728131E+04  5.763464E+04 -8.263258E+04
       158   6  1.701889E+05  1.706056E+06  1.978594E+05  1.198992E+05  1.822525E+04 -1.328491E+05
       158   7 -2.502385E+05  6.801002E+05 -1.458187E+05  1.396139E+05  6.230448E+04 -4.828122E+04
       158   8 -2.669229E+05  5.096485E+05 -1.509421E+05  6.016406E+04  5.761373E+04 -5.492935E+04
       158   9 -1.597727E+05  3.714784E+05 -1.206861E+05  2.575611E+04  1.813437E+04 -6.163100E+04
       158  10  2.419844E+05  2.733518E+06  2.653778E+05  9.973534E+04 -9.891335E-10  2.531329E-09
       158  11  3.016922E+05  2.864293E+06  3.430192E+05  1.344754E+05  2.218007E-10 -6.601378E-10
       158  12  5.000470E+05  3.042248E+06  5.162251E+05  2.142488E+05 -1.014631E-09  5.534929E-10
       158  13 -4.097864E+03  1.706305E+06  5.980028E+04  1.196925E+05 -8.631420E-10  1.026186E-09
       158  14  1.742414E+04  1.686314E+06  9.607089E+04  9.728515E+04  4.142500E-10 -2.552671E-10
       158  15  1.701838E+05  1.706037E+06  1.978257E+05  1.199012E+05  1.198505E-09  2.512556E-09
       158  16 -2.502433E+05  6.800966E+05 -1.458304E+05  1.396163E+05 -1.054342E-09 -2.270030E-09
       158  17 -2.669273E+05  5.096444E+05 -1.509540E+05  6.016660E+04 -2.843325E-09 -6.651875E-10
       158  18 -1.597741E+05  3.714742E+05 -1.206938E+05  2.575701E+04 -9.216835E-10 -4.006447E-10
       158  19  2.419886E+05  2.733519E+06  2.653856E+05  9.973451E+04 -6.226255E+04  1.664138E+04
       158  20  3.016990E+05  2.864307E+06  3.430483E+05  1.344703E+05 -5.765223E+04  1.103873E+05
       158  21  5.000585E+05  3.042293E+06  5.163037E+05  2.142458E+05 -1.829448E+04  2.042192E+05
       158  22 -4.093412E+03  1.706308E+06  5.980955E+04  1.196909E+05 -6.228401E+04  3.247411E+04
       158  23  1.742953E+04  1.686322E+06  9.608994E+04  9.728131E+04 -5.763464E+04  8.263258E+04
       158  24  1.701889E+05  1.706056E+06  1.978594E+05  1.198992E+05 -1.822525E+04  1.328491E+05
       158  25 -2.502385E+05  6.801002E+05 -1.458187E+05  1.396139E+05 -6.230448E+04  4.828122E+04
       158  26 -2.669229E+05  5.096485E+05 -1.509421E+05  6.016406E+04 -5.761373E+04  5.492935E+04
       158  27 -1.597727E+05  3.714784E+05 -1.206861E+05  2.575611E+04 -1.813437E+04  6.163100E+04
       159   1 -3.221697E+05 -1.414273E+05 -1.087144E+05 -3.666437E+03  5.555398E+04  1.560950E+04
       159   2 -2.311187E+05 -2.380828E+05 -1.428324E+05 -3.294284E+04  4.995925E+04  4.985726E+04
       159   3 -1.120296E+05 -2.268664E+05 -1.462884E+05 -9.525671E+04  4.440076E+04  5.449241E+04
       159   4  8.096239E+05  1.388841E+05  1.624685E+05 -7.754350E+04  1.121906E+05  1.566682E+04
       159   5  7.927362E+05  1.027264E+04  7.568531E+04 -6.096257E+04  7.244203E+04  4.986914E+04
       159   6  8.097438E+05 -4.645744E+03  4.322337E+04 -7.741119E+04  3.273259E+04  5.448009E+04
       159   7  1.942610E+06  4.191251E+05  4.335759E+05 -1.515561E+05  1.689300E+05  1.571062E+04
       159   8  1.817580E+06  2.585630E+05  2.941448E+05 -8.902938E+04  9.496128E+04  4.987899E+04
       159   9  1.732324E+06  2.175227E+05  2.326903E+05 -5.953877E+04  2.104738E+04  5.446712E+04
       159  10 -3.221731E+05 -1.414284E+05 -1.087207E+05 -3.667136E+03 -7.102559E-11  1.309378E-10
       159  11 -2.311220E+05 -2.380861E+05 -1.428418E+05 -3.294485E+04 -2.563463E-10  1.357319E-10
       159  12 -1.120326E+05 -2.268701E+05 -1.462977E+05 -9.525866E+04  2.333832E-10 -2.904457E-10
       159  13  8.096104E+05  1.388804E+05  1.624444E+05 -7.754492E+04  2.694637E-11  1.457018E-10
       159  14  7.927299E+05  1.026856E+04  7.567079E+04 -6.096548E+04 -5.104832E-10  3.272431E-10
       159  15  8.097419E+05 -4.649220E+03  4.321578E+04 -7.741262E+04 -3.821355E-10 -5.602720E-11
       159  16  1.942579E+06  4.191172E+05  4.335220E+05 -1.515582E+05 -5.042883E-10  1.478918E-10
       159  17  1.817570E+06  2.585579E+05  2.941233E+05 -8.903319E+04  8.247770E-10  3.908255E-10
       159  18  1.732323E+06  2.175194E+05  2.326839E+05 -5.953969E+04 -5.943143E-10  2.343155E-10
       159  19 -3.221697E+05 -1.414273E+05 -1.087144E+05 -3.666437E+03 -5.555398E+04 -1.560950E+04
       159  20 -2.311187E+05 -2.380828E+05 -1.428324E+05 -3.294284E+04 -4.995925E+04 -4.985726E+04
       159  21 -1.120296E+05 -2.268664E+05 -1.462884E+05 -9.525671E+04 -4.440076E+04 -5.449241E+04
       159  22  8.096239E+05  1.388841E+05  1.624685E+05 -7.754350E+04 -1.121906E+05 -1.566682E+04
       159  23  7.927362E+05  1.027264E+04  7.568531E+04 -6.096257E+04 -7.244203E+04 -4.986914E+04
       159  24  8.097438E+05 -4.645744E+03  4.322337E+04 -7.741119E+04 -3.273259E+04 -5.448009E+04
       159  25  1.942610E+06  4.191251E+05  4.335759E+05 -1.515561E+05 -1.689300E+05 -1.571062E+04
       159  26  1.817580E+06  2.585630E+05  2.941448E+05 -8.902938E+04 -9.496128E+04 -4.987899E+04
       159  27  1.732324E+06  2.175227E+05  2.326903E+05 -5.953877E+04 -2.104738E+04 -5.446712E+04
       160   1 -4.196008E+04 -1.982615E+05 -1.403657E+05 -7.619864E+04  3.119477E+04  4.923563E+04
       160   2  6.088792E+04 -1.784119E+05 -1.329979E+05 -6.047256E+04  2.370845E+04  4.465665E+04
       160   3  1.660871E+05 -1.537415E+05 -1.195113E+05 -7.895737E+04  1.621719E+04  3.852964E+04
       160   4  8.028203E+05  5.465333E+03  3.382668E+04 -7.770435E+04  2.684057E+04  4.922822E+04
       160   5  8.015232E+05 -3.461915E+01  1.858733E+04 -6.059951E+04  1.755926E+04  4.465061E+04
       160   6  8.028742E+05 -4.060795E+02  1.070560E+04 -7.770282E+04  8.274252E+03  3.852584E+04
       160   7  1.648277E+06  2.091472E+05  2.079807E+05 -7.921219E+04  2.248053E+04  4.922084E+04
       160   8  1.542679E+06  1.783083E+05  1.701436E+05 -6.072663E+04  1.140286E+04  4.464458E+04
       160   9  1.440046E+06  1.529040E+05  1.409013E+05 -7.644695E+04  3.233094E+02  3.852200E+04
       160  10 -4.196177E+04 -1.982644E+05 -1.403721E+05 -7.619987E+04 -7.865338E-10 -2.721548E-10
       160  11  6.088678E+04 -1.784142E+05 -1.330027E+05 -6.047342E+04  1.005992E-10  2.648433E-10
       160  12  1.660864E+05 -1.537432E+05 -1.195146E+05 -7.895787E+04  3.566756E-10  2.616166E-10
       160  13  8.028189E+05  5.462537E+03  3.382077E+04 -7.770541E+04 -5.482307E-10 -8.739757E-11
       160  14  8.015223E+05 -3.684354E+01  1.858300E+04 -6.060014E+04 -4.695119E-10  7.245712E-11
       160  15  8.028737E+05 -4.076923E+02  1.070268E+04 -7.770308E+04 -3.274137E-10 -1.313918E-10
       160  16  1.648276E+06  2.091444E+05  2.079752E+05 -7.921308E+04  7.207216E-10  1.816766E-10
       160  17  1.542679E+06  1.783061E+05  1.701396E+05 -6.072704E+04  4.725739E-10 -3.579524E-12
       160  18  1.440046E+06  1.529024E+05  1.408985E+05 -7.644696E+04 -5.116107E-10 -5.490129E-10
       160  19 -4.196008E+04 -1.982615E+05 -1.403657E+05 -7.619864E+04 -3.119477E+04 -4.923563E+04
       160  20  6.088792E+04 -1.784119E+05 -1.329979E+05 -6.047256E+04 -2.370845E+04 -4.465665E+04
       160  21  1.660871E+05 -1.537415E+05 -1.195113E+05 -7.895737E+04 -1.621719E+04 -3.852964E+04
       160  22  8.028203E+05  5.465333E+03  3.382668E+04 -7.770435E+04 -2.684057E+04 -4.922822E+04
       160  23  8.015232E+05 -3.461915E+01  1.858733E+04 -6.059951E+04 -1.755926E+04 -4.465061E+04
       160  24  8.028742E+05 -4.060795E+02  1.070560E+04 -7.770282E+04 -8.274252E+03 -3.852584E+04
       160  25  1.648277E+06  2.091472E+05  2.079807E+05 -7.921219E+04 -2.248053E+04 -4.922084E+04
       160  26  1.542679E+06  1.783083E+05  1.701436E+05 -6.072663E+04 -1.140286E+04 -4.464458E+04
       160  27  1.440046E+06  1.529040E+05  1.409013E+05 -7.644695E+04 -3.233094E+02 -3.852200E+04
       161   1  2.413210E+05 -1.349615E+05 -1.060979E+05 -7.799645E+04  1.415505E+04  3.455214E+04
       161   2  3.446587E+05 -1.102414E+05 -8.863854E+04 -6.082441E+04  1.191641E+04  2.796153E+04
       161   3  4.484044E+05 -8.528796E+04 -6.965219E+04 -7.777719E+04  9.674305E+03  2.129679E+04
       161   4  8.023966E+05  4.557457E+01  8.176945E+03 -7.768448E+04  6.607009E+03  3.454969E+04
       161   5  8.022050E+05 -1.208329E+02  4.703808E+03 -6.062288E+04  4.280488E+03  2.796074E+04
       161   6  8.024273E+05 -3.807037E+01  2.817956E+03 -7.768459E+04  1.950870E+03  2.129771E+04
       161   7  1.363772E+06  1.350330E+05  1.224355E+05 -7.737220E+04 -9.477305E+02  3.454723E+04
       161   8  1.259950E+06  1.099867E+05  9.803535E+04 -6.042118E+04 -3.360955E+03  2.795993E+04
       161   9  1.156569E+06  8.520400E+04  7.528168E+04 -7.759193E+04 -5.776887E+03  2.129863E+04
       161  10  2.413205E+05 -1.349628E+05 -1.061005E+05 -7.799684E+04  3.950415E-10  4.849742E-12
       161  11  3.446583E+05 -1.102423E+05 -8.864028E+04 -6.082468E+04  3.248700E-10 -2.776507E-10
       161  12  4.484041E+05 -8.528847E+04 -6.965322E+04 -7.777735E+04 -1.323009E-10 -1.642435E-10
       161  13  8.023963E+05  4.428055E+01  8.174619E+03 -7.768466E+04  5.121887E-10 -2.516394E-10
       161  14  8.022048E+05 -1.216777E+02  4.702304E+03 -6.062298E+04 -7.958185E-10 -3.125480E-11
       161  15  8.024272E+05 -3.855866E+01  2.817097E+03 -7.768463E+04 -4.677180E-10 -2.829097E-11
       161  16  1.363771E+06  1.350318E+05  1.224332E+05 -7.737218E+04  2.965371E-10 -4.835641E-10
       161  17  1.259950E+06  1.099858E+05  9.803386E+04 -6.042111E+04 -9.033234E-10  1.815565E-10
       161  18  1.156569E+06  8.520350E+04  7.528077E+04 -7.759183E+04 -4.856137E-10  1.395642E-11
       161  19  2.413210E+05 -1.349615E+05 -1.060979E+05 -7.799645E+04 -1.415505E+04 -3.455214E+04
       161  20  3.446587E+05 -1.102414E+05 -8.863854E+04 -6.082441E+04 -1.191641E+04 -2.796153E+04
       161  21  4.484044E+05 -8.528796E+04 -6.965219E+04 -7.777719E+04 -9.674305E+03 -2.129679E+04
       161  22  8.023966E+05  4.557457E+01  8.176945E+03 -7.768448E+04 -6.607009E+03 -3.454969E+04
       161  23  8.022050E+05 -1.208329E+02  4.703808E+03 -6.062288E+04 -4.280488E+03 -2.796074E+04
       161  24  8.024273E+05 -3.807037E+01  2.817956E+03 -7.768459E+04 -1.950870E+03 -2.129771E+04
       161  25  1.363772E+06  1.350330E+05  1.224355E+05 -7.737220E+04  9.477305E+02 -3.454723E+04
       161  26  1.259950E+06  1.099867E+05  9.803535E+04 -6.042118E+04  3.360955E+03 -2.795993E+04
       161  27  1.156569E+06  8.520400E+04  7.528168E+04 -7.759193E+04  5.776887E+03 -2.129863E+04
       162   1  5.237606E+05 -6.700396E+04 -5.432113E+04 -7.771461E+04  9.190793E+03  1.740018E+04
       162   2  6.270087E+05 -4.219340E+04 -3.422599E+04 -6.065510E+04  8.438464E+03  1.072181E+04
       162   3  7.303647E+05 -1.735417E+04 -1.363694E+04 -7.764352E+04  7.684794E+03  4.042461E+03
       162   4  8.023668E+05 -1.403286E+01  2.226894E+03 -7.766771E+04  1.493008E+03  1.740180E+04
       162   5  8.023244E+05 -8.078401E+00  1.524464E+03 -6.064404E+04  7.386148E+02  1.072406E+04
       162   6  8.023783E+05  2.700053E+01  1.316876E+03 -7.766772E+04 -1.699855E+01  4.045375E+03
       162   7  1.081047E+06  6.697110E+04  5.877109E+04 -7.762079E+04 -6.208164E+03  1.740341E+04
       162   8  9.776694E+05  4.217535E+04  3.727353E+04 -6.063297E+04 -6.963367E+03  1.072631E+04
       162   9  8.743970E+05  1.740788E+04  1.627063E+04 -7.769193E+04 -7.719668E+03  4.048288E+03
       162  10  5.237605E+05 -6.700431E+04 -5.432185E+04 -7.771473E+04 -3.539779E-12 -7.984324E-11
       162  11  6.270086E+05 -4.219354E+04 -3.422634E+04 -6.065517E+04  3.578559E-10  1.642530E-11
       162  12  7.303646E+05 -1.735421E+04 -1.363708E+04 -7.764354E+04  1.557984E-10  1.569586E-10
       162  13  8.023667E+05 -1.435876E+01  2.226321E+03 -7.766773E+04 -1.057949E-09 -1.258978E-10
       162  14  8.023244E+05 -8.202090E+00  1.524247E+03 -6.064405E+04 -1.437474E-09  8.663369E-11
       162  15  8.023783E+05  2.698295E+01  1.316845E+03 -7.766772E+04  4.053668E-10  3.660191E-10
       162  16  1.081047E+06  6.697076E+04  5.877045E+04 -7.762070E+04  1.449431E-10 -1.857493E-10
       162  17  9.776693E+05  4.217522E+04  3.727322E+04 -6.063291E+04 -1.731103E-09 -4.540360E-11
       162  18  8.743969E+05  1.740784E+04  1.627048E+04 -7.769190E+04 -6.160450E-10  4.537680E-10
       162  19  5.237606E+05 -6.700396E+04 -5.432113E+04 -7.771461E+04 -9.190793E+03 -1.740018E+04
       162  20  6.270087E+05 -4.219340E+04 -3.422599E+04 -6.065510E+04 -8.438464E+03 -1.072181E+04
       162  21  7.303647E+05 -1.735417E+04 -1.363694E+04 -7.764352E+04 -7.684794E+03 -4.042461E+03
       162  22  8.023668E+05 -1.403286E+01  2.226894E+03 -7.766771E+04 -1.493008E+03 -1.740180E+04
       162  23  8.023244E+05 -8.078401E+00  1.524464E+03 -6.064404E+04 -7.386148E+02 -1.072406E+04
       162  24  8.023783E+05  2.700053E+01  1.316876E+03 -7.766772E+04  1.699855E+01 -4.045375E+03
       162  25  1.081047E+06  6.697110E+04  5.877109E+04 -7.762079E+04  6.208164E+03 -1.740341E+04
       162  26  9.776694E+05  4.217535E+04  3.727353E+04 -6.063297E+04  6.963367E+03 -1.072631E+04
       162  27  8.743970E+05  1.740788E+04  1.627063E+04 -7.769193E+04  7.719668E+03 -4.048288E+03
       163   1  8.056974E+05  8.796826E+02  2.312026E+03 -7.765366E+04  7.438861E+03  1.551610E+02
       163   2  9.089312E+05  2.564078E+04  2.352393E+04 -6.059745E+04  6.551315E+03 -6.522000E+03
       163   3  1.012284E+06  5.043544E+04  4.531612E+04 -7.757816E+04  5.664361E+03 -1.319721E+04
       163   4  8.023820E+05  2.788118E+01  1.365296E+03 -7.766548E+04 -2.626519E+02  1.581511E+02
       163   5  8.023244E+05 -7.149090E+00  1.787753E+03 -6.064684E+04 -1.148413E+03 -6.519421E+03
       163   6  8.023749E+05 -8.345949E+00  2.789484E+03 -7.766546E+04 -2.033439E+03 -1.319501E+04
       163   7  7.990668E+05 -8.238894E+02  4.187891E+02 -7.767731E+04 -7.964123E+03  1.611414E+02
       163   8  6.957285E+05 -2.565576E+04 -1.994880E+04 -6.069621E+04 -8.846844E+03 -6.516842E+03
       163   9  5.925081E+05 -5.045484E+04 -3.973922E+04 -7.775273E+04 -9.728689E+03 -1.319280E+04
       163  10  8.056973E+05  8.796678E+02  2.311922E+03 -7.765366E+04  9.168163E-10  4.091627E-10
       163  11  9.089311E+05  2.564072E+04  2.352377E+04 -6.059742E+04  3.639593E-11  3.396122E-10
       163  12  1.012284E+06  5.043525E+04  4.531573E+04 -7.757810E+04  5.025898E-10  2.190069E-10
       163  13  8.023820E+05  2.788113E+01  1.365296E+03 -7.766548E+04 -1.166533E-09  4.917356E-10
       163  14  8.023243E+05 -7.195103E+00  1.787670E+03 -6.064684E+04  1.722085E-10  2.324067E-10
       163  15  8.023748E+05 -8.534095E+00  2.789149E+03 -7.766548E+04  2.215880E-10 -1.831720E-10
       163  16  7.990668E+05 -8.239064E+02  4.186700E+02 -7.767730E+04 -6.124884E-10  4.410122E-10
       163  17  6.957284E+05 -2.565582E+04 -1.994903E+04 -6.069626E+04 -3.147973E-11 -1.698090E-12
       163  18  5.925079E+05 -5.045505E+04 -3.973972E+04 -7.775283E+04 -1.163821E-10 -5.936162E-10
       163  19  8.056974E+05  8.796826E+02  2.312026E+03 -7.765366E+04 -7.438861E+03 -1.551610E+02
       163  20  9.089312E+05  2.564078E+04  2.352393E+04 -6.059745E+04 -6.551315E+03  6.522000E+03
       163  21  1.012284E+06  5.043544E+04  4.531612E+04 -7.757816E+04 -5.664361E+03  1.319721E+04
       163  22  8.023820E+05  2.788118E+01  1.365296E+03 -7.766548E+04  2.626519E+02 -1.581511E+02
       163  23  8.023244E+05 -7.149090E+00  1.787753E+03 -6.064684E+04  1.148413E+03  6.519421E+03
       163  24  8.023749E+05 -8.345949E+00  2.789484E+03 -7.766546E+04  2.033439E+03  1.319501E+04
       163  25  7.990668E+05 -8.238894E+02  4.187891E+02 -7.767731E+04  7.964123E+03 -1.611414E+02
       163  26  6.957285E+05 -2.565576E+04 -1.994880E+04 -6.069621E+04  8.846844E+03  6.516842E+03
       163  27  5.925081E+05 -5.045484E+04 -3.973922E+04 -7.775273E+04  9.728689E+03  1.319280E+04
       164   1  1.087778E+06  6.865530E+04  6.202488E+04 -7.753800E+04  5.109731E+03 -1.709016E+04
       164   2  1.191027E+06  9.341110E+04  8.537687E+04 -6.037611E+04  2.011182E+03 -2.374847E+04
       164   3  1.294801E+06  1.185055E+05  1.108327E+05 -7.731479E+04 -1.085163E+03 -3.033646E+04
       164   4  8.024548E+05 -3.550985E+01  3.587259E+03 -7.767983E+04 -2.612083E+03 -1.708851E+04
       164   5  8.021898E+05 -1.253305E+02  6.089551E+03 -6.062881E+04 -5.628316E+03 -2.374828E+04
       164   6  8.024282E+05  1.104262E+02  1.064035E+04 -7.767966E+04 -8.641847E+03 -3.033769E+04
       164   7  5.172087E+05 -6.873139E+04 -5.485446E+04 -7.782158E+04 -1.033042E+04 -1.708685E+04
       164   8  4.134964E+05 -9.367117E+04 -7.320551E+04 -6.088133E+04 -1.326312E+04 -2.374809E+04
       164   9  3.102855E+05 -1.182997E+05 -8.956452E+04 -7.804422E+04 -1.619266E+04 -3.033890E+04
       164  10  1.087778E+06  6.865498E+04  6.202428E+04 -7.753793E+04 -8.856148E-11  7.952035E-11
       164  11  1.191027E+06  9.341049E+04  8.537580E+04 -6.037607E+04  9.138821E-10  1.513334E-10
       164  12  1.294801E+06  1.185045E+05  1.108310E+05 -7.731481E+04 -1.059087E-10 -2.630592E-11
       164  13  8.024547E+05 -3.582538E+01  3.586697E+03 -7.767986E+04  8.076648E-11 -2.347693E-10
       164  14  8.021896E+05 -1.259449E+02  6.088431E+03 -6.062892E+04  1.134422E-09  4.119615E-11
       164  15  8.024279E+05  1.094175E+02  1.063848E+04 -7.767987E+04 -4.102004E-10 -9.296791E-11
       164  16  5.172085E+05 -6.873173E+04 -5.485521E+04 -7.782172E+04  4.280240E-10 -4.809643E-10
       164  17  4.134960E+05 -9.367182E+04 -7.320690E+04 -6.088159E+04 -1.018162E-09  3.086615E-11
       164  18  3.102850E+05 -1.183007E+05 -8.956675E+04 -7.804461E+04  1.048701E-11 -8.072760E-11
       164  19  1.087778E+06  6.865530E+04  6.202488E+04 -7.753800E+04 -5.109731E+03  1.709016E+04
       164  20  1.191027E+06  9.341110E+04  8.537687E+04 -6.037611E+04 -2.011182E+03  2.374847E+04
       164  21  1.294801E+06  1.185055E+05  1.108327E+05 -7.731479E+04  1.085163E+03  3.033646E+04
       164  22  8.024548E+05 -3.550985E+01  3.587259E+03 -7.767983E+04  2.612083E+03  1.708851E+04
       164  23  8.021898E+05 -1.253305E+02  6.089551E+03 -6.062881E+04  5.628316E+03  2.374828E+04
       164  24  8.024282E+05  1.104262E+02  1.064035E+04 -7.767966E+04  8.641847E+03  3.033769E+04
       164  25  5.172087E+05 -6.873139E+04 -5.485446E+04 -7.782158E+04  1.033042E+04  1.708685E+04
       164  26  4.134964E+05 -9.367117E+04 -7.320551E+04 -6.088133E+04  1.326312E+04  2.374809E+04
       164  27  3.102855E+05 -1.182997E+05 -8.956452E+04 -7.804422E+04  1.619266E+04  3.033890E+04
       165   1  1.371133E+06  1.362262E+05  1.300602E+05 -7.612213E+04 -2.885234E+03 -3.430293E+04
       165   2  1.473264E+06  1.617306E+05  1.616695E+05 -6.091798E+04 -1.668823E+04 -4.045259E+04
       165   3  1.579071E+06  1.942178E+05  2.040239E+05 -7.987417E+04 -3.049024E+04 -4.514830E+04
       165   4  8.030497E+05 -4.723682E+02  1.394463E+04 -7.769264E+04 -1.081348E+04 -3.430532E+04
       165   5  8.013363E+05  3.563036E+01  2.424663E+04 -6.061206E+04 -2.292695E+04 -4.045718E+04
       165   6  8.029987E+05  7.238766E+03  4.413029E+04 -7.769375E+04 -3.503716E+04 -4.515438E+04
       165   7  2.352727E+05 -1.371911E+05 -1.021878E+05 -7.926167E+04 -1.873461E+04 -3.430768E+04
       165   8  1.298364E+05 -1.616876E+05 -1.132000E+05 -6.030648E+04 -2.915905E+04 -4.046177E+04
       165   9  2.749657E+04 -1.797782E+05 -1.157957E+05 -7.551612E+04 -3.957849E+04 -4.516050E+04
       165  10  1.371133E+06  1.362249E+05  1.300580E+05 -7.612221E+04 -6.618204E-10 -7.664520E-11
       165  11  1.473264E+06  1.617288E+05  1.616659E+05 -6.091852E+04 -8.164671E-11  1.032764E-10
       165  12  1.579069E+06  1.942153E+05  2.040184E+05 -7.987528E+04 -2.753969E-10 -3.963522E-11
       165  13  8.030493E+05 -4.736638E+02  1.394219E+04 -7.769294E+04 -1.056125E-10 -4.769824E-11
       165  14  8.013353E+05  3.373109E+01  2.424257E+04 -6.061280E+04 -4.287117E-10  2.540341E-10
       165  15  8.029968E+05  7.236246E+03  4.412416E+04 -7.769503E+04 -3.811270E-10 -2.040487E-11
       165  16  2.352720E+05 -1.371925E+05 -1.021907E+05 -7.926219E+04  1.144669E-09  4.427446E-11
       165  17  1.298350E+05 -1.616896E+05 -1.132047E+05 -6.030743E+04  8.142771E-10  3.078831E-10
       165  18  2.749434E+04 -1.797808E+05 -1.158024E+05 -7.551756E+04  1.886872E-10  2.252066E-10
       165  19  1.371133E+06  1.362262E+05  1.300602E+05 -7.612213E+04  2.885234E+03  3.430293E+04
       165  20  1.473264E+06  1.617306E+05  1.616695E+05 -6.091798E+04  1.668823E+04  4.045259E+04
       165  21  1.579071E+06  1.942178E+05  2.040239E+05 -7.987417E+04  3.049024E+04  4.514830E+04
       165  22  8.030497E+05 -4.723682E+02  1.394463E+04 -7.769264E+04  1.081348E+04  3.430532E+04
       165  23  8.013363E+05  3.563036E+01  2.424663E+04 -6.061206E+04  2.292695E+04  4.045718E+04
       165  24  8.029987E+05  7.238766E+03  4.413029E+04 -7.769375E+04  3.503716E+04  4.515438E+04
       165  25  2.352727E+05 -1.371911E+05 -1.021878E+05 -7.926167E+04  1.873461E+04  3.430768E+04
       165  26  1.298364E+05 -1.616876E+05 -1.132000E+05 -6.030648E+04  2.915905E+04  4.046177E+04
       165  27  2.749657E+04 -1.797782E+05 -1.157957E+05 -7.551612E+04  3.957849E+04  4.516050E+04
       166   1  1.665033E+06  1.994934E+05  2.316151E+05 -5.437827E+04 -3.129571E+04 -5.031113E+04
       166   2  1.745160E+06  2.449883E+05  3.024758E+05 -9.795098E+04 -1.152789E+05 -4.638818E+04
       166   3  1.874878E+06  4.442345E+05  4.664110E+05 -1.746038E+05 -1.993123E+05 -1.465474E+04
       166   4  8.120275E+05 -5.939381E+03  5.639060E+04 -7.741720E+04 -4.272534E+04 -5.032079E+04
       166   5  7.899244E+05  1.354431E+04  9.876826E+04 -6.095366E+04 -9.454567E+04 -4.638511E+04
       166   6  8.118960E+05  1.813201E+05  2.119896E+05 -7.755934E+04 -1.463978E+05 -1.463583E+04
       166   7 -4.028737E+04 -2.114158E+05 -1.188721E+05 -1.004240E+05 -5.413954E+04 -5.032962E+04
       166   8 -1.644501E+05 -2.179536E+05 -1.049895E+05 -2.401408E+04 -7.384372E+04 -4.637958E+04
       166   9 -2.500270E+05 -8.163900E+04 -4.249587E+04  1.931852E+04 -9.357315E+04 -1.460042E+04
       166  10  1.665031E+06  1.994904E+05  2.316085E+05 -5.437953E+04 -3.288301E-10 -6.078482E-11
       166  11  1.745145E+06  2.449825E+05  3.024468E+05 -9.795529E+04  5.265055E-10 -4.333520E-10
       166  12  1.874836E+06  4.442236E+05  4.663361E+05 -1.746061E+05 -3.405007E-10 -7.993919E-11
       166  13  8.120248E+05 -5.942591E+03  5.638241E+04 -7.741894E+04 -1.077259E-09 -1.974090E-10
       166  14  7.899143E+05  1.353960E+04  9.874743E+04 -6.095719E+04  1.894607E-10 -4.128289E-10
       166  15  8.118730E+05  1.813141E+05  2.119490E+05 -7.756106E+04  4.510501E-10 -1.112203E-10
       166  16 -4.029120E+04 -2.114193E+05 -1.188823E+05 -1.004262E+05  4.896664E-11 -1.643705E-10
       166  17 -1.644566E+05 -2.179574E+05 -1.050038E+05 -2.401684E+04 -5.992532E-11  1.526190E-10
       166  18 -2.500365E+05 -8.164158E+04 -4.251273E+04  1.931742E+04 -2.196773E-10 -6.540510E-11
       166  19  1.665033E+06  1.994934E+05  2.316151E+05 -5.437827E+04  3.129571E+04  5.031113E+04
       166  20  1.745160E+06  2.449883E+05  3.024758E+05 -9.795098E+04  1.152789E+05  4.638818E+04
       166  21  1.874878E+06  4.442345E+05  4.664110E+05 -1.746038E+05  1.993123E+05  1.465474E+04
       166  22  8.120275E+05 -5.939381E+03  5.639060E+04 -7.741720E+04  4.272534E+04  5.032079E+04
       166  23  7.899244E+05  1.354431E+04  9.876826E+04 -6.095366E+04  9.454567E+04  4.638511E+04
       166  24  8.118960E+05  1.813201E+05  2.119896E+05 -7.755934E+04  1.463978E+05  1.463583E+04
       166  25 -4.028737E+04 -2.114158E+05 -1.188721E+05 -1.004240E+05  5.413954E+04  5.032962E+04
       166  26 -1.644501E+05 -2.179536E+05 -1.049895E+05 -2.401408E+04  7.384372E+04  4.637958E+04
       166  27 -2.500270E+05 -8.163900E+04 -4.249587E+04  1.931852E+04  9.357315E+04  1.460042E+04
       167   1  1.655348E+05  7.804686E+05  1.717219E+05 -1.479916E+05  4.429569E+03  5.980021E+04
       167   2  7.382339E+04  6.158786E+05  9.268081E+04 -1.041175E+05  1.190393E+04  2.926499E+04
       167   3  2.988324E+04  4.670507E+05  4.541263E+04 -1.111441E+05  6.776428E+03 -1.281126E+03
       167   4  5.552580E+04  3.378967E+05  6.452509E+04 -1.177338E+05  4.458010E+03  4.395925E+04
       167   5  4.462784E+03  3.312992E+05  3.053146E+04 -9.233009E+04  1.190702E+04  2.796417E+04
       167   6 -1.336371E+03  3.379331E+05  1.823447E+04 -1.178240E+05  6.753368E+03  1.195043E+04
       167   7 -5.449402E+04 -1.044941E+05 -4.268437E+04 -8.749751E+04  4.484920E+03  2.812953E+04
       167   8 -6.490270E+04  4.679598E+04 -3.162270E+04 -8.054815E+04  1.191007E+04  2.666393E+04
       167   9 -3.255679E+04  2.088317E+05 -8.943944E+03 -1.245025E+05  6.730020E+03  2.517929E+04
       167  10  1.655338E+05  7.804648E+05  1.717151E+05 -1.479918E+05  5.767772E-10  5.534517E-10
       167  11  7.382301E+04  6.158776E+05  9.267894E+04 -1.041177E+05 -6.178491E-10 -6.641755E-11
       167  12  2.988319E+04  4.670506E+05  4.541254E+04 -1.111441E+05 -3.133760E-10 -9.863193E-10
       167  13  5.552526E+04  3.378946E+05  6.452142E+04 -1.177339E+05  1.136799E-09 -2.149256E-11
       167  14  4.462422E+03  3.312984E+05  3.052973E+04 -9.233036E+04  6.568540E-10  1.151406E-10
       167  15 -1.336459E+03  3.379329E+05  1.823411E+04 -1.178241E+05  3.617994E-10  5.241175E-12
       167  16 -5.449426E+04 -1.044950E+05 -4.268589E+04 -8.749761E+04  3.113850E-10 -5.849443E-10
       167  17 -6.490305E+04  4.679518E+04 -3.162430E+04 -8.054841E+04  1.076776E-09  2.397549E-10
       167  18 -3.255701E+04  2.088310E+05 -8.945220E+03 -1.245026E+05  4.892073E-10  9.471077E-10
       167  19  1.655348E+05  7.804686E+05  1.717219E+05 -1.479916E+05 -4.429569E+03 -5.980021E+04
       167  20  7.382339E+04  6.158786E+05  9.268081E+04 -1.041175E+05 -1.190393E+04 -2.926499E+04
       167  21  2.988324E+04  4.670507E+05  4.541263E+04 -1.111441E+05 -6.776428E+03  1.281126E+03
       167  22  5.552580E+04  3.378967E+05  6.452509E+04 -1.177338E+05 -4.458010E+03 -4.395925E+04
       167  23  4.462784E+03  3.312992E+05  3.053146E+04 -9.233009E+04 -1.190702E+04 -2.796417E+04
       167  24 -1.336371E+03  3.379331E+05  1.823447E+04 -1.178240E+05 -6.753368E+03 -1.195043E+04
       167  25 -5.449402E+04 -1.044941E+05 -4.268437E+04 -8.749751E+04 -4.484920E+03 -2.812953E+04
       167  26 -6.490270E+04  4.679598E+04 -3.162270E+04 -8.054815E+04 -1.191007E+04 -2.666393E+04
       167  27 -3.255679E+04  2.088317E+05 -8.943944E+03 -1.245025E+05 -6.730020E+03 -2.517929E+04
       168   1  6.158974E+03  3.496473E+05  1.829886E+04 -1.188750E+05  2.682301E+02 -9.911998E+02
       168   2 -3.389256E+04  1.924656E+05 -1.908442E+04 -9.208156E+04 -8.528580E+03 -5.588976E+03
       168   3 -7.104732E+04  3.643968E+04 -5.280130E+04 -1.168187E+05 -1.694638E+04 -1.018372E+04
       168   4  2.600405E+03  3.352635E+05  1.490359E+04 -1.179439E+05  2.499514E+02  9.374239E+03
       168   5  3.631659E+02  3.346525E+05  1.004820E+04 -9.218036E+04 -8.545354E+03  4.338492E+03
       168   6  1.099981E+03  3.352503E+05  9.164187E+03 -1.179465E+05 -1.696176E+04 -6.953347E+02
       168   7 -9.581180E+02  3.208802E+05  1.150871E+04 -1.170128E+05  2.317035E+02  1.973944E+04
       168   8  3.461767E+04  4.768589E+05  3.918011E+04 -9.227917E+04 -8.562128E+03  1.426819E+04
       168   9  7.324167E+04  6.341456E+05  7.112515E+04 -1.190747E+05 -1.697716E+04  8.797542E+03
       168  10  6.158974E+03  3.496473E+05  1.829886E+04 -1.188750E+05 -7.189094E-10  7.388917E-10
       168  11 -3.389264E+04  1.924655E+05 -1.908462E+04 -9.208160E+04  6.682635E-10  7.216147E-11
       168  12 -7.104766E+04  3.643949E+04 -5.280204E+04 -1.168189E+05  5.447498E-10 -4.650795E-10
       168  13  2.600381E+03  3.352634E+05  1.490342E+04 -1.179439E+05 -2.151955E-10  2.071765E-11
       168  14  3.630824E+02  3.346525E+05  1.004802E+04 -9.218033E+04  7.092310E-10  6.958199E-11
       168  15  1.099672E+03  3.352502E+05  9.163645E+03 -1.179465E+05 -1.782295E-10  1.048790E-10
       168  16 -9.582226E+02  3.208798E+05  1.150798E+04 -1.170129E+05 -3.044642E-10 -7.130020E-10
       168  17  3.461754E+04  4.768587E+05  3.917959E+04 -9.227907E+04 -7.620666E-10 -1.277423E-11
       168  18  7.324134E+04  6.341455E+05  7.112446E+04 -1.190746E+05  3.980179E-11  5.396754E-10
       168  19  6.158974E+03  3.496473E+05  1.829886E+04 -1.188750E+05 -2.682301E+02  9.911998E+02
       168  20 -3.389256E+04  1.924656E+05 -1.908442E+04 -9.208156E+04  8.528580E+03  5.588976E+03
       168  21 -7.104732E+04  3.643968E+04 -5.280130E+04 -1.168187E+05  1.694638E+04  1.018372E+04
       168  22  2.600405E+03  3.352635E+05  1.490359E+04 -1.179439E+05 -2.499514E+02 -9.374239E+03
       168  23  3.631659E+02  3.346525E+05  1.004820E+04 -9.218036E+04  8.545354E+03 -4.338492E+03
       168  24  1.099981E+03  3.352503E+05  9.164187E+03 -1.179465E+05  1.696176E+04  6.953347E+02
       168  25 -9.581180E+02  3.208802E+05  1.150871E+04 -1.170128E+05 -2.317035E+02 -1.973944E+04
       168  26  3.461767E+04  4.768589E+05  3.918011E+04 -9.227917E+04  8.562128E+03 -1.426819E+04
       168  27  7.324167E+04  6.341456E+05  7.112515E+04 -1.190747E+05  1.697716E+04 -8.797542E+03
       169   1 -1.001290E+05 -7.762045E+04 -7.604843E+04 -1.197729E+05 -2.375205E+04 -1.644932E+04
       169   2 -1.364392E+05 -2.350831E+05 -1.095899E+05 -8.733572E+04 -2.620935E+04 -3.113438E+02
       169   3 -1.591013E+05 -3.912964E+05 -1.502480E+05 -1.054723E+05 -8.816225E+03  1.584605E+04
       169   4 -2.835481E+02  3.361182E+05  9.536137E+03 -1.177393E+05 -2.377412E+04 -2.219423E+03
       169   5  1.786483E+03  3.334945E+05  1.289516E+04 -9.243936E+04 -2.619493E+04 -8.945196E+03
       169   6  2.146723E+04  3.360600E+05  2.501155E+04 -1.177087E+05 -8.773895E+03 -1.564719E+04
       169   7  9.955123E+04  7.500196E+05  9.511219E+04 -1.157042E+05 -2.379609E+04  1.201979E+04
       169   8  1.399911E+05  9.023761E+05  1.353615E+05 -9.754760E+04 -2.618039E+04 -1.758685E+04
       169   9  2.019982E+05  1.063903E+06  2.002371E+05 -1.299594E+05 -8.730351E+03 -4.717720E+04
       169  10 -1.001297E+05 -7.762089E+04 -7.605000E+04 -1.197732E+05 -5.161531E-10  2.996183E-10
       169  11 -1.364400E+05 -2.350833E+05 -1.095912E+05 -8.733573E+04  7.541326E-10  7.707920E-11
       169  12 -1.591014E+05 -3.912967E+05 -1.502486E+05 -1.054721E+05  2.703376E-10 -2.979145E-10
       169  13 -2.841565E+02  3.361181E+05  9.535065E+03 -1.177393E+05  4.437557E-10 -1.273988E-11
       169  14  1.785725E+03  3.334942E+05  1.289372E+04 -9.243954E+04 -5.243844E-11 -3.337152E-11
       169  15  2.146708E+04  3.360598E+05  2.501094E+04 -1.177088E+05 -6.373221E-11  2.736585E-11
       169  16  9.955059E+04  7.500193E+05  9.511085E+04 -1.157039E+05 -7.652214E-10 -2.303565E-10
       169  17  1.399902E+05  9.023756E+05  1.353597E+05 -9.754797E+04  5.284713E-10 -1.441579E-10
       169  18  2.019975E+05  1.063901E+06  2.002328E+05 -1.299597E+05  1.235018E-10  2.446322E-10
       169  19 -1.001290E+05 -7.762045E+04 -7.604843E+04 -1.197729E+05  2.375205E+04  1.644932E+04
       169  20 -1.364392E+05 -2.350831E+05 -1.095899E+05 -8.733572E+04  2.620935E+04  3.113438E+02
       169  21 -1.591013E+05 -3.912964E+05 -1.502480E+05 -1.054723E+05  8.816225E+03 -1.584605E+04
       169  22 -2.835481E+02  3.361182E+05  9.536137E+03 -1.177393E+05  2.377412E+04  2.219423E+03
       169  23  1.786483E+03  3.334945E+05  1.289516E+04 -9.243936E+04  2.619493E+04  8.945196E+03
       169  24  2.146723E+04  3.360600E+05  2.501155E+04 -1.177087E+05  8.773895E+03  1.564719E+04
       169  25  9.955123E+04  7.500196E+05  9.511219E+04 -1.157042E+05  2.379609E+04 -1.201979E+04
       169  26  1.399911E+05  9.023761E+05  1.353615E+05 -9.754760E+04  2.618039E+04  1.758685E+04
       169  27  2.019982E+05  1.063903E+06  2.002371E+05 -1.299594E+05  8.730351E+03  4.717720E+04
       170   1 -1.473732E+06 -6.258591E+05 -3.900355E+05 -5.495167E+05 -1.669781E+05 -5.034546E+04
       170   2 -1.416226E+06 -4.136655E+05 -2.443160E+05 -5.301280E+05 -1.072603E+05 -4.029228E+02
       170   3 -1.404203E+06 -3.520051E+05 -1.869303E+05 -4.937413E+05 -3.963744E+04  2.857871E+04
       170   4 -7.980676E+05 -2.923976E+05 -1.963774E+05 -2.837323E+05 -1.298741E+05 -3.640620E+04
       170   5 -7.667324E+05 -1.429956E+05 -8.697819E+04 -3.209474E+05 -9.268200E+04  5.071904E+03
       170   6 -7.763520E+05 -1.395808E+05 -4.797784E+04 -3.411847E+05 -4.759462E+04  2.558467E+04
       170   7 -1.219459E+05  4.119629E+04 -2.757840E+03 -1.765472E+04 -9.272618E+04 -2.243847E+04
       170   8 -1.168146E+05  1.277360E+05  7.032900E+04 -1.115559E+05 -7.808712E+04  1.055472E+04
       170   9 -1.481028E+05  7.285868E+04  9.095143E+04 -1.884930E+05 -5.556058E+04  2.258797E+04
       170  10 -1.473762E+06 -6.258693E+05 -3.900928E+05 -5.495235E+05 -6.097917E-10  7.181649E-11
       170  11 -1.416239E+06 -4.136686E+05 -2.443377E+05 -5.301280E+05 -1.918142E-10  2.494250E-10
       170  12 -1.404204E+06 -3.520064E+05 -1.869348E+05 -4.937404E+05 -9.483611E-10  7.900893E-11
       170  13 -7.980861E+05 -2.924036E+05 -1.964116E+05 -2.837361E+05 -1.612641E-10  4.551644E-11
       170  14 -7.667416E+05 -1.429980E+05 -8.699440E+04 -3.209470E+05  1.013730E-09  8.723830E-11
       170  15 -7.763546E+05 -1.395821E+05 -4.798333E+04 -3.411837E+05  1.612692E-10  1.254620E-10
       170  16 -1.219552E+05  4.119344E+04 -2.774947E+03 -1.765640E+04 -1.886746E-10 -3.464778E-11
       170  17 -1.168211E+05  1.277343E+05  7.031733E+04 -1.115552E+05  5.736976E-11 -1.551618E-11
       170  18 -1.481062E+05  7.285730E+04  9.094467E+04 -1.884919E+05  5.534586E-10  1.665207E-10
       170  19 -1.473732E+06 -6.258591E+05 -3.900355E+05 -5.495167E+05  1.669781E+05  5.034546E+04
       170  20 -1.416226E+06 -4.136655E+05 -2.443160E+05 -5.301280E+05  1.072603E+05  4.029228E+02
       170  21 -1.404203E+06 -3.520051E+05 -1.869303E+05 -4.937413E+05  3.963744E+04 -2.857871E+04
       170  22 -7.980676E+05 -2.923976E+05 -1.963774E+05 -2.837323E+05  1.298741E+05  3.640620E+04
       170  23 -7.667324E+05 -1.429956E+05 -8.697819E+04 -3.209474E+05  9.268200E+04 -5.071904E+03
       170  24 -7.763520E+05 -1.395808E+05 -4.797784E+04 -3.411847E+05  4.759462E+04 -2.558467E+04
       170  25 -1.219459E+05  4.119629E+04 -2.757840E+03 -1.765472E+04  9.272618E+04  2.243847E+04
       170  26 -1.168146E+05  1.277360E+05  7.032900E+04 -1.115559E+05  7.808712E+04 -1.055472E+04
       170  27 -1.481028E+05  7.285868E+04  9.095143E+04 -1.884930E+05  5.556058E+04 -2.258797E+04
       171   1 -1.336340E+06 -3.626191E+05 -1.667293E+05 -4.924288E+05 -3.806017E+04  2.504299E+04
       171   2 -1.282954E+06 -3.246012E+05 -1.344244E+05 -4.675181E+05 -2.605739E+04  2.649458E+04
       171   3 -1.218016E+06 -3.085161E+05 -1.120468E+05 -4.588967E+05 -1.366852E+04  2.691573E+04
       171   4 -7.701195E+05 -1.507453E+05 -3.744919E+04 -3.339877E+05 -4.040876E+04  2.415715E+04
       171   5 -7.755089E+05 -1.364589E+05 -1.960700E+04 -3.271259E+05 -2.950636E+04  2.519644E+04
       171   6 -7.691263E+05 -1.438826E+05 -1.081198E+04 -3.365546E+05 -1.821911E+04  2.520524E+04
       171   7 -2.035804E+05  6.115330E+04  9.180878E+04 -1.754144E+05 -4.275964E+04  2.327043E+04
       171   8 -2.678042E+05  5.170338E+04  9.519379E+04 -1.866284E+05 -3.295839E+04  2.389715E+04
       171   9 -3.200314E+05  2.076644E+04  9.041074E+04 -2.141309E+05 -2.277329E+04  2.349343E+04
       171  10 -1.336341E+06 -3.626201E+05 -1.667332E+05 -4.924280E+05  3.173946E-10 -3.797274E-11
       171  11 -1.282955E+06 -3.246021E+05 -1.344270E+05 -4.675176E+05  1.200911E-11 -3.863197E-10
       171  12 -1.218016E+06 -3.085169E+05 -1.120485E+05 -4.588964E+05 -5.654230E-10 -3.182655E-10
       171  13 -7.701214E+05 -1.507464E+05 -3.745335E+04 -3.339869E+05 -2.013593E-10 -2.564559E-11
       171  14 -7.755100E+05 -1.364598E+05 -1.960983E+04 -3.271253E+05 -8.977097E-10 -3.120219E-10
       171  15 -7.691269E+05 -1.438834E+05 -1.081380E+04 -3.365542E+05 -4.892181E-10 -8.617747E-11
       171  16 -2.035825E+05  6.115223E+04  9.180432E+04 -1.754136E+05 -3.824109E-10 -3.431784E-11
       171  17 -2.678055E+05  5.170248E+04  9.519067E+04 -1.866278E+05  3.546791E-10 -1.396491E-10
       171  18 -3.200321E+05  2.076571E+04  9.040873E+04 -2.141305E+05  1.038082E-10  1.793876E-10
       171  19 -1.336340E+06 -3.626191E+05 -1.667293E+05 -4.924288E+05  3.806017E+04 -2.504299E+04
       171  20 -1.282954E+06 -3.246012E+05 -1.344244E+05 -4.675181E+05  2.605739E+04 -2.649458E+04
       171  21 -1.218016E+06 -3.085161E+05 -1.120468E+05 -4.588967E+05  1.366852E+04 -2.691573E+04
       171  22 -7.701195E+05 -1.507453E+05 -3.744919E+04 -3.339877E+05  4.040876E+04 -2.415715E+04
       171  23 -7.755089E+05 -1.364589E+05 -1.960700E+04 -3.271259E+05  2.950636E+04 -2.519644E+04
       171  24 -7.691263E+05 -1.438826E+05 -1.081198E+04 -3.365546E+05  1.821911E+04 -2.520524E+04
       171  25 -2.035804E+05  6.115330E+04  9.180878E+04 -1.754144E+05  4.275964E+04 -2.327043E+04
       171  26 -2.678042E+05  5.170338E+04  9.519379E+04 -1.866284E+05  3.295839E+04 -2.389715E+04
       171  27 -3.200314E+05  2.076644E+04  9.041074E+04 -2.141309E+05  2.277329E+04 -2.349343E+04
       172   1 -1.171470E+06 -2.929904E+05 -9.884476E+04 -4.469616E+05 -1.149629E+04  2.496103E+04
       172   2 -1.118535E+06 -2.626504E+05 -8.165959E+04 -4.214972E+05 -7.694645E+03  2.181469E+04
       172   3 -1.050505E+06 -2.481246E+05 -6.625767E+04 -4.137519E+05 -3.872846E+03  1.861003E+04
       172   4 -7.686322E+05 -1.443803E+05 -8.173786E+03 -3.361879E+05 -1.578417E+04  2.334989E+04
       172   5 -7.761574E+05 -1.363448E+05 -4.479487E+03 -3.273754E+05 -1.204376E+04  2.018152E+04
       172   6 -7.685794E+05 -1.441107E+05 -2.518909E+03 -3.362825E+05 -8.283452E+03  1.695478E+04
       172   7 -3.656313E+05  4.242125E+03  8.248684E+04 -2.253484E+05 -2.007508E+04  2.173763E+04
       172   8 -4.336631E+05 -1.003080E+04  7.269284E+04 -2.332064E+05 -1.639547E+04  1.854739E+04
       172   9 -4.865754E+05 -4.009140E+04  6.121429E+04 -2.587813E+05 -1.269620E+04  1.529874E+04
       172  10 -1.171470E+06 -2.929911E+05 -9.884618E+04 -4.469613E+05 -5.737792E-10  2.739601E-11
       172  11 -1.118535E+06 -2.626509E+05 -8.166059E+04 -4.214971E+05 -4.503659E-10 -8.097278E-11
       172  12 -1.050505E+06 -2.481250E+05 -6.625835E+04 -4.137519E+05  2.766893E-11 -3.319874E-11
       172  13 -7.686327E+05 -1.443809E+05 -8.175278E+03 -3.361876E+05 -1.860969E-10  3.223389E-11
       172  14 -7.761577E+05 -1.363453E+05 -4.480525E+03 -3.273752E+05 -2.925234E-10 -1.757106E-10
       172  15 -7.685796E+05 -1.441110E+05 -2.519578E+03 -3.362824E+05  7.286944E-11 -1.282356E-10
       172  16 -3.656319E+05  4.241509E+03  8.248519E+04 -2.253480E+05 -3.894751E-10 -1.072718E-10
       172  17 -4.336634E+05 -1.003124E+04  7.269169E+04 -2.332061E+05  1.380798E-10 -2.857050E-10
       172  18 -4.865756E+05 -4.009169E+04  6.121355E+04 -2.587811E+05  4.275411E-10 -1.661239E-10
       172  19 -1.171470E+06 -2.929904E+05 -9.884476E+04 -4.469616E+05  1.149629E+04 -2.496103E+04
       172  20 -1.118535E+06 -2.626504E+05 -8.165959E+04 -4.214972E+05  7.694645E+03 -2.181469E+04
       172  21 -1.050505E+06 -2.481246E+05 -6.625767E+04 -4.137519E+05  3.872846E+03 -1.861003E+04
       172  22 -7.686322E+05 -1.443803E+05 -8.173786E+03 -3.361879E+05  1.578417E+04 -2.334989E+04
       172  23 -7.761574E+05 -1.363448E+05 -4.479487E+03 -3.273754E+05  1.204376E+04 -2.018152E+04
       172  24 -7.685794E+05 -1.441107E+05 -2.518909E+03 -3.362825E+05  8.283452E+03 -1.695478E+04
       172  25 -3.656313E+05  4.242125E+03  8.248684E+04 -2.253484E+05  2.007508E+04 -2.173763E+04
       172  26 -4.336631E+05 -1.003080E+04  7.269284E+04 -2.332064E+05  1.639547E+04 -1.854739E+04
       172  27 -4.865754E+05 -4.009140E+04  6.121429E+04 -2.587813E+05  1.269620E+04 -1.529874E+04
       173   1 -1.004850E+06 -2.312995E+05 -5.500695E+04 -4.012746E+05 -2.616644E+03  1.636236E+04
       173   2 -9.518220E+05 -2.011376E+05 -4.077051E+04 -3.756590E+05 -4.791617E+02  1.249683E+04
       173   3 -8.833292E+05 -1.865382E+05 -2.698437E+04 -3.678577E+05  1.659916E+03  8.624524E+03
       173   4 -7.685064E+05 -1.441358E+05 -1.935846E+03 -3.362725E+05 -7.020506E+03  1.471009E+04
       173   5 -7.762321E+05 -1.363473E+05 -1.196026E+03 -3.273658E+05 -4.890185E+03  1.084236E+04
       173   6 -7.684966E+05 -1.441203E+05 -9.011463E+02 -3.362750E+05 -2.758341E+03  6.967851E+03
       173   7 -5.321055E+05 -5.696726E+04  5.113220E+04 -2.712473E+05 -1.142621E+04  1.305714E+04
       173   8 -6.006107E+05 -7.155443E+04  3.837672E+04 -2.790599E+05 -9.302575E+03  9.187385E+03
       173   9 -6.536507E+05 -1.017015E+05  2.518131E+04 -3.046868E+05 -7.177485E+03  5.310845E+03
       173  10 -1.004850E+06 -2.312998E+05 -5.500747E+04 -4.012746E+05  6.909451E-11  9.626401E-11
       173  11 -9.518220E+05 -2.011378E+05 -4.077080E+04 -3.756590E+05  2.903806E-10  4.925518E-11
       173  12 -8.833293E+05 -1.865383E+05 -2.698452E+04 -3.678577E+05  1.981344E-10 -1.518303E-10
       173  13 -7.685065E+05 -1.441360E+05 -1.936345E+03 -3.362724E+05  3.866552E-10 -6.822855E-11
       173  14 -7.762322E+05 -1.363474E+05 -1.196292E+03 -3.273657E+05 -4.929040E-10  3.536894E-11
       173  15 -7.684967E+05 -1.441204E+05 -9.012517E+02 -3.362749E+05  3.511034E-10 -8.476883E-12
       173  16 -5.321057E+05 -5.696748E+04  5.113163E+04 -2.712472E+05  6.950129E-10 -8.268312E-11
       173  17 -6.006108E+05 -7.155454E+04  3.837639E+04 -2.790598E+05 -8.836759E-10 -7.388794E-12
       173  18 -6.536508E+05 -1.017015E+05  2.518116E+04 -3.046868E+05 -4.010489E-10  1.507246E-10
       173  19 -1.004850E+06 -2.312995E+05 -5.500695E+04 -4.012746E+05  2.616644E+03 -1.636236E+04
       173  20 -9.518220E+05 -2.011376E+05 -4.077051E+04 -3.756590E+05  4.791617E+02 -1.249683E+04
       173  21 -8.833292E+05 -1.865382E+05 -2.698437E+04 -3.678577E+05 -1.659916E+03 -8.624524E+03
       173  22 -7.685064E+05 -1.441358E+05 -1.935846E+03 -3.362725E+05  7.020506E+03 -1.471009E+04
       173  23 -7.762321E+05 -1.363473E+05 -1.196026E+03 -3.273658E+05  4.890185E+03 -1.084236E+04
       173  24 -7.684966E+05 -1.441203E+05 -9.011463E+02 -3.362750E+05  2.758341E+03 -6.967851E+03
       173  25 -5.321055E+05 -5.696726E+04  5.113220E+04 -2.712473E+05  1.142621E+04 -1.305714E+04
       173  26 -6.006107E+05 -7.155443E+04  3.837672E+04 -2.790599E+05  9.302575E+03 -9.187385E+03
       173  27 -6.536507E+05 -1.017015E+05  2.518131E+04 -3.046868E+05  7.177485E+03 -5.310845E+03
       174   1 -8.376311E+05 -1.696156E+05 -1.626447E+04 -3.553266E+05  2.705854E+03  6.293189E+03
       174   2 -7.845031E+05 -1.394173E+05 -2.944720E+03 -3.296700E+05  4.778050E+03  2.391078E+03
       174   3 -7.158899E+05 -1.248011E+05  9.973398E+03 -3.218586E+05  6.849650E+03 -1.509567E+03
       174   4 -7.684902E+05 -1.441244E+05 -8.804620E+02 -3.362812E+05 -1.714791E+03  4.635787E+03
       174   5 -7.762305E+05 -1.363306E+05 -1.075296E+03 -3.273588E+05  3.587763E+02  7.342129E+02
       174   6 -7.684894E+05 -1.441195E+05 -1.672798E+03 -3.362830E+05  2.431695E+03 -3.165913E+03
       174   7 -6.993449E+05 -1.186329E+05  1.450321E+04 -3.172340E+05 -6.135943E+03  2.978194E+03
       174   8 -7.679577E+05 -1.332439E+05  7.942077E+02 -3.250475E+05 -4.060561E+03 -9.226766E+02
       174   9 -8.210864E+05 -1.634377E+05 -1.331917E+04 -3.507064E+05 -1.985881E+03 -4.822118E+03
       174  10 -8.376311E+05 -1.696156E+05 -1.626456E+04 -3.553266E+05 -1.206179E-10 -1.788905E-10
       174  11 -7.845032E+05 -1.394173E+05 -2.944774E+03 -3.296700E+05 -9.507901E-10  1.201800E-10
       174  12 -7.158899E+05 -1.248011E+05  9.973305E+03 -3.218586E+05 -8.680137E-10  1.333734E-10
       174  13 -7.684902E+05 -1.441244E+05 -8.805079E+02 -3.362812E+05  8.115811E-11  4.404728E-11
       174  14 -7.762305E+05 -1.363306E+05 -1.075297E+03 -3.273588E+05 -3.500063E-10  4.927209E-11
       174  15 -7.684894E+05 -1.441195E+05 -1.672828E+03 -3.362830E+05  8.374769E-10  2.612211E-10
       174  16 -6.993450E+05 -1.186329E+05  1.450312E+04 -3.172340E+05  2.324152E-11  1.302715E-10
       174  17 -7.679577E+05 -1.332439E+05  7.941751E+02 -3.250475E+05 -1.850224E-10  5.328912E-12
       174  18 -8.210864E+05 -1.634378E+05 -1.331922E+04 -3.507064E+05  7.463558E-10  2.747866E-10
       174  19 -8.376311E+05 -1.696156E+05 -1.626447E+04 -3.553266E+05 -2.705854E+03 -6.293189E+03
       174  20 -7.845031E+05 -1.394173E+05 -2.944720E+03 -3.296700E+05 -4.778050E+03 -2.391078E+03
       174  21 -7.158899E+05 -1.248011E+05  9.973398E+03 -3.218586E+05 -6.849650E+03  1.509567E+03
       174  22 -7.684902E+05 -1.441244E+05 -8.804620E+02 -3.362812E+05  1.714791E+03 -4.635787E+03
       174  23 -7.762305E+05 -1.363306E+05 -1.075296E+03 -3.273588E+05 -3.587763E+02 -7.342129E+02
       174  24 -7.684894E+05 -1.441195E+05 -1.672798E+03 -3.362830E+05 -2.431695E+03  3.165913E+03
       174  25 -6.993449E+05 -1.186329E+05  1.450321E+04 -3.172340E+05  6.135943E+03 -2.978194E+03
       174  26 -7.679577E+05 -1.332439E+05  7.942077E+02 -3.250475E+05  4.060561E+03  9.226766E+02
       174  27 -8.210864E+05 -1.634377E+05 -1.331917E+04 -3.507064E+05  1.985881E+03  4.822118E+03
       175   1 -6.702073E+05 -1.078878E+05  2.018637E+04 -3.093708E+05  8.071390E+03 -3.777397E+03
       175   2 -6.170358E+05 -7.769930E+04  3.204648E+04 -2.837024E+05  1.145706E+04 -7.168906E+03
       175   3 -5.486545E+05 -6.332950E+04  4.246143E+04 -2.758518E+05  1.482816E+04 -1.051886E+04
       175   4 -7.685443E+05 -1.441057E+05 -2.158789E+03 -3.363033E+05  3.645099E+03 -5.437005E+03
       175   5 -7.761620E+05 -1.362979E+05 -3.801662E+03 -3.273554E+05  7.074667E+03 -8.812509E+03
       175   6 -7.685819E+05 -1.443181E+05 -6.924658E+03 -3.362271E+05  1.048945E+04 -1.214650E+04
       175   7 -8.668716E+05 -1.803229E+05 -2.450449E+04 -3.632318E+05 -7.804299E+02 -7.096329E+03
       175   8 -9.352621E+05 -1.948944E+05 -3.965120E+04 -3.709980E+05  2.693505E+03 -1.045565E+04
       175   9 -9.884592E+05 -2.253025E+05 -5.631336E+04 -3.965823E+05  6.152442E+03 -1.377352E+04
       175  10 -6.702074E+05 -1.078879E+05  2.018622E+04 -3.093708E+05 -1.904532E-10  2.437134E-10
       175  11 -6.170360E+05 -7.769939E+04  3.204613E+04 -2.837024E+05 -7.148362E-10 -4.641047E-11
       175  12 -5.486548E+05 -6.332967E+04  4.246081E+04 -2.758517E+05 -3.871818E-10 -1.934220E-10
       175  13 -7.685444E+05 -1.441058E+05 -2.158869E+03 -3.363032E+05  4.485681E-10  5.082759E-11
       175  14 -7.761621E+05 -1.362980E+05 -3.801902E+03 -3.273554E+05 -1.108814E-10 -1.251783E-10
       175  15 -7.685821E+05 -1.443183E+05 -6.925141E+03 -3.362270E+05  5.158925E-10 -2.284562E-10
       175  16 -8.668716E+05 -1.803229E+05 -2.450458E+04 -3.632318E+05  9.131936E-11  6.749875E-11
       175  17 -9.352621E+05 -1.948945E+05 -3.965142E+04 -3.709980E+05  5.734737E-11 -1.000674E-10
       175  18 -9.884593E+05 -2.253028E+05 -5.631379E+04 -3.965823E+05 -2.702581E-11 -2.812481E-10
       175  19 -6.702073E+05 -1.078878E+05  2.018637E+04 -3.093708E+05 -8.071390E+03  3.777397E+03
       175  20 -6.170358E+05 -7.769930E+04  3.204648E+04 -2.837024E+05 -1.145706E+04  7.168906E+03
       175  21 -5.486545E+05 -6.332950E+04  4.246143E+04 -2.758518E+05 -1.482816E+04  1.051886E+04
       175  22 -7.685443E+05 -1.441057E+05 -2.158789E+03 -3.363033E+05 -3.645099E+03  5.437005E+03
       175  23 -7.761620E+05 -1.362979E+05 -3.801662E+03 -3.273554E+05 -7.074667E+03  8.812509E+03
       175  24 -7.685819E+05 -1.443181E+05 -6.924658E+03 -3.362271E+05 -1.048945E+04  1.214650E+04
       175  25 -8.668716E+05 -1.803229E+05 -2.450449E+04 -3.632318E+05  7.804299E+02  7.096329E+03
       175  26 -9.352621E+05 -1.948944E+05 -3.965120E+04 -3.709980E+05 -2.693505E+03  1.045565E+04
       175  27 -9.884592E+05 -2.253025E+05 -5.631336E+04 -3.965823E+05 -6.152442E+03  1.377352E+04
       176   1 -5.027989E+05 -4.667615E+04  5.087100E+04 -2.643937E+05  1.723190E+04 -1.238665E+04
       176   2 -4.500757E+05 -1.570021E+04  5.706314E+04 -2.370466E+05  2.619995E+04 -1.337978E+04
       176   3 -3.847833E+05 -5.412630E+03  5.625658E+04 -2.263482E+05  3.487673E+04 -1.358994E+04
       176   4 -7.689924E+05 -1.439020E+05 -9.155739E+03 -3.365449E+05  1.269085E+04 -1.409059E+04
       176   5 -7.756082E+05 -1.363714E+05 -1.659058E+04 -3.271356E+05  2.249769E+04 -1.476999E+04
       176   6 -7.698274E+05 -1.496994E+05 -3.169273E+04 -3.343779E+05  3.201240E+04 -1.466652E+04
       176   7 -1.035116E+06 -2.411235E+05 -6.918742E+04 -4.086683E+05  8.151890E+03 -1.579377E+04
       176   8 -1.101035E+06 -2.570347E+05 -9.025142E+04 -4.171816E+05  1.879753E+04 -1.615940E+04
       176   9 -1.154723E+06 -2.939739E+05 -1.196518E+05 -4.423460E+05  2.914999E+04 -1.574235E+04
       176  10 -5.027992E+05 -4.667640E+04  5.087015E+04 -2.643935E+05  3.292552E-11 -2.199312E-10
       176  11 -4.500764E+05 -1.570059E+04  5.706151E+04 -2.370463E+05  4.073157E-11 -2.230304E-10
       176  12 -3.847846E+05 -5.413155E+03  5.625394E+04 -2.263478E+05  4.718910E-10 -1.626590E-10
       176  13 -7.689926E+05 -1.439023E+05 -9.156414E+03 -3.365447E+05  3.123325E-10 -1.960412E-10
       176  14 -7.756088E+05 -1.363718E+05 -1.659194E+04 -3.271354E+05  6.526426E-10 -1.076853E-10
       176  15 -7.698286E+05 -1.496999E+05 -3.169506E+04 -3.343776E+05  4.517799E-10 -2.894787E-10
       176  16 -1.035117E+06 -2.411238E+05 -6.918802E+04 -4.086682E+05  3.257713E-11 -2.276355E-10
       176  17 -1.101036E+06 -2.570351E+05 -9.025257E+04 -4.171814E+05  5.034340E-10 -9.594833E-11
       176  18 -1.154724E+06 -2.939743E+05 -1.196539E+05 -4.423456E+05 -4.307041E-10 -2.258015E-10
       176  19 -5.027989E+05 -4.667615E+04  5.087100E+04 -2.643937E+05 -1.723190E+04  1.238665E+04
       176  20 -4.500757E+05 -1.570021E+04  5.706314E+04 -2.370466E+05 -2.619995E+04  1.337978E+04
       176  21 -3.847833E+05 -5.412630E+03  5.625658E+04 -2.263482E+05 -3.487673E+04  1.358994E+04
       176  22 -7.689924E+05 -1.439020E+05 -9.155739E+03 -3.365449E+05 -1.269085E+04  1.409059E+04
       176  23 -7.756082E+05 -1.363714E+05 -1.659058E+04 -3.271356E+05 -2.249769E+04  1.476999E+04
       176  24 -7.698274E+05 -1.496994E+05 -3.169273E+04 -3.343779E+05 -3.201240E+04  1.466652E+04
       176  25 -1.035116E+06 -2.411235E+05 -6.918742E+04 -4.086683E+05 -8.151890E+03  1.579377E+04
       176  26 -1.101035E+06 -2.570347E+05 -9.025142E+04 -4.171816E+05 -1.879753E+04  1.615940E+04
       176  27 -1.154723E+06 -2.939739E+05 -1.196518E+05 -4.423460E+05 -2.914999E+04  1.574235E+04
       177   1 -3.305458E+05  7.185210E+03  5.731742E+04 -2.354786E+05  4.533806E+04 -1.347110E+04
       177   2 -2.952928E+05  5.842746E+04  4.161373E+04 -1.661308E+05  6.678595E+04 -3.847424E+03
       177   3 -2.887115E+05 -1.303113E+04 -2.002701E+04 -8.542549E+04  8.223776E+04  2.174175E+04
       177   4 -7.750879E+05 -1.402640E+05 -4.060299E+04 -3.404866E+05  3.819704E+04 -1.615249E+04
       177   5 -7.681915E+05 -1.418714E+05 -7.360076E+04 -3.218844E+05  7.683000E+04 -7.980966E+01
       177   6 -7.934153E+05 -2.696499E+05 -1.661904E+05 -2.919190E+05  1.094621E+05  3.196010E+04
       177   7 -1.219429E+06 -2.877064E+05 -1.385344E+05 -4.454293E+05  3.106161E+04 -1.883228E+04
       177   8 -1.240864E+06 -3.421339E+05 -1.888313E+05 -4.775225E+05  8.686573E+04  3.683659E+03
       177   9 -1.297860E+06 -5.261839E+05 -3.123750E+05 -4.982402E+05  1.366625E+05  4.216201E+04
       177  10 -3.305480E+05  7.184463E+03  5.731321E+04 -2.354781E+05 -1.185324E-09 -1.667992E-10
       177  11 -2.952975E+05  5.842624E+04  4.160532E+04 -1.661306E+05 -2.212499E-10  5.308558E-10
       177  12 -2.887189E+05 -1.303346E+04 -2.004062E+04 -8.542693E+04  6.298835E-11  2.469243E-10
       177  13 -7.750896E+05 -1.402647E+05 -4.060623E+04 -3.404861E+05  2.907802E-10 -7.488502E-11
       177  14 -7.681978E+05 -1.418730E+05 -7.361186E+04 -3.218844E+05  1.506831E-10  7.218550E-11
       177  15 -7.934284E+05 -2.696543E+05 -1.662149E+05 -2.919218E+05  3.058198E-10  2.688601E-10
       177  16 -1.219430E+06 -2.877071E+05 -1.385369E+05 -4.454288E+05  3.149288E-10 -6.341568E-11
       177  17 -1.240872E+06 -3.421359E+05 -1.888455E+05 -4.775228E+05  4.468025E-10 -2.143405E-10
       177  18 -1.297881E+06 -5.261908E+05 -3.124135E+05 -4.982449E+05 -6.250227E-10 -5.318803E-11
       177  19 -3.305458E+05  7.185210E+03  5.731742E+04 -2.354786E+05 -4.533806E+04  1.347110E+04
       177  20 -2.952928E+05  5.842746E+04  4.161373E+04 -1.661308E+05 -6.678595E+04  3.847424E+03
       177  21 -2.887115E+05 -1.303113E+04 -2.002701E+04 -8.542549E+04 -8.223776E+04 -2.174175E+04
       177  22 -7.750879E+05 -1.402640E+05 -4.060299E+04 -3.404866E+05 -3.819704E+04  1.615249E+04
       177  23 -7.681915E+05 -1.418714E+05 -7.360076E+04 -3.218844E+05 -7.683000E+04  7.980966E+01
       177  24 -7.934153E+05 -2.696499E+05 -1.661904E+05 -2.919190E+05 -1.094621E+05 -3.196010E+04
       177  25 -1.219429E+06 -2.877064E+05 -1.385344E+05 -4.454293E+05 -3.106161E+04  1.883228E+04
       177  26 -1.240864E+06 -3.421339E+05 -1.888313E+05 -4.775225E+05 -8.686573E+04 -3.683659E+03
       177  27 -1.297860E+06 -5.261839E+05 -3.123750E+05 -4.982402E+05 -1.366625E+05 -4.216201E+04
       178   1 -5.456156E+05 -1.459350E+05 -1.092373E+05 -1.203193E+03  6.627189E+04  1.690030E+04
       178   2 -4.463928E+05 -2.572300E+05 -1.505495E+05 -3.518287E+04  5.812074E+04  5.395228E+04
       178   3 -3.149701E+05 -2.454763E+05 -1.557291E+05 -1.054311E+05  5.000199E+04  5.888423E+04
       178   4  6.812388E+05  1.580112E+05  1.848010E+05 -8.546366E+04  1.276010E+05  1.694756E+04
       178   5  6.620295E+05  1.170997E+04  8.608431E+04 -6.727681E+04  8.240400E+04  5.395840E+04
       178   6  6.813680E+05 -5.242920E+03  4.916014E+04 -8.535039E+04  3.724455E+04  5.887376E+04
       178   7  1.909496E+06  4.618771E+05  4.787509E+05 -1.698916E+05  1.890507E+05  1.697813E+04
       178   8  1.771612E+06  2.805741E+05  3.226500E+05 -9.942905E+04  1.067299E+05  5.396201E+04
       178   9  1.678649E+06  2.349295E+05  2.539971E+05 -6.523690E+04  2.446695E+04  5.886248E+04
       178  10 -5.456204E+05 -1.459364E+05 -1.092461E+05 -1.204096E+03  1.189314E-10  2.597289E-10
       178  11 -4.463972E+05 -2.572340E+05 -1.505613E+05 -3.518539E+04  8.853538E-10 -1.055822E-10
       178  12 -3.149737E+05 -2.454807E+05 -1.557403E+05 -1.054335E+05  6.016293E-10 -3.125292E-10
       178  13  6.812213E+05  1.580065E+05  1.847699E+05 -8.546540E+04 -5.375003E-11 -2.189260E-10
       178  14  6.620215E+05  1.170502E+04  8.606609E+04 -6.728039E+04 -5.127722E-11 -4.501240E-11
       178  15  6.813656E+05 -5.247016E+03  4.915102E+04 -8.535216E+04 -1.240439E-10 -3.202589E-10
       178  16  1.909457E+06  4.618672E+05  4.786834E+05 -1.698942E+05 -3.154295E-10  3.525605E-10
       178  17  1.771599E+06  2.805679E+05  3.226231E+05 -9.943368E+04 -6.914361E-10 -3.391218E-10
       178  18  1.678648E+06  2.349257E+05  2.539894E+05 -6.523806E+04 -5.399294E-10 -4.100093E-10
       178  19 -5.456156E+05 -1.459350E+05 -1.092373E+05 -1.203193E+03 -6.627189E+04 -1.690030E+04
       178  20 -4.463928E+05 -2.572300E+05 -1.505495E+05 -3.518287E+04 -5.812074E+04 -5.395228E+04
       178  21 -3.149701E+05 -2.454763E+05 -1.557291E+05 -1.054311E+05 -5.000199E+04 -5.888423E+04
       178  22  6.812388E+05  1.580112E+05  1.848010E+05 -8.546366E+04 -1.276010E+05 -1.694756E+04
       178  23  6.620295E+05  1.170997E+04  8.608431E+04 -6.727681E+04 -8.240400E+04 -5.395840E+04
       178  24  6.813680E+05 -5.242920E+03  4.916014E+04 -8.535039E+04 -3.724455E+04 -5.887376E+04
       178  25  1.909496E+06  4.618771E+05  4.787509E+05 -1.698916E+05 -1.890507E+05 -1.697813E+04
       178  26  1.771612E+06  2.805741E+05  3.226500E+05 -9.942905E+04 -1.067299E+05 -5.396201E+04
       178  27  1.678649E+06  2.349295E+05  2.539971E+05 -6.523690E+04 -2.446695E+04 -5.886248E+04
       179   1 -2.382638E+05 -2.136620E+05 -1.495738E+05 -8.376535E+04  3.537199E+04  5.313031E+04
       179   2 -1.252632E+05 -1.920617E+05 -1.420792E+05 -6.654993E+04  2.676813E+04  4.806750E+04
       179   3 -9.587812E+03 -1.649395E+05 -1.275610E+05 -8.694962E+04  1.815768E+04  4.132354E+04
       179   4  6.734929E+05  6.260321E+03  3.847114E+04 -8.567738E+04  3.054185E+04  5.312306E+04
       179   5  6.720271E+05 -3.649888E+00  2.113572E+04 -6.687154E+04  1.998737E+04  4.806248E+04
       179   6  6.735552E+05 -4.121686E+02  1.216880E+04 -8.567754E+04  9.427851E+03  4.132178E+04
       179   7  1.586038E+06  2.261302E+05  2.264714E+05 -8.759226E+04  2.570470E+04  5.311585E+04
       179   8  1.469921E+06  1.920145E+05  1.843171E+05 -6.719355E+04  1.319806E+04  4.805748E+04
       179   9  1.357142E+06  1.640859E+05  1.518741E+05 -8.440399E+04  6.885855E+02  4.131999E+04
       179  10 -2.382659E+05 -2.136653E+05 -1.495815E+05 -8.376687E+04 -4.660071E-10 -4.684991E-10
       179  11 -1.252646E+05 -1.920643E+05 -1.420849E+05 -6.655097E+04  1.616482E-10 -1.425425E-10
       179  12 -9.588625E+03 -1.649414E+05 -1.275648E+05 -8.695023E+04  1.199223E-10 -2.461185E-10
       179  13  6.734912E+05  6.257039E+03  3.846408E+04 -8.567869E+04 -1.214606E-09 -5.084255E-10
       179  14  6.720261E+05 -6.238422E+00  2.113063E+04 -6.687231E+04  2.838330E-10 -2.129301E-10
       179  15  6.735547E+05 -4.140266E+02  1.216543E+04 -8.567786E+04  1.844978E-10  1.581129E-10
       179  16  1.586037E+06  2.261269E+05  2.264648E+05 -8.759336E+04 -9.449859E-11 -3.689693E-10
       179  17  1.469920E+06  1.920120E+05  1.843124E+05 -6.719406E+04 -1.522339E-10 -3.083587E-10
       179  18  1.357141E+06  1.640841E+05  1.518709E+05 -8.440402E+04  5.894744E-10  1.445759E-10
       179  19 -2.382638E+05 -2.136620E+05 -1.495738E+05 -8.376535E+04 -3.537199E+04 -5.313031E+04
       179  20 -1.252632E+05 -1.920617E+05 -1.420792E+05 -6.654993E+04 -2.676813E+04 -4.806750E+04
       179  21 -9.587812E+03 -1.649395E+05 -1.275610E+05 -8.694962E+04 -1.815768E+04 -4.132354E+04
       179  22  6.734929E+05  6.260321E+03  3.847114E+04 -8.567738E+04 -3.054185E+04 -5.312306E+04
       179  23  6.720271E+05 -3.649888E+00  2.113572E+04 -6.687154E+04 -1.998737E+04 -4.806248E+04
       179  24  6.735552E+05 -4.121686E+02  1.216880E+04 -8.567754E+04 -9.427851E+03 -4.132178E+04
       179  25  1.586038E+06  2.261302E+05  2.264714E+05 -8.759226E+04 -2.570470E+04 -5.311585E+04
       179  26  1.469921E+06  1.920145E+05  1.843171E+05 -6.719355E+04 -1.319806E+04 -4.805748E+04
       179  27  1.357142E+06  1.640859E+05  1.518741E+05 -8.440399E+04 -6.885855E+02 -4.131999E+04
       180   1  7.313610E+04 -1.442641E+05 -1.129018E+05 -8.588241E+04  1.583595E+04  3.695029E+04
       180   2  1.868253E+05 -1.170797E+05 -9.382679E+04 -6.700939E+04  1.329343E+04  2.969836E+04
       180   3  3.009581E+05 -8.960700E+04 -7.301797E+04 -8.568695E+04  1.074677E+04  2.236449E+04
       180   4  6.730117E+05  1.022074E+02  9.290435E+03 -8.566365E+04  7.532051E+03  3.694999E+04
       180   5  6.728059E+05 -9.654393E+01  5.333472E+03 -6.688932E+04  4.892081E+03  2.970002E+04
       180   6  6.730473E+05  1.010111E+01  3.176576E+03 -8.566383E+04  2.248427E+03  2.236818E+04
       180   7  1.273229E+06  1.444461E+05  1.314640E+05 -8.544463E+04 -7.797212E+02  3.694968E+04
       180   8  1.159011E+06  1.168718E+05  1.044816E+05 -6.676912E+04 -3.515721E+03  2.970168E+04
       180   9  1.045268E+06  8.961856E+04  7.936404E+04 -8.564067E+04 -6.254921E+03  2.237188E+04
       180  10  7.313546E+04 -1.442656E+05 -1.129048E+05 -8.588288E+04  5.252899E-10 -1.325087E-10
       180  11  1.868249E+05 -1.170806E+05 -9.382878E+04 -6.700970E+04  8.888774E-10  2.909942E-10
       180  12  3.009578E+05 -8.960757E+04 -7.301913E+04 -8.568715E+04 -6.477250E-10 -3.261239E-10
       180  13  6.730113E+05  1.007256E+02  9.287762E+03 -8.566387E+04 -5.470515E-10  1.581785E-10
       180  14  6.728056E+05 -9.749788E+01  5.331769E+03 -6.688944E+04 -1.326775E-09  2.981094E-10
       180  15  6.730472E+05  9.562301E+00  3.175626E+03 -8.566387E+04 -3.165018E-10  1.735086E-10
       180  16  1.273229E+06  1.444446E+05  1.314615E+05 -8.544460E+04 -1.037746E-09  2.510709E-10
       180  17  1.159011E+06  1.168709E+05  1.044799E+05 -6.676904E+04 -1.310546E-09 -3.402591E-10
       180  18  1.045268E+06  8.961801E+04  7.936303E+04 -8.564056E+04  1.024548E-11 -4.341134E-10
       180  19  7.313610E+04 -1.442641E+05 -1.129018E+05 -8.588241E+04 -1.583595E+04 -3.695029E+04
       180  20  1.868253E+05 -1.170797E+05 -9.382679E+04 -6.700939E+04 -1.329343E+04 -2.969836E+04
       180  21  3.009581E+05 -8.960700E+04 -7.301797E+04 -8.568695E+04 -1.074677E+04 -2.236449E+04
       180  22  6.730117E+05  1.022074E+02  9.290435E+03 -8.566365E+04 -7.532051E+03 -3.694999E+04
       180  23  6.728059E+05 -9.654393E+01  5.333472E+03 -6.688932E+04 -4.892081E+03 -2.970002E+04
       180  24  6.730473E+05  1.010111E+01  3.176576E+03 -8.566383E+04 -2.248427E+03 -2.236818E+04
       180  25  1.273229E+06  1.444461E+05  1.314640E+05 -8.544463E+04  7.797212E+02 -3.694968E+04
       180  26  1.159011E+06  1.168718E+05  1.044816E+05 -6.676912E+04  3.515721E+03 -2.970168E+04
       180  27  1.045268E+06  8.961856E+04  7.936404E+04 -8.564067E+04  6.254921E+03 -2.237188E+04
       181   1  3.838870E+05 -6.948068E+04 -5.617343E+04 -8.563941E+04  1.020434E+04  1.807590E+04
       181   2  4.975483E+05 -4.217686E+04 -3.410332E+04 -6.688911E+04  9.379504E+03  1.072461E+04
       181   3  6.113019E+05 -1.481980E+04 -1.149432E+04 -8.561712E+04  8.553203E+03  3.371410E+03
       181   4  6.729777E+05  3.748606E+01  2.495256E+03 -8.564799E+04  1.732400E+03  1.808040E+04
       181   5  6.729430E+05  3.365062E+01  1.668658E+03 -6.690916E+04  9.043707E+02  1.072981E+04
       181   6  6.729904E+05  8.465080E+01  1.383534E+03 -8.564800E+04  7.502124E+01  3.377335E+03
       181   7  9.621480E+05  6.955050E+04  6.115986E+04 -8.565657E+04 -6.743408E+03  1.808489E+04
       181   8  8.483671E+05  4.224228E+04  3.743928E+04 -6.692921E+04 -7.573112E+03  1.073500E+04
       181   9  7.346826E+05  1.498890E+04  1.426145E+04 -8.567888E+04 -8.403989E+03  3.383261E+03
       181  10  3.838868E+05 -6.948106E+04 -5.617424E+04 -8.563956E+04 -6.263520E-10 -1.131722E-10
       181  11  4.975482E+05 -4.217701E+04 -3.410370E+04 -6.688919E+04 -1.484616E-11  3.700092E-10
       181  12  6.113018E+05 -1.481983E+04 -1.149448E+04 -8.561714E+04  1.789739E-10  5.188440E-11
       181  13  6.729776E+05  3.713410E+01  2.494636E+03 -8.564802E+04  1.130066E-10 -4.970367E-10
       181  14  6.729430E+05  3.352673E+01  1.668440E+03 -6.690917E+04 -1.066132E-09  5.939797E-10
       181  15  6.729904E+05  8.463855E+01  1.383513E+03 -8.564800E+04 -3.481257E-10 -5.440203E-11
       181  16  9.621479E+05  6.955013E+04  6.115916E+04 -8.565647E+04 -1.775697E-11  3.582689E-11
       181  17  8.483670E+05  4.224214E+04  3.743896E+04 -6.692914E+04 -8.027544E-10  5.775743E-10
       181  18  7.346825E+05  1.498887E+04  1.426129E+04 -8.567886E+04 -1.044235E-09 -1.390289E-10
       181  19  3.838870E+05 -6.948068E+04 -5.617343E+04 -8.563941E+04 -1.020434E+04 -1.807590E+04
       181  20  4.975483E+05 -4.217686E+04 -3.410332E+04 -6.688911E+04 -9.379504E+03 -1.072461E+04
       181  21  6.113019E+05 -1.481980E+04 -1.149432E+04 -8.561712E+04 -8.553203E+03 -3.371410E+03
       181  22  6.729777E+05  3.748606E+01  2.495256E+03 -8.564799E+04 -1.732400E+03 -1.808040E+04
       181  23  6.729430E+05  3.365062E+01  1.668658E+03 -6.690916E+04 -9.043707E+02 -1.072981E+04
       181  24  6.729904E+05  8.465080E+01  1.383534E+03 -8.564800E+04 -7.502124E+01 -3.377335E+03
       181  25  9.621480E+05  6.955050E+04  6.115986E+04 -8.565657E+04  6.743408E+03 -1.808489E+04
       181  26  8.483671E+05  4.224228E+04  3.743928E+04 -6.692921E+04  7.573112E+03 -1.073500E+04
       181  27  7.346826E+05  1.498890E+04  1.426145E+04 -8.567888E+04  8.403989E+03 -3.383261E+03
       182   1  6.942388E+05  5.257511E+03  6.033006E+03 -8.565086E+04  8.296758E+03 -9.084757E+02
       182   2  8.079050E+05  3.250935E+04  2.929128E+04 -6.690393E+04  7.415004E+03 -8.259794E+03
       182   3  9.216707E+05  5.981815E+04  5.312501E+04 -8.562993E+04  6.534106E+03 -1.560880E+04
       182   4  6.729917E+05  8.520972E+01  1.402170E+03 -8.564706E+04 -1.816207E+02 -9.025004E+02
       182   5  6.729443E+05  3.577246E+01  1.770549E+03 -6.691034E+04 -1.061335E+03 -8.254390E+03
       182   6  6.729819E+05  4.319936E+01  2.712769E+03 -8.564704E+04 -1.940037E+03 -1.560393E+04
       182   7  6.517452E+05 -5.087083E+03 -3.228423E+03 -8.564325E+04 -8.659714E+03 -8.965251E+02
       182   8  5.380011E+05 -3.243891E+04 -2.575087E+04 -6.691674E+04 -9.535867E+03 -8.248986E+03
       182   9  4.243521E+05 -5.973556E+04 -4.770242E+04 -8.566414E+04 -1.041085E+04 -1.559905E+04
       182  10  6.942387E+05  5.257492E+03  6.032875E+03 -8.565086E+04 -6.519143E-10  1.160529E-10
       182  11  8.079049E+05  3.250927E+04  2.929104E+04 -6.690388E+04 -1.815570E-11  5.069113E-10
       182  12  9.216706E+05  5.981788E+04  5.312447E+04 -8.562985E+04  6.275566E-10 -2.771113E-10
       182  13  6.729917E+05  8.520884E+01  1.402169E+03 -8.564706E+04 -5.302892E-10 -1.483325E-10
       182  14  6.729443E+05  3.569897E+01  1.770419E+03 -6.691034E+04  5.800964E-10 -7.721053E-10
       182  15  6.729819E+05  4.293680E+01  2.712304E+03 -8.564707E+04  1.171231E-10  2.404408E-11
       182  16  6.517451E+05 -5.087104E+03 -3.228565E+03 -8.564325E+04 -4.423861E-10 -1.290334E-10
       182  17  5.380009E+05 -3.243901E+04 -2.575116E+04 -6.691680E+04  8.951698E-10 -7.796824E-10
       182  18  4.243519E+05 -5.973585E+04 -4.770308E+04 -8.566427E+04 -8.396203E-11 -2.201300E-10
       182  19  6.942388E+05  5.257511E+03  6.033006E+03 -8.565086E+04 -8.296758E+03  9.084757E+02
       182  20  8.079050E+05  3.250935E+04  2.929128E+04 -6.690393E+04 -7.415004E+03  8.259794E+03
       182  21  9.216707E+05  5.981815E+04  5.312501E+04 -8.562993E+04 -6.534106E+03  1.560880E+04
       182  22  6.729917E+05  8.520972E+01  1.402170E+03 -8.564706E+04  1.816207E+02  9.025004E+02
       182  23  6.729443E+05  3.577246E+01  1.770549E+03 -6.691034E+04  1.061335E+03  8.254390E+03
       182  24  6.729819E+05  4.319936E+01  2.712769E+03 -8.564704E+04  1.940037E+03  1.560393E+04
       182  25  6.517452E+05 -5.087083E+03 -3.228423E+03 -8.564325E+04  8.659714E+03  8.965251E+02
       182  26  5.380011E+05 -3.243891E+04 -2.575087E+04 -6.691674E+04  9.535867E+03  8.248986E+03
       182  27  4.243521E+05 -5.973556E+04 -4.770242E+04 -8.566414E+04  1.041085E+04  1.559905E+04
       183   1  1.004775E+06  7.988080E+04  7.140495E+04 -8.561034E+04  5.997481E+03 -1.989468E+04
       183   2  1.118459E+06  1.071229E+05  9.675210E+04 -6.674939E+04  2.995189E+03 -2.722315E+04
       183   3  1.232647E+06  1.347156E+05  1.241398E+05 -8.542217E+04 -4.257698E+00 -3.447207E+04
       183   4  6.730589E+05  1.504372E+01  3.473825E+03 -8.566084E+04 -2.502834E+03 -1.989050E+04
       183   5  6.728039E+05 -9.298574E+01  5.869451E+03 -6.689305E+04 -5.412152E+03 -2.722085E+04
       183   6  6.730260E+05  1.345300E+02  1.024259E+04 -8.566063E+04 -8.318093E+03 -3.447157E+04
       183   7  3.414475E+05 -7.985757E+04 -6.446287E+04 -8.571130E+04 -1.099870E+04 -1.988633E+04
       183   8  2.273380E+05 -1.073212E+05 -8.502339E+04 -6.703657E+04 -1.381358E+04 -2.721855E+04
       183   9  1.137022E+05 -1.344660E+05 -1.036708E+05 -8.589882E+04 -1.662458E+04 -3.447107E+04
       183  10  1.004775E+06  7.988036E+04  7.140414E+04 -8.561024E+04  9.265359E-10 -2.723239E-10
       183  11  1.118458E+06  1.071221E+05  9.675069E+04 -6.674932E+04  6.548316E-10 -1.066672E-10
       183  12  1.232647E+06  1.347143E+05  1.241376E+05 -8.542217E+04 -2.018915E-10 -4.293045E-11
       183  13  6.730588E+05  1.461706E+01  3.473070E+03 -8.566088E+04  3.920241E-10  1.986654E-10
       183  14  6.728037E+05 -9.378955E+01  5.868003E+03 -6.689317E+04  5.644824E-10 -2.477134E-10
       183  15  6.730256E+05  1.332350E+02  1.024022E+04 -8.566086E+04 -1.830703E-10 -2.467052E-10
       183  16  3.414473E+05 -7.985803E+04 -6.446384E+04 -8.571147E+04 -4.131150E-10  1.265915E-10
       183  17  2.273376E+05 -1.073221E+05 -8.502514E+04 -6.703688E+04 -4.841266E-10  5.304273E-10
       183  18  1.137016E+05 -1.344674E+05 -1.036736E+05 -8.589928E+04 -9.419132E-11  4.389513E-11
       183  19  1.004775E+06  7.988080E+04  7.140495E+04 -8.561034E+04 -5.997481E+03  1.989468E+04
       183  20  1.118459E+06  1.071229E+05  9.675210E+04 -6.674939E+04 -2.995189E+03  2.722315E+04
       183  21  1.232647E+06  1.347156E+05  1.241398E+05 -8.542217E+04  4.257698E+00  3.447207E+04
       183  22  6.730589E+05  1.504372E+01  3.473825E+03 -8.566084E+04  2.502834E+03  1.989050E+04
       183  23  6.728039E+05 -9.298574E+01  5.869451E+03 -6.689305E+04  5.412152E+03  2.722085E+04
       183  24  6.730260E+05  1.345300E+02  1.024259E+04 -8.566063E+04  8.318093E+03  3.447157E+04
       183  25  3.414475E+05 -7.985757E+04 -6.446287E+04 -8.571130E+04  1.099870E+04  1.988633E+04
       183  26  2.273380E+05 -1.073212E+05 -8.502339E+04 -6.703657E+04  1.381358E+04  2.721855E+04
       183  27  1.137022E+05 -1.344660E+05 -1.036708E+05 -8.589882E+04  1.662458E+04  3.447107E+04
       184   1  1.316570E+06  1.542954E+05  1.448426E+05 -8.428242E+04 -1.681895E+03 -3.883780E+04
       184   2  1.429145E+06  1.822599E+05  1.781931E+05 -6.728009E+04 -1.522299E+04 -4.559154E+04
       184   3  1.545320E+06  2.170068E+05  2.220700E+05 -8.786693E+04 -2.876159E+04 -5.072039E+04
       184   4  6.736251E+05 -4.300754E+02  1.342054E+04 -8.567315E+04 -1.040891E+04 -3.883867E+04
       184   5  6.719615E+05  3.230934E+01  2.332363E+04 -6.687697E+04 -2.206220E+04 -4.559559E+04
       184   6  6.735652E+05  6.956561E+03  4.245357E+04 -8.567246E+04 -3.371059E+04 -5.072671E+04
       184   7  3.107261E+04 -1.551814E+05 -1.180231E+05 -8.706236E+04 -1.912706E+04 -3.883950E+04
       184   8 -8.467837E+04 -1.822312E+05 -1.315761E+05 -6.647432E+04 -2.889322E+04 -4.559965E+04
       184   9 -1.974701E+05 -2.031416E+05 -1.372036E+05 -8.348111E+04 -3.865275E+04 -5.073308E+04
       184  10  1.316569E+06  1.542938E+05  1.448397E+05 -8.428247E+04 -2.348224E-10  5.338572E-11
       184  11  1.429144E+06  1.822576E+05  1.781888E+05 -6.728065E+04  2.326801E-10 -6.529794E-11
       184  12  1.545318E+06  2.170038E+05  2.220636E+05 -8.786810E+04  1.880262E-10 -9.083066E-12
       184  13  6.736246E+05 -4.317249E+02  1.341751E+04 -8.567347E+04 -5.470548E-10  1.184242E-11
       184  14  6.719605E+05  2.994559E+01  2.331881E+04 -6.687778E+04 -7.475459E-10 -7.864494E-11
       184  15  6.735633E+05  6.953492E+03  4.244660E+04 -8.567384E+04  5.019017E-10  4.544095E-11
       184  16  3.107182E+04 -1.551831E+05 -1.180266E+05 -8.706296E+04  3.946280E-10  6.258757E-12
       184  17 -8.467982E+04 -1.822336E+05 -1.315816E+05 -6.647538E+04 -1.833412E-09  2.908656E-11
       184  18 -1.974724E+05 -2.031448E+05 -1.372113E+05 -8.348269E+04  1.920519E-10  7.569033E-11
       184  19  1.316570E+06  1.542954E+05  1.448426E+05 -8.428242E+04  1.681895E+03  3.883780E+04
       184  20  1.429145E+06  1.822599E+05  1.781931E+05 -6.728009E+04  1.522299E+04  4.559154E+04
       184  21  1.545320E+06  2.170068E+05  2.220700E+05 -8.786693E+04  2.876159E+04  5.072039E+04
       184  22  6.736251E+05 -4.300754E+02  1.342054E+04 -8.567315E+04  1.040891E+04  3.883867E+04
       184  23  6.719615E+05  3.230934E+01  2.332363E+04 -6.687697E+04  2.206220E+04  4.559559E+04
       184  24  6.735652E+05  6.956561E+03  4.245357E+04 -8.567246E+04  3.371059E+04  5.072671E+04
       184  25  3.107261E+04 -1.551814E+05 -1.180231E+05 -8.706236E+04  1.912706E+04  3.883950E+04
       184  26 -8.467837E+04 -1.822312E+05 -1.315761E+05 -6.647432E+04  2.889322E+04  4.559965E+04
       184  27 -1.974701E+05 -2.031416E+05 -1.372036E+05 -8.348111E+04  3.865275E+04  5.073308E+04
       185   1  1.638648E+06  2.246031E+05  2.507158E+05 -6.327246E+04 -2.847718E+04 -5.641815E+04
       185   2  1.729639E+06  2.719579E+05  3.229064E+05 -1.029056E+05 -1.142219E+05 -5.190631E+04
       185   3  1.869262E+06  4.681280E+05  4.880941E+05 -1.788362E+05 -2.000205E+05 -1.634963E+04
       185   4  6.822536E+05 -5.731352E+03  5.424926E+04 -8.535687E+04 -4.110763E+04 -5.642747E+04
       185   5  6.609526E+05  1.298618E+04  9.500711E+04 -6.726782E+04 -9.094856E+04 -5.190616E+04
       185   6  6.821222E+05  1.744222E+05  2.039414E+05 -8.546460E+04 -1.408223E+05 -1.633178E+04
       185   7 -2.732734E+05 -2.361214E+05 -1.422654E+05 -1.074067E+05 -5.371898E+04 -5.643590E+04
       185   8 -4.066568E+05 -2.460547E+05 -1.329553E+05 -3.169223E+04 -6.771453E+04 -5.190335E+04
       185   9 -5.037033E+05 -1.193509E+05 -8.029291E+04  7.728000E+03 -8.173635E+04 -1.629618E+04
       185  10  1.638647E+06  2.245994E+05  2.507083E+05 -6.327375E+04 -1.519795E-09  3.927741E-10
       185  11  1.729624E+06  2.719515E+05  3.228769E+05 -1.029104E+05 -1.044040E-10  3.502804E-10
       185  12  1.869219E+06  4.681171E+05  4.880186E+05 -1.788388E+05 -1.837249E-10 -4.188368E-11
       185  13  6.822509E+05 -5.735226E+03  5.424010E+04 -8.535874E+04  2.264492E-10  6.157621E-10
       185  14  6.609430E+05  1.298107E+04  9.498652E+04 -6.727163E+04 -5.480632E-10  1.424152E-09
       185  15  6.821009E+05  1.744166E+05  2.039037E+05 -8.546646E+04 -5.464498E-10  1.902940E-11
       185  16 -2.732774E+05 -2.361255E+05 -1.422768E+05 -1.074092E+05 -5.710933E-11  3.528677E-10
       185  17 -4.066624E+05 -2.460589E+05 -1.329690E+05 -3.169506E+04  4.316268E-10  5.267559E-10
       185  18 -5.037106E+05 -1.193530E+05 -8.030597E+04  7.726926E+03 -5.998360E-11 -2.218533E-10
       185  19  1.638648E+06  2.246031E+05  2.507158E+05 -6.327246E+04  2.847718E+04  5.641815E+04
       185  20  1.729639E+06  2.719579E+05  3.229064E+05 -1.029056E+05  1.142219E+05  5.190631E+04
       185  21  1.869262E+06  4.681280E+05  4.880941E+05 -1.788362E+05  2.000205E+05  1.634963E+04
       185  22  6.822536E+05 -5.731352E+03  5.424926E+04 -8.535687E+04  4.110763E+04  5.642747E+04
       185  23  6.609526E+05  1.298618E+04  9.500711E+04 -6.726782E+04  9.094856E+04  5.190616E+04
       185  24  6.821222E+05  1.744222E+05  2.039414E+05 -8.546460E+04  1.408223E+05  1.633178E+04
       185  25 -2.732734E+05 -2.361214E+05 -1.422654E+05 -1.074067E+05  5.371898E+04  5.643590E+04
       185  26 -4.066568E+05 -2.460547E+05 -1.329553E+05 -3.169223E+04  6.771453E+04  5.190335E+04
       185  27 -5.037033E+05 -1.193509E+05 -8.029291E+04  7.728000E+03  8.173635E+04  1.629618E+04
       186   1  4.384342E+05  1.667503E+06  4.398716E+05 -3.755345E+05  1.587596E+04  1.129538E+05
       186   2  2.552124E+05  1.206909E+06  2.622343E+05 -2.789033E+05  4.460122E+04  4.426771E+04
       186   3  1.391869E+05  7.718926E+05  1.459603E+05 -3.274118E+05  3.200182E+04 -2.442860E+04
       186   4  7.217339E+04  1.918298E+05  8.339983E+04 -3.350858E+05  1.599043E+04  5.603271E+04
       186   5  6.169922E+03  1.833856E+05  4.007527E+04 -2.625853E+05  4.462657E+04  3.509854E+04
       186   6 -8.357732E+02  1.921184E+05  2.506575E+04 -3.352222E+05  3.191252E+04  1.410380E+04
       186   7 -2.942390E+05 -1.281846E+06 -2.732151E+05 -2.947318E+05  1.609767E+04 -7.539234E+02
       186   8 -2.429409E+05 -8.391556E+05 -1.821458E+05 -2.462939E+05  4.465146E+04  2.594423E+04
       186   9 -1.408788E+05 -3.873347E+05 -9.584176E+04 -3.430249E+05  3.182220E+04  5.260086E+04
       186  10  4.384305E+05  1.667489E+06  4.398472E+05 -3.755360E+05  1.539158E-10  1.028498E-09
       186  11  2.552097E+05  1.206906E+06  2.622269E+05 -2.789049E+05 -1.124858E-09  5.591576E-10
       186  12  1.391856E+05  7.718917E+05  1.459573E+05 -3.274112E+05  3.155520E-10 -1.048307E-09
       186  13  7.217227E+04  1.918264E+05  8.339345E+04 -3.350865E+05  1.171828E-10  7.323041E-10
       186  14  6.167452E+03  1.833837E+05  4.006921E+04 -2.625866E+05 -5.039128E-10  8.254101E-12
       186  15 -8.369206E+02  1.921179E+05  2.506346E+04 -3.352226E+05  1.848640E-10  7.226215E-10
       186  16 -2.942393E+05 -1.281846E+06 -2.732156E+05 -2.947318E+05 -1.159858E-10 -6.516315E-10
       186  17 -2.429432E+05 -8.391568E+05 -1.821509E+05 -2.462948E+05  1.496500E-09  1.074628E-10
       186  18 -1.408806E+05 -3.873380E+05 -9.584887E+04 -3.430263E+05 -5.789092E-10  1.208974E-09
       186  19  4.384342E+05  1.667503E+06  4.398716E+05 -3.755345E+05 -1.587596E+04 -1.129538E+05
       186  20  2.552124E+05  1.206909E+06  2.622343E+05 -2.789033E+05 -4.460122E+04 -4.426771E+04
       186  21  1.391869E+05  7.718926E+05  1.459603E+05 -3.274118E+05 -3.200182E+04  2.442860E+04
       186  22  7.217339E+04  1.918298E+05  8.339983E+04 -3.350858E+05 -1.599043E+04 -5.603271E+04
       186  23  6.169922E+03  1.833856E+05  4.007527E+04 -2.625853E+05 -4.462657E+04 -3.509854E+04
       186  24 -8.357732E+02  1.921184E+05  2.506575E+04 -3.352222E+05 -3.191252E+04 -1.410380E+04
       186  25 -2.942390E+05 -1.281846E+06 -2.732151E+05 -2.947318E+05 -1.609767E+04  7.539234E+02
       186  26 -2.429409E+05 -8.391556E+05 -1.821458E+05 -2.462939E+05 -4.465146E+04 -2.594423E+04
       186  27 -1.408788E+05 -3.873347E+05 -9.584176E+04 -3.430249E+05 -3.182220E+04 -5.260086E+04
       187   1  6.521264E+04  4.406274E+05  7.438917E+04 -3.374619E+05  1.317933E+04 -1.853087E+04
       187   2 -4.584707E+04 -7.434929E+03 -2.339619E+04 -2.617916E+05 -1.166681E+04 -2.628063E+04
       187   3 -1.518447E+05 -4.536688E+05 -1.150544E+05 -3.332789E+05 -3.599173E+04 -3.401889E+04
       187   4  4.225771E+03  1.887447E+05  2.129061E+04 -3.356407E+05  1.310874E+04  1.042105E+04
       187   5  1.209835E+03  1.878457E+05  1.662172E+04 -2.620650E+05 -1.173284E+04  2.062352E+03
       187   6  3.372620E+03  1.886905E+05  1.850835E+04 -3.356425E+05 -3.605388E+04 -6.290180E+03
       187   7 -5.676473E+04 -6.307631E+04 -3.180838E+04 -3.338203E+05  1.303830E+04  3.936142E+04
       187   8  4.826477E+04  3.831642E+05  5.664062E+04 -2.623384E+05 -1.179889E+04  3.041409E+04
       187   9  1.585641E+05  8.314423E+05  1.520513E+05 -3.380083E+05 -3.611619E+04  2.146676E+04
       187  10  6.521236E+04  4.406270E+05  7.438819E+04 -3.374617E+05 -8.118403E-10  3.057717E-10
       187  11 -4.584740E+04 -7.435707E+03 -2.339774E+04 -2.617919E+05  3.838544E-10  7.550530E-11
       187  12 -1.518464E+05 -4.536704E+05 -1.150590E+05 -3.332799E+05  9.004417E-11 -4.759064E-10
       187  13  4.225557E+03  1.887446E+05  2.129008E+04 -3.356408E+05 -9.308491E-10  1.069455E-09
       187  14  1.209686E+03  1.878456E+05  1.662145E+04 -2.620650E+05  3.559705E-11 -2.749710E-11
       187  15  3.371213E+03  1.886901E+05  1.850583E+04 -3.356427E+05 -1.086675E-09  6.159295E-10
       187  16 -5.676533E+04 -6.307802E+04 -3.181161E+04 -3.338207E+05 -2.664913E-10  3.036288E-10
       187  17  4.826438E+04  3.831632E+05  5.663862E+04 -2.623381E+05 -1.404171E-09  4.215575E-10
       187  18  1.585625E+05  8.314414E+05  1.520480E+05 -3.380077E+05 -1.302224E-11  6.377147E-10
       187  19  6.521264E+04  4.406274E+05  7.438917E+04 -3.374619E+05 -1.317933E+04  1.853087E+04
       187  20 -4.584707E+04 -7.434929E+03 -2.339619E+04 -2.617916E+05  1.166681E+04  2.628063E+04
       187  21 -1.518447E+05 -4.536688E+05 -1.150544E+05 -3.332789E+05  3.599173E+04  3.401889E+04
       187  22  4.225771E+03  1.887447E+05  2.129061E+04 -3.356407E+05 -1.310874E+04 -1.042105E+04
       187  23  1.209835E+03  1.878457E+05  1.662172E+04 -2.620650E+05  1.173284E+04 -2.062352E+03
       187  24  3.372620E+03  1.886905E+05  1.850835E+04 -3.356425E+05  3.605388E+04  6.290180E+03
       187  25 -5.676473E+04 -6.307631E+04 -3.180838E+04 -3.338203E+05 -1.303830E+04 -3.936142E+04
       187  26  4.826477E+04  3.831642E+05  5.664062E+04 -2.623384E+05  1.179889E+04 -3.041409E+04
       187  27  1.585641E+05  8.314423E+05  1.520513E+05 -3.380083E+05  3.611619E+04 -2.146676E+04
       188   1 -2.348137E+05 -7.789781E+05 -1.802804E+05 -3.403075E+05 -5.519745E+04 -4.932298E+04
       188   2 -3.391156E+05 -1.228095E+06 -2.735786E+05 -2.495095E+05 -6.427546E+04 -6.715526E+03
       188   3 -4.079133E+05 -1.673679E+06 -3.857917E+05 -3.033934E+05 -2.200875E+04  3.591697E+04
       188   4 -5.042062E+02  1.912106E+05  2.086446E+04 -3.351052E+05 -5.527986E+04 -9.464420E+03
       188   5  4.601683E+03  1.842241E+05  3.151814E+04 -2.627350E+05 -6.423004E+04 -2.593584E+04
       188   6  5.543667E+04  1.908161E+05  6.429380E+04 -3.350147E+05 -2.189072E+04 -4.235115E+04
       188   7  2.337465E+05  1.162295E+06  2.219640E+05 -3.298940E+05 -5.536154E+04  3.045543E+04
       188   8  3.481882E+05  1.598420E+06  3.364985E+05 -2.759898E+05 -6.418387E+04 -4.519929E+04
       188   9  5.185393E+05  2.058510E+06  5.141540E+05 -3.667296E+05 -2.176492E+04 -1.208538E+05
       188  10 -2.348176E+05 -7.789815E+05 -1.802907E+05 -3.403097E+05 -1.603955E-11  9.748874E-10
       188  11 -3.391200E+05 -1.228097E+06 -2.735865E+05 -2.495098E+05  1.589913E-09  4.409171E-10
       188  12 -4.079141E+05 -1.673680E+06 -3.857951E+05 -3.033928E+05  4.038395E-10 -6.702361E-10
       188  13 -5.075123E+02  1.912097E+05  2.085855E+04 -3.351057E+05  7.555819E-10  9.053244E-10
       188  14  4.597071E+03  1.842223E+05  3.150912E+04 -2.627363E+05  1.255953E-10  1.752683E-11
       188  15  5.543567E+04  1.908141E+05  6.428953E+04 -3.350155E+05  6.122381E-10  3.254769E-10
       188  16  2.337429E+05  1.162293E+06  2.219565E+05 -3.298927E+05 -8.406702E-10 -3.123980E-10
       188  17  3.481832E+05  1.598417E+06  3.364869E+05 -2.759921E+05  2.851705E-10 -1.481526E-10
       188  18  5.185349E+05  2.058494E+06  5.141257E+05 -3.667317E+05  7.073080E-11  5.748071E-10
       188  19 -2.348137E+05 -7.789781E+05 -1.802804E+05 -3.403075E+05  5.519745E+04  4.932298E+04
       188  20 -3.391156E+05 -1.228095E+06 -2.735786E+05 -2.495095E+05  6.427546E+04  6.715526E+03
       188  21 -4.079133E+05 -1.673679E+06 -3.857917E+05 -3.033934E+05  2.200875E+04 -3.591697E+04
       188  22 -5.042062E+02  1.912106E+05  2.086446E+04 -3.351052E+05  5.527986E+04  9.464420E+03
       188  23  4.601683E+03  1.842241E+05  3.151814E+04 -2.627350E+05  6.423004E+04  2.593584E+04
       188  24  5.543667E+04  1.908161E+05  6.429380E+04 -3.350147E+05  2.189072E+04  4.235115E+04
       188  25  2.337465E+05  1.162295E+06  2.219640E+05 -3.298940E+05  5.536154E+04 -3.045543E+04
       188  26  3.481882E+05  1.598420E+06  3.364985E+05 -2.759898E+05  6.418387E+04  4.519929E+04
       188  27  5.185393E+05  2.058510E+06  5.141540E+05 -3.667296E+05  2.176492E+04  1.208538E+05
       189   1 -2.124411E+06 -8.414049E+05 -5.030795E+05 -8.050973E+05 -2.285148E+05 -7.194147E+04
       189   2 -2.054146E+06 -5.418062E+05 -3.021147E+05 -7.824842E+05 -1.460858E+05 -1.035702E+04
       189   3 -2.051876E+06 -4.560103E+05 -2.236395E+05 -7.313868E+05 -5.473493E+04  2.756759E+04
       189   4 -1.383149E+06 -4.476716E+05 -2.850705E+05 -4.850123E+05 -1.870895E+05 -5.641212E+04
       189   5 -1.335937E+06 -2.323941E+05 -1.262328E+05 -5.409087E+05 -1.300530E+05 -4.346041E+03
       189   6 -1.351587E+06 -2.257584E+05 -6.962684E+04 -5.683507E+05 -6.410772E+04  2.404464E+04
       189   7 -6.413098E+05 -5.371590E+04 -6.710413E+04 -1.645244E+05 -1.456098E+05 -4.084296E+04
       189   8 -6.172050E+05  7.710811E+04  4.961153E+04 -2.990594E+05 -1.140000E+05  1.675335E+03
       189   9 -6.508090E+05  4.504902E+03  8.435544E+04 -4.051578E+05 -7.349193E+04  2.051850E+04
       189  10 -2.124469E+06 -8.414245E+05 -5.031878E+05 -8.051106E+05  3.737380E-11 -1.814192E-11
       189  11 -2.054169E+06 -5.418120E+05 -3.021552E+05 -7.824854E+05 -5.980656E-10  1.326953E-10
       189  12 -2.051879E+06 -4.560119E+05 -2.236465E+05 -7.313856E+05 -4.454979E-10 -4.439671E-10
       189  13 -1.383188E+06 -4.476845E+05 -2.851424E+05 -4.850208E+05  5.863401E-10 -6.405503E-10
       189  14 -1.335955E+06 -2.323987E+05 -1.262647E+05 -5.409092E+05  9.086226E-10 -7.674611E-10
       189  15 -1.351591E+06 -2.257601E+05 -6.963566E+04 -5.683494E+05  6.081257E-10 -5.382425E-10
       189  16 -6.413330E+05 -5.372339E+04 -6.714715E+04 -1.645292E+05  5.343530E-10 -9.844209E-11
       189  17 -6.172189E+05  7.710462E+04  4.958708E+04 -2.990592E+05  7.834773E-10 -6.058004E-10
       189  18 -6.508149E+05  4.503000E+03  8.434449E+04 -4.051566E+05 -1.575492E-11  2.020895E-10
       189  19 -2.124411E+06 -8.414049E+05 -5.030795E+05 -8.050973E+05  2.285148E+05  7.194147E+04
       189  20 -2.054146E+06 -5.418062E+05 -3.021147E+05 -7.824842E+05  1.460858E+05  1.035702E+04
       189  21 -2.051876E+06 -4.560103E+05 -2.236395E+05 -7.313868E+05  5.473493E+04 -2.756759E+04
       189  22 -1.383149E+06 -4.476716E+05 -2.850705E+05 -4.850123E+05  1.870895E+05  5.641212E+04
       189  23 -1.335937E+06 -2.323941E+05 -1.262328E+05 -5.409087E+05  1.300530E+05  4.346041E+03
       189  24 -1.351587E+06 -2.257584E+05 -6.962684E+04 -5.683507E+05  6.410772E+04 -2.404464E+04
       189  25 -6.413098E+05 -5.371590E+04 -6.710413E+04 -1.645244E+05  1.456098E+05  4.084296E+04
       189  26 -6.172050E+05  7.710811E+04  4.961153E+04 -2.990594E+05  1.140000E+05 -1.675335E+03
       189  27 -6.508090E+05  4.504902E+03  8.435544E+04 -4.051578E+05  7.349193E+04 -2.051850E+04
       190   1 -1.964062E+06 -4.752866E+05 -1.964859E+05 -7.324279E+05 -5.099087E+04  2.407390E+04
       190   2 -1.898650E+06 -4.270600E+05 -1.530166E+05 -7.021079E+05 -3.411451E+04  2.653243E+04
       190   3 -1.819958E+06 -4.070822E+05 -1.236900E+05 -6.914241E+05 -1.679872E+04  2.781942E+04
       190   4 -1.342583E+06 -2.419458E+05 -5.434753E+04 -5.578680E+05 -5.404483E+04  2.292316E+04
       190   5 -1.348622E+06 -2.229681E+05 -2.844572E+04 -5.499085E+05 -3.841474E+04  2.491545E+04
       190   6 -1.341136E+06 -2.319847E+05 -1.568600E+04 -5.615868E+05 -2.234744E+04  2.573584E+04
       190   7 -7.207115E+05 -8.571385E+03  8.776639E+04 -3.831455E+05 -5.710212E+04  2.177114E+04
       190   8 -7.982884E+05 -1.885175E+04  9.610613E+04 -3.975847E+05 -4.271911E+04  2.329691E+04
       190   9 -8.620826E+05 -5.687091E+04  9.230336E+04 -4.316580E+05 -2.790080E+04  2.365055E+04
       190  10 -1.964065E+06 -4.752879E+05 -1.964919E+05 -7.324269E+05  2.318079E-10 -2.926047E-10
       190  11 -1.898651E+06 -4.270611E+05 -1.530202E+05 -7.021071E+05 -9.481740E-11  1.536019E-10
       190  12 -1.819958E+06 -4.070831E+05 -1.236920E+05 -6.914237E+05 -9.182305E-11 -7.268186E-10
       190  13 -1.342586E+06 -2.419472E+05 -5.435401E+04 -5.578670E+05 -2.424777E-10  1.068155E-10
       190  14 -1.348624E+06 -2.229691E+05 -2.844966E+04 -5.499077E+05 -1.136038E-09 -1.055612E-10
       190  15 -1.341136E+06 -2.319855E+05 -1.568818E+04 -5.615863E+05 -3.149382E-09 -1.244310E-09
       190  16 -7.207152E+05 -8.572769E+03  8.775937E+04 -3.831445E+05 -1.037033E-09  4.976066E-10
       190  17 -7.982905E+05 -1.885283E+04  9.610168E+04 -3.975839E+05 -8.518223E-10  2.238985E-10
       190  18 -8.620836E+05 -5.687171E+04  9.230085E+04 -4.316575E+05 -3.888461E-09 -1.574202E-09
       190  19 -1.964062E+06 -4.752866E+05 -1.964859E+05 -7.324279E+05  5.099087E+04 -2.407390E+04
       190  20 -1.898650E+06 -4.270600E+05 -1.530166E+05 -7.021079E+05  3.411451E+04 -2.653243E+04
       190  21 -1.819958E+06 -4.070822E+05 -1.236900E+05 -6.914241E+05  1.679872E+04 -2.781942E+04
       190  22 -1.342583E+06 -2.419458E+05 -5.434753E+04 -5.578680E+05  5.404483E+04 -2.292316E+04
       190  23 -1.348622E+06 -2.229681E+05 -2.844572E+04 -5.499085E+05  3.841474E+04 -2.491545E+04
       190  24 -1.341136E+06 -2.319847E+05 -1.568600E+04 -5.615868E+05  2.234744E+04 -2.573584E+04
       190  25 -7.207115E+05 -8.571385E+03  8.776639E+04 -3.831455E+05  5.710212E+04 -2.177114E+04
       190  26 -7.982884E+05 -1.885175E+04  9.610613E+04 -3.975847E+05  4.271911E+04 -2.329691E+04
       190  27 -8.620826E+05 -5.687091E+04  9.230336E+04 -4.316580E+05  2.790080E+04 -2.365055E+04
       191   1 -1.762682E+06 -3.883800E+05 -1.069176E+05 -6.769625E+05 -1.376615E+04  2.557229E+04
       191   2 -1.697737E+06 -3.511453E+05 -8.501462E+04 -6.457840E+05 -8.605338E+03  2.189595E+04
       191   3 -1.614397E+06 -3.333691E+05 -6.569344E+04 -6.363491E+05 -3.419945E+03  1.814882E+04
       191   4 -1.340411E+06 -2.327158E+05 -1.185812E+04 -5.610626E+05 -1.902567E+04  2.359812E+04
       191   5 -1.349577E+06 -2.228023E+05 -6.496248E+03 -5.502578E+05 -1.393885E+04  1.989524E+04
       191   6 -1.340339E+06 -2.323320E+05 -3.656044E+03 -5.611982E+05 -8.827862E+03  1.612142E+04
       191   7 -9.179629E+05 -7.703921E+04  8.318936E+04 -4.450911E+05 -2.428903E+04  2.162252E+04
       191   8 -1.001294E+06 -9.445014E+04  7.201443E+04 -4.546825E+05 -1.927561E+04  1.789331E+04
       191   9 -1.066202E+06 -1.312887E+05  5.837707E+04 -4.860164E+05 -1.423840E+04  1.409305E+04
       191  10 -1.762682E+06 -3.883807E+05 -1.069192E+05 -6.769622E+05 -3.482388E-09 -1.781899E-09
       191  11 -1.697737E+06 -3.511458E+05 -8.501566E+04 -6.457838E+05 -1.635027E-09 -1.537071E-10
       191  12 -1.614398E+06 -3.333694E+05 -6.569408E+04 -6.363490E+05  7.067921E-10  1.331572E-11
       191  13 -1.340412E+06 -2.327165E+05 -1.185984E+04 -5.610622E+05 -3.215903E-09 -1.217650E-09
       191  14 -1.349577E+06 -2.228028E+05 -6.497357E+03 -5.502576E+05  8.055009E-11 -5.993430E-10
       191  15 -1.340339E+06 -2.323323E+05 -3.656679E+03 -5.611981E+05  2.244000E-10 -6.826264E-13
       191  16 -9.179636E+05 -7.703987E+04  8.318737E+04 -4.450906E+05 -7.502624E-10 -6.340892E-10
       191  17 -1.001295E+06 -9.445058E+04  7.201313E+04 -4.546822E+05  9.575059E-10 -3.620832E-10
       191  18 -1.066203E+06 -1.312890E+05  5.837631E+04 -4.860163E+05 -5.326345E-10 -7.919188E-10
       191  19 -1.762682E+06 -3.883800E+05 -1.069176E+05 -6.769625E+05  1.376615E+04 -2.557229E+04
       191  20 -1.697737E+06 -3.511453E+05 -8.501462E+04 -6.457840E+05  8.605338E+03 -2.189595E+04
       191  21 -1.614397E+06 -3.333691E+05 -6.569344E+04 -6.363491E+05  3.419945E+03 -1.814882E+04
       191  22 -1.340411E+06 -2.327158E+05 -1.185812E+04 -5.610626E+05  1.902567E+04 -2.359812E+04
       191  23 -1.349577E+06 -2.228023E+05 -6.496248E+03 -5.502578E+05  1.393885E+04 -1.989524E+04
       191  24 -1.340339E+06 -2.323320E+05 -3.656044E+03 -5.611982E+05  8.827862E+03 -1.612142E+04
       191  25 -9.179629E+05 -7.703921E+04  8.318936E+04 -4.450911E+05  2.428903E+04 -2.162252E+04
       191  26 -1.001294E+06 -9.445014E+04  7.201443E+04 -4.546825E+05  1.927561E+04 -1.789331E+04
       191  27 -1.066202E+06 -1.312887E+05  5.837707E+04 -4.860164E+05  1.423840E+04 -1.409305E+04
       192   1 -1.558341E+06 -3.127467E+05 -5.174960E+04 -6.210672E+05 -1.792964E+03  1.542203E+04
       192   2 -1.493229E+06 -2.757421E+05 -3.410337E+04 -5.896468E+05  9.655395E+02  1.072574E+04
       192   3 -1.409169E+06 -2.578383E+05 -1.711432E+04 -5.801133E+05  3.726427E+03  6.020474E+03
       192   4 -1.340228E+06 -2.323707E+05 -2.810113E+03 -5.611838E+05 -7.196480E+03  1.339681E+04
       192   5 -1.349696E+06 -2.228148E+05 -1.739652E+03 -5.502403E+05 -4.447459E+03  8.697459E+03
       192   6 -1.340218E+06 -2.323577E+05 -1.318549E+03 -5.611855E+05 -1.696179E+03  3.989125E+03
       192   7 -1.122066E+06 -1.519912E+05  4.612646E+04 -5.012811E+05 -1.260206E+04  1.137082E+04
       192   8 -1.206141E+06 -1.698862E+05  3.062273E+04 -5.108257E+05 -9.861798E+03  6.668679E+03
       192   9 -1.271263E+06 -2.068768E+05  1.447691E+04 -5.422558E+05 -7.119405E+03  1.957543E+03
       192  10 -1.558341E+06 -3.127469E+05 -5.175005E+04 -6.210672E+05  8.275536E-12 -5.546907E-10
       192  11 -1.493229E+06 -2.757422E+05 -3.410359E+04 -5.896468E+05 -8.072092E-10 -5.234806E-10
       192  12 -1.409169E+06 -2.578383E+05 -1.711441E+04 -5.801133E+05  1.028017E-10 -3.868579E-10
       192  13 -1.340228E+06 -2.323709E+05 -2.810547E+03 -5.611838E+05 -9.802249E-10 -3.509035E-10
       192  14 -1.349696E+06 -2.228149E+05 -1.739832E+03 -5.502403E+05  3.028695E-10 -2.075683E-10
       192  15 -1.340218E+06 -2.323577E+05 -1.318584E+03 -5.611855E+05 -7.638026E-10 -4.185640E-10
       192  16 -1.122067E+06 -1.519914E+05  4.612591E+04 -5.012810E+05 -1.327969E-10  6.390884E-11
       192  17 -1.206142E+06 -1.698862E+05  3.062247E+04 -5.108256E+05 -4.490462E-10  1.578828E-10
       192  18 -1.271263E+06 -2.068769E+05  1.447681E+04 -5.422558E+05 -1.012413E-09 -8.581408E-10
       192  19 -1.558341E+06 -3.127467E+05 -5.174960E+04 -6.210672E+05  1.792964E+03 -1.542203E+04
       192  20 -1.493229E+06 -2.757421E+05 -3.410337E+04 -5.896468E+05 -9.655395E+02 -1.072574E+04
       192  21 -1.409169E+06 -2.578383E+05 -1.711432E+04 -5.801133E+05 -3.726427E+03 -6.020474E+03
       192  22 -1.340228E+06 -2.323707E+05 -2.810113E+03 -5.611838E+05  7.196480E+03 -1.339681E+04
       192  23 -1.349696E+06 -2.228148E+05 -1.739652E+03 -5.502403E+05  4.447459E+03 -8.697459E+03
       192  24 -1.340218E+06 -2.323577E+05 -1.318549E+03 -5.611855E+05  1.696179E+03 -3.989125E+03
       192  25 -1.122066E+06 -1.519912E+05  4.612646E+04 -5.012811E+05  1.260206E+04 -1.137082E+04
       192  26 -1.206141E+06 -1.698862E+05  3.062273E+04 -5.108257E+05  9.861798E+03 -6.668679E+03
       192  27 -1.271263E+06 -2.068768E+05  1.447691E+04 -5.422558E+05  7.119405E+03 -1.957543E+03
       193   1 -1.353047E+06 -2.370594E+05 -3.940262E+03 -5.647392E+05  5.044112E+03  3.169929E+03
       193   2 -1.287863E+06 -2.000305E+05  1.234839E+04 -5.332825E+05  7.716571E+03 -1.571559E+03
       193   3 -1.203706E+06 -1.821137E+05  2.804649E+04 -5.237338E+05  1.038763E+04 -6.307933E+03
       193   4 -1.340213E+06 -2.323611E+05 -1.292158E+03 -5.611901E+05 -3.803876E+02  1.137958E+03
       193   5 -1.349698E+06 -2.228057E+05 -1.588481E+03 -5.502346E+05  2.297033E+03 -3.601913E+03
       193   6 -1.340217E+06 -2.323647E+05 -2.479711E+03 -5.611901E+05  4.972941E+03 -8.336681E+03
       193   7 -1.327379E+06 -2.276628E+05  1.356087E+03 -5.576408E+05 -5.805042E+03 -8.940713E+02
       193   8 -1.411528E+06 -2.455807E+05 -1.552553E+04 -5.671852E+05 -3.121937E+03 -5.632055E+03
       193   9 -1.476708E+06 -2.826143E+05 -3.300698E+04 -5.986389E+05 -4.404599E+02 -1.036495E+04
       193  10 -1.353047E+06 -2.370594E+05 -3.940328E+03 -5.647392E+05 -1.099891E-09 -6.504774E-10
       193  11 -1.287863E+06 -2.000305E+05  1.234827E+04 -5.332825E+05 -1.447659E-09 -2.973290E-10
       193  12 -1.203706E+06 -1.821138E+05  2.804622E+04 -5.237337E+05 -7.452151E-10  1.278801E-10
       193  13 -1.340213E+06 -2.323611E+05 -1.292160E+03 -5.611901E+05 -5.297396E-10 -1.496306E-10
       193  14 -1.349698E+06 -2.228058E+05 -1.588516E+03 -5.502346E+05 -8.794237E-10  8.239190E-10
       193  15 -1.340217E+06 -2.323648E+05 -2.479888E+03 -5.611901E+05 -3.087824E-09 -1.556534E-10
       193  16 -1.327379E+06 -2.276628E+05  1.356022E+03 -5.576408E+05  1.084813E-09 -1.674926E-10
       193  17 -1.411528E+06 -2.455808E+05 -1.552561E+04 -5.671853E+05 -1.385144E-09  5.995698E-10
       193  18 -1.476708E+06 -2.826145E+05 -3.300718E+04 -5.986389E+05 -4.358944E-09 -1.003334E-09
       193  19 -1.353047E+06 -2.370594E+05 -3.940262E+03 -5.647392E+05 -5.044112E+03 -3.169929E+03
       193  20 -1.287863E+06 -2.000305E+05  1.234839E+04 -5.332825E+05 -7.716571E+03  1.571559E+03
       193  21 -1.203706E+06 -1.821137E+05  2.804649E+04 -5.237338E+05 -1.038763E+04  6.307933E+03
       193  22 -1.340213E+06 -2.323611E+05 -1.292158E+03 -5.611901E+05  3.803876E+02 -1.137958E+03
       193  23 -1.349698E+06 -2.228057E+05 -1.588481E+03 -5.502346E+05 -2.297033E+03  3.601913E+03
       193  24 -1.340217E+06 -2.323647E+05 -2.479711E+03 -5.611901E+05 -4.972941E+03  8.336681E+03
       193  25 -1.327379E+06 -2.276628E+05  1.356087E+03 -5.576408E+05  5.805042E+03  8.940713E+02
       193  26 -1.411528E+06 -2.455807E+05 -1.552553E+04 -5.671852E+05  3.121937E+03  5.632055E+03
       193  27 -1.476708E+06 -2.826143E+05 -3.300698E+04 -5.986389E+05  4.404599E+02  1.036495E+04
       194   1 -1.147721E+06 -1.613768E+05  4.044708E+04 -5.084409E+05  1.196299E+04 -9.059505E+03
       194   2 -1.082636E+06 -1.244410E+05  5.453081E+04 -4.770324E+05  1.659000E+04 -1.303124E+04
       194   3 -9.990225E+05 -1.069261E+05  6.647042E+04 -4.674357E+05  2.119584E+04 -1.694075E+04
       194   4 -1.340308E+06 -2.323354E+05 -3.202007E+03 -5.612084E+05  6.541292E+03 -1.109123E+04
       194   5 -1.349594E+06 -2.227819E+05 -5.645563E+03 -5.502430E+05  1.123330E+04 -1.503953E+04
       194   6 -1.340369E+06 -2.326632E+05 -1.028539E+04 -5.610921E+05  1.590380E+04 -1.892573E+04
       194   7 -1.532857E+06 -3.032908E+05 -4.685305E+04 -6.139607E+05  1.121450E+03 -1.312225E+04
       194   8 -1.616480E+06 -3.211174E+05 -6.582640E+04 -6.234248E+05  5.879099E+03 -1.704689E+04
       194   9 -1.681600E+06 -3.583923E+05 -8.704914E+04 -6.547018E+05  1.061487E+04 -2.090954E+04
       194  10 -1.147721E+06 -1.613769E+05  4.044666E+04 -5.084408E+05 -3.066480E-09 -8.590878E-10
       194  11 -1.082637E+06 -1.244412E+05  5.452997E+04 -4.770322E+05 -1.256498E-09 -2.964476E-10
       194  12 -9.990231E+05 -1.069265E+05  6.646904E+04 -4.674354E+05  7.324307E-10 -1.774517E-10
       194  13 -1.340308E+06 -2.323356E+05 -3.202318E+03 -5.612084E+05 -2.156458E-09 -8.421035E-10
       194  14 -1.349594E+06 -2.227821E+05 -5.646224E+03 -5.502429E+05 -1.177630E-09 -5.753484E-10
       194  15 -1.340369E+06 -2.326636E+05 -1.028654E+04 -5.610918E+05 -2.233321E-10 -6.547943E-10
       194  16 -1.532857E+06 -3.032910E+05 -4.685338E+04 -6.139607E+05 -2.288564E-09 -8.675036E-10
       194  17 -1.616480E+06 -3.211177E+05 -6.582701E+04 -6.234247E+05  9.537253E-10 -5.503854E-10
       194  18 -1.681600E+06 -3.583928E+05 -8.705017E+04 -6.547016E+05  6.271674E-10 -3.818657E-10
       194  19 -1.147721E+06 -1.613768E+05  4.044708E+04 -5.084409E+05 -1.196299E+04  9.059505E+03
       194  20 -1.082636E+06 -1.244410E+05  5.453081E+04 -4.770324E+05 -1.659000E+04  1.303124E+04
       194  21 -9.990225E+05 -1.069261E+05  6.647042E+04 -4.674357E+05 -2.119584E+04  1.694075E+04
       194  22 -1.340308E+06 -2.323354E+05 -3.202007E+03 -5.612084E+05 -6.541292E+03  1.109123E+04
       194  23 -1.349594E+06 -2.227819E+05 -5.645563E+03 -5.502430E+05 -1.123330E+04  1.503953E+04
       194  24 -1.340369E+06 -2.326632E+05 -1.028539E+04 -5.610921E+05 -1.590380E+04  1.892573E+04
       194  25 -1.532857E+06 -3.032908E+05 -4.685305E+04 -6.139607E+05 -1.121450E+03  1.312225E+04
       194  26 -1.616480E+06 -3.211174E+05 -6.582640E+04 -6.234248E+05 -5.879099E+03  1.704689E+04
       194  27 -1.681600E+06 -3.583923E+05 -8.704914E+04 -6.547018E+05 -1.061487E+04  2.090954E+04
       195   1 -9.429754E+05 -8.663315E+04  7.615348E+04 -4.537143E+05  2.449060E+04 -1.909412E+04
       195   2 -8.788193E+05 -4.866036E+04  8.172288E+04 -4.199190E+05  3.753151E+04 -1.947752E+04
       195   3 -8.001442E+05 -3.731009E+04  7.680259E+04 -4.061194E+05  5.017806E+04 -1.879894E+04
       195   4 -1.340996E+06 -2.320312E+05 -1.360023E+04 -5.615483E+05  1.893388E+04 -2.117908E+04
       195   5 -1.348765E+06 -2.229204E+05 -2.465050E+04 -5.499381E+05  3.310834E+04 -2.113899E+04
       195   6 -1.342249E+06 -2.406633E+05 -4.709643E+04 -5.583272E+05  4.688683E+04 -2.003712E+04
       195   7 -1.738857E+06 -3.774181E+05 -1.033640E+05 -6.693192E+05  1.338102E+04 -2.326263E+04
       195   8 -1.818488E+06 -3.971626E+05 -1.310377E+05 -6.798663E+05  2.868881E+04 -2.279908E+04
       195   9 -1.884055E+06 -4.439907E+05 -1.710139E+05 -7.104114E+05  4.359872E+04 -2.127410E+04
       195  10 -9.429762E+05 -8.663371E+04  7.615167E+04 -4.537139E+05  8.302629E-12 -4.744114E-10
       195  11 -8.788209E+05 -4.866115E+04  8.171952E+04 -4.199184E+05  5.223348E-10 -5.810787E-11
       195  12 -8.001470E+05 -3.731115E+04  7.679719E+04 -4.061187E+05  1.560258E-09  3.869544E-11
       195  13 -1.340997E+06 -2.320318E+05 -1.360175E+04 -5.615480E+05  8.981226E-10 -7.444741E-11
       195  14 -1.348767E+06 -2.229211E+05 -2.465340E+04 -5.499375E+05  1.548641E-09  3.242553E-10
       195  15 -1.342252E+06 -2.406643E+05 -4.710132E+04 -5.583265E+05 -3.588248E-10  1.281029E-10
       195  16 -1.738858E+06 -3.774187E+05 -1.033654E+05 -6.693190E+05 -1.318946E-10 -1.665919E-11
       195  17 -1.818489E+06 -3.971633E+05 -1.310402E+05 -6.798658E+05 -7.114962E-10  3.639263E-10
       195  18 -1.884057E+06 -4.439917E+05 -1.710183E+05 -7.104107E+05 -1.097432E-09  2.583601E-10
       195  19 -9.429754E+05 -8.663315E+04  7.615348E+04 -4.537143E+05 -2.449060E+04  1.909412E+04
       195  20 -8.788193E+05 -4.866036E+04  8.172288E+04 -4.199190E+05 -3.753151E+04  1.947752E+04
       195  21 -8.001442E+05 -3.731009E+04  7.680259E+04 -4.061194E+05 -5.017806E+04  1.879894E+04
       195  22 -1.340996E+06 -2.320312E+05 -1.360023E+04 -5.615483E+05 -1.893388E+04  2.117908E+04
       195  23 -1.348765E+06 -2.229204E+05 -2.465050E+04 -5.499381E+05 -3.310834E+04  2.113899E+04
       195  24 -1.342249E+06 -2.406633E+05 -4.709643E+04 -5.583272E+05 -4.688683E+04  2.003712E+04
       195  25 -1.738857E+06 -3.774181E+05 -1.033640E+05 -6.693192E+05 -1.338102E+04  2.326263E+04
       195  26 -1.818488E+06 -3.971626E+05 -1.310377E+05 -6.798663E+05 -2.868881E+04  2.279908E+04
       195  27 -1.884055E+06 -4.439907E+05 -1.710139E+05 -7.104114E+05 -4.359872E+04  2.127410E+04
       196   1 -7.319341E+05 -2.313363E+04  7.559446E+04 -4.230893E+05  6.481193E+04 -1.807628E+04
       196   2 -6.939707E+05  4.476814E+04  4.798469E+04 -3.269337E+05  9.900260E+04 -2.506982E+03
       196   3 -7.032708E+05 -6.599629E+04 -4.984119E+04 -2.090927E+05  1.251258E+05  3.454481E+04
       196   4 -1.350064E+06 -2.266251E+05 -6.033634E+04 -5.673968E+05  5.577932E+04 -2.146802E+04
       196   5 -1.337761E+06 -2.311032E+05 -1.093857E+05 -5.421556E+05  1.130595E+05  2.763422E+03
       196   6 -1.377386E+06 -4.189603E+05 -2.470313E+05 -4.952197E+05  1.622633E+05  4.847829E+04
       196   7 -1.967815E+06 -4.301082E+05 -1.962913E+05 -7.115825E+05  4.675638E+04 -2.485706E+04
       196   8 -1.981129E+06 -5.069027E+05 -2.667855E+05 -7.571586E+05  1.271005E+05  8.025727E+03
       196   9 -2.051018E+06 -7.717460E+05 -4.442544E+05 -7.810178E+05  1.993561E+05  6.237995E+04
       196  10 -7.319387E+05 -2.313511E+04  7.558594E+04 -4.230884E+05 -6.122616E-10 -4.884114E-10
       196  11 -6.939813E+05  4.476550E+04  4.796624E+04 -3.269335E+05 -9.113272E-10  1.125921E-09
       196  12 -7.032879E+05 -6.600178E+04 -4.987289E+04 -2.090962E+05  6.750363E-10  4.600921E-10
       196  13 -1.350067E+06 -2.266264E+05 -6.034306E+04 -5.673959E+05  2.250682E-10  2.194319E-10
       196  14 -1.337774E+06 -2.311067E+05 -1.094098E+05 -5.421558E+05 -8.289261E-10  8.175272E-10
       196  15 -1.377415E+06 -4.189700E+05 -2.470853E+05 -4.952260E+05  8.832258E-11  1.705005E-10
       196  16 -1.967817E+06 -4.301095E+05 -1.962966E+05 -7.115816E+05  4.560251E-10  8.251418E-10
       196  17 -1.981146E+06 -5.069071E+05 -2.668161E+05 -7.571595E+05 -3.240701E-10  7.513558E-10
       196  18 -2.051062E+06 -7.717610E+05 -4.443367E+05 -7.810278E+05 -1.198603E-09 -8.589827E-11
       196  19 -7.319341E+05 -2.313363E+04  7.559446E+04 -4.230893E+05 -6.481193E+04  1.807628E+04
       196  20 -6.939707E+05  4.476814E+04  4.798469E+04 -3.269337E+05 -9.900260E+04  2.506982E+03
       196  21 -7.032708E+05 -6.599629E+04 -4.984119E+04 -2.090927E+05 -1.251258E+05 -3.454481E+04
       196  22 -1.350064E+06 -2.266251E+05 -6.033634E+04 -5.673968E+05 -5.577932E+04  2.146802E+04
       196  23 -1.337761E+06 -2.311032E+05 -1.093857E+05 -5.421556E+05 -1.130595E+05 -2.763422E+03
       196  24 -1.377386E+06 -4.189603E+05 -2.470313E+05 -4.952197E+05 -1.622633E+05 -4.847829E+04
       196  25 -1.967815E+06 -4.301082E+05 -1.962913E+05 -7.115825E+05 -4.675638E+04  2.485706E+04
       196  26 -1.981129E+06 -5.069027E+05 -2.667855E+05 -7.571586E+05 -1.271005E+05 -8.025727E+03
       196  27 -2.051018E+06 -7.717460E+05 -4.442544E+05 -7.810178E+05 -1.993561E+05 -6.237995E+04
       197   1 -3.384839E+05 -8.156454E+04 -4.209312E+04  2.350307E+04  9.418017E+04  1.473731E+04
       197   2 -2.576952E+05 -2.203065E+05 -1.063178E+05 -2.109111E+04  7.415510E+04  4.695413E+04
       197   3 -1.379928E+05 -2.150102E+05 -1.214404E+05 -9.722850E+04  5.415250E+04  5.124085E+04
       197   4  7.289469E+05  1.827984E+05  2.136900E+05 -7.423203E+04  1.475619E+05  1.476736E+04
       197   5  7.067964E+05  1.366618E+04  9.955756E+04 -5.840316E+04  9.530033E+04  4.695750E+04
       197   6  7.290691E+05 -5.970151E+03  5.684036E+04 -7.410994E+04  4.306778E+04  5.123324E+04
       197   7  1.797448E+06  4.471164E+05  4.694084E+05 -1.721361E+05  2.010348E+05  1.478059E+04
       197   8  1.672168E+06  2.475838E+05  3.053816E+05 -9.577413E+04  1.164779E+05  4.695832E+04
       197   9  1.596846E+06  2.030246E+05  2.350816E+05 -5.095854E+04  3.196783E+04  5.122481E+04
       197  10 -3.384934E+05 -8.156715E+04 -4.211020E+04  2.350195E+04 -4.896484E-10  3.372595E-10
       197  11 -2.577017E+05 -2.203104E+05 -1.063323E+05 -2.109392E+04  6.803429E-10 -3.635663E-10
       197  12 -1.379967E+05 -2.150138E+05 -1.214508E+05 -9.723073E+04  8.856437E-10 -4.948526E-10
       197  13  7.289235E+05  1.827923E+05  2.136487E+05 -7.423378E+04 -1.695725E-11  1.212057E-10
       197  14  7.067861E+05  1.366138E+04  9.953636E+04 -5.840676E+04 -1.691853E-10 -9.316764E-10
       197  15  7.290664E+05 -5.973468E+03  5.683195E+04 -7.411172E+04  3.186646E-12 -1.468925E-10
       197  16  1.797405E+06  4.471054E+05  4.693322E+05 -1.721385E+05  8.856321E-10 -8.235002E-11
       197  17  1.672152E+06  2.475778E+05  3.053521E+05 -9.577853E+04  2.037159E-09 -1.320795E-10
       197  18  1.596844E+06  2.030215E+05  2.350747E+05 -5.095986E+04 -1.217875E-09 -9.070131E-11
       197  19 -3.384839E+05 -8.156454E+04 -4.209312E+04  2.350307E+04 -9.418017E+04 -1.473731E+04
       197  20 -2.576952E+05 -2.203065E+05 -1.063178E+05 -2.109111E+04 -7.415510E+04 -4.695413E+04
       197  21 -1.379928E+05 -2.150102E+05 -1.214404E+05 -9.722850E+04 -5.415250E+04 -5.124085E+04
       197  22  7.289469E+05  1.827984E+05  2.136900E+05 -7.423203E+04 -1.475619E+05 -1.476736E+04
       197  23  7.067964E+05  1.366618E+04  9.955756E+04 -5.840316E+04 -9.530033E+04 -4.695750E+04
       197  24  7.290691E+05 -5.970151E+03  5.684036E+04 -7.410994E+04 -4.306778E+04 -5.123324E+04
       197  25  1.797448E+06  4.471164E+05  4.694084E+05 -1.721361E+05 -2.010348E+05 -1.478059E+04
       197  26  1.672168E+06  2.475838E+05  3.053816E+05 -9.577413E+04 -1.164779E+05 -4.695832E+04
       197  27  1.596846E+06  2.030246E+05  2.350816E+05 -5.095854E+04 -3.196783E+04 -5.122481E+04
       198   1 -7.360735E+04 -1.840782E+05 -1.191673E+05 -7.212763E+04  3.950721E+04  4.624066E+04
       198   2  2.416627E+04 -1.671418E+05 -1.176403E+05 -5.768791E+04  2.899841E+04  4.184474E+04
       198   3  1.250585E+05 -1.437359E+05 -1.076228E+05 -7.591315E+04  1.848457E+04  3.598756E+04
       198   4  7.199686E+05  7.313826E+03  4.448234E+04 -7.438911E+04  3.531835E+04  4.623493E+04
       198   5  7.182935E+05  4.614471E+01  2.443903E+04 -5.805780E+04  2.311184E+04  4.184068E+04
       198   6  7.200183E+05 -4.617577E+02  1.405599E+04 -7.438894E+04  1.090196E+04  3.598591E+04
       198   7  1.514142E+06  1.986661E+05  2.080981E+05 -7.665353E+04  3.112421E+04  4.622923E+04
       198   8  1.412878E+06  1.672039E+05  1.664929E+05 -5.842811E+04  1.721880E+04  4.183663E+04
       198   9  1.315314E+06  1.427902E+05  1.357163E+05 -7.286322E+04  3.312217E+03  3.598422E+04
       198  10 -7.360960E+04 -1.840809E+05 -1.191742E+05 -7.212910E+04 -4.581784E-10 -6.156280E-10
       198  11  2.416490E+04 -1.671439E+05 -1.176452E+05 -5.768888E+04  1.571205E-10  3.448347E-10
       198  12  1.250578E+05 -1.437374E+05 -1.076259E+05 -7.591368E+04 -1.405078E-09  3.877386E-10
       198  13  7.199666E+05  7.311195E+03  4.447598E+04 -7.439042E+04  4.299825E-12 -2.174319E-10
       198  14  7.182924E+05  4.412090E+01  2.443474E+04 -5.805858E+04  5.871500E-10  3.477140E-10
       198  15  7.200178E+05 -4.631806E+02  1.405334E+04 -7.438926E+04 -2.197783E-09  6.678493E-10
       198  16  1.514140E+06  1.986636E+05  2.080923E+05 -7.665469E+04  8.626651E-10  2.123133E-10
       198  17  1.412877E+06  1.672020E+05  1.664891E+05 -5.842869E+04  6.837441E-10  2.786269E-10
       198  18  1.315314E+06  1.427888E+05  1.357139E+05 -7.286331E+04 -1.277101E-10  6.773259E-10
       198  19 -7.360735E+04 -1.840782E+05 -1.191673E+05 -7.212763E+04 -3.950721E+04 -4.624066E+04
       198  20  2.416627E+04 -1.671418E+05 -1.176403E+05 -5.768791E+04 -2.899841E+04 -4.184474E+04
       198  21  1.250585E+05 -1.437359E+05 -1.076228E+05 -7.591315E+04 -1.848457E+04 -3.598756E+04
       198  22  7.199686E+05  7.313826E+03  4.448234E+04 -7.438911E+04 -3.531835E+04 -4.623493E+04
       198  23  7.182935E+05  4.614471E+01  2.443903E+04 -5.805780E+04 -2.311184E+04 -4.184068E+04
       198  24  7.200183E+05 -4.617577E+02  1.405599E+04 -7.438894E+04 -1.090196E+04 -3.598591E+04
       198  25  1.514142E+06  1.986661E+05  2.080981E+05 -7.665353E+04 -3.112421E+04 -4.622923E+04
       198  26  1.412878E+06  1.672039E+05  1.664929E+05 -5.842811E+04 -1.721880E+04 -4.183663E+04
       198  27  1.315314E+06  1.427902E+05  1.357163E+05 -7.286322E+04 -3.312217E+03 -3.598422E+04
       199   1  1.967589E+05 -1.256389E+05 -9.572214E+04 -7.469147E+04  1.592433E+04  3.218932E+04
       199   2  2.954372E+05 -1.021019E+05 -8.030830E+04 -5.827777E+04  1.296997E+04  2.589187E+04
       199   3  3.946170E+05 -7.824044E+04 -6.288401E+04 -7.447618E+04  1.001233E+04  1.952362E+04
       199   4  7.193918E+05  1.257564E+02  1.072585E+04 -7.437766E+04  8.712745E+03  3.218878E+04
       199   5  7.191533E+05 -1.160435E+02  6.139507E+03 -5.807235E+04  5.673882E+03  2.589280E+04
       199   6  7.194193E+05 -1.899043E+01  3.620396E+03 -7.437785E+04  2.632194E+03  1.952609E+04
       199   7  1.242284E+06  1.258734E+05  1.171597E+05 -7.406354E+04  1.495203E+03  3.218823E+04
       199   8  1.143040E+06  1.018586E+05  9.257805E+04 -5.786677E+04 -1.627091E+03  2.589374E+04
       199   9  1.044322E+06  7.819587E+04  7.011941E+04 -7.427944E+04 -4.751731E+03  1.952856E+04
       199  10  1.967584E+05 -1.256401E+05 -9.572456E+04 -7.469189E+04  8.838245E-11  1.784175E-10
       199  11  2.954369E+05 -1.021027E+05 -8.030987E+04 -5.827804E+04  3.629063E-11  2.461848E-10
       199  12  3.946168E+05 -7.824088E+04 -6.288492E+04 -7.447634E+04 -3.247359E-10  4.306360E-10
       199  13  7.193914E+05  1.246230E+02  1.072376E+04 -7.437788E+04 -1.077291E-09  4.525551E-10
       199  14  7.191531E+05 -1.167723E+02  6.138186E+03 -5.807247E+04 -9.937032E-10 -1.384975E-10
       199  15  7.194192E+05 -1.940185E+01  3.619666E+03 -7.437789E+04  5.719694E-10 -3.477074E-10
       199  16  1.242284E+06  1.258723E+05  1.171577E+05 -7.406358E+04  2.360623E-10  4.225346E-10
       199  17  1.143040E+06  1.018579E+05  9.257679E+04 -5.786673E+04 -7.191645E-10 -4.310777E-10
       199  18  1.044322E+06  7.819546E+04  7.011865E+04 -7.427936E+04 -3.689008E-10 -3.842907E-10
       199  19  1.967589E+05 -1.256389E+05 -9.572214E+04 -7.469147E+04 -1.592433E+04 -3.218932E+04
       199  20  2.954372E+05 -1.021019E+05 -8.030830E+04 -5.827777E+04 -1.296997E+04 -2.589187E+04
       199  21  3.946170E+05 -7.824044E+04 -6.288401E+04 -7.447618E+04 -1.001233E+04 -1.952362E+04
       199  22  7.193918E+05  1.257564E+02  1.072585E+04 -7.437766E+04 -8.712745E+03 -3.218878E+04
       199  23  7.191533E+05 -1.160435E+02  6.139507E+03 -5.807235E+04 -5.673882E+03 -2.589280E+04
       199  24  7.194193E+05 -1.899043E+01  3.620396E+03 -7.437785E+04 -2.632194E+03 -1.952609E+04
       199  25  1.242284E+06  1.258734E+05  1.171597E+05 -7.406354E+04 -1.495203E+03 -3.218823E+04
       199  26  1.143040E+06  1.018586E+05  9.257805E+04 -5.786677E+04  1.627091E+03 -2.589374E+04
       199  27  1.044322E+06  7.819587E+04  7.011941E+04 -7.427944E+04  4.751731E+03 -1.952856E+04
       200   1  4.666115E+05 -6.076049E+04 -4.846894E+04 -7.441109E+04  9.404361E+03  1.579981E+04
       200   2  5.652921E+05 -3.705123E+04 -2.959326E+04 -5.811014E+04  8.508483E+03  9.416773E+03
       200   3  6.640837E+05 -1.329745E+04 -1.013077E+04 -7.435257E+04  7.611453E+03  3.032273E+03
       200   4  7.193387E+05  9.046648E+00  2.817795E+03 -7.436273E+04  2.047613E+03  1.580289E+04
       200   5  7.192925E+05  8.092995E+00  1.813258E+03 -5.809129E+04  1.149189E+03  9.420381E+03
       200   6  7.193484E+05  5.254351E+01  1.397153E+03 -7.436275E+04  2.497494E+02  3.036440E+03
       200   7  9.721267E+05  6.077464E+04  5.410141E+04 -7.431435E+04 -5.312073E+03  1.580597E+04
       200   8  8.733157E+05  3.706596E+04  3.321873E+04 -5.807243E+04 -6.211897E+03  9.423989E+03
       200   9  7.746161E+05  1.340237E+04  1.292511E+04 -7.437292E+04 -7.112598E+03  3.040608E+03
       200  10  4.666113E+05 -6.076078E+04 -4.846958E+04 -7.441121E+04 -3.352703E-10  2.537304E-10
       200  11  5.652920E+05 -3.705134E+04 -2.959356E+04 -5.811021E+04 -4.653297E-10  6.284405E-10
       200  12  6.640836E+05 -1.329747E+04 -1.013090E+04 -7.435259E+04 -2.168337E-09  5.322893E-10
       200  13  7.193386E+05  8.777260E+00  2.817318E+03 -7.436276E+04 -2.429157E-10  2.890765E-10
       200  14  7.192925E+05  7.997313E+00  1.813088E+03 -5.809130E+04  1.090944E-09 -2.418542E-10
       200  15  7.193484E+05  5.253359E+01  1.397136E+03 -7.436275E+04 -2.624168E-09 -1.530408E-11
       200  16  9.721266E+05  6.077437E+04  5.410089E+04 -7.431428E+04  9.028044E-10 -9.520285E-10
       200  17  8.733156E+05  3.706586E+04  3.321849E+04 -5.807239E+04  1.247988E-10  6.580980E-12
       200  18  7.746161E+05  1.340234E+04  1.292500E+04 -7.437291E+04  1.311410E-09 -2.265975E-10
       200  19  4.666115E+05 -6.076049E+04 -4.846894E+04 -7.441109E+04 -9.404361E+03 -1.579981E+04
       200  20  5.652921E+05 -3.705123E+04 -2.959326E+04 -5.811014E+04 -8.508483E+03 -9.416773E+03
       200  21  6.640837E+05 -1.329745E+04 -1.013077E+04 -7.435257E+04 -7.611453E+03 -3.032273E+03
       200  22  7.193387E+05  9.046648E+00  2.817795E+03 -7.436273E+04 -2.047613E+03 -1.580289E+04
       200  23  7.192925E+05  8.092995E+00  1.813258E+03 -5.809129E+04 -1.149189E+03 -9.420381E+03
       200  24  7.193484E+05  5.254351E+01  1.397153E+03 -7.436275E+04 -2.497494E+02 -3.036440E+03
       200  25  9.721267E+05  6.077464E+04  5.410141E+04 -7.431435E+04  5.312073E+03 -1.580597E+04
       200  26  8.733157E+05  3.706596E+04  3.321873E+04 -5.807243E+04  6.211897E+03 -9.423989E+03
       200  27  7.746161E+05  1.340237E+04  1.292511E+04 -7.437292E+04  7.112598E+03 -3.040608E+03
       201   1  7.360892E+05  4.133718E+03  5.027905E+03 -7.437273E+04  7.358972E+03 -6.837335E+02
       201   2  8.347818E+05  2.780241E+04  2.513364E+04 -5.808437E+04  6.570212E+03 -7.066700E+03
       201   3  9.335659E+05  5.151294E+04  4.575379E+04 -7.433443E+04  5.782105E+03 -1.344783E+04
       201   4  7.193448E+05  5.295067E+01  1.354776E+03 -7.436183E+04 -2.820360E+00 -6.795245E+02
       201   5  7.192996E+05  1.673000E+01  1.585818E+03 -5.809243E+04 -7.898400E+02 -7.062916E+03
       201   6  7.193375E+05  2.295867E+01  2.330675E+03 -7.436183E+04 -1.576086E+03 -1.344444E+04
       201   7  7.026008E+05 -4.027807E+03 -2.318166E+03 -7.435093E+04 -7.364416E+03 -6.753157E+02
       201   8  6.038300E+05 -2.776975E+04 -2.196250E+04 -5.810049E+04 -8.148550E+03 -7.059131E+03
       201   9  5.051530E+05 -5.146985E+04 -4.109462E+04 -7.438920E+04 -8.931790E+03 -1.344105E+04
       201  10  7.360892E+05  4.133703E+03  5.027803E+03 -7.437273E+04 -1.345877E-09  5.720574E-11
       201  11  8.347818E+05  2.780234E+04  2.513346E+04 -5.808433E+04  3.802141E-10 -4.017565E-10
       201  12  9.335658E+05  5.151274E+04  4.575339E+04 -7.433437E+04 -4.690212E-10  1.296642E-10
       201  13  7.193448E+05  5.295018E+01  1.354776E+03 -7.436183E+04 -1.858752E-09  7.491597E-10
       201  14  7.192995E+05  1.667624E+01  1.585723E+03 -5.809244E+04  1.675458E-10  4.316033E-10
       201  15  7.193375E+05  2.276384E+01  2.330331E+03 -7.436184E+04  1.583534E-10 -8.899665E-10
       201  16  7.026008E+05 -4.027822E+03 -2.318269E+03 -7.435094E+04  8.018566E-10  3.463000E-10
       201  17  6.038300E+05 -2.776982E+04 -2.196272E+04 -5.810054E+04 -8.673996E-10  5.120125E-10
       201  18  5.051528E+05 -5.147006E+04 -4.109511E+04 -7.438930E+04 -1.206711E-10 -7.263339E-10
       201  19  7.360892E+05  4.133718E+03  5.027905E+03 -7.437273E+04 -7.358972E+03  6.837335E+02
       201  20  8.347818E+05  2.780241E+04  2.513364E+04 -5.808437E+04 -6.570212E+03  7.066700E+03
       201  21  9.335659E+05  5.151294E+04  4.575379E+04 -7.433443E+04 -5.782105E+03  1.344783E+04
       201  22  7.193448E+05  5.295067E+01  1.354776E+03 -7.436183E+04  2.820360E+00  6.795245E+02
       201  23  7.192996E+05  1.673000E+01  1.585818E+03 -5.809243E+04  7.898400E+02  7.062916E+03
       201  24  7.193375E+05  2.295867E+01  2.330675E+03 -7.436183E+04  1.576086E+03  1.344444E+04
       201  25  7.026008E+05 -4.027807E+03 -2.318166E+03 -7.435093E+04  7.364416E+03  6.753157E+02
       201  26  6.038300E+05 -2.776975E+04 -2.196250E+04 -5.810049E+04  8.148550E+03  7.059131E+03
       201  27  5.051530E+05 -5.146985E+04 -4.109462E+04 -7.438920E+04  8.931790E+03  1.344105E+04
       202   1  1.005722E+06  6.893481E+04  6.158802E+04 -7.431310E+04  5.324724E+03 -1.716938E+04
       202   2  1.104447E+06  9.260073E+04  8.350548E+04 -5.793635E+04  2.796373E+03 -2.353349E+04
       202   3  1.203598E+06  1.165561E+05  1.071409E+05 -7.414983E+04  2.701286E+02 -2.982892E+04
       202   4  7.194006E+05 -9.644914E-03  2.953272E+03 -7.437355E+04 -2.056444E+03 -1.716652E+04
       202   5  7.191875E+05 -8.374408E+01  4.940613E+03 -5.807774E+04 -4.504784E+03 -2.353203E+04
       202   6  7.193758E+05  1.084839E+02  8.591042E+03 -7.437340E+04 -6.950626E+03 -2.982881E+04
       202   7  4.331575E+05 -6.893994E+04 -5.568562E+04 -7.443396E+04 -9.434275E+03 -1.716365E+04
       202   8  3.340692E+05 -9.277746E+04 -7.363187E+04 -5.821903E+04 -1.180150E+04 -2.353056E+04
       202   9  2.353768E+05 -1.163537E+05 -8.997091E+04 -7.459676E+04 -1.416586E+04 -2.982870E+04
       202  10  1.005721E+06  6.893449E+04  6.158741E+04 -7.431302E+04 -3.740147E-10  7.247660E-10
       202  11  1.104447E+06  9.260013E+04  8.350442E+04 -5.793630E+04 -2.613788E-10  5.155973E-11
       202  12  1.203597E+06  1.165551E+05  1.071392E+05 -7.414982E+04 -4.375695E-10  6.242069E-10
       202  13  7.194005E+05 -3.273362E-01  2.952710E+03 -7.437358E+04  7.813034E-10 -4.599722E-10
       202  14  7.191873E+05 -8.434437E+01  4.939534E+03 -5.807783E+04  3.241159E-10 -2.429799E-10
       202  15  7.193755E+05  1.075152E+02  8.589279E+03 -7.437356E+04  5.134201E-10  6.323341E-10
       202  16  4.331573E+05 -6.894028E+04 -5.568634E+04 -7.443409E+04  9.056737E-10 -2.491333E-10
       202  17  3.340689E+05 -9.277809E+04 -7.363317E+04 -5.821925E+04  1.436625E-09 -1.273294E-10
       202  18  2.353763E+05 -1.163547E+05 -8.997296E+04 -7.459710E+04  5.249491E-10  4.961381E-10
       202  19  1.005722E+06  6.893481E+04  6.158802E+04 -7.431310E+04 -5.324724E+03  1.716938E+04
       202  20  1.104447E+06  9.260073E+04  8.350548E+04 -5.793635E+04 -2.796373E+03  2.353349E+04
       202  21  1.203598E+06  1.165561E+05  1.071409E+05 -7.414983E+04 -2.701286E+02  2.982892E+04
       202  22  7.194006E+05 -9.644922E-03  2.953272E+03 -7.437355E+04  2.056444E+03  1.716652E+04
       202  23  7.191875E+05 -8.374408E+01  4.940613E+03 -5.807774E+04  4.504784E+03  2.353203E+04
       202  24  7.193758E+05  1.084839E+02  8.591042E+03 -7.437340E+04  6.950626E+03  2.982881E+04
       202  25  4.331575E+05 -6.893994E+04 -5.568562E+04 -7.443396E+04  9.434275E+03  1.716365E+04
       202  26  3.340692E+05 -9.277746E+04 -7.363187E+04 -5.821903E+04  1.180150E+04  2.353056E+04
       202  27  2.353768E+05 -1.163537E+05 -8.997091E+04 -7.459676E+04  1.416586E+04  2.982870E+04
       203   1  1.276455E+06  1.335787E+05  1.250166E+05 -7.319670E+04 -1.123766E+03 -3.362046E+04
       203   2  1.374289E+06  1.578617E+05  1.536711E+05 -5.838228E+04 -1.251987E+04 -3.948792E+04
       203   3  1.475137E+06  1.878296E+05  1.911773E+05 -7.621272E+04 -2.391425E+04 -4.394650E+04
       203   4  7.198766E+05 -3.628276E+02  1.124795E+04 -7.438562E+04 -8.703512E+03 -3.362139E+04
       203   5  7.184906E+05  3.272022E+01  1.953681E+04 -5.806213E+04 -1.846475E+04 -3.949118E+04
       203   6  7.198306E+05  5.834334E+03  3.555042E+04 -7.438536E+04 -2.822247E+04 -4.395141E+04
       203   7  1.635926E+05 -1.343237E+05 -1.025369E+05 -7.557344E+04 -1.627659E+04 -3.362229E+04
       203   8  6.310049E+04 -1.578232E+05 -1.146201E+05 -5.774230E+04 -2.440346E+04 -3.949444E+04
       203   9 -3.493587E+04 -1.761969E+05 -1.201071E+05 -7.256025E+04 -3.252554E+04 -4.395634E+04
       203  10  1.276454E+06  1.335775E+05  1.250145E+05 -7.319673E+04  1.641312E-09  1.262974E-10
       203  11  1.374288E+06  1.578600E+05  1.536678E+05 -5.838268E+04 -1.207680E-09 -7.016383E-10
       203  12  1.475136E+06  1.878274E+05  1.911726E+05 -7.621357E+04 -1.306456E-09 -6.209892E-10
       203  13  7.198763E+05 -3.640622E+02  1.124568E+04 -7.438586E+04  1.068875E-09  2.953390E-10
       203  14  7.184898E+05  3.095350E+01  1.953324E+04 -5.806272E+04 -3.703075E-10 -4.210657E-10
       203  15  7.198292E+05  5.832045E+03  3.554529E+04 -7.438636E+04 -5.609391E-10 -2.751313E-10
       203  16  1.635921E+05 -1.343250E+05 -1.025395E+05 -7.557388E+04 -5.365687E-10  2.419506E-10
       203  17  6.309943E+04 -1.578250E+05 -1.146241E+05 -5.774308E+04  1.187644E-09 -1.640070E-10
       203  18 -3.493753E+04 -1.761992E+05 -1.201127E+05 -7.256140E+04  1.099175E-09  2.653908E-10
       203  19  1.276455E+06  1.335787E+05  1.250166E+05 -7.319670E+04  1.123766E+03  3.362046E+04
       203  20  1.374289E+06  1.578617E+05  1.536711E+05 -5.838228E+04  1.251987E+04  3.948792E+04
       203  21  1.475137E+06  1.878296E+05  1.911773E+05 -7.621272E+04  2.391425E+04  4.394650E+04
       203  22  7.198766E+05 -3.628276E+02  1.124795E+04 -7.438562E+04  8.703512E+03  3.362139E+04
       203  23  7.184906E+05  3.272022E+01  1.953681E+04 -5.806213E+04  1.846475E+04  3.949118E+04
       203  24  7.198306E+05  5.834334E+03  3.555042E+04 -7.438536E+04  2.822247E+04  4.395141E+04
       203  25  1.635926E+05 -1.343237E+05 -1.025369E+05 -7.557344E+04  1.627659E+04  3.362229E+04
       203  26  6.310049E+04 -1.578232E+05 -1.146201E+05 -5.774230E+04  2.440346E+04  3.949444E+04
       203  27 -3.493587E+04 -1.761969E+05 -1.201071E+05 -7.256025E+04  3.252554E+04  4.395634E+04
       204   1  1.555932E+06  1.948302E+05  2.156914E+05 -5.562604E+04 -2.344414E+04 -4.889394E+04
       204   2  1.635668E+06  2.353946E+05  2.771139E+05 -8.824653E+04 -9.630800E+04 -4.499034E+04
       204   3  1.756286E+06  4.007423E+05  4.171407E+05 -1.524051E+05 -1.692110E+05 -1.416212E+04
       204   4  7.271044E+05 -4.785780E+03  4.542502E+04 -7.411765E+04 -3.441593E+04 -4.890142E+04
       204   5  7.092843E+05  1.089467E+04  7.955157E+04 -5.839403E+04 -7.615320E+04 -4.498919E+04
       204   6  7.269968E+05  1.460558E+05  1.707540E+05 -7.420147E+04 -1.179150E+05 -1.414552E+04
       204   7 -1.010715E+05 -2.044436E+05 -1.248775E+05 -9.258421E+04 -4.537334E+04 -4.890825E+04
       204   8 -2.162907E+05 -2.136575E+05 -1.180582E+05 -2.858669E+04 -5.602791E+04 -4.498610E+04
       204   9 -3.013048E+05 -1.086830E+05 -7.569432E+04  3.872122E+03 -6.670325E+04 -1.411602E+04
       204  10  1.555931E+06  1.948275E+05  2.156859E+05 -5.562696E+04  1.132097E-10 -2.087005E-10
       204  11  1.635658E+06  2.353899E+05  2.770927E+05 -8.825001E+04  1.564134E-10  1.570126E-10
       204  12  1.756255E+06  4.007344E+05  4.170866E+05 -1.524070E+05  6.709217E-10  4.358247E-10
       204  13  7.271024E+05 -4.788666E+03  4.541830E+04 -7.411901E+04 -1.584846E-09 -6.099287E-10
       204  14  7.092776E+05  1.089094E+04  7.953688E+04 -5.839678E+04  4.372667E-10  5.410709E-11
       204  15  7.269818E+05  1.460518E+05  1.707275E+05 -7.420281E+04  1.231279E-09 -3.188959E-10
       204  16 -1.010743E+05 -2.044467E+05 -1.248859E+05 -9.258600E+04 -1.242123E-09  1.695683E-10
       204  17 -2.162946E+05 -2.136605E+05 -1.180679E+05 -2.858872E+04 -5.920897E-10 -5.347327E-10
       204  18 -3.013097E+05 -1.086844E+05 -7.570306E+04  3.871364E+03 -1.819984E-12  6.022034E-10
       204  19  1.555932E+06  1.948302E+05  2.156914E+05 -5.562604E+04  2.344414E+04  4.889394E+04
       204  20  1.635668E+06  2.353946E+05  2.771139E+05 -8.824653E+04  9.630800E+04  4.499034E+04
       204  21  1.756286E+06  4.007423E+05  4.171407E+05 -1.524051E+05  1.692110E+05  1.416212E+04
       204  22  7.271044E+05 -4.785780E+03  4.542502E+04 -7.411765E+04  3.441593E+04  4.890142E+04
       204  23  7.092843E+05  1.089467E+04  7.955157E+04 -5.839403E+04  7.615320E+04  4.498919E+04
       204  24  7.269968E+05  1.460558E+05  1.707540E+05 -7.420147E+04  1.179150E+05  1.414552E+04
       204  25 -1.010715E+05 -2.044436E+05 -1.248775E+05 -9.258421E+04  4.537334E+04  4.890825E+04
       204  26 -2.162907E+05 -2.136575E+05 -1.180582E+05 -2.858669E+04  5.602791E+04  4.498610E+04
       204  27 -3.013048E+05 -1.086830E+05 -7.569432E+04  3.872122E+03  6.670325E+04  1.411602E+04
       205   1  6.081181E+05  2.248344E+06  6.014116E+05 -5.228356E+05  2.410165E+04  1.448369E+05
       205   2  3.876649E+05  1.625074E+06  3.721536E+05 -4.090585E+05  6.948911E+04  5.025164E+04
       205   3  2.321702E+05  1.030429E+06  2.205045E+05 -4.770888E+05  5.506213E+04 -4.432184E+04
       205   4  6.748633E+04  6.759526E+04  7.677175E+04 -4.825033E+05  2.430523E+04  5.078287E+04
       205   5  8.066245E+03  6.019939E+04  3.787761E+04 -3.916663E+05  6.954786E+04  3.113154E+04
       205   6  7.399814E+02  6.819211E+04  2.474879E+04 -4.826424E+05  5.491458E+04  1.139747E+04
       205   7 -4.734813E+05 -2.108790E+06 -4.481730E+05 -4.423090E+05  2.449709E+04 -4.294313E+04
       205   8 -3.716909E+05 -1.502373E+06 -2.965386E+05 -3.743166E+05  6.960563E+04  1.205876E+04
       205   9 -2.307461E+05 -8.931585E+05 -1.710438E+05 -4.881864E+05  5.476590E+04  6.703212E+04
       205  10  6.081119E+05  2.248322E+06  6.013712E+05 -5.228384E+05  5.824082E-10  2.044135E-09
       205  11  3.876590E+05  1.625070E+06  3.721398E+05 -4.090613E+05  9.903149E-10 -9.356501E-10
       205  12  2.321664E+05  1.030426E+06  2.204952E+05 -4.770868E+05  6.507523E-10 -2.917263E-09
       205  13  6.748500E+04  6.759234E+04  7.676579E+04 -4.825043E+05  2.194118E-09  6.943811E-10
       205  14  8.060789E+03  6.019705E+04  3.786669E+04 -3.916681E+05  1.679734E-09 -9.425737E-10
       205  15  7.367075E+02  6.819116E+04  2.474288E+04 -4.826429E+05  6.113760E-10  3.651089E-10
       205  16 -4.734824E+05 -2.108792E+06 -4.481776E+05 -4.423082E+05  5.771455E-10 -1.579638E-09
       205  17 -3.716962E+05 -1.502374E+06 -2.965480E+05 -3.743173E+05  3.423599E-09  2.112525E-10
       205  18 -2.307505E+05 -8.931642E+05 -1.710579E+05 -4.881894E+05  1.451462E-09  1.481321E-09
       205  19  6.081181E+05  2.248344E+06  6.014116E+05 -5.228356E+05 -2.410165E+04 -1.448369E+05
       205  20  3.876649E+05  1.625074E+06  3.721536E+05 -4.090585E+05 -6.948911E+04 -5.025164E+04
       205  21  2.321702E+05  1.030429E+06  2.205045E+05 -4.770888E+05 -5.506213E+04  4.432184E+04
       205  22  6.748633E+04  6.759526E+04  7.677175E+04 -4.825033E+05 -2.430523E+04 -5.078287E+04
       205  23  8.066245E+03  6.019939E+04  3.787761E+04 -3.916663E+05 -6.954786E+04 -3.113154E+04
       205  24  7.399814E+02  6.819211E+04  2.474879E+04 -4.826424E+05 -5.491458E+04 -1.139747E+04
       205  25 -4.734813E+05 -2.108790E+06 -4.481730E+05 -4.423090E+05 -2.449709E+04  4.294313E+04
       205  26 -3.716909E+05 -1.502373E+06 -2.965386E+05 -3.743166E+05 -6.960563E+04 -1.205876E+04
       205  27 -2.307461E+05 -8.931585E+05 -1.710438E+05 -4.881864E+05 -5.476590E+04 -6.703212E+04
       206   1  1.321880E+05  5.944729E+05  1.301523E+05 -4.857964E+05  2.949106E+04 -3.537232E+04
       206   2 -1.677038E+04 -1.450902E+04  3.704673E+03 -3.906751E+05 -4.826294E+03 -4.483343E+04
       206   3 -1.600829E+05 -6.213787E+05 -1.154374E+05 -4.804532E+05 -3.891112E+04 -5.428252E+04
       206   4  4.711224E+03  6.530618E+04  2.178869E+04 -4.833013E+05  2.936880E+04  7.649170E+03
       206   5  2.148867E+03  6.438593E+04  1.940151E+04 -3.908526E+05 -4.945494E+03 -2.118720E+03
       206   6  5.305199E+03  6.527582E+04  2.453945E+04 -4.832995E+05 -3.902831E+04 -1.188343E+04
       206   7 -1.227821E+05 -4.635907E+05 -8.658283E+04 -4.808082E+05  2.924683E+04  5.063468E+04
       206   8  2.106871E+04  1.432908E+05  3.510490E+04 -3.910301E+05 -5.064710E+03  4.060131E+04
       206   9  1.706648E+05  7.523828E+05  1.644983E+05 -4.861485E+05 -3.914581E+04  3.056172E+04
       206  10  1.321867E+05  5.944713E+05  1.301483E+05 -4.857955E+05 -7.236265E-11 -1.924740E-09
       206  11 -1.677095E+04 -1.451118E+04  3.700852E+03 -3.906753E+05  4.607636E-10  6.884905E-09
       206  12 -1.600853E+05 -6.213822E+05 -1.154458E+05 -4.804549E+05 -1.160413E-09  1.592262E-08
       206  13  4.710282E+03  6.530588E+04  2.178695E+04 -4.833015E+05  5.193155E-10  1.074076E-09
       206  14  2.148839E+03  6.438592E+04  1.940146E+04 -3.908526E+05 -2.082377E-09 -1.205969E-09
       206  15  5.303525E+03  6.527526E+04  2.453632E+04 -4.832999E+05 -1.673180E-09  4.166884E-10
       206  16 -1.227837E+05 -4.635937E+05 -8.658927E+04 -4.808094E+05  1.729629E-10  2.994169E-09
       206  17  2.106824E+04  1.432890E+05  3.510176E+04 -3.910300E+05 -1.099246E-09 -8.629052E-09
       206  18  1.706629E+05  7.523814E+05  1.644937E+05 -4.861476E+05 -7.993499E-10 -1.741552E-08
       206  19  1.321880E+05  5.944729E+05  1.301523E+05 -4.857964E+05 -2.949106E+04  3.537232E+04
       206  20 -1.677038E+04 -1.450902E+04  3.704673E+03 -3.906751E+05  4.826294E+03  4.483343E+04
       206  21 -1.600829E+05 -6.213787E+05 -1.154374E+05 -4.804532E+05  3.891112E+04  5.428252E+04
       206  22  4.711224E+03  6.530618E+04  2.178869E+04 -4.833013E+05 -2.936880E+04 -7.649170E+03
       206  23  2.148867E+03  6.438593E+04  1.940151E+04 -3.908526E+05  4.945494E+03  2.118720E+03
       206  24  5.305199E+03  6.527582E+04  2.453945E+04 -4.832995E+05  3.902831E+04  1.188343E+04
       206  25 -1.227821E+05 -4.635907E+05 -8.658283E+04 -4.808082E+05 -2.924683E+04 -5.063468E+04
       206  26  2.106871E+04  1.432908E+05  3.510490E+04 -3.910301E+05  5.064710E+03 -4.060131E+04
       206  27  1.706648E+05  7.523828E+05  1.644983E+05 -4.861485E+05  3.914581E+04 -3.056172E+04
       207   1 -2.691404E+05 -1.050178E+06 -1.983929E+05 -4.898463E+05 -6.452868E+04 -7.211909E+04
       207   2 -4.082203E+05 -1.660893E+06 -3.208025E+05 -3.706061E+05 -7.767379E+04 -1.667454E+04
       207   3 -4.962020E+05 -2.265737E+06 -4.666416E+05 -4.330081E+05 -2.688336E+04  3.879518E+04
       207   4  2.513754E+02  6.900568E+04  2.896001E+04 -4.825958E+05 -6.467270E+04 -1.613251E+04
       207   5  9.651051E+03  5.902141E+04  4.646331E+04 -3.917195E+05 -7.760442E+04 -4.035509E+04
       207   6  8.392534E+04  6.834883E+04  9.588220E+04 -4.824290E+05 -2.668585E+04 -6.449828E+04
       207   7  2.695671E+05  1.189389E+06  2.562594E+05 -4.753307E+05 -6.481524E+04  3.995325E+04
       207   8  4.273311E+05  1.781728E+06  4.135605E+05 -4.128899E+05 -7.753356E+04 -6.410031E+04
       207   9  6.636692E+05  2.407458E+06  6.580583E+05 -5.320328E+05 -2.647235E+04 -1.681794E+05
       207  10 -2.691463E+05 -1.050184E+06 -1.984106E+05 -4.898501E+05 -1.761927E-10 -1.594974E-08
       207  11 -4.082269E+05 -1.660895E+06 -3.208144E+05 -3.706072E+05  1.137393E-09 -8.828024E-09
       207  12 -4.962032E+05 -2.265739E+06 -4.666458E+05 -4.330072E+05  4.360042E-10  1.775411E-09
       207  13  2.468129E+02  6.900428E+04  2.895165E+04 -4.825966E+05 -3.324976E-10  1.111613E-09
       207  14  9.644144E+03  5.901804E+04  4.644892E+04 -3.917220E+05 -1.639567E-09 -8.978636E-10
       207  15  8.392345E+04  6.834417E+04  9.587304E+04 -4.824304E+05  6.949816E-11  2.036459E-10
       207  16  2.695621E+05  1.189386E+06  2.562485E+05 -4.753286E+05 -1.405904E-09  1.735548E-08
       207  17  4.273236E+05  1.781722E+06  4.135415E+05 -4.128939E+05  4.074952E-11  7.604022E-09
       207  18  6.636609E+05  2.407427E+06  6.580040E+05 -5.320364E+05  5.032836E-10 -2.805484E-09
       207  19 -2.691404E+05 -1.050178E+06 -1.983929E+05 -4.898463E+05  6.452868E+04  7.211909E+04
       207  20 -4.082203E+05 -1.660893E+06 -3.208025E+05 -3.706061E+05  7.767379E+04  1.667454E+04
       207  21 -4.962020E+05 -2.265737E+06 -4.666416E+05 -4.330081E+05  2.688336E+04 -3.879518E+04
       207  22  2.513754E+02  6.900568E+04  2.896001E+04 -4.825958E+05  6.467270E+04  1.613251E+04
       207  23  9.651051E+03  5.902141E+04  4.646331E+04 -3.917195E+05  7.760442E+04  4.035509E+04
       207  24  8.392534E+04  6.834883E+04  9.588220E+04 -4.824290E+05  2.668585E+04  6.449828E+04
       207  25  2.695671E+05  1.189389E+06  2.562594E+05 -4.753307E+05  6.481524E+04 -3.995325E+04
       207  26  4.273311E+05  1.781728E+06  4.135605E+05 -4.128899E+05  7.753356E+04  6.410031E+04
       207  27  6.636692E+05  2.407458E+06  6.580583E+05 -5.320328E+05  2.647235E+04  1.681794E+05
       208   1 -2.154408E+06 -8.556534E+05 -4.965069E+05 -8.258813E+05 -2.162558E+05 -6.538999E+04
       208   2 -2.067186E+06 -5.799052E+05 -3.052917E+05 -7.923973E+05 -1.375212E+05 -9.613928E+02
       208   3 -2.032634E+06 -4.908281E+05 -2.264344E+05 -7.425937E+05 -4.867522E+04  3.664737E+04
       208   4 -1.292924E+06 -4.262236E+05 -2.494434E+05 -4.825382E+05 -1.651943E+05 -4.623776E+04
       208   5 -1.255895E+06 -2.386969E+05 -1.113903E+05 -5.272211E+05 -1.176489E+05  6.489399E+03
       208   6 -1.265254E+06 -2.315322E+05 -6.083363E+04 -5.556161E+05 -6.001016E+04  3.238737E+04
       208   7 -4.306947E+05  3.429787E+03 -2.442121E+03 -1.387114E+05 -1.140561E+05 -2.703474E+04
       208   8 -4.439385E+05  1.026147E+05  8.246489E+04 -2.617084E+05 -9.774845E+04  1.395408E+04
       208   9 -4.972698E+05  2.778936E+04  1.047355E+05 -3.684343E+05 -7.136040E+04  2.812274E+04
       208  10 -2.154460E+06 -8.556706E+05 -4.966032E+05 -8.258928E+05  1.328367E-09 -3.928558E-11
       208  11 -2.067207E+06 -5.799103E+05 -3.053273E+05 -7.923974E+05  1.442119E-09  2.317938E-12
       208  12 -2.032637E+06 -4.908301E+05 -2.264414E+05 -7.425922E+05  2.708849E-10  1.572412E-10
       208  13 -1.292954E+06 -4.262332E+05 -2.494988E+05 -4.825444E+05  3.597577E-10  2.980959E-10
       208  14 -1.255910E+06 -2.387007E+05 -1.114164E+05 -5.272204E+05  2.044021E-09 -9.879829E-10
       208  15 -1.265258E+06 -2.315343E+05 -6.084238E+04 -5.556146E+05  1.228011E-09 -1.108806E-10
       208  16 -4.307089E+05  3.425506E+03 -2.467960E+03 -1.387138E+05  3.244663E-10 -2.784037E-10
       208  17 -4.439488E+05  1.026119E+05  8.244655E+04 -2.617073E+05  2.492382E-09 -6.161628E-10
       208  18 -4.972754E+05  2.778715E+04  1.047245E+05 -3.684327E+05 -1.378058E-10  4.282701E-12
       208  19 -2.154408E+06 -8.556534E+05 -4.965069E+05 -8.258813E+05  2.162558E+05  6.538999E+04
       208  20 -2.067186E+06 -5.799052E+05 -3.052917E+05 -7.923973E+05  1.375212E+05  9.613928E+02
       208  21 -2.032634E+06 -4.908281E+05 -2.264344E+05 -7.425937E+05  4.867522E+04 -3.664737E+04
       208  22 -1.292924E+06 -4.262236E+05 -2.494434E+05 -4.825382E+05  1.651943E+05  4.623776E+04
       208  23 -1.255895E+06 -2.386969E+05 -1.113903E+05 -5.272211E+05  1.176489E+05 -6.489399E+03
       208  24 -1.265254E+06 -2.315322E+05 -6.083363E+04 -5.556161E+05  6.001016E+04 -3.238737E+04
       208  25 -4.306947E+05  3.429787E+03 -2.442121E+03 -1.387114E+05  1.140561E+05  2.703474E+04
       208  26 -4.439385E+05  1.026147E+05  8.246489E+04 -2.617084E+05  9.774845E+04 -1.395408E+04
       208  27 -4.972698E+05  2.778936E+04  1.047355E+05 -3.684343E+05  7.136040E+04 -2.812274E+04
       209   1 -1.936422E+06 -4.969678E+05 -1.980663E+05 -7.373361E+05 -4.621926E+04  3.181152E+04
       209   2 -1.851917E+06 -4.414917E+05 -1.536083E+05 -6.989876E+05 -3.030503E+04  3.245475E+04
       209   3 -1.749663E+06 -4.158885E+05 -1.216948E+05 -6.848034E+05 -1.385558E+04  3.166728E+04
       209   4 -1.257390E+06 -2.438012E+05 -4.719738E+04 -5.473998E+05 -5.085544E+04  3.006660E+04
       209   5 -1.265830E+06 -2.249734E+05 -2.481973E+04 -5.368281E+05 -3.659492E+04  3.009155E+04
       209   6 -1.256196E+06 -2.356830E+05 -1.366257E+04 -5.504224E+05 -2.180179E+04  2.868555E+04
       209   7 -5.778900E+05  9.403887E+03  1.036429E+05 -3.572715E+05 -5.549711E+04  2.831959E+04
       209   8 -6.793963E+05 -8.428261E+03  1.039476E+05 -3.745282E+05 -4.289123E+04  2.772594E+04
       209   9 -7.624865E+05 -5.546065E+04  9.435427E+04 -4.159445E+05 -2.975478E+04  2.570134E+04
       209  10 -1.936425E+06 -4.969695E+05 -1.980723E+05 -7.373349E+05  3.307650E-10  2.592226E-10
       209  11 -1.851918E+06 -4.414931E+05 -1.536120E+05 -6.989868E+05  1.804195E-09 -1.131371E-10
       209  12 -1.749663E+06 -4.158897E+05 -1.216970E+05 -6.848031E+05 -9.820115E-10 -6.416293E-10
       209  13 -1.257393E+06 -2.438029E+05 -4.720394E+04 -5.473986E+05  2.418804E-09  5.849396E-11
       209  14 -1.265831E+06 -2.249747E+05 -2.482395E+04 -5.368272E+05  1.772143E-09 -1.354286E-10
       209  15 -1.256197E+06 -2.356840E+05 -1.366501E+04 -5.504219E+05 -2.259740E-09 -1.096250E-09
       209  16 -5.778935E+05  9.402199E+03  1.036356E+05 -3.572702E+05 -1.029409E-09  3.467465E-10
       209  17 -6.793984E+05 -8.429580E+03  1.039427E+05 -3.745272E+05 -8.426372E-10 -1.258026E-10
       209  18 -7.624877E+05 -5.546159E+04  9.435137E+04 -4.159439E+05 -4.287162E-09 -1.616525E-09
       209  19 -1.936422E+06 -4.969678E+05 -1.980663E+05 -7.373361E+05  4.621926E+04 -3.181152E+04
       209  20 -1.851917E+06 -4.414917E+05 -1.536083E+05 -6.989876E+05  3.030503E+04 -3.245475E+04
       209  21 -1.749663E+06 -4.158885E+05 -1.216948E+05 -6.848034E+05  1.385558E+04 -3.166728E+04
       209  22 -1.257390E+06 -2.438012E+05 -4.719738E+04 -5.473998E+05  5.085544E+04 -3.006660E+04
       209  23 -1.265830E+06 -2.249734E+05 -2.481973E+04 -5.368281E+05  3.659492E+04 -3.009155E+04
       209  24 -1.256196E+06 -2.356830E+05 -1.366257E+04 -5.504224E+05  2.180179E+04 -2.868555E+04
       209  25 -5.778900E+05  9.403887E+03  1.036429E+05 -3.572715E+05  5.549711E+04 -2.831959E+04
       209  26 -6.793963E+05 -8.428261E+03  1.039476E+05 -3.745282E+05  4.289123E+04 -2.772594E+04
       209  27 -7.624865E+05 -5.546065E+04  9.435427E+04 -4.159445E+05  2.975478E+04 -2.570134E+04
       210   1 -1.679280E+06 -3.918179E+05 -1.027188E+05 -6.664655E+05 -1.079085E+04  2.832437E+04
       210   2 -1.595172E+06 -3.453406E+05 -7.749442E+04 -6.274524E+05 -5.403763E+03  2.285250E+04
       210   3 -1.489056E+06 -3.217282E+05 -5.453210E+04 -6.142440E+05  1.339597E+01  1.729445E+04
       210   4 -1.255591E+06 -2.362023E+05 -1.031464E+04 -5.500293E+05 -1.840111E+04  2.546989E+04
       210   5 -1.266567E+06 -2.246394E+05 -5.665270E+03 -5.371727E+05 -1.311282E+04  1.996248E+04
       210   6 -1.255527E+06 -2.359221E+05 -3.198963E+03 -5.501237E+05 -7.794972E+03  1.436879E+04
       210   7 -8.317161E+05 -8.057168E+04  8.207986E+04 -4.335193E+05 -2.601704E+04  2.261330E+04
       210   8 -9.378514E+05 -1.039293E+05  6.615797E+04 -4.468486E+05 -2.082632E+04  1.707082E+04
       210   9 -1.021943E+06 -1.501118E+05  4.813113E+04 -4.859813E+05 -1.560652E+04  1.144194E+04
       210  10 -1.679280E+06 -3.918187E+05 -1.027205E+05 -6.664652E+05 -3.775760E-09 -1.213904E-09
       210  11 -1.595172E+06 -3.453411E+05 -7.749546E+04 -6.274523E+05 -1.877292E-09 -2.849900E-10
       210  12 -1.489056E+06 -3.217285E+05 -5.453266E+04 -6.142440E+05  1.110915E-09  5.845882E-10
       210  13 -1.255591E+06 -2.362031E+05 -1.031649E+04 -5.500290E+05 -1.317199E-09 -9.616061E-10
       210  14 -1.266568E+06 -2.246398E+05 -5.666341E+03 -5.371724E+05  1.252694E-09 -3.919807E-10
       210  15 -1.255528E+06 -2.359224E+05 -3.199465E+03 -5.501236E+05  2.672369E-09  6.087837E-10
       210  16 -8.317169E+05 -8.057241E+04  8.207763E+04 -4.335188E+05 -2.277286E-09 -1.414408E-09
       210  17 -9.378519E+05 -1.039297E+05  6.615661E+04 -4.468483E+05  9.159563E-10 -4.204017E-10
       210  18 -1.021944E+06 -1.501120E+05  4.813042E+04 -4.859811E+05  3.638481E-09  1.534406E-09
       210  19 -1.679280E+06 -3.918179E+05 -1.027188E+05 -6.664655E+05  1.079085E+04 -2.832437E+04
       210  20 -1.595172E+06 -3.453406E+05 -7.749442E+04 -6.274524E+05  5.403763E+03 -2.285250E+04
       210  21 -1.489056E+06 -3.217282E+05 -5.453210E+04 -6.142440E+05 -1.339597E+01 -1.729445E+04
       210  22 -1.255591E+06 -2.362023E+05 -1.031464E+04 -5.500293E+05  1.840111E+04 -2.546989E+04
       210  23 -1.266567E+06 -2.246394E+05 -5.665270E+03 -5.371727E+05  1.311282E+04 -1.996248E+04
       210  24 -1.255527E+06 -2.359221E+05 -3.198963E+03 -5.501237E+05  7.794972E+03 -1.436879E+04
       210  25 -8.317161E+05 -8.057168E+04  8.207986E+04 -4.335193E+05  2.601704E+04 -2.261330E+04
       210  26 -9.378514E+05 -1.039293E+05  6.615797E+04 -4.468486E+05  2.082632E+04 -1.707082E+04
       210  27 -1.021943E+06 -1.501118E+05  4.813113E+04 -4.859813E+05  1.560652E+04 -1.144194E+04
       211   1 -1.419697E+06 -2.962231E+05 -3.805742E+04 -5.952607E+05  1.932490E+03  1.356865E+04
       211   2 -1.335511E+06 -2.499335E+05 -1.659661E+04 -5.560699E+05  5.220022E+03  7.171936E+03
       211   3 -1.228882E+06 -2.262195E+05  4.277030E+03 -5.427623E+05  8.509336E+03  7.690122E+02
       211   4 -1.255439E+06 -2.359439E+05 -2.467320E+03 -5.501078E+05 -5.865609E+03  1.064741E+04
       211   5 -1.266655E+06 -2.246568E+05 -1.554361E+03 -5.371634E+05 -2.585659E+03  4.248183E+03
       211   6 -1.255435E+06 -2.359444E+05 -1.222377E+03 -5.501057E+05  6.959472E+02 -2.157297E+03
       211   7 -1.091155E+06 -1.756630E+05  3.312114E+04 -5.049442E+05 -1.366589E+04  7.725364E+03
       211   8 -1.197794E+06 -1.993797E+05  1.348787E+04 -5.182549E+05 -1.039228E+04  1.324080E+03
       211   9 -1.281988E+06 -2.456692E+05 -6.721610E+03 -5.574488E+05 -7.117133E+03 -5.083490E+03
       211  10 -1.419697E+06 -2.962233E+05 -3.805777E+04 -5.952608E+05  4.033804E-09  1.608002E-09
       211  11 -1.335511E+06 -2.499336E+05 -1.659676E+04 -5.560699E+05  1.816520E-09  5.595636E-10
       211  12 -1.228882E+06 -2.262195E+05  4.276893E+03 -5.427623E+05  1.080191E-09 -2.432570E-10
       211  13 -1.255440E+06 -2.359440E+05 -2.467598E+03 -5.501078E+05  1.936403E-09  5.120275E-10
       211  14 -1.266655E+06 -2.246568E+05 -1.554407E+03 -5.371634E+05 -3.309044E-10  3.005235E-10
       211  15 -1.255435E+06 -2.359444E+05 -1.222387E+03 -5.501057E+05 -2.097638E-10 -2.729636E-10
       211  16 -1.091156E+06 -1.756631E+05  3.312068E+04 -5.049441E+05  1.756635E-09  7.519234E-10
       211  17 -1.197794E+06 -1.993797E+05  1.348766E+04 -5.182549E+05 -1.495758E-09 -6.636945E-10
       211  18 -1.281988E+06 -2.456693E+05 -6.721754E+03 -5.574488E+05 -1.143270E-09 -6.430001E-10
       211  19 -1.419697E+06 -2.962231E+05 -3.805742E+04 -5.952607E+05 -1.932490E+03 -1.356865E+04
       211  20 -1.335511E+06 -2.499335E+05 -1.659661E+04 -5.560699E+05 -5.220022E+03 -7.171936E+03
       211  21 -1.228882E+06 -2.262195E+05  4.277030E+03 -5.427623E+05 -8.509336E+03 -7.690122E+02
       211  22 -1.255439E+06 -2.359439E+05 -2.467320E+03 -5.501078E+05  5.865609E+03 -1.064741E+04
       211  23 -1.266655E+06 -2.246568E+05 -1.554361E+03 -5.371634E+05  2.585659E+03 -4.248183E+03
       211  24 -1.255435E+06 -2.359444E+05 -1.222377E+03 -5.501057E+05 -6.959472E+02  2.157297E+03
       211  25 -1.091155E+06 -1.756630E+05  3.312114E+04 -5.049442E+05  1.366589E+04 -7.725364E+03
       211  26 -1.197794E+06 -1.993797E+05  1.348787E+04 -5.182549E+05  1.039228E+04 -1.324080E+03
       211  27 -1.281988E+06 -2.456692E+05 -6.721610E+03 -5.574488E+05  7.117133E+03  5.083490E+03
       212   1 -1.159561E+06 -2.006260E+05  2.003633E+04 -5.237215E+05  1.017119E+04 -3.053746E+03
       212   2 -1.075455E+06 -1.543849E+05  4.021352E+04 -4.845524E+05  1.344463E+04 -9.456297E+03
       212   3 -9.689175E+05 -1.306944E+05  5.981636E+04 -4.712376E+05  1.671547E+04 -1.584754E+04
       212   4 -1.255441E+06 -2.359414E+05 -1.223799E+03 -5.500995E+05  2.359693E+03 -5.979533E+03
       212   5 -1.266659E+06 -2.246754E+05 -1.565256E+03 -5.371690E+05  5.645189E+03 -1.237848E+04
       212   6 -1.255457E+06 -2.359634E+05 -2.490424E+03 -5.500970E+05  8.927949E+03 -1.876613E+04
       212   7 -1.351310E+06 -2.712560E+05 -2.248423E+04 -5.764738E+05 -5.450499E+03 -8.904829E+03
       212   8 -1.457825E+06 -2.949626E+05 -4.334578E+04 -5.897706E+05 -2.151620E+03 -1.529968E+04
       212   9 -1.541910E+06 -3.412251E+05 -6.480128E+04 -6.289224E+05  1.144374E+03 -2.168324E+04
       212  10 -1.159561E+06 -2.006260E+05  2.003611E+04 -5.237215E+05 -6.791277E-10 -3.821230E-10
       212  11 -1.075455E+06 -1.543851E+05  4.021302E+04 -4.845523E+05  4.226209E-10 -1.258944E-10
       212  12 -9.689179E+05 -1.306948E+05  5.981536E+04 -4.712374E+05  7.152688E-10  4.168570E-10
       212  13 -1.255441E+06 -2.359414E+05 -1.223877E+03 -5.500995E+05  1.243413E-10 -9.353300E-11
       212  14 -1.266659E+06 -2.246755E+05 -1.565604E+03 -5.371690E+05 -2.064531E-10  7.788599E-10
       212  15 -1.255457E+06 -2.359638E+05 -2.491235E+03 -5.500969E+05  3.245610E-10 -4.259423E-11
       212  16 -1.351310E+06 -2.712560E+05 -2.248443E+04 -5.764738E+05  5.274058E-10  2.374568E-10
       212  17 -1.457825E+06 -2.949629E+05 -4.334623E+04 -5.897706E+05 -1.537264E-11  1.123674E-09
       212  18 -1.541911E+06 -3.412256E+05 -6.480216E+04 -6.289224E+05 -3.757505E-10 -6.135109E-10
       212  19 -1.159561E+06 -2.006260E+05  2.003633E+04 -5.237215E+05 -1.017119E+04  3.053746E+03
       212  20 -1.075455E+06 -1.543849E+05  4.021352E+04 -4.845524E+05 -1.344463E+04  9.456297E+03
       212  21 -9.689175E+05 -1.306944E+05  5.981636E+04 -4.712376E+05 -1.671547E+04  1.584754E+04
       212  22 -1.255441E+06 -2.359414E+05 -1.223799E+03 -5.500995E+05 -2.359693E+03  5.979533E+03
       212  23 -1.266659E+06 -2.246754E+05 -1.565256E+03 -5.371690E+05 -5.645189E+03  1.237848E+04
       212  24 -1.255457E+06 -2.359634E+05 -2.490424E+03 -5.500970E+05 -8.927949E+03  1.876613E+04
       212  25 -1.351310E+06 -2.712560E+05 -2.248423E+04 -5.764738E+05  5.450499E+03  8.904829E+03
       212  26 -1.457825E+06 -2.949626E+05 -4.334578E+04 -5.897706E+05  2.151620E+03  1.529968E+04
       212  27 -1.541910E+06 -3.412251E+05 -6.480128E+04 -6.289224E+05 -1.144374E+03  2.168324E+04
       213   1 -8.998408E+05 -1.051729E+05  7.479011E+04 -4.522824E+05  1.865628E+04 -1.955581E+04
       213   2 -8.160128E+05 -5.911240E+04  9.272928E+04 -4.132365E+05  2.388355E+04 -2.515789E+04
       213   3 -7.101838E+05 -3.580656E+04  1.085600E+05 -3.999028E+05  2.907746E+04 -3.065951E+04
       213   4 -1.255555E+06 -2.359342E+05 -3.229098E+03 -5.500994E+05  1.085990E+04 -2.247863E+04
       213   5 -1.266576E+06 -2.246964E+05 -5.724569E+03 -5.371901E+05  1.620075E+04 -2.804029E+04
       213   6 -1.255628E+06 -2.362392E+05 -1.042013E+04 -5.499988E+05  2.150776E+04 -3.350158E+04
       213   7 -1.611143E+06 -3.666865E+05 -8.125640E+04 -6.478657E+05  3.068293E+03 -2.539967E+04
       213   8 -1.716934E+06 -3.902652E+05 -1.041908E+05 -6.610614E+05  8.523955E+03 -3.092045E+04
       213   9 -1.800771E+06 -4.366486E+05 -1.294179E+05 -6.999736E+05  1.394526E+04 -3.634096E+04
       213  10 -8.998413E+05 -1.051734E+05  7.478873E+04 -4.522821E+05 -3.125665E-10  3.515001E-10
       213  11 -8.160136E+05 -5.911323E+04  9.272702E+04 -4.132360E+05 -5.454985E-11  6.683349E-10
       213  12 -7.101849E+05 -3.580779E+04  1.085567E+05 -3.999021E+05 -2.557660E-10  2.223739E-10
       213  13 -1.255555E+06 -2.359348E+05 -3.230268E+03 -5.500992E+05  4.723259E-10 -2.142981E-10
       213  14 -1.266576E+06 -2.246973E+05 -5.726538E+03 -5.371897E+05  1.494667E-10  8.697106E-10
       213  15 -1.255629E+06 -2.362405E+05 -1.042310E+04 -5.499982E+05 -3.470113E-10  4.209447E-10
       213  16 -1.611143E+06 -3.666872E+05 -8.125763E+04 -6.478656E+05  1.053013E-09 -3.654934E-10
       213  17 -1.716934E+06 -3.902663E+05 -1.041928E+05 -6.610612E+05 -1.037235E-09 -1.461978E-10
       213  18 -1.800772E+06 -4.366500E+05 -1.294207E+05 -6.999732E+05 -1.154742E-09  7.081987E-10
       213  19 -8.998408E+05 -1.051729E+05  7.479011E+04 -4.522824E+05 -1.865628E+04  1.955581E+04
       213  20 -8.160128E+05 -5.911240E+04  9.272928E+04 -4.132365E+05 -2.388355E+04  2.515789E+04
       213  21 -7.101838E+05 -3.580656E+04  1.085600E+05 -3.999028E+05 -2.907746E+04  3.065951E+04
       213  22 -1.255555E+06 -2.359342E+05 -3.229098E+03 -5.500994E+05 -1.085990E+04  2.247863E+04
       213  23 -1.266576E+06 -2.246964E+05 -5.724569E+03 -5.371901E+05 -1.620075E+04  2.804029E+04
       213  24 -1.255628E+06 -2.362392E+05 -1.042013E+04 -5.499988E+05 -2.150776E+04  3.350158E+04
       213  25 -1.611143E+06 -3.666865E+05 -8.125640E+04 -6.478657E+05 -3.068293E+03  2.539967E+04
       213  26 -1.716934E+06 -3.902652E+05 -1.041908E+05 -6.610614E+05 -8.523955E+03  3.092045E+04
       213  27 -1.800771E+06 -4.366486E+05 -1.294179E+05 -6.999736E+05 -1.394526E+04  3.634096E+04
       214   1 -6.412351E+05 -1.077429E+04  1.207335E+05 -3.823807E+05  3.287221E+04 -3.371722E+04
       214   2 -5.585990E+05  3.608354E+04  1.301637E+05 -3.410924E+05  4.589933E+04 -3.567071E+04
       214   3 -4.576302E+05  5.381528E+04  1.297492E+05 -3.238060E+05  5.832960E+04 -3.601657E+04
       214   4 -1.256255E+06 -2.357095E+05 -1.380261E+04 -5.503864E+05  2.492656E+04 -3.670191E+04
       214   5 -1.265836E+06 -2.250673E+05 -2.507625E+04 -5.368525E+05  3.981446E+04 -3.796027E+04
       214   6 -1.257468E+06 -2.439287E+05 -4.768005E+04 -5.473257E+05  5.410351E+04 -3.761074E+04
       214   7 -1.870887E+06 -4.606147E+05 -1.483601E+05 -7.182385E+05  1.698947E+04 -3.968344E+04
       214   8 -1.972567E+06 -4.861780E+05 -1.803464E+05 -7.324075E+05  3.373709E+04 -4.024700E+04
       214   9 -2.056664E+06 -5.416216E+05 -2.251505E+05 -7.705813E+05  4.988326E+04 -3.920267E+04
       214  10 -6.412365E+05 -1.077580E+04  1.207293E+05 -3.823798E+05  7.631875E-10  2.164926E-10
       214  11 -5.586016E+05  3.608161E+04  1.301574E+05 -3.410911E+05 -5.909082E-10 -2.150836E-10
       214  12 -4.576342E+05  5.381298E+04  1.297404E+05 -3.238043E+05  4.202795E-10 -8.118556E-10
       214  13 -1.256256E+06 -2.357111E+05 -1.380631E+04 -5.503856E+05  2.575396E-10  4.185431E-11
       214  14 -1.265838E+06 -2.250692E+05 -2.508193E+04 -5.368513E+05 -6.011472E-10 -2.362142E-11
       214  15 -1.257472E+06 -2.439310E+05 -4.768821E+04 -5.473240E+05 -5.127433E-11  5.508534E-10
       214  16 -1.870888E+06 -4.606165E+05 -1.483636E+05 -7.182380E+05 -1.731942E-09  1.404410E-10
       214  17 -1.972568E+06 -4.861801E+05 -1.803516E+05 -7.324064E+05 -1.573895E-09  1.155049E-10
       214  18 -2.056667E+06 -5.416240E+05 -2.251580E+05 -7.705797E+05 -1.482944E-10  1.452474E-09
       214  19 -6.412351E+05 -1.077429E+04  1.207335E+05 -3.823807E+05 -3.287221E+04  3.371722E+04
       214  20 -5.585990E+05  3.608354E+04  1.301637E+05 -3.410924E+05 -4.589933E+04  3.567071E+04
       214  21 -4.576302E+05  5.381528E+04  1.297492E+05 -3.238060E+05 -5.832960E+04  3.601657E+04
       214  22 -1.256255E+06 -2.357095E+05 -1.380261E+04 -5.503864E+05 -2.492656E+04  3.670191E+04
       214  23 -1.265836E+06 -2.250673E+05 -2.507625E+04 -5.368525E+05 -3.981446E+04  3.796027E+04
       214  24 -1.257468E+06 -2.439287E+05 -4.768005E+04 -5.473257E+05 -5.410351E+04  3.761074E+04
       214  25 -1.870887E+06 -4.606147E+05 -1.483601E+05 -7.182385E+05 -1.698947E+04  3.968344E+04
       214  26 -1.972567E+06 -4.861780E+05 -1.803464E+05 -7.324075E+05 -3.373709E+04  4.024700E+04
       214  27 -2.056664E+06 -5.416216E+05 -2.251505E+05 -7.705813E+05 -4.988326E+04  3.920267E+04
       215   1 -3.772139E+05  7.204708E+04  1.305173E+05 -3.352606E+05  7.513451E+04 -3.560463E+04
       215   2 -3.250321E+05  1.469580E+05  1.085918E+05 -2.282900E+05  9.781628E+04 -2.133776E+04
       215   3 -3.131167E+05  4.734419E+04  2.618863E+04 -1.042686E+05  1.091756E+05  2.301939E+04
       215   4 -1.265442E+06 -2.315095E+05 -6.145455E+04 -5.555880E+05  6.338089E+04 -4.002652E+04
       215   5 -1.255780E+06 -2.389878E+05 -1.125308E+05 -5.271919E+05  1.211312E+05 -1.258332E+04
       215   6 -1.293451E+06 -4.281202E+05 -2.519838E+05 -4.817287E+05  1.675436E+05  4.496435E+04
       215   7 -2.152874E+06 -5.350315E+05 -2.534718E+05 -7.756378E+05  5.164547E+04 -4.444274E+04
       215   8 -2.185646E+06 -6.248035E+05 -3.337110E+05 -8.256596E+05  1.444081E+05 -3.847114E+03
       215   9 -2.272803E+06 -9.033144E+05 -5.302279E+05 -8.585800E+05  2.258101E+05  6.684585E+04
       215  10 -3.772203E+05  7.204420E+04  1.305043E+05 -3.352585E+05  2.888245E-10  5.150584E-10
       215  11 -3.250425E+05  1.469550E+05  1.085730E+05 -2.282883E+05  4.758843E-10  4.923605E-11
       215  12 -3.131297E+05  4.734042E+04  2.616523E+04 -1.042706E+05  1.403481E-09  1.895294E-09
       215  13 -1.265447E+06 -2.315123E+05 -6.146511E+04 -5.555860E+05  1.156332E-09  6.613338E-10
       215  14 -1.255796E+06 -2.389920E+05 -1.125587E+05 -5.271907E+05  9.571719E-10  1.455181E-09
       215  15 -1.293482E+06 -4.281300E+05 -2.520405E+05 -4.817348E+05 -9.779410E-11  9.476907E-10
       215  16 -2.152877E+06 -5.350344E+05 -2.534806E+05 -7.756359E+05 -1.415513E-09  1.685821E-09
       215  17 -2.185669E+06 -6.248092E+05 -3.337504E+05 -8.256591E+05  1.140634E-09 -1.013581E-09
       215  18 -2.272859E+06 -9.033330E+05 -5.303325E+05 -8.585922E+05 -2.083811E-09 -6.413513E-10
       215  19 -3.772139E+05  7.204708E+04  1.305173E+05 -3.352606E+05 -7.513451E+04  3.560463E+04
       215  20 -3.250321E+05  1.469580E+05  1.085918E+05 -2.282900E+05 -9.781628E+04  2.133776E+04
       215  21 -3.131167E+05  4.734419E+04  2.618863E+04 -1.042686E+05 -1.091756E+05 -2.301939E+04
       215  22 -1.265442E+06 -2.315095E+05 -6.145455E+04 -5.555880E+05 -6.338089E+04  4.002652E+04
       215  23 -1.255780E+06 -2.389878E+05 -1.125308E+05 -5.271919E+05 -1.211312E+05  1.258332E+04
       215  24 -1.293451E+06 -4.281202E+05 -2.519838E+05 -4.817287E+05 -1.675436E+05 -4.496435E+04
       215  25 -2.152874E+06 -5.350315E+05 -2.534718E+05 -7.756378E+05 -5.164547E+04  4.444274E+04
       215  26 -2.185646E+06 -6.248035E+05 -3.337110E+05 -8.256596E+05 -1.444081E+05  3.847114E+03
       215  27 -2.272803E+06 -9.033144E+05 -5.302279E+05 -8.585800E+05 -2.258101E+05 -6.684585E+04
       216   1 -4.252712E+04 -4.910171E+04 -1.570716E+04  1.505826E+04  8.588356E+04  1.183418E+04
       216   2  3.861127E+04 -1.680890E+05 -7.110603E+04 -2.613160E+04  6.711561E+04  3.760445E+04
       216   3  1.529338E+05 -1.648680E+05 -8.370325E+04 -9.581913E+04  4.836315E+04  4.079741E+04
       216   4  8.238179E+05  1.652758E+05  1.912022E+05 -7.674725E+04  1.322828E+05  1.185672E+04
       216   5  8.048653E+05  1.722625E+04  8.983881E+04 -6.244997E+04  8.528475E+04  3.760801E+04
       216   6  8.239297E+05 -3.812706E+03  5.082378E+04 -7.664271E+04  3.830726E+04  4.079125E+04
       216   7  1.690873E+06  3.796320E+05  3.980714E+05 -1.686815E+05  1.787464E+05  1.186553E+04
       216   8  1.571677E+06  2.025090E+05  2.507528E+05 -9.881393E+04  1.034759E+05  3.760944E+04
       216   9  1.495356E+06  1.572163E+05  1.853285E+05 -5.744519E+04  2.824069E+04  4.078448E+04
       216  10 -4.253507E+04 -4.910384E+04 -1.572128E+04  1.505744E+04  1.277382E-09 -8.609459E-10
       216  11  3.860605E+04 -1.680917E+05 -7.111715E+04 -2.613363E+04 -7.388596E-10  4.650237E-10
       216  12  1.529308E+05 -1.648704E+05 -8.371077E+04 -9.582071E+04 -2.715590E-09  5.358820E-10
       216  13  8.237991E+05  1.652710E+05  1.911691E+05 -7.674852E+04 -7.953747E-10  5.560550E-10
       216  14  8.048571E+05  1.722278E+04  8.982250E+04 -6.245255E+04  8.198216E-10  6.971386E-11
       216  15  8.239277E+05 -3.814887E+03  5.081789E+04 -7.664397E+04  1.852395E-09  7.164142E-11
       216  16  1.690839E+06  3.796233E+05  3.980112E+05 -1.686832E+05 -1.250306E-09  4.866728E-10
       216  17  1.571665E+06  2.025046E+05  2.507300E+05 -9.881706E+04  2.857648E-10  1.146609E-10
       216  18  1.495355E+06  1.572143E+05  1.853239E+05 -5.744611E+04  2.401672E-09  1.218620E-09
       216  19 -4.252712E+04 -4.910171E+04 -1.570716E+04  1.505826E+04 -8.588356E+04 -1.183418E+04
       216  20  3.861127E+04 -1.680890E+05 -7.110603E+04 -2.613160E+04 -6.711561E+04 -3.760445E+04
       216  21  1.529338E+05 -1.648680E+05 -8.370325E+04 -9.581913E+04 -4.836315E+04 -4.079741E+04
       216  22  8.238179E+05  1.652758E+05  1.912022E+05 -7.674725E+04 -1.322828E+05 -1.185672E+04
       216  23  8.048653E+05  1.722625E+04  8.983881E+04 -6.244997E+04 -8.528475E+04 -3.760801E+04
       216  24  8.239297E+05 -3.812706E+03  5.082378E+04 -7.664271E+04 -3.830726E+04 -4.079125E+04
       216  25  1.690873E+06  3.796320E+05  3.980714E+05 -1.686815E+05 -1.787464E+05 -1.186553E+04
       216  26  1.571677E+06  2.025090E+05  2.507528E+05 -9.881393E+04 -1.034759E+05 -3.760944E+04
       216  27  1.495356E+06  1.572163E+05  1.853285E+05 -5.744519E+04 -2.824069E+04 -4.078448E+04
       217   1  2.146942E+05 -1.381231E+05 -8.117881E+04 -7.502468E+04  3.643694E+04  3.637882E+04
       217   2  3.104241E+05 -1.206658E+05 -7.843935E+04 -6.190762E+04  2.721017E+04  3.172132E+04
       217   3  4.087452E+05 -9.798605E+04 -6.836943E+04 -7.828538E+04  1.797984E+04  2.575462E+04
       217   4  8.161270E+05  6.240067E+03  3.954343E+04 -7.688950E+04  3.146394E+04  3.637431E+04
       217   5  8.147141E+05  1.754380E+02  2.178469E+04 -6.214243E+04  2.059278E+04  3.171787E+04
       217   6  8.161648E+05 -3.842866E+02  1.249127E+04 -7.688844E+04  9.719462E+03  2.575270E+04
       217   7  1.417905E+06  1.505810E+05  1.602474E+05 -7.875618E+04  2.648622E+04  3.636983E+04
       217   8  1.319247E+06  1.210012E+05  1.219962E+05 -6.237744E+04  1.397012E+04  3.171442E+04
       217   9  1.223743E+06  9.720741E+04  9.334399E+04 -7.549055E+04  1.453777E+03  2.575075E+04
       217  10  2.146924E+05 -1.381248E+05 -8.118380E+04 -7.502574E+04  8.694143E-10  6.789580E-10
       217  11  3.104230E+05 -1.206671E+05 -7.844263E+04 -6.190832E+04  6.933497E-10  1.366352E-10
       217  12  4.087447E+05 -9.798685E+04 -6.837128E+04 -7.828575E+04 -6.818587E-10 -5.270761E-10
       217  13  8.161256E+05  6.238380E+03  3.953909E+04 -7.689043E+04 -7.934749E-10  1.279148E-09
       217  14  8.147134E+05  1.742436E+02  2.178200E+04 -6.214296E+04 -1.176926E-09  4.591790E-10
       217  15  8.161646E+05 -3.850244E+02  1.248985E+04 -7.688864E+04 -2.810793E-09 -5.482674E-10
       217  16  1.417903E+06  1.505793E+05  1.602436E+05 -7.875696E+04 -1.039291E-09  9.851568E-10
       217  17  1.319247E+06  1.210001E+05  1.219940E+05 -6.237780E+04 -2.515202E-10  3.914379E-10
       217  18  1.223743E+06  9.720670E+04  9.334274E+04 -7.549058E+04 -1.897056E-10 -3.234397E-10
       217  19  2.146942E+05 -1.381231E+05 -8.117881E+04 -7.502468E+04 -3.643694E+04 -3.637882E+04
       217  20  3.104241E+05 -1.206658E+05 -7.843935E+04 -6.190762E+04 -2.721017E+04 -3.172132E+04
       217  21  4.087452E+05 -9.798605E+04 -6.836943E+04 -7.828538E+04 -1.797984E+04 -2.575462E+04
       217  22  8.161270E+05  6.240067E+03  3.954343E+04 -7.688950E+04 -3.146394E+04 -3.637431E+04
       217  23  8.147141E+05  1.754380E+02  2.178469E+04 -6.214243E+04 -2.059278E+04 -3.171787E+04
       217  24  8.161648E+05 -3.842866E+02  1.249127E+04 -7.688844E+04 -9.719462E+03 -2.575270E+04
       217  25  1.417905E+06  1.505810E+05  1.602474E+05 -7.875618E+04 -2.648622E+04 -3.636983E+04
       217  26  1.319247E+06  1.210012E+05  1.219962E+05 -6.237744E+04 -1.397012E+04 -3.171442E+04
       217  27  1.223743E+06  9.720741E+04  9.334399E+04 -7.549055E+04 -1.453777E+03 -2.575075E+04
       218   1  4.768158E+05 -8.103060E+04 -5.732546E+04 -7.729968E+04  1.573541E+04  2.192044E+04
       218   2  5.733692E+05 -5.807397E+04 -4.245788E+04 -6.244559E+04  1.315265E+04  1.550840E+04
       218   3  6.703439E+05 -3.488685E+04 -2.584780E+04 -7.707325E+04  1.056806E+04  9.023304E+03
       218   4  8.156344E+05  5.154599E+01  9.507764E+03 -7.688619E+04  7.776660E+03  2.191933E+04
       218   5  8.154279E+05 -1.262456E+02  5.408701E+03 -6.214571E+04  5.100774E+03  1.550815E+04
       218   6  8.156506E+05 -5.685063E+01  3.116160E+03 -7.688632E+04  2.423448E+03  9.023948E+03
       218   7  1.154563E+06  8.112677E+04  7.633561E+04 -7.647246E+04 -1.863380E+02  2.191821E+04
       218   8  1.057543E+06  5.781796E+04  5.327264E+04 -6.184571E+04 -2.954172E+03  1.550789E+04
       218   9  9.609776E+05  3.477190E+04  3.207931E+04 -7.669934E+04 -5.723030E+03  9.024587E+03
       218  10  4.768154E+05 -8.103118E+04 -5.732683E+04 -7.729996E+04  9.665139E-12 -4.359875E-10
       218  11  5.733690E+05 -5.807428E+04 -4.245866E+04 -6.244575E+04 -3.809761E-10 -4.580354E-11
       218  12  6.703437E+05 -3.488697E+04 -2.584817E+04 -7.707333E+04 -1.196897E-09 -1.590995E-13
       218  13  8.156342E+05  5.101362E+01  9.506747E+03 -7.688633E+04 -8.075873E-10 -4.613236E-10
       218  14  8.154278E+05 -1.265109E+02  5.408200E+03 -6.214577E+04 -1.077323E-09  2.197122E-11
       218  15  8.156506E+05 -5.693969E+01  3.115996E+03 -7.688634E+04 -1.252367E-09  4.240218E-10
       218  16  1.154563E+06  8.112626E+04  7.633471E+04 -7.647246E+04  1.568407E-11 -4.480337E-10
       218  17  1.057543E+06  5.781770E+04  5.327217E+04 -6.184568E+04 -5.676623E-10 -2.772709E-10
       218  18  9.609775E+05  3.477180E+04  3.207910E+04 -7.669930E+04  3.317785E-10  6.111795E-10
       218  19  4.768158E+05 -8.103060E+04 -5.732546E+04 -7.729968E+04 -1.573541E+04 -2.192044E+04
       218  20  5.733692E+05 -5.807397E+04 -4.245788E+04 -6.244559E+04 -1.315265E+04 -1.550840E+04
       218  21  6.703439E+05 -3.488685E+04 -2.584780E+04 -7.707325E+04 -1.056806E+04 -9.023304E+03
       218  22  8.156344E+05  5.154599E+01  9.507764E+03 -7.688619E+04 -7.776660E+03 -2.191933E+04
       218  23  8.154279E+05 -1.262456E+02  5.408701E+03 -6.214571E+04 -5.100774E+03 -1.550815E+04
       218  24  8.156506E+05 -5.685063E+01  3.116160E+03 -7.688632E+04 -2.423448E+03 -9.023948E+03
       218  25  1.154563E+06  8.112677E+04  7.633561E+04 -7.647246E+04  1.863380E+02 -2.191821E+04
       218  26  1.057543E+06  5.781796E+04  5.327264E+04 -6.184571E+04  2.954172E+03 -1.550789E+04
       218  27  9.609776E+05  3.477190E+04  3.207931E+04 -7.669934E+04  5.723030E+03 -9.024587E+03
       219   1  7.387281E+05 -1.838290E+04 -1.257760E+04 -7.701645E+04  1.005205E+04  5.229678E+03
       219   2  8.353766E+05  4.718448E+03  5.288453E+03 -6.223965E+04  9.381548E+03 -1.277653E+03
       219   3  9.321288E+05  2.783065E+04  2.359357E+04 -7.692552E+04  8.711062E+03 -7.789533E+03
       219   4  8.155793E+05 -3.691618E+01  2.368182E+03 -7.688224E+04  1.926126E+03  5.230563E+03
       219   5  8.155318E+05 -3.068021E+01  1.369079E+03 -6.215089E+04  1.249206E+03 -1.276854E+03
       219   6  8.155785E+05 -1.244462E+01  8.129756E+02 -7.688227E+04  5.724018E+02 -7.788792E+03
       219   7  8.924364E+05  1.830875E+04  1.731393E+04 -7.674802E+04 -6.200780E+03  5.231446E+03
       219   8  7.956875E+05 -4.779797E+03 -2.550065E+03 -6.206213E+04 -6.882882E+03 -1.276057E+03
       219   9  6.990413E+05 -2.785632E+04 -2.196802E+04 -7.683904E+04 -7.564766E+03 -7.788053E+03
       219  10  7.387280E+05 -1.838296E+04 -1.257784E+04 -7.701649E+04  8.911198E-10  2.132055E-10
       219  11  8.353765E+05  4.718423E+03  5.288284E+03 -6.223964E+04  7.444941E-10  8.840961E-10
       219  12  9.321287E+05  2.783056E+04  2.359332E+04 -7.692546E+04 -1.291482E-09  7.247807E-10
       219  13  8.155793E+05 -3.694657E+01  2.368123E+03 -7.688225E+04 -1.068935E-09  3.553098E-10
       219  14  8.155318E+05 -3.068238E+01  1.369073E+03 -6.215089E+04 -1.224628E-09  1.817633E-10
       219  15  8.155784E+05 -1.250988E+01  8.128610E+02 -7.688227E+04  1.892015E-10  2.272302E-10
       219  16  8.924364E+05  1.830871E+04  1.731381E+04 -7.674799E+04 -1.290311E-09  3.386777E-10
       219  17  7.956875E+05 -4.779812E+03 -2.550157E+03 -6.206214E+04  3.014348E-10 -3.879608E-10
       219  18  6.990412E+05 -2.785640E+04 -2.196825E+04 -7.683908E+04  9.393248E-10 -1.318761E-10
       219  19  7.387281E+05 -1.838290E+04 -1.257760E+04 -7.701645E+04 -1.005205E+04 -5.229678E+03
       219  20  8.353766E+05  4.718448E+03  5.288453E+03 -6.223965E+04 -9.381548E+03  1.277653E+03
       219  21  9.321288E+05  2.783065E+04  2.359357E+04 -7.692552E+04 -8.711062E+03  7.789533E+03
       219  22  8.155793E+05 -3.691618E+01  2.368182E+03 -7.688224E+04 -1.926126E+03 -5.230563E+03
       219  23  8.155318E+05 -3.068021E+01  1.369079E+03 -6.215089E+04 -1.249206E+03  1.276854E+03
       219  24  8.155785E+05 -1.244462E+01  8.129756E+02 -7.688227E+04 -5.724018E+02  7.788792E+03
       219  25  8.924364E+05  1.830875E+04  1.731393E+04 -7.674802E+04  6.200780E+03 -5.231446E+03
       219  26  7.956875E+05 -4.779797E+03 -2.550065E+03 -6.206213E+04  6.882882E+03  1.276057E+03
       219  27  6.990413E+05 -2.785632E+04 -2.196802E+04 -7.683904E+04  7.564766E+03  7.788053E+03
       220   1  1.000593E+06  4.431174E+04  3.743875E+04 -7.692985E+04  8.582080E+03 -1.158137E+04
       220   2  1.097387E+06  6.741281E+04  5.610445E+04 -6.214702E+04  8.373497E+03 -1.809655E+04
       220   3  1.194241E+06  9.051067E+04  7.490984E+04 -7.685906E+04  8.166644E+03 -2.461069E+04
       220   4  8.155647E+05 -1.590389E+01  6.384270E+02 -7.688959E+04  4.398754E+02 -1.158097E+04
       220   5  8.155304E+05 -3.388544E+01  4.203648E+02 -6.214176E+04  2.320519E+02 -1.809718E+04
       220   6  8.155475E+05 -5.476565E+01  3.415025E+02 -7.688960E+04  2.598909E+01 -2.461234E+04
       220   7  6.305689E+05 -4.434560E+04 -3.616336E+04 -7.684935E+04 -7.699955E+03 -1.158056E+04
       220   8  5.337499E+05 -6.748537E+04 -5.526737E+04 -6.213649E+04 -7.905780E+03 -1.809782E+04
       220   9  4.369910E+05 -9.062884E+04 -7.423358E+04 -7.692011E+04 -8.109813E+03 -2.461399E+04
       220  10  1.000593E+06  4.431158E+04  3.743836E+04 -7.692977E+04 -5.541933E-10  2.366361E-10
       220  11  1.097387E+06  6.741244E+04  5.610370E+04 -6.214690E+04  1.545713E-09 -6.006650E-10
       220  12  1.194241E+06  9.051001E+04  7.490858E+04 -7.685890E+04 -4.212072E-10 -8.779935E-10
       220  13  8.155647E+05 -1.604801E+01  6.381745E+02 -7.688959E+04  2.718653E-09  3.405535E-10
       220  14  8.155304E+05 -3.423728E+01  4.197491E+02 -6.214175E+04  1.127964E-09 -7.012693E-11
       220  15  8.155474E+05 -5.541639E+01  3.403637E+02 -7.688960E+04 -1.549599E-09 -6.360569E-10
       220  16  6.305688E+05 -4.434576E+04 -3.616372E+04 -7.684942E+04  6.835894E-10  3.459423E-10
       220  17  5.337497E+05 -6.748574E+04 -5.526811E+04 -6.213661E+04 -1.552460E-09  4.750180E-10
       220  18  4.369908E+05 -9.062951E+04 -7.423484E+04 -7.692027E+04 -1.040683E-09 -4.293828E-10
       220  19  1.000593E+06  4.431174E+04  3.743875E+04 -7.692985E+04 -8.582080E+03  1.158137E+04
       220  20  1.097387E+06  6.741281E+04  5.610445E+04 -6.214702E+04 -8.373497E+03  1.809655E+04
       220  21  1.194241E+06  9.051067E+04  7.490984E+04 -7.685906E+04 -8.166644E+03  2.461069E+04
       220  22  8.155647E+05 -1.590389E+01  6.384270E+02 -7.688959E+04 -4.398754E+02  1.158097E+04
       220  23  8.155304E+05 -3.388544E+01  4.203648E+02 -6.214176E+04 -2.320519E+02  1.809718E+04
       220  24  8.155475E+05 -5.476565E+01  3.415025E+02 -7.688960E+04 -2.598909E+01  2.461234E+04
       220  25  6.305689E+05 -4.434560E+04 -3.616336E+04 -7.684935E+04  7.699955E+03  1.158056E+04
       220  26  5.337499E+05 -6.748537E+04 -5.526737E+04 -6.213649E+04  7.905780E+03  1.809782E+04
       220  27  4.369910E+05 -9.062884E+04 -7.423358E+04 -7.692011E+04  8.109813E+03  2.461399E+04
       221   1  1.262884E+06  1.070170E+05  8.895934E+04 -7.685394E+04  8.136260E+03 -2.841229E+04
       221   2  1.359947E+06  1.301683E+05  1.080038E+05 -6.197337E+04  7.815282E+03 -3.490251E+04
       221   3  1.457150E+06  1.533424E+05  1.272818E+05 -7.667384E+04  7.497604E+03 -4.129877E+04
       221   4  8.155496E+05 -6.651176E+01  3.442309E+02 -7.690892E+04 -3.559125E+01 -2.841486E+04
       221   5  8.154764E+05 -1.075752E+02  4.157035E+02 -6.211760E+04 -2.394762E+02 -3.490705E+04
       221   6  8.155161E+05 -1.453062E+02  6.401011E+02 -7.690890E+04 -4.400141E+02 -4.130522E+04
       221   7  3.684061E+05 -1.071622E+05 -8.828051E+04 -7.696384E+04 -8.201686E+03 -2.841743E+04
       221   8  2.712890E+05 -1.304014E+05 -1.071867E+05 -6.226172E+04 -8.287331E+03 -3.491159E+04
       221   9  1.742749E+05 -1.536579E+05 -1.260215E+05 -7.714373E+04 -8.369616E+03 -4.131167E+04
       221  10  1.262884E+06  1.070162E+05  8.895770E+04 -7.685376E+04 -1.304905E-09 -9.287449E-11
       221  11  1.359947E+06  1.301670E+05  1.080014E+05 -6.197315E+04 -3.707886E-10 -1.482855E-10
       221  12  1.457150E+06  1.533405E+05  1.272785E+05 -7.667359E+04  1.936102E-09 -4.747867E-10
       221  13  8.155493E+05 -6.737910E+01  3.427131E+02 -7.690892E+04 -5.217086E-10 -3.900718E-10
       221  14  8.154761E+05 -1.088841E+02  4.134127E+02 -6.211761E+04 -1.371951E-09 -1.502211E-10
       221  15  8.155156E+05 -1.471390E+02  6.368933E+02 -7.690891E+04 -4.329980E-10 -2.632214E-10
       221  16  3.684058E+05 -1.071631E+05 -8.828216E+04 -7.696403E+04  5.102386E-10 -8.931162E-10
       221  17  2.712886E+05 -1.304027E+05 -1.071891E+05 -6.226195E+04 -1.196137E-09 -5.198636E-10
       221  18  1.742744E+05 -1.536597E+05 -1.260249E+05 -7.714401E+04 -2.220140E-09  6.540233E-10
       221  19  1.262884E+06  1.070170E+05  8.895934E+04 -7.685394E+04 -8.136260E+03  2.841229E+04
       221  20  1.359947E+06  1.301683E+05  1.080038E+05 -6.197337E+04 -7.815282E+03  3.490251E+04
       221  21  1.457150E+06  1.533424E+05  1.272818E+05 -7.667384E+04 -7.497604E+03  4.129877E+04
       221  22  8.155496E+05 -6.651176E+01  3.442309E+02 -7.690892E+04  3.559125E+01  2.841486E+04
       221  23  8.154764E+05 -1.075752E+02  4.157035E+02 -6.211760E+04  2.394762E+02  3.490705E+04
       221  24  8.155161E+05 -1.453062E+02  6.401011E+02 -7.690890E+04  4.400141E+02  4.130522E+04
       221  25  3.684061E+05 -1.071622E+05 -8.828051E+04 -7.696384E+04  8.201686E+03  2.841743E+04
       221  26  2.712890E+05 -1.304014E+05 -1.071867E+05 -6.226172E+04  8.287331E+03  3.491159E+04
       221  27  1.742749E+05 -1.536579E+05 -1.260215E+05 -7.714373E+04  8.369616E+03  4.131167E+04
       222   1  1.526177E+06  1.698886E+05  1.415410E+05 -7.655592E+04  7.781988E+03 -4.515922E+04
       222   2  1.623450E+06  1.932537E+05  1.616965E+05 -6.167266E+04  4.914865E+03 -5.096074E+04
       222   3  1.721467E+06  2.173229E+05  1.839348E+05 -7.641074E+04  2.050135E+03 -5.500979E+04
       222   4  8.155504E+05 -1.898503E+02  8.184734E+02 -7.691796E+04 -5.662213E+02 -4.516735E+04
       222   5  8.153486E+05 -2.063740E+02  1.363355E+03 -6.210622E+04 -1.241205E+03 -5.097028E+04
       222   6  8.155002E+05  1.018948E+02  2.471737E+03 -7.691818E+04 -1.913325E+03 -5.501963E+04
       222   7  1.054059E+05 -1.702990E+05 -1.399288E+05 -7.727961E+04 -8.905092E+03 -4.517547E+04
       222   8  7.869828E+03 -1.937062E+05 -1.590021E+05 -6.253928E+04 -7.389443E+03 -5.097982E+04
       222   9 -8.968522E+04 -2.171695E+05 -1.790329E+05 -7.742499E+04 -5.871128E+03 -5.502947E+04
       222  10  1.526176E+06  1.698864E+05  1.415371E+05 -7.655564E+04 -1.100857E-09 -8.667877E-10
       222  11  1.623450E+06  1.932509E+05  1.616916E+05 -6.167246E+04  1.118048E-09 -7.240104E-10
       222  12  1.721466E+06  2.173197E+05  1.839291E+05 -7.641065E+04  3.838572E-10 -1.653546E-09
       222  13  8.155499E+05 -1.920419E+02  8.146376E+02 -7.691798E+04 -1.683207E-09 -2.728397E-10
       222  14  8.153479E+05 -2.091652E+02  1.358468E+03 -6.210627E+04 -1.607295E-09 -3.019549E-10
       222  15  8.154994E+05  9.864197E+01  2.466039E+03 -7.691827E+04 -1.400307E-09 -8.882950E-10
       222  16  1.054053E+05 -1.703012E+05 -1.399327E+05 -7.727993E+04 -7.016605E-10  6.212367E-10
       222  17  7.869071E+03 -1.937090E+05 -1.590070E+05 -6.253958E+04 -6.128484E-10  1.992379E-09
       222  18 -8.968607E+04 -2.171728E+05 -1.790386E+05 -7.742525E+04 -9.887469E-10  6.730909E-10
       222  19  1.526177E+06  1.698886E+05  1.415410E+05 -7.655592E+04 -7.781988E+03  4.515922E+04
       222  20  1.623450E+06  1.932537E+05  1.616965E+05 -6.167266E+04 -4.914865E+03  5.096074E+04
       222  21  1.721467E+06  2.173229E+05  1.839348E+05 -7.641074E+04 -2.050135E+03  5.500979E+04
       222  22  8.155504E+05 -1.898503E+02  8.184734E+02 -7.691796E+04  5.662213E+02  4.516735E+04
       222  23  8.153486E+05 -2.063740E+02  1.363355E+03 -6.210622E+04  1.241205E+03  5.097028E+04
       222  24  8.155002E+05  1.018948E+02  2.471737E+03 -7.691818E+04  1.913325E+03  5.501963E+04
       222  25  1.054059E+05 -1.702990E+05 -1.399288E+05 -7.727961E+04  8.905092E+03  4.517547E+04
       222  26  7.869828E+03 -1.937062E+05 -1.590021E+05 -6.253928E+04  7.389443E+03  5.097982E+04
       222  27 -8.968522E+04 -2.171695E+05 -1.790329E+05 -7.742499E+04  5.871128E+03  5.502947E+04
       223   1  1.792386E+06  2.334809E+05  1.984369E+05 -7.462095E+04  8.463068E+03 -5.964705E+04
       223   2  1.886342E+06  2.595818E+05  2.298895E+05 -6.376128E+04 -3.229800E+04 -5.319939E+04
       223   3  1.989552E+06  3.002508E+05  2.915324E+05 -8.108994E+04 -7.311951E+04 -1.649821E+04
       223   4  8.159944E+05 -5.590616E+02  3.176391E+03 -7.659633E+04 -2.337987E+03 -5.966540E+04
       223   5  8.146123E+05  7.114768E+02  5.566213E+03 -6.250859E+04 -5.241156E+03 -5.317193E+04
       223   6  8.159256E+05  1.000141E+04  1.191071E+04 -7.660986E+04 -8.197290E+03 -1.640171E+04
       223   7 -1.594892E+05 -2.346574E+05 -1.921318E+05 -7.856871E+04 -1.312243E+04 -5.968370E+04
       223   8 -2.560327E+05 -2.582319E+05 -2.188181E+05 -6.125837E+04  2.176986E+04 -5.314434E+04
       223   9 -3.564315E+05 -2.803449E+05 -2.677918E+05 -7.213867E+04  5.660309E+04 -1.630419E+04
       223  10  1.792385E+06  2.334770E+05  1.984301E+05 -7.462055E+04  1.311567E-09 -2.400022E-09
       223  11  1.886340E+06  2.595785E+05  2.298822E+05 -6.376267E+04 -3.221667E-10 -3.651222E-09
       223  12  1.989546E+06  3.002490E+05  2.915219E+05 -8.109091E+04 -1.658900E-09 -9.740107E-10
       223  13  8.159934E+05 -5.628873E+02  3.169688E+03 -7.659644E+04 -1.423403E-09 -5.345732E-09
       223  14  8.146115E+05  7.084323E+02  5.560846E+03 -6.250881E+04  8.811418E-10  2.173164E-09
       223  15  8.159254E+05  1.000110E+04  1.191008E+04 -7.660997E+04 -6.495962E-10  5.999088E-11
       223  16 -1.594903E+05 -2.346613E+05 -1.921388E+05 -7.856934E+04 -2.137704E-09 -8.954186E-10
       223  17 -2.560339E+05 -2.582350E+05 -2.188243E+05 -6.125744E+04 -4.005352E-10  1.084313E-09
       223  18 -3.564350E+05 -2.803460E+05 -2.677983E+05 -7.213793E+04  2.293672E-09 -1.804229E-09
       223  19  1.792386E+06  2.334809E+05  1.984369E+05 -7.462095E+04 -8.463068E+03  5.964705E+04
       223  20  1.886342E+06  2.595818E+05  2.298895E+05 -6.376128E+04  3.229800E+04  5.319939E+04
       223  21  1.989552E+06  3.002508E+05  2.915324E+05 -8.108994E+04  7.311951E+04  1.649821E+04
       223  22  8.159944E+05 -5.590616E+02  3.176391E+03 -7.659633E+04  2.337987E+03  5.966540E+04
       223  23  8.146123E+05  7.114768E+02  5.566213E+03 -6.250859E+04  5.241156E+03  5.317193E+04
       223  24  8.159256E+05  1.000141E+04  1.191071E+04 -7.660986E+04  8.197290E+03  1.640171E+04
       223  25 -1.594892E+05 -2.346574E+05 -1.921318E+05 -7.856871E+04  1.312243E+04  5.968370E+04
       223  26 -2.560327E+05 -2.582319E+05 -2.188181E+05 -6.125837E+04 -2.176986E+04  5.314434E+04
       223  27 -3.564315E+05 -2.803449E+05 -2.677918E+05 -7.213867E+04 -5.660309E+04  1.630419E+04
       224   1  5.439891E+05  2.128569E+06  5.303486E+05 -4.115694E+05  2.462854E+04  1.115444E+05
       224   2  3.905531E+05  1.618372E+06  3.526220E+05 -3.295624E+05  7.318410E+04  3.359787E+04
       224   3  2.665478E+05  1.125839E+06  2.328828E+05 -3.967611E+05  6.464349E+04 -4.435539E+04
       224   4  2.175953E+04  2.098295E+04  2.428441E+04 -3.970470E+05  2.480604E+04  1.523547E+04
       224   5  2.902402E+03  1.868927E+04  1.261127E+04 -3.224561E+05  7.325056E+04  8.777710E+03
       224   6  1.144590E+03  2.148334E+04  9.415358E+03 -3.970870E+05  6.453411E+04  2.249403E+03
       224   7 -5.007872E+05 -2.082525E+06 -4.820605E+05 -3.825711E+05  2.497945E+04 -8.074868E+04
       224   8 -3.849140E+05 -1.578585E+06 -3.275438E+05 -3.153664E+05  7.331658E+04 -1.597960E+04
       224   9 -2.643331E+05 -1.081708E+06 -2.141071E+05 -3.974113E+05  6.442456E+04  4.877298E+04
       224  10  5.439851E+05  2.128555E+06  5.303242E+05 -4.115716E+05 -6.991634E-10 -6.952526E-10
       224  11  3.905471E+05  1.618369E+06  3.526098E+05 -3.295644E+05 -1.895887E-09  1.086589E-09
       224  12  2.665428E+05  1.125836E+06  2.328713E+05 -3.967588E+05 -2.906405E-10  7.761133E-10
       224  13  2.175881E+04  2.098253E+04  2.428282E+04 -3.970473E+05  1.139278E-09 -1.235322E-09
       224  14  2.896619E+03  1.868775E+04  1.260104E+04 -3.224566E+05 -2.230233E-09 -9.382443E-10
       224  15  1.140116E+03  2.148222E+04  9.407522E+03 -3.970871E+05  9.458915E-11 -8.078245E-10
       224  16 -5.007896E+05 -2.082532E+06 -4.820739E+05 -3.825694E+05 -1.236628E-09  1.234403E-09
       224  17 -3.849198E+05 -1.578586E+06 -3.275543E+05 -3.153655E+05 -8.674214E-11 -1.327675E-09
       224  18 -2.643382E+05 -1.081712E+06 -2.141194E+05 -3.974138E+05 -1.074572E-09 -1.075791E-09
       224  19  5.439891E+05  2.128569E+06  5.303486E+05 -4.115694E+05 -2.462854E+04 -1.115444E+05
       224  20  3.905531E+05  1.618372E+06  3.526220E+05 -3.295624E+05 -7.318410E+04 -3.359787E+04
       224  21  2.665478E+05  1.125839E+06  2.328828E+05 -3.967611E+05 -6.464349E+04  4.435539E+04
       224  22  2.175953E+04  2.098295E+04  2.428441E+04 -3.970470E+05 -2.480604E+04 -1.523547E+04
       224  23  2.902402E+03  1.868927E+04  1.261127E+04 -3.224561E+05 -7.325056E+04 -8.777710E+03
       224  24  1.144590E+03  2.148334E+04  9.415358E+03 -3.970870E+05 -6.453411E+04 -2.249403E+03
       224  25 -5.007872E+05 -2.082525E+06 -4.820605E+05 -3.825711E+05 -2.497945E+04  8.074868E+04
       224  26 -3.849140E+05 -1.578585E+06 -3.275438E+05 -3.153664E+05 -7.331658E+04  1.597960E+04
       224  27 -2.643331E+05 -1.081708E+06 -2.141071E+05 -3.974113E+05 -6.442456E+04 -4.877298E+04
       225   1  1.822103E+05  7.682205E+05  1.606652E+05 -3.998150E+05  4.339019E+04 -3.359032E+04
       225   2  6.083228E+04  2.671643E+05  5.913170E+04 -3.220214E+05  1.559590E+04 -3.954157E+04
       225   3 -5.721573E+04 -2.327784E+05 -3.790418E+04 -3.964223E+05 -1.291927E+04 -4.549675E+04
       225   4  2.433832E+03  2.064704E+04  9.039696E+03 -3.977409E+05  4.330245E+04  6.906935E+02
       225   5  1.649987E+03  2.032723E+04  1.001641E+04 -3.216404E+05  1.550221E+04 -4.370619E+03
       225   6  4.055228E+03  2.072518E+04  1.487704E+04 -3.977368E+05 -1.301976E+04 -9.440439E+03
       225   7 -1.773767E+05 -7.263923E+05 -1.426105E+05 -3.956690E+05  4.321487E+04  3.493125E+04
       225   8 -5.753537E+04 -2.264489E+05 -3.909727E+04 -3.212595E+05  1.540855E+04  3.078664E+04
       225   9  6.532279E+04  2.742924E+05  6.765961E+04 -3.990518E+05 -1.312037E+04  2.663035E+04
       225  10  1.822079E+05  7.682187E+05  1.606596E+05 -3.998138E+05  2.611020E-10 -4.974775E-10
       225  11  6.083160E+04  2.671625E+05  5.912831E+04 -3.220209E+05  1.834608E-10  7.059673E-10
       225  12 -5.721647E+04 -2.327807E+05 -3.790838E+04 -3.964228E+05  9.878680E-10 -1.606741E-10
       225  13  2.431818E+03  2.064654E+04  9.036171E+03 -3.977410E+05 -8.730434E-10 -2.182778E-09
       225  14  1.649724E+03  2.032715E+04  1.001592E+04 -3.216404E+05 -2.046088E-09 -1.131566E-09
       225  15  4.055022E+03  2.072504E+04  1.487655E+04 -3.977369E+05  1.142523E-11 -7.980089E-10
       225  16 -1.773791E+05 -7.263941E+05 -1.426163E+05 -3.956702E+05 -6.725257E-10  1.543387E-09
       225  17 -5.753588E+04 -2.264500E+05 -3.909950E+04 -3.212599E+05 -1.364212E-09 -1.930974E-09
       225  18  6.532242E+04  2.742916E+05  6.765796E+04 -3.990516E+05  1.107909E-12 -1.746705E-10
       225  19  1.822103E+05  7.682205E+05  1.606652E+05 -3.998150E+05 -4.339019E+04  3.359032E+04
       225  20  6.083228E+04  2.671643E+05  5.913170E+04 -3.220214E+05 -1.559590E+04  3.954157E+04
       225  21 -5.721573E+04 -2.327784E+05 -3.790418E+04 -3.964223E+05  1.291927E+04  4.549675E+04
       225  22  2.433832E+03  2.064704E+04  9.039696E+03 -3.977409E+05 -4.330245E+04 -6.906935E+02
       225  23  1.649987E+03  2.032723E+04  1.001641E+04 -3.216404E+05 -1.550221E+04  4.370619E+03
       225  24  4.055228E+03  2.072518E+04  1.487704E+04 -3.977368E+05  1.301976E+04  9.440439E+03
       225  25 -1.773767E+05 -7.263923E+05 -1.426105E+05 -3.956690E+05 -4.321487E+04 -3.493125E+04
       225  26 -5.753537E+04 -2.264489E+05 -3.909727E+04 -3.212595E+05 -1.540855E+04 -3.078664E+04
       225  27  6.532279E+04  2.742924E+05  6.765961E+04 -3.990518E+05  1.312037E+04 -2.663035E+04
       226   1 -1.462204E+05 -5.861062E+05 -1.064811E+05 -4.024405E+05 -3.381241E+04 -5.744442E+04
       226   2 -2.616347E+05 -1.088086E+06 -2.065600E+05 -3.079307E+05 -4.796554E+04 -1.777969E+04
       226   3 -3.428692E+05 -1.586837E+06 -3.240630E+05 -3.633522E+05 -1.737584E+04  2.192767E+04
       226   4  6.288759E+02  2.331492E+04  1.831272E+04 -3.972512E+05 -3.393464E+04 -1.205835E+04
       226   5  7.044511E+03  1.681472E+04  3.084732E+04 -3.222391E+05 -4.793375E+04 -2.818019E+04
       226   6  5.730520E+04  2.296818E+04  6.470768E+04 -3.971264E+05 -1.722862E+04 -4.422727E+04
       226   7  1.474560E+05  6.330936E+05  1.430946E+05 -3.920564E+05 -3.405603E+04  3.337151E+04
       226   8  2.756443E+05  1.122866E+06  2.681837E+05 -3.365725E+05 -4.790153E+04 -3.859893E+04
       226   9  4.572964E+05  1.635159E+06  4.533096E+05 -4.309868E+05 -1.707443E+04 -1.105534E+05
       226  10 -1.462225E+05 -5.861101E+05 -1.064894E+05 -4.024421E+05  1.871612E-09  9.187566E-10
       226  11 -2.616373E+05 -1.088087E+06 -2.065649E+05 -3.079313E+05  1.302163E-09  1.124612E-09
       226  12 -3.428697E+05 -1.586838E+06 -3.240644E+05 -3.633519E+05  3.436827E-10 -7.638221E-10
       226  13  6.275999E+02  2.331445E+04  1.831028E+04 -3.972516E+05  2.003746E-09 -2.191309E-09
       226  14  7.041830E+03  1.681325E+04  3.084151E+04 -3.222402E+05 -7.822894E-10 -9.695876E-10
       226  15  5.730436E+04  2.296600E+04  6.470345E+04 -3.971271E+05  2.533347E-10 -6.058776E-10
       226  16  1.474545E+05  6.330921E+05  1.430903E+05 -3.920555E+05  1.663523E-11  3.621075E-10
       226  17  2.756415E+05  1.122863E+06  2.681766E+05 -3.365740E+05  2.923776E-09 -2.071311E-09
       226  18  4.572928E+05  1.635146E+06  4.532862E+05 -4.309883E+05  7.039807E-10  4.036313E-10
       226  19 -1.462204E+05 -5.861062E+05 -1.064811E+05 -4.024405E+05  3.381241E+04  5.744442E+04
       226  20 -2.616347E+05 -1.088086E+06 -2.065600E+05 -3.079307E+05  4.796554E+04  1.777969E+04
       226  21 -3.428692E+05 -1.586837E+06 -3.240630E+05 -3.633522E+05  1.737584E+04 -2.192767E+04
       226  22  6.288759E+02  2.331492E+04  1.831272E+04 -3.972512E+05  3.393464E+04  1.205835E+04
       226  23  7.044511E+03  1.681472E+04  3.084732E+04 -3.222391E+05  4.793375E+04  2.818019E+04
       226  24  5.730520E+04  2.296818E+04  6.470768E+04 -3.971264E+05  1.722862E+04  4.422727E+04
       226  25  1.474560E+05  6.330936E+05  1.430946E+05 -3.920564E+05  3.405603E+04 -3.337151E+04
       226  26  2.756443E+05  1.122866E+06  2.681837E+05 -3.365725E+05  4.790153E+04  3.859893E+04
       226  27  4.572964E+05  1.635159E+06  4.533096E+05 -4.309868E+05  1.707443E+04  1.105534E+05
       227   1 -1.432367E+06 -6.061658E+05 -3.550697E+05 -5.660476E+05 -1.584681E+05 -4.922781E+04
       227   2 -1.359840E+06 -3.930589E+05 -2.107425E+05 -5.373426E+05 -9.978879E+04 -4.986129E+03
       227   3 -1.325094E+06 -3.234808E+05 -1.498133E+05 -4.983183E+05 -3.431282E+04  2.121934E+04
       227   4 -8.646241E+05 -3.123688E+05 -1.900832E+05 -3.285567E+05 -1.253356E+05 -3.679829E+04
       227   5 -8.373170E+05 -1.685399E+05 -8.488540E+04 -3.615610E+05 -8.766455E+04 -4.383560E+02
       227   6 -8.435792E+05 -1.640173E+05 -4.636824E+04 -3.842640E+05 -4.320699E+04  1.787755E+04
       227   7 -2.965536E+05 -1.845746E+04 -2.512354E+04 -9.084208E+04 -9.217022E+04 -2.434561E+04
       227   8 -3.145179E+05  5.602686E+04  4.095227E+04 -1.856348E+05 -7.552927E+04  4.115101E+03
       227   9 -3.618279E+05 -4.545681E+03  5.706443E+04 -2.701328E+05 -5.210868E+04  1.453359E+04
       227  10 -1.432394E+06 -6.061752E+05 -3.551216E+05 -5.660539E+05 -2.551695E-10  7.229597E-11
       227  11 -1.359851E+06 -3.930616E+05 -2.107613E+05 -5.373430E+05  1.860787E-09 -4.852209E-10
       227  12 -1.325095E+06 -3.234816E+05 -1.498163E+05 -4.983177E+05  1.111175E-09 -3.375089E-10
       227  13 -8.646414E+05 -3.123745E+05 -1.901153E+05 -3.285604E+05 -2.881123E-10  1.155197E-10
       227  14 -8.373253E+05 -1.685419E+05 -8.489986E+04 -3.615610E+05  9.213502E-10  6.744062E-10
       227  15 -8.435813E+05 -1.640182E+05 -4.637235E+04 -3.842634E+05  1.071139E-09 -1.097051E-09
       227  16 -2.965629E+05 -1.846038E+04 -2.514063E+04 -9.084389E+04  7.544810E-10 -4.695882E-10
       227  17 -3.145240E+05  5.602531E+04  4.094151E+04 -1.856345E+05 -1.422092E-09 -7.071355E-10
       227  18 -3.618308E+05 -4.546636E+03  5.705893E+04 -2.701322E+05 -1.423503E-09 -3.378111E-10
       227  19 -1.432367E+06 -6.061658E+05 -3.550697E+05 -5.660476E+05  1.584681E+05  4.922781E+04
       227  20 -1.359840E+06 -3.930589E+05 -2.107425E+05 -5.373426E+05  9.978879E+04  4.986129E+03
       227  21 -1.325094E+06 -3.234808E+05 -1.498133E+05 -4.983183E+05  3.431282E+04 -2.121934E+04
       227  22 -8.646241E+05 -3.123688E+05 -1.900832E+05 -3.285567E+05  1.253356E+05  3.679829E+04
       227  23 -8.373170E+05 -1.685399E+05 -8.488540E+04 -3.615610E+05  8.766455E+04  4.383560E+02
       227  24 -8.435792E+05 -1.640173E+05 -4.636824E+04 -3.842640E+05  4.320699E+04 -1.787755E+04
       227  25 -2.965536E+05 -1.845746E+04 -2.512354E+04 -9.084208E+04  9.217022E+04  2.434561E+04
       227  26 -3.145179E+05  5.602686E+04  4.095227E+04 -1.856348E+05  7.552927E+04 -4.115101E+03
       227  27 -3.618279E+05 -4.545681E+03  5.706443E+04 -2.701328E+05  5.210868E+04 -1.453359E+04
       228   1 -1.246691E+06 -3.262541E+05 -1.269553E+05 -4.928797E+05 -3.177797E+04  1.757666E+04
       228   2 -1.176139E+06 -2.806563E+05 -9.174130E+04 -4.607888E+05 -1.955036E+04  1.735030E+04
       228   3 -1.090414E+06 -2.594604E+05 -6.597407E+04 -4.490020E+05 -6.964276E+03  1.616825E+04
       228   4 -8.376251E+05 -1.733267E+05 -3.597431E+04 -3.779520E+05 -3.615743E+04  1.593043E+04
       228   5 -8.448747E+05 -1.581601E+05 -1.891790E+04 -3.689488E+05 -2.503875E+04  1.528886E+04
       228   6 -8.367348E+05 -1.671729E+05 -1.042322E+04 -3.802518E+05 -1.356307E+04  1.369129E+04
       228   7 -4.283925E+05 -2.038609E+04  5.499557E+04 -2.629550E+05 -4.053998E+04  1.428301E+04
       228   8 -5.134989E+05 -3.565506E+04  5.389893E+04 -2.770636E+05 -3.053032E+04  1.322622E+04
       228   9 -5.829883E+05 -7.488000E+04  4.512440E+04 -3.114754E+05 -2.016483E+04  1.121324E+04
       228  10 -1.246692E+06 -3.262547E+05 -1.269578E+05 -4.928792E+05 -1.325425E-09 -3.889944E-10
       228  11 -1.176140E+06 -2.806567E+05 -9.174258E+04 -4.607885E+05 -7.113707E-10  8.651910E-10
       228  12 -1.090415E+06 -2.594607E+05 -6.597465E+04 -4.490019E+05  1.137437E-09  4.787516E-10
       228  13 -8.376266E+05 -1.733273E+05 -3.597724E+04 -3.779515E+05 -1.512486E-09 -2.890583E-10
       228  14 -8.448754E+05 -1.581605E+05 -1.891952E+04 -3.689485E+05 -4.772266E-10 -1.440011E-10
       228  15 -8.367351E+05 -1.671731E+05 -1.042392E+04 -3.802516E+05 -5.820714E-10 -2.555852E-11
       228  16 -4.283943E+05 -2.038675E+04  5.499210E+04 -2.629546E+05  4.046438E-10 -5.390958E-11
       228  17 -5.135000E+05 -3.565550E+04  5.389685E+04 -2.770633E+05  8.724471E-11  7.885434E-11
       228  18 -5.829888E+05 -7.488024E+04  4.512340E+04 -3.114752E+05 -1.735640E-09 -1.021556E-10
       228  19 -1.246691E+06 -3.262541E+05 -1.269553E+05 -4.928797E+05  3.177797E+04 -1.757666E+04
       228  20 -1.176139E+06 -2.806563E+05 -9.174130E+04 -4.607888E+05  1.955036E+04 -1.735030E+04
       228  21 -1.090414E+06 -2.594604E+05 -6.597407E+04 -4.490020E+05  6.964276E+03 -1.616825E+04
       228  22 -8.376251E+05 -1.733267E+05 -3.597431E+04 -3.779520E+05  3.615743E+04 -1.593043E+04
       228  23 -8.448747E+05 -1.581601E+05 -1.891790E+04 -3.689488E+05  2.503875E+04 -1.528886E+04
       228  24 -8.367348E+05 -1.671729E+05 -1.042322E+04 -3.802518E+05  1.356307E+04 -1.369129E+04
       228  25 -4.283925E+05 -2.038609E+04  5.499557E+04 -2.629550E+05  4.053998E+04 -1.428301E+04
       228  26 -5.134989E+05 -3.565506E+04  5.389893E+04 -2.770636E+05  3.053032E+04 -1.322622E+04
       228  27 -5.829883E+05 -7.488000E+04  4.512440E+04 -3.114754E+05  2.016483E+04 -1.121324E+04
       229   1 -1.031869E+06 -2.392928E+05 -5.039921E+04 -4.336448E+05 -4.500324E+03  1.336114E+04
       229   2 -9.618891E+05 -2.006487E+05 -2.976614E+04 -4.011612E+05 -2.213027E+02  8.713183E+03
       229   3 -8.735698E+05 -1.810163E+05 -1.085563E+04 -3.901318E+05  4.076887E+03  4.012563E+03
       229   4 -8.362879E+05 -1.675546E+05 -7.871050E+03 -3.799291E+05 -1.086713E+04  1.097175E+04
       229   5 -8.454439E+05 -1.579624E+05 -4.332443E+03 -3.692341E+05 -6.649151E+03  6.301337E+03
       229   6 -8.362547E+05 -1.673697E+05 -2.467282E+03 -3.799953E+05 -2.412322E+03  1.578180E+03
       229   7 -6.406677E+05 -9.581344E+04  3.465500E+04 -3.261979E+05 -1.723611E+04  8.581558E+03
       229   8 -7.289853E+05 -1.152752E+05  2.110050E+04 -3.373016E+05 -1.307828E+04  3.889015E+03
       229   9 -7.989385E+05 -1.537230E+05  5.921088E+03 -3.698582E+05 -8.901910E+03 -8.563419E+02
       229  10 -1.031869E+06 -2.392930E+05 -5.039958E+04 -4.336448E+05  3.596025E-10 -3.549587E-10
       229  11 -9.618891E+05 -2.006488E+05 -2.976628E+04 -4.011612E+05  4.240658E-11  3.570252E-11
       229  12 -8.735698E+05 -1.810163E+05 -1.085569E+04 -3.901318E+05 -1.771085E-10  3.822056E-10
       229  13 -8.362881E+05 -1.675548E+05 -7.871498E+03 -3.799290E+05  9.139833E-10 -1.277081E-10
       229  14 -8.454440E+05 -1.579625E+05 -4.332600E+03 -3.692341E+05  5.034201E-10  7.130886E-11
       229  15 -8.362547E+05 -1.673697E+05 -2.467298E+03 -3.799953E+05 -4.118623E-10  1.166288E-10
       229  16 -6.406681E+05 -9.581360E+04  3.465430E+04 -3.261978E+05  1.723227E-10  1.318527E-10
       229  17 -7.289855E+05 -1.152753E+05  2.110015E+04 -3.373016E+05 -3.183502E-11  2.214295E-10
       229  18 -7.989385E+05 -1.537230E+05  5.920938E+03 -3.698582E+05 -2.146992E-09 -1.200697E-10
       229  19 -1.031869E+06 -2.392928E+05 -5.039921E+04 -4.336448E+05  4.500324E+03 -1.336114E+04
       229  20 -9.618891E+05 -2.006487E+05 -2.976614E+04 -4.011612E+05  2.213027E+02 -8.713183E+03
       229  21 -8.735698E+05 -1.810163E+05 -1.085563E+04 -3.901318E+05 -4.076887E+03 -4.012563E+03
       229  22 -8.362879E+05 -1.675546E+05 -7.871050E+03 -3.799291E+05  1.086713E+04 -1.097175E+04
       229  23 -8.454439E+05 -1.579624E+05 -4.332443E+03 -3.692341E+05  6.649151E+03 -6.301337E+03
       229  24 -8.362547E+05 -1.673697E+05 -2.467282E+03 -3.799953E+05  2.412322E+03 -1.578180E+03
       229  25 -6.406677E+05 -9.581344E+04  3.465500E+04 -3.261979E+05  1.723611E+04 -8.581558E+03
       229  26 -7.289853E+05 -1.152752E+05  2.110050E+04 -3.373016E+05  1.307828E+04 -3.889015E+03
       229  27 -7.989385E+05 -1.537230E+05  5.921088E+03 -3.698582E+05  8.901910E+03  8.563419E+02
       230   1 -8.159788E+05 -1.598111E+05  2.763854E+03 -3.743239E+05  5.641960E+03  9.092511E+02
       230   2 -7.461591E+05 -1.213955E+05  2.046443E+04 -3.417813E+05  8.347135E+03 -4.406240E+03
       230   3 -6.576983E+05 -1.017216E+05  3.769820E+04 -3.306847E+05  1.105294E+04 -9.721373E+03
       230   4 -8.361997E+05 -1.673787E+05 -1.917224E+03 -3.799689E+05 -8.352780E+02 -1.520621E+03
       230   5 -8.455205E+05 -1.580192E+05 -1.251176E+03 -3.692407E+05  1.869650E+03 -6.836623E+03
       230   6 -8.362080E+05 -1.674029E+05 -1.052102E+03 -3.799620E+05  4.575114E+03 -1.215227E+04
       230   7 -8.564203E+05 -1.749463E+05 -6.598188E+03 -3.856138E+05 -7.312332E+03 -3.950421E+03
       230   8 -9.448722E+05 -1.946422E+05 -2.296729E+04 -3.966962E+05 -4.606737E+03 -9.266593E+03
       230   9 -1.014685E+06 -2.330817E+05 -3.980413E+04 -4.292262E+05 -1.900703E+03 -1.458241E+04
       230  10 -8.159788E+05 -1.598112E+05  2.763792E+03 -3.743239E+05  7.316119E-10  2.912621E-10
       230  11 -7.461592E+05 -1.213955E+05  2.046426E+04 -3.417812E+05 -8.014503E-10 -1.691793E-10
       230  12 -6.576985E+05 -1.017217E+05  3.769780E+04 -3.306846E+05  8.606800E-10 -4.516890E-10
       230  13 -8.361997E+05 -1.673787E+05 -1.917230E+03 -3.799689E+05 -9.725583E-10  1.939062E-11
       230  14 -8.455206E+05 -1.580192E+05 -1.251271E+03 -3.692407E+05  3.591841E-10 -1.573155E-10
       230  15 -8.362080E+05 -1.674031E+05 -1.052419E+03 -3.799619E+05 -1.115910E-10 -1.654339E-10
       230  16 -8.564204E+05 -1.749463E+05 -6.598318E+03 -3.856138E+05 -2.055438E-09 -1.708548E-10
       230  17 -9.448722E+05 -1.946423E+05 -2.296749E+04 -3.966962E+05  1.765642E-09 -9.036658E-11
       230  18 -1.014685E+06 -2.330819E+05 -3.980453E+04 -4.292262E+05  1.379909E-09 -1.823930E-10
       230  19 -8.159788E+05 -1.598111E+05  2.763854E+03 -3.743239E+05 -5.641960E+03 -9.092511E+02
       230  20 -7.461591E+05 -1.213955E+05  2.046443E+04 -3.417813E+05 -8.347135E+03  4.406240E+03
       230  21 -6.576983E+05 -1.017216E+05  3.769820E+04 -3.306847E+05 -1.105294E+04  9.721373E+03
       230  22 -8.361997E+05 -1.673787E+05 -1.917224E+03 -3.799689E+05  8.352780E+02  1.520621E+03
       230  23 -8.455205E+05 -1.580192E+05 -1.251176E+03 -3.692407E+05 -1.869650E+03  6.836623E+03
       230  24 -8.362080E+05 -1.674029E+05 -1.052102E+03 -3.799620E+05 -4.575114E+03  1.215227E+04
       230  25 -8.564203E+05 -1.749463E+05 -6.598188E+03 -3.856138E+05  7.312332E+03  3.950421E+03
       230  26 -9.448722E+05 -1.946422E+05 -2.296729E+04 -3.966962E+05  4.606737E+03  9.266593E+03
       230  27 -1.014685E+06 -2.330817E+05 -3.980413E+04 -4.292262E+05  1.900703E+03  1.458241E+04
       231   1 -6.002792E+05 -8.049403E+04  5.071035E+04 -3.148668E+05  1.243868E+04 -1.288453E+04
       231   2 -5.306495E+05 -4.216223E+04  6.730421E+04 -2.823865E+05  1.524320E+04 -1.815037E+04
       231   3 -4.424167E+05 -2.252898E+04  8.335997E+04 -2.712908E+05  1.804535E+04 -2.340383E+04
       231   4 -8.362230E+05 -1.673971E+05 -1.092057E+03 -3.799495E+05  5.965484E+03 -1.531418E+04
       231   5 -8.455303E+05 -1.580630E+05 -1.483898E+03 -3.692528E+05  8.783190E+03 -2.057630E+04
       231   6 -8.362432E+05 -1.674310E+05 -2.424168E+03 -3.799436E+05  1.159842E+04 -2.582608E+04
       231   7 -1.072109E+06 -2.542952E+05 -5.289722E+04 -4.450090E+05 -5.050106E+02 -1.774281E+04
       231   8 -1.160311E+06 -2.739559E+05 -7.027778E+04 -4.560785E+05  2.326720E+03 -2.300090E+04
       231   9 -1.229915E+06 -3.123217E+05 -8.821811E+04 -4.885338E+05  5.155881E+03 -2.824669E+04
       231  10 -6.002794E+05 -8.049425E+04  5.070974E+04 -3.148667E+05 -1.418435E-09 -1.491202E-10
       231  11 -5.306498E+05 -4.216264E+04  6.730315E+04 -2.823863E+05 -9.603252E-10  7.684907E-10
       231  12 -4.424172E+05 -2.252965E+04  8.335833E+04 -2.712905E+05  7.334485E-10  7.407013E-11
       231  13 -8.362231E+05 -1.673974E+05 -1.092564E+03 -3.799494E+05  1.452258E-09 -7.960651E-11
       231  14 -8.455305E+05 -1.580635E+05 -1.484838E+03 -3.692526E+05 -2.751782E-10  1.683028E-10
       231  15 -8.362436E+05 -1.674317E+05 -2.425673E+03 -3.799434E+05  8.453047E-10  1.027773E-10
       231  16 -1.072109E+06 -2.542955E+05 -5.289782E+04 -4.450090E+05  7.346441E-10 -1.452665E-11
       231  17 -1.160311E+06 -2.739565E+05 -7.027879E+04 -4.560785E+05 -1.542113E-09  3.231506E-10
       231  18 -1.229915E+06 -3.123226E+05 -8.821966E+04 -4.885337E+05 -5.039468E-11  7.513432E-10
       231  19 -6.002792E+05 -8.049403E+04  5.071035E+04 -3.148668E+05 -1.243868E+04  1.288453E+04
       231  20 -5.306495E+05 -4.216223E+04  6.730421E+04 -2.823865E+05 -1.524320E+04  1.815037E+04
       231  21 -4.424167E+05 -2.252898E+04  8.335997E+04 -2.712908E+05 -1.804535E+04  2.340383E+04
       231  22 -8.362230E+05 -1.673971E+05 -1.092057E+03 -3.799495E+05 -5.965484E+03  1.531418E+04
       231  23 -8.455303E+05 -1.580630E+05 -1.483898E+03 -3.692528E+05 -8.783190E+03  2.057630E+04
       231  24 -8.362432E+05 -1.674310E+05 -2.424168E+03 -3.799436E+05 -1.159842E+04  2.582608E+04
       231  25 -1.072109E+06 -2.542952E+05 -5.289722E+04 -4.450090E+05  5.050106E+02  1.774281E+04
       231  26 -1.160311E+06 -2.739559E+05 -7.027778E+04 -4.560785E+05 -2.326720E+03  2.300090E+04
       231  27 -1.229915E+06 -3.123217E+05 -8.821811E+04 -4.885338E+05 -5.155881E+03  2.824669E+04
       232   1 -3.852682E+05 -1.387061E+03  9.561971E+04 -2.555739E+05  1.972751E+04 -2.644432E+04
       232   2 -3.158787E+05  3.680307E+04  1.100596E+05 -2.231956E+05  2.449188E+04 -3.090874E+04
       232   3 -2.283009E+05  5.607166E+04  1.224238E+05 -2.120805E+05  2.922466E+04 -3.527847E+04
       232   4 -8.363396E+05 -1.674070E+05 -3.162289E+03 -3.799510E+05  1.327102E+04 -2.887117E+04
       232   5 -8.454567E+05 -1.580840E+05 -5.637705E+03 -3.692681E+05  1.814241E+04 -3.329745E+04
       232   6 -8.364120E+05 -1.677057E+05 -1.027469E+04 -3.798521E+05  2.298181E+04 -3.762910E+04
       232   7 -1.287205E+06 -3.334109E+05 -1.019564E+05 -5.042451E+05  6.819609E+03 -3.129612E+04
       232   8 -1.374748E+06 -3.529482E+05 -1.213512E+05 -5.152256E+05  1.179883E+04 -3.568396E+04
       232   9 -1.444144E+06 -3.914522E+05 -1.429940E+05 -5.474718E+05  1.674561E+04 -3.997725E+04
       232  10 -3.852688E+05 -1.387916E+03  9.561766E+04 -2.555735E+05  3.284374E-09  1.866902E-09
       232  11 -3.158796E+05  3.680188E+04  1.100567E+05 -2.231950E+05 -7.634172E-09 -2.248300E-09
       232  12 -2.283021E+05  5.607009E+04  1.224199E+05 -2.120797E+05 -1.503394E-08 -6.802778E-09
       232  13 -8.363400E+05 -1.674080E+05 -3.164185E+03 -3.799507E+05  6.418670E-11  6.856160E-10
       232  14 -8.454573E+05 -1.580852E+05 -5.640405E+03 -3.692676E+05  3.520329E-10 -5.078536E-10
       232  15 -8.364129E+05 -1.677073E+05 -1.027834E+04 -3.798514E+05  3.453240E-09 -1.515634E-09
       232  16 -1.287205E+06 -3.334120E+05 -1.019583E+05 -5.042449E+05 -4.090556E-09 -5.080207E-10
       232  17 -1.374749E+06 -3.529496E+05 -1.213539E+05 -5.152253E+05  9.839187E-09  1.267137E-09
       232  18 -1.444145E+06 -3.914540E+05 -1.429976E+05 -5.474712E+05  1.743425E-08  5.405137E-09
       232  19 -3.852682E+05 -1.387061E+03  9.561971E+04 -2.555739E+05 -1.972751E+04  2.644432E+04
       232  20 -3.158787E+05  3.680307E+04  1.100596E+05 -2.231956E+05 -2.449188E+04  3.090874E+04
       232  21 -2.283009E+05  5.607166E+04  1.224238E+05 -2.120805E+05 -2.922466E+04  3.527847E+04
       232  22 -8.363396E+05 -1.674070E+05 -3.162289E+03 -3.799510E+05 -1.327102E+04  2.887117E+04
       232  23 -8.454567E+05 -1.580840E+05 -5.637705E+03 -3.692681E+05 -1.814241E+04  3.329745E+04
       232  24 -8.364120E+05 -1.677057E+05 -1.027469E+04 -3.798521E+05 -2.298181E+04  3.762910E+04
       232  25 -1.287205E+06 -3.334109E+05 -1.019564E+05 -5.042451E+05 -6.819609E+03  3.129612E+04
       232  26 -1.374748E+06 -3.529482E+05 -1.213512E+05 -5.152256E+05 -1.179883E+04  3.568396E+04
       232  27 -1.444144E+06 -3.914522E+05 -1.429940E+05 -5.474718E+05 -1.674561E+04  3.997725E+04
       233   1 -1.711683E+05  7.676194E+04  1.319532E+05 -1.977559E+05  3.274079E+04 -3.767896E+04
       233   2 -1.027656E+05  1.158392E+05  1.380513E+05 -1.630940E+05  4.523811E+04 -3.854653E+04
       233   3 -1.975156E+04  1.296765E+05  1.344231E+05 -1.480551E+05  5.715565E+04 -3.785758E+04
       233   4 -8.370140E+05 -1.671919E+05 -1.361265E+04 -3.802443E+05  2.612735E+04 -4.017039E+04
       233   5 -8.447311E+05 -1.584295E+05 -2.473671E+04 -3.689203E+05  4.042686E+04 -4.036280E+04
       233   6 -8.382061E+05 -1.752742E+05 -4.702632E+04 -3.772247E+05  5.414478E+04 -3.899832E+04
       233   7 -1.502415E+06 -4.111137E+05 -1.592063E+05 -5.625547E+05  1.952153E+04 -4.265899E+04
       233   8 -1.586142E+06 -4.326548E+05 -1.875588E+05 -5.745213E+05  3.562180E+04 -4.217674E+04
       233   9 -1.655983E+06 -4.801690E+05 -2.285174E+05 -6.061160E+05  5.113818E+04 -4.013743E+04
       233  10 -1.711698E+05  7.676013E+04  1.319485E+05 -1.977550E+05  1.854698E-08  4.956312E-09
       233  11 -1.027682E+05  1.158371E+05  1.380447E+05 -1.630925E+05  7.993673E-09  4.368196E-09
       233  12 -1.975545E+04  1.296741E+05  1.344143E+05 -1.480534E+05 -4.378421E-09 -2.038586E-10
       233  13 -8.370152E+05 -1.671938E+05 -1.361697E+04 -3.802434E+05  2.313551E-09 -1.385087E-09
       233  14 -8.447332E+05 -1.584316E+05 -2.474285E+04 -3.689190E+05  2.175802E-09  8.960158E-10
       233  15 -8.382097E+05 -1.752766E+05 -4.703469E+04 -3.772230E+05  1.104423E-09 -1.102622E-09
       233  16 -1.502416E+06 -4.111158E+05 -1.592104E+05 -5.625540E+05 -1.566582E-08 -5.874566E-09
       233  17 -1.586143E+06 -4.326571E+05 -1.875645E+05 -5.745201E+05 -9.727244E-09 -6.292361E-10
       233  18 -1.655987E+06 -4.801714E+05 -2.285253E+05 -6.061143E+05  2.374507E-09  3.882549E-09
       233  19 -1.711683E+05  7.676194E+04  1.319532E+05 -1.977559E+05 -3.274079E+04  3.767896E+04
       233  20 -1.027656E+05  1.158392E+05  1.380513E+05 -1.630940E+05 -4.523811E+04  3.854653E+04
       233  21 -1.975156E+04  1.296765E+05  1.344231E+05 -1.480551E+05 -5.715565E+04  3.785758E+04
       233  22 -8.370140E+05 -1.671919E+05 -1.361265E+04 -3.802443E+05 -2.612735E+04  4.017039E+04
       233  23 -8.447311E+05 -1.584295E+05 -2.473671E+04 -3.689203E+05 -4.042686E+04  4.036280E+04
       233  24 -8.382061E+05 -1.752742E+05 -4.702632E+04 -3.772247E+05 -5.414478E+04  3.899832E+04
       233  25 -1.502415E+06 -4.111137E+05 -1.592063E+05 -5.625547E+05 -1.952153E+04  4.265899E+04
       233  26 -1.586142E+06 -4.326548E+05 -1.875588E+05 -5.745213E+05 -3.562180E+04  4.217674E+04
       233  27 -1.655983E+06 -4.801690E+05 -2.285174E+05 -6.061160E+05 -5.113818E+04  4.013743E+04
       234   1  4.894066E+04  1.436618E+05  1.327654E+05 -1.622699E+05  7.340507E+04 -3.685331E+04
       234   2  8.758391E+04  2.106921E+05  1.079169E+05 -6.268765E+04  9.592914E+04 -2.172036E+04
       234   3  8.300233E+04  1.089855E+05  2.305755E+04  5.768761E+04  1.074259E+05  2.264900E+04
       234   4 -8.460362E+05 -1.630657E+05 -6.061254E+04 -3.854145E+05  6.306788E+04 -4.075255E+04
       234   5 -8.348284E+05 -1.720969E+05 -1.109793E+05 -3.593354E+05  1.196845E+05 -1.277869E+04
       234   6 -8.737104E+05 -3.567928E+05 -2.484717E+05 -3.124456E+05  1.652597E+05  4.444511E+04
       234   7 -1.740203E+06 -4.697568E+05 -2.540365E+05 -6.082754E+05  5.274681E+04 -4.464673E+04
       234   8 -1.756369E+06 -5.547551E+05 -3.299301E+05 -6.555543E+05  1.434013E+05 -3.855501E+03
       234   9 -1.829475E+06 -8.223045E+05 -5.200652E+05 -6.819918E+05  2.229948E+05  6.617926E+04
       234  10  4.893451E+04  1.436589E+05  1.327527E+05 -1.622677E+05 -1.350780E-09 -4.636703E-10
       234  11  8.757390E+04  2.106891E+05  1.078987E+05 -6.268598E+04 -1.491142E-09  6.923530E-10
       234  12  8.298980E+04  1.089819E+05  2.303490E+04  5.768565E+04 -5.440419E-10  2.024775E-10
       234  13 -8.460409E+05 -1.630686E+05 -6.062314E+04 -3.854124E+05  2.188302E-09 -1.635783E-09
       234  14 -8.348438E+05 -1.721009E+05 -1.110065E+05 -3.593341E+05 -1.044351E-09  6.814207E-10
       234  15 -8.737403E+05 -3.568022E+05 -2.485268E+05 -3.124516E+05  6.722606E-10  1.900921E-09
       234  16 -1.740207E+06 -4.697597E+05 -2.540455E+05 -6.082735E+05 -1.080599E-09  2.063203E-09
       234  17 -1.756391E+06 -5.547607E+05 -3.299689E+05 -6.555539E+05 -1.023339E-09  4.831729E-09
       234  18 -1.829530E+06 -8.223226E+05 -5.201673E+05 -6.820037E+05 -4.881685E-10  1.031145E-09
       234  19  4.894066E+04  1.436618E+05  1.327654E+05 -1.622699E+05 -7.340507E+04  3.685331E+04
       234  20  8.758391E+04  2.106921E+05  1.079169E+05 -6.268765E+04 -9.592914E+04  2.172036E+04
       234  21  8.300233E+04  1.089855E+05  2.305755E+04  5.768761E+04 -1.074259E+05 -2.264900E+04
       234  22 -8.460362E+05 -1.630657E+05 -6.061254E+04 -3.854145E+05 -6.306788E+04  4.075255E+04
       234  23 -8.348284E+05 -1.720969E+05 -1.109793E+05 -3.593354E+05 -1.196845E+05  1.277869E+04
       234  24 -8.737104E+05 -3.567928E+05 -2.484717E+05 -3.124456E+05 -1.652597E+05 -4.444511E+04
       234  25 -1.740203E+06 -4.697568E+05 -2.540365E+05 -6.082754E+05 -5.274681E+04  4.464673E+04
       234  26 -1.756369E+06 -5.547551E+05 -3.299301E+05 -6.555543E+05 -1.434013E+05  3.855501E+03
       234  27 -1.829475E+06 -8.223045E+05 -5.200652E+05 -6.819918E+05 -2.229948E+05 -6.617926E+04
       235   1  1.525699E+06  2.195805E+05  1.959964E+05  2.477144E+04  4.125672E+03 -1.713949E+04
       235   2  1.446491E+06  2.626033E+05  1.912764E+05  3.959997E+04 -1.193370E+04 -5.603260E+04
       235   3  1.355968E+06  2.514463E+05  1.835295E+05  7.840917E+04 -2.804484E+04 -6.384212E+04
       235   4  3.155276E+05 -7.965324E+04 -9.225214E+04  6.752395E+04 -6.381448E+04 -1.727264E+04
       235   5  3.245925E+05 -8.387846E+03 -4.338665E+04  5.544143E+04 -4.103176E+04 -5.610458E+04
       235   6  3.155725E+05  1.904545E+03 -2.451541E+04  6.734332E+04 -1.830239E+04 -6.382608E+04
       235   7 -8.932886E+05 -3.789830E+05 -3.805850E+05  1.101922E+05 -1.316230E+05 -1.741526E+04
       235   8 -7.961152E+05 -2.794579E+05 -2.781163E+05  7.125317E+04 -7.007815E+04 -5.617812E+04
       235   9 -7.237913E+05 -2.477032E+05 -2.326145E+05  5.629567E+04 -8.575900E+03 -6.381038E+04
       235  10  1.525699E+06  2.195802E+05  1.959959E+05  2.477150E+04  2.512713E-09 -3.661139E-10
       235  11  1.446490E+06  2.625999E+05  1.912703E+05  3.959944E+04  3.195797E-09 -4.615205E-09
       235  12  1.355966E+06  2.514418E+05  1.835203E+05  7.840773E+04  2.973537E-09 -4.440188E-09
       235  13  3.155231E+05 -7.965465E+04 -9.226035E+04  6.752306E+04  1.448894E-10  1.407713E-09
       235  14  3.245899E+05 -8.391679E+03 -4.339573E+04  5.543958E+04 -1.610811E-09 -2.949840E-09
       235  15  3.155710E+05  1.900080E+03 -2.452369E+04  6.734237E+04 -9.375830E-10 -4.655484E-10
       235  16 -8.933073E+05 -3.789880E+05 -3.806181E+05  1.101904E+05 -2.846809E-09  4.377796E-10
       235  17 -7.961214E+05 -2.794627E+05 -2.781314E+05  7.125000E+04 -1.914937E-09 -6.294104E-09
       235  18 -7.237925E+05 -2.477076E+05 -2.326223E+05  5.629523E+04 -3.072304E-09 -6.454316E-09
       235  19  1.525699E+06  2.195805E+05  1.959964E+05  2.477144E+04 -4.125672E+03  1.713949E+04
       235  20  1.446491E+06  2.626033E+05  1.912764E+05  3.959997E+04  1.193370E+04  5.603260E+04
       235  21  1.355968E+06  2.514463E+05  1.835295E+05  7.840917E+04  2.804484E+04  6.384212E+04
       235  22  3.155276E+05 -7.965324E+04 -9.225214E+04  6.752395E+04  6.381448E+04  1.727264E+04
       235  23  3.245925E+05 -8.387846E+03 -4.338665E+04  5.544143E+04  4.103176E+04  5.610458E+04
       235  24  3.155725E+05  1.904545E+03 -2.451541E+04  6.734332E+04  1.830239E+04  6.382608E+04
       235  25 -8.932886E+05 -3.789830E+05 -3.805850E+05  1.101922E+05  1.316230E+05  1.741526E+04
       235  26 -7.961152E+05 -2.794579E+05 -2.781163E+05  7.125317E+04  7.007815E+04  5.617812E+04
       235  27 -7.237913E+05 -2.477032E+05 -2.326145E+05  5.629567E+04  8.575900E+03  6.381038E+04
       236   1  1.298952E+06  2.320822E+05  1.771445E+05  6.866637E+04 -1.773943E+04 -5.968197E+04
       236   2  1.215241E+06  2.144401E+05  1.671291E+05  5.668729E+04 -1.474161E+04 -5.660299E+04
       236   3  1.130601E+06  1.947039E+05  1.546395E+05  7.024468E+04 -1.175303E+04 -5.171612E+04
       236   4  3.193225E+05 -2.901339E+03 -1.907905E+04  6.772792E+04 -1.501386E+04 -5.968235E+04
       236   5  3.200094E+05  1.975401E+01 -1.052404E+04  5.495370E+04 -9.763461E+03 -5.659545E+04
       236   6  3.193686E+05  4.543013E+02 -6.009604E+03  6.771828E+04 -4.521869E+03 -5.169940E+04
       236   7 -6.593930E+05 -2.379439E+05 -2.153512E+05  6.679035E+04 -1.229249E+04 -5.968274E+04
       236   8 -5.744573E+05 -2.144494E+05 -1.882168E+05  5.322210E+04 -4.792325E+03 -5.658793E+04
       236   9 -4.912350E+05 -1.938352E+05 -1.666910E+05  6.519476E+04  2.700058E+03 -5.168272E+04
       236  10  1.298951E+06  2.320783E+05  1.771372E+05  6.866551E+04 -6.015111E-09 -5.142258E-09
       236  11  1.215240E+06  2.144366E+05  1.671226E+05  5.668662E+04 -9.630380E-10  3.570393E-09
       236  12  1.130600E+06  1.947009E+05  1.546342E+05  7.024419E+04  5.800301E-10  3.208353E-09
       236  13  3.193213E+05 -2.905225E+03 -1.908617E+04  6.772720E+04 -1.056169E-09 -3.372567E-09
       236  14  3.200084E+05  1.628845E+01 -1.053024E+04  5.495326E+04 -5.478433E-10  7.343363E-10
       236  15  3.193678E+05  4.514252E+02 -6.014666E+03  6.771810E+04 -8.992513E-10 -3.239221E-09
       236  16 -6.593942E+05 -2.379477E+05 -2.153582E+05  6.678976E+04  4.163964E-09 -3.448533E-10
       236  17 -5.744582E+05 -2.144528E+05 -1.882229E+05  5.322188E+04  1.478621E-09  1.696356E-09
       236  18 -4.912357E+05 -1.938381E+05 -1.666960E+05  6.519487E+04 -1.889109E-10  1.217751E-09
       236  19  1.298952E+06  2.320822E+05  1.771445E+05  6.866637E+04  1.773943E+04  5.968197E+04
       236  20  1.215241E+06  2.144401E+05  1.671291E+05  5.668729E+04  1.474161E+04  5.660299E+04
       236  21  1.130601E+06  1.947039E+05  1.546395E+05  7.024468E+04  1.175303E+04  5.171612E+04
       236  22  3.193225E+05 -2.901339E+03 -1.907905E+04  6.772792E+04  1.501386E+04  5.968235E+04
       236  23  3.200094E+05  1.975401E+01 -1.052404E+04  5.495370E+04  9.763461E+03  5.659545E+04
       236  24  3.193686E+05  4.543013E+02 -6.009604E+03  6.771828E+04  4.521869E+03  5.169940E+04
       236  25 -6.593930E+05 -2.379439E+05 -2.153512E+05  6.679035E+04  1.229249E+04  5.968274E+04
       236  26 -5.744573E+05 -2.144494E+05 -1.882168E+05  5.322210E+04  4.792325E+03  5.658793E+04
       236  27 -4.912350E+05 -1.938352E+05 -1.666910E+05  6.519476E+04 -2.700058E+03  5.168272E+04
       237   1  1.071282E+06  1.801822E+05  1.439179E+05  6.970250E+04 -1.041223E+04 -4.837084E+04
       237   2  9.874804E+05  1.601667E+05  1.294061E+05  5.675148E+04 -9.268492E+03 -4.286468E+04
       237   3  9.034341E+05  1.402317E+05  1.141400E+05  6.936104E+04 -8.128804E+03 -3.725707E+04
       237   4  3.196220E+05  2.666925E+02 -4.572287E+03  6.772567E+04 -3.596288E+03 -4.835392E+04
       237   5  3.197763E+05  3.207480E+02 -2.592139E+03  5.494432E+04 -2.327565E+03 -4.284530E+04
       237   6  3.196573E+05  4.338403E+02 -1.453805E+03  6.772518E+04 -1.062746E+03 -3.723515E+04
       237   7 -4.314982E+05 -1.796830E+05 -1.530900E+05  6.575083E+04  3.211591E+03 -4.833704E+04
       237   8 -3.475017E+05 -1.595522E+05 -1.346121E+05  5.313878E+04  4.606063E+03 -4.282595E+04
       237   9 -2.637938E+05 -1.393848E+05 -1.170642E+05  6.609061E+04  5.996814E+03 -3.721325E+04
       237  10  1.071282E+06  1.801796E+05  1.439133E+05  6.970210E+04 -4.086203E-09  4.241110E-09
       237  11  9.874798E+05  1.601647E+05  1.294025E+05  5.675116E+04  2.235418E-09  4.779863E-09
       237  12  9.034337E+05  1.402302E+05  1.141373E+05  6.936079E+04  6.082070E-09 -1.138672E-09
       237  13  3.196214E+05  2.641779E+02 -4.576705E+03  6.772553E+04 -1.313919E-09 -3.911720E-09
       237  14  3.197758E+05  3.187750E+02 -2.595599E+03  5.494424E+04 -1.623521E-09  3.500031E-09
       237  15  3.196569E+05  4.323509E+02 -1.456413E+03  6.772515E+04  6.218292E-10  5.783035E-09
       237  16 -4.314989E+05 -1.796856E+05 -1.530944E+05  6.575096E+04  2.898537E-09  2.485594E-09
       237  17 -3.475022E+05 -1.595542E+05 -1.346156E+05  5.313894E+04 -5.901519E-10  5.983331E-09
       237  18 -2.637942E+05 -1.393863E+05 -1.170669E+05  6.609079E+04 -6.807114E-09  1.195046E-09
       237  19  1.071282E+06  1.801822E+05  1.439179E+05  6.970250E+04  1.041223E+04  4.837084E+04
       237  20  9.874804E+05  1.601667E+05  1.294061E+05  5.675148E+04  9.268492E+03  4.286468E+04
       237  21  9.034341E+05  1.402317E+05  1.141400E+05  6.936104E+04  8.128804E+03  3.725707E+04
       237  22  3.196220E+05  2.666925E+02 -4.572287E+03  6.772567E+04  3.596288E+03  4.835392E+04
       237  23  3.197763E+05  3.207480E+02 -2.592139E+03  5.494432E+04  2.327565E+03  4.284530E+04
       237  24  3.196573E+05  4.338403E+02 -1.453805E+03  6.772518E+04  1.062746E+03  3.723515E+04
       237  25 -4.314982E+05 -1.796830E+05 -1.530900E+05  6.575083E+04 -3.211591E+03  4.833704E+04
       237  26 -3.475017E+05 -1.595522E+05 -1.346121E+05  5.313878E+04 -4.606063E+03  4.282595E+04
       237  27 -2.637938E+05 -1.393848E+05 -1.170642E+05  6.609061E+04 -5.996814E+03  3.721325E+04
       238   1  8.441011E+05  1.259432E+05  1.023569E+05  6.919254E+04 -7.881715E+03 -3.396751E+04
       238   2  7.604312E+05  1.058675E+05  8.653287E+04  5.622112E+04 -7.625509E+03 -2.833203E+04
       238   3  6.765891E+05  8.597437E+04  7.053897E+04  6.876635E+04 -7.371735E+03 -2.269341E+04
       238   4  3.196913E+05  4.379104E+02 -1.082733E+03  6.771542E+04 -8.439017E+02 -3.394463E+04
       238   5  3.197935E+05  3.706148E+02 -5.619941E+02  5.495653E+04 -5.844747E+02 -2.830775E+04
       238   6  3.197147E+05  4.852563E+02 -2.137973E+02  6.771534E+04 -3.274449E+02 -2.266771E+04
       238   7 -2.044554E+05 -1.250840E+05 -1.045357E+05  6.623934E+04  6.188099E+03 -3.392177E+04
       238   8 -1.206586E+05 -1.051380E+05 -8.766622E+04  5.369267E+04  6.451672E+03 -2.828349E+04
       238   9 -3.703794E+04 -8.501158E+04 -7.097269E+04  6.666483E+04  6.712883E+03 -2.264203E+04
       238  10  8.441007E+05  1.259419E+05  1.023547E+05  6.919232E+04  3.698894E-09 -3.106650E-10
       238  11  7.604310E+05  1.058666E+05  8.653125E+04  5.622094E+04  2.141701E-09  1.274213E-08
       238  12  6.765889E+05  8.597380E+04  7.053790E+04  6.876621E+04 -1.193039E-09  8.203090E-09
       238  13  3.196910E+05  4.366727E+02 -1.084900E+03  6.771540E+04  2.286996E-12  5.617843E-10
       238  14  3.197933E+05  3.697541E+02 -5.635008E+02  5.495651E+04 -1.400585E-09  9.904384E-09
       238  15  3.197145E+05  4.847045E+02 -2.147632E+02  6.771533E+04 -9.935684E-10  1.834739E-09
       238  16 -2.044558E+05 -1.250852E+05 -1.045379E+05  6.623951E+04 -3.921698E-09 -2.435276E-10
       238  17 -1.206588E+05 -1.051389E+05 -8.766780E+04  5.369282E+04  3.459827E-10  1.293172E-09
       238  18 -3.703813E+04 -8.501214E+04 -7.097373E+04  6.666495E+04  2.344173E-10 -1.171228E-09
       238  19  8.441011E+05  1.259432E+05  1.023569E+05  6.919254E+04  7.881715E+03  3.396751E+04
       238  20  7.604312E+05  1.058675E+05  8.653287E+04  5.622112E+04  7.625509E+03  2.833203E+04
       238  21  6.765891E+05  8.597437E+04  7.053897E+04  6.876635E+04  7.371735E+03  2.269341E+04
       238  22  3.196913E+05  4.379104E+02 -1.082733E+03  6.771542E+04  8.439017E+02  3.394463E+04
       238  23  3.197935E+05  3.706148E+02 -5.619941E+02  5.495653E+04  5.844747E+02  2.830775E+04
       238  24  3.197147E+05  4.852563E+02 -2.137973E+02  6.771534E+04  3.274449E+02  2.266771E+04
       238  25 -2.044554E+05 -1.250840E+05 -1.045357E+05  6.623934E+04 -6.188099E+03  3.392177E+04
       238  26 -1.206586E+05 -1.051380E+05 -8.766622E+04  5.369267E+04 -6.451672E+03  2.828349E+04
       238  27 -3.703794E+04 -8.501158E+04 -7.097269E+04  6.666483E+04 -6.712883E+03  2.264203E+04
       239   1  6.173338E+05  7.170864E+04  5.853813E+04  6.859717E+04 -7.354230E+03 -1.941158E+04
       239   2  5.337645E+05  5.163356E+04  4.248750E+04  5.562152E+04 -7.466252E+03 -1.377648E+04
       239   3  4.500302E+05  3.175346E+04  2.649831E+04  6.813968E+04 -7.579404E+03 -8.145378E+03
       239   4  3.197252E+05  4.921793E+02 -7.591208E+01  6.771016E+04 -3.134340E+02 -1.938528E+04
       239   5  3.198156E+05  4.032109E+02  1.954976E+02  5.496299E+04 -4.308200E+02 -1.374953E+04
       239   6  3.197365E+05  5.108071E+02  5.324231E+02  6.771014E+04 -5.493486E+02 -8.117759E+03
       239   7  2.220143E+04 -7.072961E+04 -5.869409E+04  6.682350E+04  6.724061E+03 -1.935898E+04
       239   8  1.059107E+05 -5.082989E+04 -4.209857E+04  5.430465E+04  6.602240E+03 -1.372258E+04
       239   9  1.894591E+05 -3.073286E+04 -2.543413E+04  6.728067E+04  6.479263E+03 -8.090147E+03
       239  10  6.173337E+05  7.170822E+04  5.853732E+04  6.859706E+04  9.142400E-09  2.312724E-09
       239  11  5.337644E+05  5.163334E+04  4.248704E+04  5.562144E+04  1.951364E-09 -1.227996E-09
       239  12  4.500301E+05  3.175337E+04  2.649808E+04  6.813963E+04 -4.273287E-09 -3.152784E-09
       239  13  3.197251E+05  4.917757E+02 -7.661854E+01  6.771016E+04  1.296419E-09  1.129295E-08
       239  14  3.198156E+05  4.030078E+02  1.951419E+02  5.496299E+04 -2.037108E-09  6.046955E-10
       239  15  3.197365E+05  5.107363E+02  5.322986E+02  6.771013E+04 -8.400734E-10 -3.073672E-09
       239  16  2.220128E+04 -7.073003E+04 -5.869488E+04  6.682361E+04 -9.928937E-09  3.339402E-09
       239  17  1.059106E+05 -5.083011E+04 -4.209900E+04  5.430472E+04 -1.749604E-09 -2.673247E-09
       239  18  1.894591E+05 -3.073294E+04 -2.543433E+04  6.728071E+04  3.069580E-09 -3.823744E-09
       239  19  6.173338E+05  7.170864E+04  5.853813E+04  6.859717E+04  7.354230E+03  1.941158E+04
       239  20  5.337645E+05  5.163356E+04  4.248750E+04  5.562152E+04  7.466252E+03  1.377648E+04
       239  21  4.500302E+05  3.175346E+04  2.649831E+04  6.813968E+04  7.579404E+03  8.145378E+03
       239  22  3.197252E+05  4.921793E+02 -7.591208E+01  6.771016E+04  3.134340E+02  1.938528E+04
       239  23  3.198156E+05  4.032109E+02  1.954976E+02  5.496299E+04  4.308200E+02  1.374953E+04
       239  24  3.197365E+05  5.108071E+02  5.324231E+02  6.771014E+04  5.493486E+02  8.117759E+03
       239  25  2.220143E+04 -7.072961E+04 -5.869409E+04  6.682350E+04 -6.724061E+03  1.935898E+04
       239  26  1.059107E+05 -5.082989E+04 -4.209857E+04  5.430465E+04 -6.602240E+03  1.372258E+04
       239  27  1.894591E+05 -3.073286E+04 -2.543413E+04  6.728067E+04 -6.479263E+03  8.090147E+03
       240   1  3.908398E+05  1.748805E+04  1.458853E+04  6.797398E+04 -7.718729E+03 -4.865017E+03
       240   2  3.072735E+05 -2.607517E+03 -1.107375E+03  5.500980E+04 -8.366213E+03  7.463861E+02
       240   3  2.236144E+05 -2.245277E+04 -1.638273E+04  6.752765E+04 -9.013362E+03  6.308319E+03
       240   4  3.197569E+05  5.085341E+02  7.525442E+02  6.770747E+04 -6.787117E+02 -4.837166E+03
       240   5  3.198009E+05  3.959681E+02  1.389867E+03  5.496639E+04 -1.388422E+03  7.739414E+02
       240   6  3.197561E+05  5.448278E+02  2.490870E+03  6.770729E+04 -2.097880E+03  6.335599E+03
       240   7  2.486790E+05 -1.647125E+04 -1.308349E+04  6.744098E+04  6.360517E+03 -4.809320E+03
       240   8  3.323286E+05  3.399469E+03  3.887283E+03  5.492298E+04  5.589506E+03  8.014954E+02
       240   9  4.159067E+05  2.354189E+04  2.136420E+04  6.788695E+04  4.818650E+03  6.362882E+03
       240  10  3.908397E+05  1.748801E+04  1.458837E+04  6.797395E+04 -7.943687E-09  2.829629E-09
       240  11  3.072734E+05 -2.607536E+03 -1.107507E+03  5.500981E+04 -4.610034E-09  3.812911E-09
       240  12  2.236143E+05 -2.245283E+04 -1.638296E+04  6.752770E+04 -2.976985E-09  2.508690E-09
       240  13  3.197569E+05  5.085089E+02  7.524994E+02  6.770747E+04 -1.075774E-09  7.399942E-10
       240  14  3.198009E+05  3.959669E+02  1.389862E+03  5.496639E+04 -1.023436E-11  3.768998E-09
       240  15  3.197561E+05  5.447835E+02  2.490786E+03  6.770730E+04  2.124826E-09  4.541053E-09
       240  16  2.486789E+05 -1.647129E+04 -1.308361E+04  6.744101E+04  5.423358E-09  1.193399E-09
       240  17  3.323286E+05  3.399460E+03  3.887223E+03  5.492298E+04  2.935172E-09 -9.187928E-09
       240  18  4.159067E+05  2.354184E+04  2.136408E+04  6.788693E+04  3.028239E-09  5.100078E-10
       240  19  3.908398E+05  1.748805E+04  1.458853E+04  6.797398E+04  7.718729E+03  4.865017E+03
       240  20  3.072735E+05 -2.607517E+03 -1.107375E+03  5.500980E+04  8.366213E+03 -7.463861E+02
       240  21  2.236144E+05 -2.245277E+04 -1.638273E+04  6.752765E+04  9.013362E+03 -6.308319E+03
       240  22  3.197569E+05  5.085341E+02  7.525442E+02  6.770747E+04  6.787117E+02  4.837166E+03
       240  23  3.198009E+05  3.959681E+02  1.389867E+03  5.496639E+04  1.388422E+03 -7.739414E+02
       240  24  3.197561E+05  5.448278E+02  2.490870E+03  6.770729E+04  2.097880E+03 -6.335599E+03
       240  25  2.486790E+05 -1.647125E+04 -1.308349E+04  6.744098E+04 -6.360517E+03  4.809320E+03
       240  26  3.323286E+05  3.399469E+03  3.887283E+03  5.492298E+04 -5.589506E+03 -8.014954E+02
       240  27  4.159067E+05  2.354189E+04  2.136420E+04  6.788695E+04 -4.818650E+03 -6.362882E+03
       241   1  1.645246E+05 -3.683468E+04 -2.770926E+04  6.760017E+04 -9.727691E+03  9.608316E+03
       241   2  8.069396E+04 -5.682346E+04 -4.184816E+04  5.419261E+04 -1.155880E+04  1.487190E+04
       241   3 -2.753072E+03 -7.534356E+04 -5.448638E+04  6.623067E+04 -1.338533E+04  1.928841E+04
       241   4  3.198969E+05  4.291907E+02  3.285169E+03  6.770066E+04 -2.620918E+03  9.636117E+03
       241   5  3.196109E+05  4.730783E+02  5.748935E+03  5.497478E+04 -5.510755E+03  1.489485E+04
       241   6  3.198835E+05  2.169015E+03  1.044737E+04  6.769381E+04 -8.396231E+03  1.930666E+04
       241   7  4.752924E+05  3.769161E+04  3.427857E+04  6.780115E+04  4.487596E+03  9.663916E+03
       241   8  5.585823E+05  5.776615E+04  5.334331E+04  5.575720E+04  5.395737E+02  1.491780E+04
       241   9  6.426194E+05  7.967517E+04  7.537588E+04  6.915764E+04 -3.404586E+03  1.932493E+04
       241  10  1.645244E+05 -3.683480E+04 -2.770961E+04  6.760025E+04 -6.529546E-09  7.551897E-09
       241  11  8.069375E+04 -5.682374E+04 -4.184882E+04  5.419275E+04  1.214025E-09  1.268764E-09
       241  12 -2.753365E+03 -7.534400E+04 -5.448742E+04  6.623087E+04  8.696898E-09  3.528797E-09
       241  13  3.198969E+05  4.290891E+02  3.284982E+03  6.770068E+04  1.058410E-09  6.044105E-09
       241  14  3.196108E+05  4.728319E+02  5.748461E+03  5.497484E+04 -5.555000E-10  7.254188E-09
       241  15  3.198834E+05  2.168595E+03  1.044653E+04  6.769394E+04  7.407791E-10 -3.777441E-09
       241  16  4.752924E+05  3.769150E+04  3.427836E+04  6.780111E+04  5.749160E-09  4.424363E-09
       241  17  5.585823E+05  5.776591E+04  5.334289E+04  5.575719E+04 -1.295697E-09  1.574563E-10
       241  18  6.426193E+05  7.967477E+04  7.537516E+04  6.915769E+04 -1.070768E-08 -1.091305E-08
       241  19  1.645246E+05 -3.683468E+04 -2.770926E+04  6.760017E+04  9.727691E+03 -9.608316E+03
       241  20  8.069396E+04 -5.682346E+04 -4.184816E+04  5.419261E+04  1.155880E+04 -1.487190E+04
       241  21 -2.753072E+03 -7.534356E+04 -5.448638E+04  6.623067E+04  1.338533E+04 -1.928841E+04
       241  22  3.198969E+05  4.291907E+02  3.285169E+03  6.770066E+04  2.620918E+03 -9.636117E+03
       241  23  3.196109E+05  4.730783E+02  5.748935E+03  5.497478E+04  5.510755E+03 -1.489485E+04
       241  24  3.198835E+05  2.169015E+03  1.044737E+04  6.769381E+04  8.396231E+03 -1.930666E+04
       241  25  4.752924E+05  3.769161E+04  3.427857E+04  6.780115E+04 -4.487596E+03 -9.663916E+03
       241  26  5.585823E+05  5.776615E+04  5.334331E+04  5.575720E+04 -5.395737E+02 -1.491780E+04
       241  27  6.426194E+05  7.967517E+04  7.537588E+04  6.915764E+04  3.404586E+03 -1.932493E+04
       242   1 -6.047928E+04 -9.230899E+04 -6.345758E+04  7.146701E+04 -1.848069E+04  2.294093E+04
       242   2 -1.476012E+05 -1.076429E+05 -7.424741E+04  4.418822E+04 -1.272880E+04  2.231287E+04
       242   3 -2.279790E+05 -9.233244E+04 -8.115390E+04  4.151138E+04 -6.927305E+03  7.132851E+03
       242   4  3.219479E+05 -4.959206E+02  1.343116E+04  6.754125E+04 -1.021829E+04  2.297110E+04
       242   5  3.169908E+05  4.956499E+03  2.374275E+04  5.516032E+04 -2.262945E+04  2.227529E+04
       242   6  3.219173E+05  4.419312E+04  5.054387E+04  6.737898E+04 -3.499083E+04  7.032718E+03
       242   7  7.045147E+05  9.130824E+04  9.031271E+04  6.361289E+04 -1.950908E+03  2.300116E+04
       242   8  7.817869E+05  1.175424E+05  1.217212E+05  6.614056E+04 -3.253739E+04  2.223738E+04
       242   9  8.720937E+05  1.806996E+05  1.822235E+05  9.326934E+04 -6.307910E+04  6.930292E+03
       242  10 -6.047979E+04 -9.230965E+04 -6.345921E+04  7.146735E+04 -4.606892E-09  2.926311E-09
       242  11 -1.476015E+05 -1.076434E+05 -7.424865E+04  4.418845E+04 -1.106274E-09 -1.144727E-09
       242  12 -2.279791E+05 -9.233251E+04 -8.115408E+04  4.151142E+04  3.500148E-09  5.731983E-10
       242  13  3.219476E+05 -4.965154E+02  1.342998E+04  6.754144E+04  1.294209E-09  6.279059E-09
       242  14  3.169901E+05  4.955829E+03  2.374086E+04  5.516072E+04 -7.478338E-10 -6.698567E-09
       242  15  3.219160E+05  4.419274E+04  5.054147E+04  6.737918E+04 -9.824290E-10  2.179247E-09
       242  16  7.045146E+05  9.130767E+04  9.031171E+04  6.361293E+04  1.962586E-09  2.721506E-10
       242  17  7.817856E+05  1.175416E+05  1.217182E+05  6.614115E+04 -2.996203E-10 -1.029823E-09
       242  18  8.720895E+05  1.806984E+05  1.822160E+05  9.326969E+04 -2.396497E-09  3.033043E-10
       242  19 -6.047928E+04 -9.230899E+04 -6.345758E+04  7.146701E+04  1.848069E+04 -2.294093E+04
       242  20 -1.476012E+05 -1.076429E+05 -7.424741E+04  4.418822E+04  1.272880E+04 -2.231287E+04
       242  21 -2.279790E+05 -9.233244E+04 -8.115390E+04  4.151138E+04  6.927305E+03 -7.132851E+03
       242  22  3.219479E+05 -4.959206E+02  1.343116E+04  6.754125E+04  1.021829E+04 -2.297110E+04
       242  23  3.169908E+05  4.956499E+03  2.374275E+04  5.516032E+04  2.262945E+04 -2.227529E+04
       242  24  3.219173E+05  4.419312E+04  5.054387E+04  6.737898E+04  3.499083E+04 -7.032718E+03
       242  25  7.045147E+05  9.130824E+04  9.031271E+04  6.361289E+04  1.950908E+03 -2.300116E+04
       242  26  7.817869E+05  1.175424E+05  1.217212E+05  6.614056E+04  3.253739E+04 -2.223738E+04
       242  27  8.720937E+05  1.806996E+05  1.822235E+05  9.326934E+04  6.307910E+04 -6.930292E+03
       243   1  3.034737E+05  2.099444E+06  3.085517E+05 -1.893699E+05  1.098017E+04  1.017005E+05
       243   2  1.840993E+05  1.909131E+06  2.003668E+05 -1.364500E+05  3.390526E+04  4.692552E+04
       243   3  1.306789E+05  1.742271E+06  1.442388E+05 -1.364083E+05  3.259968E+04 -7.877615E+03
       243   4  7.890217E+04  1.193063E+06  9.143173E+04 -1.437917E+05  1.107730E+04  5.795924E+04
       243   5  8.570039E+03  1.184025E+06  4.702641E+04 -1.174400E+05  3.393889E+04  3.353312E+04
       243   6 -1.021176E+03  1.193187E+06  3.368069E+04 -1.439619E+05  3.256167E+04  9.062163E+03
       243   7 -1.457203E+05  2.874413E+05 -1.257381E+05 -9.827959E+04  1.116811E+04  1.428136E+04
       243   8 -1.669918E+05  4.594139E+05 -1.063429E+05 -9.845208E+04  3.397172E+04  2.015606E+04
       243   9 -1.327395E+05  6.443906E+05 -7.689170E+04 -1.515086E+05  3.252323E+04  2.598728E+04
       243  10  3.034709E+05  2.099433E+06  3.085321E+05 -1.893708E+05  6.460033E-10 -1.887848E-08
       243  11  1.840975E+05  1.909128E+06  2.003605E+05 -1.364513E+05  1.812409E-09 -4.184823E-10
       243  12  1.306777E+05  1.742271E+06  1.442366E+05 -1.364081E+05  2.539790E-09  2.370379E-08
       243  13  7.890114E+04  1.193060E+06  9.142520E+04 -1.437922E+05  4.072709E-09  1.930584E-09
       243  14  8.568500E+03  1.184023E+06  4.702214E+04 -1.174409E+05  2.278773E-09  9.476886E-11
       243  15 -1.022337E+03  1.193187E+06  3.367855E+04 -1.439622E+05  3.346591E-09  3.233242E-09
       243  16 -1.457205E+05  2.874410E+05 -1.257387E+05 -9.827972E+04  5.562061E-10  1.974574E-08
       243  17 -1.669931E+05  4.594132E+05 -1.063459E+05 -9.845263E+04  3.445810E-09 -8.255634E-10
       243  18 -1.327408E+05  6.443896E+05 -7.689495E+04 -1.515093E+05  1.394668E-09 -2.324546E-08
       243  19  3.034737E+05  2.099444E+06  3.085517E+05 -1.893699E+05 -1.098017E+04 -1.017005E+05
       243  20  1.840993E+05  1.909131E+06  2.003668E+05 -1.364500E+05 -3.390526E+04 -4.692552E+04
       243  21  1.306789E+05  1.742271E+06  1.442388E+05 -1.364083E+05 -3.259968E+04  7.877615E+03
       243  22  7.890217E+04  1.193063E+06  9.143173E+04 -1.437917E+05 -1.107730E+04 -5.795924E+04
       243  23  8.570039E+03  1.184025E+06  4.702641E+04 -1.174400E+05 -3.393889E+04 -3.353312E+04
       243  24 -1.021176E+03  1.193187E+06  3.368069E+04 -1.439619E+05 -3.256167E+04 -9.062163E+03
       243  25 -1.457203E+05  2.874413E+05 -1.257381E+05 -9.827959E+04 -1.116811E+04 -1.428136E+04
       243  26 -1.669918E+05  4.594139E+05 -1.063429E+05 -9.845208E+04 -3.397172E+04 -2.015606E+04
       243  27 -1.327395E+05  6.443906E+05 -7.689170E+04 -1.515086E+05 -3.252323E+04 -2.598728E+04
       244   1  1.045978E+05  1.612117E+06  1.168885E+05 -1.474543E+05  2.495698E+04 -7.819346E+03
       244   2  5.937963E+04  1.431983E+06  8.235140E+04 -1.174023E+05  1.535339E+04 -2.564635E+04
       244   3  2.325595E+04  1.256177E+06  6.160170E+04 -1.414162E+05  5.041969E+03 -4.347270E+04
       244   4  3.292479E+03  1.190083E+06  3.180835E+04 -1.441946E+05  2.492978E+04  3.798606E+03
       244   5  9.641580E+02  1.188022E+06  3.387452E+04 -1.171562E+05  1.532271E+04 -1.313812E+04
       244   6  7.579479E+03  1.190103E+06  4.911419E+04 -1.441841E+05  5.007749E+03 -3.007907E+04
       244   7 -9.802374E+04  7.682177E+05 -5.328042E+04 -1.409371E+05  2.490269E+04  1.540883E+04
       244   8 -5.745486E+04  9.441167E+05 -1.460473E+04 -1.169102E+05  1.529203E+04 -6.346937E+02
       244   9 -8.097124E+03  1.124034E+06  3.662716E+04 -1.469518E+05  4.973407E+03 -1.668683E+04
       244  10  1.045971E+05  1.612117E+06  1.168872E+05 -1.474541E+05  1.102812E-09  4.192238E-09
       244  11  5.937920E+04  1.431983E+06  8.234973E+04 -1.174020E+05 -2.826642E-10 -8.772804E-10
       244  12  2.325542E+04  1.256175E+06  6.159811E+04 -1.414160E+05 -1.299098E-09  2.011918E-09
       244  13  3.291808E+03  1.190082E+06  3.180715E+04 -1.441947E+05  1.497158E-10  2.316466E-09
       244  14  9.638595E+02  1.188021E+06  3.387376E+04 -1.171561E+05 -3.100498E-09  3.704734E-10
       244  15  7.579210E+03  1.190103E+06  4.911245E+04 -1.441840E+05 -1.151563E-09  3.196798E-09
       244  16 -9.802447E+04  7.682173E+05 -5.328203E+04 -1.409374E+05 -9.369141E-10 -2.854331E-09
       244  17 -5.745511E+04  9.441167E+05 -1.460517E+04 -1.169102E+05 -3.109026E-09 -9.282759E-10
       244  18 -8.097225E+03  1.124034E+06  3.662659E+04 -1.469517E+05  4.084845E-10 -1.725248E-09
       244  19  1.045978E+05  1.612117E+06  1.168885E+05 -1.474543E+05 -2.495698E+04  7.819346E+03
       244  20  5.937963E+04  1.431983E+06  8.235140E+04 -1.174023E+05 -1.535339E+04  2.564635E+04
       244  21  2.325595E+04  1.256177E+06  6.160170E+04 -1.414162E+05 -5.041969E+03  4.347270E+04
       244  22  3.292479E+03  1.190083E+06  3.180835E+04 -1.441946E+05 -2.492978E+04 -3.798606E+03
       244  23  9.641580E+02  1.188022E+06  3.387452E+04 -1.171562E+05 -1.532271E+04  1.313812E+04
       244  24  7.579479E+03  1.190103E+06  4.911419E+04 -1.441841E+05 -5.007749E+03  3.007907E+04
       244  25 -9.802374E+04  7.682177E+05 -5.328042E+04 -1.409371E+05 -2.490269E+04 -1.540883E+04
       244  26 -5.745486E+04  9.441167E+05 -1.460473E+04 -1.169102E+05 -1.529203E+04  6.346937E+02
       244  27 -8.097124E+03  1.124034E+06  3.662716E+04 -1.469518E+05 -4.973407E+03  1.668683E+04
       245   1 -1.784685E+04  1.138071E+06  4.701222E+04 -1.647093E+05 -2.254328E+03 -5.426366E+04
       245   2 -3.816522E+04  9.407300E+05  4.924388E+04 -7.610044E+04 -8.828512E+03 -9.216269E+04
       245   3  7.948716E+04  7.825654E+05  1.105586E+05 -4.079024E+04 -3.478962E+03 -1.300227E+05
       245   4 -3.289479E+03  1.198461E+06  6.011653E+04 -1.441039E+05 -2.296710E+03 -3.849154E+04
       245   5  1.974781E+04  1.177551E+06  1.010687E+05 -1.172381E+05 -8.824339E+03 -9.131705E+04
       245   6  1.832964E+05  1.198330E+06  2.114305E+05 -1.436544E+05 -3.422804E+03 -1.441147E+05
       245   7  1.126938E+04  1.258857E+06  7.322179E+04 -1.234965E+05 -2.338045E+03 -2.271790E+04
       245   8  7.766340E+04  1.414428E+06  1.528910E+05 -1.583916E+05 -8.820280E+03 -9.047109E+04
       245   9  2.871325E+05  1.614276E+06  3.122962E+05 -2.465874E+05 -3.362008E+03 -1.582161E+05
       245  10 -1.784764E+04  1.138068E+06  4.700669E+04 -1.647094E+05  3.960030E-10  2.561707E-09
       245  11 -3.816758E+04  9.407208E+05  4.922780E+04 -7.610109E+04  1.328668E-09 -2.253843E-09
       245  12  7.948261E+04  7.825473E+05  1.105269E+05 -4.079061E+04  4.111041E-10 -5.628274E-10
       245  13 -3.289882E+03  1.198460E+06  6.011374E+04 -1.441040E+05  1.072567E-09  2.668787E-09
       245  14  1.974549E+04  1.177542E+06  1.010529E+05 -1.172387E+05 -4.396016E-09  1.756232E-11
       245  15  1.832908E+05  1.198308E+06  2.113915E+05 -1.436548E+05 -4.524827E-10  3.577361E-09
       245  16  1.126924E+04  1.258856E+06  7.322081E+04 -1.234966E+05 -1.315404E-09 -1.098255E-09
       245  17  7.766112E+04  1.414419E+06  1.528755E+05 -1.583922E+05 -2.107527E-09  2.914502E-10
       245  18  2.871258E+05  1.614249E+06  3.122493E+05 -2.465879E+05 -7.560406E-11  6.434982E-10
       245  19 -1.784685E+04  1.138071E+06  4.701222E+04 -1.647093E+05  2.254328E+03  5.426366E+04
       245  20 -3.816522E+04  9.407300E+05  4.924388E+04 -7.610044E+04  8.828512E+03  9.216269E+04
       245  21  7.948716E+04  7.825654E+05  1.105586E+05 -4.079024E+04  3.478962E+03  1.300227E+05
       245  22 -3.289479E+03  1.198461E+06  6.011653E+04 -1.441039E+05  2.296710E+03  3.849154E+04
       245  23  1.974781E+04  1.177551E+06  1.010687E+05 -1.172381E+05  8.824339E+03  9.131705E+04
       245  24  1.832964E+05  1.198330E+06  2.114305E+05 -1.436544E+05  3.422804E+03  1.441147E+05
       245  25  1.126938E+04  1.258857E+06  7.322179E+04 -1.234965E+05  2.338045E+03  2.271790E+04
       245  26  7.766340E+04  1.414428E+06  1.528910E+05 -1.583916E+05  8.820280E+03  9.047109E+04
       245  27  2.871325E+05  1.614276E+06  3.122962E+05 -2.465874E+05  3.362008E+03  1.582161E+05
       246   1  1.543223E+06  4.780641E+05  2.425299E+05  5.373159E+05  4.868176E+04  9.829867E+02
       246   2  1.473381E+06  4.542964E+05  2.032859E+05  5.087445E+05  3.336527E+04 -4.365067E+04
       246   3  1.388340E+06  4.402594E+05  1.829941E+05  5.021366E+05  7.391367E+03 -6.000116E+04
       246   4  5.326263E+05  1.065758E+05 -2.089922E+04  2.691605E+05 -7.694914E+03 -2.028374E+04
       246   5  5.446878E+05  1.131190E+05 -9.367651E+03  2.551185E+05  1.011358E+04 -5.243490E+04
       246   6  5.349881E+05  1.228337E+05 -5.097007E+03  2.630428E+05  1.725209E+04 -5.628338E+04
       246   7 -4.769531E+05 -2.648488E+05 -2.843935E+05  1.400968E+03 -6.396958E+04 -4.151400E+04
       246   8 -3.831303E+05 -2.279923E+05 -2.220728E+05  1.840122E+03 -1.310009E+04 -6.120511E+04
       246   9 -3.176276E+05 -1.945308E+05 -1.932319E+05  2.425108E+04  2.709817E+04 -5.257122E+04
       246  10  1.543221E+06  4.780634E+05  2.425255E+05  5.373159E+05  1.304379E-09  2.214245E-09
       246  11  1.473379E+06  4.542940E+05  2.032803E+05  5.087457E+05  1.005186E-09 -1.353326E-09
       246  12  1.388339E+06  4.402556E+05  1.829872E+05  5.021370E+05  2.219516E-09 -2.458031E-09
       246  13  5.326262E+05  1.065753E+05 -2.090010E+04  2.691603E+05  5.985380E-10  1.660626E-09
       246  14  5.446870E+05  1.131160E+05 -9.373011E+03  2.551190E+05  1.314590E-09 -4.143394E-10
       246  15  5.349869E+05  1.228302E+05 -5.103521E+03  2.630436E+05  3.515449E-09 -2.762673E-09
       246  16 -4.769580E+05 -2.648518E+05 -2.844044E+05  1.398828E+03 -1.033657E-09  5.550647E-10
       246  17 -3.831315E+05 -2.279964E+05 -2.220802E+05  1.839476E+03  1.822253E-10 -5.239429E-09
       246  18 -3.176291E+05 -1.945340E+05 -1.932385E+05  2.425223E+04  3.055159E-09  2.320240E-10
       246  19  1.543223E+06  4.780641E+05  2.425299E+05  5.373159E+05 -4.868176E+04 -9.829867E+02
       246  20  1.473381E+06  4.542964E+05  2.032859E+05  5.087445E+05 -3.336527E+04  4.365067E+04
       246  21  1.388340E+06  4.402594E+05  1.829941E+05  5.021366E+05 -7.391367E+03  6.000116E+04
       246  22  5.326263E+05  1.065758E+05 -2.089922E+04  2.691605E+05  7.694914E+03  2.028374E+04
       246  23  5.446878E+05  1.131190E+05 -9.367651E+03  2.551185E+05 -1.011358E+04  5.243490E+04
       246  24  5.349881E+05  1.228337E+05 -5.097007E+03  2.630428E+05 -1.725209E+04  5.628338E+04
       246  25 -4.769531E+05 -2.648488E+05 -2.843935E+05  1.400968E+03  6.396958E+04  4.151400E+04
       246  26 -3.831303E+05 -2.279923E+05 -2.220728E+05  1.840122E+03  1.310009E+04  6.120511E+04
       246  27 -3.176276E+05 -1.945308E+05 -1.932319E+05  2.425108E+04 -2.709817E+04  5.257122E+04
       247   1  1.336055E+06  4.180057E+05  1.728724E+05  4.861988E+05  1.351464E+04 -5.281606E+04
       247   2  1.271309E+06  3.828396E+05  1.571756E+05  4.560995E+05  1.168323E+04 -4.999994E+04
       247   3  1.189332E+06  3.647957E+05  1.419408E+05  4.458072E+05  9.290085E+03 -4.570847E+04
       247   4  5.354006E+05  1.220785E+05 -3.956098E+03  2.639993E+05  1.624946E+04 -5.178899E+04
       247   5  5.442610E+05  1.140716E+05 -2.088899E+03  2.539580E+05  1.614505E+04 -4.831818E+04
       247   6  5.355430E+05  1.228457E+05 -1.127634E+03  2.637235E+05  1.547850E+04 -4.337111E+04
       247   7 -2.646126E+05 -1.737999E+05 -1.808256E+05  4.206023E+04  1.898049E+04 -5.076336E+04
       247   8 -1.822555E+05 -1.546548E+05 -1.613860E+05  5.203256E+04  2.060125E+04 -4.663855E+04
       247   9 -1.178143E+05 -1.190695E+05 -1.442217E+05  8.181532E+04  2.165988E+04 -4.103642E+04
       247  10  1.336054E+06  4.180026E+05  1.728668E+05  4.861994E+05  1.776336E-09 -7.949153E-09
       247  11  1.271308E+06  3.828369E+05  1.571707E+05  4.560999E+05  9.595548E-09 -9.731946E-11
       247  12  1.189332E+06  3.647934E+05  1.419367E+05  4.458076E+05  1.657335E-08  2.248718E-09
       247  13  5.353996E+05  1.220755E+05 -3.961636E+03  2.639999E+05  2.518588E-09 -2.646070E-09
       247  14  5.442601E+05  1.140690E+05 -2.093778E+03  2.539586E+05  2.797201E-09 -3.519708E-09
       247  15  5.355422E+05  1.228436E+05 -1.131620E+03  2.637240E+05  3.639768E-09  1.019167E-09
       247  16 -2.646137E+05 -1.738027E+05 -1.808311E+05  4.206101E+04  3.173861E-09  1.219518E-09
       247  17 -1.822565E+05 -1.546572E+05 -1.613909E+05  5.203333E+04 -6.860327E-09 -2.079185E-09
       247  18 -1.178153E+05 -1.190714E+05 -1.442258E+05  8.181604E+04 -8.898789E-09 -4.863250E-09
       247  19  1.336055E+06  4.180057E+05  1.728724E+05  4.861988E+05 -1.351464E+04  5.281606E+04
       247  20  1.271309E+06  3.828396E+05  1.571756E+05  4.560995E+05 -1.168323E+04  4.999994E+04
       247  21  1.189332E+06  3.647957E+05  1.419408E+05  4.458072E+05 -9.290085E+03  4.570847E+04
       247  22  5.354006E+05  1.220785E+05 -3.956098E+03  2.639993E+05 -1.624946E+04  5.178899E+04
       247  23  5.442610E+05  1.140716E+05 -2.088899E+03  2.539580E+05 -1.614505E+04  4.831818E+04
       247  24  5.355430E+05  1.228457E+05 -1.127634E+03  2.637235E+05 -1.547850E+04  4.337111E+04
       247  25 -2.646126E+05 -1.737999E+05 -1.808256E+05  4.206023E+04 -1.898049E+04  5.076336E+04
       247  26 -1.822555E+05 -1.546548E+05 -1.613860E+05  5.203256E+04 -2.060125E+04  4.663855E+04
       247  27 -1.178143E+05 -1.190695E+05 -1.442217E+05  8.181532E+04 -2.165988E+04  4.103642E+04
       248   1  1.136442E+06  3.450540E+05  1.302476E+05  4.310571E+05  8.683953E+03 -4.246285E+04
       248   2  1.072316E+06  3.096010E+05  1.149107E+05  4.010133E+05  6.935892E+03 -3.741766E+04
       248   3  9.909158E+05  2.914738E+05  9.948586E+04  3.905829E+05  5.158368E+03 -3.230359E+04
       248   4  5.355968E+05  1.228083E+05 -8.451580E+02  2.637450E+05  1.448720E+04 -4.026991E+04
       248   5  5.442659E+05  1.141992E+05 -4.420908E+02  2.539271E+05  1.281991E+04 -3.519228E+04
       248   6  5.356371E+05  1.229007E+05 -1.916435E+02  2.637220E+05  1.112315E+04 -3.004570E+04
       248   7 -6.487914E+04 -9.940646E+04 -1.319583E+05  9.658245E+04  2.028434E+04 -3.807927E+04
       248   8  1.649752E+04 -8.117977E+04 -1.158115E+05  1.069556E+05  1.869852E+04 -3.296894E+04
       248   9  8.056490E+04 -4.565667E+04 -9.988235E+04  1.369455E+05  1.708324E+04 -2.778958E+04
       248  10  1.136442E+06  3.450521E+05  1.302441E+05  4.310574E+05 -9.616300E-09 -5.525801E-09
       248  11  1.072316E+06  3.095995E+05  1.149080E+05  4.010135E+05 -8.019061E-09 -8.289255E-09
       248  12  9.909155E+05  2.914727E+05  9.948385E+04  3.905831E+05 -2.022901E-09  9.208161E-10
       248  13  5.355962E+05  1.228065E+05 -8.486008E+02  2.637455E+05  4.875335E-09  1.812896E-09
       248  14  5.442653E+05  1.141978E+05 -4.447278E+02  2.539275E+05 -1.553150E-09 -9.596742E-09
       248  15  5.356367E+05  1.228997E+05 -1.935730E+02  2.637222E+05 -1.710722E-10  9.626149E-10
       248  16 -6.487997E+04 -9.940813E+04 -1.319618E+05  9.658307E+04  1.592706E-08  7.814126E-09
       248  17  1.649686E+04 -8.118104E+04 -1.158142E+05  1.069561E+05  4.673991E-09  5.261036E-09
       248  18  8.056438E+04 -4.565757E+04 -9.988435E+04  1.369458E+05 -1.290718E-09  3.565613E-09
       248  19  1.136442E+06  3.450540E+05  1.302476E+05  4.310571E+05 -8.683953E+03  4.246285E+04
       248  20  1.072316E+06  3.096010E+05  1.149107E+05  4.010133E+05 -6.935892E+03  3.741766E+04
       248  21  9.909158E+05  2.914738E+05  9.948586E+04  3.905829E+05 -5.158368E+03  3.230359E+04
       248  22  5.355968E+05  1.228083E+05 -8.451580E+02  2.637450E+05 -1.448720E+04  4.026991E+04
       248  23  5.442659E+05  1.141992E+05 -4.420908E+02  2.539271E+05 -1.281991E+04  3.519228E+04
       248  24  5.356371E+05  1.229007E+05 -1.916435E+02  2.637220E+05 -1.112315E+04  3.004570E+04
       248  25 -6.487914E+04 -9.940646E+04 -1.319583E+05  9.658245E+04 -2.028434E+04  3.807927E+04
       248  26  1.649752E+04 -8.117977E+04 -1.158115E+05  1.069556E+05 -1.869852E+04  3.296894E+04
       248  27  8.056490E+04 -4.565667E+04 -9.988235E+04  1.369455E+05 -1.708324E+04  2.778958E+04
       249   1  9.382571E+05  2.719073E+05  8.760806E+04  3.759330E+05  4.088434E+03 -2.932141E+04
       249   2  8.744383E+05  2.365345E+05  7.217432E+04  3.459827E+05  2.145048E+03 -2.425630E+04
       249   3  7.933807E+05  2.184359E+05  5.676266E+04  3.355543E+05  2.002874E+02 -1.919299E+04
       249   4  5.356579E+05  1.228935E+05 -1.081739E+02  2.637050E+05  1.002575E+04 -2.707298E+04
       249   5  5.442909E+05  1.142771E+05  4.798080E+01  2.539405E+05  8.080304E+03 -2.200749E+04
       249   6  5.356792E+05  1.229348E+05  2.274333E+02  2.636962E+05  6.133473E+03 -1.694378E+04
       249   7  1.332230E+05 -2.610683E+04 -8.783390E+04  1.515438E+05  1.595891E+04 -2.482613E+04
       249   8  2.142550E+05 -7.970988E+03 -7.208442E+04  1.619436E+05  1.401213E+04 -1.975997E+04
       249   9  2.780467E+05  2.743989E+04 -5.631117E+04  1.918660E+05  1.206395E+04 -1.469559E+04
       249  10  9.382568E+05  2.719064E+05  8.760641E+04  3.759331E+05  5.750409E-09  1.611652E-09
       249  11  8.744381E+05  2.365339E+05  7.217320E+04  3.459827E+05  3.685044E-10  3.143816E-10
       249  12  7.933806E+05  2.184355E+05  5.676196E+04  3.355543E+05 -5.635936E-09 -6.523603E-09
       249  13  5.356576E+05  1.228927E+05 -1.097406E+02  2.637052E+05  3.688112E-10 -4.696590E-10
       249  14  5.442907E+05  1.142765E+05  4.694764E+01  2.539407E+05  7.343966E-10 -1.210285E-08
       249  15  5.356791E+05  1.229345E+05  2.268230E+02  2.636963E+05 -1.313935E-09 -3.489973E-09
       249  16  1.332226E+05 -2.610756E+04 -8.783554E+04  1.515441E+05 -6.698081E-09 -6.843649E-10
       249  17  2.142547E+05 -7.971460E+03 -7.208552E+04  1.619438E+05  2.469888E-09 -8.294659E-10
       249  18  2.780465E+05  2.743962E+04 -5.631185E+04  1.918661E+05  7.584679E-09 -7.571776E-10
       249  19  9.382571E+05  2.719073E+05  8.760806E+04  3.759330E+05 -4.088434E+03  2.932141E+04
       249  20  8.744383E+05  2.365345E+05  7.217432E+04  3.459827E+05 -2.145048E+03  2.425630E+04
       249  21  7.933807E+05  2.184359E+05  5.676266E+04  3.355543E+05 -2.002874E+02  1.919299E+04
       249  22  5.356579E+05  1.228935E+05 -1.081739E+02  2.637050E+05 -1.002575E+04  2.707298E+04
       249  23  5.442909E+05  1.142771E+05  4.798080E+01  2.539405E+05 -8.080304E+03  2.200749E+04
       249  24  5.356792E+05  1.229348E+05  2.274333E+02  2.636962E+05 -6.133473E+03  1.694378E+04
       249  25  1.332230E+05 -2.610683E+04 -8.783390E+04  1.515438E+05 -1.595891E+04  2.482613E+04
       249  26  2.142550E+05 -7.970988E+03 -7.208442E+04  1.619436E+05 -1.401213E+04  1.975997E+04
       249  27  2.780467E+05  2.743989E+04 -5.631117E+04  1.918660E+05 -1.206395E+04  1.469559E+04
       250   1  7.408930E+05  1.989179E+05  4.494061E+04  3.209463E+05 -9.608929E+02 -1.625860E+04
       250   2  6.772146E+05  1.635866E+05  2.971287E+04  2.910588E+05 -3.206353E+03 -1.131590E+04
       250   3  5.963472E+05  1.455112E+05  1.472865E+04  2.806551E+05 -5.450899E+03 -6.377688E+03
       250   4  5.356974E+05  1.229332E+05  3.362019E+02  2.636897E+05  4.967423E+03 -1.401073E+04
       250   5  5.442967E+05  1.143079E+05  6.637059E+02  2.539485E+05  2.716630E+03 -9.069570E+03
       250   6  5.357040E+05  1.229398E+05  1.239317E+03  2.636897E+05  4.667087E+02 -4.132899E+03
       250   7  3.305431E+05  4.695140E+04 -4.427095E+04  2.064501E+05  1.089366E+04 -1.176364E+04
       250   8  4.113962E+05  6.503042E+04 -2.838650E+04  2.168454E+05  8.638263E+03 -6.823748E+03
       250   9  4.750645E+05  1.003687E+05 -1.225010E+04  2.467259E+05  6.383692E+03 -1.888349E+03
       250  10  7.408929E+05  1.989176E+05  4.494011E+04  3.209463E+05  2.186617E-08  1.394063E-09
       250  11  6.772145E+05  1.635865E+05  2.971261E+04  2.910588E+05  5.729316E-09 -6.554552E-09
       250  12  5.963472E+05  1.455111E+05  1.472852E+04  2.806551E+05 -1.972904E-08 -1.858328E-08
       250  13  5.356973E+05  1.229330E+05  3.357865E+02  2.636898E+05  3.056202E-09 -4.019615E-10
       250  14  5.442966E+05  1.143078E+05  6.635374E+02  2.539486E+05  3.939620E-09  5.173292E-10
       250  15  5.357040E+05  1.229398E+05  1.239285E+03  2.636897E+05  4.331145E-09  1.192877E-08
       250  16  3.305429E+05  4.695122E+04 -4.427143E+04  2.064502E+05 -1.760247E-08 -8.929209E-09
       250  17  4.113962E+05  6.503035E+04 -2.838673E+04  2.168455E+05  6.803316E-09  3.905083E-09
       250  18  4.750645E+05  1.003687E+05 -1.225018E+04  2.467259E+05  2.531987E-08  9.029669E-09
       250  19  7.408930E+05  1.989179E+05  4.494061E+04  3.209463E+05  9.608929E+02  1.625860E+04
       250  20  6.772146E+05  1.635866E+05  2.971287E+04  2.910588E+05  3.206353E+03  1.131590E+04
       250  21  5.963472E+05  1.455112E+05  1.472865E+04  2.806551E+05  5.450899E+03  6.377688E+03
       250  22  5.356974E+05  1.229332E+05  3.362019E+02  2.636897E+05 -4.967423E+03  1.401073E+04
       250  23  5.442967E+05  1.143079E+05  6.637059E+02  2.539485E+05 -2.716630E+03  9.069570E+03
       250  24  5.357040E+05  1.229398E+05  1.239317E+03  2.636897E+05 -4.667087E+02  4.132899E+03
       250  25  3.305431E+05  4.695140E+04 -4.427095E+04  2.064501E+05 -1.089366E+04  1.176364E+04
       250  26  4.113962E+05  6.503042E+04 -2.838650E+04  2.168454E+05 -8.638263E+03  6.823748E+03
       250  27  4.750645E+05  1.003687E+05 -1.225010E+04  2.467259E+05 -6.383692E+03  1.888349E+03
       251   1  5.439458E+05  1.260319E+05  3.235512E+03  2.661140E+05 -6.819923E+03 -3.523942E+03
       251   2  4.801856E+05  9.067893E+04 -1.096869E+04  2.362300E+05 -1.019142E+04  9.713958E+02
       251   3  3.994495E+05  7.275406E+04 -2.404470E+04  2.258336E+05 -1.354652E+04  5.425314E+03
       251   4  5.357472E+05  1.229338E+05  1.660674E+03  2.637082E+05 -8.925463E+02 -1.275379E+03
       251   5  5.442388E+05  1.142684E+05  3.022064E+03  2.539445E+05 -4.313167E+03  3.201079E+03
       251   6  5.357587E+05  1.230401E+05  5.550389E+03  2.636661E+05 -7.717592E+03  7.636082E+03
       251   7  5.275489E+05  1.198358E+05  8.599956E+01  2.613025E+05  5.034707E+03  9.731353E+02
       251   8  6.082963E+05  1.378583E+05  1.701272E+04  2.716608E+05  1.565746E+03  5.431008E+03
       251   9  6.720877E+05  1.733280E+05  3.514478E+04  3.015065E+05 -1.887236E+03  9.847385E+03
       251  10  5.439457E+05  1.260318E+05  3.235401E+03  2.661140E+05 -7.874850E-09 -5.247559E-09
       251  11  4.801855E+05  9.067890E+04 -1.096889E+04  2.362300E+05 -5.691738E-09 -1.610497E-09
       251  12  3.994493E+05  7.275397E+04 -2.404510E+04  2.258337E+05 -3.812633E-09  6.668617E-09
       251  13  5.357472E+05  1.229338E+05  1.660669E+03  2.637082E+05 -1.283748E-09 -7.322355E-10
       251  14  5.442388E+05  1.142684E+05  3.022010E+03  2.539445E+05 -5.703611E-09  3.223602E-09
       251  15  5.357586E+05  1.230400E+05  5.550167E+03  2.636662E+05 -3.074761E-09 -2.526280E-10
       251  16  5.275489E+05  1.198358E+05  8.595019E+01  2.613025E+05  6.085503E-09  1.613596E-09
       251  17  6.082963E+05  1.378583E+05  1.701266E+04  2.716608E+05 -1.491644E-09 -1.103612E-08
       251  18  6.720877E+05  1.733279E+05  3.514459E+04  3.015065E+05 -1.285485E-09  4.499747E-10
       251  19  5.439458E+05  1.260319E+05  3.235512E+03  2.661140E+05  6.819923E+03  3.523942E+03
       251  20  4.801856E+05  9.067893E+04 -1.096869E+04  2.362300E+05  1.019142E+04 -9.713958E+02
       251  21  3.994495E+05  7.275406E+04 -2.404470E+04  2.258336E+05  1.354652E+04 -5.425314E+03
       251  22  5.357472E+05  1.229338E+05  1.660674E+03  2.637082E+05  8.925463E+02  1.275379E+03
       251  23  5.442388E+05  1.142684E+05  3.022064E+03  2.539445E+05  4.313167E+03 -3.201079E+03
       251  24  5.357587E+05  1.230401E+05  5.550389E+03  2.636661E+05  7.717592E+03 -7.636082E+03
       251  25  5.275489E+05  1.198358E+05  8.599956E+01  2.613025E+05 -5.034707E+03 -9.731353E+02
       251  26  6.082963E+05  1.378583E+05  1.701272E+04  2.716608E+05 -1.565746E+03 -5.431008E+03
       251  27  6.720877E+05  1.733280E+05  3.514478E+04  3.015065E+05  1.887236E+03 -9.847385E+03
       252   1  3.468014E+05  5.346639E+04 -3.412757E+04  2.120294E+05 -1.592113E+04  7.939276E+03
       252   2  2.831139E+05  1.743464E+04 -4.394107E+04  1.807805E+05 -2.352049E+04  1.050249E+04
       252   3  2.043602E+05  2.371005E+03 -4.844012E+04  1.682863E+05 -3.081316E+04  1.226302E+04
       252   4  5.360624E+05  1.227790E+05  7.366912E+03  2.639135E+05 -9.887334E+03  1.022742E+04
       252   5  5.438046E+05  1.143353E+05  1.337933E+04  2.537257E+05 -1.842888E+04  1.243240E+04
       252   6  5.366607E+05  1.270439E+05  2.545090E+04  2.622896E+05 -2.666451E+04  1.383459E+04
       252   7  7.253596E+05  1.920943E+05  4.885937E+04  3.158120E+05 -3.851548E+03  1.251629E+04
       252   8  8.045632E+05  2.112413E+05  7.069544E+04  3.266987E+05 -1.333498E+04  1.436318E+04
       252   9  8.690705E+05  2.517255E+05  9.933446E+04  3.563387E+05 -2.251348E+04  1.540709E+04
       252  10  3.468012E+05  5.346625E+04 -3.412816E+04  2.120295E+05 -5.016872E-10 -5.398740E-12
       252  11  2.831132E+05  1.743437E+04 -4.394232E+04  1.807807E+05 -3.415782E-09  5.748139E-10
       252  12  2.043591E+05  2.370588E+03 -4.844218E+04  1.682866E+05 -1.147195E-09 -3.194421E-10
       252  13  5.360623E+05  1.227789E+05  7.366532E+03  2.639136E+05 -6.890808E-10 -7.314569E-10
       252  14  5.438042E+05  1.143351E+05  1.337840E+04  2.537259E+05  3.937640E-09 -3.332372E-09
       252  15  5.366599E+05  1.270435E+05  2.544921E+04  2.622899E+05  4.301224E-10 -1.283715E-08
       252  16  7.253595E+05  1.920942E+05  4.885904E+04  3.158121E+05  1.130460E-09  3.098073E-09
       252  17  8.045630E+05  2.112411E+05  7.069472E+04  3.266989E+05  3.029294E-09  5.184293E-09
       252  18  8.690698E+05  2.517251E+05  9.933306E+04  3.563389E+05  1.668108E-09 -3.305849E-09
       252  19  3.468014E+05  5.346639E+04 -3.412757E+04  2.120294E+05  1.592113E+04 -7.939276E+03
       252  20  2.831139E+05  1.743464E+04 -4.394107E+04  1.807805E+05  2.352049E+04 -1.050249E+04
       252  21  2.043602E+05  2.371005E+03 -4.844012E+04  1.682863E+05  3.081316E+04 -1.226302E+04
       252  22  5.360624E+05  1.227790E+05  7.366912E+03  2.639135E+05  9.887334E+03 -1.022742E+04
       252  23  5.438046E+05  1.143353E+05  1.337933E+04  2.537257E+05  1.842888E+04 -1.243240E+04
       252  24  5.366607E+05  1.270439E+05  2.545090E+04  2.622896E+05  2.666451E+04 -1.383459E+04
       252  25  7.253596E+05  1.920943E+05  4.885937E+04  3.158120E+05  3.851548E+03 -1.251629E+04
       252  26  8.045632E+05  2.112413E+05  7.069544E+04  3.266987E+05  1.333498E+04 -1.436318E+04
       252  27  8.690705E+05  2.517255E+05  9.933446E+04  3.563387E+05  2.251348E+04 -1.540709E+04
       253   1  1.449764E+05 -1.331309E+04 -5.257572E+04  1.698719E+05 -3.997313E+04  1.295912E+04
       253   2  9.676128E+04 -6.488640E+04 -4.571003E+04  1.032574E+05 -5.349202E+04  6.906341E+03
       253   3  6.489276E+04 -1.747630E+04 -5.908075E+03  3.370272E+04 -6.119797E+04 -1.449189E+04
       253   4  5.408447E+05  1.204886E+05  3.281075E+04  2.667989E+05 -3.197000E+04  1.599184E+04
       253   5  5.383897E+05  1.215467E+05  6.003802E+04  2.484402E+05 -6.344365E+04  3.132246E+03
       253   6  5.558081E+05  2.251009E+05  1.344144E+05  2.271445E+05 -8.910896E+04 -2.506992E+04
       253   7  9.368750E+05  2.542979E+05  1.181895E+05  3.637806E+05 -2.396125E+04  1.902627E+04
       253   8  9.802150E+05  3.080110E+05  1.657724E+05  3.937229E+05 -7.340294E+04 -6.456310E+02
       253   9  1.046962E+06  4.677467E+05  2.747159E+05  4.207399E+05 -1.170437E+05 -3.566338E+04
       253  10  1.449746E+05 -1.331370E+04 -5.257904E+04  1.698723E+05  4.039990E-09  5.042403E-09
       253  11  9.675819E+04 -6.488722E+04 -4.571550E+04  1.032577E+05  3.766511E-09  1.743214E-09
       253  12  6.488868E+04 -1.747753E+04 -5.915506E+03  3.370200E+04  2.061990E-09 -3.688376E-09
       253  13  5.408435E+05  1.204880E+05  3.280835E+04  2.667993E+05  3.532705E-09 -7.397821E-09
       253  14  5.383854E+05  1.215457E+05  6.003044E+04  2.484403E+05 -1.924890E-09 -9.761399E-09
       253  15  5.557995E+05  2.250981E+05  1.343983E+05  2.271427E+05 -1.926535E-11  3.012218E-09
       253  16  9.368743E+05  2.542973E+05  1.181877E+05  3.637810E+05 -2.914485E-09 -3.808209E-09
       253  17  9.802092E+05  3.080095E+05  1.657623E+05  3.937229E+05 -1.506160E-09  5.158137E-09
       253  18  1.046947E+06  4.677417E+05  2.746878E+05  4.207365E+05 -1.836814E-09  5.040442E-10
       253  19  1.449764E+05 -1.331309E+04 -5.257572E+04  1.698719E+05  3.997313E+04 -1.295912E+04
       253  20  9.676128E+04 -6.488640E+04 -4.571003E+04  1.032574E+05  5.349202E+04 -6.906341E+03
       253  21  6.489276E+04 -1.747630E+04 -5.908075E+03  3.370272E+04  6.119797E+04  1.449189E+04
       253  22  5.408447E+05  1.204886E+05  3.281075E+04  2.667989E+05  3.197000E+04 -1.599184E+04
       253  23  5.383897E+05  1.215467E+05  6.003802E+04  2.484402E+05  6.344365E+04 -3.132246E+03
       253  24  5.558081E+05  2.251009E+05  1.344144E+05  2.271445E+05  8.910896E+04  2.506992E+04
       253  25  9.368750E+05  2.542979E+05  1.181895E+05  3.637806E+05  2.396125E+04 -1.902627E+04
       253  26  9.802150E+05  3.080110E+05  1.657724E+05  3.937229E+05  7.340294E+04  6.456310E+02
       253  27  1.046962E+06  4.677467E+05  2.747159E+05  4.207399E+05  1.170437E+05  3.566338E+04
       254   1  6.398747E+04  8.670068E+02 -1.605197E+03 -2.353316E+02 -7.450594E+03 -7.108832E+02
       254   2  5.704429E+04  9.947298E+03  2.893928E+03  2.468872E+03 -5.569747E+03 -2.141786E+03
       254   3  4.739698E+04  9.275910E+03  3.729516E+03  7.840887E+03 -3.693779E+03 -2.149373E+03
       254   4  1.079097E+04 -1.227297E+04 -1.437844E+04  6.251117E+03 -9.925748E+03 -7.194092E+02
       254   5  1.228567E+04 -9.022592E+02 -6.698997E+03  4.895477E+03 -6.405399E+03 -2.144679E+03
       254   6  1.079126E+04  4.316881E+02 -3.821843E+03  6.207695E+03 -2.889893E+03 -2.146613E+03
       254   7 -4.240283E+04 -2.541299E+04 -2.715183E+04  1.273701E+04 -1.240069E+04 -7.279872E+02
       254   8 -3.247105E+04 -1.175192E+04 -1.629203E+04  7.321902E+03 -7.240992E+03 -2.147580E+03
       254   9 -2.581317E+04 -8.412609E+03 -1.137327E+04  4.574601E+03 -2.086054E+03 -2.143856E+03
       254  10  6.398741E+04  8.669913E+02 -1.605302E+03 -2.353359E+02 -6.516624E-09  8.789919E-10
       254  11  5.704426E+04  9.947284E+03  2.893861E+03  2.468862E+03  1.904808E-09  1.002909E-08
       254  12  4.739696E+04  9.275902E+03  3.729481E+03  7.840880E+03  5.199422E-09  4.790051E-09
       254  13  1.079087E+04 -1.227300E+04 -1.437862E+04  6.251111E+03 -6.780903E-12 -6.006463E-09
       254  14  1.228563E+04 -9.022751E+02 -6.699083E+03  4.895466E+03  9.021558E-10 -1.168977E-08
       254  15  1.079125E+04  4.316809E+02 -3.821868E+03  6.207690E+03 -2.148223E-09  4.523948E-10
       254  16 -4.240299E+04 -2.541303E+04 -2.715212E+04  1.273700E+04  6.840226E-09  8.466833E-10
       254  17 -3.247111E+04 -1.175194E+04 -1.629214E+04  7.321890E+03  9.189217E-10  9.777281E-09
       254  18 -2.581318E+04 -8.412615E+03 -1.137329E+04  4.574597E+03 -4.498897E-09  1.424634E-09
       254  19  6.398747E+04  8.670068E+02 -1.605197E+03 -2.353316E+02  7.450594E+03  7.108832E+02
       254  20  5.704429E+04  9.947298E+03  2.893928E+03  2.468872E+03  5.569747E+03  2.141786E+03
       254  21  4.739698E+04  9.275910E+03  3.729516E+03  7.840887E+03  3.693779E+03  2.149373E+03
       254  22  1.079097E+04 -1.227297E+04 -1.437844E+04  6.251117E+03  9.925748E+03  7.194092E+02
       254  23  1.228567E+04 -9.022592E+02 -6.698997E+03  4.895477E+03  6.405399E+03  2.144679E+03
       254  24  1.079126E+04  4.316881E+02 -3.821843E+03  6.207695E+03  2.889893E+03  2.146613E+03
       254  25 -4.240283E+04 -2.541299E+04 -2.715183E+04  1.273701E+04  1.240069E+04  7.279872E+02
       254  26 -3.247105E+04 -1.175192E+04 -1.629203E+04  7.321902E+03  7.240992E+03  2.147580E+03
       254  27 -2.581317E+04 -8.412609E+03 -1.137327E+04  4.574601E+03  2.086054E+03  2.143856E+03
       255   1  4.195075E+04  6.910873E+03  3.324711E+03  6.145029E+03 -2.823265E+03 -1.771960E+03
       255   2  3.380761E+04  5.394416E+03  2.932019E+03  4.898572E+03 -2.091634E+03 -1.339126E+03
       255   3  2.544086E+04  3.457362E+03  1.952320E+03  6.369947E+03 -1.360292E+03 -8.312838E+02
       255   4  1.140249E+04 -4.605516E+02 -2.990237E+03  6.229140E+03 -2.370651E+03 -1.770410E+03
       255   5  1.152196E+04  2.293518E+01 -1.640321E+03  4.869303E+03 -1.552650E+03 -1.337273E+03
       255   6  1.140260E+04  7.078822E+01 -9.374504E+02  6.227307E+03 -7.349299E+02 -8.291265E+02
       255   7 -1.914488E+04 -7.832035E+03 -9.305236E+03  6.313245E+03 -1.918059E+03 -1.768861E+03
       255   8 -1.076323E+04 -5.348577E+03 -6.212687E+03  4.840034E+03 -1.013686E+03 -1.335421E+03
       255   9 -2.635468E+03 -3.315798E+03 -3.827230E+03  6.084671E+03 -1.095822E+02 -8.269694E+02
       255  10  4.195074E+04  6.910867E+03  3.324690E+03  6.145025E+03 -2.273749E-09  7.630706E-11
       255  11  3.380761E+04  5.394413E+03  2.932007E+03  4.898569E+03  2.145364E-09  4.307000E-09
       255  12  2.544086E+04  3.457361E+03  1.952315E+03  6.369946E+03  4.660088E-09  9.606247E-09
       255  13  1.140248E+04 -4.605564E+02 -2.990254E+03  6.229136E+03  2.138409E-09  1.059268E-08
       255  14  1.152195E+04  2.293261E+01 -1.640329E+03  4.869301E+03  1.465607E-09 -1.496725E-08
       255  15  1.140260E+04  7.078733E+01 -9.374527E+02  6.227307E+03 -2.584904E-10  8.102069E-09
       255  16 -1.914488E+04 -7.832039E+03 -9.305249E+03  6.313243E+03  2.341423E-09 -7.158323E-09
       255  17 -1.076323E+04 -5.348579E+03 -6.212692E+03  4.840033E+03 -1.787325E-09 -1.557164E-09
       255  18 -2.635469E+03 -3.315799E+03 -3.827231E+03  6.084671E+03 -5.201676E-09  4.324412E-09
       255  19  4.195075E+04  6.910873E+03  3.324711E+03  6.145029E+03  2.823265E+03  1.771960E+03
       255  20  3.380761E+04  5.394416E+03  2.932019E+03  4.898572E+03  2.091634E+03  1.339126E+03
       255  21  2.544086E+04  3.457362E+03  1.952320E+03  6.369947E+03  1.360292E+03  8.312838E+02
       255  22  1.140249E+04 -4.605516E+02 -2.990237E+03  6.229140E+03  2.370651E+03  1.770410E+03
       255  23  1.152196E+04  2.293518E+01 -1.640321E+03  4.869303E+03  1.552650E+03  1.337273E+03
       255  24  1.140260E+04  7.078822E+01 -9.374504E+02  6.227307E+03  7.349299E+02  8.291265E+02
       255  25 -1.914488E+04 -7.832035E+03 -9.305236E+03  6.313245E+03  1.918059E+03  1.768861E+03
       255  26 -1.076323E+04 -5.348577E+03 -6.212687E+03  4.840034E+03  1.013686E+03  1.335421E+03
       255  27 -2.635468E+03 -3.315798E+03 -3.827230E+03  6.084671E+03  1.095822E+02  8.269694E+02
       256   1  1.945790E+04  1.958920E+03  9.077267E+02  6.275356E+03 -1.197341E+03 -5.164668E+02
       256   2  1.122933E+04 -1.669845E+01 -4.434458E+02  4.887812E+03 -1.007803E+03  1.292928E+01
       256   3  2.951880E+03 -1.994326E+03 -1.924416E+03  6.221257E+03 -8.182773E+02  5.462723E+02
       256   4  1.144468E+04  3.218492E+01 -7.113628E+02  6.228470E+03 -5.905003E+02 -5.143716E+02
       256   5  1.146948E+04  4.070278E+01 -3.957516E+02  4.867949E+03 -3.964171E+02  1.503994E+01
       256   6  1.144467E+04  4.645751E+01 -2.130632E+02  6.228418E+03 -2.023443E+02  5.483987E+02
       256   7  3.431513E+03 -1.894554E+03 -2.330454E+03  6.181584E+03  1.633268E+01 -5.122765E+02
       256   8  1.170963E+04  9.810421E+01 -3.480560E+02  4.848086E+03  2.149688E+02  1.715056E+01
       256   9  1.993754E+04  2.087236E+03  1.498287E+03  6.235578E+03  4.135970E+02  5.505251E+02
       256  10  1.945790E+04  1.958920E+03  9.077235E+02  6.275356E+03  5.830741E-09 -2.126563E-09
       256  11  1.122933E+04 -1.669872E+01 -4.434477E+02  4.887812E+03  2.265365E-10 -2.628289E-09
       256  12  2.951880E+03 -1.994326E+03 -1.924418E+03  6.221257E+03 -2.886034E-09  1.046118E-09
       256  13  1.144468E+04  3.218454E+01 -7.113640E+02  6.228470E+03 -1.073398E-09 -1.117867E-09
       256  14  1.146948E+04  4.070274E+01 -3.957519E+02  4.867949E+03  1.473725E-09 -8.730681E-09
       256  15  1.144467E+04  4.645717E+01 -2.130639E+02  6.228418E+03 -5.222761E-10 -3.411255E-09
       256  16  3.431513E+03 -1.894555E+03 -2.330455E+03  6.181584E+03 -6.820141E-09 -6.998290E-09
       256  17  1.170963E+04  9.810420E+01 -3.480561E+02  4.848086E+03  8.295372E-10 -1.911170E-10
       256  18  1.993754E+04  2.087236E+03  1.498287E+03  6.235578E+03  2.843331E-09  8.090889E-09
       256  19  1.945790E+04  1.958920E+03  9.077267E+02  6.275356E+03  1.197341E+03  5.164668E+02
       256  20  1.122933E+04 -1.669845E+01 -4.434458E+02  4.887812E+03  1.007803E+03 -1.292928E+01
       256  21  2.951880E+03 -1.994326E+03 -1.924416E+03  6.221257E+03  8.182773E+02 -5.462723E+02
       256  22  1.144468E+04  3.218492E+01 -7.113628E+02  6.228470E+03  5.905003E+02  5.143716E+02
       256  23  1.146948E+04  4.070278E+01 -3.957516E+02  4.867949E+03  3.964171E+02 -1.503994E+01
       256  24  1.144467E+04  4.645751E+01 -2.130632E+02  6.228418E+03  2.023443E+02 -5.483987E+02
       256  25  3.431513E+03 -1.894554E+03 -2.330454E+03  6.181584E+03 -1.633268E+01  5.122765E+02
       256  26  1.170963E+04  9.810421E+01 -3.480560E+02  4.848086E+03 -2.149688E+02 -1.715056E+01
       256  27  1.993754E+04  2.087236E+03  1.498287E+03  6.235578E+03 -4.135970E+02 -5.505251E+02
       257   1 -3.065043E+03 -3.454918E+03 -3.133480E+03  6.201176E+03 -7.855901E+02  8.574718E+02
       257   2 -1.130702E+04 -5.448649E+03 -4.699587E+03  4.817555E+03 -7.614714E+02  1.391486E+03
       257   3 -1.957113E+04 -7.424658E+03 -6.282814E+03  6.155224E+03 -7.373411E+02  1.925690E+03
       257   4  1.145073E+04  4.505506E+01 -1.496723E+02  6.228502E+03 -1.706294E+02  8.595928E+02
       257   5  1.146178E+04  3.461914E+01 -5.292205E+01  4.867864E+03 -1.462968E+02  1.393601E+03
       257   6  1.145061E+04  4.187123E+01  2.656000E+01  6.228510E+03 -1.219523E+02  1.927799E+03
       257   7  2.596670E+04  3.545015E+03  2.834126E+03  6.255829E+03  4.443454E+02  8.617137E+02
       257   8  3.423108E+04  5.517855E+03  4.593717E+03  4.918175E+03  4.688999E+02  1.395716E+03
       257   9  4.247326E+04  7.508341E+03  6.335885E+03  6.301799E+03  4.934667E+02  1.929908E+03
       257  10 -3.065044E+03 -3.454919E+03 -3.133483E+03  6.201176E+03  2.872060E-08 -3.248152E-09
       257  11 -1.130703E+04 -5.448651E+03 -4.699592E+03  4.817556E+03 -4.511550E-09  5.841967E-09
       257  12 -1.957113E+04 -7.424662E+03 -6.282822E+03  6.155225E+03 -3.467777E-08 -9.388900E-11
       257  13  1.145073E+04  4.505426E+01 -1.496737E+02  6.228503E+03 -1.062997E-09  4.674400E-09
       257  14  1.146178E+04  3.461704E+01 -5.292574E+01  4.867864E+03 -1.172216E-09 -4.431570E-09
       257  15  1.145061E+04  4.186724E+01  2.655298E+01  6.228510E+03 -5.022935E-10 -4.277361E-09
       257  16  2.596670E+04  3.545014E+03  2.834124E+03  6.255829E+03 -2.996030E-08  8.774571E-10
       257  17  3.423108E+04  5.517853E+03  4.593713E+03  4.918175E+03  5.921435E-09  7.999208E-09
       257  18  4.247326E+04  7.508336E+03  6.335877E+03  6.301798E+03  3.504745E-08  1.495258E-09
       257  19 -3.065043E+03 -3.454918E+03 -3.133480E+03  6.201176E+03  7.855901E+02 -8.574718E+02
       257  20 -1.130702E+04 -5.448649E+03 -4.699587E+03  4.817555E+03  7.614714E+02 -1.391486E+03
       257  21 -1.957113E+04 -7.424658E+03 -6.282814E+03  6.155224E+03  7.373411E+02 -1.925690E+03
       257  22  1.145073E+04  4.505506E+01 -1.496723E+02  6.228502E+03  1.706294E+02 -8.595928E+02
       257  23  1.146178E+04  3.461914E+01 -5.292205E+01  4.867864E+03  1.462968E+02 -1.393601E+03
       257  24  1.145061E+04  4.187123E+01  2.656000E+01  6.228510E+03  1.219523E+02 -1.927799E+03
       257  25  2.596670E+04  3.545015E+03  2.834126E+03  6.255829E+03 -4.443454E+02 -8.617137E+02
       257  26  3.423108E+04  5.517855E+03  4.593717E+03  4.918175E+03 -4.688999E+02 -1.395716E+03
       257  27  4.247326E+04  7.508341E+03  6.335885E+03  6.301799E+03 -4.934667E+02 -1.929908E+03
       258   1 -2.559076E+04 -8.883903E+03 -7.514132E+03  6.140159E+03 -7.470461E+02  2.236609E+03
       258   2 -3.384078E+04 -1.087990E+04 -9.075219E+03  4.763596E+03 -8.321514E+02  2.770378E+03
       258   3 -4.209730E+04 -1.285501E+04 -1.058138E+04  6.108776E+03 -9.172279E+02  3.303710E+03
       258   4  1.145399E+04  4.184365E+01  6.784124E+01  6.228610E+03 -1.315890E+02  2.238712E+03
       258   5  1.145717E+04  2.916241E+01  1.696024E+02  4.867751E+03 -2.172114E+02  2.772466E+03
       258   6  1.145375E+04  3.742256E+01  3.266122E+02  6.228621E+03 -3.028061E+02  3.305783E+03
       258   7  4.850005E+04  8.967505E+03  7.649743E+03  6.317066E+03  4.839042E+02  2.240815E+03
       258   8  5.675708E+04  1.093809E+04  9.414317E+03  4.971911E+03  3.977727E+02  2.774553E+03
       258   9  6.500753E+04  1.292968E+04  1.123446E+04  6.348474E+03  3.116678E+02  3.307856E+03
       258  10 -2.559077E+04 -8.883909E+03 -7.514142E+03  6.140160E+03  1.984152E-09  2.445578E-09
       258  11 -3.384079E+04 -1.087991E+04 -9.075235E+03  4.763598E+03 -1.457219E-09 -7.397991E-09
       258  12 -4.209731E+04 -1.285502E+04 -1.058140E+04  6.108779E+03 -8.152788E-09 -2.994643E-09
       258  13  1.145399E+04  4.183826E+01  6.783179E+01  6.228610E+03 -1.081842E-09  7.614247E-09
       258  14  1.145717E+04  2.915415E+01  1.695879E+02  4.867751E+03  2.553267E-09 -1.347607E-09
       258  15  1.145375E+04  3.741080E+01  3.265915E+02  6.228622E+03  1.114872E-09 -4.268119E-09
       258  16  4.850005E+04  8.967499E+03  7.649733E+03  6.317065E+03 -2.164781E-09  2.818884E-09
       258  17  5.675708E+04  1.093809E+04  9.414303E+03  4.971910E+03  2.396808E-09 -1.710694E-08
       258  18  6.500753E+04  1.292966E+04  1.123443E+04  6.348473E+03  9.068655E-09 -7.213181E-09
       258  19 -2.559076E+04 -8.883903E+03 -7.514132E+03  6.140159E+03  7.470461E+02 -2.236609E+03
       258  20 -3.384078E+04 -1.087990E+04 -9.075219E+03  4.763596E+03  8.321514E+02 -2.770378E+03
       258  21 -4.209730E+04 -1.285501E+04 -1.058138E+04  6.108776E+03  9.172279E+02 -3.303710E+03
       258  22  1.145399E+04  4.184365E+01  6.784124E+01  6.228610E+03  1.315890E+02 -2.238712E+03
       258  23  1.145717E+04  2.916241E+01  1.696024E+02  4.867751E+03  2.172114E+02 -2.772466E+03
       258  24  1.145375E+04  3.742256E+01  3.266122E+02  6.228621E+03  3.028061E+02 -3.305783E+03
       258  25  4.850005E+04  8.967505E+03  7.649743E+03  6.317066E+03 -4.839042E+02 -2.240815E+03
       258  26  5.675708E+04  1.093809E+04  9.414317E+03  4.971911E+03 -3.977727E+02 -2.774553E+03
       258  27  6.500753E+04  1.292968E+04  1.123446E+04  6.348474E+03 -3.116678E+02 -3.307856E+03
       259   1 -4.811008E+04 -1.431712E+04 -1.174157E+04  6.102052E+03 -9.896766E+02  3.614803E+03
       259   2 -5.638479E+04 -1.631734E+04 -1.306867E+04  4.732403E+03 -1.365945E+03  4.144463E+03
       259   3 -6.461818E+04 -1.825948E+04 -1.414182E+04  6.083513E+03 -1.742147E+03  4.665390E+03
       259   4  1.146465E+04  3.460436E+01  4.389282E+02  6.228438E+03 -3.730857E+02  3.616873E+03
       259   5  1.144291E+04  1.811428E+01  7.770107E+02  4.868019E+03 -7.594499E+02  4.146479E+03
       259   6  1.146429E+04  6.148356E+01  1.376072E+03  6.228341E+03 -1.145754E+03  4.667352E+03
       259   7  7.104277E+04  1.438611E+04  1.261924E+04  6.354834E+03  2.435633E+02  3.618944E+03
       259   8  7.927499E+04  1.635328E+04  1.462245E+04  5.003647E+03 -1.528900E+02  4.148495E+03
       259   9  8.755227E+04  1.838209E+04  1.689366E+04  6.373182E+03 -5.492879E+02  4.669314E+03
       259  10 -4.811009E+04 -1.431714E+04 -1.174159E+04  6.102054E+03 -5.392900E-09 -3.246994E-09
       259  11 -5.638480E+04 -1.631736E+04 -1.306871E+04  4.732408E+03  3.308937E-10 -9.064502E-09
       259  12 -6.461819E+04 -1.825951E+04 -1.414186E+04  6.083519E+03  5.182550E-09 -4.366982E-09
       259  13  1.146465E+04  3.459028E+01  4.389034E+02  6.228439E+03  6.898688E-12 -4.310785E-09
       259  14  1.144291E+04  1.809567E+01  7.769773E+02  4.868022E+03  3.694786E-10  6.497846E-09
       259  15  1.146429E+04  6.145982E+01  1.376029E+03  6.228345E+03  1.504835E-09 -1.564074E-09
       259  16  7.104276E+04  1.438610E+04  1.261921E+04  6.354833E+03  6.876792E-09  4.055469E-09
       259  17  7.927499E+04  1.635326E+04  1.462242E+04  5.003647E+03  1.774604E-09 -5.620808E-09
       259  18  8.755227E+04  1.838206E+04  1.689362E+04  6.373184E+03 -5.390712E-09  2.753591E-09
       259  19 -4.811008E+04 -1.431712E+04 -1.174157E+04  6.102052E+03  9.896766E+02 -3.614803E+03
       259  20 -5.638479E+04 -1.631734E+04 -1.306867E+04  4.732403E+03  1.365945E+03 -4.144463E+03
       259  21 -6.461818E+04 -1.825948E+04 -1.414182E+04  6.083513E+03  1.742147E+03 -4.665390E+03
       259  22  1.146465E+04  3.460436E+01  4.389282E+02  6.228438E+03  3.730857E+02 -3.616873E+03
       259  23  1.144291E+04  1.811428E+01  7.770107E+02  4.868019E+03  7.594499E+02 -4.146479E+03
       259  24  1.146429E+04  6.148356E+01  1.376072E+03  6.228341E+03  1.145754E+03 -4.667352E+03
       259  25  7.104277E+04  1.438611E+04  1.261924E+04  6.354834E+03 -2.435633E+02 -3.618944E+03
       259  26  7.927499E+04  1.635328E+04  1.462245E+04  5.003647E+03  1.528900E+02 -4.148495E+03
       259  27  8.755227E+04  1.838209E+04  1.689366E+04  6.373182E+03  5.492879E+02 -4.669314E+03
       260   1 -7.056737E+04 -1.979249E+04 -1.497846E+04  6.221264E+03 -2.065184E+03  4.982697E+03
       260   2 -7.900888E+04 -2.171989E+04 -1.533924E+04  4.585993E+03 -3.451150E+03  5.448492E+03
       260   3 -8.707625E+04 -2.278944E+04 -1.458822E+04  5.662172E+03 -4.836509E+03  5.748284E+03
       260   4  1.154500E+04 -1.290641E+01  1.808000E+03  6.227130E+03 -1.427830E+03  4.984784E+03
       260   5  1.134115E+04  5.098526E+01  3.154493E+03  4.869719E+03 -3.005219E+03  5.449913E+03
       260   6  1.154453E+04  1.005882E+03  5.745595E+03  6.223729E+03 -4.582019E+03  5.749051E+03
       260   7  9.366378E+04  1.976625E+04  1.859410E+04  6.232992E+03 -7.903925E+02  4.986869E+03
       260   8  1.016989E+05  2.182135E+04  2.164779E+04  5.153480E+03 -2.559224E+03  5.451335E+03
       260   9  1.101745E+05  2.480059E+04  2.607888E+04  6.785369E+03 -4.327489E+03  5.749819E+03
       260  10 -7.056738E+04 -1.979251E+04 -1.497851E+04  6.221272E+03  3.973134E-09 -3.339300E-09
       260  11 -7.900890E+04 -2.171992E+04 -1.533931E+04  4.586009E+03 -1.336331E-10  1.171295E-08
       260  12 -8.707628E+04 -2.278948E+04 -1.458832E+04  5.662195E+03 -4.217220E-09 -1.429942E-09
       260  13  1.154500E+04 -1.293364E+01  1.807950E+03  6.227136E+03  1.124225E-11 -1.158395E-08
       260  14  1.134113E+04  5.095094E+01  3.154420E+03  4.869732E+03  3.586336E-09  6.512855E-09
       260  15  1.154450E+04  1.005841E+03  5.745493E+03  6.223750E+03 -1.060226E-09  4.161014E-09
       260  16  9.366378E+04  1.976623E+04  1.859406E+04  6.232995E+03 -4.974109E-09 -8.011901E-09
       260  17  1.016989E+05  2.182131E+04  2.164772E+04  5.153491E+03  3.805109E-09 -1.101269E-08
       260  18  1.101745E+05  2.480055E+04  2.607879E+04  6.785389E+03  2.054755E-09  8.722312E-10
       260  19 -7.056737E+04 -1.979249E+04 -1.497846E+04  6.221264E+03  2.065184E+03 -4.982697E+03
       260  20 -7.900888E+04 -2.171989E+04 -1.533924E+04  4.585993E+03  3.451150E+03 -5.448492E+03
       260  21 -8.707625E+04 -2.278944E+04 -1.458822E+04  5.662172E+03  4.836509E+03 -5.748284E+03
       260  22  1.154500E+04 -1.290641E+01  1.808000E+03  6.227130E+03  1.427830E+03 -4.984784E+03
       260  23  1.134115E+04  5.098526E+01  3.154493E+03  4.869719E+03  3.005219E+03 -5.449913E+03
       260  24  1.154453E+04  1.005882E+03  5.745595E+03  6.223729E+03  4.582019E+03 -5.749051E+03
       260  25  9.366378E+04  1.976625E+04  1.859410E+04  6.232992E+03  7.903925E+02 -4.986869E+03
       260  26  1.016989E+05  2.182135E+04  2.164779E+04  5.153480E+03  2.559224E+03 -5.451335E+03
       260  27  1.101745E+05  2.480059E+04  2.607888E+04  6.785369E+03  4.327489E+03 -5.749819E+03
       261   1 -9.204851E+04 -2.594629E+04 -1.418428E+04  8.889518E+03 -6.615445E+03  6.193988E+03
       261   2 -1.028148E+05 -2.555734E+04 -1.116188E+04 -2.568592E+02 -9.734930E+03  5.504877E+03
       261   3 -1.085160E+05 -6.465794E+03 -1.434484E+03 -6.895476E+03 -1.284416E+04  1.665206E+03
       261   4  1.271911E+04 -7.086628E+02  7.342344E+03  6.197387E+03 -5.583674E+03  6.197331E+03
       261   5  9.871839E+03  1.826304E+03  1.286710E+04  4.903825E+03 -1.233317E+04  5.496258E+03
       261   6  1.271872E+04  2.369200E+04  2.761688E+04  6.117860E+03 -1.907246E+04  1.644805E+03
       261   7  1.174972E+05  2.452830E+04  2.886839E+04  3.504785E+03 -4.551732E+03  6.200665E+03
       261   8  1.225705E+05  2.920922E+04  3.689539E+04  1.006545E+04 -1.493188E+04  5.487597E+03
       261   9  1.339673E+05  5.384937E+04  5.666744E+04  1.913374E+04 -2.530197E+04  1.624145E+03
       261  10 -9.204857E+04 -2.594634E+04 -1.418443E+04  8.889551E+03  6.329145E-09  1.171151E-09
       261  11 -1.028150E+05 -2.555740E+04 -1.116211E+04 -2.568160E+02  6.897845E-09  3.582050E-09
       261  12 -1.085162E+05 -6.465841E+03 -1.434799E+03 -6.895459E+03  5.139670E-09  8.366000E-09
       261  13  1.271907E+04 -7.087124E+02  7.342213E+03  6.197415E+03 -2.166029E-09  2.247179E-09
       261  14  9.871668E+03  1.826230E+03  1.286676E+04  4.903880E+03 -1.291081E-09  3.428733E-10
       261  15  1.271832E+04  2.369190E+04  2.761619E+04  6.117886E+03 -7.893475E-10  2.202719E-09
       261  16  1.174971E+05  2.452825E+04  2.886827E+04  3.504808E+03 -7.369103E-09  5.198920E-09
       261  17  1.225703E+05  2.920912E+04  3.689491E+04  1.006552E+04 -5.154956E-09  7.477055E-09
       261  18  1.339666E+05  5.384920E+04  5.666623E+04  1.913377E+04 -6.202027E-09 -6.137793E-10
       261  19 -9.204851E+04 -2.594629E+04 -1.418428E+04  8.889518E+03  6.615445E+03 -6.193988E+03
       261  20 -1.028148E+05 -2.555734E+04 -1.116188E+04 -2.568592E+02  9.734930E+03 -5.504877E+03
       261  21 -1.085160E+05 -6.465794E+03 -1.434484E+03 -6.895476E+03  1.284416E+04 -1.665206E+03
       261  22  1.271911E+04 -7.086628E+02  7.342344E+03  6.197387E+03  5.583674E+03 -6.197331E+03
       261  23  9.871839E+03  1.826304E+03  1.286710E+04  4.903825E+03  1.233317E+04 -5.496258E+03
       261  24  1.271872E+04  2.369200E+04  2.761688E+04  6.117860E+03  1.907246E+04 -1.644805E+03
       261  25  1.174972E+05  2.452830E+04  2.886839E+04  3.504785E+03  4.551732E+03 -6.200665E+03
       261  26  1.225705E+05  2.920922E+04  3.689539E+04  1.006545E+04  1.493188E+04 -5.487597E+03
       261  27  1.339673E+05  5.384937E+04  5.666744E+04  1.913374E+04  2.530197E+04 -1.624145E+03
       262   1 -2.443902E+05 -1.004699E+06 -2.496816E+05  1.544152E+05 -8.319583E+03 -8.309962E+04
       262   2 -1.404461E+05 -8.398440E+05 -1.570916E+05  1.070464E+05 -2.538776E+04 -4.105625E+04
       262   3 -9.534025E+04 -6.947045E+05 -1.065599E+05  1.095987E+05 -2.301802E+04  1.063014E+03
       262   4 -6.762397E+04 -2.942121E+05 -7.829770E+04  1.167132E+05 -8.410740E+03 -5.246026E+04
       262   5 -5.675547E+03 -2.862632E+05 -3.771410E+04  9.185712E+04 -2.541026E+04 -3.276132E+04
       262   6  1.347344E+03 -2.941493E+05 -2.363507E+04  1.169260E+05 -2.297662E+04 -1.299820E+04
       262   7  1.091110E+05  4.167414E+05  9.305435E+04  7.896825E+04 -8.505575E+03 -2.178588E+04
       262   8  1.290757E+05  2.676065E+05  8.164568E+04  7.665432E+04 -2.543315E+04 -2.445907E+04
       262   9  9.802509E+04  1.065587E+05  5.928184E+04  1.242582E+05 -2.293558E+04 -2.706833E+04
       262  10 -2.443921E+05 -1.004706E+06 -2.496948E+05  1.544146E+05  6.825269E-10 -3.769954E-09
       262  11 -1.404473E+05 -8.398460E+05 -1.570960E+05  1.070455E+05 -1.499917E-09 -3.616237E-09
       262  12 -9.534082E+04 -6.947047E+05 -1.065609E+05  1.095987E+05 -1.265476E-09 -3.766160E-09
       262  13 -6.762478E+04 -2.942151E+05 -7.830301E+04  1.167129E+05 -1.038017E-10  1.427162E-11
       262  14 -5.676529E+03 -2.862645E+05 -3.771733E+04  9.185645E+04 -1.004810E-09 -6.471211E-09
       262  15  1.346732E+03 -2.941496E+05 -2.363638E+04  1.169258E+05 -5.860441E-10 -2.780069E-09
       262  16  1.091108E+05  4.167409E+05  9.305332E+04  7.896810E+04 -1.291868E-10 -1.985567E-09
       262  17  1.290748E+05  2.676057E+05  8.164334E+04  7.665382E+04  3.115953E-10 -4.643128E-09
       262  18  9.802433E+04  1.065578E+05  5.927947E+04  1.242577E+05 -2.016551E-09  6.512572E-10
       262  19 -2.443902E+05 -1.004699E+06 -2.496816E+05  1.544152E+05  8.319583E+03  8.309962E+04
       262  20 -1.404461E+05 -8.398440E+05 -1.570916E+05  1.070464E+05  2.538776E+04  4.105625E+04
       262  21 -9.534025E+04 -6.947045E+05 -1.065599E+05  1.095987E+05  2.301802E+04 -1.063014E+03
       262  22 -6.762397E+04 -2.942121E+05 -7.829770E+04  1.167132E+05  8.410740E+03  5.246026E+04
       262  23 -5.675547E+03 -2.862632E+05 -3.771410E+04  9.185712E+04  2.541026E+04  3.276132E+04
       262  24  1.347344E+03 -2.941493E+05 -2.363507E+04  1.169260E+05  2.297662E+04  1.299820E+04
       262  25  1.091110E+05  4.167414E+05  9.305435E+04  7.896825E+04  8.505575E+03  2.178588E+04
       262  26  1.290757E+05  2.676065E+05  8.164568E+04  7.665432E+04  2.543315E+04  2.445907E+04
       262  27  9.802509E+04  1.065587E+05  5.928184E+04  1.242582E+05  2.293558E+04  2.706833E+04
       263   1 -7.259232E+04 -5.777353E+05 -7.968527E+04  1.191236E+05 -1.627097E+04 -1.280872E+02
       263   2 -3.236585E+04 -4.216972E+05 -4.299040E+04  9.191632E+04 -7.931630E+03  8.299015E+03
       263   3  2.988673E+03 -2.675621E+05 -1.291201E+04  1.157591E+05  7.608517E+02  1.672798E+04
       263   4 -3.308122E+03 -2.910278E+05 -2.017250E+04  1.171265E+05 -1.624393E+04 -9.555182E+03
       263   5 -6.366913E+02 -2.900939E+05 -1.600710E+04  9.160237E+04 -7.904040E+03 -1.533187E+03
       263   6 -2.764684E+03 -2.910149E+05 -1.817443E+04  1.171280E+05  7.889172E+02  6.488649E+03
       263   7  6.597091E+04 -4.242176E+03  3.933611E+04  1.151286E+05 -1.621683E+04 -1.898656E+04
       263   8  3.109143E+04 -1.584740E+05  1.097566E+04  9.128835E+04 -7.876443E+03 -1.136744E+04
       263   9 -8.518014E+03 -3.144670E+05 -2.343649E+04  1.184968E+05  8.169381E+02 -3.750299E+03
       263  10 -7.259261E+04 -5.777354E+05 -7.968577E+04  1.191236E+05 -1.491861E-09  1.528406E-08
       263  11 -3.236593E+04 -4.216973E+05 -4.299065E+04  9.191638E+04 -8.800011E-10 -1.953683E-09
       263  12  2.988597E+03 -2.675624E+05 -1.291254E+04  1.157591E+05 -4.080879E-10 -2.877094E-08
       263  13 -3.308430E+03 -2.910280E+05 -2.017317E+04  1.171264E+05 -1.518385E-09 -4.298977E-09
       263  14 -6.367590E+02 -2.900940E+05 -1.600722E+04  9.160236E+04 -2.686070E-09 -3.282422E-09
       263  15 -2.764696E+03 -2.910150E+05 -1.817451E+04  1.171280E+05 -3.179593E-10  1.331501E-09
       263  16  6.597053E+04 -4.242633E+03  3.933494E+04  1.151284E+05 -1.294523E-09 -2.117932E-08
       263  17  3.109133E+04 -1.584742E+05  1.097530E+04  9.128828E+04  3.014060E-10  2.841608E-09
       263  18 -8.518019E+03 -3.144670E+05 -2.343652E+04  1.184968E+05  4.262933E-10  2.729592E-08
       263  19 -7.259232E+04 -5.777353E+05 -7.968527E+04  1.191236E+05  1.627097E+04  1.280872E+02
       263  20 -3.236585E+04 -4.216972E+05 -4.299040E+04  9.191632E+04  7.931630E+03 -8.299015E+03
       263  21  2.988673E+03 -2.675621E+05 -1.291201E+04  1.157591E+05 -7.608517E+02 -1.672798E+04
       263  22 -3.308122E+03 -2.910278E+05 -2.017250E+04  1.171265E+05  1.624393E+04  9.555182E+03
       263  23 -6.366913E+02 -2.900939E+05 -1.600710E+04  9.160237E+04  7.904040E+03  1.533187E+03
       263  24 -2.764684E+03 -2.910149E+05 -1.817443E+04  1.171280E+05 -7.889172E+02 -6.488649E+03
       263  25  6.597091E+04 -4.242176E+03  3.933611E+04  1.151286E+05  1.621683E+04  1.898656E+04
       263  26  3.109143E+04 -1.584740E+05  1.097566E+04  9.128835E+04  7.876443E+03  1.136744E+04
       263  27 -8.518014E+03 -3.144670E+05 -2.343649E+04  1.184968E+05 -8.169381E+02  3.750299E+03
       264   1  3.417152E+04 -1.563533E+05  8.228844E+03  1.234369E+05  7.205960E+03  2.270745E+04
       264   2  6.629951E+04  4.008293E+03  3.197051E+04  7.961965E+04  1.224232E+04  2.458610E+04
       264   3  5.566406E+04  1.538657E+05  4.388764E+04  8.614092E+04  4.549232E+03  2.642670E+04
       264   4  1.009336E+03 -2.935120E+05 -2.060963E+04  1.170090E+05  7.241979E+03  9.564840E+03
       264   5 -4.699053E+03 -2.869899E+05 -3.157380E+04  9.175428E+04  1.223889E+04  2.610094E+04
       264   6 -5.572755E+04 -2.935480E+05 -6.454939E+04  1.168436E+05  4.503755E+03  4.259807E+04
       264   7 -3.215380E+04 -4.306524E+05 -4.944848E+04  1.105826E+05  7.278273E+03 -3.574907E+03
       264   8 -7.570272E+04 -5.779084E+05 -9.512314E+04  1.038832E+05  1.223552E+04  2.761507E+04
       264   9 -1.671303E+05 -7.407763E+05 -1.729994E+05  1.475241E+05  4.459862E+03  5.875782E+04
       264  10  3.417132E+04 -1.563539E+05  8.227777E+03  1.234368E+05  2.016945E-09 -3.334750E-09
       264  11  6.629918E+04  4.007604E+03  3.196909E+04  7.961941E+04  6.225812E-09 -4.966041E-09
       264  12  5.566385E+04  1.538650E+05  4.388629E+04  8.614082E+04  1.872736E-09 -4.972841E-09
       264  13  1.009255E+03 -2.935121E+05 -2.060990E+04  1.170090E+05  2.460159E-09  3.264217E-09
       264  14 -4.699397E+03 -2.869907E+05 -3.157536E+04  9.175402E+04  2.627867E-09  3.138794E-09
       264  15 -5.572806E+04 -2.935499E+05 -6.455284E+04  1.168434E+05  3.104104E-09 -9.927093E-10
       264  16 -3.215386E+04 -4.306525E+05 -4.944860E+04  1.105826E+05  1.600535E-09  1.175267E-09
       264  17 -7.570309E+04 -5.779093E+05 -9.512485E+04  1.038829E+05  5.886315E-09  2.085407E-09
       264  18 -1.671312E+05 -7.407800E+05 -1.730059E+05  1.475239E+05  2.723495E-09  6.028559E-09
       264  19  3.417152E+04 -1.563533E+05  8.228844E+03  1.234369E+05 -7.205960E+03 -2.270745E+04
       264  20  6.629951E+04  4.008293E+03  3.197051E+04  7.961965E+04 -1.224232E+04 -2.458610E+04
       264  21  5.566406E+04  1.538657E+05  4.388764E+04  8.614092E+04 -4.549232E+03 -2.642670E+04
       264  22  1.009336E+03 -2.935120E+05 -2.060963E+04  1.170090E+05 -7.241979E+03 -9.564840E+03
       264  23 -4.699053E+03 -2.869899E+05 -3.157380E+04  9.175428E+04 -1.223889E+04 -2.610094E+04
       264  24 -5.572755E+04 -2.935480E+05 -6.454939E+04  1.168436E+05 -4.503755E+03 -4.259807E+04
       264  25 -3.215380E+04 -4.306524E+05 -4.944848E+04  1.105826E+05 -7.278273E+03  3.574907E+03
       264  26 -7.570272E+04 -5.779084E+05 -9.512314E+04  1.038832E+05 -1.223552E+04 -2.761507E+04
       264  27 -1.671303E+05 -7.407763E+05 -1.729994E+05  1.475241E+05 -4.459862E+03 -5.875782E+04
       265   1  2.328641E+05  8.076161E+04  4.161245E+04  9.519640E+04  2.347724E+04  8.539163E+03
       265   2  2.263167E+05  4.553601E+04  1.981391E+04  9.318061E+04  1.465479E+04  4.539705E+03
       265   3  2.280696E+05  3.555542E+04  1.117544E+04  8.717473E+04  5.539569E+03  1.313572E+03
       265   4  2.177562E+05  6.091455E+04  3.486355E+04  7.663093E+04  2.244067E+04  8.145744E+03
       265   5  2.117468E+05  3.483797E+04  1.544365E+04  8.375593E+04  1.445248E+04  4.462893E+03
       265   6  2.138727E+05  3.384084E+04  8.522670E+03  8.689073E+04  6.171365E+03  1.553000E+03
       265   7  2.026492E+05  4.106922E+04  2.811486E+04  5.806646E+04  2.140415E+04  7.752401E+03
       265   8  1.971773E+05  2.414025E+04  1.107341E+04  7.433157E+04  1.425016E+04  4.386088E+03
       265   9  1.996759E+05  3.212626E+04  5.869878E+03  8.660670E+04  6.803151E+03  1.792432E+03
       265  10  2.328635E+05  8.076138E+04  4.161127E+04  9.519624E+04 -2.693461E-09 -7.696507E-10
       265  11  2.263164E+05  4.553593E+04  1.981346E+04  9.318055E+04 -9.443886E-10 -4.357140E-09
       265  12  2.280696E+05  3.555541E+04  1.117537E+04  8.717473E+04  1.221538E-09  7.512932E-09
       265  13  2.177556E+05  6.091434E+04  3.486248E+04  7.663078E+04  4.471864E-10 -4.384145E-09
       265  14  2.117466E+05  3.483789E+04  1.544322E+04  8.375588E+04  2.621413E-09 -5.928055E-09
       265  15  2.138727E+05  3.384083E+04  8.522594E+03  8.689072E+04 -5.622641E-10  6.714246E-10
       265  16  2.026487E+05  4.106904E+04  2.811389E+04  5.806632E+04  1.149355E-09 -1.189924E-09
       265  17  1.971770E+05  2.414017E+04  1.107299E+04  7.433151E+04 -2.300092E-10 -3.750074E-09
       265  18  1.996759E+05  3.212624E+04  5.869785E+03  8.660669E+04 -3.621103E-09 -6.943634E-09
       265  19  2.328641E+05  8.076161E+04  4.161245E+04  9.519640E+04 -2.347724E+04 -8.539163E+03
       265  20  2.263167E+05  4.553601E+04  1.981391E+04  9.318061E+04 -1.465479E+04 -4.539705E+03
       265  21  2.280696E+05  3.555542E+04  1.117544E+04  8.717473E+04 -5.539569E+03 -1.313572E+03
       265  22  2.177562E+05  6.091455E+04  3.486355E+04  7.663093E+04 -2.244067E+04 -8.145744E+03
       265  23  2.117468E+05  3.483797E+04  1.544365E+04  8.375593E+04 -1.445248E+04 -4.462893E+03
       265  24  2.138727E+05  3.384084E+04  8.522670E+03  8.689073E+04 -6.171365E+03 -1.553000E+03
       265  25  2.026492E+05  4.106922E+04  2.811486E+04  5.806646E+04 -2.140415E+04 -7.752401E+03
       265  26  1.971773E+05  2.414025E+04  1.107341E+04  7.433157E+04 -1.425016E+04 -4.386088E+03
       265  27  1.996759E+05  3.212626E+04  5.869878E+03  8.660670E+04 -6.803151E+03 -1.792432E+03
       266   1  2.189305E+05  3.847431E+04  8.130047E+03  8.768959E+04  4.591705E+03  1.315807E+03
       266   2  2.127738E+05  3.363559E+04  3.396302E+03  8.485649E+04  2.638118E+03  1.046722E+03
       266   3  2.055046E+05  3.170733E+04  3.047924E+02  8.380541E+04  6.703435E+02  8.152115E+02
       266   4  2.128020E+05  3.578546E+04  6.652492E+03  8.556909E+04  5.015968E+03  1.476559E+03
       266   5  2.132760E+05  3.373212E+04  3.484307E+03  8.490632E+04  3.102913E+03  1.222835E+03
       266   6  2.126295E+05  3.458119E+04  1.926236E+03  8.602556E+04  1.175656E+03  1.006677E+03
       266   7  2.066736E+05  3.309661E+04  5.174936E+03  8.344861E+04  5.440225E+03  1.637309E+03
       266   8  2.137783E+05  3.382865E+04  3.572312E+03  8.495616E+04  3.567707E+03  1.398948E+03
       266   9  2.197543E+05  3.745504E+04  3.547664E+03  8.824571E+04  1.680972E+03  1.198144E+03
       266  10  2.189305E+05  3.847431E+04  8.130005E+03  8.768959E+04  8.581949E-09  9.213546E-09
       266  11  2.127738E+05  3.363559E+04  3.396287E+03  8.485648E+04  5.240709E-10 -4.511887E-09
       266  12  2.055046E+05  3.170733E+04  3.047903E+02  8.380541E+04 -1.694533E-08  8.888307E-09
       266  13  2.128020E+05  3.578545E+04  6.652441E+03  8.556908E+04 -1.118880E-09  3.464431E-09
       266  14  2.132760E+05  3.373212E+04  3.484286E+03  8.490632E+04  4.078007E-09  1.461177E-08
       266  15  2.126295E+05  3.458119E+04  1.926231E+03  8.602555E+04 -4.529487E-09  7.397398E-09
       266  16  2.066735E+05  3.309660E+04  5.174875E+03  8.344860E+04 -7.822231E-09 -3.704545E-09
       266  17  2.137783E+05  3.382865E+04  3.572285E+03  8.495616E+04  2.635754E-09 -7.909451E-09
       266  18  2.197543E+05  3.745503E+04  3.547656E+03  8.824571E+04  8.658312E-09  2.226030E-09
       266  19  2.189305E+05  3.847431E+04  8.130047E+03  8.768959E+04 -4.591705E+03 -1.315807E+03
       266  20  2.127738E+05  3.363559E+04  3.396302E+03  8.485649E+04 -2.638118E+03 -1.046722E+03
       266  21  2.055046E+05  3.170733E+04  3.047924E+02  8.380541E+04 -6.703435E+02 -8.152115E+02
       266  22  2.128020E+05  3.578546E+04  6.652492E+03  8.556909E+04 -5.015968E+03 -1.476559E+03
       266  23  2.132760E+05  3.373212E+04  3.484307E+03  8.490632E+04 -3.102913E+03 -1.222835E+03
       266  24  2.126295E+05  3.458119E+04  1.926236E+03  8.602556E+04 -1.175656E+03 -1.006677E+03
       266  25  2.066736E+05  3.309661E+04  5.174936E+03  8.344861E+04 -5.440225E+03 -1.637309E+03
       266  26  2.137783E+05  3.382865E+04  3.572312E+03  8.495616E+04 -3.567707E+03 -1.398948E+03
       266  27  2.197543E+05  3.745504E+04  3.547664E+03  8.824571E+04 -1.680972E+03 -1.198144E+03
       267   1  2.001310E+05  3.001018E+04 -1.368239E+03  8.246251E+04  3.058687E+02  9.874400E+02
       267   2  1.941095E+05  2.653457E+04 -3.547515E+03  7.956447E+04 -2.722765E+02  1.294439E+03
       267   3  1.863916E+05  2.489011E+04 -5.411674E+03  7.867160E+04 -8.511433E+02  1.603376E+03
       267   4  2.125475E+05  3.466457E+04  1.458394E+03  8.595330E+04  8.011776E+02  1.175112E+03
       267   5  2.133930E+05  3.372882E+04  8.058986E+02  8.495841E+04  2.251151E+02  1.482895E+03
       267   6  2.125417E+05  3.462386E+04  4.669134E+02  8.596872E+04 -3.516722E+02  1.792615E+03
       267   7  2.249643E+05  3.931900E+04  4.285039E+03  8.944418E+04  1.296500E+03  1.362790E+03
       267   8  2.326769E+05  4.092312E+04  5.159307E+03  9.035252E+04  7.225252E+02  1.671359E+03
       267   9  2.386924E+05  4.435766E+04  6.345460E+03  9.326611E+04  1.478219E+02  1.981862E+03
       267  10  2.001310E+05  3.001017E+04 -1.368241E+03  8.246251E+04 -6.325632E-10  1.100893E-08
       267  11  1.941095E+05  2.653457E+04 -3.547518E+03  7.956447E+04 -1.147544E-09 -2.014151E-09
       267  12  1.863916E+05  2.489010E+04 -5.411680E+03  7.867160E+04 -5.618872E-09  6.910146E-09
       267  13  2.125475E+05  3.466456E+04  1.458390E+03  8.595330E+04 -3.758356E-09 -1.373251E-09
       267  14  2.133930E+05  3.372882E+04  8.058944E+02  8.495841E+04  2.293380E-09  8.490010E-09
       267  15  2.125417E+05  3.462385E+04  4.669071E+02  8.596872E+04 -2.429018E-09  1.256359E-09
       267  16  2.249643E+05  3.931900E+04  4.285033E+03  8.944418E+04 -7.755050E-09 -5.527721E-10
       267  17  2.326769E+05  4.092311E+04  5.159301E+03  9.035252E+04  9.738979E-10  1.143584E-08
       267  18  2.386924E+05  4.435766E+04  6.345453E+03  9.326611E+04  3.246041E-09  9.897988E-09
       267  19  2.001310E+05  3.001018E+04 -1.368239E+03  8.246251E+04 -3.058687E+02 -9.874400E+02
       267  20  1.941095E+05  2.653457E+04 -3.547515E+03  7.956447E+04  2.722765E+02 -1.294439E+03
       267  21  1.863916E+05  2.489011E+04 -5.411674E+03  7.867160E+04  8.511433E+02 -1.603376E+03
       267  22  2.125475E+05  3.466457E+04  1.458394E+03  8.595330E+04 -8.011776E+02 -1.175112E+03
       267  23  2.133930E+05  3.372882E+04  8.058986E+02  8.495841E+04 -2.251151E+02 -1.482895E+03
       267  24  2.125417E+05  3.462386E+04  4.669134E+02  8.596872E+04  3.516722E+02 -1.792615E+03
       267  25  2.249643E+05  3.931900E+04  4.285039E+03  8.944418E+04 -1.296500E+03 -1.362790E+03
       267  26  2.326769E+05  4.092312E+04  5.159307E+03  9.035252E+04 -7.225252E+02 -1.671359E+03
       267  27  2.386924E+05  4.435766E+04  6.345460E+03  9.326611E+04 -1.478219E+02 -1.981862E+03
       268   1  1.812205E+05  2.297869E+04 -6.716749E+03  7.724596E+04 -1.022210E+03  1.846645E+03
       268   2  1.752210E+05  1.954749E+04 -8.355450E+03  7.433688E+04 -1.325842E+03  2.260877E+03
       268   3  1.674685E+05  1.789426E+04 -9.897614E+03  7.343633E+04 -1.629565E+03  2.675438E+03
       268   4  2.125312E+05  3.462654E+04  3.690806E+02  8.596397E+04 -5.230146E+02  2.035773E+03
       268   5  2.134076E+05  3.373739E+04  2.572582E+02  8.495975E+04 -8.263067E+02  2.450121E+03
       268   6  2.125309E+05  3.462610E+04  2.417020E+02  8.596400E+04 -1.129693E+03  2.864798E+03
       268   7  2.438427E+05  4.627440E+04  7.454794E+03  9.468233E+04 -2.379460E+01  2.224911E+03
       268   8  2.515956E+05  4.792741E+04  8.869873E+03  9.558322E+04 -3.267381E+02  2.639377E+03
       268   9  2.575955E+05  5.135821E+04  1.038097E+04  9.849259E+04 -6.297785E+02  3.054174E+03
       268  10  1.812205E+05  2.297869E+04 -6.716758E+03  7.724596E+04  3.541904E-09  2.595512E-09
       268  11  1.752210E+05  1.954748E+04 -8.355463E+03  7.433688E+04 -1.971981E-09 -4.358183E-09
       268  12  1.674685E+05  1.789425E+04 -9.897632E+03  7.343633E+04 -2.848455E-09  6.756483E-09
       268  13  2.125312E+05  3.462654E+04  3.690723E+02  8.596397E+04 -2.689192E-10  4.788134E-09
       268  14  2.134076E+05  3.373738E+04  2.572456E+02  8.495975E+04 -1.305489E-09  1.094728E-08
       268  15  2.125309E+05  3.462609E+04  2.416842E+02  8.596401E+04  3.390998E-09 -1.107112E-08
       268  16  2.438427E+05  4.627439E+04  7.454785E+03  9.468233E+04 -5.427723E-09  1.171702E-08
       268  17  2.515956E+05  4.792740E+04  8.869860E+03  9.558322E+04  2.277711E-10  4.042666E-09
       268  18  2.575955E+05  5.135820E+04  1.038095E+04  9.849259E+04  6.392697E-09 -4.876242E-09
       268  19  1.812205E+05  2.297869E+04 -6.716749E+03  7.724596E+04  1.022210E+03 -1.846645E+03
       268  20  1.752210E+05  1.954749E+04 -8.355450E+03  7.433688E+04  1.325842E+03 -2.260877E+03
       268  21  1.674685E+05  1.789426E+04 -9.897614E+03  7.343633E+04  1.629565E+03 -2.675438E+03
       268  22  2.125312E+05  3.462654E+04  3.690806E+02  8.596397E+04  5.230146E+02 -2.035773E+03
       268  23  2.134076E+05  3.373739E+04  2.572582E+02  8.495975E+04  8.263067E+02 -2.450121E+03
       268  24  2.125309E+05  3.462610E+04  2.417020E+02  8.596400E+04  1.129693E+03 -2.864798E+03
       268  25  2.438427E+05  4.627440E+04  7.454794E+03  9.468233E+04  2.379460E+01 -2.224911E+03
       268  26  2.515956E+05  4.792741E+04  8.869873E+03  9.558322E+04  3.267381E+02 -2.639377E+03
       268  27  2.575955E+05  5.135821E+04  1.038097E+04  9.849259E+04  6.297785E+02 -3.054174E+03
       269   1  1.623071E+05  1.597235E+04 -1.108340E+04  7.200833E+04 -1.774382E+03  2.929049E+03
       269   2  1.562878E+05  1.253418E+04 -1.249096E+04  6.909651E+04 -2.142715E+03  3.319716E+03
       269   3  1.485225E+05  1.088137E+04 -1.375309E+04  6.820011E+04 -2.511005E+03  3.710402E+03
       269   4  2.125323E+05  3.462719E+04  2.651480E+02  8.596573E+04 -1.274138E+03  3.118541E+03
       269   5  2.134050E+05  3.373268E+04  3.874320E+02  8.495869E+04 -1.642486E+03  3.509184E+03
       269   6  2.125316E+05  3.462352E+04  6.551258E+02  8.596705E+04 -2.010792E+03  3.899843E+03
       269   7  2.627600E+05  5.328224E+04  1.161354E+04  9.992417E+04 -7.738496E+02  3.308049E+03
       269   8  2.705253E+05  5.493136E+04  1.326556E+04  1.008222E+05 -1.142208E+03  3.698669E+03
       269   9  2.765444E+05  5.836583E+04  1.506297E+04  1.037356E+05 -1.510526E+03  4.089305E+03
       269  10  1.623071E+05  1.597234E+04 -1.108343E+04  7.200834E+04 -5.843396E-09 -4.726174E-09
       269  11  1.562878E+05  1.253416E+04 -1.249099E+04  6.909652E+04 -2.735510E-09 -3.095241E-10
       269  12  1.485225E+05  1.088136E+04 -1.375313E+04  6.820012E+04 -1.448521E-09 -4.417064E-09
       269  13  2.125323E+05  3.462718E+04  2.651267E+02  8.596574E+04  7.020755E-10  1.379490E-08
       269  14  2.134050E+05  3.373266E+04  3.874038E+02  8.495870E+04  7.531332E-10 -1.154991E-08
       269  15  2.125316E+05  3.462350E+04  6.550896E+02  8.596706E+04  4.812294E-11  5.727677E-10
       269  16  2.627600E+05  5.328222E+04  1.161351E+04  9.992417E+04  8.056558E-09 -3.276621E-09
       269  17  2.705253E+05  5.493135E+04  1.326553E+04  1.008222E+05  4.691517E-09  3.552456E-09
       269  18  2.765444E+05  5.836581E+04  1.506293E+04  1.037356E+05  3.296031E-09 -6.349033E-09
       269  19  1.623071E+05  1.597235E+04 -1.108340E+04  7.200833E+04  1.774382E+03 -2.929049E+03
       269  20  1.562878E+05  1.253418E+04 -1.249096E+04  6.909651E+04  2.142715E+03 -3.319716E+03
       269  21  1.485225E+05  1.088137E+04 -1.375309E+04  6.820011E+04  2.511005E+03 -3.710402E+03
       269  22  2.125323E+05  3.462719E+04  2.651480E+02  8.596573E+04  1.274138E+03 -3.118541E+03
       269  23  2.134050E+05  3.373268E+04  3.874320E+02  8.495869E+04  1.642486E+03 -3.509184E+03
       269  24  2.125316E+05  3.462352E+04  6.551258E+02  8.596705E+04  2.010792E+03 -3.899843E+03
       269  25  2.627600E+05  5.328224E+04  1.161354E+04  9.992417E+04  7.738496E+02 -3.308049E+03
       269  26  2.705253E+05  5.493136E+04  1.326556E+04  1.008222E+05  1.142208E+03 -3.698669E+03
       269  27  2.765444E+05  5.836583E+04  1.506297E+04  1.037356E+05  1.510526E+03 -4.089305E+03
       270   1  1.433531E+05  8.963633E+03 -1.475926E+04  6.679361E+04 -2.741787E+03  3.932730E+03
       270   2  1.372648E+05  5.504304E+03 -1.561592E+04  6.386091E+04 -3.676559E+03  4.107284E+03
       270   3  1.295375E+05  3.941288E+03 -1.587895E+04  6.294969E+04 -4.608416E+03  4.274258E+03
       270   4  2.125513E+05  3.462036E+04  8.609368E+02  8.597892E+04 -2.238971E+03  4.123144E+03
       270   5  2.133754E+05  3.370974E+04  1.540276E+03  8.495354E+04 -3.182020E+03  4.294540E+03
       270   6  2.125620E+05  3.469713E+04  2.819802E+03  8.594967E+04 -4.122160E+03  4.458353E+03
       270   7  2.817549E+05  6.027763E+04  1.648095E+04  1.051663E+05 -1.736091E+03  4.313583E+03
       270   8  2.894919E+05  6.191572E+04  1.869617E+04  1.060486E+05 -2.687413E+03  4.481822E+03
       270   9  2.955934E+05  6.545352E+04  2.151812E+04  1.089525E+05 -3.635834E+03  4.642475E+03
       270  10  1.433530E+05  8.963614E+03 -1.475930E+04  6.679362E+04  6.006536E-10  2.839209E-09
       270  11  1.372648E+05  5.504282E+03 -1.561598E+04  6.386093E+04  7.494615E-10  2.517056E-09
       270  12  1.295375E+05  3.941263E+03 -1.587902E+04  6.294971E+04 -3.747728E-09 -7.872104E-10
       270  13  2.125513E+05  3.462034E+04  8.608954E+02  8.597892E+04  2.118055E-09 -9.214459E-10
       270  14  2.133753E+05  3.370972E+04  1.540222E+03  8.495355E+04  5.385183E-09  3.098183E-09
       270  15  2.125620E+05  3.469711E+04  2.819733E+03  8.594968E+04  8.175348E-10 -6.003733E-09
       270  16  2.817548E+05  6.027761E+04  1.648091E+04  1.051663E+05  9.436637E-13 -8.306641E-09
       270  17  2.894919E+05  6.191570E+04  1.869612E+04  1.060486E+05  3.329978E-09 -2.761777E-10
       270  18  2.955934E+05  6.545349E+04  2.151805E+04  1.089525E+05  5.215061E-10  5.332237E-09
       270  19  1.433531E+05  8.963633E+03 -1.475926E+04  6.679361E+04  2.741787E+03 -3.932730E+03
       270  20  1.372648E+05  5.504304E+03 -1.561592E+04  6.386091E+04  3.676559E+03 -4.107284E+03
       270  21  1.295375E+05  3.941288E+03 -1.587895E+04  6.294969E+04  4.608416E+03 -4.274258E+03
       270  22  2.125513E+05  3.462036E+04  8.609368E+02  8.597892E+04  2.238971E+03 -4.123144E+03
       270  23  2.133754E+05  3.370974E+04  1.540276E+03  8.495354E+04  3.182020E+03 -4.294540E+03
       270  24  2.125620E+05  3.469713E+04  2.819802E+03  8.594967E+04  4.122160E+03 -4.458353E+03
       270  25  2.817549E+05  6.027763E+04  1.648095E+04  1.051663E+05  1.736091E+03 -4.313583E+03
       270  26  2.894919E+05  6.191572E+04  1.869617E+04  1.060486E+05  2.687413E+03 -4.481822E+03
       270  27  2.955934E+05  6.545352E+04  2.151812E+04  1.089525E+05  3.635834E+03 -4.642475E+03
       271   1  1.242289E+05  2.118026E+03 -1.617531E+04  6.195946E+04 -5.286041E+03  4.339329E+03
       271   2  1.181930E+05 -1.726874E+03 -1.472443E+04  5.828982E+04 -8.673038E+03  3.525424E+03
       271   3  1.116029E+05 -1.621332E+03 -1.028780E+04  5.621466E+04 -1.199714E+04  2.545668E+03
       271   4  2.127209E+05  3.453605E+04  3.732604E+03  8.609142E+04 -4.754525E+03  4.540550E+03
       271   5  2.131473E+05  3.371274E+04  6.764474E+03  8.485105E+04 -8.320979E+03  3.658651E+03
       271   6  2.130550E+05  3.687507E+04  1.292402E+04  8.520504E+04 -1.182461E+04  2.610885E+03
       271   7  3.012203E+05  6.695443E+04  2.363987E+04  1.102264E+05 -4.222930E+03  4.741800E+03
       271   8  3.081107E+05  6.915308E+04  2.825280E+04  1.114160E+05 -7.968861E+03  3.791900E+03
       271   9  3.145180E+05  7.537264E+04  3.613532E+04  1.142000E+05 -1.165203E+04  2.676115E+03
       271  10  1.242288E+05  2.117998E+03 -1.617540E+04  6.195948E+04 -4.572865E-09 -4.438238E-10
       271  11  1.181929E+05 -1.726907E+03 -1.472460E+04  5.828984E+04  4.500608E-09  2.338096E-08
       271  12  1.116028E+05 -1.621378E+03 -1.028808E+04  5.621468E+04  1.307243E-08  1.299745E-08
       271  13  2.127209E+05  3.453602E+04  3.732523E+03  8.609143E+04 -2.487809E-09 -1.720969E-09
       271  14  2.131473E+05  3.371270E+04  6.764319E+03  8.485108E+04  1.643239E-10  1.398818E-08
       271  15  2.130548E+05  3.687502E+04  1.292374E+04  8.520507E+04 -1.691691E-09  1.721451E-09
       271  16  3.012203E+05  6.695441E+04  2.363979E+04  1.102264E+05  2.865200E-09  5.379251E-09
       271  17  3.081107E+05  6.915304E+04  2.825265E+04  1.114160E+05 -7.299341E-09  3.507957E-09
       271  18  3.145178E+05  7.537259E+04  3.613506E+04  1.142000E+05 -2.012938E-08 -1.038777E-08
       271  19  1.242289E+05  2.118026E+03 -1.617531E+04  6.195946E+04  5.286041E+03 -4.339329E+03
       271  20  1.181930E+05 -1.726874E+03 -1.472443E+04  5.828982E+04  8.673038E+03 -3.525424E+03
       271  21  1.116029E+05 -1.621332E+03 -1.028780E+04  5.621466E+04  1.199714E+04 -2.545668E+03
       271  22  2.127209E+05  3.453605E+04  3.732604E+03  8.609142E+04  4.754525E+03 -4.540550E+03
       271  23  2.131473E+05  3.371274E+04  6.764474E+03  8.485105E+04  8.320979E+03 -3.658651E+03
       271  24  2.130550E+05  3.687507E+04  1.292402E+04  8.520504E+04  1.182461E+04 -2.610885E+03
       271  25  3.012203E+05  6.695443E+04  2.363987E+04  1.102264E+05  4.222930E+03 -4.741800E+03
       271  26  3.081107E+05  6.915308E+04  2.825280E+04  1.114160E+05  7.968861E+03 -3.791900E+03
       271  27  3.145180E+05  7.537264E+04  3.613532E+04  1.142000E+05  1.165203E+04 -2.676115E+03
       272   1  1.027632E+05 -1.741689E+03 -7.734771E+03  6.364619E+04 -1.511340E+04  1.915154E+03
       272   2  1.035627E+05 -1.405140E+04  3.313151E+03  4.262060E+04 -2.709006E+04 -3.418664E+03
       272   3  1.211608E+05  1.993598E+04  3.571692E+04  1.190643E+04 -3.776809E+04 -1.218266E+04
       272   4  2.151516E+05  3.308067E+04  1.655920E+04  8.775581E+04 -1.401900E+04  2.329594E+03
       272   5  2.101554E+05  3.587896E+04  3.000895E+04  8.263749E+04 -2.969947E+04 -4.407176E+03
       272   6  2.226876E+05  8.570201E+04  6.774839E+04  6.783218E+04 -4.408126E+04 -1.457453E+04
       272   7  3.275530E+05  6.790330E+04  4.085257E+04  1.118691E+05 -1.292438E+04  2.744086E+03
       272   8  3.167587E+05  8.581176E+04  5.670360E+04  1.226609E+05 -3.230934E+04 -5.395970E+03
       272   9  3.242241E+05  1.514749E+05  9.977843E+04  1.237669E+05 -5.039541E+04 -1.696747E+04
       272  10  1.027630E+05 -1.741754E+03 -7.735207E+03  6.364622E+04 -3.993177E-08 -2.856240E-09
       272  11  1.035619E+05 -1.405161E+04  3.311750E+03  4.262053E+04 -1.353087E-08  5.473046E-10
       272  12  1.211592E+05  1.993544E+04  3.571396E+04  1.190606E+04  2.276229E-08  1.199143E-08
       272  13  2.151514E+05  3.308062E+04  1.655882E+04  8.775584E+04 -4.810160E-09  4.316891E-12
       272  14  2.101544E+05  3.587870E+04  3.000725E+04  8.263738E+04 -1.088383E-08  1.244825E-08
       272  15  2.226855E+05  8.570126E+04  6.774434E+04  6.783166E+04 -1.846110E-09 -8.191362E-09
       272  16  3.275528E+05  6.790325E+04  4.085225E+04  1.118691E+05  2.711519E-08  1.182952E-08
       272  17  3.167576E+05  8.581145E+04  5.670159E+04  1.226608E+05 -3.957922E-09  6.274572E-10
       272  18  3.242213E+05  1.514739E+05  9.977312E+04  1.237662E+05 -2.903171E-08 -4.733536E-09
       272  19  1.027632E+05 -1.741689E+03 -7.734771E+03  6.364619E+04  1.511340E+04 -1.915154E+03
       272  20  1.035627E+05 -1.405140E+04  3.313151E+03  4.262060E+04  2.709006E+04  3.418664E+03
       272  21  1.211608E+05  1.993598E+04  3.571692E+04  1.190643E+04  3.776809E+04  1.218266E+04
       272  22  2.151516E+05  3.308067E+04  1.655920E+04  8.775581E+04  1.401900E+04 -2.329594E+03
       272  23  2.101554E+05  3.587896E+04  3.000895E+04  8.263749E+04  2.969947E+04  4.407176E+03
       272  24  2.226876E+05  8.570201E+04  6.774839E+04  6.783218E+04  4.408126E+04  1.457453E+04
       272  25  3.275530E+05  6.790330E+04  4.085257E+04  1.118691E+05  1.292438E+04 -2.744086E+03
       272  26  3.167587E+05  8.581176E+04  5.670360E+04  1.226609E+05  3.230934E+04  5.395970E+03
       272  27  3.242241E+05  1.514749E+05  9.977843E+04  1.237669E+05  5.039541E+04  1.696747E+04
       273   1 -5.387525E+04 -3.745618E+05 -5.699197E+04  2.592148E+04 -1.488466E+03 -2.441021E+04
       273   2 -2.681758E+04 -3.555556E+05 -3.594311E+04  1.539157E+04 -4.868819E+03 -1.346902E+04
       273   3 -2.031231E+04 -3.430729E+05 -2.715715E+04  9.844194E+03 -5.096601E+03 -2.517250E+03
       273   4 -2.436964E+04 -2.560648E+05 -2.851020E+04  1.251877E+04 -1.505959E+03 -1.874455E+04
       273   5 -1.894523E+03 -2.531164E+05 -1.399950E+04  1.006689E+04 -4.875078E+03 -1.143240E+04
       273   6  6.601411E+02 -2.560606E+05 -9.229353E+03  1.259788E+04 -5.091575E+03 -4.110062E+03
       273   7  5.135613E+03 -1.375545E+05 -2.921978E+01 -8.865076E+02 -1.523696E+03 -1.307782E+04
       273   8  2.302795E+04 -1.506673E+05  7.943530E+03  4.741315E+03 -4.881371E+03 -9.395456E+03
       273   9  2.163214E+04 -1.690410E+05  8.698046E+03  1.535196E+04 -5.086564E+03 -5.703093E+03
       273  10 -5.387541E+04 -3.745624E+05 -5.699309E+04  2.592145E+04 -3.784049E-10  4.651465E-09
       273  11 -2.681766E+04 -3.555558E+05 -3.594350E+04  1.539152E+04 -6.641144E-10 -1.703120E-08
       273  12 -2.031233E+04 -3.430729E+05 -2.715721E+04  9.844183E+03  1.201836E-09 -6.329532E-09
       273  13 -2.436974E+04 -2.560652E+05 -2.851087E+04  1.251875E+04  4.806987E-10 -2.123291E-09
       273  14 -1.894584E+03 -2.531166E+05 -1.399979E+04  1.006684E+04  6.837541E-10 -6.469562E-09
       273  15  6.601087E+02 -2.560606E+05 -9.229434E+03  1.259786E+04 -2.431904E-09  4.819978E-09
       273  16  5.135564E+03 -1.375546E+05 -2.954562E+01 -8.865237E+02  1.790050E-09 -1.145348E-10
       273  17  2.302790E+04 -1.506674E+05  7.943319E+03  4.741278E+03  4.873282E-09  2.464458E-09
       273  18  2.163210E+04 -1.690410E+05  8.697936E+03  1.535194E+04 -4.098888E-09  1.565454E-08
       273  19 -5.387525E+04 -3.745618E+05 -5.699197E+04  2.592148E+04  1.488466E+03  2.441021E+04
       273  20 -2.681758E+04 -3.555556E+05 -3.594311E+04  1.539157E+04  4.868819E+03  1.346902E+04
       273  21 -2.031231E+04 -3.430729E+05 -2.715715E+04  9.844194E+03  5.096601E+03  2.517250E+03
       273  22 -2.436964E+04 -2.560648E+05 -2.851020E+04  1.251877E+04  1.505959E+03  1.874455E+04
       273  23 -1.894523E+03 -2.531164E+05 -1.399950E+04  1.006689E+04  4.875078E+03  1.143240E+04
       273  24  6.601411E+02 -2.560606E+05 -9.229353E+03  1.259788E+04  5.091575E+03  4.110062E+03
       273  25  5.135613E+03 -1.375545E+05 -2.921978E+01 -8.865076E+02  1.523696E+03  1.307782E+04
       273  26  2.302795E+04 -1.506673E+05  7.943530E+03  4.741315E+03  4.881371E+03  9.395456E+03
       273  27  2.163214E+04 -1.690410E+05  8.698046E+03  1.535196E+04  5.086564E+03  5.703093E+03
       274   1 -1.920037E+04 -3.303397E+05 -2.377406E+04  1.340665E+04 -4.362948E+03 -1.912739E+03
       274   2 -1.447314E+04 -3.140589E+05 -1.959391E+04  1.015345E+04 -3.585772E+03  1.960294E+03
       274   3 -1.188197E+04 -2.987748E+05 -1.846028E+04  1.209339E+04 -2.648868E+03  5.833861E+03
       274   4 -1.000527E+03 -2.549657E+05 -8.199770E+03  1.262682E+04 -4.360359E+03 -2.729818E+03
       274   5 -1.108813E+02 -2.544829E+05 -7.379725E+03  1.002975E+04 -3.582641E+03  9.596168E+02
       274   6 -1.325268E+03 -2.549652E+05 -9.478465E+03  1.262580E+04 -2.645195E+03  4.649491E+03
       274   7  1.719896E+04 -1.795862E+05  7.374220E+03  1.184689E+04 -4.357769E+03 -3.546995E+03
       274   8  1.425116E+04 -1.949036E+05  4.834271E+03  9.906031E+03 -3.579510E+03 -4.115469E+01
       274   9  9.231316E+03 -2.111538E+05 -4.967441E+02  1.315825E+04 -2.641525E+03  3.465040E+03
       274  10 -1.920040E+04 -3.303398E+05 -2.377411E+04  1.340664E+04  2.955623E-10  9.815703E-09
       274  11 -1.447316E+04 -3.140589E+05 -1.959394E+04  1.015346E+04  1.814778E-09 -9.705720E-09
       274  12 -1.188199E+04 -2.987748E+05 -1.846036E+04  1.209340E+04 -9.962709E-10 -8.452578E-09
       274  13 -1.000549E+03 -2.549657E+05 -8.199820E+03  1.262681E+04 -1.432431E-09 -6.606489E-12
       274  14 -1.108953E+02 -2.544829E+05 -7.379751E+03  1.002975E+04  1.509808E-09 -6.448591E-09
       274  15 -1.325282E+03 -2.549652E+05 -9.478519E+03  1.262581E+04 -3.551913E-09 -7.307453E-09
       274  16  1.719894E+04 -1.795862E+05  7.374161E+03  1.184688E+04 -3.453899E-09 -2.172685E-09
       274  17  1.425114E+04 -1.949036E+05  4.834247E+03  9.906031E+03  2.299958E-09  1.486048E-10
       274  18  9.231306E+03 -2.111538E+05 -4.967798E+02  1.315825E+04 -2.288463E-09  1.340094E-08
       274  19 -1.920037E+04 -3.303397E+05 -2.377406E+04  1.340665E+04  4.362948E+03  1.912739E+03
       274  20 -1.447314E+04 -3.140589E+05 -1.959391E+04  1.015345E+04  3.585772E+03 -1.960294E+03
       274  21 -1.188197E+04 -2.987748E+05 -1.846028E+04  1.209339E+04  2.648868E+03 -5.833861E+03
       274  22 -1.000527E+03 -2.549657E+05 -8.199770E+03  1.262682E+04  4.360359E+03  2.729818E+03
       274  23 -1.108813E+02 -2.544829E+05 -7.379725E+03  1.002975E+04  3.582641E+03 -9.596168E+02
       274  24 -1.325268E+03 -2.549652E+05 -9.478465E+03  1.262580E+04  2.645195E+03 -4.649491E+03
       274  25  1.719896E+04 -1.795862E+05  7.374220E+03  1.184689E+04  4.357769E+03  3.546995E+03
       274  26  1.425116E+04 -1.949036E+05  4.834271E+03  9.906031E+03  3.579510E+03  4.115469E+01
       274  27  9.231316E+03 -2.111538E+05 -4.967441E+02  1.315825E+04  2.641525E+03 -3.465040E+03
       275   1 -6.882596E+03 -2.887088E+05 -1.772160E+04  1.663857E+04 -2.045456E+03  7.439299E+03
       275   2 -6.391874E+03 -2.691381E+05 -2.125425E+04  3.427010E+03 -1.113452E+03  1.669336E+04
       275   3 -3.197231E+04 -2.572505E+05 -3.732117E+04 -4.639679E+03 -3.021684E+02  2.594712E+04
       275   4  9.085302E+02 -2.564627E+05 -1.116837E+04  1.263845E+04 -2.041876E+03  6.263748E+03
       275   5 -2.469087E+03 -2.526110E+05 -1.792792E+04  1.001536E+04 -1.110083E+03  1.565666E+04
       275   6 -3.194205E+04 -2.564668E+05 -3.731816E+04  1.253714E+04 -2.986939E+02  2.504905E+04
       275   7  8.699652E+03 -2.242156E+05 -4.615180E+03  8.638115E+03 -2.038282E+03  5.088136E+03
       275   8  1.453847E+03 -2.360835E+05 -1.460158E+04  1.660388E+04 -1.106736E+03  1.461993E+04
       275   9 -3.191068E+04 -2.556825E+05 -3.731499E+04  2.971398E+04 -2.952690E+02  2.415098E+04
       275  10 -6.882616E+03 -2.887089E+05 -1.772171E+04  1.663859E+04 -1.389751E-09  9.047421E-09
       275  11 -6.391950E+03 -2.691384E+05 -2.125478E+04  3.427025E+03  2.985041E-09 -1.327834E-08
       275  12 -3.197249E+04 -2.572512E+05 -3.732243E+04 -4.639673E+03  5.350629E-10 -6.879396E-09
       275  13  9.085152E+02 -2.564627E+05 -1.116845E+04  1.263846E+04 -6.754591E-10 -4.290441E-09
       275  14 -2.469154E+03 -2.526112E+05 -1.792839E+04  1.001537E+04  2.112841E-09 -7.531405E-09
       275  15 -3.194222E+04 -2.564675E+05 -3.731934E+04  1.253715E+04  1.154498E-09  7.947366E-10
       275  16  8.699640E+03 -2.242156E+05 -4.615237E+03  8.638124E+03 -3.810989E-09 -4.689980E-09
       275  17  1.453788E+03 -2.360837E+05 -1.460199E+04  1.660390E+04  3.347227E-09  1.195418E-09
       275  18 -3.191084E+04 -2.556831E+05 -3.731608E+04  2.971399E+04  8.287743E-10  1.350980E-08
       275  19 -6.882596E+03 -2.887088E+05 -1.772160E+04  1.663857E+04  2.045456E+03 -7.439299E+03
       275  20 -6.391874E+03 -2.691381E+05 -2.125425E+04  3.427010E+03  1.113452E+03 -1.669336E+04
       275  21 -3.197231E+04 -2.572505E+05 -3.732117E+04 -4.639679E+03  3.021684E+02 -2.594712E+04
       275  22  9.085302E+02 -2.564627E+05 -1.116837E+04  1.263845E+04  2.041876E+03 -6.263748E+03
       275  23 -2.469087E+03 -2.526110E+05 -1.792792E+04  1.001536E+04  1.110083E+03 -1.565666E+04
       275  24 -3.194205E+04 -2.564668E+05 -3.731816E+04  1.253714E+04  2.986939E+02 -2.504905E+04
       275  25  8.699652E+03 -2.242156E+05 -4.615180E+03  8.638115E+03  2.038282E+03 -5.088136E+03
       275  26  1.453847E+03 -2.360835E+05 -1.460158E+04  1.660388E+04  1.106736E+03 -1.461993E+04
       275  27 -3.191068E+04 -2.556825E+05 -3.731499E+04  2.971398E+04  2.952690E+02 -2.415098E+04
       276   1 -3.765450E+05 -1.631395E+05 -1.494912E+05 -3.290970E+04 -8.652553E+03  1.130230E+04
       276   2 -3.062945E+05 -1.779603E+05 -1.371229E+05 -3.470108E+04  4.530685E+03  3.633047E+04
       276   3 -2.303973E+05 -1.640299E+05 -1.261303E+05 -5.937975E+04  1.773826E+04  3.989478E+04
       276   4  4.439744E+05  4.023917E+04  4.714288E+04 -5.407218E+04  3.253820E+04  1.134010E+04
       276   5  4.390340E+05  2.899332E+03  2.195139E+04 -4.261398E+04  2.099992E+04  3.633942E+04
       276   6  4.440163E+05 -1.417441E+03  1.254364E+04 -5.404067E+04  9.484388E+03  3.988709E+04
       276   7  1.265115E+06  2.435717E+05  2.437360E+05 -7.526288E+04  7.378317E+04  1.137507E+04
       276   8  1.184886E+06  1.837231E+05  1.809947E+05 -5.053660E+04  3.748863E+04  3.634794E+04
       276   9  1.118862E+06  1.611665E+05  1.511935E+05 -4.869572E+04  1.221702E+03  3.987926E+04
       276  10 -3.765451E+05 -1.631397E+05 -1.494916E+05 -3.290962E+04 -3.359651E-10 -1.648524E-11
       276  11 -3.062949E+05 -1.779617E+05 -1.371255E+05 -3.470121E+04 -6.027590E-11  1.060308E-12
       276  12 -2.303981E+05 -1.640317E+05 -1.261339E+05 -5.938032E+04  4.583607E-11  1.130523E-10
       276  13  4.439732E+05  4.023875E+04  4.714065E+04 -5.407248E+04  5.475002E-10 -8.706841E-13
       276  14  4.390332E+05  2.897795E+03  2.194808E+04 -4.261459E+04  1.273172E-10 -2.792337E-11
       276  15  4.440157E+05 -1.419174E+03  1.254048E+04 -5.404097E+04 -3.526410E-11  1.538306E-11
       276  16  1.265109E+06  2.435701E+05  2.437255E+05 -7.526356E+04 -3.008794E-11 -3.094507E-11
       276  17  1.184884E+06  1.837213E+05  1.809896E+05 -5.053770E+04  4.740229E-11 -5.356486E-11
       276  18  1.118861E+06  1.611648E+05  1.511905E+05 -4.869576E+04  3.434201E-10 -6.297195E-11
       276  19 -3.765450E+05 -1.631395E+05 -1.494912E+05 -3.290970E+04  8.652553E+03 -1.130230E+04
       276  20 -3.062945E+05 -1.779603E+05 -1.371229E+05 -3.470108E+04 -4.530685E+03 -3.633047E+04
       276  21 -2.303973E+05 -1.640299E+05 -1.261303E+05 -5.937975E+04 -1.773826E+04 -3.989478E+04
       276  22  4.439744E+05  4.023917E+04  4.714288E+04 -5.407218E+04 -3.253820E+04 -1.134010E+04
       276  23  4.390340E+05  2.899332E+03  2.195139E+04 -4.261398E+04 -2.099992E+04 -3.633942E+04
       276  24  4.440163E+05 -1.417441E+03  1.254364E+04 -5.404067E+04 -9.484388E+03 -3.988709E+04
       276  25  1.265115E+06  2.435717E+05  2.437360E+05 -7.526288E+04 -7.378317E+04 -1.137507E+04
       276  26  1.184886E+06  1.837231E+05  1.809947E+05 -5.053660E+04 -3.748863E+04 -3.634794E+04
       276  27  1.118862E+06  1.611665E+05  1.511935E+05 -4.869572E+04 -1.221702E+03 -3.987926E+04
       277   1 -1.786966E+05 -1.482018E+05 -1.181957E+05 -5.395366E+04  1.073106E+04  3.619521E+04
       277   2 -1.064110E+05 -1.320792E+05 -1.067941E+05 -4.237919E+04  9.338829E+03  3.306092E+04
       277   3 -3.353312E+04 -1.146961E+05 -9.414887E+04 -5.467475E+04  7.944581E+03  2.880049E+04
       277   4  4.420049E+05  1.525579E+03  9.816889E+03 -5.426673E+04  7.775772E+03  3.619108E+04
       277   5  4.416118E+05 -5.488548E+01  5.394758E+03 -4.233215E+04  5.084019E+03  3.305734E+04
       277   6  4.420306E+05 -1.498650E+02  3.117340E+03 -5.426627E+04  2.390409E+03  2.879794E+04
       277   7  1.063072E+06  1.512287E+05  1.378087E+05 -5.458015E+04  4.817578E+03  3.618697E+04
       277   8  9.899198E+05  1.319506E+05  1.175678E+05 -4.228507E+04  8.255191E+02  3.305376E+04
       277   9  9.178093E+05  1.143823E+05  1.003717E+05 -5.385747E+04 -3.167939E+03  2.879538E+04
       277  10 -1.786971E+05 -1.482033E+05 -1.181984E+05 -5.395398E+04 -3.224319E-10  7.554065E-11
       277  11 -1.064114E+05 -1.320804E+05 -1.067964E+05 -4.237944E+04 -3.059569E-10  4.806550E-12
       277  12 -3.353341E+04 -1.146971E+05 -9.415055E+04 -5.467494E+04  7.301619E-11  6.343564E-11
       277  13  4.420045E+05  1.524156E+03  9.814313E+03 -5.426696E+04 -8.525494E-12  6.822830E-11
       277  14  4.416114E+05 -5.606613E+01  5.392655E+03 -4.233228E+04 -2.984097E-10  8.359483E-11
       277  15  4.420304E+05 -1.507573E+02  3.115770E+03 -5.426633E+04  8.039786E-11 -1.350029E-11
       277  16  1.063071E+06  1.512272E+05  1.378062E+05 -5.458029E+04  3.109566E-10  7.503266E-11
       277  17  9.899195E+05  1.319494E+05  1.175657E+05 -4.228510E+04  4.189159E-11  1.682058E-10
       277  18  9.178091E+05  1.143814E+05  1.003701E+05 -5.385739E+04 -2.742555E-10 -5.490540E-11
       277  19 -1.786966E+05 -1.482018E+05 -1.181957E+05 -5.395366E+04 -1.073106E+04 -3.619521E+04
       277  20 -1.064110E+05 -1.320792E+05 -1.067941E+05 -4.237919E+04 -9.338829E+03 -3.306092E+04
       277  21 -3.353312E+04 -1.146961E+05 -9.414887E+04 -5.467475E+04 -7.944581E+03 -2.880049E+04
       277  22  4.420049E+05  1.525579E+03  9.816889E+03 -5.426673E+04 -7.775772E+03 -3.619108E+04
       277  23  4.416118E+05 -5.488548E+01  5.394758E+03 -4.233215E+04 -5.084019E+03 -3.305734E+04
       277  24  4.420306E+05 -1.498650E+02  3.117340E+03 -5.426627E+04 -2.390409E+03 -2.879794E+04
       277  25  1.063072E+06  1.512287E+05  1.378087E+05 -5.458015E+04 -4.817578E+03 -3.618697E+04
       277  26  9.899198E+05  1.319506E+05  1.175678E+05 -4.228507E+04 -8.255191E+02 -3.305376E+04
       277  27  9.178093E+05  1.143823E+05  1.003717E+05 -5.385747E+04  3.167939E+03 -2.879538E+04
       278   1  1.922547E+04 -1.017532E+05 -8.374008E+04 -5.438518E+04  7.175949E+03  2.601994E+04
       278   2  9.153914E+04 -8.438808E+04 -7.009781E+04 -4.240701E+04  6.555988E+03  2.141573E+04
       278   3  1.639853E+05 -6.696380E+04 -5.602934E+04 -5.428752E+04  5.934289E+03  1.675533E+04
       278   4  4.418912E+05 -1.514494E+01  2.386038E+03 -5.426400E+04  1.905064E+03  2.601812E+04
       278   5  4.418293E+05 -5.287452E+01  1.387769E+03 -4.233508E+04  1.219696E+03  2.141480E+04
       278   6  4.419072E+05 -1.958326E+01  8.612010E+02 -5.426402E+04  5.326614E+02  1.675531E+04
       278   7  8.647268E+05  1.017117E+05  8.850287E+04 -5.414274E+04 -3.369343E+03  2.601631E+04
       278   8  7.922362E+05  8.427467E+04  7.286699E+04 -4.226310E+04 -4.119551E+03  2.141387E+04
       278   9  7.199025E+05  6.691981E+04  5.774776E+04 -5.424051E+04 -4.871340E+03  1.675529E+04
       278  10  1.922523E+04 -1.017539E+05 -8.374145E+04 -5.438533E+04 -2.618833E-10  4.803747E-11
       278  11  9.153897E+04 -8.438858E+04 -7.009876E+04 -4.240713E+04  1.044515E-10  1.084725E-10
       278  12  1.639852E+05 -6.696411E+04 -5.602994E+04 -5.428760E+04  1.486206E-10  1.704971E-10
       278  13  4.418910E+05 -1.587299E+01  2.384759E+03 -5.426404E+04  7.947463E-11 -4.083537E-11
       278  14  4.418292E+05 -5.336747E+01  1.386904E+03 -4.233510E+04 -2.692999E-10  1.047498E-10
       278  15  4.419071E+05 -1.988486E+01  8.606728E+02 -5.426403E+04  3.442223E-10  1.060233E-10
       278  16  8.647266E+05  1.017110E+05  8.850158E+04 -5.414267E+04 -3.238714E-10 -1.481063E-10
       278  17  7.922360E+05  8.427417E+04  7.286609E+04 -4.226303E+04 -3.512981E-10  7.011383E-11
       278  18  7.199024E+05  6.691950E+04  5.774718E+04 -5.424045E+04 -1.041254E-10  3.253943E-11
       278  19  1.922547E+04 -1.017532E+05 -8.374008E+04 -5.438518E+04 -7.175949E+03 -2.601994E+04
       278  20  9.153914E+04 -8.438808E+04 -7.009781E+04 -4.240701E+04 -6.555988E+03 -2.141573E+04
       278  21  1.639853E+05 -6.696380E+04 -5.602934E+04 -5.428752E+04 -5.934289E+03 -1.675533E+04
       278  22  4.418912E+05 -1.514494E+01  2.386038E+03 -5.426400E+04 -1.905064E+03 -2.601812E+04
       278  23  4.418293E+05 -5.287452E+01  1.387769E+03 -4.233508E+04 -1.219696E+03 -2.141480E+04
       278  24  4.419072E+05 -1.958326E+01  8.612010E+02 -5.426402E+04 -5.326614E+02 -1.675531E+04
       278  25  8.647268E+05  1.017117E+05  8.850287E+04 -5.414274E+04  3.369343E+03 -2.601631E+04
       278  26  7.922362E+05  8.427467E+04  7.286699E+04 -4.226310E+04  4.119551E+03 -2.141387E+04
       278  27  7.199025E+05  6.691981E+04  5.774776E+04 -5.424051E+04  4.871340E+03 -1.675529E+04
       279   1  2.167294E+05 -5.417584E+04 -4.504476E+04 -5.426467E+04  5.775308E+03  1.402888E+04
       279   2  2.889831E+05 -3.680934E+04 -3.064970E+04 -4.233534E+04  5.510201E+03  9.355267E+03
       279   3  3.612802E+05 -1.943371E+04 -1.607983E+04 -5.423373E+04  5.244322E+03  4.680187E+03
       279   4  4.418901E+05 -1.046492E+01  7.027028E+02 -5.425725E+04  3.907498E+02  1.402925E+04
       279   5  4.418747E+05 -5.341243E+00  5.404927E+02 -4.234357E+04  1.235431E+02  9.356031E+03
       279   6  4.418970E+05  9.251727E+00  5.542511E+02 -5.425725E+04 -1.444060E+02  4.681355E+03
       279   7  6.670990E+05  5.415177E+04  4.644763E+04 -5.424981E+04 -4.995724E+03  1.402963E+04
       279   8  5.947886E+05  3.679721E+04  3.172956E+04 -4.235179E+04 -5.264417E+03  9.356795E+03
       279   9  5.225200E+05  1.945182E+04  1.718809E+04 -5.428077E+04 -5.533821E+03  4.682523E+03
       279  10  2.167293E+05 -5.417606E+04 -4.504519E+04 -5.426474E+04  1.009842E-10  1.341931E-10
       279  11  2.889831E+05 -3.680944E+04 -3.064992E+04 -4.233539E+04 -4.047724E-10 -7.030885E-11
       279  12  3.612802E+05 -1.943375E+04 -1.607993E+04 -5.423375E+04 -1.103284E-10  3.223519E-12
       279  13  4.418900E+05 -1.067636E+01  7.023326E+02 -5.425725E+04  2.576698E-10  6.651865E-11
       279  14  4.418747E+05 -5.435264E+00  5.403281E+02 -4.234357E+04 -5.585391E-10  5.070857E-11
       279  15  4.418970E+05  9.228183E+00  5.542099E+02 -5.425724E+04 -7.003483E-10  5.617951E-11
       279  16  6.670990E+05  5.415155E+04  4.644721E+04 -5.424975E+04 -2.498955E-10 -3.885490E-11
       279  17  5.947886E+05  3.679711E+04  3.172935E+04 -4.235175E+04 -2.980864E-10 -1.905544E-12
       279  18  5.225199E+05  1.945179E+04  1.718800E+04 -5.428075E+04 -9.043218E-11  7.478339E-11
       279  19  2.167294E+05 -5.417584E+04 -4.504476E+04 -5.426467E+04 -5.775308E+03 -1.402888E+04
       279  20  2.889831E+05 -3.680934E+04 -3.064970E+04 -4.233534E+04 -5.510201E+03 -9.355267E+03
       279  21  3.612802E+05 -1.943371E+04 -1.607983E+04 -5.423373E+04 -5.244322E+03 -4.680187E+03
       279  22  4.418901E+05 -1.046492E+01  7.027028E+02 -5.425725E+04 -3.907498E+02 -1.402925E+04
       279  23  4.418747E+05 -5.341243E+00  5.404927E+02 -4.234357E+04 -1.235431E+02 -9.356031E+03
       279  24  4.418970E+05  9.251727E+00  5.542511E+02 -5.425725E+04  1.444060E+02 -4.681355E+03
       279  25  6.670990E+05  5.415177E+04  4.644763E+04 -5.424981E+04  4.995724E+03 -1.402963E+04
       279  26  5.947886E+05  3.679721E+04  3.172956E+04 -4.235179E+04  5.264417E+03 -9.356795E+03
       279  27  5.225200E+05  1.945182E+04  1.718809E+04 -5.428077E+04  5.533821E+03 -4.682523E+03
       280   1  4.140038E+05 -6.666989E+03 -4.878191E+03 -5.423658E+04  5.136112E+03  1.959060E+03
       280   2  4.862337E+05  1.067116E+04  9.961928E+03 -4.230700E+04  4.681953E+03 -2.714580E+03
       280   3  5.585252E+05  2.802530E+04  2.509924E+04 -5.419584E+04  4.227958E+03 -7.386076E+03
       280   4  4.419023E+05  1.024210E+01  6.228312E+02 -5.425528E+04 -2.521563E+02  1.960313E+03
       280   5  4.418732E+05 -6.107023E+00  9.127608E+02 -4.234601E+04 -7.041029E+02 -2.713450E+03
       280   6  4.419002E+05 -6.569802E+00  1.498447E+03 -5.425527E+04 -1.155836E+03 -7.385053E+03
       280   7  4.698016E+05  6.687442E+03  6.123924E+03 -5.427399E+04 -5.640661E+03  1.961566E+03
       280   8  3.975145E+05 -1.068349E+04 -8.136401E+03 -4.238502E+04 -6.089782E+03 -2.712320E+03
       280   9  3.252883E+05 -2.803927E+04 -2.210295E+04 -5.431469E+04 -6.538638E+03 -7.384030E+03
       280  10  4.140038E+05 -6.667000E+03 -4.878247E+03 -5.423659E+04 -5.229187E-10  1.347074E-12
       280  11  4.862337E+05  1.067115E+04  9.961873E+03 -4.230699E+04  8.148585E-11  4.104141E-12
       280  12  5.585252E+05  2.802524E+04  2.509911E+04 -5.419582E+04 -2.653828E-10  5.623758E-11
       280  13  4.419023E+05  1.023796E+01  6.228239E+02 -5.425528E+04 -3.889630E-10  1.280293E-10
       280  14  4.418732E+05 -6.115064E+00  9.127461E+02 -4.234601E+04 -5.543253E-10  4.900218E-11
       280  15  4.419002E+05 -6.628739E+00  1.498342E+03 -5.425528E+04 -4.724237E-10 -8.363838E-11
       280  16  4.698016E+05  6.687429E+03  6.123857E+03 -5.427398E+04  1.826311E-10  9.384042E-11
       280  17  3.975145E+05 -1.068350E+04 -8.136484E+03 -4.238504E+04 -2.554705E-10  1.014948E-11
       280  18  3.252882E+05 -2.803934E+04 -2.210313E+04 -5.431473E+04  2.352679E-11 -1.317687E-10
       280  19  4.140038E+05 -6.666989E+03 -4.878191E+03 -5.423658E+04 -5.136112E+03 -1.959060E+03
       280  20  4.862337E+05  1.067116E+04  9.961928E+03 -4.230700E+04 -4.681953E+03  2.714580E+03
       280  21  5.585252E+05  2.802530E+04  2.509924E+04 -5.419584E+04 -4.227958E+03  7.386076E+03
       280  22  4.419023E+05  1.024210E+01  6.228312E+02 -5.425528E+04  2.521563E+02 -1.960313E+03
       280  23  4.418732E+05 -6.107023E+00  9.127608E+02 -4.234601E+04  7.041029E+02  2.713450E+03
       280  24  4.419002E+05 -6.569802E+00  1.498447E+03 -5.425527E+04  1.155836E+03  7.385053E+03
       280  25  4.698016E+05  6.687442E+03  6.123924E+03 -5.427399E+04  5.640661E+03 -1.961566E+03
       280  26  3.975145E+05 -1.068349E+04 -8.136401E+03 -4.238502E+04  6.089782E+03  2.712320E+03
       280  27  3.252883E+05 -2.803927E+04 -2.210295E+04 -5.431469E+04  6.538638E+03  7.384030E+03
       281   1  6.113142E+05  4.077989E+04  3.668477E+04 -5.416969E+04  3.929724E+03 -1.010967E+04
       281   2  6.835046E+05  5.810587E+04  5.265900E+04 -4.219398E+04  2.214457E+03 -1.476708E+04
       281   3  7.559807E+05  7.561958E+04  6.979761E+04 -5.405609E+04  5.001791E+02 -1.937502E+04
       281   4  4.419450E+05 -2.063996E+01  1.949578E+03 -5.425969E+04 -1.468497E+03 -1.010887E+04
       281   5  4.418033E+05 -6.552402E+01  3.347777E+03 -4.234046E+04 -3.126377E+03 -1.476692E+04
       281   6  4.419336E+05  6.802962E+01  5.871296E+03 -5.425962E+04 -4.783075E+03 -1.937547E+04
       281   7  2.726031E+05 -4.082295E+04 -3.278703E+04 -5.434966E+04 -6.865274E+03 -1.010807E+04
       281   8  2.001576E+05 -5.824056E+04 -4.596642E+04 -4.248689E+04 -8.465171E+03 -1.476676E+04
       281   9  1.279804E+05 -7.548965E+04 -5.806008E+04 -5.446305E+04 -1.006371E+04 -1.937592E+04
       281  10  6.113141E+05  4.077978E+04  3.668455E+04 -5.416966E+04 -3.088928E-10  1.470836E-12
       281  11  6.835045E+05  5.810564E+04  5.265858E+04 -4.219395E+04  1.935411E-10 -2.347801E-11
       281  12  7.559806E+05  7.561917E+04  6.979690E+04 -5.405608E+04  9.245146E-11 -3.344343E-11
       281  13  4.419450E+05 -2.075030E+01  1.949382E+03 -5.425970E+04 -2.575200E-11 -4.306130E-11
       281  14  4.418032E+05 -6.576085E+01  3.347349E+03 -4.234050E+04  3.091463E-10  4.626882E-11
       281  15  4.419335E+05  6.762027E+01  5.870548E+03 -5.425970E+04  2.341155E-10 -9.911998E-12
       281  16  2.726030E+05 -4.082308E+04 -3.278731E+04 -5.434971E+04 -4.532431E-11 -1.127513E-10
       281  17  2.001574E+05 -5.824081E+04 -4.596697E+04 -4.248699E+04  5.177991E-10  8.759578E-11
       281  18  1.279802E+05 -7.549008E+04 -5.806098E+04 -5.446321E+04 -5.691760E-10  5.929604E-11
       281  19  6.113142E+05  4.077989E+04  3.668477E+04 -5.416969E+04 -3.929724E+03  1.010967E+04
       281  20  6.835046E+05  5.810587E+04  5.265900E+04 -4.219398E+04 -2.214457E+03  1.476708E+04
       281  21  7.559807E+05  7.561958E+04  6.979761E+04 -5.405609E+04 -5.001791E+02  1.937502E+04
       281  22  4.419450E+05 -2.063996E+01  1.949578E+03 -5.425969E+04  1.468497E+03  1.010887E+04
       281  23  4.418033E+05 -6.552402E+01  3.347777E+03 -4.234046E+04  3.126377E+03  1.476692E+04
       281  24  4.419336E+05  6.802962E+01  5.871296E+03 -5.425962E+04  4.783075E+03  1.937547E+04
       281  25  2.726031E+05 -4.082295E+04 -3.278703E+04 -5.434966E+04  6.865274E+03  1.010807E+04
       281  26  2.001576E+05 -5.824056E+04 -4.596642E+04 -4.248689E+04  8.465171E+03  1.476676E+04
       281  27  1.279804E+05 -7.548965E+04 -5.806008E+04 -5.446305E+04  1.006371E+04  1.937592E+04
       282   1  8.091878E+05  8.808717E+04  8.275350E+04 -5.339225E+04 -4.519467E+02 -2.214406E+04
       282   2  8.806637E+05  1.058134E+05  1.033099E+05 -4.252649E+04 -8.280588E+03 -2.645161E+04
       282   3  9.541923E+05  1.274368E+05  1.299446E+05 -5.549347E+04 -1.610863E+04 -2.977967E+04
       282   4  4.422772E+05 -2.529509E+02  7.700233E+03 -5.425841E+04 -5.981520E+03 -2.214504E+04
       282   5  4.413401E+05  3.380601E+01  1.340161E+04 -4.234179E+04 -1.267645E+04 -2.645360E+04
       282   6  4.422551E+05  4.023054E+03  2.439742E+04 -5.425879E+04 -1.936987E+04 -2.978234E+04
       282   7  7.549437E+04 -8.860149E+04 -6.736005E+04 -5.512404E+04 -1.150789E+04 -2.214601E+04
       282   8  2.199730E+03 -1.057579E+05 -7.651688E+04 -4.215721E+04 -1.706926E+04 -2.645559E+04
       282   9 -6.943394E+04 -1.194073E+05 -8.116381E+04 -5.302516E+04 -2.262847E+04 -2.978503E+04
       282  10  8.091877E+05  8.808665E+04  8.275257E+04 -5.339226E+04  4.593066E-10 -3.131199E-11
       282  11  8.806635E+05  1.058126E+05  1.033085E+05 -4.252667E+04  6.309377E-10  1.137752E-10
       282  12  9.541918E+05  1.274358E+05  1.299424E+05 -5.549386E+04 -1.779141E-10  1.936809E-10
       282  13  4.422770E+05 -2.534872E+02  7.699244E+03 -5.425851E+04  2.591919E-10 -5.470618E-11
       282  14  4.413398E+05  3.301127E+01  1.339999E+04 -4.234206E+04 -2.452617E-10 -5.196441E-11
       282  15  4.422544E+05  4.022000E+03  2.439505E+04 -5.425926E+04 -1.001006E-10  6.314540E-11
       282  16  7.549410E+04 -8.860205E+04 -6.736122E+04 -5.512425E+04 -4.223445E-10 -1.453480E-10
       282  17  2.199229E+03 -1.057587E+05 -7.651875E+04 -4.215758E+04  4.688512E-11 -3.145924E-10
       282  18 -6.943473E+04 -1.194084E+05 -8.116644E+04 -5.302570E+04 -1.254089E-11  7.169531E-11
       282  19  8.091878E+05  8.808717E+04  8.275350E+04 -5.339225E+04  4.519467E+02  2.214406E+04
       282  20  8.806637E+05  1.058134E+05  1.033099E+05 -4.252649E+04  8.280588E+03  2.645161E+04
       282  21  9.541923E+05  1.274368E+05  1.299446E+05 -5.549347E+04  1.610863E+04  2.977967E+04
       282  22  4.422772E+05 -2.529509E+02  7.700233E+03 -5.425841E+04  5.981520E+03  2.214504E+04
       282  23  4.413401E+05  3.380601E+01  1.340161E+04 -4.234179E+04  1.267645E+04  2.645360E+04
       282  24  4.422551E+05  4.023054E+03  2.439742E+04 -5.425879E+04  1.936987E+04  2.978234E+04
       282  25  7.549437E+04 -8.860149E+04 -6.736005E+04 -5.512404E+04  1.150789E+04  2.214601E+04
       282  26  2.199730E+03 -1.057579E+05 -7.651688E+04 -4.215721E+04  1.706926E+04  2.645559E+04
       282  27 -6.943394E+04 -1.194073E+05 -8.116381E+04 -5.302516E+04  2.262847E+04  2.978503E+04
       283   1  1.012752E+06  1.330032E+05  1.474285E+05 -4.136604E+04 -1.574390E+04 -3.334470E+04
       283   2  1.071649E+06  1.618725E+05  1.904859E+05 -6.309672E+04 -6.594838E+04 -3.087115E+04
       283   3  1.158610E+06  2.764396E+05  2.876428E+05 -1.078274E+05 -1.161745E+05 -9.734488E+03
       283   4  4.472456E+05 -3.263753E+03  3.117641E+04 -5.406044E+04 -2.361870E+04 -3.334918E+04
       283   5  4.350464E+05  7.512314E+03  5.461249E+04 -4.258817E+04 -5.227285E+04 -3.086908E+04
       283   6  4.471958E+05  1.002925E+05  1.172228E+05 -5.411216E+04 -8.094112E+04 -9.722590E+03
       283   7 -1.179570E+05 -1.395502E+05 -8.509248E+04 -6.674310E+04 -3.148645E+04 -3.335333E+04
       283   8 -2.011735E+05 -1.468725E+05 -8.128341E+04 -2.210096E+04 -3.861110E+04 -3.086611E+04
       283   9 -2.637468E+05 -7.587979E+04 -5.322677E+04 -4.586594E+02 -4.574788E+04 -9.704601E+03
       283  10  1.012751E+06  1.330020E+05  1.474259E+05 -4.136646E+04 -1.248057E-10  1.888350E-10
       283  11  1.071644E+06  1.618703E+05  1.904760E+05 -6.309836E+04 -5.478735E-10  5.547157E-11
       283  12  1.158596E+06  2.764359E+05  2.876173E+05 -1.078283E+05 -6.589481E-11 -6.557945E-11
       283  13  4.472447E+05 -3.265097E+03  3.117327E+04 -5.406108E+04  4.814965E-10  1.745213E-10
       283  14  4.350432E+05  7.510557E+03  5.460557E+04 -4.258947E+04 -2.705332E-10  6.317458E-10
       283  15  4.471888E+05  1.002906E+05  1.172103E+05 -5.411280E+04  3.986254E-12  4.078621E-11
       283  16 -1.179584E+05 -1.395517E+05 -8.509644E+04 -6.674395E+04  7.196297E-11  2.119997E-10
       283  17 -2.011753E+05 -1.468740E+05 -8.128800E+04 -2.210192E+04  9.043441E-11  3.268384E-10
       283  18 -2.637491E+05 -7.588046E+04 -5.323088E+04 -4.590170E+02  2.153323E-10  8.121510E-12
       283  19  1.012752E+06  1.330032E+05  1.474285E+05 -4.136604E+04  1.574390E+04  3.334470E+04
       283  20  1.071649E+06  1.618725E+05  1.904859E+05 -6.309672E+04  6.594838E+04  3.087115E+04
       283  21  1.158610E+06  2.764396E+05  2.876428E+05 -1.078274E+05  1.161745E+05  9.734488E+03
       283  22  4.472456E+05 -3.263753E+03  3.117641E+04 -5.406044E+04  2.361870E+04  3.334918E+04
       283  23  4.350464E+05  7.512314E+03  5.461249E+04 -4.258817E+04  5.227285E+04  3.086908E+04
       283  24  4.471958E+05  1.002925E+05  1.172228E+05 -5.411216E+04  8.094112E+04  9.722590E+03
       283  25 -1.179570E+05 -1.395502E+05 -8.509248E+04 -6.674310E+04  3.148645E+04  3.335333E+04
       283  26 -2.011735E+05 -1.468725E+05 -8.128341E+04 -2.210096E+04  3.861110E+04  3.086611E+04
       283  27 -2.637468E+05 -7.587979E+04 -5.322677E+04 -4.586594E+02  4.574788E+04  9.704601E+03
       284   1  2.093132E+05  1.161198E+06  2.157717E+05 -1.593193E+05  6.395494E+03  7.564505E+04
       284   2  1.061633E+05  9.869669E+05  1.246357E+05 -1.111074E+05  1.832391E+04  3.874476E+04
       284   3  5.910245E+04  8.314448E+05  7.149210E+04 -1.162750E+05  1.405563E+04  1.834980E+03
       284   4  6.487042E+04  5.793940E+05  7.532018E+04 -1.240135E+05  6.430807E+03  5.257613E+04
       284   5  5.147344E+03  5.716934E+05  3.468726E+04 -9.737056E+04  1.833185E+04  3.437539E+04
       284   6 -1.705744E+03  5.794547E+05  1.909547E+04 -1.241035E+05  1.403385E+04  1.615508E+04
       284   7 -7.959213E+04 -2.097602E+03 -6.515289E+04 -8.874081E+04  6.463520E+03  2.952871E+04
       284   8 -9.587930E+04  1.565818E+05 -5.527126E+04 -8.364293E+04  1.833959E+04  3.000889E+04
       284   9 -6.251763E+04  3.275253E+05 -3.330384E+04 -1.319287E+05  1.401170E+04  3.046948E+04
       284  10  2.093116E+05  1.161192E+06  2.157609E+05 -1.593197E+05  5.375557E-10 -1.982814E-08
       284  11  1.061625E+05  9.869652E+05  1.246323E+05 -1.111080E+05  5.997326E-10  1.344008E-09
       284  12  5.910224E+04  8.314447E+05  7.149172E+04 -1.162750E+05  1.177624E-09  2.308237E-08
       284  13  6.486964E+04  5.793911E+05  7.531491E+04 -1.240138E+05  6.158062E-10 -1.290533E-10
       284  14  5.146666E+03  5.716920E+05  3.468441E+04 -9.737106E+04 -6.634105E-10  2.100869E-10
       284  15 -1.706026E+03  5.794544E+05  1.909461E+04 -1.241037E+05  7.853047E-10  3.116704E-12
       284  16 -7.959241E+04 -2.098550E+03 -6.515461E+04 -8.874096E+04  1.982245E-10  1.973323E-08
       284  17 -9.587990E+04  1.565808E+05 -5.527359E+04 -8.364337E+04  7.284157E-10 -1.369882E-09
       284  18 -6.251809E+04  3.275243E+05 -3.330595E+04 -1.319290E+05  4.350886E-10 -2.318329E-08
       284  19  2.093132E+05  1.161198E+06  2.157717E+05 -1.593193E+05 -6.395494E+03 -7.564505E+04
       284  20  1.061633E+05  9.869669E+05  1.246357E+05 -1.111074E+05 -1.832391E+04 -3.874476E+04
       284  21  5.910245E+04  8.314448E+05  7.149210E+04 -1.162750E+05 -1.405563E+04 -1.834980E+03
       284  22  6.487042E+04  5.793940E+05  7.532018E+04 -1.240135E+05 -6.430807E+03 -5.257613E+04
       284  23  5.147344E+03  5.716934E+05  3.468726E+04 -9.737056E+04 -1.833185E+04 -3.437539E+04
       284  24 -1.705744E+03  5.794547E+05  1.909547E+04 -1.241035E+05 -1.403385E+04 -1.615508E+04
       284  25 -7.959213E+04 -2.097602E+03 -6.515289E+04 -8.874081E+04 -6.463520E+03 -2.952871E+04
       284  26 -9.587930E+04  1.565818E+05 -5.527126E+04 -8.364293E+04 -1.833959E+04 -3.000889E+04
       284  27 -6.251763E+04  3.275253E+05 -3.330384E+04 -1.319287E+05 -1.401170E+04 -3.046948E+04
       285   1  3.476752E+04  7.074415E+05  4.185479E+04 -1.251091E+05  7.088837E+03  3.069313E+03
       285   2 -7.717257E+03  5.424316E+05 -5.855837E+02 -9.732270E+04 -2.005145E+03  3.195838E+01
       285   3 -4.832363E+04  3.781300E+05 -4.062915E+04 -1.237037E+05 -1.101094E+04 -3.004155E+03
       285   4  3.037500E+03  5.761816E+05  1.438391E+04 -1.242583E+05  7.072306E+03  1.360918E+04
       285   5  3.258431E+02  5.758305E+05  6.255119E+03 -9.717750E+04 -2.021306E+03  1.047004E+04
       285   6 -4.876937E+02  5.761808E+05  5.960585E+02 -1.242638E+05 -1.102681E+04  7.331370E+03
       285   7 -2.869356E+04  4.449383E+05 -1.308751E+04 -1.234076E+05  7.055801E+03  2.414685E+04
       285   8  8.368932E+03  6.092307E+05  1.309617E+04 -9.703229E+04 -2.037461E+03  2.090867E+04
       285   9  4.734581E+04  7.742690E+05  4.181951E+04 -1.248241E+05 -1.104270E+04  1.767013E+04
       285  10  3.476746E+04  7.074415E+05  4.185468E+04 -1.251092E+05  4.863766E-11  1.164363E-09
       285  11 -7.717262E+03  5.424316E+05 -5.855912E+02 -9.732270E+04 -3.912726E-10  6.525023E-10
       285  12 -4.832377E+04  3.781299E+05 -4.062940E+04 -1.237037E+05 -1.178166E-09  1.117828E-09
       285  13  3.037397E+03  5.761814E+05  1.438347E+04 -1.242583E+05 -1.093272E-10 -8.371967E-12
       285  14  3.258093E+02  5.758304E+05  6.254905E+03 -9.717748E+04  1.860139E-10 -1.057397E-10
       285  15 -4.878387E+02  5.761807E+05  5.957291E+02 -1.242637E+05  2.896294E-10 -1.419824E-10
       285  16 -2.869377E+04  4.449377E+05 -1.308870E+04 -1.234077E+05 -3.647634E-10 -1.192825E-09
       285  17  8.368810E+03  6.092303E+05  1.309534E+04 -9.703226E+04 -1.839377E-09 -7.186985E-10
       285  18  4.734559E+04  7.742686E+05  4.181870E+04 -1.248239E+05 -1.270185E-09 -1.042893E-09
       285  19  3.476752E+04  7.074415E+05  4.185479E+04 -1.251091E+05 -7.088837E+03 -3.069313E+03
       285  20 -7.717257E+03  5.424316E+05 -5.855837E+02 -9.732270E+04  2.005145E+03 -3.195838E+01
       285  21 -4.832363E+04  3.781300E+05 -4.062915E+04 -1.237037E+05  1.101094E+04  3.004155E+03
       285  22  3.037500E+03  5.761816E+05  1.438391E+04 -1.242583E+05 -7.072306E+03 -1.360918E+04
       285  23  3.258431E+02  5.758305E+05  6.255119E+03 -9.717750E+04  2.021306E+03 -1.047004E+04
       285  24 -4.876937E+02  5.761808E+05  5.960585E+02 -1.242638E+05  1.102681E+04 -7.331370E+03
       285  25 -2.869356E+04  4.449383E+05 -1.308751E+04 -1.234076E+05 -7.055801E+03 -2.414685E+04
       285  26  8.368932E+03  6.092307E+05  1.309617E+04 -9.703229E+04  2.037461E+03 -2.090867E+04
       285  27  4.734581E+04  7.742690E+05  4.181951E+04 -1.248241E+05  1.104270E+04 -1.767013E+04
       286   1 -7.602186E+04  2.563439E+05 -6.792723E+04 -1.214450E+05 -1.804369E+04 -7.242885E+03
       286   2 -1.182759E+05  9.521558E+04 -1.118050E+05 -1.003176E+05 -2.175647E+04  1.746463E+04
       286   3 -1.777565E+05 -7.351381E+04 -1.760985E+05 -1.325380E+05 -7.557864E+03  4.218509E+04
       286   4  9.350933E+02  5.751130E+05 -1.810433E+03 -1.240753E+05 -1.806510E+04  7.315086E+03
       286   5 -1.114970E+03  5.771124E+05 -7.674737E+03 -9.741332E+04 -2.174678E+04  1.138994E+04
       286   6 -1.680218E+04  5.750695E+05 -1.962645E+04 -1.240985E+05 -7.522897E+03  1.548489E+04
       286   7  7.788573E+04  8.939787E+05  6.430162E+04 -1.267069E+05 -1.808663E+04  2.188040E+04
       286   8  1.160308E+05  1.059227E+06  9.644199E+04 -9.450672E+04 -2.173715E+04  5.310597E+03
       286   9  1.441221E+05  1.224039E+06  1.368182E+05 -1.156499E+05 -7.488677E+03 -1.124311E+04
       286  10 -7.602222E+04  2.563437E+05 -6.792794E+04 -1.214451E+05 -3.301749E-10  6.082574E-10
       286  11 -1.182765E+05  9.521512E+04 -1.118065E+05 -1.003173E+05  1.499293E-10  3.503437E-10
       286  12 -1.777570E+05 -7.351574E+04 -1.761019E+05 -1.325378E+05 -1.944297E-10  1.961891E-10
       286  13  9.347284E+02  5.751128E+05 -1.811146E+03 -1.240752E+05 -1.339004E-09  8.672801E-11
       286  14 -1.115513E+03  5.771122E+05 -7.675869E+03 -9.741313E+04  4.125159E-10 -1.171901E-10
       286  15 -1.680231E+04  5.750692E+05 -1.962700E+04 -1.240984E+05 -3.036166E-10  1.168884E-11
       286  16  7.788525E+04  8.939781E+05  6.430011E+04 -1.267065E+05 -1.799703E-10 -7.150630E-10
       286  17  1.160302E+05  1.059227E+06  9.644105E+04 -9.450663E+04  2.001357E-12 -4.900507E-10
       286  18  1.441220E+05  1.224039E+06  1.368179E+05 -1.156499E+05 -3.657828E-10 -1.388406E-10
       286  19 -7.602186E+04  2.563439E+05 -6.792723E+04 -1.214450E+05  1.804369E+04  7.242885E+03
       286  20 -1.182759E+05  9.521558E+04 -1.118050E+05 -1.003176E+05  2.175647E+04 -1.746463E+04
       286  21 -1.777565E+05 -7.351381E+04 -1.760985E+05 -1.325380E+05  7.557864E+03 -4.218509E+04
       286  22  9.350933E+02  5.751130E+05 -1.810433E+03 -1.240753E+05  1.806510E+04 -7.315086E+03
       286  23 -1.114970E+03  5.771124E+05 -7.674737E+03 -9.741332E+04  2.174678E+04 -1.138994E+04
       286  24 -1.680218E+04  5.750695E+05 -1.962645E+04 -1.240985E+05  7.522897E+03 -1.548489E+04
       286  25  7.788573E+04  8.939787E+05  6.430162E+04 -1.267069E+05  1.808663E+04 -2.188040E+04
       286  26  1.160308E+05  1.059227E+06  9.644199E+04 -9.450672E+04  2.173715E+04 -5.310597E+03
       286  27  1.441221E+05  1.224039E+06  1.368182E+05 -1.156499E+05  7.488677E+03  1.124311E+04
       287   1 -8.881508E+05 -4.220877E+05 -2.794598E+05 -3.282483E+05 -1.215906E+05 -3.695900E+04
       287   2 -8.515924E+05 -2.693276E+05 -1.746086E+05 -3.166237E+05 -7.826876E+04 -1.272456E+03
       287   3 -8.499553E+05 -2.255540E+05 -1.340248E+05 -2.906635E+05 -2.946343E+04  1.985526E+04
       287   4 -4.191199E+05 -1.874700E+05 -1.445365E+05 -1.403586E+05 -9.548314E+04 -2.715358E+04
       287   5 -3.952597E+05 -7.830950E+04 -6.402096E+04 -1.686592E+05 -6.782705E+04  2.648485E+03
       287   6 -4.031855E+05 -7.499038E+04 -3.531995E+04 -1.826348E+05 -3.469184E+04  1.788914E+04
       287   7  5.013077E+04  4.721469E+04 -9.632216E+03  4.767497E+04 -6.935439E+04 -1.733397E+04
       287   8  6.128178E+04  1.127397E+05  4.655147E+04 -2.058992E+04 -5.737703E+04  6.573474E+03
       287   9  4.378639E+04  7.558087E+04  6.337329E+04 -7.453809E+04 -3.992435E+04  1.592180E+04
       287  10 -8.881671E+05 -4.220931E+05 -2.794902E+05 -3.282519E+05  1.192031E-10  3.141245E-11
       287  11 -8.515990E+05 -2.693293E+05 -1.746201E+05 -3.166237E+05 -6.821891E-11  4.320655E-11
       287  12 -8.499563E+05 -2.255546E+05 -1.340271E+05 -2.906630E+05  1.002484E-10  1.906608E-10
       287  13 -4.191299E+05 -1.874732E+05 -1.445551E+05 -1.403606E+05  3.767929E-11  2.200519E-11
       287  14 -3.952646E+05 -7.831075E+04 -6.402962E+04 -1.686590E+05 -1.111217E-10  4.258769E-11
       287  15 -4.031869E+05 -7.499105E+04 -3.532281E+04 -1.826343E+05 -8.021945E-11 -2.890745E-11
       287  16  5.012553E+04  4.721308E+04 -9.641819E+03  4.767400E+04 -1.193571E-10  7.342263E-11
       287  17  6.127823E+04  1.127388E+05  4.654520E+04 -2.058962E+04  4.989212E-10 -7.581688E-11
       287  18  4.378461E+04  7.558017E+04  6.336982E+04 -7.453758E+04 -4.738869E-10 -2.524918E-10
       287  19 -8.881508E+05 -4.220877E+05 -2.794598E+05 -3.282483E+05  1.215906E+05  3.695900E+04
       287  20 -8.515924E+05 -2.693276E+05 -1.746086E+05 -3.166237E+05  7.826876E+04  1.272456E+03
       287  21 -8.499553E+05 -2.255540E+05 -1.340248E+05 -2.906635E+05  2.946343E+04 -1.985526E+04
       287  22 -4.191199E+05 -1.874700E+05 -1.445365E+05 -1.403586E+05  9.548314E+04  2.715358E+04
       287  23 -3.952597E+05 -7.830950E+04 -6.402096E+04 -1.686592E+05  6.782705E+04 -2.648485E+03
       287  24 -4.031855E+05 -7.499038E+04 -3.531995E+04 -1.826348E+05  3.469184E+04 -1.788914E+04
       287  25  5.013077E+04  4.721469E+04 -9.632216E+03  4.767497E+04  6.935439E+04  1.733397E+04
       287  26  6.128178E+04  1.127397E+05  4.655147E+04 -2.058992E+04  5.737703E+04 -6.573474E+03
       287  27  4.378639E+04  7.558087E+04  6.337329E+04 -7.453809E+04  3.992435E+04 -1.592180E+04
       288   1 -8.049862E+05 -2.352040E+05 -1.202847E+05 -2.910631E+05 -2.819050E+04  1.765141E+04
       288   2 -7.715105E+05 -2.105808E+05 -9.804518E+04 -2.755542E+05 -1.954951E+04  1.909658E+04
       288   3 -7.312529E+05 -2.003775E+05 -8.307605E+04 -2.700815E+05 -1.064155E+04  1.982979E+04
       288   4 -3.986139E+05 -8.318919E+04 -2.756856E+04 -1.773143E+05 -2.951691E+04  1.715141E+04
       288   5 -4.017207E+05 -7.353936E+04 -1.443474E+04 -1.732387E+05 -2.163822E+04  1.831072E+04
       288   6 -3.978937E+05 -7.815604E+04 -7.963293E+03 -1.792000E+05 -1.349312E+04  1.875808E+04
       288   7  7.921760E+03  6.883814E+04  6.513605E+04 -6.349762E+04 -3.084424E+04  1.665105E+04
       288   8 -3.179334E+04  6.351275E+04  6.916686E+04 -7.086742E+04 -2.372829E+04  1.752436E+04
       288   9 -6.442066E+04  4.407425E+04  6.714293E+04 -8.827348E+04 -1.634638E+04  1.768576E+04
       288  10 -8.049871E+05 -2.352045E+05 -1.202868E+05 -2.910627E+05 -1.303426E-10  1.302701E-11
       288  11 -7.715110E+05 -2.105813E+05 -9.804659E+04 -2.755539E+05  3.904680E-10  2.035295E-10
       288  12 -7.312531E+05 -2.003780E+05 -8.307700E+04 -2.700814E+05 -9.274957E-10 -3.949104E-10
       288  13 -3.986149E+05 -8.318974E+04 -2.757075E+04 -1.773139E+05  3.174532E-10  1.517460E-10
       288  14 -4.017213E+05 -7.353984E+04 -1.443625E+04 -1.732384E+05  2.327098E-10  2.599259E-10
       288  15 -3.978940E+05 -7.815647E+04 -7.964296E+03 -1.791998E+05 -2.672030E-09 -7.880324E-10
       288  16  7.920665E+03  6.883758E+04  6.513374E+04 -6.349721E+04  7.925690E-10  3.052769E-10
       288  17 -3.179403E+04  6.351227E+04  6.916523E+04 -7.086708E+04 -8.876943E-10  3.233837E-10
       288  18 -6.442103E+04  4.407384E+04  6.714184E+04 -8.827325E+04 -4.062858E-09 -1.215636E-09
       288  19 -8.049862E+05 -2.352040E+05 -1.202847E+05 -2.910631E+05  2.819050E+04 -1.765141E+04
       288  20 -7.715105E+05 -2.105808E+05 -9.804518E+04 -2.755542E+05  1.954951E+04 -1.909658E+04
       288  21 -7.312529E+05 -2.003775E+05 -8.307605E+04 -2.700815E+05  1.064155E+04 -1.982979E+04
       288  22 -3.986139E+05 -8.318919E+04 -2.756856E+04 -1.773143E+05  2.951691E+04 -1.715141E+04
       288  23 -4.017207E+05 -7.353936E+04 -1.443474E+04 -1.732387E+05  2.163822E+04 -1.831072E+04
       288  24 -3.978937E+05 -7.815604E+04 -7.963293E+03 -1.792000E+05  1.349312E+04 -1.875808E+04
       288  25  7.921760E+03  6.883814E+04  6.513605E+04 -6.349762E+04  3.084424E+04 -1.665105E+04
       288  26 -3.179334E+04  6.351275E+04  6.916686E+04 -7.086742E+04  2.372829E+04 -1.752436E+04
       288  27 -6.442066E+04  4.407425E+04  6.714293E+04 -8.827348E+04  1.634638E+04 -1.768576E+04
       289   1 -7.020946E+05 -1.908391E+05 -7.455431E+04 -2.626874E+05 -9.134907E+03  1.866389E+04
       289   2 -6.690939E+05 -1.719214E+05 -6.343432E+04 -2.468328E+05 -6.511523E+03  1.680597E+04
       289   3 -6.267418E+05 -1.628891E+05 -5.362501E+04 -2.420137E+05 -3.874724E+03  1.491000E+04
       289   4 -3.975385E+05 -7.851458E+04 -6.020477E+03 -1.789189E+05 -1.180076E+04  1.766225E+04
       289   5 -4.022007E+05 -7.348221E+04 -3.301725E+03 -1.734348E+05 -9.217466E+03  1.578974E+04
       289   6 -3.975049E+05 -7.832686E+04 -1.861333E+03 -1.789862E+05 -6.620881E+03  1.387917E+04
       289   7 -9.288920E+04  3.381695E+04  6.250743E+04 -9.511290E+04 -1.446802E+04  1.666008E+04
       289   8 -1.352367E+05  2.496201E+04  5.682608E+04 -1.000082E+05 -1.192466E+04  1.477305E+04
       289   9 -1.682166E+05  6.238824E+03  4.989858E+04 -1.159378E+05 -9.368121E+03  1.284793E+04
       289  10 -7.020948E+05 -1.908395E+05 -7.455513E+04 -2.626872E+05 -4.163617E-09 -1.306198E-09
       289  11 -6.690941E+05 -1.719217E+05 -6.343494E+04 -2.468327E+05 -7.268647E-10  1.666256E-11
       289  12 -6.267419E+05 -1.628894E+05 -5.362546E+04 -2.420136E+05  9.251423E-10  9.393120E-11
       289  13 -3.975388E+05 -7.851496E+04 -6.021325E+03 -1.789188E+05 -2.635100E-09 -8.404568E-10
       289  14 -4.022009E+05 -7.348250E+04 -3.302353E+03 -1.734347E+05  6.027841E-10 -5.581801E-11
       289  15 -3.975050E+05 -7.832707E+04 -1.861777E+03 -1.789861E+05  4.958785E-10 -4.995511E-11
       289  16 -9.288950E+04  3.381659E+04  6.250651E+04 -9.511270E+04 -8.880968E-10 -4.868871E-10
       289  17 -1.352369E+05  2.496174E+04  5.682541E+04 -1.000081E+05  4.832916E-10 -1.373670E-10
       289  18 -1.682167E+05  6.238623E+03  4.989810E+04 -1.159377E+05 -1.306729E-10 -2.725553E-10
       289  19 -7.020946E+05 -1.908391E+05 -7.455431E+04 -2.626874E+05  9.134907E+03 -1.866389E+04
       289  20 -6.690939E+05 -1.719214E+05 -6.343432E+04 -2.468328E+05  6.511523E+03 -1.680597E+04
       289  21 -6.267418E+05 -1.628891E+05 -5.362501E+04 -2.420137E+05  3.874724E+03 -1.491000E+04
       289  22 -3.975385E+05 -7.851458E+04 -6.020477E+03 -1.789189E+05  1.180076E+04 -1.766225E+04
       289  23 -4.022007E+05 -7.348221E+04 -3.301725E+03 -1.734348E+05  9.217466E+03 -1.578974E+04
       289  24 -3.975049E+05 -7.832686E+04 -1.861333E+03 -1.789862E+05  6.620881E+03 -1.387917E+04
       289  25 -9.288920E+04  3.381695E+04  6.250743E+04 -9.511290E+04  1.446802E+04 -1.666008E+04
       289  26 -1.352367E+05  2.496201E+04  5.682608E+04 -1.000082E+05  1.192466E+04 -1.477305E+04
       289  27 -1.682166E+05  6.238824E+03  4.989858E+04 -1.159378E+05  9.368121E+03 -1.284793E+04
       290   1 -5.983304E+05 -1.524271E+05 -4.656417E+04 -2.342462E+05 -3.051852E+03  1.352737E+04
       290   2 -5.653425E+05 -1.336723E+05 -3.763507E+04 -2.183131E+05 -1.648076E+03  1.115210E+04
       290   3 -5.227460E+05 -1.245980E+05 -2.904093E+04 -2.134592E+05 -2.434218E+02  8.773013E+03
       290   4 -3.974558E+05 -7.834146E+04 -1.433322E+03 -1.789732E+05 -5.791592E+03  1.249917E+04
       290   5 -4.022564E+05 -7.349745E+04 -8.944467E+02 -1.734339E+05 -4.391795E+03  1.012269E+04
       290   6 -3.974501E+05 -7.833330E+04 -6.875877E+02 -1.789743E+05 -2.991155E+03  7.742388E+03
       290   7 -1.965392E+05 -4.252266E+03  4.369534E+04 -1.236835E+05 -8.532311E+03  1.147061E+04
       290   8 -2.391431E+05 -1.332035E+04  3.584465E+04 -1.285438E+05 -7.136305E+03  9.092983E+03
       290   9 -2.721385E+05 -3.206742E+04  2.766478E+04 -1.444830E+05 -5.739490E+03  6.711536E+03
       290  10 -5.983304E+05 -1.524273E+05 -4.656453E+04 -2.342462E+05 -2.108631E-10 -3.496095E-10
       290  11 -5.653425E+05 -1.336725E+05 -3.763530E+04 -2.183131E+05  2.199995E-10  6.759754E-11
       290  12 -5.227460E+05 -1.245981E+05 -2.904108E+04 -2.134592E+05  4.555503E-11  2.025081E-10
       290  13 -3.974558E+05 -7.834164E+04 -1.433679E+03 -1.789731E+05  1.310478E-10 -2.400367E-10
       290  14 -4.022565E+05 -7.349757E+04 -8.946755E+02 -1.734339E+05  1.464360E-10  1.207021E-10
       290  15 -3.974502E+05 -7.833336E+04 -6.877171E+02 -1.789743E+05 -2.874211E-11  5.751752E-11
       290  16 -1.965393E+05 -4.252427E+03  4.369495E+04 -1.236834E+05  3.932758E-10  6.970853E-11
       290  17 -2.391431E+05 -1.332045E+04  3.584439E+04 -1.285437E+05 -3.297742E-10  1.209423E-10
       290  18 -2.721386E+05 -3.206747E+04  2.766463E+04 -1.444830E+05 -3.433073E-10  4.617167E-11
       290  19 -5.983304E+05 -1.524271E+05 -4.656417E+04 -2.342462E+05  3.051852E+03 -1.352737E+04
       290  20 -5.653425E+05 -1.336723E+05 -3.763507E+04 -2.183131E+05  1.648076E+03 -1.115210E+04
       290  21 -5.227460E+05 -1.245980E+05 -2.904093E+04 -2.134592E+05  2.434218E+02 -8.773013E+03
       290  22 -3.974558E+05 -7.834146E+04 -1.433322E+03 -1.789732E+05  5.791592E+03 -1.249917E+04
       290  23 -4.022564E+05 -7.349745E+04 -8.944467E+02 -1.734339E+05  4.391795E+03 -1.012269E+04
       290  24 -3.974501E+05 -7.833330E+04 -6.875877E+02 -1.789743E+05  2.991155E+03 -7.742388E+03
       290  25 -1.965392E+05 -4.252266E+03  4.369534E+04 -1.236835E+05  8.532311E+03 -1.147061E+04
       290  26 -2.391431E+05 -1.332035E+04  3.584465E+04 -1.285438E+05  7.136305E+03 -9.092983E+03
       290  27 -2.721385E+05 -3.206742E+04  2.766478E+04 -1.444830E+05  5.739490E+03 -6.711536E+03
       291   1 -4.943376E+05 -1.140790E+05 -2.238512E+04 -2.056661E+05  4.285084E+02  7.332074E+03
       291   2 -4.612843E+05 -9.529946E+04 -1.415165E+04 -1.897106E+05  1.807445E+03  4.940135E+03
       291   3 -4.186135E+05 -8.621336E+04 -6.235100E+03 -1.848543E+05  3.186144E+03  2.548255E+03
       291   4 -3.974465E+05 -7.833569E+04 -6.800369E+02 -1.789784E+05 -2.320590E+03  6.301060E+03
       291   5 -4.022534E+05 -7.348486E+04 -8.485788E+02 -1.734297E+05 -9.415979E+02  3.909248E+03
       291   6 -3.974442E+05 -7.832760E+04 -1.334068E+03 -1.789809E+05  4.371323E+02  1.517484E+03
       291   7 -3.005466E+05 -4.259188E+04  2.102432E+04 -1.522870E+05 -5.070137E+03  5.269878E+03
       291   8 -3.432189E+05 -5.167000E+04  1.245430E+04 -1.571474E+05 -3.690924E+03  2.878255E+03
       291   9 -3.762743E+05 -7.044175E+04  3.567002E+03 -1.731073E+05 -2.311998E+03  4.866669E+02
       291  10 -4.943376E+05 -1.140791E+05 -2.238523E+04 -2.056661E+05 -9.463868E-11  1.182458E-10
       291  11 -4.612843E+05 -9.529948E+04 -1.415170E+04 -1.897106E+05 -2.662537E-10  3.786682E-11
       291  12 -4.186136E+05 -8.621337E+04 -6.235131E+03 -1.848543E+05 -2.071262E-10 -2.362874E-11
       291  13 -3.974466E+05 -7.833573E+04 -6.801217E+02 -1.789784E+05  7.891616E-11  5.228616E-11
       291  14 -4.022534E+05 -7.348488E+04 -8.486091E+02 -1.734297E+05 -4.387526E-10  2.115110E-11
       291  15 -3.974442E+05 -7.832760E+04 -1.334073E+03 -1.789809E+05 -1.770618E-10  3.815817E-11
       291  16 -3.005466E+05 -4.259191E+04  2.102422E+04 -1.522869E+05 -5.743941E-12  3.921131E-11
       291  17 -3.432190E+05 -5.167001E+04  1.245426E+04 -1.571474E+05 -9.050682E-11 -2.974577E-11
       291  18 -3.762743E+05 -7.044175E+04  3.566992E+03 -1.731073E+05 -7.491423E-11  8.344614E-11
       291  19 -4.943376E+05 -1.140790E+05 -2.238512E+04 -2.056661E+05 -4.285084E+02 -7.332074E+03
       291  20 -4.612843E+05 -9.529946E+04 -1.415165E+04 -1.897106E+05 -1.807445E+03 -4.940135E+03
       291  21 -4.186135E+05 -8.621336E+04 -6.235100E+03 -1.848543E+05 -3.186144E+03 -2.548255E+03
       291  22 -3.974465E+05 -7.833569E+04 -6.800369E+02 -1.789784E+05  2.320590E+03 -6.301060E+03
       291  23 -4.022534E+05 -7.348486E+04 -8.485788E+02 -1.734297E+05  9.415979E+02 -3.909248E+03
       291  24 -3.974442E+05 -7.832760E+04 -1.334068E+03 -1.789809E+05 -4.371323E+02 -1.517484E+03
       291  25 -3.005466E+05 -4.259188E+04  2.102432E+04 -1.522870E+05  5.070137E+03 -5.269878E+03
       291  26 -3.432189E+05 -5.167000E+04  1.245430E+04 -1.571474E+05  3.690924E+03 -2.878255E+03
       291  27 -3.762743E+05 -7.044175E+04  3.567002E+03 -1.731073E+05  2.311998E+03 -4.866669E+02
       292   1 -3.901955E+05 -7.570081E+04  2.575786E+01 -1.771001E+05  4.002558E+03  1.158953E+03
       292   2 -3.570397E+05 -5.689746E+04  7.113053E+03 -1.611136E+05  6.454941E+03 -8.240423E+02
       292   3 -3.144803E+05 -4.799711E+04  1.303153E+04 -1.562280E+05  8.899861E+03 -2.786595E+03
       292   4 -3.974847E+05 -7.831961E+04 -1.726241E+03 -1.790020E+05  1.248072E+03  1.261336E+02
       292   5 -4.021956E+05 -7.344474E+04 -3.045341E+03 -1.734221E+05  3.722265E+03 -1.848763E+03
       292   6 -3.975086E+05 -7.847732E+04 -5.550582E+03 -1.789437E+05  6.188889E+03 -3.803246E+03
       292   7 -4.047737E+05 -8.093840E+04 -3.478210E+03 -1.809039E+05 -1.506379E+03 -9.066735E+02
       292   8 -4.473493E+05 -8.999180E+04 -1.320379E+04 -1.857297E+05  9.898128E+02 -2.873402E+03
       292   9 -4.805294E+05 -1.089568E+05 -2.413295E+04 -2.016564E+05  3.478327E+03 -4.819745E+03
       292  10 -3.901955E+05 -7.570081E+04  2.572521E+01 -1.771001E+05 -1.461959E-10  1.640158E-11
       292  11 -3.570398E+05 -5.689748E+04  7.112973E+03 -1.611136E+05 -4.593314E-11  1.819909E-11
       292  12 -3.144804E+05 -4.799714E+04  1.303137E+04 -1.562280E+05 -1.963041E-10  3.702538E-11
       292  13 -3.974847E+05 -7.831961E+04 -1.726244E+03 -1.790020E+05 -2.296568E-10  3.350501E-12
       292  14 -4.021956E+05 -7.344475E+04 -3.045373E+03 -1.734221E+05  5.181544E-11  1.043311E-10
       292  15 -3.975086E+05 -7.847734E+04 -5.550681E+03 -1.789436E+05 -8.054977E-11  2.706461E-11
       292  16 -4.047737E+05 -8.093840E+04 -3.478216E+03 -1.809039E+05  8.386864E-11  6.091563E-11
       292  17 -4.473493E+05 -8.999181E+04 -1.320381E+04 -1.857297E+05  3.702113E-11  1.986350E-11
       292  18 -4.805294E+05 -1.089568E+05 -2.413302E+04 -2.016564E+05  1.630915E-10  5.423346E-11
       292  19 -3.901955E+05 -7.570081E+04  2.575786E+01 -1.771001E+05 -4.002558E+03 -1.158953E+03
       292  20 -3.570397E+05 -5.689746E+04  7.113053E+03 -1.611136E+05 -6.454941E+03  8.240423E+02
       292  21 -3.144803E+05 -4.799711E+04  1.303153E+04 -1.562280E+05 -8.899861E+03  2.786595E+03
       292  22 -3.974847E+05 -7.831961E+04 -1.726241E+03 -1.790020E+05 -1.248072E+03 -1.261336E+02
       292  23 -4.021956E+05 -7.344474E+04 -3.045341E+03 -1.734221E+05 -3.722265E+03  1.848763E+03
       292  24 -3.975086E+05 -7.847732E+04 -5.550582E+03 -1.789437E+05 -6.188889E+03  3.803246E+03
       292  25 -4.047737E+05 -8.093840E+04 -3.478210E+03 -1.809039E+05  1.506379E+03  9.066735E+02
       292  26 -4.473493E+05 -8.999180E+04 -1.320379E+04 -1.857297E+05 -9.898128E+02  2.873402E+03
       292  27 -4.805294E+05 -1.089568E+05 -2.413295E+04 -2.016564E+05 -3.478327E+03  4.819745E+03
       293   1 -2.858408E+05 -3.767440E+04  1.787483E+04 -1.492944E+05  1.061011E+04 -3.866582E+03
       293   2 -2.528827E+05 -1.817122E+04  2.040811E+04 -1.318974E+05  1.778332E+04 -3.923731E+03
       293   3 -2.126503E+05 -1.256557E+04  1.714550E+04 -1.247262E+05  2.480268E+04 -3.568074E+03
       293   4 -3.978283E+05 -7.815268E+04 -7.340788E+03 -1.792115E+05  7.789973E+03 -4.924264E+03
       293   5 -4.017485E+05 -7.347207E+04 -1.329830E+04 -1.732318E+05  1.540628E+04 -4.815517E+03
       293   6 -3.984851E+05 -8.277844E+04 -2.540438E+04 -1.774792E+05  2.286831E+04 -4.294088E+03
       293   7 -5.098038E+05 -1.186304E+05 -3.255738E+04 -2.091240E+05  4.970368E+03 -5.981756E+03
       293   8 -5.505925E+05 -1.287714E+05 -4.700627E+04 -2.145573E+05  1.302986E+04 -5.707071E+03
       293   9 -5.842853E+05 -1.529883E+05 -6.795655E+04 -2.302177E+05  2.093457E+04 -5.019855E+03
       293  10 -2.858410E+05 -3.767445E+04  1.787459E+04 -1.492944E+05  4.569392E-11  1.808563E-11
       293  11 -2.528831E+05 -1.817132E+04  2.040748E+04 -1.318973E+05 -4.361772E-11 -1.709410E-10
       293  12 -2.126509E+05 -1.256575E+04  1.714432E+04 -1.247262E+05 -2.307647E-10 -1.116656E-10
       293  13 -3.978283E+05 -7.815273E+04 -7.340947E+03 -1.792115E+05  8.624646E-11  1.370168E-11
       293  14 -4.017488E+05 -7.347216E+04 -1.329879E+04 -1.732318E+05 -6.423627E-10 -4.217798E-11
       293  15 -3.984857E+05 -8.277860E+04 -2.540540E+04 -1.774792E+05 -8.278097E-11 -6.443113E-11
       293  16 -5.098038E+05 -1.186305E+05 -3.255749E+04 -2.091239E+05 -1.534358E-10 -2.077175E-11
       293  17 -5.505927E+05 -1.287714E+05 -4.700665E+04 -2.145573E+05 -4.024117E-10  1.405875E-11
       293  18 -5.842858E+05 -1.529885E+05 -6.795742E+04 -2.302176E+05  1.429525E-10 -6.191745E-12
       293  19 -2.858408E+05 -3.767440E+04  1.787483E+04 -1.492944E+05 -1.061011E+04  3.866582E+03
       293  20 -2.528827E+05 -1.817122E+04  2.040811E+04 -1.318974E+05 -1.778332E+04  3.923731E+03
       293  21 -2.126503E+05 -1.256557E+04  1.714550E+04 -1.247262E+05 -2.480268E+04  3.568074E+03
       293  22 -3.978283E+05 -7.815268E+04 -7.340788E+03 -1.792115E+05 -7.789973E+03  4.924264E+03
       293  23 -4.017485E+05 -7.347207E+04 -1.329830E+04 -1.732318E+05 -1.540628E+04  4.815517E+03
       293  24 -3.984851E+05 -8.277844E+04 -2.540438E+04 -1.774792E+05 -2.286831E+04  4.294088E+03
       293  25 -5.098038E+05 -1.186304E+05 -3.255738E+04 -2.091240E+05 -4.970368E+03  5.981756E+03
       293  26 -5.505925E+05 -1.287714E+05 -4.700627E+04 -2.145573E+05 -1.302986E+04  5.707071E+03
       293  27 -5.842853E+05 -1.529883E+05 -6.795655E+04 -2.302177E+05 -2.093457E+04  5.019855E+03
       294   1 -1.772364E+05 -5.494974E+03  1.629770E+04 -1.343619E+05  3.177788E+04 -3.227799E+03
       294   2 -1.577801E+05  3.036081E+04  3.210293E+02 -8.293421E+04  5.391489E+04  5.466862E+03
       294   3 -1.647772E+05 -3.058189E+04 -5.618005E+04 -1.955921E+04  7.287651E+04  2.262808E+04
       294   4 -4.026571E+05 -7.526146E+04 -3.254773E+04 -1.824303E+05  2.757281E+04 -4.805091E+03
       294   5 -3.958352E+05 -7.779929E+04 -5.898882E+04 -1.689523E+05  5.882650E+04  7.307473E+03
       294   6 -4.172919E+05 -1.789702E+05 -1.331920E+05 -1.435257E+05  8.690296E+04  2.788472E+04
       294   7 -6.280265E+05 -1.450274E+05 -8.139591E+04 -2.304844E+05  2.336939E+04 -6.381990E+03
       294   8 -6.338301E+05 -1.859454E+05 -1.183021E+05 -2.549366E+05  6.373602E+04  9.146901E+03
       294   9 -6.697318E+05 -3.273181E+05 -2.102072E+05 -2.674351E+05  1.009229E+05  3.313588E+04
       294  10 -1.772375E+05 -5.495256E+03  1.629578E+04 -1.343618E+05 -7.470101E-12  1.874442E-11
       294  11 -1.577832E+05  3.036000E+04  3.155090E+02 -8.293444E+04 -2.499602E-10  1.341322E-10
       294  12 -1.647831E+05 -3.058387E+04 -5.619100E+04 -1.956053E+04 -3.896625E-10 -8.673661E-12
       294  13 -4.026580E+05 -7.526168E+04 -3.254920E+04 -1.824302E+05 -2.908697E-10 -1.289880E-11
       294  14 -3.958390E+05 -7.780028E+04 -5.899543E+04 -1.689526E+05 -9.200037E-11 -4.097018E-11
       294  15 -4.173002E+05 -1.789731E+05 -1.332077E+05 -1.435276E+05 -4.527701E-10  1.568941E-10
       294  16 -6.280271E+05 -1.450276E+05 -8.139702E+04 -2.304843E+05  4.558524E-11 -1.108893E-10
       294  17 -6.338345E+05 -1.859466E+05 -1.183099E+05 -2.549370E+05  8.732145E-11 -9.360880E-11
       294  18 -6.697431E+05 -3.273220E+05 -2.102285E+05 -2.674378E+05 -1.936161E-11  5.613513E-11
       294  19 -1.772364E+05 -5.494974E+03  1.629770E+04 -1.343619E+05 -3.177788E+04  3.227799E+03
       294  20 -1.577801E+05  3.036081E+04  3.210293E+02 -8.293421E+04 -5.391489E+04 -5.466862E+03
       294  21 -1.647772E+05 -3.058189E+04 -5.618005E+04 -1.955921E+04 -7.287651E+04 -2.262808E+04
       294  22 -4.026571E+05 -7.526146E+04 -3.254773E+04 -1.824303E+05 -2.757281E+04  4.805091E+03
       294  23 -3.958352E+05 -7.779929E+04 -5.898882E+04 -1.689523E+05 -5.882650E+04 -7.307473E+03
       294  24 -4.172919E+05 -1.789702E+05 -1.331920E+05 -1.435257E+05 -8.690296E+04 -2.788472E+04
       294  25 -6.280265E+05 -1.450274E+05 -8.139591E+04 -2.304844E+05 -2.336939E+04  6.381990E+03
       294  26 -6.338301E+05 -1.859454E+05 -1.183021E+05 -2.549366E+05 -6.373602E+04 -9.146901E+03
       294  27 -6.697318E+05 -3.273181E+05 -2.102072E+05 -2.674351E+05 -1.009229E+05 -3.313588E+04
       295   1 -5.567303E+05 -1.426391E+05 -1.207762E+05 -2.142482E+04  2.292999E+04  1.256699E+04
       295   2 -4.748680E+05 -1.941900E+05 -1.301308E+05 -3.532873E+04  2.638913E+04  4.014094E+04
       295   3 -3.770534E+05 -1.809314E+05 -1.255041E+05 -7.750451E+04  2.986578E+04  4.362242E+04
       295   4  3.614822E+05  8.498374E+04  9.937997E+04 -6.679254E+04  6.860823E+04  1.259187E+04
       295   5  3.511427E+05  6.296005E+03  4.628947E+04 -5.264035E+04  4.430711E+04  4.014337E+04
       295   6  3.615421E+05 -2.812564E+03  2.643657E+04 -6.675597E+04  2.002454E+04  4.361720E+04
       295   7  1.280476E+06  3.125543E+05  3.194854E+05 -1.122278E+05  1.143537E+05  1.261006E+04
       295   8  1.177797E+06  2.067388E+05  2.226716E+05 -6.997539E+04  6.224855E+04  4.014480E+04
       295   9  1.100656E+06  1.752724E+05  1.783485E+05 -5.599440E+04  1.017178E+04  4.361164E+04
       295  10 -5.567309E+05 -1.426394E+05 -1.207775E+05 -2.142506E+04 -3.528368E-10  3.593859E-11
       295  11 -4.748692E+05 -1.941919E+05 -1.301351E+05 -3.532959E+04 -1.660879E-10 -2.177402E-10
       295  12 -3.770549E+05 -1.809337E+05 -1.255094E+05 -7.750556E+04  4.916321E-11 -2.309025E-10
       295  13  3.614771E+05  8.498231E+04  9.937083E+04 -6.679324E+04  6.222572E-10 -3.310699E-10
       295  14  3.511402E+05  6.293748E+03  4.628275E+04 -5.264178E+04  1.368345E-10 -8.316660E-11
       295  15  3.615411E+05 -2.814715E+03  2.643224E+04 -6.675667E+04 -2.648397E-11 -2.988336E-10
       295  16  1.280462E+06  3.125506E+05  3.194606E+05 -1.122289E+05 -1.849654E-11  1.797400E-10
       295  17  1.177793E+06  2.067360E+05  2.226613E+05 -6.997740E+04 -2.214504E-10 -5.222059E-10
       295  18  1.100655E+06  1.752703E+05  1.783447E+05 -5.599476E+04 -3.561236E-10 -4.362399E-10
       295  19 -5.567303E+05 -1.426391E+05 -1.207762E+05 -2.142482E+04 -2.292999E+04 -1.256699E+04
       295  20 -4.748680E+05 -1.941900E+05 -1.301308E+05 -3.532873E+04 -2.638913E+04 -4.014094E+04
       295  21 -3.770534E+05 -1.809314E+05 -1.255041E+05 -7.750451E+04 -2.986578E+04 -4.362242E+04
       295  22  3.614822E+05  8.498374E+04  9.937997E+04 -6.679254E+04 -6.860823E+04 -1.259187E+04
       295  23  3.511427E+05  6.296005E+03  4.628947E+04 -5.264035E+04 -4.430711E+04 -4.014337E+04
       295  24  3.615421E+05 -2.812564E+03  2.643657E+04 -6.675597E+04 -2.002454E+04 -4.361720E+04
       295  25  1.280476E+06  3.125543E+05  3.194854E+05 -1.122278E+05 -1.143537E+05 -1.261006E+04
       295  26  1.177797E+06  2.067388E+05  2.226716E+05 -6.997539E+04 -6.224855E+04 -4.014480E+04
       295  27  1.100656E+06  1.752724E+05  1.783485E+05 -5.599440E+04 -1.017178E+04 -4.361164E+04
       296   1 -3.152675E+05 -1.588909E+05 -1.180719E+05 -6.593850E+04  2.031885E+04  3.917604E+04
       296   2 -2.265900E+05 -1.404908E+05 -1.080385E+05 -5.210063E+04  1.610438E+04  3.514761E+04
       296   3 -1.365498E+05 -1.191879E+05 -9.451472E+04 -6.766434E+04  1.188627E+04  2.985401E+04
       296   4  3.573074E+05  3.377099E+03  2.068937E+04 -6.701613E+04  1.642069E+04  3.917246E+04
       296   5  3.565216E+05  7.781577E+00  1.136944E+04 -5.231647E+04  1.074345E+04  3.514546E+04
       296   6  3.573414E+05 -2.067970E+02  6.551865E+03 -6.701655E+04  5.063154E+03  2.985385E+04
       296   7  1.030311E+06  1.656165E+05  1.594263E+05 -6.809494E+04  1.251836E+04  3.916890E+04
       296   8  9.399563E+05  1.404850E+05  1.307594E+05 -5.253249E+04  5.377572E+03  3.514330E+04
       296   9  8.514645E+05  1.187591E+05  1.076057E+05 -6.636822E+04 -1.765291E+03  2.985367E+04
       296  10 -3.152684E+05 -1.588926E+05 -1.180756E+05 -6.593914E+04  9.670343E-11 -2.821885E-10
       296  11 -2.265906E+05 -1.404922E+05 -1.080413E+05 -5.210109E+04 -2.135585E-10 -3.514170E-10
       296  12 -1.365502E+05 -1.191889E+05 -9.451666E+04 -6.766462E+04 -7.810676E-10  2.689820E-10
       296  13  3.573067E+05  3.375378E+03  2.068598E+04 -6.701665E+04 -7.927076E-10 -4.049310E-10
       296  14  3.565212E+05  6.423965E+00  1.136690E+04 -5.231677E+04 -6.616091E-12 -2.472223E-10
       296  15  3.573411E+05 -2.077611E+02  6.550142E+03 -6.701668E+04  2.230045E-10  1.720453E-10
       296  16  1.030311E+06  1.656148E+05  1.594232E+05 -6.809533E+04 -4.348161E-10 -3.817725E-10
       296  17  9.399559E+05  1.404837E+05  1.307571E+05 -5.253265E+04  2.355154E-10 -2.941883E-10
       296  18  8.514642E+05  1.187581E+05  1.076040E+05 -6.636818E+04  1.937389E-10  1.794220E-11
       296  19 -3.152675E+05 -1.588909E+05 -1.180719E+05 -6.593850E+04 -2.031885E+04 -3.917604E+04
       296  20 -2.265900E+05 -1.404908E+05 -1.080385E+05 -5.210063E+04 -1.610438E+04 -3.514761E+04
       296  21 -1.365498E+05 -1.191879E+05 -9.451472E+04 -6.766434E+04 -1.188627E+04 -2.985401E+04
       296  22  3.573074E+05  3.377099E+03  2.068937E+04 -6.701613E+04 -1.642069E+04 -3.917246E+04
       296  23  3.565216E+05  7.781577E+00  1.136944E+04 -5.231647E+04 -1.074345E+04 -3.514546E+04
       296  24  3.573414E+05 -2.067970E+02  6.551865E+03 -6.701655E+04 -5.063154E+03 -2.985385E+04
       296  25  1.030311E+06  1.656165E+05  1.594263E+05 -6.809494E+04 -1.251836E+04 -3.916890E+04
       296  26  9.399563E+05  1.404850E+05  1.307594E+05 -5.253249E+04 -5.377572E+03 -3.514330E+04
       296  27  8.514645E+05  1.187591E+05  1.076057E+05 -6.636822E+04  1.765291E+03 -2.985367E+04
       297   1 -7.168192E+04 -1.031313E+05 -8.233156E+04 -6.710561E+04  1.054868E+04  2.643451E+04
       297   2  1.740034E+04 -8.179422E+04 -6.641286E+04 -5.235830E+04  9.193795E+03  2.075243E+04
       297   3  1.067110E+05 -6.030094E+04 -4.957192E+04 -6.701819E+04  7.836691E+03  1.500611E+04
       297   4  3.570491E+05  7.040171E+01  5.007003E+03 -6.701795E+04  4.041790E+03  2.643515E+04
       297   5  3.569420E+05 -3.897551E+01  2.888527E+03 -5.231487E+04  2.611570E+03  2.075415E+04
       297   6  3.570683E+05  2.118204E+01  1.744066E+03 -6.701803E+04  1.179323E+03  1.500895E+04
       297   7  7.859550E+05  1.032606E+05  9.233607E+04 -6.693022E+04 -2.469515E+03  2.643579E+04
       297   8  6.965933E+05  8.170908E+04  7.218399E+04 -5.227141E+04 -3.974189E+03  2.075587E+04
       297   9  6.074853E+05  6.033939E+04  5.305688E+04 -6.701787E+04 -5.480680E+03  1.501179E+04
       297  10 -7.168222E+04 -1.031321E+05 -8.233308E+04 -6.710583E+04  2.141924E-10  1.863225E-10
       297  11  1.740014E+04 -8.179471E+04 -6.641382E+04 -5.235845E+04  6.534027E-10 -3.429943E-10
       297  12  1.067108E+05 -6.030119E+04 -4.957246E+04 -6.701829E+04  9.400657E-10 -1.077146E-09
       297  13  3.570489E+05  6.964678E+01  5.005659E+03 -6.701804E+04 -3.614858E-10  1.645349E-10
       297  14  3.569419E+05 -3.943996E+01  2.887704E+03 -5.231492E+04 -2.270556E-10  9.184379E-11
       297  15  3.570683E+05  2.093972E+01  1.743640E+03 -6.701805E+04 -3.743248E-10 -5.347411E-10
       297  16  7.859548E+05  1.032599E+05  9.233475E+04 -6.693016E+04 -2.524163E-10  1.767709E-10
       297  17  6.965932E+05  8.170862E+04  7.218315E+04 -5.227134E+04 -5.077277E-10 -1.111422E-10
       297  18  6.074852E+05  6.033914E+04  5.305640E+04 -6.701780E+04 -1.344334E-09 -8.693527E-10
       297  19 -7.168192E+04 -1.031313E+05 -8.233156E+04 -6.710561E+04 -1.054868E+04 -2.643451E+04
       297  20  1.740034E+04 -8.179422E+04 -6.641286E+04 -5.235830E+04 -9.193795E+03 -2.075243E+04
       297  21  1.067110E+05 -6.030094E+04 -4.957192E+04 -6.701819E+04 -7.836691E+03 -1.500611E+04
       297  22  3.570491E+05  7.040171E+01  5.007003E+03 -6.701795E+04 -4.041790E+03 -2.643515E+04
       297  23  3.569420E+05 -3.897551E+01  2.888527E+03 -5.231487E+04 -2.611570E+03 -2.075415E+04
       297  24  3.570683E+05  2.118204E+01  1.744066E+03 -6.701803E+04 -1.179323E+03 -1.500895E+04
       297  25  7.859550E+05  1.032606E+05  9.233607E+04 -6.693022E+04  2.469515E+03 -2.643579E+04
       297  26  6.965933E+05  8.170908E+04  7.218399E+04 -5.227141E+04  3.974189E+03 -2.075587E+04
       297  27  6.074853E+05  6.033939E+04  5.305688E+04 -6.701787E+04  5.480680E+03 -1.501179E+04
       298   1  1.717209E+05 -4.453111E+04 -3.618788E+04 -6.700267E+04  7.533381E+03  1.164519E+04
       298   2  2.608275E+05 -2.312723E+04 -1.864342E+04 -5.231050E+04  7.050012E+03  5.881947E+03
       298   3  3.499824E+05 -1.689801E+03 -7.842865E+02 -6.700141E+04  6.566008E+03  1.160768E+02
       298   4  3.570319E+05  3.579639E+01  1.389397E+03 -6.701281E+04  8.938623E+02  1.164845E+04
       298   5  3.570133E+05  2.807082E+01  9.803223E+02 -5.232141E+04  4.069598E+02  5.885499E+03
       298   6  3.570373E+05  5.524907E+01  8.887395E+02 -6.701281E+04 -8.050928E+01  1.199506E+02
       298   7  5.423756E+05  4.460059E+04  3.896505E+04 -6.702295E+04 -5.747601E+03  1.165171E+04
       298   8  4.532080E+05  2.318282E+04  2.060374E+04 -5.233232E+04 -6.237102E+03  5.889052E+03
       298   9  3.640922E+05  1.800319E+03  2.561928E+03 -6.702422E+04 -6.727102E+03  1.238247E+02
       298  10  1.717208E+05 -4.453127E+04 -3.618824E+04 -6.700274E+04 -3.925015E-09 -7.141541E-10
       298  11  2.608275E+05 -2.312728E+04 -1.864358E+04 -5.231054E+04  7.463077E-09  4.263005E-10
       298  12  3.499823E+05 -1.689812E+03 -7.843675E+02 -6.700141E+04  1.665803E-08  1.487874E-09
       298  13  3.570318E+05  3.565045E+01  1.389140E+03 -6.701282E+04 -1.637257E-10 -1.058577E-09
       298  14  3.570133E+05  2.803357E+01  9.802569E+02 -5.232141E+04 -6.028849E-10  5.014327E-10
       298  15  3.570373E+05  5.524905E+01  8.887395E+02 -6.701281E+04  2.575963E-10  1.351845E-09
       298  16  5.423755E+05  4.460043E+04  3.896474E+04 -6.702290E+04  3.611887E-09 -7.683110E-10
       298  17  4.532079E+05  2.318277E+04  2.060361E+04 -5.233229E+04 -7.482456E-09  3.451257E-10
       298  18  3.640922E+05  1.800307E+03  2.561843E+03 -6.702422E+04 -1.696976E-08  1.171553E-09
       298  19  1.717209E+05 -4.453111E+04 -3.618788E+04 -6.700267E+04 -7.533381E+03 -1.164519E+04
       298  20  2.608275E+05 -2.312723E+04 -1.864342E+04 -5.231050E+04 -7.050012E+03 -5.881947E+03
       298  21  3.499824E+05 -1.689801E+03 -7.842865E+02 -6.700141E+04 -6.566008E+03 -1.160768E+02
       298  22  3.570319E+05  3.579639E+01  1.389397E+03 -6.701281E+04 -8.938623E+02 -1.164845E+04
       298  23  3.570133E+05  2.807082E+01  9.803223E+02 -5.232141E+04 -4.069598E+02 -5.885499E+03
       298  24  3.570373E+05  5.524907E+01  8.887395E+02 -6.701281E+04  8.050928E+01 -1.199506E+02
       298  25  5.423756E+05  4.460059E+04  3.896505E+04 -6.702295E+04  5.747601E+03 -1.165171E+04
       298  26  4.532080E+05  2.318282E+04  2.060374E+04 -5.233232E+04  6.237102E+03 -5.889052E+03
       298  27  3.640922E+05  1.800319E+03  2.561928E+03 -6.702422E+04  6.727102E+03 -1.238247E+02
       299   1  4.150230E+05  1.405818E+04  1.300679E+04 -6.702420E+04  6.397729E+03 -3.240462E+03
       299   2  5.041386E+05  3.543211E+04  3.129793E+04 -5.231795E+04  5.757571E+03 -9.005793E+03
       299   3  5.933307E+05  5.684528E+04  5.000811E+04 -6.699675E+04  5.118192E+03 -1.476874E+04
       299   4  3.570420E+05  5.476758E+01  9.453703E+02 -6.701341E+04 -2.493860E+02 -3.236637E+03
       299   5  3.570043E+05  1.703779E+01  1.284443E+03 -5.232067E+04 -8.871590E+02 -9.002452E+03
       299   6  3.570337E+05  1.822847E+01  2.040718E+03 -6.701340E+04 -1.524065E+03 -1.476586E+04
       299   7  2.990643E+05 -1.394884E+04 -1.111607E+04 -6.700261E+04 -6.895891E+03 -3.232812E+03
       299   8  2.098907E+05 -3.539936E+04 -2.873002E+04 -5.232338E+04 -7.530344E+03 -8.999111E+03
       299   9  1.207900E+05 -5.681228E+04 -4.592942E+04 -6.703004E+04 -8.163843E+03 -1.476298E+04
       299  10  4.150230E+05  1.405816E+04  1.300670E+04 -6.702419E+04 -1.708684E-08  1.656954E-09
       299  11  5.041386E+05  3.543201E+04  3.129772E+04 -5.231791E+04 -8.464033E-09  8.197866E-10
       299  12  5.933306E+05  5.684504E+04  5.000765E+04 -6.699669E+04  3.287066E-09 -8.468162E-10
       299  13  3.570420E+05  5.475631E+01  9.453505E+02 -6.701341E+04  1.955030E-11  1.403939E-09
       299  14  3.570043E+05  1.695054E+01  1.284290E+03 -5.232067E+04  2.313680E-10 -1.094785E-10
       299  15  3.570337E+05  1.799367E+01  2.040304E+03 -6.701342E+04 -5.623718E-10 -4.846608E-10
       299  16  2.990642E+05 -1.394886E+04 -1.111618E+04 -6.700263E+04  1.717834E-08  1.387457E-09
       299  17  2.098906E+05 -3.539947E+04 -2.873028E+04 -5.232344E+04  7.831822E-09 -1.372024E-11
       299  18  1.207899E+05 -5.681253E+04 -4.592995E+04 -6.703014E+04 -3.984164E-09 -5.284829E-10
       299  19  4.150230E+05  1.405818E+04  1.300679E+04 -6.702420E+04 -6.397729E+03  3.240462E+03
       299  20  5.041386E+05  3.543211E+04  3.129793E+04 -5.231795E+04 -5.757571E+03  9.005793E+03
       299  21  5.933307E+05  5.684528E+04  5.000811E+04 -6.699675E+04 -5.118192E+03  1.476874E+04
       299  22  3.570420E+05  5.476758E+01  9.453703E+02 -6.701341E+04  2.493860E+02  3.236637E+03
       299  23  3.570043E+05  1.703779E+01  1.284443E+03 -5.232067E+04  8.871590E+02  9.002452E+03
       299  24  3.570337E+05  1.822847E+01  2.040718E+03 -6.701340E+04  1.524065E+03  1.476586E+04
       299  25  2.990643E+05 -1.394884E+04 -1.111607E+04 -6.700261E+04  6.895891E+03  3.232812E+03
       299  26  2.098907E+05 -3.539936E+04 -2.873002E+04 -5.232338E+04  7.530344E+03  8.999111E+03
       299  27  1.207900E+05 -5.681228E+04 -4.592942E+04 -6.703004E+04  8.163843E+03  1.476298E+04
       300   1  6.584804E+05  7.258044E+04  6.434313E+04 -6.697087E+04  4.713137E+03 -1.812954E+04
       300   2  7.475502E+05  9.393926E+04  8.418797E+04 -5.218623E+04  2.409097E+03 -2.387344E+04
       300   3  8.370108E+05  1.155649E+05  1.056006E+05 -6.681562E+04  1.070575E+02 -2.955005E+04
       300   4  3.570936E+05 -3.042597E+00  2.636040E+03 -6.702002E+04 -1.948907E+03 -1.812717E+04
       300   5  3.568976E+05 -8.059610E+01  4.491797E+03 -5.231237E+04 -4.174508E+03 -2.387236E+04
       300   6  3.570714E+05  9.571718E+01  7.861840E+03 -6.701989E+04 -6.397788E+03 -2.955020E+04
       300   7  5.579319E+04 -7.259220E+04 -5.907570E+04 -6.706913E+04 -8.607779E+03 -1.812480E+04
       300   8 -3.361002E+04 -9.410997E+04 -7.521226E+04 -5.243842E+04 -1.075405E+04 -2.387127E+04
       300   9 -1.226490E+05 -1.153878E+05 -8.988886E+04 -6.722396E+04 -1.289770E+04 -2.955035E+04
       300  10  6.584803E+05  7.258008E+04  6.434247E+04 -6.697080E+04 -4.021036E-10 -1.000230E-09
       300  11  7.475501E+05  9.393864E+04  8.418689E+04 -5.218619E+04 -2.073651E-10 -3.956632E-10
       300  12  8.370105E+05  1.155640E+05  1.055990E+05 -6.681562E+04 -8.448015E-10  2.203592E-10
       300  13  3.570936E+05 -3.396533E+00  2.635416E+03 -6.702004E+04 -7.756613E-10 -5.177648E-10
       300  14  3.568974E+05 -8.121285E+01  4.490693E+03 -5.231246E+04 -7.460048E-11 -5.261356E-10
       300  15  3.570711E+05  9.476834E+01  7.860122E+03 -6.702004E+04  4.319275E-10 -3.612775E-11
       300  16  5.579303E+04 -7.259257E+04 -5.907646E+04 -6.706925E+04  6.710309E-10 -5.057543E-10
       300  17 -3.361030E+04 -9.411061E+04 -7.521355E+04 -5.243863E+04  6.403303E-10  4.967553E-11
       300  18 -1.226494E+05 -1.153888E+05 -8.989081E+04 -6.722427E+04  9.286454E-10  6.101045E-12
       300  19  6.584804E+05  7.258044E+04  6.434313E+04 -6.697087E+04 -4.713137E+03  1.812954E+04
       300  20  7.475502E+05  9.393926E+04  8.418797E+04 -5.218623E+04 -2.409097E+03  2.387344E+04
       300  21  8.370108E+05  1.155649E+05  1.056006E+05 -6.681562E+04 -1.070575E+02  2.955005E+04
       300  22  3.570936E+05 -3.042597E+00  2.636040E+03 -6.702002E+04  1.948907E+03  1.812717E+04
       300  23  3.568976E+05 -8.059610E+01  4.491797E+03 -5.231237E+04  4.174508E+03  2.387236E+04
       300  24  3.570714E+05  9.571718E+01  7.861840E+03 -6.701989E+04  6.397788E+03  2.955020E+04
       300  25  5.579319E+04 -7.259220E+04 -5.907570E+04 -6.706913E+04  8.607779E+03  1.812480E+04
       300  26 -3.361002E+04 -9.410997E+04 -7.521226E+04 -5.243842E+04  1.075405E+04  2.387127E+04
       300  27 -1.226490E+05 -1.153878E+05 -8.988886E+04 -6.722396E+04  1.289770E+04  2.955035E+04
       301   1  9.027204E+05  1.309143E+05  1.217742E+05 -6.592597E+04 -1.163449E+03 -3.297228E+04
       301   2  9.908045E+05  1.528041E+05  1.477565E+05 -5.260405E+04 -1.166237E+04 -3.823883E+04
       301   3  1.081664E+06  1.799237E+05  1.818951E+05 -6.869252E+04 -2.215956E+04 -4.217403E+04
       301   4  3.575319E+05 -3.368385E+02  1.030696E+04 -6.701915E+04 -8.002303E+03 -3.297336E+04
       301   5  3.562606E+05  2.830160E+01  1.792566E+04 -5.231303E+04 -1.695745E+04 -3.824193E+04
       301   6  3.574942E+05  5.359870E+03  3.263593E+04 -6.701896E+04 -2.590941E+04 -4.217852E+04
       301   7 -1.873745E+05 -1.316066E+05 -1.011758E+05 -6.811133E+04 -1.483527E+04 -3.297442E+04
       301   8 -2.779012E+05 -1.527727E+05 -1.119264E+05 -5.202229E+04 -2.224721E+04 -3.824503E+04
       301   9 -3.661787E+05 -1.692370E+05 -1.166515E+05 -6.534738E+04 -2.965495E+04 -4.218304E+04
       301  10  9.027201E+05  1.309131E+05  1.217721E+05 -6.592600E+04 -2.087934E-10  3.941875E-10
       301  11  9.908039E+05  1.528025E+05  1.477535E+05 -5.260441E+04  3.754799E-10  1.609022E-10
       301  12  1.081663E+06  1.799217E+05  1.818909E+05 -6.869328E+04 -5.414702E-10 -5.640794E-11
       301  13  3.575315E+05 -3.380234E+02  1.030479E+04 -6.701936E+04  2.298760E-10  1.921987E-10
       301  14  3.562599E+05  2.665373E+01  1.792237E+04 -5.231355E+04 -5.313620E-10 -8.535758E-11
       301  15  3.574930E+05  5.357779E+03  3.263132E+04 -6.701984E+04 -7.684779E-10 -6.843184E-11
       301  16 -1.873750E+05 -1.316078E+05 -1.011783E+05 -6.811172E+04  1.623289E-11 -4.064754E-11
       301  17 -2.779021E+05 -1.527744E+05 -1.119301E+05 -5.202298E+04 -6.341773E-10 -2.334711E-10
       301  18 -3.661801E+05 -1.692392E+05 -1.166565E+05 -6.534839E+04  3.795008E-10 -1.074874E-10
       301  19  9.027204E+05  1.309143E+05  1.217742E+05 -6.592597E+04  1.163449E+03  3.297228E+04
       301  20  9.908045E+05  1.528041E+05  1.477565E+05 -5.260405E+04  1.166237E+04  3.823883E+04
       301  21  1.081664E+06  1.799237E+05  1.818951E+05 -6.869252E+04  2.215956E+04  4.217403E+04
       301  22  3.575319E+05 -3.368385E+02  1.030696E+04 -6.701915E+04  8.002303E+03  3.297336E+04
       301  23  3.562606E+05  2.830160E+01  1.792566E+04 -5.231303E+04  1.695745E+04  3.824193E+04
       301  24  3.574942E+05  5.359870E+03  3.263593E+04 -6.701896E+04  2.590941E+04  4.217852E+04
       301  25 -1.873745E+05 -1.316066E+05 -1.011758E+05 -6.811133E+04  1.483527E+04  3.297442E+04
       301  26 -2.779012E+05 -1.527727E+05 -1.119264E+05 -5.202229E+04  2.224721E+04  3.824503E+04
       301  27 -3.661787E+05 -1.692370E+05 -1.166515E+05 -6.534738E+04  2.965495E+04  4.218304E+04
       302   1  1.154525E+06  1.860319E+05  2.041126E+05 -4.976189E+04 -2.157534E+04 -4.667732E+04
       302   2  1.225690E+06  2.228310E+05  2.602882E+05 -8.005799E+04 -8.919912E+04 -4.272728E+04
       302   3  1.334531E+06  3.743672E+05  3.891666E+05 -1.386127E+05 -1.568594E+05 -1.341465E+04
       302   4  3.641718E+05 -4.394164E+03  4.170468E+04 -6.674358E+04 -3.159363E+04 -4.668417E+04
       302   5  3.478208E+05  1.000490E+04  7.304743E+04 -5.265497E+04 -6.991422E+04 -4.272570E+04
       302   6  3.641014E+05  1.341394E+05  1.568113E+05 -6.681795E+04 -1.082581E+05 -1.339808E+04
       302   7 -4.255884E+05 -1.948584E+05 -1.207361E+05 -8.370332E+04 -4.159939E+04 -4.669048E+04
       302   8 -5.293217E+05 -2.028684E+05 -1.142360E+05 -2.529127E+04 -5.065609E+04 -4.272242E+04
       302   9 -6.054504E+05 -1.061358E+05 -7.559886E+04  4.864230E+03 -5.973226E+04 -1.337029E+04
       302  10  1.154524E+06  1.860294E+05  2.041076E+05 -4.976270E+04 -8.566587E-10  1.560605E-10
       302  11  1.225681E+06  2.228270E+05  2.602699E+05 -8.006106E+04  3.353909E-10  1.058343E-10
       302  12  1.334504E+06  3.743604E+05  3.891201E+05 -1.386144E+05  5.050666E-10 -9.519527E-11
       302  13  3.641702E+05 -4.396773E+03  4.169871E+04 -6.674477E+04  6.105806E-11  4.180525E-10
       302  14  3.478150E+05  1.000162E+04  7.303482E+04 -5.265738E+04 -2.269433E-10  1.088332E-09
       302  15  3.640887E+05  1.341361E+05  1.567890E+05 -6.681912E+04 -1.759098E-10 -3.608968E-11
       302  16 -4.255908E+05 -1.948612E+05 -1.207435E+05 -8.370489E+04  1.742976E-10  1.825878E-10
       302  17 -5.293250E+05 -2.028710E+05 -1.142443E+05 -2.529302E+04 -3.286948E-10  3.217831E-10
       302  18 -6.054543E+05 -1.061370E+05 -7.560591E+04  4.863586E+03  4.971191E-11 -2.226780E-10
       302  19  1.154525E+06  1.860319E+05  2.041126E+05 -4.976189E+04  2.157534E+04  4.667732E+04
       302  20  1.225690E+06  2.228310E+05  2.602882E+05 -8.005799E+04  8.919912E+04  4.272728E+04
       302  21  1.334531E+06  3.743672E+05  3.891666E+05 -1.386127E+05  1.568594E+05  1.341465E+04
       302  22  3.641718E+05 -4.394164E+03  4.170468E+04 -6.674358E+04  3.159363E+04  4.668417E+04
       302  23  3.478208E+05  1.000490E+04  7.304743E+04 -5.265497E+04  6.991422E+04  4.272570E+04
       302  24  3.641014E+05  1.341394E+05  1.568113E+05 -6.681795E+04  1.082581E+05  1.339808E+04
       302  25 -4.255884E+05 -1.948584E+05 -1.207361E+05 -8.370332E+04  4.159939E+04  4.669048E+04
       302  26 -5.293217E+05 -2.028684E+05 -1.142360E+05 -2.529127E+04  5.065609E+04  4.272242E+04
       302  27 -6.054504E+05 -1.061358E+05 -7.559886E+04  4.864230E+03  5.973226E+04  1.337029E+04
       303   1  2.441361E+05  9.554876E+05  2.486087E+05 -2.229628E+05  7.738781E+03  7.335289E+04
       303   2  1.248476E+05  6.906240E+05  1.388165E+05 -1.623277E+05  2.092552E+04  3.240294E+04
       303   3  5.666158E+04  4.437714E+05  6.839816E+04 -1.847794E+05  1.280578E+04 -8.549998E+03
       303   4  5.745490E+04  2.038845E+05  6.669265E+04 -1.915909E+05  7.774774E+03  4.588780E+04
       303   5  4.632071E+03  1.970709E+05  3.121274E+04 -1.500828E+05  2.093096E+04  2.952884E+04
       303   6 -1.324181E+03  2.039679E+05  1.806966E+04 -1.916579E+05  1.277551E+04  1.314989E+04
       303   7 -1.292636E+05 -5.471994E+05 -1.152607E+05 -1.602568E+05  7.808021E+03  1.845579E+04
       303   8 -1.155991E+05 -2.962539E+05 -7.640554E+04 -1.378477E+05  2.093629E+04  2.665699E+04
       303   9 -5.931320E+04 -3.578022E+04 -3.226026E+04 -1.985338E+05  1.274474E+04  3.484153E+04
       303  10  2.441346E+05  9.554818E+05  2.485985E+05 -2.229633E+05  4.770728E-11 -2.693643E-09
       303  11  1.248468E+05  6.906228E+05  1.388137E+05 -1.623282E+05 -7.155712E-11  8.362508E-09
       303  12  5.666139E+04  4.437712E+05  6.839772E+04 -1.847793E+05 -7.753433E-10  1.669951E-08
       303  13  5.745427E+04  2.038822E+05  6.668858E+04 -1.915912E+05  1.171495E-10  4.463022E-10
       303  14  4.631367E+03  1.970698E+05  3.121028E+04 -1.500833E+05 -1.724895E-09  6.699075E-11
       303  15 -1.324402E+03  2.039676E+05  1.806903E+04 -1.916581E+05 -4.661817E-10  4.403401E-10
       303  16 -1.292638E+05 -5.471998E+05 -1.152615E+05 -1.602569E+05 -3.658488E-10  2.909467E-09
       303  17 -1.155997E+05 -2.962547E+05 -7.640770E+04 -1.378481E+05 -1.773439E-10 -8.133185E-09
       303  18 -5.931370E+04 -3.578157E+04 -3.226284E+04 -1.985342E+05 -1.209848E-09 -1.662626E-08
       303  19  2.441361E+05  9.554876E+05  2.486087E+05 -2.229628E+05 -7.738781E+03 -7.335289E+04
       303  20  1.248476E+05  6.906240E+05  1.388165E+05 -1.623277E+05 -2.092552E+04 -3.240294E+04
       303  21  5.666158E+04  4.437714E+05  6.839816E+04 -1.847794E+05 -1.280578E+04  8.549998E+03
       303  22  5.745490E+04  2.038845E+05  6.669265E+04 -1.915909E+05 -7.774774E+03 -4.588780E+04
       303  23  4.632071E+03  1.970709E+05  3.121274E+04 -1.500828E+05 -2.093096E+04 -2.952884E+04
       303  24 -1.324181E+03  2.039679E+05  1.806966E+04 -1.916579E+05 -1.277551E+04 -1.314989E+04
       303  25 -1.292636E+05 -5.471994E+05 -1.152607E+05 -1.602568E+05 -7.808021E+03 -1.845579E+04
       303  26 -1.155991E+05 -2.962539E+05 -7.640554E+04 -1.378477E+05 -2.093629E+04 -2.665699E+04
       303  27 -5.931320E+04 -3.578022E+04 -3.226026E+04 -1.985338E+05 -1.274474E+04 -3.484153E+04
       304   1  1.561325E+04  2.536565E+05  2.584911E+04 -1.927301E+05  2.148135E+03 -6.184104E+03
       304   2 -4.851281E+04 -2.403244E+03 -3.318981E+04 -1.497421E+05 -1.218175E+04 -9.783231E+03
       304   3 -1.102165E+05 -2.575324E+05 -8.934080E+04 -1.908709E+05 -2.597008E+04 -1.337726E+04
       304   4  2.807787E+03  2.011490E+05  1.432976E+04 -1.918723E+05  2.123907E+03  1.064511E+04
       304   5  4.144379E+02  2.006440E+05  8.420197E+03 -1.498164E+05 -1.220335E+04  6.419434E+03
       304   6  5.560247E+02  2.011172E+05  5.836268E+03 -1.918753E+05 -2.598933E+04  2.197447E+03
       304   7 -9.997707E+03  1.486447E+05  2.811318E+03 -1.910146E+05  2.099723E+03  2.747291E+04
       304   8  4.933924E+04  4.037311E+05  5.002900E+04 -1.498907E+05 -1.222495E+04  2.262730E+04
       304   9  1.113153E+05  6.599666E+05  1.010028E+05 -1.928803E+05 -2.600863E+04  1.778346E+04
       304  10  1.561324E+04  2.536565E+05  2.584903E+04 -1.927301E+05 -1.054118E-09 -1.710686E-08
       304  11 -4.851300E+04 -2.403386E+03 -3.319027E+04 -1.497421E+05  7.277429E-11 -8.134145E-09
       304  12 -1.102173E+05 -2.575327E+05 -8.934240E+04 -1.908712E+05  3.895257E-12  2.950649E-09
       304  13  2.807752E+03  2.011489E+05  1.432954E+04 -1.918723E+05 -1.185188E-09  5.805054E-10
       304  14  4.142669E+02  2.006440E+05  8.419840E+03 -1.498163E+05  7.243446E-10  4.703639E-11
       304  15  5.552981E+02  2.011170E+05  5.834990E+03 -1.918753E+05  1.414137E-09  2.901169E-10
       304  16 -9.997915E+03  1.486439E+05  2.809891E+03 -1.910147E+05 -9.362296E-10  1.745278E-08
       304  17  4.933894E+04  4.037305E+05  5.002776E+04 -1.498905E+05 -5.805278E-10  8.222474E-09
       304  18  1.113145E+05  6.599661E+05  1.010009E+05 -1.928800E+05  1.515058E-10 -3.027410E-09
       304  19  1.561325E+04  2.536565E+05  2.584911E+04 -1.927301E+05 -2.148135E+03  6.184104E+03
       304  20 -4.851281E+04 -2.403244E+03 -3.318981E+04 -1.497421E+05  1.218175E+04  9.783231E+03
       304  21 -1.102165E+05 -2.575324E+05 -8.934080E+04 -1.908709E+05  2.597008E+04  1.337726E+04
       304  22  2.807787E+03  2.011490E+05  1.432976E+04 -1.918723E+05 -2.123907E+03 -1.064511E+04
       304  23  4.144379E+02  2.006440E+05  8.420197E+03 -1.498164E+05  1.220335E+04 -6.419434E+03
       304  24  5.560247E+02  2.011172E+05  5.836268E+03 -1.918753E+05  2.598933E+04 -2.197447E+03
       304  25 -9.997707E+03  1.486447E+05  2.811318E+03 -1.910146E+05 -2.099723E+03 -2.747291E+04
       304  26  4.933924E+04  4.037311E+05  5.002900E+04 -1.498907E+05  1.222495E+04 -2.262730E+04
       304  27  1.113153E+05  6.599666E+05  1.010028E+05 -1.928803E+05  2.600863E+04 -1.778346E+04
       305   1 -1.558108E+05 -4.448775E+05 -1.285501E+05 -1.917072E+05 -3.705495E+04 -2.186970E+04
       305   2 -2.179756E+05 -6.985544E+05 -1.886659E+05 -1.480987E+05 -4.134234E+04  1.195105E+04
       305   3 -2.804987E+05 -9.566187E+05 -2.709018E+05 -1.870751E+05 -1.395726E+04  4.577433E+04
       305   4  1.900904E+02  2.012748E+05  5.201279E+03 -1.915343E+05 -3.708081E+04  1.249415E+03
       305   5  6.049769E+02  2.002629E+05  5.111779E+03 -1.502428E+05 -4.132490E+04 -1.383051E+03
       305   6  6.995085E+03  2.011325E+05  8.228835E+03 -1.915283E+05 -1.391746E+04 -3.998194E+03
       305   7  1.561648E+05  8.478240E+05  1.389320E+05 -1.913611E+05 -3.710663E+04  2.439219E+04
       305   8  2.191325E+05  1.099840E+06  1.988426E+05 -1.523897E+05 -4.130738E+04 -1.473620E+04
       305   9  2.943924E+05  1.360116E+06  2.872730E+05 -1.959895E+05 -1.387700E+04 -5.386330E+04
       305  10 -1.558124E+05 -4.448784E+05 -1.285536E+05 -1.917078E+05  5.410073E-10 -1.679815E-10
       305  11 -2.179775E+05 -6.985550E+05 -1.886694E+05 -1.480983E+05  5.566127E-10  3.607596E-11
       305  12 -2.804995E+05 -9.566210E+05 -2.709061E+05 -1.870746E+05  1.069639E-11 -3.110177E-10
       305  13  1.886134E+02  2.012744E+05  5.198692E+03 -1.915343E+05  5.543242E-11  6.074103E-10
       305  14  6.031424E+02  2.002624E+05  5.108566E+03 -1.502428E+05  8.411823E-10  3.371683E-11
       305  15  6.994873E+03  2.011325E+05  8.228441E+03 -1.915284E+05 -3.312688E-11  2.164323E-10
       305  16  1.561632E+05  8.478230E+05  1.389283E+05 -1.913604E+05  6.883834E-10  4.426628E-10
       305  17  2.191306E+05  1.099839E+06  1.988390E+05 -1.523902E+05  6.928296E-10  1.263725E-10
       305  18  2.943915E+05  1.360113E+06  2.872672E+05 -1.959902E+05 -1.768711E-10  3.907553E-10
       305  19 -1.558108E+05 -4.448775E+05 -1.285501E+05 -1.917072E+05  3.705495E+04  2.186970E+04
       305  20 -2.179756E+05 -6.985544E+05 -1.886659E+05 -1.480987E+05  4.134234E+04 -1.195105E+04
       305  21 -2.804987E+05 -9.566187E+05 -2.709018E+05 -1.870751E+05  1.395726E+04 -4.577433E+04
       305  22  1.900904E+02  2.012748E+05  5.201279E+03 -1.915343E+05  3.708081E+04 -1.249415E+03
       305  23  6.049769E+02  2.002629E+05  5.111779E+03 -1.502428E+05  4.132490E+04  1.383051E+03
       305  24  6.995085E+03  2.011325E+05  8.228835E+03 -1.915283E+05  1.391746E+04  3.998194E+03
       305  25  1.561648E+05  8.478240E+05  1.389320E+05 -1.913611E+05  3.710663E+04 -2.439219E+04
       305  26  2.191325E+05  1.099840E+06  1.988426E+05 -1.523897E+05  4.130738E+04  1.473620E+04
       305  27  2.943924E+05  1.360116E+06  2.872730E+05 -1.959895E+05  1.387700E+04  5.386330E+04
       306   1 -1.276794E+06 -5.038306E+05 -3.030525E+05 -4.814016E+05 -1.394006E+05 -4.410267E+04
       306   2 -1.238809E+06 -3.229504E+05 -1.817177E+05 -4.698602E+05 -8.928378E+04 -7.068910E+03
       306   3 -1.243873E+06 -2.717192E+05 -1.349900E+05 -4.392181E+05 -3.395451E+04  1.611367E+04
       306   4 -8.429724E+05 -2.703314E+05 -1.750087E+05 -2.906843E+05 -1.148094E+05 -3.488143E+04
       306   5 -8.132924E+05 -1.388874E+05 -7.750381E+04 -3.258026E+05 -7.958802E+04 -3.432666E+03
       306   6 -8.236745E+05 -1.340947E+05 -4.275579E+04 -3.418306E+05 -3.915835E+04  1.415901E+04
       306   7 -4.089522E+05 -3.675177E+04 -4.697945E+04 -9.982604E+04 -9.019931E+04 -2.564608E+04
       306   8 -3.875930E+05  4.520771E+04  2.669675E+04 -1.816484E+05 -6.988505E+04  2.073206E+02
       306   9 -4.033010E+05  3.533265E+03  4.946728E+04 -2.443874E+05 -4.436598E+04  1.220331E+04
       306  10 -1.276815E+06 -5.038379E+05 -3.030927E+05 -4.814066E+05  6.806687E-11  5.117806E-11
       306  11 -1.238818E+06 -3.229526E+05 -1.817328E+05 -4.698607E+05 -2.066048E-10  6.794907E-11
       306  12 -1.243875E+06 -2.717198E+05 -1.349927E+05 -4.392176E+05  1.502297E-10 -6.727353E-11
       306  13 -8.429869E+05 -2.703363E+05 -1.750358E+05 -2.906875E+05  3.048710E-10 -3.714725E-10
       306  14 -8.132992E+05 -1.388891E+05 -7.751576E+04 -3.258028E+05 -1.824619E-10 -3.411350E-10
       306  15 -8.236762E+05 -1.340953E+05 -4.275905E+04 -3.418301E+05  2.994782E-10 -4.179941E-10
       306  16 -4.089611E+05 -3.675466E+04 -4.699599E+04 -9.982791E+04 -4.250011E-10  7.211826E-11
       306  17 -3.875982E+05  4.520639E+04  2.668757E+04 -1.816484E+05  1.130743E-10 -1.807181E-10
       306  18 -4.033031E+05  3.532576E+03  4.946330E+04 -2.443870E+05 -6.369194E-10 -3.945649E-10
       306  19 -1.276794E+06 -5.038306E+05 -3.030525E+05 -4.814016E+05  1.394006E+05  4.410267E+04
       306  20 -1.238809E+06 -3.229504E+05 -1.817177E+05 -4.698602E+05  8.928378E+04  7.068910E+03
       306  21 -1.243873E+06 -2.717192E+05 -1.349900E+05 -4.392181E+05  3.395451E+04 -1.611367E+04
       306  22 -8.429724E+05 -2.703314E+05 -1.750087E+05 -2.906843E+05  1.148094E+05  3.488143E+04
       306  23 -8.132924E+05 -1.388874E+05 -7.750381E+04 -3.258026E+05  7.958802E+04  3.432666E+03
       306  24 -8.236745E+05 -1.340947E+05 -4.275579E+04 -3.418306E+05  3.915835E+04 -1.415901E+04
       306  25 -4.089522E+05 -3.675177E+04 -4.697945E+04 -9.982604E+04  9.019931E+04  2.564608E+04
       306  26 -3.875930E+05  4.520771E+04  2.669675E+04 -1.816484E+05  6.988505E+04 -2.073206E+02
       306  27 -4.033010E+05  3.533265E+03  4.946728E+04 -2.443874E+05  4.436598E+04 -1.220331E+04
       307   1 -1.194447E+06 -2.852134E+05 -1.193444E+05 -4.410898E+05 -3.158112E+04  1.431082E+04
       307   2 -1.159555E+06 -2.586615E+05 -9.404810E+04 -4.250383E+05 -2.139143E+04  1.617208E+04
       307   3 -1.118080E+06 -2.478893E+05 -7.740493E+04 -4.192702E+05 -1.094616E+04  1.735239E+04
       307   4 -8.181628E+05 -1.440105E+05 -3.337190E+04 -3.353689E+05 -3.307841E+04  1.374729E+04
       307   5 -8.210898E+05 -1.331490E+05 -1.746713E+04 -3.313663E+05 -2.361683E+04  1.533578E+04
       307   6 -8.172894E+05 -1.379204E+05 -9.633907E+03 -3.376474E+05 -1.390042E+04  1.624320E+04
       307   7 -4.417334E+05 -2.794777E+03  5.259189E+04 -2.295882E+05 -3.457668E+04  1.318337E+04
       307   8 -4.825078E+05 -7.627138E+03  5.910675E+04 -2.376470E+05 -2.584356E+04  1.449897E+04
       307   9 -5.164077E+05 -2.794512E+04  5.813136E+04 -2.559886E+05 -1.685624E+04  1.513344E+04
       307  10 -1.194448E+06 -2.852139E+05 -1.193466E+05 -4.410895E+05  2.177413E-10 -3.804204E-11
       307  11 -1.159556E+06 -2.586619E+05 -9.404945E+04 -4.250380E+05  6.040246E-11 -1.869517E-10
       307  12 -1.118080E+06 -2.478897E+05 -7.740572E+04 -4.192700E+05  2.365584E-10 -3.873429E-10
       307  13 -8.181640E+05 -1.440110E+05 -3.337431E+04 -3.353685E+05  3.198795E-10 -3.714316E-10
       307  14 -8.210905E+05 -1.331494E+05 -1.746862E+04 -3.313660E+05 -6.134345E-10 -1.592803E-10
       307  15 -8.172897E+05 -1.379208E+05 -9.634765E+03 -3.376472E+05  2.481815E-10 -1.429216E-10
       307  16 -4.417347E+05 -2.795285E+03  5.258931E+04 -2.295878E+05 -1.276407E-10 -5.450239E-10
       307  17 -4.825086E+05 -7.627543E+03  5.910510E+04 -2.376467E+05  1.925603E-11 -2.678899E-11
       307  18 -5.164081E+05 -2.794544E+04  5.813039E+04 -2.559884E+05 -1.820887E-10 -4.061464E-10
       307  19 -1.194447E+06 -2.852134E+05 -1.193444E+05 -4.410898E+05  3.158112E+04 -1.431082E+04
       307  20 -1.159555E+06 -2.586615E+05 -9.404810E+04 -4.250383E+05  2.139143E+04 -1.617208E+04
       307  21 -1.118080E+06 -2.478893E+05 -7.740493E+04 -4.192702E+05  1.094616E+04 -1.735239E+04
       307  22 -8.181628E+05 -1.440105E+05 -3.337190E+04 -3.353689E+05  3.307841E+04 -1.374729E+04
       307  23 -8.210898E+05 -1.331490E+05 -1.746713E+04 -3.313663E+05  2.361683E+04 -1.533578E+04
       307  24 -8.172894E+05 -1.379204E+05 -9.633907E+03 -3.376474E+05  1.390042E+04 -1.624320E+04
       307  25 -4.417334E+05 -2.794777E+03  5.259189E+04 -2.295882E+05  3.457668E+04 -1.318337E+04
       307  26 -4.825078E+05 -7.627138E+03  5.910675E+04 -2.376470E+05  2.584356E+04 -1.449897E+04
       307  27 -5.164077E+05 -2.794512E+04  5.813136E+04 -2.559886E+05  1.685624E+04 -1.513344E+04
       308   1 -1.087570E+06 -2.381305E+05 -6.819950E+04 -4.116542E+05 -9.170811E+03  1.622079E+04
       308   2 -1.053144E+06 -2.183932E+05 -5.614773E+04 -3.951487E+05 -6.166167E+03  1.438181E+04
       308   3 -1.009032E+06 -2.089996E+05 -4.567624E+04 -3.901555E+05 -3.147725E+03  1.250413E+04
       308   4 -8.168546E+05 -1.383601E+05 -7.280832E+03 -3.373120E+05 -1.195192E+04  1.517687E+04
       308   5 -8.216815E+05 -1.330817E+05 -3.984493E+03 -3.315957E+05 -8.988084E+03  1.332301E+04
       308   6 -8.168173E+05 -1.381388E+05 -2.235522E+03 -3.373923E+05 -6.010572E+03  1.143041E+04
       308   7 -5.460666E+05 -3.858485E+04  5.363271E+04 -2.629406E+05 -1.473434E+04  1.413247E+04
       308   8 -5.901655E+05 -4.776617E+04  4.817534E+04 -2.680211E+05 -1.181114E+04  1.226379E+04
       308   9 -6.245639E+05 -6.727473E+04  4.120317E+04 -2.846137E+05 -8.874397E+03  1.035632E+04
       308  10 -1.087571E+06 -2.381308E+05 -6.820015E+04 -4.116541E+05 -8.332885E-11 -2.913583E-10
       308  11 -1.053144E+06 -2.183934E+05 -5.614819E+04 -3.951486E+05 -7.128319E-10  1.458471E-10
       308  12 -1.009032E+06 -2.089998E+05 -4.567655E+04 -3.901555E+05  1.598163E-10  2.436108E-10
       308  13 -8.168548E+05 -1.383604E+05 -7.281533E+03 -3.373119E+05 -7.034298E-11 -1.520855E-10
       308  14 -8.216817E+05 -1.330819E+05 -3.984979E+03 -3.315956E+05 -1.340568E-10 -1.771108E-10
       308  15 -8.168173E+05 -1.381389E+05 -2.235835E+03 -3.373922E+05 -4.766031E-10  3.277389E-10
       308  16 -5.460669E+05 -3.858513E+04  5.363192E+04 -2.629405E+05  1.932896E-10 -2.233460E-10
       308  17 -5.901657E+05 -4.776637E+04  4.817479E+04 -2.680210E+05  8.139895E-11 -1.347087E-10
       308  18 -6.245640E+05 -6.727486E+04  4.120282E+04 -2.846137E+05 -6.089201E-11 -8.691929E-11
       308  19 -1.087570E+06 -2.381305E+05 -6.819950E+04 -4.116542E+05  9.170811E+03 -1.622079E+04
       308  20 -1.053144E+06 -2.183932E+05 -5.614773E+04 -3.951487E+05  6.166167E+03 -1.438181E+04
       308  21 -1.009032E+06 -2.089996E+05 -4.567624E+04 -3.901555E+05  3.147725E+03 -1.250413E+04
       308  22 -8.168546E+05 -1.383601E+05 -7.280832E+03 -3.373120E+05  1.195192E+04 -1.517687E+04
       308  23 -8.216815E+05 -1.330817E+05 -3.984493E+03 -3.315957E+05  8.988084E+03 -1.332301E+04
       308  24 -8.168173E+05 -1.381388E+05 -2.235522E+03 -3.373923E+05  6.010572E+03 -1.143041E+04
       308  25 -5.460666E+05 -3.858485E+04  5.363271E+04 -2.629406E+05  1.473434E+04 -1.413247E+04
       308  26 -5.901655E+05 -4.776617E+04  4.817534E+04 -2.680211E+05  1.181114E+04 -1.226379E+04
       308  27 -6.245639E+05 -6.727473E+04  4.120317E+04 -2.846137E+05  8.874397E+03 -1.035632E+04
       309   1 -9.793729E+05 -1.980986E+05 -3.822958E+04 -3.820655E+05 -2.245101E+03  1.107806E+04
       309   2 -9.449258E+05 -1.785298E+05 -2.879651E+04 -3.654421E+05 -7.262706E+02  8.618112E+03
       309   3 -9.004646E+05 -1.690655E+05 -1.975504E+04 -3.603916E+05  7.939104E+02  6.153312E+03
       309   4 -8.167529E+05 -1.381588E+05 -1.711119E+03 -3.373776E+05 -5.103743E+03  1.000611E+04
       309   5 -8.217577E+05 -1.331053E+05 -1.040281E+03 -3.315909E+05 -3.589996E+03  7.544484E+03
       309   6 -8.167490E+05 -1.381551E+05 -7.568896E+02 -3.373775E+05 -2.074939E+03  5.078002E+03
       309   7 -6.541063E+05 -7.821704E+04  3.480568E+04 -2.926790E+05 -7.963195E+03  8.933856E+03
       309   8 -6.985748E+05 -8.767979E+04  2.671489E+04 -2.977337E+05 -6.454327E+03  6.470629E+03
       309   9 -7.330268E+05 -1.072444E+05  1.824069E+04 -3.143608E+05 -4.944190E+03  4.002542E+03
       309  10 -9.793729E+05 -1.980988E+05 -3.822982E+04 -3.820655E+05  2.631168E-10  9.985682E-11
       309  11 -9.449258E+05 -1.785299E+05 -2.879665E+04 -3.654421E+05 -3.998519E-10 -1.847604E-10
       309  12 -9.004646E+05 -1.690656E+05 -1.975511E+04 -3.603916E+05 -3.830263E-10  1.676207E-10
       309  13 -8.167529E+05 -1.381590E+05 -1.711356E+03 -3.373776E+05 -1.205711E-10  1.322371E-10
       309  14 -8.217578E+05 -1.331054E+05 -1.040413E+03 -3.315909E+05 -1.591792E-10  1.236350E-10
       309  15 -8.167490E+05 -1.381552E+05 -7.569462E+02 -3.373775E+05  2.613098E-10  2.361677E-10
       309  16 -6.541064E+05 -7.821715E+04  3.480541E+04 -2.926789E+05 -2.970662E-10  6.471696E-11
       309  17 -6.985748E+05 -8.767984E+04  2.671474E+04 -2.977337E+05  2.928943E-10  3.516854E-10
       309  18 -7.330269E+05 -1.072444E+05  1.824061E+04 -3.143607E+05  1.601055E-10  1.386248E-10
       309  19 -9.793729E+05 -1.980986E+05 -3.822958E+04 -3.820655E+05  2.245101E+03 -1.107806E+04
       309  20 -9.449258E+05 -1.785298E+05 -2.879651E+04 -3.654421E+05  7.262706E+02 -8.618112E+03
       309  21 -9.004646E+05 -1.690655E+05 -1.975504E+04 -3.603916E+05 -7.939104E+02 -6.153312E+03
       309  22 -8.167529E+05 -1.381588E+05 -1.711119E+03 -3.373776E+05  5.103743E+03 -1.000611E+04
       309  23 -8.217577E+05 -1.331053E+05 -1.040281E+03 -3.315909E+05  3.589996E+03 -7.544484E+03
       309  24 -8.167490E+05 -1.381551E+05 -7.568896E+02 -3.373775E+05  2.074939E+03 -5.078002E+03
       309  25 -6.541063E+05 -7.821704E+04  3.480568E+04 -2.926790E+05  7.963195E+03 -8.933856E+03
       309  26 -6.985748E+05 -8.767979E+04  2.671489E+04 -2.977337E+05  6.454327E+03 -6.470629E+03
       309  27 -7.330268E+05 -1.072444E+05  1.824069E+04 -3.143608E+05  4.944190E+03 -4.002542E+03
       310   1 -8.707814E+05 -1.580788E+05 -1.277177E+04 -3.522569E+05  1.499981E+03  4.649590E+03
       310   2 -8.362704E+05 -1.384754E+05 -4.118101E+03 -3.356008E+05  2.918336E+03  2.142853E+03
       310   3 -7.917169E+05 -1.289899E+05  4.220427E+03 -3.305390E+05  4.336374E+03 -3.631337E+02
       310   4 -8.167425E+05 -1.381586E+05 -7.224336E+02 -3.373820E+05 -1.370575E+03  3.573719E+03
       310   5 -8.217620E+05 -1.330978E+05 -8.447176E+02 -3.315850E+05  4.849250E+01  1.067265E+03
       310   6 -8.167416E+05 -1.381553E+05 -1.282944E+03 -3.373831E+05  1.467209E+03 -1.438440E+03
       310   7 -7.627002E+05 -1.182381E+05  1.132685E+04 -3.225058E+05 -4.241419E+03  2.497739E+03
       310   8 -8.072532E+05 -1.277201E+05  2.428701E+03 -3.275690E+05 -2.821433E+03 -8.353736E+00
       310   9 -8.417656E+05 -1.473207E+05 -6.786320E+03 -3.442269E+05 -1.401831E+03 -2.513699E+03
       310  10 -8.707815E+05 -1.580788E+05 -1.277181E+04 -3.522569E+05 -1.894954E-10  1.117263E-10
       310  11 -8.362704E+05 -1.384754E+05 -4.118125E+03 -3.356008E+05 -6.657751E-10 -2.587853E-10
       310  12 -7.917169E+05 -1.289899E+05  4.220391E+03 -3.305390E+05 -6.920358E-10  4.525472E-10
       310  13 -8.167425E+05 -1.381586E+05 -7.224611E+02 -3.373820E+05 -6.820184E-11  1.492571E-10
       310  14 -8.217620E+05 -1.330978E+05 -8.447197E+02 -3.315850E+05 -1.350569E-10  3.720399E-10
       310  15 -8.167416E+05 -1.381553E+05 -1.282952E+03 -3.373831E+05 -3.437900E-10  7.224848E-10
       310  16 -7.627002E+05 -1.182382E+05  1.132680E+04 -3.225058E+05 -1.546176E-10 -3.457758E-11
       310  17 -8.072532E+05 -1.277201E+05  2.428686E+03 -3.275690E+05 -4.279551E-12  4.482466E-10
       310  18 -8.417656E+05 -1.473207E+05 -6.786336E+03 -3.442269E+05  2.871422E-10  7.720356E-10
       310  19 -8.707814E+05 -1.580788E+05 -1.277177E+04 -3.522569E+05 -1.499981E+03 -4.649590E+03
       310  20 -8.362704E+05 -1.384754E+05 -4.118101E+03 -3.356008E+05 -2.918336E+03 -2.142853E+03
       310  21 -7.917169E+05 -1.289899E+05  4.220427E+03 -3.305390E+05 -4.336374E+03  3.631337E+02
       310  22 -8.167425E+05 -1.381586E+05 -7.224336E+02 -3.373820E+05  1.370575E+03 -3.573719E+03
       310  23 -8.217620E+05 -1.330978E+05 -8.447176E+02 -3.315850E+05 -4.849250E+01 -1.067265E+03
       310  24 -8.167416E+05 -1.381553E+05 -1.282944E+03 -3.373831E+05 -1.467209E+03  1.438440E+03
       310  25 -7.627002E+05 -1.182381E+05  1.132685E+04 -3.225058E+05  4.241419E+03 -2.497739E+03
       310  26 -8.072532E+05 -1.277201E+05  2.428701E+03 -3.275690E+05  2.821433E+03  8.353736E+00
       310  27 -8.417656E+05 -1.473207E+05 -6.786320E+03 -3.442269E+05  1.401831E+03  2.513699E+03
       311   1 -7.620481E+05 -1.180101E+05  1.080573E+04 -3.224396E+05  5.166353E+03 -1.822405E+03
       311   2 -7.274848E+05 -9.840298E+04  1.834016E+04 -3.057701E+05  7.572386E+03 -3.948267E+03
       311   3 -6.830860E+05 -8.909854E+04  2.477391E+04 -3.006808E+05  9.968982E+03 -6.047865E+03
       311   4 -8.167820E+05 -1.381454E+05 -1.646568E+03 -3.373998E+05  2.291670E+03 -2.899820E+03
       311   5 -8.217084E+05 -1.330681E+05 -2.883226E+03 -3.315811E+05  4.725595E+03 -5.015401E+03
       311   6 -8.168065E+05 -1.382991E+05 -5.242790E+03 -3.373435E+05  7.149995E+03 -7.104750E+03
       311   7 -8.715125E+05 -1.582803E+05 -1.409893E+04 -3.523587E+05 -5.827198E+02 -3.977127E+03
       311   8 -9.159231E+05 -1.677325E+05 -2.410715E+04 -3.573886E+05  1.879272E+03 -6.082361E+03
       311   9 -9.505097E+05 -1.874987E+05 -3.526083E+04 -3.739991E+05  4.331649E+03 -8.161397E+03
       311  10 -7.620481E+05 -1.180101E+05  1.080567E+04 -3.224396E+05  3.055538E-09  1.966952E-09
       311  11 -7.274849E+05 -9.840301E+04  1.834002E+04 -3.057700E+05 -7.296754E-09 -2.837626E-09
       311  12 -6.830861E+05 -8.909861E+04  2.477365E+04 -3.006808E+05 -1.565013E-08 -7.576167E-09
       311  13 -8.167820E+05 -1.381454E+05 -1.646594E+03 -3.373998E+05 -5.442201E-10  6.443333E-10
       311  14 -8.217085E+05 -1.330681E+05 -2.883315E+03 -3.315811E+05 -2.718540E-10 -2.967880E-10
       311  15 -8.168065E+05 -1.382992E+05 -5.242981E+03 -3.373434E+05 -1.260574E-09 -2.095756E-09
       311  16 -8.715125E+05 -1.582804E+05 -1.409896E+04 -3.523587E+05 -3.387460E-09 -6.088937E-10
       311  17 -9.159231E+05 -1.677325E+05 -2.410722E+04 -3.573886E+05  6.774199E-09  2.532438E-09
       311  18 -9.505098E+05 -1.874988E+05 -3.526099E+04 -3.739991E+05  1.429938E-08  3.975689E-09
       311  19 -7.620481E+05 -1.180101E+05  1.080573E+04 -3.224396E+05 -5.166353E+03  1.822405E+03
       311  20 -7.274848E+05 -9.840298E+04  1.834016E+04 -3.057701E+05 -7.572386E+03  3.948267E+03
       311  21 -6.830860E+05 -8.909854E+04  2.477391E+04 -3.006808E+05 -9.968982E+03  6.047865E+03
       311  22 -8.167820E+05 -1.381454E+05 -1.646568E+03 -3.373998E+05 -2.291670E+03  2.899820E+03
       311  23 -8.217084E+05 -1.330681E+05 -2.883226E+03 -3.315811E+05 -4.725595E+03  5.015401E+03
       311  24 -8.168065E+05 -1.382991E+05 -5.242790E+03 -3.373435E+05 -7.149995E+03  7.104750E+03
       311  25 -8.715125E+05 -1.582803E+05 -1.409893E+04 -3.523587E+05  5.827198E+02  3.977127E+03
       311  26 -9.159231E+05 -1.677325E+05 -2.410715E+04 -3.573886E+05 -1.879272E+03  6.082361E+03
       311  27 -9.505097E+05 -1.874987E+05 -3.526083E+04 -3.739991E+05 -4.331649E+03  8.161397E+03
       312   1 -6.532743E+05 -7.831442E+04  2.999803E+04 -2.933649E+05  1.166508E+04 -7.210015E+03
       312   2 -6.190094E+05 -5.809997E+04  3.322565E+04 -2.754147E+05  1.840075E+04 -7.520001E+03
       312   3 -5.769275E+05 -5.190890E+04  3.107137E+04 -2.681813E+05  2.495145E+04 -7.334162E+03
       312   4 -8.171159E+05 -1.379861E+05 -6.930613E+03 -3.375883E+05  8.718059E+03 -8.315057E+03
       312   5 -8.212832E+05 -1.331077E+05 -1.255198E+04 -3.314118E+05  1.598575E+04 -8.425955E+03
       312   6 -8.177411E+05 -1.423596E+05 -2.397857E+04 -3.359530E+05  2.306802E+04 -8.041116E+03
       312   7 -9.809304E+05 -1.976560E+05 -4.386093E+04 -3.818011E+05  5.771885E+03 -9.419791E+03
       312   8 -1.023515E+06 -2.081120E+05 -5.833206E+04 -3.873919E+05  1.357160E+04 -9.331583E+03
       312   9 -1.058495E+06 -2.328048E+05 -7.903190E+04 -4.037000E+05  2.118539E+04 -8.747758E+03
       312  10 -6.532745E+05 -7.831451E+04  2.999767E+04 -2.933648E+05  1.408818E-08  3.533354E-09
       312  11 -6.190098E+05 -5.810013E+04  3.322491E+04 -2.754146E+05  7.145050E-09  2.466337E-09
       312  12 -5.769282E+05 -5.190913E+04  3.107010E+04 -2.681812E+05 -3.279353E-09 -3.646632E-10
       312  13 -8.171160E+05 -1.379862E+05 -6.930886E+03 -3.375883E+05 -4.292391E-10 -1.883498E-09
       312  14 -8.212835E+05 -1.331079E+05 -1.255260E+04 -3.314117E+05  2.299519E-10 -1.651202E-10
       312  15 -8.177417E+05 -1.423598E+05 -2.397969E+04 -3.359528E+05 -7.748650E-11  7.781039E-10
       312  16 -9.809305E+05 -1.976561E+05 -4.386116E+04 -3.818011E+05 -1.553114E-08 -7.554100E-09
       312  17 -1.023515E+06 -2.081122E+05 -5.833257E+04 -3.873918E+05 -7.518135E-09 -3.092829E-09
       312  18 -1.058495E+06 -2.328051E+05 -7.903289E+04 -4.036998E+05  2.866846E-09  1.867224E-09
       312  19 -6.532743E+05 -7.831442E+04  2.999803E+04 -2.933649E+05 -1.166508E+04  7.210015E+03
       312  20 -6.190094E+05 -5.809997E+04  3.322565E+04 -2.754147E+05 -1.840075E+04  7.520001E+03
       312  21 -5.769275E+05 -5.190890E+04  3.107137E+04 -2.681813E+05 -2.495145E+04  7.334162E+03
       312  22 -8.171159E+05 -1.379861E+05 -6.930613E+03 -3.375883E+05 -8.718059E+03  8.315057E+03
       312  23 -8.212832E+05 -1.331077E+05 -1.255198E+04 -3.314118E+05 -1.598575E+04  8.425955E+03
       312  24 -8.177411E+05 -1.423596E+05 -2.397857E+04 -3.359530E+05 -2.306802E+04  8.041116E+03
       312  25 -9.809304E+05 -1.976560E+05 -4.386093E+04 -3.818011E+05 -5.771885E+03  9.419791E+03
       312  26 -1.023515E+06 -2.081120E+05 -5.833206E+04 -3.873919E+05 -1.357160E+04  9.331583E+03
       312  27 -1.058495E+06 -2.328048E+05 -7.903190E+04 -4.037000E+05 -2.118539E+04  8.747758E+03
       313   1 -5.407873E+05 -4.419639E+04  3.081744E+04 -2.764815E+05  3.219955E+04 -7.071469E+03
       313   2 -5.195465E+05 -8.651431E+03  1.702641E+04 -2.266222E+05  5.062575E+04  7.604882E+02
       313   3 -5.220180E+05 -6.483279E+04 -3.321031E+04 -1.664003E+05  6.525748E+04  1.870926E+04
       313   4 -8.217042E+05 -1.352330E+05 -3.072013E+04 -3.405927E+05  2.760774E+04 -8.793816E+03
       313   5 -8.156774E+05 -1.372306E+05 -5.568261E+04 -3.274173E+05  5.692386E+04  3.121062E+03
       313   6 -8.355426E+05 -2.331459E+05 -1.257401E+05 -3.038783E+05  8.244335E+04  2.515236E+04
       313   7 -1.102544E+06 -2.262686E+05 -9.226300E+04 -4.046798E+05  2.301814E+04 -1.051557E+04
       313   8 -1.111719E+06 -2.657934E+05 -1.283978E+05 -4.281649E+05  6.321868E+04  5.479923E+03
       313   9 -1.148960E+06 -4.014152E+05 -2.182762E+05 -4.412813E+05  9.961951E+04  3.158829E+04
       313  10 -5.407885E+05 -4.419673E+04  3.081540E+04 -2.764813E+05  6.789611E-10  1.018944E-09
       313  11 -5.195492E+05 -8.652120E+03  1.702159E+04 -2.266223E+05  2.210563E-10  4.923052E-10
       313  12 -5.220227E+05 -6.483431E+04 -3.321897E+04 -1.664012E+05 -2.840885E-11  1.779755E-10
       313  13 -8.217050E+05 -1.352332E+05 -3.072171E+04 -3.405925E+05 -2.872963E-10  8.153807E-10
       313  14 -8.156809E+05 -1.372315E+05 -5.568872E+04 -3.274175E+05  3.863688E-10  2.994991E-10
       313  15 -8.355501E+05 -2.331484E+05 -1.257541E+05 -3.038800E+05 -9.633554E-11 -3.561775E-11
       313  16 -1.102545E+06 -2.262689E+05 -9.226421E+04 -4.046796E+05 -1.189095E-09  5.794198E-10
       313  17 -1.111723E+06 -2.657945E+05 -1.284054E+05 -4.281652E+05 -2.553439E-10  3.700195E-10
       313  18 -1.148971E+06 -4.014190E+05 -2.182968E+05 -4.412839E+05 -6.514936E-11 -5.217005E-11
       313  19 -5.407873E+05 -4.419639E+04  3.081744E+04 -2.764815E+05 -3.219955E+04  7.071469E+03
       313  20 -5.195465E+05 -8.651431E+03  1.702641E+04 -2.266222E+05 -5.062575E+04 -7.604882E+02
       313  21 -5.220180E+05 -6.483279E+04 -3.321031E+04 -1.664003E+05 -6.525748E+04 -1.870926E+04
       313  22 -8.217042E+05 -1.352330E+05 -3.072013E+04 -3.405927E+05 -2.760774E+04  8.793816E+03
       313  23 -8.156774E+05 -1.372306E+05 -5.568261E+04 -3.274173E+05 -5.692386E+04 -3.121062E+03
       313  24 -8.355426E+05 -2.331459E+05 -1.257401E+05 -3.038783E+05 -8.244335E+04 -2.515236E+04
       313  25 -1.102544E+06 -2.262686E+05 -9.226300E+04 -4.046798E+05 -2.301814E+04  1.051557E+04
       313  26 -1.111719E+06 -2.657934E+05 -1.283978E+05 -4.281649E+05 -6.321868E+04 -5.479923E+03
       313  27 -1.148960E+06 -4.014152E+05 -2.182762E+05 -4.412813E+05 -9.961951E+04 -3.158829E+04
       314   1 -3.910049E+05 -7.827142E+04 -3.573519E+04  2.057464E+04  1.051812E+05  1.529784E+04
       314   2 -2.965434E+05 -2.278542E+05 -1.053570E+05 -2.685689E+04  8.223268E+04  4.851815E+04
       314   3 -1.595382E+05 -2.204822E+05 -1.207352E+05 -1.108577E+05  5.930174E+04  5.236073E+04
       314   4  7.280118E+05  1.989299E+05  2.325305E+05 -8.594062E+04  1.605731E+05  1.531674E+04
       314   5  7.039167E+05  1.489113E+04  1.083365E+05 -6.761231E+04  1.037115E+05  4.851654E+04
       314   6  7.281509E+05 -6.463288E+03  6.185365E+04 -8.584336E+04  4.687558E+04  5.235513E+04
       314   7  1.848207E+06  4.760849E+05  5.007253E+05 -1.926488E+05  2.160642E+05  1.531663E+04
       314   8  1.705323E+06  2.575777E+05  3.219748E+05 -1.084344E+05  1.252244E+05  4.851211E+04
       314   9  1.616589E+06  2.075085E+05  2.444012E+05 -6.079260E+04  3.443192E+04  5.234854E+04
       314  10 -3.910168E+05 -7.827464E+04 -3.575644E+04  2.057335E+04 -9.658532E-10  2.101583E-10
       314  11 -2.965513E+05 -2.278585E+05 -1.053742E+05 -2.686010E+04 -3.869727E-10 -1.757731E-10
       314  12 -1.595427E+05 -2.204861E+05 -1.207469E+05 -1.108602E+05  3.571503E-10  2.380708E-10
       314  13  7.279841E+05  1.989228E+05  2.324817E+05 -8.594260E+04  1.929193E-10  4.966998E-11
       314  14  7.039045E+05  1.488572E+04  1.083119E+05 -6.761636E+04 -3.637872E-10 -6.414567E-10
       314  15  7.281478E+05 -6.466822E+03  6.184437E+04 -8.584534E+04  5.377467E-10  1.940634E-11
       314  16  1.848156E+06  4.760722E+05  5.006374E+05 -1.926515E+05  3.326229E-10 -5.320510E-11
       314  17  1.705306E+06  2.575710E+05  3.219410E+05 -1.084393E+05  8.726518E-10 -1.135736E-10
       314  18  1.616587E+06  2.075052E+05  2.443938E+05 -6.079405E+04 -1.059542E-10 -2.669192E-10
       314  19 -3.910049E+05 -7.827142E+04 -3.573519E+04  2.057464E+04 -1.051812E+05 -1.529784E+04
       314  20 -2.965434E+05 -2.278542E+05 -1.053570E+05 -2.685689E+04 -8.223268E+04 -4.851815E+04
       314  21 -1.595382E+05 -2.204822E+05 -1.207352E+05 -1.108577E+05 -5.930174E+04 -5.236073E+04
       314  22  7.280118E+05  1.989299E+05  2.325305E+05 -8.594062E+04 -1.605731E+05 -1.531674E+04
       314  23  7.039167E+05  1.489113E+04  1.083365E+05 -6.761231E+04 -1.037115E+05 -4.851654E+04
       314  24  7.281509E+05 -6.463288E+03  6.185365E+04 -8.584336E+04 -4.687558E+04 -5.235513E+04
       314  25  1.848207E+06  4.760849E+05  5.007253E+05 -1.926488E+05 -2.160642E+05 -1.531663E+04
       314  26  1.705323E+06  2.575777E+05  3.219748E+05 -1.084344E+05 -1.252244E+05 -4.851211E+04
       314  27  1.616589E+06  2.075085E+05  2.444012E+05 -6.079260E+04 -3.443192E+04 -5.234854E+04
       315   1 -8.460965E+04 -1.856480E+05 -1.172025E+05 -8.354687E+04  4.361567E+04  4.671553E+04
       315   2  2.852019E+04 -1.656142E+05 -1.142386E+05 -6.674923E+04  3.211738E+04  4.142515E+04
       315   3  1.450331E+05 -1.385204E+05 -1.019958E+05 -8.771891E+04  2.061279E+04  3.459683E+04
       315   4  7.182473E+05  7.993657E+03  4.840599E+04 -8.613418E+04  3.844120E+04  4.671044E+04
       315   5  7.164375E+05  8.390458E+01  2.659850E+04 -6.725270E+04  2.515520E+04  4.142241E+04
       315   6  7.183039E+05 -4.605078E+02  1.530118E+04 -8.613562E+04  1.186501E+04  3.459721E+04
       315   7  1.521715E+06  2.015947E+05  2.139798E+05 -8.872486E+04  3.326013E+04  4.670539E+04
       315   8  1.404804E+06  1.657523E+05  1.674107E+05 -6.775671E+04  1.818544E+04  4.141968E+04
       315   9  1.291887E+06  1.375788E+05  1.325811E+05 -8.455080E+04  3.109305E+03  3.459754E+04
       315  10 -8.461228E+04 -1.856509E+05 -1.172101E+05 -8.354851E+04 -4.242137E-10 -9.095253E-12
       315  11  2.851862E+04 -1.656163E+05 -1.142438E+05 -6.675030E+04 -4.250393E-10 -1.350371E-10
       315  12  1.450323E+05 -1.385218E+05 -1.019989E+05 -8.771948E+04  4.979008E-10 -2.407108E-10
       315  13  7.182451E+05  7.990917E+03  4.839911E+04 -8.613562E+04 -2.423392E-10  5.941050E-11
       315  14  7.164363E+05  8.189172E+01  2.659409E+04 -6.725354E+04  1.430815E-10  3.674507E-11
       315  15  7.183034E+05 -4.618314E+02  1.529866E+04 -8.613595E+04 -1.237030E-09 -5.430591E-11
       315  16  1.521714E+06  2.015921E+05  2.139736E+05 -8.872611E+04  5.459712E-10 -8.078302E-11
       315  17  1.404803E+06  1.657504E+05  1.674069E+05 -6.775732E+04 -9.131820E-10  2.767064E-10
       315  18  1.291886E+06  1.375775E+05  1.325788E+05 -8.455089E+04 -7.270815E-10 -1.129391E-10
       315  19 -8.460965E+04 -1.856480E+05 -1.172025E+05 -8.354687E+04 -4.361567E+04 -4.671553E+04
       315  20  2.852019E+04 -1.656142E+05 -1.142386E+05 -6.674923E+04 -3.211738E+04 -4.142515E+04
       315  21  1.450331E+05 -1.385204E+05 -1.019958E+05 -8.771891E+04 -2.061279E+04 -3.459683E+04
       315  22  7.182473E+05  7.993657E+03  4.840599E+04 -8.613418E+04 -3.844120E+04 -4.671044E+04
       315  23  7.164375E+05  8.390458E+01  2.659850E+04 -6.725270E+04 -2.515520E+04 -4.142241E+04
       315  24  7.183039E+05 -4.605078E+02  1.530118E+04 -8.613562E+04 -1.186501E+04 -3.459721E+04
       315  25  1.521715E+06  2.015947E+05  2.139798E+05 -8.872486E+04 -3.326013E+04 -4.670539E+04
       315  26  1.404804E+06  1.657523E+05  1.674107E+05 -6.775671E+04 -1.818544E+04 -4.141968E+04
       315  27  1.291887E+06  1.375788E+05  1.325811E+05 -8.455080E+04 -3.109305E+03 -3.459754E+04
       316   1  2.279860E+05 -1.176342E+05 -8.800167E+04 -8.641155E+04  1.783912E+04  3.021213E+04
       316   2  3.421682E+05 -9.039951E+04 -6.985832E+04 -6.745822E+04  1.461454E+04  2.291773E+04
       316   3  4.568749E+05 -6.280174E+04 -4.952553E+04 -8.623001E+04  1.138648E+04  1.554757E+04
       316   4  7.176222E+05  1.789629E+02  1.167898E+04 -8.612642E+04  9.480431E+03  3.021366E+04
       316   5  7.173738E+05 -9.156026E+01  6.694283E+03 -6.726467E+04  6.165380E+03  2.292078E+04
       316   6  7.176504E+05  1.640967E+01  3.959792E+03 -8.612668E+04  2.847422E+03  1.555222E+04
       316   7  1.207486E+06  1.179773E+05  1.113473E+05 -8.584102E+04  1.115276E+03  3.021517E+04
       316   8  1.092713E+06  9.020763E+04  8.323974E+04 -6.707097E+04 -2.288787E+03  2.292382E+04
       316   9  9.784906E+05  6.283033E+04  5.744176E+04 -8.602329E+04 -5.695153E+03  1.555686E+04
       316  10  2.279854E+05 -1.176353E+05 -8.800399E+04 -8.641198E+04 -9.819440E-10 -4.472572E-10
       316  11  3.421678E+05 -9.040013E+04 -6.985971E+04 -6.745849E+04  1.277763E-10  6.532920E-11
       316  12  4.568747E+05 -6.280203E+04 -4.952622E+04 -8.623016E+04 -7.551086E-10  6.601270E-10
       316  13  7.176218E+05  1.779581E+02  1.167710E+04 -8.612665E+04 -3.399730E-10 -1.040543E-10
       316  14  7.173736E+05 -9.213481E+01  6.693224E+03 -6.726478E+04  1.294289E-10  4.738340E-11
       316  15  7.176504E+05  1.614767E+01  3.959322E+03 -8.612672E+04  1.603493E-10  5.676935E-11
       316  16  1.207486E+06  1.179763E+05  1.113456E+05 -8.584105E+04  8.758966E-10 -3.398345E-11
       316  17  1.092713E+06  9.020707E+04  8.323874E+04 -6.707092E+04  3.331165E-10  3.182133E-10
       316  18  9.784905E+05  6.283006E+04  5.744124E+04 -8.602322E+04 -1.684402E-10  4.936536E-10
       316  19  2.279860E+05 -1.176342E+05 -8.800167E+04 -8.641155E+04 -1.783912E+04 -3.021213E+04
       316  20  3.421682E+05 -9.039951E+04 -6.985832E+04 -6.745822E+04 -1.461454E+04 -2.291773E+04
       316  21  4.568749E+05 -6.280174E+04 -4.952553E+04 -8.623001E+04 -1.138648E+04 -1.554757E+04
       316  22  7.176222E+05  1.789629E+02  1.167898E+04 -8.612642E+04 -9.480431E+03 -3.021366E+04
       316  23  7.173738E+05 -9.156026E+01  6.694283E+03 -6.726467E+04 -6.165380E+03 -2.292078E+04
       316  24  7.176504E+05  1.640967E+01  3.959792E+03 -8.612668E+04 -2.847422E+03 -1.555222E+04
       316  25  1.207486E+06  1.179773E+05  1.113473E+05 -8.584102E+04 -1.115276E+03 -3.021517E+04
       316  26  1.092713E+06  9.020763E+04  8.323974E+04 -6.707097E+04  2.288787E+03 -2.292382E+04
       316  27  9.784906E+05  6.283033E+04  5.744176E+04 -8.602329E+04  5.695153E+03 -1.555686E+04
       317   1  5.402002E+05 -4.257722E+04 -3.278213E+04 -8.618069E+04  1.072203E+04  1.123893E+04
       317   2  6.544529E+05 -1.514375E+04 -1.084234E+04 -6.732735E+04  9.725049E+03  3.850473E+03
       317   3  7.688169E+05  1.234631E+04  1.174775E+04 -8.614753E+04  8.727405E+03 -3.541136E+03
       317   4  7.175636E+05  4.553915E+01  3.093043E+03 -8.611543E+04  2.206017E+03  1.124411E+04
       317   5  7.175163E+05  3.137088E+01  2.018682E+03 -6.727878E+04  1.204434E+03  3.855885E+03
       317   6  7.175684E+05  7.519276E+01  1.597717E+03 -8.611545E+04  2.023690E+02 -3.535443E+03
       317   7  8.949571E+05  4.266639E+04  3.896686E+04 -8.605014E+04 -6.312385E+03  1.124928E+04
       317   8  7.805836E+05  1.520628E+04  1.487977E+04 -6.723022E+04 -7.317030E+03  3.861296E+03
       317   9  6.663225E+05 -1.219604E+04 -8.552171E+03 -8.608337E+04 -8.321978E+03 -3.529751E+03
       317  10  5.402001E+05 -4.257739E+04 -3.278258E+04 -8.618079E+04 -5.486663E-10  3.020763E-10
       317  11  6.544528E+05 -1.514379E+04 -1.084254E+04 -6.732738E+04 -6.284022E-10  5.861058E-10
       317  12  7.688168E+05  1.234627E+04  1.174758E+04 -8.614751E+04 -6.093172E-10  2.619569E-10
       317  13  7.175636E+05  4.540203E+01  3.092797E+03 -8.611545E+04 -2.530683E-10  6.436079E-10
       317  14  7.175163E+05  3.135452E+01  2.018651E+03 -6.727879E+04  4.071843E-10 -4.662574E-10
       317  15  7.175684E+05  7.517932E+01  1.597694E+03 -8.611545E+04  6.666322E-10 -3.533729E-10
       317  16  8.949570E+05  4.266624E+04  3.896655E+04 -8.605008E+04  6.761017E-10 -8.144214E-10
       317  17  7.805835E+05  1.520625E+04  1.487964E+04 -6.723019E+04  5.770662E-10 -2.320010E-10
       317  18  6.663224E+05 -1.219608E+04 -8.552324E+03 -8.608339E+04  6.587771E-10 -5.517845E-10
       317  19  5.402002E+05 -4.257722E+04 -3.278213E+04 -8.618069E+04 -1.072203E+04 -1.123893E+04
       317  20  6.544529E+05 -1.514375E+04 -1.084234E+04 -6.732735E+04 -9.725049E+03 -3.850473E+03
       317  21  7.688169E+05  1.234631E+04  1.174775E+04 -8.614753E+04 -8.727405E+03  3.541136E+03
       317  22  7.175636E+05  4.553915E+01  3.093043E+03 -8.611543E+04 -2.206017E+03 -1.124411E+04
       317  23  7.175163E+05  3.137088E+01  2.018682E+03 -6.727878E+04 -1.204434E+03 -3.855885E+03
       317  24  7.175684E+05  7.519276E+01  1.597717E+03 -8.611545E+04 -2.023690E+02  3.535443E+03
       317  25  8.949571E+05  4.266639E+04  3.896686E+04 -8.605014E+04  6.312385E+03 -1.124928E+04
       317  26  7.805836E+05  1.520628E+04  1.487977E+04 -6.723022E+04  7.317030E+03 -3.861296E+03
       317  27  6.663225E+05 -1.219604E+04 -8.552171E+03 -8.608337E+04  8.321978E+03  3.529751E+03
       318   1  8.522168E+05  3.252939E+04  2.933069E+04 -8.618265E+04  8.437898E+03 -7.844245E+03
       318   2  9.665542E+05  5.993183E+04  5.267981E+04 -6.730399E+04  7.493348E+03 -1.523722E+04
       318   3  1.081012E+06  8.738707E+04  7.664727E+04 -8.612133E+04  6.550546E+03 -2.262949E+04
       318   4  7.175674E+05  7.267268E+01  1.577151E+03 -8.612069E+04 -8.945784E+01 -7.838782E+03
       318   5  7.175036E+05  1.375303E+01  1.901412E+03 -6.727223E+04 -1.033554E+03 -1.523279E+04
       318   6  7.175494E+05  8.707953E+00  2.844512E+03 -8.612068E+04 -1.975734E+03 -2.262606E+04
       318   7  5.829353E+05 -3.238515E+04 -2.617709E+04 -8.605874E+04 -8.614999E+03 -7.833319E+03
       318   8  4.685120E+05 -5.990816E+04 -4.887998E+04 -6.724048E+04 -9.557102E+03 -1.522837E+04
       318   9  3.542125E+05 -8.737783E+04 -7.096486E+04 -8.612002E+04 -1.049712E+04 -2.262264E+04
       318  10  8.522167E+05  3.252930E+04  2.933044E+04 -8.618260E+04 -8.876770E-11 -1.928031E-10
       318  11  9.665541E+05  5.993157E+04  5.267927E+04 -6.730390E+04 -6.133221E-10 -3.391358E-10
       318  12  1.081012E+06  8.738651E+04  7.664622E+04 -8.612121E+04 -4.740537E-10  1.565188E-10
       318  13  7.175674E+05  7.260667E+01  1.577036E+03 -8.612069E+04 -8.104596E-10  6.271691E-10
       318  14  7.175035E+05  1.350349E+01  1.900974E+03 -6.727225E+04 -1.159541E-10  4.920568E-10
       318  15  7.175493E+05  8.156980E+00  2.843542E+03 -8.612072E+04  3.211961E-10 -6.847433E-10
       318  16  5.829352E+05 -3.238523E+04 -2.617735E+04 -8.605880E+04  2.530437E-10  2.274568E-10
       318  17  4.685119E+05 -5.990843E+04 -4.888058E+04 -6.724059E+04 -1.420592E-10  4.514812E-10
       318  18  3.542122E+05 -8.737841E+04 -7.096603E+04 -8.612021E+04  7.173999E-10 -2.133780E-10
       318  19  8.522168E+05  3.252939E+04  2.933069E+04 -8.618265E+04 -8.437898E+03  7.844245E+03
       318  20  9.665542E+05  5.993183E+04  5.267981E+04 -6.730399E+04 -7.493348E+03  1.523722E+04
       318  21  1.081012E+06  8.738707E+04  7.664727E+04 -8.612133E+04 -6.550546E+03  2.262949E+04
       318  22  7.175674E+05  7.267268E+01  1.577151E+03 -8.612069E+04  8.945784E+01  7.838782E+03
       318  23  7.175036E+05  1.375303E+01  1.901412E+03 -6.727223E+04  1.033554E+03  1.523279E+04
       318  24  7.175494E+05  8.707953E+00  2.844512E+03 -8.612068E+04  1.975734E+03  2.262606E+04
       318  25  5.829353E+05 -3.238515E+04 -2.617709E+04 -8.605874E+04  8.614999E+03  7.833319E+03
       318  26  4.685120E+05 -5.990816E+04 -4.887998E+04 -6.724048E+04  9.557102E+03  1.522837E+04
       318  27  3.542125E+05 -8.737783E+04 -7.096486E+04 -8.612002E+04  1.049712E+04  2.262264E+04
       319   1  1.164654E+06  1.075714E+05  9.505273E+04 -8.608929E+04  5.993665E+03 -2.694246E+04
       319   2  1.279088E+06  1.349867E+05  1.206190E+05 -6.706317E+04  2.880501E+03 -3.431596E+04
       319   3  1.394084E+06  1.627575E+05  1.483088E+05 -8.581827E+04 -2.289959E+02 -4.160370E+04
       319   4  7.176290E+05 -2.334434E+01  3.621812E+03 -8.613990E+04 -2.563193E+03 -2.694002E+04
       319   5  7.173423E+05 -1.413183E+02  6.080365E+03 -6.724815E+04 -5.575709E+03 -3.431587E+04
       319   6  7.175875E+05  7.948263E+01  1.059397E+04 -8.613971E+04 -8.584001E+03 -4.160588E+04
       319   7  2.707940E+05 -1.076306E+05 -8.781942E+04 -8.619045E+04 -1.111401E+04 -2.693759E+04
       319   8  1.558966E+05 -1.352890E+05 -1.084746E+05 -6.743293E+04 -1.402442E+04 -3.431578E+04
       319   9  4.152520E+04 -1.626270E+05 -1.271446E+05 -8.646074E+04 -1.693008E+04 -4.160806E+04
       319  10  1.164653E+06  1.075706E+05  9.505130E+04 -8.608916E+04 -7.860875E-11  6.427744E-10
       319  11  1.279087E+06  1.349854E+05  1.206167E+05 -6.706309E+04  3.419192E-10  1.919627E-10
       319  12  1.394084E+06  1.627556E+05  1.483056E+05 -8.581828E+04 -8.016403E-10  3.140907E-10
       319  13  7.176288E+05 -2.412572E+01  3.620435E+03 -8.613996E+04 -4.486978E-10 -2.314206E-10
       319  14  7.173419E+05 -1.425916E+02  6.078093E+03 -6.724831E+04  3.965620E-10 -2.523653E-10
       319  15  7.175870E+05  7.760334E+01  1.059058E+04 -8.613999E+04  4.826303E-10  1.934123E-10
       319  16  2.707937E+05 -1.076314E+05 -8.782101E+04 -8.619069E+04  3.784300E-10 -2.527216E-11
       319  17  1.558961E+05 -1.352903E+05 -1.084772E+05 -6.743332E+04  1.093724E-09 -5.522415E-10
       319  18  4.152443E+04 -1.626289E+05 -1.271484E+05 -8.646131E+04  5.518176E-10 -1.527438E-10
       319  19  1.164654E+06  1.075714E+05  9.505273E+04 -8.608929E+04 -5.993665E+03  2.694246E+04
       319  20  1.279088E+06  1.349867E+05  1.206190E+05 -6.706317E+04 -2.880501E+03  3.431596E+04
       319  21  1.394084E+06  1.627575E+05  1.483088E+05 -8.581827E+04  2.289959E+02  4.160370E+04
       319  22  7.176290E+05 -2.334434E+01  3.621812E+03 -8.613990E+04  2.563193E+03  2.694002E+04
       319  23  7.173423E+05 -1.413183E+02  6.080365E+03 -6.724815E+04  5.575709E+03  3.431587E+04
       319  24  7.175875E+05  7.948263E+01  1.059397E+04 -8.613971E+04  8.584001E+03  4.160588E+04
       319  25  2.707940E+05 -1.076306E+05 -8.781942E+04 -8.619045E+04  1.111401E+04  2.693759E+04
       319  26  1.558966E+05 -1.352890E+05 -1.084746E+05 -6.743293E+04  1.402442E+04  3.431578E+04
       319  27  4.152520E+04 -1.626270E+05 -1.271446E+05 -8.646074E+04  1.693008E+04  4.160806E+04
       320   1  1.478639E+06  1.824593E+05  1.692365E+05 -8.461788E+04 -1.934139E+03 -4.600763E+04
       320   2  1.592009E+06  2.106497E+05  2.031294E+05 -6.748166E+04 -1.604920E+04 -5.275682E+04
       320   3  1.709178E+06  2.458604E+05  2.479955E+05 -8.821096E+04 -3.016178E+04 -5.772137E+04
       320   4  7.182073E+05 -5.068284E+02  1.387642E+04 -8.615819E+04 -1.074495E+04 -4.601156E+04
       320   5  7.164554E+05 -3.345599E+01  2.410154E+04 -6.722450E+04 -2.278493E+04 -5.276395E+04
       320   6  7.181378E+05  7.107697E+03  4.387178E+04 -8.615927E+04 -3.481986E+04 -5.773054E+04
       320   7 -4.167638E+04 -1.835090E+05 -1.415139E+05 -8.769654E+04 -1.954518E+04 -4.601545E+04
       320   8 -1.583710E+05 -2.107646E+05 -1.549668E+05 -6.696771E+04 -2.951133E+04 -5.277108E+04
       320   9 -2.719726E+05 -2.317069E+05 -1.603047E+05 -8.411094E+04 -3.947062E+04 -5.773975E+04
       320  10  1.478639E+06  1.824570E+05  1.692325E+05 -8.461796E+04  6.238046E-10  4.749588E-11
       320  11  1.592008E+06  2.106467E+05  2.031237E+05 -6.748234E+04 -5.168806E-10 -3.353581E-10
       320  12  1.709176E+06  2.458566E+05  2.479876E+05 -8.821236E+04 -9.834311E-10 -2.642337E-10
       320  13  7.182066E+05 -5.091335E+02  1.387223E+04 -8.615859E+04 -2.432770E-10 -8.376232E-11
       320  14  7.164541E+05 -3.658586E+01  2.409533E+04 -6.722547E+04  1.286806E-10 -1.380358E-10
       320  15  7.181356E+05  7.103792E+03  4.386324E+04 -8.616089E+04  3.534836E-10  1.560671E-10
       320  16 -4.167736E+04 -1.835114E+05 -1.415186E+05 -8.769726E+04 -5.558106E-10 -2.857611E-10
       320  17 -1.583727E+05 -2.107678E+05 -1.549737E+05 -6.696896E+04  7.333456E-11 -3.126447E-10
       320  18 -2.719752E+05 -2.317109E+05 -1.603139E+05 -8.411278E+04  9.803689E-10  9.141760E-10
       320  19  1.478639E+06  1.824593E+05  1.692365E+05 -8.461788E+04  1.934139E+03  4.600763E+04
       320  20  1.592009E+06  2.106497E+05  2.031294E+05 -6.748166E+04  1.604920E+04  5.275682E+04
       320  21  1.709178E+06  2.458604E+05  2.479955E+05 -8.821096E+04  3.016178E+04  5.772137E+04
       320  22  7.182073E+05 -5.068284E+02  1.387642E+04 -8.615819E+04  1.074495E+04  4.601156E+04
       320  23  7.164554E+05 -3.345599E+01  2.410154E+04 -6.722450E+04  2.278493E+04  5.276395E+04
       320  24  7.181378E+05  7.107697E+03  4.387178E+04 -8.615927E+04  3.481986E+04  5.773054E+04
       320  25 -4.167638E+04 -1.835090E+05 -1.415139E+05 -8.769654E+04  1.954518E+04  4.601545E+04
       320  26 -1.583710E+05 -2.107646E+05 -1.549668E+05 -6.696771E+04  2.951133E+04  5.277108E+04
       320  27 -2.719726E+05 -2.317069E+05 -1.603047E+05 -8.411094E+04  3.947062E+04  5.773975E+04
       321   1  1.803577E+06  2.532113E+05  2.770987E+05 -6.273203E+04 -2.935531E+04 -6.359184E+04
       321   2  1.894592E+06  3.015032E+05  3.516695E+05 -1.041592E+05 -1.203416E+05 -5.798184E+04
       321   3  2.036344E+06  5.039855E+05  5.239962E+05 -1.821024E+05 -2.113970E+05 -1.824128E+04
       321   4  7.271185E+05 -6.008236E+03  5.606097E+04 -8.581642E+04 -4.246206E+04 -6.360681E+04
       321   5  7.050608E+05  1.333462E+04  9.816942E+04 -6.764860E+04 -9.396268E+04 -5.797368E+04
       321   6  7.269723E+05  1.801718E+05  2.107453E+05 -8.598653E+04 -1.455105E+05 -1.819788E+04
       321   7 -3.482414E+05 -2.652986E+05 -1.650378E+05 -1.088602E+05 -5.554649E+04 -6.362083E+04
       321   8 -4.831366E+05 -2.749205E+05 -1.554088E+05 -3.120907E+04 -6.763330E+04 -5.796242E+04
       321   9 -5.808030E+05 -1.437286E+05 -1.026053E+05  9.925992E+03 -7.976180E+04 -1.813411E+04
       321  10  1.803575E+06  2.532068E+05  2.770895E+05 -6.273353E+04  1.120992E-09 -5.442892E-12
       321  11  1.894575E+06  3.014957E+05  3.516360E+05 -1.041648E+05  6.083065E-10  1.673066E-10
       321  12  2.036296E+06  5.039731E+05  5.239119E+05 -1.821055E+05  8.106607E-10  6.252426E-10
       321  13  7.271155E+05 -6.013066E+03  5.604998E+04 -8.581859E+04 -3.708561E-10 -7.997491E-10
       321  14  7.050504E+05  1.332865E+04  9.814653E+04 -6.765299E+04  2.692545E-10  9.613474E-11
       321  15  7.269495E+05  1.801657E+05  2.107049E+05 -8.598866E+04  3.099077E-10 -5.259778E-10
       321  16 -3.482458E+05 -2.653037E+05 -1.650512E+05 -1.088631E+05 -1.728292E-09  6.593363E-10
       321  17 -4.831425E+05 -2.749253E+05 -1.554237E+05 -3.121223E+04 -9.704691E-10 -7.701018E-10
       321  18 -5.808100E+05 -1.437307E+05 -1.026179E+05  9.924827E+03  9.426667E-11  8.793284E-10
       321  19  1.803577E+06  2.532113E+05  2.770987E+05 -6.273203E+04  2.935531E+04  6.359184E+04
       321  20  1.894592E+06  3.015032E+05  3.516695E+05 -1.041592E+05  1.203416E+05  5.798184E+04
       321  21  2.036344E+06  5.039855E+05  5.239962E+05 -1.821024E+05  2.113970E+05  1.824128E+04
       321  22  7.271185E+05 -6.008236E+03  5.606097E+04 -8.581642E+04  4.246206E+04  6.360681E+04
       321  23  7.050608E+05  1.333462E+04  9.816942E+04 -6.764860E+04  9.396268E+04  5.797368E+04
       321  24  7.269723E+05  1.801718E+05  2.107453E+05 -8.598653E+04  1.455105E+05  1.819788E+04
       321  25 -3.482414E+05 -2.652986E+05 -1.650378E+05 -1.088602E+05  5.554649E+04  6.362083E+04
       321  26 -4.831366E+05 -2.749205E+05 -1.554088E+05 -3.120907E+04  6.763330E+04  5.796242E+04
       321  27 -5.808030E+05 -1.437286E+05 -1.026053E+05  9.925992E+03  7.976180E+04  1.813411E+04
       322   1  3.512360E+05  1.227889E+06  3.674493E+05 -3.063118E+05  8.890573E+03  1.335060E+05
       322   2  1.495321E+05  8.956923E+05  1.985693E+05 -2.120209E+05  2.390642E+04  6.569800E+04
       322   3  5.956113E+04  6.000995E+05  1.016562E+05 -2.196983E+05  1.365459E+04 -2.103374E+03
       322   4  1.305836E+05  3.399213E+05  1.524432E+05 -2.351775E+05  8.950339E+03  1.016536E+05
       322   5  1.027070E+04  3.242323E+05  7.379892E+04 -1.842918E+05  2.391486E+04  6.303959E+04
       322   6 -3.305180E+03  3.400519E+05  4.693057E+04 -2.353576E+05  1.361058E+04  2.439722E+04
       322   7 -9.010726E+04 -5.473144E+05 -6.261317E+04 -1.641447E+05  9.002872E+03  6.984654E+04
       322   8 -1.290096E+05 -2.469205E+05 -5.099076E+04 -1.565883E+05  2.392306E+04  6.038357E+04
       322   9 -6.617452E+04  8.007007E+04 -7.796111E+03 -2.510102E+05  1.356523E+04  5.088689E+04
       322  10  3.512311E+05  1.227870E+06  3.674157E+05 -3.063128E+05  4.071141E-10 -9.936445E-12
       322  11  1.495303E+05  8.956875E+05  1.985601E+05 -2.120221E+05  2.771079E-10 -1.577948E-09
       322  12  5.956093E+04  6.000995E+05  1.016559E+05 -2.196982E+05  6.523541E-10 -5.891933E-10
       322  13  1.305807E+05  3.399102E+05  1.524236E+05 -2.351782E+05  8.691687E-10 -4.255803E-11
       322  14  1.026902E+04  3.242279E+05  7.379038E+04 -1.842930E+05 -1.559748E-09  7.616783E-10
       322  15 -3.305538E+03  3.400512E+05  4.692910E+04 -2.353578E+05  1.045269E-10 -1.633213E-10
       322  16 -9.010866E+04 -5.473197E+05 -6.262250E+04 -1.641452E+05  1.530220E-10 -8.056043E-10
       322  17 -1.290112E+05 -2.469246E+05 -5.099869E+04 -1.565895E+05  1.413313E-10 -1.124833E-09
       322  18 -6.617542E+04  8.006724E+04 -7.801324E+03 -2.510108E+05 -9.963810E-10  1.635311E-10
       322  19  3.512360E+05  1.227889E+06  3.674493E+05 -3.063118E+05 -8.890573E+03 -1.335060E+05
       322  20  1.495321E+05  8.956923E+05  1.985693E+05 -2.120209E+05 -2.390642E+04 -6.569800E+04
       322  21  5.956113E+04  6.000995E+05  1.016562E+05 -2.196983E+05 -1.365459E+04  2.103374E+03
       322  22  1.305836E+05  3.399213E+05  1.524432E+05 -2.351775E+05 -8.950339E+03 -1.016536E+05
       322  23  1.027070E+04  3.242323E+05  7.379892E+04 -1.842918E+05 -2.391486E+04 -6.303959E+04
       322  24 -3.305180E+03  3.400519E+05  4.693057E+04 -2.353576E+05 -1.361058E+04 -2.439722E+04
       322  25 -9.010726E+04 -5.473144E+05 -6.261317E+04 -1.641447E+05 -9.002872E+03 -6.984654E+04
       322  26 -1.290096E+05 -2.469205E+05 -5.099076E+04 -1.565883E+05 -2.392306E+04 -6.038357E+04
       322  27 -6.617452E+04  8.007007E+04 -7.796111E+03 -2.510102E+05 -1.356523E+04 -5.088689E+04
       323   1  1.323052E+04  3.642620E+05  4.759693E+04 -2.384206E+05  6.236445E+02 -3.247516E+03
       323   2 -6.752492E+04  4.854177E+04 -2.471152E+04 -1.837088E+05 -1.698164E+04 -1.905679E+04
       323   3 -1.388387E+05 -2.629510E+05 -8.445305E+04 -2.322004E+05 -3.383264E+04 -3.485217E+04
       323   4  5.752464E+03  3.340127E+05  4.049989E+04 -2.355965E+05  5.883154E+02  1.750570E+04
       323   5  7.347105E+02  3.318428E+05  3.333873E+04 -1.839972E+05 -1.701254E+04  8.199399E+02
       323   6  5.314293E+03  3.339575E+05  3.935412E+04 -2.355969E+05 -3.385943E+04 -1.585959E+04
       323   7 -1.725392E+03  3.037652E+05  3.340442E+04 -2.327725E+05  5.531741E+02  3.825792E+04
       323   8  6.898952E+04  6.152209E+05  9.138619E+04 -1.842856E+05 -1.704346E+04  2.070558E+04
       323   9  1.494449E+05  9.312044E+05  1.631432E+05 -2.389965E+05 -3.388642E+04  3.150941E+03
       323  10  1.323051E+04  3.642620E+05  4.759691E+04 -2.384206E+05 -9.904759E-11  1.995584E-10
       323  11 -6.752533E+04  4.854130E+04 -2.471274E+04 -1.837090E+05  9.583481E-10 -1.539891E-09
       323  12 -1.388403E+05 -2.629526E+05 -8.445748E+04 -2.322014E+05 -2.418902E-10 -7.006001E-10
       323  13  5.752381E+03  3.340124E+05  4.049932E+04 -2.355965E+05 -4.558194E-10  1.943572E-12
       323  14  7.343995E+02  3.318427E+05  3.333818E+04 -1.839971E+05  1.539695E-09  6.054794E-10
       323  15  5.312994E+03  3.339570E+05  3.935150E+04 -2.355973E+05  1.369066E-09 -2.342595E-10
       323  16 -1.725785E+03  3.037637E+05  3.340167E+04 -2.327725E+05 -5.152575E-10 -1.285055E-09
       323  17  6.898909E+04  6.152203E+05  9.138484E+04 -1.842854E+05 -9.314994E-10 -1.463281E-09
       323  18  1.494437E+05  9.312041E+05  1.631411E+05 -2.389964E+05 -4.569161E-10  3.962723E-10
       323  19  1.323052E+04  3.642620E+05  4.759693E+04 -2.384206E+05 -6.236445E+02  3.247516E+03
       323  20 -6.752492E+04  4.854177E+04 -2.471152E+04 -1.837088E+05  1.698164E+04  1.905679E+04
       323  21 -1.388387E+05 -2.629510E+05 -8.445305E+04 -2.322004E+05  3.383264E+04  3.485217E+04
       323  22  5.752464E+03  3.340127E+05  4.049989E+04 -2.355965E+05 -5.883154E+02 -1.750570E+04
       323  23  7.347105E+02  3.318428E+05  3.333873E+04 -1.839972E+05  1.701254E+04 -8.199399E+02
       323  24  5.314293E+03  3.339575E+05  3.935412E+04 -2.355969E+05  3.385943E+04  1.585959E+04
       323  25 -1.725392E+03  3.037652E+05  3.340442E+04 -2.327725E+05 -5.531741E+02 -3.825792E+04
       323  26  6.898952E+04  6.152209E+05  9.138619E+04 -1.842856E+05  1.704346E+04 -2.070558E+04
       323  27  1.494449E+05  9.312044E+05  1.631432E+05 -2.389965E+05  3.388642E+04 -3.150941E+03
       324   1 -2.028895E+05 -4.873529E+05 -1.259007E+05 -2.494916E+05 -4.745737E+04 -5.100487E+04
       324   2 -2.670936E+05 -8.125172E+05 -1.747502E+05 -1.579046E+05 -5.236933E+04 -4.201834E+04
       324   3 -2.377741E+05 -1.115230E+06 -2.060487E+05 -1.676296E+05 -1.756892E+04 -3.301202E+04
       324   4 -3.292309E+03  3.396588E+05  4.521100E+04 -2.351969E+05 -4.749472E+04 -2.254272E+04
       324   5  9.437360E+03  3.244221E+05  7.026962E+04 -1.844936E+05 -5.234142E+04 -5.930727E+04
       324   6  1.235355E+05  3.394200E+05  1.446094E+05 -2.350727E+05 -1.750976E+04 -9.604879E+04
       324   7  1.962628E+05  1.167321E+06  2.162888E+05 -2.208825E+05 -4.753073E+04  5.956725E+03
       324   8  2.858860E+05  1.462579E+06  3.152149E+05 -2.111315E+05 -5.231207E+04 -7.662738E+04
       324   9  4.847097E+05  1.796026E+06  4.951336E+05 -3.026738E+05 -1.743698E+04 -1.592327E+05
       324  10 -2.028927E+05 -4.873563E+05 -1.259098E+05 -2.494936E+05  4.626018E-11 -3.000299E-10
       324  11 -2.670970E+05 -8.125199E+05 -1.747587E+05 -1.579064E+05  2.420787E-10 -7.696335E-10
       324  12 -2.377747E+05 -1.115231E+06 -2.060514E+05 -1.676301E+05  8.304744E-11  2.051875E-11
       324  13 -3.294868E+03  3.396577E+05  4.520580E+04 -2.351978E+05 -1.061015E-09  5.967632E-11
       324  14  9.433473E+03  3.244176E+05  7.025786E+04 -1.844961E+05  5.627544E-10  3.800838E-10
       324  15  1.235327E+05  3.394100E+05  1.445915E+05 -2.350740E+05 -1.177029E-10  8.485398E-12
       324  16  1.962604E+05  1.167321E+06  2.162845E+05 -2.208823E+05 -1.481339E-10 -6.321009E-10
       324  17  2.858815E+05  1.462572E+06  3.151987E+05 -2.111348E+05  3.500126E-10 -1.212202E-09
       324  18  4.847026E+05  1.795998E+06  4.950856E+05 -3.026760E+05 -1.580318E-10 -6.441357E-11
       324  19 -2.028895E+05 -4.873529E+05 -1.259007E+05 -2.494916E+05  4.745737E+04  5.100487E+04
       324  20 -2.670936E+05 -8.125172E+05 -1.747502E+05 -1.579046E+05  5.236933E+04  4.201834E+04
       324  21 -2.377741E+05 -1.115230E+06 -2.060487E+05 -1.676296E+05  1.756892E+04  3.301202E+04
       324  22 -3.292309E+03  3.396588E+05  4.521100E+04 -2.351969E+05  4.749472E+04  2.254272E+04
       324  23  9.437360E+03  3.244221E+05  7.026962E+04 -1.844936E+05  5.234142E+04  5.930727E+04
       324  24  1.235355E+05  3.394200E+05  1.446094E+05 -2.350727E+05  1.750976E+04  9.604879E+04
       324  25  1.962628E+05  1.167321E+06  2.162888E+05 -2.208825E+05  4.753073E+04 -5.956725E+03
       324  26  2.858860E+05  1.462579E+06  3.152149E+05 -2.111315E+05  5.231207E+04  7.662738E+04
       324  27  4.847097E+05  1.796026E+06  4.951336E+05 -3.026738E+05  1.743698E+04  1.592327E+05
       325   1 -2.452088E+06 -9.479597E+05 -5.445681E+05 -9.560623E+05 -2.694261E+05 -8.880779E+04
       325   2 -2.383440E+06 -5.915450E+05 -3.082866E+05 -9.318770E+05 -1.708294E+05 -2.461358E+04
       325   3 -2.398589E+06 -4.814579E+05 -2.149258E+05 -8.695911E+05 -6.434585E+04  1.866151E+04
       325   4 -1.828616E+06 -5.649747E+05 -3.518621E+05 -6.334158E+05 -2.296383E+05 -7.393349E+04
       325   5 -1.769647E+06 -3.069437E+05 -1.570744E+05 -7.039807E+05 -1.553666E+05 -1.882662E+04
       325   6 -1.789553E+06 -2.903026E+05 -8.579369E+04 -7.364793E+05 -7.321686E+04  1.533083E+04
       325   7 -1.204713E+06 -1.817268E+05 -1.591849E+05 -3.104153E+05 -1.898075E+05 -5.901894E+04
       325   8 -1.155466E+06 -2.224805E+04 -5.889093E+03 -4.758565E+05 -1.398872E+05 -1.302981E+04
       325   9 -1.180134E+06 -9.913961E+04  4.332004E+04 -6.032570E+05 -8.209740E+04  1.199778E+04
       325  10 -2.452168E+06 -9.479878E+05 -5.447200E+05 -9.560817E+05  9.553912E-10 -3.963344E-11
       325  11 -2.383472E+06 -5.915535E+05 -3.083428E+05 -9.318804E+05  4.319021E-10 -4.511011E-10
       325  12 -2.398594E+06 -4.814594E+05 -2.149342E+05 -8.695902E+05 -3.285099E-10 -1.720385E-10
       325  13 -1.828674E+06 -5.649948E+05 -3.519718E+05 -6.334295E+05 -1.216675E-10  1.415042E-10
       325  14 -1.769673E+06 -3.069506E+05 -1.571206E+05 -7.039831E+05  9.603403E-10 -1.029956E-09
       325  15 -1.789559E+06 -2.903043E+05 -8.580422E+04 -7.364784E+05 -3.624483E-10 -8.529753E-11
       325  16 -1.204753E+06 -1.817402E+05 -1.592593E+05 -3.104243E+05 -9.190893E-10 -5.175811E-10
       325  17 -1.155487E+06 -2.225350E+04 -5.926259E+03 -4.758580E+05 -3.688007E-10 -7.572142E-10
       325  18 -1.180142E+06 -9.914158E+04  4.330709E+04 -6.032562E+05  2.692696E-10  2.134746E-10
       325  19 -2.452088E+06 -9.479597E+05 -5.445681E+05 -9.560623E+05  2.694261E+05  8.880779E+04
       325  20 -2.383440E+06 -5.915450E+05 -3.082866E+05 -9.318770E+05  1.708294E+05  2.461358E+04
       325  21 -2.398589E+06 -4.814579E+05 -2.149258E+05 -8.695911E+05  6.434585E+04 -1.866151E+04
       325  22 -1.828616E+06 -5.649747E+05 -3.518621E+05 -6.334158E+05  2.296383E+05  7.393349E+04
       325  23 -1.769647E+06 -3.069437E+05 -1.570744E+05 -7.039807E+05  1.553666E+05  1.882662E+04
       325  24 -1.789553E+06 -2.903026E+05 -8.579369E+04 -7.364793E+05  7.321686E+04 -1.533083E+04
       325  25 -1.204713E+06 -1.817268E+05 -1.591849E+05 -3.104153E+05  1.898075E+05  5.901894E+04
       325  26 -1.155466E+06 -2.224805E+04 -5.889093E+03 -4.758565E+05  1.398872E+05  1.302981E+04
       325  27 -1.180134E+06 -9.913961E+04  4.332004E+04 -6.032570E+05  8.209740E+04 -1.199778E+04
       326   1 -2.306376E+06 -5.059740E+05 -1.841521E+05 -8.740104E+05 -5.785365E+04  1.659675E+04
       326   2 -2.239370E+06 -4.567332E+05 -1.352679E+05 -8.442111E+05 -3.755942E+04  2.002857E+04
       326   3 -2.161162E+06 -4.354976E+05 -1.032708E+05 -8.325412E+05 -1.684374E+04  2.233852E+04
       326   4 -1.778628E+06 -3.074771E+05 -6.655798E+04 -7.246887E+05 -6.150203E+04  1.522414E+04
       326   5 -1.783532E+06 -2.879202E+05 -3.498577E+04 -7.177458E+05 -4.250015E+04  1.817254E+04
       326   6 -1.776977E+06 -2.961045E+05 -1.926191E+04 -7.289333E+05 -2.307941E+04  1.999842E+04
       326   7 -1.250597E+06 -1.089555E+05  5.101871E+04 -5.752491E+05 -6.515375E+04  1.385021E+04
       326   8 -1.327485E+06 -1.190909E+05  6.528333E+04 -5.911952E+05 -4.744479E+04  1.631503E+04
       326   9 -1.392644E+06 -1.567019E+05  6.473749E+04 -6.252675E+05 -2.931922E+04  1.765681E+04
       326  10 -2.306379E+06 -5.059752E+05 -1.841589E+05 -8.740096E+05 -1.747071E-12  5.879888E-10
       326  11 -2.239372E+06 -4.567341E+05 -1.352713E+05 -8.442105E+05 -3.759775E-10  1.299325E-10
       326  12 -2.161162E+06 -4.354982E+05 -1.032722E+05 -8.325409E+05  6.709074E-10  1.800492E-10
       326  13 -1.778632E+06 -3.074783E+05 -6.656554E+04 -7.246880E+05  6.841749E-10  1.639688E-10
       326  14 -1.783534E+06 -2.879210E+05 -3.498979E+04 -7.177452E+05 -7.181802E-10  2.017663E-11
       326  15 -1.776977E+06 -2.961051E+05 -1.926367E+04 -7.289329E+05 -6.333312E-10 -1.737536E-10
       326  16 -1.250602E+06 -1.089569E+05  5.101036E+04 -5.752484E+05 -4.687391E-10  1.993896E-11
       326  17 -1.327488E+06 -1.190918E+05  6.527859E+04 -5.911946E+05  2.011462E-10 -1.575863E-10
       326  18 -1.392645E+06 -1.567025E+05  6.473529E+04 -6.252671E+05 -1.237333E-09 -7.034699E-10
       326  19 -2.306376E+06 -5.059740E+05 -1.841521E+05 -8.740104E+05  5.785365E+04 -1.659675E+04
       326  20 -2.239370E+06 -4.567332E+05 -1.352679E+05 -8.442111E+05  3.755942E+04 -2.002857E+04
       326  21 -2.161162E+06 -4.354976E+05 -1.032708E+05 -8.325412E+05  1.684374E+04 -2.233852E+04
       326  22 -1.778628E+06 -3.074771E+05 -6.655798E+04 -7.246887E+05  6.150203E+04 -1.522414E+04
       326  23 -1.783532E+06 -2.879202E+05 -3.498577E+04 -7.177458E+05  4.250015E+04 -1.817254E+04
       326  24 -1.776977E+06 -2.961045E+05 -1.926191E+04 -7.289333E+05  2.307941E+04 -1.999842E+04
       326  25 -1.250597E+06 -1.089555E+05  5.101871E+04 -5.752491E+05  6.515375E+04 -1.385021E+04
       326  26 -1.327485E+06 -1.190909E+05  6.528333E+04 -5.911952E+05  4.744479E+04 -1.631503E+04
       326  27 -1.392644E+06 -1.567019E+05  6.473749E+04 -6.252675E+05  2.931922E+04 -1.765681E+04
       327   1 -2.104967E+06 -4.174574E+05 -8.626374E+04 -8.185051E+05 -1.323049E+04  2.016580E+04
       327   2 -2.038671E+06 -3.807689E+05 -6.352047E+04 -7.878930E+05 -7.238593E+03  1.652349E+04
       327   3 -1.955381E+06 -3.622973E+05 -4.392215E+04 -7.775972E+05 -1.221359E+03  1.281089E+04
       327   4 -1.776139E+06 -2.968261E+05 -1.453598E+04 -7.283503E+05 -1.920885E+04  1.792296E+04
       327   5 -1.784606E+06 -2.875527E+05 -7.973125E+03 -7.182520E+05 -1.329704E+04  1.425153E+04
       327   6 -1.776072E+06 -2.964803E+05 -4.490596E+03 -7.284719E+05 -7.360444E+03  1.050964E+04
       327   7 -1.447197E+06 -1.761857E+05  5.718610E+04 -6.381510E+05 -2.519067E+04  1.567883E+04
       327   8 -1.530475E+06 -1.943312E+05  4.757075E+04 -6.485845E+05 -1.935819E+04  1.197856E+04
       327   9 -1.596730E+06 -2.306609E+05  3.493917E+04 -6.793335E+05 -1.350145E+04  8.207678E+03
       327  10 -2.104968E+06 -4.174579E+05 -8.626484E+04 -8.185049E+05  3.988926E-10  2.097719E-10
       327  11 -2.038671E+06 -3.807692E+05 -6.352108E+04 -7.878929E+05  4.682465E-10  2.061946E-10
       327  12 -1.955381E+06 -3.622974E+05 -4.392246E+04 -7.775972E+05  6.834239E-10  1.818608E-11
       327  13 -1.776139E+06 -2.968266E+05 -1.453728E+04 -7.283500E+05  8.850484E-10  1.886089E-10
       327  14 -1.784607E+06 -2.875530E+05 -7.973839E+03 -7.182518E+05 -6.344790E-11 -4.544017E-11
       327  15 -1.776072E+06 -2.964805E+05 -4.490905E+03 -7.284718E+05 -1.991419E-10 -5.657591E-10
       327  16 -1.447198E+06 -1.761861E+05  5.718444E+04 -6.381506E+05 -6.823316E-10 -5.256423E-10
       327  17 -1.530476E+06 -1.943314E+05  4.756977E+04 -6.485843E+05 -6.503312E-10 -1.894178E-10
       327  18 -1.596730E+06 -2.306610E+05  3.493870E+04 -6.793334E+05 -6.403325E-10 -4.924739E-10
       327  19 -2.104967E+06 -4.174574E+05 -8.626374E+04 -8.185051E+05  1.323049E+04 -2.016580E+04
       327  20 -2.038671E+06 -3.807689E+05 -6.352047E+04 -7.878930E+05  7.238593E+03 -1.652349E+04
       327  21 -1.955381E+06 -3.622973E+05 -4.392215E+04 -7.775972E+05  1.221359E+03 -1.281089E+04
       327  22 -1.776139E+06 -2.968261E+05 -1.453598E+04 -7.283503E+05  1.920885E+04 -1.792296E+04
       327  23 -1.784606E+06 -2.875527E+05 -7.973125E+03 -7.182520E+05  1.329704E+04 -1.425153E+04
       327  24 -1.776072E+06 -2.964803E+05 -4.490596E+03 -7.284719E+05  7.360444E+03 -1.050964E+04
       327  25 -1.447197E+06 -1.761857E+05  5.718610E+04 -6.381510E+05  2.519067E+04 -1.567883E+04
       327  26 -1.530475E+06 -1.943312E+05  4.757075E+04 -6.485845E+05  1.935819E+04 -1.197856E+04
       327  27 -1.596730E+06 -2.306609E+05  3.493917E+04 -6.793335E+05  1.350145E+04 -8.207678E+03
       328   1 -1.900739E+06 -3.422613E+05 -3.048837E+04 -7.626762E+05  5.797099E+02  9.988141E+03
       328   2 -1.834465E+06 -3.058391E+05 -1.300041E+04 -7.318523E+05  3.623788E+03  5.124586E+03
       328   3 -1.750586E+06 -2.872102E+05  3.682798E+03 -7.214146E+05  6.669596E+03  2.557281E+02
       328   4 -1.775952E+06 -2.965091E+05 -3.450248E+03 -7.284409E+05 -5.553439E+03  7.689469E+03
       328   5 -1.784751E+06 -2.876195E+05 -2.138870E+03 -7.182436E+05 -2.515696E+03  2.823725E+03
       328   6 -1.775951E+06 -2.965223E+05 -1.627017E+03 -7.284346E+05  5.236452E+02 -2.047370E+03
       328   7 -1.651150E+06 -2.507561E+05  2.358688E+04 -6.941996E+05 -1.168788E+04  5.390315E+03
       328   8 -1.735036E+06 -2.693997E+05  8.722679E+03 -7.046338E+05 -8.655713E+03  5.226660E+02
       328   9 -1.801315E+06 -3.058344E+05 -6.936752E+03 -7.354543E+05 -5.622075E+03 -4.350381E+03
       328  10 -1.900739E+06 -3.422614E+05 -3.048855E+04 -7.626762E+05  9.221199E-11  1.841490E-11
       328  11 -1.834465E+06 -3.058391E+05 -1.300048E+04 -7.318523E+05  1.125752E-09  9.366198E-10
       328  12 -1.750586E+06 -2.872102E+05  3.682714E+03 -7.214146E+05  5.288847E-10  6.514350E-11
       328  13 -1.775952E+06 -2.965092E+05 -3.450417E+03 -7.284409E+05 -3.670675E-11 -5.620293E-10
       328  14 -1.784751E+06 -2.876195E+05 -2.138897E+03 -7.182435E+05  6.402125E-10  3.809409E-10
       328  15 -1.775951E+06 -2.965223E+05 -1.627025E+03 -7.284346E+05  3.047669E-10  1.705377E-10
       328  16 -1.651150E+06 -2.507562E+05  2.358657E+04 -6.941995E+05  5.033727E-10 -1.470511E-10
       328  17 -1.735036E+06 -2.693998E+05  8.722537E+03 -7.046338E+05 -1.264716E-09 -4.712678E-10
       328  18 -1.801315E+06 -3.058344E+05 -6.936847E+03 -7.354543E+05 -9.041828E-10 -1.847808E-10
       328  19 -1.900739E+06 -3.422613E+05 -3.048837E+04 -7.626762E+05 -5.797099E+02 -9.988141E+03
       328  20 -1.834465E+06 -3.058391E+05 -1.300041E+04 -7.318523E+05 -3.623788E+03 -5.124586E+03
       328  21 -1.750586E+06 -2.872102E+05  3.682798E+03 -7.214146E+05 -6.669596E+03 -2.557281E+02
       328  22 -1.775952E+06 -2.965091E+05 -3.450248E+03 -7.284409E+05  5.553439E+03 -7.689469E+03
       328  23 -1.784751E+06 -2.876195E+05 -2.138870E+03 -7.182436E+05  2.515696E+03 -2.823725E+03
       328  24 -1.775951E+06 -2.965223E+05 -1.627017E+03 -7.284346E+05 -5.236452E+02  2.047370E+03
       328  25 -1.651150E+06 -2.507561E+05  2.358688E+04 -6.941996E+05  1.168788E+04 -5.390315E+03
       328  26 -1.735036E+06 -2.693997E+05  8.722679E+03 -7.046338E+05  8.655713E+03 -5.226660E+02
       328  27 -1.801315E+06 -3.058344E+05 -6.936752E+03 -7.354543E+05  5.622075E+03  4.350381E+03
       329   1 -1.696038E+06 -2.670580E+05  1.612495E+04 -7.064297E+05  8.085295E+03 -2.713100E+03
       329   2 -1.629871E+06 -2.306810E+05  3.189718E+04 -6.756421E+05  1.102557E+04 -7.614726E+03
       329   3 -1.546108E+06 -2.120635E+05  4.694427E+04 -6.652045E+05  1.396276E+04 -1.250527E+04
       329   4 -1.775954E+06 -2.965174E+05 -1.596038E+03 -7.284265E+05  1.941929E+03 -5.015355E+03
       329   5 -1.784754E+06 -2.876398E+05 -1.967951E+03 -7.182508E+05  4.894339E+03 -9.913015E+03
       329   6 -1.775964E+06 -2.965248E+05 -3.074537E+03 -7.284276E+05  7.843529E+03 -1.479961E+04
       329   7 -1.855865E+06 -3.259762E+05 -1.931725E+04 -7.504206E+05 -4.200577E+03 -7.317289E+03
       329   8 -1.939612E+06 -3.445964E+05 -3.583421E+04 -7.608495E+05 -1.235213E+03 -1.221068E+04
       329   9 -2.005766E+06 -3.809813E+05 -5.309588E+04 -7.916287E+05  1.726789E+03 -1.709302E+04
       329  10 -1.696038E+06 -2.670581E+05  1.612481E+04 -7.064297E+05  7.586777E-11 -4.211142E-10
       329  11 -1.629871E+06 -2.306811E+05  3.189684E+04 -6.756420E+05  3.592436E-10  2.943389E-11
       329  12 -1.546108E+06 -2.120637E+05  4.694361E+04 -6.652044E+05  2.539291E-10  1.466844E-10
       329  13 -1.775954E+06 -2.965174E+05 -1.596092E+03 -7.284265E+05  9.211061E-11 -2.617440E-11
       329  14 -1.784754E+06 -2.876399E+05 -1.968181E+03 -7.182507E+05  7.766820E-10  4.273985E-10
       329  15 -1.775965E+06 -2.965251E+05 -3.075064E+03 -7.284275E+05 -9.495244E-11 -1.153210E-10
       329  16 -1.855865E+06 -3.259762E+05 -1.931738E+04 -7.504207E+05  4.297597E-11  3.206912E-10
       329  17 -1.939612E+06 -3.445966E+05 -3.583449E+04 -7.608495E+05  4.903441E-10  3.363982E-10
       329  18 -2.005766E+06 -3.809817E+05 -5.309644E+04 -7.916287E+05 -4.118041E-10 -4.669870E-10
       329  19 -1.696038E+06 -2.670580E+05  1.612495E+04 -7.064297E+05 -8.085295E+03  2.713100E+03
       329  20 -1.629871E+06 -2.306810E+05  3.189718E+04 -6.756421E+05 -1.102557E+04  7.614726E+03
       329  21 -1.546108E+06 -2.120635E+05  4.694427E+04 -6.652045E+05 -1.396276E+04  1.250527E+04
       329  22 -1.775954E+06 -2.965174E+05 -1.596038E+03 -7.284265E+05 -1.941929E+03  5.015355E+03
       329  23 -1.784754E+06 -2.876398E+05 -1.967951E+03 -7.182508E+05 -4.894339E+03  9.913015E+03
       329  24 -1.775964E+06 -2.965248E+05 -3.074537E+03 -7.284276E+05 -7.843529E+03  1.479961E+04
       329  25 -1.855865E+06 -3.259762E+05 -1.931725E+04 -7.504206E+05  4.200577E+03  7.317289E+03
       329  26 -1.939612E+06 -3.445964E+05 -3.583421E+04 -7.608495E+05  1.235213E+03  1.221068E+04
       329  27 -2.005766E+06 -3.809813E+05 -5.309588E+04 -7.916287E+05 -1.726789E+03  1.709302E+04
       330   1 -1.491841E+06 -1.919999E+05  5.840574E+04 -6.503384E+05  1.569611E+04 -1.534287E+04
       330   2 -1.425939E+06 -1.558259E+05  7.141406E+04 -6.197062E+05  2.104798E+04 -1.927602E+04
       330   3 -1.342988E+06 -1.376858E+05  8.179712E+04 -6.092806E+05  2.637120E+04 -2.312506E+04
       330   4 -1.776081E+06 -2.964877E+05 -3.971705E+03 -7.284367E+05  9.573881E+03 -1.763891E+04
       330   5 -1.784627E+06 -2.876218E+05 -7.007001E+03 -7.182757E+05  1.502074E+04 -2.153779E+04
       330   6 -1.776149E+06 -2.968111E+05 -1.274456E+04 -7.283252E+05  2.043849E+04 -2.535267E+04
       330   7 -2.060242E+06 -4.009700E+05 -6.635445E+04 -8.065026E+05  3.454646E+03 -1.993384E+04
       330   8 -2.143185E+06 -4.194082E+05 -8.543601E+04 -8.167932E+05  8.997257E+03 -2.379816E+04
       330   9 -2.209119E+06 -4.559218E+05 -1.072974E+05 -8.472935E+05  1.451026E+04 -2.757862E+04
       330  10 -1.491841E+06 -1.920002E+05  5.840484E+04 -6.503382E+05  2.911456E-10  4.961950E-11
       330  11 -1.425940E+06 -1.558264E+05  7.141253E+04 -6.197059E+05  1.537139E-10 -1.145530E-10
       330  12 -1.342989E+06 -1.376865E+05  8.179480E+04 -6.092801E+05 -1.498681E-09  1.206867E-10
       330  13 -1.776082E+06 -2.964881E+05 -3.972462E+03 -7.284365E+05 -5.791743E-11 -2.571048E-10
       330  14 -1.784627E+06 -2.876224E+05 -7.008296E+03 -7.182755E+05  1.159955E-09  5.900401E-10
       330  15 -1.776150E+06 -2.968119E+05 -1.274655E+04 -7.283248E+05 -6.289439E-10  7.174832E-10
       330  16 -2.060242E+06 -4.009704E+05 -6.635522E+04 -8.065026E+05  3.773881E-10 -2.505113E-10
       330  17 -2.143185E+06 -4.194089E+05 -8.543722E+04 -8.167931E+05 -3.313659E-10  8.372341E-11
       330  18 -2.209119E+06 -4.559226E+05 -1.072992E+05 -8.472932E+05 -4.449006E-11  1.087896E-09
       330  19 -1.491841E+06 -1.919999E+05  5.840574E+04 -6.503384E+05 -1.569611E+04  1.534287E+04
       330  20 -1.425939E+06 -1.558259E+05  7.141406E+04 -6.197062E+05 -2.104798E+04  1.927602E+04
       330  21 -1.342988E+06 -1.376858E+05  8.179712E+04 -6.092806E+05 -2.637120E+04  2.312506E+04
       330  22 -1.776081E+06 -2.964877E+05 -3.971705E+03 -7.284367E+05 -9.573881E+03  1.763891E+04
       330  23 -1.784627E+06 -2.876218E+05 -7.007001E+03 -7.182757E+05 -1.502074E+04  2.153779E+04
       330  24 -1.776149E+06 -2.968111E+05 -1.274456E+04 -7.283252E+05 -2.043849E+04  2.535267E+04
       330  25 -2.060242E+06 -4.009700E+05 -6.635445E+04 -8.065026E+05 -3.454646E+03  1.993384E+04
       330  26 -2.143185E+06 -4.194082E+05 -8.543601E+04 -8.167932E+05 -8.997257E+03  2.379816E+04
       330  27 -2.209119E+06 -4.559218E+05 -1.072974E+05 -8.472935E+05 -1.451026E+04  2.757862E+04
       331   1 -1.288830E+06 -1.182283E+05  8.985992E+04 -5.961972E+05  3.019299E+04 -2.520461E+04
       331   2 -1.224192E+06 -8.105951E+04  9.228491E+04 -5.627805E+05  4.592603E+04 -2.465309E+04
       331   3 -1.147150E+06 -6.992625E+04  8.200815E+04 -5.475584E+05  6.118536E+04 -2.282738E+04
       331   4 -1.776904E+06 -2.961653E+05 -1.688099E+04 -7.288162E+05  2.397092E+04 -2.754176E+04
       331   5 -1.783682E+06 -2.879885E+05 -3.065261E+04 -7.178547E+05  4.117493E+04 -2.644016E+04
       331   6 -1.778360E+06 -3.061468E+05 -5.830333E+04 -7.250910E+05  5.790336E+04 -2.406452E+04
       331   7 -2.264733E+06 -4.740836E+05 -1.236352E+05 -8.613389E+05  1.775419E+04 -2.987695E+04
       331   8 -2.342855E+06 -4.948922E+05 -1.536091E+05 -8.728001E+05  3.642845E+04 -2.822548E+04
       331   9 -2.409170E+06 -5.423348E+05 -1.986408E+05 -9.024576E+05  5.462493E+04 -2.530029E+04
       331  10 -1.288831E+06 -1.182292E+05  8.985702E+04 -5.961966E+05 -2.938072E-10  7.786714E-10
       331  11 -1.224194E+06 -8.106072E+04  9.227980E+04 -5.627796E+05 -8.985244E-10  4.389921E-11
       331  12 -1.147154E+06 -6.992781E+04  8.200013E+04 -5.475573E+05 -9.765774E-10 -3.266654E-10
       331  13 -1.776905E+06 -2.961663E+05 -1.688349E+04 -7.288157E+05 -3.563490E-10  5.797504E-10
       331  14 -1.783684E+06 -2.879897E+05 -3.065711E+04 -7.178539E+05 -1.754418E-09  3.803024E-10
       331  15 -1.778363E+06 -3.061483E+05 -5.831072E+04 -7.250899E+05  3.832659E-10  4.096405E-10
       331  16 -2.264733E+06 -4.740846E+05 -1.236374E+05 -8.613385E+05  3.534634E-11  5.345309E-10
       331  17 -2.342857E+06 -4.948934E+05 -1.536131E+05 -8.727993E+05 -1.338908E-10  5.004040E-10
       331  18 -2.409173E+06 -5.423363E+05 -1.986476E+05 -9.024565E+05  1.737923E-09  5.142673E-10
       331  19 -1.288830E+06 -1.182283E+05  8.985992E+04 -5.961972E+05 -3.019299E+04  2.520461E+04
       331  20 -1.224192E+06 -8.105951E+04  9.228491E+04 -5.627805E+05 -4.592603E+04  2.465309E+04
       331  21 -1.147150E+06 -6.992625E+04  8.200815E+04 -5.475584E+05 -6.118536E+04  2.282738E+04
       331  22 -1.776904E+06 -2.961653E+05 -1.688099E+04 -7.288162E+05 -2.397092E+04  2.754176E+04
       331  23 -1.783682E+06 -2.879885E+05 -3.065261E+04 -7.178547E+05 -4.117493E+04  2.644016E+04
       331  24 -1.778360E+06 -3.061468E+05 -5.830333E+04 -7.250910E+05 -5.790336E+04  2.406452E+04
       331  25 -2.264733E+06 -4.740836E+05 -1.236352E+05 -8.613389E+05 -1.775419E+04  2.987695E+04
       331  26 -2.342855E+06 -4.948922E+05 -1.536091E+05 -8.728001E+05 -3.642845E+04  2.822548E+04
       331  27 -2.409170E+06 -5.423348E+05 -1.986408E+05 -9.024576E+05 -5.462493E+04  2.530029E+04
       332   1 -1.079158E+06 -5.895187E+04  7.650689E+04 -5.702165E+05  7.759027E+04 -2.128517E+04
       332   2 -1.050695E+06  1.251633E+04  3.682400E+04 -4.555810E+05  1.213851E+05 -2.326014E+02
       332   3 -1.083961E+06 -1.234856E+05 -8.903554E+04 -3.095706E+05  1.562601E+05  4.455174E+04
       332   4 -1.787989E+06 -2.910490E+05 -7.515092E+04 -7.353456E+05  6.838716E+04 -2.474428E+04
       332   5 -1.771467E+06 -3.047502E+05 -1.375949E+05 -7.058862E+05  1.397863E+05  6.670340E+03
       332   6 -1.822269E+06 -5.315780E+05 -3.082115E+05 -6.450340E+05  2.022539E+05  6.181374E+04
       332   7 -2.496315E+06 -5.231330E+05 -2.268376E+05 -9.003135E+05  5.919540E+04 -2.820025E+04
       332   8 -2.491699E+06 -6.219090E+05 -3.120469E+05 -9.558999E+05  1.581641E+05  1.356069E+04
       332   9 -2.559973E+06 -9.394009E+05 -5.274206E+05 -9.800617E+05  2.481865E+05  7.902838E+04
       332  10 -1.079165E+06 -5.895397E+04  7.649471E+04 -5.702152E+05 -8.851271E-10  3.211920E-10
       332  11 -1.050711E+06  1.251236E+04  3.679626E+04 -4.555810E+05  7.896898E-10 -8.540341E-10
       332  12 -1.083987E+06 -1.234943E+05 -8.908525E+04 -3.095762E+05  8.591293E-10  1.016254E-09
       332  13 -1.787994E+06 -2.910509E+05 -7.516088E+04 -7.353443E+05 -2.093953E-10  3.582591E-10
       332  14 -1.771488E+06 -3.047555E+05 -1.376318E+05 -7.058870E+05  5.705506E-12  8.728746E-10
       332  15 -1.822314E+06 -5.315931E+05 -3.082958E+05 -6.450441E+05 -6.962042E-10  6.535141E-10
       332  16 -2.496319E+06 -5.231348E+05 -2.268457E+05 -9.003121E+05  1.252109E-09  6.284795E-10
       332  17 -2.491726E+06 -6.219159E+05 -3.120945E+05 -9.559016E+05  1.450469E-09 -3.817714E-10
       332  18 -2.560042E+06 -9.394243E+05 -5.275487E+05 -9.800776E+05 -1.031283E-09 -1.845013E-10
       332  19 -1.079158E+06 -5.895187E+04  7.650689E+04 -5.702165E+05 -7.759027E+04  2.128517E+04
       332  20 -1.050695E+06  1.251633E+04  3.682400E+04 -4.555810E+05 -1.213851E+05  2.326014E+02
       332  21 -1.083961E+06 -1.234856E+05 -8.903554E+04 -3.095706E+05 -1.562601E+05 -4.455174E+04
       332  22 -1.787989E+06 -2.910490E+05 -7.515092E+04 -7.353456E+05 -6.838716E+04  2.474428E+04
       332  23 -1.771467E+06 -3.047502E+05 -1.375949E+05 -7.058862E+05 -1.397863E+05 -6.670340E+03
       332  24 -1.822269E+06 -5.315780E+05 -3.082115E+05 -6.450340E+05 -2.022539E+05 -6.181374E+04
       332  25 -2.496315E+06 -5.231330E+05 -2.268376E+05 -9.003135E+05 -5.919540E+04  2.820025E+04
       332  26 -2.491699E+06 -6.219090E+05 -3.120469E+05 -9.558999E+05 -1.581641E+05 -1.356069E+04
       332  27 -2.559973E+06 -9.394009E+05 -5.274206E+05 -9.800617E+05 -2.481865E+05 -7.902838E+04
       333   1 -4.910070E+05 -1.155385E+05 -7.858355E+04 -1.986318E+03  7.739206E+04  1.543539E+04
       333   2 -3.869430E+05 -2.323632E+05 -1.255269E+05 -3.718274E+04  6.455554E+04  4.884728E+04
       333   3 -2.485620E+05 -2.200752E+05 -1.317754E+05 -1.107626E+05  5.175442E+04  5.248559E+04
       333   4  6.411622E+05  1.648927E+05  1.928901E+05 -8.981129E+04  1.331868E+05  1.548971E+04
       333   5  6.211284E+05  1.223030E+04  8.985818E+04 -7.054150E+04  8.600385E+04  4.885825E+04
       333   6  6.412868E+05 -5.485034E+03  5.130665E+04 -8.964451E+04  3.886125E+04  5.247279E+04
       333   7  1.774529E+06  4.452619E+05  4.642890E+05 -1.777974E+05  1.890829E+05  1.552821E+04
       333   8  1.630160E+06  2.567620E+05  3.051868E+05 -1.039554E+05  1.074864E+05  4.886690E+04
       333   9  1.531888E+06  2.090569E+05  2.343471E+05 -6.849567E+04  2.594988E+04  5.245913E+04
       333  10 -4.910135E+05 -1.155404E+05 -7.859526E+04 -1.987281E+03  1.698149E-09 -1.428779E-09
       333  11 -3.869482E+05 -2.323669E+05 -1.255392E+05 -3.718528E+04 -8.891364E-10  4.350424E-11
       333  12 -2.485656E+05 -2.200788E+05 -1.317857E+05 -1.107648E+05 -3.285941E-09 -2.978485E-10
       333  13  6.411431E+05  1.648877E+05  1.928564E+05 -8.981295E+04  6.684339E-10  7.737343E-10
       333  14  6.211198E+05  1.222575E+04  8.983981E+04 -7.054489E+04  4.871050E-10 -1.675678E-10
       333  15  6.412845E+05 -5.488397E+03  5.129863E+04 -8.964615E+04  2.034516E-10 -7.030641E-10
       333  16  1.774491E+06  4.452520E+05  4.642215E+05 -1.777998E+05 -1.230155E-09  7.715384E-10
       333  17  1.630147E+06  2.567563E+05  3.051607E+05 -1.039596E+05  1.786370E-09 -1.526498E-12
       333  18  1.531887E+06  2.090538E+05  2.343407E+05 -6.849677E+04  4.359117E-09  1.569878E-09
       333  19 -4.910070E+05 -1.155385E+05 -7.858355E+04 -1.986318E+03 -7.739206E+04 -1.543539E+04
       333  20 -3.869430E+05 -2.323632E+05 -1.255269E+05 -3.718274E+04 -6.455554E+04 -4.884728E+04
       333  21 -2.485620E+05 -2.200752E+05 -1.317754E+05 -1.107626E+05 -5.175442E+04 -5.248559E+04
       333  22  6.411622E+05  1.648927E+05  1.928901E+05 -8.981129E+04 -1.331868E+05 -1.548971E+04
       333  23  6.211284E+05  1.223030E+04  8.985818E+04 -7.054150E+04 -8.600385E+04 -4.885825E+04
       333  24  6.412868E+05 -5.485034E+03  5.130665E+04 -8.964451E+04 -3.886125E+04 -5.247279E+04
       333  25  1.774529E+06  4.452619E+05  4.642890E+05 -1.777974E+05 -1.890829E+05 -1.552821E+04
       333  26  1.630160E+06  2.567620E+05  3.051868E+05 -1.039554E+05 -1.074864E+05 -4.886690E+04
       333  27  1.531888E+06  2.090569E+05  2.343471E+05 -6.849567E+04 -2.594988E+04 -5.245913E+04
       334   1 -1.679472E+05 -1.867010E+05 -1.251132E+05 -8.812436E+04  3.741453E+04  4.660821E+04
       334   2 -4.901147E+04 -1.639553E+05 -1.173011E+05 -6.999681E+04  2.821283E+04  4.098444E+04
       334   3  7.273560E+04 -1.354462E+05 -1.020173E+05 -9.146379E+04  1.900552E+04  3.380052E+04
       334   4  6.330692E+05  6.516162E+03  4.014896E+04 -8.995503E+04  3.186885E+04  4.660041E+04
       334   5  6.315441E+05 -1.350028E+01  2.205381E+04 -7.015809E+04  2.085671E+04  4.097814E+04
       334   6  6.331256E+05 -4.697294E+02  1.267877E+04 -8.995269E+04  9.840712E+03  3.379652E+04
       334   7  1.434694E+06  1.996929E+05  2.053766E+05 -9.178815E+04  2.631612E+04  4.659265E+04
       334   8  1.312540E+06  1.638992E+05  1.613843E+05 -7.031957E+04  1.349266E+04  4.097184E+04
       334   9  1.193814E+06  1.344871E+05  1.273585E+05 -8.844020E+04  6.677759E+02  3.379248E+04
       334  10 -1.679492E+05 -1.867037E+05 -1.251199E+05 -8.812576E+04  4.663785E-10  1.232028E-10
       334  11 -4.901278E+04 -1.639573E+05 -1.173057E+05 -6.999774E+04 -5.794090E-10  4.286093E-10
       334  12  7.273491E+04 -1.354475E+05 -1.020202E+05 -9.146431E+04 -1.083641E-09  4.390066E-10
       334  13  6.330675E+05  6.513557E+03  4.014297E+04 -8.995623E+04  6.099718E-10  1.452330E-09
       334  14  6.315432E+05 -1.542074E+01  2.204983E+04 -7.015878E+04  6.186640E-11  9.282662E-10
       334  15  6.331252E+05 -4.709823E+02  1.267644E+04 -8.995296E+04 -3.428002E-10 -4.976955E-11
       334  16  1.434693E+06  1.996903E+05  2.053712E+05 -9.178913E+04 -4.651040E-10  1.012116E-09
       334  17  1.312539E+06  1.638974E+05  1.613808E+05 -7.032002E+04  7.374942E-10  5.308981E-10
       334  18  1.193814E+06  1.344859E+05  1.273564E+05 -8.844022E+04  1.122314E-09  1.442307E-10
       334  19 -1.679472E+05 -1.867010E+05 -1.251132E+05 -8.812436E+04 -3.741453E+04 -4.660821E+04
       334  20 -4.901147E+04 -1.639553E+05 -1.173011E+05 -6.999681E+04 -2.821283E+04 -4.098444E+04
       334  21  7.273560E+04 -1.354462E+05 -1.020173E+05 -9.146379E+04 -1.900552E+04 -3.380052E+04
       334  22  6.330692E+05  6.516162E+03  4.014896E+04 -8.995503E+04 -3.186885E+04 -4.660041E+04
       334  23  6.315441E+05 -1.350028E+01  2.205381E+04 -7.015809E+04 -2.085671E+04 -4.097814E+04
       334  24  6.331256E+05 -4.697294E+02  1.267877E+04 -8.995269E+04 -9.840712E+03 -3.379652E+04
       334  25  1.434694E+06  1.996929E+05  2.053766E+05 -9.178815E+04 -2.631612E+04 -4.659265E+04
       334  26  1.312540E+06  1.638992E+05  1.613843E+05 -7.031957E+04 -1.349266E+04 -4.097184E+04
       334  27  1.193814E+06  1.344871E+05  1.273585E+05 -8.844020E+04 -6.677759E+02 -3.379248E+04
       335   1  1.598528E+05 -1.136823E+05 -8.655488E+04 -9.034912E+04  1.663973E+04  2.920427E+04
       335   2  2.796404E+05 -8.503462E+04 -6.644968E+04 -7.045446E+04  1.400296E+04  2.154901E+04
       335   3  3.998953E+05 -5.612547E+04 -4.455231E+04 -9.011968E+04  1.136295E+04  1.381578E+04
       335   4  6.325588E+05  6.362175E+01  9.668356E+03 -8.994613E+04  7.867915E+03  2.920164E+04
       335   5  6.323373E+05 -1.365878E+02  5.518541E+03 -7.016692E+04  5.138651E+03  2.154785E+04
       335   6  6.325863E+05 -5.846732E+01  3.224358E+03 -8.994627E+04  2.406643E+03  1.381615E+04
       335   7  1.105477E+06  1.137956E+05  1.058802E+05 -8.954282E+04 -9.104551E+02  2.919901E+04
       335   8  9.851524E+05  8.475371E+04  7.748050E+04 -6.987922E+04 -3.730598E+03  2.154668E+04
       335   9  8.653287E+05  5.600518E+04  5.099843E+04 -8.977279E+04 -6.552954E+03  1.381651E+04
       335  10  1.598522E+05 -1.136833E+05 -8.655700E+04 -9.034952E+04  2.947848E-09  2.274084E-10
       335  11  2.796401E+05 -8.503517E+04 -6.645092E+04 -7.045470E+04 -7.669889E-09 -8.699931E-10
       335  12  3.998951E+05 -5.612571E+04 -4.455291E+04 -9.011981E+04 -1.597798E-08 -1.582694E-09
       335  13  6.325585E+05  6.268915E+01  9.666637E+03 -8.994632E+04  1.500998E-09  2.325484E-10
       335  14  6.323371E+05 -1.370936E+02  5.517618E+03 -7.016701E+04  2.693766E-10 -3.514392E-10
       335  15  6.325862E+05 -5.867392E+01  3.223988E+03 -8.994630E+04 -1.321524E-10 -1.147897E-09
       335  16  1.105477E+06  1.137947E+05  1.058786E+05 -8.954279E+04 -3.205664E-09  1.834231E-10
       335  17  9.851523E+05  8.475321E+04  7.747960E+04 -6.987915E+04  8.062317E-09  5.087810E-11
       335  18  8.653286E+05  5.600496E+04  5.099799E+04 -8.977272E+04  1.695070E-08 -9.377232E-10
       335  19  1.598528E+05 -1.136823E+05 -8.655488E+04 -9.034912E+04 -1.663973E+04 -2.920427E+04
       335  20  2.796404E+05 -8.503462E+04 -6.644968E+04 -7.045446E+04 -1.400296E+04 -2.154901E+04
       335  21  3.998953E+05 -5.612547E+04 -4.455231E+04 -9.011968E+04 -1.136295E+04 -1.381578E+04
       335  22  6.325588E+05  6.362175E+01  9.668356E+03 -8.994613E+04 -7.867915E+03 -2.920164E+04
       335  23  6.323373E+05 -1.365878E+02  5.518541E+03 -7.016692E+04 -5.138651E+03 -2.154785E+04
       335  24  6.325863E+05 -5.846732E+01  3.224358E+03 -8.994627E+04 -2.406643E+03 -1.381615E+04
       335  25  1.105477E+06  1.137956E+05  1.058802E+05 -8.954282E+04  9.104551E+02 -2.919901E+04
       335  26  9.851524E+05  8.475371E+04  7.748050E+04 -6.987922E+04  3.730598E+03 -2.154668E+04
       335  27  8.653287E+05  5.600518E+04  5.099843E+04 -8.977279E+04  6.552954E+03 -1.381651E+04
       336   1  4.873244E+05 -3.491376E+04 -2.681607E+04 -9.005654E+04  1.082292E+04  9.295649E+03
       336   2  6.071877E+05 -6.110559E+03 -3.621698E+03 -7.024736E+04  1.007042E+04  1.543455E+03
       336   3  7.271731E+05  2.270372E+04  2.006537E+04 -8.996392E+04  9.317565E+03 -6.212563E+03
       336   4  6.325125E+05 -3.394974E+01  2.485390E+03 -8.993897E+04  1.889017E+03  9.296506E+03
       336   5  6.324600E+05 -2.858888E+01  1.533408E+03 -7.017616E+04  1.131082E+03  1.544397E+03
       336   6  6.325147E+05 -1.098312E+01  1.077371E+03 -8.993900E+04  3.729332E+02 -6.211490E+03
       336   7  7.777209E+05  3.484460E+04  3.178606E+04 -8.982136E+04 -7.046938E+03  9.297360E+03
       336   8  6.577330E+05  6.053384E+03  6.688781E+03 -7.010495E+04 -7.808616E+03  1.545336E+03
       336   9  5.378649E+05 -2.272619E+04 -1.791079E+04 -8.991409E+04 -8.570363E+03 -6.210418E+03
       336  10  4.873243E+05 -3.491388E+04 -2.681645E+04 -9.005662E+04  1.689920E-08 -1.606454E-09
       336  11  6.071876E+05 -6.110589E+03 -3.621893E+03 -7.024737E+04  6.507152E-09 -1.272857E-10
       336  12  7.271730E+05  2.270365E+04  2.006514E+04 -8.996387E+04 -3.845265E-09  1.148850E-09
       336  13  6.325125E+05 -3.404353E+01  2.485221E+03 -8.993898E+04  5.686137E-10 -1.202665E-09
       336  14  6.324600E+05 -2.859178E+01  1.533401E+03 -7.017616E+04  4.244274E-10 -2.646815E-10
       336  15  6.325146E+05 -1.102460E+01  1.077298E+03 -8.993900E+04  8.226359E-10  7.303667E-10
       336  16  7.777208E+05  3.484449E+04  3.178581E+04 -8.982131E+04 -1.614478E-08 -1.208146E-09
       336  17  6.577329E+05  6.053365E+03  6.688662E+03 -7.010494E+04 -6.942696E-09 -3.965283E-10
       336  18  5.378648E+05 -2.272625E+04 -1.791100E+04 -8.991413E+04  3.995482E-09  4.520222E-10
       336  19  4.873244E+05 -3.491376E+04 -2.681607E+04 -9.005654E+04 -1.082292E+04 -9.295649E+03
       336  20  6.071877E+05 -6.110559E+03 -3.621698E+03 -7.024736E+04 -1.007042E+04 -1.543455E+03
       336  21  7.271731E+05  2.270372E+04  2.006537E+04 -8.996392E+04 -9.317565E+03  6.212563E+03
       336  22  6.325125E+05 -3.394974E+01  2.485390E+03 -8.993897E+04 -1.889017E+03 -9.296506E+03
       336  23  6.324600E+05 -2.858888E+01  1.533408E+03 -7.017616E+04 -1.131082E+03 -1.544397E+03
       336  24  6.325147E+05 -1.098312E+01  1.077371E+03 -8.993900E+04 -3.729332E+02  6.211490E+03
       336  25  7.777209E+05  3.484460E+04  3.178606E+04 -8.982136E+04  7.046938E+03 -9.297360E+03
       336  26  6.577330E+05  6.053384E+03  6.688781E+03 -7.010495E+04  7.808616E+03 -1.545336E+03
       336  27  5.378649E+05 -2.272619E+04 -1.791079E+04 -8.991409E+04  8.570363E+03  6.210418E+03
       337   1  8.146800E+05  4.388159E+04  3.844167E+04 -8.997030E+04  9.132446E+03 -1.072795E+04
       337   2  9.346617E+05  7.266483E+04  6.262636E+04 -7.013561E+04  8.635398E+03 -1.848606E+04
       337   3  1.054757E+06  1.014480E+05  8.714054E+04 -8.985475E+04  8.140678E+03 -2.624337E+04
       337   4  6.325079E+05 -1.498945E+01  9.811596E+02 -8.994552E+04  1.849034E+02 -1.072724E+04
       337   5  6.324468E+05 -4.846192E+01  1.004545E+03 -7.016802E+04 -3.118178E+02 -1.848667E+04
       337   6  6.324852E+05 -8.129930E+01  1.357446E+03 -8.994551E+04 -8.061173E+02 -2.624525E+04
       337   7  4.503675E+05 -4.391362E+04 -3.648083E+04 -8.992075E+04 -8.760063E+03 -1.072653E+04
       337   8  3.303187E+05 -7.276742E+04 -6.062178E+04 -7.020040E+04 -9.254764E+03 -1.848728E+04
       337   9  2.103832E+05 -1.016217E+05 -8.443466E+04 -9.003620E+04 -9.746949E+03 -2.624712E+04
       337  10  8.146798E+05  4.388145E+04  3.844130E+04 -8.997022E+04  9.952444E-10  1.052947E-09
       337  11  9.346615E+05  7.266445E+04  6.262558E+04 -7.013548E+04  2.416574E-10  1.582201E-10
       337  12  1.054757E+06  1.014473E+05  8.713913E+04 -8.985458E+04 -3.505421E-10 -1.134189E-10
       337  13  6.325079E+05 -1.511307E+01  9.809432E+02 -8.994552E+04 -9.784836E-11  8.572108E-10
       337  14  6.324467E+05 -4.882904E+01  1.003902E+03 -7.016802E+04  1.875438E-10  5.177050E-10
       337  15  6.324851E+05 -8.203937E+01  1.356150E+03 -8.994553E+04 -3.884227E-10  1.689293E-11
       337  16  4.503673E+05 -4.391376E+04 -3.648119E+04 -8.992082E+04 -1.132225E-09  5.870096E-10
       337  17  3.303185E+05 -7.276781E+04 -6.062258E+04 -7.020054E+04 -9.697934E-10  3.517205E-10
       337  18  2.103829E+05 -1.016224E+05 -8.443614E+04 -9.003640E+04  3.088742E-10  3.388879E-10
       337  19  8.146800E+05  4.388159E+04  3.844167E+04 -8.997030E+04 -9.132446E+03  1.072795E+04
       337  20  9.346617E+05  7.266483E+04  6.262636E+04 -7.013561E+04 -8.635398E+03  1.848606E+04
       337  21  1.054757E+06  1.014480E+05  8.714054E+04 -8.985475E+04 -8.140678E+03  2.624337E+04
       337  22  6.325079E+05 -1.498945E+01  9.811596E+02 -8.994552E+04 -1.849034E+02  1.072724E+04
       337  23  6.324468E+05 -4.846192E+01  1.004545E+03 -7.016802E+04  3.118178E+02  1.848667E+04
       337  24  6.324852E+05 -8.129930E+01  1.357446E+03 -8.994551E+04  8.061173E+02  2.624525E+04
       337  25  4.503675E+05 -4.391362E+04 -3.648083E+04 -8.992075E+04  8.760063E+03  1.072653E+04
       337  26  3.303187E+05 -7.276742E+04 -6.062178E+04 -7.020040E+04  9.254764E+03  1.848728E+04
       337  27  2.103832E+05 -1.016217E+05 -8.443466E+04 -9.003620E+04  9.746949E+03  2.624712E+04
       338   1  1.142479E+06  1.226398E+05  1.059655E+05 -8.982012E+04  7.898679E+03 -3.076940E+04
       338   2  1.262654E+06  1.514519E+05  1.312666E+05 -6.983645E+04  6.437057E+03 -3.850634E+04
       338   3  1.383201E+06  1.804002E+05  1.575813E+05 -8.950226E+04  4.980164E+03 -4.614987E+04
       338   4  6.325215E+05 -1.040516E+02  1.683878E+03 -8.996704E+04 -1.080851E+03 -3.077250E+04
       338   5  6.323277E+05 -1.817038E+02  2.738191E+03 -7.014104E+04 -2.434162E+03 -3.851214E+04
       338   6  6.324737E+05 -1.405630E+02  4.732457E+03 -8.996698E+04 -3.782471E+03 -4.615827E+04
       338   7  1.228111E+05 -1.228641E+05 -1.026112E+05 -9.011383E+04 -1.005315E+04 -3.077560E+04
       338   8  2.378117E+03 -1.518401E+05 -1.258108E+05 -7.044532E+04 -1.129655E+04 -3.851793E+04
       338   9 -1.177180E+05 -1.807164E+05 -1.481456E+05 -9.043115E+04 -1.253472E+04 -4.616666E+04
       338  10  1.142478E+06  1.226388E+05  1.059636E+05 -8.981993E+04 -7.703352E-10  2.183880E-10
       338  11  1.262654E+06  1.514503E+05  1.312637E+05 -6.983625E+04 -1.662214E-09 -3.676524E-10
       338  12  1.383200E+06  1.803979E+05  1.575772E+05 -8.950208E+04  6.608646E-10 -2.436163E-10
       338  13  6.325212E+05 -1.050691E+02  1.682096E+03 -8.996707E+04 -3.875577E-10  1.653476E-10
       338  14  6.323273E+05 -1.832985E+02  2.735392E+03 -7.014111E+04 -1.574886E-09  1.591919E-10
       338  15  6.324731E+05 -1.428554E+02  4.728425E+03 -8.996712E+04  5.333498E-10 -3.173862E-10
       338  16  1.228108E+05 -1.228652E+05 -1.026132E+05 -9.011408E+04  2.559345E-10 -3.321499E-11
       338  17  2.377582E+03 -1.518417E+05 -1.258138E+05 -7.044567E+04 -8.415167E-10 -2.384669E-10
       338  18 -1.177188E+05 -1.807187E+05 -1.481499E+05 -9.043161E+04 -1.310588E-09  1.281720E-10
       338  19  1.142479E+06  1.226398E+05  1.059655E+05 -8.982012E+04 -7.898679E+03  3.076940E+04
       338  20  1.262654E+06  1.514519E+05  1.312666E+05 -6.983645E+04 -6.437057E+03  3.850634E+04
       338  21  1.383201E+06  1.804002E+05  1.575813E+05 -8.950226E+04 -4.980164E+03  4.614987E+04
       338  22  6.325215E+05 -1.040516E+02  1.683878E+03 -8.996704E+04  1.080851E+03  3.077250E+04
       338  23  6.323277E+05 -1.817038E+02  2.738191E+03 -7.014104E+04  2.434162E+03  3.851214E+04
       338  24  6.324737E+05 -1.405630E+02  4.732457E+03 -8.996698E+04  3.782471E+03  4.615827E+04
       338  25  1.228111E+05 -1.228641E+05 -1.026112E+05 -9.011383E+04  1.005315E+04  3.077560E+04
       338  26  2.378117E+03 -1.518401E+05 -1.258108E+05 -7.044532E+04  1.129655E+04  3.851793E+04
       338  27 -1.177180E+05 -1.807164E+05 -1.481456E+05 -9.043115E+04  1.253472E+04  4.616666E+04
       339   1  1.471547E+06  2.014123E+05  1.775521E+05 -8.889385E+04  4.511166E+03 -5.077273E+04
       339   2  1.591394E+06  2.306576E+05  2.069108E+05 -6.964769E+04 -3.067095E+03 -5.783465E+04
       339   3  1.713370E+06  2.632122E+05  2.420915E+05 -9.010773E+04 -1.064219E+04 -6.296683E+04
       339   4  6.327533E+05 -4.158725E+02  6.190817E+03 -8.997907E+04 -4.743653E+03 -5.078348E+04
       339   5  6.318509E+05 -2.443910E+02  1.070966E+04 -7.012549E+04 -1.008723E+04 -5.784762E+04
       339   6  6.326786E+05  2.852580E+03  1.950623E+04 -8.998173E+04 -1.542616E+04 -6.298056E+04
       339   7 -2.053729E+05 -2.022880E+05 -1.652074E+05 -9.106285E+04 -1.398622E+04 -5.079421E+04
       339   8 -3.268188E+05 -2.312040E+05 -1.855400E+05 -7.060268E+04 -1.709672E+04 -5.786058E+04
       339   9 -4.469076E+05 -2.575806E+05 -2.031418E+05 -8.985618E+04 -2.020195E+04 -6.299432E+04
       339  10  1.471546E+06  2.014095E+05  1.775472E+05 -8.889367E+04 -7.875972E-10 -2.802382E-10
       339  11  1.591393E+06  2.306540E+05  2.069044E+05 -6.964783E+04  1.315386E-09 -6.706707E-10
       339  12  1.713369E+06  2.632079E+05  2.420839E+05 -9.010827E+04  1.896059E-09 -1.952578E-09
       339  13  6.327526E+05 -4.186488E+02  6.185927E+03 -8.997926E+04 -1.496853E-10 -1.450249E-10
       339  14  6.318499E+05 -2.480128E+02  1.070318E+04 -7.012596E+04  2.698031E-10 -4.782529E-10
       339  15  6.326772E+05  2.848255E+03  1.949833E+04 -8.998251E+04 -1.012162E-09 -1.567458E-09
       339  16 -2.053738E+05 -2.022908E+05 -1.652126E+05 -9.106342E+04  5.389591E-11  1.400795E-10
       339  17 -3.268200E+05 -2.312076E+05 -1.855469E+05 -7.060348E+04 -6.463656E-10  1.752423E-09
       339  18 -4.469092E+05 -2.575849E+05 -2.031500E+05 -8.985721E+04 -1.265194E-09 -1.909833E-10
       339  19  1.471547E+06  2.014123E+05  1.775521E+05 -8.889385E+04 -4.511166E+03  5.077273E+04
       339  20  1.591394E+06  2.306576E+05  2.069108E+05 -6.964769E+04  3.067095E+03  5.783465E+04
       339  21  1.713370E+06  2.632122E+05  2.420915E+05 -9.010773E+04  1.064219E+04  6.296683E+04
       339  22  6.327533E+05 -4.158725E+02  6.190817E+03 -8.997907E+04  4.743653E+03  5.078348E+04
       339  23  6.318509E+05 -2.443910E+02  1.070966E+04 -7.012549E+04  1.008723E+04  5.784762E+04
       339  24  6.326786E+05  2.852580E+03  1.950623E+04 -8.998173E+04  1.542616E+04  6.298056E+04
       339  25 -2.053729E+05 -2.022880E+05 -1.652074E+05 -9.106285E+04  1.398622E+04  5.079421E+04
       339  26 -3.268188E+05 -2.312040E+05 -1.855400E+05 -7.060268E+04  1.709672E+04  5.786058E+04
       339  27 -4.469076E+05 -2.575806E+05 -2.031418E+05 -8.985618E+04  2.020195E+04  6.299432E+04
       340   1  1.807001E+06  2.788137E+05  2.652286E+05 -7.838174E+04 -4.906743E+03 -6.916251E+04
       340   2  1.915396E+06  3.177798E+05  3.182110E+05 -8.561007E+04 -7.038098E+04 -6.289459E+04
       340   3  2.051059E+06  4.297101E+05  4.320859E+05 -1.309877E+05 -1.359514E+05 -1.977516E+04
       340   4  6.366821E+05 -3.011557E+03  2.492885E+04 -8.960231E+04 -1.881912E+04 -6.919015E+04
       340   5  6.266631E+05  5.555416E+03  4.360637E+04 -7.059678E+04 -4.169254E+04 -6.285980E+04
       340   6  6.365622E+05  7.978156E+04  9.368720E+04 -8.973775E+04 -6.464621E+04 -1.964892E+04
       340   7 -5.323387E+05 -2.849223E+05 -2.154432E+05 -1.008017E+05 -3.270577E+04 -6.921732E+04
       340   8 -6.605075E+05 -3.067755E+05 -2.310907E+05 -5.561558E+04 -1.306256E+04 -6.282360E+04
       340   9 -7.760909E+05 -2.702823E+05 -2.448326E+05 -4.858261E+04  6.497813E+03 -1.951309E+04
       340  10  1.806999E+06  2.788085E+05  2.652195E+05 -7.838201E+04 -2.451385E-10 -3.266592E-09
       340  11  1.915390E+06  3.177742E+05  3.181943E+05 -8.561363E+04 -2.640989E-09 -5.829762E-09
       340  12  2.051039E+06  4.297047E+05  4.320505E+05 -1.309899E+05 -2.718906E-09 -1.464579E-09
       340  13  6.366804E+05 -3.016795E+03  2.491919E+04 -8.960336E+04  6.517861E-10 -7.047898E-09
       340  14  6.266602E+05  5.550705E+03  4.359568E+04 -7.059889E+04 -1.485656E-10  2.961415E-09
       340  15  6.365576E+05  7.978003E+04  9.367862E+04 -8.973877E+04 -6.577239E-10 -2.222073E-10
       340  16 -5.323411E+05 -2.849277E+05 -2.154543E+05 -1.008036E+05  9.025643E-11 -1.569159E-09
       340  17 -6.605088E+05 -3.067798E+05 -2.310984E+05 -5.561624E+04  5.081064E-10  2.593049E-09
       340  18 -7.760911E+05 -2.702828E+05 -2.448334E+05 -4.858251E+04  4.101972E-09 -1.999112E-09
       340  19  1.807001E+06  2.788137E+05  2.652286E+05 -7.838174E+04  4.906743E+03  6.916251E+04
       340  20  1.915396E+06  3.177798E+05  3.182110E+05 -8.561007E+04  7.038098E+04  6.289459E+04
       340  21  2.051059E+06  4.297101E+05  4.320859E+05 -1.309877E+05  1.359514E+05  1.977516E+04
       340  22  6.366821E+05 -3.011557E+03  2.492885E+04 -8.960231E+04  1.881912E+04  6.919015E+04
       340  23  6.266631E+05  5.555416E+03  4.360637E+04 -7.059678E+04  4.169254E+04  6.285980E+04
       340  24  6.365622E+05  7.978156E+04  9.368720E+04 -8.973775E+04  6.464621E+04  1.964892E+04
       340  25 -5.323387E+05 -2.849223E+05 -2.154432E+05 -1.008017E+05  3.270577E+04  6.921732E+04
       340  26 -6.605075E+05 -3.067755E+05 -2.310907E+05 -5.561558E+04  1.306256E+04  6.282360E+04
       340  27 -7.760909E+05 -2.702823E+05 -2.448326E+05 -4.858261E+04 -6.497813E+03  1.951309E+04
       341   1  6.761395E+05  2.497297E+06  6.643729E+05 -5.574592E+05  2.832661E+04  1.330470E+05
       341   2  4.502985E+05  1.775143E+06  4.218245E+05 -4.278665E+05  8.129128E+04  3.820267E+04
       341   3  2.746627E+05  1.077909E+06  2.533180E+05 -5.279027E+05  6.344332E+04 -5.666614E+04
       341   4  4.363265E+04 -5.315956E+04  4.916442E+04 -5.300933E+05  2.859327E+04  3.117088E+04
       341   5  4.645168E+03 -5.793327E+04  2.507616E+04 -4.153214E+05  8.136727E+04  1.822749E+04
       341   6  1.790416E+03 -5.235978E+04  1.836529E+04 -5.302031E+05  6.323852E+04  5.150063E+03
       341   7 -5.893409E+05 -2.597659E+06 -5.664703E+05 -5.028339E+05  2.885167E+04 -7.028968E+04
       341   8 -4.412294E+05 -1.887861E+06 -3.718701E+05 -4.028106E+05  8.144260E+04 -1.689681E+03
       341   9 -2.711610E+05 -1.181412E+06 -2.166431E+05 -5.324978E+05  6.303304E+04  6.685576E+04
       341  10  6.761339E+05  2.497277E+06  6.643383E+05 -5.574622E+05  1.139349E-11 -2.081863E-09
       341  11  4.502911E+05  1.775140E+06  4.218094E+05 -4.278690E+05 -6.751790E-10 -2.151171E-09
       341  12  2.746575E+05  1.077904E+06  2.533044E+05 -5.278998E+05  1.265465E-09  2.586963E-10
       341  13  4.363151E+04 -5.316082E+04  4.916105E+04 -5.300941E+05  7.485514E-10  2.548686E-11
       341  14  4.637968E+03 -5.793540E+04  2.506309E+04 -4.153226E+05  4.800871E-11  1.261565E-09
       341  15  1.786114E+03 -5.236088E+04  1.835772E+04 -5.302034E+05 -2.792091E-10 -4.517270E-09
       341  16 -5.893431E+05 -2.597664E+06 -5.664811E+05 -5.028323E+05 -9.566144E-11 -5.158603E-10
       341  17 -4.412365E+05 -1.887863E+06 -3.718826E+05 -4.028104E+05  1.083494E-09  2.477325E-09
       341  18 -2.711665E+05 -1.181418E+06 -2.166590E+05 -5.325012E+05 -1.511502E-09 -3.310037E-09
       341  19  6.761395E+05  2.497297E+06  6.643729E+05 -5.574592E+05 -2.832661E+04 -1.330470E+05
       341  20  4.502985E+05  1.775143E+06  4.218245E+05 -4.278665E+05 -8.129128E+04 -3.820267E+04
       341  21  2.746627E+05  1.077909E+06  2.533180E+05 -5.279027E+05 -6.344332E+04  5.666614E+04
       341  22  4.363265E+04 -5.315956E+04  4.916442E+04 -5.300933E+05 -2.859327E+04 -3.117088E+04
       341  23  4.645168E+03 -5.793327E+04  2.507616E+04 -4.153214E+05 -8.136727E+04 -1.822749E+04
       341  24  1.790416E+03 -5.235978E+04  1.836529E+04 -5.302031E+05 -6.323852E+04 -5.150063E+03
       341  25 -5.893409E+05 -2.597659E+06 -5.664703E+05 -5.028339E+05 -2.885167E+04  7.028968E+04
       341  26 -4.412294E+05 -1.887861E+06 -3.718701E+05 -4.028106E+05 -8.144260E+04  1.689681E+03
       341  27 -2.711610E+05 -1.181412E+06 -2.166431E+05 -5.324978E+05 -6.303304E+04 -6.685576E+04
       342   1  1.523344E+05  5.562531E+05  1.450544E+05 -5.338086E+05  3.337223E+04 -4.310187E+04
       342   2 -2.095280E+04 -1.530058E+05 -1.604035E+03 -4.140234E+05 -5.713736E+03 -5.214053E+04
       342   3 -1.879465E+05 -8.605134E+05 -1.412266E+05 -5.273931E+05 -4.453338E+04 -6.116455E+04
       342   4  4.739800E+03 -5.417554E+04  1.740261E+04 -5.309578E+05  3.321182E+04  2.127667E+03
       342   5  2.704241E+03 -5.485989E+04  1.850980E+04 -4.143789E+05 -5.869921E+03 -7.240260E+03
       342   6  7.045686E+03 -5.421854E+04  2.688991E+04 -5.309494E+05 -4.468688E+04 -1.660338E+04
       342   7 -1.428775E+05 -6.642476E+05 -1.102622E+05 -5.281095E+05  3.305174E+04  4.731349E+04
       342   8  2.636176E+04  4.329953E+04  3.863070E+04 -4.147344E+05 -6.026142E+03  3.766699E+04
       342   9  2.019975E+05  7.526964E+05  1.949780E+05 -5.345097E+05 -4.484077E+04  2.801477E+04
       342  10  1.523327E+05  5.562508E+05  1.450488E+05 -5.338074E+05  1.918188E-10 -9.980083E-10
       342  11 -2.095357E+04 -1.530088E+05 -1.609207E+03 -4.140236E+05  1.886756E-09 -2.454144E-09
       342  12 -1.879497E+05 -8.605179E+05 -1.412374E+05 -5.273953E+05 -6.464529E-10 -9.675735E-10
       342  13  4.738615E+03 -5.417584E+04  1.740053E+04 -5.309579E+05 -4.508825E-10  4.807375E-11
       342  14  2.704190E+03 -5.485996E+04  1.850964E+04 -4.143789E+05  2.949715E-09  1.614747E-09
       342  15  7.043467E+03 -5.421938E+04  2.688564E+04 -5.309500E+05  1.974793E-09 -4.650976E-09
       342  16 -1.428793E+05 -6.642503E+05 -1.102684E+05 -5.281107E+05 -1.124903E-09 -3.307137E-09
       342  17  2.636134E+04  4.329800E+04  3.862797E+04 -4.147342E+05 -1.272138E-09  2.490656E-09
       342  18  2.019951E+05  7.526950E+05  1.949728E+05 -5.345087E+05 -1.548038E-09 -1.997869E-09
       342  19  1.523344E+05  5.562531E+05  1.450544E+05 -5.338086E+05 -3.337223E+04  4.310187E+04
       342  20 -2.095280E+04 -1.530058E+05 -1.604035E+03 -4.140234E+05  5.713736E+03  5.214053E+04
       342  21 -1.879465E+05 -8.605134E+05 -1.412266E+05 -5.273931E+05  4.453338E+04  6.116455E+04
       342  22  4.739800E+03 -5.417554E+04  1.740261E+04 -5.309578E+05 -3.321182E+04 -2.127667E+03
       342  23  2.704241E+03 -5.485989E+04  1.850980E+04 -4.143789E+05  5.869921E+03  7.240260E+03
       342  24  7.045686E+03 -5.421854E+04  2.688991E+04 -5.309494E+05  4.468688E+04  1.660338E+04
       342  25 -1.428775E+05 -6.642476E+05 -1.102622E+05 -5.281095E+05 -3.305174E+04 -4.731349E+04
       342  26  2.636176E+04  4.329953E+04  3.863070E+04 -4.147344E+05  6.026142E+03 -3.766699E+04
       342  27  2.019975E+05  7.526964E+05  1.949780E+05 -5.345097E+05  4.484077E+04 -2.801477E+04
       343   1 -3.204855E+05 -1.374750E+06 -2.425759E+05 -5.392271E+05 -7.471663E+04 -8.372377E+04
       343   2 -4.848074E+05 -2.087427E+06 -3.843816E+05 -3.911871E+05 -9.120570E+04 -2.473801E+04
       343   3 -5.821705E+05 -2.790672E+06 -5.480114E+05 -4.725743E+05 -3.169983E+04  3.431081E+04
       343   4 -1.997262E+02 -4.939717E+04  3.276495E+04 -5.301588E+05 -7.491684E+04 -2.136698E+04
       343   5  8.689575E+03 -6.187096E+04  5.422081E+04 -4.153616E+05 -9.111384E+04 -4.976037E+04
       343   6  9.962234E+04 -5.027960E+04  1.145611E+05 -5.299112E+05 -3.143416E+04 -7.802410E+04
       343   7  3.199768E+05  1.277631E+06  3.080244E+05 -5.210686E+05 -7.511495E+04  4.112094E+04
       343   8  5.019174E+05  1.967546E+06  4.925823E+05 -4.396125E+05 -9.102023E+04 -7.486329E+04
       343   9  7.808832E+05  2.697032E+06  7.766436E+05 -5.874963E+05 -3.114844E+04 -1.908543E+05
       343  10 -3.204934E+05 -1.374759E+06 -2.425996E+05 -5.392322E+05  1.465766E-10 -2.196831E-09
       343  11 -4.848165E+05 -2.087429E+06 -3.843984E+05 -3.911889E+05  4.810877E-11 -2.104189E-09
       343  12 -5.821719E+05 -2.790674E+06 -5.480155E+05 -4.725734E+05 -4.764480E-10 -4.274549E-10
       343  13 -2.058775E+02 -4.939917E+04  3.275354E+04 -5.301601E+05 -2.706130E-09  1.482520E-11
       343  14  8.679992E+03 -6.187585E+04  5.420054E+04 -4.153653E+05  9.087026E-10  1.191601E-09
       343  15  9.961964E+04 -5.028640E+04  1.145478E+05 -5.299132E+05 -5.134828E-10 -2.535208E-09
       343  16  3.199703E+05  1.277628E+06  3.080107E+05 -5.210662E+05 -4.098861E-10 -1.896747E-09
       343  17  5.019070E+05  1.967538E+06  4.925562E+05 -4.396180E+05  4.741047E-10  1.970057E-09
       343  18  7.808724E+05  2.696993E+06  7.765736E+05 -5.875011E+05 -5.165408E-10 -1.218733E-09
       343  19 -3.204855E+05 -1.374750E+06 -2.425759E+05 -5.392271E+05  7.471663E+04  8.372377E+04
       343  20 -4.848074E+05 -2.087427E+06 -3.843816E+05 -3.911871E+05  9.120570E+04  2.473801E+04
       343  21 -5.821705E+05 -2.790672E+06 -5.480114E+05 -4.725743E+05  3.169983E+04 -3.431081E+04
       343  22 -1.997262E+02 -4.939717E+04  3.276495E+04 -5.301588E+05  7.491684E+04  2.136698E+04
       343  23  8.689575E+03 -6.187096E+04  5.422081E+04 -4.153616E+05  9.111384E+04  4.976037E+04
       343  24  9.962234E+04 -5.027960E+04  1.145611E+05 -5.299112E+05  3.143416E+04  7.802410E+04
       343  25  3.199768E+05  1.277631E+06  3.080244E+05 -5.210686E+05  7.511495E+04 -4.112094E+04
       343  26  5.019174E+05  1.967546E+06  4.925823E+05 -4.396125E+05  9.102023E+04  7.486329E+04
       343  27  7.808832E+05  2.697032E+06  7.766436E+05 -5.874963E+05  3.114844E+04  1.908543E+05
       344   1 -1.799180E+06 -7.062354E+05 -4.052451E+05 -6.953298E+05 -1.813806E+05 -5.612830E+04
       344   2 -1.729604E+06 -4.712525E+05 -2.443571E+05 -6.687932E+05 -1.151121E+05 -4.683415E+03
       344   3 -1.706405E+06 -3.958327E+05 -1.782677E+05 -6.265527E+05 -4.107800E+04  2.618693E+04
       344   4 -1.146465E+06 -3.692621E+05 -2.158460E+05 -4.233033E+05 -1.424052E+05 -4.148962E+04
       344   5 -1.113693E+06 -2.076932E+05 -9.638369E+04 -4.627968E+05 -1.000844E+05  9.601676E+02
       344   6 -1.122486E+06 -2.008610E+05 -5.264492E+04 -4.866076E+05 -5.001033E+04  2.282581E+04
       344   7 -4.933035E+05 -3.213215E+04 -2.647780E+04 -1.509766E+05 -1.033845E+05 -2.681944E+04
       344   8 -4.973923E+05  5.593325E+04  5.156437E+04 -2.565990E+05 -8.504039E+04  6.612035E+03
       344   9 -5.382212E+05 -5.877328E+03  7.295863E+04 -3.465480E+05 -5.895178E+04  1.946202E+04
       344  10 -1.799216E+06 -7.062477E+05 -4.053131E+05 -6.953380E+05  8.804366E-10  6.060387E-10
       344  11 -1.729619E+06 -4.712561E+05 -2.443821E+05 -6.687936E+05  4.240505E-10 -3.289002E-10
       344  12 -1.706407E+06 -3.958339E+05 -1.782722E+05 -6.265518E+05 -4.197461E-10 -4.610071E-10
       344  13 -1.146488E+06 -3.692694E+05 -2.158874E+05 -4.233081E+05  6.764641E-11 -9.837601E-11
       344  14 -1.113704E+06 -2.076959E+05 -9.640255E+04 -4.627967E+05 -9.477274E-10  9.233499E-10
       344  15 -1.122489E+06 -2.008622E+05 -5.265061E+04 -4.866066E+05 -1.377018E-10 -9.349312E-10
       344  16 -4.933152E+05 -3.213579E+04 -2.649925E+04 -1.509788E+05 -3.318530E-10 -1.702644E-09
       344  17 -4.974001E+05  5.593126E+04  5.155069E+04 -2.565985E+05  2.400768E-10 -2.318460E-09
       344  18 -5.382250E+05 -5.878668E+03  7.295139E+04 -3.465471E+05  4.387245E-10  1.366476E-09
       344  19 -1.799180E+06 -7.062354E+05 -4.052451E+05 -6.953298E+05  1.813806E+05  5.612830E+04
       344  20 -1.729604E+06 -4.712525E+05 -2.443571E+05 -6.687932E+05  1.151121E+05  4.683415E+03
       344  21 -1.706405E+06 -3.958327E+05 -1.782677E+05 -6.265527E+05  4.107800E+04 -2.618693E+04
       344  22 -1.146465E+06 -3.692621E+05 -2.158460E+05 -4.233033E+05  1.424052E+05  4.148962E+04
       344  23 -1.113693E+06 -2.076932E+05 -9.638369E+04 -4.627968E+05  1.000844E+05 -9.601676E+02
       344  24 -1.122486E+06 -2.008610E+05 -5.264492E+04 -4.866076E+05  5.001033E+04 -2.282581E+04
       344  25 -4.933035E+05 -3.213215E+04 -2.647780E+04 -1.509766E+05  1.033845E+05  2.681944E+04
       344  26 -4.973923E+05  5.593325E+04  5.156437E+04 -2.565990E+05  8.504039E+04 -6.612035E+03
       344  27 -5.382212E+05 -5.877328E+03  7.295863E+04 -3.465480E+05  5.895178E+04 -1.946202E+04
       345   1 -1.627834E+06 -4.028455E+05 -1.546885E+05 -6.232259E+05 -3.843811E+04  2.262659E+04
       345   2 -1.560371E+06 -3.579784E+05 -1.177700E+05 -5.926587E+05 -2.492721E+04  2.338832E+04
       345   3 -1.479036E+06 -3.374493E+05 -9.158273E+04 -5.812602E+05 -1.100536E+04  2.305492E+04
       345   4 -1.115721E+06 -2.114410E+05 -4.084359E+04 -4.794475E+05 -4.222681E+04  2.119947E+04
       345   5 -1.122273E+06 -1.959031E+05 -2.147743E+04 -4.711694E+05 -2.998406E+04  2.148591E+04
       345   6 -1.114702E+06 -2.044476E+05 -1.182867E+04 -4.820618E+05 -1.733198E+04  2.067697E+04
       345   7 -6.033458E+05 -2.001544E+04  7.298407E+04 -3.355603E+05 -4.601887E+04  1.977105E+04
       345   8 -6.839798E+05 -3.381223E+04  7.480357E+04 -3.496011E+05 -3.504477E+04  1.958203E+04
       345   9 -7.502315E+05 -7.143512E+04  6.791822E+04 -3.828095E+05 -2.366266E+04  1.829754E+04
       345  10 -1.627835E+06 -4.028465E+05 -1.546922E+05 -6.232252E+05  4.276587E-10  3.840337E-10
       345  11 -1.560372E+06 -3.579792E+05 -1.177722E+05 -5.926582E+05 -2.850144E-10  9.521620E-11
       345  12 -1.479036E+06 -3.374499E+05 -9.158395E+04 -5.812600E+05 -2.386165E-09 -4.243365E-10
       345  13 -1.115723E+06 -2.114419E+05 -4.084779E+04 -4.794468E+05 -3.960632E-10  1.418660E-10
       345  14 -1.122274E+06 -1.959038E+05 -2.147999E+04 -4.711689E+05  3.666369E-10 -1.535191E-09
       345  15 -1.114703E+06 -2.044481E+05 -1.183004E+04 -4.820615E+05 -4.879317E-10 -3.078533E-10
       345  16 -6.033482E+05 -2.001643E+04  7.297935E+04 -3.355596E+05 -1.800082E-09 -5.455057E-11
       345  17 -6.839813E+05 -3.381297E+04  7.480054E+04 -3.496006E+05  4.181144E-10 -6.341373E-10
       345  18 -7.502322E+05 -7.143562E+04  6.791653E+04 -3.828091E+05  1.402912E-09  7.181671E-10
       345  19 -1.627834E+06 -4.028455E+05 -1.546885E+05 -6.232259E+05  3.843811E+04 -2.262659E+04
       345  20 -1.560371E+06 -3.579784E+05 -1.177700E+05 -5.926587E+05  2.492721E+04 -2.338832E+04
       345  21 -1.479036E+06 -3.374493E+05 -9.158273E+04 -5.812602E+05  1.100536E+04 -2.305492E+04
       345  22 -1.115721E+06 -2.114410E+05 -4.084359E+04 -4.794475E+05  4.222681E+04 -2.119947E+04
       345  23 -1.122273E+06 -1.959031E+05 -2.147743E+04 -4.711694E+05  2.998406E+04 -2.148591E+04
       345  24 -1.114702E+06 -2.044476E+05 -1.182867E+04 -4.820618E+05  1.733198E+04 -2.067697E+04
       345  25 -6.033458E+05 -2.001544E+04  7.298407E+04 -3.355603E+05  4.601887E+04 -1.977105E+04
       345  26 -6.839798E+05 -3.381223E+04  7.480357E+04 -3.496011E+05  3.504477E+04 -1.958203E+04
       345  27 -7.502315E+05 -7.143512E+04  6.791822E+04 -3.828095E+05  2.366266E+04 -1.829754E+04
       346   1 -1.422879E+06 -3.183513E+05 -7.623677E+04 -5.666585E+05 -8.422053E+03  2.044805E+04
       346   2 -1.355897E+06 -2.812954E+05 -5.583646E+04 -5.355742E+05 -3.934220E+03  1.616303E+04
       346   3 -1.271409E+06 -2.624987E+05 -3.738932E+04 -5.250196E+05  5.765312E+02  1.181350E+04
       346   4 -1.114185E+06 -2.048892E+05 -8.930379E+03 -4.817067E+05 -1.448874E+04  1.816849E+04
       346   5 -1.122921E+06 -1.956552E+05 -4.909517E+03 -4.714802E+05 -1.007503E+04  1.385650E+04
       346   6 -1.114140E+06 -2.046652E+05 -2.782069E+03 -4.817848E+05 -5.638755E+03  9.479910E+03
       346   7 -8.053948E+05 -9.141970E+04  5.837045E+04 -3.967162E+05 -2.055869E+04  1.588772E+04
       346   8 -8.898898E+05 -1.100111E+05  4.601409E+04 -4.073644E+05 -1.621832E+04  1.154905E+04
       346   9 -9.568469E+05 -1.468302E+05  3.182354E+04 -4.385402E+05 -1.185571E+04  7.145696E+03
       346  10 -1.422879E+06 -3.183518E+05 -7.623769E+04 -5.666583E+05 -7.250305E-10  9.684403E-11
       346  11 -1.355898E+06 -2.812957E+05 -5.583698E+04 -5.355742E+05 -1.526172E-10  9.782444E-10
       346  12 -1.271409E+06 -2.624988E+05 -3.738958E+04 -5.250196E+05  6.533031E-10  6.701883E-10
       346  13 -1.114185E+06 -2.048896E+05 -8.931393E+03 -4.817065E+05 -5.874230E-11  7.452998E-11
       346  14 -1.122921E+06 -1.956555E+05 -4.910069E+03 -4.714801E+05 -7.682523E-10  3.074185E-10
       346  15 -1.114140E+06 -2.046653E+05 -2.782298E+03 -4.817847E+05  5.734302E-10 -1.336104E-10
       346  16 -8.053953E+05 -9.142009E+04  5.836918E+04 -3.967159E+05  1.583591E-09  3.888113E-10
       346  17 -8.898901E+05 -1.100113E+05  4.601335E+04 -4.073642E+05  3.254327E-10 -1.828494E-10
       346  18 -9.568471E+05 -1.468303E+05  3.182318E+04 -4.385402E+05 -1.079137E-09 -7.479231E-10
       346  19 -1.422879E+06 -3.183513E+05 -7.623677E+04 -5.666585E+05  8.422053E+03 -2.044805E+04
       346  20 -1.355897E+06 -2.812954E+05 -5.583646E+04 -5.355742E+05  3.934220E+03 -1.616303E+04
       346  21 -1.271409E+06 -2.624987E+05 -3.738932E+04 -5.250196E+05 -5.765312E+02 -1.181350E+04
       346  22 -1.114185E+06 -2.048892E+05 -8.930379E+03 -4.817067E+05  1.448874E+04 -1.816849E+04
       346  23 -1.122921E+06 -1.956552E+05 -4.909517E+03 -4.714802E+05  1.007503E+04 -1.385650E+04
       346  24 -1.114140E+06 -2.046652E+05 -2.782069E+03 -4.817848E+05  5.638755E+03 -9.479910E+03
       346  25 -8.053948E+05 -9.141970E+04  5.837045E+04 -3.967162E+05  2.055869E+04 -1.588772E+04
       346  26 -8.898898E+05 -1.100111E+05  4.601409E+04 -4.073644E+05  1.621832E+04 -1.154905E+04
       346  27 -9.568469E+05 -1.468302E+05  3.182354E+04 -4.385402E+05  1.185571E+04 -7.145696E+03
       347   1 -1.216207E+06 -2.421786E+05 -2.422965E+04 -5.098786E+05  2.139965E+03  8.862234E+03
       347   2 -1.149253E+06 -2.053121E+05 -7.107298E+03 -4.786730E+05  4.826828E+03  3.799578E+03
       347   3 -1.064423E+06 -1.864375E+05  9.497929E+03 -4.680385E+05  7.514906E+03 -1.266604E+03
       347   4 -1.114069E+06 -2.046818E+05 -2.152509E+03 -4.817659E+05 -4.065754E+03  6.532530E+03
       347   5 -1.123003E+06 -1.956892E+05 -1.375500E+03 -4.714772E+05 -1.383325E+03  1.468281E+03
       347   6 -1.114068E+06 -2.046888E+05 -1.112494E+03 -4.817624E+05  1.300216E+03 -3.599500E+03
       347   7 -1.011920E+06 -1.671838E+05  1.992438E+04 -4.536487E+05 -1.027262E+04  4.202397E+03
       347   8 -1.096752E+06 -1.860661E+05  4.356449E+03 -4.642810E+05 -7.593785E+03 -8.631299E+02
       347   9 -1.163711E+06 -2.229398E+05 -1.172289E+04 -4.954852E+05 -4.913939E+03 -5.932195E+03
       347  10 -1.216207E+06 -2.421787E+05 -2.422980E+04 -5.098786E+05  3.245729E-10 -2.706139E-10
       347  11 -1.149253E+06 -2.053121E+05 -7.107369E+03 -4.786730E+05 -6.870020E-10  1.701316E-13
       347  12 -1.064423E+06 -1.864376E+05  9.497820E+03 -4.680384E+05 -6.705174E-10  1.502143E-10
       347  13 -1.114069E+06 -2.046818E+05 -2.152620E+03 -4.817659E+05  3.412808E-10 -2.495302E-10
       347  14 -1.123003E+06 -1.956892E+05 -1.375508E+03 -4.714772E+05  1.334239E-09 -5.031287E-10
       347  15 -1.114068E+06 -2.046888E+05 -1.112521E+03 -4.817624E+05 -1.525514E-10 -2.774909E-10
       347  16 -1.011920E+06 -1.671838E+05  1.992415E+04 -4.536486E+05 -2.594534E-10 -2.838910E-10
       347  17 -1.096752E+06 -1.860661E+05  4.356339E+03 -4.642810E+05  3.031466E-10 -4.827026E-10
       347  18 -1.163711E+06 -2.229399E+05 -1.172301E+04 -4.954853E+05  1.146104E-09 -1.140265E-09
       347  19 -1.216207E+06 -2.421786E+05 -2.422965E+04 -5.098786E+05 -2.139965E+03 -8.862234E+03
       347  20 -1.149253E+06 -2.053121E+05 -7.107298E+03 -4.786730E+05 -4.826828E+03 -3.799578E+03
       347  21 -1.064423E+06 -1.864375E+05  9.497929E+03 -4.680385E+05 -7.514906E+03  1.266604E+03
       347  22 -1.114069E+06 -2.046818E+05 -2.152509E+03 -4.817659E+05  4.065754E+03 -6.532530E+03
       347  23 -1.123003E+06 -1.956892E+05 -1.375500E+03 -4.714772E+05  1.383325E+03 -1.468281E+03
       347  24 -1.114068E+06 -2.046888E+05 -1.112494E+03 -4.817624E+05 -1.300216E+03  3.599500E+03
       347  25 -1.011920E+06 -1.671838E+05  1.992438E+04 -4.536487E+05  1.027262E+04 -4.202397E+03
       347  26 -1.096752E+06 -1.860661E+05  4.356449E+03 -4.642810E+05  7.593785E+03  8.631299E+02
       347  27 -1.163711E+06 -2.229398E+05 -1.172289E+04 -4.954852E+05  4.913939E+03  5.932195E+03
       348   1 -1.009306E+06 -1.660583E+05  2.201310E+04 -4.528646E+05  8.863394E+03 -4.297012E+03
       348   2 -9.424338E+05 -1.292354E+05  3.797818E+04 -4.216890E+05  1.158948E+04 -9.342702E+03
       348   3 -8.577083E+05 -1.103821E+05  5.339794E+04 -4.110564E+05  1.431327E+04 -1.437890E+04
       348   4 -1.114076E+06 -2.046855E+05 -1.131587E+03 -4.817566E+05  2.650788E+03 -6.629295E+03
       348   5 -1.123004E+06 -1.957059E+05 -1.484818E+03 -4.714834E+05  5.387087E+03 -1.167183E+04
       348   6 -1.114086E+06 -2.046985E+05 -2.391381E+03 -4.817556E+05  8.120991E+03 -1.670491E+04
       348   7 -1.218833E+06 -2.433115E+05 -2.427659E+04 -5.106439E+05 -3.560641E+03 -8.961136E+03
       348   8 -1.303540E+06 -2.621737E+05 -4.094961E+04 -5.212644E+05 -8.133560E+02 -1.400023E+04
       348   9 -1.370399E+06 -2.990102E+05 -5.818493E+04 -5.524284E+05  1.931441E+03 -1.902990E+04
       348  10 -1.009306E+06 -1.660583E+05  2.201292E+04 -4.528645E+05 -1.778714E-09  4.973129E-10
       348  11 -9.424340E+05 -1.292356E+05  3.797776E+04 -4.216890E+05  2.838927E-09  2.465207E-09
       348  12 -8.577086E+05 -1.103824E+05  5.339717E+04 -4.110562E+05  4.898162E-09  5.057624E-10
       348  13 -1.114076E+06 -2.046855E+05 -1.131683E+03 -4.817566E+05  1.454146E-09  3.067782E-10
       348  14 -1.123004E+06 -1.957060E+05 -1.485129E+03 -4.714833E+05  3.832699E-09  1.228296E-09
       348  15 -1.114086E+06 -2.046988E+05 -2.392029E+03 -4.817555E+05  2.271846E-09 -3.045954E-10
       348  16 -1.218833E+06 -2.433116E+05 -2.427677E+04 -5.106439E+05  4.348579E-09  5.708408E-10
       348  17 -1.303540E+06 -2.621739E+05 -4.094998E+04 -5.212644E+05  3.521248E-09  1.243521E-09
       348  18 -1.370399E+06 -2.990106E+05 -5.818562E+04 -5.524284E+05 -1.569733E-09 -8.203568E-10
       348  19 -1.009306E+06 -1.660583E+05  2.201310E+04 -4.528646E+05 -8.863394E+03  4.297012E+03
       348  20 -9.424338E+05 -1.292354E+05  3.797818E+04 -4.216890E+05 -1.158948E+04  9.342702E+03
       348  21 -8.577083E+05 -1.103821E+05  5.339794E+04 -4.110564E+05 -1.431327E+04  1.437890E+04
       348  22 -1.114076E+06 -2.046855E+05 -1.131587E+03 -4.817566E+05 -2.650788E+03  6.629295E+03
       348  23 -1.123004E+06 -1.957059E+05 -1.484818E+03 -4.714834E+05 -5.387087E+03  1.167183E+04
       348  24 -1.114086E+06 -2.046985E+05 -2.391381E+03 -4.817556E+05 -8.120991E+03  1.670491E+04
       348  25 -1.218833E+06 -2.433115E+05 -2.427659E+04 -5.106439E+05  3.560641E+03  8.961136E+03
       348  26 -1.303540E+06 -2.621737E+05 -4.094961E+04 -5.212644E+05  8.133560E+02  1.400023E+04
       348  27 -1.370399E+06 -2.990102E+05 -5.818493E+04 -5.524284E+05 -1.931441E+03  1.902990E+04
       349   1 -8.028036E+05 -9.007258E+04  6.517200E+04 -3.959736E+05  1.593867E+04 -1.729698E+04
       349   2 -7.361094E+05 -5.338289E+04  7.901248E+04 -3.648940E+05  2.058148E+04 -2.156752E+04
       349   3 -6.519781E+05 -3.489216E+04  9.079960E+04 -3.542565E+05  2.519665E+04 -2.575687E+04
       349   4 -1.114178E+06 -2.046741E+05 -3.110354E+03 -4.817662E+05  9.738717E+03 -1.962653E+04
       349   5 -1.122915E+06 -1.956998E+05 -5.523809E+03 -4.714977E+05  1.447362E+04 -2.386391E+04
       349   6 -1.114239E+06 -2.049443E+05 -1.006440E+04 -4.816746E+05  1.918052E+04 -2.802020E+04
       349   7 -1.425455E+06 -3.192680E+05 -7.139840E+04 -5.675193E+05  3.542130E+03 -2.195481E+04
       349   8 -1.509568E+06 -3.380045E+05 -9.006854E+04 -5.780401E+05  8.369909E+03 -2.615876E+04
       349   9 -1.576279E+06 -3.749784E+05 -1.109402E+05 -6.090047E+05  1.316927E+04 -3.028170E+04
       349  10 -8.028039E+05 -9.007297E+04  6.517096E+04 -3.959734E+05 -4.597211E-10 -9.719453E-10
       349  11 -7.361100E+05 -5.338350E+04  7.901081E+04 -3.648936E+05 -3.120961E-10  4.790918E-10
       349  12 -6.519790E+05 -3.489304E+04  9.079717E+04 -3.542559E+05  1.256652E-09  7.246315E-10
       349  13 -1.114179E+06 -2.046746E+05 -3.111255E+03 -4.817661E+05 -1.056447E-10 -3.986567E-10
       349  14 -1.122916E+06 -1.957005E+05 -5.525272E+03 -4.714974E+05 -7.592356E-10 -1.894967E-10
       349  15 -1.114239E+06 -2.049453E+05 -1.006656E+04 -4.816742E+05 -4.799713E-10 -4.894019E-10
       349  16 -1.425455E+06 -3.192685E+05 -7.139933E+04 -5.675192E+05  5.034622E-10  2.575276E-10
       349  17 -1.509568E+06 -3.380053E+05 -9.006996E+04 -5.780399E+05 -3.400812E-10 -9.243334E-10
       349  18 -1.576280E+06 -3.749795E+05 -1.109422E+05 -6.090044E+05 -9.540052E-10 -3.923834E-10
       349  19 -8.028036E+05 -9.007258E+04  6.517200E+04 -3.959736E+05 -1.593867E+04  1.729698E+04
       349  20 -7.361094E+05 -5.338289E+04  7.901248E+04 -3.648940E+05 -2.058148E+04  2.156752E+04
       349  21 -6.519781E+05 -3.489216E+04  9.079960E+04 -3.542565E+05 -2.519665E+04  2.575687E+04
       349  22 -1.114178E+06 -2.046741E+05 -3.110354E+03 -4.817662E+05 -9.738717E+03  1.962653E+04
       349  23 -1.122915E+06 -1.956998E+05 -5.523809E+03 -4.714977E+05 -1.447362E+04  2.386391E+04
       349  24 -1.114239E+06 -2.049443E+05 -1.006440E+04 -4.816746E+05 -1.918052E+04  2.802020E+04
       349  25 -1.425455E+06 -3.192680E+05 -7.139840E+04 -5.675193E+05 -3.542130E+03  2.195481E+04
       349  26 -1.509568E+06 -3.380045E+05 -9.006854E+04 -5.780401E+05 -8.369909E+03  2.615876E+04
       349  27 -1.576279E+06 -3.749784E+05 -1.109402E+05 -6.090047E+05 -1.316927E+04  3.028170E+04
       350   1 -5.970801E+05 -1.502941E+04  9.990385E+04 -3.405468E+05  2.856104E+04 -2.806042E+04
       350   2 -5.313325E+05  2.250478E+04  1.055062E+05 -3.072376E+05  4.102490E+04 -2.880150E+04
       350   3 -4.517151E+05  3.559605E+04  1.013779E+05 -2.927782E+05  5.299750E+04 -2.822353E+04
       350   4 -1.114829E+06 -2.044388E+05 -1.333356E+04 -4.820617E+05  2.223447E+04 -3.044151E+04
       350   5 -1.122186E+06 -1.960103E+05 -2.422071E+04 -4.711588E+05  3.622547E+04 -3.061048E+04
       350   6 -1.115987E+06 -2.123356E+05 -4.605839E+04 -4.791102E+05  4.972359E+04 -2.946031E+04
       350   7 -1.632309E+06 -3.938294E+05 -1.265879E+05 -6.234696E+05  1.591356E+04 -3.282051E+04
       350   8 -1.712688E+06 -4.144979E+05 -1.539694E+05 -6.349369E+05  3.143097E+04 -3.241759E+04
       350   9 -1.779813E+06 -4.602300E+05 -1.935221E+05 -6.652582E+05  4.645346E+04 -3.069563E+04
       350  10 -5.970811E+05 -1.503047E+04  9.990084E+04 -3.405461E+05 -5.034350E-10 -8.724800E-10
       350  11 -5.313345E+05  2.250343E+04  1.055015E+05 -3.072367E+05 -2.503248E-10  1.306415E-09
       350  12 -4.517183E+05  3.559444E+04  1.013711E+05 -2.927770E+05  6.987781E-10  3.606645E-10
       350  13 -1.114829E+06 -2.044400E+05 -1.333623E+04 -4.820612E+05 -3.396275E-10 -8.499639E-10
       350  14 -1.122188E+06 -1.960116E+05 -2.422493E+04 -4.711579E+05 -1.065445E-09  8.505958E-10
       350  15 -1.115990E+06 -2.123372E+05 -4.606467E+04 -4.791091E+05 -1.301456E-10 -2.527831E-09
       350  16 -1.632310E+06 -3.938306E+05 -1.265904E+05 -6.234692E+05  8.439043E-10  8.937128E-10
       350  17 -1.712689E+06 -4.144993E+05 -1.539732E+05 -6.349361E+05 -2.160249E-09  1.414527E-09
       350  18 -1.779816E+06 -4.602316E+05 -1.935279E+05 -6.652571E+05  1.525268E-10  3.657159E-10
       350  19 -5.970801E+05 -1.502941E+04  9.990385E+04 -3.405468E+05 -2.856104E+04  2.806042E+04
       350  20 -5.313325E+05  2.250478E+04  1.055062E+05 -3.072376E+05 -4.102490E+04  2.880150E+04
       350  21 -4.517151E+05  3.559605E+04  1.013779E+05 -2.927782E+05 -5.299750E+04  2.822353E+04
       350  22 -1.114829E+06 -2.044388E+05 -1.333356E+04 -4.820617E+05 -2.223447E+04  3.044151E+04
       350  23 -1.122186E+06 -1.960103E+05 -2.422071E+04 -4.711588E+05 -3.622547E+04  3.061048E+04
       350  24 -1.115987E+06 -2.123356E+05 -4.605839E+04 -4.791102E+05 -4.972359E+04  2.946031E+04
       350  25 -1.632309E+06 -3.938294E+05 -1.265879E+05 -6.234696E+05 -1.591356E+04  3.282051E+04
       350  26 -1.712688E+06 -4.144979E+05 -1.539694E+05 -6.349369E+05 -3.143097E+04  3.241759E+04
       350  27 -1.779813E+06 -4.602300E+05 -1.935221E+05 -6.652582E+05 -4.645346E+04  3.069563E+04
       351   1 -3.856299E+05  4.883184E+04  9.962311E+04 -3.071297E+05  6.783302E+04 -2.737937E+04
       351   2 -3.487960E+05  1.136541E+05  7.375571E+04 -2.100024E+05  9.498984E+04 -1.224217E+04
       351   3 -3.555055E+05  1.237895E+04 -1.456478E+04 -9.230609E+04  1.128296E+05  2.762388E+04
       351   4 -1.123629E+06 -2.003942E+05 -5.936655E+04 -4.871675E+05  5.837131E+04 -3.094425E+04
       351   5 -1.112504E+06 -2.093326E+05 -1.086938E+05 -4.617376E+05  1.143453E+05 -4.962259E+03
       351   6 -1.150729E+06 -3.902256E+05 -2.434018E+05 -4.157257E+05  1.609912E+05  4.575482E+04
       351   7 -1.861078E+06 -4.495986E+05 -2.183871E+05 -6.670179E+05  4.892177E+04 -3.450544E+04
       351   8 -1.875612E+06 -5.322200E+05 -2.911807E+05 -7.131684E+05  1.336748E+05  2.304696E+03
       351   9 -1.945286E+06 -7.926118E+05 -4.722823E+05 -7.387111E+05  2.090844E+05  6.383978E+04
       351  10 -3.856350E+05  4.882980E+04  9.961306E+04 -3.071282E+05 -6.597593E-10 -1.897495E-09
       351  11 -3.488057E+05  1.136515E+05  7.373846E+04 -2.100015E+05 -8.783693E-10 -4.720109E-10
       351  12 -3.555194E+05  1.237471E+04 -1.459015E+04 -9.230860E+04 -1.212957E-09 -5.773835E-11
       351  13 -1.123633E+06 -2.003962E+05 -5.937475E+04 -4.871660E+05  1.238629E-09 -2.932559E-09
       351  14 -1.112518E+06 -2.093361E+05 -1.087184E+05 -4.617371E+05  4.099129E-10 -5.378750E-10
       351  15 -1.150757E+06 -3.902349E+05 -2.434545E+05 -4.157316E+05 -1.054868E-11  1.465216E-09
       351  16 -1.861081E+06 -4.496006E+05 -2.183938E+05 -6.670166E+05 -3.716305E-10  4.607596E-10
       351  17 -1.875631E+06 -5.322249E+05 -2.912144E+05 -7.131686E+05 -2.274375E-09  3.397771E-09
       351  18 -1.945334E+06 -7.926280E+05 -4.723724E+05 -7.387219E+05 -1.780557E-09  7.108142E-10
       351  19 -3.856299E+05  4.883184E+04  9.962311E+04 -3.071297E+05 -6.783302E+04  2.737937E+04
       351  20 -3.487960E+05  1.136541E+05  7.375571E+04 -2.100024E+05 -9.498984E+04  1.224217E+04
       351  21 -3.555055E+05  1.237895E+04 -1.456478E+04 -9.230609E+04 -1.128296E+05 -2.762388E+04
       351  22 -1.123629E+06 -2.003942E+05 -5.936655E+04 -4.871675E+05 -5.837131E+04  3.094425E+04
       351  23 -1.112504E+06 -2.093326E+05 -1.086938E+05 -4.617376E+05 -1.143453E+05  4.962259E+03
       351  24 -1.150729E+06 -3.902256E+05 -2.434018E+05 -4.157257E+05 -1.609912E+05 -4.575482E+04
       351  25 -1.861078E+06 -4.495986E+05 -2.183871E+05 -6.670179E+05 -4.892177E+04  3.450544E+04
       351  26 -1.875612E+06 -5.322200E+05 -2.911807E+05 -7.131684E+05 -1.336748E+05 -2.304696E+03
       351  27 -1.945286E+06 -7.926118E+05 -4.722823E+05 -7.387111E+05 -2.090844E+05 -6.383978E+04
       352   1  2.737271E+05  6.466909E+04  4.037292E+04 -2.130246E+04 -5.277548E+04 -1.002046E+04
       352   2  2.344215E+05  1.502182E+05  7.938378E+04  7.208637E+03 -4.238102E+04 -3.218460E+04
       352   3  1.722354E+05  1.495811E+05  9.012313E+04  5.146243E+04 -3.202937E+04 -3.597188E+04
       352   4 -4.327349E+05 -1.101459E+05 -1.287593E+05  3.676221E+04 -8.886136E+04 -1.010978E+04
       352   5 -4.194207E+05 -8.306853E+03 -6.000398E+04  2.874857E+04 -5.731806E+04 -3.222577E+04
       352   6 -4.326915E+05  3.618753E+03 -3.423483E+04  3.648012E+04 -2.581572E+04 -3.595737E+04
       352   7 -1.138729E+06 -2.849834E+05 -2.979199E+05  9.476029E+04 -1.249063E+05 -1.020590E+04
       352   8 -1.072859E+06 -1.668578E+05 -1.994153E+05  5.026523E+04 -7.223959E+04 -3.226800E+04
       352   9 -1.037271E+06 -1.423659E+05 -1.586121E+05  2.151244E+04 -1.960800E+04 -3.594315E+04
       352  10  2.737240E+05  6.466824E+04  4.036750E+04 -2.130289E+04  1.300082E-09 -8.219535E-10
       352  11  2.344193E+05  1.502166E+05  7.937846E+04  7.207539E+03  9.619999E-11 -5.676282E-09
       352  12  1.722340E+05  1.495795E+05  9.011877E+04  5.146150E+04  2.307777E-09 -4.689612E-09
       352  13 -4.327434E+05 -1.101481E+05 -1.287743E+05  3.676149E+04  1.061192E-09  1.896311E-09
       352  14 -4.194245E+05 -8.308851E+03 -6.001211E+04  2.874708E+04  2.803954E-10 -3.178403E-09
       352  15 -4.326926E+05  3.617185E+03 -3.423851E+04  3.647938E+04 -5.109022E-11 -2.778155E-12
       352  16 -1.138746E+06 -2.849877E+05 -2.979495E+05  9.475927E+04 -2.920978E-09  2.955978E-10
       352  17 -1.072865E+06 -1.668603E+05 -1.994271E+05  5.026335E+04 -6.836555E-10 -7.381092E-09
       352  18 -1.037271E+06 -1.423674E+05 -1.586153E+05  2.151187E+04 -6.290555E-10 -7.256382E-09
       352  19  2.737271E+05  6.466909E+04  4.037292E+04 -2.130246E+04  5.277548E+04  1.002046E+04
       352  20  2.344215E+05  1.502182E+05  7.938378E+04  7.208637E+03  4.238102E+04  3.218460E+04
       352  21  1.722354E+05  1.495811E+05  9.012313E+04  5.146243E+04  3.202937E+04  3.597188E+04
       352  22 -4.327349E+05 -1.101459E+05 -1.287593E+05  3.676221E+04  8.886136E+04  1.010978E+04
       352  23 -4.194207E+05 -8.306853E+03 -6.000398E+04  2.874857E+04  5.731806E+04  3.222577E+04
       352  24 -4.326915E+05  3.618753E+03 -3.423483E+04  3.648012E+04  2.581572E+04  3.595737E+04
       352  25 -1.138729E+06 -2.849834E+05 -2.979199E+05  9.476029E+04  1.249063E+05  1.020590E+04
       352  26 -1.072859E+06 -1.668578E+05 -1.994153E+05  5.026523E+04  7.223959E+04  3.226800E+04
       352  27 -1.037271E+06 -1.423659E+05 -1.586121E+05  2.151244E+04  1.960800E+04  3.594315E+04
       353   1  1.402993E+05  1.325575E+05  9.023506E+04  3.645532E+04 -2.284181E+04 -3.322357E+04
       353   2  9.055166E+04  1.245496E+05  9.106634E+04  2.927418E+04 -1.660408E+04 -3.127255E+04
       353   3  3.899369E+04  1.127745E+05  8.688313E+04  3.874464E+04 -1.037091E+04 -2.834792E+04
       353   4 -4.272245E+05 -4.362965E+03 -2.679582E+04  3.674925E+04 -2.116126E+04 -3.322136E+04
       353   5 -4.262111E+05  1.894615E+01 -1.472917E+04  2.841602E+04 -1.380781E+04 -3.126654E+04
       353   6 -4.272056E+05  4.378453E+02 -8.455476E+03  3.673532E+04 -6.458397E+03 -2.833773E+04
       353   7 -9.944427E+05 -1.413037E+05 -1.438440E+05  3.704269E+04 -1.948222E+04 -3.321915E+04
       353   8 -9.427201E+05 -1.245285E+05 -1.205388E+05  2.755840E+04 -1.101382E+04 -3.126053E+04
       353   9 -8.931983E+05 -1.119124E+05 -1.038055E+05  3.472738E+04 -2.548769E+03 -2.832756E+04
       353  10  1.402985E+05  1.325561E+05  9.023201E+04  3.645471E+04 -4.520725E-09 -6.019406E-09
       353  11  9.055110E+04  1.245485E+05  9.106398E+04  2.927376E+04 -3.561430E-09  1.617611E-09
       353  12  3.899336E+04  1.127736E+05  8.688142E+04  3.874440E+04 -1.358824E-09  2.936798E-09
       353  13 -4.272252E+05 -4.364270E+03 -2.679873E+04  3.674868E+04  4.004818E-10 -3.141580E-09
       353  14 -4.262116E+05  1.784538E+01 -1.473137E+04  2.841567E+04 -1.609184E-09  9.972800E-10
       353  15 -4.272059E+05  4.369720E+02 -8.457063E+03  3.673517E+04 -1.045865E-10 -2.881426E-09
       353  16 -9.944434E+05 -1.413050E+05 -1.438468E+05  3.704217E+04  2.848012E-09  3.680686E-10
       353  17 -9.427205E+05 -1.245296E+05 -1.205409E+05  2.755813E+04  7.663914E-10  1.876029E-09
       353  18 -8.931986E+05 -1.119133E+05 -1.038071E+05  3.472733E+04  2.262787E-09  2.918632E-10
       353  19  1.402993E+05  1.325575E+05  9.023506E+04  3.645532E+04  2.284181E+04  3.322357E+04
       353  20  9.055166E+04  1.245496E+05  9.106634E+04  2.927418E+04  1.660408E+04  3.127255E+04
       353  21  3.899369E+04  1.127745E+05  8.688313E+04  3.874464E+04  1.037091E+04  2.834792E+04
       353  22 -4.272245E+05 -4.362965E+03 -2.679582E+04  3.674925E+04  2.116126E+04  3.322136E+04
       353  23 -4.262111E+05  1.894615E+01 -1.472917E+04  2.841602E+04  1.380781E+04  3.126654E+04
       353  24 -4.272056E+05  4.378453E+02 -8.455476E+03  3.673532E+04  6.458397E+03  2.833773E+04
       353  25 -9.944427E+05 -1.413037E+05 -1.438440E+05  3.704269E+04  1.948222E+04  3.321915E+04
       353  26 -9.427201E+05 -1.245285E+05 -1.205388E+05  2.755840E+04  1.101382E+04  3.126053E+04
       353  27 -8.931983E+05 -1.119124E+05 -1.038055E+05  3.472738E+04  2.548769E+03  2.832756E+04
       354   1  2.296365E+03  1.034545E+05  8.108252E+04  3.798889E+04 -8.825588E+03 -2.638880E+04
       354   2 -4.835751E+04  9.135121E+04  7.354557E+04  2.946467E+04 -7.068061E+03 -2.316601E+04
       354   3 -9.935597E+04  7.917605E+04  6.482168E+04  3.769686E+04 -5.312114E+03 -1.988849E+04
       354   4 -4.268321E+05  9.736624E+01 -6.453879E+03  3.676203E+04 -5.148280E+03 -2.637885E+04
       354   5 -4.266467E+05  2.216817E+02 -3.694279E+03  2.838325E+04 -3.328977E+03 -2.315519E+04
       354   6 -4.268195E+05  2.633673E+02 -2.165192E+03  3.676150E+04 -1.511116E+03 -1.987678E+04
       354   7 -8.557853E+05 -1.032713E+05 -9.399993E+04  3.553589E+04 -1.473466E+03 -2.636891E+04
       354   8 -8.047998E+05 -9.091680E+04 -8.094163E+04  2.730240E+04  4.078693E+02 -2.314438E+04
       354   9 -7.541811E+05 -7.865604E+04 -6.915769E+04  3.582655E+04  2.287913E+03 -1.986508E+04
       354  10  2.296094E+03  1.034538E+05  8.108107E+04  3.798871E+04 -3.428170E-09  5.219393E-09
       354  11 -4.835771E+04  9.135063E+04  7.354447E+04  2.946454E+04 -5.160533E-10  2.679123E-09
       354  12 -9.935611E+04  7.917562E+04  6.482089E+04  3.769678E+04  5.734375E-09 -1.002305E-09
       354  13 -4.268323E+05  9.661206E+01 -6.455236E+03  3.676192E+04  3.336140E-10 -4.271514E-09
       354  14 -4.266469E+05  2.211031E+02 -3.695307E+03  2.838319E+04 -5.457755E-10  3.716850E-09
       354  15 -4.268196E+05  2.629425E+02 -2.165939E+03  3.676147E+04 -3.100332E-10  5.934519E-09
       354  16 -8.557855E+05 -1.032721E+05 -9.400124E+04  3.553586E+04  1.609867E-09  3.770158E-09
       354  17 -8.048000E+05 -9.091738E+04 -8.094264E+04  2.730240E+04 -1.031184E-09  5.862598E-09
       354  18 -7.541812E+05 -7.865646E+04 -6.915845E+04  3.582659E+04 -4.172742E-09  1.866596E-09
       354  19  2.296365E+03  1.034545E+05  8.108252E+04  3.798889E+04  8.825588E+03  2.638880E+04
       354  20 -4.835751E+04  9.135121E+04  7.354557E+04  2.946467E+04  7.068061E+03  2.316601E+04
       354  21 -9.935597E+04  7.917605E+04  6.482168E+04  3.769686E+04  5.312114E+03  1.988849E+04
       354  22 -4.268321E+05  9.736624E+01 -6.453879E+03  3.676203E+04  5.148280E+03  2.637885E+04
       354  23 -4.266467E+05  2.216817E+02 -3.694279E+03  2.838325E+04  3.328977E+03  2.315519E+04
       354  24 -4.268195E+05  2.633673E+02 -2.165192E+03  3.676150E+04  1.511116E+03  1.987678E+04
       354  25 -8.557853E+05 -1.032713E+05 -9.399993E+04  3.553589E+04  1.473466E+03  2.636891E+04
       354  26 -8.047998E+05 -9.091680E+04 -8.094163E+04  2.730240E+04 -4.078693E+02  2.314438E+04
       354  27 -7.541811E+05 -7.865604E+04 -6.915769E+04  3.582655E+04 -2.287913E+03  1.986508E+04
       355   1 -1.364680E+05  7.016380E+04  5.745393E+04  3.758141E+04 -4.960664E+03 -1.796746E+04
       355   2 -1.873394E+05  5.786965E+04  4.779339E+04  2.902780E+04 -4.447336E+03 -1.467198E+04
       355   3 -2.383773E+05  4.567845E+04  3.779244E+04  3.727567E+04 -3.934889E+03 -1.137156E+04
       355   4 -4.267730E+05  2.543511E+02 -1.682236E+03  3.677163E+04 -1.169322E+03 -1.795544E+04
       355   5 -4.266838E+05  2.090323E+02 -1.070887E+03  2.837069E+04 -6.506986E+02 -1.465951E+04
       355   6 -4.267653E+05  2.656561E+02 -8.039399E+02  3.677161E+04 -1.329144E+02 -1.135863E+04
       355   7 -7.169979E+05 -6.966035E+04 -6.082278E+04  3.596218E+04  2.620279E+03 -1.794342E+04
       355   8 -6.659736E+05 -5.745516E+04 -4.993813E+04  2.771380E+04  3.144502E+03 -1.464704E+04
       355   9 -6.151195E+05 -4.514936E+04 -3.940215E+04  3.626767E+04  3.667927E+03 -1.134571E+04
       355  10 -1.364681E+05  7.016345E+04  5.745328E+04  3.758133E+04  2.221884E-10 -7.276628E-10
       355  11 -1.873394E+05  5.786941E+04  4.779295E+04  2.902775E+04  7.117904E-09  1.109732E-08
       355  12 -2.383773E+05  4.567831E+04  3.779217E+04  3.727564E+04  1.310306E-08  1.043561E-08
       355  13 -4.267731E+05  2.540046E+02 -1.682844E+03  3.677161E+04  1.729574E-09  1.342864E-09
       355  14 -4.266838E+05  2.088015E+02 -1.071291E+03  2.837069E+04 -5.359156E-11  9.119321E-09
       355  15 -4.267653E+05  2.655176E+02 -8.041823E+02  3.677161E+04  2.311308E-10  4.006113E-09
       355  16 -7.169980E+05 -6.966070E+04 -6.082340E+04  3.596221E+04 -1.770364E-09  5.731753E-10
       355  17 -6.659737E+05 -5.745540E+04 -4.993855E+04  2.771383E+04 -7.956983E-09 -5.136363E-11
       355  18 -6.151196E+05 -4.514950E+04 -3.940242E+04  3.626770E+04 -1.108732E-08  2.765446E-10
       355  19 -1.364680E+05  7.016380E+04  5.745393E+04  3.758141E+04  4.960664E+03  1.796746E+04
       355  20 -1.873394E+05  5.786965E+04  4.779339E+04  2.902780E+04  4.447336E+03  1.467198E+04
       355  21 -2.383773E+05  4.567845E+04  3.779244E+04  3.727567E+04  3.934889E+03  1.137156E+04
       355  22 -4.267730E+05  2.543511E+02 -1.682236E+03  3.677163E+04  1.169322E+03  1.795544E+04
       355  23 -4.266838E+05  2.090323E+02 -1.070887E+03  2.837069E+04  6.506986E+02  1.465951E+04
       355  24 -4.267653E+05  2.656561E+02 -8.039399E+02  3.677161E+04  1.329144E+02  1.135863E+04
       355  25 -7.169979E+05 -6.966035E+04 -6.082278E+04  3.596218E+04 -2.620279E+03  1.794342E+04
       355  26 -6.659736E+05 -5.745516E+04 -4.993813E+04  2.771380E+04 -3.144502E+03  1.464704E+04
       355  27 -6.151195E+05 -4.514936E+04 -3.940215E+04  3.626767E+04 -3.667927E+03  1.134571E+04
       356   1 -2.756040E+05  3.665862E+04  2.995874E+04  3.717879E+04 -3.799969E+03 -9.449230E+03
       356   2 -3.265415E+05  2.434608E+04  1.956574E+04  2.860310E+04 -3.376771E+03 -6.145311E+03
       356   3 -3.776500E+05  1.214003E+04  8.887476E+03  3.685569E+04 -2.953942E+03 -2.841722E+03
       356   4 -4.267631E+05  2.677896E+02 -7.692088E+02  3.677752E+04  3.265994E+00 -9.436108E+03
       356   5 -4.266751E+05  2.212389E+02 -8.783534E+02  2.836328E+04  4.259019E+02 -6.132012E+03
       356   6 -4.267599E+05  2.816085E+02 -1.272153E+03  3.677748E+04  8.482034E+02 -2.828237E+03
       356   7 -5.779003E+05 -3.612446E+04 -3.149830E+04  3.637633E+04  3.805592E+03 -9.422988E+03
       356   8 -5.267992E+05 -2.390422E+04 -2.132292E+04  2.812350E+04  4.227972E+03 -6.118715E+03
       356   9 -4.758675E+05 -1.157696E+04 -1.143186E+04  3.669928E+04  4.650053E+03 -2.814753E+03
       356  10 -2.756041E+05  3.665852E+04  2.995854E+04  3.717876E+04 -2.564528E-08  2.374554E-09
       356  11 -3.265415E+05  2.434604E+04  1.956565E+04  2.860308E+04 -5.217966E-09 -3.794317E-09
       356  12 -3.776501E+05  1.214002E+04  8.887445E+03  3.685568E+04  2.010991E-08 -4.969216E-09
       356  13 -4.267631E+05  2.676940E+02 -7.693761E+02  3.677752E+04  1.529909E-09  1.075382E-08
       356  14 -4.266751E+05  2.211985E+02 -8.784244E+02  2.836328E+04 -1.814172E-09 -3.113164E-09
       356  15 -4.267599E+05  2.815997E+02 -1.272170E+03  3.677749E+04 -1.028102E-09 -6.382242E-09
       356  16 -5.779003E+05 -3.612456E+04 -3.149849E+04  3.637636E+04  2.453193E-08  4.393845E-09
       356  17 -5.267992E+05 -2.390427E+04 -2.132302E+04  2.812352E+04  3.111798E-09 -4.180195E-09
       356  18 -4.758675E+05 -1.157697E+04 -1.143192E+04  3.669930E+04 -1.865941E-08 -7.417868E-09
       356  19 -2.756040E+05  3.665862E+04  2.995874E+04  3.717879E+04  3.799969E+03  9.449230E+03
       356  20 -3.265415E+05  2.434608E+04  1.956574E+04  2.860310E+04  3.376771E+03  6.145311E+03
       356  21 -3.776500E+05  1.214003E+04  8.887476E+03  3.685569E+04  2.953942E+03  2.841722E+03
       356  22 -4.267631E+05  2.677896E+02 -7.692088E+02  3.677752E+04 -3.265994E+00  9.436108E+03
       356  23 -4.266751E+05  2.212389E+02 -8.783534E+02  2.836328E+04 -4.259019E+02  6.132012E+03
       356  24 -4.267599E+05  2.816085E+02 -1.272153E+03  3.677748E+04 -8.482034E+02  2.828237E+03
       356  25 -5.779003E+05 -3.612446E+04 -3.149830E+04  3.637633E+04 -3.805592E+03  9.422988E+03
       356  26 -5.267992E+05 -2.390422E+04 -2.132292E+04  2.812350E+04 -4.227972E+03  6.118715E+03
       356  27 -4.758675E+05 -1.157696E+04 -1.143186E+04  3.669928E+04 -4.650053E+03  2.814753E+03
       357   1 -4.149386E+05  3.119749E+03  6.793920E+02  3.672518E+04 -2.707460E+03 -9.161674E+02
       357   2 -4.658072E+05 -9.189285E+03 -1.069097E+04  2.813479E+04 -1.359642E+03  2.383062E+03
       357   3 -5.170032E+05 -2.152641E+04 -2.298329E+04  3.637525E+04 -1.170707E+01  5.654702E+03
       357   4 -4.267931E+05  2.912971E+02 -1.605641E+03  3.677787E+04  1.101580E+03 -9.026245E+02
       357   5 -4.266318E+05  2.528781E+02 -2.682736E+03  2.836267E+04  2.417575E+03  2.396416E+03
       357   6 -4.267947E+05  1.920707E+02 -4.659546E+03  3.677824E+04  3.733795E+03  5.667878E+03
       357   7 -4.386475E+05 -2.537156E+03 -3.890627E+03  3.683055E+04  4.910549E+03 -8.890808E+02
       357   8 -3.874549E+05  9.694953E+03  5.325466E+03  2.859056E+04  6.195026E+03  2.409773E+03
       357   9 -3.365785E+05  2.191005E+04  1.366382E+04  3.718128E+04  7.479831E+03  5.681057E+03
       357  10 -4.149386E+05  3.119747E+03  6.793766E+02  3.672518E+04 -3.621768E-09  2.603303E-09
       357  11 -4.658072E+05 -9.189292E+03 -1.069098E+04  2.813480E+04 -2.035587E-09  3.963845E-10
       357  12 -5.170032E+05 -2.152644E+04 -2.298335E+04  3.637525E+04 -5.913502E-10  2.792052E-09
       357  13 -4.267931E+05  2.912959E+02 -1.605645E+03  3.677787E+04  1.347710E-09 -1.967902E-09
       357  14 -4.266318E+05  2.528703E+02 -2.682758E+03  2.836266E+04 -5.458851E-10  5.347586E-10
       357  15 -4.267948E+05  1.920325E+02 -4.659633E+03  3.677822E+04 -1.768085E-10  2.964978E-09
       357  16 -4.386475E+05 -2.537163E+03 -3.890674E+03  3.683056E+04  2.270411E-09 -4.077900E-11
       357  17 -3.874549E+05  9.694936E+03  5.325383E+03  2.859054E+04  1.743985E-09 -7.983888E-09
       357  18 -3.365785E+05  2.191000E+04  1.366366E+04  3.718124E+04  2.785366E-09 -1.928024E-09
       357  19 -4.149386E+05  3.119749E+03  6.793920E+02  3.672518E+04  2.707460E+03  9.161674E+02
       357  20 -4.658072E+05 -9.189285E+03 -1.069097E+04  2.813479E+04  1.359642E+03 -2.383062E+03
       357  21 -5.170032E+05 -2.152641E+04 -2.298329E+04  3.637525E+04  1.170707E+01 -5.654702E+03
       357  22 -4.267931E+05  2.912971E+02 -1.605641E+03  3.677787E+04 -1.101580E+03  9.026245E+02
       357  23 -4.266318E+05  2.528781E+02 -2.682736E+03  2.836267E+04 -2.417575E+03 -2.396416E+03
       357  24 -4.267947E+05  1.920707E+02 -4.659546E+03  3.677824E+04 -3.733795E+03 -5.667878E+03
       357  25 -4.386475E+05 -2.537156E+03 -3.890627E+03  3.683055E+04 -4.910549E+03  8.890808E+02
       357  26 -3.874549E+05  9.694953E+03  5.325466E+03  2.859056E+04 -6.195026E+03 -2.409773E+03
       357  27 -3.365785E+05  2.191005E+04  1.366382E+04  3.718128E+04 -7.479831E+03 -5.681057E+03
       358   1 -5.545233E+05 -3.031001E+04 -3.228092E+04  3.574966E+04  8.038719E+02  7.603660E+03
       358   2 -6.047007E+05 -4.289346E+04 -4.720104E+04  2.809928E+04  6.686235E+03  1.072752E+04
       358   3 -6.565085E+05 -5.839495E+04 -6.671718E+04  3.724405E+04  1.257032E+04  1.333181E+04
       358   4 -4.270642E+05  4.398706E+02 -6.097338E+03  3.676729E+04  4.676108E+03  7.617162E+03
       358   5 -4.263034E+05  1.268226E+02 -1.060328E+04  2.837579E+04  9.961611E+03  1.073863E+04
       358   6 -4.270717E+05 -2.999975E+03 -1.928956E+04  3.677922E+04  1.524931E+04  1.334057E+04
       358   7 -2.995895E+05  3.118873E+04  2.008543E+04  3.778511E+04  8.549126E+03  7.630676E+03
       358   8 -2.478757E+05  4.314511E+04  2.599281E+04  2.865235E+04  1.323791E+04  1.074973E+04
       358   9 -1.975850E+05  5.239167E+04  2.813523E+04  3.631417E+04  1.792928E+04  1.334934E+04
       358  10 -5.545234E+05 -3.031007E+04 -3.228103E+04  3.574966E+04 -7.252703E-09  9.150791E-09
       358  11 -6.047008E+05 -4.289359E+04 -4.720134E+04  2.809922E+04 -1.617220E-09  3.635645E-09
       358  12 -6.565087E+05 -5.839518E+04 -6.671781E+04  3.724392E+04  5.746919E-09  3.965265E-09
       358  13 -4.270642E+05  4.398024E+02 -6.097488E+03  3.676726E+04  2.349443E-09  1.882966E-09
       358  14 -4.263035E+05  1.266721E+02 -1.060369E+04  2.837570E+04  5.216600E-10  3.305588E-09
       358  15 -4.270720E+05 -3.000228E+03 -1.929033E+04  3.677906E+04  5.656567E-10 -1.022761E-09
       358  16 -2.995896E+05  3.118865E+04  2.008519E+04  3.778506E+04  6.017373E-09  1.893979E-09
       358  17 -2.478759E+05  4.314493E+04  2.599227E+04  2.865224E+04  9.212148E-10 -1.277068E-10
       358  18 -1.975854E+05  5.239139E+04  2.813429E+04  3.631398E+04 -4.266158E-09 -5.890937E-09
       358  19 -5.545233E+05 -3.031001E+04 -3.228092E+04  3.574966E+04 -8.038719E+02 -7.603660E+03
       358  20 -6.047007E+05 -4.289346E+04 -4.720104E+04  2.809928E+04 -6.686235E+03 -1.072752E+04
       358  21 -6.565085E+05 -5.839495E+04 -6.671718E+04  3.724405E+04 -1.257032E+04 -1.333181E+04
       358  22 -4.270642E+05  4.398706E+02 -6.097338E+03  3.676729E+04 -4.676108E+03 -7.617162E+03
       358  23 -4.263034E+05  1.268226E+02 -1.060328E+04  2.837579E+04 -9.961611E+03 -1.073863E+04
       358  24 -4.270717E+05 -2.999975E+03 -1.928956E+04  3.677922E+04 -1.524931E+04 -1.334057E+04
       358  25 -2.995895E+05  3.118873E+04  2.008543E+04  3.778511E+04 -8.549126E+03 -7.630676E+03
       358  26 -2.478757E+05  4.314511E+04  2.599281E+04  2.865235E+04 -1.323791E+04 -1.074973E+04
       358  27 -1.975850E+05  5.239167E+04  2.813523E+04  3.631417E+04 -1.792928E+04 -1.334934E+04
       359   1 -6.978669E+05 -6.174726E+04 -7.968356E+04  2.603682E+04  1.349520E+04  1.569377E+04
       359   2 -7.384096E+05 -8.275081E+04 -1.110924E+05  4.415464E+04  4.746637E+04  1.532000E+04
       359   3 -8.001651E+05 -1.704363E+05 -1.813264E+05  7.865668E+04  8.146576E+04  5.115045E+03
       359   4 -4.310086E+05  2.749401E+03 -2.464377E+04  3.662449E+04  1.859723E+04  1.571074E+04
       359   5 -4.214025E+05 -5.852275E+03 -4.318486E+04  2.856571E+04  4.126055E+04  1.529772E+04
       359   6 -4.310360E+05 -7.915462E+04 -9.268219E+04  3.689304E+04  6.395529E+04  5.052919E+03
       359   7 -1.640823E+05  6.724197E+04  3.039233E+04  4.721675E+04  2.370141E+04  1.572787E+04
       359   8 -1.043002E+05  7.104066E+04  2.471715E+04  1.296862E+04  3.505159E+04  1.527575E+04
       359   9 -6.177739E+04  1.212399E+04 -4.045539E+03 -4.895647E+03  4.643443E+04  4.993171E+03
       359  10 -6.978672E+05 -6.174758E+04 -7.968437E+04  2.603665E+04 -2.917853E-09  1.965878E-09
       359  11 -7.384121E+05 -8.275166E+04 -1.110971E+05  4.415406E+04 -7.760089E-10 -4.649521E-09
       359  12 -8.001723E+05 -1.704381E+05 -1.813389E+05  7.865635E+04  1.692525E-09 -7.242509E-10
       359  13 -4.310090E+05  2.749043E+03 -2.464488E+04  3.662426E+04  1.478201E-09  5.999170E-09
       359  14 -4.214044E+05 -5.852984E+03 -4.318850E+04  2.856520E+04  5.800522E-10 -9.120279E-09
       359  15 -4.310404E+05 -7.915574E+04 -9.268993E+04  3.689278E+04 -5.789437E-10  4.674711E-09
       359  16 -1.640830E+05  6.724156E+04  3.039081E+04  4.721645E+04  7.245656E-10  2.468150E-09
       359  17 -1.043016E+05  7.104007E+04  2.471440E+04  1.296819E+04 -3.313003E-10  2.104797E-09
       359  18 -6.177971E+04  1.212339E+04 -4.049638E+03 -4.895833E+03  4.163208E-10 -6.434789E-10
       359  19 -6.978669E+05 -6.174726E+04 -7.968356E+04  2.603682E+04 -1.349520E+04 -1.569377E+04
       359  20 -7.384096E+05 -8.275081E+04 -1.110924E+05  4.415464E+04 -4.746637E+04 -1.532000E+04
       359  21 -8.001651E+05 -1.704363E+05 -1.813264E+05  7.865668E+04 -8.146576E+04 -5.115045E+03
       359  22 -4.310086E+05  2.749401E+03 -2.464377E+04  3.662449E+04 -1.859723E+04 -1.571074E+04
       359  23 -4.214025E+05 -5.852275E+03 -4.318486E+04  2.856571E+04 -4.126055E+04 -1.529772E+04
       359  24 -4.310360E+05 -7.915462E+04 -9.268219E+04  3.689304E+04 -6.395529E+04 -5.052919E+03
       359  25 -1.640823E+05  6.724197E+04  3.039233E+04  4.721675E+04 -2.370141E+04 -1.572787E+04
       359  26 -1.043002E+05  7.104066E+04  2.471715E+04  1.296862E+04 -3.505159E+04 -1.527575E+04
       359  27 -6.177739E+04  1.212399E+04 -4.045539E+03 -4.895647E+03 -4.643443E+04 -4.993171E+03
       360   1  2.842417E+05  1.462588E+06  2.931762E+05 -2.385195E+05  8.238506E+03  9.569273E+04
       360   2  1.383360E+05  1.197662E+06  1.676700E+05 -1.686896E+05  2.314320E+04  4.350152E+04
       360   3  6.804111E+04  9.580434E+05  9.491505E+04 -1.806362E+05  1.573417E+04 -8.720979E+03
       360   4  8.718758E+04  6.694856E+05  1.014578E+05 -1.902539E+05  8.323299E+03  6.573483E+04
       360   5  7.213109E+03  6.591325E+05  5.060642E+04 -1.494833E+05  2.315714E+04  3.932194E+04
       360   6 -1.576922E+03  6.695961E+05  3.466648E+04 -1.904817E+05  1.567335E+04  1.285619E+04
       360   7 -1.099036E+05 -1.230363E+05 -9.030125E+04 -1.420495E+05  8.403504E+03  3.581496E+04
       360   8 -1.239277E+05  1.208755E+05 -6.647425E+04 -1.302937E+05  2.317083E+04  3.514592E+04
       360   9 -7.119963E+04  3.812286E+05 -2.558488E+04 -2.003224E+05  1.561183E+04  3.442351E+04
       360  10  2.842392E+05  1.462578E+06  2.931589E+05 -2.385202E+05  8.256701E-12  3.181872E-10
       360  11  1.383350E+05  1.197659E+06  1.676654E+05 -1.686904E+05  6.990099E-11 -4.474591E-09
       360  12  6.804083E+04  9.580433E+05  9.491444E+04 -1.806361E+05  1.282352E-09  3.395970E-09
       360  13  8.718635E+04  6.694810E+05  1.014495E+05 -1.902543E+05  8.411313E-10 -1.365705E-10
       360  14  7.212118E+03  6.591307E+05  5.060251E+04 -1.494840E+05  1.166693E-09 -1.366882E-10
       360  15 -1.577230E+03  6.695959E+05  3.466571E+04 -1.904818E+05  4.212897E-10 -3.900044E-09
       360  16 -1.099040E+05 -1.230377E+05 -9.030379E+04 -1.420498E+05 -1.428233E-11  1.103354E-09
       360  17 -1.239286E+05  1.208741E+05 -6.647758E+04 -1.302943E+05  7.413196E-10 -3.578083E-09
       360  18 -7.120021E+04  3.812273E+05 -2.558757E+04 -2.003229E+05 -3.488814E-10 -4.669548E-09
       360  19  2.842417E+05  1.462588E+06  2.931762E+05 -2.385195E+05 -8.238506E+03 -9.569273E+04
       360  20  1.383360E+05  1.197662E+06  1.676700E+05 -1.686896E+05 -2.314320E+04 -4.350152E+04
       360  21  6.804111E+04  9.580434E+05  9.491505E+04 -1.806362E+05 -1.573417E+04  8.720979E+03
       360  22  8.718758E+04  6.694856E+05  1.014578E+05 -1.902539E+05 -8.323299E+03 -6.573483E+04
       360  23  7.213109E+03  6.591325E+05  5.060642E+04 -1.494833E+05 -2.315714E+04 -3.932194E+04
       360  24 -1.576922E+03  6.695961E+05  3.466648E+04 -1.904817E+05 -1.567335E+04 -1.285619E+04
       360  25 -1.099036E+05 -1.230363E+05 -9.030125E+04 -1.420495E+05 -8.403504E+03 -3.581496E+04
       360  26 -1.239277E+05  1.208755E+05 -6.647425E+04 -1.302937E+05 -2.317083E+04 -3.514592E+04
       360  27 -7.119963E+04  3.812286E+05 -2.558488E+04 -2.003224E+05 -1.561183E+04 -3.442351E+04
       361   1  2.938755E+04  7.695375E+05  5.371527E+04 -1.933284E+05  5.181003E+03 -8.899447E+03
       361   2 -3.470740E+04  5.156642E+05  3.877323E+02 -1.487947E+05 -8.832103E+03 -2.384685E+04
       361   3 -8.984991E+04  2.655238E+05 -4.110843E+04 -1.871601E+05 -2.245017E+04 -3.878530E+04
       361   4  4.233286E+03  6.658147E+05  3.166914E+04 -1.906835E+05  5.133674E+03  7.532838E+03
       361   5  1.001005E+03  6.639270E+05  3.075368E+04 -1.492314E+05 -8.876806E+03 -7.874430E+03
       361   6  6.803019E+03  6.657894E+05  4.198841E+04 -1.906761E+05 -2.249236E+04 -2.327856E+04
       361   7 -2.092150E+04  5.621026E+05  9.623418E+03 -1.880391E+05  5.086481E+03  2.396242E+04
       361   8  3.670817E+04  8.122112E+05  6.111943E+04 -1.496683E+05 -8.921525E+03  8.101737E+03
       361   9  1.034459E+05  1.066207E+06  1.250774E+05 -1.941942E+05 -2.253470E+04 -7.761993E+03
       361  10  2.938750E+04  7.695375E+05  5.371507E+04 -1.933284E+05  1.971208E-10  2.351297E-09
       361  11 -3.470764E+04  5.156636E+05  3.865177E+02 -1.487948E+05  1.249159E-09 -4.369461E-09
       361  12 -8.985085E+04  2.655221E+05 -4.111220E+04 -1.871608E+05 -4.826378E-10  3.215396E-09
       361  13  4.233242E+03  6.658146E+05  3.166899E+04 -1.906835E+05  1.487123E-10 -2.605430E-10
       361  14  1.000904E+03  6.639269E+05  3.075342E+04 -1.492315E+05  1.584825E-09 -1.849694E-10
       361  15  6.802330E+03  6.657887E+05  4.198644E+04 -1.906765E+05  2.326547E-09 -4.076524E-09
       361  16 -2.092169E+04  5.621020E+05  9.622291E+03 -1.880392E+05 -2.630338E-11 -7.845516E-10
       361  17  3.670807E+04  8.122111E+05  6.111916E+04 -1.496682E+05 -1.714929E-09 -3.901089E-09
       361  18  1.034454E+05  1.066207E+06  1.250763E+05 -1.941944E+05 -8.912227E-10 -4.721294E-09
       361  19  2.938755E+04  7.695375E+05  5.371527E+04 -1.933284E+05 -5.181003E+03  8.899447E+03
       361  20 -3.470740E+04  5.156642E+05  3.877323E+02 -1.487947E+05  8.832103E+03  2.384685E+04
       361  21 -8.984991E+04  2.655238E+05 -4.110843E+04 -1.871601E+05  2.245017E+04  3.878530E+04
       361  22  4.233286E+03  6.658147E+05  3.166914E+04 -1.906835E+05 -5.133674E+03 -7.532838E+03
       361  23  1.001005E+03  6.639270E+05  3.075368E+04 -1.492314E+05  8.876806E+03  7.874430E+03
       361  24  6.803019E+03  6.657894E+05  4.198841E+04 -1.906761E+05  2.249236E+04  2.327856E+04
       361  25 -2.092150E+04  5.621026E+05  9.623418E+03 -1.880391E+05 -5.086481E+03 -2.396242E+04
       361  26  3.670817E+04  8.122112E+05  6.111943E+04 -1.496683E+05  8.921525E+03 -8.101737E+03
       361  27  1.034459E+05  1.066207E+06  1.250774E+05 -1.941942E+05  2.253470E+04  7.761993E+03
       362   1 -1.447581E+05  8.762956E+04 -7.081533E+04 -2.074793E+05 -3.328779E+04 -5.309359E+04
       362   2 -1.912814E+05 -1.794992E+05 -9.769055E+04 -1.174191E+05 -3.797378E+04 -6.177639E+04
       362   3 -1.226599E+05 -4.169014E+05 -9.018068E+04 -1.087598E+05 -1.278949E+04 -7.039159E+04
       362   4 -3.649784E+03  6.728310E+05  5.032193E+04 -1.904199E+05 -3.334854E+04 -3.049708E+04
       362   5  1.175352E+04  6.549544E+05  8.231138E+04 -1.495512E+05 -3.793761E+04 -7.363039E+04
       362   6  1.481850E+05  6.726550E+05  1.725531E+05 -1.900590E+05 -1.267313E+04 -1.167011E+05
       362   7  1.374383E+05  1.258359E+06  1.714427E+05 -1.733439E+05 -3.340801E+04 -7.879636E+03
       362   8  2.147464E+05  1.490064E+06  2.622733E+05 -1.817266E+05 -3.790024E+04 -8.550006E+04
       362   9  4.189687E+05  1.763315E+06  4.352135E+05 -2.715008E+05 -1.254477E+04 -1.630915E+05
       362  10 -1.447601E+05  8.762623E+04 -7.082272E+04 -2.074807E+05  1.369351E-10  1.395640E-09
       362  11 -1.912840E+05 -1.795037E+05 -9.770044E+04 -1.174210E+05 -6.891035E-10 -3.964886E-09
       362  12 -1.226615E+05 -4.169067E+05 -9.019031E+04 -1.087605E+05 -1.081033E-09  1.827204E-09
       362  13 -3.651229E+03  6.728297E+05  5.031809E+04 -1.904207E+05 -1.695303E-09 -1.649292E-10
       362  14  1.175052E+04  6.549482E+05  8.229849E+04 -1.495535E+05  8.258414E-11  1.841030E-11
       362  15  1.481811E+05  6.726403E+05  1.725272E+05 -1.900602E+05 -8.911231E-10 -2.747988E-09
       362  16  1.374371E+05  1.258358E+06  1.714405E+05 -1.733441E+05  1.699079E-10  1.948093E-10
       362  17  2.147429E+05  1.490056E+06  2.622569E+05 -1.817292E+05 -5.780759E-10 -3.406617E-09
       362  18  4.189614E+05  1.763287E+06  4.351633E+05 -2.715024E+05 -1.220592E-09 -3.200189E-09
       362  19 -1.447581E+05  8.762956E+04 -7.081533E+04 -2.074793E+05  3.328779E+04  5.309359E+04
       362  20 -1.912814E+05 -1.794992E+05 -9.769055E+04 -1.174191E+05  3.797378E+04  6.177639E+04
       362  21 -1.226599E+05 -4.169014E+05 -9.018068E+04 -1.087598E+05  1.278949E+04  7.039159E+04
       362  22 -3.649784E+03  6.728310E+05  5.032193E+04 -1.904199E+05  3.334854E+04  3.049708E+04
       362  23  1.175352E+04  6.549544E+05  8.231138E+04 -1.495512E+05  3.793761E+04  7.363039E+04
       362  24  1.481850E+05  6.726550E+05  1.725531E+05 -1.900590E+05  1.267313E+04  1.167011E+05
       362  25  1.374383E+05  1.258359E+06  1.714427E+05 -1.733439E+05  3.340801E+04  7.879636E+03
       362  26  2.147464E+05  1.490064E+06  2.622733E+05 -1.817266E+05  3.790024E+04  8.550006E+04
       362  27  4.189687E+05  1.763315E+06  4.352135E+05 -2.715008E+05  1.254477E+04  1.630915E+05
       363   1  6.591552E+05  2.379802E+05  1.376715E+05  2.193731E+05  2.300723E+04 -1.299996E+03
       363   2  6.208467E+05  2.283093E+05  1.190642E+05  2.026582E+05  1.621604E+04 -2.600124E+04
       363   3  5.717478E+05  2.216106E+05  1.089525E+05  1.999342E+05  3.189512E+03 -3.418262E+04
       363   4  7.263090E+04  2.323206E+04 -1.579131E+04  6.494058E+04 -6.819493E+03 -1.256423E+04
       363   5  8.067875E+04  2.964526E+04 -7.006120E+03  5.563161E+04  4.225368E+03 -3.053382E+04
       363   6  7.439820E+04  3.549464E+04 -3.857313E+03  6.031500E+04  9.030838E+03 -3.197695E+04
       363   7 -5.135460E+05 -1.914939E+05 -1.692756E+05 -8.935861E+04 -3.661458E+04 -2.381728E+04
       363   8 -4.591917E+05 -1.689962E+05 -1.330941E+05 -9.127726E+04 -7.753818E+03 -3.506219E+04
       363   9 -4.227021E+05 -1.506006E+05 -1.166829E+05 -7.920129E+04  1.486709E+04 -2.977324E+04
       363  10  6.591546E+05  2.379801E+05  1.376705E+05  2.193731E+05 -4.322804E-10  2.857778E-09
       363  11  6.208462E+05  2.283085E+05  1.190624E+05  2.026585E+05 -2.481052E-09 -5.782385E-09
       363  12  5.717475E+05  2.216093E+05  1.089502E+05  1.999343E+05 -2.611456E-09  1.187280E-09
       363  13  7.263081E+04  2.323188E+04 -1.579169E+04  6.494051E+04  7.882134E-10  1.661046E-09
       363  14  8.067848E+04  2.964426E+04 -7.007905E+03  5.563171E+04 -4.605517E-09 -7.162949E-09
       363  15  7.439784E+04  3.549352E+04 -3.859388E+03  6.031523E+04 -1.842049E-09 -3.743417E-09
       363  16 -5.135476E+05 -1.914949E+05 -1.692792E+05 -8.935931E+04 -3.038254E-09 -1.444982E-09
       363  17 -4.591921E+05 -1.689975E+05 -1.330965E+05 -9.127747E+04 -2.269080E-09 -2.731312E-09
       363  18 -4.227026E+05 -1.506016E+05 -1.166849E+05 -7.920093E+04 -9.219819E-10 -3.379395E-09
       363  19  6.591552E+05  2.379802E+05  1.376715E+05  2.193731E+05 -2.300723E+04  1.299996E+03
       363  20  6.208467E+05  2.283093E+05  1.190642E+05  2.026582E+05 -1.621604E+04  2.600124E+04
       363  21  5.717478E+05  2.216106E+05  1.089525E+05  1.999342E+05 -3.189512E+03  3.418262E+04
       363  22  7.263090E+04  2.323206E+04 -1.579131E+04  6.494058E+04  6.819493E+03  1.256423E+04
       363  23  8.067875E+04  2.964526E+04 -7.006120E+03  5.563161E+04 -4.225368E+03  3.053382E+04
       363  24  7.439820E+04  3.549464E+04 -3.857313E+03  6.031500E+04 -9.030838E+03  3.197695E+04
       363  25 -5.135460E+05 -1.914939E+05 -1.692756E+05 -8.935861E+04  3.661458E+04  2.381728E+04
       363  26 -4.591917E+05 -1.689962E+05 -1.330941E+05 -9.127726E+04  7.753818E+03  3.506219E+04
       363  27 -4.227021E+05 -1.506006E+05 -1.166829E+05 -7.920129E+04 -1.486709E+04  2.977324E+04
       364   1  5.419881E+05  2.080328E+05  1.032286E+05  1.904765E+05  7.108930E+03 -2.971031E+04
       364   2  5.060653E+05  1.880140E+05  9.464424E+04  1.730935E+05  6.401179E+03 -2.803926E+04
       364   3  4.595135E+05  1.782277E+05  8.602996E+04  1.677846E+05  5.389438E+03 -2.556809E+04
       364   4  7.474730E+04  3.475767E+04 -3.010730E+03  6.106271E+04  8.509806E+03 -2.918271E+04
       364   5  8.019464E+04  3.001629E+04 -1.578017E+03  5.491849E+04  8.665536E+03 -2.718455E+04
       364   6  7.484049E+04  3.533661E+04 -8.597203E+02  6.084829E+04  8.517177E+03 -2.438596E+04
       364   7 -3.922776E+05 -1.385018E+05 -1.092652E+05 -6.826293E+04  9.909549E+03 -2.865555E+04
       364   8 -3.454952E+05 -1.279678E+05 -9.781237E+04 -6.318281E+04  1.092822E+04 -2.633047E+04
       364   9 -3.096838E+05 -1.075428E+05 -8.775895E+04 -4.602743E+04  1.164282E+04 -2.320464E+04
       364  10  5.419878E+05  2.080318E+05  1.032269E+05  1.904767E+05 -6.089646E-10 -8.027580E-10
       364  11  5.060650E+05  1.880131E+05  9.464269E+04  1.730937E+05 -3.047923E-09  3.619620E-09
       364  12  4.595132E+05  1.782270E+05  8.602868E+04  1.677848E+05 -4.112260E-09  3.716123E-11
       364  13  7.474699E+04  3.475674E+04 -3.012466E+03  6.106291E+04  2.661651E-09 -1.531311E-09
       364  14  8.019436E+04  3.001548E+04 -1.579547E+03  5.491868E+04  4.334881E-10  1.373235E-08
       364  15  7.484026E+04  3.533595E+04 -8.609742E+02  6.084846E+04  1.797113E-09 -4.757812E-09
       364  16 -3.922779E+05 -1.385027E+05 -1.092669E+05 -6.826270E+04  1.909776E-09 -4.838943E-09
       364  17 -3.454955E+05 -1.279686E+05 -9.781390E+04 -6.318258E+04  2.662750E-09 -7.775191E-09
       364  18 -3.096841E+05 -1.075435E+05 -8.776021E+04 -4.602722E+04  3.975779E-09 -3.582094E-11
       364  19  5.419881E+05  2.080328E+05  1.032286E+05  1.904765E+05 -7.108930E+03  2.971031E+04
       364  20  5.060653E+05  1.880140E+05  9.464424E+04  1.730935E+05 -6.401179E+03  2.803926E+04
       364  21  4.595135E+05  1.782277E+05  8.602996E+04  1.677846E+05 -5.389438E+03  2.556809E+04
       364  22  7.474730E+04  3.475767E+04 -3.010730E+03  6.106271E+04 -8.509806E+03  2.918271E+04
       364  23  8.019464E+04  3.001629E+04 -1.578017E+03  5.491849E+04 -8.665536E+03  2.718455E+04
       364  24  7.484049E+04  3.533661E+04 -8.597203E+02  6.084829E+04 -8.517177E+03  2.438596E+04
       364  25 -3.922776E+05 -1.385018E+05 -1.092652E+05 -6.826293E+04 -9.909549E+03  2.865555E+04
       364  26 -3.454952E+05 -1.279678E+05 -9.781237E+04 -6.318281E+04 -1.092822E+04  2.633047E+04
       364  27 -3.096838E+05 -1.075428E+05 -8.775895E+04 -4.602743E+04 -1.164282E+04  2.320464E+04
       365   1  4.287216E+05  1.666484E+05  7.905162E+04  1.592007E+05  5.098963E+03 -2.378039E+04
       365   2  3.929319E+05  1.461745E+05  7.019203E+04  1.418024E+05  4.200753E+03 -2.101586E+04
       365   3  3.465648E+05  1.362694E+05  6.123921E+04  1.363836E+05  3.287144E+03 -1.821372E+04
       365   4  7.487229E+04  3.530587E+04 -6.458339E+02  6.088290E+04  8.009979E+03 -2.267985E+04
       365   5  8.017403E+04  3.004710E+04 -3.399973E+02  5.488705E+04  7.152394E+03 -1.989935E+04
       365   6  7.488783E+04  3.534937E+04 -1.598089E+02  6.087055E+04  6.279411E+03 -1.708122E+04
       365   7 -2.788489E+05 -9.602597E+04 -8.035068E+04 -3.738302E+04  1.091918E+04 -2.157999E+04
       365   8 -2.324855E+05 -8.607263E+04 -7.087828E+04 -3.198827E+04  1.010242E+04 -1.878346E+04
       365   9 -1.967166E+05 -6.556548E+04 -6.156403E+04 -1.461268E+04  9.270277E+03 -1.594925E+04
       365  10  4.287214E+05  1.666478E+05  7.905050E+04  1.592008E+05 -6.594000E-09 -9.421754E-10
       365  11  3.929318E+05  1.461741E+05  7.019116E+04  1.418025E+05 -3.708962E-09  1.085878E-08
       365  12  3.465647E+05  1.362690E+05  6.123856E+04  1.363836E+05  4.404757E-09  3.389787E-09
       365  13  7.487208E+04  3.530530E+04 -6.469211E+02  6.088304E+04 -1.968952E-09 -5.006512E-09
       365  14  8.017387E+04  3.004666E+04 -3.408376E+02  5.488716E+04 -3.627446E-10  5.354569E-10
       365  15  7.488771E+04  3.534905E+04 -1.604313E+02  6.087063E+04 -9.808733E-10  4.006511E-09
       365  16 -2.788491E+05 -9.602650E+04 -8.035178E+04 -3.738283E+04  6.229652E-09  1.739627E-09
       365  17 -2.324857E+05 -8.607303E+04 -7.087914E+04 -3.198812E+04 -2.179181E-09  9.296133E-09
       365  18 -1.967168E+05 -6.556577E+04 -6.156467E+04 -1.461256E+04 -3.159540E-09 -1.897123E-09
       365  19  4.287216E+05  1.666484E+05  7.905162E+04  1.592007E+05 -5.098963E+03  2.378039E+04
       365  20  3.929319E+05  1.461745E+05  7.019203E+04  1.418024E+05 -4.200753E+03  2.101586E+04
       365  21  3.465648E+05  1.362694E+05  6.123921E+04  1.363836E+05 -3.287144E+03  1.821372E+04
       365  22  7.487229E+04  3.530587E+04 -6.458339E+02  6.088290E+04 -8.009979E+03  2.267985E+04
       365  23  8.017403E+04  3.004710E+04 -3.399973E+02  5.488705E+04 -7.152394E+03  1.989935E+04
       365  24  7.488783E+04  3.534937E+04 -1.598089E+02  6.087055E+04 -6.279411E+03  1.708122E+04
       365  25 -2.788489E+05 -9.602597E+04 -8.035068E+04 -3.738302E+04 -1.091918E+04  2.157999E+04
       365  26 -2.324855E+05 -8.607263E+04 -7.087828E+04 -3.198827E+04 -1.010242E+04  1.878346E+04
       365  27 -1.967166E+05 -6.556548E+04 -6.156403E+04 -1.461268E+04 -9.270277E+03  1.594925E+04
       366   1  3.157538E+05  1.247845E+05  5.408315E+04  1.278395E+05  2.709579E+03 -1.658925E+04
       366   2  2.800074E+05  1.042950E+05  4.507064E+04  1.104488E+05  1.659860E+03 -1.382783E+04
       366   3  2.336934E+05  9.438461E+04  3.606288E+04  1.050217E+05  6.090383E+02 -1.106537E+04
       366   4  7.489425E+04  3.534919E+04 -9.982739E+01  6.086980E+04  5.690478E+03 -1.546075E+04
       366   5  8.018276E+04  3.006671E+04  5.121290E+00  5.488683E+04  4.641892E+03 -1.269852E+04
       366   6  7.490136E+04  3.536306E+04  1.137732E+02  6.086682E+04  3.592201E+03 -9.935255E+03
       366   7 -1.659069E+05 -5.408155E+04 -5.428646E+04 -6.076082E+03  8.670123E+03 -1.433273E+04
       366   8 -1.196010E+05 -4.415814E+04 -4.506275E+04 -6.585864E+02  7.622873E+03 -1.156961E+04
       366   9 -8.386425E+04 -2.365612E+04 -3.583665E+04  1.672255E+04  6.574517E+03 -8.805456E+03
       366  10  3.157538E+05  1.247842E+05  5.408262E+04  1.278395E+05  2.098711E-09  3.393700E-09
       366  11  2.800073E+05  1.042948E+05  4.507028E+04  1.104488E+05 -1.319137E-09 -9.078952E-10
       366  12  2.336933E+05  9.438448E+04  3.606265E+04  1.050217E+05 -3.100333E-09 -2.016066E-09
       366  13  7.489415E+04  3.534892E+04 -1.003375E+02  6.086987E+04 -6.061265E-13  1.707458E-10
       366  14  8.018269E+04  3.006654E+04  4.777756E+00  5.488688E+04  1.336548E-09  8.725267E-11
       366  15  7.490132E+04  3.536295E+04  1.135635E+02  6.086685E+04  8.608694E-10 -1.309348E-09
       366  16 -1.659070E+05 -5.408179E+04 -5.428699E+04 -6.075982E+03 -1.927227E-09 -3.467744E-09
       366  17 -1.196011E+05 -4.415830E+04 -4.506311E+04 -6.585154E+02  5.209674E-10  6.861021E-09
       366  18 -8.386432E+04 -2.365621E+04 -3.583688E+04  1.672259E+04  6.685447E-10  5.264368E-09
       366  19  3.157538E+05  1.247845E+05  5.408315E+04  1.278395E+05 -2.709579E+03  1.658925E+04
       366  20  2.800074E+05  1.042950E+05  4.507064E+04  1.104488E+05 -1.659860E+03  1.382783E+04
       366  21  2.336934E+05  9.438461E+04  3.606288E+04  1.050217E+05 -6.090383E+02  1.106537E+04
       366  22  7.489425E+04  3.534919E+04 -9.982739E+01  6.086980E+04 -5.690478E+03  1.546075E+04
       366  23  8.018276E+04  3.006671E+04  5.121290E+00  5.488683E+04 -4.641892E+03  1.269852E+04
       366  24  7.490136E+04  3.536306E+04  1.137732E+02  6.086682E+04 -3.592201E+03  9.935255E+03
       366  25 -1.659069E+05 -5.408155E+04 -5.428646E+04 -6.076082E+03 -8.670123E+03  1.433273E+04
       366  26 -1.196010E+05 -4.415814E+04 -4.506275E+04 -6.585864E+02 -7.622873E+03  1.156961E+04
       366  27 -8.386425E+04 -2.365612E+04 -3.583665E+04  1.672255E+04 -6.574517E+03  8.805456E+03
       367   1  2.029061E+05  8.290479E+04  2.891241E+04  9.648201E+04 -2.406536E+01 -9.465424E+03
       367   2  1.671721E+05  6.241250E+04  1.998669E+04  7.909965E+04 -1.250541E+03 -6.769962E+03
       367   3  1.208889E+05  5.250646E+04  1.119595E+04  7.367890E+04 -2.476830E+03 -4.075779E+03
       367   4  7.490826E+04  3.536465E+04  1.774571E+02  6.086761E+04  2.958258E+03 -8.335453E+03
       367   5  8.018439E+04  3.007263E+04  3.636211E+02  5.488689E+04  1.730402E+03 -5.640342E+03
       367   6  7.491066E+04  3.536740E+04  6.860973E+02  6.086745E+04  5.027183E+02 -2.946513E+03
       367   7 -5.307394E+04 -1.217449E+04 -2.855873E+04  2.525971E+04  5.939934E+03 -7.205728E+03
       367   8 -6.795995E+03 -2.266735E+03 -1.925998E+04  3.067717E+04  4.710901E+03 -4.510891E+03
       367   9  2.893454E+04  1.822852E+04 -9.823860E+03  4.805687E+04  3.482028E+03 -1.817339E+03
       367  10  2.029061E+05  8.290469E+04  2.891224E+04  9.648201E+04 -3.129224E-09 -6.195075E-09
       367  11  1.671721E+05  6.241245E+04  1.998660E+04  7.909964E+04 -1.718060E-09 -7.182745E-10
       367  12  1.208889E+05  5.250644E+04  1.119591E+04  7.367889E+04 -8.766375E-10 -1.435758E-11
       367  13  7.490823E+04  3.536457E+04  1.773101E+02  6.086763E+04 -1.934503E-09 -1.304725E-09
       367  14  8.018438E+04  3.007260E+04  3.635556E+02  5.488690E+04 -3.649516E-09  3.092391E-09
       367  15  7.491065E+04  3.536739E+04  6.860805E+02  6.086745E+04 -9.453281E-10  4.783941E-09
       367  16 -5.307399E+04 -1.217456E+04 -2.855889E+04  2.525974E+04  2.659298E-09  4.110355E-09
       367  17 -6.796024E+03 -2.266763E+03 -1.926006E+04  3.067718E+04 -2.346223E-10  3.526745E-10
       367  18  2.893452E+04  1.822851E+04 -9.823889E+03  4.805687E+04  1.168072E-09 -5.673467E-09
       367  19  2.029061E+05  8.290479E+04  2.891241E+04  9.648201E+04  2.406536E+01  9.465424E+03
       367  20  1.671721E+05  6.241250E+04  1.998669E+04  7.909965E+04  1.250541E+03  6.769962E+03
       367  21  1.208889E+05  5.250646E+04  1.119595E+04  7.367890E+04  2.476830E+03  4.075779E+03
       367  22  7.490826E+04  3.536465E+04  1.774571E+02  6.086761E+04 -2.958258E+03  8.335453E+03
       367  23  8.018439E+04  3.007263E+04  3.636211E+02  5.488689E+04 -1.730402E+03  5.640342E+03
       367  24  7.491066E+04  3.536740E+04  6.860973E+02  6.086745E+04 -5.027183E+02  2.946513E+03
       367  25 -5.307394E+04 -1.217449E+04 -2.855873E+04  2.525971E+04 -5.939934E+03  7.205728E+03
       367  26 -6.795995E+03 -2.266735E+03 -1.925998E+04  3.067717E+04 -4.710901E+03  4.510891E+03
       367  27  2.893454E+04  1.822852E+04 -9.823860E+03  4.805687E+04 -3.482028E+03  1.817339E+03
       368   1  9.012061E+04  4.103693E+04  4.219589E+03  6.516776E+04 -3.225168E+03 -2.518679E+03
       368   2  5.433542E+04  2.052735E+04 -4.138591E+03  4.777433E+04 -5.085246E+03 -7.093098E+01
       368   3  8.124995E+03  1.071922E+04 -1.186012E+04  4.234222E+04 -6.937526E+03  2.356781E+03
       368   4  7.493501E+04  3.536316E+04  9.208865E+02  6.087911E+04 -2.404214E+02 -1.387411E+03
       368   5  8.015191E+04  3.005192E+04  1.679138E+03  5.488291E+04 -2.122296E+03  1.052019E+03
       368   6  7.494613E+04  3.544622E+04  3.091278E+03  6.084725E+04 -3.996442E+03  3.471403E+03
       368   7  5.974975E+04  2.968944E+04 -2.377765E+03  5.659059E+04  2.744228E+03 -2.561795E+02
       368   8  1.059691E+05  3.957655E+04  7.496861E+03  6.199176E+04  8.407870E+02  2.175018E+03
       368   9  1.417722E+05  6.017372E+04  1.804255E+04  7.935422E+04 -1.054997E+03  4.586161E+03
       368  10  9.012060E+04  4.103692E+04  4.219558E+03  6.516775E+04  4.690345E-11  4.206270E-09
       368  11  5.433540E+04  2.052734E+04 -4.138639E+03  4.777433E+04  6.290564E-10  6.583603E-09
       368  12  8.124941E+03  1.071921E+04 -1.186022E+04  4.234223E+04  2.456194E-10  1.166492E-09
       368  13  7.493501E+04  3.536315E+04  9.208828E+02  6.087911E+04 -1.165044E-09 -1.102381E-09
       368  14  8.015191E+04  3.005192E+04  1.679127E+03  5.488291E+04  3.156862E-11 -2.709965E-09
       368  15  7.494611E+04  3.544620E+04  3.091225E+03  6.084726E+04  1.312591E-09 -1.430091E-09
       368  16  5.974974E+04  2.968944E+04 -2.377780E+03  5.659060E+04 -1.164723E-10 -2.908408E-09
       368  17  1.059691E+05  3.957654E+04  7.496851E+03  6.199176E+04  3.727055E-09 -6.223053E-09
       368  18  1.417722E+05  6.017370E+04  1.804250E+04  7.935422E+04 -3.529346E-10  2.526728E-09
       368  19  9.012061E+04  4.103693E+04  4.219589E+03  6.516776E+04  3.225168E+03  2.518679E+03
       368  20  5.433542E+04  2.052735E+04 -4.138591E+03  4.777433E+04  5.085246E+03  7.093098E+01
       368  21  8.124995E+03  1.071922E+04 -1.186012E+04  4.234222E+04  6.937526E+03 -2.356781E+03
       368  22  7.493501E+04  3.536316E+04  9.208865E+02  6.087911E+04  2.404214E+02  1.387411E+03
       368  23  8.015191E+04  3.005192E+04  1.679138E+03  5.488291E+04  2.122296E+03 -1.052019E+03
       368  24  7.494613E+04  3.544622E+04  3.091278E+03  6.084725E+04  3.996442E+03 -3.471403E+03
       368  25  5.974975E+04  2.968944E+04 -2.377765E+03  5.659059E+04 -2.744228E+03  2.561795E+02
       368  26  1.059691E+05  3.957655E+04  7.496861E+03  6.199176E+04 -8.407870E+02 -2.175018E+03
       368  27  1.417722E+05  6.017372E+04  1.804255E+04  7.935422E+04  1.054997E+03 -4.586161E+03
       369   1 -2.278494E+04 -6.436046E+02 -1.805091E+04  3.429017E+04 -8.244763E+03  3.729718E+03
       369   2 -5.848963E+04 -2.156810E+04 -2.393487E+04  1.611451E+04 -1.253777E+04  5.102908E+03
       369   3 -1.034532E+05 -2.959267E+04 -2.673586E+04  9.419049E+03 -1.667323E+04  6.062339E+03
       369   4  7.512416E+04  3.526594E+04  4.096608E+03  6.100026E+04 -5.192312E+03  4.886458E+03
       369   5  7.989242E+04  3.005225E+04  7.430021E+03  5.477475E+04 -9.932748E+03  6.089824E+03
       369   6  7.548823E+04  3.782634E+04  1.420057E+04  6.002847E+04 -1.451587E+04  6.879393E+03
       369   7  1.730429E+05  7.117617E+04  2.624354E+04  8.771419E+04 -2.139340E+03  6.043390E+03
       369   8  2.182933E+05  8.167398E+04  3.879357E+04  9.344278E+04 -7.327100E+03  7.076978E+03
       369   9  2.544607E+05  1.052476E+05  5.513457E+04  1.106510E+05 -1.235784E+04  7.696705E+03
       369  10 -2.278502E+04 -6.436377E+02 -1.805106E+04  3.429019E+04 -7.878965E-09 -4.840052E-09
       369  11 -5.848981E+04 -2.156817E+04 -2.393521E+04  1.611456E+04 -1.548499E-09  1.031680E-08
       369  12 -1.034535E+05 -2.959278E+04 -2.673645E+04  9.419130E+03  5.181613E-09  9.876366E-09
       369  13  7.512413E+04  3.526591E+04  4.096512E+03  6.100028E+04 -2.035389E-09  5.101101E-10
       369  14  7.989230E+04  3.005219E+04  7.429766E+03  5.477480E+04 -5.474370E-09 -1.807662E-08
       369  15  7.548799E+04  3.782623E+04  1.420008E+04  6.002855E+04  9.196163E-10 -9.747779E-09
       369  16  1.730429E+05  7.117613E+04  2.624346E+04  8.771420E+04  8.094845E-09  1.099890E-09
       369  17  2.182932E+05  8.167391E+04  3.879337E+04  9.344282E+04 -2.236106E-09  8.618436E-09
       369  18  2.544605E+05  1.052475E+05  5.513417E+04  1.106511E+05 -4.211786E-09 -4.156822E-09
       369  19 -2.278494E+04 -6.436046E+02 -1.805091E+04  3.429017E+04  8.244763E+03 -3.729718E+03
       369  20 -5.848963E+04 -2.156810E+04 -2.393487E+04  1.611451E+04  1.253777E+04 -5.102908E+03
       369  21 -1.034532E+05 -2.959267E+04 -2.673586E+04  9.419049E+03  1.667323E+04 -6.062339E+03
       369  22  7.512416E+04  3.526594E+04  4.096608E+03  6.100026E+04  5.192312E+03 -4.886458E+03
       369  23  7.989242E+04  3.005225E+04  7.430021E+03  5.477475E+04  9.932748E+03 -6.089824E+03
       369  24  7.548823E+04  3.782634E+04  1.420057E+04  6.002847E+04  1.451587E+04 -6.879393E+03
       369  25  1.730429E+05  7.117617E+04  2.624354E+04  8.771419E+04  2.139340E+03 -6.043390E+03
       369  26  2.182933E+05  8.167398E+04  3.879357E+04  9.344278E+04  7.327100E+03 -7.076978E+03
       369  27  2.544607E+05  1.052476E+05  5.513457E+04  1.106510E+05  1.235784E+04 -7.696705E+03
       370   1 -1.383340E+05 -3.912589E+04 -2.961173E+04  1.053614E+04 -2.198189E+04  6.484083E+03
       370   2 -1.662561E+05 -6.932573E+04 -2.608159E+04 -2.640521E+04 -3.023409E+04  3.198626E+03
       370   3 -1.851350E+05 -4.122442E+04 -3.152963E+03 -6.446876E+04 -3.525318E+04 -8.624163E+03
       370   4  7.783067E+04  3.361459E+04  1.819626E+04  6.278843E+04 -1.753314E+04  8.169280E+03
       370   5  7.654292E+04  3.246575E+04  3.297484E+04  5.239893E+04 -3.499834E+04  1.393116E+03
       370   6  8.611547E+04  9.143077E+04  7.445241E+04  4.088879E+04 -4.923191E+04 -1.391955E+04
       370   7  2.940442E+05  1.063574E+05  6.600202E+04  1.150569E+05 -1.308265E+04  9.854993E+03
       370   8  3.194009E+05  1.342660E+05  9.202690E+04  1.312327E+05 -3.976462E+04 -4.133734E+02
       370   9  3.574371E+05  2.241052E+05  1.520508E+05  1.462918E+05 -6.321715E+04 -1.921910E+04
       370  10 -1.383345E+05 -3.912607E+04 -2.961271E+04  1.053626E+04 -4.350203E-09 -6.213655E-09
       370  11 -1.662571E+05 -6.932599E+04 -2.608333E+04 -2.640513E+04 -6.710020E-10  4.895992E-09
       370  12 -1.851364E+05 -4.122484E+04 -3.155439E+03 -6.446901E+04  1.700731E-09 -7.409164E-10
       370  13  7.783032E+04  3.361443E+04  1.819556E+04  6.278854E+04  1.496839E-09 -9.068205E-09
       370  14  7.654160E+04  3.246542E+04  3.297253E+04  5.239897E+04  2.279497E-09  7.157759E-09
       370  15  8.611282E+04  9.142992E+04  7.444750E+04  4.088824E+04 -7.264779E-10  2.292566E-09
       370  16  2.940440E+05  1.063572E+05  6.600152E+04  1.150570E+05  5.979293E-09 -1.641641E-09
       370  17  3.193992E+05  1.342656E+05  9.202393E+04  1.312327E+05  9.188227E-10  1.128299E-08
       370  18  3.574327E+05  2.241037E+05  1.520426E+05  1.462908E+05 -4.256466E-09  6.567985E-10
       370  19 -1.383340E+05 -3.912589E+04 -2.961173E+04  1.053614E+04  2.198189E+04 -6.484083E+03
       370  20 -1.662561E+05 -6.932573E+04 -2.608159E+04 -2.640521E+04  3.023409E+04 -3.198626E+03
       370  21 -1.851350E+05 -4.122442E+04 -3.152963E+03 -6.446876E+04  3.525318E+04  8.624163E+03
       370  22  7.783067E+04  3.361459E+04  1.819626E+04  6.278843E+04  1.753314E+04 -8.169280E+03
       370  23  7.654292E+04  3.246575E+04  3.297484E+04  5.239893E+04  3.499834E+04 -1.393116E+03
       370  24  8.611547E+04  9.143077E+04  7.445241E+04  4.088879E+04  4.923191E+04  1.391955E+04
       370  25  2.940442E+05  1.063574E+05  6.600202E+04  1.150569E+05  1.308265E+04 -9.854993E+03
       370  26  3.194009E+05  1.342660E+05  9.202690E+04  1.312327E+05  3.976462E+04  4.133734E+02
       370  27  3.574371E+05  2.241052E+05  1.520508E+05  1.462918E+05  6.321715E+04  1.921910E+04
       371   1  1.148513E+05  3.755951E+04  2.981941E+04  3.235217E+03 -1.201012E+04 -3.891592E+03
       371   2  9.061101E+04  5.914654E+04  3.658150E+04  9.504868E+03 -1.127482E+04 -1.236238E+04
       371   3  6.001949E+04  5.591028E+04  3.666639E+04  2.442250E+04 -1.056289E+04 -1.344112E+04
       371   4 -1.669378E+05 -3.217697E+04 -3.771205E+04  1.992855E+04 -2.602268E+04 -3.936626E+03
       371   5 -1.630175E+05 -2.362203E+03 -1.757318E+04  1.555035E+04 -1.677363E+04 -1.238073E+04
       371   6 -1.669306E+05  1.145077E+03 -1.002704E+04  1.982060E+04 -7.547766E+03 -1.343144E+04
       371   7 -4.486531E+05 -1.019180E+05 -1.052482E+05  3.661422E+04 -4.002891E+04 -3.982423E+03
       371   8 -4.165853E+05 -6.387497E+04 -7.173145E+04  2.159327E+04 -2.227022E+04 -1.239919E+04
       371   9 -3.938317E+05 -5.362329E+04 -5.672319E+04  1.522037E+04 -4.533722E+03 -1.342180E+04
       371  10  1.148511E+05  3.755946E+04  2.981911E+04  3.235179E+03 -7.514618E-09  1.467289E-09
       371  11  9.061084E+04  5.914634E+04  3.658098E+04  9.504756E+03 -1.139712E-09  8.487148E-09
       371  12  6.001932E+04  5.591005E+04  3.666584E+04  2.442239E+04  4.690980E-09  3.690895E-09
       371  13 -1.669385E+05 -3.217717E+04 -3.771335E+04  1.992847E+04  1.816835E-09 -6.303647E-09
       371  14 -1.630178E+05 -2.362443E+03 -1.757400E+04  1.555018E+04  3.015882E-10 -1.271135E-08
       371  15 -1.669307E+05  1.144868E+03 -1.002749E+04  1.982052E+04  6.787696E-10  3.171010E-09
       371  16 -4.486548E+05 -1.019185E+05 -1.052513E+05  3.661409E+04  5.938405E-09 -1.478710E-09
       371  17 -4.165858E+05 -6.387527E+04 -7.173267E+04  2.159305E+04  1.330884E-10  4.667842E-09
       371  18 -3.938318E+05 -5.362349E+04 -5.672357E+04  1.522032E+04 -3.000352E-09 -2.496494E-09
       371  19  1.148513E+05  3.755951E+04  2.981941E+04  3.235217E+03  1.201012E+04  3.891592E+03
       371  20  9.061101E+04  5.914654E+04  3.658150E+04  9.504868E+03  1.127482E+04  1.236238E+04
       371  21  6.001949E+04  5.591028E+04  3.666639E+04  2.442250E+04  1.056289E+04  1.344112E+04
       371  22 -1.669378E+05 -3.217697E+04 -3.771205E+04  1.992855E+04  2.602268E+04  3.936626E+03
       371  23 -1.630175E+05 -2.362203E+03 -1.757318E+04  1.555035E+04  1.677363E+04  1.238073E+04
       371  24 -1.669306E+05  1.145077E+03 -1.002704E+04  1.982060E+04  7.547766E+03  1.343144E+04
       371  25 -4.486531E+05 -1.019180E+05 -1.052482E+05  3.661422E+04  4.002891E+04  3.982423E+03
       371  26 -4.165853E+05 -6.387497E+04 -7.173145E+04  2.159327E+04  2.227022E+04  1.239919E+04
       371  27 -3.938317E+05 -5.362329E+04 -5.672319E+04  1.522037E+04  4.533722E+03  1.342180E+04
       372   1  4.148935E+04  4.870603E+04  3.482413E+04  2.001478E+04 -7.377868E+03 -1.207236E+04
       372   2  1.444763E+04  4.331906E+04  3.244184E+04  1.580992E+04 -5.676523E+03 -1.083875E+04
       372   3 -1.314609E+04  3.688055E+04  2.867321E+04  2.058984E+04 -3.976869E+03 -9.214891E+03
       372   4 -1.653288E+05 -1.193110E+03 -7.847817E+03  1.992110E+04 -6.186627E+03 -1.206869E+04
       372   5 -1.650114E+05  7.246175E+01 -4.312219E+03  1.542624E+04 -4.036389E+03 -1.083343E+04
       372   6 -1.653254E+05  2.082448E+02 -2.475228E+03  1.991634E+04 -1.887775E+03 -9.207870E+03
       372   7 -3.721063E+05 -5.109495E+04 -5.052207E+04  1.982742E+04 -4.995775E+03 -1.206502E+04
       372   8 -3.444399E+05 -4.317616E+04 -4.106798E+04  1.504265E+04 -2.396720E+03 -1.082811E+04
       372   9 -3.174827E+05 -3.646551E+04 -3.362488E+04  1.924299E+04  2.008158E+02 -9.200852E+03
       372  10  4.148925E+04  4.870586E+04  3.482375E+04  2.001471E+04 -2.029677E-09 -2.266672E-10
       372  11  1.444756E+04  4.331893E+04  3.244156E+04  1.580987E+04 -8.069602E-10  4.795660E-09
       372  12 -1.314613E+04  3.688046E+04  2.867302E+04  2.058981E+04  4.092490E-09  1.021139E-08
       372  13 -1.653289E+05 -1.193276E+03 -7.848163E+03  1.992104E+04  2.193031E-09  1.326131E-08
       372  14 -1.650115E+05  7.233135E+01 -4.312470E+03  1.542620E+04  3.891959E-10 -1.919460E-08
       372  15 -1.653254E+05  2.081528E+02 -2.475394E+03  1.991633E+04 -3.235682E-10  7.535503E-09
       372  16 -3.721064E+05 -5.109512E+04 -5.052239E+04  1.982737E+04  1.005366E-09 -9.583910E-09
       372  17 -3.444399E+05 -4.317629E+04 -4.106821E+04  1.504263E+04 -4.552768E-10 -5.035609E-09
       372  18 -3.174827E+05 -3.646560E+04 -3.362504E+04  1.924299E+04 -2.509276E-09  2.020720E-09
       372  19  4.148935E+04  4.870603E+04  3.482413E+04  2.001478E+04  7.377868E+03  1.207236E+04
       372  20  1.444763E+04  4.331906E+04  3.244184E+04  1.580992E+04  5.676523E+03  1.083875E+04
       372  21 -1.314609E+04  3.688055E+04  2.867321E+04  2.058984E+04  3.976869E+03  9.214891E+03
       372  22 -1.653288E+05 -1.193110E+03 -7.847817E+03  1.992110E+04  6.186627E+03  1.206869E+04
       372  23 -1.650114E+05  7.246175E+01 -4.312219E+03  1.542624E+04  4.036389E+03  1.083343E+04
       372  24 -1.653254E+05  2.082448E+02 -2.475228E+03  1.991634E+04  1.887775E+03  9.207870E+03
       372  25 -3.721063E+05 -5.109495E+04 -5.052207E+04  1.982742E+04  4.995775E+03  1.206502E+04
       372  26 -3.444399E+05 -4.317616E+04 -4.106798E+04  1.504265E+04  2.396720E+03  1.082811E+04
       372  27 -3.174827E+05 -3.646551E+04 -3.362488E+04  1.924299E+04 -2.008158E+02  9.200852E+03
       373   1 -3.299181E+04  3.194629E+04  2.505608E+04  2.033702E+04 -3.499638E+03 -8.166487E+03
       373   2 -6.025618E+04  2.539118E+04  2.033770E+04  1.574518E+04 -2.996205E+03 -6.423984E+03
       373   3 -8.765938E+04  1.884627E+04  1.527511E+04  2.016602E+04 -2.493048E+03 -4.660577E+03
       373   4 -1.652158E+05  1.078762E+02 -1.888145E+03  1.992372E+04 -1.506230E+03 -8.159713E+03
       373   5 -1.651432E+05  1.266016E+02 -1.077500E+03  1.541726E+04 -9.788482E+02 -6.417026E+03
       373   6 -1.652139E+05  1.514854E+02 -6.276497E+02  1.992356E+04 -4.517203E+02 -4.653432E+03
       373   7 -2.974231E+05 -3.173163E+04 -2.883328E+04  1.951049E+04  4.867599E+02 -8.152940E+03
       373   8 -2.700197E+05 -2.513867E+04 -2.249327E+04  1.508938E+04  1.038174E+03 -6.410070E+03
       373   9 -2.427627E+05 -1.854367E+04 -1.653072E+04  1.968114E+04  1.589357E+03 -4.646288E+03
       373  10 -3.299184E+04  3.194622E+04  2.505594E+04  2.033700E+04  5.626497E-09 -3.116718E-09
       373  11 -6.025620E+04  2.539114E+04  2.033761E+04  1.574516E+04 -4.690155E-10 -3.897690E-09
       373  12 -8.765939E+04  1.884624E+04  1.527506E+04  2.016601E+04 -4.452118E-09 -2.348407E-09
       373  13 -1.652158E+05  1.078041E+02 -1.888274E+03  1.992371E+04  1.851530E-09 -2.085292E-09
       373  14 -1.651432E+05  1.265572E+02 -1.077579E+03  1.541725E+04 -1.005623E-09 -7.897886E-09
       373  15 -1.652139E+05  1.514621E+02 -6.276908E+02  1.992356E+04 -8.697352E-11 -1.679670E-09
       373  16 -2.974231E+05 -3.173170E+04 -2.883340E+04  1.951049E+04 -7.301318E-09 -5.838883E-09
       373  17 -2.700197E+05 -2.513871E+04 -2.249335E+04  1.508939E+04 -1.396952E-09  6.608690E-09
       373  18 -2.427627E+05 -1.854370E+04 -1.653076E+04  1.968114E+04  6.110750E-09  6.773003E-09
       373  19 -3.299181E+04  3.194629E+04  2.505608E+04  2.033702E+04  3.499638E+03  8.166487E+03
       373  20 -6.025618E+04  2.539118E+04  2.033770E+04  1.574518E+04  2.996205E+03  6.423984E+03
       373  21 -8.765938E+04  1.884627E+04  1.527511E+04  2.016602E+04  2.493048E+03  4.660577E+03
       373  22 -1.652158E+05  1.078762E+02 -1.888145E+03  1.992372E+04  1.506230E+03  8.159713E+03
       373  23 -1.651432E+05  1.266016E+02 -1.077500E+03  1.541726E+04  9.788482E+02  6.417026E+03
       373  24 -1.652139E+05  1.514854E+02 -6.276497E+02  1.992356E+04  4.517203E+02  4.653432E+03
       373  25 -2.974231E+05 -3.173163E+04 -2.883328E+04  1.951049E+04 -4.867599E+02  8.152940E+03
       373  26 -2.700197E+05 -2.513867E+04 -2.249327E+04  1.508938E+04 -1.038174E+03  6.410070E+03
       373  27 -2.427627E+05 -1.854367E+04 -1.653072E+04  1.968114E+04 -1.589357E+03  4.646288E+03
       374   1 -1.076012E+05  1.400782E+04  1.120270E+04  2.010189E+04 -2.391332E+03 -3.629223E+03
       374   2 -1.349040E+05  7.404870E+03  5.877966E+03  1.551098E+04 -2.251596E+03 -1.860118E+03
       374   3 -1.622889E+05  8.617048E+02  4.573661E+02  1.993697E+04 -2.111926E+03 -8.988430E+01
       374   4 -1.651999E+05  1.481896E+02 -4.837909E+02  1.992454E+04 -3.548365E+02 -3.622054E+03
       374   5 -1.651582E+05  1.174049E+02 -2.978404E+02  1.541608E+04 -2.138551E+02 -1.852917E+03
       374   6 -1.651994E+05  1.462272E+02 -2.086250E+02  1.992455E+04 -7.293298E+01 -8.264803E+01
       374   7 -2.227955E+05 -1.371165E+04 -1.217044E+04  1.974720E+04  1.681473E+03 -3.614887E+03
       374   8 -1.954114E+05 -7.170116E+03 -6.473680E+03  1.532119E+04  1.823788E+03 -1.845716E+03
       374   9 -1.681099E+05 -5.692487E+02 -8.746011E+02  1.991213E+04  1.966051E+03 -7.541183E+01
       374  10 -1.076012E+05  1.400781E+04  1.120266E+04  2.010188E+04  4.536989E-09 -8.310895E-09
       374  11 -1.349040E+05  7.404865E+03  5.877950E+03  1.551098E+04 -6.326442E-09 -2.571179E-09
       374  12 -1.622889E+05  8.617036E+02  4.573577E+02  1.993697E+04 -1.498330E-08  2.226006E-09
       374  13 -1.651999E+05  1.481754E+02 -4.838158E+02  1.992454E+04  1.872056E-09 -7.779135E-10
       374  14 -1.651582E+05  1.174012E+02 -2.978470E+02  1.541608E+04  6.793997E-10 -1.047427E-08
       374  15 -1.651994E+05  1.462272E+02 -2.086250E+02  1.992455E+04  8.470614E-10 -6.197599E-09
       374  16 -2.227955E+05 -1.371166E+04 -1.217047E+04  1.974721E+04 -5.967948E-09  1.867911E-09
       374  17 -1.954115E+05 -7.170120E+03 -6.473692E+03  1.532119E+04  5.734711E-09  7.125908E-09
       374  18 -1.681099E+05 -5.692497E+02 -8.746084E+02  1.991213E+04  1.688307E-08  2.281830E-09
       374  19 -1.076012E+05  1.400782E+04  1.120270E+04  2.010189E+04  2.391332E+03  3.629223E+03
       374  20 -1.349040E+05  7.404870E+03  5.877966E+03  1.551098E+04  2.251596E+03  1.860118E+03
       374  21 -1.622889E+05  8.617048E+02  4.573661E+02  1.993697E+04  2.111926E+03  8.988430E+01
       374  22 -1.651999E+05  1.481896E+02 -4.837909E+02  1.992454E+04  3.548365E+02  3.622054E+03
       374  23 -1.651582E+05  1.174049E+02 -2.978404E+02  1.541608E+04  2.138551E+02  1.852917E+03
       374  24 -1.651994E+05  1.462272E+02 -2.086250E+02  1.992455E+04  7.293298E+01  8.264803E+01
       374  25 -2.227955E+05 -1.371165E+04 -1.217044E+04  1.974720E+04 -1.681473E+03  3.614887E+03
       374  26 -1.954114E+05 -7.170116E+03 -6.473680E+03  1.532119E+04 -1.823788E+03  1.845716E+03
       374  27 -1.681099E+05 -5.692487E+02 -8.746011E+02  1.991213E+04 -1.966051E+03  7.541183E+01
       375   1 -1.822448E+05 -3.974349E+03 -3.741175E+03  1.988137E+04 -2.079391E+03  9.406428E+02
       375   2 -2.095486E+05 -1.057754E+04 -9.256485E+03  1.529397E+04 -1.987691E+03  2.710703E+03
       375   3 -2.369272E+05 -1.711984E+04 -1.483599E+04  1.972339E+04 -1.895911E+03  4.479527E+03
       375   4 -1.651978E+05  1.461992E+02 -1.895855E+02  1.992451E+04 -4.043967E+01  9.478747E+02
       375   5 -1.651604E+05  1.147696E+02 -1.952439E+02  1.541613E+04  4.978536E+01  2.717885E+03
       375   6 -1.651986E+05  1.444308E+02 -2.641764E+02  1.992452E+04  1.400944E+02  4.486661E+03
       375   7 -1.481506E+05  4.266731E+03  3.362003E+03  1.996766E+04  1.998567E+03  9.551068E+02
       375   8 -1.207703E+05  1.080696E+04  8.865909E+03  1.553829E+04  2.087405E+03  2.725067E+03
       375   9 -9.346506E+04  1.740838E+04  1.430739E+04  2.012566E+04  2.176330E+03  4.493796E+03
       375  10 -1.822448E+05 -3.974351E+03 -3.741185E+03  1.988137E+04 -3.668621E-09  1.929924E-09
       375  11 -2.095486E+05 -1.057755E+04 -9.256506E+03  1.529398E+04 -3.759595E-09 -6.612506E-09
       375  12 -2.369272E+05 -1.711986E+04 -1.483604E+04  1.972340E+04 -3.459476E-09 -4.517075E-09
       375  13 -1.651978E+05  1.461982E+02 -1.895872E+02  1.992451E+04  1.758382E-09  7.328840E-09
       375  14 -1.651604E+05  1.147617E+02 -1.952578E+02  1.541613E+04  2.743143E-10 -7.941745E-09
       375  15 -1.651986E+05  1.444092E+02 -2.642143E+02  1.992452E+04  3.488324E-10 -2.158956E-09
       375  16 -1.481506E+05  4.266729E+03  3.361994E+03  1.996766E+04  1.920116E-09  3.528054E-09
       375  17 -1.207703E+05  1.080695E+04  8.865887E+03  1.553829E+04  1.544448E-09 -1.040497E-08
       375  18 -9.346507E+04  1.740836E+04  1.430734E+04  2.012565E+04  5.571266E-09 -4.720966E-09
       375  19 -1.822448E+05 -3.974349E+03 -3.741175E+03  1.988137E+04  2.079391E+03 -9.406428E+02
       375  20 -2.095486E+05 -1.057754E+04 -9.256485E+03  1.529397E+04  1.987691E+03 -2.710703E+03
       375  21 -2.369272E+05 -1.711984E+04 -1.483599E+04  1.972339E+04  1.895911E+03 -4.479527E+03
       375  22 -1.651978E+05  1.461992E+02 -1.895855E+02  1.992451E+04  4.043967E+01 -9.478747E+02
       375  23 -1.651604E+05  1.147696E+02 -1.952439E+02  1.541613E+04 -4.978536E+01 -2.717885E+03
       375  24 -1.651986E+05  1.444308E+02 -2.641764E+02  1.992452E+04 -1.400944E+02 -4.486661E+03
       375  25 -1.481506E+05  4.266731E+03  3.362003E+03  1.996766E+04 -1.998567E+03 -9.551068E+02
       375  26 -1.207703E+05  1.080696E+04  8.865909E+03  1.553829E+04 -2.087405E+03 -2.725067E+03
       375  27 -9.346506E+04  1.740838E+04  1.430739E+04  2.012566E+04 -2.176330E+03 -4.493796E+03
       376   1 -2.568851E+05 -2.195349E+04 -1.911495E+04  1.966318E+04 -1.850994E+03  5.510732E+03
       376   2 -2.841596E+05 -2.855262E+04 -2.483689E+04  1.508129E+04 -1.566206E+03  7.273021E+03
       376   3 -3.115384E+05 -3.512130E+04 -3.075560E+04  1.950953E+04 -1.281134E+03  9.013336E+03
       376   4 -1.652047E+05  1.457469E+02 -3.270037E+02  1.992299E+04  1.899671E+02  5.517835E+03
       376   5 -1.651557E+05  1.158310E+02 -5.367364E+02  1.541802E+04  4.494696E+02  7.279919E+03
       376   6 -1.652068E+05  1.209020E+02 -9.255319E+02  1.992307E+04  7.092674E+02  9.020032E+03
       376   7 -7.351643E+04  2.224446E+04  1.846052E+04  2.018283E+04  2.231224E+03  5.524939E+03
       376   8 -4.613828E+04  2.878340E+04  2.376268E+04  1.575480E+04  2.465524E+03  7.286818E+03
       376   9 -1.885481E+04  3.536177E+04  2.890342E+04  2.033669E+04  2.700130E+03  9.026730E+03
       376  10 -2.568851E+05 -2.195353E+04 -1.911502E+04  1.966319E+04 -1.147766E-08  5.774366E-11
       376  11 -2.841596E+05 -2.855268E+04 -2.483699E+04  1.508130E+04 -2.890173E-09 -6.305003E-09
       376  12 -3.115385E+05 -3.512139E+04 -3.075575E+04  1.950954E+04  8.204319E-09 -3.594016E-09
       376  13 -1.652047E+05  1.457142E+02 -3.270610E+02  1.992299E+04  1.059102E-09 -3.152041E-09
       376  14 -1.651557E+05  1.157740E+02 -5.368363E+02  1.541801E+04  2.625637E-10  3.018749E-09
       376  15 -1.652068E+05  1.208145E+02 -9.256857E+02  1.992307E+04  4.269651E-10 -2.219784E-09
       376  16 -7.351644E+04  2.224443E+04  1.846045E+04  2.018282E+04  8.961914E-09  4.330021E-09
       376  17 -4.613830E+04  2.878334E+04  2.376257E+04  1.575478E+04  1.728005E-09 -7.670834E-09
       376  18 -1.885484E+04  3.536168E+04  2.890326E+04  2.033667E+04 -5.709308E-09  4.546923E-09
       376  19 -2.568851E+05 -2.195349E+04 -1.911495E+04  1.966318E+04  1.850994E+03 -5.510732E+03
       376  20 -2.841596E+05 -2.855262E+04 -2.483689E+04  1.508129E+04  1.566206E+03 -7.273021E+03
       376  21 -3.115384E+05 -3.512130E+04 -3.075560E+04  1.950953E+04  1.281134E+03 -9.013336E+03
       376  22 -1.652047E+05  1.457469E+02 -3.270037E+02  1.992299E+04 -1.899671E+02 -5.517835E+03
       376  23 -1.651557E+05  1.158310E+02 -5.367364E+02  1.541802E+04 -4.494696E+02 -7.279919E+03
       376  24 -1.652068E+05  1.209020E+02 -9.255319E+02  1.992307E+04 -7.092674E+02 -9.020032E+03
       376  25 -7.351643E+04  2.224446E+04  1.846052E+04  2.018283E+04 -2.231224E+03 -5.524939E+03
       376  26 -4.613828E+04  2.878340E+04  2.376268E+04  1.575480E+04 -2.465524E+03 -7.286818E+03
       376  27 -1.885481E+04  3.536177E+04  2.890342E+04  2.033669E+04 -2.700130E+03 -9.026730E+03
       377   1 -3.315383E+05 -3.990562E+04 -3.524236E+04  1.935116E+04 -1.196378E+03  1.006122E+04
       377   2 -3.586357E+05 -4.656533E+04 -4.174421E+04  1.497103E+04  3.186489E+02  1.167716E+04
       377   3 -3.861470E+05 -5.382488E+04 -4.939945E+04  1.957334E+04  1.835282E+03  1.288394E+04
       377   4 -1.652598E+05  1.691184E+02 -1.209143E+03  1.991632E+04  8.941535E+02  1.006817E+04
       377   5 -1.650952E+05  8.479971E+01 -2.101044E+03  1.542634E+04  1.938301E+03  1.168234E+04
       377   6 -1.652633E+05 -5.173963E+02 -3.818981E+03  1.991863E+04  2.984121E+03  1.288739E+04
       377   7  1.045014E+03  4.024213E+04  3.282263E+04  2.048162E+04  2.985235E+03  1.007511E+04
       377   8  2.848097E+04  4.673258E+04  3.754015E+04  1.588176E+04  3.558450E+03  1.168751E+04
       377   9  5.566675E+04  5.278700E+04  4.175886E+04  2.026400E+04  4.133361E+03  1.289085E+04
       377  10 -3.315384E+05 -3.990573E+04 -3.524255E+04  1.935117E+04  1.171315E-08 -5.071079E-09
       377  11 -3.586357E+05 -4.656548E+04 -4.174447E+04  1.497103E+04 -1.677050E-09  1.476987E-09
       377  12 -3.861470E+05 -5.382505E+04 -4.939977E+04  1.957332E+04 -8.091195E-09 -5.531159E-10
       377  13 -1.652598E+05  1.690093E+02 -1.209335E+03  1.991631E+04  1.435707E-09 -5.870833E-09
       377  14 -1.650952E+05  8.465216E+01 -2.101307E+03  1.542632E+04 -7.151235E-10  8.137470E-09
       377  15 -1.652633E+05 -5.175770E+02 -3.819310E+03  1.991860E+04  3.829468E-10  8.693652E-10
       377  16  1.044978E+03  4.024202E+04  3.282242E+04  2.048159E+04 -1.345521E-08 -4.443260E-09
       377  17  2.848092E+04  4.673243E+04  3.753987E+04  1.588173E+04 -7.780501E-10 -1.551220E-08
       377  18  5.566669E+04  5.278682E+04  4.175851E+04  2.026396E+04  9.706322E-09  1.336213E-09
       377  19 -3.315383E+05 -3.990562E+04 -3.524236E+04  1.935116E+04  1.196378E+03 -1.006122E+04
       377  20 -3.586357E+05 -4.656533E+04 -4.174421E+04  1.497103E+04 -3.186489E+02 -1.167716E+04
       377  21 -3.861470E+05 -5.382488E+04 -4.939945E+04  1.957334E+04 -1.835282E+03 -1.288394E+04
       377  22 -1.652598E+05  1.691184E+02 -1.209143E+03  1.991632E+04 -8.941535E+02 -1.006817E+04
       377  23 -1.650952E+05  8.479971E+01 -2.101044E+03  1.542634E+04 -1.938301E+03 -1.168234E+04
       377  24 -1.652633E+05 -5.173963E+02 -3.818981E+03  1.991863E+04 -2.984121E+03 -1.288739E+04
       377  25  1.045014E+03  4.024213E+04  3.282263E+04  2.048162E+04 -2.985235E+03 -1.007511E+04
       377  26  2.848097E+04  4.673258E+04  3.754015E+04  1.588176E+04 -3.558450E+03 -1.168751E+04
       377  27  5.566675E+04  5.278700E+04  4.175886E+04  2.026400E+04 -4.133361E+03 -1.289085E+04
       378   1 -4.070703E+05 -5.753973E+04 -5.447047E+04  1.726183E+04  5.842308E+02  1.425384E+04
       378   2 -4.317491E+05 -6.605426E+04 -6.569764E+04  1.813947E+04  1.399830E+04  1.307859E+04
       378   3 -4.618060E+05 -8.888268E+04 -8.924789E+04  2.761481E+04  2.743544E+04  4.151953E+03
       378   4 -1.660416E+05  6.182261E+02 -4.878276E+03  1.982083E+04  3.644057E+03  1.426346E+04
       378   5 -1.641308E+05 -1.104938E+03 -8.549624E+03  1.554786E+04  8.135218E+03  1.305927E+04
       378   6 -1.660475E+05 -1.558913E+04 -1.834339E+04  1.987278E+04  1.265031E+04  4.104968E+03
       378   7  7.504236E+04  5.877254E+04  4.471084E+04  2.238080E+04  6.705050E+03  1.427311E+04
       378   8  1.035550E+05  6.383976E+04  4.859438E+04  1.295507E+04  2.269643E+03  1.303999E+04
       378   9  1.297918E+05  5.769843E+04  5.255576E+04  1.212698E+04 -2.141853E+03  4.058363E+03
       378  10 -4.070704E+05 -5.753995E+04 -5.447086E+04  1.726182E+04  6.155062E-10  1.191092E-09
       378  11 -4.317494E+05 -6.605449E+04 -6.569832E+04  1.813932E+04  5.087061E-09  5.074671E-09
       378  12 -4.618068E+05 -8.888291E+04 -8.924933E+04  2.761472E+04  7.139133E-09  6.512539E-09
       378  13 -1.660416E+05  6.180041E+02 -4.878683E+03  1.982079E+04  1.468848E-09  6.586654E-09
       378  14 -1.641310E+05 -1.105139E+03 -8.550069E+03  1.554778E+04  5.223509E-10  5.073891E-09
       378  15 -1.660477E+05 -1.558919E+04 -1.834373E+04  1.987274E+04  4.920102E-10  9.529388E-09
       378  16  7.504226E+04  5.877231E+04  4.471038E+04  2.238072E+04 -2.794695E-09  4.232982E-09
       378  17  1.035549E+05  6.383957E+04  4.859405E+04  1.295505E+04 -6.638670E-09  1.055680E-08
       378  18  1.297918E+05  5.769841E+04  5.255572E+04  1.212699E+04 -6.246663E-09 -2.194180E-09
       378  19 -4.070703E+05 -5.753973E+04 -5.447047E+04  1.726183E+04 -5.842308E+02 -1.425384E+04
       378  20 -4.317491E+05 -6.605426E+04 -6.569764E+04  1.813947E+04 -1.399830E+04 -1.307859E+04
       378  21 -4.618060E+05 -8.888268E+04 -8.924789E+04  2.761481E+04 -2.743544E+04 -4.151953E+03
       378  22 -1.660416E+05  6.182261E+02 -4.878276E+03  1.982083E+04 -3.644057E+03 -1.426346E+04
       378  23 -1.641308E+05 -1.104938E+03 -8.549624E+03  1.554786E+04 -8.135218E+03 -1.305927E+04
       378  24 -1.660475E+05 -1.558913E+04 -1.834339E+04  1.987278E+04 -1.265031E+04 -4.104968E+03
       378  25  7.504236E+04  5.877254E+04  4.471084E+04  2.238080E+04 -6.705050E+03 -1.427311E+04
       378  26  1.035550E+05  6.383976E+04  4.859438E+04  1.295507E+04 -2.269643E+03 -1.303999E+04
       378  27  1.297918E+05  5.769843E+04  5.255576E+04  1.212698E+04  2.141853E+03 -4.058363E+03
       379   1 -2.332423E+05 -9.477976E+05 -2.285644E+05  1.960363E+05 -9.592202E+03 -5.340531E+04
       379   2 -1.545196E+05 -7.120525E+05 -1.429922E+05  1.546155E+05 -2.796277E+04 -1.906664E+04
       379   3 -9.574761E+04 -4.851438E+05 -8.471350E+04  1.822931E+05 -2.278488E+04  1.535672E+04
       379   4 -2.009301E+04 -8.973008E+04 -2.181250E+04  1.837149E+05 -9.694081E+03 -1.595484E+04
       379   5 -2.900419E+03 -8.779430E+04 -9.606550E+03  1.491929E+05 -2.798195E+04 -1.096026E+04
       379   6 -5.456686E+02 -8.963869E+04 -4.288075E+03  1.837680E+05 -2.273134E+04 -5.894735E+03
       379   7  1.930038E+05  7.690150E+05  1.848921E+05  1.713766E+05 -9.797384E+03  2.154728E+04
       379   8  1.486935E+05  5.368312E+05  1.237568E+05  1.437651E+05 -2.800126E+04 -2.845841E+03
       379   9  9.464677E+04  3.060163E+05  7.613087E+04  1.852440E+05 -2.267792E+04 -2.715948E+04
       379  10 -2.332432E+05 -9.478007E+05 -2.285699E+05  1.960359E+05  8.276631E-11  3.985417E-09
       379  11 -1.545206E+05 -7.120531E+05 -1.429943E+05  1.546150E+05 -1.124314E-09 -4.344764E-09
       379  12 -9.574823E+04 -4.851442E+05 -8.471492E+04  1.822934E+05  2.711361E-10 -3.798409E-09
       379  13 -2.009318E+04 -8.973037E+04 -2.181316E+04  1.837147E+05  1.035846E-09  2.168502E-09
       379  14 -2.901292E+03 -8.779464E+04 -9.608246E+03  1.491927E+05 -3.027237E-10 -1.076655E-09
       379  15 -5.462327E+02 -8.963887E+04 -4.289111E+03  1.837679E+05 -2.033128E-09  3.140401E-09
       379  16  1.930036E+05  7.690145E+05  1.848911E+05  1.713768E+05  3.499865E-10  2.066674E-09
       379  17  1.486926E+05  5.368310E+05  1.237553E+05  1.437650E+05  4.121941E-10 -7.116258E-09
       379  18  9.464602E+04  3.060153E+05  7.612852E+04  1.852435E+05 -4.166630E-09 -1.048778E-09
       379  19 -2.332423E+05 -9.477976E+05 -2.285644E+05  1.960363E+05  9.592202E+03  5.340531E+04
       379  20 -1.545196E+05 -7.120525E+05 -1.429922E+05  1.546155E+05  2.796277E+04  1.906664E+04
       379  21 -9.574761E+04 -4.851438E+05 -8.471350E+04  1.822931E+05  2.278488E+04 -1.535672E+04
       379  22 -2.009301E+04 -8.973008E+04 -2.181250E+04  1.837149E+05  9.694081E+03  1.595484E+04
       379  23 -2.900419E+03 -8.779430E+04 -9.606550E+03  1.491929E+05  2.798195E+04  1.096026E+04
       379  24 -5.456686E+02 -8.963869E+04 -4.288075E+03  1.837680E+05  2.273134E+04  5.894735E+03
       379  25  1.930038E+05  7.690150E+05  1.848921E+05  1.713766E+05  9.797384E+03 -2.154728E+04
       379  26  1.486935E+05  5.368312E+05  1.237568E+05  1.437651E+05  2.800126E+04  2.845841E+03
       379  27  9.464677E+04  3.060163E+05  7.613087E+04  1.852440E+05  2.267792E+04  2.715948E+04
       380   1 -5.737201E+04 -3.195482E+05 -4.961767E+04  1.844753E+05 -1.302875E+04  1.084099E+04
       380   2 -6.661430E+02 -8.857315E+04  1.329856E+03  1.489515E+05 -2.788039E+00  1.024702E+04
       380   3  5.597207E+04  1.430073E+05  5.276118E+04  1.837742E+05  1.302160E+04  9.652824E+03
       380   4 -1.746154E+03 -8.865437E+04 -2.444654E+03  1.840331E+05 -1.298907E+04 -5.410528E+03
       380   5 -7.516420E+02 -8.893183E+04  1.258288E+03  1.488621E+05  3.696826E+01 -6.004697E+03
       380   6  1.785226E+02 -8.865417E+04  5.447108E+03  1.840377E+05  1.306128E+04 -6.598868E+03
       380   7  5.387650E+04  1.422907E+05  4.472653E+04  1.835908E+05 -1.294938E+04 -2.166799E+04
       380   8 -8.369991E+02 -8.928994E+04  1.187713E+03  1.487727E+05  7.672925E+01 -2.225641E+04
       380   9 -5.561825E+04 -3.202640E+05 -4.186880E+04  1.843012E+05  1.310095E+04 -2.284461E+04
       380  10 -5.737222E+04 -3.195484E+05 -4.961821E+04  1.844754E+05 -1.072407E-10  4.723110E-09
       380  11 -6.661712E+02 -8.857326E+04  1.329659E+03  1.489515E+05  1.627984E-09 -1.378767E-08
       380  12  5.597187E+04  1.430071E+05  5.276068E+04  1.837741E+05  9.238383E-10 -2.283861E-08
       380  13 -1.746343E+03 -8.865445E+04 -2.445026E+03  1.840330E+05 -1.626130E-09 -3.230020E-09
       380  14 -7.516517E+02 -8.893187E+04  1.258221E+03  1.488621E+05  3.011140E-09 -2.123942E-09
       380  15  1.783276E+02 -8.865426E+04  5.446705E+03  1.840378E+05  3.459480E-09  3.204345E-09
       380  16  5.387619E+04  1.422902E+05  4.472534E+04  1.835905E+05 -2.951167E-09 -3.552284E-09
       380  17 -8.371321E+02 -8.929047E+04  1.186782E+03  1.487727E+05 -2.185049E-10  9.239927E-10
       380  18 -5.561857E+04 -3.202646E+05 -4.187011E+04  1.843015E+05  2.449726E-10  1.403125E-08
       380  19 -5.737201E+04 -3.195482E+05 -4.961767E+04  1.844753E+05  1.302875E+04 -1.084099E+04
       380  20 -6.661430E+02 -8.857315E+04  1.329856E+03  1.489515E+05  2.788039E+00 -1.024702E+04
       380  21  5.597207E+04  1.430073E+05  5.276118E+04  1.837742E+05 -1.302160E+04 -9.652824E+03
       380  22 -1.746154E+03 -8.865437E+04 -2.444654E+03  1.840331E+05  1.298907E+04  5.410528E+03
       380  23 -7.516420E+02 -8.893183E+04  1.258288E+03  1.488621E+05 -3.696826E+01  6.004697E+03
       380  24  1.785226E+02 -8.865417E+04  5.447108E+03  1.840377E+05 -1.306128E+04  6.598868E+03
       380  25  5.387650E+04  1.422907E+05  4.472653E+04  1.835908E+05  1.294938E+04  2.166799E+04
       380  26 -8.369991E+02 -8.928994E+04  1.187713E+03  1.487727E+05 -7.672925E+01  2.225641E+04
       380  27 -5.561825E+04 -3.202640E+05 -4.186880E+04  1.843012E+05 -1.310095E+04  2.284461E+04
       381   1  9.376128E+04  3.090980E+05  8.833032E+04  1.796580E+05  2.275353E+04  1.371075E+04
       381   2  1.538324E+05  5.346048E+05  1.485460E+05  1.542156E+05  2.810533E+04 -2.354962E+04
       381   3  2.405918E+05  7.722627E+05  2.397994E+05  1.979491E+05  9.914959E+03 -6.089478E+04
       381   4 -1.629949E+03 -8.724027E+04  7.769465E+03  1.837592E+05  2.280712E+04 -7.548966E+03
       381   5  2.121466E+03 -9.079151E+04  1.503382E+04  1.492108E+05  2.808615E+04 -1.540193E+04
       381   6  2.747641E+04 -8.732915E+04  3.293279E+04  1.838391E+05  9.813371E+03 -2.332571E+04
       381   7 -9.703067E+04 -4.834281E+05 -7.279790E+04  1.878578E+05  2.286045E+04 -2.879537E+04
       381   8 -1.496149E+05 -7.158195E+05 -1.185007E+05  1.442113E+05  2.806683E+04 -7.262321E+03
       381   9 -1.856912E+05 -9.462418E+05 -1.739811E+05  1.697490E+05  9.710011E+03  1.419160E+04
       381  10  9.376067E+04  3.090977E+05  8.832900E+04  1.796578E+05  1.495265E-09  1.883642E-08
       381  11  1.538314E+05  5.346040E+05  1.485435E+05  1.542162E+05  8.780151E-10  5.861658E-09
       381  12  2.405907E+05  7.722587E+05  2.397923E+05  1.979496E+05 -6.004468E-10 -4.958883E-09
       381  13 -1.630522E+03 -8.724047E+04  7.768380E+03  1.837593E+05 -3.494294E-10 -3.268926E-09
       381  14  2.120555E+03 -9.079197E+04  1.503189E+04  1.492111E+05  3.068290E-09  1.101528E-09
       381  15  2.747616E+04 -8.732976E+04  3.293158E+04  1.838393E+05  9.121060E-11  5.524133E-09
       381  16 -9.703146E+04 -4.834292E+05 -7.280045E+04  1.878583E+05  2.272320E-09 -1.865551E-08
       381  17 -1.496157E+05 -7.158198E+05 -1.185023E+05  1.442114E+05  4.347363E-09 -1.820093E-08
       381  18 -1.856913E+05 -9.462421E+05 -1.739816E+05  1.697489E+05  6.094178E-10 -1.491931E-09
       381  19  9.376128E+04  3.090980E+05  8.833032E+04  1.796580E+05 -2.275353E+04 -1.371075E+04
       381  20  1.538324E+05  5.346048E+05  1.485460E+05  1.542156E+05 -2.810533E+04  2.354962E+04
       381  21  2.405918E+05  7.722627E+05  2.397994E+05  1.979491E+05 -9.914959E+03  6.089478E+04
       381  22 -1.629949E+03 -8.724027E+04  7.769465E+03  1.837592E+05 -2.280712E+04  7.548966E+03
       381  23  2.121466E+03 -9.079151E+04  1.503382E+04  1.492108E+05 -2.808615E+04  1.540193E+04
       381  24  2.747641E+04 -8.732915E+04  3.293279E+04  1.838391E+05 -9.813371E+03  2.332571E+04
       381  25 -9.703067E+04 -4.834281E+05 -7.279790E+04  1.878578E+05 -2.286045E+04  2.879537E+04
       381  26 -1.496149E+05 -7.158195E+05 -1.185007E+05  1.442113E+05 -2.806683E+04  7.262321E+03
       381  27 -1.856912E+05 -9.462418E+05 -1.739811E+05  1.697490E+05 -9.710011E+03 -1.419160E+04
       382   1  4.522373E+05  1.879439E+05  1.137898E+05  1.739898E+05  5.258394E+04  1.690716E+04
       382   2  4.359218E+05  1.180453E+05  6.730541E+04  1.687780E+05  3.355318E+04  3.152561E+03
       382   3  4.354156E+05  9.796391E+04  4.906942E+04  1.568841E+05  1.258602E+04 -5.484140E+03
       382   4  2.930847E+05  1.008623E+05  6.658582E+04  1.026808E+05  4.363435E+04  1.351581E+04
       382   5  2.820233E+05  5.064123E+04  2.949511E+04  1.158164E+05  3.012997E+04  1.855479E+03
       382   6  2.856804E+05  4.914782E+04  1.627688E+04  1.222684E+05  1.468831E+04 -4.688024E+03
       382   7  1.339620E+05  1.379372E+04  1.938089E+04  3.139255E+04  3.468743E+04  1.012644E+04
       382   8  1.281497E+05 -1.675801E+04 -8.316657E+03  6.286788E+04  2.670770E+04  5.588914E+02
       382   9  1.359664E+05  3.318245E+02 -1.651733E+04  8.765954E+04  1.679006E+04 -3.892052E+03
       382  10  4.522342E+05  1.879429E+05  1.137840E+05  1.739891E+05  2.790750E-09 -4.442732E-11
       382  11  4.359206E+05  1.180450E+05  6.730328E+04  1.687780E+05 -4.983926E-10 -4.172865E-09
       382  12  4.354155E+05  9.796384E+04  4.906906E+04  1.568841E+05 -1.858068E-09  3.655267E-09
       382  13  2.930826E+05  1.008616E+05  6.658190E+04  1.026803E+05  1.593039E-09 -8.226503E-09
       382  14  2.820223E+05  5.064099E+04  2.949340E+04  1.158163E+05 -3.046753E-10 -1.378853E-09
       382  15  2.856802E+05  4.914774E+04  1.627643E+04  1.222685E+05 -1.628765E-09 -6.220366E-10
       382  16  1.339606E+05  1.379328E+04  1.937844E+04  3.139226E+04 -5.457017E-11 -3.228293E-09
       382  17  1.281489E+05 -1.675820E+04 -8.317998E+03  6.286787E+04 -1.929055E-10 -6.786950E-09
       382  18  1.359661E+05  3.317325E+02 -1.651789E+04  8.765959E+04  4.465434E-10 -4.141796E-09
       382  19  4.522373E+05  1.879439E+05  1.137898E+05  1.739898E+05 -5.258394E+04 -1.690716E+04
       382  20  4.359218E+05  1.180453E+05  6.730541E+04  1.687780E+05 -3.355318E+04 -3.152561E+03
       382  21  4.354156E+05  9.796391E+04  4.906942E+04  1.568841E+05 -1.258602E+04  5.484140E+03
       382  22  2.930847E+05  1.008623E+05  6.658582E+04  1.026808E+05 -4.363435E+04 -1.351581E+04
       382  23  2.820233E+05  5.064123E+04  2.949511E+04  1.158164E+05 -3.012997E+04 -1.855479E+03
       382  24  2.856804E+05  4.914782E+04  1.627688E+04  1.222684E+05 -1.468831E+04  4.688024E+03
       382  25  1.339620E+05  1.379372E+04  1.938089E+04  3.139255E+04 -3.468743E+04 -1.012644E+04
       382  26  1.281497E+05 -1.675801E+04 -8.316657E+03  6.286788E+04 -2.670770E+04 -5.588914E+02
       382  27  1.359664E+05  3.318245E+02 -1.651733E+04  8.765954E+04 -1.679006E+04  3.892052E+03
       383   1  4.150406E+05  1.025208E+05  4.274780E+04  1.570899E+05  1.161567E+04 -4.742478E+03
       383   2  4.000410E+05  9.140721E+04  3.269262E+04  1.501295E+05  7.691185E+03 -5.315770E+03
       383   3  3.820141E+05  8.683177E+04  2.592352E+04  1.476399E+05  3.673018E+03 -5.641690E+03
       383   4  2.836069E+05  5.288999E+04  1.270421E+04  1.197749E+05  1.234273E+04 -4.467281E+03
       383   5  2.849834E+05  4.849923E+04  6.651938E+03  1.179750E+05  8.685882E+03 -4.939115E+03
       383   6  2.832794E+05  5.059385E+04  3.674122E+03  1.206456E+05  4.935258E+03 -5.163600E+03
       383   7  1.521905E+05  3.260679E+03 -1.734052E+04  8.246728E+04  1.306961E+04 -4.192149E+03
       383   8  1.699394E+05  5.592476E+03 -1.938949E+04  8.582605E+04  9.680376E+03 -4.562539E+03
       383   9  1.845551E+05  1.435689E+04 -1.857572E+04  9.365541E+04  6.197271E+03 -4.685594E+03
       383  10  4.150404E+05  1.025208E+05  4.274751E+04  1.570899E+05  8.580690E-09  8.734899E-09
       383  11  4.000410E+05  9.140716E+04  3.269246E+04  1.501296E+05 -6.725945E-09  2.890166E-10
       383  12  3.820141E+05  8.683173E+04  2.592344E+04  1.476399E+05 -1.755416E-08  9.671545E-09
       383  13  2.836067E+05  5.288993E+04  1.270388E+04  1.197750E+05 -2.434559E-09  5.023405E-11
       383  14  2.849833E+05  4.849919E+04  6.651750E+03  1.179750E+05 -2.246955E-09  1.671499E-08
       383  15  2.832793E+05  5.059382E+04  3.674026E+03  1.206456E+05 -2.736844E-09  4.821402E-09
       383  16  1.521903E+05  3.260614E+03 -1.734087E+04  8.246733E+04 -1.345402E-08 -6.427282E-09
       383  17  1.699393E+05  5.592428E+03 -1.938971E+04  8.582609E+04 -1.569615E-09 -9.841551E-09
       383  18  1.845551E+05  1.435685E+04 -1.857584E+04  9.365543E+04  1.232684E-08  7.361420E-10
       383  19  4.150406E+05  1.025208E+05  4.274780E+04  1.570899E+05 -1.161567E+04  4.742478E+03
       383  20  4.000410E+05  9.140721E+04  3.269262E+04  1.501295E+05 -7.691185E+03  5.315770E+03
       383  21  3.820141E+05  8.683177E+04  2.592352E+04  1.476399E+05 -3.673018E+03  5.641690E+03
       383  22  2.836069E+05  5.288999E+04  1.270421E+04  1.197749E+05 -1.234273E+04  4.467281E+03
       383  23  2.849834E+05  4.849923E+04  6.651938E+03  1.179750E+05 -8.685882E+03  4.939115E+03
       383  24  2.832794E+05  5.059385E+04  3.674122E+03  1.206456E+05 -4.935258E+03  5.163600E+03
       383  25  1.521905E+05  3.260679E+03 -1.734052E+04  8.246728E+04 -1.306961E+04  4.192149E+03
       383  26  1.699394E+05  5.592476E+03 -1.938949E+04  8.582605E+04 -9.680376E+03  4.562539E+03
       383  27  1.845551E+05  1.435689E+04 -1.857572E+04  9.365541E+04 -6.197271E+03  4.685594E+03
       384   1  3.689956E+05  8.256566E+04  2.208984E+04  1.443103E+05  2.967782E+03 -5.139725E+03
       384   2  3.543198E+05  7.410728E+04  1.710397E+04  1.372303E+05  1.772453E+03 -4.319910E+03
       384   3  3.354658E+05  7.008746E+04  1.272212E+04  1.350423E+05  5.727188E+02 -3.488703E+03
       384   4  2.831239E+05  5.075286E+04  2.778791E+03  1.205069E+05  4.162523E+03 -4.687163E+03
       384   5  2.852092E+05  4.849750E+04  1.527054E+03  1.180752E+05  2.979602E+03 -3.862591E+03
       384   6  2.831139E+05  5.067839E+04  8.696828E+02  1.205354E+05  1.792257E+03 -3.026635E+03
       384   7  1.972590E+05  1.894044E+04 -1.653287E+04  9.670631E+04  5.357092E+03 -4.234666E+03
       384   8  2.161031E+05  2.288801E+04 -1.405022E+04  9.892194E+04  4.186610E+03 -3.405326E+03
       384   9  2.307647E+05  3.126953E+04 -1.098293E+04  1.060297E+05  3.011683E+03 -2.564608E+03
       384  10  3.689956E+05  8.256563E+04  2.208977E+04  1.443103E+05 -2.815496E-09  1.078730E-08
       384  11  3.543198E+05  7.410726E+04  1.710392E+04  1.372303E+05 -2.334164E-09  2.688399E-09
       384  12  3.354658E+05  7.008745E+04  1.272210E+04  1.350423E+05  2.209599E-10  7.097775E-09
       384  13  2.831238E+05  5.075284E+04  2.778717E+03  1.205069E+05 -2.388050E-09 -3.544466E-11
       384  14  2.852092E+05  4.849748E+04  1.527009E+03  1.180752E+05  2.916138E-09  4.289166E-09
       384  15  2.831139E+05  5.067838E+04  8.696595E+02  1.205354E+05 -6.025002E-10  2.245792E-09
       384  16  1.972590E+05  1.894041E+04 -1.653296E+04  9.670633E+04 -1.361327E-09  1.510410E-10
       384  17  2.161031E+05  2.288799E+04 -1.405028E+04  9.892195E+04 -2.047002E-09  1.336689E-08
       384  18  2.307647E+05  3.126952E+04 -1.098296E+04  1.060297E+05 -8.451898E-10  7.655128E-09
       384  19  3.689956E+05  8.256566E+04  2.208984E+04  1.443103E+05 -2.967782E+03  5.139725E+03
       384  20  3.543198E+05  7.410728E+04  1.710397E+04  1.372303E+05 -1.772453E+03  4.319910E+03
       384  21  3.354658E+05  7.008746E+04  1.272212E+04  1.350423E+05 -5.727188E+02  3.488703E+03
       384  22  2.831239E+05  5.075286E+04  2.778791E+03  1.205069E+05 -4.162523E+03  4.687163E+03
       384  23  2.852092E+05  4.849750E+04  1.527054E+03  1.180752E+05 -2.979602E+03  3.862591E+03
       384  24  2.831139E+05  5.067839E+04  8.696828E+02  1.205354E+05 -1.792257E+03  3.026635E+03
       384  25  1.972590E+05  1.894044E+04 -1.653287E+04  9.670631E+04 -5.357092E+03  4.234666E+03
       384  26  2.161031E+05  2.288801E+04 -1.405022E+04  9.892194E+04 -4.186610E+03  3.405326E+03
       384  27  2.307647E+05  3.126953E+04 -1.098293E+04  1.060297E+05 -3.011683E+03  2.564608E+03
       385   1  3.228687E+05  6.542010E+04  9.585024E+03  1.315610E+05  1.993293E+02 -2.878631E+03
       385   2  3.082704E+05  5.706263E+04  5.629353E+03  1.244720E+05 -4.456619E+02 -1.834284E+03
       385   3  2.893876E+05  5.303067E+04  1.837315E+03  1.222692E+05 -1.090796E+03 -7.895917E+02
       385   4  2.830949E+05  5.068163E+04  6.751207E+02  1.205237E+05  1.415246E+03 -2.417914E+03
       385   5  2.852378E+05  4.852001E+04  4.375839E+02  1.180803E+05  7.706267E+02 -1.373410E+03
       385   6  2.830956E+05  5.068382E+04  3.633899E+02  1.205230E+05  1.258554E+02 -3.285596E+02
       385   7  2.433231E+05  3.594337E+04 -8.234808E+03  1.094871E+05  2.631071E+03 -1.957231E+03
       385   8  2.622056E+05  3.997743E+04 -4.754213E+03  1.116888E+05  1.986866E+03 -9.125548E+02
       385   9  2.768036E+05  4.833697E+04 -1.110542E+03  1.187769E+05  1.342501E+03  1.324701E+02
       385  10  3.228687E+05  6.542009E+04  9.585008E+03  1.315610E+05 -5.220276E-09 -4.932738E-09
       385  11  3.082704E+05  5.706262E+04  5.629346E+03  1.244720E+05 -4.578362E-11 -2.266004E-09
       385  12  2.893876E+05  5.303067E+04  1.837312E+03  1.222692E+05  9.627480E-09  7.692671E-09
       385  13  2.830949E+05  5.068162E+04  6.751060E+02  1.205237E+05 -1.172645E-09  2.358224E-09
       385  14  2.852378E+05  4.852001E+04  4.375792E+02  1.180803E+05 -3.840413E-10  1.035506E-09
       385  15  2.830956E+05  5.068382E+04  3.633897E+02  1.205230E+05  2.700917E-09 -8.251621E-09
       385  16  2.433231E+05  3.594337E+04 -8.234828E+03  1.094871E+05  2.339710E-09  1.608730E-08
       385  17  2.622056E+05  3.997743E+04 -4.754222E+03  1.116888E+05 -1.857032E-09  8.945040E-09
       385  18  2.768036E+05  4.833697E+04 -1.110546E+03  1.187769E+05 -3.070087E-09 -1.532453E-08
       385  19  3.228687E+05  6.542010E+04  9.585024E+03  1.315610E+05 -1.993293E+02  2.878631E+03
       385  20  3.082704E+05  5.706263E+04  5.629353E+03  1.244720E+05  4.456619E+02  1.834284E+03
       385  21  2.893876E+05  5.303067E+04  1.837315E+03  1.222692E+05  1.090796E+03  7.895917E+02
       385  22  2.830949E+05  5.068163E+04  6.751207E+02  1.205237E+05 -1.415246E+03  2.417914E+03
       385  23  2.852378E+05  4.852001E+04  4.375839E+02  1.180803E+05 -7.706267E+02  1.373410E+03
       385  24  2.830956E+05  5.068382E+04  3.633899E+02  1.205230E+05 -1.258554E+02  3.285596E+02
       385  25  2.433231E+05  3.594337E+04 -8.234808E+03  1.094871E+05 -2.631071E+03  1.957231E+03
       385  26  2.622056E+05  3.997743E+04 -4.754213E+03  1.116888E+05 -1.986866E+03  9.125548E+02
       385  27  2.768036E+05  4.833697E+04 -1.110542E+03  1.187769E+05 -1.342501E+03 -1.324701E+02
       386   1  2.768304E+05  4.835043E+04 -1.092574E+03  1.187882E+05 -1.400963E+03 -1.567002E+02
       386   2  2.622290E+05  3.999093E+04 -4.683275E+03  1.117016E+05 -2.077387E+03  8.761497E+02
       386   3  2.433484E+05  3.595868E+04 -8.086591E+03  1.095025E+05 -2.753624E+03  1.908688E+03
       386   4  2.830967E+05  5.068401E+04  3.749734E+02  1.205233E+05 -1.843501E+02  3.043188E+02
       386   5  2.852361E+05  4.851857E+04  5.019520E+02  1.180803E+05 -8.611582E+02  1.337003E+03
       386   6  2.830960E+05  5.068038E+04  8.165957E+02  1.205246E+05 -1.537786E+03  2.369373E+03
       386   7  2.893632E+05  5.301760E+04  1.842525E+03  1.222585E+05  1.032276E+03  7.653427E+02
       386   8  3.082437E+05  5.704623E+04  5.687130E+03  1.244592E+05  3.551153E+02  1.797874E+03
       386   9  3.228450E+05  6.540211E+04  9.719617E+03  1.315473E+05 -3.218712E+02  2.830087E+03
       386  10  2.768304E+05  4.835043E+04 -1.092578E+03  1.187882E+05  3.898511E-10 -7.082364E-09
       386  11  2.622290E+05  3.999093E+04 -4.683285E+03  1.117016E+05 -1.046227E-08 -1.258045E-08
       386  12  2.433484E+05  3.595867E+04 -8.086612E+03  1.095025E+05 -2.234660E-08 -1.338254E-08
       386  13  2.830967E+05  5.068401E+04  3.749732E+02  1.205233E+05  1.752711E-09  4.024428E-09
       386  14  2.852361E+05  4.851857E+04  5.019472E+02  1.180803E+05 -8.191933E-10 -1.475490E-08
       386  15  2.830960E+05  5.068037E+04  8.165807E+02  1.205246E+05 -4.143492E-09 -5.784963E-09
       386  16  2.893632E+05  5.301760E+04  1.842521E+03  1.222585E+05  6.069598E-09 -1.262302E-08
       386  17  3.082437E+05  5.704622E+04  5.687124E+03  1.244592E+05  1.802913E-08  2.697478E-09
       386  18  3.228450E+05  6.540211E+04  9.719602E+03  1.315473E+05  1.689521E-08 -1.006604E-09
       386  19  2.768304E+05  4.835043E+04 -1.092574E+03  1.187882E+05  1.400963E+03  1.567002E+02
       386  20  2.622290E+05  3.999093E+04 -4.683275E+03  1.117016E+05  2.077387E+03 -8.761497E+02
       386  21  2.433484E+05  3.595868E+04 -8.086591E+03  1.095025E+05  2.753624E+03 -1.908688E+03
       386  22  2.830967E+05  5.068401E+04  3.749734E+02  1.205233E+05  1.843501E+02 -3.043188E+02
       386  23  2.852361E+05  4.851857E+04  5.019520E+02  1.180803E+05  8.611582E+02 -1.337003E+03
       386  24  2.830960E+05  5.068038E+04  8.165957E+02  1.205246E+05  1.537786E+03 -2.369373E+03
       386  25  2.893632E+05  5.301760E+04  1.842525E+03  1.222585E+05 -1.032276E+03 -7.653427E+02
       386  26  3.082437E+05  5.704623E+04  5.687130E+03  1.244592E+05 -3.551153E+02 -1.797874E+03
       386  27  3.228450E+05  6.540211E+04  9.719617E+03  1.315473E+05  3.218712E+02 -2.830087E+03
       387   1  2.307906E+05  3.128670E+04 -1.078175E+04  1.060510E+05 -3.162128E+03  2.505524E+03
       387   2  2.161108E+05  2.290295E+04 -1.368068E+04  9.894157E+04 -4.518082E+03  3.277684E+03
       387   3  1.972827E+05  1.898042E+04 -1.585350E+04  9.672546E+04 -5.869579E+03  4.038408E+03
       387   4  2.831204E+05  5.067619E+04  1.064509E+03  1.205389E+05 -1.942673E+03  2.967557E+03
       387   5  2.851995E+05  4.849078E+04  1.890160E+03  1.180744E+05 -3.311104E+03  3.734939E+03
       387   6  2.831328E+05  5.076916E+04  3.451867E+03  1.205032E+05 -4.675101E+03  4.490875E+03
       387   7  3.354532E+05  7.006602E+04  1.291069E+04  1.350279E+05 -7.230994E+02  3.429635E+03
       387   8  3.542932E+05  7.407907E+04  1.746077E+04  1.372092E+05 -2.103976E+03  4.192249E+03
       387   9  3.689904E+05  8.255849E+04  2.275678E+04  1.442840E+05 -3.480445E+03  4.943409E+03
       387  10  2.307906E+05  3.128669E+04 -1.078178E+04  1.060510E+05  1.359930E-08  7.867645E-09
       387  11  2.161108E+05  2.290294E+04 -1.368074E+04  9.894158E+04  3.185394E-09 -1.336813E-09
       387  12  1.972827E+05  1.898039E+04 -1.585360E+04  9.672548E+04 -9.748081E-09  2.731857E-09
       387  13  2.831204E+05  5.067618E+04  1.064485E+03  1.205389E+05 -5.173077E-09 -4.740782E-10
       387  14  2.851995E+05  4.849077E+04  1.890113E+03  1.180744E+05 -2.577818E-09 -3.483033E-09
       387  15  2.831328E+05  5.076914E+04  3.451788E+03  1.205032E+05 -1.418549E-09  1.671809E-09
       387  16  3.354532E+05  7.006600E+04  1.291066E+04  1.350279E+05 -2.029659E-08 -1.463768E-08
       387  17  3.542932E+05  7.407905E+04  1.746073E+04  1.372092E+05 -2.006407E-09  1.823174E-09
       387  18  3.689904E+05  8.255846E+04  2.275671E+04  1.442840E+05  7.704003E-09  1.022195E-08
       387  19  2.307906E+05  3.128670E+04 -1.078175E+04  1.060510E+05  3.162128E+03 -2.505524E+03
       387  20  2.161108E+05  2.290295E+04 -1.368068E+04  9.894157E+04  4.518082E+03 -3.277684E+03
       387  21  1.972827E+05  1.898042E+04 -1.585350E+04  9.672546E+04  5.869579E+03 -4.038408E+03
       387  22  2.831204E+05  5.067619E+04  1.064509E+03  1.205389E+05  1.942673E+03 -2.967557E+03
       387  23  2.851995E+05  4.849078E+04  1.890160E+03  1.180744E+05  3.311104E+03 -3.734939E+03
       387  24  2.831328E+05  5.076916E+04  3.451867E+03  1.205032E+05  4.675101E+03 -4.490875E+03
       387  25  3.354532E+05  7.006602E+04  1.291069E+04  1.350279E+05  7.230994E+02 -3.429635E+03
       387  26  3.542932E+05  7.407907E+04  1.746077E+04  1.372092E+05  2.103976E+03 -4.192249E+03
       387  27  3.689904E+05  8.255849E+04  2.275678E+04  1.442840E+05  3.480445E+03 -4.943409E+03
       388   1  1.845538E+05  1.442466E+04 -1.767584E+04  9.378355E+04 -6.835449E+03  4.441694E+03
       388   2  1.699340E+05  5.566961E+03 -1.776137E+04  8.577454E+04 -1.113633E+04  4.008906E+03
       388   3  1.524856E+05  3.672826E+03 -1.423335E+04  8.213708E+04 -1.534328E+04  3.328892E+03
       388   4  2.833273E+05  5.057200E+04  4.567335E+03  1.206766E+05 -5.573510E+03  4.919676E+03
       388   5  2.849190E+05  4.849277E+04  8.273480E+03  1.179492E+05 -1.014197E+04  4.385428E+03
       388   6  2.837346E+05  5.342956E+04  1.580474E+04  1.195930E+05 -1.461665E+04  3.603918E+03
       388   7  3.821100E+05  8.671980E+04  2.680972E+04  1.475734E+05 -4.311362E+03  5.397736E+03
       388   8  3.999172E+05  9.141966E+04  3.430748E+04  1.501292E+05 -9.147410E+03  4.762027E+03
       388   9  4.150017E+05  1.031881E+05  4.584192E+04  1.570564E+05 -1.388984E+04  3.879012E+03
       388  10  1.845537E+05  1.442463E+04 -1.767597E+04  9.378357E+04  6.297074E-09  8.850748E-09
       388  11  1.699338E+05  5.566910E+03 -1.776163E+04  8.577458E+04 -1.433830E-08  8.958247E-09
       388  12  1.524854E+05  3.672751E+03 -1.423381E+04  8.213712E+04 -3.867669E-08 -1.390673E-08
       388  13  2.833272E+05  5.057196E+04  4.567231E+03  1.206766E+05 -6.928882E-10 -3.953821E-09
       388  14  2.849188E+05  4.849273E+04  8.273251E+03  1.179492E+05 -4.480267E-09  8.008013E-09
       388  15  2.837344E+05  5.342949E+04  1.580432E+04  1.195930E+05 -8.630288E-09 -8.304615E-09
       388  16  3.821099E+05  8.671976E+04  2.680963E+04  1.475734E+05 -1.166161E-08  5.938383E-09
       388  17  3.999171E+05  9.141961E+04  3.430728E+04  1.501293E+05  1.122257E-08  1.511347E-08
       388  18  4.150015E+05  1.031881E+05  4.584153E+04  1.570564E+05  2.044064E-08  6.766941E-09
       388  19  1.845538E+05  1.442466E+04 -1.767584E+04  9.378355E+04  6.835449E+03 -4.441694E+03
       388  20  1.699340E+05  5.566961E+03 -1.776137E+04  8.577454E+04  1.113633E+04 -4.008906E+03
       388  21  1.524856E+05  3.672826E+03 -1.423335E+04  8.213708E+04  1.534328E+04 -3.328892E+03
       388  22  2.833273E+05  5.057200E+04  4.567335E+03  1.206766E+05  5.573510E+03 -4.919676E+03
       388  23  2.849190E+05  4.849277E+04  8.273480E+03  1.179492E+05  1.014197E+04 -4.385428E+03
       388  24  2.837346E+05  5.342956E+04  1.580474E+04  1.195930E+05  1.461665E+04 -3.603918E+03
       388  25  3.821100E+05  8.671980E+04  2.680972E+04  1.475734E+05  4.311362E+03 -5.397736E+03
       388  26  3.999172E+05  9.141966E+04  3.430748E+04  1.501292E+05  9.147410E+03 -4.762027E+03
       388  27  4.150017E+05  1.031881E+05  4.584192E+04  1.570564E+05  1.388984E+04 -3.879012E+03
       389   1  1.354099E+05  1.190192E+03 -1.253729E+04  8.947454E+04 -1.954647E+04  2.845848E+03
       389   2  1.291868E+05 -1.802503E+04 -1.109607E+03  6.029327E+04 -3.329067E+04 -3.053133E+03
       389   3  1.412019E+05  2.128934E+04  3.564515E+04  2.165278E+04 -4.509793E+04 -1.406676E+04
       389   4  2.863048E+05  4.878370E+04  2.024992E+04  1.227054E+05 -1.744520E+04  3.641736E+03
       389   5  2.812493E+05  5.114672E+04  3.669555E+04  1.152507E+05 -3.671279E+04 -4.349954E+03
       389   6  2.955192E+05  1.131229E+05  8.284246E+04  9.833878E+04 -5.404376E+04 -1.745675E+04
       389   7  4.372232E+05  9.637772E+04  5.303598E+04  1.559431E+05 -1.534336E+04  4.437765E+03
       389   8  4.333339E+05  1.203230E+05  7.449858E+04  1.702210E+05 -4.013579E+04 -5.647278E+03
       389   9  4.498592E+05  2.049689E+05  1.300369E+05  1.750438E+05 -6.299179E+04 -2.084878E+04
       389  10  1.354094E+05  1.190081E+03 -1.253803E+04  8.947458E+04  1.954871E-08  1.253497E-08
       389  11  1.291857E+05 -1.802533E+04 -1.111706E+03  6.029319E+04  1.669969E-08  1.024175E-08
       389  12  1.411996E+05  2.128859E+04  3.564096E+04  2.165227E+04  2.532319E-09  7.057853E-09
       389  13  2.863045E+05  4.878361E+04  2.024932E+04  1.227055E+05 -8.549326E-09 -1.083235E-08
       389  14  2.812479E+05  5.114634E+04  3.669298E+04  1.152506E+05  5.885487E-10  1.510839E-08
       389  15  2.955160E+05  1.131218E+05  8.283640E+04  9.833802E+04 -6.601955E-10 -8.507386E-09
       389  16  4.372229E+05  9.637764E+04  5.303550E+04  1.559432E+05 -4.149846E-08 -1.215069E-08
       389  17  4.333321E+05  1.203225E+05  7.449549E+04  1.702209E+05 -2.039571E-08 -6.917408E-09
       389  18  4.498548E+05  2.049674E+05  1.300286E+05  1.750427E+05 -3.848001E-09  4.850884E-09
       389  19  1.354099E+05  1.190192E+03 -1.253729E+04  8.947454E+04  1.954647E+04 -2.845848E+03
       389  20  1.291868E+05 -1.802503E+04 -1.109607E+03  6.029327E+04  3.329067E+04  3.053133E+03
       389  21  1.412019E+05  2.128934E+04  3.564515E+04  2.165278E+04  4.509793E+04  1.406676E+04
       389  22  2.863048E+05  4.878370E+04  2.024992E+04  1.227054E+05  1.744520E+04 -3.641736E+03
       389  23  2.812493E+05  5.114672E+04  3.669555E+04  1.152507E+05  3.671279E+04  4.349954E+03
       389  24  2.955192E+05  1.131229E+05  8.284246E+04  9.833878E+04  5.404376E+04  1.745675E+04
       389  25  4.372232E+05  9.637772E+04  5.303598E+04  1.559431E+05  1.534336E+04 -4.437765E+03
       389  26  4.333339E+05  1.203230E+05  7.449858E+04  1.702210E+05  4.013579E+04  5.647278E+03
       389  27  4.498592E+05  2.049689E+05  1.300369E+05  1.750438E+05  6.299179E+04  2.084878E+04
       390   1 -1.112400E+05 -5.420182E+05 -1.101154E+05  9.114875E+04 -4.382124E+03 -2.515323E+04
       390   2 -7.054898E+04 -4.281758E+05 -6.859271E+04  6.886877E+04 -1.260151E+04 -8.810132E+03
       390   3 -4.217308E+04 -3.192443E+05 -4.075547E+04  8.267304E+04 -9.758297E+03  7.569624E+03
       390   4 -1.260799E+04 -1.451834E+05 -1.419802E+04  8.374189E+04 -4.427767E+03 -9.380469E+03
       390   5 -1.309433E+03 -1.438185E+05 -6.945263E+03  6.571800E+04 -1.260974E+04 -5.770299E+03
       390   6 -1.106451E+02 -1.451629E+05 -4.528220E+03  8.377818E+04 -9.731191E+03 -2.126696E+03
       390   7  8.601282E+04  2.517961E+05  8.170898E+04  7.633038E+04 -4.473772E+03  6.402352E+03
       390   8  6.792480E+04  1.406148E+05  5.469741E+04  6.256581E+04 -1.261800E+04 -2.729092E+03
       390   9  4.194991E+04  2.894741E+04  3.169772E+04  8.488365E+04 -9.704123E+03 -1.182569E+04
       390  10 -1.112402E+05 -5.420188E+05 -1.101166E+05  9.114866E+04 -4.497278E-10  4.559053E-09
       390  11 -7.054917E+04 -4.281760E+05 -6.859315E+04  6.886868E+04 -1.630986E-09 -7.317012E-09
       390  12 -4.217320E+04 -3.192444E+05 -4.075575E+04  8.267310E+04 -3.506017E-09 -8.830268E-09
       390  13 -1.260804E+04 -1.451835E+05 -1.419822E+04  8.374186E+04  2.337556E-09  6.493043E-09
       390  14 -1.309613E+03 -1.438186E+05 -6.945624E+03  6.571794E+04 -2.969990E-09  1.022725E-09
       390  15 -1.107480E+02 -1.451629E+05 -4.528406E+03  8.377816E+04 -3.838040E-09  1.903380E-09
       390  16  8.601279E+04  2.517960E+05  8.170887E+04  7.633040E+04  1.584190E-09 -1.262761E-09
       390  17  6.792462E+04  1.406147E+05  5.469709E+04  6.256578E+04  1.927131E-09  4.097255E-09
       390  18  4.194978E+04  2.894723E+04  3.169728E+04  8.488356E+04 -4.369535E-09  1.570488E-08
       390  19 -1.112400E+05 -5.420182E+05 -1.101154E+05  9.114875E+04  4.382124E+03  2.515323E+04
       390  20 -7.054898E+04 -4.281758E+05 -6.859271E+04  6.886877E+04  1.260151E+04  8.810132E+03
       390  21 -4.217308E+04 -3.192443E+05 -4.075547E+04  8.267304E+04  9.758297E+03 -7.569624E+03
       390  22 -1.260799E+04 -1.451834E+05 -1.419802E+04  8.374189E+04  4.427767E+03  9.380469E+03
       390  23 -1.309433E+03 -1.438185E+05 -6.945263E+03  6.571800E+04  1.260974E+04  5.770299E+03
       390  24 -1.106451E+02 -1.451629E+05 -4.528220E+03  8.377818E+04  9.731191E+03  2.126696E+03
       390  25  8.601282E+04  2.517961E+05  8.170898E+04  7.633038E+04  4.473772E+03 -6.402352E+03
       390  26  6.792480E+04  1.406148E+05  5.469741E+04  6.256581E+04  1.261800E+04  2.729092E+03
       390  27  4.194991E+04  2.894741E+04  3.169772E+04  8.488365E+04  9.704123E+03  1.182569E+04
       391   1 -2.330293E+04 -2.370582E+05 -2.334502E+04  8.438268E+04 -5.034213E+03  5.674533E+03
       391   2  4.161855E+03 -1.255844E+05  3.612952E+02  6.552439E+04  1.114969E+03  7.389425E+03
       391   3  3.043589E+04 -1.434975E+04  2.271684E+04  8.331518E+04  7.213589E+03  9.104587E+03
       391   4 -9.370109E+02 -1.446144E+05 -3.992414E+03  8.389551E+04 -5.014580E+03 -1.442268E+03
       391   5 -3.937788E+02 -1.444846E+05 -3.513026E+03  6.557074E+04  1.134531E+03  3.303609E+02
       391   6 -1.050643E+03 -1.446158E+05 -4.424222E+03  8.389520E+04  7.233043E+03  2.102968E+03
       391   7  2.142838E+04 -5.216252E+04  1.535991E+04  8.340827E+04 -4.994936E+03 -8.560112E+03
       391   8 -4.949409E+03 -1.633844E+05 -7.387178E+03  6.561708E+04  1.154093E+03 -6.728492E+03
       391   9 -3.253823E+04 -2.748656E+05 -3.156603E+04  8.447511E+04  7.252487E+03 -4.897207E+03
       391  10 -2.330296E+04 -2.370582E+05 -2.334513E+04  8.438271E+04 -2.485167E-09  1.248371E-08
       391  11  4.161839E+03 -1.255845E+05  3.611902E+02  6.552439E+04  4.504534E-09 -1.241121E-08
       391  12  3.043581E+04 -1.434986E+04  2.271658E+04  8.331513E+04  3.521246E-10 -8.739796E-09
       391  13 -9.370384E+02 -1.446144E+05 -3.992465E+03  8.389551E+04 -2.816719E-09  4.289576E-09
       391  14 -3.937802E+02 -1.444846E+05 -3.513028E+03  6.557074E+04  4.854304E-09  8.664444E-09
       391  15 -1.050700E+03 -1.446158E+05 -4.424328E+03  8.389519E+04  1.198521E-09 -2.629560E-09
       391  16  2.142834E+04 -5.216260E+04  1.535972E+04  8.340824E+04 -3.323848E-09 -5.073315E-09
       391  17 -4.949422E+03 -1.633844E+05 -7.387266E+03  6.561709E+04  8.251364E-10  3.053933E-09
       391  18 -3.253829E+04 -2.748657E+05 -3.156617E+04  8.447514E+04 -2.599536E-09  1.620133E-08
       391  19 -2.330293E+04 -2.370582E+05 -2.334502E+04  8.438268E+04  5.034213E+03 -5.674533E+03
       391  20  4.161855E+03 -1.255844E+05  3.612952E+02  6.552439E+04 -1.114969E+03 -7.389425E+03
       391  21  3.043589E+04 -1.434975E+04  2.271684E+04  8.331518E+04 -7.213589E+03 -9.104587E+03
       391  22 -9.370109E+02 -1.446144E+05 -3.992414E+03  8.389551E+04  5.014580E+03  1.442268E+03
       391  23 -3.937788E+02 -1.444846E+05 -3.513026E+03  6.557074E+04 -1.134531E+03 -3.303609E+02
       391  24 -1.050643E+03 -1.446158E+05 -4.424222E+03  8.389520E+04 -7.233043E+03 -2.102968E+03
       391  25  2.142838E+04 -5.216252E+04  1.535991E+04  8.340827E+04  4.994936E+03  8.560112E+03
       391  26 -4.949409E+03 -1.633844E+05 -7.387178E+03  6.561708E+04 -1.154093E+03  6.728492E+03
       391  27 -3.253823E+04 -2.748656E+05 -3.156603E+04  8.447511E+04 -7.252487E+03  4.897207E+03
       392   1  5.114807E+04  6.665692E+04  3.880849E+04  8.511361E+04  1.196219E+04  1.269865E+04
       392   2  7.687819E+04  1.785309E+05  6.138658E+04  6.196846E+04  1.451132E+04  3.191297E+03
       392   3  9.283467E+04  2.895074E+05  8.777294E+04  7.484686E+04  5.040871E+03 -6.354286E+03
       392   4 -3.227833E+01 -1.452997E+05 -5.182534E+03  8.376684E+04  1.198988E+04  2.866654E+03
       392   5 -1.512265E+03 -1.436547E+05 -8.272118E+03  6.573195E+04  1.450030E+04  7.207720E+03
       392   6 -1.517202E+04 -1.453230E+05 -1.717078E+04  8.372251E+04  4.988166E+03  1.151201E+04
       392   7 -5.121542E+04 -3.572136E+05 -4.917565E+04  8.242057E+04  1.201761E+04 -6.962044E+03
       392   8 -7.990952E+04 -4.657427E+05 -7.793689E+04  6.949353E+04  1.448932E+04  1.122209E+04
       392   9 -1.231921E+05 -5.799798E+05 -1.221268E+05  9.259203E+04  4.935954E+03  2.936584E+04
       392  10  5.114788E+04  6.665671E+04  3.880792E+04  8.511349E+04 -8.160046E-10  7.521589E-09
       392  11  7.687796E+04  1.785308E+05  6.138616E+04  6.196842E+04  5.551750E-11 -1.176776E-08
       392  12  9.283463E+04  2.895074E+05  8.777282E+04  7.484689E+04 -6.326977E-10 -5.602846E-09
       392  13 -3.243489E+01 -1.452998E+05 -5.182819E+03  8.376682E+04 -3.952415E-09 -4.342046E-09
       392  14 -1.512505E+03 -1.436548E+05 -8.272610E+03  6.573187E+04  3.282191E-09  3.265490E-09
       392  15 -1.517208E+04 -1.453232E+05 -1.717108E+04  8.372246E+04  3.821580E-10 -3.087975E-11
       392  16 -5.121559E+04 -3.572137E+05 -4.917601E+04  8.242064E+04 -2.334449E-09 -3.265742E-09
       392  17 -7.990978E+04 -4.657429E+05 -7.793752E+04  6.949339E+04  4.638834E-09  5.851174E-09
       392  18 -1.231923E+05 -5.799807E+05 -1.221285E+05  9.259192E+04  1.388153E-09  1.469132E-08
       392  19  5.114807E+04  6.665692E+04  3.880849E+04  8.511361E+04 -1.196219E+04 -1.269865E+04
       392  20  7.687819E+04  1.785309E+05  6.138658E+04  6.196846E+04 -1.451132E+04 -3.191297E+03
       392  21  9.283467E+04  2.895074E+05  8.777294E+04  7.484686E+04 -5.040871E+03  6.354286E+03
       392  22 -3.227833E+01 -1.452997E+05 -5.182534E+03  8.376684E+04 -1.198988E+04 -2.866654E+03
       392  23 -1.512265E+03 -1.436547E+05 -8.272118E+03  6.573195E+04 -1.450030E+04 -7.207720E+03
       392  24 -1.517202E+04 -1.453230E+05 -1.717078E+04  8.372251E+04 -4.988166E+03 -1.151201E+04
       392  25 -5.121542E+04 -3.572136E+05 -4.917565E+04  8.242057E+04 -1.201761E+04  6.962044E+03
       392  26 -7.990952E+04 -4.657427E+05 -7.793689E+04  6.949353E+04 -1.448932E+04 -1.122209E+04
       392  27 -1.231921E+05 -5.799798E+05 -1.221268E+05  9.259203E+04 -4.935954E+03 -2.936584E+04
       393   1  8.521893E+04 -1.524287E+05 -1.435342E+05 -3.075316E+04 -2.016960E+04  9.558044E+03
       393   2  1.395255E+05 -1.520494E+05 -1.248280E+05 -2.820410E+04 -4.733814E+03  3.090192E+04
       393   3  1.947987E+05 -1.402608E+05 -1.133026E+05 -4.269606E+04  1.072171E+04  3.430073E+04
       393   4  7.739380E+05  1.821480E+04  2.138038E+04 -4.016102E+04  1.475305E+04  9.589028E+03
       393   5  7.716784E+05  1.269863E+03  9.952584E+03 -3.163400E+04  9.513855E+03  3.091010E+04
       393   6  7.739661E+05 -6.848954E+02  5.692916E+03 -4.014697E+04  4.292746E+03  3.429465E+04
       393   7  1.463094E+06  1.888250E+05  1.862661E+05 -4.957944E+04  4.971427E+04  9.618938E+03
       393   8  1.404208E+06  1.545632E+05  1.447109E+05 -3.506750E+04  2.377581E+04  3.091811E+04
       393   9  1.353452E+06  1.388699E+05  1.246707E+05 -3.759549E+04 -2.142109E+03  3.428852E+04
       393  10  8.521846E+04 -1.524289E+05 -1.435351E+05 -3.075301E+04 -1.488717E-10  5.021358E-11
       393  11  1.395252E+05 -1.520504E+05 -1.248299E+05 -2.820398E+04  7.168446E-10  1.830899E-10
       393  12  1.947982E+05 -1.402621E+05 -1.133051E+05 -4.269636E+04 -6.492491E-10  1.886507E-10
       393  13  7.739377E+05  1.821464E+04  2.137980E+04 -4.016113E+04  4.341049E-12  2.911207E-11
       393  14  7.716781E+05  1.268812E+03  9.950618E+03 -3.163424E+04 -1.253500E-11  9.510972E-11
       393  15  7.739657E+05 -6.861638E+02  5.690671E+03 -4.014709E+04 -2.887474E-11  3.315199E-10
       393  16  1.463091E+06  1.888242E+05  1.862613E+05 -4.957982E+04  1.255665E-10 -6.097618E-12
       393  17  1.404207E+06  1.545621E+05  1.447081E+05 -3.506809E+04 -7.680014E-11  5.415107E-11
       393  18  1.353451E+06  1.388687E+05  1.246685E+05 -3.759543E+04  5.702594E-10  3.007471E-10
       393  19  8.521893E+04 -1.524287E+05 -1.435342E+05 -3.075316E+04  2.016960E+04 -9.558044E+03
       393  20  1.395255E+05 -1.520494E+05 -1.248280E+05 -2.820410E+04  4.733814E+03 -3.090192E+04
       393  21  1.947987E+05 -1.402608E+05 -1.133026E+05 -4.269606E+04 -1.072171E+04 -3.430073E+04
       393  22  7.739380E+05  1.821480E+04  2.138038E+04 -4.016102E+04 -1.475305E+04 -9.589028E+03
       393  23  7.716784E+05  1.269863E+03  9.952584E+03 -3.163400E+04 -9.513855E+03 -3.091010E+04
       393  24  7.739661E+05 -6.848954E+02  5.692916E+03 -4.014697E+04 -4.292746E+03 -3.429465E+04
       393  25  1.463094E+06  1.888250E+05  1.862661E+05 -4.957944E+04 -4.971427E+04 -9.618938E+03
       393  26  1.404208E+06  1.545632E+05  1.447109E+05 -3.506750E+04 -2.377581E+04 -3.091811E+04
       393  27  1.353452E+06  1.388699E+05  1.246707E+05 -3.759549E+04  2.142109E+03 -3.428852E+04
       394   1  2.341201E+05 -1.292892E+05 -1.066169E+05 -4.028366E+04  5.509089E+03  3.145036E+04
       394   2  2.882019E+05 -1.167637E+05 -9.670567E+04 -3.151452E+04  5.368334E+03  2.925087E+04
       394   3  3.424971E+05 -1.037541E+05 -8.656460E+04 -4.055523E+04  5.226462E+03  2.611319E+04
       394   4  7.730524E+05  6.533668E+02  4.456791E+03 -4.032117E+04  3.517416E+03  3.144728E+04
       394   5  7.728619E+05 -5.586418E+01  2.452542E+03 -3.141655E+04  2.294621E+03  2.924799E+04
       394   6  7.730695E+05 -9.322368E+01  1.428749E+03 -4.032092E+04  1.070723E+03  2.611086E+04
       394   7  1.312260E+06  1.305776E+05  1.155148E+05 -4.035874E+04  1.524044E+03  3.144421E+04
       394   8  1.257745E+06  1.166373E+05  1.015983E+05 -3.131851E+04 -7.814468E+02  2.924511E+04
       394   9  1.203818E+06  1.035560E+05  8.941237E+04 -4.008645E+04 -3.087844E+03  2.610852E+04
       394  10  2.341198E+05 -1.292902E+05 -1.066188E+05 -4.028379E+04 -1.213519E-10  1.112567E-10
       394  11  2.882016E+05 -1.167647E+05 -9.670733E+04 -3.151464E+04  3.951682E-10  9.297838E-11
       394  12  3.424968E+05 -1.037548E+05 -8.656594E+04 -4.055534E+04 -2.946063E-10  5.657914E-11
       394  13  7.730521E+05  6.523012E+02  4.454909E+03 -4.032126E+04  3.414650E-11  3.076643E-10
       394  14  7.728617E+05 -5.678453E+01  2.450924E+03 -3.141660E+04 -6.043619E-11 -1.081161E-10
       394  15  7.730693E+05 -9.395636E+01  1.427466E+03 -4.032094E+04  6.220131E-12  7.744672E-11
       394  16  1.312260E+06  1.305765E+05  1.155130E+05 -4.035878E+04  8.738179E-11  2.398475E-10
       394  17  1.257745E+06  1.166364E+05  1.015967E+05 -3.131850E+04 -3.576720E-11 -9.831859E-11
       394  18  1.203818E+06  1.035553E+05  8.941107E+04 -4.008638E+04  3.481484E-10  3.840519E-11
       394  19  2.341201E+05 -1.292892E+05 -1.066169E+05 -4.028366E+04 -5.509089E+03 -3.145036E+04
       394  20  2.882019E+05 -1.167637E+05 -9.670567E+04 -3.151452E+04 -5.368334E+03 -2.925087E+04
       394  21  3.424971E+05 -1.037541E+05 -8.656460E+04 -4.055523E+04 -5.226462E+03 -2.611319E+04
       394  22  7.730524E+05  6.533668E+02  4.456791E+03 -4.032117E+04 -3.517416E+03 -3.144728E+04
       394  23  7.728619E+05 -5.586418E+01  2.452542E+03 -3.141655E+04 -2.294621E+03 -2.924799E+04
       394  24  7.730695E+05 -9.322368E+01  1.428749E+03 -4.032092E+04 -1.070723E+03 -2.611086E+04
       394  25  1.312260E+06  1.305776E+05  1.155148E+05 -4.035874E+04 -1.524044E+03 -3.144421E+04
       394  26  1.257745E+06  1.166373E+05  1.015983E+05 -3.131851E+04  7.814468E+02 -2.924511E+04
       394  27  1.203818E+06  1.035560E+05  8.941237E+04 -4.008645E+04  3.087844E+03 -2.610852E+04
       395   1  3.818542E+05 -9.415090E+04 -7.859762E+04 -4.040008E+04  4.762907E+03  2.403714E+04
       395   2  4.356804E+05 -8.121544E+04 -6.814226E+04 -3.148632E+04  4.488291E+03  2.061787E+04
       395   3  4.895817E+05 -6.825769E+04 -5.749493E+04 -4.032243E+04  4.212457E+03  1.715453E+04
       395   4  7.730060E+05 -3.027741E+01  1.101012E+03 -4.030773E+04  8.479339E+02  2.403533E+04
       395   5  7.729708E+05 -4.158422E+01  6.609773E+02 -3.143308E+04  5.222162E+02  2.061669E+04
       395   6  7.730175E+05 -2.140481E+01  4.485224E+02 -4.030773E+04  1.953054E+02  1.715400E+04
       395   7  1.164303E+06  9.408080E+04  8.079166E+04 -4.021531E+04 -3.069459E+03  2.403352E+04
       395   8  1.110369E+06  8.112517E+04  6.945828E+04 -3.137981E+04 -3.445972E+03  2.061551E+04
       395   9  1.056530E+06  6.820986E+04  5.838778E+04 -4.029302E+04 -3.823646E+03  1.715347E+04
       395  10  3.818540E+05 -9.415152E+04 -7.859874E+04 -4.040017E+04 -1.860312E-10  1.620320E-10
       395  11  4.356803E+05 -8.121590E+04 -6.814309E+04 -3.148639E+04  1.197385E-10  1.680898E-10
       395  12  4.895816E+05 -6.825801E+04 -5.749551E+04 -4.032249E+04 -2.283398E-10  7.693608E-11
       395  13  7.730059E+05 -3.089818E+01  1.099924E+03 -4.030774E+04 -4.273077E-11  1.324133E-10
       395  14  7.729707E+05 -4.204088E+01  6.601778E+02 -3.143309E+04  5.048695E-11  1.069055E-10
       395  15  7.730174E+05 -2.172092E+01  4.479692E+02 -4.030773E+04 -3.273653E-11  2.031746E-10
       395  16  1.164303E+06  9.408018E+04  8.079056E+04 -4.021526E+04  1.454267E-10  1.630913E-10
       395  17  1.110369E+06  8.112471E+04  6.945746E+04 -3.137975E+04  4.546224E-11  2.351971E-11
       395  18  1.056529E+06  6.820954E+04  5.838720E+04 -4.029297E+04  1.216560E-10  2.056603E-10
       395  19  3.818542E+05 -9.415090E+04 -7.859762E+04 -4.040008E+04 -4.762907E+03 -2.403714E+04
       395  20  4.356804E+05 -8.121544E+04 -6.814226E+04 -3.148632E+04 -4.488291E+03 -2.061787E+04
       395  21  4.895817E+05 -6.825769E+04 -5.749493E+04 -4.032243E+04 -4.212457E+03 -1.715453E+04
       395  22  7.730060E+05 -3.027741E+01  1.101012E+03 -4.030773E+04 -8.479339E+02 -2.403533E+04
       395  23  7.729708E+05 -4.158422E+01  6.609773E+02 -3.143308E+04 -5.222162E+02 -2.061669E+04
       395  24  7.730175E+05 -2.140481E+01  4.485224E+02 -4.030773E+04 -1.953054E+02 -1.715400E+04
       395  25  1.164303E+06  9.408080E+04  8.079166E+04 -4.021531E+04  3.069459E+03 -2.403352E+04
       395  26  1.110369E+06  8.112517E+04  6.945828E+04 -3.137981E+04  3.445972E+03 -2.061551E+04
       395  27  1.056530E+06  6.820986E+04  5.838778E+04 -4.029302E+04  3.823646E+03 -1.715347E+04
       396   1  5.287814E+05 -5.875969E+04 -4.927204E+04 -4.029586E+04  4.119093E+03  1.512859E+04
       396   2  5.824249E+05 -4.586951E+04 -3.848622E+04 -3.143463E+04  3.932571E+03  1.165881E+04
       396   3  6.361042E+05 -3.297368E+04 -2.757598E+04 -4.026126E+04  3.745349E+03  8.189822E+03
       396   4  7.730108E+05 -1.576962E+01  3.945123E+02 -4.029401E+04  1.189474E+02  1.512837E+04
       396   5  7.729979E+05 -1.107914E+01  3.766250E+02 -3.145024E+04 -6.691201E+01  1.165895E+04
       396   6  7.730171E+05 -9.192460E-01  4.824840E+02 -4.029401E+04 -2.534572E+02  8.190332E+03
       396   7  1.017297E+06  5.872444E+04  5.005801E+04 -4.029215E+04 -3.882741E+03  1.512815E+04
       396   8  9.636054E+05  4.584509E+04  3.923762E+04 -3.146585E+04 -4.067600E+03  1.165909E+04
       396   9  9.099479E+05  3.297068E+04  2.854001E+04 -4.032676E+04 -4.253129E+03  8.190842E+03
       396  10  5.287814E+05 -5.875994E+04 -4.927251E+04 -4.029591E+04 -1.599901E-10 -8.575990E-11
       396  11  5.824248E+05 -4.586966E+04 -3.848651E+04 -3.143466E+04  1.140135E-11  1.179026E-10
       396  12  6.361041E+05 -3.297376E+04 -2.757613E+04 -4.026128E+04 -4.731027E-11 -8.756682E-11
       396  13  7.730107E+05 -1.601547E+01  3.940820E+02 -4.029401E+04  9.382963E-11  1.041378E-10
       396  14  7.729978E+05 -1.122516E+01  3.763695E+02 -3.145024E+04  1.165869E-10  2.290363E-10
       396  15  7.730171E+05 -9.913230E-01  4.823578E+02 -4.029401E+04  3.261615E-11 -7.239754E-12
       396  16  1.017297E+06  5.872419E+04  5.005755E+04 -4.029211E+04  1.233806E-10  1.608578E-10
       396  17  9.636053E+05  4.584494E+04  3.923733E+04 -3.146581E+04  1.216096E-10  4.771909E-11
       396  18  9.099478E+05  3.297060E+04  2.853985E+04 -4.032673E+04 -3.777891E-11  9.368089E-11
       396  19  5.287814E+05 -5.875969E+04 -4.927204E+04 -4.029586E+04 -4.119093E+03 -1.512859E+04
       396  20  5.824249E+05 -4.586951E+04 -3.848622E+04 -3.143463E+04 -3.932571E+03 -1.165881E+04
       396  21  6.361042E+05 -3.297368E+04 -2.757598E+04 -4.026126E+04 -3.745349E+03 -8.189822E+03
       396  22  7.730108E+05 -1.576962E+01  3.945123E+02 -4.029401E+04 -1.189474E+02 -1.512837E+04
       396  23  7.729979E+05 -1.107914E+01  3.766250E+02 -3.145024E+04  6.691201E+01 -1.165895E+04
       396  24  7.730171E+05 -9.192460E-01  4.824840E+02 -4.029401E+04  2.534572E+02 -8.190332E+03
       396  25  1.017297E+06  5.872444E+04  5.005801E+04 -4.029215E+04  3.882741E+03 -1.512815E+04
       396  26  9.636054E+05  4.584509E+04  3.923762E+04 -3.146585E+04  4.067600E+03 -1.165909E+04
       396  27  9.099479E+05  3.297068E+04  2.854001E+04 -4.032676E+04  4.253129E+03 -8.190842E+03
       397   1  6.752132E+05 -2.350668E+04 -1.921686E+04 -4.025387E+04  3.645487E+03  6.171734E+03
       397   2  7.287565E+05 -1.065610E+04 -8.075886E+03 -3.140151E+04  3.175816E+03  2.706690E+03
       397   3  7.823630E+05  2.210089E+03  3.373045E+03 -4.020539E+04  2.705947E+03 -7.559516E+02
       397   4  7.730252E+05  6.601860E-01  5.870060E+02 -4.028704E+04 -3.510665E+02  6.172380E+03
       397   5  7.729959E+05 -1.165669E+01  9.441500E+02 -3.145895E+04 -8.181515E+02  2.707415E+03
       397   6  7.730265E+05 -8.653239E+00  1.607501E+03 -4.028703E+04 -1.285395E+03 -7.551378E+02
       397   7  8.708464E+05  2.350741E+04  2.039043E+04 -4.032020E+04 -4.348238E+03  6.173026E+03
       397   8  8.172371E+05  1.063267E+04  9.964143E+03 -3.151638E+04 -4.812398E+03  2.708141E+03
       397   9  7.636900E+05 -2.227392E+03 -1.579861E+02 -4.036866E+04 -5.276678E+03 -7.543229E+02
       397  10  6.752131E+05 -2.350672E+04 -1.921695E+04 -4.025389E+04  1.637219E-11 -9.827851E-11
       397  11  7.287565E+05 -1.065611E+04 -8.075919E+03 -3.140152E+04 -1.094768E-10  1.984895E-11
       397  12  7.823630E+05  2.210087E+03  3.373030E+03 -4.020539E+04 -1.706944E-11 -1.035573E-10
       397  13  7.730252E+05  6.192274E-01  5.869342E+02 -4.028703E+04 -4.454795E-11  3.334920E-12
       397  14  7.729959E+05 -1.166474E+01  9.441350E+02 -3.145894E+04 -1.106582E-10 -4.258874E-11
       397  15  7.730265E+05 -8.654295E+00  1.607497E+03 -4.028703E+04 -2.053948E-10  1.243458E-11
       397  16  8.708463E+05  2.350737E+04  2.039032E+04 -4.032018E+04 -2.689553E-11  4.875188E-11
       397  17  8.172371E+05  1.063266E+04  9.964086E+03 -3.151637E+04 -1.170132E-10 -3.352027E-11
       397  18  7.636900E+05 -2.227400E+03 -1.580394E+02 -4.036866E+04 -1.645312E-10 -1.278276E-10
       397  19  6.752132E+05 -2.350668E+04 -1.921686E+04 -4.025387E+04 -3.645487E+03 -6.171734E+03
       397  20  7.287565E+05 -1.065610E+04 -8.075886E+03 -3.140151E+04 -3.175816E+03 -2.706690E+03
       397  21  7.823630E+05  2.210089E+03  3.373045E+03 -4.020539E+04 -2.705947E+03  7.559516E+02
       397  22  7.730252E+05  6.601860E-01  5.870060E+02 -4.028704E+04  3.510665E+02 -6.172380E+03
       397  23  7.729959E+05 -1.165669E+01  9.441500E+02 -3.145895E+04  8.181515E+02 -2.707415E+03
       397  24  7.730265E+05 -8.653239E+00  1.607501E+03 -4.028703E+04  1.285395E+03  7.551378E+02
       397  25  8.708464E+05  2.350741E+04  2.039043E+04 -4.032020E+04  4.348238E+03 -6.173026E+03
       397  26  8.172371E+05  1.063267E+04  9.964143E+03 -3.151638E+04  4.812398E+03 -2.708141E+03
       397  27  7.636900E+05 -2.227392E+03 -1.579861E+02 -4.036866E+04  5.276678E+03  7.543229E+02
       398   1  8.214937E+05  1.165601E+04  1.212124E+04 -4.017244E+04  2.377953E+03 -2.773800E+03
       398   2  8.749508E+05  2.448782E+04  2.445949E+04 -3.129197E+04  5.347382E+02 -6.226611E+03
       398   3  9.286978E+05  3.752083E+04  3.804564E+04 -4.007376E+04 -1.308243E+03 -9.648099E+03
       398   4  7.730753E+05 -2.168306E+01  2.107500E+03 -4.028843E+04 -1.622139E+03 -2.773018E+03
       398   5  7.729322E+05 -5.904590E+01  3.648548E+03 -3.145717E+04 -3.429079E+03 -6.226035E+03
       398   6  7.730710E+05  9.892921E+01  6.412828E+03 -4.028837E+04 -5.235632E+03 -9.647716E+03
       398   7  7.246591E+05 -1.169952E+04 -7.906304E+03 -4.040441E+04 -5.621925E+03 -2.772235E+03
       398   8  6.709235E+05 -2.460655E+04 -1.716288E+04 -3.162235E+04 -7.392258E+03 -6.225456E+03
       398   9  6.174672E+05 -3.732447E+04 -2.522120E+04 -4.050291E+04 -9.162057E+03 -9.647331E+03
       398  10  8.214937E+05  1.165600E+04  1.212121E+04 -4.017243E+04 -1.251189E-10 -1.667441E-10
       398  11  8.749507E+05  2.448778E+04  2.445941E+04 -3.129197E+04 -1.511502E-10  5.577256E-11
       398  12  9.286977E+05  3.752073E+04  3.804547E+04 -4.007377E+04 -1.213686E-11 -3.551807E-12
       398  13  7.730753E+05 -2.169203E+01  2.107480E+03 -4.028843E+04 -1.659197E-10 -8.224793E-11
       398  14  7.729321E+05 -5.909070E+01  3.648453E+03 -3.145719E+04 -3.124192E-11  2.101088E-12
       398  15  7.730709E+05  9.882187E+01  6.412602E+03 -4.028841E+04  9.952406E-11 -5.595690E-12
       398  16  7.246590E+05 -1.169953E+04 -7.906378E+03 -4.040442E+04 -1.556317E-10 -7.147369E-11
       398  17  6.709234E+05 -2.460661E+04 -1.716306E+04 -3.162239E+04  3.220216E-11  9.563273E-11
       398  18  6.174671E+05 -3.732459E+04 -2.522153E+04 -4.050298E+04 -9.787447E-12  7.570425E-11
       398  19  8.214937E+05  1.165601E+04  1.212124E+04 -4.017244E+04 -2.377953E+03  2.773800E+03
       398  20  8.749508E+05  2.448782E+04  2.445949E+04 -3.129197E+04 -5.347382E+02  6.226611E+03
       398  21  9.286978E+05  3.752083E+04  3.804564E+04 -4.007376E+04  1.308243E+03  9.648099E+03
       398  22  7.730753E+05 -2.168306E+01  2.107500E+03 -4.028843E+04  1.622139E+03  2.773018E+03
       398  23  7.729322E+05 -5.904590E+01  3.648548E+03 -3.145717E+04  3.429079E+03  6.226035E+03
       398  24  7.730710E+05  9.892921E+01  6.412828E+03 -4.028837E+04  5.235632E+03  9.647716E+03
       398  25  7.246591E+05 -1.169952E+04 -7.906304E+03 -4.040441E+04  5.621925E+03  2.772235E+03
       398  26  6.709235E+05 -2.460655E+04 -1.716288E+04 -3.162235E+04  7.392258E+03  6.225456E+03
       398  27  6.174672E+05 -3.732447E+04 -2.522120E+04 -4.050291E+04  9.162057E+03  9.647331E+03
       399   1  9.682375E+05  4.664788E+04  4.829128E+04 -3.936384E+04 -2.460422E+03 -1.169519E+04
       399   2  1.020932E+06  5.990087E+04  6.551619E+04 -3.171642E+04 -1.050344E+04 -1.492636E+04
       399   3  1.075732E+06  7.732698E+04  8.901749E+04 -4.174162E+04 -1.854654E+04 -1.753512E+04
       399   4  7.734453E+05 -2.475356E+02  8.413223E+03 -4.029072E+04 -6.545563E+03 -1.169499E+04
       399   5  7.724493E+05  8.255499E+01  1.465463E+04 -3.145410E+04 -1.386816E+04 -1.492667E+04
       399   6  7.734324E+05  4.461981E+03  2.667450E+04 -4.029042E+04 -2.119015E+04 -1.753586E+04
       399   7  5.786891E+05 -4.714532E+04 -3.146679E+04 -4.121730E+04 -1.062945E+04 -1.169478E+04
       399   8  5.240256E+05 -5.973962E+04 -3.621016E+04 -3.119189E+04 -1.723156E+04 -1.492699E+04
       399   9  4.712194E+05 -6.840877E+04 -3.567339E+04 -3.883994E+04 -2.383250E+04 -1.753661E+04
       399  10  9.682374E+05  4.664773E+04  4.829102E+04 -3.936387E+04 -1.035019E-10 -8.081672E-12
       399  11  1.020931E+06  5.990060E+04  6.551557E+04 -3.171655E+04  2.561368E-10  5.378554E-11
       399  12  1.075731E+06  7.732655E+04  8.901627E+04 -4.174189E+04 -3.511485E-11 -1.237452E-10
       399  13  7.734452E+05 -2.476940E+02  8.412885E+03 -4.029078E+04 -6.109033E-11 -2.939955E-11
       399  14  7.724490E+05  8.226408E+01  1.465385E+04 -3.145427E+04 -7.333828E-12  1.830142E-10
       399  15  7.734318E+05  4.461530E+03  2.667308E+04 -4.029072E+04 -4.899483E-11 -1.391217E-11
       399  16  5.786889E+05 -4.714549E+04 -3.146726E+04 -4.121740E+04  1.161113E-10 -3.044015E-11
       399  17  5.240252E+05 -5.973994E+04 -3.621114E+04 -3.119209E+04 -3.292654E-10  1.641481E-10
       399  18  4.712187E+05 -6.840925E+04 -3.567504E+04 -3.884028E+04 -4.295422E-12  1.534705E-10
       399  19  9.682375E+05  4.664788E+04  4.829128E+04 -3.936384E+04  2.460422E+03  1.169519E+04
       399  20  1.020932E+06  5.990087E+04  6.551619E+04 -3.171642E+04  1.050344E+04  1.492636E+04
       399  21  1.075732E+06  7.732698E+04  8.901749E+04 -4.174162E+04  1.854654E+04  1.753512E+04
       399  22  7.734453E+05 -2.475356E+02  8.413223E+03 -4.029072E+04  6.545563E+03  1.169499E+04
       399  23  7.724493E+05  8.255499E+01  1.465463E+04 -3.145410E+04  1.386816E+04  1.492667E+04
       399  24  7.734324E+05  4.461981E+03  2.667450E+04 -4.029042E+04  2.119015E+04  1.753586E+04
       399  25  5.786891E+05 -4.714532E+04 -3.146679E+04 -4.121730E+04  1.062945E+04  1.169478E+04
       399  26  5.240256E+05 -5.973962E+04 -3.621016E+04 -3.119189E+04  1.723156E+04  1.492699E+04
       399  27  4.712194E+05 -6.840877E+04 -3.567339E+04 -3.883994E+04  2.383250E+04  1.753661E+04
       400   1  1.120852E+06  7.889632E+04  1.044153E+05 -2.643661E+04 -2.025490E+04 -2.009172E+04
       400   2  1.160509E+06  1.040671E+05  1.440875E+05 -5.422888E+04 -6.531356E+04 -1.900254E+04
       400   3  1.229046E+06  2.211955E+05  2.360574E+05 -9.919155E+04 -1.103811E+05 -6.030690E+03
       400   4  7.788857E+05 -3.492327E+03  3.408486E+04 -4.017283E+04 -2.583743E+04 -2.009248E+04
       400   5  7.656004E+05  8.307095E+03  5.971765E+04 -3.160006E+04 -5.717572E+04 -1.900442E+04
       400   6  7.788308E+05  1.097123E+05  1.281484E+05 -4.019396E+04 -8.851799E+04 -6.035532E+03
       400   7  4.370305E+05 -8.588761E+04 -3.625164E+04 -5.390135E+04 -3.141694E+04 -2.009300E+04
       400   8  3.708397E+05 -8.746113E+04 -2.466073E+04 -8.985825E+03 -4.904296E+04 -1.900570E+04
       400   9  3.288093E+05 -1.772218E+03  2.022880E+04  1.876074E+04 -6.667059E+04 -6.036231E+03
       400  10  1.120851E+06  7.889578E+04  1.044138E+05 -2.643694E+04  1.796480E-10 -1.546596E-10
       400  11  1.160504E+06  1.040656E+05  1.440788E+05 -5.422988E+04  9.141385E-11 -1.647557E-10
       400  12  1.229033E+06  2.211922E+05  2.360345E+05 -9.919209E+04 -2.820687E-10 -9.420492E-11
       400  13  7.788848E+05 -3.492940E+03  3.408285E+04 -4.017324E+04 -7.573780E-11 -4.260189E-11
       400  14  7.655968E+05  8.305831E+03  5.971083E+04 -3.160094E+04  2.377891E-10  6.805005E-13
       400  15  7.788223E+05  1.097102E+05  1.281337E+05 -4.019439E+04 -2.501155E-10 -5.975740E-11
       400  16  4.370294E+05 -8.588831E+04 -3.625425E+04 -5.390186E+04 -1.999699E-10  2.706422E-11
       400  17  3.708371E+05 -8.746217E+04 -2.466592E+04 -8.986576E+03 -6.389029E-11  1.192411E-11
       400  18  3.288045E+05 -1.773450E+03  2.022039E+04  1.876042E+04  3.336390E-10 -2.403008E-11
       400  19  1.120852E+06  7.889632E+04  1.044153E+05 -2.643661E+04  2.025490E+04  2.009172E+04
       400  20  1.160509E+06  1.040671E+05  1.440875E+05 -5.422888E+04  6.531356E+04  1.900254E+04
       400  21  1.229046E+06  2.211955E+05  2.360574E+05 -9.919155E+04  1.103811E+05  6.030690E+03
       400  22  7.788857E+05 -3.492327E+03  3.408486E+04 -4.017283E+04  2.583743E+04  2.009248E+04
       400  23  7.656004E+05  8.307095E+03  5.971765E+04 -3.160006E+04  5.717572E+04  1.900442E+04
       400  24  7.788308E+05  1.097123E+05  1.281484E+05 -4.019396E+04  8.851799E+04  6.035532E+03
       400  25  4.370305E+05 -8.588761E+04 -3.625164E+04 -5.390135E+04  3.141694E+04  2.009300E+04
       400  26  3.708397E+05 -8.746113E+04 -2.466073E+04 -8.985825E+03  4.904296E+04  1.900570E+04
       400  27  3.288093E+05 -1.772218E+03  2.022880E+04  1.876074E+04  6.667059E+04  6.036231E+03
       401   1 -2.667401E+05 -1.066215E+05 -1.030315E+05 -3.011923E+04 -2.139657E+04  5.898505E+03
       401   2 -2.251879E+05 -9.438534E+04 -8.294769E+04 -2.378330E+04 -8.439682E+03  1.891453E+04
       401   3 -1.858178E+05 -8.429217E+04 -7.183104E+04 -3.013728E+04  4.521999E+03  2.064972E+04
       401   4  1.635965E+05  8.539391E+01  1.318349E+02 -3.009480E+04  8.487389E+01  5.904452E+03
       401   5  1.635648E+05 -2.957491E+01  5.824199E+01 -2.374997E+04  5.195546E+01  1.891526E+04
       401   6  1.636061E+05 -3.121501E+01  4.023522E+01 -3.009477E+04  2.309217E+01  2.064844E+04
       401   7  5.941038E+05  1.067790E+05  1.032838E+05 -3.007036E+04  2.158115E+04  5.910399E+03
       401   8  5.524600E+05  9.431637E+04  8.305571E+04 -2.371663E+04  8.548834E+03  1.891600E+04
       401   9  5.131458E+05  8.422205E+04  7.190504E+04 -3.005225E+04 -4.478302E+03  2.064715E+04
       401  10 -2.667406E+05 -1.066216E+05 -1.030324E+05 -3.011913E+04 -1.232878E-10  1.539444E-10
       401  11 -2.251880E+05 -9.438574E+04 -8.294850E+04 -2.378317E+04  5.749750E-10  2.910782E-10
       401  12 -1.858179E+05 -8.429263E+04 -7.183188E+04 -3.013735E+04 -7.825883E-11  6.035071E-11
       401  13  1.635965E+05  8.535647E+01  1.317694E+02 -3.009480E+04  5.255033E-11 -3.536008E-11
       401  14  1.635647E+05 -2.995914E+01  5.756958E+01 -2.374997E+04  1.367415E-10 -2.868805E-11
       401  15  1.636060E+05 -3.167288E+01  3.943394E+01 -3.009477E+04  3.432103E-10 -7.810436E-14
       401  16  5.941033E+05  1.067789E+05  1.032828E+05 -3.007047E+04  1.050911E-10 -1.703293E-10
       401  17  5.524598E+05  9.431597E+04  8.305490E+04 -2.371676E+04 -4.907001E-12 -2.946435E-10
       401  18  5.131457E+05  8.422159E+04  7.190420E+04 -3.005217E+04  3.628289E-10  2.446148E-11
       401  19 -2.667401E+05 -1.066215E+05 -1.030315E+05 -3.011923E+04  2.139657E+04 -5.898505E+03
       401  20 -2.251879E+05 -9.438534E+04 -8.294769E+04 -2.378330E+04  8.439682E+03 -1.891453E+04
       401  21 -1.858178E+05 -8.429217E+04 -7.183104E+04 -3.013728E+04 -4.521999E+03 -2.064972E+04
       401  22  1.635965E+05  8.539391E+01  1.318349E+02 -3.009480E+04 -8.487389E+01 -5.904452E+03
       401  23  1.635648E+05 -2.957491E+01  5.824199E+01 -2.374997E+04 -5.195546E+01 -1.891526E+04
       401  24  1.636061E+05 -3.121501E+01  4.023522E+01 -3.009477E+04 -2.309217E+01 -2.064844E+04
       401  25  5.941038E+05  1.067790E+05  1.032838E+05 -3.007036E+04 -2.158115E+04 -5.910399E+03
       401  26  5.524600E+05  9.431637E+04  8.305571E+04 -2.371663E+04 -8.548834E+03 -1.891600E+04
       401  27  5.131458E+05  8.422205E+04  7.190504E+04 -3.005225E+04  4.478302E+03 -2.064715E+04
       402   1 -1.560393E+05 -7.713407E+04 -6.590646E+04 -3.023196E+04  1.732353E+03  1.862708E+04
       402   2 -1.156856E+05 -6.730709E+04 -5.716249E+04 -2.358770E+04  2.404411E+03  1.684110E+04
       402   3 -7.542727E+04 -5.759098E+04 -4.887939E+04 -3.020265E+04  3.075871E+03  1.446149E+04
       402   4  1.635987E+05 -1.786833E+01  3.349027E+01 -3.022127E+04  1.719226E+01  1.862628E+04
       402   5  1.635916E+05 -1.501545E+01  2.484259E+01 -2.359185E+04  5.497794E+00  1.684059E+04
       402   6  1.636057E+05 -4.362732E+00  3.007916E+01 -3.022127E+04 -6.846957E+00  1.446141E+04
       402   7  4.833337E+05  7.709188E+04  6.596794E+04 -3.021057E+04 -1.698836E+03  1.862548E+04
       402   8  4.429429E+05  6.727216E+04  5.720805E+04 -2.359600E+04 -2.394475E+03  1.684009E+04
       402   9  4.026931E+05  5.757868E+04  4.893656E+04 -3.023990E+04 -3.090731E+03  1.446134E+04
       402  10 -1.560394E+05 -7.713444E+04 -6.590712E+04 -3.023199E+04 -3.167435E-11 -7.608263E-11
       402  11 -1.156857E+05 -6.730739E+04 -5.716303E+04 -2.358773E+04  2.251862E-10 -3.625152E-11
       402  12 -7.542734E+04 -5.759121E+04 -4.887981E+04 -3.020268E+04 -1.729527E-10 -1.874259E-11
       402  13  1.635986E+05 -1.824091E+01  3.283825E+01 -3.022127E+04 -3.166267E-11  3.878231E-12
       402  14  1.635915E+05 -1.532001E+01  2.430960E+01 -2.359185E+04 -7.761738E-11  1.094903E-10
       402  15  1.636057E+05 -4.587322E+00  2.968613E+01 -3.022127E+04 -4.053672E-10 -3.610446E-13
       402  16  4.833336E+05  7.709150E+04  6.596728E+04 -3.021055E+04 -8.307985E-12  1.395998E-11
       402  17  4.429428E+05  6.727186E+04  5.720751E+04 -2.359596E+04 -1.035399E-10  8.674274E-12
       402  18  4.026930E+05  5.757845E+04  4.893615E+04 -3.023986E+04  6.015702E-11  2.258160E-11
       402  19 -1.560393E+05 -7.713407E+04 -6.590646E+04 -3.023196E+04 -1.732353E+03 -1.862708E+04
       402  20 -1.156856E+05 -6.730709E+04 -5.716249E+04 -2.358770E+04 -2.404411E+03 -1.684110E+04
       402  21 -7.542727E+04 -5.759098E+04 -4.887939E+04 -3.020265E+04 -3.075871E+03 -1.446149E+04
       402  22  1.635987E+05 -1.786833E+01  3.349027E+01 -3.022127E+04 -1.719226E+01 -1.862628E+04
       402  23  1.635916E+05 -1.501545E+01  2.484259E+01 -2.359185E+04 -5.497794E+00 -1.684059E+04
       402  24  1.636057E+05 -4.362732E+00  3.007916E+01 -3.022127E+04  6.846957E+00 -1.446141E+04
       402  25  4.833337E+05  7.709188E+04  6.596794E+04 -3.021057E+04  1.698836E+03 -1.862548E+04
       402  26  4.429429E+05  6.727216E+04  5.720805E+04 -2.359600E+04  2.394475E+03 -1.684009E+04
       402  27  4.026931E+05  5.757868E+04  4.893656E+04 -3.023990E+04  3.090731E+03 -1.446134E+04
       403   1 -4.601636E+04 -5.046644E+04 -4.268002E+04 -3.020344E+04  2.922493E+03  1.291739E+04
       403   2 -5.750386E+03 -4.078097E+04 -3.451837E+04 -2.356294E+04  2.932740E+03  1.035393E+04
       403   3  3.451731E+04 -3.109665E+04 -2.636330E+04 -3.019816E+04  2.942530E+03  7.759753E+03
       403   4  1.636052E+05 -1.735575E+00  3.396039E+01 -3.022497E+04 -1.273986E+01  1.291749E+04
       403   5  1.636042E+05  1.037918E+00  5.091714E+01 -2.358722E+04 -3.796637E+01  1.035427E+04
       403   6  1.636094E+05  8.902356E+00  8.594615E+01 -3.022497E+04 -6.364986E+01  7.760351E+03
       403   7  3.732685E+05  5.046023E+04  4.274566E+04 -3.024650E+04 -2.948946E+03  1.291759E+04
       403   8  3.329860E+05  4.078126E+04  3.461873E+04 -2.361151E+04 -3.009468E+03  1.035462E+04
       403   9  2.927174E+05  3.111341E+04  2.653434E+04 -3.025178E+04 -3.070444E+03  7.760949E+03
       403  10 -4.601641E+04 -5.046663E+04 -4.268035E+04 -3.020347E+04 -2.201880E-10  3.079441E-11
       403  11 -5.750424E+03 -4.078109E+04 -3.451859E+04 -2.356297E+04 -3.522796E-11  1.892321E-10
       403  12  3.451729E+04 -3.109672E+04 -2.636343E+04 -3.019817E+04  2.596465E-10 -1.826125E-10
       403  13  1.636051E+05 -1.914769E+00  3.364680E+01 -3.022497E+04 -2.692547E-10 -4.077763E-12
       403  14  1.636041E+05  9.227833E-01  5.071565E+01 -2.358722E+04 -1.953683E-10 -1.653817E-10
       403  15  1.636094E+05  8.837681E+00  8.583297E+01 -3.022497E+04  1.986651E-10  2.504605E-11
       403  16  3.732685E+05  5.046005E+04  4.274533E+04 -3.024647E+04 -1.874720E-10 -3.290355E-12
       403  17  3.329859E+05  4.078114E+04  3.461851E+04 -2.361148E+04 -1.360770E-11  4.997556E-11
       403  18  2.927174E+05  3.111334E+04  2.653421E+04 -3.025177E+04 -2.742008E-10 -1.236857E-10
       403  19 -4.601636E+04 -5.046644E+04 -4.268002E+04 -3.020344E+04 -2.922493E+03 -1.291739E+04
       403  20 -5.750386E+03 -4.078097E+04 -3.451837E+04 -2.356294E+04 -2.932740E+03 -1.035393E+04
       403  21  3.451731E+04 -3.109665E+04 -2.636330E+04 -3.019816E+04 -2.942530E+03 -7.759753E+03
       403  22  1.636052E+05 -1.735575E+00  3.396039E+01 -3.022497E+04  1.273986E+01 -1.291749E+04
       403  23  1.636042E+05  1.037918E+00  5.091714E+01 -2.358722E+04  3.796637E+01 -1.035427E+04
       403  24  1.636094E+05  8.902356E+00  8.594615E+01 -3.022497E+04  6.364986E+01 -7.760351E+03
       403  25  3.732685E+05  5.046023E+04  4.274566E+04 -3.024650E+04  2.948946E+03 -1.291759E+04
       403  26  3.329860E+05  4.078126E+04  3.461873E+04 -2.361151E+04  3.009468E+03 -1.035462E+04
       403  27  2.927174E+05  3.111341E+04  2.653434E+04 -3.025178E+04  3.070444E+03 -7.760949E+03
       404   1  6.389457E+04 -2.397951E+04 -2.013244E+04 -3.020090E+04  2.916111E+03  6.241909E+03
       404   2  1.041407E+05 -1.431216E+04 -1.194284E+04 -2.356575E+04  2.822381E+03  3.638986E+03
       404   3  1.443952E+05 -4.638611E+03 -3.692535E+03 -3.020100E+04  2.728487E+03  1.034704E+03
       404   4  1.636112E+05  1.015683E+01  1.116011E+02 -3.022382E+04 -8.199776E+01  6.242605E+03
       404   5  1.636081E+05  6.522288E+00  1.919689E+02 -2.358866E+04 -1.773679E+02  3.639766E+03
       404   6  1.636126E+05  9.605738E+00  3.343597E+02 -3.022382E+04 -2.728969E+02  1.035572E+03
       404   7  2.633372E+05  2.399921E+04  2.035516E+04 -3.024675E+04 -3.080579E+03  6.243301E+03
       404   8  2.230788E+05  1.432498E+04  1.232662E+04 -2.361157E+04 -3.177399E+03  3.640545E+03
       404   9  1.828304E+05  4.657804E+03  4.361268E+03 -3.024664E+04 -3.274372E+03  1.036441E+03
       404  10  6.389455E+04 -2.397955E+04 -2.013253E+04 -3.020091E+04 -2.382148E-10 -1.653102E-10
       404  11  1.041407E+05 -1.431217E+04 -1.194288E+04 -2.356576E+04 -1.843130E-10  1.151981E-10
       404  12  1.443952E+05 -4.638614E+03 -3.692551E+03 -3.020100E+04  1.821932E-10 -6.187363E-11
       404  13  1.636111E+05  1.011498E+01  1.115279E+02 -3.022382E+04  3.162158E-11 -3.559417E-10
       404  14  1.636081E+05  6.508053E+00  1.919439E+02 -2.358866E+04 -2.954998E-11 -4.093530E-11
       404  15  1.636126E+05  9.604566E+00  3.343575E+02 -3.022382E+04 -5.705573E-11 -7.056622E-11
       404  16  2.633372E+05  2.399916E+04  2.035507E+04 -3.024673E+04  1.255515E-10 -1.384350E-10
       404  17  2.230788E+05  1.432497E+04  1.232658E+04 -2.361156E+04 -1.642367E-10  3.218205E-12
       404  18  1.828304E+05  4.657800E+03  4.361246E+03 -3.024664E+04 -2.332603E-10 -1.497057E-10
       404  19  6.389457E+04 -2.397951E+04 -2.013244E+04 -3.020090E+04 -2.916111E+03 -6.241909E+03
       404  20  1.041407E+05 -1.431216E+04 -1.194284E+04 -2.356575E+04 -2.822381E+03 -3.638986E+03
       404  21  1.443952E+05 -4.638611E+03 -3.692535E+03 -3.020100E+04 -2.728487E+03 -1.034704E+03
       404  22  1.636112E+05  1.015683E+01  1.116011E+02 -3.022382E+04  8.199776E+01 -6.242605E+03
       404  23  1.636081E+05  6.522288E+00  1.919689E+02 -2.358866E+04  1.773679E+02 -3.639766E+03
       404  24  1.636126E+05  9.605738E+00  3.343597E+02 -3.022382E+04  2.728969E+02 -1.035572E+03
       404  25  2.633372E+05  2.399921E+04  2.035516E+04 -3.024675E+04  3.080579E+03 -6.243301E+03
       404  26  2.230788E+05  1.432498E+04  1.232662E+04 -2.361157E+04  3.177399E+03 -3.640545E+03
       404  27  1.828304E+05  4.657804E+03  4.361268E+03 -3.024664E+04  3.274372E+03 -1.036441E+03
       405   1  1.737752E+05  2.475641E+03  2.618306E+03 -3.020436E+04  2.657605E+03 -4.814143E+02
       405   2  2.140032E+05  1.213017E+04  1.105125E+04 -2.355208E+04  2.276832E+03 -3.085437E+03
       405   3  2.542800E+05  2.180033E+04  1.973414E+04 -3.016988E+04  1.896165E+03 -5.688093E+03
       405   4  1.636213E+05  9.750835E+00  4.407780E+02 -3.022378E+04 -3.438172E+02 -4.805421E+02
       405   5  1.635974E+05 -5.810697E+00  7.661323E+02 -2.358871E+04 -7.230962E+02 -3.084641E+03
       405   6  1.636200E+05 -6.068256E+00  1.340278E+03 -3.022378E+04 -1.102245E+03 -5.687367E+03
       405   7  1.534675E+05 -2.456142E+03 -1.736722E+03 -3.024320E+04 -3.345191E+03 -4.796697E+02
       405   8  1.131941E+05 -1.214195E+04 -9.519085E+03 -2.362533E+04 -3.722786E+03 -3.083844E+03
       405   9  7.296786E+04 -2.181297E+04 -1.705398E+04 -3.027766E+04 -4.100226E+03 -5.686640E+03
       405  10  1.737752E+05  2.475639E+03  2.618292E+03 -3.020436E+04  1.860679E-12  7.190395E-11
       405  11  2.140032E+05  1.213016E+04  1.105122E+04 -2.355208E+04 -1.138744E-10  2.805696E-10
       405  12  2.542800E+05  2.180029E+04  1.973407E+04 -3.016987E+04  3.222505E-10 -2.439767E-10
       405  13  1.636213E+05  9.750555E+00  4.407774E+02 -3.022378E+04 -2.692703E-10 -4.089118E-11
       405  14  1.635974E+05 -5.821056E+00  7.661134E+02 -2.358871E+04 -7.381268E-11  2.968273E-10
       405  15  1.636200E+05 -6.103320E+00  1.340215E+03 -3.022378E+04 -1.220103E-10 -8.304403E-11
       405  16  1.534675E+05 -2.456145E+03 -1.736744E+03 -3.024320E+04 -2.985581E-10 -6.096522E-11
       405  17  1.131941E+05 -1.214196E+04 -9.519129E+03 -2.362533E+04 -1.064530E-10  3.049913E-10
       405  18  7.296783E+04 -2.181301E+04 -1.705407E+04 -3.027768E+04 -2.931928E-10 -2.040937E-10
       405  19  1.737752E+05  2.475641E+03  2.618306E+03 -3.020436E+04 -2.657605E+03  4.814143E+02
       405  20  2.140032E+05  1.213017E+04  1.105125E+04 -2.355208E+04 -2.276832E+03  3.085437E+03
       405  21  2.542800E+05  2.180033E+04  1.973414E+04 -3.016988E+04 -1.896165E+03  5.688093E+03
       405  22  1.636213E+05  9.750835E+00  4.407780E+02 -3.022378E+04  3.438172E+02  4.805421E+02
       405  23  1.635974E+05 -5.810697E+00  7.661323E+02 -2.358871E+04  7.230962E+02  3.084641E+03
       405  24  1.636200E+05 -6.068256E+00  1.340278E+03 -3.022378E+04  1.102245E+03  5.687367E+03
       405  25  1.534675E+05 -2.456142E+03 -1.736722E+03 -3.024320E+04  3.345191E+03  4.796697E+02
       405  26  1.131941E+05 -1.214195E+04 -9.519085E+03 -2.362533E+04  3.722786E+03  3.083844E+03
       405  27  7.296786E+04 -2.181297E+04 -1.705398E+04 -3.027766E+04  4.100226E+03  5.686640E+03
       406   1  2.837024E+05  2.890383E+04  2.636619E+04 -3.014137E+04  1.622585E+03 -7.205600E+03
       406   2  3.238511E+05  3.854474E+04  3.579366E+04 -2.345998E+04  6.435013E+01 -9.799096E+03
       406   3  3.642482E+05  4.835874E+04  4.627831E+04 -3.005316E+04 -1.493553E+03 -1.236252E+04
       406   4  1.636619E+05 -1.776547E+01  1.767697E+03 -3.022481E+04 -1.383794E+03 -7.204964E+03
       406   5  1.635394E+05 -5.200712E+01  3.076378E+03 -2.358740E+04 -2.907101E+03 -9.798701E+03
       406   6  1.636577E+05  8.092915E+01  5.418262E+03 -3.022477E+04 -4.429979E+03 -1.236236E+04
       406   7  4.363507E+04 -2.894026E+04 -2.283153E+04 -3.030824E+04 -4.389602E+03 -7.204328E+03
       406   8  3.252066E+03 -3.865036E+04 -2.964222E+04 -2.371478E+04 -5.877799E+03 -9.798304E+03
       406   9 -3.689450E+04 -4.819939E+04 -3.544387E+04 -3.039631E+04 -7.365473E+03 -1.236219E+04
       406  10  2.837024E+05  2.890377E+04  2.636609E+04 -3.014136E+04 -2.316111E-10 -8.696686E-11
       406  11  3.238511E+05  3.854464E+04  3.579347E+04 -2.345998E+04 -4.994414E-11 -5.388312E-11
       406  12  3.642481E+05  4.835858E+04  4.627802E+04 -3.005318E+04 -2.180729E-10 -4.013854E-11
       406  13  1.636619E+05 -1.782173E+01  1.767596E+03 -3.022482E+04 -1.577709E-10 -2.521221E-11
       406  14  1.635393E+05 -5.211250E+01  3.076182E+03 -2.358742E+04 -2.419226E-10 -6.726918E-11
       406  15  1.636576E+05  8.075976E+01  5.417938E+03 -3.022481E+04 -2.476396E-10 -9.838022E-11
       406  16  4.363503E+04 -2.894032E+04 -2.283166E+04 -3.030827E+04  3.335716E-12  7.469405E-11
       406  17  3.252003E+03 -3.865047E+04 -2.964247E+04 -2.371483E+04  1.087966E-10  1.981748E-10
       406  18 -3.689460E+04 -4.819957E+04 -3.544425E+04 -3.039638E+04  9.707914E-11  1.523790E-10
       406  19  2.837024E+05  2.890383E+04  2.636619E+04 -3.014137E+04 -1.622585E+03  7.205600E+03
       406  20  3.238511E+05  3.854474E+04  3.579366E+04 -2.345998E+04 -6.435013E+01  9.799096E+03
       406  21  3.642482E+05  4.835874E+04  4.627831E+04 -3.005316E+04  1.493553E+03  1.236252E+04
       406  22  1.636619E+05 -1.776547E+01  1.767697E+03 -3.022481E+04  1.383794E+03  7.204964E+03
       406  23  1.635394E+05 -5.200712E+01  3.076378E+03 -2.358740E+04  2.907101E+03  9.798701E+03
       406  24  1.636577E+05  8.092915E+01  5.418262E+03 -3.022477E+04  4.429979E+03  1.236236E+04
       406  25  4.363507E+04 -2.894026E+04 -2.283153E+04 -3.030824E+04  4.389602E+03  7.204328E+03
       406  26  3.252066E+03 -3.865036E+04 -2.964222E+04 -2.371478E+04  5.877799E+03  9.798304E+03
       406  27 -3.689450E+04 -4.819939E+04 -3.544387E+04 -3.039631E+04  7.365473E+03  1.236219E+04
       407   1  3.939863E+05  5.518559E+04  5.416602E+04 -2.944460E+04 -2.455521E+03 -1.390550E+04
       407   2  4.334033E+05  6.516729E+04  6.771983E+04 -2.381751E+04 -9.318298E+03 -1.628845E+04
       407   3  4.746162E+05  7.869382E+04  8.662904E+04 -3.144849E+04 -1.618082E+04 -1.809071E+04
       407   4  1.639748E+05 -2.125786E+02  7.111401E+03 -3.022116E+04 -5.536212E+03 -1.390550E+04
       407   5  1.631313E+05  6.603129E+01  1.239249E+04 -2.359183E+04 -1.172726E+04 -1.628888E+04
       407   6  1.639673E+05  3.774211E+03  2.256460E+04 -3.022088E+04 -1.791763E+04 -1.809147E+04
       407   7 -6.598649E+04 -5.561406E+04 -3.994599E+04 -3.099742E+04 -8.615782E+03 -1.390549E+04
       407   8 -1.070714E+05 -6.503980E+04 -4.293870E+04 -2.336625E+04 -1.413519E+04 -1.628931E+04
       407   9 -1.465902E+05 -7.115149E+04 -4.150504E+04 -2.899389E+04 -1.965358E+04 -1.809224E+04
       407  10  3.939862E+05  5.518538E+04  5.416565E+04 -2.944463E+04  1.348134E-10 -6.514779E-11
       407  11  4.334031E+05  6.516698E+04  6.771917E+04 -2.381763E+04  6.879750E-11 -8.965662E-11
       407  12  4.746159E+05  7.869340E+04  8.662794E+04 -3.144873E+04 -2.561491E-10 -5.550843E-11
       407  13  1.639747E+05 -2.127945E+02  7.110980E+03 -3.022122E+04 -1.304240E-10 -2.520330E-11
       407  14  1.631311E+05  6.570943E+01  1.239174E+04 -2.359199E+04  9.261867E-12 -1.347648E-11
       407  15  1.639668E+05  3.773773E+03  2.256338E+04 -3.022114E+04 -2.322114E-10 -8.503719E-11
       407  16 -6.598662E+04 -5.561428E+04 -3.994649E+04 -3.099752E+04 -4.264704E-11 -1.266361E-11
       407  17 -1.070717E+05 -6.504014E+04 -4.293957E+04 -2.336643E+04 -2.367123E-10 -9.486762E-11
       407  18 -1.465907E+05 -7.115194E+04 -4.150638E+04 -2.899418E+04  8.874629E-12 -7.518464E-11
       407  19  3.939863E+05  5.518559E+04  5.416602E+04 -2.944460E+04  2.455521E+03  1.390550E+04
       407  20  4.334033E+05  6.516729E+04  6.771983E+04 -2.381751E+04  9.318298E+03  1.628845E+04
       407  21  4.746162E+05  7.869382E+04  8.662904E+04 -3.144849E+04  1.618082E+04  1.809071E+04
       407  22  1.639748E+05 -2.125786E+02  7.111401E+03 -3.022116E+04  5.536212E+03  1.390550E+04
       407  23  1.631313E+05  6.603129E+01  1.239249E+04 -2.359183E+04  1.172726E+04  1.628888E+04
       407  24  1.639673E+05  3.774211E+03  2.256460E+04 -3.022088E+04  1.791763E+04  1.809147E+04
       407  25 -6.598649E+04 -5.561406E+04 -3.994599E+04 -3.099742E+04  8.615782E+03  1.390549E+04
       407  26 -1.070714E+05 -6.503980E+04 -4.293870E+04 -2.336625E+04  1.413519E+04  1.628931E+04
       407  27 -1.465902E+05 -7.115149E+04 -4.150504E+04 -2.899389E+04  1.965358E+04  1.809224E+04
       408   1  5.090171E+05  7.910342E+04  9.883346E+04 -1.847430E+04 -1.738481E+04 -2.010243E+04
       408   2  5.371663E+05  9.916067E+04  1.315962E+05 -4.287777E+04 -5.663128E+04 -1.846393E+04
       408   3  5.899645E+05  1.972496E+05  2.094135E+05 -8.000377E+04 -9.588536E+04 -5.785143E+03
       408   4  1.685800E+05 -2.959529E+03  2.883458E+04 -3.009719E+04 -2.184684E+04 -2.010325E+04
       408   5  1.573471E+05  7.020918E+03  5.052493E+04 -2.374582E+04 -4.835598E+04 -1.846512E+04
       408   6  1.685638E+05  9.284510E+04  1.084420E+05 -3.011407E+04 -7.486912E+04 -5.787539E+03
       408   7 -1.717468E+05 -8.502926E+04 -4.117037E+04 -4.171359E+04 -2.630647E+04 -2.010391E+04
       408   8 -2.223354E+05 -8.512682E+04 -3.055421E+04 -4.625740E+03 -4.008565E+04 -1.846581E+04
       408   9 -2.526680E+05 -1.156265E+04  7.460907E+03  1.974165E+04 -5.386706E+04 -5.786562E+03
       408  10  5.090167E+05  7.910291E+04  9.883213E+04 -1.847458E+04 -2.671221E-10 -6.635004E-12
       408  11  5.371628E+05  9.915944E+04  1.315895E+05 -4.287861E+04  4.753986E-10 -7.282466E-11
       408  12  5.899546E+05  1.972471E+05  2.093962E+05 -8.000421E+04 -1.591015E-10 -9.456058E-11
       408  13  1.685794E+05 -2.960091E+03  2.883292E+04 -3.009754E+04 -2.255230E-10  5.111211E-11
       408  14  1.573445E+05  7.019924E+03  5.051989E+04 -2.374654E+04 -6.034390E-11  3.067786E-10
       408  15  1.685578E+05  9.284356E+04  1.084314E+05 -3.011442E+04 -8.052609E-11 -4.932026E-11
       408  16 -1.717476E+05 -8.502988E+04 -4.117243E+04 -4.171402E+04  6.162888E-11  5.634023E-13
       408  17 -2.223373E+05 -8.512762E+04 -3.055787E+04 -4.626336E+03  6.512403E-11  1.236377E-10
       408  18 -2.526712E+05 -1.156347E+04  7.455389E+03  1.974140E+04  2.021825E-10 -9.029908E-11
       408  19  5.090171E+05  7.910342E+04  9.883346E+04 -1.847430E+04  1.738481E+04  2.010243E+04
       408  20  5.371663E+05  9.916067E+04  1.315962E+05 -4.287777E+04  5.663128E+04  1.846393E+04
       408  21  5.899645E+05  1.972496E+05  2.094135E+05 -8.000377E+04  9.588536E+04  5.785143E+03
       408  22  1.685800E+05 -2.959529E+03  2.883458E+04 -3.009719E+04  2.184684E+04  2.010325E+04
       408  23  1.573471E+05  7.020918E+03  5.052493E+04 -2.374582E+04  4.835598E+04  1.846512E+04
       408  24  1.685638E+05  9.284510E+04  1.084420E+05 -3.011407E+04  7.486912E+04  5.787539E+03
       408  25 -1.717468E+05 -8.502926E+04 -4.117037E+04 -4.171359E+04  2.630647E+04  2.010391E+04
       408  26 -2.223354E+05 -8.512682E+04 -3.055421E+04 -4.625740E+03  4.008565E+04  1.846581E+04
       408  27 -2.526680E+05 -1.156265E+04  7.460907E+03  1.974165E+04  5.386706E+04  5.786562E+03
       409   1 -1.641487E+06 -2.792284E+05 -2.910185E+05 -1.172501E+05 -1.185320E+05  9.432830E+03
       409   2 -1.545415E+06 -1.584714E+05 -1.894752E+05 -6.962957E+04 -6.728432E+04  2.990470E+04
       409   3 -1.478259E+06 -1.269398E+05 -1.436478E+05 -4.783976E+04 -1.602264E+04  3.177308E+04
       409   4 -9.391765E+05 -1.047773E+05 -1.222610E+05 -6.093421E+04 -8.436053E+04  9.427984E+03
       409   5 -9.265479E+05 -8.018613E+03 -5.696497E+04 -4.801984E+04 -5.447314E+04  2.990062E+04
       409   6 -9.390971E+05  3.274877E+03 -3.249590E+04 -6.094053E+04 -2.458013E+04  3.177242E+04
       409   7 -2.364040E+05  6.965046E+04  4.646760E+04 -4.554258E+03 -5.015040E+04  9.429360E+03
       409   8 -3.073180E+05  1.424109E+05  7.552386E+04 -2.638821E+04 -4.164932E+04  2.989744E+04
       409   9 -3.996585E+05  1.334719E+05  7.864070E+04 -7.405287E+04 -3.314493E+04  3.177211E+04
       409  10 -1.641502E+06 -2.792323E+05 -2.910452E+05 -1.172492E+05  2.107025E-11  2.533058E-12
       409  11 -1.545420E+06 -1.584736E+05 -1.894854E+05 -6.962794E+04  6.290936E-10 -4.131986E-11
       409  12 -1.478259E+06 -1.269410E+05 -1.436502E+05 -4.783935E+04 -3.685594E-10  3.183061E-10
       409  13 -9.391842E+05 -1.047793E+05 -1.222745E+05 -6.093357E+04 -1.259681E-11 -4.212011E-11
       409  14 -9.265513E+05 -8.020371E+03 -5.697223E+04 -4.801853E+04  3.607771E-10 -2.433567E-10
       409  15 -9.390980E+05  3.273631E+03 -3.249893E+04 -6.093990E+04 -6.071610E-11  2.320700E-10
       409  16 -2.364068E+05  6.964969E+04  4.646270E+04 -4.553877E+03 -1.157689E-10 -1.220007E-10
       409  17 -3.073201E+05  1.424095E+05  7.551892E+04 -2.638721E+04  1.644041E-10 -2.182281E-10
       409  18 -3.996600E+05  1.334705E+05  7.863674E+04 -7.405202E+04  4.950678E-10  2.437997E-10
       409  19 -1.641487E+06 -2.792284E+05 -2.910185E+05 -1.172501E+05  1.185320E+05 -9.432830E+03
       409  20 -1.545415E+06 -1.584714E+05 -1.894752E+05 -6.962957E+04  6.728432E+04 -2.990470E+04
       409  21 -1.478259E+06 -1.269398E+05 -1.436478E+05 -4.783976E+04  1.602264E+04 -3.177308E+04
       409  22 -9.391765E+05 -1.047773E+05 -1.222610E+05 -6.093421E+04  8.436053E+04 -9.427984E+03
       409  23 -9.265479E+05 -8.018613E+03 -5.696497E+04 -4.801984E+04  5.447314E+04 -2.990062E+04
       409  24 -9.390971E+05  3.274877E+03 -3.249590E+04 -6.094053E+04  2.458013E+04 -3.177242E+04
       409  25 -2.364040E+05  6.965046E+04  4.646760E+04 -4.554258E+03  5.015040E+04 -9.429360E+03
       409  26 -3.073180E+05  1.424109E+05  7.552386E+04 -2.638821E+04  4.164932E+04 -2.989744E+04
       409  27 -3.996585E+05  1.334719E+05  7.864070E+04 -7.405287E+04  3.314493E+04 -3.177211E+04
       410   1 -1.412842E+06 -1.200197E+05 -1.244374E+05 -6.252137E+04 -1.617624E+04  2.786085E+04
       410   2 -1.329913E+06 -9.587247E+04 -9.540762E+04 -4.787386E+04 -8.065634E+03  2.391078E+04
       410   3 -1.249027E+06 -7.577102E+04 -7.267392E+04 -6.019935E+04  4.381551E+01  1.897285E+04
       410   4 -9.339073E+05 -4.304322E+03 -2.543420E+04 -6.119164E+04 -2.015883E+04  2.785999E+04
       410   5 -9.329692E+05 -9.480786E+01 -1.397389E+04 -4.770484E+04 -1.317950E+04  2.391116E+04
       410   6 -9.338817E+05  2.682956E+02 -8.018715E+03 -6.119011E+04 -6.202346E+03  1.897475E+04
       410   7 -4.547542E+05  1.113966E+05  7.355662E+04 -5.986084E+04 -2.414444E+04  2.785911E+04
       410   8 -5.358759E+05  9.567295E+04  6.745154E+04 -4.753569E+04 -1.829657E+04  2.391153E+04
       410   9 -6.186418E+05  7.630138E+04  5.663134E+04 -6.218138E+04 -1.245163E+04  1.897667E+04
       410  10 -1.412843E+06 -1.200206E+05 -1.244393E+05 -6.252101E+04  1.158093E-10  3.504516E-10
       410  11 -1.329913E+06 -9.587310E+04 -9.540882E+04 -4.787370E+04 -3.546662E-10 -1.406436E-10
       410  12 -1.249027E+06 -7.577141E+04 -7.267459E+04 -6.019935E+04  5.921264E-10 -9.776609E-11
       410  13 -9.339080E+05 -4.305264E+03 -2.543642E+04 -6.119119E+04  4.205718E-11  3.029276E-10
       410  14 -9.329696E+05 -9.546823E+01 -1.397529E+04 -4.770458E+04 -2.102390E-10  1.190579E-10
       410  15 -9.338818E+05  2.678988E+02 -8.019464E+03 -6.119002E+04  1.894910E-10  7.809286E-11
       410  16 -4.547550E+05  1.113956E+05  7.355406E+04 -5.986030E+04 -1.902138E-10  2.249596E-10
       410  17 -5.358764E+05  9.567224E+04  6.744984E+04 -4.753534E+04  1.218740E-10  4.021747E-10
       410  18 -6.186421E+05  7.630095E+04  5.663037E+04 -6.218119E+04 -5.210051E-10 -2.411201E-10
       410  19 -1.412842E+06 -1.200197E+05 -1.244374E+05 -6.252137E+04  1.617624E+04 -2.786085E+04
       410  20 -1.329913E+06 -9.587247E+04 -9.540762E+04 -4.787386E+04  8.065634E+03 -2.391078E+04
       410  21 -1.249027E+06 -7.577102E+04 -7.267392E+04 -6.019935E+04 -4.381551E+01 -1.897285E+04
       410  22 -9.339073E+05 -4.304322E+03 -2.543420E+04 -6.119164E+04  2.015883E+04 -2.785999E+04
       410  23 -9.329692E+05 -9.480786E+01 -1.397389E+04 -4.770484E+04  1.317950E+04 -2.391116E+04
       410  24 -9.338817E+05  2.682956E+02 -8.018715E+03 -6.119011E+04  6.202346E+03 -1.897475E+04
       410  25 -4.547542E+05  1.113966E+05  7.355662E+04 -5.986084E+04  2.414444E+04 -2.785911E+04
       410  26 -5.358759E+05  9.567295E+04  6.745154E+04 -4.753569E+04  1.829657E+04 -2.391153E+04
       410  27 -6.186418E+05  7.630138E+04  5.663134E+04 -6.218138E+04  1.245163E+04 -1.897667E+04
       411   1 -1.188725E+06 -6.155665E+04 -5.811965E+04 -6.092457E+04  1.053935E+03  1.583305E+04
       411   2 -1.106405E+06 -4.161852E+04 -3.886302E+04 -4.743912E+04  2.843489E+03  1.058055E+04
       411   3 -1.024374E+06 -2.185278E+04 -2.082164E+04 -6.106956E+04  4.632337E+03  5.272936E+03
       411   4 -9.335268E+05 -5.478798E+01 -6.117916E+03 -6.122228E+04 -4.956855E+03  1.583535E+04
       411   5 -9.333790E+05  1.009827E+02 -3.492811E+03 -4.766450E+04 -3.230436E+03  1.058338E+04
       411   6 -9.335169E+05  9.553509E+01 -2.038799E+03 -6.122215E+04 -1.504953E+03  5.276320E+03
       411   7 -6.782664E+05  6.144301E+04  4.588053E+04 -6.152010E+04 -1.097007E+04  1.583766E+04
       411   8 -7.603243E+05  4.181863E+04  3.187595E+04 -4.788994E+04 -9.306025E+03  1.058621E+04
       411   9 -8.426516E+05  2.204335E+04  1.674374E+04 -6.137475E+04 -7.643127E+03  5.279707E+03
       411  10 -1.188725E+06 -6.155692E+04 -5.812013E+04 -6.092458E+04 -8.767423E-10 -5.464195E-10
       411  11 -1.106405E+06 -4.161865E+04 -3.886324E+04 -4.743914E+04 -3.421099E-10 -1.511478E-10
       411  12 -1.024374E+06 -2.185282E+04 -2.082173E+04 -6.106958E+04  1.251099E-09  2.661055E-10
       411  13 -9.335269E+05 -5.506373E+01 -6.118433E+03 -6.122221E+04 -3.254807E-14 -1.404395E-10
       411  14 -9.333790E+05  1.008597E+02 -3.493041E+03 -4.766447E+04 -4.377026E-10 -1.015520E-10
       411  15 -9.335169E+05  9.550460E+01 -2.038856E+03 -6.122214E+04 -2.387877E-10 -2.362697E-10
       411  16 -6.782666E+05  6.144271E+04  4.587984E+04 -6.151996E+04  4.190777E-10  4.855523E-11
       411  17 -7.603244E+05  4.181849E+04  3.187558E+04 -4.788986E+04 -4.097317E-11  2.834337E-10
       411  18 -8.426517E+05  2.204330E+04  1.674357E+04 -6.137472E+04 -8.785163E-10  1.417751E-10
       411  19 -1.188725E+06 -6.155665E+04 -5.811965E+04 -6.092457E+04 -1.053935E+03 -1.583305E+04
       411  20 -1.106405E+06 -4.161852E+04 -3.886302E+04 -4.743912E+04 -2.843489E+03 -1.058055E+04
       411  21 -1.024374E+06 -2.185278E+04 -2.082164E+04 -6.106956E+04 -4.632337E+03 -5.272936E+03
       411  22 -9.335268E+05 -5.478798E+01 -6.117916E+03 -6.122228E+04  4.956855E+03 -1.583535E+04
       411  23 -9.333790E+05  1.009827E+02 -3.492811E+03 -4.766450E+04  3.230436E+03 -1.058338E+04
       411  24 -9.335169E+05  9.553509E+01 -2.038799E+03 -6.122215E+04  1.504953E+03 -5.276320E+03
       411  25 -6.782664E+05  6.144301E+04  4.588053E+04 -6.152010E+04  1.097007E+04 -1.583766E+04
       411  26 -7.603243E+05  4.181863E+04  3.187595E+04 -4.788994E+04  9.306025E+03 -1.058621E+04
       411  27 -8.426516E+05  2.204335E+04  1.674374E+04 -6.137475E+04  7.643127E+03 -5.279707E+03
       412   1 -9.642806E+05 -7.300265E+03 -7.657055E+03 -6.114012E+04  4.945949E+03  2.169045E+03
       412   2 -8.819947E+05  1.246817E+04  9.525121E+03 -4.763397E+04  5.430123E+03 -3.155785E+03
       412   3 -7.997919E+05  3.224763E+04  2.638629E+04 -6.126378E+04  5.914643E+03 -8.482014E+03
       412   4 -9.334716E+05  8.458184E+01 -1.575450E+03 -6.122676E+04 -1.180235E+03  2.172532E+03
       412   5 -9.334282E+05  6.964288E+01 -9.818132E+02 -4.765871E+04 -6.980206E+02 -3.152458E+03
       412   6 -9.334741E+05  6.642668E+01 -7.076986E+02 -6.122676E+04 -2.155232E+02 -8.478828E+03
       412   7 -9.026617E+05  7.469391E+03  4.506250E+03 -6.131341E+04 -7.306717E+03  2.176021E+03
       412   8 -9.848591E+05 -1.232903E+04 -1.148875E+04 -4.768345E+04 -6.825665E+03 -3.149132E+03
       412   9 -1.067139E+06 -3.211587E+04 -2.780247E+04 -6.118973E+04 -6.344393E+03 -8.475642E+03
       412  10 -9.642807E+05 -7.300277E+03 -7.657110E+03 -6.114013E+04  1.574228E-10  1.454270E-10
       412  11 -8.819948E+05  1.246816E+04  9.525047E+03 -4.763395E+04 -1.921603E-10  5.201449E-10
       412  12 -7.997920E+05  3.224754E+04  2.638609E+04 -6.126374E+04  4.876212E-10  4.000691E-10
       412  13 -9.334716E+05  8.457640E+01 -1.575462E+03 -6.122676E+04  2.616855E-10  3.888097E-10
       412  14 -9.334282E+05  6.963208E+01 -9.818327E+02 -4.765871E+04 -2.107686E-10 -2.976573E-10
       412  15 -9.334741E+05  6.634951E+01 -7.078337E+02 -6.122676E+04 -2.570892E-10 -3.010630E-10
       412  16 -9.026617E+05  7.469372E+03  4.506141E+03 -6.131340E+04 -5.495484E-10 -8.747673E-10
       412  17 -9.848591E+05 -1.232906E+04 -1.148885E+04 -4.768347E+04  2.122108E-10  2.780702E-11
       412  18 -1.067139E+06 -3.211596E+04 -2.780268E+04 -6.118978E+04 -7.687544E-10 -6.053385E-10
       412  19 -9.642806E+05 -7.300265E+03 -7.657055E+03 -6.114012E+04 -4.945949E+03 -2.169045E+03
       412  20 -8.819947E+05  1.246817E+04  9.525121E+03 -4.763397E+04 -5.430123E+03  3.155785E+03
       412  21 -7.997919E+05  3.224763E+04  2.638629E+04 -6.126378E+04 -5.914643E+03  8.482014E+03
       412  22 -9.334716E+05  8.458184E+01 -1.575450E+03 -6.122676E+04  1.180235E+03 -2.172532E+03
       412  23 -9.334282E+05  6.964288E+01 -9.818132E+02 -4.765871E+04  6.980206E+02  3.152458E+03
       412  24 -9.334741E+05  6.642668E+01 -7.076986E+02 -6.122676E+04  2.155232E+02  8.478828E+03
       412  25 -9.026617E+05  7.469391E+03  4.506250E+03 -6.131341E+04  7.306717E+03 -2.176021E+03
       412  26 -9.848591E+05 -1.232903E+04 -1.148875E+04 -4.768345E+04  6.825665E+03  3.149132E+03
       412  27 -1.067139E+06 -3.211587E+04 -2.780247E+04 -6.118973E+04  6.344393E+03  8.475642E+03
       413   1 -7.397626E+05  4.679839E+04  3.913224E+04 -6.128159E+04  6.033614E+03 -1.158153E+04
       413   2 -6.576418E+05  6.651713E+04  5.563048E+04 -4.776973E+04  6.371516E+03 -1.689996E+04
       413   3 -5.755616E+05  8.624980E+04  7.190916E+04 -6.134376E+04  6.710975E+03 -2.220886E+04
       413   4 -9.334690E+05  6.326888E+01 -6.559011E+02 -6.121576E+04 -9.352826E+01 -1.157864E+04
       413   5 -9.334522E+05  3.802280E+01 -7.103737E+02 -4.767246E+04  2.548920E+02 -1.689790E+04
       413   6 -9.334832E+05  2.553080E+01 -9.913891E+02 -6.121578E+04  6.048250E+02 -2.220760E+04
       413   7 -1.127140E+06 -4.667420E+04 -4.044590E+04 -6.114995E+04 -6.218791E+03 -1.157575E+04
       413   8 -1.209190E+06 -6.644583E+04 -5.705511E+04 -4.757523E+04 -5.859062E+03 -1.689584E+04
       413   9 -1.291283E+06 -8.620673E+04 -7.389853E+04 -6.108785E+04 -5.497867E+03 -2.220635E+04
       413  10 -7.397626E+05  4.679824E+04  3.913192E+04 -6.128153E+04 -2.995423E-10  6.214383E-11
       413  11 -6.576419E+05  6.651681E+04  5.562987E+04 -4.776964E+04 -5.909748E-10 -2.276817E-10
       413  12 -5.755618E+05  8.624926E+04  7.190815E+04 -6.134364E+04  7.816124E-10 -5.253140E-10
       413  13 -9.334690E+05  6.312498E+01 -6.561529E+02 -6.121576E+04  2.449306E-10  5.746433E-10
       413  14 -9.334523E+05  3.771629E+01 -7.109102E+02 -4.767246E+04  3.711104E-10  5.124279E-10
       413  15 -9.334833E+05  2.500135E+01 -9.923162E+02 -6.121577E+04 -5.892912E-10 -7.102219E-10
       413  16 -1.127140E+06 -4.667435E+04 -4.044623E+04 -6.115001E+04  2.161675E-10 -7.923300E-12
       413  17 -1.209190E+06 -6.644615E+04 -5.705571E+04 -4.757531E+04  3.015585E-10  6.479107E-10
       413  18 -1.291283E+06 -8.620727E+04 -7.389951E+04 -6.108795E+04 -9.602880E-10 -1.697823E-10
       413  19 -7.397626E+05  4.679839E+04  3.913224E+04 -6.128159E+04 -6.033614E+03  1.158153E+04
       413  20 -6.576418E+05  6.651713E+04  5.563048E+04 -4.776973E+04 -6.371516E+03  1.689996E+04
       413  21 -5.755616E+05  8.624980E+04  7.190916E+04 -6.134376E+04 -6.710975E+03  2.220886E+04
       413  22 -9.334690E+05  6.326888E+01 -6.559011E+02 -6.121576E+04  9.352826E+01  1.157864E+04
       413  23 -9.334522E+05  3.802280E+01 -7.103737E+02 -4.767246E+04 -2.548920E+02  1.689790E+04
       413  24 -9.334832E+05  2.553080E+01 -9.913891E+02 -6.121578E+04 -6.048250E+02  2.220760E+04
       413  25 -1.127140E+06 -4.667420E+04 -4.044590E+04 -6.114995E+04  6.218791E+03  1.157575E+04
       413  26 -1.209190E+06 -6.644583E+04 -5.705511E+04 -4.757523E+04  5.859062E+03  1.689584E+04
       413  27 -1.291283E+06 -8.620673E+04 -7.389853E+04 -6.108785E+04  5.497867E+03  2.220635E+04
       414   1 -5.157343E+05  1.007566E+05  8.431567E+04 -6.133919E+04  6.921736E+03 -2.530118E+04
       414   2 -4.339474E+05  1.203867E+05  9.998972E+04 -4.784733E+04  7.842110E+03 -3.057072E+04
       414   3 -3.522408E+05  1.399408E+05  1.150565E+05 -6.131050E+04  8.765330E+03 -3.575556E+04
       414   4 -9.335057E+05  2.507150E+01 -1.236563E+03 -6.118683E+04  8.055150E+02 -2.530061E+04
       414   5 -9.334663E+05 -1.265280E+00 -2.056844E+03 -4.770868E+04  1.822286E+03 -3.057165E+04
       414   6 -9.335318E+05 -1.203772E+02 -3.552093E+03 -6.118689E+04  2.841787E+03 -3.575793E+04
       414   7 -1.351111E+06 -1.007174E+05 -8.679792E+04 -6.103454E+04 -5.306662E+03 -2.530005E+04
       414   8 -1.432748E+06 -1.204048E+05 -1.041165E+05 -4.757013E+04 -4.192780E+03 -3.057258E+04
       414   9 -1.514501E+06 -1.402027E+05 -1.221784E+05 -6.106337E+04 -3.076309E+03 -3.576030E+04
       414  10 -5.157345E+05  1.007559E+05  8.431437E+04 -6.133905E+04 -5.154572E-10  1.203361E-11
       414  11 -4.339478E+05  1.203857E+05  9.998785E+04 -4.784714E+04 -2.058773E-10  1.180513E-10
       414  12 -3.522412E+05  1.399395E+05  1.150540E+05 -6.131025E+04  5.807058E-10 -1.180824E-11
       414  13 -9.335059E+05  2.438425E+01 -1.237766E+03 -6.118681E+04 -4.214167E-10 -4.081843E-10
       414  14 -9.334666E+05 -2.269354E+00 -2.058605E+03 -4.770863E+04 -4.806671E-10  5.723138E-11
       414  15 -9.335321E+05 -1.217518E+02 -3.554510E+03 -6.118680E+04  1.308263E-10 -1.220962E-10
       414  16 -1.351111E+06 -1.007181E+05 -8.679918E+04 -6.103465E+04  8.700832E-10  4.384847E-11
       414  17 -1.432748E+06 -1.204058E+05 -1.041182E+05 -4.757023E+04 -5.786907E-10  1.742151E-10
       414  18 -1.514501E+06 -1.402041E+05 -1.221808E+05 -6.106346E+04 -8.995526E-10 -8.215232E-11
       414  19 -5.157343E+05  1.007566E+05  8.431567E+04 -6.133919E+04 -6.921736E+03  2.530118E+04
       414  20 -4.339474E+05  1.203867E+05  9.998972E+04 -4.784733E+04 -7.842110E+03  3.057072E+04
       414  21 -3.522408E+05  1.399408E+05  1.150565E+05 -6.131050E+04 -8.765330E+03  3.575556E+04
       414  22 -9.335057E+05  2.507150E+01 -1.236563E+03 -6.118683E+04 -8.055150E+02  2.530061E+04
       414  23 -9.334663E+05 -1.265280E+00 -2.056844E+03 -4.770868E+04 -1.822286E+03  3.057165E+04
       414  24 -9.335318E+05 -1.203772E+02 -3.552093E+03 -6.118689E+04 -2.841787E+03  3.575793E+04
       414  25 -1.351111E+06 -1.007174E+05 -8.679792E+04 -6.103454E+04  5.306662E+03  2.530005E+04
       414  26 -1.432748E+06 -1.204048E+05 -1.041165E+05 -4.757013E+04  4.192780E+03  3.057258E+04
       414  27 -1.514501E+06 -1.402027E+05 -1.221784E+05 -6.106337E+04  3.076309E+03  3.576030E+04
       415   1 -2.928842E+05  1.545423E+05  1.265110E+05 -6.160751E+04  9.823690E+03 -3.888910E+04
       415   2 -2.113664E+05  1.738646E+05  1.397972E+05 -4.747457E+04  1.222870E+04 -4.360880E+04
       415   3 -1.305004E+05  1.912488E+05  1.510649E+05 -6.003551E+04  1.463686E+04 -4.690556E+04
       415   4 -9.337335E+05  5.711869E+01 -4.641154E+03 -6.112918E+04  3.565437E+03 -3.889255E+04
       415   5 -9.332814E+05 -1.833759E+02 -8.084641E+03 -4.778097E+04  7.605019E+03 -4.361395E+04
       415   6 -9.337731E+05 -2.647245E+03 -1.468480E+04 -6.112864E+04  1.164744E+04 -4.691161E+04
       415   7 -1.574192E+06 -1.544538E+05 -1.358149E+05 -6.065134E+04 -2.686471E+03 -3.889602E+04
       415   8 -1.654701E+06 -1.742641E+05 -1.559941E+05 -4.808702E+04  2.986617E+03 -4.361910E+04
       415   9 -1.736433E+06 -1.965841E+05 -1.804693E+05 -6.222037E+04  8.661814E+03 -4.691765E+04
       415  10 -2.928847E+05  1.545406E+05  1.265080E+05 -6.160720E+04  7.168535E-12 -3.962725E-10
       415  11 -2.113671E+05  1.738625E+05  1.397933E+05 -4.747414E+04 -1.400084E-10 -5.579565E-10
       415  12 -1.305013E+05  1.912464E+05  1.510604E+05 -6.003496E+04 -1.314113E-09  3.704401E-10
       415  13 -9.337339E+05  5.549169E+01 -4.644019E+03 -6.112907E+04 -4.197207E-11 -4.475832E-10
       415  14 -9.332820E+05 -1.854331E+02 -8.088322E+03 -4.778070E+04 -1.935487E-10 -9.356333E-11
       415  15 -9.337739E+05 -2.649644E+03 -1.468919E+04 -6.112820E+04  1.065848E-10  4.150005E-10
       415  16 -1.574192E+06 -1.544554E+05 -1.358178E+05 -6.065142E+04 -3.351969E-10 -3.631088E-10
       415  17 -1.654701E+06 -1.742662E+05 -1.559977E+05 -4.808691E+04  1.734091E-10 -9.352959E-11
       415  18 -1.736434E+06 -1.965865E+05 -1.804736E+05 -6.222004E+04  9.026047E-10  1.055567E-09
       415  19 -2.928842E+05  1.545423E+05  1.265110E+05 -6.160751E+04 -9.823690E+03  3.888910E+04
       415  20 -2.113664E+05  1.738646E+05  1.397972E+05 -4.747457E+04 -1.222870E+04  4.360880E+04
       415  21 -1.305004E+05  1.912488E+05  1.510649E+05 -6.003551E+04 -1.463686E+04  4.690556E+04
       415  22 -9.337335E+05  5.711869E+01 -4.641154E+03 -6.112918E+04 -3.565437E+03  3.889255E+04
       415  23 -9.332814E+05 -1.833759E+02 -8.084641E+03 -4.778097E+04 -7.605019E+03  4.361395E+04
       415  24 -9.337731E+05 -2.647245E+03 -1.468480E+04 -6.112864E+04 -1.164744E+04  4.691161E+04
       415  25 -1.574192E+06 -1.544538E+05 -1.358149E+05 -6.065134E+04  2.686471E+03  3.889602E+04
       415  26 -1.654701E+06 -1.742641E+05 -1.559941E+05 -4.808702E+04 -2.986617E+03  4.361910E+04
       415  27 -1.736433E+06 -1.965841E+05 -1.804693E+05 -6.222037E+04 -8.661814E+03  4.691765E+04
       416   1 -7.358677E+04  2.099331E+05  1.587883E+05 -6.791355E+04  2.377451E+04 -5.114045E+04
       416   2  1.150154E+04  2.236825E+05  1.679429E+05 -3.517743E+04  1.025816E+04 -4.607713E+04
       416   3  8.764688E+04  1.935713E+05  1.749890E+05 -2.745771E+04 -3.291876E+03 -1.428148E+04
       416   4 -9.367615E+05  1.708315E+03 -1.875580E+04 -6.076813E+04  1.420196E+04 -5.115111E+04
       416   5 -9.296407E+05 -4.829164E+03 -3.289834E+04 -4.823277E+04  3.146913E+04 -4.606517E+04
       416   6 -9.368357E+05 -6.061249E+04 -7.055396E+04 -6.071663E+04  4.870315E+04 -1.422765E+04
       416   7 -1.799228E+06 -2.065632E+05 -1.963395E+05 -5.363288E+04  4.642467E+03 -5.116200E+04
       416   8 -1.869947E+06 -2.333977E+05 -2.337889E+05 -6.126818E+04  5.264839E+04 -4.605409E+04
       416   9 -1.960348E+06 -3.148670E+05 -3.161606E+05 -9.392064E+04  1.006127E+05 -1.417936E+04
       416  10 -7.358808E+04  2.099301E+05  1.587823E+05 -6.791257E+04  5.034756E-10  8.601408E-10
       416  11  1.150086E+04  2.236802E+05  1.679387E+05 -3.517704E+04  1.483944E-09  5.881454E-10
       416  12  8.764682E+04  1.935710E+05  1.749886E+05 -2.745775E+04  2.436384E-10  7.228710E-10
       416  13 -9.367624E+05  1.705453E+03 -1.876110E+04 -6.076754E+04  6.753429E-10 -3.389508E-10
       416  14 -9.296423E+05 -4.831708E+03 -3.290418E+04 -4.823161E+04 -4.835172E-13  5.160235E-10
       416  15 -9.368383E+05 -6.061335E+04 -7.055880E+04 -6.071607E+04  6.137579E-11 -3.201479E-10
       416  16 -1.799229E+06 -2.065660E+05 -1.963444E+05 -5.363269E+04 -4.750280E-10  8.084364E-10
       416  17 -1.869951E+06 -2.334008E+05 -2.337981E+05 -6.126622E+04 -3.705633E-10 -2.597058E-10
       416  18 -1.960359E+06 -3.148699E+05 -3.161800E+05 -9.391949E+04 -7.582944E-10  8.333587E-10
       416  19 -7.358677E+04  2.099331E+05  1.587883E+05 -6.791355E+04 -2.377451E+04  5.114045E+04
       416  20  1.150154E+04  2.236825E+05  1.679429E+05 -3.517743E+04 -1.025816E+04  4.607713E+04
       416  21  8.764688E+04  1.935713E+05  1.749890E+05 -2.745771E+04  3.291876E+03  1.428148E+04
       416  22 -9.367615E+05  1.708315E+03 -1.875580E+04 -6.076813E+04 -1.420196E+04  5.115111E+04
       416  23 -9.296407E+05 -4.829164E+03 -3.289834E+04 -4.823277E+04 -3.146913E+04  4.606517E+04
       416  24 -9.368357E+05 -6.061249E+04 -7.055396E+04 -6.071663E+04 -4.870315E+04  1.422765E+04
       416  25 -1.799228E+06 -2.065632E+05 -1.963395E+05 -5.363288E+04 -4.642467E+03  5.116200E+04
       416  26 -1.869947E+06 -2.333977E+05 -2.337889E+05 -6.126818E+04 -5.264839E+04  4.605409E+04
       416  27 -1.960348E+06 -3.148670E+05 -3.161606E+05 -9.392064E+04 -1.006127E+05  1.417936E+04
       417   1  3.678763E+04  5.733304E+04  1.068123E+05  7.222020E+04  1.675279E+05  1.109591E+04
       417   2  9.630518E+04 -1.541359E+05 -1.304205E+04  1.416130E+03  1.186446E+05  3.468436E+04
       417   3  2.138138E+05 -1.599734E+05 -4.962085E+04 -9.748992E+04  6.977488E+04  3.709846E+04
       417   4  8.428378E+05  2.566967E+05  2.999937E+05 -6.530850E+04  2.071749E+05  1.110007E+04
       417   5  8.118379E+05  1.935131E+04  1.397973E+05 -5.114079E+04  1.338030E+05  3.468474E+04
       417   6  8.429779E+05 -8.273374E+03  7.979422E+04 -6.506750E+04  6.045486E+04  3.709271E+04
       417   7  1.649527E+06  4.560855E+05  4.931452E+05 -2.030165E+05  2.468730E+05  1.108669E+04
       417   8  1.527859E+06  1.928157E+05  2.926093E+05 -1.037592E+05  1.489785E+05  3.468255E+04
       417   9  1.472520E+06  1.434057E+05  2.091889E+05 -3.261170E+04  5.112555E+04  3.708599E+04
       417  10  3.675746E+04  5.732537E+04  1.067593E+05  7.221871E+04  1.336187E-09 -1.175242E-09
       417  11  9.628974E+04 -1.541409E+05 -1.307076E+04  1.412816E+03  1.686462E-10  5.552965E-10
       417  12  2.138082E+05 -1.599762E+05 -4.963258E+04 -9.749200E+04 -3.953976E-09 -4.124375E-11
       417  13  8.427917E+05  2.566851E+05  2.999129E+05 -6.531035E+04  2.482251E-10  6.920909E-10
       417  14  8.118184E+05  1.934522E+04  1.397614E+05 -5.114452E+04  2.401606E-10 -1.543332E-11
       417  15  8.429736E+05 -8.275831E+03  7.978477E+04 -6.506931E+04 -3.879268E-10 -2.678970E-10
       417  16  1.649462E+06  4.560691E+05  4.930308E+05 -2.030188E+05 -7.721121E-10  5.540331E-10
       417  17  1.527835E+06  1.928085E+05  2.925654E+05 -1.037634E+05  1.196926E-09  5.697624E-11
       417  18  1.472517E+06  1.434036E+05  2.091815E+05 -3.261323E+04  4.433647E-09  2.059057E-09
       417  19  3.678763E+04  5.733304E+04  1.068123E+05  7.222020E+04 -1.675279E+05 -1.109591E+04
       417  20  9.630518E+04 -1.541359E+05 -1.304205E+04  1.416130E+03 -1.186446E+05 -3.468436E+04
       417  21  2.138138E+05 -1.599734E+05 -4.962085E+04 -9.748992E+04 -6.977488E+04 -3.709846E+04
       417  22  8.428378E+05  2.566967E+05  2.999937E+05 -6.530850E+04 -2.071749E+05 -1.110007E+04
       417  23  8.118379E+05  1.935131E+04  1.397973E+05 -5.114079E+04 -1.338030E+05 -3.468474E+04
       417  24  8.429779E+05 -8.273374E+03  7.979422E+04 -6.506750E+04 -6.045486E+04 -3.709271E+04
       417  25  1.649527E+06  4.560855E+05  4.931452E+05 -2.030165E+05 -2.468730E+05 -1.108669E+04
       417  26  1.527859E+06  1.928157E+05  2.926093E+05 -1.037592E+05 -1.489785E+05 -3.468255E+04
       417  27  1.472520E+06  1.434057E+05  2.091889E+05 -3.261170E+04 -5.112555E+04 -3.708599E+04
       418   1  2.657494E+05 -1.257589E+05 -5.397361E+04 -6.214997E+04  5.366414E+04  3.283707E+04
       418   2  3.511917E+05 -1.146747E+05 -6.326499E+04 -5.045322E+04  3.781284E+04  2.869974E+04
       418   3  4.411082E+05 -9.436053E+04 -5.990730E+04 -6.759849E+04  2.195794E+04  2.345411E+04
       418   4  8.302104E+05  1.034670E+04  6.244825E+04 -6.529064E+04  4.957581E+04  3.283202E+04
       418   5  8.278863E+05  1.195988E+02  3.431796E+04 -5.086802E+04  3.243258E+04  2.869538E+04
       418   6  8.302473E+05 -6.585633E+02  1.972361E+04 -6.528565E+04  1.528793E+04  2.345073E+04
       418   7  1.394973E+06  1.464322E+05  1.788530E+05 -6.843424E+04  4.548382E+04  3.282701E+04
       418   8  1.304797E+06  1.148996E+05  1.318890E+05 -5.128317E+04  2.704826E+04  2.869103E+04
       418   9  1.219530E+06  9.303396E+04  9.934666E+04 -6.297134E+04  8.613817E+03  2.344730E+04
       418  10  2.657460E+05 -1.257608E+05 -5.398105E+04 -6.215139E+04  8.210050E-10  3.597093E-11
       418  11  3.511899E+05 -1.146759E+05 -6.326922E+04 -5.045410E+04  7.279950E-10  1.968735E-10
       418  12  4.411075E+05 -9.436125E+04 -5.990924E+04 -6.759890E+04 -1.620828E-09 -1.966216E-10
       418  13  8.302075E+05  1.034489E+04  6.244161E+04 -6.529195E+04  3.127183E-10  1.537251E-09
       418  14  8.278850E+05  1.184322E+02  3.431444E+04 -5.086877E+04  4.364886E-10  6.015563E-10
       418  15  8.302469E+05 -6.592168E+02  1.972214E+04 -6.528593E+04 -2.894159E-10 -6.081068E-10
       418  16  1.394971E+06  1.464305E+05  1.788471E+05 -6.843544E+04 -8.405312E-10  1.355728E-09
       418  17  1.304796E+06  1.148986E+05  1.318860E+05 -5.128379E+04  1.262517E-10  1.030337E-10
       418  18  1.219530E+06  9.303335E+04  9.934549E+04 -6.297150E+04  1.482386E-09 -2.281031E-10
       418  19  2.657494E+05 -1.257589E+05 -5.397361E+04 -6.214997E+04 -5.366414E+04 -3.283707E+04
       418  20  3.511917E+05 -1.146747E+05 -6.326499E+04 -5.045322E+04 -3.781284E+04 -2.869974E+04
       418  21  4.411082E+05 -9.436053E+04 -5.990730E+04 -6.759849E+04 -2.195794E+04 -2.345411E+04
       418  22  8.302104E+05  1.034670E+04  6.244825E+04 -6.529064E+04 -4.957581E+04 -3.283202E+04
       418  23  8.278863E+05  1.195988E+02  3.431796E+04 -5.086802E+04 -3.243258E+04 -2.869538E+04
       418  24  8.302473E+05 -6.585633E+02  1.972361E+04 -6.528565E+04 -1.528793E+04 -2.345073E+04
       418  25  1.394973E+06  1.464322E+05  1.788530E+05 -6.843424E+04 -4.548382E+04 -3.282701E+04
       418  26  1.304797E+06  1.148996E+05  1.318890E+05 -5.128317E+04 -2.704826E+04 -2.869103E+04
       418  27  1.219530E+06  9.303396E+04  9.934666E+04 -6.297134E+04 -8.613817E+03 -2.344730E+04
       419   1  5.040812E+05 -7.809301E+04 -5.113429E+04 -6.589284E+04  1.860629E+04  2.010858E+04
       419   2  5.911128E+05 -5.744841E+04 -3.992530E+04 -5.133914E+04  1.441250E+04  1.453405E+04
       419   3  6.788397E+05 -3.638505E+04 -2.587380E+04 -6.557974E+04  1.021688E+04  8.904804E+03
       419   4  8.293712E+05  1.546101E+02  1.505005E+04 -6.527676E+04  1.221725E+04  2.010591E+04
       419   5  8.290289E+05 -1.955910E+02  8.608400E+03 -5.087998E+04  7.957935E+03  1.453208E+04
       419   6  8.293864E+05 -1.153705E+02  5.053650E+03 -6.527685E+04  3.697354E+03  8.903566E+03
       419   7  1.154762E+06  7.839566E+04  8.122901E+04 -6.466035E+04  5.824921E+03  2.010322E+04
       419   8  1.066999E+06  5.705371E+04  5.713928E+04 -5.042065E+04  1.500940E+03  1.453010E+04
       419   9  9.799546E+05  3.615291E+04  3.598005E+04 -6.497389E+04 -2.823720E+03  8.902322E+03
       419  10  5.040807E+05 -7.809354E+04 -5.113570E+04 -6.589314E+04 -6.207839E-10 -2.663508E-10
       419  11  5.911125E+05 -5.744869E+04 -3.992609E+04 -5.133931E+04 -5.248598E-10 -5.684802E-10
       419  12  6.788396E+05 -3.638516E+04 -2.587414E+04 -6.557981E+04 -6.405303E-10 -2.321474E-10
       419  13  8.293709E+05  1.541358E+02  1.504901E+04 -6.527695E+04 -2.989101E-10 -2.341829E-10
       419  14  8.290287E+05 -1.958349E+02  8.607884E+03 -5.088008E+04 -3.363673E-11 -1.130184E-10
       419  15  8.293863E+05 -1.154593E+02  5.053475E+03 -6.527688E+04 -6.501423E-10 -4.492402E-10
       419  16  1.154762E+06  7.839521E+04  8.122818E+04 -6.466045E+04  8.702244E-11 -1.857603E-10
       419  17  1.066999E+06  5.705349E+04  5.713888E+04 -5.042066E+04 -1.808203E-10 -3.210634E-10
       419  18  9.799546E+05  3.615282E+04  3.597988E+04 -6.497387E+04  4.270062E-10  2.024786E-10
       419  19  5.040812E+05 -7.809301E+04 -5.113429E+04 -6.589284E+04 -1.860629E+04 -2.010858E+04
       419  20  5.911128E+05 -5.744841E+04 -3.992530E+04 -5.133914E+04 -1.441250E+04 -1.453405E+04
       419  21  6.788397E+05 -3.638505E+04 -2.587380E+04 -6.557974E+04 -1.021688E+04 -8.904804E+03
       419  22  8.293712E+05  1.546101E+02  1.505005E+04 -6.527676E+04 -1.221725E+04 -2.010591E+04
       419  23  8.290289E+05 -1.955910E+02  8.608400E+03 -5.087998E+04 -7.957935E+03 -1.453208E+04
       419  24  8.293864E+05 -1.153705E+02  5.053650E+03 -6.527685E+04 -3.697354E+03 -8.903566E+03
       419  25  1.154762E+06  7.839566E+04  8.122901E+04 -6.466035E+04 -5.824921E+03 -2.010322E+04
       419  26  1.066999E+06  5.705371E+04  5.713928E+04 -5.042065E+04 -1.500940E+03 -1.453010E+04
       419  27  9.799546E+05  3.615291E+04  3.598005E+04 -6.497389E+04  2.823720E+03 -8.902322E+03
       420   1  7.424161E+05 -2.093655E+04 -1.356376E+04 -6.546969E+04  9.388350E+03  5.615450E+03
       420   2  8.296127E+05  2.632697E+01  2.572336E+03 -5.099297E+04  8.165091E+03 -2.626400E+01
       420   3  9.169999E+05  2.100031E+04  1.951138E+04 -6.528185E+04  6.941652E+03 -5.670989E+03
       420   4  8.292747E+05 -8.306118E+01  3.921041E+03 -6.527066E+04  2.885136E+03  5.614438E+03
       420   5  8.291837E+05 -7.665338E+01  2.485752E+03 -5.088787E+04  1.657782E+03 -2.729196E+01
       420   6  8.292751E+05 -5.843175E+01  1.855782E+03 -6.527070E+04  4.304146E+02 -5.672007E+03
       420   7  9.161406E+05  2.076998E+04  2.140562E+04 -6.507160E+04 -3.618970E+03  5.613422E+03
       420   8  8.287547E+05 -1.796110E+02  2.399327E+03 -5.078277E+04 -4.849523E+03 -2.832212E+01
       420   9  7.415579E+05 -2.111762E+04 -1.580005E+04 -6.525955E+04 -6.079922E+03 -5.673026E+03
       420  10  7.424160E+05 -2.093660E+04 -1.356399E+04 -6.546974E+04 -2.518889E-10 -1.954875E-10
       420  11  8.296126E+05  2.630910E+01  2.572211E+03 -5.099297E+04 -7.068013E-11  1.845058E-10
       420  12  9.169998E+05  2.100026E+04  1.951122E+04 -6.528182E+04 -8.614398E-10 -6.520397E-11
       420  13  8.292747E+05 -8.309727E+01  3.920966E+03 -6.527067E+04 -5.050429E-11  5.084239E-11
       420  14  8.291837E+05 -7.665412E+01  2.485747E+03 -5.088787E+04 -2.001776E-10 -2.941637E-10
       420  15  8.292751E+05 -5.846636E+01  1.855722E+03 -6.527070E+04  2.477721E-10  2.631635E-10
       420  16  9.161405E+05  2.076994E+04  2.140553E+04 -6.507158E+04  4.773311E-10  2.446990E-10
       420  17  8.287547E+05 -1.796173E+02  2.399283E+03 -5.078277E+04  2.733225E-11 -4.263023E-10
       420  18  7.415578E+05 -2.111767E+04 -1.580018E+04 -6.525958E+04  6.806268E-10  5.504964E-11
       420  19  7.424161E+05 -2.093655E+04 -1.356376E+04 -6.546969E+04 -9.388350E+03 -5.615450E+03
       420  20  8.296127E+05  2.632697E+01  2.572336E+03 -5.099297E+04 -8.165091E+03  2.626400E+01
       420  21  9.169999E+05  2.100031E+04  1.951138E+04 -6.528185E+04 -6.941652E+03  5.670989E+03
       420  22  8.292747E+05 -8.306118E+01  3.921041E+03 -6.527066E+04 -2.885136E+03 -5.614438E+03
       420  23  8.291837E+05 -7.665338E+01  2.485752E+03 -5.088787E+04 -1.657782E+03  2.729196E+01
       420  24  8.292751E+05 -5.843175E+01  1.855782E+03 -6.527070E+04 -4.304146E+02  5.672007E+03
       420  25  9.161406E+05  2.076998E+04  2.140562E+04 -6.507160E+04  3.618970E+03 -5.613422E+03
       420  26  8.287547E+05 -1.796110E+02  2.399327E+03 -5.078277E+04  4.849523E+03  2.832212E+01
       420  27  7.415579E+05 -2.111762E+04 -1.580005E+04 -6.525955E+04  6.079922E+03  5.673026E+03
       421   1  9.806926E+05  3.641255E+04  3.286309E+04 -6.526595E+04  6.615708E+03 -8.957477E+03
       421   2  1.068011E+06  5.736747E+04  5.067685E+04 -5.077073E+04  5.635251E+03 -1.460547E+04
       421   3  1.155504E+06  7.832384E+04  6.913671E+04 -6.507371E+04  4.656054E+03 -2.025411E+04
       421   4  8.292684E+05 -6.097766E+01  1.764662E+03 -6.527809E+04  1.016195E+02 -8.958723E+03
       421   5  8.291785E+05 -8.547873E+01  1.988041E+03 -5.087864E+04 -8.797022E+02 -1.460748E+04
       421   6  8.292552E+05 -1.079421E+02  2.858387E+03 -6.527807E+04 -1.859631E+03 -2.025685E+04
       421   7  6.778660E+05 -3.653593E+04 -2.933483E+04 -6.529023E+04 -6.410911E+03 -8.959968E+03
       421   8  5.904000E+05 -5.754196E+04 -4.670361E+04 -5.098651E+04 -7.392199E+03 -1.460948E+04
       421   9  5.031080E+05 -7.854633E+04 -6.342534E+04 -6.548232E+04 -8.371961E+03 -2.025959E+04
       421  10  9.806926E+05  3.641245E+04  3.286286E+04 -6.526590E+04 -7.971952E-10  1.097343E-10
       421  11  1.068011E+06  5.736723E+04  5.067639E+04 -5.077066E+04  4.345808E-10  6.485547E-10
       421  12  1.155503E+06  7.832340E+04  6.913590E+04 -6.507363E+04 -3.836381E-10 -9.973875E-11
       421  13  8.292684E+05 -6.106388E+01  1.764511E+03 -6.527809E+04  6.492438E-10  6.375809E-10
       421  14  8.291785E+05 -8.570816E+01  1.987639E+03 -5.087865E+04  6.997115E-10  1.097215E-09
       421  15  8.292551E+05 -1.083838E+02  2.857609E+03 -6.527810E+04  3.452303E-11 -7.076130E-12
       421  16  6.778660E+05 -3.653602E+04 -2.933506E+04 -6.529028E+04  9.059208E-10  4.255001E-10
       421  17  5.903999E+05 -5.754221E+04 -4.670411E+04 -5.098659E+04 -3.847869E-11  2.164764E-10
       421  18  5.031078E+05 -7.854679E+04 -6.342624E+04 -6.548245E+04  5.632805E-11  6.503552E-11
       421  19  9.806926E+05  3.641255E+04  3.286309E+04 -6.526595E+04 -6.615708E+03  8.957477E+03
       421  20  1.068011E+06  5.736747E+04  5.067685E+04 -5.077073E+04 -5.635251E+03  1.460547E+04
       421  21  1.155504E+06  7.832384E+04  6.913671E+04 -6.507371E+04 -4.656054E+03  2.025411E+04
       421  22  8.292684E+05 -6.097766E+01  1.764662E+03 -6.527809E+04 -1.016195E+02  8.958723E+03
       421  23  8.291785E+05 -8.547873E+01  1.988041E+03 -5.087864E+04  8.797022E+02  1.460748E+04
       421  24  8.292552E+05 -1.079421E+02  2.858387E+03 -6.527807E+04  1.859631E+03  2.025685E+04
       421  25  6.778660E+05 -3.653593E+04 -2.933483E+04 -6.529023E+04  6.410911E+03  8.959968E+03
       421  26  5.904000E+05 -5.754196E+04 -4.670361E+04 -5.098651E+04  7.392199E+03  1.460948E+04
       421  27  5.031080E+05 -7.854633E+04 -6.342534E+04 -6.548232E+04  8.371961E+03  2.025959E+04
       422   1  1.219442E+06  9.374515E+04  8.335081E+04 -6.500105E+04  4.098238E+03 -2.355095E+04
       422   2  1.306875E+06  1.147262E+05  1.034101E+05 -5.038097E+04  1.056380E+03 -2.918904E+04
       422   3  1.394877E+06  1.360033E+05  1.255419E+05 -6.465646E+04 -1.983125E+03 -3.476016E+04
       422   4  8.293308E+05 -1.361222E+02  3.601272E+03 -6.529981E+04 -2.443312E+03 -2.355437E+04
       422   5  8.290419E+05 -2.083857E+02  5.990063E+03 -5.085133E+04 -5.406190E+03 -2.919394E+04
       422   6  8.293032E+05  2.908696E+00  1.039831E+04 -6.529977E+04 -8.366301E+03 -3.476647E+04
       422   7  4.393641E+05 -9.402689E+04 -7.615616E+04 -6.559838E+04 -8.980832E+03 -2.355779E+04
       422   8  3.514255E+05 -1.151572E+05 -9.144184E+04 -5.132133E+04 -1.186389E+04 -2.919882E+04
       422   9  2.640326E+05 -1.360174E+05 -1.047619E+05 -6.594252E+04 -1.474378E+04 -3.477277E+04
       422  10  1.219442E+06  9.374455E+04  8.334973E+04 -6.500098E+04 -1.099062E-09  5.775462E-10
       422  11  1.306875E+06  1.147252E+05  1.034085E+05 -5.038095E+04 -6.487310E-10 -4.911097E-10
       422  12  1.394877E+06  1.360020E+05  1.255396E+05 -6.465651E+04  7.550086E-11 -3.350137E-10
       422  13  8.293306E+05 -1.367198E+02  3.600218E+03 -6.529985E+04  3.362928E-11  2.169250E-10
       422  14  8.290416E+05 -2.093092E+02  5.988406E+03 -5.085145E+04 -1.645119E-10  1.948729E-10
       422  15  8.293028E+05  1.591456E+00  1.039591E+04 -6.530001E+04 -2.910110E-11 -2.293823E-10
       422  16  4.393639E+05 -9.402751E+04 -7.615735E+04 -6.559855E+04  1.239367E-09 -4.770593E-10
       422  17  3.514251E+05 -1.151581E+05 -9.144371E+04 -5.132161E+04  1.208034E-11 -1.931817E-10
       422  18  2.640320E+05 -1.360188E+05 -1.047646E+05 -6.594293E+04 -1.559388E-10  4.902099E-10
       422  19  1.219442E+06  9.374515E+04  8.335081E+04 -6.500105E+04 -4.098238E+03  2.355095E+04
       422  20  1.306875E+06  1.147262E+05  1.034101E+05 -5.038097E+04 -1.056380E+03  2.918904E+04
       422  21  1.394877E+06  1.360033E+05  1.255419E+05 -6.465646E+04  1.983125E+03  3.476016E+04
       422  22  8.293308E+05 -1.361222E+02  3.601272E+03 -6.529981E+04  2.443312E+03  2.355437E+04
       422  23  8.290419E+05 -2.083857E+02  5.990063E+03 -5.085133E+04  5.406190E+03  2.919394E+04
       422  24  8.293032E+05  2.908696E+00  1.039831E+04 -6.529977E+04  8.366301E+03  3.476647E+04
       422  25  4.393641E+05 -9.402689E+04 -7.615616E+04 -6.559838E+04  8.980832E+03  2.355779E+04
       422  26  3.514255E+05 -1.151572E+05 -9.144184E+04 -5.132133E+04  1.186389E+04  2.919882E+04
       422  27  2.640326E+05 -1.360174E+05 -1.047619E+05 -6.594252E+04  1.474378E+04  3.477277E+04
       423   1  1.459694E+06  1.509587E+05  1.422491E+05 -6.345614E+04 -3.734089E+03 -3.813375E+04
       423   2  1.546121E+06  1.726929E+05  1.704070E+05 -5.073487E+04 -1.719554E+04 -4.328481E+04
       423   3  1.636181E+06  2.011970E+05  2.090494E+05 -6.699525E+04 -3.065703E+04 -4.700808E+04
       423   4  8.299079E+05 -5.645772E+02  1.360813E+04 -6.531723E+04 -1.048432E+04 -3.814143E+04
       423   5  8.282127E+05 -4.856339E+01  2.362951E+04 -5.082873E+04 -2.228565E+04 -4.329328E+04
       423   6  8.298608E+05  6.954968E+03  4.299247E+04 -6.532366E+04 -3.408512E+04 -4.701660E+04
       423   7  2.004977E+05 -1.521126E+05 -1.150536E+05 -6.717645E+04 -1.722783E+04 -3.814908E+04
       423   8  1.107934E+05 -1.728222E+05 -1.231751E+05 -5.092256E+04 -2.736998E+04 -4.330175E+04
       423   9  2.415556E+04 -1.873280E+05 -1.230993E+05 -6.365440E+04 -3.750883E+04 -4.702515E+04
       423  10  1.459694E+06  1.509571E+05  1.422463E+05 -6.345626E+04 -1.486809E-10 -3.568070E-10
       423  11  1.546120E+06  1.726908E+05  1.704029E+05 -5.073547E+04  1.676755E-09 -6.103603E-10
       423  12  1.636180E+06  2.011944E+05  2.090435E+05 -6.699641E+04  4.159171E-11 -1.545335E-09
       423  13  8.299074E+05 -5.661694E+02  1.360519E+04 -6.531755E+04 -8.049956E-12 -1.817360E-10
       423  14  8.282117E+05 -5.071003E+01  2.362506E+04 -5.082950E+04 -5.797879E-11 -9.196288E-10
       423  15  8.298590E+05  6.952282E+03  4.298614E+04 -6.532495E+04  6.218625E-11 -6.277240E-10
       423  16  2.004970E+05 -1.521143E+05 -1.150569E+05 -6.717698E+04  3.150094E-10  9.485762E-11
       423  17  1.107921E+05 -1.728245E+05 -1.231801E+05 -5.092352E+04 -2.281927E-10  1.594988E-09
       423  18  2.415345E+04 -1.873308E+05 -1.231061E+05 -6.365582E+04  3.288772E-10  1.370739E-10
       423  19  1.459694E+06  1.509587E+05  1.422491E+05 -6.345614E+04  3.734089E+03  3.813375E+04
       423  20  1.546121E+06  1.726929E+05  1.704070E+05 -5.073487E+04  1.719554E+04  4.328481E+04
       423  21  1.636181E+06  2.011970E+05  2.090494E+05 -6.699525E+04  3.065703E+04  4.700808E+04
       423  22  8.299079E+05 -5.645772E+02  1.360813E+04 -6.531723E+04  1.048432E+04  3.814143E+04
       423  23  8.282127E+05 -4.856339E+01  2.362951E+04 -5.082873E+04  2.228565E+04  4.329328E+04
       423  24  8.298608E+05  6.954968E+03  4.299247E+04 -6.532366E+04  3.408512E+04  4.701660E+04
       423  25  2.004977E+05 -1.521126E+05 -1.150536E+05 -6.717645E+04  1.722783E+04  3.814908E+04
       423  26  1.107934E+05 -1.728222E+05 -1.231751E+05 -5.092256E+04  2.736998E+04  4.330175E+04
       423  27  2.415556E+04 -1.873280E+05 -1.230993E+05 -6.365440E+04  3.750883E+04  4.702515E+04
       424   1  1.710399E+06  2.040801E+05  2.339140E+05 -4.210729E+04 -3.137400E+04 -5.156001E+04
       424   2  1.775514E+06  2.452318E+05  3.003918E+05 -8.667875E+04 -1.134801E+05 -4.686003E+04
       424   3  1.889020E+06  4.361614E+05  4.577355E+05 -1.592547E+05 -1.956533E+05 -1.481521E+04
       424   4  8.386541E+05 -5.878320E+03  5.493163E+04 -6.504035E+04 -4.157163E+04 -5.157677E+04
       424   5  8.171088E+05  1.312564E+04  9.620563E+04 -5.117744E+04 -9.205190E+04 -4.684071E+04
       424   6  8.385313E+05  1.765386E+05  2.064854E+05 -6.530959E+04 -1.425834E+05 -1.475615E+04
       424   7 -3.237019E+04 -2.158825E+05 -1.240907E+05 -8.794089E+04 -5.175519E+04 -5.159279E+04
       424   8 -1.404296E+05 -2.190351E+05 -1.080309E+05 -1.573189E+04 -7.065619E+04 -4.681893E+04
       424   9 -2.109230E+05 -8.312894E+04 -4.482708E+04  2.847596E+04 -8.960250E+04 -1.468104E+04
       424  10  1.710397E+06  2.040769E+05  2.339072E+05 -4.210860E+04  8.266843E-10 -3.243811E-09
       424  11  1.775499E+06  2.452260E+05  3.003635E+05 -8.668302E+04  1.571385E-10 -5.704135E-09
       424  12  1.888979E+06  4.361509E+05  4.576634E+05 -1.592570E+05 -3.704864E-09 -1.462818E-09
       424  13  8.386515E+05 -5.881641E+03  5.492339E+04 -6.504208E+04 -8.547294E-10 -5.953561E-09
       424  14  8.170991E+05  1.312101E+04  9.618561E+04 -5.118091E+04  8.710245E-10  2.262150E-09
       424  15  8.385095E+05  1.765329E+05  2.064469E+05 -6.531129E+04 -8.092852E-11 -4.327622E-10
       424  16 -3.237379E+04 -2.158860E+05 -1.241007E+05 -8.794304E+04 -7.063433E-10 -1.553875E-09
       424  17 -1.404355E+05 -2.190388E+05 -1.080444E+05 -1.573455E+04  3.991470E-10  9.523287E-10
       424  18 -2.109317E+05 -8.313133E+04 -4.484258E+04  2.847490E+04  3.714622E-09 -2.201680E-09
       424  19  1.710399E+06  2.040801E+05  2.339140E+05 -4.210729E+04  3.137400E+04  5.156001E+04
       424  20  1.775514E+06  2.452318E+05  3.003918E+05 -8.667875E+04  1.134801E+05  4.686003E+04
       424  21  1.889020E+06  4.361614E+05  4.577355E+05 -1.592547E+05  1.956533E+05  1.481521E+04
       424  22  8.386541E+05 -5.878320E+03  5.493163E+04 -6.504035E+04  4.157163E+04  5.157677E+04
       424  23  8.171088E+05  1.312564E+04  9.620563E+04 -5.117744E+04  9.205190E+04  4.684071E+04
       424  24  8.385313E+05  1.765386E+05  2.064854E+05 -6.530959E+04  1.425834E+05  1.475615E+04
       424  25 -3.237019E+04 -2.158825E+05 -1.240907E+05 -8.794089E+04  5.175519E+04  5.159279E+04
       424  26 -1.404296E+05 -2.190351E+05 -1.080309E+05 -1.573189E+04  7.065619E+04  4.681893E+04
       424  27 -2.109230E+05 -8.312894E+04 -4.482708E+04  2.847596E+04  8.960250E+04  1.468104E+04
       425   1  2.697496E+05  1.357491E+05  1.147483E+05  1.627247E+03 -1.650491E+04 -1.257294E+04
       425   2  2.161362E+05  1.894843E+05  1.266068E+05  2.080319E+04 -2.124516E+04 -4.103123E+04
       425   3  1.485872E+05  1.847953E+05  1.269955E+05  5.710620E+04 -2.602849E+04 -4.678823E+04
       425   4 -6.127484E+05 -8.265110E+04 -9.567689E+04  4.642592E+04 -6.612776E+04 -1.267634E+04
       425   5 -6.032799E+05 -8.650346E+03 -4.496810E+04  3.776627E+04 -4.254816E+04 -4.108350E+04
       425   6 -6.126930E+05  1.962674E+03 -2.542033E+04  4.623619E+04 -1.901140E+04 -4.677532E+04
       425   7 -1.494522E+06 -3.010985E+05 -3.061464E+05  9.116027E+04 -1.156804E+05 -1.278699E+04
       425   8 -1.422059E+06 -2.068266E+05 -2.165785E+05  5.470624E+04 -6.382347E+04 -4.113697E+04
       425   9 -1.373419E+06 -1.809052E+05 -1.778652E+05  3.537942E+04 -1.200273E+04 -4.676265E+04
       425  10  2.697492E+05  1.357489E+05  1.147475E+05  1.627080E+03  2.154806E-09 -5.314609E-10
       425  11  2.161353E+05  1.894824E+05  1.266028E+05  2.080249E+04  2.852460E-09 -4.521088E-09
       425  12  1.485858E+05  1.847927E+05  1.269901E+05  5.710522E+04  2.156050E-09 -3.695412E-09
       425  13 -6.127531E+05 -8.265245E+04 -9.568542E+04  4.642525E+04 -2.263611E-10  1.696789E-09
       425  14 -6.032822E+05 -8.652645E+03 -4.497468E+04  3.776486E+04 -2.330213E-10 -2.078776E-09
       425  15 -6.126940E+05  1.960228E+03 -2.542512E+04  4.623547E+04 -1.427486E-10 -6.235274E-10
       425  16 -1.494536E+06 -3.011023E+05 -3.061719E+05  9.115908E+04 -2.805552E-09  4.533517E-10
       425  17 -1.422064E+06 -2.068295E+05 -2.165893E+05  5.470413E+04 -1.893799E-09 -6.327450E-09
       425  18 -1.373420E+06 -1.809075E+05 -1.778696E+05  3.537897E+04 -1.077188E-09 -7.122017E-09
       425  19  2.697496E+05  1.357491E+05  1.147483E+05  1.627247E+03  1.650491E+04  1.257294E+04
       425  20  2.161362E+05  1.894843E+05  1.266068E+05  2.080319E+04  2.124516E+04  4.103123E+04
       425  21  1.485872E+05  1.847953E+05  1.269955E+05  5.710620E+04  2.602849E+04  4.678823E+04
       425  22 -6.127484E+05 -8.265110E+04 -9.567689E+04  4.642592E+04  6.612776E+04  1.267634E+04
       425  23 -6.032799E+05 -8.650346E+03 -4.496810E+04  3.776627E+04  4.254816E+04  4.108350E+04
       425  24 -6.126930E+05  1.962674E+03 -2.542033E+04  4.623619E+04  1.901140E+04  4.677532E+04
       425  25 -1.494522E+06 -3.010985E+05 -3.061464E+05  9.116027E+04  1.156804E+05  1.278699E+04
       425  26 -1.422059E+06 -2.068266E+05 -2.165785E+05  5.470624E+04  6.382347E+04  4.113697E+04
       425  27 -1.373419E+06 -1.809052E+05 -1.778652E+05  3.537942E+04  1.200273E+04  4.676265E+04
       426   1  1.088864E+05  1.693127E+05  1.241452E+05  4.691364E+04 -1.751455E+04 -4.378630E+04
       426   2  4.879699E+04  1.575069E+05  1.195980E+05  3.851056E+04 -1.372849E+04 -4.158783E+04
       426   3 -1.241035E+04  1.433447E+05  1.119901E+05  4.852223E+04 -9.948299E+03 -3.805843E+04
       426   4 -6.088007E+05 -3.044183E+03 -1.978339E+04  4.656338E+04 -1.560053E+04 -4.378550E+04
       426   5 -6.080817E+05 -1.140415E+01 -1.091102E+04  3.735071E+04 -1.015882E+04 -4.158174E+04
       426   6 -6.087728E+05  3.759639E+02 -6.252563E+03  4.655405E+04 -4.722593E+03 -3.804640E+04
       426   7 -1.325996E+06 -1.754328E+05 -1.637381E+05  4.621322E+04 -1.368867E+04 -4.378471E+04
       426   8 -1.264548E+06 -1.575561E+05 -1.414415E+05  3.619183E+04 -6.592851E+03 -4.157568E+04
       426   9 -1.204795E+06 -1.426144E+05 -1.245127E+05  4.458755E+04  4.981981E+02 -3.803439E+04
       426  10  1.088855E+05  1.693106E+05  1.241410E+05  4.691302E+04 -5.049086E-09 -5.384657E-09
       426  11  4.879632E+04  1.575050E+05  1.195944E+05  3.851010E+04 -6.266002E-10  8.757013E-10
       426  12 -1.241084E+04  1.433431E+05  1.119872E+05  4.852193E+04 -3.792984E-10  2.679036E-09
       426  13 -6.088014E+05 -3.046306E+03 -1.978745E+04  4.656283E+04 -4.323298E-11 -4.078019E-09
       426  14 -6.080823E+05 -1.328803E+01 -1.091446E+04  3.735037E+04 -1.101891E-09 -7.409714E-10
       426  15 -6.087732E+05  3.744040E+02 -6.255325E+03  4.655390E+04  5.080417E-10 -3.330230E-09
       426  16 -1.325997E+06 -1.754349E+05 -1.637421E+05  4.621273E+04  3.841866E-09 -1.059282E-09
       426  17 -1.264548E+06 -1.575579E+05 -1.414448E+05  3.619161E+04  3.334631E-10  2.164773E-09
       426  18 -1.204795E+06 -1.426160E+05 -1.245154E+05  4.458757E+04  9.209481E-10 -5.636248E-11
       426  19  1.088864E+05  1.693127E+05  1.241452E+05  4.691364E+04  1.751455E+04  4.378630E+04
       426  20  4.879699E+04  1.575069E+05  1.195980E+05  3.851056E+04  1.372849E+04  4.158783E+04
       426  21 -1.241035E+04  1.433447E+05  1.119901E+05  4.852223E+04  9.948299E+03  3.805843E+04
       426  22 -6.088007E+05 -3.044183E+03 -1.978339E+04  4.656338E+04  1.560053E+04  4.378550E+04
       426  23 -6.080817E+05 -1.140415E+01 -1.091102E+04  3.735071E+04  1.015882E+04  4.158174E+04
       426  24 -6.087728E+05  3.759639E+02 -6.252563E+03  4.655405E+04  4.722593E+03  3.804640E+04
       426  25 -1.325996E+06 -1.754328E+05 -1.637381E+05  4.621322E+04  1.368867E+04  4.378471E+04
       426  26 -1.264548E+06 -1.575561E+05 -1.414415E+05  3.619183E+04  6.592851E+03  4.157568E+04
       426  27 -1.204795E+06 -1.426144E+05 -1.245127E+05  4.458755E+04 -4.981981E+02  3.803439E+04
       427   1 -5.526226E+04  1.327522E+05  1.046617E+05  4.801142E+04 -8.691431E+03 -3.563422E+04
       427   2 -1.160687E+05  1.182291E+05  9.470086E+04  3.858071E+04 -7.450132E+03 -3.163623E+04
       427   3 -1.771240E+05  1.037170E+05  8.391114E+04  4.772249E+04 -6.211116E+03 -2.755504E+04
       427   4 -6.085093E+05  1.723298E+02 -4.768628E+03  4.659117E+04 -3.756315E+03 -3.562223E+04
       427   5 -6.083643E+05  2.391520E+02 -2.736479E+03  3.730429E+04 -2.412500E+03 -3.162283E+04
       427   6 -6.084898E+05  2.993285E+02 -1.605107E+03  4.659079E+04 -1.070849E+03 -2.754019E+04
       427   7 -1.161463E+06 -1.324262E+05 -1.142139E+05  4.517199E+04  1.174495E+03 -3.561027E+04
       427   8 -1.100428E+06 -1.177655E+05 -1.001857E+05  3.602873E+04  2.621220E+03 -3.160945E+04
       427   9 -1.039677E+06 -1.031297E+05 -8.713046E+04  4.545974E+04  4.065919E+03 -2.752535E+04
       427  10 -5.526268E+04  1.327509E+05  1.046591E+05  4.801117E+04 -3.182946E-09  4.406807E-09
       427  11 -1.160691E+05  1.182280E+05  9.469888E+04  3.858052E+04  1.441538E-09  2.206595E-09
       427  12 -1.771242E+05  1.037162E+05  8.390964E+04  4.772236E+04  4.191453E-09 -7.935614E-10
       427  13 -6.085097E+05  1.709638E+02 -4.771038E+03  4.659106E+04  5.342193E-10 -3.994137E-09
       427  14 -6.083646E+05  2.380769E+02 -2.738369E+03  3.730423E+04 -1.016456E-09  3.683868E-09
       427  15 -6.084900E+05  2.985140E+02 -1.606534E+03  4.659077E+04 -3.117969E-11  7.027835E-09
       427  16 -1.161464E+06 -1.324276E+05 -1.142163E+05  4.517202E+04  2.492282E-09  2.415535E-09
       427  17 -1.100428E+06 -1.177666E+05 -1.001876E+05  3.602880E+04 -1.412846E-09  5.283748E-09
       427  18 -1.039678E+06 -1.031305E+05 -8.713191E+04  4.545983E+04 -3.277022E-09  2.184713E-09
       427  19 -5.526226E+04  1.327522E+05  1.046617E+05  4.801142E+04  8.691431E+03  3.563422E+04
       427  20 -1.160687E+05  1.182291E+05  9.470086E+04  3.858071E+04  7.450132E+03  3.163623E+04
       427  21 -1.771240E+05  1.037170E+05  8.391114E+04  4.772249E+04  6.211116E+03  2.755504E+04
       427  22 -6.085093E+05  1.723298E+02 -4.768628E+03  4.659117E+04  3.756315E+03  3.562223E+04
       427  23 -6.083643E+05  2.391520E+02 -2.736479E+03  3.730429E+04  2.412500E+03  3.162283E+04
       427  24 -6.084898E+05  2.993285E+02 -1.605107E+03  4.659079E+04  1.070849E+03  2.754019E+04
       427  25 -1.161463E+06 -1.324262E+05 -1.142139E+05  4.517199E+04 -1.174495E+03  3.561027E+04
       427  26 -1.100428E+06 -1.177655E+05 -1.001857E+05  3.602873E+04 -2.621220E+03  3.160945E+04
       427  27 -1.039677E+06 -1.031297E+05 -8.713046E+04  4.545974E+04 -4.065919E+03  2.752535E+04
       428   1 -2.203408E+05  9.328979E+04  7.539942E+04  4.761813E+04 -5.948046E+03 -2.515651E+04
       428   2 -2.814083E+05  7.862009E+04  6.389613E+04  3.813701E+04 -5.572700E+03 -2.104111E+04
       428   3 -3.426226E+05  6.406876E+04  5.214457E+04  4.729680E+04 -5.198716E+03 -1.691727E+04
       428   4 -6.084564E+05  2.975400E+02 -1.250461E+03  4.660603E+04 -8.197107E+02 -2.514113E+04
       428   5 -6.083734E+05  2.514102E+02 -8.051461E+02  3.728526E+04 -4.343342E+02 -2.102494E+04
       428   6 -6.084435E+05  3.218193E+02 -6.154659E+02  4.660597E+04 -5.028280E+01 -1.690030E+04
       428   7 -9.964275E+05 -9.270385E+04 -7.790763E+04  4.559446E+04  4.305485E+03 -2.512576E+04
       428   8 -9.352360E+05 -7.812377E+04 -6.551160E+04  3.643389E+04  4.701381E+03 -2.100878E+04
       428   9 -8.741968E+05 -6.342942E+04 -5.337890E+04  4.591539E+04  5.095990E+03 -1.688334E+04
       428  10 -2.203411E+05  9.328910E+04  7.539816E+04  4.761801E+04  4.027468E-09 -6.008597E-10
       428  11 -2.814085E+05  7.861961E+04  6.389524E+04  3.813692E+04  1.913822E-09  7.860465E-09
       428  12 -3.426227E+05  6.406845E+04  5.214398E+04  4.729673E+04 -2.759003E-09  7.632256E-09
       428  13 -6.084565E+05  2.968613E+02 -1.251650E+03  4.660602E+04 -8.676211E-11  2.481088E-09
       428  14 -6.083735E+05  2.509356E+02 -8.059769E+02  3.728525E+04 -1.426059E-09  8.102701E-09
       428  15 -6.084436E+05  3.215127E+02 -6.160025E+02  4.660597E+04  1.795960E-10  2.094845E-09
       428  16 -9.964277E+05 -9.270453E+04 -7.790885E+04  4.559455E+04 -4.920658E-09  1.162980E-09
       428  17 -9.352361E+05 -7.812424E+04 -6.551247E+04  3.643397E+04 -2.172746E-09  1.456291E-09
       428  18 -8.741969E+05 -6.342973E+04 -5.337949E+04  4.591546E+04  3.360051E-09 -2.408955E-09
       428  19 -2.203408E+05  9.328979E+04  7.539942E+04  4.761813E+04  5.948046E+03  2.515651E+04
       428  20 -2.814083E+05  7.862009E+04  6.389613E+04  3.813701E+04  5.572700E+03  2.104111E+04
       428  21 -3.426226E+05  6.406876E+04  5.214457E+04  4.729680E+04  5.198716E+03  1.691727E+04
       428  22 -6.084564E+05  2.975400E+02 -1.250461E+03  4.660603E+04  8.197107E+02  2.514113E+04
       428  23 -6.083734E+05  2.514102E+02 -8.051461E+02  3.728526E+04  4.343342E+02  2.102494E+04
       428  24 -6.084435E+05  3.218193E+02 -6.154659E+02  4.660597E+04  5.028280E+01  1.690030E+04
       428  25 -9.964275E+05 -9.270385E+04 -7.790763E+04  4.559446E+04 -4.305485E+03  2.512576E+04
       428  26 -9.352360E+05 -7.812377E+04 -6.551160E+04  3.643389E+04 -4.701381E+03  2.100878E+04
       428  27 -8.741968E+05 -6.342942E+04 -5.337890E+04  4.591539E+04 -5.095990E+03  1.688334E+04
       429   1 -3.859868E+05  5.361724E+04  4.326955E+04  4.719277E+04 -5.099263E+03 -1.451407E+04
       429   2 -4.471673E+05  3.891482E+04  3.119850E+04  3.767060E+04 -4.767331E+03 -1.038339E+04
       429   3 -5.085131E+05  2.433289E+04  1.890145E+04  4.683232E+04 -4.436066E+03 -6.252552E+03
       429   4 -6.084425E+05  3.258257E+02 -5.973051E+02  4.661546E+04  5.177712E+01 -1.449675E+04
       429   5 -6.083553E+05  2.770709E+02 -6.996426E+02  3.727334E+04  3.836339E+02 -1.036571E+04
       429   6 -6.084363E+05  3.492365E+02 -1.027691E+03  4.661540E+04  7.148564E+02 -6.234486E+03
       429   7 -8.308507E+05 -5.296858E+04 -4.446648E+04  4.603832E+04  5.201010E+03 -1.447944E+04
       429   8 -7.695184E+05 -3.836225E+04 -3.259896E+04  3.687617E+04  5.533289E+03 -1.034802E+04
       429   9 -7.083498E+05 -2.363502E+04 -2.095724E+04  4.639850E+04  5.864966E+03 -6.216422E+03
       429  10 -3.859869E+05  5.361701E+04  4.326910E+04  4.719271E+04  8.553550E-09  1.494078E-09
       429  11 -4.471673E+05  3.891470E+04  3.119825E+04  3.767056E+04  5.214292E-09 -3.506361E-09
       429  12 -5.085132E+05  2.433285E+04  1.890134E+04  4.683230E+04 -2.409491E-09 -2.332765E-09
       429  13 -6.084425E+05  3.256001E+02 -5.976999E+02  4.661546E+04 -5.005976E-10  9.388221E-09
       429  14 -6.083553E+05  2.769555E+02 -6.998448E+02  3.727335E+04 -9.343103E-10  5.507019E-11
       429  15 -6.084363E+05  3.491946E+02 -1.027765E+03  4.661540E+04  3.770262E-10 -3.677269E-09
       429  16 -8.308508E+05 -5.296881E+04 -4.446692E+04  4.603838E+04 -9.854618E-09  3.504647E-09
       429  17 -7.695185E+05 -3.836237E+04 -3.259922E+04  3.687622E+04 -4.717076E-09 -7.280071E-10
       429  18 -7.083498E+05 -2.363507E+04 -2.095738E+04  4.639853E+04  3.452461E-09 -4.785055E-09
       429  19 -3.859868E+05  5.361724E+04  4.326955E+04  4.719277E+04  5.099263E+03  1.451407E+04
       429  20 -4.471673E+05  3.891482E+04  3.119850E+04  3.767060E+04  4.767331E+03  1.038339E+04
       429  21 -5.085131E+05  2.433289E+04  1.890145E+04  4.683232E+04  4.436066E+03  6.252552E+03
       429  22 -6.084425E+05  3.258257E+02 -5.973051E+02  4.661546E+04 -5.177712E+01  1.449675E+04
       429  23 -6.083553E+05  2.770709E+02 -6.996426E+02  3.727334E+04 -3.836339E+02  1.036571E+04
       429  24 -6.084363E+05  3.492365E+02 -1.027691E+03  4.661540E+04 -7.148564E+02  6.234486E+03
       429  25 -8.308507E+05 -5.296858E+04 -4.446648E+04  4.603832E+04 -5.201010E+03  1.447944E+04
       429  26 -7.695184E+05 -3.836225E+04 -3.259896E+04  3.687617E+04 -5.533289E+03  1.034802E+04
       429  27 -7.083498E+05 -2.363502E+04 -2.095724E+04  4.639850E+04 -5.864966E+03  6.216422E+03
       430   1 -5.519586E+05  1.387037E+04  9.721061E+03  4.669431E+04 -4.242667E+03 -3.844642E+03
       430   2 -6.131081E+05 -8.399508E+02 -3.148996E+03  3.714398E+04 -3.131007E+03  2.788067E+02
       430   3 -6.745563E+05 -1.553018E+04 -1.678010E+04  4.628756E+04 -2.019316E+03  4.366466E+03
       430   4 -6.084630E+05  3.573475E+02 -1.302742E+03  4.661746E+04  9.171500E+02 -3.826435E+03
       430   5 -6.083160E+05  3.128505E+02 -2.185449E+03  3.727063E+04  1.983960E+03  2.968388E+02
       430   6 -6.084636E+05  2.964521E+02 -3.797952E+03  4.661770E+04  3.050910E+03  4.384335E+03
       430   7 -6.649642E+05 -1.315585E+04 -1.232660E+04  4.654061E+04  6.076508E+03 -3.808229E+03
       430   8 -6.035239E+05  1.465664E+03 -1.221803E+03  3.739729E+04  7.098967E+03  3.148730E+02
       430   9 -5.423665E+05  1.612283E+04  9.184083E+03  4.694787E+04  8.121664E+03  4.402208E+03
       430  10 -5.519586E+05  1.387035E+04  9.720999E+03  4.669430E+04 -3.710739E-09  2.516313E-09
       430  11 -6.131081E+05 -8.399535E+02 -3.149015E+03  3.714398E+04 -1.226782E-09  2.310383E-09
       430  12 -6.745564E+05 -1.553020E+04 -1.678014E+04  4.628757E+04 -3.682589E-09  5.033869E-09
       430  13 -6.084630E+05  3.573315E+02 -1.302772E+03  4.661746E+04  9.030987E-12  9.072495E-10
       430  14 -6.083160E+05  3.128493E+02 -2.185456E+03  3.727063E+04 -8.669176E-10  3.832251E-09
       430  15 -6.084636E+05  2.964290E+02 -3.798005E+03  4.661769E+04  1.712661E-10  3.021652E-09
       430  16 -6.649643E+05 -1.315588E+04 -1.232669E+04  4.654063E+04  2.347726E-09  1.715812E-09
       430  17 -6.035239E+05  1.465651E+03 -1.221898E+03  3.739729E+04  2.321989E-09 -7.860003E-09
       430  18 -5.423666E+05  1.612279E+04  9.183922E+03  4.694784E+04  4.861212E-09 -8.577479E-10
       430  19 -5.519586E+05  1.387037E+04  9.721061E+03  4.669431E+04  4.242667E+03  3.844642E+03
       430  20 -6.131081E+05 -8.399508E+02 -3.148996E+03  3.714398E+04  3.131007E+03 -2.788067E+02
       430  21 -6.745563E+05 -1.553018E+04 -1.678010E+04  4.628756E+04  2.019316E+03 -4.366466E+03
       430  22 -6.084630E+05  3.573475E+02 -1.302742E+03  4.661746E+04 -9.171500E+02  3.826435E+03
       430  23 -6.083160E+05  3.128505E+02 -2.185449E+03  3.727063E+04 -1.983960E+03 -2.968388E+02
       430  24 -6.084636E+05  2.964521E+02 -3.797952E+03  4.661770E+04 -3.050910E+03 -4.384335E+03
       430  25 -6.649642E+05 -1.315585E+04 -1.232660E+04  4.654061E+04 -6.076508E+03  3.808229E+03
       430  26 -6.035239E+05  1.465664E+03 -1.221803E+03  3.739729E+04 -7.098967E+03 -3.148730E+02
       430  27 -5.423665E+05  1.612283E+04  9.184083E+03  4.694787E+04 -8.121664E+03 -4.402208E+03
       431   1 -7.181946E+05 -2.583784E+04 -2.685722E+04  4.577461E+04 -1.390825E+03  6.791580E+03
       431   2 -7.787705E+05 -4.082337E+04 -4.271708E+04  3.697440E+04  3.690316E+03  1.067683E+04
       431   3 -8.407090E+05 -5.801027E+04 -6.247764E+04  4.682546E+04  8.773559E+03  1.394521E+04
       431   4 -6.086737E+05  4.645978E+02 -4.977179E+03  4.660599E+04  3.816475E+03  6.809808E+03
       431   5 -6.080616E+05  1.554029E+02 -8.670184E+03  3.728516E+04  8.129357E+03  1.069200E+04
       431   6 -6.086825E+05 -2.221199E+03 -1.572922E+04  4.661534E+04  1.244484E+04  1.395740E+04
       431   7 -4.991412E+05  2.676632E+04  1.690236E+04  4.743751E+04  9.024676E+03  6.828049E+03
       431   8 -4.373248E+05  4.113240E+04  2.537532E+04  3.759598E+04  1.256960E+04  1.070717E+04
       431   9 -3.766046E+05  5.356455E+04  3.101648E+04  4.640509E+04  1.611747E+04  1.396958E+04
       431  10 -7.181947E+05 -2.583789E+04 -2.685731E+04  4.577462E+04 -6.335600E-09  7.649205E-09
       431  11 -7.787705E+05 -4.082350E+04 -4.271732E+04  3.697437E+04  1.409181E-09 -1.170647E-10
       431  12 -8.407091E+05 -5.801050E+04 -6.247815E+04  4.682536E+04  5.734276E-09  4.074547E-09
       431  13 -6.086737E+05  4.645441E+02 -4.977294E+03  4.660597E+04 -5.851913E-12  2.014458E-09
       431  14 -6.080617E+05  1.552624E+02 -8.670523E+03  3.728509E+04 -8.947849E-10  1.150229E-09
       431  15 -6.086827E+05 -2.221450E+03 -1.572988E+04  4.661520E+04  4.334542E-10 -5.353312E-09
       431  16 -4.991413E+05  2.676625E+04  1.690212E+04  4.743746E+04  5.259157E-09  9.294325E-10
       431  17 -4.373250E+05  4.113224E+04  2.537481E+04  3.759587E+04 -7.904873E-10 -6.924638E-10
       431  18 -3.766049E+05  5.356427E+04  3.101563E+04  4.640491E+04 -4.925707E-09 -8.267601E-09
       431  19 -7.181946E+05 -2.583784E+04 -2.685722E+04  4.577461E+04  1.390825E+03 -6.791580E+03
       431  20 -7.787705E+05 -4.082337E+04 -4.271708E+04  3.697440E+04 -3.690316E+03 -1.067683E+04
       431  21 -8.407090E+05 -5.801027E+04 -6.247764E+04  4.682546E+04 -8.773559E+03 -1.394521E+04
       431  22 -6.086737E+05  4.645978E+02 -4.977179E+03  4.660599E+04 -3.816475E+03 -6.809808E+03
       431  23 -6.080616E+05  1.554029E+02 -8.670184E+03  3.728516E+04 -8.129357E+03 -1.069200E+04
       431  24 -6.086825E+05 -2.221199E+03 -1.572922E+04  4.661534E+04 -1.244484E+04 -1.395740E+04
       431  25 -4.991412E+05  2.676632E+04  1.690236E+04  4.743751E+04 -9.024676E+03 -6.828049E+03
       431  26 -4.373248E+05  4.113240E+04  2.537532E+04  3.759598E+04 -1.256960E+04 -1.070717E+04
       431  27 -3.766046E+05  5.356455E+04  3.101648E+04  4.640509E+04 -1.611747E+04 -1.396958E+04
       432   1 -8.874661E+05 -6.458013E+04 -7.571775E+04  3.821435E+04  9.111475E+03  1.663253E+04
       432   2 -9.401025E+05 -8.798527E+04 -1.066293E+05  5.123494E+04  4.095673E+04  1.630431E+04
       432   3 -1.010196E+06 -1.640958E+05 -1.714952E+05  8.239232E+04  7.283208E+04  5.419457E+03
       432   4 -6.117802E+05  1.769211E+03 -2.021185E+04  4.645319E+04  1.515342E+04  1.665259E+04
       432   5 -6.042146E+05 -6.683366E+03 -3.574194E+04  3.749476E+04  3.384589E+04  1.627914E+04
       432   6 -6.118135E+05 -6.554104E+04 -7.607450E+04  4.667485E+04  5.257196E+04  5.349395E+03
       432   7 -3.360215E+05  6.811411E+04  3.529033E+04  5.469569E+04  2.119801E+04  1.667280E+04
       432   8 -2.682196E+05  7.461203E+04  3.513938E+04  2.374693E+04  2.673125E+04  1.625430E+04
       432   9 -2.132816E+05  3.300731E+04  1.933726E+04  1.093423E+04  3.229888E+04  5.281692E+03
       432  10 -8.874663E+05 -6.458045E+04 -7.571842E+04  3.821423E+04 -4.696242E-09  4.545796E-09
       432  11 -9.401044E+05 -8.798601E+04 -1.066330E+05  5.123440E+04  1.464708E-09  1.009883E-09
       432  12 -1.010202E+06 -1.640972E+05 -1.715053E+05  8.239200E+04  3.133204E-09 -1.334887E-10
       432  13 -6.117805E+05  1.768852E+03 -2.021280E+04  4.645298E+04 -4.398548E-10  5.401135E-09
       432  14 -6.042159E+05 -6.683958E+03 -3.574460E+04  3.749431E+04 -4.408295E-10 -6.972594E-09
       432  15 -6.118165E+05 -6.554181E+04 -7.607975E+04  4.667463E+04 -6.171193E-11  3.391531E-09
       432  16 -3.360220E+05  6.811369E+04  3.528896E+04  5.469541E+04  3.394782E-09 -1.370150E-09
       432  17 -2.682204E+05  7.461156E+04  3.513754E+04  2.374658E+04 -9.561942E-10  1.576853E-09
       432  18 -2.132827E+05  3.300700E+04  1.933524E+04  1.093409E+04 -2.303208E-09 -1.684095E-09
       432  19 -8.874661E+05 -6.458013E+04 -7.571775E+04  3.821435E+04 -9.111475E+03 -1.663253E+04
       432  20 -9.401025E+05 -8.798527E+04 -1.066293E+05  5.123494E+04 -4.095673E+04 -1.630431E+04
       432  21 -1.010196E+06 -1.640958E+05 -1.714952E+05  8.239232E+04 -7.283208E+04 -5.419457E+03
       432  22 -6.117802E+05  1.769211E+03 -2.021185E+04  4.645319E+04 -1.515342E+04 -1.665259E+04
       432  23 -6.042146E+05 -6.683366E+03 -3.574194E+04  3.749476E+04 -3.384589E+04 -1.627914E+04
       432  24 -6.118135E+05 -6.554104E+04 -7.607450E+04  4.667485E+04 -5.257196E+04 -5.349395E+03
       432  25 -3.360215E+05  6.811411E+04  3.529033E+04  5.469569E+04 -2.119801E+04 -1.667280E+04
       432  26 -2.682196E+05  7.461203E+04  3.513938E+04  2.374693E+04 -2.673125E+04 -1.625430E+04
       432  27 -2.132816E+05  3.300731E+04  1.933726E+04  1.093423E+04 -3.229888E+04 -5.281692E+03
       433   1 -1.230167E+05  4.036105E+04  3.404855E+04  4.659127E+03 -6.771983E+03 -3.615392E+03
       433   2 -1.455291E+05  5.559588E+04  3.710712E+04  8.822594E+03 -7.625138E+03 -1.153450E+04
       433   3 -1.726464E+05  5.215091E+04  3.605817E+04  2.080017E+04 -8.499900E+03 -1.258273E+04
       433   4 -3.850615E+05 -2.452710E+04 -2.876466E+04  1.727628E+04 -1.984156E+04 -3.657167E+03
       433   5 -3.820663E+05 -1.790155E+03 -1.340422E+04  1.332798E+04 -1.278265E+04 -1.155159E+04
       433   6 -3.850529E+05  8.887478E+02 -7.649513E+03  1.719415E+04 -5.745288E+03 -1.257392E+04
       433   7 -6.470427E+05 -8.941953E+04 -9.158200E+04  2.988804E+04 -3.290565E+04 -3.699482E+03
       433   8 -6.185506E+05 -5.917974E+04 -6.391869E+04  1.783159E+04 -1.793823E+04 -1.156876E+04
       433   9 -5.974166E+05 -5.037621E+04 -5.135959E+04  1.358935E+04 -2.991603E+03 -1.256515E+04
       433  10 -1.230167E+05  4.036103E+04  3.404843E+04  4.659107E+03 -2.781541E-08  1.163871E-09
       433  11 -1.455292E+05  5.559572E+04  3.710677E+04  8.822523E+03  1.818571E-09  1.107847E-08
       433  12 -1.726465E+05  5.215072E+04  3.605774E+04  2.080009E+04  2.185699E-08  6.446169E-09
       433  13 -3.850619E+05 -2.452722E+04 -2.876543E+04  1.727622E+04  2.936542E-10 -6.540152E-09
       433  14 -3.820665E+05 -1.790342E+03 -1.340478E+04  1.332786E+04  6.955747E-10 -7.102077E-09
       433  15 -3.850530E+05  8.885692E+02 -7.649872E+03  1.719409E+04  4.272015E-11  2.422260E-09
       433  16 -6.470438E+05 -8.941984E+04 -9.158406E+04  2.988794E+04  2.787530E-08 -3.557941E-11
       433  17 -6.185510E+05 -5.917997E+04 -6.391954E+04  1.783142E+04  5.498851E-10  5.106234E-09
       433  18 -5.974166E+05 -5.037639E+04 -5.135990E+04  1.358932E+04 -2.184450E-08 -2.904084E-09
       433  19 -1.230167E+05  4.036105E+04  3.404855E+04  4.659127E+03  6.771983E+03  3.615392E+03
       433  20 -1.455291E+05  5.559588E+04  3.710712E+04  8.822594E+03  7.625138E+03  1.153450E+04
       433  21 -1.726464E+05  5.215091E+04  3.605817E+04  2.080017E+04  8.499900E+03  1.258273E+04
       433  22 -3.850615E+05 -2.452710E+04 -2.876466E+04  1.727628E+04  1.984156E+04  3.657167E+03
       433  23 -3.820663E+05 -1.790155E+03 -1.340422E+04  1.332798E+04  1.278265E+04  1.155159E+04
       433  24 -3.850529E+05  8.887478E+02 -7.649513E+03  1.719415E+04  5.745288E+03  1.257392E+04
       433  25 -6.470427E+05 -8.941953E+04 -9.158200E+04  2.988804E+04  3.290565E+04  3.699482E+03
       433  26 -6.185506E+05 -5.917974E+04 -6.391869E+04  1.783159E+04  1.793823E+04  1.156876E+04
       433  27 -5.974166E+05 -5.037621E+04 -5.135959E+04  1.358935E+04  2.991603E+03  1.256515E+04
       434   1 -1.896841E+05  4.595950E+04  3.407727E+04  1.744995E+04 -5.768436E+03 -1.133470E+04
       434   2 -2.142575E+05  4.088208E+04  3.139196E+04  1.358448E+04 -4.544534E+03 -1.022868E+04
       434   3 -2.392467E+05  3.502435E+04  2.770023E+04  1.787023E+04 -3.322157E+03 -8.759204E+03
       434   4 -3.838316E+05 -8.946184E+02 -5.988333E+03  1.728859E+04 -4.707587E+03 -1.133144E+04
       434   5 -3.835852E+05  6.688537E+01 -3.294319E+03  1.321110E+04 -3.065574E+03 -1.022390E+04
       434   6 -3.838284E+05  1.752342E+02 -1.897556E+03  1.728498E+04 -1.425043E+03 -8.752866E+03
       434   7 -5.779432E+05 -4.775112E+04 -4.605596E+04  1.712725E+04 -3.647065E+03 -1.132818E+04
       434   8 -5.528857E+05 -4.075011E+04 -3.798211E+04  1.283780E+04 -1.587010E+03 -1.021913E+04
       434   9 -5.283902E+05 -3.467519E+04 -3.149644E+04  1.669985E+04  4.716373E+02 -8.746531E+03
       434  10 -1.896842E+05  4.595935E+04  3.407696E+04  1.744990E+04  2.870794E-09  2.647557E-09
       434  11 -2.142576E+05  4.088196E+04  3.139172E+04  1.358444E+04  2.655144E-09  8.677859E-09
       434  12 -2.392467E+05  3.502427E+04  2.770007E+04  1.787020E+04 -6.489720E-09  1.023533E-08
       434  13 -3.838316E+05 -8.947623E+02 -5.988616E+03  1.728855E+04 -2.766098E-10  1.337147E-08
       434  14 -3.835853E+05  6.677062E+01 -3.294533E+03  1.321107E+04  8.860214E-10 -2.218262E-08
       434  15 -3.838284E+05  1.751514E+02 -1.897704E+03  1.728497E+04 -6.338746E-10  8.101941E-09
       434  16 -5.779433E+05 -4.775126E+04 -4.605623E+04  1.712722E+04 -2.405171E-09 -8.884277E-09
       434  17 -5.528857E+05 -4.075022E+04 -3.798231E+04  1.283779E+04  3.445683E-10 -5.690445E-09
       434  18 -5.283903E+05 -3.467527E+04 -3.149659E+04  1.669986E+04  5.848834E-09  3.096500E-09
       434  19 -1.896841E+05  4.595950E+04  3.407727E+04  1.744995E+04  5.768436E+03  1.133470E+04
       434  20 -2.142575E+05  4.088208E+04  3.139196E+04  1.358448E+04  4.544534E+03  1.022868E+04
       434  21 -2.392467E+05  3.502435E+04  2.770023E+04  1.787023E+04  3.322157E+03  8.759204E+03
       434  22 -3.838316E+05 -8.946184E+02 -5.988333E+03  1.728859E+04  4.707587E+03  1.133144E+04
       434  23 -3.835852E+05  6.688537E+01 -3.294319E+03  1.321110E+04  3.065574E+03  1.022390E+04
       434  24 -3.838284E+05  1.752342E+02 -1.897556E+03  1.728498E+04  1.425043E+03  8.752866E+03
       434  25 -5.779432E+05 -4.775112E+04 -4.605596E+04  1.712725E+04  3.647065E+03  1.132818E+04
       434  26 -5.528857E+05 -4.075011E+04 -3.798211E+04  1.283780E+04  1.587010E+03  1.021913E+04
       434  27 -5.283902E+05 -3.467519E+04 -3.149644E+04  1.669985E+04 -4.716373E+02  8.746531E+03
       435   1 -2.572817E+05  3.055818E+04  2.432674E+04  1.767370E+04 -2.941465E+03 -7.807031E+03
       435   2 -2.820516E+05  2.459601E+04  1.991098E+04  1.350415E+04 -2.551563E+03 -6.225076E+03
       435   3 -3.069366E+05  1.865114E+04  1.522849E+04  1.752223E+04 -2.161906E+03 -4.623182E+03
       435   4 -3.837451E+05  9.876795E+01 -1.453127E+03  1.729396E+04 -1.132526E+03 -7.800924E+03
       435   5 -3.836847E+05  1.092930E+02 -8.448682E+02  1.320005E+04 -7.197583E+02 -6.218801E+03
       435   6 -3.837434E+05  1.332661E+02 -5.191665E+02  1.729384E+04 -3.072205E+02 -4.616737E+03
       435   7 -5.101933E+05 -3.036164E+04 -2.723382E+04  1.691429E+04  6.760521E+02 -7.794818E+03
       435   8 -4.853078E+05 -2.437807E+04 -2.160125E+04  1.289599E+04  1.111752E+03 -6.212528E+03
       435   9 -4.605446E+05 -1.838498E+04 -1.626712E+04  1.706548E+04  1.547239E+03 -4.610292E+03
       435  10 -2.572817E+05  3.055811E+04  2.432661E+04  1.767368E+04  7.824975E-09 -2.990379E-09
       435  11 -2.820517E+05  2.459597E+04  1.991089E+04  1.350414E+04 -5.643221E-09 -5.079312E-09
       435  12 -3.069366E+05  1.865112E+04  1.522844E+04  1.752222E+04 -2.684319E-08 -5.588625E-09
       435  13 -3.837451E+05  9.870227E+01 -1.453244E+03  1.729395E+04 -6.309787E-11 -9.242772E-10
       435  14 -3.836847E+05  1.092514E+02 -8.449419E+02  1.320005E+04  1.053726E-10 -7.680919E-09
       435  15 -3.837434E+05  1.332432E+02 -5.192067E+02  1.729384E+04  8.080199E-12 -7.190375E-09
       435  16 -5.101933E+05 -3.036171E+04 -2.723394E+04  1.691429E+04 -7.621565E-09 -1.996420E-09
       435  17 -4.853078E+05 -2.437811E+04 -2.160132E+04  1.289600E+04  8.187872E-09  6.288592E-09
       435  18 -4.605446E+05 -1.838500E+04 -1.626717E+04  1.706548E+04  2.648403E-08  9.892011E-09
       435  19 -2.572817E+05  3.055818E+04  2.432674E+04  1.767370E+04  2.941465E+03  7.807031E+03
       435  20 -2.820516E+05  2.459601E+04  1.991098E+04  1.350415E+04  2.551563E+03  6.225076E+03
       435  21 -3.069366E+05  1.865114E+04  1.522849E+04  1.752223E+04  2.161906E+03  4.623182E+03
       435  22 -3.837451E+05  9.876795E+01 -1.453127E+03  1.729396E+04  1.132526E+03  7.800924E+03
       435  23 -3.836847E+05  1.092930E+02 -8.448682E+02  1.320005E+04  7.197583E+02  6.218801E+03
       435  24 -3.837434E+05  1.332661E+02 -5.191665E+02  1.729384E+04  3.072205E+02  4.616737E+03
       435  25 -5.101933E+05 -3.036164E+04 -2.723382E+04  1.691429E+04 -6.760521E+02  7.794818E+03
       435  26 -4.853078E+05 -2.437807E+04 -2.160125E+04  1.289599E+04 -1.111752E+03  6.212528E+03
       435  27 -4.605446E+05 -1.838498E+04 -1.626712E+04  1.706548E+04 -1.547239E+03  4.610292E+03
       436   1 -3.250625E+05  1.425342E+04  1.149242E+04  1.746696E+04 -2.075878E+03 -3.685800E+03
       436   2 -3.498766E+05  8.252153E+03  6.584393E+03  1.329225E+04 -1.924502E+03 -2.077593E+03
       436   3 -3.747681E+05  2.305013E+03  1.573400E+03  1.731425E+04 -1.773192E+03 -4.681452E+02
       436   4 -3.837338E+05  1.307538E+02 -4.225170E+02  1.729589E+04 -2.253067E+02 -3.679332E+03
       436   5 -3.836944E+05  1.044140E+02 -3.205169E+02  1.319752E+04 -7.254647E+01 -2.071091E+03
       436   6 -3.837332E+05  1.319960E+02 -3.224455E+02  1.729588E+04  8.015324E+01 -4.616075E+02
       436   7 -4.424017E+05 -1.399213E+04 -1.233762E+04  1.712483E+04  1.625093E+03 -3.672865E+03
       436   8 -4.175111E+05 -8.043395E+03 -7.225474E+03  1.310280E+04  1.779310E+03 -2.064590E+03
       436   9 -3.926983E+05 -2.041025E+03 -2.218283E+03  1.727752E+04  1.933472E+03 -4.550698E+02
       436  10 -3.250625E+05  1.425341E+04  1.149239E+04  1.746695E+04  2.142694E-08 -1.097119E-08
       436  11 -3.498766E+05  8.252147E+03  6.584378E+03  1.329225E+04  5.232779E-09 -1.947120E-09
       436  12 -3.747681E+05  2.305012E+03  1.573394E+03  1.731425E+04 -2.227739E-08  6.430562E-09
       436  13 -3.837338E+05  1.307393E+02 -4.225425E+02  1.729589E+04  1.551420E-10 -1.909965E-09
       436  14 -3.836944E+05  1.044094E+02 -3.205250E+02  1.319752E+04  4.093269E-10 -8.139348E-09
       436  15 -3.837332E+05  1.319958E+02 -3.224459E+02  1.729588E+04 -5.546254E-11 -2.825424E-09
       436  16 -4.424017E+05 -1.399215E+04 -1.233765E+04  1.712484E+04 -2.097980E-08  1.220001E-09
       436  17 -4.175111E+05 -8.043400E+03 -7.225488E+03  1.310280E+04 -2.641747E-09  6.682271E-09
       436  18 -3.926983E+05 -2.041026E+03 -2.218290E+03  1.727752E+04  2.199670E-08  2.875414E-09
       436  19 -3.250625E+05  1.425342E+04  1.149242E+04  1.746696E+04  2.075878E+03  3.685800E+03
       436  20 -3.498766E+05  8.252153E+03  6.584393E+03  1.329225E+04  1.924502E+03  2.077593E+03
       436  21 -3.747681E+05  2.305013E+03  1.573400E+03  1.731425E+04  1.773192E+03  4.681452E+02
       436  22 -3.837338E+05  1.307538E+02 -4.225170E+02  1.729589E+04  2.253067E+02  3.679332E+03
       436  23 -3.836944E+05  1.044140E+02 -3.205169E+02  1.319752E+04  7.254647E+01  2.071091E+03
       436  24 -3.837332E+05  1.319960E+02 -3.224455E+02  1.729588E+04 -8.015324E+01  4.616075E+02
       436  25 -4.424017E+05 -1.399213E+04 -1.233762E+04  1.712483E+04 -1.625093E+03  3.672865E+03
       436  26 -4.175111E+05 -8.043395E+03 -7.225474E+03  1.310280E+04 -1.779310E+03  2.064590E+03
       436  27 -3.926983E+05 -2.041025E+03 -2.218283E+03  1.727752E+04 -1.933472E+03  4.550698E+02
       437   1 -3.929146E+05 -2.092551E+03 -2.299638E+03  1.726264E+04 -1.714496E+03  4.689120E+02
       437   2 -4.177204E+05 -8.090429E+03 -7.473009E+03  1.308161E+04 -1.459547E+03  2.078772E+03
       437   3 -4.426176E+05 -1.403762E+04 -1.281765E+04  1.709745E+04 -1.204553E+03  3.687396E+03
       437   4 -3.837363E+05  1.319588E+02 -3.602552E+02  1.729591E+04  1.388290E+02  4.754496E+02
       437   5 -3.836905E+05  1.089137E+02 -5.244970E+02  1.319748E+04  3.923179E+02  2.085274E+03
       437   6 -3.837369E+05  1.367511E+02 -8.590751E+02  1.729589E+04  6.458637E+02  3.693863E+03
       437   7 -3.745580E+05  2.356464E+03  1.579135E+03  1.732917E+04  1.992181E+03  4.819873E+02
       437   8 -3.496596E+05  8.308186E+03  6.423967E+03  1.331335E+04  2.244283E+03  2.091775E+03
       437   9 -3.248529E+05  1.431091E+04  1.109933E+04  1.749435E+04  2.496452E+03  3.700331E+03
       437  10 -3.929146E+05 -2.092552E+03 -2.299644E+03  1.726264E+04  2.256022E-09  4.896091E-09
       437  11 -4.177204E+05 -8.090435E+03 -7.473022E+03  1.308162E+04 -8.838765E-09 -7.146023E-09
       437  12 -4.426176E+05 -1.403763E+04 -1.281767E+04  1.709746E+04 -3.078347E-08 -8.364015E-09
       437  13 -3.837363E+05  1.319585E+02 -3.602557E+02  1.729591E+04 -2.625996E-10  1.347149E-08
       437  14 -3.836905E+05  1.089090E+02 -5.245054E+02  1.319748E+04  8.218723E-11 -1.058602E-08
       437  15 -3.837369E+05  1.367363E+02 -8.591016E+02  1.729589E+04 -2.737343E-10 -1.038026E-08
       437  16 -3.745580E+05  2.356463E+03  1.579127E+03  1.732917E+04 -2.518378E-09  1.031838E-09
       437  17 -3.496596E+05  8.308180E+03  6.423950E+03  1.331335E+04  1.214491E-08 -1.894161E-08
       437  18 -3.248529E+05  1.431089E+04  1.109929E+04  1.749434E+04  3.061835E-08 -1.112961E-08
       437  19 -3.929146E+05 -2.092551E+03 -2.299638E+03  1.726264E+04  1.714496E+03 -4.689120E+02
       437  20 -4.177204E+05 -8.090429E+03 -7.473009E+03  1.308161E+04  1.459547E+03 -2.078772E+03
       437  21 -4.426176E+05 -1.403762E+04 -1.281765E+04  1.709745E+04  1.204553E+03 -3.687396E+03
       437  22 -3.837363E+05  1.319588E+02 -3.602552E+02  1.729591E+04 -1.388290E+02 -4.754496E+02
       437  23 -3.836905E+05  1.089137E+02 -5.244970E+02  1.319748E+04 -3.923179E+02 -2.085274E+03
       437  24 -3.837369E+05  1.367511E+02 -8.590751E+02  1.729589E+04 -6.458637E+02 -3.693863E+03
       437  25 -3.745580E+05  2.356464E+03  1.579135E+03  1.732917E+04 -1.992181E+03 -4.819873E+02
       437  26 -3.496596E+05  8.308186E+03  6.423967E+03  1.331335E+04 -2.244283E+03 -2.091775E+03
       437  27 -3.248529E+05  1.431091E+04  1.109933E+04  1.749435E+04 -2.496452E+03 -3.700331E+03
       438   1 -4.607762E+05 -1.842688E+04 -1.690823E+04  1.702567E+04 -1.033232E+03  4.625155E+03
       438   2 -4.854973E+05 -2.441054E+04 -2.271983E+04  1.284202E+04 -6.575318E+01  6.229238E+03
       438   3 -5.104251E+05 -3.044251E+04 -2.919103E+04  1.684460E+04  9.019381E+02  7.813338E+03
       438   4 -3.837620E+05  1.430053E+02 -1.116735E+03  1.729342E+04  8.212596E+02  4.631599E+03
       438   5 -3.836615E+05  1.285010E+02 -1.919968E+03  1.320047E+04  1.765855E+03  6.235511E+03
       438   6 -3.837639E+05  6.981320E+01 -3.366702E+03  1.729368E+04  2.710699E+03  7.819444E+03
       438   7 -3.067423E+05  1.871252E+04  1.467446E+04  1.756120E+04  2.675978E+03  4.638045E+03
       438   8 -2.818159E+05  2.466689E+04  1.887936E+04  1.355898E+04  3.597758E+03  6.241786E+03
       438   9 -2.570874E+05  3.058114E+04  2.245679E+04  1.774283E+04  4.519822E+03  7.825552E+03
       438  10 -4.607762E+05 -1.842691E+04 -1.690827E+04  1.702567E+04 -4.500992E-09 -6.010888E-09
       438  11 -4.854973E+05 -2.441058E+04 -2.271990E+04  1.284202E+04  1.258807E-08 -6.242543E-09
       438  12 -5.104251E+05 -3.044258E+04 -2.919115E+04  1.684460E+04  1.285668E-08  7.089635E-10
       438  13 -3.837621E+05  1.429821E+02 -1.116777E+03  1.729342E+04 -5.665450E-11 -8.208440E-09
       438  14 -3.836615E+05  1.284584E+02 -1.920047E+03  1.320047E+04 -3.146116E-11 -2.039901E-10
       438  15 -3.837639E+05  6.974558E+01 -3.366830E+03  1.729366E+04 -2.892116E-10 -5.157795E-10
       438  16 -3.067423E+05  1.871250E+04  1.467440E+04  1.756119E+04  4.017934E-09  3.516294E-09
       438  17 -2.818159E+05  2.466685E+04  1.887926E+04  1.355896E+04 -9.023959E-09 -9.261783E-09
       438  18 -2.570874E+05  3.058107E+04  2.245664E+04  1.774281E+04 -1.312064E-08  6.345730E-09
       438  19 -4.607762E+05 -1.842688E+04 -1.690823E+04  1.702567E+04  1.033232E+03 -4.625155E+03
       438  20 -4.854973E+05 -2.441054E+04 -2.271983E+04  1.284202E+04  6.575318E+01 -6.229238E+03
       438  21 -5.104251E+05 -3.044251E+04 -2.919103E+04  1.684460E+04 -9.019381E+02 -7.813338E+03
       438  22 -3.837620E+05  1.430053E+02 -1.116735E+03  1.729342E+04 -8.212596E+02 -4.631599E+03
       438  23 -3.836615E+05  1.285010E+02 -1.919968E+03  1.320047E+04 -1.765855E+03 -6.235511E+03
       438  24 -3.837639E+05  6.981320E+01 -3.366702E+03  1.729368E+04 -2.710699E+03 -7.819444E+03
       438  25 -3.067423E+05  1.871252E+04  1.467446E+04  1.756120E+04 -2.675978E+03 -4.638045E+03
       438  26 -2.818159E+05  2.466689E+04  1.887936E+04  1.355898E+04 -3.597758E+03 -6.241786E+03
       438  27 -2.570874E+05  3.058114E+04  2.245679E+04  1.774283E+04 -4.519822E+03 -7.825552E+03
       439   1 -5.287325E+05 -3.465383E+04 -3.405669E+04  1.641579E+04  1.497067E+03  8.766383E+03
       439   2 -5.529355E+05 -4.082899E+04 -4.242162E+04  1.291539E+04  5.751504E+03  1.024626E+04
       439   3 -5.782908E+05 -4.914757E+04 -5.410947E+04  1.756971E+04  1.000722E+04  1.136219E+04
       439   4 -3.839598E+05  2.498094E+02 -4.414331E+03  1.728454E+04  3.394063E+03  8.772719E+03
       439   5 -3.834218E+05  3.872800E+01 -7.690298E+03  1.321146E+04  7.230454E+03  1.025103E+04
       439   6 -3.839637E+05 -2.242700E+03 -1.399802E+04  1.729297E+04  1.106829E+04  1.136544E+04
       439   7 -2.391671E+05  3.515213E+04  2.522692E+04  1.815349E+04  5.291493E+03  8.779060E+03
       439   8 -2.138807E+05  4.090464E+04  2.703950E+04  1.350758E+04  8.709801E+03  1.025580E+04
       439   9 -1.896007E+05  4.465978E+04  2.611139E+04  1.701611E+04  1.212969E+04  1.136868E+04
       439  10 -5.287325E+05 -3.465391E+04 -3.405683E+04  1.641577E+04 -1.545596E-08  1.298140E-09
       439  11 -5.529355E+05 -4.082911E+04 -4.242188E+04  1.291534E+04 -6.723145E-09  7.014807E-09
       439  12 -5.782909E+05 -4.914773E+04 -5.410990E+04  1.756962E+04 -2.495333E-09 -2.514462E-09
       439  13 -3.839598E+05  2.497237E+02 -4.414498E+03  1.728452E+04  1.943880E-10 -1.129869E-08
       439  14 -3.834218E+05  3.860114E+01 -7.690594E+03  1.321140E+04 -5.780220E-10  7.233000E-09
       439  15 -3.839638E+05 -2.242872E+03 -1.399849E+04  1.729287E+04 -2.609128E-10  3.991194E-09
       439  16 -2.391672E+05  3.515204E+04  2.522673E+04  1.815345E+04  1.539790E-08 -7.634097E-09
       439  17 -2.138809E+05  4.090451E+04  2.703916E+04  1.350751E+04  8.869877E-09 -1.321781E-08
       439  18 -1.896009E+05  4.465960E+04  2.611087E+04  1.701600E+04  2.070660E-09  6.974665E-09
       439  19 -5.287325E+05 -3.465383E+04 -3.405669E+04  1.641579E+04 -1.497067E+03 -8.766383E+03
       439  20 -5.529355E+05 -4.082899E+04 -4.242162E+04  1.291539E+04 -5.751504E+03 -1.024626E+04
       439  21 -5.782908E+05 -4.914757E+04 -5.410947E+04  1.756971E+04 -1.000722E+04 -1.136219E+04
       439  22 -3.839598E+05  2.498094E+02 -4.414331E+03  1.728454E+04 -3.394063E+03 -8.772719E+03
       439  23 -3.834218E+05  3.872800E+01 -7.690298E+03  1.321146E+04 -7.230454E+03 -1.025103E+04
       439  24 -3.839637E+05 -2.242700E+03 -1.399802E+04  1.729297E+04 -1.106829E+04 -1.136544E+04
       439  25 -2.391671E+05  3.515213E+04  2.522692E+04  1.815349E+04 -5.291493E+03 -8.779060E+03
       439  26 -2.138807E+05  4.090464E+04  2.703950E+04  1.350758E+04 -8.709801E+03 -1.025580E+04
       439  27 -1.896007E+05  4.465978E+04  2.611139E+04  1.701611E+04 -1.212969E+04 -1.136868E+04
       440   1 -5.993724E+05 -4.941194E+04 -6.163975E+04  9.462254E+03  1.074337E+04  1.260389E+04
       440   2 -6.165985E+05 -6.169044E+04 -8.190362E+04  2.465214E+04  3.510925E+04  1.163609E+04
       440   3 -6.491470E+05 -1.223455E+05 -1.301427E+05  4.771565E+04  5.949506E+04  3.789489E+03
       440   4 -3.868220E+05  1.931705E+03 -1.788567E+04  1.718502E+04  1.349964E+04  1.261278E+04
       440   5 -3.798579E+05 -4.293721E+03 -3.134432E+04  1.334365E+04  2.995117E+04  1.161839E+04
       440   6 -3.868371E+05 -5.751215E+04 -6.727354E+04  1.737712E+04  4.642404E+04  3.744891E+03
       440   7 -1.742286E+05  5.327271E+04  2.586604E+04  2.491043E+04  1.625684E+04  1.262174E+04
       440   8 -1.430642E+05  5.309986E+04  1.921191E+04  2.030742E+03  2.479114E+04  1.160088E+04
       440   9 -1.244617E+05  7.319811E+03 -4.408048E+03 -1.297433E+04  3.334751E+04  3.701581E+03
       440  10 -5.993726E+05 -4.941214E+04 -6.164027E+04  9.462145E+03  9.065732E-10 -5.587696E-09
       440  11 -6.165999E+05 -6.169092E+04 -8.190619E+04  2.465181E+04  8.222230E-09 -1.653110E-09
       440  12 -6.491508E+05 -1.223465E+05 -1.301494E+05  4.771547E+04  4.290958E-09  6.825812E-09
       440  13 -3.868223E+05  1.931485E+03 -1.788632E+04  1.718488E+04 -7.646567E-11  4.104529E-09
       440  14 -3.798589E+05 -4.294107E+03 -3.134626E+04  1.334337E+04 -6.243326E-11  2.654786E-09
       440  15 -3.868394E+05 -5.751274E+04 -6.727761E+04  1.737698E+04 -4.221061E-10  7.117026E-09
       440  16 -1.742289E+05  5.327247E+04  2.586524E+04  2.491027E+04 -1.011809E-09  8.178900E-09
       440  17 -1.430649E+05  5.309955E+04  1.921050E+04  2.030510E+03 -5.495084E-09  9.230474E-09
       440  18 -1.244629E+05  7.319497E+03 -4.410164E+03 -1.297443E+04 -4.927478E-09  2.884690E-09
       440  19 -5.993724E+05 -4.941194E+04 -6.163975E+04  9.462254E+03 -1.074337E+04 -1.260389E+04
       440  20 -6.165985E+05 -6.169044E+04 -8.190362E+04  2.465214E+04 -3.510925E+04 -1.163609E+04
       440  21 -6.491470E+05 -1.223455E+05 -1.301427E+05  4.771565E+04 -5.949506E+04 -3.789489E+03
       440  22 -3.868220E+05  1.931705E+03 -1.788567E+04  1.718502E+04 -1.349964E+04 -1.261278E+04
       440  23 -3.798579E+05 -4.293721E+03 -3.134432E+04  1.334365E+04 -2.995117E+04 -1.161839E+04
       440  24 -3.868371E+05 -5.751215E+04 -6.727354E+04  1.737712E+04 -4.642404E+04 -3.744891E+03
       440  25 -1.742286E+05  5.327271E+04  2.586604E+04  2.491043E+04 -1.625684E+04 -1.262174E+04
       440  26 -1.430642E+05  5.309986E+04  1.921191E+04  2.030742E+03 -2.479114E+04 -1.160088E+04
       440  27 -1.244617E+05  7.319811E+03 -4.408048E+03 -1.297433E+04 -3.334751E+04 -3.701581E+03
