    1C
    1UUSER                                                              
    1UDATE              11.october.2022                                 
    1UTIME              19:00:19                                        
    1UHOST                                                              
    1UPGM               CalculiX                                        
    1UVERSION           Version 2.20                             
    1UCOMPILETIME       Sun Jul 31 18:08:37 CEST 2022                    
    1UDIR                                                               
    1UDBN                                                               
    1UMAT    1MESH_MATERIAL                                             
    2C                           409                                     1
 -1         1 0.00000E+00 0.00000E+00 0.00000E+00
 -1         2 1.66667E-02 0.00000E+00 0.00000E+00
 -1         3 3.33333E-02 0.00000E+00 0.00000E+00
 -1         5 6.66667E-02 0.00000E+00 0.00000E+00
 -1         8 0.00000E+00 6.25000E-03 0.00000E+00
 -1         9 1.66667E-02 6.25000E-03 0.00000E+00
 -1        10 3.33333E-02 6.25000E-03 0.00000E+00
 -1        12 6.66667E-02 6.25000E-03 0.00000E+00
 -1        15 0.00000E+00 1.25000E-02 0.00000E+00
 -1        16 1.66667E-02 1.25000E-02 0.00000E+00
 -1        17 3.33333E-02 1.25000E-02 0.00000E+00
 -1        18 5.00000E-02 1.25000E-02 0.00000E+00
 -1        19 6.66667E-02 1.25000E-02 0.00000E+00
 -1        20 8.33333E-02 1.25000E-02 0.00000E+00
 -1        21 1.00000E-01 1.25000E-02 0.00000E+00
 -1        24 3.33333E-02 1.87500E-02 0.00000E+00
 -1        25 5.00000E-02 1.87500E-02 0.00000E+00
 -1        26 6.66667E-02 1.87500E-02 0.00000E+00
 -1        27 8.33333E-02 1.87500E-02 0.00000E+00
 -1        28 1.00000E-01 1.87500E-02 0.00000E+00
 -1        32 5.00000E-02 2.50000E-02 0.00000E+00
 -1        33 6.66667E-02 2.50000E-02 0.00000E+00
 -1        34 8.33333E-02 2.50000E-02 0.00000E+00
 -1        35 1.00000E-01 2.50000E-02 0.00000E+00
 -1        51 0.00000E+00 1.04167E-03 0.00000E+00
 -1        52 0.00000E+00 2.08333E-03 0.00000E+00
 -1        53 0.00000E+00 3.12500E-03 0.00000E+00
 -1        54 0.00000E+00 4.16667E-03 0.00000E+00
 -1        55 0.00000E+00 5.20833E-03 0.00000E+00
 -1        56 1.04167E-03 3.90630E-04 0.00000E+00
 -1        57 2.08333E-03 7.81250E-04 0.00000E+00
 -1        58 3.12500E-03 1.17188E-03 0.00000E+00
 -1        59 4.16667E-03 1.56250E-03 0.00000E+00
 -1        60 5.20833E-03 1.95312E-03 0.00000E+00
 -1        61 6.25000E-03 2.34375E-03 0.00000E+00
 -1        62 7.29167E-03 2.73438E-03 0.00000E+00
 -1        63 8.33333E-03 3.12500E-03 0.00000E+00
 -1        64 9.37500E-03 3.51563E-03 0.00000E+00
 -1        65 1.04167E-02 3.90625E-03 0.00000E+00
 -1        66 1.14583E-02 4.29688E-03 0.00000E+00
 -1        67 1.25000E-02 4.68750E-03 0.00000E+00
 -1        68 1.35417E-02 5.07813E-03 0.00000E+00
 -1        69 1.45833E-02 5.46875E-03 0.00000E+00
 -1        70 1.56250E-02 5.85938E-03 0.00000E+00
 -1        86 1.66667E-02 1.04167E-03 0.00000E+00
 -1        87 1.66667E-02 2.08333E-03 0.00000E+00
 -1        88 1.66667E-02 3.12500E-03 0.00000E+00
 -1        89 1.66667E-02 4.16667E-03 0.00000E+00
 -1        90 1.66667E-02 5.20833E-03 0.00000E+00
 -1       121 3.33333E-02 1.04167E-03 0.00000E+00
 -1       122 3.33333E-02 2.08333E-03 0.00000E+00
 -1       123 3.33333E-02 3.12500E-03 0.00000E+00
 -1       124 3.33333E-02 4.16667E-03 0.00000E+00
 -1       125 3.33333E-02 5.20833E-03 0.00000E+00
 -1       191 6.66667E-02 1.04167E-03 0.00000E+00
 -1       192 6.66667E-02 2.08333E-03 0.00000E+00
 -1       193 6.66667E-02 3.12500E-03 0.00000E+00
 -1       194 6.66667E-02 4.16667E-03 0.00000E+00
 -1       195 6.66667E-02 5.20833E-03 0.00000E+00
 -1       251 1.04167E-03 6.25000E-03 0.00000E+00
 -1       252 2.08333E-03 6.25000E-03 0.00000E+00
 -1       253 3.12500E-03 6.25000E-03 0.00000E+00
 -1       254 4.16667E-03 6.25000E-03 0.00000E+00
 -1       255 5.20833E-03 6.25000E-03 0.00000E+00
 -1       256 6.25000E-03 6.25000E-03 0.00000E+00
 -1       257 7.29167E-03 6.25000E-03 0.00000E+00
 -1       258 8.33333E-03 6.25000E-03 0.00000E+00
 -1       259 9.37500E-03 6.25000E-03 0.00000E+00
 -1       260 1.04167E-02 6.25000E-03 0.00000E+00
 -1       261 1.14583E-02 6.25000E-03 0.00000E+00
 -1       262 1.25000E-02 6.25000E-03 0.00000E+00
 -1       263 1.35417E-02 6.25000E-03 0.00000E+00
 -1       264 1.45833E-02 6.25000E-03 0.00000E+00
 -1       265 1.56250E-02 6.25000E-03 0.00000E+00
 -1       266 0.00000E+00 7.29167E-03 0.00000E+00
 -1       267 0.00000E+00 8.33333E-03 0.00000E+00
 -1       268 0.00000E+00 9.37500E-03 0.00000E+00
 -1       269 0.00000E+00 1.04167E-02 0.00000E+00
 -1       270 0.00000E+00 1.14583E-02 0.00000E+00
 -1       271 1.04167E-03 6.64063E-03 0.00000E+00
 -1       272 2.08333E-03 7.03125E-03 0.00000E+00
 -1       273 3.12500E-03 7.42188E-03 0.00000E+00
 -1       274 4.16667E-03 7.81250E-03 0.00000E+00
 -1       275 5.20833E-03 8.20313E-03 0.00000E+00
 -1       276 6.25000E-03 8.59375E-03 0.00000E+00
 -1       277 7.29167E-03 8.98438E-03 0.00000E+00
 -1       278 8.33333E-03 9.37500E-03 0.00000E+00
 -1       279 9.37500E-03 9.76562E-03 0.00000E+00
 -1       280 1.04167E-02 1.01562E-02 0.00000E+00
 -1       281 1.14583E-02 1.05469E-02 0.00000E+00
 -1       282 1.25000E-02 1.09375E-02 0.00000E+00
 -1       283 1.35417E-02 1.13281E-02 0.00000E+00
 -1       284 1.45833E-02 1.17188E-02 0.00000E+00
 -1       285 1.56250E-02 1.21094E-02 0.00000E+00
 -1       301 1.66667E-02 7.29167E-03 0.00000E+00
 -1       302 1.66667E-02 8.33333E-03 0.00000E+00
 -1       303 1.66667E-02 9.37500E-03 0.00000E+00
 -1       304 1.66667E-02 1.04167E-02 0.00000E+00
 -1       305 1.66667E-02 1.14583E-02 0.00000E+00
 -1       306 1.77083E-02 6.64063E-03 0.00000E+00
 -1       307 1.87500E-02 7.03125E-03 0.00000E+00
 -1       308 1.97917E-02 7.42188E-03 0.00000E+00
 -1       309 2.08333E-02 7.81250E-03 0.00000E+00
 -1       310 2.18750E-02 8.20313E-03 0.00000E+00
 -1       311 2.29167E-02 8.59375E-03 0.00000E+00
 -1       312 2.39583E-02 8.98438E-03 0.00000E+00
 -1       313 2.50000E-02 9.37500E-03 0.00000E+00
 -1       314 2.60417E-02 9.76562E-03 0.00000E+00
 -1       315 2.70833E-02 1.01562E-02 0.00000E+00
 -1       316 2.81250E-02 1.05469E-02 0.00000E+00
 -1       317 2.91667E-02 1.09375E-02 0.00000E+00
 -1       318 3.02083E-02 1.13281E-02 0.00000E+00
 -1       319 3.12500E-02 1.17188E-02 0.00000E+00
 -1       320 3.22917E-02 1.21094E-02 0.00000E+00
 -1       336 3.33333E-02 7.29167E-03 0.00000E+00
 -1       337 3.33333E-02 8.33333E-03 0.00000E+00
 -1       338 3.33333E-02 9.37500E-03 0.00000E+00
 -1       339 3.33333E-02 1.04167E-02 0.00000E+00
 -1       340 3.33333E-02 1.14583E-02 0.00000E+00
 -1       406 6.66667E-02 7.29167E-03 0.00000E+00
 -1       407 6.66667E-02 8.33333E-03 0.00000E+00
 -1       408 6.66667E-02 9.37500E-03 0.00000E+00
 -1       409 6.66667E-02 1.04167E-02 0.00000E+00
 -1       410 6.66667E-02 1.14583E-02 0.00000E+00
 -1       521 1.77083E-02 1.28906E-02 0.00000E+00
 -1       522 1.87500E-02 1.32813E-02 0.00000E+00
 -1       523 1.97917E-02 1.36719E-02 0.00000E+00
 -1       524 2.08333E-02 1.40625E-02 0.00000E+00
 -1       525 2.18750E-02 1.44531E-02 0.00000E+00
 -1       526 2.29167E-02 1.48437E-02 0.00000E+00
 -1       527 2.39583E-02 1.52344E-02 0.00000E+00
 -1       528 2.50000E-02 1.56250E-02 0.00000E+00
 -1       529 2.60417E-02 1.60156E-02 0.00000E+00
 -1       530 2.70833E-02 1.64062E-02 0.00000E+00
 -1       531 2.81250E-02 1.67969E-02 0.00000E+00
 -1       532 2.91667E-02 1.71875E-02 0.00000E+00
 -1       533 3.02083E-02 1.75781E-02 0.00000E+00
 -1       534 3.12500E-02 1.79687E-02 0.00000E+00
 -1       535 3.22917E-02 1.83594E-02 0.00000E+00
 -1       536 3.43750E-02 1.25000E-02 0.00000E+00
 -1       537 3.54167E-02 1.25000E-02 0.00000E+00
 -1       538 3.64583E-02 1.25000E-02 0.00000E+00
 -1       539 3.75000E-02 1.25000E-02 0.00000E+00
 -1       540 3.85417E-02 1.25000E-02 0.00000E+00
 -1       541 3.95833E-02 1.25000E-02 0.00000E+00
 -1       542 4.06250E-02 1.25000E-02 0.00000E+00
 -1       543 4.16667E-02 1.25000E-02 0.00000E+00
 -1       544 4.27083E-02 1.25000E-02 0.00000E+00
 -1       545 4.37500E-02 1.25000E-02 0.00000E+00
 -1       546 4.47917E-02 1.25000E-02 0.00000E+00
 -1       547 4.58333E-02 1.25000E-02 0.00000E+00
 -1       548 4.68750E-02 1.25000E-02 0.00000E+00
 -1       549 4.79167E-02 1.25000E-02 0.00000E+00
 -1       550 4.89583E-02 1.25000E-02 0.00000E+00
 -1       551 3.33333E-02 1.35417E-02 0.00000E+00
 -1       552 3.33333E-02 1.45833E-02 0.00000E+00
 -1       553 3.33333E-02 1.56250E-02 0.00000E+00
 -1       554 3.33333E-02 1.66667E-02 0.00000E+00
 -1       555 3.33333E-02 1.77083E-02 0.00000E+00
 -1       556 3.43750E-02 1.28906E-02 0.00000E+00
 -1       557 3.54167E-02 1.32813E-02 0.00000E+00
 -1       558 3.64583E-02 1.36719E-02 0.00000E+00
 -1       559 3.75000E-02 1.40625E-02 0.00000E+00
 -1       560 3.85417E-02 1.44531E-02 0.00000E+00
 -1       561 3.95833E-02 1.48437E-02 0.00000E+00
 -1       562 4.06250E-02 1.52344E-02 0.00000E+00
 -1       563 4.16667E-02 1.56250E-02 0.00000E+00
 -1       564 4.27083E-02 1.60156E-02 0.00000E+00
 -1       565 4.37500E-02 1.64062E-02 0.00000E+00
 -1       566 4.47917E-02 1.67969E-02 0.00000E+00
 -1       567 4.58333E-02 1.71875E-02 0.00000E+00
 -1       568 4.68750E-02 1.75781E-02 0.00000E+00
 -1       569 4.79167E-02 1.79687E-02 0.00000E+00
 -1       570 4.89583E-02 1.83594E-02 0.00000E+00
 -1       571 5.10417E-02 1.25000E-02 0.00000E+00
 -1       572 5.20833E-02 1.25000E-02 0.00000E+00
 -1       573 5.31250E-02 1.25000E-02 0.00000E+00
 -1       574 5.41667E-02 1.25000E-02 0.00000E+00
 -1       575 5.52083E-02 1.25000E-02 0.00000E+00
 -1       576 5.62500E-02 1.25000E-02 0.00000E+00
 -1       577 5.72917E-02 1.25000E-02 0.00000E+00
 -1       578 5.83333E-02 1.25000E-02 0.00000E+00
 -1       579 5.93750E-02 1.25000E-02 0.00000E+00
 -1       580 6.04167E-02 1.25000E-02 0.00000E+00
 -1       581 6.14583E-02 1.25000E-02 0.00000E+00
 -1       582 6.25000E-02 1.25000E-02 0.00000E+00
 -1       583 6.35417E-02 1.25000E-02 0.00000E+00
 -1       584 6.45833E-02 1.25000E-02 0.00000E+00
 -1       585 6.56250E-02 1.25000E-02 0.00000E+00
 -1       586 5.00000E-02 1.35417E-02 0.00000E+00
 -1       587 5.00000E-02 1.45833E-02 0.00000E+00
 -1       588 5.00000E-02 1.56250E-02 0.00000E+00
 -1       589 5.00000E-02 1.66667E-02 0.00000E+00
 -1       590 5.00000E-02 1.77083E-02 0.00000E+00
 -1       591 5.10417E-02 1.28906E-02 0.00000E+00
 -1       592 5.20833E-02 1.32813E-02 0.00000E+00
 -1       593 5.31250E-02 1.36719E-02 0.00000E+00
 -1       594 5.41667E-02 1.40625E-02 0.00000E+00
 -1       595 5.52083E-02 1.44531E-02 0.00000E+00
 -1       596 5.62500E-02 1.48437E-02 0.00000E+00
 -1       597 5.72917E-02 1.52344E-02 0.00000E+00
 -1       598 5.83333E-02 1.56250E-02 0.00000E+00
 -1       599 5.93750E-02 1.60156E-02 0.00000E+00
 -1       600 6.04167E-02 1.64062E-02 0.00000E+00
 -1       601 6.14583E-02 1.67969E-02 0.00000E+00
 -1       602 6.25000E-02 1.71875E-02 0.00000E+00
 -1       603 6.35417E-02 1.75781E-02 0.00000E+00
 -1       604 6.45833E-02 1.79687E-02 0.00000E+00
 -1       605 6.56250E-02 1.83594E-02 0.00000E+00
 -1       606 6.77083E-02 1.25000E-02 0.00000E+00
 -1       607 6.87500E-02 1.25000E-02 0.00000E+00
 -1       608 6.97917E-02 1.25000E-02 0.00000E+00
 -1       609 7.08333E-02 1.25000E-02 0.00000E+00
 -1       610 7.18750E-02 1.25000E-02 0.00000E+00
 -1       611 7.29167E-02 1.25000E-02 0.00000E+00
 -1       612 7.39583E-02 1.25000E-02 0.00000E+00
 -1       613 7.50000E-02 1.25000E-02 0.00000E+00
 -1       614 7.60417E-02 1.25000E-02 0.00000E+00
 -1       615 7.70833E-02 1.25000E-02 0.00000E+00
 -1       616 7.81250E-02 1.25000E-02 0.00000E+00
 -1       617 7.91667E-02 1.25000E-02 0.00000E+00
 -1       618 8.02083E-02 1.25000E-02 0.00000E+00
 -1       619 8.12500E-02 1.25000E-02 0.00000E+00
 -1       620 8.22917E-02 1.25000E-02 0.00000E+00
 -1       621 6.66667E-02 1.35417E-02 0.00000E+00
 -1       622 6.66667E-02 1.45833E-02 0.00000E+00
 -1       623 6.66667E-02 1.56250E-02 0.00000E+00
 -1       624 6.66667E-02 1.66667E-02 0.00000E+00
 -1       625 6.66667E-02 1.77083E-02 0.00000E+00
 -1       626 6.77083E-02 1.28906E-02 0.00000E+00
 -1       627 6.87500E-02 1.32813E-02 0.00000E+00
 -1       628 6.97917E-02 1.36719E-02 0.00000E+00
 -1       629 7.08333E-02 1.40625E-02 0.00000E+00
 -1       630 7.18750E-02 1.44531E-02 0.00000E+00
 -1       631 7.29167E-02 1.48437E-02 0.00000E+00
 -1       632 7.39583E-02 1.52344E-02 0.00000E+00
 -1       633 7.50000E-02 1.56250E-02 0.00000E+00
 -1       634 7.60417E-02 1.60156E-02 0.00000E+00
 -1       635 7.70833E-02 1.64062E-02 0.00000E+00
 -1       636 7.81250E-02 1.67969E-02 0.00000E+00
 -1       637 7.91667E-02 1.71875E-02 0.00000E+00
 -1       638 8.02083E-02 1.75781E-02 0.00000E+00
 -1       639 8.12500E-02 1.79687E-02 0.00000E+00
 -1       640 8.22917E-02 1.83594E-02 0.00000E+00
 -1       656 8.33333E-02 1.35417E-02 0.00000E+00
 -1       657 8.33333E-02 1.45833E-02 0.00000E+00
 -1       658 8.33333E-02 1.56250E-02 0.00000E+00
 -1       659 8.33333E-02 1.66667E-02 0.00000E+00
 -1       660 8.33333E-02 1.77083E-02 0.00000E+00
 -1       661 8.43750E-02 1.28906E-02 0.00000E+00
 -1       662 8.54167E-02 1.32813E-02 0.00000E+00
 -1       663 8.64583E-02 1.36719E-02 0.00000E+00
 -1       664 8.75000E-02 1.40625E-02 0.00000E+00
 -1       665 8.85417E-02 1.44531E-02 0.00000E+00
 -1       666 8.95833E-02 1.48437E-02 0.00000E+00
 -1       667 9.06250E-02 1.52344E-02 0.00000E+00
 -1       668 9.16667E-02 1.56250E-02 0.00000E+00
 -1       669 9.27083E-02 1.60156E-02 0.00000E+00
 -1       670 9.37500E-02 1.64062E-02 0.00000E+00
 -1       671 9.47917E-02 1.67969E-02 0.00000E+00
 -1       672 9.58333E-02 1.71875E-02 0.00000E+00
 -1       673 9.68750E-02 1.75781E-02 0.00000E+00
 -1       674 9.79167E-02 1.79687E-02 0.00000E+00
 -1       675 9.89583E-02 1.83594E-02 0.00000E+00
 -1       676 1.00000E-01 1.35417E-02 0.00000E+00
 -1       677 1.00000E-01 1.45833E-02 0.00000E+00
 -1       678 1.00000E-01 1.56250E-02 0.00000E+00
 -1       679 1.00000E-01 1.66667E-02 0.00000E+00
 -1       680 1.00000E-01 1.77083E-02 0.00000E+00
 -1       771 3.43750E-02 1.91406E-02 0.00000E+00
 -1       772 3.54167E-02 1.95312E-02 0.00000E+00
 -1       773 3.64583E-02 1.99219E-02 0.00000E+00
 -1       774 3.75000E-02 2.03125E-02 0.00000E+00
 -1       775 3.85417E-02 2.07031E-02 0.00000E+00
 -1       776 3.95833E-02 2.10938E-02 0.00000E+00
 -1       777 4.06250E-02 2.14844E-02 0.00000E+00
 -1       778 4.16667E-02 2.18750E-02 0.00000E+00
 -1       779 4.27083E-02 2.22656E-02 0.00000E+00
 -1       780 4.37500E-02 2.26563E-02 0.00000E+00
 -1       781 4.47917E-02 2.30469E-02 0.00000E+00
 -1       782 4.58333E-02 2.34375E-02 0.00000E+00
 -1       783 4.68750E-02 2.38281E-02 0.00000E+00
 -1       784 4.79167E-02 2.42187E-02 0.00000E+00
 -1       785 4.89583E-02 2.46094E-02 0.00000E+00
 -1       786 5.10417E-02 1.87500E-02 0.00000E+00
 -1       787 5.20833E-02 1.87500E-02 0.00000E+00
 -1       788 5.31250E-02 1.87500E-02 0.00000E+00
 -1       789 5.41667E-02 1.87500E-02 0.00000E+00
 -1       790 5.52083E-02 1.87500E-02 0.00000E+00
 -1       791 5.62500E-02 1.87500E-02 0.00000E+00
 -1       792 5.72917E-02 1.87500E-02 0.00000E+00
 -1       793 5.83333E-02 1.87500E-02 0.00000E+00
 -1       794 5.93750E-02 1.87500E-02 0.00000E+00
 -1       795 6.04167E-02 1.87500E-02 0.00000E+00
 -1       796 6.14583E-02 1.87500E-02 0.00000E+00
 -1       797 6.25000E-02 1.87500E-02 0.00000E+00
 -1       798 6.35417E-02 1.87500E-02 0.00000E+00
 -1       799 6.45833E-02 1.87500E-02 0.00000E+00
 -1       800 6.56250E-02 1.87500E-02 0.00000E+00
 -1       801 5.00000E-02 1.97917E-02 0.00000E+00
 -1       802 5.00000E-02 2.08333E-02 0.00000E+00
 -1       803 5.00000E-02 2.18750E-02 0.00000E+00
 -1       804 5.00000E-02 2.29167E-02 0.00000E+00
 -1       805 5.00000E-02 2.39583E-02 0.00000E+00
 -1       806 5.10417E-02 1.91406E-02 0.00000E+00
 -1       807 5.20833E-02 1.95312E-02 0.00000E+00
 -1       808 5.31250E-02 1.99219E-02 0.00000E+00
 -1       809 5.41667E-02 2.03125E-02 0.00000E+00
 -1       810 5.52083E-02 2.07031E-02 0.00000E+00
 -1       811 5.62500E-02 2.10938E-02 0.00000E+00
 -1       812 5.72917E-02 2.14844E-02 0.00000E+00
 -1       813 5.83333E-02 2.18750E-02 0.00000E+00
 -1       814 5.93750E-02 2.22656E-02 0.00000E+00
 -1       815 6.04167E-02 2.26563E-02 0.00000E+00
 -1       816 6.14583E-02 2.30469E-02 0.00000E+00
 -1       817 6.25000E-02 2.34375E-02 0.00000E+00
 -1       818 6.35417E-02 2.38281E-02 0.00000E+00
 -1       819 6.45833E-02 2.42187E-02 0.00000E+00
 -1       820 6.56250E-02 2.46094E-02 0.00000E+00
 -1       821 6.77083E-02 1.87500E-02 0.00000E+00
 -1       822 6.87500E-02 1.87500E-02 0.00000E+00
 -1       823 6.97917E-02 1.87500E-02 0.00000E+00
 -1       824 7.08333E-02 1.87500E-02 0.00000E+00
 -1       825 7.18750E-02 1.87500E-02 0.00000E+00
 -1       826 7.29167E-02 1.87500E-02 0.00000E+00
 -1       827 7.39583E-02 1.87500E-02 0.00000E+00
 -1       828 7.50000E-02 1.87500E-02 0.00000E+00
 -1       829 7.60417E-02 1.87500E-02 0.00000E+00
 -1       830 7.70833E-02 1.87500E-02 0.00000E+00
 -1       831 7.81250E-02 1.87500E-02 0.00000E+00
 -1       832 7.91667E-02 1.87500E-02 0.00000E+00
 -1       833 8.02083E-02 1.87500E-02 0.00000E+00
 -1       834 8.12500E-02 1.87500E-02 0.00000E+00
 -1       835 8.22917E-02 1.87500E-02 0.00000E+00
 -1       836 6.66667E-02 1.97917E-02 0.00000E+00
 -1       837 6.66667E-02 2.08333E-02 0.00000E+00
 -1       838 6.66667E-02 2.18750E-02 0.00000E+00
 -1       839 6.66667E-02 2.29167E-02 0.00000E+00
 -1       840 6.66667E-02 2.39583E-02 0.00000E+00
 -1       856 8.43750E-02 1.87500E-02 0.00000E+00
 -1       857 8.54167E-02 1.87500E-02 0.00000E+00
 -1       858 8.64583E-02 1.87500E-02 0.00000E+00
 -1       859 8.75000E-02 1.87500E-02 0.00000E+00
 -1       860 8.85417E-02 1.87500E-02 0.00000E+00
 -1       861 8.95833E-02 1.87500E-02 0.00000E+00
 -1       862 9.06250E-02 1.87500E-02 0.00000E+00
 -1       863 9.16667E-02 1.87500E-02 0.00000E+00
 -1       864 9.27083E-02 1.87500E-02 0.00000E+00
 -1       865 9.37500E-02 1.87500E-02 0.00000E+00
 -1       866 9.47917E-02 1.87500E-02 0.00000E+00
 -1       867 9.58333E-02 1.87500E-02 0.00000E+00
 -1       868 9.68750E-02 1.87500E-02 0.00000E+00
 -1       869 9.79167E-02 1.87500E-02 0.00000E+00
 -1       870 9.89583E-02 1.87500E-02 0.00000E+00
 -1       871 8.33333E-02 1.97917E-02 0.00000E+00
 -1       872 8.33333E-02 2.08333E-02 0.00000E+00
 -1       873 8.33333E-02 2.18750E-02 0.00000E+00
 -1       874 8.33333E-02 2.29167E-02 0.00000E+00
 -1       875 8.33333E-02 2.39583E-02 0.00000E+00
 -1       876 8.43750E-02 1.91406E-02 0.00000E+00
 -1       877 8.54167E-02 1.95312E-02 0.00000E+00
 -1       878 8.64583E-02 1.99219E-02 0.00000E+00
 -1       879 8.75000E-02 2.03125E-02 0.00000E+00
 -1       880 8.85417E-02 2.07031E-02 0.00000E+00
 -1       881 8.95833E-02 2.10938E-02 0.00000E+00
 -1       882 9.06250E-02 2.14844E-02 0.00000E+00
 -1       883 9.16667E-02 2.18750E-02 0.00000E+00
 -1       884 9.27083E-02 2.22656E-02 0.00000E+00
 -1       885 9.37500E-02 2.26563E-02 0.00000E+00
 -1       886 9.47917E-02 2.30469E-02 0.00000E+00
 -1       887 9.58333E-02 2.34375E-02 0.00000E+00
 -1       888 9.68750E-02 2.38281E-02 0.00000E+00
 -1       889 9.79167E-02 2.42187E-02 0.00000E+00
 -1       890 9.89583E-02 2.46094E-02 0.00000E+00
 -1       891 1.00000E-01 1.97917E-02 0.00000E+00
 -1       892 1.00000E-01 2.08333E-02 0.00000E+00
 -1       893 1.00000E-01 2.18750E-02 0.00000E+00
 -1       894 1.00000E-01 2.29167E-02 0.00000E+00
 -1       895 1.00000E-01 2.39583E-02 0.00000E+00
 -1       956 6.77083E-02 2.50000E-02 0.00000E+00
 -1       957 6.87500E-02 2.50000E-02 0.00000E+00
 -1       958 6.97917E-02 2.50000E-02 0.00000E+00
 -1       959 7.08333E-02 2.50000E-02 0.00000E+00
 -1       960 7.18750E-02 2.50000E-02 0.00000E+00
 -1       961 7.29167E-02 2.50000E-02 0.00000E+00
 -1       962 7.39583E-02 2.50000E-02 0.00000E+00
 -1       963 7.50000E-02 2.50000E-02 0.00000E+00
 -1       964 7.60417E-02 2.50000E-02 0.00000E+00
 -1       965 7.70833E-02 2.50000E-02 0.00000E+00
 -1       966 7.81250E-02 2.50000E-02 0.00000E+00
 -1       967 7.91667E-02 2.50000E-02 0.00000E+00
 -1       968 8.02083E-02 2.50000E-02 0.00000E+00
 -1       969 8.12500E-02 2.50000E-02 0.00000E+00
 -1       970 8.22917E-02 2.50000E-02 0.00000E+00
 -1       971 8.43750E-02 2.50000E-02 0.00000E+00
 -1       972 8.54167E-02 2.50000E-02 0.00000E+00
 -1       973 8.64583E-02 2.50000E-02 0.00000E+00
 -1       974 8.75000E-02 2.50000E-02 0.00000E+00
 -1       975 8.85417E-02 2.50000E-02 0.00000E+00
 -1       976 8.95833E-02 2.50000E-02 0.00000E+00
 -1       977 9.06250E-02 2.50000E-02 0.00000E+00
 -1       978 9.16667E-02 2.50000E-02 0.00000E+00
 -1       979 9.27083E-02 2.50000E-02 0.00000E+00
 -1       980 9.37500E-02 2.50000E-02 0.00000E+00
 -1       981 9.47917E-02 2.50000E-02 0.00000E+00
 -1       982 9.58333E-02 2.50000E-02 0.00000E+00
 -1       983 9.68750E-02 2.50000E-02 0.00000E+00
 -1       984 9.79167E-02 2.50000E-02 0.00000E+00
 -1       985 9.89583E-02 2.50000E-02 0.00000E+00
 -3
    3C                           211                                     1
 -1         1   12    0    1
 -2         1        52        51
 -1         2   12    0    1
 -2        52        54        53
 -1         3   12    0    1
 -2        54         8        55
 -1         4   12    0    1
 -2         1        57        56
 -1         5   12    0    1
 -2        57        59        58
 -1         6   12    0    1
 -2        59        61        60
 -1         7   12    0    1
 -2        61        63        62
 -1         8   12    0    1
 -2        63        65        64
 -1         9   12    0    1
 -2        65        67        66
 -1        10   12    0    1
 -2        67        69        68
 -1        11   12    0    1
 -2        69         9        70
 -1        12   12    0    1
 -2         2        87        86
 -1        13   12    0    1
 -2        87        89        88
 -1        14   12    0    1
 -2        89         9        90
 -1        15   12    0    1
 -2         3       122       121
 -1        16   12    0    1
 -2       122       124       123
 -1        17   12    0    1
 -2       124        10       125
 -1        18   12    0    1
 -2         5       192       191
 -1        19   12    0    1
 -2       192       194       193
 -1        20   12    0    1
 -2       194        12       195
 -1        21   12    0    1
 -2         8       252       251
 -1        22   12    0    1
 -2       252       254       253
 -1        23   12    0    1
 -2       254       256       255
 -1        24   12    0    1
 -2       256       258       257
 -1        25   12    0    1
 -2       258       260       259
 -1        26   12    0    1
 -2       260       262       261
 -1        27   12    0    1
 -2       262       264       263
 -1        28   12    0    1
 -2       264         9       265
 -1        29   12    0    1
 -2         8       267       266
 -1        30   12    0    1
 -2       267       269       268
 -1        31   12    0    1
 -2       269        15       270
 -1        32   12    0    1
 -2         8       272       271
 -1        33   12    0    1
 -2       272       274       273
 -1        34   12    0    1
 -2       274       276       275
 -1        35   12    0    1
 -2       276       278       277
 -1        36   12    0    1
 -2       278       280       279
 -1        37   12    0    1
 -2       280       282       281
 -1        38   12    0    1
 -2       282       284       283
 -1        39   12    0    1
 -2       284        16       285
 -1        40   12    0    1
 -2         9       302       301
 -1        41   12    0    1
 -2       302       304       303
 -1        42   12    0    1
 -2       304        16       305
 -1        43   12    0    1
 -2         9       307       306
 -1        44   12    0    1
 -2       307       309       308
 -1        45   12    0    1
 -2       309       311       310
 -1        46   12    0    1
 -2       311       313       312
 -1        47   12    0    1
 -2       313       315       314
 -1        48   12    0    1
 -2       315       317       316
 -1        49   12    0    1
 -2       317       319       318
 -1        50   12    0    1
 -2       319        17       320
 -1        51   12    0    1
 -2        10       337       336
 -1        52   12    0    1
 -2       337       339       338
 -1        53   12    0    1
 -2       339        17       340
 -1        54   12    0    1
 -2        12       407       406
 -1        55   12    0    1
 -2       407       409       408
 -1        56   12    0    1
 -2       409        19       410
 -1        57   12    0    1
 -2        16       522       521
 -1        58   12    0    1
 -2       522       524       523
 -1        59   12    0    1
 -2       524       526       525
 -1        60   12    0    1
 -2       526       528       527
 -1        61   12    0    1
 -2       528       530       529
 -1        62   12    0    1
 -2       530       532       531
 -1        63   12    0    1
 -2       532       534       533
 -1        64   12    0    1
 -2       534        24       535
 -1        65   12    0    1
 -2        17       537       536
 -1        66   12    0    1
 -2       537       539       538
 -1        67   12    0    1
 -2       539       541       540
 -1        68   12    0    1
 -2       541       543       542
 -1        69   12    0    1
 -2       543       545       544
 -1        70   12    0    1
 -2       545       547       546
 -1        71   12    0    1
 -2       547       549       548
 -1        72   12    0    1
 -2       549        18       550
 -1        73   12    0    1
 -2        17       552       551
 -1        74   12    0    1
 -2       552       554       553
 -1        75   12    0    1
 -2       554        24       555
 -1        76   12    0    1
 -2        17       557       556
 -1        77   12    0    1
 -2       557       559       558
 -1        78   12    0    1
 -2       559       561       560
 -1        79   12    0    1
 -2       561       563       562
 -1        80   12    0    1
 -2       563       565       564
 -1        81   12    0    1
 -2       565       567       566
 -1        82   12    0    1
 -2       567       569       568
 -1        83   12    0    1
 -2       569        25       570
 -1        84   12    0    1
 -2        18       572       571
 -1        85   12    0    1
 -2       572       574       573
 -1        86   12    0    1
 -2       574       576       575
 -1        87   12    0    1
 -2       576       578       577
 -1        88   12    0    1
 -2       578       580       579
 -1        89   12    0    1
 -2       580       582       581
 -1        90   12    0    1
 -2       582       584       583
 -1        91   12    0    1
 -2       584        19       585
 -1        92   12    0    1
 -2        18       587       586
 -1        93   12    0    1
 -2       587       589       588
 -1        94   12    0    1
 -2       589        25       590
 -1        95   12    0    1
 -2        18       592       591
 -1        96   12    0    1
 -2       592       594       593
 -1        97   12    0    1
 -2       594       596       595
 -1        98   12    0    1
 -2       596       598       597
 -1        99   12    0    1
 -2       598       600       599
 -1       100   12    0    1
 -2       600       602       601
 -1       101   12    0    1
 -2       602       604       603
 -1       102   12    0    1
 -2       604        26       605
 -1       103   12    0    1
 -2        19       607       606
 -1       104   12    0    1
 -2       607       609       608
 -1       105   12    0    1
 -2       609       611       610
 -1       106   12    0    1
 -2       611       613       612
 -1       107   12    0    1
 -2       613       615       614
 -1       108   12    0    1
 -2       615       617       616
 -1       109   12    0    1
 -2       617       619       618
 -1       110   12    0    1
 -2       619        20       620
 -1       111   12    0    1
 -2        19       622       621
 -1       112   12    0    1
 -2       622       624       623
 -1       113   12    0    1
 -2       624        26       625
 -1       114   12    0    1
 -2        19       627       626
 -1       115   12    0    1
 -2       627       629       628
 -1       116   12    0    1
 -2       629       631       630
 -1       117   12    0    1
 -2       631       633       632
 -1       118   12    0    1
 -2       633       635       634
 -1       119   12    0    1
 -2       635       637       636
 -1       120   12    0    1
 -2       637       639       638
 -1       121   12    0    1
 -2       639        27       640
 -1       122   12    0    1
 -2        20       657       656
 -1       123   12    0    1
 -2       657       659       658
 -1       124   12    0    1
 -2       659        27       660
 -1       125   12    0    1
 -2        20       662       661
 -1       126   12    0    1
 -2       662       664       663
 -1       127   12    0    1
 -2       664       666       665
 -1       128   12    0    1
 -2       666       668       667
 -1       129   12    0    1
 -2       668       670       669
 -1       130   12    0    1
 -2       670       672       671
 -1       131   12    0    1
 -2       672       674       673
 -1       132   12    0    1
 -2       674        28       675
 -1       133   12    0    1
 -2        21       677       676
 -1       134   12    0    1
 -2       677       679       678
 -1       135   12    0    1
 -2       679        28       680
 -1       136   12    0    1
 -2        24       772       771
 -1       137   12    0    1
 -2       772       774       773
 -1       138   12    0    1
 -2       774       776       775
 -1       139   12    0    1
 -2       776       778       777
 -1       140   12    0    1
 -2       778       780       779
 -1       141   12    0    1
 -2       780       782       781
 -1       142   12    0    1
 -2       782       784       783
 -1       143   12    0    1
 -2       784        32       785
 -1       144   12    0    1
 -2        25       787       786
 -1       145   12    0    1
 -2       787       789       788
 -1       146   12    0    1
 -2       789       791       790
 -1       147   12    0    1
 -2       791       793       792
 -1       148   12    0    1
 -2       793       795       794
 -1       149   12    0    1
 -2       795       797       796
 -1       150   12    0    1
 -2       797       799       798
 -1       151   12    0    1
 -2       799        26       800
 -1       152   12    0    1
 -2        25       802       801
 -1       153   12    0    1
 -2       802       804       803
 -1       154   12    0    1
 -2       804        32       805
 -1       155   12    0    1
 -2        25       807       806
 -1       156   12    0    1
 -2       807       809       808
 -1       157   12    0    1
 -2       809       811       810
 -1       158   12    0    1
 -2       811       813       812
 -1       159   12    0    1
 -2       813       815       814
 -1       160   12    0    1
 -2       815       817       816
 -1       161   12    0    1
 -2       817       819       818
 -1       162   12    0    1
 -2       819        33       820
 -1       163   12    0    1
 -2        26       822       821
 -1       164   12    0    1
 -2       822       824       823
 -1       165   12    0    1
 -2       824       826       825
 -1       166   12    0    1
 -2       826       828       827
 -1       167   12    0    1
 -2       828       830       829
 -1       168   12    0    1
 -2       830       832       831
 -1       169   12    0    1
 -2       832       834       833
 -1       170   12    0    1
 -2       834        27       835
 -1       171   12    0    1
 -2        26       837       836
 -1       172   12    0    1
 -2       837       839       838
 -1       173   12    0    1
 -2       839        33       840
 -1       174   12    0    1
 -2        27       857       856
 -1       175   12    0    1
 -2       857       859       858
 -1       176   12    0    1
 -2       859       861       860
 -1       177   12    0    1
 -2       861       863       862
 -1       178   12    0    1
 -2       863       865       864
 -1       179   12    0    1
 -2       865       867       866
 -1       180   12    0    1
 -2       867       869       868
 -1       181   12    0    1
 -2       869        28       870
 -1       182   12    0    1
 -2        27       872       871
 -1       183   12    0    1
 -2       872       874       873
 -1       184   12    0    1
 -2       874        34       875
 -1       185   12    0    1
 -2        27       877       876
 -1       186   12    0    1
 -2       877       879       878
 -1       187   12    0    1
 -2       879       881       880
 -1       188   12    0    1
 -2       881       883       882
 -1       189   12    0    1
 -2       883       885       884
 -1       190   12    0    1
 -2       885       887       886
 -1       191   12    0    1
 -2       887       889       888
 -1       192   12    0    1
 -2       889        35       890
 -1       193   12    0    1
 -2        28       892       891
 -1       194   12    0    1
 -2       892       894       893
 -1       195   12    0    1
 -2       894        35       895
 -1       196   12    0    1
 -2        33       957       956
 -1       197   12    0    1
 -2       957       959       958
 -1       198   12    0    1
 -2       959       961       960
 -1       199   12    0    1
 -2       961       963       962
 -1       200   12    0    1
 -2       963       965       964
 -1       201   12    0    1
 -2       965       967       966
 -1       202   12    0    1
 -2       967       969       968
 -1       203   12    0    1
 -2       969        34       970
 -1       204   12    0    1
 -2        34       972       971
 -1       205   12    0    1
 -2       972       974       973
 -1       206   12    0    1
 -2       974       976       975
 -1       207   12    0    1
 -2       976       978       977
 -1       208   12    0    1
 -2       978       980       979
 -1       209   12    0    1
 -2       980       982       981
 -1       210   12    0    1
 -2       982       984       983
 -1       211   12    0    1
 -2       984        35       985
 -3
    1PSTEP                         1           1           1          
  100CL  101 2.50000E-01         409                     0    1           1
 -4  DISP        4    1
 -5  D1          1    2    1    0
 -5  D2          1    2    2    0
 -5  D3          1    2    3    0
 -5  ALL         1    2    0    0    1ALL
 -1         1 6.53597E-05 0.00000E+00 0.00000E+00
 -1         2 6.04591E-05 2.05426E-29 1.65436E-24
 -1         3 5.55107E-05-2.39271E-27 0.00000E+00
 -1         5 4.03240E-05 4.89322E-26 0.00000E+00
 -1         8 5.21742E-05-4.69934E-07 0.00000E+00
 -1         9 5.30495E-05 3.18135E-07 0.00000E+00
 -1        10 5.15163E-05-7.56224E-07 0.00000E+00
 -1        12 4.00338E-05 2.72192E-07-8.27181E-25
 -1        15 3.64892E-05-5.02635E-07-2.06795E-25
 -1        16 3.77347E-05 2.57348E-07 0.00000E+00
 -1        17 3.86067E-05-1.58421E-06 0.00000E+00
 -1        18 3.86368E-05 2.61753E-08 0.00000E+00
 -1        19 3.91632E-05 5.42909E-07 0.00000E+00
 -1        20 3.92353E-05 8.14733E-06 0.00000E+00
 -1        21 3.89647E-05 1.54214E-05-8.27181E-25
 -1        24 9.82054E-06-2.11769E-06 0.00000E+00
 -1        25 3.77012E-05 8.83793E-08 0.00000E+00
 -1        26 3.81983E-05 7.56574E-07 0.00000E+00
 -1        27 3.74461E-05 6.93706E-06 0.00000E+00
 -1        28 3.72020E-05 1.51887E-05 0.00000E+00
 -1        32 0.00000E+00 0.00000E+00 0.00000E+00
 -1        33 3.65818E-05 1.01481E-06 0.00000E+00
 -1        34 3.58542E-05 6.92639E-06 0.00000E+00
 -1        35 3.51629E-05 1.50659E-05 0.00000E+00
 -1        51 6.45016E-05-7.83075E-08 0.00000E+00
 -1        52 6.29118E-05-1.54271E-07 0.00000E+00
 -1        53 6.07342E-05-2.30483E-07 0.00000E+00
 -1        54 5.81186E-05-3.07656E-07-1.65436E-24
 -1        55 5.52151E-05-3.86316E-07-2.58494E-24
 -1        56 6.47593E-05-3.64655E-07 0.00000E+00
 -1        57 6.42195E-05-9.57944E-07-6.61744E-24
 -1        58 6.37417E-05-1.71321E-06 1.32349E-23
 -1        59 6.32983E-05-2.57178E-06 0.00000E+00
 -1        60 6.28691E-05-3.46841E-06 2.64698E-23
 -1        61 6.24292E-05-4.33886E-06 0.00000E+00
 -1        62 6.19556E-05-5.11941E-06 0.00000E+00
 -1        63 6.14249E-05-5.74797E-06 0.00000E+00
 -1        64 6.08158E-05-6.16728E-06-2.64698E-23
 -1        65 6.01082E-05-6.32332E-06-1.32349E-23
 -1        66 5.92847E-05-6.17059E-06 2.64698E-23
 -1        67 5.83306E-05-5.66822E-06 0.00000E+00
 -1        68 5.72341E-05-4.78691E-06 0.00000E+00
 -1        69 5.59896E-05-3.50191E-06 0.00000E+00
 -1        70 5.45882E-05-1.80425E-06-1.32349E-23
 -1        86 6.02620E-05 5.66157E-08-1.65436E-24
 -1        87 5.96702E-05 1.12788E-07 0.00000E+00
 -1        88 5.86714E-05 1.68607E-07 8.27181E-25
 -1        89 5.72523E-05 2.22096E-07-5.16988E-26
 -1        90 5.53874E-05 2.75501E-07 1.65436E-24
 -1       121 5.53995E-05-1.25710E-07 3.30872E-24
 -1       122 5.50659E-05-2.51469E-07 0.00000E+00
 -1       123 5.45102E-05-3.77329E-07-3.30872E-24
 -1       124 5.37329E-05-5.03359E-07 1.65436E-24
 -1       125 5.27346E-05-6.29573E-07 3.30872E-24
 -1       191 4.03160E-05 4.53684E-08 0.00000E+00
 -1       192 4.02918E-05 9.07361E-08 0.00000E+00
 -1       193 4.02515E-05 1.36103E-07 1.65436E-24
 -1       194 4.01950E-05 1.81469E-07 0.00000E+00
 -1       195 4.01225E-05 2.26833E-07 0.00000E+00
 -1       251 5.22180E-05 1.69938E-06 0.00000E+00
 -1       252 5.22728E-05 2.99302E-06 0.00000E+00
 -1       253 5.23277E-05 3.55560E-06 0.00000E+00
 -1       254 5.23846E-05 3.52993E-06 8.27181E-25
 -1       255 5.24415E-05 3.04117E-06 0.00000E+00
 -1       256 5.24984E-05 2.21336E-06-8.27181E-25
 -1       257 5.25553E-05 1.16034E-06-1.65436E-24
 -1       258 5.26120E-05-4.61933E-09 8.27181E-25
 -1       259 5.26688E-05-1.17164E-06 0.00000E+00
 -1       260 5.27256E-05-2.23083E-06 0.00000E+00
 -1       261 5.27826E-05-3.06903E-06 0.00000E+00
 -1       262 5.28394E-05-3.57258E-06-8.27181E-25
 -1       263 5.28963E-05-3.61770E-06 0.00000E+00
 -1       264 5.29511E-05-3.07951E-06 0.00000E+00
 -1       265 5.30060E-05-1.81561E-06 1.65436E-24
 -1       266 4.95601E-05-4.81887E-07-3.30872E-24
 -1       267 4.69459E-05-4.86545E-07 0.00000E+00
 -1       268 4.43317E-05-4.91664E-07 8.27181E-25
 -1       269 4.17175E-05-4.95415E-07 0.00000E+00
 -1       270 3.91034E-05-4.99134E-07 2.06795E-25
 -1       271 5.05873E-05 1.47159E-06 0.00000E+00
 -1       272 4.92428E-05 2.69365E-06-1.32349E-23
 -1       273 4.81343E-05 3.29136E-06-2.64698E-23
 -1       274 4.72221E-05 3.35478E-06-1.32349E-23
 -1       275 4.64730E-05 2.98254E-06 2.64698E-23
 -1       276 4.58484E-05 2.27614E-06 1.32349E-23
 -1       277 4.53093E-05 1.34090E-06 0.00000E+00
 -1       278 4.48155E-05 2.84196E-07 0.00000E+00
 -1       279 4.43265E-05-7.85292E-07-2.64698E-23
 -1       280 4.38016E-05-1.75874E-06-1.32349E-23
 -1       281 4.32005E-05-2.52841E-06 2.64698E-23
 -1       282 4.24840E-05-2.98847E-06-1.32349E-23
 -1       283 4.16131E-05-3.03647E-06 2.64698E-23
 -1       284 4.05532E-05-2.57308E-06 0.00000E+00
 -1       285 3.92655E-05-1.50629E-06 1.32349E-23
 -1       301 5.04564E-05 3.04938E-07 0.00000E+00
 -1       302 4.78636E-05 2.99507E-07 8.27181E-25
 -1       303 4.52832E-05 2.94296E-07-1.65436E-24
 -1       304 4.27269E-05 2.88209E-07 1.65436E-24
 -1       305 4.02068E-05 2.80890E-07 0.00000E+00
 -1       306 5.14180E-05 2.21453E-06 0.00000E+00
 -1       307 5.00427E-05 3.35035E-06 1.32349E-23
 -1       308 4.89386E-05 3.77042E-06 0.00000E+00
 -1       309 4.80792E-05 3.52453E-06-1.32349E-23
 -1       310 4.74293E-05 2.71913E-06 0.00000E+00
 -1       311 4.69435E-05 1.47264E-06 0.00000E+00
 -1       312 4.65650E-05-6.09265E-08 0.00000E+00
 -1       313 4.62335E-05-1.72074E-06 1.32349E-23
 -1       314 4.58852E-05-3.33563E-06 0.00000E+00
 -1       315 4.54567E-05-4.73556E-06 0.00000E+00
 -1       316 4.48909E-05-5.76802E-06 0.00000E+00
 -1       317 4.41348E-05-6.28929E-06 1.32349E-23
 -1       318 4.31486E-05-6.19672E-06 2.64698E-23
 -1       319 4.19040E-05-5.40071E-06 1.32349E-23
 -1       320 4.03812E-05-3.87181E-06-1.32349E-23
 -1       336 5.00497E-05-8.93127E-07 0.00000E+00
 -1       337 4.83065E-05-1.03065E-06 1.65436E-24
 -1       338 4.62882E-05-1.16862E-06 0.00000E+00
 -1       339 4.39971E-05-1.30698E-06-1.65436E-24
 -1       340 4.14356E-05-1.44599E-06-3.30872E-24
 -1       406 3.99289E-05 3.17545E-07 0.00000E+00
 -1       407 3.98080E-05 3.62881E-07 0.00000E+00
 -1       408 3.96709E-05 4.08187E-07-1.65436E-24
 -1       409 3.95177E-05 4.53408E-07 0.00000E+00
 -1       410 3.93484E-05 4.98454E-07 0.00000E+00
 -1       521 3.54602E-05 1.66614E-06 0.00000E+00
 -1       522 3.34739E-05 2.15838E-06 2.64698E-23
 -1       523 3.18117E-05 1.79752E-06 0.00000E+00
 -1       524 3.04305E-05 6.60214E-07-2.64698E-23
 -1       525 2.92747E-05-1.07998E-06 0.00000E+00
 -1       526 2.82689E-05-3.22683E-06 0.00000E+00
 -1       527 2.73235E-05-5.53594E-06-5.29396E-23
 -1       528 2.63448E-05-7.75648E-06 2.64698E-23
 -1       529 2.52431E-05-9.64765E-06 5.29396E-23
 -1       530 2.39339E-05-1.09830E-05 0.00000E+00
 -1       531 2.23560E-05-1.16010E-05 0.00000E+00
 -1       532 2.04614E-05-1.13704E-05 0.00000E+00
 -1       533 1.82357E-05-1.02596E-05 5.29396E-23
 -1       534 1.56888E-05-8.27139E-06-2.64698E-23
 -1       535 1.28487E-05-5.51720E-06 0.00000E+00
 -1       536 3.86012E-05 1.04396E-06 0.00000E+00
 -1       537 3.86013E-05 3.00776E-06 0.00000E+00
 -1       538 3.86022E-05 4.38074E-06 4.13590E-25
 -1       539 3.86044E-05 5.23637E-06-5.16988E-26
 -1       540 3.86069E-05 5.64505E-06 1.29247E-26
 -1       541 3.86096E-05 5.67709E-06-2.58494E-26
 -1       542 3.86123E-05 5.40051E-06 5.16988E-26
 -1       543 3.86150E-05 4.88326E-06 0.00000E+00
 -1       544 3.86176E-05 4.19184E-06 0.00000E+00
 -1       545 3.86201E-05 3.39268E-06 0.00000E+00
 -1       546 3.86226E-05 2.55158E-06 0.00000E+00
 -1       547 3.86251E-05 1.73432E-06-5.16988E-26
 -1       548 3.86277E-05 1.00681E-06 0.00000E+00
 -1       549 3.86305E-05 4.35001E-07 0.00000E+00
 -1       550 3.86333E-05 8.58120E-08 0.00000E+00
 -1       551 3.48225E-05-1.66631E-06 0.00000E+00
 -1       552 3.02569E-05-1.75030E-06 0.00000E+00
 -1       553 2.51901E-05-1.83672E-06-3.30872E-24
 -1       554 1.99061E-05-1.92555E-06 3.30872E-24
 -1       555 1.46890E-05-2.01544E-06 0.00000E+00
 -1       556 3.76270E-05 9.59079E-07-6.61744E-24
 -1       557 3.68793E-05 2.89996E-06 0.00000E+00
 -1       558 3.63381E-05 4.29420E-06 0.00000E+00
 -1       559 3.59806E-05 5.20196E-06 0.00000E+00
 -1       560 3.57835E-05 5.68322E-06-6.61744E-24
 -1       561 3.57239E-05 5.79825E-06 0.00000E+00
 -1       562 3.57792E-05 5.60739E-06 0.00000E+00
 -1       563 3.59265E-05 5.17100E-06 0.00000E+00
 -1       564 3.61431E-05 4.54949E-06 0.00000E+00
 -1       565 3.64065E-05 3.80325E-06 0.00000E+00
 -1       566 3.66939E-05 2.99271E-06 0.00000E+00
 -1       567 3.69827E-05 2.17830E-06-1.03398E-25
 -1       568 3.72505E-05 1.42043E-06 0.00000E+00
 -1       569 3.74744E-05 7.79463E-07 0.00000E+00
 -1       570 3.76320E-05 3.15768E-07 0.00000E+00
 -1       571 3.86688E-05 7.96384E-08 6.20385E-25
 -1       572 3.87014E-05 1.11386E-07-1.03398E-25
 -1       573 3.87343E-05 1.25274E-07 0.00000E+00
 -1       574 3.87672E-05 1.25365E-07 2.06795E-25
 -1       575 3.88002E-05 1.15738E-07 8.27181E-25
 -1       576 3.88332E-05 1.00498E-07 0.00000E+00
 -1       577 3.88662E-05 8.37556E-08 8.27181E-25
 -1       578 3.88993E-05 6.96224E-08 0.00000E+00
 -1       579 3.89323E-05 6.22113E-08 0.00000E+00
 -1       580 3.89653E-05 6.56349E-08 0.00000E+00
 -1       581 3.89983E-05 8.40054E-08 0.00000E+00
 -1       582 3.90313E-05 1.21430E-07 0.00000E+00
 -1       583 3.90643E-05 1.82012E-07 0.00000E+00
 -1       584 3.90973E-05 2.69814E-07-8.27181E-25
 -1       585 3.91303E-05 3.88871E-07 0.00000E+00
 -1       586 3.84697E-05 3.71944E-08 0.00000E+00
 -1       587 3.82887E-05 4.79323E-08-1.03398E-25
 -1       588 3.81075E-05 5.85501E-08 0.00000E+00
 -1       589 3.79399E-05 6.89984E-08 0.00000E+00
 -1       590 3.78000E-05 7.91616E-08 0.00000E+00
 -1       591 3.86016E-05 9.62598E-08 5.16988E-26
 -1       592 3.85718E-05 1.48291E-07 0.00000E+00
 -1       593 3.85474E-05 1.85701E-07-2.06795E-25
 -1       594 3.85271E-05 2.11581E-07 0.00000E+00
 -1       595 3.85100E-05 2.29066E-07-4.13590E-25
 -1       596 3.84949E-05 2.41265E-07-1.03398E-25
 -1       597 3.84806E-05 2.51287E-07 2.06795E-25
 -1       598 3.84659E-05 2.62239E-07 0.00000E+00
 -1       599 3.84497E-05 2.77225E-07-2.06795E-25
 -1       600 3.84308E-05 2.99353E-07 0.00000E+00
 -1       601 3.84081E-05 3.31727E-07 2.06795E-25
 -1       602 3.83804E-05 3.77458E-07-5.16988E-26
 -1       603 3.83465E-05 4.39654E-07 1.80946E-25
 -1       604 3.83055E-05 5.21451E-07 0.00000E+00
 -1       605 3.82561E-05 6.25940E-07 0.00000E+00
 -1       606 3.91694E-05 7.72004E-07 0.00000E+00
 -1       607 3.91743E-05 1.04838E-06 0.00000E+00
 -1       608 3.91790E-05 1.36925E-06 0.00000E+00
 -1       609 3.91835E-05 1.73150E-06 0.00000E+00
 -1       610 3.91879E-05 2.13198E-06-1.65436E-24
 -1       611 3.91924E-05 2.56750E-06 0.00000E+00
 -1       612 3.91967E-05 3.03486E-06 0.00000E+00
 -1       613 3.92011E-05 3.53089E-06 0.00000E+00
 -1       614 3.92054E-05 4.05237E-06 0.00000E+00
 -1       615 3.92098E-05 4.59612E-06 0.00000E+00
 -1       616 3.92141E-05 5.15895E-06 0.00000E+00
 -1       617 3.92184E-05 5.73765E-06 0.00000E+00
 -1       618 3.92227E-05 6.32903E-06 0.00000E+00
 -1       619 3.92270E-05 6.92990E-06 0.00000E+00
 -1       620 3.92312E-05 7.53707E-06 0.00000E+00
 -1       621 3.89802E-05 5.78545E-07 0.00000E+00
 -1       622 3.88096E-05 6.14354E-07-4.13590E-25
 -1       623 3.86487E-05 6.50158E-07 8.27181E-25
 -1       624 3.84950E-05 6.85905E-07 0.00000E+00
 -1       625 3.83458E-05 7.21590E-07 0.00000E+00
 -1       626 3.91154E-05 7.83197E-07 0.00000E+00
 -1       627 3.90532E-05 1.06266E-06 8.27181E-25
 -1       628 3.89778E-05 1.37767E-06-1.65436E-24
 -1       629 3.88905E-05 1.72435E-06 0.00000E+00
 -1       630 3.87927E-05 2.09885E-06 1.65436E-24
 -1       631 3.86860E-05 2.49724E-06 0.00000E+00
 -1       632 3.85718E-05 2.91563E-06 0.00000E+00
 -1       633 3.84515E-05 3.35012E-06 0.00000E+00
 -1       634 3.83267E-05 3.79681E-06 0.00000E+00
 -1       635 3.81987E-05 4.25178E-06 0.00000E+00
 -1       636 3.80691E-05 4.71114E-06-8.27181E-25
 -1       637 3.79393E-05 5.17099E-06-4.13590E-25
 -1       638 3.78107E-05 5.62742E-06 8.27181E-25
 -1       639 3.76849E-05 6.07652E-06 4.13590E-25
 -1       640 3.75630E-05 6.51438E-06-8.27181E-25
 -1       656 3.87278E-05 7.95045E-06 3.30872E-24
 -1       657 3.83983E-05 7.74567E-06 0.00000E+00
 -1       658 3.81774E-05 7.54151E-06 0.00000E+00
 -1       659 3.79946E-05 7.33752E-06 0.00000E+00
 -1       660 3.77755E-05 7.13288E-06 0.00000E+00
 -1       661 3.90474E-05 8.74557E-06 0.00000E+00
 -1       662 3.88705E-05 9.31875E-06 0.00000E+00
 -1       663 3.87028E-05 9.86735E-06 0.00000E+00
 -1       664 3.85441E-05 1.03925E-05-4.13590E-25
 -1       665 3.83939E-05 1.08951E-05 0.00000E+00
 -1       666 3.82519E-05 1.13761E-05 4.13590E-25
 -1       667 3.81176E-05 1.18364E-05-8.27181E-25
 -1       668 3.79908E-05 1.22770E-05-4.13590E-25
 -1       669 3.78711E-05 1.26986E-05 8.27181E-25
 -1       670 3.77581E-05 1.31022E-05 4.13590E-25
 -1       671 3.76516E-05 1.34886E-05-8.27181E-25
 -1       672 3.75511E-05 1.38585E-05 0.00000E+00
 -1       673 3.74565E-05 1.42128E-05-8.27181E-25
 -1       674 3.73672E-05 1.45522E-05 0.00000E+00
 -1       675 3.72832E-05 1.48775E-05-2.06795E-25
 -1       676 3.86705E-05 1.53824E-05 8.27181E-25
 -1       677 3.83764E-05 1.53434E-05-4.13590E-25
 -1       678 3.80825E-05 1.53044E-05-8.27181E-25
 -1       679 3.77887E-05 1.52655E-05 0.00000E+00
 -1       680 3.74952E-05 1.52267E-05-8.27181E-25
 -1       771 7.87450E-06 1.56504E-06 1.32349E-23
 -1       772 6.17936E-06 4.57187E-06 0.00000E+00
 -1       773 4.72405E-06 6.94342E-06 2.64698E-23
 -1       774 3.49204E-06 8.72214E-06 0.00000E+00
 -1       775 2.46715E-06 9.95090E-06 0.00000E+00
 -1       776 1.63270E-06 1.06734E-05 0.00000E+00
 -1       777 9.71887E-07 1.09338E-05 0.00000E+00
 -1       778 4.67689E-07 1.07768E-05-6.61744E-24
 -1       779 1.03018E-07 1.02477E-05-1.32349E-23
 -1       780-1.39394E-07 9.39210E-06 0.00000E+00
 -1       781-2.76840E-07 8.25603E-06 0.00000E+00
 -1       782-3.26748E-07 6.88588E-06 0.00000E+00
 -1       783-3.06560E-07 5.32823E-06 1.32349E-23
 -1       784-2.33776E-07 3.62997E-06-6.61744E-24
 -1       785-1.25952E-07 1.83811E-06 1.32349E-23
 -1       786 3.77304E-05 9.28346E-08 4.13590E-25
 -1       787 3.77614E-05 9.75937E-08 4.13590E-25
 -1       788 3.77923E-05 1.03315E-07 0.00000E+00
 -1       789 3.78235E-05 1.10656E-07 0.00000E+00
 -1       790 3.78547E-05 1.20393E-07 8.27181E-25
 -1       791 3.78860E-05 1.33301E-07 0.00000E+00
 -1       792 3.79173E-05 1.50382E-07 0.00000E+00
 -1       793 3.79486E-05 1.72644E-07 0.00000E+00
 -1       794 3.79800E-05 2.01458E-07 0.00000E+00
 -1       795 3.80113E-05 2.38209E-07 4.13590E-25
 -1       796 3.80426E-05 2.84839E-07 8.27181E-25
 -1       797 3.80739E-05 3.43305E-07 4.13590E-25
 -1       798 3.81052E-05 4.16402E-07 8.27181E-25
 -1       799 3.81363E-05 5.06942E-07 0.00000E+00
 -1       800 3.81676E-05 6.18974E-07 0.00000E+00
 -1       801 3.51535E-05 9.91045E-08 0.00000E+00
 -1       802 2.75846E-05 8.57788E-08 0.00000E+00
 -1       803 1.76400E-05 5.33570E-08 0.00000E+00
 -1       804 7.96359E-06 1.98737E-08 1.65436E-24
 -1       805 1.20066E-06 9.29246E-09 0.00000E+00
 -1       806 3.76609E-05 7.19527E-08 8.27181E-25
 -1       807 3.76191E-05 5.55775E-08 4.13590E-25
 -1       808 3.75761E-05 4.16870E-08-8.27181E-25
 -1       809 3.75312E-05 3.23455E-08 8.27181E-25
 -1       810 3.74837E-05 2.96133E-08 1.65436E-24
 -1       811 3.74330E-05 3.55207E-08 4.13590E-25
 -1       812 3.73783E-05 5.20955E-08 8.27181E-25
 -1       813 3.73188E-05 8.13612E-08 4.13590E-25
 -1       814 3.72538E-05 1.25341E-07-8.27181E-25
 -1       815 3.71825E-05 1.86056E-07-4.13590E-25
 -1       816 3.71042E-05 2.65526E-07 0.00000E+00
 -1       817 3.70181E-05 3.65773E-07-8.27181E-25
 -1       818 3.69235E-05 4.88816E-07 8.27181E-25
 -1       819 3.68196E-05 6.36668E-07 4.13590E-25
 -1       820 3.67058E-05 8.11343E-07-8.27181E-25
 -1       821 3.81540E-05 9.23553E-07 0.00000E+00
 -1       822 3.81069E-05 1.12379E-06 0.00000E+00
 -1       823 3.80600E-05 1.36206E-06 1.65436E-24
 -1       824 3.80126E-05 1.64303E-06-8.27181E-25
 -1       825 3.79652E-05 1.96706E-06 0.00000E+00
 -1       826 3.79176E-05 2.33443E-06-8.27181E-25
 -1       827 3.78700E-05 2.74100E-06 0.00000E+00
 -1       828 3.78224E-05 3.18257E-06-8.27181E-25
 -1       829 3.77747E-05 3.65139E-06 0.00000E+00
 -1       830 3.77271E-05 4.13962E-06-8.27181E-25
 -1       831 3.76795E-05 4.63751E-06 0.00000E+00
 -1       832 3.76320E-05 5.13524E-06 0.00000E+00
 -1       833 3.75845E-05 5.62302E-06 0.00000E+00
 -1       834 3.75375E-05 6.09109E-06 0.00000E+00
 -1       835 3.74904E-05 6.53168E-06 0.00000E+00
 -1       836 3.80009E-05 7.99557E-07 8.27181E-25
 -1       837 3.77467E-05 8.43495E-07-4.13590E-25
 -1       838 3.74566E-05 8.87354E-07 0.00000E+00
 -1       839 3.71518E-05 9.30936E-07 4.13590E-25
 -1       840 3.68532E-05 9.74448E-07 0.00000E+00
 -1       856 3.74325E-05 7.35256E-06 0.00000E+00
 -1       857 3.74174E-05 7.81997E-06 1.03398E-25
 -1       858 3.74024E-05 8.33107E-06-4.13590E-25
 -1       859 3.73871E-05 8.87762E-06-2.06795E-25
 -1       860 3.73717E-05 9.45137E-06 0.00000E+00
 -1       861 3.73563E-05 1.00440E-05-2.06795E-25
 -1       862 3.73409E-05 1.06473E-05 4.13590E-25
 -1       863 3.73254E-05 1.12530E-05 0.00000E+00
 -1       864 3.73100E-05 1.18526E-05 0.00000E+00
 -1       865 3.72945E-05 1.24380E-05-2.06795E-25
 -1       866 3.72791E-05 1.30009E-05 0.00000E+00
 -1       867 3.72637E-05 1.35330E-05 2.06795E-25
 -1       868 3.72483E-05 1.40261E-05 0.00000E+00
 -1       869 3.72329E-05 1.44718E-05 2.06795E-25
 -1       870 3.72175E-05 1.48621E-05 0.00000E+00
 -1       871 3.71280E-05 6.93669E-06-2.06795E-25
 -1       872 3.68597E-05 6.93529E-06 0.00000E+00
 -1       873 3.66198E-05 6.93369E-06 0.00000E+00
 -1       874 3.63867E-05 6.93185E-06 0.00000E+00
 -1       875 3.61386E-05 6.92977E-06-3.10193E-25
 -1       876 3.73356E-05 7.35681E-06 0.00000E+00
 -1       877 3.72167E-05 7.80181E-06 8.27181E-25
 -1       878 3.70896E-05 8.26899E-06 1.65436E-24
 -1       879 3.69553E-05 8.75552E-06 0.00000E+00
 -1       880 3.68148E-05 9.25854E-06 1.65436E-24
 -1       881 3.66693E-05 9.77519E-06 8.27181E-25
 -1       882 3.65197E-05 1.03026E-05-1.65436E-24
 -1       883 3.63671E-05 1.08380E-05 0.00000E+00
 -1       884 3.62126E-05 1.13786E-05 0.00000E+00
 -1       885 3.60572E-05 1.19214E-05 0.00000E+00
 -1       886 3.59020E-05 1.24636E-05 0.00000E+00
 -1       887 3.57481E-05 1.30025E-05 4.13590E-25
 -1       888 3.55964E-05 1.35351E-05 0.00000E+00
 -1       889 3.54479E-05 1.40585E-05 0.00000E+00
 -1       890 3.53037E-05 1.45700E-05 0.00000E+00
 -1       891 3.69188E-05 1.51681E-05 4.13590E-25
 -1       892 3.66266E-05 1.51475E-05-2.06795E-25
 -1       893 3.63152E-05 1.51269E-05 0.00000E+00
 -1       894 3.59742E-05 1.51064E-05-1.03398E-25
 -1       895 3.55934E-05 1.50859E-05-3.10193E-25
 -1       956 3.65372E-05 1.27711E-06 0.00000E+00
 -1       957 3.64918E-05 1.56856E-06 0.00000E+00
 -1       958 3.64463E-05 1.88615E-06 1.65436E-24
 -1       959 3.64007E-05 2.22666E-06 4.13590E-25
 -1       960 3.63551E-05 2.58688E-06 8.27181E-25
 -1       961 3.63095E-05 2.96359E-06-4.13590E-25
 -1       962 3.62638E-05 3.35355E-06-1.65436E-24
 -1       963 3.62181E-05 3.75353E-06 0.00000E+00
 -1       964 3.61725E-05 4.16031E-06-1.65436E-24
 -1       965 3.61268E-05 4.57063E-06 8.27181E-25
 -1       966 3.60812E-05 4.98127E-06 1.65436E-24
 -1       967 3.60355E-05 5.38901E-06 0.00000E+00
 -1       968 3.59899E-05 5.79060E-06 1.65436E-24
 -1       969 3.59444E-05 6.18282E-06-8.27181E-25
 -1       970 3.58990E-05 6.56246E-06 0.00000E+00
 -1       971 3.58115E-05 7.30019E-06 0.00000E+00
 -1       972 3.57683E-05 7.71254E-06 8.27181E-25
 -1       973 3.57249E-05 8.15916E-06 1.65436E-24
 -1       974 3.56815E-05 8.63563E-06-4.13590E-25
 -1       975 3.56381E-05 9.13753E-06 0.00000E+00
 -1       976 3.55946E-05 9.66040E-06 4.13590E-25
 -1       977 3.55511E-05 1.01998E-05 0.00000E+00
 -1       978 3.55076E-05 1.07513E-05-8.27181E-25
 -1       979 3.54641E-05 1.13105E-05-1.65436E-24
 -1       980 3.54207E-05 1.18729E-05 8.27181E-25
 -1       981 3.53772E-05 1.24340E-05-1.65436E-24
 -1       982 3.53338E-05 1.29895E-05 8.27181E-25
 -1       983 3.52904E-05 1.35349E-05 1.65436E-24
 -1       984 3.52472E-05 1.40657E-05 0.00000E+00
 -1       985 3.52042E-05 1.45775E-05 0.00000E+00
 -3
    1PSTEP                         2           1           1          
  100CL  101 2.50000E-01         409                     0    1           1
 -4  STRESS      6    1
 -5  SXX         1    4    1    1
 -5  SYY         1    4    2    2
 -5  SZZ         1    4    3    3
 -5  SXY         1    4    1    2
 -5  SYZ         1    4    2    3
 -5  SZX         1    4    3    1
 -1         1-8.61398E+05-3.97906E+05-1.74629E+05-5.58078E+05 8.91305E-11 3.30328E-09
 -1         2 1.44728E+03 1.63848E+05 4.71563E+03 2.74863E+02-8.09877E-11-2.35195E-09
 -1         3-1.77373E+01-3.59354E+05 8.27823E+01-6.48376E+01-9.67608E-11-1.10549E-08
 -1         5-2.18903E+00 1.29803E+05 3.39927E+00-5.21879E-02 7.49691E-11 2.97682E-08
 -1         8-4.05715E+05-1.77234E+05-1.34109E+04-3.09149E+05 7.82165E-11 1.97906E-09
 -1         9-6.93487E+05-1.80539E+05-6.84980E+04-2.41800E+05 1.74623E-09-3.59723E-09
 -1        10-2.65618E+02-3.74374E+05-4.69492E+02-4.29448E+02-1.62208E-09-2.77502E-09
 -1        12-7.93602E-01 1.29810E+05 1.10187E+02-1.08634E-01 7.49765E-11-1.82708E-08
 -1        15 1.07750E+03 5.92140E+02 3.48299E+03 1.21805E+00-1.33507E-08-5.31141E-06
 -1        16-1.96722E+06-6.34506E+05-3.05895E+05-6.45615E+05 5.74073E-09-5.69465E-09
 -1        17-4.28745E+05-2.66863E+05-8.19907E+04-2.55046E+05 6.11180E-11 4.36557E-11
 -1        18 1.84038E+04 2.16070E+03-5.37796E+03-3.04755E+04 3.83977E-10 7.97854E-10
 -1        19 4.06756E+04 4.85223E+04-2.22331E+02 7.97474E+03-3.50428E-10 2.02272E-10
 -1        20-1.68030E+04-1.92283E+05-4.23906E+04 1.43590E+04 1.64884E-09-5.40543E-10
 -1        21-1.82314E+01-1.11628E+05-3.60610E+02-2.25232E+01-2.97972E-09 7.66469E-10
 -1        24-1.72370E+06-6.03371E+05-2.43870E+05-7.41201E+05-1.66741E-09-3.61615E-09
 -1        25 1.59348E+04 1.52872E+03 9.93460E+03-5.50664E+04 1.98270E-10 3.01552E-09
 -1        26-9.36097E+03 3.31791E+04-6.57066E+03-4.76062E+03 8.22183E-10 4.78116E-10
 -1        27-3.08152E+04-1.05522E+05-3.95889E+04 2.37808E+04 3.43501E-09-2.27146E-09
 -1        28 8.62068E+03-3.08337E+04 6.29950E+03 9.90391E+03 7.95225E-10 9.33642E-10
 -1        32-4.09892E+05-5.25892E+04 1.79669E+05-2.77527E+05-8.16362E-09 6.87633E-09
 -1        33-6.03512E+04 3.10497E+04 1.10068E+04-1.80529E+04 5.70566E-10-1.93298E-09
 -1        34-7.83718E+04-7.79842E+03 1.85862E+02 2.40903E+04 1.20167E-09 1.59199E-09
 -1        35-8.77285E+03-1.22668E+04-4.77682E+02 1.94404E+04 1.66579E-09-4.75059E-10
 -1        51 8.20581E+03-2.05122E+05 1.97848E+04-5.04286E+05-6.54836E-11 2.99042E-09
 -1        52 3.98674E+03-2.03089E+05 1.30058E+04-5.88153E+05 1.89175E-10-2.75759E-09
 -1        53 2.40584E+03-2.07856E+05 1.13473E+04-5.02581E+05 3.74712E-10 1.04919E-08
 -1        54 7.90187E+03-2.05767E+05 1.83121E+04-5.89973E+05-2.72848E-10 2.26573E-08
 -1        55 1.81682E+04-2.12376E+05 3.29596E+04-5.02371E+05 2.76486E-10 1.61144E-08
 -1        56-1.65481E+06-1.87245E+05-1.29157E+05-6.38321E+05 9.49512E-10-7.34872E-10
 -1        57-1.70720E+06-3.03503E+05-8.70460E+04-6.32771E+05-7.22139E-10 4.68935E-09
 -1        58-1.68049E+06-2.28398E+05-3.04095E+04-6.30544E+05 3.94721E-10-1.13323E-09
 -1        59-1.67750E+06-2.55259E+05-1.81540E+04-6.42118E+05 5.61727E-10-9.77934E-10
 -1        60-1.68427E+06-2.34113E+05-7.10923E+03-6.29470E+05 5.03860E-10-2.36923E-10
 -1        61-1.67341E+06-2.48290E+05-4.04372E+03-6.43046E+05 3.80169E-10 9.74865E-12
 -1        62-1.68453E+06-2.35194E+05-1.94884E+03-6.29672E+05-3.93698E-10-4.84320E-09
 -1        63-1.67374E+06-2.46548E+05-1.60708E+03-6.42100E+05 4.79190E-11-1.66210E-10
 -1        64-1.68391E+06-2.35850E+05-1.84257E+03-6.30407E+05 8.19682E-11-2.14527E-10
 -1        65-1.67575E+06-2.45696E+05-3.69839E+03-6.40141E+05-2.74667E-10-1.99759E-09
 -1        66-1.68249E+06-2.36082E+05-6.49722E+03-6.31604E+05-5.57975E-10-7.64430E-10
 -1        67-1.68168E+06-2.49767E+05-1.65005E+04-6.36672E+05-2.01769E-09 5.55156E-09
 -1        68-1.67800E+06-2.31957E+05-2.76862E+04-6.33802E+05-1.02386E-09 8.44011E-10
 -1        69-1.71061E+06-2.91727E+05-7.91600E+04-6.25981E+05 4.43606E-10-5.46970E-09
 -1        70-1.65378E+06-1.95374E+05-1.17512E+05-6.41839E+05-8.56744E-10 2.73576E-09
 -1        86-7.25111E+02 1.62445E+05 5.06226E+03-1.37439E+02 6.55405E-10 1.28250E-09
 -1        87 4.81510E+03 1.65488E+05 1.05474E+04 5.62561E+02 1.09947E-09 4.33971E-09
 -1        88-4.08302E+03 1.60806E+05 1.61634E+04-4.25137E+02 1.61162E-09 3.48888E-09
 -1        89 3.04307E+04 1.77407E+05 4.35676E+04 1.19913E+03 2.48110E-09-8.33097E-10
 -1        90-2.62568E+04 1.50531E+05 6.15627E+04-7.73827E+02 2.77942E-09 2.99565E-10
 -1       121-3.39159E+01-3.59469E+05 8.30885E+01 3.24000E+01 1.91495E-10 5.00131E-09
 -1       122 9.41680E+00-3.59335E+05 1.81419E+02-1.29822E+02-6.16799E-10 6.21640E-10
 -1       123-5.38839E+01-3.59488E+05 2.98709E+02 9.73119E+01 5.56099E-10-3.43061E-09
 -1       124 3.43537E+02-3.59128E+05 7.62534E+02-3.22119E+02-1.34150E-09-3.41970E-09
 -1       125-2.71650E+02-3.59677E+05 1.17492E+03 2.24721E+02 8.47649E-10-1.76533E-09
 -1       191-2.41097E+00 1.29814E+05 4.07681E+00 2.59290E-02 8.94159E-11 8.04630E-09
 -1       192-2.50101E+00 1.29803E+05 7.19711E+00 1.59073E-01 1.20838E-10-5.52973E-09
 -1       193-3.24079E+00 1.29814E+05 1.33984E+01-1.86157E-01 1.44647E-10-1.58252E-09
 -1       194-3.50522E+00 1.29805E+05 2.72232E+01 5.01125E-01 6.74358E-11-3.10024E-09
 -1       195-4.83595E+00 1.29813E+05 5.32649E+01-3.18178E-01 2.18922E-10-9.05266E-09
 -1       251 1.52104E+05-2.57525E+04 6.02096E+04 2.19515E+03 2.49202E-10 9.16771E-10
 -1       252 1.79057E+05 2.98097E+04 4.26387E+04-7.59434E+03 2.81858E-10-4.63524E-09
 -1       253 1.62365E+05-3.98863E+03 1.55873E+04 1.63603E+03-9.03242E-11-6.31189E-10
 -1       254 1.67013E+05 4.61157E+03 9.82963E+03-6.70609E+03 2.93085E-10 4.21653E-09
 -1       255 1.64114E+05-6.16631E+02 4.02741E+03 1.30703E+03 5.82332E-10-2.09252E-09
 -1       256 1.64935E+05 7.30507E+02 2.44308E+03-6.21882E+03-2.17710E-10 1.53608E-09
 -1       257 1.64428E+05-1.08076E+02 1.25847E+03 1.14874E+03-4.40394E-11 8.35342E-10
 -1       258 1.64617E+05 2.25947E+02 1.11422E+03-6.05902E+03 1.39631E-11-5.68716E-09
 -1       259 1.64427E+05-1.09914E+02 1.27585E+03 1.14723E+03-3.04468E-11-3.98501E-10
 -1       260 1.64942E+05 7.46615E+02 2.49256E+03-6.21329E+03 7.65681E-11-2.08161E-09
 -1       261 1.64108E+05-6.30732E+02 4.11773E+03 1.30301E+03 2.43517E-10 3.48041E-09
 -1       262 1.67062E+05 4.71791E+03 1.00527E+04-6.69402E+03 4.94964E-11 2.65845E-09
 -1       263 1.62322E+05-4.08027E+03 1.59469E+04 1.62797E+03-6.10896E-10 6.48561E-09
 -1       264 1.79371E+05 3.04960E+04 4.36159E+04-7.57478E+03-8.92157E-10 1.53204E-09
 -1       265 1.51832E+05-2.63439E+04 6.15994E+04 2.18365E+03-5.82190E-10 6.80302E-10
 -1       266-1.95065E+04-9.12184E+03 4.57647E+04-2.60616E+01-2.09402E-08-8.36360E-06
 -1       267 2.26132E+04 1.06307E+04 3.23474E+04 3.00715E+01-4.14802E-08-1.65271E-05
 -1       268-3.03239E+03-1.50566E+03 1.20233E+04-3.83151E+00-3.33057E-08-1.32491E-05
 -1       269 3.58035E+03 1.80190E+03 7.81501E+03 4.46325E+00-2.50241E-08-9.98272E-06
 -1       270-5.37415E+02-2.96068E+02 3.77242E+03-6.05671E-01-1.85063E-08-7.36269E-06
 -1       271-1.91734E+06-2.38248E+05-1.47454E+05-7.45679E+05 3.36513E-10 2.11730E-09
 -1       272-1.95714E+06-3.59084E+05-9.48194E+04-7.59674E+05-1.35492E-09 4.65661E-10
 -1       273-1.94507E+06-2.74990E+05-3.48278E+04-7.39152E+05 4.67480E-10-1.96633E-09
 -1       274-1.92489E+06-3.13910E+05-1.95139E+04-7.69615E+05-1.92358E-10 7.71843E-09
 -1       275-1.94918E+06-2.78524E+05-8.10166E+03-7.37715E+05 1.09458E-09-9.09495E-12
 -1       276-1.92007E+06-3.09714E+05-4.31362E+03-7.71914E+05 3.96312E-10 1.14574E-09
 -1       277-1.95003E+06-2.78569E+05-2.10922E+03-7.37186E+05-2.12367E-10 1.24055E-09
 -1       278-1.91925E+06-3.09583E+05-1.53537E+03-7.72546E+05 1.36276E-09 2.96257E-09
 -1       279-1.95008E+06-2.78562E+05-1.64648E+03-7.37157E+05 1.51090E-10-1.32809E-09
 -1       280-1.91981E+06-3.09584E+05-3.01695E+03-7.72056E+05 4.82487E-10-3.61979E-10
 -1       281-1.94940E+06-2.78637E+05-5.51002E+03-7.37618E+05 2.11912E-10-2.52203E-09
 -1       282-1.92333E+06-3.12092E+05-1.31671E+04-7.70103E+05 4.13593E-10 3.31056E-09
 -1       283-1.94641E+06-2.76508E+05-2.34856E+04-7.38844E+05-1.56888E-10 3.87445E-09
 -1       284-1.94555E+06-3.41936E+05-6.38676E+04-7.62668E+05 7.91260E-10-7.52152E-10
 -1       285-1.92736E+06-2.52157E+05-9.93784E+04-7.43651E+05 1.39607E-09-1.46974E-09
 -1       301 7.30324E+03-4.60863E+03 5.71374E+04-1.43301E+04-3.18323E-10 1.49183E-09
 -1       302 7.84497E+03 9.89958E+03 4.13312E+04-2.10722E+04 8.97217E-10-1.15358E-09
 -1       303 3.30513E+02 5.13504E+02 3.81547E+04-1.43515E+04-5.84805E-10-4.79054E-09
 -1       304 1.49113E+04 1.64147E+04 6.42994E+04-2.10167E+04 6.03904E-10 5.68650E-09
 -1       305 1.47848E+04-1.10935E+04 1.07959E+05-1.43548E+04-4.83851E-10 3.97972E-09
 -1       306-2.05344E+06-2.34898E+05-1.56404E+05-7.99076E+05 1.15324E-09-1.05138E-08
 -1       307-2.12794E+06-3.73345E+05-1.06665E+05-7.79198E+05 8.89941E-10-1.55705E-09
 -1       308-2.08805E+06-2.84375E+05-3.67924E+04-7.85433E+05 2.65572E-10 3.63252E-09
 -1       309-2.08580E+06-3.17859E+05-2.23194E+04-7.97676E+05-6.88487E-10-2.78305E-10
 -1       310-2.09542E+06-2.89433E+05-8.63274E+03-7.80947E+05-8.26539E-11-4.63569E-09
 -1       311-2.07643E+06-3.12910E+05-5.01660E+03-8.04044E+05 2.41494E-09 3.05135E-09
 -1       312-2.09745E+06-2.89148E+05-2.45075E+03-7.79156E+05 5.62181E-11 1.57365E-09
 -1       313-2.07464E+06-3.12965E+05-2.21053E+03-8.05601E+05-1.56257E-09-3.54561E-10
 -1       314-2.09723E+06-2.89347E+05-2.65205E+03-7.79412E+05-1.37371E-09-2.67528E-09
 -1       315-2.07734E+06-3.12287E+05-5.60548E+03-8.03044E+05-3.16052E-09-2.27647E-09
 -1       316-2.09472E+06-2.89871E+05-9.74023E+03-7.81676E+05 1.10178E-09-5.51836E-09
 -1       317-2.08810E+06-3.17775E+05-2.52325E+04-7.95721E+05 6.32980E-10-5.12546E-09
 -1       318-2.08644E+06-2.84054E+05-4.16068E+04-7.86638E+05-2.31375E-09 5.23141E-09
 -1       319-2.13538E+06-3.80993E+05-1.20660E+05-7.75377E+05-1.40062E-09-2.92857E-10
 -1       320-2.04763E+06-2.27712E+05-1.76881E+05-8.01640E+05 3.41242E-09 1.12050E-09
 -1       336 2.92828E+02-3.89149E+05-2.04656E+03 2.04564E+02-3.47029E-09-7.47605E-10
 -1       337-7.32187E+02-3.89745E+05-2.22910E+03-5.77713E+02-6.37027E-09-2.22371E-09
 -1       338 1.90354E+02-3.89214E+05-2.77703E+03 3.72368E+02-4.48665E-09-2.49474E-09
 -1       339-2.86355E+03-3.91046E+05-6.07383E+03-9.10905E+02-8.23832E-09 5.04929E-09
 -1       340 1.95866E+03-3.87858E+05-9.34513E+03 5.36091E+02-5.45378E-09 4.52837E-09
 -1       406 7.63393E+00 1.29808E+05 2.17556E+02 4.22091E-01 2.77936E-10-9.52559E-09
 -1       407 7.50535E+01 1.29848E+05 4.62372E+02-5.72894E+00 2.16005E-11-1.46360E-09
 -1       408 2.37214E+02 1.29775E+05 9.23490E+02 5.35625E+00 3.53793E-10-8.70841E-10
 -1       409 9.97803E+02 1.30144E+05 2.07911E+03-4.80637E+01-8.07177E-12 6.73822E-10
 -1       410 2.86829E+03 1.29513E+05 4.24448E+03 4.36302E+01 3.33785E-10 8.80846E-10
 -1       521-3.89695E+06-4.48817E+05-2.91611E+05-1.51404E+06 3.59069E-09-2.88128E-09
 -1       522-4.03675E+06-7.01486E+05-1.98221E+05-1.47622E+06-1.19417E-09-2.13004E-09
 -1       523-3.96188E+06-5.39016E+05-6.85599E+04-1.48818E+06 6.32099E-10-5.02041E-10
 -1       524-3.95773E+06-6.00105E+05-4.13831E+04-1.51115E+06 5.25233E-11 1.39744E-09
 -1       525-3.97548E+06-5.47991E+05-1.60226E+04-1.47987E+06 4.61910E-10 1.20326E-09
 -1       526-3.94153E+06-5.90127E+05-9.24125E+03-1.52152E+06 3.49132E-10 1.23612E-09
 -1       527-3.97807E+06-5.48614E+05-4.43390E+03-1.47797E+06 2.18699E-09 2.30625E-09
 -1       528-3.94156E+06-5.86668E+05-3.79821E+03-1.52016E+06-2.27914E-09 3.59947E-09
 -1       529-3.97540E+06-5.51439E+05-4.44462E+03-1.48120E+06-2.20075E-09-1.14323E-09
 -1       530-3.95129E+06-5.79848E+05-9.08015E+03-1.50951E+06-7.31234E-10 3.95175E-10
 -1       531-3.96820E+06-5.55575E+05-1.59288E+04-1.48851E+06 7.90692E-11 3.17414E-10
 -1       532-3.97457E+06-5.82551E+05-4.08848E+04-1.49113E+06-9.66963E-10-3.32511E-09
 -1       533-3.95215E+06-5.49091E+05-6.78482E+04-1.49944E+06 7.89441E-10-4.16912E-09
 -1       534-4.05518E+06-6.80969E+05-1.96129E+05-1.45480E+06 1.43973E-09 2.35013E-09
 -1       535-3.88829E+06-4.59195E+05-2.88435E+05-1.52425E+06-5.57338E-09 2.57569E-09
 -1       536 2.57910E+03-1.13653E+04 2.62026E+04 3.03445E+02-1.29289E-09 4.61296E-09
 -1       537 1.45393E+04 1.31515E+04 1.86395E+04-1.06460E+03-4.02938E-09 4.43015E-09
 -1       538 7.05590E+03-1.78085E+03 6.76501E+03 2.60645E+02-8.80220E-11 1.71485E-09
 -1       539 9.27291E+03 2.05675E+03 4.30029E+03-1.00333E+03 1.49861E-09 1.46656E-09
 -1       540 7.84092E+03-2.77139E+02 1.71253E+03 2.42175E+02 5.94433E-10 2.72291E-09
 -1       541 8.32274E+03 3.17895E+02 1.01399E+03-9.73095E+02 1.49708E-10 9.74140E-10
 -1       542 8.00347E+03-4.14674E+01 4.16384E+02 2.30407E+02 2.90356E-10-2.00114E-09
 -1       543 8.11264E+03 4.19100E+01 2.14374E+02-9.54764E+02 1.31635E-10-4.23775E-09
 -1       544 8.04943E+03-1.89200E-01 5.05906E+01 2.23844E+02 8.06573E-11-6.01712E-09
 -1       545 8.04077E+03-3.55201E+01-7.43527E+01-9.46647E+02-2.82927E-10 1.94291E-10
 -1       546 8.07464E+03 3.64215E+01-2.01978E+02 2.22291E+02 3.40128E-11 8.48246E-10
 -1       547 7.93039E+03-2.71704E+02-5.49569E+02-9.48485E+02-9.24082E-10-2.30366E-09
 -1       548 8.15996E+03 2.35713E+02-8.96375E+02 2.25681E+02-1.10771E-09-2.97928E-09
 -1       549 7.29387E+03-1.73790E+03-2.44887E+03-9.59833E+02-6.98856E-10 2.46814E-09
 -1       550 8.71222E+03 1.50072E+03-3.48896E+03 2.33638E+02-9.77778E-11 6.61657E-10
 -1       551 2.78534E+03-2.09895E+05 1.13244E+04-3.57751E+05 5.16047E-09-1.80444E-09
 -1       552 5.98319E+03-2.09381E+05 1.48294E+04-5.15788E+05 1.21036E-08 7.54153E-09
 -1       553 3.61748E+03-2.12112E+05 2.33043E+04-3.56617E+05 6.39193E-09 4.66571E-09
 -1       554 1.73790E+04-2.01237E+05 4.96843E+04-5.16269E+05 1.27256E-08 9.23251E-10
 -1       555 1.68332E+04-2.21750E+05 8.90467E+04-3.57151E+05 6.59929E-09-3.16140E-09
 -1       556 2.75148E+04-6.48923E+04 2.30846E+04-8.77117E+04-6.37738E-09-1.51704E-09
 -1       557 5.39961E+04-8.72497E+04 1.20526E+04-1.09407E+05-6.43922E-10 2.64754E-09
 -1       558 2.80108E+04-6.83066E+04 4.97662E+03-8.47517E+04-1.01863E-09-2.19279E-09
 -1       559 5.10350E+04-9.06127E+04 2.49134E+03-1.10540E+05 2.91038E-09 1.47156E-09
 -1       560 2.76659E+04-6.80585E+04 1.08371E+03-8.49302E+04 1.61162E-09 1.49157E-09
 -1       561 5.03340E+04-9.05297E+04 5.51384E+02-1.10973E+05 1.15142E-09 1.06820E-09
 -1       562 2.73536E+04-6.78332E+04 2.32066E+02-8.51603E+04 2.34650E-09 2.46666E-09
 -1       563 4.99488E+04-9.03675E+04 1.27546E+02-1.11218E+05 1.87720E-09-1.55109E-09
 -1       564 2.71584E+04-6.77026E+04 4.82824E+01-8.53015E+04 1.46065E-08-6.38738E-09
 -1       565 4.97522E+04-9.02855E+04 1.97800E+01-1.11340E+05 2.20366E-08-1.23023E-08
 -1       566 2.70935E+04-6.76564E+04-1.84712E+01-8.53506E+04 1.09758E-08-3.89355E-09
 -1       567 4.97211E+04-9.02698E+04-6.91731E+01-1.11326E+05 6.71662E-09-4.43833E-10
 -1       568 2.71761E+04-6.77126E+04-1.71526E+02-8.53233E+04-5.74346E-09 3.96449E-09
 -1       569 4.95169E+04-9.01601E+04-4.06639E+02-1.10890E+05-1.42863E-08 1.48539E-08
 -1       570 2.76871E+04-6.82315E+04-8.24202E+02-8.54141E+04-7.66340E-09 1.40335E-09
 -1       571 9.41275E+04 3.41055E+03 5.05073E+03-2.35742E+04 3.56067E-10 1.55205E-09
 -1       572 9.48808E+04 1.18641E+03 2.47428E+03-2.58412E+04-5.52518E-10 4.81953E-09
 -1       573 9.44338E+04 2.82786E+02 1.09915E+03-2.35126E+04-1.82945E-09-6.82121E-10
 -1       574 9.45241E+04 9.11010E+01 5.50543E+02-2.59104E+04-1.05535E-09 1.35765E-09
 -1       575 9.44699E+04 1.15578E+01 2.59431E+02-2.35044E+04 3.63798E-10 3.29692E-09
 -1       576 9.44766E+04 1.98481E+00 1.31952E+02-2.59197E+04 5.98718E-10-1.96837E-09
 -1       577 9.44753E+04-3.06109E+00 6.49415E+01-2.35033E+04 1.23481E-09-3.31511E-10
 -1       578 9.44708E+04-1.90677E+00 3.52812E+01-2.59208E+04-3.96085E-10-1.91380E-09
 -1       579 9.44786E+04-2.73465E+00 2.15030E+01-2.35033E+04-3.49701E-10-4.18595E-10
 -1       580 9.44744E+04-2.71149E+00 1.98478E+01-2.59193E+04-8.89031E-11 6.69843E-10
 -1       581 9.44836E+04-3.48493E+00 2.69281E+01-2.35048E+04-2.36923E-10 1.74600E-09
 -1       582 9.44855E+04 1.81346E+00 5.10207E+01-2.59052E+04 3.48336E-10-1.62800E-09
 -1       583 9.44882E+04 1.64088E+01 9.82468E+01-2.35175E+04 4.06544E-10-2.09457E-09
 -1       584 9.45271E+04 9.43812E+01 2.19902E+02-2.58002E+04-7.83075E-10-1.63419E-09
 -1       585 9.44702E+04 2.89821E+02 4.47230E+02-2.36099E+04-1.25510E-10-1.06411E-09
 -1       586-1.18602E+03 3.06010E+04-1.55856E+03-8.03359E+04 2.84672E-10 9.75683E-09
 -1       587-2.72087E+02 3.03947E+04-1.94475E+02-8.84028E+04 4.71118E-10 2.33189E-08
 -1       588 3.04662E+02 3.04343E+04 1.06042E+03-8.02868E+04 2.61025E-10 1.36961E-08
 -1       589 1.58229E+03 3.10120E+04 3.11610E+03-8.83299E+04 4.16549E-10 4.03475E-09
 -1       590 4.57568E+03 3.00326E+04 6.68488E+03-8.04089E+04 1.95996E-10 2.31512E-09
 -1       591-2.04348E+04-5.87998E+03-6.83483E+03-1.06305E+04 1.00474E-09 1.12641E-09
 -1       592-2.10698E+04-7.56376E+03-3.70203E+03-1.24188E+04-3.15481E-11-1.68063E-09
 -1       593-2.11256E+04-5.37644E+03-1.54117E+03-1.11237E+04-3.91196E-10-1.03273E-09
 -1       594-2.01168E+04-6.57056E+03-7.68681E+02-1.24659E+04 2.47184E-10 1.10518E-09
 -1       595-2.11783E+04-5.37431E+03-3.53260E+02-1.11462E+04 2.74525E-09 6.88281E-09
 -1       596-2.00522E+04-6.52511E+03-1.80091E+02-1.24590E+04 4.58272E-10 2.51054E-09
 -1       597-2.11849E+04-5.37873E+03-9.91452E+01-1.11471E+04-2.39378E-09-9.09125E-10
 -1       598-2.00461E+04-6.52337E+03-8.16804E+01-1.24572E+04-1.51095E-09-3.37718E-09
 -1       599-2.11846E+04-5.37865E+03-1.06772E+02-1.11470E+04 1.87674E-09-3.62377E-09
 -1       600-2.00532E+04-6.52562E+03-2.00347E+02-1.24591E+04 7.68523E-10-7.16329E-09
 -1       601-2.11764E+04-5.37368E+03-3.96200E+02-1.11458E+04 7.10088E-10 3.73461E-10
 -1       602-2.01261E+04-6.57655E+03-8.64139E+02-1.24663E+04 2.37037E-11 1.94927E-09
 -1       603-2.11168E+04-5.37674E+03-1.73314E+03-1.11207E+04 4.04430E-09 5.25233E-11
 -1       604-2.12015E+04-7.68963E+03-4.16352E+03-1.24084E+04 1.14874E-08-3.02293E-10
 -1       605-2.03354E+04-5.94629E+03-7.68667E+03-1.05699E+04 4.97573E-09 4.59750E-10
 -1       606 1.34879E+04-4.52811E+03-8.15900E+03 1.32129E+04-2.71757E-09-1.25601E-09
 -1       607 1.20909E+04-1.46039E+03-4.06297E+03 1.48322E+04-1.46792E-09-2.22741E-09
 -1       608 1.28892E+04-2.45200E+02-1.81886E+03 1.31074E+04 1.89539E-09 2.94062E-09
 -1       609 1.27334E+04-6.59017E+01-9.18898E+02 1.49489E+04 3.50974E-09-1.49612E-10
 -1       610 1.28218E+04 9.69518E+00-4.38504E+02 1.30957E+04 4.73028E-09-1.86651E-09
 -1       611 1.27943E+04 1.26854E+01-2.21327E+02 1.49617E+04-8.59472E-10-5.60374E-09
 -1       612 1.28071E+04 1.38921E+01-1.05650E+02 1.30945E+04 5.96674E-09-1.27727E-09
 -1       613 1.27982E+04 1.38611E+01-4.82905E+01 1.49633E+04 1.22327E-08-1.57638E-09
 -1       614 1.28003E+04 1.18047E+01-1.33983E+01 1.30941E+04 1.51786E-08 5.06816E-09
 -1       615 1.27966E+04 1.42491E+01 1.48802E+01 1.49636E+04 2.10621E-08-2.09263E-09
 -1       616 1.27952E+04 1.26762E+01 4.96311E+01 1.30942E+04 7.97604E-09-3.35228E-09
 -1       617 1.28024E+04 2.51530E+01 1.15007E+02 1.49633E+04 1.07195E-09-2.56546E-09
 -1       618 1.27849E+04 4.60799E+01 2.32572E+02 1.30943E+04 2.39083E-09 1.01727E-09
 -1       619 1.28843E+04 2.05273E+02 5.22696E+02 1.49631E+04 1.61617E-09-7.85235E-10
 -1       620 1.27074E+04 5.98222E+02 1.05078E+03 1.30940E+04 1.17495E-09-2.27601E-10
 -1       621 1.65286E+02 1.02569E+05 1.42295E+03 3.18918E+03-1.35925E-10 4.02338E-09
 -1       622 1.88771E+02 1.02922E+05 1.20555E+03 4.65349E+03-1.43416E-10 4.76683E-09
 -1       623 8.40234E+00 1.02672E+05 1.38365E+03 3.17408E+03-1.56305E-10 2.83308E-09
 -1       624 6.25993E+02 1.03324E+05 2.62510E+03 4.66837E+03-6.26699E-11 1.99671E-09
 -1       625 6.28118E+02 1.02167E+05 4.56248E+03 3.17441E+03-1.17097E-10 1.59926E-09
 -1       626 8.45658E+04 2.34837E+04 1.68903E+03 4.57869E+04-1.26693E-09-4.73483E-09
 -1       627 8.34024E+04 2.43408E+04 8.13504E+02 4.76453E+04-1.60821E-09 1.91181E-09
 -1       628 8.46343E+04 2.26825E+04 3.43917E+02 4.60431E+04-1.61435E-10 4.51337E-10
 -1       629 8.31626E+04 2.41479E+04 1.68383E+02 4.77602E+04 7.70797E-10-3.51633E-10
 -1       630 8.46420E+04 2.26426E+04 7.80263E+01 4.60520E+04-6.19866E-09 3.07548E-09
 -1       631 8.31364E+04 2.41423E+04 4.18495E+01 4.77639E+04-1.24689E-08 1.40478E-08
 -1       632 8.46405E+04 2.26441E+04 2.77005E+01 4.60498E+04-1.14110E-08 2.43637E-09
 -1       633 8.31324E+04 2.41440E+04 3.08490E+01 4.77623E+04-3.41061E-09 3.42419E-09
 -1       634 8.46373E+04 2.26437E+04 5.00058E+01 4.60486E+04-5.26984E-09 1.11933E-08
 -1       635 8.31355E+04 2.41443E+04 1.01397E+02 4.77629E+04-1.83015E-08 3.62661E-10
 -1       636 8.46324E+04 2.26430E+04 2.04891E+02 4.60474E+04-8.76838E-09 2.78965E-09
 -1       637 8.31772E+04 2.41770E+04 4.50365E+02 4.77608E+04 1.09968E-09-1.18200E-09
 -1       638 8.46140E+04 2.27438E+04 9.25741E+02 4.60007E+04-1.77704E-09-2.14823E-09
 -1       639 8.36601E+04 2.48548E+04 2.19010E+03 4.76160E+04-2.70393E-09 1.46315E-10
 -1       640 8.45473E+04 2.47609E+04 4.54529E+03 4.51442E+04-1.09696E-09-1.41461E-09
 -1       656 2.29376E+04-5.80598E+05-5.53879E+04-4.98130E+02-1.01863E-10 1.26421E-09
 -1       657-3.03071E+04-6.05622E+05-4.58049E+04 3.81405E+03 4.72937E-11 4.67566E-09
 -1       658 7.27120E+03-5.87741E+05-2.81100E+04-7.80650E+02 8.32529E-10-4.64802E-10
 -1       659-3.24884E+04-6.06646E+05-4.86695E+04 3.99918E+03 7.06223E-10-2.04261E-09
 -1       660 2.51127E+04-5.79574E+05-6.03221E+04-6.83250E+02 1.89175E-10 7.86422E-10
 -1       661 8.27585E+04 8.97923E+03 7.92768E+03 3.22938E+04 7.29415E-10 2.98041E-09
 -1       662 8.68545E+04 1.52299E+04 5.34189E+03 3.09520E+04 1.40844E-09 1.22441E-09
 -1       663 8.43082E+04 1.15294E+04 1.86865E+03 3.18500E+04 1.05001E-09-9.66793E-10
 -1       664 8.50638E+04 1.22420E+04 1.11710E+03 3.14887E+04 4.49234E-10-2.25425E-09
 -1       665 8.45374E+04 1.18834E+04 4.40715E+02 3.17887E+04-1.97574E-09-1.42622E-09
 -1       666 8.47974E+04 1.18323E+04 2.56899E+02 3.15649E+04-3.16825E-09-2.30053E-09
 -1       667 8.45732E+04 1.19285E+04 1.35486E+02 3.17778E+04-4.02054E-10-1.52911E-09
 -1       668 8.47618E+04 1.17932E+04 1.35585E+02 3.15789E+04 2.00605E-09-3.91603E-09
 -1       669 8.45728E+04 1.19214E+04 1.81717E+02 3.17750E+04 1.98094E-09 4.46055E-09
 -1       670 8.48129E+04 1.18840E+04 3.93771E+02 3.15725E+04 4.16310E-09 5.41010E-09
 -1       671 8.45223E+04 1.18396E+04 6.98669E+02 3.17834E+04-1.45083E-09-2.07734E-10
 -1       672 8.52252E+04 1.25585E+04 1.78702E+03 3.14684E+04-2.50617E-09 3.30829E-10
 -1       673 8.41628E+04 1.12640E+04 2.99465E+03 3.18727E+04-2.39777E-09 1.26420E-10
 -1       674 8.80811E+04 1.73650E+04 8.56443E+03 3.06251E+04-7.33735E-10 1.49714E-09
 -1       675 8.16851E+04 7.16763E+03 1.27118E+04 3.25761E+04 4.70436E-10 1.36242E-09
 -1       676 9.35492E+00-1.11598E+05-4.34624E+02 1.12619E+01 1.16144E-09 6.18666E-10
 -1       677-1.15369E+02-1.11703E+05-7.95372E+02-2.25227E+01-2.64760E-09-1.28738E-09
 -1       678 7.70204E+01-1.11523E+05-1.40599E+03 1.12530E+01-1.84343E-10-1.61665E-09
 -1       679-1.40611E+03-1.12551E+05-3.33974E+03-2.24795E+01-2.61269E-09-2.41266E-09
 -1       680 8.39074E+02-1.10749E+05-5.38260E+03 1.10892E+01 3.57431E-10 3.30564E-09
 -1       771-1.20104E+06-2.08278E+05-2.79050E+04-4.97053E+05-4.68208E-09-4.54020E-09
 -1       772-1.19304E+06-2.24739E+05-1.50177E+04-5.15404E+05-3.22507E-09 1.25783E-09
 -1       773-1.20466E+06-2.05478E+05-6.40163E+03-4.98591E+05-1.76078E-09 1.92449E-09
 -1       774-1.18891E+06-2.21340E+05-3.13868E+03-5.16756E+05 3.34876E-09 2.91038E-10
 -1       775-1.20530E+06-2.05108E+05-1.53386E+03-4.98680E+05-1.14233E-09 6.62112E-10
 -1       776-1.18876E+06-2.21290E+05-7.21568E+02-5.17324E+05-1.18416E-09 9.85892E-10
 -1       777-1.20569E+06-2.04845E+05-4.14236E+02-4.98712E+05 6.03904E-10 7.22139E-10
 -1       778-1.18884E+06-2.21360E+05-1.95173E+02-5.17787E+05-4.72937E-10 1.89357E-09
 -1       779-1.20599E+06-2.04619E+05-1.76404E+02-4.98738E+05-9.34961E-10-1.21690E-09
 -1       780-1.18893E+06-2.21426E+05-1.56923E+02-5.18161E+05-1.01045E-09 4.09273E-12
 -1       781-1.20620E+06-2.04436E+05-2.76692E+02-4.98754E+05-3.35058E-09-7.64430E-10
 -1       782-1.18905E+06-2.21504E+05-5.29444E+02-5.18438E+05-5.04315E-09-1.44962E-09
 -1       783-1.20632E+06-2.04319E+05-1.05740E+03-4.98753E+05-4.85670E-10-2.24605E-09
 -1       784-1.18973E+06-2.22212E+05-2.51541E+03-5.18578E+05-8.39009E-10 3.29783E-09
 -1       785-1.20593E+06-2.04593E+05-4.64850E+03-4.98418E+05-4.72210E-09 5.08862E-10
 -1       786 8.74446E+04-4.66516E+03 1.07921E+04 2.60616E+00 2.62517E-08-1.08639E-09
 -1       787 9.21211E+04 5.40076E+03 7.63542E+03-9.04765E+00 5.16923E-08 2.09184E-11
 -1       788 8.92489E+04-7.31312E+02 2.79325E+03 2.99925E+00 9.36905E-08 6.32895E-10
 -1       789 9.00193E+04 8.46169E+02 1.75504E+03-1.04401E+01 1.35977E-07 5.07575E-09
 -1       790 8.95467E+04-1.14243E+02 7.14121E+02 3.99867E+00 2.09976E-07-1.75507E-09
 -1       791 8.96718E+04 1.32740E+02 4.19324E+02-1.31799E+01 2.84129E-07 6.20688E-09
 -1       792 8.95965E+04-1.84176E+01 1.91458E+02 5.73907E+00 4.29214E-07-7.63306E-09
 -1       793 8.96157E+04 2.59079E+01 1.25635E+02-1.76567E+01 5.75489E-07 3.02381E-09
 -1       794 8.96029E+04-7.47974E+00 9.33326E+01 8.47561E+00 8.77796E-07-1.05998E-08
 -1       795 8.96214E+04 3.86971E+01 1.35394E+02-2.45201E+01 1.17876E-06 5.44636E-09
 -1       796 8.95908E+04-3.11981E+01 2.03052E+02 1.26025E+01 5.89270E-07-1.84576E-09
 -1       797 8.97135E+04 2.28714E+02 4.78957E+02-3.47596E+01 1.96222E-09 4.95362E-10
 -1       798 8.95107E+04-1.97357E+02 7.56122E+02 1.87153E+01-1.14295E-10 3.45329E-09
 -1       799 9.02805E+04 1.45717E+03 2.06132E+03-4.99541E+01-1.90352E-10 5.29960E-09
 -1       800 8.90238E+04-1.25866E+03 2.91196E+03 2.77971E+01 2.76974E-11-6.17547E-10
 -1       801-5.56390E+03 3.27970E+04 1.05439E+04 9.25424E+03 5.14410E-09-1.56217E-09
 -1       802 1.40995E+04 6.51110E+04 2.65214E+04-3.84197E+04 1.37741E-08-4.51274E-09
 -1       803-8.27437E+03 4.31774E+04 3.36644E+04 8.64103E+03 1.08794E-08 7.09092E-09
 -1       804 6.41265E+04 9.10111E+04 9.19908E+04-3.88086E+04 1.28712E-08 1.13757E-08
 -1       805-5.55949E+04 6.98819E+03 1.21591E+05 9.64267E+03 4.50382E-09 1.36595E-08
 -1       806-1.02627E+05-2.20130E+04-8.73049E+03-4.27645E+04 6.59156E-10 1.39971E-09
 -1       807-1.03138E+05-2.07656E+04-4.28906E+03-4.50827E+04-4.85693E-09-7.65522E-09
 -1       808-1.02875E+05-1.88587E+04-1.81948E+03-4.42455E+04-4.61080E-09-9.30240E-09
 -1       809-1.02222E+05-1.95748E+04-8.89515E+02-4.52068E+04 3.48865E-09-9.13701E-09
 -1       810-1.02914E+05-1.87471E+04-4.07285E+02-4.43110E+04 6.62794E-09-6.10964E-09
 -1       811-1.02153E+05-1.95276E+04-2.01993E+02-4.51969E+04 2.57768E-09-7.84098E-10
 -1       812-1.02921E+05-1.87550E+04-1.00738E+02-4.43111E+04 5.95946E-10 2.87685E-09
 -1       813-1.02144E+05-1.95287E+04-6.35501E+01-4.51921E+04 5.37511E-10 2.00407E-09
 -1       814-1.02921E+05-1.87576E+04-5.94734E+01-4.43101E+04-3.42652E-10-4.80895E-11
 -1       815-1.02146E+05-1.95295E+04-9.31836E+01-4.51915E+04-4.26553E-10-6.31530E-11
 -1       816-1.02916E+05-1.87562E+04-1.74474E+02-4.43094E+04-9.12223E-10 5.05429E-09
 -1       817-1.02177E+05-1.95460E+04-3.74349E+02-4.51894E+04 4.33033E-10 1.51385E-09
 -1       818-1.02895E+05-1.88080E+04-7.62772E+02-4.42851E+04 5.04770E-10-6.59384E-10
 -1       819-1.02599E+05-2.00037E+04-1.79566E+03-4.50885E+04-7.67841E-10 6.48924E-10
 -1       820-1.02751E+05-2.01655E+04-3.65424E+03-4.37070E+04-4.74301E-10 2.47269E-09
 -1       821-1.32624E+05 7.36479E+03-1.70348E+04-1.12461E+00-3.99218E-10 6.71207E-10
 -1       822-1.40005E+05-8.52599E+03-1.20538E+04-9.47892E+01-1.44701E-09-1.02659E-09
 -1       823-1.35472E+05 1.15454E+03-4.41206E+03-2.49151E+01 1.01077E-09 7.44421E-10
 -1       824-1.36687E+05-1.33633E+03-2.77665E+03-4.38042E+01-5.71324E-10 1.45815E-09
 -1       825-1.35942E+05 1.80789E+02-1.14054E+03-5.21113E+01-1.59678E-09 6.87635E-10
 -1       826-1.36141E+05-2.13223E+02-6.90056E+02 8.19628E+00-2.66276E-09 2.02194E-09
 -1       827-1.36018E+05 3.22576E+01-3.55834E+02-7.69168E+01-2.97076E-09 3.40037E-10
 -1       828-1.36065E+05-6.51838E+01-3.16060E+02 5.02619E+01 2.90033E-08 2.56206E-09
 -1       829-1.36018E+05 3.28639E+01-3.61155E+02-9.41777E+01 9.56281E-06-5.06085E-09
 -1       830-1.36145E+05-2.18383E+02-7.05964E+02 7.36616E+01 1.90353E-05-4.38657E-09
 -1       831-1.35939E+05 1.85364E+02-1.16851E+03-1.00317E+02-1.10642E-06 2.81887E-10
 -1       832-1.36706E+05-1.37029E+03-2.84728E+03 7.37124E+01-2.12401E-05 1.09249E-08
 -1       833-1.35457E+05 1.18394E+03-4.52414E+03-9.42281E+01-1.06687E-05 1.07941E-08
 -1       834-1.40107E+05-8.74317E+03-1.23610E+04 5.12704E+01-3.48151E-08-7.88532E-10
 -1       835-1.32537E+05 7.55242E+03-1.74689E+04-7.78723E+01 2.72810E-09 3.11047E-09
 -1       836-4.42647E+02 1.25849E+05 7.57484E+03-1.10717E+04 9.24729E-10 1.58025E-09
 -1       837 1.66179E+03 1.28197E+05 6.46361E+03-2.22576E+04 1.37197E-09 8.79936E-11
 -1       838-1.65769E+02 1.26506E+05 6.66212E+03-1.10326E+04 1.28239E-09 2.66738E-09
 -1       839 4.26851E+03 1.30147E+05 1.26784E+04-2.22723E+04 1.59162E-09 1.41375E-09
 -1       840-1.28874E+03 1.23890E+05 2.02481E+04-1.10565E+04 1.08230E-09 5.67070E-10
 -1       856-4.18840E+04 3.56519E+03-9.39398E+03-1.96855E+02-1.49333E-09-9.60426E-10
 -1       857-4.57655E+04-4.18237E+03-6.46796E+03 2.15968E+03-1.09138E-09-2.41891E-09
 -1       858-4.34175E+04 4.99771E+02-2.43797E+03-2.02656E+02-1.63354E-09-1.98247E-09
 -1       859-4.40033E+04-5.82435E+02-1.47269E+03 2.16868E+03-2.48683E-10 3.49544E-09
 -1       860-4.36470E+04 6.96713E+01-6.19222E+02-2.05892E+02 5.64384E-10-1.53639E-09
 -1       861-4.37385E+04-7.86177E+01-3.45095E+02 2.17303E+03-4.30137E-09-2.65578E-09
 -1       862-4.36828E+04 9.39224E+00-1.52295E+02-2.07014E+02 2.72371E-09-2.50653E-09
 -1       863-4.36963E+04-7.61367E+00-7.55501E+01 2.17354E+03 5.80850E-09 7.66143E-12
 -1       864-4.36893E+04 1.89410E-01-2.41740E+01-2.06399E+02 3.47529E-09-5.46851E-10
 -1       865-4.36847E+04 8.55984E+00 1.27865E+01 2.17032E+03 3.21177E-09-8.84057E-10
 -1       866-4.36940E+04-6.77712E+00 4.92293E+01-2.03790E+02-1.24832E-09-2.61730E-09
 -1       867-4.36567E+04 5.75073E+01 1.35587E+02 2.16328E+03 1.41766E-09 3.34667E-09
 -1       868-4.37165E+04-4.80545E+01 2.29524E+02-1.99362E+02 1.47736E-10-3.28900E-09
 -1       869-4.34862E+04 4.00191E+02 6.15445E+02 2.15092E+03-9.77707E-10-4.96999E-09
 -1       870-4.38633E+04-3.40398E+02 8.93635E+02-1.91434E+02 2.38714E-10-2.35343E-09
 -1       871-1.92151E+03-4.00726E+03-6.29610E+03 4.12820E+04 1.38516E-09 7.53516E-10
 -1       872-8.29334E+02-5.41211E+03-2.56369E+03 5.35179E+04 3.06636E-09-1.06411E-10
 -1       873-1.00658E+01-4.74413E+03 3.77163E+02 4.11900E+04 1.02148E-09-5.36204E-10
 -1       874 9.84539E+02-3.82719E+03 3.59724E+03 5.35375E+04 1.99930E-09 1.15381E-09
 -1       875 2.32080E+03-5.60502E+03 7.97270E+03 4.12647E+04 1.34150E-09 7.93079E-10
 -1       876 1.03512E+05 1.78237E+04 5.55251E+03 4.19778E+04-1.52050E-09-3.33148E-09
 -1       877 1.03828E+05 1.90437E+04 2.96505E+03 4.36228E+04-3.25940E-09-1.29745E-09
 -1       878 1.04032E+05 1.72082E+04 1.24230E+03 4.24334E+04 1.72520E-09-7.48969E-10
 -1       879 1.03072E+05 1.82918E+04 6.18769E+02 4.36636E+04 6.27551E-10 1.31260E-09
 -1       880 1.04071E+05 1.72006E+04 2.88111E+02 4.24520E+04 9.97716E-10 1.58775E-09
 -1       881 1.03022E+05 1.82601E+04 1.53377E+02 4.36569E+04 2.08570E-09 2.37847E-10
 -1       882 1.04075E+05 1.72047E+04 9.73889E+01 4.24525E+04 2.07160E-09-4.12061E-10
 -1       883 1.03019E+05 1.82587E+04 1.03461E+02 4.36553E+04-4.87717E-11 3.59967E-09
 -1       884 1.04073E+05 1.72033E+04 1.63505E+02 4.24526E+04 4.11745E-10 1.92762E-09
 -1       885 1.03032E+05 1.82611E+04 3.28071E+02 4.36596E+04 3.71628E-10 4.50353E-09
 -1       886 1.04061E+05 1.71938E+04 6.60940E+02 4.24513E+04 1.71666E-09 1.06070E-10
 -1       887 1.03148E+05 1.83372E+04 1.44369E+03 4.36760E+04-1.13818E-09 7.27596E-10
 -1       888 1.03969E+05 1.72101E+04 2.90915E+03 4.24052E+04-1.04465E-09-3.01225E-09
 -1       889 1.04882E+05 2.01370E+04 6.95007E+03 4.36202E+04-4.43894E-10 1.34469E-09
 -1       890 1.02782E+05 1.86189E+04 1.30166E+04 4.12964E+04 2.73872E-10-2.54977E-09
 -1       891-6.07604E+01-5.88916E+04-6.92227E+02 1.12096E+04 1.80478E-10 7.91238E-09
 -1       892-1.06083E+02-5.90606E+04-7.54500E+02 1.69684E+04 2.07592E-10 5.96560E-09
 -1       893-1.28319E+01-5.89156E+04-1.07911E+03 1.12115E+04 8.69022E-10 1.13596E-09
 -1       894-5.81463E+02-5.94817E+04-2.24215E+03 1.69087E+04 7.28505E-10-4.12444E-09
 -1       895-4.51958E+02-5.84544E+04-3.95028E+03 1.12688E+04 1.52829E-09 6.31644E-10
 -1       956-1.29964E+05-1.87579E+03-4.72162E+03 8.58478E+03-1.87219E-09-8.21558E-10
 -1       957-1.30896E+05-6.34246E+02-2.42410E+03 1.03317E+04-9.60654E-10 1.67347E-09
 -1       958-1.30380E+05-5.18282E+01-1.09193E+03 8.52926E+03 1.94223E-09-1.71178E-09
 -1       959-1.30453E+05-1.18581E+01-5.57846E+02 1.03918E+04-8.06722E-10 4.75438E-10
 -1       960-1.30415E+05 1.27926E+01-2.71809E+02 8.52426E+03-2.58774E-09-2.43313E-09
 -1       961-1.30418E+05 1.02988E+01-1.44174E+02 1.03973E+04-4.39741E-09-2.71405E-09
 -1       962-1.30421E+05 9.84900E+00-8.22761E+01 8.52368E+03-1.18268E-09 6.68365E-10
 -1       963-1.30416E+05 1.00931E+01-6.56886E+01 1.03981E+04-1.99088E-09 4.35148E-09
 -1       964-1.30422E+05 1.02727E+01-7.92060E+01 8.52348E+03-6.28859E-10 1.05717E-09
 -1       965-1.30420E+05 1.12945E+01-1.36422E+02 1.03980E+04 9.20830E-10-2.24691E-09
 -1       966-1.30418E+05 1.40146E+01-2.55753E+02 8.52373E+03-1.02523E-09-2.33644E-09
 -1       967-1.30454E+05-8.48846E+00-5.24380E+02 1.03950E+04 2.58069E-10-1.40460E-10
 -1       968-1.30387E+05-4.57287E+01-1.02598E+03 8.52660E+03 4.59977E-10-1.34364E-09
 -1       969-1.30872E+05-5.92436E+02-2.27793E+03 1.03600E+04 9.52696E-10 2.45839E-09
 -1       970-1.29997E+05-1.75907E+03-4.43666E+03 8.55940E+03 3.47200E-10 3.33739E-09
 -1       971-1.23574E+05-6.54577E+02-3.63982E+03 6.10586E+03-2.42017E-09 1.49582E-09
 -1       972-1.24459E+05-4.71648E+02-1.98259E+03 8.51506E+03-1.54785E-09-4.32209E-09
 -1       973-1.23976E+05-5.77390E+00-8.87373E+02 6.05642E+03-2.01499E-09 7.99218E-11
 -1       974-1.24036E+05-8.37300E+00-4.59858E+02 8.56793E+03 8.17749E-10-1.97747E-09
 -1       975-1.24005E+05 9.61496E+00-2.29115E+02 6.05264E+03 6.90761E-10 3.00332E-09
 -1       976-1.24008E+05 9.20794E+00-1.31262E+02 8.57221E+03-1.64641E-09 1.26602E-09
 -1       977-1.24010E+05 8.42334E+00-9.33495E+01 6.05211E+03 1.85253E-09 3.34927E-09
 -1       978-1.24008E+05 1.04630E+01-1.06776E+02 8.57293E+03 5.63000E-09-7.94159E-10
 -1       979-1.24009E+05 1.07910E+01-1.69307E+02 6.05192E+03 1.95334E-09-5.08180E-11
 -1       980-1.24020E+05 1.12764E+01-3.25503E+02 8.57297E+03 1.46591E-09-2.35065E-09
 -1       981-1.23999E+05 1.89665E+01-6.29583E+02 6.05207E+03-1.45121E-10 1.61276E-09
 -1       982-1.24107E+05-3.47810E+01-1.30086E+03 8.57078E+03-9.63837E-10 7.52465E-12
 -1       983-1.23920E+05-2.06261E+01-2.52714E+03 6.05416E+03 9.57925E-10 1.48219E-09
 -1       984-1.25324E+05-1.35335E+03-5.65899E+03 8.53723E+03-8.75389E-10 1.37157E-09
 -1       985-1.22778E+05-1.86905E+03-1.03916E+04 6.08701E+03 9.35188E-10 1.46883E-10
 -3
    1PSTEP                         3           2           1          
  100CL  102 3.12500E-01         409                     0    2           1
 -4  DISP        4    1
 -5  D1          1    2    1    0
 -5  D2          1    2    2    0
 -5  D3          1    2    3    0
 -5  ALL         1    2    0    0    1ALL
 -1         1 8.18175E-05 0.00000E+00 0.00000E+00
 -1         2 7.56244E-05 1.44020E-29 1.65436E-24
 -1         3 6.96693E-05-4.08851E-27 3.30872E-24
 -1         5 5.04995E-05 2.26248E-26 0.00000E+00
 -1         8 6.53197E-05-5.92925E-07 0.00000E+00
 -1         9 6.64352E-05 4.03931E-07 0.00000E+00
 -1        10 6.46322E-05-9.47817E-07 3.30872E-24
 -1        12 5.01399E-05 3.40480E-07 0.00000E+00
 -1        15 4.56908E-05-6.40025E-07-2.06795E-25
 -1        16 4.72448E-05 3.22369E-07 0.00000E+00
 -1        17 4.84010E-05-1.98950E-06 0.00000E+00
 -1        18 4.84034E-05 7.52516E-08 0.00000E+00
 -1        19 4.90615E-05 6.79098E-07 0.00000E+00
 -1        20 4.91511E-05 1.01474E-05 0.00000E+00
 -1        21 4.88145E-05 1.92012E-05 0.00000E+00
 -1        24 1.22993E-05-2.67731E-06 0.00000E+00
 -1        25 4.72470E-05 1.53186E-07 0.00000E+00
 -1        26 4.78703E-05 9.46333E-07 0.00000E+00
 -1        27 4.69289E-05 8.63408E-06 0.00000E+00
 -1        28 4.66236E-05 1.89102E-05 0.00000E+00
 -1        32 0.00000E+00 0.00000E+00 0.00000E+00
 -1        33 4.58635E-05 1.26919E-06 0.00000E+00
 -1        34 4.49536E-05 8.62065E-06 0.00000E+00
 -1        35 4.40887E-05 1.87567E-05 0.00000E+00
 -1        51 8.07442E-05-9.83443E-08 0.00000E+00
 -1        52 7.87551E-05-1.93898E-07 0.00000E+00
 -1        53 7.60305E-05-2.89981E-07 0.00000E+00
 -1        54 7.27579E-05-3.87501E-07 0.00000E+00
 -1        55 6.91248E-05-4.87062E-07 2.89513E-24
 -1        56 8.10714E-05-4.65603E-07 0.00000E+00
 -1        57 8.04081E-05-1.23603E-06-1.32349E-23
 -1        58 7.98279E-05-2.22380E-06-2.64698E-23
 -1        59 7.92943E-05-3.35030E-06-1.32349E-23
 -1        60 7.87793E-05-4.52733E-06 2.64698E-23
 -1        61 7.82497E-05-5.66768E-06 1.32349E-23
 -1        62 7.76740E-05-6.68524E-06 0.00000E+00
 -1        63 7.70210E-05-7.49656E-06-1.32349E-23
 -1        64 7.62625E-05-8.02638E-06 0.00000E+00
 -1        65 7.53724E-05-8.20494E-06-1.32349E-23
 -1        66 7.43296E-05-7.97657E-06 0.00000E+00
 -1        67 7.31168E-05-7.29335E-06 0.00000E+00
 -1        68 7.17220E-05-6.12598E-06 0.00000E+00
 -1        69 7.01414E-05-4.45288E-06 1.32349E-23
 -1        70 6.83691E-05-2.27623E-06 0.00000E+00
 -1        86 7.53828E-05 7.21117E-08 1.65436E-24
 -1        87 7.46573E-05 1.43631E-07 8.27181E-25
 -1        88 7.34287E-05 2.14623E-07 8.27181E-25
 -1        89 7.16762E-05 2.82556E-07-5.16988E-26
 -1        90 6.93592E-05 3.50161E-07 0.00000E+00
 -1       121 6.95289E-05-1.57466E-07 3.30872E-24
 -1       122 6.91080E-05-3.15011E-07 3.30872E-24
 -1       123 6.84070E-05-4.72714E-07-6.61744E-24
 -1       124 6.74266E-05-6.30677E-07 0.00000E+00
 -1       125 6.61678E-05-7.88934E-07-3.30872E-24
 -1       191 5.04895E-05 5.67509E-08-3.30872E-24
 -1       192 5.04595E-05 1.13501E-07-1.65436E-24
 -1       193 5.04096E-05 1.70250E-07 0.00000E+00
 -1       194 5.03397E-05 2.26997E-07 0.00000E+00
 -1       195 5.02498E-05 2.83741E-07 0.00000E+00
 -1       251 6.53751E-05 2.11675E-06-1.65436E-24
 -1       252 6.54450E-05 3.72148E-06 0.00000E+00
 -1       253 6.55151E-05 4.41019E-06 0.00000E+00
 -1       254 6.55877E-05 4.36890E-06-8.27181E-25
 -1       255 6.56602E-05 3.75563E-06 0.00000E+00
 -1       256 6.57329E-05 2.72661E-06 0.00000E+00
 -1       257 6.58053E-05 1.42205E-06 0.00000E+00
 -1       258 6.58776E-05-1.87005E-08 0.00000E+00
 -1       259 6.59499E-05-1.46160E-06 0.00000E+00
 -1       260 6.60223E-05-2.77258E-06 0.00000E+00
 -1       261 6.60950E-05-3.81243E-06 0.00000E+00
 -1       262 6.61675E-05-4.44121E-06 0.00000E+00
 -1       263 6.62401E-05-4.50300E-06 0.00000E+00
 -1       264 6.63102E-05-3.84018E-06 2.58494E-26
 -1       265 6.63800E-05-2.26731E-06 3.30872E-24
 -1       266 6.20482E-05-6.08905E-07 3.30872E-24
 -1       267 5.87768E-05-6.15764E-07 0.00000E+00
 -1       268 5.55053E-05-6.23201E-07-8.27181E-25
 -1       269 5.22337E-05-6.28927E-07 0.00000E+00
 -1       270 4.89623E-05-6.34612E-07 0.00000E+00
 -1       271 6.33312E-05 1.84135E-06 0.00000E+00
 -1       272 6.16447E-05 3.38015E-06 0.00000E+00
 -1       273 6.02539E-05 4.13725E-06 0.00000E+00
 -1       274 5.91104E-05 4.22203E-06 1.32349E-23
 -1       275 5.81728E-05 3.75641E-06 0.00000E+00
 -1       276 5.73930E-05 2.86729E-06 1.32349E-23
 -1       277 5.67218E-05 1.68752E-06 0.00000E+00
 -1       278 5.61083E-05 3.53290E-07-1.32349E-23
 -1       279 5.55008E-05-9.97158E-07 0.00000E+00
 -1       280 5.48476E-05-2.22535E-06 0.00000E+00
 -1       281 5.40976E-05-3.19450E-06-2.64698E-23
 -1       282 5.32011E-05-3.77092E-06 1.32349E-23
 -1       283 5.21095E-05-3.82622E-06-2.64698E-23
 -1       284 5.07796E-05-3.23726E-06 1.32349E-23
 -1       285 4.91639E-05-1.89179E-06-2.64698E-23
 -1       301 6.31844E-05 3.86490E-07 3.30872E-24
 -1       302 5.99349E-05 3.78742E-07 0.00000E+00
 -1       303 5.67014E-05 3.71280E-07-3.30872E-24
 -1       304 5.34987E-05 3.62739E-07 1.65436E-24
 -1       305 5.03417E-05 3.52685E-07 0.00000E+00
 -1       306 6.43859E-05 2.80179E-06 0.00000E+00
 -1       307 6.26488E-05 4.27147E-06 1.32349E-23
 -1       308 6.12542E-05 4.83796E-06-2.64698E-23
 -1       309 6.01783E-05 4.53822E-06 0.00000E+00
 -1       310 5.93793E-05 3.49924E-06 0.00000E+00
 -1       311 5.88002E-05 1.86857E-06 0.00000E+00
 -1       312 5.83649E-05-1.47146E-07 2.64698E-23
 -1       313 5.79917E-05-2.32977E-06-1.32349E-23
 -1       314 5.75930E-05-4.44427E-06 2.64698E-23
 -1       315 5.70823E-05-6.25772E-06 0.00000E+00
 -1       316 5.63834E-05-7.56755E-06 0.00000E+00
 -1       317 5.54272E-05-8.18631E-06 1.32349E-23
 -1       318 5.41673E-05-7.99534E-06-2.64698E-23
 -1       319 5.25742E-05-6.89837E-06 0.00000E+00
 -1       320 5.06360E-05-4.89367E-06 0.00000E+00
 -1       336 6.27846E-05-1.11965E-06 3.30872E-24
 -1       337 6.05897E-05-1.29239E-06 0.00000E+00
 -1       338 5.80502E-05-1.46587E-06 3.30872E-24
 -1       339 5.51696E-05-1.64000E-06 0.00000E+00
 -1       340 5.19517E-05-1.81514E-06 0.00000E+00
 -1       406 5.00101E-05 3.97210E-07 0.00000E+00
 -1       407 4.98602E-05 4.53918E-07-1.65436E-24
 -1       408 4.96904E-05 5.10589E-07 0.00000E+00
 -1       409 4.95007E-05 5.67152E-07 0.00000E+00
 -1       410 4.92910E-05 6.23495E-07 0.00000E+00
 -1       521 4.44181E-05 2.03132E-06-5.29396E-23
 -1       522 4.20011E-05 2.46411E-06 0.00000E+00
 -1       523 4.00424E-05 1.68837E-06-5.29396E-23
 -1       524 3.84850E-05-1.92401E-07 0.00000E+00
 -1       525 3.72387E-05-2.90711E-06 5.29396E-23
 -1       526 3.61845E-05-6.14371E-06 0.00000E+00
 -1       527 3.51797E-05-9.51362E-06 0.00000E+00
 -1       528 3.40772E-05-1.26219E-05 0.00000E+00
 -1       529 3.27437E-05-1.51109E-05 0.00000E+00
 -1       530 3.10584E-05-1.66570E-05-2.64698E-23
 -1       531 2.89496E-05-1.70726E-05 0.00000E+00
 -1       532 2.63702E-05-1.62310E-05 0.00000E+00
 -1       533 2.33376E-05-1.41876E-05 0.00000E+00
 -1       534 1.99061E-05-1.10582E-05 0.00000E+00
 -1       535 1.61646E-05-7.12342E-06-5.29396E-23
 -1       536 4.83911E-05 1.31138E-06 1.65436E-24
 -1       537 4.83886E-05 3.78654E-06-4.13590E-25
 -1       538 4.83873E-05 5.52442E-06 0.00000E+00
 -1       539 4.83879E-05 6.61347E-06 0.00000E+00
 -1       540 4.83889E-05 7.14019E-06 1.03398E-25
 -1       541 4.83903E-05 7.19106E-06 0.00000E+00
 -1       542 4.83916E-05 6.85104E-06 0.00000E+00
 -1       543 4.83929E-05 6.20508E-06-1.29247E-26
 -1       544 4.83940E-05 5.33712E-06 0.00000E+00
 -1       545 4.83950E-05 4.33108E-06 2.58494E-26
 -1       546 4.83959E-05 3.27047E-06-5.16988E-26
 -1       547 4.83969E-05 2.23877E-06 0.00000E+00
 -1       548 4.83980E-05 1.31955E-06 0.00000E+00
 -1       549 4.83995E-05 5.96389E-07 1.03398E-25
 -1       550 4.84010E-05 1.53543E-07-4.13590E-25
 -1       551 4.36570E-05-2.09438E-06 0.00000E+00
 -1       552 3.79342E-05-2.20250E-06-1.65436E-24
 -1       553 3.15824E-05-2.31433E-06 0.00000E+00
 -1       554 2.49566E-05-2.42948E-06 3.30872E-24
 -1       555 1.84115E-05-2.54590E-06 1.32349E-23
 -1       556 4.71707E-05 1.20151E-06 0.00000E+00
 -1       557 4.62314E-05 3.63805E-06 0.00000E+00
 -1       558 4.55512E-05 5.38985E-06 0.00000E+00
 -1       559 4.51012E-05 6.53216E-06 0.00000E+00
 -1       560 4.48524E-05 7.14001E-06 0.00000E+00
 -1       561 4.47761E-05 7.28882E-06 0.00000E+00
 -1       562 4.48438E-05 7.05408E-06 0.00000E+00
 -1       563 4.50269E-05 6.51135E-06 0.00000E+00
 -1       564 4.52970E-05 5.73621E-06 0.00000E+00
 -1       565 4.56259E-05 4.80428E-06 0.00000E+00
 -1       566 4.59851E-05 3.79119E-06 0.00000E+00
 -1       567 4.63463E-05 2.77259E-06-2.06795E-25
 -1       568 4.66814E-05 1.82410E-06 0.00000E+00
 -1       569 4.69619E-05 1.02126E-06 0.00000E+00
 -1       570 4.71596E-05 4.39664E-07 0.00000E+00
 -1       571 4.84433E-05 1.39540E-07-6.20385E-25
 -1       572 4.84841E-05 1.76614E-07 3.10193E-25
 -1       573 4.85252E-05 1.91307E-07 8.27181E-25
 -1       574 4.85664E-05 1.88709E-07-4.13590E-25
 -1       575 4.86077E-05 1.73929E-07 0.00000E+00
 -1       576 4.86489E-05 1.52115E-07 8.27181E-25
 -1       577 4.86902E-05 1.28413E-07-1.65436E-24
 -1       578 4.87315E-05 1.07978E-07 2.48154E-24
 -1       579 4.87728E-05 9.59624E-08-1.65436E-24
 -1       580 4.88141E-05 9.75196E-08 0.00000E+00
 -1       581 4.88554E-05 1.17802E-07 1.65436E-24
 -1       582 4.88966E-05 1.61957E-07 0.00000E+00
 -1       583 4.89379E-05 2.35126E-07 0.00000E+00
 -1       584 4.89792E-05 3.42399E-07 0.00000E+00
 -1       585 4.90204E-05 4.88833E-07 0.00000E+00
 -1       586 4.81969E-05 8.90536E-08 0.00000E+00
 -1       587 4.79728E-05 1.02505E-07 1.03398E-25
 -1       588 4.77485E-05 1.15807E-07 4.13590E-25
 -1       589 4.75412E-05 1.28898E-07 0.00000E+00
 -1       590 4.73684E-05 1.41633E-07 0.00000E+00
 -1       591 4.83602E-05 1.60376E-07 1.03398E-25
 -1       592 4.83239E-05 2.22889E-07 0.00000E+00
 -1       593 4.82943E-05 2.67086E-07 0.00000E+00
 -1       594 4.82699E-05 2.96839E-07-2.06795E-25
 -1       595 4.82495E-05 3.16070E-07 4.13590E-25
 -1       596 4.82315E-05 3.28671E-07 2.06795E-25
 -1       597 4.82145E-05 3.38534E-07 0.00000E+00
 -1       598 4.81971E-05 3.49549E-07 0.00000E+00
 -1       599 4.81778E-05 3.65601E-07 0.00000E+00
 -1       600 4.81552E-05 3.90581E-07 0.00000E+00
 -1       601 4.81278E-05 4.28374E-07-2.06795E-25
 -1       602 4.80941E-05 4.82874E-07 5.16988E-26
 -1       603 4.80528E-05 5.57972E-07-1.55096E-25
 -1       604 4.80024E-05 6.57593E-07 0.00000E+00
 -1       605 4.79416E-05 7.85607E-07-4.13590E-25
 -1       606 4.90692E-05 9.63286E-07 0.00000E+00
 -1       607 4.90754E-05 1.30654E-06 0.00000E+00
 -1       608 4.90812E-05 1.70540E-06 0.00000E+00
 -1       609 4.90868E-05 2.15595E-06 0.00000E+00
 -1       610 4.90924E-05 2.65427E-06 0.00000E+00
 -1       611 4.90979E-05 3.19637E-06-8.27181E-25
 -1       612 4.91033E-05 3.77826E-06 1.65436E-24
 -1       613 4.91087E-05 4.39595E-06 0.00000E+00
 -1       614 4.91141E-05 5.04546E-06 0.00000E+00
 -1       615 4.91195E-05 5.72278E-06 0.00000E+00
 -1       616 4.91248E-05 6.42394E-06 0.00000E+00
 -1       617 4.91302E-05 7.14494E-06 0.00000E+00
 -1       618 4.91355E-05 7.88177E-06-4.13590E-25
 -1       619 4.91408E-05 8.63046E-06 0.00000E+00
 -1       620 4.91460E-05 9.38701E-06 0.00000E+00
 -1       621 4.88350E-05 7.23667E-07 8.27181E-25
 -1       622 4.86242E-05 7.68454E-07-8.27181E-25
 -1       623 4.84256E-05 8.13235E-07-1.65436E-24
 -1       624 4.82360E-05 8.57945E-07-4.13590E-25
 -1       625 4.80520E-05 9.02578E-07-8.27181E-25
 -1       626 4.90026E-05 9.77280E-07 0.00000E+00
 -1       627 4.89257E-05 1.32439E-06 3.30872E-24
 -1       628 4.88322E-05 1.71591E-06 0.00000E+00
 -1       629 4.87239E-05 2.14699E-06 0.00000E+00
 -1       630 4.86026E-05 2.61280E-06 0.00000E+00
 -1       631 4.84700E-05 3.10847E-06 0.00000E+00
 -1       632 4.83281E-05 3.62910E-06 0.00000E+00
 -1       633 4.81787E-05 4.16984E-06 0.00000E+00
 -1       634 4.80235E-05 4.72580E-06 0.00000E+00
 -1       635 4.78644E-05 5.29211E-06 0.00000E+00
 -1       636 4.77033E-05 5.86389E-06 1.65436E-24
 -1       637 4.75419E-05 6.43627E-06 0.00000E+00
 -1       638 4.73821E-05 7.00436E-06 1.65436E-24
 -1       639 4.72256E-05 7.56329E-06-8.27181E-25
 -1       640 4.70742E-05 8.10818E-06 0.00000E+00
 -1       656 4.85188E-05 9.90123E-06 0.00000E+00
 -1       657 4.81085E-05 9.64516E-06 3.30872E-24
 -1       658 4.78344E-05 9.38989E-06-6.61744E-24
 -1       659 4.76088E-05 9.13482E-06 3.30872E-24
 -1       660 4.73380E-05 8.87894E-06 3.30872E-24
 -1       661 4.89171E-05 1.08927E-05 0.00000E+00
 -1       662 4.86969E-05 1.16066E-05 0.00000E+00
 -1       663 4.84882E-05 1.22897E-05 8.27181E-25
 -1       664 4.82908E-05 1.29434E-05 8.27181E-25
 -1       665 4.81041E-05 1.35690E-05-1.65436E-24
 -1       666 4.79275E-05 1.41676E-05-8.27181E-25
 -1       667 4.77606E-05 1.47404E-05-1.65436E-24
 -1       668 4.76029E-05 1.52886E-05 8.27181E-25
 -1       669 4.74541E-05 1.58132E-05 0.00000E+00
 -1       670 4.73138E-05 1.63154E-05-8.27181E-25
 -1       671 4.71814E-05 1.67961E-05-1.65436E-24
 -1       672 4.70567E-05 1.72563E-05-4.13590E-25
 -1       673 4.69393E-05 1.76970E-05 0.00000E+00
 -1       674 4.68283E-05 1.81190E-05-4.13590E-25
 -1       675 4.67242E-05 1.85235E-05 4.13590E-25
 -1       676 4.84488E-05 1.91524E-05 0.00000E+00
 -1       677 4.80831E-05 1.91037E-05 8.27181E-25
 -1       678 4.77177E-05 1.90549E-05-1.65436E-24
 -1       679 4.73525E-05 1.90063E-05 0.00000E+00
 -1       680 4.69878E-05 1.89577E-05-8.27181E-25
 -1       771 9.85333E-06 1.95406E-06 2.64698E-23
 -1       772 7.72235E-06 5.73906E-06 1.32349E-23
 -1       773 5.89282E-06 8.72741E-06 0.00000E+00
 -1       774 4.34416E-06 1.09713E-05 0.00000E+00
 -1       775 3.05628E-06 1.25238E-05 0.00000E+00
 -1       776 2.00833E-06 1.34390E-05 0.00000E+00
 -1       777 1.17930E-06 1.37718E-05 2.64698E-23
 -1       778 5.47835E-07 1.35784E-05 1.32349E-23
 -1       779 9.24895E-08 1.29152E-05 0.00000E+00
 -1       780-2.08470E-07 1.18396E-05 1.32349E-23
 -1       781-3.76822E-07 1.04094E-05 2.64698E-23
 -1       782-4.34551E-07 8.68320E-06 0.00000E+00
 -1       783-4.03673E-07 6.71976E-06 0.00000E+00
 -1       784-3.06295E-07 4.57837E-06-1.32349E-23
 -1       785-1.64606E-07 2.31846E-06 0.00000E+00
 -1       786 4.72837E-05 1.56872E-07 0.00000E+00
 -1       787 4.73225E-05 1.61578E-07 0.00000E+00
 -1       788 4.73612E-05 1.67876E-07 0.00000E+00
 -1       789 4.74004E-05 1.76341E-07 0.00000E+00
 -1       790 4.74395E-05 1.87739E-07-8.27181E-25
 -1       791 4.74788E-05 2.02843E-07 0.00000E+00
 -1       792 4.75180E-05 2.22757E-07 0.00000E+00
 -1       793 4.75573E-05 2.48591E-07 0.00000E+00
 -1       794 4.75965E-05 2.81986E-07 0.00000E+00
 -1       795 4.76358E-05 3.24592E-07 8.27181E-25
 -1       796 4.76750E-05 3.78885E-07 8.27181E-25
 -1       797 4.77143E-05 4.47359E-07 0.00000E+00
 -1       798 4.77535E-05 5.33771E-07 0.00000E+00
 -1       799 4.77926E-05 6.41911E-07 4.13590E-25
 -1       800 4.78317E-05 7.77508E-07 0.00000E+00
 -1       801 4.40542E-05 1.66134E-07 4.13590E-25
 -1       802 3.45651E-05 1.41247E-07 0.00000E+00
 -1       803 2.20980E-05 8.64169E-08 0.00000E+00
 -1       804 9.96858E-06 3.10938E-08 0.00000E+00
 -1       805 1.49465E-06 1.13760E-08 0.00000E+00
 -1       806 4.71975E-05 1.30369E-07 0.00000E+00
 -1       807 4.71462E-05 1.07521E-07 0.00000E+00
 -1       808 4.70933E-05 8.76950E-08 0.00000E+00
 -1       809 4.70381E-05 7.34813E-08 0.00000E+00
 -1       810 4.69798E-05 6.74665E-08 0.00000E+00
 -1       811 4.69174E-05 7.21990E-08-8.27181E-25
 -1       812 4.68500E-05 9.02245E-08 0.00000E+00
 -1       813 4.67766E-05 1.24083E-07 4.13590E-25
 -1       814 4.66964E-05 1.76313E-07 1.65436E-24
 -1       815 4.66083E-05 2.49451E-07-4.13590E-25
 -1       816 4.65115E-05 3.46034E-07 0.00000E+00
 -1       817 4.64049E-05 4.68597E-07 8.27181E-25
 -1       818 4.62876E-05 6.19673E-07 1.65436E-24
 -1       819 4.61588E-05 8.01788E-07 0.00000E+00
 -1       820 4.60175E-05 1.01747E-06 0.00000E+00
 -1       821 4.78148E-05 1.14754E-06 0.00000E+00
 -1       822 4.77560E-05 1.38047E-06 0.00000E+00
 -1       823 4.76973E-05 1.65550E-06 1.65436E-24
 -1       824 4.76380E-05 1.98289E-06-8.27181E-25
 -1       825 4.75786E-05 2.36635E-06 0.00000E+00
 -1       826 4.75191E-05 2.80941E-06 0.00000E+00
 -1       827 4.74595E-05 3.30812E-06 1.65436E-24
 -1       828 4.73999E-05 3.85837E-06 0.00000E+00
 -1       829 4.73403E-05 4.44960E-06 1.65436E-24
 -1       830 4.72807E-05 5.07109E-06 8.27181E-25
 -1       831 4.72211E-05 5.70838E-06-1.65436E-24
 -1       832 4.71616E-05 6.34691E-06 0.00000E+00
 -1       833 4.71021E-05 6.97197E-06 0.00000E+00
 -1       834 4.70434E-05 7.56893E-06 0.00000E+00
 -1       835 4.69844E-05 8.12665E-06-4.13590E-25
 -1       836 4.76259E-05 1.00008E-06 1.65436E-24
 -1       837 4.73104E-05 1.05501E-06 8.27181E-25
 -1       838 4.69500E-05 1.10984E-06 0.00000E+00
 -1       839 4.65712E-05 1.16432E-06 0.00000E+00
 -1       840 4.62003E-05 1.21872E-06-2.06795E-25
 -1       856 4.69120E-05 9.15102E-06 0.00000E+00
 -1       857 4.68931E-05 9.73283E-06-1.03398E-25
 -1       858 4.68743E-05 1.03693E-05 0.00000E+00
 -1       859 4.68551E-05 1.10500E-05 0.00000E+00
 -1       860 4.68359E-05 1.17648E-05-4.13590E-25
 -1       861 4.68166E-05 1.25033E-05 2.06795E-25
 -1       862 4.67973E-05 1.32550E-05-4.13590E-25
 -1       863 4.67779E-05 1.40097E-05 0.00000E+00
 -1       864 4.67586E-05 1.47569E-05 0.00000E+00
 -1       865 4.67393E-05 1.54863E-05 0.00000E+00
 -1       866 4.67200E-05 1.61875E-05 4.13590E-25
 -1       867 4.67007E-05 1.68502E-05 0.00000E+00
 -1       868 4.66814E-05 1.74641E-05 8.27181E-25
 -1       869 4.66621E-05 1.80188E-05 4.13590E-25
 -1       870 4.66429E-05 1.85043E-05 8.27181E-25
 -1       871 4.65338E-05 8.63360E-06 4.13590E-25
 -1       872 4.62009E-05 8.63183E-06 0.00000E+00
 -1       873 4.59034E-05 8.62982E-06 0.00000E+00
 -1       874 4.56144E-05 8.62750E-06 0.00000E+00
 -1       875 4.53067E-05 8.62489E-06-4.13590E-25
 -1       876 4.67917E-05 9.15635E-06-1.65436E-24
 -1       877 4.66440E-05 9.71018E-06 8.27181E-25
 -1       878 4.64859E-05 1.02917E-05 0.00000E+00
 -1       879 4.63190E-05 1.08975E-05 0.00000E+00
 -1       880 4.61443E-05 1.15238E-05-1.65436E-24
 -1       881 4.59632E-05 1.21673E-05-8.27181E-25
 -1       882 4.57771E-05 1.28242E-05-1.65436E-24
 -1       883 4.55872E-05 1.34910E-05 0.00000E+00
 -1       884 4.53949E-05 1.41643E-05 0.00000E+00
 -1       885 4.52016E-05 1.48404E-05-8.27181E-25
 -1       886 4.50084E-05 1.55158E-05 0.00000E+00
 -1       887 4.48169E-05 1.61869E-05 0.00000E+00
 -1       888 4.46281E-05 1.68503E-05 0.00000E+00
 -1       889 4.44434E-05 1.75022E-05-4.13590E-25
 -1       890 4.42640E-05 1.81391E-05 8.27181E-25
 -1       891 4.62718E-05 1.88845E-05 8.27181E-25
 -1       892 4.59089E-05 1.88587E-05 2.06795E-25
 -1       893 4.55220E-05 1.88330E-05-8.27181E-25
 -1       894 4.50981E-05 1.88073E-05 0.00000E+00
 -1       895 4.46246E-05 1.87816E-05 2.06795E-25
 -1       956 4.58077E-05 1.59451E-06 1.65436E-24
 -1       957 4.57510E-05 1.95632E-06 0.00000E+00
 -1       958 4.56941E-05 2.35084E-06 0.00000E+00
 -1       959 4.56371E-05 2.77404E-06-8.27181E-25
 -1       960 4.55800E-05 3.22192E-06 0.00000E+00
 -1       961 4.55229E-05 3.69043E-06 0.00000E+00
 -1       962 4.54659E-05 4.17552E-06 1.65436E-24
 -1       963 4.54087E-05 4.67316E-06 8.27181E-25
 -1       964 4.53516E-05 5.17930E-06 0.00000E+00
 -1       965 4.52945E-05 5.68989E-06-8.27181E-25
 -1       966 4.52374E-05 6.20089E-06-1.65436E-24
 -1       967 4.51803E-05 6.70824E-06 0.00000E+00
 -1       968 4.51233E-05 7.20791E-06-1.65436E-24
 -1       969 4.50664E-05 7.69587E-06 8.27181E-25
 -1       970 4.50096E-05 8.16808E-06 1.65436E-24
 -1       971 4.49002E-05 9.08551E-06-1.65436E-24
 -1       972 4.48461E-05 9.59855E-06 4.13590E-25
 -1       973 4.47919E-05 1.01544E-05 0.00000E+00
 -1       974 4.47376E-05 1.07476E-05 0.00000E+00
 -1       975 4.46833E-05 1.13726E-05 1.65436E-24
 -1       976 4.46289E-05 1.20238E-05 8.27181E-25
 -1       977 4.45745E-05 1.26956E-05 0.00000E+00
 -1       978 4.45201E-05 1.33826E-05 8.27181E-25
 -1       979 4.44657E-05 1.40792E-05-1.65436E-24
 -1       980 4.44113E-05 1.47798E-05 0.00000E+00
 -1       981 4.43569E-05 1.54788E-05-1.65436E-24
 -1       982 4.43026E-05 1.61707E-05 0.00000E+00
 -1       983 4.42483E-05 1.68500E-05-1.65436E-24
 -1       984 4.41943E-05 1.75111E-05 0.00000E+00
 -1       985 4.41405E-05 1.81485E-05 0.00000E+00
 -3
    1PSTEP                         4           2           1          
  100CL  102 3.12500E-01         409                     0    2           1
 -4  STRESS      6    1
 -5  SXX         1    4    1    1
 -5  SYY         1    4    2    2
 -5  SZZ         1    4    3    3
 -5  SXY         1    4    1    2
 -5  SYZ         1    4    2    3
 -5  SZX         1    4    3    1
 -1         1-1.07585E+06-4.96133E+05-2.18633E+05-6.97636E+05 2.18279E-11 8.88394E-09
 -1         2 1.81326E+03 2.08719E+05 5.91932E+03 4.29291E+02-9.32516E-11-3.92413E-09
 -1         3-3.01308E+01-4.50054E+05 1.04194E+02-1.01650E+02-1.23521E-10-2.15914E-09
 -1         5-3.25827E+00 1.62375E+05 4.25403E+00-2.32000E-02 9.54917E-11 5.21686E-09
 -1         8-5.06460E+05-2.21311E+05-1.66076E+04-3.86364E+05 1.80080E-10 2.55750E-09
 -1         9-8.65892E+05-2.23095E+05-8.52124E+04-3.00318E+05 2.24245E-09-3.16650E-09
 -1        10-3.40536E+02-4.68863E+05-5.91051E+02-6.78895E+02-2.19234E-09-4.86911E-09
 -1        12-1.51254E+00 1.62384E+05 1.37923E+02 1.12585E-01 1.54326E-10-1.57715E-08
 -1        15 1.34707E+03 7.40287E+02 4.35439E+03 1.90572E+00-2.17013E-09-6.70244E-07
 -1        16-2.46231E+06-7.91812E+05-3.82831E+05-8.04826E+05 7.47483E-09-4.84094E-09
 -1        17-5.37050E+05-3.32742E+05-1.02823E+05-3.17283E+05 3.25963E-10 3.96540E-09
 -1        18 2.14892E+04 2.33795E+03-7.10051E+03-3.81492E+04 4.66684E-10-1.67529E-09
 -1        19 5.08629E+04 6.06898E+04-2.79099E+02 9.96475E+03-3.78623E-10-2.34286E-10
 -1        20-2.10237E+04-2.40402E+05-5.30039E+04 1.79058E+04 1.81421E-09-5.72679E-10
 -1        21-2.27773E+01-1.39534E+05-4.50783E+02-3.50068E+01-4.78451E-09-5.32257E-09
 -1        24-2.16035E+06-7.49648E+05-3.05389E+05-9.20187E+05-2.57690E-09-4.19580E-09
 -1        25 2.06030E+04 4.08925E+03 1.29494E+04-6.90088E+04 2.56796E-10 2.76123E-09
 -1        26-1.16667E+04 4.15060E+04-8.20221E+03-5.97880E+03 1.04446E-09 2.30989E-09
 -1        27-3.85407E+04-1.31927E+05-4.94981E+04 2.97293E+04 3.12912E-09-1.13278E-09
 -1        28 1.07847E+04-3.85362E+04 7.87626E+03 1.23804E+04 2.22184E-09 7.16355E-10
 -1        32-5.10665E+05-5.94397E+04 2.26175E+05-3.47635E+05-1.03100E-08 1.02931E-08
 -1        33-7.54282E+04 3.88227E+04 1.37606E+04-2.26003E+04 5.87931E-10 1.62648E-10
 -1        34-9.79756E+04-9.74746E+03 2.31198E+02 3.01093E+04 1.99067E-09 2.28738E-10
 -1        35-1.09723E+04-1.53266E+04-5.97891E+02 2.43021E+04 3.13750E-09-5.12773E-09
 -1        51 9.85180E+03-2.54941E+05 2.43093E+04-6.30688E+05 2.47383E-10 5.77711E-09
 -1        52 5.21869E+03-2.53016E+05 1.61246E+04-7.35583E+05 7.56700E-10 1.18598E-09
 -1        53 3.44239E+03-2.59643E+05 1.41116E+04-6.28539E+05 3.60160E-10-2.56841E-09
 -1        54 1.07748E+04-2.57544E+05 2.29054E+04-7.37862E+05 4.36557E-11-2.47710E-08
 -1        55 2.35896E+04-2.65960E+05 4.12325E+04-6.28252E+05 3.34694E-10-3.29601E-09
 -1        56-2.06650E+06-2.33605E+05-1.61370E+05-7.96906E+05-9.93168E-10 2.96859E-09
 -1        57-2.13120E+06-3.79655E+05-1.08761E+05-7.90832E+05 1.35333E-09 2.56478E-09
 -1        58-2.09879E+06-2.84824E+05-3.79869E+04-7.86937E+05-6.69388E-10-5.70799E-09
 -1        59-2.09383E+06-3.19617E+05-2.26772E+04-8.02818E+05 1.70871E-10 1.26306E-09
 -1        60-2.10356E+06-2.91918E+05-8.87793E+03-7.85538E+05-6.98719E-10-3.01952E-09
 -1        61-2.08879E+06-3.10829E+05-5.04875E+03-8.03884E+05 4.05748E-10 1.13378E-08
 -1        62-2.10376E+06-2.93396E+05-2.43459E+03-7.85935E+05 8.01947E-10 3.02947E-10
 -1        63-2.08957E+06-3.08253E+05-2.00247E+03-8.02231E+05 1.83900E-09 3.61649E-09
 -1        64-2.10272E+06-2.94495E+05-2.30515E+03-7.87171E+05-5.40467E-10 3.35319E-09
 -1        65-2.09272E+06-3.06542E+05-4.61121E+03-7.99027E+05 1.04967E-09-2.71586E-09
 -1        66-2.10058E+06-2.95162E+05-8.12087E+03-7.89097E+05 2.02283E-09 3.45062E-09
 -1        67-2.10089E+06-3.10851E+05-2.06024E+04-7.93800E+05 3.68740E-09 9.55424E-10
 -1        68-2.09456E+06-2.90412E+05-3.45895E+04-7.92304E+05 2.34286E-09-2.73212E-09
 -1        69-2.13784E+06-3.62523E+05-9.88976E+04-7.79584E+05 2.26282E-09-1.19326E-09
 -1        70-2.06394E+06-2.45049E+05-1.46812E+05-8.02757E+05-6.11180E-10 2.91766E-09
 -1        86-9.09275E+02 2.06905E+05 6.34348E+03-2.14658E+02 8.09678E-10-4.31604E-09
 -1        87 6.03527E+03 2.10782E+05 1.32325E+04 8.82210E+02 1.36015E-09 2.85614E-09
 -1        88-5.11932E+03 2.04843E+05 2.02605E+04-6.67580E+02 2.00907E-09 2.18267E-09
 -1        89 3.81518E+04 2.25753E+05 5.46373E+04 1.89649E+03 3.09228E-09 2.83066E-09
 -1        90-3.29218E+04 1.91943E+05 7.71799E+04-1.22867E+03 3.47791E-09 3.45187E-09
 -1       121-5.30814E+01-4.50223E+05 9.92728E+01 5.07874E+01 2.20872E-10-2.21189E-09
 -1       122 4.06033E+00-4.50031E+05 2.27635E+02-2.03422E+02-8.29010E-10 2.52840E-09
 -1       123-7.79160E+01-4.50247E+05 3.69174E+02 1.52414E+02 6.59043E-10 1.73259E-09
 -1       124 4.23044E+02-4.49774E+05 9.54950E+02-4.85021E+02-1.66210E-09 4.53383E-10
 -1       125-3.50331E+02-4.50484E+05 1.46583E+03 3.32378E+02 1.02750E-09-7.74889E-10
 -1       191-3.56162E+00 1.62389E+05 5.07566E+00 1.13065E-02 1.03695E-10 1.03241E-08
 -1       192-3.64899E+00 1.62375E+05 9.00800E+00 2.79736E-01 1.54994E-10 1.06629E-08
 -1       193-4.60069E+00 1.62389E+05 1.67440E+01-2.93059E-01 1.78871E-10 4.39741E-09
 -1       194-4.90651E+00 1.62377E+05 3.40755E+01 7.85986E-01 8.82880E-11-2.46928E-09
 -1       195-6.59790E+00 1.62387E+05 6.66459E+01-4.98356E-01 2.81037E-10-1.19921E-08
 -1       251 1.94316E+05-3.23721E+04 7.56353E+04 3.00052E+03 1.30512E-10-1.67347E-10
 -1       252 2.28492E+05 3.74621E+04 5.36151E+04-9.89411E+03 4.32578E-11-5.90080E-09
 -1       253 2.07289E+05-5.01276E+03 1.95781E+04 2.10706E+03-8.93579E-11-4.78940E-09
 -1       254 2.13235E+05 5.79338E+03 1.23630E+04-8.48173E+03 2.36668E-10 1.67552E-09
 -1       255 2.09520E+05-7.74512E+02 5.05848E+03 1.58830E+03 5.37796E-10 7.77004E-09
 -1       256 2.10574E+05 9.18612E+02 3.07203E+03-7.71561E+03 9.80663E-10 7.96172E-09
 -1       257 2.09925E+05-1.35480E+02 1.58093E+03 1.34092E+03 2.63512E-10 5.62454E-09
 -1       258 2.10162E+05 2.85280E+02 1.39901E+03-7.46623E+03-4.32997E-10 3.37111E-09
 -1       259 2.09925E+05-1.37620E+02 1.60116E+03 1.33892E+03-1.95222E-10-8.24059E-10
 -1       260 2.10582E+05 9.37380E+02 3.12956E+03-7.70821E+03 3.14259E-10-6.23874E-09
 -1       261 2.09513E+05-7.90927E+02 5.16362E+03 1.58290E+03 7.35412E-10 2.87969E-09
 -1       262 2.13291E+05 5.91718E+03 1.26225E+04-8.46549E+03-1.00559E-09 1.97429E-09
 -1       263 2.07239E+05-5.11940E+03 1.99967E+04 2.09622E+03-5.41775E-10-2.02817E-10
 -1       264 2.28855E+05 3.82606E+04 5.47519E+04-9.86764E+03-1.11854E-09 2.57569E-09
 -1       265 1.94001E+05-3.30602E+04 7.72531E+04 2.98488E+03-5.92763E-10-2.83762E-10
 -1       266-2.43864E+04-1.14031E+04 5.72174E+04-4.07765E+01-3.27054E-09-1.05388E-06
 -1       267 2.82707E+04 1.32905E+04 4.04405E+04 4.70479E+01-6.50743E-09-2.08987E-06
 -1       268-3.79104E+03-1.88231E+03 1.50315E+04-5.99473E+00-5.26688E-09-1.68261E-06
 -1       269 4.47611E+03 2.25272E+03 9.77025E+03 6.98296E+00-3.91572E-09-1.25882E-06
 -1       270-6.71870E+02-3.70140E+02 4.71624E+03-9.47634E-01-2.89640E-09-9.25258E-07
 -1       271-2.39794E+06-2.98605E+05-1.84560E+05-9.33443E+05-5.45697E-10 3.02680E-09
 -1       272-2.44902E+06-4.48399E+05-1.18658E+05-9.49223E+05-3.41061E-12-2.02272E-09
 -1       273-2.43301E+06-3.44206E+05-4.35943E+04-9.24842E+05 1.27648E-09-5.82077E-11
 -1       274-2.40808E+06-3.92481E+05-2.44076E+04-9.62464E+05 1.10049E-10 8.27276E-09
 -1       275-2.43842E+06-3.48338E+05-1.01404E+04-9.22737E+05 3.34694E-10 3.51019E-09
 -1       276-2.40171E+06-3.87631E+05-5.39184E+03-9.65862E+05-7.96717E-10 1.41199E-09
 -1       277-2.43964E+06-3.48236E+05-2.63699E+03-9.21912E+05-9.56106E-10-4.23768E-09
 -1       278-2.40055E+06-3.87614E+05-1.91816E+03-9.66848E+05 4.51223E-10 3.34722E-09
 -1       279-2.43971E+06-3.48218E+05-2.05799E+03-9.21866E+05 3.90514E-10 2.57273E-09
 -1       280-2.40135E+06-3.87498E+05-3.77056E+03-9.66080E+05-1.72804E-10 3.03316E-09
 -1       281-2.43873E+06-3.48453E+05-6.89809E+03-9.22589E+05 2.70120E-10-3.97586E-09
 -1       282-2.40607E+06-3.90264E+05-1.64683E+04-9.63150E+05-9.32232E-10 6.44377E-10
 -1       283-2.43472E+06-3.46066E+05-2.94041E+04-9.24414E+05 5.10227E-10 1.28603E-09
 -1       284-2.43443E+06-4.27018E+05-7.99262E+04-9.53077E+05-6.13454E-10-6.08270E-09
 -1       285-2.41053E+06-3.15968E+05-1.24411E+05-9.30845E+05 1.52795E-10-9.53150E-10
 -1       301 9.13682E+03-5.55969E+03 7.13267E+04-1.76979E+04-4.18368E-10-2.81437E-09
 -1       302 9.82372E+03 1.25398E+04 5.16207E+04-2.60426E+04 1.07320E-09 2.41312E-09
 -1       303 4.33846E+02 8.30284E+02 4.76958E+04-1.77352E+04-4.51109E-10-2.03431E-09
 -1       304 1.86835E+04 2.07124E+04 8.04232E+04-2.59710E+04 9.47693E-10-4.48495E-09
 -1       305 1.85195E+04-1.36847E+04 1.35066E+05-1.77212E+04-6.40284E-10 3.17050E-09
 -1       306-2.56151E+06-2.94830E+05-1.95302E+05-9.99341E+05 1.66983E-09-2.65572E-09
 -1       307-2.65880E+06-4.63277E+05-1.33167E+05-9.69370E+05 1.62845E-09 5.40786E-09
 -1       308-2.60590E+06-3.55486E+05-4.59529E+04-9.80993E+05 5.15229E-10-2.18279E-11
 -1       309-2.60394E+06-3.96203E+05-2.78359E+04-9.95001E+05-5.43707E-11 5.58157E-09
 -1       310-2.61615E+06-3.60711E+05-1.07853E+04-9.74137E+05 3.18067E-10 1.44519E-09
 -1       311-2.59067E+06-3.91689E+05-6.25070E+03-1.00492E+06 3.07776E-09 9.34961E-10
 -1       312-2.61924E+06-3.59756E+05-3.05640E+03-9.71212E+05-6.29427E-10-1.50749E-10
 -1       313-2.58803E+06-3.92204E+05-2.75464E+03-1.00740E+06-9.71227E-10 3.59569E-09
 -1       314-2.61883E+06-3.60147E+05-3.31039E+03-9.71696E+05-1.96326E-09-4.69265E-09
 -1       315-2.59228E+06-3.90402E+05-6.97809E+03-1.00307E+06-1.10532E-09-2.30739E-09
 -1       316-2.61492E+06-3.61633E+05-1.21704E+04-9.75478E+05 2.62619E-09-3.79350E-09
 -1       317-2.60762E+06-3.95256E+05-3.14612E+04-9.91588E+05-6.64045E-10-7.61338E-09
 -1       318-2.60343E+06-3.55559E+05-5.19519E+04-9.83034E+05-1.65528E-09 1.64437E-09
 -1       319-2.66898E+06-4.71940E+05-1.50615E+05-9.63625E+05-1.66256E-09 2.98314E-09
 -1       320-2.55385E+06-2.86265E+05-2.20810E+05-1.00299E+06 5.74437E-09-4.36557E-10
 -1       336 3.53587E+02-4.87396E+05-2.57679E+03 3.46096E+02-4.24188E-09 4.49018E-09
 -1       337-9.26836E+02-4.88112E+05-2.80572E+03-9.34143E+02-7.90624E-09-1.77897E-09
 -1       338 2.28152E+02-4.87476E+05-3.51144E+03 5.86574E+02-5.60703E-09-5.82077E-10
 -1       339-3.62197E+03-4.89763E+05-7.67312E+03-1.41073E+03-9.99432E-09 5.40058E-09
 -1       340 2.46401E+03-4.85763E+05-1.18162E+04 8.20011E+02-6.78938E-09 6.03995E-09
 -1       406 9.01149E+00 1.62381E+05 2.72289E+02 3.77766E-01 3.59307E-10-8.97444E-09
 -1       407 9.34297E+01 1.62432E+05 5.78749E+02-6.76884E+00 4.74927E-11-2.40198E-09
 -1       408 2.96387E+02 1.62340E+05 1.15589E+03 6.46674E+00 4.04725E-10-1.27329E-10
 -1       409 1.24845E+03 1.62801E+05 2.60234E+03-5.91150E+01-2.54659E-11-1.85264E-09
 -1       410 3.58973E+03 1.62011E+05 5.31261E+03 5.40777E+01 4.42924E-10-3.98427E-09
 -1       521-4.87179E+06-5.62866E+05-3.64845E+05-1.89537E+06 3.17232E-09-6.08270E-09
 -1       522-5.04841E+06-8.76646E+05-2.47912E+05-1.84509E+06 5.23869E-10-6.87214E-09
 -1       523-4.95673E+06-6.71991E+05-8.57821E+04-1.85864E+06-1.79170E-10 3.11047E-09
 -1       524-4.94359E+06-7.55905E+05-5.17006E+04-1.89603E+06 5.49335E-10 9.54969E-10
 -1       525-4.97600E+06-6.80762E+05-2.00237E+04-1.84541E+06 2.40107E-09-3.08228E-09
 -1       526-4.92146E+06-7.45497E+05-1.15389E+04-1.91155E+06-8.33609E-11 3.06954E-12
 -1       527-4.97892E+06-6.81852E+05-5.53747E+03-1.84338E+06 2.77089E-09 1.35458E-09
 -1       528-4.92459E+06-7.37827E+05-4.69796E+03-1.90588E+06-1.33116E-09 3.05818E-09
 -1       529-4.97270E+06-6.88486E+05-5.61427E+03-1.85098E+06-3.32739E-09 3.54930E-09
 -1       530-4.94378E+06-7.21924E+05-1.12485E+04-1.88389E+06-3.73802E-10-1.02773E-10
 -1       531-4.95942E+06-6.98033E+05-1.99972E+04-1.86511E+06-2.95131E-10-9.61336E-10
 -1       532-4.98085E+06-7.17551E+05-5.10569E+04-1.85215E+06-7.07331E-10-4.52928E-09
 -1       533-4.93577E+06-6.93266E+05-8.48751E+04-1.88260E+06 9.74069E-10-5.40967E-09
 -1       534-5.08622E+06-8.36896E+05-2.45439E+05-1.80259E+06 2.61662E-09 4.96220E-09
 -1       535-4.85524E+06-5.81093E+05-3.60830E+05-1.91413E+06-6.82485E-09 5.07862E-09
 -1       536-2.58244E+03-1.39734E+04 3.21882E+04 3.59273E+02-1.01869E-09 5.15320E-09
 -1       537 1.22994E+04 1.61679E+04 2.29303E+04-1.29624E+03-5.55582E-09 5.84282E-09
 -1       538 2.94363E+03-2.18950E+03 8.30500E+03 3.13204E+02 3.93641E-10 3.76986E-09
 -1       539 5.78224E+03 2.52759E+03 5.29793E+03-1.23650E+03 1.47313E-09 4.61114E-10
 -1       540 3.92768E+03-3.40578E+02 2.09916E+03 2.99534E+02 7.16540E-10 3.87263E-09
 -1       541 4.58012E+03 3.89973E+02 1.25151E+03-1.21489E+03-1.33781E-10-1.15563E-09
 -1       542 4.14167E+03-5.06234E+01 5.07221E+02 2.91594E+02-8.48836E-10-6.39449E-09
 -1       543 4.29826E+03 5.00179E+01 2.60308E+02-1.20255E+03-1.46628E-10-5.11247E-09
 -1       544 4.20700E+03 9.79407E-01 5.19754E+01 2.87193E+02 1.84905E-10-2.30887E-09
 -1       545 4.19586E+03-5.10806E+01-1.13771E+02-1.19711E+03-2.54381E-10 5.08226E-09
 -1       546 4.24293E+03 5.12322E+01-2.87120E+02 2.86151E+02 3.53162E-10 4.29196E-10
 -1       547 4.04313E+03-3.80227E+02-7.70799E+02-1.19832E+03-1.13059E-09-3.94451E-10
 -1       548 4.35997E+03 3.29716E+02-1.25538E+03 2.88401E+02-1.25149E-09 2.56216E-09
 -1       549 3.16089E+03-2.43015E+03-3.42394E+03-1.20537E+03-9.21487E-10 3.69840E-09
 -1       550 5.12685E+03 2.09838E+03-4.88213E+03 2.93199E+02 8.77165E-11-4.43220E-09
 -1       551 3.99630E+03-2.62010E+05 1.39705E+04-4.46566E+05 5.96629E-09 1.45519E-11
 -1       552 8.89327E+03-2.62141E+05 1.85445E+04-6.43948E+05 1.44864E-08 5.91717E-09
 -1       553 5.60051E+03-2.65542E+05 2.91467E+04-4.45125E+05 7.99264E-09 2.31375E-09
 -1       554 2.34171E+04-2.52484E+05 6.21723E+04-6.44551E+05 1.63127E-08-3.55612E-10
 -1       555 2.20757E+04-2.77517E+05 1.11341E+05-4.45765E+05 7.85803E-09-2.74304E-09
 -1       556 3.51328E+04-8.14927E+04 2.87157E+04-1.09372E+05-6.55564E-09-1.12777E-08
 -1       557 6.83261E+04-1.09377E+05 1.50176E+04-1.36519E+05 1.00044E-09 1.17825E-09
 -1       558 3.55692E+04-8.56383E+04 6.16588E+03-1.05789E+05-1.89175E-10 2.35741E-09
 -1       559 6.43976E+04-1.13490E+05 3.09850E+03-1.38087E+05 1.45155E-09-1.39112E-08
 -1       560 3.49924E+04-8.52375E+04 1.32973E+03-1.06115E+05 2.36469E-09 4.29191E-09
 -1       561 6.33479E+04-1.13311E+05 6.84614E+02-1.38740E+05-1.50976E-10 1.34150E-09
 -1       562 3.44966E+04-8.48902E+04 2.80769E+02-1.06477E+05-5.74437E-09-1.33132E-08
 -1       563 6.27493E+04-1.13057E+05 1.60024E+02-1.39122E+05 2.00089E-10 7.20718E-09
 -1       564 3.41882E+04-8.46867E+04 5.95708E+01-1.06699E+05 1.63709E-11 1.29967E-09
 -1       565 6.24433E+04-1.12928E+05 2.75801E+01-1.39312E+05-1.78261E-09 1.17197E-08
 -1       566 3.40840E+04-8.46147E+04-2.10619E+01-1.06776E+05-3.46790E-09 2.82489E-09
 -1       567 6.24014E+04-1.12907E+05-8.37894E+01-1.39297E+05-3.41061E-12-6.31553E-09
 -1       568 3.42058E+04-8.46964E+04-2.15622E+02-1.06729E+05-2.45564E-10-5.00222E-10
 -1       569 6.22020E+04-1.12792E+05-5.08879E+02-1.38718E+05-1.65255E-09-3.31966E-10
 -1       570 3.49010E+04-8.53798E+04-1.04526E+03-1.06803E+05 1.34241E-09 1.76442E-10
 -1       571 1.17694E+05 4.26347E+03 6.31559E+03-2.95405E+04 6.87578E-10 3.45221E-09
 -1       572 1.18635E+05 1.48279E+03 3.09401E+03-3.23811E+04-4.83851E-10 5.29928E-09
 -1       573 1.18075E+05 3.53221E+02 1.37446E+03-2.94632E+04-1.48066E-09 3.13685E-09
 -1       574 1.18187E+05 1.13976E+02 6.88493E+02-3.24678E+04-2.28272E-09-4.38763E-09
 -1       575 1.18119E+05 1.46788E+01 3.24445E+02-2.94529E+04-7.43739E-10 3.66754E-09
 -1       576 1.18127E+05 2.91034E+00 1.65049E+02-3.24794E+04-2.86462E-10 7.08724E-09
 -1       577 1.18126E+05-3.50336E+00 8.12344E+01-2.94516E+04 3.77611E-10 4.62705E-10
 -1       578 1.18120E+05-2.13577E+00 4.41487E+01-3.24808E+04 1.15381E-09 1.72076E-09
 -1       579 1.18131E+05-3.54839E+00 2.68751E+01-2.94516E+04 1.80944E-09 5.19094E-10
 -1       580 1.18126E+05-3.88637E+00 2.47952E+01-3.24789E+04 5.63659E-10 2.34650E-09
 -1       581 1.18139E+05-5.49919E+00 3.35188E+01-2.94534E+04-7.53062E-10-3.83852E-09
 -1       582 1.18142E+05 4.39303E-01 6.35410E+01-3.24613E+04-4.83851E-10-1.42563E-09
 -1       583 1.18147E+05 1.77246E+01 1.22137E+02-2.94692E+04-3.21961E-10-9.63837E-10
 -1       584 1.18198E+05 1.13956E+02 2.73512E+02-3.23298E+04-1.82990E-09 9.24274E-11
 -1       585 1.18128E+05 3.56380E+02 5.55952E+02-2.95850E+04-2.11458E-10 1.95269E-09
 -1       586-1.46839E+03 3.83458E+04-1.93869E+03-1.00517E+05 3.38787E-10 1.06451E-08
 -1       587-3.28328E+02 3.80875E+04-2.38248E+02-1.10610E+05 5.76620E-10 1.61845E-08
 -1       588 3.88605E+02 3.81381E+04 1.32709E+03-1.00456E+05 3.22871E-10 1.66701E-08
 -1       589 1.98402E+03 3.88637E+04 3.89475E+03-1.10519E+05 4.58385E-10 5.11864E-09
 -1       590 5.71979E+03 3.76458E+04 8.35235E+03-1.00609E+05 2.43745E-10 8.82983E-09
 -1       591-2.56338E+04-7.36820E+03-8.55428E+03-1.33274E+04-1.84920E-09-2.86036E-09
 -1       592-2.64284E+04-9.47572E+03-4.63335E+03-1.55657E+04-2.03801E-09-4.38865E-09
 -1       593-2.64986E+04-6.73789E+03-1.92890E+03-1.39447E+04-1.29864E-09 2.48247E-09
 -1       594-2.52358E+04-8.23261E+03-9.62051E+02-1.56249E+04 3.92731E-10-7.21116E-10
 -1       595-2.65647E+04-6.73515E+03-4.42126E+02-1.39730E+04-2.63401E-09 3.73277E-09
 -1       596-2.51550E+04-8.17571E+03-2.25387E+02-1.56164E+04 1.66017E-09-7.52621E-10
 -1       597-2.65730E+04-6.74066E+03-1.24078E+02-1.39741E+04 6.09532E-09 6.15799E-09
 -1       598-2.51474E+04-8.17352E+03-1.02215E+02-1.56141E+04 5.12827E-10-1.27039E-09
 -1       599-2.65725E+04-6.74061E+03-1.33621E+02-1.39740E+04-1.37567E-09-1.23049E-09
 -1       600-2.51562E+04-8.17638E+03-2.50715E+02-1.56164E+04-1.51203E-09-1.84488E-09
 -1       601-2.65622E+04-6.73448E+03-4.95831E+02-1.39724E+04 1.58104E-09-7.61247E-10
 -1       602-2.52472E+04-8.24017E+03-1.08140E+03-1.56252E+04 3.58835E-09-3.25980E-09
 -1       603-2.64873E+04-6.73846E+03-2.16893E+03-1.39409E+04 2.91084E-09-2.78578E-09
 -1       604-2.65927E+04-9.63319E+03-5.21031E+03-1.55525E+04 3.27941E-09-3.84341E-09
 -1       605-2.55093E+04-7.45130E+03-9.61928E+03-1.32514E+04 4.61330E-09 4.42014E-10
 -1       606 1.68693E+04-5.66450E+03-1.02049E+04 1.65105E+04-2.36378E-09 9.79526E-10
 -1       607 1.51218E+04-1.82686E+03-5.08169E+03 1.85339E+04-1.63072E-09-4.62774E-09
 -1       608 1.61182E+04-3.06968E+02-2.27515E+03 1.63787E+04 1.14778E-09-2.26419E-09
 -1       609 1.59224E+04-8.14226E+01-1.14933E+03 1.86796E+04-2.00089E-11-9.36780E-10
 -1       610 1.60316E+04 1.32115E+01-5.48636E+02 1.63640E+04-3.13503E-09-1.71326E-09
 -1       611 1.59962E+04 1.81940E+01-2.76857E+02 1.86956E+04-6.24550E-09 2.54147E-09
 -1       612 1.60113E+04 1.96513E+01-1.32269E+02 1.63626E+04-2.78578E-09 2.51521E-09
 -1       613 1.59992E+04 2.07633E+01-6.04211E+01 1.86975E+04-3.17618E-09-1.39835E-10
 -1       614 1.60013E+04 1.79948E+01-1.68337E+01 1.63621E+04-4.54293E-10 1.01770E-08
 -1       615 1.59956E+04 2.21031E+01 1.86019E+01 1.86978E+04 3.42038E-09 4.42026E-09
 -1       616 1.59937E+04 1.97997E+01 6.20343E+01 1.63622E+04-1.69348E-09-4.07454E-09
 -1       617 1.60017E+04 3.63486E+01 1.43830E+02 1.86976E+04 3.93243E-10-2.72075E-09
 -1       618 1.59801E+04 6.20488E+01 2.90840E+02 1.63623E+04-4.61341E-10-3.43653E-09
 -1       619 1.61036E+04 2.61963E+02 6.53674E+02 1.86972E+04-1.29086E-09-3.92720E-09
 -1       620 1.58828E+04 7.52772E+02 1.31407E+03 1.63619E+04 7.05654E-10-2.95722E-09
 -1       621 2.06644E+02 1.28299E+05 1.78234E+03 4.02105E+03-1.63787E-10-1.51010E-09
 -1       622 2.35953E+02 1.28740E+05 1.50968E+03 5.86954E+03-2.06512E-10 3.62024E-09
 -1       623 1.01934E+01 1.28427E+05 1.73220E+03 4.00208E+03-1.27841E-10 7.84155E-10
 -1       624 7.83105E+02 1.29243E+05 3.28592E+03 5.88816E+03-1.82808E-10-3.37536E-10
 -1       625 7.85958E+02 1.27794E+05 5.71080E+03 4.00260E+03-1.34150E-10-3.64432E-09
 -1       626 1.05723E+05 2.93579E+04 2.10706E+03 5.72439E+04-1.67211E-09 3.06409E-09
 -1       627 1.04268E+05 3.04309E+04 1.01497E+03 5.95653E+04-3.56158E-09 4.83942E-09
 -1       628 1.05806E+05 2.83589E+04 4.28967E+02 5.75626E+04 1.14051E-09 1.02773E-09
 -1       629 1.03967E+05 3.01909E+04 2.10100E+02 5.97074E+04 4.09636E-09 1.16216E-10
 -1       630 1.05814E+05 2.83099E+04 9.72929E+01 5.75727E+04 1.03500E-09 3.91367E-09
 -1       631 1.03932E+05 3.01846E+04 5.22394E+01 5.97110E+04-8.65020E-09 7.48095E-10
 -1       632 1.05811E+05 2.83125E+04 3.45676E+01 5.75694E+04-1.27557E-08-1.39836E-08
 -1       633 1.03927E+05 3.01870E+04 3.85679E+01 5.97083E+04-4.42174E-09-3.43681E-09
 -1       634 1.05807E+05 2.83122E+04 6.25186E+01 5.75675E+04-4.71027E-09 3.02362E-09
 -1       635 1.03930E+05 3.01876E+04 1.26794E+02 5.97087E+04-1.60406E-08 4.47358E-09
 -1       636 1.05800E+05 2.83116E+04 2.56184E+02 5.75658E+04-7.36628E-09 2.84194E-09
 -1       637 1.03982E+05 3.02285E+04 5.63097E+02 5.97060E+04 1.69720E-09 3.54544E-09
 -1       638 1.05778E+05 2.84375E+04 1.15741E+03 5.75075E+04-1.08355E-09 5.52291E-10
 -1       639 1.04586E+05 3.10757E+04 2.73816E+03 5.95253E+04-2.86627E-09-5.27143E-09
 -1       640 1.05695E+05 3.09589E+04 5.68262E+03 5.64368E+04 1.07116E-09 6.93285E-09
 -1       656 2.86805E+04-7.25888E+05-6.92495E+04-5.09377E+02 4.43833E-10 2.76054E-09
 -1       657-3.78955E+04-7.57166E+05-5.72678E+04 4.75813E+03 1.31695E-09-4.09273E-11
 -1       658 9.09194E+03-7.34815E+05-3.51431E+04-9.51906E+02 9.07335E-10-6.35196E-09
 -1       659-4.06227E+04-7.58450E+05-6.08495E+04 5.04914E+03 4.77485E-11-5.85224E-09
 -1       660 3.14002E+04-7.24606E+05-7.54165E+04-8.00380E+02 1.92813E-10 1.34898E-09
 -1       661 1.03432E+05 1.12353E+04 9.90934E+03 4.03791E+04 5.33419E-10 3.89036E-09
 -1       662 1.08563E+05 1.90375E+04 6.67720E+03 3.86897E+04-2.55417E-09-5.53734E-09
 -1       663 1.05371E+05 1.44215E+04 2.33575E+03 3.98227E+04-1.46053E-09-2.72905E-09
 -1       664 1.06322E+05 1.53053E+04 1.39637E+03 3.93634E+04 1.33690E-09-2.75310E-09
 -1       665 1.05658E+05 1.48629E+04 5.50873E+02 3.97448E+04-1.20335E-09-3.09954E-09
 -1       666 1.05987E+05 1.47953E+04 3.21143E+02 3.94610E+04-4.21575E-09 7.90051E-09
 -1       667 1.05704E+05 1.49182E+04 1.69344E+02 3.97301E+04 4.31456E-10-9.52785E-10
 -1       668 1.05941E+05 1.47484E+04 1.69497E+02 3.94807E+04 4.02330E-09-5.62657E-09
 -1       669 1.05704E+05 1.49085E+04 2.27132E+02 3.97256E+04 1.37696E-09-1.74637E-09
 -1       670 1.06003E+05 1.48636E+04 4.92215E+02 3.94747E+04 4.16794E-09-2.59985E-09
 -1       671 1.05642E+05 1.48055E+04 8.73302E+02 3.97352E+04 9.09758E-10-4.01883E-11
 -1       672 1.06517E+05 1.57082E+04 2.23370E+03 3.93462E+04-1.92212E-09-4.91013E-10
 -1       673 1.05193E+05 1.40852E+04 3.74315E+03 3.98459E+04-3.24280E-09-2.82830E-09
 -1       674 1.10085E+05 2.17172E+04 1.07050E+04 3.82937E+04-3.08546E-10-6.65977E-09
 -1       675 1.02097E+05 8.96461E+03 1.58891E+04 4.07245E+04 1.23214E-09-2.38833E-09
 -1       676 1.16967E+01-1.39497E+05-5.43306E+02 1.75038E+01-2.75676E-10-1.82373E-09
 -1       677-1.44213E+02-1.39628E+05-9.94274E+02-3.50020E+01-3.17173E-09-1.44202E-09
 -1       678 9.62893E+01-1.39403E+05-1.75759E+03 1.74861E+01-1.08651E-09 1.75433E-09
 -1       679-1.75780E+03-1.40689E+05-4.17499E+03-3.49233E+01-9.86802E-11-3.77554E-10
 -1       680 1.04898E+03-1.38436E+05-6.72875E+03 1.72240E+01-1.55069E-10 7.77600E-11
 -1       771-1.50065E+06-2.60813E+05-3.50075E+04-6.21292E+05-6.07179E-09-3.39060E-09
 -1       772-1.49084E+06-2.80978E+05-1.88132E+04-6.43778E+05-3.95812E-09 2.13822E-09
 -1       773-1.50530E+06-2.57210E+05-8.06764E+03-6.23224E+05-2.50293E-09 1.98997E-09
 -1       774-1.48570E+06-2.76780E+05-3.94180E+03-6.45671E+05 4.01633E-09-5.56611E-10
 -1       775-1.50623E+06-2.56642E+05-1.96038E+03-6.23342E+05-3.89264E-10 3.69255E-10
 -1       776-1.48555E+06-2.76755E+05-9.12625E+02-6.46564E+05 4.38558E-09 9.72796E-09
 -1       777-1.50683E+06-2.56221E+05-5.46340E+02-6.23390E+05 9.27685E-10 7.84894E-10
 -1       778-1.48569E+06-2.76870E+05-2.50088E+02-6.47297E+05 1.49157E-10 2.71393E-09
 -1       779-1.50730E+06-2.55862E+05-2.37770E+02-6.23431E+05-1.57161E-09-1.88902E-09
 -1       780-1.48584E+06-2.76972E+05-1.99205E+02-6.47890E+05-1.72440E-09 2.32376E-10
 -1       781-1.50764E+06-2.55573E+05-3.54863E+02-6.23459E+05-8.41464E-09-5.55110E-09
 -1       782-1.48602E+06-2.77082E+05-6.63728E+02-6.48327E+05-6.71844E-09-2.07126E-09
 -1       783-1.50784E+06-2.55387E+05-1.32735E+03-6.23463E+05-5.29326E-10-3.02151E-09
 -1       784-1.48689E+06-2.77976E+05-3.15149E+03-6.48558E+05-4.49563E-09-3.78714E-09
 -1       785-1.50738E+06-2.55711E+05-5.82560E+03-6.23047E+05-6.37465E-09 8.01720E-10
 -1       786 1.09643E+05-5.83965E+03 1.35094E+04 2.23581E+00 6.36245E-08 5.14046E-09
 -1       787 1.15497E+05 6.76046E+03 9.55783E+03-7.68549E+00 1.25952E-07 4.88694E-09
 -1       788 1.11901E+05-9.15428E+02 3.49657E+03 3.06491E+00 1.95948E-07 5.65660E-09
 -1       789 1.12866E+05 1.05920E+03 2.19695E+03-1.00501E+01 2.65533E-07 5.98911E-09
 -1       790 1.12274E+05-1.43006E+02 8.93963E+02 4.60047E+00 3.84195E-07-6.06127E-09
 -1       791 1.12431E+05 1.66166E+02 5.24965E+02-1.41010E+01 5.02796E-07 4.20881E-09
 -1       792 1.12336E+05-2.30603E+01 2.39771E+02 7.11589E+00 7.33166E-07-9.04680E-09
 -1       793 1.12360E+05 3.24750E+01 1.57493E+02-2.05744E+01 9.61554E-07 1.06200E-09
 -1       794 1.12344E+05-9.40274E+00 1.17236E+02 1.10740E+01 4.80877E-07-5.94393E-09
 -1       795 1.12368E+05 4.87322E+01 1.70412E+02-3.06530E+01 1.79827E-09 3.32108E-09
 -1       796 1.12329E+05-3.93054E+01 2.55770E+02 1.71947E+01 5.03282E-11 2.27445E-09
 -1       797 1.12484E+05 2.88183E+02 6.03483E+02-4.61733E+01-2.47882E-10-5.91690E-10
 -1       798 1.12228E+05-2.48677E+02 9.52738E+02 2.65945E+01-1.43530E-11 1.26778E-09
 -1       799 1.13198E+05 1.83611E+03 2.59741E+03-7.01172E+01-4.70626E-10 4.01789E-09
 -1       800 1.11614E+05-1.58599E+03 3.66921E+03 4.11388E+01-2.64606E-11 5.70526E-09
 -1       801-7.51315E+03 3.97557E+04 1.25820E+04 1.16485E+04 6.44673E-09-3.46915E-09
 -1       802 1.81013E+04 8.79904E+04 3.41510E+04-4.84714E+04 1.72695E-08-5.49919E-09
 -1       803-1.01754E+04 5.68670E+04 4.22595E+04 1.06275E+04 1.35660E-08 1.11797E-08
 -1       804 8.07299E+04 1.21337E+05 1.16204E+05-4.90914E+04 1.60526E-08 1.48030E-08
 -1       805-7.01612E+04 6.55362E+03 1.51228E+05 1.22674E+04 5.69707E-09 1.59317E-08
 -1       806-1.28261E+05-2.75403E+04-1.09251E+04-5.34757E+04 1.83263E-10-7.19410E-10
 -1       807-1.28897E+05-2.59822E+04-5.36721E+03-5.63798E+04-1.51886E-10-6.75550E-09
 -1       808-1.28571E+05-2.35930E+04-2.27682E+03-5.53287E+04 7.52516E-09 3.55272E-09
 -1       809-1.27752E+05-2.44923E+04-1.11309E+03-5.65352E+04 1.38381E-08 1.11518E-08
 -1       810-1.28620E+05-2.34536E+04-5.09658E+02-5.54106E+04 4.08397E-09 1.12004E-09
 -1       811-1.27664E+05-2.44333E+04-2.52756E+02-5.65225E+04 9.92827E-10 2.75350E-09
 -1       812-1.28629E+05-2.34636E+04-1.26069E+02-5.54107E+04-2.54931E-09-8.65487E-09
 -1       813-1.27653E+05-2.44347E+04-7.95073E+01-5.65163E+04-4.39741E-10-5.10568E-09
 -1       814-1.28628E+05-2.34670E+04-7.44195E+01-5.54093E+04-7.63748E-10-2.61753E-09
 -1       815-1.27655E+05-2.44358E+04-1.16521E+02-5.65151E+04-5.15683E-10 2.24884E-09
 -1       816-1.28622E+05-2.34656E+04-2.18195E+02-5.54081E+04 4.12001E-10 9.35552E-09
 -1       817-1.27694E+05-2.44565E+04-4.68023E+02-5.65119E+04 1.56297E-09 1.28844E-08
 -1       818-1.28595E+05-2.35307E+04-9.53699E+02-5.53775E+04 4.65207E-10 9.13587E-10
 -1       819-1.28221E+05-2.50287E+04-2.24494E+03-5.63852E+04-3.30829E-10-2.97405E-10
 -1       820-1.28414E+05-2.52280E+04-4.56865E+03-5.46545E+04-2.06910E-10 1.52681E-10
 -1       821-1.65890E+05 9.21087E+03-2.13039E+04 8.82976E+00-5.52475E-10 8.23093E-10
 -1       822-1.75121E+05-1.06631E+04-1.50749E+04-1.85803E+02-1.54910E-09 1.83968E-09
 -1       823-1.69453E+05 1.44393E+03-5.51781E+03-2.39843E+01 1.16708E-09-6.76209E-10
 -1       824-1.70970E+05-1.67130E+03-3.47236E+03-1.08696E+02-3.25583E-10 7.20320E-10
 -1       825-1.70040E+05 2.26076E+02-1.42646E+03-6.82800E+01-2.54518E-09 3.08114E-09
 -1       826-1.70287E+05-2.66648E+02-8.62750E+02-2.03594E+01-4.41893E-09 3.53602E-09
 -1       827-1.70136E+05 4.03033E+01-4.45099E+02-1.12322E+02-3.34404E-09-4.59433E-09
 -1       828-1.70193E+05-8.14873E+01-3.95101E+02 5.61428E+01-2.86979E-09-4.85536E-09
 -1       829-1.70134E+05 4.10644E+01-4.51679E+02-1.44784E+02-4.56303E-10 2.00757E-09
 -1       830-1.70293E+05-2.73077E+02-8.82813E+02 1.01152E+02 7.18249E-10-8.91802E-10
 -1       831-1.70035E+05 2.31790E+02-1.46128E+03-1.57332E+02-1.44087E-09 4.21068E-09
 -1       832-1.70994E+05-1.71367E+03-3.56072E+03 1.03374E+02-9.97490E-10 2.79556E-09
 -1       833-1.69434E+05 1.48061E+03-5.65780E+03-1.47006E+02-1.17798E-09 2.09320E-09
 -1       834-1.75248E+05-1.09343E+04-1.54586E+04 6.35516E+01-7.62986E-10 5.82759E-09
 -1       835-1.65782E+05 9.44517E+03-2.18463E+04-1.17505E+02 3.00962E-09 1.09776E-09
 -1       836-5.53191E+02 1.57372E+05 9.47305E+03-1.38844E+04 1.25146E-09 6.42899E-09
 -1       837 2.08162E+03 1.60307E+05 8.08312E+03-2.79029E+04 1.79580E-09 2.80215E-09
 -1       838-2.05389E+02 1.58192E+05 8.33029E+03-1.38361E+04 1.49976E-09 2.75134E-09
 -1       839 5.34067E+03 1.62742E+05 1.58519E+04-2.79207E+04 2.06023E-09 6.74220E-10
 -1       840-1.60937E+03 1.54923E+05 2.53158E+04-1.38659E+04 1.36333E-09 2.27067E-09
 -1       856-5.23016E+04 4.45466E+03-1.17381E+04-2.51437E+02-1.45531E-09 6.50289E-10
 -1       857-5.71515E+04-5.22541E+03-8.08179E+03 2.69012E+03-6.53586E-10 1.94223E-09
 -1       858-5.42177E+04 6.24372E+02-3.04634E+03-2.60001E+02-7.81711E-10-4.35648E-10
 -1       859-5.49501E+04-7.27082E+02-1.84011E+03 2.70356E+03 1.63195E-09 3.73916E-10
 -1       860-5.45044E+04 8.69773E+01-7.73734E+02-2.64939E+02 4.13110E-11-7.52436E-10
 -1       861-5.46194E+04-9.74811E+01-4.31183E+02 2.71025E+03-5.19339E-09 9.60029E-10
 -1       862-5.45490E+04 1.16667E+01-1.90270E+02-2.66700E+02 3.47943E-09 4.86634E-09
 -1       863-5.45667E+04-8.74617E+00-9.43531E+01 2.71104E+03 7.11945E-09-4.70884E-09
 -1       864-5.45572E+04 1.57341E-01-3.01293E+01-2.65729E+02 3.44895E-09-1.98552E-09
 -1       865-5.45520E+04 1.14491E+01 1.61837E+01 2.70604E+03 5.79676E-09 2.09001E-09
 -1       866-5.45631E+04-8.60119E+00 6.17965E+01-2.61703E+02-4.38632E-10-1.05241E-09
 -1       867-5.45164E+04 7.27689E+01 1.70257E+02 2.69516E+03 3.62377E-12-2.41716E-10
 -1       868-5.45915E+04-6.04450E+01 2.87959E+02-2.54844E+02 1.32650E-09-2.49003E-10
 -1       869-5.43018E+04 5.02715E+02 7.72515E+02 2.67650E+03 6.52562E-11-3.27293E-09
 -1       870-5.47760E+04-4.27423E+02 1.12127E+03-2.43053E+02 6.90534E-10-8.74877E-10
 -1       871-2.41167E+03-5.01467E+03-7.87342E+03 5.16093E+04 1.11413E-09 2.51930E-10
 -1       872-1.04507E+03-6.77223E+03-3.20579E+03 6.69066E+04 2.16232E-09-1.48543E-09
 -1       873-1.83581E+01-5.94099E+03 4.70874E+02 5.14946E+04 2.47178E-09 2.53249E-09
 -1       874 1.22334E+03-4.79250E+03 4.49622E+03 6.69310E+04 3.09092E-09 2.55477E-09
 -1       875 2.89336E+03-7.01442E+03 9.96473E+03 5.15884E+04 1.31831E-09-8.67203E-10
 -1       876 1.29385E+05 2.22930E+04 6.94064E+03 5.24882E+04-3.19426E-09-8.97217E-10
 -1       877 1.29779E+05 2.38192E+04 3.70635E+03 5.45453E+04-3.14003E-09-2.89043E-09
 -1       878 1.30035E+05 2.15239E+04 1.55286E+03 5.30579E+04 2.75099E-09 1.18212E-09
 -1       879 1.28834E+05 2.28793E+04 7.73480E+02 5.45959E+04 9.09608E-10 3.81306E-10
 -1       880 1.30083E+05 2.15146E+04 3.60130E+02 5.30811E+04 2.64674E-09 8.53106E-09
 -1       881 1.28772E+05 2.28396E+04 1.91732E+02 5.45871E+04 3.93794E-09-1.29478E-09
 -1       882 1.30088E+05 2.15199E+04 1.21739E+02 5.30818E+04 5.32600E-09 4.04379E-09
 -1       883 1.28768E+05 2.28379E+04 1.29341E+02 5.45849E+04 5.69315E-10 6.02716E-09
 -1       884 1.30086E+05 2.15182E+04 2.04403E+02 5.30819E+04 3.18778E-10 3.39156E-10
 -1       885 1.28784E+05 2.28408E+04 4.10126E+02 5.45902E+04 3.03953E-09 1.77499E-09
 -1       886 1.30070E+05 2.15063E+04 8.26235E+02 5.30803E+04 3.69134E-09 2.97621E-09
 -1       887 1.28929E+05 2.29359E+04 1.80472E+03 5.46108E+04 6.10541E-10-4.22006E-10
 -1       888 1.29956E+05 2.15267E+04 3.63662E+03 5.30225E+04-2.04992E-09-1.15278E-10
 -1       889 1.31096E+05 2.51858E+04 8.68792E+03 5.45413E+04 4.61428E-09 2.43836E-09
 -1       890 1.28473E+05 2.32874E+04 1.62714E+04 5.16362E+04 2.00271E-09-4.93947E-09
 -1       891-7.79347E+01-7.36127E+04-8.65803E+02 1.40218E+04 8.15021E-10 1.10329E-08
 -1       892-1.35805E+02-7.38225E+04-9.43402E+02 2.12226E+04-1.49703E-09 1.49817E-08
 -1       893-1.86751E+01-7.36419E+04-1.34918E+03 1.40243E+04-3.12639E-11 9.10427E-09
 -1       894-7.31097E+02-7.43466E+04-2.80293E+03 2.11478E+04-1.61435E-10 4.96016E-09
 -1       895-5.69012E+02-7.30635E+04-4.93862E+03 1.40959E+04-1.24697E-09 4.02861E-09
 -1       956-1.62466E+05-2.34508E+03-5.90443E+03 1.07274E+04-2.33013E-09 3.80589E-09
 -1       957-1.63632E+05-7.91962E+02-3.03130E+03 1.29125E+04-1.28784E-09-9.57357E-10
 -1       958-1.62987E+05-6.37979E+01-1.36550E+03 1.06577E+04 1.97497E-09-8.51060E-10
 -1       959-1.63079E+05-1.31153E+01-6.97570E+02 1.29878E+04-2.01453E-10 4.71641E-09
 -1       960-1.63032E+05 1.75060E+01-3.39919E+02 1.06513E+04-2.84126E-09 1.67347E-09
 -1       961-1.63037E+05 1.50311E+01-1.80274E+02 1.29949E+04-4.35705E-09-3.20779E-09
 -1       962-1.63040E+05 1.41671E+01-1.02881E+02 1.06505E+04-2.16005E-09-1.83695E-09
 -1       963-1.63034E+05 1.50430E+01-8.21119E+01 1.29960E+04-3.18317E-09 3.20620E-09
 -1       964-1.63041E+05 1.48720E+01-9.90045E+01 1.06502E+04-1.02017E-09 2.72530E-09
 -1       965-1.63040E+05 1.66405E+01-1.70516E+02 1.29960E+04 2.53513E-09-1.53443E-09
 -1       966-1.63036E+05 1.95583E+01-3.19686E+02 1.06506E+04-1.47105E-09-2.54113E-09
 -1       967-1.63082E+05-8.16647E+00-6.55477E+02 1.29921E+04-7.61361E-10 2.00163E-09
 -1       968-1.62997E+05-5.52760E+01-1.28252E+03 1.06542E+04-7.74435E-10 1.08793E-09
 -1       969-1.63604E+05-7.38374E+02-2.84753E+03 1.29483E+04 1.19280E-09-7.90862E-10
 -1       970-1.62509E+05-2.19728E+03-5.54611E+03 1.06955E+04 1.34446E-09-2.70120E-09
 -1       971-1.54475E+05-8.17736E+02-4.54997E+03 7.61258E+03-2.93448E-09-6.44178E-10
 -1       972-1.55582E+05-5.88065E+02-2.47824E+03 1.06221E+04-2.58319E-09-3.50155E-11
 -1       973-1.54979E+05-6.19107E+00-1.10933E+03 7.55042E+03-1.41381E-09-1.97610E-09
 -1       974-1.55054E+05-8.38419E+00-5.74826E+02 1.06887E+04 1.79102E-09-1.43888E-09
 -1       975-1.55016E+05 1.35350E+01-2.86446E+02 7.54546E+03 5.89307E-09 2.84609E-09
 -1       976-1.55021E+05 1.40318E+01-1.64071E+02 1.06944E+04 7.16318E-09 2.89754E-09
 -1       977-1.55022E+05 1.23681E+01-1.16696E+02 7.54465E+03 7.27448E-09 1.57837E-09
 -1       978-1.55021E+05 1.58552E+01-1.33456E+02 1.06955E+04 1.03055E-08-5.17048E-10
 -1       979-1.55021E+05 1.54774E+01-2.11627E+02 7.54433E+03 6.19394E-09-3.25048E-09
 -1       980-1.55036E+05 1.69395E+01-4.06876E+02 1.06957E+04 3.33846E-09-1.16620E-09
 -1       981-1.55008E+05 2.56734E+01-7.87009E+02 7.54454E+03 5.28644E-11 3.25031E-09
 -1       982-1.55145E+05-4.07581E+01-1.62615E+03 1.06928E+04-3.01566E-09-4.61709E-09
 -1       983-1.54910E+05-2.40135E+01-3.15915E+03 7.54727E+03-6.48015E-10 3.45517E-09
 -1       984-1.56666E+05-1.68942E+03-7.07428E+03 1.06507E+04-1.47634E-09 3.66026E-09
 -1       985-1.53481E+05-2.33493E+03-1.29906E+04 7.58884E+03 1.36697E-09 1.34787E-09
 -3
    1PSTEP                         5           3           1          
  100CL  103 3.75000E-01         409                     0    3           1
 -4  DISP        4    1
 -5  D1          1    2    1    0
 -5  D2          1    2    2    0
 -5  D3          1    2    3    0
 -5  ALL         1    2    0    0    1ALL
 -1         1 9.83586E-05 0.00000E+00 0.00000E+00
 -1         2 9.08375E-05 7.11694E-30 0.00000E+00
 -1         3 8.39950E-05-4.50660E-27-6.61744E-24
 -1         5 6.07434E-05 1.78136E-26 0.00000E+00
 -1         8 7.85451E-05-7.17934E-07 0.00000E+00
 -1         9 7.99001E-05 4.91751E-07 0.00000E+00
 -1        10 7.78930E-05-1.14147E-06-3.30872E-24
 -1        12 6.03162E-05 4.08874E-07 0.00000E+00
 -1        15 5.49666E-05-7.81940E-07 2.06795E-25
 -1        16 5.68309E-05 3.86798E-07 0.00000E+00
 -1        17 5.82886E-05-2.40078E-06 0.00000E+00
 -1        18 5.82450E-05 1.45698E-07 0.00000E+00
 -1        19 5.90350E-05 8.15494E-07 0.00000E+00
 -1        20 5.91418E-05 1.21289E-05 0.00000E+00
 -1        21 5.87400E-05 2.29425E-05 0.00000E+00
 -1        24 1.47896E-05-3.25208E-06 0.00000E+00
 -1        25 5.68747E-05 2.39446E-07 0.00000E+00
 -1        26 5.76249E-05 1.13636E-06 0.00000E+00
 -1        27 5.64940E-05 1.03122E-05 0.00000E+00
 -1        28 5.61272E-05 2.25931E-05 0.00000E+00
 -1        32 0.00000E+00 0.00000E+00 0.00000E+00
 -1        33 5.52351E-05 1.52386E-06 0.00000E+00
 -1        34 5.41427E-05 1.02960E-05 0.00000E+00
 -1        35 5.31040E-05 2.24088E-05 0.00000E+00
 -1        51 9.70699E-05-1.18535E-07 0.00000E+00
 -1        52 9.46813E-05-2.33887E-07 0.00000E+00
 -1        53 9.14093E-05-3.50136E-07 0.00000E+00
 -1        54 8.74789E-05-4.68394E-07 0.00000E+00
 -1        55 8.31154E-05-5.89321E-07 2.06795E-24
 -1        56 9.74687E-05-5.71779E-07 0.00000E+00
 -1        57 9.66875E-05-1.53450E-06 1.32349E-23
 -1        58 9.60133E-05-2.77768E-06 0.00000E+00
 -1        59 9.53997E-05-4.19996E-06 0.00000E+00
 -1        60 9.48099E-05-5.68658E-06 0.00000E+00
 -1        61 9.42004E-05-7.12370E-06-1.32349E-23
 -1        62 9.35304E-05-8.39931E-06 0.00000E+00
 -1        63 9.27594E-05-9.40561E-06 0.00000E+00
 -1        64 9.18520E-05-1.00476E-05 0.00000E+00
 -1        65 9.07756E-05-1.02387E-05 0.00000E+00
 -1        66 8.95058E-05-9.91421E-06 0.00000E+00
 -1        67 8.80232E-05-9.02109E-06 1.32349E-23
 -1        68 8.63171E-05-7.53410E-06 0.00000E+00
 -1        69 8.43877E-05-5.43983E-06 0.00000E+00
 -1        70 8.22342E-05-2.75813E-06 0.00000E+00
 -1        86 9.05534E-05 8.80568E-08 0.00000E+00
 -1        87 8.97002E-05 1.75360E-07 0.00000E+00
 -1        88 8.82500E-05 2.61936E-07-1.65436E-24
 -1        89 8.61730E-05 3.44672E-07 5.16988E-26
 -1        90 8.34103E-05 4.26744E-07 0.00000E+00
 -1       121 8.38248E-05-1.89524E-07 0.00000E+00
 -1       122 8.33147E-05-3.79163E-07 0.00000E+00
 -1       123 8.24651E-05-5.69031E-07-6.61744E-24
 -1       124 8.12772E-05-7.59273E-07 0.00000E+00
 -1       125 7.97524E-05-9.49946E-07 0.00000E+00
 -1       191 6.07316E-05 6.81513E-08 0.00000E+00
 -1       192 6.06960E-05 1.36301E-07-1.65436E-24
 -1       193 6.06366E-05 2.04450E-07 0.00000E+00
 -1       194 6.05536E-05 2.72597E-07 0.00000E+00
 -1       195 6.04468E-05 3.40739E-07 0.00000E+00
 -1       251 7.86120E-05 2.53096E-06-3.30872E-24
 -1       252 7.86967E-05 4.44188E-06 0.00000E+00
 -1       253 7.87820E-05 5.25117E-06 0.00000E+00
 -1       254 7.88704E-05 5.19089E-06-8.27181E-25
 -1       255 7.89587E-05 4.45241E-06 3.30872E-24
 -1       256 7.90470E-05 3.22454E-06 0.00000E+00
 -1       257 7.91350E-05 1.67303E-06 0.00000E+00
 -1       258 7.92228E-05-3.75713E-08 1.65436E-24
 -1       259 7.93106E-05-1.75027E-06 0.00000E+00
 -1       260 7.93985E-05-3.30803E-06 0.00000E+00
 -1       261 7.94868E-05-4.54650E-06 0.00000E+00
 -1       262 7.95751E-05-5.30020E-06 0.00000E+00
 -1       263 7.96634E-05-5.38074E-06 0.00000E+00
 -1       264 7.97487E-05-4.59721E-06-2.58494E-26
 -1       265 7.98335E-05-2.71823E-06 3.30872E-24
 -1       266 7.46154E-05-7.38357E-07 3.30872E-24
 -1       267 7.06856E-05-7.47835E-07 0.00000E+00
 -1       268 6.67559E-05-7.58007E-07 8.27181E-25
 -1       269 6.28261E-05-7.66126E-07 0.00000E+00
 -1       270 5.88963E-05-7.74196E-07 4.13590E-25
 -1       271 7.61533E-05 2.21222E-06-2.64698E-23
 -1       272 7.41224E-05 4.07349E-06 0.00000E+00
 -1       273 7.24469E-05 4.99597E-06 0.00000E+00
 -1       274 7.10700E-05 5.10681E-06-1.32349E-23
 -1       275 6.99430E-05 4.55037E-06 0.00000E+00
 -1       276 6.90078E-05 3.47873E-06 0.00000E+00
 -1       277 6.82051E-05 2.05255E-06 0.00000E+00
 -1       278 6.74728E-05 4.37448E-07 1.32349E-23
 -1       279 6.67481E-05-1.19795E-06 0.00000E+00
 -1       280 6.59679E-05-2.68467E-06-1.32349E-23
 -1       281 6.50699E-05-3.85621E-06-2.64698E-23
 -1       282 6.39940E-05-4.55058E-06 0.00000E+00
 -1       283 6.26817E-05-4.61351E-06 2.64698E-23
 -1       284 6.10814E-05-3.89866E-06-1.32349E-23
 -1       285 5.91376E-05-2.27484E-06 2.64698E-23
 -1       301 7.59879E-05 4.69611E-07 0.00000E+00
 -1       302 7.20788E-05 4.59090E-07 0.00000E+00
 -1       303 6.81906E-05 4.48929E-07 0.00000E+00
 -1       304 6.43414E-05 4.37498E-07 0.00000E+00
 -1       305 6.05489E-05 4.24289E-07 0.00000E+00
 -1       306 7.74295E-05 3.40142E-06 2.64698E-23
 -1       307 7.53245E-05 5.22337E-06 0.00000E+00
 -1       308 7.36358E-05 5.94838E-06 0.00000E+00
 -1       309 7.23466E-05 5.58867E-06 0.00000E+00
 -1       310 7.14092E-05 4.28946E-06 0.00000E+00
 -1       311 7.07552E-05 2.22796E-06 0.00000E+00
 -1       312 7.02855E-05-3.28071E-07 0.00000E+00
 -1       313 6.98935E-05-3.09300E-06 2.64698E-23
 -1       314 6.94635E-05-5.75614E-06-2.64698E-23
 -1       315 6.88814E-05-8.01056E-06-1.32349E-23
 -1       316 6.80505E-05-9.59820E-06 0.00000E+00
 -1       317 6.68841E-05-1.02852E-05-1.32349E-23
 -1       318 6.53322E-05-9.94439E-06 0.00000E+00
 -1       319 6.33675E-05-8.48338E-06 0.00000E+00
 -1       320 6.09938E-05-5.94768E-06 0.00000E+00
 -1       336 7.56568E-05-1.34871E-06 6.61744E-24
 -1       337 7.30020E-05-1.55722E-06 0.00000E+00
 -1       338 6.99324E-05-1.76680E-06-6.61744E-24
 -1       339 6.64531E-05-1.97739E-06 0.00000E+00
 -1       340 6.25697E-05-2.18944E-06 0.00000E+00
 -1       406 6.01620E-05 4.76998E-07 0.00000E+00
 -1       407 5.99840E-05 5.45096E-07 0.00000E+00
 -1       408 5.97822E-05 6.13148E-07 0.00000E+00
 -1       409 5.95567E-05 6.81070E-07 0.00000E+00
 -1       410 5.93076E-05 7.48728E-07 0.00000E+00
 -1       521 5.35157E-05 2.22322E-06-5.29396E-23
 -1       522 5.08556E-05 2.09351E-06 0.00000E+00
 -1       523 4.88887E-05 1.28890E-07 0.00000E+00
 -1       524 4.75107E-05-3.45507E-06 0.00000E+00
 -1       525 4.65469E-05-8.15461E-06 5.29396E-23
 -1       526 4.57820E-05-1.33982E-05 0.00000E+00
 -1       527 4.49714E-05-1.85191E-05 0.00000E+00
 -1       528 4.38710E-05-2.28598E-05 0.00000E+00
 -1       529 4.22855E-05-2.58967E-05 0.00000E+00
 -1       530 4.00497E-05-2.71917E-05-2.64698E-23
 -1       531 3.71079E-05-2.66067E-05-5.29396E-23
 -1       532 3.34525E-05-2.41249E-05 0.00000E+00
 -1       533 2.91953E-05-2.00564E-05 5.29396E-23
 -1       534 2.45035E-05-1.48085E-05 0.00000E+00
 -1       535 1.95927E-05-9.00072E-06 5.29396E-23
 -1       536 5.82728E-05 1.58504E-06-1.65436E-24
 -1       537 5.82664E-05 4.59162E-06 0.00000E+00
 -1       538 5.82617E-05 6.71749E-06 8.27181E-25
 -1       539 5.82595E-05 8.06122E-06 2.06795E-25
 -1       540 5.82580E-05 8.72326E-06 0.00000E+00
 -1       541 5.82570E-05 8.80411E-06-5.16988E-26
 -1       542 5.82559E-05 8.40549E-06 0.00000E+00
 -1       543 5.82546E-05 7.62919E-06 0.00000E+00
 -1       544 5.82531E-05 6.57775E-06 0.00000E+00
 -1       545 5.82515E-05 5.35372E-06 0.00000E+00
 -1       546 5.82497E-05 4.06003E-06-6.46235E-27
 -1       547 5.82481E-05 2.79961E-06 0.00000E+00
 -1       548 5.82466E-05 1.67530E-06 0.00000E+00
 -1       549 5.82456E-05 7.89958E-07-1.03398E-25
 -1       550 5.82447E-05 2.45975E-07 0.00000E+00
 -1       551 5.25762E-05-2.52943E-06-3.30872E-24
 -1       552 4.56858E-05-2.66303E-06 0.00000E+00
 -1       553 3.80368E-05-2.80192E-06 3.30872E-24
 -1       554 3.00547E-05-2.94520E-06 0.00000E+00
 -1       555 2.21649E-05-3.08992E-06-1.32349E-23
 -1       556 5.68045E-05 1.44531E-06 0.00000E+00
 -1       557 5.56709E-05 4.38381E-06-6.61744E-24
 -1       558 5.48495E-05 6.49848E-06-1.32349E-23
 -1       559 5.43054E-05 7.87969E-06 0.00000E+00
 -1       560 5.40036E-05 8.61758E-06 0.00000E+00
 -1       561 5.39096E-05 8.80281E-06 0.00000E+00
 -1       562 5.39889E-05 8.52609E-06 6.61744E-24
 -1       563 5.42074E-05 7.87822E-06 0.00000E+00
 -1       564 5.45308E-05 6.95008E-06-3.30872E-24
 -1       565 5.49251E-05 5.83256E-06 0.00000E+00
 -1       566 5.53561E-05 4.61657E-06 0.00000E+00
 -1       567 5.57900E-05 3.39308E-06 4.13590E-25
 -1       568 5.61928E-05 2.25299E-06 0.00000E+00
 -1       569 5.65303E-05 1.28712E-06 0.00000E+00
 -1       570 5.67687E-05 5.86332E-07 0.00000E+00
 -1       571 5.82929E-05 2.19511E-07-2.06795E-25
 -1       572 5.83419E-05 2.60582E-07-8.27181E-25
 -1       573 5.83912E-05 2.74725E-07 0.00000E+00
 -1       574 5.84407E-05 2.68064E-07 8.27181E-25
 -1       575 5.84902E-05 2.46747E-07 8.27181E-25
 -1       576 5.85397E-05 2.16965E-07 0.00000E+00
 -1       577 5.85893E-05 1.84911E-07 1.65436E-24
 -1       578 5.86388E-05 1.56786E-07 8.27181E-25
 -1       579 5.86884E-05 1.38788E-07 0.00000E+00
 -1       580 5.87379E-05 1.37116E-07 3.30872E-24
 -1       581 5.87875E-05 1.57971E-07 3.30872E-24
 -1       582 5.88370E-05 2.07544E-07 0.00000E+00
 -1       583 5.88866E-05 2.92022E-07 0.00000E+00
 -1       584 5.89361E-05 4.17526E-07 0.00000E+00
 -1       585 5.89856E-05 5.90145E-07-3.30872E-24
 -1       586 5.80002E-05 1.62296E-07-8.27181E-25
 -1       587 5.77343E-05 1.78476E-07 0.00000E+00
 -1       588 5.74680E-05 1.94476E-07 4.13590E-25
 -1       589 5.72221E-05 2.10223E-07 0.00000E+00
 -1       590 5.70176E-05 2.25543E-07 0.00000E+00
 -1       591 5.81943E-05 2.44591E-07-5.16988E-26
 -1       592 5.81519E-05 3.16301E-07 0.00000E+00
 -1       593 5.81176E-05 3.65987E-07 0.00000E+00
 -1       594 5.80896E-05 3.98302E-07 0.00000E+00
 -1       595 5.80663E-05 4.17959E-07-4.13590E-25
 -1       596 5.80460E-05 4.29635E-07 0.00000E+00
 -1       597 5.80269E-05 4.38006E-07-4.13590E-25
 -1       598 5.80072E-05 4.47746E-07 0.00000E+00
 -1       599 5.79853E-05 4.63526E-07 0.00000E+00
 -1       600 5.79594E-05 4.90018E-07-1.03398E-25
 -1       601 5.79277E-05 5.31893E-07-2.06795E-25
 -1       602 5.78886E-05 5.93828E-07 0.00000E+00
 -1       603 5.78402E-05 6.80500E-07 5.16988E-26
 -1       604 5.77810E-05 7.96623E-07-5.16988E-26
 -1       605 5.77092E-05 9.46849E-07 0.00000E+00
 -1       606 5.90442E-05 1.15368E-06 0.00000E+00
 -1       607 5.90516E-05 1.56271E-06 0.00000E+00
 -1       608 5.90586E-05 2.03843E-06 0.00000E+00
 -1       609 5.90653E-05 2.57614E-06 0.00000E+00
 -1       610 5.90719E-05 3.17115E-06 0.00000E+00
 -1       611 5.90784E-05 3.81866E-06 0.00000E+00
 -1       612 5.90849E-05 4.51389E-06 0.00000E+00
 -1       613 5.90914E-05 5.25207E-06 8.27181E-25
 -1       614 5.90978E-05 6.02841E-06 0.00000E+00
 -1       615 5.91042E-05 6.83810E-06 0.00000E+00
 -1       616 5.91106E-05 7.67638E-06 0.00000E+00
 -1       617 5.91169E-05 8.53845E-06-4.13590E-25
 -1       618 5.91233E-05 9.41951E-06 0.00000E+00
 -1       619 5.91295E-05 1.03148E-05 0.00000E+00
 -1       620 5.91358E-05 1.12195E-05 0.00000E+00
 -1       621 5.87661E-05 8.69007E-07-1.65436E-24
 -1       622 5.85162E-05 9.22783E-07 0.00000E+00
 -1       623 5.82812E-05 9.76551E-07 0.00000E+00
 -1       624 5.80570E-05 1.03024E-06-8.27181E-25
 -1       625 5.78396E-05 1.08383E-06 0.00000E+00
 -1       626 5.89653E-05 1.17047E-06 0.00000E+00
 -1       627 5.88741E-05 1.58413E-06 1.65436E-24
 -1       628 5.87630E-05 2.05102E-06 0.00000E+00
 -1       629 5.86341E-05 2.56535E-06 0.00000E+00
 -1       630 5.84896E-05 3.12132E-06-3.30872E-24
 -1       631 5.83317E-05 3.71307E-06 0.00000E+00
 -1       632 5.81625E-05 4.33476E-06 0.00000E+00
 -1       633 5.79843E-05 4.98054E-06-8.27181E-25
 -1       634 5.77993E-05 5.64457E-06 0.00000E+00
 -1       635 5.76095E-05 6.32099E-06-8.27181E-25
 -1       636 5.74173E-05 7.00396E-06 0.00000E+00
 -1       637 5.72249E-05 7.68763E-06 0.00000E+00
 -1       638 5.70343E-05 8.36614E-06 1.65436E-24
 -1       639 5.68477E-05 9.03367E-06 0.00000E+00
 -1       640 5.66671E-05 9.68433E-06 1.65436E-24
 -1       656 5.83857E-05 1.18333E-05 0.00000E+00
 -1       657 5.78956E-05 1.15259E-05 3.30872E-24
 -1       658 5.75692E-05 1.12195E-05 0.00000E+00
 -1       659 5.73023E-05 1.09133E-05-3.30872E-24
 -1       660 5.69814E-05 1.06061E-05-3.30872E-24
 -1       661 5.88622E-05 1.30200E-05 0.00000E+00
 -1       662 5.85992E-05 1.38732E-05 0.00000E+00
 -1       663 5.83499E-05 1.46894E-05 0.00000E+00
 -1       664 5.81143E-05 1.54704E-05-8.27181E-25
 -1       665 5.78914E-05 1.62176E-05 1.65436E-24
 -1       666 5.76808E-05 1.69325E-05 8.27181E-25
 -1       667 5.74817E-05 1.76165E-05 1.65436E-24
 -1       668 5.72937E-05 1.82711E-05-8.27181E-25
 -1       669 5.71163E-05 1.88975E-05-1.65436E-24
 -1       670 5.69490E-05 1.94970E-05 0.00000E+00
 -1       671 5.67913E-05 2.00708E-05 1.65436E-24
 -1       672 5.66427E-05 2.06201E-05-8.27181E-25
 -1       673 5.65028E-05 2.11461E-05-1.65436E-24
 -1       674 5.63708E-05 2.16496E-05 4.13590E-25
 -1       675 5.62468E-05 2.21321E-05 4.13590E-25
 -1       676 5.83036E-05 2.28839E-05 0.00000E+00
 -1       677 5.78675E-05 2.28254E-05 8.27181E-25
 -1       678 5.74316E-05 2.27668E-05 0.00000E+00
 -1       679 5.69962E-05 2.27085E-05 0.00000E+00
 -1       680 5.65613E-05 2.26502E-05 0.00000E+00
 -1       771 1.18348E-05 2.34775E-06 0.00000E+00
 -1       772 9.26043E-06 6.92866E-06 0.00000E+00
 -1       773 7.05028E-06 1.05490E-05 2.64698E-23
 -1       774 5.17985E-06 1.32706E-05 0.00000E+00
 -1       775 3.62510E-06 1.51563E-05-2.64698E-23
 -1       776 2.36100E-06 1.62708E-05-1.32349E-23
 -1       777 1.36228E-06 1.66799E-05 0.00000E+00
 -1       778 6.03202E-07 1.64506E-05-3.97047E-23
 -1       779 5.78610E-08 1.56512E-05 0.00000E+00
 -1       780-3.00033E-07 1.43510E-05 0.00000E+00
 -1       781-4.96852E-07 1.26198E-05 2.64698E-23
 -1       782-5.59261E-07 1.05286E-05-1.32349E-23
 -1       783-5.13974E-07 8.14885E-06 2.64698E-23
 -1       784-3.87851E-07 5.55250E-06-1.32349E-23
 -1       785-2.07852E-07 2.81190E-06 0.00000E+00
 -1       786 5.69189E-05 2.41260E-07 4.13590E-25
 -1       787 5.69656E-05 2.45006E-07 0.00000E+00
 -1       788 5.70122E-05 2.51090E-07-1.65436E-24
 -1       789 5.70593E-05 2.59923E-07 0.00000E+00
 -1       790 5.71065E-05 2.72211E-07-1.65436E-24
 -1       791 5.71537E-05 2.88667E-07 0.00000E+00
 -1       792 5.72009E-05 3.10457E-07 0.00000E+00
 -1       793 5.72481E-05 3.38755E-07 0.00000E+00
 -1       794 5.72954E-05 3.75440E-07 1.65436E-24
 -1       795 5.73426E-05 4.22407E-07 0.00000E+00
 -1       796 5.73899E-05 4.82661E-07-1.65436E-24
 -1       797 5.74371E-05 5.59236E-07 0.00000E+00
 -1       798 5.74843E-05 6.56927E-07 1.65436E-24
 -1       799 5.75314E-05 7.80573E-07-8.27181E-25
 -1       800 5.75785E-05 9.37815E-07 0.00000E+00
 -1       801 5.30310E-05 2.53868E-07 0.00000E+00
 -1       802 4.16027E-05 2.13353E-07 0.00000E+00
 -1       803 2.65886E-05 1.29484E-07 1.65436E-24
 -1       804 1.19833E-05 4.60587E-08-3.30872E-24
 -1       805 1.78491E-06 1.39070E-08 1.32349E-23
 -1       806 5.68165E-05 2.09011E-07 1.65436E-24
 -1       807 5.67561E-05 1.78434E-07 8.27181E-25
 -1       808 5.66938E-05 1.51389E-07 0.00000E+00
 -1       809 5.66288E-05 1.30998E-07 0.00000E+00
 -1       810 5.65601E-05 1.20377E-07 1.65436E-24
 -1       811 5.64865E-05 1.22596E-07 0.00000E+00
 -1       812 5.64070E-05 1.40723E-07-1.65436E-24
 -1       813 5.63203E-05 1.77817E-07 0.00000E+00
 -1       814 5.62253E-05 2.36937E-07 1.65436E-24
 -1       815 5.61210E-05 3.21139E-07 8.27181E-25
 -1       816 5.60061E-05 4.33476E-07 0.00000E+00
 -1       817 5.58795E-05 5.77002E-07 0.00000E+00
 -1       818 5.57401E-05 7.54770E-07 0.00000E+00
 -1       819 5.55868E-05 9.69819E-07 0.00000E+00
 -1       820 5.54186E-05 1.22519E-06 8.27181E-25
 -1       821 5.75583E-05 1.36693E-06-8.27181E-25
 -1       822 5.74876E-05 1.62055E-06 0.00000E+00
 -1       823 5.74172E-05 1.91605E-06 0.00000E+00
 -1       824 5.73459E-05 2.27210E-06 0.00000E+00
 -1       825 5.72746E-05 2.69832E-06 1.65436E-24
 -1       826 5.72032E-05 3.20409E-06 8.27181E-25
 -1       827 5.71316E-05 3.78690E-06-1.65436E-24
 -1       828 5.70600E-05 4.44398E-06 0.00000E+00
 -1       829 5.69884E-05 5.16144E-06 0.00000E+00
 -1       830 5.69167E-05 5.92520E-06 8.27181E-25
 -1       831 5.68451E-05 6.71426E-06 1.65436E-24
 -1       832 5.67736E-05 7.50751E-06-8.27181E-25
 -1       833 5.67021E-05 8.28324E-06 0.00000E+00
 -1       834 5.66315E-05 9.01978E-06 8.27181E-25
 -1       835 5.65606E-05 9.70132E-06-8.27181E-25
 -1       836 5.73348E-05 1.20087E-06 0.00000E+00
 -1       837 5.69592E-05 1.26681E-06 0.00000E+00
 -1       838 5.65297E-05 1.33262E-06 1.65436E-24
 -1       839 5.60781E-05 1.39801E-06 0.00000E+00
 -1       840 5.56360E-05 1.46329E-06-2.06795E-25
 -1       856 5.64736E-05 1.09293E-05 0.00000E+00
 -1       857 5.64510E-05 1.16243E-05 0.00000E+00
 -1       858 5.64284E-05 1.23848E-05-4.13590E-25
 -1       859 5.64053E-05 1.31985E-05-4.13590E-25
 -1       860 5.63822E-05 1.40531E-05-8.27181E-25
 -1       861 5.63590E-05 1.49361E-05 4.13590E-25
 -1       862 5.63358E-05 1.58351E-05 8.27181E-25
 -1       863 5.63126E-05 1.67376E-05 4.13590E-25
 -1       864 5.62894E-05 1.76311E-05 0.00000E+00
 -1       865 5.62661E-05 1.85033E-05 4.13590E-25
 -1       866 5.62429E-05 1.93416E-05 0.00000E+00
 -1       867 5.62198E-05 2.01337E-05 0.00000E+00
 -1       868 5.61966E-05 2.08671E-05 8.27181E-25
 -1       869 5.61735E-05 2.15297E-05-4.13590E-25
 -1       870 5.61504E-05 2.21091E-05 0.00000E+00
 -1       871 5.60230E-05 1.03116E-05-4.13590E-25
 -1       872 5.56267E-05 1.03095E-05 0.00000E+00
 -1       873 5.52730E-05 1.03070E-05-2.06795E-25
 -1       874 5.49293E-05 1.03042E-05 1.55096E-25
 -1       875 5.45633E-05 1.03011E-05 0.00000E+00
 -1       876 5.63305E-05 1.09357E-05-1.65436E-24
 -1       877 5.61544E-05 1.15972E-05-8.27181E-25
 -1       878 5.59659E-05 1.22919E-05 0.00000E+00
 -1       879 5.57666E-05 1.30156E-05 8.27181E-25
 -1       880 5.55582E-05 1.37641E-05 0.00000E+00
 -1       881 5.53420E-05 1.45330E-05-8.27181E-25
 -1       882 5.51198E-05 1.53181E-05 0.00000E+00
 -1       883 5.48931E-05 1.61152E-05 0.00000E+00
 -1       884 5.46635E-05 1.69199E-05 0.00000E+00
 -1       885 5.44326E-05 1.77281E-05 0.00000E+00
 -1       886 5.42020E-05 1.85354E-05-1.65436E-24
 -1       887 5.39732E-05 1.93377E-05-8.27181E-25
 -1       888 5.37479E-05 2.01305E-05 1.65436E-24
 -1       889 5.35273E-05 2.09097E-05 0.00000E+00
 -1       890 5.33131E-05 2.16708E-05 8.27181E-25
 -1       891 5.57082E-05 2.25623E-05 0.00000E+00
 -1       892 5.52758E-05 2.25313E-05 0.00000E+00
 -1       893 5.48145E-05 2.25004E-05 4.13590E-25
 -1       894 5.43090E-05 2.24695E-05 0.00000E+00
 -1       895 5.37439E-05 2.24387E-05 2.06795E-25
 -1       956 5.51681E-05 1.91095E-06 0.00000E+00
 -1       957 5.51000E-05 2.34187E-06 4.13590E-25
 -1       958 5.50317E-05 2.81208E-06 1.65436E-24
 -1       959 5.49632E-05 3.31675E-06 0.00000E+00
 -1       960 5.48947E-05 3.85107E-06-1.65436E-24
 -1       961 5.48262E-05 4.41018E-06 0.00000E+00
 -1       962 5.47577E-05 4.98922E-06 1.65436E-24
 -1       963 5.46891E-05 5.58334E-06 8.27181E-25
 -1       964 5.46205E-05 6.18767E-06-1.65436E-24
 -1       965 5.45520E-05 6.79734E-06 8.27181E-25
 -1       966 5.44834E-05 7.40751E-06 1.65436E-24
 -1       967 5.44149E-05 8.01332E-06 8.27181E-25
 -1       968 5.43464E-05 8.60989E-06 1.65436E-24
 -1       969 5.42780E-05 9.19239E-06 0.00000E+00
 -1       970 5.42098E-05 9.75598E-06-1.65436E-24
 -1       971 5.40786E-05 1.08507E-05 0.00000E+00
 -1       972 5.40136E-05 1.14632E-05 0.00000E+00
 -1       973 5.39485E-05 1.21271E-05 0.00000E+00
 -1       974 5.38833E-05 1.28358E-05 0.00000E+00
 -1       975 5.38181E-05 1.35826E-05 0.00000E+00
 -1       976 5.37527E-05 1.43608E-05 8.27181E-25
 -1       977 5.36874E-05 1.51639E-05-1.65436E-24
 -1       978 5.36221E-05 1.59851E-05 0.00000E+00
 -1       979 5.35567E-05 1.68179E-05 0.00000E+00
 -1       980 5.34914E-05 1.76554E-05 8.27181E-25
 -1       981 5.34261E-05 1.84911E-05 0.00000E+00
 -1       982 5.33608E-05 1.93182E-05-8.27181E-25
 -1       983 5.32956E-05 2.01302E-05 0.00000E+00
 -1       984 5.32307E-05 2.09204E-05 0.00000E+00
 -1       985 5.31661E-05 2.16821E-05 0.00000E+00
 -3
    1PSTEP                         6           3           1          
  100CL  103 3.75000E-01         409                     0    3           1
 -4  STRESS      6    1
 -5  SXX         1    4    1    1
 -5  SYY         1    4    2    2
 -5  SZZ         1    4    3    3
 -5  SXY         1    4    1    2
 -5  SYZ         1    4    2    3
 -5  SZX         1    4    3    1
 -1         1-1.29034E+06-5.93990E+05-2.62880E+05-8.37273E+05 1.20053E-10-3.39060E-09
 -1         2 2.18061E+03 2.54896E+05 7.13188E+03 6.16637E+02-1.26590E-10-5.28576E-09
 -1         3-4.61219E+01-5.41581E+05 1.25996E+02-1.47490E+02-1.13729E-10-2.67391E-09
 -1         5-4.50597E+00 1.95000E+05 5.11098E+00 2.17493E-02 1.01100E-10 9.53423E-09
 -1         8-6.07190E+05-2.65299E+05-1.98282E+04-4.63426E+05-2.29193E-10 2.64117E-09
 -1         9-1.03829E+06-2.64683E+05-1.01806E+05-3.58135E+05 2.62371E-09-1.77824E-09
 -1        10-4.19162E+02-5.64213E+05-7.15903E+02-9.90122E+02-2.58206E-09-1.30218E-08
 -1        12-2.40971E+00 1.95011E+05 1.65738E+02 4.27768E-01 1.56518E-10 1.47245E-08
 -1        15 1.61637E+03 8.88284E+02 5.22490E+03 2.74681E+00-4.89479E-10-8.65505E-08
 -1        16-2.95708E+06-9.49762E+05-4.59887E+05-9.64680E+05 8.77966E-09-3.23053E-09
 -1        17-6.45850E+05-3.98295E+05-1.23789E+05-3.78730E+05 4.71482E-10 4.88653E-09
 -1        18 2.37851E+04 2.32559E+03-9.01979E+03-4.58513E+04 5.69344E-10 4.78258E-09
 -1        19 6.10592E+04 7.28732E+04-3.36439E+02 1.19533E+04-4.56930E-10-9.42237E-10
 -1        20-2.52570E+04-2.88546E+05-6.36253E+04 2.14333E+04 2.34407E-09-3.69467E-09
 -1        21-2.73148E+01-1.67441E+05-5.40960E+02-5.01108E+01-3.19745E-09 1.68384E-08
 -1        24-2.60183E+06-8.91984E+05-3.67189E+05-1.09420E+06-4.17397E-09-5.62674E-09
 -1        25 2.54811E+04 7.21916E+03 1.61049E+04-8.30514E+04 2.88037E-10 2.31030E-09
 -1        26-1.39611E+04 4.98459E+04-9.82973E+03-7.20780E+03 1.13341E-09 2.97927E-09
 -1        27-4.62736E+04-1.58344E+05-5.94131E+04 3.56806E+04 4.76621E-09 3.44274E-09
 -1        28 1.29520E+04-4.62369E+04 9.45378E+03 1.48563E+04 4.88853E-12-7.39245E-09
 -1        32-6.10884E+05-6.45095E+04 2.73163E+05-4.18145E+05-1.25001E-08 9.67235E-09
 -1        33-9.05037E+04 4.66007E+04 1.65154E+04-2.71598E+04 7.23276E-10 6.21155E-09
 -1        34-1.17586E+05-1.16968E+04 2.76111E+02 3.61283E+04 3.16097E-09-1.04183E-09
 -1        35-1.31741E+04-1.83838E+04-7.18425E+02 2.91644E+04 3.45180E-09-2.79154E-09
 -1        51 1.13395E+04-3.04076E+05 2.86754E+04-7.57093E+05 3.34694E-10-8.78936E-09
 -1        52 6.54602E+03-3.02506E+05 1.91948E+04-8.83020E+05 4.43833E-10-2.68628E-08
 -1        53 4.65310E+03-3.11262E+05 1.68474E+04-7.54493E+05 2.47383E-10-1.07975E-08
 -1        54 1.40068E+04-3.09360E+05 2.75020E+04-8.85757E+05 3.71074E-10-1.04774E-08
 -1        55 2.93603E+04-3.19644E+05 4.95111E+04-7.54118E+05 8.22183E-10 1.86628E-09
 -1        56-2.47821E+06-2.79849E+05-1.93632E+05-9.55380E+05 1.38971E-09 2.91038E-10
 -1        57-2.55483E+06-4.56133E+05-1.30510E+05-9.49220E+05-1.40744E-09 4.96948E-09
 -1        58-2.51723E+06-3.41034E+05-4.55727E+04-9.43073E+05 9.27685E-11 6.07361E-09
 -1        59-2.50965E+06-3.84419E+05-2.72049E+04-9.64019E+05 1.35753E-09 1.62618E-09
 -1        60-2.52301E+06-3.49485E+05-1.06474E+04-9.41320E+05 3.52884E-10-4.17276E-09
 -1        61-2.50370E+06-3.73759E+05-6.05343E+03-9.65164E+05-7.36691E-11-4.17555E-09
 -1        62-2.52309E+06-3.51438E+05-2.92155E+03-9.42000E+05 1.75237E-09-2.97817E-10
 -1        63-2.50516E+06-3.70116E+05-2.39494E+03-9.62527E+05-1.32911E-09 4.37728E-09
 -1        64-2.52147E+06-3.53140E+05-2.77106E+03-9.43919E+05-4.77485E-12 1.27056E-09
 -1        65-2.50978E+06-3.67189E+05-5.51957E+03-9.57665E+05-3.07409E-09-4.14173E-09
 -1        66-2.51841E+06-3.54442E+05-9.74908E+03-9.46799E+05-3.07637E-10 3.60887E-09
 -1        67-2.52059E+06-3.71359E+05-2.47027E+04-9.50250E+05-2.12452E-09-1.65664E-09
 -1        68-2.51068E+06-3.49244E+05-4.14995E+04-9.51222E+05 1.16779E-09 3.23598E-09
 -1        69-2.56587E+06-4.32466E+05-1.18656E+05-9.32186E+05 1.93359E-09-5.13683E-09
 -1        70-2.47353E+06-2.95194E+05-1.76140E+05-9.64218E+05-1.09139E-10-1.65164E-09
 -1        86-1.09436E+03 2.52653E+05 7.63119E+03-3.08337E+02 9.49967E-10 5.07208E-09
 -1        87 7.26141E+03 2.57390E+05 1.59357E+04 1.27267E+03 1.57524E-09 2.87770E-10
 -1        88-6.16140E+03 2.50162E+05 2.43795E+04-9.64384E+02 2.34922E-09-3.20279E-09
 -1        89 4.59165E+04 2.75450E+05 6.57770E+04 2.75997E+03 3.66344E-09 4.93549E-09
 -1        90-3.96261E+04 2.34609E+05 9.28838E+04-1.79525E+03 4.20550E-09-1.73526E-09
 -1       121-7.70918E+01-5.41815E+05 1.13460E+02 7.36786E+01 3.10152E-10 4.02633E-09
 -1       122-4.69864E+00-5.41554E+05 2.74399E+02-2.95041E+02-9.81782E-10 5.01313E-09
 -1       123-1.06713E+02-5.41844E+05 4.38024E+02 2.20969E+02 7.65795E-10 2.47292E-09
 -1       124 5.00301E+02-5.41246E+05 1.14888E+03-6.83962E+02-2.01157E-09 4.75211E-09
 -1       125-4.34039E+02-5.42130E+05 1.75655E+03 4.62520E+02 1.25738E-09 2.15095E-09
 -1       191-4.89961E+00 1.95016E+05 6.06818E+00-1.13451E-02 1.25485E-10 1.04487E-08
 -1       192-4.97577E+00 1.95000E+05 1.08239E+01 4.30726E-01 1.61852E-10 2.01644E-08
 -1       193-6.14876E+00 1.95016E+05 2.00901E+01-4.22567E-01 2.10387E-10 1.27661E-08
 -1       194-6.48768E+00 1.95002E+05 4.09475E+01 1.13042E+00 8.71836E-11 6.24732E-09
 -1       195-8.54957E+00 1.95015E+05 8.00566E+01-7.16213E-01 3.22295E-10 7.35872E-09
 -1       251 2.36540E+05-3.89942E+04 9.10445E+04 3.90646E+03-3.89832E-10-9.42237E-10
 -1       252 2.78071E+05 4.51127E+04 6.46026E+04-1.23474E+04 2.85326E-10-4.34738E-10
 -1       253 2.52263E+05-6.03644E+03 2.35643E+04 2.59964E+03-3.40947E-10-6.41739E-09
 -1       254 2.59544E+05 6.97385E+03 1.48993E+04-1.02918E+04 3.78520E-10-1.46631E-08
 -1       255 2.54989E+05-9.32049E+02 6.08854E+03 1.85106E+03 5.98874E-10-6.91307E-09
 -1       256 2.56283E+05 1.10677E+03 3.70137E+03-9.18950E+03 1.22273E-09 5.00773E-09
 -1       257 2.55490E+05-1.62699E+02 1.90326E+03 1.49730E+03 4.38533E-10 3.04846E-09
 -1       258 2.55773E+05 3.45061E+02 1.68358E+03-8.83336E+03 2.77448E-10 1.05758E-09
 -1       259 2.55489E+05-1.65125E+02 1.92618E+03 1.49493E+03-8.57682E-10-6.28216E-09
 -1       260 2.56292E+05 1.12804E+03 3.76652E+03-9.18068E+03 7.54952E-10-1.30549E-08
 -1       261 2.54981E+05-9.50648E+02 6.20762E+03 1.84461E+03 6.72884E-10-1.68620E-09
 -1       262 2.59606E+05 7.11410E+03 1.51931E+04-1.02723E+04-3.79259E-10 1.39312E-09
 -1       263 2.52208E+05-6.15723E+03 2.40385E+04 2.58658E+03-1.36856E-09 7.16864E-09
 -1       264 2.78481E+05 4.60171E+04 6.58897E+04-1.23154E+04-1.84275E-09 1.36952E-08
 -1       265 2.36185E+05-3.97734E+04 9.28772E+04 3.88751E+03-1.24612E-09 2.98314E-10
 -1       266-2.92612E+04-1.36816E+04 6.86594E+04-5.87765E+01-5.31145E-10-1.30613E-07
 -1       267 3.39223E+04 1.59476E+04 4.85253E+04 6.78124E+01-9.41327E-10-2.61332E-07
 -1       268-4.54890E+03-2.25855E+03 1.80368E+04-8.64070E+00-8.50378E-10-2.08157E-07
 -1       269 5.37094E+03 2.70309E+03 1.17235E+04 1.00649E+01-6.15728E-10-1.51451E-07
 -1       270-8.06184E+02-4.44135E+02 5.65910E+03-1.36589E+00-4.59750E-10-1.16716E-07
 -1       271-2.87823E+06-3.59181E+05-2.21697E+05-1.12143E+06 3.54703E-10 1.97906E-09
 -1       272-2.94118E+06-5.37310E+05-1.42509E+05-1.13823E+06 1.14881E-09-6.54109E-09
 -1       273-2.92081E+06-4.13495E+05-5.23696E+04-1.11058E+06-1.71894E-10 1.60435E-09
 -1       274-2.89131E+06-4.70897E+05-2.92986E+04-1.15510E+06-3.30147E-10 1.35765E-08
 -1       275-2.92763E+06-4.18103E+05-1.21815E+04-1.10768E+06 8.88576E-10 7.13953E-10
 -1       276-2.88322E+06-4.65562E+05-6.46783E+03-1.15982E+06-1.41699E-09-5.02769E-09
 -1       277-2.92928E+06-4.17784E+05-3.16398E+03-1.10649E+06-6.47788E-10-1.14187E-09
 -1       278-2.88168E+06-4.65726E+05-2.29952E+03-1.16124E+06 3.03305E-09 2.29545E-09
 -1       279-2.92937E+06-4.17750E+05-2.46825E+03-1.10642E+06-3.26963E-10 9.05447E-09
 -1       280-2.88276E+06-4.65446E+05-4.52152E+03-1.16013E+06-2.75122E-10 6.23913E-09
 -1       281-2.92804E+06-4.18205E+05-8.28638E+03-1.10746E+06 4.57931E-10 8.37645E-10
 -1       282-2.88882E+06-4.68315E+05-1.97630E+04-1.15603E+06-3.74257E-10 1.15469E-08
 -1       283-2.92291E+06-4.15676E+05-3.53233E+04-1.11001E+06 5.41149E-11 7.30688E-09
 -1       284-2.92354E+06-5.11730E+05-9.59716E+04-1.14301E+06 3.24462E-10-2.72667E-09
 -1       285-2.89342E+06-3.79982E+05-1.49440E+05-1.11823E+06 1.14687E-09-4.93310E-09
 -1       301 1.09771E+04-6.61255E+03 8.54814E+04-2.14545E+04-6.36646E-10 2.45279E-10
 -1       302 1.18143E+04 1.50636E+04 6.18927E+04-3.15919E+04 1.33082E-09-1.94632E-10
 -1       303 5.48168E+02 1.04125E+03 5.72338E+04-2.15121E+04-8.05812E-10-3.22279E-09
 -1       304 2.24747E+04 2.49031E+04 9.65559E+04-3.15003E+04 9.49512E-10 8.09450E-11
 -1       305 2.22688E+04-1.63811E+04 1.62200E+05-2.14766E+04-7.34872E-10 2.93812E-09
 -1       306-3.06647E+06-3.55214E+05-2.34006E+05-1.19950E+06 9.74978E-10-5.82077E-09
 -1       307-3.18838E+06-5.51491E+05-1.59526E+05-1.15716E+06 3.45199E-09 3.48336E-09
 -1       308-3.12113E+06-4.26507E+05-5.50777E+04-1.17590E+06 1.25328E-09 1.75714E-09
 -1       309-3.11975E+06-4.73964E+05-3.33047E+04-1.19114E+06 6.87621E-10-1.28330E-09
 -1       310-3.13480E+06-4.31312E+05-1.29336E+04-1.16602E+06-1.83238E-09-5.18321E-09
 -1       311-3.10177E+06-4.70775E+05-7.47050E+03-1.20564E+06 2.45024E-09-7.73116E-09
 -1       312-3.13922E+06-4.29367E+05-3.65717E+03-1.16159E+06-1.25823E-10-7.75231E-10
 -1       313-3.09812E+06-4.71933E+05-3.29248E+03-1.20927E+06-1.24015E-09 6.84906E-10
 -1       314-3.13852E+06-4.30082E+05-3.96738E+03-1.16246E+06-2.17221E-09-6.19366E-10
 -1       315-3.10449E+06-4.68364E+05-8.32947E+03-1.20239E+06-1.56660E-10 4.21937E-09
 -1       316-3.13273E+06-4.33055E+05-1.46005E+04-1.16836E+06 1.15966E-09 2.55113E-09
 -1       317-3.12550E+06-4.71438E+05-3.76369E+04-1.18544E+06-1.17817E-09-9.08130E-10
 -1       318-3.11740E+06-4.27356E+05-6.22551E+04-1.17922E+06-3.10592E-09 4.64934E-09
 -1       319-3.20196E+06-5.60523E+05-1.80420E+05-1.14878E+06-4.32010E-10-4.80759E-09
 -1       320-3.05668E+06-3.45523E+05-2.64517E+05-1.20451E+06 6.80302E-09-1.19326E-09
 -1       336 4.09514E+02-5.86549E+05-3.11933E+03 5.26747E+02-5.24892E-09-1.21236E-09
 -1       337-1.12729E+03-5.87375E+05-3.39736E+03-1.38213E+03-9.46181E-09-1.46201E-09
 -1       338 2.62900E+02-5.86643E+05-4.27342E+03 8.52893E+02-6.66932E-09-6.02085E-10
 -1       339-4.40899E+03-5.89396E+05-9.33199E+03-2.02725E+03-1.24905E-08 5.50244E-11
 -1       340 2.98506E+03-5.84561E+05-1.43836E+04 1.16790E+03-8.12906E-09 8.64748E-09
 -1       406 1.02084E+01 1.95007E+05 3.27171E+02 2.76091E-01 4.56083E-10 9.42009E-09
 -1       407 1.11684E+02 1.95068E+05 6.95457E+02-7.65256E+00 1.12166E-10-6.91216E-10
 -1       408 3.55547E+02 1.94957E+05 1.38893E+03 7.48325E+00 5.55360E-10-2.60343E-09
 -1       409 1.49965E+03 1.95512E+05 3.12704E+03-6.97349E+01-2.54659E-11 6.79756E-09
 -1       410 4.31306E+03 1.94562E+05 6.38374E+03 6.42910E+01 5.58430E-10 3.21052E-10
 -1       521-5.85011E+06-6.75828E+05-4.38461E+05-2.27581E+06 4.68572E-09-4.80213E-09
 -1       522-6.05379E+06-1.05891E+06-2.97555E+05-2.22214E+06-2.08001E-09-5.47152E-09
 -1       523-5.95977E+06-7.98947E+05-1.03129E+05-2.22244E+06 2.58296E-10-9.74978E-10
 -1       524-5.91755E+06-9.25151E+05-6.19801E+04-2.29706E+06 2.22371E-09-2.22644E-09
 -1       525-5.98594E+06-8.05849E+05-2.39986E+04-2.20234E+06 4.38013E-09-2.91038E-09
 -1       526-5.89109E+06-9.12870E+05-1.38091E+04-2.31622E+06 3.10115E-09 2.01362E-09
 -1       527-5.98642E+06-8.10458E+05-6.69046E+03-2.20370E+06 4.82305E-09-3.41231E-10
 -1       528-5.90546E+06-8.91890E+05-5.42766E+03-2.29520E+06-1.49635E-09 7.08587E-09
 -1       529-5.97089E+06-8.27219E+05-6.98889E+03-2.22290E+06 9.34961E-10 3.35831E-09
 -1       530-5.94588E+06-8.54734E+05-1.31898E+04-2.24772E+06-9.64064E-11-1.17166E-09
 -1       531-5.94535E+06-8.48147E+05-2.42182E+04-2.25066E+06-8.50378E-11 1.09139E-09
 -1       532-6.00606E+06-8.35006E+05-6.11704E+04-2.19382E+06 1.30481E-09-8.36644E-09
 -1       533-5.91137E+06-8.47121E+05-1.01892E+05-2.27701E+06 1.84082E-09-3.58705E-09
 -1       534-6.13577E+06-9.76587E+05-2.94923E+05-2.13289E+06 6.71207E-10 1.11577E-08
 -1       535-5.81767E+06-7.09135E+05-4.33403E+05-2.31135E+06-8.82574E-09 9.13860E-09
 -1       536-1.07624E+04-1.64626E+04 3.78915E+04 3.80359E+02-1.21034E-09 3.38150E-09
 -1       537 6.97433E+03 1.90464E+04 2.70312E+04-1.47138E+03-6.52238E-09 3.89855E-09
 -1       538-4.23386E+03-2.57985E+03 9.76920E+03 3.46897E+02-4.18112E-10 3.77304E-09
 -1       539-7.44542E+02 2.97693E+03 6.25620E+03-1.44271E+03 1.06326E-09 4.08920E-09
 -1       540-3.05333E+03-4.01266E+02 2.46461E+03 3.51683E+02 6.03862E-10 4.72278E-09
 -1       541-2.20157E+03 4.58560E+02 1.48146E+03-1.45315E+03-2.94065E-10 1.40895E-09
 -1       542-2.78273E+03-5.92529E+01 5.91063E+02 3.57322E+02 7.29308E-10-1.88348E-09
 -1       543-2.56550E+03 5.69812E+01 3.02648E+02-1.46216E+03-3.42482E-11 5.77394E-10
 -1       544-2.69319E+03 2.76773E+00 4.74383E+01 3.60697E+02-4.27722E-10-4.22189E-09
 -1       545-2.70620E+03-7.01286E+01-1.63973E+02-1.46644E+03-1.14559E-09-4.40073E-09
 -1       546-2.64377E+03 6.90309E+01-3.90326E+02 3.61606E+02-6.75637E-12-1.82109E-09
 -1       547-2.90931E+03-5.09937E+02-1.03578E+03-1.46572E+03-1.68506E-09-2.45616E-09
 -1       548-2.48975E+03 4.42015E+02-1.68483E+03 3.59977E+02-1.87180E-09 1.08480E-09
 -1       549-4.08228E+03-3.25695E+03-4.58838E+03-1.45868E+03-9.59535E-10 4.03702E-09
 -1       550-1.46830E+03 2.81216E+03-6.54723E+03 3.54556E+02 2.66951E-11 6.26324E-09
 -1       551 5.41012E+03-3.14071E+05 1.65355E+04-5.34972E+05 7.90533E-09 7.64703E-09
 -1       552 1.23735E+04-3.15161E+05 2.22599E+04-7.71557E+05 1.85464E-08 1.51522E-08
 -1       553 8.02061E+03-3.19235E+05 3.49948E+04-5.33210E+05 9.48057E-09 1.17761E-08
 -1       554 3.01495E+04-3.04220E+05 7.46895E+04-7.72282E+05 1.92595E-08 6.95854E-09
 -1       555 2.77513E+04-3.33536E+05 1.33655E+05-5.33944E+05 9.34233E-09-5.54428E-09
 -1       556 4.30952E+04-9.82880E+04 3.42947E+04-1.30965E+05-6.22822E-09-1.02227E-08
 -1       557 8.30539E+04-1.31687E+05 1.79658E+04-1.63588E+05 5.96629E-10-2.38742E-10
 -1       558 4.33965E+04-1.03116E+05 7.33351E+03-1.26807E+05-2.07365E-09 4.38195E-09
 -1       559 7.80637E+04-1.36515E+05 3.69974E+03-1.65655E+05 5.61704E-09 3.86990E-09
 -1       560 4.25276E+04-1.02524E+05 1.56555E+03-1.27325E+05 3.73257E-09 7.33053E-09
 -1       561 7.65933E+04-1.36209E+05 8.16014E+02-1.66576E+05-1.45519E-10 1.11368E-09
 -1       562 4.18042E+04-1.02028E+05 3.25554E+02-1.27849E+05-1.81899E-10 6.30962E-09
 -1       563 7.57322E+04-1.35841E+05 1.92742E+02-1.67126E+05-1.84809E-09-5.51955E-09
 -1       564 4.13554E+04-1.01735E+05 7.04866E+01-1.28170E+05-1.05865E-09 1.30285E-09
 -1       565 7.52911E+04-1.35654E+05 3.65726E+01-1.67402E+05 2.45564E-11 1.66383E-08
 -1       566 4.12020E+04-1.01630E+05-2.27716E+01-1.28283E+05-6.77028E-09-7.55153E-09
 -1       567 7.52363E+04-1.35627E+05-9.71910E+01-1.67387E+05 3.37741E-09-1.23873E-09
 -1       568 4.13698E+04-1.01742E+05-2.59952E+02-1.28211E+05-1.62800E-09-2.01180E-09
 -1       569 7.50640E+04-1.35514E+05-6.10856E+02-1.66651E+05 5.91172E-11 9.73887E-09
 -1       570 4.22722E+04-1.02604E+05-1.27144E+03-1.28253E+05-2.53567E-09-5.13319E-09
 -1       571 1.41279E+05 5.11699E+03 7.58192E+03-3.55406E+04 8.27549E-09-1.09731E-09
 -1       572 1.42408E+05 1.77931E+03 3.71450E+03-3.89581E+04 1.89509E-08-1.20303E-09
 -1       573 1.41735E+05 4.23673E+02 1.65011E+03-3.54475E+04 1.24955E-08-7.94671E-10
 -1       574 1.41869E+05 1.37005E+02 8.26635E+02-3.90623E+04 2.33820E-09 2.61025E-10
 -1       575 1.41786E+05 1.79890E+01 3.89553E+02-3.54352E+04 3.18732E-09 1.52613E-09
 -1       576 1.41796E+05 4.11504E+00 1.98207E+02-3.90762E+04 1.82277E-09-7.82165E-09
 -1       577 1.41794E+05-3.72059E+00 9.75590E+01-3.54335E+04 6.23459E-10-5.81531E-09
 -1       578 1.41788E+05-2.16141E+00 5.30409E+01-3.90779E+04 5.82304E-10-3.82715E-09
 -1       579 1.41801E+05-4.32457E+00 3.22504E+01-3.54335E+04 2.15095E-10-4.71255E-09
 -1       580 1.41796E+05-5.16575E+00 2.97436E+01-3.90757E+04-2.32149E-10 1.45519E-10
 -1       581 1.41812E+05-7.89412E+00 4.00636E+01-3.54357E+04 3.90173E-10 5.80258E-10
 -1       582 1.41819E+05-1.58552E+00 7.59902E+01-3.90546E+04-3.87899E-10-3.68209E-09
 -1       583 1.41826E+05 1.79928E+01 1.45800E+02-3.54547E+04 1.03319E-09 3.86990E-09
 -1       584 1.41889E+05 1.32024E+02 3.26674E+02-3.88965E+04-7.74889E-10 1.21759E-10
 -1       585 1.41806E+05 4.20750E+02 6.63634E+02-3.55940E+04 4.43833E-10-3.21597E-09
 -1       586-1.74496E+03 4.61338E+04-2.31439E+03-1.20755E+05 3.94266E-10-1.01498E-08
 -1       587-3.79954E+02 4.58233E+04-2.79649E+02-1.32880E+05 6.59384E-10-2.12173E-08
 -1       588 4.75539E+02 4.58853E+04 1.59484E+03-1.20681E+05 3.49246E-10-1.11845E-08
 -1       589 2.38830E+03 4.67605E+04 4.67404E+03-1.32771E+05 5.82986E-10-6.27188E-09
 -1       590 6.86470E+03 4.53063E+04 1.00198E+04-1.20865E+05 3.16504E-10-2.62844E-10
 -1       591-3.08719E+04-8.86380E+03-1.02783E+04-1.60406E+04-4.28719E-09-1.54037E-08
 -1       592-3.18265E+04-1.13961E+04-5.56713E+03-1.87301E+04 5.71106E-10 4.15787E-09
 -1       593-3.19112E+04-8.10638E+03-2.31765E+03-1.67825E+04-6.26983E-10 1.01227E-09
 -1       594-3.03938E+04-9.90237E+03-1.15593E+03-1.88014E+04 1.24459E-09 1.21167E-09
 -1       595-3.19907E+04-8.10299E+03-5.31226E+02-1.68165E+04 3.78861E-10-2.99413E-09
 -1       596-3.02968E+04-9.83397E+03-2.70799E+02-1.87912E+04 1.95212E-09 5.32930E-09
 -1       597-3.20007E+04-8.10959E+03-1.49074E+02-1.68179E+04 1.73003E-09 5.23164E-09
 -1       598-3.02876E+04-9.83135E+03-1.22799E+02-1.87885E+04 7.33266E-10-1.84286E-10
 -1       599-3.20001E+04-8.10957E+03-1.60536E+02-1.68177E+04 2.39879E-10 5.42627E-10
 -1       600-3.02981E+04-9.83482E+03-3.01203E+02-1.87911E+04 1.08548E-09 2.55534E-09
 -1       601-3.19876E+04-8.10231E+03-5.95708E+02-1.68157E+04 6.80643E-10-1.89607E-09
 -1       602-3.04072E+04-9.91153E+03-1.29918E+03-1.88014E+04-4.77371E-10 2.39243E-09
 -1       603-3.18973E+04-8.10728E+03-2.60577E+03-1.67777E+04 3.77895E-09 1.25510E-10
 -1       604-3.20233E+04-1.15852E+04-6.25960E+03-1.87138E+04 1.16743E-08-1.26147E-09
 -1       605-3.07221E+04-8.96378E+03-1.15565E+04-1.59491E+04 4.69470E-09-3.32329E-09
 -1       606 2.02531E+04-6.80293E+03-1.22539E+04 1.98046E+04-1.74532E-09 5.59749E-09
 -1       607 1.81546E+04-2.19402E+03-6.10186E+03 2.22316E+04-5.84805E-10-5.08862E-10
 -1       608 1.93486E+04-3.68975E+02-2.73217E+03 1.96465E+04 1.24328E-09-9.93396E-10
 -1       609 1.91125E+04-9.66125E+01-1.38009E+03 2.24062E+04-1.44246E-09 9.29049E-10
 -1       610 1.92419E+04 1.71237E+01-6.58997E+02 1.96288E+04-4.14457E-09 2.09025E-09
 -1       611 1.91982E+04 2.45868E+01-3.32480E+02 2.24253E+04-6.59020E-09 7.58746E-10
 -1       612 1.92153E+04 2.62800E+01-1.58975E+02 1.96271E+04-1.81535E-09-2.83717E-09
 -1       613 1.91994E+04 2.89859E+01-7.25772E+01 2.24276E+04-3.24326E-09-3.35581E-09
 -1       614 1.92014E+04 2.54323E+01-2.03031E+01 1.96265E+04 5.91172E-11-1.10890E-09
 -1       615 1.91932E+04 3.16166E+01 2.23271E+01 2.24280E+04 3.84989E-09 3.81647E-09
 -1       616 1.91909E+04 2.84544E+01 7.44426E+01 1.96267E+04-2.90902E-09 3.04158E-09
 -1       617 1.91993E+04 4.94490E+01 1.72698E+02 2.24276E+04 8.14225E-10-4.26076E-09
 -1       618 1.91736E+04 7.97491E+01 3.49189E+02 1.96268E+04 8.03084E-10-4.05953E-09
 -1       619 1.93208E+04 3.20766E+02 7.84840E+02 2.24271E+04 6.16637E-10 3.23780E-09
 -1       620 1.90564E+04 9.09341E+02 1.57772E+03 1.96261E+04 1.77181E-09-4.94265E-09
 -1       621 2.47988E+02 1.54064E+05 2.14303E+03 4.87100E+03-2.60322E-10 9.08130E-10
 -1       622 2.83111E+02 1.54595E+05 1.81483E+03 7.11277E+03-1.88322E-10 6.09361E-10
 -1       623 1.18631E+01 1.54218E+05 2.08181E+03 4.84811E+03-1.84173E-10 6.43058E-09
 -1       624 9.40494E+02 1.55198E+05 3.94865E+03 7.13514E+03-1.20338E-10-2.00245E-09
 -1       625 9.44154E+02 1.53458E+05 6.86238E+03 4.84886E+03-9.61791E-11-8.59103E-10
 -1       626 1.26890E+05 3.52334E+04 2.52351E+03 6.87057E+04 6.35782E-09-1.94177E-09
 -1       627 1.25144E+05 3.65227E+04 1.21573E+03 7.14894E+04 6.81666E-09-1.65746E-08
 -1       628 1.26988E+05 3.40375E+04 5.13668E+02 6.90862E+04 8.59018E-09-4.25234E-09
 -1       629 1.24781E+05 3.62361E+04 2.51676E+02 7.16581E+04 2.28647E-09-3.61973E-09
 -1       630 1.26996E+05 3.39798E+04 1.16469E+02 6.90973E+04 2.57933E-09 1.97360E-09
 -1       631 1.24738E+05 3.62292E+04 6.26032E+01 7.16611E+04-2.53499E-09-5.68966E-09
 -1       632 1.26991E+05 3.39836E+04 4.14134E+01 6.90925E+04 3.82352E-09 7.82686E-09
 -1       633 1.24730E+05 3.62325E+04 4.62911E+01 7.16571E+04-1.28239E-09-4.56316E-09
 -1       634 1.26985E+05 3.39837E+04 7.50384E+01 6.90897E+04-5.13455E-09 4.40923E-09
 -1       635 1.24733E+05 3.62335E+04 1.52215E+02 7.16571E+04-6.63704E-09 2.82403E-08
 -1       636 1.26977E+05 3.39830E+04 3.07515E+02 6.90876E+04-2.10105E-09 1.70241E-08
 -1       637 1.24796E+05 3.62825E+04 6.75907E+02 7.16539E+04 3.33671E-10 4.29509E-09
 -1       638 1.26950E+05 3.41340E+04 1.38922E+03 6.90178E+04-2.04295E-09 2.92107E-09
 -1       639 1.25522E+05 3.72992E+04 3.28653E+03 7.14374E+04-3.20267E-09-1.24692E-09
 -1       640 1.26851E+05 3.71599E+04 6.82058E+03 6.77327E+04 1.41154E-09 7.76038E-09
 -1       656 3.44272E+04-8.71254E+05-8.31186E+04-4.75774E+02 8.29459E-10 3.61140E-09
 -1       657-4.54895E+04-9.08786E+05-6.87368E+04 5.69680E+03 7.53062E-10 1.83277E-09
 -1       658 1.09141E+04-8.81964E+05-4.21793E+04-1.11463E+03 6.53358E-10-3.89164E-11
 -1       659-4.87630E+04-9.10331E+05-7.30362E+04 6.11846E+03 3.85626E-10-5.07629E-09
 -1       660 3.76922E+04-8.69712E+05-9.05184E+04-8.97421E+02 4.80213E-10-2.10676E-10
 -1       661 1.24092E+05 1.34948E+04 1.18903E+04 4.84658E+04 4.19050E-10-1.18416E-09
 -1       662 1.30261E+05 2.28437E+04 8.01207E+03 4.64242E+04 4.39513E-10-1.84536E-09
 -1       663 1.26419E+05 1.73164E+04 2.80269E+03 4.77964E+04 1.33525E-09 1.14426E-09
 -1       664 1.27570E+05 1.83684E+04 1.67557E+03 4.72359E+04 1.86515E-09 5.83397E-09
 -1       665 1.26766E+05 1.78446E+04 6.60993E+02 4.77014E+04-1.00161E-09 1.71781E-10
 -1       666 1.27165E+05 1.77590E+04 3.85376E+02 4.73559E+04-4.30902E-09 1.86004E-09
 -1       667 1.26822E+05 1.79098E+04 2.03187E+02 4.76824E+04-1.36845E-09 3.82255E-09
 -1       668 1.27107E+05 1.77050E+04 2.03407E+02 4.73821E+04 2.70421E-09-3.14975E-09
 -1       669 1.26823E+05 1.78971E+04 2.72531E+02 4.76758E+04 8.69832E-10-9.00798E-10
 -1       670 1.27180E+05 1.78452E+04 5.90636E+02 4.73772E+04 5.42689E-09 1.32513E-09
 -1       671 1.26750E+05 1.77725E+04 1.04788E+03 4.76861E+04 4.29672E-10-7.25493E-10
 -1       672 1.27794E+05 1.88606E+04 2.68024E+03 4.72252E+04-6.41521E-10 6.00551E-09
 -1       673 1.26212E+05 1.69074E+04 4.49143E+03 4.78180E+04-1.46525E-09-4.98858E-10
 -1       674 1.32074E+05 2.60721E+04 1.28448E+04 4.59640E+04-4.77030E-10 8.16840E-09
 -1       675 1.22498E+05 1.07626E+04 1.90654E+04 4.88714E+04 1.02636E-09-3.17868E-09
 -1       676 1.40399E+01-1.67395E+05-6.51993E+02 2.50560E+01-1.39697E-09 2.14250E-09
 -1       677-1.73053E+02-1.67553E+05-1.19319E+03-5.00983E+01-5.48924E-09-8.10535E-09
 -1       678 1.15563E+02-1.67283E+05-2.10923E+03 2.50250E+01-6.82348E-10-1.60935E-09
 -1       679-2.10954E+03-1.68826E+05-5.01034E+03-4.99688E+01-2.96154E-11 1.26825E-10
 -1       680 1.25892E+03-1.66123E+05-8.07503E+03 2.46390E+01-7.91715E-10-3.59187E-09
 -1       771-1.79995E+06-3.13620E+05-4.21544E+04-7.45614E+05-7.20684E-09-6.00994E-09
 -1       772-1.78837E+06-3.37345E+05-2.26212E+04-7.72077E+05-4.58022E-09 2.22553E-09
 -1       773-1.80568E+06-3.09170E+05-9.76055E+03-7.47938E+05-1.52795E-09 2.79761E-09
 -1       774-1.78224E+06-3.32374E+05-4.75224E+03-7.74596E+05 6.47196E-09-1.14596E-09
 -1       775-1.80696E+06-3.08361E+05-2.40604E+03-7.48088E+05 3.04863E-09-9.78616E-10
 -1       776-1.78210E+06-3.32391E+05-1.10847E+03-7.75892E+05 8.52742E-09 3.81624E-09
 -1       777-1.80782E+06-3.07743E+05-6.91623E+02-7.48157E+05 5.46424E-09-4.78394E-10
 -1       778-1.78231E+06-3.32562E+05-3.07876E+02-7.76964E+05 2.65572E-10 3.01634E-09
 -1       779-1.80850E+06-3.07217E+05-3.07222E+02-7.48218E+05-4.26007E-09-1.87538E-09
 -1       780-1.78255E+06-3.32707E+05-2.42840E+02-7.77831E+05-1.06411E-09-6.18456E-11
 -1       781-1.80901E+06-3.06796E+05-4.37045E+02-7.48262E+05-2.57569E-09 1.02773E-10
 -1       782-1.78279E+06-3.32854E+05-7.98312E+02-7.78470E+05-7.92079E-09-2.14573E-09
 -1       783-1.80931E+06-3.06522E+05-1.59869E+03-7.48275E+05-3.22871E-09-2.77470E-09
 -1       784-1.78386E+06-3.33939E+05-3.78785E+03-7.78816E+05-5.73436E-09 3.23325E-10
 -1       785-1.80879E+06-3.06885E+05-7.00398E+03-7.47779E+05-8.53470E-09 1.26238E-09
 -1       786 1.31967E+05-7.01743E+03 1.62344E+04 1.36429E+00 1.31960E-07 3.13321E-09
 -1       787 1.39002E+05 8.12398E+03 1.14857E+04-5.25388E+00 2.61908E-07 1.02129E-08
 -1       788 1.34681E+05-1.10006E+03 4.20190E+03 2.84487E+00 3.62266E-07 1.14142E-10
 -1       789 1.35840E+05 1.27284E+03 2.64013E+03-8.91186E+00 4.61819E-07 2.74636E-09
 -1       790 1.35129E+05-1.71850E+02 1.07433E+03 5.02234E+00 6.31397E-07-8.34581E-09
 -1       791 1.35318E+05 1.99689E+02 6.30930E+02-1.44472E+01 8.01383E-07 6.97262E-09
 -1       792 1.35204E+05-2.77183E+01 2.88262E+02 8.38029E+00 1.13564E-06-5.88037E-09
 -1       793 1.35233E+05 3.90773E+01 1.89526E+02-2.30898E+01 1.46744E-06 8.72549E-09
 -1       794 1.35214E+05-1.13448E+01 1.41357E+02 1.36651E+01 7.33760E-07-4.70951E-09
 -1       795 1.35242E+05 5.89030E+01 2.05872E+02-3.67505E+01 2.45514E-09 3.92454E-09
 -1       796 1.35195E+05-4.75294E+01 3.09224E+02 2.20413E+01-3.09199E-10-4.66410E-09
 -1       797 1.35383E+05 3.48513E+02 7.29811E+02-5.84456E+01-9.50209E-11 1.07673E-09
 -1       798 1.35073E+05-3.00742E+02 1.15221E+03 3.53606E+01-2.58011E-11-6.17035E-10
 -1       799 1.36247E+05 2.22056E+03 3.14133E+03-9.31823E+01-5.91736E-10 3.26736E-10
 -1       800 1.34331E+05-1.91807E+03 4.43747E+03 5.67782E+01-1.99989E-10 2.28215E-09
 -1       801-9.63489E+03 4.45428E+04 1.42123E+04 1.41007E+04 7.76095E-09-4.23779E-09
 -1       802 2.22217E+04 1.11959E+05 4.20797E+04-5.87632E+04 2.08238E-08-4.97971E-09
 -1       803-1.19837E+04 7.01203E+04 5.08578E+04 1.25650E+04 1.64255E-08 1.25024E-08
 -1       804 9.74974E+04 1.53185E+05 1.40818E+05-5.96688E+04 1.94541E-08 1.61263E-08
 -1       805-8.49520E+04 3.52652E+03 1.80390E+05 1.50043E+04 6.86850E-09 1.71566E-08
 -1       806-1.53891E+05-3.30764E+04-1.31240E+04-6.41950E+04 2.22599E-09-1.37516E-09
 -1       807-1.54653E+05-3.12079E+04-6.44751E+03-6.76873E+04 8.76014E-10-8.33415E-09
 -1       808-1.54264E+05-2.83346E+04-2.73506E+03-6.64208E+04 4.88046E-09 6.78114E-10
 -1       809-1.53276E+05-2.94183E+04-1.33710E+03-6.78739E+04 4.55998E-09-3.44585E-09
 -1       810-1.54322E+05-2.81671E+04-6.12232E+02-6.65191E+04 4.37149E-09 7.47400E-09
 -1       811-1.53171E+05-2.93475E+04-3.03616E+02-6.78585E+04 7.14067E-10-3.25144E-11
 -1       812-1.54333E+05-2.81793E+04-1.51454E+02-6.65190E+04 1.70189E-09-1.37425E-09
 -1       813-1.53158E+05-2.93492E+04-9.54907E+01-6.78506E+04 2.54943E-09 1.08548E-09
 -1       814-1.54332E+05-2.81838E+04-8.93966E+01-6.65171E+04 3.06500E-10-2.53135E-09
 -1       815-1.53160E+05-2.93507E+04-1.39878E+02-6.78487E+04 7.19410E-10-2.92675E-09
 -1       816-1.54323E+05-2.81824E+04-2.61962E+02-6.65155E+04 2.52339E-09 8.44057E-09
 -1       817-1.53205E+05-2.93757E+04-5.61742E+02-6.78444E+04 1.71531E-09-7.05984E-09
 -1       818-1.54290E+05-2.82609E+04-1.14474E+03-6.64784E+04 2.43153E-09 1.23350E-09
 -1       819-1.53838E+05-3.00625E+04-2.69442E+03-6.76915E+04 3.74712E-10-3.54066E-09
 -1       820-1.54073E+05-3.02982E+04-5.48349E+03-6.56104E+04 1.34605E-10 3.25633E-09
 -1       821-1.99201E+05 1.10590E+04-2.55773E+04 2.66421E+01-5.63380E-10 3.69437E-09
 -1       822-2.10285E+05-1.28026E+04-1.80991E+04-3.15058E+02-1.97654E-09 2.38288E-09
 -1       823-2.03479E+05 1.73365E+03-6.62465E+03-1.22744E+01 1.15102E-09 6.31780E-09
 -1       824-2.05300E+05-2.00665E+03-4.16865E+03-2.09552E+02-1.36535E-10 5.08044E-09
 -1       825-2.04185E+05 2.71394E+02-1.71277E+03-7.88681E+01-2.29852E-09-4.27121E-09
 -1       826-2.04479E+05-3.20113E+02-1.03536E+03-6.97462E+01-4.55098E-09 5.37142E-10
 -1       827-2.04300E+05 4.83177E+01-5.34585E+02-1.52083E+02-3.60139E-09 2.21655E-09
 -1       828-2.04366E+05-9.77705E+01-4.74013E+02 6.09070E+01-4.01530E-09 6.74733E-09
 -1       829-2.04298E+05 4.92416E+01-5.42349E+02-2.09524E+02 1.21601E-10 3.62837E-09
 -1       830-2.04488E+05-3.27795E+02-1.05977E+03 1.42471E+02 1.83783E-09-1.01124E-09
 -1       831-2.04178E+05 2.78242E+02-1.75433E+03-2.33648E+02-1.50636E-09 1.84059E-10
 -1       832-2.05330E+05-2.05738E+03-4.27485E+03 1.50409E+02-1.51942E-09-2.83330E-09
 -1       833-2.03456E+05 1.77757E+03-6.79263E+03-2.17461E+02-2.48454E-10-2.80079E-09
 -1       834-2.10436E+05-1.31277E+04-1.85591E+04 8.40896E+01 4.69651E-10 1.16347E-09
 -1       835-1.99073E+05 1.13399E+04-2.62283E+04-1.67323E+02 4.34299E-09-4.91127E-10
 -1       836-6.63738E+02 1.88921E+05 1.13732E+04-1.67133E+04 1.43473E-09-1.20053E-10
 -1       837 2.50317E+03 1.92443E+05 9.70422E+03-3.35773E+04 2.09366E-09-9.59062E-09
 -1       838-2.44309E+02 1.89903E+05 9.99967E+03-1.66560E+04 1.82399E-09-6.18797E-10
 -1       839 6.41489E+03 1.95363E+05 1.90271E+04-3.35978E+04 2.30011E-09 2.78717E-09
 -1       840-1.92945E+03 1.85980E+05 3.03862E+04-1.66917E+04 1.54978E-09 3.41606E-09
 -1       856-6.26908E+04 5.34323E+03-1.40800E+04-3.08066E+02-3.21785E-09 5.98448E-10
 -1       857-6.85079E+04-6.26725E+03-9.69406E+03 3.21684E+03-3.26474E-09-1.68347E-09
 -1       858-6.49889E+04 7.48813E+02-3.65415E+03-3.19916E+02-6.04811E-09 1.12232E-09
 -1       859-6.58679E+04-8.71328E+02-2.20717E+03 3.23560E+03-2.70109E-09 7.86395E-09
 -1       860-6.53327E+04 1.04234E+02-9.28099E+02-3.26914E+02 1.41227E-10-9.48148E-10
 -1       861-6.54716E+04-1.16033E+02-5.17179E+02 3.24512E+03-5.10558E-09 5.02425E-11
 -1       862-6.53862E+04 1.39092E+01-2.28195E+02-3.29454E+02 3.43829E-09-3.02356E-09
 -1       863-6.54084E+04-9.57795E+00-1.13112E+02 3.24625E+03 6.02770E-09-8.30007E-09
 -1       864-6.53960E+04 9.08473E-02-3.60357E+01-3.28047E+02 4.58211E-09-1.80973E-09
 -1       865-6.53905E+04 1.46346E+01 1.96882E+01 3.23910E+03 3.37584E-09 5.27145E-09
 -1       866-6.54033E+04-1.04839E+01 7.45149E+01-3.22301E+02-1.62649E-09-3.72111E-10
 -1       867-6.53471E+04 8.84179E+01 2.05348E+02 3.22354E+03-5.04485E-12-9.81071E-09
 -1       868-6.54377E+04-7.30248E+01 3.46998E+02-3.12486E+02-4.14104E-10-4.71277E-09
 -1       869-6.50876E+04 6.06533E+02 9.31356E+02 3.19732E+03-4.50996E-10-5.49232E-09
 -1       870-6.56602E+04-5.15485E+02 1.35131E+03-2.96086E+02-9.58551E-10-2.05574E-09
 -1       871-2.90569E+03-6.02552E+03-9.45240E+03 6.19419E+04 2.01089E-09 3.29237E-09
 -1       872-1.26402E+03-8.13648E+03-3.84851E+03 8.03024E+04 2.47837E-09 4.70664E-10
 -1       873-2.88175E+01-7.14340E+03 5.64311E+02 6.18048E+04 2.16914E-10 1.91449E-09
 -1       874 1.45940E+03-5.76248E+03 5.39510E+03 8.03316E+04 3.11138E-09 6.55064E-09
 -1       875 3.46304E+03-8.42832E+03 1.19564E+04 6.19178E+04 1.88902E-09 3.13730E-09
 -1       876 1.55259E+05 2.67677E+04 8.32881E+03 6.30058E+04-5.82628E-09-6.68842E-09
 -1       877 1.55730E+05 2.86008E+04 4.44769E+03 6.54752E+04-4.24916E-09 9.71681E-10
 -1       878 1.56038E+05 2.58452E+04 1.86343E+03 6.36895E+04-1.18075E-09-2.31739E-09
 -1       879 1.54597E+05 2.74728E+04 9.28202E+02 6.55354E+04-2.24679E-09 2.42682E-09
 -1       880 1.56095E+05 2.58344E+04 4.32147E+02 6.37174E+04 1.73031E-09 4.72954E-09
 -1       881 1.54522E+05 2.74251E+04 2.30092E+02 6.55244E+04 4.59613E-09-1.04308E-09
 -1       882 1.56101E+05 2.58409E+04 1.46092E+02 6.37182E+04 2.58217E-09-1.11950E-09
 -1       883 1.54516E+05 2.74229E+04 1.55230E+02 6.55215E+04 1.09117E-09 9.89618E-09
 -1       884 1.56098E+05 2.58390E+04 2.45311E+02 6.37183E+04 1.27721E-09 6.19963E-10
 -1       885 1.54536E+05 2.74265E+04 4.92202E+02 6.55278E+04 4.38213E-09 3.02111E-09
 -1       886 1.56079E+05 2.58246E+04 9.91567E+02 6.37163E+04-7.39448E-10-3.23246E-09
 -1       887 1.54710E+05 2.75406E+04 2.16582E+03 6.55526E+04-7.22639E-09-6.61544E-09
 -1       888 1.55942E+05 2.58490E+04 4.36422E+03 6.36470E+04 6.24539E-10-1.50931E-09
 -1       889 1.57311E+05 3.02405E+04 1.04261E+04 6.54695E+04 4.23758E-09 1.12959E-09
 -1       890 1.54163E+05 2.79617E+04 1.95269E+04 6.19829E+04 3.02748E-09 5.08498E-09
 -1       891-9.58667E+01-8.83340E+04-1.03960E+03 1.68374E+04 4.51450E-10 3.33068E-09
 -1       892-1.66754E+02-8.85841E+04-1.13243E+03 2.54811E+04-1.37095E-09 4.32919E-09
 -1       893-2.55346E+01-8.83680E+04-1.61939E+03 1.68405E+04 2.62617E-10-3.11502E-09
 -1       894-8.82391E+02-8.92102E+04-3.36385E+03 2.53910E+04-1.85037E-09-3.96722E-09
 -1       895-6.87662E+02-8.76717E+04-5.92735E+03 1.69265E+04-5.95264E-10-7.34963E-09
 -1       956-1.94977E+05-2.81457E+03-7.08829E+03 1.28696E+04-2.51202E-09 3.86081E-09
 -1       957-1.96377E+05-9.49391E+02-3.63900E+03 1.54936E+04-8.84029E-10 1.53773E-09
 -1       958-1.95604E+05-7.54057E+01-1.63933E+03 1.27856E+04 1.53250E-09-1.23714E-09
 -1       959-1.95715E+05-1.37257E+01-8.37409E+02 1.55843E+04-1.75896E-09 3.00929E-10
 -1       960-1.95658E+05 2.27963E+01-4.08098E+02 1.27778E+04-2.75440E-09-1.61072E-09
 -1       961-1.95665E+05 2.05931E+01-2.16399E+02 1.55930E+04-4.52746E-09-3.60387E-10
 -1       962-1.95668E+05 1.92003E+01-1.23502E+02 1.27768E+04-1.69348E-09 3.00827E-09
 -1       963-1.95662E+05 2.09319E+01-9.85374E+01 1.55945E+04-4.13820E-09-1.58025E-11
 -1       964-1.95670E+05 2.02574E+01-1.18804E+02 1.27764E+04-2.15289E-09-6.23334E-09
 -1       965-1.95669E+05 2.29644E+01-2.04609E+02 1.55945E+04 1.62814E-09-2.84865E-09
 -1       966-1.95664E+05 2.58920E+01-3.83627E+02 1.27767E+04-1.09128E-09 1.03989E-09
 -1       967-1.95720E+05-6.89904E+00-7.86594E+02 1.55898E+04 1.19815E-09 3.10149E-09
 -1       968-1.95617E+05-6.40986E+01-1.53911E+03 1.27812E+04-8.41283E-11 4.66434E-09
 -1       969-1.96346E+05-8.83499E+02-3.41725E+03 1.55371E+04 6.86100E-10 7.65868E-09
 -1       970-1.95031E+05-2.63495E+03-6.65585E+03 1.28311E+04 1.59434E-09-1.18962E-09
 -1       971-1.85382E+05-9.80721E+02-5.46017E+03 9.11147E+03-3.41288E-09-1.15961E-11
 -1       972-1.86710E+05-7.03915E+02-2.97387E+03 1.27205E+04-4.10637E-10-4.34420E-09
 -1       973-1.85987E+05-6.22477E+00-1.33132E+03 9.03646E+03-2.81852E-09 1.07445E-09
 -1       974-1.86078E+05-7.59950E+00-6.89792E+02 1.28010E+04-1.60981E-10-2.20098E-09
 -1       975-1.86032E+05 1.80338E+01-3.43795E+02 9.03023E+03-2.99178E-09 1.44951E-10
 -1       976-1.86039E+05 1.98271E+01-1.96876E+02 1.28083E+04-1.17610E-08-3.62036E-09
 -1       977-1.86040E+05 1.70203E+01-1.40046E+02 9.02907E+03-1.70712E-09 1.57729E-09
 -1       978-1.86040E+05 2.23210E+01-1.60131E+02 1.28099E+04 8.93760E-09 1.84741E-09
 -1       979-1.86039E+05 2.09311E+01-2.53948E+02 9.02861E+03 2.70126E-09 4.10495E-09
 -1       980-1.86058E+05 2.37032E+01-4.88254E+02 1.28101E+04 4.45547E-09 3.91753E-09
 -1       981-1.86024E+05 3.31386E+01-9.44459E+02 9.02887E+03 1.06434E-09 4.73420E-10
 -1       982-1.86188E+05-4.56860E+01-1.95151E+03 1.28066E+04 3.63457E-10-4.64352E-09
 -1       983-1.85906E+05-2.67217E+01-3.79131E+03 9.03227E+03 3.32147E-09 2.44154E-09
 -1       984-1.88013E+05-2.02466E+03-8.48990E+03 1.27558E+04-7.52493E-10 9.87143E-10
 -1       985-1.84190E+05-2.80033E+03-1.55901E+04 9.08278E+03 3.55158E-09 3.24690E-10
 -3
    1PSTEP                         7           4           1          
  100CL  104 4.68750E-01         409                     0    4           1
 -4  DISP        4    1
 -5  D1          1    2    1    0
 -5  D2          1    2    2    0
 -5  D3          1    2    3    0
 -5  ALL         1    2    0    0    1ALL
 -1         1 1.27713E-04 0.00000E+00 0.00000E+00
 -1         2 1.17172E-04-4.28712E-30 1.65436E-24
 -1         3 1.10586E-04-9.88488E-28 0.00000E+00
 -1         5 7.87572E-05-2.98546E-27 0.00000E+00
 -1         8 1.03298E-04-8.86451E-07 0.00000E+00
 -1         9 1.04012E-04 4.55084E-07 0.00000E+00
 -1        10 1.02422E-04-1.50050E-06 3.30872E-24
 -1        12 7.82647E-05 5.12317E-07-1.65436E-24
 -1        15 7.42241E-05-9.78008E-07 4.13590E-25
 -1        16 7.68625E-05 2.99194E-07 0.00000E+00
 -1        17 7.63365E-05-3.16822E-06 0.00000E+00
 -1        18 7.57963E-05 7.24146E-07 0.00000E+00
 -1        19 7.67874E-05 1.02180E-06 0.00000E+00
 -1        20 7.69192E-05 1.46657E-05 0.00000E+00
 -1        21 7.64187E-05 2.76347E-05 0.00000E+00
 -1        24 1.86565E-05-4.33962E-06 0.00000E+00
 -1        25 7.42903E-05 8.42521E-07 0.00000E+00
 -1        26 7.52212E-05 1.42318E-06 0.00000E+00
 -1        27 7.38029E-05 1.23894E-05 0.00000E+00
 -1        28 7.33491E-05 2.71979E-05 0.00000E+00
 -1        32 0.00000E+00 0.00000E+00 0.00000E+00
 -1        33 7.24399E-05 1.90768E-06 0.00000E+00
 -1        34 7.10710E-05 1.23687E-05 0.00000E+00
 -1        35 6.97702E-05 2.69672E-05 0.00000E+00
 -1        51 1.26126E-04-1.45713E-07 0.00000E+00
 -1        52 1.23184E-04-2.87517E-07 0.00000E+00
 -1        53 1.19153E-04-4.30811E-07 0.00000E+00
 -1        54 1.14309E-04-5.77033E-07 3.30872E-24
 -1        55 1.08932E-04-7.26908E-07 1.34417E-24
 -1        56 1.26571E-04-7.43912E-07 0.00000E+00
 -1        57 1.25574E-04-2.00791E-06 1.32349E-23
 -1        58 1.24721E-04-3.64598E-06-2.64698E-23
 -1        59 1.23947E-04-5.52108E-06-2.64698E-23
 -1        60 1.23203E-04-7.47546E-06 0.00000E+00
 -1        61 1.22428E-04-9.35204E-06-2.64698E-23
 -1        62 1.21567E-04-1.09979E-05 0.00000E+00
 -1        63 1.20564E-04-1.22677E-05 0.00000E+00
 -1        64 1.19376E-04-1.30388E-05 5.29396E-23
 -1        65 1.17960E-04-1.32040E-05-2.64698E-23
 -1        66 1.16290E-04-1.26931E-05-5.29396E-23
 -1        67 1.14348E-04-1.14562E-05 2.64698E-23
 -1        68 1.12131E-04-9.48845E-06 2.64698E-23
 -1        69 1.09651E-04-6.80453E-06 1.32349E-23
 -1        70 1.06921E-04-3.46832E-06-2.64698E-23
 -1        86 1.16829E-04 8.37672E-08 1.65436E-24
 -1        87 1.15799E-04 1.66542E-07 8.27181E-25
 -1        88 1.14051E-04 2.48275E-07 0.00000E+00
 -1        89 1.11549E-04 3.25083E-07-4.13590E-25
 -1        90 1.08226E-04 4.00729E-07 3.30872E-24
 -1       121 1.10358E-04-2.48831E-07 0.00000E+00
 -1       122 1.09675E-04-4.97867E-07 0.00000E+00
 -1       123 1.08537E-04-7.47310E-07 0.00000E+00
 -1       124 1.06947E-04-9.97401E-07 0.00000E+00
 -1       125 1.04908E-04-1.24827E-06 0.00000E+00
 -1       191 7.87435E-05 8.53934E-08 0.00000E+00
 -1       192 7.87025E-05 1.70785E-07 0.00000E+00
 -1       193 7.86341E-05 2.56175E-07 0.00000E+00
 -1       194 7.85383E-05 3.41563E-07 3.30872E-24
 -1       195 7.84152E-05 4.26944E-07 0.00000E+00
 -1       251 1.03322E-04 3.14217E-06 0.00000E+00
 -1       252 1.03367E-04 5.56187E-06 0.00000E+00
 -1       253 1.03412E-04 6.63321E-06 1.03398E-25
 -1       254 1.03462E-04 6.61368E-06 4.13590E-25
 -1       255 1.03511E-04 5.73243E-06 0.00000E+00
 -1       256 1.03560E-04 4.21679E-06 0.00000E+00
 -1       257 1.03608E-04 2.27741E-06 1.65436E-24
 -1       258 1.03656E-04 1.24068E-07 8.27181E-25
 -1       259 1.03704E-04-2.03919E-06 0.00000E+00
 -1       260 1.03752E-04-4.00825E-06 0.00000E+00
 -1       261 1.03801E-04-5.57388E-06 8.27181E-25
 -1       262 1.03849E-04-6.52609E-06 0.00000E+00
 -1       263 1.03899E-04-6.63865E-06 0.00000E+00
 -1       264 1.03944E-04-5.68360E-06 8.27181E-25
 -1       265 1.03989E-04-3.40524E-06 3.30872E-24
 -1       266 9.84526E-05-9.13664E-07 0.00000E+00
 -1       267 9.36070E-05-9.27467E-07 0.00000E+00
 -1       268 8.87613E-05-9.42118E-07-1.65436E-24
 -1       269 8.39155E-05-9.54254E-07-4.13590E-25
 -1       270 7.90699E-05-9.66331E-07 4.13590E-25
 -1       271 1.00348E-04 2.76756E-06 0.00000E+00
 -1       272 9.78245E-05 5.15827E-06 1.32349E-23
 -1       273 9.57269E-05 6.42506E-06 0.00000E+00
 -1       274 9.39918E-05 6.70702E-06 0.00000E+00
 -1       275 9.25646E-05 6.16753E-06 5.29396E-23
 -1       276 9.13779E-05 4.98213E-06-2.64698E-23
 -1       277 9.03621E-05 3.33936E-06 0.00000E+00
 -1       278 8.94436E-05 1.43564E-06 0.00000E+00
 -1       279 8.85473E-05-5.27553E-07 5.29396E-23
 -1       280 8.75976E-05-2.34762E-06 0.00000E+00
 -1       281 8.65199E-05-3.82485E-06-5.29396E-23
 -1       282 8.52423E-05-4.76557E-06 0.00000E+00
 -1       283 8.36953E-05-4.98661E-06-5.29396E-23
 -1       284 8.18187E-05-4.31610E-06 2.64698E-23
 -1       285 7.95476E-05-2.60281E-06 2.64698E-23
 -1       301 9.93027E-05 4.22115E-07 6.61744E-24
 -1       302 9.46163E-05 4.04297E-07 0.00000E+00
 -1       303 8.99908E-05 3.87174E-07-3.30872E-24
 -1       304 8.54645E-05 3.68842E-07 0.00000E+00
 -1       305 8.10759E-05 3.48689E-07-1.32349E-23
 -1       306 1.00966E-04 3.87345E-06 0.00000E+00
 -1       307 9.83927E-05 5.88817E-06-2.64698E-23
 -1       308 9.63751E-05 6.43977E-06 0.00000E+00
 -1       309 9.49021E-05 5.51360E-06-2.64698E-23
 -1       310 9.39023E-05 3.32184E-06-5.29396E-23
 -1       311 9.32722E-05 1.33092E-07 0.00000E+00
 -1       312 9.28572E-05-3.63433E-06-5.29396E-23
 -1       313 9.24914E-05-7.53524E-06 0.00000E+00
 -1       314 9.20022E-05-1.11039E-05 0.00000E+00
 -1       315 9.12223E-05-1.38906E-05 2.64698E-23
 -1       316 9.00266E-05-1.55629E-05 5.29396E-23
 -1       317 8.83107E-05-1.58407E-05 0.00000E+00
 -1       318 8.60436E-05-1.46528E-05-5.29396E-23
 -1       319 8.32319E-05-1.19926E-05-2.64698E-23
 -1       320 7.99415E-05-8.08059E-06 0.00000E+00
 -1       336 9.94352E-05-1.77371E-06 0.00000E+00
 -1       337 9.58932E-05-2.04904E-06-3.30872E-24
 -1       338 9.18031E-05-2.32629E-06-6.61744E-24
 -1       339 8.71735E-05-2.60540E-06 0.00000E+00
 -1       340 8.20143E-05-2.88703E-06-6.61744E-24
 -1       406 7.80868E-05 5.97675E-07 3.30872E-24
 -1       407 7.78816E-05 6.83000E-07 0.00000E+00
 -1       408 7.76489E-05 7.68268E-07-3.30872E-24
 -1       409 7.73890E-05 8.53371E-07 1.65436E-24
 -1       410 7.71017E-05 9.38144E-07 3.30872E-24
 -1       521 7.51586E-05-3.86682E-06 0.00000E+00
 -1       522 7.84386E-05-2.20106E-05-2.64698E-23
 -1       523 8.55653E-05-5.10775E-05 1.05879E-22
 -1       524 9.50583E-05-8.71336E-05-5.29396E-23
 -1       525 1.05074E-04-1.24736E-04-1.05879E-22
 -1       526 1.13726E-04-1.58316E-04 0.00000E+00
 -1       527 1.19361E-04-1.83171E-04-1.05879E-22
 -1       528 1.20475E-04-1.95334E-04 0.00000E+00
 -1       529 1.16415E-04-1.93543E-04-1.05879E-22
 -1       530 1.06919E-04-1.77668E-04-5.29396E-23
 -1       531 9.29238E-05-1.50519E-04-1.05879E-22
 -1       532 7.58142E-05-1.15778E-04 5.29396E-23
 -1       533 5.77297E-05-7.86872E-05 0.00000E+00
 -1       534 4.09367E-05-4.46564E-05 2.64698E-23
 -1       535 2.73502E-05-1.84904E-05-5.29396E-23
 -1       536 7.62839E-05 2.26133E-06 0.00000E+00
 -1       537 7.62427E-05 6.68631E-06 0.00000E+00
 -1       538 7.62049E-05 1.00912E-05 0.00000E+00
 -1       539 7.61712E-05 1.24618E-05 0.00000E+00
 -1       540 7.61393E-05 1.38525E-05 0.00000E+00
 -1       541 7.61085E-05 1.43189E-05-4.13590E-25
 -1       542 7.60778E-05 1.39776E-05 0.00000E+00
 -1       543 7.60467E-05 1.29463E-05 0.00000E+00
 -1       544 7.60150E-05 1.13881E-05-8.27181E-25
 -1       545 7.59827E-05 9.46709E-06 0.00000E+00
 -1       546 7.59501E-05 7.37096E-06 0.00000E+00
 -1       547 7.59176E-05 5.28782E-06 0.00000E+00
 -1       548 7.58855E-05 3.40486E-06 0.00000E+00
 -1       549 7.58545E-05 1.90903E-06-2.06795E-25
 -1       550 7.58239E-05 9.61881E-07 0.00000E+00
 -1       551 6.88023E-05-3.34225E-06 0.00000E+00
 -1       552 5.97162E-05-3.52552E-06-1.65436E-24
 -1       553 4.96146E-05-3.71783E-06 3.30872E-24
 -1       554 3.90419E-05-3.91703E-06 0.00000E+00
 -1       555 2.85424E-05-4.11813E-06 1.32349E-23
 -1       556 7.43644E-05 1.93790E-06 0.00000E+00
 -1       557 7.28529E-05 5.85528E-06 0.00000E+00
 -1       558 7.17517E-05 8.69257E-06 0.00000E+00
 -1       559 7.10152E-05 1.05671E-05 0.00000E+00
 -1       560 7.05977E-05 1.15960E-05 1.32349E-23
 -1       561 7.04541E-05 1.18969E-05 0.00000E+00
 -1       562 7.05395E-05 1.15878E-05 0.00000E+00
 -1       563 7.08092E-05 1.07866E-05 0.00000E+00
 -1       564 7.12189E-05 9.61158E-06 0.00000E+00
 -1       565 7.17243E-05 8.18079E-06 0.00000E+00
 -1       566 7.22810E-05 6.61248E-06 0.00000E+00
 -1       567 7.28449E-05 5.02490E-06-2.06795E-25
 -1       568 7.33719E-05 3.53627E-06 0.00000E+00
 -1       569 7.38178E-05 2.26468E-06 0.00000E+00
 -1       570 7.41383E-05 1.32826E-06 0.00000E+00
 -1       571 7.58564E-05 7.80904E-07 0.00000E+00
 -1       572 7.59179E-05 7.96528E-07 2.06795E-25
 -1       573 7.59798E-05 7.78381E-07 1.65436E-24
 -1       574 7.60418E-05 7.34211E-07-4.13590E-25
 -1       575 7.61039E-05 6.71800E-07 0.00000E+00
 -1       576 7.61661E-05 5.98980E-07-8.27181E-25
 -1       577 7.62282E-05 5.23590E-07 0.00000E+00
 -1       578 7.62904E-05 4.53476E-07 1.65436E-24
 -1       579 7.63526E-05 3.96481E-07 0.00000E+00
 -1       580 7.64147E-05 3.60451E-07 1.65436E-24
 -1       581 7.64769E-05 3.53230E-07 0.00000E+00
 -1       582 7.65391E-05 3.82655E-07 0.00000E+00
 -1       583 7.66012E-05 4.56554E-07 0.00000E+00
 -1       584 7.66633E-05 5.82675E-07 0.00000E+00
 -1       585 7.67254E-05 7.68722E-07 0.00000E+00
 -1       586 7.55234E-05 7.45091E-07-8.27181E-25
 -1       587 7.52241E-05 7.65522E-07 2.06795E-25
 -1       588 7.49248E-05 7.85730E-07 0.00000E+00
 -1       589 7.46518E-05 8.05619E-07 0.00000E+00
 -1       590 7.44318E-05 8.24969E-07 0.00000E+00
 -1       591 7.57459E-05 8.13061E-07-5.16988E-26
 -1       592 7.57056E-05 8.68344E-07-4.13590E-25
 -1       593 7.56754E-05 8.96402E-07-4.13590E-25
 -1       594 7.56529E-05 9.03002E-07 0.00000E+00
 -1       595 7.56362E-05 8.93990E-07 0.00000E+00
 -1       596 7.56232E-05 8.75166E-07-2.06795E-25
 -1       597 7.56116E-05 8.52329E-07 0.00000E+00
 -1       598 7.55994E-05 8.31274E-07 0.00000E+00
 -1       599 7.55844E-05 8.17793E-07 4.13590E-25
 -1       600 7.55643E-05 8.17680E-07 0.00000E+00
 -1       601 7.55370E-05 8.36729E-07 0.00000E+00
 -1       602 7.55005E-05 8.80738E-07 0.00000E+00
 -1       603 7.54525E-05 9.55506E-07 3.10193E-25
 -1       604 7.53910E-05 1.06688E-06-1.03398E-25
 -1       605 7.53139E-05 1.22062E-06 0.00000E+00
 -1       606 7.67988E-05 1.41654E-06 0.00000E+00
 -1       607 7.68080E-05 1.89924E-06 0.00000E+00
 -1       608 7.68167E-05 2.46474E-06 0.00000E+00
 -1       609 7.68250E-05 3.10721E-06 0.00000E+00
 -1       610 7.68332E-05 3.82080E-06 0.00000E+00
 -1       611 7.68413E-05 4.59959E-06 0.00000E+00
 -1       612 7.68493E-05 5.43762E-06 0.00000E+00
 -1       613 7.68573E-05 6.32898E-06 0.00000E+00
 -1       614 7.68652E-05 7.26770E-06-1.65436E-24
 -1       615 7.68731E-05 8.24783E-06 0.00000E+00
 -1       616 7.68809E-05 9.26346E-06 0.00000E+00
 -1       617 7.68887E-05 1.03086E-05 0.00000E+00
 -1       618 7.68965E-05 1.13774E-05 8.27181E-25
 -1       619 7.69042E-05 1.24638E-05 0.00000E+00
 -1       620 7.69119E-05 1.35619E-05 0.00000E+00
 -1       621 7.64805E-05 1.08874E-06 0.00000E+00
 -1       622 7.61992E-05 1.15601E-06 8.27181E-25
 -1       623 7.59381E-05 1.22327E-06 0.00000E+00
 -1       624 7.56918E-05 1.29042E-06 0.00000E+00
 -1       625 7.54546E-05 1.35746E-06 0.00000E+00
 -1       626 7.67110E-05 1.43765E-06 3.30872E-24
 -1       627 7.66078E-05 1.92624E-06 0.00000E+00
 -1       628 7.64801E-05 2.48077E-06-3.30872E-24
 -1       629 7.63303E-05 3.09405E-06 0.00000E+00
 -1       630 7.61612E-05 3.75883E-06 0.00000E+00
 -1       631 7.59755E-05 4.46784E-06 1.65436E-24
 -1       632 7.57759E-05 5.21380E-06 0.00000E+00
 -1       633 7.55652E-05 5.98944E-06-1.65436E-24
 -1       634 7.53460E-05 6.78748E-06 3.30872E-24
 -1       635 7.51212E-05 7.60062E-06 0.00000E+00
 -1       636 7.48934E-05 8.42162E-06 0.00000E+00
 -1       637 7.46654E-05 9.24318E-06 8.27181E-25
 -1       638 7.44398E-05 1.00580E-05-1.65436E-24
 -1       639 7.42193E-05 1.08589E-05 0.00000E+00
 -1       640 7.40065E-05 1.16385E-05-8.27181E-25
 -1       656 7.60057E-05 1.42953E-05 0.00000E+00
 -1       657 7.54229E-05 1.39101E-05 3.30872E-24
 -1       658 7.50456E-05 1.35262E-05 0.00000E+00
 -1       659 7.47451E-05 1.31425E-05 0.00000E+00
 -1       660 7.43782E-05 1.27577E-05 0.00000E+00
 -1       661 7.65817E-05 1.57464E-05 0.00000E+00
 -1       662 7.62651E-05 1.67791E-05 0.00000E+00
 -1       663 7.59660E-05 1.77650E-05 0.00000E+00
 -1       664 7.56840E-05 1.87066E-05 8.27181E-25
 -1       665 7.54180E-05 1.96057E-05 0.00000E+00
 -1       666 7.51673E-05 2.04643E-05-8.27181E-25
 -1       667 7.49311E-05 2.12844E-05 1.65436E-24
 -1       668 7.47087E-05 2.20677E-05 0.00000E+00
 -1       669 7.44995E-05 2.28159E-05 0.00000E+00
 -1       670 7.43029E-05 2.35307E-05-8.27181E-25
 -1       671 7.41182E-05 2.42136E-05-1.65436E-24
 -1       672 7.39448E-05 2.48661E-05 0.00000E+00
 -1       673 7.37822E-05 2.54897E-05 0.00000E+00
 -1       674 7.36294E-05 2.60854E-05 0.00000E+00
 -1       675 7.34866E-05 2.66550E-05 4.13590E-25
 -1       676 7.59058E-05 2.75615E-05 0.00000E+00
 -1       677 7.53932E-05 2.74883E-05 8.27181E-25
 -1       678 7.48810E-05 2.74151E-05 0.00000E+00
 -1       679 7.43694E-05 2.73422E-05 8.27181E-25
 -1       680 7.38587E-05 2.72693E-05-1.65436E-24
 -1       771 1.47242E-05 3.26263E-06 0.00000E+00
 -1       772 1.13087E-05 9.48984E-06 1.32349E-23
 -1       773 8.38842E-06 1.44175E-05 2.64698E-23
 -1       774 5.93040E-06 1.81268E-05 0.00000E+00
 -1       775 3.90239E-06 2.07006E-05 0.00000E+00
 -1       776 2.27067E-06 2.22250E-05 0.00000E+00
 -1       777 1.00108E-06 2.27878E-05 0.00000E+00
 -1       778 5.87385E-08 2.24793E-05 0.00000E+00
 -1       779-5.91516E-07 2.13916E-05 0.00000E+00
 -1       780-9.85482E-07 1.96184E-05-1.32349E-23
 -1       781-1.15909E-06 1.72550E-05 2.64698E-23
 -1       782-1.14875E-06 1.43981E-05-1.32349E-23
 -1       783-9.90966E-07 1.11451E-05 0.00000E+00
 -1       784-7.22495E-07 7.59490E-06 1.32349E-23
 -1       785-3.80224E-07 3.84650E-06 2.64698E-23
 -1       786 7.43451E-05 8.06589E-07-4.13590E-25
 -1       787 7.44031E-05 7.76253E-07-4.13590E-25
 -1       788 7.44609E-05 7.51132E-07-1.65436E-24
 -1       789 7.45194E-05 7.30861E-07 0.00000E+00
 -1       790 7.45779E-05 7.15729E-07 0.00000E+00
 -1       791 7.46365E-05 7.06039E-07 8.27181E-25
 -1       792 7.46951E-05 7.02828E-07 0.00000E+00
 -1       793 7.47537E-05 7.07149E-07 0.00000E+00
 -1       794 7.48123E-05 7.21076E-07 1.65436E-24
 -1       795 7.48709E-05 7.46705E-07 0.00000E+00
 -1       796 7.49296E-05 7.87716E-07-1.65436E-24
 -1       797 7.49882E-05 8.47826E-07 8.27181E-25
 -1       798 7.50468E-05 9.33334E-07-1.65436E-24
 -1       799 7.51052E-05 1.05061E-06 0.00000E+00
 -1       800 7.51636E-05 1.21030E-06 1.65436E-24
 -1       801 6.92694E-05 7.93666E-07 0.00000E+00
 -1       802 5.42509E-05 6.47088E-07-1.65436E-24
 -1       803 3.45369E-05 4.26312E-07 0.00000E+00
 -1       804 1.54369E-05 2.10260E-07-3.30872E-24
 -1       805 2.18190E-06 8.18329E-08 0.00000E+00
 -1       806 7.42320E-05 7.65335E-07 1.65436E-24
 -1       807 7.41705E-05 6.89026E-07-8.27181E-25
 -1       808 7.41064E-05 6.18118E-07 1.65436E-24
 -1       809 7.40385E-05 5.56444E-07 8.27181E-25
 -1       810 7.39657E-05 5.07824E-07 0.00000E+00
 -1       811 7.38864E-05 4.76023E-07 1.65436E-24
 -1       812 7.37995E-05 4.64802E-07 1.65436E-24
 -1       813 7.37034E-05 4.77911E-07 8.27181E-25
 -1       814 7.35967E-05 5.19098E-07-3.30872E-24
 -1       815 7.34782E-05 5.92108E-07-1.65436E-24
 -1       816 7.33463E-05 7.00683E-07 1.65436E-24
 -1       817 7.31996E-05 8.48564E-07-1.65436E-24
 -1       818 7.30369E-05 1.03949E-06-1.65436E-24
 -1       819 7.28567E-05 1.27718E-06-8.27181E-25
 -1       820 7.26578E-05 1.56536E-06-8.27181E-25
 -1       821 7.51378E-05 1.65627E-06 0.00000E+00
 -1       822 7.50492E-05 1.87731E-06 0.00000E+00
 -1       823 7.49609E-05 2.12605E-06-1.65436E-24
 -1       824 7.48716E-05 2.44210E-06 1.65436E-24
 -1       825 7.47823E-05 2.85261E-06 3.30872E-24
 -1       826 7.46927E-05 3.38436E-06 1.65436E-24
 -1       827 7.46031E-05 4.04162E-06 0.00000E+00
 -1       828 7.45133E-05 4.82820E-06 1.65436E-24
 -1       829 7.44234E-05 5.72393E-06 0.00000E+00
 -1       830 7.43335E-05 6.70818E-06 0.00000E+00
 -1       831 7.42435E-05 7.74396E-06-3.30872E-24
 -1       832 7.41538E-05 8.79403E-06 1.65436E-24
 -1       833 7.40641E-05 9.81850E-06-1.65436E-24
 -1       834 7.39754E-05 1.07776E-05 0.00000E+00
 -1       835 7.38865E-05 1.16437E-05 0.00000E+00
 -1       836 7.48936E-05 1.50384E-06 1.65436E-24
 -1       837 7.44594E-05 1.58628E-06 0.00000E+00
 -1       838 7.39577E-05 1.66857E-06-1.65436E-24
 -1       839 7.34278E-05 1.75032E-06 0.00000E+00
 -1       840 7.29088E-05 1.83195E-06-4.13590E-25
 -1       856 7.37778E-05 1.31267E-05 2.06795E-25
 -1       857 7.37498E-05 1.39613E-05-2.06795E-25
 -1       858 7.37218E-05 1.48778E-05 8.27181E-25
 -1       859 7.36933E-05 1.58609E-05 0.00000E+00
 -1       860 7.36647E-05 1.68950E-05 8.27181E-25
 -1       861 7.36360E-05 1.79647E-05 4.13590E-25
 -1       862 7.36073E-05 1.90543E-05-8.27181E-25
 -1       863 7.35785E-05 2.01484E-05 0.00000E+00
 -1       864 7.35497E-05 2.12314E-05 8.27181E-25
 -1       865 7.35209E-05 2.22876E-05 0.00000E+00
 -1       866 7.34922E-05 2.33016E-05 0.00000E+00
 -1       867 7.34636E-05 2.42579E-05-4.13590E-25
 -1       868 7.34349E-05 2.51409E-05 0.00000E+00
 -1       869 7.34063E-05 2.59355E-05 4.13590E-25
 -1       870 7.33778E-05 2.66262E-05 0.00000E+00
 -1       871 7.32487E-05 1.23886E-05 4.13590E-25
 -1       872 7.27880E-05 1.23858E-05 0.00000E+00
 -1       873 7.23807E-05 1.23827E-05-4.13590E-25
 -1       874 7.19858E-05 1.23792E-05 0.00000E+00
 -1       875 7.15627E-05 1.23752E-05-4.13590E-25
 -1       876 7.36114E-05 1.31348E-05 1.65436E-24
 -1       877 7.34041E-05 1.39277E-05 1.65436E-24
 -1       878 7.31813E-05 1.47621E-05 3.30872E-24
 -1       879 7.29451E-05 1.56327E-05 0.00000E+00
 -1       880 7.26973E-05 1.65343E-05-3.30872E-24
 -1       881 7.24399E-05 1.74615E-05-1.65436E-24
 -1       882 7.21750E-05 1.84089E-05 0.00000E+00
 -1       883 7.19044E-05 1.93713E-05-1.65436E-24
 -1       884 7.16302E-05 2.03432E-05 3.30872E-24
 -1       885 7.13544E-05 2.13194E-05 1.65436E-24
 -1       886 7.10789E-05 2.22947E-05 0.00000E+00
 -1       887 7.08057E-05 2.32635E-05 0.00000E+00
 -1       888 7.05368E-05 2.42207E-05 0.00000E+00
 -1       889 7.02739E-05 2.51608E-05 0.00000E+00
 -1       890 7.00189E-05 2.60785E-05 0.00000E+00
 -1       891 7.28585E-05 2.71593E-05 0.00000E+00
 -1       892 7.23511E-05 2.71206E-05 0.00000E+00
 -1       893 7.18078E-05 2.70819E-05 8.27181E-25
 -1       894 7.12093E-05 2.70433E-05-2.06795E-25
 -1       895 7.05364E-05 2.70047E-05 6.20385E-25
 -1       956 7.23559E-05 2.36049E-06 0.00000E+00
 -1       957 7.22706E-05 2.86820E-06 8.27181E-25
 -1       958 7.21850E-05 3.42509E-06 0.00000E+00
 -1       959 7.20993E-05 4.02509E-06-8.27181E-25
 -1       960 7.20135E-05 4.66214E-06-1.65436E-24
 -1       961 7.19276E-05 5.33015E-06-1.65436E-24
 -1       962 7.18417E-05 6.02300E-06 0.00000E+00
 -1       963 7.17558E-05 6.73459E-06 8.27181E-25
 -1       964 7.16699E-05 7.45880E-06-3.30872E-24
 -1       965 7.15839E-05 8.18951E-06-1.65436E-24
 -1       966 7.14980E-05 8.92063E-06 3.30872E-24
 -1       967 7.14121E-05 9.64604E-06-1.65436E-24
 -1       968 7.13263E-05 1.03596E-05 0.00000E+00
 -1       969 7.12406E-05 1.10553E-05 1.65436E-24
 -1       970 7.11552E-05 1.17269E-05 0.00000E+00
 -1       971 7.09908E-05 1.30285E-05 0.00000E+00
 -1       972 7.09095E-05 1.37605E-05 0.00000E+00
 -1       973 7.08280E-05 1.45566E-05-1.65436E-24
 -1       974 7.07463E-05 1.54085E-05 1.65436E-24
 -1       975 7.06646E-05 1.63081E-05 0.00000E+00
 -1       976 7.05828E-05 1.72470E-05 1.65436E-24
 -1       977 7.05010E-05 1.82168E-05 3.30872E-24
 -1       978 7.04191E-05 1.92094E-05 8.27181E-25
 -1       979 7.03372E-05 2.02162E-05 0.00000E+00
 -1       980 7.02554E-05 2.12291E-05-1.65436E-24
 -1       981 7.01736E-05 2.22397E-05 0.00000E+00
 -1       982 7.00918E-05 2.32396E-05-1.65436E-24
 -1       983 7.00102E-05 2.42207E-05 0.00000E+00
 -1       984 6.99289E-05 2.51744E-05-8.27181E-25
 -1       985 6.98480E-05 2.60926E-05 3.30872E-24
 -3
    1PSTEP                         8           4           1          
  100CL  104 4.68750E-01         409                     0    4           1
 -4  STRESS      6    1
 -5  SXX         1    4    1    1
 -5  SYY         1    4    2    2
 -5  SZZ         1    4    3    3
 -5  SXY         1    4    1    2
 -5  SYZ         1    4    2    3
 -5  SZX         1    4    3    1
 -1         1-1.66138E+06-7.53869E+05-3.41589E+05-1.05164E+06-1.05501E-10 1.14524E-08
 -1         2 2.65757E+03 2.43381E+05 8.70979E+03 7.09642E+02-1.59218E-10 6.09515E-09
 -1         3-8.67662E+01-7.10807E+05 1.66391E+02-2.57707E+02-6.28564E-11-3.87809E-09
 -1         5-5.94851E+00 2.44343E+05 6.40382E+00 1.11056E-01 7.69029E-11-1.99179E-10
 -1         8-7.83774E+05-3.32645E+05-3.38472E+04-5.65526E+05 1.05501E-10-2.61207E-09
 -1         9-1.37365E+06-3.62434E+05-1.40252E+05-4.61155E+05 3.43862E-09-2.54950E-09
 -1        10-5.74922E+02-7.40510E+05-9.71433E+02-1.73886E+03-3.59296E-09-1.68883E-08
 -1        12-3.32451E+00 2.44357E+05 2.07665E+02 1.00612E+00 2.31481E-10-2.96336E-09
 -1        15 1.98056E+03 1.08844E+03 6.40215E+03 4.15018E+00-8.06324E-11 5.24356E-09
 -1        16-3.51723E+06-1.21376E+06-5.55178E+05-1.24556E+06 1.11177E-08-4.11334E-09
 -1        17-8.45080E+05-5.14506E+05-1.63003E+05-4.80044E+05 5.77711E-10 5.04660E-09
 -1        18 8.15803E+03-2.33363E+03-1.66367E+04-5.80819E+04 7.78869E-10-2.08729E-10
 -1        19 7.65458E+04 9.12266E+04-4.36698E+02 1.49521E+04-5.44424E-10-1.82263E-09
 -1        20-3.21449E+04-3.61632E+05-7.97840E+04 2.65199E+04 3.78289E-09 5.67858E-09
 -1        21-3.40917E+01-2.09299E+05-6.75767E+02-7.36239E+01-9.45774E-09-5.72598E-09
 -1        24-3.25398E+06-1.01749E+06-4.44384E+05-1.26449E+06-8.99551E-09-9.72068E-09
 -1        25 2.46584E+04-2.52870E+04 1.19679E+04-1.05179E+05 3.31875E-10 7.39274E-09
 -1        26-1.79017E+04 6.22568E+04-1.23723E+04-8.83055E+03 1.52177E-09 2.17248E-09
 -1        27-5.77945E+04-1.98372E+05-7.44080E+04 4.47011E+04 6.12802E-09 2.96798E-09
 -1        28 1.62015E+04-5.78368E+04 1.18244E+04 1.84870E+04 9.95982E-10-9.08832E-09
 -1        32-7.79909E+05-1.63665E+05 3.23398E+05-5.26067E+05-1.66037E-08 9.85159E-09
 -1        33-1.13471E+05 5.83065E+04 2.06705E+04-3.37677E+04 1.05795E-09 4.90521E-09
 -1        34-1.47238E+05-1.46676E+04 3.45941E+02 4.53106E+04 4.21748E-09 1.64437E-09
 -1        35-1.64759E+04-2.29855E+04-9.00855E+02 3.64589E+04 6.21667E-09 1.21630E-09
 -1        51 1.40351E+04-3.67064E+05 3.63378E+04-9.31749E+05 2.18279E-10 1.05356E-08
 -1        52 8.82440E+03-3.66041E+05 2.43123E+04-1.08673E+06 1.09867E-09 5.12227E-09
 -1        53 6.64860E+03-3.78391E+05 2.10104E+04-9.28510E+05 7.27596E-10 5.38421E-10
 -1        54 1.90835E+04-3.77072E+05 3.40817E+04-1.09010E+06-9.67702E-10-5.47152E-09
 -1        55 3.79311E+04-3.90069E+05 6.10747E+04-9.27991E+05 4.36557E-11 4.83487E-09
 -1        56-3.18835E+06-3.58994E+05-2.51003E+05-1.22898E+06-1.54978E-09 7.10133E-09
 -1        57-3.28724E+06-5.88021E+05-1.69194E+05-1.22144E+06-8.00355E-11 3.56522E-10
 -1        58-3.23945E+06-4.37808E+05-5.90559E+04-1.21238E+06-1.10049E-10-2.75759E-09
 -1        59-3.22805E+06-4.95624E+05-3.52522E+04-1.24136E+06-1.57274E-09-3.05045E-09
 -1        60-3.24701E+06-4.48684E+05-1.37887E+04-1.21000E+06-5.22050E-10-2.95586E-09
 -1        61-3.22062E+06-4.81482E+05-7.83253E+03-1.24247E+06-4.69299E-10-3.20597E-09
 -1        62-3.24673E+06-4.51622E+05-3.78021E+03-1.21135E+06-1.82581E-09 3.76099E-09
 -1        63-3.22363E+06-4.75592E+05-3.07033E+03-1.23768E+06-1.52863E-09 1.05104E-08
 -1        64-3.24388E+06-4.54611E+05-3.56685E+03-1.21472E+06-1.60389E-09-6.68706E-10
 -1        65-3.23125E+06-4.70086E+05-7.04777E+03-1.22942E+06-9.88166E-10-1.39312E-09
 -1        66-3.23900E+06-4.57239E+05-1.24899E+04-1.21951E+06 1.57797E-10 2.78578E-09
 -1        67-3.24693E+06-4.73637E+05-3.16051E+04-1.21792E+06-4.32863E-10 1.50612E-09
 -1        68-3.22825E+06-4.51400E+05-5.31187E+04-1.22611E+06 1.73031E-09 9.60426E-10
 -1        69-3.30631E+06-5.50659E+05-1.51934E+05-1.19343E+06 1.97724E-09-1.48957E-08
 -1        70-3.18024E+06-3.82561E+05-2.25493E+05-1.24322E+06-2.90675E-09-5.25324E-09
 -1        86-1.33534E+03 2.40530E+05 9.29745E+03-3.54848E+02 1.14210E-09 3.78213E-09
 -1        87 8.85277E+03 2.46428E+05 1.94458E+04 1.46521E+03 1.91631E-09 1.36174E-09
 -1        88-7.51410E+03 2.37486E+05 2.97185E+04-1.11044E+03 2.83580E-09-7.58632E-10
 -1        89 5.59891E+04 2.68471E+05 8.02244E+04 3.19685E+03 4.34284E-09-1.33184E-08
 -1        90-4.83216E+04 2.18511E+05 1.13254E+05-2.08596E+03 4.99131E-09-9.22819E-09
 -1       121-1.36329E+02-7.11195E+05 1.32215E+02 1.28694E+02 4.41418E-10-9.24229E-09
 -1       122-3.14981E+01-7.10773E+05 3.60118E+02-5.15241E+02-1.34806E-09-7.44149E-09
 -1       123-1.74326E+02-7.11235E+05 5.56028E+02 3.85599E+02 1.08736E-09 1.50249E-09
 -1       124 6.33818E+02-7.10375E+05 1.50233E+03-1.15375E+03-2.58683E-09-1.98816E-09
 -1       125-6.02184E+02-7.11610E+05 2.27665E+03 7.66824E+02 1.60526E-09-1.86810E-09
 -1       191-6.45672E+00 2.44364E+05 7.58775E+00-5.62387E-02 1.51324E-10 5.47516E-10
 -1       192-6.53757E+00 2.44344E+05 1.35622E+01 6.68202E-01 1.90775E-10 2.64663E-09
 -1       193-8.02262E+00 2.44364E+05 2.51573E+01-6.16749E-01 2.27402E-10-3.76622E-09
 -1       194-8.43305E+00 2.44346E+05 5.13069E+01 1.64623E+00 1.18731E-10-5.91172E-09
 -1       195-1.10319E+01 2.44362E+05 1.00294E+02-1.04193E+00 3.53843E-10-6.55064E-09
 -1       251 1.23262E+05-4.14115E+04 9.65262E+04 3.93594E+03 9.45079E-10-2.61207E-09
 -1       252 1.68216E+05 4.78826E+04 6.86506E+04-1.37700E+04-1.04421E-09-8.54016E-09
 -1       253 1.40092E+05-6.41291E+03 2.49634E+04 2.97516E+03 3.85057E-10-3.80533E-09
 -1       254 1.48265E+05 7.39953E+03 1.58589E+04-1.22700E+04-1.81069E-09-1.61231E-09
 -1       255 1.43097E+05-9.90674E+02 6.45147E+03 2.43599E+03 3.16618E-10 1.18553E-08
 -1       256 1.44614E+05 1.18069E+03 3.95289E+03-1.14703E+04 4.49091E-10 9.16714E-10
 -1       257 1.43688E+05-1.73939E+02 2.04248E+03 2.17549E+03 1.90127E-10 7.47264E-10
 -1       258 1.44007E+05 3.84617E+02 1.84006E+03-1.12036E+04-9.02105E-11-3.11404E-09
 -1       259 1.43685E+05-1.84252E+02 2.14032E+03 2.16926E+03-3.63030E-10 2.84695E-09
 -1       260 1.44645E+05 1.27151E+03 4.22950E+03-1.14462E+04 1.58707E-10 1.53977E-09
 -1       261 1.43066E+05-1.06978E+03 6.95957E+03 2.41815E+03 1.45627E-09-3.11820E-09
 -1       262 1.48524E+05 7.99745E+03 1.71089E+04-1.22196E+04 7.16909E-10-1.37220E-08
 -1       263 1.39860E+05-6.92732E+03 2.69841E+04 2.94263E+03-6.69047E-10 1.29330E-09
 -1       264 1.69954E+05 5.17350E+04 7.41332E+04-1.36960E+04-2.74099E-09 1.46902E-08
 -1       265 1.21751E+05-4.47312E+04 1.04335E+05 3.89438E+03-1.64221E-09 3.20870E-09
 -1       266-3.58536E+04-1.67625E+04 8.41351E+04-8.88124E+01 1.01863E-10-1.21852E-09
 -1       267 4.15654E+04 1.95411E+04 5.94592E+04 1.02458E+02 1.41881E-10-1.23810E-09
 -1       268-5.57379E+03-2.76735E+03 2.21011E+04-1.30557E+01-2.09184E-11 1.49890E-09
 -1       269 6.58107E+03 3.31217E+03 1.43650E+04 1.52071E+01 4.52474E-11-2.01417E-10
 -1       270-9.87826E+02-5.44205E+02 6.93420E+03-2.06374E+00-2.95586E-12-1.08619E-09
 -1       271-3.50896E+06-4.39039E+05-2.70061E+05-1.36854E+06 9.24047E-10 1.54250E-09
 -1       272-3.59074E+06-6.50724E+05-1.73576E+05-1.38277E+06 6.82348E-10-9.06584E-09
 -1       273-3.56147E+06-5.04561E+05-6.38011E+04-1.35457E+06 8.69932E-10 3.51793E-09
 -1       274-3.52884E+06-5.70979E+05-3.56611E+04-1.40473E+06-3.47427E-10 6.63385E-09
 -1       275-3.57032E+06-5.09611E+05-1.48442E+04-1.35042E+06 2.01817E-09 4.91127E-10
 -1       276-3.51820E+06-5.65348E+05-7.86284E+03-1.41158E+06-4.57021E-10 1.15112E-08
 -1       277-3.57269E+06-5.08838E+05-3.84911E+03-1.34857E+06-6.29825E-10 9.82504E-09
 -1       278-3.51591E+06-5.66021E+05-2.78725E+03-1.41393E+06 5.95946E-10 1.05749E-08
 -1       279-3.57294E+06-5.08651E+05-2.98389E+03-1.34833E+06-1.23623E-09-4.15480E-09
 -1       280-3.51720E+06-5.65712E+05-5.46557E+03-1.41263E+06-7.42148E-10-7.39192E-09
 -1       281-3.57122E+06-5.09313E+05-1.00186E+04-1.34972E+06 1.40699E-09 1.55524E-09
 -1       282-3.52490E+06-5.68773E+05-2.38938E+04-1.40714E+06-4.96584E-10-3.26963E-10
 -1       283-3.56470E+06-5.06591E+05-4.27275E+04-1.35316E+06-8.09905E-10-1.09139E-09
 -1       284-3.56765E+06-6.20522E+05-1.16091E+05-1.39041E+06-1.20053E-10 6.46833E-09
 -1       285-3.52855E+06-4.63896E+05-1.80793E+05-1.36367E+06 1.70803E-09 1.57161E-09
 -1       301 1.44040E+04-1.79352E+04 1.10010E+05-4.58903E+04-4.00178E-10 1.08748E-08
 -1       302 1.55117E+04 9.88279E+03 7.87296E+04-6.75749E+04 1.44792E-09 2.03027E-08
 -1       303 8.72743E+02-7.92806E+03 7.13882E+04-4.59935E+04-8.38554E-10 7.54153E-09
 -1       304 2.78307E+04 2.13679E+04 1.18913E+05-6.73422E+04 1.08412E-09 1.06811E-08
 -1       305 2.74289E+04-2.91551E+04 1.98951E+05-4.60488E+04-8.65839E-10 7.06041E-09
 -1       306-3.91467E+06-4.57127E+05-2.97248E+05-1.53519E+06 1.70985E-09-9.38599E-09
 -1       307-4.07585E+06-6.99422E+05-2.02534E+05-1.47320E+06 3.30692E-09-3.20142E-09
 -1       308-3.98763E+06-5.44290E+05-7.00090E+04-1.50128E+06 1.86355E-09-2.40107E-10
 -1       309-3.98225E+06-6.07385E+05-4.22014E+04-1.52386E+06 3.26423E-11 7.65795E-10
 -1       310-4.00785E+06-5.47319E+05-1.64392E+04-1.48517E+06 3.03828E-10-6.68751E-09
 -1       311-3.95602E+06-6.07126E+05-9.46564E+03-1.54687E+06 4.86079E-09-9.05038E-09
 -1       312-4.01412E+06-5.44031E+05-4.62909E+03-1.47860E+06-1.91847E-10 2.07092E-09
 -1       313-3.95264E+06-6.07261E+05-4.15780E+03-1.54990E+06-5.04258E-10-1.00044E-10
 -1       314-4.01128E+06-5.47107E+05-5.09695E+03-1.48220E+06-1.70598E-09-1.07477E-08
 -1       315-3.96645E+06-5.96497E+05-1.05041E+04-1.53373E+06-3.54032E-09-1.91540E-09
 -1       316-3.99998E+06-5.55072E+05-1.87284E+04-1.49451E+06 2.16278E-09 3.16049E-09
 -1       317-4.00135E+06-5.92262E+05-4.78859E+04-1.50270E+06-4.04555E-10-2.24009E-09
 -1       318-3.97624E+06-5.51815E+05-7.94876E+04-1.51295E+06-4.58567E-09 1.45519E-09
 -1       319-4.10547E+06-7.00253E+05-2.30270E+05-1.44971E+06-3.25599E-09-5.24960E-09
 -1       320-3.89670E+06-4.48912E+05-3.37512E+05-1.54706E+06 8.06176E-09 2.15368E-09
 -1       336 4.97455E+02-7.69910E+05-4.18076E+03 9.69703E+02-6.84349E-09-2.42835E-09
 -1       337-1.52497E+03-7.70923E+05-4.59941E+03-2.46582E+03-1.27970E-08 5.24506E-09
 -1       338 3.28700E+02-7.70021E+05-5.88772E+03 1.49056E+03-9.13792E-09-3.23598E-09
 -1       339-6.09456E+03-7.73767E+05-1.28851E+04-3.49260E+03-1.64982E-08-1.21399E-08
 -1       340 4.10119E+03-7.67142E+05-1.99036E+04 1.98915E+03-1.09267E-08 1.07138E-08
 -1       406 1.24715E+01 2.44353E+05 4.09914E+02 1.74159E-02 5.20174E-10-4.72028E-10
 -1       407 1.39631E+02 2.44429E+05 8.71364E+02-8.14322E+00 9.84528E-11 1.97269E-09
 -1       408 4.45169E+02 2.44290E+05 1.74021E+03 8.27930E+00 6.42785E-10 3.09728E-09
 -1       409 1.87864E+03 2.44984E+05 3.91787E+03-7.95272E+01 1.54614E-10 5.13865E-10
 -1       410 5.40360E+03 2.43795E+05 7.99813E+03 7.41932E+01 6.63022E-10-6.24323E-09
 -1       521-7.38559E+06-7.73719E+05-5.70063E+05-2.71946E+06 1.73895E-09-4.13274E-09
 -1       522-7.06616E+06-1.59611E+06-3.48500E+05-3.09646E+06-2.77309E-08-9.39326E-09
 -1       523-7.60058E+06-7.68072E+05-1.32062E+05-2.47285E+06-1.36606E-09-2.16824E-08
 -1       524-6.86672E+06-1.56759E+06-7.21749E+04-3.40991E+06 3.01421E-08-4.13083E-08
 -1       525-7.62655E+06-7.67300E+05-2.95463E+04-2.43711E+06 1.38589E-08-1.50790E-08
 -1       526-6.88581E+06-1.43542E+06-2.92315E+03-3.25394E+06 1.04410E-08 4.66389E-09
 -1       527-7.55379E+06-9.19370E+05-2.85441E+04-2.61009E+06 1.48211E-08 5.65342E-09
 -1       528-7.11662E+06-1.09165E+06 2.28699E+04-2.79286E+06 2.10130E-08-5.28689E-09
 -1       529-7.35218E+06-1.14191E+06-3.43126E+04-2.86526E+06-6.76664E-09-6.30098E-09
 -1       530-7.58154E+06-6.90803E+05 4.48562E+03-2.37074E+06-2.46218E-08 1.93832E-08
 -1       531-7.11383E+06-1.30223E+06-3.52958E+04-3.04874E+06-3.06900E-08 3.17959E-09
 -1       532-7.93731E+06-4.93177E+05-7.05825E+04-2.18247E+06 3.56686E-08-4.39459E-08
 -1       533-7.04073E+06-1.30916E+06-1.24674E+05-3.08862E+06 1.34569E-08-6.16710E-08
 -1       534-7.91440E+06-7.90625E+05-3.50074E+05-2.21556E+06-1.30676E-08 4.22588E-08
 -1       535-7.11818E+06-1.02276E+06-5.55281E+05-2.99812E+06-7.39237E-09 2.96568E-08
 -1       536-9.61799E+04-1.79795E+04 4.13927E+04-5.18682E+02-1.46295E-09 8.09814E-09
 -1       537-7.66618E+04 2.08111E+04 2.95568E+04-1.96055E+02-8.43135E-09-5.11000E-09
 -1       538-8.92675E+04-2.82839E+03 1.06287E+04-1.63907E+02-6.34316E-10-2.05910E-09
 -1       539-8.48286E+04 3.26470E+03 6.91418E+03-9.43820E+02 4.35585E-09 8.70841E-11
 -1       540-8.80190E+04-4.46467E+02 2.63617E+03 2.29092E+02 1.27294E-09 8.28265E-09
 -1       541-8.64620E+04 5.05596E+02 1.67577E+03-1.66512E+03-6.27267E-11 4.09966E-09
 -1       542-8.76421E+04-6.59364E+01 5.79976E+02 5.57355E+02 8.79069E-10-1.02128E-09
 -1       543-8.70599E+04 4.74680E+01 2.91150E+02-2.20758E+03-4.40082E-10-1.44099E-09
 -1       544-8.74302E+04 1.80121E+01-9.73444E+01 7.71549E+02-3.92241E-10-7.89720E-09
 -1       545-8.74195E+04-1.81628E+02-4.95880E+02-2.49307E+03-1.91832E-09-3.90946E-09
 -1       546-8.72885E+04 1.67417E+02-9.82364E+02 8.42857E+02 5.63165E-10-1.98258E-09
 -1       547-8.79189E+04-1.21960E+03-2.49896E+03-2.48324E+03-2.53350E-09-3.73154E-09
 -1       548-8.69307E+04 1.05506E+03-4.03613E+03 7.61721E+02-2.93257E-09-2.77555E-09
 -1       549-9.06984E+04-7.77453E+03-1.09561E+04-2.17465E+03-1.87869E-09 1.70621E-09
 -1       550-8.45028E+04 6.71259E+03-1.56368E+04 5.34245E+02 2.70944E-10 4.12001E-09
 -1       551 8.27744E+03-4.06500E+05 2.01849E+04-6.83508E+05 9.75342E-09-6.72298E-09
 -1       552 1.98126E+04-4.10194E+05 2.77514E+04-9.86006E+05 2.32540E-08-6.86850E-09
 -1       553 1.33663E+04-4.15433E+05 4.34396E+04-6.81122E+05 1.28712E-08-2.02635E-09
 -1       554 4.28893E+04-3.98799E+05 9.27233E+04-9.87014E+05 2.56696E-08-1.93785E-09
 -1       555 3.79586E+04-4.33325E+05 1.65652E+05-6.81928E+05 1.25438E-08-1.05429E-08
 -1       556 6.03373E+04-1.28287E+05 4.40311E+04-1.68189E+05-6.82485E-09-6.78119E-09
 -1       557 1.12427E+05-1.71408E+05 2.31412E+04-2.10556E+05-1.30967E-09 5.85260E-09
 -1       558 6.01896E+04-1.34183E+05 9.33856E+03-1.63137E+05-1.65892E-08-1.99179E-09
 -1       559 1.05305E+05-1.77410E+05 4.74698E+03-2.13690E+05-1.86847E-08-1.41326E-08
 -1       560 5.86365E+04-1.33152E+05 1.95142E+03-1.64112E+05-5.56611E-09 7.93898E-09
 -1       561 1.02886E+05-1.76791E+05 1.04230E+03-2.15219E+05 1.67347E-10 2.01499E-09
 -1       562 5.73839E+04-1.32312E+05 3.91166E+02-1.65015E+05 2.41562E-09 2.60616E-09
 -1       563 1.01414E+05-1.76159E+05 2.50924E+02-2.16160E+05 3.71801E-09 5.69383E-09
 -1       564 5.66022E+04-1.31808E+05 8.83105E+01-1.65571E+05 6.80302E-09-3.23507E-09
 -1       565 1.00647E+05-1.75831E+05 5.86248E+01-2.16642E+05 8.51651E-09-7.41875E-09
 -1       566 5.63200E+04-1.31620E+05-1.64426E+01-1.65774E+05-2.65572E-09-1.39007E-08
 -1       567 1.00543E+05-1.75780E+05-1.01649E+02-2.16645E+05 9.78207E-09 2.08711E-08
 -1       568 5.65692E+04-1.31785E+05-3.04823E+02-1.65659E+05-3.53612E-09-2.22644E-09
 -1       569 1.00477E+05-1.75673E+05-7.13276E+02-2.15620E+05-2.23554E-09 9.15679E-09
 -1       570 5.78634E+04-1.32955E+05-1.53269E+03-1.65623E+05-3.58341E-09-1.19853E-08
 -1       571 1.77246E+05 6.44387E+03 9.54769E+03-4.49820E+04 1.09180E-08 7.48605E-09
 -1       572 1.78666E+05 2.24216E+03 4.67777E+03-4.93084E+04 2.02742E-08 3.51156E-09
 -1       573 1.77816E+05 5.35575E+02 2.07804E+03-4.48647E+04 1.06893E-08 3.16049E-09
 -1       574 1.77983E+05 1.75890E+02 1.04115E+03-4.94394E+04 7.40329E-10-3.39378E-09
 -1       575 1.77878E+05 2.60720E+01 4.90678E+02-4.48493E+04 1.44746E-09 2.23463E-09
 -1       576 1.77889E+05 9.31540E+00 2.49761E+02-4.94569E+04-1.01201E-09-6.87169E-09
 -1       577 1.77888E+05-1.15774E+00 1.22999E+02-4.48472E+04-2.03158E-09-5.11454E-09
 -1       578 1.77880E+05 8.41842E-01 6.70255E+01-4.94590E+04-1.98634E-09 1.53068E-09
 -1       579 1.77898E+05-3.15424E+00 4.08809E+01-4.48472E+04 1.42791E-10-2.34650E-10
 -1       580 1.77895E+05-4.86276E+00 3.80297E+01-4.94564E+04-8.10815E-10 1.34924E-09
 -1       581 1.77917E+05-1.01646E+01 5.13164E+01-4.48499E+04 1.43700E-10 3.57113E-09
 -1       582 1.77929E+05-3.28683E+00 9.77143E+01-4.94297E+04 9.18135E-10 2.35832E-09
 -1       583 1.77940E+05 1.96125E+01 1.87136E+02-4.48739E+04 6.93944E-10 5.12046E-10
 -1       584 1.78027E+05 1.64697E+02 4.19708E+02-4.92291E+04-2.71257E-09-1.28716E-09
 -1       585 1.77923E+05 5.33942E+02 8.51974E+02-4.50508E+04-3.83807E-10 2.27192E-09
 -1       586-2.12634E+03 5.82726E+04-2.81993E+03-1.53030E+05 3.34239E-10-1.26383E-08
 -1       587-4.43330E+02 5.78931E+04-2.98967E+02-1.68397E+05 6.36646E-10-2.08038E-08
 -1       588 6.15578E+02 5.79658E+04 2.04350E+03-1.52937E+05 3.89264E-10-6.45696E-09
 -1       589 3.03022E+03 5.90868E+04 5.92997E+03-1.68256E+05 5.24778E-10 1.52613E-09
 -1       590 8.68648E+03 5.72582E+04 1.26888E+04-1.53172E+05 2.55113E-10 7.43421E-09
 -1       591-3.89316E+04-1.10933E+04-1.28793E+04-2.01279E+04 1.68905E-09-3.83534E-09
 -1       592-4.01496E+04-1.42444E+04-6.97594E+03-2.34732E+04-1.93359E-09-5.05122E-09
 -1       593-4.02338E+04-1.01444E+04-2.90415E+03-2.10581E+04-1.27113E-09-3.23234E-09
 -1       594-3.83551E+04-1.23722E+04-1.44843E+03-2.35624E+04 2.43921E-09 4.19116E-09
 -1       595-4.03336E+04-1.01400E+04-6.65641E+02-2.11009E+04-1.24783E-09 8.27640E-11
 -1       596-3.82336E+04-1.22864E+04-3.39297E+02-2.35498E+04 1.92841E-09 8.18318E-10
 -1       597-4.03463E+04-1.01482E+04-1.86760E+02-2.11026E+04 5.60085E-10-5.39018E-09
 -1       598-3.82221E+04-1.22832E+04-1.53804E+02-2.35463E+04-1.05069E-09-3.86984E-09
 -1       599-4.03453E+04-1.01483E+04-2.01051E+02-2.11023E+04 1.65073E-10-8.28129E-09
 -1       600-3.82350E+04-1.22876E+04-3.77170E+02-2.35494E+04 9.52696E-11-1.02091E-10
 -1       601-4.03294E+04-1.01394E+04-7.45996E+02-2.10996E+04 1.88174E-09 8.71160E-09
 -1       602-3.83712E+04-1.23838E+04-1.62685E+03-2.35619E+04 7.53857E-10-2.38867E-09
 -1       603-4.02160E+04-1.01459E+04-3.26306E+03-2.10519E+04 3.82079E-09-2.73758E-10
 -1       604-4.03939E+04-1.44800E+04-7.83833E+03-2.34520E+04 1.05019E-08-4.85306E-09
 -1       605-3.87442E+04-1.12184E+04-1.44712E+04-2.00136E+04 5.69287E-09-2.33558E-09
 -1       606 2.52001E+04-8.54013E+03-1.53776E+04 2.45928E+04-3.54976E-09 4.36557E-11
 -1       607 2.25664E+04-2.75513E+03-7.65712E+03 2.76068E+04-9.64064E-10-1.72021E-08
 -1       608 2.40604E+04-4.64714E+02-3.42905E+03 2.43967E+04 2.96131E-09-7.87031E-09
 -1       609 2.37625E+04-1.20408E+02-1.73191E+03 2.78232E+04-1.06320E-09 2.89674E-09
 -1       610 2.39218E+04 2.26441E+01-8.27339E+02 2.43748E+04-4.49563E-09 1.51636E-09
 -1       611 2.38651E+04 3.44296E+01-4.17284E+02 2.78469E+04-6.85714E-09 2.14800E-09
 -1       612 2.38845E+04 3.66019E+01-1.99730E+02 2.43726E+04-3.97267E-09-3.54430E-09
 -1       613 2.38625E+04 4.22262E+01-9.10602E+01 2.78497E+04-6.04632E-09-1.61799E-09
 -1       614 2.38639E+04 3.75120E+01-2.55127E+01 2.43719E+04-1.82990E-09 1.43382E-09
 -1       615 2.38516E+04 4.72970E+01 2.82507E+01 2.78501E+04 5.45378E-09-1.66415E-09
 -1       616 2.38483E+04 4.27872E+01 9.38276E+01 2.43721E+04-2.37196E-09 1.41699E-09
 -1       617 2.38571E+04 7.10183E+01 2.17728E+02 2.78496E+04 1.16415E-09 1.30467E-09
 -1       618 2.38249E+04 1.08413E+02 4.40152E+02 2.43722E+04 2.65118E-10 1.64209E-09
 -1       619 2.40089E+04 4.13749E+02 9.89307E+02 2.78489E+04-1.83627E-09-3.00042E-09
 -1       620 2.36764E+04 1.15458E+03 1.98869E+03 2.43712E+04 1.20474E-09-3.98404E-09
 -1       621 3.05103E+02 1.92725E+05 2.65246E+03 6.58648E+03-2.58666E-10-1.26647E-10
 -1       622 3.49179E+02 1.93383E+05 2.25615E+03 9.61851E+03-3.00531E-10-5.41559E-09
 -1       623 1.41587E+01 1.92914E+05 2.60090E+03 6.55565E+03-1.88692E-10-1.89743E-09
 -1       624 1.17767E+03 1.94142E+05 4.94443E+03 9.64860E+03-8.25082E-11 2.68449E-09
 -1       625 1.18285E+03 1.91961E+05 8.59825E+03 6.55670E+03-1.23691E-10-2.56517E-09
 -1       626 1.59183E+05 4.40578E+04 3.16828E+03 8.59998E+04 8.21638E-09 1.81535E-09
 -1       627 1.57010E+05 4.56576E+04 1.52664E+03 8.94707E+04 1.94559E-08 4.73324E-09
 -1       628 1.59301E+05 4.25590E+04 6.44783E+02 8.64775E+04 1.41763E-08 1.04237E-08
 -1       629 1.56552E+05 4.52973E+04 3.16063E+02 8.96780E+04 5.79121E-09-4.05811E-09
 -1       630 1.59308E+05 4.24883E+04 1.46126E+02 8.64898E+04 2.10912E-09 3.98359E-10
 -1       631 1.56495E+05 4.52896E+04 7.86377E+01 8.96795E+04-9.83164E-09-1.18375E-08
 -1       632 1.59299E+05 4.24943E+04 5.19393E+01 8.64824E+04-1.50144E-08-1.84416E-08
 -1       633 1.56483E+05 4.52945E+04 5.81213E+01 8.96730E+04-2.15368E-09 2.58586E-09
 -1       634 1.59290E+05 4.24952E+04 9.41379E+01 8.64781E+04 8.70477E-09 1.22409E-08
 -1       635 1.56487E+05 4.52961E+04 1.90950E+02 8.96723E+04 8.56483E-09 1.73186E-08
 -1       636 1.59280E+05 4.24946E+04 3.85690E+02 8.64751E+04 9.84414E-10 9.93396E-10
 -1       637 1.56565E+05 4.53576E+04 8.47695E+02 8.96683E+04 2.03461E-09-8.04903E-11
 -1       638 1.59246E+05 4.26837E+04 1.74218E+03 8.63879E+04 1.10988E-08-4.72755E-09
 -1       639 1.57476E+05 4.66321E+04 4.12148E+03 8.93974E+04 1.89187E-08-7.62975E-09
 -1       640 1.59124E+05 4.64774E+04 8.55313E+03 8.47767E+04 1.08992E-08 3.61933E-09
 -1       656 4.31261E+04-1.09152E+06-1.04109E+05-3.63180E+02 3.63798E-11 2.63162E-09
 -1       657-5.69866E+04-1.13852E+06-8.60982E+04 7.04562E+03-1.91903E-10-4.50505E-09
 -1       658 1.36744E+04-1.10493E+06-5.28345E+04-1.36595E+03 8.46967E-11 1.24796E-09
 -1       659-6.11009E+04-1.14046E+06-9.15020E+04 7.71413E+03-8.03993E-10 3.06146E-09
 -1       660 4.72303E+04-1.08958E+06-1.13404E+05-1.03167E+03-1.81899E-10 8.99165E-09
 -1       661 1.54173E+05 1.67846E+04 1.47974E+04 6.02539E+04 3.58523E-09 1.50612E-09
 -1       662 1.61887E+05 2.83841E+04 9.97096E+03 5.76739E+04 2.98741E-09 4.24234E-09
 -1       663 1.57073E+05 2.15373E+04 3.48792E+03 5.94174E+04-1.81899E-10 6.43195E-09
 -1       664 1.58532E+05 2.28204E+04 2.08533E+03 5.86905E+04 8.58932E-10-8.91782E-09
 -1       665 1.57507E+05 2.21921E+04 8.22595E+02 5.92963E+04-2.56352E-09-8.14393E-09
 -1       666 1.58023E+05 2.20668E+04 4.79692E+02 5.88451E+04-8.11502E-09-3.19744E-11
 -1       667 1.57579E+05 2.22711E+04 2.52902E+02 5.92701E+04-2.66107E-09 4.26474E-09
 -1       668 1.57947E+05 2.20038E+04 2.53324E+02 5.88824E+04 1.84322E-10 5.08938E-09
 -1       669 1.57583E+05 2.22533E+04 3.39410E+02 5.92596E+04 1.63278E-09 3.25167E-09
 -1       670 1.58033E+05 2.21823E+04 7.35716E+02 5.88806E+04 9.95138E-09-2.65419E-09
 -1       671 1.57493E+05 2.20962E+04 1.30522E+03 5.92705E+04 1.84077E-10 2.85979E-09
 -1       672 1.58795E+05 2.34503E+04 3.33850E+03 5.86951E+04-2.61960E-09-2.57842E-09
 -1       673 1.56825E+05 2.10172E+04 5.59447E+03 5.94330E+04-1.74566E-09-4.50291E-09
 -1       674 1.64123E+05 3.24354E+04 1.59991E+04 5.71274E+04 2.14339E-09 2.66937E-10
 -1       675 1.52199E+05 1.33624E+04 2.37475E+04 6.07435E+04 1.78989E-09-7.57518E-09
 -1       676 1.75443E+01-2.09243E+05-8.14472E+02 3.68128E+01-4.99227E-10-2.30602E-09
 -1       677-2.16165E+02-2.09440E+05-1.49057E+03-7.35931E+01-2.77282E-09-2.05881E-09
 -1       678 1.44383E+02-2.09103E+05-2.63492E+03 3.67549E+01-1.25169E-09 4.53246E-10
 -1       679-2.63542E+03-2.11030E+05-6.25921E+03-7.33656E+01-2.75259E-09-2.13153E-09
 -1       680 1.57284E+03-2.07653E+05-1.00878E+04 3.61639E+01-1.17643E-09-9.63613E-10
 -1       771-2.24580E+06-3.98539E+05-5.35567E+04-9.37736E+05-1.37225E-08-1.77388E-08
 -1       772-2.22960E+06-4.29078E+05-2.86326E+04-9.71910E+05-6.14455E-09 3.56067E-09
 -1       773-2.25352E+06-3.92505E+05-1.25529E+04-9.40670E+05-3.10683E-09 3.85626E-09
 -1       774-2.22204E+06-4.23018E+05-6.05739E+03-9.75861E+05 5.90808E-09-3.34694E-10
 -1       775-2.25560E+06-3.91111E+05-3.20613E+03-9.40930E+05-3.20142E-09 1.11504E-09
 -1       776-2.22208E+06-4.23117E+05-1.43928E+03-9.78142E+05-3.08501E-09 1.70257E-09
 -1       777-2.25711E+06-3.90000E+05-9.87954E+02-9.41096E+05 1.36060E-09 1.60071E-09
 -1       778-2.22256E+06-4.23374E+05-4.09508E+02-9.80048E+05 2.71393E-09 3.64889E-09
 -1       779-2.25834E+06-3.89055E+05-4.51614E+02-9.41246E+05-1.69530E-09-2.73394E-09
 -1       780-2.22305E+06-4.23582E+05-3.01963E+02-9.81590E+05-2.05728E-09 4.45652E-11
 -1       781-2.25926E+06-3.88302E+05-5.53912E+02-9.41360E+05-7.33417E-09-1.22873E-09
 -1       782-2.22350E+06-4.23775E+05-9.37797E+02-9.82724E+05-1.07684E-08-3.07182E-09
 -1       783-2.25984E+06-3.87804E+05-1.88451E+03-9.41421E+05-1.96815E-09-4.59147E-09
 -1       784-2.22486E+06-4.25054E+05-4.43280E+03-9.83365E+05-5.38967E-09 3.14230E-10
 -1       785-2.25935E+06-3.88140E+05-8.20402E+03-9.40866E+05-1.32532E-08-3.73166E-09
 -1       786 1.63737E+05-8.76025E+03 2.02670E+04-8.07627E+00 8.45517E-07 9.45511E-09
 -1       787 1.72518E+05 1.01417E+04 1.43385E+04 1.19227E+00 1.68313E-06 8.00787E-09
 -1       788 1.67125E+05-1.37327E+03 5.24563E+03-3.80935E+00 1.80481E-06-3.36695E-09
 -1       789 1.68572E+05 1.58896E+03 3.29588E+03-7.11493E+00 1.92380E-06 1.56315E-08
 -1       790 1.67684E+05-2.14528E+02 1.34112E+03 2.30773E-01 2.16836E-06-9.03867E-09
 -1       791 1.67919E+05 2.49257E+02 7.87458E+02-1.62207E+01 2.41632E-06 1.97078E-08
 -1       792 1.67778E+05-3.45789E+01 3.59485E+02 5.29653E+00 2.99646E-06-1.93791E-08
 -1       793 1.67814E+05 4.86045E+01 2.35748E+02-2.87982E+01 3.57170E-06-1.63149E-09
 -1       794 1.67790E+05-1.40077E+01 1.74910E+02 1.28085E+01 1.78727E-06-1.18931E-08
 -1       795 1.67824E+05 7.23775E+01 2.53411E+02-4.83417E+01 5.78233E-09 9.86639E-09
 -1       796 1.67767E+05-5.83347E+01 3.79826E+02 2.48404E+01 1.93086E-11 3.15593E-09
 -1       797 1.67997E+05 4.27673E+02 8.95791E+02-8.02531E+01-3.86018E-10-3.45847E-09
 -1       798 1.67617E+05-3.69042E+02 1.41400E+03 4.47204E+01-4.36273E-12-1.26306E-09
 -1       799 1.69058E+05 2.72490E+03 3.85494E+03-1.33653E+02-3.81718E-10 1.77943E-09
 -1       800 1.66706E+05-2.35372E+03 5.44528E+03 7.82408E+01-1.08726E-10 3.07705E-09
 -1       801-6.35311E+03-1.41905E+05-2.38568E+03 1.90140E+04 1.01190E-08-1.01431E-09
 -1       802 1.94991E+04-3.86463E+04 4.13326E+04-7.42053E+04 2.73217E-08-2.30546E-09
 -1       803-1.22404E+04-9.80352E+04 5.55433E+04 2.05510E+04 2.16132E-08 1.73301E-08
 -1       804 1.14172E+05 1.61462E+04 1.65832E+05-7.47053E+04 2.53822E-08 1.99452E-08
 -1       805-1.01149E+05-1.96329E+05 2.05439E+05 1.95100E+04 9.12405E-09 2.00439E-08
 -1       806-1.92987E+05-4.12552E+04-1.63675E+04-8.02667E+04-6.11180E-10 1.59616E-10
 -1       807-1.93958E+05-3.89033E+04-8.04100E+03-8.45971E+04 9.49626E-10 1.94319E-09
 -1       808-1.93451E+05-3.53428E+04-3.41098E+03-8.30436E+04-7.06905E-10 2.68532E-09
 -1       809-1.92243E+05-3.66699E+04-1.66753E+03-8.48278E+04-7.58178E-10-6.96394E-09
 -1       810-1.93523E+05-3.51344E+04-7.63557E+02-8.31661E+04-6.09816E-09-1.06360E-08
 -1       811-1.92111E+05-3.65816E+04-3.78683E+02-8.48079E+04 5.62068E-10-5.57293E-09
 -1       812-1.93535E+05-3.51500E+04-1.89016E+02-8.31657E+04-2.77532E-09-1.38648E-08
 -1       813-1.92094E+05-3.65839E+04-1.19254E+02-8.47973E+04 5.46152E-10-1.04037E-08
 -1       814-1.93533E+05-3.51560E+04-1.11898E+02-8.31630E+04-2.91038E-11-3.15208E-09
 -1       815-1.92096E+05-3.65859E+04-1.75124E+02-8.47940E+04 2.05091E-10 5.04360E-09
 -1       816-1.93521E+05-3.51550E+04-3.28162E+02-8.31606E+04-3.54112E-09-3.56590E-09
 -1       817-1.92152E+05-3.66174E+04-7.03459E+02-8.47876E+04 1.88447E-09-5.25915E-09
 -1       818-1.93479E+05-3.52540E+04-1.43370E+03-8.31137E+04 3.21006E-09-2.95086E-09
 -1       819-1.92943E+05-3.74778E+04-3.37412E+03-8.45953E+04 1.05774E-09 2.57569E-09
 -1       820-1.93206E+05-3.78053E+04-6.86702E+03-8.20259E+04-3.05226E-09-5.18855E-09
 -1       821-2.49677E+05 1.38474E+04-3.20247E+04 8.54247E+01-4.50200E-10 1.27875E-09
 -1       822-2.63556E+05-1.60308E+04-2.26621E+04-6.08188E+02-1.53587E-09 3.89491E-09
 -1       823-2.55033E+05 2.17092E+03-8.29447E+03 5.41448E+01 8.64626E-10-1.69621E-09
 -1       824-2.57310E+05-2.51276E+03-5.21886E+03-4.64463E+02 7.29168E-11-5.62113E-09
 -1       825-2.55921E+05 3.39742E+02-2.14513E+03-5.83042E+01-3.00931E-09 3.52247E-09
 -1       826-2.56277E+05-4.00696E+02-1.29477E+03-2.02487E+02-4.29105E-09 1.32816E-09
 -1       827-2.56066E+05 6.02594E+01-6.70385E+02-2.07837E+02-3.69019E-09 4.12822E-09
 -1       828-2.56137E+05-1.22218E+02-5.92322E+02 7.71396E+01-4.95876E-09 6.89715E-09
 -1       829-2.56061E+05 6.15195E+01-6.80030E+02-3.37936E+02 6.73488E-11 1.39266E-09
 -1       830-2.56294E+05-4.10623E+02-1.32763E+03 2.68741E+02 2.71999E-09 6.86494E-09
 -1       831-2.55908E+05 3.48639E+02-2.19855E+03-3.99442E+02-2.20072E-09-3.32193E-10
 -1       832-2.57351E+05-2.57836E+03-5.35739E+03 3.00498E+02-1.41896E-09 4.20550E-09
 -1       833-2.55005E+05 2.22773E+03-8.51322E+03-3.69693E+02-1.91332E-09-4.76120E-09
 -1       834-2.63747E+05-1.64529E+04-2.32593E+04 1.62672E+02-1.15446E-09-5.47561E-09
 -1       835-2.49514E+05 1.42123E+04-3.28723E+04-2.61606E+02 4.98540E-09-2.78851E-09
 -1       836-8.31249E+02 2.36252E+05 1.42347E+04-2.06876E+04 1.66892E-09 8.26003E-09
 -1       837 3.13742E+03 2.40657E+05 1.21468E+04-4.15462E+04 2.53499E-09 7.66772E-09
 -1       838-3.03169E+02 2.37478E+05 1.25166E+04-2.06178E+04 2.12958E-09 5.95742E-09
 -1       839 8.03489E+03 2.44309E+05 2.38158E+04-4.15710E+04 2.65027E-09-4.78730E-09
 -1       840-2.41211E+03 2.32568E+05 3.80341E+04-2.06613E+04 1.99907E-09-4.70163E-09
 -1       856-7.73646E+04 6.65436E+03-1.75359E+04-3.93594E+02-3.75633E-09-1.19871E-09
 -1       857-8.46086E+04-7.80443E+03-1.20731E+04 3.99981E+03-1.63469E-09-6.39648E-09
 -1       858-8.02265E+04 9.32379E+02-4.55108E+03-4.11245E+02-3.81803E-09 8.41283E-10
 -1       859-8.13218E+04-1.08388E+03-2.74874E+03 4.02798E+03-3.48700E-09 6.92069E-09
 -1       860-8.06545E+04 1.29652E+02-1.15580E+03-4.21895E+02-5.39345E-10 1.93654E-09
 -1       861-8.08289E+04-1.43041E+02-6.43865E+02 4.04254E+03-5.56670E-09-8.35882E-09
 -1       862-8.07210E+04 1.71688E+01-2.83763E+02-4.25833E+02 2.10578E-09-7.40947E-09
 -1       863-8.07501E+04-1.03313E+01-1.39952E+02 4.04430E+03 1.00254E-08-6.57262E-09
 -1       864-8.07334E+04-1.45315E-01-4.31887E+01-4.23653E+02 5.53027E-09-1.74721E-09
 -1       865-8.07269E+04 2.04725E+01 2.83634E+01 4.03333E+03 7.23425E-09 3.50069E-09
 -1       866-8.07430E+04-1.40213E+01 9.94769E+01-4.14863E+02-1.35449E-09-4.66540E-09
 -1       867-8.06690E+04 1.17620E+02 2.71973E+02 4.00949E+03-7.49679E-10-4.35428E-09
 -1       868-8.07886E+04-9.66978E+01 4.58511E+02-3.99808E+02 1.72940E-09-2.40939E-09
 -1       869-8.03250E+04 8.01881E+02 1.23079E+03 3.96997E+03-3.00670E-09-9.94956E-09
 -1       870-8.10830E+04-6.81387E+02 1.78489E+03-3.75357E+02 1.45036E-09-6.45719E-09
 -1       871-3.66062E+03-7.64549E+03-1.18605E+04 7.77520E+04 2.76304E-09 2.83489E-09
 -1       872-1.59771E+03-1.02975E+04-4.83125E+03 1.00800E+05 5.52973E-09 1.41495E-09
 -1       873-4.45293E+01-9.05889E+03 6.99714E+02 7.75808E+04 2.22553E-09-3.40322E-09
 -1       874 1.81601E+03-7.32697E+03 6.74913E+03 1.00836E+05 3.70801E-09 5.87750E-09
 -1       875 4.32155E+03-1.06609E+04 1.49609E+04 7.77235E+04 2.83580E-09 5.74937E-09
 -1       876 1.94350E+05 3.35203E+04 1.04144E+04 7.88879E+04-3.19835E-09-4.25007E-09
 -1       877 1.94939E+05 3.58127E+04 5.56153E+03 8.19747E+04-4.75393E-09-3.87581E-09
 -1       878 1.95324E+05 3.23675E+04 2.33003E+03 7.97431E+04 1.84696E-09-6.26278E-09
 -1       879 1.93522E+05 3.44020E+04 1.16068E+03 8.20488E+04 1.78977E-09 3.89628E-09
 -1       880 1.95395E+05 3.23545E+04 5.40355E+02 7.97780E+04-6.75300E-11-1.81501E-10
 -1       881 1.93428E+05 3.43422E+04 2.87763E+02 8.20343E+04 4.63365E-09-7.10155E-09
 -1       882 1.95402E+05 3.23630E+04 1.82741E+02 7.97789E+04 6.04348E-09 4.25551E-10
 -1       883 1.93421E+05 3.43394E+04 1.94262E+02 8.20301E+04 5.61727E-10 9.67412E-09
 -1       884 1.95398E+05 3.23608E+04 3.07045E+02 7.97791E+04 2.33570E-09 1.87833E-09
 -1       885 1.93446E+05 3.43437E+04 6.16095E+02 8.20379E+04 9.81908E-09 5.82995E-09
 -1       886 1.95374E+05 3.23428E+04 1.24114E+03 7.97766E+04 4.29799E-09-9.50649E-10
 -1       887 1.93664E+05 3.44867E+04 2.71091E+03 8.20692E+04-1.17683E-08-1.48100E-08
 -1       888 1.95203E+05 3.23730E+04 5.46253E+03 7.96899E+04 1.18615E-09 1.78989E-09
 -1       889 1.96920E+05 3.78659E+04 1.30496E+04 8.19657E+04 2.97929E-09-1.85901E-09
 -1       890 1.92977E+05 3.50167E+04 2.44408E+04 7.76061E+04 2.63731E-09 3.76531E-10
 -1       891-1.23233E+02-1.10512E+05-1.30308E+03 2.10309E+04-3.06011E-09 1.14460E-09
 -1       892-2.14031E+02-1.10823E+05-1.41831E+03 3.18230E+04-2.10707E-09 1.21559E-08
 -1       893-3.65478E+01-1.10553E+05-2.02746E+03 2.10349E+04 1.96610E-09 2.25646E-09
 -1       894-1.11184E+03-1.11601E+05-4.21031E+03 3.17100E+04-1.41881E-09-3.60410E-09
 -1       895-8.68308E+02-1.09677E+05-7.41952E+03 2.11423E+04 1.64277E-09-1.30290E-08
 -1       956-2.44231E+05-3.52168E+03-8.87042E+03 1.61550E+04-2.13413E-09 1.67540E-09
 -1       957-2.45983E+05-1.18645E+03-4.55377E+03 1.94533E+04-1.91176E-09-7.00652E-09
 -1       958-2.45018E+05-9.28903E+01-2.05156E+03 1.60494E+04 1.35788E-09-2.93562E-09
 -1       959-2.45158E+05-1.42898E+01-1.04790E+03 1.95674E+04-8.66748E-10-4.66866E-09
 -1       960-2.45088E+05 3.11371E+01-5.10754E+02 1.60393E+04-4.19368E-09 3.87081E-09
 -1       961-2.45097E+05 2.96586E+01-2.70791E+02 1.95788E+04-5.74300E-09 5.01859E-09
 -1       962-2.45102E+05 2.74124E+01-1.54587E+02 1.60379E+04-2.73894E-09 4.64183E-09
 -1       963-2.45094E+05 3.06850E+01-1.23344E+02 1.95808E+04-4.85488E-09 8.27254E-09
 -1       964-2.45105E+05 2.91210E+01-1.48786E+02 1.60373E+04-2.82944E-09 9.73728E-10
 -1       965-2.45104E+05 3.34233E+01-2.56299E+02 1.95809E+04 9.78027E-10 1.72645E-09
 -1       966-2.45097E+05 3.61691E+01-4.80628E+02 1.60378E+04-5.34214E-09-5.25574E-10
 -1       967-2.45167E+05-4.21157E+00-9.85532E+02 1.95748E+04-7.41932E-09 2.27806E-09
 -1       968-2.45037E+05-7.69797E+01-1.92848E+03 1.60435E+04-4.98494E-09 4.99665E-09
 -1       969-2.45950E+05-1.10318E+03-4.28178E+03 1.95080E+04-1.31149E-09-5.99624E-09
 -1       970-2.44302E+05-3.29882E+03-8.33988E+03 1.61070E+04-4.09273E-12-4.58567E-09
 -1       971-2.32008E+05-1.22493E+03-6.82242E+03 1.13369E+04-3.22689E-09-1.51240E-09
 -1       972-2.33668E+05-8.77110E+02-3.71558E+03 1.58381E+04 6.82121E-13-1.02225E-08
 -1       973-2.32766E+05-6.18026E+00-1.66361E+03 1.12425E+04 3.07591E-09-3.37309E-09
 -1       974-2.32882E+05-5.82823E+00-8.61855E+02 1.59397E+04 1.14806E-08-2.17346E-09
 -1       975-2.32824E+05 2.52184E+01-4.29687E+02 1.12342E+04 6.48606E-09 1.67813E-09
 -1       976-2.32834E+05 2.94182E+01-2.46029E+02 1.59497E+04-2.73997E-09 7.67432E-09
 -1       977-2.32835E+05 2.46724E+01-1.75123E+02 1.12324E+04 2.83194E-09 3.71210E-09
 -1       978-2.32836E+05 3.31043E+01-2.00298E+02 1.59522E+04 8.91873E-09 4.01428E-10
 -1       979-2.32835E+05 2.99018E+01-3.17783E+02 1.12317E+04 4.55520E-09-1.14369E-09
 -1       980-2.32860E+05 3.49852E+01-6.11074E+02 1.59525E+04 6.15906E-09-5.42889E-09
 -1       981-2.32815E+05 4.51311E+01-1.18215E+03 1.12320E+04 5.35158E-09 1.05763E-09
 -1       982-2.33022E+05-5.21404E+01-2.44271E+03 1.59479E+04 2.79363E-09-7.50153E-09
 -1       983-2.32667E+05-3.02229E+01-4.74573E+03 1.12365E+04 4.33033E-09-6.29257E-10
 -1       984-2.35305E+05-2.53005E+03-1.06272E+04 1.58840E+04-5.39671E-10 6.35634E-09
 -1       985-2.30519E+05-3.50255E+03-1.95150E+04 1.13006E+04 7.45877E-09 6.40193E-09
 -3
    1PSTEP                         9           5           1          
  100CL  105 4.92188E-01         409                     0    5           1
 -4  DISP        4    1
 -5  D1          1    2    1    0
 -5  D2          1    2    2    0
 -5  D3          1    2    3    0
 -5  ALL         1    2    0    0    1ALL
 -1         1 1.44777E-04 0.00000E+00 0.00000E+00
 -1         2 1.31327E-04-1.53740E-30-4.13590E-25
 -1         3 1.27252E-04-1.79950E-27 0.00000E+00
 -1         5 8.82877E-05-1.98395E-27 0.00000E+00
 -1         8 1.19961E-04-8.85043E-07 0.00000E+00
 -1         9 1.18551E-04 1.14424E-07 0.00000E+00
 -1        10 1.17640E-04-1.71674E-06 3.30872E-24
 -1        12 8.78525E-05 5.39517E-07 1.65436E-24
 -1        15 9.03895E-05-9.79113E-07 0.00000E+00
 -1        16 9.37888E-05-5.75898E-08 0.00000E+00
 -1        17 8.70329E-05-3.63603E-06 0.00000E+00
 -1        18 8.54987E-05 1.83260E-06 0.00000E+00
 -1        19 8.65470E-05 1.07610E-06 0.00000E+00
 -1        20 8.66841E-05 1.44056E-05 0.00000E+00
 -1        21 8.61541E-05 2.69135E-05 0.00000E+00
 -1        24 1.98483E-05-5.02693E-06 0.00000E+00
 -1        25 8.43454E-05 1.95867E-06 0.00000E+00
 -1        26 8.52944E-05 1.49737E-06 0.00000E+00
 -1        27 8.37998E-05 1.20047E-05 0.00000E+00
 -1        28 8.33361E-05 2.64550E-05 0.00000E+00
 -1        32 0.00000E+00 0.00000E+00 0.00000E+00
 -1        33 8.27954E-05 2.00609E-06 0.00000E+00
 -1        34 8.13520E-05 1.19826E-05 0.00000E+00
 -1        35 7.99832E-05 2.62124E-05 0.00000E+00
 -1        51 1.43165E-04-1.45995E-07 0.00000E+00
 -1        52 1.40175E-04-2.87438E-07 0.00000E+00
 -1        53 1.36078E-04-4.30305E-07 0.00000E+00
 -1        54 1.31156E-04-5.76120E-07-3.30872E-24
 -1        55 1.25689E-04-7.25662E-07 3.07608E-24
 -1        56 1.43490E-04-7.84164E-07 0.00000E+00
 -1        57 1.42335E-04-2.06755E-06-1.32349E-23
 -1        58 1.41315E-04-3.70440E-06 0.00000E+00
 -1        59 1.40368E-04-5.55997E-06-2.64698E-23
 -1        60 1.39443E-04-7.47765E-06 0.00000E+00
 -1        61 1.38482E-04-9.30222E-06 0.00000E+00
 -1        62 1.37430E-04-1.08842E-05 0.00000E+00
 -1        63 1.36234E-04-1.20826E-05-2.64698E-23
 -1        64 1.34851E-04-1.27827E-05 0.00000E+00
 -1        65 1.33246E-04-1.28865E-05 0.00000E+00
 -1        66 1.31394E-04-1.23368E-05 0.00000E+00
 -1        67 1.29285E-04-1.10977E-05-2.64698E-23
 -1        68 1.26920E-04-9.18141E-06 5.29396E-23
 -1        69 1.24319E-04-6.61972E-06 0.00000E+00
 -1        70 1.21503E-04-3.49435E-06-2.64698E-23
 -1        86 1.30979E-04 2.67275E-08 0.00000E+00
 -1        87 1.29936E-04 5.24535E-08 0.00000E+00
 -1        88 1.28187E-04 7.71533E-08 0.00000E+00
 -1        89 1.25720E-04 9.70277E-08 1.65436E-24
 -1        90 1.22516E-04 1.16029E-07 0.00000E+00
 -1       121 1.26983E-04-2.84414E-07-6.61744E-24
 -1       122 1.26178E-04-5.69111E-07 3.30872E-24
 -1       123 1.24839E-04-8.54371E-07-6.61744E-24
 -1       124 1.22966E-04-1.14051E-06 0.00000E+00
 -1       125 1.20565E-04-1.42773E-06 6.61744E-24
 -1       191 8.82756E-05 8.99261E-08 3.30872E-24
 -1       192 8.82394E-05 1.79851E-07 0.00000E+00
 -1       193 8.81789E-05 2.69774E-07 0.00000E+00
 -1       194 8.80943E-05 3.59695E-07 0.00000E+00
 -1       195 8.79855E-05 4.49610E-07 6.61744E-24
 -1       251 1.19857E-04 3.30371E-06 0.00000E+00
 -1       252 1.19769E-04 6.02343E-06 0.00000E+00
 -1       253 1.19682E-04 7.41906E-06 3.30872E-24
 -1       254 1.19598E-04 7.63988E-06 0.00000E+00
 -1       255 1.19514E-04 6.88577E-06 0.00000E+00
 -1       256 1.19429E-04 5.35989E-06 0.00000E+00
 -1       257 1.19344E-04 3.29850E-06-3.30872E-24
 -1       258 1.19258E-04 9.39708E-07 0.00000E+00
 -1       259 1.19172E-04-1.46572E-06 3.30872E-24
 -1       260 1.19086E-04-3.66679E-06 0.00000E+00
 -1       261 1.19001E-04-5.42127E-06 3.30872E-24
 -1       262 1.18916E-04-6.48849E-06 0.00000E+00
 -1       263 1.18832E-04-6.65721E-06-3.30872E-24
 -1       264 1.18745E-04-5.71926E-06 3.30872E-24
 -1       265 1.18657E-04-3.51414E-06 6.61744E-24
 -1       266 1.15033E-04-9.12764E-07-6.61744E-24
 -1       267 1.10104E-04-9.26975E-07-1.65436E-24
 -1       268 1.05175E-04-9.42041E-07 0.00000E+00
 -1       269 1.00247E-04-9.54572E-07 4.13590E-25
 -1       270 9.53181E-05-9.67044E-07 0.00000E+00
 -1       271 1.16976E-04 2.88185E-06-2.64698E-23
 -1       272 1.14400E-04 5.43046E-06 1.32349E-23
 -1       273 1.12239E-04 6.88668E-06 0.00000E+00
 -1       274 1.10434E-04 7.37552E-06 2.64698E-23
 -1       275 1.08936E-04 7.04584E-06 0.00000E+00
 -1       276 1.07683E-04 6.05851E-06 0.00000E+00
 -1       277 1.06611E-04 4.58757E-06 5.29396E-23
 -1       278 1.05652E-04 2.81537E-06 2.64698E-23
 -1       279 1.04734E-04 9.30040E-07 0.00000E+00
 -1       280 1.03788E-04-8.78194E-07-2.64698E-23
 -1       281 1.02743E-04-2.42074E-06-5.29396E-23
 -1       282 1.01530E-04-3.51358E-06 0.00000E+00
 -1       283 1.00084E-04-3.98156E-06-5.29396E-23
 -1       284 9.83463E-05-3.65901E-06 1.32349E-23
 -1       285 9.62542E-05-2.39889E-06 0.00000E+00
 -1       301 1.14143E-04 7.62510E-08 0.00000E+00
 -1       302 1.09773E-04 5.55543E-08-3.30872E-24
 -1       303 1.05498E-04 3.58877E-08-6.61744E-24
 -1       304 1.01372E-04 1.54318E-08-6.61744E-24
 -1       305 9.74505E-05-6.56424E-09 0.00000E+00
 -1       306 1.15507E-04 2.91065E-06-2.64698E-23
 -1       307 1.13099E-04 3.85160E-06-2.64698E-23
 -1       308 1.11379E-04 2.96999E-06 0.00000E+00
 -1       309 1.10291E-04 3.69061E-07 2.64698E-23
 -1       310 1.09694E-04-3.55191E-06-5.29396E-23
 -1       311 1.09411E-04-8.32660E-06-2.64698E-23
 -1       312 1.09219E-04-1.33440E-05 0.00000E+00
 -1       313 1.08884E-04-1.79808E-05 0.00000E+00
 -1       314 1.08201E-04-2.16771E-05 0.00000E+00
 -1       315 1.06978E-04-2.39237E-05 2.64698E-23
 -1       316 1.05114E-04-2.44561E-05 5.29396E-23
 -1       317 1.02542E-04-2.31009E-05-2.64698E-23
 -1       318 9.93110E-05-2.00023E-05 0.00000E+00
 -1       319 9.55189E-05-1.53922E-05-2.64698E-23
 -1       320 9.13343E-05-9.76484E-06 0.00000E+00
 -1       336 1.14128E-04-2.03005E-06-6.61744E-24
 -1       337 1.09965E-04-2.34617E-06 0.00000E+00
 -1       338 1.05162E-04-2.66496E-06-6.61744E-24
 -1       339 9.97298E-05-2.98636E-06 3.30872E-24
 -1       340 9.36818E-05-3.31120E-06 0.00000E+00
 -1       406 8.76953E-05 6.29411E-07-3.30872E-24
 -1       407 8.75140E-05 7.19271E-07-1.65436E-24
 -1       408 8.73084E-05 8.09072E-07-3.30872E-24
 -1       409 8.70786E-05 8.98702E-07-1.65436E-24
 -1       410 8.68248E-05 9.87987E-07 0.00000E+00
 -1       521 9.44629E-05-1.08679E-05 0.00000E+00
 -1       522 1.04001E-04-4.72423E-05 5.29396E-23
 -1       523 1.19956E-04-1.03126E-04 0.00000E+00
 -1       524 1.39551E-04-1.70781E-04 0.00000E+00
 -1       525 1.59584E-04-2.39867E-04 1.05879E-22
 -1       526 1.76833E-04-2.99918E-04 0.00000E+00
 -1       527 1.88422E-04-3.42475E-04 0.00000E+00
 -1       528 1.91621E-04-3.60613E-04 5.29396E-23
 -1       529 1.85153E-04-3.52690E-04 1.05879E-22
 -1       530 1.68488E-04-3.19221E-04 0.00000E+00
 -1       531 1.43480E-04-2.66033E-04 1.05879E-22
 -1       532 1.12974E-04-2.00440E-04 0.00000E+00
 -1       533 8.13046E-05-1.32261E-04-1.05879E-22
 -1       534 5.29821E-05-7.14843E-05 0.00000E+00
 -1       535 3.15643E-05-2.66418E-05 5.29396E-23
 -1       536 8.69166E-05 3.37076E-06 0.00000E+00
 -1       537 8.68049E-05 1.04947E-05 0.00000E+00
 -1       538 8.66957E-05 1.71813E-05 0.00000E+00
 -1       539 8.65935E-05 2.28780E-05-1.65436E-24
 -1       540 8.64977E-05 2.72093E-05 0.00000E+00
 -1       541 8.64079E-05 2.98049E-05 0.00000E+00
 -1       542 8.63211E-05 3.06056E-05 0.00000E+00
 -1       543 8.62341E-05 2.95587E-05 0.00000E+00
 -1       544 8.61444E-05 2.69427E-05 3.30872E-24
 -1       545 8.60508E-05 2.30416E-05 1.65436E-24
 -1       546 8.59541E-05 1.83702E-05 0.00000E+00
 -1       547 8.58564E-05 1.34456E-05 1.65436E-24
 -1       548 8.57601E-05 8.83078E-06 0.00000E+00
 -1       549 8.56682E-05 5.08718E-06 0.00000E+00
 -1       550 8.55797E-05 2.62084E-06 0.00000E+00
 -1       551 7.82608E-05-3.84104E-06 6.61744E-24
 -1       552 6.77020E-05-4.05880E-06 1.65436E-24
 -1       553 5.59646E-05-4.28854E-06-3.30872E-24
 -1       554 4.36658E-05-4.52685E-06 0.00000E+00
 -1       555 3.14227E-05-4.76718E-06 0.00000E+00
 -1       556 8.47178E-05 2.35961E-06 0.00000E+00
 -1       557 8.29335E-05 6.98844E-06 0.00000E+00
 -1       558 8.16227E-05 1.03735E-05 0.00000E+00
 -1       559 8.07331E-05 1.26479E-05 0.00000E+00
 -1       560 8.02129E-05 1.39444E-05 0.00000E+00
 -1       561 8.00105E-05 1.43966E-05 6.61744E-24
 -1       562 8.00749E-05 1.41383E-05 0.00000E+00
 -1       563 8.03555E-05 1.33034E-05 0.00000E+00
 -1       564 8.08017E-05 1.20259E-05 6.61744E-24
 -1       565 8.13632E-05 1.04399E-05-1.65436E-24
 -1       566 8.19897E-05 8.67974E-06 0.00000E+00
 -1       567 8.26312E-05 6.87956E-06-2.06795E-25
 -1       568 8.32376E-05 5.17358E-06 0.00000E+00
 -1       569 8.37587E-05 3.69585E-06 0.00000E+00
 -1       570 8.41443E-05 2.58049E-06 0.00000E+00
 -1       571 8.55623E-05 1.82043E-06 0.00000E+00
 -1       572 8.56273E-05 1.76499E-06-2.06795E-25
 -1       573 8.56927E-05 1.67418E-06 8.27181E-25
 -1       574 8.57584E-05 1.55628E-06 4.13590E-25
 -1       575 8.58241E-05 1.41963E-06 1.65436E-24
 -1       576 8.58898E-05 1.27260E-06 0.00000E+00
 -1       577 8.59555E-05 1.12359E-06-1.65436E-24
 -1       578 8.60213E-05 9.80986E-07 1.65436E-24
 -1       579 8.60870E-05 8.53188E-07 0.00000E+00
 -1       580 8.61528E-05 7.48589E-07 0.00000E+00
 -1       581 8.62186E-05 6.75586E-07 0.00000E+00
 -1       582 8.62843E-05 6.42561E-07 0.00000E+00
 -1       583 8.63501E-05 6.57893E-07 0.00000E+00
 -1       584 8.64158E-05 7.29874E-07 0.00000E+00
 -1       585 8.64815E-05 8.66744E-07 0.00000E+00
 -1       586 8.52794E-05 1.85490E-06 0.00000E+00
 -1       587 8.50332E-05 1.87667E-06-2.06795E-25
 -1       588 8.47882E-05 1.89821E-06 0.00000E+00
 -1       589 8.45730E-05 1.91940E-06 0.00000E+00
 -1       590 8.44162E-05 1.94001E-06 0.00000E+00
 -1       591 8.54720E-05 1.85580E-06-1.03398E-25
 -1       592 8.54555E-05 1.84482E-06 0.00000E+00
 -1       593 8.54492E-05 1.80625E-06 0.00000E+00
 -1       594 8.54507E-05 1.74598E-06 4.13590E-25
 -1       595 8.54580E-05 1.67001E-06 0.00000E+00
 -1       596 8.54690E-05 1.58428E-06 0.00000E+00
 -1       597 8.54813E-05 1.49474E-06-4.13590E-25
 -1       598 8.54929E-05 1.40731E-06-2.06795E-25
 -1       599 8.55014E-05 1.32794E-06-4.13590E-25
 -1       600 8.55048E-05 1.26255E-06 0.00000E+00
 -1       601 8.55006E-05 1.21709E-06 0.00000E+00
 -1       602 8.54868E-05 1.19748E-06-1.03398E-25
 -1       603 8.54612E-05 1.20968E-06 1.03398E-25
 -1       604 8.54217E-05 1.25968E-06-5.16988E-26
 -1       605 8.53660E-05 1.35337E-06 4.13590E-25
 -1       606 8.65589E-05 1.43510E-06 0.00000E+00
 -1       607 8.65685E-05 1.88514E-06 0.00000E+00
 -1       608 8.65775E-05 2.42090E-06 0.00000E+00
 -1       609 8.65861E-05 3.03634E-06 0.00000E+00
 -1       610 8.65946E-05 3.72540E-06-3.30872E-24
 -1       611 8.66030E-05 4.48194E-06 0.00000E+00
 -1       612 8.66114E-05 5.29982E-06 0.00000E+00
 -1       613 8.66197E-05 6.17289E-06 0.00000E+00
 -1       614 8.66279E-05 7.09498E-06 0.00000E+00
 -1       615 8.66361E-05 8.05995E-06 0.00000E+00
 -1       616 8.66443E-05 9.06165E-06 1.65436E-24
 -1       617 8.66524E-05 1.00939E-05 0.00000E+00
 -1       618 8.66605E-05 1.11506E-05 0.00000E+00
 -1       619 8.66685E-05 1.22256E-05 0.00000E+00
 -1       620 8.66765E-05 1.33126E-05 0.00000E+00
 -1       621 8.62825E-05 1.14637E-06-1.65436E-24
 -1       622 8.60490E-05 1.21698E-06 0.00000E+00
 -1       623 8.58401E-05 1.28757E-06 0.00000E+00
 -1       624 8.56490E-05 1.35805E-06 0.00000E+00
 -1       625 8.54693E-05 1.42840E-06-1.65436E-24
 -1       626 8.64880E-05 1.45755E-06 0.00000E+00
 -1       627 8.64014E-05 1.91404E-06 0.00000E+00
 -1       628 8.62895E-05 2.43852E-06 0.00000E+00
 -1       629 8.61549E-05 3.02346E-06 0.00000E+00
 -1       630 8.60004E-05 3.66135E-06 3.30872E-24
 -1       631 8.58289E-05 4.34460E-06 1.65436E-24
 -1       632 8.56433E-05 5.06563E-06 0.00000E+00
 -1       633 8.54462E-05 5.81686E-06-1.65436E-24
 -1       634 8.52407E-05 6.59073E-06 0.00000E+00
 -1       635 8.50295E-05 7.37964E-06 0.00000E+00
 -1       636 8.48155E-05 8.17602E-06 1.65436E-24
 -1       637 8.46015E-05 8.97231E-06 0.00000E+00
 -1       638 8.43903E-05 9.76091E-06 1.65436E-24
 -1       639 8.41847E-05 1.05342E-05-8.27181E-25
 -1       640 8.39873E-05 1.12847E-05 0.00000E+00
 -1       656 8.57896E-05 1.40149E-05-6.61744E-24
 -1       657 8.52407E-05 1.36087E-05-3.30872E-24
 -1       658 8.49073E-05 1.32037E-05 0.00000E+00
 -1       659 8.46558E-05 1.27991E-05 0.00000E+00
 -1       660 8.43363E-05 1.23931E-05-6.61744E-24
 -1       661 8.63537E-05 1.54738E-05-8.27181E-25
 -1       662 8.60457E-05 1.64906E-05-8.27181E-25
 -1       663 8.57562E-05 1.74574E-05 0.00000E+00
 -1       664 8.54851E-05 1.83769E-05 0.00000E+00
 -1       665 8.52309E-05 1.92514E-05 0.00000E+00
 -1       666 8.49930E-05 2.00829E-05 8.27181E-25
 -1       667 8.47704E-05 2.08736E-05 0.00000E+00
 -1       668 8.45624E-05 2.16255E-05-8.27181E-25
 -1       669 8.43683E-05 2.23405E-05 0.00000E+00
 -1       670 8.41873E-05 2.30205E-05 0.00000E+00
 -1       671 8.40188E-05 2.36672E-05 1.65436E-24
 -1       672 8.38620E-05 2.42822E-05 0.00000E+00
 -1       673 8.37165E-05 2.48672E-05-1.65436E-24
 -1       674 8.35810E-05 2.54235E-05 0.00000E+00
 -1       675 8.34558E-05 2.59528E-05 0.00000E+00
 -1       676 8.56832E-05 2.68366E-05 1.65436E-24
 -1       677 8.52125E-05 2.67598E-05 0.00000E+00
 -1       678 8.47423E-05 2.66830E-05 0.00000E+00
 -1       679 8.42726E-05 2.66064E-05 0.00000E+00
 -1       680 8.38038E-05 2.65299E-05 0.00000E+00
 -1       771 1.53282E-05 3.96066E-06-2.64698E-23
 -1       772 1.14217E-05 1.13248E-05 0.00000E+00
 -1       773 8.10215E-06 1.71534E-05 0.00000E+00
 -1       774 5.33063E-06 2.15413E-05 0.00000E+00
 -1       775 3.06880E-06 2.45859E-05-5.29396E-23
 -1       776 1.27664E-06 2.63882E-05 0.00000E+00
 -1       777-8.63449E-08 2.70517E-05 5.29396E-23
 -1       778-1.06153E-06 2.66830E-05-1.32349E-23
 -1       779-1.69060E-06 2.53906E-05 0.00000E+00
 -1       780-2.01598E-06 2.32855E-05 0.00000E+00
 -1       781-2.08025E-06 2.04803E-05 2.64698E-23
 -1       782-1.92657E-06 1.70895E-05 1.32349E-23
 -1       783-1.59816E-06 1.32288E-05 0.00000E+00
 -1       784-1.13863E-06 9.01506E-06 0.00000E+00
 -1       785-5.91625E-07 4.56594E-06 0.00000E+00
 -1       786 8.44011E-05 1.84011E-06 4.13590E-25
 -1       787 8.44603E-05 1.73258E-06 0.00000E+00
 -1       788 8.45192E-05 1.63454E-06 0.00000E+00
 -1       789 8.45788E-05 1.54454E-06 0.00000E+00
 -1       790 8.46384E-05 1.46218E-06-1.65436E-24
 -1       791 8.46981E-05 1.38712E-06-8.27181E-25
 -1       792 8.47579E-05 1.31999E-06 0.00000E+00
 -1       793 8.48176E-05 1.26147E-06-8.27181E-25
 -1       794 8.48774E-05 1.21341E-06 0.00000E+00
 -1       795 8.49372E-05 1.17769E-06 0.00000E+00
 -1       796 8.49970E-05 1.15791E-06 0.00000E+00
 -1       797 8.50567E-05 1.15768E-06 0.00000E+00
 -1       798 8.51164E-05 1.18333E-06 1.65436E-24
 -1       799 8.51760E-05 1.24125E-06-8.27181E-25
 -1       800 8.52356E-05 1.34228E-06-1.65436E-24
 -1       801 7.86434E-05 1.75240E-06 0.00000E+00
 -1       802 6.13917E-05 1.41127E-06 0.00000E+00
 -1       803 3.88009E-05 9.73968E-07-6.61744E-24
 -1       804 1.71295E-05 5.49102E-07 6.61744E-24
 -1       805 2.25450E-06 2.38429E-07 0.00000E+00
 -1       806 8.43142E-05 1.79617E-06 0.00000E+00
 -1       807 8.42784E-05 1.63759E-06 0.00000E+00
 -1       808 8.42389E-05 1.48747E-06 1.65436E-24
 -1       809 8.41945E-05 1.34960E-06 8.27181E-25
 -1       810 8.41440E-05 1.22777E-06 3.30872E-24
 -1       811 8.40861E-05 1.12568E-06 8.27181E-25
 -1       812 8.40193E-05 1.04707E-06 1.65436E-24
 -1       813 8.39423E-05 9.95640E-07 1.65436E-24
 -1       814 8.38537E-05 9.75087E-07-1.65436E-24
 -1       815 8.37521E-05 9.89114E-07-8.27181E-25
 -1       816 8.36362E-05 1.04142E-06 1.65436E-24
 -1       817 8.35046E-05 1.13569E-06 8.27181E-25
 -1       818 8.33559E-05 1.27563E-06 0.00000E+00
 -1       819 8.31888E-05 1.46490E-06-8.27181E-25
 -1       820 8.30021E-05 1.70719E-06-1.65436E-24
 -1       821 8.52064E-05 1.66524E-06 0.00000E+00
 -1       822 8.51131E-05 1.80545E-06 0.00000E+00
 -1       823 8.50200E-05 1.96594E-06 0.00000E+00
 -1       824 8.49260E-05 2.19458E-06 1.65436E-24
 -1       825 8.48319E-05 2.52596E-06 0.00000E+00
 -1       826 8.47375E-05 2.99421E-06 0.00000E+00
 -1       827 8.46430E-05 3.60683E-06 0.00000E+00
 -1       828 8.45484E-05 4.37071E-06-1.65436E-24
 -1       829 8.44537E-05 5.26329E-06-3.30872E-24
 -1       830 8.43590E-05 6.26146E-06 0.00000E+00
 -1       831 8.42642E-05 7.32156E-06 0.00000E+00
 -1       832 8.41695E-05 8.39967E-06-1.65436E-24
 -1       833 8.40750E-05 9.44832E-06-1.65436E-24
 -1       834 8.39816E-05 1.04202E-05 0.00000E+00
 -1       835 8.38879E-05 1.12830E-05 0.00000E+00
 -1       836 8.50217E-05 1.58206E-06 0.00000E+00
 -1       837 8.46385E-05 1.66863E-06 0.00000E+00
 -1       838 8.41846E-05 1.75504E-06 0.00000E+00
 -1       839 8.36995E-05 1.84089E-06 0.00000E+00
 -1       840 8.32233E-05 1.92660E-06 0.00000E+00
 -1       856 8.37742E-05 1.27101E-05 0.00000E+00
 -1       857 8.37456E-05 1.35176E-05-2.06795E-25
 -1       858 8.37171E-05 1.44109E-05-8.27181E-25
 -1       859 8.36879E-05 1.53740E-05 4.13590E-25
 -1       860 8.36587E-05 1.63907E-05 0.00000E+00
 -1       861 8.36294E-05 1.74448E-05 4.13590E-25
 -1       862 8.36000E-05 1.85198E-05 8.27181E-25
 -1       863 8.35706E-05 1.95996E-05 0.00000E+00
 -1       864 8.35411E-05 2.06677E-05-8.27181E-25
 -1       865 8.35117E-05 2.17080E-05 0.00000E+00
 -1       866 8.34824E-05 2.27040E-05 8.27181E-25
 -1       867 8.34531E-05 2.36395E-05-4.13590E-25
 -1       868 8.34238E-05 2.44984E-05 0.00000E+00
 -1       869 8.33946E-05 2.52646E-05 0.00000E+00
 -1       870 8.33655E-05 2.59221E-05 0.00000E+00
 -1       871 8.32877E-05 1.20038E-05 4.13590E-25
 -1       872 8.28745E-05 1.20008E-05 0.00000E+00
 -1       873 8.25174E-05 1.19975E-05 0.00000E+00
 -1       874 8.21734E-05 1.19937E-05 0.00000E+00
 -1       875 8.17992E-05 1.19895E-05 8.27181E-25
 -1       876 8.36248E-05 1.27188E-05 0.00000E+00
 -1       877 8.34332E-05 1.34826E-05 0.00000E+00
 -1       878 8.32254E-05 1.42900E-05 3.30872E-24
 -1       879 8.30035E-05 1.51354E-05 0.00000E+00
 -1       880 8.27695E-05 1.60133E-05 0.00000E+00
 -1       881 8.25255E-05 1.69179E-05 1.65436E-24
 -1       882 8.22734E-05 1.78439E-05 0.00000E+00
 -1       883 8.20155E-05 1.87855E-05 0.00000E+00
 -1       884 8.17537E-05 1.97372E-05 0.00000E+00
 -1       885 8.14903E-05 2.06935E-05 1.65436E-24
 -1       886 8.12272E-05 2.16488E-05-3.30872E-24
 -1       887 8.09664E-05 2.25974E-05 0.00000E+00
 -1       888 8.07102E-05 2.35338E-05 1.65436E-24
 -1       889 8.04601E-05 2.44524E-05-8.27181E-25
 -1       890 8.02184E-05 2.53476E-05 8.27181E-25
 -1       891 8.28881E-05 2.64144E-05 8.27181E-25
 -1       892 8.24226E-05 2.63737E-05-4.13590E-25
 -1       893 8.19194E-05 2.63330E-05 0.00000E+00
 -1       894 8.13585E-05 2.62924E-05 0.00000E+00
 -1       895 8.07197E-05 2.62518E-05 0.00000E+00
 -1       956 8.27069E-05 2.42059E-06 0.00000E+00
 -1       957 8.26169E-05 2.89276E-06-1.65436E-24
 -1       958 8.25267E-05 3.41652E-06 0.00000E+00
 -1       959 8.24363E-05 3.98547E-06 0.00000E+00
 -1       960 8.23458E-05 4.59316E-06 0.00000E+00
 -1       961 8.22552E-05 5.23312E-06-8.27181E-25
 -1       962 8.21646E-05 5.89887E-06 0.00000E+00
 -1       963 8.20740E-05 6.58395E-06 0.00000E+00
 -1       964 8.19834E-05 7.28187E-06 3.30872E-24
 -1       965 8.18928E-05 7.98613E-06 1.65436E-24
 -1       966 8.18022E-05 8.69027E-06-3.30872E-24
 -1       967 8.17117E-05 9.38780E-06-1.65436E-24
 -1       968 8.16212E-05 1.00722E-05 0.00000E+00
 -1       969 8.15308E-05 1.07371E-05 1.65436E-24
 -1       970 8.14408E-05 1.13760E-05 0.00000E+00
 -1       971 8.12676E-05 1.26074E-05-1.65436E-24
 -1       972 8.11820E-05 1.33078E-05 8.27181E-25
 -1       973 8.10962E-05 1.40753E-05-3.30872E-24
 -1       974 8.10103E-05 1.49014E-05 0.00000E+00
 -1       975 8.09243E-05 1.57772E-05 0.00000E+00
 -1       976 8.08382E-05 1.66943E-05 8.27181E-25
 -1       977 8.07521E-05 1.76437E-05 0.00000E+00
 -1       978 8.06660E-05 1.86170E-05-1.65436E-24
 -1       979 8.05799E-05 1.96052E-05-3.30872E-24
 -1       980 8.04937E-05 2.05998E-05 1.65436E-24
 -1       981 8.04076E-05 2.15920E-05 0.00000E+00
 -1       982 8.03216E-05 2.25730E-05 0.00000E+00
 -1       983 8.02357E-05 2.35343E-05-3.30872E-24
 -1       984 8.01502E-05 2.44671E-05 0.00000E+00
 -1       985 8.00651E-05 2.53626E-05 0.00000E+00
 -3
    1PSTEP                        10           5           1          
  100CL  105 4.92188E-01         409                     0    5           1
 -4  STRESS      6    1
 -5  SXX         1    4    1    1
 -5  SYY         1    4    2    2
 -5  SZZ         1    4    3    3
 -5  SXY         1    4    1    2
 -5  SYZ         1    4    2    3
 -5  SZX         1    4    3    1
 -1         1-1.85061E+06-8.20649E+05-3.84544E+05-1.11436E+06-3.56522E-10 5.32600E-09
 -1         2 2.65054E+03 8.01810E+04 8.67453E+03 2.33761E+02-1.25851E-10 1.76938E-08
 -1         3-1.23089E+02-8.12241E+05 1.91472E+02-3.46101E+02-1.52898E-10 2.69392E-09
 -1         5-4.82565E+00 2.57310E+05 6.73015E+00 1.18116E-01 8.83901E-11-1.00440E-08
 -1         8-8.77737E+05-3.53042E+05-5.52974E+04-5.65481E+05-1.63709E-11 7.02858E-09
 -1         9-1.63161E+06-4.66295E+05-1.81244E+05-5.23059E+05 3.92029E-09-5.60540E-09
 -1        10-6.77640E+02-8.46184E+05-1.12537E+03-2.33894E+03-4.09773E-09-5.24852E-09
 -1        12-2.06693E+00 2.57324E+05 2.18143E+02 1.00910E+00 1.11431E-10 6.91216E-11
 -1        15 1.99538E+03 1.09658E+03 6.45003E+03 4.25276E+00 2.30784E-11 2.50634E-08
 -1        16-3.31544E+06-1.24748E+06-5.30129E+05-1.29576E+06 1.15688E-08 4.87004E-09
 -1        17-9.90660E+05-5.88413E+05-1.92815E+05-5.37752E+05 1.92376E-09 2.16824E-09
 -1        18-3.07220E+04-1.20151E+04-2.72433E+04-6.27044E+04 1.38084E-09-2.28647E-09
 -1        19 8.08111E+04 9.59101E+04-4.91659E+02 1.57513E+04-6.04632E-10-6.05069E-09
 -1        20-3.50354E+04-3.81760E+05-8.43032E+04 2.74034E+04 2.59646E-09-1.98512E-09
 -1        21-3.57583E+01-2.19764E+05-7.08414E+02-7.09797E+01-1.07576E-08-9.40328E-09
 -1        24-3.24645E+06-9.38434E+05-4.18621E+05-1.21370E+06-1.42148E-08-1.10109E-08
 -1        25 5.57756E+03-1.17184E+05-9.08303E+03-1.11702E+05 3.60887E-10 1.19620E-08
 -1        26-2.01231E+04 6.50656E+04-1.32724E+04-8.67166E+03 1.57488E-09 9.13402E-09
 -1        27-6.04493E+04-2.09227E+05-7.84068E+04 4.71525E+04 5.04247E-09-7.28808E-10
 -1        28 1.69972E+04-6.08549E+04 1.24238E+04 1.92081E+04 1.97056E-09 6.00146E-10
 -1        32-8.66763E+05-3.95682E+05 2.89242E+05-5.50862E+05-1.91794E-08 8.90608E-09
 -1        33-1.20027E+05 6.13038E+04 2.17577E+04-3.48262E+04 9.01745E-10-2.45564E-09
 -1        34-1.55165E+05-1.55143E+04 3.70623E+02 4.79533E+04 3.29672E-09-3.47109E-09
 -1        35-1.72901E+04-2.41818E+04-9.48889E+02 3.82824E+04 4.00158E-09-4.15639E-09
 -1        51 1.61617E+04-3.64473E+05 4.09714E+04-9.46161E+05-2.03727E-10-1.41590E-08
 -1        52 9.63363E+03-3.62780E+05 2.67581E+04-1.10352E+06 3.27418E-10-3.10101E-08
 -1        53 6.90572E+03-3.75881E+05 2.22643E+04-9.42858E+05 2.98314E-10-2.29775E-08
 -1        54 1.95725E+04-3.74558E+05 3.50984E+04-1.10695E+06 5.96629E-10-1.51304E-08
 -1        55 3.87111E+04-3.87849E+05 6.22748E+04-9.42324E+05 1.03319E-09-7.42511E-09
 -1        56-3.54664E+06-3.98408E+05-2.82708E+05-1.36806E+06-1.09503E-09 0.00000E+00
 -1        57-3.66170E+06-6.52881E+05-1.90596E+05-1.35543E+06 1.24783E-09-5.87715E-09
 -1        58-3.60405E+06-4.87387E+05-6.65053E+04-1.34954E+06-1.84082E-09 1.19326E-09
 -1        59-3.59525E+06-5.48488E+05-3.97003E+04-1.37753E+06-1.48339E-09-2.16369E-09
 -1        60-3.61245E+06-4.99763E+05-1.55219E+04-1.34700E+06 8.06494E-10-2.57660E-09
 -1        61-3.58706E+06-5.32375E+05-8.81002E+03-1.37858E+06-3.19187E-09-9.30561E-09
 -1        62-3.61207E+06-5.03130E+05-4.23584E+03-1.34858E+06 8.54243E-10-1.51536E-09
 -1        63-3.59049E+06-5.25713E+05-3.41897E+03-1.37318E+06-1.16484E-09-3.99484E-09
 -1        64-3.60889E+06-5.06454E+05-3.92701E+03-1.35233E+06-2.62935E-09 6.90306E-10
 -1        65-3.59886E+06-5.19706E+05-7.75410E+03-1.36421E+06 2.07365E-10-1.09608E-08
 -1        66-3.60361E+06-5.09242E+05-1.36944E+04-1.35748E+06 8.17408E-10 6.25369E-09
 -1        67-3.61576E+06-5.23983E+05-3.47061E+04-1.35204E+06-3.12052E-09 1.30058E-08
 -1        68-3.59210E+06-5.02530E+05-5.82744E+04-1.36439E+06-3.89264E-10-4.00178E-11
 -1        69-3.68014E+06-6.09388E+05-1.66799E+05-1.32612E+06 3.26736E-09-1.67893E-09
 -1        70-3.53995E+06-4.26402E+05-2.47485E+05-1.38258E+06-1.45519E-09-1.16997E-08
 -1        86-1.33215E+03 7.73064E+04 9.25394E+03-1.16905E+02 1.15460E-09-3.05823E-09
 -1        87 8.82188E+03 8.31806E+04 1.93580E+04 4.82569E+02 1.92404E-09 1.14852E-10
 -1        88-7.48494E+03 7.43087E+04 2.95931E+04-3.65727E+02 2.85945E-09 9.56106E-11
 -1        89 5.57585E+04 1.05005E+05 7.98531E+04 1.09485E+03 4.33101E-09-5.46515E-09
 -1        90-4.81116E+04 5.55022E+04 1.12793E+05-7.28679E+02 4.80941E-09 7.46479E-09
 -1       121-1.87867E+02-8.12760E+05 1.36340E+02 1.72790E+02 4.36131E-10-2.13004E-09
 -1       122-5.90227E+01-8.12205E+05 4.12351E+02-6.91811E+02-1.67964E-09 4.12911E-09
 -1       123-2.30409E+02-8.12806E+05 6.19824E+02 5.17472E+02 1.23941E-09 1.79170E-09
 -1       124 7.03837E+02-8.11756E+05 1.71496E+03-1.52685E+03-2.91698E-09 9.10222E-09
 -1       125-7.17630E+02-8.13236E+05 2.58183E+03 1.00708E+03 2.07410E-09-5.96629E-09
 -1       191-5.28943E+00 2.57331E+05 8.04655E+00-5.95927E-02 1.22636E-10-1.32609E-08
 -1       192-5.44404E+00 2.57310E+05 1.42497E+01 6.30632E-01 1.64435E-10-2.29966E-08
 -1       193-6.93359E+00 2.57331E+05 2.65025E+01-5.74728E-01 2.00186E-10-1.63186E-08
 -1       194-7.43405E+00 2.57312E+05 5.38984E+01 1.53501E+00 1.36279E-10-6.32645E-09
 -1       195-1.00933E+01 2.57329E+05 1.05430E+02-9.70326E-01 3.29443E-10-4.55657E-09
 -1       251-2.51782E+05-2.72543E+04 6.33863E+04 6.80420E+02 1.46088E-10 1.12050E-08
 -1       252-2.21474E+05 3.15003E+04 4.52246E+04-8.36607E+03-8.84768E-10 1.36879E-10
 -1       253-2.40793E+05-4.23634E+03 1.63461E+04 1.94332E+03 3.34921E-10 1.00044E-09
 -1       254-2.34655E+05 4.87355E+03 1.05174E+04-1.06139E+04 1.77124E-10-1.34161E-08
 -1       255-2.38691E+05-6.60588E+02 4.22251E+03 2.92818E+03-7.33905E-10 9.59062E-09
 -1       256-2.37342E+05 7.91797E+02 2.66617E+03-1.21436E+04 4.15795E-10 8.27239E-09
 -1       257-2.38173E+05-1.20574E+02 1.40403E+03 3.47295E+03-1.92358E-10 5.95767E-09
 -1       258-2.37893E+05 2.97832E+02 1.35790E+03-1.27354E+04-3.62856E-11 8.89807E-09
 -1       259-2.38167E+05-1.47993E+02 1.67165E+03 3.52010E+03-7.76424E-10-7.71934E-11
 -1       260-2.37298E+05 1.03886E+03 3.40790E+03-1.23293E+04-8.81286E-10-6.10885E-09
 -1       261-2.38748E+05-8.73451E+02 5.60467E+03 3.06680E+03 8.25708E-10 1.27284E-09
 -1       262-2.33992E+05 6.49383E+03 1.38973E+04-1.09685E+04-6.42217E-10 8.31415E-09
 -1       263-2.41412E+05-5.62890E+03 2.18238E+04 2.15929E+03-8.90623E-10-1.61072E-09
 -1       264-2.16716E+05 4.19418E+04 6.00926E+04-8.87471E+03-1.84266E-09 5.43696E-09
 -1       265-2.55928E+05-3.62572E+04 8.45332E+04 9.72949E+02-1.65869E-09-5.67525E-10
 -1       266-3.61217E+04-1.68878E+04 8.47645E+04-9.10078E+01 1.16415E-10 1.25827E-08
 -1       267 4.18762E+04 1.96873E+04 5.99038E+04 1.04990E+02 1.09139E-10 1.30423E-08
 -1       268-5.61546E+03-2.78803E+03 2.22664E+04-1.33784E+01 1.36424E-10 1.86325E-08
 -1       269 6.63029E+03 3.33695E+03 1.44724E+04 1.55829E+01 7.82165E-11-3.43620E-09
 -1       270-9.95205E+02-5.48266E+02 6.98606E+03-2.11475E+00 9.00400E-11 1.05409E-08
 -1       271-3.49219E+06-4.36933E+05-2.67701E+05-1.36156E+06-9.82254E-11 1.15106E-08
 -1       272-3.57687E+06-6.43294E+05-1.72080E+05-1.37165E+06-1.51431E-10-8.76753E-10
 -1       273-3.54416E+06-5.02011E+05-6.32445E+04-1.34781E+06-4.99313E-10-3.07409E-09
 -1       274-3.51550E+06-5.64166E+05-3.53537E+04-1.39326E+06 1.75896E-09 8.69204E-09
 -1       275-3.55293E+06-5.07031E+05-1.47208E+04-1.34369E+06-1.15506E-10 1.02773E-10
 -1       276-3.50481E+06-5.58692E+05-7.79285E+03-1.40014E+06-1.22054E-09 6.50721E-09
 -1       277-3.55538E+06-5.06169E+05-3.82004E+03-1.34174E+06-5.50244E-11 6.77710E-09
 -1       278-3.50228E+06-5.59637E+05-2.75911E+03-1.40281E+06-5.37057E-10-7.02158E-09
 -1       279-3.55581E+06-5.05784E+05-2.94656E+03-1.34130E+06-1.00431E-09-4.21551E-10
 -1       280-3.50320E+06-5.59756E+05-5.40142E+03-1.40209E+06-1.83627E-09 3.28509E-09
 -1       281-3.55438E+06-5.06156E+05-9.87303E+03-1.34238E+06-1.81626E-09 7.49424E-10
 -1       282-3.51035E+06-5.63318E+05-2.35940E+04-1.39738E+06 1.72076E-09 1.61481E-09
 -1       283-3.54826E+06-5.03130E+05-4.21363E+04-1.34544E+06-4.81123E-10 1.65892E-09
 -1       284-3.55200E+06-6.15041E+05-1.14592E+05-1.38170E+06-2.23969E-09-7.91260E-10
 -1       285-3.51293E+06-4.60610E+05-1.78377E+05-1.35542E+06 1.38243E-10 3.69619E-09
 -1       301 1.65655E+04-3.01903E+04 1.24430E+05-6.62983E+04-6.98492E-10 2.59251E-09
 -1       302 1.76978E+04 1.26864E+03 8.66334E+04-9.75924E+04 1.23009E-09 2.58296E-10
 -1       303 1.00285E+03-1.84903E+04 7.47957E+04-6.64170E+04-7.05768E-10 3.11047E-10
 -1       304 2.80037E+04 1.10689E+04 1.20458E+05-9.72441E+04 1.16597E-09 5.50517E-09
 -1       305 2.74105E+04-3.94708E+04 1.99281E+05-6.66177E+04-8.00355E-10 1.29658E-08
 -1       306-4.43654E+06-5.14638E+05-3.35027E+05-1.73392E+06 1.70985E-09-1.00699E-08
 -1       307-4.60417E+06-8.00126E+05-2.28034E+05-1.67817E+06 9.94987E-10 2.39743E-09
 -1       308-4.52223E+06-6.08989E+05-7.89091E+04-1.69122E+06 2.12458E-09 2.80124E-10
 -1       309-4.49527E+06-7.00742E+05-4.75275E+04-1.74074E+06 1.18575E-09-9.84073E-09
 -1       310-4.54522E+06-6.11729E+05-1.84486E+04-1.67226E+06-2.50111E-11-7.93352E-09
 -1       311-4.46885E+06-6.97536E+05-1.06911E+04-1.76349E+06 6.64800E-09 4.41798E-09
 -1       312-4.54901E+06-6.11556E+05-5.21977E+03-1.66890E+06-2.28124E-09 7.93125E-09
 -1       313-4.47380E+06-6.87918E+05-4.56013E+03-1.75515E+06-4.97039E-09 1.03124E-08
 -1       314-4.54000E+06-6.21496E+05-5.93899E+03-1.68041E+06-1.56570E-09-2.04591E-09
 -1       315-4.50127E+06-6.63184E+05-1.16381E+04-1.72209E+06 1.18075E-09-3.17323E-09
 -1       316-4.52092E+06-6.36768E+05-2.13628E+04-1.70150E+06 1.63368E-09 3.80805E-09
 -1       317-4.55091E+06-6.49164E+05-5.40993E+04-1.67694E+06 1.97326E-09-2.01635E-09
 -1       318-4.49051E+06-6.35851E+05-8.99414E+04-1.72547E+06-9.25320E-09 1.54323E-08
 -1       319-4.67064E+06-7.70932E+05-2.60825E+05-1.61704E+06-1.23691E-09 1.20344E-08
 -1       320-4.40261E+06-5.16787E+05-3.81987E+05-1.76122E+06 9.58971E-09-1.20781E-09
 -1       336 5.31508E+02-8.79859E+05-4.82915E+03 1.32784E+03-8.05221E-09 7.93989E-09
 -1       337-1.77033E+03-8.80943E+05-5.32408E+03-3.33596E+03-1.49660E-08-2.74304E-09
 -1       338 3.52571E+02-8.79979E+05-6.87382E+03 1.99943E+03-1.05454E-08 6.14637E-09
 -1       339-7.11584E+03-8.84298E+05-1.50389E+04-4.65706E+03-1.97908E-08 3.38696E-09
 -1       340 4.76457E+03-8.76620E+05-2.32601E+04 2.63886E+03-1.29148E-08 1.10431E-08
 -1       406 1.45961E+01 2.57320E+05 4.30670E+02-5.35956E-02 4.33971E-10 3.40924E-09
 -1       407 1.48091E+02 2.57399E+05 9.15322E+02-7.03729E+00-2.67733E-11 2.79852E-09
 -1       408 4.69100E+02 2.57254E+05 1.82808E+03 7.23636E+00 5.00677E-10 7.23048E-11
 -1       409 1.97471E+03 2.57983E+05 4.11554E+03-7.00760E+01 3.20597E-11-1.76806E-09
 -1       410 5.67737E+03 2.56734E+05 8.40171E+03 6.55773E+01 5.03860E-10 4.46471E-09
 -1       521-7.69520E+06-7.56815E+05-6.40203E+05-2.65627E+06-4.78212E-09 7.39237E-09
 -1       522-6.59132E+06-1.85032E+06-3.06272E+05-3.47298E+06-5.80640E-08-1.70658E-08
 -1       523-7.88746E+06-5.77173E+05-1.40664E+05-2.20961E+06-4.21278E-09-3.31638E-08
 -1       524-6.52468E+06-1.92526E+06-6.17206E+04-4.04838E+06 4.32602E-08-5.13364E-08
 -1       525-7.90100E+06-5.75571E+05-3.29176E+04-2.17367E+06 5.22850E-08-3.53157E-08
 -1       526-6.45318E+06-1.68829E+06 3.68870E+04-3.63555E+06 6.74991E-08-1.72113E-08
 -1       527-7.84534E+06-8.96382E+05-8.36138E+04-2.54945E+06 4.83196E-08-1.83718E-09
 -1       528-6.75470E+06-1.04126E+06 9.69764E+04-2.66781E+06 5.96629E-09-6.70843E-09
 -1       529-7.46301E+06-1.31928E+06-9.48108E+04-3.03397E+06 3.97267E-09 8.88031E-09
 -1       530-7.76893E+06-2.78129E+05 5.11700E+04-1.96341E+06-3.00060E-08 2.82453E-08
 -1       531-6.93774E+06-1.58154E+06-4.40010E+04-3.32256E+06-6.01794E-08-5.82440E-09
 -1       532-8.52910E+06 8.53248E+04-5.88806E+04-1.75470E+06 6.40825E-08-6.55182E-08
 -1       533-6.83919E+06-1.58831E+06-1.26257E+05-3.35899E+06 2.54367E-08-9.31686E-08
 -1       534-8.18032E+06-3.44270E+05-3.09620E+05-1.83006E+06-1.80080E-08 7.67996E-08
 -1       535-7.20074E+06-1.21635E+06-6.12360E+05-3.16958E+06-9.95351E-09 4.74101E-08
 -1       536-2.53688E+05-1.46856E+04 3.39473E+04-3.63544E+03-3.25755E-10 1.23382E-08
 -1       537-2.38596E+05 1.70549E+04 2.40935E+04 6.02063E+03-1.32721E-08 7.78618E-09
 -1       538-2.48464E+05-2.29059E+03 8.69482E+03-3.17677E+03 7.06223E-10 1.10663E-08
 -1       539-2.43693E+05 2.75048E+03 5.88127E+03 4.00347E+03 1.08832E-08 1.26065E-08
 -1       540-2.48533E+05-3.98805E+02 1.92201E+03-1.61806E+03 2.20894E-09 7.04722E-09
 -1       541-2.43576E+05 5.07403E+02 1.85322E+03 3.79959E+02-4.26326E-10 9.01957E-09
 -1       542-2.48588E+05-1.11407E+02 1.09599E+02 4.47018E+02 2.59408E-09 6.05493E-09
 -1       543-2.44482E+05 6.56795E+01 5.14613E+02-3.48973E+03-6.09717E-10 2.29181E-09
 -1       544-2.47671E+05 3.03002E+01-5.10222E+02 2.25168E+03-3.89463E-10-3.55649E-09
 -1       545-2.46349E+05-3.44818E+02-9.28966E+02-6.17767E+03 1.32746E-09-4.21798E-09
 -1       546-2.46733E+05 3.64086E+02-1.93392E+03 3.13534E+03 6.46232E-10-3.07557E-09
 -1       547-2.47756E+05-2.33348E+03-4.80398E+03-6.70755E+03-7.34589E-09-5.99545E-09
 -1       548-2.46250E+05 2.05193E+03-7.83527E+03 2.78180E+03-7.91135E-09-1.08093E-09
 -1       549-2.52205E+05-1.48990E+04-2.09123E+04-4.86941E+03-3.77707E-09-4.43833E-10
 -1       550-2.42280E+05 1.28625E+04-3.03727E+04 1.29680E+03 3.16277E-10-5.88443E-09
 -1       551 1.04280E+04-4.64696E+05 2.11868E+04-7.74193E+05 1.24201E-08-4.83124E-09
 -1       552 2.53652E+04-4.70816E+05 2.90058E+04-1.11701E+06 2.81507E-08 2.43381E-08
 -1       553 1.74628E+04-4.76417E+05 4.46380E+04-7.71391E+05 1.54323E-08 1.69639E-08
 -1       554 4.98991E+04-4.61566E+05 9.49282E+04-1.11820E+06 2.99769E-08 8.88849E-09
 -1       555 4.26695E+04-4.94810E+05 1.69118E+05-7.72243E+05 1.51194E-08-7.31961E-09
 -1       556 7.46561E+04-1.45516E+05 5.01566E+04-1.88308E+05-6.47560E-09-7.21047E-09
 -1       557 1.34024E+05-1.94260E+05 2.64132E+04-2.36258E+05 1.45519E-10 2.52658E-09
 -1       558 7.41309E+04-1.52036E+05 1.05778E+04-1.82751E+05 5.82077E-10 1.50430E-09
 -1       559 1.25413E+05-2.00961E+05 5.40247E+03-2.40155E+05 1.65528E-08 1.01936E-08
 -1       560 7.20587E+04-1.50673E+05 2.17462E+03-1.84083E+05 6.57747E-09-3.96903E-09
 -1       561 1.22281E+05-2.00097E+05 1.18062E+03-2.42141E+05 1.87720E-09 1.39516E-09
 -1       562 7.03976E+04-1.49571E+05 4.20769E+02-1.85278E+05 4.16912E-09 3.83352E-09
 -1       563 1.20330E+05-1.99256E+05 2.86863E+02-2.43389E+05 9.13860E-09 4.38058E-09
 -1       564 6.93458E+04-1.48896E+05 9.71726E+01-1.86025E+05 3.04135E-09-6.38602E-09
 -1       565 1.19283E+05-1.98806E+05 7.89490E+01-2.44048E+05-4.87307E-09-1.09503E-09
 -1       566 6.89370E+04-1.48628E+05 7.32367E-01-1.86317E+05-6.19002E-09-3.95994E-09
 -1       567 1.19100E+05-1.98717E+05-7.45164E+01-2.44096E+05 5.58055E-09 1.08557E-08
 -1       568 6.92054E+04-1.48806E+05-2.72054E+02-1.86195E+05 1.26238E-09 1.25819E-08
 -1       569 1.19121E+05-1.98587E+05-6.39709E+02-2.42929E+05 5.17502E-10 9.02219E-10
 -1       570 7.06972E+04-1.50096E+05-1.43044E+03-1.86128E+05 3.13230E-09 3.95994E-09
 -1       571 1.87485E+05 6.87244E+03 1.01736E+04-4.81464E+04 6.09361E-11-2.81943E-11
 -1       572 1.88997E+05 2.39627E+03 4.98449E+03-5.27809E+04-2.07820E-10-2.91470E-09
 -1       573 1.88091E+05 5.77352E+02 2.21432E+03-4.80231E+04 7.62157E-10 4.29964E-09
 -1       574 1.88268E+05 1.94997E+02 1.10949E+03-5.29191E+04-1.73031E-10 5.65342E-09
 -1       575 1.88157E+05 3.46716E+01 5.22933E+02-4.80068E+04-4.79758E-11 3.38332E-10
 -1       576 1.88168E+05 1.74921E+01 2.66275E+02-5.29376E+04-1.04052E-10-1.21163E-08
 -1       577 1.88167E+05 5.39243E+00 1.31274E+02-4.80047E+04-3.58568E-10 6.06997E-09
 -1       578 1.88160E+05 7.93896E+00 7.18355E+01-5.29398E+04-1.50339E-09 1.08198E-08
 -1       579 1.88180E+05 2.49011E+00 4.42981E+01-4.80046E+04 4.67026E-10 1.75396E-09
 -1       580 1.88177E+05 8.77740E-01 4.20768E+01-5.29370E+04 1.40517E-10 3.30419E-09
 -1       581 1.88202E+05-6.05872E+00 5.76294E+01-4.80075E+04 6.79393E-10 2.75668E-09
 -1       582 1.88217E+05 2.08948E+00 1.10496E+02-5.29082E+04 1.46429E-10-1.20008E-09
 -1       583 1.88229E+05 2.71322E+01 2.11911E+02-4.80334E+04 1.14596E-10 3.44130E-09
 -1       584 1.88329E+05 1.91936E+02 4.75578E+02-5.26916E+04-2.13731E-09 1.21611E-09
 -1       585 1.88210E+05 6.09694E+02 9.65395E+02-4.82245E+04-8.27640E-10 8.87667E-10
 -1       586-2.18187E+03 6.20904E+04-2.85008E+03-1.64896E+05 1.35060E-10 7.25913E-09
 -1       587-4.51206E+02 6.17127E+04-2.25218E+02-1.81463E+05 3.35604E-10 2.10092E-08
 -1       588 6.57946E+02 6.17744E+04 2.25342E+03-1.64800E+05 1.78261E-10 1.27693E-08
 -1       589 3.25807E+03 6.29989E+04 6.43484E+03-1.81305E+05 3.39242E-10-1.11868E-09
 -1       590 9.37079E+03 6.10226E+04 1.37315E+04-1.65058E+05 2.54659E-10 7.74889E-10
 -1       591-4.11779E+04-1.15730E+04-1.35446E+04-2.10886E+04-3.39077E-09-9.64064E-10
 -1       592-4.25156E+04-1.48302E+04-7.33633E+03-2.45424E+04-7.25208E-10 7.01561E-10
 -1       593-4.25467E+04-1.05758E+04-3.05417E+03-2.20677E+04 8.60496E-10-4.27713E-09
 -1       594-4.06293E+04-1.28604E+04-1.52325E+03-2.46351E+04 1.32178E-09-2.99904E-09
 -1       595-4.26516E+04-1.05713E+04-7.00007E+02-2.21127E+04-4.91241E-10 3.17979E-09
 -1       596-4.05016E+04-1.27702E+04-3.56796E+02-2.46218E+04 3.01861E-09 5.38313E-09
 -1       597-4.26649E+04-1.05800E+04-1.96345E+02-2.21145E+04 1.07214E-10-4.83959E-09
 -1       598-4.04894E+04-1.27667E+04-1.61615E+02-2.46181E+04-1.59628E-09-2.50748E-09
 -1       599-4.26638E+04-1.05800E+04-2.11165E+02-2.21142E+04-6.89056E-10-9.67577E-09
 -1       600-4.05029E+04-1.27713E+04-3.96060E+02-2.46213E+04-1.98042E-09-1.02101E-08
 -1       601-4.26471E+04-1.05707E+04-7.83325E+02-2.21114E+04-8.56971E-10-1.07445E-09
 -1       602-4.06459E+04-1.28724E+04-1.70822E+03-2.46344E+04-1.41154E-09-5.40422E-09
 -1       603-4.25280E+04-1.05776E+04-3.42626E+03-2.20612E+04-9.87825E-09-3.57932E-09
 -1       604-4.27690E+04-1.50743E+04-8.23037E+03-2.45198E+04-1.78744E-08-7.48105E-09
 -1       605-4.09832E+04-1.17031E+04-1.51950E+04-2.09704E+04-1.14147E-08 4.64388E-09
 -1       606 2.61346E+04-9.03176E+03-1.62582E+04 2.54583E+04-2.48656E-09-1.45610E-09
 -1       607 2.33503E+04-2.91568E+03-8.09560E+03 2.85791E+04 6.97582E-10-6.30394E-09
 -1       608 2.49292E+04-4.93786E+02-3.62544E+03 2.52558E+04 3.53248E-09 2.49497E-09
 -1       609 2.46145E+04-1.29895E+02-1.83108E+03 2.88031E+04-1.69985E-09 3.59819E-09
 -1       610 2.47823E+04 2.17024E+01-8.74726E+02 2.52331E+04-4.34011E-09-1.10344E-09
 -1       611 2.47225E+04 3.40168E+01-4.41147E+02 2.88276E+04-7.77436E-09-2.41607E-09
 -1       612 2.47425E+04 3.66462E+01-2.11112E+02 2.52309E+04-2.91038E-09-7.28733E-10
 -1       613 2.47195E+04 4.24296E+01-9.61250E+01 2.88304E+04-4.74711E-09-3.52861E-09
 -1       614 2.47205E+04 3.77483E+01-2.66852E+01 2.52301E+04-1.24055E-09 4.49245E-09
 -1       615 2.47078E+04 4.79214E+01 3.04827E+01 2.88309E+04 3.34512E-09-3.84898E-09
 -1       616 2.47038E+04 4.34411E+01 1.00405E+02 2.52304E+04-2.70302E-09 7.66249E-10
 -1       617 2.47135E+04 7.33029E+01 2.32730E+02 2.88304E+04-1.74168E-09-4.08590E-09
 -1       618 2.46788E+04 1.13591E+02 4.70365E+02 2.52305E+04 6.10726E-10 7.48969E-10
 -1       619 2.48758E+04 4.39547E+02 1.05715E+03 2.88297E+04 4.96584E-10 2.43836E-09
 -1       620 2.45201E+04 1.23149E+03 2.12504E+03 2.52294E+04 1.01500E-09 3.43607E-09
 -1       621 3.08302E+02 2.02242E+05 2.70190E+03 7.92164E+03-2.02931E-10-1.10481E-09
 -1       622 3.55290E+02 2.02911E+05 2.32412E+03 1.15598E+04-1.38471E-10 7.36782E-09
 -1       623 1.48878E+01 2.02430E+05 2.71293E+03 7.88447E+03-8.66294E-11 3.10467E-09
 -1       624 1.23790E+03 2.03719E+05 5.18673E+03 1.15963E+04 2.59206E-11-2.99571E-09
 -1       625 1.24375E+03 2.01427E+05 9.03340E+03 7.88530E+03 1.18234E-11-2.98473E-09
 -1       626 1.68439E+05 4.62865E+04 3.38377E+03 9.05346E+04-1.04333E-08-1.17943E-08
 -1       627 1.66184E+05 4.79296E+04 1.63053E+03 9.41668E+04 9.32232E-11 6.15717E-09
 -1       628 1.68561E+05 4.46900E+04 6.88667E+02 9.10492E+04 2.11912E-10-3.58227E-09
 -1       629 1.65699E+05 4.75404E+04 3.37549E+02 9.43830E+04 3.93129E-09 9.12149E-09
 -1       630 1.68568E+05 4.46149E+04 1.56035E+02 9.10628E+04 2.85399E-09 1.26533E-10
 -1       631 1.65640E+05 4.75317E+04 8.39141E+01 9.43841E+04-2.51384E-09 2.68292E-09
 -1       632 1.68559E+05 4.46213E+04 5.52640E+01 9.10550E+04-2.37060E-09 1.66199E-08
 -1       633 1.65627E+05 4.75368E+04 6.16302E+01 9.43772E+04-1.10504E-09 2.48842E-08
 -1       634 1.68549E+05 4.46223E+04 9.96136E+01 9.10505E+04-6.13090E-09-8.86985E-09
 -1       635 1.65631E+05 4.75385E+04 2.01907E+02 9.43765E+04 3.12070E-09-1.88584E-09
 -1       636 1.68538E+05 4.46215E+04 4.07747E+02 9.10475E+04-2.24202E-09-7.08496E-09
 -1       637 1.65714E+05 4.76034E+04 8.96143E+02 9.43724E+04 2.29855E-09-9.99307E-10
 -1       638 1.68503E+05 4.48213E+04 1.84169E+03 9.09554E+04-3.63309E-09 1.78247E-08
 -1       639 1.66678E+05 4.89504E+04 4.35689E+03 9.40861E+04-2.25477E-08 1.92676E-09
 -1       640 1.68374E+05 4.88319E+04 9.04161E+03 8.92528E+04-1.05974E-08 4.71641E-09
 -1       656 4.54628E+04-1.15130E+06-1.09748E+05-3.71544E+02 6.65750E-10-1.25528E-08
 -1       657-6.00787E+04-1.20084E+06-9.07710E+04 7.26910E+03-5.47516E-10-1.37477E-08
 -1       658 1.44204E+04-1.16543E+06-5.57139E+04-1.47996E+03-6.18456E-11-7.36220E-09
 -1       659-6.44498E+04-1.20291E+06-9.65123E+04 8.01667E+03-7.49424E-10 1.13469E-08
 -1       660 4.98233E+04-1.14924E+06-1.19623E+05-1.11910E+03-2.98314E-10 2.37246E-09
 -1       661 1.59691E+05 1.73677E+04 1.53804E+04 6.24192E+04 2.64617E-09-1.50976E-09
 -1       662 1.67741E+05 2.93918E+04 1.03639E+04 5.97006E+04 2.13231E-09-1.01330E-08
 -1       663 1.62706E+05 2.23068E+04 3.62535E+03 6.15488E+04-6.96900E-11 4.80668E-10
 -1       664 1.64252E+05 2.36104E+04 2.16755E+03 6.07590E+04 1.82931E-09-2.59834E-09
 -1       665 1.63157E+05 2.29867E+04 8.55031E+02 6.14221E+04-1.34568E-09 3.58142E-10
 -1       666 1.63722E+05 2.28286E+04 4.98694E+02 6.09213E+04-1.94007E-09 8.96038E-09
 -1       667 1.63233E+05 2.30682E+04 2.63006E+02 6.13942E+04-1.62609E-09 1.99844E-10
 -1       668 1.63642E+05 2.27643E+04 2.63666E+02 6.09613E+04-1.53545E-09 1.06635E-08
 -1       669 1.63237E+05 2.30491E+04 3.53430E+02 6.13827E+04 8.23249E-10 6.16109E-09
 -1       670 1.63731E+05 2.29511E+04 7.66284E+02 6.09604E+04 6.39054E-09 5.33510E-09
 -1       671 1.63144E+05 2.28851E+04 1.35950E+03 6.13936E+04-5.58671E-10 1.13147E-09
 -1       672 1.64524E+05 2.42725E+04 3.47736E+03 6.07679E+04-4.11373E-09-9.13252E-09
 -1       673 1.62449E+05 2.17609E+04 5.82717E+03 6.15625E+04-2.30477E-09-6.26505E-09
 -1       674 1.70073E+05 3.36318E+04 1.66645E+04 5.91357E+04-9.05459E-10 6.97355E-09
 -1       675 1.57631E+05 1.37875E+04 2.47353E+04 6.29272E+04 1.99179E-10-3.52975E-09
 -1       676 1.83917E+01-2.19705E+05-8.53822E+02 3.54907E+01-1.00374E-09 2.98291E-09
 -1       677-2.26633E+02-2.19911E+05-1.56259E+03-7.09470E+01-2.99656E-09 1.86608E-09
 -1       678 1.51362E+02-2.19558E+05-2.76224E+03 3.54319E+01-8.57199E-10 1.60641E-10
 -1       679-2.76282E+03-2.21579E+05-6.56169E+03-7.07181E+01-1.24840E-09 1.33116E-09
 -1       680 1.64888E+03-2.18038E+05-1.05753E+04 3.48564E+01-2.28283E-10 9.13409E-09
 -1       771-2.35262E+06-4.28925E+05-5.83615E+04-9.94951E+05-1.60871E-08-1.38389E-08
 -1       772-2.33199E+06-4.64080E+05-3.10917E+04-1.03446E+06-8.36735E-09 5.27325E-09
 -1       773-2.36146E+06-4.21983E+05-1.38323E+04-9.98171E+05-1.76078E-09 8.94579E-09
 -1       774-2.32407E+06-4.57646E+05-6.62048E+03-1.03944E+06 7.45058E-09-8.96762E-10
 -1       775-2.36413E+06-4.20149E+05-3.64180E+03-9.98595E+05-6.19184E-09 1.32786E-09
 -1       776-2.32444E+06-4.57725E+05-1.59784E+03-1.04244E+06-3.52156E-09 1.93904E-09
 -1       777-2.36615E+06-4.18660E+05-1.18194E+03-9.98911E+05-2.69210E-10 1.75714E-09
 -1       778-2.32527E+06-4.57958E+05-4.58442E+02-1.04496E+06 3.33239E-09 4.15821E-09
 -1       779-2.36780E+06-4.17395E+05-5.40837E+02-9.99191E+05-6.67933E-09-7.48514E-09
 -1       780-2.32606E+06-4.58139E+05-2.97371E+02-1.04700E+06-6.33008E-09 6.03904E-10
 -1       781-2.36906E+06-4.16389E+05-5.50818E+02-9.99407E+05-1.29512E-08 2.43745E-10
 -1       782-2.32673E+06-4.58299E+05-8.33605E+02-1.04850E+06-1.70694E-08 4.35057E-09
 -1       783-2.36987E+06-4.15719E+05-1.68192E+03-9.99543E+05-5.41331E-09-5.00222E-11
 -1       784-2.32811E+06-4.59416E+05-3.90895E+03-1.04936E+06-8.24912E-09 6.25278E-10
 -1       785-2.36959E+06-4.15899E+05-7.24456E+03-9.99097E+05-1.35351E-08 2.05455E-09
 -1       786 1.66844E+05-9.11345E+03 2.10842E+04-2.67803E+01 3.28426E-06 1.69794E-08
 -1       787 1.75980E+05 1.05506E+04 1.49166E+04 5.61283E+00 6.54331E-06 1.69046E-08
 -1       788 1.70369E+05-1.42863E+03 5.45705E+03-1.86211E+01 6.25256E-06-1.80414E-08
 -1       789 1.71874E+05 1.65301E+03 3.42858E+03-8.71540E+00 5.94893E-06 6.78551E-09
 -1       790 1.70950E+05-2.23160E+02 1.39480E+03-1.24528E+01 5.87623E-06-1.45120E-08
 -1       791 1.71195E+05 2.59200E+02 8.18370E+02-2.12171E+01 5.79754E-06 1.06876E-08
 -1       792 1.71048E+05-3.58778E+01 3.72396E+02-6.11930E+00 2.90162E-06-7.28109E-09
 -1       793 1.71085E+05 4.98505E+01 2.41773E+02-3.58921E+01 8.57322E-09-2.05867E-09
 -1       794 1.71061E+05-1.39478E+01 1.75648E+02 2.22241E+00 3.21212E-10-1.49216E-09
 -1       795 1.71094E+05 7.06589E+01 2.49091E+02-5.69355E+01-5.75701E-10 9.91827E-09
 -1       796 1.71039E+05-5.66685E+01 3.70098E+02 1.49245E+01 3.02950E-10-2.44177E-09
 -1       797 1.71261E+05 4.15134E+02 8.70157E+02-9.02775E+01-3.19542E-10 1.24612E-09
 -1       798 1.70893E+05-3.58172E+02 1.37267E+03 3.55650E+01-1.51068E-10-5.50807E-09
 -1       799 1.72291E+05 2.64459E+03 3.74149E+03-1.45570E+02-2.32178E-10-2.59473E-09
 -1       800 1.70009E+05-2.28433E+03 5.28479E+03 7.02173E+01 2.07017E-10 2.38742E-11
 -1       801 9.27224E+03-6.07486E+05-4.70934E+04 2.27613E+04 1.15870E-08-2.43745E-09
 -1       802-1.16550E+03-4.90392E+05 1.23538E+04-7.46202E+04 3.14658E-08 2.55227E-11
 -1       803-7.37401E+03-5.52512E+05 3.85687E+04 3.58884E+04 2.49092E-08 2.06384E-08
 -1       804 9.88929E+04-4.31382E+05 1.44162E+05-7.20131E+04 2.87546E-08 2.76182E-08
 -1       805-9.10253E+04-6.66020E+05 1.72325E+05 2.01489E+04 1.02737E-08 2.25480E-08
 -1       806-2.04272E+05-4.29816E+04-1.70344E+04-8.42418E+04 1.54341E-09-7.18501E-10
 -1       807-2.05349E+05-4.04674E+04-8.36865E+03-8.86726E+04-1.40756E-09-8.14998E-09
 -1       808-2.04750E+05-3.68321E+04-3.54998E+03-8.71357E+04-3.34103E-09-2.00370E-09
 -1       809-2.03568E+05-3.81387E+04-1.73553E+03-8.89073E+04-1.38141E-09 4.09284E-09
 -1       810-2.04825E+05-3.66157E+04-7.94749E+02-8.72634E+04 2.80829E-09 1.17079E-08
 -1       811-2.03431E+05-3.80464E+04-3.94251E+02-8.88858E+04 1.48361E-10 4.08670E-09
 -1       812-2.04838E+05-3.66323E+04-1.97009E+02-8.72629E+04-6.25278E-10-3.10706E-09
 -1       813-2.03413E+05-3.80487E+04-1.24609E+02-8.88745E+04 2.12776E-09 4.33192E-09
 -1       814-2.04835E+05-3.66386E+04-1.17493E+02-8.72601E+04 4.22506E-09-6.31644E-09
 -1       815-2.03415E+05-3.80508E+04-1.84368E+02-8.88709E+04 2.34354E-09-1.91294E-08
 -1       816-2.04822E+05-3.66375E+04-3.45839E+02-8.72576E+04 1.34514E-09-3.58204E-09
 -1       817-2.03474E+05-3.80839E+04-7.41426E+02-8.88640E+04 4.18368E-10 5.04679E-09
 -1       818-2.04778E+05-3.67418E+04-1.51118E+03-8.72082E+04 1.51886E-09-1.17279E-09
 -1       819-2.04307E+05-3.89916E+04-3.55639E+03-8.86624E+04 3.85626E-09 9.87529E-09
 -1       820-2.04491E+05-3.94301E+04-7.23802E+03-8.60609E+04-4.13820E-10 4.24143E-09
 -1       821-2.63166E+05 1.45703E+04-3.36962E+04 1.26604E+02 1.54389E-10 6.98128E-09
 -1       822-2.77769E+05-1.68676E+04-2.38450E+04-7.03115E+02-1.87464E-09 1.21568E-08
 -1       823-2.68802E+05 2.28434E+03-8.72736E+03 1.02780E+02 1.02340E-09-2.57387E-10
 -1       824-2.71196E+05-2.64396E+03-5.49101E+03-5.50315E+02-3.71823E-10 1.01322E-08
 -1       825-2.69737E+05 3.57457E+02-2.25746E+03-2.61988E+01-2.42159E-09 5.67695E-09
 -1       826-2.70106E+05-4.21527E+02-1.36168E+03-2.40059E+02-5.03845E-09 2.51895E-09
 -1       827-2.69891E+05 6.33218E+01-7.06203E+02-2.07482E+02-3.89905E-09 2.76287E-10
 -1       828-2.69959E+05-1.28609E+02-6.23158E+02 1.02895E+02-4.81976E-09 1.02480E-08
 -1       829-2.69884E+05 6.48125E+01-7.17084E+02-3.69159E+02-3.32944E-10 1.18970E-09
 -1       830-2.70128E+05-4.32956E+02-1.39966E+03 3.42466E+02 1.90208E-09 9.59130E-09
 -1       831-2.69722E+05 3.67695E+02-2.31843E+03-4.47058E+02-4.17757E-09 4.77166E-09
 -1       832-2.71243E+05-2.71905E+03-5.64961E+03 3.84164E+02-4.79046E-10-7.17080E-09
 -1       833-2.68769E+05 2.34930E+03-8.97791E+03-4.10856E+02-6.15099E-10-3.56067E-10
 -1       834-2.77986E+05-1.73507E+04-2.45281E+04 2.13350E+02-2.51872E-10 9.72705E-10
 -1       835-2.62981E+05 1.49879E+04-3.46668E+04-2.76233E+02 5.66492E-09 2.93949E-09
 -1       836-8.76821E+02 2.48010E+05 1.49666E+04-2.09717E+04 1.34332E-09 5.54792E-10
 -1       837 3.29329E+03 2.52645E+05 1.27756E+04-4.21215E+04 1.98906E-09-4.71073E-09
 -1       838-3.21756E+02 2.49298E+05 1.31704E+04-2.09002E+04 2.02726E-09 6.52221E-09
 -1       839 8.45173E+03 2.56489E+05 2.50655E+04-4.21485E+04 2.53931E-09 7.23247E-09
 -1       840-2.54081E+03 2.44129E+05 4.00327E+04-2.09433E+04 1.64255E-09-1.27625E-09
 -1       856-7.90813E+04 6.93643E+03-1.82794E+04-4.08332E+02-1.56791E-09 2.52021E-09
 -1       857-8.66318E+04-8.13550E+03-1.25849E+04 4.19393E+03-3.62502E-09 1.09321E-09
 -1       858-8.20645E+04 9.71897E+02-4.74400E+03-4.27354E+02-4.00360E-09-4.40787E-09
 -1       859-8.32060E+04-1.12995E+03-2.86513E+03 4.22426E+03-3.84901E-10 7.26402E-10
 -1       860-8.25105E+04 1.35153E+02-1.20457E+03-4.38788E+02-1.67023E-09-3.94783E-09
 -1       861-8.26923E+04-1.49151E+02-6.70670E+02 4.23990E+03-6.87282E-09-4.13299E-09
 -1       862-8.25799E+04 1.78807E+01-2.94859E+02-4.43026E+02 4.63364E-09 3.48747E-09
 -1       863-8.26100E+04-1.05788E+01-1.43889E+02 4.24181E+03 6.11161E-09-6.95018E-09
 -1       864-8.25929E+04-3.71054E-01-4.12983E+01-4.40700E+02 2.86455E-09-6.01896E-09
 -1       865-8.25847E+04 2.31742E+01 3.78642E+01 4.23008E+03 4.97408E-09-2.51279E-09
 -1       866-8.26038E+04-1.62868E+01 1.18470E+02-4.31296E+02-1.64505E-09-8.80784E-09
 -1       867-8.25178E+04 1.36396E+02 3.18706E+02 4.20456E+03 4.05180E-10-1.49362E-08
 -1       868-8.26569E+04-1.12763E+02 5.36070E+02-4.15176E+02 2.42210E-09-8.40498E-09
 -1       869-8.21166E+04 9.35506E+02 1.43742E+03 4.16232E+03 1.68757E-09-8.79425E-09
 -1       870-8.30005E+04-7.95463E+02 2.08461E+03-3.89065E+02 2.88770E-09-7.39988E-10
 -1       871-3.86541E+03-8.26892E+03-1.25458E+04 8.23891E+04 5.32964E-10 8.77844E-09
 -1       872-1.68003E+03-1.10782E+04-5.11660E+03 1.06813E+05 1.85719E-09 3.21415E-09
 -1       873-3.97120E+01-9.76643E+03 7.23978E+02 8.22079E+04 1.69780E-09 1.48428E-08
 -1       874 1.92198E+03-7.94505E+03 7.10107E+03 1.06850E+05 3.04090E-09 5.67593E-09
 -1       875 4.55682E+03-1.14514E+04 1.57518E+04 8.23593E+04 1.83354E-09 7.46240E-10
 -1       876 2.04758E+05 3.52784E+04 1.09432E+04 8.30703E+04-1.10225E-09 1.13141E-09
 -1       877 2.05383E+05 3.76812E+04 5.84392E+03 8.63072E+04-5.52973E-10-1.33550E-08
 -1       878 2.05780E+05 3.40672E+04 2.44833E+03 8.39690E+04-1.74714E-09-6.75868E-09
 -1       879 2.03894E+05 3.61988E+04 1.21964E+03 8.63847E+04-6.29677E-09 7.96672E-09
 -1       880 2.05855E+05 3.40537E+04 5.67819E+02 8.40056E+04 2.83285E-09 3.73933E-09
 -1       881 2.03795E+05 3.61358E+04 3.02449E+02 8.63692E+04 5.72300E-09-6.70880E-09
 -1       882 2.05862E+05 3.40627E+04 1.92164E+02 8.40066E+04-1.00886E-09 2.57906E-09
 -1       883 2.03788E+05 3.61328E+04 2.04441E+02 8.63648E+04-1.03648E-08-7.50447E-09
 -1       884 2.05858E+05 3.40604E+04 3.23275E+02 8.40068E+04-2.97592E-09-2.35184E-09
 -1       885 2.03814E+05 3.61374E+04 6.48749E+02 8.63729E+04 9.68055E-09 1.73497E-09
 -1       886 2.05833E+05 3.40414E+04 1.30696E+03 8.40042E+04 1.04805E-09-5.94378E-09
 -1       887 2.04043E+05 3.62880E+04 2.85468E+03 8.64060E+04-6.87339E-09 8.72615E-09
 -1       888 2.05653E+05 3.40732E+04 5.75223E+03 8.39128E+04-4.54509E-09 7.70160E-09
 -1       889 2.07471E+05 3.98466E+04 1.37416E+04 8.62972E+04-1.24921E-10-4.45834E-09
 -1       890 2.03309E+05 3.68571E+04 2.57370E+04 8.17184E+04-1.14915E-09-7.70706E-09
 -1       891-1.28126E+02-1.16274E+05-1.37438E+03 2.19975E+04 9.11996E-10-2.93107E-09
 -1       892-2.22929E+02-1.16603E+05-1.49457E+03 3.32879E+04-7.75799E-10 1.94723E-09
 -1       893-3.69248E+01-1.16317E+05-2.13517E+03 2.20018E+04-3.28100E-10-2.92312E-09
 -1       894-1.16834E+03-1.17421E+05-4.43293E+03 3.31694E+04-6.78483E-10 1.49521E-09
 -1       895-9.13241E+02-1.15394E+05-7.81161E+03 2.21143E+04-5.12387E-10 4.12047E-09
 -1       956-2.57618E+05-3.70379E+03-9.32531E+03 1.71393E+04-1.25028E-08-3.21120E-09
 -1       957-2.59459E+05-1.24883E+03-4.78725E+03 2.06391E+04-1.84591E-08 6.34736E-09
 -1       958-2.58445E+05-9.88615E+01-2.15678E+03 1.70283E+04-7.86895E-09-1.18121E-09
 -1       959-2.58592E+05-1.62025E+01-1.10163E+03 2.07593E+04-6.36078E-09-4.06612E-09
 -1       960-2.58519E+05 3.18501E+01-5.36976E+02 1.70177E+04-1.07320E-08 2.70575E-11
 -1       961-2.58529E+05 3.02693E+01-2.84725E+02 2.07713E+04-1.38498E-08 1.23873E-09
 -1       962-2.58534E+05 2.81309E+01-1.62629E+02 1.70161E+04-6.57656E-09-4.12751E-09
 -1       963-2.58526E+05 3.14818E+01-1.29911E+02 2.07735E+04-2.65197E-09 2.06251E-09
 -1       964-2.58537E+05 2.99974E+01-1.56912E+02 1.70155E+04-2.05796E-09 7.80699E-09
 -1       965-2.58536E+05 3.43575E+01-2.70472E+02 2.07736E+04-6.77023E-10-3.53361E-09
 -1       966-2.58529E+05 3.73565E+01-5.07325E+02 1.70161E+04-1.03985E-08 2.92425E-09
 -1       967-2.58603E+05-5.52529E+00-1.04033E+03 2.07670E+04-9.62950E-09-2.09559E-09
 -1       968-2.58465E+05-8.22988E+01-2.03578E+03 1.70222E+04-2.76123E-09 4.08608E-09
 -1       969-2.59429E+05-1.16591E+03-4.52002E+03 2.06951E+04 5.45697E-10 6.26596E-09
 -1       970-2.57689E+05-3.48367E+03-8.80398E+03 1.70904E+04-1.13232E-10 3.12048E-09
 -1       971-2.44249E+05-1.28608E+03-7.15603E+03 1.18724E+04-5.24051E-09-2.83771E-09
 -1       972-2.45990E+05-9.21337E+02-3.89721E+03 1.65838E+04-3.32875E-09 7.73025E-09
 -1       973-2.45045E+05-7.46136E+00-1.74501E+03 1.17735E+04-4.76393E-09-6.01290E-10
 -1       974-2.45166E+05-7.16530E+00-9.04024E+02 1.66905E+04-5.43196E-10 5.42354E-09
 -1       975-2.45106E+05 2.57349E+01-4.50794E+02 1.17646E+04-2.94176E-09-4.27644E-09
 -1       976-2.45117E+05 3.00390E+01-2.58206E+02 1.67012E+04-1.06025E-08-6.81996E-09
 -1       977-2.45118E+05 2.53406E+01-1.83994E+02 1.17627E+04-3.27327E-09-2.82728E-09
 -1       978-2.45119E+05 3.40478E+01-2.10706E+02 1.67039E+04 1.06971E-08-6.80870E-10
 -1       979-2.45117E+05 3.09296E+01-3.34545E+02 1.17619E+04 1.30660E-09 8.77662E-11
 -1       980-2.45144E+05 3.60649E+01-6.43462E+02 1.67043E+04-4.73126E-09-2.77225E-09
 -1       981-2.45097E+05 4.69601E+01-1.24490E+03 1.17622E+04-6.65057E-09 1.73287E-09
 -1       982-2.45314E+05-5.57452E+01-2.57243E+03 1.66994E+04-1.33798E-09 2.84944E-09
 -1       983-2.44940E+05-3.24876E+01-4.99781E+03 1.17670E+04 2.98041E-09 3.49883E-09
 -1       984-2.47718E+05-2.66545E+03-1.11918E+04 1.66324E+04-9.55652E-10 1.03663E-08
 -1       985-2.42678E+05-3.68937E+03-2.05517E+04 1.18340E+04 1.66710E-09 3.17959E-09
 -3
    1PSTEP                        11           6           1          
  100CL  106 5.15625E-01         409                     0    6           1
 -4  DISP        4    1
 -5  D1          1    2    1    0
 -5  D2          1    2    2    0
 -5  D3          1    2    3    0
 -5  ALL         1    2    0    0    1ALL
 -1         1 1.63401E-04 0.00000E+00 0.00000E+00
 -1         2 1.46657E-04 9.48470E-31 0.00000E+00
 -1         3 1.45387E-04 5.36686E-27 0.00000E+00
 -1         5 9.82927E-05 6.54686E-28-3.30872E-24
 -1         8 1.38263E-04-8.79305E-07 0.00000E+00
 -1         9 1.34523E-04-2.56683E-07 0.00000E+00
 -1        10 1.34157E-04-1.95096E-06 6.61744E-24
 -1        12 9.79330E-05 5.66267E-07 0.00000E+00
 -1        15 1.08290E-04-9.75376E-07 4.13590E-25
 -1        16 1.12498E-04-4.40847E-07 0.00000E+00
 -1        17 9.85230E-05-4.14668E-06 0.00000E+00
 -1        18 9.57463E-05 3.17875E-06 0.00000E+00
 -1        19 9.68540E-05 1.12951E-06 0.00000E+00
 -1        20 9.69959E-05 1.39071E-05 0.00000E+00
 -1        21 9.64344E-05 2.56757E-05-3.30872E-24
 -1        24 2.10834E-05-5.79167E-06 0.00000E+00
 -1        25 9.50644E-05 3.31204E-06 0.00000E+00
 -1        26 9.60055E-05 1.57021E-06 0.00000E+00
 -1        27 9.44377E-05 1.13779E-05 0.00000E+00
 -1        28 9.39685E-05 2.51956E-05 0.00000E+00
 -1        32 0.00000E+00 0.00000E+00 0.00000E+00
 -1        33 9.39002E-05 2.10334E-06 0.00000E+00
 -1        34 9.23800E-05 1.13544E-05 0.00000E+00
 -1        35 9.09421E-05 2.49410E-05 0.00000E+00
 -1        51 1.61768E-04-1.45636E-07 0.00000E+00
 -1        52 1.58741E-04-2.86029E-07 0.00000E+00
 -1        53 1.54592E-04-4.27754E-07 0.00000E+00
 -1        54 1.49605E-04-5.72427E-07-3.30872E-24
 -1        55 1.44067E-04-7.20879E-07-4.13590E-25
 -1        56 1.61959E-04-8.20078E-07 0.00000E+00
 -1        57 1.60630E-04-2.10510E-06-2.64698E-23
 -1        58 1.59424E-04-3.71159E-06 0.00000E+00
 -1        59 1.58280E-04-5.50982E-06 2.64698E-23
 -1        60 1.57150E-04-7.34783E-06 0.00000E+00
 -1        61 1.55977E-04-9.07609E-06 0.00000E+00
 -1        62 1.54710E-04-1.05526E-05 0.00000E+00
 -1        63 1.53299E-04-1.16453E-05 0.00000E+00
 -1        64 1.51705E-04-1.22509E-05 0.00000E+00
 -1        65 1.49897E-04-1.22844E-05 2.64698E-23
 -1        66 1.47858E-04-1.17037E-05 0.00000E+00
 -1        67 1.45583E-04-1.04894E-05 0.00000E+00
 -1        68 1.43079E-04-8.67048E-06 0.00000E+00
 -1        69 1.40374E-04-6.29519E-06 0.00000E+00
 -1        70 1.37492E-04-3.46014E-06-2.64698E-23
 -1        86 1.46311E-04-3.54944E-08-1.65436E-24
 -1        87 1.45273E-04-7.19817E-08 0.00000E+00
 -1        88 1.43556E-04-1.09443E-07 0.00000E+00
 -1        89 1.41175E-04-1.51566E-07 0.00000E+00
 -1        90 1.38155E-04-1.94209E-07 6.61744E-24
 -1       121 1.45073E-04-3.22854E-07 6.61744E-24
 -1       122 1.44132E-04-6.46093E-07 3.30872E-24
 -1       123 1.42566E-04-9.70097E-07 6.61744E-24
 -1       124 1.40378E-04-1.29529E-06 3.30872E-24
 -1       125 1.37573E-04-1.62195E-06 0.00000E+00
 -1       191 9.82827E-05 9.43834E-08 3.30872E-24
 -1       192 9.82527E-05 1.88765E-07 1.65436E-24
 -1       193 9.82028E-05 2.83147E-07 0.00000E+00
 -1       194 9.81329E-05 3.77526E-07 0.00000E+00
 -1       195 9.80429E-05 4.71900E-07 3.30872E-24
 -1       251 1.38019E-04 3.51117E-06-6.61744E-24
 -1       252 1.37784E-04 6.68372E-06 3.30872E-24
 -1       253 1.37551E-04 8.61507E-06-6.61744E-24
 -1       254 1.37321E-04 9.29351E-06 3.30872E-24
 -1       255 1.37091E-04 8.85192E-06 0.00000E+00
 -1       256 1.36860E-04 7.43369E-06 3.30872E-24
 -1       257 1.36629E-04 5.29487E-06-6.61744E-24
 -1       258 1.36396E-04 2.69828E-06 3.30872E-24
 -1       259 1.36162E-04-4.05259E-08 6.61744E-24
 -1       260 1.35929E-04-2.60459E-06 0.00000E+00
 -1       261 1.35698E-04-4.69710E-06 0.00000E+00
 -1       262 1.35467E-04-6.02575E-06 0.00000E+00
 -1       263 1.35236E-04-6.38630E-06 0.00000E+00
 -1       264 1.35004E-04-5.58362E-06-3.30872E-24
 -1       265 1.34770E-04-3.55687E-06 0.00000E+00
 -1       266 1.33268E-04-9.07403E-07 6.61744E-24
 -1       267 1.28272E-04-9.21942E-07 1.65436E-24
 -1       268 1.23277E-04-9.37339E-07 0.00000E+00
 -1       269 1.18281E-04-9.50193E-07 4.13590E-25
 -1       270 1.13285E-04-9.62986E-07-4.13590E-25
 -1       271 1.35256E-04 2.98721E-06 0.00000E+00
 -1       272 1.32641E-04 5.68115E-06 0.00000E+00
 -1       273 1.30429E-04 7.31528E-06 0.00000E+00
 -1       274 1.28567E-04 8.00100E-06 2.64698E-23
 -1       275 1.27009E-04 7.87288E-06 0.00000E+00
 -1       276 1.25701E-04 7.07737E-06-2.64698E-23
 -1       277 1.24583E-04 5.77404E-06 0.00000E+00
 -1       278 1.23591E-04 4.13119E-06 0.00000E+00
 -1       279 1.22661E-04 2.32353E-06 5.29396E-23
 -1       280 1.21726E-04 5.28734E-07 0.00000E+00
 -1       281 1.20721E-04-1.07588E-06 5.29396E-23
 -1       282 1.19579E-04-2.31623E-06-2.64698E-23
 -1       283 1.18240E-04-3.02534E-06 5.29396E-23
 -1       284 1.16647E-04-3.04399E-06 1.32349E-23
 -1       285 1.14739E-04-2.22953E-06 2.64698E-23
 -1       301 1.30509E-04-2.99446E-07 0.00000E+00
 -1       302 1.26540E-04-3.22238E-07 0.00000E+00
 -1       303 1.22686E-04-3.43712E-07 0.00000E+00
 -1       304 1.19015E-04-3.65619E-07-3.30872E-24
 -1       305 1.15597E-04-3.88894E-07 0.00000E+00
 -1       306 1.31650E-04 1.39212E-06-5.29396E-23
 -1       307 1.29878E-04-8.24319E-08 0.00000E+00
 -1       308 1.29148E-04-4.34147E-06 5.29396E-23
 -1       309 1.29258E-04-1.09064E-05 0.00000E+00
 -1       310 1.29877E-04-1.88544E-05 0.00000E+00
 -1       311 1.30634E-04-2.71824E-05 0.00000E+00
 -1       312 1.31134E-04-3.48140E-05 5.29396E-23
 -1       313 1.30996E-04-4.07164E-05 0.00000E+00
 -1       314 1.29956E-04-4.41842E-05-5.29396E-23
 -1       315 1.27798E-04-4.46602E-05 2.64698E-23
 -1       316 1.24517E-04-4.21538E-05 5.29396E-23
 -1       317 1.20175E-04-3.68532E-05 0.00000E+00
 -1       318 1.15039E-04-2.94736E-05 0.00000E+00
 -1       319 1.09439E-04-2.08484E-05 0.00000E+00
 -1       320 1.03768E-04-1.20559E-05 0.00000E+00
 -1       336 1.30058E-04-2.30795E-06 6.61744E-24
 -1       337 1.25203E-04-2.66866E-06 0.00000E+00
 -1       338 1.19606E-04-3.03298E-06 0.00000E+00
 -1       339 1.13281E-04-3.40093E-06-3.30872E-24
 -1       340 1.06247E-04-3.77347E-06 0.00000E+00
 -1       406 9.78031E-05 6.60620E-07-3.30872E-24
 -1       407 9.76532E-05 7.54941E-07 1.65436E-24
 -1       408 9.74833E-05 8.49201E-07 3.30872E-24
 -1       409 9.72934E-05 9.43285E-07 0.00000E+00
 -1       410 9.70836E-05 1.03701E-06-3.30872E-24
 -1       521 1.14973E-04-1.63576E-05 0.00000E+00
 -1       522 1.29012E-04-6.65007E-05 0.00000E+00
 -1       523 1.51140E-04-1.42581E-04 0.00000E+00
 -1       524 1.77671E-04-2.33994E-04 5.29396E-23
 -1       525 2.04567E-04-3.26698E-04 0.00000E+00
 -1       526 2.27783E-04-4.06537E-04 0.00000E+00
 -1       527 2.43590E-04-4.62250E-04 0.00000E+00
 -1       528 2.48291E-04-4.84751E-04 0.00000E+00
 -1       529 2.39971E-04-4.72165E-04-1.05879E-22
 -1       530 2.17732E-04-4.25566E-04 0.00000E+00
 -1       531 1.84045E-04-3.53031E-04 0.00000E+00
 -1       532 1.42885E-04-2.64540E-04-5.29396E-23
 -1       533 1.00383E-04-1.73233E-04 0.00000E+00
 -1       534 6.28894E-05-9.24225E-05 5.29396E-23
 -1       535 3.52591E-05-3.33889E-05-5.29396E-23
 -1       536 9.83512E-05 5.65663E-06 6.61744E-24
 -1       537 9.81466E-05 1.89165E-05 1.65436E-24
 -1       538 9.79188E-05 3.38935E-05 0.00000E+00
 -1       539 9.76925E-05 4.88400E-05-1.65436E-24
 -1       540 9.74896E-05 6.20141E-05 3.30872E-24
 -1       541 9.73254E-05 7.16833E-05-1.65436E-24
 -1       542 9.71920E-05 7.69615E-05-3.30872E-24
 -1       543 9.70720E-05 7.69857E-05 0.00000E+00
 -1       544 9.69413E-05 7.21561E-05 3.30872E-24
 -1       545 9.67806E-05 6.28984E-05-1.65436E-24
 -1       546 9.65905E-05 5.07055E-05-3.30872E-24
 -1       547 9.63829E-05 3.70860E-05 0.00000E+00
 -1       548 9.61808E-05 2.38936E-05 0.00000E+00
 -1       549 9.60062E-05 1.29801E-05-1.65436E-24
 -1       550 9.58618E-05 5.64772E-06 0.00000E+00
 -1       551 8.83860E-05-4.38736E-06-6.61744E-24
 -1       552 7.62161E-05-4.64515E-06-1.65436E-24
 -1       553 6.27021E-05-4.91847E-06 3.30872E-24
 -1       554 4.85433E-05-5.20230E-06 6.61744E-24
 -1       555 3.44389E-05-5.48809E-06 0.00000E+00
 -1       556 9.58256E-05 2.83478E-06-2.64698E-23
 -1       557 9.37359E-05 8.25578E-06 0.00000E+00
 -1       558 9.21886E-05 1.22548E-05 0.00000E+00
 -1       559 9.11247E-05 1.49817E-05 0.00000E+00
 -1       560 9.04851E-05 1.65860E-05 0.00000E+00
 -1       561 9.02118E-05 1.72184E-05 0.00000E+00
 -1       562 9.02471E-05 1.70295E-05 0.00000E+00
 -1       563 9.05336E-05 1.61704E-05 0.00000E+00
 -1       564 9.10144E-05 1.47921E-05 0.00000E+00
 -1       565 9.16327E-05 1.30458E-05 0.00000E+00
 -1       566 9.23318E-05 1.10830E-05 0.00000E+00
 -1       567 9.30554E-05 9.05489E-06 1.03398E-25
 -1       568 9.37468E-05 7.11286E-06 0.00000E+00
 -1       569 9.43496E-05 5.40810E-06 0.00000E+00
 -1       570 9.48073E-05 4.09182E-06 0.00000E+00
 -1       571 9.58135E-05 3.07966E-06 1.65436E-24
 -1       572 9.58822E-05 2.93565E-06 2.06795E-25
 -1       573 9.59514E-05 2.75510E-06 0.00000E+00
 -1       574 9.60207E-05 2.54685E-06 0.00000E+00
 -1       575 9.60901E-05 2.31975E-06 0.00000E+00
 -1       576 9.61596E-05 2.08274E-06 8.27181E-25
 -1       577 9.62291E-05 1.84473E-06 0.00000E+00
 -1       578 9.62985E-05 1.61466E-06 0.00000E+00
 -1       579 9.63680E-05 1.40146E-06 0.00000E+00
 -1       580 9.64375E-05 1.21407E-06 0.00000E+00
 -1       581 9.65070E-05 1.06141E-06 0.00000E+00
 -1       582 9.65765E-05 9.52416E-07 0.00000E+00
 -1       583 9.66459E-05 8.95998E-07 6.61744E-24
 -1       584 9.67154E-05 9.00980E-07 0.00000E+00
 -1       585 9.67848E-05 9.76127E-07 0.00000E+00
 -1       586 9.55998E-05 3.20234E-06 0.00000E+00
 -1       587 9.54261E-05 3.22539E-06 2.06795E-25
 -1       588 9.52553E-05 3.24818E-06 0.00000E+00
 -1       589 9.51180E-05 3.27061E-06 0.00000E+00
 -1       590 9.50445E-05 3.29239E-06 0.00000E+00
 -1       591 9.57501E-05 3.11860E-06-5.16988E-26
 -1       592 9.57639E-05 3.02458E-06 0.00000E+00
 -1       593 9.57877E-05 2.90332E-06 0.00000E+00
 -1       594 9.58192E-05 2.76079E-06 4.13590E-25
 -1       595 9.58563E-05 2.60301E-06 8.27181E-25
 -1       596 9.58968E-05 2.43595E-06 4.13590E-25
 -1       597 9.59386E-05 2.26559E-06-4.13590E-25
 -1       598 9.59793E-05 2.09791E-06 0.00000E+00
 -1       599 9.60168E-05 1.93886E-06 4.13590E-25
 -1       600 9.60489E-05 1.79444E-06 0.00000E+00
 -1       601 9.60732E-05 1.67059E-06 0.00000E+00
 -1       602 9.60877E-05 1.57331E-06 1.03398E-25
 -1       603 9.60900E-05 1.50856E-06-2.06795E-25
 -1       604 9.60782E-05 1.48238E-06 5.16988E-26
 -1       605 9.60499E-05 1.50070E-06 0.00000E+00
 -1       606 9.68665E-05 1.44026E-06-3.30872E-24
 -1       607 9.68764E-05 1.84471E-06 0.00000E+00
 -1       608 9.68857E-05 2.33735E-06 0.00000E+00
 -1       609 9.68946E-05 2.91199E-06-1.65436E-24
 -1       610 9.69034E-05 3.56239E-06 0.00000E+00
 -1       611 9.69121E-05 4.28222E-06 0.00000E+00
 -1       612 9.69207E-05 5.06517E-06 0.00000E+00
 -1       613 9.69293E-05 5.90491E-06 0.00000E+00
 -1       614 9.69378E-05 6.79510E-06 0.00000E+00
 -1       615 9.69463E-05 7.72940E-06 0.00000E+00
 -1       616 9.69547E-05 8.70150E-06 0.00000E+00
 -1       617 9.69631E-05 9.70504E-06 0.00000E+00
 -1       618 9.69715E-05 1.07337E-05 0.00000E+00
 -1       619 9.69798E-05 1.17812E-05 0.00000E+00
 -1       620 9.69880E-05 1.28411E-05 0.00000E+00
 -1       621 9.66450E-05 1.20304E-06 0.00000E+00
 -1       622 9.64733E-05 1.27690E-06 0.00000E+00
 -1       623 9.63315E-05 1.35075E-06 0.00000E+00
 -1       624 9.62114E-05 1.42447E-06 8.27181E-25
 -1       625 9.61054E-05 1.49806E-06 0.00000E+00
 -1       626 9.68173E-05 1.46415E-06 0.00000E+00
 -1       627 9.67523E-05 1.87571E-06 0.00000E+00
 -1       628 9.66613E-05 2.35686E-06 3.30872E-24
 -1       629 9.65472E-05 2.89979E-06 4.96308E-24
 -1       630 9.64129E-05 3.49670E-06 0.00000E+00
 -1       631 9.62612E-05 4.13974E-06 0.00000E+00
 -1       632 9.60952E-05 4.82103E-06 3.30872E-24
 -1       633 9.59177E-05 5.53274E-06 0.00000E+00
 -1       634 9.57318E-05 6.26699E-06 0.00000E+00
 -1       635 9.55404E-05 7.01593E-06 0.00000E+00
 -1       636 9.53463E-05 7.77171E-06 1.65436E-24
 -1       637 9.51527E-05 8.52647E-06-8.27181E-25
 -1       638 9.49623E-05 9.27234E-06-1.65436E-24
 -1       639 9.47780E-05 1.00015E-05 0.00000E+00
 -1       640 9.46025E-05 1.07060E-05 0.00000E+00
 -1       656 9.61362E-05 1.34956E-05 0.00000E+00
 -1       657 9.56362E-05 1.30676E-05 3.30872E-24
 -1       658 9.53619E-05 1.26410E-05 0.00000E+00
 -1       659 9.51749E-05 1.22148E-05 0.00000E+00
 -1       660 9.49186E-05 1.17871E-05 6.61744E-24
 -1       661 9.66785E-05 1.49464E-05 8.27181E-25
 -1       662 9.63849E-05 1.59306E-05 8.27181E-25
 -1       663 9.61112E-05 1.68613E-05 1.65436E-24
 -1       664 9.58570E-05 1.77417E-05 8.27181E-25
 -1       665 9.56208E-05 1.85740E-05 0.00000E+00
 -1       666 9.54019E-05 1.93608E-05 0.00000E+00
 -1       667 9.51992E-05 2.01044E-05-1.65436E-24
 -1       668 9.50119E-05 2.08071E-05 0.00000E+00
 -1       669 9.48391E-05 2.14711E-05 1.65436E-24
 -1       670 9.46801E-05 2.20984E-05-8.27181E-25
 -1       671 9.45341E-05 2.26911E-05 0.00000E+00
 -1       672 9.44003E-05 2.32509E-05 0.00000E+00
 -1       673 9.42781E-05 2.37798E-05 0.00000E+00
 -1       674 9.41661E-05 2.42792E-05 0.00000E+00
 -1       675 9.40646E-05 2.47511E-05 0.00000E+00
 -1       676 9.60223E-05 2.55952E-05 3.30872E-24
 -1       677 9.56104E-05 2.55148E-05 0.00000E+00
 -1       678 9.51989E-05 2.54343E-05 0.00000E+00
 -1       679 9.47879E-05 2.53542E-05-8.27181E-25
 -1       680 9.43777E-05 2.52740E-05 1.65436E-24
 -1       771 1.59500E-05 4.64102E-06 5.29396E-23
 -1       772 1.15312E-05 1.31926E-05-2.64698E-23
 -1       773 7.79538E-06 1.99635E-05 0.00000E+00
 -1       774 4.69713E-06 2.50627E-05-5.29396E-23
 -1       775 2.19180E-06 2.86021E-05-5.29396E-23
 -1       776 2.32763E-07 3.06985E-05 2.64698E-23
 -1       777-1.22708E-06 3.14713E-05 5.29396E-23
 -1       778-2.23592E-06 3.10439E-05 2.64698E-23
 -1       779-2.84222E-06 2.95420E-05-5.29396E-23
 -1       780-3.09538E-06 2.70943E-05 0.00000E+00
 -1       781-3.04489E-06 2.38317E-05-2.64698E-23
 -1       782-2.74096E-06 1.98872E-05-1.32349E-23
 -1       783-2.23384E-06 1.53952E-05 2.64698E-23
 -1       784-1.57424E-06 1.04919E-05 1.32349E-23
 -1       785-8.12905E-07 5.31422E-06-2.64698E-23
 -1       786 9.51196E-05 3.09208E-06 4.13590E-25
 -1       787 9.51782E-05 2.88978E-06 0.00000E+00
 -1       788 9.52366E-05 2.70228E-06 0.00000E+00
 -1       789 9.52957E-05 2.52676E-06-8.27181E-25
 -1       790 9.53548E-05 2.36205E-06 0.00000E+00
 -1       791 9.54140E-05 2.20699E-06-8.27181E-25
 -1       792 9.54733E-05 2.06174E-06 0.00000E+00
 -1       793 9.55325E-05 1.92651E-06-8.27181E-25
 -1       794 9.55918E-05 1.80284E-06-1.65436E-24
 -1       795 9.56511E-05 1.69234E-06 0.00000E+00
 -1       796 9.57104E-05 1.59839E-06 0.00000E+00
 -1       797 9.57696E-05 1.52442E-06 0.00000E+00
 -1       798 9.58289E-05 1.47661E-06-1.65436E-24
 -1       799 9.58880E-05 1.46117E-06-8.27181E-25
 -1       800 9.59471E-05 1.48878E-06 0.00000E+00
 -1       801 8.86041E-05 2.91458E-06 6.61744E-24
 -1       802 6.88325E-05 2.33457E-06-6.61744E-24
 -1       803 4.30701E-05 1.63192E-06 0.00000E+00
 -1       804 1.87443E-05 9.56308E-07-6.61744E-24
 -1       805 2.28712E-06 4.27570E-07-2.64698E-23
 -1       806 9.50671E-05 3.04542E-06 1.65436E-24
 -1       807 9.50636E-05 2.78667E-06 0.00000E+00
 -1       808 9.50548E-05 2.54025E-06-3.30872E-24
 -1       809 9.50398E-05 2.30983E-06 0.00000E+00
 -1       810 9.50172E-05 2.09909E-06-1.65436E-24
 -1       811 9.49859E-05 1.91161E-06 0.00000E+00
 -1       812 9.49445E-05 1.75099E-06 1.65436E-24
 -1       813 9.48917E-05 1.62081E-06-8.27181E-25
 -1       814 9.48261E-05 1.52464E-06 0.00000E+00
 -1       815 9.47465E-05 1.46606E-06 8.27181E-25
 -1       816 9.46514E-05 1.44863E-06 1.65436E-24
 -1       817 9.45395E-05 1.47592E-06 8.27181E-25
 -1       818 9.44096E-05 1.55150E-06-1.65436E-24
 -1       819 9.42604E-05 1.67891E-06-1.65436E-24
 -1       820 9.40907E-05 1.86170E-06 0.00000E+00
 -1       821 9.59132E-05 1.65459E-06 0.00000E+00
 -1       822 9.58152E-05 1.69209E-06 8.27181E-25
 -1       823 9.57176E-05 1.74023E-06 3.30872E-24
 -1       824 9.56190E-05 1.85646E-06 1.65436E-24
 -1       825 9.55202E-05 2.08438E-06 3.30872E-24
 -1       826 9.54213E-05 2.46705E-06 0.00000E+00
 -1       827 9.53222E-05 3.01605E-06 0.00000E+00
 -1       828 9.52230E-05 3.74220E-06 1.65436E-24
 -1       829 9.51236E-05 4.62025E-06-3.30872E-24
 -1       830 9.50242E-05 5.62428E-06 0.00000E+00
 -1       831 9.49247E-05 6.70272E-06-3.30872E-24
 -1       832 9.48255E-05 7.80365E-06 0.00000E+00
 -1       833 9.47263E-05 8.87058E-06 3.30872E-24
 -1       834 9.46283E-05 9.84718E-06 0.00000E+00
 -1       835 9.45300E-05 1.06954E-05 0.00000E+00
 -1       836 9.58057E-05 1.65896E-06 1.65436E-24
 -1       837 9.54930E-05 1.74968E-06 0.00000E+00
 -1       838 9.51067E-05 1.84024E-06 0.00000E+00
 -1       839 9.46863E-05 1.93022E-06 0.00000E+00
 -1       840 9.42710E-05 2.02005E-06 0.00000E+00
 -1       856 9.44118E-05 1.20344E-05 0.00000E+00
 -1       857 9.43829E-05 1.27974E-05 0.00000E+00
 -1       858 9.43540E-05 1.36503E-05 8.27181E-25
 -1       859 9.43246E-05 1.45763E-05 0.00000E+00
 -1       860 9.42950E-05 1.55582E-05 8.27181E-25
 -1       861 9.42653E-05 1.65793E-05 4.13590E-25
 -1       862 9.42356E-05 1.76224E-05 0.00000E+00
 -1       863 9.42058E-05 1.86706E-05 0.00000E+00
 -1       864 9.41761E-05 1.97066E-05 8.27181E-25
 -1       865 9.41464E-05 2.07136E-05 4.13590E-25
 -1       866 9.41167E-05 2.16744E-05 0.00000E+00
 -1       867 9.40870E-05 2.25721E-05-4.13590E-25
 -1       868 9.40574E-05 2.33899E-05 0.00000E+00
 -1       869 9.40278E-05 2.41108E-05 0.00000E+00
 -1       870 9.39983E-05 2.47183E-05 0.00000E+00
 -1       871 9.39852E-05 1.13770E-05 0.00000E+00
 -1       872 9.36371E-05 1.13738E-05 0.00000E+00
 -1       873 9.33483E-05 1.13703E-05 0.00000E+00
 -1       874 9.30730E-05 1.13662E-05-1.03398E-25
 -1       875 9.27653E-05 1.13617E-05-2.06795E-25
 -1       876 9.42857E-05 1.20436E-05 0.00000E+00
 -1       877 9.41164E-05 1.27612E-05 0.00000E+00
 -1       878 9.39301E-05 1.35244E-05 0.00000E+00
 -1       879 9.37291E-05 1.43274E-05 0.00000E+00
 -1       880 9.35155E-05 1.51644E-05 0.00000E+00
 -1       881 9.32913E-05 1.60293E-05 0.00000E+00
 -1       882 9.30587E-05 1.69166E-05 0.00000E+00
 -1       883 9.28200E-05 1.78203E-05 1.65436E-24
 -1       884 9.25773E-05 1.87346E-05-3.30872E-24
 -1       885 9.23328E-05 1.96537E-05 0.00000E+00
 -1       886 9.20886E-05 2.05717E-05 0.00000E+00
 -1       887 9.18469E-05 2.14830E-05 0.00000E+00
 -1       888 9.16098E-05 2.23816E-05 0.00000E+00
 -1       889 9.13792E-05 2.32615E-05 8.27181E-25
 -1       890 9.11573E-05 2.41171E-05 8.27181E-25
 -1       891 9.35798E-05 2.51530E-05-1.65436E-24
 -1       892 9.31727E-05 2.51103E-05 0.00000E+00
 -1       893 9.27264E-05 2.50676E-05-8.27181E-25
 -1       894 9.22198E-05 2.50249E-05 2.06795E-25
 -1       895 9.16319E-05 2.49824E-05-4.13590E-25
 -1       956 9.38070E-05 2.46544E-06-1.65436E-24
 -1       957 9.37122E-05 2.88793E-06 8.27181E-25
 -1       958 9.36171E-05 3.36438E-06 1.65436E-24
 -1       959 9.35219E-05 3.88800E-06-1.65436E-24
 -1       960 9.34266E-05 4.45195E-06-3.30872E-24
 -1       961 9.33312E-05 5.04938E-06 0.00000E+00
 -1       962 9.32358E-05 5.67342E-06 0.00000E+00
 -1       963 9.31404E-05 6.31721E-06 0.00000E+00
 -1       964 9.30450E-05 6.97388E-06 3.30872E-24
 -1       965 9.29496E-05 7.63655E-06 1.65436E-24
 -1       966 9.28542E-05 8.29835E-06-3.30872E-24
 -1       967 9.27588E-05 8.95242E-06-1.65436E-24
 -1       968 9.26635E-05 9.59187E-06 3.30872E-24
 -1       969 9.25683E-05 1.02099E-05 1.65436E-24
 -1       970 9.24734E-05 1.07996E-05-3.30872E-24
 -1       971 9.22913E-05 1.19273E-05 0.00000E+00
 -1       972 9.22013E-05 1.25790E-05 0.00000E+00
 -1       973 9.21113E-05 1.33009E-05-1.65436E-24
 -1       974 9.20210E-05 1.40839E-05-1.65436E-24
 -1       975 9.19306E-05 1.49189E-05-3.30872E-24
 -1       976 9.18402E-05 1.57969E-05 0.00000E+00
 -1       977 9.17498E-05 1.67088E-05 3.30872E-24
 -1       978 9.16593E-05 1.76455E-05 0.00000E+00
 -1       979 9.15688E-05 1.85979E-05-3.30872E-24
 -1       980 9.14784E-05 1.95569E-05 0.00000E+00
 -1       981 9.13879E-05 2.05134E-05 0.00000E+00
 -1       982 9.12976E-05 2.14584E-05-1.65436E-24
 -1       983 9.12074E-05 2.23827E-05-6.61744E-24
 -1       984 9.11175E-05 2.32773E-05 0.00000E+00
 -1       985 9.10281E-05 2.41330E-05 0.00000E+00
 -3
    1PSTEP                        12           6           1          
  100CL  106 5.15625E-01         409                     0    6           1
 -4  STRESS      6    1
 -5  SXX         1    4    1    1
 -5  SYY         1    4    2    2
 -5  SZZ         1    4    3    3
 -5  SXY         1    4    1    2
 -5  SYZ         1    4    2    3
 -5  SZX         1    4    3    1
 -1         1-2.04977E+06-8.90216E+05-4.29891E+05-1.17796E+06-1.12777E-10-6.17001E-09
 -1         2 2.63824E+03-9.78385E+04 8.61868E+03-2.94034E+02-1.12863E-10-3.71801E-09
 -1         3-1.71167E+02-9.21744E+05 2.19347E+02-4.58378E+02-2.41240E-10 1.16415E-09
 -1         5-3.54965E+00 2.70060E+05 7.03006E+00 1.13849E-01 6.86915E-11-1.53659E-08
 -1         8-9.76805E+05-3.74016E+05-7.86178E+04-5.62642E+05 2.21917E-10 2.75031E-09
 -1         9-1.91075E+06-5.82021E+05-2.26487E+05-5.91549E+05 4.08909E-09-4.75557E-09
 -1        10-7.93823E+02-9.60266E+05-1.28633E+03-3.10059E+03-4.75666E-09-1.81696E-08
 -1        12-6.67067E-01 2.70074E+05 2.27755E+02 9.31568E-01 1.23961E-10-1.49516E-08
 -1        15 2.00255E+03 1.10052E+03 6.47324E+03 4.32604E+00-8.22808E-11-6.06806E-09
 -1        16-3.08440E+06-1.25255E+06-4.97661E+05-1.31429E+06 1.08897E-08 6.22822E-09
 -1        17-1.13699E+06-6.62035E+05-2.21408E+05-5.98400E+05 2.80124E-09-4.52856E-09
 -1        18-4.75839E+04-1.62975E+04-3.24907E+04-6.81410E+04 3.60103E-09-1.03500E-09
 -1        19 8.51965E+04 1.00522E+05-5.56002E+02 1.66144E+04-4.85124E-10-1.33368E-09
 -1        20-3.83808E+04-4.02581E+05-8.90027E+04 2.81347E+04 3.54354E-09 1.90873E-09
 -1        21-3.74145E+01-2.30229E+05-7.40643E+02-6.50761E+01-2.52952E-09-9.64569E-09
 -1        24-3.18263E+06-8.62501E+05-3.84475E+05-1.17352E+06-1.62545E-08-1.62787E-08
 -1        25-1.91980E+04-2.27650E+05-3.46880E+04-1.16744E+05 2.98587E-10 4.58895E-09
 -1        26-2.31509E+04 6.76761E+04-1.43857E+04-8.20095E+03 1.38898E-09-2.22529E-09
 -1        27-6.28602E+04-2.20356E+05-8.24627E+04 4.96831E+04 5.40543E-09-1.33180E-09
 -1        28 1.77862E+04-6.39201E+04 1.30261E+04 1.98547E+04 2.43108E-09 9.74310E-10
 -1        32-9.64773E+05-6.75307E+05 2.44021E+05-5.68775E+05-2.16751E-08 7.42909E-09
 -1        33-1.26932E+05 6.43563E+04 2.28733E+04-3.55318E+04 8.01170E-10 4.62387E-09
 -1        34-1.63296E+05-1.63983E+04 3.98191E+02 5.07308E+04 1.98273E-09-2.73667E-09
 -1        35-1.80995E+04-2.53968E+04-9.97891E+02 4.01060E+04 4.36770E-09-4.88399E-09
 -1        51 1.84411E+04-3.60104E+05 4.58868E+04-9.57573E+05 7.27596E-11 1.46974E-09
 -1        52 1.04663E+04-3.57654E+05 2.93244E+04-1.11680E+06 6.62112E-10-2.79397E-08
 -1        53 7.13527E+03-3.71486E+05 2.35406E+04-9.54216E+05 4.80213E-10-5.48607E-09
 -1        54 1.99746E+04-3.70139E+05 3.60506E+04-1.12028E+06 1.74623E-10 7.88350E-09
 -1        55 3.93445E+04-3.83681E+05 6.33015E+04-9.53669E+05-1.01863E-10 7.27596E-11
 -1        56-3.92339E+06-4.39871E+05-3.16186E+05-1.51443E+06-1.87720E-09-1.10595E-09
 -1        57-4.05592E+06-7.20858E+05-2.13202E+05-1.49600E+06 1.49157E-10-4.11092E-10
 -1        58-3.98735E+06-5.39699E+05-7.43689E+04-1.49402E+06 9.57698E-10-7.66886E-09
 -1        59-3.98195E+06-6.03630E+05-4.43962E+04-1.52021E+06-3.63116E-10 9.07630E-09
 -1        60-3.99659E+06-5.53715E+05-1.73507E+04-1.49136E+06-7.24413E-10-4.36376E-09
 -1        61-3.97300E+06-5.85387E+05-9.84119E+03-1.52114E+06 3.39980E-09-1.85245E-08
 -1        62-3.99611E+06-5.57527E+05-4.71448E+03-1.49318E+06-1.17734E-09-6.74697E-09
 -1        63-3.97679E+06-5.78000E+05-3.78553E+03-1.51521E+06 3.49360E-10 6.77073E-09
 -1        64-3.99266E+06-5.61121E+05-4.29925E+03-1.49723E+06 6.10044E-10 5.43810E-09
 -1        65-3.98573E+06-5.71689E+05-8.48916E+03-1.50574E+06-2.66289E-09-7.69705E-09
 -1        66-3.98711E+06-5.63930E+05-1.49393E+04-1.50258E+06 1.82604E-09 1.13141E-09
 -1        67-4.00354E+06-5.77058E+05-3.79214E+04-1.49328E+06-1.62527E-09-1.05574E-08
 -1        68-3.97500E+06-5.56121E+05-6.36154E+04-1.50959E+06 3.83898E-09-6.13727E-09
 -1        69-4.07269E+06-6.71568E+05-1.82208E+05-1.46632E+06 2.59934E-09 3.15777E-09
 -1        70-3.91878E+06-4.72225E+05-2.70284E+05-1.52866E+06-5.60249E-10 7.13044E-10
 -1        86-1.32597E+03-1.00709E+05 9.19324E+03 1.46998E+02 1.14505E-09 6.42274E-10
 -1        87 8.77288E+03-9.48937E+04 1.92277E+04-5.71460E+02 1.90312E-09 5.84691E-09
 -1        88-7.43984E+03-1.03654E+05 2.94098E+04 4.24425E+02 2.76850E-09 1.23264E-08
 -1        89 5.54150E+04-7.33147E+04 7.93205E+04-1.01900E+03 4.25916E-09 1.00567E-09
 -1        90-4.78052E+04-1.22270E+05 1.12102E+05 5.95026E+02 4.38013E-09-4.31788E-09
 -1       121-2.55402E+02-9.22431E+05 1.35712E+02 2.28773E+02 4.94396E-10-8.88031E-09
 -1       122-9.71108E+01-9.21706E+05 4.69722E+02-9.16050E+02-1.88592E-09-3.56795E-09
 -1       123-3.02405E+02-9.22484E+05 6.84278E+02 6.84800E+02 1.50209E-09 6.62658E-09
 -1       124 7.72521E+02-9.21205E+05 1.94648E+03-1.99686E+03-3.34921E-09 8.98581E-09
 -1       125-8.52906E+02-9.22974E+05 2.90930E+03 1.30821E+03 2.36105E-09-2.46473E-09
 -1       191-3.96057E+00 2.70083E+05 8.48053E+00-5.72784E-02 1.09657E-10-1.38275E-08
 -1       192-4.19490E+00 2.70060E+05 1.48808E+01 5.53826E-01 1.90280E-10-9.58471E-09
 -1       193-5.67642E+00 2.70083E+05 2.77495E+01-4.99082E-01 1.60982E-10-1.11445E-08
 -1       194-6.27147E+00 2.70062E+05 5.62759E+01 1.33384E+00 7.57963E-11 3.69937E-10
 -1       195-8.97398E+00 2.70081E+05 1.10153E+02-8.42132E-01 3.04567E-10-3.37286E-09
 -1       251-6.62648E+05-1.15553E+04 2.67007E+04-3.50996E+03 1.45519E-11 9.87166E-09
 -1       252-6.48798E+05 1.33492E+04 1.92487E+04-7.34794E+02-6.45173E-11 1.55910E-09
 -1       253-6.58218E+05-1.82558E+03 6.80547E+03-6.63409E+01 7.11111E-10 2.15277E-09
 -1       254-6.54286E+05 2.07778E+03 4.61451E+03-7.31316E+03 1.21477E-09 5.33578E-09
 -1       255-6.57196E+05-3.01078E+02 1.73960E+03 3.06822E+03 1.93666E-10 5.59191E-09
 -1       256-6.55853E+05 3.63525E+02 1.26332E+03-1.24667E+04 9.42833E-10-5.60613E-09
 -1       257-6.56722E+05-6.46013E+01 6.90039E+02 5.08721E+03 2.49884E-10-8.30732E-09
 -1       258-6.56432E+05 2.05802E+02 8.29029E+02-1.48834E+04-1.22247E-09-7.23077E-09
 -1       259-6.56664E+05-1.08550E+02 1.15476E+03 5.48500E+03-1.49015E-10-8.26356E-09
 -1       260-6.55922E+05 7.85420E+02 2.49548E+03-1.39614E+04-7.40542E-10-4.42881E-09
 -1       261-6.57213E+05-6.56963E+02 4.10256E+03 4.16519E+03 4.82544E-10-8.66225E-09
 -1       262-6.53223E+05 4.82650E+03 1.03387E+04-9.93401E+03 1.21719E-09 1.00703E-08
 -1       263-6.59291E+05-4.18777E+03 1.60980E+04 1.45749E+03-1.16358E-09 7.26141E-09
 -1       264-6.40490E+05 3.10747E+04 4.45315E+04-3.86552E+03-2.80477E-09-5.92445E-09
 -1       265-6.69871E+05-2.68564E+04 6.25532E+04-1.90330E+03-1.35378E-09 4.83487E-09
 -1       266-3.62517E+04-1.69486E+04 8.50697E+04-9.25761E+01 6.18456E-11 6.20446E-10
 -1       267 4.20269E+04 1.97581E+04 6.01195E+04 1.06799E+02 1.02773E-10-2.07969E-09
 -1       268-5.63568E+03-2.79807E+03 2.23465E+04-1.36089E+01 9.09495E-13 7.77797E-09
 -1       269 6.65415E+03 3.34895E+03 1.45245E+04 1.58514E+01-4.45652E-11 1.39980E-08
 -1       270-9.98795E+02-5.50248E+02 7.01120E+03-2.15119E+00 4.91127E-11 1.26540E-08
 -1       271-3.45753E+06-4.32626E+05-2.63862E+05-1.34760E+06 4.00178E-10-4.46744E-09
 -1       272-3.54431E+06-6.32829E+05-1.69630E+05-1.35386E+06-1.40199E-09 1.63709E-09
 -1       273-3.50866E+06-4.96895E+05-6.23388E+04-1.33414E+06-1.16916E-09 4.96220E-09
 -1       274-3.48383E+06-5.54750E+05-3.48507E+04-1.37500E+06 7.60338E-10 9.37416E-09
 -1       275-3.51731E+06-5.01861E+05-1.45162E+04-1.33008E+06 1.48157E-09 1.54605E-08
 -1       276-3.47316E+06-5.49452E+05-7.68021E+03-1.38185E+06-2.56114E-09 1.47907E-09
 -1       277-3.51981E+06-5.00923E+05-3.77147E+03-1.32805E+06 1.23555E-09 9.03128E-09
 -1       278-3.47042E+06-5.50648E+05-2.71784E+03-1.38481E+06 2.31466E-10 2.40314E-09
 -1       279-3.52041E+06-5.00353E+05-2.90011E+03-1.32742E+06-1.22344E-09 3.09274E-09
 -1       280-3.47097E+06-5.51180E+05-5.31860E+03-1.38464E+06-8.03084E-10 6.85304E-09
 -1       281-3.51926E+06-5.00446E+05-9.70029E+03-1.32820E+06-4.00178E-11 9.83346E-09
 -1       282-3.47755E+06-5.55223E+05-2.32199E+04-1.38071E+06-4.88399E-10 2.70302E-09
 -1       283-3.51355E+06-4.97133E+05-4.14210E+04-1.33086E+06 1.19599E-10-1.33878E-09
 -1       284-3.51796E+06-6.06752E+05-1.12740E+05-1.36610E+06 8.87326E-11-1.06593E-08
 -1       285-3.47916E+06-4.54924E+05-1.75421E+05-1.34029E+06 2.31194E-09-1.11468E-08
 -1       301 1.88487E+04-4.07945E+04 1.40166E+05-8.23753E+04-7.45786E-10 9.63792E-09
 -1       302 1.99624E+04-5.32891E+03 9.51431E+04-1.21218E+05 1.30603E-09 1.25606E-08
 -1       303 1.06389E+03-2.72396E+04 7.82326E+04-8.24983E+04-6.60293E-10 3.48336E-09
 -1       304 2.79088E+04 2.46140E+03 1.21478E+05-1.20792E+05 1.22964E-09 7.05404E-09
 -1       305 2.71465E+04-4.78211E+04 1.98422E+05-8.28131E+04-6.03904E-10 7.38692E-09
 -1       306-5.03056E+06-5.73693E+05-3.78741E+05-1.95084E+06 2.09548E-09-8.96398E-09
 -1       307-5.17610E+06-9.32219E+05-2.56582E+05-1.92982E+06-2.85308E-09 4.35830E-09
 -1       308-5.13691E+06-6.68368E+05-8.92185E+04-1.88907E+06-4.13820E-10 7.22866E-09
 -1       309-5.04516E+06-8.31950E+05-5.35189E+04-2.01611E+06 3.38878E-09 4.96948E-09
 -1       310-5.16241E+06-6.70503E+05-2.06562E+04-1.86645E+06-1.55887E-09-1.92267E-09
 -1       311-5.02521E+06-8.18036E+05-1.18996E+04-2.02975E+06 8.49582E-09-2.45711E-09
 -1       312-5.15710E+06-6.81658E+05-6.20444E+03-1.87580E+06-1.07093E-09 3.45392E-09
 -1       313-5.05499E+06-7.78838E+05-4.33560E+03-1.98550E+06-7.50288E-09 1.10049E-09
 -1       314-5.13094E+06-7.10838E+05-7.54149E+03-1.90948E+06-1.95450E-09-1.84209E-08
 -1       315-5.11802E+06-7.18325E+05-1.22569E+04-1.91059E+06-5.76256E-09-5.15547E-09
 -1       316-5.09319E+06-7.42848E+05-2.46168E+04-1.95002E+06-1.48430E-09-8.75843E-09
 -1       317-5.19782E+06-6.83172E+05-6.09845E+04-1.84006E+06 1.06312E-08-1.95814E-09
 -1       318-5.05277E+06-7.45370E+05-1.01569E+05-1.98099E+06-1.01372E-08 1.54614E-08
 -1       319-5.32916E+06-8.26924E+05-2.95226E+05-1.78019E+06-7.29051E-09-2.12458E-09
 -1       320-4.96413E+06-6.00686E+05-4.32309E+05-2.01019E+06 1.28202E-08-8.09086E-09
 -1       336 5.54760E+02-9.98584E+05-5.52625E+03 1.78571E+03-9.24911E-09 3.97813E-09
 -1       337-2.03295E+03-9.99717E+05-6.08408E+03-4.44196E+03-1.73386E-08-7.80710E-09
 -1       338 3.64098E+02-9.98720E+05-7.90520E+03 2.64289E+03-1.25310E-08 6.25732E-09
 -1       339-8.16893E+03-1.00361E+06-1.72683E+04-6.12398E+03-2.20575E-08 1.43855E-08
 -1       340 5.43969E+03-9.94866E+05-2.67392E+04 3.45426E+03-1.49666E-08 1.54996E-08
 -1       406 1.68035E+01 2.70071E+05 4.49722E+02-1.00279E-01 4.31157E-10-1.15378E-08
 -1       407 1.56096E+02 2.70153E+05 9.55644E+02-5.68665E+00 9.14042E-11-7.77436E-09
 -1       408 4.91308E+02 2.70002E+05 1.90871E+03 5.91503E+00 4.01997E-10 2.71575E-09
 -1       409 2.06306E+03 2.70763E+05 4.29686E+03-5.77496E+01-6.45741E-11-2.61662E-09
 -1       410 5.92871E+03 2.69459E+05 8.77193E+03 5.41999E+01 4.27463E-10-1.34639E-08
 -1       521-7.93913E+06-7.66375E+05-7.13511E+05-2.59947E+06-4.19095E-09 1.23400E-08
 -1       522-6.11920E+06-1.99826E+06-2.56001E+05-3.73462E+06-7.81329E-08-1.58543E-08
 -1       523-8.04954E+06-4.42966E+05-1.48283E+05-1.98937E+06-1.13505E-09-4.05998E-08
 -1       524-6.25334E+06-2.13564E+06-4.91781E+04-4.53522E+06 8.71941E-08-1.00486E-07
 -1       525-8.05484E+06-4.41579E+05-3.76404E+04-1.95534E+06 6.00849E-08-5.54601E-08
 -1       526-6.01154E+06-1.83869E+06 8.34887E+04-3.89250E+06 8.69841E-09-7.98536E-09
 -1       527-8.07313E+06-8.99032E+05-1.47201E+05-2.49880E+06 8.51287E-09 6.00994E-09
 -1       528-6.27514E+06-9.72965E+05 1.81354E+05-2.49816E+06 2.13040E-08 4.37467E-09
 -1       529-7.55389E+06-1.47435E+06-1.62658E+05-3.15729E+06-5.77711E-09 1.68729E-08
 -1       530-7.79489E+06 7.53479E+04 1.03308E+05-1.62397E+06-6.60693E-08 8.34789E-08
 -1       531-6.75873E+06-1.79698E+06-5.29052E+04-3.50119E+06-1.08099E-07-1.09139E-09
 -1       532-8.94596E+06 5.65640E+05-4.49544E+04-1.45782E+06 4.94720E-08-7.04822E-08
 -1       533-6.63757E+06-1.80356E+06-1.27780E+05-3.53377E+06 3.39496E-08-1.18405E-07
 -1       534-8.27512E+06 4.44594E+04-2.59143E+05-1.51276E+06-3.05699E-08 8.93760E-08
 -1       535-7.26765E+06-1.39106E+06-6.72845E+05-3.29478E+06-9.22591E-09 5.88770E-08
 -1       536-3.52034E+05-1.50254E+04 3.17229E+04-8.80225E+03-2.26146E-09 3.05408E-09
 -1       537-3.26790E+05 1.72231E+04 2.44576E+04 1.95159E+04-2.65580E-08 1.24978E-08
 -1       538-3.40381E+05-2.05985E+03 8.61050E+03-1.14648E+04 3.51218E-09 1.66015E-08
 -1       539-3.33307E+05 2.68087E+03 6.31680E+03 1.94496E+04 2.18166E-08 1.35952E-08
 -1       540-3.45517E+05-4.96718E+02 9.93348E+02-8.73574E+03 1.12095E-09 2.12231E-08
 -1       541-3.20380E+05 1.00955E+03 4.98080E+03 9.76056E+03-1.66668E-09 1.86267E-08
 -1       542-3.52944E+05-6.85035E+02-2.30445E+03-1.77175E+03-6.34373E-10 1.63433E-09
 -1       543-3.16861E+05 7.39494E+02 4.50628E+03-4.96708E+03-3.31784E-09 2.58495E-09
 -1       544-3.48941E+05-3.06897E+02-2.38511E+03 5.98731E+03-5.40717E-09-2.97138E-09
 -1       545-3.30070E+05-3.02054E+02 5.12375E+02-1.73219E+04-6.06701E-09-5.27652E-09
 -1       546-3.40073E+05 6.29596E+02-2.61422E+03 1.05830E+04 4.07150E-09-7.71172E-09
 -1       547-3.38592E+05-3.09129E+03-5.80670E+03-2.12588E+04-2.04004E-08-1.50151E-08
 -1       548-3.40609E+05 2.63624E+03-1.04499E+04 9.92719E+03-1.90898E-08-1.61936E-08
 -1       549-3.34850E+05-1.81833E+04-2.44646E+04-1.49040E+04-1.15381E-08-1.19435E-08
 -1       550-3.43533E+05 1.54783E+04-4.11831E+04 4.22426E+03 2.33513E-10-4.41287E-09
 -1       551 1.32425E+04-5.28291E+05 2.22366E+04-8.76217E+05 1.37443E-08-1.01718E-08
 -1       552 3.24190E+04-5.37539E+05 3.02964E+04-1.26450E+06 3.19851E-08 1.08776E-08
 -1       553 2.26546E+04-5.43401E+05 4.56933E+04-8.72945E+05 1.71713E-08 3.36877E-09
 -1       554 5.84597E+04-5.30944E+05 9.67207E+04-1.26583E+06 3.50701E-08 1.14494E-09
 -1       555 4.82359E+04-5.62050E+05 1.71690E+05-8.73884E+05 1.67493E-08-8.49832E-09
 -1       556 8.79399E+04-1.64530E+05 5.65949E+04-2.10527E+05-7.98173E-09-5.77711E-09
 -1       557 1.55150E+05-2.19233E+05 2.98701E+04-2.64436E+05 6.69388E-10 4.31555E-09
 -1       558 8.69002E+04-1.71640E+05 1.18587E+04-2.04502E+05-4.46744E-09 4.33283E-09
 -1       559 1.44815E+05-2.26630E+05 6.08908E+03-2.69247E+05 5.79166E-09 9.45874E-09
 -1       560 8.41819E+04-1.69866E+05 2.39114E+03-2.06280E+05-2.57569E-09 1.04756E-08
 -1       561 1.40808E+05-2.25455E+05 1.32268E+03-2.71799E+05-1.54250E-09 1.29357E-08
 -1       562 8.20119E+04-1.68439E+05 4.41272E+02-2.07841E+05-4.80213E-10 1.06402E-08
 -1       563 1.38258E+05-2.24354E+05 3.22897E+02-2.73431E+05 1.86628E-09 3.19704E-09
 -1       564 8.06188E+04-1.67549E+05 1.01204E+02-2.08828E+05 3.86353E-09 1.94718E-08
 -1       565 1.36856E+05-2.23749E+05 9.76889E+01-2.74316E+05-5.15138E-09 9.24501E-10
 -1       566 8.00431E+04-1.67175E+05 1.19341E+01-2.09238E+05-8.91123E-09-1.03846E-08
 -1       567 1.36557E+05-2.23608E+05-6.01960E+01-2.74431E+05 8.92430E-09-1.57706E-09
 -1       568 8.03214E+04-1.67359E+05-2.68635E+02-2.09115E+05 1.88084E-09-2.65936E-09
 -1       569 1.36654E+05-2.23472E+05-6.38086E+02-2.73117E+05 8.88394E-09 9.57880E-09
 -1       570 8.20418E+04-1.68810E+05-1.47338E+03-2.08990E+05 7.77072E-09-4.96948E-09
 -1       571 1.98135E+05 7.29323E+03 1.07839E+04-5.12476E+04 1.12186E-09 6.86259E-09
 -1       572 1.99736E+05 2.54969E+03 5.28358E+03-5.61863E+04-1.43427E-09-8.61883E-09
 -1       573 1.98776E+05 6.20923E+02 2.34723E+03-5.11196E+04-1.06820E-09-3.97768E-09
 -1       574 1.98963E+05 2.16661E+02 1.17614E+03-5.63306E+04-1.40813E-09 4.31055E-09
 -1       575 1.98846E+05 4.57284E+01 5.54419E+02-5.11027E+04-1.47679E-09-3.07455E-09
 -1       576 1.98858E+05 2.82993E+01 2.82440E+02-5.63498E+04-2.69011E-09 7.18046E-10
 -1       577 1.98858E+05 1.42179E+01 1.39458E+02-5.11005E+04-8.19796E-09-6.90761E-10
 -1       578 1.98850E+05 1.74232E+01 7.67654E+01-5.63522E+04-1.45919E-08 4.59295E-11
 -1       579 1.98873E+05 1.01293E+01 4.80843E+01-5.11004E+04-6.99401E-09-5.28098E-09
 -1       580 1.98871E+05 8.73679E+00 4.69844E+01-5.63492E+04-1.32059E-09-5.66524E-09
 -1       581 1.98899E+05-1.62575E-01 6.56558E+01-5.11035E+04-9.62245E-10 4.61660E-09
 -1       582 1.98917E+05 9.86708E+00 1.26978E+02-5.63183E+04-1.76988E-09 2.76486E-10
 -1       583 1.98930E+05 3.79538E+01 2.44042E+02-5.11314E+04-1.39698E-09 8.52901E-09
 -1       584 1.99046E+05 2.28649E+02 5.48071E+02-5.60849E+04-4.18731E-09-1.12852E-08
 -1       585 1.98908E+05 7.09605E+02 1.11270E+03-5.13372E+04-1.11504E-09-4.34193E-09
 -1       586-2.30187E+03 6.57126E+04-2.95701E+03-1.76061E+05 3.72893E-11-5.83236E-09
 -1       587-4.86190E+02 6.53273E+04-1.76801E+02-1.93760E+05 3.27418E-11-7.31347E-09
 -1       588 6.94101E+02 6.53821E+04 2.47688E+03-1.75963E+05 1.12777E-10-2.92675E-09
 -1       589 3.50762E+03 6.67233E+04 7.00238E+03-1.93582E+05 1.99179E-10 6.87123E-10
 -1       590 1.01429E+04 6.45780E+04 1.49166E+04-1.76244E+05-1.13232E-10 1.69348E-09
 -1       591-4.30657E+04-1.19191E+04-1.42160E+04-2.18036E+04-6.78483E-10-7.92988E-09
 -1       592-4.45623E+04-1.52454E+04-7.70002E+03-2.53233E+04 9.16543E-10-9.21193E-09
 -1       593-4.45009E+04-1.08740E+04-3.20555E+03-2.28327E+04-3.18892E-10-6.44604E-09
 -1       594-4.25840E+04-1.31764E+04-1.59875E+03-2.54188E+04 1.96678E-10 4.28400E-10
 -1       595-4.46108E+04-1.08693E+04-7.34658E+02-2.28799E+04-1.53591E-10-1.58623E-09
 -1       596-4.24499E+04-1.30817E+04-3.74401E+02-2.54046E+04 3.90241E-09 2.68247E-09
 -1       597-4.46248E+04-1.08785E+04-2.05901E+02-2.28818E+04-2.22332E-10-8.55681E-09
 -1       598-4.24370E+04-1.30781E+04-1.69241E+02-2.54006E+04-1.19735E-09-5.42656E-09
 -1       599-4.46237E+04-1.08786E+04-2.20839E+02-2.28815E+04 1.31786E-09-1.17051E-08
 -1       600-4.24511E+04-1.30829E+04-4.13969E+02-2.54040E+04 1.65164E-09-6.32167E-09
 -1       601-4.46062E+04-1.08689E+04-8.18631E+02-2.28786E+04-1.30899E-09-4.29975E-09
 -1       602-4.26006E+04-1.31885E+04-1.78513E+03-2.54178E+04 8.06949E-10-1.17689E-08
 -1       603-4.44818E+04-1.08760E+04-3.58051E+03-2.28261E+04 3.59114E-09 4.05475E-09
 -1       604-4.48181E+04-1.54906E+04-8.60088E+03-2.52994E+04 1.44155E-09-1.73895E-09
 -1       605-4.28685E+04-1.20512E+04-1.58790E+04-2.16852E+04 2.95836E-09 2.30102E-09
 -1       606 2.69467E+04-9.53671E+03-1.71617E+04 2.61981E+04-2.39379E-09-5.31691E-09
 -1       607 2.40080E+04-3.08107E+03-8.54554E+03 2.94104E+04-2.49202E-10 7.47605E-10
 -1       608 2.56741E+04-5.24178E+02-3.82694E+03 2.59903E+04 2.17733E-09-2.10343E-09
 -1       609 2.53424E+04-1.40424E+02-1.93284E+03 2.96409E+04 1.06957E-09-7.01471E-09
 -1       610 2.55190E+04 2.00171E+01-9.23324E+02 2.59670E+04-3.51793E-09 1.74009E-09
 -1       611 2.54563E+04 3.26467E+01-4.65614E+02 2.96661E+04-8.85302E-09 1.31984E-08
 -1       612 2.54769E+04 3.58340E+01-2.22747E+02 2.59647E+04-3.93356E-09-5.18048E-09
 -1       613 2.54531E+04 4.15629E+01-1.01257E+02 2.96690E+04-5.69617E-09-5.77052E-09
 -1       614 2.54536E+04 3.70181E+01-2.77555E+01 2.59639E+04 1.45519E-09 2.30602E-09
 -1       615 2.54407E+04 4.73856E+01 3.30296E+01 2.96695E+04 9.42964E-09-9.01991E-10
 -1       616 2.54360E+04 4.30575E+01 1.07663E+02 2.59642E+04-2.69301E-09 2.52703E-09
 -1       617 2.54470E+04 7.44863E+01 2.49183E+02 2.96690E+04-4.14934E-09-4.08750E-09
 -1       618 2.54093E+04 1.18083E+02 5.03466E+02 2.59643E+04-1.64846E-09-6.15364E-09
 -1       619 2.56207E+04 4.66419E+02 1.13146E+03 2.96682E+04-2.49202E-10 4.54065E-09
 -1       620 2.52395E+04 1.31451E+03 2.27437E+03 2.59632E+04 1.84616E-09-1.29103E-09
 -1       621 3.07163E+02 2.11531E+05 2.71786E+03 9.48591E+03-1.17382E-10 4.38922E-09
 -1       622 3.57350E+02 2.12203E+05 2.37100E+03 1.38325E+04-1.09139E-11-2.21007E-09
 -1       623 1.58986E+01 2.11714E+05 2.81023E+03 9.44117E+03-1.28622E-10 4.08886E-09
 -1       624 1.29473E+03 2.13059E+05 5.40937E+03 1.38770E+04 4.74643E-12 6.67342E-11
 -1       625 1.30118E+03 2.10665E+05 9.43829E+03 9.44152E+03-2.04636E-11 1.87833E-09
 -1       626 1.78144E+05 4.85347E+04 3.63498E+03 9.51514E+04-6.37920E-09-1.01118E-08
 -1       627 1.75819E+05 5.02041E+04 1.75163E+03 9.89444E+04-2.48110E-09 4.67378E-09
 -1       628 1.78271E+05 4.68254E+04 7.39845E+02 9.57109E+04 1.48975E-09-4.05248E-09
 -1       629 1.75304E+05 4.97795E+04 3.62574E+02 9.91697E+04 5.29917E-09 7.82222E-10
 -1       630 1.78278E+05 4.67451E+04 1.67569E+02 9.57263E+04 2.75395E-09 1.03826E-08
 -1       631 1.75242E+05 4.97694E+04 8.99999E+01 9.91704E+04 2.93312E-10 6.30472E-09
 -1       632 1.78269E+05 4.67519E+04 5.90024E+01 9.57182E+04-4.43379E-10 7.30125E-09
 -1       633 1.75228E+05 4.97747E+04 6.54161E+01 9.91630E+04-3.31693E-09-5.32714E-09
 -1       634 1.78259E+05 4.67529E+04 1.05377E+02 9.57136E+04 7.02130E-10-4.43470E-09
 -1       635 1.75233E+05 4.97763E+04 2.13336E+02 9.91625E+04 2.65118E-09 5.02882E-09
 -1       636 1.78247E+05 4.67519E+04 4.30710E+02 9.57105E+04-3.14571E-09 6.72253E-09
 -1       637 1.75321E+05 4.98448E+04 9.46565E+02 9.91584E+04-1.77482E-09 1.04810E-08
 -1       638 1.78211E+05 4.69628E+04 1.94523E+03 9.56135E+04-7.96388E-09 9.35825E-09
 -1       639 1.76339E+05 5.12671E+04 4.60186E+03 9.88560E+04-1.86342E-08 5.91490E-09
 -1       640 1.78074E+05 5.11991E+04 9.54991E+03 9.38159E+04-1.76267E-08-1.73504E-08
 -1       656 4.78587E+04-1.21283E+06-1.15530E+05-3.93481E+02-2.18279E-11 1.20960E-09
 -1       657-6.32509E+04-1.26498E+06-9.55661E+04 7.44795E+03 3.95630E-10-6.79799E-09
 -1       658 1.51870E+04-1.22769E+06-5.86732E+04-1.61366E+03 1.15199E-09 1.58490E-09
 -1       659-6.78974E+04-1.26718E+06-1.01669E+05 8.28253E+03-5.66615E-10 8.29722E-09
 -1       660 5.24942E+04-1.21063E+06-1.26027E+05-1.22805E+03-5.60249E-10 4.55614E-10
 -1       661 1.64408E+05 1.78556E+04 1.59058E+04 6.42727E+04 4.72301E-09 6.32008E-09
 -1       662 1.72776E+05 3.02490E+04 1.07180E+04 6.14138E+04 4.50200E-10-5.36090E-09
 -1       663 1.67527E+05 2.29625E+04 3.74917E+03 6.33715E+04 3.65617E-10-1.27739E-09
 -1       664 1.69165E+05 2.42718E+04 2.24166E+03 6.25103E+04 3.20753E-09 1.51385E-09
 -1       665 1.67995E+05 2.36648E+04 8.84263E+02 6.32396E+04-4.58181E-09 8.31980E-09
 -1       666 1.68616E+05 2.34648E+04 5.15857E+02 6.26798E+04-5.74398E-09 5.12959E-09
 -1       667 1.68074E+05 2.37484E+04 2.72175E+02 6.32099E+04-1.76342E-09 3.82617E-09
 -1       668 1.68531E+05 2.33996E+04 2.73149E+02 6.27226E+04 3.60487E-10 1.49385E-09
 -1       669 1.68079E+05 2.37281E+04 3.66369E+02 6.31974E+04 1.98023E-09 7.75086E-09
 -1       670 1.68623E+05 2.35942E+04 7.94572E+02 6.27226E+04 8.83279E-09 2.74470E-09
 -1       671 1.67982E+05 2.35577E+04 1.40975E+03 6.32084E+04-6.50495E-10 5.49852E-09
 -1       672 1.69445E+05 2.49650E+04 3.60595E+03 6.25236E+04-4.82167E-10-1.71201E-09
 -1       673 1.67261E+05 2.23917E+04 6.04268E+03 6.33832E+04-2.28692E-09-1.63823E-09
 -1       674 1.75198E+05 3.46710E+04 1.72807E+04 6.08316E+04-3.13634E-09-1.29467E-08
 -1       675 1.62266E+05 1.41232E+04 2.56501E+04 6.47980E+04 2.08138E-09 2.54113E-09
 -1       676 1.92239E+01-2.30167E+05-8.92666E+02 3.25388E+01-3.49957E-10 8.82574E-11
 -1       677-2.36978E+02-2.30383E+05-1.63368E+03-6.50434E+01-3.91583E-09-5.13072E-09
 -1       678 1.58248E+02-2.30013E+05-2.88792E+03 3.24822E+01 7.40215E-10 4.49940E-09
 -1       679-2.88859E+03-2.32126E+05-6.86029E+03-6.48246E+01-7.62952E-10 6.10744E-09
 -1       680 1.72394E+03-2.28424E+05-1.10565E+04 3.19493E+01-3.39242E-09-5.04929E-09
 -1       771-2.45889E+06-4.60117E+05-6.36749E+04-1.05251E+06-1.26165E-08-1.07248E-08
 -1       772-2.43365E+06-4.99939E+05-3.37967E+04-1.09744E+06-8.76753E-09 2.01726E-09
 -1       773-2.46899E+06-4.52163E+05-1.52699E+04-1.05609E+06-4.13274E-09 5.95901E-09
 -1       774-2.42543E+06-4.93068E+05-7.24682E+03-1.10358E+06 1.23182E-08-1.70985E-09
 -1       775-2.47236E+06-4.49814E+05-4.14599E+03-1.05673E+06-9.60426E-10 1.17507E-09
 -1       776-2.42624E+06-4.93101E+05-1.77804E+03-1.10743E+06-3.12866E-09 2.02272E-09
 -1       777-2.47498E+06-4.47879E+05-1.41278E+03-1.05725E+06 1.38243E-09 2.22281E-09
 -1       778-2.42751E+06-4.93283E+05-5.15143E+02-1.11067E+06 2.64845E-09 4.27826E-09
 -1       779-2.47714E+06-4.46235E+05-6.47859E+02-1.05770E+06-8.36735E-10 1.53523E-09
 -1       780-2.42869E+06-4.93412E+05-2.89306E+02-1.11329E+06-1.26965E-09 4.09727E-10
 -1       781-2.47879E+06-4.44928E+05-5.42876E+02-1.05805E+06-1.23473E-08-1.14051E-09
 -1       782-2.42964E+06-4.93518E+05-6.96977E+02-1.11522E+06-1.20162E-08-4.21369E-09
 -1       783-2.47989E+06-4.44052E+05-1.41576E+03-1.05828E+06-2.61934E-10-6.48834E-09
 -1       784-2.43103E+06-4.94417E+05-3.22377E+03-1.11635E+06-7.57336E-09 2.03499E-10
 -1       785-2.47987E+06-4.44037E+05-5.98876E+03-1.05798E+06-1.42991E-08 2.34104E-09
 -1       786 1.65324E+05-9.34773E+03 2.16262E+04-4.91534E+01 1.67068E-09 5.17684E-09
 -1       787 1.74696E+05 1.08218E+04 1.53000E+04 1.08724E+01 1.62219E-09 4.75097E-09
 -1       788 1.68940E+05-1.46535E+03 5.59714E+03-3.63765E+01 1.28307E-09 8.22524E-09
 -1       789 1.70485E+05 1.69547E+03 3.51634E+03-1.05820E+01 1.88153E-08 1.18968E-08
 -1       790 1.69537E+05-2.28866E+02 1.42991E+03-2.77004E+01 5.72284E-06-8.46916E-09
 -1       791 1.69788E+05 2.65657E+02 8.37820E+02-2.70328E+01 1.14078E-05 4.69618E-09
 -1       792 1.69637E+05-3.66202E+01 3.78984E+02-1.99257E+01 5.71811E-06-1.98869E-08
 -1       793 1.69675E+05 4.97821E+01 2.41429E+02-4.39581E+01 1.83158E-08-1.15473E-08
 -1       794 1.69650E+05-1.31344E+01 1.68267E+02-1.07749E+01 1.04330E-09 1.86333E-09
 -1       795 1.69680E+05 6.37366E+01 2.28117E+02-6.61963E+01-3.24943E-10 5.86121E-09
 -1       796 1.69631E+05-5.05602E+01 3.32453E+02 2.31301E+00 9.94869E-10 1.00462E-09
 -1       797 1.69828E+05 3.69719E+02 7.76245E+02-9.99557E+01 2.13278E-10 2.50373E-09
 -1       798 1.69502E+05-3.18894E+02 1.22278E+03 2.29851E+01 3.11716E-10-2.04903E-09
 -1       799 1.70745E+05 2.35448E+03 3.33137E+03-1.54844E+02-8.01803E-10-4.09864E-09
 -1       800 1.68714E+05-2.03373E+03 4.70504E+03 5.72023E+01-5.46097E-11 2.65300E-09
 -1       801 2.80416E+04-1.17324E+06-1.01715E+05 2.75618E+04 1.35333E-08-1.04546E-09
 -1       802-2.62008E+04-1.03589E+06-2.26965E+04-7.10350E+04 3.59178E-08 2.42574E-09
 -1       803-1.58101E+03-1.10328E+06 1.73019E+04 5.76939E+04 2.83835E-08 2.71972E-08
 -1       804 7.89149E+04-9.75277E+05 1.15923E+05-6.25903E+04 3.19706E-08 2.70811E-08
 -1       805-7.74947E+04-1.23328E+06 1.30021E+05 1.91104E+04 1.18671E-08 2.25127E-08
 -1       806-2.16270E+05-4.45953E+04-1.76097E+04-8.82617E+04-2.84081E-09-3.14503E-09
 -1       807-2.17468E+05-4.19116E+04-8.65133E+03-9.27452E+04 5.63023E-09 1.35895E-08
 -1       808-2.16760E+05-3.82430E+04-3.66993E+03-9.12582E+04 3.53020E-09 1.03883E-08
 -1       809-2.15632E+05-3.94987E+04-1.79424E+03-9.29810E+04-1.80171E-09 2.90049E-09
 -1       810-2.16836E+05-3.80199E+04-8.21723E+02-9.13905E+04-3.58614E-09-3.31238E-09
 -1       811-2.15491E+05-3.94028E+04-4.07784E+02-9.29578E+04 4.48836E-10 2.49565E-09
 -1       812-2.16849E+05-3.80373E+04-2.04112E+02-9.13901E+04-1.96314E-09 3.18573E-09
 -1       813-2.15472E+05-3.94050E+04-1.29605E+02-9.29458E+04-2.41403E-09 4.92673E-09
 -1       814-2.16846E+05-3.80439E+04-1.23093E+02-9.13872E+04 1.09731E-09 3.32784E-09
 -1       815-2.15474E+05-3.94070E+04-1.93955E+02-9.29419E+04 1.42427E-09-1.59616E-10
 -1       816-2.16833E+05-3.80427E+04-3.64378E+02-9.13847E+04-3.27418E-10 1.27111E-08
 -1       817-2.15536E+05-3.94419E+04-7.81341E+02-9.29349E+04-4.85670E-10 4.69367E-09
 -1       818-2.16786E+05-3.81525E+04-1.59268E+03-9.13327E+04 2.62298E-09 6.79029E-09
 -1       819-2.16413E+05-4.03999E+04-3.74815E+03-9.27242E+04-2.37333E-09-2.41312E-09
 -1       820-2.16485E+05-4.09842E+04-7.62833E+03-9.01224E+04-4.49018E-09-3.17198E-09
 -1       821-2.76139E+05 1.52755E+04-3.53269E+04 1.78638E+02 2.92919E-10 2.02090E-09
 -1       822-2.91447E+05-1.76840E+04-2.49989E+04-8.08258E+02-1.79647E-09-6.56473E-09
 -1       823-2.82046E+05 2.39500E+03-9.14963E+03 1.66134E+02 6.14490E-10-3.02271E-09
 -1       824-2.84554E+05-2.77194E+03-5.75641E+03-6.48534E+02 1.30528E-10 8.45409E-09
 -1       825-2.83029E+05 3.74722E+02-2.36719E+03 1.89109E+01-2.00669E-09 3.93948E-09
 -1       826-2.83408E+05-4.41793E+02-1.42664E+03-2.82170E+02-4.40100E-09-1.13710E-08
 -1       827-2.83192E+05 6.62606E+01-7.41471E+02-2.00236E+02-3.84701E-09-6.97395E-09
 -1       828-2.83254E+05-1.34823E+02-6.53038E+02 1.37188E+02-4.70580E-09 3.06213E-09
 -1       829-2.83183E+05 6.80398E+01-7.53704E+02-4.00455E+02-1.32808E-10 7.52036E-09
 -1       830-2.83436E+05-4.54983E+02-1.47054E+03 4.35574E+02 1.09530E-09 4.71050E-09
 -1       831-2.83011E+05 3.86524E+02-2.43668E+03-4.98629E+02-2.15292E-09-3.89605E-10
 -1       832-2.84609E+05-2.85786E+03-5.93787E+03 4.89723E+02 3.30278E-10 4.05578E-09
 -1       833-2.82011E+05 2.46926E+03-9.43645E+03-4.54603E+02-1.93916E-09-5.46925E-09
 -1       834-2.91692E+05-1.82365E+04-2.57798E+04 2.78505E+02-7.37734E-10-4.29509E-09
 -1       835-2.75929E+05 1.57530E+04-3.64375E+04-2.87400E+02 6.43228E-09-9.22228E-10
 -1       836-9.23317E+02 2.59854E+05 1.57033E+04-2.07683E+04 1.06047E-09 2.25555E-09
 -1       837 3.44790E+03 2.64721E+05 1.34120E+04-4.17194E+04 1.65801E-09-1.16190E-08
 -1       838-3.41952E+02 2.61205E+05 1.38371E+04-2.06962E+04 1.59571E-09 4.01928E-09
 -1       839 8.87639E+03 2.68766E+05 2.63446E+04-4.17489E+04 2.40607E-09-2.12945E-09
 -1       840-2.67358E+03 2.55769E+05 4.20808E+04-2.07373E+04 1.46611E-09 2.83671E-09
 -1       856-8.00179E+04 7.20037E+03-1.89751E+04-4.20724E+02-3.10217E-09-4.28463E-09
 -1       857-8.78549E+04-8.44545E+03-1.30638E+04 4.38694E+03-2.48613E-09-3.29692E-09
 -1       858-8.31145E+04 1.00888E+03-4.92451E+03-4.41028E+02-3.46012E-09-9.61063E-09
 -1       859-8.42991E+04-1.17322E+03-2.97399E+03 4.41925E+03 6.05311E-10-1.09481E-08
 -1       860-8.35775E+04 1.40310E+02-1.25012E+03-4.53162E+02 2.70467E-09-1.24317E-08
 -1       861-8.37660E+04-1.55006E+02-6.95546E+02 4.43587E+03-6.24334E-09-3.27179E-09
 -1       862-8.36495E+04 1.85466E+01-3.04845E+02-4.57668E+02 5.65351E-09-2.08175E-09
 -1       863-8.36805E+04-1.08474E+01-1.46723E+02 4.43792E+03 1.20760E-08-8.74832E-09
 -1       864-8.36632E+04-6.68560E-01-3.79411E+01-4.55222E+02 5.33024E-09-8.77436E-09
 -1       865-8.36527E+04 2.63755E+01 5.02921E+01 4.42554E+03 1.08304E-08-1.05095E-08
 -1       866-8.36757E+04-1.91092E+01 1.42558E+02-4.45289E+02 3.63968E-10-7.50150E-09
 -1       867-8.35745E+04 1.59763E+02 3.77457E+02 4.39857E+03 1.93378E-09 4.62337E-09
 -1       868-8.37382E+04-1.32888E+02 6.33481E+02-4.28247E+02-2.55403E-09 9.07662E-09
 -1       869-8.31019E+04 1.10302E+03 1.69671E+03 4.35396E+03-5.64029E-10-1.13520E-08
 -1       870-8.41435E+04-9.38554E+02 2.46078E+03-4.00684E+02 2.36219E-09-7.93807E-09
 -1       871-4.07629E+03-8.96508E+03-1.32632E+04 8.72991E+04 2.23008E-09 1.82081E-09
 -1       872-1.76164E+03-1.19403E+04-5.41714E+03 1.13179E+05 3.41970E-09 1.33018E-08
 -1       873-3.12671E+01-1.05508E+04 7.44885E+02 8.71073E+04 1.21554E-09 8.04982E-09
 -1       874 2.03494E+03-8.63914E+03 7.45901E+03 1.13218E+05 2.43222E-09 9.21364E-09
 -1       875 4.80068E+03-1.23203E+04 1.65595E+04 8.72679E+04 6.21185E-10 3.75530E-09
 -1       876 2.15419E+05 3.70636E+04 1.14745E+04 8.73364E+04 1.28438E-09-2.83489E-09
 -1       877 2.16083E+05 3.95748E+04 6.12765E+03 9.07214E+04-2.05000E-09-2.33986E-08
 -1       878 2.16491E+05 3.57938E+04 2.56719E+03 8.82788E+04-2.04659E-09-5.66502E-09
 -1       879 2.14522E+05 3.80201E+04 1.27888E+03 9.08022E+04-8.02811E-09-1.60799E-09
 -1       880 2.16569E+05 3.57798E+04 5.95422E+02 8.83171E+04-2.88719E-09 2.62241E-09
 -1       881 2.14418E+05 3.79541E+04 3.17230E+02 9.07857E+04 3.21086E-09 1.83199E-08
 -1       882 2.16577E+05 3.57893E+04 2.01685E+02 8.83182E+04 7.36839E-09 6.61827E-09
 -1       883 2.14411E+05 3.79509E+04 2.14782E+02 9.07809E+04 1.13698E-08 9.21949E-09
 -1       884 2.16572E+05 3.57869E+04 3.39820E+02 8.83184E+04 4.20840E-09-2.59928E-09
 -1       885 2.14438E+05 3.79557E+04 6.82073E+02 9.07894E+04 3.50596E-09 4.88717E-09
 -1       886 2.16546E+05 3.57670E+04 1.37415E+03 8.83157E+04 5.04946E-09-3.20938E-10
 -1       887 2.14679E+05 3.81140E+04 3.00145E+03 9.08242E+04-3.33242E-09-1.56570E-08
 -1       888 2.16357E+05 3.58004E+04 6.04797E+03 8.82196E+04 6.20332E-10-6.03904E-10
 -1       889 2.18283E+05 4.18558E+04 1.44481E+04 9.07102E+04 4.10612E-09-9.00172E-10
 -1       890 2.13893E+05 3.87274E+04 2.70601E+04 8.59123E+04 3.42243E-09 7.30688E-09
 -1       891-1.32310E+02-1.22123E+05-1.44786E+03 2.29315E+04 1.79602E-09 4.27167E-09
 -1       892-2.30762E+02-1.22471E+05-1.57274E+03 3.47048E+04-9.09495E-11 6.58110E-09
 -1       893-3.64162E+01-1.22168E+05-2.24515E+03 2.29361E+04 1.25510E-10-3.77713E-09
 -1       894-1.22457E+03-1.23329E+05-4.65993E+03 3.45810E+04-4.63842E-10-1.47338E-10
 -1       895-9.58132E+02-1.21198E+05-8.21128E+03 2.30537E+04-2.02647E-10 1.60435E-09
 -1       956-2.71433E+05-3.88633E+03-9.77968E+03 1.81778E+04-3.27464E-09 1.10049E-09
 -1       957-2.73364E+05-1.31185E+03-5.02046E+03 2.18903E+04-2.35696E-09-3.67345E-09
 -1       958-2.72301E+05-1.05397E+02-2.26189E+03 1.80616E+04 3.68436E-09 4.17094E-09
 -1       959-2.72455E+05-1.87846E+01-1.15531E+03 2.20165E+04 1.09867E-09-9.37007E-10
 -1       960-2.72379E+05 3.20255E+01-5.63179E+02 1.80504E+04 5.31600E-10-4.07681E-10
 -1       961-2.72389E+05 3.02296E+01-2.98672E+02 2.20292E+04-3.96540E-10 1.15233E-08
 -1       962-2.72395E+05 2.83216E+01-1.70722E+02 1.80487E+04 1.55524E-10 5.89080E-09
 -1       963-2.72387E+05 3.16245E+01-1.36598E+02 2.20315E+04-1.76340E-09-4.75711E-09
 -1       964-2.72399E+05 3.03341E+01-1.65283E+02 1.80481E+04-5.06589E-10-4.87353E-09
 -1       965-2.72397E+05 3.46096E+01-2.85152E+02 2.20315E+04 3.05565E-09 4.35477E-09
 -1       966-2.72390E+05 3.79744E+01-5.35026E+02 1.80487E+04-4.28042E-09 2.10321E-10
 -1       967-2.72467E+05-7.66033E+00-1.09721E+03 2.20244E+04-9.37291E-09-1.32388E-09
 -1       968-2.72322E+05-8.84956E+01-2.14717E+03 1.80553E+04-6.77665E-09 2.88298E-09
 -1       969-2.73338E+05-1.23187E+03-4.76733E+03 2.19467E+04 1.85173E-09 2.15368E-09
 -1       970-2.71503E+05-3.67629E+03-9.28577E+03 1.81287E+04 2.09229E-09 2.46655E-09
 -1       971-2.56724E+05-1.34733E+03-7.48735E+03 1.24008E+04-3.41743E-09-1.05112E-08
 -1       972-2.58545E+05-9.65960E+02-4.07760E+03 1.73176E+04-1.55592E-09-3.36013E-09
 -1       973-2.57556E+05-9.23312E+00-1.82586E+03 1.22974E+04-2.23554E-09 1.78488E-09
 -1       974-2.57683E+05-9.17803E+00-9.45918E+02 1.74293E+04 2.21803E-09-4.85653E-09
 -1       975-2.57621E+05 2.57657E+01-4.71785E+02 1.22880E+04 5.34192E-09-1.58343E-09
 -1       976-2.57632E+05 2.99859E+01-2.70356E+02 1.74407E+04 8.01992E-09-1.05503E-08
 -1       977-2.57633E+05 2.55355E+01-1.92915E+02 1.22859E+04 7.41011E-09 3.56295E-10
 -1       978-2.57635E+05 3.43261E+01-2.21266E+02 1.74438E+04 1.05235E-08 1.00209E-08
 -1       979-2.57633E+05 3.14956E+01-3.51630E+02 1.22850E+04 8.65197E-09 1.05740E-09
 -1       980-2.57660E+05 3.64841E+01-6.76526E+02 1.74442E+04 1.02313E-08-6.89852E-10
 -1       981-2.57612E+05 4.83458E+01-1.30899E+03 1.22854E+04 3.95585E-09-3.27975E-09
 -1       982-2.57840E+05-6.01096E+01-2.70493E+03 1.74390E+04 7.87054E-10-6.05471E-09
 -1       983-2.57447E+05-3.52822E+01-5.25529E+03 1.22904E+04-1.24442E-09 1.44064E-09
 -1       984-2.60368E+05-2.80442E+03-1.17684E+04 1.73689E+04-1.13871E-08 1.10149E-08
 -1       985-2.55068E+05-3.88065E+03-2.16106E+04 1.23601E+04-4.14093E-09 8.14816E-09
 -3
    1PSTEP                        13           7           1          
  100CL  107 5.39062E-01         409                     0    7           1
 -4  DISP        4    1
 -5  D1          1    2    1    0
 -5  D2          1    2    2    0
 -5  D3          1    2    3    0
 -5  ALL         1    2    0    0    1ALL
 -1         1 1.84304E-04 0.00000E+00 0.00000E+00
 -1         2 1.63827E-04 9.17411E-32 0.00000E+00
 -1         3 1.64507E-04-7.72957E-27 1.32349E-23
 -1         5 1.08442E-04 2.14886E-27-3.30872E-24
 -1         8 1.58898E-04-8.70677E-07 0.00000E+00
 -1         9 1.52689E-04-6.48760E-07 0.00000E+00
 -1        10 1.51513E-04-2.19889E-06 0.00000E+00
 -1        12 1.08174E-04 5.92541E-07 0.00000E+00
 -1        15 1.28587E-04-9.68401E-07-4.13590E-25
 -1        16 1.33638E-04-8.48844E-07 0.00000E+00
 -1        17 1.10439E-04-4.69174E-06 0.00000E+00
 -1        18 1.06200E-04 4.73131E-06 0.00000E+00
 -1        19 1.07369E-04 1.18199E-06 0.00000E+00
 -1        20 1.07515E-04 1.31994E-05 0.00000E+00
 -1        21 1.06920E-04 2.39836E-05 0.00000E+00
 -1        24 2.23533E-05-6.61425E-06 0.00000E+00
 -1        25 1.06095E-04 4.87131E-06 0.00000E+00
 -1        26 1.07003E-04 1.64164E-06 0.00000E+00
 -1        27 1.05365E-04 1.05387E-05 0.00000E+00
 -1        28 1.04895E-04 2.34818E-05 0.00000E+00
 -1        32 0.00000E+00 0.00000E+00 0.00000E+00
 -1        33 1.05390E-04 2.19937E-06 0.00000E+00
 -1        34 1.03791E-04 1.05135E-05 0.00000E+00
 -1        35 1.02283E-04 2.32151E-05 0.00000E+00
 -1        51 1.82655E-04-1.44850E-07 0.00000E+00
 -1        52 1.79596E-04-2.83733E-07 0.00000E+00
 -1        53 1.75403E-04-4.23841E-07 0.00000E+00
 -1        54 1.70364E-04-5.66878E-07 0.00000E+00
 -1        55 1.64766E-04-7.13735E-07-4.54949E-24
 -1        56 1.82699E-04-8.48248E-07 2.64698E-23
 -1        57 1.81180E-04-2.10877E-06 2.64698E-23
 -1        58 1.79767E-04-3.64339E-06-5.29396E-23
 -1        59 1.78400E-04-5.33129E-06 0.00000E+00
 -1        60 1.77037E-04-7.03038E-06 0.00000E+00
 -1        61 1.75624E-04-8.60244E-06 2.64698E-23
 -1        62 1.74116E-04-9.91893E-06 0.00000E+00
 -1        63 1.72467E-04-1.08624E-05 0.00000E+00
 -1        64 1.70646E-04-1.13462E-05-5.29396E-23
 -1        65 1.68627E-04-1.13023E-05 0.00000E+00
 -1        66 1.66401E-04-1.07065E-05-5.29396E-23
 -1        67 1.63967E-04-9.55684E-06 2.64698E-23
 -1        68 1.61342E-04-7.89782E-06-5.29396E-23
 -1        69 1.58558E-04-5.79124E-06 2.64698E-23
 -1        70 1.55641E-04-3.34305E-06-2.64698E-23
 -1        86 1.63493E-04-1.01340E-07-3.30872E-24
 -1        87 1.62492E-04-2.03635E-07 0.00000E+00
 -1        88 1.60860E-04-3.06800E-07 6.61744E-24
 -1        89 1.58636E-04-4.14380E-07 0.00000E+00
 -1        90 1.55888E-04-5.22081E-07 1.32349E-23
 -1       121 1.64144E-04-3.63425E-07 1.32349E-23
 -1       122 1.63054E-04-7.27365E-07 0.00000E+00
 -1       123 1.61241E-04-1.09233E-06 1.32349E-23
 -1       124 1.58708E-04-1.45887E-06-6.61744E-24
 -1       125 1.55463E-04-1.82737E-06 0.00000E+00
 -1       191 1.08434E-04 9.87616E-08 0.00000E+00
 -1       192 1.08412E-04 1.97522E-07 1.65436E-24
 -1       193 1.08375E-04 2.96282E-07 0.00000E+00
 -1       194 1.08323E-04 3.95040E-07-1.65436E-24
 -1       195 1.08255E-04 4.93794E-07 3.30872E-24
 -1       251 1.58506E-04 3.86383E-06 1.32349E-23
 -1       252 1.58114E-04 7.93130E-06-6.61744E-24
 -1       253 1.57726E-04 1.10289E-05 0.00000E+00
 -1       254 1.57340E-04 1.28689E-05 6.61744E-24
 -1       255 1.56955E-04 1.34003E-05 1.32349E-23
 -1       256 1.56571E-04 1.25929E-05-6.61744E-24
 -1       257 1.56185E-04 1.06683E-05 1.32349E-23
 -1       258 1.55797E-04 7.86581E-06-6.61744E-24
 -1       259 1.55407E-04 4.58987E-06 1.32349E-23
 -1       260 1.55018E-04 1.25252E-06 0.00000E+00
 -1       261 1.54629E-04-1.72267E-06-1.32349E-23
 -1       262 1.54242E-04-3.91791E-06 6.61744E-24
 -1       263 1.53857E-04-5.06221E-06-1.32349E-23
 -1       264 1.53471E-04-4.90108E-06 0.00000E+00
 -1       265 1.53085E-04-3.42592E-06-1.32349E-23
 -1       266 1.53847E-04-8.99063E-07 6.61744E-24
 -1       267 1.48795E-04-9.13876E-07-1.65436E-24
 -1       268 1.43743E-04-9.29548E-07-1.65436E-24
 -1       269 1.38691E-04-9.42674E-07 4.13590E-25
 -1       270 1.33639E-04-9.55740E-07 0.00000E+00
 -1       271 1.55877E-04 3.08667E-06 0.00000E+00
 -1       272 1.53233E-04 5.91759E-06-1.32349E-23
 -1       273 1.50978E-04 7.72201E-06 0.00000E+00
 -1       274 1.49066E-04 8.59797E-06-2.64698E-23
 -1       275 1.47457E-04 8.66597E-06-5.29396E-23
 -1       276 1.46100E-04 8.05810E-06 2.64698E-23
 -1       277 1.44942E-04 6.91960E-06 5.29396E-23
 -1       278 1.43924E-04 5.40464E-06 0.00000E+00
 -1       279 1.42987E-04 3.67443E-06-5.29396E-23
 -1       280 1.42069E-04 1.89401E-06-2.64698E-23
 -1       281 1.41108E-04 2.29200E-07 0.00000E+00
 -1       282 1.40043E-04-1.15604E-06 0.00000E+00
 -1       283 1.38814E-04-2.10320E-06 5.29396E-23
 -1       284 1.37370E-04-2.45978E-06 0.00000E+00
 -1       285 1.35650E-04-2.08775E-06 2.64698E-23
 -1       301 1.49156E-04-6.96592E-07 0.00000E+00
 -1       302 1.45653E-04-7.21990E-07 0.00000E+00
 -1       303 1.42265E-04-7.45866E-07 0.00000E+00
 -1       304 1.39077E-04-7.69893E-07 3.30872E-24
 -1       305 1.36173E-04-7.95200E-07 0.00000E+00
 -1       306 1.50757E-04-2.22037E-06-5.29396E-23
 -1       307 1.51772E-04-1.19823E-05 0.00000E+00
 -1       308 1.55161E-04-2.82850E-05 0.00000E+00
 -1       309 1.60125E-04-4.90552E-05 0.00000E+00
 -1       310 1.65598E-04-7.12656E-05-5.29396E-23
 -1       311 1.70475E-04-9.17924E-05 0.00000E+00
 -1       312 1.73763E-04-1.07869E-04-5.29396E-23
 -1       313 1.74550E-04-1.17041E-04 2.64698E-23
 -1       314 1.72411E-04-1.18311E-04 0.00000E+00
 -1       315 1.67103E-04-1.11225E-04 0.00000E+00
 -1       316 1.59059E-04-9.70719E-05 0.00000E+00
 -1       317 1.48925E-04-7.76113E-05-2.64698E-23
 -1       318 1.37815E-04-5.57008E-05 0.00000E+00
 -1       319 1.26945E-04-3.43493E-05 0.00000E+00
 -1       320 1.17447E-04-1.64669E-05 0.00000E+00
 -1       336 1.46776E-04-2.60243E-06 0.00000E+00
 -1       337 1.41169E-04-3.01080E-06-6.61744E-24
 -1       338 1.34711E-04-3.42399E-06-1.32349E-23
 -1       339 1.27422E-04-3.84203E-06 0.00000E+00
 -1       340 1.19322E-04-4.26611E-06-6.61744E-24
 -1       406 1.08077E-04 6.91276E-07-3.30872E-24
 -1       407 1.07965E-04 7.89977E-07 0.00000E+00
 -1       408 1.07838E-04 8.88617E-07-3.30872E-24
 -1       409 1.07696E-04 9.87076E-07-1.65436E-24
 -1       410 1.07540E-04 1.08516E-06-3.30872E-24
 -1       521 1.37709E-04-2.13765E-05 0.00000E+00
 -1       522 1.55604E-04-8.38455E-05-5.29396E-23
 -1       523 1.82900E-04-1.77986E-04-1.05879E-22
 -1       524 2.15147E-04-2.90625E-04 0.00000E+00
 -1       525 2.47692E-04-4.04398E-04-1.05879E-22
 -1       526 2.75881E-04-5.01834E-04 0.00000E+00
 -1       527 2.95262E-04-5.69183E-04-1.05879E-22
 -1       528 3.01242E-04-5.95467E-04 0.00000E+00
 -1       529 2.91211E-04-5.78643E-04 0.00000E+00
 -1       530 2.63828E-04-5.20342E-04-5.29396E-23
 -1       531 2.22069E-04-4.30647E-04 1.05879E-22
 -1       532 1.70943E-04-3.21888E-04 0.00000E+00
 -1       533 1.18296E-04-2.10094E-04 0.00000E+00
 -1       534 7.22418E-05-1.11472E-04 5.29396E-23
 -1       535 3.88364E-05-3.97201E-05 0.00000E+00
 -1       536 1.10228E-04 7.88653E-06 0.00000E+00
 -1       537 1.09922E-04 2.70502E-05 0.00000E+00
 -1       538 1.09542E-04 5.00129E-05 3.30872E-24
 -1       539 1.09140E-04 7.39684E-05-1.65436E-24
 -1       540 1.08782E-04 9.58509E-05 0.00000E+00
 -1       541 1.08520E-04 1.12606E-04-1.65436E-24
 -1       542 1.08344E-04 1.22494E-04 0.00000E+00
 -1       543 1.08214E-04 1.23813E-04-1.65436E-24
 -1       544 1.08063E-04 1.17030E-04 3.30872E-24
 -1       545 1.07835E-04 1.02656E-04 0.00000E+00
 -1       546 1.07526E-04 8.31328E-05 0.00000E+00
 -1       547 1.07164E-04 6.09296E-05-1.65436E-24
 -1       548 1.06811E-04 3.92066E-05 0.00000E+00
 -1       549 1.06529E-04 2.11218E-05 1.65436E-24
 -1       550 1.06329E-04 8.89992E-06 1.65436E-24
 -1       551 9.88534E-05-4.97109E-06 6.61744E-24
 -1       552 8.49941E-05-5.27263E-06 0.00000E+00
 -1       553 6.96324E-05-5.59374E-06 0.00000E+00
 -1       554 5.35510E-05-5.92749E-06 0.00000E+00
 -1       555 3.75322E-05-6.26302E-06 0.00000E+00
 -1       556 1.07328E-04 3.35243E-06 0.00000E+00
 -1       557 1.04906E-04 9.63063E-06-1.32349E-23
 -1       558 1.03100E-04 1.42974E-05 2.64698E-23
 -1       559 1.01844E-04 1.75202E-05 0.00000E+00
 -1       560 1.01071E-04 1.94662E-05 0.00000E+00
 -1       561 1.00716E-04 2.03037E-05 0.00000E+00
 -1       562 1.00714E-04 2.02012E-05 0.00000E+00
 -1       563 1.01002E-04 1.93275E-05 0.00000E+00
 -1       564 1.01515E-04 1.78516E-05 0.00000E+00
 -1       565 1.02189E-04 1.59427E-05 0.00000E+00
 -1       566 1.02963E-04 1.37701E-05 0.00000E+00
 -1       567 1.03771E-04 1.15030E-05-2.06795E-25
 -1       568 1.04552E-04 9.31079E-06 0.00000E+00
 -1       569 1.05241E-04 7.36256E-06 0.00000E+00
 -1       570 1.05776E-04 5.82750E-06 0.00000E+00
 -1       571 1.06271E-04 4.52949E-06-4.13590E-25
 -1       572 1.06343E-04 4.28152E-06 0.00000E+00
 -1       573 1.06416E-04 3.99630E-06-1.65436E-24
 -1       574 1.06489E-04 3.68317E-06 0.00000E+00
 -1       575 1.06563E-04 3.35152E-06 1.65436E-24
 -1       576 1.06636E-04 3.01080E-06 0.00000E+00
 -1       577 1.06709E-04 2.67045E-06 3.30872E-24
 -1       578 1.06782E-04 2.33994E-06 1.65436E-24
 -1       579 1.06856E-04 2.02871E-06 3.30872E-24
 -1       580 1.06929E-04 1.74622E-06 0.00000E+00
 -1       581 1.07002E-04 1.50194E-06 0.00000E+00
 -1       582 1.07076E-04 1.30530E-06 0.00000E+00
 -1       583 1.07149E-04 1.16575E-06 6.61744E-24
 -1       584 1.07222E-04 1.09262E-06 0.00000E+00
 -1       585 1.07296E-04 1.09518E-06 0.00000E+00
 -1       586 1.06143E-04 4.75614E-06-1.65436E-24
 -1       587 1.06059E-04 4.78038E-06-1.03398E-25
 -1       588 1.05981E-04 4.80435E-06 8.27181E-25
 -1       589 1.05939E-04 4.82791E-06 0.00000E+00
 -1       590 1.05967E-04 4.85077E-06 0.00000E+00
 -1       591 1.06240E-04 4.57229E-06-9.04729E-26
 -1       592 1.06290E-04 4.38048E-06 0.00000E+00
 -1       593 1.06349E-04 4.16253E-06 4.13590E-25
 -1       594 1.06416E-04 3.92432E-06 4.13590E-25
 -1       595 1.06488E-04 3.67180E-06 0.00000E+00
 -1       596 1.06563E-04 3.41090E-06 0.00000E+00
 -1       597 1.06639E-04 3.14753E-06-4.13590E-25
 -1       598 1.06713E-04 2.88759E-06 0.00000E+00
 -1       599 1.06784E-04 2.63699E-06 4.13590E-25
 -1       600 1.06850E-04 2.40164E-06-2.06795E-25
 -1       601 1.06907E-04 2.18745E-06 4.13590E-25
 -1       602 1.06955E-04 2.00031E-06 2.06795E-25
 -1       603 1.06990E-04 1.84616E-06-1.03398E-25
 -1       604 1.07011E-04 1.73095E-06 0.00000E+00
 -1       605 1.07015E-04 1.66055E-06 0.00000E+00
 -1       606 1.07382E-04 1.43361E-06-3.30872E-24
 -1       607 1.07392E-04 1.78116E-06 1.65436E-24
 -1       608 1.07401E-04 2.21901E-06 0.00000E+00
 -1       609 1.07411E-04 2.74081E-06 0.00000E+00
 -1       610 1.07420E-04 3.34017E-06 0.00000E+00
 -1       611 1.07428E-04 4.01063E-06-1.65436E-24
 -1       612 1.07437E-04 4.74571E-06 0.00000E+00
 -1       613 1.07446E-04 5.53892E-06 0.00000E+00
 -1       614 1.07455E-04 6.38379E-06 0.00000E+00
 -1       615 1.07464E-04 7.27381E-06 0.00000E+00
 -1       616 1.07472E-04 8.20253E-06 0.00000E+00
 -1       617 1.07481E-04 9.16344E-06 0.00000E+00
 -1       618 1.07490E-04 1.01501E-05 0.00000E+00
 -1       619 1.07498E-04 1.11559E-05 0.00000E+00
 -1       620 1.07507E-04 1.21745E-05 0.00000E+00
 -1       621 1.07226E-04 1.25870E-06 0.00000E+00
 -1       622 1.07129E-04 1.33574E-06-8.27181E-25
 -1       623 1.07067E-04 1.41276E-06 0.00000E+00
 -1       624 1.07032E-04 1.48964E-06 0.00000E+00
 -1       625 1.07014E-04 1.56640E-06 0.00000E+00
 -1       626 1.07358E-04 1.45903E-06 0.00000E+00
 -1       627 1.07319E-04 1.81446E-06 0.00000E+00
 -1       628 1.07254E-04 2.24068E-06 0.00000E+00
 -1       629 1.07165E-04 2.72964E-06 0.00000E+00
 -1       630 1.07055E-04 3.27326E-06 0.00000E+00
 -1       631 1.06929E-04 3.86342E-06 0.00000E+00
 -1       632 1.06787E-04 4.49201E-06-6.61744E-24
 -1       633 1.06634E-04 5.15090E-06 0.00000E+00
 -1       634 1.06473E-04 5.83199E-06 0.00000E+00
 -1       635 1.06307E-04 6.52713E-06 1.65436E-24
 -1       636 1.06138E-04 7.22824E-06 3.30872E-24
 -1       637 1.05971E-04 7.92718E-06 1.65436E-24
 -1       638 1.05807E-04 8.61583E-06 1.65436E-24
 -1       639 1.05649E-04 9.28608E-06 8.27181E-25
 -1       640 1.05502E-04 9.92978E-06 1.65436E-24
 -1       656 1.06704E-04 1.27665E-05 0.00000E+00
 -1       657 1.06266E-04 1.23163E-05-6.61744E-24
 -1       658 1.06064E-04 1.18675E-05 1.32349E-23
 -1       659 1.05955E-04 1.14190E-05 0.00000E+00
 -1       660 1.05776E-04 1.09692E-05 0.00000E+00
 -1       661 1.07215E-04 1.41955E-05-8.27181E-25
 -1       662 1.06941E-04 1.51324E-05 0.00000E+00
 -1       663 1.06689E-04 1.60121E-05-1.65436E-24
 -1       664 1.06457E-04 1.68381E-05 0.00000E+00
 -1       665 1.06244E-04 1.76129E-05 0.00000E+00
 -1       666 1.06050E-04 1.83394E-05 0.00000E+00
 -1       667 1.05873E-04 1.90203E-05-1.65436E-24
 -1       668 1.05711E-04 1.96581E-05 8.27181E-25
 -1       669 1.05566E-04 2.02553E-05-1.65436E-24
 -1       670 1.05434E-04 2.08142E-05 0.00000E+00
 -1       671 1.05316E-04 2.13371E-05 0.00000E+00
 -1       672 1.05211E-04 2.18261E-05 8.27181E-25
 -1       673 1.05117E-04 2.22833E-05 0.00000E+00
 -1       674 1.05034E-04 2.27105E-05 0.00000E+00
 -1       675 1.04962E-04 2.31100E-05 0.00000E+00
 -1       676 1.06581E-04 2.38995E-05-3.30872E-24
 -1       677 1.06243E-04 2.38154E-05-1.65436E-24
 -1       678 1.05905E-04 2.37313E-05 0.00000E+00
 -1       679 1.05568E-04 2.36475E-05 8.27181E-25
 -1       680 1.05231E-04 2.35638E-05 0.00000E+00
 -1       771 1.65917E-05 5.29535E-06-5.29396E-23
 -1       772 1.16482E-05 1.50620E-05 2.64698E-23
 -1       773 7.48582E-06 2.27985E-05 5.29396E-23
 -1       774 4.05278E-06 2.86279E-05 0.00000E+00
 -1       775 1.29788E-06 3.26769E-05 0.00000E+00
 -1       776-8.32262E-07 3.50778E-05-2.64698E-23
 -1       777-2.39155E-06 3.59662E-05 0.00000E+00
 -1       778-3.43514E-06 3.54826E-05 2.64698E-23
 -1       779-4.01847E-06 3.37700E-05 0.00000E+00
 -1       780-4.19804E-06 3.09754E-05 0.00000E+00
 -1       781-4.03044E-06 2.72480E-05-5.29396E-23
 -1       782-3.57309E-06 2.27400E-05 1.32349E-23
 -1       783-2.88342E-06 1.76050E-05 2.64698E-23
 -1       784-2.01942E-06 1.19987E-05 1.32349E-23
 -1       785-1.03905E-06 6.07775E-06 0.00000E+00
 -1       786 1.06148E-04 4.53355E-06 4.13590E-25
 -1       787 1.06205E-04 4.22103E-06 4.13590E-25
 -1       788 1.06261E-04 3.92943E-06-1.65436E-24
 -1       789 1.06318E-04 3.65447E-06 0.00000E+00
 -1       790 1.06375E-04 3.39408E-06-1.65436E-24
 -1       791 1.06432E-04 3.14622E-06 0.00000E+00
 -1       792 1.06489E-04 2.91049E-06 0.00000E+00
 -1       793 1.06546E-04 2.68653E-06 0.00000E+00
 -1       794 1.06604E-04 2.47553E-06 0.00000E+00
 -1       795 1.06661E-04 2.27871E-06 8.27181E-25
 -1       796 1.06718E-04 2.09917E-06 0.00000E+00
 -1       797 1.06775E-04 1.94003E-06-8.27181E-25
 -1       798 1.06832E-04 1.80711E-06-1.65436E-24
 -1       799 1.06890E-04 1.70631E-06-8.27181E-25
 -1       800 1.06947E-04 1.64774E-06-1.65436E-24
 -1       801 9.87624E-05 4.25320E-06-1.32349E-23
 -1       802 7.60793E-05 3.39058E-06-6.61744E-24
 -1       803 4.68264E-05 2.37545E-06 1.32349E-23
 -1       804 1.99682E-05 1.41686E-06 0.00000E+00
 -1       805 2.20629E-06 6.43892E-07 2.64698E-23
 -1       806 1.06137E-04 4.48421E-06 1.65436E-24
 -1       807 1.06172E-04 4.10972E-06-1.65436E-24
 -1       808 1.06199E-04 3.75216E-06-1.65436E-24
 -1       809 1.06218E-04 3.41502E-06 1.65436E-24
 -1       810 1.06229E-04 3.10176E-06 1.65436E-24
 -1       811 1.06229E-04 2.81578E-06-8.27181E-25
 -1       812 1.06217E-04 2.56048E-06-1.65436E-24
 -1       813 1.06193E-04 2.33923E-06 8.27181E-25
 -1       814 1.06155E-04 2.15542E-06 1.65436E-24
 -1       815 1.06101E-04 2.01240E-06-8.27181E-25
 -1       816 1.06031E-04 1.91356E-06 0.00000E+00
 -1       817 1.05943E-04 1.86225E-06 8.27181E-25
 -1       818 1.05836E-04 1.86184E-06-1.65436E-24
 -1       819 1.05709E-04 1.91567E-06-8.27181E-25
 -1       820 1.05560E-04 2.02709E-06 1.65436E-24
 -1       821 1.06907E-04 1.62584E-06 8.27181E-25
 -1       822 1.06804E-04 1.53942E-06 8.27181E-25
 -1       823 1.06702E-04 1.45108E-06 0.00000E+00
 -1       824 1.06599E-04 1.42950E-06 0.00000E+00
 -1       825 1.06496E-04 1.52919E-06 0.00000E+00
 -1       826 1.06393E-04 1.80410E-06 1.65436E-24
 -1       827 1.06289E-04 2.27097E-06-3.30872E-24
 -1       828 1.06186E-04 2.94570E-06 1.65436E-24
 -1       829 1.06082E-04 3.80004E-06 3.30872E-24
 -1       830 1.05978E-04 4.80495E-06 0.00000E+00
 -1       831 1.05874E-04 5.89942E-06 0.00000E+00
 -1       832 1.05770E-04 7.02205E-06 0.00000E+00
 -1       833 1.05667E-04 8.10542E-06-3.30872E-24
 -1       834 1.05564E-04 9.08233E-06 8.27181E-25
 -1       835 1.05462E-04 9.90809E-06-8.27181E-25
 -1       836 1.06892E-04 1.73447E-06 0.00000E+00
 -1       837 1.06667E-04 1.82939E-06 0.00000E+00
 -1       838 1.06366E-04 1.92414E-06-1.65436E-24
 -1       839 1.06028E-04 2.01828E-06 0.00000E+00
 -1       840 1.05690E-04 2.11226E-06 4.13590E-25
 -1       856 1.05339E-04 1.11310E-05 2.06795E-25
 -1       857 1.05310E-04 1.18346E-05-2.06795E-25
 -1       858 1.05281E-04 1.26318E-05-8.27181E-25
 -1       859 1.05252E-04 1.35053E-05 4.13590E-25
 -1       860 1.05222E-04 1.44373E-05-8.27181E-25
 -1       861 1.05193E-04 1.54101E-05-4.13590E-25
 -1       862 1.05163E-04 1.64060E-05 0.00000E+00
 -1       863 1.05133E-04 1.74072E-05 0.00000E+00
 -1       864 1.05103E-04 1.83960E-05 0.00000E+00
 -1       865 1.05073E-04 1.93545E-05-4.13590E-25
 -1       866 1.05043E-04 2.02650E-05 8.27181E-25
 -1       867 1.05014E-04 2.11098E-05 0.00000E+00
 -1       868 1.04984E-04 2.18714E-05 8.27181E-25
 -1       869 1.04954E-04 2.25322E-05 0.00000E+00
 -1       870 1.04925E-04 2.30747E-05-8.27181E-25
 -1       871 1.04988E-04 1.05376E-05 0.00000E+00
 -1       872 1.04721E-04 1.05342E-05 0.00000E+00
 -1       873 1.04516E-04 1.05304E-05 0.00000E+00
 -1       874 1.04325E-04 1.05261E-05-5.16988E-26
 -1       875 1.04099E-04 1.05212E-05 4.13590E-25
 -1       876 1.05242E-04 1.11409E-05-3.30872E-24
 -1       877 1.05101E-04 1.17972E-05-1.65436E-24
 -1       878 1.04942E-04 1.25011E-05 0.00000E+00
 -1       879 1.04767E-04 1.32466E-05 0.00000E+00
 -1       880 1.04580E-04 1.40274E-05 0.00000E+00
 -1       881 1.04381E-04 1.48375E-05 1.65436E-24
 -1       882 1.04174E-04 1.56708E-05 0.00000E+00
 -1       883 1.03961E-04 1.65214E-05 0.00000E+00
 -1       884 1.03743E-04 1.73831E-05 0.00000E+00
 -1       885 1.03523E-04 1.82498E-05 1.65436E-24
 -1       886 1.03303E-04 1.91156E-05 3.30872E-24
 -1       887 1.03087E-04 1.99743E-05 0.00000E+00
 -1       888 1.02874E-04 2.08199E-05 1.65436E-24
 -1       889 1.02669E-04 2.16461E-05 0.00000E+00
 -1       890 1.02473E-04 2.24471E-05 0.00000E+00
 -1       891 1.04580E-04 2.34372E-05 8.27181E-25
 -1       892 1.04246E-04 2.33924E-05 4.13590E-25
 -1       893 1.03871E-04 2.33476E-05 8.27181E-25
 -1       894 1.03434E-04 2.33030E-05 4.13590E-25
 -1       895 1.02911E-04 2.32584E-05-4.13590E-25
 -1       956 1.05292E-04 2.49674E-06 3.30872E-24
 -1       957 1.05193E-04 2.85719E-06 0.00000E+00
 -1       958 1.05093E-04 3.27393E-06 0.00000E+00
 -1       959 1.04992E-04 3.73972E-06 0.00000E+00
 -1       960 1.04892E-04 4.24736E-06-3.30872E-24
 -1       961 1.04792E-04 4.78957E-06 0.00000E+00
 -1       962 1.04691E-04 5.35909E-06-3.30872E-24
 -1       963 1.04591E-04 5.94864E-06 0.00000E+00
 -1       964 1.04491E-04 6.55094E-06 0.00000E+00
 -1       965 1.04390E-04 7.15872E-06 1.65436E-24
 -1       966 1.04290E-04 7.76471E-06-3.30872E-24
 -1       967 1.04190E-04 8.36161E-06 0.00000E+00
 -1       968 1.04089E-04 8.94216E-06 0.00000E+00
 -1       969 1.03989E-04 9.49912E-06-1.65436E-24
 -1       970 1.03890E-04 1.00252E-05-3.30872E-24
 -1       971 1.03698E-04 1.10195E-05 1.65436E-24
 -1       972 1.03604E-04 1.16077E-05-8.27181E-25
 -1       973 1.03509E-04 1.22689E-05 3.30872E-24
 -1       974 1.03415E-04 1.29937E-05 1.65436E-24
 -1       975 1.03320E-04 1.37727E-05 3.30872E-24
 -1       976 1.03225E-04 1.45966E-05-1.65436E-24
 -1       977 1.03130E-04 1.54557E-05 3.30872E-24
 -1       978 1.03035E-04 1.63406E-05 0.00000E+00
 -1       979 1.02940E-04 1.72420E-05-3.30872E-24
 -1       980 1.02846E-04 1.81503E-05 0.00000E+00
 -1       981 1.02751E-04 1.90560E-05-3.30872E-24
 -1       982 1.02656E-04 1.99496E-05-1.65436E-24
 -1       983 1.02561E-04 2.08218E-05 3.30872E-24
 -1       984 1.02467E-04 2.16631E-05 0.00000E+00
 -1       985 1.02373E-04 2.24639E-05 1.65436E-24
 -3
    1PSTEP                        14           7           1          
  100CL  107 5.39062E-01         409                     0    7           1
 -4  STRESS      6    1
 -5  SXX         1    4    1    1
 -5  SYY         1    4    2    2
 -5  SZZ         1    4    3    3
 -5  SXY         1    4    1    2
 -5  SYZ         1    4    2    3
 -5  SZX         1    4    3    1
 -1         1-2.25575E+06-9.61629E+05-4.76870E+05-1.24209E+06 5.96629E-10-7.81438E-09
 -1         2 2.61376E+03-2.86236E+05 8.51987E+03-8.21094E+02-1.07264E-10 9.99205E-09
 -1         3-2.32513E+02-1.03723E+06 2.49257E+02-5.96385E+02-1.80894E-10 8.56380E-09
 -1         5-2.32839E+00 2.82584E+05 7.30373E+00 9.68076E-02 4.05923E-11 1.30603E-08
 -1         8-1.07907E+06-3.95323E+05-1.03140E+05-5.57401E+05 2.69210E-10-3.23780E-09
 -1         9-2.17696E+06-7.10887E+05-2.71376E+05-6.72970E+05 5.02332E-09 3.50410E-09
 -1        10-9.22970E+02-1.08059E+06-1.46441E+03-4.03571E+03-5.33691E-09-2.56096E-08
 -1        12 6.67874E-01 2.82599E+05 2.36522E+02 7.66322E-01 1.63457E-10 2.80215E-09
 -1        15 2.00460E+03 1.10165E+03 6.47986E+03 4.37927E+00 1.30655E-10 4.21677E-09
 -1        16-2.82971E+06-1.24664E+06-4.60515E+05-1.32290E+06 1.11274E-08 4.44318E-09
 -1        17-1.27161E+06-7.18481E+05-2.44469E+05-6.44765E+05 4.21278E-09 1.32015E-08
 -1        18-4.06899E+04-1.47525E+04-3.19474E+04-7.34302E+04 4.84977E-09-4.54702E-09
 -1        19 8.96889E+04 1.05063E+05-6.28680E+02 1.75382E+04-2.75759E-10-5.81349E-10
 -1        20-4.21407E+04-4.24031E+05-9.38659E+04 2.87263E+04 3.45608E-09 1.11747E-08
 -1        21-3.90539E+01-2.40693E+05-7.72486E+02-5.58784E+01-5.18373E-09-7.34159E-09
 -1        24-3.09135E+06-7.82551E+05-3.45852E+05-1.13074E+06-2.03678E-08-2.08771E-08
 -1        25-4.87260E+04-3.52630E+05-6.38740E+04-1.20241E+05 2.45655E-10 8.35116E-09
 -1        26-2.69370E+04 7.01014E+04-1.57018E+04-7.43989E+03 1.60326E-09 5.24320E-09
 -1        27-6.50355E+04-2.31731E+05-8.65671E+04 5.22861E+04 5.65850E-09 3.06288E-09
 -1        28 1.85688E+04-6.70284E+04 1.36307E+04 2.04331E+04 2.66161E-09-4.33964E-10
 -1        32-1.07279E+06-9.97207E+05 1.88911E+05-5.77447E+05-2.41016E-08 4.46562E-09
 -1        33-1.34155E+05 6.74624E+04 2.40157E+04-3.59075E+04 6.59819E-10 1.86931E-09
 -1        34-1.71613E+05-1.73165E+04 4.28369E+02 5.36313E+04 3.15681E-09-5.62356E-09
 -1        35-1.89044E+04-2.66289E+04-1.04778E+03 4.19296E+04 5.06988E-09 1.10473E-09
 -1        51 2.08243E+04-3.54551E+05 5.09935E+04-9.66944E+05 3.92902E-10 4.36557E-09
 -1        52 1.13146E+04-3.51285E+05 3.19724E+04-1.12770E+06 2.25555E-10 2.10202E-08
 -1        53 7.34569E+03-3.65834E+05 2.48322E+04-9.63540E+05 6.69388E-10 2.34577E-08
 -1        54 2.03172E+04-3.64448E+05 3.69590E+04-1.13122E+06 2.83762E-10 1.07138E-08
 -1        55 3.98777E+04-3.78214E+05 6.42102E+04-9.62982E+05 9.31323E-10 9.61154E-09
 -1        56-4.31261E+06-4.82782E+05-3.50867E+05-1.66583E+06-2.12458E-09-5.99539E-09
 -1        57-4.46379E+06-7.90722E+05-2.36627E+05-1.64076E+06-1.68620E-09-1.51340E-09
 -1        58-4.38320E+06-5.94019E+05-8.25129E+04-1.64362E+06-1.84991E-09-8.52742E-09
 -1        59-4.38226E+06-6.59950E+05-4.92599E+04-1.66688E+06-2.49838E-09-6.91944E-09
 -1        60-4.39323E+06-6.09813E+05-1.92441E+04-1.64094E+06 1.37879E-09 3.81351E-09
 -1        61-4.37256E+06-6.39456E+05-1.09092E+04-1.66764E+06 4.63797E-09-9.35268E-09
 -1        62-4.39267E+06-6.14051E+05-5.20867E+03-1.64297E+06-1.04001E-09-1.03870E-08
 -1        63-4.37658E+06-6.31489E+05-4.16710E+03-1.66137E+06-9.00400E-11-1.89272E-09
 -1        64-4.38909E+06-6.17780E+05-4.68181E+03-1.64716E+06-2.54522E-09 5.88898E-09
 -1        65-4.38574E+06-6.25237E+05-9.25363E+03-1.65182E+06-3.22564E-09-1.14053E-08
 -1        66-4.38348E+06-6.20382E+05-1.62266E+04-1.65247E+06-4.79929E-09 5.55701E-10
 -1        67-4.40398E+06-6.32241E+05-4.12559E+04-1.63961E+06 1.72349E-10-2.53563E-08
 -1        68-4.37104E+06-6.11167E+05-6.91527E+04-1.65928E+06 1.47793E-09-1.41881E-10
 -1        69-4.47753E+06-7.36713E+05-1.98189E+05-1.61214E+06 1.45428E-09-5.60249E-09
 -1        70-4.31085E+06-5.18973E+05-2.93932E+05-1.67898E+06-1.84082E-09 5.09317E-09
 -1        86-1.31312E+03-2.89052E+05 9.09480E+03 4.10534E+02 1.10708E-09 1.26482E-08
 -1        87 8.68401E+03-2.83353E+05 1.90087E+04-1.58653E+03 1.84104E-09 1.50501E-08
 -1        88-7.36071E+03-2.91935E+05 2.90991E+04 1.17599E+03 2.62298E-09 4.86983E-09
 -1        89 5.48265E+04-2.62080E+05 7.84419E+04-2.91087E+03 3.97176E-09-1.35275E-08
 -1        90-4.72895E+04-3.10306E+05 1.10916E+05 1.73531E+03 3.84898E-09-1.23208E-09
 -1       121-3.40897E+02-1.03813E+06 1.28409E+02 2.97548E+02 6.46693E-10-1.54505E-08
 -1       122-1.47239E+02-1.03719E+06 5.30465E+02-1.19163E+03-2.21014E-09-2.95404E-08
 -1       123-3.91953E+02-1.03819E+06 7.45234E+02 8.90246E+02 1.84889E-09 2.85218E-09
 -1       124 8.36955E+02-1.03664E+06 2.18945E+03-2.57045E+03-4.03793E-09-6.20275E-10
 -1       125-1.00793E+03-1.03875E+06 3.24545E+03 1.67403E+03 2.88219E-09-6.65568E-09
 -1       191-2.68824E+00 2.82609E+05 8.87943E+00-4.86041E-02 8.17426E-11 1.52904E-08
 -1       192-2.99805E+00 2.82584E+05 1.54566E+01 4.36986E-01 1.31074E-10 3.39651E-08
 -1       193-4.46933E+00 2.82608E+05 2.88899E+01-3.89903E-01 1.24897E-10-5.76574E-09
 -1       194-5.15333E+00 2.82587E+05 5.84446E+01 1.04265E+00 6.20402E-11-3.89568E-08
 -1       195-7.89228E+00 2.82606E+05 1.14465E+02-6.57571E-01 1.89893E-10-1.09249E-08
 -1       251-1.09618E+06 5.13665E+03-1.22297E+04-9.31433E+03 3.26679E-10 2.67755E-09
 -1       252-1.10030E+06-5.91404E+03-8.40176E+03 1.15362E+04 8.43556E-11 1.52241E-08
 -1       253-1.09878E+06 7.37308E+02-3.30417E+03-4.76339E+03 6.08566E-10-1.98747E-09
 -1       254-1.09718E+06-8.77307E+02-1.62915E+03 8.59544E+02-9.55879E-10-5.73661E-09
 -1       255-1.09922E+06 6.17579E+01-9.44746E+02 1.36240E+03-4.13820E-11 6.72173E-10
 -1       256-1.09721E+06-8.36062E+01-1.38599E+02-1.04963E+04-4.42242E-10-1.12357E-08
 -1       257-1.09878E+06-2.10313E+01-1.13549E+02 6.59222E+03 2.81830E-10-1.06480E-08
 -1       258-1.09809E+06 1.20490E+02 3.04026E+02-1.79396E+04-3.37309E-10-8.60075E-09
 -1       259-1.09844E+06-6.90938E+01 6.05389E+02 8.80607E+03-5.23581E-10 4.23711E-09
 -1       260-1.09795E+06 5.32293E+02 1.50198E+03-1.84600E+04-2.81602E-10-7.50504E-09
 -1       261-1.09892E+06-4.25106E+02 2.50153E+03 7.11264E+03 2.22929E-09-6.32815E-09
 -1       262-1.09578E+06 3.04683E+03 6.52407E+03-1.18508E+04-2.16460E-10 7.44308E-10
 -1       263-1.10052E+06-2.64509E+03 9.92442E+03 2.19656E+03-1.04114E-09 6.70025E-09
 -1       264-1.08760E+06 1.94024E+04 2.78766E+04-8.24037E+02-1.26553E-09 2.52066E-09
 -1       265-1.10703E+06-1.67703E+04 3.88720E+04-3.91406E+03-1.54148E-09 3.35240E-09
 -1       266-3.62888E+04-1.69659E+04 8.51568E+04-9.37152E+01 9.45874E-11 9.26156E-09
 -1       267 4.20699E+04 1.97783E+04 6.01810E+04 1.08113E+02 7.45786E-11 7.93193E-10
 -1       268-5.64144E+03-2.80094E+03 2.23694E+04-1.37764E+01-6.18456E-11-5.38495E-09
 -1       269 6.66095E+03 3.35238E+03 1.45394E+04 1.60465E+01 3.72893E-11-1.33582E-08
 -1       270-9.99816E+02-5.50812E+02 7.01837E+03-2.17766E+00 2.25100E-11 8.36115E-09
 -1       271-3.41099E+06-4.26852E+05-2.59043E+05-1.32898E+06 1.23691E-09 3.09956E-09
 -1       272-3.49936E+06-6.20338E+05-1.66547E+05-1.33162E+06 6.61203E-10-1.78425E-08
 -1       273-3.46110E+06-4.90068E+05-6.12018E+04-1.31587E+06-9.66793E-10-1.26602E-09
 -1       274-3.43999E+06-5.43596E+05-3.42179E+04-1.35221E+06 2.85900E-09-7.42148E-10
 -1       275-3.46958E+06-4.94963E+05-1.42576E+04-1.31189E+06 2.67028E-09-3.06136E-09
 -1       276-3.42940E+06-5.38485E+05-7.53854E+03-1.35901E+06-3.29601E-09 1.05265E-08
 -1       277-3.47212E+06-4.93959E+05-3.70866E+03-1.30980E+06-2.66482E-10 5.52313E-09
 -1       278-3.42646E+06-5.39916E+05-2.66458E+03-1.36222E+06 2.10093E-09-2.45154E-09
 -1       279-3.47288E+06-4.93217E+05-2.84188E+03-1.30898E+06-6.84167E-10-8.15112E-09
 -1       280-3.42664E+06-5.40841E+05-5.20892E+03-1.36257E+06-1.96047E-09 2.01123E-09
 -1       281-3.47201E+06-4.93043E+05-9.48334E+03-1.30947E+06-6.50289E-11 1.46101E-08
 -1       282-3.43262E+06-5.45324E+05-2.27301E+04-1.35941E+06 1.15460E-09-4.83624E-09
 -1       283-3.46673E+06-4.89474E+05-4.05075E+04-1.31174E+06-4.09273E-11-7.97081E-09
 -1       284-3.47162E+06-5.96382E+05-1.10331E+05-1.34591E+06-8.40259E-10 9.59699E-09
 -1       285-3.43342E+06-4.47801E+05-1.71610E+05-1.32059E+06-3.01952E-10 5.66797E-09
 -1       301 2.11648E+04-5.30523E+04 1.56193E+05-1.01981E+05-4.80213E-10 6.98492E-10
 -1       302 2.22571E+04-1.35162E+04 1.03763E+05-1.49944E+05 1.16370E-09 4.75484E-09
 -1       303 1.12249E+03-3.76165E+04 8.16187E+04-1.02073E+05-5.51154E-10 7.71252E-10
 -1       304 2.77310E+04-7.83896E+03 1.22241E+05-1.49479E+05 1.07684E-09 4.05180E-09
 -1       305 2.67936E+04-5.77202E+04 1.97038E+05-1.02489E+05-7.49424E-10 7.60338E-10
 -1       306-5.67687E+06-6.12732E+05-4.29513E+05-2.14124E+06-1.63709E-10 2.29920E-09
 -1       307-5.63227E+06-1.15232E+06-2.79663E+05-2.28821E+06-2.30143E-08 1.43045E-08
 -1       308-5.82614E+06-6.64115E+05-1.00732E+05-2.01002E+06-5.80667E-09 1.82627E-08
 -1       309-5.47015E+06-1.08899E+06-5.84386E+04-2.45637E+06 1.24580E-08 8.59927E-09
 -1       310-5.85022E+06-6.64774E+05-2.27491E+04-1.98254E+06-3.91719E-09 3.45335E-09
 -1       311-5.47777E+06-1.02677E+06-9.41920E+03-2.40762E+06 2.37169E-08-9.27935E-09
 -1       312-5.81294E+06-7.29866E+05-1.22271E+04-2.05500E+06 7.57063E-09-1.74932E-08
 -1       313-5.59638E+06-8.64806E+05 4.16804E+03-2.20340E+06 4.46744E-09 2.46018E-10
 -1       314-5.71877E+06-8.35882E+05-1.59386E+04-2.17720E+06 1.05210E-08 2.66846E-09
 -1       315-5.80787E+06-6.69831E+05-6.84276E+03-1.98256E+06-1.79225E-08 1.64332E-08
 -1       316-5.60526E+06-9.22098E+05-2.95626E+04-2.27827E+06-2.58187E-08-1.51522E-08
 -1       317-5.99382E+06-5.68662E+05-6.67756E+04-1.85440E+06 2.68510E-08-1.59635E-08
 -1       318-5.54619E+06-9.28131E+05-1.12759E+05-2.31544E+06-3.31129E-08 1.80662E-08
 -1       319-6.08594E+06-7.72274E+05-3.26717E+05-1.83209E+06-5.25324E-09 5.69707E-09
 -1       320-5.51254E+06-7.22547E+05-4.88050E+05-2.29844E+06 1.71713E-08-6.98492E-10
 -1       336 5.64801E+02-1.12384E+06-6.28637E+03 2.35110E+03-1.05924E-08-1.45410E-08
 -1       337-2.31824E+03-1.12500E+06-6.92229E+03-5.80083E+03-2.01405E-08-6.56655E-09
 -1       338 3.69917E+02-1.12399E+06-9.06745E+03 3.42980E+03-1.42172E-08 1.70985E-09
 -1       339-9.35230E+03-1.12952E+06-1.97871E+04-7.91202E+03-2.58842E-08 3.69982E-09
 -1       340 6.20006E+03-1.11957E+06-3.06784E+04 4.44460E+03-1.70112E-08 9.74433E-09
 -1       406 1.88779E+01 2.82596E+05 4.67102E+02-1.15823E-01 2.96893E-10-7.64112E-09
 -1       407 1.63456E+02 2.82681E+05 9.92421E+02-4.14671E+00-8.73968E-12-1.16561E-08
 -1       408 5.11623E+02 2.82524E+05 1.98224E+03 4.36351E+00 2.94904E-10-5.43059E-09
 -1       409 2.14369E+03 2.83314E+05 4.46224E+03-4.29530E+01-6.18456E-11-1.48900E-08
 -1       410 6.15799E+03 2.81961E+05 9.10959E+03 4.04237E+01 2.57387E-10-1.24298E-08
 -1       521-8.18894E+06-7.92946E+05-7.95515E+05-2.55092E+06-6.61385E-09 1.29803E-08
 -1       522-5.64012E+06-2.10485E+06-1.99313E+05-3.96434E+06-8.61946E-08-2.65973E-08
 -1       523-8.18029E+06-3.32538E+05-1.56191E+05-1.78573E+06-3.88536E-09-4.95056E-08
 -1       524-6.02495E+06-2.28496E+06-3.47226E+04-4.98405E+06 1.34285E-07-8.19882E-08
 -1       525-8.17984E+06-3.31954E+05-4.35282E+04-1.75474E+06 8.54052E-08-5.79075E-08
 -1       526-5.55597E+06-1.94986E+06 1.37093E+05-4.11197E+06 7.12535E-08-1.99288E-08
 -1       527-8.30801E+06-9.18422E+05-2.19896E+05-2.45850E+06 7.01548E-08 5.62432E-09
 -1       528-5.72382E+06-8.93288E+05 2.77117E+05-2.30136E+06 5.05097E-08 1.28093E-08
 -1       529-7.66383E+06-1.63277E+06-2.39222E+05-3.27518E+06 2.28611E-08-1.85682E-08
 -1       530-7.76359E+06 4.21770E+05 1.62021E+05-1.30370E+06-5.61631E-08 5.56465E-08
 -1       531-6.58913E+06-1.99731E+06-6.26198E+04-3.65111E+06-1.19609E-07-1.23255E-08
 -1       532-9.32311E+06 1.02446E+06-2.90703E+04-1.21962E+06 7.15572E-08-8.87658E-08
 -1       533-6.44543E+06-2.00304E+06-1.29885E+05-3.67890E+06 2.97587E-08-1.53304E-07
 -1       534-8.31236E+06 4.27070E+05-2.01642E+05-1.21779E+06-3.98140E-08 1.14454E-07
 -1       535-7.35411E+06-1.57061E+06-7.42150E+05-3.41354E+06-1.26602E-08 7.18865E-08
 -1       536-3.89439E+05-1.92531E+04 3.39649E+04-1.32206E+04-1.73145E-09 1.97197E-08
 -1       537-3.31504E+05 2.16135E+04 3.15873E+04 3.16490E+04-3.55157E-08 3.39323E-08
 -1       538-3.61331E+05-2.12702E+03 1.01028E+04-1.92877E+04 3.45645E-09 3.70960E-08
 -1       539-3.48478E+05 3.08385E+03 8.25166E+03 3.44547E+04 4.31911E-08 3.97915E-08
 -1       540-3.72701E+05-5.54093E+02 1.23381E+02-1.60330E+04 1.63379E-09 3.46015E-08
 -1       541-3.12978E+05 1.95276E+03 1.08291E+04 1.96585E+04-3.21342E-09 2.30440E-08
 -1       542-3.95864E+05-1.78005E+03-6.69017E+03-4.47240E+03 1.63004E-09 1.44808E-08
 -1       543-2.97269E+05 2.16251E+03 1.26635E+04-5.94685E+03 4.58294E-09 5.71774E-10
 -1       544-3.87992E+05-1.10215E+03-6.07216E+03 9.55406E+03 1.20665E-08-1.22086E-08
 -1       545-3.31172E+05 9.13254E+01 4.34093E+03-2.84363E+04-7.53653E-09-2.24718E-08
 -1       546-3.62846E+05 1.00570E+03-3.08868E+03 1.80135E+04 7.53056E-09-2.76348E-08
 -1       547-3.54933E+05-3.39842E+03-5.33159E+03-3.61288E+04-2.26671E-08-2.90516E-08
 -1       548-3.64826E+05 2.86510E+03-1.17124E+04 1.72611E+04-3.20483E-08-2.34904E-08
 -1       549-3.32761E+05-1.72962E+04-2.11279E+04-2.55568E+04-2.09338E-08-6.01904E-09
 -1       550-3.84251E+05 1.42700E+04-4.78160E+04 7.42416E+03 1.44519E-09-9.47693E-09
 -1       551 1.66607E+04-5.92687E+05 2.33069E+04-9.79521E+05 1.51704E-08-1.27911E-08
 -1       552 4.06871E+04-6.05595E+05 3.16436E+04-1.41393E+06 3.66563E-08-3.92902E-10
 -1       553 2.87219E+04-6.11564E+05 4.67532E+04-9.75755E+05 1.99288E-08 6.17001E-09
 -1       554 6.83105E+04-6.01895E+05 9.84775E+04-1.41538E+06 3.72165E-08 3.83579E-09
 -1       555 5.45691E+04-6.30332E+05 1.74107E+05-9.76796E+05 1.89975E-08-1.11977E-08
 -1       556 9.99598E+04-1.85108E+05 6.27849E+04-2.34366E+05-9.69158E-09 2.79397E-09
 -1       557 1.75356E+05-2.45963E+05 3.32217E+04-2.94548E+05 2.80852E-09 2.05828E-08
 -1       558 9.82304E+04-1.92674E+05 1.30568E+04-2.27982E+05-6.11180E-09 6.02813E-09
 -1       559 1.63120E+05-2.53977E+05 6.74588E+03-3.00429E+05 5.00586E-09-4.91309E-09
 -1       560 9.47319E+04-1.90404E+05 2.57166E+03-2.30305E+05 9.74978E-10 2.82125E-09
 -1       561 1.58075E+05-2.52421E+05 1.45449E+03-3.03657E+05-7.15227E-09-9.51695E-09
 -1       562 9.19477E+04-1.88588E+05 4.45172E+02-2.32306E+05-2.22644E-09-2.42107E-09
 -1       563 1.54803E+05-2.51005E+05 3.55577E+02-3.05755E+05 1.64437E-09-5.91172E-09
 -1       564 9.01382E+04-1.87436E+05 9.81733E+01-2.33587E+05 1.40717E-08 4.86580E-09
 -1       565 1.52962E+05-2.50209E+05 1.13827E+02-3.06918E+05 1.60217E-08 1.77156E-08
 -1       566 8.93514E+04-1.86927E+05 1.62380E+01-2.34144E+05-3.84898E-09-2.33194E-09
 -1       567 1.52506E+05-2.49999E+05-5.95263E+01-3.07127E+05 3.37911E-09-1.30058E-09
 -1       568 8.96273E+04-1.87112E+05-2.95893E+02-2.34030E+05-7.69433E-09-5.39512E-09
 -1       569 1.52666E+05-2.49878E+05-7.11556E+02-3.05662E+05-1.52668E-08-7.45058E-09
 -1       570 9.16041E+04-1.88760E+05-1.66723E+03-2.33818E+05-4.62751E-09-8.26185E-09
 -1       571 2.09153E+05 7.70279E+03 1.13735E+04-5.42662E+04-1.03369E-08 1.32991E-09
 -1       572 2.10840E+05 2.70124E+03 5.57249E+03-5.95031E+04-2.00780E-08-2.86309E-09
 -1       573 2.09828E+05 6.66036E+02 2.47563E+03-5.41348E+04-1.09876E-08 1.07334E-08
 -1       574 2.10024E+05 2.40818E+02 1.24054E+03-5.96522E+04-3.31920E-09 4.80441E-09
 -1       575 2.09903E+05 5.92478E+01 5.84868E+02-5.41174E+04-2.57360E-08 8.44284E-09
 -1       576 2.09914E+05 4.17441E+01 2.98119E+02-5.96721E+04-4.31990E-08 1.34241E-09
 -1       577 2.09916E+05 2.53214E+01 1.47477E+02-5.41151E+04-3.54605E-08 1.22554E-09
 -1       578 2.09908E+05 2.92922E+01 8.17657E+01-5.96745E+04-3.45876E-08-6.34600E-09
 -1       579 2.09934E+05 1.97569E+01 5.21901E+01-5.41150E+04-1.58498E-08-6.33963E-09
 -1       580 2.09932E+05 1.87059E+01 5.26764E+01-5.96714E+04-2.96041E-09 1.66801E-09
 -1       581 2.09964E+05 7.51085E+00 7.52556E+01-5.41182E+04-3.23689E-09-4.45789E-09
 -1       582 2.09986E+05 1.99973E+01 1.46871E+02-5.96382E+04-2.63026E-09 2.42835E-09
 -1       583 2.10000E+05 5.19337E+01 2.82953E+02-5.41482E+04-2.05728E-09 4.91605E-09
 -1       584 2.10135E+05 2.74228E+02 6.35892E+02-5.93875E+04-1.95359E-09-2.53272E-09
 -1       585 2.09973E+05 8.31914E+02 1.29124E+03-5.43694E+04-1.07593E-09-4.72210E-09
 -1       586-2.48828E+03 6.91219E+04-3.14370E+03-1.86387E+05-7.84894E-10-1.47213E-09
 -1       587-5.49436E+02 6.87194E+04-1.56379E+02-2.05134E+05-3.14685E-10 1.12959E-09
 -1       588 7.22892E+02 6.87720E+04 2.71033E+03-1.86288E+05-1.05501E-10 1.41063E-09
 -1       589 3.77538E+03 7.02416E+04 7.62549E+03-2.04937E+05-2.45564E-10-3.74303E-09
 -1       590 1.09934E+04 6.79075E+04 1.62299E+04-1.86591E+05-4.65661E-10 9.24956E-10
 -1       591-4.45920E+04-1.21363E+04-1.48941E+04-2.22781E+04 1.54796E-09-4.02542E-09
 -1       592-4.62849E+04-1.54968E+04-8.06739E+03-2.58239E+04 1.71815E-09 1.44094E-08
 -1       593-4.60936E+04-1.10433E+04-3.35843E+03-2.33584E+04 6.00153E-10-5.53882E-10
 -1       594-4.42141E+04-1.33270E+04-1.67501E+03-2.59212E+04 8.78231E-10-4.13127E-09
 -1       595-4.62086E+04-1.10386E+04-7.69629E+02-2.34079E+04 2.83120E-09 4.84611E-09
 -1       596-4.40736E+04-1.32277E+04-3.92129E+02-2.59061E+04 1.52284E-08 6.48649E-09
 -1       597-4.62232E+04-1.10483E+04-2.15436E+02-2.34098E+04 4.81342E-09-6.31655E-09
 -1       598-4.40600E+04-1.32239E+04-1.76690E+02-2.59019E+04-3.63798E-12-9.99285E-09
 -1       599-4.62220E+04-1.10485E+04-2.30084E+02-2.34094E+04 8.37872E-10-5.24062E-09
 -1       600-4.40747E+04-1.32289E+04-4.30923E+02-2.59054E+04 2.19757E-09-1.23812E-08
 -1       601-4.62039E+04-1.10383E+04-8.51962E+02-2.34065E+04 3.10069E-09-2.15550E-09
 -1       602-4.42302E+04-1.33388E+04-1.85770E+03-2.59198E+04 1.58764E-09 8.67703E-09
 -1       603-4.60746E+04-1.10456E+04-3.72601E+03-2.33519E+04-2.45404E-09 5.54155E-09
 -1       604-4.65365E+04-1.57359E+04-8.95040E+03-2.57984E+04-1.95212E-09 3.36740E-10
 -1       605-4.43971E+04-1.22672E+04-1.65242E+04-2.21633E+04 1.24192E-09 6.09452E-09
 -1       606 2.76468E+04-1.00532E+04-1.80852E+04 2.68235E+04-2.87673E-09-6.90397E-09
 -1       607 2.45505E+04-3.25066E+03-9.00540E+03 3.01135E+04 4.65661E-10-1.23744E-08
 -1       608 2.63058E+04-5.55729E+02-4.03286E+03 2.66115E+04 3.61069E-09-1.45151E-08
 -1       609 2.59569E+04-1.51885E+02-2.03683E+03 3.03496E+04-8.54925E-10-1.07048E-09
 -1       610 2.61425E+04 1.76588E+01-9.72967E+02 2.65876E+04-4.41651E-09-5.79507E-09
 -1       611 2.60771E+04 3.04013E+01-4.90603E+02 3.03753E+04-1.03864E-08 5.74960E-09
 -1       612 2.60983E+04 3.42373E+01-2.34596E+02 2.65853E+04-4.25644E-09-5.03405E-09
 -1       613 2.60738E+04 3.97104E+01-1.06442E+02 3.03784E+04-4.94310E-09-9.88507E-09
 -1       614 2.60739E+04 3.53969E+01-2.87273E+01 2.65845E+04 2.48292E-10 8.13657E-09
 -1       615 2.60609E+04 4.57765E+01 3.58666E+01 3.03788E+04 6.17410E-09 2.91220E-09
 -1       616 2.60553E+04 4.17134E+01 1.15543E+02 2.65848E+04-1.61981E-09-8.86439E-09
 -1       617 2.60680E+04 7.46456E+01 2.66958E+02 3.03783E+04-4.11546E-09 3.27645E-10
 -1       618 2.60270E+04 1.21932E+02 5.39196E+02 2.65849E+04-8.14453E-10 9.77479E-10
 -1       619 2.62542E+04 4.94247E+02 1.21164E+03 3.03775E+04 4.63842E-11-1.03948E-08
 -1       620 2.58452E+04 1.40306E+03 2.43552E+03 2.65838E+04 3.53862E-09 3.03453E-09
 -1       621 3.02226E+02 2.20605E+05 2.70339E+03 1.12492E+04-1.68484E-10-4.91582E-10
 -1       622 3.56017E+02 2.21271E+05 2.39853E+03 1.63930E+04-6.99174E-11-7.52016E-09
 -1       623 1.73631E+01 2.20779E+05 2.89362E+03 1.11958E+04-1.53534E-10 1.97497E-09
 -1       624 1.34851E+03 2.22175E+05 5.61295E+03 1.64466E+04-2.02164E-10 3.05590E-09
 -1       625 1.35539E+03 2.19685E+05 9.81347E+03 1.11955E+04-6.18456E-11 1.56206E-09
 -1       626 1.88259E+05 5.08008E+04 3.91963E+03 9.98426E+04-3.83261E-09-9.26957E-09
 -1       627 1.85873E+05 5.24807E+04 1.88884E+03 1.03796E+05-9.63610E-10 5.37875E-09
 -1       628 1.88390E+05 4.89646E+04 7.97853E+02 1.00454E+05 4.48108E-09 1.06359E-08
 -1       629 1.85326E+05 5.20147E+04 3.90915E+02 1.04030E+05 3.84307E-09-5.90967E-09
 -1       630 1.88397E+05 4.88784E+04 1.80626E+02 1.00472E+05 2.22735E-09 7.55517E-09
 -1       631 1.85260E+05 5.20030E+04 9.68440E+01 1.04031E+05 2.23736E-10-2.08088E-09
 -1       632 1.88387E+05 4.88855E+04 6.31283E+01 1.00463E+05-2.47383E-09-6.39136E-09
 -1       633 1.85246E+05 5.20084E+04 6.94596E+01 1.04023E+05-3.69982E-09 1.16279E-08
 -1       634 1.88377E+05 4.88865E+04 1.11405E+02 1.00459E+05-1.38698E-10-1.09492E-08
 -1       635 1.85251E+05 5.20099E+04 2.25195E+02 1.04023E+05 2.92994E-09-4.73119E-09
 -1       636 1.88366E+05 4.88853E+04 4.54494E+02 1.00456E+05-1.20548E-09 3.54453E-09
 -1       637 1.85345E+05 5.20819E+04 9.98771E+02 1.04019E+05 2.60519E-09 1.39107E-09
 -1       638 1.88327E+05 4.91075E+04 2.05242E+03 1.00354E+05 1.37470E-09-5.65842E-09
 -1       639 1.86420E+05 5.35821E+04 4.85546E+03 1.03700E+05 2.76395E-09 1.10895E-08
 -1       640 1.88183E+05 5.35777E+04 1.00761E+04 9.84581E+04 3.09774E-09 1.18739E-08
 -1       656 5.03085E+04-1.27593E+06-1.21443E+05-4.30054E+02 0.00000E+00-7.03076E-09
 -1       657-6.64957E+04-1.33075E+06-1.00472E+05 7.58292E+03 5.78439E-10-1.15072E-10
 -1       658 1.59724E+04-1.29155E+06-6.17048E+04-1.76815E+03 2.52271E-10-4.67386E-09
 -1       659-7.14345E+04-1.33309E+06-1.06959E+05 8.51273E+03-3.78350E-10-7.31379E-09
 -1       660 5.52358E+04-1.27359E+06-1.32599E+05-1.35985E+03-5.09317E-10-2.11453E-09
 -1       661 1.68395E+05 1.82565E+04 1.63784E+04 6.58413E+04 1.75987E-09 6.37283E-09
 -1       662 1.77062E+05 3.09686E+04 1.10365E+04 6.28409E+04 1.90266E-09-9.09404E-09
 -1       663 1.71608E+05 2.35142E+04 3.86056E+03 6.49122E+04 3.45608E-11-3.43175E-09
 -1       664 1.73342E+05 2.48158E+04 2.30834E+03 6.39721E+04 8.26503E-11 7.85803E-10
 -1       665 1.72090E+05 2.42366E+04 9.10572E+02 6.47754E+04-9.40474E-10-1.59599E-09
 -1       666 1.72774E+05 2.39863E+04 5.31341E+02 6.41483E+04-9.10813E-09 6.91048E-09
 -1       667 1.72172E+05 2.43219E+04 2.80492E+02 6.47441E+04-1.34605E-09 7.90413E-09
 -1       668 1.72686E+05 2.39205E+04 2.81851E+02 6.41938E+04 1.84890E-09 2.87341E-09
 -1       669 1.72178E+05 2.43004E+04 3.78323E+02 6.47306E+04 3.96963E-09 3.29882E-09
 -1       670 1.72780E+05 2.41224E+04 8.20781E+02 6.41947E+04 4.99167E-09-2.57579E-09
 -1       671 1.72079E+05 2.41241E+04 1.45633E+03 6.47415E+04-8.16982E-11 1.36782E-09
 -1       672 1.73628E+05 2.55391E+04 3.72518E+03 6.39897E+04-8.03389E-10-1.09992E-09
 -1       673 1.71334E+05 2.29193E+04 6.24249E+03 6.49219E+04-1.78193E-09-6.63476E-10
 -1       674 1.79571E+05 3.55665E+04 1.78521E+04 6.22423E+04-1.95405E-09-1.19489E-08
 -1       675 1.66174E+05 1.43772E+04 2.64984E+04 6.63832E+04-6.14818E-10-7.15227E-09
 -1       676 2.00474E+01-2.40629E+05-9.31046E+02 2.79399E+01-1.29262E-10-6.07275E-09
 -1       677-2.47202E+02-2.40854E+05-1.70393E+03-5.58479E+01-1.53256E-09-1.20471E-08
 -1       678 1.65053E+02-2.40468E+05-3.01211E+03 2.78889E+01 5.49221E-10 3.89946E-09
 -1       679-3.01288E+03-2.42672E+05-7.15532E+03-5.56523E+01-1.84127E-09 1.31916E-08
 -1       680 1.79811E+03-2.38811E+05-1.15320E+04 2.74268E+01 1.86446E-10 4.23160E-09
 -1       771-2.56480E+06-4.91828E+05-6.92187E+04-1.11014E+06-1.44792E-08-1.38243E-08
 -1       772-2.53480E+06-5.36242E+05-3.65985E+04-1.16041E+06-1.13796E-08 2.60843E-09
 -1       773-2.57625E+06-4.82789E+05-1.68016E+04-1.11413E+06-3.49246E-09 5.86442E-09
 -1       774-2.52635E+06-5.28911E+05-7.90532E+03-1.16784E+06 1.15833E-08-2.51021E-10
 -1       775-2.58041E+06-4.79857E+05-4.70349E+03-1.11504E+06-9.51695E-09-1.02627E-08
 -1       776-2.52770E+06-5.28874E+05-1.97295E+03-1.17266E+06-5.76256E-09 2.47383E-09
 -1       777-2.58372E+06-4.77412E+05-1.67671E+03-1.11580E+06-3.34694E-10 2.59752E-09
 -1       778-2.52952E+06-5.28978E+05-5.78268E+02-1.17673E+06-1.68438E-09 4.86398E-09
 -1       779-2.58646E+06-4.75330E+05-7.72121E+02-1.11646E+06-3.61615E-09-3.63434E-09
 -1       780-2.53116E+06-5.29029E+05-2.78489E+02-1.18002E+06-1.78625E-09 4.74756E-10
 -1       781-2.58858E+06-4.73677E+05-5.32004E+02-1.11698E+06-1.12050E-08-1.10322E-09
 -1       782-2.53247E+06-5.29059E+05-5.32711E+02-1.18244E+06-1.75205E-08-3.61479E-09
 -1       783-2.59001E+06-4.72562E+05-1.09579E+03-1.11733E+06-4.16185E-09-6.54973E-09
 -1       784-2.53387E+06-5.29688E+05-2.40089E+03-1.18388E+06-9.46602E-09 4.40195E-10
 -1       785-2.59030E+06-4.72316E+05-4.48029E+03-1.11720E+06-1.64546E-08 3.24144E-09
 -1       786 1.59378E+05-9.46642E+03 2.19007E+04-7.29819E+01 1.54382E-09 8.31915E-09
 -1       787 1.68870E+05 1.09592E+04 1.54941E+04 1.70529E+01 1.97492E-09 5.69548E-09
 -1       788 1.63039E+05-1.48394E+03 5.66790E+03-5.53669E+01 1.33651E-09 1.61026E-09
 -1       789 1.64605E+05 1.71694E+03 3.56042E+03-1.18903E+01-1.82427E-10 4.20926E-10
 -1       790 1.63644E+05-2.31726E+02 1.44696E+03-4.40411E+01-4.17365E-10 1.28619E-08
 -1       791 1.63899E+05 2.68729E+02 8.46144E+02-3.24967E+01-1.06475E-09 1.29547E-08
 -1       792 1.63745E+05-3.68164E+01 3.79449E+02-3.47606E+01-7.72691E-10-4.32011E-09
 -1       793 1.63783E+05 4.84507E+01 2.34946E+02-5.16714E+01 5.93709E-10-2.62999E-09
 -1       794 1.63760E+05-1.15908E+01 1.53085E+02-2.48661E+01 6.79111E-10-2.79956E-09
 -1       795 1.63783E+05 5.18244E+01 1.91158E+02-7.47471E+01-9.28855E-11 8.41213E-10
 -1       796 1.63746E+05-4.01845E+01 2.68021E+02-1.16844E+01 5.49349E-10-4.04626E-09
 -1       797 1.63899E+05 2.92763E+02 6.16823E+02-1.07930E+02 6.32726E-10-1.10561E-08
 -1       798 1.63643E+05-2.52354E+02 9.68722E+02 8.31707E+00-9.85265E-11 3.11428E-09
 -1       799 1.64625E+05 1.86305E+03 2.63661E+03-1.60244E+02-3.12186E-10-1.29111E-09
 -1       800 1.63020E+05-1.60922E+03 3.72302E+03 4.06311E+01 1.82482E-10 5.40695E-10
 -1       801 4.91313E+04-1.82648E+06-1.65321E+05 3.43381E+04 1.54832E-08-3.42197E-09
 -1       802-5.45124E+04-1.65677E+06-6.20447E+04-6.35672E+04 4.18531E-08-1.25551E-08
 -1       803 4.76947E+03-1.73613E+06-7.77500E+03 8.66496E+04 3.21779E-08 2.72153E-08
 -1       804 5.46768E+04-1.60182E+06 8.18285E+04-4.42818E+04 3.48500E-08 3.01561E-08
 -1       805-6.07815E+04-1.88080E+06 8.04048E+04 1.50444E+04 1.31040E-08 2.21569E-08
 -1       806-2.28927E+05-4.61092E+04-1.81002E+04-9.23282E+04-3.32238E-09-1.02546E-08
 -1       807-2.30258E+05-4.32499E+04-8.89236E+03-9.68211E+04 3.60058E-09 1.31348E-09
 -1       808-2.29425E+05-3.95856E+04-3.77223E+03-9.54140E+04 1.26101E-09 1.89772E-09
 -1       809-2.28377E+05-4.07633E+04-1.84434E+03-9.70554E+04 4.82942E-10 1.16402E-08
 -1       810-2.29502E+05-3.93570E+04-8.44796E+02-9.55505E+04 3.13958E-09 1.63075E-08
 -1       811-2.28233E+05-4.06639E+04-4.19431E+02-9.70306E+04 7.29869E-11 8.83836E-09
 -1       812-2.29515E+05-3.93751E+04-2.10394E+02-9.55502E+04-1.43882E-09 3.64480E-10
 -1       813-2.28213E+05-4.06660E+04-1.34270E+02-9.70178E+04-4.02861E-09-1.03377E-08
 -1       814-2.29512E+05-3.93819E+04-1.28705E+02-9.55473E+04 1.56888E-10-3.89286E-09
 -1       815-2.28216E+05-4.06679E+04-2.03869E+02-9.70138E+04 4.43083E-09 4.20300E-09
 -1       816-2.29498E+05-3.93806E+04-3.83740E+02-9.55448E+04 7.61247E-10 4.53883E-09
 -1       817-2.28282E+05-4.07045E+04-8.23116E+02-9.70066E+04-7.69887E-10 3.19005E-10
 -1       818-2.29449E+05-3.94959E+04-1.67801E+03-9.54901E+04 4.85124E-09 7.76254E-10
 -1       819-2.29204E+05-4.17156E+04-3.94896E+03-9.67873E+04-1.13869E-09-4.20459E-09
 -1       820-2.29135E+05-4.24774E+04-8.03707E+03-9.42134E+04-4.79849E-09 5.00563E-10
 -1       821-2.88569E+05 1.59622E+04-3.69152E+04 2.42293E+02 9.12367E-10-8.13452E-09
 -1       822-3.04563E+05-1.84789E+04-2.61226E+04-9.26506E+02-1.59391E-09-4.60113E-09
 -1       823-2.94740E+05 2.50280E+03-9.56086E+03 2.46256E+02 2.76801E-11-1.94495E-09
 -1       824-2.97359E+05-2.89655E+03-6.01478E+03-7.63288E+02 3.39258E-11-3.92856E-09
 -1       825-2.95770E+05 3.91518E+02-2.47422E+03 7.90734E+01-1.42221E-09 7.46275E-09
 -1       826-2.96156E+05-4.61449E+02-1.48944E+03-3.31773E+02-3.67526E-09 1.19037E-08
 -1       827-2.95942E+05 6.90512E+01-7.76238E+02-1.85266E+02-3.42555E-09-1.05928E-09
 -1       828-2.95995E+05-1.40819E+02-6.81748E+02 1.79956E+02-4.39895E-09-1.62048E-09
 -1       829-2.95931E+05 7.11862E+01-7.89874E+02-4.32665E+02-4.02878E-12 5.21229E-09
 -1       830-2.96190E+05-4.76650E+02-1.54007E+03 5.50807E+02 1.52895E-09 6.06641E-09
 -1       831-2.95748E+05 4.05097E+02-2.55302E+03-5.56125E+02-2.97139E-09 8.99831E-09
 -1       832-2.97421E+05-2.99446E+03-6.22144E+03 6.20988E+02-1.28528E-09 9.17407E-09
 -1       833-2.94701E+05 2.58730E+03-9.88774E+03-5.02846E+02-2.54225E-10-6.22413E-09
 -1       834-3.04839E+05-1.91079E+04-2.70110E+04 3.60699E+02 3.90056E-10-4.03634E-09
 -1       835-2.88332E+05 1.65058E+04-3.81803E+04-2.95823E+02 6.28556E-09 4.38922E-09
 -1       836-9.70401E+02 2.71792E+05 1.64447E+04-2.01048E+04 8.36735E-10 1.53595E-08
 -1       837 3.60183E+03 2.76894E+05 1.40555E+04-4.03958E+04 1.26488E-09 1.09428E-08
 -1       838-3.63430E+02 2.73205E+05 1.45160E+04-2.00333E+04 1.29012E-09 6.14273E-09
 -1       839 9.30888E+03 2.81146E+05 2.76516E+04-4.04281E+04 1.90266E-09 8.53266E-09
 -1       840-2.81000E+03 2.67497E+05 4.41756E+04-2.00712E+04 1.17689E-09 1.99248E-09
 -1       856-8.02442E+04 7.44783E+03-1.96273E+04-4.31062E+02-2.87832E-09-3.05590E-10
 -1       857-8.83496E+04-8.73620E+03-1.35127E+04 4.57891E+03 7.19638E-10-4.24802E-09
 -1       858-8.34472E+04 1.04357E+03-5.09372E+03-4.52550E+02-3.82022E-09-1.67324E-09
 -1       859-8.46719E+04-1.21394E+03-3.07599E+03 4.61304E+03-1.80904E-09 1.25306E-08
 -1       860-8.39259E+04 1.45161E+02-1.29272E+03-4.65296E+02 1.24038E-09-3.52901E-09
 -1       861-8.41206E+04-1.60638E+02-7.18664E+02 4.63049E+03-5.80627E-09-1.73646E-08
 -1       862-8.40005E+04 1.91765E+01-3.13820E+02-4.70035E+02 4.37056E-09-6.74244E-09
 -1       863-8.40319E+04-1.11456E+01-1.48551E+02 4.63269E+03 9.62334E-09 1.15961E-10
 -1       864-8.40149E+04-1.02561E+00-3.32458E+01-4.67495E+02 4.60986E-09-5.48793E-09
 -1       865-8.40015E+04 3.00219E+01 6.53885E+01 4.61977E+03 5.55974E-09-1.45616E-08
 -1       866-8.40293E+04-2.24332E+01 1.71288E+02-4.57119E+02-6.61373E-10-6.32102E-09
 -1       867-8.39101E+04 1.87300E+02 4.47156E+02 4.59158E+03 9.05430E-10 4.92212E-09
 -1       868-8.41028E+04-1.56706E+02 7.48978E+02-4.39303E+02 1.17979E-09 6.68328E-09
 -1       869-8.33529E+04 1.30139E+03 2.00397E+03 4.54497E+03-3.33131E-09-1.39484E-08
 -1       870-8.45812E+04-1.10807E+03 2.90661E+03-4.10508E+02 1.73270E-09 4.86239E-09
 -1       871-4.29217E+03-9.72736E+03-1.40100E+04 9.24581E+04 1.99452E-09 3.85353E-09
 -1       872-1.84184E+03-1.28766E+04-5.73149E+03 1.19869E+05 2.82853E-09 2.43381E-09
 -1       873-1.89329E+01-1.14051E+04 7.62755E+02 9.22552E+04 1.26056E-09 3.43334E-10
 -1       874 2.15504E+03-9.40258E+03 7.82245E+03 1.19908E+05 2.36037E-09 1.29940E-08
 -1       875 5.05290E+03-1.32605E+04 1.73828E+04 9.24254E+04 1.60617E-09-4.34920E-09
 -1       876 2.26313E+05 3.88732E+04 1.20080E+04 9.16785E+04 3.44778E-09 4.96129E-09
 -1       877 2.27018E+05 4.14908E+04 6.41259E+03 9.52095E+04 4.78485E-09 9.60699E-09
 -1       878 2.27434E+05 3.75445E+04 2.68656E+03 9.26647E+04 5.15274E-09 7.44399E-09
 -1       879 2.25384E+05 3.98636E+04 1.33838E+03 9.52936E+04 3.55533E-09 1.64573E-09
 -1       880 2.27516E+05 3.75300E+04 6.23156E+02 9.27049E+04 3.47518E-09 5.37602E-09
 -1       881 2.25276E+05 3.97944E+04 3.32100E+02 9.52761E+04 4.70152E-09-9.02844E-10
 -1       882 2.27524E+05 3.75400E+04 2.11296E+02 9.27060E+04-2.76304E-09 3.47720E-09
 -1       883 2.25268E+05 3.97910E+04 2.25275E+02 9.52710E+04-8.39520E-09 9.41580E-09
 -1       884 2.27519E+05 3.75376E+04 3.56654E+02 9.27061E+04-4.14957E-09 8.85598E-09
 -1       885 2.25296E+05 3.97961E+04 7.16008E+02 9.52799E+04 3.09043E-09 5.04838E-09
 -1       886 2.27491E+05 3.75167E+04 1.44258E+03 9.27033E+04 1.01383E-09-5.84521E-09
 -1       887 2.25550E+05 3.99623E+04 3.15095E+03 9.53164E+04-2.12970E-09 1.78488E-10
 -1       888 2.27292E+05 3.75517E+04 6.34921E+03 9.26024E+04-7.72133E-10-2.37060E-09
 -1       889 2.29333E+05 4.38907E+04 1.51676E+04 9.51972E+04 2.73005E-09 2.13799E-09
 -1       890 2.24706E+05 4.06245E+04 2.84079E+04 9.01802E+04 2.19052E-09 6.91944E-09
 -1       891-1.35775E+02-1.28052E+05-1.52331E+03 2.38354E+04 1.31115E-09 8.09359E-09
 -1       892-2.37514E+02-1.28419E+05-1.65265E+03 3.60772E+04 1.20690E-09 5.45151E-09
 -1       893-3.50288E+01-1.28099E+05-2.35720E+03 2.38403E+04 6.43695E-10 3.84216E-09
 -1       894-1.28047E+03-1.29318E+05-4.89093E+03 3.59482E+04-1.00636E-09 8.77048E-09
 -1       895-1.00292E+03-1.27080E+05-8.61789E+03 2.39628E+04-9.90894E-10 1.37243E-09
 -1       956-2.85639E+05-4.06923E+03-1.02333E+04 1.92659E+04-4.49927E-09-6.67160E-09
 -1       957-2.87659E+05-1.37553E+03-5.25330E+03 2.32012E+04-5.28917E-09-6.54245E-09
 -1       958-2.86548E+05-1.12527E+02-2.36682E+03 1.91446E+04-1.03500E-09-8.97990E-09
 -1       959-2.86709E+05-2.20752E+01-1.20890E+03 2.33333E+04-1.92790E-09 9.80845E-09
 -1       960-2.86630E+05 3.16304E+01-5.89349E+02 1.91329E+04-2.01298E-08 1.04365E-10
 -1       961-2.86640E+05 2.94981E+01-3.12621E+02 2.33467E+04-3.71244E-08 6.23004E-10
 -1       962-2.86647E+05 2.79496E+01-1.78855E+02 1.91311E+04-1.81792E-08-1.00340E-09
 -1       963-2.86638E+05 3.10691E+01-1.43391E+02 2.33491E+04-3.17698E-09 7.64430E-10
 -1       964-2.86651E+05 3.00932E+01-1.73875E+02 1.91304E+04-4.65081E-09-8.49332E-09
 -1       965-2.86648E+05 3.41316E+01-3.00293E+02 2.33491E+04-3.19380E-09-9.64451E-09
 -1       966-2.86641E+05 3.79796E+01-5.63641E+02 1.91311E+04 1.24487E-10 9.18249E-10
 -1       967-2.86722E+05-1.06623E+01-1.15599E+03 2.33413E+04 9.21125E-09 8.56949E-09
 -1       968-2.86569E+05-9.55978E+01-2.26229E+03 1.91383E+04 7.31779E-09 1.11278E-08
 -1       969-2.87638E+05-1.30089E+03-5.02292E+03 2.32573E+04 3.53975E-09 9.01488E-09
 -1       970-2.85705E+05-3.87614E+03-9.78373E+03 1.92172E+04 6.64841E-10 1.13432E-08
 -1       971-2.69412E+05-1.40871E+03-7.81660E+03 1.29231E+04-5.15411E-09-3.47598E-10
 -1       972-2.71311E+05-1.01100E+03-4.25687E+03 1.80412E+04-3.41970E-09-4.13218E-09
 -1       973-2.70281E+05-1.14879E+01-1.90621E+03 1.28154E+04-1.11459E-09-4.70527E-09
 -1       974-2.70412E+05-1.18579E+01-9.87560E+02 1.81580E+04-1.20963E-10-2.66925E-09
 -1       975-2.70349E+05 2.53189E+01-4.92671E+02 1.28055E+04-4.17458E-09 1.92335E-09
 -1       976-2.70359E+05 2.92679E+01-2.82480E+02 1.81701E+04-1.32688E-08-1.33581E-08
 -1       977-2.70362E+05 2.52648E+01-2.01879E+02 1.28032E+04-4.69595E-09-8.85836E-09
 -1       978-2.70363E+05 3.39481E+01-2.31962E+02 1.81734E+04 9.14571E-09-9.29549E-09
 -1       979-2.70362E+05 3.16067E+01-3.69009E+02 1.28022E+04 4.31385E-10-5.25404E-09
 -1       980-2.70390E+05 3.62514E+01-7.10203E+02 1.81739E+04-3.45773E-09 6.29893E-09
 -1       981-2.70339E+05 4.92938E+01-1.37429E+03 1.28026E+04-2.00896E-09 9.24592E-09
 -1       982-2.70578E+05-6.52163E+01-2.83994E+03 1.81685E+04-4.62148E-09-2.37262E-09
 -1       983-2.70166E+05-3.85939E+01-5.51767E+03 1.28079E+04-1.11345E-09 6.92944E-09
 -1       984-2.73232E+05-2.94670E+03-1.23560E+04 1.80954E+04-1.85810E-09 7.13328E-09
 -1       985-2.67668E+05-4.07605E+03-2.26897E+04 1.28802E+04 1.59798E-09-6.76664E-10
 -3
    1PSTEP                        15           8           1          
  100CL  108 5.62500E-01         409                     0    8           1
 -4  DISP        4    1
 -5  D1          1    2    1    0
 -5  D2          1    2    2    0
 -5  D3          1    2    3    0
 -5  ALL         1    2    0    0    1ALL
 -1         1 3.20257E-04 0.00000E+00 0.00000E+00
 -1         2 2.88694E-04 4.64040E-30 0.00000E+00
 -1         3 1.95216E-04-1.65541E-27-1.32349E-23
 -1         5 1.22501E-04 4.91970E-27-3.30872E-24
 -1         8 2.96017E-04-8.03089E-07 0.00000E+00
 -1         9 2.83412E-04-1.33892E-06 0.00000E+00
 -1        10 1.79051E-04-2.59166E-06 0.00000E+00
 -1        12 1.22447E-04 6.19345E-07 0.00000E+00
 -1        15 2.67024E-04-8.93087E-07 2.06795E-25
 -1        16 2.73076E-04-1.65716E-06 0.00000E+00
 -1        17 1.28257E-04-5.56999E-06 0.00000E+00
 -1        18 1.21045E-04 7.89762E-06 0.00000E+00
 -1        19 1.22287E-04 1.23555E-06 0.00000E+00
 -1        20 1.22435E-04 1.09539E-05 0.00000E+00
 -1        21 1.21796E-04 1.90087E-05 3.30872E-24
 -1        24 2.38991E-05-7.87761E-06 0.00000E+00
 -1        25 1.22217E-04 8.04477E-06 0.00000E+00
 -1        26 1.23003E-04 1.71280E-06 0.00000E+00
 -1        27 1.21296E-04 8.14261E-06 0.00000E+00
 -1        28 1.20848E-04 1.84853E-05 0.00000E+00
 -1        32 0.00000E+00 0.00000E+00 0.00000E+00
 -1        33 1.22559E-04 2.29552E-06 0.00000E+00
 -1        34 1.20869E-04 8.11493E-06 0.00000E+00
 -1        35 1.19286E-04 1.82057E-05 0.00000E+00
 -1        51 3.18688E-04-1.35753E-07 0.00000E+00
 -1        52 3.15772E-04-2.63912E-07 0.00000E+00
 -1        53 3.11774E-04-3.92733E-07 0.00000E+00
 -1        54 3.06966E-04-5.24016E-07 0.00000E+00
 -1        55 3.01622E-04-6.58786E-07-5.79026E-24
 -1        56 3.18302E-04-7.96678E-07-2.64698E-23
 -1        57 3.16307E-04-1.70558E-06-2.64698E-23
 -1        58 3.14325E-04-2.63662E-06 5.29396E-23
 -1        59 3.12316E-04-3.53304E-06 0.00000E+00
 -1        60 3.10269E-04-4.33111E-06 5.29396E-23
 -1        61 3.08163E-04-4.97701E-06 2.64698E-23
 -1        62 3.05985E-04-5.43066E-06 0.00000E+00
 -1        63 3.03722E-04-5.66194E-06 0.00000E+00
 -1        64 3.01373E-04-5.66200E-06-5.29396E-23
 -1        65 2.98938E-04-5.43305E-06 2.64698E-23
 -1        66 2.96426E-04-4.99955E-06 0.00000E+00
 -1        67 2.93852E-04-4.39518E-06 2.64698E-23
 -1        68 2.91233E-04-3.67115E-06 0.00000E+00
 -1        69 2.88601E-04-2.88013E-06 0.00000E+00
 -1        70 2.85965E-04-2.08981E-06 0.00000E+00
 -1        86 2.88521E-04-2.18430E-07 6.61744E-24
 -1        87 2.88002E-04-4.37451E-07 0.00000E+00
 -1        88 2.87179E-04-6.56738E-07 6.61744E-24
 -1        89 2.86091E-04-8.79272E-07 0.00000E+00
 -1        90 2.84812E-04-1.10101E-06-1.32349E-23
 -1       121 1.94763E-04-4.27276E-07 1.32349E-23
 -1       122 1.93406E-04-8.55347E-07 0.00000E+00
 -1       123 1.91148E-04-1.28499E-06 1.32349E-23
 -1       124 1.87997E-04-1.71706E-06 0.00000E+00
 -1       125 1.83960E-04-2.15215E-06 0.00000E+00
 -1       191 1.22499E-04 1.03228E-07 0.00000E+00
 -1       192 1.22495E-04 2.06454E-07 1.65436E-24
 -1       193 1.22487E-04 3.09681E-07 0.00000E+00
 -1       194 1.22477E-04 4.12907E-07 0.00000E+00
 -1       195 1.22464E-04 5.16129E-07-3.30872E-24
 -1       251 2.95419E-04 9.36458E-06 0.00000E+00
 -1       252 2.94657E-04 3.00202E-05 0.00000E+00
 -1       253 2.93740E-04 5.75848E-05-1.32349E-23
 -1       254 2.92733E-04 8.83214E-05 6.61744E-24
 -1       255 2.91765E-04 1.17652E-04 1.32349E-23
 -1       256 2.90947E-04 1.41030E-04 0.00000E+00
 -1       257 2.90287E-04 1.55489E-04-1.32349E-23
 -1       258 2.89723E-04 1.58264E-04 0.00000E+00
 -1       259 2.89128E-04 1.49666E-04 0.00000E+00
 -1       260 2.88388E-04 1.30271E-04 6.61744E-24
 -1       261 2.87490E-04 1.03502E-04 1.32349E-23
 -1       262 2.86487E-04 7.29455E-05 0.00000E+00
 -1       263 2.85506E-04 4.31980E-05 0.00000E+00
 -1       264 2.84666E-04 1.88359E-05 0.00000E+00
 -1       265 2.83985E-04 3.00555E-06 0.00000E+00
 -1       266 2.91185E-04-8.29453E-07 0.00000E+00
 -1       267 2.86353E-04-8.43068E-07-1.65436E-24
 -1       268 2.81521E-04-8.57490E-07 1.65436E-24
 -1       269 2.76688E-04-8.69520E-07 4.13590E-25
 -1       270 2.71856E-04-8.81493E-07 0.00000E+00
 -1       271 2.93139E-04 3.09534E-06-2.64698E-23
 -1       272 2.90560E-04 6.08053E-06 1.32349E-23
 -1       273 2.88307E-04 8.21243E-06 2.64698E-23
 -1       274 2.86347E-04 9.54637E-06 2.64698E-23
 -1       275 2.84660E-04 1.01562E-05 0.00000E+00
 -1       276 2.83212E-04 1.01250E-05 0.00000E+00
 -1       277 2.81969E-04 9.54735E-06 5.29396E-23
 -1       278 2.80892E-04 8.52632E-06-2.64698E-23
 -1       279 2.79939E-04 7.17259E-06 0.00000E+00
 -1       280 2.79068E-04 5.60221E-06 2.64698E-23
 -1       281 2.78232E-04 3.93481E-06 5.29396E-23
 -1       282 2.77389E-04 2.29173E-06-2.64698E-23
 -1       283 2.76492E-04 7.93680E-07 2.64698E-23
 -1       284 2.75500E-04-4.39513E-07 1.32349E-23
 -1       285 2.74366E-04-1.29567E-06 2.64698E-23
 -1       301 2.81567E-04-1.40837E-06 1.32349E-23
 -1       302 2.79514E-04-1.45342E-06-3.30872E-24
 -1       303 2.77445E-04-1.49704E-06 0.00000E+00
 -1       304 2.75554E-04-1.54064E-06 0.00000E+00
 -1       305 2.74034E-04-1.58555E-06 0.00000E+00
 -1       306 2.91035E-04-3.07348E-05 0.00000E+00
 -1       307 3.16880E-04-1.18372E-04 0.00000E+00
 -1       308 3.54322E-04-2.49558E-04 5.29396E-23
 -1       309 3.97475E-04-4.05769E-04 0.00000E+00
 -1       310 4.40707E-04-5.62337E-04 0.00000E+00
 -1       311 4.78384E-04-6.94561E-04 0.00000E+00
 -1       312 5.04649E-04-7.83736E-04 5.29396E-23
 -1       313 5.12811E-04-8.14943E-04 0.00000E+00
 -1       314 4.98624E-04-7.86531E-04-5.29396E-23
 -1       315 4.59541E-04-7.01599E-04 0.00000E+00
 -1       316 3.99860E-04-5.75079E-04 5.29396E-23
 -1       317 3.27061E-04-4.24347E-04 0.00000E+00
 -1       318 2.53138E-04-2.71583E-04 0.00000E+00
 -1       319 1.90304E-04-1.39046E-04 0.00000E+00
 -1       320 1.46900E-04-4.50263E-05 0.00000E+00
 -1       336 1.73168E-04-3.07001E-06 1.32349E-23
 -1       337 1.66215E-04-3.55553E-06 6.61744E-24
 -1       338 1.58216E-04-4.04838E-06 1.32349E-23
 -1       339 1.49201E-04-4.54863E-06 0.00000E+00
 -1       340 1.39202E-04-5.05793E-06 0.00000E+00
 -1       406 1.22428E-04 7.22549E-07 0.00000E+00
 -1       407 1.22406E-04 8.25721E-07 1.65436E-24
 -1       408 1.22381E-04 9.28831E-07 0.00000E+00
 -1       409 1.22352E-04 1.03176E-06 1.65436E-24
 -1       410 1.22321E-04 1.13430E-06 0.00000E+00
 -1       521 2.83599E-04-4.20279E-05 0.00000E+00
 -1       522 3.16570E-04-1.59069E-04 0.00000E+00
 -1       523 3.62914E-04-3.33699E-04 1.05879E-22
 -1       524 4.15241E-04-5.40929E-04 5.29396E-23
 -1       525 4.67532E-04-7.47964E-04 1.05879E-22
 -1       526 5.13740E-04-9.22020E-04 5.29396E-23
 -1       527 5.46472E-04-1.03824E-03-1.05879E-22
 -1       528 5.56580E-04-1.07767E-03 0.00000E+00
 -1       529 5.36962E-04-1.03823E-03 0.00000E+00
 -1       530 4.83212E-04-9.25242E-04 0.00000E+00
 -1       531 4.00418E-04-7.58277E-04 1.05879E-22
 -1       532 2.98984E-04-5.60355E-04 0.00000E+00
 -1       533 1.96004E-04-3.59927E-04 0.00000E+00
 -1       534 1.08907E-04-1.85538E-04-5.29396E-23
 -1       535 4.93539E-05-6.12106E-05 0.00000E+00
 -1       536 1.27977E-04 1.12517E-05-6.61744E-24
 -1       537 1.27476E-04 3.88469E-05-3.30872E-24
 -1       538 1.26783E-04 7.30123E-05 0.00000E+00
 -1       539 1.26013E-04 1.09510E-04-1.65436E-24
 -1       540 1.25327E-04 1.43465E-04 0.00000E+00
 -1       541 1.24856E-04 1.70020E-04-1.65436E-24
 -1       542 1.24592E-04 1.86283E-04 3.30872E-24
 -1       543 1.24450E-04 1.89426E-04 0.00000E+00
 -1       544 1.24271E-04 1.79998E-04-3.30872E-24
 -1       545 1.23916E-04 1.58625E-04-1.65436E-24
 -1       546 1.23365E-04 1.29036E-04-3.30872E-24
 -1       547 1.22679E-04 9.50054E-05 0.00000E+00
 -1       548 1.22009E-04 6.15026E-05 3.30872E-24
 -1       549 1.21503E-04 3.34941E-05 1.65436E-24
 -1       550 1.21194E-04 1.44778E-05 0.00000E+00
 -1       551 1.14319E-04-5.90121E-06 0.00000E+00
 -1       552 9.78769E-05-6.26270E-06 0.00000E+00
 -1       553 7.97665E-05-6.64992E-06-1.65436E-24
 -1       554 6.08356E-05-7.05330E-06 0.00000E+00
 -1       555 4.19323E-05-7.45889E-06 0.00000E+00
 -1       556 1.24405E-04 4.37022E-06 0.00000E+00
 -1       557 1.21385E-04 1.21880E-05 0.00000E+00
 -1       558 1.19109E-04 1.80653E-05 0.00000E+00
 -1       559 1.17499E-04 2.21991E-05 0.00000E+00
 -1       560 1.16476E-04 2.47862E-05 0.00000E+00
 -1       561 1.15962E-04 2.60248E-05 0.00000E+00
 -1       562 1.15881E-04 2.61135E-05 0.00000E+00
 -1       563 1.16157E-04 2.52511E-05 0.00000E+00
 -1       564 1.16714E-04 2.36370E-05 0.00000E+00
 -1       565 1.17478E-04 2.14704E-05 0.00000E+00
 -1       566 1.18373E-04 1.89510E-05 0.00000E+00
 -1       567 1.19325E-04 1.62785E-05-8.27181E-25
 -1       568 1.20260E-04 1.36525E-05 1.65436E-24
 -1       569 1.21103E-04 1.12725E-05 0.00000E+00
 -1       570 1.21780E-04 9.33804E-06 0.00000E+00
 -1       571 1.21120E-04 7.48026E-06 4.13590E-25
 -1       572 1.21197E-04 7.01651E-06 4.13590E-25
 -1       573 1.21275E-04 6.51591E-06-8.27181E-25
 -1       574 1.21352E-04 5.98847E-06 0.00000E+00
 -1       575 1.21430E-04 5.44423E-06 0.00000E+00
 -1       576 1.21508E-04 4.89328E-06 0.00000E+00
 -1       577 1.21586E-04 4.34571E-06-3.30872E-24
 -1       578 1.21664E-04 3.81166E-06 1.65436E-24
 -1       579 1.21742E-04 3.30120E-06 0.00000E+00
 -1       580 1.21820E-04 2.82446E-06 1.65436E-24
 -1       581 1.21898E-04 2.39156E-06 0.00000E+00
 -1       582 1.21976E-04 2.01258E-06 0.00000E+00
 -1       583 1.22054E-04 1.69762E-06 0.00000E+00
 -1       584 1.22132E-04 1.45666E-06 0.00000E+00
 -1       585 1.22210E-04 1.29960E-06 0.00000E+00
 -1       586 1.21189E-04 7.92381E-06 8.27181E-25
 -1       587 1.21308E-04 7.94937E-06-3.61892E-25
 -1       588 1.21436E-04 7.97464E-06 0.00000E+00
 -1       589 1.21608E-04 7.99943E-06 0.00000E+00
 -1       590 1.21857E-04 8.02342E-06 0.00000E+00
 -1       591 1.21163E-04 7.52928E-06 5.16988E-26
 -1       592 1.21289E-04 7.13237E-06 0.00000E+00
 -1       593 1.21424E-04 6.71310E-06-4.13590E-25
 -1       594 1.21564E-04 6.27690E-06 4.13590E-25
 -1       595 1.21709E-04 5.82930E-06 0.00000E+00
 -1       596 1.21856E-04 5.37573E-06 0.00000E+00
 -1       597 1.22003E-04 4.92165E-06-4.13590E-25
 -1       598 1.22148E-04 4.47254E-06 4.13590E-25
 -1       599 1.22289E-04 4.03381E-06 0.00000E+00
 -1       600 1.22425E-04 3.61093E-06 2.06795E-25
 -1       601 1.22552E-04 3.20935E-06-4.13590E-25
 -1       602 1.22670E-04 2.83452E-06 0.00000E+00
 -1       603 1.22775E-04 2.49189E-06 0.00000E+00
 -1       604 1.22867E-04 2.18698E-06 0.00000E+00
 -1       605 1.22942E-04 1.92520E-06 0.00000E+00
 -1       606 1.22300E-04 1.34406E-06 0.00000E+00
 -1       607 1.22311E-04 1.54840E-06-1.65436E-24
 -1       608 1.22320E-04 1.84294E-06 0.00000E+00
 -1       609 1.22329E-04 2.22133E-06 0.00000E+00
 -1       610 1.22339E-04 2.67721E-06 0.00000E+00
 -1       611 1.22348E-04 3.20409E-06 0.00000E+00
 -1       612 1.22357E-04 3.79552E-06 0.00000E+00
 -1       613 1.22366E-04 4.44501E-06 0.00000E+00
 -1       614 1.22374E-04 5.14609E-06 0.00000E+00
 -1       615 1.22383E-04 5.89227E-06 0.00000E+00
 -1       616 1.22392E-04 6.67709E-06 0.00000E+00
 -1       617 1.22401E-04 7.49406E-06 0.00000E+00
 -1       618 1.22410E-04 8.33669E-06 0.00000E+00
 -1       619 1.22418E-04 9.19852E-06 0.00000E+00
 -1       620 1.22427E-04 1.00731E-05 0.00000E+00
 -1       621 1.22299E-04 1.31526E-06-1.65436E-24
 -1       622 1.22369E-04 1.39525E-06 8.27181E-25
 -1       623 1.22487E-04 1.47521E-06-1.65436E-24
 -1       624 1.22640E-04 1.55502E-06 8.27181E-25
 -1       625 1.22816E-04 1.63469E-06 0.00000E+00
 -1       626 1.22336E-04 1.37152E-06 3.30872E-24
 -1       627 1.22356E-04 1.58501E-06-1.65436E-24
 -1       628 1.22350E-04 1.86824E-06 0.00000E+00
 -1       629 1.22321E-04 2.21300E-06-1.65436E-24
 -1       630 1.22272E-04 2.61106E-06 0.00000E+00
 -1       631 1.22206E-04 3.05416E-06 0.00000E+00
 -1       632 1.22126E-04 3.53402E-06-3.30872E-24
 -1       633 1.22036E-04 4.04238E-06 4.96308E-24
 -1       634 1.21938E-04 4.57096E-06-3.30872E-24
 -1       635 1.21835E-04 5.11150E-06 0.00000E+00
 -1       636 1.21731E-04 5.65573E-06-3.30872E-24
 -1       637 1.21629E-04 6.19539E-06-8.27181E-25
 -1       638 1.21532E-04 6.72219E-06 1.65436E-24
 -1       639 1.21442E-04 7.22786E-06-8.27181E-25
 -1       640 1.21363E-04 7.70413E-06 0.00000E+00
 -1       656 1.21773E-04 1.04965E-05 0.00000E+00
 -1       657 1.21496E-04 1.00208E-05 0.00000E+00
 -1       658 1.21464E-04 9.54659E-06 0.00000E+00
 -1       659 1.21531E-04 9.07274E-06-6.61744E-24
 -1       660 1.21531E-04 8.59740E-06 0.00000E+00
 -1       661 1.22191E-04 1.18029E-05-8.27181E-25
 -1       662 1.21974E-04 1.25870E-05 0.00000E+00
 -1       663 1.21781E-04 1.33088E-05 0.00000E+00
 -1       664 1.21610E-04 1.39720E-05-8.27181E-25
 -1       665 1.21460E-04 1.45801E-05 0.00000E+00
 -1       666 1.21330E-04 1.51362E-05 8.27181E-25
 -1       667 1.21218E-04 1.56436E-05-1.65436E-24
 -1       668 1.21123E-04 1.61053E-05 0.00000E+00
 -1       669 1.21044E-04 1.65243E-05-1.65436E-24
 -1       670 1.20980E-04 1.69034E-05 0.00000E+00
 -1       671 1.20930E-04 1.72453E-05 0.00000E+00
 -1       672 1.20893E-04 1.75527E-05 0.00000E+00
 -1       673 1.20867E-04 1.78282E-05 0.00000E+00
 -1       674 1.20852E-04 1.80739E-05 8.27181E-25
 -1       675 1.20848E-04 1.82928E-05-4.13590E-25
 -1       676 1.21637E-04 1.89209E-05 0.00000E+00
 -1       677 1.21479E-04 1.88332E-05 0.00000E+00
 -1       678 1.21321E-04 1.87456E-05-3.30872E-24
 -1       679 1.21163E-04 1.86582E-05 0.00000E+00
 -1       680 1.21005E-04 1.85708E-05 1.65436E-24
 -1       771 1.71205E-05 6.48990E-06 0.00000E+00
 -1       772 1.13346E-05 1.82776E-05 0.00000E+00
 -1       773 6.49523E-06 2.76188E-05-5.29396E-23
 -1       774 2.53921E-06 3.46603E-05-5.29396E-23
 -1       775-5.95803E-07 3.95531E-05 0.00000E+00
 -1       776-2.97475E-06 4.24557E-05 0.00000E+00
 -1       777-4.66309E-06 4.35308E-05 0.00000E+00
 -1       778-5.72774E-06 4.29470E-05-2.64698E-23
 -1       779-6.23589E-06 4.08766E-05 0.00000E+00
 -1       780-6.25597E-06 3.74967E-05-2.64698E-23
 -1       781-5.85642E-06 3.29873E-05 0.00000E+00
 -1       782-5.10668E-06 2.75321E-05 0.00000E+00
 -1       783-4.07611E-06 2.13169E-05 0.00000E+00
 -1       784-2.83480E-06 1.45299E-05 0.00000E+00
 -1       785-1.45266E-06 7.36069E-06-2.64698E-23
 -1       786 1.22263E-04 7.46517E-06 2.06795E-25
 -1       787 1.22312E-04 6.92502E-06 4.13590E-25
 -1       788 1.22360E-04 6.41760E-06 0.00000E+00
 -1       789 1.22409E-04 5.93624E-06 8.27181E-25
 -1       790 1.22459E-04 5.47725E-06-1.65436E-24
 -1       791 1.22508E-04 5.03696E-06 0.00000E+00
 -1       792 1.22558E-04 4.61384E-06-1.65436E-24
 -1       793 1.22607E-04 4.20638E-06 8.27181E-25
 -1       794 1.22657E-04 3.81488E-06 1.65436E-24
 -1       795 1.22706E-04 3.43963E-06 0.00000E+00
 -1       796 1.22756E-04 3.08280E-06 1.65436E-24
 -1       797 1.22805E-04 2.74659E-06-8.27181E-25
 -1       798 1.22855E-04 2.43553E-06 0.00000E+00
 -1       799 1.22904E-04 2.15422E-06-8.27181E-25
 -1       800 1.22954E-04 1.91063E-06 0.00000E+00
 -1       801 1.12301E-04 6.96249E-06 0.00000E+00
 -1       802 8.13021E-05 5.42609E-06 1.32349E-23
 -1       803 4.41748E-05 3.70754E-06-2.64698E-23
 -1       804 1.61780E-05 2.26538E-06 0.00000E+00
 -1       805 5.64043E-07 1.07683E-06 2.64698E-23
 -1       806 1.22345E-04 7.41307E-06 0.00000E+00
 -1       807 1.22460E-04 6.80374E-06-8.27181E-25
 -1       808 1.22565E-04 6.22056E-06-1.65436E-24
 -1       809 1.22659E-04 5.66642E-06 1.65436E-24
 -1       810 1.22741E-04 5.14417E-06-1.65436E-24
 -1       811 1.22810E-04 4.65661E-06-1.65436E-24
 -1       812 1.22865E-04 4.20650E-06-3.30872E-24
 -1       813 1.22905E-04 3.79662E-06 8.27181E-25
 -1       814 1.22928E-04 3.42972E-06 0.00000E+00
 -1       815 1.22935E-04 3.10855E-06 0.00000E+00
 -1       816 1.22923E-04 2.83586E-06-3.30872E-24
 -1       817 1.22892E-04 2.61441E-06 8.27181E-25
 -1       818 1.22841E-04 2.44692E-06-1.65436E-24
 -1       819 1.22769E-04 2.33614E-06-8.27181E-25
 -1       820 1.22675E-04 2.28478E-06-1.65436E-24
 -1       821 1.22902E-04 1.48756E-06 0.00000E+00
 -1       822 1.22796E-04 1.16321E-06 0.00000E+00
 -1       823 1.22689E-04 8.22292E-07 0.00000E+00
 -1       824 1.22582E-04 5.47422E-07 0.00000E+00
 -1       825 1.22474E-04 4.06606E-07 3.30872E-24
 -1       826 1.22366E-04 4.67210E-07 0.00000E+00
 -1       827 1.22259E-04 7.52177E-07 0.00000E+00
 -1       828 1.22151E-04 1.28337E-06-1.65436E-24
 -1       829 1.22043E-04 2.02836E-06 0.00000E+00
 -1       830 1.21934E-04 2.95367E-06 0.00000E+00
 -1       831 1.21826E-04 3.98609E-06-3.30872E-24
 -1       832 1.21718E-04 5.05187E-06 0.00000E+00
 -1       833 1.21610E-04 6.06987E-06 3.30872E-24
 -1       834 1.21504E-04 6.95925E-06 0.00000E+00
 -1       835 1.21397E-04 7.66740E-06 0.00000E+00
 -1       836 1.23093E-04 1.80977E-06 0.00000E+00
 -1       837 1.23073E-04 1.90895E-06 0.00000E+00
 -1       838 1.22976E-04 2.00796E-06 0.00000E+00
 -1       839 1.22836E-04 2.10634E-06 0.00000E+00
 -1       840 1.22686E-04 2.20455E-06 4.13590E-25
 -1       856 1.21272E-04 8.56288E-06 4.13590E-25
 -1       857 1.21244E-04 9.09869E-06-1.03398E-25
 -1       858 1.21217E-04 9.73190E-06-4.13590E-25
 -1       859 1.21189E-04 1.04443E-05 0.00000E+00
 -1       860 1.21160E-04 1.12177E-05 0.00000E+00
 -1       861 1.21132E-04 1.20335E-05 0.00000E+00
 -1       862 1.21104E-04 1.28735E-05 8.27181E-25
 -1       863 1.21075E-04 1.37192E-05 0.00000E+00
 -1       864 1.21047E-04 1.45522E-05 0.00000E+00
 -1       865 1.21018E-04 1.53540E-05-4.13590E-25
 -1       866 1.20990E-04 1.61063E-05-8.27181E-25
 -1       867 1.20962E-04 1.67906E-05 4.13590E-25
 -1       868 1.20933E-04 1.73889E-05-8.27181E-25
 -1       869 1.20905E-04 1.78827E-05 0.00000E+00
 -1       870 1.20877E-04 1.82542E-05 0.00000E+00
 -1       871 1.21104E-04 8.14131E-06 4.13590E-25
 -1       872 1.21029E-04 8.13756E-06 0.00000E+00
 -1       873 1.21019E-04 8.13335E-06 0.00000E+00
 -1       874 1.21024E-04 8.12856E-06 1.03398E-25
 -1       875 1.20991E-04 8.12324E-06-2.06795E-25
 -1       876 1.21243E-04 8.57360E-06 0.00000E+00
 -1       877 1.21171E-04 9.06081E-06-1.65436E-24
 -1       878 1.21080E-04 9.59744E-06 0.00000E+00
 -1       879 1.20974E-04 1.01772E-05 0.00000E+00
 -1       880 1.20854E-04 1.07938E-05 0.00000E+00
 -1       881 1.20722E-04 1.14408E-05 1.65436E-24
 -1       882 1.20581E-04 1.21121E-05 0.00000E+00
 -1       883 1.20434E-04 1.28013E-05 0.00000E+00
 -1       884 1.20282E-04 1.35022E-05 3.30872E-24
 -1       885 1.20128E-04 1.42085E-05 0.00000E+00
 -1       886 1.19975E-04 1.49139E-05 0.00000E+00
 -1       887 1.19824E-04 1.56122E-05-1.65436E-24
 -1       888 1.19678E-04 1.62970E-05 3.30872E-24
 -1       889 1.19538E-04 1.69619E-05-8.27181E-25
 -1       890 1.19408E-04 1.76008E-05-8.27181E-25
 -1       891 1.20712E-04 1.84385E-05 1.65436E-24
 -1       892 1.20556E-04 1.83916E-05-8.27181E-25
 -1       893 1.20358E-04 1.83446E-05-8.27181E-25
 -1       894 1.20096E-04 1.82978E-05 4.13590E-25
 -1       895 1.19745E-04 1.82511E-05 4.13590E-25
 -1       956 1.22455E-04 2.43502E-06 0.00000E+00
 -1       957 1.22350E-04 2.64024E-06-1.65436E-24
 -1       958 1.22244E-04 2.90388E-06-1.65436E-24
 -1       959 1.22138E-04 3.21822E-06 8.27181E-25
 -1       960 1.22032E-04 3.57552E-06 0.00000E+00
 -1       961 1.21926E-04 3.96800E-06 0.00000E+00
 -1       962 1.21820E-04 4.38787E-06 0.00000E+00
 -1       963 1.21714E-04 4.82736E-06 1.65436E-24
 -1       964 1.21608E-04 5.27866E-06 3.30872E-24
 -1       965 1.21502E-04 5.73399E-06 0.00000E+00
 -1       966 1.21396E-04 6.18556E-06 0.00000E+00
 -1       967 1.21290E-04 6.62558E-06 1.65436E-24
 -1       968 1.21184E-04 7.04625E-06 3.30872E-24
 -1       969 1.21078E-04 7.43982E-06 0.00000E+00
 -1       970 1.20973E-04 7.79854E-06 0.00000E+00
 -1       971 1.20771E-04 8.44741E-06 0.00000E+00
 -1       972 1.20672E-04 8.86492E-06-1.65436E-24
 -1       973 1.20573E-04 9.35806E-06-1.65436E-24
 -1       974 1.20474E-04 9.91709E-06 0.00000E+00
 -1       975 1.20374E-04 1.05323E-05 0.00000E+00
 -1       976 1.20274E-04 1.11938E-05 0.00000E+00
 -1       977 1.20175E-04 1.18920E-05 0.00000E+00
 -1       978 1.20075E-04 1.26169E-05 1.65436E-24
 -1       979 1.19976E-04 1.33588E-05-3.30872E-24
 -1       980 1.19876E-04 1.41080E-05 0.00000E+00
 -1       981 1.19776E-04 1.48545E-05 3.30872E-24
 -1       982 1.19677E-04 1.55886E-05 0.00000E+00
 -1       983 1.19578E-04 1.63006E-05 3.30872E-24
 -1       984 1.19479E-04 1.69806E-05 0.00000E+00
 -1       985 1.19380E-04 1.76188E-05-1.65436E-24
 -3
    1PSTEP                        16           8           1          
  100CL  108 5.62500E-01         409                     0    8           1
 -4  STRESS      6    1
 -5  SXX         1    4    1    1
 -5  SYY         1    4    2    2
 -5  SZZ         1    4    3    3
 -5  SXY         1    4    1    2
 -5  SYZ         1    4    2    3
 -5  SZX         1    4    3    1
 -1         1-2.65009E+06-1.08963E+06-5.67788E+05-1.32322E+06 6.25732E-10 1.94268E-08
 -1         2 2.36762E+03-6.21750E+05 7.66206E+03-9.20673E+02-1.09765E-10 7.69600E-09
 -1         3-3.66621E+02-1.21871E+06 2.93255E+02-8.71455E+02-4.15664E-10 1.43591E-08
 -1         5-8.45931E-01 2.95359E+05 7.51878E+00 2.16784E-02 2.65177E-13-8.16306E-09
 -1         8-1.11442E+06-3.89121E+05-1.20892E+05-4.96639E+05 2.72848E-11-4.67116E-09
 -1         9-1.69422E+06-8.57067E+05-1.95849E+05-8.24184E+05 1.03086E-08-1.16415E-10
 -1        10-1.16412E+03-1.26969E+06-1.93612E+03-5.89627E+03-6.83394E-09-9.57340E-09
 -1        12 2.24073E+00 2.95374E+05 2.43374E+02 1.67034E-01-1.67510E-11-2.95719E-08
 -1        15 1.88301E+03 1.03483E+03 6.08681E+03 3.93467E+00-1.52539E-10 1.49608E-08
 -1        16-1.21053E+06-1.14185E+06-2.17390E+05-1.30471E+06 1.15930E-08 4.32677E-09
 -1        17-9.20902E+05-4.35144E+05-1.39595E+05-3.31869E+05 8.59000E-09 7.93952E-09
 -1        18-1.84779E+04-9.37134E+03-2.78773E+04-8.02915E+04 6.77267E-09-2.42835E-09
 -1        19 9.48936E+04 1.09566E+05-7.54547E+02 1.86588E+04-1.64073E-10 1.86046E-09
 -1        20-4.82329E+04-4.49122E+05-9.96717E+04 2.85473E+04 2.48277E-09-8.07207E-09
 -1        21-4.06067E+01-2.51157E+05-8.02196E+02-2.72925E+01-4.25487E-09 3.99899E-09
 -1        24-2.14594E+06-1.61629E+05-1.08155E+05-5.19704E+05-3.47500E-08-2.47189E-08
 -1        25-1.06355E+05-5.88530E+05-1.19735E+05-1.27094E+05 3.56522E-11 7.22030E-09
 -1        26-3.39263E+04 7.17712E+04-1.77987E+04-5.33919E+03 1.52359E-09-2.73929E-08
 -1        27-6.64098E+04-2.44679E+05-9.10798E+04 5.52815E+04 5.30160E-09-6.27248E-10
 -1        28 1.93142E+04-7.03764E+04 1.42485E+04 2.06348E+04 2.57833E-09 2.47058E-09
 -1        32-1.26482E+06-1.69330E+06 4.76532E+04-5.32207E+05-2.82444E-08-4.36258E-09
 -1        33-1.43060E+05 7.07904E+04 2.52801E+04-3.48339E+04 3.69596E-10 1.59122E-08
 -1        34-1.80961E+05-1.84389E+04 4.73297E+02 5.72282E+04 1.99172E-09-3.62464E-09
 -1        35-1.96841E+04-2.79563E+04-1.10238E+03 4.37525E+04 3.81579E-09 7.96354E-09
 -1        51 2.60383E+04-3.26413E+05 6.13180E+04-9.19411E+05-1.89175E-10 4.35975E-08
 -1        52 1.25512E+04-3.20661E+05 3.68290E+04-1.07220E+06 4.94765E-10-8.12724E-09
 -1        53 6.98705E+03-3.35492E+05 2.64960E+04-9.16150E+05 1.17871E-09-1.41445E-08
 -1        54 1.89394E+04-3.33685E+05 3.65744E+04-1.07558E+06-5.09317E-11-3.82861E-08
 -1        55 3.75315E+04-3.46880E+05 6.17154E+04-9.15624E+05 4.51109E-10 5.58066E-09
 -1        56-5.05250E+06-5.65185E+05-4.18335E+05-1.95575E+06 3.63798E-10-2.19152E-08
 -1        57-5.24704E+06-9.18628E+05-2.82225E+05-1.90970E+06-1.75532E-09 1.08121E-08
 -1        58-5.13432E+06-7.00353E+05-9.83545E+04-1.93200E+06 1.91721E-09-3.54703E-09
 -1        59-5.15306E+06-7.59167E+05-5.87225E+04-1.93687E+06 3.38332E-09-1.73623E-08
 -1        60-5.14525E+06-7.20224E+05-2.29307E+04-1.92997E+06-1.82217E-09 7.77618E-10
 -1        61-5.14192E+06-7.34316E+05-1.30032E+04-1.93736E+06-4.34386E-09-1.70612E-08
 -1        62-5.14519E+06-7.24631E+05-6.18347E+03-1.93164E+06-4.57817E-09 2.95768E-09
 -1        63-5.14404E+06-7.27634E+05-4.98113E+03-1.93324E+06-4.13195E-10 1.41760E-08
 -1        64-5.14308E+06-7.26846E+05-5.51580E+03-1.93410E+06-5.24324E-10 1.16454E-08
 -1        65-5.14954E+06-7.25707E+05-1.10201E+04-1.92827E+06-6.18067E-09-5.21572E-09
 -1        66-5.13973E+06-7.26606E+05-1.91949E+04-1.93661E+06-1.33150E-09 3.29019E-08
 -1        67-5.16413E+06-7.41082E+05-4.89846E+04-1.92179E+06 5.48698E-09 3.62888E-10
 -1        68-5.12872E+06-7.11946E+05-8.20014E+04-1.94047E+06 1.60799E-09-1.95396E-08
 -1        69-5.24422E+06-8.72231E+05-2.35241E+05-1.89714E+06-1.05229E-09 4.88944E-09
 -1        70-5.06070E+06-5.99156E+05-3.48789E+05-1.96010E+06 1.49157E-09-1.46974E-09
 -1        86-1.18344E+03-6.23926E+05 8.26243E+03 4.60339E+02 5.52973E-10-2.68807E-08
 -1        87 7.86411E+03-6.19120E+05 1.71647E+04-1.72834E+03 9.78389E-10-2.68352E-08
 -1        88-6.66062E+03-6.26553E+05 2.63765E+04 1.26803E+03 1.31877E-09 3.80359E-09
 -1        89 4.96544E+04-5.99788E+05 7.10082E+04-3.01736E+03 1.91085E-09-2.59620E-09
 -1        90-4.28276E+04-6.43224E+05 1.00478E+05 1.74953E+03 1.72440E-09-8.33225E-10
 -1       121-5.25759E+02-1.22005E+06 8.74577E+01 4.34484E+02 7.37629E-10 2.83762E-10
 -1       122-2.61566E+02-1.21867E+06 6.16398E+02-1.74094E+03-2.58714E-09-7.63976E-09
 -1       123-5.80895E+02-1.22013E+06 7.96545E+02 1.29905E+03 2.29363E-09 3.96176E-09
 -1       124 9.07959E+02-1.21805E+06 2.52714E+03-3.70718E+03-5.06679E-09-1.29676E-08
 -1       125-1.29450E+03-1.22078E+06 3.66329E+03 2.39578E+03 3.36604E-09-8.59654E-09
 -1       191-1.13985E+00 2.95385E+05 9.21934E+00-1.08636E-02 1.45077E-11-1.01423E-08
 -1       192-1.53444E+00 2.95359E+05 1.59077E+01 9.18182E-02 1.25766E-12-4.21358E-09
 -1       193-2.97149E+00 2.95385E+05 2.98094E+01-8.11656E-02-5.79750E-11 1.05547E-08
 -1       194-3.75059E+00 2.95362E+05 6.01405E+01 2.17198E-01 1.89253E-11-9.18135E-10
 -1       195-6.49165E+00 2.95383E+05 1.17863E+02-1.36819E-01 9.72236E-11-1.11555E-08
 -1       251-1.62163E+06 1.74008E+04-7.23553E+04-5.27073E+04-1.11595E-09 8.14180E-09
 -1       252-1.54494E+06-1.90585E+04-3.07152E+04 1.51466E+05 2.93289E-09 2.27355E-08
 -1       253-1.58018E+06 1.80815E+03-1.59803E+04-9.87659E+04 1.82627E-09 1.25910E-08
 -1       254-1.57624E+06 3.54921E+03-6.63399E+03 1.88164E+05 1.10822E-09-1.43200E-09
 -1       255-1.59435E+06-1.85184E+03-6.98796E+03-8.95430E+04 6.34509E-09-1.07786E-08
 -1       256-1.50420E+06 5.15173E+03 1.36333E+04 1.19182E+05 7.91647E-09-5.91513E-09
 -1       257-1.64535E+06-5.35210E+03-1.49708E+04-2.95950E+04 3.57795E-09-8.20893E-09
 -1       258-1.45874E+06 4.57834E+03 2.37722E+04-1.85787E+04 5.88489E-09-1.56231E-08
 -1       259-1.63540E+06-4.85533E+03-1.18597E+04 4.80558E+04-1.22618E-08-6.98805E-09
 -1       260-1.52654E+06 6.57598E+03 1.21376E+04-1.45417E+05-1.56078E-08-2.29204E-09
 -1       261-1.58418E+06-1.96894E+03 2.08361E+02 9.71908E+04 1.92599E-08-1.10160E-08
 -1       262-1.57452E+06 9.35589E+03 5.33215E+03-1.89095E+05-1.45351E-08-6.21881E-10
 -1       263-1.59217E+06-3.76963E+03 1.49153E+03 9.18898E+04 4.33283E-09 1.32195E-08
 -1       264-1.50459E+06 1.78233E+04 2.68087E+04-1.26870E+05 4.22160E-08-1.30822E-08
 -1       265-1.64771E+06-1.55784E+04 8.50600E+02 3.47793E+04 1.35060E-08-7.58610E-09
 -1       266-3.40878E+04-1.59374E+04 7.99895E+04-8.41987E+01-3.63798E-12 4.80696E-08
 -1       267 3.95180E+04 1.85786E+04 5.65304E+04 9.71373E+01 2.19188E-10 3.80874E-08
 -1       268-5.29925E+03-2.63106E+03 2.10124E+04-1.23776E+01 9.00400E-11 7.80184E-09
 -1       269 6.25692E+03 3.14902E+03 1.36574E+04 1.44174E+01 7.91260E-11 7.37618E-09
 -1       270-9.39168E+02-5.17398E+02 6.59265E+03-1.95657E+00 5.82077E-11 2.19156E-08
 -1       271-3.14363E+06-3.92166E+05-2.37000E+05-1.22258E+06 9.34961E-10 1.70985E-08
 -1       272-3.23392E+06-5.60208E+05-1.52440E+05-1.21475E+06 1.09264E-09-1.35915E-08
 -1       273-3.18895E+06-4.50608E+05-5.59863E+04-1.21116E+06 7.63748E-10-5.85351E-09
 -1       274-3.18011E+06-4.89259E+05-3.13272E+04-1.23256E+06 4.05271E-09 9.42873E-09
 -1       275-3.19647E+06-4.55383E+05-1.30491E+04-1.20778E+06-9.20409E-10 1.60071E-08
 -1       276-3.17042E+06-4.84444E+05-6.89125E+03-1.23846E+06 3.61251E-09-1.51974E-08
 -1       277-3.19886E+06-4.54428E+05-3.39369E+03-1.20579E+06 4.89854E-09 1.28346E-08
 -1       278-3.16725E+06-4.86195E+05-2.39457E+03-1.24187E+06-3.05818E-10 2.33761E-08
 -1       279-3.19993E+06-4.53372E+05-2.52890E+03-1.20462E+06-2.81943E-10-1.49727E-08
 -1       280-3.16647E+06-4.88016E+05-4.57701E+03-1.24344E+06-1.72815E-09-5.65342E-09
 -1       281-3.19982E+06-4.52538E+05-8.29650E+03-1.20432E+06 1.87856E-09 6.78938E-10
 -1       282-3.17044E+06-4.93378E+05-1.99104E+04-1.24252E+06-6.62916E-09-1.59807E-08
 -1       283-3.19605E+06-4.48505E+05-3.54024E+04-1.20536E+06-1.67438E-09-1.47120E-08
 -1       284-3.20296E+06-5.39878E+05-9.65699E+04-1.23301E+06-3.38605E-09-7.33417E-09
 -1       285-3.16792E+06-4.10952E+05-1.50068E+05-1.21196E+06-9.36780E-10 1.95723E-09
 -1       301 2.33461E+04-1.20410E+05 1.70417E+05-2.32545E+05-1.23691E-10-2.49165E-08
 -1       302 2.46624E+04-7.75388E+04 1.10455E+05-3.40744E+05 5.20004E-10-2.71343E-09
 -1       303 1.37115E+03-1.03388E+05 8.21403E+04-2.32209E+05-2.89219E-10 3.22507E-09
 -1       304 2.62497E+04-7.47948E+04 1.17000E+05-3.40326E+05 6.62112E-10 1.29221E-08
 -1       305 2.46623E+04-1.21152E+05 1.84776E+05-2.33026E+05-5.38421E-10 2.77905E-08
 -1       306-7.58874E+06-7.73877E+05-8.85887E+05-2.07427E+06-1.33005E-08 5.70435E-09
 -1       307-3.32241E+06-1.88942E+06 3.93061E+04-3.72019E+06-2.00671E-07-1.15760E-08
 -1       308-7.05429E+06-5.24770E+04-1.49029E+05-1.02297E+06-3.78350E-08 4.92437E-08
 -1       309-4.44350E+06-2.16166E+06 1.85041E+04-5.09748E+06 1.19100E-07-4.73869E-09
 -1       310-7.05264E+06-5.84387E+04-5.93500E+04-1.01242E+06 2.76486E-09 4.09273E-09
 -1       311-3.27475E+06-1.78869E+06 3.02766E+05-3.77703E+06 9.94187E-08-2.86545E-08
 -1       312-7.65004E+06-8.57458E+05-4.06187E+05-2.03598E+06 3.49100E-08 2.73503E-08
 -1       313-3.03520E+06-4.24336E+05 5.61180E+05-1.24995E+06 3.54485E-08 4.63115E-09
 -1       314-6.78892E+06-1.77749E+06-4.22283E+05-3.08425E+06 7.78819E-08-3.41897E-08
 -1       315-6.17233E+06 1.24021E+06 3.21394E+05-2.65869E+05-8.23784E-08-7.21775E-09
 -1       316-5.05746E+06-2.11373E+06-7.94020E+04-3.34527E+06-2.00664E-07-6.39047E-08
 -1       317-8.50014E+06 1.89084E+06 8.47588E+03-4.98875E+05 2.39897E-07-1.20417E-07
 -1       318-4.93854E+06-2.10357E+06-1.51536E+05-3.34768E+06-1.57088E-07-1.09594E-10
 -1       319-6.60301E+06 1.20469E+06-3.25532E+04-2.49615E+05-5.46861E-08 3.19487E-08
 -1       320-6.54850E+06-1.70500E+06-9.44797E+05-3.16203E+06 4.54020E-08-1.43191E-08
 -1       336 5.39123E+02-1.32077E+06-7.88888E+03 3.47964E+03-1.38903E-08-6.83212E-09
 -1       337-2.94215E+03-1.32201E+06-9.07674E+03-8.50373E+03-2.53558E-08-4.22369E-09
 -1       338 4.61135E+02-1.32085E+06-1.24378E+04 4.98767E+03-1.82699E-08-9.59699E-09
 -1       339-1.29749E+04-1.32855E+06-2.74847E+04-1.14479E+04-3.23962E-08 5.14046E-09
 -1       340 8.63157E+03-1.31469E+06-4.27732E+04 6.39405E+03-2.13731E-08 1.16215E-08
 -1       406 2.10549E+01 2.95372E+05 4.80711E+02-3.13612E-02 2.79670E-11-1.82061E-08
 -1       407 1.69734E+02 2.95459E+05 1.02116E+03-8.05929E-01-1.85310E-11 7.11862E-09
 -1       408 5.28047E+02 2.95298E+05 2.03974E+03 8.58368E-01 6.10498E-11-1.01194E-08
 -1       409 2.20718E+03 2.96110E+05 4.59148E+03-8.52347E+00-3.87104E-11-1.53894E-08
 -1       410 6.33759E+03 2.94719E+05 9.37349E+03 8.04117E+00-8.18545E-11-7.68330E-09
 -1       521-9.83629E+06-1.12929E+06-1.36654E+06-2.40610E+06-2.42726E-08 4.24916E-08
 -1       522-2.96261E+06-2.34742E+06 1.81258E+05-5.05860E+06-1.54345E-07-1.60035E-08
 -1       523-8.76697E+06 4.59367E+04-2.05878E+05-8.35016E+05 8.11997E-09-4.76284E-08
 -1       524-5.28490E+06-2.54592E+06 6.90788E+04-7.22841E+06 1.64546E-07-1.51311E-07
 -1       525-8.78131E+06 2.98601E+04-9.61784E+04-8.39114E+05 1.37064E-07-7.73944E-08
 -1       526-2.87263E+06-2.23835E+06 5.22731E+05-5.05350E+06 1.13025E-07 4.54711E-08
 -1       527-9.89897E+06-1.22910E+06-7.38059E+05-2.39974E+06 1.04395E-07-1.54614E-08
 -1       528-2.04675E+06-2.90923E+05 9.39074E+05-9.00590E+05 6.50325E-08 2.21917E-09
 -1       529-8.56828E+06-2.63528E+06-7.58806E+05-3.98776E+06 1.72877E-08-1.04483E-08
 -1       530-7.35049E+06 2.41774E+06 5.49985E+05 3.04478E+05-6.37738E-08 1.22127E-07
 -1       531-5.80381E+06-3.02967E+06-1.16700E+05-4.28154E+06-2.63492E-07 5.65342E-09
 -1       532-1.12440E+07 3.42445E+06 7.61744E+04-5.14660E+05 1.10405E-07-1.70462E-07
 -1       533-5.63164E+06-3.01770E+06-1.74528E+05-4.27423E+06 4.31028E-08-2.63823E-07
 -1       534-7.95988E+06 2.50373E+06 1.84739E+05 2.47487E+05-8.42338E-08 2.02206E-07
 -1       535-8.27188E+06-2.63930E+06-1.30045E+06-4.07461E+06-6.22822E-09 1.35769E-07
 -1       536-4.36678E+05-2.56235E+04 3.13757E+04-1.98235E+04-5.74755E-09 3.92774E-08
 -1       537-3.05169E+05 2.78698E+04 4.28310E+04 4.87878E+04-4.85772E-08 4.04812E-08
 -1       538-3.72901E+05-1.86356E+03 1.13081E+04-3.00935E+04 1.81940E-08 5.18262E-08
 -1       539-3.46774E+05 3.42186E+03 1.13433E+04 5.52756E+04 6.46799E-08 5.14689E-08
 -1       540-3.95904E+05-5.23003E+02-2.01902E+03-2.63471E+04-5.84521E-09 5.20271E-08
 -1       541-2.63575E+05 3.84445E+03 2.29765E+04 3.38142E+04-2.29884E-08 5.22672E-08
 -1       542-4.53865E+05-4.11157E+03-1.62342E+04-8.56082E+03 4.23915E-09 1.66171E-08
 -1       543-2.19064E+05 5.28787E+03 3.05215E+04-7.39641E+03 1.38050E-09-2.70484E-09
 -1       544-4.39236E+05-2.92677E+03-1.43063E+04 1.48011E+04-3.32807E-09-2.33206E-08
 -1       545-2.96816E+05 1.08700E+03 1.31686E+04-4.43532E+04 5.89898E-09-4.94305E-08
 -1       546-3.78159E+05 1.75356E+03-4.02486E+03 2.83759E+04 4.70163E-09-3.94311E-08
 -1       547-3.55120E+05-3.76474E+03-3.65647E+03-5.70923E+04-5.30288E-08-5.38174E-08
 -1       548-3.82443E+05 3.15438E+03-1.34818E+04 2.75958E+04-4.79263E-08-4.72974E-08
 -1       549-2.92738E+05-1.35820E+04-1.14066E+04-4.11093E+04-3.18062E-08-3.58473E-08
 -1       550-4.38734E+05 1.00868E+04-5.87223E+04 1.23304E+04 3.44403E-09-1.22709E-08
 -1       551 2.15546E+04-6.57868E+05 2.27315E+04-1.05962E+06 1.94341E-08-3.02680E-09
 -1       552 5.12243E+04-6.75505E+05 3.19287E+04-1.53012E+06 4.28554E-08 2.34577E-08
 -1       553 3.65262E+04-6.80720E+05 4.70388E+04-1.05532E+06 2.38724E-08 2.31594E-08
 -1       554 8.07072E+04-6.75232E+05 9.92103E+04-1.53169E+06 4.74683E-08 1.83586E-08
 -1       555 6.28781E+04-7.00077E+05 1.75040E+05-1.05631E+06 2.43308E-08-1.11322E-08
 -1       556 1.21373E+05-2.21830E+05 6.59959E+04-2.73256E+05-1.18016E-08-4.13274E-09
 -1       557 2.09340E+05-2.92543E+05 3.51742E+04-3.44802E+05-1.70257E-09 1.09721E-08
 -1       558 1.17720E+05-2.28692E+05 1.34365E+04-2.67276E+05-1.17434E-08-1.43846E-08
 -1       559 1.94369E+05-3.00568E+05 7.06620E+03-3.52780E+05 1.04774E-08-2.06637E-09
 -1       560 1.12612E+05-2.25410E+05 2.46812E+03-2.70738E+05-1.55705E-09-5.98629E-09
 -1       561 1.87313E+05-2.98204E+05 1.49244E+03-3.57356E+05 7.02130E-09 1.00335E-08
 -1       562 1.08580E+05-2.22815E+05 3.39447E+02-2.73631E+05 6.14091E-09 5.20686E-09
 -1       563 1.82581E+05-2.96149E+05 3.66588E+02-3.60398E+05-2.33922E-09-5.10749E-09
 -1       564 1.05912E+05-2.21127E+05 6.10398E+01-2.75517E+05 6.92671E-09-9.77343E-09
 -1       565 1.79822E+05-2.94952E+05 1.32234E+02-3.62146E+05 1.45465E-08 9.39872E-09
 -1       566 1.04665E+05-2.20328E+05 1.69774E+01-2.76395E+05-2.26828E-09-8.57654E-09
 -1       567 1.78996E+05-2.94580E+05-5.96732E+01-3.62579E+05 1.37406E-08 1.68438E-08
 -1       568 1.04887E+05-2.20480E+05-3.44789E+02-2.76328E+05-5.47516E-09 5.91535E-09
 -1       569 1.79234E+05-2.94483E+05-8.47663E+02-3.60890E+05-1.24419E-08 3.81078E-09
 -1       570 1.07293E+05-2.22463E+05-2.02363E+03-2.75956E+05-1.35333E-09 8.02993E-09
 -1       571 2.22488E+05 8.19858E+03 1.20689E+04-5.80471E+04 7.18501E-11 7.18546E-09
 -1       572 2.24275E+05 2.89376E+03 5.91327E+03-6.36639E+04 1.01318E-09 8.49718E-09
 -1       573 2.23204E+05 7.31604E+02 2.62713E+03-5.79152E+04-5.69798E-10 2.00816E-09
 -1       574 2.23411E+05 2.82548E+02 1.31655E+03-6.38158E+04-6.18456E-10-8.63338E-09
 -1       575 2.23285E+05 8.68772E+01 6.20888E+02-5.78977E+04-6.81700E-09 2.22872E-09
 -1       576 2.23296E+05 7.00690E+01 3.16809E+02-6.38361E+04-1.72497E-08-5.79757E-09
 -1       577 2.23302E+05 4.92481E+01 1.57294E+02-5.78953E+04-9.79003E-09 5.11818E-09
 -1       578 2.23292E+05 5.48129E+01 8.84268E+01-6.38386E+04-4.41855E-09 7.58928E-09
 -1       579 2.23325E+05 4.09224E+01 5.84747E+01-5.78952E+04-3.71256E-09-7.85349E-09
 -1       580 2.23324E+05 4.09956E+01 6.24566E+01-6.38353E+04-5.52063E-09-1.59343E-09
 -1       581 2.23361E+05 2.56007E+01 9.25409E+01-5.78987E+04 2.47383E-10 7.67523E-09
 -1       582 2.23390E+05 4.33815E+01 1.83160E+02-6.37989E+04 4.95675E-10 2.44017E-09
 -1       583 2.23403E+05 8.26213E+01 3.54289E+02-5.79316E+04 1.13869E-09 7.10315E-10
 -1       584 2.23572E+05 3.63806E+02 7.96968E+02-6.35230E+04 5.01132E-10 2.46837E-09
 -1       585 2.23366E+05 1.06250E+03 1.61900E+03-5.81749E+04 4.51109E-10 8.64566E-09
 -1       586-2.78878E+03 7.29752E+04-3.40576E+03-1.99094E+05-1.08412E-09 2.25464E-09
 -1       587-6.75882E+02 7.25555E+04-1.12359E+02-2.19142E+05-1.21872E-09 8.03107E-09
 -1       588 7.36545E+02 7.26003E+04 3.07607E+03-1.98999E+05-1.14414E-09 4.61478E-09
 -1       589 4.15341E+03 7.42723E+04 8.58969E+03-2.18912E+05-1.20417E-09-1.20317E-08
 -1       590 1.22743E+04 7.16422E+04 1.82580E+04-1.99337E+05-5.40240E-10 1.37043E-08
 -1       591-4.55718E+04-1.19682E+04-1.56113E+04-2.21325E+04 3.87024E-09-4.72119E-09
 -1       592-4.76113E+04-1.52262E+04-8.45597E+03-2.55472E+04 4.82373E-09-4.99949E-09
 -1       593-4.71415E+04-1.08268E+04-3.52010E+03-2.32690E+04 6.55291E-10-4.33192E-09
 -1       594-4.54448E+04-1.29475E+04-1.75565E+03-2.56436E+04 1.21861E-09 2.94767E-09
 -1       595-4.72615E+04-1.08223E+04-8.06535E+02-2.33208E+04 1.11415E-08 2.00647E-08
 -1       596-4.52974E+04-1.28432E+04-4.10733E+02-2.56272E+04 3.42793E-09 2.43517E-10
 -1       597-4.72766E+04-1.08326E+04-2.25197E+02-2.33228E+04-1.60091E-09 9.02662E-09
 -1       598-4.52831E+04-1.28392E+04-1.83860E+02-2.56226E+04-4.66275E-09 5.17846E-09
 -1       599-4.72754E+04-1.08328E+04-2.38390E+02-2.33224E+04 4.66230E-10-1.34359E-08
 -1       600-4.52983E+04-1.28443E+04-4.45668E+02-2.56262E+04 2.96518E-09-1.02509E-08
 -1       601-4.72568E+04-1.08223E+04-8.80677E+02-2.33195E+04 1.33400E-09-5.74767E-09
 -1       602-4.54592E+04-1.29579E+04-1.92010E+03-2.56416E+04 6.33918E-10 1.97724E-09
 -1       603-4.71237E+04-1.08294E+04-3.85101E+03-2.32631E+04-1.93722E-10 1.38284E-08
 -1       604-4.78403E+04-1.54386E+04-9.25076E+03-2.55202E+04-8.64134E-10-2.94222E-10
 -1       605-4.53929E+04-1.20893E+04-1.70786E+04-2.20320E+04 6.85986E-10 8.19182E-09
 -1       606 2.77304E+04-1.06638E+04-1.91729E+04 2.67939E+04-1.81080E-09-8.30551E-09
 -1       607 2.44488E+04-3.45352E+03-9.54717E+03 3.00827E+04 2.69210E-10-2.18051E-08
 -1       608 2.63104E+04-5.95585E+02-4.27527E+03 2.65838E+04-5.03860E-10-3.15958E-09
 -1       609 2.59423E+04-1.69448E+02-2.15931E+03 3.03187E+04-1.14414E-09 1.19642E-08
 -1       610 2.61392E+04 1.11680E+01-1.03128E+03 2.65601E+04-3.50701E-09 1.51435E-08
 -1       611 2.60717E+04 2.26991E+01-5.19951E+02 3.03444E+04-7.31188E-09 3.96653E-09
 -1       612 2.60939E+04 2.77464E+01-2.48333E+02 2.65578E+04-1.05447E-08 9.14270E-10
 -1       613 2.60699E+04 3.16386E+01-1.12275E+02 3.03475E+04-2.08292E-08 7.86258E-09
 -1       614 2.60692E+04 2.81413E+01-2.93085E+01 2.65570E+04-9.43965E-09 2.94676E-10
 -1       615 2.60576E+04 3.73416E+01 4.02549E+01 3.03479E+04 5.16593E-10-7.69478E-09
 -1       616 2.60504E+04 3.42511E+01 1.26902E+02 2.65573E+04-5.77393E-09-8.64793E-09
 -1       617 2.60667E+04 6.81852E+01 2.92191E+02 3.03474E+04 5.23414E-10-5.34556E-10
 -1       618 2.60204E+04 1.21402E+02 5.89795E+02 2.65574E+04 2.04727E-09 4.87989E-09
 -1       619 2.62711E+04 5.26608E+02 1.32510E+03 3.03466E+04-8.70614E-10-1.55001E-09
 -1       620 2.58221E+04 1.52214E+03 2.66350E+03 2.65564E+04-3.13548E-10-1.44623E-08
 -1       621 2.76996E+02 2.29059E+05 2.53128E+03 1.45426E+04-7.10543E-11-6.16365E-09
 -1       622 3.36977E+02 2.29679E+05 2.33419E+03 2.11703E+04 3.86535E-11-3.21324E-09
 -1       623 2.13149E+01 2.29207E+05 2.92568E+03 1.44729E+04 4.71800E-11 1.34628E-09
 -1       624 1.39878E+03 2.30640E+05 5.76665E+03 2.12415E+04-5.90035E-11 2.70393E-09
 -1       625 1.40540E+03 2.28073E+05 1.01243E+04 1.44709E+04 8.09450E-11 9.84869E-09
 -1       626 2.00709E+05 5.31303E+04 4.34403E+03 1.04948E+05 1.14596E-10-5.24233E-09
 -1       627 1.98314E+05 5.47439E+04 2.09335E+03 1.09048E+05 1.38743E-09-4.34341E-09
 -1       628 2.00843E+05 5.11093E+04 8.84431E+02 1.05644E+05-8.18545E-11 7.64567E-09
 -1       629 1.97727E+05 5.42106E+04 4.33104E+02 1.09292E+05 1.22600E-09 4.43492E-10
 -1       630 2.00851E+05 5.10140E+04 2.00079E+02 1.05666E+05 7.20320E-10-4.53906E-09
 -1       631 1.97658E+05 5.41953E+04 1.06894E+02 1.09292E+05 1.59162E-10 2.35963E-09
 -1       632 2.00842E+05 5.10209E+04 6.89475E+01 1.05658E+05-1.48611E-09-8.28459E-09
 -1       633 1.97644E+05 5.42003E+04 7.47317E+01 1.09285E+05-3.01407E-09-3.69539E-10
 -1       634 2.00833E+05 5.10215E+04 1.18855E+02 1.05654E+05 1.06866E-11 4.09955E-09
 -1       635 1.97650E+05 5.42014E+04 2.39535E+02 1.09285E+05 5.47948E-09 9.18408E-09
 -1       636 2.00821E+05 5.10197E+04 4.83122E+02 1.05651E+05 3.58142E-10 2.79670E-10
 -1       637 1.97751E+05 5.42777E+04 1.06157E+03 1.09281E+05-6.81325E-10-1.45110E-09
 -1       638 2.00781E+05 5.12556E+04 2.18131E+03 1.05544E+05-2.57842E-10-6.48924E-09
 -1       639 1.98895E+05 5.58712E+04 5.16042E+03 1.08942E+05-3.39242E-09 1.21645E-09
 -1       640 2.00628E+05 5.60077E+04 1.07089E+04 1.03531E+05 2.25418E-09 3.65526E-09
 -1       656 5.30729E+04-1.34824E+06-1.28118E+05-5.75564E+02-1.67347E-10-1.13173E-08
 -1       657-7.01643E+04-1.40608E+06-1.06026E+05 7.48084E+03 8.00355E-11-9.56499E-09
 -1       658 1.68667E+04-1.36471E+06-6.51582E+04-2.04080E+03 1.29148E-10 1.21133E-09
 -1       659-7.54893E+04-1.40860E+06-1.13021E+05 8.53042E+03-3.78350E-10-1.44038E-08
 -1       660 5.83856E+04-1.34572E+06-1.40145E+05-1.62512E+03-6.98492E-10 2.98340E-09
 -1       661 1.68341E+05 1.81735E+04 1.65603E+04 6.58312E+04 1.71985E-09 1.17416E-08
 -1       662 1.77204E+05 3.09284E+04 1.11593E+04 6.26846E+04 1.94569E-09 2.61593E-10
 -1       663 1.71591E+05 2.34887E+04 3.90343E+03 6.48905E+04 8.81982E-10-5.44787E-10
 -1       664 1.73441E+05 2.47092E+04 2.33414E+03 6.38306E+04 1.81990E-09 5.96910E-09
 -1       665 1.72080E+05 2.42180E+04 9.20768E+02 6.47510E+04-2.29869E-09 4.45263E-09
 -1       666 1.72865E+05 2.38725E+04 5.37565E+02 6.40109E+04-3.01861E-09 8.79730E-09
 -1       667 1.72164E+05 2.43035E+04 2.84108E+02 6.47184E+04 3.36513E-10 7.74076E-10
 -1       668 1.72774E+05 2.38075E+04 2.86230E+02 6.40582E+04 6.77062E-10-3.58349E-09
 -1       669 1.72170E+05 2.42810E+04 3.84828E+02 6.47042E+04 1.71192E-09-9.07545E-09
 -1       670 1.72869E+05 2.40137E+04 8.35479E+02 6.40598E+04 3.51253E-09 3.49442E-09
 -1       671 1.72069E+05 2.41014E+04 1.48260E+03 6.47151E+04 2.38408E-09-5.38807E-09
 -1       672 1.73733E+05 2.54562E+04 3.79255E+03 6.38512E+04 1.50106E-09-3.82607E-09
 -1       673 1.71311E+05 2.28749E+04 6.35544E+03 6.48989E+04 1.97929E-10-1.29353E-09
 -1       674 1.79783E+05 3.56651E+04 1.81751E+04 6.20723E+04-2.29056E-09 7.93762E-10
 -1       675 1.66057E+05 1.41781E+04 2.69779E+04 6.63865E+04 1.23100E-09-8.55289E-09
 -1       676 2.08135E+01-2.51090E+05-9.66854E+02 1.36466E+01-6.99060E-10 2.72881E-09
 -1       677-2.56765E+02-2.51324E+05-1.76947E+03-2.72764E+01-2.38691E-09-8.22783E-09
 -1       678 1.71401E+02-2.50924E+05-3.12797E+03 1.36205E+01 9.55197E-10-1.00173E-08
 -1       679-3.12886E+03-2.53212E+05-7.43060E+03-2.71767E+01 1.01295E-10-1.14236E-08
 -1       680 1.86731E+03-2.49203E+05-1.19756E+04 1.33926E+01 5.54792E-11-5.58071E-09
 -1       771-2.66497E+06-5.34379E+05-7.76155E+04-1.17718E+06-1.59052E-08-1.19326E-08
 -1       772-2.62632E+06-5.86301E+05-4.07534E+04-1.23630E+06-1.19690E-08 9.79708E-09
 -1       773-2.67870E+06-5.23510E+05-1.92499E+04-1.18195E+06-6.75209E-09 6.83940E-09
 -1       774-2.61794E+06-5.78262E+05-8.92056E+03-1.24605E+06 1.15251E-08-1.05865E-09
 -1       775-2.68433E+06-5.19507E+05-5.67208E+03-1.18345E+06-1.05210E-08-1.86265E-09
 -1       776-2.62047E+06-5.77994E+05-2.29362E+03-1.25265E+06-1.52795E-08 5.08226E-09
 -1       777-2.68894E+06-5.16113E+05-2.16540E+03-1.18475E+06-2.91038E-11 1.84809E-09
 -1       778-2.62344E+06-5.77857E+05-6.85614E+02-1.25823E+06 5.35510E-09 4.05271E-09
 -1       779-2.69279E+06-5.13215E+05-1.00327E+03-1.18588E+06-8.26549E-09-1.54978E-08
 -1       780-2.62608E+06-5.77681E+05-2.39681E+02-1.26276E+06-6.37374E-09 6.05723E-10
 -1       781-2.69578E+06-5.10912E+05-4.79381E+02-1.18676E+06-1.07320E-08-1.38243E-09
 -1       782-2.62812E+06-5.77502E+05-1.42665E+02-1.26608E+06-2.09511E-08-4.11956E-09
 -1       783-2.69784E+06-5.09348E+05-3.32751E+02-1.18738E+06-3.52884E-09-7.66067E-09
 -1       784-2.62951E+06-5.77480E+05-4.60452E+02-1.26809E+06-1.23127E-08-3.40719E-09
 -1       785-2.69880E+06-5.08614E+05-9.18439E+02-1.18763E+06-2.00071E-08 3.84898E-09
 -1       786 1.37568E+05-9.21418E+03 2.13167E+04-1.09466E+02 1.92851E-09 2.60025E-09
 -1       787 1.46810E+05 1.06671E+04 1.50810E+04 2.92572E+01 1.93983E-09 1.32827E-08
 -1       788 1.41132E+05-1.44436E+03 5.51615E+03-8.51129E+01 1.51222E-09 1.74250E-08
 -1       789 1.42658E+05 1.67108E+03 3.46429E+03-1.02264E+01 1.92989E-10 1.36567E-08
 -1       790 1.41721E+05-2.25440E+02 1.40596E+03-6.99859E+01-1.10725E-09 3.72876E-09
 -1       791 1.41970E+05 2.60901E+02 8.18493E+02-3.67372E+01-1.93233E-09 3.53464E-09
 -1       792 1.41820E+05-3.52408E+01 3.59748E+02-5.86023E+01-3.32670E-10 7.74904E-10
 -1       793 1.41855E+05 4.28282E+01 2.07646E+02-5.86671E+01 2.89165E-10-3.27120E-10
 -1       794 1.41836E+05-7.50719E+00 1.10843E+02-4.80556E+01 1.88933E-09 3.66408E-09
 -1       795 1.41842E+05 2.24084E+01 9.82431E+01-8.13883E+01-1.19780E-09 6.96604E-09
 -1       796 1.41833E+05-1.48298E+01 1.09603E+02-3.58807E+01 9.92689E-10 1.09779E-09
 -1       797 1.41882E+05 1.05036E+02 2.27374E+02-1.10170E+02 4.92172E-10 1.05652E-08
 -1       798 1.41797E+05-9.00763E+01 3.48887E+02-1.92735E+01 5.46438E-10 1.55316E-08
 -1       799 1.42140E+05 6.64646E+02 9.42196E+02-1.51681E+02 8.18727E-10 1.20458E-08
 -1       800 1.41574E+05-5.73999E+02 1.32833E+03 5.63126E+00 2.35273E-10 1.06769E-08
 -1       801 8.75335E+04-3.20108E+06-3.05090E+05 6.88799E+04 2.12167E-08-9.42600E-09
 -1       802-1.05173E+05-2.84503E+06-1.27419E+05-5.85618E+04 5.65706E-08-1.33447E-08
 -1       803 1.46980E+04-3.05945E+06-6.91513E+04 1.54044E+05 3.83261E-08 2.63146E-08
 -1       804-5.17591E+03-2.89651E+06 1.85074E+02 3.01426E+04 3.15767E-08 2.99052E-08
 -1       805-1.48306E+04-3.14981E+06-2.20203E+04-1.98274E+04 1.18525E-08 1.78206E-08
 -1       806-2.44864E+05-4.70417E+04-1.82478E+04-9.64632E+04-1.07593E-09-2.05091E-09
 -1       807-2.46421E+05-4.39422E+04-8.96493E+03-1.00744E+05 2.67437E-09-8.08494E-09
 -1       808-2.45354E+05-4.04769E+04-3.80321E+03-9.95868E+04 6.96673E-10 8.15601E-09
 -1       809-2.44539E+05-4.14212E+04-1.85964E+03-1.00963E+05-3.95289E-09 1.18423E-08
 -1       810-2.45430E+05-4.02478E+04-8.52107E+02-9.97257E+04 1.50976E-10 4.80463E-09
 -1       811-2.44394E+05-4.13194E+04-4.23475E+02-1.00936E+05 2.00248E-09-5.77415E-10
 -1       812-2.45443E+05-4.02665E+04-2.13384E+02-9.97258E+04-5.80712E-10 6.86555E-09
 -1       813-2.44376E+05-4.13207E+04-1.37604E+02-1.00923E+05-1.86446E-09 8.56915E-09
 -1       814-2.45439E+05-4.02731E+04-1.34369E+02-9.97233E+04-2.14004E-09 2.02863E-09
 -1       815-2.44380E+05-4.13222E+04-2.15096E+02-1.00919E+05 1.05774E-09-7.76708E-10
 -1       816-2.45425E+05-4.02712E+04-4.06374E+02-9.97213E+04 2.16733E-09 2.16787E-08
 -1       817-2.44450E+05-4.13606E+04-8.72278E+02-1.00913E+05-6.25050E-09-7.11066E-09
 -1       818-2.45375E+05-4.03926E+04-1.77858E+03-9.96638E+04-5.15320E-09 8.36280E-09
 -1       819-2.45425E+05-4.24361E+04-4.18574E+03-1.00686E+05-3.58523E-09 1.12939E-08
 -1       820-2.45047E+05-4.35486E+04-8.51899E+03-9.83073E+04-1.00044E-09 6.84895E-09
 -1       821-3.00802E+05 1.66390E+04-3.84813E+04 3.50121E+02 2.83346E-06-9.55115E-08
 -1       822-3.17472E+05-1.92624E+04-2.72303E+04-1.04528E+03 5.69033E-06 3.24690E-09
 -1       823-3.07233E+05 2.60906E+03-9.96631E+03 3.74276E+02 2.83722E-06-9.10404E-10
 -1       824-3.09960E+05-3.01923E+03-6.26928E+03-8.76558E+02 8.78983E-09 4.55930E-09
 -1       825-3.08311E+05 4.08000E+02-2.58017E+03 1.81402E+02-2.56431E-10 5.10113E-10
 -1       826-3.08698E+05-4.80643E+02-1.55075E+03-3.61629E+02-1.28046E-09 2.99573E-09
 -1       827-3.08494E+05 7.17212E+01-8.11571E+02-1.40661E+02-1.95956E-09-6.66762E-09
 -1       828-3.08530E+05-1.46856E+02-7.10281E+02 2.67355E+02-5.59490E-09-1.47729E-09
 -1       829-3.08479E+05 7.45195E+01-8.27799E+02-4.47592E+02 1.78787E-10 4.46531E-09
 -1       830-3.08742E+05-4.99584E+02-1.61288E+03 7.28117E+02 1.11790E-09 3.35422E-09
 -1       831-3.08283E+05 4.24835E+02-2.67551E+03-6.01432E+02-2.87626E-09 1.05445E-09
 -1       832-3.10035E+05-3.13858E+03-6.52012E+03 8.14048E+02-1.96374E-09 5.90558E-09
 -1       833-3.07188E+05 2.71179E+03-1.03635E+04-5.33524E+02-2.66963E-09-1.11231E-09
 -1       834-3.17802E+05-2.00263E+04-2.83080E+04 4.85328E+02-1.55200E-09 1.04587E-08
 -1       835-3.00517E+05 1.72990E+04-4.00176E+04-2.72699E+02 5.87907E-09 1.56069E-09
 -1       836-1.02191E+03 2.83922E+05 1.72200E+04-1.75545E+04-1.88265E-10-3.95175E-09
 -1       837 3.75457E+03 2.89275E+05 1.47398E+04-3.53001E+04 3.43107E-10 3.20051E-09
 -1       838-3.91239E+02 2.85401E+05 1.52541E+04-1.74876E+04 3.27873E-10 5.59407E-09
 -1       839 9.77685E+03 2.93763E+05 2.90881E+04-3.53372E+04 9.13133E-10-5.78501E-09
 -1       840-2.96397E+03 2.79391E+05 4.64853E+04-1.75165E+04 1.52795E-10-9.71227E-10
 -1       856-7.65475E+04 7.60378E+03-2.00383E+04-4.29320E+02-1.24584E-09 3.42425E-09
 -1       857-8.48207E+04-8.92051E+03-1.37954E+04 4.76729E+03-1.40903E-09 3.95698E-09
 -1       858-7.98174E+04 1.06551E+03-5.20023E+03-4.51350E+02-3.16965E-09 2.54931E-09
 -1       859-8.10664E+04-1.24070E+03-3.13996E+03 4.80203E+03 1.16984E-10 2.17875E-09
 -1       860-8.03061E+04 1.48313E+02-1.31901E+03-4.64135E+02-3.04254E-10 9.40645E-10
 -1       861-8.05037E+04-1.65191E+02-7.32038E+02 4.81954E+03-2.99167E-09-8.44024E-09
 -1       862-8.03823E+04 1.96087E+01-3.17192E+02-4.68882E+02 3.25542E-09-1.16106E-08
 -1       863-8.04126E+04-1.17662E+01-1.44815E+02 4.82180E+03 6.01317E-09 8.18643E-09
 -1       864-8.03975E+04-1.70784E+00-2.11562E+01-4.66405E+02 2.88063E-09-1.01236E-08
 -1       865-8.03780E+04 3.59776E+01 9.52213E+01 4.80906E+03 4.11124E-09-1.68190E-08
 -1       866-8.04151E+04-2.85196E+01 2.25676E+02-4.56137E+02 1.37379E-09 5.31908E-09
 -1       867-8.02626E+04 2.37756E+02 5.77330E+02 4.78114E+03-8.70870E-10 1.55716E-08
 -1       868-8.05092E+04-2.00906E+02 9.64421E+02-4.38483E+02-5.86056E-10 1.16438E-09
 -1       869-7.95486E+04 1.67015E+03 2.57623E+03 4.73484E+03-2.89606E-09-1.59629E-08
 -1       870-8.11234E+04-1.42356E+03 3.73731E+03-4.09838E+02 3.60728E-10-3.44630E-09
 -1       871-4.53498E+03-1.09078E+04-1.49221E+04 9.89958E+04 8.80391E-10-7.35963E-09
 -1       872-1.91377E+03-1.42759E+04-6.12447E+03 1.28347E+05 1.53341E-09-7.74298E-09
 -1       873 1.54121E+01-1.26973E+04 7.62213E+02 9.87787E+04 2.38288E-10 1.76215E-09
 -1       874 2.31485E+03-1.06015E+04 8.21411E+03 1.28387E+05 3.36513E-10 1.53805E-08
 -1       875 5.35169E+03-1.46464E+04 1.82880E+04 9.89609E+04 7.66704E-10 3.94266E-09
 -1       876 2.38490E+05 4.08181E+04 1.25557E+04 9.64411E+04-5.44105E-10 7.43512E-09
 -1       877 2.39250E+05 4.35323E+04 6.70514E+03 1.00109E+05-6.92989E-09 1.18878E-08
 -1       878 2.39663E+05 3.94289E+04 2.80913E+03 9.74723E+04-1.97815E-10-1.16142E-09
 -1       879 2.37543E+05 4.18304E+04 1.39950E+03 1.00196E+05 1.13675E-09-4.48199E-09
 -1       880 2.39748E+05 3.94139E+04 6.51690E+02 9.75144E+04 1.52636E-09-9.07954E-09
 -1       881 2.37429E+05 4.17579E+04 3.47493E+02 1.00178E+05 4.68935E-09 5.33799E-09
 -1       882 2.39756E+05 3.94244E+04 2.21424E+02 9.75156E+04 5.56543E-09-6.29645E-09
 -1       883 2.37421E+05 4.17544E+04 2.36607E+02 1.00172E+05-1.65062E-09 5.72281E-09
 -1       884 2.39751E+05 3.94219E+04 3.75088E+02 9.75158E+04-1.15836E-09 9.77292E-09
 -1       885 2.37451E+05 4.17597E+04 7.53326E+02 1.00181E+05-1.28540E-09 1.83417E-09
 -1       886 2.39722E+05 3.93999E+04 1.51792E+03 9.75128E+04 1.39809E-09-6.17297E-09
 -1       887 2.37718E+05 4.19346E+04 3.31556E+03 1.00220E+05 1.45985E-09 9.53742E-09
 -1       888 2.39513E+05 3.94367E+04 6.68092E+03 9.74066E+04 4.69961E-09-1.81217E-09
 -1       889 2.41698E+05 4.60688E+04 1.59599E+04 1.00095E+05 1.33296E-09 4.92491E-10
 -1       890 2.36791E+05 4.26704E+04 2.98920E+04 9.48581E+04 1.49566E-09 6.66114E-09
 -1       891-1.34928E+02-1.34420E+05-1.60956E+03 2.45708E+04-1.26101E-09 3.87899E-10
 -1       892-2.37741E+02-1.34812E+05-1.74214E+03 3.72020E+04-1.21781E-09-2.69370E-09
 -1       893-2.83056E+01-1.34470E+05-2.48064E+03 2.45760E+04-7.88987E-11 9.76797E-10
 -1       894-1.33371E+03-1.35756E+05-5.14406E+03 3.70684E+04 8.89486E-10 6.10089E-09
 -1       895-1.04633E+03-1.33398E+05-9.06273E+03 2.47030E+04-7.82734E-10 4.16549E-09
 -1       956-3.02006E+05-4.26001E+03-1.06972E+04 2.06686E+04-3.68254E-09 4.80429E-09
 -1       957-3.04117E+05-1.44509E+03-5.49138E+03 2.48897E+04-4.95311E-09-1.07061E-08
 -1       958-3.02958E+05-1.23417E+02-2.47411E+03 2.05426E+04 9.95897E-10-1.32613E-08
 -1       959-3.03124E+05-2.98044E+01-1.26371E+03 2.50279E+04-2.73030E-09 6.20730E-10
 -1       960-3.03044E+05 2.76893E+01-6.16145E+02 2.05304E+04-7.96263E-10 1.04260E-08
 -1       961-3.03054E+05 2.43978E+01-3.27000E+02 2.50420E+04 6.76664E-10 1.33539E-08
 -1       962-3.03062E+05 2.40058E+01-1.87413E+02 2.05285E+04 3.09228E-10 1.01343E-08
 -1       963-3.03051E+05 2.60744E+01-1.50869E+02 2.50445E+04-3.91503E-09 8.48036E-09
 -1       964-3.03066E+05 2.61876E+01-1.83725E+02 2.05278E+04-2.40914E-09-1.19628E-08
 -1       965-3.03062E+05 2.90599E+01-3.17970E+02 2.50443E+04 3.40219E-09-1.24883E-08
 -1       966-3.03055E+05 3.41738E+01-5.97243E+02 2.05286E+04-2.13686E-09-1.00342E-08
 -1       967-3.03139E+05-1.89282E+01-1.22509E+03 2.50356E+04-6.34373E-11-8.51492E-09
 -1       968-3.02978E+05-1.08006E+02-2.39770E+03 2.05367E+04 1.18280E-09-1.00439E-09
 -1       969-3.04109E+05-1.38705E+03-5.32351E+03 2.49420E+04 2.53272E-09-4.85485E-09
 -1       970-3.02061E+05-4.11546E+03-1.03694E+04 2.06234E+04-5.13865E-10 5.33873E-09
 -1       971-2.83276E+05-1.47055E+03-8.13257E+03 1.34120E+04-2.17460E-09-3.31013E-09
 -1       972-2.85251E+05-1.05836E+03-4.42891E+03 1.87068E+04-2.24873E-09-1.67586E-09
 -1       973-2.84181E+05-1.65911E+01-1.98335E+03 1.33007E+04-6.54200E-09-8.58563E-10
 -1       974-2.84316E+05-1.86194E+01-1.02759E+03 1.88280E+04-5.95537E-09-4.53269E-10
 -1       975-2.84252E+05 2.19329E+01-5.12855E+02 1.32903E+04-1.97952E-09 2.55250E-09
 -1       976-2.84261E+05 2.43701E+01-2.94407E+02 1.88409E+04-3.75803E-09-9.02082E-09
 -1       977-2.84266E+05 2.20461E+01-2.11060E+02 1.32877E+04-1.65642E-09-2.77134E-09
 -1       978-2.84265E+05 2.93776E+01-2.43408E+02 1.88445E+04 8.16328E-09 2.39743E-09
 -1       979-2.84266E+05 2.87941E+01-3.88013E+02 1.32866E+04 2.54965E-09-9.55538E-10
 -1       980-2.84294E+05 3.18336E+01-7.47280E+02 1.88451E+04 5.98823E-09-3.55931E-09
 -1       981-2.84242E+05 4.74168E+01-1.44630E+03 1.32871E+04 2.09809E-09 4.95834E-09
 -1       982-2.84492E+05-7.49816E+01-2.98892E+03 1.88394E+04-1.86628E-09 2.47432E-09
 -1       983-2.84060E+05-4.51258E+01-5.80719E+03 1.32926E+04 1.19007E-09-7.08087E-09
 -1       984-2.87285E+05-3.10777E+03-1.30045E+04 1.87636E+04-7.11680E-11 1.96553E-09
 -1       985-2.81431E+05-4.29448E+03-2.38804E+04 1.33664E+04 1.49566E-09 6.18456E-10
 -3
    1PSTEP                        17           9           1          
  100CL  109 5.74219E-01         409                     0    9           1
 -4  DISP        4    1
 -5  D1          1    2    1    0
 -5  D2          1    2    2    0
 -5  D3          1    2    3    0
 -5  ALL         1    2    0    0    1ALL
 -1         1 5.35592E-04 0.00000E+00 0.00000E+00
 -1         2 4.93691E-04 2.70753E-29 6.61744E-24
 -1         3 2.16095E-04-1.58504E-27 1.32349E-23
 -1         5 1.31001E-04-2.65387E-27 0.00000E+00
 -1         8 5.12880E-04-7.41640E-07 0.00000E+00
 -1         9 4.94469E-04-1.82144E-06 0.00000E+00
 -1        10 1.97706E-04-2.81434E-06 0.00000E+00
 -1        12 1.31159E-04 6.37929E-07-1.65436E-24
 -1        15 4.85651E-04-8.22108E-07 0.00000E+00
 -1        16 4.91899E-04-2.26514E-06 0.00000E+00
 -1        17 1.40120E-04-6.08321E-06 0.00000E+00
 -1        18 1.30348E-04 1.08554E-05 0.00000E+00
 -1        19 1.31635E-04 1.27262E-06 0.00000E+00
 -1        20 1.31782E-04 8.59654E-06 0.00000E+00
 -1        21 1.31115E-04 1.39406E-05-3.30872E-24
 -1        24 2.47915E-05-8.63946E-06 0.00000E+00
 -1        25 1.32658E-04 1.10099E-05 0.00000E+00
 -1        26 1.33382E-04 1.76305E-06 0.00000E+00
 -1        27 1.31629E-04 5.69738E-06 0.00000E+00
 -1        28 1.31203E-04 1.34064E-05 0.00000E+00
 -1        32 0.00000E+00 0.00000E+00 0.00000E+00
 -1        33 1.34024E-04 2.36294E-06 0.00000E+00
 -1        34 1.32283E-04 5.66737E-06 0.00000E+00
 -1        35 1.30659E-04 1.31200E-05 0.00000E+00
 -1        51 5.34124E-04-1.27552E-07 0.00000E+00
 -1        52 5.31396E-04-2.46125E-07 0.00000E+00
 -1        53 5.27651E-04-3.64793E-07 0.00000E+00
 -1        54 5.23147E-04-4.85413E-07 3.30872E-24
 -1        55 5.18137E-04-6.09118E-07 5.79026E-24
 -1        56 5.33339E-04-7.16838E-07 0.00000E+00
 -1        57 5.30915E-04-1.22795E-06 0.00000E+00
 -1        58 5.28405E-04-1.49508E-06 5.29396E-23
 -1        59 5.25793E-04-1.53227E-06 0.00000E+00
 -1        60 5.23104E-04-1.36662E-06-5.29396E-23
 -1        61 5.20352E-04-1.04196E-06 2.64698E-23
 -1        62 5.17563E-04-6.18214E-07-5.29396E-23
 -1        63 5.14761E-04-1.61451E-07 0.00000E+00
 -1        64 5.11972E-04 2.59005E-07 0.00000E+00
 -1        65 5.09223E-04 5.75779E-07 0.00000E+00
 -1        66 5.06535E-04 7.32573E-07 5.29396E-23
 -1        67 5.03926E-04 6.82331E-07 0.00000E+00
 -1        68 5.01406E-04 3.99198E-07 5.29396E-23
 -1        69 4.98989E-04-1.25291E-07 2.64698E-23
 -1        70 4.96656E-04-8.83340E-07 0.00000E+00
 -1        86 4.93718E-04-2.99807E-07 1.32349E-23
 -1        87 4.93799E-04-6.00034E-07 0.00000E+00
 -1        88 4.93926E-04-9.00330E-07-1.32349E-23
 -1        89 4.94089E-04-1.20327E-06-6.61744E-24
 -1        90 4.94275E-04-1.50532E-06 1.32349E-23
 -1       121 2.15580E-04-4.63059E-07 0.00000E+00
 -1       122 2.14035E-04-9.27144E-07 0.00000E+00
 -1       123 2.11465E-04-1.39327E-06 1.32349E-23
 -1       124 2.07880E-04-1.86249E-06 0.00000E+00
 -1       125 2.03288E-04-2.33563E-06 0.00000E+00
 -1       191 1.31005E-04 1.06326E-07 0.00000E+00
 -1       192 1.31019E-04 2.12650E-07 0.00000E+00
 -1       193 1.31041E-04 3.18974E-07 3.30872E-24
 -1       194 1.31071E-04 4.25297E-07 0.00000E+00
 -1       195 1.31111E-04 5.31616E-07-3.30872E-24
 -1       251 5.12235E-04 1.25754E-05-1.32349E-23
 -1       252 5.11216E-04 4.31863E-05 6.61744E-24
 -1       253 5.09793E-04 8.56576E-05-1.32349E-23
 -1       254 5.08099E-04 1.34283E-04 0.00000E+00
 -1       255 5.06459E-04 1.81703E-04 0.00000E+00
 -1       256 5.05173E-04 2.20587E-04 0.00000E+00
 -1       257 5.04292E-04 2.45894E-04 0.00000E+00
 -1       258 5.03696E-04 2.52892E-04 6.61744E-24
 -1       259 5.03064E-04 2.41683E-04-1.32349E-23
 -1       260 5.02091E-04 2.12793E-04 6.61744E-24
 -1       261 5.00710E-04 1.71421E-04 0.00000E+00
 -1       262 4.99026E-04 1.23050E-04-6.61744E-24
 -1       263 4.97359E-04 7.50441E-05 1.32349E-23
 -1       264 4.96019E-04 3.47598E-05 0.00000E+00
 -1       265 4.95088E-04 7.47631E-06-1.32349E-23
 -1       266 5.08342E-04-7.65619E-07-3.30872E-24
 -1       267 5.03804E-04-7.77742E-07 0.00000E+00
 -1       268 4.99266E-04-7.90616E-07 0.00000E+00
 -1       269 4.94728E-04-8.01266E-07-2.06795E-25
 -1       270 4.90190E-04-8.11864E-07-4.13590E-25
 -1       271 5.10156E-04 3.02400E-06-2.64698E-23
 -1       272 5.07651E-04 6.10010E-06-1.32349E-23
 -1       273 5.05401E-04 8.50667E-06-2.64698E-23
 -1       274 5.03392E-04 1.02566E-05 1.32349E-23
 -1       275 5.01620E-04 1.13777E-05 0.00000E+00
 -1       276 5.00070E-04 1.19050E-05 0.00000E+00
 -1       277 4.98726E-04 1.18831E-05 0.00000E+00
 -1       278 4.97569E-04 1.13648E-05 1.32349E-23
 -1       279 4.96575E-04 1.04105E-05 0.00000E+00
 -1       280 4.95718E-04 9.08736E-06 0.00000E+00
 -1       281 4.94973E-04 7.46807E-06-2.64698E-23
 -1       282 4.94310E-04 5.62989E-06-1.32349E-23
 -1       283 4.93699E-04 3.65337E-06 2.64698E-23
 -1       284 4.93113E-04 1.62241E-06 0.00000E+00
 -1       285 4.92515E-04-3.81081E-07 0.00000E+00
 -1       301 4.94040E-04-1.91270E-06-6.61744E-24
 -1       302 4.93224E-04-1.97876E-06 0.00000E+00
 -1       303 4.92309E-04-2.04328E-06 0.00000E+00
 -1       304 4.91590E-04-2.10769E-06-6.61744E-24
 -1       305 4.91357E-04-2.17369E-06-1.32349E-23
 -1       306 5.08868E-04-5.30102E-05 0.00000E+00
 -1       307 5.49726E-04-2.01445E-04 2.64698E-23
 -1       308 6.04817E-04-4.22578E-04 0.00000E+00
 -1       309 6.65478E-04-6.84621E-04 2.64698E-23
 -1       310 7.25933E-04-9.45055E-04-1.05879E-22
 -1       311 7.80258E-04-1.16150E-03 0.00000E+00
 -1       312 8.19514E-04-1.30309E-03-1.05879E-22
 -1       313 8.31284E-04-1.34642E-03-2.64698E-23
 -1       314 8.04954E-04-1.29046E-03 1.05879E-22
 -1       315 7.33441E-04-1.14329E-03-5.29396E-23
 -1       316 6.23312E-04-9.30774E-04-5.29396E-23
 -1       317 4.88698E-04-6.81957E-04-2.64698E-23
 -1       318 3.53535E-04-4.32344E-04 5.29396E-23
 -1       319 2.41887E-04-2.17437E-04 2.64698E-23
 -1       320 1.68374E-04-6.65898E-05 5.29396E-23
 -1       336 1.91021E-04-3.33615E-06 1.32349E-23
 -1       337 1.83126E-04-3.86704E-06 0.00000E+00
 -1       338 1.74050E-04-4.40733E-06 1.32349E-23
 -1       339 1.63829E-04-4.95707E-06 6.61744E-24
 -1       340 1.52504E-04-5.51832E-06 0.00000E+00
 -1       406 1.31217E-04 7.44229E-07 3.30872E-24
 -1       407 1.31283E-04 8.50495E-07 0.00000E+00
 -1       408 1.31358E-04 9.56697E-07 0.00000E+00
 -1       409 1.31441E-04 1.06271E-06 0.00000E+00
 -1       410 1.31534E-04 1.16833E-06 0.00000E+00
 -1       521 5.08315E-04-6.25837E-05 0.00000E+00
 -1       522 5.53320E-04-2.34434E-04 0.00000E+00
 -1       523 6.12564E-04-4.90048E-04 0.00000E+00
 -1       524 6.76576E-04-7.92208E-04 5.29396E-23
 -1       525 7.40367E-04-1.09202E-03 1.05879E-22
 -1       526 7.98706E-04-1.34084E-03-5.29396E-23
 -1       527 8.41588E-04-1.50274E-03 1.05879E-22
 -1       528 8.54276E-04-1.55166E-03 0.00000E+00
 -1       529 8.22737E-04-1.48614E-03 0.00000E+00
 -1       530 7.37723E-04-1.31695E-03 0.00000E+00
 -1       531 6.06031E-04-1.07348E-03 1.05879E-22
 -1       532 4.44573E-04-7.89176E-04-5.29396E-23
 -1       533 2.82184E-04-5.03629E-04-1.05879E-22
 -1       534 1.47928E-04-2.56428E-04 0.00000E+00
 -1       535 5.95482E-05-8.14129E-05-1.05879E-22
 -1       536 1.39787E-04 1.35812E-05 0.00000E+00
 -1       537 1.39119E-04 4.67086E-05 0.00000E+00
 -1       538 1.38160E-04 8.81897E-05 0.00000E+00
 -1       539 1.37069E-04 1.32871E-04-1.65436E-24
 -1       540 1.36093E-04 1.74706E-04 0.00000E+00
 -1       541 1.35437E-04 2.07665E-04 0.00000E+00
 -1       542 1.35094E-04 2.28124E-04 3.30872E-24
 -1       543 1.34942E-04 2.32535E-04-1.65436E-24
 -1       544 1.34744E-04 2.21491E-04-3.30872E-24
 -1       545 1.34283E-04 1.95684E-04 0.00000E+00
 -1       546 1.33528E-04 1.59658E-04 0.00000E+00
 -1       547 1.32563E-04 1.18017E-04-1.65436E-24
 -1       548 1.31618E-04 7.69089E-05 0.00000E+00
 -1       549 1.30918E-04 4.24765E-05 0.00000E+00
 -1       550 1.30514E-04 1.90409E-05 0.00000E+00
 -1       551 1.24599E-04-6.44608E-06 0.00000E+00
 -1       552 1.06449E-04-6.84534E-06 0.00000E+00
 -1       553 8.65254E-05-7.27486E-06-6.61744E-24
 -1       554 6.56965E-05-7.72353E-06-6.61744E-24
 -1       555 4.48308E-05-8.17551E-06 0.00000E+00
 -1       556 1.35747E-04 5.19041E-06-2.64698E-23
 -1       557 1.32299E-04 1.41086E-05 0.00000E+00
 -1       558 1.29680E-04 2.08701E-05 0.00000E+00
 -1       559 1.27804E-04 2.56900E-05 0.00000E+00
 -1       560 1.26584E-04 2.87832E-05 0.00000E+00
 -1       561 1.25936E-04 3.03662E-05 0.00000E+00
 -1       562 1.25775E-04 3.06560E-05 0.00000E+00
 -1       563 1.26017E-04 2.98700E-05 0.00000E+00
 -1       564 1.26581E-04 2.82257E-05 0.00000E+00
 -1       565 1.27384E-04 2.59414E-05 0.00000E+00
 -1       566 1.28344E-04 2.32350E-05-3.30872E-24
 -1       567 1.29380E-04 2.03251E-05 0.00000E+00
 -1       568 1.30411E-04 1.74298E-05-1.65436E-24
 -1       569 1.31354E-04 1.47674E-05 0.00000E+00
 -1       570 1.32130E-04 1.25561E-05 0.00000E+00
 -1       571 1.30426E-04 1.02420E-05 1.65436E-24
 -1       572 1.30506E-04 9.58125E-06 0.00000E+00
 -1       573 1.30586E-04 8.88319E-06 0.00000E+00
 -1       574 1.30667E-04 8.15846E-06 8.27181E-25
 -1       575 1.30748E-04 7.41771E-06-1.65436E-24
 -1       576 1.30828E-04 6.67163E-06 0.00000E+00
 -1       577 1.30909E-04 5.93094E-06 3.30872E-24
 -1       578 1.30989E-04 5.20636E-06-1.65436E-24
 -1       579 1.31070E-04 4.50859E-06-3.30872E-24
 -1       580 1.31151E-04 3.84837E-06 0.00000E+00
 -1       581 1.31232E-04 3.23641E-06-6.61744E-24
 -1       582 1.31312E-04 2.68341E-06 6.61744E-24
 -1       583 1.31393E-04 2.20006E-06 0.00000E+00
 -1       584 1.31474E-04 1.79696E-06 0.00000E+00
 -1       585 1.31555E-04 1.48461E-06 6.61744E-24
 -1       586 1.30678E-04 1.08829E-05 0.00000E+00
 -1       587 1.30983E-04 1.09098E-05-3.61892E-25
 -1       588 1.31298E-04 1.09363E-05 0.00000E+00
 -1       589 1.31658E-04 1.09623E-05 0.00000E+00
 -1       590 1.32100E-04 1.09875E-05 0.00000E+00
 -1       591 1.30538E-04 1.02962E-05-1.03398E-25
 -1       592 1.30734E-04 9.71078E-06 0.00000E+00
 -1       593 1.30937E-04 9.10530E-06 0.00000E+00
 -1       594 1.31146E-04 8.48484E-06 0.00000E+00
 -1       595 1.31358E-04 7.85466E-06 8.27181E-25
 -1       596 1.31572E-04 7.21994E-06 4.13590E-25
 -1       597 1.31785E-04 6.58586E-06 4.13590E-25
 -1       598 1.31997E-04 5.95760E-06 2.06795E-25
 -1       599 1.32204E-04 5.34033E-06 0.00000E+00
 -1       600 1.32405E-04 4.73922E-06 0.00000E+00
 -1       601 1.32598E-04 4.15945E-06 4.13590E-25
 -1       602 1.32782E-04 3.60620E-06-2.06795E-25
 -1       603 1.32953E-04 3.08465E-06-3.10193E-25
 -1       604 1.33112E-04 2.60004E-06-5.16988E-26
 -1       605 1.33254E-04 2.15750E-06 0.00000E+00
 -1       606 1.31648E-04 1.23899E-06-3.30872E-24
 -1       607 1.31658E-04 1.29976E-06 0.00000E+00
 -1       608 1.31668E-04 1.44936E-06 0.00000E+00
 -1       609 1.31677E-04 1.68157E-06 1.65436E-24
 -1       610 1.31686E-04 1.99010E-06 0.00000E+00
 -1       611 1.31695E-04 2.36856E-06 0.00000E+00
 -1       612 1.31704E-04 2.81059E-06 0.00000E+00
 -1       613 1.31713E-04 3.30982E-06 0.00000E+00
 -1       614 1.31722E-04 3.85985E-06 0.00000E+00
 -1       615 1.31731E-04 4.45430E-06 0.00000E+00
 -1       616 1.31740E-04 5.08680E-06 0.00000E+00
 -1       617 1.31748E-04 5.75096E-06 0.00000E+00
 -1       618 1.31757E-04 6.44039E-06-8.27181E-25
 -1       619 1.31766E-04 7.14872E-06 4.13590E-25
 -1       620 1.31774E-04 7.86957E-06 0.00000E+00
 -1       621 1.31797E-04 1.35456E-06 0.00000E+00
 -1       622 1.32030E-04 1.43677E-06-1.65436E-24
 -1       623 1.32319E-04 1.51894E-06 1.65436E-24
 -1       624 1.32651E-04 1.60095E-06 8.27181E-25
 -1       625 1.33010E-04 1.68281E-06 0.00000E+00
 -1       626 1.31739E-04 1.26765E-06 3.30872E-24
 -1       627 1.31816E-04 1.33829E-06-1.65436E-24
 -1       628 1.31868E-04 1.47675E-06 0.00000E+00
 -1       629 1.31897E-04 1.67483E-06 0.00000E+00
 -1       630 1.31908E-04 1.92431E-06 3.30872E-24
 -1       631 1.31902E-04 2.21691E-06-1.65436E-24
 -1       632 1.31882E-04 2.54439E-06 3.30872E-24
 -1       633 1.31853E-04 2.89847E-06 4.96308E-24
 -1       634 1.31817E-04 3.27090E-06 3.30872E-24
 -1       635 1.31778E-04 3.65341E-06 1.65436E-24
 -1       636 1.31737E-04 4.03775E-06-3.30872E-24
 -1       637 1.31699E-04 4.41565E-06-8.27181E-25
 -1       638 1.31666E-04 4.77884E-06 0.00000E+00
 -1       639 1.31642E-04 5.11906E-06-8.27181E-25
 -1       640 1.31629E-04 5.42803E-06-1.65436E-24
 -1       656 1.31276E-04 8.12492E-06-6.61744E-24
 -1       657 1.31158E-04 7.63440E-06 0.00000E+00
 -1       658 1.31289E-04 7.14531E-06-1.32349E-23
 -1       659 1.31524E-04 6.65660E-06 0.00000E+00
 -1       660 1.31693E-04 6.16637E-06 6.61744E-24
 -1       661 1.31596E-04 9.28995E-06-8.27181E-25
 -1       662 1.31438E-04 9.91487E-06 0.00000E+00
 -1       663 1.31305E-04 1.04742E-05 0.00000E+00
 -1       664 1.31195E-04 1.09723E-05 0.00000E+00
 -1       665 1.31108E-04 1.14126E-05 0.00000E+00
 -1       666 1.31040E-04 1.17988E-05 0.00000E+00
 -1       667 1.30992E-04 1.21345E-05 0.00000E+00
 -1       668 1.30961E-04 1.24231E-05 0.00000E+00
 -1       669 1.30946E-04 1.26678E-05 0.00000E+00
 -1       670 1.30947E-04 1.28719E-05 8.27181E-25
 -1       671 1.30962E-04 1.30384E-05 1.65436E-24
 -1       672 1.30990E-04 1.31702E-05 0.00000E+00
 -1       673 1.31029E-04 1.32704E-05 0.00000E+00
 -1       674 1.31079E-04 1.33414E-05 8.27181E-25
 -1       675 1.31139E-04 1.33865E-05 4.13590E-25
 -1       676 1.31129E-04 1.38511E-05-3.30872E-24
 -1       677 1.31144E-04 1.37615E-05 1.65436E-24
 -1       678 1.31159E-04 1.36721E-05 0.00000E+00
 -1       679 1.31173E-04 1.35829E-05 0.00000E+00
 -1       680 1.31188E-04 1.34937E-05 0.00000E+00
 -1       771 1.72788E-05 7.52143E-06 5.29396E-23
 -1       772 1.08878E-05 2.07828E-05 0.00000E+00
 -1       773 5.56525E-06 3.12930E-05 0.00000E+00
 -1       774 1.23971E-06 3.92157E-05 0.00000E+00
 -1       775-2.15958E-06 4.47200E-05 0.00000E+00
 -1       776-4.70618E-06 4.79830E-05 0.00000E+00
 -1       777-6.47407E-06 4.91872E-05 5.29396E-23
 -1       778-7.53892E-06 4.85218E-05 0.00000E+00
 -1       779-7.97653E-06 4.61802E-05 0.00000E+00
 -1       780-7.86409E-06 4.23614E-05 0.00000E+00
 -1       781-7.27873E-06 3.72679E-05-5.29396E-23
 -1       782-6.29865E-06 3.11066E-05 2.64698E-23
 -1       783-5.00189E-06 2.40862E-05-5.29396E-23
 -1       784-3.46734E-06 1.64191E-05 0.00000E+00
 -1       785-1.77358E-06 8.31880E-06 2.64698E-23
 -1       786 1.32699E-04 1.02272E-05-1.03398E-25
 -1       787 1.32744E-04 9.48980E-06 0.00000E+00
 -1       788 1.32789E-04 8.79002E-06 0.00000E+00
 -1       789 1.32834E-04 8.12041E-06 8.27181E-25
 -1       790 1.32880E-04 7.47666E-06-1.65436E-24
 -1       791 1.32925E-04 6.85447E-06 0.00000E+00
 -1       792 1.32971E-04 6.25183E-06 1.65436E-24
 -1       793 1.33017E-04 5.66677E-06 0.00000E+00
 -1       794 1.33062E-04 5.09912E-06-1.65436E-24
 -1       795 1.33108E-04 4.54879E-06 0.00000E+00
 -1       796 1.33154E-04 4.01748E-06-1.65436E-24
 -1       797 1.33199E-04 3.50693E-06 8.27181E-25
 -1       798 1.33245E-04 3.02104E-06 0.00000E+00
 -1       799 1.33291E-04 2.56378E-06 8.27181E-25
 -1       800 1.33336E-04 2.14211E-06 1.65436E-24
 -1       801 1.15496E-04 9.55524E-06-2.64698E-23
 -1       802 6.26913E-05 6.86071E-06 1.32349E-23
 -1       803 9.60180E-06 4.15497E-06 0.00000E+00
 -1       804-8.36824E-06 2.63548E-06 0.00000E+00
 -1       805-6.17619E-06 1.32640E-06-2.64698E-23
 -1       806 1.32858E-04 1.01735E-05-1.65436E-24
 -1       807 1.33045E-04 9.36353E-06-8.27181E-25
 -1       808 1.33220E-04 8.58354E-06 1.65436E-24
 -1       809 1.33382E-04 7.83623E-06 8.27181E-25
 -1       810 1.33531E-04 7.12429E-06-1.65436E-24
 -1       811 1.33666E-04 6.45030E-06-1.65436E-24
 -1       812 1.33786E-04 5.81686E-06 0.00000E+00
 -1       813 1.33889E-04 5.22653E-06-1.65436E-24
 -1       814 1.33976E-04 4.68189E-06 0.00000E+00
 -1       815 1.34044E-04 4.18548E-06 0.00000E+00
 -1       816 1.34093E-04 3.73988E-06 0.00000E+00
 -1       817 1.34122E-04 3.34763E-06 1.65436E-24
 -1       818 1.34131E-04 3.01128E-06 0.00000E+00
 -1       819 1.34118E-04 2.73338E-06 1.65436E-24
 -1       820 1.34082E-04 2.51644E-06-3.30872E-24
 -1       821 1.33279E-04 1.34297E-06 0.00000E+00
 -1       822 1.33169E-04 7.99876E-07 0.00000E+00
 -1       823 1.33060E-04 2.27141E-07 0.00000E+00
 -1       824 1.32949E-04-2.81719E-07 1.65436E-24
 -1       825 1.32839E-04-6.47693E-07 0.00000E+00
 -1       826 1.32728E-04-7.92468E-07 0.00000E+00
 -1       827 1.32617E-04-6.87745E-07 0.00000E+00
 -1       828 1.32506E-04-3.06461E-07 1.65436E-24
 -1       829 1.32395E-04 3.15915E-07 0.00000E+00
 -1       830 1.32284E-04 1.14272E-06-1.65436E-24
 -1       831 1.32173E-04 2.09110E-06 0.00000E+00
 -1       832 1.32062E-04 3.07755E-06 1.65436E-24
 -1       833 1.31952E-04 4.00998E-06 0.00000E+00
 -1       834 1.31842E-04 4.79655E-06-8.27181E-25
 -1       835 1.31732E-04 5.37833E-06 0.00000E+00
 -1       836 1.33658E-04 1.86285E-06 0.00000E+00
 -1       837 1.33825E-04 1.96494E-06-1.65436E-24
 -1       838 1.33913E-04 2.06688E-06 3.30872E-24
 -1       839 1.33956E-04 2.16817E-06 0.00000E+00
 -1       840 1.33982E-04 2.26929E-06-4.13590E-25
 -1       856 1.31606E-04 5.94773E-06 0.00000E+00
 -1       857 1.31580E-04 6.31580E-06-1.03398E-25
 -1       858 1.31554E-04 6.78313E-06 0.00000E+00
 -1       859 1.31527E-04 7.33123E-06 0.00000E+00
 -1       860 1.31500E-04 7.94145E-06 8.27181E-25
 -1       861 1.31473E-04 8.59512E-06 4.13590E-25
 -1       862 1.31446E-04 9.27354E-06 8.27181E-25
 -1       863 1.31419E-04 9.95796E-06 0.00000E+00
 -1       864 1.31392E-04 1.06296E-05 8.27181E-25
 -1       865 1.31365E-04 1.12698E-05 4.13590E-25
 -1       866 1.31338E-04 1.18597E-05 0.00000E+00
 -1       867 1.31311E-04 1.23808E-05 4.13590E-25
 -1       868 1.31284E-04 1.28145E-05-8.27181E-25
 -1       869 1.31257E-04 1.31422E-05 0.00000E+00
 -1       870 1.31230E-04 1.33456E-05 0.00000E+00
 -1       871 1.31614E-04 5.69583E-06-4.13590E-25
 -1       872 1.31720E-04 5.69171E-06 0.00000E+00
 -1       873 1.31894E-04 5.68711E-06 0.00000E+00
 -1       874 1.32082E-04 5.68190E-06 1.55096E-25
 -1       875 1.32229E-04 5.67617E-06-6.20385E-25
 -1       876 1.31642E-04 5.95898E-06-3.30872E-24
 -1       877 1.31637E-04 6.27791E-06 0.00000E+00
 -1       878 1.31612E-04 6.64723E-06-3.30872E-24
 -1       879 1.31571E-04 7.06056E-06 0.00000E+00
 -1       880 1.31516E-04 7.51145E-06 0.00000E+00
 -1       881 1.31450E-04 7.99349E-06 0.00000E+00
 -1       882 1.31374E-04 8.50028E-06 0.00000E+00
 -1       883 1.31291E-04 9.02546E-06 1.65436E-24
 -1       884 1.31204E-04 9.56262E-06 0.00000E+00
 -1       885 1.31115E-04 1.01054E-05-1.65436E-24
 -1       886 1.31025E-04 1.06474E-05 0.00000E+00
 -1       887 1.30939E-04 1.11823E-05 0.00000E+00
 -1       888 1.30857E-04 1.17036E-05 3.30872E-24
 -1       889 1.30783E-04 1.22048E-05 0.00000E+00
 -1       890 1.30717E-04 1.26796E-05 1.65436E-24
 -1       891 1.31239E-04 1.33585E-05-1.65436E-24
 -1       892 1.31254E-04 1.33103E-05-8.27181E-25
 -1       893 1.31227E-04 1.32622E-05 0.00000E+00
 -1       894 1.31134E-04 1.32143E-05 0.00000E+00
 -1       895 1.30952E-04 1.31664E-05 4.13590E-25
 -1       956 1.33917E-04 2.34172E-06 0.00000E+00
 -1       957 1.33808E-04 2.38847E-06 8.27181E-25
 -1       958 1.33699E-04 2.49554E-06-3.30872E-24
 -1       959 1.33590E-04 2.65480E-06-8.27181E-25
 -1       960 1.33481E-04 2.85815E-06 0.00000E+00
 -1       961 1.33372E-04 3.09742E-06 0.00000E+00
 -1       962 1.33263E-04 3.36442E-06 0.00000E+00
 -1       963 1.33154E-04 3.65100E-06-1.65436E-24
 -1       964 1.33044E-04 3.94897E-06 0.00000E+00
 -1       965 1.32935E-04 4.25014E-06 1.65436E-24
 -1       966 1.32826E-04 4.54635E-06-3.30872E-24
 -1       967 1.32717E-04 4.82942E-06-1.65436E-24
 -1       968 1.32608E-04 5.09116E-06-3.30872E-24
 -1       969 1.32499E-04 5.32345E-06 0.00000E+00
 -1       970 1.32390E-04 5.51812E-06 3.30872E-24
 -1       971 1.32183E-04 5.83089E-06-1.65436E-24
 -1       972 1.32081E-04 6.08057E-06 0.00000E+00
 -1       973 1.31979E-04 6.40691E-06-1.65436E-24
 -1       974 1.31877E-04 6.80003E-06 0.00000E+00
 -1       975 1.31775E-04 7.25006E-06 0.00000E+00
 -1       976 1.31673E-04 7.74708E-06 1.65436E-24
 -1       977 1.31571E-04 8.28120E-06 3.30872E-24
 -1       978 1.31469E-04 8.84249E-06 0.00000E+00
 -1       979 1.31367E-04 9.42101E-06 3.30872E-24
 -1       980 1.31265E-04 1.00069E-05 1.65436E-24
 -1       981 1.31163E-04 1.05901E-05-3.30872E-24
 -1       982 1.31061E-04 1.11608E-05 1.65436E-24
 -1       983 1.30959E-04 1.17090E-05 0.00000E+00
 -1       984 1.30857E-04 1.22249E-05 0.00000E+00
 -1       985 1.30756E-04 1.26984E-05 0.00000E+00
 -3
    1PSTEP                        18           9           1          
  100CL  109 5.74219E-01         409                     0    9           1
 -4  STRESS      6    1
 -5  SXX         1    4    1    1
 -5  SYY         1    4    2    2
 -5  SZZ         1    4    3    3
 -5  SXY         1    4    1    2
 -5  SYZ         1    4    2    3
 -5  SZX         1    4    3    1
 -1         1-2.96958E+06-1.19295E+06-6.41473E+05-1.37553E+06-3.27418E-10-9.00764E-09
 -1         2 2.07669E+03-8.54822E+05 6.70483E+03 1.98244E+02 3.90799E-11-3.49885E-08
 -1         3-4.78941E+02-1.32014E+06 3.17082E+02-1.07402E+03-3.63773E-10-2.44145E-08
 -1         5-1.35170E+00 3.04226E+05 7.71882E+00-6.93355E-02-4.25431E-11 9.22023E-09
 -1         8-1.01801E+06-3.52990E+05-1.07518E+05-4.44600E+05 3.09228E-11 2.58296E-09
 -1         9-5.07746E+05-8.13749E+05 6.02095E+03-8.37708E+05 1.46334E-08-2.06172E-08
 -1        10-1.33202E+03-1.37541E+06-2.31643E+03-7.26456E+03-7.66613E-09-6.95371E-09
 -1        12 1.81660E+00 3.04242E+05 2.49879E+02-5.25550E-01-5.58522E-11-9.99944E-09
 -1        15 1.75089E+03 9.62214E+02 5.65973E+03 3.43600E+00 1.52625E-11 4.73334E-08
 -1        16 1.20359E+06-9.37683E+05 1.49852E+05-1.20788E+06 9.54606E-09-2.13040E-08
 -1        17-3.51846E+03 8.73020E+04 8.39067E+04 1.98690E+05 1.19238E-08 1.56346E-08
 -1        18 1.17046E+03-4.32281E+03-2.39215E+04-8.50181E+04 8.95602E-09-1.14342E-08
 -1        19 9.80709E+04 1.12653E+05-8.10436E+02 1.91826E+04-2.11003E-11-6.42394E-09
 -1        20-5.25270E+04-4.63971E+05-1.03155E+05 2.80449E+04 2.29769E-09 5.54913E-09
 -1        21-4.13202E+01-2.56389E+05-8.16014E+02 2.58027E+00-6.46900E-05 4.40570E-04
 -1        24-5.15470E+05 8.24486E+05 2.71629E+05 4.74207E+05-5.08056E-08-2.78621E-08
 -1        25-1.03572E+05-5.81314E+05-1.16744E+05-1.78646E+05-7.91852E-10 1.61253E-09
 -1        26-3.80034E+04 7.32200E+04-1.89806E+04-3.99976E+03 1.37043E-09-3.75001E-09
 -1        27-6.71622E+04-2.52332E+05-9.36841E+04 5.69480E+04 5.78158E-09-1.14718E-09
 -1        28 1.96610E+04-7.21669E+04 1.45623E+04 2.05574E+04 9.94476E-10 4.97043E-09
 -1        32-1.39132E+06-2.18878E+06-5.74041E+04-3.94747E+05-2.94567E-08-5.89853E-09
 -1        33-1.47867E+05 7.30486E+04 2.60625E+04-3.43823E+04-2.45696E-10 1.08224E-08
 -1        34-1.86137E+05-1.91809E+04 5.02175E+02 5.94450E+04 4.18533E-10-1.41407E-08
 -1        35-2.00613E+04-2.86625E+04-1.13195E+03 4.46600E+04 2.04564E-09 5.89716E-09
 -1        51 3.04432E+04-3.02503E+05 6.97979E+04-8.58541E+05 1.45519E-11 4.54602E-08
 -1        52 1.34404E+04-2.94480E+05 4.06560E+04-1.00116E+06 5.82077E-10-1.52795E-10
 -1        53 6.47461E+03-3.09209E+05 2.75422E+04-8.55477E+05 5.82077E-10 1.16997E-08
 -1        54 1.71926E+04-3.06984E+05 3.55071E+04-1.00434E+06 1.16415E-10-9.65156E-09
 -1        55 3.45218E+04-3.19370E+05 5.81935E+04-8.54994E+05 1.12777E-09-1.69384E-08
 -1        56-5.65110E+06-6.32529E+05-4.73124E+05-2.19132E+06 3.15049E-09-1.95287E-08
 -1        57-5.88302E+06-1.02060E+06-3.19233E+05-2.12557E+06 9.51877E-09 1.67638E-08
 -1        58-5.74086E+06-7.88280E+05-1.11217E+05-2.16762E+06 3.02862E-09 1.66547E-08
 -1        59-5.78055E+06-8.36285E+05-6.63970E+04-2.15190E+06-1.75805E-09-2.63535E-08
 -1        60-5.75212E+06-8.11835E+05-2.59211E+04-2.16654E+06-2.38333E-09-3.44899E-08
 -1        61-5.76809E+06-8.08073E+05-1.47088E+04-2.15240E+06-2.07194E-09 1.84418E-08
 -1        62-5.75302E+06-8.15817E+05-6.99370E+03-2.16729E+06-6.57542E-09-5.81647E-08
 -1        63-5.76671E+06-8.04336E+05-5.67153E+03-2.15212E+06-3.66231E-09-4.65246E-08
 -1        64-5.75346E+06-8.15495E+05-6.29467E+03-2.16684E+06 8.85166E-09 8.67237E-09
 -1        65-5.76625E+06-8.08863E+05-1.26252E+04-2.15408E+06 5.73561E-09-1.10122E-08
 -1        66-5.75350E+06-8.11360E+05-2.20041E+04-2.16531E+06 9.74114E-09-4.57812E-08
 -1        67-5.77533E+06-8.34117E+05-5.61729E+04-2.15528E+06-4.19686E-09-2.01653E-08
 -1        68-5.74463E+06-7.90812E+05-9.40541E+04-2.16549E+06 8.14907E-10-3.22252E-08
 -1        69-5.86103E+06-9.90885E+05-2.69897E+05-2.13411E+06-4.15821E-09-5.29071E-08
 -1        70-5.66909E+06-6.58845E+05-4.00127E+05-2.18518E+06 3.30328E-09 1.80153E-08
 -1        86-1.03584E+03-8.56614E+05 7.26079E+03-9.91230E+01-1.08685E-10-1.99543E-08
 -1        87 6.90051E+03-8.52490E+05 1.50496E+04 3.64205E+02-1.83263E-10 5.89834E-08
 -1        88-5.84434E+03-8.58939E+05 2.31554E+04-2.65089E+02-5.82077E-11-4.69990E-09
 -1        89 4.35833E+04-8.35469E+05 6.23219E+04 6.08349E+02-1.88265E-10-3.41656E-08
 -1        90-3.75942E+04-8.73594E+05 8.81952E+04-3.43286E+02-1.27329E-10-1.74822E-08
 -1       121-6.79154E+02-1.32185E+06 3.80806E+01 5.35179E+02 8.94772E-10 1.02482E-08
 -1       122-3.60778E+02-1.32011E+06 6.59708E+02-2.14561E+03-3.07017E-09-2.69029E-09
 -1       123-7.34476E+02-1.32194E+06 7.89959E+02 1.59953E+03 2.32831E-09 1.72731E-08
 -1       124 9.17682E+02-1.31947E+06 2.69015E+03-4.54219E+03-5.87988E-09 2.30648E-09
 -1       125-1.49812E+03-1.32265E+06 3.82229E+03 2.92413E+03 3.99905E-09-6.42467E-09
 -1       191-1.67728E+00 3.04253E+05 9.44016E+00 3.47587E-02-4.26028E-11 6.51153E-09
 -1       192-2.05879E+00 3.04227E+05 1.63321E+01-2.82518E-01-5.82223E-11 2.52885E-09
 -1       193-3.55819E+00 3.04252E+05 3.05807E+01 2.48503E-01-1.26978E-10-7.39988E-09
 -1       194-4.33462E+00 3.04229E+05 6.17475E+01-6.64669E-01-6.47020E-11 3.90673E-09
 -1       195-7.17292E+00 3.04250E+05 1.20988E+02 4.18767E-01-1.80826E-10 7.57836E-10
 -1       251-1.71805E+06 6.61409E+03-9.96283E+04-7.72787E+04-9.94987E-10-3.92065E-08
 -1       252-1.45855E+06-5.94722E+03-1.38160E+04 2.33602E+05 2.05000E-09 1.48743E-08
 -1       253-1.59463E+06-1.53890E+03-1.96088E+04-1.55790E+05-4.94174E-09 2.88037E-09
 -1       254-1.57539E+06 1.58173E+04-3.39924E+03 3.03875E+05-2.65254E-09 8.79822E-09
 -1       255-1.61349E+06-5.11625E+03-1.02254E+04-1.48191E+05 1.09030E-08-5.24733E-09
 -1       256-1.40840E+06 1.45731E+04 3.49267E+04 2.06041E+05 7.10497E-09 3.33093E-08
 -1       257-1.74541E+06-1.34045E+04-3.54008E+04-5.72066E+04 2.08529E-08-2.14761E-08
 -1       258-1.27468E+06 1.17504E+04 6.15192E+04-1.33892E+04-4.28736E-09 3.24640E-08
 -1       259-1.73414E+06-1.28741E+04-3.18333E+04 7.06887E+04 9.72432E-09 1.39046E-08
 -1       260-1.43372E+06 1.62790E+04 3.33759E+04-2.24437E+05 1.72686E-08-2.44161E-08
 -1       261-1.60196E+06-5.30064E+03-1.81684E+03 1.53492E+05 4.59650E-08-5.06203E-08
 -1       262-1.57319E+06 2.27399E+04 1.08158E+04-3.04222E+05-2.53876E-08-7.08656E-08
 -1       263-1.60845E+06-8.16256E+03 1.16012E+03 1.51166E+05-1.58661E-09 3.58864E-08
 -1       264-1.41207E+06 3.77926E+04 5.40869E+04-2.16215E+05 6.53222E-08 8.28718E-08
 -1       265-1.74812E+06-3.24011E+04-1.27318E+04 6.47591E+04 2.19407E-08 2.87891E-08
 -1       266-3.16962E+04-1.48197E+04 7.43753E+04-7.35257E+01-1.09139E-11 2.39160E-09
 -1       267 3.67453E+04 1.72749E+04 5.25638E+04 8.48265E+01 1.33696E-10 2.10852E-08
 -1       268-4.92745E+03-2.44649E+03 1.95379E+04-1.08088E+01 1.06411E-10 3.92024E-08
 -1       269 5.81791E+03 2.92806E+03 1.26992E+04 1.25902E+01 3.18323E-11 3.18047E-08
 -1       270-8.73275E+02-4.81098E+02 6.13007E+03-1.70860E+00 4.02451E-11 4.70353E-08
 -1       271-2.91358E+06-3.61578E+05-2.19155E+05-1.13056E+06 5.67525E-10-3.72966E-08
 -1       272-3.00764E+06-5.06848E+05-1.41023E+05-1.11180E+06-1.34241E-09-8.18327E-08
 -1       273-2.95496E+06-4.16228E+05-5.17590E+04-1.12061E+06-1.46656E-09-4.15457E-08
 -1       274-2.95847E+06-4.40449E+05-2.89892E+04-1.12722E+06 1.28648E-09 1.17484E-08
 -1       275-2.96164E+06-4.20962E+05-1.20660E+04-1.11777E+06-2.26282E-09-2.04182E-09
 -1       276-2.94958E+06-4.35778E+05-6.36856E+03-1.13228E+06-4.11819E-09-3.86308E-10
 -1       277-2.96386E+06-4.20099E+05-3.14149E+03-1.11590E+06 3.31966E-10 1.65910E-08
 -1       278-2.94624E+06-4.37733E+05-2.17834E+03-1.13573E+06 8.04766E-09 7.61968E-08
 -1       279-2.96515E+06-4.18833E+05-2.29734E+03-1.11447E+06-7.40783E-10 8.88247E-09
 -1       280-2.94463E+06-4.40267E+05-4.08404E+03-1.13820E+06 9.23842E-09-2.16623E-08
 -1       281-2.96564E+06-4.17491E+05-7.41003E+03-1.11354E+06-3.43789E-09 4.60320E-08
 -1       282-2.94690E+06-4.46404E+05-1.77418E+04-1.13904E+06-4.86489E-09 7.13135E-09
 -1       283-2.96309E+06-4.13054E+05-3.15299E+04-1.11356E+06 3.69164E-09-6.44104E-09
 -1       284-2.97425E+06-4.89603E+05-8.60358E+04-1.13278E+06-9.89530E-10-3.20606E-08
 -1       285-2.93905E+06-3.78543E+05-1.33636E+05-1.11829E+06 4.86762E-09-2.01035E-08
 -1       301 2.30962E+04-1.84563E+05 1.72557E+05-3.51810E+05 9.45874E-11-1.72568E-08
 -1       302 2.45563E+04-1.41265E+05 1.10421E+05-5.15065E+05-3.00133E-10-2.59229E-09
 -1       303 9.92969E+02-1.67506E+05 7.94354E+04-3.51121E+05-1.18234E-10 2.22171E-08
 -1       304 2.35916E+04-1.40034E+05 1.09578E+05-5.14603E+05 7.27596E-10 7.94171E-08
 -1       305 2.14618E+04-1.82497E+05 1.70471E+05-3.52335E+05-1.45519E-11 2.96823E-08
 -1       306-9.96172E+06-1.29680E+06-1.65078E+06-2.03479E+06-2.15950E-08 1.75205E-08
 -1       307 1.90326E+05-1.88213E+06 6.19812E+05-4.79255E+06-3.24791E-07 6.79211E-08
 -1       308-7.60132E+06 2.27300E+05-2.12527E+05-2.15147E+04-6.90634E-08 9.99571E-08
 -1       309-3.73795E+06-2.09174E+06 1.74077E+05-7.44999E+06 9.53769E-08 3.91237E-08
 -1       310-7.68778E+06 1.97647E+05-1.48895E+05-6.55118E+04-7.64558E-08-2.44781E-08
 -1       311 4.03782E+05-1.88795E+06 8.94890E+05-4.58370E+06 1.62734E-07-6.11017E-08
 -1       312-9.98908E+06-1.33680E+06-1.13672E+06-2.14364E+06 1.97033E-08 1.21305E-07
 -1       313 2.18992E+06 5.23558E+05 1.55852E+06 7.76182E+05-1.12108E-07 1.13709E-07
 -1       314-8.23184E+06-3.07410E+06-1.13211E+06-4.07661E+06 1.02969E-07 7.45058E-09
 -1       315-5.24272E+06 3.70721E+06 8.84781E+05 1.62067E+06-1.84526E-07-3.04790E-08
 -1       316-4.21299E+06-3.25066E+06-1.46726E+05-3.90838E+06-3.49479E-07-1.95825E-07
 -1       317-1.04152E+07 4.57551E+06 1.62130E+05-1.33045E+04 4.03317E-07-2.05408E-07
 -1       318-4.14897E+06-3.24174E+06-2.38400E+05-3.89461E+06-2.63200E-07 2.61207E-08
 -1       319-5.45270E+06 3.75250E+06 5.71179E+05 1.56950E+06-4.65079E-08 3.52957E-08
 -1       320-8.13258E+06-3.09652E+06-1.74009E+06-4.08738E+06 8.67294E-08-2.81580E-08
 -1       336 4.77763E+02-1.43096E+06-9.04495E+03 4.30941E+03-1.55014E-08 5.46061E-09
 -1       337-3.40275E+03-1.43223E+06-1.07908E+04-1.04896E+04-2.79870E-08-1.25874E-08
 -1       338 5.43824E+02-1.43095E+06-1.52742E+04 6.12815E+03-2.03122E-08-8.94943E-10
 -1       339-1.60725E+04-1.44055E+06-3.40709E+04-1.40383E+04-3.68432E-08 1.26347E-08
 -1       340 1.07310E+04-1.42328E+06-5.31500E+04 7.81685E+03-2.43381E-08 1.75569E-08
 -1       406 2.11103E+01 3.04239E+05 4.93534E+02 1.10580E-01-1.90028E-10-1.62649E-08
 -1       407 1.73790E+02 3.04329E+05 1.04845E+03 2.35362E+00-7.81313E-11-1.46497E-09
 -1       408 5.41660E+02 3.04164E+05 2.09422E+03-2.52806E+00-3.63400E-10 3.97904E-11
 -1       409 2.26571E+03 3.04998E+05 4.71415E+03 2.52569E+01-2.70461E-10-1.59706E-08
 -1       410 6.50652E+03 3.03569E+05 9.62388E+03-2.38748E+01-5.11136E-10-1.23240E-08
 -1       521-1.21981E+07-1.77022E+06-2.24717E+06-2.27897E+06-3.59723E-08 4.22588E-08
 -1       522 6.98359E+05-2.20102E+06 7.69004E+05-6.30992E+06-2.37007E-07-4.46453E-08
 -1       523-9.18386E+06 2.40689E+05-2.72596E+05 2.17445E+05 1.41154E-09-1.45064E-07
 -1       524-4.88458E+06-2.06257E+06 2.44335E+05-9.74339E+06 3.46587E-07-2.65294E-07
 -1       525-9.32282E+06 1.88197E+05-2.00118E+05 1.51009E+05 2.28989E-07-7.29360E-08
 -1       526 1.09235E+06-2.22550E+06 1.14833E+06-5.96281E+06 1.20213E-07 1.41245E-08
 -1       527-1.22469E+07-1.84900E+06-1.56969E+06-2.44994E+06 1.23924E-07-2.85218E-09
 -1       528 3.69952E+06 7.32890E+05 1.97208E+06 1.38452E+06-2.03727E-08-6.16492E-08
 -1       529-9.95974E+06-4.10643E+06-1.56072E+06-4.93937E+06-4.47035E-08-3.89991E-09
 -1       530-6.43222E+06 5.22684E+06 1.13917E+06 2.21682E+06-8.63656E-08 1.90688E-07
 -1       531-4.85922E+06-4.24124E+06-1.87674E+05-4.74109E+06-2.53422E-07 1.19762E-08
 -1       532-1.33089E+07 6.36498E+06 2.51111E+05-4.39608E+05 1.34074E-07-2.35188E-07
 -1       533-4.75252E+06-4.22823E+06-2.70083E+05-4.71573E+06 2.46218E-08-3.81071E-07
 -1       534-6.77760E+06 5.38405E+06 8.13747E+05 2.09069E+06-6.06233E-08 3.09425E-07
 -1       535-9.82276E+06-4.20827E+06-2.20599E+06-4.95080E+06 5.58794E-09 1.84304E-07
 -1       536-4.72345E+05-2.91885E+04 2.41073E+04-2.45496E+04-5.53382E-09 2.92384E-08
 -1       537-2.76535E+05 3.10184E+04 4.95087E+04 6.03897E+04-6.76151E-08 5.86347E-08
 -1       538-3.77822E+05-1.34490E+03 1.10201E+04-3.72024E+04 1.88053E-08 6.65891E-08
 -1       539-3.40030E+05 3.37039E+03 1.32622E+04 6.90868E+04 1.02328E-07 5.03493E-08
 -1       540-4.10239E+05-4.30629E+02-4.12013E+03-3.33197E+04 2.18120E-09 4.41520E-08
 -1       541-2.15878E+05 5.41047E+03 3.32257E+04 4.35890E+04-8.53561E-10 4.36189E-08
 -1       542-4.98646E+05-6.10976E+03-2.45634E+04-1.15721E+04 2.85106E-08 1.98378E-08
 -1       543-1.45224E+05 8.01206E+03 4.60961E+04-8.32306E+03 3.58284E-09-1.56899E-09
 -1       544-4.79020E+05-4.56116E+03-2.16097E+04 1.84809E+04-1.40419E-08-2.91991E-08
 -1       545-2.60429E+05 2.01894E+03 2.10806E+04-5.51536E+04-1.22844E-08-4.92046E-08
 -1       546-3.86485E+05 2.36593E+03-4.89322E+03 3.52163E+04 1.53044E-08-5.34377E-08
 -1       547-3.49613E+05-4.00888E+03-2.05594E+03-7.10519E+04-6.52697E-08-5.82886E-08
 -1       548-3.92171E+05 3.37586E+03-1.48281E+04 3.44833E+04-6.66914E-08-5.49021E-08
 -1       549-2.52672E+05-1.00501E+04-2.58650E+03-5.18684E+04-3.63635E-08-3.04603E-08
 -1       550-4.80722E+05 6.18713E+03-6.75888E+04 1.59183E+04 3.06272E-09-3.33966E-08
 -1       551 2.40281E+04-6.85558E+05 1.92948E+04-1.08381E+06 2.07365E-08-2.29920E-09
 -1       552 5.68195E+04-7.06454E+05 3.00742E+04-1.56535E+06 4.87635E-08 2.63826E-08
 -1       553 4.09609E+04-7.10798E+05 4.57606E+04-1.07921E+06 2.72485E-08 2.11003E-08
 -1       554 8.75898E+04-7.08505E+05 9.77175E+04-1.56704E+06 5.00004E-08 1.74059E-08
 -1       555 6.76962E+04-7.30893E+05 1.72754E+05-1.08004E+06 2.43526E-08-1.00954E-08
 -1       556 1.35637E+05-2.45645E+05 6.37373E+04-2.96071E+05-1.33296E-08 7.71252E-10
 -1       557 2.30663E+05-3.22069E+05 3.42172E+04-3.74997E+05-5.82077E-10 4.94947E-09
 -1       558 1.30319E+05-2.51197E+05 1.26911E+04-2.90956E+05-1.33587E-08 1.71822E-08
 -1       559 2.14225E+05-3.29494E+05 6.79771E+03-3.84491E+05 1.28057E-08 4.32919E-10
 -1       560 1.24007E+05-2.47162E+05 2.14766E+03-2.95283E+05 1.14378E-08 1.95359E-08
 -1       561 2.05719E+05-3.26511E+05 1.40215E+03-3.90060E+05-1.74623E-09 2.11003E-09
 -1       562 1.19039E+05-2.43990E+05 1.94703E+02-2.98847E+05-3.87081E-09-2.91038E-10
 -1       563 1.99886E+05-3.23973E+05 3.42558E+02-3.93819E+05-3.14685E-09 4.28668E-09
 -1       564 1.15706E+05-2.41890E+05 8.99340E+00-3.01200E+05-1.06229E-09 3.79396E-09
 -1       565 1.96397E+05-3.22458E+05 1.31609E+02-3.96032E+05-3.20142E-09 1.15215E-08
 -1       566 1.14073E+05-2.40846E+05 9.31630E-01-3.02348E+05-6.00267E-09-1.60198E-08
 -1       567 1.95221E+05-3.21933E+05-8.21565E+01-3.96681E+05 1.46329E-08 1.01500E-08
 -1       568 1.14190E+05-2.40933E+05-4.17920E+02-3.02359E+05 1.69530E-09 5.38785E-09
 -1       569 1.95417E+05-3.21861E+05-1.04064E+03-3.94919E+05-1.36424E-10-3.27236E-09
 -1       570 1.16826E+05-2.43128E+05-2.45138E+03-3.01875E+05 7.58882E-09-7.69614E-09
 -1       571 2.30626E+05 8.48132E+03 1.24490E+04-6.15729E+04-1.23691E-09 8.04835E-09
 -1       572 2.32466E+05 3.01232E+03 6.09961E+03-6.75392E+04-2.77214E-09-1.07054E-08
 -1       573 2.31364E+05 7.79750E+02 2.70997E+03-6.14387E+04 1.65119E-09-1.76533E-09
 -1       574 2.31574E+05 3.19171E+02 1.35816E+03-6.76958E+04 1.38789E-09-6.62340E-09
 -1       575 2.31447E+05 1.14498E+02 6.40612E+02-6.14209E+04 1.40597E-09-1.51613E-09
 -1       576 2.31457E+05 9.93065E+01 3.27071E+02-6.77167E+04-2.48679E-09 3.47200E-09
 -1       577 2.31467E+05 7.44997E+01 1.62674E+02-6.14185E+04-1.63891E-09 9.89712E-09
 -1       578 2.31456E+05 8.18717E+01 9.20936E+01-6.77194E+04-4.84397E-09 7.69433E-09
 -1       579 2.31494E+05 6.37377E+01 6.18614E+01-6.14183E+04 9.85438E-09 3.15140E-10
 -1       580 2.31494E+05 6.50466E+01 6.77557E+01-6.77158E+04 1.69084E-08-8.52697E-09
 -1       581 2.31537E+05 4.52189E+01 1.01747E+02-6.14221E+04-8.89122E-09-1.96997E-09
 -1       582 2.31569E+05 6.61572E+01 2.02631E+02-6.76767E+04-3.84598E-08-3.17004E-09
 -1       583 2.31586E+05 1.06920E+02 3.92275E+02-6.14574E+04-1.63345E-08-4.49495E-09
 -1       584 2.31775E+05 4.19802E+02 8.83005E+02-6.73796E+04 4.16549E-09 2.93687E-09
 -1       585 2.31547E+05 1.19197E+03 1.79367E+03-6.17195E+04-1.44792E-09-7.23048E-09
 -1       586-2.92200E+03 7.68655E+04-3.45101E+03-2.06094E+05-1.47611E-09 2.17074E-09
 -1       587-7.58259E+02 7.64534E+04-3.64207E+01-2.26852E+05-8.29459E-10 8.01447E-09
 -1       588 7.19359E+02 7.64799E+04 3.30678E+03-2.05998E+05-1.44064E-09 3.23507E-09
 -1       589 4.33737E+03 7.82704E+04 9.14958E+03-2.26611E+05-1.76442E-09-3.83079E-09
 -1       590 1.29745E+04 7.54668E+04 1.94174E+04-2.06353E+05-1.86992E-09 3.97813E-09
 -1       591-4.75792E+04-1.20798E+04-1.62380E+04-2.25654E+04 5.15524E-09-7.82165E-10
 -1       592-4.98775E+04-1.52922E+04-8.79552E+03-2.59160E+04 9.33360E-09-8.14316E-09
 -1       593-4.92094E+04-1.08951E+04-3.66138E+03-2.37500E+04 3.66811E-09-9.93145E-09
 -1       594-4.76266E+04-1.29191E+04-1.82611E+03-2.60126E+04 4.02201E-09 9.09509E-10
 -1       595-4.93339E+04-1.08907E+04-8.38800E+02-2.38040E+04 4.22278E-09 1.65340E-08
 -1       596-4.74732E+04-1.28105E+04-4.27004E+02-2.59953E+04 2.41824E-09 1.67215E-08
 -1       597-4.93495E+04-1.09015E+04-2.33764E+02-2.38060E+04-9.22427E-10 2.71700E-09
 -1       598-4.74582E+04-1.28063E+04-1.90211E+02-2.59904E+04-2.06774E-09-3.67095E-09
 -1       599-4.93484E+04-1.09017E+04-2.45830E+02-2.38056E+04 4.90809E-09 2.01931E-09
 -1       600-4.74739E+04-1.28115E+04-4.58953E+02-2.59942E+04 2.73207E-09 4.90189E-09
 -1       601-4.93294E+04-1.08908E+04-9.06596E+02-2.38027E+04 1.81171E-09-2.19791E-09
 -1       602-4.76396E+04-1.29285E+04-1.97645E+03-2.60103E+04-3.16732E-09-8.09666E-09
 -1       603-4.91926E+04-1.08979E+04-3.96392E+03-2.37446E+04-6.55245E-09 1.91017E-09
 -1       604-5.00887E+04-1.54841E+04-9.52204E+03-2.58881E+04-1.91494E-09 1.05210E-08
 -1       605-4.74130E+04-1.21929E+04-1.75793E+04-2.24757E+04 1.79170E-10 1.14933E-08
 -1       606 2.74848E+04-1.10691E+04-1.98924E+04 2.63908E+04 8.64020E-10 2.01362E-09
 -1       607 2.40810E+04-3.58958E+03-9.90557E+03 2.96324E+04 2.27737E-09-9.43874E-09
 -1       608 2.60134E+04-6.23585E+02-4.43554E+03 2.61855E+04 3.27418E-11 3.88081E-09
 -1       609 2.56332E+04-1.83429E+02-2.24033E+03 2.98651E+04-2.47383E-10 1.05358E-08
 -1       610 2.58377E+04 4.72737E+00-1.06979E+03 2.61623E+04-1.02045E-09 7.22684E-09
 -1       611 2.57696E+04 1.47432E+01-5.39352E+02 2.98904E+04 4.51109E-10 4.25871E-09
 -1       612 2.57924E+04 2.08596E+01-2.57372E+02 2.61600E+04 9.56152E-09-1.62686E-09
 -1       613 2.57695E+04 2.30263E+01-1.16125E+02 2.98934E+04 1.57975E-08 6.29871E-09
 -1       614 2.57682E+04 2.03910E+01-2.96636E+01 2.61592E+04 6.72208E-09 9.15747E-09
 -1       615 2.57581E+04 2.81686E+01 4.31629E+01 2.98939E+04 1.10140E-09 2.10434E-09
 -1       616 2.57496E+04 2.60962E+01 1.34435E+02 2.61595E+04-2.33831E-09-4.77121E-09
 -1       617 2.57689E+04 6.00912E+01 3.08894E+02 2.98934E+04-1.22782E-10 1.96678E-10
 -1       618 2.57188E+04 1.17658E+02 6.23295E+02 2.61596E+04 7.28505E-10-4.70573E-09
 -1       619 2.59857E+04 5.44080E+02 1.40020E+03 2.98925E+04 2.96404E-09 5.40695E-10
 -1       620 2.55097E+04 1.59750E+03 2.81444E+03 2.61588E+04 3.20961E-09 4.56566E-09
 -1       621 2.77871E+02 2.35489E+05 2.53374E+03 1.74946E+04 2.24418E-10 6.28916E-10
 -1       622 3.44578E+02 2.36105E+05 2.36491E+03 2.54525E+04 3.60842E-10-9.00968E-09
 -1       623 2.73307E+01 2.35629E+05 2.99734E+03 1.74112E+04 1.28438E-10 4.96584E-09
 -1       624 1.45106E+03 2.37101E+05 5.93496E+03 2.55376E+04 6.45457E-11 2.64436E-09
 -1       625 1.45552E+03 2.34458E+05 1.04318E+04 1.74085E+04 1.88265E-10-3.40287E-09
 -1       626 2.08140E+05 5.42057E+04 4.53239E+03 1.07633E+05 5.90262E-10 1.14960E-09
 -1       627 2.05765E+05 5.57658E+04 2.18411E+03 1.11772E+05-1.52932E-09-5.39728E-09
 -1       628 2.08273E+05 5.21046E+04 9.22931E+02 1.08368E+05 2.38924E-09 1.61704E-08
 -1       629 2.05163E+05 5.51997E+04 4.51848E+02 1.12017E+05-7.20775E-10 1.19281E-08
 -1       630 2.08283E+05 5.20051E+04 2.08804E+02 1.08394E+05 5.08044E-09 1.09313E-08
 -1       631 2.05093E+05 5.51823E+04 1.11482E+02 1.12017E+05-2.41471E-09-9.83067E-09
 -1       632 2.08275E+05 5.20116E+04 7.17728E+01 1.08386E+05 8.47649E-10-6.60043E-09
 -1       633 2.05080E+05 5.51869E+04 7.75641E+01 1.12010E+05-2.10093E-09-1.12896E-08
 -1       634 2.08266E+05 5.20119E+04 1.23171E+02 1.08382E+05 5.70185E-09-1.81785E-09
 -1       635 2.05087E+05 5.51877E+04 2.48050E+02 1.12011E+05 3.01338E-09 6.96195E-09
 -1       636 2.08255E+05 5.20096E+04 5.00243E+02 1.08380E+05-1.67074E-09-2.17415E-08
 -1       637 2.05192E+05 5.52663E+04 1.09921E+03 1.12008E+05 8.69466E-09-2.21328E-08
 -1       638 2.08214E+05 5.22536E+04 2.25857E+03 1.08269E+05 1.08664E-08 2.84990E-09
 -1       639 2.06377E+05 5.69160E+04 5.34329E+03 1.11657E+05 2.98701E-09 6.55655E-09
 -1       640 2.08054E+05 5.71750E+04 1.10883E+04 1.06186E+05 1.79853E-09 2.82489E-09
 -1       656 5.46674E+04-1.39042E+06-1.31968E+05-7.50138E+02 2.47383E-10-7.49463E-09
 -1       657-7.22813E+04-1.45001E+06-1.09233E+05 7.25816E+03-1.81899E-10 1.69136E-08
 -1       658 1.73841E+04-1.40738E+06-6.71573E+04-2.28297E+03 2.65345E-10-2.54092E-09
 -1       659-7.78418E+04-1.45264E+06-1.16538E+05 8.38115E+03-1.06593E-09 5.35745E-09
 -1       660 6.02150E+04-1.38779E+06-1.44527E+05-1.87312E+03-7.42148E-10-5.18077E-09
 -1       661 1.66397E+05 1.78966E+04 1.65176E+04 6.50718E+04 2.96632E-09 4.37012E-09
 -1       662 1.75309E+05 3.05478E+04 1.11307E+04 6.18517E+04-6.98833E-10 1.20281E-09
 -1       663 1.69639E+05 2.31976E+04 3.89334E+03 6.41330E+04 1.74157E-09 3.71574E-09
 -1       664 1.71554E+05 2.43456E+04 2.32823E+03 6.29959E+04-1.88800E-09 7.96993E-09
 -1       665 1.70127E+05 2.39245E+04 9.18451E+02 6.39932E+04-2.63782E-09 1.83562E-09
 -1       666 1.70978E+05 2.35120E+04 5.36408E+02 6.31768E+04-2.85445E-09-5.44700E-09
 -1       667 1.70211E+05 2.40094E+04 2.83738E+02 6.39602E+04-1.91159E-09 5.31693E-09
 -1       668 1.70888E+05 2.34479E+04 2.86394E+02 6.32247E+04 2.27108E-09 9.77496E-09
 -1       669 1.70217E+05 2.39867E+04 3.85507E+02 6.39458E+04 1.42438E-09 1.09441E-08
 -1       670 1.70982E+05 2.36549E+04 8.37372E+02 6.32264E+04 2.59789E-09-2.77043E-09
 -1       671 1.70116E+05 2.38066E+04 1.48611E+03 6.39567E+04-5.68882E-10-1.33990E-08
 -1       672 1.71848E+05 2.51007E+04 3.80163E+03 6.30171E+04 4.10864E-10-8.72245E-09
 -1       673 1.69356E+05 2.25773E+04 6.37071E+03 6.41411E+04-3.00690E-09-4.76689E-09
 -1       674 1.77913E+05 3.53341E+04 1.82188E+04 6.12339E+04 1.22310E-09-8.98763E-09
 -1       675 1.64090E+05 1.38595E+04 2.70428E+04 6.56321E+04 6.50289E-10-8.52197E-09
 -1       676 2.11710E+01-2.56321E+05-9.83509E+02-1.29142E+00-2.39251E-09 2.06608E-04
 -1       677-2.61205E+02-2.56559E+05-1.79996E+03 2.57878E+00-7.42034E-10 5.32535E-05
 -1       678 1.74355E+02-2.56152E+05-3.18186E+03-1.28782E+00-8.37645E-10 2.32683E-05
 -1       679-3.18281E+03-2.58480E+05-7.55865E+03 2.56940E+00-3.65958E-10 1.65249E-06
 -1       680 1.89951E+03-2.54402E+05-1.21820E+04-1.26617E+00 1.45519E-11 1.24423E-06
 -1       771-2.71093E+06-5.62151E+05-8.56999E+04-1.21549E+06-2.12749E-08-1.71713E-08
 -1       772-2.66611E+06-6.19590E+05-4.47992E+04-1.28112E+06-1.61235E-08 7.41602E-09
 -1       773-2.72660E+06-5.49752E+05-2.15460E+04-1.22109E+06-7.10133E-09 8.21456E-09
 -1       774-2.65776E+06-6.10709E+05-9.89104E+03-1.29273E+06 1.51631E-08-9.60426E-10
 -1       775-2.73344E+06-5.44882E+05-6.54669E+03-1.22315E+06-2.93949E-09 1.70257E-09
 -1       776-2.66134E+06-6.10182E+05-2.59204E+03-1.30077E+06-9.16771E-09 3.33057E-09
 -1       777-2.73912E+06-5.40715E+05-2.59686E+03-1.22495E+06-1.39698E-09 3.08137E-09
 -1       778-2.66534E+06-6.09789E+05-7.89095E+02-1.30758E+06-1.39698E-09 5.59521E-09
 -1       779-2.74389E+06-5.37146E+05-1.21637E+03-1.22649E+06-1.99361E-09 9.54969E-10
 -1       780-2.66887E+06-6.09380E+05-2.34605E+02-1.31311E+06-7.52334E-09-7.55790E-10
 -1       781-2.74761E+06-5.34307E+05-4.90023E+02-1.22770E+06-1.82699E-08 4.41469E-09
 -1       782-2.67157E+06-6.08998E+05 7.14073E+01-1.31717E+06-2.19152E-08-3.93175E-09
 -1       783-2.75019E+06-5.32368E+05 8.00637E+01-1.22856E+06-5.94446E-09-8.44761E-09
 -1       784-2.67312E+06-6.08558E+05 6.24220E+02-1.31965E+06-1.23764E-08-2.75645E-09
 -1       785-2.75162E+06-5.31295E+05 1.06663E+03-1.22907E+06-2.28629E-08 4.08181E-09
 -1       786 1.26897E+05-9.07353E+03 2.09912E+04-1.33119E+02 1.09052E-09-3.09046E-09
 -1       787 1.36000E+05 1.05043E+04 1.48507E+04 2.30111E+01 2.80172E-09 3.36240E-09
 -1       788 1.30407E+05-1.42227E+03 5.43157E+03-1.06575E+02 2.30057E-09 1.69330E-08
 -1       789 1.31911E+05 1.64551E+03 3.41075E+03-1.97908E+01-3.40256E-10 1.40816E-08
 -1       790 1.30987E+05-2.21923E+02 1.38320E+03-9.03222E+01-1.00618E-09 5.45833E-09
 -1       791 1.31233E+05 2.56570E+02 8.03296E+02-4.80389E+01-1.70825E-09 6.43774E-09
 -1       792 1.31085E+05-3.43724E+01 3.49167E+02-7.83270E+01-1.31089E-09-9.46599E-10
 -1       793 1.31119E+05 3.98848E+01 1.93309E+02-7.06877E+01 4.78912E-10 7.13869E-09
 -1       794 1.31102E+05-5.37514E+00 8.88924E+01-6.76731E+01 9.91857E-10-2.38179E-09
 -1       795 1.31099E+05 7.19537E+00 5.01223E+01-9.29618E+01-1.08022E-09 1.49568E-08
 -1       796 1.31104E+05-1.69892E+00 2.76207E+01-5.60525E+01 8.53867E-10 4.02277E-09
 -1       797 1.31099E+05 7.92600E+00 2.58768E+01-1.19640E+02 1.03252E-09-9.86850E-10
 -1       798 1.31102E+05-6.10684E+00 2.82032E+01-4.09942E+01 4.98888E-10 7.31450E-10
 -1       799 1.31116E+05 4.46395E+01 6.55647E+01-1.56431E+02 1.33819E-09 1.24209E-08
 -1       800 1.31087E+05-3.83937E+01 8.93991E+01-1.92610E+01-8.44622E-11-1.13588E-09
 -1       801 7.65895E+04-4.29066E+06-4.53166E+05 2.10855E+05 3.55212E-08-1.78679E-08
 -1       802-5.87572E+04-2.61990E+06 2.21196E+04-1.96228E+05 9.84292E-08-1.44337E-08
 -1       803-2.02742E+04-4.31716E+06-2.13812E+05 2.19687E+05 4.49691E-08 2.38269E-08
 -1       804-2.60374E+04-3.17625E+06 4.09213E+04 1.63097E+05-3.34103E-09-3.45221E-09
 -1       805 3.50810E+04-3.73923E+06-5.41687E+04-1.48284E+05-2.08365E-09-1.30740E-09
 -1       806-2.53591E+05-4.79060E+04-1.84888E+04-9.90934E+04-7.31234E-10 9.86938E-09
 -1       807-2.55245E+05-4.46887E+04-9.08334E+03-1.03343E+05 4.08545E-09 6.34027E-09
 -1       808-2.54084E+05-4.12584E+04-3.85354E+03-1.02262E+05-4.46607E-09 3.53032E-09
 -1       809-2.53344E+05-4.21289E+04-1.88431E+03-1.03559E+05-1.34492E-09 8.04175E-09
 -1       810-2.54161E+05-4.10267E+04-8.63559E+02-1.02404E+05 5.01041E-09 9.80367E-09
 -1       811-2.53198E+05-4.20251E+04-4.29344E+02-1.03531E+05 3.49587E-09-1.28555E-08
 -1       812-2.54174E+05-4.10458E+04-2.16778E+02-1.02404E+05-5.20822E-09-1.61390E-08
 -1       813-2.53179E+05-4.20262E+04-1.40423E+02-1.03517E+05-2.06683E-09 3.61069E-10
 -1       814-2.54170E+05-4.10524E+04-1.38216E+02-1.02401E+05-2.85581E-09 3.57022E-09
 -1       815-2.53184E+05-4.20274E+04-2.22212E+02-1.03513E+05 2.33558E-09-6.45514E-10
 -1       816-2.54156E+05-4.10503E+04-4.20470E+02-1.02400E+05 6.07270E-09 4.63842E-09
 -1       817-2.53258E+05-4.20671E+04-9.02766E+02-1.03507E+05-7.62611E-10 4.29372E-09
 -1       818-2.54104E+05-4.11757E+04-1.84091E+03-1.02340E+05-7.49606E-09-2.72848E-10
 -1       819-2.54265E+05-4.31815E+04-4.33242E+03-1.03274E+05-8.15817E-09-1.41358E-09
 -1       820-2.53766E+05-4.44411E+04-8.81756E+03-1.00936E+05 3.72893E-10 7.92716E-09
 -1       821-3.09018E+05 1.70859E+04-3.95162E+04 4.46571E+02 4.71481E-07-2.18133E-08
 -1       822-3.26132E+05-1.97797E+04-2.79619E+04-1.12481E+03 9.48637E-07 1.53050E-08
 -1       823-3.15619E+05 2.67923E+03-1.02341E+04 4.89658E+02 4.70604E-07 1.40381E-09
 -1       824-3.18417E+05-3.10014E+03-6.43727E+03-9.56502E+02 1.60119E-09 9.23319E-09
 -1       825-3.16730E+05 4.18819E+02-2.65028E+03 2.78261E+02 1.18179E-09-9.31163E-09
 -1       826-3.17113E+05-4.93156E+02-1.59053E+03-3.77177E+02 6.87427E-10 1.26716E-08
 -1       827-3.16921E+05 7.33679E+01-8.35083E+02-8.96775E+01-9.97581E-10 2.86155E-09
 -1       828-3.16940E+05-1.50664E+02-7.27879E+02 3.46313E+02-3.82902E-09-5.51622E-09
 -1       829-3.16903E+05 7.66273E+01-8.52096E+02-4.45242E+02 4.99799E-10-6.32434E-09
 -1       830-3.17166E+05-5.14101E+02-1.65838E+03 8.81203E+02 2.23600E-09 2.22281E-09
 -1       831-3.16697E+05 4.37348E+02-2.75238E+03-6.24578E+02-2.98937E-09 5.66797E-09
 -1       832-3.18497E+05-3.22913E+03-6.70735E+03 9.81371E+02-1.44265E-09-4.46369E-09
 -1       833-3.15572E+05 2.78992E+03-1.06621E+04-5.45410E+02-2.27880E-09 2.04636E-10
 -1       834-3.26481E+05-2.06021E+04-2.91208E+04 5.97738E+02-1.59023E-09 9.58244E-09
 -1       835-3.08714E+05 1.77963E+04-4.11704E+04-2.40932E+02 4.91477E-09-8.47649E-10
 -1       836-1.06001E+03 2.92312E+05 1.77761E+04-1.63124E+04-9.92259E-10-9.14952E-10
 -1       837 3.86318E+03 2.97845E+05 1.52085E+04-3.28440E+04-5.82531E-10-1.82945E-09
 -1       838-4.09833E+02 2.93842E+05 1.57298E+04-1.62474E+04-3.57886E-10-4.91787E-09
 -1       839 1.00654E+04 3.02468E+05 2.99863E+04-3.28839E+04 9.23137E-11 2.39038E-09
 -1       840-3.06057E+03 2.87646E+05 4.79175E+04-1.62721E+04-5.36602E-10-5.64785E-09
 -1       856-7.28725E+04 7.63585E+03-2.01227E+04-4.21558E+02-9.98455E-10-4.55475E-09
 -1       857-8.11787E+04-8.95955E+03-1.38534E+04 4.86542E+03 2.44341E-10-2.48929E-09
 -1       858-7.61561E+04 1.07011E+03-5.22202E+03-4.43660E+02-2.05716E-09 1.93427E-09
 -1       859-7.74089E+04-1.24737E+03-3.15286E+03 4.90003E+03-5.69003E-11 5.65433E-09
 -1       860-7.66469E+04 1.49060E+02-1.32397E+03-4.56209E+02 1.12684E-09 7.88305E-09
 -1       861-7.68439E+04-1.67226E+02-7.33862E+02 4.91721E+03-4.93588E-09 6.28324E-09
 -1       862-7.67234E+04 1.97512E+01-3.16120E+02-4.60858E+02 3.86908E-09 5.96934E-09
 -1       863-7.67521E+04-1.25520E+01-1.40271E+02 4.91949E+03 4.61748E-09-9.18234E-09
 -1       864-7.67390E+04-2.17481E+00-1.16189E+01-4.58495E+02 2.98897E-09-1.73091E-08
 -1       865-7.67147E+04 3.97027E+01 1.17046E+02 4.90719E+03 3.30907E-09-3.14653E-10
 -1       866-7.67590E+04-3.28278E+01 2.64876E+02-4.48550E+02-8.84228E-10 8.88605E-10
 -1       867-7.65822E+04 2.73367E+02 6.70700E+02 4.88013E+03 1.17768E-09 1.33224E-09
 -1       868-7.68677E+04-2.32512E+02 1.11888E+03-4.31440E+02-6.18513E-10-3.37678E-09
 -1       869-7.57560E+04 1.93388E+03 2.98628E+03 4.83516E+03-3.06696E-09-1.26861E-08
 -1       870-7.75792E+04-1.64953E+03 4.33263E+03-4.03581E+02-1.20326E-09-7.43489E-09
 -1       871-4.66582E+03-1.19835E+04-1.54748E+04 1.02931E+05 2.81943E-10 4.68845E-09
 -1       872-1.93745E+03-1.54887E+04-6.36954E+03 1.33451E+05-8.18545E-10-1.78579E-09
 -1       873 5.08955E+01-1.38396E+04 7.44757E+02 1.02705E+05-4.71573E-10 7.80574E-10
 -1       874 2.42156E+03-1.17007E+04 8.41146E+03 1.33490E+05 1.39835E-10 1.73532E-09
 -1       875 5.52569E+03-1.58371E+04 1.87600E+04 1.02895E+05-1.30058E-10-8.27276E-09
 -1       876 2.45190E+05 4.18605E+04 1.28471E+04 9.90286E+04-1.60270E-09-2.79215E-09
 -1       877 2.45982E+05 4.46234E+04 6.86072E+03 1.02767E+05-3.51406E-09 6.10157E-09
 -1       878 2.46390E+05 4.04389E+04 2.87432E+03 1.00084E+05-1.97315E-09-1.08159E-08
 -1       879 2.44235E+05 4.28818E+04 1.43201E+03 1.02856E+05-3.10592E-10-3.96221E-09
 -1       880 2.46477E+05 4.04236E+04 6.66875E+02 1.00127E+05 5.37966E-10 1.89777E-09
 -1       881 2.44119E+05 4.28075E+04 3.55702E+02 1.02837E+05 1.37459E-09 1.03210E-08
 -1       882 2.46485E+05 4.04345E+04 2.26856E+02 1.00128E+05 4.28759E-09 3.38824E-09
 -1       883 2.44111E+05 4.28039E+04 2.42733E+02 1.02831E+05 2.40004E-09 1.16390E-08
 -1       884 2.46480E+05 4.04319E+04 3.85095E+02 1.00128E+05 1.17097E-09-1.56422E-09
 -1       885 2.44141E+05 4.28093E+04 7.73612E+02 1.02840E+05 1.13951E-09-1.04754E-08
 -1       886 2.46450E+05 4.04093E+04 1.55888E+03 1.00125E+05 1.06783E-09 6.21128E-09
 -1       887 2.44415E+05 4.29889E+04 3.40507E+03 1.02880E+05-1.54083E-09 1.27898E-09
 -1       888 2.46235E+05 4.04471E+04 6.86131E+03 1.00016E+05-8.85365E-10 3.73393E-09
 -1       889 2.48502E+05 4.72352E+04 1.63908E+04 1.02752E+05 2.93318E-09-7.78073E-10
 -1       890 2.43439E+05 4.37686E+04 3.06991E+04 9.73991E+04 2.39538E-09-1.32786E-10
 -1       891-1.30807E+02-1.37814E+05-1.65744E+03 2.48505E+04-2.39424E-10 1.30324E-08
 -1       892-2.32268E+02-1.38222E+05-1.79125E+03 3.76374E+04 3.76076E-10 6.59384E-09
 -1       893-2.08008E+01-1.37866E+05-2.54776E+03 2.48560E+04 7.45786E-10-1.31286E-09
 -1       894-1.35669E+03-1.39191E+05-5.28127E+03 3.75017E+04-1.05751E-09-1.32104E-08
 -1       895-1.06579E+03-1.36765E+05-9.30361E+03 2.49851E+04-5.36602E-10-6.86396E-09
 -1       956-3.11218E+05-4.38089E+03-1.09831E+04 2.17422E+04-5.07498E-10-3.66822E-09
 -1       957-3.13383E+05-1.49175E+03-5.63807E+03 2.61778E+04-3.00815E-09-8.73342E-09
 -1       958-3.12196E+05-1.33237E+02-2.54024E+03 2.16124E+04-8.23093E-10 1.14369E-10
 -1       959-3.12366E+05-3.81843E+01-1.29746E+03 2.63212E+04-1.02409E-09 5.35238E-10
 -1       960-3.12285E+05 2.23304E+01-6.32635E+02 2.15997E+04-9.13587E-10-8.27481E-09
 -1       961-3.12294E+05 1.77847E+01-3.35795E+02 2.63358E+04 2.03841E-09-3.78827E-09
 -1       962-3.12304E+05 1.87512E+01-1.92564E+02 2.15977E+04-9.54060E-10 8.29868E-09
 -1       963-3.12291E+05 1.95973E+01-1.55219E+02 2.63384E+04-2.23736E-09-2.29193E-09
 -1       964-3.12307E+05 2.09791E+01-1.89297E+02 2.15971E+04-2.01828E-09-3.00224E-09
 -1       965-3.12302E+05 2.25249E+01-3.27845E+02 2.63381E+04-1.42975E-09 1.22534E-08
 -1       966-3.12296E+05 2.89595E+01-6.15960E+02 2.15980E+04-8.65612E-10 4.73074E-09
 -1       967-3.12381E+05-2.73483E+01-1.26354E+03 2.63287E+04-4.34966E-10 6.46230E-09
 -1       968-3.12216E+05-1.18159E+02-2.47306E+03 2.16066E+04 1.45110E-09-1.22068E-09
 -1       969-3.13380E+05-1.43898E+03-5.49075E+03 2.62284E+04 2.78374E-09 4.10634E-09
 -1       970-3.11269E+05-4.25207E+03-1.06953E+04 2.16986E+04-5.87079E-10-3.35785E-09
 -1       971-2.90765E+05-1.50081E+03-8.27468E+03 1.36328E+04-1.48430E-09 9.70019E-09
 -1       972-2.92772E+05-1.08311E+03-4.50631E+03 1.89973E+04-1.37652E-09 3.31238E-09
 -1       973-2.91686E+05-2.13419E+01-2.01806E+03 1.35203E+04 3.87126E-09-6.48697E-10
 -1       974-2.91821E+05-2.51636E+01-1.04565E+03 1.91204E+04 1.17270E-08-1.38436E-09
 -1       975-2.91758E+05 1.79346E+01-5.22035E+02 1.35096E+04 6.60839E-09-7.35952E-09
 -1       976-2.91765E+05 1.86428E+01-2.99985E+02 1.91336E+04 3.61752E-10-1.39219E-08
 -1       977-2.91772E+05 1.81161E+01-2.15609E+02 1.35070E+04-9.54060E-10 3.11502E-09
 -1       978-2.91769E+05 2.37925E+01-2.49416E+02 1.91374E+04 1.05659E-08-1.44382E-11
 -1       979-2.91772E+05 2.50711E+01-3.98251E+02 1.35058E+04 7.58007E-10-2.52055E-09
 -1       980-2.91799E+05 2.63226E+01-7.67417E+02 1.91380E+04 1.03711E-09-2.44495E-09
 -1       981-2.91748E+05 4.42076E+01-1.48549E+03 1.35063E+04 1.90630E-09-4.28878E-09
 -1       982-2.92002E+05-8.33874E+01-3.07003E+03 1.91322E+04 1.20599E-09-1.20463E-08
 -1       983-2.91561E+05-5.08431E+01-5.96485E+03 1.35119E+04 2.17642E-09-7.96035E-09
 -1       984-2.94871E+05-3.19852E+03-1.33576E+04 1.90553E+04-2.28169E-09 1.23200E-08
 -1       985-2.88860E+05-4.41555E+03-2.45289E+04 1.35857E+04 2.27374E-12 1.74623E-10
 -3
    1PSTEP                        19          10           1          
  100CL  110 5.85938E-01         409                     0   10           1
 -4  DISP        4    1
 -5  D1          1    2    1    0
 -5  D2          1    2    2    0
 -5  D3          1    2    3    0
 -5  ALL         1    2    0    0    1ALL
 -1         1 7.81932E-04 0.00000E+00 0.00000E+00
 -1         2 7.29920E-04 2.26940E-29 1.32349E-23
 -1         3 2.35413E-04-1.19799E-27-1.32349E-23
 -1         5 1.38224E-04 1.02663E-26 3.30872E-24
 -1         8 7.60483E-04-6.91385E-07 0.00000E+00
 -1         9 7.37026E-04-2.37185E-06 0.00000E+00
 -1        10 2.14960E-04-2.98336E-06 0.00000E+00
 -1        12 1.38629E-04 6.61212E-07 0.00000E+00
 -1        15 7.34714E-04-7.64346E-07-2.06795E-25
 -1        16 7.41172E-04-2.93880E-06 0.00000E+00
 -1        17 1.51071E-04-6.48713E-06 0.00000E+00
 -1        18 1.38512E-04 1.42732E-05 0.00000E+00
 -1        19 1.39843E-04 1.31896E-06 0.00000E+00
 -1        20 1.39991E-04 5.87315E-06 0.00000E+00
 -1        21 1.39294E-04 8.14394E-06 0.00000E+00
 -1        24 2.56336E-05-9.28412E-06 0.00000E+00
 -1        25 1.42063E-04 1.44381E-05 0.00000E+00
 -1        26 1.42775E-04 1.82744E-06 0.00000E+00
 -1        27 1.40963E-04 2.88405E-06 0.00000E+00
 -1        28 1.40556E-04 7.59870E-06 0.00000E+00
 -1        32 0.00000E+00 0.00000E+00 0.00000E+00
 -1        33 1.44623E-04 2.44877E-06 0.00000E+00
 -1        34 1.42832E-04 2.85099E-06 0.00000E+00
 -1        35 1.41168E-04 7.30529E-06 0.00000E+00
 -1        51 7.80549E-04-1.20913E-07 0.00000E+00
 -1        52 7.77974E-04-2.31636E-07 0.00000E+00
 -1        53 7.74440E-04-3.41986E-07 0.00000E+00
 -1        54 7.70186E-04-4.53869E-07-3.30872E-24
 -1        55 7.65454E-04-5.68512E-07 5.79026E-24
 -1        56 7.79402E-04-6.18232E-07-5.29396E-23
 -1        57 7.76566E-04-6.93331E-07 2.64698E-23
 -1        58 7.73538E-04-2.43970E-07 0.00000E+00
 -1        59 7.70330E-04 6.36911E-07-2.64698E-23
 -1        60 7.67008E-04 1.81854E-06 0.00000E+00
 -1        61 7.63628E-04 3.14607E-06 0.00000E+00
 -1        62 7.60257E-04 4.44865E-06 0.00000E+00
 -1        63 7.56959E-04 5.55592E-06 0.00000E+00
 -1        64 7.53790E-04 6.32095E-06 1.05879E-22
 -1        65 7.50799E-04 6.61678E-06-5.29396E-23
 -1        66 7.48011E-04 6.37175E-06 0.00000E+00
 -1        67 7.45443E-04 5.54658E-06-2.64698E-23
 -1        68 7.43083E-04 4.16926E-06 0.00000E+00
 -1        69 7.40920E-04 2.30564E-06 0.00000E+00
 -1        70 7.38892E-04 6.81472E-08 0.00000E+00
 -1        86 7.30187E-04-3.91509E-07 0.00000E+00
 -1        87 7.30981E-04-7.83623E-07 0.00000E+00
 -1        88 7.32199E-04-1.17619E-06 1.32349E-23
 -1        89 7.33727E-04-1.57131E-06 0.00000E+00
 -1        90 7.35394E-04-1.96590E-06 0.00000E+00
 -1       121 2.34839E-04-4.89845E-07 0.00000E+00
 -1       122 2.33120E-04-9.80958E-07 6.61744E-24
 -1       123 2.30261E-04-1.47459E-06 1.32349E-23
 -1       124 2.26272E-04-1.97204E-06 0.00000E+00
 -1       125 2.21166E-04-2.47433E-06 0.00000E+00
 -1       191 1.38235E-04 1.10209E-07 1.65436E-24
 -1       192 1.38269E-04 2.20416E-07-8.27181E-25
 -1       193 1.38325E-04 3.30622E-07-1.65436E-24
 -1       194 1.38404E-04 4.40825E-07-1.65436E-24
 -1       195 1.38505E-04 5.51023E-07-1.65436E-24
 -1       251 7.59804E-04 1.45582E-05 0.00000E+00
 -1       252 7.58574E-04 5.14003E-05 0.00000E+00
 -1       253 7.56725E-04 1.03252E-04 1.32349E-23
 -1       254 7.54439E-04 1.63184E-04-6.61744E-24
 -1       255 7.52209E-04 2.22082E-04 0.00000E+00
 -1       256 7.50505E-04 2.70856E-04-6.61744E-24
 -1       257 7.49422E-04 3.03149E-04-1.32349E-23
 -1       258 7.48795E-04 3.12984E-04 0.00000E+00
 -1       259 7.48137E-04 3.00295E-04-1.32349E-23
 -1       260 7.46976E-04 2.65553E-04 6.61744E-24
 -1       261 7.45189E-04 2.15042E-04-1.32349E-23
 -1       262 7.42918E-04 1.55405E-04 0.00000E+00
 -1       263 7.40646E-04 9.57542E-05 0.00000E+00
 -1       264 7.38856E-04 4.52028E-05 6.61744E-24
 -1       265 7.37693E-04 1.03975E-05 0.00000E+00
 -1       266 7.56189E-04-7.13454E-07 3.30872E-24
 -1       267 7.51894E-04-7.24406E-07 0.00000E+00
 -1       268 7.47599E-04-7.36063E-07 8.27181E-25
 -1       269 7.43304E-04-7.45634E-07-2.06795E-25
 -1       270 7.39009E-04-7.55156E-07 0.00000E+00
 -1       271 7.57886E-04 2.96723E-06 2.64698E-23
 -1       272 7.55438E-04 6.12579E-06 1.32349E-23
 -1       273 7.53186E-04 8.76951E-06 2.64698E-23
 -1       274 7.51132E-04 1.08747E-05 1.32349E-23
 -1       275 7.49284E-04 1.24297E-05-2.64698E-23
 -1       276 7.47646E-04 1.34287E-05 0.00000E+00
 -1       277 7.46215E-04 1.38743E-05 0.00000E+00
 -1       278 7.44988E-04 1.37765E-05-1.32349E-23
 -1       279 7.43958E-04 1.31534E-05 0.00000E+00
 -1       280 7.43116E-04 1.20304E-05-1.32349E-23
 -1       281 7.42448E-04 1.04401E-05 0.00000E+00
 -1       282 7.41941E-04 8.42168E-06 1.32349E-23
 -1       283 7.41577E-04 6.02048E-06 0.00000E+00
 -1       284 7.41340E-04 3.28837E-06 0.00000E+00
 -1       285 7.41206E-04 2.79410E-07 0.00000E+00
 -1       301 7.37807E-04-2.48456E-06 6.61744E-24
 -1       302 7.38051E-04-2.57117E-06 0.00000E+00
 -1       303 7.38132E-04-2.65595E-06 1.32349E-23
 -1       304 7.38428E-04-2.74061E-06 0.00000E+00
 -1       305 7.39317E-04-2.82735E-06 1.32349E-23
 -1       306 7.56414E-04-7.12401E-05 0.00000E+00
 -1       307 8.06613E-04-2.68536E-04-2.64698E-23
 -1       308 8.70383E-04-5.62019E-04 0.00000E+00
 -1       309 9.37612E-04-9.08995E-04 0.00000E+00
 -1       310 1.00462E-03-1.25205E-03-1.05879E-22
 -1       311 1.06727E-03-1.53415E-03 2.64698E-23
 -1       312 1.11429E-03-1.71481E-03 1.05879E-22
 -1       313 1.12769E-03-1.76477E-03 0.00000E+00
 -1       314 1.08952E-03-1.68395E-03 0.00000E+00
 -1       315 9.87566E-04-1.48607E-03 0.00000E+00
 -1       316 8.29841E-04-1.20587E-03 5.29396E-23
 -1       317 6.36781E-04-8.81393E-04 0.00000E+00
 -1       318 4.44209E-04-5.57508E-04 0.00000E+00
 -1       319 2.87835E-04-2.79092E-04 0.00000E+00
 -1       320 1.87625E-04-8.39346E-05-5.29396E-23
 -1       336 2.07530E-04-3.53912E-06-1.32349E-23
 -1       337 1.98760E-04-4.10592E-06-6.61744E-24
 -1       338 1.88684E-04-4.68427E-06 0.00000E+00
 -1       339 1.77345E-04-5.27426E-06 6.61744E-24
 -1       340 1.64790E-04-5.87828E-06 1.32349E-23
 -1       406 1.38775E-04 7.71386E-07 0.00000E+00
 -1       407 1.38944E-04 8.81521E-07 8.27181E-25
 -1       408 1.39135E-04 9.91587E-07-1.65436E-24
 -1       409 1.39349E-04 1.10145E-06-8.27181E-25
 -1       410 1.39585E-04 1.21090E-06 0.00000E+00
 -1       521 7.62190E-04-8.03971E-05 0.00000E+00
 -1       522 8.15063E-04-2.98899E-04-5.29396E-23
 -1       523 8.80499E-04-6.23413E-04-1.05879E-22
 -1       524 9.47977E-04-1.00603E-03 0.00000E+00
 -1       525 1.01533E-03-1.38383E-03 1.05879E-22
 -1       526 1.07975E-03-1.69436E-03 5.29396E-23
 -1       527 1.12906E-03-1.89238E-03-1.05879E-22
 -1       528 1.14283E-03-1.94658E-03 5.29396E-23
 -1       529 1.09916E-03-1.85638E-03 0.00000E+00
 -1       530 9.83482E-04-1.63873E-03-5.29396E-23
 -1       531 8.03781E-04-1.33155E-03 0.00000E+00
 -1       532 5.83454E-04-9.76796E-04 0.00000E+00
 -1       533 3.63277E-04-6.22213E-04-1.05879E-22
 -1       534 1.83999E-04-3.15535E-04 0.00000E+00
 -1       535 6.88443E-05-9.86054E-05-1.05879E-22
 -1       536 1.50681E-04 1.57965E-05 0.00000E+00
 -1       537 1.49835E-04 5.40017E-05 3.30872E-24
 -1       538 1.48585E-04 1.02200E-04 3.30872E-24
 -1       539 1.47143E-04 1.54410E-04 0.00000E+00
 -1       540 1.45847E-04 2.03507E-04 3.30872E-24
 -1       541 1.44985E-04 2.42383E-04 0.00000E+00
 -1       542 1.44553E-04 2.66749E-04 0.00000E+00
 -1       543 1.44390E-04 2.72404E-04 1.65436E-24
 -1       544 1.44172E-04 2.59974E-04 0.00000E+00
 -1       545 1.43600E-04 2.30199E-04 0.00000E+00
 -1       546 1.42626E-04 1.88357E-04 0.00000E+00
 -1       547 1.41360E-04 1.39799E-04 0.00000E+00
 -1       548 1.40116E-04 9.17526E-05 3.30872E-24
 -1       549 1.39204E-04 5.14484E-05-1.65436E-24
 -1       550 1.38696E-04 2.39577E-05 0.00000E+00
 -1       551 1.34081E-04-6.88042E-06 0.00000E+00
 -1       552 1.14350E-04-7.31622E-06 0.00000E+00
 -1       553 9.27516E-05-7.78674E-06 3.30872E-24
 -1       554 7.01746E-05-8.27933E-06 0.00000E+00
 -1       555 4.75075E-05-8.77633E-06 0.00000E+00
 -1       556 1.46210E-04 6.03388E-06 0.00000E+00
 -1       557 1.42353E-04 1.59972E-05 0.00000E+00
 -1       558 1.39402E-04 2.36152E-05 0.00000E+00
 -1       559 1.37262E-04 2.91174E-05 0.00000E+00
 -1       560 1.35840E-04 3.27333E-05 0.00000E+00
 -1       561 1.35045E-04 3.46942E-05 0.00000E+00
 -1       562 1.34787E-04 3.52319E-05 0.00000E+00
 -1       563 1.34976E-04 3.45785E-05 0.00000E+00
 -1       564 1.35524E-04 3.29669E-05-1.32349E-23
 -1       565 1.36342E-04 3.06299E-05 0.00000E+00
 -1       566 1.37344E-04 2.78008E-05 0.00000E+00
 -1       567 1.38443E-04 2.47130E-05-1.65436E-24
 -1       568 1.39551E-04 2.16000E-05 1.65436E-24
 -1       569 1.40581E-04 1.86950E-05 0.00000E+00
 -1       570 1.41447E-04 1.62314E-05 0.00000E+00
 -1       571 1.38593E-04 1.34392E-05 8.27181E-25
 -1       572 1.38676E-04 1.25553E-05 4.13590E-25
 -1       573 1.38759E-04 1.16326E-05 3.30872E-24
 -1       574 1.38842E-04 1.06823E-05 0.00000E+00
 -1       575 1.38925E-04 9.71599E-06-3.30872E-24
 -1       576 1.39009E-04 8.74513E-06 1.65436E-24
 -1       577 1.39092E-04 7.78124E-06-3.30872E-24
 -1       578 1.39176E-04 6.83587E-06 0.00000E+00
 -1       579 1.39259E-04 5.92051E-06 3.30872E-24
 -1       580 1.39342E-04 5.04671E-06 0.00000E+00
 -1       581 1.39426E-04 4.22601E-06 6.61744E-24
 -1       582 1.39509E-04 3.46989E-06 0.00000E+00
 -1       583 1.39593E-04 2.78988E-06-6.61744E-24
 -1       584 1.39677E-04 2.19735E-06 0.00000E+00
 -1       585 1.39760E-04 1.70360E-06 0.00000E+00
 -1       586 1.39051E-04 1.43025E-05 0.00000E+00
 -1       587 1.39562E-04 1.43312E-05-2.06795E-25
 -1       588 1.40082E-04 1.43595E-05 0.00000E+00
 -1       589 1.40648E-04 1.43873E-05 0.00000E+00
 -1       590 1.41297E-04 1.44142E-05 0.00000E+00
 -1       591 1.38781E-04 1.34990E-05 1.03398E-25
 -1       592 1.39055E-04 1.26999E-05 0.00000E+00
 -1       593 1.39336E-04 1.18817E-05 4.13590E-25
 -1       594 1.39623E-04 1.10496E-05-4.13590E-25
 -1       595 1.39912E-04 1.02087E-05 0.00000E+00
 -1       596 1.40203E-04 9.36408E-06-4.13590E-25
 -1       597 1.40493E-04 8.52074E-06-8.27181E-25
 -1       598 1.40780E-04 7.68381E-06-2.06795E-25
 -1       599 1.41064E-04 6.85832E-06 8.27181E-25
 -1       600 1.41341E-04 6.04935E-06-2.06795E-25
 -1       601 1.41610E-04 5.26198E-06 0.00000E+00
 -1       602 1.41870E-04 4.50125E-06-2.06795E-25
 -1       603 1.42117E-04 3.77225E-06 4.13590E-25
 -1       604 1.42352E-04 3.08012E-06 0.00000E+00
 -1       605 1.42570E-04 2.42987E-06 0.00000E+00
 -1       606 1.39857E-04 1.12017E-06-3.30872E-24
 -1       607 1.39867E-04 1.01425E-06 0.00000E+00
 -1       608 1.39876E-04 9.95744E-07 0.00000E+00
 -1       609 1.39886E-04 1.05851E-06 0.00000E+00
 -1       610 1.39895E-04 1.19635E-06 0.00000E+00
 -1       611 1.39904E-04 1.40301E-06 1.65436E-24
 -1       612 1.39912E-04 1.67220E-06 0.00000E+00
 -1       613 1.39921E-04 1.99766E-06 0.00000E+00
 -1       614 1.39930E-04 2.37311E-06 0.00000E+00
 -1       615 1.39939E-04 2.79225E-06-8.27181E-25
 -1       616 1.39948E-04 3.24882E-06 0.00000E+00
 -1       617 1.39957E-04 3.73652E-06 0.00000E+00
 -1       618 1.39965E-04 4.24909E-06 0.00000E+00
 -1       619 1.39974E-04 4.78023E-06 0.00000E+00
 -1       620 1.39983E-04 5.32368E-06 0.00000E+00
 -1       621 1.40180E-04 1.40394E-06-1.65436E-24
 -1       622 1.40600E-04 1.48920E-06-8.27181E-25
 -1       623 1.41087E-04 1.57440E-06 0.00000E+00
 -1       624 1.41623E-04 1.65943E-06 0.00000E+00
 -1       625 1.42191E-04 1.74428E-06 1.65436E-24
 -1       626 1.40013E-04 1.14991E-06-3.30872E-24
 -1       627 1.40155E-04 1.05441E-06 0.00000E+00
 -1       628 1.40273E-04 1.02468E-06 0.00000E+00
 -1       629 1.40370E-04 1.05253E-06 0.00000E+00
 -1       630 1.40448E-04 1.12978E-06 0.00000E+00
 -1       631 1.40511E-04 1.24819E-06 1.65436E-24
 -1       632 1.40561E-04 1.39952E-06 0.00000E+00
 -1       633 1.40602E-04 1.57554E-06 0.00000E+00
 -1       634 1.40637E-04 1.76800E-06 3.30872E-24
 -1       635 1.40668E-04 1.96869E-06 0.00000E+00
 -1       636 1.40700E-04 2.16936E-06-3.30872E-24
 -1       637 1.40735E-04 2.36179E-06 0.00000E+00
 -1       638 1.40776E-04 2.53772E-06 1.65436E-24
 -1       639 1.40826E-04 2.68893E-06-8.27181E-25
 -1       640 1.40888E-04 2.80715E-06 1.65436E-24
 -1       656 1.39663E-04 5.38696E-06 0.00000E+00
 -1       657 1.39728E-04 4.88125E-06 0.00000E+00
 -1       658 1.40045E-04 4.37696E-06 0.00000E+00
 -1       659 1.40471E-04 3.87305E-06 0.00000E+00
 -1       660 1.40833E-04 3.36758E-06 6.61744E-24
 -1       661 1.39871E-04 6.38743E-06 0.00000E+00
 -1       662 1.39781E-04 6.82988E-06 0.00000E+00
 -1       663 1.39717E-04 7.20377E-06 1.65436E-24
 -1       664 1.39677E-04 7.51367E-06 0.00000E+00
 -1       665 1.39660E-04 7.76349E-06 0.00000E+00
 -1       666 1.39664E-04 7.95726E-06-8.27181E-25
 -1       667 1.39687E-04 8.09879E-06 1.65436E-24
 -1       668 1.39729E-04 8.19181E-06 8.27181E-25
 -1       669 1.39788E-04 8.23991E-06 1.65436E-24
 -1       670 1.39862E-04 8.24660E-06-8.27181E-25
 -1       671 1.39950E-04 8.21526E-06 0.00000E+00
 -1       672 1.40051E-04 8.14917E-06 8.27181E-25
 -1       673 1.40164E-04 8.05158E-06 0.00000E+00
 -1       674 1.40287E-04 7.92537E-06-8.27181E-25
 -1       675 1.40420E-04 7.77401E-06 4.13590E-25
 -1       676 1.39505E-04 8.05253E-06 3.30872E-24
 -1       677 1.39716E-04 7.96116E-06 0.00000E+00
 -1       678 1.39927E-04 7.86983E-06 0.00000E+00
 -1       679 1.40137E-04 7.77879E-06 0.00000E+00
 -1       680 1.40347E-04 7.68775E-06 1.65436E-24
 -1       771 1.74470E-05 8.51065E-06 0.00000E+00
 -1       772 1.05000E-05 2.31149E-05 0.00000E+00
 -1       773 4.73361E-06 3.46904E-05 5.29396E-23
 -1       774 6.82849E-08 4.34162E-05 0.00000E+00
 -1       775-3.57433E-06 4.94771E-05 0.00000E+00
 -1       776-6.27571E-06 5.30677E-05 0.00000E+00
 -1       777-8.11776E-06 5.43878E-05 0.00000E+00
 -1       778-9.18412E-06 5.36456E-05 2.64698E-23
 -1       779-9.55855E-06 5.10535E-05 0.00000E+00
 -1       780-9.32628E-06 4.68309E-05 0.00000E+00
 -1       781-8.57236E-06 4.12004E-05 0.00000E+00
 -1       782-7.38303E-06 3.43900E-05 0.00000E+00
 -1       783-5.84429E-06 2.66301E-05 0.00000E+00
 -1       784-4.04303E-06 1.81545E-05 0.00000E+00
 -1       785-2.06577E-06 9.19884E-06 0.00000E+00
 -1       786 1.42104E-04 1.34401E-05 1.03398E-25
 -1       787 1.42148E-04 1.24886E-05 4.13590E-25
 -1       788 1.42192E-04 1.15756E-05-8.27181E-25
 -1       789 1.42236E-04 1.06938E-05-8.27181E-25
 -1       790 1.42281E-04 9.83855E-06-1.65436E-24
 -1       791 1.42326E-04 9.00553E-06 8.27181E-25
 -1       792 1.42371E-04 8.19264E-06 0.00000E+00
 -1       793 1.42415E-04 7.39783E-06 8.27181E-25
 -1       794 1.42460E-04 6.62086E-06 0.00000E+00
 -1       795 1.42505E-04 5.86160E-06 0.00000E+00
 -1       796 1.42550E-04 5.12169E-06 0.00000E+00
 -1       797 1.42595E-04 4.40283E-06 0.00000E+00
 -1       798 1.42640E-04 3.70886E-06 1.65436E-24
 -1       799 1.42685E-04 3.04372E-06 0.00000E+00
 -1       800 1.42730E-04 2.41426E-06 1.65436E-24
 -1       801 1.18201E-04 1.26590E-05 0.00000E+00
 -1       802 4.53347E-05 8.56756E-06 0.00000E+00
 -1       803-2.23691E-05 4.77553E-06 5.29396E-23
 -1       804-3.10678E-05 3.13388E-06 0.00000E+00
 -1       805-1.24135E-05 1.52406E-06 5.29396E-23
 -1       806 1.42341E-04 1.33845E-05-1.65436E-24
 -1       807 1.42606E-04 1.23575E-05-1.65436E-24
 -1       808 1.42858E-04 1.13612E-05-1.65436E-24
 -1       809 1.43098E-04 1.03983E-05-8.27181E-25
 -1       810 1.43323E-04 9.47162E-06 3.30872E-24
 -1       811 1.43535E-04 8.58394E-06 0.00000E+00
 -1       812 1.43730E-04 7.73799E-06 3.30872E-24
 -1       813 1.43909E-04 6.93649E-06 8.27181E-25
 -1       814 1.44070E-04 6.18214E-06-3.30872E-24
 -1       815 1.44213E-04 5.47765E-06 0.00000E+00
 -1       816 1.44336E-04 4.82574E-06 1.65436E-24
 -1       817 1.44438E-04 4.22908E-06-1.65436E-24
 -1       818 1.44519E-04 3.69039E-06 0.00000E+00
 -1       819 1.44577E-04 3.21233E-06 0.00000E+00
 -1       820 1.44611E-04 2.79759E-06 1.65436E-24
 -1       821 1.42668E-04 1.18008E-06 0.00000E+00
 -1       822 1.42554E-04 3.70850E-07 0.00000E+00
 -1       823 1.42441E-04-4.91194E-07 0.00000E+00
 -1       824 1.42326E-04-1.29670E-06-1.65436E-24
 -1       825 1.42212E-04-1.94957E-06 0.00000E+00
 -1       826 1.42098E-04-2.35451E-06 0.00000E+00
 -1       827 1.41983E-04-2.47397E-06-3.30872E-24
 -1       828 1.41869E-04-2.27188E-06-1.65436E-24
 -1       829 1.41754E-04-1.78710E-06-3.30872E-24
 -1       830 1.41640E-04-1.05995E-06 0.00000E+00
 -1       831 1.41525E-04-1.87201E-07 3.30872E-24
 -1       832 1.41410E-04 7.33609E-07 1.65436E-24
 -1       833 1.41296E-04 1.59372E-06 0.00000E+00
 -1       834 1.41183E-04 2.28472E-06-8.27181E-25
 -1       835 1.41070E-04 2.73746E-06 8.27181E-25
 -1       836 1.43257E-04 1.93076E-06 0.00000E+00
 -1       837 1.43629E-04 2.03648E-06-3.30872E-24
 -1       838 1.43921E-04 2.14206E-06 0.00000E+00
 -1       839 1.44163E-04 2.24698E-06 8.27181E-25
 -1       840 1.44387E-04 2.35174E-06 0.00000E+00
 -1       856 1.40941E-04 2.94142E-06 4.13590E-25
 -1       857 1.40916E-04 3.11885E-06 1.03398E-25
 -1       858 1.40891E-04 3.39756E-06 0.00000E+00
 -1       859 1.40866E-04 3.75870E-06 0.00000E+00
 -1       860 1.40840E-04 4.18330E-06 0.00000E+00
 -1       861 1.40815E-04 4.65235E-06-4.13590E-25
 -1       862 1.40789E-04 5.14681E-06-8.27181E-25
 -1       863 1.40763E-04 5.64760E-06 0.00000E+00
 -1       864 1.40737E-04 6.13562E-06 0.00000E+00
 -1       865 1.40711E-04 6.59182E-06-4.13590E-25
 -1       866 1.40686E-04 6.99715E-06 0.00000E+00
 -1       867 1.40660E-04 7.33260E-06 4.13590E-25
 -1       868 1.40634E-04 7.57928E-06 8.27181E-25
 -1       869 1.40608E-04 7.71832E-06 0.00000E+00
 -1       870 1.40583E-04 7.73100E-06 0.00000E+00
 -1       871 1.41148E-04 2.88213E-06-8.27181E-25
 -1       872 1.41458E-04 2.87752E-06 0.00000E+00
 -1       873 1.41837E-04 2.87240E-06 4.13590E-25
 -1       874 1.42230E-04 2.86667E-06 0.00000E+00
 -1       875 1.42580E-04 2.86039E-06-4.13590E-25
 -1       876 1.41052E-04 2.95318E-06 0.00000E+00
 -1       877 1.41120E-04 3.08088E-06 1.65436E-24
 -1       878 1.41170E-04 3.26008E-06 3.30872E-24
 -1       879 1.41203E-04 3.48428E-06 0.00000E+00
 -1       880 1.41222E-04 3.74689E-06-3.30872E-24
 -1       881 1.41229E-04 4.04138E-06-1.65436E-24
 -1       882 1.41226E-04 4.36124E-06 0.00000E+00
 -1       883 1.41217E-04 4.69996E-06 0.00000E+00
 -1       884 1.41203E-04 5.05103E-06 0.00000E+00
 -1       885 1.41186E-04 5.40796E-06-1.65436E-24
 -1       886 1.41170E-04 5.76422E-06 0.00000E+00
 -1       887 1.41156E-04 6.11332E-06-1.65436E-24
 -1       888 1.41147E-04 6.44871E-06-3.30872E-24
 -1       889 1.41145E-04 6.76378E-06-8.27181E-25
 -1       890 1.41153E-04 7.05202E-06 0.00000E+00
 -1       891 1.40786E-04 7.54954E-06 0.00000E+00
 -1       892 1.40996E-04 7.50022E-06 0.00000E+00
 -1       893 1.41162E-04 7.45094E-06 1.65436E-24
 -1       894 1.41262E-04 7.40181E-06 0.00000E+00
 -1       895 1.41271E-04 7.35281E-06 4.13590E-25
 -1       956 1.44513E-04 2.23786E-06 1.65436E-24
 -1       957 1.44401E-04 2.09813E-06 8.27181E-25
 -1       958 1.44289E-04 2.02149E-06 1.65436E-24
 -1       959 1.44177E-04 1.99937E-06-1.65436E-24
 -1       960 1.44065E-04 2.02321E-06 0.00000E+00
 -1       961 1.43952E-04 2.08437E-06 0.00000E+00
 -1       962 1.43840E-04 2.17424E-06 0.00000E+00
 -1       963 1.43728E-04 2.28418E-06 0.00000E+00
 -1       964 1.43615E-04 2.40557E-06 0.00000E+00
 -1       965 1.43503E-04 2.52975E-06 1.65436E-24
 -1       966 1.43391E-04 2.64810E-06 0.00000E+00
 -1       967 1.43278E-04 2.75200E-06 0.00000E+00
 -1       968 1.43166E-04 2.83279E-06 0.00000E+00
 -1       969 1.43054E-04 2.88189E-06 0.00000E+00
 -1       970 1.42942E-04 2.89071E-06 0.00000E+00
 -1       971 1.42729E-04 2.82348E-06 1.65436E-24
 -1       972 1.42625E-04 2.88316E-06-8.27181E-25
 -1       973 1.42521E-04 3.02043E-06 0.00000E+00
 -1       974 1.42416E-04 3.22529E-06 0.00000E+00
 -1       975 1.42312E-04 3.48774E-06-3.30872E-24
 -1       976 1.42207E-04 3.79776E-06 0.00000E+00
 -1       977 1.42102E-04 4.14531E-06 0.00000E+00
 -1       978 1.41998E-04 4.52037E-06 0.00000E+00
 -1       979 1.41893E-04 4.91287E-06 3.30872E-24
 -1       980 1.41788E-04 5.31277E-06-1.65436E-24
 -1       981 1.41684E-04 5.71003E-06 3.30872E-24
 -1       982 1.41579E-04 6.09458E-06-1.65436E-24
 -1       983 1.41475E-04 6.45640E-06 0.00000E+00
 -1       984 1.41371E-04 6.78543E-06 1.65436E-24
 -1       985 1.41268E-04 7.07166E-06 1.65436E-24
 -3
    1PSTEP                        20          10           1          
  100CL  110 5.85938E-01         409                     0   10           1
 -4  STRESS      6    1
 -5  SXX         1    4    1    1
 -5  SYY         1    4    2    2
 -5  SZZ         1    4    3    3
 -5  SXY         1    4    1    2
 -5  SYZ         1    4    2    3
 -5  SZX         1    4    3    1
 -1         1-3.25425E+06-1.28535E+06-7.07032E+05-1.42422E+06-8.73115E-11-5.52682E-08
 -1         2 1.69099E+03-1.11686E+06 5.48366E+03 2.53606E+03 2.00117E-10 9.84774E-08
 -1         3-5.96685E+02-1.39584E+06 3.36129E+02-1.26352E+03-2.44285E-10 7.01039E-09
 -1         5-4.40657E+00 3.15351E+05 8.03650E+00-1.93020E-01-1.41773E-10 1.92194E-08
 -1         8-9.34406E+05-3.22073E+05-9.55031E+04-4.03467E+05-1.81899E-12-1.68584E-08
 -1         9 8.52050E+05-7.57428E+05 2.31151E+05-8.36446E+05 1.73924E-08-1.76602E-08
 -1        10-1.48269E+03-1.45432E+06-2.64069E+03-8.54396E+03-8.87849E-09-4.48715E-08
 -1        12-1.11285E+00 3.15368E+05 2.60366E+02-1.43602E+00-1.84947E-10 1.70030E-08
 -1        15 1.64175E+03 9.02235E+02 5.30693E+03 3.04912E+00-2.48519E-10-9.93673E-08
 -1        16 3.87410E+06-7.25955E+05 5.50718E+05-1.11962E+06 1.14184E-08 3.43813E-08
 -1        17 1.05903E+06 7.11645E+05 3.43061E+05 8.16754E+05 2.00351E-08 1.03086E-08
 -1        18 2.23722E+04 1.32142E+03-1.96292E+04-9.00609E+04 1.26618E-08 1.48748E-09
 -1        19 1.01422E+05 1.16569E+05-8.31116E+02 1.95668E+04 2.92494E-10 2.41344E-09
 -1        20-5.67779E+04-4.79092E+05-1.06693E+05 2.75527E+04 1.48581E-09 3.96479E-09
 -1        21-4.20024E+01-2.61621E+05-8.29971E+02 3.78457E+01-2.88228E-06-1.74877E-08
 -1        24 1.32671E+06 1.97538E+06 7.02548E+05 1.62019E+06-5.99345E-08-3.77089E-08
 -1        25-6.99627E+04-4.53838E+05-8.43530E+04-2.46217E+05-1.72122E-09-4.46744E-10
 -1        26-4.09266E+04 7.56701E+04-1.98741E+04-3.10014E+03 1.21108E-09-2.25089E-10
 -1        27-6.83962E+04-2.60279E+05-9.64030E+04 5.85685E+04 5.02769E-09 7.48817E-09
 -1        28 2.00019E+04-7.39418E+04 1.48735E+04 2.05096E+04-2.43318E-10-2.05861E-09
 -1        32-1.45425E+06-2.42205E+06-1.00252E+05-2.58691E+05-3.06409E-08-7.24015E-09
 -1        33-1.52115E+05 7.57659E+04 2.69257E+04-3.47879E+04-6.28025E-10-6.52866E-09
 -1        34-1.91244E+05-1.99888E+04 5.29294E+02 6.16937E+04-5.02069E-11 4.10334E-10
 -1        35-2.04392E+04-2.93589E+04-1.16119E+03 4.55639E+04 1.14001E-09-5.25082E-09
 -1        51 3.43039E+04-2.82705E+05 7.72876E+04-8.08273E+05 0.00000E+00-1.49012E-08
 -1        52 1.42725E+04-2.72753E+05 4.40664E+04-9.42491E+05 3.78350E-10 6.96309E-08
 -1        53 6.09295E+03-2.87495E+05 2.85162E+04-8.05371E+05 5.23869E-10-5.19212E-08
 -1        54 1.58141E+04-2.84949E+05 3.46818E+04-9.45509E+05 7.27596E-12-7.94826E-08
 -1        55 3.20939E+04-2.96679E+05 5.53071E+04-8.04922E+05 4.29281E-10 1.07280E-07
 -1        56-6.18380E+06-6.93137E+05-5.21851E+05-2.40179E+06-9.43692E-09-5.67816E-08
 -1        57-6.45065E+06-1.11001E+06-3.52106E+05-2.31627E+06 2.60479E-09 8.48377E-09
 -1        58-6.27955E+06-8.68173E+05-1.22653E+05-2.37925E+06 1.56433E-10 4.82032E-08
 -1        59-6.34205E+06-9.02316E+05-7.32084E+04-2.34051E+06-1.61117E-09-7.57937E-08
 -1        60-6.29081E+06-8.95244E+05-2.85722E+04-2.37929E+06 3.05636E-09-4.48072E-08
 -1        61-6.32803E+06-8.71509E+05-1.62183E+04-2.34147E+06 8.51702E-09 3.87233E-08
 -1        62-6.29325E+06-8.98213E+05-7.72436E+03-2.37848E+06 4.41800E-09 2.12822E-08
 -1        63-6.32143E+06-8.72335E+05-6.26477E+03-2.34671E+06-1.40330E-08 7.77827E-08
 -1        64-6.29729E+06-8.94380E+05-7.03278E+03-2.37402E+06-6.12727E-09-2.94434E-08
 -1        65-6.31295E+06-8.85223E+05-1.40385E+04-2.35773E+06-1.82399E-08-9.46741E-08
 -1        66-6.30168E+06-8.85458E+05-2.45925E+04-2.36739E+06 2.34741E-09 1.74059E-08
 -1        67-6.31522E+06-9.21339E+05-6.26672E+04-2.36814E+06-1.15178E-08-3.82752E-08
 -1        68-6.29533E+06-8.58897E+05-1.05014E+05-2.36347E+06-4.09273E-10-6.05614E-08
 -1        69-6.40596E+06-1.10163E+06-3.01376E+05-2.35056E+06-2.13204E-08-5.19758E-08
 -1        70-6.21253E+06-7.09856E+05-4.46750E+05-2.38362E+06 4.26371E-09-6.70843E-08
 -1        86-8.49545E+02-1.11875E+06 5.85313E+03-1.26804E+03-8.95625E-10 3.46520E-08
 -1        87 5.60379E+03-1.11507E+06 1.22266E+04 4.54558E+03-1.55455E-09 3.24826E-08
 -1        88-4.74251E+03-1.12054E+06 1.87500E+04-3.27761E+03-1.62981E-09-4.91222E-08
 -1        89 3.53379E+04-1.10143E+06 5.05036E+04 7.19767E+03-2.63935E-09-7.16503E-08
 -1        90-3.04720E+04-1.13237E+06 7.14571E+04-3.92030E+03-1.99361E-09 3.80599E-09
 -1       121-8.39103E+02-1.39793E+06-2.04083E+01 6.29236E+02 9.75717E-10-2.38651E-09
 -1       122-4.66908E+02-1.39581E+06 6.91932E+02-2.52439E+03-3.53398E-09 2.15350E-08
 -1       123-8.92775E+02-1.39802E+06 7.60870E+02 1.88015E+03 2.90345E-09 7.35236E-09
 -1       124 8.97921E+02-1.39517E+06 2.80444E+03-5.32320E+03-6.63294E-09 2.02781E-08
 -1       125-1.69016E+03-1.39878E+06 3.90432E+03 3.41720E+03 3.86808E-09-1.06338E-08
 -1       191-4.89355E+00 3.15378E+05 9.67691E+00 9.69943E-02-1.31251E-10 2.64117E-09
 -1       192-5.14452E+00 3.15351E+05 1.70117E+01-7.52960E-01-1.97869E-10-9.71477E-09
 -1       193-6.85566E+00 3.15378E+05 3.17054E+01 6.59401E-01-2.96007E-10-5.01495E-09
 -1       194-7.51926E+00 3.15354E+05 6.43347E+01-1.76036E+00-1.06805E-10-7.27960E-09
 -1       195-1.06261E+01 3.15376E+05 1.25909E+02 1.11080E+00-3.69756E-10 3.92038E-09
 -1       251-1.79707E+06-3.21060E+03-1.22842E+05-9.35521E+04-3.47427E-10 5.31218E-08
 -1       252-1.37358E+06 5.85154E+03 2.07062E+03 2.86675E+05-3.89264E-09 8.29473E-08
 -1       253-1.60245E+06-4.64796E+03-2.29120E+04-1.91998E+05 3.14776E-09-3.48573E-08
 -1       254-1.56815E+06 2.66850E+04-4.08935E+02 3.77607E+05-5.02422E-09-1.54987E-08
 -1       255-1.62228E+06-7.91763E+03-1.26716E+04-1.85739E+05 3.00679E-09-3.38057E-08
 -1       256-1.32237E+06 2.29323E+04 5.28186E+04 2.63178E+05-2.61102E-08-3.62613E-08
 -1       257-1.82429E+06-2.03076E+04-5.27722E+04-7.61687E+04-1.05683E-08-4.18981E-09
 -1       258-1.10841E+06 1.79853E+04 9.43212E+04-8.78292E+03 3.60251E-08 5.79887E-08
 -1       259-1.81528E+06-1.99533E+04-4.95595E+04 8.52624E+04-6.17183E-09 1.68147E-08
 -1       260-1.34257E+06 2.47022E+04 5.26065E+04-2.74922E+05-6.95400E-09-2.02563E-08
 -1       261-1.61311E+06-8.39026E+03-4.04827E+03 1.89216E+05 3.28610E-08-4.05273E-08
 -1       262-1.56538E+06 3.45258E+04 1.56399E+04-3.77556E+05-4.10943E-08 1.36698E-08
 -1       263-1.61447E+06-1.19171E+04 1.19625E+03 1.89244E+05 1.88720E-09 6.06506E-08
 -1       264-1.32977E+06 5.52669E+04 7.68626E+04-2.75524E+05 8.81719E-08-6.08316E-09
 -1       265-1.82678E+06-4.68352E+04-2.42562E+04 8.58391E+04 2.84217E-08 7.09988E-08
 -1       266-2.97206E+04-1.38964E+04 6.97377E+04-6.52456E+01-9.09495E-11 8.57140E-09
 -1       267 3.44549E+04 1.61981E+04 4.92872E+04 7.52756E+01 9.91349E-11-1.47480E-08
 -1       268-4.62031E+03-2.29401E+03 1.83200E+04-9.59169E+00-6.27551E-11-1.38944E-08
 -1       269 5.45526E+03 2.74554E+03 1.19076E+04 1.11726E+01-2.27374E-12 1.43822E-08
 -1       270-8.18840E+02-4.51108E+02 5.74795E+03-1.51621E+00-1.59162E-12 4.11015E-08
 -1       271-2.72460E+06-3.36379E+05-2.04535E+05-1.05484E+06 1.78261E-10-3.78059E-08
 -1       272-2.82228E+06-4.62355E+05-1.31654E+05-1.02646E+06 9.33710E-09 3.45244E-08
 -1       273-2.76280E+06-3.87852E+05-4.82963E+04-1.04604E+06-9.48282E-09 2.43745E-09
 -1       274-2.77690E+06-3.99760E+05-2.70692E+04-1.04003E+06-1.13710E-09-4.69963E-08
 -1       275-2.76882E+06-3.92514E+05-1.12598E+04-1.04362E+06 6.36646E-11 8.59927E-09
 -1       276-2.76864E+06-3.95238E+05-5.93946E+03-1.04445E+06-2.53217E-08 6.28006E-09
 -1       277-2.77091E+06-3.91723E+05-2.93765E+03-1.04185E+06-4.66571E-09 5.44969E-09
 -1       278-2.76515E+06-3.97349E+05-2.00382E+03-1.04790E+06 5.66843E-09 9.63189E-09
 -1       279-2.77235E+06-3.90318E+05-2.12696E+03-1.04022E+06 2.26919E-09-9.96010E-09
 -1       280-2.76287E+06-4.00420E+05-3.70088E+03-1.05098E+06 4.45880E-09 8.85517E-08
 -1       281-2.77329E+06-3.88622E+05-6.75706E+03-1.03883E+06 1.84946E-08 3.97636E-08
 -1       282-2.76378E+06-4.07141E+05-1.60849E+04-1.05309E+06-3.23462E-09-3.20779E-09
 -1       283-2.77165E+06-3.83912E+05-2.86279E+04-1.03806E+06 8.20910E-09 1.47729E-08
 -1       284-2.78714E+06-4.47835E+05-7.80361E+04-1.04922E+06-2.26419E-09 2.34577E-08
 -1       285-2.75070E+06-3.51732E+05-1.21234E+05-1.04138E+06-6.95218E-09 1.64437E-09
 -1       301 2.21519E+04-2.42716E+05 1.73165E+05-4.55110E+05 4.72937E-10-4.34229E-08
 -1       302 2.36743E+04-1.99264E+05 1.09637E+05-6.66012E+05-3.05590E-10 3.09537E-08
 -1       303 2.23312E+02-2.25922E+05 7.65356E+04-4.54120E+05-1.81899E-11-3.93902E-08
 -1       304 2.04301E+04-1.99222E+05 1.02371E+05-6.65497E+05 1.52795E-10-3.58850E-08
 -1       305 1.78360E+04-2.38051E+05 1.56766E+05-4.55671E+05-1.45519E-11 9.55333E-09
 -1       306-1.25631E+07-1.93443E+06-2.52000E+06-2.00640E+06-4.27244E-08 6.05360E-09
 -1       307 3.86688E+06-1.57867E+06 1.27007E+06-5.83877E+06-4.38478E-07 1.02576E-07
 -1       308-7.92323E+06 2.98527E+05-2.78980E+05 8.64174E+05-7.82020E-08 1.60395E-07
 -1       309-3.38946E+06-1.43481E+06 3.68481E+05-9.55381E+06 1.66076E-07 1.00613E-07
 -1       310-8.21682E+06 2.34268E+05-2.74553E+05 7.59233E+05-4.01051E-08 2.33749E-08
 -1       311 4.53698E+06-1.75667E+06 1.59247E+06-5.24282E+06 2.11803E-07 5.93354E-08
 -1       312-1.26165E+07-1.94349E+06-1.98656E+06-2.33340E+06 2.29338E-08 9.26229E-08
 -1       313 8.09037E+06 1.69022E+06 2.69240E+06 3.16708E+06 1.45621E-07 1.31986E-08
 -1       314-9.81326E+06-4.54940E+06-1.93498E+06-5.14254E+06 2.09431E-07-1.74623E-08
 -1       315-4.14025E+06 6.43945E+06 1.51536E+06 3.41643E+06-2.11294E-07-2.49129E-08
 -1       316-3.42134E+06-4.32028E+06-2.16557E+05-4.21722E+06-4.91666E-07-1.79425E-07
 -1       317-1.20298E+07 7.18588E+06 3.54139E+05-1.28066E+05 4.34884E-07-2.72026E-07
 -1       318-3.49374E+06-4.35312E+06-3.60646E+05-4.23037E+06-3.67480E-07 1.41299E-08
 -1       319-3.87071E+06 6.57630E+06 1.28337E+06 3.43155E+06-6.05432E-08 5.81276E-08
 -1       320-9.97162E+06-4.67861E+06-2.66635E+06-5.09413E+06 9.10368E-08-1.65874E-08
 -1       336 3.84336E+02-1.51331E+06-1.00156E+04 5.08374E+03-1.67593E-08-2.30648E-09
 -1       337-3.79174E+03-1.51453E+06-1.22478E+04-1.23450E+04-3.09337E-08 1.55705E-08
 -1       338 5.90605E+02-1.51321E+06-1.77410E+04 7.19122E+03-2.18206E-08-5.40967E-09
 -1       339-1.87556E+04-1.52442E+06-3.97919E+04-1.64560E+04-4.05926E-08 3.13394E-08
 -1       340 1.25381E+04-1.50424E+06-6.21849E+04 9.14184E+03-2.72466E-08 2.02272E-08
 -1       406 1.88433E+01 3.15364E+05 5.14090E+02 3.39702E-01-4.80753E-10 8.22911E-09
 -1       407 1.78097E+02 3.15458E+05 1.09245E+03 5.88783E+00-9.86802E-11-5.31691E-09
 -1       408 5.61286E+02 3.15285E+05 2.18191E+03-6.39169E+00-6.10868E-10-1.27784E-09
 -1       409 2.35802E+03 3.16155E+05 4.91184E+03 6.43533E+01-1.86304E-10 2.26282E-09
 -1       410 6.77698E+03 3.14665E+05 1.00273E+04-6.10049E+01-7.95353E-10 1.04114E-08
 -1       521-1.47500E+07-2.52234E+06-3.22779E+06-2.14701E+06-2.81725E-08 4.17349E-08
 -1       522 4.50753E+06-1.78197E+06 1.41775E+06-7.60208E+06-2.96917E-07-1.49637E-07
 -1       523-9.39000E+06 2.52824E+05-3.39347E+05 1.17346E+06 4.55184E-08-2.64230E-07
 -1       524-4.82394E+06-1.01996E+06 4.57100E+05-1.20443E+07 4.09242E-07-3.68738E-07
 -1       525-9.76973E+06 1.49577E+05-3.40002E+05 1.04290E+06 3.71685E-07-2.24466E-07
 -1       526 5.52440E+06-2.02664E+06 1.86834E+06-6.79186E+06 3.38216E-07-1.33296E-08
 -1       527-1.48444E+07-2.59329E+06-2.51897E+06-2.56476E+06 4.61587E-08-1.01267E-07
 -1       528 1.00553E+07 1.98065E+06 3.12322E+06 4.03848E+06 4.19095E-09 1.23400E-08
 -1       529-1.14466E+07-5.75910E+06-2.45239E+06-5.94746E+06-5.79748E-08 1.35100E-07
 -1       530-5.43907E+06 8.36230E+06 1.78651E+06 4.03931E+06-1.04526E-07 2.75264E-07
 -1       531-3.94514E+06-5.39673E+06-2.58681E+05-4.96217E+06-3.45637E-07 7.87986E-08
 -1       532-1.50922E+07 9.23801E+06 4.62669E+05-9.60983E+05 3.24901E-07-3.03364E-07
 -1       533-3.98197E+06-5.42484E+06-4.00492E+05-4.95953E+06-2.66009E-08-4.92582E-07
 -1       534-5.25379E+06 8.59465E+06 1.53923E+06 3.99652E+06-5.67525E-08 3.78539E-07
 -1       535-1.15855E+07-5.96796E+06-3.24192E+06-5.88968E+06 3.84753E-08 2.31128E-07
 -1       536-5.10193E+05-3.26927E+04 1.50156E+04-2.92564E+04-7.35054E-09 3.91738E-08
 -1       537-2.43255E+05 3.40134E+04 5.62421E+04 7.14675E+04-6.78232E-08 6.32531E-08
 -1       538-3.82024E+05-7.38422E+02 1.03757E+04-4.38252E+04 1.88965E-08 7.66945E-08
 -1       539-3.31288E+05 3.27475E+03 1.51961E+04 8.20635E+04 1.19972E-07 8.72488E-08
 -1       540-4.24183E+05-3.20097E+02-6.42903E+03-3.99763E+04-5.92240E-09 6.52232E-08
 -1       541-1.63036E+05 7.09683E+03 4.42480E+04 5.31200E+04 1.85901E-08 5.37888E-08
 -1       542-5.45768E+05-8.26463E+03-3.36026E+04-1.46689E+04 1.78525E-08 2.11070E-08
 -1       543-6.32046E+04 1.09805E+04 6.30879E+04-9.11766E+03 7.78527E-09-9.47546E-09
 -1       544-5.21364E+05-6.37312E+03-2.96545E+04 2.20876E+04 7.26186E-09-2.51850E-08
 -1       545-2.18584E+05 3.08490E+03 2.98664E+04-6.54697E+04-1.17649E-06-1.04015E-07
 -1       546-3.94507E+05 3.00073E+03-5.90801E+03 4.16095E+04-3.64233E-04-1.58910E-05
 -1       547-3.42002E+05-4.23141E+03-2.48493E+02-8.41749E+04-7.30645E-04-3.64727E-05
 -1       548-4.01201E+05 3.61506E+03-1.62315E+04 4.09613E+04-3.64006E-04-1.54905E-05
 -1       549-2.07955E+05-6.14672E+03 7.03541E+03-6.23018E+04-1.20785E-06-6.65113E-08
 -1       550-5.24885E+05 1.89637E+03-7.70871E+04 1.95544E+04-4.60004E-08-1.84682E-08
 -1       551 2.63225E+04-7.08731E+05 1.49912E+04-1.10758E+06 2.44836E-08-8.41101E-09
 -1       552 6.21385E+04-7.33033E+05 2.76784E+04-1.59996E+06 5.20376E-08 3.25890E-08
 -1       553 4.52588E+04-7.36334E+05 4.41306E+04-1.10269E+06 2.82234E-08 3.18396E-08
 -1       554 9.41347E+04-7.37191E+05 9.57836E+04-1.60172E+06 5.61558E-08 2.46209E-08
 -1       555 7.21953E+04-7.56981E+05 1.69796E+05-1.10338E+06 2.87837E-08-7.29779E-09
 -1       556 1.47815E+05-2.65565E+05 6.04619E+04-3.13938E+05-1.57452E-08-1.69384E-08
 -1       557 2.48425E+05-3.46443E+05 3.27198E+04-3.98907E+05-4.01633E-09-4.86034E-09
 -1       558 1.40914E+05-2.69723E+05 1.17274E+04-3.09777E+05-1.15542E-08-2.31521E-08
 -1       559 2.30767E+05-3.53158E+05 6.41552E+03-4.09792E+05 1.12705E-08-1.89029E-08
 -1       560 1.33482E+05-2.64989E+05 1.77529E+03-3.14919E+05 1.25146E-09 6.62112E-09
 -1       561 2.20915E+05-3.49593E+05 1.28286E+03-4.16292E+05-4.28554E-09 1.22800E-08
 -1       562 1.27631E+05-2.61276E+05 3.14102E+01-3.19119E+05-3.44880E-09 7.53425E-09
 -1       563 2.14029E+05-3.46594E+05 3.06794E+02-4.20739E+05-3.65253E-09-6.42603E-09
 -1       564 1.23650E+05-2.58774E+05-5.58304E+01-3.21930E+05 1.09867E-09-3.81942E-09
 -1       565 2.09809E+05-3.44760E+05 1.21041E+02-4.23420E+05 9.02219E-10 1.89630E-09
 -1       566 1.21612E+05-2.57475E+05-2.90870E+01-3.23361E+05-1.14378E-08-5.36784E-09
 -1       567 2.08233E+05-3.44064E+05-1.24235E+02-4.24319E+05 1.40362E-08 3.96540E-09
 -1       568 1.21570E+05-2.57463E+05-5.22585E+02-3.23484E+05-2.91038E-11 6.19184E-09
 -1       569 2.08289E+05-3.44015E+05-1.31050E+03-4.22569E+05-7.69978E-09 6.14818E-10
 -1       570 1.24341E+05-2.59826E+05-3.01113E+03-3.22907E+05 1.03901E-08-7.20320E-10
 -1       571 2.38941E+05 8.75196E+03 1.28008E+04-6.62631E+04-1.05056E-08-9.33892E-09
 -1       572 2.40829E+05 3.13249E+03 6.27216E+03-7.26880E+04-2.17783E-08-1.70621E-09
 -1       573 2.39697E+05 8.34087E+02 2.78668E+03-6.61231E+04-1.04542E-08 8.45512E-09
 -1       574 2.39909E+05 3.64307E+02 1.39672E+03-7.28537E+04 3.68254E-09-8.34461E-09
 -1       575 2.39782E+05 1.50394E+02 6.58869E+02-6.61044E+04 1.15938E-09 6.26505E-09
 -1       576 2.39789E+05 1.37878E+02 3.36540E+02-7.28758E+04-4.07272E-09 1.86492E-09
 -1       577 2.39804E+05 1.08160E+02 1.67516E+02-6.61019E+04-5.11591E-10 7.19274E-09
 -1       578 2.39792E+05 1.18060E+02 9.51847E+01-7.28787E+04 6.36646E-10 3.37968E-09
 -1       579 2.39836E+05 9.44676E+01 6.43083E+01-6.61017E+04-5.72891E-09-4.82487E-09
 -1       580 2.39837E+05 9.73802E+01 7.12627E+01-7.28749E+04-2.63458E-08-6.26505E-09
 -1       581 2.39887E+05 7.14905E+01 1.07370E+02-6.61057E+04-9.53150E-10 6.92762E-09
 -1       582 2.39924E+05 9.46448E+01 2.14606E+02-7.28326E+04 1.73750E-08 4.77439E-09
 -1       583 2.39946E+05 1.32596E+02 4.15096E+02-6.61441E+04 1.00135E-08 3.58341E-09
 -1       584 2.40151E+05 4.64787E+02 9.35078E+02-7.25099E+04 3.10138E-09-7.98229E-09
 -1       585 2.39913E+05 1.27850E+03 1.89871E+03-6.64285E+04 1.28966E-09-2.17187E-09
 -1       586-2.98212E+03 8.24052E+04-3.37597E+03-2.12346E+05-2.80306E-09 4.06033E-09
 -1       587-8.27529E+02 8.20158E+04 7.99818E+01-2.33729E+05-3.03589E-09 3.14517E-08
 -1       588 6.86960E+02 8.20125E+04 3.51820E+03-2.12244E+05-1.59525E-09 2.04182E-08
 -1       589 4.46253E+03 8.39012E+04 9.61570E+03-2.33488E+05-1.69712E-09 1.75069E-08
 -1       590 1.35202E+04 8.09521E+04 2.03631E+04-2.12610E+05-1.84082E-09 1.30785E-08
 -1       591-5.13362E+04-1.25836E+04-1.71041E+04-2.38131E+04-6.55791E-09 4.48654E-09
 -1       592-5.38960E+04-1.58286E+04-9.26468E+03-2.71846E+04-9.09327E-09 8.06631E-09
 -1       593-5.30517E+04-1.13373E+04-3.85663E+03-2.50624E+04-3.81897E-09-2.86968E-09
 -1       594-5.15270E+04-1.33268E+04-1.92347E+03-2.72838E+04 1.40858E-09-1.54526E-09
 -1       595-5.31827E+04-1.13328E+04-8.83432E+02-2.51193E+04 1.53790E-10 6.47012E-09
 -1       596-5.13653E+04-1.32124E+04-4.49568E+02-2.72653E+04 1.61749E-09 1.20889E-08
 -1       597-5.31992E+04-1.13442E+04-2.45787E+02-2.51214E+04-3.86393E-10-1.52784E-09
 -1       598-5.13495E+04-1.32080E+04-1.99392E+02-2.72601E+04-1.54432E-09-4.94350E-09
 -1       599-5.31980E+04-1.13445E+04-2.56951E+02-2.51211E+04 4.57305E-09-7.24924E-09
 -1       600-5.13659E+04-1.32133E+04-4.79129E+02-2.72641E+04 8.37360E-10-1.49834E-08
 -1       601-5.31783E+04-1.13331E+04-9.46146E+02-2.51181E+04 1.04615E-09-8.75571E-09
 -1       602-5.15389E+04-1.33354E+04-2.06251E+03-2.72810E+04 1.38141E-09-7.65795E-10
 -1       603-5.30357E+04-1.13403E+04-4.13645E+03-2.50575E+04-2.90356E-10-1.01272E-08
 -1       604-5.40929E+04-1.60041E+04-9.93652E+03-2.71559E+04 3.63798E-11-1.20465E-08
 -1       605-5.11801E+04-1.26903E+04-1.83445E+04-2.37321E+04 1.33184E-09 8.15635E-09
 -1       606 2.72913E+04-1.15205E+04-2.06934E+04 2.59632E+04 9.54969E-10-3.86126E-09
 -1       607 2.37515E+04-3.74123E+03-1.03046E+04 2.91552E+04-3.29237E-09-7.54812E-09
 -1       608 2.57627E+04-6.54912E+02-4.61398E+03 2.57634E+04 8.36553E-09-9.26548E-10
 -1       609 2.53689E+04-1.99131E+02-2.33054E+03 2.93844E+04 2.25273E-08 1.31877E-09
 -1       610 2.55820E+04-2.55751E+00-1.11268E+03 2.57407E+04 9.99717E-09-1.68166E-09
 -1       611 2.55131E+04 5.78621E+00-5.60983E+02 2.94093E+04-3.11411E-09 4.78303E-09
 -1       612 2.55366E+04 1.31146E+01-2.67497E+02 2.57384E+04 6.11635E-09-3.46358E-09
 -1       613 2.55148E+04 1.33736E+01-1.20529E+02 2.94123E+04 1.91808E-08-4.01792E-09
 -1       614 2.55128E+04 1.17210E+01-3.02912E+01 2.57377E+04 1.15569E-08 1.34141E-08
 -1       615 2.55045E+04 1.79204E+01 4.59290E+01 2.94127E+04 2.82671E-09 7.51652E-09
 -1       616 2.54945E+04 1.69948E+01 1.41893E+02 2.57379E+04-1.91403E-09 3.71710E-09
 -1       617 2.55170E+04 5.09045E+01 3.25549E+02 2.94122E+04-5.51154E-10-3.54794E-09
 -1       618 2.54629E+04 1.12953E+02 6.56754E+02 2.57381E+04-9.10859E-10 3.84625E-09
 -1       619 2.57462E+04 5.60431E+02 1.47525E+03 2.94114E+04 1.87163E-09 5.76961E-09
 -1       620 2.52431E+04 1.67184E+03 2.96526E+03 2.57375E+04 2.27453E-09 9.62655E-09
 -1       621 3.03563E+02 2.44383E+05 2.70664E+03 2.08875E+04 1.05956E-10-4.99358E-09
 -1       622 3.79848E+02 2.45037E+05 2.50584E+03 3.03746E+04 3.34694E-10-1.62486E-08
 -1       623 3.70384E+01 2.44530E+05 3.15026E+03 2.07890E+04 3.70164E-10 8.35826E-10
 -1       624 1.53316E+03 2.46067E+05 6.21816E+03 3.04742E+04 4.44444E-10 1.05570E-08
 -1       625 1.53333E+03 2.43303E+05 1.09203E+04 2.07863E+04 3.64707E-10 3.12616E-09
 -1       626 2.15483E+05 5.51597E+04 4.62284E+03 1.10221E+05 1.18962E-09-5.59157E-09
 -1       627 2.13124E+05 5.66877E+04 2.22769E+03 1.14372E+05 3.67436E-09 9.67816E-09
 -1       628 2.15615E+05 5.30217E+04 9.41492E+02 1.10977E+05 2.51021E-10 3.91992E-09
 -1       629 2.12517E+05 5.61038E+04 4.60900E+02 1.14616E+05 1.70803E-09-6.08915E-09
 -1       630 2.15626E+05 5.29200E+04 2.13135E+02 1.11005E+05-2.28283E-10-1.62501E-08
 -1       631 2.12448E+05 5.60850E+04 1.13931E+02 1.14617E+05-5.26870E-09-5.82492E-09
 -1       632 2.15618E+05 5.29262E+04 7.36084E+01 1.10998E+05 1.34651E-09 5.63170E-09
 -1       633 2.12436E+05 5.60892E+04 7.99270E+01 1.14611E+05-1.78670E-09 1.13580E-08
 -1       634 2.15610E+05 5.29260E+04 1.27293E+02 1.10995E+05 1.60821E-09-6.22981E-09
 -1       635 2.12444E+05 5.60895E+04 2.56533E+02 1.14612E+05 2.34093E-09 1.42461E-08
 -1       636 2.15599E+05 5.29232E+04 5.17476E+02 1.10993E+05-8.82693E-09 6.95036E-09
 -1       637 2.12553E+05 5.61708E+04 1.13718E+03 1.14609E+05-1.94613E-08-5.89989E-09
 -1       638 2.15557E+05 5.31754E+04 2.33659E+03 1.10878E+05-6.98606E-09 2.09457E-09
 -1       639 2.13780E+05 5.78774E+04 5.52795E+03 1.14246E+05 4.69959E-09 1.76560E-08
 -1       640 2.15391E+05 5.82677E+04 1.14715E+04 1.08724E+05 6.92262E-09 1.28566E-08
 -1       656 5.62983E+04-1.43348E+06-1.35905E+05-9.70304E+02 1.67347E-10-6.26673E-09
 -1       657-7.44444E+04-1.49486E+06-1.12509E+05 6.98780E+03 6.39375E-10-8.90174E-09
 -1       658 1.79109E+04-1.45094E+06-6.91936E+04-2.57198E+03 4.15866E-10 8.98339E-10
 -1       659-8.02310E+04-1.49760E+06-1.20111E+05 8.18652E+03-8.14907E-10-4.87906E-09
 -1       660 6.20716E+04-1.43075E+06-1.48976E+05-2.16901E+03-1.43336E-09 1.14207E-08
 -1       661 1.64763E+05 1.76512E+04 1.65014E+04 6.44288E+04 2.86491E-11-1.32968E-09
 -1       662 1.73732E+05 3.02256E+04 1.11199E+04 6.11375E+04 1.60918E-09-1.15979E-08
 -1       663 1.68002E+05 2.29468E+04 3.88949E+03 6.34905E+04-1.02136E-09 4.00996E-09
 -1       664 1.69980E+05 2.40303E+04 2.32603E+03 6.22815E+04-2.79272E-09 9.84528E-10
 -1       665 1.68491E+05 2.36725E+04 9.17596E+02 6.33503E+04-1.11987E-09 1.26548E-09
 -1       666 1.69404E+05 2.31984E+04 5.36087E+02 6.24631E+04-5.64626E-10-4.73646E-09
 -1       667 1.68575E+05 2.37569E+04 2.83782E+02 6.33168E+04-4.31805E-09-3.96251E-09
 -1       668 1.69313E+05 2.31351E+04 2.86918E+02 6.25117E+04-6.75442E-11-7.15932E-09
 -1       669 1.68582E+05 2.37339E+04 3.86618E+02 6.33022E+04-3.81036E-10 9.31558E-09
 -1       670 1.69408E+05 2.33430E+04 8.40159E+02 6.25135E+04-3.71593E-10 5.34290E-09
 -1       671 1.68480E+05 2.35532E+04 1.49119E+03 6.33133E+04 3.32484E-10 8.10883E-09
 -1       672 1.70276E+05 2.47936E+04 3.81471E+03 6.23033E+04-7.37728E-10 9.64519E-09
 -1       673 1.67717E+05 2.23198E+04 6.39267E+03 6.34984E+04 9.51559E-11-3.25963E-09
 -1       674 1.76362E+05 3.50626E+04 1.82816E+04 6.05141E+04-1.26357E-09-4.09113E-09
 -1       675 1.62434E+05 1.35717E+04 2.71361E+04 6.49943E+04-1.28057E-09 5.76620E-09
 -1       676 2.15361E+01-2.61552E+05-1.00033E+03-1.89233E+01-7.54198E-10-9.06458E-10
 -1       677-2.65651E+02-2.61794E+05-1.83075E+03 3.78218E+01 1.03523E-09 4.14739E-09
 -1       678 1.77342E+02-2.61380E+05-3.23630E+03-1.88856E+01-5.18185E-10 9.80714E-09
 -1       679-3.23725E+03-2.63748E+05-7.68797E+03 3.76774E+01 2.08638E-09-3.05403E-09
 -1       680 1.93203E+03-2.59600E+05-1.23904E+04-1.85666E+01-4.59295E-10-7.25899E-09
 -1       771-2.75703E+06-5.88502E+05-9.46675E+04-1.25174E+06-2.05328E-08-1.52795E-08
 -1       772-2.70682E+06-6.50940E+05-4.93206E+04-1.32326E+06-1.49012E-08 7.94171E-09
 -1       773-2.77468E+06-5.74555E+05-2.40491E+04-1.25828E+06-1.04192E-08 8.54197E-09
 -1       774-2.69842E+06-6.41054E+05-1.09628E+04-1.33670E+06 1.53377E-08-1.05501E-09
 -1       775-2.78274E+06-5.68826E+05-7.47561E+03-1.26092E+06-4.30737E-09 2.69210E-09
 -1       776-2.70307E+06-6.40243E+05-2.91624E+03-1.34617E+06-4.57658E-09 6.57928E-09
 -1       777-2.78949E+06-5.63886E+05-3.04841E+03-1.26323E+06 1.49885E-09 2.64845E-09
 -1       778-2.70813E+06-6.39577E+05-9.05800E+02-1.35422E+06 5.10772E-09 5.82077E-09
 -1       779-2.79518E+06-5.59644E+05-1.44960E+03-1.26522E+06-5.60249E-09-3.91810E-09
 -1       780-2.71258E+06-6.38916E+05-2.60149E+02-1.36075E+06-8.68749E-09-1.24601E-10
 -1       781-2.79964E+06-5.56263E+05-5.62107E+02-1.26677E+06-2.15659E-08-4.80213E-09
 -1       782-2.71598E+06-6.38323E+05 1.56475E+02-1.36556E+06-2.55714E-08-5.46970E-09
 -1       783-2.80275E+06-5.53947E+05 2.33601E+02-1.26787E+06-5.90808E-09-1.05872E-08
 -1       784-2.71786E+06-6.37626E+05 1.08733E+03-1.36850E+06-1.37952E-08 3.52429E-10
 -1       785-2.80452E+06-5.52614E+05 1.90360E+03-1.26856E+06-2.04018E-08 1.30731E-08
 -1       786 1.24880E+05-9.12577E+03 2.11121E+04-1.59953E+02 1.62537E-09 1.30512E-09
 -1       787 1.34035E+05 1.05649E+04 1.49362E+04 1.33198E+00 4.79288E-09 7.18410E-09
 -1       788 1.28410E+05-1.43042E+03 5.46273E+03-1.32242E+02 2.97951E-09 1.20961E-08
 -1       789 1.29923E+05 1.65498E+03 3.43013E+03-4.29932E+01-3.55688E-10 1.21256E-08
 -1       790 1.28993E+05-2.23142E+02 1.39062E+03-1.15635E+02-1.46004E-09 1.17727E-08
 -1       791 1.29241E+05 2.57916E+02 8.06749E+02-7.17798E+01-3.55466E-09 1.20986E-08
 -1       792 1.29092E+05-3.44025E+01 3.48970E+02-1.03456E+02-2.45838E-09-5.52065E-09
 -1       793 1.29126E+05 3.91430E+01 1.89568E+02-9.47170E+01 7.30347E-10 7.05686E-09
 -1       794 1.29109E+05-4.50765E+00 8.06006E+01-9.26972E+01 1.32755E-09-2.06789E-09
 -1       795 1.29103E+05 8.02240E-01 3.01490E+01-1.17122E+02-2.81687E-09 2.88455E-09
 -1       796 1.29114E+05 3.91854E+00-7.12310E+00-8.10506E+01 1.31724E-09-7.13009E-09
 -1       797 1.29085E+05-3.35014E+01-6.00343E+01-1.43748E+02 1.42863E-09-5.11427E-09
 -1       798 1.29127E+05 2.97691E+01-1.08692E+02-6.60707E+01 7.97754E-10-1.06944E-08
 -1       799 1.29000E+05-2.20104E+02-3.08782E+02-1.80239E+02 2.25185E-09-1.07065E-08
 -1       800 1.29200E+05 1.90360E+02-4.39726E+02-4.45591E+01 2.41418E-10 2.69540E-09
 -1       801 4.51805E+04-5.21726E+06-6.02090E+05 3.83952E+05 4.81523E-08-2.52276E-08
 -1       802 5.06761E+04-1.41210E+06 3.34385E+05-4.01587E+05 1.36490E-07-1.41861E-08
 -1       803-9.61663E+04-5.79853E+06-4.54898E+05 2.97653E+05 5.10663E-08 2.65336E-08
 -1       804 7.62871E+03-2.50622E+06 2.35797E+05 2.68825E+05-3.53211E-08-2.85418E-08
 -1       805 7.08249E+04-4.13237E+06-8.02815E+04-2.85642E+05-1.48029E-08-2.26414E-08
 -1       806-2.61298E+05-4.94581E+04-1.90477E+04-1.02240E+05-2.20507E-09-3.40469E-09
 -1       807-2.62979E+05-4.61667E+04-9.35792E+03-1.06646E+05 7.81893E-09-1.12591E-09
 -1       808-2.61807E+05-4.26077E+04-3.97003E+03-1.05503E+05-5.21641E-09-8.47990E-09
 -1       809-2.61019E+05-4.35302E+04-1.94128E+03-1.06869E+05-4.71550E-09 7.00447E-09
 -1       810-2.61886E+05-4.23690E+04-8.89702E+02-1.05648E+05-2.84444E-09-5.66433E-09
 -1       811-2.60869E+05-4.34233E+04-4.42383E+02-1.06840E+05-1.24419E-09-1.73499E-08
 -1       812-2.61900E+05-4.23888E+04-2.23478E+02-1.05648E+05 1.86901E-10-2.21917E-08
 -1       813-2.60849E+05-4.34245E+04-1.44930E+02-1.06825E+05 2.05546E-10-1.44273E-08
 -1       814-2.61896E+05-4.23958E+04-1.42954E+02-1.05646E+05 6.74845E-10-1.56379E-08
 -1       815-2.60854E+05-4.34258E+04-2.30055E+02-1.06821E+05 8.52015E-09 1.16167E-08
 -1       816-2.61881E+05-4.23938E+04-4.35509E+02-1.05644E+05-2.66482E-10 1.38216E-08
 -1       817-2.60930E+05-4.34669E+04-9.35047E+02-1.06814E+05-8.34189E-09 9.90985E-09
 -1       818-2.61827E+05-4.25239E+04-1.90681E+03-1.05582E+05-1.77624E-09 5.84623E-09
 -1       819-2.61974E+05-4.46210E+04-4.48741E+03-1.06572E+05-2.01362E-09 6.23550E-09
 -1       820-2.61475E+05-4.59071E+04-9.13307E+03-1.04128E+05 6.37556E-10 2.72428E-09
 -1       821-3.19312E+05 1.76410E+04-4.08026E+04 5.71608E+02 4.52081E-09 1.09576E-08
 -1       822-3.36974E+05-2.04223E+04-2.88705E+04-1.24994E+03-7.20426E-10-1.88084E-09
 -1       823-3.26122E+05 2.76643E+03-1.05668E+04 6.50419E+02-2.21479E-09 1.58661E-09
 -1       824-3.29008E+05-3.20064E+03-6.64584E+03-1.09519E+03-8.34762E-10-8.91384E-09
 -1       825-3.27275E+05 4.32199E+02-2.73746E+03 4.16863E+02 2.57354E-09 1.18611E-08
 -1       826-3.27649E+05-5.08512E+02-1.63882E+03-4.26617E+02 2.16853E-09 1.57222E-08
 -1       827-3.27479E+05 7.51825E+01-8.64546E+02-1.81640E+01 6.36639E-10-1.46498E-08
 -1       828-3.27468E+05-1.55009E+02-7.47519E+02 4.39159E+02-2.95424E-09 5.53159E-09
 -1       829-3.27456E+05 7.89607E+01-8.80995E+02-4.48929E+02 2.56740E-10 6.73003E-09
 -1       830-3.27712E+05-5.30833E+02-1.71022E+03 1.09180E+03 1.67002E-09 6.36305E-09
 -1       831-3.27236E+05 4.51823E+02-2.84072E+03-6.70820E+02-1.93863E-09 1.07912E-09
 -1       832-3.29091E+05-3.33318E+03-6.92214E+03 1.22155E+03-1.33584E-09 5.13262E-09
 -1       833-3.26079E+05 2.87961E+03-1.10049E+04-5.78675E+02-2.28842E-09 1.21881E-08
 -1       834-3.37320E+05-2.12627E+04-3.00527E+04 7.61612E+02-1.56125E-09 1.62104E-08
 -1       835-3.19008E+05 1.83666E+04-4.24942E+04-2.10870E+02 5.35159E-09 7.47968E-09
 -1       836-1.10847E+03 3.02861E+05 1.84771E+04-1.61074E+04-1.86810E-09-5.22959E-10
 -1       837 4.00197E+03 3.08619E+05 1.57782E+04-3.24889E+04-1.72804E-09 8.69750E-09
 -1       838-4.30393E+02 3.04457E+05 1.62775E+04-1.60420E+04-1.41335E-09 5.36875E-09
 -1       839 1.03864E+04 3.13378E+05 3.09899E+04-3.25309E+04-1.02955E-09-1.35529E-08
 -1       840-3.16733E+03 2.98058E+05 4.95038E+04-1.60659E+04-1.29148E-09 1.78915E-09
 -1       856-6.95378E+04 7.67269E+03-2.02197E+04-4.13750E+02 2.22258E-11 3.89991E-09
 -1       857-7.78819E+04-9.00444E+03-1.39200E+04 4.96918E+03 5.39302E-10-1.21579E-08
 -1       858-7.28372E+04 1.07538E+03-5.24708E+03-4.36086E+02-6.07997E-10-1.09640E-09
 -1       859-7.40942E+04-1.25509E+03-3.16773E+03 5.00390E+03-1.52738E-09 3.02316E-09
 -1       860-7.33303E+04 1.49917E+02-1.32980E+03-4.48461E+02 1.03952E-09 1.15904E-09
 -1       861-7.35266E+04-1.69644E+02-7.36219E+02 5.02084E+03-3.26254E-09 1.20872E-08
 -1       862-7.34072E+04 1.99284E+01-3.15392E+02-4.53036E+02 2.66839E-09 4.53018E-09
 -1       863-7.34339E+04-1.36591E+01-1.36128E+02 5.02315E+03 3.48589E-09-6.45649E-09
 -1       864-7.34232E+04-2.58906E+00-2.67467E+00-4.50779E+02 1.94626E-09-6.94594E-09
 -1       865-7.33939E+04 4.28755E+01 1.37642E+02 5.01124E+03 2.35265E-09-1.13441E-08
 -1       866-7.34454E+04-3.68771E+01 3.01913E+02-4.41123E+02-4.44970E-10-8.04538E-09
 -1       867-7.32452E+04 3.06679E+02 7.58958E+02 4.98496E+03 5.64796E-10-3.16236E-09
 -1       868-7.35679E+04-2.62369E+02 1.26488E+03-4.24497E+02-2.01987E-09 1.04825E-08
 -1       869-7.23130E+04 2.18282E+03 3.37391E+03 4.94122E+03-1.62382E-09 9.59517E-10
 -1       870-7.43714E+04-1.86313E+03 4.89537E+03-3.97376E+02-2.62844E-09-6.90761E-09
 -1       871-4.79025E+03-1.33059E+04-1.60323E+04 1.06771E+05-1.27329E-10 3.62252E-09
 -1       872-1.95214E+03-1.69514E+04-6.61945E+03 1.38432E+05-1.78443E-09 7.02266E-09
 -1       873 9.34772E+01-1.52286E+04 7.20543E+02 1.06537E+05-1.04501E-09 4.87455E-09
 -1       874 2.53443E+03-1.30517E+04 8.59512E+03 1.38470E+05-1.93836E-09-2.94676E-09
 -1       875 5.69958E+03-1.72717E+04 1.92066E+04 1.06734E+05-5.42968E-10 7.38873E-09
 -1       876 2.51794E+05 4.28973E+04 1.31477E+04 1.01589E+05 3.65617E-10 4.68390E-10
 -1       877 2.52614E+05 4.57146E+04 7.02127E+03 1.05405E+05 2.13754E-09 1.04790E-08
 -1       878 2.53022E+05 4.14422E+04 2.94159E+03 1.02668E+05-1.14051E-09-1.29487E-08
 -1       879 2.50827E+05 4.39320E+04 1.46555E+03 1.05496E+05 2.07592E-09 1.33639E-09
 -1       880 2.53111E+05 4.14267E+04 6.82521E+02 1.02713E+05 2.38811E-09-5.58265E-09
 -1       881 2.50708E+05 4.38560E+04 3.64128E+02 1.05476E+05-1.64380E-09 4.88612E-10
 -1       882 2.53119E+05 4.14378E+04 2.32368E+02 1.02714E+05 4.24052E-09-3.19576E-09
 -1       883 2.50699E+05 4.38522E+04 2.48854E+02 1.05470E+05 1.90278E-09-4.86665E-09
 -1       884 2.53114E+05 4.14352E+04 3.95011E+02 1.02714E+05-1.80250E-10 3.21995E-09
 -1       885 2.50731E+05 4.38578E+04 7.93658E+02 1.05480E+05 7.18501E-10 1.29443E-08
 -1       886 2.53083E+05 4.14120E+04 1.59934E+03 1.02711E+05-4.29047E-10 2.87662E-09
 -1       887 2.51012E+05 4.40421E+04 3.49347E+03 1.05520E+05-1.59525E-09 8.26208E-09
 -1       888 2.52862E+05 4.14509E+04 7.03943E+03 1.02599E+05 1.10086E-09 1.18962E-09
 -1       889 2.55204E+05 4.83989E+04 1.68163E+04 1.05390E+05-1.39466E-09 3.59978E-09
 -1       890 2.49993E+05 4.48593E+04 3.14960E+04 9.99151E+04 1.23168E-09-3.21961E-09
 -1       891-1.25271E+02-1.41176E+05-1.70408E+03 2.51345E+04-5.47971E-10-1.23350E-09
 -1       892-2.24663E+02-1.41600E+05-1.83944E+03 3.80815E+04 2.91720E-10 6.06269E-09
 -1       893-1.20161E+01-1.41229E+05-2.61399E+03 2.51403E+04-1.01863E-10 9.39508E-10
 -1       894-1.37736E+03-1.42593E+05-5.41692E+03 3.79437E+04-1.25056E-10-3.45608E-09
 -1       895-1.08371E+03-1.40101E+05-9.54188E+03 2.52716E+04-8.28322E-10-6.40375E-09
 -1       956-3.20264E+05-4.52274E+03-1.13157E+04 2.30086E+04-2.13822E-09-4.64524E-10
 -1       957-3.22494E+05-1.54736E+03-5.80873E+03 2.76944E+04-1.80626E-09-2.55141E-08
 -1       958-3.21273E+05-1.45765E+02-2.61719E+03 2.28736E+04 6.24823E-10-6.20867E-09
 -1       959-3.21447E+05-4.91112E+01-1.33672E+03 2.78449E+04 2.08456E-09 1.64516E-08
 -1       960-3.21366E+05 1.51453E+01-6.51786E+02 2.28602E+04 3.69255E-10-4.97016E-09
 -1       961-3.21373E+05 9.05958E+00-3.45911E+02 2.78603E+04-9.85892E-10-2.01546E-08
 -1       962-3.21385E+05 1.18129E+01-1.98329E+02 2.28581E+04 1.03864E-09-1.86583E-09
 -1       963-3.21371E+05 1.11455E+01-1.59792E+02 2.78630E+04 7.48514E-10-7.72661E-09
 -1       964-3.21389E+05 1.41730E+01-1.94817E+02 2.28575E+04 8.77606E-10-1.11963E-08
 -1       965-3.21382E+05 1.40819E+01-3.37362E+02 2.78627E+04-4.17174E-10-5.00177E-09
 -1       966-3.21377E+05 2.21672E+01-6.33857E+02 2.28585E+04-2.62207E-09-4.35330E-09
 -1       967-3.21462E+05-3.76089E+01-1.30022E+03 2.78525E+04 2.10116E-09 1.49671E-08
 -1       968-3.21294E+05-1.29725E+02-2.54493E+03 2.28677E+04 9.42691E-10 4.54889E-09
 -1       969-3.22490E+05-1.49082E+03-5.65024E+03 2.77454E+04-4.31328E-10-4.80804E-09
 -1       970-3.20319E+05-4.38437E+03-1.10061E+04 2.29648E+04-1.14733E-09 8.04539E-09
 -1       971-2.98160E+05-1.53027E+03-8.40856E+03 1.38497E+04 5.36602E-11 5.85959E-09
 -1       972-3.00197E+05-1.10777E+03-4.57922E+03 1.92791E+04 4.49836E-09 9.29685E-09
 -1       973-2.99096E+05-2.67710E+01-2.05077E+03 1.37361E+04 3.82943E-09 8.28027E-09
 -1       974-2.99230E+05-3.26751E+01-1.06268E+03 1.94040E+04 7.63339E-09 1.45279E-08
 -1       975-2.99169E+05 1.32129E+01-5.30708E+02 1.37253E+04 1.77170E-09 7.58530E-09
 -1       976-2.99174E+05 1.18975E+01-3.05295E+02 1.94175E+04-2.23736E-10 1.67961E-09
 -1       977-2.99183E+05 1.34582E+01-2.20002E+02 1.37225E+04 2.01430E-09-1.19530E-09
 -1       978-2.99178E+05 1.71797E+01-2.55296E+02 1.94214E+04 4.48199E-09 4.03566E-09
 -1       979-2.99183E+05 2.06135E+01-4.08331E+02 1.37214E+04 1.92432E-09 9.45738E-09
 -1       980-2.99208E+05 1.97791E+01-7.87276E+02 1.94221E+04 3.65361E-09-2.93949E-09
 -1       981-2.99158E+05 4.02551E+01-1.52416E+03 1.37218E+04 2.36457E-09 4.63592E-09
 -1       982-2.99418E+05-9.27879E+01-3.15007E+03 1.94162E+04 1.92574E-09-9.80876E-09
 -1       983-2.98966E+05-5.72697E+01-6.12042E+03 1.37275E+04-4.57703E-10 9.60017E-09
 -1       984-3.02361E+05-3.28917E+03-1.37061E+04 1.93382E+04-2.59479E-09 1.59422E-08
 -1       985-2.96195E+05-4.53581E+03-2.51687E+04 1.38009E+04 3.97449E-10-5.45697E-11
 -3
    1PSTEP                        21          11           1          
  100CL  111 5.97656E-01         409                     0   11           1
 -4  DISP        4    1
 -5  D1          1    2    1    0
 -5  D2          1    2    2    0
 -5  D3          1    2    3    0
 -5  ALL         1    2    0    0    1ALL
 -1         1 1.03992E-03 0.00000E+00 0.00000E+00
 -1         2 9.76989E-04-5.07659E-29 0.00000E+00
 -1         3 2.53178E-04-1.69974E-27 1.32349E-23
 -1         5 1.44867E-04 9.41047E-27 1.65436E-24
 -1         8 1.01954E-03-6.48794E-07 0.00000E+00
 -1         9 9.91569E-04-2.97402E-06 0.00000E+00
 -1        10 2.30831E-04-3.12277E-06-6.61744E-24
 -1        12 1.45501E-04 6.84147E-07 1.65436E-24
 -1        15 9.95019E-04-7.15623E-07 2.06795E-25
 -1        16 1.00171E-03-3.66252E-06 0.00000E+00
 -1        17 1.61171E-04-6.82995E-06 0.00000E+00
 -1        18 1.46030E-04 1.74661E-05 0.00000E+00
 -1        19 1.47403E-04 1.36454E-06 0.00000E+00
 -1        20 1.47550E-04 3.35968E-06 0.00000E+00
 -1        21 1.46825E-04 2.79237E-06 0.00000E+00
 -1        24 2.64443E-05-9.85943E-06 0.00000E+00
 -1        25 1.50730E-04 1.76411E-05 0.00000E+00
 -1        26 1.51436E-04 1.89078E-06 0.00000E+00
 -1        27 1.49566E-04 2.82926E-07 0.00000E+00
 -1        28 1.49175E-04 2.23591E-06 0.00000E+00
 -1        32 0.00000E+00 0.00000E+00 0.00000E+00
 -1        33 1.54401E-04 2.53307E-06 0.00000E+00
 -1        34 1.52561E-04 2.46760E-07 0.00000E+00
 -1        35 1.50857E-04 1.93544E-06 0.00000E+00
 -1        51 1.03860E-03-1.15342E-07 0.00000E+00
 -1        52 1.03616E-03-2.19406E-07 0.00000E+00
 -1        53 1.03281E-03-3.22690E-07 0.00000E+00
 -1        54 1.02877E-03-4.27155E-07 0.00000E+00
 -1        55 1.02427E-03-5.34109E-07-8.27181E-25
 -1        56 1.03712E-03-4.92014E-07 0.00000E+00
 -1        57 1.03387E-03-6.23097E-08 0.00000E+00
 -1        58 1.03030E-03 1.20343E-06 0.00000E+00
 -1        59 1.02647E-03 3.11911E-06-5.29396E-23
 -1        60 1.02250E-03 5.43044E-06 0.00000E+00
 -1        61 1.01847E-03 7.85116E-06-5.29396E-23
 -1        62 1.01452E-03 1.00824E-05-1.05879E-22
 -1        63 1.01075E-03 1.18362E-05-5.29396E-23
 -1        64 1.00725E-03 1.28856E-05 1.05879E-22
 -1        65 1.00407E-03 1.30480E-05-5.29396E-23
 -1        66 1.00126E-03 1.22537E-05-1.05879E-22
 -1        67 9.98818E-04 1.04939E-05 0.00000E+00
 -1        68 9.96691E-04 7.88157E-06 0.00000E+00
 -1        69 9.94834E-04 4.58970E-06-2.64698E-23
 -1        70 9.93132E-04 8.66013E-07 5.29396E-23
 -1        86 9.77579E-04-4.90359E-07 0.00000E+00
 -1        87 9.79336E-04-9.82280E-07 0.00000E+00
 -1        88 9.81973E-04-1.47605E-06 0.00000E+00
 -1        89 9.85185E-04-1.97299E-06 0.00000E+00
 -1        90 9.88532E-04-2.46982E-06 0.00000E+00
 -1       121 2.52551E-04-5.11684E-07 0.00000E+00
 -1       122 2.50672E-04-1.02488E-06 0.00000E+00
 -1       123 2.47547E-04-1.54108E-06 1.32349E-23
 -1       124 2.43188E-04-2.06183E-06-6.61744E-24
 -1       125 2.37610E-04-2.58835E-06 0.00000E+00
 -1       191 1.44884E-04 1.14036E-07-1.65436E-24
 -1       192 1.44937E-04 2.28068E-07 8.27181E-25
 -1       193 1.45025E-04 3.42099E-07-1.65436E-24
 -1       194 1.45148E-04 4.56125E-07 8.27181E-25
 -1       195 1.45307E-04 5.70142E-07 0.00000E+00
 -1       251 1.01883E-03 1.60295E-05 0.00000E+00
 -1       252 1.01742E-03 5.75315E-05 6.61744E-24
 -1       253 1.01520E-03 1.16420E-04 0.00000E+00
 -1       254 1.01238E-03 1.84858E-04 6.61744E-24
 -1       255 1.00963E-03 2.52410E-04 1.32349E-23
 -1       256 1.00754E-03 3.08663E-04-6.61744E-24
 -1       257 1.00628E-03 3.46269E-04 0.00000E+00
 -1       258 1.00562E-03 3.58313E-04-6.61744E-24
 -1       259 1.00494E-03 3.44589E-04-1.32349E-23
 -1       260 1.00362E-03 3.05516E-04 6.61744E-24
 -1       261 1.00148E-03 2.48171E-04 0.00000E+00
 -1       262 9.98681E-04 1.80051E-04 0.00000E+00
 -1       263 9.95864E-04 1.11583E-04 0.00000E+00
 -1       264 9.93663E-04 5.32012E-05 6.61744E-24
 -1       265 9.92282E-04 1.25881E-05 2.64698E-23
 -1       266 1.01546E-03-6.69278E-07 3.30872E-24
 -1       267 1.01137E-03-6.79277E-07-8.27181E-25
 -1       268 1.00728E-03-6.89940E-07 8.27181E-25
 -1       269 1.00319E-03-6.98636E-07 0.00000E+00
 -1       270 9.99106E-04-7.07286E-07 0.00000E+00
 -1       271 1.01705E-03 2.92052E-06-2.64698E-23
 -1       272 1.01465E-03 6.15401E-06 0.00000E+00
 -1       273 1.01240E-03 9.00596E-06 2.64698E-23
 -1       274 1.01030E-03 1.14204E-05-1.32349E-23
 -1       275 1.00839E-03 1.33515E-05 0.00000E+00
 -1       276 1.00667E-03 1.47578E-05 0.00000E+00
 -1       277 1.00516E-03 1.56053E-05 0.00000E+00
 -1       278 1.00388E-03 1.58672E-05-1.32349E-23
 -1       279 1.00282E-03 1.55247E-05 2.64698E-23
 -1       280 1.00199E-03 1.45670E-05 1.32349E-23
 -1       281 1.00139E-03 1.29915E-05 2.64698E-23
 -1       282 1.00102E-03 1.08039E-05 1.32349E-23
 -1       283 1.00088E-03 8.01801E-06-2.64698E-23
 -1       284 1.00095E-03 4.65677E-06 0.00000E+00
 -1       285 1.00122E-03 7.48439E-07 0.00000E+00
 -1       301 9.93428E-04-3.10794E-06 1.32349E-23
 -1       302 9.94616E-04-3.21469E-06 0.00000E+00
 -1       303 9.95585E-04-3.31927E-06 6.61744E-24
 -1       304 9.96787E-04-3.42373E-06 0.00000E+00
 -1       305 9.98678E-04-3.53091E-06-1.32349E-23
 -1       306 1.01485E-03-8.68776E-05 1.05879E-22
 -1       307 1.07107E-03-3.25239E-04 0.00000E+00
 -1       308 1.13843E-03-6.79481E-04 0.00000E+00
 -1       309 1.20613E-03-1.09755E-03-2.64698E-23
 -1       310 1.27387E-03-1.50922E-03 0.00000E+00
 -1       311 1.34034E-03-1.84485E-03-5.29396E-23
 -1       312 1.39228E-03-2.05599E-03 1.05879E-22
 -1       313 1.40616E-03-2.10922E-03 0.00000E+00
 -1       314 1.35633E-03-2.00547E-03 0.00000E+00
 -1       315 1.22542E-03-1.76452E-03-5.29396E-23
 -1       316 1.02245E-03-1.42868E-03 1.05879E-22
 -1       317 7.73917E-04-1.04321E-03-2.64698E-23
 -1       318 5.27269E-04-6.59722E-04 0.00000E+00
 -1       319 3.29471E-04-3.29952E-04 0.00000E+00
 -1       320 2.05118E-04-9.85426E-05 5.29396E-23
 -1       336 2.22719E-04-3.70719E-06 0.00000E+00
 -1       337 2.13147E-04-4.30462E-06 6.61744E-24
 -1       338 2.02155E-04-4.91575E-06 1.32349E-23
 -1       339 1.89791E-04-5.54072E-06-6.61744E-24
 -1       340 1.76110E-04-6.18227E-06 0.00000E+00
 -1       406 1.45730E-04 7.98132E-07 3.30872E-24
 -1       407 1.45994E-04 9.12071E-07-8.27181E-25
 -1       408 1.46293E-04 1.02593E-06 3.30872E-24
 -1       409 1.46628E-04 1.13958E-06 8.27181E-25
 -1       410 1.46998E-04 1.25279E-06-3.30872E-24
 -1       521 1.02638E-03-9.60017E-05 1.05879E-22
 -1       522 1.08430E-03-3.54521E-04-5.29396E-23
 -1       523 1.15161E-03-7.38013E-04 1.05879E-22
 -1       524 1.21743E-03-1.18919E-03-5.29396E-23
 -1       525 1.28350E-03-1.63289E-03 0.00000E+00
 -1       526 1.35028E-03-1.99474E-03 5.29396E-23
 -1       527 1.40371E-03-2.22148E-03 0.00000E+00
 -1       528 1.41756E-03-2.27800E-03 5.29396E-23
 -1       529 1.36178E-03-2.16468E-03 0.00000E+00
 -1       530 1.21648E-03-1.90507E-03 0.00000E+00
 -1       531 9.90577E-04-1.54453E-03 1.05879E-22
 -1       532 7.13803E-04-1.13201E-03 0.00000E+00
 -1       533 4.38631E-04-7.21082E-04 1.05879E-22
 -1       534 2.17102E-04-3.65371E-04 0.00000E+00
 -1       535 7.73348E-05-1.13416E-04-1.05879E-22
 -1       536 1.60726E-04 1.77070E-05 6.61744E-24
 -1       537 1.59714E-04 6.01311E-05 3.30872E-24
 -1       538 1.58193E-04 1.13851E-04 3.30872E-24
 -1       539 1.56422E-04 1.72214E-04 1.65436E-24
 -1       540 1.54829E-04 2.27222E-04 0.00000E+00
 -1       541 1.53776E-04 2.70896E-04-1.65436E-24
 -1       542 1.53260E-04 2.98422E-04 0.00000E+00
 -1       543 1.53087E-04 3.05088E-04 1.65436E-24
 -1       544 1.52851E-04 2.91542E-04 0.00000E+00
 -1       545 1.52179E-04 2.58570E-04 0.00000E+00
 -1       546 1.51005E-04 2.12037E-04-3.30872E-24
 -1       547 1.49461E-04 1.57884E-04 0.00000E+00
 -1       548 1.47942E-04 1.04224E-04-3.30872E-24
 -1       549 1.46833E-04 5.91655E-05 0.00000E+00
 -1       550 1.46230E-04 2.83842E-05 0.00000E+00
 -1       551 1.42833E-04-7.25241E-06 0.00000E+00
 -1       552 1.21648E-04-7.72342E-06 3.30872E-24
 -1       553 9.85085E-05-8.23351E-06 1.15805E-23
 -1       554 7.43232E-05-8.76856E-06 6.61744E-24
 -1       555 5.00007E-05-9.30916E-06 0.00000E+00
 -1       556 1.55861E-04 6.83210E-06 0.00000E+00
 -1       557 1.51630E-04 1.77527E-05 0.00000E+00
 -1       558 1.48373E-04 2.61563E-05 0.00000E+00
 -1       559 1.45990E-04 3.22857E-05 0.00000E+00
 -1       560 1.44381E-04 3.63835E-05 0.00000E+00
 -1       561 1.43450E-04 3.86942E-05-1.32349E-23
 -1       562 1.43102E-04 3.94629E-05 0.00000E+00
 -1       563 1.43240E-04 3.89354E-05 0.00000E+00
 -1       564 1.43772E-04 3.73578E-05 0.00000E+00
 -1       565 1.44603E-04 3.49768E-05 0.00000E+00
 -1       566 1.45642E-04 3.20390E-05 0.00000E+00
 -1       567 1.46797E-04 2.87915E-05 0.00000E+00
 -1       568 1.47974E-04 2.54815E-05 0.00000E+00
 -1       569 1.49084E-04 2.23558E-05 0.00000E+00
 -1       570 1.50032E-04 1.96614E-05 0.00000E+00
 -1       571 1.46113E-04 1.64267E-05 0.00000E+00
 -1       572 1.46198E-04 1.53350E-05 4.13590E-25
 -1       573 1.46284E-04 1.42027E-05 3.30872E-24
 -1       574 1.46370E-04 1.30420E-05-1.65436E-24
 -1       575 1.46455E-04 1.18651E-05-3.30872E-24
 -1       576 1.46541E-04 1.06842E-05 0.00000E+00
 -1       577 1.46627E-04 9.51176E-06 0.00000E+00
 -1       578 1.46713E-04 8.36000E-06-1.65436E-24
 -1       579 1.46800E-04 7.24124E-06 6.61744E-24
 -1       580 1.46886E-04 6.16779E-06 0.00000E+00
 -1       581 1.46972E-04 5.15197E-06 0.00000E+00
 -1       582 1.47058E-04 4.20606E-06 0.00000E+00
 -1       583 1.47144E-04 3.34235E-06 0.00000E+00
 -1       584 1.47231E-04 2.57299E-06 0.00000E+00
 -1       585 1.47317E-04 1.91004E-06 0.00000E+00
 -1       586 1.46762E-04 1.74971E-05 0.00000E+00
 -1       587 1.47464E-04 1.75275E-05-3.10193E-25
 -1       588 1.48175E-04 1.75576E-05 0.00000E+00
 -1       589 1.48931E-04 1.75871E-05 0.00000E+00
 -1       590 1.49770E-04 1.76157E-05 0.00000E+00
 -1       591 1.46371E-04 1.64919E-05 2.06795E-25
 -1       592 1.46718E-04 1.54936E-05 0.00000E+00
 -1       593 1.47072E-04 1.44772E-05 0.00000E+00
 -1       594 1.47430E-04 1.34476E-05 0.00000E+00
 -1       595 1.47792E-04 1.24099E-05 0.00000E+00
 -1       596 1.48154E-04 1.13691E-05-4.13590E-25
 -1       597 1.48516E-04 1.03302E-05 0.00000E+00
 -1       598 1.48875E-04 9.29819E-06 4.13590E-25
 -1       599 1.49229E-04 8.27806E-06-4.13590E-25
 -1       600 1.49577E-04 7.27481E-06 0.00000E+00
 -1       601 1.49918E-04 6.29344E-06 4.13590E-25
 -1       602 1.50248E-04 5.33893E-06 2.06795E-25
 -1       603 1.50566E-04 4.41629E-06 2.06795E-25
 -1       604 1.50871E-04 3.53060E-06 1.03398E-25
 -1       605 1.51160E-04 2.68679E-06 0.00000E+00
 -1       606 1.47416E-04 1.01224E-06 0.00000E+00
 -1       607 1.47426E-04 7.51575E-07 0.00000E+00
 -1       608 1.47436E-04 5.77168E-07 0.00000E+00
 -1       609 1.47445E-04 4.82954E-07-1.65436E-24
 -1       610 1.47454E-04 4.62823E-07 0.00000E+00
 -1       611 1.47463E-04 5.10592E-07 0.00000E+00
 -1       612 1.47472E-04 6.20070E-07 0.00000E+00
 -1       613 1.47480E-04 7.85062E-07 0.00000E+00
 -1       614 1.47489E-04 9.99369E-07 0.00000E+00
 -1       615 1.47498E-04 1.25679E-06 0.00000E+00
 -1       616 1.47507E-04 1.55113E-06 0.00000E+00
 -1       617 1.47516E-04 1.87619E-06 0.00000E+00
 -1       618 1.47524E-04 2.22577E-06 0.00000E+00
 -1       619 1.47533E-04 2.59368E-06 4.13590E-25
 -1       620 1.47542E-04 2.97372E-06 0.00000E+00
 -1       621 1.47902E-04 1.45252E-06-1.65436E-24
 -1       622 1.48496E-04 1.54077E-06-8.27181E-25
 -1       623 1.49167E-04 1.62896E-06 1.65436E-24
 -1       624 1.49893E-04 1.71694E-06 8.27181E-25
 -1       625 1.50656E-04 1.80475E-06 0.00000E+00
 -1       626 1.47632E-04 1.04300E-06-6.61744E-24
 -1       627 1.47836E-04 7.93230E-07 0.00000E+00
 -1       628 1.48016E-04 6.07468E-07 3.30872E-24
 -1       629 1.48174E-04 4.77538E-07 0.00000E+00
 -1       630 1.48316E-04 3.95251E-07 3.30872E-24
 -1       631 1.48442E-04 3.52386E-07 0.00000E+00
 -1       632 1.48556E-04 3.40721E-07-3.30872E-24
 -1       633 1.48662E-04 3.52035E-07-1.65436E-24
 -1       634 1.48763E-04 3.78105E-07 0.00000E+00
 -1       635 1.48861E-04 4.10711E-07 0.00000E+00
 -1       636 1.48959E-04 4.41632E-07-3.30872E-24
 -1       637 1.49062E-04 4.62646E-07-1.65436E-24
 -1       638 1.49171E-04 4.65527E-07 1.65436E-24
 -1       639 1.49289E-04 4.42043E-07-8.27181E-25
 -1       640 1.49421E-04 3.83954E-07 1.65436E-24
 -1       656 1.47387E-04 2.85930E-06-6.61744E-24
 -1       657 1.47621E-04 2.33878E-06 0.00000E+00
 -1       658 1.48112E-04 1.81968E-06-1.32349E-23
 -1       659 1.48714E-04 1.30095E-06-6.61744E-24
 -1       660 1.49256E-04 7.80632E-07-6.61744E-24
 -1       661 1.47491E-04 3.70893E-06 8.27181E-25
 -1       662 1.47464E-04 3.98321E-06 0.00000E+00
 -1       663 1.47463E-04 4.18610E-06 0.00000E+00
 -1       664 1.47488E-04 4.32247E-06 8.27181E-25
 -1       665 1.47536E-04 4.39654E-06-1.65436E-24
 -1       666 1.47606E-04 4.41265E-06 0.00000E+00
 -1       667 1.47697E-04 4.37489E-06-1.65436E-24
 -1       668 1.47806E-04 4.28729E-06 0.00000E+00
 -1       669 1.47932E-04 4.15373E-06 0.00000E+00
 -1       670 1.48074E-04 3.97800E-06 0.00000E+00
 -1       671 1.48230E-04 3.76379E-06 0.00000E+00
 -1       672 1.48399E-04 3.51464E-06-8.27181E-25
 -1       673 1.48580E-04 3.23410E-06 1.65436E-24
 -1       674 1.48771E-04 2.92534E-06 0.00000E+00
 -1       675 1.48971E-04 2.59212E-06 4.13590E-25
 -1       676 1.47218E-04 2.69908E-06 0.00000E+00
 -1       677 1.47611E-04 2.60583E-06 1.65436E-24
 -1       678 1.48003E-04 2.51263E-06 3.30872E-24
 -1       679 1.48394E-04 2.41971E-06 1.65436E-24
 -1       680 1.48785E-04 2.32680E-06 1.65436E-24
 -1       771 1.76370E-05 9.42879E-06 0.00000E+00
 -1       772 1.01776E-05 2.52610E-05 0.00000E+00
 -1       773 4.00170E-06 3.78110E-05 5.29396E-23
 -1       774-9.77459E-07 4.72716E-05 0.00000E+00
 -1       775-4.84532E-06 5.38420E-05 0.00000E+00
 -1       776-7.69073E-06 5.77321E-05-2.64698E-23
 -1       777-9.60281E-06 5.91581E-05 5.29396E-23
 -1       778-1.06726E-05 5.83451E-05-2.64698E-23
 -1       779-1.09913E-05 5.55232E-05-5.29396E-23
 -1       780-1.06513E-05 5.09298E-05 0.00000E+00
 -1       781-9.74513E-06 4.48066E-05 0.00000E+00
 -1       782-8.36637E-06 3.74009E-05 0.00000E+00
 -1       783-6.60829E-06 2.89625E-05 0.00000E+00
 -1       784-4.56516E-06 1.97454E-05 0.00000E+00
 -1       785-2.33076E-06 1.00055E-05-5.29396E-23
 -1       786 1.50770E-04 1.64438E-05-1.03398E-25
 -1       787 1.50814E-04 1.52935E-05 0.00000E+00
 -1       788 1.50857E-04 1.41825E-05 0.00000E+00
 -1       789 1.50902E-04 1.31029E-05-8.27181E-25
 -1       790 1.50946E-04 1.20504E-05-1.65436E-24
 -1       791 1.50990E-04 1.10205E-05 0.00000E+00
 -1       792 1.51035E-04 1.00111E-05 1.65436E-24
 -1       793 1.51079E-04 9.01996E-06 0.00000E+00
 -1       794 1.51123E-04 8.04700E-06 0.00000E+00
 -1       795 1.51168E-04 7.09202E-06 0.00000E+00
 -1       796 1.51212E-04 6.15669E-06 0.00000E+00
 -1       797 1.51257E-04 5.24270E-06 0.00000E+00
 -1       798 1.51302E-04 4.35397E-06-1.65436E-24
 -1       799 1.51346E-04 3.49444E-06-8.27181E-25
 -1       800 1.51391E-04 2.67104E-06-1.65436E-24
 -1       801 1.22162E-04 1.55800E-05 0.00000E+00
 -1       802 3.51941E-05 1.02483E-05 1.32349E-23
 -1       803-4.30600E-05 5.50472E-06 5.29396E-23
 -1       804-4.61289E-05 3.68170E-06 0.00000E+00
 -1       805-1.66834E-05 1.70666E-06-5.29396E-23
 -1       806 1.51080E-04 1.63861E-05 1.65436E-24
 -1       807 1.51416E-04 1.51579E-05 0.00000E+00
 -1       808 1.51740E-04 1.39604E-05-1.65436E-24
 -1       809 1.52051E-04 1.27967E-05 0.00000E+00
 -1       810 1.52348E-04 1.16699E-05 1.65436E-24
 -1       811 1.52631E-04 1.05828E-05-1.65436E-24
 -1       812 1.52897E-04 9.53827E-06 3.30872E-24
 -1       813 1.53146E-04 8.53933E-06-1.65436E-24
 -1       814 1.53377E-04 7.58882E-06 1.65436E-24
 -1       815 1.53589E-04 6.68963E-06-8.27181E-25
 -1       816 1.53781E-04 5.84465E-06-1.65436E-24
 -1       817 1.53951E-04 5.05674E-06-8.27181E-25
 -1       818 1.54099E-04 4.32877E-06 0.00000E+00
 -1       819 1.54224E-04 3.66362E-06-8.27181E-25
 -1       820 1.54325E-04 3.06412E-06-1.65436E-24
 -1       821 1.51325E-04 1.02470E-06 0.00000E+00
 -1       822 1.51208E-04-5.41041E-08 0.00000E+00
 -1       823 1.51091E-04-1.21736E-06 0.00000E+00
 -1       824 1.50972E-04-2.33634E-06 1.65436E-24
 -1       825 1.50854E-04-3.29305E-06 3.30872E-24
 -1       826 1.50736E-04-3.97032E-06 0.00000E+00
 -1       827 1.50618E-04-4.31802E-06 0.00000E+00
 -1       828 1.50500E-04-4.28777E-06 0.00000E+00
 -1       829 1.50382E-04-3.92181E-06-3.30872E-24
 -1       830 1.50263E-04-3.26418E-06 0.00000E+00
 -1       831 1.50145E-04-2.42886E-06 3.30872E-24
 -1       832 1.50027E-04-1.53075E-06 0.00000E+00
 -1       833 1.49909E-04-6.99879E-07 3.30872E-24
 -1       834 1.49792E-04-6.58480E-08-8.27181E-25
 -1       835 1.49675E-04 2.88772E-07-8.27181E-25
 -1       836 1.52110E-04 1.99753E-06 0.00000E+00
 -1       837 1.52672E-04 2.10681E-06 1.65436E-24
 -1       838 1.53151E-04 2.21595E-06 0.00000E+00
 -1       839 1.53578E-04 2.32442E-06 0.00000E+00
 -1       840 1.53984E-04 2.43273E-06 0.00000E+00
 -1       856 1.49545E-04 1.61895E-07 0.00000E+00
 -1       857 1.49521E-04 1.63301E-07 0.00000E+00
 -1       858 1.49497E-04 2.68018E-07 4.13590E-25
 -1       859 1.49472E-04 4.56842E-07 0.00000E+00
 -1       860 1.49448E-04 7.10469E-07 0.00000E+00
 -1       861 1.49423E-04 1.00955E-06 4.13590E-25
 -1       862 1.49399E-04 1.33470E-06 0.00000E+00
 -1       863 1.49374E-04 1.66648E-06 0.00000E+00
 -1       864 1.49349E-04 1.98549E-06 0.00000E+00
 -1       865 1.49324E-04 2.27229E-06-4.13590E-25
 -1       866 1.49300E-04 2.50753E-06-8.27181E-25
 -1       867 1.49275E-04 2.67184E-06 0.00000E+00
 -1       868 1.49250E-04 2.74597E-06 0.00000E+00
 -1       869 1.49225E-04 2.71073E-06 0.00000E+00
 -1       870 1.49201E-04 2.54703E-06-8.27181E-25
 -1       871 1.49936E-04 2.80616E-07 8.27181E-25
 -1       872 1.50435E-04 2.75513E-07 0.00000E+00
 -1       873 1.51004E-04 2.69872E-07-4.13590E-25
 -1       874 1.51587E-04 2.63588E-07 1.03398E-25
 -1       875 1.52125E-04 2.56759E-07 1.03398E-24
 -1       876 1.49724E-04 1.74125E-07-3.30872E-24
 -1       877 1.49862E-04 1.25149E-07 0.00000E+00
 -1       878 1.49980E-04 1.28803E-07 0.00000E+00
 -1       879 1.50082E-04 1.78435E-07-1.65436E-24
 -1       880 1.50169E-04 2.67339E-07-3.30872E-24
 -1       881 1.50244E-04 3.88862E-07 0.00000E+00
 -1       882 1.50309E-04 5.36358E-07-3.30872E-24
 -1       883 1.50367E-04 7.03192E-07 1.65436E-24
 -1       884 1.50420E-04 8.82729E-07 0.00000E+00
 -1       885 1.50470E-04 1.06834E-06 0.00000E+00
 -1       886 1.50521E-04 1.25340E-06 3.30872E-24
 -1       887 1.50575E-04 1.43126E-06 0.00000E+00
 -1       888 1.50633E-04 1.59527E-06 0.00000E+00
 -1       889 1.50699E-04 1.73866E-06 8.27181E-25
 -1       890 1.50774E-04 1.85483E-06 0.00000E+00
 -1       891 1.49586E-04 2.18554E-06 0.00000E+00
 -1       892 1.49975E-04 2.13501E-06 4.13590E-25
 -1       893 1.50321E-04 2.08454E-06 8.27181E-25
 -1       894 1.50598E-04 2.03423E-06-4.13590E-25
 -1       895 1.50784E-04 1.98407E-06 4.13590E-25
 -1       956 1.54288E-04 2.14557E-06-1.65436E-24
 -1       957 1.54173E-04 1.83241E-06-8.27181E-25
 -1       958 1.54058E-04 1.58509E-06 1.65436E-24
 -1       959 1.53942E-04 1.39461E-06 1.65436E-24
 -1       960 1.53827E-04 1.25195E-06 0.00000E+00
 -1       961 1.53712E-04 1.14806E-06 0.00000E+00
 -1       962 1.53596E-04 1.07387E-06-3.30872E-24
 -1       963 1.53481E-04 1.02032E-06-1.65436E-24
 -1       964 1.53365E-04 9.78333E-07 0.00000E+00
 -1       965 1.53250E-04 9.38831E-07 0.00000E+00
 -1       966 1.53135E-04 8.92741E-07-3.30872E-24
 -1       967 1.53019E-04 8.30993E-07 0.00000E+00
 -1       968 1.52904E-04 7.44518E-07 0.00000E+00
 -1       969 1.52789E-04 6.24279E-07 0.00000E+00
 -1       970 1.52674E-04 4.61251E-07 0.00000E+00
 -1       971 1.52455E-04 4.25834E-08 0.00000E+00
 -1       972 1.52348E-04-7.33031E-08-8.27181E-25
 -1       973 1.52242E-04-1.10633E-07 3.30872E-24
 -1       974 1.52135E-04-7.95305E-08 0.00000E+00
 -1       975 1.52027E-04 9.88735E-09 0.00000E+00
 -1       976 1.51920E-04 1.47467E-07-1.65436E-24
 -1       977 1.51813E-04 3.23053E-07-3.30872E-24
 -1       978 1.51706E-04 5.26477E-07 0.00000E+00
 -1       979 1.51599E-04 7.47563E-07 3.30872E-24
 -1       980 1.51492E-04 9.76141E-07 1.65436E-24
 -1       981 1.51385E-04 1.20203E-06 0.00000E+00
 -1       982 1.51278E-04 1.41505E-06 1.65436E-24
 -1       983 1.51171E-04 1.60504E-06 0.00000E+00
 -1       984 1.51064E-04 1.76183E-06 1.65436E-24
 -1       985 1.50958E-04 1.87527E-06 0.00000E+00
 -3
    1PSTEP                        22          11           1          
  100CL  111 5.97656E-01         409                     0   11           1
 -4  STRESS      6    1
 -5  SXX         1    4    1    1
 -5  SYY         1    4    2    2
 -5  SZZ         1    4    3    3
 -5  SXY         1    4    1    2
 -5  SYZ         1    4    2    3
 -5  SZX         1    4    3    1
 -1         1-3.51479E+06-1.36982E+06-7.66900E+05-1.47005E+06 6.54836E-11 5.26488E-08
 -1         2 1.27515E+03-1.39812E+06 4.22190E+03 7.02877E+03 3.74612E-10-7.91963E-08
 -1         3-7.16025E+02-1.45739E+06 3.52561E+02-1.44197E+03-4.37463E-10-3.67800E-09
 -1         5-9.62277E+00 3.26323E+05 8.34954E+00-3.26842E-01-2.34634E-10 1.94541E-08
 -1         8-8.61069E+05-2.95104E+05-8.47634E+04-3.68777E+05 5.16593E-10-1.81390E-08
 -1         9 2.26681E+06-7.15697E+05 4.58712E+05-8.51775E+05 2.04716E-08-6.01402E-08
 -1        10-1.62142E+03-1.51851E+06-2.92973E+03-9.74835E+03-8.70386E-09-1.59762E-08
 -1        12-6.20963E+00 3.26341E+05 2.70850E+02-2.39160E+00-2.39311E-10 2.42003E-08
 -1        15 1.54859E+03 8.51039E+02 5.00577E+03 2.73725E+00 2.20908E-10 1.52564E-07
 -1        16 6.60722E+06-5.41450E+05 9.52558E+05-1.07505E+06 1.13505E-08-2.59218E-08
 -1        17 2.14519E+06 1.39255E+06 6.12374E+05 1.48043E+06 2.38797E-08 3.17523E-08
 -1        18 4.20604E+04 6.57840E+03-1.56768E+04-9.47771E+04 1.06149E-08 6.91671E-09
 -1        19 1.04676E+05 1.20444E+05-8.47750E+02 1.99344E+04 4.23643E-10-3.96831E-09
 -1        20-6.07476E+04-4.93751E+05-1.10112E+05 2.71484E+04 8.13998E-10 1.58501E-08
 -1        21-4.26541E+01-2.66853E+05-8.44172E+02 7.19009E+01-7.17159E-07-5.49086E-09
 -1        24 3.19639E+06 3.21603E+06 1.14697E+06 2.84082E+06-7.20659E-08-4.16573E-08
 -1        25-3.85788E+04-3.35946E+05-5.43551E+04-3.06364E+05-1.31754E-09 1.02746E-08
 -1        26-4.35098E+04 7.81604E+04-2.06860E+04-2.34316E+03 1.17179E-09 4.34816E-09
 -1        27-6.96863E+04-2.68013E+05-9.90620E+04 6.01454E+04 4.81532E-09-1.25904E-09
 -1        28 2.03454E+04-7.56889E+04 1.51829E+04 2.05058E+04-4.94651E-10-1.14238E-08
 -1        32-1.49680E+06-2.56875E+06-1.22519E+05-1.46747E+05-3.21597E-08-5.55309E-09
 -1        33-1.56188E+05 7.84322E+04 2.77697E+04-3.53203E+04-8.27564E-10 1.20144E-09
 -1        34-1.96227E+05-2.07695E+04 5.54629E+02 6.38574E+04-9.35808E-10-9.50437E-09
 -1        35-2.08192E+04-3.00450E+04-1.18990E+03 4.64675E+04 7.99185E-10 1.66134E-09
 -1        51 3.77868E+04-2.65732E+05 8.40887E+04-7.65416E+05 1.60071E-10 8.12870E-08
 -1        52 1.50620E+04-2.54086E+05 4.71869E+04-8.92475E+05 5.05679E-10 2.48110E-09
 -1        53 5.79843E+03-2.68915E+05 2.94407E+04-7.62652E+05 8.73115E-11-1.70112E-08
 -1        54 1.46852E+04-2.66112E+05 3.40263E+04-8.95353E+05-1.38243E-10-3.99086E-09
 -1        55 3.00661E+04-2.77294E+05 5.28662E+04-7.62230E+05 9.31323E-10-2.31266E-08
 -1        56-6.67020E+06-7.49321E+05-5.66368E+05-2.59501E+06-2.03727E-10 3.23344E-08
 -1        57-6.97136E+06-1.18968E+06-3.82076E+05-2.48830E+06 8.79663E-09 6.00994E-08
 -1        58-6.77017E+06-9.43108E+05-1.33100E+05-2.57484E+06-7.33780E-09 4.02069E-08
 -1        59-6.85880E+06-9.59203E+05-7.94132E+04-2.50915E+06 1.44305E-08 2.02126E-08
 -1        60-6.78115E+06-9.73611E+05-3.09837E+04-2.57616E+06-6.46696E-09 2.30157E-08
 -1        61-6.84272E+06-9.26641E+05-1.75827E+04-2.51122E+06 1.72111E-09-2.78599E-08
 -1        62-6.78589E+06-9.74827E+05-8.41059E+03-2.57298E+06 2.88196E-09 2.66687E-08
 -1        63-6.82870E+06-9.34066E+05-6.76561E+03-2.52410E+06-1.12989E-08 5.91021E-08
 -1        64-6.79484E+06-9.66267E+05-7.76323E+03-2.56310E+06 4.07863E-09-1.73770E-08
 -1        65-6.80974E+06-9.57643E+05-1.52815E+04-2.54680E+06 2.72075E-09-7.28487E-08
 -1        66-6.80468E+06-9.51480E+05-2.70161E+04-2.55010E+06 6.09543E-09 2.82944E-09
 -1        67-6.80388E+06-1.00580E+06-6.86056E+04-2.56818E+06 1.55596E-08 6.47988E-08
 -1        68-6.80117E+06-9.18734E+05-1.15091E+05-2.54166E+06-2.75213E-09-1.78261E-09
 -1        69-6.89953E+06-1.20768E+06-3.30322E+05-2.55403E+06-1.93158E-08-7.20211E-08
 -1        70-6.71103E+06-7.54604E+05-4.89605E+05-2.56295E+06-6.19912E-09-7.97445E-09
 -1        86-6.66315E+02-1.40122E+06 4.15099E+03-3.51438E+03-1.95678E-09-1.90716E-08
 -1        87 4.14683E+03-1.39731E+06 9.05111E+03 1.22658E+04-3.38423E-09-4.55281E-08
 -1        88-3.48453E+03-1.40207E+06 1.36579E+04-8.75154E+03-3.72620E-09-4.07636E-08
 -1        89 2.58827E+04-1.38793E+06 3.68803E+04 1.82803E+04-5.62250E-09-1.32310E-07
 -1        90-2.22750E+04-1.41063E+06 5.21306E+04-9.52928E+03-3.71801E-09-1.57004E-08
 -1       121-1.00081E+03-1.45987E+06-8.29357E+01 7.17693E+02 1.05119E-09 2.88856E-09
 -1       122-5.75396E+02-1.45738E+06 7.18227E+02-2.88129E+03-3.76863E-09-1.51394E-08
 -1       123-1.05177E+03-1.45997E+06 7.20771E+02 2.14401E+03 2.97769E-09-1.23182E-08
 -1       124 8.63591E+02-1.45675E+06 2.89294E+03-6.05797E+03-7.44330E-09-2.57387E-08
 -1       125-1.87388E+03-1.46077E+06 3.94701E+03 3.87991E+03 4.34102E-09-2.15259E-08
 -1       191-1.03776E+01 3.26350E+05 9.79857E+00 1.64855E-01-2.01405E-10 1.32832E-08
 -1       192-1.03925E+01 3.26324E+05 1.76867E+01-1.22694E+00-2.27701E-10 2.21107E-08
 -1       193-1.24227E+01 3.26350E+05 3.27154E+01 1.07156E+00-3.75055E-10 1.61726E-08
 -1       194-1.28687E+01 3.26326E+05 6.69182E+01-2.85227E+00-1.72943E-10-9.67930E-09
 -1       195-1.63519E+01 3.26348E+05 1.30716E+02 1.80450E+00-5.32573E-10 8.44011E-10
 -1       251-1.86692E+06-1.21228E+04-1.43370E+05-1.06343E+05-1.40426E-09 2.21808E-08
 -1       252-1.29532E+06 1.65260E+04 1.66795E+04 3.27513E+05-6.59884E-09-5.79253E-08
 -1       253-1.60902E+06-7.51863E+03-2.59467E+04-2.19415E+05 1.15642E-08-7.96854E-08
 -1       254-1.56049E+06 3.64969E+04 2.33437E+03 4.33516E+05 7.28062E-09-6.35237E-08
 -1       255-1.62835E+06-1.04134E+04-1.47020E+04-2.14260E+05-5.70435E-09 8.78940E-08
 -1       256-1.24622E+06 3.04803E+04 6.84790E+04 3.07508E+05-6.29689E-09 1.88850E-07
 -1       257-1.89261E+06-2.64160E+04-6.80658E+04-9.13307E+04 2.78942E-08-1.38840E-08
 -1       258-9.59213E+05 2.35386E+04 1.23535E+05-4.61667E+03-1.12041E-08-3.34508E-08
 -1       259-1.88721E+06-2.63097E+04-6.55198E+04 9.65007E+04-1.42409E-08-6.76835E-10
 -1       260-1.25817E+06 3.22254E+04 7.01335E+04-3.13434E+05 3.56649E-08-4.03713E-08
 -1       261-1.62301E+06-1.12688E+04-6.28539E+03 2.16274E+05 5.08171E-08 6.03521E-08
 -1       262-1.55708E+06 4.51583E+04 2.00037E+04-4.33100E+05-1.45961E-08-5.48185E-08
 -1       263-1.61779E+06-1.52525E+04 1.41725E+03 2.18216E+05 1.63645E-08-2.27628E-08
 -1       264-1.25770E+06 7.09820E+04 9.67343E+04-3.21777E+05 9.18990E-08 5.86015E-08
 -1       265-1.89448E+06-5.96495E+04-3.42533E+04 1.02968E+05 3.49628E-08 5.37329E-09
 -1       266-2.80341E+04-1.31081E+04 6.57790E+04-5.85710E+01 6.18456E-11-4.22779E-09
 -1       267 3.24996E+04 1.52788E+04 4.64901E+04 6.75763E+01 2.43745E-10-5.07828E-08
 -1       268-4.35812E+03-2.16384E+03 1.72803E+04-8.61056E+00 3.45608E-11 5.17328E-08
 -1       269 5.14569E+03 2.58973E+03 1.12318E+04 1.00298E+01 1.77806E-10 6.93737E-08
 -1       270-7.72366E+02-4.25503E+02 5.42176E+03-1.36113E+00 1.16870E-10 1.07831E-07
 -1       271-2.56362E+06-3.14873E+05-1.92099E+05-9.90268E+05 7.64339E-09-4.88872E-08
 -1       272-2.66469E+06-4.24041E+05-1.23673E+05-9.53263E+05 1.80817E-08-2.69101E-08
 -1       273-2.59914E+06-3.63586E+05-4.53515E+04-9.82399E+05-2.67539E-09-7.43894E-08
 -1       274-2.62251E+06-3.64743E+05-2.54323E+04-9.65368E+05 4.21414E-08-8.73115E-10
 -1       275-2.60463E+06-3.68158E+05-1.05731E+04-9.80310E+05-5.55701E-09-9.21318E-10
 -1       276-2.61479E+06-3.60371E+05-5.57335E+03-9.69274E+05-6.23686E-09-3.11184E-08
 -1       277-2.60661E+06-3.67426E+05-2.76547E+03-9.78614E+05-9.92259E-09 2.67892E-09
 -1       278-2.61115E+06-3.62605E+05-1.85524E+03-9.72692E+05 1.36265E-08 4.11371E-08
 -1       279-2.60817E+06-3.65930E+05-1.99272E+03-9.76845E+05-1.32050E-08-4.12110E-08
 -1       280-2.60829E+06-3.66090E+05-3.38109E+03-9.76197E+05 2.10848E-08-4.56396E-09
 -1       281-2.60944E+06-3.63986E+05-6.23985E+03-9.75081E+05 6.55746E-10-8.23320E-09
 -1       282-2.60807E+06-3.73250E+05-1.47222E+04-9.79233E+05 2.70120E-10 4.40241E-09
 -1       283-2.60850E+06-3.59104E+05-2.62889E+04-9.73715E+05 9.02219E-10-5.35983E-08
 -1       284-2.62815E+06-4.11850E+05-7.14965E+04-9.77213E+05-1.09012E-08-4.65961E-08
 -1       285-2.59005E+06-3.28881E+05-1.11164E+05-9.75897E+05-1.59598E-08 4.06799E-08
 -1       301 2.08068E+04-2.96644E+05 1.73277E+05-5.47281E+05 1.45519E-10 5.46643E-08
 -1       302 2.23403E+04-2.53090E+05 1.08689E+05-8.00654E+05-1.41881E-09 9.42100E-08
 -1       303-8.05846E+02-2.80270E+05 7.37503E+04-5.46024E+05-3.63798E-12 4.31464E-09
 -1       304 1.70081E+04-2.54039E+05 9.56462E+04-8.00088E+05 4.87489E-10 2.70338E-08
 -1       305 1.40067E+04-2.89543E+05 1.43991E+05-5.47861E+05-1.81899E-11-3.55794E-09
 -1       306-1.52109E+07-2.59609E+06-3.41749E+06-1.94833E+06-5.17466E-08-8.36444E-08
 -1       307 7.48706E+06-1.12185E+06 1.93285E+06-6.92894E+06-5.08750E-07 6.35919E-08
 -1       308-8.09919E+06 2.45136E+05-3.43312E+05 1.65882E+06-8.35862E-08 1.61563E-07
 -1       309-3.24412E+06-4.29540E+05 5.87964E+05-1.14554E+07 3.04297E-07 1.15315E-07
 -1       310-8.70530E+06 1.36402E+05-4.27844E+05 1.50189E+06-1.02969E-07-5.20204E-08
 -1       311 8.86562E+06-1.53038E+06 2.33262E+06-5.86575E+06 3.37372E-07-1.81535E-08
 -1       312-1.53389E+07-2.58736E+06-2.87857E+06-2.55500E+06-1.52970E-07 5.51227E-08
 -1       313 1.40888E+07 2.99848E+06 3.85919E+06 5.72299E+06-6.51926E-08 2.83995E-07
 -1       314-1.13536E+07-6.12854E+06-2.76112E+06-6.23375E+06 2.14321E-07-1.16415E-09
 -1       315-3.12114E+06 9.34860E+06 2.15841E+06 5.08158E+06-1.94937E-07-2.52767E-08
 -1       316-2.67819E+06-5.32227E+06-2.84238E+05-4.35048E+06-4.96279E-07-2.54862E-07
 -1       317-1.33878E+07 9.68216E+06 5.70887E+05-6.34501E+05 5.45384E-07-3.98944E-07
 -1       318-2.94319E+06-5.44845E+06-5.09687E+05-4.43509E+06-5.11034E-07-1.70257E-09
 -1       319-2.18769E+06 9.59379E+06 2.03850E+06 5.30000E+06-6.16055E-08 1.07990E-07
 -1       320-1.18601E+07-6.35436E+06-3.64040E+06-6.13778E+06 9.51113E-08-1.83027E-08
 -1       336 2.75877E+02-1.58036E+06-1.08741E+04 5.81205E+03-1.83327E-08 2.21189E-09
 -1       337-4.13474E+03-1.58149E+06-1.35443E+04-1.40907E+04-3.44576E-08 1.15906E-08
 -1       338 6.17739E+02-1.58018E+06-1.99677E+04 8.18902E+03-2.43481E-08 4.46380E-09
 -1       339-2.11666E+04-1.59283E+06-4.49504E+04-1.87268E+04-4.31246E-08 1.84518E-08
 -1       340 1.41582E+04-1.57004E+06-7.03433E+04 1.03836E+04-2.86782E-08 1.73568E-08
 -1       406 1.43023E+01 3.26336E+05 5.34530E+02 6.22351E-01-6.99657E-10 2.40379E-09
 -1       407 1.80249E+02 3.26434E+05 1.13644E+03 9.03159E+00-2.94449E-10-7.94853E-09
 -1       408 5.78669E+02 3.26254E+05 2.26944E+03-9.90589E+00-8.61746E-10-1.60544E-08
 -1       409 2.44833E+03 3.27159E+05 5.10943E+03 1.00536E+02-1.99847E-10 8.28913E-09
 -1       410 7.04556E+03 3.25607E+05 1.04305E+04-9.55698E+01-1.06911E-09-8.29050E-09
 -1       521-1.73193E+07-3.30008E+06-4.23130E+06-1.98978E+06-5.27361E-08 6.92671E-09
 -1       522 8.22205E+06-1.20047E+06 2.07390E+06-8.94500E+06-3.59476E-07-3.80096E-08
 -1       523-9.44470E+06 1.46230E+05-4.01221E+05 2.02636E+06-3.82133E-08-1.90319E-07
 -1       524-4.97572E+06 3.69140E+05 6.92670E+05-1.41082E+07 4.33216E-07-2.89685E-07
 -1       525-1.01669E+07-2.11237E+04-5.07087E+05 1.84393E+06 2.48838E-07-1.03231E-07
 -1       526 1.01392E+07-1.74302E+06 2.62363E+06-7.59447E+06 9.94478E-08-2.15354E-07
 -1       527-1.75100E+07-3.37540E+06-3.50810E+06-2.71307E+06 2.91038E-10 4.74392E-09
 -1       528 1.64563E+07 3.37993E+06 4.29647E+06 6.86091E+06-1.15309E-07 1.44355E-08
 -1       529-1.28788E+07-7.50126E+06-3.36296E+06-6.96110E+06 1.01340E-07-7.07805E-08
 -1       530-4.56460E+06 1.16798E+07 2.44023E+06 5.69339E+06-2.04775E-07 3.00497E-07
 -1       531-3.08800E+06-6.46414E+06-3.24929E+05-5.00029E+06-4.98723E-07 5.83532E-08
 -1       532-1.65685E+07 1.19343E+07 6.96420E+05-1.89860E+06 2.39575E-07-4.42204E-07
 -1       533-3.32285E+06-6.58656E+06-5.57135E+05-5.06265E+06-5.86733E-08-5.90459E-07
 -1       534-3.65733E+06 1.20045E+07 2.30048E+06 5.89382E+06-3.91665E-08 4.46307E-07
 -1       535-1.33854E+07-7.80793E+06-4.32382E+06-6.84745E+06 3.11993E-08 2.76705E-07
 -1       536-5.44017E+05-3.56977E+04 6.10821E+03-3.34562E+04-4.19777E-09 4.38322E-08
 -1       537-2.11887E+05 3.65318E+04 6.20607E+04 8.08928E+04-7.97656E-08 7.48059E-08
 -1       538-3.85026E+05-1.55560E+02 9.63515E+03-4.92847E+04 2.41191E-08 6.90302E-08
 -1       539-3.22193E+05 3.19881E+03 1.69369E+04 9.28084E+04 1.11130E-07 8.13407E-08
 -1       540-4.36312E+05-2.45596E+02-8.62902E+03-4.55501E+04 5.77620E-09 9.00901E-08
 -1       541-1.13395E+05 8.66651E+03 5.44034E+04 6.12075E+04-3.27967E-08 4.87967E-08
 -1       542-5.88229E+05-1.02382E+04-4.19231E+04-1.73856E+04 3.12184E-08 2.76234E-08
 -1       543 1.32503E+04 1.37047E+04 7.87390E+04-9.82229E+03 7.99355E-09-3.08967E-08
 -1       544-5.59592E+05-8.04850E+03-3.70867E+04 2.52409E+04 2.78092E-08-3.54698E-08
 -1       545-1.78873E+05 4.09333E+03 3.80218E+04-7.42110E+04 3.17050E-08-5.16887E-08
 -1       546-4.01209E+05 3.56279E+03-6.87965E+03 4.68952E+04 2.48480E-08-6.56619E-08
 -1       547-3.33979E+05-4.39467E+03 1.45886E+03-9.50596E+04-8.87550E-08-7.28436E-08
 -1       548-4.08593E+05 3.82663E+03-1.75005E+04 4.63261E+04-8.02556E-08-7.09319E-08
 -1       549-1.66108E+05-2.52020E+03 1.58942E+04-7.11850E+04-4.73138E-08-6.45100E-08
 -1       550-5.64529E+05-2.06933E+03-8.57439E+04 2.27679E+04 4.75484E-09-2.25464E-08
 -1       551 2.84711E+04-7.28548E+05 1.04370E+04-1.13146E+06 2.63099E-08-2.47383E-09
 -1       552 6.72489E+04-7.56263E+05 2.51350E+04-1.63470E+06 5.59812E-08 1.74623E-08
 -1       553 4.94258E+04-7.58511E+05 4.24174E+04-1.12628E+06 3.07846E-08 1.51413E-08
 -1       554 1.00455E+05-7.62438E+05 9.37649E+04-1.63652E+06 5.96265E-08 1.08594E-08
 -1       555 7.65048E+04-7.79641E+05 1.66717E+05-1.12685E+06 3.08501E-08-1.63491E-08
 -1       556 1.59171E+05-2.83880E+05 5.67370E+04-3.29758E+05-1.83063E-08-1.21654E-08
 -1       557 2.64764E+05-3.68705E+05 3.09846E+04-4.20251E+05 6.98492E-10 8.40009E-09
 -1       558 1.50720E+05-2.86608E+05 1.06680E+04-3.26608E+05-1.58034E-08-1.38680E-08
 -1       559 2.45974E+05-3.74654E+05 5.98405E+03-4.32479E+05 1.64582E-08-1.68511E-08
 -1       560 1.42197E+05-2.81196E+05 1.38165E+03-3.32548E+05 1.16270E-08 4.43106E-09
 -1       561 2.34816E+05-3.70520E+05 1.15195E+03-4.39887E+05 2.42289E-09 3.80714E-09
 -1       562 1.35484E+05-2.76956E+05-1.37948E+02-3.37373E+05 8.58563E-10-5.80440E-09
 -1       563 2.26901E+05-3.67070E+05 2.67370E+02-4.45009E+05-6.89033E-09-1.96269E-09
 -1       564 1.30867E+05-2.74059E+05-1.23731E+02-3.40634E+05 1.36934E-08 1.41499E-08
 -1       565 2.21959E+05-3.64921E+05 1.09194E+02-4.48152E+05 1.87283E-08-3.55021E-09
 -1       566 1.28424E+05-2.72505E+05-6.00886E+01-3.42347E+05 8.05085E-09-2.25045E-08
 -1       567 2.19978E+05-3.64052E+05-1.63940E+02-4.49305E+05 1.47229E-08 2.77942E-09
 -1       568 1.28214E+05-2.72389E+05-6.20848E+02-3.42588E+05-2.83762E-10-7.92716E-09
 -1       569 2.19883E+05-3.64018E+05-1.56261E+03-4.47582E+05-3.14685E-09 1.29585E-08
 -1       570 1.31098E+05-2.74900E+05-3.53360E+03-3.41930E+05 6.03904E-09 7.45149E-09
 -1       571 2.46961E+05 9.01557E+03 1.31399E+04-7.07948E+04 2.74576E-09 1.44653E-08
 -1       572 2.48894E+05 3.25139E+03 6.43854E+03-7.76621E+04 4.39604E-09-1.57363E-08
 -1       573 2.47734E+05 8.89292E+02 2.86064E+03-7.06490E+04 3.92902E-10 1.50612E-09
 -1       574 2.47947E+05 4.10999E+02 1.43391E+03-7.78369E+04-2.78305E-10-2.02317E-09
 -1       575 2.47820E+05 1.87893E+02 6.76473E+02-7.06294E+04-2.20314E-09 6.60384E-09
 -1       576 2.47824E+05 1.78256E+02 3.45664E+02-7.78602E+04-4.39832E-09 2.67482E-09
 -1       577 2.47844E+05 1.43455E+02 1.72157E+02-7.06268E+04-2.04864E-09 2.28920E-09
 -1       578 2.47831E+05 1.56025E+02 9.81095E+01-7.78632E+04-3.11684E-09 4.09727E-09
 -1       579 2.47882E+05 1.26761E+02 6.65359E+01-7.06266E+04 1.00908E-08 5.01223E-09
 -1       580 2.47883E+05 1.31373E+02 7.43806E+01-7.78593E+04 1.33323E-08 1.32331E-09
 -1       581 2.47941E+05 9.91440E+01 1.12239E+02-7.06309E+04 4.19459E-09-5.53518E-09
 -1       582 2.47982E+05 1.24362E+02 2.25006E+02-7.78138E+04-1.42054E-08 3.01998E-09
 -1       583 2.48011E+05 1.58677E+02 4.34751E+02-7.06722E+04-4.48745E-09 4.99540E-10
 -1       584 2.48230E+05 5.07640E+02 9.80047E+02-7.74669E+04 4.97494E-09-1.58707E-10
 -1       585 2.47984E+05 1.35629E+03 1.98920E+03-7.09778E+04 3.52884E-10 3.51429E-09
 -1       586-3.03840E+03 8.77988E+04-3.30012E+03-2.18303E+05-3.51929E-09 4.99188E-09
 -1       587-8.95274E+02 8.74314E+04 1.90966E+02-2.40281E+05-9.09495E-10-1.70257E-08
 -1       588 6.52839E+02 8.73991E+04 3.71548E+03-2.18196E+05-2.67210E-09-8.70295E-09
 -1       589 4.57378E+03 8.93791E+04 1.00482E+04-2.40041E+05-4.52201E-09-2.51493E-08
 -1       590 1.40213E+04 8.62948E+04 2.12396E+04-2.18572E+05-3.22234E-09-5.74801E-09
 -1       591-5.50574E+04-1.31104E+04-1.79525E+04-2.50872E+04 1.20440E-09-6.39193E-09
 -1       592-5.78604E+04-1.64002E+04-9.72429E+03-2.84938E+04 8.53720E-09 7.51243E-09
 -1       593-5.68568E+04-1.18036E+04-4.04791E+03-2.63997E+04 4.62904E-09 4.30350E-09
 -1       594-5.53755E+04-1.37726E+04-2.01886E+03-2.85958E+04 5.40751E-10-1.07466E-08
 -1       595-5.69942E+04-1.17989E+04-9.27162E+02-2.64594E+04-1.96181E-09-1.52835E-09
 -1       596-5.52059E+04-1.36524E+04-4.71685E+02-2.85763E+04 6.09351E-09 4.43777E-09
 -1       597-5.70114E+04-1.18110E+04-2.57593E+02-2.64617E+04 5.21055E-10-6.01119E-09
 -1       598-5.51892E+04-1.36478E+04-2.08449E+02-2.85708E+04-1.48697E-09-1.41759E-08
 -1       599-5.70103E+04-1.18113E+04-2.67979E+02-2.64613E+04-3.39583E-10 5.11852E-09
 -1       600-5.52064E+04-1.36533E+04-4.99186E+02-2.85749E+04 3.45369E-09-6.33668E-09
 -1       601-5.69898E+04-1.17994E+04-9.85491E+02-2.64582E+04 6.95763E-11-9.00172E-09
 -1       602-5.53866E+04-1.37805E+04-2.14815E+03-2.85927E+04-2.46393E-09-1.88423E-08
 -1       603-5.68414E+04-1.18068E+04-4.30811E+03-2.63951E+04-1.02636E-09 3.59250E-11
 -1       604-5.80451E+04-1.65615E+04-1.03489E+04-2.84643E+04 2.15027E-09 6.10999E-09
 -1       605-5.49100E+04-1.32117E+04-1.91058E+04-2.50137E+04 1.93285E-09-2.07910E-09
 -1       606 2.71691E+04-1.19578E+04-2.14699E+04 2.56170E+04 5.24778E-10 1.66674E-08
 -1       607 2.34973E+04-3.88779E+03-1.06914E+04 2.87693E+04 6.36646E-10-3.79100E-09
 -1       608 2.55847E+04-6.84891E+02-4.78698E+03 2.54220E+04-9.90258E-09-1.51840E-09
 -1       609 2.51777E+04-2.13816E+02-2.41799E+03 2.89957E+04-1.92731E-08 2.35468E-08
 -1       610 2.53990E+04-9.13363E+00-1.15428E+03 2.53997E+04-9.27866E-09 8.72660E-09
 -1       611 2.53292E+04-2.26481E+00-5.81959E+02 2.90204E+04-1.05865E-09-4.52701E-10
 -1       612 2.53534E+04 6.17737E+00-2.77332E+02 2.53975E+04 1.05065E-08 2.89447E-09
 -1       613 2.53326E+04 4.72713E+00-1.24824E+02 2.90233E+04 2.02526E-08 1.04174E-08
 -1       614 2.53300E+04 3.95696E+00-3.09511E+01 2.53968E+04 8.26822E-09 1.12800E-09
 -1       615 2.53231E+04 8.75809E+00 4.85143E+01 2.90237E+04-9.48148E-10-4.94265E-09
 -1       616 2.53119E+04 8.86301E+00 1.48932E+02 2.53970E+04-1.37925E-09-3.66185E-09
 -1       617 2.53372E+04 4.27823E+01 3.41296E+02 2.90232E+04 1.86969E-09-8.04812E-09
 -1       618 2.52795E+04 1.09008E+02 6.88399E+02 2.53972E+04-2.91038E-10 1.14719E-08
 -1       619 2.55780E+04 5.76488E+02 1.54623E+03 2.90224E+04-1.12777E-10 1.57047E-09
 -1       620 2.50494E+04 1.74267E+03 3.10792E+03 2.53969E+04 1.54364E-09 8.70386E-09
 -1       621 3.31872E+02 2.53214E+05 2.88915E+03 2.40709E+04 3.91310E-10-5.80167E-09
 -1       622 4.18674E+02 2.53909E+05 2.65184E+03 3.49917E+04 5.91854E-10-2.85422E-09
 -1       623 4.83278E+01 2.53371E+05 3.30482E+03 2.39585E+04 4.87375E-10 9.59790E-09
 -1       624 1.61737E+03 2.54970E+05 6.50087E+03 3.51047E+04 2.92317E-10 1.00184E-08
 -1       625 1.61244E+03 2.52088E+05 1.14062E+04 2.39557E+04 6.33463E-10-2.94222E-09
 -1       626 2.22546E+05 5.61108E+04 4.70151E+03 1.12762E+05-2.57160E-09-4.35830E-09
 -1       627 2.20197E+05 5.76149E+04 2.26560E+03 1.16928E+05 1.15324E-09-6.75232E-09
 -1       628 2.22677E+05 5.39406E+04 9.57639E+02 1.13536E+05 2.31103E-09 7.62202E-09
 -1       629 2.19586E+05 5.70156E+04 4.68784E+02 1.17172E+05-1.91721E-09-1.24793E-08
 -1       630 2.22689E+05 5.38371E+04 2.16920E+02 1.13565E+05-9.45874E-10-5.88955E-09
 -1       631 2.19517E+05 5.69956E+04 1.16103E+02 1.17173E+05-1.21418E-10 2.07884E-08
 -1       632 2.22682E+05 5.38429E+04 7.52886E+01 1.13559E+05 2.68028E-09 3.94652E-09
 -1       633 2.19505E+05 5.69994E+04 8.21646E+01 1.17167E+05 4.01542E-09 5.24165E-09
 -1       634 2.22674E+05 5.38423E+04 1.31248E+02 1.13556E+05-4.85579E-09 2.52055E-08
 -1       635 2.19514E+05 5.69994E+04 2.64712E+02 1.17169E+05-1.81564E-08 3.07634E-08
 -1       636 2.22664E+05 5.38390E+04 5.34102E+02 1.13554E+05-8.16624E-09-6.27233E-09
 -1       637 2.19628E+05 5.70831E+04 1.17383E+03 1.17166E+05 3.24962E-09-6.30052E-09
 -1       638 2.22621E+05 5.40991E+04 2.41188E+03 1.13436E+05-5.06338E-09-6.39830E-10
 -1       639 2.20894E+05 5.88448E+04 5.70616E+03 1.16792E+05-1.39948E-09 9.07221E-11
 -1       640 2.22449E+05 5.93564E+04 1.18414E+04 1.11214E+05 9.17225E-10 3.13935E-09
 -1       656 5.78884E+04-1.47537E+06-1.39743E+05-1.18807E+03 1.23691E-10-1.62288E-10
 -1       657-7.65530E+04-1.53848E+06-1.15702E+05 6.73240E+03 1.54614E-10 7.46930E-09
 -1       658 1.84237E+04-1.49332E+06-7.11758E+04-2.85954E+03 3.13548E-10 6.67965E-09
 -1       659-8.25548E+04-1.54133E+06-1.23587E+05 8.00690E+03-8.74024E-10 4.92708E-09
 -1       660 6.38766E+04-1.47253E+06-1.53301E+05-2.46255E+03-1.17871E-09-1.70047E-09
 -1       661 1.63603E+05 1.74630E+04 1.65189E+04 6.39711E+04 1.35060E-09-3.74894E-09
 -1       662 1.72640E+05 2.99927E+04 1.11319E+04 6.06092E+04 1.11561E-09-1.95804E-08
 -1       663 1.66846E+05 2.27639E+04 3.89360E+03 6.30314E+04-3.25542E-09-8.90873E-09
 -1       664 1.68883E+05 2.37915E+04 2.32860E+03 6.17552E+04-2.16568E-09-1.51115E-08
 -1       665 1.67335E+05 2.34900E+04 9.18615E+02 6.28905E+04-3.69084E-10-8.07790E-09
 -1       666 1.68305E+05 2.29596E+04 5.36846E+02 6.19380E+04 1.78829E-09 2.00522E-09
 -1       667 1.67420E+05 2.35741E+04 2.84374E+02 6.28566E+04 2.05432E-09 1.42818E-08
 -1       668 1.68213E+05 2.28969E+04 2.87949E+02 6.19872E+04-2.09783E-09 3.78122E-10
 -1       669 1.67427E+05 2.35508E+04 3.88368E+02 6.28418E+04 7.73355E-11 2.85621E-09
 -1       670 1.68309E+05 2.31061E+04 8.44296E+02 6.19891E+04-1.15920E-09-1.12349E-08
 -1       671 1.67324E+05 2.33692E+04 1.49865E+03 6.28528E+04 5.76392E-10 8.45040E-09
 -1       672 1.69182E+05 2.45640E+04 3.83388E+03 6.17778E+04 4.46411E-09 9.91901E-09
 -1       673 1.66558E+05 2.21296E+04 6.42483E+03 6.30390E+04 1.17905E-09 9.00945E-09
 -1       674 1.75298E+05 3.48848E+04 1.83736E+04 5.99799E+04-4.08954E-09-3.84716E-10
 -1       675 1.61248E+05 1.33372E+04 2.72727E+04 6.45421E+04-1.31558E-09-2.59752E-09
 -1       676 2.19145E+01-2.66783E+05-1.01745E+03-3.59513E+01 1.50550E-10 2.35714E-09
 -1       677-2.70132E+02-2.67029E+05-1.86208E+03 7.18538E+01 2.51137E-09-5.57801E-09
 -1       678 1.80389E+02-2.66608E+05-3.29168E+03-3.58782E+01 2.35787E-10-4.60136E-09
 -1       679-3.29261E+03-2.69016E+05-7.81957E+03 7.15738E+01 2.37560E-09 4.82386E-09
 -1       680 1.96513E+03-2.64797E+05-1.26025E+04-3.52691E+01 1.48248E-10 1.19335E-08
 -1       771-2.80357E+06-6.13576E+05-1.03944E+05-1.28634E+06-2.37778E-08-2.24682E-08
 -1       772-2.74856E+06-6.80532E+05-5.40115E+04-1.36320E+06-1.68366E-08 8.29459E-09
 -1       773-2.82319E+06-5.98102E+05-2.66221E+04-1.29389E+06-1.32131E-08 9.65520E-09
 -1       774-2.74008E+06-6.69573E+05-1.20701E+04-1.37842E+06 1.71858E-08-5.09317E-10
 -1       775-2.83245E+06-5.91532E+05-8.42137E+03-1.29711E+06-4.59841E-09 7.31961E-09
 -1       776-2.74580E+06-6.68468E+05-3.24908E+03-1.38931E+06-9.95351E-09 3.36513E-09
 -1       777-2.84026E+06-5.85829E+05-3.50527E+03-1.29995E+06-2.67755E-09-1.20417E-09
 -1       778-2.75193E+06-6.67520E+05-1.02625E+03-1.39859E+06-1.70985E-09 6.26096E-09
 -1       779-2.84687E+06-5.80919E+05-1.68742E+03-1.30238E+06-6.88306E-09-5.62795E-09
 -1       780-2.75731E+06-6.66597E+05-2.92766E+02-1.40612E+06-2.79397E-09 5.02587E-09
 -1       781-2.85206E+06-5.76998E+05-6.47905E+02-1.30428E+06-2.51021E-08-4.54747E-09
 -1       782-2.76143E+06-6.65788E+05 2.12669E+02-1.41166E+06-2.76013E-08-5.10772E-09
 -1       783-2.85569E+06-5.74306E+05 3.29257E+02-1.30562E+06-4.97676E-09-1.09724E-08
 -1       784-2.76368E+06-6.64864E+05 1.41148E+03-1.41506E+06-1.48339E-08 1.01090E-09
 -1       785-2.85780E+06-5.72732E+05 2.48395E+03-1.30648E+06-2.64990E-08 6.39920E-09
 -1       786 1.24292E+05-9.21400E+03 2.13164E+04-1.85388E+02 3.33286E-09-1.39335E-09
 -1       787 1.33536E+05 1.06671E+04 1.50806E+04-2.02146E+01 4.88934E-09-2.30216E-09
 -1       788 1.27857E+05-1.44420E+03 5.51547E+03-1.56590E+02 2.32519E-09 9.28935E-09
 -1       789 1.29384E+05 1.67099E+03 3.46310E+03-6.59311E+01-7.52418E-10 7.22093E-09
 -1       790 1.28445E+05-2.25237E+02 1.40366E+03-1.39680E+02-3.21321E-09 1.20235E-08
 -1       791 1.28696E+05 2.60329E+02 8.13678E+02-9.51809E+01-3.06437E-09 8.27686E-09
 -1       792 1.28545E+05-3.45918E+01 3.50702E+02-1.27341E+02-2.33248E-09-1.24648E-09
 -1       793 1.28579E+05 3.88162E+01 1.87786E+02-1.18407E+02 1.98382E-10-1.81015E-08
 -1       794 1.28563E+05-3.86420E+00 7.48228E+01-1.16454E+02 2.47157E-09-5.46404E-10
 -1       795 1.28554E+05-3.96364E+00 1.53463E+01-1.41070E+02-1.92191E-09 1.09802E-09
 -1       796 1.28570E+05 8.16562E+00-3.31940E+01-1.04678E+02 1.80477E-09 3.84734E-09
 -1       797 1.28523E+05-6.47011E+01-1.24729E+02-1.67979E+02 1.55400E-09 8.24274E-09
 -1       798 1.28593E+05 5.68267E+01-2.11854E+02-8.95441E+01 9.20245E-10 4.76277E-10
 -1       799 1.28360E+05-4.19635E+02-5.90939E+02-2.04867E+02 3.23800E-09-1.29768E-08
 -1       800 1.28733E+05 3.62803E+02-8.38570E+02-6.77894E+01 1.94662E-11 1.41530E-08
 -1       801 1.56787E+04-6.01387E+06-7.32063E+05 5.37706E+05 5.71745E-08-3.17450E-08
 -1       802 1.55507E+05-2.32438E+05 6.30920E+05-5.93352E+05 1.62228E-07-2.11712E-08
 -1       803-1.68796E+05-7.17152E+06-6.85113E+05 3.77087E+05 5.63123E-08 2.21826E-08
 -1       804 4.91631E+04-1.75393E+06 4.38865E+05 3.45726E+05-5.56865E-08-4.19916E-08
 -1       805 9.59561E+04-4.50424E+06-1.10844E+05-3.99790E+05-2.35050E-08-2.55955E-08
 -1       806-2.68664E+05-5.10398E+04-1.96248E+04-1.05351E+05-6.53472E-09 5.14501E-09
 -1       807-2.70362E+05-4.76815E+04-9.64141E+03-1.09929E+05 3.39423E-09 1.35092E-08
 -1       808-2.69190E+05-4.39796E+04-4.09028E+03-1.08710E+05 5.70071E-09-3.33569E-09
 -1       809-2.68342E+05-4.49663E+04-2.00008E+03-1.10160E+05 8.57108E-09-1.78993E-08
 -1       810-2.69272E+05-4.37336E+04-9.16671E+02-1.08859E+05 8.09132E-09-2.05137E-09
 -1       811-2.68187E+05-4.48564E+04-4.55814E+02-1.10130E+05 3.23689E-09 1.09029E-08
 -1       812-2.69285E+05-4.37542E+04-2.30333E+02-1.08859E+05-3.83443E-09 6.76187E-09
 -1       813-2.68167E+05-4.48577E+04-1.49476E+02-1.10115E+05-3.08728E-09-6.04268E-09
 -1       814-2.69281E+05-4.37615E+04-1.47626E+02-1.08856E+05-2.11276E-09-5.63341E-09
 -1       815-2.68171E+05-4.48591E+04-2.37694E+02-1.10110E+05-1.03046E-09 6.18138E-09
 -1       816-2.69265E+05-4.37596E+04-4.50104E+02-1.08854E+05-2.16005E-09 1.25951E-08
 -1       817-2.68249E+05-4.49017E+04-9.66343E+02-1.10102E+05-4.68026E-09 1.54039E-08
 -1       818-2.69209E+05-4.38944E+04-1.97070E+03-1.08791E+05-1.36060E-09 6.19366E-09
 -1       819-2.69328E+05-4.60940E+04-4.63765E+03-1.09852E+05-6.77392E-09-3.06156E-08
 -1       820-2.68844E+05-4.73920E+04-9.43891E+03-1.07289E+05-6.04905E-09-2.47724E-09
 -1       821-3.29446E+05 1.81880E+04-4.20724E+04 7.07433E+02 5.31907E-09 8.41101E-09
 -1       822-3.47641E+05-2.10557E+04-2.97662E+04-1.41511E+03-6.74709E-10 7.61702E-09
 -1       823-3.36458E+05 2.85249E+03-1.08949E+04 8.37746E+02-2.74301E-09-2.49656E-09
 -1       824-3.39430E+05-3.29970E+03-6.85133E+03-1.28901E+03-1.02048E-10 1.47202E-08
 -1       825-3.37654E+05 4.45320E+02-2.82383E+03 5.81333E+02 3.59703E-09 1.27897E-08
 -1       826-3.38009E+05-5.23343E+02-1.68480E+03-5.14463E+02 4.05175E-09 7.67128E-09
 -1       827-3.37876E+05 7.66249E+01-8.94834E+02 6.31886E+01 1.53288E-09-6.54870E-09
 -1       828-3.37817E+05-1.58925E+02-7.64620E+02 5.31417E+02-2.69916E-09-1.46306E-08
 -1       829-3.37846E+05 8.10689E+01-9.10266E+02-4.64564E+02 7.28541E-10 1.76567E-09
 -1       830-3.38086E+05-5.47244E+02-1.76007E+03 1.33851E+03 1.99757E-09 4.09062E-09
 -1       831-3.37608E+05 4.66159E+02-2.92724E+03-7.43917E+02-1.98274E-09-4.81032E-09
 -1       832-3.39515E+05-3.43523E+03-7.13220E+03 1.51237E+03-1.67282E-09 2.51714E-09
 -1       833-3.36419E+05 2.96747E+03-1.13409E+04-6.38429E+02-1.95405E-09 1.52108E-08
 -1       834-3.47978E+05-2.19090E+04-3.09637E+04 9.60405E+02-2.10712E-09 1.76842E-08
 -1       835-3.29146E+05 1.89245E+04-4.37918E+04-1.91938E+02 5.18399E-09 8.44739E-09
 -1       836-1.15592E+03 3.13273E+05 1.91659E+04-1.60703E+04-2.56932E-09 1.15529E-08
 -1       837 4.13901E+03 3.19251E+05 1.63375E+04-3.24718E+04-2.67096E-09 1.26543E-08
 -1       838-4.50190E+02 3.14934E+05 1.68140E+04-1.60040E+04-2.03590E-09 1.43796E-08
 -1       839 1.07011E+04 3.24142E+05 3.19722E+04-3.25156E+04-1.70803E-09 1.31947E-08
 -1       840-3.27149E+03 3.08336E+05 5.10559E+04-1.60278E+04-1.89902E-09 5.29326E-10
 -1       856-6.66691E+04 7.72063E+03-2.03459E+04-4.08285E+02 1.36345E-09 1.40790E-09
 -1       857-7.50632E+04-9.06231E+03-1.40067E+04 5.07240E+03-5.33191E-11-6.41398E-09
 -1       858-6.99890E+04 1.08221E+03-5.27974E+03-4.30908E+02 3.66640E-10-6.19957E-09
 -1       859-7.12521E+04-1.26456E+03-3.18723E+03 5.10732E+03-2.35760E-09 1.41495E-09
 -1       860-7.04852E+04 1.50982E+02-1.33761E+03-4.43160E+02 8.27072E-10-1.70353E-08
 -1       861-7.06811E+04-1.72244E+02-7.39756E+02 5.12408E+03-2.22653E-09-1.07085E-08
 -1       862-7.05626E+04 2.01318E+01-3.15338E+02-4.47678E+02 1.69693E-09-3.21907E-09
 -1       863-7.05876E+04-1.47763E+01-1.32650E+02 5.12643E+03 2.66134E-09-1.61173E-08
 -1       864-7.05791E+04-2.96266E+00 5.39134E+00-4.45509E+02 1.29040E-09-9.67877E-09
 -1       865-7.05450E+04 4.57263E+01 1.56490E+02 5.11484E+03 2.55667E-09 1.17588E-08
 -1       866-7.06033E+04-4.05972E+01 3.35909E+02-4.36085E+02-1.22617E-09-2.63705E-09
 -1       867-7.03815E+04 3.37225E+02 8.40050E+02 5.08918E+03 2.08672E-09 5.09253E-09
 -1       868-7.07385E+04-2.89809E+02 1.39904E+03-4.19855E+02-2.19023E-09-6.33179E-09
 -1       869-6.93518E+04 2.41152E+03 3.73013E+03 5.04648E+03 7.93278E-10-1.77379E-08
 -1       870-7.16266E+04-2.05944E+03 5.41250E+03-3.93362E+02-3.52679E-09-2.28988E-09
 -1       871-4.90907E+03-1.45662E+04-1.65694E+04 1.10448E+05-1.09321E-09 1.11304E-08
 -1       872-1.96469E+03-1.83473E+04-6.85946E+03 1.43202E+05-3.22052E-09-1.57797E-09
 -1       873 1.35790E+02-1.65532E+04 6.98956E+02 1.10206E+05-1.78943E-09 1.27120E-08
 -1       874 2.64573E+03-1.43391E+04 8.77609E+03 1.43238E+05-3.57522E-09 8.26822E-09
 -1       875 5.87042E+03-1.86408E+04 1.96445E+04 1.10409E+05-1.48066E-09 6.40284E-09
 -1       876 2.58248E+05 4.39162E+04 1.34461E+04 1.04098E+05-3.75849E-10 5.53155E-09
 -1       877 2.59096E+05 4.67887E+04 7.18066E+03 1.07993E+05 1.72804E-09 2.61832E-09
 -1       878 2.59505E+05 4.24279E+04 3.00836E+03 1.05202E+05-3.09865E-09 4.95493E-09
 -1       879 2.57268E+05 4.49655E+04 1.49884E+03 1.08085E+05-2.57842E-10 1.69200E-09
 -1       880 2.59595E+05 4.24121E+04 6.98049E+02 1.05247E+05 2.60025E-09 9.91884E-09
 -1       881 2.57147E+05 4.48877E+04 3.72480E+02 1.08065E+05-1.40233E-09-6.17064E-10
 -1       882 2.59604E+05 4.24235E+04 2.37814E+02 1.05248E+05-1.20758E-09 2.48702E-09
 -1       883 2.57138E+05 4.48838E+04 2.54874E+02 1.08059E+05 2.37509E-09 1.10588E-08
 -1       884 2.59598E+05 4.24209E+04 4.04738E+02 1.05248E+05 2.94870E-09-7.69785E-09
 -1       885 2.57170E+05 4.48895E+04 8.13308E+02 1.08069E+05-1.85273E-09-4.65070E-09
 -1       886 2.59567E+05 4.23971E+04 1.63898E+03 1.05245E+05-4.56509E-10 4.15673E-09
 -1       887 2.57458E+05 4.50783E+04 3.58008E+03 1.08110E+05 1.37175E-09-7.79778E-10
 -1       888 2.59340E+05 4.24369E+04 7.21396E+03 1.05130E+05 1.34418E-09-8.53788E-09
 -1       889 2.61754E+05 4.95434E+04 1.72331E+04 1.07977E+05 7.78854E-10-2.32831E-10
 -1       890 2.56399E+05 4.59306E+04 3.22769E+04 1.02381E+05-1.35765E-09 9.20409E-10
 -1       891-1.20070E+02-1.44486E+05-1.74939E+03 2.54367E+04-3.74257E-10 4.13706E-09
 -1       892-2.17565E+02-1.44927E+05-1.88647E+03 3.85526E+04 7.91715E-10 7.31234E-10
 -1       893-3.70341E+00-1.44542E+05-2.67887E+03 2.54427E+04-1.65073E-10 1.02909E-09
 -1       894-1.39811E+03-1.45943E+05-5.54998E+03 3.84126E+04 8.81300E-10 3.47427E-09
 -1       895-1.10165E+03-1.43385E+05-9.77568E+03 2.55764E+04-7.33280E-11 1.56524E-08
 -1       956-3.29054E+05-4.66339E+03-1.16446E+04 2.42291E+04 9.39508E-10-7.62611E-09
 -1       957-3.31347E+05-1.60279E+03-5.97746E+03 2.91555E+04 8.28550E-10-4.70209E-10
 -1       958-3.30094E+05-1.58526E+02-2.69327E+03 2.40889E+04-1.17325E-10-1.36333E-09
 -1       959-3.30271E+05-6.03339E+01-1.37552E+03 2.93130E+04 1.36788E-09 4.59090E-09
 -1       960-3.30190E+05 7.70046E+00-6.70715E+02 2.40749E+04-1.04592E-11 4.52064E-09
 -1       961-3.30197E+05 4.35088E-02-3.55901E+02 2.93291E+04 1.27693E-09-1.47456E-08
 -1       962-3.30211E+05 4.63569E+00-2.04006E+02 2.40727E+04-2.29693E-09 5.46856E-09
 -1       963-3.30195E+05 2.41892E+00-1.64267E+02 2.93320E+04 3.61820E-09 1.82849E-08
 -1       964-3.30215E+05 7.13848E+00-2.00185E+02 2.40720E+04 8.55778E-10-1.07536E-08
 -1       965-3.30206E+05 5.37183E+00-3.46587E+02 2.93316E+04-5.20595E-09 3.08569E-09
 -1       966-3.30203E+05 1.51449E+01-6.51191E+02 2.40731E+04-2.53408E-09-4.63729E-09
 -1       967-3.30288E+05-4.80884E+01-1.33575E+03 2.93208E+04-2.21803E-09 1.70530E-10
 -1       968-3.30116E+05-1.41388E+02-2.61453E+03 2.40828E+04 1.28694E-09 1.06692E-08
 -1       969-3.31342E+05-1.54160E+03-5.80469E+03 2.92072E+04 2.37037E-09 1.53508E-09
 -1       970-3.29113E+05-4.51298E+03-1.13071E+04 2.41848E+04 1.92949E-09 8.18181E-09
 -1       971-3.05415E+05-1.55988E+03-8.54451E+03 1.40735E+04 1.05956E-09-3.71858E-09
 -1       972-3.07483E+05-1.13236E+03-4.65326E+03 1.95711E+04 5.09499E-09-4.99676E-09
 -1       973-3.06366E+05-3.19672E+01-2.08398E+03 1.39588E+04 6.27460E-09-3.26395E-09
 -1       974-3.06501E+05-3.98375E+01-1.07995E+03 1.96978E+04 6.61612E-09-3.47768E-09
 -1       975-3.06441E+05 8.74333E+00-5.39494E+02 1.39477E+04 1.44291E-09 8.11144E-09
 -1       976-3.06444E+05 5.52079E+00-3.10641E+02 1.97116E+04 1.24510E-09-5.49505E-09
 -1       977-3.06456E+05 9.05762E+00-2.24376E+02 1.39449E+04 1.04592E-10-3.80510E-10
 -1       978-3.06448E+05 1.09405E+01-2.61090E+02 1.97156E+04 2.23690E-09 1.05524E-08
 -1       979-3.06456E+05 1.64124E+01-4.18219E+02 1.39437E+04 8.21444E-10-4.43504E-09
 -1       980-3.06479E+05 1.36092E+01-8.06733E+02 1.97164E+04 2.48539E-09-1.22183E-08
 -1       981-3.06430E+05 3.65471E+01-1.56204E+03 1.39442E+04 3.16322E-09-1.14079E-09
 -1       982-3.06694E+05-1.01760E+02-3.22846E+03 1.97103E+04 1.62549E-09-8.91357E-09
 -1       983-3.06233E+05-6.34076E+01-6.27279E+03 1.39498E+04-7.11680E-11 5.13592E-09
 -1       984-3.09711E+05-3.37773E+03-1.40474E+04 1.96312E+04-9.48148E-11 8.45102E-09
 -1       985-3.03393E+05-4.65344E+03-2.57954E+04 1.40231E+04 1.81899E-11 5.48607E-09
 -3
    1PSTEP                        23          12           1          
  100CL  112 6.09375E-01         409                     0   12           1
 -4  DISP        4    1
 -5  D1          1    2    1    0
 -5  D2          1    2    2    0
 -5  D3          1    2    3    0
 -5  ALL         1    2    0    0    1ALL
 -1         1 1.30445E-03 0.00000E+00 0.00000E+00
 -1         2 1.22818E-03-1.90944E-28 0.00000E+00
 -1         3 2.69914E-04-2.08975E-27 0.00000E+00
 -1         5 1.51167E-04 8.91216E-27-3.30872E-24
 -1         8 1.28504E-03-6.10977E-07 0.00000E+00
 -1         9 1.25287E-03-3.63814E-06 0.00000E+00
 -1        10 2.45788E-04-3.24190E-06 6.61744E-24
 -1        12 1.52016E-04 7.06545E-07-8.27181E-25
 -1        15 1.26162E-03-6.72545E-07 0.00000E+00
 -1        16 1.26856E-03-4.44897E-06 0.00000E+00
 -1        17 1.70710E-04-7.13163E-06 0.00000E+00
 -1        18 1.53148E-04 2.04687E-05 0.00000E+00
 -1        19 1.54562E-04 1.40900E-06 0.00000E+00
 -1        20 1.54708E-04 1.01996E-06 0.00000E+00
 -1        21 1.53956E-04-2.19363E-06 3.30872E-24
 -1        24 2.72366E-05-1.03898E-05 0.00000E+00
 -1        25 1.58925E-04 2.06533E-05 0.00000E+00
 -1        26 1.59628E-04 1.95245E-06 0.00000E+00
 -1        27 1.57700E-04-2.14269E-06 0.00000E+00
 -1        28 1.57323E-04-2.76148E-06 0.00000E+00
 -1        32 0.00000E+00 0.00000E+00 0.00000E+00
 -1        33 1.63638E-04 2.61509E-06 0.00000E+00
 -1        34 1.61749E-04-2.18200E-06 0.00000E+00
 -1        35 1.60005E-04-3.06908E-06 0.00000E+00
 -1        51 1.30320E-03-1.10437E-07 0.00000E+00
 -1        52 1.30088E-03-2.08580E-07 0.00000E+00
 -1        53 1.29768E-03-3.05581E-07 0.00000E+00
 -1        54 1.29383E-03-4.03451E-07 0.00000E+00
 -1        55 1.28955E-03-5.03570E-07 8.27181E-25
 -1        56 1.30138E-03-3.24890E-07 0.00000E+00
 -1        57 1.29768E-03 7.21492E-07 0.00000E+00
 -1        58 1.29353E-03 2.96944E-06 0.00000E+00
 -1        59 1.28902E-03 6.11668E-06 0.00000E+00
 -1        60 1.28433E-03 9.75472E-06 0.00000E+00
 -1        61 1.27961E-03 1.34345E-05-5.29396E-23
 -1        62 1.27505E-03 1.67028E-05-1.05879E-22
 -1        63 1.27081E-03 1.91327E-05-5.29396E-23
 -1        64 1.26700E-03 2.04115E-05 1.05879E-22
 -1        65 1.26371E-03 2.03037E-05 5.29396E-23
 -1        66 1.26097E-03 1.87623E-05 0.00000E+00
 -1        67 1.25874E-03 1.58376E-05 0.00000E+00
 -1        68 1.25694E-03 1.17668E-05-1.05879E-22
 -1        69 1.25546E-03 6.87144E-06 0.00000E+00
 -1        70 1.25413E-03 1.57248E-06 5.29396E-23
 -1        86 1.22926E-03-5.96415E-07 0.00000E+00
 -1        87 1.23249E-03-1.19741E-06-6.61744E-24
 -1        88 1.23723E-03-1.80402E-06-1.32349E-23
 -1        89 1.24281E-03-2.41574E-06 0.00000E+00
 -1        90 1.24832E-03-3.02681E-06 2.64698E-23
 -1       121 2.69237E-04-5.30115E-07 0.00000E+00
 -1       122 2.67208E-04-1.06199E-06 0.00000E+00
 -1       123 2.63834E-04-1.59737E-06-1.32349E-23
 -1       124 2.59127E-04-2.13803E-06 0.00000E+00
 -1       125 2.53104E-04-2.68542E-06-1.32349E-23
 -1       191 1.51190E-04 1.17774E-07 1.65436E-24
 -1       192 1.51261E-04 2.35545E-07 1.65436E-24
 -1       193 1.51379E-04 3.53311E-07-1.65436E-24
 -1       194 1.51544E-04 4.71070E-07 0.00000E+00
 -1       195 1.51756E-04 5.88816E-07 1.65436E-24
 -1       251 1.28430E-03 1.72282E-05-1.32349E-23
 -1       252 1.28273E-03 6.25477E-05-6.61744E-24
 -1       253 1.28016E-03 1.27215E-04 0.00000E+00
 -1       254 1.27686E-03 2.02652E-04 0.00000E+00
 -1       255 1.27361E-03 2.77336E-04 1.32349E-23
 -1       256 1.27117E-03 3.39766E-04-6.61744E-24
 -1       257 1.26973E-03 3.81778E-04-1.32349E-23
 -1       258 1.26904E-03 3.95685E-04 6.61744E-24
 -1       259 1.26835E-03 3.81156E-04 0.00000E+00
 -1       260 1.26688E-03 3.38560E-04 6.61744E-24
 -1       261 1.26441E-03 2.75614E-04 0.00000E+00
 -1       262 1.26113E-03 2.00505E-04 0.00000E+00
 -1       263 1.25781E-03 1.24740E-04 1.32349E-23
 -1       264 1.25522E-03 5.98400E-05 0.00000E+00
 -1       265 1.25363E-03 1.43458E-05-2.64698E-23
 -1       266 1.28114E-03-6.30082E-07 3.30872E-24
 -1       267 1.27723E-03-6.39266E-07 0.00000E+00
 -1       268 1.27333E-03-6.49077E-07 0.00000E+00
 -1       269 1.26943E-03-6.57027E-07 2.06795E-25
 -1       270 1.26553E-03-6.64934E-07-2.06795E-25
 -1       271 1.28264E-03 2.87956E-06 0.00000E+00
 -1       272 1.28028E-03 6.18182E-06 0.00000E+00
 -1       273 1.27802E-03 9.22174E-06 2.64698E-23
 -1       274 1.27589E-03 1.19140E-05 0.00000E+00
 -1       275 1.27392E-03 1.41818E-05-2.64698E-23
 -1       276 1.27213E-03 1.59515E-05-1.32349E-23
 -1       277 1.27056E-03 1.71564E-05 0.00000E+00
 -1       278 1.26922E-03 1.77364E-05 0.00000E+00
 -1       279 1.26813E-03 1.76397E-05 0.00000E+00
 -1       280 1.26732E-03 1.68226E-05-1.32349E-23
 -1       281 1.26679E-03 1.52507E-05 2.64698E-23
 -1       282 1.26655E-03 1.28990E-05 1.32349E-23
 -1       283 1.26660E-03 9.75241E-06-2.64698E-23
 -1       284 1.26696E-03 5.80667E-06 0.00000E+00
 -1       285 1.26761E-03 1.06552E-06-2.64698E-23
 -1       301 1.25573E-03-3.79350E-06-1.32349E-23
 -1       302 1.25780E-03-3.92043E-06 3.30872E-24
 -1       303 1.25959E-03-4.04475E-06 0.00000E+00
 -1       304 1.26163E-03-4.16900E-06 0.00000E+00
 -1       305 1.26445E-03-4.29674E-06 0.00000E+00
 -1       306 1.27935E-03-1.00872E-04-1.05879E-22
 -1       307 1.33950E-03-3.75166E-04 0.00000E+00
 -1       308 1.40725E-03-7.82462E-04 0.00000E+00
 -1       309 1.47166E-03-1.26236E-03 5.29396E-23
 -1       310 1.53659E-03-1.73322E-03 0.00000E+00
 -1       311 1.60423E-03-2.11429E-03 5.29396E-23
 -1       312 1.65941E-03-2.35016E-03 0.00000E+00
 -1       313 1.67301E-03-2.40436E-03 0.00000E+00
 -1       314 1.61149E-03-2.27892E-03 1.05879E-22
 -1       315 1.45243E-03-1.99999E-03 0.00000E+00
 -1       316 1.20567E-03-1.61659E-03 0.00000E+00
 -1       317 9.03631E-04-1.18003E-03 5.29396E-23
 -1       318 6.05184E-04-7.46811E-04 0.00000E+00
 -1       319 3.68218E-04-3.73741E-04 0.00000E+00
 -1       320 2.21460E-04-1.11369E-04 0.00000E+00
 -1       336 2.37034E-04-3.85139E-06 1.32349E-23
 -1       337 2.26709E-04-4.47588E-06-6.61744E-24
 -1       338 2.14857E-04-5.11629E-06 0.00000E+00
 -1       339 2.01532E-04-5.77278E-06 0.00000E+00
 -1       340 1.86794E-04-6.44842E-06 0.00000E+00
 -1       406 1.52322E-04 8.24247E-07 1.65436E-24
 -1       407 1.52676E-04 9.41897E-07-8.27181E-25
 -1       408 1.53077E-04 1.05946E-06 0.00000E+00
 -1       409 1.53525E-04 1.17679E-06 0.00000E+00
 -1       410 1.54020E-04 1.29366E-06-1.65436E-24
 -1       521 1.29626E-03-1.10120E-04 1.05879E-22
 -1       522 1.35735E-03-4.04018E-04 0.00000E+00
 -1       523 1.42370E-03-8.39484E-04 1.05879E-22
 -1       524 1.48458E-03-1.35075E-03 5.29396E-23
 -1       525 1.54630E-03-1.85176E-03-1.05879E-22
 -1       526 1.61320E-03-2.25756E-03 5.29396E-23
 -1       527 1.66928E-03-2.50779E-03 1.05879E-22
 -1       528 1.68253E-03-2.56450E-03-5.29396E-23
 -1       529 1.61450E-03-2.42913E-03-1.05879E-22
 -1       530 1.44020E-03-2.13216E-03 5.29396E-23
 -1       531 1.16932E-03-1.72565E-03-1.05879E-22
 -1       532 8.37879E-04-1.26446E-03 0.00000E+00
 -1       533 5.09808E-04-8.06202E-04 0.00000E+00
 -1       534 2.48080E-04-4.08787E-04 0.00000E+00
 -1       535 8.52731E-05-1.26591E-04 1.05879E-22
 -1       536 1.70213E-04 1.94189E-05 6.61744E-24
 -1       537 1.69042E-04 6.55010E-05 3.30872E-24
 -1       538 1.67265E-04 1.23960E-04 0.00000E+00
 -1       539 1.65185E-04 1.87577E-04 0.00000E+00
 -1       540 1.63313E-04 2.47614E-04 0.00000E+00
 -1       541 1.62080E-04 2.95352E-04 0.00000E+00
 -1       542 1.61486E-04 3.25546E-04-3.30872E-24
 -1       543 1.61304E-04 3.33061E-04-1.65436E-24
 -1       544 1.61051E-04 3.18571E-04 0.00000E+00
 -1       545 1.60287E-04 2.82900E-04 0.00000E+00
 -1       546 1.58927E-04 2.32401E-04 0.00000E+00
 -1       547 1.57125E-04 1.73515E-04 0.00000E+00
 -1       548 1.55349E-04 1.15101E-04 0.00000E+00
 -1       549 1.54057E-04 6.60178E-05 1.65436E-24
 -1       550 1.53364E-04 3.24455E-05 1.65436E-24
 -1       551 1.51106E-04-7.58260E-06 0.00000E+00
 -1       552 1.28551E-04-8.08815E-06-3.30872E-24
 -1       553 1.03958E-04-8.63714E-06 8.89219E-24
 -1       554 7.82568E-05-9.21400E-06 0.00000E+00
 -1       555 5.23752E-05-9.79758E-06-2.64698E-23
 -1       556 1.64978E-04 7.59987E-06 0.00000E+00
 -1       557 1.60396E-04 1.94175E-05 0.00000E+00
 -1       558 1.56852E-04 2.85572E-05 0.00000E+00
 -1       559 1.54240E-04 3.52740E-05 0.00000E+00
 -1       560 1.52456E-04 3.98228E-05 0.00000E+00
 -1       561 1.51398E-04 4.24607E-05 0.00000E+00
 -1       562 1.50965E-04 4.34452E-05 0.00000E+00
 -1       563 1.51056E-04 4.30348E-05 0.00000E+00
 -1       564 1.51573E-04 4.14884E-05 0.00000E+00
 -1       565 1.52417E-04 3.90650E-05 0.00000E+00
 -1       566 1.53491E-04 3.60245E-05 0.00000E+00
 -1       567 1.54698E-04 3.26266E-05 0.00000E+00
 -1       568 1.55942E-04 2.91311E-05-4.13590E-25
 -1       569 1.57125E-04 2.57979E-05 0.00000E+00
 -1       570 1.58151E-04 2.28868E-05 0.00000E+00
 -1       571 1.53234E-04 1.92365E-05-8.27181E-25
 -1       572 1.53322E-04 1.79496E-05 1.24077E-24
 -1       573 1.53410E-04 1.66203E-05 1.65436E-24
 -1       574 1.53498E-04 1.52617E-05 1.65436E-24
 -1       575 1.53586E-04 1.38868E-05 0.00000E+00
 -1       576 1.53675E-04 1.25084E-05 0.00000E+00
 -1       577 1.53763E-04 1.11397E-05 0.00000E+00
 -1       578 1.53852E-04 9.79384E-06 1.65436E-24
 -1       579 1.53941E-04 8.48374E-06 0.00000E+00
 -1       580 1.54029E-04 7.22251E-06 6.61744E-24
 -1       581 1.54118E-04 6.02321E-06 0.00000E+00
 -1       582 1.54207E-04 4.89888E-06-3.30872E-24
 -1       583 1.54295E-04 3.86255E-06 0.00000E+00
 -1       584 1.54384E-04 2.92712E-06 3.30872E-24
 -1       585 1.54473E-04 2.10537E-06 0.00000E+00
 -1       586 1.54061E-04 2.05014E-05 0.00000E+00
 -1       587 1.54943E-04 2.05335E-05 0.00000E+00
 -1       588 1.55832E-04 2.05652E-05 8.27181E-25
 -1       589 1.56766E-04 2.05963E-05 0.00000E+00
 -1       590 1.57785E-04 2.06264E-05 0.00000E+00
 -1       591 1.53559E-04 1.93068E-05 0.00000E+00
 -1       592 1.53974E-04 1.81215E-05 0.00000E+00
 -1       593 1.54396E-04 1.69188E-05-8.27181E-25
 -1       594 1.54822E-04 1.57035E-05 4.13590E-25
 -1       595 1.55251E-04 1.44808E-05 8.27181E-25
 -1       596 1.55680E-04 1.32556E-05-4.13590E-25
 -1       597 1.56109E-04 1.20327E-05 0.00000E+00
 -1       598 1.56535E-04 1.08172E-05 0.00000E+00
 -1       599 1.56956E-04 9.61405E-06 8.27181E-25
 -1       600 1.57371E-04 8.42810E-06-4.13590E-25
 -1       601 1.57778E-04 7.26433E-06 0.00000E+00
 -1       602 1.58174E-04 6.12768E-06 4.13590E-25
 -1       603 1.58559E-04 5.02310E-06 0.00000E+00
 -1       604 1.58930E-04 3.95561E-06-5.16988E-26
 -1       605 1.59286E-04 2.93009E-06 0.00000E+00
 -1       606 1.54575E-04 9.12992E-07 0.00000E+00
 -1       607 1.54585E-04 5.07604E-07 0.00000E+00
 -1       608 1.54595E-04 1.87521E-07 0.00000E+00
 -1       609 1.54604E-04-5.32575E-08 0.00000E+00
 -1       610 1.54613E-04-2.20775E-07 3.30872E-24
 -1       611 1.54622E-04-3.21147E-07 0.00000E+00
 -1       612 1.54630E-04-3.60495E-07 0.00000E+00
 -1       613 1.54639E-04-3.44949E-07 0.00000E+00
 -1       614 1.54648E-04-2.80638E-07 0.00000E+00
 -1       615 1.54657E-04-1.73695E-07 0.00000E+00
 -1       616 1.54665E-04-3.02491E-08 0.00000E+00
 -1       617 1.54674E-04 1.43569E-07 0.00000E+00
 -1       618 1.54683E-04 3.41628E-07 0.00000E+00
 -1       619 1.54692E-04 5.57800E-07 0.00000E+00
 -1       620 1.54700E-04 7.85954E-07 0.00000E+00
 -1       621 1.55213E-04 1.49989E-06 1.65436E-24
 -1       622 1.55971E-04 1.59105E-06 8.27181E-25
 -1       623 1.56813E-04 1.68212E-06 1.65436E-24
 -1       624 1.57719E-04 1.77298E-06-8.27181E-25
 -1       625 1.58664E-04 1.86364E-06 0.00000E+00
 -1       626 1.54848E-04 9.44722E-07 0.00000E+00
 -1       627 1.55109E-04 5.50682E-07-1.65436E-24
 -1       628 1.55346E-04 2.19089E-07 3.30872E-24
 -1       629 1.55563E-04-5.82275E-08 0.00000E+00
 -1       630 1.55763E-04-2.89459E-07-3.30872E-24
 -1       631 1.55949E-04-4.82825E-07 4.96308E-24
 -1       632 1.56124E-04-6.46544E-07-3.30872E-24
 -1       633 1.56290E-04-7.88841E-07 0.00000E+00
 -1       634 1.56452E-04-9.17935E-07 0.00000E+00
 -1       635 1.56612E-04-1.04204E-06 1.65436E-24
 -1       636 1.56773E-04-1.16939E-06 3.30872E-24
 -1       637 1.56938E-04-1.30819E-06-8.27181E-25
 -1       638 1.57111E-04-1.46668E-06 1.65436E-24
 -1       639 1.57294E-04-1.65308E-06 0.00000E+00
 -1       640 1.57490E-04-1.87564E-06-1.65436E-24
 -1       656 1.54700E-04 5.05670E-07 6.61744E-24
 -1       657 1.55091E-04-2.93624E-08 0.00000E+00
 -1       658 1.55744E-04-5.62978E-07-1.32349E-23
 -1       659 1.56513E-04-1.09622E-06 0.00000E+00
 -1       660 1.57223E-04-1.63109E-06 6.61744E-24
 -1       661 1.54707E-04 1.21579E-06 0.00000E+00
 -1       662 1.54738E-04 1.33362E-06 0.00000E+00
 -1       663 1.54797E-04 1.37735E-06 0.00000E+00
 -1       664 1.54882E-04 1.35213E-06 8.27181E-25
 -1       665 1.54991E-04 1.26247E-06 0.00000E+00
 -1       666 1.55123E-04 1.11299E-06-8.27181E-25
 -1       667 1.55275E-04 9.08064E-07 1.65436E-24
 -1       668 1.55447E-04 6.51996E-07 0.00000E+00
 -1       669 1.55636E-04 3.48938E-07 0.00000E+00
 -1       670 1.55842E-04 2.95570E-09 0.00000E+00
 -1       671 1.56062E-04-3.82007E-07 0.00000E+00
 -1       672 1.56295E-04-8.02114E-07-8.27181E-25
 -1       673 1.56539E-04-1.25356E-06 0.00000E+00
 -1       674 1.56793E-04-1.73291E-06 8.27181E-25
 -1       675 1.57057E-04-2.23613E-06-4.13590E-25
 -1       676 1.54519E-04-2.28883E-06 0.00000E+00
 -1       677 1.55082E-04-2.38399E-06 0.00000E+00
 -1       678 1.55644E-04-2.47909E-06-3.30872E-24
 -1       679 1.56205E-04-2.57391E-06-1.65436E-24
 -1       680 1.56765E-04-2.66872E-06 0.00000E+00
 -1       771 1.78430E-05 1.02995E-05 0.00000E+00
 -1       772 9.89942E-06 2.72842E-05 0.00000E+00
 -1       773 3.33637E-06 4.07493E-05 0.00000E+00
 -1       774-1.93983E-06 5.09001E-05 0.00000E+00
 -1       775-6.02130E-06 5.79493E-05 5.29396E-23
 -1       776-9.00383E-06 6.21211E-05-2.64698E-23
 -1       777-1.09834E-05 6.36468E-05-5.29396E-23
 -1       778-1.20581E-05 6.27673E-05-2.64698E-23
 -1       779-1.23259E-05 5.97292E-05 0.00000E+00
 -1       780-1.18863E-05 5.47871E-05 0.00000E+00
 -1       781-1.08386E-05 4.82003E-05 0.00000E+00
 -1       782-9.28349E-06 4.02343E-05 0.00000E+00
 -1       783-7.32097E-06 3.11574E-05 0.00000E+00
 -1       784-5.05226E-06 2.12425E-05 2.64698E-23
 -1       785-2.57799E-06 1.07645E-05 5.29396E-23
 -1       786 1.58965E-04 1.92689E-05 1.03398E-25
 -1       787 1.59009E-04 1.79322E-05 0.00000E+00
 -1       788 1.59052E-04 1.66351E-05 8.27181E-25
 -1       789 1.59096E-04 1.53699E-05 8.27181E-25
 -1       790 1.59140E-04 1.41321E-05 0.00000E+00
 -1       791 1.59184E-04 1.29170E-05 0.00000E+00
 -1       792 1.59228E-04 1.17227E-05 0.00000E+00
 -1       793 1.59272E-04 1.05470E-05 0.00000E+00
 -1       794 1.59317E-04 9.38968E-06 0.00000E+00
 -1       795 1.59361E-04 8.25057E-06 8.27181E-25
 -1       796 1.59405E-04 7.13140E-06 0.00000E+00
 -1       797 1.59450E-04 6.03388E-06 8.27181E-25
 -1       798 1.59494E-04 4.96199E-06 1.65436E-24
 -1       799 1.59539E-04 3.91976E-06 0.00000E+00
 -1       800 1.59583E-04 2.91420E-06-1.65436E-24
 -1       801 1.26605E-04 1.83333E-05-2.64698E-23
 -1       802 2.83916E-05 1.18568E-05 0.00000E+00
 -1       803-5.84474E-05 6.23642E-06-5.29396E-23
 -1       804-5.75846E-05 4.22099E-06 2.64698E-23
 -1       805-2.00196E-05 1.87848E-06 0.00000E+00
 -1       806 1.59342E-04 1.92093E-05 0.00000E+00
 -1       807 1.59746E-04 1.77920E-05 8.27181E-25
 -1       808 1.60137E-04 1.64056E-05 0.00000E+00
 -1       809 1.60515E-04 1.50533E-05 0.00000E+00
 -1       810 1.60879E-04 1.37382E-05 0.00000E+00
 -1       811 1.61228E-04 1.24636E-05-8.27181E-25
 -1       812 1.61561E-04 1.12324E-05 1.65436E-24
 -1       813 1.61876E-04 1.00478E-05 0.00000E+00
 -1       814 1.62173E-04 8.91287E-06-1.65436E-24
 -1       815 1.62450E-04 7.83062E-06-1.65436E-24
 -1       816 1.62706E-04 6.80415E-06 1.65436E-24
 -1       817 1.62940E-04 5.83651E-06-8.27181E-25
 -1       818 1.63152E-04 4.93075E-06 0.00000E+00
 -1       819 1.63339E-04 4.08993E-06 0.00000E+00
 -1       820 1.63501E-04 3.31705E-06 0.00000E+00
 -1       821 1.59514E-04 8.71642E-07-8.27181E-25
 -1       822 1.59393E-04-4.88754E-07-1.65436E-24
 -1       823 1.59272E-04-1.97659E-06 3.30872E-24
 -1       824 1.59149E-04-3.43899E-06 0.00000E+00
 -1       825 1.59027E-04-4.72951E-06-3.30872E-24
 -1       826 1.58905E-04-5.70260E-06 1.65436E-24
 -1       827 1.58784E-04-6.29095E-06 3.30872E-24
 -1       828 1.58662E-04-6.42934E-06 0.00000E+00
 -1       829 1.58540E-04-6.16343E-06 0.00000E+00
 -1       830 1.58419E-04-5.54107E-06 1.65436E-24
 -1       831 1.58297E-04-4.69793E-06 0.00000E+00
 -1       832 1.58175E-04-3.77091E-06 0.00000E+00
 -1       833 1.58054E-04-2.91758E-06 3.30872E-24
 -1       834 1.57934E-04-2.29510E-06-8.27181E-25
 -1       835 1.57813E-04-2.00393E-06 0.00000E+00
 -1       836 1.60482E-04 2.06254E-06-3.30872E-24
 -1       837 1.61221E-04 2.17526E-06 1.65436E-24
 -1       838 1.61875E-04 2.28786E-06-3.30872E-24
 -1       839 1.62475E-04 2.39978E-06-8.27181E-25
 -1       840 1.63052E-04 2.51153E-06-4.13590E-25
 -1       856 1.57680E-04-2.43020E-06 0.00000E+00
 -1       857 1.57657E-04-2.59288E-06-5.16988E-26
 -1       858 1.57634E-04-2.65021E-06 0.00000E+00
 -1       859 1.57610E-04-2.62176E-06-2.06795E-25
 -1       860 1.57587E-04-2.52716E-06 8.27181E-25
 -1       861 1.57563E-04-2.38611E-06 4.13590E-25
 -1       862 1.57539E-04-2.21835E-06 8.27181E-25
 -1       863 1.57515E-04-2.04364E-06 4.13590E-25
 -1       864 1.57492E-04-1.88176E-06 0.00000E+00
 -1       865 1.57468E-04-1.75246E-06-4.13590E-25
 -1       866 1.57444E-04-1.67547E-06 0.00000E+00
 -1       867 1.57420E-04-1.67048E-06-4.13590E-25
 -1       868 1.57396E-04-1.75709E-06 0.00000E+00
 -1       869 1.57372E-04-1.95486E-06 4.13590E-25
 -1       870 1.57348E-04-2.28321E-06 8.27181E-25
 -1       871 1.58244E-04-2.14540E-06-4.13590E-25
 -1       872 1.58919E-04-2.15100E-06 0.00000E+00
 -1       873 1.59667E-04-2.15718E-06 0.00000E+00
 -1       874 1.60428E-04-2.16401E-06-1.55096E-25
 -1       875 1.61141E-04-2.17139E-06 1.03398E-24
 -1       876 1.57923E-04-2.41752E-06 0.00000E+00
 -1       877 1.58126E-04-2.63127E-06 0.00000E+00
 -1       878 1.58309E-04-2.79128E-06 0.00000E+00
 -1       879 1.58474E-04-2.90432E-06 0.00000E+00
 -1       880 1.58625E-04-2.97723E-06-3.30872E-24
 -1       881 1.58763E-04-3.01679E-06 0.00000E+00
 -1       882 1.58891E-04-3.02978E-06-3.30872E-24
 -1       883 1.59012E-04-3.02296E-06 0.00000E+00
 -1       884 1.59128E-04-3.00308E-06 0.00000E+00
 -1       885 1.59241E-04-2.97692E-06 1.65436E-24
 -1       886 1.59355E-04-2.95121E-06 0.00000E+00
 -1       887 1.59471E-04-2.93274E-06-1.65436E-24
 -1       888 1.59592E-04-2.92828E-06 0.00000E+00
 -1       889 1.59721E-04-2.94474E-06-8.27181E-25
 -1       890 1.59859E-04-2.98884E-06 1.65436E-24
 -1       891 1.57903E-04-2.81306E-06-1.65436E-24
 -1       892 1.58461E-04-2.86481E-06 4.13590E-25
 -1       893 1.58974E-04-2.91649E-06-8.27181E-25
 -1       894 1.59418E-04-2.96799E-06-4.13590E-25
 -1       895 1.59769E-04-3.01933E-06-4.13590E-25
 -1       956 1.63521E-04 2.06221E-06 1.65436E-24
 -1       957 1.63404E-04 1.58674E-06 0.00000E+00
 -1       958 1.63285E-04 1.17979E-06-3.30872E-24
 -1       959 1.63167E-04 8.31928E-07 0.00000E+00
 -1       960 1.63048E-04 5.33729E-07 0.00000E+00
 -1       961 1.62930E-04 2.75712E-07 0.00000E+00
 -1       962 1.62811E-04 4.83937E-08-3.30872E-24
 -1       963 1.62693E-04-1.57724E-07 1.65436E-24
 -1       964 1.62575E-04-3.52134E-07 3.30872E-24
 -1       965 1.62456E-04-5.44331E-07 0.00000E+00
 -1       966 1.62338E-04-7.43816E-07 3.30872E-24
 -1       967 1.62219E-04-9.60081E-07-1.65436E-24
 -1       968 1.62101E-04-1.20262E-06 0.00000E+00
 -1       969 1.61983E-04-1.48088E-06 0.00000E+00
 -1       970 1.61865E-04-1.80432E-06 0.00000E+00
 -1       971 1.61641E-04-2.55112E-06 1.65436E-24
 -1       972 1.61531E-04-2.83082E-06-1.65436E-24
 -1       973 1.61422E-04-3.03095E-06-3.30872E-24
 -1       974 1.61312E-04-3.16177E-06 1.65436E-24
 -1       975 1.61203E-04-3.23352E-06 0.00000E+00
 -1       976 1.61093E-04-3.25650E-06-1.65436E-24
 -1       977 1.60983E-04-3.24098E-06 0.00000E+00
 -1       978 1.60874E-04-3.19727E-06-1.65436E-24
 -1       979 1.60764E-04-3.13568E-06-3.30872E-24
 -1       980 1.60655E-04-3.06650E-06 0.00000E+00
 -1       981 1.60545E-04-3.00006E-06 0.00000E+00
 -1       982 1.60436E-04-2.94665E-06 1.65436E-24
 -1       983 1.60326E-04-2.91658E-06 0.00000E+00
 -1       984 1.60217E-04-2.92014E-06-3.30872E-24
 -1       985 1.60109E-04-2.96763E-06 0.00000E+00
 -3
    1PSTEP                        24          12           1          
  100CL  112 6.09375E-01         409                     0   12           1
 -4  STRESS      6    1
 -5  SXX         1    4    1    1
 -5  SYY         1    4    2    2
 -5  SZZ         1    4    3    3
 -5  SXY         1    4    1    2
 -5  SYZ         1    4    2    3
 -5  SZX         1    4    3    1
 -1         1-3.76054E+06-1.44892E+06-8.23212E+05-1.51360E+06 4.94765E-10 9.41800E-08
 -1         2 9.03504E+02-1.69676E+06 3.22013E+03 1.56999E+04 5.80826E-10 6.96446E-10
 -1         3-8.38058E+02-1.50920E+06 3.67367E+02-1.61287E+03-5.32935E-10 3.03407E-09
 -1         5-1.65843E+01 3.37051E+05 8.65143E+00-4.69625E-01-2.48992E-10-4.99313E-10
 -1         8-7.94273E+05-2.70638E+05-7.48572E+04-3.37935E+05-1.10958E-10 3.03917E-08
 -1         9 3.70305E+06-6.95568E+05 6.83387E+05-8.92521E+05 2.53262E-08 8.30740E-08
 -1        10-1.75259E+03-1.57253E+06-3.19241E+03-1.09016E+04-1.00772E-08-1.62008E-08
 -1        12-1.30616E+01 3.37069E+05 2.81093E+02-3.38605E+00-2.79044E-10-2.14354E-08
 -1        15 1.46535E+03 8.05291E+02 4.73673E+03 2.47291E+00 9.97602E-11 4.68427E-08
 -1        16 9.35716E+06-3.91347E+05 1.34778E+06-1.08287E+06 1.83548E-08-4.91661E-08
 -1        17 3.22139E+06 2.11604E+06 8.84631E+05 2.17642E+06 2.49129E-08 2.30037E-08
 -1        18 6.04653E+04 1.14969E+04-1.20138E+04-9.92506E+04 1.22097E-08 4.44697E-09
 -1        19 1.07850E+05 1.24240E+05-8.63691E+02 2.02986E+04 7.30688E-10-3.51283E-09
 -1        20-6.45171E+04-5.08058E+05-1.13443E+05 2.68058E+04 3.05287E-10 1.30682E-08
 -1        21-4.32839E+01-2.72086E+05-8.58542E+02 1.05076E+02-1.74402E-07-2.45708E-08
 -1        24 5.04333E+06 4.52581E+06 1.59455E+06 4.11422E+06-7.64897E-08-4.33065E-08
 -1        25-9.29183E+03-2.26778E+05-2.65094E+04-3.63123E+05-4.71118E-10 1.00712E-08
 -1        26-4.59029E+04 8.06225E+04-2.14531E+04-1.66574E+03 8.60018E-10 2.47682E-09
 -1        27-7.09768E+04-2.75574E+05-1.01668E+05 6.16958E+04 4.69102E-09 3.67102E-09
 -1        28 2.06908E+04-7.74171E+04 1.54911E+04 2.05318E+04-1.08292E-09-7.60472E-09
 -1        32-1.53294E+06-2.68786E+06-1.38306E+05-4.44952E+04-3.38769E-08-7.00368E-09
 -1        33-1.60169E+05 8.10341E+04 2.85950E+04-3.58926E+04-1.44871E-09-5.54398E-09
 -1        34-2.01125E+05-2.15268E+04 5.78769E+02 6.59581E+04-1.42307E-09-2.55447E-09
 -1        35-2.12004E+04-3.07243E+04-1.21824E+03 4.73711E+04 9.09921E-11-6.48773E-09
 -1        51 4.10339E+04-2.50512E+05 9.04605E+04-7.27169E+05 1.30967E-10-2.08238E-08
 -1        52 1.58255E+04-2.37320E+05 5.01267E+04-8.47842E+05 3.27418E-10-1.35420E-07
 -1        53 5.55918E+03-2.52284E+05 3.03343E+04-7.24529E+05 3.45608E-10 1.55851E-08
 -1        54 1.37139E+04-2.49265E+05 3.34765E+04-8.50595E+05 4.36557E-11-1.15029E-07
 -1        55 2.82893E+04-2.59965E+05 5.07029E+04-7.24131E+05 5.82077E-10 5.03496E-09
 -1        56-7.12742E+06-8.03248E+05-6.08313E+05-2.77801E+06 1.23691E-08-2.95404E-08
 -1        57-7.46419E+06-1.26174E+06-4.10211E+05-2.64698E+06 8.20728E-09-1.99299E-07
 -1        58-7.22975E+06-1.01610E+06-1.42940E+05-2.76170E+06-5.89353E-10-9.66247E-09
 -1        59-7.34997E+06-1.00808E+06-8.52330E+04-2.66289E+06-9.23183E-09-5.00804E-08
 -1        60-7.24017E+06-1.05005E+06-3.32418E+04-2.76446E+06-1.55937E-08-8.28568E-08
 -1        61-7.33092E+06-9.74806E+05-1.88412E+04-2.66701E+06 2.80114E-09 1.92740E-07
 -1        62-7.24835E+06-1.04849E+06-9.09425E+03-2.75778E+06-1.30167E-08-1.10749E-08
 -1        63-7.30635E+06-9.91654E+05-7.16565E+03-2.69045E+06 1.06411E-09-1.02160E-07
 -1        64-7.26402E+06-1.03353E+06-8.53687E+03-2.74057E+06 1.35660E-08-5.12408E-08
 -1        65-7.27366E+06-1.02909E+06-1.63697E+04-2.72843E+06-1.61385E-08-6.40937E-08
 -1        66-7.28071E+06-1.01140E+06-2.93527E+04-2.71950E+06 1.09139E-10-4.29145E-08
 -1        67-7.25815E+06-1.09093E+06-7.41555E+04-2.76313E+06-6.11908E-09 1.90324E-07
 -1        68-7.28036E+06-9.72162E+05-1.24561E+05-2.70602E+06-1.05138E-08-2.67974E-08
 -1        69-7.35907E+06-1.31272E+06-3.57550E+05-2.75195E+06-7.93079E-09-1.38843E-07
 -1        70-7.18233E+06-7.94827E+05-5.29910E+05-2.72952E+06 1.44792E-08-2.19152E-08
 -1        86-5.54100E+02-1.70410E+06 2.06407E+03-7.84970E+03-3.63929E-09 4.99770E-08
 -1        87 2.65154E+03-1.69810E+06 5.74069E+03 2.66218E+04-6.44138E-09 6.58517E-08
 -1        88-2.12328E+03-1.70297E+06 8.03789E+03-1.87719E+04-6.58247E-09-2.18184E-08
 -1        89 1.56186E+04-1.69414E+06 2.19147E+04 3.70733E+04-1.00483E-08-1.02811E-07
 -1        90-1.33147E+04-1.70824E+06 3.07179E+04-1.83026E+04-5.72800E-09-4.69981E-10
 -1       121-1.16586E+03-1.51206E+06-1.49121E+02 8.02291E+02 1.00758E-09 2.43817E-08
 -1       122-6.86997E+02-1.50920E+06 7.40676E+02-3.22327E+03-4.19726E-09 5.35510E-09
 -1       123-1.21329E+03-1.51217E+06 6.72422E+02 2.39632E+03 3.12866E-09-1.37479E-08
 -1       124 8.18042E+02-1.50858E+06 2.96425E+03-6.76126E+03-7.55335E-09 2.09820E-08
 -1       125-2.05374E+03-1.51301E+06 3.96276E+03 4.32177E+03 4.89672E-09-3.51429E-09
 -1       191-1.76929E+01 3.37077E+05 9.81817E+00 2.37933E-01-2.54129E-10 1.34532E-08
 -1       192-1.73860E+01 3.37051E+05 1.83425E+01-1.70417E+00-3.37127E-10-3.04726E-09
 -1       193-1.98208E+01 3.37077E+05 3.36031E+01 1.48620E+00-5.28575E-10 8.64929E-10
 -1       194-1.99642E+01 3.37054E+05 6.94392E+01-3.94152E+00-3.30785E-10 1.47065E-08
 -1       195-2.39087E+01 3.37074E+05 1.35314E+02 2.50197E+00-7.65340E-10-1.89711E-08
 -1       251-1.93129E+06-2.04380E+04-1.62226E+05-1.17294E+05 6.47560E-10-2.91730E-08
 -1       252-1.22188E+06 2.64773E+04 3.04212E+04 3.61848E+05-5.73618E-09 1.23995E-07
 -1       253-1.61512E+06-1.02450E+04-2.88124E+04-2.42133E+05-5.23232E-09 1.10665E-07
 -1       254-1.55296E+06 4.56416E+04 4.91471E+03 4.79873E+05-3.59842E-09 8.01413E-08
 -1       255-1.63318E+06-1.27326E+04-1.64927E+04-2.37923E+05-2.99042E-09 4.56662E-08
 -1       256-1.17657E+06 3.75145E+04 8.27570E+04 3.44961E+05 3.26900E-08 8.52810E-08
 -1       257-1.95472E+06-3.20311E+04-8.20635E+04-1.04449E+05 9.01127E-09 3.33948E-08
 -1       258-8.21179E+05 2.86619E+04 1.50488E+05-7.10312E+02 4.86762E-09-4.46330E-08
 -1       259-1.95368E+06-3.22072E+04-8.03516E+04 1.05984E+05 3.05590E-09 2.34542E-09
 -1       260-1.17851E+06 3.91907E+04 8.65793E+04-3.45588E+05-5.91353E-09-5.38266E-08
 -1       261-1.63252E+06-1.40329E+04-8.51530E+03 2.38716E+05 5.94755E-08 1.11111E-07
 -1       262-1.54886E+06 5.50864E+04 2.41116E+04-4.79096E+05-3.33530E-08 3.94311E-08
 -1       263-1.61987E+06-1.83539E+04 1.79308E+03 2.42280E+05 8.34189E-09 6.77151E-08
 -1       264-1.19241E+06 8.56917E+04 1.14920E+05-3.60994E+05 1.18879E-07-1.43846E-08
 -1       265-1.95571E+06-7.15359E+04-4.30959E+04 1.17981E+05 3.65417E-08 7.99228E-08
 -1       266-2.65275E+04-1.24039E+04 6.22427E+04-5.29139E+01 2.11003E-10 4.35139E-08
 -1       267 3.07529E+04 1.44576E+04 4.39914E+04 6.10505E+01 3.59250E-11-5.16042E-08
 -1       268-4.12390E+03-2.04757E+03 1.63515E+04-7.77899E+00-1.17325E-10-1.43699E-08
 -1       269 4.86912E+03 2.45053E+03 1.06281E+04 9.06126E+00 4.27463E-11 6.75564E-08
 -1       270-7.30862E+02-4.02640E+02 5.13036E+03-1.22968E+00 2.84217E-11 4.85750E-08
 -1       271-2.41999E+06-2.95662E+05-1.81018E+05-9.32600E+05 1.72149E-08 1.38483E-07
 -1       272-2.52427E+06-3.89601E+05-1.16551E+05-8.87654E+05-1.33291E-08 2.98023E-08
 -1       273-2.45317E+06-3.41868E+05-4.27279E+04-9.25528E+05-3.26668E-09-5.01332E-08
 -1       274-2.48492E+06-3.33292E+05-2.39707E+04-8.98532E+05 1.10213E-08 2.32326E-08
 -1       275-2.45820E+06-3.46333E+05-9.96031E+03-9.23714E+05 6.03450E-10 3.13557E-08
 -1       276-2.47766E+06-3.29074E+05-5.24588E+03-9.02012E+05 5.93400E-09-3.01429E-08
 -1       277-2.46007E+06-3.45654E+05-2.61234E+03-9.22084E+05-9.16589E-09 1.25333E-08
 -1       278-2.47389E+06-3.31405E+05-1.72130E+03-9.05374E+05 3.81579E-09 1.83743E-08
 -1       279-2.46172E+06-3.44101E+05-1.87889E+03-9.20201E+05-1.16925E-08 5.67120E-08
 -1       280-2.47053E+06-3.35221E+05-3.09448E+03-9.09173E+05 8.44557E-09 4.71000E-08
 -1       281-2.46325E+06-3.41982E+05-5.79757E+03-9.18145E+05-1.50139E-08 2.31989E-09
 -1       282-2.46931E+06-3.42710E+05-1.35150E+04-9.12903E+05-7.10315E-09 4.27747E-08
 -1       283-2.46290E+06-3.37009E+05-2.42560E+04-9.16286E+05-2.51457E-08 4.18204E-08
 -1       284-2.48652E+06-3.79391E+05-6.57349E+04-9.12363E+05 9.74796E-09-9.92536E-08
 -1       285-2.44658E+06-3.08576E+05-1.02353E+05-9.17515E+05-6.48652E-09 2.60479E-09
 -1       301 1.91684E+04-3.48260E+05 1.73291E+05-6.32548E+05 1.09867E-09 2.65791E-08
 -1       302 2.06781E+04-3.04573E+05 1.07779E+05-9.25166E+05-1.12414E-09-3.11056E-08
 -1       303-2.04581E+03-3.32412E+05 7.11322E+04-6.31044E+05 2.61934E-10 5.93918E-08
 -1       304 1.33753E+04-3.06398E+05 8.93487E+04-9.24555E+05-1.60071E-10 3.79332E-08
 -1       305 1.00074E+04-3.38827E+05 1.31984E+05-6.33130E+05 2.43745E-10-1.15913E-07
 -1       306-1.78576E+07-3.25665E+06-4.32270E+06-1.84825E+06-6.02449E-08 3.53029E-08
 -1       307 1.10051E+07-5.62167E+05 2.59303E+06-8.08936E+06-6.10729E-07-9.31323E-09
 -1       308-8.16901E+06 1.07520E+05-4.04345E+05 2.38663E+06-6.72590E-08 1.35318E-07
 -1       309-3.22457E+06 8.18709E+05 8.27718E+05-1.32096E+07 4.58345E-07 6.51489E-08
 -1       310-9.18438E+06-5.67327E+04-6.05907E+05 2.19502E+06-6.61239E-08-2.85218E-09
 -1       311 1.33213E+07-1.25783E+06 3.09651E+06-6.49720E+06 2.47266E-07-2.11498E-07
 -1       312-1.81008E+07-3.24058E+06-3.79040E+06-2.79459E+06 9.86620E-08 8.96980E-08
 -1       313 2.00194E+07 4.43400E+06 5.03015E+06 8.38952E+06-4.37722E-08 2.07976E-07
 -1       314-1.28020E+07-7.79565E+06-3.59227E+06-7.33542E+06 1.54600E-07 2.45345E-08
 -1       315-2.25677E+06 1.24154E+07 2.79936E+06 6.61062E+06-4.31086E-07-1.96742E-08
 -1       316-1.97265E+06-6.26793E+06-3.48986E+05-4.34939E+06-7.54691E-07-2.28800E-07
 -1       317-1.45312E+07 1.20784E+07 8.07517E+05-1.43121E+06 5.82520E-07-4.10397E-07
 -1       318-2.47003E+06-6.54769E+06-6.82743E+05-4.54794E+06-5.56902E-07 8.20728E-08
 -1       319-5.17961E+05 1.27967E+07 2.81696E+06 7.16900E+06-8.48813E-08 9.85456E-08
 -1       320-1.37359E+07-8.09735E+06-4.63814E+06-7.20595E+06 1.37486E-07-6.61385E-08
 -1       336 1.54624E+02-1.63686E+06-1.16523E+04 6.50857E+03-1.97997E-08-3.05154E-08
 -1       337-4.44432E+03-1.63787E+06-1.47209E+04-1.57616E+04-3.73507E-08-1.94850E-08
 -1       338 6.28110E+02-1.63661E+06-2.20137E+04 9.14188E+03-2.71293E-08-1.06556E-08
 -1       339-2.33699E+04-1.65056E+06-4.96813E+04-2.08973E+04-4.70945E-08 2.84854E-08
 -1       340 1.56344E+04-1.62539E+06-7.78359E+04 1.15682E+04-3.09083E-08 2.28647E-08
 -1       406 7.90087E+00 3.37062E+05 5.54403E+02 9.53456E-01-9.10980E-10-3.95721E-09
 -1       407 1.80489E+02 3.37166E+05 1.17943E+03 1.18448E+01-2.94293E-10-1.00117E-08
 -1       408 5.93715E+02 3.36977E+05 2.35484E+03-1.31213E+01-1.14545E-09-7.19683E-09
 -1       409 2.53484E+03 3.37918E+05 5.30241E+03 1.34259E+02-1.20565E-10-6.66296E-09
 -1       410 7.30637E+03 3.36305E+05 1.08241E+04-1.27968E+02-1.48520E-09-3.85080E-09
 -1       521-1.98686E+07-4.07898E+06-5.23898E+06-1.79857E+06-4.91273E-08 9.86038E-08
 -1       522 1.18005E+07-5.02377E+05 2.72425E+06-1.03539E+07-3.32540E-07-1.63214E-07
 -1       523-9.38750E+06-4.10241E+04-4.57381E+05 2.79658E+06 1.12632E-08-2.17213E-07
 -1       524-5.26339E+06 2.00062E+06 9.46306E+05-1.59835E+07 5.78453E-07-3.84138E-07
 -1       525-1.05446E+07-2.87233E+05-6.98586E+05 2.58174E+06 4.55533E-07-2.35792E-07
 -1       526 1.48716E+07-1.41738E+06 3.39767E+06-8.40450E+06 1.96975E-07-1.91736E-07
 -1       527-2.01993E+07-4.16809E+06-4.51620E+06-2.88455E+06 6.33299E-08-1.15775E-07
 -1       528 2.27496E+07 4.92030E+06 5.46727E+06 9.80088E+06 2.49420E-08-3.74421E-08
 -1       529-1.42162E+07-9.31662E+06-4.27547E+06-7.96911E+06-2.63681E-08 4.88944E-09
 -1       530-3.86169E+06 1.51500E+07 3.08785E+06 7.16986E+06-2.42158E-07 4.52390E-07
 -1       531-2.28280E+06-7.45090E+06-3.85855E+05-4.89591E+06-5.97967E-07 1.69181E-07
 -1       532-1.77704E+07 1.44590E+07 9.47656E+05-3.14898E+06 2.37589E-07-3.75716E-07
 -1       533-2.75442E+06-7.72885E+06-7.37322E+05-5.06302E+06-4.53147E-08-6.64237E-07
 -1       534-2.08749E+06 1.55997E+07 3.08034E+06 7.77318E+06-7.17628E-08 5.04078E-07
 -1       535-1.51712E+07-9.70300E+06-5.42899E+06-7.81648E+06 3.74857E-08 3.23576E-07
 -1       536-5.74835E+05-3.83303E+04-2.53585E+03-3.73236E+04-7.41011E-09 4.40323E-08
 -1       537-1.82564E+05 3.86970E+04 6.71664E+04 8.92389E+04-9.00635E-08 8.10123E-08
 -1       538-3.87343E+05 4.01641E+02 8.85139E+03-5.39826E+04 1.05898E-08 8.43074E-08
 -1       539-3.13147E+05 3.14133E+03 1.85359E+04 1.02098E+05 1.21654E-07 9.30643E-08
 -1       540-4.47386E+05-2.10979E+02-1.07505E+04-5.04171E+04 2.82080E-09 8.25405E-08
 -1       541-6.65830E+04 1.01459E+04 6.38810E+04 6.83462E+04 1.15982E-08 5.01119E-08
 -1       542-6.27292E+05-1.20681E+04-4.96673E+04-1.98441E+04 6.42231E-08 3.81922E-08
 -1       543 8.48293E+04 1.62293E+04 9.32991E+04-1.04730E+04-2.01562E-08-1.39107E-09
 -1       544-5.94766E+05-9.60900E+03-4.40100E+04 2.80966E+04-2.06046E-09-2.93287E-08
 -1       545-1.41338E+05 5.04785E+03 4.56440E+04-8.19206E+04 2.68166E-08-5.40650E-08
 -1       546-4.07147E+05 4.06467E+03-7.81178E+03 5.14594E+04 2.01920E-08-6.62772E-08
 -1       547-3.25984E+05-4.51665E+03 3.07591E+03-1.04478E+05-8.57677E-08-8.45220E-08
 -1       548-4.15028E+05 4.01170E+03-1.86747E+04 5.09611E+04-9.00261E-08-7.78514E-08
 -1       549-1.26902E+05 8.66920E+02 2.41205E+04-7.90404E+04-4.47632E-08-5.71144E-08
 -1       550-6.00860E+05-5.76020E+03-9.37506E+04 2.56964E+04 3.55521E-09-2.64263E-08
 -1       551 3.05567E+04-7.45847E+05 5.79755E+03-1.15544E+06 2.84417E-08 1.17725E-08
 -1       552 7.22803E+04-7.76980E+05 2.25501E+04-1.66956E+06 5.81495E-08 4.52565E-08
 -1       553 5.35417E+04-7.78178E+05 4.06930E+04-1.14997E+06 3.12139E-08 2.73867E-08
 -1       554 1.06700E+05-7.85131E+05 9.17574E+04-1.67143E+06 6.44068E-08 2.14823E-08
 -1       555 8.07468E+04-7.99767E+05 1.63665E+05-1.15043E+06 3.24217E-08-1.24674E-08
 -1       556 1.70128E+05-3.01310E+05 5.27431E+04-3.44367E+05-1.57452E-08-1.36788E-09
 -1       557 2.80378E+05-3.89792E+05 2.91098E+04-4.40096E+05 2.03727E-09 1.31186E-08
 -1       558 1.60133E+05-3.02581E+05 9.54817E+03-3.42279E+05-8.61473E-09 1.05501E-08
 -1       559 2.60487E+05-3.94935E+05 5.52273E+03-4.53653E+05 2.08383E-08 1.07193E-08
 -1       560 1.50524E+05-2.96496E+05 9.72567E+02-3.49021E+05 4.33647E-09 7.00675E-09
 -1       561 2.48028E+05-3.90232E+05 1.01362E+03-4.61971E+05-3.66708E-09 1.46792E-08
 -1       562 1.42950E+05-2.91729E+05-3.12530E+02-3.54470E+05 9.60426E-10-1.30622E-08
 -1       563 2.39084E+05-3.86333E+05 2.25625E+02-4.67769E+05-3.71074E-09-1.67129E-08
 -1       564 1.37695E+05-2.88438E+05-1.94061E+02-3.58183E+05 4.29281E-09-5.77484E-09
 -1       565 2.33416E+05-3.83868E+05 9.69230E+01-4.71376E+05 8.42192E-09 2.78847E-08
 -1       566 1.34845E+05-2.86626E+05-9.13209E+01-3.60180E+05 7.49424E-10 6.06633E-09
 -1       567 2.31025E+05-3.82821E+05-2.00797E+02-4.72786E+05 1.97833E-08 6.90488E-09
 -1       568 1.34461E+05-2.86403E+05-7.12899E+02-3.60543E+05-2.26919E-09 2.13913E-09
 -1       569 2.30775E+05-3.82795E+05-1.79792E+03-4.71097E+05-2.91948E-10 1.48648E-08
 -1       570 1.37447E+05-2.89051E+05-4.02287E+03-3.59813E+05 8.10542E-09 3.74803E-09
 -1       571 2.54756E+05 9.27551E+03 1.34718E+04-7.51430E+04 1.12204E-08 1.38291E-08
 -1       572 2.56733E+05 3.37001E+03 6.60133E+03-8.24342E+04 2.31821E-08 5.90717E-09
 -1       573 2.55546E+05 9.45401E+02 2.93301E+03-7.49915E+04 1.56092E-08-1.47656E-09
 -1       574 2.55760E+05 4.59025E+02 1.47031E+03-8.26178E+04 6.31553E-09 2.87855E-10
 -1       575 2.55634E+05 2.26703E+02 6.93697E+02-7.49711E+04 1.36981E-09 5.47061E-09
 -1       576 2.55635E+05 2.20091E+02 3.54591E+02-8.26423E+04-4.33965E-09-1.09530E-08
 -1       577 2.55660E+05 1.80057E+02 1.76687E+02-7.49683E+04-3.80305E-09-1.17052E-09
 -1       578 2.55645E+05 1.95407E+02 1.00949E+02-8.26455E+04-4.66707E-09-1.53850E-08
 -1       579 2.55703E+05 1.60294E+02 6.86590E+01-7.49681E+04 1.35042E-08-1.00954E-10
 -1       580 2.55705E+05 1.66688E+02 7.73250E+01-8.26414E+04 1.45001E-08 2.27428E-08
 -1       581 2.55771E+05 1.27912E+02 1.16774E+02-7.49727E+04 1.32695E-08 1.06320E-09
 -1       582 2.55816E+05 1.55161E+02 2.34718E+02-8.25930E+04 2.22917E-09-1.04160E-08
 -1       583 2.55851E+05 1.85393E+02 4.53018E+02-7.50167E+04-1.20781E-09-1.02073E-08
 -1       584 2.56084E+05 5.50056E+02 1.02192E+03-8.22229E+04 8.66748E-10-2.66255E-09
 -1       585 2.55833E+05 1.43069E+03 2.07335E+03-7.53426E+04-1.65528E-10-2.39379E-09
 -1       586-3.09721E+03 9.29886E+04-3.23093E+03-2.24097E+05-2.87218E-09 6.27779E-09
 -1       587-9.63745E+02 9.26419E+04 2.95391E+02-2.46654E+05-1.70076E-09-1.15211E-08
 -1       588 6.17331E+02 9.25818E+04 3.90317E+03-2.23985E+05-2.53385E-09 1.73723E-08
 -1       589 4.67693E+03 9.46494E+04 1.04610E+04-2.46415E+05-6.64841E-09 2.06965E-08
 -1       590 1.44969E+04 9.14359E+04 2.20764E+04-2.24370E+05-4.15457E-09 1.79170E-08
 -1       591-5.86467E+04-1.36299E+04-1.87736E+04-2.63308E+04-6.97946E-09-1.13960E-09
 -1       592-6.16796E+04-1.69687E+04-1.01691E+04-2.97777E+04-1.47060E-09-9.29413E-09
 -1       593-6.05274E+04-1.22644E+04-4.23304E+03-2.77043E+04-2.48505E-09 9.30686E-09
 -1       594-5.90824E+04-1.42194E+04-2.11117E+03-2.98826E+04 8.35684E-10 9.61919E-09
 -1       595-6.06709E+04-1.22596E+04-9.69490E+02-2.77668E+04-3.60674E-09 8.90621E-09
 -1       596-5.89049E+04-1.40937E+04-4.93099E+02-2.98620E+04 1.72139E-09 8.22894E-10
 -1       597-6.06889E+04-1.22723E+04-2.69036E+02-2.77691E+04 2.14317E-09 8.73365E-09
 -1       598-5.88875E+04-1.40888E+04-2.17249E+02-2.98562E+04-4.51683E-09 1.02935E-08
 -1       599-6.06878E+04-1.22726E+04-2.78722E+02-2.77688E+04 2.11105E-09-1.21836E-08
 -1       600-5.89053E+04-1.40945E+04-5.18744E+02-2.98605E+04 7.26681E-09-1.09737E-08
 -1       601-6.06665E+04-1.22602E+04-1.02387E+03-2.77656E+04-3.19005E-10 4.04020E-09
 -1       602-5.90926E+04-1.42267E+04-2.23167E+03-2.98791E+04-6.50573E-09 2.52373E-09
 -1       603-6.05125E+04-1.22678E+04-4.47556E+03-2.77001E+04-1.59548E-09-6.07588E-09
 -1       604-6.18532E+04-1.71171E+04-1.07512E+04-2.97474E+04 3.44204E-09-4.07817E-09
 -1       605-5.85070E+04-1.37264E+04-1.98484E+04-2.62641E+04 3.69971E-09 1.41808E-08
 -1       606 2.70947E+04-1.23820E+04-2.22239E+04 2.53311E+04 3.57886E-09 1.75537E-08
 -1       607 2.32947E+04-4.02976E+03-1.10669E+04 2.84511E+04 1.10958E-09 4.94424E-09
 -1       608 2.54561E+04-7.13703E+02-4.95496E+03 2.51405E+04-1.00772E-09 1.56242E-08
 -1       609 2.50362E+04-2.27669E+02-2.50289E+03 2.86753E+04-3.33239E-09 8.13782E-09
 -1       610 2.52654E+04-1.51537E+01-1.19468E+03 2.51186E+04-1.33332E-09 2.41655E-08
 -1       611 2.51947E+04-9.60906E+00-6.02331E+02 2.86997E+04 2.18733E-09 1.32554E-08
 -1       612 2.52196E+04-1.32412E-01-2.86895E+02 2.51164E+04 2.30102E-09-1.22334E-08
 -1       613 2.51995E+04-3.13884E+00-1.29007E+02 2.87025E+04 1.10595E-09-7.86508E-09
 -1       614 2.51964E+04-3.10611E+00-3.16202E+01 2.51157E+04-7.82165E-11 1.26756E-08
 -1       615 2.51908E+04 4.35311E-01 5.09751E+01 2.87030E+04 8.23093E-11-2.78351E-09
 -1       616 2.51784E+04 1.47924E+00 1.55669E+02 2.51159E+04-2.60115E-10 1.24237E-08
 -1       617 2.52065E+04 3.54845E+01 3.56389E+02 2.87025E+04-9.78389E-10 3.16595E-09
 -1       618 2.51452E+04 1.05660E+02 7.18735E+02 2.51161E+04-1.50703E-09 1.20644E-09
 -1       619 2.54583E+04 5.92389E+02 1.61428E+03 2.87017E+04-1.90482E-09-7.73753E-09
 -1       620 2.49053E+04 1.81103E+03 3.24470E+03 2.51161E+04 1.00965E-09 1.69621E-08
 -1       621 3.60797E+02 2.61853E+05 3.06822E+03 2.70775E+04 4.55429E-10-1.67529E-09
 -1       622 4.58850E+02 2.62586E+05 2.79480E+03 3.93511E+04 6.88487E-10-2.20371E-08
 -1       623 6.08627E+01 2.62018E+05 3.45560E+03 2.69519E+04 7.73582E-10-9.67248E-09
 -1       624 1.70181E+03 2.63677E+05 6.77622E+03 3.94766E+04 7.97627E-10 9.00218E-09
 -1       625 1.69115E+03 2.60679E+05 1.18792E+04 2.69491E+04 7.25777E-10-9.47693E-10
 -1       626 2.29411E+05 5.70667E+04 4.77750E+03 1.15273E+05-3.67709E-09-1.25274E-08
 -1       627 2.27068E+05 5.85516E+04 2.30222E+03 1.19459E+05 1.71212E-09-5.21516E-09
 -1       628 2.29542E+05 5.48652E+04 9.73228E+02 1.16065E+05-7.00584E-09-6.47970E-09
 -1       629 2.26452E+05 5.79377E+04 4.76400E+02 1.19702E+05-2.29238E-09-2.42609E-09
 -1       630 2.29554E+05 5.47599E+04 2.20572E+02 1.16095E+05-4.20187E-10 1.53730E-08
 -1       631 2.26384E+05 5.79167E+04 1.18202E+02 1.19703E+05 2.50316E-09-3.44335E-09
 -1       632 2.29548E+05 5.47654E+04 7.69129E+01 1.16089E+05-2.54204E-10 6.64568E-09
 -1       633 2.26373E+05 5.79201E+04 8.43369E+01 1.19697E+05 4.82032E-11 6.06815E-09
 -1       634 2.29541E+05 5.47644E+04 1.35091E+02 1.16087E+05-4.57885E-09 5.74801E-09
 -1       635 2.26383E+05 5.79198E+04 2.72667E+02 1.19700E+05-1.04020E-08 3.49125E-08
 -1       636 2.29530E+05 5.47607E+04 5.50275E+02 1.16085E+05-6.56564E-09 1.71658E-08
 -1       637 2.26500E+05 5.80059E+04 1.20949E+03 1.19698E+05 4.11956E-09 1.11513E-08
 -1       638 2.29486E+05 5.50285E+04 2.48513E+03 1.15964E+05-2.86400E-09 1.62499E-08
 -1       639 2.27805E+05 5.98212E+04 5.87955E+03 1.19313E+05-8.69704E-09 1.95230E-08
 -1       640 2.29309E+05 6.04463E+04 1.22012E+04 1.13675E+05-9.63018E-09-7.47741E-09
 -1       656 5.94469E+04-1.51634E+06-1.43504E+05-1.40396E+03-2.18279E-11 1.40290E-09
 -1       657-7.86192E+04-1.58116E+06-1.18830E+05 6.48737E+03-2.45564E-11-1.39028E-08
 -1       658 1.89258E+04-1.53477E+06-7.31166E+04-3.14632E+03 2.48974E-10 9.09019E-10
 -1       659-8.48290E+04-1.58411E+06-1.26988E+05 7.83820E+03-1.04683E-09-1.46538E-08
 -1       660 6.56425E+04-1.51340E+06-1.57532E+05-2.75477E+03-1.31695E-09-8.89145E-10
 -1       661 1.62764E+05 1.73140E+04 1.65592E+04 6.36396E+04-6.82576E-10 9.01491E-09
 -1       662 1.71877E+05 2.98205E+04 1.11591E+04 6.02074E+04-1.72025E-09-6.11476E-09
 -1       663 1.66015E+05 2.26275E+04 3.90307E+03 6.26973E+04-2.18574E-09-4.32510E-09
 -1       664 1.68110E+05 2.36050E+04 2.33436E+03 6.13571E+04-2.95216E-10 1.52555E-08
 -1       665 1.66506E+05 2.33549E+04 9.20891E+02 6.25555E+04 3.48678E-10 4.30956E-09
 -1       666 1.67530E+05 2.27718E+04 5.38328E+02 6.15412E+04 7.53019E-10-2.50506E-09
 -1       667 1.66591E+05 2.34389E+04 2.85332E+02 6.25211E+04 2.09999E-09-1.17600E-08
 -1       668 1.67438E+05 2.27096E+04 2.89321E+02 6.15911E+04-3.31289E-09-7.40031E-09
 -1       669 1.66598E+05 2.34152E+04 3.90550E+02 6.25060E+04 4.05791E-10 3.64886E-09
 -1       670 1.67533E+05 2.29203E+04 8.49349E+02 6.15932E+04-3.18069E-09 1.27006E-08
 -1       671 1.66495E+05 2.32325E+04 1.50772E+03 6.25171E+04-7.36001E-10 3.25451E-09
 -1       672 1.68412E+05 2.43871E+04 3.85718E+03 6.13806E+04 6.49450E-10 9.87711E-09
 -1       673 1.65724E+05 2.19855E+04 6.46391E+03 6.27045E+04 4.26098E-10-9.87029E-10
 -1       674 1.74565E+05 3.47709E+04 1.84854E+04 5.95720E+04-2.05182E-09 1.34196E-08
 -1       675 1.60382E+05 1.31393E+04 2.74386E+04 6.42165E+04 7.65340E-10-1.13560E-08
 -1       676 2.22970E+01-2.72014E+05-1.03477E+03-5.25394E+01 5.52603E-10-2.36200E-09
 -1       677-2.74637E+02-2.72264E+05-1.89378E+03 1.05005E+02 3.81968E-09 1.14830E-09
 -1       678 1.83471E+02-2.71836E+05-3.34773E+03-5.24304E+01 3.22075E-10-2.10421E-09
 -1       679-3.34860E+03-2.74285E+05-7.95272E+03 1.04588E+02 3.39526E-09 9.23599E-10
 -1       680 1.99861E+03-2.69994E+05-1.28171E+04-5.15361E+01 2.58296E-10 3.48272E-09
 -1       771-2.85039E+06-6.37824E+05-1.13373E+05-1.31982E+06-2.73867E-08-2.18861E-08
 -1       772-2.79095E+06-7.08950E+05-5.87832E+04-1.40161E+06-2.21189E-08 1.05356E-08
 -1       773-2.87196E+06-6.20840E+05-2.92361E+04-1.32841E+06-8.76025E-09 1.05283E-08
 -1       774-2.78238E+06-6.96882E+05-1.31963E+04-1.41861E+06 1.90921E-08 2.72121E-09
 -1       775-2.88242E+06-6.13432E+05-9.38200E+03-1.33224E+06 5.58794E-09 1.49594E-08
 -1       776-2.78918E+06-6.95476E+05-3.58781E+03-1.43092E+06 3.20142E-09 5.45697E-09
 -1       777-2.89130E+06-6.06965E+05-3.96976E+03-1.33561E+06 3.75439E-09-3.01588E-09
 -1       778-2.79640E+06-6.94235E+05-1.14958E+03-1.44143E+06 3.93629E-09 5.68616E-09
 -1       779-2.89884E+06-6.01382E+05-1.93044E+03-1.33850E+06-3.69619E-09-6.19912E-09
 -1       780-2.80274E+06-6.93040E+05-3.28675E+02-1.44996E+06-7.59610E-09-5.59339E-10
 -1       781-2.90477E+06-5.96917E+05-7.40498E+02-1.34076E+06-2.56987E-08-5.21868E-09
 -1       782-2.80759E+06-6.92005E+05 2.58248E+02-1.45625E+06-3.36440E-08-4.84033E-09
 -1       783-2.90893E+06-5.93843E+05 4.03405E+02-1.34235E+06-9.79344E-09-1.15367E-08
 -1       784-2.81024E+06-6.90862E+05 1.68555E+03-1.46011E+06-1.42518E-08 8.16271E-10
 -1       785-2.91135E+06-5.92033E+05 2.97159E+03-1.34337E+06-2.89074E-08 5.99903E-09
 -1       786 1.24221E+05-9.31591E+03 2.15523E+04-2.09737E+02 2.82659E-09 8.91669E-09
 -1       787 1.33568E+05 1.07851E+04 1.52475E+04-4.08786E+01 3.46233E-09 8.51105E-09
 -1       788 1.27825E+05-1.46013E+03 5.57643E+03-1.79854E+02 2.32227E-09 1.66674E-08
 -1       789 1.29369E+05 1.68950E+03 3.50125E+03-8.79885E+01 1.37427E-09-9.23592E-09
 -1       790 1.28420E+05-2.27667E+02 1.41884E+03-1.62637E+02-5.76454E-10 2.28681E-09
 -1       791 1.28674E+05 2.63147E+02 8.21933E+02-1.17711E+02-4.39910E-09 1.73196E-09
 -1       792 1.28521E+05-3.48444E+01 3.53175E+02-1.50133E+02-7.67167E-10-1.68520E-08
 -1       793 1.28555E+05 3.86495E+01 1.86767E+02-1.41248E+02 1.39999E-09-2.65780E-08
 -1       794 1.28539E+05-3.31181E+00 7.00355E+01-1.39100E+02 2.76950E-09 2.72962E-10
 -1       795 1.28528E+05-8.08581E+00 2.59259E+00-1.64224E+02-3.41690E-09 1.19193E-08
 -1       796 1.28548E+05 1.18659E+01-5.58230E+01-1.27157E+02 2.28437E-09-9.31769E-09
 -1       797 1.28486E+05-9.18399E+01-1.80997E+02-1.91539E+02 2.07250E-09 6.22435E-10
 -1       798 1.28581E+05 8.03786E+01-3.01615E+02-1.11785E+02 1.20423E-09 5.48926E-09
 -1       799 1.28255E+05-5.93261E+02-8.36471E+02-2.29078E+02 2.98797E-09 5.10667E-10
 -1       800 1.28779E+05 5.12871E+02-1.18565E+03-8.96173E+01 6.14206E-10 1.78013E-08
 -1       801-1.34091E+04-6.74046E+06-8.51373E+05 6.83234E+05 6.57747E-08-3.82497E-08
 -1       802 2.55223E+05 8.75288E+05 9.08290E+05-7.79249E+05 1.83762E-07-1.67856E-08
 -1       803-2.36239E+05-8.44803E+06-9.00645E+05 4.57898E+05 6.02558E-08 2.59588E-08
 -1       804 9.04537E+04-1.02401E+06 6.33347E+05 4.10295E+05-7.11152E-08-4.68797E-08
 -1       805 1.16250E+05-4.85472E+06-1.41106E+05-5.03946E+05-2.94531E-08-3.29560E-08
 -1       806-2.75845E+05-5.26020E+04-2.01981E+04-1.08404E+05-6.40421E-09 9.99762E-09
 -1       807-2.77560E+05-4.91784E+04-9.92308E+03-1.13155E+05 5.16229E-09 1.75947E-09
 -1       808-2.76389E+05-4.53330E+04-4.20976E+03-1.11858E+05-6.50789E-09 1.18166E-08
 -1       809-2.75480E+05-4.63852E+04-2.05849E+03-1.13393E+05-1.54630E-08 1.98677E-08
 -1       810-2.76473E+05-4.50798E+04-9.43462E+02-1.12011E+05-2.58069E-09-1.51615E-08
 -1       811-2.75320E+05-4.62723E+04-4.69151E+02-1.13362E+05-5.11477E-09-1.00808E-08
 -1       812-2.76487E+05-4.51011E+04-2.37129E+02-1.12011E+05-7.32871E-09-4.14002E-09
 -1       813-2.75298E+05-4.62738E+04-1.53961E+02-1.13347E+05-3.69937E-09-8.15953E-09
 -1       814-2.76482E+05-4.51089E+04-1.52205E+02-1.12008E+05-2.14641E-09-2.00653E-08
 -1       815-2.75303E+05-4.62754E+04-2.45147E+02-1.13342E+05-7.96263E-10-2.43949E-08
 -1       816-2.76465E+05-4.51071E+04-4.64326E+02-1.12006E+05 3.99723E-09 1.63104E-08
 -1       817-2.75383E+05-4.63193E+04-9.96824E+02-1.13333E+05-5.58839E-09 4.54929E-09
 -1       818-2.76407E+05-4.52465E+04-2.03293E+03-1.11940E+05-1.44883E-09-1.53382E-08
 -1       819-2.76496E+05-4.75489E+04-4.78394E+03-1.13074E+05 2.21235E-09-4.57417E-08
 -1       820-2.76029E+05-4.88555E+04-9.73672E+03-1.10392E+05 3.49428E-09-2.11617E-08
 -1       821-3.39292E+05 1.87203E+04-4.33116E+04 8.58070E+02 6.23167E-09 9.35870E-09
 -1       822-3.57993E+05-2.16722E+04-3.06377E+04-1.63331E+03 3.94569E-10 1.86028E-08
 -1       823-3.46492E+05 2.93642E+03-1.12145E+04 1.06143E+03-4.48610E-09-4.06817E-09
 -1       824-3.49547E+05-3.39615E+03-7.05119E+03-1.55675E+03 3.80295E-10-1.16638E-08
 -1       825-3.47735E+05 4.58009E+02-2.90859E+03 7.81518E+02 5.92067E-09 1.18646E-08
 -1       826-3.48055E+05-5.37300E+02-1.72700E+03-6.53928E+02 6.95496E-09 1.77783E-09
 -1       827-3.47980E+05 7.74695E+01-9.26413E+02 1.58591E+02 2.87553E-09-9.32459E-09
 -1       828-3.47847E+05-1.62131E+02-7.77633E+02 6.23530E+02-1.01861E-09-3.27292E-10
 -1       829-3.47942E+05 8.28098E+01-9.40337E+02-4.95961E+02 4.16726E-10 1.61744E-08
 -1       830-3.48151E+05-5.63207E+02-1.80699E+03 1.63545E+03 6.54557E-10 1.38242E-08
 -1       831-3.47680E+05 4.80368E+02-3.01151E+03-8.53349E+02-2.30352E-09-1.32580E-08
 -1       832-3.49633E+05-3.53476E+03-7.33623E+03 1.87360E+03-9.00884E-10-1.98531E-09
 -1       833-3.46462E+05 3.05302E+03-1.16682E+04-7.34115E+02-2.04457E-09 9.74524E-10
 -1       834-3.58316E+05-2.25371E+04-3.18478E+04 1.20800E+03-2.54657E-09 1.39612E-08
 -1       835-3.38998E+05 1.94663E+04-4.50566E+04-1.87734E+02 4.95220E-09 1.53505E-08
 -1       836-1.20206E+03 3.23456E+05 1.98372E+04-1.60917E+04-3.67163E-09 8.33325E-09
 -1       837 4.27284E+03 3.29648E+05 1.68830E+04-3.25728E+04-3.35308E-09-1.19378E-08
 -1       838-4.69358E+02 3.25179E+05 1.73382E+04-1.60244E+04-2.92403E-09 4.15457E-09
 -1       839 1.10093E+04 3.34668E+05 3.29327E+04-3.26181E+04-2.68847E-09-1.94012E-09
 -1       840-3.37320E+03 3.18387E+05 5.25740E+04-1.60483E+04-2.84490E-09-7.84630E-09
 -1       856-6.41172E+04 7.77633E+03-2.04927E+04-4.04594E+02 1.77408E-09 4.45471E-09
 -1       857-7.25698E+04-9.12925E+03-1.41076E+04 5.17483E+03 1.35984E-09-1.26811E-08
 -1       858-6.74610E+04 1.09011E+03-5.31773E+03-4.27531E+02 1.23271E-09-8.98899E-09
 -1       859-6.87315E+04-1.27526E+03-3.20995E+03 5.21000E+03-1.22820E-09 2.73532E-08
 -1       860-6.79607E+04 1.52186E+02-1.34681E+03-4.39689E+02 7.54369E-10 2.86229E-09
 -1       861-6.81564E+04-1.74973E+02-7.44117E+02 5.22663E+03-3.94778E-10-5.34607E-09
 -1       862-6.80387E+04 2.03469E+01-3.15755E+02-4.44160E+02 4.62904E-10-2.69819E-09
 -1       863-6.80619E+04-1.59024E+01-1.29632E+02 5.22901E+03 2.77812E-09-3.91501E-09
 -1       864-6.80555E+04-3.31518E+00 1.28555E+01-4.42066E+02 5.62252E-10-8.35236E-09
 -1       865-6.80170E+04 4.83564E+01 1.74148E+02 5.21769E+03 3.03999E-10-2.18055E-08
 -1       866-6.80816E+04-4.41001E+01 3.67834E+02-4.32839E+02-9.48148E-11-1.15904E-08
 -1       867-6.78395E+04 3.65888E+02 9.16269E+02 5.19257E+03 2.19302E-10-4.92827E-09
 -1       868-6.82288E+04-3.15613E+02 1.52514E+03-4.16948E+02 4.47869E-10-9.78940E-09
 -1       869-6.67180E+04 2.62644E+03 4.06500E+03 5.15078E+03 1.24570E-09-1.90466E-08
 -1       870-6.91964E+04-2.24398E+03 5.89861E+03-3.91017E+02-1.40062E-09-9.94282E-09
 -1       871-5.02373E+03-1.57672E+04-1.70915E+04 1.14013E+05-1.85537E-09-7.52152E-10
 -1       872-1.97555E+03-1.96805E+04-7.09206E+03 1.47826E+05-4.48108E-09-1.41649E-08
 -1       873 1.78012E+02-1.78169E+04 6.79673E+02 1.13763E+05-2.38060E-09-1.27006E-08
 -1       874 2.75623E+03-1.55660E+04 8.95595E+03 1.47861E+05-5.22778E-09 4.24347E-09
 -1       875 6.03956E+03-1.99484E+04 2.00777E+04 1.13973E+05-1.98997E-09-7.26413E-09
 -1       876 2.64602E+05 4.49221E+04 1.37424E+04 1.06572E+05 1.53966E-09 9.82254E-10
 -1       877 2.65476E+05 4.78502E+04 7.33892E+03 1.10544E+05 4.85670E-10 1.90084E-10
 -1       878 2.65886E+05 4.34008E+04 3.07466E+03 1.07699E+05-3.64844E-09-5.46652E-09
 -1       879 2.63608E+05 4.59866E+04 1.53189E+03 1.10639E+05 6.77846E-09 8.79544E-09
 -1       880 2.65978E+05 4.33848E+04 7.13462E+02 1.07745E+05-8.36189E-09 1.00667E-08
 -1       881 2.63484E+05 4.59070E+04 3.80765E+02 1.10618E+05-2.06701E-08 2.16997E-08
 -1       882 2.65987E+05 4.33965E+04 2.43205E+02 1.07746E+05-6.58656E-09 1.23261E-08
 -1       883 2.63475E+05 4.59030E+04 2.60820E+02 1.10611E+05-2.05068E-09 1.31240E-08
 -1       884 2.65981E+05 4.33939E+04 4.14333E+02 1.07746E+05 1.03455E-10 4.92946E-10
 -1       885 2.63508E+05 4.59088E+04 8.32684E+02 1.10621E+05-2.32552E-09 1.60720E-08
 -1       886 2.65949E+05 4.33695E+04 1.67808E+03 1.07743E+05-4.32455E-09-6.46332E-09
 -1       887 2.63803E+05 4.61022E+04 3.66548E+03 1.10664E+05 3.67004E-09-1.12443E-08
 -1       888 2.65717E+05 4.34103E+04 7.38605E+03 1.07626E+05 2.52655E-09 4.10000E-09
 -1       889 2.68201E+05 5.06740E+04 1.76442E+04 1.10528E+05 1.13367E-09 1.30949E-08
 -1       890 2.62706E+05 4.69880E+04 3.30468E+04 1.04811E+05 2.65209E-09-4.09091E-09
 -1       891-1.15137E+02-1.47762E+05-1.79380E+03 2.57513E+04-5.01132E-10-7.76868E-09
 -1       892-2.10870E+02-1.48217E+05-1.93271E+03 3.90422E+04 1.08412E-09 2.49763E-08
 -1       893 4.24702E+00-1.47819E+05-2.74283E+03 2.57575E+04-3.52884E-10 1.63218E-08
 -1       894-1.41897E+03-1.49257E+05-5.68127E+03 3.88999E+04 1.07866E-09-1.46611E-09
 -1       895-1.11966E+03-1.46635E+05-1.00064E+04 2.58935E+04-2.13277E-10-4.46562E-10
 -1       956-3.37670E+05-4.80208E+03-1.19679E+04 2.54053E+04 2.08729E-09 5.60817E-09
 -1       957-3.40026E+05-1.65775E+03-6.14335E+03 3.05634E+04-2.33013E-09 6.61407E-09
 -1       958-3.38740E+05-1.71449E+02-2.76809E+03 2.52601E+04-3.78350E-10-4.99563E-09
 -1       959-3.38921E+05-7.17969E+01-1.41368E+03 3.07276E+04-1.28421E-09-2.53317E-09
 -1       960-3.38840E+05 3.11015E-02-6.89329E+02 2.52456E+04 1.40653E-09-7.88668E-09
 -1       961-3.38845E+05-9.22735E+00-3.65721E+02 3.07445E+04 4.56930E-09-1.19317E-08
 -1       962-3.38862E+05-2.75375E+00-2.09585E+02 2.52432E+04-2.37560E-09 8.76526E-09
 -1       963-3.38844E+05-6.55551E+00-1.68659E+02 3.07475E+04-3.20642E-09 1.82051E-08
 -1       964-3.38866E+05-1.04889E-01-2.05448E+02 2.52426E+04 5.75682E-10-2.76896E-09
 -1       965-3.38855E+05-3.58564E+00-3.55625E+02 3.07470E+04-1.25010E-09-1.28716E-08
 -1       966-3.38853E+05 7.90837E+00-6.68173E+02 2.52437E+04 2.81170E-09-1.03023E-09
 -1       967-3.38938E+05-5.87901E+01-1.37055E+03 3.07356E+04-3.57159E-09 5.46015E-09
 -1       968-3.38764E+05-1.53188E+02-2.68272E+03 2.52540E+04-5.27052E-09 2.50384E-09
 -1       969-3.40019E+05-1.59179E+03-5.95598E+03 3.06158E+04-1.13459E-08 8.63884E-09
 -1       970-3.37734E+05-4.63936E+03-1.16019E+04 2.53605E+04-5.25688E-09 6.32281E-09
 -1       971-3.12576E+05-1.58969E+03-8.68244E+03 1.43030E+04 2.79670E-09-6.83650E-09
 -1       972-3.14675E+05-1.15696E+03-4.72838E+03 1.98715E+04 3.00133E-10-4.28327E-09
 -1       973-3.13543E+05-3.69991E+01-2.11767E+03 1.41871E+04-1.08321E-09-9.56902E-09
 -1       974-3.13678E+05-4.67474E+01-1.09747E+03 2.00000E+04 1.87447E-09-2.05816E-08
 -1       975-3.13619E+05 4.45585E+00-5.48394E+02 1.41758E+04-4.55657E-10-2.38390E-09
 -1       976-3.13620E+05-5.85331E-01-3.16033E+02 2.00142E+04 2.82830E-09-1.11481E-08
 -1       977-3.13634E+05 4.84374E+00-2.28748E+02 1.41729E+04-4.64297E-10-2.33717E-09
 -1       978-3.13624E+05 4.97655E+00-2.66832E+02 2.00184E+04 2.25555E-09-6.26289E-09
 -1       979-3.13634E+05 1.23981E+01-4.27982E+02 1.41717E+04 7.97911E-10-7.55097E-09
 -1       980-3.13656E+05 7.71501E+00-8.25920E+02 2.00191E+04-4.65349E-10 8.02731E-09
 -1       981-3.13607E+05 3.30180E+01-1.59937E+03 1.41721E+04 2.16914E-09 3.34569E-09
 -1       982-3.13876E+05-1.10421E+02-3.30573E+03 2.00130E+04-1.14676E-09-2.58158E-09
 -1       983-3.13406E+05-6.93373E+01-6.42298E+03 1.41779E+04-1.05229E-09-6.45741E-11
 -1       984-3.16965E+05-3.46485E+03-1.43838E+04 1.99327E+04-4.85807E-09 1.86484E-08
 -1       985-3.10498E+05-4.76927E+03-2.64131E+04 1.42509E+04-3.49564E-09 6.68115E-09
 -3
    1PSTEP                        25          13           1          
  100CL  113 6.26953E-01         409                     0   13           1
 -4  DISP        4    1
 -5  D1          1    2    1    0
 -5  D2          1    2    2    0
 -5  D3          1    2    3    0
 -5  ALL         1    2    0    0    1ALL
 -1         1 1.71032E-03 0.00000E+00 0.00000E+00
 -1         2 1.60019E-03 1.36840E-28 2.64698E-23
 -1         3 2.93814E-04 6.68213E-27 0.00000E+00
 -1         5 1.60224E-04 6.80558E-27 2.48154E-24
 -1         8 1.69223E-03-5.59429E-07 0.00000E+00
 -1         9 1.65414E-03-4.87603E-06 0.00000E+00
 -1        10 2.67153E-04-3.39175E-06 0.00000E+00
 -1        12 1.61377E-04 7.39459E-07 0.00000E+00
 -1        15 1.67034E-03-6.14090E-07 0.00000E+00
 -1        16 1.67775E-03-5.87635E-06 0.00000E+00
 -1        17 1.84364E-04-7.52720E-06 0.00000E+00
 -1        18 1.63365E-04 2.47461E-05 0.00000E+00
 -1        19 1.64838E-04 1.47425E-06 0.00000E+00
 -1        20 1.64983E-04-2.28310E-06 0.00000E+00
 -1        21 1.64188E-04-9.23863E-06-3.30872E-24
 -1        24 2.84057E-05-1.11277E-05 0.00000E+00
 -1        25 1.70672E-04 2.49441E-05 0.00000E+00
 -1        26 1.71372E-04 2.04276E-06 0.00000E+00
 -1        27 1.69358E-04-5.57259E-06 0.00000E+00
 -1        28 1.69000E-04-9.82379E-06 0.00000E+00
 -1        32 0.00000E+00 0.00000E+00 0.00000E+00
 -1        33 1.76863E-04 2.73506E-06 0.00000E+00
 -1        34 1.74901E-04-5.61671E-06 0.00000E+00
 -1        35 1.73097E-04-1.01423E-05 0.00000E+00
 -1        51 1.70916E-03-1.03796E-07 0.00000E+00
 -1        52 1.70700E-03-1.93861E-07 0.00000E+00
 -1        53 1.70402E-03-2.82283E-07 0.00000E+00
 -1        54 1.70044E-03-3.71151E-07 0.00000E+00
 -1        55 1.69644E-03-4.61949E-07 4.96308E-24
 -1        56 1.70682E-03 5.04181E-08 0.00000E+00
 -1        57 1.70233E-03 2.37637E-06 5.29396E-23
 -1        58 1.69711E-03 6.62620E-06 0.00000E+00
 -1        59 1.69135E-03 1.22493E-05 0.00000E+00
 -1        60 1.68534E-03 1.85103E-05 0.00000E+00
 -1        61 1.67938E-03 2.46188E-05 0.00000E+00
 -1        62 1.67378E-03 2.98084E-05 0.00000E+00
 -1        63 1.66879E-03 3.33785E-05-5.29396E-23
 -1        64 1.66460E-03 3.48681E-05 0.00000E+00
 -1        65 1.66130E-03 3.39688E-05 0.00000E+00
 -1        66 1.65888E-03 3.07257E-05 1.05879E-22
 -1        67 1.65725E-03 2.53581E-05-5.29396E-23
 -1        68 1.65621E-03 1.83994E-05-1.05879E-22
 -1        69 1.65553E-03 1.05084E-05 5.29396E-23
 -1        70 1.65491E-03 2.46919E-06-5.29396E-23
 -1        86 1.60290E-03-7.72796E-07 0.00000E+00
 -1        87 1.61095E-03-1.57320E-06 1.32349E-23
 -1        88 1.62236E-03-2.40368E-06 2.64698E-23
 -1        89 1.63505E-03-3.24883E-06 1.32349E-23
 -1        90 1.64647E-03-4.07997E-06 0.00000E+00
 -1       121 2.93066E-04-5.52875E-07 1.32349E-23
 -1       122 2.90823E-04-1.10790E-06 0.00000E+00
 -1       123 2.87093E-04-1.66721E-06 0.00000E+00
 -1       124 2.81891E-04-2.23293E-06 6.61744E-24
 -1       125 2.75236E-04-2.80687E-06 0.00000E+00
 -1       191 1.60256E-04 1.23271E-07 1.65436E-24
 -1       192 1.60352E-04 2.46536E-07 0.00000E+00
 -1       193 1.60512E-04 3.69793E-07 2.48154E-24
 -1       194 1.60736E-04 4.93038E-07 1.24077E-24
 -1       195 1.61025E-04 6.16261E-07 8.27181E-25
 -1       251 1.69146E-03 1.87275E-05 0.00000E+00
 -1       252 1.68966E-03 6.88520E-05-6.61744E-24
 -1       253 1.68660E-03 1.40811E-04 1.32349E-23
 -1       254 1.68262E-03 2.25097E-04 0.00000E+00
 -1       255 1.67869E-03 3.08813E-04 0.00000E+00
 -1       256 1.67575E-03 3.79077E-04 0.00000E+00
 -1       257 1.67405E-03 4.26698E-04 0.00000E+00
 -1       258 1.67332E-03 4.43008E-04 0.00000E+00
 -1       259 1.67260E-03 4.27511E-04 0.00000E+00
 -1       260 1.67094E-03 3.80500E-04-6.61744E-24
 -1       261 1.66801E-03 3.10485E-04-1.32349E-23
 -1       262 1.66405E-03 2.26507E-04 0.00000E+00
 -1       263 1.66001E-03 1.41440E-04-1.32349E-23
 -1       264 1.65686E-03 6.81773E-05 0.00000E+00
 -1       265 1.65497E-03 1.63546E-05 2.64698E-23
 -1       266 1.68858E-03-5.76693E-07-3.30872E-24
 -1       267 1.68493E-03-5.84809E-07 0.00000E+00
 -1       268 1.68129E-03-5.93505E-07 8.27181E-25
 -1       269 1.67764E-03-6.00484E-07 2.06795E-25
 -1       270 1.67399E-03-6.07423E-07 2.06795E-25
 -1       271 1.68997E-03 2.82167E-06 1.32349E-23
 -1       272 1.68766E-03 6.21425E-06 0.00000E+00
 -1       273 1.68540E-03 9.50488E-06 0.00000E+00
 -1       274 1.68322E-03 1.25679E-05 0.00000E+00
 -1       275 1.68117E-03 1.52839E-05 0.00000E+00
 -1       276 1.67929E-03 1.75356E-05-1.32349E-23
 -1       277 1.67763E-03 1.92118E-05-2.64698E-23
 -1       278 1.67623E-03 2.02073E-05 0.00000E+00
 -1       279 1.67512E-03 2.04251E-05 0.00000E+00
 -1       280 1.67434E-03 1.97767E-05 0.00000E+00
 -1       281 1.67390E-03 1.81840E-05 2.64698E-23
 -1       282 1.67385E-03 1.55795E-05 0.00000E+00
 -1       283 1.67419E-03 1.19074E-05-2.64698E-23
 -1       284 1.67495E-03 7.12516E-06 1.32349E-23
 -1       285 1.67613E-03 1.20093E-06 2.64698E-23
 -1       301 1.65843E-03-5.06478E-06 0.00000E+00
 -1       302 1.66176E-03-5.22285E-06-3.30872E-24
 -1       303 1.66473E-03-5.37749E-06 0.00000E+00
 -1       304 1.66797E-03-5.53215E-06 0.00000E+00
 -1       305 1.67210E-03-5.69168E-06-2.64698E-23
 -1       306 1.68452E-03-1.20023E-04-1.05879E-22
 -1       307 1.74797E-03-4.41751E-04 5.29396E-23
 -1       308 1.81236E-03-9.18786E-04 0.00000E+00
 -1       309 1.86722E-03-1.47944E-03 5.29396E-23
 -1       310 1.92374E-03-2.02690E-03-1.05879E-22
 -1       311 1.99014E-03-2.46561E-03 0.00000E+00
 -1       312 2.04825E-03-2.73099E-03-1.05879E-22
 -1       313 2.06041E-03-2.78350E-03-5.29396E-23
 -1       314 1.98094E-03-2.62689E-03 0.00000E+00
 -1       315 1.78021E-03-2.29745E-03 5.29396E-23
 -1       316 1.46918E-03-1.85327E-03-1.05879E-22
 -1       317 1.08912E-03-1.35314E-03 0.00000E+00
 -1       318 7.15724E-04-8.58235E-04 0.00000E+00
 -1       319 4.22794E-04-4.30538E-04 0.00000E+00
 -1       320 2.44612E-04-1.28397E-04 0.00000E+00
 -1       336 2.57486E-04-4.03384E-06 1.32349E-23
 -1       337 2.46088E-04-4.69404E-06 6.61744E-24
 -1       338 2.33012E-04-5.37357E-06 0.00000E+00
 -1       339 2.18319E-04-6.07271E-06 0.00000E+00
 -1       340 2.02077E-04-6.79495E-06 0.00000E+00
 -1       406 1.61794E-04 8.62618E-07-8.27181E-25
 -1       407 1.62274E-04 9.85710E-07-1.65436E-24
 -1       408 1.62819E-04 1.10870E-06 1.65436E-24
 -1       409 1.63428E-04 1.23142E-06-1.24077E-24
 -1       410 1.64101E-04 1.35365E-06 0.00000E+00
 -1       521 1.70915E-03-1.29593E-04 1.05879E-22
 -1       522 1.77262E-03-4.70535E-04-5.29396E-23
 -1       523 1.83394E-03-9.74738E-04 0.00000E+00
 -1       524 1.88328E-03-1.56484E-03-5.29396E-23
 -1       525 1.93483E-03-2.14035E-03 1.05879E-22
 -1       526 1.99927E-03-2.60221E-03-5.29396E-23
 -1       527 2.05766E-03-2.88055E-03-1.05879E-22
 -1       528 2.06902E-03-2.93454E-03-5.29396E-23
 -1       529 1.98206E-03-2.76730E-03 1.05879E-22
 -1       530 1.76457E-03-2.42031E-03-5.29396E-23
 -1       531 1.42740E-03-1.95480E-03 1.05879E-22
 -1       532 1.01607E-03-1.43296E-03-5.29396E-23
 -1       533 6.11280E-04-9.15897E-04 0.00000E+00
 -1       534 2.91854E-04-4.65612E-04 5.29396E-23
 -1       535 9.65083E-05-1.44272E-04 0.00000E+00
 -1       536 1.83790E-04 2.17622E-05 0.00000E+00
 -1       537 1.82390E-04 7.26724E-05-3.30872E-24
 -1       538 1.80245E-04 1.37323E-04-3.30872E-24
 -1       539 1.77726E-04 2.07763E-04 0.00000E+00
 -1       540 1.75455E-04 2.74301E-04-3.30872E-24
 -1       541 1.73967E-04 3.27269E-04-1.65436E-24
 -1       542 1.73263E-04 3.60884E-04 3.30872E-24
 -1       543 1.73068E-04 3.69484E-04 0.00000E+00
 -1       544 1.72793E-04 3.53775E-04 3.30872E-24
 -1       545 1.71899E-04 3.14638E-04 1.65436E-24
 -1       546 1.70278E-04 2.59046E-04-3.30872E-24
 -1       547 1.68112E-04 1.94071E-04 1.65436E-24
 -1       548 1.65973E-04 1.29539E-04 0.00000E+00
 -1       549 1.64423E-04 7.52752E-05 0.00000E+00
 -1       550 1.63603E-04 3.81045E-05 0.00000E+00
 -1       551 1.62954E-04-8.02057E-06 0.00000E+00
 -1       552 1.38443E-04-8.57766E-06-3.30872E-24
 -1       553 1.11775E-04-9.18484E-06-1.28213E-23
 -1       554 8.39078E-05-9.82435E-06 3.30872E-24
 -1       555 5.58001E-05-1.04724E-05 2.64698E-23
 -1       556 1.78031E-04 8.72438E-06 0.00000E+00
 -1       557 1.72947E-04 2.18166E-05 0.00000E+00
 -1       558 1.68994E-04 3.20018E-05 0.00000E+00
 -1       559 1.66058E-04 3.95523E-05 0.00000E+00
 -1       560 1.64025E-04 4.47407E-05 0.00000E+00
 -1       561 1.62787E-04 4.78418E-05 0.00000E+00
 -1       562 1.62234E-04 4.91311E-05 0.00000E+00
 -1       563 1.62259E-04 4.88850E-05 0.00000E+00
 -1       564 1.62755E-04 4.73804E-05 0.00000E+00
 -1       565 1.63618E-04 4.48948E-05 0.00000E+00
 -1       566 1.64743E-04 4.17060E-05 6.61744E-24
 -1       567 1.66025E-04 3.80920E-05 0.00000E+00
 -1       568 1.67363E-04 3.43312E-05-4.13590E-25
 -1       569 1.68652E-04 3.07015E-05 0.00000E+00
 -1       570 1.69789E-04 2.74812E-05 0.00000E+00
 -1       571 1.63455E-04 2.32394E-05-8.27181E-25
 -1       572 1.63546E-04 2.16745E-05-1.24077E-24
 -1       573 1.63638E-04 2.00649E-05 3.30872E-24
 -1       574 1.63730E-04 1.84244E-05 0.00000E+00
 -1       575 1.63822E-04 1.67673E-05-3.30872E-24
 -1       576 1.63914E-04 1.51075E-05-4.96308E-24
 -1       577 1.64006E-04 1.34593E-05 3.30872E-24
 -1       578 1.64098E-04 1.18368E-05 0.00000E+00
 -1       579 1.64190E-04 1.02541E-05 0.00000E+00
 -1       580 1.64282E-04 8.72533E-06 0.00000E+00
 -1       581 1.64375E-04 7.26471E-06 0.00000E+00
 -1       582 1.64467E-04 5.88631E-06-3.30872E-24
 -1       583 1.64560E-04 4.60426E-06 0.00000E+00
 -1       584 1.64653E-04 3.43254E-06 0.00000E+00
 -1       585 1.64745E-04 2.38497E-06 0.00000E+00
 -1       586 1.64536E-04 2.47810E-05 0.00000E+00
 -1       587 1.65672E-04 2.48154E-05 2.06795E-25
 -1       588 1.66814E-04 2.48495E-05 0.00000E+00
 -1       589 1.68001E-04 2.48829E-05 0.00000E+00
 -1       590 1.69274E-04 2.49152E-05 0.00000E+00
 -1       591 1.63873E-04 2.33170E-05-1.03398E-25
 -1       592 1.64386E-04 2.18655E-05 0.00000E+00
 -1       593 1.64904E-04 2.03975E-05 0.00000E+00
 -1       594 1.65427E-04 1.89179E-05 0.00000E+00
 -1       595 1.65952E-04 1.74317E-05-8.27181E-25
 -1       596 1.66477E-04 1.59437E-05 0.00000E+00
 -1       597 1.67001E-04 1.44588E-05 8.27181E-25
 -1       598 1.67522E-04 1.29820E-05 0.00000E+00
 -1       599 1.68039E-04 1.15181E-05 0.00000E+00
 -1       600 1.68548E-04 1.00719E-05 0.00000E+00
 -1       601 1.69050E-04 8.64837E-06-8.27181E-25
 -1       602 1.69541E-04 7.25237E-06 0.00000E+00
 -1       603 1.70020E-04 5.88880E-06-2.06795E-25
 -1       604 1.70485E-04 4.56261E-06 7.10858E-26
 -1       605 1.70935E-04 3.27863E-06 0.00000E+00
 -1       606 1.64851E-04 7.74354E-07 3.30872E-24
 -1       607 1.64861E-04 1.63816E-07 0.00000E+00
 -1       608 1.64870E-04-3.62611E-07 0.00000E+00
 -1       609 1.64879E-04-8.10843E-07 0.00000E+00
 -1       610 1.64888E-04-1.18684E-06-3.30872E-24
 -1       611 1.64897E-04-1.49664E-06 0.00000E+00
 -1       612 1.64906E-04-1.74627E-06 0.00000E+00
 -1       613 1.64914E-04-1.94179E-06 0.00000E+00
 -1       614 1.64923E-04-2.08923E-06 0.00000E+00
 -1       615 1.64932E-04-2.19464E-06 0.00000E+00
 -1       616 1.64941E-04-2.26407E-06 0.00000E+00
 -1       617 1.64949E-04-2.30357E-06-4.13590E-25
 -1       618 1.64958E-04-2.31917E-06 0.00000E+00
 -1       619 1.64967E-04-2.31693E-06 0.00000E+00
 -1       620 1.64975E-04-2.30289E-06 0.00000E+00
 -1       621 1.65705E-04 1.56937E-06 1.65436E-24
 -1       622 1.66695E-04 1.66478E-06-8.27181E-25
 -1       623 1.67782E-04 1.76006E-06 1.65436E-24
 -1       624 1.68941E-04 1.85510E-06 0.00000E+00
 -1       625 1.70146E-04 1.94991E-06 0.00000E+00
 -1       626 1.65204E-04 8.07495E-07 0.00000E+00
 -1       627 1.65546E-04 2.08935E-07 0.00000E+00
 -1       628 1.65865E-04-3.29259E-07 0.00000E+00
 -1       629 1.66165E-04-8.15274E-07-1.65436E-24
 -1       630 1.66449E-04-1.25732E-06 0.00000E+00
 -1       631 1.66719E-04-1.66362E-06 1.65436E-24
 -1       632 1.66979E-04-2.04241E-06 0.00000E+00
 -1       633 1.67231E-04-2.40194E-06-1.65436E-24
 -1       634 1.67480E-04-2.75042E-06 0.00000E+00
 -1       635 1.67727E-04-3.09609E-06 0.00000E+00
 -1       636 1.67977E-04-3.44719E-06 3.30872E-24
 -1       637 1.68231E-04-3.81195E-06-1.65436E-24
 -1       638 1.68494E-04-4.19861E-06-1.65436E-24
 -1       639 1.68768E-04-4.61542E-06 1.65436E-24
 -1       640 1.69055E-04-5.07063E-06 1.65436E-24
 -1       656 1.65191E-04-2.81793E-06-6.61744E-24
 -1       657 1.65807E-04-3.37438E-06 0.00000E+00
 -1       658 1.66690E-04-3.92943E-06 0.00000E+00
 -1       659 1.67695E-04-4.48411E-06 0.00000E+00
 -1       660 1.68643E-04-5.04047E-06-6.61744E-24
 -1       661 1.65062E-04-2.30363E-06 0.00000E+00
 -1       662 1.65176E-04-2.40654E-06 8.27181E-25
 -1       663 1.65318E-04-2.58750E-06 1.65436E-24
 -1       664 1.65489E-04-2.84094E-06 0.00000E+00
 -1       665 1.65684E-04-3.16195E-06 0.00000E+00
 -1       666 1.65903E-04-3.54549E-06 0.00000E+00
 -1       667 1.66144E-04-3.98680E-06 1.65436E-24
 -1       668 1.66404E-04-4.48117E-06-8.27181E-25
 -1       669 1.66683E-04-5.02406E-06 1.65436E-24
 -1       670 1.66978E-04-5.61103E-06 0.00000E+00
 -1       671 1.67288E-04-6.23773E-06-1.65436E-24
 -1       672 1.67612E-04-6.89994E-06 0.00000E+00
 -1       673 1.67947E-04-7.59348E-06 0.00000E+00
 -1       674 1.68291E-04-8.31454E-06-8.27181E-25
 -1       675 1.68644E-04-9.05867E-06 0.00000E+00
 -1       676 1.64993E-04-9.33673E-06 0.00000E+00
 -1       677 1.65797E-04-9.43478E-06 1.65436E-24
 -1       678 1.66600E-04-9.53279E-06-3.30872E-24
 -1       679 1.67402E-04-9.63050E-06 0.00000E+00
 -1       680 1.68202E-04-9.72819E-06 0.00000E+00
 -1       771 1.81721E-05 1.15547E-05 0.00000E+00
 -1       772 9.53459E-06 3.01800E-05 2.64698E-23
 -1       773 2.41635E-06 4.49484E-05 5.29396E-23
 -1       774-3.28618E-06 5.60829E-05-2.64698E-23
 -1       775-7.67473E-06 6.38148E-05 5.29396E-23
 -1       776-1.08551E-05 6.83886E-05 0.00000E+00
 -1       777-1.29330E-05 7.00566E-05 5.29396E-23
 -1       778-1.40167E-05 6.90824E-05-2.64698E-23
 -1       779-1.42139E-05 6.57358E-05-5.29396E-23
 -1       780-1.36343E-05 6.02961E-05 0.00000E+00
 -1       781-1.23870E-05 5.30475E-05-5.29396E-23
 -1       782-1.05824E-05 4.42813E-05-2.64698E-23
 -1       783-8.33048E-06 3.42925E-05-5.29396E-23
 -1       784-5.74230E-06 2.33809E-05 0.00000E+00
 -1       785-2.92822E-06 1.18487E-05 5.29396E-23
 -1       786 1.70711E-04 2.32937E-05 5.16988E-26
 -1       787 1.70754E-04 2.16917E-05 0.00000E+00
 -1       788 1.70797E-04 2.01299E-05 0.00000E+00
 -1       789 1.70841E-04 1.86004E-05 0.00000E+00
 -1       790 1.70885E-04 1.70986E-05 0.00000E+00
 -1       791 1.70929E-04 1.56200E-05-8.27181E-25
 -1       792 1.70973E-04 1.41624E-05 1.65436E-24
 -1       793 1.71017E-04 1.27237E-05 0.00000E+00
 -1       794 1.71061E-04 1.13038E-05 0.00000E+00
 -1       795 1.71105E-04 9.90235E-06 0.00000E+00
 -1       796 1.71150E-04 8.52128E-06 0.00000E+00
 -1       797 1.71194E-04 7.16233E-06 8.27181E-25
 -1       798 1.71238E-04 5.82961E-06 1.65436E-24
 -1       799 1.71282E-04 4.52727E-06 0.00000E+00
 -1       800 1.71327E-04 3.26253E-06 0.00000E+00
 -1       801 1.33678E-04 2.22599E-05 0.00000E+00
 -1       802 2.14670E-05 1.41653E-05 2.64698E-23
 -1       803-7.62620E-05 7.30362E-06 0.00000E+00
 -1       804-7.11825E-05 5.00051E-06 0.00000E+00
 -1       805-2.40938E-05 2.12273E-06 0.00000E+00
 -1       806 1.71184E-04 2.32312E-05-1.65436E-24
 -1       807 1.71683E-04 2.15448E-05-8.27181E-25
 -1       808 1.72170E-04 1.98893E-05 0.00000E+00
 -1       809 1.72644E-04 1.82683E-05 1.65436E-24
 -1       810 1.73103E-04 1.66853E-05-3.30872E-24
 -1       811 1.73546E-04 1.51435E-05 1.65436E-24
 -1       812 1.73973E-04 1.36464E-05 0.00000E+00
 -1       813 1.74382E-04 1.21974E-05-8.27181E-25
 -1       814 1.74772E-04 1.07998E-05 1.65436E-24
 -1       815 1.75142E-04 9.45684E-06 0.00000E+00
 -1       816 1.75489E-04 8.17201E-06-1.65436E-24
 -1       817 1.75814E-04 6.94856E-06 0.00000E+00
 -1       818 1.76115E-04 5.78985E-06-3.30872E-24
 -1       819 1.76390E-04 4.69918E-06 0.00000E+00
 -1       820 1.76639E-04 3.67983E-06-3.30872E-24
 -1       821 1.71252E-04 6.30360E-07 8.27181E-25
 -1       822 1.71125E-04-1.20931E-06 1.65436E-24
 -1       823 1.70998E-04-3.27439E-06 0.00000E+00
 -1       824 1.70870E-04-5.36171E-06 0.00000E+00
 -1       825 1.70742E-04-7.26265E-06-3.30872E-24
 -1       826 1.70614E-04-8.76958E-06 0.00000E+00
 -1       827 1.70487E-04-9.77570E-06 0.00000E+00
 -1       828 1.70360E-04-1.01771E-05 0.00000E+00
 -1       829 1.70234E-04-1.00244E-05 0.00000E+00
 -1       830 1.70107E-04-9.37160E-06-1.65436E-24
 -1       831 1.69980E-04-8.40049E-06-3.30872E-24
 -1       832 1.69853E-04-7.29470E-06 0.00000E+00
 -1       833 1.69726E-04-6.27236E-06 3.30872E-24
 -1       834 1.69601E-04-5.55108E-06 0.00000E+00
 -1       835 1.69476E-04-5.27172E-06 0.00000E+00
 -1       836 1.72481E-04 2.15771E-06 0.00000E+00
 -1       837 1.73471E-04 2.27545E-06 0.00000E+00
 -1       838 1.74373E-04 2.39309E-06-3.30872E-24
 -1       839 1.75218E-04 2.51004E-06-8.27181E-25
 -1       840 1.76037E-04 2.62682E-06 8.27181E-25
 -1       856 1.69339E-04-6.09564E-06 0.00000E+00
 -1       857 1.69317E-04-6.49029E-06 2.58494E-26
 -1       858 1.69295E-04-6.77654E-06 0.00000E+00
 -1       859 1.69273E-04-6.97446E-06 0.00000E+00
 -1       860 1.69250E-04-7.10424E-06 8.27181E-25
 -1       861 1.69228E-04-7.18608E-06 4.13590E-25
 -1       862 1.69205E-04-7.24025E-06 0.00000E+00
 -1       863 1.69183E-04-7.28703E-06 0.00000E+00
 -1       864 1.69160E-04-7.34672E-06 0.00000E+00
 -1       865 1.69138E-04-7.43960E-06 0.00000E+00
 -1       866 1.69115E-04-7.58591E-06 0.00000E+00
 -1       867 1.69092E-04-7.80587E-06-4.13590E-25
 -1       868 1.69070E-04-8.11962E-06 8.27181E-25
 -1       869 1.69047E-04-8.54724E-06-4.13590E-25
 -1       870 1.69024E-04-9.10867E-06 0.00000E+00
 -1       871 1.70147E-04-5.57591E-06-8.27181E-25
 -1       872 1.71073E-04-5.58229E-06 0.00000E+00
 -1       873 1.72074E-04-5.58927E-06-4.13590E-25
 -1       874 1.73087E-04-5.59695E-06-4.13590E-25
 -1       875 1.74050E-04-5.60518E-06-8.27181E-25
 -1       876 1.69673E-04-6.08235E-06 0.00000E+00
 -1       877 1.69968E-04-6.52915E-06 1.65436E-24
 -1       878 1.70242E-04-6.92053E-06 0.00000E+00
 -1       879 1.70498E-04-7.26347E-06-1.65436E-24
 -1       880 1.70738E-04-7.56501E-06 0.00000E+00
 -1       881 1.70966E-04-7.83210E-06 1.65436E-24
 -1       882 1.71183E-04-8.07173E-06-3.30872E-24
 -1       883 1.71393E-04-8.29085E-06-1.65436E-24
 -1       884 1.71598E-04-8.49641E-06-3.30872E-24
 -1       885 1.71800E-04-8.69535E-06-1.65436E-24
 -1       886 1.72002E-04-8.89462E-06 0.00000E+00
 -1       887 1.72207E-04-9.10119E-06-1.65436E-24
 -1       888 1.72417E-04-9.32203E-06-3.30872E-24
 -1       889 1.72635E-04-9.56424E-06-1.65436E-24
 -1       890 1.72862E-04-9.83473E-06 0.00000E+00
 -1       891 1.69818E-04-9.87722E-06 1.65436E-24
 -1       892 1.70615E-04-9.93082E-06 0.00000E+00
 -1       893 1.71365E-04-9.98434E-06-1.65436E-24
 -1       894 1.72045E-04-1.00377E-05 4.13590E-25
 -1       895 1.72630E-04-1.00908E-05 4.13590E-25
 -1       956 1.76742E-04 1.94750E-06 1.65436E-24
 -1       957 1.76619E-04 1.24185E-06 8.27181E-25
 -1       958 1.76497E-04 6.08625E-07-3.30872E-24
 -1       959 1.76374E-04 3.78091E-08 0.00000E+00
 -1       960 1.76251E-04-4.80651E-07 3.30872E-24
 -1       961 1.76128E-04-9.56845E-07 0.00000E+00
 -1       962 1.76004E-04-1.40087E-06 3.30872E-24
 -1       963 1.75881E-04-1.82283E-06 0.00000E+00
 -1       964 1.75758E-04-2.23285E-06-3.30872E-24
 -1       965 1.75635E-04-2.64102E-06 1.65436E-24
 -1       966 1.75512E-04-3.05747E-06 0.00000E+00
 -1       967 1.75389E-04-3.49230E-06 1.65436E-24
 -1       968 1.75267E-04-3.95562E-06-3.30872E-24
 -1       969 1.75144E-04-4.45749E-06 0.00000E+00
 -1       970 1.75021E-04-5.00797E-06 0.00000E+00
 -1       971 1.74789E-04-6.21935E-06-1.65436E-24
 -1       972 1.74676E-04-6.73082E-06 0.00000E+00
 -1       973 1.74563E-04-7.16116E-06 3.30872E-24
 -1       974 1.74449E-04-7.52083E-06 0.00000E+00
 -1       975 1.74336E-04-7.82028E-06 3.30872E-24
 -1       976 1.74223E-04-8.07000E-06 0.00000E+00
 -1       977 1.74109E-04-8.28047E-06-3.30872E-24
 -1       978 1.73996E-04-8.46221E-06-1.65436E-24
 -1       979 1.73882E-04-8.62571E-06 0.00000E+00
 -1       980 1.73769E-04-8.78149E-06 1.65436E-24
 -1       981 1.73656E-04-8.94007E-06-3.30872E-24
 -1       982 1.73543E-04-9.11194E-06-1.65436E-24
 -1       983 1.73429E-04-9.30763E-06-3.30872E-24
 -1       984 1.73317E-04-9.53763E-06-1.65436E-24
 -1       985 1.73205E-04-9.81242E-06 0.00000E+00
 -3
    1PSTEP                        26          13           1          
  100CL  113 6.26953E-01         409                     0   13           1
 -4  STRESS      6    1
 -5  SXX         1    4    1    1
 -5  SYY         1    4    2    2
 -5  SZZ         1    4    3    3
 -5  SXY         1    4    1    2
 -5  SYZ         1    4    2    3
 -5  SZX         1    4    3    1
 -1         1-4.11424E+06-1.56021E+06-9.03807E+05-1.57457E+06 3.20142E-10-1.18453E-08
 -1         2 1.12405E+03-2.16604E+06 5.11987E+03 5.06514E+04 9.33653E-10 2.54092E-07
 -1         3-1.02834E+03-1.57290E+06 3.87546E+02-1.85889E+03-4.08590E-10-2.26828E-08
 -1         5-2.99125E+01 3.52834E+05 9.08816E+00-7.02412E-01-2.35123E-10 1.63291E-08
 -1         8-7.01250E+05-2.36692E+05-6.09404E+04-2.95772E+05-4.31100E-10 5.28016E-08
 -1         9 5.87336E+06-7.07938E+05 1.01203E+06-1.00487E+06 2.68919E-08-6.98492E-08
 -1        10-1.94066E+03-1.63899E+06-3.54653E+03-1.25617E+04-1.13014E-08-2.03251E-08
 -1        12-2.62404E+01 3.52853E+05 2.96132E+02-4.96643E+00-4.18041E-10 4.99676E-09
 -1        15 1.35112E+03 7.42517E+02 4.36749E+03 2.13168E+00-3.36541E-10-5.56872E-08
 -1        16 1.34873E+07-2.31441E+05 1.92424E+06-1.19655E+06 1.75399E-08-3.45754E-08
 -1        17 4.79523E+06 3.27000E+06 1.29355E+06 3.26942E+06 3.49246E-08 3.52389E-08
 -1        18 8.64297E+04 1.84440E+04-6.89219E+03-1.05683E+05 1.32216E-08 5.18685E-09
 -1        19 1.12515E+05 1.29832E+05-8.87427E+02 2.08422E+04 1.09594E-09-8.10869E-09
 -1        20-6.99401E+04-5.29103E+05-1.18333E+05 2.63606E+04-4.74605E-10 4.05453E-09
 -1        21-4.41731E+01-2.79934E+05-8.80282E+02 1.54470E+02-3.63152E-08-3.39705E-08
 -1        24 7.73960E+06 6.60588E+06 2.26499E+06 6.10605E+06-9.52568E-08-4.67214E-08
 -1        25 3.24986E+04-7.21641E+04 1.30240E+04-4.45904E+05 1.04110E-09 1.94101E-08
 -1        26-4.92259E+04 8.42859E+04-2.25414E+04-7.47682E+02 7.52334E-10 1.08981E-08
 -1        27-7.28595E+04-2.86697E+05-1.05502E+05 6.39995E+04 4.58507E-09-9.14861E-09
 -1        28 2.12099E+04-7.99881E+04 1.59519E+04 2.06045E+04-1.32388E-09-9.06383E-10
 -1        32-1.58234E+06-2.84658E+06-1.57346E+05 1.01644E+05-3.65617E-08-7.97002E-09
 -1        33-1.66040E+05 8.48577E+04 2.98105E+04-3.67882E+04-1.68014E-09 1.61787E-08
 -1        34-2.08374E+05-2.26357E+04 6.13593E+02 6.90373E+04-2.24742E-09-2.39334E-09
 -1        35-2.17732E+04-3.17360E+04-1.26035E+03 4.87262E+04-7.80688E-10-1.87307E-08
 -1        51 4.56488E+04-2.29546E+05 9.95554E+04-6.74707E+05 8.73115E-11-6.44650E-09
 -1        52 1.69467E+04-2.14200E+05 5.43420E+04-7.86623E+05-8.73115E-11-1.00466E-07
 -1        53 5.26519E+03-2.29424E+05 3.16408E+04-6.72237E+05-5.45697E-11 2.44763E-08
 -1        54 1.24361E+04-2.26130E+05 3.27647E+04-7.89203E+05 6.18456E-10-7.20211E-08
 -1        55 2.59023E+04-2.36180E+05 4.77538E+04-6.71870E+05 8.00355E-10 7.36873E-08
 -1        56-7.78093E+06-8.83512E+05-6.68698E+05-3.04342E+06-1.84809E-09-8.34698E-08
 -1        57-8.17830E+06-1.35621E+06-4.50338E+05-2.86463E+06-1.06193E-08 2.31666E-08
 -1        58-7.88217E+06-1.12746E+06-1.57092E+05-3.03700E+06 5.80985E-09 3.21816E-08
 -1        59-8.06738E+06-1.06476E+06-9.35208E+04-2.86912E+06 1.79080E-09-1.17457E-07
 -1        60-7.89117E+06-1.16671E+06-3.64515E+04-3.04226E+06-5.95082E-09-5.93536E-08
 -1        61-8.04064E+06-1.03350E+06-2.05403E+04-2.87930E+06-8.09803E-09-6.73363E-08
 -1        62-7.90812E+06-1.15793E+06-1.02406E+04-3.02682E+06-3.05408E-09-2.01744E-07
 -1        63-7.99058E+06-1.07294E+06-7.47116E+03-2.92720E+06 1.67347E-10-1.81131E-07
 -1        64-7.93924E+06-1.12844E+06-9.95409E+03-2.99296E+06 9.17862E-09-6.13436E-08
 -1        65-7.92813E+06-1.14034E+06-1.76568E+04-2.99866E+06-2.25555E-09 8.39749E-08
 -1        66-7.97001E+06-1.09106E+06-3.28398E+04-2.95490E+06-2.10093E-09 1.32703E-07
 -1        67-7.89458E+06-1.22733E+06-8.19688E+04-3.05995E+06-1.92185E-08 1.09678E-07
 -1        68-7.97490E+06-1.04119E+06-1.37994E+05-2.93270E+06-2.34650E-09 1.14029E-07
 -1        69-8.00546E+06-1.47544E+06-3.96292E+05-3.05109E+06 2.71393E-09-1.62392E-07
 -1        70-7.86271E+06-8.48275E+05-5.87358E+05-2.96302E+06 1.68511E-08-4.70027E-08
 -1        86-1.21559E+03-2.20694E+06-3.31345E+03-2.53200E+04-8.97700E-09 7.22971E-08
 -1        87 1.24764E+03-2.18119E+06 1.91499E+03 8.18800E+04-1.54926E-08 6.25747E-08
 -1        88-3.05834E+01-2.19332E+06-1.19435E+03-5.65543E+04-1.51181E-08 4.50713E-08
 -1        89 1.96119E+02-2.18985E+06-1.85299E+03 1.01398E+05-2.21389E-08-1.39341E-07
 -1        90 5.31606E+02-2.19911E+06-6.16222E+03-4.48479E+04-9.71886E-09 7.91647E-08
 -1       121-1.42275E+03-1.57637E+06-2.55574E+02 9.23845E+02 1.28486E-09-1.26529E-08
 -1       122-8.62060E+02-1.57292E+06 7.69210E+02-3.71596E+03-4.61236E-09 6.66478E-09
 -1       123-1.46354E+03-1.57649E+06 5.86382E+02 2.75883E+03 3.86524E-09 1.55669E-08
 -1       124 7.30925E+02-1.57233E+06 3.04731E+03-7.77370E+03-8.61064E-09-2.50293E-09
 -1       125-2.32202E+03-1.57737E+06 3.94691E+03 4.95612E+03 5.53155E-09 6.58838E-09
 -1       191-3.16936E+01 3.52859E+05 9.68167E+00 3.58568E-01-3.39702E-10-2.67755E-09
 -1       192-3.07629E+01 3.52835E+05 1.92992E+01-2.43809E+00-4.87969E-10-1.57888E-09
 -1       193-3.39463E+01 3.52859E+05 3.47419E+01 2.12552E+00-6.52145E-10-1.20581E-08
 -1       194-3.34955E+01 3.52837E+05 7.31362E+01-5.60058E+00-3.25758E-10-8.46194E-09
 -1       195-3.82728E+01 3.52856E+05 1.41903E+02 3.57673E+00-9.65969E-10-5.95537E-09
 -1       251-2.02167E+06-3.22116E+04-1.88637E+05-1.31776E+05 5.09317E-11 9.16698E-08
 -1       252-1.11734E+06 4.05844E+04 5.00187E+04 4.06416E+05-4.12456E-10 8.80300E-08
 -1       253-1.62386E+06-1.41671E+04-3.29292E+04-2.71116E+05-7.74071E-09-2.34560E-07
 -1       254-1.54190E+06 5.86389E+04 8.60949E+03 5.39059E+05 4.75188E-08-1.46030E-07
 -1       255-1.63912E+06-1.60047E+04-1.89063E+04-2.68113E+05-1.97906E-08 1.43359E-07
 -1       256-1.07961E+06 4.75053E+04 1.02600E+05 3.93732E+05-2.48838E-08 3.00761E-07
 -1       257-2.04090E+06-3.98900E+04-1.01576E+05-1.21937E+05 3.49974E-09 4.17115E-08
 -1       258-6.26914E+05 3.58578E+04 1.88350E+05 4.89791E+03-2.08902E-08-5.91554E-08
 -1       259-2.04731E+06-4.05343E+04-1.01320E+05 1.18359E+05-1.83136E-08-5.43273E-08
 -1       260-1.06427E+06 4.90396E+04 1.10083E+05-3.86983E+05-1.15251E-08 1.40539E-07
 -1       261-1.64658E+06-1.80805E+04-1.18620E+04 2.67420E+05 6.51371E-08 7.23091E-08
 -1       262-1.53664E+06 6.92793E+04 3.00722E+04-5.37701E+05-2.87014E-08-2.58151E-08
 -1       263-1.62156E+06-2.27655E+04 2.65978E+03 2.73036E+05 3.05990E-08 3.75876E-08
 -1       264-1.10254E+06 1.06869E+05 1.40502E+05-4.12237E+05 1.14440E-07-4.99876E-08
 -1       265-2.04018E+06-8.84798E+04-5.46129E+04 1.38320E+05 4.14511E-08 1.14560E-08
 -1       266-2.44598E+04-1.14374E+04 5.73895E+04-4.56113E+01-2.91038E-11 9.80859E-08
 -1       267 2.83557E+04 1.33305E+04 4.05621E+04 5.26263E+01 7.63976E-11-1.22178E-08
 -1       268-3.80244E+03-1.88797E+03 1.50768E+04-6.70551E+00-8.00355E-11-1.93966E-08
 -1       269 4.48957E+03 2.25950E+03 9.79964E+03 7.81091E+00-1.97815E-10 4.82059E-08
 -1       270-6.73889E+02-3.71253E+02 4.73043E+03-1.06000E+00-2.43404E-10 3.62029E-08
 -1       271-2.22301E+06-2.69307E+05-1.65842E+05-8.53464E+05 3.14976E-08-1.42536E-08
 -1       272-2.33177E+06-3.42200E+05-1.06781E+05-7.97465E+05-6.48174E-08 8.90741E-08
 -1       273-2.25303E+06-3.11996E+05-3.91354E+04-8.47421E+05 3.91856E-09 7.89896E-08
 -1       274-2.29626E+06-2.90075E+05-2.19641E+04-8.06799E+05-4.79042E-09-4.65898E-08
 -1       275-2.25747E+06-3.16273E+05-9.11972E+03-8.45947E+05-9.57380E-09-1.31905E-07
 -1       276-2.28962E+06-2.86099E+05-4.79494E+03-8.09747E+05-1.73732E-08-3.82515E-08
 -1       277-2.25922E+06-3.15664E+05-2.40211E+03-8.44406E+05 2.29302E-08 6.37119E-08
 -1       278-2.28567E+06-2.88543E+05-1.53320E+03-8.12985E+05-2.08138E-08-9.14322E-08
 -1       279-2.26094E+06-3.14074E+05-1.72715E+03-8.42395E+05-2.87037E-08-7.25076E-08
 -1       280-2.28163E+06-2.92738E+05-2.68906E+03-8.17046E+05-5.99903E-09-4.78437E-08
 -1       281-2.26278E+06-3.11796E+05-5.20031E+03-8.39998E+05 1.38880E-08-6.08561E-08
 -1       282-2.27908E+06-3.00551E+05-1.18241E+04-8.21502E+05 5.16502E-09-8.81955E-08
 -1       283-2.26313E+06-3.06815E+05-2.14654E+04-8.37549E+05-1.64400E-08-3.14722E-08
 -1       284-2.29236E+06-3.34382E+05-5.77091E+04-8.22718E+05-3.21415E-08-5.24722E-08
 -1       285-2.24968E+06-2.81022E+05-9.01705E+04-8.37569E+05-1.50940E-08 4.27644E-08
 -1       301 1.62225E+04-4.24037E+05 1.73519E+05-7.53109E+05 1.28057E-09-1.32750E-07
 -1       302 1.76467E+04-3.80010E+05 1.06664E+05-1.10113E+06-1.71713E-09-3.17068E-08
 -1       303-4.28017E+03-4.09148E+05 6.75272E+04-7.51252E+05 4.43833E-10 4.38795E-08
 -1       304 7.51557E+03-3.83050E+05 8.05462E+04-1.10046E+06 3.78350E-10-9.68248E-08
 -1       305 3.66265E+03-4.11235E+05 1.15054E+05-7.53663E+05 1.26056E-09-2.19225E-07
 -1       306-2.17937E+07-4.22981E+06-5.68121E+06-1.61181E+06-6.64731E-08-1.24041E-07
 -1       307 1.60665E+07 4.32645E+05 3.56899E+06-9.97818E+06-6.40764E-07-1.31942E-07
 -1       308-8.11414E+06-2.09864E+05-4.87238E+05 3.38198E+06-1.34169E-07 2.10384E-07
 -1       309-3.34529E+06 3.04081E+06 1.22192E+06-1.56388E+07 3.14838E-07 8.68313E-08
 -1       310-9.91573E+06-4.83164E+05-9.16313E+05 3.18310E+06 1.62399E-07 1.25510E-08
 -1       311 2.01995E+07-8.01509E+05 4.27333E+06-7.49498E+06 4.91971E-07 1.36482E-07
 -1       312-2.22779E+07-4.21815E+06-5.17970E+06-3.18430E+06 4.61936E-07 1.25758E-07
 -1       313 2.86606E+07 6.83350E+06 6.77514E+06 1.25621E+07-8.23929E-08 4.90545E-08
 -1       314-1.47638E+07-1.04563E+07-4.83660E+06-8.98977E+06 2.25613E-07-1.40630E-07
 -1       315-1.28945E+06 1.72955E+07 3.74828E+06 8.63148E+06-2.70935E-07 4.06581E-08
 -1       316-9.70401E+05-7.58718E+06-4.38278E+05-4.14041E+06-7.48449E-07-3.89176E-07
 -1       317-1.58853E+07 1.55094E+07 1.19682E+06-3.06372E+06 5.36078E-07-5.16815E-07
 -1       318-1.86772E+06-8.22894E+06-9.83974E+05-4.58362E+06-7.29575E-07 5.55592E-08
 -1       319 1.86652E+06 1.79592E+07 4.01476E+06 9.96180E+06-1.19901E-07 1.65805E-07
 -1       320-1.64813E+07-1.08197E+07-6.16242E+06-8.84416E+06 1.66241E-07-4.16912E-08
 -1       336-5.08054E+01-1.70648E+06-1.27034E+04 7.50912E+03-2.21426E-08 2.81580E-09
 -1       337-4.86007E+03-1.70725E+06-1.63051E+04-1.81656E+04-4.06442E-08-1.34678E-08
 -1       338 6.14088E+02-1.70613E+06-2.48105E+04 1.05095E+04-2.85372E-08 2.58296E-10
 -1       339-2.63582E+04-1.72182E+06-5.61266E+04-2.40174E+04-5.19503E-08 1.68075E-08
 -1       340 1.76261E+04-1.69344E+06-8.80630E+04 1.32674E+04-3.45790E-08 3.25344E-08
 -1       406-4.77037E+00 3.52843E+05 5.83420E+02 1.54139E+00-1.18825E-09-5.53337E-09
 -1       407 1.77741E+02 3.52956E+05 1.24254E+03 1.56146E+01-2.83180E-10-1.82954E-08
 -1       408 6.12580E+02 3.52753E+05 2.48004E+03-1.75490E+01-1.52465E-09-9.61518E-09
 -1       409 2.65900E+03 3.53748E+05 5.58565E+03 1.81837E+02-2.62446E-10 7.13680E-09
 -1       410 7.68666E+03 3.52044E+05 1.14018E+04-1.73987E+02-1.94177E-09 4.89308E-10
 -1       521-2.36353E+07-5.23372E+06-6.74758E+06-1.44114E+06-9.68575E-08 3.21306E-08
 -1       522 1.69004E+07 7.26119E+05 3.68161E+06-1.26024E+07-4.39992E-07-2.24798E-07
 -1       523-9.13514E+06-4.25423E+05-5.29039E+05 3.82720E+06 1.06520E-08-2.24099E-07
 -1       524-5.85772E+06 4.79248E+06 1.35759E+06-1.85227E+07 8.00181E-07-2.44829E-07
 -1       525-1.11087E+07-8.23207E+05-1.02892E+06 3.61076E+06 3.00992E-07-1.12865E-07
 -1       526 2.21581E+07-8.87885E+05 4.58304E+06-9.66261E+06 2.18395E-07-9.41072E-08
 -1       527-2.42513E+07-5.35714E+06-6.05065E+06-3.18236E+06 2.40048E-07 2.14350E-08
 -1       528 3.18758E+07 7.51027E+06 7.20404E+06 1.44022E+07 8.26549E-09-9.08040E-08
 -1       529-1.60154E+07-1.21747E+07-5.63825E+06-9.45832E+06-5.79748E-08 4.60423E-08
 -1       530-3.15060E+06 2.06204E+07 4.04168E+06 9.03477E+06-1.40848E-07 2.35770E-07
 -1       531-1.16023E+06-8.78686E+06-4.65346E+05-4.52120E+06-6.83591E-07 2.42202E-07
 -1       532-1.90983E+07 1.79488E+07 1.35486E+06-5.49179E+06 3.75250E-07-6.22422E-07
 -1       533-2.03776E+06-9.43048E+06-1.04880E+06-4.91312E+06-1.08092E-07-8.41857E-07
 -1       534 1.32864E+05 2.13529E+07 4.27406E+06 1.05479E+07-1.13956E-07 6.04516E-07
 -1       535-1.77873E+07-1.26355E+07-7.11602E+06-9.28776E+06 5.28526E-08 3.76604E-07
 -1       536-6.17370E+05-4.18044E+04-1.51662E+04-4.27650E+04-4.23597E-09 6.69097E-08
 -1       537-1.41448E+05 4.15043E+04 7.38979E+04 1.00525E+05-9.23712E-08 8.87167E-08
 -1       538-3.90059E+05 1.21457E+03 7.63241E+03-6.01381E+04 3.23022E-08 8.38872E-08
 -1       539-2.99737E+05 3.10064E+03 2.07725E+04 1.14350E+05 1.36613E-07 8.04944E-08
 -1       540-4.62946E+05-2.17694E+02-1.38575E+04-5.69108E+04-2.91097E-08 9.00893E-08
 -1       541 9.94958E+01 1.22686E+04 7.72846E+04 7.79791E+04-6.94836E-08 7.48706E-08
 -1       542-6.81842E+05-1.46332E+04-6.05718E+04-2.32422E+04 4.35662E-08 4.70175E-08
 -1       543 1.85971E+05 1.97642E+04 1.13780E+05-1.13882E+04 5.38193E-09 1.78902E-08
 -1       544-6.43856E+05-1.18034E+04-5.37563E+04 3.20473E+04 3.71219E-08-2.63749E-08
 -1       545-8.79166E+04 6.41849E+03 5.64115E+04-9.23016E+04 2.19950E-08-6.43504E-08
 -1       546-4.15268E+05 4.74405E+03-9.16230E+03 5.74701E+04 2.62810E-08-9.03517E-08
 -1       547-3.14155E+05-4.63154E+03 5.39649E+03-1.16903E+05-8.36892E-08-9.83213E-08
 -1       548-4.23655E+05 4.25853E+03-2.03231E+04 5.70649E+04-1.01309E-07-8.86907E-08
 -1       549-7.15434E+04 5.65043E+03 3.56636E+04-8.96408E+04-5.19785E-08-5.61968E-08
 -1       550-6.51365E+05-1.09462E+04-1.04962E+05 2.97708E+04 1.28784E-09-2.99297E-08
 -1       551 3.36720E+04-7.67988E+05-1.20160E+03-1.19153E+06 3.00715E-08-4.86034E-09
 -1       552 7.98472E+04-8.04274E+05 1.86719E+04-1.72199E+06 6.45960E-08 3.79223E-08
 -1       553 5.97310E+04-8.03908E+05 3.81357E+04-1.18562E+06 3.62779E-08 2.85654E-08
 -1       554 1.16119E+05-8.15374E+05 8.88328E+04-1.72390E+06 6.71862E-08 2.47182E-08
 -1       555 8.71353E+04-8.26182E+05 1.59244E+05-1.18593E+06 3.49974E-08-1.83936E-08
 -1       556 1.86246E+05-3.26525E+05 4.63866E+04-3.64818E+05-1.61817E-08 7.13044E-09
 -1       557 3.03138E+05-4.20152E+05 2.61131E+04-4.68075E+05-2.18279E-10 2.73212E-09
 -1       558 1.73915E+05-3.25561E+05 7.77926E+03-3.64409E+05-1.87138E-08 9.62609E-09
 -1       559 2.81591E+05-4.24022E+05 4.78923E+03-4.83645E+05 1.64146E-08 5.46061E-09
 -1       560 1.62655E+05-3.18454E+05 3.31787E+02-3.72380E+05 5.00586E-09 5.03860E-09
 -1       561 2.67155E+05-4.18455E+05 7.94761E+02-4.93350E+05-1.62981E-09-1.30422E-09
 -1       562 1.53769E+05-3.12887E+05-5.85370E+02-3.78785E+05-4.84579E-09 2.33558E-09
 -1       563 2.56638E+05-4.13870E+05 1.59225E+02-5.00184E+05-8.55653E-09 6.85077E-09
 -1       564 1.47539E+05-3.08992E+05-3.04686E+02-3.83191E+05 1.57161E-09-8.42192E-10
 -1       565 2.49859E+05-4.10919E+05 7.78626E+01-5.04504E+05 7.01039E-09 6.88397E-09
 -1       566 1.44060E+05-3.06785E+05-1.39044E+02-3.85627E+05 2.48838E-09-1.79716E-08
 -1       567 2.46832E+05-4.09599E+05-2.52230E+02-5.06312E+05 1.96414E-08-2.59024E-09
 -1       568 1.43403E+05-3.06391E+05-8.43111E+02-3.86182E+05-3.67436E-10-1.69530E-09
 -1       569 2.46339E+05-4.09572E+05-2.12954E+03-5.04685E+05-1.91358E-09 5.09317E-10
 -1       570 1.46530E+05-3.09230E+05-4.71553E+03-3.85353E+05 6.65023E-09-9.99535E-10
 -1       571 2.66184E+05 9.66281E+03 1.39613E+04-8.14407E+04 3.08864E-09 5.00313E-09
 -1       572 2.68226E+05 3.54933E+03 6.84147E+03-8.93454E+04 2.76668E-09-6.03086E-09
 -1       573 2.66998E+05 1.03217E+03 3.03976E+03-8.12810E+04-9.73159E-11 8.38372E-09
 -1       574 2.67213E+05 5.34328E+02 1.52400E+03-8.95418E+04-3.09501E-09 1.42818E-08
 -1       575 2.67088E+05 2.87987E+02 7.19110E+02-8.12594E+04-4.15355E-10 1.04064E-08
 -1       576 2.67084E+05 2.86225E+02 3.67765E+02-8.95680E+04-8.42078E-10 4.07272E-09
 -1       577 2.67118E+05 2.37974E+02 1.83362E+02-8.12564E+04-7.02130E-10 4.86762E-09
 -1       578 2.67100E+05 2.57733E+02 1.05122E+02-8.95715E+04-4.13092E-09-7.63794E-09
 -1       579 2.67169E+05 2.13424E+02 7.17344E+01-8.12561E+04 3.31602E-09-2.20571E-08
 -1       580 2.67172E+05 2.22671E+02 8.15671E+01-8.95672E+04-9.21136E-09-7.63976E-11
 -1       581 2.67250E+05 1.73589E+02 1.23221E+02-8.12612E+04 3.60706E-09 8.44011E-09
 -1       582 2.67302E+05 2.03916E+02 2.48571E+02-8.95146E+04 4.57476E-10-1.15742E-08
 -1       583 2.67348E+05 2.27265E+02 4.78942E+02-8.13091E+04-2.25555E-10-1.04446E-08
 -1       584 2.67601E+05 6.14400E+02 1.08145E+03-8.91112E+04 1.86537E-09-3.86217E-09
 -1       585 2.67342E+05 1.53967E+03 2.19282E+03-8.16643E+04-1.85537E-10-1.72331E-08
 -1       586-3.19133E+03 1.00520E+05-3.13629E+03-2.32609E+05-5.68798E-09-4.55316E-09
 -1       587-1.06978E+03 1.00202E+05 4.43814E+02-2.56016E+05-2.51384E-09-6.41558E-09
 -1       588 5.60444E+02 1.00102E+05 4.17350E+03-2.32489E+05-9.02219E-10 4.83305E-09
 -1       589 4.82022E+03 1.02297E+05 1.10573E+04-2.55778E+05-6.20275E-09 1.24419E-09
 -1       590 1.51793E+04 9.88965E+04 2.32864E+04-2.32888E+05-3.74257E-09 1.36570E-08
 -1       591-6.38530E+04-1.43953E+04-1.99703E+04-2.81493E+04-2.57501E-09-2.32740E-09
 -1       592-6.72151E+04-1.78112E+04-1.08174E+04-3.16616E+04-5.80866E-09 6.61544E-09
 -1       593-6.58524E+04-1.29439E+04-4.50284E+03-2.96115E+04-1.78744E-09-5.17434E-09
 -1       594-6.44541E+04-1.48847E+04-2.24571E+03-3.17708E+04-2.67323E-09-7.52436E-10
 -1       595-6.60049E+04-1.29389E+04-1.03118E+03-2.96780E+04-4.04782E-10 8.22844E-09
 -1       596-6.42654E+04-1.47509E+04-5.24314E+02-3.17487E+04 2.91428E-09 1.00983E-08
 -1       597-6.60241E+04-1.29525E+04-2.85730E+02-2.96805E+04-9.76002E-11-9.56140E-09
 -1       598-6.42468E+04-1.47457E+04-2.30110E+02-3.17425E+04-2.66346E-09-1.08126E-08
 -1       599-6.60229E+04-1.29529E+04-2.94456E+02-2.96801E+04 6.29484E-09 6.38170E-09
 -1       600-6.42656E+04-1.47517E+04-5.47418E+02-3.17470E+04-3.43789E-10-8.88588E-09
 -1       601-6.60005E+04-1.29398E+04-1.08015E+03-2.96769E+04 3.10388E-09-1.39496E-08
 -1       602-6.44633E+04-1.48911E+04-2.35418E+03-3.17667E+04-2.51839E-09-1.58416E-08
 -1       603-6.58382E+04-1.29477E+04-4.72116E+03-2.96078E+04 1.23100E-09 1.35942E-08
 -1       604-6.73736E+04-1.79421E+04-1.13412E+04-3.16302E+04 1.59622E-09-2.53021E-09
 -1       605-6.37239E+04-1.44852E+04-2.09375E+04-2.80919E+04 3.45779E-09 1.78825E-08
 -1       606 2.70372E+04-1.30028E+04-2.33276E+04 2.49728E+04 2.32831E-09 3.57841E-09
 -1       607 2.30495E+04-4.23715E+03-1.16167E+04 2.80530E+04-3.72893E-10 5.34874E-09
 -1       608 2.53191E+04-7.55495E+02-5.20089E+03 2.47883E+04-4.12911E-10 1.13801E-08
 -1       609 2.48802E+04-2.47428E+02-2.62719E+03 2.82745E+04 3.60524E-09 1.46920E-08
 -1       610 2.51210E+04-2.34966E+01-1.25383E+03 2.47669E+04 3.15049E-09 1.32754E-08
 -1       611 2.50488E+04-1.97577E+01-6.32159E+02 2.82986E+04-6.55291E-10 1.28930E-08
 -1       612 2.50747E+04-8.82643E+00-3.00907E+02 2.47647E+04-2.27828E-09 1.80858E-08
 -1       613 2.50557E+04-1.39837E+01-1.35145E+02 2.83014E+04 6.61203E-10-4.06317E-09
 -1       614 2.50517E+04-1.28436E+01-3.26284E+01 2.47640E+04 3.01952E-09 6.24141E-09
 -1       615 2.50480E+04-1.10256E+01 5.45267E+01 2.83018E+04 1.14778E-09 2.10541E-08
 -1       616 2.50339E+04-8.68419E+00 1.65428E+02 2.47643E+04 2.72848E-12 1.06481E-08
 -1       617 2.50657E+04 2.55441E+01 3.78271E+02 2.83013E+04-1.51954E-09-6.44354E-09
 -1       618 2.49994E+04 1.01375E+02 7.62722E+02 2.47645E+04-1.88948E-09-1.13898E-08
 -1       619 2.53336E+04 6.16108E+02 1.71296E+03 2.83006E+04-6.94968E-10 1.61049E-09
 -1       620 2.47453E+04 1.91073E+03 3.44303E+03 2.47649E+04-1.95655E-10 1.10890E-08
 -1       621 4.05236E+02 2.74556E+05 3.33080E+03 3.13796E+04 6.22094E-10 1.61035E-08
 -1       622 5.21562E+02 2.75345E+05 3.00437E+03 4.55870E+04 7.89441E-10 2.83399E-09
 -1       623 8.19303E+01 2.74733E+05 3.67630E+03 3.12355E+04 7.91147E-10-2.07087E-08
 -1       624 1.82972E+03 2.76479E+05 7.17907E+03 4.57303E+04 8.89969E-10-3.58077E-08
 -1       625 1.80936E+03 2.73314E+05 1.25710E+04 3.12326E+04 9.69521E-10-7.71615E-09
 -1       626 2.39479E+05 5.85066E+04 4.88923E+03 1.19006E+05 7.64612E-09 1.09558E-08
 -1       627 2.37138E+05 5.99680E+04 2.35607E+03 1.23226E+05 3.73211E-09-7.32143E-09
 -1       628 2.39609E+05 5.62587E+04 9.96141E+02 1.19823E+05-6.48470E-10 1.99152E-08
 -1       629 2.36516E+05 5.93331E+04 4.87601E+02 1.23468E+05-1.81535E-09 3.08723E-08
 -1       630 2.39621E+05 5.61509E+04 2.25933E+02 1.19855E+05-3.14412E-09-4.05942E-09
 -1       631 2.36448E+05 5.93106E+04 1.21285E+02 1.23470E+05-6.40284E-10 1.01108E-08
 -1       632 2.39616E+05 5.61559E+04 7.92946E+01 1.19850E+05 2.17688E-09 1.10538E-09
 -1       633 2.36437E+05 5.93135E+04 8.75244E+01 1.23465E+05 1.03284E-09-1.08525E-09
 -1       634 2.39610E+05 5.61544E+04 1.40724E+02 1.19848E+05-1.94384E-08 2.49952E-09
 -1       635 2.36449E+05 5.93128E+04 2.84337E+02 1.23468E+05-3.59364E-08 7.89464E-09
 -1       636 2.39600E+05 5.61500E+04 5.73993E+02 1.19847E+05-1.88674E-08 6.30052E-09
 -1       637 2.36572E+05 5.94024E+04 1.26178E+03 1.23467E+05-5.14126E-09-4.06249E-09
 -1       638 2.39554E+05 5.64292E+04 2.59255E+03 1.19720E+05-6.29325E-09 2.80443E-09
 -1       639 2.37933E+05 6.12962E+04 6.13383E+03 1.23065E+05-3.20892E-09 4.11248E-08
 -1       640 2.39368E+05 6.20823E+04 1.27288E+04 1.17334E+05-8.25867E-09 1.15119E-09
 -1       656 6.17468E+04-1.57672E+06-1.49055E+05-1.73118E+03 5.09317E-11-1.14935E-09
 -1       657-8.16685E+04-1.64405E+06-1.23444E+05 6.12470E+03-2.10093E-10-1.87480E-08
 -1       658 1.96662E+04-1.59586E+06-7.59788E+04-3.58218E+03 3.99268E-10-1.41181E-08
 -1       659-8.81816E+04-1.64715E+06-1.32002E+05 7.59216E+03-9.13133E-10 1.57570E-08
 -1       660 6.82452E+04-1.57364E+06-1.63769E+05-3.19863E+03-1.52068E-09-4.35199E-09
 -1       661 1.61871E+05 1.71350E+04 1.66454E+04 6.32861E+04 3.25599E-10 6.16274E-09
 -1       662 1.71109E+05 2.96314E+04 1.12174E+04 5.97489E+04-2.56767E-09-6.57610E-09
 -1       663 1.65139E+05 2.24758E+04 3.92335E+03 6.23383E+04 1.09935E-09-1.97579E-08
 -1       664 1.67320E+05 2.33846E+04 2.34664E+03 6.09057E+04-4.53224E-09-1.04598E-08
 -1       665 1.65634E+05 2.32063E+04 9.25734E+02 6.21950E+04 3.07637E-10-4.29776E-09
 -1       666 1.66736E+05 2.25483E+04 5.41378E+02 6.10920E+04 3.30908E-09 8.62839E-09
 -1       667 1.65720E+05 2.32902E+04 2.87190E+02 6.21599E+04-1.08045E-09 1.27430E-08
 -1       668 1.66642E+05 2.24868E+04 2.91769E+02 6.11431E+04-3.06031E-10-4.16321E-09
 -1       669 1.65727E+05 2.32660E+04 3.94316E+02 6.21443E+04-2.72365E-10-1.14264E-09
 -1       670 1.66738E+05 2.27000E+04 8.57976E+02 6.11456E+04-7.70468E-09-4.07680E-09
 -1       671 1.65623E+05 2.30814E+04 1.52318E+03 6.21555E+04 2.08415E-09-8.34547E-09
 -1       672 1.67626E+05 2.41819E+04 3.89685E+03 6.09307E+04 2.18951E-09-1.94091E-08
 -1       673 1.64844E+05 2.18216E+04 6.53043E+03 6.23448E+04 9.10291E-10 7.18046E-10
 -1       674 1.73842E+05 3.46729E+04 1.86756E+04 5.91039E+04 6.71093E-10-1.54287E-08
 -1       675 1.59447E+05 1.28841E+04 2.77211E+04 6.38720E+04-2.79670E-09-7.83621E-09
 -1       676 2.28865E+01-2.79861E+05-1.06097E+03-7.72370E+01 8.93806E-10-8.36165E-10
 -1       677-2.81390E+02-2.80117E+05-1.94174E+03 1.54360E+02 4.52465E-09-3.55656E-09
 -1       678 1.88145E+02-2.79678E+05-3.43252E+03-7.70719E+01 6.69388E-10 1.93084E-08
 -1       679-3.43324E+03-2.82189E+05-8.15417E+03 1.53730E+02 5.38921E-09-1.01708E-08
 -1       680 2.04929E+03-2.77790E+05-1.31417E+04-7.57478E+01 2.01908E-10-1.60248E-09
 -1       771-2.92084E+06-6.73285E+05-1.27706E+05-1.36861E+06-3.26254E-08-2.43599E-08
 -1       772-2.85513E+06-7.50204E+05-6.60325E+04-1.45727E+06-2.68192E-08 1.01354E-08
 -1       773-2.94533E+06-6.54048E+05-3.32229E+04-1.37882E+06-1.58325E-08 1.13359E-08
 -1       774-2.84646E+06-7.36437E+05-1.49118E+04-1.47695E+06 1.97761E-08-5.16593E-10
 -1       775-2.95761E+06-6.45371E+05-1.08566E+04-1.38360E+06-9.72068E-09-2.69210E-09
 -1       776-2.85494E+06-7.34560E+05-4.10679E+03-1.49144E+06 3.91447E-09 5.83532E-09
 -1       777-2.96813E+06-6.37736E+05-4.68745E+03-1.38781E+06 9.02219E-09 1.28784E-09
 -1       778-2.86385E+06-7.32859E+05-1.34054E+03-1.50384E+06 5.41331E-09 5.49699E-09
 -1       779-2.97709E+06-6.31120E+05-2.30850E+03-1.39142E+06-8.57108E-09-7.21411E-09
 -1       780-2.87167E+06-7.31232E+05-3.87150E+02-1.51392E+06-2.02999E-09-2.17551E-09
 -1       781-2.98417E+06-6.25816E+05-8.90013E+02-1.39423E+06-2.07365E-08 1.67347E-10
 -1       782-2.87767E+06-7.29837E+05 3.16709E+02-1.52135E+06-2.88783E-08-5.58884E-09
 -1       783-2.98914E+06-6.22152E+05 4.93832E+02-1.39621E+06-8.33097E-09-1.69221E-08
 -1       784-2.88096E+06-7.28361E+05 2.05190E+03-1.52592E+06-1.52941E-08 2.27692E-09
 -1       785-2.99205E+06-6.19984E+05 3.61951E+03-1.39748E+06-3.20833E-08 6.75755E-09
 -1       786 1.24634E+05-9.48261E+03 2.19382E+04-2.45271E+02 2.96176E-09 1.21454E-08
 -1       787 1.34148E+05 1.09783E+04 1.55205E+04-7.09289E+01 8.52364E-09-7.52698E-09
 -1       788 1.28302E+05-1.48617E+03 5.67617E+03-2.13733E+02 4.29006E-09 1.29164E-08
 -1       789 1.29874E+05 1.71978E+03 3.56370E+03-1.20172E+02 1.62130E-10 3.29970E-09
 -1       790 1.28908E+05-2.31638E+02 1.44379E+03-1.96040E+02-2.86629E-09-1.30657E-08
 -1       791 1.29166E+05 2.67796E+02 8.35660E+02-1.50632E+02-6.38666E-09 2.09464E-08
 -1       792 1.29011E+05-3.52742E+01 3.57639E+02-1.83274E+02-3.04456E-09-8.80458E-09
 -1       793 1.29045E+05 3.85761E+01 1.86021E+02-1.74667E+02 6.93898E-11-1.93176E-08
 -1       794 1.29030E+05-2.56320E+00 6.38719E+01-1.72004E+02 2.63526E-09-8.10008E-09
 -1       795 1.29015E+05-1.35954E+01-1.44347E+01-1.98175E+02-4.59631E-09 1.57266E-08
 -1       796 1.29041E+05 1.68690E+01-8.62343E+01-1.59766E+02 2.71291E-09-2.97337E-09
 -1       797 1.28958E+05-1.28370E+02-2.56756E+02-2.26227E+02 1.34524E-09 9.74477E-10
 -1       798 1.29087E+05 1.12124E+02-4.22512E+02-1.43952E+02 1.41212E-09-2.90896E-10
 -1       799 1.28635E+05-8.27119E+02-1.16721E+03-2.65009E+02 4.36096E-09-1.29203E-08
 -1       800 1.29363E+05 7.15043E+02-1.65320E+03-1.20984E+02 1.43979E-10 9.83619E-09
 -1       801-5.80929E+04-7.75533E+06-1.01923E+06 8.96471E+05 7.54662E-08-4.20223E-08
 -1       802 3.99743E+05 2.44075E+06 1.30027E+06-1.05690E+06 2.08602E-07-2.60438E-08
 -1       803-3.30276E+05-1.02403E+07-1.20437E+06 5.83192E+05 6.58947E-08 1.33714E-08
 -1       804 1.50122E+05 1.82444E+04 9.09947E+05 4.94985E+05-8.88031E-08-7.34843E-08
 -1       805 1.41751E+05-5.34779E+06-1.84243E+05-6.51931E+05-3.66672E-08-5.19049E-08
 -1       806-2.86415E+05-5.49142E+04-2.10515E+04-1.12910E+05 6.34827E-10 1.54132E-08
 -1       807-2.88155E+05-5.13943E+04-1.03423E+04-1.17918E+05 8.86098E-09-7.95853E-09
 -1       808-2.86986E+05-4.73346E+04-4.38760E+03-1.16505E+05-1.61208E-09-4.01087E-09
 -1       809-2.85984E+05-4.84850E+04-2.14545E+03-1.18169E+05 1.93040E-09 6.18411E-09
 -1       810-2.87073E+05-4.70706E+04-9.83334E+02-1.16664E+05 5.50381E-09-1.34787E-08
 -1       811-2.85817E+05-4.83677E+04-4.88993E+02-1.18136E+05-9.47921E-10-8.26640E-09
 -1       812-2.87087E+05-4.70929E+04-2.47227E+02-1.16664E+05-8.56653E-09-9.19317E-09
 -1       813-2.85794E+05-4.83694E+04-1.60605E+02-1.18120E+05-4.36376E-09 5.36807E-09
 -1       814-2.87082E+05-4.71013E+04-1.58956E+02-1.16661E+05-1.76897E-09 1.95578E-08
 -1       815-2.85798E+05-4.83712E+04-2.56102E+02-1.18114E+05-4.19459E-09 3.59014E-08
 -1       816-2.87064E+05-4.70998E+04-4.85213E+02-1.16658E+05-1.30785E-09 1.19344E-08
 -1       817-2.85882E+05-4.84172E+04-1.04157E+03-1.18104E+05-1.68266E-08 2.20741E-08
 -1       818-2.87002E+05-4.72459E+04-2.12428E+03-1.16589E+05-7.00948E-09 7.90396E-09
 -1       819-2.87045E+05-4.97015E+04-4.99870E+03-1.17832E+05-2.90993E-09 1.01409E-09
 -1       820-2.86605E+05-5.10186E+04-1.01739E+04-1.14973E+05-4.00723E-09 5.16161E-09
 -1       821-3.53495E+05 1.94895E+04-4.51160E+04 1.13018E+03 8.20764E-09 1.57488E-08
 -1       822-3.72877E+05-2.25638E+04-3.18968E+04-2.11568E+03 1.46193E-09 7.23367E-09
 -1       823-3.60942E+05 3.05852E+03-1.16784E+04 1.50743E+03-5.91403E-09-4.52064E-09
 -1       824-3.64108E+05-3.53582E+03-7.33970E+03-2.17639E+03 2.88724E-10-5.20276E-09
 -1       825-3.62261E+05 4.76257E+02-3.03347E+03 1.19091E+03 8.43527E-09 1.31532E-08
 -1       826-3.62475E+05-5.55818E+02-1.77897E+03-1.01527E+03 1.01737E-08-1.60821E-09
 -1       827-3.62569E+05 7.67203E+01-9.79737E+02 3.46273E+02 4.77127E-09 1.72514E-09
 -1       828-3.62224E+05-1.64444E+02-7.83024E+02 7.63703E+02-1.13630E-09 1.65132E-08
 -1       829-3.62511E+05 8.41216E+01-9.89959E+02-5.88088E+02 2.06750E-09 4.25780E-09
 -1       830-3.62612E+05-5.86144E+02-1.86885E+03 2.23476E+03-1.18195E-10-1.38036E-08
 -1       831-3.62185E+05 5.01889E+02-3.13407E+03-1.12481E+03-2.33732E-09-4.99415E-09
 -1       832-3.64196E+05-3.67987E+03-7.63064E+03 2.63071E+03-2.97947E-09 5.32850E-10
 -1       833-3.60930E+05 3.17735E+03-1.21443E+04-9.84049E+02-1.95971E-09 1.62700E-08
 -1       834-3.73162E+05-2.34449E+04-3.31211E+04 1.72963E+03-1.25311E-09 7.05222E-09
 -1       835-3.53219E+05 2.02484E+04-4.68985E+04-2.23701E+02 4.89594E-09 6.35191E-09
 -1       836-1.26968E+03 3.38440E+05 2.08216E+04-1.61805E+04-4.40923E-09 6.75118E-09
 -1       837 4.46931E+03 3.44947E+05 1.76840E+04-3.28402E+04-4.86796E-09 8.03539E-09
 -1       838-4.97425E+02 3.40256E+05 1.81092E+04-1.61118E+04-3.96221E-09-1.60821E-09
 -1       839 1.14634E+04 3.50157E+05 3.43471E+04-3.28878E+04-4.08727E-09 9.23274E-09
 -1       840-3.52288E+03 3.33176E+05 5.48100E+04-1.61360E+04-3.73257E-09 5.09169E-09
 -1       856-6.06537E+04 7.86889E+03-2.07365E+04-4.01380E+02-2.33683E-10 3.91992E-09
 -1       857-6.92038E+04-9.24021E+03-1.42753E+04 5.32726E+03 3.06477E-09 1.46786E-08
 -1       858-6.40372E+04 1.10322E+03-5.38088E+03-4.24812E+02-1.17865E-09-3.10570E-09
 -1       859-6.53203E+04-1.29274E+03-3.24777E+03 5.36288E+03 2.54985E-10 2.30193E-08
 -1       860-6.45428E+04 1.54165E+02-1.36220E+03-4.36855E+02-2.46337E-09 1.22085E-08
 -1       861-6.47386E+04-1.79239E+02-7.51612E+02 5.37934E+03 2.09802E-10-1.71707E-08
 -1       862-6.46217E+04 2.06937E+01-3.16921E+02-4.41263E+02-2.04409E-09 2.24290E-08
 -1       863-6.46425E+04-1.76227E+01-1.25629E+02 5.38175E+03-9.17641E-10 6.80527E-09
 -1       864-6.46392E+04-3.80937E+00 2.33630E+01-4.39269E+02 6.09660E-10 8.69790E-09
 -1       865-6.45942E+04 5.20272E+01 1.99269E+02 5.37078E+03 3.35604E-10 3.73092E-08
 -1       866-6.46680E+04-4.90949E+01 4.13346E+02-4.30301E+02 9.87200E-10 1.07791E-08
 -1       867-6.43966E+04 4.06698E+02 1.02500E+03 5.34638E+03-5.77359E-10-1.58327E-08
 -1       868-6.48323E+04-3.52429E+02 1.70503E+03-4.14862E+02 1.57780E-09-6.49879E-09
 -1       869-6.31443E+04 2.93300E+03 4.54279E+03 5.30585E+03 4.02702E-09-8.49604E-09
 -1       870-6.59134E+04-2.50729E+03 6.59216E+03-3.89723E+02-1.04785E-09 1.99634E-08
 -1       871-5.18976E+03-1.74983E+04-1.78572E+04 1.19234E+05-2.87764E-09 2.43926E-09
 -1       872-1.98832E+03-2.16065E+04-7.43231E+03 1.54598E+05-6.31189E-09-1.07580E-08
 -1       873 2.42430E+02-1.96405E+04 6.53504E+02 1.18972E+05-3.28419E-09 5.36238E-09
 -1       874 2.92261E+03-1.73350E+04 9.22465E+03 1.54632E+05-7.51697E-09 1.46085E-08
 -1       875 6.29253E+03-2.18370E+04 2.07223E+04 1.19192E+05-3.03589E-09 8.50559E-09
 -1       876 2.74018E+05 4.64154E+04 1.41844E+04 1.10239E+05 4.29804E-09-2.08847E-08
 -1       877 2.74931E+05 4.94268E+04 7.57497E+03 1.14330E+05 4.70686E-09 2.40834E-09
 -1       878 2.75343E+05 4.48449E+04 3.17355E+03 1.11403E+05-3.09228E-09-1.09708E-09
 -1       879 2.73003E+05 4.75031E+04 1.58119E+03 1.14427E+05 3.07000E-09 2.27642E-08
 -1       880 2.75439E+05 4.48284E+04 7.36448E+02 1.11450E+05 2.29761E-09 6.54842E-09
 -1       881 2.72875E+05 4.74209E+04 3.93117E+02 1.14405E+05-7.16580E-09-1.37300E-08
 -1       882 2.75448E+05 4.48407E+04 2.51233E+02 1.11452E+05-7.28960E-10-3.85032E-09
 -1       883 2.72866E+05 4.74167E+04 2.69658E+02 1.14399E+05-5.36602E-11 3.72473E-08
 -1       884 2.75442E+05 4.48379E+04 4.28578E+02 1.11452E+05-2.42164E-09-8.12832E-09
 -1       885 2.72900E+05 4.74227E+04 8.61440E+02 1.14409E+05 1.52471E-09-1.47838E-08
 -1       886 2.75408E+05 4.48128E+04 1.73608E+03 1.11448E+05-4.28443E-10 1.30126E-09
 -1       887 2.73205E+05 4.76228E+04 3.79221E+03 1.14453E+05 5.33493E-09 1.52938E-08
 -1       888 2.75169E+05 4.48550E+04 7.64141E+03 1.11327E+05 2.54516E-10-5.18412E-09
 -1       889 2.77755E+05 5.23530E+04 1.82541E+04 1.14313E+05-3.10474E-09-5.02814E-09
 -1       890 2.72052E+05 4.85574E+04 3.41893E+04 1.08416E+05-4.21642E-09-1.89175E-09
 -1       891-1.07915E+02-1.52635E+05-1.85933E+03 2.62362E+04-3.93811E-10 1.24373E-10
 -1       892-2.01100E+02-1.53114E+05-2.00115E+03 3.97964E+04 1.52386E-09 8.65043E-09
 -1       893 1.58766E+01-1.52695E+05-2.83773E+03 2.62428E+04-8.22411E-10 5.77165E-09
 -1       894-1.45022E+03-1.54188E+05-5.87618E+03 3.96507E+04 1.29103E-09-1.20144E-08
 -1       895-1.14662E+03-1.51471E+05-1.03491E+04 2.63824E+04-1.97474E-10-2.73531E-08
 -1       956-3.50395E+05-5.00806E+03-1.24461E+04 2.71178E+04 3.28600E-09-7.75981E-09
 -1       957-3.52842E+05-1.74000E+03-6.38870E+03 3.26124E+04-3.99268E-10-1.43909E-08
 -1       958-3.51509E+05-1.91355E+02-2.87873E+03 2.69653E+04-2.45109E-09 4.77030E-09
 -1       959-3.51696E+05-8.96612E+01-1.47010E+03 3.27865E+04 5.76620E-10 1.18205E-08
 -1       960-3.51615E+05-1.20517E+01-7.16858E+02 2.69499E+04 1.53250E-09-1.51699E-08
 -1       961-3.51618E+05-2.38067E+01-3.80242E+02 3.28045E+04 6.66751E-09-1.32716E-08
 -1       962-3.51639E+05-1.43913E+01-2.17833E+02 2.69474E+04 8.75434E-09 2.27487E-09
 -1       963-3.51617E+05-2.06757E+01-1.75146E+02 3.28077E+04-1.72815E-09 2.31034E-09
 -1       964-3.51643E+05-1.15176E+01-2.13219E+02 2.69467E+04-5.24324E-09 8.79186E-09
 -1       965-3.51629E+05-1.76830E+01-3.68970E+02 3.28072E+04-3.24002E-09-3.95630E-09
 -1       966-3.51629E+05-3.50799E+00-6.93248E+02 2.69479E+04 6.08543E-09-5.05429E-09
 -1       967-3.51714E+05-7.54887E+01-1.42194E+03 3.27949E+04-1.99179E-10-4.10841E-09
 -1       968-3.51535E+05-1.71378E+02-2.78341E+03 2.69590E+04 4.20368E-09 5.20134E-09
 -1       969-3.52834E+05-1.66684E+03-6.17939E+03 3.26662E+04 4.04725E-10 8.58904E-09
 -1       970-3.50465E+05-4.82680E+03-1.20373E+04 2.70721E+04-4.55702E-09 4.01542E-09
 -1       971-3.23209E+05-1.63471E+03-8.89171E+03 1.46552E+04 3.00133E-09-4.33096E-09
 -1       972-3.25356E+05-1.19397E+03-4.84234E+03 2.03331E+04 3.97631E-09-2.02367E-08
 -1       973-3.24199E+05-4.44230E+01-2.16878E+03 1.45375E+04 1.54250E-09-1.21233E-08
 -1       974-3.24335E+05-5.69103E+01-1.12404E+03 2.04645E+04 9.57016E-10-2.02738E-09
 -1       975-3.24277E+05-1.82783E+00-5.61877E+02 1.45258E+04-1.44064E-09-5.01041E-09
 -1       976-3.24276E+05-9.51909E+00-3.24173E+02 2.04792E+04 1.17757E-09-3.03430E-08
 -1       977-3.24293E+05-1.32231E+00-2.35303E+02 1.45228E+04 6.77574E-11-1.37655E-08
 -1       978-3.24280E+05-3.73718E+00-2.75383E+02 2.04836E+04-5.14456E-09-7.71024E-09
 -1       979-3.24293E+05 6.53257E+00-4.42480E+02 1.45215E+04-6.70695E-10-2.71143E-09
 -1       980-3.24313E+05-8.93004E-01-8.54388E+02 2.04845E+04 4.07809E-10-1.86241E-08
 -1       981-3.24265E+05 2.78708E+01-1.65476E+03 1.45219E+04 2.09752E-10-1.69647E-08
 -1       982-3.24541E+05-1.23137E+02-3.42036E+03 2.04782E+04-2.62014E-09-1.10851E-08
 -1       983-3.24057E+05-7.80531E+01-6.64577E+03 1.45278E+04-8.48104E-11-5.81304E-09
 -1       984-3.27737E+05-3.59396E+03-1.48828E+04 2.03961E+04-1.71326E-09-6.03984E-09
 -1       985-3.21048E+05-4.94102E+03-2.73295E+04 1.46006E+04-7.23048E-11-1.14051E-08
 -3
    1PSTEP                        27          14           1          
  100CL  114 6.53320E-01         409                     0   14           1
 -4  DISP        4    1
 -5  D1          1    2    1    0
 -5  D2          1    2    2    0
 -5  D3          1    2    3    0
 -5  ALL         1    2    0    0    1ALL
 -1         1 2.36880E-03 0.00000E+00 0.00000E+00
 -1         2 1.58001E-03-4.96550E-28 0.00000E+00
 -1         3 3.28853E-04-4.39909E-27 0.00000E+00
 -1         5 1.73533E-04-3.22053E-27 1.24077E-24
 -1         8 2.35364E-03-4.75499E-07 0.00000E+00
 -1         9 2.32457E-03-6.17740E-05 0.00000E+00
 -1        10 2.98521E-04-3.50649E-06 0.00000E+00
 -1        12 1.75141E-04 7.88675E-07-5.16988E-25
 -1        15 2.33546E-03-5.15871E-07-2.06795E-25
 -1        16 2.36320E-03-6.31389E-05 0.00000E+00
 -1        17 2.04472E-04-7.90439E-06 0.00000E+00
 -1        18 1.78409E-04 3.11345E-05 0.00000E+00
 -1        19 1.79967E-04 1.57158E-06 0.00000E+00
 -1        20 1.80110E-04-7.21272E-06 0.00000E+00
 -1        21 1.79248E-04-1.97544E-05 0.00000E+00
 -1        24 3.01076E-05-1.20219E-05 0.00000E+00
 -1        25 1.87999E-04 3.13519E-05 0.00000E+00
 -1        26 1.88694E-04 2.17694E-06 0.00000E+00
 -1        27 1.86549E-04-1.06926E-05 0.00000E+00
 -1        28 1.86217E-04-2.03662E-05 0.00000E+00
 -1        32 0.00000E+00 0.00000E+00 0.00000E+00
 -1        33 1.96396E-04 2.91305E-06 0.00000E+00
 -1        34 1.94324E-04-1.07446E-05 0.00000E+00
 -1        35 1.92428E-04-2.07015E-05 0.00000E+00
 -1        51 2.36782E-03-9.32810E-08 0.00000E+00
 -1        52 2.36600E-03-1.70365E-07 0.00000E+00
 -1        53 2.36350E-03-2.44895E-07 0.00000E+00
 -1        54 2.36049E-03-3.19066E-07 0.00000E+00
 -1        55 2.35715E-03-3.94523E-07 2.89513E-24
 -1        56 2.36429E-03 1.39188E-06 0.00000E+00
 -1        57 2.35773E-03 7.75126E-06-5.29396E-23
 -1        58 2.34980E-03 1.77187E-05-1.05879E-22
 -1        59 2.34111E-03 2.95656E-05 0.00000E+00
 -1        60 2.33247E-03 4.12724E-05-1.05879E-22
 -1        61 2.32466E-03 5.08210E-05-5.29396E-23
 -1        62 2.31832E-03 5.65552E-05-1.05879E-22
 -1        63 2.31394E-03 5.71331E-05 5.29396E-23
 -1        64 2.31167E-03 5.20790E-05-1.05879E-22
 -1        65 2.31147E-03 4.13906E-05-5.29396E-23
 -1        66 2.31297E-03 2.60201E-05 0.00000E+00
 -1        67 2.31566E-03 7.31940E-06 0.00000E+00
 -1        68 2.31886E-03-1.27925E-05 0.00000E+00
 -1        69 2.32185E-03-3.22676E-05 5.29396E-23
 -1        70 2.32392E-03-4.91803E-05 0.00000E+00
 -1        86 1.62613E-03-2.51337E-06 0.00000E+00
 -1        87 1.76163E-03-1.28706E-05-1.32349E-23
 -1        88 1.94408E-03-3.00829E-05 0.00000E+00
 -1        89 2.12896E-03-4.77369E-05 0.00000E+00
 -1        90 2.27046E-03-5.88673E-05-2.64698E-23
 -1       121 3.28001E-04-5.68409E-07 0.00000E+00
 -1       122 3.25448E-04-1.13960E-06 0.00000E+00
 -1       123 3.21205E-04-1.71632E-06 1.32349E-23
 -1       124 3.15286E-04-2.30132E-06 6.61744E-24
 -1       125 3.07715E-04-2.89696E-06 0.00000E+00
 -1       191 1.73578E-04 1.31495E-07 4.13590E-25
 -1       192 1.73712E-04 2.62981E-07 5.16988E-25
 -1       193 1.73935E-04 3.94453E-07 3.10193E-24
 -1       194 1.74248E-04 5.25899E-07 1.65436E-24
 -1       195 1.74650E-04 6.57310E-07-3.30872E-24
 -1       251 2.35296E-03 1.51487E-05 1.32349E-23
 -1       252 2.35160E-03 5.55773E-05 0.00000E+00
 -1       253 2.34946E-03 1.13155E-04-1.32349E-23
 -1       254 2.34678E-03 1.79839E-04 0.00000E+00
 -1       255 2.34417E-03 2.45154E-04 1.32349E-23
 -1       256 2.34225E-03 2.98658E-04 0.00000E+00
 -1       257 2.34110E-03 3.33051E-04 0.00000E+00
 -1       258 2.34049E-03 3.41469E-04 0.00000E+00
 -1       259 2.33976E-03 3.23728E-04-1.32349E-23
 -1       260 2.33828E-03 2.80267E-04 0.00000E+00
 -1       261 2.33587E-03 2.18144E-04 0.00000E+00
 -1       262 2.33273E-03 1.44836E-04-6.61744E-24
 -1       263 2.32955E-03 7.07997E-05-1.32349E-23
 -1       264 2.32701E-03 6.50884E-06-6.61744E-24
 -1       265 2.32538E-03-4.01747E-05-2.64698E-23
 -1       266 2.35061E-03-4.89197E-07 3.30872E-24
 -1       267 2.34758E-03-4.95076E-07 0.00000E+00
 -1       268 2.34455E-03-5.01451E-07-8.27181E-25
 -1       269 2.34152E-03-5.06358E-07-2.06795E-25
 -1       270 2.33849E-03-5.11231E-07-2.06795E-25
 -1       271 2.35189E-03 1.96560E-06 1.32349E-23
 -1       272 2.35038E-03 3.71643E-06-1.32349E-23
 -1       273 2.34915E-03 4.72442E-06 0.00000E+00
 -1       274 2.34821E-03 4.93340E-06-1.32349E-23
 -1       275 2.34759E-03 4.29794E-06 0.00000E+00
 -1       276 2.34730E-03 2.77918E-06 0.00000E+00
 -1       277 2.34735E-03 3.47322E-07 0.00000E+00
 -1       278 2.34775E-03-3.01902E-06 1.32349E-23
 -1       279 2.34850E-03-7.33199E-06-2.64698E-23
 -1       280 2.34960E-03-1.25948E-05-1.32349E-23
 -1       281 2.35105E-03-1.88011E-05 0.00000E+00
 -1       282 2.35284E-03-2.59358E-05 1.32349E-23
 -1       283 2.35497E-03-3.39748E-05 2.64698E-23
 -1       284 2.35741E-03-4.28842E-05-1.32349E-23
 -1       285 2.36016E-03-5.26236E-05 0.00000E+00
 -1       301 2.33162E-03-6.20276E-05 0.00000E+00
 -1       302 2.33736E-03-6.22451E-05 3.30872E-24
 -1       303 2.34260E-03-6.24571E-05 0.00000E+00
 -1       304 2.34812E-03-6.26694E-05 0.00000E+00
 -1       305 2.35472E-03-6.28899E-05 0.00000E+00
 -1       306 2.35982E-03-2.02182E-04 0.00000E+00
 -1       307 2.42435E-03-5.87644E-04 0.00000E+00
 -1       308 2.47761E-03-1.15630E-03-1.05879E-22
 -1       309 2.51137E-03-1.82021E-03 0.00000E+00
 -1       310 2.54985E-03-2.46214E-03 0.00000E+00
 -1       311 2.61094E-03-2.96681E-03 5.29396E-23
 -1       312 2.67029E-03-3.25754E-03 0.00000E+00
 -1       313 2.67555E-03-3.29365E-03 0.00000E+00
 -1       314 2.56170E-03-3.08284E-03 1.05879E-22
 -1       315 2.28978E-03-2.67931E-03-5.29396E-23
 -1       316 1.87381E-03-2.15402E-03 0.00000E+00
 -1       317 1.37022E-03-1.57432E-03 0.00000E+00
 -1       318 8.80771E-04-1.00309E-03 0.00000E+00
 -1       319 5.03054E-04-5.05780E-04 0.00000E+00
 -1       320 2.78634E-04-1.51572E-04 0.00000E+00
 -1       336 2.87528E-04-4.17842E-06 1.32349E-23
 -1       337 2.74571E-04-4.87351E-06-6.61744E-24
 -1       338 2.59711E-04-5.59357E-06 0.00000E+00
 -1       339 2.43019E-04-6.33912E-06 0.00000E+00
 -1       340 2.24576E-04-7.11432E-06 0.00000E+00
 -1       406 1.75722E-04 9.19979E-07 1.24077E-24
 -1       407 1.76393E-04 1.05119E-06-1.44757E-24
 -1       408 1.77152E-04 1.18225E-06-1.34417E-24
 -1       409 1.78002E-04 1.31301E-06 1.08567E-24
 -1       410 1.78940E-04 1.44319E-06 1.65436E-24
 -1       521 2.39920E-03-2.12500E-04-1.05879E-22
 -1       522 2.46255E-03-6.17199E-04 0.00000E+00
 -1       523 2.51057E-03-1.21233E-03-1.05879E-22
 -1       524 2.53647E-03-1.90373E-03 0.00000E+00
 -1       525 2.56802E-03-2.57142E-03 1.05879E-22
 -1       526 2.62590E-03-3.09761E-03 0.00000E+00
 -1       527 2.68492E-03-3.39952E-03-2.11758E-22
 -1       528 2.68861E-03-3.43537E-03 0.00000E+00
 -1       529 2.56517E-03-3.21241E-03 0.00000E+00
 -1       530 2.27322E-03-2.79152E-03 0.00000E+00
 -1       531 1.82706E-03-2.24709E-03 1.05879E-22
 -1       532 1.28855E-03-1.64941E-03-5.29396E-23
 -1       533 7.64353E-04-1.05968E-03 0.00000E+00
 -1       534 3.56843E-04-5.41708E-04 0.00000E+00
 -1       535 1.13135E-04-1.68643E-04 0.00000E+00
 -1       536 2.03778E-04 2.52221E-05 0.00000E+00
 -1       537 2.02032E-04 8.26612E-05 3.30872E-24
 -1       538 1.99340E-04 1.55578E-04 0.00000E+00
 -1       539 1.96167E-04 2.35058E-04 1.65436E-24
 -1       540 1.93310E-04 3.10164E-04 0.00000E+00
 -1       541 1.91448E-04 3.69979E-04 1.65436E-24
 -1       542 1.90584E-04 4.08046E-04 0.00000E+00
 -1       543 1.90368E-04 4.18046E-04 0.00000E+00
 -1       544 1.90061E-04 4.00732E-04 0.00000E+00
 -1       545 1.88980E-04 3.57061E-04 1.65436E-24
 -1       546 1.86981E-04 2.94806E-04 0.00000E+00
 -1       547 1.84283E-04 2.21853E-04 1.65436E-24
 -1       548 1.81614E-04 1.49300E-04 3.30872E-24
 -1       549 1.79685E-04 8.82429E-05 1.65436E-24
 -1       550 1.78679E-04 4.63416E-05 1.65436E-24
 -1       551 1.80403E-04-8.46032E-06 0.00000E+00
 -1       552 1.53011E-04-9.09454E-06 0.00000E+00
 -1       553 1.23282E-04-9.78952E-06 4.96308E-24
 -1       554 9.22199E-05-1.05241E-05 0.00000E+00
 -1       555 6.08289E-05-1.12704E-05 0.00000E+00
 -1       556 1.97251E-04 1.05802E-05 0.00000E+00
 -1       557 1.91428E-04 2.55435E-05 0.00000E+00
 -1       558 1.86872E-04 3.72618E-05 0.00000E+00
 -1       559 1.83459E-04 4.60333E-05 0.00000E+00
 -1       560 1.81062E-04 5.21565E-05 0.00000E+00
 -1       561 1.79560E-04 5.59322E-05 0.00000E+00
 -1       562 1.78834E-04 5.76626E-05 0.00000E+00
 -1       563 1.78764E-04 5.76504E-05 0.00000E+00
 -1       564 1.79233E-04 5.61993E-05 0.00000E+00
 -1       565 1.80126E-04 5.36137E-05 0.00000E+00
 -1       566 1.81328E-04 5.01982E-05 0.00000E+00
 -1       567 1.82726E-04 4.62581E-05 0.00000E+00
 -1       568 1.84205E-04 4.20986E-05 8.27181E-25
 -1       569 1.85652E-04 3.80250E-05 0.00000E+00
 -1       570 1.86954E-04 3.43425E-05 0.00000E+00
 -1       571 1.78503E-04 2.92179E-05-1.65436E-24
 -1       572 1.78600E-04 2.72379E-05-4.13590E-25
 -1       573 1.78697E-04 2.52094E-05 0.00000E+00
 -1       574 1.78794E-04 2.31480E-05-8.27181E-25
 -1       575 1.78891E-04 2.10694E-05 0.00000E+00
 -1       576 1.78989E-04 1.89893E-05-4.96308E-24
 -1       577 1.79086E-04 1.69235E-05 3.30872E-24
 -1       578 1.79184E-04 1.48878E-05 0.00000E+00
 -1       579 1.79281E-04 1.28979E-05 0.00000E+00
 -1       580 1.79379E-04 1.09696E-05 0.00000E+00
 -1       581 1.79476E-04 9.11866E-06 6.61744E-24
 -1       582 1.79574E-04 7.36080E-06 0.00000E+00
 -1       583 1.79672E-04 5.71178E-06 0.00000E+00
 -1       584 1.79771E-04 4.18718E-06 0.00000E+00
 -1       585 1.79869E-04 2.80240E-06 0.00000E+00
 -1       586 1.79964E-04 3.11728E-05-1.65436E-24
 -1       587 1.81481E-04 3.12105E-05 0.00000E+00
 -1       588 1.83000E-04 3.12479E-05 0.00000E+00
 -1       589 1.84565E-04 3.12847E-05 0.00000E+00
 -1       590 1.86217E-04 3.13202E-05 0.00000E+00
 -1       591 1.79063E-04 2.93063E-05 1.03398E-25
 -1       592 1.79720E-04 2.74572E-05 2.06795E-25
 -1       593 1.80383E-04 2.55931E-05 0.00000E+00
 -1       594 1.81049E-04 2.37186E-05 0.00000E+00
 -1       595 1.81717E-04 2.18388E-05 8.27181E-25
 -1       596 1.82386E-04 1.99584E-05 0.00000E+00
 -1       597 1.83052E-04 1.80822E-05-8.27181E-25
 -1       598 1.83716E-04 1.62149E-05-4.13590E-25
 -1       599 1.84374E-04 1.43615E-05 0.00000E+00
 -1       600 1.85025E-04 1.25266E-05-4.13590E-25
 -1       601 1.85667E-04 1.07151E-05-8.27181E-25
 -1       602 1.86300E-04 8.93169E-06 0.00000E+00
 -1       603 1.86920E-04 7.18125E-06-8.27181E-25
 -1       604 1.87526E-04 5.46864E-06 1.29247E-25
 -1       605 1.88117E-04 3.79856E-06 0.00000E+00
 -1       606 1.79980E-04 5.67300E-07 3.30872E-24
 -1       607 1.79990E-04-3.49500E-07 0.00000E+00
 -1       608 1.79999E-04-1.18395E-06-3.30872E-24
 -1       609 1.80008E-04-1.94184E-06 0.00000E+00
 -1       610 1.80017E-04-2.62903E-06 0.00000E+00
 -1       611 1.80025E-04-3.25140E-06 0.00000E+00
 -1       612 1.80034E-04-3.81487E-06 0.00000E+00
 -1       613 1.80042E-04-4.32537E-06 0.00000E+00
 -1       614 1.80051E-04-4.78881E-06 0.00000E+00
 -1       615 1.80059E-04-5.21112E-06 0.00000E+00
 -1       616 1.80068E-04-5.59821E-06-1.65436E-24
 -1       617 1.80077E-04-5.95602E-06 0.00000E+00
 -1       618 1.80085E-04-6.29045E-06 0.00000E+00
 -1       619 1.80094E-04-6.60743E-06-2.06795E-25
 -1       620 1.80102E-04-6.91288E-06 0.00000E+00
 -1       621 1.81157E-04 1.67297E-06-3.30872E-24
 -1       622 1.82494E-04 1.77462E-06 8.27181E-25
 -1       623 1.83947E-04 1.87609E-06 1.65436E-24
 -1       624 1.85485E-04 1.97727E-06-8.27181E-25
 -1       625 1.87078E-04 2.07817E-06 1.65436E-24
 -1       626 1.80453E-04 6.02528E-07 0.00000E+00
 -1       627 1.80916E-04-3.01373E-07 6.61744E-24
 -1       628 1.81358E-04-1.14800E-06 0.00000E+00
 -1       629 1.81781E-04-1.94555E-06 0.00000E+00
 -1       630 1.82189E-04-2.70228E-06 0.00000E+00
 -1       631 1.82585E-04-3.42643E-06 0.00000E+00
 -1       632 1.82972E-04-4.12624E-06 0.00000E+00
 -1       633 1.83353E-04-4.81000E-06-1.65436E-24
 -1       634 1.83731E-04-5.48594E-06 0.00000E+00
 -1       635 1.84109E-04-6.16232E-06-1.65436E-24
 -1       636 1.84490E-04-6.84741E-06-3.30872E-24
 -1       637 1.84878E-04-7.54945E-06 0.00000E+00
 -1       638 1.85275E-04-8.27670E-06-1.65436E-24
 -1       639 1.85684E-04-9.03745E-06-8.27181E-25
 -1       640 1.86108E-04-9.83996E-06 3.30872E-24
 -1       656 1.80642E-04-7.77838E-06 0.00000E+00
 -1       657 1.81591E-04-8.36699E-06 0.00000E+00
 -1       658 1.82817E-04-8.95420E-06-1.32349E-23
 -1       659 1.84175E-04-9.54107E-06 6.61744E-24
 -1       660 1.85479E-04-1.01297E-05 0.00000E+00
 -1       661 1.80309E-04-7.55615E-06 8.27181E-25
 -1       662 1.80546E-04-7.98850E-06 0.00000E+00
 -1       663 1.80813E-04-8.50483E-06 1.65436E-24
 -1       664 1.81110E-04-9.09895E-06 0.00000E+00
 -1       665 1.81435E-04-9.76531E-06-1.65436E-24
 -1       666 1.81784E-04-1.04983E-05-8.27181E-25
 -1       667 1.82156E-04-1.12925E-05 0.00000E+00
 -1       668 1.82549E-04-1.21427E-05 0.00000E+00
 -1       669 1.82961E-04-1.30437E-05 1.65436E-24
 -1       670 1.83391E-04-1.39905E-05 8.27181E-25
 -1       671 1.83835E-04-1.49781E-05 0.00000E+00
 -1       672 1.84293E-04-1.60019E-05 8.27181E-25
 -1       673 1.84762E-04-1.70570E-05 1.65436E-24
 -1       674 1.85241E-04-1.81390E-05 0.00000E+00
 -1       675 1.85728E-04-1.92429E-05 4.13590E-25
 -1       676 1.80414E-04-1.98570E-05 0.00000E+00
 -1       677 1.81579E-04-1.99595E-05 0.00000E+00
 -1       678 1.82742E-04-2.00619E-05 3.30872E-24
 -1       679 1.83903E-04-2.01641E-05 0.00000E+00
 -1       680 1.85062E-04-2.02662E-05 0.00000E+00
 -1       771 1.86276E-05 1.35959E-05 0.00000E+00
 -1       772 8.96103E-06 3.46376E-05 0.00000E+00
 -1       773 1.02041E-06 5.13250E-05-5.29396E-23
 -1       774-5.31272E-06 6.39066E-05-2.64698E-23
 -1       775-1.01545E-05 7.26404E-05-5.29396E-23
 -1       776-1.36256E-05 7.78003E-05-2.64698E-23
 -1       777-1.58467E-05 7.96698E-05 0.00000E+00
 -1       778-1.69408E-05 7.85453E-05-2.64698E-23
 -1       779-1.70306E-05 7.47311E-05 5.29396E-23
 -1       780-1.62405E-05 6.85425E-05-2.64698E-23
 -1       781-1.46943E-05 6.03009E-05 5.29396E-23
 -1       782-1.25173E-05 5.03361E-05 0.00000E+00
 -1       783-9.83391E-06 3.89823E-05 0.00000E+00
 -1       784-6.76977E-06 2.65794E-05 0.00000E+00
 -1       785-3.44966E-06 1.34703E-05 0.00000E+00
 -1       786 1.88038E-04 2.93042E-05-2.58494E-26
 -1       787 1.88081E-04 2.73059E-05 0.00000E+00
 -1       788 1.88123E-04 2.53486E-05 0.00000E+00
 -1       789 1.88167E-04 2.34244E-05 8.27181E-25
 -1       790 1.88210E-04 2.15285E-05 0.00000E+00
 -1       791 1.88254E-04 1.96563E-05 0.00000E+00
 -1       792 1.88298E-04 1.78055E-05-1.65436E-24
 -1       793 1.88341E-04 1.59741E-05-8.27181E-25
 -1       794 1.88385E-04 1.41619E-05 0.00000E+00
 -1       795 1.88429E-04 1.23687E-05-8.27181E-25
 -1       796 1.88473E-04 1.05965E-05 0.00000E+00
 -1       797 1.88517E-04 8.84712E-06 8.27181E-25
 -1       798 1.88561E-04 7.12482E-06 0.00000E+00
 -1       799 1.88605E-04 5.43398E-06 0.00000E+00
 -1       800 1.88649E-04 3.78213E-06 1.65436E-24
 -1       801 1.44944E-04 2.81283E-05 2.64698E-23
 -1       802 1.46239E-05 1.76217E-05 0.00000E+00
 -1       803-9.74768E-05 8.90438E-06 5.29396E-23
 -1       804-8.79030E-05 6.16492E-06 0.00000E+00
 -1       805-2.92888E-05 2.48629E-06 0.00000E+00
 -1       806 1.88654E-04 2.92373E-05 1.65436E-24
 -1       807 1.89296E-04 2.71488E-05 0.00000E+00
 -1       808 1.89925E-04 2.50913E-05 3.30872E-24
 -1       809 1.90541E-04 2.30689E-05 0.00000E+00
 -1       810 1.91142E-04 2.10855E-05 0.00000E+00
 -1       811 1.91727E-04 1.91447E-05-1.65436E-24
 -1       812 1.92295E-04 1.72504E-05 0.00000E+00
 -1       813 1.92844E-04 1.54064E-05 0.00000E+00
 -1       814 1.93372E-04 1.36164E-05-1.65436E-24
 -1       815 1.93880E-04 1.18841E-05-1.65436E-24
 -1       816 1.94364E-04 1.02134E-05 0.00000E+00
 -1       817 1.94824E-04 8.60797E-06 8.27181E-25
 -1       818 1.95258E-04 7.07150E-06 3.30872E-24
 -1       819 1.95665E-04 5.60774E-06-8.27181E-25
 -1       820 1.96045E-04 4.22038E-06 1.65436E-24
 -1       821 1.88567E-04 1.61531E-07 1.65436E-24
 -1       822 1.88431E-04-2.71655E-06 1.65436E-24
 -1       823 1.88294E-04-6.11839E-06 0.00000E+00
 -1       824 1.88155E-04-9.70186E-06 0.00000E+00
 -1       825 1.88016E-04-1.30766E-05 3.30872E-24
 -1       826 1.87879E-04-1.58532E-05 1.65436E-24
 -1       827 1.87744E-04-1.78032E-05 0.00000E+00
 -1       828 1.87610E-04-1.87026E-05-1.65436E-24
 -1       829 1.87476E-04-1.86097E-05 0.00000E+00
 -1       830 1.87342E-04-1.75885E-05 1.65436E-24
 -1       831 1.87208E-04-1.59520E-05 0.00000E+00
 -1       832 1.87073E-04-1.40171E-05 1.65436E-24
 -1       833 1.86938E-04-1.21809E-05-3.30872E-24
 -1       834 1.86806E-04-1.08394E-05 0.00000E+00
 -1       835 1.86673E-04-1.02569E-05-8.27181E-25
 -1       836 1.90185E-04 2.29907E-06 0.00000E+00
 -1       837 1.91550E-04 2.42422E-06 1.65436E-24
 -1       838 1.92822E-04 2.54930E-06 0.00000E+00
 -1       839 1.94033E-04 2.67368E-06 8.27181E-25
 -1       840 1.95213E-04 2.79790E-06-8.27181E-25
 -1       856 1.86532E-04-1.15673E-05 8.27181E-25
 -1       857 1.86512E-04-1.23082E-05-4.03897E-27
 -1       858 1.86491E-04-1.29362E-05-4.13590E-25
 -1       859 1.86471E-04-1.34720E-05-2.06795E-25
 -1       860 1.86450E-04-1.39367E-05 4.13590E-25
 -1       861 1.86429E-04-1.43512E-05-4.13590E-25
 -1       862 1.86408E-04-1.47366E-05 8.27181E-25
 -1       863 1.86387E-04-1.51140E-05 4.13590E-25
 -1       864 1.86366E-04-1.55044E-05 8.27181E-25
 -1       865 1.86346E-04-1.59289E-05 0.00000E+00
 -1       866 1.86325E-04-1.64085E-05 0.00000E+00
 -1       867 1.86304E-04-1.69643E-05-4.13590E-25
 -1       868 1.86283E-04-1.76171E-05 8.27181E-25
 -1       869 1.86261E-04-1.83879E-05-4.13590E-25
 -1       870 1.86240E-04-1.92973E-05 8.27181E-25
 -1       871 1.87705E-04-1.06970E-05 0.00000E+00
 -1       872 1.89006E-04-1.07046E-05 0.00000E+00
 -1       873 1.90384E-04-1.07129E-05 0.00000E+00
 -1       874 1.91774E-04-1.07220E-05-5.16988E-26
 -1       875 1.93109E-04-1.07316E-05-1.03398E-24
 -1       876 1.87002E-04-1.15531E-05 0.00000E+00
 -1       877 1.87433E-04-1.23479E-05 1.65436E-24
 -1       878 1.87843E-04-1.30847E-05-3.30872E-24
 -1       879 1.88234E-04-1.37709E-05 0.00000E+00
 -1       880 1.88609E-04-1.44137E-05-3.30872E-24
 -1       881 1.88970E-04-1.50205E-05 0.00000E+00
 -1       882 1.89321E-04-1.55985E-05 3.30872E-24
 -1       883 1.89664E-04-1.61549E-05 0.00000E+00
 -1       884 1.90001E-04-1.66970E-05 0.00000E+00
 -1       885 1.90335E-04-1.72320E-05 1.65436E-24
 -1       886 1.90670E-04-1.77672E-05-3.30872E-24
 -1       887 1.91007E-04-1.83097E-05-1.65436E-24
 -1       888 1.91350E-04-1.88669E-05 0.00000E+00
 -1       889 1.91700E-04-1.94462E-05 1.65436E-24
 -1       890 1.92060E-04-2.00547E-05 1.65436E-24
 -1       891 1.87393E-04-2.04225E-05 0.00000E+00
 -1       892 1.88546E-04-2.04789E-05 8.27181E-25
 -1       893 1.89650E-04-2.05353E-05-1.65436E-24
 -1       894 1.90682E-04-2.05915E-05-8.27181E-25
 -1       895 1.91616E-04-2.06474E-05 4.13590E-25
 -1       956 1.96268E-04 1.77516E-06 1.65436E-24
 -1       957 1.96139E-04 7.25916E-07-8.27181E-25
 -1       958 1.96009E-04-2.45042E-07-3.30872E-24
 -1       959 1.95879E-04-1.14864E-06 0.00000E+00
 -1       960 1.95749E-04-1.99585E-06 3.30872E-24
 -1       961 1.95619E-04-2.79767E-06 1.65436E-24
 -1       962 1.95489E-04-3.56512E-06 0.00000E+00
 -1       963 1.95359E-04-4.30923E-06 0.00000E+00
 -1       964 1.95229E-04-5.04104E-06 0.00000E+00
 -1       965 1.95100E-04-5.77157E-06-1.65436E-24
 -1       966 1.94970E-04-6.51185E-06 0.00000E+00
 -1       967 1.94840E-04-7.27293E-06 0.00000E+00
 -1       968 1.94710E-04-8.06580E-06 3.30872E-24
 -1       969 1.94580E-04-8.90147E-06 0.00000E+00
 -1       970 1.94451E-04-9.79090E-06 0.00000E+00
 -1       971 1.94206E-04-1.16959E-05 0.00000E+00
 -1       972 1.94087E-04-1.25534E-05 1.65436E-24
 -1       973 1.93968E-04-1.33274E-05-3.30872E-24
 -1       974 1.93849E-04-1.40287E-05 1.65436E-24
 -1       975 1.93730E-04-1.46681E-05 0.00000E+00
 -1       976 1.93611E-04-1.52563E-05 1.65436E-24
 -1       977 1.93492E-04-1.58041E-05 3.30872E-24
 -1       978 1.93373E-04-1.63223E-05-1.65436E-24
 -1       979 1.93253E-04-1.68218E-05 0.00000E+00
 -1       980 1.93134E-04-1.73134E-05 0.00000E+00
 -1       981 1.93015E-04-1.78078E-05-3.30872E-24
 -1       982 1.92896E-04-1.83160E-05 1.65436E-24
 -1       983 1.92778E-04-1.88487E-05 0.00000E+00
 -1       984 1.92659E-04-1.94166E-05 0.00000E+00
 -1       985 1.92542E-04-2.00308E-05 3.30872E-24
 -3
    1PSTEP                        28          14           1          
  100CL  114 6.53320E-01         409                     0   14           1
 -4  STRESS      6    1
 -5  SXX         1    4    1    1
 -5  SYY         1    4    2    2
 -5  SZZ         1    4    3    3
 -5  SXY         1    4    1    2
 -5  SYZ         1    4    2    3
 -5  SZX         1    4    3    1
 -1         1-4.75293E+06-1.69952E+06-1.03881E+06-1.61316E+06-1.77533E-09-1.14494E-07
 -1         2 3.92931E+05 4.59056E+06 1.52891E+06 1.86492E+06 1.82772E-08 6.55346E-08
 -1         3-1.33816E+03-1.61518E+06 4.09612E+02-2.17429E+03-4.43560E-10-9.06584E-09
 -1         5-5.73307E+01 3.76482E+05 9.72583E+00-1.11332E+00-4.02385E-10-1.39316E-08
 -1         8-6.85175E+05-2.24375E+05-7.31067E+04-2.51100E+05 1.09139E-11-4.71555E-08
 -1         9 9.44347E+06 5.87627E+05 1.80275E+06-9.70741E+05 8.17236E-09 2.47732E-08
 -1        10-2.20571E+03-1.68315E+06-3.94239E+03-1.46968E+04-1.31276E-08-6.04427E-08
 -1        12-5.34677E+01 3.76503E+05 3.18627E+02-7.67121E+00-6.73449E-10-1.46683E-08
 -1        15 1.15489E+03 6.34673E+02 3.73317E+03 1.51257E+00 1.48162E-10 8.09192E-08
 -1        16 1.98916E+07-1.80958E+05 2.76647E+06-1.69423E+06 3.89991E-09 3.03456E-07
 -1        17 7.18939E+06 5.24141E+06 1.93876E+06 5.08392E+06 4.07774E-08 2.85567E-08
 -1        18 1.24167E+05 2.85799E+04 4.98544E+02-1.15214E+05 1.34901E-08 1.23991E-08
 -1        19 1.19495E+05 1.38206E+05-9.25070E+02 2.16602E+04 1.36843E-09-1.57888E-09
 -1        20-7.80640E+04-5.60603E+05-1.25654E+05 2.56790E+04-1.88281E-09-2.37863E-09
 -1        21-4.53439E+01-2.91706E+05-9.12867E+02 2.33166E+02 1.34221E-08 8.88313E-09
 -1        24 1.18577E+07 1.01494E+07 3.32506E+06 9.41293E+06-1.17211E-07-5.71405E-08
 -1        25 9.53554E+04 1.58720E+05 7.21813E+04-5.75075E+05-1.65473E-09 8.94397E-09
 -1        26-5.36281E+04 8.99070E+04-2.40411E+04 5.50830E+02 1.91358E-10 2.95809E-09
 -1        27-7.52083E+04-3.03232E+05-1.11130E+05 6.75156E+04 4.06120E-09 1.28208E-08
 -1        28 2.19813E+04-8.38466E+04 1.66419E+04 2.07120E+04-1.78781E-09-2.40394E-09
 -1        32-1.65303E+06-3.07814E+06-1.84094E+05 3.27703E+05-4.05562E-08-1.09054E-08
 -1        33-1.74852E+05 9.05882E+04 3.16324E+04-3.81321E+04-2.88249E-09 2.06619E-08
 -1        34-2.19243E+05-2.43020E+04 6.65668E+02 7.36621E+04-4.50981E-09 1.72084E-08
 -1        35-2.26292E+04-3.32560E+04-1.32357E+03 5.07572E+04-4.01424E-09-6.20518E-09
 -1        51 5.35872E+04-1.96810E+05 1.14958E+05-5.74053E+05-1.60071E-10 2.02046E-07
 -1        52 1.89039E+04-1.77783E+05 6.14376E+04-6.69290E+05 7.63976E-11 8.89777E-08
 -1        53 4.78711E+03-1.93289E+05 3.37775E+04-5.71966E+05 4.25644E-10-1.42434E-07
 -1        54 1.01485E+04-1.89473E+05 3.13641E+04-6.71442E+05 5.38421E-10-1.58074E-07
 -1        55 2.15703E+04-1.98243E+05 4.23709E+04-5.71702E+05 6.76664E-10-9.92113E-08
 -1        56-8.87020E+06-1.04078E+06-7.72871E+05-3.51378E+06 3.09956E-09-3.81260E-09
 -1        57-9.48971E+06-1.40315E+06-5.16930E+05-3.10891E+06 2.47383E-09 1.69974E-07
 -1        58-8.95268E+06-1.34659E+06-1.80700E+05-3.53611E+06-5.11136E-09 1.62567E-07
 -1        59-9.38663E+06-1.05192E+06-1.07117E+05-3.10235E+06-3.00447E-08 1.07655E-07
 -1        60-8.97709E+06-1.37920E+06-4.23071E+04-3.52775E+06 1.79034E-09 1.97324E-08
 -1        61-9.28003E+06-1.07850E+06-2.14322E+04-3.17522E+06-3.17086E-08 1.54250E-08
 -1        62-9.05085E+06-1.32421E+06-1.51913E+04-3.45757E+06-2.66664E-09-6.68497E-08
 -1        63-9.10346E+06-1.23067E+06-4.89284E+03-3.34423E+06 1.02282E-08 6.56519E-09
 -1        64-9.14438E+06-1.23324E+06-1.51761E+04-3.35212E+06 1.87574E-08-2.34049E-07
 -1        65-8.95006E+06-1.40052E+06-1.81842E+04-3.54324E+06-1.72513E-08-1.66976E-07
 -1        66-9.20957E+06-1.15089E+06-3.88319E+04-3.26257E+06 2.18715E-08-1.39896E-07
 -1        67-8.89659E+06-1.53158E+06-9.51559E+04-3.66293E+06-4.44925E-09 4.64206E-08
 -1        68-9.20918E+06-1.09574E+06-1.60528E+05-3.23989E+06-2.06710E-08 7.35745E-08
 -1        69-9.06480E+06-1.77478E+06-4.61067E+05-3.59382E+06 3.16850E-08-3.58683E-07
 -1        70-9.04168E+06-9.16688E+05-6.88067E+05-3.32805E+06 1.43991E-08 1.99943E-08
 -1        86-3.98560E+05-6.77381E+06-8.34324E+05-9.02026E+05-1.55163E-07 9.97534E-08
 -1        87 5.54697E+05 1.57548E+04 6.90458E+05 2.15375E+06-2.49940E-07-1.28655E-07
 -1        88-6.98160E+04-2.71609E+06 4.90961E+04-1.23521E+06-2.21981E-07-2.91398E-08
 -1        89 7.55488E+05-1.17330E+05 6.74459E+05 2.21428E+06-3.44260E-07 4.52565E-08
 -1        90-5.73726E+05-6.66531E+06-9.24893E+05-9.66710E+05-8.82792E-08 1.99107E-07
 -1       121-1.83926E+03-1.61963E+06-4.41086E+02 1.07890E+03 1.35906E-09 1.30967E-08
 -1       122-1.15265E+03-1.61523E+06 7.91411E+02-4.34944E+03-5.18911E-09 3.95266E-09
 -1       123-1.86675E+03-1.61976E+06 4.05186E+02 3.22150E+03 4.13456E-09 2.04855E-08
 -1       124 5.24058E+02-1.61472E+06 3.07679E+03-9.08248E+03-9.30731E-09-2.57023E-09
 -1       125-2.71941E+03-1.62068E+06 3.76474E+03 5.77344E+03 6.31371E-09-2.99406E-09
 -1       191-6.04869E+01 3.76504E+05 9.07959E+00 5.75864E-01-5.38046E-10-2.48929E-08
 -1       192-5.82583E+01 3.76483E+05 2.07155E+01-3.64938E+00-6.54087E-10 1.19016E-08
 -1       193-6.29346E+01 3.76503E+05 3.60490E+01 3.19163E+00-9.06685E-10 2.20825E-09
 -1       194-6.12349E+01 3.76486E+05 7.86552E+01-8.30844E+00-6.06312E-10 3.55249E-09
 -1       195-6.76339E+01 3.76501E+05 1.51367E+02 5.36763E+00-1.36095E-09-1.24528E-08
 -1       251-1.82960E+06-6.16907E+03-1.56928E+05-1.07062E+05 7.30506E-09 1.42245E-09
 -1       252-1.26925E+06 9.42019E+03 6.03949E+03 3.41505E+05-2.19788E-08-1.50838E-07
 -1       253-1.57098E+06-5.25218E+03-2.85076E+04-2.16217E+05 5.78257E-09 2.88037E-09
 -1       254-1.52400E+06 3.37943E+04 3.47733E+02 4.41055E+05 1.96343E-08-3.23535E-08
 -1       255-1.60067E+06-9.50823E+03-1.67735E+04-2.08396E+05-2.72485E-09 1.20276E-07
 -1       256-1.19400E+06 2.89050E+04 7.11586E+04 3.10998E+05-2.43062E-09 1.56117E-07
 -1       257-1.86877E+06-2.64659E+04-7.03207E+04-8.41431E+04 1.36279E-08 3.30348E-08
 -1       258-9.05205E+05 2.40396E+04 1.27488E+05-2.21039E+03 3.61370E-08-3.58341E-08
 -1       259-1.86102E+06-2.76897E+04-6.70075E+04 1.03149E+05-2.13131E-08 1.28883E-07
 -1       260-1.21275E+06 3.56076E+04 7.38742E+04-3.09371E+05 1.12159E-08 1.52022E-08
 -1       261-1.59118E+06-1.37649E+04-5.25555E+03 2.21912E+05 4.27517E-08 1.67458E-07
 -1       262-1.52571E+06 5.19345E+04 2.48877E+04-4.29666E+05-1.16639E-08 5.82559E-08
 -1       263-1.57885E+06-1.90217E+04 9.88445E+03 2.25834E+05 1.73977E-08 2.32063E-07
 -1       264-1.22380E+06 8.99913E+04 1.17122E+05-3.25904E+05 9.24915E-08 2.39052E-07
 -1       265-1.86564E+06-7.38900E+04-4.77374E+03 1.15934E+05 4.08199E-08-5.59485E-08
 -1       266-2.09075E+04-9.77685E+03 4.90527E+04-3.23631E+01-4.00178E-11-8.59824E-08
 -1       267 2.42374E+04 1.13944E+04 3.46709E+04 3.73420E+01-2.72848E-11-8.09447E-08
 -1       268-3.25020E+03-1.61380E+03 1.28869E+04-4.75794E+00-4.63842E-11 2.10467E-08
 -1       269 3.83752E+03 1.93133E+03 8.37637E+03 5.54238E+00 1.65414E-10 1.22174E-07
 -1       270-5.76017E+02-3.17335E+02 4.04339E+03-7.52136E-01 2.19529E-10 1.12642E-07
 -1       271-1.85626E+06-2.25359E+05-1.37454E+05-7.12455E+05-1.21763E-08-9.52787E-08
 -1       272-1.93335E+06-2.97786E+05-8.83715E+04-6.79529E+05-1.70749E-08-1.53037E-07
 -1       273-1.88235E+06-2.59492E+05-3.25393E+04-7.06024E+05 8.89304E-09 1.19324E-07
 -1       274-1.90168E+06-2.56829E+05-1.81287E+04-6.89669E+05 1.33332E-09 1.57971E-07
 -1       275-1.88695E+06-2.62117E+05-7.67314E+03-7.03744E+05 9.83255E-09 1.32639E-07
 -1       276-1.89474E+06-2.55058E+05-3.90253E+03-6.93953E+05-3.16322E-09-7.35954E-08
 -1       277-1.88901E+06-2.60955E+05-2.06039E+03-7.01754E+05-2.42526E-08 3.10430E-07
 -1       278-1.89082E+06-2.57940E+05-1.16620E+03-6.97895E+05-1.09176E-08 2.30282E-07
 -1       279-1.89075E+06-2.59266E+05-1.35392E+03-6.99744E+05-2.32649E-09-2.37655E-07
 -1       280-1.88754E+06-2.61572E+05-1.90914E+03-7.01881E+05-3.49937E-08-9.52289E-08
 -1       281-1.89231E+06-2.57334E+05-3.72674E+03-6.97774E+05 7.34690E-09-5.65724E-08
 -1       282-1.88591E+06-2.67233E+05-8.38570E+03-7.05575E+05 1.35096E-08 3.97736E-08
 -1       283-1.89254E+06-2.53735E+05-1.51919E+04-6.96070E+05 2.67228E-08 7.08458E-08
 -1       284-1.89600E+06-2.90844E+05-4.09225E+04-7.06380E+05-5.06552E-08-1.55230E-07
 -1       285-1.88274E+06-2.35633E+05-6.38242E+04-6.96397E+05-1.78552E-08 1.57801E-07
 -1       301 8.56031E+03-5.54074E+05 1.72298E+05-9.63253E+05 4.80213E-10 1.15724E-07
 -1       302 9.60602E+03-5.09469E+05 1.04251E+05-1.40755E+06-9.00764E-09-9.45874E-10
 -1       303-9.84827E+03-5.41899E+05 6.16050E+04-9.60767E+05 3.13594E-09-5.97283E-08
 -1       304-4.79157E+03-5.14213E+05 6.66805E+04-1.40682E+06-1.30967E-09 1.79778E-07
 -1       305-9.16101E+03-5.36118E+05 8.82596E+04-9.63657E+05-3.26509E-09 6.83940E-10
 -1       306-2.77180E+07-5.66305E+06-7.75376E+06-1.00489E+06-1.13272E-07-9.68867E-08
 -1       307 2.31266E+07 2.28580E+06 4.99760E+06-1.33438E+07-9.04620E-07-1.87312E-07
 -1       308-7.60664E+06-8.29478E+05-5.47709E+05 4.72100E+06-2.21480E-07 3.38434E-07
 -1       309-3.56373E+06 7.01471E+06 1.91753E+06-1.91103E+07 2.30764E-07 4.20314E-07
 -1       310-1.13421E+07-1.41252E+06-1.55566E+06 4.63074E+06-7.61938E-08-1.57364E-07
 -1       311 3.17979E+07-1.18527E+05 6.22155E+06-8.88750E+06 7.59988E-07 4.35975E-08
 -1       312-2.88560E+07-5.81322E+06-7.41568E+06-4.08711E+06-2.65893E-07 1.57088E-07
 -1       313 4.10036E+07 1.15876E+07 9.45183E+06 1.97242E+07-3.48722E-07 1.08994E-07
 -1       314-1.70174E+07-1.51394E+07-6.73070E+06-1.15097E+07 3.62634E-07-1.72877E-08
 -1       315-9.38390E+05 2.55915E+07 5.14384E+06 1.07267E+07-2.93046E-07 8.92032E-08
 -1       316 5.64391E+05-9.33841E+06-5.12589E+05-3.29761E+06-1.17639E-06-1.96887E-07
 -1       317-1.71074E+07 2.04350E+07 1.88296E+06-6.61013E+06 6.39840E-07-6.79029E-07
 -1       318-1.18824E+06-1.11031E+07-1.60127E+06-4.39296E+06-8.55827E-07 8.58563E-08
 -1       319 5.38150E+06 2.70332E+07 5.99102E+06 1.43606E+07-1.81462E-08 2.30852E-07
 -1       320-2.06305E+07-1.53512E+07-8.62512E+06-1.14993E+07 1.97324E-07-4.37140E-08
 -1       336-4.54283E+02-1.75331E+06-1.38737E+04 8.78016E+03-2.53494E-08-1.67674E-08
 -1       337-5.34454E+03-1.75347E+06-1.80668E+04-2.12548E+04-4.66348E-08-8.32915E-09
 -1       338 4.77395E+02-1.75284E+06-2.81100E+04 1.22617E+04-3.24562E-08-1.36060E-09
 -1       339-2.98365E+04-1.77035E+06-6.36431E+04-2.80542E+04-5.88407E-08 8.32370E-09
 -1       340 1.98536E+04-1.73845E+06-1.00081E+05 1.54599E+04-3.87045E-08 3.56267E-08
 -1       406-3.16107E+01 3.76486E+05 6.26437E+02 2.67875E+00-1.77529E-09-4.96948E-09
 -1       407 1.66154E+02 3.76614E+05 1.33697E+03 2.07846E+01-5.56831E-10 2.50384E-09
 -1       408 6.33024E+02 3.76389E+05 2.66684E+03-2.38573E+01-2.24736E-09-1.26547E-08
 -1       409 2.83782E+03 3.77465E+05 6.00911E+03 2.52270E+02-5.07271E-10-1.12595E-08
 -1       410 8.24915E+03 3.75624E+05 1.22650E+04-2.42733E+02-2.65572E-09-2.40652E-09
 -1       521-2.92755E+07-6.95710E+06-9.05257E+06-6.79249E+05-8.25385E-08 1.05938E-07
 -1       522 2.39243E+07 3.01268E+06 5.08161E+06-1.65153E+07-4.30038E-07-2.42639E-07
 -1       523-8.31910E+06-1.11941E+06-5.60487E+05 5.16484E+06 6.86850E-08-2.51559E-07
 -1       524-6.79218E+06 9.62075E+06 2.07566E+06-2.20563E+07 9.50255E-07-2.70840E-07
 -1       525-1.22528E+07-1.92730E+06-1.70794E+06 5.06698E+06 6.51751E-07-1.36904E-07
 -1       526 3.45125E+07-1.49743E+05 6.53867E+06-1.14130E+07 4.09782E-08-7.84639E-08
 -1       527-3.06386E+07-7.29711E+06-8.53206E+06-3.96950E+06 2.04775E-07 3.39045E-07
 -1       528 4.48317E+07 1.27372E+07 9.86342E+06 2.23459E+07-1.01689E-07 1.52533E-07
 -1       529-1.80341E+07-1.71282E+07-7.71424E+06-1.16721E+07 1.37894E-07 1.06404E-07
 -1       530-3.21459E+06 2.98139E+07 5.44202E+06 1.06412E+07-1.52926E-07 5.07745E-07
 -1       531 5.00709E+05-1.04659E+07-5.11476E+05-3.40488E+06-8.75050E-07 2.48721E-07
 -1       532-1.99787E+07 2.26431E+07 2.06355E+06-1.02124E+07 3.20710E-07-8.85062E-07
 -1       533-1.25034E+06-1.22458E+07-1.68937E+06-4.39439E+06-1.76777E-07-9.87726E-07
 -1       534 3.39377E+06 3.14078E+07 6.23918E+06 1.48672E+07 3.39642E-08 7.26432E-07
 -1       535-2.17710E+07-1.74845E+07-9.85516E+06-1.16564E+07 1.06171E-07 4.54311E-07
 -1       536-6.77632E+05-4.59801E+04-3.54107E+04-5.07601E+04-7.04586E-09 5.04206E-08
 -1       537-8.26585E+04 4.46195E+04 8.20722E+04 1.16333E+05-1.08712E-07 8.36512E-08
 -1       538-3.93176E+05 2.51764E+03 5.38945E+03-6.84022E+04 2.07652E-08 1.20973E-07
 -1       539-2.79239E+05 3.04557E+03 2.38438E+04 1.30989E+05 1.47649E-07 9.48934E-08
 -1       540-4.85942E+05-3.43655E+02-1.87009E+04-6.58770E+04-1.83898E-08 1.01394E-07
 -1       541 9.84324E+04 1.54305E+04 9.68915E+04 9.14742E+04-1.75301E-08 9.23022E-08
 -1       542-7.60681E+05-1.83433E+04-7.64618E+04-2.81341E+04 8.60468E-08 5.07120E-08
 -1       543 3.33495E+05 2.48641E+04 1.43530E+05-1.27232E+04-3.48491E-08-7.42466E-09
 -1       544-7.14710E+05-1.49881E+04-6.79288E+04 3.77413E+04-1.79120E-08-3.63552E-08
 -1       545-9.45610E+03 8.46285E+03 7.21314E+04-1.06767E+05-4.28035E-08-8.81766E-08
 -1       546-4.26924E+05 5.67222E+03-1.12028E+04 6.56144E+04 1.45383E-08-7.61835E-08
 -1       547-2.96140E+05-4.68521E+03 8.85769E+03-1.33760E+05-1.15840E-07-6.99168E-08
 -1       548-4.35716E+05 4.58150E+03-2.27235E+04 6.53294E+04-1.10460E-07-8.04284E-08
 -1       549 9.01960E+03 1.26373E+04 5.23812E+04-1.04447E+05-6.14474E-08-5.92918E-08
 -1       550-7.23913E+05-1.84694E+04-1.21166E+05 3.56825E+04 8.76116E-09-1.34496E-08
 -1       551 3.85083E+04-7.84850E+05-1.22645E+04-1.24602E+06 3.46918E-08 3.75439E-09
 -1       552 9.16617E+04-8.29210E+05 1.25644E+04-1.80096E+06 7.39092E-08 3.05590E-08
 -1       553 6.94009E+04-8.26410E+05 3.41504E+04-1.23940E+06 4.09491E-08 2.01253E-08
 -1       554 1.30884E+05-8.44914E+05 8.43553E+04-1.80287E+06 7.80710E-08 9.26593E-09
 -1       555 9.71661E+04-8.49805E+05 1.52526E+05-1.23948E+06 3.89628E-08-1.89466E-08
 -1       556 2.11183E+05-3.64666E+05 3.46723E+04-3.94040E+05-2.42435E-08-1.90048E-08
 -1       557 3.37700E+05-4.65696E+05 2.05233E+04-5.08662E+05-1.46974E-09 5.31873E-09
 -1       558 1.95059E+05-3.59905E+05 4.59851E+03-3.96585E+05-2.06346E-08-1.18889E-08
 -1       559 3.13637E+05-4.67306E+05 3.44555E+03-5.27457E+05 2.06201E-08-1.10958E-09
 -1       560 1.81136E+05-3.51156E+05-7.82987E+02-4.06562E+05 1.17288E-08-1.50721E-08
 -1       561 2.96021E+05-4.60341E+05 4.03181E+02-5.39411E+05 1.03028E-08 8.25094E-09
 -1       562 1.70131E+05-3.44300E+05-1.05006E+03-4.14520E+05 6.50471E-09 7.64339E-09
 -1       563 2.82961E+05-4.54647E+05 4.13502E+01-5.47926E+05 2.64845E-09 1.43791E-08
 -1       564 1.62317E+05-3.39426E+05-4.92772E+02-4.20053E+05 2.02854E-08 1.12159E-08
 -1       565 2.74371E+05-4.50906E+05 4.51168E+01-5.53411E+05 1.78989E-08-2.83671E-09
 -1       566 1.57810E+05-3.36572E+05-2.17069E+02-4.23207E+05 2.75759E-09-7.86895E-09
 -1       567 2.70295E+05-4.49132E+05-3.26345E+02-5.55875E+05 2.08292E-08-6.69752E-09
 -1       568 1.56692E+05-3.35890E+05-1.03381E+03-4.24085E+05 4.77485E-10 1.25656E-08
 -1       569 2.69397E+05-4.49082E+05-2.61243E+03-5.54367E+05 4.81850E-09 1.39189E-08
 -1       570 1.60015E+05-3.39004E+05-5.73035E+03-4.23121E+05 1.37006E-08-1.33423E-09
 -1       571 2.83280E+05 1.02542E+04 1.46935E+04-9.08698E+04 8.64929E-10 2.81943E-10
 -1       572 2.85416E+05 3.83112E+03 7.20075E+03-9.96920E+04 1.95996E-09-4.25507E-09
 -1       573 2.84129E+05 1.17439E+03 3.19948E+03-9.06981E+04-1.58980E-09 9.96351E-09
 -1       574 2.84344E+05 6.60780E+02 1.60437E+03-9.99079E+04 1.87265E-09-8.41374E-09
 -1       575 2.84221E+05 3.92132E+02 7.57157E+02-9.06747E+04-4.60625E-09 9.74524E-09
 -1       576 2.84210E+05 3.98800E+02 3.87512E+02-9.99366E+04-7.95035E-09 1.86301E-08
 -1       577 2.84258E+05 3.36697E+02 1.93362E+02-9.06715E+04-1.77988E-09 1.28375E-08
 -1       578 2.84235E+05 3.63993E+02 1.11403E+02-9.99406E+04-2.20098E-09 1.28248E-08
 -1       579 2.84323E+05 3.04153E+02 7.63247E+01-9.06711E+04 5.18776E-09 1.12432E-08
 -1       580 2.84327E+05 3.18367E+02 8.79467E+01-9.99360E+04-8.73115E-09-1.22418E-09
 -1       581 2.84426E+05 2.51891E+02 1.32806E+02-9.06768E+04 6.60657E-09 9.42237E-09
 -1       582 2.84487E+05 2.87283E+02 2.69307E+02-9.98771E+04 4.64479E-09-1.90521E-08
 -1       583 2.84552E+05 2.98212E+02 5.17517E+02-9.07306E+04 3.20142E-10-7.34531E-09
 -1       584 2.84837E+05 7.19278E+02 1.17027E+03-9.94240E+04 2.77942E-09 9.17771E-09
 -1       585 2.84567E+05 1.70949E+03 2.37073E+03-9.11294E+04-7.89441E-10 2.89219E-09
 -1       586-3.34951E+03 1.11789E+05-2.99773E+03-2.45366E+05-8.29550E-09-1.24644E-08
 -1       587-1.24599E+03 1.11516E+05 6.63680E+02-2.70046E+05-9.19499E-09 2.34832E-09
 -1       588 4.59406E+02 1.11354E+05 4.57538E+03-2.45233E+05-4.94947E-09 2.76541E-08
 -1       589 5.01549E+03 1.13740E+05 1.19447E+04-2.69812E+05-7.81256E-09 1.53686E-08
 -1       590 1.61781E+04 1.10060E+05 2.50870E+04-2.45654E+05-4.17640E-09 1.01500E-08
 -1       591-7.15835E+04-1.55278E+04-2.17549E+04-3.08429E+04-9.78093E-09-5.81895E-09
 -1       592-7.54366E+04-1.90587E+04-1.17841E+04-3.44525E+04-6.67965E-09-9.31266E-09
 -1       593-7.37600E+04-1.39484E+04-4.90518E+03-3.24373E+04-6.06499E-09-7.93375E-09
 -1       594-7.24315E+04-1.58679E+04-2.44634E+03-3.45680E+04-1.04120E-08 8.56087E-09
 -1       595-7.39260E+04-1.39431E+04-1.12318E+03-3.25097E+04-8.11677E-09 2.33163E-08
 -1       596-7.22259E+04-1.57220E+04-5.70869E+02-3.45437E+04 4.52667E-09 9.59133E-09
 -1       597-7.39468E+04-1.39580E+04-3.10636E+02-3.25125E+04 3.09217E-09 1.06735E-08
 -1       598-7.22056E+04-1.57162E+04-2.49316E+02-3.45369E+04-9.10632E-10 1.37314E-08
 -1       599-7.39456E+04-1.39585E+04-3.17975E+02-3.25121E+04 7.42841E-09-3.10297E-09
 -1       600-7.22260E+04-1.57226E+04-5.90296E+02-3.45417E+04 1.51192E-09-3.78662E-09
 -1       601-7.39216E+04-1.39444E+04-1.16432E+03-3.25087E+04 5.84123E-10 3.53543E-09
 -1       602-7.24391E+04-1.58729E+04-2.53740E+03-3.45631E+04-5.95435E-09-2.93642E-09
 -1       603-7.37468E+04-1.39527E+04-5.08848E+03-3.24343E+04 6.89624E-10-5.26052E-09
 -1       604-7.55733E+04-1.91640E+04-1.22237E+04-3.44194E+04 1.35003E-09 2.28647E-09
 -1       605-7.14696E+04-1.56082E+04-2.25665E+04-3.07991E+04 2.80440E-09 1.16888E-08
 -1       606 2.69466E+04-1.39316E+04-2.49800E+04 2.44437E+04 8.23911E-09-8.07722E-09
 -1       607 2.26778E+04-4.54708E+03-1.24398E+04 2.74656E+04 1.43609E-09-1.84680E-08
 -1       608 2.51095E+04-8.17559E+02-5.56907E+03 2.42686E+04 7.79619E-09-1.09344E-09
 -1       609 2.46420E+04-2.76414E+02-2.81329E+03 2.76833E+04 2.25982E-08-2.94290E-09
 -1       610 2.49002E+04-3.54619E+01-1.34239E+03 2.42480E+04 1.31195E-08 2.31364E-08
 -1       611 2.48257E+04-3.43351E+01-6.76816E+02 2.77068E+04 6.04814E-09 1.02336E-08
 -1       612 2.48531E+04-2.12991E+01-3.21888E+02 2.42459E+04-3.01043E-10 3.14276E-09
 -1       613 2.48356E+04-2.95863E+01-1.44334E+02 2.77096E+04 2.56841E-09-7.27505E-09
 -1       614 2.48305E+04-2.68637E+01-3.41389E+01 2.42452E+04 3.64889E-09 3.32716E-09
 -1       615 2.48294E+04-2.75373E+01 5.98439E+01 2.77100E+04 1.87811E-09-2.95813E-10
 -1       616 2.48128E+04-2.33308E+01 1.80040E+02 2.42455E+04-9.09495E-13-9.52809E-09
 -1       617 2.48502E+04 1.13183E+01 4.11033E+02 2.77095E+04-2.03386E-09-1.78511E-09
 -1       618 2.47765E+04 9.55373E+01 8.28580E+02 2.42458E+04-2.17369E-10 8.22638E-09
 -1       619 2.51422E+04 6.52283E+02 1.86071E+03 2.77089E+04-1.00772E-09-3.70392E-09
 -1       620 2.45010E+04 2.06059E+03 3.73998E+03 2.42469E+04 7.90351E-10-6.00721E-10
 -1       621 4.76618E+02 2.93558E+05 3.72176E+03 3.78356E+04 1.09048E-09-7.37873E-09
 -1       622 6.24967E+02 2.94425E+05 3.31660E+03 5.49403E+04 1.12141E-09-2.19907E-08
 -1       623 1.20403E+02 2.93749E+05 4.00459E+03 3.76637E+04 1.20440E-09 1.44064E-09
 -1       624 2.03147E+03 2.95620E+05 7.77819E+03 5.51100E+04 1.27739E-09-7.01721E-09
 -1       625 1.99319E+03 2.92208E+05 1.35996E+04 3.76607E+04 1.26056E-09-1.71333E-08
 -1       626 2.54536E+05 6.06617E+04 5.05539E+03 1.24592E+05 8.11679E-09 2.51566E-09
 -1       627 2.52199E+05 6.20892E+04 2.43615E+03 1.28864E+05 3.48064E-09 2.70472E-09
 -1       628 2.54665E+05 5.83448E+04 1.03021E+03 1.25446E+05-4.95129E-09-9.77820E-09
 -1       629 2.51566E+05 6.14230E+04 5.04257E+02 1.29106E+05-8.06722E-09-4.49201E-09
 -1       630 2.54679E+05 5.82331E+04 2.33899E+02 1.25481E+05-1.46292E-08 1.98099E-10
 -1       631 2.51499E+05 6.13983E+04 1.25869E+02 1.29107E+05-2.82769E-08 4.24984E-09
 -1       632 2.54675E+05 5.82375E+04 8.28321E+01 1.25477E+05-7.52880E-09-1.20888E-08
 -1       633 2.51490E+05 6.14005E+04 9.22715E+01 1.29103E+05 5.77461E-09-6.77824E-09
 -1       634 2.54669E+05 5.82351E+04 1.49112E+02 1.25476E+05-1.41966E-08-1.00226E-09
 -1       635 2.51503E+05 6.13991E+04 3.01729E+02 1.29108E+05-1.22491E-08 3.03030E-08
 -1       636 2.54660E+05 5.82298E+04 6.09340E+02 1.25475E+05 3.88968E-09 1.53941E-08
 -1       637 2.51635E+05 6.14940E+04 1.33973E+03 1.29107E+05-2.70052E-09-8.34234E-09
 -1       638 2.54612E+05 5.85258E+04 2.75267E+03 1.25341E+05 7.63521E-10-7.37600E-10
 -1       639 2.53080E+05 6.35050E+04 6.51286E+03 1.28681E+05 9.63837E-10-2.28956E-08
 -1       640 2.54413E+05 6.45300E+04 1.35153E+04 1.22810E+05 8.16499E-09-5.62977E-09
 -1       656 6.51891E+04-1.66709E+06-1.57362E+05-2.26554E+03-6.83940E-10 5.34470E-09
 -1       657-8.62330E+04-1.73819E+06-1.30351E+05 5.52870E+03-1.16415E-10 5.11008E-09
 -1       658 2.07741E+04-1.68728E+06-8.02629E+04-4.28533E+03 7.42830E-10-1.17617E-08
 -1       659-9.32011E+04-1.74150E+06-1.39508E+05 7.18057E+03-5.30235E-10-8.87027E-09
 -1       660 7.21416E+04-1.66379E+06-1.73105E+05-3.91739E+03-1.78989E-09 1.05908E-08
 -1       661 1.60520E+05 1.68662E+04 1.67734E+04 6.27525E+04 6.84850E-10-1.39817E-08
 -1       662 1.69943E+05 2.93472E+04 1.13039E+04 5.90584E+04-1.24487E-09-1.70659E-08
 -1       663 1.63815E+05 2.22475E+04 3.95348E+03 6.17965E+04-9.18476E-10-1.33102E-08
 -1       664 1.66123E+05 2.30538E+04 2.36489E+03 6.02258E+04-1.58775E-09 5.08891E-09
 -1       665 1.64314E+05 2.29827E+04 9.32931E+02 6.16510E+04 2.80124E-10 6.09492E-09
 -1       666 1.65533E+05 2.22128E+04 5.45918E+02 6.04155E+04 6.78020E-09-5.54497E-09
 -1       667 1.64401E+05 2.30666E+04 2.89957E+02 6.16148E+04-1.41571E-09 9.59986E-10
 -1       668 1.65436E+05 2.21523E+04 2.95430E+02 6.04682E+04-4.09760E-09-1.90577E-08
 -1       669 1.64409E+05 2.30416E+04 3.99953E+02 6.15986E+04-1.39497E-09 6.87663E-09
 -1       670 1.65534E+05 2.23693E+04 8.70893E+02 6.04711E+04-9.41105E-09 4.97991E-10
 -1       671 1.64304E+05 2.28540E+04 1.54633E+03 6.16099E+04 2.62725E-09-5.73584E-09
 -1       672 1.66435E+05 2.38738E+04 3.95624E+03 6.02530E+04 7.92389E-09-1.50412E-08
 -1       673 1.63513E+05 2.15751E+04 6.63003E+03 6.18022E+04 4.78235E-09-1.63182E-08
 -1       674 1.72745E+05 3.45255E+04 1.89605E+04 5.83990E+04-2.84285E-09-9.05561E-09
 -1       675 1.58034E+05 1.25006E+04 2.81440E+04 6.33519E+04 1.07775E-10-1.50467E-08
 -1       676 2.37886E+01-2.91630E+05-1.10025E+03-1.16586E+02 1.09472E-09-1.29918E-08
 -1       677-2.91350E+02-2.91896E+05-2.01363E+03 2.32989E+02 8.33546E-09-4.44257E-09
 -1       678 1.95168E+02-2.91441E+05-3.55960E+03-1.16326E+02 1.65142E-09 3.86481E-09
 -1       679-3.55995E+03-2.94045E+05-8.45613E+03 2.31998E+02 7.34690E-09 1.35950E-08
 -1       680 2.12527E+03-2.89482E+05-1.36284E+04-1.14306E+02 6.02995E-10 1.00729E-08
 -1       771-3.02563E+06-7.26660E+05-1.51057E+05-1.44029E+06-3.15194E-08-2.45927E-08
 -1       772-2.95074E+06-8.11895E+05-7.78409E+04-1.53883E+06-2.23808E-08 1.06484E-08
 -1       773-3.05476E+06-7.03868E+05-3.97351E+04-1.45324E+06-1.68802E-08 1.39262E-08
 -1       774-2.94196E+06-7.95320E+05-1.77124E+04-1.56283E+06 2.28611E-08 6.54472E-09
 -1       775-3.06997E+06-6.93157E+05-1.32783E+04-1.45960E+06-1.45519E-10 4.14002E-09
 -1       776-2.95320E+06-7.92657E+05-4.95856E+03-1.58087E+06-9.85165E-09 3.88536E-09
 -1       777-3.08314E+06-6.83631E+05-5.87325E+03-1.46522E+06-8.84756E-09 5.15865E-09
 -1       778-2.96491E+06-7.90173E+05-1.65706E+03-1.59635E+06-3.37604E-09 5.35510E-09
 -1       779-3.09444E+06-6.75327E+05-2.93697E+03-1.47003E+06-9.88075E-09-4.84943E-09
 -1       780-2.97522E+06-7.87802E+05-4.87930E+02-1.60895E+06-6.60657E-09-9.93168E-10
 -1       781-3.10341E+06-6.68644E+05-1.14574E+03-1.47379E+06-2.20753E-08 4.04543E-09
 -1       782-2.98315E+06-7.85786E+05 3.98165E+02-1.61825E+06-3.84753E-08-4.24916E-09
 -1       783-3.10972E+06-6.64007E+05 6.12827E+02-1.47642E+06-1.03682E-08-1.25901E-08
 -1       784-2.98755E+06-7.83763E+05 2.58594E+03-1.62398E+06-2.03145E-08-1.47793E-09
 -1       785-3.11343E+06-6.61257E+05 4.55846E+03-1.47809E+06-3.60269E-08 7.03221E-09
 -1       786 1.25332E+05-9.73227E+03 2.25163E+04-2.99116E+02 3.71601E-09 1.30767E-08
 -1       787 1.35097E+05 1.12676E+04 1.59294E+04-1.16160E+02 8.07216E-09 6.76505E-09
 -1       788 1.29097E+05-1.52515E+03 5.82558E+03-2.64994E+02 6.15031E-09 2.21301E-08
 -1       789 1.30711E+05 1.76517E+03 3.65726E+03-1.68737E+02 4.95232E-10-1.93263E-08
 -1       790 1.29719E+05-2.37555E+02 1.48115E+03-2.46555E+02-2.96241E-09-2.01590E-09
 -1       791 1.29984E+05 2.74792E+02 8.56227E+02-2.00347E+02-8.44591E-09 1.60489E-08
 -1       792 1.29824E+05-3.58872E+01 3.64336E+02-2.33386E+02-3.62586E-09-7.65064E-09
 -1       793 1.29859E+05 3.85020E+01 1.84923E+02-2.25148E+02 3.14424E-10-2.62018E-08
 -1       794 1.29845E+05-1.41472E+00 5.46762E+01-2.21754E+02 3.26713E-09-2.69539E-09
 -1       795 1.29824E+05-2.17883E+01-3.98548E+01-2.49467E+02-5.12283E-09-5.38815E-09
 -1       796 1.29859E+05 2.43696E+01-1.31641E+02-2.09067E+02 3.90922E-09-4.32126E-09
 -1       797 1.29745E+05-1.82879E+02-3.69873E+02-2.78650E+02 4.40139E-09-8.72376E-09
 -1       798 1.29924E+05 1.59555E+02-6.03028E+02-1.92570E+02 2.13263E-09-3.67703E-09
 -1       799 1.29287E+05-1.17626E+03-1.66105E+03-3.19416E+02 6.25087E-09-5.15203E-09
 -1       800 1.30317E+05 1.01694E+03-2.35131E+03-1.68302E+02 4.50447E-10 3.53086E-08
 -1       801-1.32720E+05-9.24370E+06-1.26804E+06 1.23177E+06 8.76898E-08-5.40786E-08
 -1       802 6.21903E+05 4.74909E+06 1.87951E+06-1.50251E+06 2.44996E-07-2.73221E-08
 -1       803-4.66356E+05-1.28653E+07-1.65085E+06 7.91294E+05 7.41347E-08 2.46437E-08
 -1       804 2.38477E+05 1.55432E+06 1.31710E+06 6.11401E+05-1.09747E-07-9.10717E-08
 -1       805 1.74880E+05-6.06406E+06-2.47199E+05-8.77188E+05-4.54529E-08-6.18847E-08
 -1       806-3.02276E+05-5.83743E+04-2.23397E+04-1.19655E+05-8.04266E-09-2.20557E-08
 -1       807-3.04055E+05-5.47070E+04-1.09753E+04-1.25050E+05 5.82713E-09 9.02034E-09
 -1       808-3.02888E+05-5.03253E+04-4.65607E+03-1.23463E+05-1.46019E-09-6.16149E-09
 -1       809-3.01748E+05-5.16225E+04-2.27670E+03-1.25319E+05 4.70686E-09 1.70193E-08
 -1       810-3.02980E+05-5.00450E+04-1.04352E+03-1.23632E+05 1.77656E-08 1.21381E-08
 -1       811-3.01570E+05-5.14984E+04-5.18940E+02-1.25285E+05 9.74615E-09-7.81984E-09
 -1       812-3.02994E+05-5.00690E+04-2.62461E+02-1.23631E+05-1.98452E-09 5.10545E-09
 -1       813-3.01545E+05-5.15005E+04-1.70609E+02-1.25266E+05-4.06089E-10-1.25465E-08
 -1       814-3.02988E+05-5.00784E+04-1.69101E+02-1.23627E+05 7.39601E-09-1.72076E-09
 -1       815-3.01549E+05-5.15026E+04-2.72528E+02-1.25260E+05 2.09639E-10 1.24680E-08
 -1       816-3.02968E+05-5.00773E+04-5.16525E+02-1.23624E+05 6.63476E-09 8.95488E-09
 -1       817-3.01637E+05-5.15518E+04-1.10862E+03-1.25248E+05-1.01181E-08-1.16399E-08
 -1       818-3.02901E+05-5.02335E+04-2.26116E+03-1.23550E+05-2.83035E-09 1.15974E-08
 -1       819-3.02875E+05-5.29180E+04-5.32046E+03-1.24956E+05-8.39646E-09-1.93313E-09
 -1       820-3.02475E+05-5.42518E+04-1.08290E+04-1.21833E+05-1.63891E-09 3.86854E-09
 -1       821-3.72742E+05 2.05337E+04-4.76657E+04 1.75144E+03 1.21958E-08-4.72210E-09
 -1       822-3.92656E+05-2.37799E+04-3.36005E+04-3.53213E+03 3.48892E-09 1.18102E-08
 -1       823-3.80334E+05 3.22983E+03-1.23241E+04 2.68263E+03-1.02241E-08-8.51833E-09
 -1       824-3.83594E+05-3.72858E+03-7.72992E+03-4.08911E+03 8.91035E-10 1.14104E-08
 -1       825-3.81805E+05 5.01802E+02-3.21753E+03 2.30848E+03 1.62587E-08 1.19160E-08
 -1       826-3.81521E+05-5.70988E+02-1.79138E+03-2.24611E+03 1.88233E-08-1.48621E-08
 -1       827-3.82391E+05 6.28174E+01-1.10366E+03 8.39551E+02 8.73663E-09 3.01696E-10
 -1       828-3.81046E+05-1.51271E+02-6.98071E+02 9.86813E+02-6.50346E-10-1.49989E-08
 -1       829-3.82273E+05 7.68626E+01-1.10154E+03-9.24473E+02 5.16323E-10-9.90659E-09
 -1       830-3.81783E+05-6.15102E+02-1.90982E+03 3.84376E+03-2.02729E-09 1.48050E-08
 -1       831-3.81669E+05 5.37419E+02-3.30761E+03-2.01742E+03-3.93895E-09-8.79140E-10
 -1       832-3.83679E+05-3.88576E+03-8.02920E+03 4.76167E+03-1.67320E-09-1.41199E-08
 -1       833-3.80386E+05 3.35191E+03-1.28142E+04-1.84241E+03-6.00011E-10-4.13365E-09
 -1       834-3.92811E+05-2.46834E+04-3.48295E+04 3.21109E+03-1.71918E-09 6.01131E-09
 -1       835-3.72527E+05 2.13090E+04-4.95077E+04-4.66788E+02 5.19535E-09-7.75253E-09
 -1       836-1.37098E+03 3.60894E+05 2.22919E+04-1.63142E+04-6.00994E-09 4.86671E-09
 -1       837 4.76210E+03 3.67871E+05 1.88815E+04-3.32554E+04-6.63476E-09 9.42578E-09
 -1       838-5.39704E+02 3.62847E+05 1.92638E+04-1.62432E+04-5.44742E-09 9.79048E-09
 -1       839 1.21436E+04 3.73368E+05 3.64666E+04-3.33063E+04-5.56065E-09-2.34968E-09
 -1       840-3.74743E+03 3.55338E+05 5.81619E+04-1.62682E+04-5.25688E-09 1.01799E-08
 -1       856-5.54771E+04 8.00842E+03-2.11040E+04-3.99520E+02 4.14923E-09-2.31012E-10
 -1       857-6.41740E+04-9.40767E+03-1.45280E+04 5.55328E+03 6.02301E-09-5.28644E-09
 -1       858-5.89204E+04 1.12299E+03-5.47608E+03-4.23630E+02 4.70101E-09-9.46238E-09
 -1       859-6.02223E+04-1.31930E+03-3.30479E+03 5.58943E+03-3.16713E-09-6.08401E-09
 -1       860-5.94348E+04 1.57151E+02-1.38541E+03-4.35444E+02 1.08335E-09-1.67402E-08
 -1       861-5.96305E+04-1.85869E+02-7.62923E+02 5.60555E+03-1.04995E-09-2.61529E-08
 -1       862-5.95153E+04 2.12219E+01-3.18704E+02-4.39728E+02-4.00398E-10 2.69807E-09
 -1       863-5.95322E+04-2.04216E+01-1.19654E+02 5.60799E+03-3.87214E-09 3.63730E-09
 -1       864-5.95336E+04-4.54296E+00 3.90944E+01-4.37883E+02-2.46277E-09-1.44774E-08
 -1       865-5.94787E+04 5.73044E+01 2.36899E+02 5.59759E+03 8.42988E-11 3.88421E-09
 -1       866-5.95666E+04-5.65714E+01 4.81524E+02-4.29337E+02 4.49290E-10-2.51362E-09
 -1       867-5.92511E+04 4.67607E+02 1.18789E+03 5.57437E+03 5.11818E-10-9.19295E-09
 -1       868-5.97564E+04-4.07577E+02 1.97453E+03-4.14654E+02-2.64265E-10 7.36804E-10
 -1       869-5.78026E+04 3.39200E+03 5.25855E+03 5.53601E+03 2.18498E-09-1.19700E-08
 -1       870-6.10075E+04-2.90174E+03 7.63114E+03-3.90893E+02-2.53601E-09-5.69798E-10
 -1       871-5.43003E+03-2.00973E+04-1.90054E+04 1.27069E+05-3.58887E-09 9.36598E-09
 -1       872-1.99564E+03-2.45007E+04-7.94234E+03 1.64762E+05-8.76025E-09-6.03131E-09
 -1       873 3.48135E+02-2.23789E+04 6.14515E+02 1.26790E+05-4.74347E-09 5.47311E-09
 -1       874 3.18398E+03-1.99937E+04 9.62810E+03 1.64793E+05-1.11249E-08 1.64728E-08
 -1       875 6.68066E+03-2.46720E+04 2.16896E+04 1.27023E+05-4.07090E-09-5.86442E-09
 -1       876 2.88151E+05 4.86492E+04 1.48475E+04 1.15736E+05 8.23320E-10 7.54790E-09
 -1       877 2.89124E+05 5.17852E+04 7.92915E+03 1.20003E+05 1.03764E-08-1.70560E-08
 -1       878 2.89539E+05 4.70048E+04 3.32192E+03 1.16952E+05 8.82210E-11-1.01559E-08
 -1       879 2.87105E+05 4.97712E+04 1.65517E+03 1.20104E+05 8.47285E-09-7.25436E-10
 -1       880 2.89639E+05 4.69877E+04 7.70936E+02 1.17002E+05 4.45084E-09 7.70967E-10
 -1       881 2.86971E+05 4.96851E+04 4.11650E+02 1.20081E+05-5.57429E-09 1.26141E-08
 -1       882 2.89648E+05 4.70007E+04 2.63277E+02 1.17003E+05-3.20756E-09 3.00499E-09
 -1       883 2.86962E+05 4.96806E+04 2.82918E+02 1.20073E+05-3.36087E-09 1.00964E-08
 -1       884 2.89641E+05 4.69979E+04 4.49949E+02 1.17004E+05 8.84143E-10 6.64841E-10
 -1       885 2.86998E+05 4.96869E+04 9.04581E+02 1.20084E+05 2.39879E-11 1.85537E-10
 -1       886 2.89606E+05 4.69716E+04 1.82311E+03 1.17000E+05-1.45925E-09 6.48470E-09
 -1       887 2.87318E+05 4.98970E+04 3.98232E+03 1.20130E+05 9.09472E-09-1.60662E-09
 -1       888 2.89355E+05 4.70159E+04 8.02449E+03 1.16873E+05-1.18024E-09-2.68255E-09
 -1       889 2.92095E+05 5.48648E+04 1.91691E+04 1.19984E+05-3.68294E-09-1.79680E-08
 -1       890 2.86080E+05 5.09056E+04 3.59032E+04 1.13818E+05-2.50384E-09-1.19690E-09
 -1       891-9.62852E+01-1.59948E+05-1.95737E+03 2.69565E+04 1.11299E-09-4.17504E-09
 -1       892-1.85233E+02-1.60460E+05-2.10367E+03 4.09190E+04 1.00749E-09 2.78692E-09
 -1       893 3.40636E+01-1.60011E+05-2.98005E+03 2.69636E+04-8.52651E-10-9.42828E-09
 -1       894-1.49599E+03-1.61587E+05-6.16864E+03 4.07681E+04 3.59069E-09 1.53991E-08
 -1       895-1.18637E+03-1.58725E+05-1.08634E+04 2.71087E+04-7.92056E-10-1.36697E-09
 -1       956-3.69484E+05-5.32006E+03-1.31638E+04 2.96926E+04 5.70435E-09-1.18443E-08
 -1       957-3.72069E+05-1.86677E+03-6.75686E+03 3.56913E+04 3.32057E-09-1.76115E-08
 -1       958-3.70665E+05-2.23969E+02-3.04479E+03 2.95293E+04 3.06500E-10 6.97378E-09
 -1       959-3.70860E+05-1.19657E+02-1.55477E+03 3.58804E+04 8.19318E-09 1.43114E-08
 -1       960-3.70780E+05-3.27765E+01-7.58170E+02 2.95126E+04 5.66888E-09 2.88969E-09
 -1       961-3.70780E+05-4.87548E+01-4.02025E+02 3.59001E+04 8.96716E-09 3.07409E-10
 -1       962-3.70806E+05-3.43656E+01-2.30207E+02 2.95098E+04 5.66342E-09 8.20137E-10
 -1       963-3.70780E+05-4.48860E+01-1.84877E+02 3.59036E+04 8.52867E-09-4.29759E-09
 -1       964-3.70812E+05-3.11420E+01-2.24881E+02 2.95091E+04 1.42687E-09-1.28307E-09
 -1       965-3.70792E+05-4.18825E+01-3.88999E+02 3.59030E+04-2.40112E-09-2.25191E-09
 -1       966-3.70796E+05-2.31955E+01-7.30897E+02 2.95105E+04 3.15663E-09 8.19841E-09
 -1       967-3.70880E+05-1.03687E+02-1.49909E+03 3.58893E+04-2.75691E-09 8.92760E-09
 -1       968-3.70695E+05-2.01362E+02-2.93459E+03 2.95226E+04 6.74254E-09-8.57256E-10
 -1       969-3.72058E+05-1.78280E+03-6.51482E+03 3.57471E+04 1.64478E-08 6.27995E-09
 -1       970-3.69564E+05-5.11106E+03-1.26911E+04 2.96455E+04 5.23232E-09 7.16682E-09
 -1       971-3.39158E+05-1.70277E+03-9.20566E+03 1.51927E+04 5.34965E-09-2.19632E-09
 -1       972-3.41376E+05-1.25016E+03-5.01330E+03 2.10351E+04 7.51197E-09-2.12701E-08
 -1       973-3.40184E+05-5.60551E+01-2.24546E+03 1.50722E+04 5.39694E-09 4.68231E-09
 -1       974-3.40320E+05-7.28110E+01-1.16390E+03 2.11709E+04-8.59472E-10 4.21721E-09
 -1       975-3.40265E+05-1.17356E+01-5.82104E+02 1.50600E+04-2.29420E-09-6.37783E-09
 -1       976-3.40259E+05-2.35646E+01-3.36383E+02 2.11864E+04-8.59018E-10 1.17764E-08
 -1       977-3.40281E+05-1.10445E+01-2.45135E+02 1.50567E+04 1.18189E-09 1.67289E-08
 -1       978-3.40264E+05-1.74459E+01-2.88210E+02 2.11911E+04-3.68891E-09 1.90511E-08
 -1       979-3.40281E+05-2.73460E+00-4.64226E+02 1.50553E+04-3.86001E-09-5.38444E-09
 -1       980-3.40299E+05-1.44415E+01-8.97093E+02 2.11920E+04-4.97489E-09-3.61331E-09
 -1       981-3.40252E+05 1.96805E+01-1.73784E+03 1.50558E+04 2.56796E-09-7.92170E-09
 -1       982-3.40537E+05-1.42851E+02-3.59230E+03 2.11855E+04 2.07160E-09-5.06975E-09
 -1       983-3.40033E+05-9.16021E+01-6.97998E+03 1.50618E+04-3.04726E-09-5.94969E-09
 -1       984-3.43894E+05-3.78829E+03-1.56314E+04 2.11007E+04-1.78829E-09 4.93753E-09
 -1       985-3.36873E+05-5.19914E+03-2.87041E+04 1.51341E+04-1.10776E-09-1.83718E-08
 -3
    1PSTEP                        29          15           1          
  100CL  115 6.59912E-01         409                     0   15           1
 -4  DISP        4    1
 -5  D1          1    2    1    0
 -5  D2          1    2    2    0
 -5  D3          1    2    3    0
 -5  ALL         1    2    0    0    1ALL
 -1         1 2.58216E-03 0.00000E+00 0.00000E+00
 -1         2 1.41754E-03 1.81383E-27 0.00000E+00
 -1         3 3.38383E-04-6.30661E-28 1.32349E-23
 -1         5 1.77103E-04-1.12239E-26 1.24077E-24
 -1         8 2.56922E-03-4.42747E-07 0.00000E+00
 -1         9 2.56012E-03-1.38561E-04 0.00000E+00
 -1        10 3.07096E-04-3.45430E-06 0.00000E+00
 -1        12 1.78847E-04 8.01786E-07-1.24077E-24
 -1        15 2.55412E-03-4.73707E-07-2.06795E-25
 -1        16 2.60845E-03-1.40112E-04 0.00000E+00
 -1        17 2.09997E-04-7.83735E-06 0.00000E+00
 -1        18 1.82499E-04 3.30210E-05 0.00000E+00
 -1        19 1.84080E-04 1.59743E-06 0.00000E+00
 -1        20 1.84221E-04-8.70906E-06 0.00000E+00
 -1        21 1.83341E-04-2.29385E-05 0.00000E+00
 -1        24 3.04938E-05-1.20813E-05 0.00000E+00
 -1        25 1.92771E-04 3.32436E-05 0.00000E+00
 -1        26 1.93459E-04 2.21237E-06 0.00000E+00
 -1        27 1.91279E-04-1.22396E-05 0.00000E+00
 -1        28 1.90956E-04-2.35572E-05 0.00000E+00
 -1        32 0.00000E+00 0.00000E+00 0.00000E+00
 -1        33 2.01824E-04 2.95993E-06 0.00000E+00
 -1        34 1.99722E-04-1.22940E-05 0.00000E+00
 -1        35 1.97802E-04-2.38971E-05 0.00000E+00
 -1        51 2.58130E-03-8.96502E-08 3.30872E-24
 -1        52 2.57973E-03-1.61921E-07 0.00000E+00
 -1        53 2.57758E-03-2.31133E-07 0.00000E+00
 -1        54 2.57502E-03-2.99503E-07 0.00000E+00
 -1        55 2.57218E-03-3.68745E-07 4.13590E-25
 -1        56 2.57673E-03 3.16264E-06-5.29396E-23
 -1        57 2.56800E-03 1.45179E-05 0.00000E+00
 -1        58 2.55716E-03 3.12990E-05-1.05879E-22
 -1        59 2.54545E-03 5.01917E-05-5.29396E-23
 -1        60 2.53435E-03 6.75395E-05 0.00000E+00
 -1        61 2.52524E-03 7.98079E-05 0.00000E+00
 -1        62 2.51911E-03 8.43519E-05 0.00000E+00
 -1        63 2.51662E-03 7.91982E-05 5.29396E-23
 -1        64 2.51777E-03 6.40915E-05 0.00000E+00
 -1        65 2.52223E-03 3.96669E-05-5.29396E-23
 -1        66 2.52913E-03 8.23675E-06 1.05879E-22
 -1        67 2.53741E-03-2.72468E-05 0.00000E+00
 -1        68 2.54581E-03-6.30946E-05 0.00000E+00
 -1        69 2.55310E-03-9.55766E-05-5.29396E-23
 -1        70 2.55813E-03-1.21586E-04-5.29396E-23
 -1        86 1.48922E-03-4.62911E-06 0.00000E+00
 -1        87 1.69789E-03-2.79445E-05 0.00000E+00
 -1        88 1.97835E-03-6.76502E-05 0.00000E+00
 -1        89 2.26201E-03-1.08270E-04 0.00000E+00
 -1        90 2.47849E-03-1.33151E-04 0.00000E+00
 -1       121 3.37504E-04-5.58702E-07 0.00000E+00
 -1       122 3.34872E-04-1.12037E-06 6.61744E-24
 -1       123 3.30495E-04-1.68791E-06 0.00000E+00
 -1       124 3.24390E-04-2.26425E-06 0.00000E+00
 -1       125 3.16580E-04-2.85191E-06 0.00000E+00
 -1       191 1.77151E-04 1.33688E-07-1.65436E-24
 -1       192 1.77297E-04 2.67366E-07-8.27181E-25
 -1       193 1.77539E-04 4.01026E-07 1.65436E-24
 -1       194 1.77878E-04 5.34657E-07 4.13590E-25
 -1       195 1.78314E-04 6.68248E-07-1.65436E-24
 -1       251 2.56878E-03 4.06155E-06 6.61744E-24
 -1       252 2.56831E-03 1.23882E-05-6.61744E-24
 -1       253 2.56782E-03 2.24406E-05-1.32349E-23
 -1       254 2.56733E-03 3.20901E-05 0.00000E+00
 -1       255 2.56687E-03 3.92957E-05 1.32349E-23
 -1       256 2.56642E-03 4.20608E-05 6.61744E-24
 -1       257 2.56597E-03 3.93439E-05 0.00000E+00
 -1       258 2.56548E-03 3.02035E-05 0.00000E+00
 -1       259 2.56493E-03 1.50770E-05-1.32349E-23
 -1       260 2.56428E-03-5.48868E-06 0.00000E+00
 -1       261 2.56356E-03-2.97777E-05 0.00000E+00
 -1       262 2.56278E-03-5.60075E-05 6.61744E-24
 -1       263 2.56201E-03-8.19773E-05 1.32349E-23
 -1       264 2.56130E-03-1.05491E-04 6.61744E-24
 -1       265 2.56067E-03-1.24883E-04 0.00000E+00
 -1       266 2.56671E-03-4.54254E-07-3.30872E-24
 -1       267 2.56419E-03-4.58641E-07 0.00000E+00
 -1       268 2.56167E-03-4.63478E-07 0.00000E+00
 -1       269 2.55915E-03-4.66979E-07-2.06795E-25
 -1       270 2.55664E-03-4.70449E-07 0.00000E+00
 -1       271 2.56800E-03 8.33207E-07-1.32349E-23
 -1       272 2.56748E-03 1.70537E-07 0.00000E+00
 -1       273 2.56765E-03-2.33958E-06 0.00000E+00
 -1       274 2.56846E-03-6.59859E-06 1.32349E-23
 -1       275 2.56988E-03-1.24897E-05 0.00000E+00
 -1       276 2.57185E-03-1.98834E-05 0.00000E+00
 -1       277 2.57432E-03-2.86360E-05 2.64698E-23
 -1       278 2.57723E-03-3.85923E-05 0.00000E+00
 -1       279 2.58052E-03-4.95862E-05 2.64698E-23
 -1       280 2.58412E-03-6.14425E-05 0.00000E+00
 -1       281 2.58796E-03-7.39780E-05-2.64698E-23
 -1       282 2.59199E-03-8.70040E-05 0.00000E+00
 -1       283 2.59612E-03-1.00327E-04 2.64698E-23
 -1       284 2.60029E-03-1.13751E-04 0.00000E+00
 -1       285 2.60442E-03-1.27079E-04-1.32349E-23
 -1       301 2.56890E-03-1.38848E-04 1.32349E-23
 -1       302 2.57622E-03-1.39095E-04-6.61744E-24
 -1       303 2.58297E-03-1.39335E-04 0.00000E+00
 -1       304 2.59001E-03-1.39576E-04 0.00000E+00
 -1       305 2.59822E-03-1.39828E-04 0.00000E+00
 -1       306 2.59679E-03-2.86794E-04 0.00000E+00
 -1       307 2.66098E-03-6.89735E-04 5.29396E-23
 -1       308 2.71020E-03-1.28168E-03-1.05879E-22
 -1       309 2.73761E-03-1.96958E-03-5.29396E-23
 -1       310 2.77133E-03-2.63057E-03-1.05879E-22
 -1       311 2.83125E-03-3.14419E-03-5.29396E-23
 -1       312 2.88979E-03-3.43103E-03 0.00000E+00
 -1       313 2.88927E-03-3.45187E-03 5.29396E-23
 -1       314 2.75893E-03-3.21697E-03 1.05879E-22
 -1       315 2.45830E-03-2.78700E-03-5.29396E-23
 -1       316 2.00393E-03-2.23663E-03 0.00000E+00
 -1       317 1.45819E-03-1.63471E-03-5.29396E-23
 -1       318 9.30955E-04-1.04290E-03 0.00000E+00
 -1       319 5.26633E-04-5.26528E-04 5.29396E-23
 -1       320 2.88296E-04-1.57950E-04 0.00000E+00
 -1       336 2.95754E-04-4.11946E-06-1.32349E-23
 -1       337 2.82383E-04-4.80925E-06-6.61744E-24
 -1       338 2.67044E-04-5.52569E-06 1.32349E-23
 -1       339 2.49811E-04-6.26949E-06 6.61744E-24
 -1       340 2.30764E-04-7.04498E-06 1.32349E-23
 -1       406 1.79477E-04 9.35253E-07-3.30872E-24
 -1       407 1.80204E-04 1.06861E-06-4.13590E-25
 -1       408 1.81028E-04 1.20182E-06 0.00000E+00
 -1       409 1.81949E-04 1.33470E-06 4.13590E-25
 -1       410 1.82966E-04 1.46698E-06-8.27181E-25
 -1       521 2.64582E-03-2.97567E-04 1.05879E-22
 -1       522 2.70848E-03-7.20121E-04 5.29396E-23
 -1       523 2.75182E-03-1.33884E-03 0.00000E+00
 -1       524 2.77072E-03-2.05422E-03-5.29396E-23
 -1       525 2.79706E-03-2.74080E-03 1.05879E-22
 -1       526 2.85359E-03-3.27576E-03 0.00000E+00
 -1       527 2.91174E-03-3.57323E-03 2.11758E-22
 -1       528 2.90927E-03-3.59299E-03 5.29396E-23
 -1       529 2.76816E-03-3.34509E-03 0.00000E+00
 -1       530 2.44569E-03-2.89748E-03 0.00000E+00
 -1       531 1.95896E-03-2.32841E-03-1.05879E-22
 -1       532 1.37624E-03-1.70941E-03 0.00000E+00
 -1       533 8.12395E-04-1.09989E-03 0.00000E+00
 -1       534 3.76654E-04-5.63104E-04-5.29396E-23
 -1       535 1.18056E-04-1.75469E-04 0.00000E+00
 -1       536 2.09267E-04 2.63346E-05 0.00000E+00
 -1       537 2.07423E-04 8.55173E-05-1.65436E-24
 -1       538 2.04574E-04 1.60625E-04-3.30872E-24
 -1       539 2.01216E-04 2.42489E-04-1.65436E-24
 -1       540 1.98193E-04 3.19846E-04 0.00000E+00
 -1       541 1.96226E-04 3.81451E-04 0.00000E+00
 -1       542 1.95316E-04 4.20675E-04 0.00000E+00
 -1       543 1.95096E-04 4.31034E-04-1.65436E-24
 -1       544 1.94780E-04 4.13294E-04 0.00000E+00
 -1       545 1.93646E-04 3.68433E-04 0.00000E+00
 -1       546 1.91540E-04 3.04429E-04 0.00000E+00
 -1       547 1.88693E-04 2.29380E-04 1.65436E-24
 -1       548 1.85873E-04 1.54717E-04 0.00000E+00
 -1       549 1.83838E-04 9.18737E-05-1.65436E-24
 -1       550 1.82779E-04 4.87247E-05 1.65436E-24
 -1       551 1.85187E-04-8.40726E-06 0.00000E+00
 -1       552 1.56993E-04-9.05978E-06 0.00000E+00
 -1       553 1.26412E-04-9.77621E-06 0.00000E+00
 -1       554 9.44598E-05-1.05345E-05 6.61744E-24
 -1       555 6.21503E-05-1.13055E-05 0.00000E+00
 -1       556 2.02527E-04 1.12709E-05 5.29396E-23
 -1       557 1.96497E-04 2.67559E-05 0.00000E+00
 -1       558 1.91774E-04 3.89008E-05 0.00000E+00
 -1       559 1.88227E-04 4.80111E-05 0.00000E+00
 -1       560 1.85730E-04 5.43924E-05 0.00000E+00
 -1       561 1.84156E-04 5.83530E-05 0.00000E+00
 -1       562 1.83382E-04 6.02024E-05 0.00000E+00
 -1       563 1.83287E-04 6.02509E-05 0.00000E+00
 -1       564 1.83751E-04 5.88097E-05 0.00000E+00
 -1       565 1.84654E-04 5.61905E-05-6.61744E-24
 -1       566 1.85881E-04 5.27058E-05 0.00000E+00
 -1       567 1.87312E-04 4.86683E-05 0.00000E+00
 -1       568 1.88833E-04 4.43909E-05-1.65436E-24
 -1       569 1.90327E-04 4.01865E-05 8.27181E-25
 -1       570 1.91677E-04 3.63679E-05 0.00000E+00
 -1       571 1.82595E-04 3.09829E-05-1.65436E-24
 -1       572 1.82693E-04 2.88800E-05 1.65436E-24
 -1       573 1.82791E-04 2.67276E-05-3.30872E-24
 -1       574 1.82890E-04 2.45418E-05 0.00000E+00
 -1       575 1.82989E-04 2.23388E-05 0.00000E+00
 -1       576 1.83087E-04 2.01346E-05-1.65436E-24
 -1       577 1.83186E-04 1.79456E-05-3.30872E-24
 -1       578 1.83285E-04 1.57879E-05 0.00000E+00
 -1       579 1.83384E-04 1.36778E-05-6.61744E-24
 -1       580 1.83483E-04 1.16315E-05 0.00000E+00
 -1       581 1.83582E-04 9.66529E-06 0.00000E+00
 -1       582 1.83681E-04 7.79524E-06 0.00000E+00
 -1       583 1.83781E-04 6.03760E-06 0.00000E+00
 -1       584 1.83881E-04 4.40840E-06-3.30872E-24
 -1       585 1.83980E-04 2.92350E-06 0.00000E+00
 -1       586 1.84169E-04 3.30602E-05-1.65436E-24
 -1       587 1.85799E-04 3.30988E-05 0.00000E+00
 -1       588 1.87431E-04 3.31371E-05-8.27181E-25
 -1       589 1.89109E-04 3.31747E-05 0.00000E+00
 -1       590 1.90874E-04 3.32111E-05 0.00000E+00
 -1       591 1.83196E-04 3.10745E-05-2.06795E-25
 -1       592 1.83897E-04 2.91076E-05 2.06795E-25
 -1       593 1.84602E-04 2.71261E-05-8.27181E-25
 -1       594 1.85311E-04 2.51349E-05 0.00000E+00
 -1       595 1.86022E-04 2.31388E-05 0.00000E+00
 -1       596 1.86732E-04 2.11424E-05 4.13590E-25
 -1       597 1.87441E-04 1.91505E-05 0.00000E+00
 -1       598 1.88146E-04 1.71680E-05-4.13590E-25
 -1       599 1.88847E-04 1.51995E-05 8.27181E-25
 -1       600 1.89540E-04 1.32497E-05 0.00000E+00
 -1       601 1.90224E-04 1.13235E-05 0.00000E+00
 -1       602 1.90898E-04 9.42550E-06-2.06795E-25
 -1       603 1.91560E-04 7.56050E-06 0.00000E+00
 -1       604 1.92208E-04 5.73333E-06-1.03398E-25
 -1       605 1.92840E-04 3.94866E-06 0.00000E+00
 -1       606 1.84093E-04 5.02149E-07 0.00000E+00
 -1       607 1.84103E-04-5.06446E-07 0.00000E+00
 -1       608 1.84112E-04-1.43344E-06-3.30872E-24
 -1       609 1.84121E-04-2.28456E-06 1.65436E-24
 -1       610 1.84129E-04-3.06562E-06 0.00000E+00
 -1       611 1.84137E-04-3.78245E-06 0.00000E+00
 -1       612 1.84146E-04-4.44091E-06 0.00000E+00
 -1       613 1.84154E-04-5.04689E-06 0.00000E+00
 -1       614 1.84163E-04-5.60624E-06 0.00000E+00
 -1       615 1.84171E-04-6.12483E-06 0.00000E+00
 -1       616 1.84180E-04-6.60853E-06 0.00000E+00
 -1       617 1.84188E-04-7.06321E-06 0.00000E+00
 -1       618 1.84197E-04-7.49473E-06 8.27181E-25
 -1       619 1.84205E-04-7.90897E-06 2.06795E-25
 -1       620 1.84213E-04-8.31179E-06 0.00000E+00
 -1       621 1.85366E-04 1.70046E-06 1.65436E-24
 -1       622 1.86806E-04 1.80374E-06 8.27181E-25
 -1       623 1.88368E-04 1.90682E-06 1.65436E-24
 -1       624 1.90019E-04 2.00958E-06-8.27181E-25
 -1       625 1.91727E-04 2.11206E-06-1.65436E-24
 -1       626 1.84602E-04 5.37939E-07 0.00000E+00
 -1       627 1.85101E-04-4.57496E-07-3.30872E-24
 -1       628 1.85579E-04-1.39674E-06 0.00000E+00
 -1       629 1.86039E-04-2.28800E-06 0.00000E+00
 -1       630 1.86484E-04-3.13950E-06-3.30872E-24
 -1       631 1.86918E-04-3.95948E-06 0.00000E+00
 -1       632 1.87343E-04-4.75617E-06-3.30872E-24
 -1       633 1.87762E-04-5.53784E-06 1.65436E-24
 -1       634 1.88179E-04-6.31272E-06 0.00000E+00
 -1       635 1.88596E-04-7.08904E-06 1.65436E-24
 -1       636 1.89017E-04-7.87506E-06-3.30872E-24
 -1       637 1.89445E-04-8.67903E-06 1.65436E-24
 -1       638 1.89882E-04-9.50919E-06 1.65436E-24
 -1       639 1.90332E-04-1.03738E-05 0.00000E+00
 -1       640 1.90797E-04-1.12811E-05-1.65436E-24
 -1       656 1.84851E-04-9.28290E-06-6.61744E-24
 -1       657 1.85901E-04-9.88006E-06 0.00000E+00
 -1       658 1.87230E-04-1.04758E-05 1.32349E-23
 -1       659 1.88692E-04-1.10712E-05 6.61744E-24
 -1       660 1.90103E-04-1.16685E-05-6.61744E-24
 -1       661 1.84457E-04-9.15084E-06 0.00000E+00
 -1       662 1.84731E-04-9.68338E-06-8.27181E-25
 -1       663 1.85036E-04-1.03015E-05 1.65436E-24
 -1       664 1.85371E-04-1.09990E-05-8.27181E-25
 -1       665 1.85734E-04-1.17699E-05 0.00000E+00
 -1       666 1.86123E-04-1.26086E-05 8.27181E-25
 -1       667 1.86534E-04-1.35095E-05-1.65436E-24
 -1       668 1.86967E-04-1.44671E-05 0.00000E+00
 -1       669 1.87419E-04-1.54761E-05 0.00000E+00
 -1       670 1.87889E-04-1.65313E-05 8.27181E-25
 -1       671 1.88374E-04-1.76277E-05 1.65436E-24
 -1       672 1.88872E-04-1.87602E-05 8.27181E-25
 -1       673 1.89381E-04-1.99240E-05 0.00000E+00
 -1       674 1.89900E-04-2.11145E-05 0.00000E+00
 -1       675 1.90427E-04-2.23265E-05 0.00000E+00
 -1       676 1.84614E-04-2.30422E-05 3.30872E-24
 -1       677 1.85887E-04-2.31459E-05 0.00000E+00
 -1       678 1.87158E-04-2.32495E-05 3.30872E-24
 -1       679 1.88427E-04-2.33528E-05-1.65436E-24
 -1       680 1.89694E-04-2.34561E-05 0.00000E+00
 -1       771 1.86625E-05 1.43646E-05 0.00000E+00
 -1       772 8.70705E-06 3.60860E-05 0.00000E+00
 -1       773 5.37059E-07 5.33108E-05 0.00000E+00
 -1       774-5.97032E-06 6.62947E-05-2.64698E-23
 -1       775-1.09354E-05 7.53034E-05-5.29396E-23
 -1       776-1.44832E-05 8.06193E-05-2.64698E-23
 -1       777-1.67386E-05 8.25345E-05 0.00000E+00
 -1       778-1.78291E-05 8.13549E-05 0.00000E+00
 -1       779-1.78815E-05 7.73947E-05 5.29396E-23
 -1       780-1.70247E-05 7.09794E-05 2.64698E-23
 -1       781-1.53865E-05 6.24411E-05 5.29396E-23
 -1       782-1.30964E-05 5.21206E-05-2.64698E-23
 -1       783-1.02831E-05 4.03633E-05 5.29396E-23
 -1       784-7.07644E-06 2.75208E-05 0.00000E+00
 -1       785-3.60519E-06 1.39474E-05 5.29396E-23
 -1       786 1.92809E-04 3.10779E-05-2.58494E-26
 -1       787 1.92852E-04 2.89621E-05-4.13590E-25
 -1       788 1.92894E-04 2.68876E-05 0.00000E+00
 -1       789 1.92937E-04 2.48465E-05-8.27181E-25
 -1       790 1.92980E-04 2.28340E-05 1.65436E-24
 -1       791 1.93023E-04 2.08454E-05 0.00000E+00
 -1       792 1.93067E-04 1.88785E-05-1.65436E-24
 -1       793 1.93110E-04 1.69312E-05 0.00000E+00
 -1       794 1.93153E-04 1.50031E-05-1.65436E-24
 -1       795 1.93197E-04 1.30943E-05-8.27181E-25
 -1       796 1.93240E-04 1.12066E-05 0.00000E+00
 -1       797 1.93284E-04 9.34192E-06 0.00000E+00
 -1       798 1.93328E-04 7.50450E-06 0.00000E+00
 -1       799 1.93371E-04 5.69870E-06 8.27181E-25
 -1       800 1.93415E-04 3.93210E-06 0.00000E+00
 -1       801 1.48082E-04 2.98613E-05 2.64698E-23
 -1       802 1.28932E-05 1.86443E-05 0.00000E+00
 -1       803-1.03087E-04 9.38203E-06 0.00000E+00
 -1       804-9.23807E-05 6.51271E-06-2.64698E-23
 -1       805-3.07096E-05 2.59446E-06 0.00000E+00
 -1       806 1.93468E-04 3.10098E-05 0.00000E+00
 -1       807 1.94152E-04 2.88022E-05 0.00000E+00
 -1       808 1.94824E-04 2.66258E-05 0.00000E+00
 -1       809 1.95482E-04 2.44847E-05 0.00000E+00
 -1       810 1.96125E-04 2.23828E-05 0.00000E+00
 -1       811 1.96752E-04 2.03241E-05 1.65436E-24
 -1       812 1.97362E-04 1.83124E-05 0.00000E+00
 -1       813 1.97952E-04 1.63517E-05 0.00000E+00
 -1       814 1.98522E-04 1.44457E-05 0.00000E+00
 -1       815 1.99070E-04 1.25983E-05-8.27181E-25
 -1       816 1.99595E-04 1.08134E-05 1.65436E-24
 -1       817 2.00095E-04 9.09483E-06-8.27181E-25
 -1       818 2.00569E-04 7.44639E-06 3.30872E-24
 -1       819 2.01016E-04 5.87191E-06 8.27181E-25
 -1       820 2.01434E-04 4.37518E-06-1.65436E-24
 -1       821 1.93331E-04-7.86611E-09 1.65436E-24
 -1       822 1.93192E-04-3.27092E-06 0.00000E+00
 -1       823 1.93052E-04-7.18271E-06-3.30872E-24
 -1       824 1.92909E-04-1.13451E-05 0.00000E+00
 -1       825 1.92767E-04-1.52927E-05 0.00000E+00
 -1       826 1.92627E-04-1.85611E-05 0.00000E+00
 -1       827 1.92490E-04-2.08702E-05-3.30872E-24
 -1       828 1.92354E-04-2.19457E-05-1.65436E-24
 -1       829 1.92219E-04-2.18474E-05-3.30872E-24
 -1       830 1.92084E-04-2.06424E-05 0.00000E+00
 -1       831 1.91947E-04-1.86975E-05 0.00000E+00
 -1       832 1.91810E-04-1.63840E-05 0.00000E+00
 -1       833 1.91673E-04-1.41733E-05-3.30872E-24
 -1       834 1.91539E-04-1.25361E-05 0.00000E+00
 -1       835 1.91405E-04-1.17881E-05 0.00000E+00
 -1       836 1.95064E-04 2.33636E-06-3.30872E-24
 -1       837 1.96542E-04 2.46345E-06-1.65436E-24
 -1       838 1.97925E-04 2.59048E-06 0.00000E+00
 -1       839 1.99245E-04 2.71681E-06 8.27181E-25
 -1       840 2.00534E-04 2.84297E-06 0.00000E+00
 -1       856 1.91263E-04-1.32203E-05-8.27181E-25
 -1       857 1.91243E-04-1.40659E-05 2.58494E-26
 -1       858 1.91223E-04-1.47974E-05 2.06795E-25
 -1       859 1.91203E-04-1.54358E-05 2.06795E-25
 -1       860 1.91183E-04-1.60023E-05 0.00000E+00
 -1       861 1.91163E-04-1.65181E-05-2.06795E-25
 -1       862 1.91142E-04-1.70044E-05 8.27181E-25
 -1       863 1.91122E-04-1.74826E-05-4.13590E-25
 -1       864 1.91102E-04-1.79737E-05 0.00000E+00
 -1       865 1.91081E-04-1.84992E-05 0.00000E+00
 -1       866 1.91061E-04-1.90802E-05 8.27181E-25
 -1       867 1.91041E-04-1.97379E-05 4.13590E-25
 -1       868 1.91020E-04-2.04934E-05 0.00000E+00
 -1       869 1.90999E-04-2.13679E-05 0.00000E+00
 -1       870 1.90978E-04-2.23822E-05 0.00000E+00
 -1       871 1.92546E-04-1.22443E-05-8.27181E-25
 -1       872 1.93958E-04-1.22523E-05 0.00000E+00
 -1       873 1.95449E-04-1.22610E-05 0.00000E+00
 -1       874 1.96952E-04-1.22705E-05 3.87741E-25
 -1       875 1.98399E-04-1.22805E-05 1.24077E-24
 -1       876 1.91773E-04-1.32059E-05-3.30872E-24
 -1       877 1.92245E-04-1.41057E-05-1.65436E-24
 -1       878 1.92696E-04-1.49469E-05 0.00000E+00
 -1       879 1.93128E-04-1.57370E-05-1.65436E-24
 -1       880 1.93543E-04-1.64833E-05-3.30872E-24
 -1       881 1.93945E-04-1.71931E-05 0.00000E+00
 -1       882 1.94335E-04-1.78738E-05 0.00000E+00
 -1       883 1.94718E-04-1.85326E-05-1.65436E-24
 -1       884 1.95095E-04-1.91769E-05 3.30872E-24
 -1       885 1.95470E-04-1.98140E-05-1.65436E-24
 -1       886 1.95844E-04-2.04511E-05 3.30872E-24
 -1       887 1.96221E-04-2.10957E-05 1.65436E-24
 -1       888 1.96604E-04-2.17550E-05 0.00000E+00
 -1       889 1.96994E-04-2.24365E-05 1.65436E-24
 -1       890 1.97394E-04-2.31474E-05 0.00000E+00
 -1       891 1.92239E-04-2.36143E-05 0.00000E+00
 -1       892 1.93498E-04-2.36715E-05 8.27181E-25
 -1       893 1.94709E-04-2.37287E-05 1.65436E-24
 -1       894 1.95847E-04-2.37856E-05 4.13590E-25
 -1       895 1.96886E-04-2.38423E-05 4.13590E-25
 -1       956 2.01694E-04 1.71741E-06 3.30872E-24
 -1       957 2.01563E-04 5.65361E-07 0.00000E+00
 -1       958 2.01431E-04-5.06816E-07 0.00000E+00
 -1       959 2.01299E-04-1.51030E-06 0.00000E+00
 -1       960 2.01168E-04-2.45632E-06 3.30872E-24
 -1       961 2.01036E-04-3.35613E-06 0.00000E+00
 -1       962 2.00904E-04-4.22100E-06 0.00000E+00
 -1       963 2.00772E-04-5.06222E-06 0.00000E+00
 -1       964 2.00641E-04-5.89109E-06 0.00000E+00
 -1       965 2.00509E-04-6.71887E-06 0.00000E+00
 -1       966 2.00377E-04-7.55687E-06 0.00000E+00
 -1       967 2.00245E-04-8.41637E-06 1.65436E-24
 -1       968 2.00114E-04-9.30864E-06 0.00000E+00
 -1       969 1.99982E-04-1.02449E-05 0.00000E+00
 -1       970 1.99851E-04-1.12365E-05 3.30872E-24
 -1       971 1.99603E-04-1.33503E-05-3.30872E-24
 -1       972 1.99482E-04-1.43121E-05-1.65436E-24
 -1       973 1.99362E-04-1.51900E-05 0.00000E+00
 -1       974 1.99241E-04-1.59947E-05 0.00000E+00
 -1       975 1.99120E-04-1.67370E-05 3.30872E-24
 -1       976 1.99000E-04-1.74278E-05 0.00000E+00
 -1       977 1.98879E-04-1.80781E-05 3.30872E-24
 -1       978 1.98759E-04-1.86985E-05-1.65436E-24
 -1       979 1.98638E-04-1.93001E-05-3.30872E-24
 -1       980 1.98517E-04-1.98938E-05 0.00000E+00
 -1       981 1.98397E-04-2.04903E-05 3.30872E-24
 -1       982 1.98277E-04-2.11006E-05 0.00000E+00
 -1       983 1.98156E-04-2.17356E-05 0.00000E+00
 -1       984 1.98036E-04-2.24062E-05-1.65436E-24
 -1       985 1.97917E-04-2.31231E-05 0.00000E+00
 -3
    1PSTEP                        30          15           1          
  100CL  115 6.59912E-01         409                     0   15           1
 -4  STRESS      6    1
 -5  SXX         1    4    1    1
 -5  SYY         1    4    2    2
 -5  SZZ         1    4    3    3
 -5  SXY         1    4    1    2
 -5  SYZ         1    4    2    3
 -5  SZX         1    4    3    1
 -1         1-5.09298E+06-1.70061E+06-1.09861E+06-1.54448E+06 4.65661E-10 1.57161E-09
 -1         2 1.00350E+06 1.47036E+07 3.61276E+06 4.44258E+06 2.45345E-08 1.44668E-07
 -1         3-1.42539E+03-1.58690E+06 4.08321E+02-2.20442E+03-3.28935E-10-8.61401E-08
 -1         5-6.72539E+01 3.82798E+05 9.89081E+00-1.24598E+00-4.54708E-10 2.11039E-08
 -1         8-7.04277E+05-2.36319E+05-8.76755E+04-2.65535E+05 6.00267E-11 1.14953E-07
 -1         9 1.07943E+07 2.51848E+06 2.38142E+06-5.85878E+05-3.02680E-10-5.25499E-08
 -1        10-2.26433E+03-1.65367E+06-3.95509E+03-1.49088E+04-1.32222E-08-7.09980E-08
 -1        12-6.33507E+01 3.82820E+05 3.24639E+02-8.52869E+00-6.41137E-10 1.10940E-08
 -1        15 1.05179E+03 5.78009E+02 3.39988E+03 1.14500E+00-1.84428E-10 8.87080E-08
 -1        16 2.17731E+07-2.59078E+05 2.99053E+06-1.99885E+06 8.59533E-09 8.28877E-08
 -1        17 7.94375E+06 5.89383E+06 2.14448E+06 5.66332E+06 4.58560E-08 3.62517E-08
 -1        18 1.34695E+05 3.14315E+04 2.57690E+03-1.17840E+05 1.43934E-08 5.32054E-09
 -1        19 1.21359E+05 1.40427E+05-9.36621E+02 2.18697E+04 1.40772E-09-1.77180E-08
 -1        20-8.04043E+04-5.68996E+05-1.27617E+05 2.54021E+04-1.36167E-09 7.50636E-09
 -1        21-4.55598E+01-2.94650E+05-9.20736E+02 2.57385E+02 1.16791E-08 1.42384E-08
 -1        24 1.31887E+07 1.13309E+07 3.67074E+06 1.04887E+07-1.18715E-07-5.34928E-08
 -1        25 1.13722E+05 2.26319E+05 8.94786E+04-6.14546E+05-2.17733E-09-8.62383E-10
 -1        26-5.46976E+04 9.14369E+04-2.44111E+04 9.60961E+02 8.25821E-11 7.42483E-09
 -1        27-7.55434E+04-3.07563E+05-1.12554E+05 6.84612E+04 3.36437E-09-5.40240E-10
 -1        28 2.21663E+04-8.48421E+04 1.68156E+04 2.06913E+04-2.09513E-09 1.20267E-08
 -1        32-1.67130E+06-3.14549E+06-1.92600E+05 3.98121E+05-4.22806E-08-9.72000E-09
 -1        33-1.77195E+05 9.21255E+04 3.21176E+04-3.84149E+04-2.72629E-09 1.43712E-08
 -1        34-2.22090E+05-2.47585E+04 6.80421E+02 7.49218E+04-4.52343E-09 9.74766E-09
 -1        35-2.28390E+04-3.36481E+04-1.33998E+03 5.12638E+04-3.12842E-09 1.73168E-09
 -1        51 5.74022E+04-1.86097E+05 1.22112E+05-5.07926E+05-2.18279E-10 2.96677E-07
 -1        52 1.98032E+04-1.65253E+05 6.46261E+04-5.92306E+05-4.63842E-11-2.16856E-07
 -1        53 4.49112E+03-1.80660E+05 3.45542E+04-5.06137E+05 5.32964E-10-9.09422E-08
 -1        54 8.74187E+03-1.76560E+05 3.01978E+04-5.94100E+05 8.73115E-11-3.79880E-07
 -1        55 1.88593E+04-1.84452E+05 3.88501E+04-5.05975E+05 5.31145E-10-1.02860E-07
 -1        56-9.35731E+06-1.14789E+06-8.26381E+05-3.76397E+06 9.16771E-09-2.24099E-08
 -1        57-1.02330E+07-1.27085E+06-5.44816E+05-3.06038E+06 2.80415E-08 8.40519E-08
 -1        58-9.39814E+06-1.49713E+06-1.90968E+05-3.82018E+06-1.13432E-08 1.78799E-07
 -1        59-1.01453E+07-8.90640E+05-1.11782E+05-3.05218E+06-6.64204E-09-2.58762E-07
 -1        60-9.45573E+06-1.50981E+06-4.73048E+04-3.78533E+06-4.32919E-10-1.14072E-07
 -1        61-9.89558E+06-1.01684E+06-1.60182E+04-3.21257E+06-1.49848E-08-3.30165E-08
 -1        62-9.61699E+06-1.39057E+06-2.57063E+04-3.63711E+06-1.84446E-08-2.12829E-07
 -1        63-9.54732E+06-1.32059E+06 3.82841E+03-3.54664E+06 1.93977E-08 1.74994E-07
 -1        64-9.78289E+06-1.22067E+06-2.35895E+04-3.43707E+06-1.65892E-08 3.95994E-09
 -1        65-9.31960E+06-1.60254E+06-1.50646E+04-3.91267E+06 2.41198E-09-2.39698E-07
 -1        66-9.87136E+06-1.09034E+06-4.13502E+04-3.29070E+06-2.99733E-08 1.02260E-07
 -1        67-9.27421E+06-1.75552E+06-1.00597E+05-4.07933E+06-5.86206E-08-6.31626E-08
 -1        68-9.85520E+06-1.05032E+06-1.72810E+05-3.28806E+06-1.35451E-08-1.23109E-07
 -1        69-9.49547E+06-1.93956E+06-4.88143E+05-3.88789E+06-7.38937E-08-4.85452E-08
 -1        70-9.63079E+06-9.29789E+05-7.46538E+05-3.46505E+06-8.85484E-09-5.09317E-09
 -1        86-1.02170E+06-1.19767E+07-1.97251E+06-2.10559E+06-2.25114E-07-1.05763E-07
 -1        87 1.53923E+06 3.75484E+06 1.64153E+06 4.22309E+06-3.76727E-07 6.80520E-08
 -1        88-2.56144E+05-2.33518E+06 1.45163E+05-2.06699E+06-3.52007E-07 4.42733E-08
 -1        89 2.07108E+06 3.57602E+06 1.67214E+06 4.34174E+06-5.19092E-07-2.74952E-07
 -1        90-1.49898E+06-1.18451E+07-2.14737E+06-2.23807E+06-1.32866E-07 7.25122E-08
 -1       121-1.95531E+03-1.59161E+06-5.01870E+02 1.09317E+03 1.42968E-09-3.29965E-08
 -1       122-1.23909E+03-1.58695E+06 7.80692E+02-4.41145E+03-5.57144E-09 1.04392E-08
 -1       123-1.97833E+03-1.59174E+06 3.24684E+02 3.26445E+03 4.17151E-09-1.03755E-08
 -1       124 4.19264E+02-1.58648E+06 3.01127E+03-9.22129E+03-1.01454E-08-1.37879E-08
 -1       125-2.80791E+03-1.59265E+06 3.60088E+03 5.86025E+03 6.50834E-09-9.79344E-09
 -1       191-7.09056E+01 3.82818E+05 8.78062E+00 6.47318E-01-5.42066E-10 1.83863E-08
 -1       192-6.82036E+01 3.82799E+05 2.10888E+01-4.02770E+00-7.26146E-10 2.46200E-09
 -1       193-7.34082E+01 3.82818E+05 3.62608E+01 3.52960E+00-9.62510E-10 1.61399E-08
 -1       194-7.12497E+01 3.82802E+05 8.01263E+01-9.15014E+00-4.62055E-10-3.69982E-09
 -1       195-7.82124E+01 3.82815E+05 1.53760E+02 5.93515E+00-1.40562E-09-1.45828E-08
 -1       251-1.25912E+06 2.75978E+04-6.90282E+04-2.94556E+04-1.74259E-09 1.31990E-07
 -1       252-1.27614E+06-3.16048E+04-4.62190E+04 9.77865E+04 9.39531E-09-4.42278E-08
 -1       253-1.26296E+06 4.51765E+03-1.72669E+04-3.87772E+04-6.76152E-09-2.51703E-08
 -1       254-1.26063E+06-4.29696E+03-9.24389E+03 9.39599E+04 5.49426E-09 1.51864E-07
 -1       255-1.27432E+06 1.67760E+02-6.25958E+03-2.56268E+04 2.53112E-09 1.27932E-07
 -1       256-1.23644E+06-7.46060E+01 3.37454E+03 5.11049E+04 1.89266E-09 2.02494E-07
 -1       257-1.28495E+06-1.41286E+03-4.96203E+03 4.07146E+03-1.99680E-09 1.71148E-07
 -1       258-1.23150E+06 1.52192E+03 6.96472E+03-1.10003E+04-7.22480E-09 3.66124E-07
 -1       259-1.27874E+06-1.84219E+03-1.70646E+03 3.64343E+04-3.55612E-10 1.81617E-07
 -1       260-1.25250E+06 4.03107E+03 6.34483E+03-6.32019E+04-1.03068E-09-2.42746E-07
 -1       261-1.26595E+06-2.34965E+03 5.87754E+03 5.63025E+04 2.20896E-08 2.40834E-07
 -1       262-1.26276E+06 1.09486E+04 1.56742E+04-8.16012E+04 2.55932E-09 2.81618E-07
 -1       263-1.26970E+06-7.75369E+03 2.36665E+04 5.48779E+04 1.20281E-08 2.17476E-07
 -1       264-1.22782E+06 5.02198E+04 6.97183E+04-5.81605E+04 2.51484E-08 1.84558E-07
 -1       265-1.29930E+06-4.26941E+04 8.98560E+04 3.28109E+04 3.17418E-08 9.62209E-08
 -1       266-1.90410E+04-8.90425E+03 4.46725E+04-2.44980E+01 2.71029E-10 4.53525E-07
 -1       267 2.20736E+04 1.03771E+04 3.15755E+04 2.82675E+01 7.77618E-11-1.45710E-07
 -1       268-2.96004E+03-1.46974E+03 1.17364E+04-3.60168E+00 2.02363E-10 9.78935E-08
 -1       269 3.49492E+03 1.75890E+03 7.62853E+03 4.19552E+00 6.15046E-11 1.47365E-08
 -1       270-5.24592E+02-2.89004E+02 3.68240E+03-5.69357E-01-1.96678E-11-4.12753E-08
 -1       271-1.66858E+06-2.08254E+05-1.24206E+05-6.45986E+05-5.67070E-09-4.99640E-08
 -1       272-1.69384E+06-3.12093E+05-7.90379E+04-6.61175E+05 2.53094E-08-8.82719E-08
 -1       273-1.69391E+06-2.36561E+05-2.97317E+04-6.38125E+05 1.74186E-08-2.48419E-08
 -1       274-1.66372E+06-2.78348E+05-1.60656E+04-6.74829E+05-5.76892E-09 3.14935E-07
 -1       275-1.69935E+06-2.37300E+05-7.19226E+03-6.34707E+05-1.49703E-08 1.35280E-07
 -1       276-1.65702E+06-2.78414E+05-3.37239E+03-6.81889E+05-6.14964E-08-1.64437E-08
 -1       277-1.70194E+06-2.35235E+05-1.94822E+03-6.32187E+05-4.07999E-08 2.87588E-07
 -1       278-1.65402E+06-2.81514E+05-9.55004E+02-6.87213E+05-4.62087E-08 1.39532E-07
 -1       279-1.70365E+06-2.33344E+05-1.08244E+03-6.30304E+05 1.16943E-08 2.37146E-07
 -1       280-1.65236E+06-2.84179E+05-1.48997E+03-6.91020E+05 4.09927E-08-7.85476E-08
 -1       281-1.70464E+06-2.31921E+05-2.75338E+03-6.29095E+05 2.13040E-08-1.03345E-07
 -1       282-1.65263E+06-2.87373E+05-6.43190E+03-6.92981E+05 2.84126E-09-1.22284E-08
 -1       283-1.70405E+06-2.29906E+05-1.14431E+04-6.28723E+05 2.29556E-09-1.72398E-07
 -1       284-1.66244E+06-3.03204E+05-3.11951E+04-6.91040E+05-3.02224E-08-1.22462E-07
 -1       285-1.69520E+06-2.17564E+05-4.84998E+04-6.30576E+05 8.14998E-09-3.03649E-07
 -1       301 2.97157E+03-6.04657E+05 1.68960E+05-1.05489E+06 5.09317E-11 2.32103E-08
 -1       302 3.30892E+03-5.59898E+05 1.01895E+05-1.54096E+06-7.18865E-09-7.98973E-08
 -1       303-1.39097E+04-5.94291E+05 5.88271E+04-1.05214E+06-2.00089E-09-1.60797E-07
 -1       304-1.23144E+04-5.64790E+05 6.14027E+04-1.54018E+06-2.05036E-08 1.79076E-07
 -1       305-1.63318E+04-5.85026E+05 7.83562E+04-1.05520E+06-1.41608E-08-4.13274E-08
 -1       306-2.93347E+07-6.03972E+06-8.32695E+06-7.34802E+05-4.64497E-08 2.33675E-07
 -1       307 2.47382E+07 2.88821E+06 5.35283E+06-1.45063E+07-7.98769E-07 1.10420E-07
 -1       308-7.25412E+06-9.67832E+05-5.03609E+05 5.04904E+06-2.75992E-07 2.03989E-07
 -1       309-3.40133E+06 8.14545E+06 2.15232E+06-2.01354E+07 3.53666E-07 5.59157E-09
 -1       310-1.20682E+07-1.74280E+06-1.84343E+06 5.01657E+06-1.07568E-07-1.71131E-07
 -1       311 3.59454E+07-1.92043E+04 6.88761E+06-8.92674E+06 5.56698E-07-1.50059E-07
 -1       312-3.08514E+07-6.40931E+06-8.13388E+06-4.64842E+06 1.22702E-07 4.19241E-08
 -1       313 4.40088E+07 1.36805E+07 1.02433E+07 2.22962E+07 1.47498E-07 1.86410E-07
 -1       314-1.72349E+07-1.68179E+07-7.25556E+06-1.21995E+07 4.96104E-07 5.16884E-08
 -1       315-1.43496E+06 2.82706E+07 5.49698E+06 1.07261E+07-3.32671E-07-2.62633E-07
 -1       316 1.09863E+06-9.70282E+06-4.75705E+05-2.83356E+06-1.17421E-06-4.12692E-07
 -1       317-1.71689E+07 2.17575E+07 2.11269E+06-8.00560E+06 8.46543E-07-7.81372E-07
 -1       318-1.09940E+06-1.21680E+07-1.87475E+06-4.30197E+06-9.30071E-07 1.22294E-07
 -1       319 6.56123E+06 3.01645E+07 6.66061E+06 1.58078E+07-4.60423E-08 2.24216E-07
 -1       320-2.19098E+07-1.68213E+07-9.41660E+06-1.23475E+07 1.85915E-07-7.40401E-08
 -1       336-6.17991E+02-1.72298E+06-1.38911E+04 8.89024E+03-2.58951E-08 4.57658E-09
 -1       337-5.39012E+03-1.72280E+06-1.81134E+04-2.15601E+04-4.82651E-08 1.14596E-10
 -1       338 3.67484E+02-1.72248E+06-2.83794E+04 1.24353E+04-3.36067E-08 3.99450E-09
 -1       339-3.01158E+04-1.73993E+06-6.41941E+04-2.84947E+04-6.14500E-08 1.16997E-08
 -1       340 1.99322E+04-1.70797E+06-1.01045E+05 1.56987E+04-4.03561E-08 4.01778E-08
 -1       406-4.15192E+01 3.82801E+05 6.37799E+02 3.06433E+00-1.82754E-09 2.00998E-08
 -1       407 1.60464E+02 3.82932E+05 1.36221E+03 2.22603E+01-5.79547E-10 1.65865E-08
 -1       408 6.35790E+02 3.82702E+05 2.71661E+03-2.56852E+01-2.22008E-09 1.44337E-08
 -1       409 2.88321E+03 3.83800E+05 6.12219E+03 2.73197E+02-2.52840E-10 6.18729E-09
 -1       410 8.39726E+03 3.81921E+05 1.24955E+04-2.63246E+02-2.85218E-09 1.76078E-09
 -1       521-3.08297E+07-7.42457E+06-9.70081E+06-3.65986E+05-6.77537E-08-1.82190E-07
 -1       522 2.55159E+07 3.78065E+06 5.43800E+06-1.78663E+07-4.81494E-07-5.44795E-07
 -1       523-7.87807E+06-1.26737E+06-5.01666E+05 5.48654E+06 5.33182E-08-1.34372E-07
 -1       524-6.80568E+06 1.10017E+07 2.32158E+06-2.31240E+07 7.07136E-07-7.28498E-07
 -1       525-1.28981E+07-2.32252E+06-2.02023E+06 5.45029E+06 7.04604E-07-2.50264E-07
 -1       526 3.90572E+07-8.77193E+04 7.21616E+06-1.15219E+07 4.93135E-07-1.92173E-07
 -1       527-3.26168E+07-8.01436E+06-9.34732E+06-4.50879E+06 8.16071E-08-7.84494E-08
 -1       528 4.79816E+07 1.51185E+07 1.06630E+07 2.52536E+07 1.74507E-07-3.91155E-08
 -1       529-1.81887E+07-1.89041E+07-8.29924E+06-1.22613E+07 2.13855E-07 1.05938E-08
 -1       530-3.84095E+06 3.27888E+07 5.80440E+06 1.03660E+07-3.18250E-08 5.05650E-07
 -1       531 1.06638E+06-1.07897E+07-4.59374E+05-2.84994E+06-8.65126E-07 2.59781E-07
 -1       532-1.98300E+07 2.38126E+07 2.30340E+06-1.20122E+07 3.85728E-07-5.86100E-07
 -1       533-1.14643E+06-1.32887E+07-1.98108E+06-4.18363E+06-2.13622E-07-9.49251E-07
 -1       534 4.52323E+06 3.49234E+07 6.91490E+06 1.63122E+07-7.65431E-08 7.24976E-07
 -1       535-2.30321E+07-1.90812E+07-1.07557E+07-1.24246E+07 1.01165E-07 4.50702E-07
 -1       536-6.94045E+05-4.64931E+04-4.25891E+04-5.30235E+04 2.08684E-09 6.72671E-08
 -1       537-6.66545E+04 4.47401E+04 8.32521E+04 1.20682E+05-1.07901E-07 7.93093E-08
 -1       538-3.93880E+05 2.98415E+03 4.37712E+03-7.06088E+04 2.85884E-08 1.21919E-07
 -1       539-2.73364E+05 2.94401E+03 2.44887E+04 1.35480E+05 1.43079E-07 1.18853E-07
 -1       540-4.92507E+05-3.91573E+02-2.02006E+04-6.83244E+04-5.34010E-09 1.02585E-07
 -1       541 1.26259E+05 1.63197E+04 1.02375E+05 9.51976E+04-2.61198E-08 8.47499E-08
 -1       542-7.82740E+05-1.93780E+04-8.09451E+04-2.95039E+04 2.29306E-08 4.63918E-08
 -1       543 3.74934E+05 2.62845E+04 1.51859E+05-1.30987E+04 5.10847E-08-2.38915E-08
 -1       544-7.34517E+05-1.58804E+04-7.19092E+04 3.93412E+04-2.00453E-09-4.61307E-08
 -1       545 1.26734E+04 9.04815E+03 7.65521E+04-1.10735E+05-7.95899E-09-7.20236E-08
 -1       546-4.30201E+05 5.91942E+03-1.17915E+04 6.78082E+04 2.47917E-08-9.76528E-08
 -1       547-2.90957E+05-4.67403E+03 9.84809E+03-1.38297E+05-1.04350E-07-1.06048E-07
 -1       548-4.39042E+05 4.66315E+03-2.33963E+04 6.75534E+04-1.10848E-07-8.73933E-08
 -1       549 3.16028E+04 1.46101E+04 5.70649E+04-1.08515E+05-5.83794E-08-5.39515E-08
 -1       550-7.44128E+05-2.05808E+04-1.25684E+05 3.73516E+04 6.33736E-09-3.01952E-08
 -1       551 3.97948E+04-7.76428E+05-1.58044E+04-1.25981E+06 3.55067E-08 2.76486E-09
 -1       552 9.48956E+04-8.23129E+05 1.05671E+04-1.82079E+06 7.73143E-08 3.63216E-08
 -1       553 7.20951E+04-8.19602E+05 3.28191E+04-1.25300E+06 4.05707E-08 2.83617E-08
 -1       554 1.34963E+05-8.40171E+05 8.28042E+04-1.82269E+06 8.03484E-08 1.56579E-08
 -1       555 9.99447E+04-8.43331E+05 1.50187E+05-1.25300E+06 4.40341E-08-2.05982E-08
 -1       556 2.18528E+05-3.75789E+05 2.97035E+04-4.01885E+05-1.89466E-08-8.49832E-09
 -1       557 3.47476E+05-4.78798E+05 1.80925E+04-5.19900E+05-5.04951E-09 1.29457E-08
 -1       558 2.01190E+05-3.69642E+05 3.32440E+03-4.05504E+05-1.97906E-08 1.05501E-08
 -1       559 3.22832E+05-4.79539E+05 2.88491E+03-5.39660E+05 2.77068E-08 2.24463E-09
 -1       560 1.86464E+05-3.60399E+05-1.19109E+03-4.16092E+05 8.90577E-09 1.92813E-09
 -1       561 3.04274E+05-4.72149E+05 2.49941E+02-5.52288E+05 1.94996E-09 1.15979E-08
 -1       562 1.74821E+05-3.53158E+05-1.20754E+03-4.24518E+05 3.44880E-09 1.42027E-08
 -1       563 2.90450E+05-4.66122E+05-2.60199E+00-5.61310E+05-1.58616E-09 1.32604E-09
 -1       564 1.66530E+05-3.47990E+05-5.54269E+02-4.30392E+05 1.10158E-08-2.07583E-08
 -1       565 2.81314E+05-4.62144E+05 3.32984E+01-5.67145E+05 2.01399E-08-1.44655E-09
 -1       566 1.61710E+05-3.44939E+05-2.41619E+02-4.33763E+05 2.14641E-09-5.28962E-09
 -1       567 2.76918E+05-4.60231E+05-3.47538E+02-5.69811E+05 1.23109E-08 4.15894E-08
 -1       568 1.60449E+05-3.44168E+05-1.08800E+03-4.34741E+05-8.68113E-09 2.21407E-08
 -1       569 2.75894E+05-4.60169E+05-2.74865E+03-5.68344E+05-4.39650E-09 1.00263E-08
 -1       570 1.63823E+05-3.47357E+05-6.01736E+03-4.33742E+05 1.10449E-08 2.61753E-09
 -1       571 2.87882E+05 1.04156E+04 1.48865E+04-9.35221E+04-1.30694E-09-1.01768E-08
 -1       572 2.90042E+05 3.91152E+03 7.29549E+03-1.02603E+05 2.55659E-09-1.18148E-08
 -1       573 2.88741E+05 1.21746E+03 3.24161E+03-9.33473E+04 2.40289E-09 6.65113E-09
 -1       574 2.88955E+05 7.00296E+02 1.62558E+03-1.02824E+05-5.68434E-12 1.52540E-08
 -1       575 2.88834E+05 4.25154E+02 7.67204E+02-9.33234E+04-4.73648E-10 4.52746E-09
 -1       576 2.88820E+05 4.34552E+02 3.92744E+02-1.02853E+05-5.14456E-09 2.21871E-08
 -1       577 2.88872E+05 3.68092E+02 1.96024E+02-9.33201E+04-3.66526E-10 1.32904E-08
 -1       578 2.88848E+05 3.97787E+02 1.13113E+02-1.02857E+05-2.84626E-09 8.33370E-09
 -1       579 2.88942E+05 3.33059E+02 7.76072E+01-9.33198E+04 3.72711E-09-7.29779E-09
 -1       580 2.88946E+05 3.48903E+02 8.98045E+01-1.02853E+05-1.04701E-08 1.18407E-08
 -1       581 2.89051E+05 2.76981E+02 1.35627E+02-9.33256E+04 4.42014E-09 1.55815E-08
 -1       582 2.89115E+05 3.14023E+02 2.75460E+02-1.02792E+05 3.18687E-09 1.22936E-08
 -1       583 2.89186E+05 3.20983E+02 5.28954E+02-9.33811E+04 4.11092E-10-1.75726E-08
 -1       584 2.89481E+05 7.52272E+02 1.19664E+03-1.02325E+05 2.93949E-09-6.45809E-09
 -1       585 2.89208E+05 1.76156E+03 2.42354E+03-9.37923E+04-1.82627E-09-3.26690E-09
 -1       586-3.39615E+03 1.14934E+05-2.95345E+03-2.48786E+05-3.05499E-09-7.84780E-09
 -1       587-1.30093E+03 1.14675E+05 7.27340E+02-2.73809E+05-6.37192E-09-7.79096E-09
 -1       588 4.24871E+02 1.14495E+05 4.68766E+03-2.48650E+05-2.24463E-09 1.00408E-09
 -1       589 5.06188E+03 1.16934E+05 1.21904E+04-2.73575E+05-4.45289E-09-1.78534E-09
 -1       590 1.64470E+04 1.13177E+05 2.55846E+04-2.49078E+05-5.22778E-09 1.80171E-08
 -1       591-7.37023E+04-1.58183E+04-2.22414E+04-3.15549E+04-2.70484E-09-6.33372E-09
 -1       592-7.76977E+04-1.93720E+04-1.20477E+04-3.51812E+04-9.89296E-10-1.57468E-08
 -1       593-7.59270E+04-1.42040E+04-5.01486E+03-3.31854E+04 1.92256E-09 5.07498E-10
 -1       594-7.46262E+04-1.61090E+04-2.50104E+03-3.52982E+04 1.90656E-09 2.48792E-09
 -1       595-7.60966E+04-1.41986E+04-1.14826E+03-3.32594E+04-4.84287E-09 6.94023E-09
 -1       596-7.44160E+04-1.59597E+04-5.83553E+02-3.52733E+04 8.67885E-09 9.29171E-09
 -1       597-7.61179E+04-1.42138E+04-3.17409E+02-3.32622E+04 5.45862E-09-1.29481E-08
 -1       598-7.43953E+04-1.59539E+04-2.54515E+02-3.52663E+04-8.96358E-09-4.91787E-09
 -1       599-7.61167E+04-1.42144E+04-3.24308E+02-3.32619E+04-5.35010E-09-6.59088E-09
 -1       600-7.44160E+04-1.59603E+04-6.01816E+02-3.52712E+04 1.20690E-09-1.56440E-08
 -1       601-7.60923E+04-1.42000E+04-1.18692E+03-3.32584E+04 3.63366E-09-1.56399E-08
 -1       602-7.46333E+04-1.61135E+04-2.58659E+03-3.52932E+04 4.86079E-09-1.63992E-08
 -1       603-7.59141E+04-1.42084E+04-5.18709E+03-3.31826E+04 2.30784E-09-6.37374E-09
 -1       604-7.78276E+04-1.94692E+04-1.24606E+04-3.51476E+04 7.29142E-09 5.60931E-10
 -1       605-7.35933E+04-1.58956E+04-2.30038E+04-3.15154E+04 2.36855E-09 7.78982E-09
 -1       606 2.68463E+04-1.41834E+04-2.54281E+04 2.42208E+04 4.17003E-09-1.11095E-09
 -1       607 2.25012E+04-4.63110E+03-1.26630E+04 2.72174E+04-2.63117E-09-6.29757E-09
 -1       608 2.49770E+04-8.34372E+02-5.66889E+03 2.40492E+04-1.18071E-08-6.93831E-09
 -1       609 2.45019E+04-2.84348E+02-2.86375E+03 2.74334E+04-1.48284E-08 1.22661E-08
 -1       610 2.47649E+04-3.87855E+01-1.36639E+03 2.40288E+04-4.98312E-09 1.49985E-08
 -1       611 2.46898E+04-3.84539E+01-6.88918E+02 2.74567E+04 4.64388E-09-8.60837E-09
 -1       612 2.47177E+04-2.48432E+01-3.27559E+02 2.40268E+04 5.22050E-10-4.92196E-09
 -1       613 2.47007E+04-3.40599E+01-1.46806E+02 2.74594E+04 9.24047E-10-3.29919E-10
 -1       614 2.46952E+04-3.08950E+01-3.45077E+01 2.40261E+04 5.06589E-10 7.63043E-09
 -1       615 2.46950E+04-3.23172E+01 6.13592E+01 2.74599E+04 2.22872E-09-1.15153E-08
 -1       616 2.46777E+04-2.75813E+01 1.84148E+02 2.40263E+04 3.54794E-09-7.87145E-09
 -1       617 2.47167E+04 7.14043E+00 4.20217E+02 2.74594E+04-7.87622E-10-2.26328E-09
 -1       618 2.46409E+04 9.37246E+01 8.47034E+02 2.40266E+04-6.59838E-10 4.90786E-09
 -1       619 2.50155E+04 6.62203E+02 1.90210E+03 2.74588E+04 1.14107E-09 4.35080E-09
 -1       620 2.43595E+04 2.10238E+03 3.82317E+03 2.40280E+04-1.12789E-09 7.00584E-09
 -1       621 4.97461E+02 2.98614E+05 3.82520E+03 3.97362E+04 1.06729E-09 5.95446E-09
 -1       622 6.56215E+02 2.99501E+05 3.39959E+03 5.76929E+04 1.16233E-09-2.83080E-09
 -1       623 1.33346E+02 2.98808E+05 4.09205E+03 3.95561E+04 1.15119E-09-1.36815E-08
 -1       624 2.08972E+03 3.00711E+05 7.93816E+03 5.78703E+04 1.15779E-09-2.71523E-08
 -1       625 2.04535E+03 2.97234E+05 1.38743E+04 3.95530E+04 1.37152E-09-3.63707E-09
 -1       626 2.58587E+05 6.11879E+04 5.09902E+03 1.26024E+05 3.55612E-10 4.29827E-09
 -1       627 2.56257E+05 6.26006E+04 2.45718E+03 1.30303E+05-2.01908E-10-5.12966E-09
 -1       628 2.58715E+05 5.88531E+04 1.03916E+03 1.26889E+05-5.39330E-09-1.60162E-09
 -1       629 2.55622E+05 6.19256E+04 5.08629E+02 1.30545E+05-7.72889E-09 1.52559E-08
 -1       630 2.58729E+05 5.87405E+04 2.35995E+02 1.26925E+05-3.13185E-09-5.97811E-09
 -1       631 2.55555E+05 6.19002E+04 1.27078E+02 1.30546E+05 3.64071E-09-1.73057E-08
 -1       632 2.58726E+05 5.87446E+04 8.37667E+01 1.26921E+05 2.47292E-09-1.59230E-09
 -1       633 2.55546E+05 6.19022E+04 9.35329E+01 1.30542E+05 1.89129E-09 5.58066E-09
 -1       634 2.58721E+05 5.87419E+04 1.51344E+02 1.26920E+05-1.70775E-09 6.58110E-09
 -1       635 2.55560E+05 6.19006E+04 3.06363E+02 1.30548E+05 1.53477E-09 2.02103E-08
 -1       636 2.58711E+05 5.87363E+04 6.18759E+02 1.26920E+05-1.73804E-09 1.71613E-08
 -1       637 2.55694E+05 6.19969E+04 1.36051E+03 1.30547E+05-2.19165E-09 1.20344E-08
 -1       638 2.58663E+05 5.90369E+04 2.79536E+03 1.26784E+05 2.41926E-10 1.58643E-08
 -1       639 2.57162E+05 6.40391E+04 6.61392E+03 1.30115E+05 1.87106E-09 2.33238E-08
 -1       640 2.58460E+05 6.51348E+04 1.37250E+04 1.24214E+05 1.83172E-09 1.37966E-08
 -1       656 6.60958E+04-1.69101E+06-1.59551E+05-2.43417E+03 6.91216E-10-4.18686E-09
 -1       657-8.74362E+04-1.76310E+06-1.32172E+05 5.32656E+03 3.27418E-10-1.34004E-08
 -1       658 2.10665E+04-1.71149E+06-8.13944E+04-4.49763E+03-2.40789E-10 2.02726E-09
 -1       659-9.45293E+04-1.76647E+06-1.41494E+05 7.02960E+03-2.33740E-09-1.34140E-08
 -1       660 7.31731E+04-1.68765E+06-1.75576E+05-4.13720E+03-3.31784E-09 1.40457E-08
 -1       661 1.59673E+05 1.67379E+04 1.67693E+04 6.24203E+04 8.62201E-10-1.42536E-08
 -1       662 1.69128E+05 2.91815E+04 1.13013E+04 5.86870E+04-3.85126E-09-5.85590E-09
 -1       663 1.62967E+05 2.21178E+04 3.95250E+03 6.14644E+04-1.30967E-09-1.65574E-09
 -1       664 1.65309E+05 2.28900E+04 2.36437E+03 5.98546E+04 6.08111E-10 1.05282E-08
 -1       665 1.63466E+05 2.28527E+04 9.32726E+02 6.13187E+04 1.33645E-09 1.42754E-09
 -1       666 1.64718E+05 2.20496E+04 5.45902E+02 6.00446E+04 7.70589E-09 1.03534E-08
 -1       667 1.63554E+05 2.29363E+04 2.90063E+02 6.12822E+04 1.38945E-09 7.23657E-09
 -1       668 1.64622E+05 2.19895E+04 2.95805E+02 6.00977E+04-7.47565E-09-1.79051E-08
 -1       669 1.63562E+05 2.29111E+04 4.00679E+02 6.12659E+04-2.77328E-09-3.98751E-09
 -1       670 1.64719E+05 2.22071E+04 8.72676E+02 6.01007E+04-1.14400E-08 2.32951E-09
 -1       671 1.63456E+05 2.27232E+04 1.54956E+03 6.12772E+04-1.86743E-09-9.26150E-10
 -1       672 1.65622E+05 2.37147E+04 3.96457E+03 5.98820E+04 6.34515E-09 1.56962E-09
 -1       673 1.62663E+05 2.14417E+04 6.64401E+03 6.14700E+04 5.04792E-09-1.88129E-09
 -1       674 1.71946E+05 3.43890E+04 1.90005E+04 5.80242E+04 5.93445E-10-3.85626E-09
 -1       675 1.57174E+05 1.23479E+04 2.82034E+04 6.30228E+04-3.99677E-09 1.18998E-08
 -1       676 2.40144E+01-2.94572E+05-1.10973E+03-1.28696E+02 8.93152E-10-4.80602E-09
 -1       677-2.93689E+02-2.94841E+05-2.03100E+03 2.57187E+02 9.37368E-09 4.71800E-12
 -1       678 1.96872E+02-2.94381E+05-3.59030E+03-1.28406E+02 3.90628E-10 1.46141E-08
 -1       679-3.59049E+03-2.97008E+05-8.52905E+03 2.56082E+02 6.65966E-09-1.62201E-09
 -1       680 2.14363E+03-2.92406E+05-1.37459E+04-1.26171E+02-5.07498E-10 1.29304E-08
 -1       771-3.05065E+06-7.41448E+05-1.58924E+05-1.45871E+06-3.22034E-08-2.82307E-08
 -1       772-2.97329E+06-8.29114E+05-8.18439E+04-1.56014E+06-2.00962E-08 1.01827E-08
 -1       773-3.08125E+06-7.17547E+05-4.18941E+04-1.47259E+06-1.08848E-08 1.12923E-08
 -1       774-2.96440E+06-8.11555E+05-1.86512E+04-1.58544E+06 3.28291E-08-3.23053E-09
 -1       775-3.09735E+06-7.06223E+05-1.40603E+04-1.47946E+06 2.41562E-09-6.11180E-10
 -1       776-2.97649E+06-8.08632E+05-5.23825E+03-1.60456E+06 3.66708E-09-7.53789E-09
 -1       777-3.11133E+06-6.96122E+05-6.24772E+03-1.48553E+06 6.69388E-09 4.32192E-09
 -1       778-2.98909E+06-8.05895E+05-1.75878E+03-1.62098E+06-6.82485E-09 3.93993E-09
 -1       779-3.12335E+06-6.87304E+05-3.13329E+03-1.49071E+06-2.01399E-08-6.06087E-09
 -1       780-3.00017E+06-8.03283E+05-5.19925E+02-1.63435E+06 1.74623E-10 4.36557E-10
 -1       781-3.13290E+06-6.80199E+05-1.22516E+03-1.49477E+06-2.14350E-08-3.47063E-09
 -1       782-3.00871E+06-8.01066E+05 4.23815E+02-1.64422E+06-3.04935E-08-9.43237E-09
 -1       783-3.13962E+06-6.75264E+05 6.50860E+02-1.49761E+06-2.52476E-09-1.55164E-08
 -1       784-3.01346E+06-7.98866E+05 2.75452E+03-1.65030E+06-1.69130E-08 2.05182E-09
 -1       785-3.14357E+06-6.72334E+05 4.85525E+03-1.49940E+06-3.60778E-08 6.50471E-09
 -1       786 1.24840E+05-9.77354E+03 2.26120E+04-3.13700E+02 1.16307E-09 1.69257E-09
 -1       787 1.34646E+05 1.13155E+04 1.59970E+04-1.28286E+02 5.95211E-09 1.55580E-08
 -1       788 1.28621E+05-1.53157E+03 5.85026E+03-2.78901E+02 1.96808E-09 9.29731E-09
 -1       789 1.30241E+05 1.77270E+03 3.67266E+03-1.81721E+02-2.18993E-09 2.36565E-08
 -1       790 1.29245E+05-2.38502E+02 1.48719E+03-2.60281E+02-2.68230E-09-5.39575E-09
 -1       791 1.29511E+05 2.75933E+02 8.59340E+02-2.13602E+02-7.61531E-09 1.23242E-08
 -1       792 1.29351E+05-3.59300E+01 3.64900E+02-2.47022E+02-6.71603E-09 1.44775E-08
 -1       793 1.29385E+05 3.82671E+01 1.83546E+02-2.38560E+02 1.23617E-09-1.13863E-09
 -1       794 1.29371E+05-9.86265E-01 5.09867E+01-2.35323E+02 4.53124E-09 1.80590E-08
 -1       795 1.29349E+05-2.47115E+01-4.90500E+01-2.63001E+02-5.33167E-09 9.36069E-09
 -1       796 1.29387E+05 2.70135E+01-1.47748E+02-2.22580E+02 3.02377E-09-9.33426E-09
 -1       797 1.29262E+05-2.02094E+02-4.09781E+02-2.92305E+02 3.03395E-09 6.95934E-10
 -1       798 1.29459E+05 1.76263E+02-6.66645E+02-2.06019E+02 2.73210E-09-8.75588E-10
 -1       799 1.28756E+05-1.29927E+03-1.83503E+03-3.33292E+02 6.27389E-09-1.48983E-08
 -1       800 1.29893E+05 1.12329E+03-2.59724E+03-1.81594E+02 8.30593E-10 5.30622E-09
 -1       801-1.56308E+05-9.67782E+06-1.34110E+06 1.33499E+06 8.91741E-08-5.51045E-08
 -1       802 6.88936E+05 5.42582E+06 2.04963E+06-1.64127E+06 2.51399E-07-3.38605E-08
 -1       803-5.05737E+05-1.36345E+07-1.78215E+06 8.56533E+05 7.63794E-08 1.85973E-08
 -1       804 2.64325E+05 2.00583E+06 1.43634E+06 6.44686E+05-1.15586E-07-9.47261E-08
 -1       805 1.83857E+05-6.27256E+06-2.66219E+05-9.45648E+05-4.79849E-08-6.35819E-08
 -1       806-3.06524E+05-5.92749E+04-2.26801E+04-1.21430E+05-4.83169E-09-9.98034E-09
 -1       807-3.08315E+05-5.55659E+04-1.11425E+04-1.26925E+05 6.63590E-09 1.33652E-09
 -1       808-3.07145E+05-5.11019E+04-4.72701E+03-1.25295E+05 2.14322E-09 3.07705E-09
 -1       809-3.05972E+05-5.24349E+04-2.31139E+03-1.27198E+05-1.67347E-09-5.98902E-10
 -1       810-3.07239E+05-5.08173E+04-1.05943E+03-1.25466E+05 8.24866E-09-3.17982E-09
 -1       811-3.05791E+05-5.23091E+04-5.26859E+02-1.27163E+05 2.22099E-09-1.29021E-08
 -1       812-3.07253E+05-5.08418E+04-2.66499E+02-1.25465E+05-8.80846E-09-1.52249E-09
 -1       813-3.05766E+05-5.23112E+04-1.73271E+02-1.27145E+05-7.83666E-09 1.06600E-08
 -1       814-3.07247E+05-5.08514E+04-1.71819E+02-1.25461E+05-6.32008E-09-2.25828E-09
 -1       815-3.05770E+05-5.23134E+04-2.76942E+02-1.27137E+05 8.26276E-10 9.43692E-09
 -1       816-3.07226E+05-5.08505E+04-5.24949E+02-1.25457E+05 1.00454E-08 1.56124E-08
 -1       817-3.05859E+05-5.23635E+04-1.12666E+03-1.27126E+05-8.19819E-09-8.49377E-09
 -1       818-3.07158E+05-5.10094E+04-2.29798E+03-1.25382E+05-1.13687E-09-5.90126E-09
 -1       819-3.07117E+05-5.37518E+04-5.40702E+03-1.26828E+05-6.69706E-09-6.73185E-09
 -1       820-3.06724E+05-5.50937E+04-1.10052E+04-1.23638E+05 2.00089E-11 5.52586E-09
 -1       821-3.76922E+05 2.07599E+04-4.82704E+04 1.98306E+03 1.30215E-08 2.13367E-08
 -1       822-3.96742E+05-2.40462E+04-3.39656E+04-4.11397E+03 4.95677E-09 1.45137E-08
 -1       823-3.84449E+05 3.26968E+03-1.24728E+04 3.15049E+03-1.20294E-08 9.66793E-10
 -1       824-3.87697E+05-3.77215E+03-7.81376E+03-4.89195E+03 1.38527E-10-2.21337E-09
 -1       825-3.85972E+05 5.08054E+02-3.26426E+03 2.76113E+03 1.75965E-08 5.58714E-09
 -1       826-3.85407E+05-5.69558E+02-1.76554E+03-2.77999E+03 2.33549E-08 3.11896E-08
 -1       827-3.86718E+05 5.34185E+01-1.15633E+03 1.03840E+03 1.15790E-08 1.30104E-08
 -1       828-3.84796E+05-1.40063E+02-6.32707E+02 1.05205E+03 3.89463E-10 8.36904E-09
 -1       829-3.86573E+05 7.04900E+01-1.14871E+03-1.07093E+03 1.86171E-09-3.14424E-09
 -1       830-3.85723E+05-6.19999E+02-1.89613E+03 4.48994E+03 9.79774E-10 2.79402E-08
 -1       831-3.85810E+05 5.48212E+02-3.34932E+03-2.39952E+03-6.47621E-09-2.09275E-09
 -1       832-3.87779E+05-3.93496E+03-8.11531E+03 5.63417E+03-4.85531E-09 2.80124E-10
 -1       833-3.84530E+05 3.39289E+03-1.29716E+04-2.21519E+03-2.47816E-09-5.74164E-09
 -1       834-3.96839E+05-2.49561E+04-3.51915E+04 3.82095E+03-1.99014E-09 5.02405E-09
 -1       835-3.76736E+05 2.15392E+04-5.01306E+04-5.86240E+02 5.07634E-09 2.01035E-08
 -1       836-1.39825E+03 3.66884E+05 2.26855E+04-1.62661E+04-6.72662E-09 9.29003E-09
 -1       837 4.84000E+03 3.73987E+05 1.92016E+04-3.32044E+04-7.08587E-09 4.93606E-09
 -1       838-5.51231E+02 3.68874E+05 1.95716E+04-1.61946E+04-6.05269E-09 1.32106E-08
 -1       839 1.23242E+04 3.79561E+05 3.70311E+04-3.32562E+04-6.46151E-09-5.90165E-09
 -1       840-3.80743E+03 3.61250E+05 5.90542E+04-1.62197E+04-5.71526E-09-1.03057E-08
 -1       856-5.37017E+04 8.03160E+03-2.11651E+04-3.98869E+02 4.43004E-09-4.69299E-09
 -1       857-6.24223E+04-9.43603E+03-1.45699E+04 5.60881E+03 6.25263E-09-1.75805E-09
 -1       858-5.71549E+04 1.12630E+03-5.49186E+03-4.23051E+02 1.76243E-09-5.87033E-09
 -1       859-5.84593E+04-1.32425E+03-3.31418E+03 5.64491E+03 9.62245E-10 7.11708E-09
 -1       860-5.76708E+04 1.57684E+02-1.38913E+03-4.34717E+02 1.42762E-10-3.67748E-09
 -1       861-5.78659E+04-1.87491E+02-7.64508E+02 5.66081E+03 4.33722E-09-1.43567E-08
 -1       862-5.77515E+04 2.13323E+01-3.18441E+02-4.38931E+02-2.06925E-09-5.77782E-09
 -1       863-5.77671E+04-2.12661E+01-1.17464E+02 5.66324E+03-1.59286E-09-9.77299E-09
 -1       864-5.77701E+04-4.76262E+00 4.39438E+01-4.37143E+02-2.74007E-09 1.57664E-08
 -1       865-5.77122E+04 5.88019E+01 2.48127E+02 5.65309E+03-2.17189E-09-2.02423E-09
 -1       866-5.78042E+04-5.87769E+01 5.01733E+02-4.28783E+02 5.46891E-10 2.16033E-09
 -1       867-5.74757E+04 4.85552E+02 1.23608E+03 5.63038E+03 2.93625E-09-1.35175E-08
 -1       868-5.80017E+04-4.23873E+02 2.05423E+03-4.14433E+02-4.34363E-09-4.45289E-09
 -1       869-5.59693E+04 3.52765E+03 5.47016E+03 5.59296E+03 4.84619E-09-2.12583E-08
 -1       870-5.93029E+04-3.01834E+03 7.93834E+03-3.91264E+02-6.16751E-10-5.61840E-09
 -1       871-5.49021E+03-2.08461E+04-1.93159E+04 1.29205E+05-4.91855E-09-2.73303E-08
 -1       872-1.99151E+03-2.53309E+04-8.08137E+03 1.67532E+05-9.20227E-09-3.28978E-08
 -1       873 3.81314E+02-2.31653E+04 6.01204E+02 1.28921E+05-5.15593E-09-9.55947E-09
 -1       874 3.25912E+03-2.07614E+04 9.73074E+03 1.67562E+05-1.11968E-08 9.53878E-09
 -1       875 6.78659E+03-2.54831E+04 2.19388E+04 1.29157E+05-4.49654E-09 7.20229E-09
 -1       876 2.91848E+05 4.92238E+04 1.50169E+04 1.17161E+05 2.79852E-09 2.27219E-08
 -1       877 2.92837E+05 5.23903E+04 8.01960E+03 1.21473E+05 1.28725E-08-1.43318E-08
 -1       878 2.93253E+05 4.75604E+04 3.35981E+03 1.18392E+05-4.31055E-09-2.18620E-09
 -1       879 2.90796E+05 5.03532E+04 1.67406E+03 1.21574E+05 3.57636E-09-1.36091E-08
 -1       880 2.93353E+05 4.75432E+04 7.79748E+02 1.18442E+05 1.57115E-10-6.29166E-09
 -1       881 2.90660E+05 5.02661E+04 4.16393E+02 1.21551E+05-9.82504E-09-1.81404E-08
 -1       882 2.93362E+05 4.75564E+04 2.66374E+02 1.18444E+05-3.73052E-09-2.08849E-08
 -1       883 2.90651E+05 5.02616E+04 2.86349E+02 1.21544E+05-5.46243E-09-4.17641E-09
 -1       884 2.93356E+05 4.75536E+04 4.55499E+02 1.18444E+05 2.81318E-09-2.18625E-09
 -1       885 2.90687E+05 5.02679E+04 9.15795E+02 1.21554E+05-4.56518E-09 2.63799E-09
 -1       886 2.93320E+05 4.75269E+04 1.84574E+03 1.18440E+05-6.52036E-09 2.88696E-09
 -1       887 2.91011E+05 5.04806E+04 4.03176E+03 1.21601E+05 3.49814E-09-1.04455E-08
 -1       888 2.93065E+05 4.75718E+04 8.12411E+03 1.18311E+05-6.47489E-09 8.43374E-09
 -1       889 2.95848E+05 5.55102E+04 1.94070E+04 1.21453E+05-1.18659E-08-3.46699E-09
 -1       890 2.89750E+05 5.15103E+04 3.63488E+04 1.15219E+05-6.29234E-09 9.28230E-09
 -1       891-9.24545E+01-1.61832E+05-1.98310E+03 2.71124E+04-1.38380E-09-1.39516E-09
 -1       892-1.79864E+02-1.62354E+05-2.13044E+03 4.11648E+04 1.40972E-09-2.16753E-08
 -1       893 3.96478E+01-1.61895E+05-3.01705E+03 2.71197E+04-2.62798E-09-4.93810E-09
 -1       894-1.50655E+03-1.63493E+05-6.24456E+03 4.10127E+04 2.97223E-09-1.01682E-09
 -1       895-1.19578E+03-1.60594E+05-1.09968E+04 2.72661E+04-1.33559E-09 5.01768E-09
 -1       956-3.74528E+05-5.40360E+03-1.33526E+04 3.04131E+04 9.64155E-09-6.14727E-09
 -1       957-3.77149E+05-1.90180E+03-6.85373E+03 3.65522E+04 1.66210E-09-2.74881E-08
 -1       958-3.75728E+05-2.33922E+02-3.08848E+03 3.02469E+04 1.32541E-08-1.21836E-08
 -1       959-3.75924E+05-1.29166E+02-1.57705E+03 3.67454E+04 2.77901E-08 6.34782E-09
 -1       960-3.75845E+05-3.95454E+01-7.69041E+02 3.02298E+04 1.94213E-08-3.34239E-10
 -1       961-3.75844E+05-5.68941E+01-4.07756E+02 3.67655E+04 8.50036E-09 2.27215E-09
 -1       962-3.75872E+05-4.09110E+01-2.33464E+02 3.02270E+04 7.38828E-09-8.49013E-09
 -1       963-3.75844E+05-5.28200E+01-1.87442E+02 3.67692E+04 1.72756E-08-1.34330E-08
 -1       964-3.75877E+05-3.75990E+01-2.27965E+02 3.02262E+04 7.99683E-09-1.28859E-08
 -1       965-3.75856E+05-4.98331E+01-3.94303E+02 3.67685E+04-2.82421E-09-3.81624E-09
 -1       966-3.75861E+05-2.97023E+01-7.40875E+02 3.02277E+04 5.98834E-09 2.41516E-09
 -1       967-3.75945E+05-1.12746E+02-1.51953E+03 3.67544E+04 1.38539E-09 6.29302E-09
 -1       968-3.75759E+05-2.10659E+02-2.97467E+03 3.02402E+04 1.81672E-09-9.47261E-09
 -1       969-3.77138E+05-1.81518E+03-6.60373E+03 3.66083E+04 2.26510E-09-5.74778E-09
 -1       970-3.74611E+05-5.18783E+03-1.28644E+04 3.03657E+04-3.28964E-09 9.86711E-09
 -1       971-3.43292E+05-1.71979E+03-9.28093E+03 1.53242E+04 1.02036E-08 7.95947E-09
 -1       972-3.45528E+05-1.26462E+03-5.05429E+03 2.12037E+04 1.41517E-08 2.05955E-09
 -1       973-3.44327E+05-5.95481E+01-2.26385E+03 1.52032E+04 1.04046E-08 6.42558E-10
 -1       974-3.44462E+05-7.76140E+01-1.17347E+03 2.13405E+04-1.57684E-09 2.10455E-08
 -1       975-3.44408E+05-1.48194E+01-5.86980E+02 1.51909E+04 1.01863E-10 4.23699E-09
 -1       976-3.44401E+05-2.79278E+01-3.39364E+02 2.13562E+04 1.15233E-09-2.26958E-08
 -1       977-3.44425E+05-1.40851E+01-2.47597E+02 1.51875E+04-3.89923E-09-1.12982E-09
 -1       978-3.44406E+05-2.17295E+01-2.91499E+02 2.13610E+04-7.95103E-09-3.30306E-09
 -1       979-3.44425E+05-5.65983E+00-4.69862E+02 1.51861E+04-2.46007E-09-3.74087E-09
 -1       980-3.44441E+05-1.86851E+01-9.08193E+02 2.13620E+04-4.42674E-09 1.41182E-08
 -1       981-3.44395E+05 1.70368E+01-1.75946E+03 1.51866E+04 3.85671E-09 8.22314E-09
 -1       982-3.44683E+05-1.48694E+02-3.63704E+03 2.13554E+04 1.85810E-09 2.25830E-09
 -1       983-3.44174E+05-9.56339E+01-7.06695E+03 1.51926E+04-4.34875E-09 2.25587E-08
 -1       984-3.48082E+05-3.83957E+03-1.58262E+04 2.12700E+04-7.42148E-10 9.14292E-09
 -1       985-3.40974E+05-5.26680E+03-2.90618E+04 1.52645E+04-1.62254E-09-1.02518E-08
 -3
    1PSTEP                        31          16           1          
  100CL  116 6.61560E-01         409                     0   16           1
 -4  DISP        4    1
 -5  D1          1    2    1    0
 -5  D2          1    2    2    0
 -5  D3          1    2    3    0
 -5  ALL         1    2    0    0    1ALL
 -1         1 2.63601E-03 0.00000E+00 0.00000E+00
 -1         2 1.41653E-03-6.31676E-27 5.29396E-23
 -1         3 3.40738E-04-7.90090E-28 0.00000E+00
 -1         5 1.77991E-04-7.87612E-28 1.65436E-24
 -1         8 2.62372E-03-4.32406E-07 0.00000E+00
 -1         9 2.61603E-03-1.52230E-04 0.00000E+00
 -1        10 3.09213E-04-3.44550E-06 1.32349E-23
 -1        12 1.79767E-04 8.05030E-07-4.13590E-25
 -1        15 2.60943E-03-4.61013E-07 0.00000E+00
 -1        16 2.66831E-03-1.53846E-04 0.00000E+00
 -1        17 2.11362E-04-7.82944E-06 0.00000E+00
 -1        18 1.83513E-04 3.34795E-05 0.00000E+00
 -1        19 1.85099E-04 1.60383E-06 0.00000E+00
 -1        20 1.85240E-04-9.07106E-06 0.00000E+00
 -1        21 1.84355E-04-2.37091E-05 3.30872E-24
 -1        24 3.05943E-05-1.21063E-05 0.00000E+00
 -1        25 1.93950E-04 3.37034E-05 0.00000E+00
 -1        26 1.94637E-04 2.22113E-06 0.00000E+00
 -1        27 1.92448E-04-1.26141E-05 0.00000E+00
 -1        28 1.92127E-04-2.43295E-05 0.00000E+00
 -1        32 0.00000E+00 0.00000E+00 0.00000E+00
 -1        33 2.03162E-04 2.97153E-06 0.00000E+00
 -1        34 2.01053E-04-1.26691E-05 0.00000E+00
 -1        35 1.99127E-04-2.46706E-05 0.00000E+00
 -1        51 2.63520E-03-8.84593E-08-6.61744E-24
 -1        52 2.63370E-03-1.59184E-07 0.00000E+00
 -1        53 2.63166E-03-2.26711E-07 0.00000E+00
 -1        54 2.62922E-03-2.93263E-07-1.65436E-24
 -1        55 2.62652E-03-3.60574E-07-2.48154E-24
 -1        56 2.63009E-03 4.27666E-06 5.29396E-23
 -1        57 2.62002E-03 1.88458E-05 0.00000E+00
 -1        58 2.60724E-03 4.02998E-05 0.00000E+00
 -1        59 2.59331E-03 6.45470E-05 5.29396E-23
 -1        60 2.58009E-03 8.70317E-05 0.00000E+00
 -1        61 2.56932E-03 1.03340E-04 5.29396E-23
 -1        62 2.56224E-03 1.10150E-04 1.05879E-22
 -1        63 2.55968E-03 1.04978E-04 0.00000E+00
 -1        64 2.56160E-03 8.74924E-05-1.05879E-22
 -1        65 2.56758E-03 5.84840E-05 0.00000E+00
 -1        66 2.57650E-03 2.08554E-05 1.05879E-22
 -1        67 2.58707E-03-2.16855E-05 0.00000E+00
 -1        68 2.59773E-03-6.45191E-05-1.05879E-22
 -1        69 2.60697E-03-1.02991E-04-5.29396E-23
 -1        70 2.61341E-03-1.33266E-04-5.29396E-23
 -1        86 1.49184E-03-5.00186E-06-5.29396E-23
 -1        87 1.71075E-03-3.05835E-05-1.32349E-23
 -1        88 2.00497E-03-7.42586E-05 2.64698E-23
 -1        89 2.30266E-03-1.18978E-04-1.32349E-23
 -1        90 2.53002E-03-1.46344E-04 0.00000E+00
 -1       121 3.39852E-04-5.56980E-07-1.32349E-23
 -1       122 3.37200E-04-1.11697E-06 0.00000E+00
 -1       123 3.32790E-04-1.68292E-06 0.00000E+00
 -1       124 3.26639E-04-2.25780E-06-6.61744E-24
 -1       125 3.18770E-04-2.84418E-06 0.00000E+00
 -1       191 1.78040E-04 1.34231E-07-2.06795E-24
 -1       192 1.78188E-04 2.68451E-07-6.20385E-25
 -1       193 1.78435E-04 4.02653E-07 1.65436E-24
 -1       194 1.78780E-04 5.36825E-07 6.20385E-25
 -1       195 1.79224E-04 6.70955E-07-8.27181E-25
 -1       251 2.62334E-03 2.80813E-06-6.61744E-24
 -1       252 2.62294E-03 7.64987E-06 0.00000E+00
 -1       253 2.62255E-03 1.26559E-05-1.32349E-23
 -1       254 2.62215E-03 1.63862E-05 6.61744E-24
 -1       255 2.62177E-03 1.76425E-05 0.00000E+00
 -1       256 2.62138E-03 1.52652E-05 6.61744E-24
 -1       257 2.62097E-03 8.78085E-06-1.32349E-23
 -1       258 2.62053E-03-2.21948E-06 6.61744E-24
 -1       259 2.62003E-03-1.72931E-05 1.32349E-23
 -1       260 2.61948E-03-3.59328E-05 0.00000E+00
 -1       261 2.61888E-03-5.69584E-05 1.32349E-23
 -1       262 2.61826E-03-7.91526E-05-6.61744E-24
 -1       263 2.61764E-03-1.01077E-04 0.00000E+00
 -1       264 2.61706E-03-1.21298E-04 0.00000E+00
 -1       265 2.61652E-03-1.38705E-04 0.00000E+00
 -1       266 2.62134E-03-4.43306E-07 3.30872E-24
 -1       267 2.61895E-03-4.47327E-07 0.00000E+00
 -1       268 2.61657E-03-4.51783E-07 8.27181E-25
 -1       269 2.61419E-03-4.54948E-07 2.06795E-25
 -1       270 2.61181E-03-4.58083E-07 2.06795E-25
 -1       271 2.62260E-03 6.18191E-07 0.00000E+00
 -1       272 2.62225E-03-4.48114E-07 0.00000E+00
 -1       273 2.62265E-03-3.52227E-06-2.64698E-23
 -1       274 2.62375E-03-8.48652E-06 0.00000E+00
 -1       275 2.62550E-03-1.52041E-05 0.00000E+00
 -1       276 2.62783E-03-2.35250E-05 1.32349E-23
 -1       277 2.63069E-03-3.32843E-05 2.64698E-23
 -1       278 2.63401E-03-4.43053E-05 1.32349E-23
 -1       279 2.63772E-03-5.64003E-05-2.64698E-23
 -1       280 2.64174E-03-6.93721E-05-1.32349E-23
 -1       281 2.64601E-03-8.30159E-05 0.00000E+00
 -1       282 2.65045E-03-9.71215E-05 1.32349E-23
 -1       283 2.65497E-03-1.11474E-04 0.00000E+00
 -1       284 2.65951E-03-1.25857E-04 6.61744E-24
 -1       285 2.66397E-03-1.40054E-04 0.00000E+00
 -1       301 2.62552E-03-1.52529E-04-6.61744E-24
 -1       302 2.63352E-03-1.52787E-04-6.61744E-24
 -1       303 2.64091E-03-1.53037E-04-1.32349E-23
 -1       304 2.64857E-03-1.53288E-04 6.61744E-24
 -1       305 2.65741E-03-1.53550E-04 0.00000E+00
 -1       306 2.65310E-03-3.02654E-04-1.05879E-22
 -1       307 2.71716E-03-7.10067E-04 0.00000E+00
 -1       308 2.76529E-03-1.30784E-03 0.00000E+00
 -1       309 2.79103E-03-2.00171E-03-5.29396E-23
 -1       310 2.82349E-03-2.66752E-03 1.05879E-22
 -1       311 2.88308E-03-3.18359E-03-5.29396E-23
 -1       312 2.94146E-03-3.46984E-03 1.05879E-22
 -1       313 2.93966E-03-3.48742E-03 0.00000E+00
 -1       314 2.80550E-03-3.24715E-03-1.05879E-22
 -1       315 2.49818E-03-2.81128E-03 0.00000E+00
 -1       316 2.03480E-03-2.25536E-03 0.00000E+00
 -1       317 1.47912E-03-1.64852E-03 5.29396E-23
 -1       318 9.42950E-04-1.05212E-03 0.00000E+00
 -1       319 5.32304E-04-5.31389E-04 5.29396E-23
 -1       320 2.90652E-04-1.59466E-04 1.05879E-22
 -1       336 2.97785E-04-4.10974E-06 0.00000E+00
 -1       337 2.84311E-04-4.79897E-06-6.61744E-24
 -1       338 2.68854E-04-5.51529E-06 0.00000E+00
 -1       339 2.51488E-04-6.25942E-06 0.00000E+00
 -1       340 2.32293E-04-7.03575E-06 0.00000E+00
 -1       406 1.80409E-04 9.39033E-07-2.89513E-24
 -1       407 1.81150E-04 1.07293E-06-4.13590E-25
 -1       408 1.81989E-04 1.20666E-06 4.13590E-25
 -1       409 1.82928E-04 1.34007E-06 4.13590E-25
 -1       410 1.83965E-04 1.47287E-06 8.27181E-25
 -1       521 2.70604E-03-3.13530E-04 0.00000E+00
 -1       522 2.76849E-03-7.40713E-04 0.00000E+00
 -1       523 2.81054E-03-1.36548E-03-1.05879E-22
 -1       524 2.82754E-03-2.08704E-03 5.29396E-23
 -1       525 2.85244E-03-2.77860E-03 0.00000E+00
 -1       526 2.90858E-03-3.31613E-03 0.00000E+00
 -1       527 2.96655E-03-3.61296E-03 2.11758E-22
 -1       528 2.96269E-03-3.62926E-03 5.29396E-23
 -1       529 2.81742E-03-3.37570E-03 2.11758E-22
 -1       530 2.48765E-03-2.92201E-03 0.00000E+00
 -1       531 1.99115E-03-2.34735E-03-1.05879E-22
 -1       532 1.39771E-03-1.72353E-03 0.00000E+00
 -1       533 8.24202E-04-1.10949E-03 1.05879E-22
 -1       534 3.81537E-04-5.68276E-04 5.29396E-23
 -1       535 1.19277E-04-1.77145E-04 0.00000E+00
 -1       536 2.10624E-04 2.65970E-05-6.61744E-24
 -1       537 2.08755E-04 8.62016E-05-1.65436E-24
 -1       538 2.05869E-04 1.61838E-04 0.00000E+00
 -1       539 2.02464E-04 2.44278E-04 1.65436E-24
 -1       540 1.99401E-04 3.22176E-04 0.00000E+00
 -1       541 1.97408E-04 3.84212E-04 0.00000E+00
 -1       542 1.96487E-04 4.23715E-04 3.30872E-24
 -1       543 1.96265E-04 4.34161E-04 0.00000E+00
 -1       544 1.95947E-04 4.16318E-04 3.30872E-24
 -1       545 1.94801E-04 3.71171E-04-1.65436E-24
 -1       546 1.92668E-04 3.06748E-04 0.00000E+00
 -1       547 1.89785E-04 2.31194E-04 0.00000E+00
 -1       548 1.86928E-04 1.56025E-04 0.00000E+00
 -1       549 1.84867E-04 9.27518E-05 0.00000E+00
 -1       550 1.83795E-04 4.93028E-05 1.65436E-24
 -1       551 1.86371E-04-8.40305E-06 0.00000E+00
 -1       552 1.57980E-04-9.06034E-06 0.00000E+00
 -1       553 1.27190E-04-9.78234E-06 1.15805E-23
 -1       554 9.50178E-05-1.05467E-05 6.61744E-24
 -1       555 6.24818E-05-1.13241E-05-2.64698E-23
 -1       556 2.03831E-04 1.14317E-05 0.00000E+00
 -1       557 1.97750E-04 2.70447E-05 0.00000E+00
 -1       558 1.92986E-04 3.92943E-05 0.00000E+00
 -1       559 1.89407E-04 4.84879E-05 2.64698E-23
 -1       560 1.86884E-04 5.49327E-05 0.00000E+00
 -1       561 1.85293E-04 5.89389E-05 0.00000E+00
 -1       562 1.84507E-04 6.08178E-05 0.00000E+00
 -1       563 1.84406E-04 6.08815E-05 0.00000E+00
 -1       564 1.84868E-04 5.94431E-05 0.00000E+00
 -1       565 1.85775E-04 5.68161E-05 0.00000E+00
 -1       566 1.87006E-04 5.33148E-05 0.00000E+00
 -1       567 1.88446E-04 4.92538E-05 6.61744E-24
 -1       568 1.89977E-04 4.49479E-05 0.00000E+00
 -1       569 1.91482E-04 4.07117E-05 8.27181E-25
 -1       570 1.92845E-04 3.68601E-05 0.00000E+00
 -1       571 1.83609E-04 3.14119E-05 0.00000E+00
 -1       572 1.83707E-04 2.92791E-05 0.00000E+00
 -1       573 1.83806E-04 2.70966E-05-3.30872E-24
 -1       574 1.83905E-04 2.48806E-05 1.65436E-24
 -1       575 1.84004E-04 2.26473E-05-3.30872E-24
 -1       576 1.84103E-04 2.04130E-05-1.65436E-24
 -1       577 1.84202E-04 1.81940E-05-3.30872E-24
 -1       578 1.84301E-04 1.60068E-05-3.30872E-24
 -1       579 1.84401E-04 1.38674E-05 0.00000E+00
 -1       580 1.84500E-04 1.17925E-05 0.00000E+00
 -1       581 1.84600E-04 9.79819E-06 0.00000E+00
 -1       582 1.84699E-04 7.90087E-06-3.30872E-24
 -1       583 1.84799E-04 6.11684E-06 0.00000E+00
 -1       584 1.84899E-04 4.46223E-06 3.30872E-24
 -1       585 1.84999E-04 2.95302E-06 0.00000E+00
 -1       586 1.85211E-04 3.35189E-05 1.65436E-24
 -1       587 1.86868E-04 3.35577E-05 0.00000E+00
 -1       588 1.88528E-04 3.35963E-05 0.00000E+00
 -1       589 1.90232E-04 3.36341E-05 0.00000E+00
 -1       590 1.92026E-04 3.36707E-05 0.00000E+00
 -1       591 1.84221E-04 3.15042E-05 1.03398E-25
 -1       592 1.84932E-04 2.95087E-05-2.06795E-25
 -1       593 1.85648E-04 2.74988E-05 0.00000E+00
 -1       594 1.86367E-04 2.54792E-05 4.13590E-25
 -1       595 1.87088E-04 2.34548E-05-8.27181E-25
 -1       596 1.87808E-04 2.14302E-05 0.00000E+00
 -1       597 1.88527E-04 1.94103E-05 0.00000E+00
 -1       598 1.89243E-04 1.73997E-05 0.00000E+00
 -1       599 1.89953E-04 1.54032E-05 0.00000E+00
 -1       600 1.90657E-04 1.34256E-05-4.13590E-25
 -1       601 1.91351E-04 1.14714E-05-8.27181E-25
 -1       602 1.92035E-04 9.54560E-06 0.00000E+00
 -1       603 1.92707E-04 7.65276E-06 0.00000E+00
 -1       604 1.93365E-04 5.79776E-06 1.80946E-25
 -1       605 1.94008E-04 3.98526E-06 0.00000E+00
 -1       606 1.85113E-04 4.86471E-07 0.00000E+00
 -1       607 1.85122E-04-5.44378E-07 1.65436E-24
 -1       608 1.85131E-04-1.49380E-06 0.00000E+00
 -1       609 1.85140E-04-2.36750E-06 0.00000E+00
 -1       610 1.85148E-04-3.17129E-06-3.30872E-24
 -1       611 1.85157E-04-3.91100E-06 0.00000E+00
 -1       612 1.85165E-04-4.59245E-06 0.00000E+00
 -1       613 1.85173E-04-5.22153E-06 0.00000E+00
 -1       614 1.85182E-04-5.80409E-06 0.00000E+00
 -1       615 1.85190E-04-6.34596E-06 0.00000E+00
 -1       616 1.85199E-04-6.85303E-06 0.00000E+00
 -1       617 1.85207E-04-7.33113E-06 4.13590E-25
 -1       618 1.85216E-04-7.78613E-06 0.00000E+00
 -1       619 1.85224E-04-8.22388E-06 0.00000E+00
 -1       620 1.85232E-04-8.65024E-06 0.00000E+00
 -1       621 1.86409E-04 1.70726E-06-1.65436E-24
 -1       622 1.87874E-04 1.81094E-06 8.27181E-25
 -1       623 1.89462E-04 1.91442E-06 3.30872E-24
 -1       624 1.91141E-04 2.01758E-06 8.27181E-25
 -1       625 1.92877E-04 2.12045E-06-1.65436E-24
 -1       626 1.85630E-04 5.22399E-07 0.00000E+00
 -1       627 1.86137E-04-4.95226E-07 0.00000E+00
 -1       628 1.86624E-04-1.45692E-06 0.00000E+00
 -1       629 1.87094E-04-2.37089E-06 0.00000E+00
 -1       630 1.87548E-04-3.24534E-06-3.30872E-24
 -1       631 1.87991E-04-4.08853E-06 1.65436E-24
 -1       632 1.88425E-04-4.90868E-06 3.30872E-24
 -1       633 1.88853E-04-5.71405E-06-1.65436E-24
 -1       634 1.89280E-04-6.51288E-06 0.00000E+00
 -1       635 1.89706E-04-7.31340E-06-1.65436E-24
 -1       636 1.90137E-04-8.12386E-06-3.30872E-24
 -1       637 1.90574E-04-8.95250E-06 1.65436E-24
 -1       638 1.91021E-04-9.80757E-06 0.00000E+00
 -1       639 1.91481E-04-1.06973E-05 0.00000E+00
 -1       640 1.91956E-04-1.16301E-05 0.00000E+00
 -1       656 1.85894E-04-9.64693E-06-6.61744E-24
 -1       657 1.86968E-04-1.02462E-05 6.61744E-24
 -1       658 1.88322E-04-1.08441E-05 0.00000E+00
 -1       659 1.89809E-04-1.14416E-05 0.00000E+00
 -1       660 1.91246E-04-1.20410E-05 0.00000E+00
 -1       661 1.85485E-04-9.53662E-06 0.00000E+00
 -1       662 1.85767E-04-1.00934E-05 8.27181E-25
 -1       663 1.86082E-04-1.07362E-05-1.65436E-24
 -1       664 1.86426E-04-1.14586E-05 8.27181E-25
 -1       665 1.86799E-04-1.22549E-05-1.65436E-24
 -1       666 1.87197E-04-1.31191E-05 0.00000E+00
 -1       667 1.87618E-04-1.40458E-05 0.00000E+00
 -1       668 1.88060E-04-1.50294E-05 8.27181E-25
 -1       669 1.88522E-04-1.60646E-05 0.00000E+00
 -1       670 1.89001E-04-1.71461E-05 8.27181E-25
 -1       671 1.89496E-04-1.82688E-05 0.00000E+00
 -1       672 1.90004E-04-1.94277E-05 8.27181E-25
 -1       673 1.90523E-04-2.06179E-05-1.65436E-24
 -1       674 1.91052E-04-2.18346E-05 0.00000E+00
 -1       675 1.91589E-04-2.30728E-05 0.00000E+00
 -1       676 1.85655E-04-2.38131E-05-3.30872E-24
 -1       677 1.86954E-04-2.39171E-05 0.00000E+00
 -1       678 1.88251E-04-2.40210E-05 0.00000E+00
 -1       679 1.89546E-04-2.41246E-05 0.00000E+00
 -1       680 1.90839E-04-2.42281E-05-1.65436E-24
 -1       771 1.86759E-05 1.45444E-05-5.29396E-23
 -1       772 8.64880E-06 3.64341E-05 0.00000E+00
 -1       773 4.21858E-07 5.37922E-05-5.29396E-23
 -1       774-6.12885E-06 6.68760E-05 0.00000E+00
 -1       775-1.11246E-05 7.59532E-05 0.00000E+00
 -1       776-1.46917E-05 8.13082E-05 0.00000E+00
 -1       777-1.69559E-05 8.32354E-05 5.29396E-23
 -1       778-1.80458E-05 8.20429E-05 0.00000E+00
 -1       779-1.80893E-05 7.80474E-05 0.00000E+00
 -1       780-1.72163E-05 7.15768E-05-2.64698E-23
 -1       781-1.55557E-05 6.29659E-05 5.29396E-23
 -1       782-1.32381E-05 5.25584E-05 0.00000E+00
 -1       783-1.03931E-05 4.07022E-05 5.29396E-23
 -1       784-7.15148E-06 2.77518E-05-2.64698E-23
 -1       785-3.64325E-06 1.40645E-05 0.00000E+00
 -1       786 1.93988E-04 3.15091E-05 2.58494E-26
 -1       787 1.94030E-04 2.93647E-05 0.00000E+00
 -1       788 1.94073E-04 2.72618E-05 0.00000E+00
 -1       789 1.94116E-04 2.51923E-05 0.00000E+00
 -1       790 1.94159E-04 2.31515E-05 0.00000E+00
 -1       791 1.94202E-04 2.11346E-05 0.00000E+00
 -1       792 1.94245E-04 1.91395E-05 0.00000E+00
 -1       793 1.94288E-04 1.71639E-05 0.00000E+00
 -1       794 1.94332E-04 1.52077E-05 0.00000E+00
 -1       795 1.94375E-04 1.32708E-05 8.27181E-25
 -1       796 1.94418E-04 1.13550E-05 0.00000E+00
 -1       797 1.94462E-04 9.46230E-06 8.27181E-25
 -1       798 1.94505E-04 7.59689E-06-1.65436E-24
 -1       799 1.94549E-04 5.76315E-06 8.27181E-25
 -1       800 1.94593E-04 3.96867E-06 1.65436E-24
 -1       801 1.48872E-04 3.02825E-05 0.00000E+00
 -1       802 1.25231E-05 1.88926E-05 2.64698E-23
 -1       803-1.04387E-04 9.49720E-06-5.29396E-23
 -1       804-9.34290E-05 6.59654E-06 0.00000E+00
 -1       805-3.10455E-05 2.62065E-06 0.00000E+00
 -1       806 1.94658E-04 3.14407E-05-1.65436E-24
 -1       807 1.95352E-04 2.92041E-05 0.00000E+00
 -1       808 1.96034E-04 2.69988E-05 0.00000E+00
 -1       809 1.96702E-04 2.48289E-05 1.65436E-24
 -1       810 1.97355E-04 2.26982E-05 0.00000E+00
 -1       811 1.97993E-04 2.06109E-05 1.65436E-24
 -1       812 1.98612E-04 1.85707E-05 0.00000E+00
 -1       813 1.99213E-04 1.65815E-05 0.00000E+00
 -1       814 1.99793E-04 1.46474E-05-3.30872E-24
 -1       815 2.00351E-04 1.27720E-05-1.65436E-24
 -1       816 2.00886E-04 1.09594E-05-1.65436E-24
 -1       817 2.01396E-04 9.21329E-06 0.00000E+00
 -1       818 2.01879E-04 7.53763E-06 1.65436E-24
 -1       819 2.02336E-04 5.93626E-06-8.27181E-25
 -1       820 2.02763E-04 4.41297E-06 1.65436E-24
 -1       821 1.94508E-04-5.14521E-08-1.65436E-24
 -1       822 1.94369E-04-3.41583E-06 0.00000E+00
 -1       823 1.94228E-04-7.46300E-06 0.00000E+00
 -1       824 1.94084E-04-1.17797E-05-1.65436E-24
 -1       825 1.93941E-04-1.58801E-05 0.00000E+00
 -1       826 1.93800E-04-1.92795E-05 0.00000E+00
 -1       827 1.93662E-04-2.16837E-05 3.30872E-24
 -1       828 1.93527E-04-2.28045E-05 1.65436E-24
 -1       829 1.93391E-04-2.27022E-05 3.30872E-24
 -1       830 1.93255E-04-2.14446E-05 1.65436E-24
 -1       831 1.93118E-04-1.94131E-05 0.00000E+00
 -1       832 1.92980E-04-1.69939E-05 0.00000E+00
 -1       833 1.92843E-04-1.46784E-05 3.30872E-24
 -1       834 1.92708E-04-1.29576E-05 1.65436E-24
 -1       835 1.92574E-04-1.21615E-05 0.00000E+00
 -1       836 1.96269E-04 2.34558E-06 0.00000E+00
 -1       837 1.97775E-04 2.47316E-06 1.65436E-24
 -1       838 1.99185E-04 2.60067E-06 0.00000E+00
 -1       839 2.00531E-04 2.72747E-06 0.00000E+00
 -1       840 2.01846E-04 2.85412E-06 0.00000E+00
 -1       856 1.92432E-04-1.36205E-05 0.00000E+00
 -1       857 1.92412E-04-1.44914E-05 0.00000E+00
 -1       858 1.92392E-04-1.52479E-05 4.13590E-25
 -1       859 1.92372E-04-1.59112E-05 0.00000E+00
 -1       860 1.92352E-04-1.65023E-05 4.13590E-25
 -1       861 1.92332E-04-1.70426E-05 0.00000E+00
 -1       862 1.92312E-04-1.75534E-05 0.00000E+00
 -1       863 1.92292E-04-1.80559E-05 0.00000E+00
 -1       864 1.92272E-04-1.85714E-05-8.27181E-25
 -1       865 1.92252E-04-1.91213E-05 0.00000E+00
 -1       866 1.92231E-04-1.97268E-05-8.27181E-25
 -1       867 1.92211E-04-2.04091E-05 0.00000E+00
 -1       868 1.92191E-04-2.11895E-05 0.00000E+00
 -1       869 1.92170E-04-2.20891E-05 0.00000E+00
 -1       870 1.92149E-04-2.31287E-05 8.27181E-25
 -1       871 1.93741E-04-1.26189E-05 8.27181E-25
 -1       872 1.95181E-04-1.26270E-05 0.00000E+00
 -1       873 1.96700E-04-1.26358E-05 4.13590E-25
 -1       874 1.98230E-04-1.26454E-05 1.03398E-25
 -1       875 1.99703E-04-1.26555E-05 2.06795E-25
 -1       876 1.92952E-04-1.36060E-05 0.00000E+00
 -1       877 1.93434E-04-1.45312E-05 0.00000E+00
 -1       878 1.93895E-04-1.53978E-05-3.30872E-24
 -1       879 1.94336E-04-1.62130E-05 1.65436E-24
 -1       880 1.94761E-04-1.69843E-05 0.00000E+00
 -1       881 1.95173E-04-1.77191E-05-1.65436E-24
 -1       882 1.95573E-04-1.84246E-05 0.00000E+00
 -1       883 1.95966E-04-1.91082E-05-1.65436E-24
 -1       884 1.96352E-04-1.97772E-05 0.00000E+00
 -1       885 1.96737E-04-2.04390E-05-1.65436E-24
 -1       886 1.97121E-04-2.11008E-05 0.00000E+00
 -1       887 1.97508E-04-2.17700E-05-1.65436E-24
 -1       888 1.97900E-04-2.24540E-05 0.00000E+00
 -1       889 1.98299E-04-2.31603E-05 0.00000E+00
 -1       890 1.98709E-04-2.38960E-05 1.65436E-24
 -1       891 1.93436E-04-2.43868E-05 1.65436E-24
 -1       892 1.94721E-04-2.44442E-05 0.00000E+00
 -1       893 1.95958E-04-2.45016E-05 0.00000E+00
 -1       894 1.97121E-04-2.45587E-05-4.13590E-25
 -1       895 1.98186E-04-2.46155E-05 4.13590E-25
 -1       956 2.03032E-04 1.70363E-06 1.65436E-24
 -1       957 2.02900E-04 5.26640E-07 0.00000E+00
 -1       958 2.02768E-04-5.70077E-07-3.30872E-24
 -1       959 2.02636E-04-1.59777E-06 1.65436E-24
 -1       960 2.02504E-04-2.56773E-06 0.00000E+00
 -1       961 2.02371E-04-3.49128E-06 0.00000E+00
 -1       962 2.02239E-04-4.37974E-06 0.00000E+00
 -1       963 2.02107E-04-5.24449E-06-1.65436E-24
 -1       964 2.01975E-04-6.09686E-06 0.00000E+00
 -1       965 2.01843E-04-6.94819E-06 0.00000E+00
 -1       966 2.01710E-04-7.80985E-06 0.00000E+00
 -1       967 2.01578E-04-8.69319E-06 0.00000E+00
 -1       968 2.01446E-04-9.60952E-06-6.61744E-24
 -1       969 2.01314E-04-1.05702E-05 0.00000E+00
 -1       970 2.01182E-04-1.15864E-05-3.30872E-24
 -1       971 2.00933E-04-1.37508E-05 3.30872E-24
 -1       972 2.00812E-04-1.47379E-05 0.00000E+00
 -1       973 2.00691E-04-1.56409E-05 0.00000E+00
 -1       974 2.00570E-04-1.64707E-05 0.00000E+00
 -1       975 2.00449E-04-1.72379E-05 3.30872E-24
 -1       976 2.00328E-04-1.79536E-05 1.65436E-24
 -1       977 2.00207E-04-1.86286E-05-3.30872E-24
 -1       978 2.00086E-04-1.92738E-05 1.65436E-24
 -1       979 1.99966E-04-1.99001E-05 0.00000E+00
 -1       980 1.99845E-04-2.05184E-05-1.65436E-24
 -1       981 1.99724E-04-2.11396E-05 0.00000E+00
 -1       982 1.99603E-04-2.17746E-05-1.65436E-24
 -1       983 1.99482E-04-2.24344E-05-3.30872E-24
 -1       984 1.99362E-04-2.31297E-05 0.00000E+00
 -1       985 1.99242E-04-2.38716E-05 0.00000E+00
 -3
    1PSTEP                        32          16           1          
  100CL  116 6.61560E-01         409                     0   16           1
 -4  STRESS      6    1
 -5  SXX         1    4    1    1
 -5  SYY         1    4    2    2
 -5  SZZ         1    4    3    3
 -5  SXY         1    4    1    2
 -5  SYZ         1    4    2    3
 -5  SZX         1    4    3    1
 -1         1-5.18935E+06-1.69215E+06-1.11506E+06-1.51272E+06 7.56700E-10-2.06637E-08
 -1         2 1.11784E+06 1.64476E+07 3.97277E+06 4.94431E+06 2.77360E-08-6.18093E-08
 -1         3-1.44746E+03-1.58183E+06 4.08401E+02-2.21428E+03-4.12182E-10 1.14887E-08
 -1         5-6.97824E+01 3.84362E+05 9.93160E+00-1.27927E+00-4.02624E-10 5.89407E-08
 -1         8-6.52158E+05-2.23898E+05-7.81853E+04-2.61851E+05-1.41881E-10 6.30280E-08
 -1         9 1.11380E+07 2.84414E+06 2.49824E+06-5.37059E+05-6.58911E-09-1.84821E-07
 -1        10-2.28010E+03-1.64840E+06-3.96299E+03-1.49773E+04-1.38225E-08-6.06562E-08
 -1        12-6.58698E+01 3.84383E+05 3.26130E+02-8.74255E+00-5.15875E-10 1.66438E-08
 -1        15 1.01613E+03 5.58417E+02 3.28462E+03 1.04631E+00-1.56447E-10 1.83157E-07
 -1        16 2.22439E+07-2.76342E+05 3.04673E+06-2.08057E+06-6.26702E-09 1.36128E-07
 -1        17 8.12100E+06 6.05372E+06 2.19361E+06 5.80519E+06 4.27157E-08 3.35160E-08
 -1        18 1.37269E+05 3.21286E+04 3.08413E+03-1.18486E+05 1.10301E-08-2.04291E-08
 -1        19 1.21819E+05 1.40977E+05-9.39398E+02 2.19219E+04 1.52904E-09-6.18602E-09
 -1        20-8.09752E+04-5.71068E+05-1.28101E+05 2.53374E+04-1.37288E-09-6.99705E-09
 -1        21-4.56128E+01-2.95385E+05-9.22715E+02 2.63343E+02 1.52231E-08-1.00050E-08
 -1        24 1.35107E+07 1.16310E+07 3.75579E+06 1.07610E+07-1.23526E-07-5.26003E-08
 -1        25 1.18224E+05 2.42831E+05 9.37079E+04-6.24225E+05-3.12139E-10-3.22743E-09
 -1        26-5.49274E+04 9.18241E+04-2.44949E+04 1.05642E+03 9.53150E-11 6.06698E-09
 -1        27-7.56092E+04-3.08629E+05-1.12902E+05 6.86968E+04 3.60918E-09 9.83467E-10
 -1        28 2.22127E+04-8.50896E+04 1.68589E+04 2.06882E+04-4.12595E-09 5.23303E-09
 -1        32-1.67580E+06-3.16205E+06-1.94667E+05 4.15298E+05-4.26080E-08-1.02536E-08
 -1        33-1.77774E+05 9.25059E+04 3.22377E+04-3.84898E+04-2.95411E-09-1.30603E-08
 -1        34-2.22797E+05-2.48711E+04 6.84032E+02 7.52325E+04-3.48305E-09-7.00826E-09
 -1        35-2.28916E+04-3.37457E+04-1.34406E+03 5.13905E+04-4.92551E-09-9.91956E-10
 -1        51 5.85364E+04-1.82436E+05 1.24278E+05-4.86488E+05-4.36557E-11-8.52888E-08
 -1        52 2.00637E+04-1.61051E+05 6.55771E+04-5.67325E+05 3.86535E-10-4.16821E-07
 -1        53 4.39316E+03-1.76460E+05 3.47480E+04-4.84784E+05 3.25599E-10-1.82554E-07
 -1        54 8.30273E+03-1.72315E+05 2.97522E+04-5.69024E+05-1.63709E-10-3.23002E-07
 -1        55 1.79728E+04-1.79930E+05 3.75989E+04-4.84643E+05 5.71163E-10-1.04468E-07
 -1        56-9.50465E+06-1.19615E+06-8.47160E+05-3.85327E+06-1.54250E-09-1.75380E-07
 -1        57-1.04795E+07-1.19600E+06-5.51086E+05-3.01397E+06 2.56950E-08 1.36912E-07
 -1        58-9.50717E+06-1.57201E+06-1.94268E+05-3.93670E+06-2.01326E-08-6.22749E-08
 -1        59-1.04309E+07-7.85565E+05-1.12452E+05-2.98976E+06-2.41171E-08-1.53901E-07
 -1        60-9.57284E+06-1.58204E+06-4.93627E+04-3.89774E+06-8.19273E-09-6.41994E-08
 -1        61-1.01105E+07-9.53666E+05-1.16480E+04-3.17717E+06 3.91592E-08 1.23722E-07
 -1        62-9.78115E+06-1.43424E+06-3.31156E+04-3.71453E+06 2.78669E-09 1.57270E-08
 -1        63-9.66211E+06-1.33800E+06 1.09015E+04-3.59084E+06 2.84927E-08 2.44647E-07
 -1        64-9.98847E+06-1.22062E+06-3.02614E+04-3.46232E+06-2.02999E-08 4.64333E-08
 -1        65-9.39283E+06-1.68692E+06-1.14336E+04-4.05877E+06 1.11686E-08 8.71137E-08
 -1        66-1.00915E+07-1.05697E+06-4.25932E+04-3.27696E+06 1.15069E-08 9.60954E-08
 -1        67-9.34790E+06-1.86305E+06-1.01391E+05-4.27182E+06-2.93621E-08 1.08997E-07
 -1        68-1.00739E+07-1.01751E+06-1.76818E+05-3.27569E+06-5.44383E-08-4.86907E-08
 -1        69-9.57582E+06-2.02521E+06-4.93866E+05-4.02848E+06-2.84349E-08-5.84405E-08
 -1        70-9.83078E+06-9.28062E+05-7.68516E+05-3.49442E+06 1.10304E-08-1.90688E-07
 -1        86-1.13874E+06-1.28627E+07-2.17022E+06-2.33768E+06-2.48405E-07-2.19006E-08
 -1        87 1.73480E+06 4.38182E+06 1.80620E+06 4.58721E+06-4.22639E-07-2.38974E-08
 -1        88-2.98569E+05-2.24981E+06 1.62869E+05-2.19280E+06-3.73318E-07-1.53054E-08
 -1        89 2.33045E+06 4.18123E+06 1.84395E+06 4.72124E+06-5.07549E-07-1.26154E-07
 -1        90-1.67195E+06-1.27151E+07-2.35706E+06-2.48842E+06-1.37934E-07 6.31408E-08
 -1       121-1.98474E+03-1.58661E+06-5.16785E+02 1.09789E+03 1.63834E-09-1.37225E-08
 -1       122-1.26073E+03-1.58189E+06 7.78895E+02-4.43158E+03-5.14837E-09-1.94923E-08
 -1       123-2.00667E+03-1.58675E+06 3.05903E+02 3.27863E+03 4.26905E-09-1.30967E-09
 -1       124 3.95124E+02-1.58143E+06 2.99866E+03-9.26503E+03-9.99808E-09-1.48648E-08
 -1       125-2.83156E+03-1.58766E+06 3.56549E+03 5.88751E+03 6.52835E-09 7.69069E-09
 -1       191-7.35603E+01 3.84381E+05 8.70290E+00 6.65330E-01-5.54419E-10 1.34860E-08
 -1       192-7.07377E+01 3.84363E+05 2.11813E+01-4.12143E+00-7.95286E-10-2.44881E-08
 -1       193-7.60767E+01 3.84381E+05 3.63098E+01 3.61363E+00-1.00120E-09-1.78607E-08
 -1       194-7.38012E+01 3.84366E+05 8.04912E+01-9.35824E+00-5.33111E-10-2.19734E-08
 -1       195-8.09071E+01 3.84378E+05 1.54351E+02 6.07623E+00-1.44640E-09-1.16652E-08
 -1       251-1.09158E+06 2.29976E+04-5.46299E+04-2.06542E+04 3.56226E-09-7.60119E-08
 -1       252-1.11256E+06-2.63594E+04-3.79905E+04 6.92997E+04-5.87445E-09 2.13655E-07
 -1       253-1.09997E+06 3.78557E+03-1.40879E+04-2.14291E+04 3.21381E-09 2.61838E-07
 -1       254-1.09635E+06-3.87995E+03-7.36671E+03 5.84500E+04-3.05670E-09-1.24204E-07
 -1       255-1.10702E+06 3.46143E+02-4.73678E+03-9.80553E+03-7.15909E-09 1.87358E-07
 -1       256-1.08486E+06-3.18409E+02 1.37833E+03 2.74750E+04 1.64000E-08 3.58644E-07
 -1       257-1.11065E+06-7.09774E+02-2.52310E+03 9.53678E+03-7.48378E-09 6.74984E-08
 -1       258-1.08545E+06 9.47769E+02 3.62256E+03-1.09927E+04-1.47793E-09 1.29187E-07
 -1       259-1.10664E+06-1.08643E+03 3.26403E+02 2.86506E+04 8.17909E-09 9.22075E-08
 -1       260-1.09575E+06 3.05811E+03 5.27439E+03-4.11853E+04-1.31299E-08-2.87490E-08
 -1       261-1.10122E+06-1.90793E+03 7.11321E+03 3.97497E+04 1.20212E-08-1.91817E-08
 -1       262-1.09773E+06 1.06436E+04 1.79335E+04-5.09664E+04-2.02223E-08 5.65192E-08
 -1       263-1.10500E+06-8.09387E+03 2.80306E+04 3.84499E+04 1.23326E-08 8.57144E-08
 -1       264-1.06858E+06 5.62323E+04 7.87997E+04-3.64588E+04 1.43309E-08 1.85181E-07
 -1       265-1.12973E+06-4.80462E+04 1.07558E+05 2.52200E+04 1.69841E-08 1.24019E-07
 -1       266-1.83956E+04-8.60249E+03 4.31578E+04-2.23864E+01-4.85670E-10-2.75620E-08
 -1       267 2.13253E+04 1.00253E+04 3.05051E+04 2.58313E+01-9.31323E-10-3.70117E-07
 -1       268-2.85969E+03-1.41991E+03 1.13385E+04-3.29125E+00-6.06178E-10-3.69344E-07
 -1       269 3.37645E+03 1.69927E+03 7.36993E+03 3.83392E+00-7.35326E-10-1.80376E-07
 -1       270-5.06807E+02-2.79204E+02 3.55757E+03-5.20286E-01-4.68162E-10-2.75526E-07
 -1       271-1.61931E+06-2.02934E+05-1.20993E+05-6.27659E+05-4.24006E-09 1.93068E-07
 -1       272-1.63704E+06-3.09491E+05-7.67922E+04-6.48983E+05 2.56168E-08-1.10379E-07
 -1       273-1.64420E+06-2.30087E+05-2.90384E+04-6.19741E+05-4.10382E-08 2.07068E-07
 -1       274-1.60769E+06-2.77075E+05-1.55730E+04-6.62999E+05 2.76996E-08-4.04834E-08
 -1       275-1.64968E+06-2.30542E+05-7.06594E+03-6.16230E+05-2.85909E-08 6.02786E-08
 -1       276-1.60121E+06-2.77362E+05-3.24539E+03-6.70419E+05-4.65661E-09-2.26714E-08
 -1       277-1.65232E+06-2.28350E+05-1.92000E+03-6.13662E+05-4.85124E-09-2.27787E-07
 -1       278-1.59841E+06-2.80475E+05-8.97555E+02-6.75954E+05 1.07502E-09 4.83342E-08
 -1       279-1.65404E+06-2.26415E+05-1.02370E+03-6.11786E+05-3.93884E-08-3.32719E-07
 -1       280-1.59692E+06-2.83047E+05-1.36679E+03-6.79795E+05 2.08502E-09-1.20389E-07
 -1       281-1.65500E+06-2.25034E+05-2.51980E+03-6.10634E+05 6.97491E-09 2.32899E-07
 -1       282-1.59725E+06-2.85942E+05-5.88837E+03-6.81630E+05-4.05635E-10 3.42156E-08
 -1       283-1.65440E+06-2.23244E+05-1.04725E+04-6.10356E+05 2.87557E-08-5.50940E-08
 -1       284-1.60637E+06-3.00231E+05-2.85518E+04-6.79556E+05-1.73043E-08 9.69067E-10
 -1       285-1.64614E+06-2.12145E+05-4.44199E+04-6.12233E+05-2.71968E-08 1.36057E-07
 -1       301 8.46000E+02-6.18061E+05 1.68436E+05-1.07864E+06 5.30417E-09 1.98866E-07
 -1       302 8.17475E+02-5.72968E+05 1.01486E+05-1.57540E+06 4.21278E-09 2.50775E-07
 -1       303-1.55238E+04-6.08345E+05 5.81957E+04-1.07580E+06 4.95493E-09 4.50364E-08
 -1       304-1.50249E+04-5.78259E+05 6.00693E+04-1.57465E+06-2.22644E-09 1.30192E-07
 -1       305-1.86311E+04-5.98340E+05 7.58067E+04-1.07889E+06-1.95359E-09 7.50879E-09
 -1       306-2.97220E+07-6.13029E+06-8.46458E+06-6.59115E+05-9.63919E-08-6.23986E-08
 -1       307 2.51104E+07 3.04910E+06 5.43842E+06-1.47957E+07-8.80158E-07-1.01485E-07
 -1       308-7.16139E+06-1.00559E+06-4.92394E+05 5.12670E+06-2.60363E-07 1.58660E-07
 -1       309-3.37336E+06 8.43748E+06 2.21012E+06-2.03763E+07 2.39561E-07 6.09783E-07
 -1       310-1.22420E+07-1.82831E+06-1.91453E+06 5.11426E+06-9.89530E-10-1.65426E-07
 -1       311 3.69478E+07 1.08419E+04 7.04903E+06-8.94655E+06 5.43136E-07-2.11759E-07
 -1       312-3.13334E+07-6.55055E+06-8.30753E+06-4.77929E+06 4.26080E-08 7.97299E-08
 -1       313 4.47308E+07 1.41932E+07 1.04344E+07 2.29133E+07-6.94126E-08 4.68950E-07
 -1       314-1.72879E+07-1.72247E+07-7.38353E+06-1.23602E+07 4.33414E-07 1.00350E-07
 -1       315-1.54396E+06 2.89185E+07 5.58376E+06 1.07202E+07-4.16432E-07 1.42667E-07
 -1       316 1.21708E+06-9.78362E+06-4.68094E+05-2.71913E+06-1.17892E-06-3.36411E-07
 -1       317-1.71691E+07 2.20685E+07 2.16903E+06-8.34723E+06 8.78470E-07-6.85301E-07
 -1       318-1.07694E+06-1.24222E+07-1.94024E+06-4.27322E+06-8.83709E-07 1.64611E-07
 -1       319 6.82387E+06 3.09376E+07 6.82108E+06 1.61496E+07-7.55899E-08 1.99681E-07
 -1       320-2.22102E+07-1.71792E+07-9.60714E+06-1.25520E+07 1.88826E-07-7.15081E-08
 -1       336-6.56922E+02-1.71757E+06-1.39110E+04 8.92755E+03-2.59824E-08-1.56579E-08
 -1       337-5.40624E+03-1.71731E+06-1.81467E+04-2.16588E+04-4.81853E-08-1.09831E-08
 -1       338 3.42957E+02-1.71707E+06-2.84785E+04 1.24912E+04-3.38396E-08 6.82121E-09
 -1       339-3.02191E+04-1.73452E+06-6.44064E+04-2.86321E+04-6.25441E-08 2.46164E-08
 -1       340 1.99776E+04-1.70250E+06-1.01402E+05 1.57729E+04-4.12510E-08 3.55903E-08
 -1       406-4.40479E+01 3.84364E+05 6.40614E+02 3.16260E+00-1.99653E-09 1.72640E-08
 -1       407 1.58986E+02 3.84496E+05 1.36847E+03 2.26107E+01-5.13168E-10 1.37115E-08
 -1       408 6.36407E+02 3.84264E+05 2.72894E+03-2.61232E+01-2.40470E-09 2.58296E-10
 -1       409 2.89441E+03 3.85368E+05 6.15025E+03 2.78264E+02-6.11522E-10-1.63773E-08
 -1       410 8.43395E+03 3.83479E+05 1.25526E+04-2.68224E+02-2.92857E-09-1.61781E-08
 -1       521-3.12175E+07-7.54238E+06-9.86380E+06-2.80095E+05-1.69501E-07-8.73115E-09
 -1       522 2.59041E+07 3.98951E+06 5.52789E+06-1.82082E+07-5.91652E-07-1.42987E-07
 -1       523-7.76350E+06-1.30982E+06-4.87703E+05 5.56503E+06 5.66943E-08-1.49797E-07
 -1       524-6.82514E+06 1.13696E+07 2.38396E+06-2.33806E+07 7.01824E-07-5.92128E-07
 -1       525-1.30528E+07-2.42677E+06-2.09850E+06 5.55068E+06 6.77712E-07-1.21508E-07
 -1       526 4.01814E+07-6.29693E+04 7.38456E+06-1.15663E+07 1.11293E-07 3.42843E-08
 -1       527-3.31104E+07-8.18886E+06-9.55060E+06-4.63529E+06-4.95929E-08 1.75467E-07
 -1       528 4.87688E+07 1.57162E+07 1.08624E+07 2.59702E+07 3.26545E-08-2.04658E-07
 -1       529-1.82329E+07-1.93465E+07-8.44747E+06-1.24020E+07-2.47965E-08-1.18744E-08
 -1       530-3.97780E+06 3.35299E+07 5.89712E+06 1.02956E+07-3.87518E-07 6.71193E-07
 -1       531 1.19350E+06-1.08624E+07-4.48440E+05-2.71059E+06-1.13049E-06 5.30563E-07
 -1       532-1.97744E+07 2.40925E+07 2.36421E+06-1.24627E+07 4.38347E-07-6.33241E-07
 -1       533-1.12058E+06-1.35424E+07-2.05262E+06-4.12405E+06-2.51021E-07-1.03406E-06
 -1       534 4.77754E+06 3.58188E+07 7.08168E+06 1.66610E+07-5.38712E-08 7.20844E-07
 -1       535-2.33377E+07-1.94819E+07-1.09797E+07-1.26156E+07 1.04774E-07 4.54194E-07
 -1       536-6.98060E+05-4.66457E+04-4.42803E+04-5.35796E+04-5.98811E-09 6.06506E-08
 -1       537-6.27364E+04 4.48018E+04 8.35826E+04 1.21741E+05-1.07556E-07 7.65431E-08
 -1       538-3.94048E+05 3.09375E+03 4.14640E+03-7.11421E+04 3.63120E-08 1.17741E-07
 -1       539-2.71914E+05 2.92644E+03 2.46585E+04 1.36568E+05 1.53068E-07 1.03251E-07
 -1       540-4.94122E+05-4.05902E+02-2.05658E+04-6.89198E+04 1.51956E-08 9.89124E-08
 -1       541 1.33079E+05 1.65394E+04 1.03721E+05 9.61056E+04 1.66933E-08 9.68848E-08
 -1       542-7.88132E+05-1.96309E+04-8.20405E+04-2.98397E+04 1.36888E-08 4.76972E-08
 -1       543 3.85071E+05 2.66315E+04 1.53896E+05-1.31903E+04 2.00864E-08-1.88988E-08
 -1       544-7.39358E+05-1.60985E+04-7.28824E+04 3.97324E+04 3.62984E-08-4.13702E-08
 -1       545 1.80927E+04 9.19201E+03 7.76344E+04-1.11701E+05 1.25701E-08-7.14372E-08
 -1       546-4.31004E+05 5.97907E+03-1.19365E+04 6.83395E+04 3.66679E-08-7.52988E-08
 -1       547-2.89682E+05-4.66978E+03 1.00915E+04-1.39397E+05-9.52960E-08-9.32476E-08
 -1       548-4.39852E+05 4.68267E+03-2.35610E+04 6.80919E+04-1.00152E-07-9.14515E-08
 -1       549 3.71233E+04 1.50928E+04 5.82092E+04-1.09506E+05-7.66871E-08-6.67183E-08
 -1       550-7.49064E+05-2.10968E+04-1.26788E+05 3.77605E+04 4.69208E-09-6.25823E-08
 -1       551 4.01122E+04-7.74870E+05-1.66540E+04-1.26314E+06 3.45608E-08 6.54836E-09
 -1       552 9.56960E+04-8.22142E+05 1.00871E+04-1.82559E+06 7.49715E-08 4.39759E-08
 -1       553 7.27597E+04-8.18443E+05 3.24944E+04-1.25629E+06 4.14148E-08 2.47819E-08
 -1       554 1.35972E+05-8.39527E+05 8.24205E+04-1.82748E+06 7.80419E-08 3.15958E-08
 -1       555 1.00634E+05-8.42261E+05 1.49604E+05-1.25627E+06 3.92902E-08-9.82254E-09
 -1       556 2.20333E+05-3.78502E+05 2.85521E+04-4.03798E+05-2.35741E-08-4.95638E-08
 -1       557 3.49892E+05-4.81997E+05 1.75317E+04-5.22634E+05-2.08092E-09-4.63842E-10
 -1       558 2.02700E+05-3.72028E+05 3.02588E+03-4.07676E+05-2.19152E-08 1.06811E-08
 -1       559 3.25093E+05-4.82533E+05 2.75453E+03-5.42633E+05 2.36323E-08 2.32467E-08
 -1       560 1.87774E+05-3.62662E+05-1.28856E+03-4.18416E+05 6.37374E-09-1.65091E-08
 -1       561 3.06300E+05-4.75038E+05 2.13806E+02-5.55429E+05 7.75617E-09 1.02154E-08
 -1       562 1.75973E+05-3.55325E+05-1.24588E+03-4.26958E+05 1.93540E-09-7.30506E-09
 -1       563 2.92287E+05-4.68928E+05-1.31199E+01-5.64577E+05-7.68341E-09-1.95905E-08
 -1       564 1.67563E+05-3.50083E+05-5.69443E+02-4.32916E+05 1.17434E-08 1.00372E-08
 -1       565 2.83014E+05-4.64890E+05 3.04545E+01-5.70500E+05 1.80444E-08-1.44701E-09
 -1       566 1.62666E+05-3.46984E+05-2.47684E+02-4.36342E+05-5.88625E-09-1.06320E-08
 -1       567 2.78538E+05-4.62942E+05-3.52658E+02-5.73216E+05 1.68002E-08 3.30401E-08
 -1       568 1.61369E+05-3.46191E+05-1.10119E+03-4.37345E+05-2.31557E-09 6.75209E-09
 -1       569 2.77483E+05-4.62878E+05-2.78179E+03-5.71760E+05-7.84530E-09 2.83690E-08
 -1       570 1.64755E+05-3.49397E+05-6.08727E+03-4.36337E+05 7.65431E-09 1.73077E-08
 -1       571 2.89017E+05 1.04555E+04 1.49341E+04-9.41732E+04 9.25866E-10 1.64582E-08
 -1       572 2.91182E+05 3.93146E+03 7.31887E+03-1.03317E+05 7.69978E-09 2.38288E-09
 -1       573 2.89877E+05 1.22818E+03 3.25200E+03-9.39977E+04 3.94175E-09-6.36646E-09
 -1       574 2.90092E+05 7.10151E+02 1.63082E+03-1.03540E+05 3.37059E-09 7.79437E-09
 -1       575 2.89970E+05 4.33397E+02 7.69683E+02-9.39737E+04 1.39883E-09 6.43649E-09
 -1       576 2.89956E+05 4.43479E+02 3.94035E+02-1.03569E+05-6.22026E-09 5.68161E-09
 -1       577 2.90009E+05 3.75933E+02 1.96680E+02-9.39704E+04-4.53383E-09 1.12132E-08
 -1       578 2.89985E+05 4.06228E+02 1.13533E+02-1.03573E+05-7.55244E-09 1.29339E-08
 -1       579 2.90080E+05 3.40280E+02 7.79191E+01-9.39701E+04 6.94490E-09-4.42469E-09
 -1       580 2.90084E+05 3.56530E+02 9.02536E+01-1.03569E+05-4.70391E-09 5.07498E-09
 -1       581 2.90191E+05 2.83248E+02 1.36303E+02-9.39759E+04 4.14366E-09 4.35193E-09
 -1       582 2.90256E+05 3.20694E+02 2.76937E+02-1.03508E+05-1.81808E-09-1.26747E-08
 -1       583 2.90328E+05 3.26644E+02 5.31694E+02-9.40318E+04-2.52840E-09 1.04444E-08
 -1       584 2.90625E+05 7.60390E+02 1.20296E+03-1.03037E+05 3.84898E-09-4.43606E-09
 -1       585 2.90351E+05 1.77421E+03 2.43619E+03-9.44461E+04-1.28239E-09-9.54242E-09
 -1       586-3.40778E+03 1.15707E+05-2.94272E+03-2.49630E+05-6.50516E-09-1.13653E-08
 -1       587-1.31453E+03 1.15451E+05 7.42900E+02-2.74736E+05-6.43922E-09 5.06134E-10
 -1       588 4.16307E+02 1.15266E+05 4.71519E+03-2.49492E+05-2.47928E-09-2.75395E-09
 -1       589 5.07317E+03 1.17719E+05 1.22507E+04-2.74503E+05-8.48559E-09 1.10504E-09
 -1       590 1.65129E+04 1.13943E+05 2.57066E+04-2.49922E+05-5.19412E-09 1.78243E-08
 -1       591-7.42224E+04-1.58905E+04-2.23611E+04-3.17309E+04-5.44151E-09-6.61112E-09
 -1       592-7.82524E+04-1.94503E+04-1.21125E+04-3.53618E+04-2.85005E-09-1.22793E-09
 -1       593-7.64590E+04-1.42676E+04-5.04185E+03-3.33702E+04 7.88251E-10-1.13803E-08
 -1       594-7.51646E+04-1.61695E+04-2.51450E+03-3.54792E+04-2.04125E-09 1.37589E-09
 -1       595-7.66295E+04-1.42623E+04-1.15443E+03-3.34447E+04-7.78180E-09 5.22533E-11
 -1       596-7.49532E+04-1.60195E+04-5.86674E+02-3.54542E+04 3.61351E-09 8.93925E-09
 -1       597-7.66509E+04-1.42776E+04-3.19078E+02-3.34475E+04-2.58376E-09 1.39255E-08
 -1       598-7.49324E+04-1.60135E+04-2.55797E+02-3.54471E+04-4.62387E-09-1.70841E-08
 -1       599-7.66497E+04-1.42781E+04-3.25874E+02-3.34472E+04 8.40816E-09-1.00999E-08
 -1       600-7.49533E+04-1.60200E+04-6.04667E+02-3.54520E+04 1.13482E-08-3.44392E-09
 -1       601-7.66251E+04-1.42636E+04-1.19251E+03-3.34437E+04 8.93124E-10 1.15085E-08
 -1       602-7.51716E+04-1.61739E+04-2.59876E+03-3.54741E+04-4.91127E-09 1.32522E-08
 -1       603-7.64462E+04-1.42721E+04-5.21150E+03-3.33675E+04-4.20437E-09-8.98262E-09
 -1       604-7.83807E+04-1.95456E+04-1.25192E+04-3.53281E+04 3.05454E-09 1.18143E-08
 -1       605-7.41145E+04-1.59671E+04-2.31120E+04-3.16923E+04 6.06252E-09 1.22727E-08
 -1       606 2.68245E+04-1.42455E+04-2.55385E+04 2.41695E+04 9.08130E-09 2.36696E-09
 -1       607 2.24607E+04-4.65180E+03-1.27181E+04 2.71603E+04 1.43882E-09-3.75614E-08
 -1       608 2.49473E+04-8.38503E+02-5.69350E+03 2.39986E+04 8.37281E-09-1.12609E-08
 -1       609 2.44703E+04-2.86283E+02-2.87619E+03 2.73758E+04 1.61162E-08-7.47605E-10
 -1       610 2.47345E+04-3.95863E+01-1.37230E+03 2.39783E+04 1.73759E-08-7.93511E-09
 -1       611 2.46593E+04-3.94443E+01-6.91902E+02 2.73991E+04 2.80852E-08 7.61565E-09
 -1       612 2.46872E+04-2.56942E+01-3.28958E+02 2.39763E+04 1.17961E-08 8.09132E-09
 -1       613 2.46703E+04-3.51339E+01-1.47416E+02 2.74018E+04 3.69391E-09-4.87262E-09
 -1       614 2.46649E+04-3.18627E+01-3.46006E+01 2.39756E+04 5.74619E-09 3.23735E-09
 -1       615 2.46648E+04-3.34638E+01 6.17292E+01 2.74023E+04 3.91765E-09 1.11618E-08
 -1       616 2.46473E+04-2.86006E+01 1.85154E+02 2.39759E+04 3.06045E-09 1.44964E-08
 -1       617 2.46868E+04 6.14324E+00 4.22467E+02 2.74018E+04 3.89196E-09 1.84771E-08
 -1       618 2.46104E+04 9.33040E+01 8.51555E+02 2.39761E+04-1.48748E-09 3.35581E-09
 -1       619 2.49872E+04 6.64660E+02 1.91224E+03 2.74011E+04-6.64625E-09-8.71751E-10
 -1       620 2.43275E+04 2.11265E+03 3.84355E+03 2.39776E+04-8.84370E-10-5.02087E-09
 -1       621 5.02698E+02 2.99867E+05 3.85102E+03 4.01998E+04 8.33552E-10-2.07274E-08
 -1       622 6.64062E+02 3.00758E+05 3.42023E+03 5.83642E+04 1.11686E-09-2.71393E-09
 -1       623 1.36607E+02 3.00061E+05 4.11368E+03 4.00177E+04 1.34673E-09 1.02473E-08
 -1       624 2.10419E+03 3.01972E+05 7.97762E+03 5.85435E+04 1.10771E-09-7.01220E-09
 -1       625 2.05828E+03 2.98479E+05 1.39420E+04 4.00146E+04 1.36515E-09-6.56541E-09
 -1       626 2.59584E+05 6.13196E+04 5.10958E+03 1.26380E+05 9.86347E-10-1.84118E-08
 -1       627 2.57256E+05 6.27291E+04 2.46227E+03 1.30661E+05 4.07363E-09-1.14113E-08
 -1       628 2.59713E+05 5.89806E+04 1.04133E+03 1.27247E+05 2.02181E-09 1.39835E-09
 -1       629 2.56620E+05 6.20520E+04 5.09687E+02 1.30902E+05-3.80305E-09 4.23955E-09
 -1       630 2.59727E+05 5.88677E+04 2.36503E+02 1.27284E+05-4.17458E-10 4.35136E-09
 -1       631 2.56553E+05 6.20264E+04 1.27372E+02 1.30904E+05 3.26509E-10 5.68878E-09
 -1       632 2.59723E+05 5.88718E+04 8.39947E+01 1.27279E+05 4.81805E-09 1.20870E-08
 -1       633 2.56544E+05 6.20284E+04 9.38422E+01 1.30900E+05-1.09139E-09-4.64070E-09
 -1       634 2.59718E+05 5.88691E+04 1.51892E+02 1.27279E+05-2.25629E-09-5.47061E-09
 -1       635 2.56558E+05 6.20267E+04 3.07502E+02 1.30906E+05-1.05260E-08 2.39925E-09
 -1       636 2.59709E+05 5.88634E+04 6.21075E+02 1.27278E+05-1.51613E-09 5.44787E-10
 -1       637 2.56693E+05 6.21233E+04 1.36562E+03 1.30905E+05 3.11047E-10-1.13523E-08
 -1       638 2.59661E+05 5.91651E+04 2.80586E+03 1.27142E+05 1.21099E-09 3.71210E-09
 -1       639 2.58167E+05 6.41732E+04 6.63877E+03 1.30471E+05 1.35367E-08-1.03159E-09
 -1       640 2.59457E+05 6.52861E+04 1.37766E+04 1.24562E+05 7.62111E-09-1.08798E-09
 -1       656 6.63201E+04-1.69692E+06-1.60092E+05-2.47579E+03 5.31145E-10-1.89885E-08
 -1       657-8.77338E+04-1.76926E+06-1.32623E+05 5.27718E+03-5.35692E-10-1.44516E-08
 -1       658 2.11389E+04-1.71747E+06-8.16742E+04-4.55022E+03 2.11685E-10-1.55546E-08
 -1       659-9.48577E+04-1.77265E+06-1.41985E+05 6.99299E+03-1.64437E-09-1.61890E-08
 -1       660 7.34281E+04-1.69355E+06-1.76187E+05-4.19159E+03-2.11003E-09-1.07649E-08
 -1       661 1.59483E+05 1.67086E+04 1.67698E+04 6.23459E+04 2.56523E-09 2.45836E-09
 -1       662 1.68947E+05 2.91442E+04 1.13016E+04 5.86029E+04-2.20507E-09-2.88810E-09
 -1       663 1.62777E+05 2.20886E+04 3.95262E+03 6.13900E+04 5.02496E-10-8.03357E-09
 -1       664 1.65128E+05 2.28526E+04 2.36446E+03 5.97706E+04-8.37940E-09-1.08608E-08
 -1       665 1.63277E+05 2.28234E+04 9.32761E+02 6.12441E+04-4.68958E-11-5.13862E-09
 -1       666 1.64537E+05 2.20123E+04 5.45948E+02 5.99607E+04 1.00574E-08-1.37935E-08
 -1       667 1.63365E+05 2.29070E+04 2.90115E+02 6.12076E+04-2.54886E-10 4.97804E-09
 -1       668 1.64440E+05 2.19522E+04 2.95922E+02 6.00139E+04-2.56769E-09 3.06777E-10
 -1       669 1.63373E+05 2.28818E+04 4.00890E+02 6.11913E+04-3.36513E-10-2.17611E-09
 -1       670 1.64538E+05 2.21700E+04 8.73185E+02 6.00169E+04-8.15002E-09-2.32068E-08
 -1       671 1.63267E+05 2.26938E+04 1.55048E+03 6.12026E+04 7.69184E-10 5.30895E-09
 -1       672 1.65441E+05 2.36785E+04 3.96694E+03 5.97980E+04 6.29859E-09 6.50311E-09
 -1       673 1.62474E+05 2.14115E+04 6.64798E+03 6.13955E+04 4.62285E-09-1.37879E-09
 -1       674 1.71769E+05 3.43592E+04 1.90118E+04 5.79392E+04-3.84489E-09-1.86189E-08
 -1       675 1.56980E+05 1.23122E+04 2.82202E+04 6.29492E+04-4.01951E-09-1.45155E-08
 -1       676 2.40713E+01-2.95308E+05-1.11212E+03-1.31675E+02 1.98267E-09-1.56590E-08
 -1       677-2.94275E+02-2.95577E+05-2.03536E+03 2.63139E+02 6.71167E-09-2.97263E-10
 -1       678 1.97301E+02-2.95116E+05-3.59802E+03-1.31378E+02 1.89698E-09-2.24559E-09
 -1       679-3.59817E+03-2.97749E+05-8.54739E+03 2.62006E+02 9.14906E-09-1.15351E-08
 -1       680 2.14825E+03-2.93137E+05-1.37755E+04-1.29089E+02 3.06409E-09 7.31904E-09
 -1       771-3.05692E+06-7.45118E+05-1.60839E+05-1.46328E+06-3.49828E-08-2.73285E-08
 -1       772-2.97894E+06-8.33376E+05-8.28166E+04-1.56542E+06-2.68774E-08 1.51231E-08
 -1       773-3.08787E+06-7.20945E+05-4.24230E+04-1.47739E+06-6.57747E-09 1.18016E-08
 -1       774-2.97002E+06-8.15578E+05-1.88803E+04-1.59104E+06 3.32366E-08 8.98581E-10
 -1       775-3.10420E+06-7.09467E+05-1.42539E+04-1.48439E+06-5.12227E-09 2.37924E-09
 -1       776-2.98233E+06-8.12590E+05-5.30708E+03-1.61043E+06-3.04135E-09 4.10364E-09
 -1       777-3.11838E+06-6.99223E+05-6.34130E+03-1.49057E+06 6.49015E-09 2.63390E-09
 -1       778-2.99515E+06-8.09788E+05-1.78407E+03-1.62709E+06 1.04774E-09 5.69344E-09
 -1       779-3.13058E+06-6.90275E+05-3.18263E+03-1.49585E+06-1.27911E-08-4.94765E-09
 -1       780-3.00643E+06-8.07116E+05-5.28008E+02-1.64065E+06-6.66478E-09-5.23869E-10
 -1       781-3.14027E+06-6.83063E+05-1.24533E+03-1.49998E+06-3.32075E-08-4.43833E-10
 -1       782-3.01512E+06-8.04848E+05 4.29875E+02-1.65066E+06-3.86790E-08-6.01449E-09
 -1       783-3.14710E+06-6.78053E+05 6.59609E+02-1.50287E+06-9.57516E-09-1.47234E-08
 -1       784-3.01996E+06-8.02604E+05 2.79498E+03-1.65684E+06-1.97106E-08 2.66209E-09
 -1       785-3.15112E+06-6.75078E+05 4.92631E+03-1.50469E+06-3.75876E-08 6.44832E-09
 -1       786 1.24766E+05-9.78547E+03 2.26396E+04-3.17323E+02 2.31929E-09 5.67252E-09
 -1       787 1.34585E+05 1.13294E+04 1.60166E+04-1.31312E+02 5.19678E-09 4.10910E-09
 -1       788 1.28552E+05-1.53343E+03 5.85740E+03-2.82354E+02 3.72730E-09 3.39126E-08
 -1       789 1.30174E+05 1.77487E+03 3.67712E+03-1.84963E+02-3.52423E-10 1.72988E-08
 -1       790 1.29177E+05-2.38778E+02 1.48896E+03-2.63689E+02-4.81616E-09 4.48517E-09
 -1       791 1.29444E+05 2.76265E+02 8.60271E+02-2.16913E+02-5.04742E-09 2.05085E-08
 -1       792 1.29283E+05-3.59477E+01 3.65122E+02-2.50406E+02-4.79724E-09-4.31143E-10
 -1       793 1.29317E+05 3.82244E+01 1.83278E+02-2.41912E+02-1.78267E-09-2.54586E-08
 -1       794 1.29303E+05-8.87386E-01 5.01564E+01-2.38690E+02 3.54761E-09-9.22540E-09
 -1       795 1.29281E+05-2.53847E+01-5.11646E+01-2.66389E+02-5.91245E-09 1.69092E-08
 -1       796 1.29319E+05 2.76259E+01-1.51468E+02-2.25929E+02 2.65355E-09 7.50013E-10
 -1       797 1.29192E+05-2.06536E+02-4.19009E+02-2.95735E+02 3.54711E-09-1.32610E-08
 -1       798 1.29393E+05 1.80128E+02-6.81358E+02-2.09344E+02 2.06918E-09-1.72199E-09
 -1       799 1.28675E+05-1.32772E+03-1.87527E+03-3.36800E+02 5.96555E-09 4.78619E-09
 -1       800 1.29836E+05 1.14789E+03-2.65412E+03-1.84864E+02 2.38080E-10 1.62413E-08
 -1       801-1.62197E+05-9.78307E+06-1.35887E+06 1.36034E+06 8.95525E-08-5.47625E-08
 -1       802 7.05348E+05 5.58965E+06 2.09085E+06-1.67547E+06 2.54673E-07-3.90801E-08
 -1       803-5.15231E+05-1.38202E+07-1.81387E+06 8.72760E+05 7.62047E-08 1.63127E-08
 -1       804 2.70559E+05 2.11463E+06 1.46511E+06 6.52609E+05-1.16474E-07-9.66684E-08
 -1       805 1.85979E+05-6.32264E+06-2.70739E+05-9.62339E+05-4.87489E-08-6.14746E-08
 -1       806-3.07571E+05-5.94993E+04-2.27646E+04-1.21870E+05-5.81213E-09-9.36870E-09
 -1       807-3.09366E+05-5.57802E+04-1.11840E+04-1.27390E+05 1.09176E-08 2.15744E-08
 -1       808-3.08196E+05-5.12955E+04-4.74462E+03-1.25749E+05 1.08230E-10 1.33180E-08
 -1       809-3.07014E+05-5.26377E+04-2.32000E+03-1.27665E+05 1.49680E-09 6.03404E-09
 -1       810-3.08290E+05-5.10099E+04-1.06338E+03-1.25921E+05 1.32809E-08 1.93816E-08
 -1       811-3.06832E+05-5.25115E+04-5.28824E+02-1.27630E+05 5.98266E-09 1.99125E-08
 -1       812-3.08304E+05-5.10345E+04-2.67501E+02-1.25920E+05-6.01904E-09-1.84586E-08
 -1       813-3.06807E+05-5.25136E+04-1.73930E+02-1.27611E+05 7.06677E-09-1.80762E-08
 -1       814-3.08297E+05-5.10441E+04-1.72491E+02-1.25916E+05 5.27598E-09-2.92325E-08
 -1       815-3.06811E+05-5.25159E+04-2.78032E+02-1.27604E+05 1.07902E-08 1.31022E-08
 -1       816-3.08277E+05-5.10432E+04-5.27029E+02-1.25912E+05 6.72662E-09 3.18519E-08
 -1       817-3.06900E+05-5.25661E+04-1.13111E+03-1.27592E+05-8.75434E-09 3.47281E-08
 -1       818-3.08208E+05-5.12029E+04-2.30708E+03-1.25837E+05-1.81535E-09-7.28505E-09
 -1       819-3.08163E+05-5.39599E+04-5.42839E+03-1.27293E+05 1.06957E-09 8.41987E-09
 -1       820-3.07773E+05-5.53034E+04-1.10488E+04-1.24086E+05-2.56478E-10 3.30829E-10
 -1       821-3.77871E+05 2.08112E+04-4.84138E+04 2.04426E+03 1.30270E-08-4.39104E-09
 -1       822-3.97644E+05-2.41070E+04-3.40480E+04-4.27230E+03 5.01479E-09-8.45330E-09
 -1       823-3.85372E+05 3.27906E+03-1.25077E+04 3.27628E+03-1.13501E-08-8.95852E-11
 -1       824-3.88612E+05-3.78228E+03-7.83271E+03-5.11122E+03 5.42272E-10-5.47016E-09
 -1       825-3.86909E+05 5.09587E+02-3.27564E+03 2.88329E+03 1.84929E-08 4.41105E-11
 -1       826-3.86260E+05-5.68709E+02-1.75637E+03-2.92690E+03 2.62645E-08-8.83651E-09
 -1       827-3.87702E+05 5.05463E+01-1.17130E+03 1.09183E+03 1.03907E-08 1.12610E-09
 -1       828-3.85607E+05-1.36526E+02-6.12328E+02 1.06785E+03-2.28670E-09 1.31927E-08
 -1       829-3.87549E+05 6.84593E+01-1.16215E+03-1.11150E+03 1.76215E-09-5.54274E-09
 -1       830-3.86590E+05-6.20909E+02-1.89030E+03 4.66413E+03 3.06101E-09 9.02978E-09
 -1       831-3.86739E+05 5.51005E+02-3.35926E+03-2.50447E+03-5.46937E-09 8.69204E-09
 -1       832-3.88694E+05-3.94661E+03-8.13476E+03 5.87050E+03-4.35952E-09-8.32858E-09
 -1       833-3.85461E+05 3.40253E+03-1.30087E+04-2.31791E+03-9.01053E-10 5.62795E-09
 -1       834-3.97725E+05-2.50183E+04-3.52725E+04 3.98631E+03-3.81682E-09 1.57338E-08
 -1       835-3.77693E+05 2.15914E+04-5.02784E+04-6.20204E+02 6.13301E-09-8.65839E-10
 -1       836-1.40499E+03 3.68368E+05 2.27826E+04-1.62601E+04-6.62931E-09 1.53336E-08
 -1       837 4.85924E+03 3.75502E+05 1.92807E+04-3.32036E+04-7.45240E-09 3.93106E-09
 -1       838-5.54078E+02 3.70368E+05 1.96478E+04-1.61885E+04-6.24050E-09 1.06133E-08
 -1       839 1.23689E+04 3.81095E+05 3.71708E+04-3.32556E+04-6.37601E-09-1.25667E-08
 -1       840-3.82228E+03 3.62716E+05 5.92751E+04-1.62136E+04-6.13727E-09-7.25092E-09
 -1       856-5.32794E+04 8.03791E+03-2.11817E+04-3.98794E+02 5.39296E-09 3.83625E-09
 -1       857-6.20064E+04-9.44373E+03-1.45813E+04 5.62267E+03 8.38565E-09 1.09496E-08
 -1       858-5.67353E+04 1.12720E+03-5.49617E+03-4.22997E+02 3.66191E-09 1.23632E-08
 -1       859-5.80404E+04-1.32557E+03-3.31674E+03 5.65876E+03-4.35040E-09 6.71298E-09
 -1       860-5.72516E+04 1.57827E+02-1.39015E+03-4.34628E+02 2.22695E-09-8.31568E-09
 -1       861-5.74465E+04-1.87902E+02-7.64960E+02 5.67460E+03 1.77540E-09 3.03105E-09
 -1       862-5.73323E+04 2.13611E+01-3.18407E+02-4.38826E+02-3.37406E-09 1.43729E-10
 -1       863-5.73476E+04-2.14756E+01-1.16948E+02 5.67703E+03-5.32486E-09-4.47356E-09
 -1       864-5.73510E+04-4.81572E+00 4.51154E+01-4.37051E+02 1.85878E-11-1.20252E-08
 -1       865-5.72924E+04 5.91635E+01 2.50852E+02 5.66694E+03-2.78351E-09-5.49041E-09
 -1       866-5.73854E+04-5.93131E+01 5.06645E+02-4.28734E+02-7.23446E-10-1.86844E-09
 -1       867-5.70538E+04 4.89913E+02 1.24779E+03 5.64435E+03 1.58184E-09-1.01129E-08
 -1       868-5.75847E+04-4.27835E+02 2.07360E+03-4.14464E+02-1.14255E-10-5.24403E-09
 -1       869-5.55333E+04 3.56063E+03 5.52161E+03 5.60715E+03 3.23985E-09 9.29811E-09
 -1       870-5.88982E+04-3.04669E+03 8.01302E+03-3.91436E+02-7.03994E-09-1.00490E-08
 -1       871-5.50505E+03-2.10294E+04-1.93925E+04 1.29731E+05-5.22778E-09-7.42148E-09
 -1       872-1.99046E+03-2.55342E+04-8.11563E+03 1.68215E+05-8.63747E-09-2.11185E-09
 -1       873 3.89525E+02-2.33579E+04 5.98032E+02 1.29446E+05-5.13910E-09-1.39709E-08
 -1       874 3.27775E+03-2.09493E+04 9.75632E+03 1.68245E+05-1.07893E-08-6.77028E-09
 -1       875 6.81288E+03-2.56817E+04 2.20007E+04 1.29683E+05-4.48745E-09-1.64900E-08
 -1       876 2.92766E+05 4.93666E+04 1.50591E+04 1.17516E+05 4.13979E-09-1.18080E-08
 -1       877 2.93759E+05 5.25408E+04 8.04214E+03 1.21838E+05 5.87602E-09-2.96825E-09
 -1       878 2.94174E+05 4.76985E+04 3.36926E+03 1.18749E+05-1.87492E-09-3.40424E-09
 -1       879 2.91712E+05 5.04979E+04 1.67877E+03 1.21940E+05 1.38243E-10-1.04978E-08
 -1       880 2.94275E+05 4.76813E+04 7.81944E+02 1.18800E+05 5.23846E-09 8.22894E-09
 -1       881 2.91576E+05 5.04105E+04 4.17575E+02 1.21916E+05 1.25005E-08 3.58314E-09
 -1       882 2.94284E+05 4.76945E+04 2.67144E+02 1.18801E+05 3.14344E-09 1.41741E-08
 -1       883 2.91566E+05 5.04060E+04 2.87202E+02 1.21909E+05 1.88112E-09 1.44469E-08
 -1       884 2.94277E+05 4.76917E+04 4.56877E+02 1.18801E+05 3.06386E-10 1.94734E-09
 -1       885 2.91602E+05 5.04123E+04 9.18580E+02 1.21920E+05-2.86840E-09-2.12106E-09
 -1       886 2.94242E+05 4.76649E+04 1.85136E+03 1.18798E+05 1.80904E-09 6.85009E-09
 -1       887 2.91928E+05 5.06256E+04 4.04404E+03 1.21967E+05 1.12720E-08 1.16339E-08
 -1       888 2.93986E+05 4.77099E+04 8.14885E+03 1.18668E+05-4.54523E-09-4.69709E-09
 -1       889 2.96779E+05 5.56707E+04 1.94661E+04 1.21818E+05-7.48253E-09-8.00355E-09
 -1       890 2.90660E+05 5.16605E+04 3.64595E+04 1.15567E+05-1.09785E-08-2.01417E-08
 -1       891-9.15211E+01-1.62300E+05-1.98948E+03 2.71522E+04-1.90971E-09 6.93171E-09
 -1       892-1.78559E+02-1.62824E+05-2.13708E+03 4.12276E+04-1.99179E-10 1.28114E-08
 -1       893 4.10134E+01-1.62364E+05-3.02623E+03 2.71596E+04-2.24964E-09 7.29869E-10
 -1       894-1.50921E+03-1.63968E+05-6.26342E+03 4.10752E+04 1.39426E-09 1.44437E-08
 -1       895-1.19814E+03-1.61059E+05-1.10299E+04 2.73063E+04-1.10276E-09 4.72573E-09
 -1       956-3.75778E+05-5.42435E+03-1.33995E+04 3.05902E+04 5.16411E-09 1.34150E-10
 -1       957-3.78408E+05-1.91051E+03-6.87779E+03 3.67639E+04 1.84446E-09-7.20320E-09
 -1       958-3.76982E+05-2.36399E+02-3.09934E+03 3.04234E+04 3.41970E-10 1.79175E-08
 -1       959-3.77178E+05-1.31533E+02-1.58258E+03 3.69581E+04 5.80258E-09 1.18043E-08
 -1       960-3.77099E+05-4.12304E+01-7.71741E+02 3.04062E+04 1.09912E-08 1.87022E-08
 -1       961-3.77098E+05-5.89195E+01-4.09179E+02 3.69784E+04 1.50503E-08-9.21318E-10
 -1       962-3.77127E+05-4.25397E+01-2.34273E+02 3.04034E+04 1.02127E-08-1.37675E-09
 -1       963-3.77098E+05-5.47937E+01-1.88079E+02 3.69820E+04 1.60171E-08 1.00415E-08
 -1       964-3.77132E+05-3.92053E+01-2.28729E+02 3.04026E+04 6.60357E-09 1.37052E-08
 -1       965-3.77110E+05-5.18105E+01-3.95616E+02 3.69813E+04-5.90671E-09-1.12345E-09
 -1       966-3.77116E+05-3.13208E+01-7.43346E+02 3.04041E+04 4.83374E-09-8.64020E-12
 -1       967-3.77200E+05-1.14998E+02-1.52459E+03 3.69671E+04-2.04182E-10 1.42811E-08
 -1       968-3.77013E+05-2.12969E+02-2.98459E+03 3.04166E+04-1.64209E-09-4.88808E-09
 -1       969-3.78396E+05-1.82320E+03-6.62574E+03 3.68201E+04 3.21052E-09-9.23677E-09
 -1       970-3.75861E+05-5.20684E+03-1.29073E+04 3.05428E+04 2.03636E-09 1.97506E-08
 -1       971-3.44320E+05-1.72405E+03-9.29988E+03 1.53575E+04 1.05447E-08-1.03643E-08
 -1       972-3.46559E+05-1.26822E+03-5.06461E+03 2.12464E+04 1.14142E-08-9.78025E-09
 -1       973-3.45356E+05-6.04063E+01-2.26848E+03 1.52362E+04 5.62432E-09-2.55909E-09
 -1       974-3.45492E+05-7.87925E+01-1.17588E+03 2.13834E+04 2.36651E-09 9.55288E-09
 -1       975-3.45438E+05-1.55742E+01-5.88205E+02 1.52239E+04 2.01908E-10-3.22962E-09
 -1       976-3.45430E+05-2.89951E+01-3.40112E+02 2.13992E+04 1.58343E-09-3.10079E-08
 -1       977-3.45454E+05-1.48288E+01-2.48212E+02 1.52205E+04-2.93744E-09-1.45894E-08
 -1       978-3.45435E+05-2.27766E+01-2.92318E+02 2.14040E+04-7.72593E-09 5.96572E-09
 -1       979-3.45454E+05-6.37468E+00-4.71262E+02 1.52191E+04-2.78322E-09-9.75342E-09
 -1       980-3.45471E+05-1.97222E+01-9.10950E+02 2.14050E+04-4.31609E-09-3.81010E-09
 -1       981-3.45425E+05 1.63917E+01-1.76483E+03 1.52196E+04-3.00702E-10 4.75711E-09
 -1       982-3.45713E+05-1.50129E+02-3.64815E+03 2.13984E+04 5.61511E-09 6.49988E-09
 -1       983-3.45203E+05-9.66239E+01-7.08854E+03 1.52257E+04-1.71258E-09 2.01462E-08
 -1       984-3.49122E+05-3.85228E+03-1.58746E+04 2.13128E+04 1.18916E-09-2.88537E-10
 -1       985-3.41993E+05-5.28359E+03-2.91506E+04 1.52975E+04-3.51884E-09 1.06611E-08
 -3
    1PSTEP                        33          17           1          
  100CL  117 6.61972E-01         409                     0   17           1
 -4  DISP        4    1
 -5  D1          1    2    1    0
 -5  D2          1    2    2    0
 -5  D3          1    2    3    0
 -5  ALL         1    2    0    0    1ALL
 -1         1 2.65070E-03 0.00000E+00 0.00000E+00
 -1         2 1.41449E-03-4.01502E-27 0.00000E+00
 -1         3 3.41348E-04-5.25842E-28 1.32349E-23
 -1         5 1.78220E-04-3.53682E-27 1.65436E-24
 -1         8 2.63859E-03-4.29156E-07 0.00000E+00
 -1         9 2.63119E-03-1.56496E-04 0.00000E+00
 -1        10 3.09763E-04-3.44220E-06 0.00000E+00
 -1        12 1.80005E-04 8.05860E-07 0.00000E+00
 -1        15 2.62454E-03-4.57081E-07 0.00000E+00
 -1        16 2.68485E-03-1.58133E-04 0.00000E+00
 -1        17 2.11717E-04-7.82530E-06 0.00000E+00
 -1        18 1.83776E-04 3.36004E-05 0.00000E+00
 -1        19 1.85363E-04 1.60546E-06 0.00000E+00
 -1        20 1.85504E-04-9.16728E-06 0.00000E+00
 -1        21 1.84618E-04-2.39138E-05 3.30872E-24
 -1        24 3.06190E-05-1.21104E-05 0.00000E+00
 -1        25 1.94256E-04 3.38246E-05 0.00000E+00
 -1        26 1.94943E-04 2.22337E-06 0.00000E+00
 -1        27 1.92752E-04-1.27135E-05 0.00000E+00
 -1        28 1.92431E-04-2.45346E-05 0.00000E+00
 -1        32 0.00000E+00 0.00000E+00 0.00000E+00
 -1        33 2.03510E-04 2.97449E-06 0.00000E+00
 -1        34 2.01399E-04-1.27687E-05 0.00000E+00
 -1        35 1.99472E-04-2.48760E-05 0.00000E+00
 -1        51 2.64989E-03-8.80714E-08 0.00000E+00
 -1        52 2.64841E-03-1.58306E-07-3.30872E-24
 -1        53 2.64640E-03-2.25303E-07 0.00000E+00
 -1        54 2.64400E-03-2.91287E-07 0.00000E+00
 -1        55 2.64135E-03-3.57997E-07-1.65436E-24
 -1        56 2.64459E-03 4.68871E-06 0.00000E+00
 -1        57 2.63404E-03 2.04455E-05 0.00000E+00
 -1        58 2.62054E-03 4.36321E-05 0.00000E+00
 -1        59 2.60578E-03 6.98756E-05 5.29396E-23
 -1        60 2.59176E-03 9.42917E-05 1.05879E-22
 -1        61 2.58035E-03 1.12143E-04 0.00000E+00
 -1        62 2.57290E-03 1.19859E-04-1.05879E-22
 -1        63 2.57029E-03 1.14762E-04 0.00000E+00
 -1        64 2.57247E-03 9.64869E-05 0.00000E+00
 -1        65 2.57898E-03 6.58758E-05 0.00000E+00
 -1        66 2.58862E-03 2.60439E-05-1.05879E-22
 -1        67 2.59999E-03-1.90268E-05 0.00000E+00
 -1        68 2.61146E-03-6.43757E-05 1.05879E-22
 -1        69 2.62140E-03-1.05009E-04 0.00000E+00
 -1        70 2.62834E-03-1.36822E-04 0.00000E+00
 -1        86 1.49090E-03-5.11780E-06 0.00000E+00
 -1        87 1.71288E-03-3.14031E-05 0.00000E+00
 -1        88 2.01124E-03-7.63137E-05 0.00000E+00
 -1        89 2.31317E-03-1.22313E-04 0.00000E+00
 -1        90 2.54382E-03-1.50459E-04-5.29396E-23
 -1       121 3.40461E-04-5.56365E-07 1.32349E-23
 -1       122 3.37803E-04-1.11575E-06 0.00000E+00
 -1       123 3.33385E-04-1.68112E-06 0.00000E+00
 -1       124 3.27222E-04-2.25545E-06 0.00000E+00
 -1       125 3.19338E-04-2.84133E-06 0.00000E+00
 -1       191 1.78269E-04 1.34370E-07 2.06795E-24
 -1       192 1.78418E-04 2.68729E-07 8.27181E-25
 -1       193 1.78666E-04 4.03069E-07 2.89513E-24
 -1       194 1.79013E-04 5.37379E-07-1.44757E-24
 -1       195 1.79460E-04 6.71647E-07-2.06795E-24
 -1       251 2.63822E-03 2.55946E-06 0.00000E+00
 -1       252 2.63785E-03 6.73354E-06 0.00000E+00
 -1       253 2.63747E-03 1.07811E-05 0.00000E+00
 -1       254 2.63710E-03 1.33915E-05-6.61744E-24
 -1       255 2.63673E-03 1.35157E-05 0.00000E+00
 -1       256 2.63636E-03 1.01419E-05 6.61744E-24
 -1       257 2.63596E-03 2.89312E-06-1.32349E-23
 -1       258 2.63553E-03-8.54885E-06-6.61744E-24
 -1       259 2.63505E-03-2.37423E-05 0.00000E+00
 -1       260 2.63451E-03-4.21883E-05 0.00000E+00
 -1       261 2.63394E-03-6.27978E-05-1.32349E-23
 -1       262 2.63334E-03-8.44497E-05 6.61744E-24
 -1       263 2.63275E-03-1.05833E-04-1.32349E-23
 -1       264 2.63219E-03-1.25642E-04 6.61744E-24
 -1       265 2.63168E-03-1.42857E-04 1.32349E-23
 -1       266 2.63625E-03-4.39877E-07 0.00000E+00
 -1       267 2.63391E-03-4.43792E-07 0.00000E+00
 -1       268 2.63157E-03-4.48138E-07 0.00000E+00
 -1       269 2.62923E-03-4.51206E-07 2.06795E-25
 -1       270 2.62689E-03-4.54245E-07 0.00000E+00
 -1       271 2.63750E-03 5.54023E-07 0.00000E+00
 -1       272 2.63721E-03-6.33797E-07 6.61744E-24
 -1       273 2.63768E-03-3.87835E-06 2.64698E-23
 -1       274 2.63886E-03-9.05630E-06 1.32349E-23
 -1       275 2.64071E-03-1.60251E-05 0.00000E+00
 -1       276 2.64315E-03-2.46287E-05-1.32349E-23
 -1       277 2.64613E-03-3.46960E-05 2.64698E-23
 -1       278 2.64958E-03-4.60442E-05-1.32349E-23
 -1       279 2.65342E-03-5.84790E-05-2.64698E-23
 -1       280 2.65757E-03-7.17971E-05 0.00000E+00
 -1       281 2.66197E-03-8.57872E-05 0.00000E+00
 -1       282 2.66654E-03-1.00233E-04 0.00000E+00
 -1       283 2.67119E-03-1.14913E-04 0.00000E+00
 -1       284 2.67584E-03-1.29605E-04-6.61744E-24
 -1       285 2.68042E-03-1.44086E-04-1.32349E-23
 -1       301 2.64094E-03-1.56798E-04 0.00000E+00
 -1       302 2.64917E-03-1.57060E-04-3.30872E-24
 -1       303 2.65678E-03-1.57313E-04 0.00000E+00
 -1       304 2.66467E-03-1.57567E-04 6.61744E-24
 -1       305 2.67373E-03-1.57833E-04 0.00000E+00
 -1       306 2.66838E-03-3.07556E-04 1.05879E-22
 -1       307 2.73241E-03-7.16187E-04 5.29396E-23
 -1       308 2.78024E-03-1.31550E-03 0.00000E+00
 -1       309 2.80555E-03-2.01090E-03 5.29396E-23
 -1       310 2.83769E-03-2.67789E-03 1.05879E-22
 -1       311 2.89722E-03-3.19449E-03 5.29396E-23
 -1       312 2.95554E-03-3.48045E-03 0.00000E+00
 -1       313 2.95334E-03-3.49702E-03 5.29396E-23
 -1       314 2.81810E-03-3.25523E-03 1.05879E-22
 -1       315 2.50891E-03-2.81773E-03 0.00000E+00
 -1       316 2.04306E-03-2.26030E-03 1.05879E-22
 -1       317 1.48470E-03-1.65216E-03 5.29396E-23
 -1       318 9.46129E-04-1.05455E-03 1.05879E-22
 -1       319 5.33798E-04-5.32666E-04 5.29396E-23
 -1       320 2.91268E-04-1.59863E-04-1.05879E-22
 -1       336 2.98312E-04-4.10602E-06-1.32349E-23
 -1       337 2.84812E-04-4.79492E-06 0.00000E+00
 -1       338 2.69324E-04-5.51103E-06 0.00000E+00
 -1       339 2.51923E-04-6.25507E-06 0.00000E+00
 -1       340 2.32690E-04-7.03143E-06 0.00000E+00
 -1       406 1.80650E-04 9.39999E-07-2.89513E-24
 -1       407 1.81395E-04 1.07403E-06 1.24077E-24
 -1       408 1.82238E-04 1.20790E-06 8.27181E-25
 -1       409 1.83181E-04 1.34144E-06 1.65436E-24
 -1       410 1.84223E-04 1.47438E-06 2.89513E-24
 -1       521 2.72269E-03-3.18462E-04 0.00000E+00
 -1       522 2.78508E-03-7.46920E-04 0.00000E+00
 -1       523 2.82677E-03-1.37332E-03 1.05879E-22
 -1       524 2.84327E-03-2.09649E-03 5.29396E-23
 -1       525 2.86781E-03-2.78933E-03 0.00000E+00
 -1       526 2.92385E-03-3.32745E-03 0.00000E+00
 -1       527 2.98175E-03-3.62398E-03 2.11758E-22
 -1       528 2.97748E-03-3.63922E-03 1.05879E-22
 -1       529 2.83101E-03-3.38404E-03 0.00000E+00
 -1       530 2.49918E-03-2.92864E-03 0.00000E+00
 -1       531 1.99995E-03-2.35246E-03-1.05879E-22
 -1       532 1.40356E-03-1.72733E-03-5.29396E-23
 -1       533 8.27405E-04-1.11207E-03 0.00000E+00
 -1       534 3.82855E-04-5.69665E-04 0.00000E+00
 -1       535 1.19604E-04-1.77593E-04 0.00000E+00
 -1       536 2.10977E-04 2.66674E-05 0.00000E+00
 -1       537 2.09101E-04 8.63820E-05-1.65436E-24
 -1       538 2.06205E-04 1.62156E-04 0.00000E+00
 -1       539 2.02789E-04 2.44746E-04 0.00000E+00
 -1       540 1.99715E-04 3.22785E-04 0.00000E+00
 -1       541 1.97715E-04 3.84934E-04-1.65436E-24
 -1       542 1.96791E-04 4.24509E-04 3.30872E-24
 -1       543 1.96569E-04 4.34978E-04 0.00000E+00
 -1       544 1.96250E-04 4.17108E-04 3.30872E-24
 -1       545 1.95100E-04 3.71886E-04-1.65436E-24
 -1       546 1.92961E-04 3.07353E-04-3.30872E-24
 -1       547 1.90068E-04 2.31669E-04 0.00000E+00
 -1       548 1.87202E-04 1.56367E-04-3.30872E-24
 -1       549 1.85134E-04 9.29822E-05-1.65436E-24
 -1       550 1.84058E-04 4.94549E-05 0.00000E+00
 -1       551 1.86678E-04-8.39981E-06 0.00000E+00
 -1       552 1.58236E-04-9.05829E-06 0.00000E+00
 -1       553 1.27392E-04-9.78168E-06 1.65436E-24
 -1       554 9.51624E-05-1.05476E-05 3.30872E-24
 -1       555 6.25671E-05-1.13267E-05-2.64698E-23
 -1       556 2.04170E-04 1.14757E-05 0.00000E+00
 -1       557 1.98076E-04 2.71220E-05 0.00000E+00
 -1       558 1.93301E-04 3.93990E-05-5.29396E-23
 -1       559 1.89713E-04 4.86141E-05 0.00000E+00
 -1       560 1.87184E-04 5.50755E-05 0.00000E+00
 -1       561 1.85588E-04 5.90936E-05 0.00000E+00
 -1       562 1.84800E-04 6.09802E-05 0.00000E+00
 -1       563 1.84697E-04 6.10478E-05-1.32349E-23
 -1       564 1.85159E-04 5.96100E-05 0.00000E+00
 -1       565 1.86066E-04 5.69809E-05 0.00000E+00
 -1       566 1.87299E-04 5.34753E-05 0.00000E+00
 -1       567 1.88741E-04 4.94081E-05-6.61744E-24
 -1       568 1.90274E-04 4.50947E-05-1.65436E-24
 -1       569 1.91783E-04 4.08502E-05 0.00000E+00
 -1       570 1.93148E-04 3.69899E-05 0.00000E+00
 -1       571 1.83872E-04 3.15250E-05 0.00000E+00
 -1       572 1.83970E-04 2.93844E-05 4.13590E-25
 -1       573 1.84069E-04 2.71939E-05-1.65436E-24
 -1       574 1.84168E-04 2.49700E-05-1.65436E-24
 -1       575 1.84267E-04 2.27287E-05 0.00000E+00
 -1       576 1.84366E-04 2.04864E-05-1.65436E-24
 -1       577 1.84466E-04 1.82595E-05-3.30872E-24
 -1       578 1.84565E-04 1.60644E-05 0.00000E+00
 -1       579 1.84664E-04 1.39174E-05-6.61744E-24
 -1       580 1.84764E-04 1.18349E-05 0.00000E+00
 -1       581 1.84863E-04 9.83322E-06 0.00000E+00
 -1       582 1.84963E-04 7.92871E-06 0.00000E+00
 -1       583 1.85063E-04 6.13771E-06 0.00000E+00
 -1       584 1.85163E-04 4.47640E-06 0.00000E+00
 -1       585 1.85263E-04 2.96077E-06-6.61744E-24
 -1       586 1.85481E-04 3.36398E-05-1.65436E-24
 -1       587 1.87146E-04 3.36788E-05 0.00000E+00
 -1       588 1.88812E-04 3.37173E-05 8.27181E-25
 -1       589 1.90524E-04 3.37552E-05 0.00000E+00
 -1       590 1.92325E-04 3.37919E-05 0.00000E+00
 -1       591 1.84486E-04 3.16175E-05 1.03398E-25
 -1       592 1.85200E-04 2.96145E-05 0.00000E+00
 -1       593 1.85919E-04 2.75970E-05 8.27181E-25
 -1       594 1.86641E-04 2.55700E-05 4.13590E-25
 -1       595 1.87364E-04 2.35381E-05 0.00000E+00
 -1       596 1.88088E-04 2.15061E-05 0.00000E+00
 -1       597 1.88809E-04 1.94787E-05 8.27181E-25
 -1       598 1.89528E-04 1.74608E-05 0.00000E+00
 -1       599 1.90241E-04 1.54569E-05-8.27181E-25
 -1       600 1.90947E-04 1.34719E-05 4.13590E-25
 -1       601 1.91644E-04 1.15104E-05-8.27181E-25
 -1       602 1.92330E-04 9.57723E-06 0.00000E+00
 -1       603 1.93005E-04 7.67704E-06 4.13590E-25
 -1       604 1.93666E-04 5.81470E-06-5.16988E-26
 -1       605 1.94311E-04 3.99485E-06 4.13590E-25
 -1       606 1.85377E-04 4.82264E-07-3.30872E-24
 -1       607 1.85386E-04-5.54479E-07 0.00000E+00
 -1       608 1.85395E-04-1.50984E-06 3.30872E-24
 -1       609 1.85404E-04-2.38954E-06 0.00000E+00
 -1       610 1.85412E-04-3.19936E-06 0.00000E+00
 -1       611 1.85421E-04-3.94513E-06 0.00000E+00
 -1       612 1.85429E-04-4.63270E-06 0.00000E+00
 -1       613 1.85438E-04-5.26792E-06 0.00000E+00
 -1       614 1.85446E-04-5.85663E-06 1.65436E-24
 -1       615 1.85454E-04-6.40470E-06-8.27181E-25
 -1       616 1.85463E-04-6.91798E-06 0.00000E+00
 -1       617 1.85471E-04-7.40232E-06 0.00000E+00
 -1       618 1.85480E-04-7.86356E-06 0.00000E+00
 -1       619 1.85488E-04-8.30757E-06-2.06795E-25
 -1       620 1.85496E-04-8.74020E-06 0.00000E+00
 -1       621 1.86679E-04 1.70900E-06 3.30872E-24
 -1       622 1.88151E-04 1.81278E-06 1.65436E-24
 -1       623 1.89746E-04 1.91636E-06-3.30872E-24
 -1       624 1.91432E-04 2.01962E-06 8.27181E-25
 -1       625 1.93175E-04 2.12259E-06 0.00000E+00
 -1       626 1.85896E-04 5.18227E-07 3.30872E-24
 -1       627 1.86406E-04-5.05276E-07 0.00000E+00
 -1       628 1.86895E-04-1.47292E-06 0.00000E+00
 -1       629 1.87367E-04-2.39290E-06-1.65436E-24
 -1       630 1.87824E-04-3.27345E-06 0.00000E+00
 -1       631 1.88269E-04-4.12279E-06 0.00000E+00
 -1       632 1.88706E-04-4.94917E-06 3.30872E-24
 -1       633 1.89137E-04-5.76083E-06 0.00000E+00
 -1       634 1.89565E-04-6.56602E-06 0.00000E+00
 -1       635 1.89995E-04-7.37296E-06 0.00000E+00
 -1       636 1.90428E-04-8.18990E-06-3.30872E-24
 -1       637 1.90867E-04-9.02510E-06 0.00000E+00
 -1       638 1.91317E-04-9.88678E-06 3.30872E-24
 -1       639 1.91779E-04-1.07832E-05 0.00000E+00
 -1       640 1.92257E-04-1.17227E-05 0.00000E+00
 -1       656 1.86164E-04-9.74367E-06-6.61744E-24
 -1       657 1.87244E-04-1.03435E-05 0.00000E+00
 -1       658 1.88605E-04-1.09419E-05 0.00000E+00
 -1       659 1.90099E-04-1.15400E-05 0.00000E+00
 -1       660 1.91543E-04-1.21398E-05 0.00000E+00
 -1       661 1.85751E-04-9.63917E-06 0.00000E+00
 -1       662 1.86036E-04-1.02024E-05 0.00000E+00
 -1       663 1.86353E-04-1.08517E-05 1.65436E-24
 -1       664 1.86700E-04-1.15808E-05-8.27181E-25
 -1       665 1.87075E-04-1.23838E-05 0.00000E+00
 -1       666 1.87475E-04-1.32548E-05 8.27181E-25
 -1       667 1.87899E-04-1.41884E-05 0.00000E+00
 -1       668 1.88344E-04-1.51789E-05 8.27181E-25
 -1       669 1.88809E-04-1.62210E-05 0.00000E+00
 -1       670 1.89290E-04-1.73095E-05 0.00000E+00
 -1       671 1.89787E-04-1.84392E-05 1.65436E-24
 -1       672 1.90298E-04-1.96050E-05-8.27181E-25
 -1       673 1.90820E-04-2.08022E-05 0.00000E+00
 -1       674 1.91351E-04-2.20259E-05 0.00000E+00
 -1       675 1.91890E-04-2.32710E-05 0.00000E+00
 -1       676 1.85924E-04-2.40179E-05 0.00000E+00
 -1       677 1.87230E-04-2.41219E-05 1.65436E-24
 -1       678 1.88535E-04-2.42259E-05 0.00000E+00
 -1       679 1.89837E-04-2.43295E-05 0.00000E+00
 -1       680 1.91136E-04-2.44332E-05 1.65436E-24
 -1       771 1.86778E-05 1.45941E-05 0.00000E+00
 -1       772 8.63197E-06 3.65280E-05 0.00000E+00
 -1       773 3.90141E-07 5.39210E-05 0.00000E+00
 -1       774-6.17187E-06 6.70310E-05 2.64698E-23
 -1       775-1.11756E-05 7.61261E-05 5.29396E-23
 -1       776-1.47476E-05 8.14912E-05 2.64698E-23
 -1       777-1.70141E-05 8.34214E-05 0.00000E+00
 -1       778-1.81037E-05 8.22253E-05 0.00000E+00
 -1       779-1.81448E-05 7.82203E-05 5.29396E-23
 -1       780-1.72674E-05 7.17350E-05 2.64698E-23
 -1       781-1.56008E-05 6.31049E-05 0.00000E+00
 -1       782-1.32758E-05 5.26742E-05 0.00000E+00
 -1       783-1.04223E-05 4.07919E-05-5.29396E-23
 -1       784-7.17144E-06 2.78129E-05 0.00000E+00
 -1       785-3.65338E-06 1.40954E-05 5.29396E-23
 -1       786 1.94295E-04 3.16228E-05 0.00000E+00
 -1       787 1.94337E-04 2.94708E-05-4.13590E-25
 -1       788 1.94379E-04 2.73604E-05-8.27181E-25
 -1       789 1.94422E-04 2.52835E-05-8.27181E-25
 -1       790 1.94465E-04 2.32352E-05 0.00000E+00
 -1       791 1.94508E-04 2.12108E-05-8.27181E-25
 -1       792 1.94551E-04 1.92082E-05 1.65436E-24
 -1       793 1.94595E-04 1.72252E-05 0.00000E+00
 -1       794 1.94638E-04 1.52616E-05-1.65436E-24
 -1       795 1.94681E-04 1.33173E-05 0.00000E+00
 -1       796 1.94725E-04 1.13941E-05 0.00000E+00
 -1       797 1.94768E-04 9.49399E-06 0.00000E+00
 -1       798 1.94812E-04 7.62120E-06 0.00000E+00
 -1       799 1.94855E-04 5.78010E-06-8.27181E-25
 -1       800 1.94899E-04 3.97825E-06-1.65436E-24
 -1       801 1.49076E-04 3.03936E-05 0.00000E+00
 -1       802 1.24236E-05 1.89581E-05-2.64698E-23
 -1       803-1.04730E-04 9.52767E-06 5.29396E-23
 -1       804-9.37052E-05 6.61873E-06 0.00000E+00
 -1       805-3.11341E-05 2.62757E-06 0.00000E+00
 -1       806 1.94967E-04 3.15543E-05 3.30872E-24
 -1       807 1.95664E-04 2.93101E-05 0.00000E+00
 -1       808 1.96348E-04 2.70972E-05 0.00000E+00
 -1       809 1.97019E-04 2.49196E-05-1.65436E-24
 -1       810 1.97675E-04 2.27814E-05 0.00000E+00
 -1       811 1.98315E-04 2.06865E-05-1.65436E-24
 -1       812 1.98938E-04 1.86387E-05-3.30872E-24
 -1       813 1.99541E-04 1.66421E-05 1.65436E-24
 -1       814 2.00124E-04 1.47005E-05-3.30872E-24
 -1       815 2.00684E-04 1.28178E-05 1.65436E-24
 -1       816 2.01222E-04 1.09978E-05 1.65436E-24
 -1       817 2.01734E-04 9.24448E-06 8.27181E-25
 -1       818 2.02220E-04 7.56164E-06 0.00000E+00
 -1       819 2.02679E-04 5.95316E-06-8.27181E-25
 -1       820 2.03109E-04 4.42286E-06-1.65436E-24
 -1       821 1.94814E-04-6.29420E-08 1.65436E-24
 -1       822 1.94675E-04-3.45377E-06 1.65436E-24
 -1       823 1.94533E-04-7.53626E-06 3.30872E-24
 -1       824 1.94389E-04-1.18932E-05 0.00000E+00
 -1       825 1.94246E-04-1.60335E-05 0.00000E+00
 -1       826 1.94105E-04-1.94671E-05 0.00000E+00
 -1       827 1.93967E-04-2.18961E-05-3.30872E-24
 -1       828 1.93831E-04-2.30288E-05 1.65436E-24
 -1       829 1.93696E-04-2.29256E-05 0.00000E+00
 -1       830 1.93560E-04-2.16545E-05-1.65436E-24
 -1       831 1.93422E-04-1.96006E-05-3.30872E-24
 -1       832 1.93285E-04-1.71539E-05 1.65436E-24
 -1       833 1.93147E-04-1.48114E-05-3.30872E-24
 -1       834 1.93012E-04-1.30690E-05-1.65436E-24
 -1       835 1.92878E-04-1.22605E-05 0.00000E+00
 -1       836 1.96583E-04 2.34794E-06 6.61744E-24
 -1       837 1.98095E-04 2.47563E-06-1.65436E-24
 -1       838 1.99512E-04 2.60326E-06 0.00000E+00
 -1       839 2.00866E-04 2.73019E-06-8.27181E-25
 -1       840 2.02188E-04 2.85696E-06 8.27181E-25
 -1       856 1.92736E-04-1.37267E-05-8.27181E-25
 -1       857 1.92716E-04-1.46044E-05 0.00000E+00
 -1       858 1.92696E-04-1.53675E-05 0.00000E+00
 -1       859 1.92676E-04-1.60374E-05 0.00000E+00
 -1       860 1.92656E-04-1.66351E-05 0.00000E+00
 -1       861 1.92636E-04-1.71819E-05 2.06795E-25
 -1       862 1.92616E-04-1.76991E-05 4.13590E-25
 -1       863 1.92596E-04-1.82081E-05-4.13590E-25
 -1       864 1.92576E-04-1.87301E-05 8.27181E-25
 -1       865 1.92556E-04-1.92865E-05 0.00000E+00
 -1       866 1.92536E-04-1.98985E-05 8.27181E-25
 -1       867 1.92515E-04-2.05874E-05 4.13590E-25
 -1       868 1.92495E-04-2.13744E-05 8.27181E-25
 -1       869 1.92474E-04-2.22806E-05 4.13590E-25
 -1       870 1.92453E-04-2.33270E-05 0.00000E+00
 -1       871 1.94052E-04-1.27183E-05 8.27181E-25
 -1       872 1.95499E-04-1.27265E-05 0.00000E+00
 -1       873 1.97025E-04-1.27353E-05 0.00000E+00
 -1       874 1.98562E-04-1.27449E-05-3.87741E-25
 -1       875 2.00043E-04-1.27551E-05-2.06795E-25
 -1       876 1.93259E-04-1.37122E-05 0.00000E+00
 -1       877 1.93743E-04-1.46442E-05-1.65436E-24
 -1       878 1.94206E-04-1.55175E-05 3.30872E-24
 -1       879 1.94650E-04-1.63394E-05-1.65436E-24
 -1       880 1.95078E-04-1.71173E-05-3.30872E-24
 -1       881 1.95492E-04-1.78587E-05 0.00000E+00
 -1       882 1.95895E-04-1.85708E-05 3.30872E-24
 -1       883 1.96290E-04-1.92610E-05 1.65436E-24
 -1       884 1.96680E-04-1.99366E-05 0.00000E+00
 -1       885 1.97066E-04-2.06049E-05 1.65436E-24
 -1       886 1.97453E-04-2.12733E-05 0.00000E+00
 -1       887 1.97842E-04-2.19491E-05 0.00000E+00
 -1       888 1.98237E-04-2.26397E-05 3.30872E-24
 -1       889 1.98639E-04-2.33525E-05-1.65436E-24
 -1       890 1.99052E-04-2.40948E-05 1.65436E-24
 -1       891 1.93747E-04-2.45919E-05 1.65436E-24
 -1       892 1.95039E-04-2.46494E-05 0.00000E+00
 -1       893 1.96283E-04-2.47068E-05 0.00000E+00
 -1       894 1.97453E-04-2.47640E-05 8.27181E-25
 -1       895 1.98524E-04-2.48209E-05-4.13590E-25
 -1       956 2.03380E-04 1.69987E-06 3.30872E-24
 -1       957 2.03249E-04 5.16281E-07-1.65436E-24
 -1       958 2.03116E-04-5.86936E-07-3.30872E-24
 -1       959 2.02984E-04-1.62104E-06 0.00000E+00
 -1       960 2.02852E-04-2.59735E-06 3.30872E-24
 -1       961 2.02719E-04-3.52719E-06 0.00000E+00
 -1       962 2.02587E-04-4.42192E-06 0.00000E+00
 -1       963 2.02455E-04-5.29290E-06 0.00000E+00
 -1       964 2.02322E-04-6.15151E-06 0.00000E+00
 -1       965 2.02190E-04-7.00909E-06 1.65436E-24
 -1       966 2.02058E-04-7.87703E-06 0.00000E+00
 -1       967 2.01925E-04-8.76668E-06 1.65436E-24
 -1       968 2.01793E-04-9.68941E-06 0.00000E+00
 -1       969 2.01661E-04-1.06565E-05 1.65436E-24
 -1       970 2.01529E-04-1.16793E-05 3.30872E-24
 -1       971 2.01280E-04-1.38571E-05-3.30872E-24
 -1       972 2.01159E-04-1.48510E-05 0.00000E+00
 -1       973 2.01038E-04-1.57606E-05 3.30872E-24
 -1       974 2.00917E-04-1.65970E-05 0.00000E+00
 -1       975 2.00796E-04-1.73709E-05 0.00000E+00
 -1       976 2.00674E-04-1.80931E-05-1.65436E-24
 -1       977 2.00553E-04-1.87747E-05 0.00000E+00
 -1       978 2.00432E-04-1.94265E-05-1.65436E-24
 -1       979 2.00311E-04-2.00593E-05 3.30872E-24
 -1       980 2.00190E-04-2.06842E-05-1.65436E-24
 -1       981 2.00069E-04-2.13120E-05 0.00000E+00
 -1       982 1.99948E-04-2.19536E-05 0.00000E+00
 -1       983 1.99828E-04-2.26199E-05-3.30872E-24
 -1       984 1.99707E-04-2.33219E-05 1.65436E-24
 -1       985 1.99588E-04-2.40704E-05-3.30872E-24
 -3
    1PSTEP                        34          17           1          
  100CL  117 6.61972E-01         409                     0   17           1
 -4  STRESS      6    1
 -5  SXX         1    4    1    1
 -5  SYY         1    4    2    2
 -5  SZZ         1    4    3    3
 -5  SXY         1    4    1    2
 -5  SYZ         1    4    2    3
 -5  SZX         1    4    3    1
 -1         1-5.21630E+06-1.68686E+06-1.11939E+06-1.50020E+06 1.42609E-09-3.33443E-07
 -1         2 1.15380E+06 1.69876E+07 4.08429E+06 5.10301E+06 2.29047E-08 1.28202E-08
 -1         3-1.45315E+03-1.58004E+06 4.08327E+02-2.21611E+03-5.10529E-10-1.25365E-08
 -1         5-7.04591E+01 3.84762E+05 9.94198E+00-1.28804E+00-4.92075E-10-1.09922E-08
 -1         8-6.36804E+05-2.20203E+05-7.54232E+04-2.60226E+05 1.93722E-10 1.62690E-08
 -1         9 1.12338E+07 2.94402E+06 2.53267E+06-5.21306E+05 7.24103E-09 1.24704E-07
 -1        10-2.28401E+03-1.64653E+06-3.96395E+03-1.49902E+04-1.37516E-08-3.35558E-08
 -1        12-6.65441E+01 3.84783E+05 3.26512E+02-8.79891E+00-5.00133E-10 4.28627E-08
 -1        15 1.00529E+03 5.52460E+02 3.24957E+03 1.01753E+00 6.40767E-11 6.54916E-07
 -1        16 2.23694E+07-2.81824E+05 3.06146E+06-2.10509E+06 1.35818E-09-9.49949E-08
 -1        17 8.16835E+06 6.09630E+06 2.20671E+06 5.84281E+06 4.49363E-08 1.48430E-08
 -1        18 1.37941E+05 3.23110E+04 3.21715E+03-1.18653E+05 1.34658E-08-1.71517E-08
 -1        19 1.21937E+05 1.41118E+05-9.40126E+02 2.19350E+04 1.66710E-09-9.13387E-09
 -1        20-8.11245E+04-5.71598E+05-1.28225E+05 2.53190E+04-1.85552E-09 1.97651E-08
 -1        21-4.56249E+01-2.95569E+05-9.23204E+02 2.64915E+02 1.54315E-08-3.56226E-09
 -1        24 1.35987E+07 1.17127E+07 3.77899E+06 1.08349E+07-1.17104E-07-5.47734E-08
 -1        25 1.19407E+05 2.47176E+05 9.48198E+04-6.26782E+05-4.68599E-09 6.19948E-09
 -1        26-5.49874E+04 9.19229E+04-2.45165E+04 1.08237E+03 5.16593E-11 9.95566E-09
 -1        27-7.56232E+04-3.08900E+05-1.12990E+05 6.87568E+04 4.55505E-09-8.93518E-09
 -1        28 2.22241E+04-8.51521E+04 1.68698E+04 2.06864E+04-6.66745E-09 4.41249E-09
 -1        32-1.67695E+06-3.16640E+06-1.95225E+05 4.19862E+05-4.27608E-08-7.22071E-09
 -1        33-1.77922E+05 9.26033E+04 3.22684E+04-3.85076E+04-3.06875E-09 1.02027E-08
 -1        34-2.22976E+05-2.49001E+04 6.84971E+02 7.53123E+04-5.41438E-09-3.16065E-09
 -1        35-2.29047E+04-3.37704E+04-1.34509E+03 5.14221E+04-4.77925E-09 2.17066E-10
 -1        51 5.88619E+04-1.81254E+05 1.24899E+05-4.80086E+05 2.91038E-11 2.32649E-07
 -1        52 2.01380E+04-1.59714E+05 6.58483E+04-5.59865E+05-3.25599E-10 1.52268E-07
 -1        53 4.36423E+03-1.75122E+05 3.47999E+04-4.78407E+05 2.58296E-10-1.22382E-07
 -1        54 8.17341E+03-1.70966E+05 2.96159E+04-5.61535E+05 3.78350E-10-3.39074E-07
 -1        55 1.77098E+04-1.78499E+05 3.72229E+04-4.78272E+05 3.71074E-10-2.27465E-07
 -1        56-9.54674E+06-1.21293E+06-8.54042E+05-3.88118E+06-3.25963E-09-1.14058E-07
 -1        57-1.05550E+07-1.16640E+06-5.52403E+05-2.99304E+06-2.50293E-09 2.63331E-07
 -1        58-9.53396E+06-1.59810E+06-1.95231E+05-3.97470E+06 1.46974E-09 1.62509E-07
 -1        59-1.05229E+07-7.44657E+05-1.12467E+05-2.96304E+06 7.76436E-09 3.24799E-08
 -1        60-9.60232E+06-1.60739E+06-5.00827E+04-3.93458E+06 2.19006E-09-1.92791E-07
 -1        61-1.01756E+07-9.27979E+05-9.78293E+03-3.15900E+06 4.98039E-09-2.65105E-07
 -1        62-9.82849E+06-1.44953E+06-3.61713E+04-3.73894E+06-7.22503E-09 1.41332E-07
 -1        63-9.68911E+06-1.34202E+06 1.38855E+04-3.60103E+06-7.72707E-09-8.76935E-09
 -1        64-1.00510E+07-1.21987E+06-3.30447E+04-3.46756E+06-1.87720E-09 2.36487E-08
 -1        65-9.40588E+06-1.71538E+06-9.83513E+03-4.10731E+06-2.56841E-08-2.66739E-08
 -1        66-1.01587E+07-1.04364E+06-4.30135E+04-3.26751E+06 2.36505E-08-2.08547E-08
 -1        67-9.36233E+06-1.89991E+06-1.01438E+05-4.33846E+06-5.07189E-08 1.08281E-07
 -1        68-1.01408E+07-1.00424E+06-1.78031E+05-3.26649E+06-2.53333E-08-1.64291E-08
 -1        69-9.59064E+06-2.05419E+06-4.94946E+05-4.07593E+06-7.30583E-08-2.46699E-07
 -1        70-9.89200E+06-9.26710E+05-7.75774E+05-3.50052E+06 6.38101E-09-1.82074E-07
 -1        86-1.17558E+06-1.31364E+07-2.23153E+06-2.41098E+06-2.38440E-07-1.84955E-08
 -1        87 1.79686E+06 4.57484E+06 1.85721E+06 4.70065E+06-4.14053E-07 2.24209E-08
 -1        88-3.12345E+05-2.22233E+06 1.68390E+05-2.23102E+06-3.63125E-07-6.81093E-08
 -1        89 2.41281E+06 4.36636E+06 1.89707E+06 4.83985E+06-5.07542E-07-1.57546E-07
 -1        90-1.72640E+06-1.29830E+07-2.42194E+06-2.56788E+06-1.39415E-07-9.57371E-08
 -1       121-1.99231E+03-1.58484E+06-5.20740E+02 1.09875E+03 1.41080E-09-2.98533E-08
 -1       122-1.26637E+03-1.58010E+06 7.78217E+02-4.43534E+03-5.41060E-09-2.79397E-08
 -1       123-2.01396E+03-1.58497E+06 3.00684E+02 3.28121E+03 4.22574E-09-2.49129E-08
 -1       124 3.88318E+02-1.57963E+06 2.99447E+03-9.27351E+03-9.94305E-09 1.43591E-08
 -1       125-2.83738E+03-1.58588E+06 3.55493E+03 5.89279E+03 6.64113E-09 9.37871E-09
 -1       191-7.42707E+01 3.84781E+05 8.68144E+00 6.70090E-01-5.30694E-10-1.97906E-09
 -1       192-7.14158E+01 3.84763E+05 2.12049E+01-4.14615E+00-6.32562E-10-1.56506E-08
 -1       193-7.67907E+01 3.84781E+05 3.63208E+01 3.63584E+00-9.91522E-10-7.51970E-09
 -1       194-7.44838E+01 3.84766E+05 8.05845E+01-9.41315E+00-6.62547E-10-1.45510E-08
 -1       195-8.16278E+01 3.84778E+05 1.54500E+02 6.11352E+00-1.48071E-09 1.39426E-08
 -1       251-1.04651E+06 2.15644E+04-5.09616E+04-1.89417E+04 3.86535E-10 7.42148E-10
 -1       252-1.06673E+06-2.48334E+04-3.55814E+04 6.38346E+04-1.49873E-08-1.10049E-07
 -1       253-1.05521E+06 3.41890E+03-1.32741E+04-1.83746E+04 4.91207E-09-9.20281E-08
 -1       254-1.05118E+06-3.84825E+03-6.88463E+03 5.20614E+04 6.55609E-09 2.74445E-08
 -1       255-1.06147E+06 2.10044E+02-4.45503E+03-7.16832E+03-2.49543E-09 4.57030E-08
 -1       256-1.04149E+06-3.98879E+02 1.13631E+03 2.33447E+04 4.18015E-09-2.05842E-07
 -1       257-1.06409E+06-6.49626E+02-2.16624E+03 1.03313E+04-5.76438E-09-1.89235E-08
 -1       258-1.04260E+06 8.86252E+02 3.22425E+03-1.10401E+04-5.17502E-10-2.43280E-08
 -1       259-1.06044E+06-1.00767E+03 6.23528E+02 2.72067E+04-9.67702E-10 2.09869E-08
 -1       260-1.05148E+06 2.88113E+03 5.21051E+03-3.75541E+04 3.01810E-09-4.12092E-08
 -1       261-1.05607E+06-1.97420E+03 7.38236E+03 3.68625E+04 1.74631E-08 1.31256E-07
 -1       262-1.05243E+06 1.06171E+04 1.85457E+04-4.59511E+04-1.54553E-09-4.16036E-07
 -1       263-1.05990E+06-8.39303E+03 2.91576E+04 3.56172E+04 4.61841E-09-3.86372E-08
 -1       264-1.02353E+06 5.80820E+04 8.15896E+04-3.29895E+04 3.75201E-08 2.53421E-07
 -1       265-1.08429E+06-4.97488E+04 1.12177E+05 2.38838E+04-6.74845E-09 1.04621E-07
 -1       266-1.81993E+04-8.51071E+03 4.26972E+04-2.17705E+01 5.89353E-10 2.41552E-07
 -1       267 2.10977E+04 9.91828E+03 3.01795E+04 2.51206E+01 1.01181E-09 4.47777E-07
 -1       268-2.82917E+03-1.40476E+03 1.12175E+04-3.20071E+00 4.94310E-10-8.71280E-08
 -1       269 3.34042E+03 1.68114E+03 7.29128E+03 3.72845E+00 3.15367E-10-2.56723E-09
 -1       270-5.01396E+02-2.76222E+02 3.51960E+03-5.05972E-01 5.18639E-10 3.99065E-07
 -1       271-1.60387E+06-2.01265E+05-1.19973E+05-6.21904E+05-3.87554E-08 6.44504E-08
 -1       272-1.61935E+06-3.08548E+05-7.60789E+04-6.45021E+05 4.58458E-08-3.51181E-07
 -1       273-1.62862E+06-2.28057E+05-2.88188E+04-6.13974E+05-1.56069E-08 6.30389E-08
 -1       274-1.59025E+06-2.76544E+05-1.54164E+04-6.59142E+05-2.24391E-08 2.11495E-07
 -1       275-1.63411E+06-2.28425E+05-7.02641E+03-6.10438E+05-9.27139E-09 1.33608E-07
 -1       276-1.58385E+06-2.76896E+05-3.20485E+03-6.66669E+05 9.60426E-10 1.88050E-07
 -1       277-1.63676E+06-2.26195E+05-1.91172E+03-6.07857E+05-1.53595E-08 4.18589E-07
 -1       278-1.58111E+06-2.80014E+05-8.79054E+02-6.72270E+05-1.76478E-08 2.34271E-07
 -1       279-1.63848E+06-2.24244E+05-1.00571E+03-6.05981E+05-5.98084E-09-1.66015E-08
 -1       280-1.57967E+06-2.82561E+05-1.32729E+03-6.76129E+05 1.34623E-08 2.16336E-07
 -1       281-1.63944E+06-2.22873E+05-2.44599E+03-6.04843E+05-7.09406E-09 1.02665E-07
 -1       282-1.58001E+06-2.85371E+05-5.71487E+03-6.77936E+05 4.83601E-09 3.14672E-07
 -1       283-1.63885E+06-2.21147E+05-1.01636E+04-6.04587E+05 3.84641E-08-7.96717E-10
 -1       284-1.58889E+06-2.99183E+05-2.77090E+04-6.75839E+05-3.00722E-08 2.20627E-07
 -1       285-1.63078E+06-2.10435E+05-4.31195E+04-6.06462E+05-4.67014E-08-6.62239E-08
 -1       301 1.12686E+02-6.21993E+05 1.68283E+05-1.08584E+06 9.29867E-09 1.34045E-07
 -1       302-5.15511E+01-5.76770E+05 1.01369E+05-1.58581E+06-4.38740E-09-5.34201E-08
 -1       303-1.60850E+04-6.12498E+05 5.80118E+04-1.08296E+06 1.20053E-09-2.13537E-07
 -1       304-1.59411E+04-5.82216E+05 5.96783E+04-1.58508E+06-1.12195E-08 2.08966E-08
 -1       305-1.93819E+04-6.02292E+05 7.50591E+04-1.08605E+06-3.51065E-10 5.80621E-09
 -1       306-2.98207E+07-6.15314E+06-8.49966E+06-6.37122E+05-1.04541E-07-1.85741E-07
 -1       307 2.51989E+07 3.09245E+06 5.45966E+06-1.48745E+07-8.42556E-07-3.04077E-07
 -1       308-7.13354E+06-1.01446E+06-4.88303E+05 5.14645E+06-1.79687E-07 3.87110E-07
 -1       309-3.36236E+06 8.51246E+06 2.22556E+06-2.04396E+07 3.22736E-07-2.61971E-08
 -1       310-1.22926E+07-1.85132E+06-1.93472E+06 5.13936E+06-9.35979E-08-1.97702E-07
 -1       311 3.72218E+07 1.73589E+04 7.09282E+06-8.94522E+06 2.09751E-07 1.28086E-07
 -1       312-3.14604E+07-6.58971E+06-8.35390E+06-4.81785E+06 9.48785E-08-1.17696E-07
 -1       313 4.49122E+07 1.43367E+07 1.04847E+07 2.30809E+07-4.09083E-07 1.98110E-07
 -1       314-1.72962E+07-1.73345E+07-7.41650E+06-1.24013E+07 2.09548E-08-1.52155E-07
 -1       315-1.57936E+06 2.90898E+07 5.60567E+06 1.07111E+07-7.97707E-07-2.88012E-07
 -1       316 1.24954E+06-9.80278E+06-4.65267E+05-2.68685E+06-1.18879E-06-1.65368E-07
 -1       317-1.71664E+07 2.21488E+07 2.18398E+06-8.43969E+06 8.61328E-07-6.78949E-07
 -1       318-1.07224E+06-1.24914E+07-1.95851E+06-4.26568E+06-9.04402E-07 1.66008E-07
 -1       319 6.89569E+06 3.11448E+07 6.86425E+06 1.62416E+07-5.11936E-08 2.88273E-07
 -1       320-2.22900E+07-1.72743E+07-9.65783E+06-1.26062E+07 2.06754E-07-7.52334E-08
 -1       336-6.67585E+02-1.71564E+06-1.39126E+04 8.93413E+03-2.60225E-08 3.36149E-09
 -1       337-5.40947E+03-1.71537E+06-1.81503E+04-2.16773E+04-4.84454E-08-1.12013E-08
 -1       338 3.35811E+02-1.71514E+06-2.84970E+04 1.25017E+04-3.42616E-08-1.55851E-08
 -1       339-3.02385E+04-1.73260E+06-6.44446E+04-2.86590E+04-6.25287E-08 2.70229E-08
 -1       340 1.99834E+04-1.70057E+06-1.01468E+05 1.57875E+04-4.22733E-08 2.77651E-08
 -1       406-4.47262E+01 3.84764E+05 6.41333E+02 3.18856E+00-1.85481E-09 1.13105E-08
 -1       407 1.58578E+02 3.84896E+05 1.37007E+03 2.27036E+01-4.52872E-10-2.12895E-08
 -1       408 6.36534E+02 3.84664E+05 2.73210E+03-2.62391E+01-2.36332E-09-1.66365E-08
 -1       409 2.89725E+03 3.85769E+05 6.15743E+03 2.79604E+02-1.65528E-10 6.47469E-09
 -1       410 8.44332E+03 3.83878E+05 1.25672E+04-2.69540E+02-2.86673E-09-1.00899E-08
 -1       521-3.13193E+07-7.57320E+06-9.90673E+06-2.55340E+05-1.16532E-07-1.21596E-07
 -1       522 2.60001E+07 4.04701E+06 5.55104E+06-1.83026E+07-5.07454E-07-1.20199E-07
 -1       523-7.72989E+06-1.32017E+06-4.82929E+05 5.58549E+06 8.45175E-08-6.37374E-08
 -1       524-6.82662E+06 1.14669E+07 2.40099E+06-2.34500E+07 9.78893E-07-8.11062E-07
 -1       525-1.30986E+07-2.45544E+06-2.12100E+06 5.57718E+06 6.72648E-07-3.38914E-07
 -1       526 4.04945E+07-5.82147E+04 7.43105E+06-1.15720E+07 3.92029E-07 7.12462E-08
 -1       527-3.32436E+07-8.23770E+06-9.60609E+06-4.67305E+06-3.28291E-08 1.90121E-07
 -1       528 4.89720E+07 1.58864E+07 1.09161E+07 2.61685E+07-6.53090E-08-2.90805E-07
 -1       529-1.82398E+07-1.94681E+07-8.48674E+06-1.24387E+07 1.68802E-09-5.45988E-08
 -1       530-4.02054E+06 3.37302E+07 5.92132E+06 1.02684E+07-7.54371E-08 8.59844E-07
 -1       531 1.22872E+06-1.08799E+07-4.44700E+05-2.67107E+06-7.81627E-07 3.76371E-07
 -1       532-1.97559E+07 2.41657E+07 2.38074E+06-1.25868E+07 2.69749E-07-6.45174E-07
 -1       533-1.11486E+06-1.36129E+07-2.07293E+06-4.10778E+06-3.42290E-07-9.66014E-07
 -1       534 4.84845E+06 3.60640E+07 7.12747E+06 1.67570E+07-8.55362E-08 7.70960E-07
 -1       535-2.34208E+07-1.95908E+07-1.10407E+07-1.26675E+07 6.69388E-08 4.55067E-07
 -1       536-6.99107E+05-4.66774E+04-4.47419E+04-5.37250E+04-3.55340E-09 6.55145E-08
 -1       537-6.17160E+04 4.48083E+04 8.36554E+04 1.22018E+05-1.10954E-07 1.06123E-07
 -1       538-3.94091E+05 3.12371E+03 4.08108E+03-7.12812E+04 2.67368E-08 1.16590E-07
 -1       539-2.71536E+05 2.92046E+03 2.46999E+04 1.36852E+05 1.37242E-07 1.07904E-07
 -1       540-4.94545E+05-4.09535E+02-2.06627E+04-6.90754E+04 2.64740E-08 1.07740E-07
 -1       541 1.34863E+05 1.65967E+04 1.04072E+05 9.63431E+04-4.30130E-08 6.69420E-08
 -1       542-7.89542E+05-1.96970E+04-8.23274E+04-2.99275E+04 5.28062E-08 5.77920E-08
 -1       543 3.87723E+05 2.67222E+04 1.54429E+05-1.32141E+04-1.32975E-08 2.00816E-09
 -1       544-7.40624E+05-1.61556E+04-7.31370E+04 3.98348E+04-4.05466E-08-3.60095E-08
 -1       545 1.95108E+04 9.22972E+03 7.79176E+04-1.11953E+05-5.69571E-11-7.40970E-08
 -1       546-4.31215E+05 5.99461E+03-1.19745E+04 6.84782E+04 3.28052E-08-9.80152E-08
 -1       547-2.89348E+05-4.66853E+03 1.01553E+04-1.39684E+05-1.13914E-07-1.21231E-07
 -1       548-4.40065E+05 4.68773E+03-2.36040E+04 6.82324E+04-1.07357E-07-9.10059E-08
 -1       549 3.85670E+04 1.52192E+04 5.85087E+04-1.09765E+05-6.79520E-08-6.97200E-08
 -1       550-7.50355E+05-2.12319E+04-1.27077E+05 3.78675E+04 7.97445E-09-4.41833E-08
 -1       551 4.01916E+04-7.74287E+05-1.68812E+04-1.26396E+06 3.26545E-08 4.01633E-09
 -1       552 9.58993E+04-8.21707E+05 9.95741E+03-1.82676E+06 7.62229E-08 3.40588E-08
 -1       553 7.29296E+04-8.17964E+05 3.24051E+04-1.25709E+06 4.12401E-08 3.09374E-08
 -1       554 1.36229E+05-8.39184E+05 8.23124E+04-1.82866E+06 8.01811E-08 1.78643E-08
 -1       555 1.00810E+05-8.41805E+05 1.49439E+05-1.25707E+06 4.42669E-08-2.22390E-08
 -1       556 2.20806E+05-3.79213E+05 2.82304E+04-4.04293E+05-2.26719E-08-1.18453E-08
 -1       557 3.50520E+05-4.82833E+05 1.73744E+04-5.23345E+05 4.56930E-09 2.58733E-08
 -1       558 2.03094E+05-3.72649E+05 2.94329E+03-4.08241E+05-1.54832E-08 1.75933E-08
 -1       559 3.25683E+05-4.83313E+05 2.71821E+03-5.43406E+05 1.94414E-08-1.34751E-08
 -1       560 1.88116E+05-3.63252E+05-1.31508E+03-4.19020E+05 1.21654E-08-5.82804E-09
 -1       561 3.06829E+05-4.75790E+05 2.03853E+02-5.56246E+05-2.22644E-09-2.12785E-08
 -1       562 1.76274E+05-3.55889E+05-1.25616E+03-4.27593E+05 7.88714E-09-9.60426E-09
 -1       563 2.92766E+05-4.69659E+05-1.59901E+01-5.65427E+05-1.89175E-09-1.47011E-08
 -1       564 1.67833E+05-3.50629E+05-5.73479E+02-4.33573E+05 6.44650E-09 2.44199E-08
 -1       565 2.83457E+05-4.65605E+05 2.96799E+01-5.71373E+05 9.34233E-09-2.64708E-09
 -1       566 1.62915E+05-3.47517E+05-2.49292E+02-4.37013E+05 1.82627E-09-9.29504E-09
 -1       567 2.78960E+05-4.63648E+05-3.54006E+02-5.74102E+05 1.41517E-08-7.74889E-09
 -1       568 1.61608E+05-3.46717E+05-1.10464E+03-4.38023E+05-1.49794E-09 2.24500E-08
 -1       569 2.77896E+05-4.63583E+05-2.79046E+03-5.72649E+05-5.20049E-09 1.19326E-08
 -1       570 1.64997E+05-3.49928E+05-6.10554E+03-4.37013E+05 3.06318E-09-6.99583E-09
 -1       571 2.89307E+05 1.04658E+04 1.49463E+04-9.43425E+04 4.14184E-09 1.18234E-10
 -1       572 2.91475E+05 3.93662E+03 7.32482E+03-1.03503E+05 5.36511E-09 6.19184E-09
 -1       573 2.90168E+05 1.23099E+03 3.25465E+03-9.41668E+04 2.65118E-09 7.72707E-09
 -1       574 2.90383E+05 7.12745E+02 1.63215E+03-1.03726E+05-2.42289E-09-6.37647E-09
 -1       575 2.90262E+05 4.35572E+02 7.70315E+02-9.41428E+04-3.64855E-09 1.30431E-08
 -1       576 2.90247E+05 4.45834E+02 3.94364E+02-1.03755E+05-7.02198E-09 2.04118E-08
 -1       577 2.90301E+05 3.78003E+02 1.96847E+02-9.41395E+04-3.05045E-09 1.76587E-08
 -1       578 2.90276E+05 4.08455E+02 1.13641E+02-1.03760E+05-5.02450E-09 2.38924E-09
 -1       579 2.90371E+05 3.42187E+02 7.79998E+01-9.41391E+04 5.69162E-09-2.12094E-09
 -1       580 2.90376E+05 3.58545E+02 9.03711E+01-1.03755E+05-1.10886E-08-2.41380E-09
 -1       581 2.90483E+05 2.84904E+02 1.36481E+02-9.41450E+04 4.91309E-09 4.32465E-09
 -1       582 2.90548E+05 3.22458E+02 2.77326E+02-1.03694E+05 3.16504E-09 1.54723E-08
 -1       583 2.90620E+05 3.28143E+02 5.32415E+02-9.42010E+04 4.46016E-09 6.68024E-09
 -1       584 2.90918E+05 7.62538E+02 1.20463E+03-1.03222E+05 4.23097E-09-2.62667E-08
 -1       585 2.90644E+05 1.77755E+03 2.43952E+03-9.46160E+04-2.25373E-09-1.62545E-08
 -1       586-3.41077E+03 1.15908E+05-2.93979E+03-2.49845E+05-8.79800E-09-2.43811E-08
 -1       587-1.31811E+03 1.15653E+05 7.46995E+02-2.74974E+05-1.07611E-08-2.53181E-10
 -1       588 4.14018E+02 1.15467E+05 4.72233E+03-2.49708E+05-6.23550E-09 1.59098E-08
 -1       589 5.07601E+03 1.17923E+05 1.22663E+04-2.74740E+05-6.16637E-09-3.34603E-09
 -1       590 1.65299E+04 1.14141E+05 2.57382E+04-2.50138E+05-8.09450E-09-7.94353E-09
 -1       591-7.43571E+04-1.59088E+04-2.23919E+04-3.17760E+04-5.94923E-09-1.35879E-09
 -1       592-7.83962E+04-1.94700E+04-1.21292E+04-3.54079E+04 1.04298E-09 1.99252E-08
 -1       593-7.65967E+04-1.42838E+04-5.04881E+03-3.34176E+04 7.97959E-09-6.28461E-10
 -1       594-7.53041E+04-1.61847E+04-2.51797E+03-3.55255E+04 7.80159E-09 2.05782E-08
 -1       595-7.67675E+04-1.42784E+04-1.15602E+03-3.34922E+04 3.56846E-09 1.45550E-08
 -1       596-7.50925E+04-1.60344E+04-5.87479E+02-3.55003E+04 1.07561E-08 1.72352E-08
 -1       597-7.67889E+04-1.42937E+04-3.19507E+02-3.34950E+04 1.01056E-09 2.24611E-09
 -1       598-7.50716E+04-1.60285E+04-2.56127E+02-3.54933E+04-1.05206E-09 4.10992E-09
 -1       599-7.67877E+04-1.42942E+04-3.26276E+02-3.34947E+04 7.21809E-09-1.62421E-08
 -1       600-7.50925E+04-1.60350E+04-6.05398E+02-3.54982E+04 5.42860E-09-1.06330E-08
 -1       601-7.67631E+04-1.42798E+04-1.19395E+03-3.34912E+04 5.16548E-09 7.71479E-10
 -1       602-7.53111E+04-1.61891E+04-2.60189E+03-3.55203E+04-8.79447E-09 9.09324E-09
 -1       603-7.65839E+04-1.42882E+04-5.21776E+03-3.34149E+04-1.10504E-10 1.06493E-08
 -1       604-7.85240E+04-1.95648E+04-1.25343E+04-3.53742E+04 2.93409E-09 8.37440E-09
 -1       605-7.42495E+04-1.59853E+04-2.31398E+04-3.17377E+04 4.00530E-09 1.25901E-08
 -1       606 2.68175E+04-1.42614E+04-2.55669E+04 2.41547E+04 3.29692E-09 2.08831E-08
 -1       607 2.24488E+04-4.65712E+03-1.27322E+04 2.71438E+04 8.43102E-10 8.11178E-09
 -1       608 2.49383E+04-8.39565E+02-5.69982E+03 2.39840E+04-1.43955E-08 6.40853E-09
 -1       609 2.44607E+04-2.86783E+02-2.87938E+03 2.73592E+04-1.91721E-08 2.82887E-09
 -1       610 2.47252E+04-3.97949E+01-1.37382E+03 2.39638E+04-1.53732E-08 1.16452E-08
 -1       611 2.46500E+04-3.97035E+01-6.92668E+02 2.73825E+04-1.17006E-08 1.12941E-08
 -1       612 2.46780E+04-2.59174E+01-3.29317E+02 2.39617E+04-6.05087E-09 3.80646E-09
 -1       613 2.46611E+04-3.54162E+01-1.47573E+02 2.73852E+04 3.87899E-10-2.05591E-08
 -1       614 2.46556E+04-3.21173E+01-3.46237E+01 2.39610E+04-2.40289E-09 1.20272E-08
 -1       615 2.46556E+04-3.37659E+01 6.18256E+01 2.73857E+04-3.87809E-09 2.36319E-08
 -1       616 2.46381E+04-2.88694E+01 1.85415E+02 2.39613E+04 2.63935E-09 4.83033E-09
 -1       617 2.46776E+04 5.87907E+00 4.23051E+02 2.73852E+04 5.42877E-09 1.19639E-08
 -1       618 2.46012E+04 9.31899E+01 8.52727E+02 2.39616E+04 3.01088E-09 2.21610E-08
 -1       619 2.49785E+04 6.65291E+02 1.91487E+03 2.73845E+04-2.60843E-09 7.04858E-10
 -1       620 2.43179E+04 2.11530E+03 3.84883E+03 2.39631E+04-3.91196E-10-8.47649E-09
 -1       621 5.04061E+02 3.00187E+05 3.85764E+03 4.03218E+04 7.74435E-10 9.91531E-09
 -1       622 6.66116E+02 3.01080E+05 3.42552E+03 5.85409E+04 9.24501E-10 1.44828E-08
 -1       623 1.37474E+02 3.00381E+05 4.11923E+03 4.01392E+04 1.12391E-09 1.85410E-08
 -1       624 2.10795E+03 3.02294E+05 7.98775E+03 5.87207E+04 1.08912E-09-1.06959E-08
 -1       625 2.06163E+03 2.98798E+05 1.39594E+04 4.01360E+04 1.35515E-09-1.25867E-08
 -1       626 2.59840E+05 6.13523E+04 5.11225E+03 1.26470E+05 5.22232E-09 3.90537E-09
 -1       627 2.57512E+05 6.27608E+04 2.46356E+03 1.30751E+05 1.27579E-08-1.66347E-09
 -1       628 2.59968E+05 5.90122E+04 1.04188E+03 1.27338E+05-1.96906E-09 4.76098E-09
 -1       629 2.56876E+05 6.20832E+04 5.09955E+02 1.30992E+05-1.13187E-09 2.07478E-08
 -1       630 2.59982E+05 5.88992E+04 2.36631E+02 1.27374E+05-5.06134E-10 3.32341E-09
 -1       631 2.56809E+05 6.20575E+04 1.27446E+02 1.30994E+05 1.97792E-09 2.34122E-08
 -1       632 2.59979E+05 5.89033E+04 8.40527E+01 1.27370E+05 1.00408E-09-4.84329E-09
 -1       633 2.56800E+05 6.20595E+04 9.39212E+01 1.30990E+05 3.49019E-10 1.70639E-08
 -1       634 2.59974E+05 5.89006E+04 1.52033E+02 1.27369E+05-2.57381E-09-4.63797E-09
 -1       635 2.56814E+05 6.20578E+04 3.07793E+02 1.30996E+05-3.20338E-09-2.74422E-08
 -1       636 2.59965E+05 5.88949E+04 6.21668E+02 1.27369E+05 1.41426E-09-6.38192E-09
 -1       637 2.56949E+05 6.21545E+04 1.36693E+03 1.30995E+05-1.61094E-09 2.11321E-09
 -1       638 2.59916E+05 5.91968E+04 2.80854E+03 1.27232E+05-1.22009E-09-1.14301E-08
 -1       639 2.58424E+05 6.42064E+04 6.64513E+03 1.30561E+05 5.72163E-09 1.03576E-08
 -1       640 2.59712E+05 6.53237E+04 1.37898E+04 1.24650E+05 4.24052E-09 9.61427E-09
 -1       656 6.63772E+04-1.69843E+06-1.60230E+05-2.48682E+03-1.09139E-10-1.50112E-09
 -1       657-8.78096E+04-1.77083E+06-1.32738E+05 5.26386E+03-4.92037E-10-2.32768E-08
 -1       658 2.11573E+04-1.71899E+06-8.17455E+04-4.56400E+03 4.37240E-10-1.57550E-08
 -1       659-9.49414E+04-1.77422E+06-1.42110E+05 6.98295E+03-1.77351E-09 6.18723E-09
 -1       660 7.34931E+04-1.69505E+06-1.76343E+05-4.20589E+03-1.25146E-09 1.98187E-08
 -1       661 1.59425E+05 1.66999E+04 1.67692E+04 6.23232E+04-1.37334E-10 9.15861E-10
 -1       662 1.68891E+05 2.91329E+04 1.13012E+04 5.85777E+04 1.17967E-09-1.68228E-08
 -1       663 1.62719E+05 2.20798E+04 3.95247E+03 6.13673E+04 2.55113E-10 1.90767E-09
 -1       664 1.65072E+05 2.28416E+04 2.36438E+03 5.97454E+04-2.99167E-09 2.86377E-09
 -1       665 1.63219E+05 2.28146E+04 9.32729E+02 6.12214E+04-5.71674E-10 1.31678E-10
 -1       666 1.64481E+05 2.20014E+04 5.45935E+02 5.99356E+04 9.14338E-09 9.00893E-09
 -1       667 1.63306E+05 2.28981E+04 2.90116E+02 6.11849E+04 3.37110E-10 2.86779E-09
 -1       668 1.64384E+05 2.19413E+04 2.95940E+02 5.99887E+04-7.59148E-09-3.30684E-09
 -1       669 1.63314E+05 2.28729E+04 4.00928E+02 6.11686E+04-2.46698E-09-6.50857E-10
 -1       670 1.64482E+05 2.21591E+04 8.73282E+02 5.99917E+04-1.18651E-08 2.81487E-09
 -1       671 1.63209E+05 2.26849E+04 1.55066E+03 6.11799E+04 1.15342E-09 8.74041E-09
 -1       672 1.65386E+05 2.36678E+04 3.96740E+03 5.97728E+04 6.63921E-09-3.21791E-10
 -1       673 1.62415E+05 2.14024E+04 6.64875E+03 6.13728E+04 3.52395E-09 1.03046E-08
 -1       674 1.71713E+05 3.43497E+04 1.90140E+04 5.79138E+04-4.12115E-10 3.49019E-10
 -1       675 1.56922E+05 1.23021E+04 2.82235E+04 6.29267E+04-7.33917E-09-2.75577E-09
 -1       676 2.40855E+01-2.95492E+05-1.11270E+03-1.32462E+02 2.73022E-09-4.04031E-09
 -1       677-2.94419E+02-2.95761E+05-2.03644E+03 2.64710E+02 1.14401E-08-2.36130E-08
 -1       678 1.97407E+02-2.95300E+05-3.59992E+03-1.32162E+02 2.59820E-09 1.53928E-08
 -1       679-3.60006E+03-2.97934E+05-8.55192E+03 2.63569E+02 8.18352E-09 9.54273E-09
 -1       680 2.14939E+03-2.93320E+05-1.37828E+04-1.29859E+02 1.55524E-09 1.48418E-08
 -1       771-3.05846E+06-7.46071E+05-1.61360E+05-1.46444E+06-3.27127E-08-2.87546E-08
 -1       772-2.98032E+06-8.34486E+05-8.30813E+04-1.56677E+06-1.90485E-08 1.76697E-08
 -1       773-3.08951E+06-7.21825E+05-4.25661E+04-1.47862E+06-1.35042E-08 1.15397E-08
 -1       774-2.97139E+06-8.16623E+05-1.89425E+04-1.59248E+06 1.93977E-08-9.80071E-09
 -1       775-3.10589E+06-7.10306E+05-1.43058E+04-1.48564E+06-5.26779E-09 6.25005E-09
 -1       776-2.98376E+06-8.13618E+05-5.32563E+03-1.61194E+06-1.08848E-08 2.19734E-09
 -1       777-3.12013E+06-7.00024E+05-6.36622E+03-1.49185E+06 5.82077E-10 3.97995E-09
 -1       778-2.99664E+06-8.10799E+05-1.79084E+03-1.62866E+06 4.94765E-09 1.54505E-08
 -1       779-3.13238E+06-6.91042E+05-3.19572E+03-1.49716E+06-1.69093E-08-1.35624E-08
 -1       780-3.00797E+06-8.08110E+05-5.30154E+02-1.64227E+06-1.29512E-08-1.47156E-09
 -1       781-3.14211E+06-6.83802E+05-1.25066E+03-1.50131E+06-2.87837E-08-1.11322E-09
 -1       782-3.01670E+06-8.05828E+05 4.31512E+02-1.65232E+06-3.19633E-08-1.02445E-08
 -1       783-3.14896E+06-6.78773E+05 6.61998E+02-1.50422E+06-2.77214E-09-1.57374E-08
 -1       784-3.02156E+06-8.03573E+05 2.80587E+03-1.65852E+06-1.65310E-08 4.15457E-09
 -1       785-3.15300E+06-6.75786E+05 4.94545E+03-1.50605E+06-3.63470E-08 7.38873E-09
 -1       786 1.24735E+05-9.78805E+03 2.26456E+04-3.18251E+02 1.22671E-09-3.95812E-09
 -1       787 1.34556E+05 1.13323E+04 1.60208E+04-1.32088E+02 7.41749E-09-1.38143E-08
 -1       788 1.28521E+05-1.53383E+03 5.85894E+03-2.83240E+02 5.38943E-09 1.30240E-09
 -1       789 1.30145E+05 1.77534E+03 3.67809E+03-1.85793E+02-3.82899E-09 5.74215E-09
 -1       790 1.29147E+05-2.38837E+02 1.48933E+03-2.64563E+02-4.14724E-09-1.76453E-09
 -1       791 1.29413E+05 2.76337E+02 8.60465E+02-2.17759E+02-6.39590E-09 2.92482E-09
 -1       792 1.29253E+05-3.59501E+01 3.65156E+02-2.51276E+02-2.23343E-09 6.06113E-09
 -1       793 1.29287E+05 3.82095E+01 1.83190E+02-2.42768E+02 2.57883E-09 1.48232E-08
 -1       794 1.29273E+05-8.59974E-01 4.99217E+01-2.39555E+02 4.61594E-09-4.44894E-09
 -1       795 1.29251E+05-2.55701E+01-5.17486E+01-2.67253E+02-5.57508E-09 6.59012E-09
 -1       796 1.29289E+05 2.77939E+01-1.52491E+02-2.26791E+02 3.22770E-09 3.11699E-09
 -1       797 1.29161E+05-2.07756E+02-4.21543E+02-2.96606E+02 2.93979E-09-9.45327E-09
 -1       798 1.29363E+05 1.81189E+02-6.85397E+02-2.10202E+02 1.93541E-09 1.45295E-08
 -1       799 1.28641E+05-1.33553E+03-1.88632E+03-3.37685E+02 5.89251E-09 7.91630E-09
 -1       800 1.29809E+05 1.15464E+03-2.66973E+03-1.85712E+02 4.24446E-10 8.83790E-09
 -1       801-1.63754E+05-9.81079E+06-1.36355E+06 1.36704E+06 9.42091E-08-5.07425E-08
 -1       802 7.09681E+05 5.63286E+06 2.10172E+06-1.68452E+06 2.56754E-07-3.06936E-08
 -1       803-5.17732E+05-1.38692E+07-1.82224E+06 8.77046E+05 7.66595E-08 1.32131E-08
 -1       804 2.72202E+05 2.14335E+06 1.47270E+06 6.54702E+05-1.15637E-07-1.03537E-07
 -1       805 1.86537E+05-6.33585E+06-2.71944E+05-9.66756E+05-4.82250E-08-6.69834E-08
 -1       806-3.07839E+05-5.95563E+04-2.27861E+04-1.21983E+05-6.64022E-09 3.79760E-09
 -1       807-3.09634E+05-5.58346E+04-1.11946E+04-1.27509E+05 7.30870E-09 2.24555E-08
 -1       808-3.08464E+05-5.13447E+04-4.74910E+03-1.25865E+05-2.72848E-10 2.16155E-08
 -1       809-3.07280E+05-5.26892E+04-2.32219E+03-1.27784E+05-1.88056E-08 7.63430E-09
 -1       810-3.08559E+05-5.10588E+04-1.06438E+03-1.26037E+05-4.39286E-10-1.83013E-09
 -1       811-3.07098E+05-5.25628E+04-5.29324E+02-1.27748E+05 2.11548E-09-1.51904E-08
 -1       812-3.08573E+05-5.10834E+04-2.67756E+02-1.26036E+05-1.12095E-08 1.73695E-08
 -1       813-3.07073E+05-5.25650E+04-1.74098E+02-1.27730E+05-1.68329E-08-2.72394E-10
 -1       814-3.08566E+05-5.10930E+04-1.72663E+02-1.26032E+05-5.85169E-09-6.93490E-09
 -1       815-3.07077E+05-5.25672E+04-2.78311E+02-1.27722E+05 6.26187E-10-1.09935E-09
 -1       816-3.08545E+05-5.10921E+04-5.27562E+02-1.26028E+05 2.64663E-10 1.96305E-08
 -1       817-3.07166E+05-5.26175E+04-1.13225E+03-1.27711E+05-1.13037E-08 1.89966E-08
 -1       818-3.08476E+05-5.12519E+04-2.30940E+03-1.25953E+05-5.94173E-09 2.88082E-09
 -1       819-3.08430E+05-5.40127E+04-5.43387E+03-1.27411E+05-1.62236E-08-3.98245E-09
 -1       820-3.08041E+05-5.53567E+04-1.10599E+04-1.24200E+05-7.62248E-09-9.61813E-09
 -1       821-3.78108E+05 2.08240E+04-4.84500E+04 2.06020E+03 1.30755E-08 3.72165E-09
 -1       822-3.97866E+05-2.41221E+04-3.40684E+04-4.31339E+03 5.40575E-09 3.54248E-10
 -1       823-3.85601E+05 3.28141E+03-1.25164E+04 3.30902E+03-1.14661E-08 7.93398E-09
 -1       824-3.88839E+05-3.78481E+03-7.83741E+03-5.16817E+03 2.54336E-09 2.08934E-08
 -1       825-3.87141E+05 5.09975E+02-3.27852E+03 2.91509E+03 2.07973E-08 4.51178E-09
 -1       826-3.86470E+05-5.68457E+02-1.75385E+03-2.96507E+03 2.66462E-08-3.97097E-09
 -1       827-3.87947E+05 4.97772E+01-1.17524E+03 1.10578E+03 1.38413E-08-1.45369E-09
 -1       828-3.85806E+05-1.35574E+02-6.06853E+02 1.07198E+03 1.91250E-10 4.18789E-09
 -1       829-3.87793E+05 6.79120E+01-1.16569E+03-1.12199E+03 3.32858E-09-5.74329E-09
 -1       830-3.86804E+05-6.21123E+02-1.88865E+03 4.70946E+03 1.23822E-09-2.33058E-10
 -1       831-3.86969E+05 5.51727E+02-3.36177E+03-2.53171E+03-6.05892E-09 1.58002E-09
 -1       832-3.88920E+05-3.94955E+03-8.13959E+03 5.93200E+03-4.35937E-09-1.34014E-09
 -1       833-3.85692E+05 3.40496E+03-1.30180E+04-2.34458E+03-1.17605E-09 5.30235E-09
 -1       834-3.97943E+05-2.50339E+04-3.52925E+04 4.02936E+03-2.33521E-09 1.66565E-08
 -1       835-3.77931E+05 2.16043E+04-5.03156E+04-6.28992E+02 5.21536E-09-3.55431E-09
 -1       836-1.40672E+03 3.68747E+05 2.28075E+04-1.62570E+04-6.94854E-09 1.40735E-08
 -1       837 4.86416E+03 3.75890E+05 1.93009E+04-3.32004E+04-7.54181E-09 1.23898E-08
 -1       838-5.54810E+02 3.70749E+05 1.96673E+04-1.61854E+04-6.07997E-09 1.24808E-08
 -1       839 1.23803E+04 3.81487E+05 3.72065E+04-3.32525E+04-6.37374E-09 2.43695E-08
 -1       840-3.82608E+03 3.63090E+05 5.93315E+04-1.62104E+04-6.21003E-09 1.36034E-08
 -1       856-5.31638E+04 8.03925E+03-2.11852E+04-3.98764E+02 6.20287E-09 3.81715E-09
 -1       857-6.18922E+04-9.44537E+03-1.45837E+04 5.62612E+03 8.86780E-09-2.63219E-08
 -1       858-5.66202E+04 1.12739E+03-5.49707E+03-4.22970E+02 3.38008E-09-1.90782E-08
 -1       859-5.79255E+04-1.32587E+03-3.31728E+03 5.66220E+03-7.45885E-10-7.36640E-09
 -1       860-5.71366E+04 1.57858E+02-1.39036E+03-4.34590E+02 1.31348E-09-7.95865E-09
 -1       861-5.73315E+04-1.88004E+02-7.65046E+02 5.67804E+03-1.56706E-09-1.16296E-09
 -1       862-5.72174E+04 2.13678E+01-3.18383E+02-4.38784E+02-2.83120E-09-2.78840E-09
 -1       863-5.72326E+04-2.15304E+01-1.16804E+02 5.68046E+03-3.94783E-09 1.02187E-08
 -1       864-5.72360E+04-4.82975E+00 4.54274E+01-4.37012E+02-1.64857E-09-1.67503E-08
 -1       865-5.71772E+04 5.92582E+01 2.51572E+02 5.67038E+03-1.00397E-09-1.26288E-08
 -1       866-5.72705E+04-5.94541E+01 5.07939E+02-4.28708E+02-1.56598E-09-1.00038E-08
 -1       867-5.69380E+04 4.91060E+02 1.25087E+03 5.64783E+03 3.24434E-10-6.83693E-09
 -1       868-5.74703E+04-4.28877E+02 2.07871E+03-4.14460E+02 2.08212E-09 1.51658E-09
 -1       869-5.54138E+04 3.56931E+03 5.53516E+03 5.61069E+03 6.18917E-09-1.85265E-08
 -1       870-5.87870E+04-3.05416E+03 8.03269E+03-3.91472E+02-7.98843E-09-7.46422E-09
 -1       871-5.50879E+03-2.10773E+04-1.94122E+04 1.29866E+05-4.79668E-09 2.76668E-09
 -1       872-1.99011E+03-2.55873E+04-8.12444E+03 1.68391E+05-9.98989E-09-9.30049E-09
 -1       873 3.91694E+02-2.34082E+04 5.97161E+02 1.29581E+05-5.05315E-09-3.37354E-09
 -1       874 3.28258E+03-2.09985E+04 9.76275E+03 1.68420E+05-1.18280E-08 1.45308E-08
 -1       875 6.81961E+03-2.57336E+04 2.20164E+04 1.29819E+05-5.99903E-09 7.17409E-09
 -1       876 2.92998E+05 4.94026E+04 1.50697E+04 1.17605E+05 4.19163E-09 1.14233E-09
 -1       877 2.93992E+05 5.25787E+04 8.04782E+03 1.21930E+05 1.40190E-08 8.27583E-09
 -1       878 2.94408E+05 4.77334E+04 3.37164E+03 1.18840E+05-9.46466E-09-3.24530E-09
 -1       879 2.91944E+05 5.05344E+04 1.67996E+03 1.22032E+05-6.96036E-09 2.89310E-09
 -1       880 2.94509E+05 4.77161E+04 7.82497E+02 1.18890E+05-7.48651E-09-5.96935E-09
 -1       881 2.91808E+05 5.04470E+04 4.17873E+02 1.22009E+05-2.43983E-09 5.22012E-09
 -1       882 2.94518E+05 4.77293E+04 2.67339E+02 1.18892E+05-5.65478E-10 2.90103E-09
 -1       883 2.91798E+05 5.04424E+04 2.87417E+02 1.22001E+05-3.66390E-09 1.05213E-08
 -1       884 2.94511E+05 4.77266E+04 4.57226E+02 1.18892E+05-1.81376E-09-6.57553E-09
 -1       885 2.91835E+05 5.04487E+04 9.19285E+02 1.22012E+05-8.56431E-10-1.42483E-08
 -1       886 2.94476E+05 4.76997E+04 1.85278E+03 1.18888E+05-6.23253E-10 2.00705E-08
 -1       887 2.92160E+05 5.06623E+04 4.04715E+03 1.22059E+05 7.84905E-09 1.44241E-08
 -1       888 2.94220E+05 4.77448E+04 8.15511E+03 1.18759E+05 6.26670E-09 5.58157E-09
 -1       889 2.97015E+05 5.57111E+04 1.94810E+04 1.21910E+05 3.69049E-09 5.50244E-09
 -1       890 2.90891E+05 5.16985E+04 3.64875E+04 1.15655E+05 3.95221E-09 1.64091E-08
 -1       891-9.12705E+01-1.62418E+05-1.99110E+03 2.71617E+04-2.77669E-09-8.52879E-09
 -1       892-1.78207E+02-1.62943E+05-2.13877E+03 4.12426E+04 3.62411E-09 1.82661E-08
 -1       893 4.13746E+01-1.62482E+05-3.02856E+03 2.71691E+04-5.22050E-10-9.55242E-09
 -1       894-1.50986E+03-1.64087E+05-6.26819E+03 4.10901E+04 4.19095E-09-4.66707E-09
 -1       895-1.19872E+03-1.61176E+05-1.10383E+04 2.73159E+04-2.71530E-09-1.34696E-09
 -1       956-3.76096E+05-5.42965E+03-1.34115E+04 3.06361E+04 3.80987E-09 1.46003E-08
 -1       957-3.78728E+05-1.91275E+03-6.88391E+03 3.68188E+04 3.86990E-09-3.32930E-08
 -1       958-3.77301E+05-2.37048E+02-3.10210E+03 3.04691E+04-5.80076E-09 9.68475E-09
 -1       959-3.77497E+05-1.32158E+02-1.58399E+03 3.70132E+04-6.53017E-09 2.68687E-08
 -1       960-3.77418E+05-4.16781E+01-7.72428E+02 3.04520E+04-1.14596E-09-4.71618E-09
 -1       961-3.77417E+05-5.94575E+01-4.09541E+02 3.70335E+04 1.72386E-08 8.25958E-09
 -1       962-3.77446E+05-4.29727E+01-2.34478E+02 3.04491E+04-2.22144E-09-5.61681E-09
 -1       963-3.77417E+05-5.53184E+01-1.88241E+02 3.70372E+04-7.88259E-09-8.13361E-09
 -1       964-3.77451E+05-3.96327E+01-2.28924E+02 3.04483E+04-5.70738E-09-1.11588E-08
 -1       965-3.77430E+05-5.23366E+01-3.95951E+02 3.70365E+04 3.01952E-10 1.32377E-09
 -1       966-3.77435E+05-3.17518E+01-7.43975E+02 3.04498E+04 1.69666E-09 6.62567E-10
 -1       967-3.77519E+05-1.15594E+02-1.52588E+03 3.70222E+04 3.59250E-10-2.39966E-08
 -1       968-3.77332E+05-2.13577E+02-2.98712E+03 3.04624E+04 8.03084E-10-4.71482E-09
 -1       969-3.78716E+05-1.82527E+03-6.63134E+03 3.68750E+04 2.46655E-09 5.81056E-09
 -1       970-3.76179E+05-5.21171E+03-1.29182E+04 3.05888E+04-9.84073E-10 7.89805E-09
 -1       971-3.44580E+05-1.72511E+03-9.30454E+03 1.53657E+04 5.33510E-09-2.93438E-08
 -1       972-3.46820E+05-1.26913E+03-5.06715E+03 2.12569E+04 3.26736E-09-2.88037E-09
 -1       973-3.45616E+05-6.06318E+01-2.26962E+03 1.52444E+04 1.37152E-09-7.74935E-09
 -1       974-3.45752E+05-7.91026E+01-1.17648E+03 2.13940E+04 2.72576E-09 1.37118E-08
 -1       975-3.45698E+05-1.57743E+01-5.88508E+02 1.52321E+04 3.17914E-09-7.01675E-10
 -1       976-3.45690E+05-2.92781E+01-3.40297E+02 2.14098E+04 2.55909E-09 5.55247E-10
 -1       977-3.45715E+05-1.50262E+01-2.48366E+02 1.52287E+04-2.27283E-09 7.49276E-09
 -1       978-3.45696E+05-2.30546E+01-2.92524E+02 2.14146E+04-1.03191E-08 1.07492E-08
 -1       979-3.45714E+05-6.56489E+00-4.71616E+02 1.52272E+04-3.57585E-09 1.11545E-08
 -1       980-3.45731E+05-1.99977E+01-9.11648E+02 2.14156E+04-3.03697E-09 1.03848E-08
 -1       981-3.45685E+05 1.62192E+01-1.76618E+03 1.52278E+04 1.27716E-09-3.62070E-09
 -1       982-3.45974E+05-1.50505E+02-3.65097E+03 2.14090E+04 4.62387E-09-2.59462E-08
 -1       983-3.45463E+05-9.68837E+01-7.09401E+03 1.52338E+04-1.67711E-09 5.05997E-09
 -1       984-3.49386E+05-3.85551E+03-1.58868E+04 2.13233E+04-3.96994E-09 2.57139E-08
 -1       985-3.42251E+05-5.28785E+03-2.91731E+04 1.53056E+04-4.49882E-09 2.55568E-09
 -3
    1PSTEP                        35          18           1          
  100CL  118 6.62384E-01         409                     0   18           1
 -4  DISP        4    1
 -5  D1          1    2    1    0
 -5  D2          1    2    2    0
 -5  D3          1    2    3    0
 -5  ALL         1    2    0    0    1ALL
 -1         1 2.66655E-03 0.00000E+00 0.00000E+00
 -1         2 1.41034E-03 1.62806E-27 5.29396E-23
 -1         3 3.41980E-04-4.93639E-28 0.00000E+00
 -1         5 1.78457E-04-3.65109E-27 3.30872E-24
 -1         8 2.65466E-03-4.25308E-07 0.00000E+00
 -1         9 2.64755E-03-1.61659E-04 0.00000E+00
 -1        10 3.10332E-04-3.43780E-06-6.61744E-24
 -1        12 1.80251E-04 8.06707E-07 2.06795E-25
 -1        15 2.64090E-03-4.52459E-07 0.00000E+00
 -1        16 2.70294E-03-1.63323E-04 0.00000E+00
 -1        17 2.12085E-04-7.81897E-06 0.00000E+00
 -1        18 1.84048E-04 3.37276E-05 0.00000E+00
 -1        19 1.85637E-04 1.60713E-06 0.00000E+00
 -1        20 1.85778E-04-9.26925E-06 0.00000E+00
 -1        21 1.84890E-04-2.41305E-05 0.00000E+00
 -1        24 3.06434E-05-1.21123E-05 0.00000E+00
 -1        25 1.94574E-04 3.39521E-05 0.00000E+00
 -1        26 1.95261E-04 2.22565E-06 0.00000E+00
 -1        27 1.93067E-04-1.28187E-05 0.00000E+00
 -1        28 1.92747E-04-2.47518E-05 0.00000E+00
 -1        32 0.00000E+00 0.00000E+00 0.00000E+00
 -1        33 2.03873E-04 2.97750E-06 0.00000E+00
 -1        34 2.01760E-04-1.28741E-05 0.00000E+00
 -1        35 1.99831E-04-2.50934E-05 0.00000E+00
 -1        51 2.66576E-03-8.76025E-08 3.30872E-24
 -1        52 2.66431E-03-1.57255E-07 0.00000E+00
 -1        53 2.66233E-03-2.23623E-07 0.00000E+00
 -1        54 2.65997E-03-2.88937E-07 1.65436E-24
 -1        55 2.65737E-03-3.54938E-07 3.30872E-24
 -1        56 2.66022E-03 5.21612E-06-5.29396E-23
 -1        57 2.64904E-03 2.24919E-05 5.29396E-23
 -1        58 2.63462E-03 4.78963E-05 0.00000E+00
 -1        59 2.61880E-03 7.66991E-05-5.29396E-23
 -1        60 2.60374E-03 1.03598E-04 1.05879E-22
 -1        61 2.59152E-03 1.23444E-04 0.00000E+00
 -1        62 2.58358E-03 1.32344E-04 0.00000E+00
 -1        63 2.58090E-03 1.27374E-04 0.00000E+00
 -1        64 2.58340E-03 1.08123E-04 0.00000E+00
 -1        65 2.59057E-03 7.54967E-05 0.00000E+00
 -1        66 2.60111E-03 3.28786E-05 1.05879E-22
 -1        67 2.61351E-03-1.53998E-05 0.00000E+00
 -1        68 2.62600E-03-6.39424E-05 0.00000E+00
 -1        69 2.63682E-03-1.07321E-04-5.29396E-23
 -1        70 2.64441E-03-1.41087E-04-5.29396E-23
 -1        86 1.48806E-03-5.25798E-06 5.29396E-23
 -1        87 1.71369E-03-3.23933E-05-1.32349E-23
 -1        88 2.01699E-03-7.87979E-05 2.64698E-23
 -1        89 2.32396E-03-1.26348E-04 0.00000E+00
 -1        90 2.55855E-03-1.55438E-04-5.29396E-23
 -1       121 3.41091E-04-5.55563E-07-1.32349E-23
 -1       122 3.38428E-04-1.11416E-06 0.00000E+00
 -1       123 3.34001E-04-1.67876E-06-1.32349E-23
 -1       124 3.27826E-04-2.25236E-06 0.00000E+00
 -1       125 3.19927E-04-2.83756E-06 1.32349E-23
 -1       191 1.78506E-04 1.34512E-07-2.06795E-24
 -1       192 1.78656E-04 2.69012E-07 6.20385E-25
 -1       193 1.78905E-04 4.03494E-07 4.13590E-25
 -1       194 1.79254E-04 5.37946E-07-1.44757E-24
 -1       195 1.79703E-04 6.72354E-07 1.65436E-24
 -1       251 2.65432E-03 2.31832E-06 0.00000E+00
 -1       252 2.65396E-03 5.85745E-06-3.30872E-24
 -1       253 2.65360E-03 8.99570E-06 0.00000E+00
 -1       254 2.65325E-03 1.05423E-05-6.61744E-24
 -1       255 2.65290E-03 9.58305E-06 0.00000E+00
 -1       256 2.65253E-03 5.24018E-06-6.61744E-24
 -1       257 2.65215E-03-2.77673E-06 0.00000E+00
 -1       258 2.65173E-03-1.47049E-05-6.61744E-24
 -1       259 2.65126E-03-3.01032E-05 0.00000E+00
 -1       260 2.65075E-03-4.84798E-05 0.00000E+00
 -1       261 2.65019E-03-6.88259E-05 0.00000E+00
 -1       262 2.64962E-03-9.01048E-05 6.61744E-24
 -1       263 2.64906E-03-1.11117E-04-1.32349E-23
 -1       264 2.64852E-03-1.30668E-04-6.61744E-24
 -1       265 2.64802E-03-1.47818E-04 0.00000E+00
 -1       266 2.65237E-03-4.35825E-07 3.30872E-24
 -1       267 2.65007E-03-4.39620E-07 0.00000E+00
 -1       268 2.64778E-03-4.43840E-07-8.27181E-25
 -1       269 2.64549E-03-4.46800E-07 0.00000E+00
 -1       270 2.64319E-03-4.49730E-07-2.06795E-25
 -1       271 2.65361E-03 4.78867E-07-1.32349E-23
 -1       272 2.65338E-03-8.53099E-07-6.61744E-24
 -1       273 2.65394E-03-4.30078E-06 0.00000E+00
 -1       274 2.65523E-03-9.73421E-06 0.00000E+00
 -1       275 2.65719E-03-1.70040E-05 2.64698E-23
 -1       276 2.65977E-03-2.59469E-05-1.32349E-23
 -1       277 2.66289E-03-3.63848E-05 0.00000E+00
 -1       278 2.66649E-03-4.81270E-05 1.32349E-23
 -1       279 2.67048E-03-6.09722E-05 0.00000E+00
 -1       280 2.67480E-03-7.47092E-05 0.00000E+00
 -1       281 2.67936E-03-8.91193E-05 0.00000E+00
 -1       282 2.68408E-03-1.03979E-04 0.00000E+00
 -1       283 2.68888E-03-1.19059E-04 0.00000E+00
 -1       284 2.69368E-03-1.34129E-04-6.61744E-24
 -1       285 2.69839E-03-1.48961E-04-1.32349E-23
 -1       301 2.65761E-03-1.61967E-04 6.61744E-24
 -1       302 2.66614E-03-1.62233E-04-3.30872E-24
 -1       303 2.67404E-03-1.62490E-04 0.00000E+00
 -1       304 2.68220E-03-1.62748E-04 0.00000E+00
 -1       305 2.69154E-03-1.63019E-04-2.64698E-23
 -1       306 2.68488E-03-3.13439E-04-1.05879E-22
 -1       307 2.74887E-03-7.23385E-04-5.29396E-23
 -1       308 2.79639E-03-1.32432E-03-1.05879E-22
 -1       309 2.82125E-03-2.02129E-03 0.00000E+00
 -1       310 2.85308E-03-2.68945E-03-1.05879E-22
 -1       311 2.91254E-03-3.20649E-03 0.00000E+00
 -1       312 2.97079E-03-3.49200E-03 1.05879E-22
 -1       313 2.96813E-03-3.50740E-03-5.29396E-23
 -1       314 2.83166E-03-3.26390E-03-1.05879E-22
 -1       315 2.52041E-03-2.82461E-03 0.00000E+00
 -1       316 2.05188E-03-2.26555E-03-1.05879E-22
 -1       317 1.49062E-03-1.65601E-03 0.00000E+00
 -1       318 9.49492E-04-1.05711E-03 0.00000E+00
 -1       319 5.35369E-04-5.34010E-04-1.05879E-22
 -1       320 2.91912E-04-1.60279E-04-1.05879E-22
 -1       336 2.98859E-04-4.10100E-06 1.32349E-23
 -1       337 2.85331E-04-4.78939E-06-6.61744E-24
 -1       338 2.69812E-04-5.50509E-06 0.00000E+00
 -1       339 2.52375E-04-6.24886E-06 6.61744E-24
 -1       340 2.33102E-04-7.02509E-06 1.32349E-23
 -1       406 1.80900E-04 9.40987E-07-4.13590E-25
 -1       407 1.81648E-04 1.07516E-06-8.27181E-25
 -1       408 1.82496E-04 1.20917E-06-2.48154E-24
 -1       409 1.83443E-04 1.34284E-06-1.03398E-24
 -1       410 1.84491E-04 1.47591E-06 2.48154E-24
 -1       521 2.74091E-03-3.24381E-04 0.00000E+00
 -1       522 2.80322E-03-7.54229E-04 5.29396E-23
 -1       523 2.84454E-03-1.38236E-03 0.00000E+00
 -1       524 2.86051E-03-2.10724E-03 0.00000E+00
 -1       525 2.88467E-03-2.80136E-03 1.05879E-22
 -1       526 2.94062E-03-3.34001E-03 0.00000E+00
 -1       527 2.99845E-03-3.63611E-03 0.00000E+00
 -1       528 2.99368E-03-3.65011E-03 5.29396E-23
 -1       529 2.84585E-03-3.39309E-03 0.00000E+00
 -1       530 2.51173E-03-2.93582E-03 0.00000E+00
 -1       531 2.00950E-03-2.35795E-03 0.00000E+00
 -1       532 1.40988E-03-1.73141E-03-5.29396E-23
 -1       533 8.30856E-04-1.11484E-03 1.05879E-22
 -1       534 3.84270E-04-5.71149E-04 0.00000E+00
 -1       535 1.19953E-04-1.78069E-04 0.00000E+00
 -1       536 2.11343E-04 2.67428E-05 6.61744E-24
 -1       537 2.09460E-04 8.65719E-05-1.65436E-24
 -1       538 2.06553E-04 1.62490E-04-3.30872E-24
 -1       539 2.03125E-04 2.45235E-04-1.65436E-24
 -1       540 2.00040E-04 3.23422E-04 0.00000E+00
 -1       541 1.98033E-04 3.85688E-04 0.00000E+00
 -1       542 1.97106E-04 4.25339E-04-3.30872E-24
 -1       543 1.96883E-04 4.35831E-04 0.00000E+00
 -1       544 1.96564E-04 4.17933E-04 0.00000E+00
 -1       545 1.95411E-04 3.72634E-04 0.00000E+00
 -1       546 1.93264E-04 3.07987E-04 0.00000E+00
 -1       547 1.90361E-04 2.32165E-04 1.65436E-24
 -1       548 1.87485E-04 1.56725E-04 3.30872E-24
 -1       549 1.85410E-04 9.32238E-05 1.65436E-24
 -1       550 1.84331E-04 4.96148E-05 0.00000E+00
 -1       551 1.86997E-04-8.39436E-06 0.00000E+00
 -1       552 1.58502E-04-9.05401E-06 0.00000E+00
 -1       553 1.27601E-04-9.77881E-06-9.92617E-24
 -1       554 9.53118E-05-1.05463E-05-3.30872E-24
 -1       555 6.26548E-05-1.13270E-05 0.00000E+00
 -1       556 2.04522E-04 1.15235E-05 0.00000E+00
 -1       557 1.98414E-04 2.72045E-05 2.64698E-23
 -1       558 1.93627E-04 3.95098E-05 0.00000E+00
 -1       559 1.90031E-04 4.87476E-05-2.64698E-23
 -1       560 1.87496E-04 5.52262E-05 0.00000E+00
 -1       561 1.85894E-04 5.92566E-05 0.00000E+00
 -1       562 1.85103E-04 6.11511E-05 0.00000E+00
 -1       563 1.84998E-04 6.12228E-05 0.00000E+00
 -1       564 1.85460E-04 5.97856E-05 0.00000E+00
 -1       565 1.86367E-04 5.71543E-05 0.00000E+00
 -1       566 1.87602E-04 5.36440E-05 0.00000E+00
 -1       567 1.89047E-04 4.95704E-05 0.00000E+00
 -1       568 1.90583E-04 4.52491E-05 0.00000E+00
 -1       569 1.92094E-04 4.09958E-05 0.00000E+00
 -1       570 1.93463E-04 3.71265E-05 0.00000E+00
 -1       571 1.84144E-04 3.16440E-05 0.00000E+00
 -1       572 1.84243E-04 2.94951E-05 8.27181E-25
 -1       573 1.84341E-04 2.72963E-05-1.65436E-24
 -1       574 1.84441E-04 2.50639E-05 0.00000E+00
 -1       575 1.84540E-04 2.28143E-05-3.30872E-24
 -1       576 1.84639E-04 2.05636E-05 1.65436E-24
 -1       577 1.84738E-04 1.83285E-05 0.00000E+00
 -1       578 1.84838E-04 1.61251E-05 0.00000E+00
 -1       579 1.84937E-04 1.39700E-05 0.00000E+00
 -1       580 1.85037E-04 1.18795E-05 0.00000E+00
 -1       581 1.85136E-04 9.87007E-06 0.00000E+00
 -1       582 1.85236E-04 7.95799E-06 0.00000E+00
 -1       583 1.85336E-04 6.15966E-06 0.00000E+00
 -1       584 1.85436E-04 4.49128E-06 0.00000E+00
 -1       585 1.85537E-04 2.96888E-06 0.00000E+00
 -1       586 1.85761E-04 3.37671E-05 1.65436E-24
 -1       587 1.87433E-04 3.38061E-05 4.13590E-25
 -1       588 1.89107E-04 3.38447E-05 0.00000E+00
 -1       589 1.90827E-04 3.38827E-05 0.00000E+00
 -1       590 1.92635E-04 3.39194E-05 0.00000E+00
 -1       591 1.84761E-04 3.17368E-05 2.06795E-25
 -1       592 1.85478E-04 2.97257E-05 0.00000E+00
 -1       593 1.86199E-04 2.77004E-05 0.00000E+00
 -1       594 1.86924E-04 2.56654E-05 0.00000E+00
 -1       595 1.87651E-04 2.36257E-05 8.27181E-25
 -1       596 1.88377E-04 2.15859E-05 0.00000E+00
 -1       597 1.89102E-04 1.95508E-05 0.00000E+00
 -1       598 1.89823E-04 1.75250E-05 0.00000E+00
 -1       599 1.90538E-04 1.55134E-05-8.27181E-25
 -1       600 1.91247E-04 1.35206E-05-4.13590E-25
 -1       601 1.91947E-04 1.15514E-05-8.27181E-25
 -1       602 1.92637E-04 9.61048E-06 0.00000E+00
 -1       603 1.93314E-04 7.70256E-06-4.13590E-25
 -1       604 1.93978E-04 5.83248E-06 1.80946E-25
 -1       605 1.94626E-04 4.00488E-06 0.00000E+00
 -1       606 1.85650E-04 4.77767E-07-3.30872E-24
 -1       607 1.85660E-04-5.65203E-07 0.00000E+00
 -1       608 1.85669E-04-1.52685E-06 3.30872E-24
 -1       609 1.85677E-04-2.41288E-06 0.00000E+00
 -1       610 1.85686E-04-3.22908E-06 0.00000E+00
 -1       611 1.85694E-04-3.98128E-06 0.00000E+00
 -1       612 1.85703E-04-4.67531E-06 0.00000E+00
 -1       613 1.85711E-04-5.31704E-06 0.00000E+00
 -1       614 1.85719E-04-5.91229E-06 0.00000E+00
 -1       615 1.85728E-04-6.46692E-06 0.00000E+00
 -1       616 1.85736E-04-6.98679E-06 0.00000E+00
 -1       617 1.85745E-04-7.47773E-06 4.13590E-25
 -1       618 1.85753E-04-7.94560E-06-8.27181E-25
 -1       619 1.85762E-04-8.39625E-06 0.00000E+00
 -1       620 1.85770E-04-8.83552E-06-2.06795E-25
 -1       621 1.86959E-04 1.71077E-06 3.30872E-24
 -1       622 1.88438E-04 1.81466E-06 8.27181E-25
 -1       623 1.90041E-04 1.91834E-06 1.65436E-24
 -1       624 1.91734E-04 2.02170E-06-8.27181E-25
 -1       625 1.93485E-04 2.12477E-06 0.00000E+00
 -1       626 1.86172E-04 5.13767E-07 0.00000E+00
 -1       627 1.86685E-04-5.15946E-07 0.00000E+00
 -1       628 1.87176E-04-1.48988E-06 0.00000E+00
 -1       629 1.87650E-04-2.41622E-06 1.65436E-24
 -1       630 1.88110E-04-3.30321E-06-3.30872E-24
 -1       631 1.88557E-04-4.15907E-06 1.65436E-24
 -1       632 1.88996E-04-4.99203E-06-3.30872E-24
 -1       633 1.89430E-04-5.81036E-06-1.65436E-24
 -1       634 1.89861E-04-6.62227E-06 0.00000E+00
 -1       635 1.90293E-04-7.43601E-06 0.00000E+00
 -1       636 1.90729E-04-8.25982E-06 0.00000E+00
 -1       637 1.91172E-04-9.10195E-06 0.00000E+00
 -1       638 1.91624E-04-9.97063E-06-3.30872E-24
 -1       639 1.92089E-04-1.08741E-05-1.65436E-24
 -1       640 1.92570E-04-1.18207E-05 3.30872E-24
 -1       656 1.86444E-04-9.84617E-06 0.00000E+00
 -1       657 1.87531E-04-1.04465E-05 6.61744E-24
 -1       658 1.88899E-04-1.10455E-05-1.32349E-23
 -1       659 1.90400E-04-1.16441E-05 6.61744E-24
 -1       660 1.91851E-04-1.22446E-05 0.00000E+00
 -1       661 1.86027E-04-9.74785E-06 8.27181E-25
 -1       662 1.86314E-04-1.03179E-05 0.00000E+00
 -1       663 1.86634E-04-1.09742E-05 1.65436E-24
 -1       664 1.86984E-04-1.17103E-05 0.00000E+00
 -1       665 1.87361E-04-1.25204E-05 1.65436E-24
 -1       666 1.87764E-04-1.33986E-05 0.00000E+00
 -1       667 1.88191E-04-1.43394E-05 0.00000E+00
 -1       668 1.88638E-04-1.53372E-05 0.00000E+00
 -1       669 1.89106E-04-1.63867E-05 1.65436E-24
 -1       670 1.89590E-04-1.74825E-05 0.00000E+00
 -1       671 1.90090E-04-1.86196E-05-1.65436E-24
 -1       672 1.90603E-04-1.97929E-05 0.00000E+00
 -1       673 1.91128E-04-2.09974E-05-1.65436E-24
 -1       674 1.91661E-04-2.22285E-05 0.00000E+00
 -1       675 1.92204E-04-2.34809E-05 4.13590E-25
 -1       676 1.86204E-04-2.42347E-05 3.30872E-24
 -1       677 1.87517E-04-2.43388E-05 0.00000E+00
 -1       678 1.88829E-04-2.44428E-05-3.30872E-24
 -1       679 1.90138E-04-2.45466E-05 1.65436E-24
 -1       680 1.91445E-04-2.46503E-05 3.30872E-24
 -1       771 1.86783E-05 1.46486E-05-5.29396E-23
 -1       772 8.61287E-06 3.66287E-05 5.29396E-23
 -1       773 3.55505E-07 5.40582E-05 5.29396E-23
 -1       774-6.21827E-06 6.71956E-05 0.00000E+00
 -1       775-1.12303E-05 7.63093E-05-5.29396E-23
 -1       776-1.48074E-05 8.16850E-05 2.64698E-23
 -1       777-1.70761E-05 8.36181E-05-5.29396E-23
 -1       778-1.81654E-05 8.24181E-05 0.00000E+00
 -1       779-1.82037E-05 7.84030E-05 5.29396E-23
 -1       780-1.73216E-05 7.19022E-05-2.64698E-23
 -1       781-1.56486E-05 6.32517E-05-5.29396E-23
 -1       782-1.33158E-05 5.27966E-05-2.64698E-23
 -1       783-1.04533E-05 4.08865E-05 5.29396E-23
 -1       784-7.19261E-06 2.78774E-05-2.64698E-23
 -1       785-3.66411E-06 1.41281E-05-5.29396E-23
 -1       786 1.94613E-04 3.17424E-05-1.29247E-26
 -1       787 1.94655E-04 2.95825E-05-4.13590E-25
 -1       788 1.94697E-04 2.74642E-05 8.27181E-25
 -1       789 1.94740E-04 2.53793E-05 8.27181E-25
 -1       790 1.94783E-04 2.33232E-05 0.00000E+00
 -1       791 1.94826E-04 2.12910E-05-8.27181E-25
 -1       792 1.94869E-04 1.92806E-05 0.00000E+00
 -1       793 1.94912E-04 1.72897E-05-8.27181E-25
 -1       794 1.94956E-04 1.53183E-05-1.65436E-24
 -1       795 1.94999E-04 1.33662E-05 0.00000E+00
 -1       796 1.95042E-04 1.14352E-05-1.65436E-24
 -1       797 1.95086E-04 9.52730E-06-8.27181E-25
 -1       798 1.95129E-04 7.64674E-06 0.00000E+00
 -1       799 1.95173E-04 5.79787E-06 0.00000E+00
 -1       800 1.95217E-04 3.98828E-06 0.00000E+00
 -1       801 1.49287E-04 3.05105E-05 0.00000E+00
 -1       802 1.23159E-05 1.90270E-05 2.64698E-23
 -1       803-1.05092E-04 9.55985E-06 0.00000E+00
 -1       804-9.39966E-05 6.64217E-06 2.64698E-23
 -1       805-3.12276E-05 2.63487E-06 0.00000E+00
 -1       806 1.95288E-04 3.16738E-05 0.00000E+00
 -1       807 1.95988E-04 2.94216E-05-1.65436E-24
 -1       808 1.96675E-04 2.72006E-05 0.00000E+00
 -1       809 1.97349E-04 2.50151E-05 1.65436E-24
 -1       810 1.98008E-04 2.28689E-05 0.00000E+00
 -1       811 1.98651E-04 2.07660E-05-1.65436E-24
 -1       812 1.99276E-04 1.87103E-05 0.00000E+00
 -1       813 1.99882E-04 1.67059E-05 0.00000E+00
 -1       814 2.00467E-04 1.47564E-05-3.30872E-24
 -1       815 2.01031E-04 1.28659E-05 8.27181E-25
 -1       816 2.01571E-04 1.10382E-05 0.00000E+00
 -1       817 2.02086E-04 9.27725E-06 0.00000E+00
 -1       818 2.02575E-04 7.58684E-06 0.00000E+00
 -1       819 2.03036E-04 5.97088E-06 8.27181E-25
 -1       820 2.03469E-04 4.43318E-06-1.65436E-24
 -1       821 1.95132E-04-7.49554E-08 0.00000E+00
 -1       822 1.94992E-04-3.49315E-06 0.00000E+00
 -1       823 1.94851E-04-7.61210E-06-3.30872E-24
 -1       824 1.94706E-04-1.20106E-05 0.00000E+00
 -1       825 1.94563E-04-1.61920E-05 3.30872E-24
 -1       826 1.94422E-04-1.96608E-05 0.00000E+00
 -1       827 1.94283E-04-2.21155E-05 0.00000E+00
 -1       828 1.94147E-04-2.32607E-05-1.65436E-24
 -1       829 1.94012E-04-2.31568E-05 0.00000E+00
 -1       830 1.93876E-04-2.18719E-05 1.65436E-24
 -1       831 1.93738E-04-1.97952E-05 0.00000E+00
 -1       832 1.93600E-04-1.73207E-05 0.00000E+00
 -1       833 1.93463E-04-1.49505E-05 3.30872E-24
 -1       834 1.93328E-04-1.31861E-05 1.65436E-24
 -1       835 1.93193E-04-1.23650E-05 8.27181E-25
 -1       836 1.96908E-04 2.35034E-06 0.00000E+00
 -1       837 1.98428E-04 2.47816E-06 0.00000E+00
 -1       838 1.99853E-04 2.60592E-06 0.00000E+00
 -1       839 2.01214E-04 2.73297E-06-8.27181E-25
 -1       840 2.02543E-04 2.85986E-06 0.00000E+00
 -1       856 1.93051E-04-1.38391E-05 8.27181E-25
 -1       857 1.93031E-04-1.47239E-05 0.00000E+00
 -1       858 1.93012E-04-1.54942E-05-4.13590E-25
 -1       859 1.92992E-04-1.61710E-05 0.00000E+00
 -1       860 1.92972E-04-1.67756E-05 0.00000E+00
 -1       861 1.92952E-04-1.73294E-05 0.00000E+00
 -1       862 1.92932E-04-1.78535E-05 4.13590E-25
 -1       863 1.92912E-04-1.83693E-05-4.13590E-25
 -1       864 1.92892E-04-1.88982E-05-8.27181E-25
 -1       865 1.92871E-04-1.94615E-05 0.00000E+00
 -1       866 1.92851E-04-2.00804E-05 0.00000E+00
 -1       867 1.92831E-04-2.07762E-05-4.13590E-25
 -1       868 1.92811E-04-2.15702E-05 0.00000E+00
 -1       869 1.92790E-04-2.24835E-05-4.13590E-25
 -1       870 1.92769E-04-2.35370E-05 8.27181E-25
 -1       871 1.94375E-04-1.28235E-05-8.27181E-25
 -1       872 1.95829E-04-1.28317E-05 0.00000E+00
 -1       873 1.97363E-04-1.28406E-05 0.00000E+00
 -1       874 1.98908E-04-1.28503E-05 4.13590E-25
 -1       875 2.00396E-04-1.28605E-05-6.20385E-25
 -1       876 1.93577E-04-1.38246E-05 0.00000E+00
 -1       877 1.94064E-04-1.47638E-05-1.65436E-24
 -1       878 1.94530E-04-1.56441E-05-3.30872E-24
 -1       879 1.94977E-04-1.64731E-05 1.65436E-24
 -1       880 1.95407E-04-1.72581E-05-3.30872E-24
 -1       881 1.95824E-04-1.80065E-05 1.65436E-24
 -1       882 1.96230E-04-1.87256E-05 0.00000E+00
 -1       883 1.96628E-04-1.94227E-05-1.65436E-24
 -1       884 1.97020E-04-2.01053E-05 0.00000E+00
 -1       885 1.97409E-04-2.07806E-05-1.65436E-24
 -1       886 1.97799E-04-2.14559E-05 0.00000E+00
 -1       887 1.98191E-04-2.21387E-05 1.65436E-24
 -1       888 1.98588E-04-2.28362E-05-3.30872E-24
 -1       889 1.98993E-04-2.35560E-05 0.00000E+00
 -1       890 1.99408E-04-2.43053E-05-1.65436E-24
 -1       891 1.94070E-04-2.48092E-05 1.65436E-24
 -1       892 1.95370E-04-2.48667E-05 8.27181E-25
 -1       893 1.96621E-04-2.49242E-05-1.65436E-24
 -1       894 1.97798E-04-2.49814E-05-4.13590E-25
 -1       895 1.98876E-04-2.50383E-05-4.13590E-25
 -1       956 2.03743E-04 1.69580E-06 1.65436E-24
 -1       957 2.03611E-04 5.05240E-07 0.00000E+00
 -1       958 2.03478E-04-6.04844E-07 0.00000E+00
 -1       959 2.03346E-04-1.64573E-06 0.00000E+00
 -1       960 2.03213E-04-2.62875E-06 0.00000E+00
 -1       961 2.03081E-04-3.56525E-06-1.65436E-24
 -1       962 2.02949E-04-4.46659E-06 0.00000E+00
 -1       963 2.02816E-04-5.34418E-06 0.00000E+00
 -1       964 2.02684E-04-6.20938E-06 3.30872E-24
 -1       965 2.02551E-04-7.07357E-06 1.65436E-24
 -1       966 2.02419E-04-7.94816E-06 0.00000E+00
 -1       967 2.02286E-04-8.84450E-06 0.00000E+00
 -1       968 2.02154E-04-9.77398E-06-6.61744E-24
 -1       969 2.02022E-04-1.07479E-05-3.30872E-24
 -1       970 2.01890E-04-1.17777E-05-3.30872E-24
 -1       971 2.01640E-04-1.39697E-05-3.30872E-24
 -1       972 2.01519E-04-1.49706E-05 0.00000E+00
 -1       973 2.01398E-04-1.58873E-05 3.30872E-24
 -1       974 2.01277E-04-1.67307E-05-1.65436E-24
 -1       975 2.01156E-04-1.75116E-05 0.00000E+00
 -1       976 2.01034E-04-1.82409E-05 1.65436E-24
 -1       977 2.00913E-04-1.89294E-05 0.00000E+00
 -1       978 2.00792E-04-1.95882E-05 1.65436E-24
 -1       979 2.00671E-04-2.02280E-05 0.00000E+00
 -1       980 2.00550E-04-2.08598E-05 0.00000E+00
 -1       981 2.00429E-04-2.14945E-05 3.30872E-24
 -1       982 2.00308E-04-2.21431E-05 0.00000E+00
 -1       983 2.00187E-04-2.28164E-05 0.00000E+00
 -1       984 2.00067E-04-2.35254E-05-1.65436E-24
 -1       985 1.99947E-04-2.42808E-05 3.30872E-24
 -3
    1PSTEP                        36          18           1          
  100CL  118 6.62384E-01         409                     0   18           1
 -4  STRESS      6    1
 -5  SXX         1    4    1    1
 -5  SYY         1    4    2    2
 -5  SZZ         1    4    3    3
 -5  SXY         1    4    1    2
 -5  SYZ         1    4    2    3
 -5  SZX         1    4    3    1
 -1         1-5.24563E+06-1.67865E+06-1.12386E+06-1.48353E+06-8.00355E-10 6.02449E-09
 -1         2 1.19753E+06 1.76388E+07 4.21883E+06 5.29653E+06 2.63390E-08 8.76607E-08
 -1         3-1.45900E+03-1.57771E+06 4.08157E+02-2.21729E+03-6.12644E-10-4.22733E-08
 -1         5-7.11766E+01 3.85171E+05 9.95256E+00-1.29725E+00-3.76539E-10-2.42981E-08
 -1         8-6.19874E+05-2.16125E+05-7.24368E+04-2.58134E+05 9.82254E-11 1.18427E-07
 -1         9 1.13392E+07 3.06398E+06 2.57257E+06-5.01128E+05 6.64731E-09 1.66195E-07
 -1        10-2.28788E+03-1.64411E+06-3.96389E+03-1.49988E+04-1.34387E-08-1.82249E-08
 -1        12-6.72593E+01 3.85192E+05 3.26903E+02-8.85802E+00-6.14904E-10 1.51886E-08
 -1        15 9.92748E+02 5.45564E+02 3.20903E+03 9.84821E-01-1.42890E-10 4.49608E-07
 -1        16 2.25024E+07-2.88439E+05 3.07687E+06-2.13343E+06 2.01593E-08 5.40788E-07
 -1        17 8.21884E+06 6.14142E+06 2.22063E+06 5.88254E+06 4.60248E-08 4.20376E-08
 -1        18 1.38643E+05 3.25015E+04 3.35645E+03-1.18826E+05 1.57661E-08 7.27596E-11
 -1        19 1.22057E+05 1.41261E+05-9.40887E+02 2.19481E+04 1.68693E-09-4.80650E-09
 -1        20-8.12804E+04-5.72138E+05-1.28352E+05 2.52984E+04-2.54431E-09-7.31537E-09
 -1        21-4.56360E+01-2.95753E+05-9.23687E+02 2.66568E+02 1.72365E-08 2.60678E-09
 -1        24 1.36941E+07 1.18006E+07 3.80407E+06 1.09145E+07-1.20286E-07-5.89644E-08
 -1        25 1.20647E+05 2.51736E+05 9.59863E+04-6.29475E+05 2.93767E-10-9.53096E-09
 -1        26-5.50510E+04 9.20235E+04-2.45389E+04 1.11049E+03-9.31323E-11 7.89976E-09
 -1        27-7.56355E+04-3.09177E+05-1.13080E+05 6.88178E+04 3.81700E-09-1.06362E-08
 -1        28 2.22355E+04-8.52153E+04 1.68807E+04 2.06837E+04-1.17390E-09-6.40672E-09
 -1        32-1.67811E+06-3.17096E+06-1.95823E+05 4.24693E+05-4.27463E-08-7.44126E-09
 -1        33-1.78072E+05 9.27030E+04 3.22997E+04-3.85243E+04-3.03423E-09 1.59628E-08
 -1        34-2.23158E+05-2.49299E+04 6.85946E+02 7.53942E+04-4.69753E-09-1.91176E-09
 -1        35-2.29176E+04-3.37952E+04-1.34613E+03 5.14538E+04-2.85052E-09 8.59291E-09
 -1        51 5.92247E+04-1.79836E+05 1.25590E+05-4.72762E+05-5.82077E-11 3.71947E-08
 -1        52 2.02204E+04-1.58122E+05 6.61489E+04-5.51332E+05-8.73115E-11 3.19415E-08
 -1        53 4.33129E+03-1.73530E+05 3.48549E+04-4.71113E+05 6.18456E-11-1.05356E-08
 -1        54 8.02643E+03-1.69361E+05 2.94578E+04-5.52969E+05-3.63798E-12-4.91873E-08
 -1        55 1.74098E+04-1.76799E+05 3.67919E+04-4.70985E+05 3.89264E-10 2.67704E-07
 -1        56-9.59356E+06-1.23392E+06-8.62466E+05-3.91397E+06-3.36731E-08 9.68867E-08
 -1        57-1.06426E+07-1.12710E+06-5.53481E+05-2.96385E+06 4.77303E-09 3.57162E-07
 -1        58-9.56046E+06-1.63064E+06-1.96332E+05-4.02035E+06-2.61934E-08 3.66854E-08
 -1        59-1.06330E+07-6.90909E+05-1.12358E+05-2.92673E+06-1.41385E-08-3.58006E-07
 -1        60-9.63216E+06-1.63908E+06-5.10070E+04-3.97889E+06-1.53923E-08-2.16511E-07
 -1        61-1.02503E+07-8.93654E+05-7.20887E+03-3.13271E+06 4.77448E-08 4.29718E-08
 -1        62-9.88162E+06-1.46860E+06-4.03445E+04-3.76767E+06-1.98852E-08 1.58921E-07
 -1        63-9.71415E+06-1.34578E+06 1.79974E+04-3.61040E+06 3.92465E-08 6.77828E-08
 -1        64-1.01236E+07-1.21845E+06-3.68658E+04-3.47176E+06-1.44064E-08-2.54533E-07
 -1        65-9.41426E+06-1.75020E+06-7.61067E+03-4.16634E+06 9.50240E-09-2.10389E-07
 -1        66-1.02367E+07-1.02600E+06-4.35534E+04-3.25271E+06-5.59885E-08 1.54707E-07
 -1        67-9.37360E+06-1.94526E+06-1.01369E+05-4.42127E+06-1.82335E-08 2.89147E-07
 -1        68-1.02184E+07-9.86654E+05-1.79459E+05-3.25194E+06-6.35581E-08 1.78406E-07
 -1        69-9.60088E+06-2.08955E+06-4.95696E+05-4.13396E+06-7.58109E-09-2.79018E-07
 -1        70-9.96317E+06-9.24652E+05-7.84654E+05-3.50556E+06 2.01326E-08-5.84987E-08
 -1        86-1.22038E+06-1.34663E+07-2.30556E+06-2.50030E+06-2.45236E-07-3.42698E-08
 -1        87 1.87262E+06 4.80685E+06 1.91874E+06 4.83797E+06-4.13122E-07 6.02436E-08
 -1        88-3.29394E+05-2.18861E+06 1.75055E+05-2.27668E+06-3.78275E-07-2.29418E-07
 -1        89 2.51339E+06 4.58827E+06 1.96108E+06 4.98360E+06-5.48622E-07-3.21281E-07
 -1        90-1.79264E+06-1.33053E+07-2.50023E+06-2.66492E+06-1.25816E-07 2.15587E-07
 -1       121-2.00009E+03-1.58253E+06-5.24915E+02 1.09928E+03 1.48579E-09-9.57516E-09
 -1       122-1.27223E+03-1.57777E+06 7.77309E+02-4.43784E+03-5.18544E-09 1.58179E-08
 -1       123-2.02144E+03-1.58266E+06 2.94947E+02 3.28284E+03 3.86865E-09-3.07991E-08
 -1       124 3.80749E+02-1.57731E+06 2.98926E+03-9.27953E+03-1.06629E-08-2.97514E-08
 -1       125-2.84310E+03-1.58357E+06 3.54265E+03 5.89656E+03 6.63385E-09-1.17288E-08
 -1       191-7.50241E+01 3.85190E+05 8.65815E+00 6.75088E-01-5.37062E-10-5.54974E-09
 -1       192-7.21348E+01 3.85172E+05 2.12290E+01-4.17212E+00-8.30130E-10-1.98215E-08
 -1       193-7.75477E+01 3.85190E+05 3.63307E+01 3.65921E+00-1.11673E-09-5.11682E-09
 -1       194-7.52075E+01 3.85175E+05 8.06801E+01-9.47085E+00-6.26535E-10 9.87438E-09
 -1       195-8.23918E+01 3.85187E+05 1.54652E+02 6.15275E+00-1.43388E-09 4.13638E-09
 -1       251-9.98860E+05 2.00491E+04-4.71541E+04-1.73356E+04-3.74655E-09-1.59034E-08
 -1       252-1.01784E+06-2.31125E+04-3.29807E+04 5.87502E+04 5.16295E-09-9.33869E-08
 -1       253-1.00756E+06 3.15397E+03-1.23693E+04-1.56113E+04-5.79598E-09-4.94902E-09
 -1       254-1.00302E+06-3.61939E+03-6.29397E+03 4.62402E+04 2.12245E-08-7.83764E-08
 -1       255-1.01310E+06 1.84475E+02-4.13035E+03-4.82617E+03-7.82416E-09 1.02091E-09
 -1       256-9.94939E+05-3.82379E+02 9.97903E+02 1.96084E+04 1.75660E-08 4.10492E-07
 -1       257-1.01497E+06-5.87208E+02-1.84962E+03 1.10102E+04-9.56970E-09 1.75881E-07
 -1       258-9.96522E+05 8.43894E+02 2.91933E+03-1.11301E+04 1.03793E-08-1.59824E-08
 -1       259-1.01165E+06-9.36484E+02 8.89147E+02 2.59053E+04-1.90835E-09-9.08187E-09
 -1       260-1.00419E+06 2.80222E+03 5.22599E+03-3.44006E+04 1.12939E-08-5.46660E-08
 -1       261-1.00806E+06-1.96220E+03 7.70583E+03 3.42962E+04 8.20944E-09 4.92319E-08
 -1       262-1.00422E+06 1.07911E+04 1.92689E+04-4.15947E+04 1.75412E-08-1.55491E-07
 -1       263-1.01195E+06-8.63087E+03 3.03956E+04 3.31108E+04 7.55381E-09-2.35668E-08
 -1       264-9.75357E+05 6.01936E+04 8.46681E+04-3.00162E+04 2.84615E-10 3.15865E-07
 -1       265-1.03633E+06-5.15992E+04 1.17054E+05 2.27033E+04 1.20788E-08 2.17144E-07
 -1       266-1.79723E+04-8.40458E+03 4.21645E+04-2.10707E+01 4.18368E-10 1.78446E-07
 -1       267 2.08346E+04 9.79455E+03 2.98030E+04 2.43132E+01 1.43245E-10-5.93255E-08
 -1       268-2.79389E+03-1.38724E+03 1.10776E+04-3.09782E+00 1.22327E-10 3.71832E-08
 -1       269 3.29874E+03 1.66016E+03 7.20032E+03 3.60861E+00 2.72848E-12-1.43230E-07
 -1       270-4.95146E+02-2.72781E+02 3.47570E+03-4.89708E-01 8.57199E-11 1.05658E-07
 -1       271-1.58553E+06-1.99291E+05-1.18750E+05-6.15066E+05-1.54741E-08-1.09161E-07
 -1       272-1.59831E+06-3.07417E+05-7.52211E+04-6.40307E+05 8.89395E-09-1.56702E-07
 -1       273-1.61010E+06-2.25651E+05-2.85562E+04-6.07125E+05-7.65795E-09-2.55004E-08
 -1       274-1.56952E+06-2.75906E+05-1.52277E+04-6.54552E+05 1.59052E-08 1.43403E-07
 -1       275-1.61560E+06-2.25915E+05-6.97981E+03-6.03560E+05 3.20470E-08-2.10417E-07
 -1       276-1.56322E+06-2.76337E+05-3.15580E+03-6.62211E+05-1.56733E-08-2.09488E-07
 -1       277-1.61827E+06-2.23638E+05-1.90240E+03-6.00962E+05-1.81226E-08 1.61606E-07
 -1       278-1.56055E+06-2.79461E+05-8.56676E+02-6.67895E+05-1.44573E-08 2.25817E-07
 -1       279-1.62000E+06-2.21667E+05-9.84538E+02-5.99085E+05-2.44472E-08-2.12983E-07
 -1       280-1.55917E+06-2.81981E+05-1.27985E+03-6.71779E+05-4.36557E-11-1.15926E-07
 -1       281-1.62095E+06-2.20306E+05-2.35776E+03-5.97961E+05-1.67947E-08-1.35651E-07
 -1       282-1.55952E+06-2.84693E+05-5.50669E+03-6.73557E+05-1.25256E-08 3.89138E-07
 -1       283-1.62037E+06-2.18655E+05-9.79313E+03-5.97730E+05 4.98653E-09 1.36088E-08
 -1       284-1.56811E+06-2.97938E+05-2.66977E+04-6.71439E+05 2.70481E-08-4.50560E-07
 -1       285-1.61254E+06-2.08404E+05-4.15594E+04-5.99598E+05 2.18668E-08 2.31026E-07
 -1       301-8.05895E+02-6.26465E+05 1.68102E+05-1.09420E+06 3.68163E-09 5.01459E-08
 -1       302-1.14714E+03-5.81069E+05 1.01234E+05-1.59791E+06-4.72210E-09 5.78075E-08
 -1       303-1.67914E+04-6.17243E+05 5.78016E+04-1.09129E+06-1.59343E-09-7.90842E-08
 -1       304-1.70782E+04-5.86716E+05 5.92325E+04-1.59720E+06-9.70613E-09-1.63956E-07
 -1       305-2.02968E+04-6.06816E+05 7.42076E+04-1.09439E+06-9.46420E-09 9.77016E-08
 -1       306-2.99216E+07-6.17625E+06-8.53549E+06-6.12326E+05-4.05125E-08-1.57743E-08
 -1       307 2.52835E+07 3.13861E+06 5.48080E+06-1.49595E+07-8.25690E-07-1.09518E-07
 -1       308-7.10131E+06-1.02272E+06-4.82984E+05 5.16664E+06-3.06318E-07 2.44676E-07
 -1       309-3.34728E+06 8.58910E+06 2.24194E+06-2.05063E+07 2.01220E-07 3.28502E-07
 -1       310-1.23501E+07-1.87583E+06-1.95725E+06 5.16509E+06-1.65484E-07-7.04313E-08
 -1       311 3.75190E+07 2.28584E+04 7.13999E+06-8.93764E+06 5.81407E-07-9.15024E-08
 -1       312-3.15938E+07-6.63271E+06-8.40323E+06-4.86213E+06 5.69271E-08-4.99131E-08
 -1       313 4.50952E+07 1.44949E+07 1.05374E+07 2.32618E+07-1.91707E-07-4.02797E-08
 -1       314-1.72999E+07-1.74522E+07-7.45048E+06-1.24435E+07 4.62169E-07-1.84227E-07
 -1       315-1.62269E+06 2.92705E+07 5.62781E+06 1.06949E+07-6.36690E-07 1.36904E-07
 -1       316 1.28502E+06-9.82120E+06-4.61538E+05-2.65109E+06-1.44755E-06-1.32772E-07
 -1       317-1.71616E+07 2.22320E+07 2.19979E+06-8.53890E+06 6.43049E-07-7.10483E-07
 -1       318-1.06839E+06-1.25664E+07-1.97863E+06-4.25796E+06-9.18459E-07 1.12050E-07
 -1       319 6.97408E+06 3.13653E+07 6.91046E+06 1.63404E+07-7.30215E-08 1.76049E-07
 -1       320-2.23746E+07-1.73748E+07-9.71158E+06-1.26636E+07 1.66474E-07-7.37491E-08
 -1       336-6.79161E+02-1.71314E+06-1.39107E+04 8.93796E+03-2.70156E-08 1.26383E-08
 -1       337-5.41187E+03-1.71284E+06-1.81493E+04-2.16897E+04-4.89858E-08-2.14732E-08
 -1       338 3.27664E+02-1.71264E+06-2.85093E+04 1.25087E+04-3.42461E-08 3.69255E-09
 -1       339-3.02514E+04-1.73008E+06-6.44676E+04-2.86786E+04-6.29179E-08 2.06346E-08
 -1       340 1.99836E+04-1.69806E+06-1.01511E+05 1.57980E+04-4.05125E-08 4.55075E-08
 -1       406-4.54467E+01 3.85172E+05 6.42068E+02 3.21578E+00-1.86819E-09 1.76387E-08
 -1       407 1.58136E+02 3.85306E+05 1.37171E+03 2.28022E+01-2.91863E-10-1.59016E-08
 -1       408 6.36639E+02 3.85073E+05 2.73533E+03-2.63616E+01-2.28306E-09-2.86855E-09
 -1       409 2.90013E+03 3.86179E+05 6.16478E+03 2.81020E+02-4.55316E-10 9.45874E-11
 -1       410 8.45288E+03 3.84286E+05 1.25822E+04-2.70929E+02-2.85581E-09 1.73168E-09
 -1       521-3.14257E+07-7.60535E+06-9.95178E+06-2.27547E+05-8.74279E-08-6.69970E-08
 -1       522 2.60954E+07 4.10930E+06 5.57487E+06-1.84056E+07-5.54137E-07-3.15224E-07
 -1       523-7.69157E+06-1.33020E+06-4.76916E+05 5.60686E+06 1.44588E-07-3.64598E-07
 -1       524-6.82456E+06 1.15689E+07 2.41940E+06-2.35247E+07 1.14639E-06-6.54243E-07
 -1       525-1.31514E+07-2.48652E+06-2.14632E+06 5.60497E+06 8.45233E-07-1.12079E-07
 -1       526 4.08387E+07-5.49496E+04 7.48181E+06-1.15722E+07 3.16068E-08 1.06404E-07
 -1       527-3.33863E+07-8.29168E+06-9.66612E+06-4.71681E+06-5.62286E-08 1.10784E-07
 -1       528 4.91817E+07 1.60763E+07 1.09735E+07 2.63855E+07-3.03844E-07-2.69472E-07
 -1       529-1.82427E+07-1.96004E+07-8.52815E+06-1.24769E+07-1.30967E-08 9.98843E-08
 -1       530-4.07168E+06 3.39448E+07 5.94649E+06 1.02322E+07 3.60305E-08 7.81904E-07
 -1       531 1.26755E+06-1.08969E+07-4.39972E+05-2.62712E+06-8.32864E-07 3.39875E-07
 -1       532-1.97336E+07 2.42425E+07 2.39854E+06-1.27216E+07 3.84127E-07-6.08794E-07
 -1       533-1.10980E+06-1.36902E+07-2.09559E+06-4.09036E+06-2.34111E-07-1.00886E-06
 -1       534 4.92701E+06 3.63296E+07 7.17725E+06 1.68617E+07-2.77068E-08 7.61065E-07
 -1       535-2.35106E+07-1.97081E+07-1.11066E+07-1.27233E+07 1.16299E-07 4.57745E-07
 -1       536-7.00197E+05-4.67026E+04-4.52427E+04-5.38769E+04-2.54431E-09 6.51507E-08
 -1       537-6.06539E+04 4.48060E+04 8.37186E+04 1.22307E+05-1.11314E-07 8.27476E-08
 -1       538-3.94136E+05 3.15624E+03 4.00806E+03-7.14264E+04 4.13933E-08 9.33035E-08
 -1       539-2.71140E+05 2.91279E+03 2.47402E+04 1.37149E+05 1.47443E-07 1.10859E-07
 -1       540-4.94986E+05-4.13169E+02-2.07651E+04-6.92378E+04 6.48606E-09 1.05869E-07
 -1       541 1.36727E+05 1.66563E+04 1.04439E+05 9.65911E+04 2.06023E-09 7.36794E-08
 -1       542-7.91016E+05-1.97661E+04-8.26273E+04-3.00193E+04 3.29715E-08 3.35937E-08
 -1       543 3.90493E+05 2.68170E+04 1.54986E+05-1.32390E+04 2.99253E-08-1.18698E-08
 -1       544-7.41948E+05-1.62152E+04-7.34032E+04 3.99418E+04-1.01249E-08-3.97756E-08
 -1       545 2.09926E+04 9.26915E+03 7.82135E+04-1.12217E+05 7.97127E-09-8.51921E-08
 -1       546-4.31435E+05 6.01079E+03-1.20143E+04 6.86230E+04 2.61789E-08-1.02810E-07
 -1       547-2.88999E+05-4.66715E+03 1.02221E+04-1.39983E+05-1.14085E-07-1.18056E-07
 -1       548-4.40286E+05 4.69298E+03-2.36489E+04 6.83792E+04-1.05627E-07-1.01132E-07
 -1       549 4.00751E+04 1.53515E+04 5.88217E+04-1.10035E+05-6.91762E-08-7.05370E-08
 -1       550-7.51703E+05-2.13731E+04-1.27378E+05 3.79794E+04 5.78348E-09-3.82006E-08
 -1       551 4.02711E+04-7.73511E+05-1.71232E+04-1.26477E+06 3.60160E-08-9.98261E-09
 -1       552 9.61058E+04-8.21085E+05 9.81797E+03-1.82792E+06 7.68196E-08 2.39233E-08
 -1       553 7.31032E+04-8.17296E+05 3.23076E+04-1.25789E+06 4.53147E-08 3.04426E-08
 -1       554 1.36490E+05-8.38658E+05 8.21922E+04-1.82981E+06 8.24657E-08 1.33223E-08
 -1       555 1.00989E+05-8.41162E+05 1.49254E+05-1.25786E+06 4.37067E-08-2.70047E-08
 -1       556 2.21300E+05-3.79957E+05 2.78749E+04-4.04804E+05-2.26137E-08-2.15659E-08
 -1       557 3.51171E+05-4.83706E+05 1.72000E+04-5.24084E+05-7.85803E-09 1.87192E-08
 -1       558 2.03505E+05-3.73296E+05 2.85277E+03-4.08827E+05-1.78989E-08 3.97267E-09
 -1       559 3.26297E+05-4.84124E+05 2.67817E+03-5.44211E+05 2.06492E-08 5.91899E-09
 -1       560 1.88472E+05-3.63865E+05-1.34375E+03-4.19648E+05 1.02445E-08-7.79983E-09
 -1       561 3.07379E+05-4.76572E+05 1.92985E+02-5.57096E+05-5.67525E-09-1.76606E-08
 -1       562 1.76587E+05-3.56476E+05-1.26712E+03-4.28253E+05 4.10364E-09-5.92263E-09
 -1       563 2.93264E+05-4.70418E+05-1.90978E+01-5.66312E+05 5.90080E-09-1.96633E-09
 -1       564 1.68113E+05-3.51196E+05-5.77751E+02-4.34257E+05 8.70205E-09-1.87129E-09
 -1       565 2.83918E+05-4.66349E+05 2.88424E+01-5.72282E+05 3.63798E-09 7.49424E-10
 -1       566 1.63174E+05-3.48070E+05-2.50989E+02-4.37712E+05-1.24201E-08-4.86034E-09
 -1       567 2.79399E+05-4.64382E+05-3.55423E+02-5.75024E+05 8.93488E-09-1.17216E-08
 -1       568 1.61858E+05-3.47265E+05-1.10825E+03-4.38728E+05-2.62935E-09-1.39225E-08
 -1       569 2.78327E+05-4.64316E+05-2.79952E+03-5.73574E+05-2.49202E-10 1.47702E-08
 -1       570 1.65250E+05-3.50481E+05-6.12463E+03-4.37716E+05 1.19544E-08 6.83667E-09
 -1       571 2.89605E+05 1.04763E+04 1.49586E+04-9.45183E+04 3.47791E-09 2.10503E-09
 -1       572 2.91774E+05 3.94195E+03 7.33088E+03-1.03696E+05 6.45014E-09-9.78980E-09
 -1       573 2.90467E+05 1.23392E+03 3.25734E+03-9.43424E+04 6.54836E-09 5.11136E-09
 -1       574 2.90681E+05 7.15462E+02 1.63351E+03-1.03919E+05 4.95947E-09 2.53694E-08
 -1       575 2.90560E+05 4.37855E+02 7.70958E+02-9.43183E+04-5.90295E-09 2.07410E-08
 -1       576 2.90545E+05 4.48308E+02 3.94699E+02-1.03949E+05-1.25135E-08 4.01542E-09
 -1       577 2.90600E+05 3.80176E+02 1.97018E+02-9.43150E+04-8.91214E-09 6.01085E-09
 -1       578 2.90575E+05 4.10795E+02 1.13752E+02-1.03953E+05-4.90763E-09-1.60544E-08
 -1       579 2.90670E+05 3.44189E+02 7.80834E+01-9.43147E+04 6.66660E-09-6.72117E-10
 -1       580 2.90675E+05 3.60661E+02 9.04939E+01-1.03948E+05-7.29779E-09 7.25777E-09
 -1       581 2.90783E+05 2.86646E+02 1.36668E+02-9.43205E+04 9.83891E-09-1.65965E-08
 -1       582 2.90848E+05 3.24314E+02 2.77735E+02-1.03887E+05 4.44288E-09-1.77897E-09
 -1       583 2.90921E+05 3.29721E+02 5.33174E+02-9.43767E+04-3.89264E-10 2.89378E-09
 -1       584 2.91219E+05 7.64799E+02 1.20638E+03-1.03414E+05 6.26460E-09-2.62935E-09
 -1       585 2.90945E+05 1.78106E+03 2.44302E+03-9.47925E+04-5.80258E-10 4.82032E-09
 -1       586-3.41383E+03 1.16116E+05-2.93663E+03-2.50066E+05-8.70659E-09 2.91748E-08
 -1       587-1.32185E+03 1.15862E+05 7.51297E+02-2.75216E+05-6.55382E-09 3.68805E-08
 -1       588 4.11588E+02 1.15674E+05 4.72975E+03-2.49928E+05-3.66163E-09 3.46863E-08
 -1       589 5.07886E+03 1.18134E+05 1.22825E+04-2.74982E+05-7.80710E-09 6.36646E-10
 -1       590 1.65474E+04 1.14347E+05 2.57709E+04-2.50358E+05-4.44197E-09-4.07090E-09
 -1       591-7.44965E+04-1.59275E+04-2.24237E+04-3.18222E+04-4.99699E-09-7.16955E-09
 -1       592-7.85450E+04-1.94900E+04-1.21465E+04-3.54551E+04-1.10289E-08 7.57973E-09
 -1       593-7.67393E+04-1.43002E+04-5.05598E+03-3.34662E+04-9.31303E-09 1.15481E-08
 -1       594-7.54487E+04-1.61999E+04-2.52155E+03-3.55727E+04-9.33591E-09 8.24554E-09
 -1       595-7.69103E+04-1.42948E+04-1.15766E+03-3.35409E+04-9.09166E-09 2.49842E-08
 -1       596-7.52367E+04-1.60494E+04-5.88309E+02-3.55475E+04 1.46176E-09 2.87129E-08
 -1       597-7.69317E+04-1.43101E+04-3.19950E+02-3.35437E+04-1.68194E-09 1.48233E-08
 -1       598-7.52158E+04-1.60435E+04-2.56467E+02-3.55405E+04 2.37037E-09 1.18035E-08
 -1       599-7.69305E+04-1.43106E+04-3.26689E+02-3.35434E+04-3.00884E-09-6.66239E-09
 -1       600-7.52367E+04-1.60500E+04-6.06148E+02-3.55454E+04 3.60671E-09 1.64431E-08
 -1       601-7.69059E+04-1.42962E+04-1.19542E+03-3.35399E+04 1.83809E-09-1.38971E-09
 -1       602-7.54556E+04-1.62043E+04-2.60509E+03-3.55675E+04-2.94540E-09-1.53772E-08
 -1       603-7.67265E+04-1.43046E+04-5.22418E+03-3.34636E+04-6.68706E-10 2.15960E-09
 -1       604-7.86724E+04-1.95842E+04-1.25497E+04-3.54213E+04 2.06273E-09-5.11818E-09
 -1       605-7.43892E+04-1.60037E+04-2.31683E+04-3.17843E+04 5.57799E-09 2.28556E-09
 -1       606 2.68088E+04-1.42778E+04-2.55960E+04 2.41379E+04 7.10952E-09 5.44037E-09
 -1       607 2.24352E+04-4.66258E+03-1.27467E+04 2.71251E+04 2.14459E-09 7.45331E-10
 -1       608 2.49275E+04-8.40657E+02-5.70631E+03 2.39675E+04 1.31695E-09-7.15249E-09
 -1       609 2.44495E+04-2.87300E+02-2.88266E+03 2.73404E+04 4.81396E-09-1.59398E-08
 -1       610 2.47143E+04-4.00124E+01-1.37538E+03 2.39473E+04 1.27839E-08 1.39055E-08
 -1       611 2.46390E+04-3.99749E+01-6.93455E+02 2.73637E+04 2.26614E-08-3.16027E-09
 -1       612 2.46670E+04-2.61514E+01-3.29685E+02 2.39453E+04 1.17707E-08-3.40560E-09
 -1       613 2.46502E+04-3.57128E+01-1.47733E+02 2.73664E+04 1.43746E-09 4.77485E-09
 -1       614 2.46447E+04-3.23848E+01-3.46467E+01 2.39445E+04-2.19461E-09 8.46489E-09
 -1       615 2.46447E+04-3.40841E+01 6.19260E+01 2.73668E+04-5.39785E-10 2.04509E-08
 -1       616 2.46272E+04-2.91526E+01 1.85686E+02 2.39448E+04 4.40514E-09-5.88079E-09
 -1       617 2.46668E+04 5.59951E+00 4.23656E+02 2.73664E+04 3.99041E-10-1.95953E-08
 -1       618 2.45902E+04 9.30663E+01 8.53942E+02 2.39451E+04 1.89721E-09-8.29618E-09
 -1       619 2.49682E+04 6.65939E+02 1.91759E+03 2.73657E+04-5.63318E-10 1.55112E-08
 -1       620 2.43066E+04 2.11805E+03 3.85431E+03 2.39466E+04-2.04409E-09 9.44601E-09
 -1       621 5.05476E+02 3.00514E+05 3.86441E+03 4.04498E+04 9.14497E-10-1.37525E-08
 -1       622 6.68256E+02 3.01408E+05 3.43094E+03 5.87263E+04 1.24146E-09-1.72804E-09
 -1       623 1.38388E+02 3.00709E+05 4.12492E+03 4.02667E+04 1.44541E-09 7.36145E-09
 -1       624 2.11185E+03 3.02624E+05 7.99814E+03 5.89066E+04 1.30024E-09-4.68208E-09
 -1       625 2.06510E+03 2.99123E+05 1.39772E+04 4.02635E+04 1.33559E-09-1.01334E-08
 -1       626 2.60102E+05 6.13847E+04 5.11496E+03 1.26561E+05-1.02864E-08-1.72986E-09
 -1       627 2.57774E+05 6.27921E+04 2.46486E+03 1.30842E+05-2.71129E-08-5.99186E-09
 -1       628 2.60230E+05 5.90435E+04 1.04243E+03 1.27429E+05-1.61544E-08 1.32695E-08
 -1       629 2.57138E+05 6.21139E+04 5.10227E+02 1.31083E+05 6.95763E-11 2.78496E-08
 -1       630 2.60244E+05 5.89305E+04 2.36762E+02 1.27465E+05-3.95221E-09 1.65244E-08
 -1       631 2.57071E+05 6.20882E+04 1.27522E+02 1.31085E+05 3.40060E-09 5.86715E-09
 -1       632 2.60241E+05 5.89345E+04 8.41119E+01 1.27461E+05 3.49564E-09-2.87666E-08
 -1       633 2.57063E+05 6.20901E+04 9.40020E+01 1.31081E+05 8.52424E-09-7.86554E-09
 -1       634 2.60236E+05 5.89318E+04 1.52176E+02 1.27460E+05-1.98133E-09-9.22910E-10
 -1       635 2.57077E+05 6.20885E+04 3.08092E+02 1.31087E+05-5.23352E-09-1.22054E-08
 -1       636 2.60227E+05 5.89261E+04 6.22274E+02 1.27460E+05 7.23276E-10-3.30920E-09
 -1       637 2.57212E+05 6.21853E+04 1.36827E+03 1.31086E+05-3.32329E-09 1.58570E-09
 -1       638 2.60178E+05 5.92283E+04 2.81129E+03 1.27324E+05 9.37871E-09 1.95996E-09
 -1       639 2.58688E+05 6.42392E+04 6.65164E+03 1.30651E+05 1.10401E-08 1.90721E-09
 -1       640 2.59974E+05 6.53612E+04 1.38033E+04 1.24739E+05 1.12382E-08 1.07464E-08
 -1       656 6.64353E+04-1.69997E+06-1.60370E+05-2.49844E+03-3.12866E-10-1.52613E-09
 -1       657-8.78868E+04-1.77243E+06-1.32854E+05 5.24959E+03 2.53749E-10-4.72859E-09
 -1       658 2.11760E+04-1.72055E+06-8.18181E+04-4.57839E+03 7.13044E-10 2.86228E-09
 -1       659-9.50267E+04-1.77583E+06-1.42238E+05 6.97202E+03-1.06775E-09 1.21618E-08
 -1       660 7.35594E+04-1.69659E+06-1.76502E+05-4.22086E+03-1.92085E-09 1.67284E-09
 -1       661 1.59357E+05 1.66901E+04 1.67678E+04 6.22963E+04-1.06911E-09 9.08585E-10
 -1       662 1.68824E+05 2.91197E+04 1.13003E+04 5.85484E+04 2.04227E-09-2.40761E-08
 -1       663 1.62650E+05 2.20694E+04 3.95215E+03 6.13405E+04-1.16677E-09-9.19295E-09
 -1       664 1.65006E+05 2.28289E+04 2.36419E+03 5.97160E+04 2.30159E-10-5.82938E-09
 -1       665 1.63150E+05 2.28042E+04 9.32654E+02 6.11946E+04-4.13650E-10 1.52467E-08
 -1       666 1.64414E+05 2.19887E+04 5.45899E+02 5.99062E+04 7.12797E-09 1.77827E-08
 -1       667 1.63238E+05 2.28877E+04 2.90105E+02 6.11581E+04-3.11064E-09 3.08845E-09
 -1       668 1.64318E+05 2.19287E+04 2.95947E+02 5.99594E+04-1.28316E-08 2.54988E-09
 -1       669 1.63246E+05 2.28625E+04 4.00953E+02 6.11418E+04-1.26340E-09 9.85199E-09
 -1       670 1.64415E+05 2.21465E+04 8.73349E+02 5.99624E+04-1.02203E-08 2.06294E-08
 -1       671 1.63140E+05 2.26744E+04 1.55078E+03 6.11531E+04 1.24341E-09 2.20854E-09
 -1       672 1.65319E+05 2.36553E+04 3.96772E+03 5.97435E+04 4.41189E-09-1.46575E-08
 -1       673 1.62346E+05 2.13919E+04 6.64929E+03 6.13461E+04 1.28705E-09 1.28239E-09
 -1       674 1.71647E+05 3.43381E+04 1.90156E+04 5.78843E+04-2.05739E-09-9.12701E-09
 -1       675 1.56852E+05 1.22908E+04 2.82258E+04 6.29000E+04-3.22780E-09-6.88487E-09
 -1       676 2.40996E+01-2.95676E+05-1.11329E+03-1.33288E+02 1.41233E-09 6.63247E-09
 -1       677-2.94561E+02-2.95945E+05-2.03751E+03 2.66362E+02 8.15911E-09-5.00984E-09
 -1       678 1.97512E+02-2.95484E+05-3.60181E+03-1.32987E+02 1.63323E-09 3.53787E-09
 -1       679-3.60193E+03-2.98120E+05-8.55640E+03 2.65213E+02 6.47424E-09 1.41557E-08
 -1       680 2.15051E+03-2.93503E+05-1.37900E+04-1.30669E+02-2.33740E-10-1.70247E-09
 -1       771-3.05997E+06-7.47059E+05-1.61921E+05-1.46562E+06-3.31202E-08-3.28873E-08
 -1       772-2.98166E+06-8.35642E+05-8.33673E+04-1.56815E+06-1.39553E-08 1.43700E-08
 -1       773-3.09112E+06-7.22735E+05-4.27197E+04-1.47986E+06-1.00117E-08 1.23400E-08
 -1       774-2.97273E+06-8.17708E+05-1.90094E+04-1.59395E+06 2.54076E-08-2.48110E-09
 -1       775-3.10757E+06-7.11174E+05-1.43612E+04-1.48693E+06-5.06407E-09-2.33558E-09
 -1       776-2.98516E+06-8.14684E+05-5.34550E+03-1.61348E+06-9.89530E-09 5.92627E-09
 -1       777-3.12187E+06-7.00852E+05-6.39261E+03-1.49317E+06-4.56930E-09 5.19503E-09
 -1       778-2.99810E+06-8.11846E+05-1.79803E+03-1.63027E+06 1.28057E-09 4.28918E-09
 -1       779-3.13416E+06-6.91834E+05-3.20952E+03-1.49850E+06-7.55244E-09-8.58927E-09
 -1       780-3.00949E+06-8.09140E+05-5.32420E+02-1.64394E+06-1.92085E-09 4.36557E-09
 -1       781-3.14394E+06-6.84565E+05-1.25625E+03-1.50267E+06-3.32802E-08 6.78483E-10
 -1       782-3.01826E+06-8.06844E+05 4.33275E+02-1.65402E+06-4.16403E-08-9.85256E-09
 -1       783-3.15082E+06-6.79514E+05 6.64599E+02-1.50559E+06-1.49957E-08-1.26261E-08
 -1       784-3.02315E+06-8.04576E+05 2.81753E+03-1.66025E+06-2.23263E-08 8.83301E-09
 -1       785-3.15487E+06-6.76515E+05 4.96597E+03-1.50743E+06-4.11565E-08 8.80755E-09
 -1       786 1.24690E+05-9.79021E+03 2.26506E+04-3.19202E+02 3.75152E-09-7.19592E-09
 -1       787 1.34514E+05 1.13349E+04 1.60244E+04-1.32884E+02 4.08525E-09-1.18998E-08
 -1       788 1.28478E+05-1.53417E+03 5.86023E+03-2.84148E+02 2.25087E-09-9.99944E-09
 -1       789 1.30101E+05 1.77573E+03 3.67889E+03-1.86642E+02 1.80202E-09 3.36251E-08
 -1       790 1.29103E+05-2.38885E+02 1.48965E+03-2.65461E+02-6.00152E-09 1.05296E-08
 -1       791 1.29370E+05 2.76396E+02 8.60619E+02-2.18624E+02-8.17184E-09-9.08813E-10
 -1       792 1.29209E+05-3.59504E+01 3.65168E+02-2.52168E+02-4.69192E-09 7.67898E-09
 -1       793 1.29243E+05 3.81902E+01 1.83080E+02-2.43641E+02 2.34716E-09-8.50994E-09
 -1       794 1.29230E+05-8.29869E-01 4.96594E+01-2.40444E+02 6.27361E-09-1.68299E-10
 -1       795 1.29207E+05-2.57731E+01-5.23894E+01-2.68132E+02-4.70539E-09-3.24342E-09
 -1       796 1.29245E+05 2.79772E+01-1.53608E+02-2.27677E+02 3.92674E-09-8.47555E-09
 -1       797 1.29117E+05-2.09088E+02-4.24309E+02-2.97489E+02 4.23365E-09-1.45469E-10
 -1       798 1.29320E+05 1.82347E+02-6.89806E+02-2.11086E+02 1.42992E-09 3.64804E-09
 -1       799 1.28593E+05-1.34405E+03-1.89837E+03-3.38577E+02 6.56417E-09-6.08725E-09
 -1       800 1.29769E+05 1.16201E+03-2.68677E+03-1.86590E+02 2.24272E-10 1.25060E-08
 -1       801-1.65390E+05-9.83994E+06-1.36847E+06 1.37411E+06 9.17644E-08-5.51845E-08
 -1       802 7.14241E+05 5.67833E+06 2.11316E+06-1.69405E+06 2.54877E-07-3.41533E-08
 -1       803-5.20364E+05-1.39208E+07-1.83106E+06 8.81553E+05 7.68632E-08 1.55014E-08
 -1       804 2.73930E+05 2.17364E+06 1.48069E+06 6.56912E+05-1.16710E-07-9.84610E-08
 -1       805 1.87125E+05-6.34977E+06-2.73227E+05-9.71417E+05-4.87635E-08-6.14491E-08
 -1       806-3.08112E+05-5.96141E+04-2.28080E+04-1.22097E+05-1.21272E-08 9.35324E-09
 -1       807-3.09908E+05-5.58898E+04-1.12053E+04-1.27629E+05 6.22708E-09 4.91058E-09
 -1       808-3.08738E+05-5.13945E+04-4.75366E+03-1.25983E+05-1.73472E-08 2.33058E-10
 -1       809-3.07552E+05-5.27413E+04-2.32442E+03-1.27904E+05-3.16304E-08 2.18788E-08
 -1       810-3.08833E+05-5.11084E+04-1.06541E+03-1.26155E+05-3.27873E-09 9.35825E-09
 -1       811-3.07370E+05-5.26149E+04-5.29833E+02-1.27869E+05-5.68889E-10 1.39355E-08
 -1       812-3.08847E+05-5.11330E+04-2.68015E+02-1.26154E+05-5.53700E-09 5.71436E-09
 -1       813-3.07345E+05-5.26170E+04-1.74270E+02-1.27851E+05-7.36736E-09 1.43700E-10
 -1       814-3.08840E+05-5.11427E+04-1.72839E+02-1.26150E+05-1.89539E-09 1.35378E-09
 -1       815-3.07348E+05-5.26193E+04-2.78597E+02-1.27843E+05 5.32464E-09 2.10978E-08
 -1       816-3.08819E+05-5.11418E+04-5.28108E+02-1.26146E+05 8.89941E-09 1.42054E-08
 -1       817-3.07438E+05-5.26696E+04-1.13342E+03-1.27831E+05-6.71207E-09 2.24884E-08
 -1       818-3.08750E+05-5.13018E+04-2.31179E+03-1.26071E+05-1.09503E-09-7.60065E-09
 -1       819-3.08704E+05-5.40662E+04-5.43947E+03-1.27532E+05-1.77124E-09-3.08355E-08
 -1       820-3.08314E+05-5.54108E+04-1.10713E+04-1.24316E+05-6.60293E-10-6.21185E-10
 -1       821-3.78346E+05 2.08368E+04-4.84866E+04 2.07663E+03 1.39270E-08-3.20142E-09
 -1       822-3.98090E+05-2.41374E+04-3.40890E+04-4.35551E+03 5.92092E-09 1.28239E-09
 -1       823-3.85832E+05 3.28379E+03-1.25253E+04 3.34272E+03-1.16250E-08 1.31472E-08
 -1       824-3.89067E+05-3.78737E+03-7.84215E+03-5.22660E+03 1.02358E-09 3.33716E-08
 -1       825-3.87375E+05 5.10368E+02-3.28146E+03 2.94783E+03 2.06700E-08 8.52083E-09
 -1       826-3.86681E+05-5.68185E+02-1.75120E+03-3.00420E+03 2.80214E-08 3.99851E-09
 -1       827-3.88194E+05 4.89773E+01-1.17932E+03 1.12018E+03 1.19553E-08 2.11104E-08
 -1       828-3.86006E+05-1.34583E+02-6.01155E+02 1.07631E+03 4.74188E-10-4.92174E-09
 -1       829-3.88038E+05 6.73422E+01-1.16935E+03-1.13271E+03 2.12967E-09-6.96753E-09
 -1       830-3.87020E+05-6.21336E+02-1.88690E+03 4.75610E+03-1.95575E-09-1.77471E-08
 -1       831-3.87202E+05 5.52467E+02-3.36432E+03-2.55963E+03-7.08626E-09 1.42018E-09
 -1       832-3.89148E+05-3.95254E+03-8.14447E+03 5.99525E+03-1.01873E-09-1.84937E-08
 -1       833-3.85925E+05 3.40742E+03-1.30275E+04-2.37190E+03-1.76342E-09 3.65526E-09
 -1       834-3.98163E+05-2.50495E+04-3.53127E+04 4.07364E+03-2.87178E-09-5.47652E-09
 -1       835-3.78171E+05 2.16174E+04-5.03534E+04-6.37937E+02 5.61926E-09 5.95901E-09
 -1       836-1.40849E+03 3.69135E+05 2.28330E+04-1.62523E+04-6.89943E-09-4.07226E-09
 -1       837 4.86920E+03 3.76286E+05 1.93216E+04-3.31940E+04-7.48577E-09-4.37876E-09
 -1       838-5.55562E+02 3.71140E+05 1.96871E+04-1.61806E+04-6.09361E-09 8.19887E-09
 -1       839 1.23919E+04 3.81888E+05 3.72429E+04-3.32462E+04-6.92444E-09 2.19497E-08
 -1       840-3.82995E+03 3.63473E+05 5.93891E+04-1.62057E+04-6.01722E-09 1.13321E-08
 -1       856-5.30381E+04 8.04034E+03-2.11881E+04-3.98720E+02 4.80816E-09-1.34451E-08
 -1       857-6.17675E+04-9.44672E+03-1.45857E+04 5.62956E+03 2.38083E-09-1.49632E-08
 -1       858-5.64950E+04 1.12755E+03-5.49781E+03-4.22927E+02 4.58039E-09-4.13820E-10
 -1       859-5.78004E+04-1.32613E+03-3.31772E+03 5.66563E+03-4.44700E-10 2.35982E-08
 -1       860-5.70114E+04 1.57885E+02-1.39053E+03-4.34536E+02 1.82800E-09-6.75908E-09
 -1       861-5.72063E+04-1.88104E+02-7.65107E+02 5.68145E+03-2.13817E-10 5.36477E-09
 -1       862-5.70922E+04 2.13740E+01-3.18345E+02-4.38724E+02 2.29515E-09 6.39804E-09
 -1       863-5.71073E+04-2.15877E+01-1.16646E+02 5.68387E+03-5.06334E-09 1.56261E-09
 -1       864-5.71109E+04-4.84461E+00 4.57586E+01-4.36956E+02 4.55799E-10-8.29924E-09
 -1       865-5.70519E+04 5.93572E+01 2.52329E+02 5.67381E+03-2.10855E-09-2.01724E-08
 -1       866-5.71454E+04-5.96023E+01 5.09299E+02-4.28666E+02-3.95630E-10 1.49903E-08
 -1       867-5.68121E+04 4.92265E+02 1.25411E+03 5.65130E+03 2.32376E-10 1.30850E-08
 -1       868-5.73457E+04-4.29973E+02 2.08406E+03-4.14443E+02-7.22935E-10-7.99957E-09
 -1       869-5.52840E+04 3.57843E+03 5.54938E+03 5.61424E+03 1.39011E-10-8.27754E-10
 -1       870-5.86658E+04-3.06200E+03 8.05334E+03-3.91500E+02-5.13967E-09-2.39106E-09
 -1       871-5.51256E+03-2.11274E+04-1.94323E+04 1.30005E+05-5.39512E-09 5.28507E-09
 -1       872-1.98966E+03-2.56427E+04-8.13349E+03 1.68571E+05-1.16397E-08 8.68022E-09
 -1       873 3.93976E+02-2.34607E+04 5.96214E+02 1.29719E+05-6.91034E-09-1.40751E-08
 -1       874 3.28758E+03-2.10498E+04 9.76921E+03 1.68600E+05-1.04274E-08 1.03614E-09
 -1       875 6.82651E+03-2.57877E+04 2.20321E+04 1.29957E+05-4.59477E-09 7.10315E-10
 -1       876 2.93235E+05 4.94390E+04 1.50804E+04 1.17696E+05 3.37627E-09 8.17727E-09
 -1       877 2.94230E+05 5.26170E+04 8.05353E+03 1.22024E+05 1.26104E-08 9.86529E-09
 -1       878 2.94645E+05 4.77686E+04 3.37403E+03 1.18931E+05-6.34464E-09 5.41831E-09
 -1       879 2.92180E+05 5.05712E+04 1.68115E+03 1.22126E+05 3.44517E-09 1.47501E-08
 -1       880 2.94746E+05 4.77513E+04 7.83054E+02 1.18982E+05 5.15001E-10 1.61350E-09
 -1       881 2.92044E+05 5.04838E+04 4.18173E+02 1.22102E+05-1.01168E-08-9.47858E-09
 -1       882 2.94755E+05 4.77646E+04 2.67535E+02 1.18983E+05-5.18821E-09-1.11558E-08
 -1       883 2.92034E+05 5.04792E+04 2.87635E+02 1.22095E+05-8.44597E-09 2.49135E-08
 -1       884 2.94748E+05 4.77618E+04 4.57579E+02 1.18984E+05-3.79782E-09-1.31931E-08
 -1       885 2.92070E+05 5.04855E+04 9.20000E+02 1.22106E+05-3.19102E-09-5.83384E-09
 -1       886 2.94713E+05 4.77349E+04 1.85422E+03 1.18980E+05-4.85532E-09 2.96723E-09
 -1       887 2.92396E+05 5.06992E+04 4.05029E+03 1.22153E+05 6.96218E-09 3.01129E-08
 -1       888 2.94457E+05 4.77800E+04 8.16145E+03 1.18850E+05-2.19148E-09 1.26979E-08
 -1       889 2.97255E+05 5.57520E+04 1.94962E+04 1.22004E+05 3.62768E-10-5.61158E-09
 -1       890 2.91126E+05 5.17368E+04 3.65159E+04 1.15744E+05 1.11004E-09 2.83126E-08
 -1       891-9.10030E+01-1.62538E+05-1.99274E+03 2.71707E+04 1.06024E-09 1.52529E-08
 -1       892-1.77828E+02-1.63063E+05-2.14047E+03 4.12569E+04 2.32603E-10-8.80868E-09
 -1       893 4.17553E+01-1.62602E+05-3.03092E+03 2.71781E+04-1.99884E-09-2.88856E-09
 -1       894-1.51049E+03-1.64208E+05-6.27302E+03 4.11044E+04 2.89947E-09 2.68255E-09
 -1       895-1.19929E+03-1.61295E+05-1.10468E+04 2.73250E+04-1.68166E-09-6.64113E-09
 -1       956-3.76420E+05-5.43506E+03-1.34236E+04 3.06837E+04 5.35329E-09 1.50339E-09
 -1       957-3.79054E+05-1.91505E+03-6.89013E+03 3.68756E+04 5.01495E-09-1.08782E-08
 -1       958-3.77626E+05-2.37727E+02-3.10490E+03 3.05165E+04-6.47378E-09-1.47197E-08
 -1       959-3.77822E+05-1.32815E+02-1.58542E+03 3.70703E+04-4.34193E-09 1.69393E-08
 -1       960-3.77743E+05-4.21508E+01-7.73126E+02 3.04993E+04-1.26147E-09-3.06136E-09
 -1       961-3.77742E+05-6.00257E+01-4.09909E+02 3.70906E+04 1.07007E-08 6.41944E-09
 -1       962-3.77771E+05-4.34304E+01-2.34688E+02 3.04964E+04-3.63798E-11-4.27826E-09
 -1       963-3.77742E+05-5.58731E+01-1.88405E+02 3.70943E+04 4.60841E-09 4.39218E-09
 -1       964-3.77776E+05-4.00848E+01-2.29122E+02 3.04956E+04 6.13696E-10 1.08917E-08
 -1       965-3.77754E+05-5.28928E+01-3.96291E+02 3.70936E+04-5.69742E-09 3.58818E-09
 -1       966-3.77760E+05-3.22079E+01-7.44615E+02 3.04971E+04 6.93626E-09-9.49171E-09
 -1       967-3.77844E+05-1.16223E+02-1.52720E+03 3.70793E+04 4.28486E-09 2.14300E-08
 -1       968-3.77657E+05-2.14214E+02-2.98969E+03 3.05097E+04-8.02174E-10-2.48804E-09
 -1       969-3.79042E+05-1.82740E+03-6.63705E+03 3.69319E+04-1.87947E-09 1.29311E-08
 -1       970-3.76503E+05-5.21668E+03-1.29293E+04 3.06363E+04-2.76032E-09 5.58157E-09
 -1       971-3.44842E+05-1.72618E+03-9.30914E+03 1.53738E+04 1.12595E-09 4.73391E-09
 -1       972-3.47084E+05-1.27005E+03-5.06966E+03 2.12672E+04 2.68074E-09 2.05150E-08
 -1       973-3.45880E+05-6.08680E+01-2.27075E+03 1.52525E+04 8.89941E-09-6.32735E-09
 -1       974-3.46015E+05-7.94282E+01-1.17706E+03 2.14044E+04 3.53748E-09-1.81258E-08
 -1       975-3.45962E+05-1.59857E+01-5.88807E+02 1.52402E+04-1.92631E-09 1.18860E-08
 -1       976-3.45954E+05-2.95770E+01-3.40481E+02 2.14202E+04 6.26414E-09-6.87135E-09
 -1       977-3.45978E+05-1.52350E+01-2.48520E+02 1.52368E+04 1.72417E-09-5.93616E-09
 -1       978-3.45959E+05-2.33487E+01-2.92732E+02 2.14250E+04 3.39264E-09 0.00000E+00
 -1       979-3.45978E+05-6.76644E+00-4.71974E+02 1.52353E+04-1.67284E-09-5.48914E-09
 -1       980-3.45995E+05-2.02893E+01-9.12355E+02 2.14260E+04-6.08267E-10-9.23421E-09
 -1       981-3.45949E+05 1.60356E+01-1.76756E+03 1.52358E+04 8.39691E-09-1.52465E-08
 -1       982-3.46237E+05-1.50899E+02-3.65382E+03 2.14194E+04 6.76005E-09 3.84100E-09
 -1       983-3.45726E+05-9.71555E+01-7.09955E+03 1.52419E+04-1.17734E-09-1.08698E-08
 -1       984-3.49652E+05-3.85880E+03-1.58992E+04 2.13337E+04-7.70342E-10-1.45150E-08
 -1       985-3.42512E+05-5.29218E+03-2.91959E+04 1.53137E+04-1.92313E-09 5.74801E-09
 -3
    1PSTEP                        37          19           1          
  100CL  119 6.63002E-01         409                     0   19           1
 -4  DISP        4    1
 -5  D1          1    2    1    0
 -5  D2          1    2    2    0
 -5  D3          1    2    3    0
 -5  ALL         1    2    0    0    1ALL
 -1         1 2.69676E-03 0.00000E+00 0.00000E+00
 -1         2 1.39217E-03 1.16497E-27 0.00000E+00
 -1         3 3.43049E-04-6.22527E-28 1.32349E-23
 -1         5 1.78852E-04 3.59721E-28 1.65436E-24
 -1         8 2.68535E-03-4.16394E-07 0.00000E+00
 -1         9 2.67865E-03-1.74429E-04 0.00000E+00
 -1        10 3.11298E-04-3.42512E-06 0.00000E+00
 -1        12 1.80664E-04 8.08081E-07-1.24077E-24
 -1        15 2.67220E-03-4.41887E-07 2.06795E-25
 -1        16 2.73859E-03-1.76160E-04 0.00000E+00
 -1        17 2.12711E-04-7.79743E-06 0.00000E+00
 -1        18 1.84507E-04 3.39533E-05 0.00000E+00
 -1        19 1.86098E-04 1.60983E-06 0.00000E+00
 -1        20 1.86239E-04-9.45400E-06 0.00000E+00
 -1        21 1.85349E-04-2.45225E-05 0.00000E+00
 -1        24 3.06779E-05-1.21032E-05 0.00000E+00
 -1        25 1.95116E-04 3.41784E-05 0.00000E+00
 -1        26 1.95801E-04 2.22933E-06 0.00000E+00
 -1        27 1.93604E-04-1.30087E-05 0.00000E+00
 -1        28 1.93285E-04-2.51444E-05 0.00000E+00
 -1        32 0.00000E+00 0.00000E+00 0.00000E+00
 -1        33 2.04494E-04 2.98236E-06 0.00000E+00
 -1        34 2.02378E-04-1.30644E-05 0.00000E+00
 -1        35 2.00447E-04-2.54865E-05 0.00000E+00
 -1        51 2.69600E-03-8.64734E-08-3.30872E-24
 -1        52 2.69461E-03-1.54765E-07 0.00000E+00
 -1        53 2.69271E-03-2.19678E-07 0.00000E+00
 -1        54 2.69044E-03-2.83446E-07 0.00000E+00
 -1        55 2.68794E-03-3.47823E-07-2.48154E-24
 -1        56 2.68985E-03 6.60318E-06 5.29396E-23
 -1        57 2.67702E-03 2.78671E-05-5.29396E-23
 -1        58 2.66018E-03 5.90987E-05-1.05879E-22
 -1        59 2.64152E-03 9.46379E-05 5.29396E-23
 -1        60 2.62373E-03 1.28091E-04 1.05879E-22
 -1        61 2.60932E-03 1.53232E-04 5.29396E-23
 -1        62 2.60009E-03 1.65323E-04 1.05879E-22
 -1        63 2.59719E-03 1.60784E-04-5.29396E-23
 -1        64 2.60051E-03 1.39074E-04 1.05879E-22
 -1        65 2.60938E-03 1.01252E-04 0.00000E+00
 -1        66 2.62224E-03 5.14036E-05-1.05879E-22
 -1        67 2.63726E-03-5.22752E-06 5.29396E-23
 -1        68 2.65237E-03-6.21018E-05 1.05879E-22
 -1        69 2.66548E-03-1.12649E-04 5.29396E-23
 -1        70 2.67473E-03-1.51514E-04-5.29396E-23
 -1        86 1.47302E-03-5.60399E-06 0.00000E+00
 -1        87 1.70741E-03-3.48335E-05 0.00000E+00
 -1        88 2.02250E-03-8.49254E-05-2.64698E-23
 -1        89 2.34159E-03-1.36311E-04 0.00000E+00
 -1        90 2.58566E-03-1.67746E-04-5.29396E-23
 -1       121 3.42157E-04-5.53339E-07 0.00000E+00
 -1       122 3.39486E-04-1.10973E-06 0.00000E+00
 -1       123 3.35044E-04-1.67217E-06 1.32349E-23
 -1       124 3.28849E-04-2.24366E-06-6.61744E-24
 -1       125 3.20924E-04-2.82682E-06 0.00000E+00
 -1       191 1.78903E-04 1.34742E-07-2.06795E-24
 -1       192 1.79053E-04 2.69472E-07 0.00000E+00
 -1       193 1.79305E-04 4.04184E-07-1.65436E-24
 -1       194 1.79657E-04 5.38864E-07 8.27181E-25
 -1       195 1.80110E-04 6.73500E-07-2.48154E-24
 -1       251 2.68503E-03 1.92128E-06 6.61744E-24
 -1       252 2.68471E-03 4.45720E-06-3.30872E-24
 -1       253 2.68438E-03 6.15985E-06 6.61744E-24
 -1       254 2.68406E-03 6.00860E-06-6.61744E-24
 -1       255 2.68374E-03 3.27911E-06-1.32349E-23
 -1       256 2.68340E-03-2.71887E-06 6.61744E-24
 -1       257 2.68303E-03-1.21536E-05-1.32349E-23
 -1       258 2.68262E-03-2.51479E-05 0.00000E+00
 -1       259 2.68218E-03-4.12566E-05-1.32349E-23
 -1       260 2.68169E-03-5.99931E-05 6.61744E-24
 -1       261 2.68116E-03-8.04509E-05 0.00000E+00
 -1       262 2.68062E-03-1.01702E-04 6.61744E-24
 -1       263 2.68008E-03-1.22690E-04-1.32349E-23
 -1       264 2.67957E-03-1.42363E-04 0.00000E+00
 -1       265 2.67910E-03-1.59880E-04 0.00000E+00
 -1       266 2.68316E-03-4.26467E-07 0.00000E+00
 -1       267 2.68097E-03-4.30006E-07 0.00000E+00
 -1       268 2.67878E-03-4.33959E-07 8.27181E-25
 -1       269 2.67658E-03-4.36686E-07-2.06795E-25
 -1       270 2.67439E-03-4.39384E-07 0.00000E+00
 -1       271 2.68439E-03 3.05338E-07 0.00000E+00
 -1       272 2.68430E-03-1.36960E-06-6.61744E-24
 -1       273 2.68506E-03-5.30602E-06 0.00000E+00
 -1       274 2.68660E-03-1.13581E-05 0.00000E+00
 -1       275 2.68885E-03-1.93600E-05-2.64698E-23
 -1       276 2.69175E-03-2.91315E-05 1.32349E-23
 -1       277 2.69522E-03-4.04767E-05 2.64698E-23
 -1       278 2.69919E-03-5.31875E-05-1.32349E-23
 -1       279 2.70356E-03-6.70442E-05 2.64698E-23
 -1       280 2.70827E-03-8.18176E-05-1.32349E-23
 -1       281 2.71323E-03-9.72706E-05 2.64698E-23
 -1       282 2.71834E-03-1.13161E-04-1.32349E-23
 -1       283 2.72352E-03-1.29243E-04 1.32349E-23
 -1       284 2.72868E-03-1.45268E-04 0.00000E+00
 -1       285 2.73373E-03-1.60989E-04 0.00000E+00
 -1       301 2.68954E-03-1.74749E-04-1.32349E-23
 -1       302 2.69886E-03-1.75026E-04 3.30872E-24
 -1       303 2.70750E-03-1.75294E-04 1.32349E-23
 -1       304 2.71639E-03-1.75562E-04-6.61744E-24
 -1       305 2.72645E-03-1.75844E-04 0.00000E+00
 -1       306 2.71627E-03-3.27741E-04 0.00000E+00
 -1       307 2.78019E-03-7.40197E-04-5.29396E-23
 -1       308 2.82716E-03-1.34401E-03 0.00000E+00
 -1       309 2.85128E-03-2.04357E-03 0.00000E+00
 -1       310 2.88265E-03-2.71340E-03 0.00000E+00
 -1       311 2.94206E-03-3.23065E-03 5.29396E-23
 -1       312 3.00011E-03-3.51470E-03 2.11758E-22
 -1       313 2.99639E-03-3.52733E-03 0.00000E+00
 -1       314 2.85734E-03-3.28022E-03 0.00000E+00
 -1       315 2.54194E-03-2.83735E-03 5.29396E-23
 -1       316 2.06818E-03-2.27515E-03-1.05879E-22
 -1       317 1.50144E-03-1.66299E-03 0.00000E+00
 -1       318 9.55555E-04-1.06171E-03 0.00000E+00
 -1       319 5.38158E-04-5.36405E-04 5.29396E-23
 -1       320 2.93031E-04-1.61009E-04 1.05879E-22
 -1       336 2.99787E-04-4.08633E-06 0.00000E+00
 -1       337 2.86214E-04-4.77290E-06 0.00000E+00
 -1       338 2.70642E-04-5.48698E-06-1.32349E-23
 -1       339 2.53145E-04-6.22935E-06 0.00000E+00
 -1       340 2.33804E-04-7.00443E-06 1.32349E-23
 -1       406 1.81318E-04 9.42587E-07 3.30872E-24
 -1       407 1.82073E-04 1.07698E-06 6.20385E-25
 -1       408 1.82929E-04 1.21121E-06-2.48154E-24
 -1       409 1.83885E-04 1.34511E-06 7.23783E-25
 -1       410 1.84942E-04 1.47840E-06-1.24077E-24
 -1       521 2.77684E-03-3.38769E-04 1.05879E-22
 -1       522 2.83901E-03-7.71335E-04 0.00000E+00
 -1       523 2.87963E-03-1.40270E-03 0.00000E+00
 -1       524 2.89465E-03-2.13057E-03 0.00000E+00
 -1       525 2.91820E-03-2.82674E-03 1.05879E-22
 -1       526 2.97405E-03-3.36588E-03 0.00000E+00
 -1       527 3.03169E-03-3.66059E-03-2.11758E-22
 -1       528 3.02578E-03-3.67167E-03 0.00000E+00
 -1       529 2.87504E-03-3.41075E-03-2.11758E-22
 -1       530 2.53619E-03-2.94960E-03 5.29396E-23
 -1       531 2.02794E-03-2.36840E-03 1.05879E-22
 -1       532 1.42198E-03-1.73912E-03 0.00000E+00
 -1       533 8.37401E-04-1.12004E-03 1.05879E-22
 -1       534 3.86923E-04-5.73920E-04 0.00000E+00
 -1       535 1.20593E-04-1.78944E-04 0.00000E+00
 -1       536 2.11965E-04 2.68834E-05 0.00000E+00
 -1       537 2.10071E-04 8.69104E-05 0.00000E+00
 -1       538 2.07146E-04 1.63077E-04 0.00000E+00
 -1       539 2.03696E-04 2.46093E-04 0.00000E+00
 -1       540 2.00591E-04 3.24535E-04 0.00000E+00
 -1       541 1.98572E-04 3.87003E-04 0.00000E+00
 -1       542 1.97640E-04 4.26785E-04 0.00000E+00
 -1       543 1.97417E-04 4.37317E-04 1.65436E-24
 -1       544 1.97096E-04 4.19371E-04-3.30872E-24
 -1       545 1.95937E-04 3.73937E-04-1.65436E-24
 -1       546 1.93778E-04 3.09091E-04-3.30872E-24
 -1       547 1.90858E-04 2.33032E-04 0.00000E+00
 -1       548 1.87964E-04 1.57353E-04 0.00000E+00
 -1       549 1.85876E-04 9.36485E-05 0.00000E+00
 -1       550 1.84791E-04 4.98975E-05 0.00000E+00
 -1       551 1.87540E-04-8.37403E-06 0.00000E+00
 -1       552 1.58953E-04-9.03539E-06 0.00000E+00
 -1       553 1.27955E-04-9.76228E-06 0.00000E+00
 -1       554 9.55634E-05-1.05321E-05 0.00000E+00
 -1       555 6.27995E-05-1.13153E-05-1.32349E-23
 -1       556 2.05120E-04 1.16162E-05 0.00000E+00
 -1       557 1.98988E-04 2.73568E-05 2.64698E-23
 -1       558 1.94182E-04 3.97108E-05 5.29396E-23
 -1       559 1.90571E-04 4.89872E-05 0.00000E+00
 -1       560 1.88024E-04 5.54952E-05 0.00000E+00
 -1       561 1.86414E-04 5.95467E-05 0.00000E+00
 -1       562 1.85618E-04 6.14547E-05 0.00000E+00
 -1       563 1.85510E-04 6.15332E-05 0.00000E+00
 -1       564 1.85971E-04 6.00970E-05 0.00000E+00
 -1       565 1.86880E-04 5.74616E-05 0.00000E+00
 -1       566 1.88118E-04 5.39431E-05 0.00000E+00
 -1       567 1.89566E-04 4.98580E-05 0.00000E+00
 -1       568 1.91108E-04 4.55228E-05 0.00000E+00
 -1       569 1.92624E-04 4.12541E-05 0.00000E+00
 -1       570 1.93999E-04 3.73687E-05 0.00000E+00
 -1       571 1.84604E-04 3.18552E-05-8.27181E-25
 -1       572 1.84702E-04 2.96915E-05 8.27181E-25
 -1       573 1.84801E-04 2.74779E-05-3.30872E-24
 -1       574 1.84900E-04 2.52306E-05-8.27181E-25
 -1       575 1.85000E-04 2.29660E-05 0.00000E+00
 -1       576 1.85099E-04 2.07006E-05 0.00000E+00
 -1       577 1.85198E-04 1.84507E-05 0.00000E+00
 -1       578 1.85298E-04 1.62327E-05 0.00000E+00
 -1       579 1.85397E-04 1.40633E-05 6.61744E-24
 -1       580 1.85497E-04 1.19586E-05 0.00000E+00
 -1       581 1.85597E-04 9.93538E-06 6.61744E-24
 -1       582 1.85697E-04 8.00986E-06 0.00000E+00
 -1       583 1.85797E-04 6.19849E-06 6.61744E-24
 -1       584 1.85898E-04 4.51754E-06-3.30872E-24
 -1       585 1.85998E-04 2.98308E-06-6.61744E-24
 -1       586 1.86234E-04 3.39929E-05-1.65436E-24
 -1       587 1.87920E-04 3.40320E-05 0.00000E+00
 -1       588 1.89608E-04 3.40707E-05 8.27181E-25
 -1       589 1.91341E-04 3.41088E-05 0.00000E+00
 -1       590 1.93163E-04 3.41455E-05 0.00000E+00
 -1       591 1.85226E-04 3.19483E-05 0.00000E+00
 -1       592 1.85947E-04 2.99231E-05 2.06795E-25
 -1       593 1.86674E-04 2.78837E-05 8.27181E-25
 -1       594 1.87404E-04 2.58347E-05 0.00000E+00
 -1       595 1.88136E-04 2.37811E-05 0.00000E+00
 -1       596 1.88867E-04 2.17274E-05 0.00000E+00
 -1       597 1.89597E-04 1.96784E-05 0.00000E+00
 -1       598 1.90323E-04 1.76389E-05 4.13590E-25
 -1       599 1.91044E-04 1.56135E-05 0.00000E+00
 -1       600 1.91757E-04 1.36069E-05-4.13590E-25
 -1       601 1.92462E-04 1.16240E-05 0.00000E+00
 -1       602 1.93157E-04 9.66928E-06 0.00000E+00
 -1       603 1.93839E-04 7.74761E-06 8.27181E-25
 -1       604 1.94508E-04 5.86377E-06 1.03398E-25
 -1       605 1.95161E-04 4.02239E-06 0.00000E+00
 -1       606 1.86112E-04 4.69420E-07 0.00000E+00
 -1       607 1.86121E-04-5.84725E-07 0.00000E+00
 -1       608 1.86130E-04-1.55766E-06 0.00000E+00
 -1       609 1.86139E-04-2.45510E-06-1.65436E-24
 -1       610 1.86147E-04-3.28282E-06 0.00000E+00
 -1       611 1.86156E-04-4.04663E-06 0.00000E+00
 -1       612 1.86164E-04-4.75235E-06 0.00000E+00
 -1       613 1.86172E-04-5.40584E-06 0.00000E+00
 -1       614 1.86181E-04-6.01294E-06 0.00000E+00
 -1       615 1.86189E-04-6.57947E-06 0.00000E+00
 -1       616 1.86198E-04-7.11129E-06-1.65436E-24
 -1       617 1.86206E-04-7.61423E-06 0.00000E+00
 -1       618 1.86214E-04-8.09413E-06 8.27181E-25
 -1       619 1.86223E-04-8.55684E-06-2.06795E-25
 -1       620 1.86231E-04-9.00818E-06 0.00000E+00
 -1       621 1.87432E-04 1.71364E-06 1.65436E-24
 -1       622 1.88924E-04 1.81770E-06-1.65436E-24
 -1       623 1.90539E-04 1.92154E-06-1.65436E-24
 -1       624 1.92246E-04 2.02506E-06 1.65436E-24
 -1       625 1.94011E-04 2.12830E-06-3.30872E-24
 -1       626 1.86638E-04 5.05480E-07-3.30872E-24
 -1       627 1.87155E-04-5.35378E-07 0.00000E+00
 -1       628 1.87651E-04-1.52061E-06 6.61744E-24
 -1       629 1.88129E-04-2.45841E-06 0.00000E+00
 -1       630 1.88593E-04-3.35700E-06 0.00000E+00
 -1       631 1.89046E-04-4.22460E-06 0.00000E+00
 -1       632 1.89489E-04-5.06945E-06 3.30872E-24
 -1       633 1.89928E-04-5.89979E-06 0.00000E+00
 -1       634 1.90364E-04-6.72386E-06 0.00000E+00
 -1       635 1.90800E-04-7.54987E-06 0.00000E+00
 -1       636 1.91241E-04-8.38609E-06 0.00000E+00
 -1       637 1.91688E-04-9.24074E-06-1.65436E-24
 -1       638 1.92146E-04-1.01221E-05 1.65436E-24
 -1       639 1.92616E-04-1.10383E-05-1.65436E-24
 -1       640 1.93101E-04-1.19977E-05-1.65436E-24
 -1       656 1.86918E-04-1.00318E-05 0.00000E+00
 -1       657 1.88017E-04-1.06330E-05 0.00000E+00
 -1       658 1.89397E-04-1.12329E-05 0.00000E+00
 -1       659 1.90911E-04-1.18324E-05 0.00000E+00
 -1       660 1.92374E-04-1.24337E-05 6.61744E-24
 -1       661 1.86493E-04-9.94479E-06 0.00000E+00
 -1       662 1.86785E-04-1.05272E-05 8.27181E-25
 -1       663 1.87109E-04-1.11961E-05 0.00000E+00
 -1       664 1.87463E-04-1.19449E-05 0.00000E+00
 -1       665 1.87845E-04-1.27679E-05 0.00000E+00
 -1       666 1.88253E-04-1.36591E-05 8.27181E-25
 -1       667 1.88685E-04-1.46130E-05 0.00000E+00
 -1       668 1.89137E-04-1.56240E-05 0.00000E+00
 -1       669 1.89609E-04-1.66867E-05 0.00000E+00
 -1       670 1.90099E-04-1.77958E-05 8.27181E-25
 -1       671 1.90603E-04-1.89462E-05 0.00000E+00
 -1       672 1.91121E-04-2.01327E-05 0.00000E+00
 -1       673 1.91651E-04-2.13505E-05-1.65436E-24
 -1       674 1.92190E-04-2.25948E-05 0.00000E+00
 -1       675 1.92737E-04-2.38604E-05-2.06795E-25
 -1       676 1.86676E-04-2.46267E-05 0.00000E+00
 -1       677 1.88003E-04-2.47309E-05 0.00000E+00
 -1       678 1.89328E-04-2.48351E-05 0.00000E+00
 -1       679 1.90650E-04-2.49389E-05 1.65436E-24
 -1       680 1.91969E-04-2.50428E-05 1.65436E-24
 -1       771 1.86712E-05 1.47565E-05-5.29396E-23
 -1       772 8.57166E-06 3.68175E-05 0.00000E+00
 -1       773 2.87425E-07 5.43107E-05 5.29396E-23
 -1       774-6.30656E-06 6.74955E-05 2.64698E-23
 -1       775-1.13327E-05 7.66413E-05 5.29396E-23
 -1       776-1.49182E-05 8.20347E-05 2.64698E-23
 -1       777-1.71902E-05 8.39723E-05-5.29396E-23
 -1       778-1.82783E-05 8.27646E-05 0.00000E+00
 -1       779-1.83114E-05 7.87309E-05 5.29396E-23
 -1       780-1.74205E-05 7.22017E-05-2.64698E-23
 -1       781-1.57356E-05 6.35144E-05 0.00000E+00
 -1       782-1.33884E-05 5.30155E-05 2.64698E-23
 -1       783-1.05096E-05 4.10558E-05 5.29396E-23
 -1       784-7.23098E-06 2.79928E-05 2.64698E-23
 -1       785-3.68356E-06 1.41866E-05-5.29396E-23
 -1       786 1.95154E-04 3.19545E-05 0.00000E+00
 -1       787 1.95196E-04 2.97805E-05 0.00000E+00
 -1       788 1.95238E-04 2.76481E-05 0.00000E+00
 -1       789 1.95281E-04 2.55493E-05 8.27181E-25
 -1       790 1.95324E-04 2.34791E-05 0.00000E+00
 -1       791 1.95367E-04 2.14330E-05 0.00000E+00
 -1       792 1.95410E-04 1.94086E-05 0.00000E+00
 -1       793 1.95453E-04 1.74039E-05 0.00000E+00
 -1       794 1.95496E-04 1.54186E-05 0.00000E+00
 -1       795 1.95540E-04 1.34527E-05 0.00000E+00
 -1       796 1.95583E-04 1.15079E-05-1.65436E-24
 -1       797 1.95626E-04 9.58617E-06-8.27181E-25
 -1       798 1.95670E-04 7.69181E-06 0.00000E+00
 -1       799 1.95713E-04 5.82915E-06 0.00000E+00
 -1       800 1.95757E-04 4.00576E-06 1.65436E-24
 -1       801 1.49640E-04 3.07178E-05 0.00000E+00
 -1       802 1.21070E-05 1.91496E-05 2.64698E-23
 -1       803-1.05748E-04 9.61756E-06 0.00000E+00
 -1       804-9.45203E-05 6.68426E-06 2.64698E-23
 -1       805-3.13955E-05 2.64793E-06 0.00000E+00
 -1       806 1.95834E-04 3.18858E-05-1.65436E-24
 -1       807 1.96539E-04 2.96193E-05-1.65436E-24
 -1       808 1.97232E-04 2.73841E-05 0.00000E+00
 -1       809 1.97911E-04 2.51843E-05 0.00000E+00
 -1       810 1.98575E-04 2.30239E-05-3.30872E-24
 -1       811 1.99223E-04 2.09069E-05 0.00000E+00
 -1       812 1.99853E-04 1.88372E-05 0.00000E+00
 -1       813 2.00464E-04 1.68188E-05 0.00000E+00
 -1       814 2.01054E-04 1.48554E-05 3.30872E-24
 -1       815 2.01623E-04 1.29511E-05 8.27181E-25
 -1       816 2.02168E-04 1.11097E-05 0.00000E+00
 -1       817 2.02688E-04 9.33515E-06 0.00000E+00
 -1       818 2.03182E-04 7.63128E-06-1.65436E-24
 -1       819 2.03648E-04 6.00198E-06-1.65436E-24
 -1       820 2.04085E-04 4.45108E-06 0.00000E+00
 -1       821 1.95672E-04-9.56981E-08 0.00000E+00
 -1       822 1.95532E-04-3.55948E-06 1.65436E-24
 -1       823 1.95390E-04-7.73873E-06 0.00000E+00
 -1       824 1.95245E-04-1.22057E-05 0.00000E+00
 -1       825 1.95102E-04-1.64549E-05-3.30872E-24
 -1       826 1.94960E-04-1.99821E-05-1.65436E-24
 -1       827 1.94822E-04-2.24796E-05 0.00000E+00
 -1       828 1.94685E-04-2.36461E-05 0.00000E+00
 -1       829 1.94550E-04-2.35421E-05 0.00000E+00
 -1       830 1.94413E-04-2.22362E-05 0.00000E+00
 -1       831 1.94276E-04-2.01238E-05 0.00000E+00
 -1       832 1.94138E-04-1.76052E-05-1.65436E-24
 -1       833 1.94000E-04-1.51914E-05 3.30872E-24
 -1       834 1.93865E-04-1.33928E-05 1.65436E-24
 -1       835 1.93730E-04-1.25527E-05-8.27181E-25
 -1       836 1.97462E-04 2.35421E-06 3.30872E-24
 -1       837 1.98996E-04 2.48223E-06-1.65436E-24
 -1       838 2.00434E-04 2.61019E-06-3.30872E-24
 -1       839 2.01808E-04 2.73744E-06 0.00000E+00
 -1       840 2.03151E-04 2.86453E-06 8.27181E-25
 -1       856 1.93588E-04-1.40421E-05 0.00000E+00
 -1       857 1.93568E-04-1.49398E-05 0.00000E+00
 -1       858 1.93549E-04-1.57227E-05 0.00000E+00
 -1       859 1.93529E-04-1.64122E-05 0.00000E+00
 -1       860 1.93509E-04-1.70295E-05 4.13590E-25
 -1       861 1.93489E-04-1.75958E-05 0.00000E+00
 -1       862 1.93469E-04-1.81324E-05 0.00000E+00
 -1       863 1.93449E-04-1.86607E-05 4.13590E-25
 -1       864 1.93429E-04-1.92021E-05-8.27181E-25
 -1       865 1.93409E-04-1.97778E-05 0.00000E+00
 -1       866 1.93389E-04-2.04093E-05 8.27181E-25
 -1       867 1.93369E-04-2.11177E-05 0.00000E+00
 -1       868 1.93348E-04-2.19243E-05 8.27181E-25
 -1       869 1.93328E-04-2.28503E-05 4.13590E-25
 -1       870 1.93307E-04-2.39167E-05-8.27181E-25
 -1       871 1.94925E-04-1.30136E-05 0.00000E+00
 -1       872 1.96393E-04-1.30218E-05 0.00000E+00
 -1       873 1.97940E-04-1.30308E-05 0.00000E+00
 -1       874 1.99499E-04-1.30404E-05 1.29247E-25
 -1       875 2.01001E-04-1.30507E-05-4.13590E-25
 -1       876 1.94118E-04-1.40276E-05 0.00000E+00
 -1       877 1.94611E-04-1.49796E-05 0.00000E+00
 -1       878 1.95082E-04-1.58728E-05-3.30872E-24
 -1       879 1.95533E-04-1.67146E-05 1.65436E-24
 -1       880 1.95969E-04-1.75123E-05 0.00000E+00
 -1       881 1.96390E-04-1.82734E-05 1.65436E-24
 -1       882 1.96801E-04-1.90051E-05 0.00000E+00
 -1       883 1.97204E-04-1.97149E-05-1.65436E-24
 -1       884 1.97601E-04-2.04101E-05 0.00000E+00
 -1       885 1.97995E-04-2.10980E-05 0.00000E+00
 -1       886 1.98389E-04-2.17859E-05 0.00000E+00
 -1       887 1.98786E-04-2.24813E-05 1.65436E-24
 -1       888 1.99189E-04-2.31914E-05 0.00000E+00
 -1       889 1.99598E-04-2.39238E-05-1.65436E-24
 -1       890 2.00019E-04-2.46857E-05 0.00000E+00
 -1       891 1.94621E-04-2.52019E-05 0.00000E+00
 -1       892 1.95933E-04-2.52595E-05-8.27181E-25
 -1       893 1.97197E-04-2.53170E-05-1.65436E-24
 -1       894 1.98387E-04-2.53743E-05-4.13590E-25
 -1       895 1.99479E-04-2.54313E-05-8.27181E-25
 -1       956 2.04363E-04 1.68796E-06-1.65436E-24
 -1       957 2.04231E-04 4.84908E-07 8.27181E-25
 -1       958 2.04099E-04-6.37502E-07 0.00000E+00
 -1       959 2.03966E-04-1.69058E-06 0.00000E+00
 -1       960 2.03833E-04-2.68566E-06 0.00000E+00
 -1       961 2.03701E-04-3.63415E-06 1.65436E-24
 -1       962 2.03568E-04-4.54742E-06 3.30872E-24
 -1       963 2.03435E-04-5.43691E-06 0.00000E+00
 -1       964 2.03303E-04-6.31401E-06 3.30872E-24
 -1       965 2.03170E-04-7.19012E-06-1.65436E-24
 -1       966 2.03037E-04-8.07669E-06 0.00000E+00
 -1       967 2.02905E-04-8.98511E-06 0.00000E+00
 -1       968 2.02772E-04-9.92677E-06 0.00000E+00
 -1       969 2.02640E-04-1.09130E-05-3.30872E-24
 -1       970 2.02508E-04-1.19553E-05 0.00000E+00
 -1       971 2.02258E-04-1.41728E-05 0.00000E+00
 -1       972 2.02137E-04-1.51865E-05 1.65436E-24
 -1       973 2.02015E-04-1.61160E-05 3.30872E-24
 -1       974 2.01894E-04-1.69721E-05-1.65436E-24
 -1       975 2.01773E-04-1.77656E-05 0.00000E+00
 -1       976 2.01651E-04-1.85076E-05-1.65436E-24
 -1       977 2.01530E-04-1.92088E-05 0.00000E+00
 -1       978 2.01409E-04-1.98801E-05 1.65436E-24
 -1       979 2.01287E-04-2.05325E-05 0.00000E+00
 -1       980 2.01166E-04-2.11770E-05 1.65436E-24
 -1       981 2.01045E-04-2.18243E-05 3.30872E-24
 -1       982 2.00924E-04-2.24855E-05 1.65436E-24
 -1       983 2.00803E-04-2.31715E-05 3.30872E-24
 -1       984 2.00682E-04-2.38931E-05 1.65436E-24
 -1       985 2.00562E-04-2.46612E-05 0.00000E+00
 -3
    1PSTEP                        38          19           1          
  100CL  119 6.63002E-01         409                     0   19           1
 -4  STRESS      6    1
 -5  SXX         1    4    1    1
 -5  SYY         1    4    2    2
 -5  SZZ         1    4    3    3
 -5  SXY         1    4    1    2
 -5  SYZ         1    4    2    3
 -5  SZX         1    4    3    1
 -1         1-5.30112E+06-1.65073E+06-1.13121E+06-1.43637E+06-1.60071E-10-3.33122E-07
 -1         2 1.30659E+06 1.92380E+07 4.54945E+06 5.78169E+06 2.24099E-08 1.71931E-07
 -1         3-1.46865E+03-1.57130E+06 4.07376E+02-2.21558E+03-5.07789E-10 5.35656E-08
 -1         5-7.24690E+01 3.85834E+05 9.96949E+00-1.31335E+00-5.96172E-10-2.41580E-08
 -1         8-5.86830E+05-2.08197E+05-6.69345E+04-2.52787E+05 7.09406E-11-3.24144E-09
 -1         9 1.15503E+07 3.35682E+06 2.66290E+06-4.44777E+05-1.07568E-08 8.27713E-08
 -1        10-2.29343E+03-1.63742E+06-3.95820E+03-1.49888E+04-1.37079E-08-4.45831E-08
 -1        12-6.85485E+01 3.85856E+05 3.27539E+02-8.96147E+00-6.88956E-10 2.33704E-08
 -1        15 9.65104E+02 5.30378E+02 3.11964E+03 9.14614E-01 8.08740E-11-9.40175E-08
 -1        16 2.27431E+07-3.04503E+05 3.10369E+06-2.19657E+06 1.42997E-08 2.80949E-07
 -1        17 8.31210E+06 6.22291E+06 2.24607E+06 5.95363E+06 4.13129E-08 3.26429E-08
 -1        18 1.39855E+05 3.28325E+04 3.60032E+03-1.19117E+05 1.33323E-08 3.75394E-09
 -1        19 1.22252E+05 1.41492E+05-9.42213E+02 2.19682E+04 1.50085E-09-1.79756E-08
 -1        20-8.15504E+04-5.73012E+05-1.28558E+05 2.52555E+04-2.73591E-09 1.01578E-08
 -1        21-4.56470E+01-2.96029E+05-9.24381E+02 2.69490E+02 1.17675E-08-2.12283E-08
 -1        24 1.38788E+07 1.19667E+07 3.85215E+06 1.10644E+07-1.24147E-07-5.30660E-08
 -1        25 1.22818E+05 2.59769E+05 9.80362E+04-6.34252E+05-1.82272E-09 1.28694E-08
 -1        26-5.51683E+04 9.21836E+04-2.45778E+04 1.16475E+03-1.76078E-10-9.51280E-09
 -1        27-7.56466E+04-3.09622E+05-1.13221E+05 6.89150E+04 3.38089E-09 1.36133E-08
 -1        28 2.22517E+04-8.53135E+04 1.68972E+04 2.06741E+04-1.98116E-09 4.28859E-09
 -1        32-1.67995E+06-3.17894E+06-1.96943E+05 4.33404E+05-4.26371E-08-1.13581E-08
 -1        33-1.78313E+05 9.28651E+04 3.23502E+04-3.85435E+04-3.04988E-09 3.27391E-08
 -1        34-2.23446E+05-2.49792E+04 6.87609E+02 7.55290E+04-6.05016E-09-5.82850E-09
 -1        35-2.29367E+04-3.38339E+04-1.34777E+03 5.15011E+04-3.09046E-09-3.08137E-09
 -1        51 5.99640E+04-1.76477E+05 1.26991E+05-4.56964E+05-5.82077E-11-8.50850E-08
 -1        52 2.03859E+04-1.54407E+05 6.67525E+04-5.32926E+05 1.41881E-10-1.32528E-07
 -1        53 4.26051E+03-1.69805E+05 3.49536E+04-4.55379E+05 3.78350E-10-1.51289E-07
 -1        54 7.71251E+03-1.65613E+05 2.91071E+04-5.34491E+05-2.54659E-10-3.82297E-08
 -1        55 1.67660E+04-1.72847E+05 3.58582E+04-4.55267E+05 9.09495E-11 6.02959E-08
 -1        56-9.68900E+06-1.28757E+06-8.83441E+05-3.98856E+06-3.28000E-08-2.71597E-07
 -1        57-1.08364E+07-1.01690E+06-5.53589E+05-2.87687E+06 1.25001E-08 1.79047E-07
 -1        58-9.59852E+06-1.71263E+06-1.98619E+05-4.12818E+06-7.55244E-09-3.52084E-08
 -1        59-1.08921E+07-5.42674E+05-1.11351E+05-2.82314E+06-1.55837E-08 5.14738E-08
 -1        60-9.67882E+06-1.71917E+06-5.34089E+04-4.08381E+06-1.35260E-08 2.67319E-07
 -1        61-1.04113E+07-7.96793E+05 6.11258E+02-3.05100E+06 1.74623E-10-2.66469E-07
 -1        62-9.99226E+06-1.51700E+06-5.27444E+04-3.83293E+06-3.70201E-08-9.04402E-09
 -1        63-9.73918E+06-1.34976E+06 3.03768E+04-3.61941E+06 3.13994E-08-8.97198E-08
 -1        64-1.02849E+07-1.21309E+06-4.82816E+04-3.47253E+06 9.20409E-09-1.70719E-07
 -1        65-9.40168E+06-1.83447E+06-7.22932E+02-4.30920E+06-2.59388E-08-3.43309E-07
 -1        66-1.04091E+07-9.77015E+05-4.48710E+04-3.20254E+06-5.89716E-09-8.64566E-08
 -1        67-9.37458E+06-2.05575E+06-1.00422E+05-4.62968E+06-5.04415E-08 2.59770E-08
 -1        68-1.03901E+07-9.37675E+05-1.82608E+05-3.20205E+06-5.82086E-08 1.59926E-08
 -1        69-9.59170E+06-2.17462E+06-4.94815E+05-4.27560E+06-5.56774E-08-1.19908E-07
 -1        70-1.01223E+07-9.18231E+05-8.06744E+05-3.50752E+06-1.35406E-08 1.00117E-07
 -1        86-1.33209E+06-1.42752E+07-2.48766E+06-2.72394E+06-2.50242E-07-1.32713E-08
 -1        87 2.06357E+06 5.37350E+06 2.07011E+06 5.17759E+06-4.37460E-07-1.82461E-07
 -1        88-3.72616E+05-2.10258E+06 1.91708E+05-2.38697E+06-4.00833E-07 4.01665E-08
 -1        89 2.76689E+06 5.12775E+06 2.11837E+06 5.33998E+06-5.49204E-07 2.91238E-08
 -1        90-1.95786E+06-1.40936E+07-2.69272E+06-2.90876E+06-1.46287E-07 1.44355E-07
 -1       121-2.01282E+03-1.57614E+06-5.32369E+02 1.09834E+03 1.40305E-09 5.24597E-09
 -1       122-1.28220E+03-1.57136E+06 7.74679E+02-4.43469E+03-5.31938E-09-3.88536E-09
 -1       123-2.03365E+03-1.57628E+06 2.83508E+02 3.28009E+03 4.40002E-09-1.46829E-08
 -1       124 3.65226E+02-1.57090E+06 2.97574E+03-9.27518E+03-1.00003E-08-1.96451E-09
 -1       125-2.85105E+03-1.57718E+06 3.51483E+03 5.89390E+03 6.60839E-09-1.10231E-08
 -1       191-7.63809E+01 3.85853E+05 8.61359E+00 6.83852E-01-5.87020E-10-1.77533E-08
 -1       192-7.34297E+01 3.85835E+05 2.12680E+01-4.21781E+00-6.62880E-10-1.85000E-08
 -1       193-7.89106E+01 3.85853E+05 3.63402E+01 3.70047E+00-1.06421E-09-2.29375E-09
 -1       194-7.65102E+01 3.85838E+05 8.08352E+01-9.57253E+00-5.68630E-10 5.07134E-09
 -1       195-8.37662E+01 3.85850E+05 1.54892E+02 6.22204E+00-1.39242E-09 1.20544E-08
 -1       251-9.14680E+05 1.74035E+04-4.07170E+04-1.49844E+04-5.20396E-09 1.63662E-07
 -1       252-9.30839E+05-2.01010E+04-2.84499E+04 5.15273E+04 7.25672E-09-1.22848E-07
 -1       253-9.23057E+05 2.69900E+03-1.08243E+04-1.16972E+04-2.19222E-09-3.23265E-07
 -1       254-9.17365E+05-3.18923E+03-5.22654E+03 3.80716E+04 2.64117E-09-2.30860E-07
 -1       255-9.27587E+05 1.26030E+02-3.62834E+03-1.53073E+03-2.75941E-09 3.02465E-07
 -1       256-9.11402E+05-3.21277E+02 9.37358E+02 1.43340E+04 7.36964E-09 3.82784E-07
 -1       257-9.28536E+05-5.26560E+02-1.43622E+03 1.20305E+04-1.99248E-09 1.27967E-07
 -1       258-9.13607E+05 8.24815E+02 2.61536E+03-1.14638E+04-6.96684E-09 2.08735E-07
 -1       259-9.25577E+05-8.68496E+02 1.25533E+03 2.42635E+04-2.45655E-09 2.14584E-07
 -1       260-9.19851E+05 2.76764E+03 5.36676E+03-3.03949E+04 7.20348E-09-2.32150E-07
 -1       261-9.22914E+05-1.98820E+03 8.28251E+03 3.09757E+04 1.52941E-08-2.51002E-08
 -1       262-9.18739E+05 1.12454E+04 2.05996E+04-3.60166E+04-3.72513E-09-3.68311E-08
 -1       263-9.26945E+05-9.11545E+03 3.26181E+04 2.98941E+04 5.20691E-09 1.16272E-07
 -1       264-8.89332E+05 6.41627E+04 9.03765E+04-2.63228E+04-1.41049E-08-1.67674E-07
 -1       265-9.51825E+05-5.50476E+04 1.25745E+05 2.12705E+04 7.58303E-09 3.73475E-08
 -1       266-1.74716E+04-8.17049E+03 4.09896E+04-1.95687E+01 4.72937E-11-3.91437E-08
 -1       267 2.02542E+04 9.52169E+03 2.89728E+04 2.25802E+01 3.65617E-10 1.66687E-08
 -1       268-2.71604E+03-1.34859E+03 1.07689E+04-2.87701E+00 2.26009E-10-7.70852E-08
 -1       269 3.20686E+03 1.61393E+03 6.99974E+03 3.35138E+00-2.27374E-11-1.01628E-07
 -1       270-4.81339E+02-2.65169E+02 3.37887E+03-4.54799E-01-1.19826E-10 7.90458E-08
 -1       271-1.54260E+06-1.94744E+05-1.15838E+05-5.99089E+05 3.02734E-08-3.66927E-08
 -1       272-1.54888E+06-3.04868E+05-7.31640E+04-6.29405E+05 1.29730E-08-2.97208E-07
 -1       273-1.56676E+06-2.20062E+05-2.79362E+04-5.91122E+05-9.05493E-09-1.27793E-07
 -1       274-1.52085E+06-2.74536E+05-1.47721E+04-6.43964E+05-7.22321E-09-3.05445E-08
 -1       275-1.57228E+06-2.20069E+05-6.87311E+03-5.87486E+05 4.31173E-08 2.39740E-07
 -1       276-1.51479E+06-2.75153E+05-3.03528E+03-6.51955E+05 7.31598E-09-3.19687E-08
 -1       277-1.57500E+06-2.17669E+05-1.88227E+03-5.84845E+05-3.34330E-09-1.96451E-08
 -1       278-1.51230E+06-2.78297E+05-8.00791E+02-6.57857E+05 2.63099E-08 1.33840E-07
 -1       279-1.57675E+06-2.15643E+05-9.34353E+02-5.82962E+05-1.92631E-09 4.15948E-08
 -1       280-1.51106E+06-2.80760E+05-1.16483E+03-6.61819E+05 4.67580E-08 4.28463E-08
 -1       281-1.57769E+06-2.14296E+05-2.14682E+03-5.81865E+05-3.20142E-10-1.24614E-07
 -1       282-1.51143E+06-2.83249E+05-5.00890E+03-6.63548E+05 2.39650E-08 4.76120E-08
 -1       283-1.57714E+06-2.12818E+05-8.90970E+03-5.81683E+05-7.80290E-09-1.23355E-07
 -1       284-1.51932E+06-2.95159E+05-2.42858E+04-6.61395E+05-2.28693E-08-7.12407E-08
 -1       285-1.56988E+06-2.03661E+05-3.78423E+04-5.83526E+05-2.32676E-08 3.27345E-08
 -1       301-3.18039E+03-6.36031E+05 1.67664E+05-1.11297E+06-8.65839E-09 2.01006E-07
 -1       302-4.01692E+03-5.90148E+05 1.00925E+05-1.62501E+06-1.70694E-08 3.16586E-07
 -1       303-1.86372E+04-6.27489E+05 5.73425E+04-1.10997E+06 2.96131E-09-4.28499E-08
 -1       304-1.99809E+04-5.96332E+05 5.82703E+04-1.62434E+06-2.03727E-09-2.07074E-07
 -1       305-2.25582E+04-6.16636E+05 7.23772E+04-1.11308E+06 1.11759E-08-1.82787E-07
 -1       306-3.00850E+07-6.21247E+06-8.59347E+06-5.60138E+05-6.74045E-08-2.14379E-07
 -1       307 2.53908E+07 3.22269E+06 5.51212E+06-1.51209E+07-8.81846E-07-4.73752E-07
 -1       308-7.02938E+06-1.03167E+06-4.68360E+05 5.19961E+06-2.08354E-07 8.42556E-08
 -1       309-3.30201E+06 8.71269E+06 2.27172E+06-2.06247E+07 3.57028E-07 1.13971E-07
 -1       310-1.24743E+07-1.92053E+06-2.00368E+06 5.20705E+06-9.87784E-08-3.30081E-07
 -1       311 3.80911E+07 2.55661E+04 7.22933E+06-8.89199E+06 4.21685E-07-4.86762E-07
 -1       312-3.18298E+07-6.71841E+06-8.49344E+06-4.95980E+06 6.32135E-08-2.04091E-07
 -1       313 4.53805E+07 1.48118E+07 1.06303E+07 2.36056E+07 1.71043E-07 3.15777E-08
 -1       314-1.72810E+07-1.76718E+07-7.50702E+06-1.25134E+07 3.81260E-07-1.16590E-07
 -1       315-1.73059E+06 2.95924E+07 5.66246E+06 1.06334E+07-3.52986E-07 1.08150E-07
 -1       316 1.35531E+06-9.84533E+06-4.51013E+05-2.57869E+06-1.14611E-06-3.48751E-07
 -1       317-1.71438E+07 2.23737E+07 2.22810E+06-8.72406E+06 8.61648E-07-8.22503E-07
 -1       318-1.06707E+06-1.27098E+07-2.01884E+06-4.24576E+06-8.62317E-07 9.77889E-08
 -1       319 7.12879E+06 3.17686E+07 6.99650E+06 1.65260E+07-3.63943E-08 3.04630E-07
 -1       320-2.25288E+07-1.75555E+07-9.80902E+06-1.27669E+07 2.05357E-07-2.24682E-08
 -1       336-7.01495E+02-1.70623E+06-1.38892E+04 8.92876E+03-2.66227E-08-2.74304E-09
 -1       337-5.41092E+03-1.70588E+06-1.81220E+04-2.16749E+04-4.90929E-08 5.33691E-09
 -1       338 3.09997E+02-1.70572E+06-2.84931E+04 1.25004E+04-3.43953E-08-5.42059E-10
 -1       339-3.02350E+04-1.72312E+06-6.44197E+04-2.86675E+04-6.18857E-08-6.19912E-09
 -1       340 1.99535E+04-1.69116E+06-1.01450E+05 1.57919E+04-4.19968E-08 2.39670E-08
 -1       406-4.67506E+01 3.85836E+05 6.43257E+02 3.26326E+00-1.96118E-09 1.98997E-09
 -1       407 1.57291E+02 3.85969E+05 1.37438E+03 2.29815E+01-6.90456E-10-7.56700E-10
 -1       408 6.36678E+02 3.85735E+05 2.74058E+03-2.65820E+01-2.57432E-09-1.90284E-08
 -1       409 2.90471E+03 3.86844E+05 6.17672E+03 2.83555E+02-5.04656E-10-8.97035E-09
 -1       410 8.46834E+03 3.84947E+05 1.26066E+04-2.73413E+02-3.00133E-09-8.90032E-09
 -1       521-3.16116E+07-7.66087E+06-1.00310E+07-1.69452E+05-8.42847E-08 1.27591E-07
 -1       522 2.62355E+07 4.22845E+06 5.61435E+06-1.86066E+07-4.71133E-07-1.22935E-07
 -1       523-7.60866E+06-1.34332E+06-4.61138E+05 5.64421E+06 1.71829E-07-4.71191E-07
 -1       524-6.80176E+06 1.17468E+07 2.45447E+06-2.36665E+07 9.51390E-07-6.03683E-07
 -1       525-1.32687E+07-2.54606E+06-2.19965E+06 5.65367E+06 9.06119E-07-3.07889E-07
 -1       526 4.15256E+07-5.82157E+04 7.58136E+06-1.15422E+07 7.99191E-08 3.44880E-08
 -1       527-3.36526E+07-8.40096E+06-9.78101E+06-4.81527E+06-1.72178E-07 5.71556E-07
 -1       528 4.95340E+07 1.64683E+07 1.10803E+07 2.68128E+07-1.79105E-07 1.72295E-08
 -1       529-1.82258E+07-1.98569E+07-8.60194E+06-1.25433E+07-5.37257E-08-3.61819E-07
 -1       530-4.19402E+06 3.43461E+07 5.98967E+06 1.01303E+07-1.35333E-08 4.15428E-07
 -1       531 1.34619E+06-1.09210E+07-4.27463E+05-2.53719E+06-7.88510E-07 2.83646E-07
 -1       532-1.96807E+07 2.43785E+07 2.43213E+06-1.29828E+07 3.52185E-07-7.71513E-07
 -1       533-1.10550E+06-1.38442E+07-2.14233E+06-4.05826E+06-2.72325E-07-1.01683E-06
 -1       534 5.08798E+06 3.68380E+07 7.27385E+06 1.70673E+07-3.25381E-08 7.59086E-07
 -1       535-2.36822E+07-1.99299E+07-1.12319E+07-1.28290E+07 8.02102E-08 4.72472E-07
 -1       536-7.02075E+05-4.67048E+04-4.62098E+04-5.41400E+04-5.03314E-09 5.91017E-08
 -1       537-5.88278E+04 4.47540E+04 8.37610E+04 1.22809E+05-1.10014E-07 8.82333E-08
 -1       538-3.94212E+05 3.21930E+03 3.85612E+03-7.16784E+04 2.90498E-08 1.11771E-07
 -1       539-2.70458E+05 2.89197E+03 2.47946E+04 1.37664E+05 1.77954E-07 1.06543E-07
 -1       540-4.95753E+05-4.18398E+02-2.09494E+04-6.95199E+04 3.21593E-08 1.11803E-07
 -1       541 1.39963E+05 1.67587E+04 1.05071E+05 9.70225E+04-5.54830E-08 9.46942E-08
 -1       542-7.93576E+05-1.98858E+04-8.31499E+04-3.01789E+04 4.06826E-08 5.76839E-08
 -1       543 3.95306E+05 2.69814E+04 1.55952E+05-1.32820E+04 5.94036E-09-2.45282E-08
 -1       544-7.44249E+05-1.63189E+04-7.38662E+04 4.01278E+04 2.33285E-08-3.42120E-08
 -1       545 2.35683E+04 9.33786E+03 7.87278E+04-1.12674E+05-5.45283E-08-7.06125E-08
 -1       546-4.31820E+05 6.03879E+03-1.20836E+04 6.88745E+04-6.76391E-09-9.62837E-08
 -1       547-2.88393E+05-4.66443E+03 1.03383E+04-1.40503E+05-1.26544E-07-1.04815E-07
 -1       548-4.40672E+05 4.70198E+03-2.37265E+04 6.86341E+04-1.00940E-07-8.62419E-08
 -1       549 4.26946E+04 1.55820E+04 5.93663E+04-1.10505E+05-6.44709E-08-5.51154E-08
 -1       550-7.54047E+05-2.16191E+04-1.27900E+05 3.81743E+04 6.65932E-09-3.52411E-08
 -1       551 4.03904E+04-7.71292E+05-1.75684E+04-1.26591E+06 3.61615E-08-5.23869E-09
 -1       552 9.64321E+04-8.19124E+05 9.55500E+03-1.82954E+06 7.61065E-08 4.68935E-08
 -1       553 7.33838E+04-8.15258E+05 3.21167E+04-1.25901E+06 3.99014E-08 3.89846E-08
 -1       554 1.36908E+05-8.36870E+05 8.19452E+04-1.83144E+06 7.89296E-08 2.17697E-08
 -1       555 1.01276E+05-8.39169E+05 1.48869E+05-1.25897E+06 4.14948E-08-2.42835E-08
 -1       556 2.22157E+05-3.81252E+05 2.71558E+04-4.05665E+05-2.28174E-08-1.45228E-08
 -1       557 3.52277E+05-4.85217E+05 1.68441E+04-5.25348E+05-4.51109E-09 2.27010E-09
 -1       558 2.04213E+05-3.74405E+05 2.67341E+03-4.09831E+05-1.90630E-08-1.65819E-08
 -1       559 3.27351E+05-4.85516E+05 2.59765E+03-5.45588E+05 1.89466E-08-1.79571E-08
 -1       560 1.89085E+05-3.64916E+05-1.39846E+03-4.20724E+05 1.13796E-08 3.31784E-09
 -1       561 3.08324E+05-4.77914E+05 1.71667E+02-5.58552E+05 4.71482E-09-1.23691E-09
 -1       562 1.77125E+05-3.57483E+05-1.28725E+03-4.29384E+05 5.22414E-09-3.32002E-08
 -1       563 2.94120E+05-4.71721E+05-2.50587E+01-5.67827E+05 4.33647E-09-2.27883E-08
 -1       564 1.68596E+05-3.52168E+05-5.85432E+02-4.35427E+05 8.78936E-09-1.94823E-08
 -1       565 2.84710E+05-4.67623E+05 2.72423E+01-5.73838E+05 9.51695E-09 4.37831E-09
 -1       566 1.63619E+05-3.49019E+05-2.54016E+02-4.38908E+05-1.06083E-08-5.49699E-09
 -1       567 2.80153E+05-4.65640E+05-3.57937E+02-5.76605E+05 1.81590E-08 1.04774E-08
 -1       568 1.62286E+05-3.48203E+05-1.11456E+03-4.39937E+05 6.95763E-10 1.33186E-08
 -1       569 2.79065E+05-4.65572E+05-2.81529E+03-5.75160E+05-1.64646E-08 6.24277E-09
 -1       570 1.65683E+05-3.51427E+05-6.15778E+03-4.38921E+05 4.80213E-09 9.77707E-09
 -1       571 2.90092E+05 1.04934E+04 1.49784E+04-9.48179E+04 6.12090E-10 1.61899E-08
 -1       572 2.92264E+05 3.95086E+03 7.34058E+03-1.04025E+05 8.07267E-09-1.01882E-08
 -1       573 2.90955E+05 1.23895E+03 3.26165E+03-9.46416E+04 8.84393E-09 1.55751E-08
 -1       574 2.91169E+05 7.20202E+02 1.63568E+03-1.04248E+05 1.35128E-09 1.68347E-08
 -1       575 2.91048E+05 4.41861E+02 7.71988E+02-9.46175E+04-5.81956E-09 1.36506E-08
 -1       576 2.91033E+05 4.52650E+02 3.95238E+02-1.04278E+05-1.18034E-08 2.63035E-08
 -1       577 2.91088E+05 3.83993E+02 1.97293E+02-9.46142E+04 1.88356E-09 4.47199E-09
 -1       578 2.91063E+05 4.14904E+02 1.13934E+02-1.04282E+05 1.41918E-08 9.10404E-10
 -1       579 2.91159E+05 3.47709E+02 7.82247E+01-9.46138E+04 1.56742E-08 5.12591E-09
 -1       580 2.91164E+05 3.64384E+02 9.07078E+01-1.04277E+05-5.66888E-09-8.06540E-09
 -1       581 2.91272E+05 2.89715E+02 1.36997E+02-9.46197E+04-9.65156E-09 5.85078E-09
 -1       582 2.91338E+05 3.27590E+02 2.78458E+02-1.04216E+05-3.23616E-08 6.59475E-09
 -1       583 2.91411E+05 3.32520E+02 5.34520E+02-9.46760E+04-1.74841E-08 4.25871E-09
 -1       584 2.91711E+05 7.68815E+02 1.20948E+03-1.03742E+05 4.81486E-09 1.11004E-09
 -1       585 2.91436E+05 1.78732E+03 2.44924E+03-9.50933E+04-2.47746E-09-3.24508E-09
 -1       586-3.41884E+03 1.16468E+05-2.93057E+03-2.50423E+05-3.28237E-09 1.76219E-08
 -1       587-1.32837E+03 1.16216E+05 7.58889E+02-2.75609E+05-5.02223E-09 1.62636E-08
 -1       588 4.07181E+02 1.16026E+05 4.74238E+03-2.50285E+05-7.79619E-09-3.75167E-09
 -1       589 5.08326E+03 1.18492E+05 1.23096E+04-2.75375E+05-6.58292E-09-1.36470E-08
 -1       590 1.65763E+04 1.14697E+05 2.58257E+04-2.50716E+05-7.11771E-09-2.36287E-09
 -1       591-7.47317E+04-1.59572E+04-2.24768E+04-3.18980E+04-1.65883E-08-1.24874E-09
 -1       592-7.87970E+04-1.95210E+04-1.21752E+04-3.55314E+04-1.92756E-08 1.55296E-10
 -1       593-7.69798E+04-1.43261E+04-5.06794E+03-3.35459E+04-5.42139E-09 3.73461E-09
 -1       594-7.56934E+04-1.62230E+04-2.52751E+03-3.56491E+04-7.45318E-09 7.02295E-09
 -1       595-7.71512E+04-1.43207E+04-1.16039E+03-3.36208E+04 1.30454E-09 1.43709E-08
 -1       596-7.54809E+04-1.60722E+04-5.89690E+02-3.56239E+04 1.62889E-08 2.22714E-08
 -1       597-7.71727E+04-1.43360E+04-3.20685E+02-3.36237E+04 1.22021E-08 2.04882E-08
 -1       598-7.54600E+04-1.60663E+04-2.57027E+02-3.56168E+04-4.58522E-09-8.06264E-09
 -1       599-7.71714E+04-1.43366E+04-3.27366E+02-3.36233E+04 1.96678E-10-9.45704E-09
 -1       600-7.54809E+04-1.60728E+04-6.07376E+02-3.56218E+04 7.08690E-09 1.64537E-08
 -1       601-7.71468E+04-1.43221E+04-1.19782E+03-3.36198E+04 4.41605E-09-2.00378E-08
 -1       602-7.57002E+04-1.62273E+04-2.61032E+03-3.56440E+04-7.44490E-09 1.61549E-10
 -1       603-7.69671E+04-1.43305E+04-5.23467E+03-3.35433E+04-2.66323E-09-9.10995E-09
 -1       604-7.89234E+04-1.96142E+04-1.25749E+04-3.54975E+04 8.40146E-11 1.04858E-08
 -1       605-7.46251E+04-1.60330E+04-2.32148E+04-3.18606E+04 3.79146E-09 2.30284E-09
 -1       606 2.67870E+04-1.43047E+04-2.56440E+04 2.41019E+04 6.93854E-09-1.09567E-08
 -1       607 2.24052E+04-4.67158E+03-1.27706E+04 2.70850E+04 1.67347E-09-8.81187E-09
 -1       608 2.49023E+04-8.42462E+02-5.71700E+03 2.39320E+04-5.75892E-09 2.68346E-09
 -1       609 2.44234E+04-2.88169E+02-2.88806E+03 2.73000E+04-2.12458E-09 6.83713E-09
 -1       610 2.46888E+04-4.03876E+01-1.37795E+03 2.39118E+04-1.05310E-08 3.43948E-09
 -1       611 2.46134E+04-4.04496E+01-6.94750E+02 2.73232E+04-1.45697E-08 1.52354E-08
 -1       612 2.46415E+04-2.65629E+01-3.30290E+02 2.39098E+04-1.47611E-08-1.01113E-09
 -1       613 2.46248E+04-3.62372E+01-1.47995E+02 2.73259E+04-1.25992E-08-1.72174E-08
 -1       614 2.46192E+04-3.28588E+01-3.46805E+01 2.39091E+04-8.43738E-09 2.06564E-08
 -1       615 2.46193E+04-3.46504E+01 6.20983E+01 2.73264E+04-7.53789E-09 1.77859E-08
 -1       616 2.46018E+04-2.96576E+01 1.86146E+02 2.39094E+04-4.21005E-09-1.34792E-08
 -1       617 2.46416E+04 5.09456E+00 4.24680E+02 2.73259E+04 2.90493E-09-2.22317E-08
 -1       618 2.45648E+04 9.28286E+01 8.56000E+02 2.39097E+04 3.12366E-09 7.14363E-09
 -1       619 2.49437E+04 6.67002E+02 1.92221E+03 2.73253E+04 2.85854E-09 8.98240E-09
 -1       620 2.42804E+04 2.12267E+03 3.86359E+03 2.39112E+04-1.48930E-11-2.40107E-09
 -1       621 5.07873E+02 3.01044E+05 3.87542E+03 4.06753E+04 9.98625E-10-1.17825E-08
 -1       622 6.71934E+02 3.01940E+05 3.43979E+03 5.90529E+04 1.09048E-09-9.76797E-09
 -1       623 1.40015E+02 3.01239E+05 4.13425E+03 4.04912E+04 1.25237E-09-6.09907E-09
 -1       624 2.11847E+03 3.03157E+05 8.01521E+03 5.92341E+04 1.27915E-09-1.06820E-09
 -1       625 2.07095E+03 2.99650E+05 1.40065E+04 4.04881E+04 1.44610E-09 1.28307E-09
 -1       626 2.60530E+05 6.14319E+04 5.11927E+03 1.26701E+05-4.45652E-10-1.58798E-08
 -1       627 2.58204E+05 6.28368E+04 2.46694E+03 1.30982E+05 3.37786E-09-2.47368E-08
 -1       628 2.60658E+05 5.90890E+04 1.04332E+03 1.27570E+05-1.67347E-09 1.99439E-08
 -1       629 2.57568E+05 6.21577E+04 5.10659E+02 1.31223E+05-6.35146E-09 2.53272E-08
 -1       630 2.60672E+05 5.89758E+04 2.36970E+02 1.27607E+05-7.49060E-09-1.19735E-09
 -1       631 2.57501E+05 6.21319E+04 1.27643E+02 1.31225E+05 1.08448E-08 1.16387E-09
 -1       632 2.60669E+05 5.89798E+04 8.42070E+01 1.27603E+05 7.49378E-09 1.14164E-09
 -1       633 2.57492E+05 6.21338E+04 9.41328E+01 1.31221E+05 6.05905E-09 2.10525E-08
 -1       634 2.60664E+05 5.89771E+04 1.52409E+02 1.27602E+05-3.20745E-09 5.51881E-09
 -1       635 2.57507E+05 6.21321E+04 3.08577E+02 1.31227E+05-2.85291E-09 6.34827E-10
 -1       636 2.60655E+05 5.89713E+04 6.23261E+02 1.27602E+05-4.13593E-10 8.85075E-09
 -1       637 2.57642E+05 6.22290E+04 1.37045E+03 1.31226E+05 3.19142E-09-9.64747E-10
 -1       638 2.60606E+05 5.92740E+04 2.81577E+03 1.27465E+05 5.84350E-10-2.19825E-09
 -1       639 2.59121E+05 6.42862E+04 6.66224E+03 1.30790E+05 3.22120E-09 7.83439E-09
 -1       640 2.60402E+05 6.54168E+04 1.38253E+04 1.24877E+05 4.74392E-09 9.50104E-09
 -1       656 6.65282E+04-1.70244E+06-1.60594E+05-2.51915E+03-3.34694E-10-6.51914E-09
 -1       657-8.80101E+04-1.77501E+06-1.33041E+05 5.22299E+03-3.27418E-11-2.11481E-08
 -1       658 2.12061E+04-1.72305E+06-8.19344E+04-4.60330E+03 2.93767E-10-1.30919E-08
 -1       659-9.51636E+04-1.77840E+06-1.42442E+05 6.95084E+03-1.90994E-10-2.02011E-08
 -1       660 7.36657E+04-1.69905E+06-1.76757E+05-4.24698E+03-1.75351E-09 1.34624E-08
 -1       661 1.59195E+05 1.66682E+04 1.67617E+04 6.22333E+04-3.31738E-09-5.18503E-09
 -1       662 1.68664E+05 2.90889E+04 1.12962E+04 5.84816E+04 2.39834E-09 6.07861E-09
 -1       663 1.62488E+05 2.20456E+04 3.95070E+03 6.12777E+04-5.40467E-10-3.65776E-09
 -1       664 1.64847E+05 2.28005E+04 2.36333E+03 5.96489E+04 1.00817E-09-3.30130E-08
 -1       665 1.62987E+05 2.27800E+04 9.32315E+02 6.11319E+04 6.53699E-12-4.70394E-09
 -1       666 1.64256E+05 2.19607E+04 5.45713E+02 5.98390E+04 1.04997E-08 2.05948E-09
 -1       667 1.63075E+05 2.28635E+04 2.90021E+02 6.10954E+04-2.21408E-09 2.03622E-09
 -1       668 1.64159E+05 2.19007E+04 2.95895E+02 5.98922E+04-5.92178E-09 8.28035E-09
 -1       669 1.63083E+05 2.28383E+04 4.00911E+02 6.10791E+04-1.10566E-09-8.64020E-10
 -1       670 1.64257E+05 2.21185E+04 8.73284E+02 5.98952E+04-6.28778E-09-1.35615E-08
 -1       671 1.62977E+05 2.26503E+04 1.55068E+03 6.10904E+04 3.23103E-09 9.20465E-09
 -1       672 1.65160E+05 2.36272E+04 3.96745E+03 5.96763E+04 1.12564E-08-2.63981E-10
 -1       673 1.62184E+05 2.13678E+04 6.64884E+03 6.12833E+04 4.28565E-09-4.32829E-09
 -1       674 1.71488E+05 3.43093E+04 1.90143E+04 5.78172E+04-5.03519E-09-7.45308E-09
 -1       675 1.56690E+05 1.22673E+04 2.82239E+04 6.28372E+04-5.91899E-09-1.51249E-08
 -1       676 2.41205E+01-2.95952E+05-1.11412E+03-1.34749E+02-1.16017E-10 7.48060E-09
 -1       677-2.94759E+02-2.96221E+05-2.03904E+03 2.69281E+02 1.05269E-08 3.17872E-09
 -1       678 1.97663E+02-2.95760E+05-3.60451E+03-1.34444E+02 2.00771E-10 6.32857E-09
 -1       679-3.60462E+03-2.98397E+05-8.56283E+03 2.68118E+02 4.68765E-09 7.65717E-09
 -1       680 2.15213E+03-2.93777E+05-1.38004E+04-1.32100E+02 5.70253E-10 1.18995E-08
 -1       771-3.06210E+06-7.48732E+05-1.62989E+05-1.46750E+06-3.41097E-08-2.90456E-08
 -1       772-2.98352E+06-8.37622E+05-8.39134E+04-1.57038E+06-2.47965E-08 1.15215E-08
 -1       773-3.09345E+06-7.24266E+05-4.30082E+04-1.48186E+06-6.40284E-09 1.66183E-08
 -1       774-2.97456E+06-8.19550E+05-1.91361E+04-1.59634E+06 3.77622E-08-3.81988E-10
 -1       775-3.11001E+06-7.12630E+05-1.44629E+04-1.48899E+06-3.66708E-09 7.12316E-09
 -1       776-2.98710E+06-8.16491E+05-5.38245E+03-1.61601E+06-8.06176E-09 3.56158E-09
 -1       777-3.12440E+06-7.02238E+05-6.44012E+03-1.49529E+06 1.06229E-08 9.08767E-09
 -1       778-3.00015E+06-8.13620E+05-1.81115E+03-1.63291E+06 7.08678E-09 6.50107E-09
 -1       779-3.13678E+06-6.93156E+05-3.23408E+03-1.50067E+06-1.14524E-08-2.58296E-09
 -1       780-3.01163E+06-8.10883E+05-5.36457E+02-1.64667E+06-1.01936E-08 3.20142E-10
 -1       781-3.14663E+06-6.85835E+05-1.26606E+03-1.50488E+06-3.37895E-08-1.35333E-09
 -1       782-3.02048E+06-8.08561E+05 4.36620E+02-1.65683E+06-3.88100E-08-1.35306E-08
 -1       783-3.15356E+06-6.80748E+05 6.69679E+02-1.50782E+06-1.46683E-08-1.70703E-08
 -1       784-3.02541E+06-8.06270E+05 2.83933E+03-1.66310E+06-3.10720E-08 5.44014E-09
 -1       785-3.15764E+06-6.77727E+05 5.00444E+03-1.50968E+06-4.30628E-08 9.09677E-09
 -1       786 1.24548E+05-9.79113E+03 2.26527E+04-3.20748E+02 3.62466E-09-9.30413E-10
 -1       787 1.34372E+05 1.13359E+04 1.60259E+04-1.34182E+02 5.58539E-09 6.42171E-09
 -1       788 1.28336E+05-1.53430E+03 5.86078E+03-2.85630E+02 3.04796E-09 5.73550E-09
 -1       789 1.29959E+05 1.77590E+03 3.67922E+03-1.88019E+02-3.96925E-10 7.17989E-09
 -1       790 1.28961E+05-2.38900E+02 1.48975E+03-2.66928E+02-3.24265E-09 5.73590E-09
 -1       791 1.29228E+05 2.76418E+02 8.60626E+02-2.20020E+02-8.45135E-09-2.68576E-08
 -1       792 1.29067E+05-3.59392E+01 3.65064E+02-2.53630E+02-3.95691E-09 7.12588E-09
 -1       793 1.29102E+05 3.81368E+01 1.82792E+02-2.45045E+02-1.56585E-10 1.26561E-08
 -1       794 1.29088E+05-7.69520E-01 4.91117E+01-2.41904E+02 4.40774E-09 1.23816E-08
 -1       795 1.29065E+05-2.61753E+01-5.36656E+01-2.69535E+02-4.59438E-09 2.40006E-08
 -1       796 1.29104E+05 2.83369E+01-1.55813E+02-2.29140E+02 4.05398E-09-4.68702E-10
 -1       797 1.28974E+05-2.11705E+02-4.29749E+02-2.98880E+02 4.10349E-09 2.22482E-09
 -1       798 1.29179E+05 1.84621E+02-6.98471E+02-2.12559E+02 1.74493E-09-2.16693E-09
 -1       799 1.28444E+05-1.36080E+03-1.92206E+03-3.39949E+02 5.41709E-09 2.48230E-09
 -1       800 1.29634E+05 1.17650E+03-2.72026E+03-1.88072E+02 2.85194E-11 4.25109E-09
 -1       801-1.68278E+05-9.89157E+06-1.37718E+06 1.38667E+06 9.09786E-08-4.82214E-08
 -1       802 7.22328E+05 5.75914E+06 2.13348E+06-1.71101E+06 2.56558E-07-3.85007E-08
 -1       803-5.25040E+05-1.40128E+07-1.84680E+06 8.89505E+05 7.66740E-08 1.90194E-08
 -1       804 2.77000E+05 2.22771E+06 1.49491E+06 6.60883E+05-1.18231E-07-9.23474E-08
 -1       805 1.88177E+05-6.37460E+06-2.75583E+05-9.79744E+05-4.89017E-08-6.34927E-08
 -1       806-3.08554E+05-5.97056E+04-2.28428E+04-1.22279E+05-6.32326E-09-4.28827E-09
 -1       807-3.10352E+05-5.59769E+04-1.12224E+04-1.27822E+05 1.66315E-08-7.09426E-09
 -1       808-3.09181E+05-5.14733E+04-4.76092E+03-1.26171E+05-9.47057E-09 1.57285E-08
 -1       809-3.07992E+05-5.28236E+04-2.32797E+03-1.28097E+05-1.37113E-08 1.11331E-08
 -1       810-3.09276E+05-5.11867E+04-1.06703E+03-1.26343E+05 1.69848E-09 7.35622E-09
 -1       811-3.07810E+05-5.26970E+04-5.30644E+02-1.28062E+05 4.34738E-09-2.68728E-08
 -1       812-3.09290E+05-5.12114E+04-2.68430E+02-1.26342E+05-6.71207E-09 2.22099E-09
 -1       813-3.07784E+05-5.26991E+04-1.74545E+02-1.28043E+05-1.38298E-08-1.61658E-08
 -1       814-3.09283E+05-5.12211E+04-1.73123E+02-1.26338E+05-1.37970E-09-8.73752E-09
 -1       815-3.07788E+05-5.27014E+04-2.79061E+02-1.28036E+05 2.01999E-09-1.91812E-08
 -1       816-3.09262E+05-5.12202E+04-5.28997E+02-1.26334E+05 5.36875E-09 1.93791E-08
 -1       817-3.07878E+05-5.27518E+04-1.13532E+03-1.28024E+05-1.54555E-08 2.46273E-08
 -1       818-3.09193E+05-5.13805E+04-2.31568E+03-1.26259E+05-3.50883E-09-7.11680E-10
 -1       819-3.09145E+05-5.41508E+04-5.44861E+03-1.27724E+05 2.92039E-09-2.87218E-09
 -1       820-3.08756E+05-5.54965E+04-1.10899E+04-1.24501E+05 2.08183E-09 3.32720E-08
 -1       821-3.78724E+05 2.08571E+04-4.85448E+04 2.10376E+03 1.38597E-08-1.16052E-09
 -1       822-3.98444E+05-2.41615E+04-3.41214E+04-4.42334E+03 3.46952E-09 7.96899E-09
 -1       823-3.86197E+05 3.28756E+03-1.25393E+04 3.39777E+03-1.24917E-08 1.65160E-08
 -1       824-3.89429E+05-3.79142E+03-7.84963E+03-5.32078E+03 1.00326E-09 7.95660E-09
 -1       825-3.87746E+05 5.10989E+02-3.28615E+03 3.00131E+03 2.08633E-08 1.99858E-08
 -1       826-3.87014E+05-5.67709E+02-1.74678E+03-3.06707E+03 2.37469E-08 1.21174E-08
 -1       827-3.88587E+05 4.76577E+01-1.18597E+03 1.14392E+03 1.16918E-08-1.06203E-08
 -1       828-3.86320E+05-1.32951E+02-5.91762E+02 1.08386E+03 2.72685E-09-2.39125E-09
 -1       829-3.88428E+05 6.64050E+01-1.17533E+03-1.14966E+03 3.47512E-09 1.59681E-08
 -1       830-3.87359E+05-6.21674E+02-1.88395E+03 4.83218E+03-1.80140E-09 1.47144E-08
 -1       831-3.87570E+05 5.53669E+02-3.36839E+03-2.60442E+03-7.20397E-09 1.65667E-08
 -1       832-3.89510E+05-3.95732E+03-8.15219E+03 6.09818E+03-3.95893E-09-2.39863E-08
 -1       833-3.86294E+05 3.41135E+03-1.30425E+04-2.41570E+03-2.30006E-09-7.64157E-09
 -1       834-3.98509E+05-2.50744E+04-3.53447E+04 4.14574E+03-4.44049E-09 1.14815E-08
 -1       835-3.78553E+05 2.16381E+04-5.04137E+04-6.51904E+02 6.15526E-09 1.72222E-08
 -1       836-1.41139E+03 3.69762E+05 2.28747E+04-1.62361E+04-6.92489E-09 1.15901E-08
 -1       837 4.87738E+03 3.76926E+05 1.93554E+04-3.31670E+04-7.44143E-09 1.30615E-08
 -1       838-5.56799E+02 3.71771E+05 1.97193E+04-1.61645E+04-5.94900E-09 1.94379E-08
 -1       839 1.24106E+04 3.82537E+05 3.73017E+04-3.32194E+04-6.19912E-09 2.64181E-08
 -1       840-3.83622E+03 3.64092E+05 5.94819E+04-1.61895E+04-5.87170E-09-6.93367E-09
 -1       856-5.27938E+04 8.04061E+03-2.11888E+04-3.98575E+02 3.39651E-09-3.28509E-09
 -1       857-6.15234E+04-9.44718E+03-1.45862E+04 5.63467E+03 5.28848E-09-3.65617E-10
 -1       858-5.62508E+04 1.12760E+03-5.49799E+03-4.22776E+02 2.17784E-09 7.36463E-09
 -1       859-5.75561E+04-1.32631E+03-3.31781E+03 5.67071E+03-3.24079E-09-2.64941E-09
 -1       860-5.67673E+04 1.57900E+02-1.39054E+03-4.34357E+02 6.14847E-10 3.43874E-09
 -1       861-5.69620E+04-1.88246E+02-7.65054E+02 5.68649E+03 5.96998E-11 1.19082E-08
 -1       862-5.68481E+04 2.13807E+01-3.18205E+02-4.38532E+02-1.08730E-09 6.36604E-09
 -1       863-5.68630E+04-2.16863E+01-1.16328E+02 5.68891E+03-1.24615E-09-3.19025E-09
 -1       864-5.68668E+04-4.87114E+00 4.63614E+01-4.36774E+02-2.37554E-09-2.62759E-11
 -1       865-5.68074E+04 5.95302E+01 2.53676E+02 5.67889E+03-1.52397E-10 5.23909E-09
 -1       866-5.69015E+04-5.98635E+01 5.11705E+02-4.28513E+02 2.44142E-10-1.04981E-08
 -1       867-5.65666E+04 4.94390E+02 1.25983E+03 5.65646E+03 3.02975E-10-1.76473E-08
 -1       868-5.71027E+04-4.31906E+02 2.09353E+03-4.14343E+02-2.30813E-09-5.90421E-09
 -1       869-5.50316E+04 3.59452E+03 5.57450E+03 5.61954E+03 1.19394E-09-2.42603E-08
 -1       870-5.84287E+04-3.07583E+03 8.08981E+03-3.91491E+02-5.32725E-09-7.25549E-09
 -1       871-5.51839E+03-2.12141E+04-1.94652E+04 1.30234E+05-4.90036E-09-4.19823E-09
 -1       872-1.98854E+03-2.57383E+04-8.14841E+03 1.68867E+05-1.08175E-08-2.00362E-08
 -1       873 3.98010E+02-2.35514E+04 5.94365E+02 1.29947E+05-5.39148E-09 8.86700E-09
 -1       874 3.29598E+03-2.11390E+04 9.77908E+03 1.68897E+05-1.19426E-08 1.30387E-08
 -1       875 6.83770E+03-2.58808E+04 2.20566E+04 1.30186E+05-4.58203E-09 1.52795E-09
 -1       876 2.93607E+05 4.94956E+04 1.50969E+04 1.17838E+05 2.10048E-09 1.29694E-08
 -1       877 2.94604E+05 5.26764E+04 8.06233E+03 1.22170E+05 1.35801E-08 2.25918E-08
 -1       878 2.95019E+05 4.78233E+04 3.37772E+03 1.19075E+05 3.55340E-09 1.84918E-08
 -1       879 2.92552E+05 5.06284E+04 1.68299E+03 1.22272E+05 4.66662E-09 3.84330E-09
 -1       880 2.95120E+05 4.78061E+04 7.83912E+02 1.19125E+05-1.46451E-09 1.26428E-08
 -1       881 2.92416E+05 5.05408E+04 4.18635E+02 1.22248E+05-6.89477E-09 1.10981E-08
 -1       882 2.95129E+05 4.78193E+04 2.67839E+02 1.19127E+05-7.36145E-09-1.11300E-08
 -1       883 2.92406E+05 5.05362E+04 2.87976E+02 1.22241E+05-1.62481E-09 6.16966E-09
 -1       884 2.95123E+05 4.78165E+04 4.58133E+02 1.19127E+05-9.30982E-10-8.21132E-09
 -1       885 2.92443E+05 5.05426E+04 9.21120E+02 1.22252E+05-2.15451E-09-2.19302E-09
 -1       886 2.95087E+05 4.77897E+04 1.85648E+03 1.19123E+05-1.61456E-09-1.70251E-08
 -1       887 2.92769E+05 5.07565E+04 4.05524E+03 1.22299E+05 8.65558E-09-5.59794E-09
 -1       888 2.94831E+05 4.78348E+04 8.17141E+03 1.18994E+05-1.02887E-09-8.62656E-10
 -1       889 2.97633E+05 5.58155E+04 1.95200E+04 1.22150E+05 5.10106E-10 2.21007E-10
 -1       890 2.91496E+05 5.17965E+04 3.65605E+04 1.15884E+05-1.17234E-09 2.26828E-09
 -1       891-9.05088E+01-1.62723E+05-1.99536E+03 2.71816E+04-1.40039E-09-2.14368E-09
 -1       892-1.77120E+02-1.63250E+05-2.14317E+03 4.12745E+04 2.76850E-09 2.14313E-08
 -1       893 4.24334E+01-1.62787E+05-3.03461E+03 2.71889E+04-3.77850E-09 8.91623E-09
 -1       894-1.51135E+03-1.64396E+05-6.28059E+03 4.11219E+04-3.54703E-11 2.86896E-08
 -1       895-1.20009E+03-1.61479E+05-1.10601E+04 2.73360E+04 1.94859E-10 8.20910E-09
 -1       956-3.76936E+05-5.44377E+03-1.34429E+04 3.07640E+04 8.23093E-10 2.66800E-09
 -1       957-3.79574E+05-1.91882E+03-6.90003E+03 3.69715E+04-9.96533E-09-1.35842E-08
 -1       958-3.78144E+05-2.38903E+02-3.10937E+03 3.05965E+04-9.38689E-09-8.13634E-09
 -1       959-3.78341E+05-1.33975E+02-1.58770E+03 3.71666E+04 1.47884E-09-1.16052E-09
 -1       960-3.78262E+05-4.29954E+01-7.74237E+02 3.05792E+04 2.45382E-09 3.28805E-09
 -1       961-3.78261E+05-6.10410E+01-4.10495E+02 3.71870E+04 8.51105E-09-3.25185E-08
 -1       962-3.78290E+05-4.42496E+01-2.35020E+02 3.05764E+04-9.48239E-09-9.47853E-09
 -1       963-3.78261E+05-5.68666E+01-1.88668E+02 3.71907E+04-1.84390E-08 4.12160E-09
 -1       964-3.78295E+05-4.08956E+01-2.29438E+02 3.05756E+04-1.16308E-08 1.64982E-09
 -1       965-3.78273E+05-5.38903E+01-3.96835E+02 3.71900E+04-7.51027E-09 6.23299E-09
 -1       966-3.78279E+05-3.30277E+01-7.45640E+02 3.05771E+04-6.18456E-11-1.10442E-08
 -1       967-3.78363E+05-1.17339E+02-1.52929E+03 3.71756E+04-5.05429E-09 1.17757E-08
 -1       968-3.78175E+05-2.15327E+02-2.99381E+03 3.05897E+04-2.22281E-09 1.76416E-08
 -1       969-3.79563E+05-1.83092E+03-6.64618E+03 3.70278E+04 3.41925E-09 1.68084E-08
 -1       970-3.77020E+05-5.22473E+03-1.29471E+04 3.07166E+04-1.16870E-09 7.05768E-09
 -1       971-3.45254E+05-1.72776E+03-9.31566E+03 1.53855E+04 1.24419E-09 9.54925E-09
 -1       972-3.47497E+05-1.27145E+03-5.07321E+03 2.12817E+04 5.04588E-09-1.52659E-09
 -1       973-3.46292E+05-6.12807E+01-2.27234E+03 1.52641E+04 2.38560E-09 1.48707E-08
 -1       974-3.46427E+05-8.00002E+01-1.17789E+03 2.14189E+04-2.45927E-09 1.20431E-08
 -1       975-3.46374E+05-1.63641E+01-5.89233E+02 1.52518E+04-4.64615E-09-1.52602E-09
 -1       976-3.46366E+05-3.01121E+01-3.40748E+02 2.14347E+04 8.44216E-09-2.12208E-09
 -1       977-3.46390E+05-1.56102E+01-2.48751E+02 1.52484E+04-1.33446E-09 7.61236E-09
 -1       978-3.46371E+05-2.38773E+01-2.93054E+02 2.14396E+04-6.67524E-09 4.80486E-09
 -1       979-3.46390E+05-7.13062E+00-4.72534E+02 1.52469E+04-1.29415E-09 2.45093E-08
 -1       980-3.46407E+05-2.08142E+01-9.13464E+02 2.14406E+04-3.66418E-09 1.16241E-08
 -1       981-3.46361E+05 1.56998E+01-1.76972E+03 1.52475E+04-1.08284E-08-6.00619E-09
 -1       982-3.46649E+05-1.51583E+02-3.65829E+03 2.14339E+04-1.22865E-08-1.17605E-08
 -1       983-3.46138E+05-9.76290E+01-7.10825E+03 1.52535E+04-1.29430E-08-6.66159E-09
 -1       984-3.50068E+05-3.86403E+03-1.59187E+04 2.13482E+04-8.66862E-09 2.10580E-08
 -1       985-3.42920E+05-5.29902E+03-2.92317E+04 1.53252E+04-8.86484E-09 7.23048E-09
 -3
    1PSTEP                        39          20           1          
  100CL  120 6.63060E-01         409                     0   20           1
 -4  DISP        4    1
 -5  D1          1    2    1    0
 -5  D2          1    2    2    0
 -5  D3          1    2    3    0
 -5  ALL         1    2    0    0    1ALL
 -1         1 2.70121E-03 0.00000E+00 0.00000E+00
 -1         2 1.38743E-03 1.38356E-28 5.29396E-23
 -1         3 3.43179E-04-6.01729E-28 1.32349E-23
 -1         5 1.78900E-04-2.88736E-27 2.48154E-24
 -1         8 2.68988E-03-4.14781E-07 0.00000E+00
 -1         9 2.68322E-03-1.76898E-04 0.00000E+00
 -1        10 3.11417E-04-3.42241E-06 0.00000E+00
 -1        12 1.80713E-04 8.08235E-07-8.27181E-25
 -1        15 2.67684E-03-4.39993E-07 0.00000E+00
 -1        16 2.74407E-03-1.78643E-04 0.00000E+00
 -1        17 2.12789E-04-7.79239E-06 0.00000E+00
 -1        18 1.84563E-04 3.39833E-05 0.00000E+00
 -1        19 1.86155E-04 1.61014E-06 0.00000E+00
 -1        20 1.86295E-04-9.47935E-06 0.00000E+00
 -1        21 1.85405E-04-2.45761E-05 0.00000E+00
 -1        24 3.06806E-05-1.20994E-05 0.00000E+00
 -1        25 1.95183E-04 3.42085E-05 0.00000E+00
 -1        26 1.95868E-04 2.22974E-06 0.00000E+00
 -1        27 1.93670E-04-1.30347E-05 0.00000E+00
 -1        28 1.93351E-04-2.51981E-05 0.00000E+00
 -1        32 0.00000E+00 0.00000E+00 0.00000E+00
 -1        33 2.04571E-04 2.98290E-06 0.00000E+00
 -1        34 2.02455E-04-1.30904E-05 0.00000E+00
 -1        35 2.00524E-04-2.55403E-05 0.00000E+00
 -1        51 2.70045E-03-8.62624E-08 3.30872E-24
 -1        52 2.69907E-03-1.54306E-07 0.00000E+00
 -1        53 2.69718E-03-2.18956E-07 0.00000E+00
 -1        54 2.69493E-03-2.82446E-07-1.65436E-24
 -1        55 2.69245E-03-3.46531E-07 2.48154E-24
 -1        56 2.69418E-03 6.87820E-06-5.29396E-23
 -1        57 2.68103E-03 2.89318E-05 0.00000E+00
 -1        58 2.66370E-03 6.13173E-05 0.00000E+00
 -1        59 2.64448E-03 9.81915E-05-5.29396E-23
 -1        60 2.62614E-03 1.32945E-04-1.05879E-22
 -1        61 2.61130E-03 1.59141E-04 0.00000E+00
 -1        62 2.60181E-03 1.71872E-04 1.05879E-22
 -1        63 2.59886E-03 1.67428E-04 0.00000E+00
 -1        64 2.60234E-03 1.45239E-04 0.00000E+00
 -1        65 2.61154E-03 1.06398E-04-5.29396E-23
 -1        66 2.62485E-03 5.51241E-05-1.05879E-22
 -1        67 2.64039E-03-3.15670E-06 5.29396E-23
 -1        68 2.65601E-03-6.16784E-05-1.05879E-22
 -1        69 2.66957E-03-1.13644E-04-5.29396E-23
 -1        70 2.67914E-03-1.53519E-04 0.00000E+00
 -1        86 1.46887E-03-5.67080E-06 0.00000E+00
 -1        87 1.70491E-03-3.53039E-05 0.00000E+00
 -1        88 2.02223E-03-8.61078E-05 2.64698E-23
 -1        89 2.34360E-03-1.38235E-04 0.00000E+00
 -1        90 2.58947E-03-1.70125E-04 0.00000E+00
 -1       121 3.42287E-04-5.52874E-07-1.32349E-23
 -1       122 3.39615E-04-1.10880E-06 0.00000E+00
 -1       123 3.35172E-04-1.67078E-06-1.32349E-23
 -1       124 3.28975E-04-2.24182E-06-6.61744E-24
 -1       125 3.21046E-04-2.82454E-06 0.00000E+00
 -1       191 1.78950E-04 1.34768E-07 2.48154E-24
 -1       192 1.79101E-04 2.69524E-07 4.13590E-25
 -1       193 1.79353E-04 4.04261E-07-1.65436E-24
 -1       194 1.79706E-04 5.38967E-07 8.27181E-25
 -1       195 1.80159E-04 6.73629E-07-8.27181E-25
 -1       251 2.68957E-03 1.86869E-06 6.61744E-24
 -1       252 2.68924E-03 4.27839E-06 0.00000E+00
 -1       253 2.68893E-03 5.79955E-06 6.61744E-24
 -1       254 2.68861E-03 5.42892E-06-3.30872E-24
 -1       255 2.68828E-03 2.46208E-06 0.00000E+00
 -1       256 2.68795E-03-3.77146E-06-6.61744E-24
 -1       257 2.68758E-03-1.34265E-05-1.32349E-23
 -1       258 2.68718E-03-2.66131E-05-6.61744E-24
 -1       259 2.68673E-03-4.28845E-05 1.32349E-23
 -1       260 2.68624E-03-6.17529E-05 6.61744E-24
 -1       261 2.68572E-03-8.23208E-05 1.32349E-23
 -1       262 2.68518E-03-1.03669E-04-6.61744E-24
 -1       263 2.68465E-03-1.24755E-04 1.32349E-23
 -1       264 2.68414E-03-1.44539E-04-6.61744E-24
 -1       265 2.68366E-03-1.62189E-04 0.00000E+00
 -1       266 2.68771E-03-4.24778E-07 0.00000E+00
 -1       267 2.68553E-03-4.28274E-07-8.27181E-25
 -1       268 2.68336E-03-4.32181E-07 0.00000E+00
 -1       269 2.68118E-03-4.34869E-07 0.00000E+00
 -1       270 2.67901E-03-4.37528E-07 2.06795E-25
 -1       271 2.68893E-03 2.73734E-07 0.00000E+00
 -1       272 2.68888E-03-1.46545E-06-6.61744E-24
 -1       273 2.68967E-03-5.49436E-06 0.00000E+00
 -1       274 2.69125E-03-1.16642E-05 0.00000E+00
 -1       275 2.69356E-03-1.98059E-05-2.64698E-23
 -1       276 2.69652E-03-2.97361E-05 0.00000E+00
 -1       277 2.70006E-03-4.12557E-05 2.64698E-23
 -1       278 2.70410E-03-5.41530E-05 0.00000E+00
 -1       279 2.70855E-03-6.82049E-05 2.64698E-23
 -1       280 2.71334E-03-8.31788E-05-1.32349E-23
 -1       281 2.71836E-03-9.88341E-05 2.64698E-23
 -1       282 2.72355E-03-1.14925E-04-6.61744E-24
 -1       283 2.72880E-03-1.31203E-04 0.00000E+00
 -1       284 2.73403E-03-1.47414E-04 0.00000E+00
 -1       285 2.73915E-03-1.63311E-04 0.00000E+00
 -1       301 2.69428E-03-1.77221E-04 6.61744E-24
 -1       302 2.70375E-03-1.77500E-04-3.30872E-24
 -1       303 2.71254E-03-1.77770E-04-1.32349E-23
 -1       304 2.72158E-03-1.78040E-04 6.61744E-24
 -1       305 2.73179E-03-1.78324E-04 2.64698E-23
 -1       306 2.72089E-03-3.30468E-04 0.00000E+00
 -1       307 2.78480E-03-7.43294E-04-5.29396E-23
 -1       308 2.83169E-03-1.34750E-03-1.05879E-22
 -1       309 2.85573E-03-2.04736E-03 0.00000E+00
 -1       310 2.88706E-03-2.71732E-03 1.05879E-22
 -1       311 2.94647E-03-3.23448E-03 0.00000E+00
 -1       312 3.00449E-03-3.51819E-03 1.05879E-22
 -1       313 3.00057E-03-3.53031E-03 0.00000E+00
 -1       314 2.86109E-03-3.28260E-03-1.05879E-22
 -1       315 2.54504E-03-2.83916E-03 5.29396E-23
 -1       316 2.07049E-03-2.27649E-03 0.00000E+00
 -1       317 1.50295E-03-1.66395E-03 0.00000E+00
 -1       318 9.56381E-04-1.06234E-03 0.00000E+00
 -1       319 5.38528E-04-5.36727E-04 0.00000E+00
 -1       320 2.93174E-04-1.61105E-04 0.00000E+00
 -1       336 2.99901E-04-4.08317E-06 1.32349E-23
 -1       337 2.86323E-04-4.76930E-06 0.00000E+00
 -1       338 2.70745E-04-5.48298E-06-1.32349E-23
 -1       339 2.53240E-04-6.22497E-06-6.61744E-24
 -1       340 2.33891E-04-6.99970E-06 0.00000E+00
 -1       406 1.81368E-04 9.42767E-07 8.27181E-25
 -1       407 1.82124E-04 1.07719E-06 8.27181E-25
 -1       408 1.82981E-04 1.21144E-06 4.13590E-25
 -1       409 1.83938E-04 1.34537E-06-2.06795E-25
 -1       410 1.84997E-04 1.47868E-06 2.48154E-24
 -1       521 2.78237E-03-3.41513E-04 0.00000E+00
 -1       522 2.84453E-03-7.74493E-04 0.00000E+00
 -1       523 2.88504E-03-1.40632E-03-1.05879E-22
 -1       524 2.89994E-03-2.13458E-03 5.29396E-23
 -1       525 2.92342E-03-2.83097E-03-1.05879E-22
 -1       526 2.97927E-03-3.37009E-03 5.29396E-23
 -1       527 3.03687E-03-3.66447E-03-2.11758E-22
 -1       528 3.03075E-03-3.67503E-03 0.00000E+00
 -1       529 2.87952E-03-3.41344E-03-2.11758E-22
 -1       530 2.53990E-03-2.95167E-03 0.00000E+00
 -1       531 2.03071E-03-2.36995E-03 0.00000E+00
 -1       532 1.42377E-03-1.74025E-03 0.00000E+00
 -1       533 8.38359E-04-1.12080E-03 1.05879E-22
 -1       534 3.87305E-04-5.74317E-04-5.29396E-23
 -1       535 1.20683E-04-1.79067E-04 2.11758E-22
 -1       536 2.12042E-04 2.69035E-05 0.00000E+00
 -1       537 2.10146E-04 8.69558E-05 1.65436E-24
 -1       538 2.07219E-04 1.63154E-04 3.30872E-24
 -1       539 2.03766E-04 2.46204E-04 0.00000E+00
 -1       540 2.00659E-04 3.24679E-04 3.30872E-24
 -1       541 1.98639E-04 3.87173E-04 1.65436E-24
 -1       542 1.97706E-04 4.26971E-04 0.00000E+00
 -1       543 1.97482E-04 4.37509E-04 0.00000E+00
 -1       544 1.97162E-04 4.19557E-04-3.30872E-24
 -1       545 1.96002E-04 3.74105E-04-1.65436E-24
 -1       546 1.93841E-04 3.09234E-04 0.00000E+00
 -1       547 1.90918E-04 2.33145E-04 0.00000E+00
 -1       548 1.88023E-04 1.57435E-04 0.00000E+00
 -1       549 1.85933E-04 9.37041E-05-1.65436E-24
 -1       550 1.84847E-04 4.99349E-05 1.65436E-24
 -1       551 1.87607E-04-8.36907E-06 0.00000E+00
 -1       552 1.59009E-04-9.03058E-06 0.00000E+00
 -1       553 1.27998E-04-9.75766E-06-6.61744E-24
 -1       554 9.55938E-05-1.05277E-05-6.61744E-24
 -1       555 6.28164E-05-1.13112E-05 0.00000E+00
 -1       556 2.05194E-04 1.16302E-05 0.00000E+00
 -1       557 1.99059E-04 2.73783E-05 0.00000E+00
 -1       558 1.94251E-04 3.97384E-05 0.00000E+00
 -1       559 1.90637E-04 4.90197E-05 0.00000E+00
 -1       560 1.88089E-04 5.55314E-05 0.00000E+00
 -1       561 1.86479E-04 5.95854E-05 0.00000E+00
 -1       562 1.85681E-04 6.14951E-05 0.00000E+00
 -1       563 1.85573E-04 6.15744E-05 0.00000E+00
 -1       564 1.86034E-04 6.01383E-05 0.00000E+00
 -1       565 1.86943E-04 5.75023E-05 0.00000E+00
 -1       566 1.88181E-04 5.39828E-05 0.00000E+00
 -1       567 1.89630E-04 4.98961E-05 0.00000E+00
 -1       568 1.91172E-04 4.55591E-05-1.65436E-24
 -1       569 1.92690E-04 4.12884E-05-8.27181E-25
 -1       570 1.94065E-04 3.74008E-05 0.00000E+00
 -1       571 1.84660E-04 3.18832E-05 8.27181E-25
 -1       572 1.84758E-04 2.97176E-05 4.13590E-25
 -1       573 1.84857E-04 2.75020E-05-1.65436E-24
 -1       574 1.84956E-04 2.52527E-05-1.65436E-24
 -1       575 1.85056E-04 2.29862E-05 0.00000E+00
 -1       576 1.85155E-04 2.07187E-05-1.65436E-24
 -1       577 1.85255E-04 1.84669E-05 0.00000E+00
 -1       578 1.85354E-04 1.62470E-05 0.00000E+00
 -1       579 1.85454E-04 1.40756E-05 6.61744E-24
 -1       580 1.85553E-04 1.19691E-05 0.00000E+00
 -1       581 1.85653E-04 9.94404E-06 0.00000E+00
 -1       582 1.85753E-04 8.01673E-06 0.00000E+00
 -1       583 1.85853E-04 6.20363E-06-6.61744E-24
 -1       584 1.85954E-04 4.52100E-06 0.00000E+00
 -1       585 1.86054E-04 2.98493E-06 6.61744E-24
 -1       586 1.86292E-04 3.40229E-05 0.00000E+00
 -1       587 1.87980E-04 3.40620E-05 8.27181E-25
 -1       588 1.89669E-04 3.41007E-05 8.27181E-25
 -1       589 1.91404E-04 3.41388E-05 0.00000E+00
 -1       590 1.93228E-04 3.41756E-05 0.00000E+00
 -1       591 1.85282E-04 3.19763E-05 1.03398E-25
 -1       592 1.86005E-04 2.99493E-05 0.00000E+00
 -1       593 1.86732E-04 2.79080E-05 0.00000E+00
 -1       594 1.87463E-04 2.58572E-05 0.00000E+00
 -1       595 1.88195E-04 2.38017E-05-8.27181E-25
 -1       596 1.88927E-04 2.17461E-05 0.00000E+00
 -1       597 1.89657E-04 1.96953E-05-8.27181E-25
 -1       598 1.90384E-04 1.76539E-05 0.00000E+00
 -1       599 1.91106E-04 1.56267E-05-8.27181E-25
 -1       600 1.91820E-04 1.36183E-05 0.00000E+00
 -1       601 1.92526E-04 1.16336E-05 0.00000E+00
 -1       602 1.93221E-04 9.67706E-06-2.06795E-25
 -1       603 1.93904E-04 7.75355E-06 8.27181E-25
 -1       604 1.94574E-04 5.86787E-06-7.75482E-26
 -1       605 1.95228E-04 4.02465E-06 4.13590E-25
 -1       606 1.86168E-04 4.68233E-07 0.00000E+00
 -1       607 1.86178E-04-5.87423E-07-1.65436E-24
 -1       608 1.86187E-04-1.56189E-06 3.30872E-24
 -1       609 1.86195E-04-2.46089E-06 0.00000E+00
 -1       610 1.86203E-04-3.29017E-06 0.00000E+00
 -1       611 1.86212E-04-4.05556E-06 0.00000E+00
 -1       612 1.86220E-04-4.76288E-06 0.00000E+00
 -1       613 1.86229E-04-5.41799E-06 0.00000E+00
 -1       614 1.86237E-04-6.02671E-06 0.00000E+00
 -1       615 1.86245E-04-6.59488E-06 0.00000E+00
 -1       616 1.86254E-04-7.12834E-06 0.00000E+00
 -1       617 1.86262E-04-7.63293E-06 0.00000E+00
 -1       618 1.86271E-04-8.11449E-06 0.00000E+00
 -1       619 1.86279E-04-8.57886E-06 0.00000E+00
 -1       620 1.86287E-04-9.03187E-06-2.06795E-25
 -1       621 1.87490E-04 1.71396E-06-3.30872E-24
 -1       622 1.88983E-04 1.81804E-06 8.27181E-25
 -1       623 1.90601E-04 1.92190E-06-1.65436E-24
 -1       624 1.92309E-04 2.02544E-06-8.27181E-25
 -1       625 1.94076E-04 2.12869E-06 1.65436E-24
 -1       626 1.86695E-04 5.04300E-07-3.30872E-24
 -1       627 1.87212E-04-5.38066E-07 0.00000E+00
 -1       628 1.87709E-04-1.52483E-06 0.00000E+00
 -1       629 1.88188E-04-2.46419E-06 0.00000E+00
 -1       630 1.88652E-04-3.36435E-06 3.30872E-24
 -1       631 1.89105E-04-4.23356E-06-1.65436E-24
 -1       632 1.89550E-04-5.08002E-06 0.00000E+00
 -1       633 1.89989E-04-5.91201E-06-1.65436E-24
 -1       634 1.90425E-04-6.73773E-06 3.30872E-24
 -1       635 1.90863E-04-7.56542E-06 0.00000E+00
 -1       636 1.91304E-04-8.40333E-06 3.30872E-24
 -1       637 1.91752E-04-9.25969E-06 0.00000E+00
 -1       638 1.92210E-04-1.01427E-05-1.65436E-24
 -1       639 1.92681E-04-1.10607E-05-8.27181E-25
 -1       640 1.93167E-04-1.20219E-05 0.00000E+00
 -1       656 1.86976E-04-1.00572E-05 0.00000E+00
 -1       657 1.88076E-04-1.06586E-05-6.61744E-24
 -1       658 1.89458E-04-1.12585E-05-1.32349E-23
 -1       659 1.90974E-04-1.18581E-05-6.61744E-24
 -1       660 1.92439E-04-1.24595E-05 6.61744E-24
 -1       661 1.86550E-04-9.97182E-06 0.00000E+00
 -1       662 1.86842E-04-1.05560E-05 0.00000E+00
 -1       663 1.87167E-04-1.12265E-05 0.00000E+00
 -1       664 1.87522E-04-1.19771E-05 0.00000E+00
 -1       665 1.87905E-04-1.28018E-05 0.00000E+00
 -1       666 1.88313E-04-1.36949E-05 8.27181E-25
 -1       667 1.88745E-04-1.46505E-05 1.65436E-24
 -1       668 1.89199E-04-1.56633E-05 0.00000E+00
 -1       669 1.89671E-04-1.67278E-05 0.00000E+00
 -1       670 1.90161E-04-1.78387E-05 0.00000E+00
 -1       671 1.90667E-04-1.89909E-05 1.65436E-24
 -1       672 1.91185E-04-2.01793E-05-8.27181E-25
 -1       673 1.91716E-04-2.13988E-05 1.65436E-24
 -1       674 1.92255E-04-2.26450E-05 4.13590E-25
 -1       675 1.92802E-04-2.39123E-05 4.13590E-25
 -1       676 1.86734E-04-2.46804E-05 3.30872E-24
 -1       677 1.88062E-04-2.47846E-05 0.00000E+00
 -1       678 1.89389E-04-2.48888E-05 3.30872E-24
 -1       679 1.90713E-04-2.49926E-05 1.65436E-24
 -1       680 1.92034E-04-2.50965E-05 0.00000E+00
 -1       771 1.86685E-05 1.47732E-05 0.00000E+00
 -1       772 8.56463E-06 3.68447E-05 0.00000E+00
 -1       773 2.76972E-07 5.43462E-05-5.29396E-23
 -1       774-6.31955E-06 6.75370E-05 0.00000E+00
 -1       775-1.13474E-05 7.66868E-05 0.00000E+00
 -1       776-1.49339E-05 8.20824E-05-2.64698E-23
 -1       777-1.72062E-05 8.40204E-05 0.00000E+00
 -1       778-1.82940E-05 8.28115E-05-2.64698E-23
 -1       779-1.83263E-05 7.87752E-05 5.29396E-23
 -1       780-1.74341E-05 7.22421E-05-2.64698E-23
 -1       781-1.57476E-05 6.35498E-05 0.00000E+00
 -1       782-1.33984E-05 5.30449E-05 2.64698E-23
 -1       783-1.05173E-05 4.10786E-05 5.29396E-23
 -1       784-7.23625E-06 2.80083E-05-2.64698E-23
 -1       785-3.68623E-06 1.41944E-05 0.00000E+00
 -1       786 1.95221E-04 3.19826E-05 0.00000E+00
 -1       787 1.95263E-04 2.98067E-05-4.13590E-25
 -1       788 1.95305E-04 2.76725E-05 8.27181E-25
 -1       789 1.95348E-04 2.55718E-05 0.00000E+00
 -1       790 1.95391E-04 2.34998E-05 0.00000E+00
 -1       791 1.95434E-04 2.14518E-05-8.27181E-25
 -1       792 1.95477E-04 1.94256E-05 0.00000E+00
 -1       793 1.95520E-04 1.74190E-05 0.00000E+00
 -1       794 1.95563E-04 1.54319E-05 0.00000E+00
 -1       795 1.95607E-04 1.34641E-05 0.00000E+00
 -1       796 1.95650E-04 1.15175E-05 1.65436E-24
 -1       797 1.95693E-04 9.59394E-06 8.27181E-25
 -1       798 1.95737E-04 7.69774E-06 1.65436E-24
 -1       799 1.95780E-04 5.83325E-06-8.27181E-25
 -1       800 1.95824E-04 4.00802E-06 0.00000E+00
 -1       801 1.49682E-04 3.07454E-05 2.64698E-23
 -1       802 1.20752E-05 1.91659E-05 0.00000E+00
 -1       803-1.05838E-04 9.62536E-06 0.00000E+00
 -1       804-9.45916E-05 6.68996E-06-2.64698E-23
 -1       805-3.14182E-05 2.64968E-06 0.00000E+00
 -1       806 1.95902E-04 3.19139E-05 1.65436E-24
 -1       807 1.96608E-04 2.96455E-05 0.00000E+00
 -1       808 1.97301E-04 2.74084E-05 0.00000E+00
 -1       809 1.97981E-04 2.52067E-05-1.65436E-24
 -1       810 1.98645E-04 2.30445E-05-3.30872E-24
 -1       811 1.99294E-04 2.09256E-05-1.65436E-24
 -1       812 1.99925E-04 1.88540E-05 0.00000E+00
 -1       813 2.00536E-04 1.68337E-05-1.65436E-24
 -1       814 2.01127E-04 1.48685E-05 0.00000E+00
 -1       815 2.01697E-04 1.29624E-05 0.00000E+00
 -1       816 2.02242E-04 1.11192E-05-3.30872E-24
 -1       817 2.02763E-04 9.34279E-06-1.65436E-24
 -1       818 2.03257E-04 7.63712E-06 0.00000E+00
 -1       819 2.03724E-04 6.00604E-06 0.00000E+00
 -1       820 2.04162E-04 4.45337E-06-1.65436E-24
 -1       821 1.95739E-04-9.83139E-08 0.00000E+00
 -1       822 1.95599E-04-3.56747E-06-1.65436E-24
 -1       823 1.95457E-04-7.75372E-06 0.00000E+00
 -1       824 1.95312E-04-1.22286E-05 1.65436E-24
 -1       825 1.95168E-04-1.64856E-05-3.30872E-24
 -1       826 1.95027E-04-2.00196E-05 0.00000E+00
 -1       827 1.94888E-04-2.25221E-05-3.30872E-24
 -1       828 1.94752E-04-2.36912E-05-1.65436E-24
 -1       829 1.94616E-04-2.35876E-05 0.00000E+00
 -1       830 1.94480E-04-2.22796E-05 1.65436E-24
 -1       831 1.94342E-04-2.01635E-05-3.30872E-24
 -1       832 1.94204E-04-1.76404E-05 0.00000E+00
 -1       833 1.94066E-04-1.52221E-05 0.00000E+00
 -1       834 1.93931E-04-1.34199E-05 0.00000E+00
 -1       835 1.93797E-04-1.25780E-05 8.27181E-25
 -1       836 1.97531E-04 2.35464E-06-3.30872E-24
 -1       837 1.99066E-04 2.48269E-06 0.00000E+00
 -1       838 2.00506E-04 2.61066E-06 3.30872E-24
 -1       839 2.01883E-04 2.73794E-06 0.00000E+00
 -1       840 2.03227E-04 2.86505E-06-8.27181E-25
 -1       856 1.93654E-04-1.40698E-05-8.27181E-25
 -1       857 1.93634E-04-1.49692E-05 0.00000E+00
 -1       858 1.93615E-04-1.57539E-05-2.06795E-25
 -1       859 1.93595E-04-1.64452E-05 0.00000E+00
 -1       860 1.93575E-04-1.70642E-05 0.00000E+00
 -1       861 1.93555E-04-1.76322E-05-2.06795E-25
 -1       862 1.93535E-04-1.81705E-05-4.13590E-25
 -1       863 1.93515E-04-1.87005E-05-4.13590E-25
 -1       864 1.93495E-04-1.92436E-05-8.27181E-25
 -1       865 1.93475E-04-1.98211E-05 4.13590E-25
 -1       866 1.93455E-04-2.04543E-05 8.27181E-25
 -1       867 1.93435E-04-2.11644E-05 0.00000E+00
 -1       868 1.93415E-04-2.19728E-05 8.27181E-25
 -1       869 1.93394E-04-2.29005E-05 4.13590E-25
 -1       870 1.93374E-04-2.39686E-05 8.27181E-25
 -1       871 1.94993E-04-1.30395E-05 0.00000E+00
 -1       872 1.96463E-04-1.30478E-05 0.00000E+00
 -1       873 1.98012E-04-1.30567E-05 4.13590E-25
 -1       874 1.99573E-04-1.30664E-05 3.36042E-25
 -1       875 2.01076E-04-1.30766E-05-1.24077E-24
 -1       876 1.94186E-04-1.40553E-05 0.00000E+00
 -1       877 1.94679E-04-1.50091E-05 0.00000E+00
 -1       878 1.95150E-04-1.59040E-05 0.00000E+00
 -1       879 1.95602E-04-1.67475E-05-1.65436E-24
 -1       880 1.96038E-04-1.75470E-05 3.30872E-24
 -1       881 1.96461E-04-1.83098E-05-1.65436E-24
 -1       882 1.96872E-04-1.90433E-05-3.30872E-24
 -1       883 1.97275E-04-1.97548E-05 0.00000E+00
 -1       884 1.97673E-04-2.04517E-05-3.30872E-24
 -1       885 1.98068E-04-2.11413E-05 1.65436E-24
 -1       886 1.98463E-04-2.18310E-05 0.00000E+00
 -1       887 1.98861E-04-2.25281E-05 0.00000E+00
 -1       888 1.99264E-04-2.32400E-05 0.00000E+00
 -1       889 1.99674E-04-2.39741E-05 0.00000E+00
 -1       890 2.00095E-04-2.47377E-05 0.00000E+00
 -1       891 1.94689E-04-2.52556E-05 0.00000E+00
 -1       892 1.96003E-04-2.53132E-05-8.27181E-25
 -1       893 1.97269E-04-2.53707E-05 0.00000E+00
 -1       894 1.98461E-04-2.54280E-05 0.00000E+00
 -1       895 1.99554E-04-2.54851E-05 0.00000E+00
 -1       956 2.04441E-04 1.68679E-06 3.30872E-24
 -1       957 2.04309E-04 4.82050E-07-8.27181E-25
 -1       958 2.04176E-04-6.42029E-07 0.00000E+00
 -1       959 2.04044E-04-1.69675E-06 0.00000E+00
 -1       960 2.03911E-04-2.69348E-06 0.00000E+00
 -1       961 2.03778E-04-3.64359E-06 0.00000E+00
 -1       962 2.03646E-04-4.55849E-06 3.30872E-24
 -1       963 2.03513E-04-5.44959E-06-1.65436E-24
 -1       964 2.03380E-04-6.32832E-06-3.30872E-24
 -1       965 2.03248E-04-7.20606E-06 0.00000E+00
 -1       966 2.03115E-04-8.09426E-06 0.00000E+00
 -1       967 2.02982E-04-9.00432E-06 0.00000E+00
 -1       968 2.02850E-04-9.94764E-06 0.00000E+00
 -1       969 2.02717E-04-1.09356E-05-3.30872E-24
 -1       970 2.02585E-04-1.19795E-05 3.30872E-24
 -1       971 2.02335E-04-1.42005E-05-3.30872E-24
 -1       972 2.02214E-04-1.52159E-05 0.00000E+00
 -1       973 2.02093E-04-1.61472E-05 0.00000E+00
 -1       974 2.01971E-04-1.70050E-05 0.00000E+00
 -1       975 2.01850E-04-1.78003E-05 3.30872E-24
 -1       976 2.01729E-04-1.85440E-05-1.65436E-24
 -1       977 2.01607E-04-1.92469E-05-3.30872E-24
 -1       978 2.01486E-04-1.99200E-05-1.65436E-24
 -1       979 2.01365E-04-2.05741E-05-3.30872E-24
 -1       980 2.01243E-04-2.12203E-05 1.65436E-24
 -1       981 2.01122E-04-2.18694E-05 0.00000E+00
 -1       982 2.01001E-04-2.25323E-05-1.65436E-24
 -1       983 2.00880E-04-2.32200E-05-3.30872E-24
 -1       984 2.00759E-04-2.39433E-05-1.65436E-24
 -1       985 2.00639E-04-2.47132E-05 0.00000E+00
 -3
    1PSTEP                        40          20           1          
  100CL  120 6.63060E-01         409                     0   20           1
 -4  STRESS      6    1
 -5  SXX         1    4    1    1
 -5  SYY         1    4    2    2
 -5  SZZ         1    4    3    3
 -5  SXY         1    4    1    2
 -5  SYZ         1    4    2    3
 -5  SZX         1    4    3    1
 -1         1-5.30905E+06-1.64426E+06-1.13204E+06-1.42647E+06 1.17871E-09 1.71771E-07
 -1         2 1.32784E+06 1.95454E+07 4.61304E+06 5.87657E+06 2.36032E-08 2.08704E-07
 -1         3-1.46977E+03-1.56997E+06 4.07171E+02-2.21454E+03-5.53218E-10 8.70787E-08
 -1         5-7.26438E+01 3.85909E+05 9.97134E+00-1.31543E+00-4.66020E-10 4.88526E-08
 -1         8-5.81877E+05-2.07019E+05-6.61751E+04-2.51758E+05-6.91216E-11-1.59522E-07
 -1         9 1.15834E+07 3.41290E+06 2.67908E+06-4.32741E+05-6.98492E-11 8.79867E-08
 -1        10-2.29388E+03-1.63603E+06-3.95626E+03-1.49821E+04-1.32823E-08-1.08022E-08
 -1        12-6.87229E+01 3.85930E+05 3.27611E+02-8.97487E+00-6.98606E-10 3.23307E-08
 -1        15 9.60312E+02 5.27739E+02 3.10419E+03 9.02741E-01-5.64626E-10-2.50667E-07
 -1        16 2.27761E+07-3.07546E+05 3.10715E+06-2.20764E+06 1.52698E-08 7.91624E-09
 -1        17 8.32528E+06 6.23400E+06 2.24961E+06 5.96318E+06 4.81552E-08 3.25846E-08
 -1        18 1.40010E+05 3.28750E+04 3.63204E+03-1.19152E+05 1.51117E-08 7.14954E-09
 -1        19 1.22274E+05 1.41518E+05-9.42384E+02 2.19701E+04 1.68548E-09 3.04208E-09
 -1        20-8.15849E+04-5.73110E+05-1.28581E+05 2.52484E+04-2.28859E-09 4.55596E-09
 -1        21-4.56467E+01-2.96055E+05-9.24438E+02 2.69874E+02 1.29839E-08-1.62841E-08
 -1        24 1.39066E+07 1.19908E+07 3.85929E+06 1.10861E+07-1.26485E-07-5.21153E-08
 -1        25 1.23101E+05 2.60823E+05 9.83042E+04-6.34886E+05-2.24045E-09-6.86305E-10
 -1        26-5.51851E+04 9.22009E+04-2.45828E+04 1.17290E+03 8.80391E-11 4.75893E-09
 -1        27-7.56460E+04-3.09671E+05-1.13237E+05 6.89255E+04 4.14805E-09 1.59565E-08
 -1        28 2.22530E+04-8.53236E+04 1.68988E+04 2.06719E+04-4.54239E-09-1.57555E-09
 -1        32-1.68015E+06-3.17998E+06-1.97104E+05 4.34590E+05-4.26517E-08-1.15606E-08
 -1        33-1.78340E+05 9.28835E+04 3.23558E+04-3.85438E+04-2.85415E-09 3.00649E-09
 -1        34-2.23477E+05-2.49850E+04 6.87815E+02 7.55446E+04-4.75955E-09-8.00734E-09
 -1        35-2.29384E+04-3.38379E+04-1.34794E+03 5.15055E+04-5.21139E-09 7.62399E-09
 -1        51 6.00815E+04-1.75858E+05 1.27212E+05-4.54292E+05 4.36557E-11 8.36371E-08
 -1        52 2.04117E+04-1.53731E+05 6.68468E+04-5.29813E+05 2.98314E-10 1.06997E-07
 -1        53 4.24851E+03-1.69126E+05 3.49668E+04-4.52718E+05 5.14774E-10-1.90157E-07
 -1        54 7.65977E+03-1.64931E+05 2.90462E+04-5.31366E+05 1.74623E-10-4.47586E-07
 -1        55 1.66575E+04-1.72130E+05 3.56997E+04-4.52609E+05 4.94765E-10 1.48066E-09
 -1        56-9.70429E+06-1.29810E+06-8.87506E+05-4.00179E+06 2.20316E-08-1.02707E-07
 -1        57-1.08699E+07-9.94050E+05-5.53242E+05-2.85816E+06 2.33777E-08-2.29746E-07
 -1        58-9.60189E+06-1.72853E+06-1.99038E+05-4.14788E+06-8.54197E-09 9.17717E-08
 -1        59-1.09396E+07-5.12356E+05-1.11101E+05-2.80156E+06-2.60056E-08-2.98533E-08
 -1        60-9.68388E+06-1.73473E+06-5.39305E+04-4.10300E+06 5.71526E-09-1.92929E-07
 -1        61-1.04383E+07-7.76660E+05 2.31748E+03-3.03303E+06 1.84955E-08 9.97479E-08
 -1        62-1.00104E+07-1.52641E+06-5.54576E+04-3.84447E+06-4.38085E-08 3.20731E-07
 -1        63-9.73822E+06-1.34972E+06 3.31024E+04-3.61894E+06 7.21411E-09 2.29686E-07
 -1        64-1.03131E+07-1.21189E+06-5.08001E+04-3.47126E+06-5.86442E-09 1.48895E-07
 -1        65-9.39445E+06-1.85022E+06 7.72579E+02-4.33584E+06 7.78527E-10-2.25436E-07
 -1        66-1.04390E+07-9.67128E+05-4.51880E+04-3.19101E+06-8.51287E-09-1.98197E-08
 -1        67-9.37121E+06-2.07652E+06-1.00202E+05-4.66983E+06-4.20951E-08-1.13258E-07
 -1        68-1.04199E+07-9.27780E+05-1.83221E+05-3.19054E+06-3.91028E-08-2.10159E-07
 -1        69-9.58496E+06-2.19042E+06-4.94265E+05-4.30219E+06-8.84538E-08-5.92932E-07
 -1        70-1.01502E+07-9.16919E+05-8.11030E+05-3.50637E+06 5.34328E-08 3.02680E-09
 -1        86-1.35392E+06-1.44306E+07-2.52275E+06-2.76763E+06-2.53523E-07-1.62720E-07
 -1        87 2.10074E+06 5.48158E+06 2.09911E+06 5.24328E+06-4.54951E-07-1.37135E-07
 -1        88-3.81533E+05-2.08589E+06 1.94801E+05-2.40789E+06-3.98575E-07-1.47093E-08
 -1        89 2.81629E+06 5.23022E+06 2.14847E+06 5.40904E+06-5.70595E-07-4.29867E-07
 -1        90-1.99017E+06-1.42448E+07-2.72982E+06-2.95653E+06-1.41594E-07-1.74419E-07
 -1       121-2.01428E+03-1.57481E+06-5.33367E+02 1.09781E+03 1.52328E-09 5.72763E-08
 -1       122-1.28343E+03-1.57003E+06 7.74114E+02-4.43267E+03-5.52912E-09 1.01390E-08
 -1       123-2.03504E+03-1.57495E+06 2.81725E+02 3.27854E+03 4.21369E-09-5.36966E-09
 -1       124 3.62726E+02-1.56957E+06 2.97305E+03-9.27143E+03-9.90212E-09-1.11886E-08
 -1       125-2.85163E+03-1.57585E+06 3.50986E+03 5.89158E+03 6.32281E-09 1.22236E-09
 -1       191-7.65644E+01 3.85928E+05 8.60704E+00 6.84989E-01-5.70744E-10 2.38269E-08
 -1       192-7.36048E+01 3.85910E+05 2.12724E+01-4.22378E+00-8.53314E-10-6.72117E-09
 -1       193-7.90947E+01 3.85927E+05 3.63397E+01 3.70589E+00-1.02261E-09 1.16961E-09
 -1       194-7.66861E+01 3.85913E+05 8.08528E+01-9.58586E+00-5.34325E-10-3.79077E-09
 -1       195-8.39518E+01 3.85925E+05 1.54918E+02 6.23115E+00-1.53221E-09-5.93354E-09
 -1       251-9.03658E+05 1.70736E+04-3.99279E+04-1.47345E+04 6.13923E-09-1.44972E-07
 -1       252-9.19410E+05-1.97266E+04-2.78834E+04 5.08120E+04-7.04773E-10-7.13308E-08
 -1       253-9.11985E+05 2.64148E+03-1.06366E+04-1.12713E+04-1.09560E-09-1.51742E-07
 -1       254-9.06086E+05-3.13624E+03-5.08527E+03 3.72321E+04 3.01975E-09 3.07539E-07
 -1       255-9.16416E+05 1.14697E+02-3.57510E+03-1.15687E+03-2.61343E-09 9.61859E-08
 -1       256-9.00337E+05-3.13207E+02 9.48950E+02 1.37700E+04 1.01841E-08 3.35519E-07
 -1       257-9.17270E+05-5.26448E+02-1.39836E+03 1.21810E+04-7.28710E-09 2.54989E-07
 -1       258-9.02621E+05 8.27156E+02 2.59767E+03-1.15397E+04 3.67709E-09 8.24276E-09
 -1       259-9.14333E+05-8.68509E+02 1.29324E+03 2.41496E+04 2.96518E-09-6.80711E-08
 -1       260-9.08756E+05 2.77461E+03 5.39533E+03-3.00403E+04 3.04527E-09-2.26345E-07
 -1       261-9.11748E+05-2.00006E+03 8.35907E+03 3.06956E+04 2.27510E-08-3.54262E-08
 -1       262-9.07536E+05 1.13219E+04 2.07808E+04-3.55084E+04-1.03989E-08-1.02280E-07
 -1       263-9.15802E+05-9.18992E+03 3.29161E+04 2.96264E+04-4.48938E-09-1.55027E-07
 -1       264-8.77996E+05 6.47146E+04 9.11608E+04-2.60041E+04 1.20039E-08 1.71715E-07
 -1       265-9.40800E+05-5.55268E+04 1.26905E+05 2.11802E+04 1.10147E-08 1.31906E-07
 -1       266-1.73851E+04-8.13006E+03 4.07866E+04-1.93144E+01 1.60071E-10 1.70758E-07
 -1       267 2.01538E+04 9.47453E+03 2.88293E+04 2.22868E+01 7.54881E-11-8.45730E-08
 -1       268-2.70260E+03-1.34192E+03 1.07156E+04-2.83963E+00-7.54881E-11-4.03995E-08
 -1       269 3.19096E+03 1.60592E+03 6.96507E+03 3.30785E+00-1.15506E-10-5.06053E-09
 -1       270-4.78968E+02-2.63869E+02 3.36213E+03-4.48894E-01-1.47793E-12 1.86944E-07
 -1       271-1.53476E+06-1.93926E+05-1.15298E+05-5.96173E+05-1.64073E-08 2.49565E-07
 -1       272-1.53979E+06-3.04430E+05-7.27798E+04-6.27446E+05-1.37152E-08-8.04375E-08
 -1       273-1.55883E+06-2.19048E+05-2.78226E+04-5.88202E+05-1.40062E-09-9.92077E-08
 -1       274-1.51191E+06-2.74319E+05-1.46869E+04-6.42068E+05 3.78186E-08-1.63718E-07
 -1       275-1.56436E+06-2.19006E+05-6.85477E+03-5.84551E+05-1.78443E-08 2.19466E-07
 -1       276-1.50590E+06-2.74972E+05-3.01301E+03-6.50126E+05 3.11038E-08 4.72460E-08
 -1       277-1.56710E+06-2.16583E+05-1.87983E+03-5.81902E+05-2.28902E-08-6.89706E-08
 -1       278-1.50345E+06-2.78121E+05-7.90992E+02-6.56071E+05 4.59113E-08-6.95654E-08
 -1       279-1.56885E+06-2.14546E+05-9.26160E+02-5.80017E+05-5.19431E-08 5.42213E-08
 -1       280-1.50224E+06-2.80575E+05-1.14430E+03-6.60052E+05 3.66763E-08-5.00622E-07
 -1       281-1.56979E+06-2.13200E+05-2.10865E+03-5.78924E+05 4.63206E-09 7.19207E-09
 -1       282-1.50260E+06-2.83024E+05-4.91732E+03-6.61774E+05 1.46972E-08 8.07931E-08
 -1       283-1.56924E+06-2.11753E+05-8.74659E+03-5.78750E+05-1.17863E-08-2.82986E-07
 -1       284-1.51036E+06-2.94688E+05-2.38387E+04-6.59616E+05 6.07250E-08-1.05932E-07
 -1       285-1.56209E+06-2.02798E+05-3.71532E+04-5.80587E+05-1.87438E-08 1.63549E-07
 -1       301-3.65415E+03-6.37639E+05 1.67579E+05-1.11628E+06 9.79344E-09-1.37370E-08
 -1       302-4.59520E+03-5.91654E+05 1.00868E+05-1.62977E+06 9.09495E-10-2.72956E-07
 -1       303-1.90092E+04-6.29228E+05 5.72625E+04-1.11326E+06 6.61385E-09 1.20763E-08
 -1       304-2.05551E+04-5.97945E+05 5.81063E+04-1.62911E+06-1.02154E-08 3.74323E-07
 -1       305-2.29950E+04-6.18310E+05 7.20672E+04-1.11636E+06-6.57565E-09 1.23880E-07
 -1       306-3.01035E+07-6.21627E+06-8.59999E+06-5.51516E+05-7.12462E-08-3.57395E-08
 -1       307 2.53960E+07 3.23424E+06 5.51497E+06-1.51446E+07-7.47037E-07 1.87429E-08
 -1       308-7.01677E+06-1.03164E+06-4.65331E+05 5.20342E+06-2.44123E-07 4.72472E-07
 -1       309-3.29205E+06 8.72640E+06 2.27581E+06-2.06405E+07 3.41752E-07 2.62713E-07
 -1       310-1.24955E+07-1.92670E+06-2.01120E+06 5.21182E+06 2.11818E-07-3.34170E-07
 -1       311 3.81764E+07 2.44342E+04 7.24237E+06-8.87910E+06 7.25355E-07 2.85712E-07
 -1       312-3.18610E+07-6.73180E+06-8.50599E+06-4.97678E+06 2.63564E-07-9.30013E-08
 -1       313 4.54102E+07 1.48614E+07 1.06425E+07 2.36560E+07-1.24186E-07-4.67291E-07
 -1       314-1.72732E+07-1.77031E+07-7.51375E+06-1.25217E+07 3.26138E-07-4.29573E-08
 -1       315-1.75145E+06 2.96354E+07 5.66607E+06 1.06185E+07-1.59984E-07-9.31323E-09
 -1       316 1.36622E+06-9.84682E+06-4.48803E+05-2.56724E+06-1.16194E-06-4.06988E-07
 -1       317-1.71396E+07 2.23913E+07 2.23190E+06-8.75048E+06 6.57441E-07-6.70349E-07
 -1       318-1.06805E+06-1.27311E+07-2.02513E+06-4.24450E+06-9.42906E-07 1.85799E-07
 -1       319 7.15274E+06 3.18244E+07 7.00877E+06 1.65529E+07-1.34947E-07 2.15601E-07
 -1       320-2.25501E+07-1.75800E+07-9.82239E+06-1.27809E+07 1.98721E-07-5.93718E-08
 -1       336-7.04835E+02-1.70479E+06-1.38825E+04 8.92416E+03-2.64081E-08 1.84082E-08
 -1       337-5.40969E+03-1.70443E+06-1.81130E+04-2.16651E+04-4.90136E-08-3.25435E-08
 -1       338 3.06978E+02-1.70428E+06-2.84829E+04 1.24949E+04-3.47691E-08 1.01245E-08
 -1       339-3.02245E+04-1.72166E+06-6.43946E+04-2.86564E+04-6.22831E-08 1.95414E-08
 -1       340 1.99430E+04-1.68972E+06-1.01413E+05 1.57859E+04-4.16985E-08 2.44727E-08
 -1       406-4.69282E+01 3.85910E+05 6.43390E+02 3.26935E+00-1.97200E-09 2.12167E-08
 -1       407 1.57167E+02 3.86044E+05 1.37468E+03 2.30063E+01-4.62691E-10-1.69985E-09
 -1       408 6.36654E+02 3.85810E+05 2.74117E+03-2.66120E+01-2.52703E-09 2.40198E-08
 -1       409 2.90520E+03 3.86919E+05 6.17808E+03 2.83897E+02-3.04681E-10-5.63159E-09
 -1       410 8.47006E+03 3.85021E+05 1.26093E+04-2.73748E+02-2.61934E-09-1.05265E-08
 -1       521-3.16357E+07-7.66792E+06-1.00413E+07-1.59907E+05-8.56817E-08 3.99305E-08
 -1       522 2.62480E+07 4.24601E+06 5.61900E+06-1.86372E+07-5.51052E-07-2.76254E-07
 -1       523-7.59454E+06-1.34407E+06-4.57969E+05 5.64907E+06 2.22935E-07-3.75032E-07
 -1       524-6.79464E+06 1.17697E+07 2.45963E+06-2.36873E+07 1.07770E-06-4.92561E-07
 -1       525-1.32893E+07-2.55487E+06-2.20849E+06 5.66000E+06 6.11355E-07-1.28581E-07
 -1       526 4.16328E+07-6.05668E+04 7.59658E+06-1.15318E+07 1.93017E-07-2.25817E-07
 -1       527-3.36907E+07-8.41835E+06-9.79803E+06-4.83272E+06 1.36439E-07 2.15034E-07
 -1       528 4.95767E+07 1.65319E+07 1.10956E+07 2.68784E+07-9.91859E-08 2.32307E-07
 -1       529-1.82190E+07-1.98955E+07-8.61182E+06-1.25519E+07-9.15024E-08-8.52160E-08
 -1       530-4.21696E+06 3.44035E+07 5.99506E+06 1.01089E+07 5.54719E-08 4.72588E-07
 -1       531 1.35871E+06-1.09230E+07-4.24949E+05-2.52277E+06-8.98028E-07 2.09373E-07
 -1       532-1.96710E+07 2.43966E+07 2.43699E+06-1.30220E+07 3.06565E-07-8.95961E-07
 -1       533-1.10591E+06-1.38682E+07-2.14992E+06-4.05380E+06-3.04164E-07-1.05589E-06
 -1       534 5.11403E+06 3.69132E+07 7.28841E+06 1.70988E+07-4.40923E-08 7.64267E-07
 -1       535-2.37076E+07-1.99621E+07-1.12504E+07-1.28444E+07 1.25845E-07 4.66011E-07
 -1       536-7.02313E+05-4.66961E+04-4.63549E+04-5.41736E+04-5.04269E-09 6.20521E-08
 -1       537-5.85975E+04 4.47369E+04 8.37519E+04 1.22873E+05-1.09876E-07 1.23729E-07
 -1       538-3.94221E+05 3.22878E+03 3.83118E+03-7.17108E+04 4.37952E-08 1.27073E-07
 -1       539-2.70372E+05 2.88762E+03 2.47982E+04 1.37731E+05 1.78567E-07 1.12101E-07
 -1       540-4.95851E+05-4.18836E+02-2.09743E+04-6.95560E+04 1.42973E-08 1.12521E-07
 -1       541 1.40378E+05 1.67715E+04 1.05152E+05 9.70779E+04-5.75653E-08 7.50551E-08
 -1       542-7.93904E+05-1.99011E+04-8.32174E+04-3.01994E+04 1.71144E-08 4.33244E-08
 -1       543 3.95923E+05 2.70025E+04 1.56076E+05-1.32874E+04 1.59080E-08 2.26082E-08
 -1       544-7.44544E+05-1.63323E+04-7.39258E+04 4.01517E+04-4.36635E-08-3.87926E-08
 -1       545 2.38991E+04 9.34671E+03 7.87939E+04-1.12733E+05-1.85148E-08-8.98999E-08
 -1       546-4.31869E+05 6.04235E+03-1.20925E+04 6.89068E+04 2.08593E-08-7.85573E-08
 -1       547-2.88315E+05-4.66405E+03 1.03533E+04-1.40570E+05-1.02827E-07-9.55442E-08
 -1       548-4.40721E+05 4.70310E+03-2.37364E+04 6.86668E+04-9.75501E-08-9.42996E-08
 -1       549 4.30307E+04 1.56117E+04 5.94364E+04-1.10565E+05-8.27604E-08-6.57913E-08
 -1       550-7.54348E+05-2.16508E+04-1.27967E+05 3.81994E+04 3.67072E-09-3.44226E-08
 -1       551 4.04016E+04-7.70819E+05-1.76309E+04-1.26600E+06 3.24653E-08-2.30502E-08
 -1       552 9.64669E+04-8.18682E+05 9.51676E+03-1.82967E+06 7.46950E-08 2.68483E-08
 -1       553 7.34152E+04-8.14807E+05 3.20876E+04-1.25910E+06 4.32919E-08 3.15777E-08
 -1       554 1.36953E+05-8.36452E+05 8.19052E+04-1.83156E+06 8.08795E-08 1.91721E-08
 -1       555 1.01307E+05-8.38724E+05 1.48806E+05-1.25905E+06 4.10073E-08-1.74550E-08
 -1       556 2.22267E+05-3.81419E+05 2.70416E+04-4.05770E+05-2.61352E-08-1.88302E-08
 -1       557 3.52413E+05-4.85409E+05 1.67871E+04-5.25507E+05-7.88714E-09-1.39698E-08
 -1       558 2.04302E+05-3.74544E+05 2.64563E+03-4.09956E+05-2.45927E-08-1.27329E-09
 -1       559 3.27483E+05-4.85690E+05 2.58496E+03-5.45760E+05 1.74623E-08-8.54925E-09
 -1       560 1.89163E+05-3.65048E+05-1.40654E+03-4.20859E+05 9.80799E-09 6.97764E-09
 -1       561 3.08443E+05-4.78082E+05 1.68408E+02-5.58734E+05-5.74801E-09 2.97532E-08
 -1       562 1.77193E+05-3.57609E+05-1.29007E+03-4.29525E+05-5.03496E-09-8.47649E-09
 -1       563 2.94228E+05-4.71884E+05-2.59438E+01-5.68017E+05-1.53013E-08-3.87827E-08
 -1       564 1.68656E+05-3.52289E+05-5.86471E+02-4.35574E+05-5.20959E-09-8.52515E-09
 -1       565 2.84810E+05-4.67782E+05 2.70058E+01-5.74033E+05 0.00000E+00 7.55244E-09
 -1       566 1.63675E+05-3.49138E+05-2.54421E+02-4.39058E+05-1.05938E-08-1.18089E-08
 -1       567 2.80247E+05-4.65798E+05-3.58271E+02-5.76803E+05 2.41998E-08 2.39488E-08
 -1       568 1.62340E+05-3.48320E+05-1.11537E+03-4.40088E+05 5.13501E-09 1.03064E-08
 -1       569 2.79158E+05-4.65729E+05-2.81732E+03-5.75359E+05-1.85537E-09 1.09430E-08
 -1       570 1.65737E+05-3.51545E+05-6.16203E+03-4.39072E+05 6.11908E-09-8.27185E-09
 -1       571 2.90148E+05 1.04954E+04 1.49805E+04-9.48550E+04 7.37600E-10 4.44743E-10
 -1       572 2.92320E+05 3.95193E+03 7.34164E+03-1.04065E+05 3.33284E-09 7.00493E-09
 -1       573 2.91011E+05 1.23959E+03 3.26213E+03-9.46787E+04 1.00954E-09 6.48197E-09
 -1       574 2.91225E+05 7.20812E+02 1.63592E+03-1.04289E+05 3.55658E-09 2.26546E-08
 -1       575 2.91104E+05 4.42381E+02 7.72101E+02-9.46546E+04-4.41105E-10 9.15315E-09
 -1       576 2.91089E+05 4.53215E+02 3.95297E+02-1.04319E+05-6.94672E-09-1.58534E-08
 -1       577 2.91144E+05 3.84490E+02 1.97324E+02-9.46513E+04 2.62480E-09-1.12532E-08
 -1       578 2.91119E+05 4.15439E+02 1.13955E+02-1.04323E+05 1.25046E-08 3.67345E-09
 -1       579 2.91215E+05 3.48167E+02 7.82419E+01-9.46509E+04 1.55069E-08 1.24810E-08
 -1       580 2.91220E+05 3.64870E+02 9.07353E+01-1.04318E+05-8.44375E-09 5.33873E-09
 -1       581 2.91328E+05 2.90117E+02 1.37040E+02-9.46568E+04 7.90715E-09 6.61021E-09
 -1       582 2.91394E+05 3.28020E+02 2.78554E+02-1.04257E+05 3.32784E-09 7.38237E-09
 -1       583 2.91467E+05 3.32890E+02 5.34699E+02-9.47132E+04 2.43381E-09 7.38919E-09
 -1       584 2.91767E+05 7.69348E+02 1.20989E+03-1.03782E+05 5.59885E-09-5.72300E-10
 -1       585 2.91493E+05 1.78815E+03 2.45007E+03-9.51306E+04-1.53523E-09-5.52973E-10
 -1       586-3.41942E+03 1.16511E+05-2.92966E+03-2.50463E+05-5.64569E-09-7.47013E-09
 -1       587-1.32921E+03 1.16259E+05 7.59889E+02-2.75653E+05-5.85896E-09-1.03546E-08
 -1       588 4.06578E+02 1.16070E+05 4.74394E+03-2.50325E+05-7.87077E-09 6.33554E-09
 -1       589 5.08371E+03 1.18536E+05 1.23129E+04-2.75420E+05-7.98354E-09 1.64437E-09
 -1       590 1.65798E+04 1.14740E+05 2.58324E+04-2.50756E+05-4.61478E-09 7.23958E-10
 -1       591-7.47604E+04-1.59604E+04-2.24831E+04-3.19067E+04-1.21190E-08-1.64437E-08
 -1       592-7.88278E+04-1.95242E+04-1.21786E+04-3.55400E+04-1.15065E-08 5.76335E-09
 -1       593-7.70091E+04-1.43288E+04-5.06936E+03-3.35551E+04-8.15075E-09-2.07524E-09
 -1       594-7.57234E+04-1.62253E+04-2.52822E+03-3.56577E+04 1.86054E-09 1.25092E-08
 -1       595-7.71805E+04-1.43234E+04-1.16072E+03-3.36300E+04-3.32339E-09 1.86189E-08
 -1       596-7.55108E+04-1.60744E+04-5.89854E+02-3.56325E+04 1.15912E-09 1.97668E-08
 -1       597-7.72020E+04-1.43388E+04-3.20772E+02-3.36329E+04 4.77115E-09 1.45415E-08
 -1       598-7.54899E+04-1.60685E+04-2.57092E+02-3.56254E+04-6.98111E-09 6.87305E-09
 -1       599-7.72008E+04-1.43393E+04-3.27444E+02-3.36325E+04 2.93369E-09-1.34648E-08
 -1       600-7.55109E+04-1.60750E+04-6.07517E+02-3.56304E+04 3.50235E-09-2.73820E-09
 -1       601-7.71762E+04-1.43248E+04-1.19810E+03-3.36291E+04 3.83352E-10-7.64885E-10
 -1       602-7.57302E+04-1.62296E+04-2.61092E+03-3.56525E+04-5.71038E-09-6.19093E-09
 -1       603-7.69964E+04-1.43333E+04-5.23587E+03-3.35525E+04 3.55249E-09-1.68211E-09
 -1       604-7.89541E+04-1.96172E+04-1.25778E+04-3.55061E+04 1.31752E-09-1.11741E-08
 -1       605-7.46540E+04-1.60361E+04-2.32201E+04-3.18694E+04 6.21242E-09 1.19398E-08
 -1       606 2.67827E+04-1.43079E+04-2.56496E+04 2.40958E+04 8.00719E-09-4.49813E-09
 -1       607 2.24000E+04-4.67263E+03-1.27734E+04 2.70781E+04 2.64390E-09 3.83125E-09
 -1       608 2.48976E+04-8.42674E+02-5.71824E+03 2.39260E+04-4.28554E-09-1.18839E-08
 -1       609 2.44187E+04-2.88275E+02-2.88869E+03 2.72931E+04-1.73259E-09 2.58717E-09
 -1       610 2.46841E+04-4.04353E+01-1.37825E+03 2.39058E+04 1.69384E-08-2.31762E-09
 -1       611 2.46087E+04-4.05113E+01-6.94900E+02 2.73163E+04 2.75027E-08 4.43310E-09
 -1       612 2.46368E+04-2.66169E+01-3.30360E+02 2.39038E+04 1.97660E-08-1.07932E-08
 -1       613 2.46201E+04-3.63066E+01-1.48025E+02 2.73190E+04 2.35686E-08-4.73437E-09
 -1       614 2.46145E+04-3.29217E+01-3.46835E+01 2.39031E+04 1.42390E-08 4.22256E-09
 -1       615 2.46147E+04-3.47261E+01 6.21199E+01 2.73195E+04 1.88993E-09 1.28321E-08
 -1       616 2.45971E+04-2.97253E+01 1.86203E+02 2.39033E+04 2.15914E-09-2.01499E-09
 -1       617 2.46369E+04 5.02541E+00 4.24806E+02 2.73190E+04 2.81125E-09-6.43058E-09
 -1       618 2.45601E+04 9.27929E+01 8.56252E+02 2.39036E+04 8.86757E-11-1.70144E-08
 -1       619 2.49391E+04 6.67125E+02 1.92278E+03 2.73184E+04 1.22964E-09 1.67090E-08
 -1       620 2.42757E+04 2.12323E+03 3.86472E+03 2.39051E+04-3.45608E-11 8.21956E-09
 -1       621 5.08166E+02 3.01104E+05 3.87667E+03 4.07049E+04 1.09412E-09 6.29552E-09
 -1       622 6.72396E+02 3.02000E+05 3.44081E+03 5.90957E+04 1.16779E-09-1.02009E-08
 -1       623 1.40231E+02 3.01299E+05 4.13532E+03 4.05207E+04 1.21508E-09-7.26504E-09
 -1       624 2.11928E+03 3.03217E+05 8.01718E+03 5.92771E+04 1.04313E-09-1.74757E-08
 -1       625 2.07165E+03 2.99709E+05 1.40099E+04 4.05175E+04 1.71713E-09-4.01997E-10
 -1       626 2.60579E+05 6.14359E+04 5.11973E+03 1.26715E+05 1.98088E-09-1.28239E-08
 -1       627 2.58253E+05 6.28404E+04 2.46716E+03 1.30996E+05 6.13136E-09-6.51835E-09
 -1       628 2.60707E+05 5.90928E+04 1.04342E+03 1.27585E+05-2.06637E-09 9.31209E-09
 -1       629 2.57617E+05 6.21612E+04 5.10705E+02 1.31237E+05-7.61656E-09-1.17497E-08
 -1       630 2.60721E+05 5.89797E+04 2.36993E+02 1.27622E+05 2.96632E-09-7.44967E-09
 -1       631 2.57550E+05 6.21354E+04 1.27656E+02 1.31239E+05 8.11110E-09 3.10167E-08
 -1       632 2.60718E+05 5.89837E+04 8.42175E+01 1.27617E+05 9.71795E-10 2.82944E-09
 -1       633 2.57542E+05 6.21373E+04 9.41475E+01 1.31235E+05-5.20231E-10-3.35035E-09
 -1       634 2.60713E+05 5.89809E+04 1.52436E+02 1.27617E+05 2.05773E-11 1.39107E-09
 -1       635 2.57556E+05 6.21356E+04 3.08632E+02 1.31241E+05 2.10227E-09-1.30458E-08
 -1       636 2.60704E+05 5.89752E+04 6.23373E+02 1.27616E+05 1.10404E-08 1.34410E-08
 -1       637 2.57691E+05 6.22325E+04 1.37069E+03 1.31240E+05 8.55152E-10 7.53289E-09
 -1       638 2.60655E+05 5.92779E+04 2.81628E+03 1.27480E+05-2.22462E-09-1.81617E-08
 -1       639 2.59170E+05 6.42901E+04 6.66344E+03 1.30804E+05 7.68432E-09 1.25160E-08
 -1       640 2.60451E+05 6.54218E+04 1.38278E+04 1.24891E+05 4.44243E-09-3.90719E-09
 -1       656 6.65383E+04-1.70271E+06-1.60619E+05-2.52192E+03-2.32831E-10-6.47987E-09
 -1       657-8.80236E+04-1.77529E+06-1.33062E+05 5.21920E+03-6.13909E-10-3.71783E-08
 -1       658 2.12094E+04-1.72332E+06-8.19472E+04-4.60647E+03-1.62186E-09-1.15519E-08
 -1       659-9.51787E+04-1.77869E+06-1.42465E+05 6.94765E+03-3.45790E-09-1.85463E-08
 -1       660 7.36775E+04-1.69932E+06-1.76785E+05-4.25035E+03-2.47383E-09 1.06562E-08
 -1       661 1.59166E+05 1.66644E+04 1.67601E+04 6.22216E+04-1.36106E-09 2.13986E-08
 -1       662 1.68634E+05 2.90833E+04 1.12951E+04 5.84696E+04-5.73948E-10-1.72300E-08
 -1       663 1.62458E+05 2.20413E+04 3.95032E+03 6.12662E+04 2.00964E-09-2.07904E-08
 -1       664 1.64817E+05 2.27955E+04 2.36310E+03 5.96368E+04-1.24356E-09 1.56968E-08
 -1       665 1.62957E+05 2.27756E+04 9.32226E+02 6.11204E+04 2.93198E-09 4.01948E-09
 -1       666 1.64226E+05 2.19557E+04 5.45663E+02 5.98269E+04 5.40908E-09 2.98777E-09
 -1       667 1.63045E+05 2.28591E+04 2.89996E+02 6.10838E+04 3.19488E-10-5.60364E-09
 -1       668 1.64129E+05 2.18958E+04 2.95875E+02 5.98801E+04-4.28901E-09-2.36577E-09
 -1       669 1.63053E+05 2.28339E+04 4.00887E+02 6.10675E+04-4.21801E-09 1.05393E-08
 -1       670 1.64227E+05 2.21136E+04 8.73236E+02 5.98831E+04-7.13553E-09-1.27188E-08
 -1       671 1.62947E+05 2.26459E+04 1.55059E+03 6.10788E+04 3.74740E-09-2.43472E-09
 -1       672 1.65130E+05 2.36221E+04 3.96724E+03 5.96642E+04 8.40549E-09 4.59539E-09
 -1       673 1.62154E+05 2.13635E+04 6.64848E+03 6.12718E+04 2.05341E-09 5.14456E-09
 -1       674 1.71458E+05 3.43037E+04 1.90133E+04 5.78052E+04-2.31466E-09 9.88257E-09
 -1       675 1.56660E+05 1.22635E+04 2.82224E+04 6.28255E+04-1.96451E-09 2.02999E-08
 -1       676 2.41223E+01-2.95978E+05-1.11419E+03-1.34941E+02 7.28164E-11 4.12109E-09
 -1       677-2.94774E+02-2.96247E+05-2.03916E+03 2.69665E+02 8.73615E-09 4.79744E-09
 -1       678 1.97675E+02-2.95786E+05-3.60474E+03-1.34635E+02 2.22394E-09 2.26775E-08
 -1       679-3.60484E+03-2.98423E+05-8.56336E+03 2.68501E+02 7.24185E-09 9.42465E-09
 -1       680 2.15227E+03-2.93803E+05-1.38012E+04-1.32289E+02 2.37833E-09 7.02300E-10
 -1       771-3.06227E+06-7.48937E+05-1.63145E+05-1.46770E+06-3.64671E-08-2.96859E-08
 -1       772-2.98365E+06-8.37870E+05-8.39941E+04-1.57064E+06-2.62371E-08 7.32689E-09
 -1       773-3.09364E+06-7.24452E+05-4.30499E+04-1.48208E+06-1.01572E-08 1.03319E-08
 -1       774-2.97469E+06-8.19777E+05-1.91546E+04-1.59662E+06 2.72994E-08-4.51109E-09
 -1       775-3.11021E+06-7.12806E+05-1.44771E+04-1.48922E+06-8.32370E-09 3.43425E-09
 -1       776-2.98724E+06-8.16713E+05-5.38772E+03-1.61630E+06-1.63564E-08 2.79397E-09
 -1       777-3.12462E+06-7.02404E+05-6.44656E+03-1.49553E+06 6.19912E-09 8.36735E-09
 -1       778-3.00030E+06-8.13838E+05-1.81296E+03-1.63322E+06-9.16771E-10 9.76797E-09
 -1       779-3.13701E+06-6.93314E+05-3.23735E+03-1.50091E+06-1.23837E-08-5.05679E-09
 -1       780-3.01180E+06-8.11096E+05-5.36995E+02-1.64699E+06 6.00267E-09 2.08092E-09
 -1       781-3.14687E+06-6.85987E+05-1.26734E+03-1.50513E+06-2.33995E-08-2.24281E-09
 -1       782-3.02066E+06-8.08771E+05 4.37110E+02-1.65716E+06-3.97849E-08-8.94170E-09
 -1       783-3.15381E+06-6.80895E+05 6.70455E+02-1.50808E+06-1.52795E-10-1.55419E-08
 -1       784-3.02560E+06-8.06477E+05 2.84246E+03-1.66343E+06-8.29823E-09 9.27685E-11
 -1       785-3.15789E+06-6.77870E+05 5.00998E+03-1.50993E+06-3.38041E-08 5.41513E-09
 -1       786 1.24516E+05-9.79063E+03 2.26516E+04-3.20923E+02 3.02604E-09 2.40652E-09
 -1       787 1.34340E+05 1.13353E+04 1.60250E+04-1.34330E+02 9.25388E-09 1.33125E-08
 -1       788 1.28303E+05-1.53422E+03 5.86047E+03-2.85799E+02 4.01524E-09 7.23594E-09
 -1       789 1.29927E+05 1.77581E+03 3.67903E+03-1.88174E+02-1.66094E-09-2.13913E-09
 -1       790 1.28929E+05-2.38887E+02 1.48967E+03-2.67097E+02-3.52491E-09 4.38530E-09
 -1       791 1.29195E+05 2.76403E+02 8.60570E+02-2.20176E+02-5.40987E-09 1.31822E-08
 -1       792 1.29035E+05-3.59352E+01 3.65023E+02-2.53798E+02-4.34553E-09 7.71317E-09
 -1       793 1.29069E+05 3.81255E+01 1.82734E+02-2.45200E+02 1.11351E-09-2.90016E-08
 -1       794 1.29055E+05-7.60106E-01 4.90213E+01-2.42073E+02 4.69493E-09-4.74694E-09
 -1       795 1.29032E+05-2.62378E+01-5.38650E+01-2.69687E+02-5.50851E-09 1.28709E-08
 -1       796 1.29071E+05 2.83920E+01-1.56153E+02-2.29311E+02 4.45511E-09 4.16993E-09
 -1       797 1.28941E+05-2.12108E+02-4.30585E+02-2.99027E+02 5.00768E-09 1.96655E-08
 -1       798 1.29147E+05 1.84970E+02-6.99802E+02-2.12733E+02 2.46810E-09 1.20118E-08
 -1       799 1.28410E+05-1.36338E+03-1.92570E+03-3.40087E+02 6.42895E-09-5.58583E-09
 -1       800 1.29603E+05 1.17872E+03-2.72540E+03-1.88252E+02-3.23213E-10-4.12729E-09
 -1       801-1.68656E+05-9.89842E+06-1.37833E+06 1.38835E+06 9.16480E-08-5.35983E-08
 -1       802 7.23400E+05 5.76990E+06 2.13619E+06-1.71327E+06 2.60661E-07-3.64435E-08
 -1       803-5.25663E+05-1.40250E+07-1.84890E+06 8.90548E+05 7.88277E-08 2.53531E-08
 -1       804 2.77408E+05 2.23497E+06 1.49681E+06 6.61422E+05-1.18423E-07-1.03476E-07
 -1       805 1.88319E+05-6.37793E+06-2.75914E+05-9.80861E+05-4.92146E-08-6.01958E-08
 -1       806-3.08604E+05-5.97154E+04-2.28466E+04-1.22299E+05-1.03837E-08 1.35115E-08
 -1       807-3.10401E+05-5.59861E+04-1.12243E+04-1.27843E+05 8.66498E-09 2.15378E-08
 -1       808-3.09231E+05-5.14817E+04-4.76170E+03-1.26191E+05 2.61389E-09 2.46188E-08
 -1       809-3.08041E+05-5.28324E+04-2.32835E+03-1.28118E+05 4.29100E-09 3.12511E-08
 -1       810-3.09326E+05-5.11951E+04-1.06721E+03-1.26363E+05 1.07634E-08 7.65021E-09
 -1       811-3.07859E+05-5.27057E+04-5.30732E+02-1.28083E+05 3.27054E-09 3.85967E-09
 -1       812-3.09340E+05-5.12198E+04-2.68476E+02-1.26363E+05-8.30823E-09-1.62745E-08
 -1       813-3.07834E+05-5.27078E+04-1.74575E+02-1.28064E+05-9.53969E-09-1.70246E-08
 -1       814-3.09333E+05-5.12295E+04-1.73155E+02-1.26359E+05-3.92447E-09-1.67288E-08
 -1       815-3.07837E+05-5.27101E+04-2.79114E+02-1.28057E+05 8.91760E-10 4.52246E-09
 -1       816-3.09312E+05-5.12286E+04-5.29098E+02-1.26355E+05 6.57110E-09 8.81664E-09
 -1       817-3.07927E+05-5.27606E+04-1.13554E+03-1.28045E+05-1.18234E-08-1.26397E-08
 -1       818-3.09243E+05-5.13889E+04-2.31612E+03-1.26279E+05-6.74208E-09-1.53545E-08
 -1       819-3.09195E+05-5.41598E+04-5.44965E+03-1.27745E+05 3.92447E-10-3.05386E-09
 -1       820-3.08806E+05-5.55057E+04-1.10920E+04-1.24521E+05 2.06910E-09 9.70272E-09
 -1       821-3.78766E+05 2.08593E+04-4.85512E+04 2.10689E+03 1.38179E-08 7.27596E-10
 -1       822-3.98483E+05-2.41641E+04-3.41249E+04-4.43077E+03 4.74819E-09-4.58385E-10
 -1       823-3.86237E+05 3.28797E+03-1.25409E+04 3.40399E+03-1.30352E-08 1.22609E-08
 -1       824-3.89468E+05-3.79185E+03-7.85044E+03-5.33111E+03 1.88526E-09-1.86358E-08
 -1       825-3.87787E+05 5.11055E+02-3.28666E+03 3.00735E+03 2.01378E-08-9.45840E-09
 -1       826-3.87050E+05-5.67652E+02-1.74628E+03-3.07392E+03 2.53734E-08 7.11788E-09
 -1       827-3.88630E+05 4.75088E+01-1.18671E+03 1.14665E+03 1.31342E-08-2.95634E-09
 -1       828-3.86354E+05-1.32768E+02-5.90708E+02 1.08484E+03-4.37959E-09-2.10807E-09
 -1       829-3.88471E+05 6.63006E+01-1.17600E+03-1.15144E+03 3.84711E-09 2.03980E-08
 -1       830-3.87396E+05-6.21713E+02-1.88361E+03 4.84076E+03 2.93451E-09-5.63981E-09
 -1       831-3.87610E+05 5.53805E+02-3.36883E+03-2.60928E+03-5.02953E-09 3.20460E-09
 -1       832-3.89549E+05-3.95784E+03-8.15303E+03 6.10971E+03-2.46936E-09 1.16298E-08
 -1       833-3.86334E+05 3.41178E+03-1.30442E+04-2.42043E+03-1.30065E-09-1.86537E-09
 -1       834-3.98547E+05-2.50771E+04-3.53481E+04 4.15382E+03-2.09832E-09-2.23276E-08
 -1       835-3.78595E+05 2.16404E+04-5.04203E+04-6.53320E+02 5.30360E-09-3.92902E-09
 -1       836-1.41173E+03 3.69833E+05 2.28795E+04-1.62323E+04-6.96582E-09 1.36970E-08
 -1       837 4.87831E+03 3.76998E+05 1.93592E+04-3.31601E+04-7.60127E-09 1.82602E-08
 -1       838-5.56943E+02 3.71842E+05 1.97230E+04-1.61606E+04-6.22686E-09 1.41804E-08
 -1       839 1.24127E+04 3.82609E+05 3.73083E+04-3.32124E+04-6.78892E-09 4.55520E-09
 -1       840-3.83693E+03 3.64162E+05 5.94923E+04-1.61857E+04-6.11180E-09-7.20546E-09
 -1       856-5.27568E+04 8.04029E+03-2.11879E+04-3.98542E+02 6.02927E-09 8.28459E-09
 -1       857-6.14861E+04-9.44682E+03-1.45856E+04 5.63513E+03 2.73508E-09 3.26258E-09
 -1       858-5.62137E+04 1.12755E+03-5.49777E+03-4.22739E+02 4.98267E-09 9.20181E-09
 -1       859-5.75189E+04-1.32628E+03-3.31767E+03 5.67117E+03-6.69367E-09 4.15980E-09
 -1       860-5.67302E+04 1.57895E+02-1.39048E+03-4.34315E+02 3.28640E-10-1.09345E-08
 -1       861-5.69249E+04-1.88258E+02-7.65012E+02 5.68694E+03-2.67175E-09 2.93900E-09
 -1       862-5.68109E+04 2.13806E+01-3.18171E+02-4.38488E+02-3.32973E-09-5.22869E-09
 -1       863-5.68259E+04-2.16989E+01-1.16278E+02 5.68936E+03-3.36632E-09-6.71278E-09
 -1       864-5.68297E+04-4.87479E+00 4.64447E+01-4.36731E+02-3.26520E-09-4.53593E-09
 -1       865-5.67702E+04 5.95526E+01 2.53855E+02 5.67935E+03-7.07701E-11-9.61470E-09
 -1       866-5.68644E+04-5.98979E+01 5.12023E+02-4.28475E+02-1.92415E-10-9.03324E-09
 -1       867-5.65293E+04 4.94670E+02 1.26059E+03 5.65693E+03-1.26121E-09 1.09288E-08
 -1       868-5.70657E+04-4.32160E+02 2.09477E+03-4.14314E+02-6.53756E-10 8.88508E-09
 -1       869-5.49934E+04 3.59664E+03 5.57781E+03 5.62003E+03 6.72196E-09-5.97743E-09
 -1       870-5.83925E+04-3.07766E+03 8.09461E+03-3.91477E+02-1.68143E-10-3.00315E-09
 -1       871-5.51898E+03-2.12252E+04-1.94690E+04 1.30260E+05-5.46424E-09-1.41881E-09
 -1       872-1.98831E+03-2.57504E+04-8.15015E+03 1.68901E+05-1.11968E-08-1.16361E-08
 -1       873 3.98541E+02-2.35629E+04 5.94084E+02 1.29974E+05-5.31054E-09-3.38935E-09
 -1       874 3.29700E+03-2.11504E+04 9.78005E+03 1.68931E+05-1.24082E-08 4.26780E-09
 -1       875 6.83896E+03-2.58926E+04 2.20591E+04 1.30212E+05-6.06633E-09-2.44654E-08
 -1       876 2.93647E+05 4.95014E+04 1.50985E+04 1.17853E+05 9.41714E-09 2.74176E-08
 -1       877 2.94644E+05 5.26825E+04 8.06321E+03 1.22185E+05 1.03701E-08 5.81144E-09
 -1       878 2.95059E+05 4.78289E+04 3.37808E+03 1.19090E+05-7.97900E-09 1.43420E-08
 -1       879 2.92592E+05 5.06342E+04 1.68317E+03 1.22287E+05 1.48839E-09 3.62303E-08
 -1       880 2.95160E+05 4.78117E+04 7.83998E+02 1.19140E+05-3.12411E-10-1.02580E-09
 -1       881 2.92455E+05 5.05466E+04 4.18682E+02 1.22264E+05-1.04816E-08-2.83046E-09
 -1       882 2.95169E+05 4.78249E+04 2.67870E+02 1.19142E+05-5.10090E-09-2.82122E-09
 -1       883 2.92446E+05 5.05421E+04 2.88011E+02 1.22256E+05-2.97996E-09-7.54028E-11
 -1       884 2.95163E+05 4.78221E+04 4.58191E+02 1.19142E+05 2.85218E-09-7.93193E-09
 -1       885 2.92482E+05 5.05484E+04 9.21237E+02 1.22267E+05-4.73790E-09 3.24769E-09
 -1       886 2.95127E+05 4.77953E+04 1.85672E+03 1.19138E+05-2.07641E-09 1.21456E-08
 -1       887 2.92809E+05 5.07624E+04 4.05575E+03 1.22314E+05 5.37688E-09-1.34798E-09
 -1       888 2.94871E+05 4.78404E+04 8.17246E+03 1.19009E+05-2.88514E-09-2.18829E-08
 -1       889 2.97674E+05 5.58220E+04 1.95225E+04 1.22165E+05 6.13874E-09-2.60379E-08
 -1       890 2.91535E+05 5.18026E+04 3.65651E+04 1.15898E+05 4.21096E-09-1.26329E-08
 -1       891-9.04392E+01-1.62742E+05-1.99564E+03 2.71819E+04-3.24326E-09-2.49975E-09
 -1       892-1.77018E+02-1.63269E+05-2.14346E+03 4.12752E+04 6.82348E-10-1.56531E-08
 -1       893 4.25238E+01-1.62806E+05-3.03500E+03 2.71893E+04-1.73077E-09 1.31831E-08
 -1       894-1.51141E+03-1.64415E+05-6.28138E+03 4.11225E+04 5.31509E-09-1.99634E-09
 -1       895-1.20016E+03-1.61498E+05-1.10615E+04 2.73363E+04-3.37423E-10 1.24219E-08
 -1       956-3.76993E+05-5.44473E+03-1.34450E+04 3.07738E+04 6.92216E-09 9.13337E-09
 -1       957-3.79631E+05-1.91926E+03-6.90110E+03 3.69831E+04 2.23918E-09 1.43955E-08
 -1       958-3.78201E+05-2.39052E+02-3.10985E+03 3.06062E+04-3.58250E-09-2.88401E-09
 -1       959-3.78398E+05-1.34127E+02-1.58794E+03 3.71783E+04 1.60753E-09 5.05861E-09
 -1       960-3.78319E+05-4.31085E+01-7.74357E+02 3.05890E+04 7.02585E-09 7.38783E-09
 -1       961-3.78317E+05-6.11770E+01-4.10558E+02 3.71987E+04 1.31693E-08 1.86476E-08
 -1       962-3.78346E+05-4.43597E+01-2.35056E+02 3.05861E+04 4.20914E-09 1.28289E-08
 -1       963-3.78318E+05-5.70001E+01-1.88696E+02 3.72024E+04 4.12376E-09 1.40544E-08
 -1       964-3.78352E+05-4.10049E+01-2.29472E+02 3.05853E+04 3.85199E-10 3.33773E-08
 -1       965-3.78330E+05-5.40247E+01-3.96895E+02 3.72017E+04-6.48623E-09 3.45563E-09
 -1       966-3.78336E+05-3.31385E+01-7.45752E+02 3.05868E+04-3.57932E-09-2.65686E-09
 -1       967-3.78419E+05-1.17488E+02-1.52952E+03 3.71874E+04-7.85985E-09-9.02833E-09
 -1       968-3.78232E+05-2.15471E+02-2.99426E+03 3.05995E+04-2.75531E-09 5.62432E-09
 -1       969-3.79619E+05-1.83133E+03-6.64718E+03 3.70394E+04-3.39423E-09-2.95677E-09
 -1       970-3.77076E+05-5.22563E+03-1.29491E+04 3.07264E+04-2.89856E-09 8.92123E-09
 -1       971-3.45297E+05-1.72790E+03-9.31618E+03 1.53864E+04 7.03858E-09-2.47612E-08
 -1       972-3.47539E+05-1.27159E+03-5.07349E+03 2.12828E+04 9.20954E-09 9.80071E-09
 -1       973-3.46335E+05-6.13342E+01-2.27247E+03 1.52651E+04 3.29965E-09 6.20025E-09
 -1       974-3.46470E+05-8.00750E+01-1.17796E+03 2.14200E+04 1.67893E-09-7.13135E-09
 -1       975-3.46417E+05-1.64151E+01-5.89268E+02 1.52528E+04 1.16961E-09-1.45038E-08
 -1       976-3.46409E+05-3.01842E+01-3.40771E+02 2.14358E+04 1.42336E-09-2.95023E-08
 -1       977-3.46433E+05-1.56610E+01-2.48773E+02 1.52494E+04-3.41515E-10-2.42843E-08
 -1       978-3.46414E+05-2.39489E+01-2.93086E+02 2.14407E+04 2.18461E-09 7.47150E-10
 -1       979-3.46433E+05-7.18040E+00-4.72593E+02 1.52479E+04-7.25890E-11-7.71274E-09
 -1       980-3.46449E+05-2.08855E+01-9.13580E+02 2.14417E+04-1.75646E-11-2.07365E-09
 -1       981-3.46404E+05 1.56531E+01-1.76995E+03 1.52484E+04 1.69405E-09 1.70030E-09
 -1       982-3.46692E+05-1.51671E+02-3.65876E+03 2.14350E+04 7.25765E-09-9.61199E-09
 -1       983-3.46181E+05-9.76900E+01-7.10917E+03 1.52545E+04 4.86125E-09-4.11683E-09
 -1       984-3.50112E+05-3.86459E+03-1.59208E+04 2.13493E+04 8.41464E-09-2.03981E-08
 -1       985-3.42962E+05-5.29975E+03-2.92354E+04 1.53262E+04-2.33013E-09-5.72436E-09
 -3
    1PSTEP                        41          21           1          
  100CL  121 6.63118E-01         409                     0   21           1
 -4  DISP        4    1
 -5  D1          1    2    1    0
 -5  D2          1    2    2    0
 -5  D3          1    2    3    0
 -5  ALL         1    2    0    0    1ALL
 -1         1 2.70740E-03 0.00000E+00 0.00000E+00
 -1         2 1.37945E-03-9.66586E-30-5.29396E-23
 -1         3 3.43343E-04-6.06124E-28 0.00000E+00
 -1         5 1.78958E-04-1.47453E-27 0.00000E+00
 -1         8 2.69619E-03-4.12345E-07 0.00000E+00
 -1         9 2.68956E-03-1.80738E-04 0.00000E+00
 -1        10 3.11566E-04-3.41806E-06 0.00000E+00
 -1        12 1.80775E-04 8.08418E-07-8.27181E-25
 -1        15 2.68330E-03-4.37145E-07 0.00000E+00
 -1        16 2.75186E-03-1.82503E-04 0.00000E+00
 -1        17 2.12886E-04-7.78411E-06 0.00000E+00
 -1        18 1.84633E-04 3.40227E-05 0.00000E+00
 -1        19 1.86225E-04 1.61049E-06 0.00000E+00
 -1        20 1.86365E-04-9.51334E-06 0.00000E+00
 -1        21 1.85475E-04-2.46479E-05 0.00000E+00
 -1        24 3.06827E-05-1.20922E-05 0.00000E+00
 -1        25 1.95267E-04 3.42480E-05 0.00000E+00
 -1        26 1.95952E-04 2.23022E-06 0.00000E+00
 -1        27 1.93754E-04-1.30693E-05 0.00000E+00
 -1        28 1.93435E-04-2.52699E-05 0.00000E+00
 -1        32 0.00000E+00 0.00000E+00 0.00000E+00
 -1        33 2.04670E-04 2.98353E-06 0.00000E+00
 -1        34 2.02553E-04-1.31251E-05 0.00000E+00
 -1        35 2.00622E-04-2.56122E-05 0.00000E+00
 -1        51 2.70665E-03-8.59401E-08-3.30872E-24
 -1        52 2.70527E-03-1.53609E-07 0.00000E+00
 -1        53 2.70341E-03-2.17861E-07 0.00000E+00
 -1        54 2.70118E-03-2.80932E-07 1.65436E-24
 -1        55 2.69873E-03-3.44578E-07 2.48154E-24
 -1        56 2.70019E-03 7.30650E-06 5.29396E-23
 -1        57 2.68653E-03 3.05890E-05-5.29396E-23
 -1        58 2.66845E-03 6.47703E-05-1.05879E-22
 -1        59 2.64834E-03 1.03722E-04 5.29396E-23
 -1        60 2.62914E-03 1.40501E-04 0.00000E+00
 -1        61 2.61363E-03 1.68340E-04 0.00000E+00
 -1        62 2.60373E-03 1.82068E-04 0.00000E+00
 -1        63 2.60071E-03 1.77775E-04 0.00000E+00
 -1        64 2.60444E-03 1.54846E-04-1.05879E-22
 -1        65 2.61416E-03 1.14418E-04 0.00000E+00
 -1        66 2.62816E-03 6.09270E-05 0.00000E+00
 -1        67 2.64450E-03 7.78302E-08 5.29396E-23
 -1        68 2.66091E-03-6.10096E-05 1.05879E-22
 -1        69 2.67516E-03-1.15185E-04 0.00000E+00
 -1        70 2.68525E-03-1.56634E-04 1.05879E-22
 -1        86 1.46180E-03-5.77465E-06-5.29396E-23
 -1        87 1.70037E-03-3.60348E-05 0.00000E+00
 -1        88 2.02111E-03-8.79451E-05 0.00000E+00
 -1        89 2.34601E-03-1.41227E-04 0.00000E+00
 -1        90 2.59464E-03-1.73824E-04 5.29396E-23
 -1       121 3.42450E-04-5.52133E-07 1.32349E-23
 -1       122 3.39777E-04-1.10732E-06 6.61744E-24
 -1       123 3.35332E-04-1.66857E-06-1.32349E-23
 -1       124 3.29132E-04-2.23889E-06 0.00000E+00
 -1       125 3.21200E-04-2.82089E-06 0.00000E+00
 -1       191 1.79009E-04 1.34798E-07 0.00000E+00
 -1       192 1.79160E-04 2.69585E-07 4.13590E-25
 -1       193 1.79412E-04 4.04353E-07 2.48154E-24
 -1       194 1.79765E-04 5.39089E-07 4.13590E-25
 -1       195 1.80220E-04 6.73781E-07-2.48154E-24
 -1       251 2.69588E-03 1.79841E-06-6.61744E-24
 -1       252 2.69556E-03 4.04356E-06-3.30872E-24
 -1       253 2.69525E-03 5.32712E-06 0.00000E+00
 -1       254 2.69493E-03 4.66533E-06 0.00000E+00
 -1       255 2.69462E-03 1.37714E-06 0.00000E+00
 -1       256 2.69428E-03-5.18475E-06-6.61744E-24
 -1       257 2.69392E-03-1.51586E-05 0.00000E+00
 -1       258 2.69352E-03-2.86389E-05 0.00000E+00
 -1       259 2.69307E-03-4.51753E-05-1.32349E-23
 -1       260 2.69258E-03-6.42778E-05 0.00000E+00
 -1       261 2.69206E-03-8.50575E-05 0.00000E+00
 -1       262 2.69152E-03-1.06604E-04 0.00000E+00
 -1       263 2.69099E-03-1.27889E-04 0.00000E+00
 -1       264 2.69048E-03-1.47885E-04 0.00000E+00
 -1       265 2.69001E-03-1.65767E-04 1.32349E-23
 -1       266 2.69404E-03-4.22231E-07 0.00000E+00
 -1       267 2.69189E-03-4.25664E-07 0.00000E+00
 -1       268 2.68974E-03-4.29504E-07-8.27181E-25
 -1       269 2.68760E-03-4.32134E-07 0.00000E+00
 -1       270 2.68545E-03-4.34736E-07 0.00000E+00
 -1       271 2.69526E-03 2.25702E-07 0.00000E+00
 -1       272 2.69525E-03-1.61222E-06 0.00000E+00
 -1       273 2.69610E-03-5.78384E-06-1.32349E-23
 -1       274 2.69776E-03-1.21357E-05 0.00000E+00
 -1       275 2.70015E-03-2.04940E-05 2.64698E-23
 -1       276 2.70320E-03-3.06703E-05 0.00000E+00
 -1       277 2.70685E-03-4.24604E-05 0.00000E+00
 -1       278 2.71099E-03-5.56473E-05 0.00000E+00
 -1       279 2.71556E-03-7.00028E-05-2.64698E-23
 -1       280 2.72046E-03-8.52886E-05-1.32349E-23
 -1       281 2.72561E-03-1.01259E-04 0.00000E+00
 -1       282 2.73092E-03-1.17663E-04 0.00000E+00
 -1       283 2.73628E-03-1.34245E-04 0.00000E+00
 -1       284 2.74162E-03-1.50750E-04-6.61744E-24
 -1       285 2.74684E-03-1.66920E-04 1.32349E-23
 -1       301 2.70088E-03-1.81065E-04 6.61744E-24
 -1       302 2.71060E-03-1.81347E-04 3.30872E-24
 -1       303 2.71964E-03-1.81620E-04 1.32349E-23
 -1       304 2.72891E-03-1.81894E-04 0.00000E+00
 -1       305 2.73934E-03-1.82180E-04 0.00000E+00
 -1       306 2.72732E-03-3.34687E-04 0.00000E+00
 -1       307 2.79121E-03-7.48030E-04 5.29396E-23
 -1       308 2.83800E-03-1.35274E-03-1.05879E-22
 -1       309 2.86194E-03-2.05297E-03 0.00000E+00
 -1       310 2.89324E-03-2.72305E-03 1.05879E-22
 -1       311 2.95266E-03-3.24000E-03-5.29396E-23
 -1       312 3.01061E-03-3.52316E-03 1.05879E-22
 -1       313 3.00640E-03-3.53450E-03 0.00000E+00
 -1       314 2.86629E-03-3.28590E-03 1.05879E-22
 -1       315 2.54930E-03-2.84165E-03 0.00000E+00
 -1       316 2.07362E-03-2.27831E-03 0.00000E+00
 -1       317 1.50498E-03-1.66525E-03 5.29396E-23
 -1       318 9.57484E-04-1.06318E-03 1.05879E-22
 -1       319 5.39017E-04-5.37153E-04-5.29396E-23
 -1       320 2.93359E-04-1.61230E-04 0.00000E+00
 -1       336 3.00044E-04-4.07808E-06-1.32349E-23
 -1       337 2.86460E-04-4.76350E-06 0.00000E+00
 -1       338 2.70874E-04-5.47649E-06 1.32349E-23
 -1       339 2.53360E-04-6.21783E-06 6.61744E-24
 -1       340 2.34000E-04-6.99196E-06 0.00000E+00
 -1       406 1.81431E-04 9.42979E-07-8.27181E-25
 -1       407 1.82188E-04 1.07743E-06 4.13590E-25
 -1       408 1.83046E-04 1.21172E-06 4.13590E-25
 -1       409 1.84005E-04 1.34567E-06-1.55096E-24
 -1       410 1.85065E-04 1.47901E-06-1.24077E-24
 -1       521 2.79023E-03-3.45758E-04-1.05879E-22
 -1       522 2.85236E-03-7.79326E-04-5.29396E-23
 -1       523 2.89273E-03-1.41178E-03 1.05879E-22
 -1       524 2.90747E-03-2.14056E-03-5.29396E-23
 -1       525 2.93087E-03-2.83721E-03-1.05879E-22
 -1       526 2.98673E-03-3.37621E-03 0.00000E+00
 -1       527 3.04426E-03-3.67007E-03 0.00000E+00
 -1       528 3.03783E-03-3.67981E-03-5.29396E-23
 -1       529 2.88587E-03-3.41725E-03 0.00000E+00
 -1       530 2.54514E-03-2.95457E-03 0.00000E+00
 -1       531 2.03459E-03-2.37210E-03 0.00000E+00
 -1       532 1.42628E-03-1.74182E-03 0.00000E+00
 -1       533 8.39689E-04-1.12184E-03-1.05879E-22
 -1       534 3.87832E-04-5.74863E-04 0.00000E+00
 -1       535 1.20805E-04-1.79233E-04-2.11758E-22
 -1       536 2.12139E-04 2.69310E-05 0.00000E+00
 -1       537 2.10241E-04 8.70158E-05-1.65436E-24
 -1       538 2.07311E-04 1.63255E-04 0.00000E+00
 -1       539 2.03854E-04 2.46350E-04 0.00000E+00
 -1       540 2.00744E-04 3.24866E-04-3.30872E-24
 -1       541 1.98722E-04 3.87393E-04 0.00000E+00
 -1       542 1.97788E-04 4.27214E-04 0.00000E+00
 -1       543 1.97564E-04 4.37758E-04 0.00000E+00
 -1       544 1.97244E-04 4.19798E-04 0.00000E+00
 -1       545 1.96083E-04 3.74324E-04 0.00000E+00
 -1       546 1.93920E-04 3.09420E-04 3.30872E-24
 -1       547 1.90994E-04 2.33291E-04 0.00000E+00
 -1       548 1.88096E-04 1.57541E-04 0.00000E+00
 -1       549 1.86004E-04 9.37767E-05 1.65436E-24
 -1       550 1.84917E-04 4.99839E-05 1.65436E-24
 -1       551 1.87691E-04-8.36084E-06 0.00000E+00
 -1       552 1.59079E-04-9.02247E-06 0.00000E+00
 -1       553 1.28052E-04-9.74975E-06 9.92617E-24
 -1       554 9.56317E-05-1.05201E-05 0.00000E+00
 -1       555 6.28369E-05-1.13038E-05 0.00000E+00
 -1       556 2.05287E-04 1.16499E-05 5.29396E-23
 -1       557 1.99148E-04 2.74075E-05 0.00000E+00
 -1       558 1.94337E-04 3.97754E-05 0.00000E+00
 -1       559 1.90721E-04 4.90628E-05 0.00000E+00
 -1       560 1.88171E-04 5.55792E-05 0.00000E+00
 -1       561 1.86559E-04 5.96366E-05 0.00000E+00
 -1       562 1.85761E-04 6.15483E-05 0.00000E+00
 -1       563 1.85653E-04 6.16286E-05 0.00000E+00
 -1       564 1.86114E-04 6.01926E-05 0.00000E+00
 -1       565 1.87023E-04 5.75559E-05 0.00000E+00
 -1       566 1.88262E-04 5.40349E-05 0.00000E+00
 -1       567 1.89711E-04 4.99462E-05 6.61744E-24
 -1       568 1.91254E-04 4.56068E-05 0.00000E+00
 -1       569 1.92772E-04 4.13335E-05 0.00000E+00
 -1       570 1.94149E-04 3.74431E-05 0.00000E+00
 -1       571 1.84730E-04 3.19201E-05 2.48154E-24
 -1       572 1.84828E-04 2.97519E-05 1.65436E-24
 -1       573 1.84927E-04 2.75337E-05 1.65436E-24
 -1       574 1.85026E-04 2.52818E-05-1.65436E-24
 -1       575 1.85126E-04 2.30127E-05 3.30872E-24
 -1       576 1.85225E-04 2.07426E-05 0.00000E+00
 -1       577 1.85325E-04 1.84882E-05 0.00000E+00
 -1       578 1.85424E-04 1.62658E-05 0.00000E+00
 -1       579 1.85524E-04 1.40919E-05 0.00000E+00
 -1       580 1.85623E-04 1.19829E-05 0.00000E+00
 -1       581 1.85723E-04 9.95543E-06 0.00000E+00
 -1       582 1.85823E-04 8.02576E-06 0.00000E+00
 -1       583 1.85924E-04 6.21037E-06 0.00000E+00
 -1       584 1.86024E-04 4.52553E-06 0.00000E+00
 -1       585 1.86125E-04 2.98732E-06 6.61744E-24
 -1       586 1.86364E-04 3.40624E-05 0.00000E+00
 -1       587 1.88054E-04 3.41015E-05 8.27181E-25
 -1       588 1.89746E-04 3.41402E-05-8.27181E-25
 -1       589 1.91484E-04 3.41783E-05 0.00000E+00
 -1       590 1.93310E-04 3.42151E-05 0.00000E+00
 -1       591 1.85353E-04 3.20133E-05-2.06795E-25
 -1       592 1.86077E-04 2.99837E-05 2.06795E-25
 -1       593 1.86805E-04 2.79400E-05-8.27181E-25
 -1       594 1.87536E-04 2.58867E-05 0.00000E+00
 -1       595 1.88269E-04 2.38288E-05 8.27181E-25
 -1       596 1.89002E-04 2.17708E-05 0.00000E+00
 -1       597 1.89734E-04 1.97176E-05-8.27181E-25
 -1       598 1.90461E-04 1.76738E-05 0.00000E+00
 -1       599 1.91184E-04 1.56441E-05 8.27181E-25
 -1       600 1.91899E-04 1.36334E-05-4.13590E-25
 -1       601 1.92606E-04 1.16462E-05-8.27181E-25
 -1       602 1.93302E-04 9.68725E-06-2.06795E-25
 -1       603 1.93986E-04 7.76133E-06 0.00000E+00
 -1       604 1.94656E-04 5.87323E-06 2.58494E-26
 -1       605 1.95311E-04 4.02757E-06 0.00000E+00
 -1       606 1.86238E-04 4.66612E-07 0.00000E+00
 -1       607 1.86248E-04-5.91055E-07 0.00000E+00
 -1       608 1.86257E-04-1.56757E-06 0.00000E+00
 -1       609 1.86265E-04-2.46863E-06-1.65436E-24
 -1       610 1.86274E-04-3.30001E-06 0.00000E+00
 -1       611 1.86282E-04-4.06752E-06 0.00000E+00
 -1       612 1.86290E-04-4.77698E-06 0.00000E+00
 -1       613 1.86299E-04-5.43425E-06 0.00000E+00
 -1       614 1.86307E-04-6.04515E-06 0.00000E+00
 -1       615 1.86316E-04-6.61551E-06 0.00000E+00
 -1       616 1.86324E-04-7.15118E-06 0.00000E+00
 -1       617 1.86332E-04-7.65799E-06 4.13590E-25
 -1       618 1.86341E-04-8.14177E-06 0.00000E+00
 -1       619 1.86349E-04-8.60837E-06 0.00000E+00
 -1       620 1.86357E-04-9.06362E-06 2.06795E-25
 -1       621 1.87562E-04 1.71434E-06-1.65436E-24
 -1       622 1.89058E-04 1.81844E-06 8.27181E-25
 -1       623 1.90677E-04 1.92232E-06 0.00000E+00
 -1       624 1.92389E-04 2.02588E-06 1.65436E-24
 -1       625 1.94158E-04 2.12915E-06 0.00000E+00
 -1       626 1.86766E-04 5.02686E-07-3.30872E-24
 -1       627 1.87284E-04-5.41685E-07 3.30872E-24
 -1       628 1.87781E-04-1.53049E-06 0.00000E+00
 -1       629 1.88261E-04-2.47192E-06 0.00000E+00
 -1       630 1.88727E-04-3.37419E-06 3.30872E-24
 -1       631 1.89180E-04-4.24553E-06 1.65436E-24
 -1       632 1.89626E-04-5.09416E-06 0.00000E+00
 -1       633 1.90065E-04-5.92834E-06 0.00000E+00
 -1       634 1.90503E-04-6.75628E-06 3.30872E-24
 -1       635 1.90941E-04-7.58621E-06-1.65436E-24
 -1       636 1.91383E-04-8.42639E-06 0.00000E+00
 -1       637 1.91832E-04-9.28503E-06 1.65436E-24
 -1       638 1.92291E-04-1.01704E-05 0.00000E+00
 -1       639 1.92763E-04-1.10907E-05 8.27181E-25
 -1       640 1.93250E-04-1.20542E-05-1.65436E-24
 -1       656 1.87048E-04-1.00913E-05 0.00000E+00
 -1       657 1.88151E-04-1.06928E-05 6.61744E-24
 -1       658 1.89535E-04-1.12928E-05 0.00000E+00
 -1       659 1.91053E-04-1.18926E-05 6.61744E-24
 -1       660 1.92520E-04-1.24941E-05 0.00000E+00
 -1       661 1.86621E-04-1.00081E-05-8.27181E-25
 -1       662 1.86914E-04-1.05945E-05 0.00000E+00
 -1       663 1.87240E-04-1.12674E-05-1.65436E-24
 -1       664 1.87595E-04-1.20203E-05 0.00000E+00
 -1       665 1.87979E-04-1.28474E-05-1.65436E-24
 -1       666 1.88389E-04-1.37428E-05-8.27181E-25
 -1       667 1.88821E-04-1.47008E-05 0.00000E+00
 -1       668 1.89276E-04-1.57160E-05 0.00000E+00
 -1       669 1.89749E-04-1.67829E-05 0.00000E+00
 -1       670 1.90240E-04-1.78962E-05 0.00000E+00
 -1       671 1.90746E-04-1.90508E-05 0.00000E+00
 -1       672 1.91266E-04-2.02416E-05 8.27181E-25
 -1       673 1.91797E-04-2.14636E-05 1.65436E-24
 -1       674 1.92337E-04-2.27121E-05 0.00000E+00
 -1       675 1.92886E-04-2.39818E-05 2.06795E-25
 -1       676 1.86806E-04-2.47521E-05 3.30872E-24
 -1       677 1.88137E-04-2.48564E-05 1.65436E-24
 -1       678 1.89466E-04-2.49606E-05-3.30872E-24
 -1       679 1.90792E-04-2.50644E-05 1.65436E-24
 -1       680 1.92116E-04-2.51683E-05 0.00000E+00
 -1       771 1.86637E-05 1.47971E-05 0.00000E+00
 -1       772 8.55418E-06 3.68821E-05 0.00000E+00
 -1       773 2.62143E-07 5.43942E-05 0.00000E+00
 -1       774-6.33762E-06 6.75929E-05 0.00000E+00
 -1       775-1.13676E-05 7.67479E-05 0.00000E+00
 -1       776-1.49554E-05 8.21461E-05 0.00000E+00
 -1       777-1.72280E-05 8.40845E-05 0.00000E+00
 -1       778-1.83154E-05 8.28740E-05 0.00000E+00
 -1       779-1.83465E-05 7.88341E-05 0.00000E+00
 -1       780-1.74526E-05 7.22957E-05 2.64698E-23
 -1       781-1.57638E-05 6.35968E-05 5.29396E-23
 -1       782-1.34119E-05 5.30840E-05 0.00000E+00
 -1       783-1.05277E-05 4.11088E-05 0.00000E+00
 -1       784-7.24332E-06 2.80288E-05 0.00000E+00
 -1       785-3.68981E-06 1.42048E-05 0.00000E+00
 -1       786 1.95306E-04 3.20197E-05 0.00000E+00
 -1       787 1.95348E-04 2.98413E-05 0.00000E+00
 -1       788 1.95390E-04 2.77046E-05 8.27181E-25
 -1       789 1.95433E-04 2.56014E-05 0.00000E+00
 -1       790 1.95475E-04 2.35270E-05 0.00000E+00
 -1       791 1.95518E-04 2.14765E-05 8.27181E-25
 -1       792 1.95561E-04 1.94479E-05-1.65436E-24
 -1       793 1.95605E-04 1.74389E-05 0.00000E+00
 -1       794 1.95648E-04 1.54494E-05 0.00000E+00
 -1       795 1.95691E-04 1.34791E-05-8.27181E-25
 -1       796 1.95734E-04 1.15301E-05 0.00000E+00
 -1       797 1.95778E-04 9.60412E-06 8.27181E-25
 -1       798 1.95821E-04 7.70551E-06-1.65436E-24
 -1       799 1.95865E-04 5.83860E-06 0.00000E+00
 -1       800 1.95908E-04 4.01094E-06 0.00000E+00
 -1       801 1.49734E-04 3.07816E-05-2.64698E-23
 -1       802 1.20301E-05 1.91874E-05 0.00000E+00
 -1       803-1.05959E-04 9.63573E-06 0.00000E+00
 -1       804-9.46867E-05 6.69755E-06 2.64698E-23
 -1       805-3.14486E-05 2.65201E-06 0.00000E+00
 -1       806 1.95988E-04 3.19509E-05 1.65436E-24
 -1       807 1.96694E-04 2.96800E-05 1.65436E-24
 -1       808 1.97388E-04 2.74405E-05 0.00000E+00
 -1       809 1.98069E-04 2.52363E-05 0.00000E+00
 -1       810 1.98734E-04 2.30716E-05 0.00000E+00
 -1       811 1.99384E-04 2.09502E-05-1.65436E-24
 -1       812 2.00016E-04 1.88762E-05 3.30872E-24
 -1       813 2.00628E-04 1.68534E-05 0.00000E+00
 -1       814 2.01220E-04 1.48858E-05 0.00000E+00
 -1       815 2.01790E-04 1.29772E-05-8.27181E-25
 -1       816 2.02337E-04 1.11316E-05-3.30872E-24
 -1       817 2.02858E-04 9.35280E-06-8.27181E-25
 -1       818 2.03354E-04 7.64476E-06 1.65436E-24
 -1       819 2.03821E-04 6.01132E-06 8.27181E-25
 -1       820 2.04260E-04 4.45632E-06 3.30872E-24
 -1       821 1.95823E-04-1.01646E-07 1.65436E-24
 -1       822 1.95683E-04-3.57733E-06 1.65436E-24
 -1       823 1.95541E-04-7.77201E-06-3.30872E-24
 -1       824 1.95396E-04-1.22563E-05 0.00000E+00
 -1       825 1.95252E-04-1.65227E-05 0.00000E+00
 -1       826 1.95111E-04-2.00648E-05 0.00000E+00
 -1       827 1.94972E-04-2.25735E-05 0.00000E+00
 -1       828 1.94836E-04-2.37459E-05 0.00000E+00
 -1       829 1.94700E-04-2.36429E-05 0.00000E+00
 -1       830 1.94564E-04-2.23328E-05 0.00000E+00
 -1       831 1.94426E-04-2.02128E-05 0.00000E+00
 -1       832 1.94288E-04-1.76845E-05-1.65436E-24
 -1       833 1.94150E-04-1.52613E-05 0.00000E+00
 -1       834 1.94015E-04-1.34554E-05-1.65436E-24
 -1       835 1.93880E-04-1.26117E-05 0.00000E+00
 -1       836 1.97618E-04 2.35515E-06 3.30872E-24
 -1       837 1.99156E-04 2.48322E-06 1.65436E-24
 -1       838 2.00598E-04 2.61122E-06 0.00000E+00
 -1       839 2.01977E-04 2.73852E-06 0.00000E+00
 -1       840 2.03323E-04 2.86566E-06 0.00000E+00
 -1       856 1.93738E-04-1.41068E-05 0.00000E+00
 -1       857 1.93718E-04-1.50086E-05 1.29247E-26
 -1       858 1.93699E-04-1.57957E-05 2.06795E-25
 -1       859 1.93679E-04-1.64892E-05 0.00000E+00
 -1       860 1.93659E-04-1.71105E-05 0.00000E+00
 -1       861 1.93639E-04-1.76808E-05 0.00000E+00
 -1       862 1.93619E-04-1.82215E-05-4.13590E-25
 -1       863 1.93599E-04-1.87539E-05 0.00000E+00
 -1       864 1.93579E-04-1.92992E-05 0.00000E+00
 -1       865 1.93559E-04-1.98790E-05 4.13590E-25
 -1       866 1.93539E-04-2.05145E-05-8.27181E-25
 -1       867 1.93519E-04-2.12270E-05 0.00000E+00
 -1       868 1.93499E-04-2.20377E-05 8.27181E-25
 -1       869 1.93478E-04-2.29677E-05-4.13590E-25
 -1       870 1.93458E-04-2.40381E-05 8.27181E-25
 -1       871 1.95079E-04-1.30742E-05 8.27181E-25
 -1       872 1.96551E-04-1.30824E-05 0.00000E+00
 -1       873 1.98103E-04-1.30914E-05 0.00000E+00
 -1       874 1.99666E-04-1.31011E-05-7.75482E-26
 -1       875 2.01172E-04-1.31114E-05-1.03398E-24
 -1       876 1.94270E-04-1.40923E-05 3.30872E-24
 -1       877 1.94764E-04-1.50484E-05 0.00000E+00
 -1       878 1.95236E-04-1.59457E-05 0.00000E+00
 -1       879 1.95690E-04-1.67916E-05 0.00000E+00
 -1       880 1.96127E-04-1.75934E-05 0.00000E+00
 -1       881 1.96550E-04-1.83585E-05-1.65436E-24
 -1       882 1.96962E-04-1.90943E-05-3.30872E-24
 -1       883 1.97366E-04-1.98082E-05 1.65436E-24
 -1       884 1.97765E-04-2.05074E-05 3.30872E-24
 -1       885 1.98161E-04-2.11994E-05 0.00000E+00
 -1       886 1.98557E-04-2.18913E-05-3.30872E-24
 -1       887 1.98955E-04-2.25907E-05 0.00000E+00
 -1       888 1.99359E-04-2.33049E-05 0.00000E+00
 -1       889 1.99770E-04-2.40413E-05 0.00000E+00
 -1       890 2.00192E-04-2.48073E-05 0.00000E+00
 -1       891 1.94776E-04-2.53274E-05 1.65436E-24
 -1       892 1.96092E-04-2.53851E-05 0.00000E+00
 -1       893 1.97360E-04-2.54426E-05 0.00000E+00
 -1       894 1.98554E-04-2.54999E-05 0.00000E+00
 -1       895 1.99650E-04-2.55570E-05-4.13590E-25
 -1       956 2.04540E-04 1.68515E-06 1.65436E-24
 -1       957 2.04407E-04 4.78168E-07-1.65436E-24
 -1       958 2.04275E-04-6.48129E-07 0.00000E+00
 -1       959 2.04142E-04-1.70505E-06 0.00000E+00
 -1       960 2.04009E-04-2.70396E-06 3.30872E-24
 -1       961 2.03877E-04-3.65625E-06 1.65436E-24
 -1       962 2.03744E-04-4.57331E-06 3.30872E-24
 -1       963 2.03611E-04-5.46658E-06-1.65436E-24
 -1       964 2.03479E-04-6.34747E-06-3.30872E-24
 -1       965 2.03346E-04-7.22738E-06 1.65436E-24
 -1       966 2.03213E-04-8.11777E-06 0.00000E+00
 -1       967 2.03081E-04-9.03002E-06 0.00000E+00
 -1       968 2.02948E-04-9.97556E-06 0.00000E+00
 -1       969 2.02816E-04-1.09658E-05 0.00000E+00
 -1       970 2.02683E-04-1.20120E-05 3.30872E-24
 -1       971 2.02433E-04-1.42375E-05 0.00000E+00
 -1       972 2.02312E-04-1.52553E-05 0.00000E+00
 -1       973 2.02191E-04-1.61888E-05-3.30872E-24
 -1       974 2.02069E-04-1.70490E-05-1.65436E-24
 -1       975 2.01948E-04-1.78466E-05-3.30872E-24
 -1       976 2.01827E-04-1.85926E-05 1.65436E-24
 -1       977 2.01705E-04-1.92979E-05 3.30872E-24
 -1       978 2.01584E-04-1.99733E-05-1.65436E-24
 -1       979 2.01463E-04-2.06298E-05-3.30872E-24
 -1       980 2.01341E-04-2.12783E-05-1.65436E-24
 -1       981 2.01220E-04-2.19297E-05 0.00000E+00
 -1       982 2.01099E-04-2.25949E-05 1.65436E-24
 -1       983 2.00978E-04-2.32849E-05 0.00000E+00
 -1       984 2.00857E-04-2.40106E-05 0.00000E+00
 -1       985 2.00737E-04-2.47828E-05 0.00000E+00
 -3
    1PSTEP                        42          21           1          
  100CL  121 6.63118E-01         409                     0   21           1
 -4  STRESS      6    1
 -5  SXX         1    4    1    1
 -5  SYY         1    4    2    2
 -5  SZZ         1    4    3    3
 -5  SXY         1    4    1    2
 -5  SYZ         1    4    2    3
 -5  SZX         1    4    3    1
 -1         1-5.31974E+06-1.63364E+06-1.13300E+06-1.41071E+06 1.00408E-09 1.47265E-07
 -1         2 1.36098E+06 2.00223E+07 4.71173E+06 6.02482E+06 2.23226E-08 7.10133E-08
 -1         3-1.47112E+03-1.56784E+06 4.06823E+02-2.21258E+03-7.07544E-10 1.64728E-08
 -1         5-7.28758E+01 3.85997E+05 9.97350E+00-1.31811E+00-4.25638E-10 2.02399E-08
 -1         8-5.74988E+05-2.05389E+05-6.51649E+04-2.50175E+05 1.69166E-10 5.68980E-08
 -1         9 1.16308E+07 3.49984E+06 2.70355E+06-4.13332E+05 1.46683E-08-2.52924E-07
 -1        10-2.29426E+03-1.63382E+06-3.95282E+03-1.49692E+04-1.37625E-08-4.34367E-08
 -1        12-6.89547E+01 3.86019E+05 3.27696E+02-8.99222E+00-7.30022E-10 2.09839E-08
 -1        15 9.53225E+02 5.23844E+02 3.08128E+03 8.85233E-01-5.37938E-10 1.14223E-07
 -1        16 2.28201E+07-3.12236E+05 3.11161E+06-2.22422E+06 7.99385E-09 2.09703E-07
 -1        17 8.34324E+06 6.24881E+06 2.25438E+06 5.97583E+06 4.80853E-08 4.05824E-08
 -1        18 1.40208E+05 3.29298E+04 3.67328E+03-1.19196E+05 1.70771E-08 1.02564E-08
 -1        19 1.22300E+05 1.41548E+05-9.42605E+02 2.19721E+04 1.60017E-09-7.89405E-09
 -1        20-8.16292E+04-5.73225E+05-1.28609E+05 2.52380E+04-2.37772E-09-7.22927E-09
 -1        21-4.56449E+01-2.96081E+05-9.24487E+02 2.70378E+02 1.09069E-08-1.03682E-08
 -1        24 1.39457E+07 1.20241E+07 3.86925E+06 1.11161E+07-1.33276E-07-5.53943E-08
 -1        25 1.23468E+05 2.62201E+05 9.86537E+04-6.35720E+05-2.79597E-09 2.44818E-09
 -1        26-5.52082E+04 9.22206E+04-2.45894E+04 1.18434E+03-7.38510E-11 3.68098E-09
 -1        27-7.56436E+04-3.09728E+05-1.13254E+05 6.89375E+04 3.98465E-09-3.22355E-09
 -1        28 2.22541E+04-8.53347E+04 1.69004E+04 2.06681E+04-5.61974E-09 6.41755E-10
 -1        32-1.68038E+06-3.18133E+06-1.97325E+05 4.36171E+05-4.26589E-08-5.56201E-09
 -1        33-1.78371E+05 9.29053E+04 3.23624E+04-3.85425E+04-3.20703E-09 1.04850E-08
 -1        34-2.23512E+05-2.49921E+04 6.88076E+02 7.55634E+04-4.36665E-09 1.68545E-08
 -1        35-2.29400E+04-3.38422E+04-1.34813E+03 5.15099E+04-6.46722E-09-1.69651E-09
 -1        51 6.02499E+04-1.74919E+05 1.27529E+05-4.50364E+05-1.01863E-10 2.56987E-07
 -1        52 2.04484E+04-1.52709E+05 6.69807E+04-5.25237E+05 2.90129E-10-5.31290E-08
 -1        53 4.23085E+03-1.68099E+05 3.49842E+04-4.48806E+05 3.54703E-10 8.14907E-10
 -1        54 7.58241E+03-1.63899E+05 2.89556E+04-5.26771E+05-1.12777E-10-1.08956E-07
 -1        55 1.64982E+04-1.71047E+05 3.54663E+04-4.48701E+05 3.81988E-10-6.05723E-09
 -1        56-9.72628E+06-1.31446E+06-8.93815E+05-4.02161E+06 1.80444E-09-7.13626E-08
 -1        57-1.09193E+07-9.57734E+05-5.52444E+05-2.82826E+06 1.54541E-08-1.65834E-07
 -1        58-9.60484E+06-1.75295E+06-1.99604E+05-4.17769E+06-2.97296E-08-4.05125E-08
 -1        59-1.10114E+07-4.64353E+05-1.10588E+05-2.76747E+06-1.10995E-08-4.04354E-07
 -1        60-9.68947E+06-1.75864E+06-5.47061E+04-4.13204E+06 2.33013E-08-1.20985E-07
 -1        61-1.04777E+07-7.44676E+05 5.11603E+03-3.00412E+06 1.38498E-08 2.32996E-07
 -1        62-1.00368E+07-1.54100E+06-5.98436E+04-3.86173E+06 7.77072E-09 1.46101E-08
 -1        63-9.73347E+06-1.34919E+06 3.75238E+04-3.61699E+06-7.82893E-09 2.18279E-11
 -1        64-1.03550E+07-1.20992E+06-5.48636E+04-3.46857E+06-9.60426E-09 2.18482E-07
 -1        65-9.38054E+06-1.87402E+06 3.26057E+03-4.37650E+06 1.21508E-08 2.00592E-07
 -1        66-1.04831E+07-9.51405E+05-4.56109E+04-3.17223E+06 1.88811E-08 1.79643E-07
 -1        67-9.36391E+06-2.10786E+06-9.97083E+04-4.73181E+06-6.59584E-08 1.89711E-07
 -1        68-1.04639E+07-9.12039E+05-1.84070E+05-3.17176E+06-8.27067E-08-1.16066E-07
 -1        69-9.57171E+06-2.21422E+06-4.93125E+05-4.34284E+06-7.01507E-08 6.54836E-08
 -1        70-1.01918E+07-9.14834E+05-8.17675E+05-3.50379E+06 6.82849E-09 1.98081E-07
 -1        86-1.38790E+06-1.46715E+07-2.57720E+06-2.83586E+06-2.53051E-07-7.03585E-08
 -1        87 2.15926E+06 5.64924E+06 2.14427E+06 5.34548E+06-4.28074E-07-2.74413E-08
 -1        88-3.95126E+05-2.05932E+06 1.99780E+05-2.44016E+06-3.99787E-07 1.12082E-08
 -1        89 2.89400E+06 5.38904E+06 2.19534E+06 5.51654E+06-5.79756E-07-3.07980E-07
 -1        90-2.04044E+06-1.44789E+07-2.78737E+06-3.03122E+06-1.30953E-07-1.27970E-07
 -1       121-2.01603E+03-1.57269E+06-5.34685E+02 1.09681E+03 1.45349E-09 8.87667E-09
 -1       122-1.28498E+03-1.56790E+06 7.73206E+02-4.42880E+03-5.07555E-09 6.19184E-09
 -1       123-2.03670E+03-1.57283E+06 2.79177E+02 3.27559E+03 4.48779E-09-8.87667E-09
 -1       124 3.59103E+02-1.56745E+06 2.96882E+03-9.26409E+03-1.04028E-08-1.91540E-08
 -1       125-2.85205E+03-1.57373E+06 3.50235E+03 5.88704E+03 6.33554E-09-1.99725E-08
 -1       191-7.68079E+01 3.86016E+05 8.59795E+00 6.86462E-01-5.24435E-10 1.85628E-08
 -1       192-7.38372E+01 3.85998E+05 2.12775E+01-4.23156E+00-8.45809E-10-4.83851E-09
 -1       193-7.93392E+01 3.86016E+05 3.63379E+01 3.71299E+00-1.06054E-09-7.18501E-10
 -1       194-7.69196E+01 3.86001E+05 8.08735E+01-9.60326E+00-3.19873E-10 1.60071E-09
 -1       195-8.41978E+01 3.86013E+05 1.54947E+02 6.24306E+00-1.38322E-09 1.09430E-08
 -1       251-8.89411E+05 1.66632E+04-3.89480E+04-1.44457E+04-5.54095E-10-5.94591E-08
 -1       252-9.04628E+05-1.92606E+04-2.71748E+04 5.00353E+04 7.71490E-09-2.44889E-07
 -1       253-8.97681E+05 2.57075E+03-1.04055E+04-1.07566E+04-7.19183E-09-3.58231E-07
 -1       254-8.91468E+05-3.06932E+03-4.90075E+03 3.62721E+04 1.96119E-08-1.31867E-07
 -1       255-9.02003E+05 1.00633E+02-3.51412E+03-6.85079E+02-3.88263E-09 2.64193E-07
 -1       256-8.85963E+05-3.00033E+02 9.76567E+02 1.31002E+04-9.02673E-10 1.16848E-07
 -1       257-9.02742E+05-5.27712E+02-1.35713E+03 1.24055E+04 1.93108E-09 3.51479E-08
 -1       258-8.88362E+05 8.36574E+02 2.58737E+03-1.16620E+04-1.95613E-08 2.04555E-07
 -1       259-8.99817E+05-8.71014E+02 1.33868E+03 2.40743E+04 4.77985E-09 2.16270E-08
 -1       260-8.94397E+05 2.79388E+03 5.43840E+03-2.96730E+04-2.12538E-09-1.11674E-07
 -1       261-8.97310E+05-2.01833E+03 8.46019E+03 3.04306E+04 2.67025E-08-2.14167E-07
 -1       262-8.93059E+05 1.14345E+04 2.10207E+04-3.49662E+04-6.03100E-09 5.38498E-08
 -1       263-9.01398E+05-9.29084E+03 3.33078E+04 2.93761E+04 1.48900E-08-6.88215E-08
 -1       264-8.63312E+05 6.54524E+04 9.21999E+04-2.56778E+04 1.72894E-08 8.61655E-08
 -1       265-9.26577E+05-5.61617E+04 1.28426E+05 2.11312E+04 2.36677E-08 1.84838E-07
 -1       266-1.72568E+04-8.07008E+03 4.04855E+04-1.89398E+01-1.05501E-10-1.34951E-07
 -1       267 2.00051E+04 9.40461E+03 2.86165E+04 2.18546E+01 9.82254E-11-2.72835E-07
 -1       268-2.68266E+03-1.33202E+03 1.06365E+04-2.78455E+00 2.54659E-11-2.44306E-07
 -1       269 3.16742E+03 1.59407E+03 6.91367E+03 3.24370E+00 2.33058E-10-5.08310E-08
 -1       270-4.75433E+02-2.61921E+02 3.33732E+03-4.40187E-01 3.09910E-10 1.61334E-07
 -1       271-1.52286E+06-1.92696E+05-1.14476E+05-5.91756E+05 5.31181E-08-4.69954E-08
 -1       272-1.52598E+06-3.03790E+05-7.21922E+04-6.24505E+05-1.03137E-08-1.37037E-07
 -1       273-1.54682E+06-2.17516E+05-2.76500E+04-5.83776E+05 2.91475E-08 5.88079E-08
 -1       274-1.49832E+06-2.74017E+05-1.45558E+04-6.39226E+05-3.87881E-08 1.26267E-07
 -1       275-1.55236E+06-2.17398E+05-6.82683E+03-5.80105E+05 1.23800E-08-2.69147E-07
 -1       276-1.49239E+06-2.74723E+05-2.97785E+03-6.47388E+05-6.56946E-08-3.02369E-07
 -1       277-1.55511E+06-2.14936E+05-1.87551E+03-5.77441E+05 1.22363E-08 7.17055E-08
 -1       278-1.48999E+06-2.77879E+05-7.74757E+02-6.53404E+05 1.82845E-08 1.55046E-08
 -1       279-1.55687E+06-2.12880E+05-9.12622E+02-5.75553E+05-1.82317E-08 2.26385E-07
 -1       280-1.48882E+06-2.80319E+05-1.11167E+03-6.57414E+05 8.73042E-08 1.04062E-07
 -1       281-1.55781E+06-2.11536E+05-2.04922E+03-5.74466E+05-3.40769E-08-1.06114E-07
 -1       282-1.48919E+06-2.82709E+05-4.77642E+03-6.59127E+05 4.66498E-08 1.00396E-07
 -1       283-1.55727E+06-2.10135E+05-8.49680E+03-5.74304E+05-5.44122E-09-1.49989E-08
 -1       284-1.49675E+06-2.93999E+05-2.31558E+04-6.56961E+05 2.65177E-08 5.77093E-08
 -1       285-1.55028E+06-2.01490E+05-3.61017E+04-5.76132E+05-4.98862E-08 2.45076E-07
 -1       301-4.39467E+03-6.40000E+05 1.67447E+05-1.12122E+06 3.14321E-09 1.46683E-07
 -1       302-5.50367E+03-5.93850E+05 1.00781E+05-1.63689E+06 0.00000E+00 1.01587E-07
 -1       303-1.95929E+04-6.31791E+05 5.71440E+04-1.11817E+06 1.89175E-09-7.51807E-08
 -1       304-2.14519E+04-6.00308E+05 5.78646E+04-1.63624E+06-3.36295E-08 2.15688E-07
 -1       305-2.36711E+04-6.20782E+05 7.16113E+04-1.12128E+06 7.57245E-09-7.19156E-08
 -1       306-3.01252E+07-6.22049E+06-8.60768E+06-5.38898E+05-8.47504E-08-1.54716E-07
 -1       307 2.53962E+07 3.24973E+06 5.51775E+06-1.51773E+07-8.65533E-07-1.65863E-07
 -1       308-6.99785E+06-1.03068E+06-4.60523E+05 5.20800E+06-1.65630E-07 2.58005E-07
 -1       309-3.27594E+06 8.74237E+06 2.28130E+06-2.06614E+07 2.63419E-07 2.07328E-07
 -1       310-1.25268E+07-1.93497E+06-2.02212E+06 5.21749E+06 2.68279E-07-2.56608E-07
 -1       311 3.82959E+07 2.18321E+04 7.26044E+06-8.85695E+06 5.50790E-07-2.76195E-08
 -1       312-3.19019E+07-6.75092E+06-8.52292E+06-5.00216E+06 4.67990E-08 1.89946E-07
 -1       313 4.54432E+07 1.49323E+07 1.06584E+07 2.37260E+07-8.41683E-08 1.76049E-07
 -1       314-1.72590E+07-1.77461E+07-7.52199E+06-1.25318E+07 5.99946E-07-1.71945E-07
 -1       315-1.78380E+06 2.96922E+07 5.67010E+06 1.05937E+07-5.86937E-07 3.05590E-09
 -1       316 1.38182E+06-9.84747E+06-4.45266E+05-2.55078E+06-1.28147E-06-1.60915E-07
 -1       317-1.71328E+07 2.24137E+07 2.23695E+06-8.78662E+06 8.65541E-07-8.35818E-07
 -1       318-1.07020E+06-1.27607E+07-2.03412E+06-4.24313E+06-7.86706E-07 3.75439E-08
 -1       319 7.18688E+06 3.18997E+07 7.02557E+06 1.65899E+07-6.28643E-08 2.44676E-07
 -1       320-2.25789E+07-1.76125E+07-9.84031E+06-1.27996E+07 1.61817E-07-4.62460E-08
 -1       336-7.09511E+02-1.70250E+06-1.38707E+04 8.91555E+03-2.65700E-08-2.74958E-08
 -1       337-5.40723E+03-1.70212E+06-1.80970E+04-2.16464E+04-4.80668E-08-3.05408E-09
 -1       338 3.02495E+02-1.70199E+06-2.84634E+04 1.24844E+04-3.39460E-08-7.37055E-09
 -1       339-3.02045E+04-1.71935E+06-6.43472E+04-2.86345E+04-6.28279E-08 2.30284E-09
 -1       340 1.99244E+04-1.68744E+06-1.01342E+05 1.57740E+04-4.25025E-08 2.49529E-08
 -1       406-4.71648E+01 3.85999E+05 6.43547E+02 3.27719E+00-1.91729E-09 6.34827E-10
 -1       407 1.56996E+02 3.86132E+05 1.37504E+03 2.30397E+01-5.16252E-10-4.30737E-09
 -1       408 6.36598E+02 3.85898E+05 2.74187E+03-2.66521E+01-2.54090E-09-1.09394E-08
 -1       409 2.90576E+03 3.87008E+05 6.17968E+03 2.84351E+02-3.82556E-10-3.86253E-08
 -1       410 8.47209E+03 3.85109E+05 1.26126E+04-2.74190E+02-2.88492E-09-4.30264E-08
 -1       521-3.16668E+07-7.67694E+06-1.00548E+07-1.45960E+05-9.08040E-08 9.35979E-08
 -1       522 2.62599E+07 4.27045E+06 5.62468E+06-1.86804E+07-5.64352E-07-5.73578E-07
 -1       523-7.57358E+06-1.34429E+06-4.52982E+05 5.65542E+06 1.11235E-07-2.99959E-07
 -1       524-6.78215E+06 1.17993E+07 2.46679E+06-2.37162E+07 8.25414E-07-5.61762E-07
 -1       525-1.33202E+07-2.56714E+06-2.22147E+06 5.66821E+06 7.29575E-07-3.94735E-07
 -1       526 4.17861E+07-6.51014E+04 7.61813E+06-1.15131E+07 2.96975E-07 2.76836E-07
 -1       527-3.37430E+07-8.44341E+06-9.82177E+06-4.85901E+06 2.84868E-07-3.85335E-08
 -1       528 4.96299E+07 1.66241E+07 1.11164E+07 2.69715E+07 2.50991E-07-3.78757E-07
 -1       529-1.82065E+07-1.99497E+07-8.62486E+06-1.25630E+07 1.00117E-08-2.09315E-07
 -1       530-4.25216E+06 3.44825E+07 6.00195E+06 1.00750E+07-2.93294E-07 3.38769E-07
 -1       531 1.37686E+06-1.09246E+07-4.20971E+05-2.50192E+06-9.36750E-07 4.51459E-07
 -1       532-1.96564E+07 2.44205E+07 2.44371E+06-1.30770E+07 3.94590E-07-4.82367E-07
 -1       533-1.10714E+06-1.39024E+07-2.16093E+06-4.04779E+06-2.20316E-07-9.32254E-07
 -1       534 5.15192E+06 3.70178E+07 7.30890E+06 1.71436E+07-2.24682E-08 7.68632E-07
 -1       535-2.37431E+07-2.00068E+07-1.12760E+07-1.28657E+07 1.01281E-07 4.61412E-07
 -1       536-7.02618E+05-4.66780E+04-4.65586E+04-5.42169E+04-1.35606E-09 6.81121E-08
 -1       537-5.83035E+04 4.47067E+04 8.37288E+04 1.22956E+05-1.14977E-07 1.01642E-07
 -1       538-3.94233E+05 3.24214E+03 3.79476E+03-7.17525E+04 1.57569E-08 1.03292E-07
 -1       539-2.70261E+05 2.88075E+03 2.48001E+04 1.37816E+05 1.47859E-07 1.00810E-07
 -1       540-4.95978E+05-4.19185E+02-2.10076E+04-6.96027E+04 2.73822E-08 1.16600E-07
 -1       541 1.40912E+05 1.67879E+04 1.05255E+05 9.71496E+04-2.34245E-08 1.01975E-07
 -1       542-7.94328E+05-1.99208E+04-8.33046E+04-3.02259E+04 7.17264E-08 4.86991E-08
 -1       543 3.96720E+05 2.70297E+04 1.56235E+05-1.32944E+04 4.09641E-08 1.90325E-08
 -1       544-7.44926E+05-1.63495E+04-7.40027E+04 4.01826E+04-5.68434E-10-3.08636E-08
 -1       545 2.43260E+04 9.35815E+03 7.88791E+04-1.12809E+05 2.35281E-08-8.69450E-08
 -1       546-4.31933E+05 6.04694E+03-1.21041E+04 6.89485E+04 4.64738E-08-8.56464E-08
 -1       547-2.88215E+05-4.66350E+03 1.03726E+04-1.40656E+05-1.22085E-07-1.03015E-07
 -1       548-4.40785E+05 4.70454E+03-2.37491E+04 6.87091E+04-1.18195E-07-9.47307E-08
 -1       549 4.34642E+04 1.56502E+04 5.95270E+04-1.10643E+05-6.51326E-08-6.92678E-08
 -1       550-7.54737E+05-2.16918E+04-1.28053E+05 3.82318E+04 5.81713E-09-2.83962E-08
 -1       551 4.04128E+04-7.70061E+05-1.77156E+04-1.26608E+06 3.64817E-08-4.62751E-09
 -1       552 9.65062E+04-8.17964E+05 9.46391E+03-1.82976E+06 7.63248E-08 3.61179E-08
 -1       553 7.34520E+04-8.14077E+05 3.20462E+04-1.25917E+06 4.02797E-08 4.29573E-08
 -1       554 1.37005E+05-8.35764E+05 8.18471E+04-1.83166E+06 8.14980E-08 2.42944E-08
 -1       555 1.01343E+05-8.38002E+05 1.48714E+05-1.25912E+06 4.38449E-08-2.17951E-08
 -1       556 2.22408E+05-3.81634E+05 2.68771E+04-4.05900E+05-2.64263E-08-2.65427E-08
 -1       557 3.52584E+05-4.85657E+05 1.67046E+04-5.25707E+05-1.04774E-09 2.87400E-09
 -1       558 2.04416E+05-3.74721E+05 2.60608E+03-4.10116E+05-1.63564E-08 1.57816E-08
 -1       559 3.27652E+05-4.85912E+05 2.56673E+03-5.45979E+05 1.89757E-08-8.11269E-09
 -1       560 1.89261E+05-3.65215E+05-1.41777E+03-4.21030E+05 1.38534E-08 2.44254E-08
 -1       561 3.08595E+05-4.78296E+05 1.63792E+02-5.58966E+05 7.13044E-10 6.34464E-09
 -1       562 1.77279E+05-3.57769E+05-1.29388E+03-4.29705E+05 2.06637E-09-3.30583E-08
 -1       563 2.94365E+05-4.72091E+05-2.71794E+01-5.68258E+05 9.36416E-09-1.19380E-08
 -1       564 1.68734E+05-3.52444E+05-5.87853E+02-4.35760E+05 1.13505E-08-1.34778E-08
 -1       565 2.84936E+05-4.67985E+05 2.66766E+01-5.74281E+05 8.55653E-09-9.83073E-09
 -1       566 1.63747E+05-3.49289E+05-2.54956E+02-4.39248E+05-2.89583E-09-1.40153E-08
 -1       567 2.80368E+05-4.65998E+05-3.58710E+02-5.77054E+05 1.06229E-08 1.07684E-09
 -1       568 1.62408E+05-3.48469E+05-1.11643E+03-4.40280E+05-1.19780E-09 1.00590E-08
 -1       569 2.79275E+05-4.65929E+05-2.81995E+03-5.75611E+05 1.08412E-09 2.82816E-08
 -1       570 1.65807E+05-3.51696E+05-6.16751E+03-4.39264E+05 7.37055E-09-9.40418E-10
 -1       571 2.90215E+05 1.04977E+04 1.49830E+04-9.49019E+04 1.37770E-08 6.54290E-09
 -1       572 2.92387E+05 3.95324E+03 7.34287E+03-1.04117E+05 2.62753E-08-2.93221E-09
 -1       573 2.91077E+05 1.24040E+03 3.26267E+03-9.47255E+04 1.21199E-08 1.44746E-08
 -1       574 2.91292E+05 7.21600E+02 1.63619E+03-1.04341E+05 5.04542E-10 1.55069E-09
 -1       575 2.91171E+05 4.43058E+02 7.72232E+02-9.47014E+04-1.12961E-08 7.50697E-09
 -1       576 2.91156E+05 4.53949E+02 3.95366E+02-1.04370E+05-2.42128E-08-1.33878E-09
 -1       577 2.91211E+05 3.85136E+02 1.97360E+02-9.46981E+04-4.54475E-09-3.64344E-09
 -1       578 2.91186E+05 4.16134E+02 1.13981E+02-1.04375E+05 1.10990E-08-8.01720E-09
 -1       579 2.91282E+05 3.48764E+02 7.82635E+01-9.46978E+04 1.04883E-08 1.27329E-11
 -1       580 2.91287E+05 3.65502E+02 9.07708E+01-1.04370E+05-5.25233E-09 9.25138E-09
 -1       581 2.91395E+05 2.90641E+02 1.37097E+02-9.47037E+04 1.00699E-08 1.65528E-10
 -1       582 2.91461E+05 3.28582E+02 2.78679E+02-1.04308E+05 6.28097E-09-6.60202E-09
 -1       583 2.91535E+05 3.33375E+02 5.34935E+02-9.47600E+04-9.20409E-10-6.25778E-09
 -1       584 2.91835E+05 7.70049E+02 1.21044E+03-1.03834E+05 5.57338E-09-7.69205E-10
 -1       585 2.91560E+05 1.78925E+03 2.45116E+03-9.51777E+04 3.63798E-11-2.32831E-09
 -1       586-3.42010E+03 1.16566E+05-2.92840E+03-2.50510E+05-4.83624E-09 2.39866E-08
 -1       587-1.33029E+03 1.16314E+05 7.61198E+02-2.75705E+05-4.15093E-09 1.98379E-08
 -1       588 4.05770E+02 1.16124E+05 4.74591E+03-2.50372E+05-3.40879E-09 1.83445E-09
 -1       589 5.08419E+03 1.18591E+05 1.23171E+04-2.75472E+05-7.67432E-09-1.52904E-08
 -1       590 1.65840E+04 1.14794E+05 2.58406E+04-2.50803E+05-7.71888E-09 2.98314E-09
 -1       591-7.47963E+04-1.59641E+04-2.24908E+04-3.19172E+04-6.87510E-09 5.63796E-09
 -1       592-7.88665E+04-1.95277E+04-1.21828E+04-3.55501E+04-5.93602E-09-1.45974E-09
 -1       593-7.70457E+04-1.43320E+04-5.07111E+03-3.35662E+04-1.33018E-09-1.80200E-08
 -1       594-7.57610E+04-1.62276E+04-2.52909E+03-3.56679E+04-9.75135E-10-9.28938E-09
 -1       595-7.72172E+04-1.43266E+04-1.16112E+03-3.36411E+04 2.26112E-09 2.01053E-08
 -1       596-7.55484E+04-1.60767E+04-5.90055E+02-3.56426E+04 9.36834E-09 9.61398E-09
 -1       597-7.72387E+04-1.43419E+04-3.20879E+02-3.36439E+04 1.87242E-10-6.51693E-09
 -1       598-7.55274E+04-1.60708E+04-2.57172E+02-3.56355E+04-4.27343E-09-8.23320E-09
 -1       599-7.72375E+04-1.43425E+04-3.27539E+02-3.36436E+04 5.40354E-09-6.33577E-09
 -1       600-7.55484E+04-1.60773E+04-6.07686E+02-3.56405E+04-5.04440E-09-1.47470E-08
 -1       601-7.72128E+04-1.43280E+04-1.19843E+03-3.36401E+04 3.03839E-09 1.73625E-08
 -1       602-7.57678E+04-1.62319E+04-2.61164E+03-3.56627E+04 2.31148E-09-5.15911E-09
 -1       603-7.70330E+04-1.43364E+04-5.23731E+03-3.35636E+04 1.72759E-09-1.90585E-09
 -1       604-7.89926E+04-1.96205E+04-1.25812E+04-3.55162E+04 2.28272E-09 5.38785E-09
 -1       605-7.46899E+04-1.60397E+04-2.32265E+04-3.18800E+04 4.16156E-09 8.56744E-09
 -1       606 2.67760E+04-1.43116E+04-2.56563E+04 2.40868E+04 7.85167E-09-1.30785E-08
 -1       607 2.23922E+04-4.67389E+03-1.27767E+04 2.70680E+04 8.94033E-10-1.00538E-08
 -1       608 2.48905E+04-8.42930E+02-5.71974E+03 2.39170E+04-1.67711E-09-6.52972E-09
 -1       609 2.44114E+04-2.88405E+02-2.88945E+03 2.72829E+04 5.33328E-09-1.81717E-09
 -1       610 2.46769E+04-4.04964E+01-1.37861E+03 2.38969E+04 8.64020E-09-1.57570E-10
 -1       611 2.46016E+04-4.05915E+01-6.95081E+02 2.73061E+04 8.75889E-09-1.62713E-08
 -1       612 2.46297E+04-2.66874E+01-3.30444E+02 2.38948E+04 6.81212E-09 3.32648E-10
 -1       613 2.46129E+04-3.63977E+01-1.48061E+02 2.73088E+04 1.75446E-08-1.20476E-08
 -1       614 2.46074E+04-3.30045E+01-3.46863E+01 2.38941E+04 1.11395E-08 7.54221E-09
 -1       615 2.46075E+04-3.48262E+01 6.21475E+01 2.73092E+04 2.29193E-09 1.14949E-08
 -1       616 2.45899E+04-2.98150E+01 1.86274E+02 2.38944E+04 2.80397E-09-1.84498E-08
 -1       617 2.46298E+04 4.93288E+00 4.24964E+02 2.73088E+04 2.16642E-09-2.66614E-08
 -1       618 2.45529E+04 9.27429E+01 8.56569E+02 2.38947E+04 1.25510E-09-1.51317E-08
 -1       619 2.49321E+04 6.67272E+02 1.92348E+03 2.73081E+04-1.01215E-09 7.00993E-10
 -1       620 2.42684E+04 2.12393E+03 3.86615E+03 2.38962E+04-1.69177E-09 5.29781E-10
 -1       621 5.08533E+02 3.01174E+05 3.87815E+03 4.07436E+04 9.80435E-10-3.04772E-09
 -1       622 6.72982E+02 3.02070E+05 3.44201E+03 5.91517E+04 1.31195E-09 9.31868E-09
 -1       623 1.40515E+02 3.01369E+05 4.13661E+03 4.05592E+04 1.42177E-09 7.84530E-09
 -1       624 2.12030E+03 3.03288E+05 8.01956E+03 5.93332E+04 1.47026E-09-1.05522E-08
 -1       625 2.07254E+03 2.99779E+05 1.40140E+04 4.05560E+04 1.39335E-09-1.54773E-09
 -1       626 2.60637E+05 6.14396E+04 5.12026E+03 1.26731E+05 2.36832E-09 5.37148E-09
 -1       627 2.58313E+05 6.28434E+04 2.46742E+03 1.31011E+05 1.56206E-09 2.14980E-08
 -1       628 2.60765E+05 5.90963E+04 1.04352E+03 1.27601E+05-1.10776E-09 3.11979E-08
 -1       629 2.57676E+05 6.21640E+04 5.10758E+02 1.31252E+05-6.61748E-09 2.93439E-09
 -1       630 2.60780E+05 5.89831E+04 2.37019E+02 1.27637E+05 6.74845E-10-2.73610E-09
 -1       631 2.57609E+05 6.21383E+04 1.27672E+02 1.31254E+05 3.99996E-09-3.14253E-09
 -1       632 2.60776E+05 5.89871E+04 8.42298E+01 1.27633E+05 7.91397E-09-1.10442E-08
 -1       633 2.57601E+05 6.21401E+04 9.41649E+01 1.31250E+05 1.06554E-08-3.93220E-09
 -1       634 2.60772E+05 5.89844E+04 1.52467E+02 1.27632E+05 2.23019E-09-2.35086E-08
 -1       635 2.57615E+05 6.21384E+04 3.08697E+02 1.31256E+05-6.18684E-09-1.34223E-08
 -1       636 2.60762E+05 5.89786E+04 6.23507E+02 1.27632E+05 1.03666E-08 5.31145E-10
 -1       637 2.57750E+05 6.22354E+04 1.37099E+03 1.31255E+05 8.04175E-09-1.82563E-08
 -1       638 2.60714E+05 5.92814E+04 2.81688E+03 1.27495E+05 4.53383E-09-1.98847E-08
 -1       639 2.59230E+05 6.42934E+04 6.66488E+03 1.30819E+05 4.41833E-09-1.12577E-08
 -1       640 2.60509E+05 6.54267E+04 1.38308E+04 1.24906E+05 6.23186E-09 2.09250E-08
 -1       656 6.65500E+04-1.70303E+06-1.60647E+05-2.52556E+03 8.73115E-11-1.07117E-08
 -1       657-8.80391E+04-1.77562E+06-1.33085E+05 5.21400E+03 7.27596E-12-3.94264E-08
 -1       658 2.12132E+04-1.72364E+06-8.19620E+04-4.61053E+03-1.25419E-09 6.98677E-10
 -1       659-9.51962E+04-1.77902E+06-1.42491E+05 6.94316E+03-2.15368E-09-5.95341E-09
 -1       660 7.36911E+04-1.69964E+06-1.76817E+05-4.25470E+03-1.20053E-09-8.09527E-09
 -1       661 1.59120E+05 1.66587E+04 1.67573E+04 6.22037E+04-3.73484E-09 5.28416E-09
 -1       662 1.68588E+05 2.90747E+04 1.12933E+04 5.84514E+04 2.27885E-09-2.07173E-08
 -1       663 1.62411E+05 2.20347E+04 3.94967E+03 6.12485E+04 1.62322E-09-1.48364E-08
 -1       664 1.64771E+05 2.27879E+04 2.36272E+03 5.96184E+04-3.01861E-09-1.91972E-08
 -1       665 1.62911E+05 2.27689E+04 9.32074E+02 6.11027E+04 2.19939E-09-4.80071E-10
 -1       666 1.64180E+05 2.19483E+04 5.45577E+02 5.98085E+04 4.95714E-09-5.27580E-09
 -1       667 1.62998E+05 2.28524E+04 2.89953E+02 6.10662E+04-5.84691E-10-4.37090E-09
 -1       668 1.64084E+05 2.18884E+04 2.95838E+02 5.98616E+04-6.70651E-09 8.60013E-10
 -1       669 1.63006E+05 2.28272E+04 4.00842E+02 6.10498E+04-2.70890E-09 5.52654E-09
 -1       670 1.64181E+05 2.21061E+04 8.73143E+02 5.98646E+04-9.41904E-09-9.66055E-09
 -1       671 1.62901E+05 2.26392E+04 1.55043E+03 6.10611E+04-1.30541E-09-3.17868E-09
 -1       672 1.65085E+05 2.36146E+04 3.96682E+03 5.96458E+04 3.76606E-09 4.46363E-09
 -1       673 1.62107E+05 2.13569E+04 6.64779E+03 6.12541E+04 4.27326E-09-1.60148E-08
 -1       674 1.71412E+05 3.42950E+04 1.90113E+04 5.77870E+04-6.42524E-09 3.49610E-09
 -1       675 1.56615E+05 1.22579E+04 2.82194E+04 6.28077E+04-5.39148E-09 1.53159E-09
 -1       676 2.41240E+01-2.96003E+05-1.11425E+03-1.35193E+02 1.10873E-09 7.21934E-09
 -1       677-2.94786E+02-2.96273E+05-2.03927E+03 2.70168E+02 1.01010E-08-1.15894E-08
 -1       678 1.97686E+02-2.95812E+05-3.60493E+03-1.34887E+02 1.40608E-09-9.88976E-10
 -1       679-3.60502E+03-2.98449E+05-8.56381E+03 2.69002E+02 8.24821E-09 4.75840E-09
 -1       680 2.15238E+03-2.93828E+05-1.38019E+04-1.32536E+02 1.73713E-09-8.85298E-09
 -1       771-3.06240E+06-7.49194E+05-1.63363E+05-1.46793E+06-3.13448E-08-2.70957E-08
 -1       772-2.98373E+06-8.38185E+05-8.41064E+04-1.57093E+06-1.97178E-08 2.03036E-08
 -1       773-3.09380E+06-7.24682E+05-4.31073E+04-1.48234E+06-1.94123E-08 9.08040E-09
 -1       774-2.97477E+06-8.20062E+05-1.91802E+04-1.59694E+06 1.75933E-08-2.18279E-09
 -1       775-3.11039E+06-7.13023E+05-1.44964E+04-1.48949E+06-7.18865E-09 2.79397E-09
 -1       776-2.98733E+06-8.16992E+05-5.39492E+03-1.61665E+06-1.30967E-08 8.16362E-09
 -1       777-3.12482E+06-7.02609E+05-6.45514E+03-1.49580E+06 1.97906E-09 8.49832E-09
 -1       778-3.00042E+06-8.14111E+05-1.81540E+03-1.63358E+06 1.19908E-08 6.44650E-09
 -1       779-3.13723E+06-6.93509E+05-3.24166E+03-1.50120E+06-9.26957E-09-9.02219E-09
 -1       780-3.01193E+06-8.11363E+05-5.37704E+02-1.64738E+06-1.06156E-08-1.09139E-09
 -1       781-3.14710E+06-6.86173E+05-1.26900E+03-1.50542E+06-2.47965E-08-1.12414E-09
 -1       782-3.02081E+06-8.09033E+05 4.37791E+02-1.65755E+06-2.92275E-08-1.13855E-08
 -1       783-3.15404E+06-6.81074E+05 6.71554E+02-1.50837E+06-4.81668E-09-2.34927E-08
 -1       784-3.02575E+06-8.06736E+05 2.84676E+03-1.66383E+06-1.48830E-08-6.16001E-09
 -1       785-3.15814E+06-6.78046E+05 5.01762E+03-1.51023E+06-3.15558E-08 5.58975E-09
 -1       786 1.24463E+05-9.78949E+03 2.26489E+04-3.21131E+02-7.99172E-10 3.95448E-09
 -1       787 1.34286E+05 1.13340E+04 1.60232E+04-1.34507E+02 6.22295E-09 4.06492E-08
 -1       788 1.28250E+05-1.53404E+03 5.85979E+03-2.86000E+02 4.44429E-09 1.83754E-08
 -1       789 1.29873E+05 1.77561E+03 3.67860E+03-1.88356E+02 1.88077E-09 5.53183E-09
 -1       790 1.28876E+05-2.38857E+02 1.48949E+03-2.67298E+02-6.78699E-09 2.45404E-09
 -1       791 1.29142E+05 2.76369E+02 8.60453E+02-2.20359E+02-8.40513E-09-1.83945E-10
 -1       792 1.28982E+05-3.59281E+01 3.64949E+02-2.54000E+02-5.89869E-09-5.24646E-09
 -1       793 1.29016E+05 3.81076E+01 1.82643E+02-2.45381E+02-2.44806E-10-1.48283E-08
 -1       794 1.29002E+05-7.46530E-01 4.88890E+01-2.42276E+02 4.24050E-09 7.47973E-09
 -1       795 1.28979E+05-2.63267E+01-5.41500E+01-2.69863E+02-4.61357E-09 7.90649E-09
 -1       796 1.29018E+05 2.84702E+01-1.56637E+02-2.29518E+02 3.15995E-09-1.44155E-09
 -1       797 1.28887E+05-2.12679E+02-4.31772E+02-2.99192E+02 3.03802E-09 1.08964E-08
 -1       798 1.29094E+05 1.85466E+02-7.01691E+02-2.12947E+02 2.34993E-09 4.14602E-09
 -1       799 1.28355E+05-1.36703E+03-1.93087E+03-3.40234E+02 5.94212E-09-5.26484E-10
 -1       800 1.29551E+05 1.18188E+03-2.73270E+03-1.88477E+02 2.08917E-11 5.94287E-09
 -1       801-1.69151E+05-9.90741E+06-1.37985E+06 1.39055E+06 8.96398E-08-4.93310E-08
 -1       802 7.24809E+05 5.78409E+06 2.13975E+06-1.71624E+06 2.57329E-07-3.56531E-08
 -1       803-5.26484E+05-1.40413E+07-1.85169E+06 8.91912E+05 7.82129E-08 2.12822E-08
 -1       804 2.77947E+05 2.24459E+06 1.49932E+06 6.62141E+05-1.17987E-07-1.05663E-07
 -1       805 1.88508E+05-6.38234E+06-2.76362E+05-9.82341E+05-4.92655E-08-6.18838E-08
 -1       806-3.08662E+05-5.97265E+04-2.28509E+04-1.22322E+05-5.45560E-09-8.64020E-09
 -1       807-3.10460E+05-5.59965E+04-1.12264E+04-1.27866E+05 9.01764E-09 8.37031E-09
 -1       808-3.09289E+05-5.14912E+04-4.76260E+03-1.26215E+05-1.00454E-08-9.93145E-09
 -1       809-3.08099E+05-5.28422E+04-2.32879E+03-1.28142E+05-2.32415E-08 2.76964E-09
 -1       810-3.09384E+05-5.12045E+04-1.06741E+03-1.26387E+05 8.91305E-10 3.17755E-09
 -1       811-3.07917E+05-5.27155E+04-5.30833E+02-1.28107E+05-2.08729E-10-1.54132E-08
 -1       812-3.09398E+05-5.12292E+04-2.68528E+02-1.26386E+05-5.31873E-09 1.03728E-09
 -1       813-3.07891E+05-5.27176E+04-1.74611E+02-1.28088E+05-1.29294E-08-1.45010E-08
 -1       814-3.09391E+05-5.12389E+04-1.73193E+02-1.26382E+05-8.13452E-09-1.79143E-08
 -1       815-3.07895E+05-5.27199E+04-2.79177E+02-1.28081E+05 5.14547E-09-1.47461E-08
 -1       816-3.09370E+05-5.12380E+04-5.29218E+02-1.26378E+05 5.03132E-09 2.25032E-08
 -1       817-3.07985E+05-5.27704E+04-1.13580E+03-1.28069E+05-8.31596E-09-4.33192E-09
 -1       818-3.09301E+05-5.13984E+04-2.31665E+03-1.26303E+05-3.15140E-09 2.99133E-09
 -1       819-3.09253E+05-5.41699E+04-5.45089E+03-1.27768E+05-7.71706E-10-3.02316E-09
 -1       820-3.08864E+05-5.55161E+04-1.10946E+04-1.24544E+05 5.43878E-10-1.39878E-08
 -1       821-3.78814E+05 2.08619E+04-4.85586E+04 2.11065E+03 1.42929E-08-1.25474E-08
 -1       822-3.98528E+05-2.41671E+04-3.41290E+04-4.43931E+03 4.66952E-09-1.24578E-08
 -1       823-3.86283E+05 3.28844E+03-1.25426E+04 3.41133E+03-1.13254E-08-1.09958E-09
 -1       824-3.89514E+05-3.79236E+03-7.85137E+03-5.34301E+03 1.84462E-09 1.59870E-08
 -1       825-3.87834E+05 5.11129E+02-3.28726E+03 3.01447E+03 2.25007E-08 3.04328E-09
 -1       826-3.87093E+05-5.67583E+02-1.74569E+03-3.08174E+03 2.64250E-08 5.72501E-09
 -1       827-3.88681E+05 4.73347E+01-1.18757E+03 1.14992E+03 1.17827E-08 1.40098E-08
 -1       828-3.86394E+05-1.32556E+02-5.89481E+02 1.08611E+03-3.06854E-09 1.41225E-08
 -1       829-3.88520E+05 6.61800E+01-1.17677E+03-1.15341E+03 3.41933E-09 1.05167E-08
 -1       830-3.87440E+05-6.21761E+02-1.88323E+03 4.85084E+03 3.28677E-09-2.03976E-08
 -1       831-3.87657E+05 5.53963E+02-3.36935E+03-2.61483E+03-5.45833E-09 8.73024E-09
 -1       832-3.89595E+05-3.95846E+03-8.15401E+03 6.12321E+03-5.73736E-09 2.70029E-08
 -1       833-3.86381E+05 3.41228E+03-1.30461E+04-2.42583E+03-2.18746E-09 7.54062E-09
 -1       834-3.98591E+05-2.50802E+04-3.53522E+04 4.16330E+03-3.60158E-09 1.58743E-08
 -1       835-3.78644E+05 2.16430E+04-5.04280E+04-6.54840E+02 4.98525E-09-7.63976E-09
 -1       836-1.41213E+03 3.69916E+05 2.28851E+04-1.62260E+04-7.01948E-09-6.19002E-09
 -1       837 4.87941E+03 3.77083E+05 1.93637E+04-3.31484E+04-7.30239E-09-7.98696E-09
 -1       838-5.57116E+02 3.71925E+05 1.97272E+04-1.61544E+04-5.89034E-09 4.48608E-10
 -1       839 1.24151E+04 3.82695E+05 3.73159E+04-3.32007E+04-6.65887E-09 8.02788E-09
 -1       840-3.83775E+03 3.64244E+05 5.95044E+04-1.61794E+04-6.05723E-09-2.15417E-09
 -1       856-5.27048E+04 8.03960E+03-2.11861E+04-3.98486E+02 4.64138E-09-1.88402E-08
 -1       857-6.14332E+04-9.44604E+03-1.45843E+04 5.63559E+03 5.75946E-09-2.19088E-08
 -1       858-5.61613E+04 1.12746E+03-5.49730E+03-4.22677E+02 3.69141E-09-8.17772E-09
 -1       859-5.74664E+04-1.32619E+03-3.31738E+03 5.67161E+03-1.93850E-09 1.11565E-08
 -1       860-5.66778E+04 1.57883E+02-1.39035E+03-4.34246E+02 1.73640E-09-6.00068E-09
 -1       861-5.68724E+04-1.88267E+02-7.64932E+02 5.68737E+03-6.88374E-10 1.57182E-09
 -1       862-5.67585E+04 2.13799E+01-3.18115E+02-4.38416E+02-2.27419E-09 1.84784E-09
 -1       863-5.67734E+04-2.17149E+01-1.16206E+02 5.68979E+03-1.88000E-09 5.10396E-09
 -1       864-5.67772E+04-4.87955E+00 4.65567E+01-4.36661E+02-2.78222E-09-7.83731E-09
 -1       865-5.67178E+04 5.95816E+01 2.54091E+02 5.67978E+03-4.15515E-09-1.87291E-08
 -1       866-5.68120E+04-5.99428E+01 5.12440E+02-4.28412E+02 1.39516E-09-2.57140E-09
 -1       867-5.64766E+04 4.95035E+02 1.26158E+03 5.65739E+03 8.74877E-10 1.31337E-08
 -1       868-5.70135E+04-4.32493E+02 2.09641E+03-4.14264E+02-5.75801E-09 2.64874E-08
 -1       869-5.49396E+04 3.59942E+03 5.58214E+03 5.62053E+03 9.37376E-10-9.82050E-09
 -1       870-5.83413E+04-3.08004E+03 8.10090E+03-3.91449E+02-7.67659E-09-1.32059E-09
 -1       871-5.51962E+03-2.12395E+04-1.94735E+04 1.30292E+05-5.09499E-09 7.31688E-09
 -1       872-1.98797E+03-2.57659E+04-8.15226E+03 1.68943E+05-1.02973E-08 4.23461E-09
 -1       873 3.99236E+02-2.35777E+04 5.93687E+02 1.30005E+05-5.96310E-09 3.93641E-09
 -1       874 3.29826E+03-2.11650E+04 9.78106E+03 1.68973E+05-1.01909E-08 6.57337E-10
 -1       875 6.84046E+03-2.59076E+04 2.20618E+04 1.30244E+05-2.61934E-09-2.29193E-10
 -1       876 2.93692E+05 4.95078E+04 1.51003E+04 1.17869E+05-1.67790E-09-9.17044E-09
 -1       877 2.94689E+05 5.26890E+04 8.06415E+03 1.22202E+05 6.30803E-09-1.59616E-09
 -1       878 2.95104E+05 4.78351E+04 3.37848E+03 1.19106E+05-6.83713E-09-1.25679E-08
 -1       879 2.92636E+05 5.06406E+04 1.68337E+03 1.22304E+05 1.02682E-09 5.96413E-09
 -1       880 2.95205E+05 4.78178E+04 7.84090E+02 1.19157E+05-5.08294E-09-1.27377E-08
 -1       881 2.92500E+05 5.05529E+04 4.18732E+02 1.22281E+05-1.30412E-08 6.05780E-10
 -1       882 2.95214E+05 4.78311E+04 2.67904E+02 1.19159E+05 1.32832E-09-9.97325E-09
 -1       883 2.92490E+05 5.05484E+04 2.88050E+02 1.22273E+05-1.19201E-10-8.33344E-09
 -1       884 2.95207E+05 4.78283E+04 4.58255E+02 1.19159E+05-5.59726E-09 2.18597E-09
 -1       885 2.92527E+05 5.05547E+04 9.21368E+02 1.22284E+05-1.06014E-08 3.14035E-08
 -1       886 2.95172E+05 4.78014E+04 1.85699E+03 1.19155E+05-1.57743E-09 5.05133E-09
 -1       887 2.92853E+05 5.07687E+04 4.05633E+03 1.22331E+05 3.33716E-09 5.41945E-10
 -1       888 2.94915E+05 4.78466E+04 8.17362E+03 1.19025E+05 2.81318E-09 8.73069E-09
 -1       889 2.97719E+05 5.58291E+04 1.95252E+04 1.22182E+05 2.14716E-09-1.68056E-08
 -1       890 2.91579E+05 5.18094E+04 3.65703E+04 1.15915E+05 1.86219E-09-3.79441E-09
 -1       891-9.03445E+01-1.62763E+05-1.99596E+03 2.71816E+04-6.39602E-10 3.87263E-09
 -1       892-1.76879E+02-1.63290E+05-2.14378E+03 4.12748E+04 2.74690E-09-2.50566E-09
 -1       893 4.26433E+01-1.62827E+05-3.03543E+03 2.71889E+04-1.95610E-09 8.77708E-09
 -1       894-1.51145E+03-1.64436E+05-6.28226E+03 4.11222E+04 4.14366E-09 1.15369E-08
 -1       895-1.20021E+03-1.61518E+05-1.10630E+04 2.73360E+04-1.91517E-09-2.20643E-09
 -1       956-3.77057E+05-5.44586E+03-1.34474E+04 3.07860E+04 4.80304E-09 8.58722E-09
 -1       957-3.79696E+05-1.91978E+03-6.90233E+03 3.69977E+04-3.04863E-09-2.09275E-09
 -1       958-3.78266E+05-2.39244E+02-3.11041E+03 3.06184E+04-2.23918E-09-1.38116E-08
 -1       959-3.78462E+05-1.34325E+02-1.58823E+03 3.71930E+04 4.21824E-09-1.14665E-08
 -1       960-3.78384E+05-4.32578E+01-7.74495E+02 3.06012E+04 6.24459E-09 5.56975E-09
 -1       961-3.78382E+05-6.13566E+01-4.10631E+02 3.72134E+04 2.91584E-09 1.10451E-08
 -1       962-3.78411E+05-4.45053E+01-2.35098E+02 3.05983E+04 4.46516E-09 6.32986E-09
 -1       963-3.78382E+05-5.71769E+01-1.88729E+02 3.72170E+04 1.13097E-08-1.05554E-08
 -1       964-3.78417E+05-4.11498E+01-2.29512E+02 3.05975E+04 4.37282E-10 1.38953E-08
 -1       965-3.78395E+05-5.42027E+01-3.96963E+02 3.72163E+04-1.07328E-08 1.62413E-09
 -1       966-3.78401E+05-3.32856E+01-7.45881E+02 3.05990E+04 6.69979E-09 7.07860E-09
 -1       967-3.78484E+05-1.17682E+02-1.52979E+03 3.72020E+04 7.89987E-09 1.61140E-09
 -1       968-3.78297E+05-2.15657E+02-2.99478E+03 3.06117E+04 2.49202E-10-1.31255E-08
 -1       969-3.79685E+05-1.83183E+03-6.64833E+03 3.70540E+04-3.29374E-09-7.49785E-09
 -1       970-3.77141E+05-5.22669E+03-1.29513E+04 3.07386E+04-6.69752E-09 1.43636E-08
 -1       971-3.45344E+05-1.72805E+03-9.31659E+03 1.53873E+04 5.97083E-09 1.84303E-08
 -1       972-3.47587E+05-1.27174E+03-5.07371E+03 2.12836E+04 8.35553E-09-3.05481E-08
 -1       973-3.46382E+05-6.14034E+01-2.27257E+03 1.52659E+04 3.52884E-09-7.34303E-09
 -1       974-3.46518E+05-8.01724E+01-1.17801E+03 2.14208E+04 2.62958E-09 8.09518E-09
 -1       975-3.46464E+05-1.64826E+01-5.89297E+02 1.52536E+04-1.09994E-08-1.34761E-08
 -1       976-3.46456E+05-3.02797E+01-3.40792E+02 2.14367E+04-2.01676E-08-2.73146E-08
 -1       977-3.46481E+05-1.57285E+01-2.48795E+02 1.52502E+04-7.21980E-09 5.23744E-09
 -1       978-3.46461E+05-2.40442E+01-2.93121E+02 2.14415E+04 8.95443E-09-9.40906E-09
 -1       979-3.46480E+05-7.24687E+00-4.72657E+02 1.52487E+04 3.74456E-09 1.02132E-08
 -1       980-3.46497E+05-2.09805E+01-9.13709E+02 2.14425E+04-4.64541E-09 3.59114E-09
 -1       981-3.46451E+05 1.55900E+01-1.77020E+03 1.52493E+04 2.78078E-10-5.24858E-09
 -1       982-3.46740E+05-1.51784E+02-3.65929E+03 2.14359E+04 4.97857E-09-1.11556E-08
 -1       983-3.46228E+05-9.77689E+01-7.11019E+03 1.52553E+04 5.41149E-09-1.73338E-08
 -1       984-3.50160E+05-3.86524E+03-1.59230E+04 2.13501E+04 6.57224E-09 1.11720E-08
 -1       985-3.43009E+05-5.30057E+03-2.92396E+04 1.53270E+04-1.78943E-09 2.85036E-09
 -3
    1PSTEP                        43          22           1          
  100CL  122 6.63140E-01         409                     0   22           1
 -4  DISP        4    1
 -5  D1          1    2    1    0
 -5  D2          1    2    2    0
 -5  D3          1    2    3    0
 -5  ALL         1    2    0    0    1ALL
 -1         1 2.71195E-03 0.00000E+00 0.00000E+00
 -1         2 1.37227E-03 3.78160E-29 0.00000E+00
 -1         3 3.43446E-04-5.63527E-28 0.00000E+00
 -1         5 1.78994E-04-1.82240E-27-1.65436E-24
 -1         8 2.70083E-03-4.10362E-07 0.00000E+00
 -1         9 2.69422E-03-1.83938E-04 0.00000E+00
 -1        10 3.11661E-04-3.41432E-06-6.61744E-24
 -1        12 1.80813E-04 8.08521E-07-1.24077E-24
 -1        15 2.68807E-03-4.34834E-07 0.00000E+00
 -1        16 2.75774E-03-1.85720E-04 0.00000E+00
 -1        17 2.12949E-04-7.77684E-06 0.00000E+00
 -1        18 1.84677E-04 3.40497E-05 0.00000E+00
 -1        19 1.86269E-04 1.61070E-06 0.00000E+00
 -1        20 1.86409E-04-9.53722E-06 0.00000E+00
 -1        21 1.85519E-04-2.46982E-05-3.30872E-24
 -1        24 3.06828E-05-1.20854E-05 0.00000E+00
 -1        25 1.95322E-04 3.42751E-05 0.00000E+00
 -1        26 1.96006E-04 2.23049E-06 0.00000E+00
 -1        27 1.93808E-04-1.30936E-05 0.00000E+00
 -1        28 1.93489E-04-2.53202E-05 0.00000E+00
 -1        32 0.00000E+00 0.00000E+00 0.00000E+00
 -1        33 2.04734E-04 2.98389E-06 0.00000E+00
 -1        34 2.02617E-04-1.31494E-05 0.00000E+00
 -1        35 2.00685E-04-2.56625E-05 0.00000E+00
 -1        51 2.71120E-03-8.56743E-08 0.00000E+00
 -1        52 2.70984E-03-1.53037E-07 0.00000E+00
 -1        53 2.70799E-03-2.16965E-07 0.00000E+00
 -1        54 2.70578E-03-2.79695E-07 1.65436E-24
 -1        55 2.70335E-03-3.42984E-07-1.65436E-24
 -1        56 2.70459E-03 7.66359E-06 0.00000E+00
 -1        57 2.69051E-03 3.19702E-05 0.00000E+00
 -1        58 2.67180E-03 6.76478E-05 0.00000E+00
 -1        59 2.65095E-03 1.08331E-04 5.29396E-23
 -1        60 2.63104E-03 1.46798E-04 1.05879E-22
 -1        61 2.61495E-03 1.76007E-04 0.00000E+00
 -1        62 2.60472E-03 1.90569E-04 1.05879E-22
 -1        63 2.60164E-03 1.86403E-04-5.29396E-23
 -1        64 2.60557E-03 1.62859E-04 0.00000E+00
 -1        65 2.61572E-03 1.21110E-04 0.00000E+00
 -1        66 2.63031E-03 6.57713E-05 0.00000E+00
 -1        67 2.64730E-03 2.78088E-06-5.29396E-23
 -1        68 2.66437E-03-6.04463E-05 1.05879E-22
 -1        69 2.67920E-03-1.16466E-04 0.00000E+00
 -1        70 2.68971E-03-1.59228E-04 5.29396E-23
 -1        86 1.45537E-03-5.86114E-06 0.00000E+00
 -1        87 1.69604E-03-3.66432E-05 0.00000E+00
 -1        88 2.01961E-03-8.94750E-05-2.64698E-23
 -1        89 2.34740E-03-1.43719E-04 0.00000E+00
 -1        90 2.59832E-03-1.76906E-04 0.00000E+00
 -1       121 3.42554E-04-5.51502E-07-1.32349E-23
 -1       122 3.39880E-04-1.10606E-06 0.00000E+00
 -1       123 3.35433E-04-1.66668E-06-1.32349E-23
 -1       124 3.29232E-04-2.23638E-06 0.00000E+00
 -1       125 3.21297E-04-2.81777E-06 0.00000E+00
 -1       191 1.79045E-04 1.34816E-07-1.65436E-24
 -1       192 1.79196E-04 2.69620E-07 0.00000E+00
 -1       193 1.79449E-04 4.04405E-07 1.65436E-24
 -1       194 1.79803E-04 5.39159E-07 4.13590E-25
 -1       195 1.80257E-04 6.73868E-07 1.65436E-24
 -1       251 2.70053E-03 1.74856E-06 6.61744E-24
 -1       252 2.70022E-03 3.88067E-06 3.30872E-24
 -1       253 2.69991E-03 5.00000E-06-6.61744E-24
 -1       254 2.69960E-03 4.13334E-06 0.00000E+00
 -1       255 2.69928E-03 6.13329E-07 0.00000E+00
 -1       256 2.69895E-03-6.19368E-06-3.30872E-24
 -1       257 2.69858E-03-1.64155E-05 0.00000E+00
 -1       258 2.69818E-03-3.01365E-05 6.61744E-24
 -1       259 2.69774E-03-4.69030E-05 1.32349E-23
 -1       260 2.69725E-03-6.62223E-05-6.61744E-24
 -1       261 2.69672E-03-8.72089E-05 0.00000E+00
 -1       262 2.69619E-03-1.08957E-04 0.00000E+00
 -1       263 2.69565E-03-1.30442E-04 0.00000E+00
 -1       264 2.69514E-03-1.50644E-04 0.00000E+00
 -1       265 2.69467E-03-1.68741E-04 0.00000E+00
 -1       266 2.69871E-03-4.20159E-07 0.00000E+00
 -1       267 2.69658E-03-4.23541E-07 8.27181E-25
 -1       268 2.69445E-03-4.27328E-07 8.27181E-25
 -1       269 2.69233E-03-4.29913E-07 2.06795E-25
 -1       270 2.69020E-03-4.32469E-07 0.00000E+00
 -1       271 2.69993E-03 1.86511E-07 0.00000E+00
 -1       272 2.69995E-03-1.73281E-06 6.61744E-24
 -1       273 2.70085E-03-6.02249E-06 0.00000E+00
 -1       274 2.70257E-03-1.25252E-05 0.00000E+00
 -1       275 2.70503E-03-2.10632E-05 0.00000E+00
 -1       276 2.70816E-03-3.14440E-05 1.32349E-23
 -1       277 2.71189E-03-4.34590E-05 0.00000E+00
 -1       278 2.71613E-03-5.68871E-05 0.00000E+00
 -1       279 2.72079E-03-7.14953E-05 2.64698E-23
 -1       280 2.72579E-03-8.70412E-05 0.00000E+00
 -1       281 2.73104E-03-1.03274E-04 0.00000E+00
 -1       282 2.73644E-03-1.19939E-04 0.00000E+00
 -1       283 2.74190E-03-1.36777E-04 0.00000E+00
 -1       284 2.74733E-03-1.53526E-04 0.00000E+00
 -1       285 2.75264E-03-1.69927E-04-1.32349E-23
 -1       301 2.70577E-03-1.84268E-04 6.61744E-24
 -1       302 2.71570E-03-1.84553E-04 3.30872E-24
 -1       303 2.72493E-03-1.84829E-04 0.00000E+00
 -1       304 2.73440E-03-1.85105E-04 6.61744E-24
 -1       305 2.74503E-03-1.85394E-04 0.00000E+00
 -1       306 2.73204E-03-3.38187E-04 0.00000E+00
 -1       307 2.79592E-03-7.51910E-04 0.00000E+00
 -1       308 2.84265E-03-1.35697E-03-1.05879E-22
 -1       309 2.86653E-03-2.05742E-03 0.00000E+00
 -1       310 2.89781E-03-2.72752E-03 1.05879E-22
 -1       311 2.95726E-03-3.24423E-03 0.00000E+00
 -1       312 3.01516E-03-3.52691E-03 1.05879E-22
 -1       313 3.01071E-03-3.53761E-03 0.00000E+00
 -1       314 2.87009E-03-3.28832E-03-1.05879E-22
 -1       315 2.55238E-03-2.84345E-03 0.00000E+00
 -1       316 2.07587E-03-2.27961E-03-1.05879E-22
 -1       317 1.50641E-03-1.66616E-03 0.00000E+00
 -1       318 9.58254E-04-1.06377E-03-1.05879E-22
 -1       319 5.39351E-04-5.37447E-04 5.29396E-23
 -1       320 2.93482E-04-1.61315E-04 0.00000E+00
 -1       336 3.00136E-04-4.07370E-06 1.32349E-23
 -1       337 2.86547E-04-4.75849E-06 0.00000E+00
 -1       338 2.70956E-04-5.47087E-06 1.32349E-23
 -1       339 2.53437E-04-6.21163E-06 0.00000E+00
 -1       340 2.34071E-04-6.98520E-06-1.32349E-23
 -1       406 1.81470E-04 9.43100E-07 0.00000E+00
 -1       407 1.82228E-04 1.07757E-06-1.65436E-24
 -1       408 1.83087E-04 1.21187E-06-2.48154E-24
 -1       409 1.84047E-04 1.34584E-06 1.24077E-24
 -1       410 1.85108E-04 1.47920E-06-8.27181E-25
 -1       521 2.79616E-03-3.49280E-04 0.00000E+00
 -1       522 2.85827E-03-7.83289E-04-5.29396E-23
 -1       523 2.89855E-03-1.41620E-03 0.00000E+00
 -1       524 2.91318E-03-2.14532E-03 0.00000E+00
 -1       525 2.93653E-03-2.84211E-03 0.00000E+00
 -1       526 2.99241E-03-3.38097E-03-5.29396E-23
 -1       527 3.04989E-03-3.67438E-03 0.00000E+00
 -1       528 3.04320E-03-3.68345E-03-5.29396E-23
 -1       529 2.89066E-03-3.42011E-03 0.00000E+00
 -1       530 2.54907E-03-2.95673E-03-5.29396E-23
 -1       531 2.03748E-03-2.37370E-03 1.05879E-22
 -1       532 1.42813E-03-1.74297E-03 0.00000E+00
 -1       533 8.40665E-04-1.12260E-03 1.05879E-22
 -1       534 3.88215E-04-5.75259E-04 0.00000E+00
 -1       535 1.20892E-04-1.79352E-04 0.00000E+00
 -1       536 2.12201E-04 2.69510E-05 6.61744E-24
 -1       537 2.10302E-04 8.70571E-05 0.00000E+00
 -1       538 2.07370E-04 1.63323E-04 0.00000E+00
 -1       539 2.03911E-04 2.46448E-04 0.00000E+00
 -1       540 2.00799E-04 3.24992E-04 3.30872E-24
 -1       541 1.98775E-04 3.87541E-04 1.65436E-24
 -1       542 1.97841E-04 4.27376E-04-3.30872E-24
 -1       543 1.97617E-04 4.37924E-04 0.00000E+00
 -1       544 1.97296E-04 4.19959E-04 3.30872E-24
 -1       545 1.96134E-04 3.74470E-04 0.00000E+00
 -1       546 1.93971E-04 3.09544E-04-3.30872E-24
 -1       547 1.91043E-04 2.33389E-04 1.65436E-24
 -1       548 1.88142E-04 1.57613E-04 0.00000E+00
 -1       549 1.86049E-04 9.38259E-05 1.65436E-24
 -1       550 1.84962E-04 5.00173E-05 0.00000E+00
 -1       551 1.87745E-04-8.35354E-06 0.00000E+00
 -1       552 1.59123E-04-9.01521E-06 0.00000E+00
 -1       553 1.28087E-04-9.74255E-06 0.00000E+00
 -1       554 9.56555E-05-1.05130E-05 6.61744E-24
 -1       555 6.28492E-05-1.12969E-05 1.32349E-23
 -1       556 2.05346E-04 1.16646E-05 0.00000E+00
 -1       557 1.99205E-04 2.74284E-05 2.64698E-23
 -1       558 1.94392E-04 3.98014E-05 0.00000E+00
 -1       559 1.90775E-04 4.90928E-05 0.00000E+00
 -1       560 1.88223E-04 5.56122E-05 0.00000E+00
 -1       561 1.86611E-04 5.96718E-05 0.00000E+00
 -1       562 1.85812E-04 6.15848E-05 0.00000E+00
 -1       563 1.85704E-04 6.16657E-05 0.00000E+00
 -1       564 1.86164E-04 6.02297E-05 0.00000E+00
 -1       565 1.87074E-04 5.75925E-05 0.00000E+00
 -1       566 1.88313E-04 5.40705E-05 0.00000E+00
 -1       567 1.89763E-04 4.99805E-05 0.00000E+00
 -1       568 1.91306E-04 4.56395E-05 0.00000E+00
 -1       569 1.92825E-04 4.13643E-05 0.00000E+00
 -1       570 1.94202E-04 3.74721E-05 0.00000E+00
 -1       571 1.84774E-04 3.19453E-05 2.48154E-24
 -1       572 1.84872E-04 2.97753E-05-1.24077E-24
 -1       573 1.84971E-04 2.75553E-05 3.30872E-24
 -1       574 1.85071E-04 2.53017E-05 8.27181E-25
 -1       575 1.85170E-04 2.30308E-05 0.00000E+00
 -1       576 1.85269E-04 2.07590E-05 1.65436E-24
 -1       577 1.85369E-04 1.85028E-05 0.00000E+00
 -1       578 1.85468E-04 1.62787E-05 0.00000E+00
 -1       579 1.85568E-04 1.41030E-05-6.61744E-24
 -1       580 1.85668E-04 1.19924E-05 0.00000E+00
 -1       581 1.85768E-04 9.96322E-06-6.61744E-24
 -1       582 1.85868E-04 8.03193E-06 0.00000E+00
 -1       583 1.85968E-04 6.21497E-06 0.00000E+00
 -1       584 1.86068E-04 4.52861E-06 0.00000E+00
 -1       585 1.86169E-04 2.98893E-06-6.61744E-24
 -1       586 1.86410E-04 3.40894E-05 0.00000E+00
 -1       587 1.88102E-04 3.41285E-05 4.13590E-25
 -1       588 1.89796E-04 3.41673E-05 0.00000E+00
 -1       589 1.91535E-04 3.42053E-05 0.00000E+00
 -1       590 1.93363E-04 3.42422E-05 0.00000E+00
 -1       591 1.85398E-04 3.20386E-05 1.03398E-25
 -1       592 1.86122E-04 3.00073E-05 2.06795E-25
 -1       593 1.86851E-04 2.79619E-05 0.00000E+00
 -1       594 1.87583E-04 2.59069E-05 0.00000E+00
 -1       595 1.88317E-04 2.38473E-05 8.27181E-25
 -1       596 1.89050E-04 2.17877E-05 0.00000E+00
 -1       597 1.89782E-04 1.97328E-05 0.00000E+00
 -1       598 1.90510E-04 1.76873E-05 0.00000E+00
 -1       599 1.91233E-04 1.56560E-05 8.27181E-25
 -1       600 1.91949E-04 1.36436E-05 0.00000E+00
 -1       601 1.92657E-04 1.16548E-05 0.00000E+00
 -1       602 1.93353E-04 9.69421E-06 4.13590E-25
 -1       603 1.94038E-04 7.76663E-06-8.27181E-25
 -1       604 1.94709E-04 5.87686E-06 7.75482E-26
 -1       605 1.95364E-04 4.02953E-06 0.00000E+00
 -1       606 1.86283E-04 4.65443E-07 0.00000E+00
 -1       607 1.86292E-04-5.93620E-07 0.00000E+00
 -1       608 1.86301E-04-1.57155E-06-3.30872E-24
 -1       609 1.86310E-04-2.47406E-06-1.65436E-24
 -1       610 1.86318E-04-3.30690E-06 0.00000E+00
 -1       611 1.86326E-04-4.07589E-06 0.00000E+00
 -1       612 1.86335E-04-4.78686E-06 0.00000E+00
 -1       613 1.86343E-04-5.44564E-06 0.00000E+00
 -1       614 1.86351E-04-6.05807E-06 0.00000E+00
 -1       615 1.86360E-04-6.62997E-06 0.00000E+00
 -1       616 1.86368E-04-7.16719E-06 0.00000E+00
 -1       617 1.86377E-04-7.67557E-06 0.00000E+00
 -1       618 1.86385E-04-8.16092E-06 0.00000E+00
 -1       619 1.86394E-04-8.62909E-06 0.00000E+00
 -1       620 1.86402E-04-9.08591E-06 0.00000E+00
 -1       621 1.87608E-04 1.71456E-06 1.65436E-24
 -1       622 1.89105E-04 1.81866E-06 0.00000E+00
 -1       623 1.90726E-04 1.92256E-06 1.65436E-24
 -1       624 1.92439E-04 2.02613E-06-8.27181E-25
 -1       625 1.94210E-04 2.12941E-06 1.65436E-24
 -1       626 1.86811E-04 5.01523E-07 3.30872E-24
 -1       627 1.87329E-04-5.44242E-07 0.00000E+00
 -1       628 1.87827E-04-1.53447E-06 6.61744E-24
 -1       629 1.88308E-04-2.47734E-06 0.00000E+00
 -1       630 1.88774E-04-3.38108E-06 3.30872E-24
 -1       631 1.89228E-04-4.25391E-06 1.65436E-24
 -1       632 1.89674E-04-5.10406E-06-3.30872E-24
 -1       633 1.90114E-04-5.93977E-06 0.00000E+00
 -1       634 1.90552E-04-6.76926E-06 0.00000E+00
 -1       635 1.90991E-04-7.60076E-06 0.00000E+00
 -1       636 1.91434E-04-8.44252E-06 0.00000E+00
 -1       637 1.91883E-04-9.30277E-06-1.65436E-24
 -1       638 1.92343E-04-1.01897E-05-3.30872E-24
 -1       639 1.92815E-04-1.11117E-05 8.27181E-25
 -1       640 1.93303E-04-1.20768E-05 3.30872E-24
 -1       656 1.87094E-04-1.01152E-05 0.00000E+00
 -1       657 1.88198E-04-1.07168E-05 0.00000E+00
 -1       658 1.89584E-04-1.13169E-05-1.32349E-23
 -1       659 1.91103E-04-1.19167E-05 0.00000E+00
 -1       660 1.92573E-04-1.25183E-05 0.00000E+00
 -1       661 1.86666E-04-1.00335E-05 0.00000E+00
 -1       662 1.86960E-04-1.06216E-05-8.27181E-25
 -1       663 1.87286E-04-1.12961E-05 0.00000E+00
 -1       664 1.87642E-04-1.20506E-05-8.27181E-25
 -1       665 1.88026E-04-1.28794E-05 0.00000E+00
 -1       666 1.88436E-04-1.37764E-05 0.00000E+00
 -1       667 1.88870E-04-1.47362E-05 0.00000E+00
 -1       668 1.89325E-04-1.57530E-05 8.27181E-25
 -1       669 1.89799E-04-1.68216E-05 1.65436E-24
 -1       670 1.90290E-04-1.79366E-05 0.00000E+00
 -1       671 1.90797E-04-1.90928E-05 1.65436E-24
 -1       672 1.91317E-04-2.02853E-05-8.27181E-25
 -1       673 1.91849E-04-2.15089E-05-1.65436E-24
 -1       674 1.92390E-04-2.27591E-05 4.13590E-25
 -1       675 1.92939E-04-2.40305E-05-2.06795E-25
 -1       676 1.86852E-04-2.48024E-05 0.00000E+00
 -1       677 1.88184E-04-2.49067E-05 0.00000E+00
 -1       678 1.89515E-04-2.50109E-05 3.30872E-24
 -1       679 1.90843E-04-2.51147E-05 0.00000E+00
 -1       680 1.92168E-04-2.52186E-05-1.65436E-24
 -1       771 1.86591E-05 1.48152E-05 0.00000E+00
 -1       772 8.54588E-06 3.69093E-05 0.00000E+00
 -1       773 2.50950E-07 5.44286E-05 5.29396E-23
 -1       774-6.35092E-06 6.76324E-05 2.64698E-23
 -1       775-1.13823E-05 7.67907E-05 5.29396E-23
 -1       776-1.49708E-05 8.21907E-05 0.00000E+00
 -1       777-1.72436E-05 8.41292E-05 5.29396E-23
 -1       778-1.83305E-05 8.29174E-05 0.00000E+00
 -1       779-1.83608E-05 7.88749E-05 5.29396E-23
 -1       780-1.74656E-05 7.23329E-05 2.64698E-23
 -1       781-1.57751E-05 6.36293E-05 0.00000E+00
 -1       782-1.34213E-05 5.31110E-05 0.00000E+00
 -1       783-1.05350E-05 4.11296E-05-5.29396E-23
 -1       784-7.24829E-06 2.80430E-05 2.64698E-23
 -1       785-3.69232E-06 1.42120E-05 5.29396E-23
 -1       786 1.95360E-04 3.20450E-05-1.29247E-26
 -1       787 1.95402E-04 2.98649E-05 4.13590E-25
 -1       788 1.95444E-04 2.77265E-05-8.27181E-25
 -1       789 1.95487E-04 2.56216E-05 8.27181E-25
 -1       790 1.95530E-04 2.35455E-05 0.00000E+00
 -1       791 1.95573E-04 2.14934E-05-8.27181E-25
 -1       792 1.95616E-04 1.94631E-05 1.65436E-24
 -1       793 1.95659E-04 1.74525E-05-8.27181E-25
 -1       794 1.95702E-04 1.54613E-05 0.00000E+00
 -1       795 1.95745E-04 1.34894E-05 0.00000E+00
 -1       796 1.95788E-04 1.15387E-05 0.00000E+00
 -1       797 1.95832E-04 9.61106E-06 0.00000E+00
 -1       798 1.95875E-04 7.71079E-06-1.65436E-24
 -1       799 1.95919E-04 5.84222E-06 8.27181E-25
 -1       800 1.95962E-04 4.01290E-06-1.65436E-24
 -1       801 1.49766E-04 3.08064E-05 2.64698E-23
 -1       802 1.19961E-05 1.92022E-05-2.64698E-23
 -1       803-1.06044E-04 9.64293E-06 5.29396E-23
 -1       804-9.47532E-05 6.70282E-06 0.00000E+00
 -1       805-3.14698E-05 2.65362E-06 0.00000E+00
 -1       806 1.96043E-04 3.19763E-05 3.30872E-24
 -1       807 1.96750E-04 2.97037E-05-1.65436E-24
 -1       808 1.97445E-04 2.74624E-05-3.30872E-24
 -1       809 1.98126E-04 2.52565E-05 1.65436E-24
 -1       810 1.98792E-04 2.30900E-05 0.00000E+00
 -1       811 1.99442E-04 2.09670E-05 1.65436E-24
 -1       812 2.00074E-04 1.88913E-05 0.00000E+00
 -1       813 2.00687E-04 1.68668E-05-1.65436E-24
 -1       814 2.01280E-04 1.48975E-05 0.00000E+00
 -1       815 2.01851E-04 1.29873E-05 8.27181E-25
 -1       816 2.02398E-04 1.11400E-05-3.30872E-24
 -1       817 2.02920E-04 9.35962E-06-8.27181E-25
 -1       818 2.03416E-04 7.64995E-06 0.00000E+00
 -1       819 2.03884E-04 6.01489E-06 1.65436E-24
 -1       820 2.04323E-04 4.45827E-06 1.65436E-24
 -1       821 1.95877E-04-1.03818E-07 0.00000E+00
 -1       822 1.95737E-04-3.58345E-06 0.00000E+00
 -1       823 1.95595E-04-7.78311E-06 0.00000E+00
 -1       824 1.95450E-04-1.22730E-05 0.00000E+00
 -1       825 1.95306E-04-1.65449E-05 0.00000E+00
 -1       826 1.95165E-04-2.00918E-05-1.65436E-24
 -1       827 1.95026E-04-2.26042E-05 0.00000E+00
 -1       828 1.94890E-04-2.37787E-05 0.00000E+00
 -1       829 1.94754E-04-2.36763E-05 0.00000E+00
 -1       830 1.94618E-04-2.23654E-05 0.00000E+00
 -1       831 1.94480E-04-2.02434E-05-3.30872E-24
 -1       832 1.94342E-04-1.77127E-05-1.65436E-24
 -1       833 1.94204E-04-1.52871E-05 0.00000E+00
 -1       834 1.94069E-04-1.34794E-05-1.65436E-24
 -1       835 1.93934E-04-1.26351E-05-8.27181E-25
 -1       836 1.97673E-04 2.35543E-06 0.00000E+00
 -1       837 1.99213E-04 2.48351E-06 1.65436E-24
 -1       838 2.00657E-04 2.61153E-06 0.00000E+00
 -1       839 2.02037E-04 2.73885E-06 0.00000E+00
 -1       840 2.03386E-04 2.86600E-06 8.27181E-25
 -1       856 1.93791E-04-1.41327E-05-8.27181E-25
 -1       857 1.93772E-04-1.50361E-05-3.87741E-26
 -1       858 1.93753E-04-1.58248E-05 0.00000E+00
 -1       859 1.93733E-04-1.65200E-05-2.06795E-25
 -1       860 1.93713E-04-1.71430E-05 4.13590E-25
 -1       861 1.93693E-04-1.77149E-05 0.00000E+00
 -1       862 1.93673E-04-1.82572E-05 4.13590E-25
 -1       863 1.93653E-04-1.87912E-05-4.13590E-25
 -1       864 1.93633E-04-1.93382E-05 0.00000E+00
 -1       865 1.93613E-04-1.99196E-05 0.00000E+00
 -1       866 1.93593E-04-2.05567E-05 0.00000E+00
 -1       867 1.93573E-04-2.12708E-05-4.13590E-25
 -1       868 1.93553E-04-2.20831E-05-8.27181E-25
 -1       869 1.93532E-04-2.30148E-05 4.13590E-25
 -1       870 1.93511E-04-2.40868E-05 0.00000E+00
 -1       871 1.95135E-04-1.30984E-05 8.27181E-25
 -1       872 1.96608E-04-1.31067E-05 0.00000E+00
 -1       873 1.98162E-04-1.31157E-05 0.00000E+00
 -1       874 1.99727E-04-1.31254E-05-1.03398E-25
 -1       875 2.01234E-04-1.31356E-05-1.44757E-24
 -1       876 1.94324E-04-1.41182E-05-3.30872E-24
 -1       877 1.94819E-04-1.50760E-05 0.00000E+00
 -1       878 1.95292E-04-1.59749E-05-3.30872E-24
 -1       879 1.95746E-04-1.68224E-05 0.00000E+00
 -1       880 1.96183E-04-1.76258E-05 3.30872E-24
 -1       881 1.96607E-04-1.83926E-05 1.65436E-24
 -1       882 1.97020E-04-1.91301E-05 0.00000E+00
 -1       883 1.97425E-04-1.98455E-05 1.65436E-24
 -1       884 1.97824E-04-2.05464E-05-3.30872E-24
 -1       885 1.98221E-04-2.12400E-05 1.65436E-24
 -1       886 1.98617E-04-2.19336E-05 3.30872E-24
 -1       887 1.99016E-04-2.26346E-05 1.65436E-24
 -1       888 1.99421E-04-2.33504E-05 0.00000E+00
 -1       889 1.99833E-04-2.40884E-05 1.65436E-24
 -1       890 2.00255E-04-2.48561E-05 0.00000E+00
 -1       891 1.94831E-04-2.53777E-05 0.00000E+00
 -1       892 1.96149E-04-2.54354E-05-8.27181E-25
 -1       893 1.97419E-04-2.54930E-05 8.27181E-25
 -1       894 1.98615E-04-2.55503E-05 4.13590E-25
 -1       895 1.99712E-04-2.56073E-05 0.00000E+00
 -1       956 2.04604E-04 1.68393E-06 1.65436E-24
 -1       957 2.04471E-04 4.75393E-07 1.65436E-24
 -1       958 2.04339E-04-6.52446E-07 0.00000E+00
 -1       959 2.04206E-04-1.71090E-06-1.65436E-24
 -1       960 2.04073E-04-2.71133E-06 3.30872E-24
 -1       961 2.03941E-04-3.66513E-06 0.00000E+00
 -1       962 2.03808E-04-4.58371E-06-3.30872E-24
 -1       963 2.03675E-04-5.47849E-06 1.65436E-24
 -1       964 2.03543E-04-6.36088E-06 0.00000E+00
 -1       965 2.03410E-04-7.24232E-06 0.00000E+00
 -1       966 2.03277E-04-8.13423E-06 3.30872E-24
 -1       967 2.03144E-04-9.04802E-06-1.65436E-24
 -1       968 2.03012E-04-9.99510E-06 0.00000E+00
 -1       969 2.02879E-04-1.09869E-05 3.30872E-24
 -1       970 2.02747E-04-1.20346E-05 3.30872E-24
 -1       971 2.02497E-04-1.42634E-05 3.30872E-24
 -1       972 2.02376E-04-1.52828E-05 1.65436E-24
 -1       973 2.02255E-04-1.62180E-05-3.30872E-24
 -1       974 2.02133E-04-1.70798E-05-1.65436E-24
 -1       975 2.02012E-04-1.78790E-05 0.00000E+00
 -1       976 2.01890E-04-1.86267E-05 1.65436E-24
 -1       977 2.01769E-04-1.93335E-05-3.30872E-24
 -1       978 2.01648E-04-2.00106E-05-1.65436E-24
 -1       979 2.01526E-04-2.06687E-05 3.30872E-24
 -1       980 2.01405E-04-2.13188E-05 0.00000E+00
 -1       981 2.01284E-04-2.19719E-05-3.30872E-24
 -1       982 2.01163E-04-2.26388E-05 0.00000E+00
 -1       983 2.01042E-04-2.33304E-05 0.00000E+00
 -1       984 2.00921E-04-2.40577E-05 1.65436E-24
 -1       985 2.00801E-04-2.48315E-05-3.30872E-24
 -3
    1PSTEP                        44          22           1          
  100CL  122 6.63140E-01         409                     0   22           1
 -4  FORC        4    1
 -5  F1          1    2    1    0
 -5  F2          1    2    2    0
 -5  F3          1    2    3    0
 -5  ALL         1    2    0    0    1ALL
 -1         1 1.50215E-04 0.00000E+00 0.00000E+00
 -1         2 0.00000E+00 0.00000E+00 0.00000E+00
 -1         3 0.00000E+00 0.00000E+00 0.00000E+00
 -1         5 0.00000E+00 0.00000E+00 0.00000E+00
 -1         8 8.63505E-06-7.35176E-06 0.00000E+00
 -1         9-4.06079E-04 2.01701E-05 0.00000E+00
 -1        10-1.26017E-09 7.35931E-09 0.00000E+00
 -1        12 0.00000E+00 0.00000E+00 0.00000E+00
 -1        15 0.00000E+00 0.00000E+00 0.00000E+00
 -1        16-5.84347E-05-5.78878E-04 0.00000E+00
 -1        17-8.89896E-06 4.97238E-06 0.00000E+00
 -1        18 8.12379E-08 6.71077E-08 0.00000E+00
 -1        19 2.30898E-08-5.26644E-09 0.00000E+00
 -1        20-3.81983E-08 4.24114E-09 0.00000E+00
 -1        21 0.00000E+00 1.51945E-08 0.00000E+00
 -1        24-2.40646E-05 7.75913E-06 0.00000E+00
 -1        25 4.50778E-08-4.17279E-08 0.00000E+00
 -1        26-2.47108E-08-1.76264E-08 0.00000E+00
 -1        27-1.27151E-08 2.42460E-08 0.00000E+00
 -1        28-1.18464E-08 7.22765E-09 0.00000E+00
 -1        32 0.00000E+00 0.00000E+00 0.00000E+00
 -1        33-1.65198E-09-3.10605E-08 0.00000E+00
 -1        34-9.04013E-09-3.20544E-08 0.00000E+00
 -1        35-5.37567E-08-3.45606E-08 0.00000E+00
 -1        51 0.00000E+00 0.00000E+00 0.00000E+00
 -1        52 0.00000E+00 0.00000E+00 0.00000E+00
 -1        53 0.00000E+00 0.00000E+00 0.00000E+00
 -1        54 0.00000E+00 0.00000E+00 0.00000E+00
 -1        55 0.00000E+00 0.00000E+00 0.00000E+00
 -1        56 0.00000E+00 0.00000E+00 0.00000E+00
 -1        57 0.00000E+00 0.00000E+00 0.00000E+00
 -1        58 0.00000E+00 0.00000E+00 0.00000E+00
 -1        59 0.00000E+00 0.00000E+00 0.00000E+00
 -1        60 0.00000E+00 0.00000E+00 0.00000E+00
 -1        61 0.00000E+00 0.00000E+00 0.00000E+00
 -1        62 0.00000E+00 0.00000E+00 0.00000E+00
 -1        63 0.00000E+00 0.00000E+00 0.00000E+00
 -1        64 0.00000E+00 0.00000E+00 0.00000E+00
 -1        65 0.00000E+00 0.00000E+00 0.00000E+00
 -1        66 0.00000E+00 0.00000E+00 0.00000E+00
 -1        67 0.00000E+00 0.00000E+00 0.00000E+00
 -1        68 0.00000E+00 0.00000E+00 0.00000E+00
 -1        69 0.00000E+00 0.00000E+00 0.00000E+00
 -1        70 0.00000E+00 0.00000E+00 0.00000E+00
 -1        86 0.00000E+00 0.00000E+00 0.00000E+00
 -1        87 0.00000E+00 0.00000E+00 0.00000E+00
 -1        88 0.00000E+00 0.00000E+00 0.00000E+00
 -1        89 0.00000E+00 0.00000E+00 0.00000E+00
 -1        90 0.00000E+00 0.00000E+00 0.00000E+00
 -1       121 0.00000E+00 0.00000E+00 0.00000E+00
 -1       122 0.00000E+00 0.00000E+00 0.00000E+00
 -1       123 0.00000E+00 0.00000E+00 0.00000E+00
 -1       124 0.00000E+00 0.00000E+00 0.00000E+00
 -1       125 0.00000E+00 0.00000E+00 0.00000E+00
 -1       191 0.00000E+00 0.00000E+00 0.00000E+00
 -1       192 0.00000E+00 0.00000E+00 0.00000E+00
 -1       193 0.00000E+00 0.00000E+00 0.00000E+00
 -1       194 0.00000E+00 0.00000E+00 0.00000E+00
 -1       195 0.00000E+00 0.00000E+00 0.00000E+00
 -1       251 0.00000E+00 0.00000E+00 0.00000E+00
 -1       252 0.00000E+00 0.00000E+00 0.00000E+00
 -1       253 0.00000E+00 0.00000E+00 0.00000E+00
 -1       254 0.00000E+00 0.00000E+00 0.00000E+00
 -1       255 0.00000E+00 0.00000E+00 0.00000E+00
 -1       256 0.00000E+00 0.00000E+00 0.00000E+00
 -1       257 0.00000E+00 0.00000E+00 0.00000E+00
 -1       258 0.00000E+00 0.00000E+00 0.00000E+00
 -1       259 0.00000E+00 0.00000E+00 0.00000E+00
 -1       260 0.00000E+00 0.00000E+00 0.00000E+00
 -1       261 0.00000E+00 0.00000E+00 0.00000E+00
 -1       262 0.00000E+00 0.00000E+00 0.00000E+00
 -1       263 0.00000E+00 0.00000E+00 0.00000E+00
 -1       264 0.00000E+00 0.00000E+00 0.00000E+00
 -1       265 0.00000E+00 0.00000E+00 0.00000E+00
 -1       266 0.00000E+00 0.00000E+00 0.00000E+00
 -1       267 0.00000E+00 0.00000E+00 0.00000E+00
 -1       268 0.00000E+00 0.00000E+00 0.00000E+00
 -1       269 0.00000E+00 0.00000E+00 0.00000E+00
 -1       270 0.00000E+00 0.00000E+00 0.00000E+00
 -1       271 0.00000E+00 0.00000E+00 0.00000E+00
 -1       272 0.00000E+00 0.00000E+00 0.00000E+00
 -1       273 0.00000E+00 0.00000E+00 0.00000E+00
 -1       274 0.00000E+00 0.00000E+00 0.00000E+00
 -1       275 0.00000E+00 0.00000E+00 0.00000E+00
 -1       276 0.00000E+00 0.00000E+00 0.00000E+00
 -1       277 0.00000E+00 0.00000E+00 0.00000E+00
 -1       278 0.00000E+00 0.00000E+00 0.00000E+00
 -1       279 0.00000E+00 0.00000E+00 0.00000E+00
 -1       280 0.00000E+00 0.00000E+00 0.00000E+00
 -1       281 0.00000E+00 0.00000E+00 0.00000E+00
 -1       282 0.00000E+00 0.00000E+00 0.00000E+00
 -1       283 0.00000E+00 0.00000E+00 0.00000E+00
 -1       284 0.00000E+00 0.00000E+00 0.00000E+00
 -1       285 0.00000E+00 0.00000E+00 0.00000E+00
 -1       301 0.00000E+00 0.00000E+00 0.00000E+00
 -1       302 0.00000E+00 0.00000E+00 0.00000E+00
 -1       303 0.00000E+00 0.00000E+00 0.00000E+00
 -1       304 0.00000E+00 0.00000E+00 0.00000E+00
 -1       305 0.00000E+00 0.00000E+00 0.00000E+00
 -1       306 0.00000E+00 0.00000E+00 0.00000E+00
 -1       307 0.00000E+00 0.00000E+00 0.00000E+00
 -1       308 0.00000E+00 0.00000E+00 0.00000E+00
 -1       309 0.00000E+00 0.00000E+00 0.00000E+00
 -1       310 0.00000E+00 0.00000E+00 0.00000E+00
 -1       311 0.00000E+00 0.00000E+00 0.00000E+00
 -1       312 0.00000E+00 0.00000E+00 0.00000E+00
 -1       313 0.00000E+00 0.00000E+00 0.00000E+00
 -1       314 0.00000E+00 0.00000E+00 0.00000E+00
 -1       315 0.00000E+00 0.00000E+00 0.00000E+00
 -1       316 0.00000E+00 0.00000E+00 0.00000E+00
 -1       317 0.00000E+00 0.00000E+00 0.00000E+00
 -1       318 0.00000E+00 0.00000E+00 0.00000E+00
 -1       319 0.00000E+00 0.00000E+00 0.00000E+00
 -1       320 0.00000E+00 0.00000E+00 0.00000E+00
 -1       336 0.00000E+00 0.00000E+00 0.00000E+00
 -1       337 0.00000E+00 0.00000E+00 0.00000E+00
 -1       338 0.00000E+00 0.00000E+00 0.00000E+00
 -1       339 0.00000E+00 0.00000E+00 0.00000E+00
 -1       340 0.00000E+00 0.00000E+00 0.00000E+00
 -1       406 0.00000E+00 0.00000E+00 0.00000E+00
 -1       407 0.00000E+00 0.00000E+00 0.00000E+00
 -1       408 0.00000E+00 0.00000E+00 0.00000E+00
 -1       409 0.00000E+00 0.00000E+00 0.00000E+00
 -1       410 0.00000E+00 0.00000E+00 0.00000E+00
 -1       521 0.00000E+00 0.00000E+00 0.00000E+00
 -1       522 0.00000E+00 0.00000E+00 0.00000E+00
 -1       523 0.00000E+00 0.00000E+00 0.00000E+00
 -1       524 0.00000E+00 0.00000E+00 0.00000E+00
 -1       525 0.00000E+00 0.00000E+00 0.00000E+00
 -1       526 0.00000E+00 0.00000E+00 0.00000E+00
 -1       527 0.00000E+00 0.00000E+00 0.00000E+00
 -1       528 0.00000E+00 0.00000E+00 0.00000E+00
 -1       529 0.00000E+00 0.00000E+00 0.00000E+00
 -1       530 0.00000E+00 0.00000E+00 0.00000E+00
 -1       531 0.00000E+00 0.00000E+00 0.00000E+00
 -1       532 0.00000E+00 0.00000E+00 0.00000E+00
 -1       533 0.00000E+00 0.00000E+00 0.00000E+00
 -1       534 0.00000E+00 0.00000E+00 0.00000E+00
 -1       535 0.00000E+00 0.00000E+00 0.00000E+00
 -1       536 0.00000E+00 0.00000E+00 0.00000E+00
 -1       537 0.00000E+00 0.00000E+00 0.00000E+00
 -1       538 0.00000E+00 0.00000E+00 0.00000E+00
 -1       539 0.00000E+00 0.00000E+00 0.00000E+00
 -1       540 0.00000E+00 0.00000E+00 0.00000E+00
 -1       541 0.00000E+00 0.00000E+00 0.00000E+00
 -1       542 0.00000E+00 0.00000E+00 0.00000E+00
 -1       543 0.00000E+00 0.00000E+00 0.00000E+00
 -1       544 0.00000E+00 0.00000E+00 0.00000E+00
 -1       545 0.00000E+00 0.00000E+00 0.00000E+00
 -1       546 0.00000E+00 0.00000E+00 0.00000E+00
 -1       547 0.00000E+00 0.00000E+00 0.00000E+00
 -1       548 0.00000E+00 0.00000E+00 0.00000E+00
 -1       549 0.00000E+00 0.00000E+00 0.00000E+00
 -1       550 0.00000E+00 0.00000E+00 0.00000E+00
 -1       551 0.00000E+00 0.00000E+00 0.00000E+00
 -1       552 0.00000E+00 0.00000E+00 0.00000E+00
 -1       553 0.00000E+00 0.00000E+00 0.00000E+00
 -1       554 0.00000E+00 0.00000E+00 0.00000E+00
 -1       555 0.00000E+00 0.00000E+00 0.00000E+00
 -1       556 0.00000E+00 0.00000E+00 0.00000E+00
 -1       557 0.00000E+00 0.00000E+00 0.00000E+00
 -1       558 0.00000E+00 0.00000E+00 0.00000E+00
 -1       559 0.00000E+00 0.00000E+00 0.00000E+00
 -1       560 0.00000E+00 0.00000E+00 0.00000E+00
 -1       561 0.00000E+00 0.00000E+00 0.00000E+00
 -1       562 0.00000E+00 0.00000E+00 0.00000E+00
 -1       563 0.00000E+00 0.00000E+00 0.00000E+00
 -1       564 0.00000E+00 0.00000E+00 0.00000E+00
 -1       565 0.00000E+00 0.00000E+00 0.00000E+00
 -1       566 0.00000E+00 0.00000E+00 0.00000E+00
 -1       567 0.00000E+00 0.00000E+00 0.00000E+00
 -1       568 0.00000E+00 0.00000E+00 0.00000E+00
 -1       569 0.00000E+00 0.00000E+00 0.00000E+00
 -1       570 0.00000E+00 0.00000E+00 0.00000E+00
 -1       571 0.00000E+00 0.00000E+00 0.00000E+00
 -1       572 0.00000E+00 0.00000E+00 0.00000E+00
 -1       573 0.00000E+00 0.00000E+00 0.00000E+00
 -1       574 0.00000E+00 0.00000E+00 0.00000E+00
 -1       575 0.00000E+00 0.00000E+00 0.00000E+00
 -1       576 0.00000E+00 0.00000E+00 0.00000E+00
 -1       577 0.00000E+00 0.00000E+00 0.00000E+00
 -1       578 0.00000E+00 0.00000E+00 0.00000E+00
 -1       579 0.00000E+00 0.00000E+00 0.00000E+00
 -1       580 0.00000E+00 0.00000E+00 0.00000E+00
 -1       581 0.00000E+00 0.00000E+00 0.00000E+00
 -1       582 0.00000E+00 0.00000E+00 0.00000E+00
 -1       583 0.00000E+00 0.00000E+00 0.00000E+00
 -1       584 0.00000E+00 0.00000E+00 0.00000E+00
 -1       585 0.00000E+00 0.00000E+00 0.00000E+00
 -1       586 0.00000E+00 0.00000E+00 0.00000E+00
 -1       587 0.00000E+00 0.00000E+00 0.00000E+00
 -1       588 0.00000E+00 0.00000E+00 0.00000E+00
 -1       589 0.00000E+00 0.00000E+00 0.00000E+00
 -1       590 0.00000E+00 0.00000E+00 0.00000E+00
 -1       591 0.00000E+00 0.00000E+00 0.00000E+00
 -1       592 0.00000E+00 0.00000E+00 0.00000E+00
 -1       593 0.00000E+00 0.00000E+00 0.00000E+00
 -1       594 0.00000E+00 0.00000E+00 0.00000E+00
 -1       595 0.00000E+00 0.00000E+00 0.00000E+00
 -1       596 0.00000E+00 0.00000E+00 0.00000E+00
 -1       597 0.00000E+00 0.00000E+00 0.00000E+00
 -1       598 0.00000E+00 0.00000E+00 0.00000E+00
 -1       599 0.00000E+00 0.00000E+00 0.00000E+00
 -1       600 0.00000E+00 0.00000E+00 0.00000E+00
 -1       601 0.00000E+00 0.00000E+00 0.00000E+00
 -1       602 0.00000E+00 0.00000E+00 0.00000E+00
 -1       603 0.00000E+00 0.00000E+00 0.00000E+00
 -1       604 0.00000E+00 0.00000E+00 0.00000E+00
 -1       605 0.00000E+00 0.00000E+00 0.00000E+00
 -1       606 0.00000E+00 0.00000E+00 0.00000E+00
 -1       607 0.00000E+00 0.00000E+00 0.00000E+00
 -1       608 0.00000E+00 0.00000E+00 0.00000E+00
 -1       609 0.00000E+00 0.00000E+00 0.00000E+00
 -1       610 0.00000E+00 0.00000E+00 0.00000E+00
 -1       611 0.00000E+00 0.00000E+00 0.00000E+00
 -1       612 0.00000E+00 0.00000E+00 0.00000E+00
 -1       613 0.00000E+00 0.00000E+00 0.00000E+00
 -1       614 0.00000E+00 0.00000E+00 0.00000E+00
 -1       615 0.00000E+00 0.00000E+00 0.00000E+00
 -1       616 0.00000E+00 0.00000E+00 0.00000E+00
 -1       617 0.00000E+00 0.00000E+00 0.00000E+00
 -1       618 0.00000E+00 0.00000E+00 0.00000E+00
 -1       619 0.00000E+00 0.00000E+00 0.00000E+00
 -1       620 0.00000E+00 0.00000E+00 0.00000E+00
 -1       621 0.00000E+00 0.00000E+00 0.00000E+00
 -1       622 0.00000E+00 0.00000E+00 0.00000E+00
 -1       623 0.00000E+00 0.00000E+00 0.00000E+00
 -1       624 0.00000E+00 0.00000E+00 0.00000E+00
 -1       625 0.00000E+00 0.00000E+00 0.00000E+00
 -1       626 0.00000E+00 0.00000E+00 0.00000E+00
 -1       627 0.00000E+00 0.00000E+00 0.00000E+00
 -1       628 0.00000E+00 0.00000E+00 0.00000E+00
 -1       629 0.00000E+00 0.00000E+00 0.00000E+00
 -1       630 0.00000E+00 0.00000E+00 0.00000E+00
 -1       631 0.00000E+00 0.00000E+00 0.00000E+00
 -1       632 0.00000E+00 0.00000E+00 0.00000E+00
 -1       633 0.00000E+00 0.00000E+00 0.00000E+00
 -1       634 0.00000E+00 0.00000E+00 0.00000E+00
 -1       635 0.00000E+00 0.00000E+00 0.00000E+00
 -1       636 0.00000E+00 0.00000E+00 0.00000E+00
 -1       637 0.00000E+00 0.00000E+00 0.00000E+00
 -1       638 0.00000E+00 0.00000E+00 0.00000E+00
 -1       639 0.00000E+00 0.00000E+00 0.00000E+00
 -1       640 0.00000E+00 0.00000E+00 0.00000E+00
 -1       656 0.00000E+00 0.00000E+00 0.00000E+00
 -1       657 0.00000E+00 0.00000E+00 0.00000E+00
 -1       658 0.00000E+00 0.00000E+00 0.00000E+00
 -1       659 0.00000E+00 0.00000E+00 0.00000E+00
 -1       660 0.00000E+00 0.00000E+00 0.00000E+00
 -1       661 0.00000E+00 0.00000E+00 0.00000E+00
 -1       662 0.00000E+00 0.00000E+00 0.00000E+00
 -1       663 0.00000E+00 0.00000E+00 0.00000E+00
 -1       664 0.00000E+00 0.00000E+00 0.00000E+00
 -1       665 0.00000E+00 0.00000E+00 0.00000E+00
 -1       666 0.00000E+00 0.00000E+00 0.00000E+00
 -1       667 0.00000E+00 0.00000E+00 0.00000E+00
 -1       668 0.00000E+00 0.00000E+00 0.00000E+00
 -1       669 0.00000E+00 0.00000E+00 0.00000E+00
 -1       670 0.00000E+00 0.00000E+00 0.00000E+00
 -1       671 0.00000E+00 0.00000E+00 0.00000E+00
 -1       672 0.00000E+00 0.00000E+00 0.00000E+00
 -1       673 0.00000E+00 0.00000E+00 0.00000E+00
 -1       674 0.00000E+00 0.00000E+00 0.00000E+00
 -1       675 0.00000E+00 0.00000E+00 0.00000E+00
 -1       676 0.00000E+00 0.00000E+00 0.00000E+00
 -1       677 0.00000E+00 0.00000E+00 0.00000E+00
 -1       678 0.00000E+00 0.00000E+00 0.00000E+00
 -1       679 0.00000E+00 0.00000E+00 0.00000E+00
 -1       680 0.00000E+00 0.00000E+00 0.00000E+00
 -1       771 0.00000E+00 0.00000E+00 0.00000E+00
 -1       772 0.00000E+00 0.00000E+00 0.00000E+00
 -1       773 0.00000E+00 0.00000E+00 0.00000E+00
 -1       774 0.00000E+00 0.00000E+00 0.00000E+00
 -1       775 0.00000E+00 0.00000E+00 0.00000E+00
 -1       776 0.00000E+00 0.00000E+00 0.00000E+00
 -1       777 0.00000E+00 0.00000E+00 0.00000E+00
 -1       778 0.00000E+00 0.00000E+00 0.00000E+00
 -1       779 0.00000E+00 0.00000E+00 0.00000E+00
 -1       780 0.00000E+00 0.00000E+00 0.00000E+00
 -1       781 0.00000E+00 0.00000E+00 0.00000E+00
 -1       782 0.00000E+00 0.00000E+00 0.00000E+00
 -1       783 0.00000E+00 0.00000E+00 0.00000E+00
 -1       784 0.00000E+00 0.00000E+00 0.00000E+00
 -1       785 0.00000E+00 0.00000E+00 0.00000E+00
 -1       786 0.00000E+00 0.00000E+00 0.00000E+00
 -1       787 0.00000E+00 0.00000E+00 0.00000E+00
 -1       788 0.00000E+00 0.00000E+00 0.00000E+00
 -1       789 0.00000E+00 0.00000E+00 0.00000E+00
 -1       790 0.00000E+00 0.00000E+00 0.00000E+00
 -1       791 0.00000E+00 0.00000E+00 0.00000E+00
 -1       792 0.00000E+00 0.00000E+00 0.00000E+00
 -1       793 0.00000E+00 0.00000E+00 0.00000E+00
 -1       794 0.00000E+00 0.00000E+00 0.00000E+00
 -1       795 0.00000E+00 0.00000E+00 0.00000E+00
 -1       796 0.00000E+00 0.00000E+00 0.00000E+00
 -1       797 0.00000E+00 0.00000E+00 0.00000E+00
 -1       798 0.00000E+00 0.00000E+00 0.00000E+00
 -1       799 0.00000E+00 0.00000E+00 0.00000E+00
 -1       800 0.00000E+00 0.00000E+00 0.00000E+00
 -1       801 0.00000E+00 0.00000E+00 0.00000E+00
 -1       802 0.00000E+00 0.00000E+00 0.00000E+00
 -1       803 0.00000E+00 0.00000E+00 0.00000E+00
 -1       804 0.00000E+00 0.00000E+00 0.00000E+00
 -1       805 0.00000E+00 0.00000E+00 0.00000E+00
 -1       806 0.00000E+00 0.00000E+00 0.00000E+00
 -1       807 0.00000E+00 0.00000E+00 0.00000E+00
 -1       808 0.00000E+00 0.00000E+00 0.00000E+00
 -1       809 0.00000E+00 0.00000E+00 0.00000E+00
 -1       810 0.00000E+00 0.00000E+00 0.00000E+00
 -1       811 0.00000E+00 0.00000E+00 0.00000E+00
 -1       812 0.00000E+00 0.00000E+00 0.00000E+00
 -1       813 0.00000E+00 0.00000E+00 0.00000E+00
 -1       814 0.00000E+00 0.00000E+00 0.00000E+00
 -1       815 0.00000E+00 0.00000E+00 0.00000E+00
 -1       816 0.00000E+00 0.00000E+00 0.00000E+00
 -1       817 0.00000E+00 0.00000E+00 0.00000E+00
 -1       818 0.00000E+00 0.00000E+00 0.00000E+00
 -1       819 0.00000E+00 0.00000E+00 0.00000E+00
 -1       820 0.00000E+00 0.00000E+00 0.00000E+00
 -1       821 0.00000E+00 0.00000E+00 0.00000E+00
 -1       822 0.00000E+00 0.00000E+00 0.00000E+00
 -1       823 0.00000E+00 0.00000E+00 0.00000E+00
 -1       824 0.00000E+00 0.00000E+00 0.00000E+00
 -1       825 0.00000E+00 0.00000E+00 0.00000E+00
 -1       826 0.00000E+00 0.00000E+00 0.00000E+00
 -1       827 0.00000E+00 0.00000E+00 0.00000E+00
 -1       828 0.00000E+00 0.00000E+00 0.00000E+00
 -1       829 0.00000E+00 0.00000E+00 0.00000E+00
 -1       830 0.00000E+00 0.00000E+00 0.00000E+00
 -1       831 0.00000E+00 0.00000E+00 0.00000E+00
 -1       832 0.00000E+00 0.00000E+00 0.00000E+00
 -1       833 0.00000E+00 0.00000E+00 0.00000E+00
 -1       834 0.00000E+00 0.00000E+00 0.00000E+00
 -1       835 0.00000E+00 0.00000E+00 0.00000E+00
 -1       836 0.00000E+00 0.00000E+00 0.00000E+00
 -1       837 0.00000E+00 0.00000E+00 0.00000E+00
 -1       838 0.00000E+00 0.00000E+00 0.00000E+00
 -1       839 0.00000E+00 0.00000E+00 0.00000E+00
 -1       840 0.00000E+00 0.00000E+00 0.00000E+00
 -1       856 0.00000E+00 0.00000E+00 0.00000E+00
 -1       857 0.00000E+00 0.00000E+00 0.00000E+00
 -1       858 0.00000E+00 0.00000E+00 0.00000E+00
 -1       859 0.00000E+00 0.00000E+00 0.00000E+00
 -1       860 0.00000E+00 0.00000E+00 0.00000E+00
 -1       861 0.00000E+00 0.00000E+00 0.00000E+00
 -1       862 0.00000E+00 0.00000E+00 0.00000E+00
 -1       863 0.00000E+00 0.00000E+00 0.00000E+00
 -1       864 0.00000E+00 0.00000E+00 0.00000E+00
 -1       865 0.00000E+00 0.00000E+00 0.00000E+00
 -1       866 0.00000E+00 0.00000E+00 0.00000E+00
 -1       867 0.00000E+00 0.00000E+00 0.00000E+00
 -1       868 0.00000E+00 0.00000E+00 0.00000E+00
 -1       869 0.00000E+00 0.00000E+00 0.00000E+00
 -1       870 0.00000E+00 0.00000E+00 0.00000E+00
 -1       871 0.00000E+00 0.00000E+00 0.00000E+00
 -1       872 0.00000E+00 0.00000E+00 0.00000E+00
 -1       873 0.00000E+00 0.00000E+00 0.00000E+00
 -1       874 0.00000E+00 0.00000E+00 0.00000E+00
 -1       875 0.00000E+00 0.00000E+00 0.00000E+00
 -1       876 0.00000E+00 0.00000E+00 0.00000E+00
 -1       877 0.00000E+00 0.00000E+00 0.00000E+00
 -1       878 0.00000E+00 0.00000E+00 0.00000E+00
 -1       879 0.00000E+00 0.00000E+00 0.00000E+00
 -1       880 0.00000E+00 0.00000E+00 0.00000E+00
 -1       881 0.00000E+00 0.00000E+00 0.00000E+00
 -1       882 0.00000E+00 0.00000E+00 0.00000E+00
 -1       883 0.00000E+00 0.00000E+00 0.00000E+00
 -1       884 0.00000E+00 0.00000E+00 0.00000E+00
 -1       885 0.00000E+00 0.00000E+00 0.00000E+00
 -1       886 0.00000E+00 0.00000E+00 0.00000E+00
 -1       887 0.00000E+00 0.00000E+00 0.00000E+00
 -1       888 0.00000E+00 0.00000E+00 0.00000E+00
 -1       889 0.00000E+00 0.00000E+00 0.00000E+00
 -1       890 0.00000E+00 0.00000E+00 0.00000E+00
 -1       891 0.00000E+00 0.00000E+00 0.00000E+00
 -1       892 0.00000E+00 0.00000E+00 0.00000E+00
 -1       893 0.00000E+00 0.00000E+00 0.00000E+00
 -1       894 0.00000E+00 0.00000E+00 0.00000E+00
 -1       895 0.00000E+00 0.00000E+00 0.00000E+00
 -1       956 0.00000E+00 0.00000E+00 0.00000E+00
 -1       957 0.00000E+00 0.00000E+00 0.00000E+00
 -1       958 0.00000E+00 0.00000E+00 0.00000E+00
 -1       959 0.00000E+00 0.00000E+00 0.00000E+00
 -1       960 0.00000E+00 0.00000E+00 0.00000E+00
 -1       961 0.00000E+00 0.00000E+00 0.00000E+00
 -1       962 0.00000E+00 0.00000E+00 0.00000E+00
 -1       963 0.00000E+00 0.00000E+00 0.00000E+00
 -1       964 0.00000E+00 0.00000E+00 0.00000E+00
 -1       965 0.00000E+00 0.00000E+00 0.00000E+00
 -1       966 0.00000E+00 0.00000E+00 0.00000E+00
 -1       967 0.00000E+00 0.00000E+00 0.00000E+00
 -1       968 0.00000E+00 0.00000E+00 0.00000E+00
 -1       969 0.00000E+00 0.00000E+00 0.00000E+00
 -1       970 0.00000E+00 0.00000E+00 0.00000E+00
 -1       971 0.00000E+00 0.00000E+00 0.00000E+00
 -1       972 0.00000E+00 0.00000E+00 0.00000E+00
 -1       973 0.00000E+00 0.00000E+00 0.00000E+00
 -1       974 0.00000E+00 0.00000E+00 0.00000E+00
 -1       975 0.00000E+00 0.00000E+00 0.00000E+00
 -1       976 0.00000E+00 0.00000E+00 0.00000E+00
 -1       977 0.00000E+00 0.00000E+00 0.00000E+00
 -1       978 0.00000E+00 0.00000E+00 0.00000E+00
 -1       979 0.00000E+00 0.00000E+00 0.00000E+00
 -1       980 0.00000E+00 0.00000E+00 0.00000E+00
 -1       981 0.00000E+00 0.00000E+00 0.00000E+00
 -1       982 0.00000E+00 0.00000E+00 0.00000E+00
 -1       983 0.00000E+00 0.00000E+00 0.00000E+00
 -1       984 0.00000E+00 0.00000E+00 0.00000E+00
 -1       985 0.00000E+00 0.00000E+00 0.00000E+00
 -3
