    1C
    1UUSER                                                              
    1UDATE              11.october.2022                                 
    1UTIME              17:33:15                                        
    1UHOST                                                              
    1UPGM               CalculiX                                        
    1UVERSION           Version 2.20                             
    1UCOMPILETIME       Sun Jul 31 18:08:37 CEST 2022                    
    1UDIR                                                               
    1UDBN                                                               
    1UMAT    1MESH_MATERIAL                                             
    2C                           841                                     1
 -1         1 0.00000E+00 0.00000E+00 0.00000E+00
 -1         2 1.66667E-02 0.00000E+00 0.00000E+00
 -1         3 3.33333E-02 0.00000E+00 0.00000E+00
 -1         4 5.00000E-02 0.00000E+00 0.00000E+00
 -1         5 6.66667E-02 0.00000E+00 0.00000E+00
 -1         8 0.00000E+00 6.25000E-03 0.00000E+00
 -1         9 1.66667E-02 6.25000E-03 0.00000E+00
 -1        10 3.33333E-02 6.25000E-03 0.00000E+00
 -1        11 5.00000E-02 6.25000E-03 0.00000E+00
 -1        12 6.66667E-02 6.25000E-03 0.00000E+00
 -1        15 0.00000E+00 1.25000E-02 0.00000E+00
 -1        16 1.66667E-02 1.25000E-02 0.00000E+00
 -1        17 3.33333E-02 1.25000E-02 0.00000E+00
 -1        18 5.00000E-02 1.25000E-02 0.00000E+00
 -1        19 6.66667E-02 1.25000E-02 0.00000E+00
 -1        20 8.33333E-02 1.25000E-02 0.00000E+00
 -1        21 1.00000E-01 1.25000E-02 0.00000E+00
 -1        22 0.00000E+00 1.87500E-02 0.00000E+00
 -1        23 1.66667E-02 1.87500E-02 0.00000E+00
 -1        24 3.33333E-02 1.87500E-02 0.00000E+00
 -1        25 5.00000E-02 1.87500E-02 0.00000E+00
 -1        26 6.66667E-02 1.87500E-02 0.00000E+00
 -1        27 8.33333E-02 1.87500E-02 0.00000E+00
 -1        28 1.00000E-01 1.87500E-02 0.00000E+00
 -1        29 0.00000E+00 2.50000E-02 0.00000E+00
 -1        30 1.66667E-02 2.50000E-02 0.00000E+00
 -1        31 3.33333E-02 2.50000E-02 0.00000E+00
 -1        32 5.00000E-02 2.50000E-02 0.00000E+00
 -1        33 6.66667E-02 2.50000E-02 0.00000E+00
 -1        34 8.33333E-02 2.50000E-02 0.00000E+00
 -1        35 1.00000E-01 2.50000E-02 0.00000E+00
 -1        36 1.04167E-03 0.00000E+00 0.00000E+00
 -1        37 2.08333E-03 0.00000E+00 0.00000E+00
 -1        38 3.12500E-03 0.00000E+00 0.00000E+00
 -1        39 4.16667E-03 0.00000E+00 0.00000E+00
 -1        40 5.20833E-03 0.00000E+00 0.00000E+00
 -1        41 6.25000E-03 0.00000E+00 0.00000E+00
 -1        42 7.29167E-03 0.00000E+00 0.00000E+00
 -1        43 8.33333E-03 0.00000E+00 0.00000E+00
 -1        44 9.37500E-03 0.00000E+00 0.00000E+00
 -1        45 1.04167E-02 0.00000E+00 0.00000E+00
 -1        46 1.14583E-02 0.00000E+00 0.00000E+00
 -1        47 1.25000E-02 0.00000E+00 0.00000E+00
 -1        48 1.35417E-02 0.00000E+00 0.00000E+00
 -1        49 1.45833E-02 0.00000E+00 0.00000E+00
 -1        50 1.56250E-02 0.00000E+00 0.00000E+00
 -1        51 0.00000E+00 1.04167E-03 0.00000E+00
 -1        52 0.00000E+00 2.08333E-03 0.00000E+00
 -1        53 0.00000E+00 3.12500E-03 0.00000E+00
 -1        54 0.00000E+00 4.16667E-03 0.00000E+00
 -1        55 0.00000E+00 5.20833E-03 0.00000E+00
 -1        56 1.04167E-03 3.90630E-04 0.00000E+00
 -1        57 2.08333E-03 7.81250E-04 0.00000E+00
 -1        58 3.12500E-03 1.17188E-03 0.00000E+00
 -1        59 4.16667E-03 1.56250E-03 0.00000E+00
 -1        60 5.20833E-03 1.95312E-03 0.00000E+00
 -1        61 6.25000E-03 2.34375E-03 0.00000E+00
 -1        62 7.29167E-03 2.73438E-03 0.00000E+00
 -1        63 8.33333E-03 3.12500E-03 0.00000E+00
 -1        64 9.37500E-03 3.51563E-03 0.00000E+00
 -1        65 1.04167E-02 3.90625E-03 0.00000E+00
 -1        66 1.14583E-02 4.29688E-03 0.00000E+00
 -1        67 1.25000E-02 4.68750E-03 0.00000E+00
 -1        68 1.35417E-02 5.07813E-03 0.00000E+00
 -1        69 1.45833E-02 5.46875E-03 0.00000E+00
 -1        70 1.56250E-02 5.85938E-03 0.00000E+00
 -1        71 1.77083E-02 0.00000E+00 0.00000E+00
 -1        72 1.87500E-02 0.00000E+00 0.00000E+00
 -1        73 1.97917E-02 0.00000E+00 0.00000E+00
 -1        74 2.08333E-02 0.00000E+00 0.00000E+00
 -1        75 2.18750E-02 0.00000E+00 0.00000E+00
 -1        76 2.29167E-02 0.00000E+00 0.00000E+00
 -1        77 2.39583E-02 0.00000E+00 0.00000E+00
 -1        78 2.50000E-02 0.00000E+00 0.00000E+00
 -1        79 2.60417E-02 0.00000E+00 0.00000E+00
 -1        80 2.70833E-02 0.00000E+00 0.00000E+00
 -1        81 2.81250E-02 0.00000E+00 0.00000E+00
 -1        82 2.91667E-02 0.00000E+00 0.00000E+00
 -1        83 3.02083E-02 0.00000E+00 0.00000E+00
 -1        84 3.12500E-02 0.00000E+00 0.00000E+00
 -1        85 3.22917E-02 0.00000E+00 0.00000E+00
 -1        86 1.66667E-02 1.04167E-03 0.00000E+00
 -1        87 1.66667E-02 2.08333E-03 0.00000E+00
 -1        88 1.66667E-02 3.12500E-03 0.00000E+00
 -1        89 1.66667E-02 4.16667E-03 0.00000E+00
 -1        90 1.66667E-02 5.20833E-03 0.00000E+00
 -1        91 1.77083E-02 3.90630E-04 0.00000E+00
 -1        92 1.87500E-02 7.81250E-04 0.00000E+00
 -1        93 1.97917E-02 1.17188E-03 0.00000E+00
 -1        94 2.08333E-02 1.56250E-03 0.00000E+00
 -1        95 2.18750E-02 1.95312E-03 0.00000E+00
 -1        96 2.29167E-02 2.34375E-03 0.00000E+00
 -1        97 2.39583E-02 2.73438E-03 0.00000E+00
 -1        98 2.50000E-02 3.12500E-03 0.00000E+00
 -1        99 2.60417E-02 3.51563E-03 0.00000E+00
 -1       100 2.70833E-02 3.90625E-03 0.00000E+00
 -1       101 2.81250E-02 4.29688E-03 0.00000E+00
 -1       102 2.91667E-02 4.68750E-03 0.00000E+00
 -1       103 3.02083E-02 5.07813E-03 0.00000E+00
 -1       104 3.12500E-02 5.46875E-03 0.00000E+00
 -1       105 3.22917E-02 5.85938E-03 0.00000E+00
 -1       106 3.43750E-02 0.00000E+00 0.00000E+00
 -1       107 3.54167E-02 0.00000E+00 0.00000E+00
 -1       108 3.64583E-02 0.00000E+00 0.00000E+00
 -1       109 3.75000E-02 0.00000E+00 0.00000E+00
 -1       110 3.85417E-02 0.00000E+00 0.00000E+00
 -1       111 3.95833E-02 0.00000E+00 0.00000E+00
 -1       112 4.06250E-02 0.00000E+00 0.00000E+00
 -1       113 4.16667E-02 0.00000E+00 0.00000E+00
 -1       114 4.27083E-02 0.00000E+00 0.00000E+00
 -1       115 4.37500E-02 0.00000E+00 0.00000E+00
 -1       116 4.47917E-02 0.00000E+00 0.00000E+00
 -1       117 4.58333E-02 0.00000E+00 0.00000E+00
 -1       118 4.68750E-02 0.00000E+00 0.00000E+00
 -1       119 4.79167E-02 0.00000E+00 0.00000E+00
 -1       120 4.89583E-02 0.00000E+00 0.00000E+00
 -1       121 3.33333E-02 1.04167E-03 0.00000E+00
 -1       122 3.33333E-02 2.08333E-03 0.00000E+00
 -1       123 3.33333E-02 3.12500E-03 0.00000E+00
 -1       124 3.33333E-02 4.16667E-03 0.00000E+00
 -1       125 3.33333E-02 5.20833E-03 0.00000E+00
 -1       126 3.43750E-02 3.90630E-04 0.00000E+00
 -1       127 3.54167E-02 7.81250E-04 0.00000E+00
 -1       128 3.64583E-02 1.17188E-03 0.00000E+00
 -1       129 3.75000E-02 1.56250E-03 0.00000E+00
 -1       130 3.85417E-02 1.95312E-03 0.00000E+00
 -1       131 3.95833E-02 2.34375E-03 0.00000E+00
 -1       132 4.06250E-02 2.73438E-03 0.00000E+00
 -1       133 4.16667E-02 3.12500E-03 0.00000E+00
 -1       134 4.27083E-02 3.51563E-03 0.00000E+00
 -1       135 4.37500E-02 3.90625E-03 0.00000E+00
 -1       136 4.47917E-02 4.29688E-03 0.00000E+00
 -1       137 4.58333E-02 4.68750E-03 0.00000E+00
 -1       138 4.68750E-02 5.07813E-03 0.00000E+00
 -1       139 4.79167E-02 5.46875E-03 0.00000E+00
 -1       140 4.89583E-02 5.85938E-03 0.00000E+00
 -1       141 5.10417E-02 0.00000E+00 0.00000E+00
 -1       142 5.20833E-02 0.00000E+00 0.00000E+00
 -1       143 5.31250E-02 0.00000E+00 0.00000E+00
 -1       144 5.41667E-02 0.00000E+00 0.00000E+00
 -1       145 5.52083E-02 0.00000E+00 0.00000E+00
 -1       146 5.62500E-02 0.00000E+00 0.00000E+00
 -1       147 5.72917E-02 0.00000E+00 0.00000E+00
 -1       148 5.83333E-02 0.00000E+00 0.00000E+00
 -1       149 5.93750E-02 0.00000E+00 0.00000E+00
 -1       150 6.04167E-02 0.00000E+00 0.00000E+00
 -1       151 6.14583E-02 0.00000E+00 0.00000E+00
 -1       152 6.25000E-02 0.00000E+00 0.00000E+00
 -1       153 6.35417E-02 0.00000E+00 0.00000E+00
 -1       154 6.45833E-02 0.00000E+00 0.00000E+00
 -1       155 6.56250E-02 0.00000E+00 0.00000E+00
 -1       156 5.00000E-02 1.04167E-03 0.00000E+00
 -1       157 5.00000E-02 2.08333E-03 0.00000E+00
 -1       158 5.00000E-02 3.12500E-03 0.00000E+00
 -1       159 5.00000E-02 4.16667E-03 0.00000E+00
 -1       160 5.00000E-02 5.20833E-03 0.00000E+00
 -1       161 5.10417E-02 3.90630E-04 0.00000E+00
 -1       162 5.20833E-02 7.81250E-04 0.00000E+00
 -1       163 5.31250E-02 1.17188E-03 0.00000E+00
 -1       164 5.41667E-02 1.56250E-03 0.00000E+00
 -1       165 5.52083E-02 1.95312E-03 0.00000E+00
 -1       166 5.62500E-02 2.34375E-03 0.00000E+00
 -1       167 5.72917E-02 2.73438E-03 0.00000E+00
 -1       168 5.83333E-02 3.12500E-03 0.00000E+00
 -1       169 5.93750E-02 3.51563E-03 0.00000E+00
 -1       170 6.04167E-02 3.90625E-03 0.00000E+00
 -1       171 6.14583E-02 4.29688E-03 0.00000E+00
 -1       172 6.25000E-02 4.68750E-03 0.00000E+00
 -1       173 6.35417E-02 5.07813E-03 0.00000E+00
 -1       174 6.45833E-02 5.46875E-03 0.00000E+00
 -1       175 6.56250E-02 5.85938E-03 0.00000E+00
 -1       191 6.66667E-02 1.04167E-03 0.00000E+00
 -1       192 6.66667E-02 2.08333E-03 0.00000E+00
 -1       193 6.66667E-02 3.12500E-03 0.00000E+00
 -1       194 6.66667E-02 4.16667E-03 0.00000E+00
 -1       195 6.66667E-02 5.20833E-03 0.00000E+00
 -1       251 1.04167E-03 6.25000E-03 0.00000E+00
 -1       252 2.08333E-03 6.25000E-03 0.00000E+00
 -1       253 3.12500E-03 6.25000E-03 0.00000E+00
 -1       254 4.16667E-03 6.25000E-03 0.00000E+00
 -1       255 5.20833E-03 6.25000E-03 0.00000E+00
 -1       256 6.25000E-03 6.25000E-03 0.00000E+00
 -1       257 7.29167E-03 6.25000E-03 0.00000E+00
 -1       258 8.33333E-03 6.25000E-03 0.00000E+00
 -1       259 9.37500E-03 6.25000E-03 0.00000E+00
 -1       260 1.04167E-02 6.25000E-03 0.00000E+00
 -1       261 1.14583E-02 6.25000E-03 0.00000E+00
 -1       262 1.25000E-02 6.25000E-03 0.00000E+00
 -1       263 1.35417E-02 6.25000E-03 0.00000E+00
 -1       264 1.45833E-02 6.25000E-03 0.00000E+00
 -1       265 1.56250E-02 6.25000E-03 0.00000E+00
 -1       266 0.00000E+00 7.29167E-03 0.00000E+00
 -1       267 0.00000E+00 8.33333E-03 0.00000E+00
 -1       268 0.00000E+00 9.37500E-03 0.00000E+00
 -1       269 0.00000E+00 1.04167E-02 0.00000E+00
 -1       270 0.00000E+00 1.14583E-02 0.00000E+00
 -1       271 1.04167E-03 6.64063E-03 0.00000E+00
 -1       272 2.08333E-03 7.03125E-03 0.00000E+00
 -1       273 3.12500E-03 7.42188E-03 0.00000E+00
 -1       274 4.16667E-03 7.81250E-03 0.00000E+00
 -1       275 5.20833E-03 8.20313E-03 0.00000E+00
 -1       276 6.25000E-03 8.59375E-03 0.00000E+00
 -1       277 7.29167E-03 8.98438E-03 0.00000E+00
 -1       278 8.33333E-03 9.37500E-03 0.00000E+00
 -1       279 9.37500E-03 9.76562E-03 0.00000E+00
 -1       280 1.04167E-02 1.01562E-02 0.00000E+00
 -1       281 1.14583E-02 1.05469E-02 0.00000E+00
 -1       282 1.25000E-02 1.09375E-02 0.00000E+00
 -1       283 1.35417E-02 1.13281E-02 0.00000E+00
 -1       284 1.45833E-02 1.17188E-02 0.00000E+00
 -1       285 1.56250E-02 1.21094E-02 0.00000E+00
 -1       286 1.77083E-02 6.25000E-03 0.00000E+00
 -1       287 1.87500E-02 6.25000E-03 0.00000E+00
 -1       288 1.97917E-02 6.25000E-03 0.00000E+00
 -1       289 2.08333E-02 6.25000E-03 0.00000E+00
 -1       290 2.18750E-02 6.25000E-03 0.00000E+00
 -1       291 2.29167E-02 6.25000E-03 0.00000E+00
 -1       292 2.39583E-02 6.25000E-03 0.00000E+00
 -1       293 2.50000E-02 6.25000E-03 0.00000E+00
 -1       294 2.60417E-02 6.25000E-03 0.00000E+00
 -1       295 2.70833E-02 6.25000E-03 0.00000E+00
 -1       296 2.81250E-02 6.25000E-03 0.00000E+00
 -1       297 2.91667E-02 6.25000E-03 0.00000E+00
 -1       298 3.02083E-02 6.25000E-03 0.00000E+00
 -1       299 3.12500E-02 6.25000E-03 0.00000E+00
 -1       300 3.22917E-02 6.25000E-03 0.00000E+00
 -1       301 1.66667E-02 7.29167E-03 0.00000E+00
 -1       302 1.66667E-02 8.33333E-03 0.00000E+00
 -1       303 1.66667E-02 9.37500E-03 0.00000E+00
 -1       304 1.66667E-02 1.04167E-02 0.00000E+00
 -1       305 1.66667E-02 1.14583E-02 0.00000E+00
 -1       306 1.77083E-02 6.64063E-03 0.00000E+00
 -1       307 1.87500E-02 7.03125E-03 0.00000E+00
 -1       308 1.97917E-02 7.42188E-03 0.00000E+00
 -1       309 2.08333E-02 7.81250E-03 0.00000E+00
 -1       310 2.18750E-02 8.20313E-03 0.00000E+00
 -1       311 2.29167E-02 8.59375E-03 0.00000E+00
 -1       312 2.39583E-02 8.98438E-03 0.00000E+00
 -1       313 2.50000E-02 9.37500E-03 0.00000E+00
 -1       314 2.60417E-02 9.76562E-03 0.00000E+00
 -1       315 2.70833E-02 1.01562E-02 0.00000E+00
 -1       316 2.81250E-02 1.05469E-02 0.00000E+00
 -1       317 2.91667E-02 1.09375E-02 0.00000E+00
 -1       318 3.02083E-02 1.13281E-02 0.00000E+00
 -1       319 3.12500E-02 1.17188E-02 0.00000E+00
 -1       320 3.22917E-02 1.21094E-02 0.00000E+00
 -1       321 3.43750E-02 6.25000E-03 0.00000E+00
 -1       322 3.54167E-02 6.25000E-03 0.00000E+00
 -1       323 3.64583E-02 6.25000E-03 0.00000E+00
 -1       324 3.75000E-02 6.25000E-03 0.00000E+00
 -1       325 3.85417E-02 6.25000E-03 0.00000E+00
 -1       326 3.95833E-02 6.25000E-03 0.00000E+00
 -1       327 4.06250E-02 6.25000E-03 0.00000E+00
 -1       328 4.16667E-02 6.25000E-03 0.00000E+00
 -1       329 4.27083E-02 6.25000E-03 0.00000E+00
 -1       330 4.37500E-02 6.25000E-03 0.00000E+00
 -1       331 4.47917E-02 6.25000E-03 0.00000E+00
 -1       332 4.58333E-02 6.25000E-03 0.00000E+00
 -1       333 4.68750E-02 6.25000E-03 0.00000E+00
 -1       334 4.79167E-02 6.25000E-03 0.00000E+00
 -1       335 4.89583E-02 6.25000E-03 0.00000E+00
 -1       336 3.33333E-02 7.29167E-03 0.00000E+00
 -1       337 3.33333E-02 8.33333E-03 0.00000E+00
 -1       338 3.33333E-02 9.37500E-03 0.00000E+00
 -1       339 3.33333E-02 1.04167E-02 0.00000E+00
 -1       340 3.33333E-02 1.14583E-02 0.00000E+00
 -1       341 3.43750E-02 6.64063E-03 0.00000E+00
 -1       342 3.54167E-02 7.03125E-03 0.00000E+00
 -1       343 3.64583E-02 7.42188E-03 0.00000E+00
 -1       344 3.75000E-02 7.81250E-03 0.00000E+00
 -1       345 3.85417E-02 8.20313E-03 0.00000E+00
 -1       346 3.95833E-02 8.59375E-03 0.00000E+00
 -1       347 4.06250E-02 8.98438E-03 0.00000E+00
 -1       348 4.16667E-02 9.37500E-03 0.00000E+00
 -1       349 4.27083E-02 9.76562E-03 0.00000E+00
 -1       350 4.37500E-02 1.01562E-02 0.00000E+00
 -1       351 4.47917E-02 1.05469E-02 0.00000E+00
 -1       352 4.58333E-02 1.09375E-02 0.00000E+00
 -1       353 4.68750E-02 1.13281E-02 0.00000E+00
 -1       354 4.79167E-02 1.17188E-02 0.00000E+00
 -1       355 4.89583E-02 1.21094E-02 0.00000E+00
 -1       356 5.10417E-02 6.25000E-03 0.00000E+00
 -1       357 5.20833E-02 6.25000E-03 0.00000E+00
 -1       358 5.31250E-02 6.25000E-03 0.00000E+00
 -1       359 5.41667E-02 6.25000E-03 0.00000E+00
 -1       360 5.52083E-02 6.25000E-03 0.00000E+00
 -1       361 5.62500E-02 6.25000E-03 0.00000E+00
 -1       362 5.72917E-02 6.25000E-03 0.00000E+00
 -1       363 5.83333E-02 6.25000E-03 0.00000E+00
 -1       364 5.93750E-02 6.25000E-03 0.00000E+00
 -1       365 6.04167E-02 6.25000E-03 0.00000E+00
 -1       366 6.14583E-02 6.25000E-03 0.00000E+00
 -1       367 6.25000E-02 6.25000E-03 0.00000E+00
 -1       368 6.35417E-02 6.25000E-03 0.00000E+00
 -1       369 6.45833E-02 6.25000E-03 0.00000E+00
 -1       370 6.56250E-02 6.25000E-03 0.00000E+00
 -1       371 5.00000E-02 7.29167E-03 0.00000E+00
 -1       372 5.00000E-02 8.33333E-03 0.00000E+00
 -1       373 5.00000E-02 9.37500E-03 0.00000E+00
 -1       374 5.00000E-02 1.04167E-02 0.00000E+00
 -1       375 5.00000E-02 1.14583E-02 0.00000E+00
 -1       376 5.10417E-02 6.64063E-03 0.00000E+00
 -1       377 5.20833E-02 7.03125E-03 0.00000E+00
 -1       378 5.31250E-02 7.42188E-03 0.00000E+00
 -1       379 5.41667E-02 7.81250E-03 0.00000E+00
 -1       380 5.52083E-02 8.20313E-03 0.00000E+00
 -1       381 5.62500E-02 8.59375E-03 0.00000E+00
 -1       382 5.72917E-02 8.98438E-03 0.00000E+00
 -1       383 5.83333E-02 9.37500E-03 0.00000E+00
 -1       384 5.93750E-02 9.76562E-03 0.00000E+00
 -1       385 6.04167E-02 1.01562E-02 0.00000E+00
 -1       386 6.14583E-02 1.05469E-02 0.00000E+00
 -1       387 6.25000E-02 1.09375E-02 0.00000E+00
 -1       388 6.35417E-02 1.13281E-02 0.00000E+00
 -1       389 6.45833E-02 1.17188E-02 0.00000E+00
 -1       390 6.56250E-02 1.21094E-02 0.00000E+00
 -1       406 6.66667E-02 7.29167E-03 0.00000E+00
 -1       407 6.66667E-02 8.33333E-03 0.00000E+00
 -1       408 6.66667E-02 9.37500E-03 0.00000E+00
 -1       409 6.66667E-02 1.04167E-02 0.00000E+00
 -1       410 6.66667E-02 1.14583E-02 0.00000E+00
 -1       466 1.04167E-03 1.25000E-02 0.00000E+00
 -1       467 2.08333E-03 1.25000E-02 0.00000E+00
 -1       468 3.12500E-03 1.25000E-02 0.00000E+00
 -1       469 4.16667E-03 1.25000E-02 0.00000E+00
 -1       470 5.20833E-03 1.25000E-02 0.00000E+00
 -1       471 6.25000E-03 1.25000E-02 0.00000E+00
 -1       472 7.29167E-03 1.25000E-02 0.00000E+00
 -1       473 8.33333E-03 1.25000E-02 0.00000E+00
 -1       474 9.37500E-03 1.25000E-02 0.00000E+00
 -1       475 1.04167E-02 1.25000E-02 0.00000E+00
 -1       476 1.14583E-02 1.25000E-02 0.00000E+00
 -1       477 1.25000E-02 1.25000E-02 0.00000E+00
 -1       478 1.35417E-02 1.25000E-02 0.00000E+00
 -1       479 1.45833E-02 1.25000E-02 0.00000E+00
 -1       480 1.56250E-02 1.25000E-02 0.00000E+00
 -1       481 0.00000E+00 1.35417E-02 0.00000E+00
 -1       482 0.00000E+00 1.45833E-02 0.00000E+00
 -1       483 0.00000E+00 1.56250E-02 0.00000E+00
 -1       484 0.00000E+00 1.66667E-02 0.00000E+00
 -1       485 0.00000E+00 1.77083E-02 0.00000E+00
 -1       486 1.04167E-03 1.28906E-02 0.00000E+00
 -1       487 2.08333E-03 1.32813E-02 0.00000E+00
 -1       488 3.12500E-03 1.36719E-02 0.00000E+00
 -1       489 4.16667E-03 1.40625E-02 0.00000E+00
 -1       490 5.20833E-03 1.44531E-02 0.00000E+00
 -1       491 6.25000E-03 1.48437E-02 0.00000E+00
 -1       492 7.29167E-03 1.52344E-02 0.00000E+00
 -1       493 8.33333E-03 1.56250E-02 0.00000E+00
 -1       494 9.37500E-03 1.60156E-02 0.00000E+00
 -1       495 1.04167E-02 1.64062E-02 0.00000E+00
 -1       496 1.14583E-02 1.67969E-02 0.00000E+00
 -1       497 1.25000E-02 1.71875E-02 0.00000E+00
 -1       498 1.35417E-02 1.75781E-02 0.00000E+00
 -1       499 1.45833E-02 1.79687E-02 0.00000E+00
 -1       500 1.56250E-02 1.83594E-02 0.00000E+00
 -1       501 1.77083E-02 1.25000E-02 0.00000E+00
 -1       502 1.87500E-02 1.25000E-02 0.00000E+00
 -1       503 1.97917E-02 1.25000E-02 0.00000E+00
 -1       504 2.08333E-02 1.25000E-02 0.00000E+00
 -1       505 2.18750E-02 1.25000E-02 0.00000E+00
 -1       506 2.29167E-02 1.25000E-02 0.00000E+00
 -1       507 2.39583E-02 1.25000E-02 0.00000E+00
 -1       508 2.50000E-02 1.25000E-02 0.00000E+00
 -1       509 2.60417E-02 1.25000E-02 0.00000E+00
 -1       510 2.70833E-02 1.25000E-02 0.00000E+00
 -1       511 2.81250E-02 1.25000E-02 0.00000E+00
 -1       512 2.91667E-02 1.25000E-02 0.00000E+00
 -1       513 3.02083E-02 1.25000E-02 0.00000E+00
 -1       514 3.12500E-02 1.25000E-02 0.00000E+00
 -1       515 3.22917E-02 1.25000E-02 0.00000E+00
 -1       516 1.66667E-02 1.35417E-02 0.00000E+00
 -1       517 1.66667E-02 1.45833E-02 0.00000E+00
 -1       518 1.66667E-02 1.56250E-02 0.00000E+00
 -1       519 1.66667E-02 1.66667E-02 0.00000E+00
 -1       520 1.66667E-02 1.77083E-02 0.00000E+00
 -1       521 1.77083E-02 1.28906E-02 0.00000E+00
 -1       522 1.87500E-02 1.32813E-02 0.00000E+00
 -1       523 1.97917E-02 1.36719E-02 0.00000E+00
 -1       524 2.08333E-02 1.40625E-02 0.00000E+00
 -1       525 2.18750E-02 1.44531E-02 0.00000E+00
 -1       526 2.29167E-02 1.48437E-02 0.00000E+00
 -1       527 2.39583E-02 1.52344E-02 0.00000E+00
 -1       528 2.50000E-02 1.56250E-02 0.00000E+00
 -1       529 2.60417E-02 1.60156E-02 0.00000E+00
 -1       530 2.70833E-02 1.64062E-02 0.00000E+00
 -1       531 2.81250E-02 1.67969E-02 0.00000E+00
 -1       532 2.91667E-02 1.71875E-02 0.00000E+00
 -1       533 3.02083E-02 1.75781E-02 0.00000E+00
 -1       534 3.12500E-02 1.79687E-02 0.00000E+00
 -1       535 3.22917E-02 1.83594E-02 0.00000E+00
 -1       536 3.43750E-02 1.25000E-02 0.00000E+00
 -1       537 3.54167E-02 1.25000E-02 0.00000E+00
 -1       538 3.64583E-02 1.25000E-02 0.00000E+00
 -1       539 3.75000E-02 1.25000E-02 0.00000E+00
 -1       540 3.85417E-02 1.25000E-02 0.00000E+00
 -1       541 3.95833E-02 1.25000E-02 0.00000E+00
 -1       542 4.06250E-02 1.25000E-02 0.00000E+00
 -1       543 4.16667E-02 1.25000E-02 0.00000E+00
 -1       544 4.27083E-02 1.25000E-02 0.00000E+00
 -1       545 4.37500E-02 1.25000E-02 0.00000E+00
 -1       546 4.47917E-02 1.25000E-02 0.00000E+00
 -1       547 4.58333E-02 1.25000E-02 0.00000E+00
 -1       548 4.68750E-02 1.25000E-02 0.00000E+00
 -1       549 4.79167E-02 1.25000E-02 0.00000E+00
 -1       550 4.89583E-02 1.25000E-02 0.00000E+00
 -1       551 3.33333E-02 1.35417E-02 0.00000E+00
 -1       552 3.33333E-02 1.45833E-02 0.00000E+00
 -1       553 3.33333E-02 1.56250E-02 0.00000E+00
 -1       554 3.33333E-02 1.66667E-02 0.00000E+00
 -1       555 3.33333E-02 1.77083E-02 0.00000E+00
 -1       556 3.43750E-02 1.28906E-02 0.00000E+00
 -1       557 3.54167E-02 1.32813E-02 0.00000E+00
 -1       558 3.64583E-02 1.36719E-02 0.00000E+00
 -1       559 3.75000E-02 1.40625E-02 0.00000E+00
 -1       560 3.85417E-02 1.44531E-02 0.00000E+00
 -1       561 3.95833E-02 1.48437E-02 0.00000E+00
 -1       562 4.06250E-02 1.52344E-02 0.00000E+00
 -1       563 4.16667E-02 1.56250E-02 0.00000E+00
 -1       564 4.27083E-02 1.60156E-02 0.00000E+00
 -1       565 4.37500E-02 1.64062E-02 0.00000E+00
 -1       566 4.47917E-02 1.67969E-02 0.00000E+00
 -1       567 4.58333E-02 1.71875E-02 0.00000E+00
 -1       568 4.68750E-02 1.75781E-02 0.00000E+00
 -1       569 4.79167E-02 1.79687E-02 0.00000E+00
 -1       570 4.89583E-02 1.83594E-02 0.00000E+00
 -1       571 5.10417E-02 1.25000E-02 0.00000E+00
 -1       572 5.20833E-02 1.25000E-02 0.00000E+00
 -1       573 5.31250E-02 1.25000E-02 0.00000E+00
 -1       574 5.41667E-02 1.25000E-02 0.00000E+00
 -1       575 5.52083E-02 1.25000E-02 0.00000E+00
 -1       576 5.62500E-02 1.25000E-02 0.00000E+00
 -1       577 5.72917E-02 1.25000E-02 0.00000E+00
 -1       578 5.83333E-02 1.25000E-02 0.00000E+00
 -1       579 5.93750E-02 1.25000E-02 0.00000E+00
 -1       580 6.04167E-02 1.25000E-02 0.00000E+00
 -1       581 6.14583E-02 1.25000E-02 0.00000E+00
 -1       582 6.25000E-02 1.25000E-02 0.00000E+00
 -1       583 6.35417E-02 1.25000E-02 0.00000E+00
 -1       584 6.45833E-02 1.25000E-02 0.00000E+00
 -1       585 6.56250E-02 1.25000E-02 0.00000E+00
 -1       586 5.00000E-02 1.35417E-02 0.00000E+00
 -1       587 5.00000E-02 1.45833E-02 0.00000E+00
 -1       588 5.00000E-02 1.56250E-02 0.00000E+00
 -1       589 5.00000E-02 1.66667E-02 0.00000E+00
 -1       590 5.00000E-02 1.77083E-02 0.00000E+00
 -1       591 5.10417E-02 1.28906E-02 0.00000E+00
 -1       592 5.20833E-02 1.32813E-02 0.00000E+00
 -1       593 5.31250E-02 1.36719E-02 0.00000E+00
 -1       594 5.41667E-02 1.40625E-02 0.00000E+00
 -1       595 5.52083E-02 1.44531E-02 0.00000E+00
 -1       596 5.62500E-02 1.48437E-02 0.00000E+00
 -1       597 5.72917E-02 1.52344E-02 0.00000E+00
 -1       598 5.83333E-02 1.56250E-02 0.00000E+00
 -1       599 5.93750E-02 1.60156E-02 0.00000E+00
 -1       600 6.04167E-02 1.64062E-02 0.00000E+00
 -1       601 6.14583E-02 1.67969E-02 0.00000E+00
 -1       602 6.25000E-02 1.71875E-02 0.00000E+00
 -1       603 6.35417E-02 1.75781E-02 0.00000E+00
 -1       604 6.45833E-02 1.79687E-02 0.00000E+00
 -1       605 6.56250E-02 1.83594E-02 0.00000E+00
 -1       606 6.77083E-02 1.25000E-02 0.00000E+00
 -1       607 6.87500E-02 1.25000E-02 0.00000E+00
 -1       608 6.97917E-02 1.25000E-02 0.00000E+00
 -1       609 7.08333E-02 1.25000E-02 0.00000E+00
 -1       610 7.18750E-02 1.25000E-02 0.00000E+00
 -1       611 7.29167E-02 1.25000E-02 0.00000E+00
 -1       612 7.39583E-02 1.25000E-02 0.00000E+00
 -1       613 7.50000E-02 1.25000E-02 0.00000E+00
 -1       614 7.60417E-02 1.25000E-02 0.00000E+00
 -1       615 7.70833E-02 1.25000E-02 0.00000E+00
 -1       616 7.81250E-02 1.25000E-02 0.00000E+00
 -1       617 7.91667E-02 1.25000E-02 0.00000E+00
 -1       618 8.02083E-02 1.25000E-02 0.00000E+00
 -1       619 8.12500E-02 1.25000E-02 0.00000E+00
 -1       620 8.22917E-02 1.25000E-02 0.00000E+00
 -1       621 6.66667E-02 1.35417E-02 0.00000E+00
 -1       622 6.66667E-02 1.45833E-02 0.00000E+00
 -1       623 6.66667E-02 1.56250E-02 0.00000E+00
 -1       624 6.66667E-02 1.66667E-02 0.00000E+00
 -1       625 6.66667E-02 1.77083E-02 0.00000E+00
 -1       626 6.77083E-02 1.28906E-02 0.00000E+00
 -1       627 6.87500E-02 1.32813E-02 0.00000E+00
 -1       628 6.97917E-02 1.36719E-02 0.00000E+00
 -1       629 7.08333E-02 1.40625E-02 0.00000E+00
 -1       630 7.18750E-02 1.44531E-02 0.00000E+00
 -1       631 7.29167E-02 1.48437E-02 0.00000E+00
 -1       632 7.39583E-02 1.52344E-02 0.00000E+00
 -1       633 7.50000E-02 1.56250E-02 0.00000E+00
 -1       634 7.60417E-02 1.60156E-02 0.00000E+00
 -1       635 7.70833E-02 1.64062E-02 0.00000E+00
 -1       636 7.81250E-02 1.67969E-02 0.00000E+00
 -1       637 7.91667E-02 1.71875E-02 0.00000E+00
 -1       638 8.02083E-02 1.75781E-02 0.00000E+00
 -1       639 8.12500E-02 1.79687E-02 0.00000E+00
 -1       640 8.22917E-02 1.83594E-02 0.00000E+00
 -1       641 8.43750E-02 1.25000E-02 0.00000E+00
 -1       642 8.54167E-02 1.25000E-02 0.00000E+00
 -1       643 8.64583E-02 1.25000E-02 0.00000E+00
 -1       644 8.75000E-02 1.25000E-02 0.00000E+00
 -1       645 8.85417E-02 1.25000E-02 0.00000E+00
 -1       646 8.95833E-02 1.25000E-02 0.00000E+00
 -1       647 9.06250E-02 1.25000E-02 0.00000E+00
 -1       648 9.16667E-02 1.25000E-02 0.00000E+00
 -1       649 9.27083E-02 1.25000E-02 0.00000E+00
 -1       650 9.37500E-02 1.25000E-02 0.00000E+00
 -1       651 9.47917E-02 1.25000E-02 0.00000E+00
 -1       652 9.58333E-02 1.25000E-02 0.00000E+00
 -1       653 9.68750E-02 1.25000E-02 0.00000E+00
 -1       654 9.79167E-02 1.25000E-02 0.00000E+00
 -1       655 9.89583E-02 1.25000E-02 0.00000E+00
 -1       656 8.33333E-02 1.35417E-02 0.00000E+00
 -1       657 8.33333E-02 1.45833E-02 0.00000E+00
 -1       658 8.33333E-02 1.56250E-02 0.00000E+00
 -1       659 8.33333E-02 1.66667E-02 0.00000E+00
 -1       660 8.33333E-02 1.77083E-02 0.00000E+00
 -1       661 8.43750E-02 1.28906E-02 0.00000E+00
 -1       662 8.54167E-02 1.32813E-02 0.00000E+00
 -1       663 8.64583E-02 1.36719E-02 0.00000E+00
 -1       664 8.75000E-02 1.40625E-02 0.00000E+00
 -1       665 8.85417E-02 1.44531E-02 0.00000E+00
 -1       666 8.95833E-02 1.48437E-02 0.00000E+00
 -1       667 9.06250E-02 1.52344E-02 0.00000E+00
 -1       668 9.16667E-02 1.56250E-02 0.00000E+00
 -1       669 9.27083E-02 1.60156E-02 0.00000E+00
 -1       670 9.37500E-02 1.64062E-02 0.00000E+00
 -1       671 9.47917E-02 1.67969E-02 0.00000E+00
 -1       672 9.58333E-02 1.71875E-02 0.00000E+00
 -1       673 9.68750E-02 1.75781E-02 0.00000E+00
 -1       674 9.79167E-02 1.79687E-02 0.00000E+00
 -1       675 9.89583E-02 1.83594E-02 0.00000E+00
 -1       676 1.00000E-01 1.35417E-02 0.00000E+00
 -1       677 1.00000E-01 1.45833E-02 0.00000E+00
 -1       678 1.00000E-01 1.56250E-02 0.00000E+00
 -1       679 1.00000E-01 1.66667E-02 0.00000E+00
 -1       680 1.00000E-01 1.77083E-02 0.00000E+00
 -1       681 1.04167E-03 1.87500E-02 0.00000E+00
 -1       682 2.08333E-03 1.87500E-02 0.00000E+00
 -1       683 3.12500E-03 1.87500E-02 0.00000E+00
 -1       684 4.16667E-03 1.87500E-02 0.00000E+00
 -1       685 5.20833E-03 1.87500E-02 0.00000E+00
 -1       686 6.25000E-03 1.87500E-02 0.00000E+00
 -1       687 7.29167E-03 1.87500E-02 0.00000E+00
 -1       688 8.33333E-03 1.87500E-02 0.00000E+00
 -1       689 9.37500E-03 1.87500E-02 0.00000E+00
 -1       690 1.04167E-02 1.87500E-02 0.00000E+00
 -1       691 1.14583E-02 1.87500E-02 0.00000E+00
 -1       692 1.25000E-02 1.87500E-02 0.00000E+00
 -1       693 1.35417E-02 1.87500E-02 0.00000E+00
 -1       694 1.45833E-02 1.87500E-02 0.00000E+00
 -1       695 1.56250E-02 1.87500E-02 0.00000E+00
 -1       696 0.00000E+00 1.97917E-02 0.00000E+00
 -1       697 0.00000E+00 2.08333E-02 0.00000E+00
 -1       698 0.00000E+00 2.18750E-02 0.00000E+00
 -1       699 0.00000E+00 2.29167E-02 0.00000E+00
 -1       700 0.00000E+00 2.39583E-02 0.00000E+00
 -1       701 1.04167E-03 1.91406E-02 0.00000E+00
 -1       702 2.08333E-03 1.95312E-02 0.00000E+00
 -1       703 3.12500E-03 1.99219E-02 0.00000E+00
 -1       704 4.16667E-03 2.03125E-02 0.00000E+00
 -1       705 5.20833E-03 2.07031E-02 0.00000E+00
 -1       706 6.25000E-03 2.10938E-02 0.00000E+00
 -1       707 7.29167E-03 2.14844E-02 0.00000E+00
 -1       708 8.33333E-03 2.18750E-02 0.00000E+00
 -1       709 9.37500E-03 2.22656E-02 0.00000E+00
 -1       710 1.04167E-02 2.26563E-02 0.00000E+00
 -1       711 1.14583E-02 2.30469E-02 0.00000E+00
 -1       712 1.25000E-02 2.34375E-02 0.00000E+00
 -1       713 1.35417E-02 2.38281E-02 0.00000E+00
 -1       714 1.45833E-02 2.42187E-02 0.00000E+00
 -1       715 1.56250E-02 2.46094E-02 0.00000E+00
 -1       716 1.77083E-02 1.87500E-02 0.00000E+00
 -1       717 1.87500E-02 1.87500E-02 0.00000E+00
 -1       718 1.97917E-02 1.87500E-02 0.00000E+00
 -1       719 2.08333E-02 1.87500E-02 0.00000E+00
 -1       720 2.18750E-02 1.87500E-02 0.00000E+00
 -1       721 2.29167E-02 1.87500E-02 0.00000E+00
 -1       722 2.39583E-02 1.87500E-02 0.00000E+00
 -1       723 2.50000E-02 1.87500E-02 0.00000E+00
 -1       724 2.60417E-02 1.87500E-02 0.00000E+00
 -1       725 2.70833E-02 1.87500E-02 0.00000E+00
 -1       726 2.81250E-02 1.87500E-02 0.00000E+00
 -1       727 2.91667E-02 1.87500E-02 0.00000E+00
 -1       728 3.02083E-02 1.87500E-02 0.00000E+00
 -1       729 3.12500E-02 1.87500E-02 0.00000E+00
 -1       730 3.22917E-02 1.87500E-02 0.00000E+00
 -1       731 1.66667E-02 1.97917E-02 0.00000E+00
 -1       732 1.66667E-02 2.08333E-02 0.00000E+00
 -1       733 1.66667E-02 2.18750E-02 0.00000E+00
 -1       734 1.66667E-02 2.29167E-02 0.00000E+00
 -1       735 1.66667E-02 2.39583E-02 0.00000E+00
 -1       736 1.77083E-02 1.91406E-02 0.00000E+00
 -1       737 1.87500E-02 1.95312E-02 0.00000E+00
 -1       738 1.97917E-02 1.99219E-02 0.00000E+00
 -1       739 2.08333E-02 2.03125E-02 0.00000E+00
 -1       740 2.18750E-02 2.07031E-02 0.00000E+00
 -1       741 2.29167E-02 2.10938E-02 0.00000E+00
 -1       742 2.39583E-02 2.14844E-02 0.00000E+00
 -1       743 2.50000E-02 2.18750E-02 0.00000E+00
 -1       744 2.60417E-02 2.22656E-02 0.00000E+00
 -1       745 2.70833E-02 2.26563E-02 0.00000E+00
 -1       746 2.81250E-02 2.30469E-02 0.00000E+00
 -1       747 2.91667E-02 2.34375E-02 0.00000E+00
 -1       748 3.02083E-02 2.38281E-02 0.00000E+00
 -1       749 3.12500E-02 2.42187E-02 0.00000E+00
 -1       750 3.22917E-02 2.46094E-02 0.00000E+00
 -1       751 3.43750E-02 1.87500E-02 0.00000E+00
 -1       752 3.54167E-02 1.87500E-02 0.00000E+00
 -1       753 3.64583E-02 1.87500E-02 0.00000E+00
 -1       754 3.75000E-02 1.87500E-02 0.00000E+00
 -1       755 3.85417E-02 1.87500E-02 0.00000E+00
 -1       756 3.95833E-02 1.87500E-02 0.00000E+00
 -1       757 4.06250E-02 1.87500E-02 0.00000E+00
 -1       758 4.16667E-02 1.87500E-02 0.00000E+00
 -1       759 4.27083E-02 1.87500E-02 0.00000E+00
 -1       760 4.37500E-02 1.87500E-02 0.00000E+00
 -1       761 4.47917E-02 1.87500E-02 0.00000E+00
 -1       762 4.58333E-02 1.87500E-02 0.00000E+00
 -1       763 4.68750E-02 1.87500E-02 0.00000E+00
 -1       764 4.79167E-02 1.87500E-02 0.00000E+00
 -1       765 4.89583E-02 1.87500E-02 0.00000E+00
 -1       766 3.33333E-02 1.97917E-02 0.00000E+00
 -1       767 3.33333E-02 2.08333E-02 0.00000E+00
 -1       768 3.33333E-02 2.18750E-02 0.00000E+00
 -1       769 3.33333E-02 2.29167E-02 0.00000E+00
 -1       770 3.33333E-02 2.39583E-02 0.00000E+00
 -1       771 3.43750E-02 1.91406E-02 0.00000E+00
 -1       772 3.54167E-02 1.95312E-02 0.00000E+00
 -1       773 3.64583E-02 1.99219E-02 0.00000E+00
 -1       774 3.75000E-02 2.03125E-02 0.00000E+00
 -1       775 3.85417E-02 2.07031E-02 0.00000E+00
 -1       776 3.95833E-02 2.10938E-02 0.00000E+00
 -1       777 4.06250E-02 2.14844E-02 0.00000E+00
 -1       778 4.16667E-02 2.18750E-02 0.00000E+00
 -1       779 4.27083E-02 2.22656E-02 0.00000E+00
 -1       780 4.37500E-02 2.26563E-02 0.00000E+00
 -1       781 4.47917E-02 2.30469E-02 0.00000E+00
 -1       782 4.58333E-02 2.34375E-02 0.00000E+00
 -1       783 4.68750E-02 2.38281E-02 0.00000E+00
 -1       784 4.79167E-02 2.42187E-02 0.00000E+00
 -1       785 4.89583E-02 2.46094E-02 0.00000E+00
 -1       786 5.10417E-02 1.87500E-02 0.00000E+00
 -1       787 5.20833E-02 1.87500E-02 0.00000E+00
 -1       788 5.31250E-02 1.87500E-02 0.00000E+00
 -1       789 5.41667E-02 1.87500E-02 0.00000E+00
 -1       790 5.52083E-02 1.87500E-02 0.00000E+00
 -1       791 5.62500E-02 1.87500E-02 0.00000E+00
 -1       792 5.72917E-02 1.87500E-02 0.00000E+00
 -1       793 5.83333E-02 1.87500E-02 0.00000E+00
 -1       794 5.93750E-02 1.87500E-02 0.00000E+00
 -1       795 6.04167E-02 1.87500E-02 0.00000E+00
 -1       796 6.14583E-02 1.87500E-02 0.00000E+00
 -1       797 6.25000E-02 1.87500E-02 0.00000E+00
 -1       798 6.35417E-02 1.87500E-02 0.00000E+00
 -1       799 6.45833E-02 1.87500E-02 0.00000E+00
 -1       800 6.56250E-02 1.87500E-02 0.00000E+00
 -1       801 5.00000E-02 1.97917E-02 0.00000E+00
 -1       802 5.00000E-02 2.08333E-02 0.00000E+00
 -1       803 5.00000E-02 2.18750E-02 0.00000E+00
 -1       804 5.00000E-02 2.29167E-02 0.00000E+00
 -1       805 5.00000E-02 2.39583E-02 0.00000E+00
 -1       806 5.10417E-02 1.91406E-02 0.00000E+00
 -1       807 5.20833E-02 1.95312E-02 0.00000E+00
 -1       808 5.31250E-02 1.99219E-02 0.00000E+00
 -1       809 5.41667E-02 2.03125E-02 0.00000E+00
 -1       810 5.52083E-02 2.07031E-02 0.00000E+00
 -1       811 5.62500E-02 2.10938E-02 0.00000E+00
 -1       812 5.72917E-02 2.14844E-02 0.00000E+00
 -1       813 5.83333E-02 2.18750E-02 0.00000E+00
 -1       814 5.93750E-02 2.22656E-02 0.00000E+00
 -1       815 6.04167E-02 2.26563E-02 0.00000E+00
 -1       816 6.14583E-02 2.30469E-02 0.00000E+00
 -1       817 6.25000E-02 2.34375E-02 0.00000E+00
 -1       818 6.35417E-02 2.38281E-02 0.00000E+00
 -1       819 6.45833E-02 2.42187E-02 0.00000E+00
 -1       820 6.56250E-02 2.46094E-02 0.00000E+00
 -1       821 6.77083E-02 1.87500E-02 0.00000E+00
 -1       822 6.87500E-02 1.87500E-02 0.00000E+00
 -1       823 6.97917E-02 1.87500E-02 0.00000E+00
 -1       824 7.08333E-02 1.87500E-02 0.00000E+00
 -1       825 7.18750E-02 1.87500E-02 0.00000E+00
 -1       826 7.29167E-02 1.87500E-02 0.00000E+00
 -1       827 7.39583E-02 1.87500E-02 0.00000E+00
 -1       828 7.50000E-02 1.87500E-02 0.00000E+00
 -1       829 7.60417E-02 1.87500E-02 0.00000E+00
 -1       830 7.70833E-02 1.87500E-02 0.00000E+00
 -1       831 7.81250E-02 1.87500E-02 0.00000E+00
 -1       832 7.91667E-02 1.87500E-02 0.00000E+00
 -1       833 8.02083E-02 1.87500E-02 0.00000E+00
 -1       834 8.12500E-02 1.87500E-02 0.00000E+00
 -1       835 8.22917E-02 1.87500E-02 0.00000E+00
 -1       836 6.66667E-02 1.97917E-02 0.00000E+00
 -1       837 6.66667E-02 2.08333E-02 0.00000E+00
 -1       838 6.66667E-02 2.18750E-02 0.00000E+00
 -1       839 6.66667E-02 2.29167E-02 0.00000E+00
 -1       840 6.66667E-02 2.39583E-02 0.00000E+00
 -1       841 6.77083E-02 1.91406E-02 0.00000E+00
 -1       842 6.87500E-02 1.95312E-02 0.00000E+00
 -1       843 6.97917E-02 1.99219E-02 0.00000E+00
 -1       844 7.08333E-02 2.03125E-02 0.00000E+00
 -1       845 7.18750E-02 2.07031E-02 0.00000E+00
 -1       846 7.29167E-02 2.10938E-02 0.00000E+00
 -1       847 7.39583E-02 2.14844E-02 0.00000E+00
 -1       848 7.50000E-02 2.18750E-02 0.00000E+00
 -1       849 7.60417E-02 2.22656E-02 0.00000E+00
 -1       850 7.70833E-02 2.26563E-02 0.00000E+00
 -1       851 7.81250E-02 2.30469E-02 0.00000E+00
 -1       852 7.91667E-02 2.34375E-02 0.00000E+00
 -1       853 8.02083E-02 2.38281E-02 0.00000E+00
 -1       854 8.12500E-02 2.42187E-02 0.00000E+00
 -1       855 8.22917E-02 2.46094E-02 0.00000E+00
 -1       856 8.43750E-02 1.87500E-02 0.00000E+00
 -1       857 8.54167E-02 1.87500E-02 0.00000E+00
 -1       858 8.64583E-02 1.87500E-02 0.00000E+00
 -1       859 8.75000E-02 1.87500E-02 0.00000E+00
 -1       860 8.85417E-02 1.87500E-02 0.00000E+00
 -1       861 8.95833E-02 1.87500E-02 0.00000E+00
 -1       862 9.06250E-02 1.87500E-02 0.00000E+00
 -1       863 9.16667E-02 1.87500E-02 0.00000E+00
 -1       864 9.27083E-02 1.87500E-02 0.00000E+00
 -1       865 9.37500E-02 1.87500E-02 0.00000E+00
 -1       866 9.47917E-02 1.87500E-02 0.00000E+00
 -1       867 9.58333E-02 1.87500E-02 0.00000E+00
 -1       868 9.68750E-02 1.87500E-02 0.00000E+00
 -1       869 9.79167E-02 1.87500E-02 0.00000E+00
 -1       870 9.89583E-02 1.87500E-02 0.00000E+00
 -1       871 8.33333E-02 1.97917E-02 0.00000E+00
 -1       872 8.33333E-02 2.08333E-02 0.00000E+00
 -1       873 8.33333E-02 2.18750E-02 0.00000E+00
 -1       874 8.33333E-02 2.29167E-02 0.00000E+00
 -1       875 8.33333E-02 2.39583E-02 0.00000E+00
 -1       876 8.43750E-02 1.91406E-02 0.00000E+00
 -1       877 8.54167E-02 1.95312E-02 0.00000E+00
 -1       878 8.64583E-02 1.99219E-02 0.00000E+00
 -1       879 8.75000E-02 2.03125E-02 0.00000E+00
 -1       880 8.85417E-02 2.07031E-02 0.00000E+00
 -1       881 8.95833E-02 2.10938E-02 0.00000E+00
 -1       882 9.06250E-02 2.14844E-02 0.00000E+00
 -1       883 9.16667E-02 2.18750E-02 0.00000E+00
 -1       884 9.27083E-02 2.22656E-02 0.00000E+00
 -1       885 9.37500E-02 2.26563E-02 0.00000E+00
 -1       886 9.47917E-02 2.30469E-02 0.00000E+00
 -1       887 9.58333E-02 2.34375E-02 0.00000E+00
 -1       888 9.68750E-02 2.38281E-02 0.00000E+00
 -1       889 9.79167E-02 2.42187E-02 0.00000E+00
 -1       890 9.89583E-02 2.46094E-02 0.00000E+00
 -1       891 1.00000E-01 1.97917E-02 0.00000E+00
 -1       892 1.00000E-01 2.08333E-02 0.00000E+00
 -1       893 1.00000E-01 2.18750E-02 0.00000E+00
 -1       894 1.00000E-01 2.29167E-02 0.00000E+00
 -1       895 1.00000E-01 2.39583E-02 0.00000E+00
 -1       896 1.04167E-03 2.50000E-02 0.00000E+00
 -1       897 2.08333E-03 2.50000E-02 0.00000E+00
 -1       898 3.12500E-03 2.50000E-02 0.00000E+00
 -1       899 4.16667E-03 2.50000E-02 0.00000E+00
 -1       900 5.20833E-03 2.50000E-02 0.00000E+00
 -1       901 6.25000E-03 2.50000E-02 0.00000E+00
 -1       902 7.29167E-03 2.50000E-02 0.00000E+00
 -1       903 8.33333E-03 2.50000E-02 0.00000E+00
 -1       904 9.37500E-03 2.50000E-02 0.00000E+00
 -1       905 1.04167E-02 2.50000E-02 0.00000E+00
 -1       906 1.14583E-02 2.50000E-02 0.00000E+00
 -1       907 1.25000E-02 2.50000E-02 0.00000E+00
 -1       908 1.35417E-02 2.50000E-02 0.00000E+00
 -1       909 1.45833E-02 2.50000E-02 0.00000E+00
 -1       910 1.56250E-02 2.50000E-02 0.00000E+00
 -1       911 1.77083E-02 2.50000E-02 0.00000E+00
 -1       912 1.87500E-02 2.50000E-02 0.00000E+00
 -1       913 1.97917E-02 2.50000E-02 0.00000E+00
 -1       914 2.08333E-02 2.50000E-02 0.00000E+00
 -1       915 2.18750E-02 2.50000E-02 0.00000E+00
 -1       916 2.29167E-02 2.50000E-02 0.00000E+00
 -1       917 2.39583E-02 2.50000E-02 0.00000E+00
 -1       918 2.50000E-02 2.50000E-02 0.00000E+00
 -1       919 2.60417E-02 2.50000E-02 0.00000E+00
 -1       920 2.70833E-02 2.50000E-02 0.00000E+00
 -1       921 2.81250E-02 2.50000E-02 0.00000E+00
 -1       922 2.91667E-02 2.50000E-02 0.00000E+00
 -1       923 3.02083E-02 2.50000E-02 0.00000E+00
 -1       924 3.12500E-02 2.50000E-02 0.00000E+00
 -1       925 3.22917E-02 2.50000E-02 0.00000E+00
 -1       926 3.43750E-02 2.50000E-02 0.00000E+00
 -1       927 3.54167E-02 2.50000E-02 0.00000E+00
 -1       928 3.64583E-02 2.50000E-02 0.00000E+00
 -1       929 3.75000E-02 2.50000E-02 0.00000E+00
 -1       930 3.85417E-02 2.50000E-02 0.00000E+00
 -1       931 3.95833E-02 2.50000E-02 0.00000E+00
 -1       932 4.06250E-02 2.50000E-02 0.00000E+00
 -1       933 4.16667E-02 2.50000E-02 0.00000E+00
 -1       934 4.27083E-02 2.50000E-02 0.00000E+00
 -1       935 4.37500E-02 2.50000E-02 0.00000E+00
 -1       936 4.47917E-02 2.50000E-02 0.00000E+00
 -1       937 4.58333E-02 2.50000E-02 0.00000E+00
 -1       938 4.68750E-02 2.50000E-02 0.00000E+00
 -1       939 4.79167E-02 2.50000E-02 0.00000E+00
 -1       940 4.89583E-02 2.50000E-02 0.00000E+00
 -1       941 5.10417E-02 2.50000E-02 0.00000E+00
 -1       942 5.20833E-02 2.50000E-02 0.00000E+00
 -1       943 5.31250E-02 2.50000E-02 0.00000E+00
 -1       944 5.41667E-02 2.50000E-02 0.00000E+00
 -1       945 5.52083E-02 2.50000E-02 0.00000E+00
 -1       946 5.62500E-02 2.50000E-02 0.00000E+00
 -1       947 5.72917E-02 2.50000E-02 0.00000E+00
 -1       948 5.83333E-02 2.50000E-02 0.00000E+00
 -1       949 5.93750E-02 2.50000E-02 0.00000E+00
 -1       950 6.04167E-02 2.50000E-02 0.00000E+00
 -1       951 6.14583E-02 2.50000E-02 0.00000E+00
 -1       952 6.25000E-02 2.50000E-02 0.00000E+00
 -1       953 6.35417E-02 2.50000E-02 0.00000E+00
 -1       954 6.45833E-02 2.50000E-02 0.00000E+00
 -1       955 6.56250E-02 2.50000E-02 0.00000E+00
 -1       956 6.77083E-02 2.50000E-02 0.00000E+00
 -1       957 6.87500E-02 2.50000E-02 0.00000E+00
 -1       958 6.97917E-02 2.50000E-02 0.00000E+00
 -1       959 7.08333E-02 2.50000E-02 0.00000E+00
 -1       960 7.18750E-02 2.50000E-02 0.00000E+00
 -1       961 7.29167E-02 2.50000E-02 0.00000E+00
 -1       962 7.39583E-02 2.50000E-02 0.00000E+00
 -1       963 7.50000E-02 2.50000E-02 0.00000E+00
 -1       964 7.60417E-02 2.50000E-02 0.00000E+00
 -1       965 7.70833E-02 2.50000E-02 0.00000E+00
 -1       966 7.81250E-02 2.50000E-02 0.00000E+00
 -1       967 7.91667E-02 2.50000E-02 0.00000E+00
 -1       968 8.02083E-02 2.50000E-02 0.00000E+00
 -1       969 8.12500E-02 2.50000E-02 0.00000E+00
 -1       970 8.22917E-02 2.50000E-02 0.00000E+00
 -1       971 8.43750E-02 2.50000E-02 0.00000E+00
 -1       972 8.54167E-02 2.50000E-02 0.00000E+00
 -1       973 8.64583E-02 2.50000E-02 0.00000E+00
 -1       974 8.75000E-02 2.50000E-02 0.00000E+00
 -1       975 8.85417E-02 2.50000E-02 0.00000E+00
 -1       976 8.95833E-02 2.50000E-02 0.00000E+00
 -1       977 9.06250E-02 2.50000E-02 0.00000E+00
 -1       978 9.16667E-02 2.50000E-02 0.00000E+00
 -1       979 9.27083E-02 2.50000E-02 0.00000E+00
 -1       980 9.37500E-02 2.50000E-02 0.00000E+00
 -1       981 9.47917E-02 2.50000E-02 0.00000E+00
 -1       982 9.58333E-02 2.50000E-02 0.00000E+00
 -1       983 9.68750E-02 2.50000E-02 0.00000E+00
 -1       984 9.79167E-02 2.50000E-02 0.00000E+00
 -1       985 9.89583E-02 2.50000E-02 0.00000E+00
 -3
    3C                           440                                     1
 -1         1   12    0    1
 -2         1        37        36
 -1         2   12    0    1
 -2        37        39        38
 -1         3   12    0    1
 -2        39        41        40
 -1         4   12    0    1
 -2        41        43        42
 -1         5   12    0    1
 -2        43        45        44
 -1         6   12    0    1
 -2        45        47        46
 -1         7   12    0    1
 -2        47        49        48
 -1         8   12    0    1
 -2        49         2        50
 -1         9   12    0    1
 -2         1        52        51
 -1        10   12    0    1
 -2        52        54        53
 -1        11   12    0    1
 -2        54         8        55
 -1        12   12    0    1
 -2         1        57        56
 -1        13   12    0    1
 -2        57        59        58
 -1        14   12    0    1
 -2        59        61        60
 -1        15   12    0    1
 -2        61        63        62
 -1        16   12    0    1
 -2        63        65        64
 -1        17   12    0    1
 -2        65        67        66
 -1        18   12    0    1
 -2        67        69        68
 -1        19   12    0    1
 -2        69         9        70
 -1        20   12    0    1
 -2         2        72        71
 -1        21   12    0    1
 -2        72        74        73
 -1        22   12    0    1
 -2        74        76        75
 -1        23   12    0    1
 -2        76        78        77
 -1        24   12    0    1
 -2        78        80        79
 -1        25   12    0    1
 -2        80        82        81
 -1        26   12    0    1
 -2        82        84        83
 -1        27   12    0    1
 -2        84         3        85
 -1        28   12    0    1
 -2         2        87        86
 -1        29   12    0    1
 -2        87        89        88
 -1        30   12    0    1
 -2        89         9        90
 -1        31   12    0    1
 -2         2        92        91
 -1        32   12    0    1
 -2        92        94        93
 -1        33   12    0    1
 -2        94        96        95
 -1        34   12    0    1
 -2        96        98        97
 -1        35   12    0    1
 -2        98       100        99
 -1        36   12    0    1
 -2       100       102       101
 -1        37   12    0    1
 -2       102       104       103
 -1        38   12    0    1
 -2       104        10       105
 -1        39   12    0    1
 -2         3       107       106
 -1        40   12    0    1
 -2       107       109       108
 -1        41   12    0    1
 -2       109       111       110
 -1        42   12    0    1
 -2       111       113       112
 -1        43   12    0    1
 -2       113       115       114
 -1        44   12    0    1
 -2       115       117       116
 -1        45   12    0    1
 -2       117       119       118
 -1        46   12    0    1
 -2       119         4       120
 -1        47   12    0    1
 -2         3       122       121
 -1        48   12    0    1
 -2       122       124       123
 -1        49   12    0    1
 -2       124        10       125
 -1        50   12    0    1
 -2         3       127       126
 -1        51   12    0    1
 -2       127       129       128
 -1        52   12    0    1
 -2       129       131       130
 -1        53   12    0    1
 -2       131       133       132
 -1        54   12    0    1
 -2       133       135       134
 -1        55   12    0    1
 -2       135       137       136
 -1        56   12    0    1
 -2       137       139       138
 -1        57   12    0    1
 -2       139        11       140
 -1        58   12    0    1
 -2         4       142       141
 -1        59   12    0    1
 -2       142       144       143
 -1        60   12    0    1
 -2       144       146       145
 -1        61   12    0    1
 -2       146       148       147
 -1        62   12    0    1
 -2       148       150       149
 -1        63   12    0    1
 -2       150       152       151
 -1        64   12    0    1
 -2       152       154       153
 -1        65   12    0    1
 -2       154         5       155
 -1        66   12    0    1
 -2         4       157       156
 -1        67   12    0    1
 -2       157       159       158
 -1        68   12    0    1
 -2       159        11       160
 -1        69   12    0    1
 -2         4       162       161
 -1        70   12    0    1
 -2       162       164       163
 -1        71   12    0    1
 -2       164       166       165
 -1        72   12    0    1
 -2       166       168       167
 -1        73   12    0    1
 -2       168       170       169
 -1        74   12    0    1
 -2       170       172       171
 -1        75   12    0    1
 -2       172       174       173
 -1        76   12    0    1
 -2       174        12       175
 -1        77   12    0    1
 -2         5       192       191
 -1        78   12    0    1
 -2       192       194       193
 -1        79   12    0    1
 -2       194        12       195
 -1        80   12    0    1
 -2         8       252       251
 -1        81   12    0    1
 -2       252       254       253
 -1        82   12    0    1
 -2       254       256       255
 -1        83   12    0    1
 -2       256       258       257
 -1        84   12    0    1
 -2       258       260       259
 -1        85   12    0    1
 -2       260       262       261
 -1        86   12    0    1
 -2       262       264       263
 -1        87   12    0    1
 -2       264         9       265
 -1        88   12    0    1
 -2         8       267       266
 -1        89   12    0    1
 -2       267       269       268
 -1        90   12    0    1
 -2       269        15       270
 -1        91   12    0    1
 -2         8       272       271
 -1        92   12    0    1
 -2       272       274       273
 -1        93   12    0    1
 -2       274       276       275
 -1        94   12    0    1
 -2       276       278       277
 -1        95   12    0    1
 -2       278       280       279
 -1        96   12    0    1
 -2       280       282       281
 -1        97   12    0    1
 -2       282       284       283
 -1        98   12    0    1
 -2       284        16       285
 -1        99   12    0    1
 -2         9       287       286
 -1       100   12    0    1
 -2       287       289       288
 -1       101   12    0    1
 -2       289       291       290
 -1       102   12    0    1
 -2       291       293       292
 -1       103   12    0    1
 -2       293       295       294
 -1       104   12    0    1
 -2       295       297       296
 -1       105   12    0    1
 -2       297       299       298
 -1       106   12    0    1
 -2       299        10       300
 -1       107   12    0    1
 -2         9       302       301
 -1       108   12    0    1
 -2       302       304       303
 -1       109   12    0    1
 -2       304        16       305
 -1       110   12    0    1
 -2         9       307       306
 -1       111   12    0    1
 -2       307       309       308
 -1       112   12    0    1
 -2       309       311       310
 -1       113   12    0    1
 -2       311       313       312
 -1       114   12    0    1
 -2       313       315       314
 -1       115   12    0    1
 -2       315       317       316
 -1       116   12    0    1
 -2       317       319       318
 -1       117   12    0    1
 -2       319        17       320
 -1       118   12    0    1
 -2        10       322       321
 -1       119   12    0    1
 -2       322       324       323
 -1       120   12    0    1
 -2       324       326       325
 -1       121   12    0    1
 -2       326       328       327
 -1       122   12    0    1
 -2       328       330       329
 -1       123   12    0    1
 -2       330       332       331
 -1       124   12    0    1
 -2       332       334       333
 -1       125   12    0    1
 -2       334        11       335
 -1       126   12    0    1
 -2        10       337       336
 -1       127   12    0    1
 -2       337       339       338
 -1       128   12    0    1
 -2       339        17       340
 -1       129   12    0    1
 -2        10       342       341
 -1       130   12    0    1
 -2       342       344       343
 -1       131   12    0    1
 -2       344       346       345
 -1       132   12    0    1
 -2       346       348       347
 -1       133   12    0    1
 -2       348       350       349
 -1       134   12    0    1
 -2       350       352       351
 -1       135   12    0    1
 -2       352       354       353
 -1       136   12    0    1
 -2       354        18       355
 -1       137   12    0    1
 -2        11       357       356
 -1       138   12    0    1
 -2       357       359       358
 -1       139   12    0    1
 -2       359       361       360
 -1       140   12    0    1
 -2       361       363       362
 -1       141   12    0    1
 -2       363       365       364
 -1       142   12    0    1
 -2       365       367       366
 -1       143   12    0    1
 -2       367       369       368
 -1       144   12    0    1
 -2       369        12       370
 -1       145   12    0    1
 -2        11       372       371
 -1       146   12    0    1
 -2       372       374       373
 -1       147   12    0    1
 -2       374        18       375
 -1       148   12    0    1
 -2        11       377       376
 -1       149   12    0    1
 -2       377       379       378
 -1       150   12    0    1
 -2       379       381       380
 -1       151   12    0    1
 -2       381       383       382
 -1       152   12    0    1
 -2       383       385       384
 -1       153   12    0    1
 -2       385       387       386
 -1       154   12    0    1
 -2       387       389       388
 -1       155   12    0    1
 -2       389        19       390
 -1       156   12    0    1
 -2        12       407       406
 -1       157   12    0    1
 -2       407       409       408
 -1       158   12    0    1
 -2       409        19       410
 -1       159   12    0    1
 -2        15       467       466
 -1       160   12    0    1
 -2       467       469       468
 -1       161   12    0    1
 -2       469       471       470
 -1       162   12    0    1
 -2       471       473       472
 -1       163   12    0    1
 -2       473       475       474
 -1       164   12    0    1
 -2       475       477       476
 -1       165   12    0    1
 -2       477       479       478
 -1       166   12    0    1
 -2       479        16       480
 -1       167   12    0    1
 -2        15       482       481
 -1       168   12    0    1
 -2       482       484       483
 -1       169   12    0    1
 -2       484        22       485
 -1       170   12    0    1
 -2        15       487       486
 -1       171   12    0    1
 -2       487       489       488
 -1       172   12    0    1
 -2       489       491       490
 -1       173   12    0    1
 -2       491       493       492
 -1       174   12    0    1
 -2       493       495       494
 -1       175   12    0    1
 -2       495       497       496
 -1       176   12    0    1
 -2       497       499       498
 -1       177   12    0    1
 -2       499        23       500
 -1       178   12    0    1
 -2        16       502       501
 -1       179   12    0    1
 -2       502       504       503
 -1       180   12    0    1
 -2       504       506       505
 -1       181   12    0    1
 -2       506       508       507
 -1       182   12    0    1
 -2       508       510       509
 -1       183   12    0    1
 -2       510       512       511
 -1       184   12    0    1
 -2       512       514       513
 -1       185   12    0    1
 -2       514        17       515
 -1       186   12    0    1
 -2        16       517       516
 -1       187   12    0    1
 -2       517       519       518
 -1       188   12    0    1
 -2       519        23       520
 -1       189   12    0    1
 -2        16       522       521
 -1       190   12    0    1
 -2       522       524       523
 -1       191   12    0    1
 -2       524       526       525
 -1       192   12    0    1
 -2       526       528       527
 -1       193   12    0    1
 -2       528       530       529
 -1       194   12    0    1
 -2       530       532       531
 -1       195   12    0    1
 -2       532       534       533
 -1       196   12    0    1
 -2       534        24       535
 -1       197   12    0    1
 -2        17       537       536
 -1       198   12    0    1
 -2       537       539       538
 -1       199   12    0    1
 -2       539       541       540
 -1       200   12    0    1
 -2       541       543       542
 -1       201   12    0    1
 -2       543       545       544
 -1       202   12    0    1
 -2       545       547       546
 -1       203   12    0    1
 -2       547       549       548
 -1       204   12    0    1
 -2       549        18       550
 -1       205   12    0    1
 -2        17       552       551
 -1       206   12    0    1
 -2       552       554       553
 -1       207   12    0    1
 -2       554        24       555
 -1       208   12    0    1
 -2        17       557       556
 -1       209   12    0    1
 -2       557       559       558
 -1       210   12    0    1
 -2       559       561       560
 -1       211   12    0    1
 -2       561       563       562
 -1       212   12    0    1
 -2       563       565       564
 -1       213   12    0    1
 -2       565       567       566
 -1       214   12    0    1
 -2       567       569       568
 -1       215   12    0    1
 -2       569        25       570
 -1       216   12    0    1
 -2        18       572       571
 -1       217   12    0    1
 -2       572       574       573
 -1       218   12    0    1
 -2       574       576       575
 -1       219   12    0    1
 -2       576       578       577
 -1       220   12    0    1
 -2       578       580       579
 -1       221   12    0    1
 -2       580       582       581
 -1       222   12    0    1
 -2       582       584       583
 -1       223   12    0    1
 -2       584        19       585
 -1       224   12    0    1
 -2        18       587       586
 -1       225   12    0    1
 -2       587       589       588
 -1       226   12    0    1
 -2       589        25       590
 -1       227   12    0    1
 -2        18       592       591
 -1       228   12    0    1
 -2       592       594       593
 -1       229   12    0    1
 -2       594       596       595
 -1       230   12    0    1
 -2       596       598       597
 -1       231   12    0    1
 -2       598       600       599
 -1       232   12    0    1
 -2       600       602       601
 -1       233   12    0    1
 -2       602       604       603
 -1       234   12    0    1
 -2       604        26       605
 -1       235   12    0    1
 -2        19       607       606
 -1       236   12    0    1
 -2       607       609       608
 -1       237   12    0    1
 -2       609       611       610
 -1       238   12    0    1
 -2       611       613       612
 -1       239   12    0    1
 -2       613       615       614
 -1       240   12    0    1
 -2       615       617       616
 -1       241   12    0    1
 -2       617       619       618
 -1       242   12    0    1
 -2       619        20       620
 -1       243   12    0    1
 -2        19       622       621
 -1       244   12    0    1
 -2       622       624       623
 -1       245   12    0    1
 -2       624        26       625
 -1       246   12    0    1
 -2        19       627       626
 -1       247   12    0    1
 -2       627       629       628
 -1       248   12    0    1
 -2       629       631       630
 -1       249   12    0    1
 -2       631       633       632
 -1       250   12    0    1
 -2       633       635       634
 -1       251   12    0    1
 -2       635       637       636
 -1       252   12    0    1
 -2       637       639       638
 -1       253   12    0    1
 -2       639        27       640
 -1       254   12    0    1
 -2        20       642       641
 -1       255   12    0    1
 -2       642       644       643
 -1       256   12    0    1
 -2       644       646       645
 -1       257   12    0    1
 -2       646       648       647
 -1       258   12    0    1
 -2       648       650       649
 -1       259   12    0    1
 -2       650       652       651
 -1       260   12    0    1
 -2       652       654       653
 -1       261   12    0    1
 -2       654        21       655
 -1       262   12    0    1
 -2        20       657       656
 -1       263   12    0    1
 -2       657       659       658
 -1       264   12    0    1
 -2       659        27       660
 -1       265   12    0    1
 -2        20       662       661
 -1       266   12    0    1
 -2       662       664       663
 -1       267   12    0    1
 -2       664       666       665
 -1       268   12    0    1
 -2       666       668       667
 -1       269   12    0    1
 -2       668       670       669
 -1       270   12    0    1
 -2       670       672       671
 -1       271   12    0    1
 -2       672       674       673
 -1       272   12    0    1
 -2       674        28       675
 -1       273   12    0    1
 -2        21       677       676
 -1       274   12    0    1
 -2       677       679       678
 -1       275   12    0    1
 -2       679        28       680
 -1       276   12    0    1
 -2        22       682       681
 -1       277   12    0    1
 -2       682       684       683
 -1       278   12    0    1
 -2       684       686       685
 -1       279   12    0    1
 -2       686       688       687
 -1       280   12    0    1
 -2       688       690       689
 -1       281   12    0    1
 -2       690       692       691
 -1       282   12    0    1
 -2       692       694       693
 -1       283   12    0    1
 -2       694        23       695
 -1       284   12    0    1
 -2        22       697       696
 -1       285   12    0    1
 -2       697       699       698
 -1       286   12    0    1
 -2       699        29       700
 -1       287   12    0    1
 -2        22       702       701
 -1       288   12    0    1
 -2       702       704       703
 -1       289   12    0    1
 -2       704       706       705
 -1       290   12    0    1
 -2       706       708       707
 -1       291   12    0    1
 -2       708       710       709
 -1       292   12    0    1
 -2       710       712       711
 -1       293   12    0    1
 -2       712       714       713
 -1       294   12    0    1
 -2       714        30       715
 -1       295   12    0    1
 -2        23       717       716
 -1       296   12    0    1
 -2       717       719       718
 -1       297   12    0    1
 -2       719       721       720
 -1       298   12    0    1
 -2       721       723       722
 -1       299   12    0    1
 -2       723       725       724
 -1       300   12    0    1
 -2       725       727       726
 -1       301   12    0    1
 -2       727       729       728
 -1       302   12    0    1
 -2       729        24       730
 -1       303   12    0    1
 -2        23       732       731
 -1       304   12    0    1
 -2       732       734       733
 -1       305   12    0    1
 -2       734        30       735
 -1       306   12    0    1
 -2        23       737       736
 -1       307   12    0    1
 -2       737       739       738
 -1       308   12    0    1
 -2       739       741       740
 -1       309   12    0    1
 -2       741       743       742
 -1       310   12    0    1
 -2       743       745       744
 -1       311   12    0    1
 -2       745       747       746
 -1       312   12    0    1
 -2       747       749       748
 -1       313   12    0    1
 -2       749        31       750
 -1       314   12    0    1
 -2        24       752       751
 -1       315   12    0    1
 -2       752       754       753
 -1       316   12    0    1
 -2       754       756       755
 -1       317   12    0    1
 -2       756       758       757
 -1       318   12    0    1
 -2       758       760       759
 -1       319   12    0    1
 -2       760       762       761
 -1       320   12    0    1
 -2       762       764       763
 -1       321   12    0    1
 -2       764        25       765
 -1       322   12    0    1
 -2        24       767       766
 -1       323   12    0    1
 -2       767       769       768
 -1       324   12    0    1
 -2       769        31       770
 -1       325   12    0    1
 -2        24       772       771
 -1       326   12    0    1
 -2       772       774       773
 -1       327   12    0    1
 -2       774       776       775
 -1       328   12    0    1
 -2       776       778       777
 -1       329   12    0    1
 -2       778       780       779
 -1       330   12    0    1
 -2       780       782       781
 -1       331   12    0    1
 -2       782       784       783
 -1       332   12    0    1
 -2       784        32       785
 -1       333   12    0    1
 -2        25       787       786
 -1       334   12    0    1
 -2       787       789       788
 -1       335   12    0    1
 -2       789       791       790
 -1       336   12    0    1
 -2       791       793       792
 -1       337   12    0    1
 -2       793       795       794
 -1       338   12    0    1
 -2       795       797       796
 -1       339   12    0    1
 -2       797       799       798
 -1       340   12    0    1
 -2       799        26       800
 -1       341   12    0    1
 -2        25       802       801
 -1       342   12    0    1
 -2       802       804       803
 -1       343   12    0    1
 -2       804        32       805
 -1       344   12    0    1
 -2        25       807       806
 -1       345   12    0    1
 -2       807       809       808
 -1       346   12    0    1
 -2       809       811       810
 -1       347   12    0    1
 -2       811       813       812
 -1       348   12    0    1
 -2       813       815       814
 -1       349   12    0    1
 -2       815       817       816
 -1       350   12    0    1
 -2       817       819       818
 -1       351   12    0    1
 -2       819        33       820
 -1       352   12    0    1
 -2        26       822       821
 -1       353   12    0    1
 -2       822       824       823
 -1       354   12    0    1
 -2       824       826       825
 -1       355   12    0    1
 -2       826       828       827
 -1       356   12    0    1
 -2       828       830       829
 -1       357   12    0    1
 -2       830       832       831
 -1       358   12    0    1
 -2       832       834       833
 -1       359   12    0    1
 -2       834        27       835
 -1       360   12    0    1
 -2        26       837       836
 -1       361   12    0    1
 -2       837       839       838
 -1       362   12    0    1
 -2       839        33       840
 -1       363   12    0    1
 -2        26       842       841
 -1       364   12    0    1
 -2       842       844       843
 -1       365   12    0    1
 -2       844       846       845
 -1       366   12    0    1
 -2       846       848       847
 -1       367   12    0    1
 -2       848       850       849
 -1       368   12    0    1
 -2       850       852       851
 -1       369   12    0    1
 -2       852       854       853
 -1       370   12    0    1
 -2       854        34       855
 -1       371   12    0    1
 -2        27       857       856
 -1       372   12    0    1
 -2       857       859       858
 -1       373   12    0    1
 -2       859       861       860
 -1       374   12    0    1
 -2       861       863       862
 -1       375   12    0    1
 -2       863       865       864
 -1       376   12    0    1
 -2       865       867       866
 -1       377   12    0    1
 -2       867       869       868
 -1       378   12    0    1
 -2       869        28       870
 -1       379   12    0    1
 -2        27       872       871
 -1       380   12    0    1
 -2       872       874       873
 -1       381   12    0    1
 -2       874        34       875
 -1       382   12    0    1
 -2        27       877       876
 -1       383   12    0    1
 -2       877       879       878
 -1       384   12    0    1
 -2       879       881       880
 -1       385   12    0    1
 -2       881       883       882
 -1       386   12    0    1
 -2       883       885       884
 -1       387   12    0    1
 -2       885       887       886
 -1       388   12    0    1
 -2       887       889       888
 -1       389   12    0    1
 -2       889        35       890
 -1       390   12    0    1
 -2        28       892       891
 -1       391   12    0    1
 -2       892       894       893
 -1       392   12    0    1
 -2       894        35       895
 -1       393   12    0    1
 -2        29       897       896
 -1       394   12    0    1
 -2       897       899       898
 -1       395   12    0    1
 -2       899       901       900
 -1       396   12    0    1
 -2       901       903       902
 -1       397   12    0    1
 -2       903       905       904
 -1       398   12    0    1
 -2       905       907       906
 -1       399   12    0    1
 -2       907       909       908
 -1       400   12    0    1
 -2       909        30       910
 -1       401   12    0    1
 -2        30       912       911
 -1       402   12    0    1
 -2       912       914       913
 -1       403   12    0    1
 -2       914       916       915
 -1       404   12    0    1
 -2       916       918       917
 -1       405   12    0    1
 -2       918       920       919
 -1       406   12    0    1
 -2       920       922       921
 -1       407   12    0    1
 -2       922       924       923
 -1       408   12    0    1
 -2       924        31       925
 -1       409   12    0    1
 -2        31       927       926
 -1       410   12    0    1
 -2       927       929       928
 -1       411   12    0    1
 -2       929       931       930
 -1       412   12    0    1
 -2       931       933       932
 -1       413   12    0    1
 -2       933       935       934
 -1       414   12    0    1
 -2       935       937       936
 -1       415   12    0    1
 -2       937       939       938
 -1       416   12    0    1
 -2       939        32       940
 -1       417   12    0    1
 -2        32       942       941
 -1       418   12    0    1
 -2       942       944       943
 -1       419   12    0    1
 -2       944       946       945
 -1       420   12    0    1
 -2       946       948       947
 -1       421   12    0    1
 -2       948       950       949
 -1       422   12    0    1
 -2       950       952       951
 -1       423   12    0    1
 -2       952       954       953
 -1       424   12    0    1
 -2       954        33       955
 -1       425   12    0    1
 -2        33       957       956
 -1       426   12    0    1
 -2       957       959       958
 -1       427   12    0    1
 -2       959       961       960
 -1       428   12    0    1
 -2       961       963       962
 -1       429   12    0    1
 -2       963       965       964
 -1       430   12    0    1
 -2       965       967       966
 -1       431   12    0    1
 -2       967       969       968
 -1       432   12    0    1
 -2       969        34       970
 -1       433   12    0    1
 -2        34       972       971
 -1       434   12    0    1
 -2       972       974       973
 -1       435   12    0    1
 -2       974       976       975
 -1       436   12    0    1
 -2       976       978       977
 -1       437   12    0    1
 -2       978       980       979
 -1       438   12    0    1
 -2       980       982       981
 -1       439   12    0    1
 -2       982       984       983
 -1       440   12    0    1
 -2       984        35       985
 -3
    1PSTEP                         1           1           1          
  100CL  101 1.000000000         841                     0    1           1
 -4  DISP        4    1
 -5  D1          1    2    1    0
 -5  D2          1    2    2    0
 -5  D3          1    2    3    0
 -5  ALL         1    2    0    0    1ALL
 -1         1 7.14674E-05 0.00000E+00 0.00000E+00
 -1         2 5.68239E-05 0.00000E+00 0.00000E+00
 -1         3 5.14074E-05 0.00000E+00 0.00000E+00
 -1         4 5.02102E-05 0.00000E+00 0.00000E+00
 -1         5 5.02831E-05 0.00000E+00 0.00000E+00
 -1         8 4.58988E-05-1.23439E-06 0.00000E+00
 -1         9 4.68768E-05 1.25237E-06 0.00000E+00
 -1        10 4.63460E-05-1.39305E-06 0.00000E+00
 -1        11 4.67183E-05-3.59142E-07 0.00000E+00
 -1        12 4.77624E-05 3.06563E-06 0.00000E+00
 -1        15 2.11668E-05-1.73995E-06 0.00000E+00
 -1        16 2.75177E-05 1.45785E-06 0.00000E+00
 -1        17 2.97953E-05-2.84090E-06 0.00000E+00
 -1        18 3.50828E-05-7.17242E-07 0.00000E+00
 -1        19 3.95465E-05 6.03604E-06 0.00000E+00
 -1        20 4.07214E-05 5.68860E-05 0.00000E+00
 -1        21 4.06734E-05 1.16866E-04 0.00000E+00
 -1        22 8.98449E-06-1.10654E-06 0.00000E+00
 -1        23 1.16691E-05 1.84594E-06 0.00000E+00
 -1        24 1.38434E-05-3.34842E-06 0.00000E+00
 -1        25 2.21337E-05-4.75695E-07 0.00000E+00
 -1        26 2.74446E-05 7.85304E-06 0.00000E+00
 -1        27 2.39264E-05 5.58717E-05 0.00000E+00
 -1        28 2.15739E-05 1.15957E-04 0.00000E+00
 -1        29 0.00000E+00 0.00000E+00 0.00000E+00
 -1        30 4.37025E-06 2.24441E-06 0.00000E+00
 -1        31 5.49804E-06-2.45635E-06 0.00000E+00
 -1        32 0.00000E+00 0.00000E+00 0.00000E+00
 -1        33 1.05635E-05 1.06150E-05 0.00000E+00
 -1        34 8.54628E-06 5.57590E-05 0.00000E+00
 -1        35 5.10087E-06 1.15460E-04 0.00000E+00
 -1        36 7.05665E-05-2.65360E-21 2.64698E-23
 -1        37 6.96504E-05-2.39552E-21 0.00000E+00
 -1        38 6.87342E-05-1.05284E-20 0.00000E+00
 -1        39 6.78159E-05-1.25599E-20 0.00000E+00
 -1        40 6.68972E-05-1.95016E-20-2.64698E-23
 -1        41 6.59782E-05-1.31621E-20-1.32349E-23
 -1        42 6.50590E-05-1.26393E-21 0.00000E+00
 -1        43 6.41398E-05 9.80044E-21-1.32349E-23
 -1        44 6.32206E-05 4.78441E-21-2.64698E-23
 -1        45 6.23014E-05 5.37998E-21-1.32349E-23
 -1        46 6.13825E-05 4.53295E-21 0.00000E+00
 -1        47 6.04641E-05-4.96970E-21 1.32349E-23
 -1        48 5.95463E-05-6.31966E-21 0.00000E+00
 -1        49 5.86315E-05 3.95061E-21 0.00000E+00
 -1        50 5.77169E-05-1.25731E-22 2.64698E-23
 -1        51 6.97925E-05-2.16684E-07-1.32349E-23
 -1        52 6.66480E-05-4.18446E-07 0.00000E+00
 -1        53 6.23549E-05-6.19755E-07 0.00000E+00
 -1        54 5.72445E-05-8.22274E-07-1.65436E-24
 -1        55 5.16486E-05-1.02663E-06 6.61744E-24
 -1        56 7.02071E-05-5.64455E-07 0.00000E+00
 -1        57 6.89540E-05-1.24774E-06 1.32349E-23
 -1        58 6.77249E-05-1.99518E-06 0.00000E+00
 -1        59 6.64994E-05-2.76531E-06 0.00000E+00
 -1        60 6.52648E-05-3.51347E-06 5.29396E-23
 -1        61 6.40051E-05-4.19659E-06-2.64698E-23
 -1        62 6.27046E-05-4.77191E-06 5.29396E-23
 -1        63 6.13481E-05-5.19781E-06 0.00000E+00
 -1        64 5.99203E-05-5.43375E-06 0.00000E+00
 -1        65 5.84067E-05-5.44090E-06 0.00000E+00
 -1        66 5.67936E-05-5.18209E-06 0.00000E+00
 -1        67 5.50686E-05-4.62240E-06 2.64698E-23
 -1        68 5.32192E-05-3.72931E-06-2.64698E-23
 -1        69 5.12395E-05-2.47147E-06 0.00000E+00
 -1        70 4.91127E-05-8.24332E-07 2.64698E-23
 -1        71 5.64814E-05 3.90264E-21-1.32349E-23
 -1        72 5.61419E-05 6.57774E-21-6.61744E-24
 -1        73 5.58026E-05-5.50241E-21 0.00000E+00
 -1        74 5.54636E-05-7.91116E-21 6.61744E-24
 -1        75 5.51248E-05-1.11272E-20 0.00000E+00
 -1        76 5.47860E-05-8.79293E-21 0.00000E+00
 -1        77 5.44473E-05-1.19627E-20 0.00000E+00
 -1        78 5.41086E-05-1.30347E-20-6.61744E-24
 -1        79 5.37699E-05-9.94767E-21 0.00000E+00
 -1        80 5.34312E-05-4.51310E-21-6.61744E-24
 -1        81 5.30926E-05-4.79765E-22 0.00000E+00
 -1        82 5.27541E-05 3.93242E-21 0.00000E+00
 -1        83 5.24157E-05 9.52912E-21 0.00000E+00
 -1        84 5.20780E-05 1.10726E-20 0.00000E+00
 -1        85 5.17403E-05 2.11593E-21 6.61744E-24
 -1        86 5.64554E-05 1.90841E-07-1.65436E-24
 -1        87 5.54651E-05 4.07903E-07-8.27181E-25
 -1        88 5.39327E-05 6.24025E-07 0.00000E+00
 -1        89 5.19378E-05 8.40336E-07 0.00000E+00
 -1        90 4.95596E-05 1.05647E-06 0.00000E+00
 -1        91 5.62445E-05-2.65218E-07 1.32349E-23
 -1        92 5.56795E-05-5.94100E-07 0.00000E+00
 -1        93 5.51304E-05-9.65443E-07 0.00000E+00
 -1        94 5.45893E-05-1.36131E-06 0.00000E+00
 -1        95 5.40501E-05-1.76293E-06 0.00000E+00
 -1        96 5.35059E-05-2.15183E-06 6.61744E-24
 -1        97 5.29501E-05-2.50958E-06 0.00000E+00
 -1        98 5.23756E-05-2.81790E-06 6.61744E-24
 -1        99 5.17758E-05-3.05865E-06-1.32349E-23
 -1       100 5.11441E-05-3.21399E-06-6.61744E-24
 -1       101 5.04738E-05-3.26636E-06 0.00000E+00
 -1       102 4.97588E-05-3.19856E-06 6.61744E-24
 -1       103 4.89927E-05-2.99385E-06 0.00000E+00
 -1       104 4.81711E-05-2.63551E-06 0.00000E+00
 -1       105 4.72861E-05-2.10856E-06-1.32349E-23
 -1       106 5.13252E-05-7.79618E-23 3.30872E-24
 -1       107 5.12495E-05 4.14624E-21 0.00000E+00
 -1       108 5.11740E-05-7.94507E-22-3.30872E-24
 -1       109 5.10993E-05-6.56864E-21-1.65436E-24
 -1       110 5.10248E-05-9.98117E-21-3.30872E-24
 -1       111 5.09505E-05-1.12372E-20 8.27181E-25
 -1       112 5.08762E-05-1.04394E-20-1.65436E-24
 -1       113 5.08020E-05-1.54600E-21 8.27181E-25
 -1       114 5.07278E-05-1.92278E-21 0.00000E+00
 -1       115 5.06536E-05 4.81047E-21 8.27181E-25
 -1       116 5.05794E-05 7.74779E-21-1.65436E-24
 -1       117 5.05053E-05 8.55594E-21 8.27181E-25
 -1       118 5.04311E-05 7.25727E-21-1.65436E-24
 -1       119 5.03571E-05 3.00680E-21 0.00000E+00
 -1       120 5.02832E-05 1.68414E-21 0.00000E+00
 -1       121 5.11569E-05-2.31097E-07 6.61744E-24
 -1       122 5.05415E-05-4.62539E-07 0.00000E+00
 -1       123 4.96564E-05-6.94223E-07 0.00000E+00
 -1       124 4.85979E-05-9.26382E-07 0.00000E+00
 -1       125 4.74623E-05-1.15864E-06 0.00000E+00
 -1       126 5.11585E-05-1.37296E-07 0.00000E+00
 -1       127 5.09294E-05-3.32142E-07 0.00000E+00
 -1       128 5.07159E-05-5.68527E-07 6.61744E-24
 -1       129 5.05119E-05-8.30971E-07 0.00000E+00
 -1       130 5.03117E-05-1.10381E-06 0.00000E+00
 -1       131 5.01095E-05-1.37141E-06 0.00000E+00
 -1       132 4.98996E-05-1.61818E-06-6.61744E-24
 -1       133 4.96759E-05-1.82854E-06 0.00000E+00
 -1       134 4.94329E-05-1.98697E-06 0.00000E+00
 -1       135 4.91646E-05-2.07805E-06 0.00000E+00
 -1       136 4.88653E-05-2.08645E-06-6.61744E-24
 -1       137 4.85295E-05-1.99695E-06 3.30872E-24
 -1       138 4.81515E-05-1.79453E-06 0.00000E+00
 -1       139 4.77266E-05-1.46405E-06 0.00000E+00
 -1       140 4.72482E-05-9.91252E-07-6.61744E-24
 -1       141 5.02103E-05-4.09744E-21 0.00000E+00
 -1       142 5.02128E-05-3.51005E-21 2.06795E-25
 -1       143 5.02153E-05 5.59528E-21 1.03398E-25
 -1       144 5.02181E-05 8.75728E-21 0.00000E+00
 -1       145 5.02210E-05 5.01606E-21 0.00000E+00
 -1       146 5.02240E-05 3.02652E-21-5.16988E-26
 -1       147 5.02270E-05-1.99115E-21 0.00000E+00
 -1       148 5.02300E-05-7.02474E-21 0.00000E+00
 -1       149 5.02331E-05-1.06198E-20-2.06795E-25
 -1       150 5.02362E-05-1.05025E-20 1.03398E-25
 -1       151 5.02395E-05-9.32696E-21 4.13590E-25
 -1       152 5.02432E-05-6.67414E-21-4.13590E-25
 -1       153 5.02474E-05-9.72206E-21 1.65436E-24
 -1       154 5.02538E-05-6.37953E-21 0.00000E+00
 -1       155 5.02603E-05-3.13067E-21 0.00000E+00
 -1       156 5.00541E-05-5.89584E-08 0.00000E+00
 -1       157 4.96593E-05-1.18365E-07 8.27181E-25
 -1       158 4.90768E-05-1.77900E-07-1.65436E-24
 -1       159 4.83581E-05-2.37765E-07-8.27181E-25
 -1       160 4.75548E-05-2.97712E-07 0.00000E+00
 -1       161 5.01432E-05-4.06602E-08 0.00000E+00
 -1       162 5.00807E-05-9.61173E-08 0.00000E+00
 -1       163 5.00199E-05-1.56290E-07 0.00000E+00
 -1       164 4.99572E-05-2.11469E-07-8.27181E-25
 -1       165 4.98888E-05-2.51860E-07 0.00000E+00
 -1       166 4.98113E-05-2.67718E-07-8.27181E-25
 -1       167 4.97209E-05-2.49300E-07 0.00000E+00
 -1       168 4.96140E-05-1.86887E-07-8.27181E-25
 -1       169 4.94870E-05-7.07718E-08 0.00000E+00
 -1       170 4.93363E-05 1.08737E-07-8.27181E-25
 -1       171 4.91584E-05 3.61301E-07-1.65436E-24
 -1       172 4.89498E-05 6.96647E-07 0.00000E+00
 -1       173 4.87071E-05 1.12434E-06 4.13590E-25
 -1       174 4.84288E-05 1.65472E-06-4.13590E-25
 -1       175 4.81086E-05 2.29630E-06-3.30872E-24
 -1       191 5.02172E-05 5.07122E-07-1.32349E-23
 -1       192 5.00119E-05 1.01983E-06 6.61744E-24
 -1       193 4.96650E-05 1.53340E-06 0.00000E+00
 -1       194 4.91752E-05 2.04687E-06 0.00000E+00
 -1       195 4.85412E-05 2.55929E-06-1.32349E-23
 -1       251 4.59390E-05 2.86581E-06 0.00000E+00
 -1       252 4.59975E-05 5.64989E-06 0.00000E+00
 -1       253 4.60588E-05 7.28671E-06 0.00000E+00
 -1       254 4.61232E-05 7.94646E-06-4.13590E-25
 -1       255 4.61882E-05 7.79879E-06 4.13590E-25
 -1       256 4.62534E-05 7.01312E-06-4.13590E-25
 -1       257 4.63182E-05 5.75864E-06 0.00000E+00
 -1       258 4.63828E-05 4.20438E-06 8.27181E-25
 -1       259 4.64472E-05 2.51924E-06-1.65436E-24
 -1       260 4.65116E-05 8.72108E-07 8.27181E-25
 -1       261 4.65761E-05-5.68121E-07 0.00000E+00
 -1       262 4.66407E-05-1.63251E-06 0.00000E+00
 -1       263 4.67053E-05-2.15196E-06 0.00000E+00
 -1       264 4.67681E-05-1.95723E-06 0.00000E+00
 -1       265 4.68301E-05-8.78619E-07 8.27181E-25
 -1       266 4.09238E-05-1.33008E-06 6.61744E-24
 -1       267 3.60333E-05-1.41738E-06 0.00000E+00
 -1       268 3.14199E-05-1.50329E-06-3.30872E-24
 -1       269 2.72763E-05-1.58577E-06 0.00000E+00
 -1       270 2.37949E-05-1.66565E-06 0.00000E+00
 -1       271 4.33924E-05 2.61890E-06 0.00000E+00
 -1       272 4.13027E-05 5.28254E-06 0.00000E+00
 -1       273 3.96083E-05 6.90029E-06 0.00000E+00
 -1       274 3.82507E-05 7.61177E-06 0.00000E+00
 -1       275 3.71778E-05 7.56394E-06 0.00000E+00
 -1       276 3.63324E-05 6.90766E-06-1.32349E-23
 -1       277 3.56568E-05 5.79724E-06-2.64698E-23
 -1       278 3.50922E-05 4.38991E-06 0.00000E+00
 -1       279 3.45793E-05 2.84449E-06 0.00000E+00
 -1       280 3.40584E-05 1.32074E-06-1.32349E-23
 -1       281 3.34700E-05-2.17003E-08 0.00000E+00
 -1       282 3.27552E-05-1.02431E-06 0.00000E+00
 -1       283 3.18554E-05-1.53051E-06 2.64698E-23
 -1       284 3.07166E-05-1.38569E-06 1.32349E-23
 -1       285 2.92771E-05-4.41696E-07 0.00000E+00
 -1       286 4.68321E-05 3.57479E-06 0.00000E+00
 -1       287 4.67984E-05 5.12093E-06 1.65436E-24
 -1       288 4.67657E-05 5.98497E-06-3.30872E-24
 -1       289 4.67345E-05 6.26235E-06 3.30872E-24
 -1       290 4.67037E-05 6.04845E-06 0.00000E+00
 -1       291 4.66730E-05 5.43876E-06 0.00000E+00
 -1       292 4.66422E-05 4.52883E-06 0.00000E+00
 -1       293 4.66112E-05 3.41428E-06 8.27181E-25
 -1       294 4.65801E-05 2.19072E-06 0.00000E+00
 -1       295 4.65489E-05 9.53848E-07 0.00000E+00
 -1       296 4.65178E-05-2.00713E-07 8.27181E-25
 -1       297 4.64865E-05-1.17731E-06 0.00000E+00
 -1       298 4.64552E-05-1.88030E-06 0.00000E+00
 -1       299 4.64225E-05-2.21419E-06 0.00000E+00
 -1       300 4.63897E-05-2.08333E-06 0.00000E+00
 -1       301 4.37933E-05 1.27614E-06-8.27181E-25
 -1       302 4.05486E-05 1.31233E-06-2.06795E-25
 -1       303 3.72201E-05 1.35053E-06-2.06795E-25
 -1       304 3.38865E-05 1.38929E-06 0.00000E+00
 -1       305 3.06265E-05 1.42721E-06 0.00000E+00
 -1       306 4.50048E-05 3.23314E-06 2.64698E-23
 -1       307 4.33788E-05 4.46115E-06 0.00000E+00
 -1       308 4.19994E-05 5.03412E-06 2.64698E-23
 -1       309 4.08276E-05 5.04133E-06 0.00000E+00
 -1       310 3.98315E-05 4.57814E-06 2.64698E-23
 -1       311 3.89743E-05 3.74194E-06 0.00000E+00
 -1       312 3.82193E-05 2.63242E-06 0.00000E+00
 -1       313 3.75284E-05 1.35104E-06 0.00000E+00
 -1       314 3.68635E-05 2.93462E-10 0.00000E+00
 -1       315 3.61861E-05-1.31682E-06 0.00000E+00
 -1       316 3.54579E-05-2.49759E-06 2.64698E-23
 -1       317 3.46415E-05-3.44005E-06 0.00000E+00
 -1       318 3.36990E-05-4.04381E-06 2.64698E-23
 -1       319 3.25975E-05-4.20947E-06-1.32349E-23
 -1       320 3.12961E-05-3.84317E-06 2.64698E-23
 -1       321 4.63550E-05-5.29365E-07 0.00000E+00
 -1       322 4.63773E-05 4.25297E-08-8.27181E-25
 -1       323 4.63999E-05 3.62090E-07 8.27181E-25
 -1       324 4.64244E-05 4.69164E-07 0.00000E+00
 -1       325 4.64492E-05 4.03499E-07-2.06795E-25
 -1       326 4.64743E-05 2.04842E-07-2.06795E-25
 -1       327 4.64995E-05-8.70854E-08-4.13590E-25
 -1       328 4.65248E-05-4.32569E-07-4.13590E-25
 -1       329 4.65501E-05-7.91901E-07 0.00000E+00
 -1       330 4.65754E-05-1.12538E-06 4.13590E-25
 -1       331 4.66006E-05-1.39331E-06 0.00000E+00
 -1       332 4.66258E-05-1.55595E-06 0.00000E+00
 -1       333 4.66508E-05-1.57359E-06 0.00000E+00
 -1       334 4.66751E-05-1.40649E-06 0.00000E+00
 -1       335 4.66993E-05-1.01483E-06 4.13590E-25
 -1       336 4.45565E-05-1.63439E-06 0.00000E+00
 -1       337 4.18401E-05-1.87557E-06 0.00000E+00
 -1       338 3.86002E-05-2.11804E-06 0.00000E+00
 -1       339 3.52424E-05-2.36046E-06-3.30872E-24
 -1       340 3.21728E-05-2.60201E-06-6.61744E-24
 -1       341 4.54229E-05-7.29356E-07 1.32349E-23
 -1       342 4.45827E-05-3.28931E-07 0.00000E+00
 -1       343 4.38261E-05-1.50770E-07 0.00000E+00
 -1       344 4.31371E-05-1.58537E-07-6.61744E-24
 -1       345 4.25032E-05-3.14042E-07 0.00000E+00
 -1       346 4.19100E-05-5.79041E-07-6.61744E-24
 -1       347 4.13433E-05-9.14857E-07 0.00000E+00
 -1       348 4.07885E-05-1.28257E-06 0.00000E+00
 -1       349 4.02310E-05-1.64313E-06 1.32349E-23
 -1       350 3.96564E-05-1.95753E-06 0.00000E+00
 -1       351 3.90500E-05-2.18693E-06-1.32349E-23
 -1       352 3.83980E-05-2.29272E-06 0.00000E+00
 -1       353 3.76859E-05-2.23686E-06 0.00000E+00
 -1       354 3.69026E-05-1.98089E-06 6.61744E-24
 -1       355 3.60308E-05-1.48938E-06 0.00000E+00
 -1       356 4.67745E-05 3.37480E-07 0.00000E+00
 -1       357 4.68374E-05 8.36223E-07-4.13590E-25
 -1       358 4.69005E-05 1.16561E-06-1.65436E-24
 -1       359 4.69646E-05 1.35439E-06 0.00000E+00
 -1       360 4.70289E-05 1.43121E-06 0.00000E+00
 -1       361 4.70933E-05 1.42469E-06-8.27181E-25
 -1       362 4.71578E-05 1.36344E-06 1.65436E-24
 -1       363 4.72224E-05 1.27603E-06 0.00000E+00
 -1       364 4.72870E-05 1.19103E-06 0.00000E+00
 -1       365 4.73517E-05 1.13700E-06 8.27181E-25
 -1       366 4.74166E-05 1.14253E-06 0.00000E+00
 -1       367 4.74817E-05 1.23622E-06 0.00000E+00
 -1       368 4.75472E-05 1.44670E-06 0.00000E+00
 -1       369 4.76145E-05 1.80262E-06 0.00000E+00
 -1       370 4.76819E-05 2.33276E-06 0.00000E+00
 -1       371 4.53892E-05-4.19904E-07-8.27181E-25
 -1       372 4.34388E-05-4.79971E-07 8.27181E-25
 -1       373 4.11493E-05-5.40575E-07 1.65436E-24
 -1       374 3.88046E-05-6.00794E-07 0.00000E+00
 -1       375 3.66882E-05-6.60507E-07 1.65436E-24
 -1       376 4.62054E-05 2.30467E-07-6.61744E-24
 -1       377 4.57639E-05 6.07644E-07 3.30872E-24
 -1       378 4.53864E-05 8.14077E-07 6.61744E-24
 -1       379 4.50573E-05 8.88929E-07 3.30872E-24
 -1       380 4.47623E-05 8.72196E-07 0.00000E+00
 -1       381 4.44866E-05 8.03742E-07 3.30872E-24
 -1       382 4.42152E-05 7.23556E-07 0.00000E+00
 -1       383 4.39332E-05 6.71614E-07-3.30872E-24
 -1       384 4.36256E-05 6.87857E-07 0.00000E+00
 -1       385 4.32776E-05 8.12110E-07 3.30872E-24
 -1       386 4.28744E-05 1.08402E-06-6.61744E-24
 -1       387 4.24014E-05 1.54309E-06 0.00000E+00
 -1       388 4.18439E-05 2.22838E-06-6.61744E-24
 -1       389 4.11898E-05 3.17945E-06 0.00000E+00
 -1       390 4.04215E-05 4.43355E-06 2.06795E-25
 -1       406 4.68231E-05 3.55942E-06 0.00000E+00
 -1       407 4.57129E-05 4.05829E-06 0.00000E+00
 -1       408 4.44305E-05 4.55759E-06 0.00000E+00
 -1       409 4.29755E-05 5.05595E-06 6.61744E-24
 -1       410 4.13473E-05 5.55195E-06 0.00000E+00
 -1       466 2.15461E-05-8.84442E-08 6.61744E-24
 -1       467 2.19438E-05 8.87667E-07-3.30872E-24
 -1       468 2.23420E-05 1.29328E-06 0.00000E+00
 -1       469 2.27428E-05 1.23285E-06 0.00000E+00
 -1       470 2.31439E-05 8.09818E-07 0.00000E+00
 -1       471 2.35454E-05 1.26769E-07 6.61744E-24
 -1       472 2.39469E-05-7.14185E-07-1.32349E-23
 -1       473 2.43484E-05-1.61132E-06 6.61744E-24
 -1       474 2.47500E-05-2.46303E-06-1.32349E-23
 -1       475 2.51515E-05-3.16759E-06 0.00000E+00
 -1       476 2.55530E-05-3.62300E-06 0.00000E+00
 -1       477 2.59540E-05-3.72664E-06-6.61744E-24
 -1       478 2.63542E-05-3.37526E-06 0.00000E+00
 -1       479 2.67509E-05-2.46450E-06 0.00000E+00
 -1       480 2.71466E-05-8.88827E-07 0.00000E+00
 -1       481 1.89941E-05-1.63868E-06 0.00000E+00
 -1       482 1.67472E-05-1.53270E-06 1.65436E-24
 -1       483 1.45243E-05-1.42667E-06-3.30872E-24
 -1       484 1.24239E-05-1.31996E-06 1.65436E-24
 -1       485 1.05446E-05-1.21271E-06 1.65436E-24
 -1       486 2.00533E-05-7.59215E-08-6.61744E-24
 -1       487 1.90784E-05 1.16224E-06 0.00000E+00
 -1       488 1.82439E-05 2.02772E-06 0.00000E+00
 -1       489 1.75290E-05 2.56724E-06 0.00000E+00
 -1       490 1.69176E-05 2.83004E-06 1.32349E-23
 -1       491 1.63911E-05 2.86544E-06-6.61744E-24
 -1       492 1.59310E-05 2.72344E-06-1.32349E-23
 -1       493 1.55184E-05 2.45451E-06 0.00000E+00
 -1       494 1.51344E-05 2.10943E-06 1.32349E-23
 -1       495 1.47598E-05 1.73922E-06 6.61744E-24
 -1       496 1.43756E-05 1.39498E-06-1.32349E-23
 -1       497 1.39629E-05 1.12777E-06 6.61744E-24
 -1       498 1.35028E-05 9.88374E-07 0.00000E+00
 -1       499 1.29779E-05 1.02786E-06 6.61744E-24
 -1       500 1.23674E-05 1.29540E-06 6.61744E-24
 -1       501 2.76464E-05 3.73762E-06 0.00000E+00
 -1       502 2.77888E-05 5.12935E-06 0.00000E+00
 -1       503 2.79322E-05 5.75085E-06-1.65436E-24
 -1       504 2.80774E-05 5.72056E-06-1.65436E-24
 -1       505 2.82228E-05 5.15625E-06-3.30872E-24
 -1       506 2.83683E-05 4.17530E-06 0.00000E+00
 -1       507 2.85136E-05 2.89478E-06 3.30872E-24
 -1       508 2.86586E-05 1.43150E-06 1.65436E-24
 -1       509 2.88036E-05-9.78615E-08 0.00000E+00
 -1       510 2.89486E-05-1.57665E-06 0.00000E+00
 -1       511 2.90937E-05-2.88823E-06 0.00000E+00
 -1       512 2.92387E-05-3.91579E-06-1.65436E-24
 -1       513 2.93835E-05-4.54229E-06 0.00000E+00
 -1       514 2.95264E-05-4.65045E-06 0.00000E+00
 -1       515 2.96689E-05-4.12242E-06 4.13590E-25
 -1       516 2.44658E-05 1.51518E-06 0.00000E+00
 -1       517 2.12646E-05 1.58082E-06 2.06795E-25
 -1       518 1.81489E-05 1.64662E-06 2.06795E-25
 -1       519 1.53542E-05 1.71366E-06 0.00000E+00
 -1       520 1.31161E-05 1.78214E-06 0.00000E+00
 -1       521 2.58176E-05 3.49821E-06-1.32349E-23
 -1       522 2.43871E-05 4.73065E-06 1.32349E-23
 -1       523 2.32205E-05 5.26198E-06 0.00000E+00
 -1       524 2.22754E-05 5.19123E-06-1.32349E-23
 -1       525 2.15162E-05 4.62289E-06 0.00000E+00
 -1       526 2.09028E-05 3.66320E-06 0.00000E+00
 -1       527 2.03951E-05 2.42043E-06 2.64698E-23
 -1       528 1.99521E-05 1.00437E-06-1.32349E-23
 -1       529 1.95325E-05-4.74328E-07 0.00000E+00
 -1       530 1.90949E-05-1.90465E-06-1.32349E-23
 -1       531 1.85980E-05-3.17584E-06 0.00000E+00
 -1       532 1.80011E-05-4.17794E-06-1.32349E-23
 -1       533 1.72634E-05-4.80243E-06 2.64698E-23
 -1       534 1.63480E-05-4.94198E-06 0.00000E+00
 -1       535 1.52116E-05-4.49383E-06-1.32349E-23
 -1       536 3.01006E-05-1.37384E-06 0.00000E+00
 -1       537 3.04298E-05-3.68922E-07 0.00000E+00
 -1       538 3.07597E-05 2.35813E-07-6.61744E-24
 -1       539 3.10929E-05 5.02164E-07 3.30872E-24
 -1       540 3.14268E-05 4.91297E-07 0.00000E+00
 -1       541 3.17613E-05 2.63844E-07 0.00000E+00
 -1       542 3.20959E-05-1.19905E-07 0.00000E+00
 -1       543 3.24306E-05-5.99978E-07 0.00000E+00
 -1       544 3.27653E-05-1.11655E-06 0.00000E+00
 -1       545 3.31000E-05-1.60987E-06 0.00000E+00
 -1       546 3.34346E-05-2.02016E-06 0.00000E+00
 -1       547 3.37689E-05-2.28746E-06 0.00000E+00
 -1       548 3.41028E-05-2.35160E-06 1.32349E-23
 -1       549 3.44346E-05-2.15200E-06 3.30872E-24
 -1       550 3.47662E-05-1.62761E-06-6.61744E-24
 -1       551 2.74446E-05-2.92885E-06 2.06795E-24
 -1       552 2.47650E-05-3.01154E-06-6.20385E-25
 -1       553 2.19096E-05-3.09368E-06 0.00000E+00
 -1       554 1.90341E-05-3.17596E-06 0.00000E+00
 -1       555 1.62942E-05-3.25908E-06 6.61744E-24
 -1       556 2.89005E-05-1.56523E-06 0.00000E+00
 -1       557 2.81473E-05-6.87005E-07-6.61744E-24
 -1       558 2.75226E-05-1.54195E-07 0.00000E+00
 -1       559 2.70071E-05 8.60713E-08 0.00000E+00
 -1       560 2.65812E-05 8.67890E-08-1.32349E-23
 -1       561 2.62251E-05-9.88469E-08 0.00000E+00
 -1       562 2.59189E-05-4.17593E-07 0.00000E+00
 -1       563 2.56425E-05-8.16127E-07-6.61744E-24
 -1       564 2.53761E-05-1.24110E-06 0.00000E+00
 -1       565 2.50997E-05-1.63916E-06-6.61744E-24
 -1       566 2.47932E-05-1.95695E-06-6.61744E-24
 -1       567 2.44369E-05-2.14112E-06 3.30872E-24
 -1       568 2.40109E-05-2.13839E-06-6.61744E-24
 -1       569 2.34961E-05-1.89549E-06-1.65436E-24
 -1       570 2.28734E-05-1.35927E-06-3.30872E-24
 -1       571 3.53459E-05 1.62254E-07 2.89513E-24
 -1       572 3.56219E-05 7.67569E-07 1.65436E-24
 -1       573 3.59006E-05 1.14289E-06 3.30872E-24
 -1       574 3.61807E-05 1.33415E-06 0.00000E+00
 -1       575 3.64614E-05 1.38731E-06 6.61744E-24
 -1       576 3.67424E-05 1.34847E-06 3.30872E-24
 -1       577 3.70235E-05 1.26370E-06-6.61744E-24
 -1       578 3.73047E-05 1.17907E-06 6.61744E-24
 -1       579 3.75858E-05 1.14066E-06 0.00000E+00
 -1       580 3.78670E-05 1.19456E-06 0.00000E+00
 -1       581 3.81481E-05 1.38687E-06 0.00000E+00
 -1       582 3.84291E-05 1.76373E-06 0.00000E+00
 -1       583 3.87098E-05 2.37129E-06 1.32349E-23
 -1       584 3.89901E-05 3.25557E-06 0.00000E+00
 -1       585 3.92696E-05 4.46259E-06 1.32349E-23
 -1       586 3.32756E-05-6.76781E-07 6.61744E-24
 -1       587 3.11063E-05-6.34570E-07 0.00000E+00
 -1       588 2.87398E-05-5.92457E-07 0.00000E+00
 -1       589 2.63441E-05-5.50870E-07 0.00000E+00
 -1       590 2.40870E-05-5.10251E-07 0.00000E+00
 -1       591 3.44884E-05 1.63201E-07 0.00000E+00
 -1       592 3.39573E-05 8.43501E-07-3.30872E-24
 -1       593 3.34865E-05 1.35800E-06 0.00000E+00
 -1       594 3.30644E-05 1.73941E-06-3.30872E-24
 -1       595 3.26796E-05 2.02056E-06 0.00000E+00
 -1       596 3.23200E-05 2.23415E-06 0.00000E+00
 -1       597 3.19734E-05 2.41290E-06 6.61744E-24
 -1       598 3.16275E-05 2.58954E-06 3.30872E-24
 -1       599 3.12702E-05 2.79677E-06 0.00000E+00
 -1       600 3.08891E-05 3.06730E-06 0.00000E+00
 -1       601 3.04721E-05 3.43381E-06 3.30872E-24
 -1       602 3.00071E-05 3.92901E-06-1.65436E-24
 -1       603 2.94819E-05 4.58555E-06 0.00000E+00
 -1       604 2.88854E-05 5.43623E-06 2.89513E-24
 -1       605 2.82062E-05 6.51375E-06-8.27181E-25
 -1       606 3.96316E-05 8.08771E-06 6.61744E-24
 -1       607 3.97094E-05 1.03691E-05 0.00000E+00
 -1       608 3.97854E-05 1.28645E-05-6.61744E-24
 -1       609 3.98601E-05 1.55566E-05 0.00000E+00
 -1       610 3.99341E-05 1.84281E-05-6.61744E-24
 -1       611 4.00076E-05 2.14616E-05 3.30872E-24
 -1       612 4.00805E-05 2.46398E-05 0.00000E+00
 -1       613 4.01530E-05 2.79452E-05 0.00000E+00
 -1       614 4.02252E-05 3.13605E-05 3.30872E-24
 -1       615 4.02970E-05 3.48683E-05 0.00000E+00
 -1       616 4.03686E-05 3.84513E-05 0.00000E+00
 -1       617 4.04399E-05 4.20920E-05 0.00000E+00
 -1       618 4.05111E-05 4.57731E-05 0.00000E+00
 -1       619 4.05820E-05 4.94774E-05 0.00000E+00
 -1       620 4.06525E-05 5.31874E-05 0.00000E+00
 -1       621 3.75007E-05 6.33886E-06 6.61744E-24
 -1       622 3.54050E-05 6.64467E-06-3.30872E-24
 -1       623 3.33052E-05 6.95070E-06 0.00000E+00
 -1       624 3.12478E-05 7.25601E-06 3.30872E-24
 -1       625 2.92791E-05 7.55957E-06-3.30872E-24
 -1       626 3.89384E-05 8.18854E-06 0.00000E+00
 -1       627 3.82307E-05 1.05971E-05 1.32349E-23
 -1       628 3.74354E-05 1.32364E-05 1.32349E-23
 -1       629 3.65631E-05 1.60786E-05 0.00000E+00
 -1       630 3.56244E-05 1.90959E-05 0.00000E+00
 -1       631 3.46301E-05 2.22605E-05 0.00000E+00
 -1       632 3.35905E-05 2.55443E-05-6.61744E-24
 -1       633 3.25163E-05 2.89198E-05-3.30872E-24
 -1       634 3.14180E-05 3.23588E-05 0.00000E+00
 -1       635 3.03061E-05 3.58336E-05 3.30872E-24
 -1       636 2.91912E-05 3.93163E-05-6.61744E-24
 -1       637 2.80837E-05 4.27792E-05-3.30872E-24
 -1       638 2.69940E-05 4.61941E-05 3.30872E-24
 -1       639 2.59321E-05 4.95334E-05-8.27181E-25
 -1       640 2.49081E-05 5.27690E-05 0.00000E+00
 -1       641 4.07208E-05 6.05669E-05 0.00000E+00
 -1       642 4.07183E-05 6.43073E-05-2.06795E-25
 -1       643 4.07157E-05 6.80965E-05 0.00000E+00
 -1       644 4.07127E-05 7.19237E-05 0.00000E+00
 -1       645 4.07096E-05 7.57780E-05 0.00000E+00
 -1       646 4.07064E-05 7.96486E-05 5.16988E-26
 -1       647 4.07031E-05 8.35247E-05-1.03398E-25
 -1       648 4.06998E-05 8.73953E-05-5.16988E-26
 -1       649 4.06966E-05 9.12497E-05 1.03398E-25
 -1       650 4.06935E-05 9.50771E-05-2.58494E-26
 -1       651 4.06905E-05 9.88666E-05 0.00000E+00
 -1       652 4.06876E-05 1.02607E-04 0.00000E+00
 -1       653 4.06848E-05 1.06288E-04 0.00000E+00
 -1       654 4.06818E-05 1.09899E-04 0.00000E+00
 -1       655 4.06790E-05 1.13428E-04 0.00000E+00
 -1       656 3.73807E-05 5.67214E-05 0.00000E+00
 -1       657 3.44439E-05 5.65493E-05 0.00000E+00
 -1       658 3.17709E-05 5.63781E-05 0.00000E+00
 -1       659 2.92209E-05 5.62071E-05-1.65436E-24
 -1       660 2.66529E-05 5.60358E-05 1.65436E-24
 -1       661 3.95025E-05 6.06210E-05 0.00000E+00
 -1       662 3.82713E-05 6.44056E-05 1.65436E-24
 -1       663 3.70264E-05 6.82262E-05 0.00000E+00
 -1       664 3.57730E-05 7.20717E-05 0.00000E+00
 -1       665 3.45147E-05 7.59304E-05-6.61744E-24
 -1       666 3.32559E-05 7.97908E-05-3.30872E-24
 -1       667 3.20007E-05 8.36416E-05 0.00000E+00
 -1       668 3.07536E-05 8.74713E-05-3.30872E-24
 -1       669 2.95189E-05 9.12683E-05-6.61744E-24
 -1       670 2.83008E-05 9.50213E-05 3.30872E-24
 -1       671 2.71037E-05 9.87187E-05 0.00000E+00
 -1       672 2.59319E-05 1.02349E-04 0.00000E+00
 -1       673 2.47898E-05 1.05900E-04 0.00000E+00
 -1       674 2.36807E-05 1.09360E-04 0.00000E+00
 -1       675 2.26104E-05 1.12717E-04 0.00000E+00
 -1       676 3.73459E-05 1.16716E-04 0.00000E+00
 -1       677 3.41020E-05 1.16563E-04 1.65436E-24
 -1       678 3.09223E-05 1.16410E-04-3.30872E-24
 -1       679 2.77874E-05 1.16258E-04 1.65436E-24
 -1       680 2.46778E-05 1.16105E-04 0.00000E+00
 -1       681 9.14815E-06 2.95424E-08 3.30872E-24
 -1       682 9.31642E-06 8.39951E-07-1.65436E-24
 -1       683 9.48492E-06 1.36751E-06 0.00000E+00
 -1       684 9.65411E-06 1.65519E-06 1.65436E-24
 -1       685 9.82346E-06 1.74571E-06 0.00000E+00
 -1       686 9.99292E-06 1.68161E-06-3.30872E-24
 -1       687 1.01624E-05 1.50532E-06 6.61744E-24
 -1       688 1.03319E-05 1.25912E-06 0.00000E+00
 -1       689 1.05014E-05 9.85254E-07 0.00000E+00
 -1       690 1.06708E-05 7.25943E-07-3.30872E-24
 -1       691 1.08401E-05 5.23414E-07 6.61744E-24
 -1       692 1.10092E-05 4.19946E-07-3.30872E-24
 -1       693 1.11780E-05 4.57906E-07 0.00000E+00
 -1       694 1.13453E-05 6.79784E-07 0.00000E+00
 -1       695 1.15125E-05 1.12829E-06-1.65436E-24
 -1       696 7.53375E-06-9.27211E-07 0.00000E+00
 -1       697 5.95697E-06-7.42982E-07-3.30872E-24
 -1       698 4.33455E-06-5.58711E-07-6.61744E-24
 -1       699 2.74717E-06-3.73438E-07 0.00000E+00
 -1       700 1.27550E-06-1.87834E-07-6.61744E-24
 -1       701 8.36491E-06 1.70603E-08 0.00000E+00
 -1       702 7.82735E-06 8.89363E-07 0.00000E+00
 -1       703 7.37292E-06 1.54062E-06 0.00000E+00
 -1       704 6.99004E-06 1.99699E-06-3.30872E-24
 -1       705 6.66980E-06 2.28583E-06 6.61744E-24
 -1       706 6.40199E-06 2.43424E-06 0.00000E+00
 -1       707 6.17654E-06 2.46955E-06 0.00000E+00
 -1       708 5.98318E-06 2.41917E-06 0.00000E+00
 -1       709 5.81163E-06 2.31062E-06 0.00000E+00
 -1       710 5.65160E-06 2.17148E-06 3.30872E-24
 -1       711 5.49275E-06 2.02937E-06 0.00000E+00
 -1       712 5.32492E-06 1.91194E-06 0.00000E+00
 -1       713 5.13773E-06 1.84679E-06 3.30872E-24
 -1       714 4.92205E-06 1.86185E-06 1.65436E-24
 -1       715 4.66614E-06 1.98405E-06 0.00000E+00
 -1       716 1.17969E-05 2.42964E-06-6.72084E-25
 -1       717 1.19339E-05 2.52763E-06-8.27181E-25
 -1       718 1.20711E-05 2.21808E-06 0.00000E+00
 -1       719 1.22093E-05 1.57950E-06 0.00000E+00
 -1       720 1.23476E-05 6.90109E-07 0.00000E+00
 -1       721 1.24860E-05-3.72080E-07 1.65436E-24
 -1       722 1.26243E-05-1.52914E-06 3.30872E-24
 -1       723 1.27627E-05-2.70327E-06 0.00000E+00
 -1       724 1.29011E-05-3.81663E-06 0.00000E+00
 -1       725 1.30396E-05-4.79136E-06 1.65436E-24
 -1       726 1.31781E-05-5.54950E-06 3.30872E-24
 -1       727 1.33163E-05-6.01290E-06 1.65436E-24
 -1       728 1.34542E-05-6.10324E-06 0.00000E+00
 -1       729 1.35898E-05-5.74189E-06 0.00000E+00
 -1       730 1.37250E-05-4.84982E-06 6.20385E-25
 -1       731 1.05365E-05 1.90700E-06 0.00000E+00
 -1       732 9.14593E-06 1.97384E-06 0.00000E+00
 -1       733 7.66541E-06 2.04062E-06 0.00000E+00
 -1       734 6.26361E-06 2.10826E-06 0.00000E+00
 -1       735 5.10922E-06 2.17635E-06 0.00000E+00
 -1       736 1.09830E-05 2.42401E-06 0.00000E+00
 -1       737 1.03796E-05 2.73524E-06 6.61744E-24
 -1       738 9.86299E-06 2.81566E-06 0.00000E+00
 -1       739 9.41913E-06 2.69583E-06-6.61744E-24
 -1       740 9.03784E-06 2.40813E-06 0.00000E+00
 -1       741 8.70699E-06 1.98482E-06 0.00000E+00
 -1       742 8.41460E-06 1.45856E-06 0.00000E+00
 -1       743 8.14839E-06 8.62254E-07 0.00000E+00
 -1       744 7.89602E-06 2.28971E-07 1.32349E-23
 -1       745 7.64512E-06-4.08104E-07-6.61744E-24
 -1       746 7.38330E-06-1.01580E-06 0.00000E+00
 -1       747 7.09838E-06-1.56096E-06 0.00000E+00
 -1       748 6.77799E-06-2.01064E-06 1.32349E-23
 -1       749 6.41130E-06-2.33170E-06 6.61744E-24
 -1       750 5.98443E-06-2.49237E-06 0.00000E+00
 -1       751 1.43276E-05-1.78081E-06-3.30872E-24
 -1       752 1.48449E-05-7.05555E-07 0.00000E+00
 -1       753 1.53629E-05-5.47830E-08 0.00000E+00
 -1       754 1.58856E-05 2.38690E-07 0.00000E+00
 -1       755 1.64092E-05 2.41077E-07 1.32349E-23
 -1       756 1.69336E-05 1.76887E-08 0.00000E+00
 -1       757 1.74582E-05-3.66716E-07-1.32349E-23
 -1       758 1.79829E-05-8.47896E-07 0.00000E+00
 -1       759 1.85077E-05-1.36184E-06 0.00000E+00
 -1       760 1.90323E-05-1.84464E-06 0.00000E+00
 -1       761 1.95568E-05-2.23233E-06 0.00000E+00
 -1       762 2.00806E-05-2.46062E-06-6.61744E-24
 -1       763 2.06037E-05-2.46484E-06-1.32349E-23
 -1       764 2.11231E-05-2.17962E-06 6.61744E-24
 -1       765 2.16420E-05-1.53881E-06 6.61744E-24
 -1       766 1.19553E-05-3.21230E-06-1.65436E-24
 -1       767 1.01459E-05-3.05965E-06 4.13590E-25
 -1       768 8.50518E-06-2.90693E-06 0.00000E+00
 -1       769 7.12337E-06-2.75328E-06 0.00000E+00
 -1       770 6.09094E-06-2.59888E-06 0.00000E+00
 -1       771 1.25621E-05-1.96473E-06 2.64698E-23
 -1       772 1.13734E-05-8.88932E-07 0.00000E+00
 -1       773 1.02836E-05-8.58586E-08 2.64698E-23
 -1       774 9.28196E-06 4.76064E-07 0.00000E+00
 -1       775 8.35832E-06 8.28582E-07 0.00000E+00
 -1       776 7.50107E-06 1.00337E-06-1.32349E-23
 -1       777 6.69847E-06 1.03217E-06-2.64698E-23
 -1       778 5.93865E-06 9.46816E-07 1.32349E-23
 -1       779 5.20970E-06 7.79218E-07 0.00000E+00
 -1       780 4.49966E-06 5.61345E-07 1.32349E-23
 -1       781 3.79662E-06 3.25209E-07-2.64698E-23
 -1       782 3.08877E-06 1.02883E-07 1.32349E-23
 -1       783 2.36437E-06-7.35490E-08-1.32349E-23
 -1       784 1.61282E-06-1.71721E-07 0.00000E+00
 -1       785 8.23371E-07-1.59364E-07-1.32349E-23
 -1       786 2.24457E-05 6.69801E-07 0.00000E+00
 -1       787 2.27768E-05 1.52570E-06 0.00000E+00
 -1       788 2.31082E-05 2.13674E-06-6.61744E-24
 -1       789 2.34423E-05 2.54757E-06 0.00000E+00
 -1       790 2.37769E-05 2.80247E-06 1.32349E-23
 -1       791 2.41121E-05 2.94542E-06 0.00000E+00
 -1       792 2.44474E-05 3.02022E-06-1.32349E-23
 -1       793 2.47829E-05 3.07053E-06 6.61744E-24
 -1       794 2.51183E-05 3.13997E-06 0.00000E+00
 -1       795 2.54537E-05 3.27221E-06 0.00000E+00
 -1       796 2.57890E-05 3.51101E-06 0.00000E+00
 -1       797 2.61239E-05 3.90035E-06 0.00000E+00
 -1       798 2.64585E-05 4.48444E-06 0.00000E+00
 -1       799 2.67913E-05 5.30787E-06 3.30872E-24
 -1       800 2.71238E-05 6.41569E-06 6.61744E-24
 -1       801 1.94808E-05-3.96579E-07 0.00000E+00
 -1       802 1.53311E-05-3.13682E-07 0.00000E+00
 -1       803 1.04954E-05-2.33692E-07-4.13590E-25
 -1       804 5.78666E-06-1.54187E-07 0.00000E+00
 -1       805 2.01800E-06-7.13677E-08 0.00000E+00
 -1       806 2.13110E-05 5.26303E-07 0.00000E+00
 -1       807 2.05453E-05 1.33598E-06 0.00000E+00
 -1       808 1.98362E-05 1.98779E-06-1.32349E-23
 -1       809 1.91729E-05 2.51365E-06-6.61744E-24
 -1       810 1.85444E-05 2.94557E-06-1.32349E-23
 -1       811 1.79390E-05 3.31547E-06 6.61744E-24
 -1       812 1.73448E-05 3.65521E-06 1.32349E-23
 -1       813 1.67499E-05 3.99667E-06-6.61744E-24
 -1       814 1.61423E-05 4.37174E-06 0.00000E+00
 -1       815 1.55102E-05 4.81227E-06 0.00000E+00
 -1       816 1.48417E-05 5.35009E-06 0.00000E+00
 -1       817 1.41250E-05 6.01703E-06 0.00000E+00
 -1       818 1.33483E-05 6.84486E-06 1.32349E-23
 -1       819 1.25009E-05 7.86549E-06-3.30872E-24
 -1       820 1.15720E-05 9.11072E-06 0.00000E+00
 -1       821 2.72401E-05 9.66660E-06 0.00000E+00
 -1       822 2.70227E-05 1.17934E-05 0.00000E+00
 -1       823 2.68045E-05 1.42015E-05 0.00000E+00
 -1       824 2.65841E-05 1.68577E-05 3.30872E-24
 -1       825 2.63627E-05 1.97293E-05 0.00000E+00
 -1       826 2.61405E-05 2.27826E-05 3.30872E-24
 -1       827 2.59178E-05 2.59841E-05 0.00000E+00
 -1       828 2.56946E-05 2.93001E-05 0.00000E+00
 -1       829 2.54712E-05 3.26967E-05 0.00000E+00
 -1       830 2.52476E-05 3.61398E-05-3.30872E-24
 -1       831 2.50242E-05 3.95955E-05 0.00000E+00
 -1       832 2.48010E-05 4.30297E-05 3.30872E-24
 -1       833 2.45783E-05 4.64082E-05 6.61744E-24
 -1       834 2.43572E-05 4.96973E-05 3.30872E-24
 -1       835 2.41366E-05 5.28629E-05-3.30872E-24
 -1       836 2.52485E-05 8.30533E-06-6.61744E-24
 -1       837 2.23853E-05 8.77266E-06 0.00000E+00
 -1       838 1.91701E-05 9.23856E-06 0.00000E+00
 -1       839 1.59180E-05 9.70360E-06-3.30872E-24
 -1       840 1.29442E-05 1.01697E-05 0.00000E+00
 -1       841 2.67184E-05 9.65995E-06-8.27181E-25
 -1       842 2.58630E-05 1.17942E-05 5.16988E-26
 -1       843 2.48968E-05 1.42217E-05 4.13590E-25
 -1       844 2.38331E-05 1.69054E-05-8.27181E-25
 -1       845 2.26860E-05 1.98092E-05 0.00000E+00
 -1       846 2.14695E-05 2.28962E-05-4.13590E-25
 -1       847 2.01975E-05 2.61298E-05 0.00000E+00
 -1       848 1.88839E-05 2.94732E-05 8.27181E-25
 -1       849 1.75426E-05 3.28897E-05 0.00000E+00
 -1       850 1.61875E-05 3.63424E-05-8.27181E-25
 -1       851 1.48326E-05 3.97946E-05 0.00000E+00
 -1       852 1.34919E-05 4.32095E-05-8.27181E-25
 -1       853 1.21792E-05 4.65501E-05 0.00000E+00
 -1       854 1.09082E-05 4.97798E-05-8.27181E-25
 -1       855 9.69320E-06 5.28618E-05 0.00000E+00
 -1       856 2.37886E-05 5.89285E-05 0.00000E+00
 -1       857 2.36434E-05 6.22377E-05 0.00000E+00
 -1       858 2.34974E-05 6.57660E-05-3.30872E-24
 -1       859 2.33498E-05 6.94791E-05 0.00000E+00
 -1       860 2.32016E-05 7.33430E-05 0.00000E+00
 -1       861 2.30527E-05 7.73232E-05 0.00000E+00
 -1       862 2.29034E-05 8.13856E-05 0.00000E+00
 -1       863 2.27540E-05 8.54956E-05-1.65436E-24
 -1       864 2.26045E-05 8.96187E-05 0.00000E+00
 -1       865 2.24550E-05 9.37205E-05 0.00000E+00
 -1       866 2.23059E-05 9.77665E-05 0.00000E+00
 -1       867 2.21571E-05 1.01722E-04 0.00000E+00
 -1       868 2.20090E-05 1.05553E-04 3.30872E-24
 -1       869 2.18619E-05 1.09226E-04-1.65436E-24
 -1       870 2.17156E-05 1.12705E-04 0.00000E+00
 -1       871 2.12313E-05 5.58549E-05 0.00000E+00
 -1       872 1.86587E-05 5.58371E-05 0.00000E+00
 -1       873 1.61566E-05 5.58191E-05-8.27181E-25
 -1       874 1.36723E-05 5.58006E-05 4.13590E-25
 -1       875 1.11529E-05 5.57815E-05-1.65436E-24
 -1       876 2.29777E-05 5.89709E-05-3.30872E-24
 -1       877 2.19588E-05 6.22801E-05-3.30872E-24
 -1       878 2.08717E-05 6.57693E-05-6.61744E-24
 -1       879 1.97276E-05 6.94122E-05-3.30872E-24
 -1       880 1.85357E-05 7.31817E-05 0.00000E+00
 -1       881 1.73061E-05 7.70513E-05 0.00000E+00
 -1       882 1.60486E-05 8.09946E-05 6.61744E-24
 -1       883 1.47732E-05 8.49853E-05-3.30872E-24
 -1       884 1.34897E-05 8.89971E-05 6.61744E-24
 -1       885 1.22081E-05 9.30039E-05 3.30872E-24
 -1       886 1.09383E-05 9.69793E-05 0.00000E+00
 -1       887 9.69013E-06 1.00897E-04 0.00000E+00
 -1       888 8.47350E-06 1.04731E-04 0.00000E+00
 -1       889 7.29737E-06 1.08454E-04 0.00000E+00
 -1       890 6.17310E-06 1.12041E-04 3.30872E-24
 -1       891 1.86691E-05 1.15874E-04 3.30872E-24
 -1       892 1.60003E-05 1.15791E-04 0.00000E+00
 -1       893 1.34385E-05 1.15708E-04 0.00000E+00
 -1       894 1.08542E-05 1.15625E-04 0.00000E+00
 -1       895 8.11796E-06 1.15542E-04-1.65436E-24
 -1       896 2.71642E-07 9.74655E-07 0.00000E+00
 -1       897 5.45426E-07 1.70241E-06 0.00000E+00
 -1       898 8.19366E-07 2.21282E-06 0.00000E+00
 -1       899 1.09365E-06 2.53539E-06 0.00000E+00
 -1       900 1.36802E-06 2.69936E-06-6.61744E-24
 -1       901 1.64246E-06 2.73371E-06 3.30872E-24
 -1       902 1.91691E-06 2.66726E-06 0.00000E+00
 -1       903 2.19134E-06 2.52864E-06 0.00000E+00
 -1       904 2.46576E-06 2.34640E-06 6.61744E-24
 -1       905 2.74013E-06 2.14904E-06-3.30872E-24
 -1       906 3.01441E-06 1.96500E-06 6.61744E-24
 -1       907 3.28847E-06 1.82277E-06-3.30872E-24
 -1       908 3.56227E-06 1.75089E-06-6.61744E-24
 -1       909 3.83479E-06 1.77800E-06-3.30872E-24
 -1       910 4.10721E-06 1.93291E-06 0.00000E+00
 -1       911 4.44104E-06 2.52485E-06 0.00000E+00
 -1       912 4.51254E-06 2.58832E-06-8.27181E-25
 -1       913 4.58404E-06 2.46481E-06 0.00000E+00
 -1       914 4.65561E-06 2.18456E-06 0.00000E+00
 -1       915 4.72716E-06 1.77771E-06 0.00000E+00
 -1       916 4.79868E-06 1.27437E-06-8.27181E-25
 -1       917 4.87017E-06 7.04592E-07 1.65436E-24
 -1       918 4.94164E-06 9.84141E-08 8.27181E-25
 -1       919 5.01307E-06-5.14138E-07 0.00000E+00
 -1       920 5.08448E-06-1.10304E-06 0.00000E+00
 -1       921 5.15583E-06-1.63827E-06 1.65436E-24
 -1       922 5.22699E-06-2.08977E-06-8.27181E-25
 -1       923 5.29794E-06-2.42746E-06 0.00000E+00
 -1       924 5.36770E-06-2.62123E-06 4.13590E-25
 -1       925 5.43738E-06-2.64085E-06 4.13590E-25
 -1       926 5.16380E-06-2.19472E-06 0.00000E+00
 -1       927 4.82077E-06-2.00792E-06-3.30872E-24
 -1       928 4.47768E-06-1.88329E-06 1.32349E-23
 -1       929 4.13337E-06-1.80791E-06 0.00000E+00
 -1       930 3.78882E-06-1.76880E-06 0.00000E+00
 -1       931 3.44406E-06-1.75290E-06 0.00000E+00
 -1       932 3.09922E-06-1.74713E-06 0.00000E+00
 -1       933 2.75433E-06-1.73837E-06 0.00000E+00
 -1       934 2.40943E-06-1.71351E-06 0.00000E+00
 -1       935 2.06453E-06-1.65947E-06-6.61744E-24
 -1       936 1.71965E-06-1.56322E-06 0.00000E+00
 -1       937 1.37484E-06-1.41183E-06 0.00000E+00
 -1       938 1.03010E-06-1.19243E-06-1.32349E-23
 -1       939 6.85743E-07-8.92336E-07 0.00000E+00
 -1       940 3.41390E-07-4.98943E-07 0.00000E+00
 -1       941 6.19311E-07 4.97127E-07 6.61744E-24
 -1       942 1.27893E-06 9.02365E-07 6.61744E-24
 -1       943 1.93899E-06 1.24018E-06 0.00000E+00
 -1       944 2.60460E-06 1.53489E-06 6.61744E-24
 -1       945 3.27130E-06 1.81068E-06 0.00000E+00
 -1       946 3.93903E-06 2.09165E-06 1.32349E-23
 -1       947 4.60708E-06 2.40192E-06 0.00000E+00
 -1       948 5.27529E-06 2.76572E-06-1.32349E-23
 -1       949 5.94350E-06 3.20747E-06 2.64698E-23
 -1       950 6.61154E-06 3.75189E-06 0.00000E+00
 -1       951 7.27924E-06 4.42401E-06 0.00000E+00
 -1       952 7.94608E-06 5.24941E-06 0.00000E+00
 -1       953 8.61190E-06 6.25413E-06-1.32349E-23
 -1       954 9.27326E-06 7.46490E-06-6.61744E-24
 -1       955 9.93401E-06 8.90919E-06-1.32349E-23
 -1       956 1.04428E-05 1.26307E-05-2.06795E-24
 -1       957 1.03187E-05 1.48493E-05-1.24077E-24
 -1       958 1.01936E-05 1.72513E-05-1.84823E-24
 -1       959 1.00679E-05 1.98164E-05-2.06795E-25
 -1       960 9.94165E-06 2.25239E-05 1.65436E-24
 -1       961 9.81504E-06 2.53529E-05-8.27181E-25
 -1       962 9.68814E-06 2.82828E-05 1.65436E-24
 -1       963 9.56100E-06 3.12928E-05-1.65436E-24
 -1       964 9.43370E-06 3.43621E-05 0.00000E+00
 -1       965 9.30628E-06 3.74697E-05 0.00000E+00
 -1       966 9.17883E-06 4.05950E-05 0.00000E+00
 -1       967 9.05142E-06 4.37172E-05 0.00000E+00
 -1       968 8.92415E-06 4.68153E-05 0.00000E+00
 -1       969 8.79719E-06 4.98687E-05 1.65436E-24
 -1       970 8.67076E-06 5.28566E-05 0.00000E+00
 -1       971 8.33858E-06 5.87093E-05-3.30872E-24
 -1       972 8.12474E-06 6.19143E-05 0.00000E+00
 -1       973 7.91014E-06 6.53427E-05 0.00000E+00
 -1       974 7.69415E-06 6.89623E-05-3.30872E-24
 -1       975 7.47746E-06 7.27410E-05 0.00000E+00
 -1       976 7.26017E-06 7.66460E-05 3.30872E-24
 -1       977 7.04248E-06 8.06451E-05 6.61744E-24
 -1       978 6.82453E-06 8.47053E-05 0.00000E+00
 -1       979 6.60648E-06 8.87939E-05 0.00000E+00
 -1       980 6.38849E-06 9.28782E-05-3.30872E-24
 -1       981 6.17070E-06 9.69252E-05 6.61744E-24
 -1       982 5.95338E-06 1.00902E-04 0.00000E+00
 -1       983 5.73665E-06 1.04777E-04-6.61744E-24
 -1       984 5.52148E-06 1.08516E-04 0.00000E+00
 -1       985 5.30697E-06 1.12088E-04-3.30872E-24
 -3
    1PSTEP                         2           1           1          
  100CL  101 1.000000000         841                     0    1           1
 -4  STRESS      6    1
 -5  SXX         1    4    1    1
 -5  SYY         1    4    2    2
 -5  SZZ         1    4    3    3
 -5  SXY         1    4    1    2
 -5  SYZ         1    4    2    3
 -5  SZX         1    4    3    1
 -1         1-1.93927E+06-5.79720E+05-1.84010E+05-7.43519E+05-1.11565E-10-3.15777E-09
 -1         2-1.17518E+06 7.41147E+03 2.13226E+03-1.51691E+05-5.22959E-11 5.70344E-09
 -1         3-4.60711E+05-1.88925E+05 2.56186E+02-8.28413E+04-1.70871E-10 4.69049E-09
 -1         4-9.73347E+04-4.81499E+04 1.72701E+02-2.83854E+04-9.32232E-12-1.88288E-09
 -1         5 3.62386E+04 6.01234E+05-9.20736E+04 2.23141E+03 9.38599E-10-3.96142E-09
 -1         8-5.03571E+05-3.42702E+05-2.17594E+04-5.66310E+05 2.27374E-10 1.37516E-09
 -1         9-9.03790E+05-1.46972E+05-6.68845E+04-4.07701E+05 1.15688E-09-6.39920E-09
 -1        10-5.02257E+05-2.99774E+05 4.86337E+02-2.61838E+05-6.56958E-10 1.92570E-09
 -1        11-1.70814E+05-9.42685E+04 1.54843E+02-1.33254E+05 9.05705E-11 4.83305E-09
 -1        12 2.47708E+04 5.93457E+05-9.13052E+04 3.46347E+02 3.26111E-09-2.78571E-09
 -1        15 1.09525E+04-1.73818E+04 1.51660E+03-1.73147E+05-2.36469E-11-2.61207E-09
 -1        16-4.54978E+05-1.33845E+05-4.02499E+04-3.62274E+05 1.69712E-09-4.38073E-10
 -1        17-3.27855E+05-2.50438E+05 6.51524E+03-3.84020E+05-1.02409E-09 4.12304E-10
 -1        18-6.18096E+04-8.34521E+04-2.44310E+04-2.89357E+05-7.59731E-10 1.58858E-10
 -1        19 1.53337E+05 3.16930E+05-3.97381E+04-3.01053E+04 7.42148E-10 8.93124E-10
 -1        20 1.31061E+05-8.70203E+04-1.44067E+04 8.28338E+04 2.18486E-08-1.91449E-09
 -1        21-1.98087E+04-1.88256E+05-8.46540E+02 1.33670E+04 2.68174E-08-7.90493E-10
 -1        22 2.88612E+04 1.71891E+05 6.77446E+02-8.16489E+04 6.32099E-11-1.61890E-10
 -1        23-1.91643E+05-1.09192E+04 1.29837E+03-1.94278E+05 9.00400E-10-1.71606E-09
 -1        24-2.53954E+05-4.22986E+04 7.45420E+04-3.46747E+05-2.68362E-09-2.74061E-10
 -1        25 1.56342E+05 6.68783E+04 1.03180E+05-3.59930E+05 1.22782E-09-7.60338E-10
 -1        26 9.21607E+03 3.07242E+05 2.15463E+04-1.12480E+05-6.00645E-10 2.15338E-09
 -1        27-4.96001E+04-6.69529E+04-3.16242E+04 1.18929E+05 7.40389E-09-2.37984E-09
 -1        28-1.19807E+04-1.30312E+05-9.28767E+02 6.97982E+04 1.29160E-08-3.88853E-09
 -1        29 3.79182E+05 2.81688E+05 9.83686E+02-4.72428E+04 3.45608E-11 2.63014E-10
 -1        30 1.31825E+05 3.33137E+04 9.52644E+02-8.34000E+04 5.05686E-10-8.91305E-11
 -1        31-4.17531E+05 3.10020E+04 2.05288E+03-1.18592E+05-1.23457E-10 3.56522E-10
 -1        32-1.15613E+05 9.30935E+04 1.51498E+05-3.39329E+05-9.52703E-10 2.78669E-09
 -1        33 2.49999E+05 3.63623E+05 1.53696E+05-1.51029E+05 2.99849E-10 8.31278E-10
 -1        34-2.61576E+05-3.32071E+04-1.10858E+04 6.08898E+04-2.67190E-09-3.20233E-09
 -1        35-4.21354E+04-4.32604E+04-7.26965E+02 9.77581E+04 1.37751E-08 1.53401E-09
 -1        36-2.61103E+06 1.32956E+04-9.39576E+04-1.37934E-08-3.84825E-10-3.61251E-09
 -1        37-2.64199E+06-2.37110E+04-5.77956E+04 3.23053E-09 2.99029E-10 1.44701E-09
 -1        38-2.62438E+06 1.20191E+03-2.41572E+04 1.68467E-09-4.36347E-11-3.18050E-09
 -1        39-2.62729E+06-1.86175E+03-1.30920E+04 9.01207E-09-1.34531E-09-3.08091E-10
 -1        40-2.62565E+06 1.32467E+02-6.18233E+03 1.64389E-09 4.00876E-10 1.27147E-09
 -1        41-2.62584E+06-1.42378E+02-3.39900E+03 1.47472E-08 2.19314E-10-4.97380E-09
 -1        42-2.62580E+06 2.46371E+01-2.04258E+03 2.85621E-08 2.96040E-10-1.60156E-09
 -1        43-2.62570E+06-2.36520E+01-1.86916E+03 2.40841E-09-3.67651E-10 6.11292E-09
 -1        44-2.62579E+06 3.14218E+01-2.53616E+03 4.55061E-09 1.97792E-10 2.77055E-09
 -1        45-2.62594E+06-2.04073E+02-4.67988E+03-2.06556E-09 7.55376E-10 9.49910E-10
 -1        46-2.62557E+06 1.89359E+02-8.77987E+03 5.35163E-09 7.11868E-11-3.38241E-09
 -1        47-2.62802E+06-2.67376E+03-1.87516E+04-1.66368E-08-1.00845E-09-2.50679E-09
 -1        48-2.62374E+06 1.72595E+03-3.46669E+04-1.08507E-08-9.92449E-11 7.23958E-10
 -1        49-2.64913E+06-3.40515E+04-8.29872E+04 1.02091E-08-6.51487E-10 1.33241E-09
 -1        50-2.60457E+06 1.90978E+04-1.34907E+05-6.58474E-09-7.70836E-10 2.08820E-09
 -1        51 4.29876E+04-5.33364E+05 1.08761E+05-9.38358E+05-1.45519E-10-1.70257E-09
 -1        52 1.94001E+04-5.18486E+05 5.82808E+04-1.12390E+06-7.63976E-10 6.03904E-10
 -1        53 7.43719E+03-5.38731E+05 2.94687E+04-9.34934E+05-3.63798E-11 3.09956E-09
 -1        54 1.44419E+04-5.40324E+05 2.32269E+04-1.12710E+06 1.52795E-10 5.23505E-09
 -1        55 1.87233E+04-5.46323E+05 2.59179E+04-9.34846E+05 5.82077E-11 6.18456E-10
 -1        56-3.28606E+06-4.40905E+05-1.91658E+05-1.25648E+06-4.69299E-10-1.08412E-09
 -1        57-3.34380E+06-5.41733E+05-1.16246E+05-1.26603E+06-1.21963E-09-1.33205E-08
 -1        58-3.31605E+06-4.71857E+05-4.49578E+04-1.25576E+06-3.07409E-10 2.51384E-09
 -1        59-3.30875E+06-4.93846E+05-2.38297E+04-1.27185E+06-4.50200E-10 9.17771E-09
 -1        60-3.31895E+06-4.74768E+05-1.04492E+04-1.25583E+06 4.69299E-10 2.37674E-09
 -1        61-3.30550E+06-4.89494E+05-5.50961E+03-1.27186E+06-4.43379E-11-2.65533E-09
 -1        62-3.31907E+06-4.75264E+05-3.08346E+03-1.25607E+06-7.05768E-10-3.44539E-09
 -1        63-3.30567E+06-4.88665E+05-2.75993E+03-1.27121E+06-6.84850E-10 3.41788E-09
 -1        64-3.31869E+06-4.75614E+05-3.83834E+03-1.25644E+06-6.73936E-10 6.59111E-09
 -1        65-3.30693E+06-4.88345E+05-7.53153E+03-1.27024E+06 1.30967E-10-2.38015E-09
 -1        66-3.31771E+06-4.75710E+05-1.46704E+04-1.25694E+06 1.85537E-10 6.63022E-10
 -1        67-3.31281E+06-4.93111E+05-3.36128E+04-1.26853E+06-1.05911E-09-1.33878E-09
 -1        68-3.31291E+06-4.72294E+05-6.35307E+04-1.25756E+06-5.21993E-10-7.89441E-10
 -1        69-3.36353E+06-5.59497E+05-1.64228E+05-1.25879E+06-1.87538E-09 5.80076E-09
 -1        70-3.26991E+06-4.29146E+05-2.70755E+05-1.25922E+06-2.08820E-09 1.78989E-09
 -1        71-9.71547E+05-2.77288E+03 1.96671E+04-2.68428E-08-4.54693E-10-3.95721E-09
 -1        72-9.64932E+05 4.95539E+03 1.20889E+04-2.04807E-08 1.39011E-09-9.95715E-09
 -1        73-9.68751E+05-2.50632E+02 5.04584E+03-2.07641E-08-3.42313E-10-1.85310E-09
 -1        74-9.68006E+05 3.88827E+02 2.71365E+03-1.76883E-08 7.65847E-10-1.46599E-09
 -1        75-9.68482E+05-2.71480E+01 1.23875E+03 1.46544E-08-2.25896E-10-1.47327E-09
 -1        76-9.68311E+05 2.94750E+01 5.95710E+02 1.95579E-08-1.95637E-11-4.62364E-10
 -1        77-9.68447E+05-2.85944E+00 1.97823E+02 8.79343E-09 6.64859E-10 1.59648E-09
 -1        78-9.68360E+05-1.01838E+00-8.11555E+01 5.83792E-09-4.94238E-10 4.31429E-09
 -1        79-9.68434E+05 5.28889E+00-3.96585E+02-6.60519E-09 3.25731E-11-6.85162E-10
 -1        80-9.68425E+05-4.44271E+01-9.46186E+02-5.55447E-09 1.17642E-10 1.38829E-09
 -1        81-9.68383E+05 4.10563E+01-1.88759E+03-1.23877E-08-9.75078E-10-1.38925E-09
 -1        82-9.68882E+05-5.84769E+02-4.09361E+03 3.43252E-09-2.39011E-10-4.77371E-10
 -1        83-9.67979E+05 3.77034E+02-7.59440E+03-1.49637E-08 9.17323E-10-1.58343E-09
 -1        84-9.73504E+05-7.45263E+03-1.81838E+04-1.71560E-08-1.08508E-09-2.76918E-09
 -1        85-9.63771E+05 4.17139E+03-2.95739E+04-2.17833E-08-3.13058E-10 4.92582E-09
 -1        86-2.42766E+04 6.15503E+05 1.75685E+05-2.80794E+04 8.00355E-11 8.53106E-10
 -1        87 4.52166E+04 6.74444E+05 1.20616E+05-6.88519E+04 1.13778E-09-7.51152E-09
 -1        88-3.83134E+03 6.37718E+05 7.50177E+04-2.79914E+04-3.07864E-10 4.71118E-10
 -1        89 3.54539E+04 6.67274E+05 9.99350E+04-6.88617E+04 2.00089E-09 7.13044E-10
 -1        90-1.79690E+04 6.21893E+05 1.34993E+05-2.80321E+04-6.25732E-10 4.41651E-09
 -1        91-1.50426E+06-2.07786E+05-4.84024E+04-5.72293E+05-6.21185E-10 6.09725E-09
 -1        92-1.51630E+06-2.35639E+05-2.93446E+04-5.77514E+05 1.05297E-09 1.16961E-09
 -1        93-1.51185E+06-2.15559E+05-1.13639E+04-5.72105E+05-5.95605E-10-6.18002E-10
 -1        94-1.50744E+06-2.23604E+05-6.02724E+03-5.79022E+05 8.13770E-10 5.77074E-10
 -1        95-1.51260E+06-2.16275E+05-2.65187E+03-5.72108E+05 1.18206E-09-7.45558E-10
 -1        96-1.50659E+06-2.22546E+05-1.41240E+03-5.79072E+05 4.87205E-10 5.44361E-10
 -1        97-1.51266E+06-2.16374E+05-8.15922E+02-5.72141E+05 3.71870E-10-2.82927E-09
 -1        98-1.50659E+06-2.22390E+05-7.76873E+02-5.78973E+05-1.81558E-09-4.45334E-09
 -1        99-1.51259E+06-2.16428E+05-1.12809E+03-5.72202E+05 3.67891E-10-4.08795E-09
 -1       100-1.50687E+06-2.22399E+05-2.25338E+03-5.78810E+05 1.11640E-10 7.35156E-09
 -1       101-1.51236E+06-2.16394E+05-4.40224E+03-5.72284E+05-4.86125E-10 3.03544E-09
 -1       102-1.50852E+06-2.23952E+05-1.00955E+04-5.78448E+05 3.22530E-10 1.72531E-09
 -1       103-1.51098E+06-2.15302E+05-1.90769E+04-5.72394E+05-2.96609E-10-7.05768E-10
 -1       104-1.52359E+06-2.43961E+05-4.92727E+04-5.75674E+05-1.64593E-09-6.41103E-09
 -1       105-1.49813E+06-2.02346E+05-8.12775E+04-5.72816E+05-1.18234E-11-7.85803E-10
 -1       106-2.18705E+05-5.75934E+03 4.09072E+04 5.93855E-09 4.57341E-10 1.84627E-09
 -1       107-2.05106E+05 1.02999E+04 2.51492E+04 1.40185E-08-3.91203E-10-2.54659E-09
 -1       108-2.12884E+05-5.20663E+02 1.05116E+04-9.09520E-09 3.23422E-11-4.82078E-09
 -1       109-2.11494E+05 8.07866E+02 5.67404E+03-5.44944E-09-9.66396E-10 2.20439E-10
 -1       110-2.12324E+05-5.69103E+01 2.63315E+03-5.56310E-09 4.68076E-10-1.85514E-09
 -1       111-2.12124E+05 6.14383E+01 1.35233E+03 1.30592E-08-5.00714E-10-3.11957E-10
 -1       112-2.12255E+05-8.14965E+00 6.33237E+02-5.30699E-09 6.20282E-10-6.65636E-10
 -1       113-2.12206E+05 3.56793E+00 2.85089E+02-8.35024E-09-7.19603E-10-3.90060E-10
 -1       114-2.12241E+05-3.68144E-01 6.49278E+01 8.99212E-09 1.27299E-10 2.84301E-09
 -1       115-2.12232E+05-9.05197E+00-1.21616E+02 8.97416E-09-2.63909E-11-3.81082E-09
 -1       116-2.12229E+05 8.17367E+00-3.55083E+02-1.03769E-08 1.01540E-10 4.17401E-10
 -1       117-2.12330E+05-1.21148E+02-8.30606E+02-7.90072E-09-9.97142E-12 1.97326E-09
 -1       118-2.12144E+05 7.79846E+01-1.56614E+03 5.05310E-10-1.36727E-10-1.28011E-09
 -1       119-2.13288E+05-1.54418E+03-3.76570E+03-1.19236E-08-6.08638E-10 4.12240E-09
 -1       120-2.11271E+05 8.63665E+02-6.12993E+03-1.61635E-08-4.16927E-11-7.31916E-10
 -1       121 3.39919E+01-6.60895E+05-3.36811E+02-3.22647E+04 2.34877E-10 3.35785E-09
 -1       122 1.15854E+02-6.60898E+05 1.19292E+03-8.13018E+04-4.53383E-10 1.70257E-09
 -1       123-1.21810E+02-6.61323E+05 3.16918E+03-3.19738E+04 4.64752E-10 1.02227E-09
 -1       124 3.55129E+03-6.58849E+05 8.15251E+03-8.15883E+04-2.90129E-10 4.63842E-10
 -1       125-1.82982E+03-6.63288E+05 1.34358E+04-3.19767E+04 3.77440E-10 1.30564E-09
 -1       126-6.60470E+05-9.46396E+04-9.44316E+03-2.52592E+05 8.31193E-11 1.66392E-09
 -1       127-6.58839E+05-1.04006E+05-5.72494E+03-2.58121E+05 3.06954E-10 2.74349E-09
 -1       128-6.61975E+05-9.61304E+04-2.22170E+03-2.52532E+05-6.09361E-11-1.59525E-09
 -1       129-6.57090E+05-1.01685E+05-1.18441E+03-2.58446E+05-3.32093E-10-2.94838E-09
 -1       130-6.62125E+05-9.62656E+04-5.34900E+02-2.52529E+05-6.56200E-10-2.60242E-09
 -1       131-6.56924E+05-1.01481E+05-3.12713E+02-2.58458E+05 4.54747E-10-4.17057E-09
 -1       132-6.62132E+05-9.62866E+04-2.35499E+02-2.52538E+05-5.16593E-10-2.67733E-11
 -1       133-6.56940E+05-1.01447E+05-3.16570E+02-2.58427E+05 1.13005E-10 1.55899E-09
 -1       134-6.62101E+05-9.63014E+04-5.56484E+02-2.52556E+05 5.51609E-10 6.12624E-09
 -1       135-6.57068E+05-1.01480E+05-1.17967E+03-2.58368E+05-9.89644E-10 2.11685E-09
 -1       136-6.61990E+05-9.62699E+04-2.33747E+03-2.52583E+05-8.93579E-11-2.55818E-09
 -1       137-6.57906E+05-1.02340E+05-5.37488E+03-2.58211E+05-2.37833E-10 2.29920E-09
 -1       138-6.61274E+05-9.56713E+04-1.01647E+04-2.52617E+05 5.20913E-10 2.79215E-10
 -1       139-6.65897E+05-1.13018E+05-2.62425E+04-2.56762E+05 2.96836E-10-5.63887E-10
 -1       140-6.54428E+05-8.87741E+04-4.32942E+04-2.52826E+05-8.96762E-10 1.81717E-09
 -1       141 6.26533E+03-2.03239E+03 1.44327E+04-2.12292E-08-4.32101E-11-4.09273E-11
 -1       142 1.10580E+04 3.63490E+03 8.86522E+03-6.89283E-10-6.29420E-10-4.92150E-10
 -1       143 8.32169E+03-1.83513E+02 3.68641E+03 3.55606E-09 6.34135E-10 4.15980E-09
 -1       144 8.80218E+03 2.85149E+02 1.95319E+03 1.30320E-08-7.31581E-10 1.18931E-08
 -1       145 8.52094E+03-1.91901E+01 8.31038E+02 1.20956E-08-2.72535E-10 5.03462E-09
 -1       146 8.57270E+03 2.12844E+01 2.75923E+02-2.31215E-08-1.15522E-11-2.27777E-09
 -1       147 8.55117E+03 1.07384E+00-1.73511E+02-2.26693E-08 4.85440E-10 1.53753E-09
 -1       148 8.50997E+03-8.92099E+00-7.13600E+02-6.99161E-09-3.72291E-10 1.45326E-09
 -1       149 8.58368E+03 2.02448E+01-1.57400E+03-1.64475E-08 3.92149E-10 2.61514E-09
 -1       150 8.30611E+03-1.52314E+02-3.35614E+03-1.47401E-08 2.23739E-10 1.47963E-09
 -1       151 8.75510E+03 1.41132E+02-6.53211E+03 1.12263E-08-1.01034E-09-2.90629E-09
 -1       152 6.74448E+03-2.00302E+03-1.40734E+04 1.19461E-08 6.29049E-10-9.54969E-11
 -1       153 1.01463E+04 1.29112E+03-2.60678E+04-1.17720E-08 4.31072E-10-3.99632E-09
 -1       154-9.09181E+03-2.55383E+04-6.23661E+04-5.97811E-09-1.27097E-09-4.54293E-09
 -1       155 2.46086E+04 1.42885E+04-1.01390E+05-2.10375E-08 9.74477E-10 5.52973E-10
 -1       156 2.58430E+02-1.69375E+05-1.76106E+03-1.74778E+04 3.06215E-10 1.86446E-09
 -1       157-3.46043E+02-1.69899E+05-1.55957E+02-4.37777E+04 1.46838E-09-2.70211E-09
 -1       158-7.91674E+01-1.69850E+05 1.72322E+03-1.73455E+04 1.26761E-09 5.50017E-09
 -1       159 2.28571E+03-1.68238E+05 5.23808E+03-4.39171E+04 1.97201E-09 4.19914E-09
 -1       160-1.23887E+03-1.71182E+05 8.89438E+03-1.73377E+04 1.71758E-09 8.32131E-09
 -1       161-1.80879E+05-2.66266E+04-5.54718E+03-7.09253E+04-2.86491E-10-2.41016E-10
 -1       162-1.79712E+05-3.23597E+04-3.36810E+03-7.44423E+04-2.68358E-10 2.12339E-10
 -1       163-1.81749E+05-2.75150E+04-1.31723E+03-7.09044E+04 1.19852E-09-4.84249E-10
 -1       164-1.78699E+05-3.09816E+04-7.22488E+02-7.46129E+04 6.55888E-10-2.69338E-09
 -1       165-1.81833E+05-2.75988E+04-3.69505E+02-7.09065E+04-1.14994E-09-6.42075E-10
 -1       166-1.78608E+05-3.08605E+04-3.01970E+02-7.46164E+04 1.06428E-09 1.55566E-09
 -1       167-1.81832E+05-2.76083E+04-3.81465E+02-7.09095E+04 5.02496E-11 2.94415E-09
 -1       168-1.78637E+05-3.08617E+04-7.11629E+02-7.46105E+04-1.80876E-10 1.37243E-09
 -1       169-1.81797E+05-2.75947E+04-1.39818E+03-7.09105E+04 6.07088E-11-1.40869E-09
 -1       170-1.78880E+05-3.10614E+04-3.05317E+03-7.46042E+04-2.68756E-10-1.98315E-09
 -1       171-1.81583E+05-2.74313E+04-6.08220E+03-7.09033E+04 1.29467E-09 2.56387E-09
 -1       172-1.80922E+05-3.34665E+04-1.40165E+04-7.44078E+04-1.23100E-09 4.51109E-10
 -1       173-1.79824E+05-2.57622E+04-2.65025E+04-7.08870E+04 1.30171E-10-6.45741E-10
 -1       174-2.01487E+05-6.15900E+04-6.84346E+04-7.09935E+04 1.04842E-09 2.90402E-09
 -1       175-1.62160E+05-7.56393E+03-1.12853E+05-7.12022E+04 1.67165E-09-8.14907E-10
 -1       191 1.61488E+04 1.47182E+06 4.04617E+04 2.98612E+03-1.74623E-10 1.00044E-10
 -1       192 5.50044E+03 1.47973E+06 2.42618E+04 4.25416E+03 2.97405E-10 5.35874E-09
 -1       193 1.00385E+03 1.47487E+06 1.80891E+04 3.23166E+03-4.32721E-10-2.99406E-09
 -1       194 5.81745E+03 1.47996E+06 2.52133E+04 3.76312E+03-1.40290E-10-3.07045E-09
 -1       195 1.71412E+04 1.47161E+06 4.27416E+04 3.50612E+03-1.05501E-10-1.43700E-09
 -1       251 1.76379E+05-1.39632E+04 8.58436E+04-5.78348E+04-5.60249E-10 8.29459E-10
 -1       252 2.07093E+05 2.05009E+04 5.32117E+04-1.44498E+05 1.15142E-09-7.13044E-10
 -1       253 1.87902E+05-1.96913E+03 2.19488E+04-5.73646E+04-7.27596E-12 2.87764E-09
 -1       254 1.91494E+05 1.25786E+03 1.20736E+04-1.44873E+05 4.43833E-10 4.20914E-09
 -1       255 1.88492E+05-3.82004E+02 5.55664E+03-5.74384E+04 4.63842E-10-1.01682E-09
 -1       256 1.88842E+05 2.83433E+02 3.08785E+03-1.44753E+05 1.14596E-09-5.88761E-09
 -1       257 1.88286E+05 6.77018E+01 1.72449E+03-5.74896E+04-1.36424E-10-6.70252E-09
 -1       258 1.88080E+05 4.56957E+02 1.43271E+03-1.44684E+05 1.50430E-09-2.97405E-10
 -1       259 1.88190E+05 1.65452E+02 1.72850E+03-5.75065E+04-4.37467E-10 2.47974E-09
 -1       260 1.88295E+05 5.30739E+02 3.02497E+03-1.44692E+05 1.20099E-09 1.96951E-09
 -1       261 1.88205E+05-8.64135E+01 5.51514E+03-5.74810E+04-4.18368E-11-1.58570E-09
 -1       262 1.90370E+05 1.71787E+03 1.17979E+04-1.44754E+05-3.92902E-10 3.09853E-10
 -1       263 1.87449E+05-1.45242E+03 2.15842E+04-5.74444E+04 4.29281E-10 4.23643E-09
 -1       264 2.05085E+05 2.07138E+04 5.19834E+04-1.44413E+05-1.13505E-09 1.14187E-09
 -1       265 1.76032E+05-1.29690E+04 8.40849E+04-5.78405E+04-1.60071E-09 5.52973E-10
 -1       266-6.30604E+03-2.20596E+05 4.83807E+04-6.42975E+04-9.09495E-12-5.23278E-09
 -1       267 1.35132E+04-2.05245E+05 2.78411E+04-1.63585E+05 2.53067E-10-1.21145E-09
 -1       268-1.60264E+01-2.13089E+05 7.76426E+03-6.43201E+04 2.46473E-10-7.54881E-10
 -1       269-2.65859E+03-2.14695E+05-4.80069E+03-1.63105E+05 4.16549E-10 3.45517E-09
 -1       270 2.31617E+03-2.09264E+05-1.62612E+04-6.48117E+04-2.21917E-10 2.16096E-09
 -1       271-2.33511E+06-3.37248E+05-1.75976E+05-9.33502E+05-9.12905E-10 2.18279E-10
 -1       272-2.35488E+06-4.60557E+05-1.06397E+05-9.77930E+05 3.45608E-10-2.38288E-10
 -1       273-2.36443E+06-3.63576E+05-4.14272E+04-9.31492E+05-1.90994E-10 1.57161E-09
 -1       274-2.32145E+06-4.19050E+05-2.17929E+04-9.86909E+05-5.28416E-10 3.49246E-10
 -1       275-2.36843E+06-3.64872E+05-9.65220E+03-9.30649E+05-2.65572E-10-1.03500E-09
 -1       276-2.31756E+06-4.16602E+05-4.97308E+03-9.89504E+05 5.22959E-10-9.47239E-10
 -1       277-2.36950E+06-3.64333E+05-2.72001E+03-9.30153E+05 8.07631E-10-2.18279E-09
 -1       278-2.31692E+06-4.16938E+05-2.26236E+03-9.90639E+05-2.69506E-09-8.32188E-11
 -1       279-2.36973E+06-3.64082E+05-2.98348E+03-9.29998E+05-3.93584E-10-2.28283E-10
 -1       280-2.31733E+06-4.17250E+05-5.76565E+03-9.90566E+05 7.67614E-10-2.83762E-09
 -1       281-2.36905E+06-3.64090E+05-1.12079E+04-9.30179E+05 2.26464E-10-1.89902E-09
 -1       282-2.32146E+06-4.20951E+05-2.56171E+04-9.88937E+05 1.20053E-10-2.31466E-09
 -1       283-2.36502E+06-3.61897E+05-4.85276E+04-9.30717E+05 8.97671E-10 4.33647E-09
 -1       284-2.36007E+06-4.70844E+05-1.25102E+05-9.80042E+05-2.24645E-10-1.28057E-09
 -1       285-2.33132E+06-3.30086E+05-2.06593E+05-9.32449E+05-9.41327E-10 1.06229E-09
 -1       286-9.54294E+04-8.90372E+03 5.86867E+04-3.27582E+04 2.46655E-09-2.00998E-09
 -1       287-7.51629E+04 1.44108E+04 3.62344E+04-8.11317E+04 5.38421E-10 9.00400E-11
 -1       288-8.73078E+04-1.05285E+03 1.50467E+04-3.23571E+04 6.94854E-10-2.01180E-09
 -1       289-8.50661E+04 1.01803E+03 8.21764E+03-8.15624E+04 6.40284E-10-2.44245E-09
 -1       290-8.67052E+04-1.77479E+02 3.82408E+03-3.23151E+04 3.00133E-10-8.59927E-10
 -1       291-8.64324E+04 1.54529E+02 2.11102E+03-8.16220E+04-9.09495E-12-2.02590E-09
 -1       292-8.67355E+04 1.68886E+01 1.20952E+03-3.22986E+04 5.31145E-10-2.76714E-10
 -1       293-8.67649E+04 1.89334E+02 1.04210E+03-8.16456E+04 8.29687E-10 6.38170E-09
 -1       294-8.67833E+04 6.14705E+01 1.32057E+03-3.22914E+04 3.24746E-10 2.09707E-09
 -1       295-8.66690E+04 2.84659E+02 2.36449E+03-8.16475E+04 1.78989E-09 1.85150E-09
 -1       296-8.68580E+04-5.09994E+01 4.37830E+03-3.22965E+04 1.30876E-09 3.23251E-09
 -1       297-8.54330E+04 1.41205E+03 9.33672E+03-8.16152E+04 2.39379E-09 2.50313E-09
 -1       298-8.76614E+04-9.26040E+02 1.71933E+04-3.23233E+04 2.00089E-10-1.71758E-09
 -1       299-7.45287E+04 1.67803E+04 4.12068E+04-8.12963E+04-8.18545E-11 9.38599E-10
 -1       300-9.70145E+04-9.71082E+03 6.68891E+04-3.26229E+04-5.00222E-10-3.21234E-09
 -1       301 3.79839E+04 1.23950E+05 8.99051E+04-2.23429E+05-2.72485E-09-1.29148E-09
 -1       302 1.41296E+04 1.41162E+05 5.05976E+04-2.68415E+05 1.65437E-09 9.62700E-10
 -1       303 3.34004E+03 1.30804E+05 3.20615E+04-2.23144E+05-2.67846E-09 1.28620E-09
 -1       304 9.57367E+03 1.38005E+05 3.70805E+04-2.68441E+05 2.40107E-09 3.98359E-09
 -1       305 2.37758E+04 1.27050E+05 5.74989E+04-2.23449E+05-2.94131E-09 3.74530E-09
 -1       306-2.51721E+06-3.46290E+05-1.94993E+05-9.86216E+05 1.40244E-09-7.93079E-09
 -1       307-2.56110E+06-4.62763E+05-1.18140E+05-1.01211E+06 4.75347E-09-5.20959E-09
 -1       308-2.54879E+06-3.76595E+05-4.58045E+04-9.84561E+05-3.31056E-10-5.85715E-10
 -1       309-2.52431E+06-4.15688E+05-2.42054E+04-1.02022E+06-2.10457E-09-7.19092E-09
 -1       310-2.55256E+06-3.78713E+05-1.06246E+04-9.83940E+05 5.64796E-10 5.54792E-10
 -1       311-2.52010E+06-4.12432E+05-5.50304E+03-1.02191E+06 2.51475E-10 1.45587E-09
 -1       312-2.55335E+06-3.78546E+05-2.94076E+03-9.83590E+05 3.55612E-10 1.76613E-09
 -1       313-2.51944E+06-4.12524E+05-2.37602E+03-1.02255E+06 5.56724E-10 1.77408E-09
 -1       314-2.55346E+06-3.78425E+05-3.01872E+03-9.83495E+05 2.56603E-09 2.54749E-09
 -1       315-2.51987E+06-4.12793E+05-5.74184E+03-1.02243E+06 2.07251E-09-3.28873E-09
 -1       316-2.55288E+06-3.78347E+05-1.10899E+04-9.83657E+05 3.68345E-10-9.12223E-10
 -1       317-2.52400E+06-4.16590E+05-2.53561E+04-1.02122E+06 1.55342E-09 6.37556E-09
 -1       318-2.54917E+06-3.75875E+05-4.79350E+04-9.84092E+05-3.16504E-10 8.36735E-10
 -1       319-2.56219E+06-4.66360E+05-1.23767E+05-1.01334E+06 4.13024E-10-2.80852E-09
 -1       320-2.51636E+06-3.43834E+05-2.04191E+05-9.85566E+05-4.00178E-10-1.23691E-09
 -1       321 5.98339E+04-1.16065E+04 8.18492E+04-1.35928E+04-2.73758E-10-2.55750E-09
 -1       322 8.70982E+04 2.05482E+04 5.03388E+04-3.38554E+04-1.46201E-09-1.17961E-09
 -1       323 7.14437E+04-1.08210E+03 2.10368E+04-1.34671E+04 6.93035E-10 2.70120E-10
 -1       324 7.42118E+04 1.59756E+03 1.13809E+04-3.39730E+04-1.18325E-09-2.14095E-09
 -1       325 7.25350E+04-1.24356E+02 5.31032E+03-1.34668E+04 6.22549E-10-3.78623E-09
 -1       326 7.28898E+04 1.33923E+02 2.79799E+03-3.39689E+04-3.06954E-11 9.09267E-10
 -1       327 7.26546E+04-1.18310E+01 1.44369E+03-1.34715E+04-5.79348E-10 2.31660E-09
 -1       328 7.27139E+04 3.44978E+01 9.32265E+02-3.39637E+04-4.14644E-10 4.17049E-09
 -1       329 7.26663E+04-1.09235E+00 8.36712E+02-1.34721E+04 7.28164E-10 2.52862E-09
 -1       330 7.27607E+04 6.48429E+01 1.22205E+03-3.39653E+04-1.22952E-09 3.99211E-10
 -1       331 7.26294E+04-4.75451E+01 2.11754E+03-1.34700E+04-1.88265E-10-2.13143E-09
 -1       332 7.32921E+04 6.17355E+02 4.42716E+03-3.39686E+04 6.66887E-10 7.07587E-10
 -1       333 7.22226E+04-4.30497E+02 8.12857E+03-1.34687E+04-5.09317E-11 6.57610E-09
 -1       334 7.83146E+04 7.90900E+03 1.94321E+04-3.38625E+04 1.01272E-09 3.99041E-09
 -1       335 6.77614E+04-4.51623E+03 3.15644E+04-1.35786E+04-7.87622E-10 2.27374E-09
 -1       336-1.77581E+03-6.79720E+05 1.11946E+04-1.35929E+05 1.13596E-09 1.81899E-10
 -1       337 4.78981E+03-6.77001E+05 6.58154E+03-3.43584E+05-1.31149E-09-3.88172E-09
 -1       338 7.93950E+02-6.78816E+05 1.52579E+03-1.35199E+05 7.58519E-10-2.32831E-10
 -1       339 8.82945E+02-6.80400E+05-2.03570E+03-3.43785E+05-5.03860E-10 4.67571E-09
 -1       340 1.15690E+03-6.77324E+05-5.63718E+03-1.35725E+05 7.98082E-10 5.40604E-09
 -1       341-1.50010E+06-2.06864E+05-8.18820E+04-5.79321E+05-1.50885E-09-1.38243E-09
 -1       342-1.51875E+06-2.55717E+05-4.96343E+04-5.90155E+05 3.95630E-10-4.27463E-11
 -1       343-1.51312E+06-2.19834E+05-1.92338E+04-5.78837E+05 1.13232E-10-2.88674E-09
 -1       344-1.50354E+06-2.35625E+05-1.01974E+04-5.93058E+05-1.57456E-09-3.31238E-09
 -1       345-1.51452E+06-2.20911E+05-4.49670E+03-5.78721E+05-9.87029E-10-2.66937E-10
 -1       346-1.50193E+06-2.34042E+05-2.40555E+03-5.93420E+05 6.40057E-11-3.71017E-10
 -1       347-1.51473E+06-2.20965E+05-1.41528E+03-5.78669E+05-6.73708E-10-8.03965E-10
 -1       348-1.50176E+06-2.33963E+05-1.39114E+03-5.93488E+05-2.18542E-10 2.16505E-09
 -1       349-1.51470E+06-2.20960E+05-2.06429E+03-5.78673E+05-1.81785E-10 1.35947E-09
 -1       350-1.50212E+06-2.34159E+05-4.16248E+03-5.93400E+05-1.94586E-09-8.82289E-09
 -1       351-1.51436E+06-2.20812E+05-8.14540E+03-5.78730E+05-4.18368E-11-9.47239E-10
 -1       352-1.50499E+06-2.37200E+05-1.86956E+04-5.92909E+05 2.72735E-10 2.37924E-09
 -1       353-1.51188E+06-2.18718E+05-3.53313E+04-5.78840E+05 3.57161E-10 2.64299E-09
 -1       354-1.53273E+06-2.74431E+05-9.12638E+04-5.87939E+05 5.75255E-11 1.87356E-10
 -1       355-1.48813E+06-1.94637E+05-1.50505E+05-5.79514E+05-1.14960E-09-2.69938E-09
 -1       356 1.78164E+05-5.95710E+03 4.20132E+04-9.74724E+03 3.70164E-10-3.05954E-09
 -1       357 1.92149E+05 1.05463E+04 2.58331E+04-2.44013E+04-1.59162E-09-8.25821E-09
 -1       358 1.84130E+05-5.54657E+02 1.07779E+04-9.67664E+03-5.00222E-12 3.39742E-09
 -1       359 1.85535E+05 8.16276E+02 5.79379E+03-2.44594E+04 6.73708E-10 3.11741E-09
 -1       360 1.84693E+05-6.36968E+01 2.62897E+03-9.68590E+03-8.32870E-10-3.73120E-10
 -1       361 1.84854E+05 6.26083E+01 1.23552E+03-2.44444E+04 9.04379E-10-5.91558E-09
 -1       362 1.84762E+05-4.36195E+00 3.45119E+02-9.69169E+03 1.05388E-10-5.86510E-10
 -1       363 1.84734E+05-1.37087E-01-3.34221E+02-2.44388E+04-9.67646E-10 1.20110E-09
 -1       364 1.84798E+05 1.59981E+01-1.16484E+03-9.69151E+03-3.26281E-11-1.43791E-09
 -1       365 1.84568E+05-1.25220E+02-2.68007E+03-2.44463E+04 1.24260E-10 1.03319E-09
 -1       366 1.84947E+05 1.08152E+02-5.30909E+03-9.68427E+03-9.09495E-11 4.96857E-09
 -1       367 1.83322E+05-1.65099E+03-1.14823E+04-2.44620E+04 9.73159E-11-3.38559E-09
 -1       368 1.86099E+05 1.03263E+03-2.12970E+04-9.67597E+03-2.82853E-10 3.81988E-11
 -1       369 1.70439E+05-2.08958E+04-5.09450E+04-2.44011E+04-1.80717E-09-3.41970E-10
 -1       370 1.97935E+05 1.16227E+04-8.28483E+04-9.73805E+03 6.30280E-10-1.28057E-09
 -1       371-1.31536E+03-1.67112E+05 8.55225E+03-9.60593E+04 2.63572E-09-4.38376E-10
 -1       372 3.06717E+03-1.64835E+05 4.07112E+03-2.41524E+05 5.69435E-09-1.99589E-09
 -1       373 4.79536E+02-1.65989E+05-9.27781E+02-9.56855E+04 4.71709E-09 3.02043E-09
 -1       374-2.07158E+03-1.68550E+05-6.77036E+03-2.41585E+05 5.26143E-09-1.73031E-09
 -1       375 1.96688E+03-1.63726E+05-1.27667E+04-9.59987E+04 4.27644E-09 8.96762E-10
 -1       376-6.47801E+05-9.30567E+04-4.30928E+04-2.57203E+05-7.66704E-10 1.85537E-09
 -1       377-6.50951E+05-1.25416E+05-2.61193E+04-2.70560E+05-1.01295E-10 6.03768E-09
 -1       378-6.54654E+05-9.98761E+04-1.01315E+04-2.56973E+05-9.28139E-10 2.57069E-09
 -1       379-6.43010E+05-1.14805E+05-5.38214E+03-2.72047E+05 1.03273E-09 1.07707E-09
 -1       380-6.55362E+05-1.00472E+05-2.39606E+03-2.56950E+05-2.49202E-10 1.28728E-09
 -1       381-6.42222E+05-1.13917E+05-1.32887E+03-2.72171E+05-1.15790E-09 1.41600E-09
 -1       382-6.55439E+05-1.00528E+05-8.72943E+02-2.56950E+05-1.44450E-09-2.29261E-09
 -1       383-6.42179E+05-1.13841E+05-1.00851E+03-2.72146E+05-5.11136E-10 5.51040E-10
 -1       384-6.55388E+05-1.00545E+05-1.65374E+03-2.56969E+05-2.10093E-10-3.54248E-10
 -1       385-6.42468E+05-1.14004E+05-3.43274E+03-2.72045E+05 1.75714E-09 2.21280E-09
 -1       386-6.55091E+05-1.00423E+05-6.77283E+03-2.57000E+05-7.65340E-10 1.11777E-09
 -1       387-6.44796E+05-1.16573E+05-1.55533E+04-2.71654E+05 1.45201E-09 6.07542E-10
 -1       388-6.53048E+05-9.86698E+04-2.94133E+04-2.57051E+05 8.03766E-10 1.90448E-09
 -1       389-6.67763E+05-1.47572E+05-7.59144E+04-2.67552E+05 1.88410E-09-5.26779E-09
 -1       390-6.33287E+05-7.86517E+04-1.25221E+05-2.57555E+05 4.45380E-09-1.56433E-09
 -1       406 1.54544E+04 1.43432E+06 4.05713E+04-8.96545E+02-6.18456E-11 1.63345E-09
 -1       407 5.42294E+03 1.44234E+06 2.76734E+04-5.22442E+01 2.63299E-10-2.05637E-09
 -1       408 1.46455E+03 1.43696E+06 2.63399E+04-6.07122E+02-4.04725E-10-1.50976E-10
 -1       409 1.10631E+04 1.44621E+06 4.43684E+04-6.48051E+02-2.72848E-12 9.16771E-10
 -1       410 3.30297E+04 1.43044E+06 8.05930E+04-2.20139E+02-4.58385E-10 2.42107E-09
 -1       466 1.13435E+06-1.57147E+04 1.08466E+05-3.49674E+04 7.27596E-10 1.86992E-09
 -1       467 1.17076E+06 2.70409E+04 6.68062E+04-8.87956E+04-1.55524E-10 2.88856E-09
 -1       468 1.14958E+06-1.55962E+03 2.79007E+04-3.50623E+04-5.47516E-10 1.42791E-09
 -1       469 1.15321E+06 2.10651E+03 1.51677E+04-8.84239E+04-2.62844E-10-1.18234E-09
 -1       470 1.15091E+06-1.66207E+02 7.14619E+03-3.53180E+04-3.27418E-11-2.57842E-09
 -1       471 1.15123E+06 2.76928E+02 3.93231E+03-8.80540E+04 5.93445E-11 3.81078E-10
 -1       472 1.15101E+06 2.93758E+01 2.33310E+03-3.54333E+04 3.88582E-10-1.90539E-09
 -1       473 1.15099E+06 1.71507E+02 2.08299E+03-8.79725E+04-3.63684E-10 1.79853E-10
 -1       474 1.15103E+06 3.13913E+00 2.74975E+03-3.53996E+04 1.06411E-10 1.42040E-09
 -1       475 1.15142E+06 2.76572E+02 5.02792E+03-8.81923E+04-8.82210E-11 1.84787E-09
 -1       476 1.15090E+06-2.76385E+02 9.34874E+03-3.52131E+04 4.08363E-10 5.89125E-10
 -1       477 1.15406E+06 2.68822E+03 1.99987E+04-8.86935E+04 7.63976E-11 2.59752E-09
 -1       478 1.14913E+06-2.10822E+03 3.68389E+04-3.48967E+04-6.51198E-10 1.46065E-09
 -1       479 1.17719E+06 3.56643E+04 8.82655E+04-8.91590E+04-1.88084E-09-1.37879E-09
 -1       480 1.12897E+06-2.07700E+04 1.43346E+05-3.47841E+04-1.40426E-09-1.04774E-09
 -1       481-4.18608E+03 3.08468E+05 3.11541E+04-3.40954E+04 2.36469E-11 6.85986E-10
 -1       482 8.29317E+03 3.18611E+05 2.02111E+04-8.47655E+04-1.23350E-10 5.30622E-09
 -1       483-3.96945E+02 3.12696E+05 1.05008E+04-3.40316E+04-5.32054E-11 2.10093E-09
 -1       484 3.63348E+03 3.15664E+05 1.06538E+04-8.47192E+04 1.59162E-11-7.68978E-10
 -1       485-1.53275E+03 3.11670E+05 1.22727E+04-3.41468E+04-1.40972E-11-2.46382E-09
 -1       486-1.09897E+06-1.48699E+05-1.11902E+05-4.34563E+05-2.78305E-10-1.74623E-10
 -1       487-1.12539E+06-2.14484E+05-6.78165E+04-4.48282E+05 7.48059E-11 2.14186E-09
 -1       488-1.11679E+06-1.66402E+05-2.62902E+04-4.33936E+05-1.39607E-10 7.83984E-10
 -1       489-1.10467E+06-1.87022E+05-1.39030E+04-4.52278E+05 1.23691E-10 7.45786E-11
 -1       490-1.11872E+06-1.67858E+05-6.08912E+03-4.33794E+05-5.27507E-11-1.20599E-09
 -1       491-1.10248E+06-1.84873E+05-3.13816E+03-4.52836E+05 1.00044E-11-1.60537E-09
 -1       492-1.11905E+06-1.67890E+05-1.63234E+03-4.33701E+05 2.49656E-10-5.85032E-10
 -1       493-1.10218E+06-1.84818E+05-1.23671E+03-4.53045E+05-1.53477E-10 8.09010E-10
 -1       494-1.11911E+06-1.67835E+05-1.46606E+03-4.33657E+05 3.39696E-10-1.00295E-09
 -1       495-1.10233E+06-1.85002E+05-2.70185E+03-4.53090E+05-4.29836E-10-5.38421E-10
 -1       496-1.11893E+06-1.67713E+05-5.16537E+03-4.33662E+05-4.83737E-10 1.30512E-10
 -1       497-1.10410E+06-1.86948E+05-1.17888E+04-4.52810E+05-3.10138E-10-8.35826E-10
 -1       498-1.11737E+06-1.66402E+05-2.22562E+04-4.33722E+05-1.67006E-10-1.24419E-09
 -1       499-1.12155E+06-2.10340E+05-5.74504E+04-4.49606E+05-3.77710E-10-8.60382E-10
 -1       500-1.10235E+06-1.51324E+05-9.47707E+04-4.34183E+05 5.14774E-10-6.73026E-10
 -1       501 4.07254E+05-1.13724E+04 7.49959E+04-4.01164E+04 2.73576E-09 2.91038E-11
 -1       502 4.33065E+05 1.84571E+04 4.63110E+04-1.00588E+05 1.30785E-09-1.15597E-09
 -1       503 4.17605E+05-1.31031E+03 1.92429E+04-3.99004E+04-4.03816E-10 1.50249E-09
 -1       504 4.20344E+05 1.37771E+03 1.05127E+04-1.00660E+05 5.36602E-11 4.44925E-09
 -1       505 4.18364E+05-1.79468E+02 4.91028E+03-4.00280E+04 3.40151E-10-6.46651E-10
 -1       506 4.18593E+05 2.77820E+02 2.72299E+03-1.00452E+05 7.11225E-10-1.13801E-09
 -1       507 4.18332E+05 6.15740E+01 1.59715E+03-4.01092E+04 1.40153E-09-7.22594E-10
 -1       508 4.18216E+05 3.02434E+02 1.42121E+03-1.00354E+05 1.37879E-09 1.10049E-09
 -1       509 4.18292E+05 9.21411E+01 1.85905E+03-4.01263E+04 1.12186E-09 1.76669E-09
 -1       510 4.18451E+05 3.96320E+02 3.37658E+03-1.00381E+05 2.63026E-09-3.64253E-10
 -1       511 4.18220E+05-1.05833E+02 6.26541E+03-4.00814E+04 1.15415E-09 1.75407E-09
 -1       512 4.20332E+05 1.96399E+03 1.33969E+04-1.00519E+05 2.18279E-09-4.68447E-10
 -1       513 4.17106E+05-1.40271E+03 2.46502E+04-3.99881E+04 5.91172E-10 3.08319E-10
 -1       514 4.36104E+05 2.39561E+04 5.91271E+04-1.00428E+05-1.68529E-09-1.80535E-10
 -1       515 4.03725E+05-1.40503E+04 9.59389E+04-4.01888E+04 4.72937E-11-1.05501E-09
 -1       516-7.42603E+03 1.98896E+05 5.76075E+04-8.05066E+04-3.94721E-10-1.19098E-09
 -1       517 1.60344E+04 2.17449E+05 3.93008E+04-2.01624E+05 3.11024E-09 8.02174E-09
 -1       518-8.21647E+02 2.06388E+05 2.39506E+04-8.03649E+04-8.20592E-10 2.57660E-09
 -1       519 1.17430E+04 2.15767E+05 3.11770E+04-2.01455E+05 3.20870E-09 7.60338E-10
 -1       520-5.77052E+03 2.02162E+05 4.13425E+04-8.06925E+04-4.34738E-10-1.92449E-09
 -1       521-2.08536E+06-2.89321E+05-1.80449E+05-8.25152E+05 2.49656E-09 6.69388E-10
 -1       522-2.12041E+06-4.02430E+05-1.09292E+05-8.55345E+05 5.74801E-10 2.44472E-09
 -1       523-2.11461E+06-3.17293E+05-4.24024E+04-8.23673E+05-2.27374E-11 1.96997E-09
 -1       524-2.08654E+06-3.58834E+05-2.23878E+04-8.62884E+05 1.36788E-09 2.57296E-09
 -1       525-2.11811E+06-3.19248E+05-9.81983E+03-8.23159E+05-7.41238E-10-1.65983E-09
 -1       526-2.08277E+06-3.55747E+05-5.04746E+03-8.64432E+05-5.09317E-11-1.68166E-09
 -1       527-2.11883E+06-3.19103E+05-2.63018E+03-8.22876E+05-7.84894E-10 4.26326E-10
 -1       528-2.08222E+06-3.55777E+05-1.99927E+03-8.64985E+05-1.54978E-09-6.83258E-10
 -1       529-2.11893E+06-3.19013E+05-2.38816E+03-8.22809E+05-7.56927E-10-6.09361E-11
 -1       530-2.08256E+06-3.55944E+05-4.41875E+03-8.64834E+05 2.26919E-10-1.25556E-09
 -1       531-2.11843E+06-3.19016E+05-8.48356E+03-8.22962E+05 8.70841E-10 1.05319E-09
 -1       532-2.08572E+06-3.58748E+05-1.93386E+04-8.63717E+05 3.45153E-10 7.83984E-10
 -1       533-2.11548E+06-3.17256E+05-3.65765E+04-8.23348E+05 3.81988E-11-1.70985E-10
 -1       534-2.11489E+06-3.96456E+05-9.43335E+04-8.57313E+05 7.56472E-10-1.24419E-09
 -1       535-2.09024E+06-2.93101E+05-1.55724E+05-8.24610E+05-1.11913E-09-1.25874E-09
 -1       536 9.35967E+05-2.07976E+04 1.46470E+05-2.04295E+04-1.54614E-10 7.71252E-10
 -1       537 9.84757E+05 3.66905E+04 9.00852E+04-5.21878E+04-1.91631E-09 4.65661E-10
 -1       538 9.56729E+05-1.96697E+03 3.76591E+04-2.04479E+04-2.21917E-10 2.54659E-10
 -1       539 9.61642E+05 2.83134E+03 2.03945E+04-5.19864E+04-5.50244E-11 7.91715E-10
 -1       540 9.58667E+05-2.35759E+02 9.54162E+03-2.06063E+04 3.76531E-10-4.27008E-10
 -1       541 9.59238E+05 2.35820E+02 5.08443E+03-5.17313E+04-1.43700E-10-8.72205E-10
 -1       542 9.58868E+05-2.33486E+01 2.72701E+03-2.07038E+04-2.05091E-10 9.44965E-10
 -1       543 9.58912E+05 7.28053E+01 1.96001E+03-5.16114E+04-7.14067E-10 3.53793E-09
 -1       544 9.58874E+05-4.61127E+00 2.06583E+03-2.07264E+04 2.41130E-10 2.86298E-09
 -1       545 9.59059E+05 1.78588E+02 3.36285E+03-5.16390E+04-9.28821E-10 2.35303E-09
 -1       546 9.58750E+05-1.30741E+02 6.06044E+03-2.06761E+04 1.89630E-10-3.38378E-09
 -1       547 9.60561E+05 1.79950E+03 1.28019E+04-5.18065E+04 7.02130E-10 1.23578E-09
 -1       548 9.57546E+05-1.22077E+03 2.35759E+04-2.05584E+04 4.72937E-10-1.11322E-09
 -1       549 9.75054E+05 2.29610E+04 5.63549E+04-5.19495E+04-4.72937E-11-2.15459E-09
 -1       550 9.44571E+05-1.30222E+04 9.15882E+04-2.05436E+04-1.16597E-09 1.66983E-09
 -1       551 1.87024E+04-2.23822E+05 4.23634E+04-4.40547E+05-1.69894E-09-2.59388E-09
 -1       552 8.64092E+03-2.16535E+05 2.58231E+04-5.29287E+05-1.68075E-09-1.44428E-09
 -1       553 3.56760E+03-2.21743E+05 1.97406E+04-4.39782E+05-2.35741E-09-1.37788E-10
 -1       554 9.51778E+03-2.16146E+05 2.81833E+04-5.29362E+05-2.43381E-09 1.86719E-09
 -1       555 2.13312E+04-2.24612E+05 4.80351E+04-4.40461E+05-1.98997E-09-2.13731E-09
 -1       556-8.46487E+05-2.32572E+05-4.42164E+04-4.41738E+05-1.92813E-09-3.60160E-09
 -1       557-8.34580E+05-2.42954E+05-2.19440E+04-4.70290E+05-2.05182E-09-1.46611E-09
 -1       558-8.49183E+05-2.17827E+05-9.35837E+03-4.48308E+05-7.42148E-10 4.68390E-10
 -1       559-8.29762E+05-2.37616E+05-4.57285E+03-4.71760E+05 1.28239E-09-1.46588E-09
 -1       560-8.49815E+05-2.17138E+05-2.13390E+03-4.48752E+05-2.91038E-10-1.26818E-09
 -1       561-8.29696E+05-2.37331E+05-1.09583E+03-4.72021E+05 1.00954E-10-2.55750E-09
 -1       562-8.50072E+05-2.17044E+05-6.49678E+02-4.48873E+05-2.65572E-10-4.81123E-10
 -1       563-8.29799E+05-2.37280E+05-6.08250E+02-4.72125E+05 7.80346E-10 1.88265E-09
 -1       564-8.50106E+05-2.17007E+05-9.00040E+02-4.48899E+05 3.68459E-10 7.43967E-10
 -1       565-8.29822E+05-2.37288E+05-1.76452E+03-4.72114E+05 2.06910E-11 2.19006E-09
 -1       566-8.49907E+05-2.17022E+05-3.55876E+03-4.48829E+05-2.51202E-09-5.21322E-09
 -1       567-8.30213E+05-2.37691E+05-7.73616E+03-4.71977E+05-1.81899E-11 7.09406E-11
 -1       568-8.49204E+05-2.17937E+05-1.58228E+04-4.48232E+05-8.78572E-10 3.96540E-10
 -1       569-8.38402E+05-2.47086E+05-3.72345E+04-4.70369E+05 1.06229E-09-3.40151E-10
 -1       570-8.45449E+05-2.42316E+05-7.49245E+04-4.36838E+05 3.71074E-10-1.29148E-10
 -1       571 7.97720E+05 3.53205E+04 8.52381E+04-1.30621E+05 1.56797E-09-2.87218E-09
 -1       572 8.14235E+05 1.15487E+04 4.35735E+04-1.56129E+05-3.34694E-10-3.52884E-09
 -1       573 8.04618E+05 9.36540E+02 1.95994E+04-1.30010E+05-1.14960E-09 2.69210E-10
 -1       574 8.05935E+05 2.43484E+02 9.99961E+03-1.56709E+05-2.29193E-10-2.27737E-09
 -1       575 8.04955E+05-1.76196E+02 4.82394E+03-1.29974E+05 6.00267E-11 4.98403E-10
 -1       576 8.05052E+05-4.14626E+01 2.48248E+03-1.56747E+05-1.76442E-10 2.09729E-09
 -1       577 8.04950E+05-4.23939E+01 1.25378E+03-1.29974E+05 4.03986E-10 2.11821E-09
 -1       578 8.04957E+05-1.02000E+01 7.19049E+02-1.56752E+05 9.20409E-10-1.38243E-09
 -1       579 8.05052E+05-6.48892E+01 4.97426E+02-1.29969E+05 4.91127E-11-2.47928E-09
 -1       580 8.05163E+05-1.17993E+02 5.58725E+02-1.56765E+05 3.53793E-10 3.20688E-09
 -1       581 8.05305E+05-2.37303E+02 8.49074E+02-1.29960E+05-5.52973E-10-1.28057E-09
 -1       582 8.05690E+05-2.82518E+02 1.67195E+03-1.56728E+05 4.12911E-10-2.88492E-09
 -1       583 8.05642E+05-3.06366E+02 3.18941E+03-1.30004E+05 2.61934E-10 1.05956E-09
 -1       584 8.07620E+05 1.28428E+03 7.13179E+03-1.55996E+05-5.20231E-09-1.68893E-09
 -1       585 8.05003E+05 5.04752E+03 1.38729E+04-1.30706E+05 8.00355E-11 5.44969E-09
 -1       586 8.00194E+03 1.28922E+05 1.76432E+04-4.76016E+05-1.02227E-09-6.07542E-10
 -1       587 4.86755E+03 1.31281E+05 1.30286E+04-5.71667E+05-2.43381E-09 1.73623E-09
 -1       588 2.94255E+03 1.28698E+05 1.36067E+04-4.75168E+05-1.42609E-09 3.79032E-09
 -1       589 8.76788E+03 1.33625E+05 2.42036E+04-5.71770E+05-2.14641E-09 3.07409E-09
 -1       590 1.99894E+04 1.25947E+05 4.44508E+04-4.75892E+05-7.11225E-10 2.33194E-09
 -1       591-5.58439E+05-1.60907E+05-6.56342E+04-2.80371E+05 6.19139E-09 8.33097E-09
 -1       592-5.57205E+05-1.60187E+05-3.26348E+04-3.04022E+05 1.46247E-09 3.22279E-09
 -1       593-5.61373E+05-1.39777E+05-1.38633E+04-2.90381E+05-1.94632E-10-1.88447E-09
 -1       594-5.49958E+05-1.51884E+05-6.79694E+03-3.05089E+05-4.71118E-10 2.00859E-09
 -1       595-5.61815E+05-1.39080E+05-3.14588E+03-2.90824E+05-1.96451E-10 1.17143E-09
 -1       596-5.49502E+05-1.51568E+05-1.61042E+03-3.05091E+05-2.47383E-10 3.66481E-09
 -1       597-5.61907E+05-1.39111E+05-9.13655E+02-2.90842E+05 2.28511E-10-1.06229E-09
 -1       598-5.49456E+05-1.51570E+05-7.97760E+02-3.05074E+05-6.63931E-11-6.27551E-09
 -1       599-5.61872E+05-1.39121E+05-1.10253E+03-2.90827E+05-1.27784E-09 2.34832E-09
 -1       600-5.49468E+05-1.51588E+05-2.10629E+03-3.05051E+05-2.40561E-10 7.87622E-10
 -1       601-5.61693E+05-1.39101E+05-4.20446E+03-2.90774E+05 8.58563E-10-1.08412E-09
 -1       602-5.50046E+05-1.52029E+05-9.12744E+03-3.05019E+05 2.11003E-09-6.14818E-10
 -1       603-5.61078E+05-1.40054E+05-1.86350E+04-2.90165E+05-7.07587E-10 9.07676E-10
 -1       604-5.59747E+05-1.63213E+05-4.38651E+04-3.03598E+05 1.80080E-10-1.00772E-09
 -1       605-5.57156E+05-1.68399E+05-8.82125E+04-2.76665E+05 2.34286E-09-3.27418E-11
 -1       606 2.26998E+05-1.91852E+04-4.58698E+04 5.01603E+04-1.50903E-08-1.20872E-09
 -1       607 2.17985E+05-6.26460E+03-2.34305E+04 5.92891E+04-2.67755E-09-1.04410E-09
 -1       608 2.22943E+05-5.22428E+02-1.05593E+04 4.97089E+04 1.08739E-08 2.08274E-09
 -1       609 2.22047E+05 1.49142E+01-5.36818E+03 5.97376E+04-7.11771E-09 8.94943E-10
 -1       610 2.22497E+05 2.47033E+02-2.58951E+03 4.96731E+04-1.71658E-08 1.37743E-09
 -1       611 2.22271E+05 3.07501E+02-1.29936E+03 5.97687E+04-2.95558E-08 1.00863E-09
 -1       612 2.22349E+05 2.70431E+02-6.13791E+02 4.96736E+04-1.28493E-08 6.45286E-09
 -1       613 2.22217E+05 3.48525E+02-2.50768E+02 5.97657E+04-1.89530E-08 4.85716E-09
 -1       614 2.22259E+05 2.94087E+02-1.10952E+01 4.96748E+04-1.83900E-09 3.17777E-09
 -1       615 2.22162E+05 3.80245E+02 2.32814E+02 5.97610E+04 1.38853E-08 2.74440E-09
 -1       616 2.22193E+05 3.12739E+02 5.77151E+02 4.96775E+04-1.04446E-08 1.08639E-09
 -1       617 2.22202E+05 4.57262E+02 1.26495E+03 5.97521E+04 4.24961E-10 6.98492E-10
 -1       618 2.22087E+05 4.94633E+02 2.51286E+03 4.96822E+04-2.61934E-10 3.30829E-09
 -1       619 2.23197E+05 1.94982E+03 5.60192E+03 5.96945E+04-1.20008E-09-3.26281E-10
 -1       620 2.21144E+05 4.94910E+03 1.09690E+04 4.97134E+04 2.72729E-09 4.23643E-09
 -1       621 9.85192E+03 8.83475E+05 2.53545E+04-1.33263E+05 3.09228E-10-5.42332E-09
 -1       622 4.06791E+03 8.88353E+05 1.90967E+04-1.59927E+05-2.45564E-11-2.17142E-11
 -1       623 1.77109E+03 8.84891E+05 2.08790E+04-1.33140E+05 5.72982E-10 9.64064E-11
 -1       624 1.04012E+04 8.92833E+05 3.79914E+04-1.59770E+05 9.89530E-10-1.19098E-09
 -1       625 2.96510E+04 8.79233E+05 7.06385E+04-1.33388E+05 5.60249E-10-1.52795E-10
 -1       626 3.89287E+05 1.02049E+05-1.67758E+04 2.18731E+05-2.65754E-09-7.76708E-10
 -1       627 3.76533E+05 1.15274E+05-8.33022E+03 2.27430E+05-9.12587E-09 1.80137E-09
 -1       628 3.88782E+05 1.07101E+05-3.55018E+03 2.15642E+05-4.79486E-09 2.96950E-09
 -1       629 3.77802E+05 1.17875E+05-1.72098E+03 2.27532E+05 1.83354E-08-6.36123E-09
 -1       630 3.88582E+05 1.07319E+05-7.76343E+02 2.15421E+05 4.44925E-09 1.13270E-08
 -1       631 3.77769E+05 1.18030E+05-3.34657E+02 2.27477E+05-1.03400E-08-3.53270E-09
 -1       632 3.88467E+05 1.07357E+05-7.40269E+01 2.15361E+05 2.55932E-09 9.44851E-10
 -1       633 3.77711E+05 1.18059E+05 1.44668E+02 2.27426E+05 2.54963E-08 3.66890E-09
 -1       634 3.88399E+05 1.07364E+05 4.32949E+02 2.15333E+05 9.33414E-09 4.02588E-09
 -1       635 3.77725E+05 1.18064E+05 9.99086E+02 2.27422E+05 2.58342E-09 1.65164E-09
 -1       636 3.88349E+05 1.07326E+05 2.07522E+03 2.15331E+05-2.46700E-09 3.09319E-09
 -1       637 3.78102E+05 1.18251E+05 4.55375E+03 2.27477E+05 1.40808E-08 1.36879E-09
 -1       638 3.88155E+05 1.07729E+05 9.29969E+03 2.15092E+05-2.63981E-09 2.75577E-09
 -1       639 3.83143E+05 1.23755E+05 2.19162E+04 2.26877E+05-2.11730E-09 4.91127E-10
 -1       640 3.86364E+05 1.21829E+05 4.40604E+04 2.08455E+05-1.20617E-08-2.14095E-09
 -1       641 1.27822E+04 1.39532E+03-9.74042E+03 3.74226E+03-1.46370E-08-1.92722E-09
 -1       642 9.50908E+03-2.38638E+03-5.98685E+03 9.28110E+03-1.78902E-08-6.72230E-10
 -1       643 1.13927E+04 1.50101E+02-2.49933E+03 3.71502E+03-1.02002E-08-2.12970E-09
 -1       644 1.10249E+04-1.24001E+02-1.34197E+03 9.30671E+03 6.90147E-09-4.63092E-09
 -1       645 1.12577E+04 4.08735E+01-6.08716E+02 3.71345E+03-1.32081E-09-5.10886E-09
 -1       646 1.11740E+04 5.47994E+01-2.84251E+02 9.30801E+03-1.86606E-08-6.50627E-09
 -1       647 1.12398E+04 2.89547E+01-7.63876E+01 3.71346E+03 1.10666E-08-4.14872E-09
 -1       648 1.12006E+04 7.00729E+01 8.46814E+01 9.30823E+03 3.42773E-08-4.96722E-09
 -1       649 1.12323E+04 2.32398E+01 2.83387E+02 3.71321E+03 1.70095E-08-1.54898E-09
 -1       650 1.12468E+04 9.74103E+01 6.49380E+02 9.30830E+03 1.44841E-08-1.12266E-09
 -1       651 1.11998E+04-2.68884E+00 1.28336E+03 3.71338E+03-7.28551E-09-1.18985E-09
 -1       652 1.15624E+04 4.60155E+02 2.77774E+03 9.30652E+03 1.32877E-09 3.05590E-10
 -1       653 1.09277E+04-2.32824E+02 5.14853E+03 3.71460E+03 1.19726E-08 1.41517E-09
 -1       654 1.47021E+04 5.10689E+03 1.23240E+04 9.26058E+03-2.45359E-09-4.21096E-10
 -1       655 8.07650E+03-2.80343E+03 2.00415E+04 3.75344E+03 4.73392E-09 1.40062E-10
 -1       656 7.54763E+03-4.77419E+05-5.85542E+04 4.92019E+04 2.41816E-08-2.72848E-10
 -1       657-1.57842E+04-4.96532E+05-4.08364E+04 1.21255E+05 7.51925E-09 2.91902E-09
 -1       658 1.08570E+03-4.84887E+05-2.66586E+04 4.89260E+04 1.62088E-08 2.06001E-10
 -1       659-1.40815E+04-4.95659E+05-3.74789E+04 1.21432E+05 1.19276E-08 6.83671E-09
 -1       660 6.73410E+03-4.78654E+05-5.18828E+04 4.90324E+04 2.36669E-08-2.08274E-10
 -1       661 4.23889E+05 5.82777E+04 3.32420E+04 1.66174E+05 3.33421E-09-3.16140E-09
 -1       662 4.32510E+05 7.70881E+04 2.01512E+04 1.69389E+05 1.71647E-09 4.77144E-09
 -1       663 4.29079E+05 6.36343E+04 7.81275E+03 1.66087E+05 9.21159E-09 2.21735E-09
 -1       664 4.26461E+05 6.88086E+04 4.14474E+03 1.70384E+05-6.20937E-09-2.76083E-09
 -1       665 4.29591E+05 6.41318E+04 1.82552E+03 1.66097E+05 1.45673E-08 3.06568E-09
 -1       666 4.25866E+05 6.80979E+04 9.72722E+02 1.70436E+05 1.42433E-08 7.66890E-09
 -1       667 4.29651E+05 6.41781E+04 5.61570E+02 1.66099E+05 1.90548E-08 4.06587E-09
 -1       668 4.25806E+05 6.80548E+04 5.34500E+02 1.70449E+05-1.86928E-08-7.28824E-09
 -1       669 4.29653E+05 6.41650E+04 7.72436E+02 1.66090E+05-8.19477E-09-2.70177E-09
 -1       670 4.25897E+05 6.81716E+04 1.54516E+03 1.70479E+05-2.30631E-09 2.73735E-09
 -1       671 4.29569E+05 6.40666E+04 3.01209E+03 1.66070E+05-2.19995E-08-2.32535E-09
 -1       672 4.26871E+05 6.93886E+04 6.90924E+03 1.70432E+05 4.56112E-09-5.87988E-09
 -1       673 4.28728E+05 6.32189E+04 1.30467E+04 1.66039E+05 4.73722E-09-2.08274E-09
 -1       674 4.36974E+05 8.32432E+04 3.36761E+04 1.68792E+05 3.62678E-09 1.30967E-09
 -1       675 4.20058E+05 5.42626E+04 5.55568E+04 1.66183E+05 9.48876E-09-6.91216E-10
 -1       676 2.88960E+03-4.22125E+05-2.19317E+04 7.94801E+03-1.28694E-09 5.07157E-09
 -1       677-5.83495E+03-4.29386E+05-1.61566E+04 1.78821E+04-1.92232E-08 6.70025E-09
 -1       678 5.57109E+02-4.24697E+05-1.20075E+04 7.89223E+03 2.59320E-10 1.45428E-09
 -1       679-7.25948E+03-4.30360E+05-1.91242E+04 1.79413E+04-1.75880E-08-3.85018E-09
 -1       680 3.75759E+03-4.21170E+05-2.77772E+04 7.88774E+03-3.13230E-09-5.39040E-09
 -1       681 4.81111E+05-3.88817E+03 2.67966E+04-1.43895E+04-5.82077E-11 4.05635E-10
 -1       682 4.90108E+05 6.66661E+03 1.65088E+04-3.63672E+04 6.86668E-11-1.26647E-09
 -1       683 4.84886E+05-3.97349E+02 6.89658E+03-1.43323E+04-2.00089E-11-3.07409E-10
 -1       684 4.85791E+05 4.93740E+02 3.76011E+03-3.63658E+04-1.57343E-10 2.26464E-10
 -1       685 4.85217E+05-5.66078E+01 1.79070E+03-1.43877E+04 9.59517E-11 1.39767E-09
 -1       686 4.85302E+05 4.14405E+01 1.02955E+03-3.62769E+04 3.27418E-11 1.07400E-09
 -1       687 4.85237E+05-5.80396E+00 6.91210E+02-1.44214E+04 1.16415E-10 3.28782E-10
 -1       688 4.85235E+05 2.69898E+01 7.53820E+02-3.62342E+04-1.13232E-10-6.18456E-10
 -1       689 4.85221E+05-6.92816E+00 1.15142E+03-1.44304E+04-2.19359E-10 8.23661E-11
 -1       690 4.85361E+05 1.11459E+02 2.21907E+03-3.62432E+04 1.60071E-10 1.03341E-10
 -1       691 4.85124E+05-9.35284E+01 4.20664E+03-1.44124E+04 1.78716E-10-1.13300E-09
 -1       692 4.86406E+05 1.26881E+03 9.00779E+03-3.62976E+04 3.97904E-11-3.11957E-10
 -1       693 4.84262E+05-8.53287E+02 1.66479E+04-1.43757E+04-6.82121E-11 2.28283E-10
 -1       694 4.96612E+05 1.62510E+04 3.98269E+04-3.62835E+04-6.70752E-10-4.93401E-10
 -1       695 4.75076E+05-9.18293E+03 6.47483E+04-1.44322E+04-2.56478E-10-1.84809E-09
 -1       696-4.32657E+03 5.28606E+05 3.07636E+04-2.82166E+04 1.00044E-10-1.22554E-09
 -1       697 7.87932E+03 5.38617E+05 1.77304E+04-6.96908E+04 1.86333E-10-4.97209E-10
 -1       698-1.67870E+02 5.33220E+05 5.05663E+03-2.81568E+04-1.99179E-10 1.71599E-09
 -1       699-2.04773E+03 5.31971E+05-2.87446E+03-6.96921E+04-2.76316E-10 2.28010E-09
 -1       700 1.60534E+03 5.35320E+05-9.86452E+03-2.82199E+04-3.05590E-10 1.64891E-09
 -1       701-4.50296E+05-5.94902E+04-6.41651E+04-1.81127E+05 3.63798E-12-1.41881E-09
 -1       702-4.65613E+05-9.70995E+04-3.88908E+04-1.88900E+05 1.00044E-11-1.61162E-09
 -1       703-4.60435E+05-6.97164E+04-1.50765E+04-1.80845E+05 3.13776E-11 1.76442E-10
 -1       704-4.53830E+05-8.12412E+04-7.97898E+03-1.91024E+05 2.76032E-10-1.29148E-10
 -1       705-4.61484E+05-7.06145E+04-3.49623E+03-1.80819E+05 2.00089E-11-4.33602E-10
 -1       706-4.52640E+05-7.99297E+04-1.81076E+03-1.91229E+05-1.73713E-10 2.38288E-10
 -1       707-4.61633E+05-7.06718E+04-9.55331E+02-1.80800E+05-1.29376E-10 4.64411E-10
 -1       708-4.52503E+05-7.98576E+04-7.50071E+02-1.91289E+05-2.76600E-10 3.24128E-10
 -1       709-4.61652E+05-7.06531E+04-9.22647E+02-1.80787E+05 4.53610E-11 4.00632E-10
 -1       710-4.52605E+05-7.99731E+04-1.72807E+03-1.91314E+05-3.20199E-10-1.06354E-10
 -1       711-4.61546E+05-7.05611E+04-3.31677E+03-1.80780E+05 4.79226E-11 3.41061E-11
 -1       712-4.53707E+05-8.12656E+04-7.57718E+03-1.91200E+05 2.98940E-10 4.30191E-10
 -1       713-4.60586E+05-6.96733E+04-1.43024E+04-1.80780E+05-2.62872E-10-5.09317E-11
 -1       714-4.64839E+05-9.63922E+04-3.69178E+04-1.89290E+05-4.47471E-10 7.16227E-10
 -1       715-4.51015E+05-5.99068E+04-6.08929E+04-1.80998E+05 2.42835E-10 8.73115E-11
 -1       716 3.89322E+05-8.17572E+03 5.65558E+04-2.68639E+04 1.45519E-11 2.72848E-11
 -1       717 4.08278E+05 1.41873E+04 3.48399E+04-6.70173E+04 1.23691E-10 3.67436E-10
 -1       718 3.97258E+05-7.80086E+02 1.45516E+04-2.67344E+04-7.27596E-11-3.54703E-11
 -1       719 3.99114E+05 1.17981E+03 7.91888E+03-6.70866E+04-1.58252E-10 7.87168E-10
 -1       720 3.97948E+05-5.22683E+01 3.75039E+03-2.67891E+04 7.29869E-10-8.00355E-11
 -1       721 3.98085E+05 2.22452E+02 2.09952E+03-6.70081E+04 1.50976E-09 4.59750E-10
 -1       722 3.98006E+05 4.45148E+01 1.31510E+03-2.68132E+04 1.31735E-09-5.37739E-10
 -1       723 3.97992E+05 1.60461E+02 1.28851E+03-6.69991E+04 9.76343E-10 1.62800E-10
 -1       724 3.98014E+05 1.65366E+01 1.82835E+03-2.67982E+04 5.52063E-10 1.97019E-10
 -1       725 3.98300E+05 2.33181E+02 3.44613E+03-6.70701E+04 1.51704E-09-2.43517E-10
 -1       726 3.97924E+05-1.74505E+02 6.46184E+03-2.67422E+04 9.16771E-10-7.79892E-11
 -1       727 4.00110E+05 1.92001E+03 1.38593E+04-6.72094E+04 1.06229E-09-5.52745E-10
 -1       728 3.96686E+05-1.43179E+03 2.55501E+04-2.66579E+04-4.47471E-10-1.64619E-10
 -1       729 4.16101E+05 2.48403E+04 6.12388E+04-6.71509E+04-1.53887E-09-3.41970E-10
 -1       730 3.82679E+05-1.43664E+04 9.94650E+04-2.68181E+04 1.56433E-10-8.22183E-10
 -1       731-5.26566E+03 1.91731E+05 3.81131E+04-5.75492E+04-2.78305E-10-8.24912E-10
 -1       732 1.00394E+04 2.04139E+05 2.37671E+04-1.44206E+05 1.22986E-09-4.99654E-10
 -1       733-3.70097E+02 1.97035E+05 1.05136E+04-5.74036E+04-3.50724E-10 1.64050E-09
 -1       734 1.96827E+03 1.98911E+05 7.13326E+03-1.44167E+05 1.26784E-09 2.12094E-09
 -1       735-5.75977E+02 1.97238E+05 5.27685E+03-5.75909E+04-5.65933E-10 1.39698E-09
 -1       736-1.05458E+06-1.41512E+05-8.95392E+04-4.10730E+05 2.04636E-10-1.60071E-09
 -1       737-1.07798E+06-1.91987E+05-5.42759E+04-4.19246E+05-8.18204E-10-4.83851E-09
 -1       738-1.06876E+06-1.55763E+05-2.10272E+04-4.10284E+05 1.88038E-10-1.38243E-10
 -1       739-1.06145E+06-1.69919E+05-1.11285E+04-4.22289E+05 1.40517E-10 1.40449E-09
 -1       740-1.07025E+06-1.56982E+05-4.86519E+03-4.10200E+05-2.82853E-10 4.78849E-10
 -1       741-1.05972E+06-1.68145E+05-2.50910E+03-4.22634E+05-3.18323E-10 4.03304E-10
 -1       742-1.07048E+06-1.57048E+05-1.29730E+03-4.10150E+05-8.38099E-10-8.48559E-10
 -1       743-1.05950E+06-1.68064E+05-9.74006E+02-4.22735E+05-8.13543E-10-2.37605E-11
 -1       744-1.07051E+06-1.57025E+05-1.14000E+03-4.10128E+05-8.56630E-11-4.24166E-10
 -1       745-1.05962E+06-1.68190E+05-2.08849E+03-4.22744E+05 3.89974E-10 6.03507E-10
 -1       746-1.07036E+06-1.56936E+05-3.98548E+03-4.10137E+05 2.66368E-10 1.47861E-09
 -1       747-1.06099E+06-1.69689E+05-9.09197E+03-4.22535E+05-2.61025E-10 5.32054E-10
 -1       748-1.06917E+06-1.55913E+05-1.71593E+04-4.10181E+05-1.96792E-10 5.55701E-10
 -1       749-1.07445E+06-1.87744E+05-4.42983E+04-4.20109E+05-8.75545E-10-3.24872E-09
 -1       750-1.05762E+06-1.44261E+05-7.30712E+04-4.10525E+05-4.72937E-10-6.47560E-10
 -1       751 1.47184E+06-2.86632E+04 2.02548E+05-2.17948E+04-6.09361E-10 5.31145E-10
 -1       752 1.53920E+06 5.07389E+04 1.24546E+05-5.65446E+04-2.24918E-09-2.99042E-09
 -1       753 1.50057E+06-2.68914E+03 5.20976E+04-2.19508E+04-2.20098E-10-2.57569E-09
 -1       754 1.50733E+06 3.92552E+03 2.82238E+04-5.60834E+04 5.67070E-10 9.78616E-10
 -1       755 1.50327E+06-3.17238E+02 1.32429E+04-2.22193E+04 1.73713E-10-3.80169E-10
 -1       756 1.50405E+06 3.21017E+02 7.11627E+03-5.56588E+04-2.12822E-10 1.61754E-09
 -1       757 1.50356E+06-3.64664E+01 3.93804E+03-2.23766E+04-5.29326E-10 2.25918E-09
 -1       758 1.50364E+06 8.99801E+01 3.04821E+03-5.54702E+04-5.51665E-10 6.71889E-10
 -1       759 1.50356E+06-2.13726E+01 3.51820E+03-2.24084E+04 1.80535E-10-5.12614E-10
 -1       760 1.50392E+06 2.92831E+02 6.02088E+03-5.55293E+04-1.05069E-09 1.53946E-09
 -1       761 1.50331E+06-2.40790E+02 1.10310E+04-2.23172E+04 4.13365E-10 1.74123E-09
 -1       762 1.50660E+06 3.28676E+03 2.33942E+04-5.58284E+04 2.46473E-10 4.25871E-10
 -1       763 1.50107E+06-2.19836E+03 4.31442E+04-2.21084E+04 1.77351E-10 1.08776E-09
 -1       764 1.53298E+06 4.20380E+04 1.03097E+05-5.61883E+04 9.87711E-10-1.31149E-09
 -1       765 1.47728E+06-2.37010E+04 1.67642E+05-2.19795E+04-1.81535E-09-4.58385E-10
 -1       766-1.47159E+04 4.36538E+05 1.08542E+05-3.13040E+04 3.34694E-10-2.83080E-10
 -1       767 2.81590E+04 4.72689E+05 7.45653E+04-7.77912E+04-4.80213E-10-8.44921E-10
 -1       768-2.29389E+03 4.50416E+05 4.65553E+04-3.12653E+04 3.34467E-10 1.49703E-09
 -1       769 2.21183E+04 4.68992E+05 6.22549E+04-7.77321E+04-2.25555E-10 2.18279E-11
 -1       770-1.13742E+04 4.40724E+05 8.41830E+04-3.13804E+04-1.27329E-10 1.68257E-09
 -1       771-1.68098E+06-3.38187E+05-1.27542E+05-6.90596E+05-2.07933E-09 1.74623E-10
 -1       772-1.69038E+06-3.24895E+05-6.34175E+04-7.22812E+05-2.27374E-09 4.22187E-09
 -1       773-1.68646E+06-2.97335E+05-2.69349E+04-7.10146E+05-1.20417E-09 3.74530E-09
 -1       774-1.67635E+06-3.08686E+05-1.31930E+04-7.24758E+05 4.31100E-10-2.54386E-09
 -1       775-1.68733E+06-2.95959E+05-6.08990E+03-7.10987E+05 1.67347E-10-1.30422E-09
 -1       776-1.67546E+06-3.08087E+05-3.06852E+03-7.24831E+05-2.35559E-10 5.36375E-10
 -1       777-1.68760E+06-2.95966E+05-1.64918E+03-7.11045E+05 1.05501E-09 1.62913E-10
 -1       778-1.67545E+06-3.08077E+05-1.26538E+03-7.24915E+05 3.70892E-09 3.58887E-09
 -1       779-1.68769E+06-2.95913E+05-1.55148E+03-7.11078E+05 6.91216E-10 1.00363E-09
 -1       780-1.67558E+06-3.08065E+05-2.82151E+03-7.25012E+05-1.09594E-09 1.00317E-09
 -1       781-1.68761E+06-2.95803E+05-5.55514E+03-7.11085E+05-2.50111E-11 1.22782E-10
 -1       782-1.67648E+06-3.08608E+05-1.20428E+04-7.25128E+05-3.10365E-10 2.50566E-10
 -1       783-1.68697E+06-2.96945E+05-2.45641E+04-7.10360E+05-9.65429E-10-5.20231E-10
 -1       784-1.68926E+06-3.23565E+05-5.78919E+04-7.23692E+05-5.00222E-11-6.23913E-10
 -1       785-1.68219E+06-3.34075E+05-1.16397E+05-6.92447E+05 1.03955E-09 3.52884E-10
 -1       786 9.42121E+05-1.65441E+04 1.17090E+05-1.45971E+04 4.73847E-10 1.09867E-09
 -1       787 9.81011E+05 2.93715E+04 7.20015E+04-3.75621E+04-1.23327E-09-4.54747E-12
 -1       788 9.58756E+05-1.53300E+03 3.01152E+04-1.46060E+04-7.03949E-10 2.52294E-09
 -1       789 9.62634E+05 2.27089E+03 1.62984E+04-3.74477E+04 6.42785E-10-6.27551E-10
 -1       790 9.60335E+05-1.78579E+02 7.63060E+03-1.46966E+04 4.71118E-10-3.27418E-10
 -1       791 9.60781E+05 1.65283E+02 4.05647E+03-3.73160E+04 4.94765E-10-8.31733E-10
 -1       792 9.60516E+05-2.88018E+01 2.16846E+03-1.47380E+04 5.25233E-11 1.34992E-09
 -1       793 9.60563E+05 1.46376E+01 1.53988E+03-3.72865E+04 9.69067E-10 9.61109E-10
 -1       794 9.60533E+05-2.47095E+01 1.59888E+03-1.47262E+04-8.13998E-11-9.04777E-10
 -1       795 9.60694E+05 8.55175E+01 2.58243E+03-3.73648E+04-2.13640E-09-1.88965E-09
 -1       796 9.60441E+05-1.24797E+02 4.63924E+03-1.46596E+04-1.05410E-09-9.23364E-10
 -1       797 9.61844E+05 1.32519E+03 9.79714E+03-3.75426E+04 8.77662E-11 1.70121E-09
 -1       798 9.59517E+05-9.55327E+02 1.80383E+04-1.45482E+04-1.51249E-09 7.84894E-10
 -1       799 9.72914E+05 1.75249E+04 4.31195E+04-3.76865E+04-3.77668E-09-9.73159E-10
 -1       800 9.49578E+05-9.97535E+03 7.00756E+04-1.45264E+04 1.28875E-09-7.60338E-10
 -1       801-7.53213E+03 2.60818E+05 5.63199E+04-2.77452E+05 5.09681E-09-7.93079E-10
 -1       802 2.12313E+04 2.76205E+05 4.54252E+04-6.95161E+05 1.24055E-08-1.88902E-09
 -1       803 6.70643E+02 2.64663E+05 3.83158E+04-2.76684E+05 9.31141E-09 4.53792E-09
 -1       804 3.12556E+04 2.84615E+05 6.73432E+04-6.95084E+05 9.21136E-09-4.14730E-09
 -1       805-1.48158E+04 2.54578E+05 9.92118E+04-2.77544E+05 6.81757E-09 4.05998E-09
 -1       806-9.69802E+05-2.23803E+05-8.47876E+04-4.30121E+05 7.02289E-09 3.79805E-09
 -1       807-9.71945E+05-2.19141E+05-4.21639E+04-4.56342E+05 8.51287E-10 2.85581E-10
 -1       808-9.73449E+05-1.96629E+05-1.79030E+04-4.43118E+05 1.14051E-09-9.04947E-10
 -1       809-9.62607E+05-2.08343E+05-8.77608E+03-4.57579E+05 6.73026E-10-1.74947E-09
 -1       810-9.73978E+05-1.95755E+05-4.05377E+03-4.43671E+05-3.41061E-10 6.42103E-10
 -1       811-9.61990E+05-2.07942E+05-2.06246E+03-4.57554E+05-4.43833E-09-3.07045E-09
 -1       812-9.74083E+05-1.95805E+05-1.14275E+03-4.43685E+05 4.22915E-11-1.70621E-09
 -1       813-9.61924E+05-2.07947E+05-9.50261E+02-4.57526E+05 1.36947E-09-3.22871E-09
 -1       814-9.74046E+05-1.95821E+05-1.25757E+03-4.43669E+05-1.86310E-09 1.17780E-09
 -1       815-9.61948E+05-2.07960E+05-2.36254E+03-4.57498E+05 1.03319E-09-1.80989E-10
 -1       816-9.73856E+05-1.95797E+05-4.69433E+03-4.43622E+05 6.56655E-10 2.45564E-10
 -1       817-9.62620E+05-2.08438E+05-1.01827E+04-4.57469E+05 1.81444E-09-1.57888E-09
 -1       818-9.73190E+05-1.96849E+05-2.07843E+04-4.42960E+05-1.28239E-09 3.74712E-10
 -1       819-9.73449E+05-2.20937E+05-4.89357E+04-4.55946E+05 1.97724E-09 2.74849E-09
 -1       820-9.68900E+05-2.28409E+05-9.84062E+04-4.27877E+05 1.08230E-09 2.54659E-10
 -1       821-6.11050E+05 1.08755E+04-7.74400E+04 9.89746E+03-1.02036E-08 6.69388E-10
 -1       822-6.36675E+05-1.94246E+04-4.76102E+04 2.64130E+04-3.45608E-09 1.78261E-10
 -1       823-6.22110E+05 9.89445E+02-1.99291E+04 9.65301E+03 9.54151E-09 1.25056E-09
 -1       824-6.24688E+05-1.41053E+03-1.07736E+04 2.67397E+04-4.50200E-09-3.87786E-09
 -1       825-6.23199E+05 1.42500E+02-5.06484E+03 9.56011E+03-1.57397E-08-8.02856E-10
 -1       826-6.23575E+05 3.75714E+01-2.70643E+03 2.68903E+04-2.80834E-08-1.05638E-09
 -1       827-6.23346E+05 7.40542E+01-1.49486E+03 9.50032E+03-1.42827E-08 6.74959E-10
 -1       828-6.23492E+05 1.62397E+02-1.14047E+03 2.69829E+04-1.74145E-08-2.11674E-09
 -1       829-6.23362E+05 8.33373E+01-1.30417E+03 9.46692E+03-1.36856E-09-2.47644E-09
 -1       830-6.23607E+05 9.25213E+01-2.22086E+03 2.70206E+04 1.45494E-08-8.77164E-09
 -1       831-6.23265E+05 1.56385E+02-4.06990E+03 9.46234E+03-1.09806E-08-1.11970E-09
 -1       832-6.24546E+05-1.04183E+03-8.63022E+03 2.70002E+04-1.83127E-09-9.37803E-10
 -1       833-6.22411E+05 8.50323E+02-1.59322E+04 9.48866E+03-6.66705E-09-2.28283E-09
 -1       834-6.34178E+05-1.54322E+04-3.80814E+04 2.68653E+04 2.68801E-09-3.87445E-09
 -1       835-6.13578E+05 8.77196E+03-6.19203E+04 9.61315E+03 1.77351E-09-1.88447E-09
 -1       836-1.50976E+04 1.34566E+06 1.14162E+05-1.11191E+05 1.36788E-09 9.14952E-10
 -1       837 3.13932E+04 1.38296E+06 8.44746E+04-2.73626E+05-1.71394E-09 9.40872E-10
 -1       838-2.46656E+03 1.35855E+06 6.30970E+04-1.11110E+05 8.17636E-10 1.31422E-09
 -1       839 3.93190E+04 1.38812E+06 1.00837E+05-2.73582E+05-1.11322E-09-1.29421E-09
 -1       840-1.97091E+04 1.34025E+06 1.46485E+05-1.11228E+05 8.29459E-10-1.00226E-09
 -1       841-1.19363E+05-4.65577E+03-3.01334E+04-3.67214E+04-5.10590E-09 4.99313E-10
 -1       842-1.42584E+05-6.16764E+03-1.82436E+04-2.20578E+04-5.33373E-09 2.90174E-09
 -1       843-1.23977E+05-9.59461E+03-7.08374E+03-3.68006E+04 5.86806E-09 2.45609E-09
 -1       844-1.37328E+05 1.49497E+03-3.73226E+03-2.28553E+04-4.56930E-09-1.75538E-09
 -1       845-1.24444E+05-1.00376E+04-1.62329E+03-3.68483E+04 1.70044E-08 6.58815E-10
 -1       846-1.36877E+05 2.18725E+03-7.98698E+02-2.29059E+04-2.56523E-09-3.74570E-09
 -1       847-1.24503E+05-1.00776E+04-3.45074E+02-3.68758E+04-1.13664E-08 1.84195E-09
 -1       848-1.36862E+05 2.27222E+03-1.24424E+02-2.29075E+04 4.50052E-09 3.95222E-09
 -1       849-1.24517E+05-1.00828E+04 3.00931E+01-3.68898E+04-9.80867E-09 1.69155E-09
 -1       850-1.36849E+05 2.30369E+03 2.09651E+02-2.29064E+04-2.25410E-09-3.27964E-09
 -1       851-1.24536E+05-1.00975E+04 4.78661E+02-3.68908E+04 8.76378E-09-3.32545E-09
 -1       852-1.36659E+05 2.49071E+03 1.13902E+03-2.29211E+04 1.50926E-08 1.81171E-09
 -1       853-1.24681E+05-1.02362E+04 2.16033E+03-3.68782E+04 9.71704E-09 5.98493E-09
 -1       854-1.34864E+05 4.71067E+03 5.59883E+03-2.32577E+04 2.77942E-09 4.46516E-09
 -1       855-1.26174E+05-1.16782E+04 9.22369E+03-3.67672E+04-6.45559E-09-7.98536E-10
 -1       856-3.97878E+05 5.86649E+03-4.15435E+04 1.03137E+04-1.01209E-08 1.12777E-09
 -1       857-4.11685E+05-1.02967E+04-2.55343E+04 2.75668E+04-8.43238E-09-2.96859E-09
 -1       858-4.03819E+05 5.78031E+02-1.06884E+04 1.01475E+04-1.24382E-08-1.37197E-09
 -1       859-4.05281E+05-6.25861E+02-5.77433E+03 2.77691E+04-2.53954E-09-1.98497E-09
 -1       860-4.04409E+05 1.29821E+02-2.70701E+03 1.01004E+04-6.11635E-10-7.50106E-10
 -1       861-4.04693E+05 1.54836E+02-1.43438E+03 2.78361E+04-1.36370E-08-5.46424E-09
 -1       862-4.04490E+05 9.35889E+01-7.66567E+02 1.00790E+04 1.49887E-08-9.17794E-10
 -1       863-4.04640E+05 2.20030E+02-5.42683E+02 2.78607E+04 4.11647E-08-3.43198E-09
 -1       864-4.04496E+05 9.28057E+01-5.64451E+02 1.00755E+04 1.93585E-08-1.96280E-09
 -1       865-4.04666E+05 1.85084E+02-9.11658E+02 2.78488E+04 2.12777E-08-1.97645E-09
 -1       866-4.04449E+05 1.12641E+02-1.64551E+03 1.00910E+04-1.13691E-08-1.50536E-10
 -1       867-4.05007E+05-2.85891E+02-3.46729E+03 2.77967E+04 2.29215E-09-1.96522E-09
 -1       868-4.04091E+05 3.75363E+02-6.40201E+03 1.01286E+04 3.74257E-09-5.31145E-10
 -1       869-4.08816E+05-6.08008E+03-1.52782E+04 2.76160E+04-4.52474E-10-1.10401E-09
 -1       870-4.00529E+05 3.52915E+03-2.48604E+04 1.02790E+04 1.02773E-08-7.25777E-10
 -1       871-4.46133E+03-4.12468E+04-7.82265E+03 1.49846E+05-4.67844E-09-2.27192E-09
 -1       872-2.00279E+03-4.26699E+04-2.18322E+03 1.79936E+05-1.03955E-08-4.80213E-09
 -1       873-5.63833E+02-4.22784E+04 2.62219E+03 1.49578E+05-1.08093E-08 4.20641E-11
 -1       874 1.91957E+03-4.00383E+04 9.35660E+03 1.80004E+05-3.87445E-10 1.20735E-10
 -1       875 7.72183E+03-4.39975E+04 1.98375E+04 1.49823E+05-4.81759E-09 3.16595E-09
 -1       876 4.90500E+05 6.88489E+04 4.70019E+04 1.96509E+05 6.09725E-09 3.71074E-10
 -1       877 4.99198E+05 9.90072E+04 2.84986E+04 2.05077E+05 1.07320E-09-1.30058E-09
 -1       878 4.97832E+05 7.64359E+04 1.10408E+04 1.96374E+05 5.84100E-09 2.07365E-09
 -1       879 4.90636E+05 8.72794E+04 5.85610E+03 2.06433E+05-6.35259E-09-6.85577E-09
 -1       880 4.98518E+05 7.71762E+04 2.56640E+03 1.96413E+05 1.98606E-08 1.92199E-09
 -1       881 4.89822E+05 8.62306E+04 1.34817E+03 2.06433E+05 1.15085E-08-9.88791E-11
 -1       882 4.98575E+05 7.72725E+04 7.36781E+02 1.96437E+05 2.18038E-08 5.11517E-09
 -1       883 4.89757E+05 8.61299E+04 6.31459E+02 2.06396E+05-1.66042E-08 5.24045E-09
 -1       884 4.98564E+05 7.72781E+04 8.40104E+02 1.96442E+05-5.78723E-10 3.14310E-09
 -1       885 4.89863E+05 8.62318E+04 1.62646E+03 2.06402E+05-8.97626E-09-5.35994E-09
 -1       886 4.98472E+05 7.71804E+04 3.14584E+03 1.96427E+05-1.23797E-08-5.60613E-09
 -1       887 4.90887E+05 8.74949E+04 7.20040E+03 2.06354E+05 9.64985E-09-5.48971E-09
 -1       888 4.97602E+05 7.62910E+04 1.35893E+04 1.96394E+05 1.57992E-08-3.33421E-09
 -1       889 5.01426E+05 1.01919E+05 3.50746E+04 2.04656E+05 2.81798E-08 1.64982E-09
 -1       890 4.88574E+05 6.69592E+04 5.78569E+04 1.96552E+05-5.27007E-09-2.66664E-09
 -1       891 9.40748E+02-2.28104E+05-9.25072E+03 4.45568E+04 2.73758E-10-3.05590E-10
 -1       892-2.98125E+03-2.30863E+05-7.03908E+03 1.10994E+05-2.00080E-08 2.57273E-09
 -1       893 6.66894E+01-2.29189E+05-5.64664E+03 4.44089E+04-1.41154E-09 3.87934E-09
 -1       894-4.20264E+03-2.31640E+05-9.54639E+03 1.10968E+05-3.09228E-11-7.30324E-10
 -1       895 1.63998E+03-2.27266E+05-1.42020E+04 4.45806E+04 5.80530E-09 7.19410E-10
 -1       896 7.83822E+05-1.76537E+03 1.20661E+04-9.64269E+03 2.27374E-11-1.95541E-10
 -1       897 7.87845E+05 2.98792E+03 7.43998E+03-2.47923E+04 1.01863E-10 7.73298E-10
 -1       898 7.85520E+05-1.88932E+02 3.11104E+03-9.64494E+03 1.34605E-10-9.29958E-11
 -1       899 7.85890E+05 2.12245E+02 1.70876E+03-2.47132E+04-3.08546E-10 2.94790E-10
 -1       900 7.85665E+05-3.20775E+01 8.33940E+02-9.72068E+03-2.33285E-10-7.61702E-11
 -1       901 7.85662E+05 1.31150E+01 5.23156E+02-2.45876E+04 2.71712E-10-5.45697E-12
 -1       902 7.85669E+05-6.79775E+00 4.27130E+02-9.77063E+03 8.07177E-11 4.79190E-11
 -1       903 7.85633E+05 1.36033E+01 5.78675E+02-2.45152E+04 4.50768E-11-3.58739E-10
 -1       904 7.85650E+05-8.96120E+00 9.87348E+02-9.79310E+03 1.36140E-10-1.74509E-11
 -1       905 7.85738E+05 9.62845E+01 1.97165E+03-2.44994E+04 1.66068E-10-3.44357E-10
 -1       906 7.85554E+05-7.93616E+01 3.77506E+03-9.78633E+03 7.38964E-11-6.12772E-11
 -1       907 7.86646E+05 1.15149E+03 8.09794E+03-2.45374E+04 6.99174E-11 2.53294E-10
 -1       908 7.84763E+05-7.47527E+02 1.49817E+04-9.75500E+03 1.04592E-10-3.63798E-11
 -1       909 7.95772E+05 1.46470E+04 3.58256E+04-2.45607E+04 1.19599E-10-4.40650E-10
 -1       910 7.76475E+05-8.21353E+03 5.82591E+04-9.76555E+03-1.40062E-10-5.89353E-10
 -1       911 2.04430E+05-6.31889E+02 4.17687E+03-1.03410E+04 2.34650E-10 3.34225E-10
 -1       912 2.05846E+05 1.03959E+03 2.58526E+03-2.57557E+04 1.78261E-10-1.99066E-10
 -1       913 2.05004E+05-6.85707E+01 1.08366E+03-1.02671E+04-1.53250E-10-1.95769E-10
 -1       914 2.05133E+05 9.04693E+01 6.11032E+02-2.58169E+04-1.00044E-10-1.17097E-11
 -1       915 2.05044E+05-4.51001E+00 3.24061E+02-1.02796E+04 3.64707E-10 9.22000E-11
 -1       916 2.05037E+05 3.04302E+01 2.54847E+02-2.57956E+04 7.48059E-10-6.76152E-10
 -1       917 2.05039E+05 7.54930E+00 2.92331E+02-1.02884E+04 5.26597E-10-1.47509E-10
 -1       918 2.05034E+05 3.62582E+01 4.95765E+02-2.57860E+04 6.35509E-10-3.69141E-10
 -1       919 2.05024E+05-1.94771E-01 9.20277E+02-1.02892E+04 3.77781E-10 2.29818E-10
 -1       920 2.05152E+05 1.10350E+02 1.88265E+03-2.57923E+04 1.09503E-09-6.44960E-10
 -1       921 2.04937E+05-7.37789E+01 3.62480E+03-1.02821E+04 4.63615E-10 4.91809E-10
 -1       922 2.06045E+05 1.11976E+03 7.79317E+03-2.58102E+04 1.11299E-09-5.87761E-10
 -1       923 2.04182E+05-7.24661E+02 1.44201E+04-1.02710E+04 2.16460E-10 1.00044E-10
 -1       924 2.14859E+05 1.41156E+04 3.45042E+04-2.57490E+04 3.29692E-11-4.27008E-10
 -1       925 1.96214E+05-7.93028E+03 5.61064E+04-1.03453E+04 2.26464E-10 6.54836E-11
 -1       926-9.77548E+05 7.73711E+03-5.48871E+04-4.54661E+03 2.96041E-10-6.54836E-11
 -1       927-9.95681E+05-1.38373E+04-3.37545E+04-1.10685E+04-5.94014E-10 5.97993E-10
 -1       928-9.85362E+05 6.97194E+02-1.41087E+04-4.47474E+03 7.29869E-11-4.41105E-10
 -1       929-9.87111E+05-1.08727E+03-7.62497E+03-1.11672E+04-7.41807E-11-1.08707E-09
 -1       930-9.86114E+05 7.60796E+01-3.55800E+03-4.44952E+03-1.66096E-10 2.38629E-10
 -1       931-9.86270E+05-8.29590E+01-1.86783E+03-1.11989E+04-9.18874E-11 2.59789E-10
 -1       932-9.86205E+05 1.19800E+01-9.56514E+02-4.44306E+03-2.24389E-11-3.29095E-10
 -1       933-9.86168E+05-8.07142E+00-6.02987E+02-1.11952E+04-2.79982E-10-1.79938E-10
 -1       934-9.86214E+05 5.08175E+00-5.20730E+02-4.45321E+03-1.78943E-10-8.85052E-11
 -1       935-9.86181E+05-3.10916E+01-7.36686E+02-1.11576E+04-8.61746E-11-5.01529E-10
 -1       936-9.86183E+05 2.32993E+01-1.26536E+03-4.48067E+03 1.56660E-10-6.09361E-11
 -1       937-9.86458E+05-3.77593E+02-2.63119E+03-1.10847E+04 4.68162E-10-6.81723E-10
 -1       938-9.85924E+05 2.32173E+02-4.83755E+03-4.52608E+03 3.80851E-10-7.98082E-10
 -1       939-9.89377E+05-4.74076E+03-1.15466E+04-1.09342E+04 7.55790E-10 1.44610E-10
 -1       940-9.83250E+05 2.63426E+03-1.87745E+04-4.63018E+03-4.36103E-10 5.94810E-10
 -1       941 1.87525E+06-3.52508E+04 2.51631E+05-7.62209E+03 1.22168E-09 1.74623E-09
 -1       942 1.95854E+06 6.31865E+04 1.54630E+05-2.02139E+04 9.39508E-10-1.63527E-09
 -1       943 1.91106E+06-3.19411E+03 6.47440E+04-7.65038E+03 1.41426E-10-1.81899E-11
 -1       944 1.91934E+06 4.94082E+03 3.50385E+04-2.01509E+04-4.86324E-10-8.00810E-10
 -1       945 1.91452E+06-3.55068E+02 1.64507E+04-7.67135E+03 9.11143E-10 1.05229E-09
 -1       946 1.91550E+06 3.65002E+02 8.80387E+03-2.01660E+04 1.42040E-09 3.17914E-09
 -1       947 1.91494E+06-6.65663E+01 4.83024E+03-7.63525E+03 9.29276E-10 2.12594E-09
 -1       948 1.91509E+06 2.56943E+01 3.65683E+03-2.02989E+04 1.15358E-09 1.73708E-09
 -1       949 1.91497E+06-6.52240E+01 4.11800E+03-7.53838E+03-7.28960E-10-2.60255E-09
 -1       950 1.91541E+06 2.55377E+02 6.96396E+03-2.05541E+04 2.76941E-09 3.83693E-09
 -1       951 1.91467E+06-2.99646E+02 1.27135E+04-7.37969E+03-1.92085E-09-2.20143E-09
 -1       952 1.91840E+06 3.74153E+03 2.69271E+04-2.09268E+04-1.18098E-09-5.20231E-10
 -1       953 1.91203E+06-2.49566E+03 4.96682E+04-7.16593E+03-9.27685E-10 8.33097E-10
 -1       954 1.94853E+06 4.83920E+04 1.18611E+05-2.13286E+04-5.37329E-09-2.23736E-10
 -1       955 1.88457E+06-2.71161E+04 1.92939E+05-7.01159E+03 1.36424E-11 1.52795E-10
 -1       956-3.49290E+05-8.31182E+03-2.00956E+04 5.80230E+04-1.49412E-08-2.18824E-09
 -1       957-3.53239E+05-2.59706E+03-1.02596E+04 6.91482E+04-2.88128E-09-2.29193E-09
 -1       958-3.51141E+05-9.77097E+01-4.62977E+03 5.76130E+04 1.00335E-08-3.17550E-09
 -1       959-3.51555E+05 2.00596E+02-2.35612E+03 6.95823E+04-4.95129E-09-2.79488E-09
 -1       960-3.51399E+05 2.81243E+02-1.14805E+03 5.75710E+04-1.48102E-08-3.63161E-09
 -1       961-3.51521E+05 3.65202E+02-5.96046E+02 6.96294E+04-2.68628E-08 6.74845E-10
 -1       962-3.51504E+05 3.20240E+02-3.23838E+02 5.75635E+04-1.32259E-08-1.92404E-09
 -1       963-3.51583E+05 4.05535E+02-2.23673E+02 6.96395E+04-1.62177E-08-9.69521E-10
 -1       964-3.51556E+05 3.49090E+02-2.30491E+02 5.75599E+04-9.80890E-10-4.09455E-09
 -1       965-3.51631E+05 4.28629E+02-3.62745E+02 6.96418E+04 1.17124E-08-3.92538E-09
 -1       966-3.51561E+05 3.66902E+02-6.63038E+02 5.75607E+04-9.72801E-09-3.95994E-09
 -1       967-3.51717E+05 3.71839E+02-1.35112E+03 6.96233E+04 1.53773E-09-1.96815E-09
 -1       968-3.51462E+05 1.81040E+02-2.64461E+03 5.75792E+04-3.03044E-09-4.41310E-09
 -1       969-3.52732E+05-1.20549E+03-5.87076E+03 6.94195E+04 3.59569E-09-3.00042E-09
 -1       970-3.50430E+05-4.50883E+03-1.14943E+04 5.77815E+04 9.62336E-09-4.11546E-09
 -1       971-5.95474E+05 4.75053E+03-3.36824E+04 9.05958E+03-1.35024E-08 7.31234E-10
 -1       972-6.06637E+05-8.33662E+03-2.07010E+04 2.52511E+04-1.43359E-08 3.08137E-09
 -1       973-6.00292E+05 4.67582E+02-8.67290E+03 8.86359E+03-1.58916E-08-1.93268E-10
 -1       974-6.01460E+05-4.90735E+02-4.69411E+03 2.55078E+04 1.27329E-10 3.16777E-09
 -1       975-6.00774E+05 1.08399E+02-2.22333E+03 8.79416E+03 1.13596E-09-1.30876E-09
 -1       976-6.00996E+05 1.47344E+02-1.21947E+03 2.56123E+04-1.27457E-08 4.64092E-09
 -1       977-6.00840E+05 8.31834E+01-7.34348E+02 8.75777E+03 2.01489E-08-1.55717E-09
 -1       978-6.00971E+05 2.01443E+02-6.70675E+02 2.56593E+04 4.23954E-08 9.87370E-10
 -1       979-6.00840E+05 8.96501E+01-9.10384E+02 8.74671E+03 2.20982E-08-1.94677E-09
 -1       980-6.01053E+05 1.36215E+02-1.67916E+03 2.56552E+04 2.32601E-08 3.10123E-09
 -1       981-6.00756E+05 1.40763E+02-3.15179E+03 8.76192E+03 1.92676E-09-6.04473E-10
 -1       982-6.01766E+05-7.59342E+02-6.72319E+03 2.55969E+04-9.28048E-09 4.06345E-09
 -1       983-6.00081E+05 6.74437E+02-1.24343E+04 8.80653E+03 8.82528E-09-1.75760E-09
 -1       984-6.09260E+05-1.20031E+04-2.97230E+04 2.54129E+04-3.37445E-09 3.73257E-09
 -1       985-5.93179E+05 6.84787E+03-4.83432E+04 8.96006E+03 1.85273E-08-9.96806E-10
 -3
 9999
