
 stresses (elem, integ.pnt.,sxx,syy,szz,sxy,sxz,syz) for set ELALL and time  0.1000000E+01

         1   1 -2.637845E+06 -1.709364E+05 -2.108365E+05 -6.828876E+04 -1.442542E+05  1.593175E+01
         1   2 -2.610911E+06  1.329143E+04 -9.396686E+04 -2.162088E+04 -9.401024E+04  3.287192E+00
         1   3 -2.637620E+06  9.403623E+03 -5.693238E+04  2.505008E+04 -4.376608E+04 -1.773137E+00
         1   4 -2.637850E+06 -1.709452E+05 -2.108378E+05  2.519981E-10 -1.442542E+05 -2.753981E-10
         1   5 -2.610912E+06  1.329055E+04 -9.396699E+04  5.016447E-09 -9.401024E+04 -5.980508E-10
         1   6 -2.637621E+06  9.402439E+03 -5.693255E+04  1.998836E-08 -4.376608E+04 -1.993226E-10
         1   7 -2.637845E+06 -1.709364E+05 -2.108365E+05  6.828876E+04 -1.442542E+05 -1.593175E+01
         1   8 -2.610911E+06  1.329143E+04 -9.396686E+04  2.162088E+04 -9.401024E+04 -3.287192E+00
         1   9 -2.637620E+06  9.403623E+03 -5.693238E+04 -2.505008E+04 -4.376608E+04  1.773137E+00
         1  10 -2.637868E+06 -1.709420E+05 -2.108758E+05 -6.828876E+04  1.429601E-09 -9.284472E-11
         1  11 -2.610921E+06  1.328905E+04 -9.398354E+04 -2.162088E+04 -2.514889E-09 -3.495211E-10
         1  12 -2.637622E+06  9.403106E+03 -5.693599E+04  2.505008E+04  7.556664E-10  8.945154E-12
         1  13 -2.637873E+06 -1.709508E+05 -2.108770E+05 -4.084705E-09  2.168231E-09 -1.893888E-10
         1  14 -2.610921E+06  1.328816E+04 -9.398367E+04 -1.432132E-08  1.027510E-09 -3.205629E-10
         1  15 -2.637623E+06  9.401922E+03 -5.693616E+04 -6.259007E-09  5.971263E-10  1.736717E-10
         1  16 -2.637868E+06 -1.709420E+05 -2.108758E+05  6.828876E+04 -8.934381E-10 -3.530661E-10
         1  17 -2.610921E+06  1.328905E+04 -9.398354E+04  2.162088E+04  3.762076E-10 -4.992292E-10
         1  18 -2.637622E+06  9.403106E+03 -5.693599E+04 -2.505008E+04  1.027955E-09  4.193196E-10
         1  19 -2.637845E+06 -1.709364E+05 -2.108365E+05 -6.828876E+04  1.442542E+05 -1.593175E+01
         1  20 -2.610911E+06  1.329143E+04 -9.396686E+04 -2.162088E+04  9.401024E+04 -3.287192E+00
         1  21 -2.637620E+06  9.403623E+03 -5.693238E+04  2.505008E+04  4.376608E+04  1.773137E+00
         1  22 -2.637850E+06 -1.709452E+05 -2.108378E+05  1.428097E-10  1.442542E+05 -6.055690E-11
         1  23 -2.610912E+06  1.329055E+04 -9.396699E+04 -1.000307E-08  9.401024E+04 -1.880483E-10
         1  24 -2.637621E+06  9.402439E+03 -5.693255E+04 -1.100801E-08  4.376608E+04  5.197609E-10
         1  25 -2.637845E+06 -1.709364E+05 -2.108365E+05  6.828876E+04  1.442542E+05  1.593175E+01
         1  26 -2.610911E+06  1.329143E+04 -9.396686E+04  2.162088E+04  9.401024E+04  3.287192E+00
         1  27 -2.637620E+06  9.403623E+03 -5.693238E+04 -2.505008E+04  4.376608E+04 -1.773137E+00
         2   1 -2.626933E+06 -1.332159E+04 -4.591050E+04 -4.456704E+03 -3.532891E+04  2.546432E-01
         2   2 -2.624245E+06  1.201861E+03 -2.415669E+04 -1.116354E+03 -2.310163E+04  4.170921E-02
         2   3 -2.626901E+06  7.568208E+02 -1.413004E+04  2.223977E+03 -1.087419E+04 -3.911258E-02
         2   4 -2.626933E+06 -1.332162E+04 -4.591051E+04 -3.055527E-09 -3.532891E+04  6.695880E-11
         2   5 -2.624245E+06  1.201859E+03 -2.415669E+04  4.790909E-09 -2.310163E+04 -5.984251E-10
         2   6 -2.626901E+06  7.568115E+02 -1.413004E+04  1.909646E-08 -1.087419E+04 -2.035375E-09
         2   7 -2.626933E+06 -1.332159E+04 -4.591050E+04  4.456704E+03 -3.532891E+04 -2.546432E-01
         2   8 -2.624245E+06  1.201861E+03 -2.415669E+04  1.116354E+03 -2.310163E+04 -4.170921E-02
         2   9 -2.626901E+06  7.568208E+02 -1.413004E+04 -2.223977E+03 -1.087419E+04  3.911257E-02
         2  10 -2.626934E+06 -1.332192E+04 -4.591286E+04 -4.456704E+03  6.226525E-10  1.168128E-10
         2  11 -2.624245E+06  1.201717E+03 -2.415770E+04 -1.116354E+03 -1.014946E-09 -4.353630E-10
         2  12 -2.626901E+06  7.567889E+02 -1.413027E+04  2.223977E+03  1.542806E-09 -5.442665E-10
         2  13 -2.626934E+06 -1.332196E+04 -4.591286E+04 -2.890931E-08 -9.830097E-10  4.096014E-10
         2  14 -2.624245E+06  1.201715E+03 -2.415770E+04 -6.066217E-09  1.144327E-10 -1.463018E-10
         2  15 -2.626901E+06  7.567796E+02 -1.413027E+04  9.233370E-09 -6.941689E-10 -1.053229E-09
         2  16 -2.626934E+06 -1.332192E+04 -4.591286E+04  4.456704E+03 -2.303515E-09  1.080611E-09
         2  17 -2.624245E+06  1.201717E+03 -2.415770E+04  1.116354E+03  4.079093E-10  1.955491E-10
         2  18 -2.626901E+06  7.567889E+02 -1.413027E+04 -2.223977E+03 -1.887617E-09 -1.265847E-09
         2  19 -2.626933E+06 -1.332159E+04 -4.591050E+04 -4.456704E+03  3.532891E+04 -2.546432E-01
         2  20 -2.624245E+06  1.201861E+03 -2.415669E+04 -1.116354E+03  2.310163E+04 -4.170921E-02
         2  21 -2.626901E+06  7.568208E+02 -1.413004E+04  2.223977E+03  1.087419E+04  3.911258E-02
         2  22 -2.626933E+06 -1.332162E+04 -4.591051E+04 -3.110080E-09  3.532891E+04  7.220416E-10
         2  23 -2.624245E+06  1.201859E+03 -2.415669E+04  4.608289E-09  2.310163E+04  4.290930E-10
         2  24 -2.626901E+06  7.568115E+02 -1.413004E+04  9.636952E-09  1.087419E+04  2.653683E-12
         2  25 -2.626933E+06 -1.332159E+04 -4.591050E+04  4.456704E+03  3.532891E+04  2.546432E-01
         2  26 -2.624245E+06  1.201861E+03 -2.415669E+04  1.116354E+03  2.310163E+04  4.170921E-02
         2  27 -2.626901E+06  7.568208E+02 -1.413004E+04 -2.223977E+03  1.087419E+04 -3.911258E-02
         3   1 -2.625872E+06 -9.893049E+02 -1.094970E+04 -1.136751E+02 -8.672508E+03  1.594403E-03
         3   2 -2.625519E+06  1.324646E+02 -6.182052E+03  5.675895E+01 -5.597752E+03 -5.138494E-04
         3   3 -2.625866E+06  6.366235E+01 -3.720114E+03  2.271900E+02 -2.523028E+03 -9.270415E-04
         3   4 -2.625872E+06 -9.893049E+02 -1.094970E+04  1.302238E-08 -8.672508E+03 -1.719264E-09
         3   5 -2.625519E+06  1.324646E+02 -6.182052E+03  2.108013E-08 -5.597752E+03  8.550757E-10
         3   6 -2.625866E+06  6.366226E+01 -3.720114E+03  1.301713E-08 -2.523028E+03  2.812950E-09
         3   7 -2.625872E+06 -9.893049E+02 -1.094970E+04  1.136751E+02 -8.672508E+03 -1.594407E-03
         3   8 -2.625519E+06  1.324646E+02 -6.182052E+03 -5.675895E+01 -5.597752E+03  5.138510E-04
         3   9 -2.625866E+06  6.366235E+01 -3.720114E+03 -2.271900E+02 -2.523028E+03  9.270469E-04
         3  10 -2.625872E+06 -9.893252E+02 -1.094984E+04 -1.136751E+02 -1.767118E-09 -3.390892E-10
         3  11 -2.625519E+06  1.324562E+02 -6.182111E+03  5.675895E+01 -3.044741E-10  5.600860E-10
         3  12 -2.625866E+06  6.366064E+01 -3.720126E+03  2.271900E+02 -9.966154E-10 -1.020973E-10
         3  13 -2.625872E+06 -9.893252E+02 -1.094984E+04  4.644463E-09 -3.000241E-09 -7.928894E-10
         3  14 -2.625519E+06  1.324562E+02 -6.182111E+03  1.259099E-08 -1.109413E-09  5.887460E-10
         3  15 -2.625866E+06  6.366054E+01 -3.720126E+03  1.941967E-08 -2.622266E-09  7.036959E-10
         3  16 -2.625872E+06 -9.893252E+02 -1.094984E+04  1.136751E+02 -3.493380E-09 -1.332713E-09
         3  17 -2.625519E+06  1.324562E+02 -6.182111E+03 -5.675895E+01 -3.243734E-10  8.724678E-10
         3  18 -2.625866E+06  6.366064E+01 -3.720126E+03 -2.271900E+02 -2.993902E-10  1.410388E-09
         3  19 -2.625872E+06 -9.893049E+02 -1.094970E+04 -1.136751E+02  8.672508E+03 -1.594404E-03
         3  20 -2.625519E+06  1.324646E+02 -6.182052E+03  5.675895E+01  5.597752E+03  5.138505E-04
         3  21 -2.625866E+06  6.366235E+01 -3.720114E+03  2.271900E+02  2.523028E+03  9.270417E-04
         3  22 -2.625872E+06 -9.893049E+02 -1.094970E+04 -8.043092E-09  8.672508E+03  5.303440E-11
         3  23 -2.625519E+06  1.324646E+02 -6.182052E+03  6.213634E-09  5.597752E+03  1.990273E-10
         3  24 -2.625866E+06  6.366226E+01 -3.720114E+03  2.101244E-08  2.523028E+03 -1.280030E-09
         3  25 -2.625872E+06 -9.893049E+02 -1.094970E+04  1.136751E+02  8.672508E+03  1.594404E-03
         3  26 -2.625519E+06  1.324646E+02 -6.182052E+03 -5.675895E+01  5.597752E+03 -5.138502E-04
         3  27 -2.625866E+06  6.366235E+01 -3.720114E+03 -2.271900E+02  2.523028E+03 -9.270445E-04
         4   1 -2.625745E+06 -6.034531E+01 -2.964469E+03  4.254060E+01 -1.923178E+03 -1.323144E-04
         4   2 -2.625666E+06  2.463660E+01 -2.042473E+03  2.406969E+01 -9.132654E+02 -3.555232E-05
         4   3 -2.625745E+06  4.722012E+00 -1.806294E+03  5.598503E+00  9.666327E+01  8.755562E-07
         4   4 -2.625745E+06 -6.034531E+01 -2.964469E+03  1.875086E-08 -1.923178E+03  1.919695E-09
         4   5 -2.625666E+06  2.463660E+01 -2.042473E+03  5.099890E-09 -9.132654E+02 -6.225647E-10
         4   6 -2.625745E+06  4.722012E+00 -1.806294E+03  2.761976E-09  9.666327E+01 -6.059919E-10
         4   7 -2.625745E+06 -6.034531E+01 -2.964469E+03 -4.254060E+01 -1.923178E+03  1.323180E-04
         4   8 -2.625666E+06  2.463660E+01 -2.042473E+03 -2.406969E+01 -9.132654E+02  3.555028E-05
         4   9 -2.625745E+06  4.722012E+00 -1.806294E+03 -5.598503E+00  9.666327E+01 -8.759538E-07
         4  10 -2.625745E+06 -6.034631E+01 -2.964476E+03  4.254060E+01 -1.615512E-09  8.823279E-12
         4  11 -2.625666E+06  2.463638E+01 -2.042475E+03  2.406969E+01  6.525720E-10  2.608104E-10
         4  12 -2.625745E+06  4.722010E+00 -1.806294E+03  5.598503E+00 -3.700836E-10 -4.898946E-10
         4  13 -2.625745E+06 -6.034631E+01 -2.964476E+03  5.834546E-09 -3.245410E-09  5.240140E-10
         4  14 -2.625666E+06  2.463638E+01 -2.042475E+03  1.366039E-08  3.346166E-09  2.802463E-10
         4  15 -2.625745E+06  4.722010E+00 -1.806294E+03 -2.906120E-08  7.385887E-10 -3.685633E-10
         4  16 -2.625745E+06 -6.034631E+01 -2.964476E+03 -4.254060E+01 -1.336951E-10  1.269193E-09
         4  17 -2.625666E+06  2.463638E+01 -2.042475E+03 -2.406969E+01 -6.802877E-10  5.639776E-10
         4  18 -2.625745E+06  4.722010E+00 -1.806294E+03 -5.598503E+00  8.190681E-10 -1.355367E-10
         4  19 -2.625745E+06 -6.034531E+01 -2.964469E+03  4.254060E+01  1.923178E+03  1.323143E-04
         4  20 -2.625666E+06  2.463660E+01 -2.042473E+03  2.406969E+01  9.132654E+02  3.555357E-05
         4  21 -2.625745E+06  4.722012E+00 -1.806294E+03  5.598503E+00 -9.666327E+01 -8.749916E-07
         4  22 -2.625745E+06 -6.034531E+01 -2.964469E+03  2.733026E-08  1.923178E+03 -8.338024E-10
         4  23 -2.625666E+06  2.463660E+01 -2.042473E+03  5.003336E-09  9.132654E+02  1.196815E-09
         4  24 -2.625745E+06  4.722012E+00 -1.806294E+03  1.065652E-08 -9.666327E+01  8.471567E-12
         4  25 -2.625745E+06 -6.034531E+01 -2.964469E+03 -4.254060E+01  1.923178E+03 -1.323167E-04
         4  26 -2.625666E+06  2.463660E+01 -2.042473E+03 -2.406969E+01  9.132654E+02 -3.555047E-05
         4  27 -2.625745E+06  4.722012E+00 -1.806294E+03 -5.598503E+00 -9.666327E+01  8.751362E-07
         5   1 -2.625754E+06  7.308381E+00 -1.897405E+03 -2.827217E+01  4.310237E+02 -1.970945E-05
         5   2 -2.625655E+06  3.142086E+01 -2.536029E+03 -4.795571E+01  1.685253E+03 -1.307058E-04
         5   3 -2.625755E+06 -8.725184E+01 -4.029497E+03 -6.763927E+01  2.939481E+03 -3.215558E-04
         5   4 -2.625754E+06  7.308380E+00 -1.897405E+03 -7.902790E-09  4.310237E+02 -3.787557E-10
         5   5 -2.625655E+06  3.142085E+01 -2.536029E+03  5.907346E-09  1.685253E+03  2.582539E-11
         5   6 -2.625755E+06 -8.725185E+01 -4.029497E+03 -7.044858E-10  2.939481E+03  1.265488E-09
         5   7 -2.625754E+06  7.308381E+00 -1.897405E+03  2.827217E+01  4.310237E+02  1.970819E-05
         5   8 -2.625655E+06  3.142086E+01 -2.536029E+03  4.795571E+01  1.685253E+03  1.307051E-04
         5   9 -2.625755E+06 -8.725184E+01 -4.029497E+03  6.763927E+01  2.939481E+03  3.215591E-04
         5  10 -2.625754E+06  7.308331E+00 -1.897405E+03 -2.827217E+01 -2.737385E-09 -6.471617E-10
         5  11 -2.625655E+06  3.142009E+01 -2.536034E+03 -4.795571E+01 -1.930794E-09  1.646950E-10
         5  12 -2.625755E+06 -8.725418E+01 -4.029513E+03 -6.763927E+01 -2.036942E-09  1.820721E-10
         5  13 -2.625754E+06  7.308330E+00 -1.897405E+03 -3.364516E-08 -3.158088E-09 -3.184655E-10
         5  14 -2.625655E+06  3.142008E+01 -2.536034E+03  1.641788E-09 -6.336325E-09  2.861705E-10
         5  15 -2.625755E+06 -8.725419E+01 -4.029513E+03 -7.155304E-09 -7.522978E-10  6.009531E-10
         5  16 -2.625754E+06  7.308331E+00 -1.897405E+03  2.827217E+01 -2.130330E-10 -5.889624E-11
         5  17 -2.625655E+06  3.142009E+01 -2.536034E+03  4.795571E+01 -1.250242E-09  3.488957E-10
         5  18 -2.625755E+06 -8.725418E+01 -4.029513E+03  6.763927E+01  1.975988E-11  1.016133E-09
         5  19 -2.625754E+06  7.308381E+00 -1.897405E+03 -2.827217E+01 -4.310237E+02  1.970816E-05
         5  20 -2.625655E+06  3.142086E+01 -2.536029E+03 -4.795571E+01 -1.685253E+03  1.307069E-04
         5  21 -2.625755E+06 -8.725184E+01 -4.029497E+03 -6.763927E+01 -2.939481E+03  3.215569E-04
         5  22 -2.625754E+06  7.308380E+00 -1.897405E+03 -3.437827E-09 -4.310237E+02 -4.070618E-10
         5  23 -2.625655E+06  3.142085E+01 -2.536029E+03  6.005999E-09 -1.685253E+03  5.078498E-10
         5  24 -2.625755E+06 -8.725185E+01 -4.029497E+03  1.600035E-08 -2.939481E+03 -5.210962E-11
         5  25 -2.625754E+06  7.308381E+00 -1.897405E+03  2.827217E+01 -4.310237E+02 -1.970853E-05
         5  26 -2.625655E+06  3.142086E+01 -2.536029E+03  4.795571E+01 -1.685253E+03 -1.307055E-04
         5  27 -2.625755E+06 -8.725184E+01 -4.029497E+03  6.763927E+01 -2.939481E+03 -3.215574E-04
         6   1 -2.625933E+06  9.031520E+01 -5.169975E+03 -3.318261E+02  3.764646E+03 -2.020335E-03
         6   2 -2.625438E+06  1.893511E+02 -8.779509E+03 -8.501481E+01  8.131739E+03 -1.118062E-03
         6   3 -2.625941E+06 -1.420842E+03 -1.566846E+04  1.617937E+02  1.249874E+04  3.270516E-03
         6   4 -2.625933E+06  9.031500E+01 -5.169975E+03 -1.104400E-08  3.764646E+03  1.665609E-09
         6   5 -2.625438E+06  1.893511E+02 -8.779509E+03 -6.087159E-09  8.131739E+03  3.572161E-10
         6   6 -2.625941E+06 -1.420842E+03 -1.566846E+04 -1.162185E-08  1.249874E+04 -1.667796E-09
         6   7 -2.625933E+06  9.031520E+01 -5.169975E+03  3.318261E+02  3.764646E+03  2.020338E-03
         6   8 -2.625438E+06  1.893511E+02 -8.779509E+03  8.501481E+01  8.131739E+03  1.118063E-03
         6   9 -2.625941E+06 -1.420842E+03 -1.566846E+04 -1.617937E+02  1.249874E+04 -3.270519E-03
         6  10 -2.625933E+06  9.031138E+01 -5.170002E+03 -3.318261E+02 -2.575355E-09  6.938931E-10
         6  11 -2.625438E+06  1.893332E+02 -8.779634E+03 -8.501481E+01 -7.936898E-10  1.220711E-09
         6  12 -2.625942E+06 -1.420884E+03 -1.566875E+04  1.617937E+02 -3.786646E-10 -1.484719E-10
         6  13 -2.625933E+06  9.031117E+01 -5.170002E+03 -1.538303E-08 -2.288106E-09  6.085034E-10
         6  14 -2.625438E+06  1.893332E+02 -8.779634E+03 -1.475264E-08 -2.388850E-09  1.688663E-10
         6  15 -2.625942E+06 -1.420884E+03 -1.566875E+04 -1.411384E-08 -1.220133E-09 -4.092172E-10
         6  16 -2.625933E+06  9.031138E+01 -5.170002E+03  3.318261E+02 -1.409400E-09  5.949203E-10
         6  17 -2.625438E+06  1.893332E+02 -8.779634E+03  8.501481E+01  1.632318E-09 -7.473374E-10
         6  18 -2.625942E+06 -1.420884E+03 -1.566875E+04 -1.617937E+02 -4.728185E-10 -7.678737E-10
         6  19 -2.625933E+06  9.031520E+01 -5.169975E+03 -3.318261E+02 -3.764646E+03  2.020336E-03
         6  20 -2.625438E+06  1.893511E+02 -8.779509E+03 -8.501481E+01 -8.131739E+03  1.118065E-03
         6  21 -2.625941E+06 -1.420842E+03 -1.566846E+04  1.617937E+02 -1.249874E+04 -3.270516E-03
         6  22 -2.625933E+06  9.031500E+01 -5.169975E+03  6.081213E-09 -3.764646E+03 -5.280469E-10
         6  23 -2.625438E+06  1.893511E+02 -8.779509E+03  6.703249E-09 -8.131739E+03  4.548640E-11
         6  24 -2.625941E+06 -1.420842E+03 -1.566846E+04 -7.719688E-09 -1.249874E+04  8.966072E-10
         6  25 -2.625933E+06  9.031520E+01 -5.169975E+03  3.318261E+02 -3.764646E+03 -2.020337E-03
         6  26 -2.625438E+06  1.893511E+02 -8.779509E+03  8.501481E+01 -8.131739E+03 -1.118065E-03
         6  27 -2.625941E+06 -1.420842E+03 -1.566846E+04 -1.617937E+02 -1.249874E+04  3.270518E-03
         7   1 -2.627421E+06  1.086553E+03 -2.024952E+04 -3.195331E+03  1.565180E+04 -8.088528E-02
         7   2 -2.623607E+06  1.725793E+03 -3.466676E+04  1.602397E+03  3.319964E+04  8.603794E-02
         7   3 -2.627466E+06 -1.913162E+04 -6.591694E+04  6.400232E+03  5.074741E+04  5.252877E-01
         7   4 -2.627421E+06  1.086534E+03 -2.024952E+04  9.555879E-10  1.565180E+04 -1.181198E-09
         7   5 -2.623607E+06  1.725788E+03 -3.466676E+04  3.158918E-09  3.319964E+04  1.139765E-09
         7   6 -2.627466E+06 -1.913169E+04 -6.591695E+04  1.638967E-08  5.074741E+04  9.267486E-11
         7   7 -2.627421E+06  1.086553E+03 -2.024952E+04  3.195331E+03  1.565180E+04  8.088528E-02
         7   8 -2.623607E+06  1.725793E+03 -3.466676E+04 -1.602397E+03  3.319964E+04 -8.603794E-02
         7   9 -2.627466E+06 -1.913162E+04 -6.591694E+04 -6.400232E+03  5.074741E+04 -5.252877E-01
         7  10 -2.627421E+06  1.086487E+03 -2.024998E+04 -3.195331E+03 -2.542077E-11 -6.036399E-10
         7  11 -2.623608E+06  1.725495E+03 -3.466884E+04  1.602397E+03 -2.003343E-09  3.184648E-11
         7  12 -2.627469E+06 -1.913231E+04 -6.592180E+04  6.400232E+03 -2.639827E-10 -4.816121E-10
         7  13 -2.627421E+06  1.086468E+03 -2.024998E+04 -5.407097E-09  3.464032E-09 -3.905391E-10
         7  14 -2.623608E+06  1.725490E+03 -3.466884E+04  5.297996E-09 -1.227681E-09  1.153442E-11
         7  15 -2.627469E+06 -1.913239E+04 -6.592181E+04  6.295361E-09 -6.591126E-10 -4.444935E-10
         7  16 -2.627421E+06  1.086487E+03 -2.024998E+04  3.195331E+03 -1.257052E-10 -4.302274E-11
         7  17 -2.623608E+06  1.725495E+03 -3.466884E+04 -1.602397E+03  3.643830E-09  1.511969E-10
         7  18 -2.627469E+06 -1.913231E+04 -6.592180E+04 -6.400232E+03  5.187527E-10 -4.941456E-10
         7  19 -2.627421E+06  1.086553E+03 -2.024952E+04 -3.195331E+03 -1.565180E+04  8.088528E-02
         7  20 -2.623607E+06  1.725793E+03 -3.466676E+04  1.602397E+03 -3.319964E+04 -8.603794E-02
         7  21 -2.627466E+06 -1.913162E+04 -6.591694E+04  6.400232E+03 -5.074741E+04 -5.252877E-01
         7  22 -2.627421E+06  1.086534E+03 -2.024952E+04  5.449980E-09 -1.565180E+04  4.069038E-10
         7  23 -2.623607E+06  1.725788E+03 -3.466676E+04  3.142125E-09 -3.319964E+04 -1.121676E-09
         7  24 -2.627466E+06 -1.913169E+04 -6.591695E+04  1.347969E-08 -5.074741E+04 -9.869910E-10
         7  25 -2.627421E+06  1.086553E+03 -2.024952E+04  3.195331E+03 -1.565180E+04 -8.088528E-02
         7  26 -2.623607E+06  1.725793E+03 -3.466676E+04 -1.602397E+03 -3.319964E+04  8.603794E-02
         7  27 -2.627466E+06 -1.913162E+04 -6.591694E+04 -6.400232E+03 -5.074741E+04  5.252877E-01
         8   1 -2.642813E+06  1.350549E+04 -8.174750E+04 -3.597502E+04  6.286095E+04 -3.657468E+00
         8   2 -2.604456E+06  1.908844E+04 -1.349293E+05  3.105060E+04  1.350161E+05  6.779955E+00
         8   3 -2.643131E+06 -2.454768E+05 -3.027550E+05  9.807132E+04  2.071724E+05  3.285930E+01
         8   4 -2.642814E+06  1.350305E+04 -8.174785E+04  1.094615E-08  6.286095E+04 -3.214353E-10
         8   5 -2.604457E+06  1.908662E+04 -1.349296E+05  1.267616E-08  1.350161E+05  6.542995E-10
         8   6 -2.643141E+06 -2.454950E+05 -3.027576E+05  1.278987E-08  2.071724E+05  2.356042E-10
         8   7 -2.642813E+06  1.350549E+04 -8.174750E+04  3.597502E+04  6.286095E+04  3.657468E+00
         8   8 -2.604456E+06  1.908844E+04 -1.349293E+05 -3.105060E+04  1.350161E+05 -6.779955E+00
         8   9 -2.643131E+06 -2.454768E+05 -3.027550E+05 -9.807132E+04  2.071724E+05 -3.285930E+01
         8  10 -2.642817E+06  1.350443E+04 -8.175496E+04 -3.597502E+04  2.083233E-09 -8.712385E-10
         8  11 -2.604476E+06  1.908352E+04 -1.349637E+05  3.105060E+04 -2.011700E-11 -7.164009E-10
         8  12 -2.643177E+06 -2.454884E+05 -3.028360E+05  9.807131E+04  3.390070E-10 -1.238962E-10
         8  13 -2.642819E+06  1.350198E+04 -8.175531E+04 -2.343560E-08 -1.109332E-09 -7.020802E-10
         8  14 -2.604477E+06  1.908170E+04 -1.349640E+05  1.960988E-09 -2.034770E-09 -4.730054E-10
         8  15 -2.643187E+06 -2.455066E+05 -3.028386E+05  1.523897E-09 -1.777129E-09 -1.357402E-10
         8  16 -2.642817E+06  1.350443E+04 -8.175496E+04  3.597502E+04 -1.476446E-09 -6.002798E-10
         8  17 -2.604476E+06  1.908352E+04 -1.349637E+05 -3.105060E+04  2.079734E-10 -4.691229E-10
         8  18 -2.643177E+06 -2.454884E+05 -3.028360E+05 -9.807131E+04  1.296406E-09 -1.198031E-10
         8  19 -2.642813E+06  1.350549E+04 -8.174750E+04 -3.597502E+04 -6.286095E+04  3.657468E+00
         8  20 -2.604456E+06  1.908844E+04 -1.349293E+05  3.105060E+04 -1.350161E+05 -6.779955E+00
         8  21 -2.643131E+06 -2.454768E+05 -3.027550E+05  9.807132E+04 -2.071724E+05 -3.285930E+01
         8  22 -2.642814E+06  1.350305E+04 -8.174785E+04 -1.890786E-09 -6.286095E+04 -1.171692E-09
         8  23 -2.604457E+06  1.908662E+04 -1.349296E+05 -1.486905E-10 -1.350161E+05 -1.599609E-09
         8  24 -2.643141E+06 -2.454950E+05 -3.027576E+05  7.749396E-09 -2.071724E+05 -5.140237E-10
         8  25 -2.642813E+06  1.350549E+04 -8.174750E+04  3.597502E+04 -6.286095E+04 -3.657468E+00
         8  26 -2.604456E+06  1.908844E+04 -1.349293E+05 -3.105060E+04 -1.350161E+05  6.779955E+00
         8  27 -2.643131E+06 -2.454768E+05 -3.027550E+05 -9.807132E+04 -2.071724E+05  3.285930E+01
         9   1  1.965706E+06  6.606501E+06  1.905953E+06 -1.188084E+06  8.994983E+04  6.526180E+05
         9   2  1.497741E+06  5.526344E+06  1.301450E+06 -1.009438E+06  2.933130E+05  3.005996E+05
         9   3  1.204383E+06  4.539202E+06  9.689540E+05 -1.050223E+06  3.249226E+05 -5.071918E+04
         9   4  2.044026E+05 -5.443778E+05  2.257532E+05 -1.047126E+06  9.117835E+04  1.563395E+05
         9   5  4.484083E+04 -5.631807E+05  1.100280E+05 -9.377289E+05  2.941883E+05  1.004084E+05
         9   6  9.706582E+03 -5.404045E+05  6.243449E+04 -1.047723E+06  3.247503E+05  4.451969E+04
         9   7 -1.560340E+06 -7.647924E+06 -1.457032E+06 -9.077282E+05  9.219430E+04 -3.343097E+05
         9   8 -1.410251E+06 -6.617246E+06 -1.083028E+06 -8.666838E+05  2.950237E+05 -9.787805E+04
         9   9 -1.186392E+06 -5.594926E+06 -8.450322E+05 -1.045200E+06  3.245778E+05  1.390047E+05
         9  10  1.965585E+06  6.606045E+06  1.905145E+06 -1.188131E+06  1.803745E-09  1.107987E-09
         9  11  1.497624E+06  5.526224E+06  1.301120E+06 -1.009509E+06  1.741442E-09  6.933396E-10
         9  12  1.204269E+06  4.539170E+06  9.687510E+05 -1.050210E+06 -6.851239E-10  6.085273E-10
         9  13  2.043870E+05 -5.444064E+05  2.256915E+05 -1.047138E+06  2.063837E-10  8.401131E-11
         9  14  4.474515E+04 -5.632148E+05  1.098463E+05 -9.377527E+05  6.830707E-09  8.922295E-12
         9  15  9.592799E+03 -5.404350E+05  6.223252E+04 -1.047735E+06 -2.146914E-09  9.167517E-11
         9  16 -1.560379E+06 -7.648047E+06 -1.457260E+06 -9.077033E+05  1.797066E-09 -1.202253E-09
         9  17 -1.410347E+06 -6.617280E+06 -1.083210E+06 -8.666604E+05  2.810871E-09 -7.482731E-10
         9  18 -1.186510E+06 -5.594975E+06 -8.452671E+05 -1.045236E+06  4.987889E-10 -2.701192E-10
         9  19  1.965706E+06  6.606501E+06  1.905953E+06 -1.188084E+06 -8.994983E+04 -6.526180E+05
         9  20  1.497741E+06  5.526344E+06  1.301450E+06 -1.009438E+06 -2.933130E+05 -3.005996E+05
         9  21  1.204383E+06  4.539202E+06  9.689540E+05 -1.050223E+06 -3.249226E+05  5.071918E+04
         9  22  2.044026E+05 -5.443778E+05  2.257532E+05 -1.047126E+06 -9.117835E+04 -1.563395E+05
         9  23  4.484083E+04 -5.631807E+05  1.100280E+05 -9.377289E+05 -2.941883E+05 -1.004084E+05
         9  24  9.706582E+03 -5.404045E+05  6.243449E+04 -1.047723E+06 -3.247503E+05 -4.451969E+04
         9  25 -1.560340E+06 -7.647924E+06 -1.457032E+06 -9.077282E+05 -9.219430E+04  3.343097E+05
         9  26 -1.410251E+06 -6.617246E+06 -1.083028E+06 -8.666838E+05 -2.950237E+05  9.787805E+04
         9  27 -1.186392E+06 -5.594926E+06 -8.450322E+05 -1.045200E+06 -3.245778E+05 -1.390047E+05
        10   1  1.047379E+06  3.850340E+06  8.254450E+05 -1.067986E+06  2.888978E+05 -4.084075E+04
        10   2  7.946700E+05  2.813214E+06  6.063682E+05 -9.473715E+05  2.370729E+05 -7.987622E+04
        10   3  5.558259E+05  1.784942E+06  4.158447E+05 -1.057402E+06  1.711796E+05 -1.190491E+05
        10   4  1.408871E+04 -5.476033E+05  4.848403E+04 -1.050188E+06  2.887119E+05  3.601633E+04
        10   5  7.917161E+03 -5.483015E+05  2.969931E+04 -9.348453E+05  2.366560E+05  2.110275E+04
        10   6  1.152156E+04 -5.453208E+05  2.283186E+04 -1.050219E+06  1.704919E+05  5.989765E+03
        10   7 -1.020259E+06 -4.926696E+06 -7.291688E+05 -1.032484E+06  2.885296E+05  1.123467E+05
        10   8 -7.794334E+05 -3.898721E+06 -5.473125E+05 -9.223674E+05  2.362416E+05  1.215537E+05
        10   9 -5.330600E+05 -2.870207E+06 -3.702955E+05 -1.043053E+06  1.698054E+05  1.305755E+05
        10  10  1.047289E+06  3.850316E+06  8.252852E+05 -1.067977E+06 -1.294391E-09  5.986369E-09
        10  11  7.946080E+05  2.813192E+06  6.062508E+05 -9.473563E+05 -1.444127E-09  4.079724E-09
        10  12  5.557907E+05  1.784919E+06  4.157633E+05 -1.057385E+06  6.032056E-10  3.644872E-09
        10  13  1.399885E+04 -5.476270E+05  4.832491E+04 -1.050197E+06 -3.669896E-09  2.559456E-11
        10  14  7.856906E+03 -5.483170E+05  2.959322E+04 -9.348494E+05 -2.037227E-09  1.449803E-10
        10  15  1.149034E+04 -5.453287E+05  2.277718E+04 -1.050220E+06 -3.036267E-09  5.463810E-11
        10  16 -1.020351E+06 -4.926732E+06 -7.293493E+05 -1.032510E+06  3.577450E-10 -6.010427E-09
        10  17 -7.794973E+05 -3.898752E+06 -5.474455E+05 -9.223906E+05 -1.770263E-10 -4.085756E-09
        10  18 -5.330956E+05 -2.870233E+06 -3.703820E+05 -1.043071E+06  7.859586E-10 -3.105410E-09
        10  19  1.047379E+06  3.850340E+06  8.254450E+05 -1.067986E+06 -2.888978E+05  4.084075E+04
        10  20  7.946700E+05  2.813214E+06  6.063682E+05 -9.473715E+05 -2.370729E+05  7.987622E+04
        10  21  5.558259E+05  1.784942E+06  4.158447E+05 -1.057402E+06 -1.711796E+05  1.190491E+05
        10  22  1.408871E+04 -5.476033E+05  4.848403E+04 -1.050188E+06 -2.887119E+05 -3.601633E+04
        10  23  7.917161E+03 -5.483015E+05  2.969931E+04 -9.348453E+05 -2.366560E+05 -2.110275E+04
        10  24  1.152156E+04 -5.453208E+05  2.283186E+04 -1.050219E+06 -1.704919E+05 -5.989765E+03
        10  25 -1.020259E+06 -4.926696E+06 -7.291688E+05 -1.032484E+06 -2.885296E+05 -1.123467E+05
        10  26 -7.794334E+05 -3.898721E+06 -5.473125E+05 -9.223674E+05 -2.362416E+05 -1.215537E+05
        10  27 -5.330600E+05 -2.870207E+06 -3.702955E+05 -1.043053E+06 -1.698054E+05 -1.305755E+05
        11   1  3.980119E+05  1.112649E+06  2.955992E+05 -1.058558E+06  1.272926E+05 -1.230820E+05
        11   2  1.618953E+05  8.029075E+04  1.149918E+05 -9.255258E+05  6.174926E+04 -1.095420E+05
        11   3 -5.358102E+04 -9.499696E+05 -6.997421E+04 -1.023166E+06  1.207100E+04 -9.600107E+04
        11   4  1.193417E+04 -5.443477E+05  2.184909E+04 -1.050224E+06  1.265499E+05  2.098175E+03
        11   5  1.874569E+04 -5.469925E+05  2.589131E+04 -9.347964E+05  6.114944E+04 -1.148778E+04
        11   6  5.095237E+04 -5.439060E+05  4.438453E+04 -1.050021E+06  1.161964E+04 -2.504983E+04
        11   7 -3.742769E+05 -2.198598E+06 -2.519237E+05 -1.041907E+06  1.258093E+05  1.269560E+05
        11   8 -1.244161E+05 -1.173857E+06 -6.317859E+04 -9.440564E+05  6.054629E+04  8.647162E+04
        11   9  1.554771E+05 -1.376856E+05  1.587480E+05 -1.076893E+06  1.116230E+04  4.594847E+04
        11  10  3.979905E+05  1.112629E+06  2.955405E+05 -1.058545E+06 -1.585519E-09  5.934398E-08
        11  11  1.618880E+05  8.027686E+04  1.149622E+05 -9.255204E+05 -8.208071E-10  2.198358E-09
        11  12 -5.358365E+04 -9.499795E+05 -6.999182E+04 -1.023165E+06 -1.645900E-10 -5.415540E-08
        11  13  1.191698E+04 -5.443520E+05  2.181899E+04 -1.050224E+06 -2.479598E-09  1.074847E-10
        11  14  1.874164E+04 -5.469936E+05  2.588405E+04 -9.347958E+05 -1.626647E-09 -9.965974E-11
        11  15  5.095206E+04 -5.439067E+05  4.438310E+04 -1.050021E+06  1.035605E-09  4.547184E-11
        11  16 -3.742983E+05 -2.198620E+06 -2.519839E+05 -1.041920E+06  8.795556E-10 -5.930187E-08
        11  17 -1.244221E+05 -1.173866E+06 -6.319959E+04 -9.440606E+05 -2.617377E-09 -2.289800E-09
        11  18  1.554764E+05 -1.376879E+05  1.587438E+05 -1.076893E+06 -1.145012E-09  5.465816E-08
        11  19  3.980119E+05  1.112649E+06  2.955992E+05 -1.058558E+06 -1.272926E+05  1.230820E+05
        11  20  1.618953E+05  8.029075E+04  1.149918E+05 -9.255258E+05 -6.174926E+04  1.095420E+05
        11  21 -5.358102E+04 -9.499696E+05 -6.997421E+04 -1.023166E+06 -1.207100E+04  9.600107E+04
        11  22  1.193417E+04 -5.443477E+05  2.184909E+04 -1.050224E+06 -1.265499E+05 -2.098175E+03
        11  23  1.874569E+04 -5.469925E+05  2.589131E+04 -9.347964E+05 -6.114944E+04  1.148778E+04
        11  24  5.095237E+04 -5.439060E+05  4.438453E+04 -1.050021E+06 -1.161964E+04  2.504983E+04
        11  25 -3.742769E+05 -2.198598E+06 -2.519237E+05 -1.041907E+06 -1.258093E+05 -1.269560E+05
        11  26 -1.244161E+05 -1.173857E+06 -6.317859E+04 -9.440564E+05 -6.054629E+04 -8.647162E+04
        11  27  1.554771E+05 -1.376856E+05  1.587480E+05 -1.076893E+06 -1.116230E+04 -4.594847E+04
        12   1 -3.482136E+06 -9.737918E+05 -5.048941E+05 -1.311368E+06 -2.924795E+05 -1.070188E+05
        12   2 -3.410990E+06 -5.268302E+05 -2.310849E+05 -1.330826E+06 -1.864827E+05 -6.260323E+04
        12   3 -3.480195E+06 -4.769129E+05 -1.417102E+05 -1.271884E+06 -7.839850E+04 -2.373107E+04
        12   4 -3.379947E+06 -8.090155E+05 -4.523462E+05 -1.153676E+06 -2.880152E+05 -1.054202E+05
        12   5 -3.285952E+06 -4.409174E+05 -1.917112E+05 -1.256444E+06 -1.856237E+05 -6.229604E+04
        12   6 -3.331560E+06 -4.691313E+05 -1.126185E+05 -1.280828E+06 -8.114015E+04 -2.475105E+04
        12   7 -3.277710E+06 -6.441368E+05 -3.997914E+05 -9.959431E+05 -2.835502E+05 -1.038190E+05
        12   8 -3.160895E+06 -3.549887E+05 -1.523385E+05 -1.182044E+06 -1.847644E+05 -6.198864E+04
        12   9 -3.182897E+06 -4.613459E+05 -8.352622E+04 -1.289777E+06 -8.388253E+04 -2.577078E+04
        12  10 -3.482231E+06 -9.738273E+05 -5.050775E+05 -1.311394E+06  1.834072E-09 -2.027206E-11
        12  11 -3.411029E+06 -5.268438E+05 -2.311581E+05 -1.330836E+06  1.613616E-09 -2.183593E-10
        12  12 -3.480202E+06 -4.769151E+05 -1.417228E+05 -1.271886E+06 -3.426590E-09 -1.766708E-09
        12  13 -3.380040E+06 -8.090499E+05 -4.525240E+05 -1.153700E+06  2.073942E-09 -2.036554E-11
        12  14 -3.285991E+06 -4.409309E+05 -1.917837E+05 -1.256453E+06 -2.047739E-09 -3.114122E-10
        12  15 -3.331567E+06 -4.691337E+05 -1.126321E+05 -1.280830E+06 -3.551775E-09 -1.227483E-09
        12  16 -3.277799E+06 -6.441702E+05 -3.999638E+05 -9.959669E+05 -1.502996E-10 -1.006335E-10
        12  17 -3.160933E+06 -3.550021E+05 -1.524103E+05 -1.182053E+06  5.008745E-10 -1.939672E-10
        12  18 -3.182905E+06 -4.613485E+05 -8.354077E+04 -1.289779E+06 -6.324296E-09 -2.622716E-10
        12  19 -3.482136E+06 -9.737918E+05 -5.048941E+05 -1.311368E+06  2.924795E+05  1.070188E+05
        12  20 -3.410990E+06 -5.268302E+05 -2.310849E+05 -1.330826E+06  1.864827E+05  6.260323E+04
        12  21 -3.480195E+06 -4.769129E+05 -1.417102E+05 -1.271884E+06  7.839850E+04  2.373107E+04
        12  22 -3.379947E+06 -8.090155E+05 -4.523462E+05 -1.153676E+06  2.880152E+05  1.054202E+05
        12  23 -3.285952E+06 -4.409174E+05 -1.917112E+05 -1.256444E+06  1.856237E+05  6.229604E+04
        12  24 -3.331560E+06 -4.691313E+05 -1.126185E+05 -1.280828E+06  8.114015E+04  2.475105E+04
        12  25 -3.277710E+06 -6.441368E+05 -3.997914E+05 -9.959431E+05  2.835502E+05  1.038190E+05
        12  26 -3.160895E+06 -3.549887E+05 -1.523385E+05 -1.182044E+06  1.847644E+05  6.198864E+04
        12  27 -3.182897E+06 -4.613459E+05 -8.352622E+04 -1.289777E+06  8.388253E+04  2.577078E+04
        13   1 -3.381528E+06 -5.443387E+05 -1.088564E+05 -1.283510E+06 -6.420359E+04 -2.058055E+04
        13   2 -3.344471E+06 -4.849168E+05 -5.271642E+04 -1.265941E+06 -4.026850E+04 -1.360589E+04
        13   3 -3.305411E+06 -4.753228E+05 -2.280896E+04 -1.260510E+06 -1.621461E+04 -6.941333E+03
        13   4 -3.316911E+06 -5.109754E+05 -9.060737E+04 -1.256448E+06 -6.524003E+04 -2.097013E+04
        13   5 -3.315889E+06 -4.718339E+05 -4.495842E+04 -1.255699E+06 -4.150440E+04 -1.406918E+04
        13   6 -3.312824E+06 -4.824792E+05 -2.538000E+04 -1.267089E+06 -1.765149E+04 -7.479535E+03
        13   7 -3.252289E+06 -4.776105E+05 -7.235869E+04 -1.229384E+06 -6.627659E+04 -2.135979E+04
        13   8 -3.287306E+06 -4.587510E+05 -3.720053E+04 -1.245457E+06 -4.274035E+04 -1.453250E+04
        13   9 -3.320237E+06 -4.896354E+05 -2.795101E+04 -1.273667E+06 -1.908834E+04 -8.017700E+03
        13  10 -3.381533E+06 -5.443403E+05 -1.088650E+05 -1.283511E+06 -7.835837E-09 -1.219406E-09
        13  11 -3.344473E+06 -4.849174E+05 -5.271983E+04 -1.265941E+06 -2.347488E-09  1.123819E-09
        13  12 -3.305411E+06 -4.753229E+05 -2.280954E+04 -1.260510E+06  6.185050E-10  9.041764E-11
        13  13 -3.316915E+06 -5.109770E+05 -9.061625E+04 -1.256449E+06 -1.622728E-09 -8.720076E-10
        13  14 -3.315891E+06 -4.718346E+05 -4.496205E+04 -1.255699E+06 -7.740198E-10 -8.373666E-11
        13  15 -3.312824E+06 -4.824794E+05 -2.538069E+04 -1.267089E+06  3.510455E-10 -2.429909E-10
        13  16 -3.252294E+06 -4.776122E+05 -7.236786E+04 -1.229385E+06 -1.595073E-09 -6.592478E-10
        13  17 -3.287308E+06 -4.587517E+05 -3.720438E+04 -1.245457E+06  3.171107E-10 -1.595028E-09
        13  18 -3.320237E+06 -4.896356E+05 -2.795182E+04 -1.273667E+06  1.761166E-09 -4.671856E-10
        13  19 -3.381528E+06 -5.443387E+05 -1.088564E+05 -1.283510E+06  6.420359E+04  2.058055E+04
        13  20 -3.344471E+06 -4.849168E+05 -5.271642E+04 -1.265941E+06  4.026850E+04  1.360589E+04
        13  21 -3.305411E+06 -4.753228E+05 -2.280896E+04 -1.260510E+06  1.621461E+04  6.941333E+03
        13  22 -3.316911E+06 -5.109754E+05 -9.060737E+04 -1.256448E+06  6.524003E+04  2.097013E+04
        13  23 -3.315889E+06 -4.718339E+05 -4.495842E+04 -1.255699E+06  4.150440E+04  1.406918E+04
        13  24 -3.312824E+06 -4.824792E+05 -2.538000E+04 -1.267089E+06  1.765149E+04  7.479535E+03
        13  25 -3.252289E+06 -4.776105E+05 -7.235869E+04 -1.229384E+06  6.627659E+04  2.135979E+04
        13  26 -3.287306E+06 -4.587510E+05 -3.720053E+04 -1.245457E+06  4.274035E+04  1.453250E+04
        13  27 -3.320237E+06 -4.896354E+05 -2.795101E+04 -1.273667E+06  1.908834E+04  8.017700E+03
        14   1 -3.257503E+06 -4.660890E+05 -5.737268E+03 -1.250675E+06 -1.225211E+04 -6.892250E+03
        14   2 -3.224745E+06 -4.394980E+05  1.360124E+04 -1.230123E+06 -6.224954E+03 -6.987747E+03
        14   3 -3.176630E+06 -4.327928E+05  2.827174E+04 -1.228656E+06 -1.984754E+02 -7.079251E+03
        14   4 -3.311280E+06 -4.858381E+05 -1.955462E+04 -1.264888E+06 -1.359110E+04 -7.393962E+03
        14   5 -3.318791E+06 -4.747443E+05 -1.044806E+04 -1.255774E+06 -7.561909E+03 -7.488827E+03
        14   6 -3.310945E+06 -4.835371E+05 -6.010744E+03 -1.265745E+06 -1.533786E+03 -7.579841E+03
        14   7 -3.365054E+06 -5.055872E+05 -3.337234E+04 -1.279100E+06 -1.492996E+04 -7.895633E+03
        14   8 -3.412828E+06 -5.099904E+05 -3.449826E+04 -1.281422E+06 -8.898650E+03 -7.989826E+03
        14   9 -3.445244E+06 -5.342805E+05 -4.029487E+04 -1.302828E+06 -2.868785E+03 -8.080311E+03
        14  10 -3.257503E+06 -4.660891E+05 -5.737642E+03 -1.250675E+06  6.956080E-11 -2.395624E-11
        14  11 -3.224745E+06 -4.394980E+05  1.360108E+04 -1.230123E+06  6.539648E-10  1.372277E-12
        14  12 -3.176630E+06 -4.327929E+05  2.827165E+04 -1.228656E+06 -6.287816E-10 -3.554680E-10
        14  13 -3.311280E+06 -4.858382E+05 -1.955508E+04 -1.264888E+06 -2.146997E-10 -3.372084E-10
        14  14 -3.318791E+06 -4.747444E+05 -1.044828E+04 -1.255774E+06 -1.913734E-10  1.535573E-10
        14  15 -3.310946E+06 -4.835372E+05 -6.010856E+03 -1.265745E+06  2.682548E-10 -2.203877E-10
        14  16 -3.365055E+06 -5.055873E+05 -3.337287E+04 -1.279100E+06  1.672347E-09  3.317101E-10
        14  17 -3.412829E+06 -5.099904E+05 -3.449853E+04 -1.281422E+06  1.344263E-09  4.411956E-10
        14  18 -3.445244E+06 -5.342805E+05 -4.029501E+04 -1.302828E+06  5.186294E-10 -2.928914E-10
        14  19 -3.257503E+06 -4.660890E+05 -5.737268E+03 -1.250675E+06  1.225211E+04  6.892250E+03
        14  20 -3.224745E+06 -4.394980E+05  1.360124E+04 -1.230123E+06  6.224954E+03  6.987747E+03
        14  21 -3.176630E+06 -4.327928E+05  2.827174E+04 -1.228656E+06  1.984754E+02  7.079251E+03
        14  22 -3.311280E+06 -4.858381E+05 -1.955462E+04 -1.264888E+06  1.359110E+04  7.393962E+03
        14  23 -3.318791E+06 -4.747443E+05 -1.044806E+04 -1.255774E+06  7.561909E+03  7.488827E+03
        14  24 -3.310945E+06 -4.835371E+05 -6.010744E+03 -1.265745E+06  1.533786E+03  7.579841E+03
        14  25 -3.365054E+06 -5.055872E+05 -3.337234E+04 -1.279100E+06  1.492996E+04  7.895633E+03
        14  26 -3.412828E+06 -5.099904E+05 -3.449826E+04 -1.281422E+06  8.898650E+03  7.989826E+03
        14  27 -3.445244E+06 -5.342805E+05 -4.029487E+04 -1.302828E+06  2.868785E+03  8.080311E+03
        15   1 -3.134598E+06 -4.175083E+05  4.052204E+04 -1.217266E+06  1.105737E+03 -7.948205E+03
        15   2 -3.103737E+06 -3.945505E+05  5.195605E+04 -1.197277E+06  3.368311E+03 -9.388228E+03
        15   3 -3.056765E+06 -3.882319E+05  6.220307E+04 -1.196038E+06  5.616399E+03 -1.078682E+04
        15   4 -3.310899E+06 -4.836315E+05 -4.717161E+03 -1.265368E+06 -2.086293E+02 -8.441082E+03
        15   5 -3.318943E+06 -4.752428E+05 -3.080334E+03 -1.256018E+06  2.080206E+03 -9.871536E+03
        15   6 -3.310884E+06 -4.834991E+05 -2.651592E+03 -1.265419E+06  4.354457E+03 -1.126059E+04
        15   7 -3.487167E+06 -5.497521E+05 -4.995857E+04 -1.313457E+06 -1.522576E+03 -8.933801E+03
        15   8 -3.534103E+06 -5.559319E+05 -5.812036E+04 -1.314741E+06  7.925952E+02 -1.035466E+04
        15   9 -3.564940E+06 -5.787623E+05 -6.751169E+04 -1.334775E+06  3.093081E+03 -1.173414E+04
        15  10 -3.134598E+06 -4.175084E+05  4.052192E+04 -1.217266E+06  5.054338E-10 -7.665116E-10
        15  11 -3.103737E+06 -3.945506E+05  5.195586E+04 -1.197277E+06  1.504495E-09 -7.716551E-10
        15  12 -3.056765E+06 -3.882321E+05  6.220279E+04 -1.196038E+06  9.866895E-10 -9.085889E-11
        15  13 -3.310899E+06 -4.836315E+05 -4.717295E+03 -1.265368E+06 -1.714595E-09 -3.209727E-10
        15  14 -3.318943E+06 -4.752429E+05 -3.080525E+03 -1.256018E+06  8.978943E-10 -8.804348E-10
        15  15 -3.310884E+06 -4.834992E+05 -2.651866E+03 -1.265419E+06  4.342361E-10  9.109133E-11
        15  16 -3.487167E+06 -5.497522E+05 -4.995872E+04 -1.313457E+06 -1.695142E-09 -2.309206E-10
        15  17 -3.534103E+06 -5.559320E+05 -5.812057E+04 -1.314741E+06 -1.025642E-10 -2.932045E-11
        15  18 -3.564940E+06 -5.787624E+05 -6.751196E+04 -1.334775E+06  8.066297E-10  4.597186E-11
        15  19 -3.134598E+06 -4.175083E+05  4.052204E+04 -1.217266E+06 -1.105737E+03  7.948205E+03
        15  20 -3.103737E+06 -3.945505E+05  5.195605E+04 -1.197277E+06 -3.368311E+03  9.388228E+03
        15  21 -3.056765E+06 -3.882319E+05  6.220307E+04 -1.196038E+06 -5.616399E+03  1.078682E+04
        15  22 -3.310899E+06 -4.836315E+05 -4.717161E+03 -1.265368E+06  2.086293E+02  8.441082E+03
        15  23 -3.318943E+06 -4.752428E+05 -3.080334E+03 -1.256018E+06 -2.080206E+03  9.871536E+03
        15  24 -3.310884E+06 -4.834991E+05 -2.651592E+03 -1.265419E+06 -4.354457E+03  1.126059E+04
        15  25 -3.487167E+06 -5.497521E+05 -4.995857E+04 -1.313457E+06  1.522576E+03  8.933801E+03
        15  26 -3.534103E+06 -5.559319E+05 -5.812036E+04 -1.314741E+06 -7.925952E+02  1.035466E+04
        15  27 -3.564940E+06 -5.787623E+05 -6.751169E+04 -1.334775E+06 -3.093081E+03  1.173414E+04
        16   1 -3.017690E+06 -3.732153E+05  7.240511E+04 -1.185078E+06  6.457632E+03 -1.174933E+04
        16   2 -2.989183E+06 -3.520906E+05  8.040884E+04 -1.166497E+06  9.026880E+03 -1.291645E+04
        16   3 -2.945816E+06 -3.464660E+05  8.694818E+04 -1.165230E+06  1.157212E+04 -1.401584E+04
        16   4 -3.311165E+06 -4.832177E+05 -2.780841E+03 -1.265114E+06  5.223361E+03 -1.221294E+04
        16   5 -3.318613E+06 -4.755958E+05 -3.830998E+03 -1.256409E+06  7.835381E+03 -1.336441E+04
        16   6 -3.311211E+06 -4.834831E+05 -6.380031E+03 -1.265018E+06  1.042327E+04 -1.444817E+04
        16   7 -3.604554E+06 -5.932141E+05 -7.797355E+04 -1.345115E+06  3.989737E+03 -1.267631E+04
        16   8 -3.647937E+06 -5.990940E+05 -8.807970E+04 -1.346277E+06  6.644576E+03 -1.381211E+04
        16   9 -3.676476E+06 -6.204922E+05 -9.971951E+04 -1.364753E+06  9.275163E+03 -1.488022E+04
        16  10 -3.017690E+06 -3.732155E+05  7.240477E+04 -1.185078E+06 -5.344507E-12  3.293497E-11
        16  11 -2.989183E+06 -3.520908E+05  8.040837E+04 -1.166497E+06 -2.584225E-10 -2.223300E-10
        16  12 -2.945816E+06 -3.464663E+05  8.694756E+04 -1.165230E+06 -2.037380E-09  5.455587E-10
        16  13 -3.311165E+06 -4.832179E+05 -2.781172E+03 -1.265114E+06 -7.016368E-10  1.998830E-10
        16  14 -3.318613E+06 -4.755960E+05 -3.831449E+03 -1.256409E+06 -2.128326E-09 -1.007052E-10
        16  15 -3.311211E+06 -4.834834E+05 -6.380627E+03 -1.265018E+06  2.064811E-10 -3.975956E-10
        16  16 -3.604554E+06 -5.932143E+05 -7.797388E+04 -1.345115E+06  2.176838E-10 -1.906476E-10
        16  17 -3.647937E+06 -5.990942E+05 -8.808014E+04 -1.346277E+06 -7.383046E-11 -1.915613E-10
        16  18 -3.676476E+06 -6.204925E+05 -9.972009E+04 -1.364753E+06  3.090197E-10 -6.709541E-11
        16  19 -3.017690E+06 -3.732153E+05  7.240511E+04 -1.185078E+06 -6.457632E+03  1.174933E+04
        16  20 -2.989183E+06 -3.520906E+05  8.040884E+04 -1.166497E+06 -9.026880E+03  1.291645E+04
        16  21 -2.945816E+06 -3.464660E+05  8.694818E+04 -1.165230E+06 -1.157212E+04  1.401584E+04
        16  22 -3.311165E+06 -4.832177E+05 -2.780841E+03 -1.265114E+06 -5.223361E+03  1.221294E+04
        16  23 -3.318613E+06 -4.755958E+05 -3.830998E+03 -1.256409E+06 -7.835381E+03  1.336441E+04
        16  24 -3.311211E+06 -4.834831E+05 -6.380031E+03 -1.265018E+06 -1.042327E+04  1.444817E+04
        16  25 -3.604554E+06 -5.932141E+05 -7.797355E+04 -1.345115E+06 -3.989737E+03  1.267631E+04
        16  26 -3.647937E+06 -5.990940E+05 -8.807970E+04 -1.346277E+06 -6.644576E+03  1.381211E+04
        16  27 -3.676476E+06 -6.204922E+05 -9.971951E+04 -1.364753E+06 -9.275163E+03  1.488022E+04
        17   1 -2.910477E+06 -3.327162E+05  9.441176E+04 -1.155808E+06  1.313024E+04 -1.459454E+04
        17   2 -2.884940E+06 -3.132397E+05  9.603870E+04 -1.138592E+06  2.104135E+04 -1.351684E+04
        17   3 -2.848239E+06 -3.111264E+05  9.121162E+04 -1.135987E+06  2.890303E+04 -1.230284E+04
        17   4 -3.311876E+06 -4.827384E+05 -8.273372E+03 -1.264857E+06  1.200588E+04 -1.501795E+04
        17   5 -3.317694E+06 -4.756970E+05 -1.465784E+04 -1.256936E+06  2.000018E+04 -1.390946E+04
        17   6 -3.312367E+06 -4.860384E+05 -2.756590E+04 -1.263627E+06  2.794459E+04 -1.266480E+04
        17   7 -3.713117E+06 -6.327506E+05 -1.109717E+05 -1.373842E+06  1.088232E+04 -1.544106E+04
        17   8 -3.750264E+06 -6.381419E+05 -1.253695E+05 -1.375204E+06  1.895980E+04 -1.430178E+04
        17   9 -3.776283E+06 -6.609353E+05 -1.463606E+05 -1.391179E+06  2.698694E+04 -1.302646E+04
        17  10 -2.910478E+06 -3.327165E+05  9.441103E+04 -1.155808E+06  2.375849E-10 -2.188926E-10
        17  11 -2.884940E+06 -3.132400E+05  9.603752E+04 -1.138592E+06  4.382742E-11 -3.634328E-10
        17  12 -2.848240E+06 -3.111268E+05  9.120976E+04 -1.135987E+06 -1.415595E-09 -1.427456E-10
        17  13 -3.311877E+06 -4.827387E+05 -8.274066E+03 -1.264857E+06  1.115779E-09  7.202935E-11
        17  14 -3.317695E+06 -4.756973E+05 -1.465896E+04 -1.256936E+06  2.132368E-09 -5.915649E-10
        17  15 -3.312368E+06 -4.860388E+05 -2.756767E+04 -1.263627E+06 -3.456202E-09 -9.592161E-10
        17  16 -3.713118E+06 -6.327509E+05 -1.109723E+05 -1.373842E+06  3.345006E-10  1.679741E-10
        17  17 -3.750265E+06 -6.381422E+05 -1.253705E+05 -1.375204E+06 -2.004339E-09  6.070866E-10
        17  18 -3.776284E+06 -6.609356E+05 -1.463623E+05 -1.391179E+06 -2.872057E-09 -2.245396E-09
        17  19 -2.910477E+06 -3.327162E+05  9.441176E+04 -1.155808E+06 -1.313024E+04  1.459454E+04
        17  20 -2.884940E+06 -3.132397E+05  9.603870E+04 -1.138592E+06 -2.104135E+04  1.351684E+04
        17  21 -2.848239E+06 -3.111264E+05  9.121162E+04 -1.135987E+06 -2.890303E+04  1.230284E+04
        17  22 -3.311876E+06 -4.827384E+05 -8.273372E+03 -1.264857E+06 -1.200588E+04  1.501795E+04
        17  23 -3.317694E+06 -4.756970E+05 -1.465784E+04 -1.256936E+06 -2.000018E+04  1.390946E+04
        17  24 -3.312367E+06 -4.860384E+05 -2.756590E+04 -1.263627E+06 -2.794459E+04  1.266480E+04
        17  25 -3.713117E+06 -6.327506E+05 -1.109717E+05 -1.373842E+06 -1.088232E+04  1.544106E+04
        17  26 -3.750264E+06 -6.381419E+05 -1.253695E+05 -1.375204E+06 -1.895980E+04  1.430178E+04
        17  27 -3.776283E+06 -6.609353E+05 -1.463606E+05 -1.391179E+06 -2.698694E+04  1.302646E+04
        18   1 -2.815197E+06 -2.992061E+05  9.101216E+04 -1.135718E+06  3.456068E+04 -1.130007E+04
        18   2 -2.793526E+06 -2.736525E+05  7.004622E+04 -1.111805E+06  6.701194E+04 -5.683123E+02
        18   3 -2.781723E+06 -3.051280E+05  1.283050E+04 -1.089863E+06  9.908486E+04  1.117403E+04
        18   4 -3.315059E+06 -4.807620E+05 -3.580626E+04 -1.266133E+06  3.337396E+04 -1.174790E+04
        18   5 -3.312971E+06 -4.722880E+05 -6.351540E+04 -1.257595E+06  6.645338E+04 -7.808056E+02
        18   6 -3.320896E+06 -5.209956E+05 -1.279981E+05 -1.251026E+06  9.915314E+04  1.119560E+04
        18   7 -3.814677E+06 -6.623066E+05 -1.626453E+05 -1.396455E+06  3.218828E+04 -1.219537E+04
        18   8 -3.832153E+06 -6.709037E+05 -1.970996E+05 -1.403273E+06  6.589531E+04 -9.931064E+02
        18   9 -3.859784E+06 -7.368336E+05 -2.688513E+05 -1.412058E+06  9.922133E+04  1.121713E+04
        18  10 -2.815199E+06 -2.992065E+05  9.100967E+04 -1.135718E+06 -4.357095E-09 -4.521658E-10
        18  11 -2.793531E+06 -2.736537E+05  7.003774E+04 -1.111805E+06 -3.137362E-09 -9.988612E-10
        18  12 -2.781734E+06 -3.051308E+05  1.281173E+04 -1.089864E+06  6.735769E-11 -5.622076E-10
        18  13 -3.315060E+06 -4.807625E+05 -3.580862E+04 -1.266133E+06  3.304583E-10 -1.162040E-09
        18  14 -3.312976E+06 -4.722892E+05 -6.352374E+04 -1.257595E+06 -1.353525E-09 -5.821235E-10
        18  15 -3.320907E+06 -5.209984E+05 -1.280169E+05 -1.251027E+06 -9.008119E-10 -1.021058E-09
        18  16 -3.814679E+06 -6.623071E+05 -1.626475E+05 -1.396455E+06 -1.554970E-09 -1.878530E-09
        18  17 -3.832158E+06 -6.709049E+05 -1.971078E+05 -1.403273E+06  4.098630E-09 -5.846713E-10
        18  18 -3.859794E+06 -7.368364E+05 -2.688702E+05 -1.412059E+06 -3.524309E-10 -1.651593E-10
        18  19 -2.815197E+06 -2.992061E+05  9.101216E+04 -1.135718E+06 -3.456068E+04  1.130007E+04
        18  20 -2.793526E+06 -2.736525E+05  7.004622E+04 -1.111805E+06 -6.701194E+04  5.683123E+02
        18  21 -2.781723E+06 -3.051280E+05  1.283050E+04 -1.089863E+06 -9.908486E+04 -1.117403E+04
        18  22 -3.315059E+06 -4.807620E+05 -3.580626E+04 -1.266133E+06 -3.337396E+04  1.174790E+04
        18  23 -3.312971E+06 -4.722880E+05 -6.351540E+04 -1.257595E+06 -6.645338E+04  7.808056E+02
        18  24 -3.320896E+06 -5.209956E+05 -1.279981E+05 -1.251026E+06 -9.915314E+04 -1.119560E+04
        18  25 -3.814677E+06 -6.623066E+05 -1.626453E+05 -1.396455E+06 -3.218828E+04  1.219537E+04
        18  26 -3.832153E+06 -6.709037E+05 -1.970996E+05 -1.403273E+06 -6.589531E+04  9.931064E+02
        18  27 -3.859784E+06 -7.368336E+05 -2.688513E+05 -1.412058E+06 -9.922133E+04 -1.121713E+04
        19   1 -2.718683E+06 -2.952578E+05 -1.262477E+04 -1.183963E+06  1.265005E+05  1.836250E+04
        19   2 -2.716982E+06 -1.653982E+05 -1.185566E+05 -1.050573E+06  2.624827E+05  7.060357E+04
        19   3 -2.925857E+06 -5.769929E+05 -4.723672E+05 -7.881063E+05  3.922754E+05  1.392592E+05
        19   4 -3.341921E+06 -4.615397E+05 -1.590948E+05 -1.285090E+06  1.216175E+05  1.653468E+04
        19   5 -3.270088E+06 -4.292323E+05 -2.708473E+05 -1.259333E+06  2.680972E+05  7.269278E+04
        19   6 -3.411165E+06 -9.408345E+05 -6.390077E+05 -1.104426E+06  4.083987E+05  1.452099E+05
        19   7 -3.964768E+06 -6.278303E+05 -3.055879E+05 -1.386144E+06  1.167400E+05  1.470754E+04
        19   8 -3.822883E+06 -6.929868E+05 -4.231649E+05 -1.467904E+06  2.737062E+05  7.477859E+04
        19   9 -3.896161E+06 -1.304372E+06 -8.056608E+05 -1.420453E+06  4.245081E+05  1.511435E+05
        19  10 -2.718701E+06 -2.952625E+05 -1.265562E+04 -1.183965E+06 -9.272206E-10 -1.858674E-10
        19  11 -2.717057E+06 -1.654222E+05 -1.186961E+05 -1.050588E+06 -8.698243E-10  9.329175E-10
        19  12 -2.926029E+06 -5.770554E+05 -4.726944E+05 -7.881504E+05 -1.085250E-09  6.149891E-10
        19  13 -3.341937E+06 -4.615440E+05 -1.591232E+05 -1.285091E+06 -1.353285E-09  3.036511E-10
        19  14 -3.270167E+06 -4.292575E+05 -2.709932E+05 -1.259349E+06 -5.306666E-10 -2.436701E-10
        19  15 -3.411351E+06 -9.409024E+05 -6.393630E+05 -1.104474E+06 -1.162910E-13 -3.631169E-10
        19  16 -3.964783E+06 -6.278342E+05 -3.056141E+05 -1.386146E+06  1.953357E-10  9.341177E-13
        19  17 -3.822965E+06 -6.930132E+05 -4.233172E+05 -1.467921E+06 -9.234287E-10  4.622867E-10
        19  18 -3.896362E+06 -1.304446E+06 -8.060451E+05 -1.420505E+06 -5.237671E-10 -2.469652E-10
        19  19 -2.718683E+06 -2.952578E+05 -1.262477E+04 -1.183963E+06 -1.265005E+05 -1.836250E+04
        19  20 -2.716982E+06 -1.653982E+05 -1.185566E+05 -1.050573E+06 -2.624827E+05 -7.060357E+04
        19  21 -2.925857E+06 -5.769929E+05 -4.723672E+05 -7.881063E+05 -3.922754E+05 -1.392592E+05
        19  22 -3.341921E+06 -4.615397E+05 -1.590948E+05 -1.285090E+06 -1.216175E+05 -1.653468E+04
        19  23 -3.270088E+06 -4.292323E+05 -2.708473E+05 -1.259333E+06 -2.680972E+05 -7.269278E+04
        19  24 -3.411165E+06 -9.408345E+05 -6.390077E+05 -1.104426E+06 -4.083987E+05 -1.452099E+05
        19  25 -3.964768E+06 -6.278303E+05 -3.055879E+05 -1.386144E+06 -1.167400E+05 -1.470754E+04
        19  26 -3.822883E+06 -6.929868E+05 -4.231649E+05 -1.467904E+06 -2.737062E+05 -7.477859E+04
        19  27 -3.896161E+06 -1.304372E+06 -8.056608E+05 -1.420453E+06 -4.245081E+05 -1.511435E+05
        20   1 -9.658854E+05  3.575386E+04  4.410776E+04  1.430817E+04  3.021506E+04  6.974013E-01
        20   2 -9.714992E+05 -2.773370E+03  1.966534E+04  4.530522E+03  1.969776E+04  1.439601E-01
        20   3 -9.659040E+05 -1.966498E+03  1.191191E+04 -5.246873E+03  9.180584E+03 -7.770414E-02
        20   4 -9.658856E+05  3.575347E+04  4.410771E+04  1.161938E-08  3.021506E+04  2.977090E-10
        20   5 -9.714993E+05 -2.773408E+03  1.966534E+04  1.461908E-08  1.969776E+04  8.714738E-10
        20   6 -9.659040E+05 -1.966550E+03  1.191190E+04  3.895195E-09  9.180584E+03  8.705683E-10
        20   7 -9.658854E+05  3.575386E+04  4.410776E+04 -1.430817E+04  3.021506E+04 -6.974013E-01
        20   8 -9.714992E+05 -2.773370E+03  1.966534E+04 -4.530522E+03  1.969776E+04 -1.439601E-01
        20   9 -9.659040E+05 -1.966498E+03  1.191191E+04  5.246873E+03  9.180584E+03  7.770414E-02
        20  10 -9.658864E+05  3.575361E+04  4.410604E+04  1.430817E+04  2.149914E-09 -5.692863E-10
        20  11 -9.714997E+05 -2.773474E+03  1.966461E+04  4.530522E+03  1.101732E-09 -7.431698E-10
        20  12 -9.659041E+05 -1.966521E+03  1.191175E+04 -5.246873E+03 -3.117944E-09  6.349864E-10
        20  13 -9.658866E+05  3.575322E+04  4.410599E+04  5.050677E-09  8.810353E-11 -3.073691E-10
        20  14 -9.714997E+05 -2.773513E+03  1.966461E+04 -3.905137E-10  1.614856E-09 -4.730748E-10
        20  15 -9.659041E+05 -1.966573E+03  1.191174E+04  1.354829E-08 -3.067892E-09  7.341969E-10
        20  16 -9.658864E+05  3.575361E+04  4.410604E+04 -1.430817E+04 -2.338737E-09 -1.671629E-10
        20  17 -9.714997E+05 -2.773474E+03  1.966461E+04 -4.530522E+03 -9.035037E-10 -9.475657E-11
        20  18 -9.659041E+05 -1.966521E+03  1.191175E+04  5.246873E+03  4.195181E-10  9.385209E-10
        20  19 -9.658854E+05  3.575386E+04  4.410776E+04  1.430817E+04 -3.021506E+04 -6.974013E-01
        20  20 -9.714992E+05 -2.773370E+03  1.966534E+04  4.530522E+03 -1.969776E+04 -1.439601E-01
        20  21 -9.659040E+05 -1.966498E+03  1.191191E+04 -5.246873E+03 -9.180584E+03  7.770414E-02
        20  22 -9.658856E+05  3.575347E+04  4.410771E+04  1.355814E-08 -3.021506E+04 -8.820310E-10
        20  23 -9.714993E+05 -2.773408E+03  1.966534E+04 -2.476311E-09 -1.969776E+04 -1.805514E-09
        20  24 -9.659040E+05 -1.966550E+03  1.191190E+04  1.939554E-09 -9.180584E+03  6.312461E-10
        20  25 -9.658854E+05  3.575386E+04  4.410776E+04 -1.430817E+04 -3.021506E+04  6.974013E-01
        20  26 -9.714992E+05 -2.773370E+03  1.966534E+04 -4.530522E+03 -1.969776E+04  1.439601E-01
        20  27 -9.659040E+05 -1.966498E+03  1.191191E+04  5.246873E+03 -9.180584E+03 -7.770414E-02
        21   1 -9.681435E+05  2.784186E+03  9.602914E+03  9.325392E+02  7.412674E+03  1.115108E-02
        21   2 -9.687025E+05 -2.506572E+02  5.045526E+03  2.330147E+02  4.857417E+03  1.825844E-03
        21   3 -9.681460E+05 -1.580093E+02  2.935610E+03 -4.665210E+02  2.302128E+03 -1.732508E-03
        21   4 -9.681435E+05  2.784185E+03  9.602914E+03 -1.302539E-08  7.412674E+03  5.557033E-11
        21   5 -9.687025E+05 -2.506574E+02  5.045526E+03 -8.602750E-09  4.857417E+03 -1.081587E-09
        21   6 -9.681460E+05 -1.580097E+02  2.935610E+03  1.303949E-08  2.302128E+03 -4.062740E-10
        21   7 -9.681435E+05  2.784186E+03  9.602914E+03 -9.325392E+02  7.412674E+03 -1.115108E-02
        21   8 -9.687025E+05 -2.506572E+02  5.045526E+03 -2.330147E+02  4.857417E+03 -1.825846E-03
        21   9 -9.681460E+05 -1.580093E+02  2.935610E+03  4.665210E+02  2.302128E+03  1.732508E-03
        21  10 -9.681435E+05  2.784171E+03  9.602811E+03  9.325392E+02  2.175644E-10  9.899377E-10
        21  11 -9.687025E+05 -2.506636E+02  5.045482E+03  2.330147E+02  8.080439E-11  3.412848E-10
        21  12 -9.681460E+05 -1.580107E+02  2.935600E+03 -4.665210E+02  7.973370E-10  6.689095E-10
        21  13 -9.681435E+05  2.784170E+03  9.602810E+03 -8.937768E-09 -4.097357E-09  7.313903E-10
        21  14 -9.687025E+05 -2.506637E+02  5.045482E+03 -1.293838E-08  7.260404E-10 -3.301327E-10
        21  15 -9.681460E+05 -1.580111E+02  2.935600E+03 -7.243715E-09 -8.191392E-10  3.047472E-10
        21  16 -9.681435E+05  2.784171E+03  9.602811E+03 -9.325392E+02 -2.862727E-09  4.226547E-10
        21  17 -9.687025E+05 -2.506636E+02  5.045482E+03 -2.330147E+02  7.879858E-11 -9.998601E-10
        21  18 -9.681460E+05 -1.580107E+02  2.935600E+03  4.665210E+02  5.088421E-10 -4.555878E-11
        21  19 -9.681435E+05  2.784186E+03  9.602914E+03  9.325392E+02 -7.412674E+03 -1.115108E-02
        21  20 -9.687025E+05 -2.506572E+02  5.045526E+03  2.330147E+02 -4.857417E+03 -1.825843E-03
        21  21 -9.681460E+05 -1.580093E+02  2.935610E+03 -4.665210E+02 -2.302128E+03  1.732510E-03
        21  22 -9.681435E+05  2.784185E+03  9.602914E+03 -7.023228E-09 -7.412674E+03  1.454401E-09
        21  23 -9.687025E+05 -2.506574E+02  5.045526E+03 -8.660547E-09 -4.857417E+03  3.884384E-10
        21  24 -9.681460E+05 -1.580097E+02  2.935610E+03  1.859044E-10 -2.302128E+03  9.929117E-10
        21  25 -9.681435E+05  2.784186E+03  9.602914E+03 -9.325392E+02 -7.412674E+03  1.115108E-02
        21  26 -9.687025E+05 -2.506572E+02  5.045526E+03 -2.330147E+02 -4.857417E+03  1.825844E-03
        21  27 -9.681460E+05 -1.580093E+02  2.935610E+03  4.665210E+02 -2.302128E+03 -1.732508E-03
        22   1 -9.683620E+05  2.066290E+02  2.261465E+03  2.273130E+01  1.845378E+03  6.766849E-05
        22   2 -9.684335E+05 -2.714948E+01  1.238682E+03 -1.404778E+01  1.228737E+03 -2.784436E-05
        22   3 -9.683625E+05 -1.266475E+01  6.798975E+02 -5.082687E+01  6.120956E+02 -5.018636E-05
        22   4 -9.683620E+05  2.066290E+02  2.261465E+03 -1.206867E-09  1.845378E+03  4.222022E-10
        22   5 -9.684335E+05 -2.714948E+01  1.238682E+03 -2.633373E-09  1.228737E+03  6.837466E-10
        22   6 -9.683625E+05 -1.266475E+01  6.798975E+02  3.488607E-09  6.120956E+02 -2.533171E-10
        22   7 -9.683620E+05  2.066290E+02  2.261465E+03 -2.273130E+01  1.845378E+03 -6.766762E-05
        22   8 -9.684335E+05 -2.714948E+01  1.238682E+03  1.404778E+01  1.228737E+03  2.784547E-05
        22   9 -9.683625E+05 -1.266475E+01  6.798975E+02  5.082687E+01  6.120956E+02  5.018610E-05
        22  10 -9.683620E+05  2.066280E+02  2.261458E+03  2.273130E+01  3.388661E-09  2.629254E-10
        22  11 -9.684335E+05 -2.714988E+01  1.238679E+03 -1.404778E+01  1.565482E-09 -7.007594E-10
        22  12 -9.683625E+05 -1.266485E+01  6.798968E+02 -5.082687E+01  9.417216E-11  2.413738E-11
        22  13 -9.683620E+05  2.066280E+02  2.261458E+03 -1.424111E-08 -5.044382E-11  4.647276E-10
        22  14 -9.684335E+05 -2.714988E+01  1.238679E+03 -5.107430E-10  8.008977E-10 -2.069697E-10
        22  15 -9.683625E+05 -1.266485E+01  6.798968E+02  6.764508E-09  3.063901E-10 -1.688993E-10
        22  16 -9.683620E+05  2.066280E+02  2.261458E+03 -2.273130E+01 -2.246580E-09  6.505288E-10
        22  17 -9.684335E+05 -2.714988E+01  1.238679E+03  1.404778E+01  1.664183E-09  2.340811E-10
        22  18 -9.683625E+05 -1.266485E+01  6.798968E+02  5.082687E+01  2.023562E-09 -3.812001E-10
        22  19 -9.683620E+05  2.066290E+02  2.261465E+03  2.273130E+01 -1.845378E+03 -6.766775E-05
        22  20 -9.684335E+05 -2.714948E+01  1.238682E+03 -1.404778E+01 -1.228737E+03  2.784329E-05
        22  21 -9.683625E+05 -1.266475E+01  6.798975E+02 -5.082687E+01 -6.120956E+02  5.018682E-05
        22  22 -9.683620E+05  2.066290E+02  2.261465E+03 -1.652453E-08 -1.845378E+03  5.144967E-10
        22  23 -9.684335E+05 -2.714948E+01  1.238682E+03 -2.704834E-09 -1.228737E+03 -1.023028E-09
        22  24 -9.683625E+05 -1.266475E+01  6.798975E+02  3.310898E-09 -6.120956E+02 -1.127787E-10
        22  25 -9.683620E+05  2.066290E+02  2.261465E+03 -2.273130E+01 -1.845378E+03  6.766860E-05
        22  26 -9.684335E+05 -2.714948E+01  1.238682E+03  1.404778E+01 -1.228737E+03 -2.784537E-05
        22  27 -9.683625E+05 -1.266475E+01  6.798975E+02  5.082687E+01 -6.120956E+02 -5.018701E-05
        23   1 -9.683904E+05  1.291873E+01  4.893783E+02 -1.277396E+01  5.071968E+02 -1.045162E-05
        23   2 -9.683990E+05 -2.859506E+00  1.978126E+02 -1.285703E+01  4.091806E+02 -8.486816E-06
        23   3 -9.683905E+05 -1.283005E+00 -2.552964E+01 -1.294010E+01  3.111660E+02 -6.495842E-06
        23   4 -9.683904E+05  1.291873E+01  4.893783E+02 -2.439377E-09  5.071968E+02 -5.782953E-10
        23   5 -9.683990E+05 -2.859506E+00  1.978126E+02 -4.665838E-09  4.091806E+02 -3.287067E-10
        23   6 -9.683905E+05 -1.283005E+00 -2.552964E+01  3.340218E-09  3.111660E+02 -3.839375E-10
        23   7 -9.683904E+05  1.291873E+01  4.893783E+02  1.277396E+01  5.071968E+02  1.045028E-05
        23   8 -9.683990E+05 -2.859506E+00  1.978126E+02  1.285703E+01  4.091806E+02  8.485909E-06
        23   9 -9.683905E+05 -1.283005E+00 -2.552964E+01  1.294010E+01  3.111660E+02  6.495300E-06
        23  10 -9.683904E+05  1.291866E+01  4.893778E+02 -1.277396E+01  5.169118E-10  7.552003E-10
        23  11 -9.683990E+05 -2.859551E+00  1.978123E+02 -1.285703E+01  9.732800E-10  7.663214E-10
        23  12 -9.683905E+05 -1.283031E+00 -2.552982E+01 -1.294010E+01  1.256334E-09 -3.656870E-10
        23  13 -9.683904E+05  1.291866E+01  4.893778E+02 -4.478986E-09 -2.344962E-09  2.841171E-10
        23  14 -9.683990E+05 -2.859551E+00  1.978123E+02 -6.849422E-09  1.750370E-10  6.598894E-10
        23  15 -9.683905E+05 -1.283031E+00 -2.552982E+01 -2.768942E-09  5.687210E-09 -8.637576E-11
        23  16 -9.683904E+05  1.291866E+01  4.893778E+02  1.277396E+01  7.136626E-10 -1.202360E-10
        23  17 -9.683990E+05 -2.859551E+00  1.978123E+02  1.285703E+01  2.825148E-10  6.850483E-10
        23  18 -9.683905E+05 -1.283031E+00 -2.552982E+01  1.294010E+01 -8.308483E-10  1.483526E-10
        23  19 -9.683904E+05  1.291873E+01  4.893783E+02 -1.277396E+01 -5.071968E+02  1.045320E-05
        23  20 -9.683990E+05 -2.859506E+00  1.978126E+02 -1.285703E+01 -4.091806E+02  8.488546E-06
        23  21 -9.683905E+05 -1.283005E+00 -2.552964E+01 -1.294010E+01 -3.111660E+02  6.495555E-06
        23  22 -9.683904E+05  1.291873E+01  4.893783E+02 -2.196617E-09 -5.071968E+02  1.141728E-09
        23  23 -9.683990E+05 -2.859506E+00  1.978126E+02 -3.639729E-09 -4.091806E+02  1.648806E-09
        23  24 -9.683905E+05 -1.283005E+00 -2.552964E+01  1.133356E-08 -3.111660E+02  2.088771E-10
        23  25 -9.683904E+05  1.291873E+01  4.893783E+02  1.277396E+01 -5.071968E+02 -1.045085E-05
        23  26 -9.683990E+05 -2.859506E+00  1.978126E+02  1.285703E+01 -4.091806E+02 -8.485013E-06
        23  27 -9.683905E+05 -1.283005E+00 -2.552964E+01  1.294010E+01 -3.111660E+02 -6.495226E-06
        24   1 -9.684016E+05  1.808963E+00 -1.352871E+02 -1.440603E+01  3.257060E+02 -7.569026E-06
        24   2 -9.683853E+05  5.288848E+00 -3.965643E+02 -1.599098E+01  5.220641E+02 -1.346617E-05
        24   3 -9.684017E+05 -1.928110E+01 -7.928387E+02 -1.757594E+01  7.184249E+02 -2.036957E-05
        24   4 -9.684016E+05  1.808963E+00 -1.352871E+02  5.002131E-09  3.257060E+02  1.941258E-10
        24   5 -9.683853E+05  5.288847E+00 -3.965643E+02 -5.724315E-09  5.220641E+02  9.447887E-10
        24   6 -9.684017E+05 -1.928110E+01 -7.928387E+02  5.614394E-09  7.184249E+02 -4.665495E-10
        24   7 -9.684016E+05  1.808963E+00 -1.352871E+02  1.440603E+01  3.257060E+02  7.569399E-06
        24   8 -9.683853E+05  5.288848E+00 -3.965643E+02  1.599098E+01  5.220641E+02  1.346792E-05
        24   9 -9.684017E+05 -1.928110E+01 -7.928387E+02  1.757594E+01  7.184249E+02  2.036887E-05
        24  10 -9.684016E+05  1.808935E+00 -1.352873E+02 -1.440603E+01  2.866911E-10 -5.463076E-10
        24  11 -9.683853E+05  5.288774E+00 -3.965648E+02 -1.599098E+01  4.482176E-10  1.256338E-11
        24  12 -9.684017E+05 -1.928124E+01 -7.928397E+02 -1.757594E+01 -1.430144E-09  7.685785E-11
        24  13 -9.684016E+05  1.808935E+00 -1.352873E+02  2.911027E-09  2.102664E-09 -3.726547E-10
        24  14 -9.683853E+05  5.288774E+00 -3.965648E+02 -3.538629E-09  8.140338E-10 -5.627240E-12
        24  15 -9.684017E+05 -1.928124E+01 -7.928397E+02 -2.950938E-10 -2.750198E-09  1.380515E-10
        24  16 -9.684016E+05  1.808935E+00 -1.352873E+02  1.440603E+01  9.564674E-10 -1.978392E-10
        24  17 -9.683853E+05  5.288774E+00 -3.965648E+02  1.599098E+01  1.610764E-09 -4.135554E-12
        24  18 -9.684017E+05 -1.928124E+01 -7.928397E+02  1.757594E+01  8.296078E-10  1.632658E-10
        24  19 -9.684016E+05  1.808963E+00 -1.352871E+02 -1.440603E+01 -3.257060E+02  7.568219E-06
        24  20 -9.683853E+05  5.288848E+00 -3.965643E+02 -1.599098E+01 -5.220641E+02  1.346640E-05
        24  21 -9.684017E+05 -1.928110E+01 -7.928387E+02 -1.757594E+01 -7.184249E+02  2.037007E-05
        24  22 -9.684016E+05  1.808963E+00 -1.352871E+02  1.373016E-08 -3.257060E+02 -9.271057E-10
        24  23 -9.683853E+05  5.288847E+00 -3.965643E+02  1.156676E-08 -5.220641E+02 -9.645816E-10
        24  24 -9.684017E+05 -1.928110E+01 -7.928387E+02  1.773929E-08 -7.184249E+02  7.629632E-10
        24  25 -9.684016E+05  1.808963E+00 -1.352871E+02  1.440603E+01 -3.257060E+02 -7.570062E-06
        24  26 -9.683853E+05  5.288848E+00 -3.965643E+02  1.599098E+01 -5.220641E+02 -1.346815E-05
        24  27 -9.684017E+05 -1.928110E+01 -7.928387E+02  1.757594E+01 -7.184249E+02 -2.036855E-05
        25   1 -9.684425E+05  1.932721E+01 -1.065573E+03 -7.505460E+01  8.852371E+02 -1.071805E-04
        25   2 -9.683349E+05  4.105725E+01 -1.887493E+03 -2.024997E+01  1.824779E+03 -5.960885E-05
        25   3 -9.684432E+05 -3.107451E+02 -3.415189E+03  3.455470E+01  2.764320E+03  1.540872E-04
        25   4 -9.684425E+05  1.932720E+01 -1.065573E+03 -3.772984E-09  8.852371E+02 -7.334360E-10
        25   5 -9.683349E+05  4.105725E+01 -1.887493E+03 -7.870073E-09  1.824779E+03 -7.049765E-11
        25   6 -9.684432E+05 -3.107451E+02 -3.415189E+03 -9.539662E-09  2.764320E+03 -1.150444E-09
        25   7 -9.684425E+05  1.932721E+01 -1.065573E+03  7.505460E+01  8.852371E+02  1.071789E-04
        25   8 -9.683349E+05  4.105725E+01 -1.887493E+03  2.024997E+01  1.824779E+03  5.960846E-05
        25   9 -9.684432E+05 -3.107451E+02 -3.415189E+03 -3.455470E+01  2.764320E+03 -1.540895E-04
        25  10 -9.684425E+05  1.932700E+01 -1.065574E+03 -7.505460E+01 -1.064953E-09 -3.834579E-10
        25  11 -9.683349E+05  4.105635E+01 -1.887499E+03 -2.024997E+01 -2.392718E-09 -9.906420E-10
        25  12 -9.684432E+05 -3.107471E+02 -3.415204E+03  3.455470E+01 -2.141805E-09 -6.993432E-10
        25  13 -9.684425E+05  1.932699E+01 -1.065574E+03  4.689171E-09  1.234690E-09 -2.396165E-10
        25  14 -9.683349E+05  4.105635E+01 -1.887499E+03 -7.880582E-09 -2.849517E-09 -8.627749E-10
        25  15 -9.684432E+05 -3.107471E+02 -3.415204E+03  2.104078E-12 -5.986632E-09 -4.333495E-10
        25  16 -9.684425E+05  1.932700E+01 -1.065574E+03  7.505460E+01 -6.087276E-10 -2.544755E-11
        25  17 -9.683349E+05  4.105635E+01 -1.887499E+03  2.024997E+01 -3.716694E-09 -6.164808E-10
        25  18 -9.684432E+05 -3.107471E+02 -3.415204E+03 -3.455470E+01 -8.775833E-10 -1.547894E-10
        25  19 -9.684425E+05  1.932721E+01 -1.065573E+03 -7.505460E+01 -8.852371E+02  1.071795E-04
        25  20 -9.683349E+05  4.105725E+01 -1.887493E+03 -2.024997E+01 -1.824779E+03  5.960702E-05
        25  21 -9.684432E+05 -3.107451E+02 -3.415189E+03  3.455470E+01 -2.764320E+03 -1.540885E-04
        25  22 -9.684425E+05  1.932720E+01 -1.065573E+03 -1.922538E-09 -8.852371E+02  2.995466E-10
        25  23 -9.683349E+05  4.105725E+01 -1.887493E+03 -5.741131E-09 -1.824779E+03 -1.610829E-09
        25  24 -9.684432E+05 -3.107451E+02 -3.415189E+03 -7.406622E-09 -2.764320E+03  2.280145E-10
        25  25 -9.684425E+05  1.932721E+01 -1.065573E+03  7.505460E+01 -8.852371E+02 -1.071792E-04
        25  26 -9.683349E+05  4.105725E+01 -1.887493E+03  2.024997E+01 -1.824779E+03 -5.961030E-05
        25  27 -9.684432E+05 -3.107451E+02 -3.415189E+03 -3.455470E+01 -2.764320E+03  1.540887E-04
        26   1 -9.687678E+05  2.377439E+02 -4.425609E+03 -7.012827E+02  3.453482E+03 -3.906836E-03
        26   2 -9.679306E+05  3.770480E+02 -7.594069E+03  3.506804E+02  7.299514E+03  4.129331E-03
        26   3 -9.687715E+05 -4.187350E+03 -1.444524E+04  1.402630E+03  1.114547E+04  2.521830E-02
        26   4 -9.687678E+05  2.377430E+02 -4.425609E+03 -2.957271E-09  3.453482E+03 -3.241727E-10
        26   5 -9.679306E+05  3.770478E+02 -7.594069E+03  3.223801E-09  7.299514E+03  1.913742E-09
        26   6 -9.687715E+05 -4.187354E+03 -1.444524E+04  1.127620E-08  1.114547E+04 -1.592361E-10
        26   7 -9.687678E+05  2.377439E+02 -4.425609E+03  7.012827E+02  3.453482E+03  3.906836E-03
        26   8 -9.679306E+05  3.770480E+02 -7.594069E+03 -3.506804E+02  7.299514E+03 -4.129328E-03
        26   9 -9.687715E+05 -4.187350E+03 -1.444524E+04 -1.402630E+03  1.114547E+04 -2.521830E-02
        26  10 -9.687678E+05  2.377407E+02 -4.425631E+03 -7.012827E+02 -8.580761E-10  2.197649E-10
        26  11 -9.679307E+05  3.770337E+02 -7.594169E+03  3.506804E+02 -8.252252E-10  9.012198E-10
        26  12 -9.687716E+05 -4.187383E+03 -1.444548E+04  1.402630E+03  1.278222E-09 -3.566594E-10
        26  13 -9.687678E+05  2.377398E+02 -4.425632E+03  7.997453E-09 -3.246464E-09  3.720571E-10
        26  14 -9.679307E+05  3.770335E+02 -7.594170E+03  4.260413E-09 -1.265455E-09  9.224173E-10
        26  15 -9.687716E+05 -4.187387E+03 -1.444548E+04  3.748822E-09 -2.023539E-09 -3.537878E-10
        26  16 -9.687678E+05  2.377407E+02 -4.425631E+03  7.012827E+02 -7.063049E-10  5.750110E-10
        26  17 -9.679307E+05  3.770337E+02 -7.594169E+03 -3.506804E+02 -1.902702E-09  9.053032E-10
        26  18 -9.687716E+05 -4.187383E+03 -1.444548E+04 -1.402630E+03 -2.549027E-09 -3.184073E-10
        26  19 -9.687678E+05  2.377439E+02 -4.425609E+03 -7.012827E+02 -3.453482E+03  3.906837E-03
        26  20 -9.679306E+05  3.770480E+02 -7.594069E+03  3.506804E+02 -7.299514E+03 -4.129329E-03
        26  21 -9.687715E+05 -4.187350E+03 -1.444524E+04  1.402630E+03 -1.114547E+04 -2.521830E-02
        26  22 -9.687678E+05  2.377430E+02 -4.425609E+03  8.169800E-09 -3.453482E+03  1.100232E-09
        26  23 -9.679306E+05  3.770478E+02 -7.594069E+03  3.138666E-09 -7.299514E+03 -5.449213E-12
        26  24 -9.687715E+05 -4.187354E+03 -1.444524E+04  7.239333E-09 -1.114547E+04 -5.825858E-10
        26  25 -9.687678E+05  2.377439E+02 -4.425609E+03  7.012827E+02 -3.453482E+03 -3.906835E-03
        26  26 -9.679306E+05  3.770480E+02 -7.594069E+03 -3.506804E+02 -7.299514E+03  4.129329E-03
        26  27 -9.687715E+05 -4.187350E+03 -1.444524E+04 -1.402630E+03 -1.114547E+04  2.521830E-02
        27   1 -9.721392E+05  2.957862E+03 -1.791655E+04 -7.891096E+03  1.380456E+04 -1.757263E-01
        27   2 -9.637240E+05  4.171244E+03 -2.957365E+04  6.814090E+03  2.962295E+04  3.256170E-01
        27   3 -9.721655E+05 -5.377069E+04 -6.632906E+04  2.151926E+04  4.544164E+04  1.577448E+00
        27   4 -9.721393E+05  2.957744E+03 -1.791656E+04 -6.561504E-09  1.380456E+04 -8.228989E-10
        27   5 -9.637241E+05  4.171156E+03 -2.957367E+04  9.499366E-09  2.962295E+04  6.415783E-10
        27   6 -9.721660E+05 -5.377156E+04 -6.632919E+04  5.368072E-09  4.544164E+04  3.557359E-10
        27   7 -9.721392E+05  2.957862E+03 -1.791655E+04  7.891096E+03  1.380456E+04  1.757263E-01
        27   8 -9.637240E+05  4.171244E+03 -2.957365E+04 -6.814090E+03  2.962295E+04 -3.256170E-01
        27   9 -9.721655E+05 -5.377069E+04 -6.632906E+04 -2.151926E+04  4.544164E+04 -1.577448E+00
        27  10 -9.721394E+05  2.957810E+03 -1.791690E+04 -7.891096E+03 -1.907041E-10 -7.535064E-10
        27  11 -9.637249E+05  4.171008E+03 -2.957530E+04  6.814090E+03 -1.942078E-10  1.246325E-10
        27  12 -9.721678E+05 -5.377125E+04 -6.633295E+04  2.151926E+04  2.015797E-09  1.224911E-10
        27  13 -9.721395E+05  2.957693E+03 -1.791692E+04 -1.291157E-08 -3.128933E-10 -7.802896E-10
        27  14 -9.637250E+05  4.170920E+03 -2.957532E+04  2.006432E-09 -1.596312E-09 -1.054299E-10
        27  15 -9.721683E+05 -5.377212E+04 -6.633307E+04  7.864821E-10  2.872231E-10  5.245605E-11
        27  16 -9.721394E+05  2.957810E+03 -1.791690E+04  7.891096E+03 -6.918825E-11 -8.763815E-10
        27  17 -9.637249E+05  4.171008E+03 -2.957530E+04 -6.814090E+03 -9.256335E-10 -3.364392E-10
        27  18 -9.721678E+05 -5.377125E+04 -6.633295E+04 -2.151926E+04 -1.143824E-09 -8.110579E-11
        27  19 -9.721392E+05  2.957862E+03 -1.791655E+04 -7.891096E+03 -1.380456E+04  1.757263E-01
        27  20 -9.637240E+05  4.171244E+03 -2.957365E+04  6.814090E+03 -2.962295E+04 -3.256170E-01
        27  21 -9.721655E+05 -5.377069E+04 -6.632906E+04  2.151926E+04 -4.544164E+04 -1.577448E+00
        27  22 -9.721393E+05  2.957744E+03 -1.791656E+04 -1.280437E-08 -1.380456E+04 -7.432967E-10
        27  23 -9.637241E+05  4.171156E+03 -2.957367E+04 -1.624378E-08 -2.962295E+04 -8.866929E-10
        27  24 -9.721660E+05 -5.377156E+04 -6.632919E+04 -9.991464E-09 -4.544164E+04 -2.450189E-10
        27  25 -9.721392E+05  2.957862E+03 -1.791655E+04  7.891096E+03 -1.380456E+04 -1.757263E-01
        27  26 -9.637240E+05  4.171244E+03 -2.957365E+04 -6.814090E+03 -2.962295E+04  3.256170E-01
        27  27 -9.721655E+05 -5.377069E+04 -6.632906E+04 -2.151926E+04 -4.544164E+04  1.577448E+00
        28   1  5.955590E+05  1.819510E+06  6.640300E+05 -1.767644E+05  1.354626E+04  2.844666E+05
        28   2  2.371300E+05  1.676382E+06  4.217397E+05 -6.786889E+04  4.191224E+04  1.705417E+05
        28   3  2.228772E+05  1.634618E+06  3.396542E+05 -7.926103E+03  4.155836E+04  5.662724E+04
        28   4  3.081563E+05  6.635147E+05  3.816478E+05 -5.241009E+04  1.361159E+04  2.544112E+05
        28   5 -2.423260E+04  6.145710E+05  1.756912E+05 -2.801824E+04  4.193461E+04  1.606611E+05
        28   6 -1.564834E+04  6.636490E+05  1.161320E+05 -5.256456E+04  4.154684E+04  6.690082E+04
        28   7  2.071339E+04 -4.912299E+05  9.917984E+04  7.171288E+04  1.366501E+04  2.244111E+05
        28   8 -2.856685E+05 -4.461977E+05 -7.043162E+04  1.176410E+04  4.195573E+04  1.507971E+05
        28   9 -2.542321E+05 -3.064450E+05 -1.074512E+05 -9.713253E+04  4.153385E+04  7.715843E+04
        28  10  5.955371E+05  1.819423E+06  6.638780E+05 -1.767676E+05 -9.719868E-10  1.862240E-10
        28  11  2.371203E+05  1.676351E+06  4.216819E+05 -6.787464E+04 -6.440620E-10  8.731983E-12
        28  12  2.228745E+05  1.634614E+06  3.396450E+05 -7.927996E+03  6.254416E-10 -5.886056E-10
        28  13  3.081387E+05  6.634452E+05  3.815260E+05 -5.241288E+04  1.136319E-09 -4.154453E-11
        28  14 -2.424141E+04  6.145428E+05  1.756395E+05 -2.802367E+04 -4.327928E-10  1.810112E-10
        28  15 -1.565140E+04  6.636438E+05  1.161204E+05 -5.256680E+04  7.421594E-10 -5.862177E-10
        28  16  2.069965E+04 -4.912841E+05  9.908478E+04  7.171041E+04  5.556351E-10 -1.686452E-10
        28  17 -2.856765E+05 -4.462226E+05 -7.047769E+04  1.175900E+04 -1.764216E-09 -1.706194E-11
        28  18 -2.542355E+05 -3.064519E+05 -1.074656E+05 -9.713511E+04 -1.781015E-09  7.028985E-10
        28  19  5.955590E+05  1.819510E+06  6.640300E+05 -1.767644E+05 -1.354626E+04 -2.844666E+05
        28  20  2.371300E+05  1.676382E+06  4.217397E+05 -6.786889E+04 -4.191224E+04 -1.705417E+05
        28  21  2.228772E+05  1.634618E+06  3.396542E+05 -7.926103E+03 -4.155836E+04 -5.662724E+04
        28  22  3.081563E+05  6.635147E+05  3.816478E+05 -5.241009E+04 -1.361159E+04 -2.544112E+05
        28  23 -2.423260E+04  6.145710E+05  1.756912E+05 -2.801824E+04 -4.193461E+04 -1.606611E+05
        28  24 -1.564834E+04  6.636490E+05  1.161320E+05 -5.256456E+04 -4.154684E+04 -6.690082E+04
        28  25  2.071339E+04 -4.912299E+05  9.917984E+04  7.171288E+04 -1.366501E+04 -2.244111E+05
        28  26 -2.856685E+05 -4.461977E+05 -7.043162E+04  1.176410E+04 -4.195573E+04 -1.507971E+05
        28  27 -2.542321E+05 -3.064450E+05 -1.074512E+05 -9.713253E+04 -4.153385E+04 -7.715843E+04
        29   1  2.396186E+05  1.526123E+06  3.043935E+05 -6.450248E+04  3.557667E+04  4.763614E+04
        29   2  1.903847E+05  1.426755E+06  2.573040E+05 -2.948760E+04  3.284437E+04  8.223696E+03
        29   3  1.886351E+05  1.344546E+06  2.477430E+05 -4.355586E+04  2.821163E+04 -3.119112E+04
        29   4  2.296777E+04  6.456506E+05  1.007039E+05 -5.252790E+04  3.557927E+04  4.887151E+04
        29   5 -3.796181E+03  6.372029E+05  7.504509E+04 -2.798788E+04  3.284279E+04  1.082961E+04
        29   6  1.672125E+04  6.456905E+05  8.599836E+04 -5.253331E+04  2.820606E+04 -2.722030E+04
        29   7 -1.937369E+05 -2.341071E+05 -1.030374E+05 -4.057012E+04  3.558192E+04  5.010511E+04
        29   8 -1.980207E+05 -1.517743E+05 -1.072553E+05 -2.648981E+04  3.284122E+04  1.343224E+04
        29   9 -1.552266E+05 -5.271442E+04 -7.577883E+04 -6.150036E+04  2.820038E+04 -2.325389E+04
        29  10  2.396166E+05  1.526121E+06  3.043869E+05 -6.450384E+04 -1.067254E-09  9.714638E-10
        29  11  1.903835E+05  1.426755E+06  2.573019E+05 -2.948782E+04 -1.562502E-09  1.399532E-10
        29  12  1.886340E+05  1.344545E+06  2.477397E+05 -4.355515E+04 -7.395372E-10 -1.918587E-09
        29  13  2.296577E+04  6.456477E+05  1.006971E+05 -5.252930E+04  1.228173E-09 -3.751598E-10
        29  14 -3.797371E+03  6.372025E+05  7.504284E+04 -2.798816E+04  3.913987E-10  4.262613E-10
        29  15  1.672020E+04  6.456895E+05  8.599547E+04 -5.253270E+04  1.805129E-09 -1.029357E-09
        29  16 -1.937390E+05 -2.341101E+05 -1.030445E+05 -4.057156E+04 -5.075724E-10 -6.053126E-10
        29  17 -1.980219E+05 -1.517747E+05 -1.072577E+05 -2.649017E+04  4.334535E-09 -1.761850E-10
        29  18 -1.552276E+05 -5.271522E+04 -7.578134E+04 -6.149983E+04 -2.117735E-09  2.056870E-09
        29  19  2.396186E+05  1.526123E+06  3.043935E+05 -6.450248E+04 -3.557667E+04 -4.763614E+04
        29  20  1.903847E+05  1.426755E+06  2.573040E+05 -2.948760E+04 -3.284437E+04 -8.223696E+03
        29  21  1.886351E+05  1.344546E+06  2.477430E+05 -4.355586E+04 -2.821163E+04  3.119112E+04
        29  22  2.296777E+04  6.456506E+05  1.007039E+05 -5.252790E+04 -3.557927E+04 -4.887151E+04
        29  23 -3.796181E+03  6.372029E+05  7.504509E+04 -2.798788E+04 -3.284279E+04 -1.082961E+04
        29  24  1.672125E+04  6.456905E+05  8.599836E+04 -5.253331E+04 -2.820606E+04  2.722030E+04
        29  25 -1.937369E+05 -2.341071E+05 -1.030374E+05 -4.057012E+04 -3.558192E+04 -5.010511E+04
        29  26 -1.980207E+05 -1.517743E+05 -1.072553E+05 -2.648981E+04 -3.284122E+04 -1.343224E+04
        29  27 -1.552266E+05 -5.271442E+04 -7.577883E+04 -6.150036E+04 -2.820038E+04  2.325389E+04
        30   1  1.393796E+05  1.268244E+06  2.351144E+05 -8.761223E+04  2.664569E+04 -4.298311E+04
        30   2  1.098556E+05  1.141746E+06  2.553252E+05  4.691245E+02  2.127451E+04 -1.214353E+05
        30   3  3.370819E+05  1.089499E+06  3.907200E+05  4.011205E+04  6.597800E+03 -1.999034E+05
        30   4 -1.074618E+04  6.582244E+05  9.477613E+04 -5.256671E+04  2.664369E+04 -4.233458E+04
        30   5 -1.796580E+04  6.216330E+05  1.349760E+05 -2.804662E+04  2.126390E+04 -1.142591E+05
        30   6  2.305275E+05  6.581852E+05  2.858818E+05 -5.196196E+04  6.591037E+03 -1.862094E+05
        30   7 -1.608935E+05  4.855137E+04 -4.558618E+04 -1.755563E+04  2.664176E+04 -4.168667E+04
        30   8 -1.458030E+05  1.017713E+05  1.460925E+04 -5.653819E+04  2.125262E+04 -1.070889E+05
        30   9  1.239916E+05  2.270600E+05  1.810356E+05 -1.439719E+05  6.580222E+03 -1.725247E+05
        30  10  1.393784E+05  1.268241E+06  2.351096E+05 -8.761130E+04  2.337564E-09  1.192154E-09
        30  11  1.098511E+05  1.141730E+06  2.552967E+05  4.712037E+02  2.674792E-09 -2.004196E-11
        30  12  3.370711E+05  1.089456E+06  3.906449E+05  4.011311E+04 -5.782012E-10 -1.690273E-09
        30  13 -1.074742E+04  6.582223E+05  9.477143E+04 -5.256580E+04 -4.048918E-10 -6.012925E-10
        30  14 -1.796979E+04  6.216189E+05  1.349506E+05 -2.804467E+04  1.990519E-09  5.517641E-10
        30  15  2.305181E+05  6.581480E+05  2.858167E+05 -5.196097E+04  8.133282E-10 -1.416018E-09
        30  16 -1.608947E+05  4.854932E+04 -4.559078E+04 -1.755474E+04 -1.565672E-09 -6.328338E-10
        30  17 -1.458066E+05  1.017589E+05  1.458685E+04 -5.653635E+04 -2.678999E-09 -9.716023E-11
        30  18  1.239836E+05  2.270281E+05  1.809796E+05 -1.439709E+05  1.891712E-10  1.904358E-09
        30  19  1.393796E+05  1.268244E+06  2.351144E+05 -8.761223E+04 -2.664569E+04  4.298311E+04
        30  20  1.098556E+05  1.141746E+06  2.553252E+05  4.691245E+02 -2.127451E+04  1.214353E+05
        30  21  3.370819E+05  1.089499E+06  3.907200E+05  4.011205E+04 -6.597800E+03  1.999034E+05
        30  22 -1.074618E+04  6.582244E+05  9.477613E+04 -5.256671E+04 -2.664369E+04  4.233458E+04
        30  23 -1.796580E+04  6.216330E+05  1.349760E+05 -2.804662E+04 -2.126390E+04  1.142591E+05
        30  24  2.305275E+05  6.581852E+05  2.858818E+05 -5.196196E+04 -6.591037E+03  1.862094E+05
        30  25 -1.608935E+05  4.855137E+04 -4.558618E+04 -1.755563E+04 -2.664176E+04  4.168667E+04
        30  26 -1.458030E+05  1.017713E+05  1.460925E+04 -5.653819E+04 -2.125262E+04  1.070889E+05
        30  27  1.239916E+05  2.270600E+05  1.810356E+05 -1.439719E+05 -6.580222E+03  1.725247E+05
        31   1 -1.608099E+06 -3.647622E+05 -1.424841E+05 -6.030867E+05 -7.553013E+04 -2.689305E+04
        31   2 -1.584497E+06 -2.477132E+05 -7.079804E+04 -6.043736E+05 -4.826886E+04 -1.394246E+04
        31   3 -1.593514E+06 -2.339050E+05 -4.639515E+04 -5.892520E+05 -1.990493E+04 -3.931302E+03
        31   4 -1.526371E+06 -3.020614E+05 -1.141309E+05 -5.480122E+05 -7.302305E+04 -2.595786E+04
        31   5 -1.504193E+06 -2.077777E+05 -4.840301E+04 -5.722688E+05 -4.767134E+04 -1.371943E+04
        31   6 -1.514249E+06 -2.163493E+05 -2.843786E+04 -5.801189E+05 -2.121699E+04 -4.422704E+03
        31   7 -1.444635E+06 -2.393522E+05 -8.577836E+04 -4.929297E+05 -7.051565E+04 -2.502221E+04
        31   8 -1.423882E+06 -1.678405E+05 -2.600873E+04 -5.401600E+05 -4.707374E+04 -1.349635E+04
        31   9 -1.434977E+06 -1.987937E+05 -1.048088E+04 -5.709852E+05 -2.252923E+04 -4.914110E+03
        31  10 -1.608106E+06 -3.647645E+05 -1.424962E+05 -6.030884E+05 -1.634276E-09  5.024361E-11
        31  11 -1.584500E+06 -2.477140E+05 -7.080280E+04 -6.043741E+05  9.318799E-10 -1.939088E-10
        31  12 -1.593514E+06 -2.339051E+05 -4.639593E+04 -5.892521E+05 -1.347381E-09  3.634861E-10
        31  13 -1.526377E+06 -3.020636E+05 -1.141422E+05 -5.480137E+05 -1.873449E-09 -1.670019E-10
        31  14 -1.504195E+06 -2.077785E+05 -4.840765E+04 -5.722694E+05 -2.146261E-09 -1.800013E-10
        31  15 -1.514249E+06 -2.163494E+05 -2.843874E+04 -5.801190E+05  1.597030E-10  1.019074E-09
        31  16 -1.444640E+06 -2.393542E+05 -8.578891E+04 -4.929311E+05 -5.581976E-10 -6.398413E-10
        31  17 -1.423884E+06 -1.678413E+05 -2.601324E+04 -5.401605E+05 -1.626614E-10 -5.882819E-10
        31  18 -1.434978E+06 -1.987939E+05 -1.048189E+04 -5.709853E+05 -4.240604E-10  1.430052E-09
        31  19 -1.608099E+06 -3.647622E+05 -1.424841E+05 -6.030867E+05  7.553013E+04  2.689305E+04
        31  20 -1.584497E+06 -2.477132E+05 -7.079804E+04 -6.043736E+05  4.826886E+04  1.394246E+04
        31  21 -1.593514E+06 -2.339050E+05 -4.639515E+04 -5.892520E+05  1.990493E+04  3.931302E+03
        31  22 -1.526371E+06 -3.020614E+05 -1.141309E+05 -5.480122E+05  7.302305E+04  2.595786E+04
        31  23 -1.504193E+06 -2.077777E+05 -4.840301E+04 -5.722688E+05  4.767134E+04  1.371943E+04
        31  24 -1.514249E+06 -2.163493E+05 -2.843786E+04 -5.801189E+05  2.121699E+04  4.422704E+03
        31  25 -1.444635E+06 -2.393522E+05 -8.577836E+04 -4.929297E+05  7.051565E+04  2.502221E+04
        31  26 -1.423882E+06 -1.678405E+05 -2.600873E+04 -5.401600E+05  4.707374E+04  1.349635E+04
        31  27 -1.434977E+06 -1.987937E+05 -1.048088E+04 -5.709852E+05  2.252923E+04  4.914110E+03
        32   1 -1.561159E+06 -2.481696E+05 -3.625550E+04 -5.901814E+05 -1.663287E+04 -3.714892E+03
        32   2 -1.546170E+06 -2.290177E+05 -2.025379E+04 -5.820809E+05 -1.042372E+04 -2.196365E+03
        32   3 -1.527686E+06 -2.254276E+05 -1.091110E+04 -5.804735E+05 -4.152439E+03 -8.426369E+02
        32   4 -1.510530E+06 -2.269085E+05 -2.288093E+04 -5.739803E+05 -1.704130E+04 -3.868076E+03
        32   5 -1.511779E+06 -2.155484E+05 -1.136342E+04 -5.720770E+05 -1.093890E+04 -2.389486E+03
        32   6 -1.509512E+06 -2.197288E+05 -6.419722E+03 -5.766671E+05 -4.774598E+03 -1.075810E+03
        32   7 -1.459899E+06 -2.056470E+05 -9.506486E+03 -5.577778E+05 -1.744976E+04 -4.021279E+03
        32   8 -1.477386E+06 -2.020792E+05 -2.473169E+03 -5.620727E+05 -1.145411E+04 -2.582620E+03
        32   9 -1.491337E+06 -2.140300E+05 -1.928418E+03 -5.728606E+05 -5.396770E+03 -1.308985E+03
        32  10 -1.561160E+06 -2.481697E+05 -3.625604E+04 -5.901815E+05  1.640386E-09  9.103468E-10
        32  11 -1.546170E+06 -2.290177E+05 -2.025400E+04 -5.820809E+05 -2.286763E-10 -1.034319E-09
        32  12 -1.527686E+06 -2.254276E+05 -1.091113E+04 -5.804735E+05 -6.483093E-10 -4.680475E-10
        32  13 -1.510531E+06 -2.269086E+05 -2.288150E+04 -5.739804E+05  7.783893E-10  6.892795E-10
        32  14 -1.511779E+06 -2.155485E+05 -1.136366E+04 -5.720770E+05  1.152684E-09 -7.599480E-10
        32  15 -1.509512E+06 -2.197288E+05 -6.419767E+03 -5.766671E+05  1.144712E-09 -1.268823E-10
        32  16 -1.459899E+06 -2.056471E+05 -9.507090E+03 -5.577779E+05 -6.724979E-10  4.763828E-10
        32  17 -1.477387E+06 -2.020792E+05 -2.473429E+03 -5.620727E+05 -2.186463E-09 -5.494690E-10
        32  18 -1.491337E+06 -2.140300E+05 -1.928476E+03 -5.728606E+05  9.187043E-10 -4.671050E-11
        32  19 -1.561159E+06 -2.481696E+05 -3.625550E+04 -5.901814E+05  1.663287E+04  3.714892E+03
        32  20 -1.546170E+06 -2.290177E+05 -2.025379E+04 -5.820809E+05  1.042372E+04  2.196365E+03
        32  21 -1.527686E+06 -2.254276E+05 -1.091110E+04 -5.804735E+05  4.152439E+03  8.426369E+02
        32  22 -1.510530E+06 -2.269085E+05 -2.288093E+04 -5.739803E+05  1.704130E+04  3.868076E+03
        32  23 -1.511779E+06 -2.155484E+05 -1.136342E+04 -5.720770E+05  1.093890E+04  2.389486E+03
        32  24 -1.509512E+06 -2.197288E+05 -6.419722E+03 -5.766671E+05  4.774598E+03  1.075810E+03
        32  25 -1.459899E+06 -2.056470E+05 -9.506486E+03 -5.577778E+05  1.744976E+04  4.021279E+03
        32  26 -1.477386E+06 -2.020792E+05 -2.473169E+03 -5.620727E+05  1.145411E+04  2.582620E+03
        32  27 -1.491337E+06 -2.140300E+05 -1.928418E+03 -5.728606E+05  5.396770E+03  1.308985E+03
        33   1 -1.508089E+06 -2.203021E+05 -4.648004E+03 -5.759628E+05 -3.089027E+03 -1.061507E+03
        33   2 -1.494071E+06 -2.093546E+05  2.058189E+03 -5.670397E+05 -1.418974E+03 -1.443906E+03
        33   3 -1.473130E+06 -2.064745E+05  7.579084E+03 -5.664292E+05  2.535548E+02 -1.832683E+03
        33   4 -1.509109E+06 -2.205879E+05 -4.948736E+03 -5.761273E+05 -3.661876E+03 -1.276205E+03
        33   5 -1.512529E+06 -2.162640E+05 -2.651664E+03 -5.720794E+05 -1.995995E+03 -1.660181E+03
        33   6 -1.509026E+06 -2.200068E+05 -1.536479E+03 -5.763444E+05 -3.276743E+02 -2.050550E+03
        33   7 -1.510129E+06 -2.208736E+05 -5.249468E+03 -5.762918E+05 -4.234726E+03 -1.490903E+03
        33   8 -1.530988E+06 -2.231735E+05 -7.361586E+03 -5.771191E+05 -2.573003E+03 -1.876451E+03
        33   9 -1.544921E+06 -2.335392E+05 -1.065227E+04 -5.862591E+05 -9.088737E+02 -2.268406E+03
        33  10 -1.508089E+06 -2.203021E+05 -4.648024E+03 -5.759628E+05 -1.914600E-09  4.994331E-10
        33  11 -1.494071E+06 -2.093546E+05  2.058181E+03 -5.670397E+05 -1.993815E-09  7.690085E-10
        33  12 -1.473130E+06 -2.064746E+05  7.579078E+03 -5.664292E+05  1.965383E-09  9.668507E-10
        33  13 -1.509109E+06 -2.205879E+05 -4.948765E+03 -5.761273E+05  8.733199E-10  5.781635E-10
        33  14 -1.512529E+06 -2.162640E+05 -2.651677E+03 -5.720794E+05 -2.409505E-09  6.909669E-10
        33  15 -1.509026E+06 -2.200068E+05 -1.536487E+03 -5.763444E+05 -1.224127E-09  6.036619E-10
        33  16 -1.510129E+06 -2.208736E+05 -5.249506E+03 -5.762918E+05 -1.024468E-10  9.559904E-10
        33  17 -1.530988E+06 -2.231735E+05 -7.361605E+03 -5.771191E+05 -3.038831E-10  8.386851E-10
        33  18 -1.544921E+06 -2.335392E+05 -1.065228E+04 -5.862591E+05  1.770659E-10 -1.407022E-10
        33  19 -1.508089E+06 -2.203021E+05 -4.648004E+03 -5.759628E+05  3.089027E+03  1.061507E+03
        33  20 -1.494071E+06 -2.093546E+05  2.058189E+03 -5.670397E+05  1.418974E+03  1.443906E+03
        33  21 -1.473130E+06 -2.064745E+05  7.579084E+03 -5.664292E+05 -2.535548E+02  1.832683E+03
        33  22 -1.509109E+06 -2.205879E+05 -4.948736E+03 -5.761273E+05  3.661876E+03  1.276205E+03
        33  23 -1.512529E+06 -2.162640E+05 -2.651664E+03 -5.720794E+05  1.995995E+03  1.660181E+03
        33  24 -1.509026E+06 -2.200068E+05 -1.536479E+03 -5.763444E+05  3.276743E+02  2.050550E+03
        33  25 -1.510129E+06 -2.208736E+05 -5.249468E+03 -5.762918E+05  4.234726E+03  1.490903E+03
        33  26 -1.530988E+06 -2.231735E+05 -7.361586E+03 -5.771191E+05  2.573003E+03  1.876451E+03
        33  27 -1.544921E+06 -2.335392E+05 -1.065227E+04 -5.862591E+05  9.088737E+02  2.268406E+03
        34   1 -1.454876E+06 -1.997778E+05  1.266045E+04 -5.614968E+05  6.688483E+02 -2.268332E+03
        34   2 -1.441177E+06 -1.896325E+05  1.740602E+04 -5.526161E+05  1.403750E+03 -3.000557E+03
        34   3 -1.420289E+06 -1.868219E+05  2.183372E+04 -5.520618E+05  2.136754E+03 -3.727382E+03
        34   4 -1.508997E+06 -2.200492E+05 -1.214502E+03 -5.762709E+05  9.251858E+01 -2.484380E+03
        34   5 -1.512588E+06 -2.163636E+05 -8.156360E+02 -5.721145E+05  8.308755E+02 -3.215347E+03
        34   6 -1.508992E+06 -2.200134E+05 -7.373166E+02 -5.762845E+05  1.567325E+03 -3.940918E+03
        34   7 -1.563114E+06 -2.403201E+05 -1.508953E+04 -5.910438E+05 -4.837498E+02 -2.700406E+03
        34   8 -1.583994E+06 -2.430942E+05 -1.903758E+04 -5.916108E+05  2.580771E+02 -3.430108E+03
        34   9 -1.597688E+06 -2.532044E+05 -2.330895E+04 -6.005041E+05  9.979858E+02 -4.154420E+03
        34  10 -1.454876E+06 -1.997779E+05  1.266044E+04 -5.614968E+05 -1.583514E-09  5.163478E-10
        34  11 -1.441177E+06 -1.896325E+05  1.740600E+04 -5.526161E+05 -1.078066E-10  4.297847E-10
        34  12 -1.420290E+06 -1.868219E+05  2.183368E+04 -5.520618E+05 -6.053896E-10 -3.658980E-10
        34  13 -1.508997E+06 -2.200492E+05 -1.214514E+03 -5.762709E+05 -1.193407E-09  6.622554E-10
        34  14 -1.512588E+06 -2.163636E+05 -8.156568E+02 -5.721145E+05  9.646110E-10  5.135265E-10
        34  15 -1.508992E+06 -2.200134E+05 -7.373504E+02 -5.762845E+05  1.261901E-09 -5.159627E-10
        34  16 -1.563114E+06 -2.403201E+05 -1.508954E+04 -5.910438E+05  4.877777E-10  6.327037E-10
        34  17 -1.583994E+06 -2.430943E+05 -1.903761E+04 -5.916108E+05 -6.934534E-10  1.223555E-09
        34  18 -1.597688E+06 -2.532044E+05 -2.330898E+04 -6.005041E+05 -1.582437E-09 -1.281171E-09
        34  19 -1.454876E+06 -1.997778E+05  1.266045E+04 -5.614968E+05 -6.688483E+02  2.268332E+03
        34  20 -1.441177E+06 -1.896325E+05  1.740602E+04 -5.526161E+05 -1.403750E+03  3.000557E+03
        34  21 -1.420289E+06 -1.868219E+05  2.183372E+04 -5.520618E+05 -2.136754E+03  3.727382E+03
        34  22 -1.508997E+06 -2.200492E+05 -1.214502E+03 -5.762709E+05 -9.251858E+01  2.484380E+03
        34  23 -1.512588E+06 -2.163636E+05 -8.156360E+02 -5.721145E+05 -8.308755E+02  3.215347E+03
        34  24 -1.508992E+06 -2.200134E+05 -7.373166E+02 -5.762845E+05 -1.567325E+03  3.940918E+03
        34  25 -1.563114E+06 -2.403201E+05 -1.508953E+04 -5.910438E+05  4.837498E+02  2.700406E+03
        34  26 -1.583994E+06 -2.430942E+05 -1.903758E+04 -5.916108E+05 -2.580771E+02  3.430108E+03
        34  27 -1.597688E+06 -2.532044E+05 -2.330895E+04 -6.005041E+05 -9.979858E+02  4.154420E+03
        35   1 -1.402493E+06 -1.800942E+05  2.645553E+04 -5.471715E+05  2.449278E+03 -4.189410E+03
        35   2 -1.389170E+06 -1.702588E+05  3.034576E+04 -5.385122E+05  3.327455E+03 -4.843805E+03
        35   3 -1.368884E+06 -1.675932E+05  3.379861E+04 -5.379414E+05  4.201228E+03 -5.485787E+03
        35   4 -1.509042E+06 -2.199659E+05 -7.919231E+02 -5.762363E+05  1.884316E+03 -4.401308E+03
        35   5 -1.512529E+06 -2.164178E+05 -1.126981E+03 -5.721780E+05  2.770416E+03 -5.052803E+03
        35   6 -1.509054E+06 -2.200414E+05 -1.905838E+03 -5.762087E+05  3.652094E+03 -5.691887E+03
        35   7 -1.615580E+06 -2.598370E+05 -2.804042E+04 -6.052967E+05  1.319458E+03 -4.613167E+03
        35   8 -1.635873E+06 -2.625759E+05 -3.260103E+04 -6.058379E+05  2.213498E+03 -5.261755E+03
        35   9 -1.649205E+06 -2.724884E+05 -3.761189E+04 -6.144682E+05  3.103097E+03 -5.897936E+03
        35  10 -1.402493E+06 -1.800942E+05  2.645549E+04 -5.471715E+05 -2.427794E-09 -1.108783E-09
        35  11 -1.389170E+06 -1.702588E+05  3.034570E+04 -5.385122E+05 -3.206465E-10  1.112015E-09
        35  12 -1.368884E+06 -1.675933E+05  3.379852E+04 -5.379414E+05 -1.949474E-09  4.680726E-10
        35  13 -1.509042E+06 -2.199659E+05 -7.919661E+02 -5.762363E+05 -4.488368E-11 -1.141568E-09
        35  14 -1.512529E+06 -2.164178E+05 -1.127043E+03 -5.721780E+05  8.253482E-10  7.776035E-10
        35  15 -1.509054E+06 -2.200415E+05 -1.905924E+03 -5.762087E+05 -7.324804E-11  7.128997E-10
        35  16 -1.615580E+06 -2.598371E+05 -2.804046E+04 -6.052966E+05  2.823089E-09 -5.924504E-10
        35  17 -1.635873E+06 -2.625760E+05 -3.260109E+04 -6.058379E+05  3.453783E-09  5.109150E-10
        35  18 -1.649205E+06 -2.724884E+05 -3.761197E+04 -6.144681E+05 -1.655365E-10  6.983128E-10
        35  19 -1.402493E+06 -1.800942E+05  2.645553E+04 -5.471715E+05 -2.449278E+03  4.189410E+03
        35  20 -1.389170E+06 -1.702588E+05  3.034576E+04 -5.385122E+05 -3.327455E+03  4.843805E+03
        35  21 -1.368884E+06 -1.675932E+05  3.379861E+04 -5.379414E+05 -4.201228E+03  5.485787E+03
        35  22 -1.509042E+06 -2.199659E+05 -7.919231E+02 -5.762363E+05 -1.884316E+03  4.401308E+03
        35  23 -1.512529E+06 -2.164178E+05 -1.126981E+03 -5.721780E+05 -2.770416E+03  5.052803E+03
        35  24 -1.509054E+06 -2.200414E+05 -1.905838E+03 -5.762087E+05 -3.652094E+03  5.691887E+03
        35  25 -1.615580E+06 -2.598370E+05 -2.804042E+04 -6.052967E+05 -1.319458E+03  4.613167E+03
        35  26 -1.635873E+06 -2.625759E+05 -3.260103E+04 -6.058379E+05 -2.213498E+03  5.261755E+03
        35  27 -1.649205E+06 -2.724884E+05 -3.761189E+04 -6.144682E+05 -3.103097E+03  5.897936E+03
        36   1 -1.351727E+06 -1.610861E+05  3.773155E+04 -5.334021E+05  4.745743E+03 -5.843043E+03
        36   2 -1.338879E+06 -1.514465E+05  3.985465E+04 -5.248886E+05  7.245376E+03 -5.846307E+03
        36   3 -1.319966E+06 -1.497524E+05  4.003765E+04 -5.239070E+05  9.731030E+03 -5.811368E+03
        36   4 -1.509207E+06 -2.198674E+05 -2.479309E+03 -5.762159E+05  4.196477E+03 -6.049245E+03
        36   5 -1.512308E+06 -2.163846E+05 -4.400054E+03 -5.722658E+05  6.720295E+03 -6.043528E+03
        36   6 -1.509349E+06 -2.208523E+05 -8.280501E+03 -5.758479E+05  9.230079E+03 -5.999624E+03
        36   7 -1.666662E+06 -2.786469E+05 -4.269202E+04 -6.190196E+05  3.647366E+03 -6.255389E+03
        36   8 -1.685708E+06 -2.813207E+05 -4.865720E+04 -6.196311E+05  6.195374E+03 -6.240688E+03
        36   9 -1.698699E+06 -2.919502E+05 -5.660176E+04 -6.277745E+05  8.729294E+03 -6.187818E+03
        36  10 -1.351727E+06 -1.610861E+05  3.773144E+04 -5.334021E+05 -4.305066E-10 -1.997564E-10
        36  11 -1.338879E+06 -1.514465E+05  3.985449E+04 -5.248885E+05  6.059378E-10 -3.561377E-10
        36  12 -1.319966E+06 -1.497525E+05  4.003741E+04 -5.239070E+05  1.286748E-10 -3.930847E-10
        36  13 -1.509207E+06 -2.198674E+05 -2.479411E+03 -5.762158E+05  4.314739E-11 -1.532565E-10
        36  14 -1.512308E+06 -2.163846E+05 -4.400207E+03 -5.722658E+05  2.331266E-09 -7.395460E-10
        36  15 -1.509350E+06 -2.208524E+05 -8.280729E+03 -5.758478E+05  8.472556E-10 -3.667699E-10
        36  16 -1.666662E+06 -2.786470E+05 -4.269212E+04 -6.190196E+05  4.704799E-10 -1.449575E-11
        36  17 -1.685708E+06 -2.813208E+05 -4.865735E+04 -6.196310E+05  2.482311E-09 -9.005953E-10
        36  18 -1.698699E+06 -2.919502E+05 -5.660198E+04 -6.277745E+05  1.775329E-10 -4.761670E-10
        36  19 -1.351727E+06 -1.610861E+05  3.773155E+04 -5.334021E+05 -4.745743E+03  5.843043E+03
        36  20 -1.338879E+06 -1.514465E+05  3.985465E+04 -5.248886E+05 -7.245376E+03  5.846307E+03
        36  21 -1.319966E+06 -1.497524E+05  4.003765E+04 -5.239070E+05 -9.731030E+03  5.811368E+03
        36  22 -1.509207E+06 -2.198674E+05 -2.479309E+03 -5.762159E+05 -4.196477E+03  6.049245E+03
        36  23 -1.512308E+06 -2.163846E+05 -4.400054E+03 -5.722658E+05 -6.720295E+03  6.043528E+03
        36  24 -1.509349E+06 -2.208523E+05 -8.280501E+03 -5.758479E+05 -9.230079E+03  5.999624E+03
        36  25 -1.666662E+06 -2.786469E+05 -4.269202E+04 -6.190196E+05 -3.647366E+03  6.255389E+03
        36  26 -1.685708E+06 -2.813207E+05 -4.865720E+04 -6.196311E+05 -6.195374E+03  6.240688E+03
        36  27 -1.698699E+06 -2.919502E+05 -5.660176E+04 -6.277745E+05 -8.729294E+03  6.187818E+03
        37   1 -1.302929E+06 -1.435873E+05  4.181367E+04 -5.219662E+05  1.156449E+04 -5.711215E+03
        37   2 -1.290779E+06 -1.317971E+05  3.731230E+04 -5.111462E+05  2.135923E+04 -2.869592E+03
        37   3 -1.278607E+06 -1.400687E+05  2.200497E+04 -5.043594E+05  3.099343E+04  4.005893E+02
        37   4 -1.510107E+06 -2.193259E+05 -1.075751E+04 -5.766592E+05  1.094677E+04 -5.943341E+03
        37   5 -1.510949E+06 -2.152940E+05 -1.907334E+04 -5.723824E+05  2.101681E+04 -2.998526E+03
        37   6 -1.511826E+06 -2.313820E+05 -3.841664E+04 -5.721388E+05  3.092602E+04  3.747227E+02
        37   7 -1.717243E+06 -2.950623E+05 -6.333213E+04 -6.313358E+05  1.032928E+04 -6.175387E+03
        37   8 -1.731071E+06 -2.987874E+05 -7.546283E+04 -6.335986E+05  2.067451E+04 -3.127408E+03
        37   9 -1.744991E+06 -3.226901E+05 -9.884255E+04 -6.398943E+05  3.085863E+04  3.488669E+02
        37  10 -1.302930E+06 -1.435873E+05  4.181336E+04 -5.219661E+05  1.210371E-09 -3.244435E-10
        37  11 -1.290780E+06 -1.317973E+05  3.731143E+04 -5.111462E+05 -3.002736E-09 -6.544042E-10
        37  12 -1.278608E+06 -1.400689E+05  2.200316E+04 -5.043594E+05 -2.190655E-09 -1.137316E-09
        37  13 -1.510107E+06 -2.193260E+05 -1.075780E+04 -5.766591E+05 -7.724011E-10  1.142169E-10
        37  14 -1.510950E+06 -2.152942E+05 -1.907418E+04 -5.723823E+05  7.672633E-10 -4.574122E-10
        37  15 -1.511827E+06 -2.313823E+05 -3.841844E+04 -5.721388E+05 -3.482963E-09 -7.285677E-10
        37  16 -1.717243E+06 -2.950624E+05 -6.333240E+04 -6.313357E+05 -1.894534E-11  2.685792E-10
        37  17 -1.731072E+06 -2.987875E+05 -7.546365E+04 -6.335985E+05 -2.540021E-10  1.220870E-10
        37  18 -1.744992E+06 -3.226904E+05 -9.884435E+04 -6.398943E+05 -1.230195E-09 -9.404192E-10
        37  19 -1.302929E+06 -1.435873E+05  4.181367E+04 -5.219662E+05 -1.156449E+04  5.711215E+03
        37  20 -1.290779E+06 -1.317971E+05  3.731230E+04 -5.111462E+05 -2.135923E+04  2.869592E+03
        37  21 -1.278607E+06 -1.400687E+05  2.200497E+04 -5.043594E+05 -3.099343E+04 -4.005893E+02
        37  22 -1.510107E+06 -2.193259E+05 -1.075751E+04 -5.766592E+05 -1.094677E+04  5.943341E+03
        37  23 -1.510949E+06 -2.152940E+05 -1.907334E+04 -5.723824E+05 -2.101681E+04  2.998526E+03
        37  24 -1.511826E+06 -2.313820E+05 -3.841664E+04 -5.721388E+05 -3.092602E+04 -3.747227E+02
        37  25 -1.717243E+06 -2.950623E+05 -6.333213E+04 -6.313358E+05 -1.032928E+04  6.175387E+03
        37  26 -1.731071E+06 -2.987874E+05 -7.546283E+04 -6.335986E+05 -2.067451E+04  3.127408E+03
        37  27 -1.744991E+06 -3.226901E+05 -9.884255E+04 -6.398943E+05 -3.085863E+04 -3.488669E+02
        38   1 -1.251983E+06 -1.342433E+05  1.623610E+04 -5.305497E+05  4.023032E+04  2.312188E+03
        38   2 -1.245321E+06 -9.093368E+04 -1.349317E+04 -4.865380E+05  7.944582E+04  1.719761E+04
        38   3 -1.298158E+06 -2.129315E+05 -1.162161E+05 -4.076223E+05  1.158732E+05  3.950444E+04
        38   4 -1.518131E+06 -2.135880E+05 -4.774909E+04 -5.823746E+05  3.788977E+04  1.433798E+03
        38   5 -1.498116E+06 -2.023483E+05 -8.127976E+04 -5.728172E+05  8.191328E+04  1.812222E+04
        38   6 -1.538585E+06 -3.574185E+05 -1.916443E+05 -5.283482E+05  1.231486E+05  4.222790E+04
        38   7 -1.784210E+06 -2.929338E+05 -1.117394E+05 -6.341824E+05  3.555031E+04  5.556240E+02
        38   8 -1.750848E+06 -3.137518E+05 -1.490720E+05 -6.590620E+05  8.437963E+04  1.904626E+04
        38   9 -1.778948E+06 -5.018690E+05 -2.670773E+05 -6.490230E+05  1.304208E+05  4.494859E+04
        38  10 -1.251985E+06 -1.342437E+05  1.623304E+04 -5.305498E+05 -2.467962E-09 -1.195342E-09
        38  11 -1.245328E+06 -9.093569E+04 -1.350561E+04 -4.865391E+05 -2.894037E-09 -2.276260E-10
        38  12 -1.298173E+06 -2.129368E+05 -1.162443E+05 -4.076260E+05 -9.622077E-10 -3.997858E-11
        38  13 -1.518132E+06 -2.135884E+05 -4.775180E+04 -5.823747E+05 -3.519476E-09 -1.255294E-09
        38  14 -1.498124E+06 -2.023505E+05 -8.129302E+04 -5.728184E+05 -3.555432E-09  1.797407E-11
        38  15 -1.538602E+06 -3.574245E+05 -1.916762E+05 -5.283524E+05  1.147435E-09 -1.306211E-09
        38  16 -1.784211E+06 -2.929341E+05 -1.117418E+05 -6.341824E+05 -9.654325E-10 -1.013719E-09
        38  17 -1.750856E+06 -3.137541E+05 -1.490861E+05 -6.590633E+05 -3.105671E-10 -2.094481E-10
        38  18 -1.778967E+06 -5.018757E+05 -2.671132E+05 -6.490277E+05 -3.664524E-10  9.367561E-11
        38  19 -1.251983E+06 -1.342433E+05  1.623610E+04 -5.305497E+05 -4.023032E+04 -2.312188E+03
        38  20 -1.245321E+06 -9.093368E+04 -1.349317E+04 -4.865380E+05 -7.944582E+04 -1.719761E+04
        38  21 -1.298158E+06 -2.129315E+05 -1.162161E+05 -4.076223E+05 -1.158732E+05 -3.950444E+04
        38  22 -1.518131E+06 -2.135880E+05 -4.774909E+04 -5.823746E+05 -3.788977E+04 -1.433798E+03
        38  23 -1.498116E+06 -2.023483E+05 -8.127976E+04 -5.728172E+05 -8.191328E+04 -1.812222E+04
        38  24 -1.538585E+06 -3.574185E+05 -1.916443E+05 -5.283482E+05 -1.231486E+05 -4.222790E+04
        38  25 -1.784210E+06 -2.929338E+05 -1.117394E+05 -6.341824E+05 -3.555031E+04 -5.556240E+02
        38  26 -1.750848E+06 -3.137518E+05 -1.490720E+05 -6.590620E+05 -8.437963E+04 -1.904626E+04
        38  27 -1.778948E+06 -5.018690E+05 -2.670773E+05 -6.490230E+05 -1.304208E+05 -4.494859E+04
        39   1 -2.070429E+05  7.434148E+04  9.171544E+04  2.977424E+04  6.286083E+04  3.015709E+00
        39   2 -2.186961E+05 -5.760886E+03  4.090200E+04  9.428587E+03  4.098198E+04  6.226043E-01
        39   3 -2.070531E+05 -4.088928E+03  2.478168E+04 -1.091662E+04  1.910301E+04 -3.360118E-01
        39   4 -2.070439E+05  7.433981E+04  9.171520E+04  2.692478E-09  6.286083E+04  4.500168E-10
        39   5 -2.186962E+05 -5.761053E+03  4.090198E+04  3.353042E-10  4.098198E+04  1.562808E-09
        39   6 -2.070532E+05 -4.089152E+03  2.478165E+04 -9.448841E-10  1.910301E+04  1.264118E-09
        39   7 -2.070429E+05  7.434148E+04  9.171544E+04 -2.977424E+04  6.286083E+04 -3.015709E+00
        39   8 -2.186961E+05 -5.760886E+03  4.090200E+04 -9.428587E+03  4.098198E+04 -6.226043E-01
        39   9 -2.070531E+05 -4.088928E+03  2.478168E+04  1.091662E+04  1.910301E+04  3.360118E-01
        39  10 -2.070472E+05  7.434041E+04  9.170801E+04  2.977424E+04 -1.136492E-10  2.671065E-10
        39  11 -2.186979E+05 -5.761337E+03  4.089884E+04  9.428587E+03  1.010473E-09  6.971286E-10
        39  12 -2.070535E+05 -4.089026E+03  2.478099E+04 -1.091662E+04  1.269872E-10  2.286200E-10
        39  13 -2.070481E+05  7.433875E+04  9.170778E+04  7.112608E-09 -8.412516E-12  3.283558E-10
        39  14 -2.186980E+05 -5.761504E+03  4.089882E+04 -1.475862E-08 -4.160812E-10  7.461850E-10
        39  15 -2.070536E+05 -4.089250E+03  2.478096E+04  1.056363E-09 -2.293528E-09  2.707181E-11
        39  16 -2.070472E+05  7.434041E+04  9.170801E+04 -2.977424E+04 -4.164067E-10  3.757249E-10
        39  17 -2.186979E+05 -5.761337E+03  4.089884E+04 -9.428587E+03  1.235144E-09  7.474295E-10
        39  18 -2.070535E+05 -4.089026E+03  2.478099E+04  1.091662E+04 -1.167441E-09 -1.789529E-10
        39  19 -2.070429E+05  7.434148E+04  9.171544E+04  2.977424E+04 -6.286083E+04 -3.015709E+00
        39  20 -2.186961E+05 -5.760886E+03  4.090200E+04  9.428587E+03 -4.098198E+04 -6.226043E-01
        39  21 -2.070531E+05 -4.088928E+03  2.478168E+04 -1.091662E+04 -1.910301E+04  3.360118E-01
        39  22 -2.070439E+05  7.433981E+04  9.171520E+04  2.922208E-09 -6.286083E+04  2.194835E-10
        39  23 -2.186962E+05 -5.761053E+03  4.090198E+04 -8.315875E-09 -4.098198E+04 -8.995896E-11
        39  24 -2.070532E+05 -4.089152E+03  2.478165E+04  6.378442E-10 -1.910301E+04 -1.205973E-09
        39  25 -2.070429E+05  7.434148E+04  9.171544E+04 -2.977424E+04 -6.286083E+04  3.015709E+00
        39  26 -2.186961E+05 -5.760886E+03  4.090200E+04 -9.428587E+03 -4.098198E+04  6.226043E-01
        39  27 -2.070531E+05 -4.088928E+03  2.478168E+04  1.091662E+04 -1.910301E+04 -3.360118E-01
        40   1 -2.117132E+05  5.787178E+03  1.998170E+04  1.939874E+03  1.542237E+04  4.820504E-02
        40   2 -2.128731E+05 -5.207279E+02  1.051083E+04  4.850626E+02  1.009813E+04  7.892356E-03
        40   3 -2.117144E+05 -3.286993E+02  6.132203E+03 -9.697307E+02  4.773996E+03 -7.459338E-03
        40   4 -2.117132E+05  5.787171E+03  1.998170E+04 -7.849981E-09  1.542237E+04  6.399915E-10
        40   5 -2.128731E+05 -5.207283E+02  1.051083E+04 -7.435849E-09  1.009813E+04 -1.447747E-10
        40   6 -2.117144E+05 -3.287011E+02  6.132202E+03 -3.522397E-09  4.773996E+03 -2.141485E-10
        40   7 -2.117132E+05  5.787178E+03  1.998170E+04 -1.939874E+03  1.542237E+04 -4.820503E-02
        40   8 -2.128731E+05 -5.207279E+02  1.051083E+04 -4.850626E+02  1.009813E+04 -7.892357E-03
        40   9 -2.117144E+05 -3.286993E+02  6.132203E+03  9.697307E+02  4.773996E+03  7.459337E-03
        40  10 -2.117134E+05  5.787114E+03  1.998125E+04  1.939874E+03 -4.322044E-10  6.655530E-11
        40  11 -2.128732E+05 -5.207553E+02  1.051064E+04  4.850626E+02  6.237628E-10  1.835327E-10
        40  12 -2.117144E+05 -3.287054E+02  6.132160E+03 -9.697307E+02 -4.471942E-10 -4.720412E-10
        40  13 -2.117134E+05  5.787107E+03  1.998125E+04 -1.422924E-08 -1.068485E-09 -1.507298E-10
        40  14 -2.128732E+05 -5.207557E+02  1.051064E+04 -1.069145E-08 -3.230674E-09  7.558434E-11
        40  15 -2.117144E+05 -3.287072E+02  6.132159E+03 -7.154750E-09 -1.040970E-09 -5.793957E-10
        40  16 -2.117134E+05  5.787114E+03  1.998125E+04 -1.939874E+03 -1.726283E-09 -3.566847E-10
        40  17 -2.128732E+05 -5.207553E+02  1.051064E+04 -4.850626E+02 -8.714675E-10 -6.226398E-11
        40  18 -2.117144E+05 -3.287054E+02  6.132160E+03  9.697307E+02 -1.761105E-09 -6.922333E-10
        40  19 -2.117132E+05  5.787178E+03  1.998170E+04  1.939874E+03 -1.542237E+04 -4.820504E-02
        40  20 -2.128731E+05 -5.207279E+02  1.051083E+04  4.850626E+02 -1.009813E+04 -7.892356E-03
        40  21 -2.117144E+05 -3.286993E+02  6.132203E+03 -9.697307E+02 -4.773996E+03  7.459337E-03
        40  22 -2.117132E+05  5.787171E+03  1.998170E+04 -3.379735E-09 -1.542237E+04 -9.368207E-10
        40  23 -2.128731E+05 -5.207283E+02  1.051083E+04 -1.394916E-08 -1.009813E+04  3.098924E-10
        40  24 -2.117144E+05 -3.287011E+02  6.132202E+03 -1.105632E-08 -4.773996E+03 -9.398130E-10
        40  25 -2.117132E+05  5.787178E+03  1.998170E+04 -1.939874E+03 -1.542237E+04  4.820503E-02
        40  26 -2.128731E+05 -5.207279E+02  1.051083E+04 -4.850626E+02 -1.009813E+04  7.892357E-03
        40  27 -2.117144E+05 -3.286993E+02  6.132203E+03  9.697307E+02 -4.773996E+03 -7.459339E-03
        41   1 -2.121629E+05  4.292845E+02  4.737259E+03  4.789852E+01  3.817853E+03  2.946514E-04
        41   2 -2.123129E+05 -5.691407E+01  2.633001E+03 -2.738489E+01  2.506987E+03 -1.106189E-04
        41   3 -2.121631E+05 -2.694990E+01  1.511459E+03 -1.026695E+02  1.196104E+03 -1.978684E-04
        41   4 -2.121629E+05  4.292845E+02  4.737259E+03  3.642522E-09  3.817853E+03  4.913547E-11
        41   5 -2.123129E+05 -5.691407E+01  2.633001E+03 -6.478338E-10  2.506987E+03  3.921510E-10
        41   6 -2.121631E+05 -2.694992E+01  1.511459E+03 -3.323923E-09  1.196104E+03  4.809108E-10
        41   7 -2.121629E+05  4.292845E+02  4.737259E+03 -4.789852E+01  3.817853E+03 -2.946514E-04
        41   8 -2.123129E+05 -5.691407E+01  2.633001E+03  2.738489E+01  2.506987E+03  1.106197E-04
        41   9 -2.121631E+05 -2.694990E+01  1.511459E+03  1.026695E+02  1.196104E+03  1.978694E-04
        41  10 -2.121629E+05  4.292806E+02  4.737231E+03  4.789852E+01 -1.148925E-09 -3.804282E-10
        41  11 -2.123130E+05 -5.691575E+01  2.632989E+03 -2.738489E+01 -9.191523E-10  3.757822E-10
        41  12 -2.121631E+05 -2.695028E+01  1.511456E+03 -1.026695E+02  5.852157E-10 -2.562422E-11
        41  13 -2.121629E+05  4.292806E+02  4.737231E+03 -1.338856E-08 -3.226452E-09 -4.015787E-10
        41  14 -2.123130E+05 -5.691575E+01  2.632989E+03 -2.781880E-09 -3.846015E-11  4.946899E-10
        41  15 -2.121631E+05 -2.695030E+01  1.511456E+03  2.439877E-09 -4.230615E-10 -7.362260E-11
        41  16 -2.121629E+05  4.292806E+02  4.737231E+03 -4.789852E+01  1.254805E-11 -4.143654E-10
        41  17 -2.123130E+05 -5.691575E+01  2.632989E+03  2.738489E+01  8.999222E-10  5.952188E-10
        41  18 -2.121631E+05 -2.695028E+01  1.511456E+03  1.026695E+02  1.004571E-10 -1.202881E-10
        41  19 -2.121629E+05  4.292845E+02  4.737259E+03  4.789852E+01 -3.817853E+03 -2.946522E-04
        41  20 -2.123129E+05 -5.691406E+01  2.633001E+03 -2.738489E+01 -2.506987E+03  1.106197E-04
        41  21 -2.121631E+05 -2.694990E+01  1.511459E+03 -1.026695E+02 -1.196104E+03  1.978683E-04
        41  22 -2.121629E+05  4.292845E+02  4.737259E+03  1.887038E-09 -3.817853E+03 -8.550037E-10
        41  23 -2.123129E+05 -5.691407E+01  2.633001E+03 -6.081397E-10 -2.506987E+03  5.857003E-10
        41  24 -2.121631E+05 -2.694992E+01  1.511459E+03  1.262789E-10 -1.196104E+03 -6.177710E-10
        41  25 -2.121629E+05  4.292845E+02  4.737259E+03 -4.789852E+01 -3.817853E+03  2.946505E-04
        41  26 -2.123129E+05 -5.691407E+01  2.633001E+03  2.738489E+01 -2.506987E+03 -1.106185E-04
        41  27 -2.121631E+05 -2.694990E+01  1.511459E+03  1.026695E+02 -1.196104E+03 -1.978696E-04
        42   1 -2.122185E+05  2.649122E+01  1.145731E+03 -2.298507E+01  9.573666E+02 -3.545502E-05
        42   2 -2.122439E+05 -8.149743E+00  6.332028E+02 -1.931877E+01  6.438391E+02 -2.003997E-05
        42   3 -2.122185E+05 -2.395505E+00  3.349463E+02 -1.565247E+01  3.303119E+02 -8.331433E-06
        42   4 -2.122185E+05  2.649122E+01  1.145731E+03  2.437341E-09  9.573666E+02  7.156554E-10
        42   5 -2.122439E+05 -8.149744E+00  6.332028E+02  4.012332E-10  6.438391E+02  7.870139E-10
        42   6 -2.122185E+05 -2.395505E+00  3.349463E+02  1.963328E-08  3.303119E+02 -4.440871E-10
        42   7 -2.122185E+05  2.649122E+01  1.145731E+03  2.298507E+01  9.573666E+02  3.545645E-05
        42   8 -2.122439E+05 -8.149743E+00  6.332028E+02  1.931877E+01  6.438391E+02  2.004153E-05
        42   9 -2.122185E+05 -2.395505E+00  3.349463E+02  1.565247E+01  3.303119E+02  8.330613E-06
        42  10 -2.122185E+05  2.649097E+01  1.145729E+03 -2.298507E+01 -1.460769E-09  3.056694E-10
        42  11 -2.122439E+05 -8.149854E+00  6.332021E+02 -1.931877E+01  3.671600E-10  1.043641E-09
        42  12 -2.122185E+05 -2.395534E+00  3.349461E+02 -1.565247E+01  4.001381E-10 -7.242269E-10
        42  13 -2.122185E+05  2.649097E+01  1.145729E+03 -1.699309E-09 -2.068600E-09 -4.409045E-11
        42  14 -2.122439E+05 -8.149855E+00  6.332021E+02  1.008265E-08 -5.768184E-10  6.107056E-10
        42  15 -2.122185E+05 -2.395534E+00  3.349461E+02  1.647968E-08 -7.093255E-10 -2.206352E-10
        42  16 -2.122185E+05  2.649097E+01  1.145729E+03  2.298507E+01  1.397946E-09 -4.016882E-10
        42  17 -2.122439E+05 -8.149854E+00  6.332021E+02  1.931877E+01 -1.904678E-09  1.855938E-10
        42  18 -2.122185E+05 -2.395534E+00  3.349461E+02  1.565247E+01  3.130783E-10  2.892029E-10
        42  19 -2.122185E+05  2.649122E+01  1.145731E+03 -2.298507E+01 -9.573666E+02  3.545569E-05
        42  20 -2.122439E+05 -8.149743E+00  6.332028E+02 -1.931877E+01 -6.438391E+02  2.004215E-05
        42  21 -2.122185E+05 -2.395505E+00  3.349463E+02 -1.565247E+01 -3.303119E+02  8.330081E-06
        42  22 -2.122185E+05  2.649122E+01  1.145731E+03  6.255955E-10 -9.573666E+02 -7.986970E-10
        42  23 -2.122439E+05 -8.149744E+00  6.332028E+02  3.796758E-10 -6.438391E+02  4.221793E-10
        42  24 -2.122185E+05 -2.395505E+00  3.349463E+02  2.113243E-08 -3.303119E+02  1.059677E-11
        42  25 -2.122185E+05  2.649122E+01  1.145731E+03  2.298507E+01 -9.573666E+02 -3.545729E-05
        42  26 -2.122439E+05 -8.149743E+00  6.332028E+02  1.931877E+01 -6.438391E+02 -2.004126E-05
        42  27 -2.122185E+05 -2.395505E+00  3.349463E+02  1.565247E+01 -3.303119E+02 -8.330075E-06
        43   1 -2.122291E+05  5.507571E-01  2.299947E+02 -1.051089E+01  2.792039E+02 -4.729892E-06
        43   2 -2.122308E+05 -3.681073E-01  6.492425E+01 -8.298693E+00  2.472027E+02 -3.305150E-06
        43   3 -2.122291E+05 -4.208003E+00 -8.003844E+01 -6.086528E+00  2.152021E+02 -2.109415E-06
        43   4 -2.122291E+05  5.507569E-01  2.299947E+02  3.574254E-09  2.792039E+02 -7.390536E-10
        43   5 -2.122308E+05 -3.681075E-01  6.492425E+01 -1.630367E-09  2.472027E+02  2.067742E-10
        43   6 -2.122291E+05 -4.208004E+00 -8.003844E+01  4.200424E-09  2.152021E+02  8.141930E-10
        43   7 -2.122291E+05  5.507571E-01  2.299947E+02  1.051089E+01  2.792039E+02  4.728437E-06
        43   8 -2.122308E+05 -3.681073E-01  6.492425E+01  8.298693E+00  2.472027E+02  3.305524E-06
        43   9 -2.122291E+05 -4.208003E+00 -8.003844E+01  6.086528E+00  2.152021E+02  2.111074E-06
        43  10 -2.122291E+05  5.507361E-01  2.299945E+02 -1.051089E+01 -1.137302E-09 -1.088807E-09
        43  11 -2.122308E+05 -3.681238E-01  6.492414E+01 -8.298693E+00 -1.241450E-09  2.048128E-10
        43  12 -2.122291E+05 -4.208016E+00 -8.003853E+01 -6.086528E+00 -4.291070E-10  3.490691E-10
        43  13 -2.122291E+05  5.507359E-01  2.299945E+02 -7.085204E-09 -1.012792E-09 -4.450456E-10
        43  14 -2.122308E+05 -3.681239E-01  6.492414E+01  3.787167E-09 -4.617322E-10  1.378156E-10
        43  15 -2.122291E+05 -4.208016E+00 -8.003853E+01 -1.334150E-08  1.478488E-10  1.037172E-10
        43  16 -2.122291E+05  5.507361E-01  2.299945E+02  1.051089E+01  4.674912E-11  2.071438E-10
        43  17 -2.122308E+05 -3.681238E-01  6.492414E+01  8.298693E+00 -8.729083E-10  6.280729E-11
        43  18 -2.122291E+05 -4.208016E+00 -8.003853E+01  6.086528E+00 -6.946661E-10 -1.259049E-10
        43  19 -2.122291E+05  5.507571E-01  2.299947E+02 -1.051089E+01 -2.792039E+02  4.727743E-06
        43  20 -2.122308E+05 -3.681073E-01  6.492425E+01 -8.298693E+00 -2.472027E+02  3.305589E-06
        43  21 -2.122291E+05 -4.208003E+00 -8.003844E+01 -6.086528E+00 -2.152021E+02  2.110109E-06
        43  22 -2.122291E+05  5.507569E-01  2.299947E+02  3.793766E-09 -2.792039E+02 -1.570098E-10
        43  23 -2.122308E+05 -3.681075E-01  6.492425E+01  5.906965E-10 -2.472027E+02  7.450624E-11
        43  24 -2.122291E+05 -4.208004E+00 -8.003844E+01  8.856538E-10 -2.152021E+02 -6.066409E-10
        43  25 -2.122291E+05  5.507571E-01  2.299947E+02  1.051089E+01 -2.792039E+02 -4.728065E-06
        43  26 -2.122308E+05 -3.681073E-01  6.492425E+01  8.298693E+00 -2.472027E+02 -3.305464E-06
        43  27 -2.122291E+05 -4.208003E+00 -8.003844E+01  6.086528E+00 -2.152021E+02 -2.111336E-06
        44   1 -2.122393E+05  3.593089E+00 -1.571339E+02 -1.763416E+01  2.363812E+02 -6.715931E-06
        44   2 -2.122181E+05  8.174000E+00 -3.550642E+02 -5.521106E+00  4.133088E+02 -3.677635E-06
        44   3 -2.122393E+05 -6.439148E+01 -6.874961E+02  6.592134E+00  5.902390E+02  6.268934E-06
        44   4 -2.122393E+05  3.593088E+00 -1.571339E+02 -4.435135E-09  2.363812E+02  2.739573E-10
        44   5 -2.122181E+05  8.174000E+00 -3.550642E+02 -4.229636E-09  4.133088E+02 -1.029521E-09
        44   6 -2.122393E+05 -6.439148E+01 -6.874961E+02 -1.332456E-09  5.902390E+02 -7.965436E-10
        44   7 -2.122393E+05  3.593089E+00 -1.571339E+02  1.763416E+01  2.363812E+02  6.716483E-06
        44   8 -2.122181E+05  8.174000E+00 -3.550642E+02  5.521106E+00  4.133088E+02  3.675525E-06
        44   9 -2.122393E+05 -6.439148E+01 -6.874961E+02 -6.592134E+00  5.902390E+02 -6.270497E-06
        44  10 -2.122393E+05  3.593073E+00 -1.571340E+02 -1.763416E+01  1.573707E-09  1.508356E-10
        44  11 -2.122181E+05  8.173954E+00 -3.550645E+02 -5.521106E+00 -5.844144E-10  2.758303E-10
        44  12 -2.122393E+05 -6.439157E+01 -6.874968E+02  6.592134E+00 -4.031702E-10  3.797516E-10
        44  13 -2.122393E+05  3.593073E+00 -1.571340E+02 -1.733827E-08 -2.215716E-09  2.404508E-11
        44  14 -2.122181E+05  8.173954E+00 -3.550645E+02 -6.381034E-09  9.618701E-10  1.129327E-10
        44  15 -2.122393E+05 -6.439157E+01 -6.874968E+02  5.652032E-09 -3.750774E-10  4.646782E-11
        44  16 -2.122393E+05  3.593074E+00 -1.571340E+02  1.763416E+01 -3.736424E-10 -1.238376E-10
        44  17 -2.122181E+05  8.173954E+00 -3.550645E+02  5.521106E+00 -1.703530E-09 -5.345318E-11
        44  18 -2.122393E+05 -6.439157E+01 -6.874968E+02 -6.592134E+00  1.597010E-09 -3.117855E-10
        44  19 -2.122393E+05  3.593089E+00 -1.571339E+02 -1.763416E+01 -2.363812E+02  6.716308E-06
        44  20 -2.122181E+05  8.174000E+00 -3.550642E+02 -5.521106E+00 -4.133088E+02  3.678207E-06
        44  21 -2.122393E+05 -6.439148E+01 -6.874961E+02  6.592134E+00 -5.902390E+02 -6.268081E-06
        44  22 -2.122393E+05  3.593088E+00 -1.571339E+02 -1.085831E-08 -2.363812E+02 -2.223068E-10
        44  23 -2.122181E+05  8.174000E+00 -3.550642E+02 -1.499557E-08 -4.133088E+02  1.253822E-09
        44  24 -2.122393E+05 -6.439148E+01 -6.874961E+02  9.136915E-09 -5.902390E+02  8.918107E-10
        44  25 -2.122393E+05  3.593089E+00 -1.571339E+02  1.763416E+01 -2.363812E+02 -6.716763E-06
        44  26 -2.122181E+05  8.174000E+00 -3.550642E+02  5.521106E+00 -4.133088E+02 -3.675722E-06
        44  27 -2.122393E+05 -6.439148E+01 -6.874961E+02 -6.592134E+00 -5.902390E+02  6.269864E-06
        45   1 -2.123070E+05  4.913050E+01 -9.021801E+02 -1.459628E+02  7.299565E+02 -1.716747E-04
        45   2 -2.121336E+05  7.798990E+01 -1.566055E+03  7.235963E+01  1.523382E+03  1.776121E-04
        45   3 -2.123071E+05 -8.676352E+02 -2.990235E+03  2.906821E+02  2.316806E+03  1.085114E-03
        45   4 -2.123070E+05  4.913046E+01 -9.021801E+02  5.876368E-09  7.299565E+02 -2.393482E-10
        45   5 -2.121336E+05  7.798989E+01 -1.566055E+03  3.184131E-09  1.523382E+03  1.859366E-10
        45   6 -2.123071E+05 -8.676353E+02 -2.990235E+03  1.126098E-08  2.316806E+03  9.891128E-11
        45   7 -2.123070E+05  4.913050E+01 -9.021801E+02  1.459628E+02  7.299565E+02  1.716743E-04
        45   8 -2.121336E+05  7.798990E+01 -1.566055E+03 -7.235963E+01  1.523382E+03 -1.776118E-04
        45   9 -2.123071E+05 -8.676352E+02 -2.990235E+03 -2.906821E+02  2.316806E+03 -1.085114E-03
        45  10 -2.123070E+05  4.913035E+01 -9.021811E+02 -1.459628E+02 -5.904435E-10  2.721235E-10
        45  11 -2.121336E+05  7.798928E+01 -1.566060E+03  7.235963E+01 -6.074928E-10 -1.329202E-10
        45  12 -2.123071E+05 -8.676366E+02 -2.990245E+03  2.906821E+02  2.379259E-09 -2.814023E-10
        45  13 -2.123070E+05  4.913031E+01 -9.021811E+02  8.033025E-09 -1.068469E-09  1.412105E-11
        45  14 -2.121336E+05  7.798927E+01 -1.566060E+03  9.615985E-09  5.001597E-10 -9.673144E-11
        45  15 -2.123071E+05 -8.676368E+02 -2.990245E+03 -1.356779E-08 -2.510250E-10 -4.670554E-10
        45  16 -2.123070E+05  4.913035E+01 -9.021811E+02  1.459628E+02 -3.717722E-11 -2.377543E-10
        45  17 -2.121336E+05  7.798928E+01 -1.566060E+03 -7.235963E+01  6.074928E-10 -8.230751E-11
        45  18 -2.123071E+05 -8.676366E+02 -2.990245E+03 -2.906821E+02  2.376956E-10 -6.379146E-10
        45  19 -2.123070E+05  4.913050E+01 -9.021801E+02 -1.459628E+02 -7.299565E+02  1.716753E-04
        45  20 -2.121336E+05  7.798990E+01 -1.566055E+03  7.235963E+01 -1.523382E+03 -1.776124E-04
        45  21 -2.123071E+05 -8.676352E+02 -2.990235E+03  2.906821E+02 -2.316806E+03 -1.085115E-03
        45  22 -2.123070E+05  4.913046E+01 -9.021801E+02  2.095956E-08 -7.299565E+02  2.652874E-10
        45  23 -2.121336E+05  7.798989E+01 -1.566055E+03  2.048361E-09 -1.523382E+03 -3.841491E-10
        45  24 -2.123071E+05 -8.676353E+02 -2.990235E+03 -2.054916E-09 -2.316806E+03 -1.037941E-09
        45  25 -2.123070E+05  4.913050E+01 -9.021801E+02  1.459628E+02 -7.299565E+02 -1.716748E-04
        45  26 -2.121336E+05  7.798990E+01 -1.566055E+03 -7.235963E+01 -1.523382E+03  1.776116E-04
        45  27 -2.123071E+05 -8.676352E+02 -2.990235E+03 -2.906821E+02 -2.316806E+03  1.085112E-03
        46   1 -2.130059E+05  6.130514E+02 -3.711238E+03 -1.636842E+03  2.867709E+03 -7.563270E-03
        46   2 -2.112603E+05  8.637211E+02 -6.129633E+03  1.413517E+03  6.147055E+03  1.400021E-02
        46   3 -2.130071E+05 -1.114515E+04 -1.374843E+04  4.463822E+03  9.426355E+03  6.779812E-02
        46   4 -2.130059E+05  6.130464E+02 -3.711239E+03  4.936549E-09  2.867709E+03 -4.516667E-10
        46   5 -2.112603E+05  8.637174E+02 -6.129633E+03  2.485716E-09  6.147055E+03 -1.115162E-09
        46   6 -2.130071E+05 -1.114519E+04 -1.374843E+04  4.880824E-09  9.426355E+03 -4.530789E-10
        46   7 -2.130059E+05  6.130514E+02 -3.711238E+03  1.636842E+03  2.867709E+03  7.563270E-03
        46   8 -2.112603E+05  8.637211E+02 -6.129633E+03 -1.413517E+03  6.147055E+03 -1.400022E-02
        46   9 -2.130071E+05 -1.114515E+04 -1.374843E+04 -4.463822E+03  9.426355E+03 -6.779813E-02
        46  10 -2.130059E+05  6.130492E+02 -3.711254E+03 -1.636842E+03  1.979179E-10 -3.389948E-10
        46  11 -2.112603E+05  8.637110E+02 -6.129704E+03  1.413517E+03  1.203201E-09 -3.217813E-10
        46  12 -2.130072E+05 -1.114517E+04 -1.374860E+04  4.463822E+03  8.296931E-10 -9.999469E-11
        46  13 -2.130059E+05  6.130442E+02 -3.711255E+03 -5.767618E-09  1.228824E-09 -4.501693E-10
        46  14 -2.112603E+05  8.637072E+02 -6.129704E+03 -1.793430E-09 -5.384384E-10 -6.275246E-11
        46  15 -2.130072E+05 -1.114521E+04 -1.374860E+04  3.257098E-09  1.896195E-09  3.016400E-11
        46  16 -2.130059E+05  6.130492E+02 -3.711254E+03  1.636842E+03 -2.339977E-09 -5.612704E-10
        46  17 -2.112603E+05  8.637110E+02 -6.129704E+03 -1.413517E+03  7.383120E-10  1.969107E-10
        46  18 -2.130072E+05 -1.114517E+04 -1.374860E+04 -4.463822E+03  1.657137E-09  1.679998E-10
        46  19 -2.130059E+05  6.130514E+02 -3.711238E+03 -1.636842E+03 -2.867709E+03  7.563270E-03
        46  20 -2.112603E+05  8.637211E+02 -6.129633E+03  1.413517E+03 -6.147055E+03 -1.400021E-02
        46  21 -2.130071E+05 -1.114515E+04 -1.374843E+04  4.463822E+03 -9.426355E+03 -6.779812E-02
        46  22 -2.130059E+05  6.130464E+02 -3.711239E+03  7.594083E-10 -2.867709E+03 -4.535780E-10
        46  23 -2.112603E+05  8.637174E+02 -6.129633E+03 -6.071535E-09 -6.147055E+03  9.929843E-10
        46  24 -2.130071E+05 -1.114519E+04 -1.374843E+04  4.326611E-09 -9.426355E+03  5.183256E-10
        46  25 -2.130059E+05  6.130514E+02 -3.711238E+03  1.636842E+03 -2.867709E+03 -7.563271E-03
        46  26 -2.112603E+05  8.637211E+02 -6.129633E+03 -1.413517E+03 -6.147055E+03  1.400022E-02
        46  27 -2.130071E+05 -1.114515E+04 -1.374843E+04 -4.463822E+03 -9.426355E+03  6.779813E-02
        47   1  1.806890E+05  7.120871E+04  1.774404E+05 -6.098571E+04  8.271445E+03  1.572439E+04
        47   2  1.533825E+05 -3.919622E+04  1.441207E+05 -3.225751E+04  2.452248E+04  2.780892E+03
        47   3  1.267893E+05 -1.475501E+05  1.194442E+05 -6.202613E+04  2.190173E+04 -1.016507E+04
        47   4 -1.741811E+03 -6.613010E+05 -1.991502E+03 -6.151311E+04  8.275524E+03 -2.150989E+03
        47   5  5.711782E+01 -6.611633E+05 -3.150019E+02 -3.226259E+04  2.452627E+04 -1.956592E+03
        47   6  2.891913E+02 -6.612651E+05  8.811646E+02 -6.151242E+04  2.189679E+04 -1.766779E+03
        47   7 -1.842122E+05 -1.393321E+06 -1.814616E+05 -6.203984E+04  8.279636E+03 -2.000532E+04
        47   8 -1.532955E+05 -1.282773E+06 -1.447766E+05 -3.226761E+04  2.453005E+04 -6.689362E+03
        47   9 -1.262294E+05 -1.174736E+06 -1.176992E+05 -6.099908E+04  2.189187E+04  6.624617E+03
        47  10  1.806888E+05  7.120843E+04  1.774398E+05 -6.098581E+04 -3.460299E-10 -8.311087E-10
        47  11  1.533818E+05 -3.919639E+04  1.441195E+05 -3.225757E+04 -3.190893E-09 -4.298328E-10
        47  12  1.267888E+05 -1.475504E+05  1.194431E+05 -6.202596E+04 -1.387833E-09  8.183398E-10
        47  13 -1.741886E+03 -6.613010E+05 -1.991640E+03 -6.151310E+04 -1.343276E-09  8.714159E-11
        47  14  5.647105E+01 -6.611634E+05 -3.161391E+02 -3.226255E+04 -7.266607E-10  1.929560E-10
        47  15  2.886757E+02 -6.612652E+05  8.802580E+02 -6.151239E+04  2.342389E-10  3.344573E-10
        47  16 -1.842124E+05 -1.393321E+06 -1.814624E+05 -6.203971E+04  2.355875E-10  7.581427E-10
        47  17 -1.532962E+05 -1.282773E+06 -1.447778E+05 -3.226748E+04 -5.053899E-10  2.303476E-10
        47  18 -1.262299E+05 -1.174736E+06 -1.177002E+05 -6.099920E+04 -6.645924E-12 -1.204736E-09
        47  19  1.806890E+05  7.120871E+04  1.774404E+05 -6.098571E+04 -8.271445E+03 -1.572439E+04
        47  20  1.533825E+05 -3.919622E+04  1.441207E+05 -3.225751E+04 -2.452248E+04 -2.780892E+03
        47  21  1.267893E+05 -1.475501E+05  1.194442E+05 -6.202613E+04 -2.190173E+04  1.016507E+04
        47  22 -1.741811E+03 -6.613010E+05 -1.991502E+03 -6.151311E+04 -8.275524E+03  2.150989E+03
        47  23  5.711782E+01 -6.611633E+05 -3.150019E+02 -3.226259E+04 -2.452627E+04  1.956592E+03
        47  24  2.891913E+02 -6.612651E+05  8.811646E+02 -6.151242E+04 -2.189679E+04  1.766779E+03
        47  25 -1.842122E+05 -1.393321E+06 -1.814616E+05 -6.203984E+04 -8.279636E+03  2.000532E+04
        47  26 -1.532955E+05 -1.282773E+06 -1.447766E+05 -3.226761E+04 -2.453005E+04  6.689362E+03
        47  27 -1.262294E+05 -1.174736E+06 -1.176992E+05 -6.099908E+04 -2.189187E+04 -6.624617E+03
        48   1  9.973865E+04 -2.555768E+05  9.540939E+04 -6.227082E+04  1.650691E+04 -4.642401E+03
        48   2  7.267494E+04 -3.658933E+05  7.149948E+04 -3.200529E+04  1.232643E+04 -6.761272E+03
        48   3  4.779677E+04 -4.754539E+05  4.949797E+04 -6.128399E+04  7.416243E+03 -8.882742E+03
        48   4 -1.826824E+02 -6.610415E+05  1.471093E+03 -6.174564E+04  1.650538E+04 -1.985622E+03
        48   5 -1.165481E+02 -6.613607E+05  3.173889E+03 -3.197159E+04  1.232380E+04 -3.596388E+03
        48   6  2.048102E+03 -6.610234E+05  6.432929E+03 -6.174344E+04  7.412319E+03 -5.210119E+03
        48   7 -1.001156E+05 -1.066354E+06 -9.247820E+04 -6.122076E+04  1.650386E+04  6.694342E+02
        48   8 -7.291416E+04 -9.567472E+05 -6.515750E+04 -3.193789E+04  1.232117E+04 -4.329991E+02
        48   9 -4.370298E+04 -8.465610E+05 -3.663438E+04 -6.220275E+04  7.408388E+03 -1.538586E+03
        48  10  9.973835E+04 -2.555769E+05  9.540884E+04 -6.227076E+04 -1.296107E-09 -1.066007E-09
        48  11  7.267476E+04 -3.658934E+05  7.149911E+04 -3.200522E+04 -2.312913E-09 -1.439146E-09
        48  12  4.779669E+04 -4.754540E+05  4.949772E+04 -6.128393E+04 -1.310287E-09 -5.830361E-10
        48  13 -1.829759E+02 -6.610416E+05  1.470574E+03 -6.174561E+04 -2.247351E-09  8.263553E-10
        48  14 -1.167146E+02 -6.613607E+05  3.173579E+03 -3.197156E+04 -8.294923E-10  5.116841E-10
        48  15  2.048036E+03 -6.610234E+05  6.432775E+03 -6.174341E+04 -2.160951E-09  5.878623E-10
        48  16 -1.001159E+05 -1.066354E+06 -9.247871E+04 -6.122077E+04  3.303355E-10  4.440911E-10
        48  17 -7.291433E+04 -9.567473E+05 -6.515778E+04 -3.193789E+04  1.210386E-09  1.204476E-09
        48  18 -4.370304E+04 -8.465610E+05 -3.663448E+04 -6.220275E+04 -7.695955E-10 -2.072612E-10
        48  19  9.973865E+04 -2.555768E+05  9.540939E+04 -6.227082E+04 -1.650691E+04  4.642401E+03
        48  20  7.267494E+04 -3.658933E+05  7.149948E+04 -3.200529E+04 -1.232643E+04  6.761272E+03
        48  21  4.779677E+04 -4.754539E+05  4.949797E+04 -6.128399E+04 -7.416243E+03  8.882742E+03
        48  22 -1.826824E+02 -6.610415E+05  1.471093E+03 -6.174564E+04 -1.650538E+04  1.985622E+03
        48  23 -1.165481E+02 -6.613607E+05  3.173889E+03 -3.197159E+04 -1.232380E+04  3.596388E+03
        48  24  2.048102E+03 -6.610234E+05  6.432929E+03 -6.174344E+04 -7.412319E+03  5.210119E+03
        48  25 -1.001156E+05 -1.066354E+06 -9.247820E+04 -6.122076E+04 -1.650386E+04 -6.694342E+02
        48  26 -7.291416E+04 -9.567472E+05 -6.515750E+04 -3.193789E+04 -1.232117E+04  4.329991E+02
        48  27 -4.370298E+04 -8.465610E+05 -3.663438E+04 -6.220275E+04 -7.408388E+03  1.538586E+03
        49   1  1.773012E+04 -5.824282E+05  2.569475E+04 -6.540658E+04  3.628359E+03 -1.124468E+04
        49   2 -9.960161E+03 -6.960831E+05  5.672363E+03 -2.883957E+04 -9.781798E+02 -1.516942E+04
        49   3 -1.113435E+04 -8.027324E+05 -5.197596E+03 -5.179053E+04 -8.867442E+02 -1.908863E+04
        49   4 -1.229773E+03 -6.594842E+05  8.053728E+03 -6.174608E+04  3.622779E+03 -6.404265E+03
        49   5 -1.829773E+03 -6.632600E+05  1.343507E+04 -3.197400E+04 -9.798417E+02 -1.359701E+04
        49   6  2.465302E+04 -6.594773E+05  3.023884E+04 -6.171840E+04 -8.845340E+02 -2.078487E+04
        49   7 -2.019002E+04 -7.365346E+05 -9.587593E+03 -5.808603E+04  3.617256E+03 -1.564443E+03
        49   8  6.300576E+03 -6.304359E+05  2.119772E+04 -3.510860E+04 -9.815195E+02 -1.202451E+04
        49   9  6.043922E+04 -5.162034E+05  6.567380E+04 -7.164857E+04 -8.822698E+02 -2.248150E+04
        49  10  1.773007E+04 -5.824283E+05  2.569449E+04 -6.540655E+04  7.682422E-10  3.525446E-10
        49  11 -9.960224E+03 -6.960833E+05  5.671928E+03 -2.883959E+04 -8.733743E-10 -2.628429E-10
        49  12 -1.113445E+04 -8.027328E+05 -5.198283E+03 -5.179054E+04  8.535941E-10 -4.726232E-10
        49  13 -1.229798E+03 -6.594842E+05  8.053627E+03 -6.174606E+04 -1.849343E-09  1.139221E-09
        49  14 -1.829824E+03 -6.632602E+05  1.343472E+04 -3.197402E+04 -1.539943E-09  5.633011E-10
        49  15  2.465290E+04 -6.594778E+05  3.023802E+04 -6.171842E+04 -6.557016E-10  6.377125E-10
        49  16 -2.019003E+04 -7.365346E+05 -9.587622E+03 -5.808602E+04 -1.915755E-09 -1.259701E-09
        49  17  6.300536E+03 -6.304360E+05  2.119745E+04 -3.510861E+04 -2.993037E-09 -1.700468E-10
        49  18  6.043908E+04 -5.162040E+05  6.567285E+04 -7.164859E+04 -3.990640E-10 -1.148740E-10
        49  19  1.773012E+04 -5.824282E+05  2.569475E+04 -6.540658E+04 -3.628359E+03  1.124468E+04
        49  20 -9.960161E+03 -6.960831E+05  5.672363E+03 -2.883957E+04  9.781798E+02  1.516942E+04
        49  21 -1.113435E+04 -8.027324E+05 -5.197596E+03 -5.179053E+04  8.867442E+02  1.908863E+04
        49  22 -1.229773E+03 -6.594842E+05  8.053728E+03 -6.174608E+04 -3.622779E+03  6.404265E+03
        49  23 -1.829773E+03 -6.632600E+05  1.343507E+04 -3.197400E+04  9.798417E+02  1.359701E+04
        49  24  2.465302E+04 -6.594773E+05  3.023884E+04 -6.171840E+04  8.845340E+02  2.078487E+04
        49  25 -2.019002E+04 -7.365346E+05 -9.587593E+03 -5.808603E+04 -3.617256E+03  1.564443E+03
        49  26  6.300576E+03 -6.304359E+05  2.119772E+04 -3.510860E+04  9.815195E+02  1.202451E+04
        49  27  6.043922E+04 -5.162034E+05  6.567380E+04 -7.164857E+04  8.822698E+02  2.248150E+04
        50   1 -7.551830E+05 -1.565339E+05 -4.852127E+04 -2.821971E+05 -1.694605E+04 -5.024075E+03
        50   2 -7.414266E+05 -1.268634E+05 -3.050870E+04 -2.766810E+05 -1.091280E+04 -1.816415E+02
        50   3 -7.295880E+05 -1.222994E+05 -2.281136E+04 -2.733604E+05 -3.865278E+03  1.956304E+03
        50   4 -6.624040E+05 -1.153692E+05 -2.225464E+04 -2.505480E+05 -1.459444E+04 -4.142512E+03
        50   5 -6.604421E+05 -9.463515E+04 -9.442229E+03 -2.525817E+05 -1.032111E+04  4.011785E+01
        50   6 -6.600481E+05 -9.865733E+04 -5.548588E+03 -2.568114E+05 -5.033691E+03  1.518286E+03
        50   7 -5.696176E+05 -7.420354E+04  4.010884E+03 -2.188947E+05 -1.224247E+04 -3.260754E+03
        50   8 -5.794515E+05 -6.240639E+04  1.162362E+04 -2.284796E+05 -9.729336E+03  2.619129E+02
        50   9 -5.905030E+05 -7.501503E+04  1.171392E+04 -2.402607E+05 -6.202254E+03  1.080223E+03
        50  10 -7.551833E+05 -1.565340E+05 -4.852185E+04 -2.821972E+05  4.924387E-10  7.993474E-11
        50  11 -7.414267E+05 -1.268634E+05 -3.050892E+04 -2.766810E+05  7.197979E-11  3.367528E-10
        50  12 -7.295880E+05 -1.222994E+05 -2.281139E+04 -2.733604E+05  2.493640E-09 -6.899810E-11
        50  13 -6.624042E+05 -1.153693E+05 -2.225507E+04 -2.505480E+05  1.060577E-09  1.181815E-11
        50  14 -6.604423E+05 -9.463518E+04 -9.442429E+03 -2.525817E+05  9.162315E-10  6.247409E-11
        50  15 -6.600481E+05 -9.865734E+04 -5.548640E+03 -2.568114E+05 -4.430975E-10  3.622386E-10
        50  16 -5.696178E+05 -7.420359E+04  4.010582E+03 -2.188947E+05  1.174417E-09 -2.824326E-11
        50  17 -5.794516E+05 -6.240642E+04  1.162344E+04 -2.284796E+05 -1.330489E-09  1.609564E-10
        50  18 -5.905030E+05 -7.501504E+04  1.171385E+04 -2.402607E+05  4.376592E-11  7.194941E-10
        50  19 -7.551830E+05 -1.565339E+05 -4.852127E+04 -2.821971E+05  1.694605E+04  5.024075E+03
        50  20 -7.414266E+05 -1.268634E+05 -3.050870E+04 -2.766810E+05  1.091280E+04  1.816415E+02
        50  21 -7.295880E+05 -1.222994E+05 -2.281136E+04 -2.733604E+05  3.865278E+03 -1.956304E+03
        50  22 -6.624040E+05 -1.153692E+05 -2.225464E+04 -2.505480E+05  1.459444E+04  4.142512E+03
        50  23 -6.604421E+05 -9.463515E+04 -9.442229E+03 -2.525817E+05  1.032111E+04 -4.011785E+01
        50  24 -6.600481E+05 -9.865733E+04 -5.548588E+03 -2.568114E+05  5.033691E+03 -1.518286E+03
        50  25 -5.696176E+05 -7.420354E+04  4.010884E+03 -2.188947E+05  1.224247E+04  3.260754E+03
        50  26 -5.794515E+05 -6.240639E+04  1.162362E+04 -2.284796E+05  9.729336E+03 -2.619129E+02
        50  27 -5.905030E+05 -7.501503E+04  1.171392E+04 -2.402607E+05  6.202254E+03 -1.080223E+03
        51   1 -7.113825E+05 -1.206654E+05 -1.785276E+04 -2.703168E+05 -3.656646E+03  1.145485E+03
        51   2 -6.994318E+05 -1.102630E+05 -1.180238E+04 -2.628759E+05 -2.196901E+03  1.021695E+03
        51   3 -6.820264E+05 -1.076953E+05 -7.112248E+03 -2.621882E+05 -6.807193E+02  7.472648E+02
        51   4 -6.593049E+05 -1.007333E+05 -4.465501E+03 -2.556346E+05 -3.990808E+03  1.020205E+03
        51   5 -6.619429E+05 -9.612554E+04 -2.221445E+03 -2.525202E+05 -2.629031E+03  8.597103E+02
        51   6 -6.591070E+05 -9.933284E+04 -1.259847E+03 -2.561590E+05 -1.210862E+03  5.485664E+02
        51   7 -6.072245E+05 -8.080092E+04  8.921572E+03 -2.409512E+05 -4.325002E+03  8.949125E+02
        51   8 -6.244528E+05 -8.198806E+04  7.359312E+03 -2.421640E+05 -3.061187E+03  6.977151E+02
        51   9 -6.361873E+05 -9.097049E+04  4.592420E+03 -2.501297E+05 -1.741019E+03  3.498632E+02
        51  10 -7.113825E+05 -1.206654E+05 -1.785279E+04 -2.703168E+05  8.278078E-10  2.650344E-11
        51  11 -6.994318E+05 -1.102630E+05 -1.180239E+04 -2.628759E+05 -7.558152E-11  1.222335E-10
        51  12 -6.820264E+05 -1.076953E+05 -7.112250E+03 -2.621882E+05  9.634287E-10 -2.941567E-10
        51  13 -6.593049E+05 -1.007333E+05 -4.465533E+03 -2.556346E+05  2.321894E-09  4.055137E-10
        51  14 -6.619429E+05 -9.612554E+04 -2.221459E+03 -2.525202E+05  1.386195E-09  4.034791E-11
        51  15 -6.591070E+05 -9.933284E+04 -1.259850E+03 -2.561590E+05  2.007383E-09 -6.423357E-11
        51  16 -6.072246E+05 -8.080092E+04  8.921535E+03 -2.409512E+05 -2.228624E-09  1.369735E-10
        51  17 -6.244528E+05 -8.198806E+04  7.359293E+03 -2.421640E+05  3.177218E-09 -3.035081E-10
        51  18 -6.361873E+05 -9.097049E+04  4.592414E+03 -2.501297E+05 -1.024132E-10  1.678181E-10
        51  19 -7.113825E+05 -1.206654E+05 -1.785276E+04 -2.703168E+05  3.656646E+03 -1.145485E+03
        51  20 -6.994318E+05 -1.102630E+05 -1.180238E+04 -2.628759E+05  2.196901E+03 -1.021695E+03
        51  21 -6.820264E+05 -1.076953E+05 -7.112248E+03 -2.621882E+05  6.807193E+02 -7.472648E+02
        51  22 -6.593049E+05 -1.007333E+05 -4.465501E+03 -2.556346E+05  3.990808E+03 -1.020205E+03
        51  23 -6.619429E+05 -9.612554E+04 -2.221445E+03 -2.525202E+05  2.629031E+03 -8.597103E+02
        51  24 -6.591070E+05 -9.933284E+04 -1.259847E+03 -2.561590E+05  1.210862E+03 -5.485664E+02
        51  25 -6.072245E+05 -8.080092E+04  8.921572E+03 -2.409512E+05  4.325002E+03 -8.949125E+02
        51  26 -6.244528E+05 -8.198806E+04  7.359312E+03 -2.421640E+05  3.061187E+03 -6.977151E+02
        51  27 -6.361873E+05 -9.097049E+04  4.592420E+03 -2.501297E+05  1.741019E+03 -3.498632E+02
        52   1 -6.662816E+05 -1.022288E+05 -2.778001E+03 -2.580632E+05 -3.750871E+02  3.377473E+02
        52   2 -6.545095E+05 -9.342521E+04  1.397625E+03 -2.504466E+05  1.792145E+02 -3.073523E+02
        52   3 -6.365903E+05 -9.099452E+04  5.332469E+03 -2.499532E+05  7.363497E+02 -9.599074E+02
        52   4 -6.590263E+05 -9.950322E+04 -9.752939E+02 -2.560572E+05 -8.595411E+02  1.561779E+02
        52   5 -6.620921E+05 -9.626070E+04 -5.348474E+02 -2.525167E+05 -3.101041E+02 -4.907540E+02
        52   6 -6.590102E+05 -9.939025E+04 -3.313453E+02 -2.560995E+05  2.421583E+02 -1.145143E+03
        52   7 -6.517709E+05 -9.677761E+04  8.274355E+02 -2.540513E+05 -1.344007E+03 -2.539600E+01
        52   8 -6.696747E+05 -9.909621E+04 -2.467345E+03 -2.545868E+05 -7.994213E+02 -6.741551E+02
        52   9 -6.814297E+05 -1.077860E+05 -5.995252E+03 -2.622456E+05 -2.520179E+02 -1.330372E+03
        52  10 -6.662816E+05 -1.022288E+05 -2.778002E+03 -2.580632E+05 -5.346631E-10 -1.989619E-10
        52  11 -6.545095E+05 -9.342521E+04  1.397624E+03 -2.504466E+05 -3.489603E-10  3.250784E-11
        52  12 -6.365903E+05 -9.099452E+04  5.332466E+03 -2.499532E+05 -3.655792E-11  9.025140E-10
        52  13 -6.590263E+05 -9.950322E+04 -9.752953E+02 -2.560572E+05 -8.466290E-10  3.619857E-10
        52  14 -6.620921E+05 -9.626070E+04 -5.348481E+02 -2.525167E+05  7.828298E-10  7.225073E-10
        52  15 -6.590102E+05 -9.939025E+04 -3.313478E+02 -2.560995E+05 -2.537520E-10  5.568216E-10
        52  16 -6.517709E+05 -9.677761E+04  8.274321E+02 -2.540513E+05 -1.758656E-10  1.863865E-10
        52  17 -6.696747E+05 -9.909622E+04 -2.467347E+03 -2.545868E+05 -2.120437E-10  3.669369E-10
        52  18 -6.814297E+05 -1.077860E+05 -5.995256E+03 -2.622456E+05  2.456176E-10  7.583881E-10
        52  19 -6.662816E+05 -1.022288E+05 -2.778001E+03 -2.580632E+05  3.750871E+02 -3.377473E+02
        52  20 -6.545095E+05 -9.342521E+04  1.397625E+03 -2.504466E+05 -1.792145E+02  3.073523E+02
        52  21 -6.365903E+05 -9.099452E+04  5.332469E+03 -2.499532E+05 -7.363497E+02  9.599074E+02
        52  22 -6.590263E+05 -9.950322E+04 -9.752939E+02 -2.560572E+05  8.595411E+02 -1.561779E+02
        52  23 -6.620921E+05 -9.626070E+04 -5.348474E+02 -2.525167E+05  3.101041E+02  4.907540E+02
        52  24 -6.590102E+05 -9.939025E+04 -3.313453E+02 -2.560995E+05 -2.421583E+02  1.145143E+03
        52  25 -6.517709E+05 -9.677761E+04  8.274355E+02 -2.540513E+05  1.344007E+03  2.539600E+01
        52  26 -6.696747E+05 -9.909621E+04 -2.467345E+03 -2.545868E+05  7.994213E+02  6.741551E+02
        52  27 -6.814297E+05 -1.077860E+05 -5.995252E+03 -2.622456E+05  2.520179E+02  1.330372E+03
        53   1 -6.211334E+05 -8.522424E+04  9.429003E+03 -2.457473E+05  9.487542E+02 -1.382980E+03
        53   2 -6.094361E+05 -7.658742E+04  1.318767E+04 -2.381471E+05  1.347729E+03 -2.092945E+03
        53   3 -5.915508E+05 -7.417602E+04  1.685568E+04 -2.376645E+05  1.746215E+03 -2.801401E+03
        53   4 -6.590073E+05 -9.939682E+04 -2.789687E+02 -2.560837E+05  4.575725E+02 -1.567096E+03
        53   5 -6.621009E+05 -9.628197E+04 -2.353396E+02 -2.525258E+05  8.575041E+02 -2.276724E+03
        53   6 -6.590069E+05 -9.939263E+04 -2.830934E+02 -2.560854E+05  1.256947E+03 -2.984847E+03
        53   7 -6.968793E+05 -1.135691E+05 -9.986904E+03 -2.664194E+05 -3.356928E+01 -1.751197E+03
        53   8 -7.147628E+05 -1.159763E+05 -1.365851E+04 -2.669033E+05  3.673270E+02 -2.460485E+03
        53   9 -7.264590E+05 -1.246091E+05 -1.742234E+04 -2.745046E+05  7.677340E+02 -3.168273E+03
        53  10 -6.211334E+05 -8.522425E+04  9.428997E+03 -2.457473E+05 -8.945331E-10  8.510327E-10
        53  11 -6.094361E+05 -7.658742E+04  1.318766E+04 -2.381471E+05  9.027035E-10 -4.979927E-10
        53  12 -5.915508E+05 -7.417603E+04  1.685566E+04 -2.376645E+05 -7.473754E-10 -2.762360E-10
        53  13 -6.590073E+05 -9.939683E+04 -2.789737E+02 -2.560837E+05 -1.740710E-10  5.120262E-10
        53  14 -6.621009E+05 -9.628198E+04 -2.353507E+02 -2.525258E+05 -3.025035E-09 -5.415757E-10
        53  15 -6.590069E+05 -9.939264E+04 -2.831131E+02 -2.560854E+05 -2.932449E-10  3.856011E-11
        53  16 -6.968793E+05 -1.135691E+05 -9.986910E+03 -2.664194E+05 -2.230294E-10 -3.032757E-10
        53  17 -7.147628E+05 -1.159763E+05 -1.365852E+04 -2.669033E+05 -8.890479E-10 -7.546178E-10
        53  18 -7.264590E+05 -1.246091E+05 -1.742236E+04 -2.745046E+05 -5.703540E-10  1.757381E-10
        53  19 -6.211334E+05 -8.522424E+04  9.429003E+03 -2.457473E+05 -9.487542E+02  1.382980E+03
        53  20 -6.094361E+05 -7.658742E+04  1.318767E+04 -2.381471E+05 -1.347729E+03  2.092945E+03
        53  21 -5.915508E+05 -7.417602E+04  1.685568E+04 -2.376645E+05 -1.746215E+03  2.801401E+03
        53  22 -6.590073E+05 -9.939682E+04 -2.789687E+02 -2.560837E+05 -4.575725E+02  1.567096E+03
        53  23 -6.621009E+05 -9.628197E+04 -2.353396E+02 -2.525258E+05 -8.575041E+02  2.276724E+03
        53  24 -6.590069E+05 -9.939263E+04 -2.830934E+02 -2.560854E+05 -1.256947E+03  2.984847E+03
        53  25 -6.968793E+05 -1.135691E+05 -9.986904E+03 -2.664194E+05  3.356928E+01  1.751197E+03
        53  26 -7.147628E+05 -1.159763E+05 -1.365851E+04 -2.669033E+05 -3.673270E+02  2.460485E+03
        53  27 -7.264590E+05 -1.246091E+05 -1.742234E+04 -2.745046E+05 -7.677340E+02  3.168273E+03
        54   1 -5.762305E+05 -6.841053E+04  2.081637E+04 -2.334774E+05  1.960096E+03 -3.219367E+03
        54   2 -5.646548E+05 -5.986769E+04  2.427352E+04 -2.259498E+05  2.514736E+03 -3.863081E+03
        54   3 -5.469886E+05 -5.752164E+04  2.751345E+04 -2.254570E+05  3.067728E+03 -4.502004E+03
        54   4 -6.590277E+05 -9.937500E+04 -3.397922E+02 -2.560716E+05  1.472312E+03 -3.402282E+03
        54   5 -6.620761E+05 -9.629709E+04 -5.558809E+02 -2.525465E+05  2.030010E+03 -4.044896E+03
        54   6 -6.590346E+05 -9.941667E+04 -9.915911E+02 -2.560564E+05  2.586051E+03 -4.682720E+03
        54   7 -7.418183E+05 -1.303390E+05 -2.149651E+04 -2.786631E+05  9.845993E+02 -3.585170E+03
        54   8 -7.594879E+05 -1.327258E+05 -2.538600E+04 -2.791394E+05  1.545368E+03 -4.226679E+03
        54   9 -7.710679E+05 -1.413107E+05 -2.949753E+04 -2.866508E+05  2.104472E+03 -4.863400E+03
        54  10 -5.762305E+05 -6.841054E+04  2.081635E+04 -2.334774E+05 -2.525961E-09  5.645548E-10
        54  11 -5.646548E+05 -5.986771E+04  2.427348E+04 -2.259497E+05  1.711025E-09  3.975625E-10
        54  12 -5.469886E+05 -5.752167E+04  2.751339E+04 -2.254570E+05 -1.088782E-09 -3.327245E-10
        54  13 -6.590277E+05 -9.937501E+04 -3.398180E+02 -2.560716E+05 -1.280067E-09  5.453540E-10
        54  14 -6.620761E+05 -9.629711E+04 -5.559194E+02 -2.525465E+05 -1.211521E-09  4.508026E-10
        54  15 -6.590346E+05 -9.941669E+04 -9.916448E+02 -2.560564E+05  7.218936E-10 -4.176697E-10
        54  16 -7.418183E+05 -1.303390E+05 -2.149654E+04 -2.786631E+05  1.100292E-09  4.258787E-10
        54  17 -7.594879E+05 -1.327258E+05 -2.538604E+04 -2.791394E+05  2.069159E-09  3.711707E-10
        54  18 -7.710679E+05 -1.413107E+05 -2.949758E+04 -2.866508E+05  2.213023E-09 -6.797721E-10
        54  19 -5.762305E+05 -6.841053E+04  2.081637E+04 -2.334774E+05 -1.960096E+03  3.219367E+03
        54  20 -5.646548E+05 -5.986769E+04  2.427352E+04 -2.259498E+05 -2.514736E+03  3.863081E+03
        54  21 -5.469886E+05 -5.752164E+04  2.751345E+04 -2.254570E+05 -3.067728E+03  4.502004E+03
        54  22 -6.590277E+05 -9.937500E+04 -3.397922E+02 -2.560716E+05 -1.472312E+03  3.402282E+03
        54  23 -6.620761E+05 -9.629709E+04 -5.558809E+02 -2.525465E+05 -2.030010E+03  4.044896E+03
        54  24 -6.590346E+05 -9.941667E+04 -9.915911E+02 -2.560564E+05 -2.586051E+03  4.682720E+03
        54  25 -7.418183E+05 -1.303390E+05 -2.149651E+04 -2.786631E+05 -9.845993E+02  3.585170E+03
        54  26 -7.594879E+05 -1.327258E+05 -2.538600E+04 -2.791394E+05 -1.545368E+03  4.226679E+03
        54  27 -7.710679E+05 -1.413107E+05 -2.949753E+04 -2.866508E+05 -2.104472E+03  4.863400E+03
        55   1 -5.318703E+05 -5.182950E+04  3.116265E+04 -2.214235E+05  3.422036E+03 -4.862844E+03
        55   2 -5.204462E+05 -4.331576E+04  3.373930E+04 -2.139085E+05  4.856682E+03 -5.160183E+03
        55   3 -5.033558E+05 -4.146239E+04  3.528982E+04 -2.131895E+05  6.282165E+03 -5.432372E+03
        55   4 -6.591042E+05 -9.933538E+04 -1.303311E+03 -2.560731E+05  2.936811E+03 -5.044929E+03
        55   5 -6.619734E+05 -9.626604E+04 -2.335984E+03 -2.525768E+05  4.387526E+03 -5.336308E+03
        55   6 -6.591799E+05 -9.986067E+04 -4.407773E+03 -2.558768E+05  5.829046E+03 -5.602546E+03
        55   7 -7.863227E+05 -1.468404E+05 -3.377072E+04 -2.907164E+05  2.451692E+03 -5.226973E+03
        55   8 -8.034813E+05 -1.492152E+05 -3.841297E+04 -2.912372E+05  3.918486E+03 -5.512390E+03
        55   9 -8.149803E+05 -1.582574E+05 -4.410734E+04 -2.985544E+05  5.376051E+03 -5.772673E+03
        55  10 -5.318703E+05 -5.182953E+04  3.116258E+04 -2.214235E+05 -1.133233E-09 -8.185290E-10
        55  11 -5.204463E+05 -4.331579E+04  3.373920E+04 -2.139085E+05 -6.710749E-10 -4.527315E-10
        55  12 -5.033559E+05 -4.146243E+04  3.528969E+04 -2.131894E+05  8.695955E-10  1.705476E-10
        55  13 -6.591042E+05 -9.933541E+04 -1.303375E+03 -2.560731E+05  1.299082E-09 -7.172832E-10
        55  14 -6.619734E+05 -9.626608E+04 -2.336074E+03 -2.525768E+05 -1.077687E-09 -5.455566E-10
        55  15 -6.591799E+05 -9.986071E+04 -4.407896E+03 -2.558768E+05  5.660485E-10 -3.120305E-10
        55  16 -7.863227E+05 -1.468405E+05 -3.377078E+04 -2.907164E+05  2.279012E-09 -5.060593E-10
        55  17 -8.034813E+05 -1.492152E+05 -3.841306E+04 -2.912371E+05  3.931315E-10 -3.255935E-10
        55  18 -8.149803E+05 -1.582574E+05 -4.410745E+04 -2.985544E+05 -1.040437E-09 -6.829260E-10
        55  19 -5.318703E+05 -5.182950E+04  3.116265E+04 -2.214235E+05 -3.422036E+03  4.862844E+03
        55  20 -5.204462E+05 -4.331576E+04  3.373930E+04 -2.139085E+05 -4.856682E+03  5.160183E+03
        55  21 -5.033558E+05 -4.146239E+04  3.528982E+04 -2.131895E+05 -6.282165E+03  5.432372E+03
        55  22 -6.591042E+05 -9.933538E+04 -1.303311E+03 -2.560731E+05 -2.936811E+03  5.044929E+03
        55  23 -6.619734E+05 -9.626604E+04 -2.335984E+03 -2.525768E+05 -4.387526E+03  5.336308E+03
        55  24 -6.591799E+05 -9.986067E+04 -4.407773E+03 -2.558768E+05 -5.829046E+03  5.602546E+03
        55  25 -7.863227E+05 -1.468404E+05 -3.377072E+04 -2.907164E+05 -2.451692E+03  5.226973E+03
        55  26 -8.034813E+05 -1.492152E+05 -3.841297E+04 -2.912372E+05 -3.918486E+03  5.512390E+03
        55  27 -8.149803E+05 -1.582574E+05 -4.410734E+04 -2.985544E+05 -5.376051E+03  5.772673E+03
        56   1 -4.881490E+05 -3.590141E+04  3.782603E+04 -2.105027E+05  7.374262E+03 -5.553740E+03
        56   2 -4.769690E+05 -2.614483E+04  3.692847E+04 -2.016731E+05  1.261612E+04 -4.358750E+03
        56   3 -4.632499E+05 -2.954954E+04  3.034867E+04 -1.978552E+05  1.772336E+04 -2.804273E+03
        56   4 -6.595683E+05 -9.906341E+04 -5.729049E+03 -2.563259E+05  6.815582E+03 -5.763569E+03
        56   5 -6.612690E+05 -9.566836E+04 -1.016206E+04 -2.526162E+05  1.228996E+04 -4.481405E+03
        56   6 -6.604778E+05 -1.054822E+05 -2.046299E+04 -2.539181E+05  1.762962E+04 -2.839766E+03
        56   7 -8.309584E+05 -1.622235E+05 -4.928632E+04 -3.021375E+05  6.257072E+03 -5.973337E+03
        56   8 -8.455358E+05 -1.651896E+05 -5.725536E+04 -3.035456E+05  1.196391E+04 -4.604019E+03
        56   9 -8.576685E+05 -1.814120E+05 -7.127807E+04 -3.099649E+05  1.753591E+04 -2.875247E+03
        56  10 -4.881490E+05 -3.590146E+04  3.782587E+04 -2.105027E+05 -1.714502E-09 -6.139210E-12
        56  11 -4.769692E+05 -2.614489E+04  3.692813E+04 -2.016731E+05  1.037326E-09 -2.806987E-12
        56  12 -4.632502E+05 -2.954964E+04  3.034806E+04 -1.978551E+05 -1.051819E-09  5.706841E-10
        56  13 -6.595684E+05 -9.906346E+04 -5.729199E+03 -2.563259E+05  1.025801E-09 -4.565661E-11
        56  14 -6.612691E+05 -9.566842E+04 -1.016238E+04 -2.526162E+05 -2.586660E-10  3.907730E-10
        56  15 -6.604781E+05 -1.054823E+05 -2.046359E+04 -2.539181E+05 -1.351906E-09 -1.058861E-10
        56  16 -8.309584E+05 -1.622236E+05 -4.928646E+04 -3.021375E+05  3.356563E-09 -1.065726E-10
        56  17 -8.455360E+05 -1.651896E+05 -5.725567E+04 -3.035455E+05  8.745622E-10  9.234650E-10
        56  18 -8.576689E+05 -1.814121E+05 -7.127867E+04 -3.099648E+05  8.662219E-10 -1.294862E-11
        56  19 -4.881490E+05 -3.590141E+04  3.782603E+04 -2.105027E+05 -7.374262E+03  5.553740E+03
        56  20 -4.769690E+05 -2.614483E+04  3.692847E+04 -2.016731E+05 -1.261612E+04  4.358750E+03
        56  21 -4.632499E+05 -2.954954E+04  3.034867E+04 -1.978552E+05 -1.772336E+04  2.804273E+03
        56  22 -6.595683E+05 -9.906341E+04 -5.729049E+03 -2.563259E+05 -6.815582E+03  5.763569E+03
        56  23 -6.612690E+05 -9.566836E+04 -1.016206E+04 -2.526162E+05 -1.228996E+04  4.481405E+03
        56  24 -6.604778E+05 -1.054822E+05 -2.046299E+04 -2.539181E+05 -1.762962E+04  2.839766E+03
        56  25 -8.309584E+05 -1.622235E+05 -4.928632E+04 -3.021375E+05 -6.257072E+03  5.973337E+03
        56  26 -8.455358E+05 -1.651896E+05 -5.725536E+04 -3.035456E+05 -1.196391E+04  4.604019E+03
        56  27 -8.576685E+05 -1.814120E+05 -7.127807E+04 -3.099649E+05 -1.753591E+04  2.875247E+03
        57   1 -4.427461E+05 -2.410772E+04  2.878256E+04 -2.100757E+05  2.358778E+04 -1.988577E+03
        57   2 -4.344179E+05  2.499076E+03  1.459890E+04 -1.835209E+05  4.290310E+04  5.306239E+03
        57   3 -4.548965E+05 -6.111378E+04 -3.717632E+04 -1.412831E+05  5.981857E+04  1.898851E+04
        57   4 -6.638366E+05 -9.601494E+04 -2.543398E+04 -2.593733E+05  2.152549E+04 -2.762962E+03
        57   5 -6.544367E+05 -8.877534E+04 -4.329171E+04 -2.528340E+05  4.499255E+04  6.090259E+03
        57   6 -6.746796E+05 -1.725989E+05 -1.020433E+05 -2.306085E+05  6.605910E+04  2.133042E+04
        57   7 -8.848793E+05 -1.679217E+05 -7.965410E+04 -3.086564E+05  1.946401E+04 -3.537136E+03
        57   8 -8.744075E+05 -1.800433E+05 -1.011863E+05 -3.221236E+05  4.708120E+04  6.873898E+03
        57   9 -8.944127E+05 -2.840677E+05 -1.669144E+05 -3.199011E+05  7.229718E+04  2.367069E+04
        57  10 -4.427467E+05 -2.410787E+04  2.878151E+04 -2.100757E+05 -2.827603E-09  1.772007E-10
        57  11 -4.344199E+05  2.498551E+03  1.459538E+04 -1.835211E+05 -2.256168E-09  1.296363E-09
        57  12 -4.549005E+05 -6.111513E+04 -3.718373E+04 -1.412840E+05  9.288660E-10  1.001475E-09
        57  13 -6.638371E+05 -9.601507E+04 -2.543487E+04 -2.593733E+05  1.807214E-09  5.895613E-10
        57  14 -6.544389E+05 -8.877592E+04 -4.329559E+04 -2.528342E+05 -7.448107E-10  1.762157E-10
        57  15 -6.746844E+05 -1.726005E+05 -1.020524E+05 -2.306097E+05  1.259639E-09  5.953535E-10
        57  16 -8.848797E+05 -1.679218E+05 -7.965484E+04 -3.086563E+05  1.034451E-09 -4.370748E-10
        57  17 -8.744099E+05 -1.800440E+05 -1.011906E+05 -3.221239E+05 -6.730677E-10 -2.163239E-12
        57  18 -8.944185E+05 -2.840697E+05 -1.669253E+05 -3.199025E+05  1.421279E-09 -2.614409E-10
        57  19 -4.427461E+05 -2.410772E+04  2.878256E+04 -2.100757E+05 -2.358778E+04  1.988577E+03
        57  20 -4.344179E+05  2.499076E+03  1.459890E+04 -1.835209E+05 -4.290310E+04 -5.306239E+03
        57  21 -4.548965E+05 -6.111378E+04 -3.717632E+04 -1.412831E+05 -5.981857E+04 -1.898851E+04
        57  22 -6.638366E+05 -9.601494E+04 -2.543398E+04 -2.593733E+05 -2.152549E+04  2.762962E+03
        57  23 -6.544367E+05 -8.877534E+04 -4.329171E+04 -2.528340E+05 -4.499255E+04 -6.090259E+03
        57  24 -6.746796E+05 -1.725989E+05 -1.020433E+05 -2.306085E+05 -6.605910E+04 -2.133042E+04
        57  25 -8.848793E+05 -1.679217E+05 -7.965410E+04 -3.086564E+05 -1.946401E+04  3.537136E+03
        57  26 -8.744075E+05 -1.800433E+05 -1.011863E+05 -3.221236E+05 -4.708120E+04 -6.873898E+03
        57  27 -8.944127E+05 -2.840677E+05 -1.669144E+05 -3.199011E+05 -7.229718E+04 -2.367069E+04
        58   1  1.037501E+04  2.623778E+04  3.236748E+04  1.051101E+04  2.219539E+04  3.757741E-01
        58   2  6.264698E+03 -2.032702E+03  1.443150E+04  3.328460E+03  1.447458E+04  7.760156E-02
        58   3  1.037490E+04 -1.443178E+03  8.737367E+03 -3.854137E+03  6.753639E+03 -4.192598E-02
        58   4  1.037489E+04  2.623757E+04  3.236745E+04  4.369199E-11  2.219539E+04  1.986594E-10
        58   5  6.264686E+03 -2.032723E+03  1.443149E+04 -9.823108E-10  1.447458E+04  8.088479E-10
        58   6  1.037488E+04 -1.443206E+03  8.737363E+03 -3.084583E-09  6.753639E+03  8.620047E-10
        58   7  1.037501E+04  2.623778E+04  3.236748E+04 -1.051101E+04  2.219539E+04 -3.757741E-01
        58   8  6.264698E+03 -2.032702E+03  1.443150E+04 -3.328460E+03  1.447458E+04 -7.760156E-02
        58   9  1.037490E+04 -1.443178E+03  8.737367E+03  3.854137E+03  6.753639E+03  4.192598E-02
        58  10  1.037448E+04  2.623765E+04  3.236656E+04  1.051101E+04 -5.445690E-10 -1.083851E-10
        58  11  6.264473E+03 -2.032758E+03  1.443110E+04  3.328460E+03 -1.702435E-09 -4.935626E-10
        58  12  1.037485E+04 -1.443191E+03  8.737282E+03 -3.854137E+03 -1.118383E-09 -9.879443E-10
        58  13  1.037436E+04  2.623744E+04  3.236653E+04 -1.072566E-08 -2.148416E-09  1.341341E-11
        58  14  6.264461E+03 -2.032779E+03  1.443110E+04 -1.070764E-08  5.377595E-10 -1.150471E-10
        58  15  1.037483E+04 -1.443219E+03  8.737278E+03 -1.015104E-08  5.348511E-10 -5.211780E-10
        58  16  1.037448E+04  2.623765E+04  3.236656E+04 -1.051101E+04  7.805061E-12  1.216759E-10
        58  17  6.264473E+03 -2.032758E+03  1.443110E+04 -3.328460E+03 -9.871492E-10  2.648372E-10
        58  18  1.037485E+04 -1.443191E+03  8.737282E+03  3.854137E+03 -3.627661E-10 -4.858547E-11
        58  19  1.037501E+04  2.623778E+04  3.236748E+04  1.051101E+04 -2.219539E+04 -3.757741E-01
        58  20  6.264698E+03 -2.032702E+03  1.443150E+04  3.328460E+03 -1.447458E+04 -7.760156E-02
        58  21  1.037490E+04 -1.443178E+03  8.737367E+03 -3.854137E+03 -6.753639E+03  4.192598E-02
        58  22  1.037489E+04  2.623757E+04  3.236745E+04 -4.262286E-09 -2.219539E+04 -1.727074E-10
        58  23  6.264686E+03 -2.032723E+03  1.443149E+04 -1.047647E-09 -1.447458E+04 -1.041738E-09
        58  24  1.037488E+04 -1.443206E+03  8.737363E+03  7.283134E-09 -6.753639E+03 -1.903713E-09
        58  25  1.037501E+04  2.623778E+04  3.236748E+04 -1.051101E+04 -2.219539E+04  3.757741E-01
        58  26  6.264698E+03 -2.032702E+03  1.443150E+04 -3.328460E+03 -1.447458E+04  7.760156E-02
        58  27  1.037490E+04 -1.443178E+03  8.737367E+03  3.854137E+03 -6.753639E+03 -4.192598E-02
        59   1  8.729568E+03  2.042353E+03  7.039639E+03  6.843528E+02  5.456398E+03  6.014584E-03
        59   2  8.321252E+03 -1.835299E+02  3.686184E+03  1.703028E+02  3.588704E+03  9.844175E-04
        59   3  8.729572E+03 -1.156335E+02  2.122130E+03 -3.437477E+02  1.721013E+03 -9.528910E-04
        59   4  8.729568E+03  2.042352E+03  7.039639E+03  6.144861E-09  5.456398E+03  7.919884E-10
        59   5  8.321252E+03 -1.835300E+02  3.686184E+03 -2.379603E-09  3.588704E+03  4.994246E-10
        59   6  8.729572E+03 -1.156337E+02  2.122130E+03  2.288893E-09  1.721013E+03 -4.144176E-10
        59   7  8.729568E+03  2.042353E+03  7.039639E+03 -6.843528E+02  5.456398E+03 -6.014582E-03
        59   8  8.321252E+03 -1.835299E+02  3.686184E+03 -1.703028E+02  3.588704E+03 -9.844166E-04
        59   9  8.729572E+03 -1.156335E+02  2.122130E+03  3.437477E+02  1.721013E+03  9.528902E-04
        59  10  8.729536E+03  2.042345E+03  7.039583E+03  6.843528E+02 -2.139810E-09 -2.129539E-10
        59  11  8.321238E+03 -1.835334E+02  3.686159E+03  1.703028E+02  1.289794E-11  1.253211E-09
        59  12  8.729569E+03 -1.156343E+02  2.122125E+03 -3.437477E+02  6.109424E-10  2.364708E-13
        59  13  8.729536E+03  2.042344E+03  7.039583E+03 -4.432679E-09 -1.074229E-09 -1.649861E-10
        59  14  8.321238E+03 -1.835334E+02  3.686159E+03 -1.853611E-08 -5.343593E-10  6.143729E-10
        59  15  8.729568E+03 -1.156345E+02  2.122125E+03 -6.253566E-09 -1.215408E-09 -1.950923E-10
        59  16  8.729536E+03  2.042345E+03  7.039583E+03 -6.843528E+02  1.600073E-09 -1.171787E-10
        59  17  8.321238E+03 -1.835334E+02  3.686159E+03 -1.703028E+02 -8.166338E-10 -2.486604E-11
        59  18  8.729569E+03 -1.156343E+02  2.122125E+03  3.437477E+02 -6.114996E-10 -3.912548E-10
        59  19  8.729568E+03  2.042353E+03  7.039639E+03  6.843528E+02 -5.456398E+03 -6.014584E-03
        59  20  8.321252E+03 -1.835299E+02  3.686184E+03  1.703028E+02 -3.588704E+03 -9.844151E-04
        59  21  8.729572E+03 -1.156335E+02  2.122130E+03 -3.437477E+02 -1.721013E+03  9.528909E-04
        59  22  8.729568E+03  2.042352E+03  7.039639E+03  1.514512E-08 -5.456398E+03 -1.122534E-09
        59  23  8.321252E+03 -1.835300E+02  3.686184E+03 -4.537237E-09 -3.588704E+03  7.302510E-10
        59  24  8.729572E+03 -1.156337E+02  2.122130E+03 -2.680101E-09 -1.721013E+03  2.398477E-11
        59  25  8.729568E+03  2.042353E+03  7.039639E+03 -6.843528E+02 -5.456398E+03  6.014582E-03
        59  26  8.321252E+03 -1.835299E+02  3.686184E+03 -1.703028E+02 -3.588704E+03  9.844166E-04
        59  27  8.729572E+03 -1.156335E+02  2.122130E+03  3.437477E+02 -1.721013E+03 -9.528909E-04
        60   1  8.570164E+03  1.515611E+02  1.615910E+03  1.542259E+01  1.392425E+03  3.458936E-05
        60   2  8.520512E+03 -1.919117E+01  8.309919E+02 -1.319627E+01  9.782858E+02 -2.079335E-05
        60   3  8.570166E+03 -8.398443E+00  3.610718E+02 -4.181472E+01  5.641534E+02 -3.799629E-05
        60   4  8.570164E+03  1.515611E+02  1.615910E+03 -7.234422E-09  1.392425E+03 -3.037320E-10
        60   5  8.520512E+03 -1.919117E+01  8.309919E+02 -8.834420E-09  9.782858E+02  6.952145E-10
        60   6  8.570166E+03 -8.398446E+00  3.610718E+02  4.104739E-09  5.641534E+02  6.421361E-10
        60   7  8.570164E+03  1.515611E+02  1.615910E+03 -1.542259E+01  1.392425E+03 -3.458996E-05
        60   8  8.520512E+03 -1.919117E+01  8.309919E+02  1.319627E+01  9.782858E+02  2.079475E-05
        60   9  8.570166E+03 -8.398443E+00  3.610718E+02  4.181472E+01  5.641534E+02  3.799758E-05
        60  10  8.570162E+03  1.515606E+02  1.615907E+03  1.542259E+01  2.747407E-10 -7.386706E-10
        60  11  8.520511E+03 -1.919143E+01  8.309901E+02 -1.319627E+01  2.230389E-09 -4.110746E-10
        60  12  8.570166E+03 -8.398528E+00  3.610712E+02 -4.181472E+01  1.906885E-09 -3.020599E-10
        60  13  8.570162E+03  1.515606E+02  1.615907E+03 -1.364874E-08  1.074008E-09 -6.115481E-10
        60  14  8.520511E+03 -1.919143E+01  8.309901E+02 -7.723434E-09  9.038392E-14 -2.778259E-10
        60  15  8.570166E+03 -8.398532E+00  3.610712E+02 -1.579881E-08 -1.621541E-09 -5.495022E-11
        60  16  8.570162E+03  1.515606E+02  1.615907E+03 -1.542259E+01  2.591645E-10 -4.844601E-10
        60  17  8.520511E+03 -1.919143E+01  8.309901E+02  1.319627E+01 -6.247301E-10 -1.446169E-10
        60  18  8.570166E+03 -8.398528E+00  3.610712E+02  4.181472E+01 -2.922630E-10  1.924376E-10
        60  19  8.570164E+03  1.515611E+02  1.615910E+03  1.542259E+01 -1.392425E+03 -3.459082E-05
        60  20  8.520512E+03 -1.919117E+01  8.309919E+02 -1.319627E+01 -9.782858E+02  2.079254E-05
        60  21  8.570166E+03 -8.398443E+00  3.610718E+02 -4.181472E+01 -5.641534E+02  3.799570E-05
        60  22  8.570164E+03  1.515611E+02  1.615910E+03 -7.139354E-09 -1.392425E+03 -9.192739E-10
        60  23  8.520512E+03 -1.919117E+01  8.309919E+02 -1.630528E-08 -9.782858E+02 -1.251102E-09
        60  24  8.570166E+03 -8.398446E+00  3.610718E+02 -1.335516E-08 -5.641534E+02 -7.521796E-10
        60  25  8.570164E+03  1.515611E+02  1.615910E+03 -1.542259E+01 -1.392425E+03  3.458903E-05
        60  26  8.520512E+03 -1.919117E+01  8.309919E+02  1.319627E+01 -9.782858E+02 -2.079506E-05
        60  27  8.570166E+03 -8.398443E+00  3.610718E+02  4.181472E+01 -5.641534E+02 -3.799719E-05
        61   1  8.545983E+03  9.934206E+00  1.766472E+02 -1.468044E+01  5.161553E+02 -1.220512E-05
        61   2  8.550744E+03  1.073651E+00 -1.735023E+02 -2.024596E+01  6.017088E+02 -1.962220E-05
        61   3  8.545985E+03 -1.315652E+00 -5.777294E+02 -2.581156E+01  6.872635E+02 -2.857227E-05
        61   4  8.545983E+03  9.934205E+00  1.766472E+02 -6.058226E-09  5.161553E+02 -6.597022E-11
        61   5  8.550744E+03  1.073650E+00 -1.735023E+02 -8.127551E-09  6.017088E+02 -4.916779E-10
        61   6  8.545985E+03 -1.315654E+00 -5.777294E+02  1.650007E-09  6.872635E+02  1.053560E-09
        61   7  8.545983E+03  9.934206E+00  1.766472E+02  1.468044E+01  5.161553E+02  1.220498E-05
        61   8  8.550744E+03  1.073651E+00 -1.735023E+02  2.024596E+01  6.017088E+02  1.962121E-05
        61   9  8.545985E+03 -1.315652E+00 -5.777294E+02  2.581156E+01  6.872635E+02  2.857438E-05
        61  10  8.545983E+03  9.934134E+00  1.766467E+02 -1.468044E+01  1.160150E-09  1.990006E-10
        61  11  8.550743E+03  1.073554E+00 -1.735030E+02 -2.024596E+01 -9.856786E-10  8.219746E-10
        61  12  8.545984E+03 -1.315779E+00 -5.777303E+02 -2.581156E+01  1.177587E-09 -3.046431E-10
        61  13  8.545983E+03  9.934134E+00  1.766467E+02 -1.667877E-09  6.573374E-14  2.197246E-10
        61  14  8.550743E+03  1.073553E+00 -1.735030E+02 -1.029846E-08  1.075558E-09  4.874352E-10
        61  15  8.545984E+03 -1.315780E+00 -5.777303E+02 -1.031318E-08  5.422422E-10 -5.780515E-11
        61  16  8.545983E+03  9.934134E+00  1.766467E+02  1.468044E+01 -6.207998E-10  2.413782E-10
        61  17  8.550743E+03  1.073554E+00 -1.735030E+02  2.024596E+01 -9.433605E-11  1.533089E-10
        61  18  8.545984E+03 -1.315779E+00 -5.777303E+02  2.581156E+01  4.371067E-10  1.879158E-10
        61  19  8.545983E+03  9.934206E+00  1.766472E+02 -1.468044E+01 -5.161553E+02  1.220551E-05
        61  20  8.550744E+03  1.073651E+00 -1.735023E+02 -2.024596E+01 -6.017088E+02  1.962385E-05
        61  21  8.545985E+03 -1.315652E+00 -5.777294E+02 -2.581156E+01 -6.872635E+02  2.857166E-05
        61  22  8.545983E+03  9.934205E+00  1.766472E+02 -1.235527E-08 -5.161553E+02  5.052737E-10
        61  23  8.550744E+03  1.073650E+00 -1.735023E+02 -8.161470E-09 -6.017088E+02  1.466869E-09
        61  24  8.545985E+03 -1.315654E+00 -5.777294E+02  7.609901E-09 -6.872635E+02 -1.169344E-09
        61  25  8.545983E+03  9.934206E+00  1.766472E+02  1.468044E+01 -5.161553E+02 -1.220450E-05
        61  26  8.550744E+03  1.073651E+00 -1.735023E+02  2.024596E+01 -6.017088E+02 -1.962091E-05
        61  27  8.545985E+03 -1.315652E+00 -5.777294E+02  2.581156E+01 -6.872635E+02 -2.857399E-05
        62   1  8.519982E+03  5.938813E+00 -8.363735E+02 -3.867691E+01  8.152163E+02 -5.078538E-05
        62   2  8.583252E+03  2.024425E+01 -1.573916E+03 -4.783735E+01  1.594596E+03 -1.228680E-04
        62   3  8.519989E+03 -6.566086E+01 -2.843913E+03 -5.699780E+01  2.373975E+03 -2.179479E-04
        62   4  8.519982E+03  5.938810E+00 -8.363735E+02 -1.290844E-09  8.152163E+02  9.749791E-10
        62   5  8.583252E+03  2.024424E+01 -1.573916E+03 -9.640729E-09  1.594596E+03 -4.828629E-10
        62   6  8.519989E+03 -6.566086E+01 -2.843913E+03 -9.643974E-09  2.373975E+03  5.668936E-10
        62   7  8.519982E+03  5.938813E+00 -8.363735E+02  3.867691E+01  8.152163E+02  5.078734E-05
        62   8  8.583252E+03  2.024425E+01 -1.573916E+03  4.783735E+01  1.594596E+03  1.228670E-04
        62   9  8.519989E+03 -6.566086E+01 -2.843913E+03  5.699780E+01  2.373975E+03  2.179490E-04
        62  10  8.519982E+03  5.938635E+00 -8.363748E+02 -3.867691E+01 -1.621047E-09 -4.715791E-10
        62  11  8.583249E+03  2.024356E+01 -1.573921E+03 -4.783735E+01 -6.980731E-10  4.391084E-10
        62  12  8.519983E+03 -6.566237E+01 -2.843923E+03 -5.699780E+01  1.870365E-11  1.502071E-10
        62  13  8.519982E+03  5.938632E+00 -8.363748E+02 -9.808481E-09  2.158542E-09 -1.114511E-10
        62  14  8.583249E+03  2.024356E+01 -1.573921E+03 -1.068864E-08 -1.070548E-09  4.098587E-10
        62  15  8.519983E+03 -6.566238E+01 -2.843923E+03  1.535565E-08 -1.748091E-09  3.647221E-10
        62  16  8.519982E+03  5.938635E+00 -8.363748E+02  3.867691E+01  7.845351E-12  2.482072E-10
        62  17  8.583249E+03  2.024356E+01 -1.573921E+03  4.783735E+01 -1.185029E-09  3.812698E-10
        62  18  8.519983E+03 -6.566237E+01 -2.843923E+03  5.699780E+01  1.460655E-09  5.788260E-10
        62  19  8.519982E+03  5.938813E+00 -8.363735E+02 -3.867691E+01 -8.152163E+02  5.078442E-05
        62  20  8.583252E+03  2.024425E+01 -1.573916E+03 -4.783735E+01 -1.594596E+03  1.228689E-04
        62  21  8.519989E+03 -6.566086E+01 -2.843913E+03 -5.699780E+01 -2.373975E+03  2.179482E-04
        62  22  8.519982E+03  5.938810E+00 -8.363735E+02 -3.248364E-09 -8.152163E+02 -1.198136E-09
        62  23  8.583252E+03  2.024424E+01 -1.573916E+03 -6.351661E-09 -1.594596E+03  1.302071E-09
        62  24  8.519989E+03 -6.566086E+01 -2.843913E+03  1.854646E-08 -2.373975E+03  1.559108E-10
        62  25  8.519982E+03  5.938813E+00 -8.363735E+02  3.867691E+01 -8.152163E+02 -5.078686E-05
        62  26  8.583252E+03  2.024425E+01 -1.573916E+03  4.783735E+01 -1.594596E+03 -1.228662E-04
        62  27  8.519989E+03 -6.566086E+01 -2.843913E+03  5.699780E+01 -2.373975E+03 -2.179479E-04
        63   1  8.382906E+03  6.684353E+01 -3.750666E+03 -2.546246E+02  2.966585E+03 -1.216680E-03
        63   2  8.754639E+03  1.411287E+02 -6.531817E+03 -6.796826E+01  6.218870E+03 -6.808272E-04
        63   3  8.382965E+03 -1.064359E+03 -1.175021E+04  1.186858E+02  9.471091E+03  1.810580E-03
        63   4  8.382906E+03  6.684340E+01 -3.750666E+03  3.561396E-08  2.966585E+03  5.523777E-10
        63   5  8.754639E+03  1.411287E+02 -6.531817E+03  2.263129E-09  6.218870E+03 -8.270825E-10
        63   6  8.382965E+03 -1.064359E+03 -1.175021E+04 -1.762497E-08  9.471091E+03 -1.818451E-10
        63   7  8.382906E+03  6.684353E+01 -3.750666E+03  2.546246E+02  2.966585E+03  1.216681E-03
        63   8  8.754639E+03  1.411287E+02 -6.531817E+03  6.796826E+01  6.218870E+03  6.808255E-04
        63   9  8.382965E+03 -1.064359E+03 -1.175021E+04 -1.186858E+02  9.471091E+03 -1.810580E-03
        63  10  8.382897E+03  6.684116E+01 -3.750682E+03 -2.546246E+02 -8.277578E-09 -3.911300E-10
        63  11  8.754597E+03  1.411183E+02 -6.531890E+03 -6.796826E+01 -6.500849E-10 -6.496246E-10
        63  12  8.382869E+03 -1.064383E+03 -1.175038E+04  1.186858E+02  5.854396E-09 -5.460883E-11
        63  13  8.382897E+03  6.684104E+01 -3.750682E+03  1.384138E-08 -1.076712E-09 -2.835021E-10
        63  14  8.754597E+03  1.411183E+02 -6.531890E+03 -2.026299E-09 -2.157570E-09 -9.908061E-10
        63  15  8.382869E+03 -1.064383E+03 -1.175038E+04  5.799572E-09  1.343345E-09  2.047892E-11
        63  16  8.382897E+03  6.684116E+01 -3.750682E+03  2.546246E+02  7.200500E-09 -1.777720E-10
        63  17  8.754597E+03  1.411183E+02 -6.531890E+03  6.796826E+01  1.985423E-09 -1.338094E-09
        63  18  8.382869E+03 -1.064383E+03 -1.175038E+04 -1.186858E+02 -6.190450E-09  9.721707E-11
        63  19  8.382906E+03  6.684353E+01 -3.750666E+03 -2.546246E+02 -2.966585E+03  1.216679E-03
        63  20  8.754639E+03  1.411287E+02 -6.531817E+03 -6.796826E+01 -6.218870E+03  6.808261E-04
        63  21  8.382965E+03 -1.064359E+03 -1.175021E+04  1.186858E+02 -9.471091E+03 -1.810580E-03
        63  22  8.382906E+03  6.684340E+01 -3.750666E+03 -2.085481E-08 -2.966585E+03 -1.118983E-09
        63  23  8.754639E+03  1.411287E+02 -6.531817E+03  2.300237E-09 -6.218870E+03 -1.156257E-09
        63  24  8.382965E+03 -1.064359E+03 -1.175021E+04  3.784009E-08 -9.471091E+03  2.445395E-10
        63  25  8.382906E+03  6.684353E+01 -3.750666E+03  2.546246E+02 -2.966585E+03 -1.216681E-03
        63  26  8.754639E+03  1.411287E+02 -6.531817E+03  6.796826E+01 -6.218870E+03 -6.808284E-04
        63  27  8.382965E+03 -1.064359E+03 -1.175021E+04 -1.186858E+02 -9.471091E+03  1.810580E-03
        64   1  7.270746E+03  8.151645E+02 -1.520966E+04 -2.405200E+03  1.184307E+04 -4.588126E-02
        64   2  1.014528E+04  1.291057E+03 -2.606734E+04  1.203016E+03  2.504929E+04  4.853827E-02
        64   3  7.271483E+03 -1.435012E+04 -4.955087E+04  4.811306E+03  3.825553E+04  2.964664E-01
        64   4  7.270740E+03  8.151536E+02 -1.520966E+04  5.070561E-09  1.184307E+04  4.553345E-10
        64   5  1.014528E+04  1.291054E+03 -2.606734E+04 -2.964834E-09  2.504929E+04  5.223835E-10
        64   6  7.271458E+03 -1.435017E+04 -4.955088E+04 -3.999771E-09  3.825553E+04  1.941542E-10
        64   7  7.270746E+03  8.151645E+02 -1.520966E+04  2.405200E+03  1.184307E+04  4.588126E-02
        64   8  1.014528E+04  1.291057E+03 -2.606734E+04 -1.203016E+03  2.504929E+04 -4.853827E-02
        64   9  7.271483E+03 -1.435012E+04 -4.955087E+04 -4.811306E+03  3.825553E+04 -2.964664E-01
        64  10  7.270596E+03  8.151268E+02 -1.520992E+04 -2.405200E+03  1.752813E-09  5.241531E-10
        64  11  1.014461E+04  1.290888E+03 -2.606852E+04  1.203016E+03  5.005313E-10  5.004425E-10
        64  12  7.269911E+03 -1.435052E+04 -4.955362E+04  4.811306E+03  9.342351E-10 -8.938620E-10
        64  13  7.270590E+03  8.151160E+02 -1.520992E+04 -1.003077E-08 -1.083274E-09  5.989281E-10
        64  14  1.014460E+04  1.290886E+03 -2.606852E+04 -1.274625E-08 -2.697647E-09  1.281474E-10
        64  15  7.269886E+03 -1.435056E+04 -4.955363E+04 -2.537552E-09 -1.478065E-09 -8.730268E-10
        64  16  7.270596E+03  8.151268E+02 -1.520992E+04  2.405200E+03 -3.372366E-09  6.740041E-10
        64  17  1.014461E+04  1.290888E+03 -2.606852E+04 -1.203016E+03 -3.179276E-09 -2.264607E-10
        64  18  7.269911E+03 -1.435052E+04 -4.955362E+04 -4.811306E+03 -3.003313E-09 -8.385785E-10
        64  19  7.270746E+03  8.151645E+02 -1.520966E+04 -2.405200E+03 -1.184307E+04  4.588126E-02
        64  20  1.014528E+04  1.291057E+03 -2.606734E+04  1.203016E+03 -2.504929E+04 -4.853827E-02
        64  21  7.271483E+03 -1.435012E+04 -4.955087E+04  4.811306E+03 -3.825553E+04 -2.964664E-01
        64  22  7.270740E+03  8.151536E+02 -1.520966E+04 -1.220983E-08 -1.184307E+04  7.451031E-10
        64  23  1.014528E+04  1.291054E+03 -2.606734E+04 -1.391322E-08 -2.504929E+04 -2.600162E-10
        64  24  7.271458E+03 -1.435017E+04 -4.955088E+04  2.153718E-09 -3.825553E+04 -1.935877E-09
        64  25  7.270746E+03  8.151645E+02 -1.520966E+04  2.405200E+03 -1.184307E+04 -4.588126E-02
        64  26  1.014528E+04  1.291057E+03 -2.606734E+04 -1.203016E+03 -2.504929E+04  4.853827E-02
        64  27  7.271483E+03 -1.435012E+04 -4.955087E+04 -4.811306E+03 -3.825553E+04  2.964663E-01
        65   1 -4.284343E+03  1.014283E+04 -6.145015E+04 -2.707720E+04  4.738243E+04 -2.066558E+00
        65   2  2.459618E+04  1.428355E+04 -1.014013E+05  2.339011E+04  1.016492E+05  3.829499E+00
        65   3 -4.271972E+03 -1.843343E+05 -2.273611E+05  7.385465E+04  1.559165E+05  1.854752E+01
        65   4 -4.285131E+03  1.014145E+04 -6.145035E+04  3.700288E-09  4.738243E+04  4.273765E-11
        65   5  2.459560E+04  1.428252E+04 -1.014015E+05  1.587710E-09  1.016492E+05  6.931239E-11
        65   6 -4.277830E+03 -1.843446E+05 -2.273626E+05  7.281872E-09  1.559165E+05 -8.418056E-10
        65   7 -4.284343E+03  1.014283E+04 -6.145015E+04  2.707720E+04  4.738243E+04  2.066558E+00
        65   8  2.459618E+04  1.428355E+04 -1.014013E+05 -2.339011E+04  1.016492E+05 -3.829499E+00
        65   9 -4.271972E+03 -1.843343E+05 -2.273611E+05 -7.385465E+04  1.559165E+05 -1.854752E+01
        65  10 -4.286754E+03  1.014222E+04 -6.145437E+04 -2.707720E+04 -2.225045E-09 -9.463932E-10
        65  11  2.458509E+04  1.428077E+04 -1.014207E+05  2.339011E+04 -8.905039E-10  2.770631E-10
        65  12 -4.298081E+03 -1.843409E+05 -2.274068E+05  7.385465E+04  2.047831E-10  1.908795E-10
        65  13 -4.287542E+03  1.014085E+04 -6.145457E+04 -3.948292E-10 -1.130876E-09 -7.254247E-10
        65  14  2.458450E+04  1.427974E+04 -1.014209E+05 -4.815379E-09  1.118231E-09  3.395711E-10
        65  15 -4.303939E+03 -1.843511E+05 -2.274083E+05  4.773014E-09 -1.727369E-09  2.526667E-10
        65  16 -4.286754E+03  1.014222E+04 -6.145437E+04  2.707720E+04  1.166779E-10 -4.846413E-10
        65  17  2.458509E+04  1.428077E+04 -1.014207E+05 -2.339011E+04  9.014766E-10  4.216240E-10
        65  18 -4.298081E+03 -1.843409E+05 -2.274068E+05 -7.385465E+04 -1.749221E-09  2.306520E-10
        65  19 -4.284343E+03  1.014283E+04 -6.145015E+04 -2.707720E+04 -4.738243E+04  2.066558E+00
        65  20  2.459618E+04  1.428355E+04 -1.014013E+05  2.339011E+04 -1.016492E+05 -3.829499E+00
        65  21 -4.271972E+03 -1.843343E+05 -2.273611E+05  7.385465E+04 -1.559165E+05 -1.854752E+01
        65  22 -4.285131E+03  1.014145E+04 -6.145035E+04 -4.497316E-09 -4.738243E+04 -1.492053E-09
        65  23  2.459560E+04  1.428252E+04 -1.014015E+05 -5.833571E-09 -1.016492E+05  6.429983E-10
        65  24 -4.277830E+03 -1.843446E+05 -2.273626E+05  1.175907E-09 -1.559165E+05  9.714288E-10
        65  25 -4.284343E+03  1.014283E+04 -6.145015E+04  2.707720E+04 -4.738243E+04 -2.066558E+00
        65  26  2.459618E+04  1.428355E+04 -1.014013E+05 -2.339011E+04 -1.016492E+05  3.829499E+00
        65  27 -4.271972E+03 -1.843343E+05 -2.273611E+05 -7.385465E+04 -1.559165E+05  1.854752E+01
        66   1  1.122408E+05  2.968072E+05  1.094727E+05 -3.166539E+04  5.356623E+03  7.790116E+03
        66   2  1.006204E+05  2.377699E+05  9.276914E+04 -1.706716E+04  1.608712E+04  4.602049E+02
        66   3  8.625210E+04  1.790824E+05  8.016684E+04 -3.387118E+04  1.492035E+04 -6.870748E+03
        66   4 -3.975983E+03 -1.700465E+05 -4.802531E+03 -3.317902E+04  5.358181E+03 -3.819956E+03
        66   5  2.682996E+02 -1.694948E+05 -1.751690E+03 -1.747683E+04  1.608877E+04 -2.866123E+03
        66   6  3.260572E+02 -1.700338E+05 -3.512544E+02 -3.317815E+04  1.491860E+04 -1.913903E+03
        66   7 -1.202089E+05 -6.367014E+05 -1.190932E+05 -3.469150E+04  5.359797E+03 -1.542132E+04
        66   8 -1.000955E+05 -5.766062E+05 -9.628362E+04 -1.788621E+04  1.609043E+04 -6.190285E+03
        66   9 -8.560851E+04 -5.190373E+05 -8.087736E+04 -3.248551E+04  1.491686E+04  3.040177E+03
        66  10  1.122408E+05  2.968071E+05  1.094725E+05 -3.166543E+04  1.290358E-09  3.352430E-10
        66  11  1.006201E+05  2.377698E+05  9.276865E+04 -1.706717E+04  1.620317E-09 -2.858017E-10
        66  12  8.625185E+04  1.790823E+05  8.016633E+04 -3.387109E+04 -7.574466E-10 -7.560174E-10
        66  13 -3.976018E+03 -1.700466E+05 -4.802612E+03 -3.317901E+04 -8.516330E-10  1.087822E-12
        66  14  2.680194E+02 -1.694948E+05 -1.752192E+03 -1.747679E+04 -5.711589E-10 -2.683292E-10
        66  15  3.258172E+02 -1.700339E+05 -3.516795E+02 -3.317813E+04  5.112297E-10 -7.164936E-10
        66  16 -1.202089E+05 -6.367017E+05 -1.190937E+05 -3.469143E+04  2.396749E-10 -3.417891E-10
        66  17 -1.000958E+05 -5.766063E+05 -9.628418E+04 -1.788613E+04  7.729998E-10 -2.564977E-10
        66  18 -8.560875E+04 -5.190373E+05 -8.087780E+04 -3.248554E+04  1.346792E-09  8.469994E-10
        66  19  1.122408E+05  2.968072E+05  1.094727E+05 -3.166539E+04 -5.356623E+03 -7.790116E+03
        66  20  1.006204E+05  2.377699E+05  9.276914E+04 -1.706716E+04 -1.608712E+04 -4.602049E+02
        66  21  8.625210E+04  1.790824E+05  8.016684E+04 -3.387118E+04 -1.492035E+04  6.870748E+03
        66  22 -3.975983E+03 -1.700465E+05 -4.802531E+03 -3.317902E+04 -5.358181E+03  3.819956E+03
        66  23  2.682996E+02 -1.694948E+05 -1.751690E+03 -1.747683E+04 -1.608877E+04  2.866123E+03
        66  24  3.260572E+02 -1.700338E+05 -3.512544E+02 -3.317815E+04 -1.491860E+04  1.913903E+03
        66  25 -1.202089E+05 -6.367014E+05 -1.190932E+05 -3.469150E+04 -5.359797E+03  1.542132E+04
        66  26 -1.000955E+05 -5.766062E+05 -9.628362E+04 -1.788621E+04 -1.609043E+04  6.190285E+03
        66  27 -8.560851E+04 -5.190373E+05 -8.087736E+04 -3.248551E+04 -1.491686E+04 -3.040177E+03
        67   1  7.132691E+04  1.213497E+05  6.763411E+04 -3.351227E+04  1.182506E+04 -3.216506E+03
        67   2  5.708281E+04  6.224710E+04  5.537802E+04 -1.732044E+04  9.677169E+03 -4.489510E+03
        67   3  4.403267E+04  3.596761E+03  4.424571E+04 -3.300725E+04  6.958666E+03 -5.763712E+03
        67   4 -3.646901E+02 -1.696978E+05  2.286329E+02 -3.328456E+04  1.182472E+04 -1.918933E+03
        67   5 -7.600863E+01 -1.698842E+05  1.726066E+03 -1.734433E+04  9.676337E+03 -2.794538E+03
        67   6  1.338057E+03 -1.696905E+05  4.071577E+03 -3.328345E+04  6.957228E+03 -3.671460E+03
        67   7 -7.206225E+04 -4.606671E+05 -6.718251E+04 -3.305695E+04  1.182439E+04 -6.219632E+02
        67   8 -5.723861E+04 -4.019657E+05 -5.192948E+04 -1.736821E+04  9.675506E+03 -1.100195E+03
        67   9 -4.135866E+04 -3.429500E+05 -3.610455E+04 -3.355958E+04  6.955788E+03 -1.579786E+03
        67  10  7.132676E+04  1.213497E+05  6.763382E+04 -3.351224E+04 -3.642358E-10  1.546254E-09
        67  11  5.708270E+04  6.224705E+04  5.537781E+04 -1.732040E+04  1.216867E-09 -2.486836E-10
        67  12  4.403261E+04  3.596712E+03  4.424556E+04 -3.300721E+04  2.884394E-09 -2.279288E-09
        67  13 -3.648412E+02 -1.696979E+05  2.283633E+02 -3.328454E+04  6.819125E-10  6.900367E-13
        67  14 -7.611127E+01 -1.698842E+05  1.725875E+03 -1.734431E+04  3.105188E-09 -6.342247E-10
        67  15  1.338001E+03 -1.696905E+05  4.071461E+03 -3.328343E+04 -1.541387E-09 -1.228604E-09
        67  16 -7.206240E+04 -4.606671E+05 -6.718277E+04 -3.305694E+04 -3.333919E-10 -1.546850E-09
        67  17 -5.723871E+04 -4.019657E+05 -5.192966E+04 -1.736820E+04  2.161261E-09 -1.073809E-09
        67  18 -4.135872E+04 -3.429500E+05 -3.610465E+04 -3.355957E+04  1.856352E-09  2.416822E-09
        67  19  7.132691E+04  1.213497E+05  6.763411E+04 -3.351227E+04 -1.182506E+04  3.216506E+03
        67  20  5.708281E+04  6.224710E+04  5.537802E+04 -1.732044E+04 -9.677169E+03  4.489510E+03
        67  21  4.403267E+04  3.596761E+03  4.424571E+04 -3.300725E+04 -6.958666E+03  5.763712E+03
        67  22 -3.646901E+02 -1.696978E+05  2.286329E+02 -3.328456E+04 -1.182472E+04  1.918933E+03
        67  23 -7.600863E+01 -1.698842E+05  1.726066E+03 -1.734433E+04 -9.676337E+03  2.794538E+03
        67  24  1.338057E+03 -1.696905E+05  4.071577E+03 -3.328345E+04 -6.957228E+03  3.671460E+03
        67  25 -7.206225E+04 -4.606671E+05 -6.718251E+04 -3.305695E+04 -1.182439E+04  6.219632E+02
        67  26 -5.723861E+04 -4.019657E+05 -5.192948E+04 -1.736821E+04 -9.675506E+03  1.100195E+03
        67  27 -4.135866E+04 -3.429500E+05 -3.610455E+04 -3.355958E+04 -6.955788E+03  1.579786E+03
        68   1  2.748559E+04 -5.336311E+04  3.171047E+04 -3.576049E+04  5.135527E+03 -6.572579E+03
        68   2  1.263912E+04 -1.147808E+05  2.189758E+04 -1.529559E+04  2.429455E+03 -1.082954E+04
        68   3  1.573019E+04 -1.712133E+05  1.932808E+04 -2.672805E+04  4.521815E+02 -1.508575E+04
        68   4 -8.780376E+02 -1.686447E+05  5.210486E+03 -3.329189E+04  5.133879E+03 -4.433041E+03
        68   5 -1.238786E+03 -1.711775E+05  8.893950E+03 -1.733652E+04  2.428198E+03 -9.197023E+03
        68   6  1.642661E+04 -1.686414E+05  2.017293E+04 -3.327819E+04  4.513970E+02 -1.396063E+04
        68   7 -2.924256E+04 -2.839139E+05 -2.129036E+04 -3.082376E+04  5.132248E+03 -2.293897E+03
        68   8 -1.511690E+04 -2.275711E+05 -4.109885E+03 -1.937726E+04  2.426931E+03 -7.564652E+03
        68   9  1.712320E+04 -1.660694E+05  2.101780E+04 -3.982835E+04  4.505888E+02 -1.283551E+04
        68  10  2.748555E+04 -5.336317E+04  3.171034E+04 -3.576046E+04  1.458375E-09  1.323707E-09
        68  11  1.263908E+04 -1.147810E+05  2.189735E+04 -1.529557E+04  1.139612E-09 -3.953840E-10
        68  12  1.573013E+04 -1.712136E+05  1.932766E+04 -2.672804E+04 -7.022234E-10 -2.102934E-09
        68  13 -8.780712E+02 -1.686447E+05  5.210400E+03 -3.329188E+04 -7.302850E-10 -8.463231E-12
        68  14 -1.238815E+03 -1.711776E+05  8.893779E+03 -1.733650E+04  3.512605E-09 -8.135394E-10
        68  15  1.642656E+04 -1.686416E+05  2.017256E+04 -3.327818E+04 -7.832332E-10 -1.384127E-09
        68  16 -2.924259E+04 -2.839139E+05 -2.129042E+04 -3.082375E+04 -7.941148E-10 -1.336107E-09
        68  17 -1.511692E+04 -2.275712E+05 -4.110003E+03 -1.937724E+04 -5.148752E-10 -1.293838E-09
        68  18  1.712316E+04 -1.660696E+05  2.101749E+04 -3.982835E+04  1.137580E-09  2.247289E-09
        68  19  2.748559E+04 -5.336311E+04  3.171047E+04 -3.576049E+04 -5.135527E+03  6.572579E+03
        68  20  1.263912E+04 -1.147808E+05  2.189758E+04 -1.529559E+04 -2.429455E+03  1.082954E+04
        68  21  1.573019E+04 -1.712133E+05  1.932808E+04 -2.672805E+04 -4.521815E+02  1.508575E+04
        68  22 -8.780376E+02 -1.686447E+05  5.210486E+03 -3.329189E+04 -5.133879E+03  4.433041E+03
        68  23 -1.238786E+03 -1.711775E+05  8.893950E+03 -1.733652E+04 -2.428198E+03  9.197023E+03
        68  24  1.642661E+04 -1.686414E+05  2.017293E+04 -3.327819E+04 -4.513970E+02  1.396063E+04
        68  25 -2.924256E+04 -2.839139E+05 -2.129036E+04 -3.082376E+04 -5.132248E+03  2.293897E+03
        68  26 -1.511690E+04 -2.275711E+05 -4.109885E+03 -1.937726E+04 -2.426931E+03  7.564652E+03
        68  27  1.712320E+04 -1.660694E+05  2.101780E+04 -3.982835E+04 -4.505888E+02  1.283551E+04
        69   1 -2.094889E+05 -5.300029E+04 -2.125204E+04 -8.117409E+04 -9.077854E+03 -3.033384E+03
        69   2 -2.009593E+05 -3.527252E+04 -1.089653E+04 -7.757718E+04 -5.680463E+03 -1.150749E+03
        69   3 -1.931780E+05 -3.248940E+04 -6.244965E+03 -7.560368E+04 -1.944207E+03 -1.714760E+02
        69   4 -1.818760E+05 -3.894477E+04 -1.306759E+04 -6.989434E+04 -8.436124E+03 -2.792810E+03
        69   5 -1.808698E+05 -2.662514E+04 -5.546862E+03 -7.092190E+04 -5.627175E+03 -1.130782E+03
        69   6 -1.804953E+05 -2.913344E+04 -3.263691E+03 -7.357303E+04 -2.479410E+03 -3.721519E+02
        69   7 -1.542625E+05 -2.488910E+04 -4.883268E+03 -5.861416E+04 -7.794367E+03 -2.552216E+03
        69   8 -1.607799E+05 -1.797771E+04 -1.972410E+02 -6.426643E+04 -5.573886E+03 -1.110815E+03
        69   9 -1.678124E+05 -2.577748E+04 -2.824174E+02 -7.154235E+04 -3.014627E+03 -5.728298E+02
        69  10 -2.094890E+05 -5.300032E+04 -2.125221E+04 -8.117411E+04 -5.093085E-09 -2.302568E-09
        69  11 -2.009593E+05 -3.527253E+04 -1.089659E+04 -7.757719E+04  3.677255E-09  1.824163E-10
        69  12 -1.931780E+05 -3.248940E+04 -6.244972E+03 -7.560368E+04  1.090945E-08  2.920938E-09
        69  13 -1.818760E+05 -3.894480E+04 -1.306774E+04 -6.989436E+04 -8.619183E-11 -9.130130E-11
        69  14 -1.808698E+05 -2.662515E+04 -5.546923E+03 -7.092191E+04  1.965673E-09 -2.921831E-10
        69  15 -1.804953E+05 -2.913345E+04 -3.263703E+03 -7.357303E+04  1.585355E-09 -2.253923E-10
        69  16 -1.542625E+05 -2.488912E+04 -4.883395E+03 -5.861418E+04  7.084006E-09  2.126412E-09
        69  17 -1.607800E+05 -1.797772E+04 -1.973017E+02 -6.426643E+04 -1.826897E-09 -6.899182E-10
        69  18 -1.678124E+05 -2.577749E+04 -2.824351E+02 -7.154235E+04 -7.075655E-09 -3.524598E-09
        69  19 -2.094889E+05 -5.300029E+04 -2.125204E+04 -8.117409E+04  9.077854E+03  3.033384E+03
        69  20 -2.009593E+05 -3.527252E+04 -1.089653E+04 -7.757718E+04  5.680463E+03  1.150749E+03
        69  21 -1.931780E+05 -3.248940E+04 -6.244965E+03 -7.560368E+04  1.944207E+03  1.714760E+02
        69  22 -1.818760E+05 -3.894477E+04 -1.306759E+04 -6.989434E+04  8.436124E+03  2.792810E+03
        69  23 -1.808698E+05 -2.662514E+04 -5.546862E+03 -7.092190E+04  5.627175E+03  1.130782E+03
        69  24 -1.804953E+05 -2.913344E+04 -3.263691E+03 -7.357303E+04  2.479410E+03  3.721519E+02
        69  25 -1.542625E+05 -2.488910E+04 -4.883268E+03 -5.861416E+04  7.794367E+03  2.552216E+03
        69  26 -1.607799E+05 -1.797771E+04 -1.972410E+02 -6.426643E+04  5.573886E+03  1.110815E+03
        69  27 -1.678124E+05 -2.577748E+04 -2.824174E+02 -7.154235E+04  3.014627E+03  5.728298E+02
        70   1 -1.818689E+05 -3.127885E+04 -3.130656E+03 -7.363594E+04 -1.635501E+03 -4.998771E+02
        70   2 -1.743913E+05 -2.483500E+04  5.409505E+02 -6.896459E+04 -7.699891E+02 -6.514999E+02
        70   3 -1.634614E+05 -2.323313E+04  3.429048E+03 -6.853975E+04  1.141906E+02 -8.528516E+02
        70   4 -1.800687E+05 -3.034195E+04 -2.629303E+03 -7.287016E+04 -1.891279E+03 -5.957839E+02
        70   5 -1.817402E+05 -2.751359E+04 -1.317160E+03 -7.090081E+04 -1.058167E+03 -7.595564E+02
        70   6 -1.799532E+05 -2.952082E+04 -7.628588E+02 -7.317803E+04 -2.064012E+02 -9.730624E+02
        70   7 -1.782685E+05 -2.940504E+04 -2.127950E+03 -7.210437E+04 -2.147056E+03 -6.916912E+02
        70   8 -1.890891E+05 -3.019217E+04 -3.175265E+03 -7.283701E+04 -1.346340E+03 -8.676111E+02
        70   9 -1.964446E+05 -3.580845E+04 -4.954754E+03 -7.781617E+04 -5.269815E+02 -1.093269E+03
        70  10 -1.818689E+05 -3.127886E+04 -3.130661E+03 -7.363594E+04  5.699772E-10  6.068559E-10
        70  11 -1.743913E+05 -2.483500E+04  5.409486E+02 -6.896459E+04 -1.133982E-09  1.086869E-09
        70  12 -1.634614E+05 -2.323313E+04  3.429046E+03 -6.853975E+04  1.241694E-09  7.323617E-10
        70  13 -1.800687E+05 -3.034195E+04 -2.629310E+03 -7.287016E+04 -3.308153E-09  1.891812E-10
        70  14 -1.817402E+05 -2.751359E+04 -1.317163E+03 -7.090081E+04 -3.038049E-09  1.186665E-09
        70  15 -1.799532E+05 -2.952082E+04 -7.628606E+02 -7.317803E+04 -9.458863E-10  8.592728E-10
        70  16 -1.782685E+05 -2.940504E+04 -2.127960E+03 -7.210437E+04 -6.813748E-10 -1.666525E-10
        70  17 -1.890891E+05 -3.019217E+04 -3.175270E+03 -7.283701E+04 -5.155971E-10  1.177965E-09
        70  18 -1.964446E+05 -3.580845E+04 -4.954757E+03 -7.781617E+04 -4.178299E-10  8.698222E-10
        70  19 -1.818689E+05 -3.127885E+04 -3.130656E+03 -7.363594E+04  1.635501E+03  4.998771E+02
        70  20 -1.743913E+05 -2.483500E+04  5.409505E+02 -6.896459E+04  7.699891E+02  6.514999E+02
        70  21 -1.634614E+05 -2.323313E+04  3.429048E+03 -6.853975E+04 -1.141906E+02  8.528516E+02
        70  22 -1.800687E+05 -3.034195E+04 -2.629303E+03 -7.287016E+04  1.891279E+03  5.957839E+02
        70  23 -1.817402E+05 -2.751359E+04 -1.317160E+03 -7.090081E+04  1.058167E+03  7.595564E+02
        70  24 -1.799532E+05 -2.952082E+04 -7.628588E+02 -7.317803E+04  2.064012E+02  9.730624E+02
        70  25 -1.782685E+05 -2.940504E+04 -2.127950E+03 -7.210437E+04  2.147056E+03  6.916912E+02
        70  26 -1.890891E+05 -3.019217E+04 -3.175265E+03 -7.283701E+04  1.346340E+03  8.676111E+02
        70  27 -1.964446E+05 -3.580845E+04 -4.954754E+03 -7.781617E+04  5.269815E+02  1.093269E+03
        71   1 -1.536464E+05 -1.980529E+04  6.117557E+03 -6.595620E+04  3.138716E+02 -1.099002E+03
        71   2 -1.462961E+05 -1.431390E+04  8.681036E+03 -6.119896E+04  6.769437E+02 -1.498225E+03
        71   3 -1.351061E+05 -1.279765E+04  1.108402E+04 -6.088911E+04  1.040906E+03 -1.899712E+03
        71   4 -1.799090E+05 -2.961776E+04 -6.031307E+02 -7.311462E+04  8.808722E+00 -1.213394E+03
        71   5 -1.818244E+05 -2.759737E+04 -3.693493E+02 -7.090328E+04  3.703934E+02 -1.613188E+03
        71   6 -1.798998E+05 -2.955184E+04 -2.948401E+02 -7.313939E+04  7.328643E+02 -2.015247E+03
        71   7 -2.061711E+05 -3.943028E+04 -7.323935E+03 -8.027282E+04 -2.962425E+02 -1.327783E+03
        71   8 -2.173518E+05 -4.088086E+04 -9.419901E+03 -8.060716E+04  6.386030E+01 -1.728145E+03
        71   9 -2.246918E+05 -4.630598E+04 -1.167392E+04 -8.538892E+04  4.248458E+02 -2.130773E+03
        71  10 -1.536464E+05 -1.980529E+04  6.117554E+03 -6.595620E+04  3.079235E-09  1.104004E-10
        71  11 -1.462961E+05 -1.431390E+04  8.681031E+03 -6.119896E+04 -7.941049E-10 -1.325636E-09
        71  12 -1.351061E+05 -1.279765E+04  1.108401E+04 -6.088911E+04 -2.560987E-09 -3.988094E-10
        71  13 -1.799090E+05 -2.961777E+04 -6.031335E+02 -7.311462E+04  1.234447E-09 -1.766307E-10
        71  14 -1.818244E+05 -2.759738E+04 -3.693544E+02 -7.090328E+04 -1.596283E-10 -1.234099E-09
        71  15 -1.798998E+05 -2.955184E+04 -2.948488E+02 -7.313938E+04  4.806347E-10  1.954470E-10
        71  16 -2.061711E+05 -3.943028E+04 -7.323938E+03 -8.027282E+04 -7.475496E-10 -5.596653E-10
        71  17 -2.173518E+05 -4.088086E+04 -9.419906E+03 -8.060716E+04  2.779407E-10 -1.143355E-09
        71  18 -2.246918E+05 -4.630598E+04 -1.167392E+04 -8.538892E+04 -7.793891E-11  8.041847E-10
        71  19 -1.536464E+05 -1.980529E+04  6.117557E+03 -6.595620E+04 -3.138716E+02  1.099002E+03
        71  20 -1.462961E+05 -1.431390E+04  8.681036E+03 -6.119896E+04 -6.769437E+02  1.498225E+03
        71  21 -1.351061E+05 -1.279765E+04  1.108402E+04 -6.088911E+04 -1.040906E+03  1.899712E+03
        71  22 -1.799090E+05 -2.961776E+04 -6.031307E+02 -7.311462E+04 -8.808722E+00  1.213394E+03
        71  23 -1.818244E+05 -2.759737E+04 -3.693493E+02 -7.090328E+04 -3.703934E+02  1.613188E+03
        71  24 -1.798998E+05 -2.955184E+04 -2.948401E+02 -7.313939E+04 -7.328643E+02  2.015247E+03
        71  25 -2.061711E+05 -3.943028E+04 -7.323935E+03 -8.027282E+04  2.962425E+02  1.327783E+03
        71  26 -2.173518E+05 -4.088086E+04 -9.419901E+03 -8.060716E+04 -6.386030E+01  1.728145E+03
        71  27 -2.246918E+05 -4.630598E+04 -1.167392E+04 -8.538892E+04 -4.248458E+02  2.130773E+03
        72   1 -1.254564E+05 -9.194803E+03  1.360552E+04 -5.826287E+04  1.191843E+03 -2.156540E+03
        72   2 -1.181355E+05 -3.795605E+03  1.584283E+04 -5.351176E+04  1.558136E+03 -2.556207E+03
        72   3 -1.069632E+05 -2.296800E+03  1.793508E+04 -5.320912E+04  1.924275E+03 -2.955287E+03
        72   4 -1.799008E+05 -2.955655E+04 -2.976535E+02 -7.313184E+04  8.848917E+02 -2.271675E+03
        72   5 -1.818265E+05 -2.760714E+04 -3.812092E+02 -7.090733E+04  1.251534E+03 -2.671229E+03
        72   6 -1.799012E+05 -2.955820E+04 -6.101362E+02 -7.313130E+04  1.618022E+03 -3.070198E+03
        72   7 -2.343419E+05 -4.991796E+04 -1.420097E+04 -8.799953E+04  5.779715E+02 -2.386799E+03
        72   8 -2.455134E+05 -5.141836E+04 -1.660554E+04 -8.830124E+04  9.449678E+02 -2.786238E+03
        72   9 -2.528342E+05 -5.681933E+04 -1.915584E+04 -9.305142E+04  1.311807E+03 -3.185094E+03
        72  10 -1.254564E+05 -9.194809E+03  1.360551E+04 -5.826286E+04  1.035578E-09  9.094827E-10
        72  11 -1.181355E+05 -3.795613E+03  1.584282E+04 -5.351176E+04 -1.023700E-09 -1.004071E-10
        72  12 -1.069632E+05 -2.296811E+03  1.793506E+04 -5.320912E+04  3.439060E-12  1.699273E-10
        72  13 -1.799008E+05 -2.955655E+04 -2.976646E+02 -7.313184E+04 -1.310392E-09  6.966404E-10
        72  14 -1.818265E+05 -2.760715E+04 -3.812256E+02 -7.090732E+04 -3.958886E-10 -1.785840E-10
        72  15 -1.799012E+05 -2.955821E+04 -6.101589E+02 -7.313130E+04 -6.430835E-10 -8.741281E-11
        72  16 -2.343419E+05 -4.991797E+04 -1.420098E+04 -8.799953E+04 -1.557525E-09  4.351322E-10
        72  17 -2.455134E+05 -5.141837E+04 -1.660556E+04 -8.830124E+04  1.341535E-09 -1.371914E-10
        72  18 -2.528342E+05 -5.681934E+04 -1.915586E+04 -9.305141E+04  9.976127E-10 -4.629189E-10
        72  19 -1.254564E+05 -9.194803E+03  1.360552E+04 -5.826287E+04 -1.191843E+03  2.156540E+03
        72  20 -1.181355E+05 -3.795605E+03  1.584283E+04 -5.351176E+04 -1.558136E+03  2.556207E+03
        72  21 -1.069632E+05 -2.296800E+03  1.793508E+04 -5.320912E+04 -1.924275E+03  2.955287E+03
        72  22 -1.799008E+05 -2.955655E+04 -2.976535E+02 -7.313184E+04 -8.848917E+02  2.271675E+03
        72  23 -1.818265E+05 -2.760714E+04 -3.812092E+02 -7.090733E+04 -1.251534E+03  2.671229E+03
        72  24 -1.799012E+05 -2.955820E+04 -6.101362E+02 -7.313130E+04 -1.618022E+03  3.070198E+03
        72  25 -2.343419E+05 -4.991796E+04 -1.420097E+04 -8.799953E+04 -5.779715E+02  2.386799E+03
        72  26 -2.455134E+05 -5.141836E+04 -1.660554E+04 -8.830124E+04 -9.449678E+02  2.786238E+03
        72  27 -2.528342E+05 -5.681933E+04 -1.915584E+04 -9.305142E+04 -1.311807E+03  3.185094E+03
        73   1 -9.736957E+04  1.304102E+03  2.026882E+04 -5.061202E+04  2.142778E+03 -3.185259E+03
        73   2 -9.004441E+04  6.696214E+03  2.197154E+04 -4.586214E+04  3.015918E+03 -3.392343E+03
        73   3 -7.899326E+04  8.080882E+03  2.312083E+04 -4.553117E+04  3.888458E+03 -3.597564E+03
        73   4 -1.799247E+05 -2.954679E+04 -7.909325E+02 -7.313818E+04  1.836751E+03 -3.300100E+03
        73   5 -1.817948E+05 -2.759375E+04 -1.397555E+03 -7.090974E+04  2.710988E+03 -3.506800E+03
        73   6 -1.799393E+05 -2.964837E+04 -2.558529E+03 -7.310022E+04  3.584616E+03 -3.711640E+03
        73   7 -2.624728E+05 -6.039713E+04 -2.185116E+04 -9.566155E+04  1.530770E+03 -3.414924E+03
        73   8 -2.735369E+05 -6.188318E+04 -2.476733E+04 -9.595400E+04  2.406107E+03 -3.621239E+03
        73   9 -2.808758E+05 -6.737712E+04 -2.823882E+04 -1.006653E+05  3.280826E+03 -3.825697E+03
        73  10 -9.736958E+04  1.304089E+03  2.026880E+04 -5.061201E+04 -8.616435E-10  3.074851E-10
        73  11 -9.004442E+04  6.696199E+03  2.197150E+04 -4.586213E+04  1.787274E-09 -4.588717E-10
        73  12 -7.899328E+04  8.080864E+03  2.312078E+04 -4.553116E+04  1.480803E-09 -1.030967E-10
        73  13 -1.799247E+05 -2.954680E+04 -7.909593E+02 -7.313817E+04 -1.134253E-09 -8.210234E-13
        73  14 -1.817948E+05 -2.759376E+04 -1.397592E+03 -7.090973E+04  2.276730E-10 -5.975136E-10
        73  15 -1.799393E+05 -2.964839E+04 -2.558579E+03 -7.310021E+04  4.215161E-10 -4.441048E-10
        73  16 -2.624728E+05 -6.039714E+04 -2.185118E+04 -9.566155E+04 -1.599689E-10 -4.414942E-10
        73  17 -2.735370E+05 -6.188319E+04 -2.476737E+04 -9.595399E+04 -1.903089E-09  3.843608E-11
        73  18 -2.808758E+05 -6.737714E+04 -2.823887E+04 -1.006653E+05  3.798887E-11 -3.202048E-10
        73  19 -9.736957E+04  1.304102E+03  2.026882E+04 -5.061202E+04 -2.142778E+03  3.185259E+03
        73  20 -9.004441E+04  6.696214E+03  2.197154E+04 -4.586214E+04 -3.015918E+03  3.392343E+03
        73  21 -7.899326E+04  8.080882E+03  2.312083E+04 -4.553117E+04 -3.888458E+03  3.597564E+03
        73  22 -1.799247E+05 -2.954679E+04 -7.909325E+02 -7.313818E+04 -1.836751E+03  3.300100E+03
        73  23 -1.817948E+05 -2.759375E+04 -1.397555E+03 -7.090974E+04 -2.710988E+03  3.506800E+03
        73  24 -1.799393E+05 -2.964837E+04 -2.558529E+03 -7.310022E+04 -3.584616E+03  3.711640E+03
        73  25 -2.624728E+05 -6.039713E+04 -2.185116E+04 -9.566155E+04 -1.530770E+03  3.414924E+03
        73  26 -2.735369E+05 -6.188318E+04 -2.476733E+04 -9.595400E+04 -2.406107E+03  3.621239E+03
        73  27 -2.808758E+05 -6.737712E+04 -2.823882E+04 -1.006653E+05 -3.280826E+03  3.825697E+03
        74   1 -6.940425E+04  1.164592E+04  2.479752E+04 -4.323217E+04  4.482971E+03 -3.686515E+03
        74   2 -6.197664E+04  1.731214E+04  2.439137E+04 -3.820840E+04  7.708997E+03 -3.004946E+03
        74   3 -5.170285E+04  1.749389E+04  2.128162E+04 -3.728946E+04  1.092902E+04 -2.307039E+03
        74   4 -1.800680E+05 -2.949564E+04 -3.380938E+03 -7.321142E+04  4.175125E+03 -3.802115E+03
        74   5 -1.815862E+05 -2.743070E+04 -6.081052E+03 -7.090452E+04  7.411207E+03 -3.116808E+03
        74   6 -1.802603E+05 -3.085255E+04 -1.149312E+04 -7.270257E+04  1.064123E+04 -2.415185E+03
        74   7 -2.907198E+05 -7.063644E+04 -3.156038E+04 -1.031859E+05  3.867338E+03 -3.917692E+03
        74   8 -3.011815E+05 -7.217254E+04 -3.655457E+04 -1.035949E+05  7.113481E+03 -3.228646E+03
        74   9 -3.088012E+05 -7.919771E+04 -4.426907E+04 -1.081089E+05  1.035351E+04 -2.523305E+03
        74  10 -6.940427E+04  1.164590E+04  2.479745E+04 -4.323215E+04  1.664439E-09  2.730774E-10
        74  11 -6.197671E+04  1.731211E+04  2.439124E+04 -3.820838E+04  1.127963E-09  1.530620E-09
        74  12 -5.170298E+04  1.749385E+04  2.128139E+04 -3.728944E+04  3.324464E-09  3.903014E-10
        74  13 -1.800680E+05 -2.949566E+04 -3.380998E+03 -7.321141E+04  1.860704E-09  7.676122E-10
        74  14 -1.815862E+05 -2.743073E+04 -6.081174E+03 -7.090450E+04  1.972028E-09  2.156236E-09
        74  15 -1.802605E+05 -3.085259E+04 -1.149334E+04 -7.270255E+04  7.938011E-11  1.834020E-10
        74  16 -2.907198E+05 -7.063646E+04 -3.156044E+04 -1.031858E+05  4.842869E-09  1.140692E-09
        74  17 -3.011816E+05 -7.217256E+04 -3.655468E+04 -1.035949E+05  3.494570E-09  2.587141E-09
        74  18 -3.088013E+05 -7.919774E+04 -4.426928E+04 -1.081089E+05 -1.016739E-09  9.478019E-10
        74  19 -6.940425E+04  1.164592E+04  2.479752E+04 -4.323217E+04 -4.482971E+03  3.686515E+03
        74  20 -6.197664E+04  1.731214E+04  2.439137E+04 -3.820840E+04 -7.708997E+03  3.004946E+03
        74  21 -5.170285E+04  1.749389E+04  2.128162E+04 -3.728946E+04 -1.092902E+04  2.307039E+03
        74  22 -1.800680E+05 -2.949564E+04 -3.380938E+03 -7.321142E+04 -4.175125E+03  3.802115E+03
        74  23 -1.815862E+05 -2.743070E+04 -6.081052E+03 -7.090452E+04 -7.411207E+03  3.116808E+03
        74  24 -1.802603E+05 -3.085255E+04 -1.149312E+04 -7.270257E+04 -1.064123E+04  2.415185E+03
        74  25 -2.907198E+05 -7.063644E+04 -3.156038E+04 -1.031859E+05 -3.867338E+03  3.917692E+03
        74  26 -3.011815E+05 -7.217254E+04 -3.655457E+04 -1.035949E+05 -7.113481E+03  3.228646E+03
        74  27 -3.088012E+05 -7.919771E+04 -4.426907E+04 -1.081089E+05 -1.035351E+04  2.523305E+03
        75   1 -4.109207E+04  2.097784E+04  2.029765E+04 -3.832922E+04  1.324360E+04 -1.783989E+03
        75   2 -3.360183E+04  3.036862E+04  1.102450E+04 -2.944391E+04  2.684744E+04  2.833524E+03
        75   3 -3.116066E+04  1.689404E+04 -1.341505E+04 -2.043005E+04  4.034989E+04  7.722172E+03
        75   4 -1.811952E+05 -2.885571E+04 -1.494284E+04 -7.396520E+04  1.287345E+04 -1.923023E+03
        75   5 -1.798329E+05 -2.576216E+04 -2.650065E+04 -7.089095E+04  2.665062E+04  2.759410E+03
        75   6 -1.835562E+05 -4.557171E+04 -5.336507E+04 -6.768817E+04  4.032624E+04  7.712729E+03
        75   7 -3.212797E+05 -7.868868E+04 -5.018503E+04 -1.095942E+05  1.250338E+04 -2.062028E+03
        75   8 -3.260433E+05 -8.189139E+04 -6.402765E+04 -1.123291E+05  2.645386E+04  2.685315E+03
        75   9 -3.359291E+05 -1.080347E+05 -9.331706E+04 -1.149353E+05  4.030259E+04  7.703288E+03
        75  10 -4.109226E+04  2.097779E+04  2.029732E+04 -3.832920E+04 -4.730207E-10 -1.187181E-09
        75  11 -3.360260E+04  3.036842E+04  1.102313E+04 -2.944397E+04 -1.305808E-09 -9.729833E-10
        75  12 -3.116243E+04  1.689354E+04 -1.341822E+04 -2.043031E+04  4.444346E-10 -1.818597E-09
        75  13 -1.811953E+05 -2.885576E+04 -1.494316E+04 -7.396518E+04  2.275958E-10 -8.492201E-10
        75  14 -1.798336E+05 -2.576236E+04 -2.650200E+04 -7.089101E+04 -1.585340E-09 -8.673077E-10
        75  15 -1.835580E+05 -4.557221E+04 -5.336823E+04 -6.768842E+04  4.575396E-11 -1.921690E-09
        75  16 -3.212799E+05 -7.868872E+04 -5.018533E+04 -1.095942E+05 -1.369054E-09  5.659277E-10
        75  17 -3.260441E+05 -8.189158E+04 -6.402898E+04 -1.123292E+05 -2.597387E-09 -5.540219E-10
        75  18 -3.359308E+05 -1.080352E+05 -9.332023E+04 -1.149356E+05 -7.480129E-10 -7.710564E-10
        75  19 -4.109207E+04  2.097784E+04  2.029765E+04 -3.832922E+04 -1.324360E+04  1.783989E+03
        75  20 -3.360183E+04  3.036862E+04  1.102450E+04 -2.944391E+04 -2.684744E+04 -2.833524E+03
        75  21 -3.116066E+04  1.689404E+04 -1.341505E+04 -2.043005E+04 -4.034989E+04 -7.722172E+03
        75  22 -1.811952E+05 -2.885571E+04 -1.494284E+04 -7.396520E+04 -1.287345E+04  1.923023E+03
        75  23 -1.798329E+05 -2.576216E+04 -2.650065E+04 -7.089095E+04 -2.665062E+04 -2.759410E+03
        75  24 -1.835562E+05 -4.557171E+04 -5.336507E+04 -6.768817E+04 -4.032624E+04 -7.712729E+03
        75  25 -3.212797E+05 -7.868868E+04 -5.018503E+04 -1.095942E+05 -1.250338E+04  2.062028E+03
        75  26 -3.260433E+05 -8.189139E+04 -6.402765E+04 -1.123291E+05 -2.645386E+04 -2.685315E+03
        75  27 -3.359291E+05 -1.080347E+05 -9.331706E+04 -1.149353E+05 -4.030259E+04 -7.703288E+03
        76   1 -5.789897E+03  2.038600E+04 -2.419710E+04 -6.027864E+04  5.115831E+04  1.077589E+04
        76   2 -4.504448E+03  7.457714E+04 -6.828790E+04 -4.262559E+03  1.091995E+05  3.270868E+04
        76   3 -9.072314E+04 -9.717773E+04 -2.164705E+05  1.050053E+05  1.654110E+05  5.951691E+04
        76   4 -1.921593E+05 -2.105410E+04 -6.632819E+04 -8.210389E+04  4.963053E+04  1.020453E+04
        76   5 -1.621870E+05 -7.577848E+03 -1.128679E+05 -7.121694E+04  1.108280E+05  3.331549E+04
        76   6 -2.203760E+05 -2.207197E+05 -2.660215E+05 -7.069336E+03  1.701978E+05  6.129127E+04
        76   7 -3.784933E+05 -6.249502E+04 -1.084609E+05 -1.039257E+05  4.810326E+04  9.633179E+03
        76   8 -3.198428E+05 -8.972287E+04 -1.574497E+05 -1.381532E+05  1.124560E+05  3.392197E+04
        76   9 -3.499970E+05 -3.442166E+05 -3.155712E+05 -1.191128E+05  1.749835E+05  6.306375E+04
        76  10 -5.792739E+03  2.038517E+04 -2.420223E+04 -6.027908E+04  2.145823E-10 -1.582636E-09
        76  11 -4.517542E+03  7.457279E+04 -6.831232E+04 -4.265436E+03 -5.557690E-10 -1.913352E-10
        76  12 -9.075348E+04 -9.718888E+04 -2.165285E+05  1.049973E+05 -1.021283E-09 -5.294477E-10
        76  13 -1.921619E+05 -2.105487E+04 -6.633301E+04 -8.210430E+04  1.515765E-09 -1.617105E-09
        76  14 -1.622005E+05 -7.582339E+03 -1.128930E+05 -7.121992E+04 -1.359184E-09 -1.280283E-09
        76  15 -2.204082E+05 -2.207315E+05 -2.660830E+05 -7.077741E+03  5.175992E-10  1.030202E-09
        76  16 -3.784958E+05 -6.249574E+04 -1.084655E+05 -1.039261E+05 -4.576848E-10 -6.290572E-10
        76  17 -3.198567E+05 -8.972750E+04 -1.574756E+05 -1.381563E+05  1.159335E-09  2.821035E-10
        76  18 -3.500309E+05 -3.442291E+05 -3.156363E+05 -1.191217E+05 -1.702118E-10 -5.682300E-10
        76  19 -5.789897E+03  2.038600E+04 -2.419710E+04 -6.027864E+04 -5.115831E+04 -1.077589E+04
        76  20 -4.504448E+03  7.457714E+04 -6.828790E+04 -4.262559E+03 -1.091995E+05 -3.270868E+04
        76  21 -9.072314E+04 -9.717773E+04 -2.164705E+05  1.050053E+05 -1.654110E+05 -5.951691E+04
        76  22 -1.921593E+05 -2.105410E+04 -6.632819E+04 -8.210389E+04 -4.963053E+04 -1.020453E+04
        76  23 -1.621870E+05 -7.577848E+03 -1.128679E+05 -7.121694E+04 -1.108280E+05 -3.331549E+04
        76  24 -2.203760E+05 -2.207197E+05 -2.660215E+05 -7.069336E+03 -1.701978E+05 -6.129127E+04
        76  25 -3.784933E+05 -6.249502E+04 -1.084609E+05 -1.039257E+05 -4.810326E+04 -9.633179E+03
        76  26 -3.198428E+05 -8.972287E+04 -1.574497E+05 -1.381532E+05 -1.124560E+05 -3.392197E+04
        76  27 -3.499970E+05 -3.442166E+05 -3.155712E+05 -1.191128E+05 -1.749835E+05 -6.306375E+04
        77   1  2.135219E+05  2.053589E+06  2.137613E+05 -4.147195E+04  8.841898E+03  1.024248E+05
        77   2  1.533921E+05  2.048740E+06  1.504880E+05 -1.786758E+04  3.064452E+04  5.877222E+04
        77   3  1.391537E+05  2.061057E+06  1.270551E+05  7.526617E+03  3.910780E+04  1.512186E+04
        77   4  7.188960E+04  1.478067E+06  7.997865E+04  3.904315E+03  8.851056E+03  5.376770E+04
        77   5  1.616087E+04  1.471477E+06  4.046644E+04  3.002053E+03  3.065214E+04  3.291633E+04
        77   6  2.393810E+03  1.478114E+06  2.500653E+04  3.890273E+03  3.911166E+04  1.206605E+04
        77   7 -6.975707E+04  9.028600E+05 -5.381633E+04  4.923835E+04  8.853127E+03  5.155261E+03
        77   8 -1.210879E+05  8.945363E+05 -6.956745E+04  2.385189E+04  3.065803E+04  7.083841E+03
        77   9 -1.343845E+05  8.955034E+05 -7.705423E+04  2.574525E+02  3.911555E+04  9.013024E+03
        77  10  2.135190E+05  2.053577E+06  2.137415E+05 -4.147268E+04 -1.716224E-09 -4.010022E-10
        77  11  1.533901E+05  2.048736E+06  1.504798E+05 -1.786903E+04 -1.340869E-09 -1.769819E-10
        77  12  1.391520E+05  2.061056E+06  1.270518E+05  7.526141E+03  3.476552E-10 -2.294146E-10
        77  13  7.188874E+04  1.478064E+06  7.997309E+04  3.903931E+03 -1.062906E-09  3.696389E-11
        77  14  1.615957E+04  1.471475E+06  4.046265E+04  3.001241E+03 -2.024841E-09  3.269394E-12
        77  15  2.392127E+03  1.478114E+06  2.500338E+04  3.889893E+03 -8.120685E-10 -1.487538E-10
        77  16 -6.975716E+04  9.028599E+05 -5.381653E+04  4.923831E+04  8.658315E-10  4.265510E-10
        77  17 -1.210889E+05  8.945360E+05 -6.956931E+04  2.385172E+04  2.176400E-09 -1.756201E-10
        77  18 -1.343862E+05  8.955029E+05 -7.705726E+04  2.571686E+02  8.861332E-10 -1.701984E-10
        77  19  2.135219E+05  2.053589E+06  2.137613E+05 -4.147195E+04 -8.841898E+03 -1.024248E+05
        77  20  1.533921E+05  2.048740E+06  1.504880E+05 -1.786758E+04 -3.064452E+04 -5.877222E+04
        77  21  1.391537E+05  2.061057E+06  1.270551E+05  7.526617E+03 -3.910780E+04 -1.512186E+04
        77  22  7.188960E+04  1.478067E+06  7.997865E+04  3.904315E+03 -8.851056E+03 -5.376770E+04
        77  23  1.616087E+04  1.471477E+06  4.046644E+04  3.002053E+03 -3.065214E+04 -3.291633E+04
        77  24  2.393810E+03  1.478114E+06  2.500653E+04  3.890273E+03 -3.911166E+04 -1.206605E+04
        77  25 -6.975707E+04  9.028600E+05 -5.381633E+04  4.923835E+04 -8.853127E+03 -5.155261E+03
        77  26 -1.210879E+05  8.945363E+05 -6.956745E+04  2.385189E+04 -3.065803E+04 -7.083841E+03
        77  27 -1.343845E+05  8.955034E+05 -7.705423E+04  2.574525E+02 -3.911555E+04 -9.013024E+03
        78   1  1.403142E+05  2.060633E+06  1.228787E+05  1.625872E+03  3.995372E+04  1.315225E+04
        78   2  1.387223E+05  2.063293E+06  1.190287E+05  3.074563E+03  4.143083E+04 -9.610742E+01
        78   3  1.425065E+05  2.069052E+06  1.251381E+05  5.464618E+03  4.044607E+04 -1.334544E+04
        78   4  3.241232E+03  1.475698E+06  2.127059E+04  3.702546E+03  3.995845E+04  8.527072E+03
        78   5  1.018039E+03  1.474511E+06  1.809582E+04  3.231601E+03  4.143452E+04 -5.073217E+02
        78   6  3.444029E+03  1.475696E+06  2.196505E+04  3.702064E+03  4.044763E+04 -9.542610E+03
        78   7 -1.338502E+05  8.910963E+05 -8.034941E+04  5.777232E+03  3.996316E+04  3.906107E+03
        78   8 -1.367047E+05  8.860675E+05 -8.284877E+04  3.388517E+03  4.143820E+04 -9.181590E+02
        78   9 -1.356375E+05  8.826828E+05 -8.122028E+04  1.941280E+03  4.044916E+04 -5.743288E+03
        78  10  1.403125E+05  2.060633E+06  1.228754E+05  1.625449E+03 -1.006224E-09  4.094278E-09
        78  11  1.387204E+05  2.063293E+06  1.190255E+05  3.074566E+03  1.576448E-09  1.283326E-09
        78  12  1.425047E+05  2.069052E+06  1.251347E+05  5.465053E+03  8.832232E-10 -5.201639E-10
        78  13  3.239496E+03  1.475697E+06  2.126746E+04  3.702272E+03  7.943568E-10 -3.889451E-10
        78  14  1.016194E+03  1.474510E+06  1.809259E+04  3.231618E+03 -3.849787E-10 -4.906972E-11
        78  15  3.442247E+03  1.475695E+06  2.196180E+04  3.702374E+03  2.106962E-09 -6.288006E-11
        78  16 -1.338519E+05  8.910959E+05 -8.035244E+04  5.777107E+03 -1.629843E-09 -3.810508E-09
        78  17 -1.367065E+05  8.860670E+05 -8.285200E+04  3.388548E+03  2.228753E-09 -2.569478E-09
        78  18 -1.356392E+05  8.826824E+05 -8.122342E+04  1.941467E+03 -1.351643E-09 -3.551942E-10
        78  19  1.403142E+05  2.060633E+06  1.228787E+05  1.625872E+03 -3.995372E+04 -1.315225E+04
        78  20  1.387223E+05  2.063293E+06  1.190287E+05  3.074563E+03 -4.143083E+04  9.610742E+01
        78  21  1.425065E+05  2.069052E+06  1.251381E+05  5.464618E+03 -4.044607E+04  1.334544E+04
        78  22  3.241232E+03  1.475698E+06  2.127059E+04  3.702546E+03 -3.995845E+04 -8.527072E+03
        78  23  1.018039E+03  1.474511E+06  1.809582E+04  3.231601E+03 -4.143452E+04  5.073217E+02
        78  24  3.444029E+03  1.475696E+06  2.196505E+04  3.702064E+03 -4.044763E+04  9.542610E+03
        78  25 -1.338502E+05  8.910963E+05 -8.034941E+04  5.777232E+03 -3.996316E+04 -3.906107E+03
        78  26 -1.367047E+05  8.860675E+05 -8.284877E+04  3.388517E+03 -4.143820E+04  9.181590E+02
        78  27 -1.356375E+05  8.826828E+05 -8.122028E+04  1.941280E+03 -4.044916E+04  5.743288E+03
        79   1  1.425951E+05  2.075157E+06  1.307231E+05 -7.576612E+02  3.992753E+04 -1.536525E+04
        79   2  1.596889E+05  2.070796E+06  1.572635E+05  2.524550E+04  3.164345E+04 -6.151258E+04
        79   3  2.254675E+05  2.084625E+06  2.259601E+05  5.132121E+04  9.253422E+03 -1.076744E+05
        79   4  2.533338E+03  1.478289E+06  2.609586E+04  3.501879E+03  3.992960E+04 -1.320729E+04
        79   5  1.715428E+04  1.471249E+06  4.274683E+04  3.488359E+03  3.163044E+04 -3.524313E+04
        79   6  7.630513E+04  1.478235E+06  8.485888E+04  3.546456E+03  9.222970E+03 -5.729162E+04
        79   7 -1.375477E+05  8.817680E+05 -7.854418E+04  7.757262E+03  3.993169E+04 -1.105133E+04
        79   8 -1.253993E+05  8.720497E+05 -7.178327E+04 -1.824728E+04  3.161559E+04 -8.998381E+03
        79   9 -7.287313E+04  8.721935E+05 -5.625641E+04 -4.418140E+04  9.184774E+03 -6.957562E+03
        79  10  1.425933E+05  2.075156E+06  1.307197E+05 -7.571675E+02 -9.908128E-10  3.058473E-08
        79  11  1.596868E+05  2.070792E+06  1.572545E+05  2.524706E+04 -7.183901E-10 -1.523427E-10
        79  12  2.254643E+05  2.084612E+06  2.259382E+05  5.132201E+04  1.492351E-11 -2.974561E-08
        79  13  2.531578E+03  1.478288E+06  2.609254E+04  3.502304E+03  1.995276E-10 -5.975125E-10
        79  14  1.715287E+04  1.471248E+06  4.274262E+04  3.489256E+03  1.974976E-09  7.678320E-11
        79  15  7.630416E+04  1.478231E+06  8.485256E+04  3.546882E+03  5.604050E-10  2.860541E-11
        79  16 -1.375495E+05  8.817674E+05 -7.854741E+04  7.757617E+03  4.935978E-10 -2.969352E-08
        79  17 -1.254004E+05  8.720493E+05 -7.178530E+04 -1.824705E+04  9.982933E-10 -1.409532E-09
        79  18 -7.287323E+04  8.721935E+05 -5.625666E+04 -4.418135E+04  9.031135E-10  2.841230E-08
        79  19  1.425951E+05  2.075157E+06  1.307231E+05 -7.576612E+02 -3.992753E+04  1.536525E+04
        79  20  1.596889E+05  2.070796E+06  1.572635E+05  2.524550E+04 -3.164345E+04  6.151258E+04
        79  21  2.254675E+05  2.084625E+06  2.259601E+05  5.132121E+04 -9.253422E+03  1.076744E+05
        79  22  2.533338E+03  1.478289E+06  2.609586E+04  3.501879E+03 -3.992960E+04  1.320729E+04
        79  23  1.715428E+04  1.471249E+06  4.274683E+04  3.488359E+03 -3.163044E+04  3.524313E+04
        79  24  7.630513E+04  1.478235E+06  8.485888E+04  3.546456E+03 -9.222970E+03  5.729162E+04
        79  25 -1.375477E+05  8.817680E+05 -7.854418E+04  7.757262E+03 -3.993169E+04  1.105133E+04
        79  26 -1.253993E+05  8.720497E+05 -7.178327E+04 -1.824728E+04 -3.161559E+04  8.998381E+03
        79  27 -7.287313E+04  8.721935E+05 -5.625641E+04 -4.418140E+04 -9.184774E+03  6.957562E+03
        80   1 -2.243193E+06 -4.521113E+05 -4.041371E+05 -5.481328E+04  6.950576E+04  2.924302E+04
        80   2 -2.070533E+06 -5.668703E+05 -4.349068E+05 -4.340110E+04  6.562932E+04  8.925727E+04
        80   3 -1.851812E+06 -5.152165E+05 -4.208582E+05 -1.361200E+05  6.200301E+04  8.831935E+04
        80   4  1.989732E+05  1.559047E+05  1.939004E+05 -1.101370E+05  1.326822E+05  2.949356E+04
        80   5  1.724732E+05 -1.367255E+04  8.610473E+04 -5.778202E+04  8.636391E+04  8.930053E+04
        80   6  1.992059E+05 -9.788508E+03  5.247440E+04 -1.095263E+05  4.029955E+04  8.825291E+04
        80   7  2.646602E+06  7.634940E+05  7.915185E+05 -1.656846E+05  1.961066E+05  2.973235E+04
        80   8  2.420135E+06  5.391716E+05  6.067796E+05 -7.221897E+04  1.071726E+05  8.934277E+04
        80   9  2.254123E+06  4.953471E+05  5.255292E+05 -8.284564E+04  1.852460E+04  8.818472E+04
        80  10 -2.243198E+06 -4.521135E+05 -4.041478E+05 -5.481492E+04  3.473967E-10  1.901175E-10
        80  11 -2.070540E+06 -5.668800E+05 -4.349299E+05 -4.340582E+04  9.199083E-10  6.455693E-10
        80  12 -1.851819E+06 -5.152259E+05 -4.208801E+05 -1.361244E+05 -6.798742E-10  5.764298E-10
        80  13  1.989541E+05  1.558991E+05  1.938657E+05 -1.101401E+05 -2.145033E-09 -1.957516E-10
        80  14  1.724631E+05 -1.368312E+04  8.607573E+04 -5.778823E+04 -1.692513E-09 -2.337914E-10
        80  15  1.992020E+05 -9.797309E+03  5.245671E+04 -1.095291E+05  1.644219E-09  9.622220E-10
        80  16  2.646560E+06  7.634828E+05  7.914449E+05 -1.656893E+05  2.756182E-10 -5.909246E-10
        80  17  2.420121E+06  5.391599E+05  6.067431E+05 -7.222666E+04  1.112135E-09 -9.113449E-10
        80  18  2.254121E+06  4.953387E+05  5.255139E+05 -8.284695E+04  2.183122E-09  1.431108E-09
        80  19 -2.243193E+06 -4.521113E+05 -4.041371E+05 -5.481328E+04 -6.950576E+04 -2.924302E+04
        80  20 -2.070533E+06 -5.668703E+05 -4.349068E+05 -4.340110E+04 -6.562932E+04 -8.925727E+04
        80  21 -1.851812E+06 -5.152165E+05 -4.208582E+05 -1.361200E+05 -6.200301E+04 -8.831935E+04
        80  22  1.989732E+05  1.559047E+05  1.939004E+05 -1.101370E+05 -1.326822E+05 -2.949356E+04
        80  23  1.724732E+05 -1.367255E+04  8.610473E+04 -5.778202E+04 -8.636391E+04 -8.930053E+04
        80  24  1.992059E+05 -9.788508E+03  5.247440E+04 -1.095263E+05 -4.029955E+04 -8.825291E+04
        80  25  2.646602E+06  7.634940E+05  7.915185E+05 -1.656846E+05 -1.961066E+05 -2.973235E+04
        80  26  2.420135E+06  5.391716E+05  6.067796E+05 -7.221897E+04 -1.071726E+05 -8.934277E+04
        80  27  2.254123E+06  4.953471E+05  5.255292E+05 -8.284564E+04 -1.852460E+04 -8.818472E+04
        81   1 -1.670135E+06 -4.472266E+05 -3.888153E+05 -1.083983E+05  3.544370E+04  7.542918E+04
        81   2 -1.479405E+06 -4.121284E+05 -3.630171E+05 -5.776711E+04  2.643954E+04  6.954844E+04
        81   3 -1.282153E+06 -3.636698E+05 -3.275729E+05 -1.122770E+05  1.741417E+04  6.057393E+04
        81   4  1.890826E+05  1.115844E+04  4.225161E+04 -1.099317E+05  3.250998E+04  7.540827E+04
        81   5  1.857411E+05 -1.809318E+03  2.209623E+04 -5.736173E+04  2.132647E+04  6.953010E+04
        81   6  1.892517E+05 -1.055884E+03  1.308067E+04 -1.099148E+05  1.012454E+04  6.056197E+04
        81   7  2.051499E+06  4.693001E+05  4.730868E+05 -1.114709E+05  2.956741E+04  7.538742E+04
        81   8  1.853454E+06  4.083150E+05  4.070244E+05 -5.695581E+04  1.619970E+04  6.951179E+04
        81   9  1.662660E+06  3.614058E+05  3.535895E+05 -1.075469E+05  2.817709E+03  6.054999E+04
        81  10 -1.670138E+06 -4.472331E+05 -3.888284E+05 -1.084004E+05  1.896275E-10  3.355644E-10
        81  11 -1.479408E+06 -4.121338E+05 -3.630275E+05 -5.776860E+04  1.394876E-09 -4.619597E-10
        81  12 -1.282155E+06 -3.636738E+05 -3.275803E+05 -1.122778E+05 -6.829542E-10 -3.856001E-11
        81  13  1.890800E+05  1.115205E+04  4.223893E+04 -1.099337E+05 -9.324836E-12  7.232523E-10
        81  14  1.857393E+05 -1.814632E+03  2.208629E+04 -5.736292E+04 -1.461559E-09 -2.910627E-10
        81  15  1.892506E+05 -1.059850E+03  1.307358E+04 -1.099152E+05 -3.951190E-10  1.741083E-10
        81  16  2.051496E+06  4.692938E+05  4.730744E+05 -1.114727E+05 -1.533480E-09  1.405161E-09
        81  17  1.853452E+06  4.083097E+05  4.070149E+05 -5.695671E+04  2.164721E-09 -3.154309E-10
        81  18  1.662659E+06  3.614019E+05  3.535826E+05 -1.075470E+05  1.114622E-09  9.390721E-10
        81  19 -1.670135E+06 -4.472266E+05 -3.888153E+05 -1.083983E+05 -3.544370E+04 -7.542918E+04
        81  20 -1.479405E+06 -4.121284E+05 -3.630171E+05 -5.776711E+04 -2.643954E+04 -6.954844E+04
        81  21 -1.282153E+06 -3.636698E+05 -3.275729E+05 -1.122770E+05 -1.741417E+04 -6.057393E+04
        81  22  1.890826E+05  1.115844E+04  4.225161E+04 -1.099317E+05 -3.250998E+04 -7.540827E+04
        81  23  1.857411E+05 -1.809318E+03  2.209623E+04 -5.736173E+04 -2.132647E+04 -6.953010E+04
        81  24  1.892517E+05 -1.055884E+03  1.308067E+04 -1.099148E+05 -1.012454E+04 -6.056197E+04
        81  25  2.051499E+06  4.693001E+05  4.730868E+05 -1.114709E+05 -2.956741E+04 -7.538742E+04
        81  26  1.853454E+06  4.083150E+05  4.070244E+05 -5.695581E+04 -1.619970E+04 -6.951179E+04
        81  27  1.662660E+06  3.614058E+05  3.535895E+05 -1.075469E+05 -2.817709E+03 -6.054999E+04
        82   1 -1.092779E+06 -3.149313E+05 -2.855303E+05 -1.097911E+05  1.440880E+04  5.473435E+04
        82   2 -9.000398E+05 -2.682075E+05 -2.457619E+05 -5.715902E+04  1.172364E+04  4.554161E+04
        82   3 -7.060072E+05 -2.202950E+05 -2.038129E+05 -1.093854E+05  9.021189E+03  3.619958E+04
        82   4  1.881438E+05  5.197420E+02  1.007753E+04 -1.098579E+05  8.081684E+03  5.472692E+04
        82   5  1.875588E+05 -3.135034E+02  5.620044E+03 -5.743437E+04  5.286643E+03  4.553927E+04
        82   6  1.882532E+05  6.289824E+01  3.418549E+03 -1.098581E+05  2.475136E+03  3.620260E+04
        82   7  1.470585E+06  3.158558E+05  3.055763E+05 -1.099247E+05  1.741583E+03  5.471949E+04
        82   8  1.276252E+06  2.674974E+05  2.569232E+05 -5.771003E+04 -1.161567E+03  4.553694E+04
        82   9  1.083253E+06  2.203646E+05  2.105966E+05 -1.103312E+05 -4.080288E+03  3.620563E+04
        82  10 -1.092780E+06 -3.149346E+05 -2.855363E+05 -1.097917E+05 -1.505283E-09 -1.886886E-10
        82  11 -9.000405E+05 -2.682097E+05 -2.457661E+05 -5.715945E+04  7.666066E-10  3.844448E-10
        82  12 -7.060076E+05 -2.202965E+05 -2.038156E+05 -1.093856E+05  1.009063E-09  7.616792E-10
        82  13  1.881429E+05  5.165079E+02  1.007178E+04 -1.098582E+05 -1.075081E-09  5.376861E-10
        82  14  1.875582E+05 -3.157380E+02  5.616094E+03 -5.743457E+04 -1.660019E-09  9.967367E-10
        82  15  1.882529E+05  6.148907E+01  3.416074E+03 -1.098581E+05 -1.348828E-09  6.661558E-10
        82  16  1.470584E+06  3.158526E+05  3.055707E+05 -1.099247E+05 -6.980907E-11  1.322275E-09
        82  17  1.276251E+06  2.674952E+05  2.569193E+05 -5.770999E+04 -8.565466E-10  5.216802E-10
        82  18  1.083253E+06  2.203632E+05  2.105941E+05 -1.103311E+05 -2.266568E-09  3.530196E-10
        82  19 -1.092779E+06 -3.149313E+05 -2.855303E+05 -1.097911E+05 -1.440880E+04 -5.473435E+04
        82  20 -9.000398E+05 -2.682075E+05 -2.457619E+05 -5.715902E+04 -1.172364E+04 -4.554161E+04
        82  21 -7.060072E+05 -2.202950E+05 -2.038129E+05 -1.093854E+05 -9.021189E+03 -3.619958E+04
        82  22  1.881438E+05  5.197420E+02  1.007753E+04 -1.098579E+05 -8.081684E+03 -5.472692E+04
        82  23  1.875588E+05 -3.135034E+02  5.620044E+03 -5.743437E+04 -5.286643E+03 -4.553927E+04
        82  24  1.882532E+05  6.289824E+01  3.418549E+03 -1.098581E+05 -2.475136E+03 -3.620260E+04
        82  25  1.470585E+06  3.158558E+05  3.055763E+05 -1.099247E+05 -1.741583E+03 -5.471949E+04
        82  26  1.276252E+06  2.674974E+05  2.569232E+05 -5.771003E+04  1.161567E+03 -4.553694E+04
        82  27  1.083253E+06  2.203646E+05  2.105966E+05 -1.103312E+05  4.080288E+03 -3.620563E+04
        83   1 -5.161638E+05 -1.731499E+05 -1.595007E+05 -1.092683E+05  8.413571E+03  3.073536E+04
        83   2 -3.231188E+05 -1.257856E+05 -1.163695E+05 -5.701157E+04  7.549441E+03  2.139582E+04
        83   3 -1.300129E+05 -7.809791E+04 -7.263596E+04 -1.094235E+05  6.677257E+03  1.205263E+04
        83   4  1.880498E+05  1.558226E+02  2.658844E+03 -1.098171E+05  1.918936E+03  3.074082E+04
        83   5  1.880635E+05  8.342208E+01  1.738902E+03 -5.748540E+04  1.050447E+03  2.140367E+04
        83   6  1.881010E+05  3.366998E+02  1.424788E+03 -1.098170E+05  1.741678E+02  1.206300E+04
        83   7  8.927226E+05  1.734269E+05  1.647857E+05 -1.103664E+05 -4.583013E+03  3.074629E+04
        83   8  6.994875E+05  1.259341E+05  1.198301E+05 -5.795952E+04 -5.453860E+03  2.141152E+04
        83   9  5.063085E+05  7.876418E+04  7.547886E+04 -1.102106E+05 -6.332231E+03  1.207337E+04
        83  10 -5.161642E+05 -1.731510E+05 -1.595027E+05 -1.092685E+05 -1.932733E-10  7.284905E-10
        83  11 -3.231190E+05 -1.257861E+05 -1.163705E+05 -5.701170E+04  1.386761E-10  1.586622E-12
        83  12 -1.300130E+05 -7.809808E+04 -7.263632E+04 -1.094236E+05 -1.647810E-09  1.465771E-10
        83  13  1.880496E+05  1.548068E+02  2.657061E+03 -1.098172E+05  4.512186E-12  2.870785E-11
        83  14  1.880634E+05  8.292980E+01  1.738039E+03 -5.748542E+04 -1.744992E-10  3.013127E-10
        83  15  1.881010E+05  3.365436E+02  1.424514E+03 -1.098170E+05 -1.513916E-09  7.044753E-10
        83  16  8.927223E+05  1.734259E+05  1.647839E+05 -1.103663E+05 -2.631597E-09 -7.522918E-11
        83  17  6.994874E+05  1.259336E+05  1.198292E+05 -5.795943E+04  3.464575E-10 -8.928741E-10
        83  18  5.063084E+05  7.876402E+04  7.547851E+04 -1.102106E+05  1.081280E-09  6.488125E-10
        83  19 -5.161638E+05 -1.731499E+05 -1.595007E+05 -1.092683E+05 -8.413571E+03 -3.073536E+04
        83  20 -3.231188E+05 -1.257856E+05 -1.163695E+05 -5.701157E+04 -7.549441E+03 -2.139582E+04
        83  21 -1.300129E+05 -7.809791E+04 -7.263596E+04 -1.094235E+05 -6.677257E+03 -1.205263E+04
        83  22  1.880498E+05  1.558226E+02  2.658844E+03 -1.098171E+05 -1.918936E+03 -3.074082E+04
        83  23  1.880635E+05  8.342208E+01  1.738902E+03 -5.748540E+04 -1.050447E+03 -2.140367E+04
        83  24  1.881010E+05  3.366998E+02  1.424788E+03 -1.098170E+05 -1.741678E+02 -1.206300E+04
        83  25  8.927226E+05  1.734269E+05  1.647857E+05 -1.103664E+05  4.583013E+03 -3.074629E+04
        83  26  6.994875E+05  1.259341E+05  1.198301E+05 -5.795952E+04  5.453860E+03 -2.141152E+04
        83  27  5.063085E+05  7.876418E+04  7.547886E+04 -1.102106E+05  6.332231E+03 -1.207337E+04
        84   1  5.986634E+04 -3.111696E+04 -2.763686E+04 -1.096480E+05  6.408294E+03  6.614627E+03
        84   2  2.529878E+05  1.612216E+04  1.670137E+04 -5.755199E+04  5.535291E+03 -2.722289E+03
        84   3  4.459575E+05  6.371651E+04  6.160362E+04 -1.100565E+05  4.663017E+03 -1.205348E+04
        84   4  1.880753E+05  3.308782E+02  1.408856E+03 -1.098032E+05 -9.427779E+01  6.625688E+03
        84   5  1.881655E+05  1.664580E+02  1.729185E+03 -5.750259E+04 -9.641585E+02 -2.711614E+03
        84   6  1.880687E+05  3.591650E+02  2.613209E+03 -1.098031E+05 -1.833047E+03 -1.204305E+04
        84   7  3.162996E+05  3.177761E+04  3.045367E+04 -1.099585E+05 -6.598179E+03  6.636750E+03
        84   8  1.233471E+05 -1.578952E+04 -1.324312E+04 -5.745320E+04 -7.462934E+03 -2.700940E+03
        84   9 -6.975834E+04 -6.300278E+04 -5.638141E+04 -1.095498E+05 -8.326436E+03 -1.203263E+04
        84  10  5.986628E+04 -3.111702E+04 -2.763702E+04 -1.096480E+05  8.365984E-10  5.638263E-10
        84  11  2.529878E+05  1.612215E+04  1.670130E+04 -5.755198E+04  6.579261E-10  3.307573E-10
        84  12  4.459574E+05  6.371634E+04  6.160331E+04 -1.100565E+05 -1.664064E-09  5.714217E-10
        84  13  1.880753E+05  3.308311E+02  1.408773E+03 -1.098032E+05 -1.098880E-09  1.163191E-09
        84  14  1.881655E+05  1.664499E+02  1.729169E+03 -5.750259E+04 -7.463567E-10  3.336574E-10
        84  15  1.880687E+05  3.590083E+02  2.612930E+03 -1.098031E+05  4.906338E-10  8.717527E-10
        84  16  3.162995E+05  3.177755E+04  3.045351E+04 -1.099585E+05 -1.565215E-09  8.395368E-10
        84  17  1.233471E+05 -1.578954E+04 -1.324324E+04 -5.745321E+04 -7.889747E-10 -4.030013E-11
        84  18 -6.975845E+04 -6.300295E+04 -5.638181E+04 -1.095499E+05  2.788045E-09  3.198125E-10
        84  19  5.986634E+04 -3.111696E+04 -2.763686E+04 -1.096480E+05 -6.408294E+03 -6.614627E+03
        84  20  2.529878E+05  1.612216E+04  1.670137E+04 -5.755199E+04 -5.535291E+03  2.722289E+03
        84  21  4.459575E+05  6.371651E+04  6.160362E+04 -1.100565E+05 -4.663017E+03  1.205348E+04
        84  22  1.880753E+05  3.308782E+02  1.408856E+03 -1.098032E+05  9.427779E+01 -6.625688E+03
        84  23  1.881655E+05  1.664580E+02  1.729185E+03 -5.750259E+04  9.641585E+02  2.711614E+03
        84  24  1.880687E+05  3.591650E+02  2.613209E+03 -1.098031E+05  1.833047E+03  1.204305E+04
        84  25  3.162996E+05  3.177761E+04  3.045367E+04 -1.099585E+05  6.598179E+03 -6.636750E+03
        84  26  1.233471E+05 -1.578952E+04 -1.324312E+04 -5.745320E+04  7.462934E+03  2.700940E+03
        84  27 -6.975834E+04 -6.300278E+04 -5.638141E+04 -1.095498E+05  8.326436E+03  1.203263E+04
        85   1  6.361457E+05  1.105997E+05  1.073305E+05 -1.101534E+05  4.159313E+03 -1.750437E+04
        85   2  8.290892E+05  1.577173E+05  1.535921E+05 -5.798288E+04  1.298207E+03 -2.682558E+04
        85   3  1.022716E+06  2.061296E+05  2.020176E+05 -1.104991E+05 -1.553909E+03 -3.602181E+04
        85   4  1.882185E+05  2.571996E+02  3.331255E+03 -1.098239E+05 -2.379395E+03 -1.749497E+04
        85   5  1.878678E+05 -6.214497E+01  5.537300E+03 -5.747683E+04 -5.151666E+03 -2.681945E+04
        85   6  1.881540E+05  9.017512E+02  9.849991E+03 -1.098230E+05 -7.914076E+03 -3.601874E+04
        85   7 -2.595235E+05 -1.100994E+05 -1.006813E+05 -1.094946E+05 -8.913422E+03 -1.748558E+04
        85   8 -4.529738E+05 -1.578704E+05 -1.425448E+05 -5.697116E+04 -1.159493E+04 -2.681332E+04
        85   9 -6.457642E+05 -2.043747E+05 -1.823637E+05 -1.091477E+05 -1.426577E+04 -3.601567E+04
        85  10  6.361456E+05  1.105994E+05  1.073299E+05 -1.101533E+05 -7.221989E-09 -5.431228E-10
        85  11  8.290891E+05  1.577165E+05  1.535908E+05 -5.798285E+04 -7.002438E-10 -1.692353E-09
        85  12  1.022715E+06  2.061282E+05  2.020152E+05 -1.104991E+05  7.669781E-09 -7.412831E-10
        85  13  1.882184E+05  2.568694E+02  3.330669E+03 -1.098240E+05 -1.060050E-09 -3.843569E-10
        85  14  1.878676E+05 -6.292456E+01  5.535898E+03 -5.747694E+04  4.167857E-10 -1.634374E-09
        85  15  1.881536E+05  9.003411E+02  9.847435E+03 -1.098233E+05  8.086960E-10 -1.158875E-09
        85  16 -2.595237E+05 -1.100998E+05 -1.006820E+05 -1.094948E+05  8.139342E-09  4.266372E-10
        85  17 -4.529742E+05 -1.578712E+05 -1.425464E+05 -5.697141E+04 -1.470620E-09 -1.357710E-09
        85  18 -6.457648E+05 -2.043762E+05 -1.823665E+05 -1.091481E+05 -7.249302E-09 -1.046156E-09
        85  19  6.361457E+05  1.105997E+05  1.073305E+05 -1.101534E+05 -4.159313E+03  1.750437E+04
        85  20  8.290892E+05  1.577173E+05  1.535921E+05 -5.798288E+04 -1.298207E+03  2.682558E+04
        85  21  1.022716E+06  2.061296E+05  2.020176E+05 -1.104991E+05  1.553909E+03  3.602181E+04
        85  22  1.882185E+05  2.571996E+02  3.331255E+03 -1.098239E+05  2.379395E+03  1.749497E+04
        85  23  1.878678E+05 -6.214497E+01  5.537300E+03 -5.747683E+04  5.151666E+03  2.681945E+04
        85  24  1.881540E+05  9.017512E+02  9.849991E+03 -1.098230E+05  7.914076E+03  3.601874E+04
        85  25 -2.595235E+05 -1.100994E+05 -1.006813E+05 -1.094946E+05  8.913422E+03  1.748558E+04
        85  26 -4.529738E+05 -1.578704E+05 -1.425448E+05 -5.697116E+04  1.159493E+04  2.681332E+04
        85  27 -6.457642E+05 -2.043747E+05 -1.823637E+05 -1.091477E+05  1.426577E+04  3.601567E+04
        86   1  1.214224E+06  2.516120E+05  2.498779E+05 -1.084478E+05 -2.759089E+03 -4.177315E+04
        86   2  1.405039E+06  2.984338E+05  3.030527E+05 -5.855100E+04 -1.553680E+04 -5.077318E+04
        86   3  1.601874E+06  3.590968E+05  3.681696E+05 -1.134729E+05 -2.830204E+04 -5.723158E+04
        86   4  1.891874E+05 -6.456378E+02  1.276285E+04 -1.098543E+05 -9.913468E+03 -4.177234E+04
        86   5  1.862843E+05 -1.366722E+03  2.166250E+04 -5.743914E+04 -2.090006E+04 -5.077899E+04
        86   6  1.890637E+05  1.146003E+04  4.127937E+04 -1.098545E+05 -3.187021E+04 -5.724174E+04
        86   7 -8.348793E+05 -2.529770E+05 -2.244222E+05 -1.112583E+05 -1.705613E+04 -4.177150E+04
        86   8 -1.031100E+06 -3.012713E+05 -2.598265E+05 -5.632935E+04 -2.625285E+04 -5.078484E+04
        86   9 -1.221905E+06 -3.363168E+05 -2.857442E+05 -1.062444E+05 -3.543028E+04 -5.725195E+04
        86  10  1.214223E+06  2.516101E+05  2.498746E+05 -1.084479E+05 -5.020087E-11  1.950217E-10
        86  11  1.405038E+06  2.984310E+05  3.030474E+05 -5.855163E+04  3.975698E-10  8.196334E-10
        86  12  1.601872E+06  3.590931E+05  3.681619E+05 -1.134742E+05  1.633867E-09  2.652345E-10
        86  13  1.891869E+05 -6.475382E+02  1.275939E+04 -1.098547E+05 -2.168525E-09  2.232751E-10
        86  14  1.862832E+05 -1.369608E+03  2.165683E+04 -5.743999E+04  8.918742E-13  8.825687E-10
        86  15  1.890617E+05  1.145624E+04  4.127130E+04 -1.098560E+05  4.102130E-10  1.122110E-10
        86  16 -8.348801E+05 -2.529789E+05 -2.244260E+05 -1.112589E+05  4.998839E-10 -2.086638E-10
        86  17 -1.031101E+06 -3.012743E+05 -2.598326E+05 -5.633042E+04  1.928085E-09  1.017811E-09
        86  18 -1.221907E+06 -3.363207E+05 -2.857527E+05 -1.062460E+05 -1.012997E-09  7.054040E-11
        86  19  1.214224E+06  2.516120E+05  2.498779E+05 -1.084478E+05  2.759089E+03  4.177315E+04
        86  20  1.405039E+06  2.984338E+05  3.030527E+05 -5.855100E+04  1.553680E+04  5.077318E+04
        86  21  1.601874E+06  3.590968E+05  3.681696E+05 -1.134729E+05  2.830204E+04  5.723158E+04
        86  22  1.891874E+05 -6.456378E+02  1.276285E+04 -1.098543E+05  9.913468E+03  4.177234E+04
        86  23  1.862843E+05 -1.366722E+03  2.166250E+04 -5.743914E+04  2.090006E+04  5.077899E+04
        86  24  1.890637E+05  1.146003E+04  4.127937E+04 -1.098545E+05  3.187021E+04  5.724174E+04
        86  25 -8.348793E+05 -2.529770E+05 -2.244222E+05 -1.112583E+05  1.705613E+04  4.177150E+04
        86  26 -1.031100E+06 -3.012713E+05 -2.598265E+05 -5.632935E+04  2.625285E+04  5.078484E+04
        86  27 -1.221905E+06 -3.363168E+05 -2.857442E+05 -1.062444E+05  3.543028E+04  5.725195E+04
        87   1  1.803435E+06  3.854952E+05  4.207735E+05 -8.608896E+04 -2.044586E+04 -6.872443E+04
        87   2  1.970381E+06  4.293497E+05  5.006629E+05 -7.524470E+04 -1.005109E+05 -7.120230E+04
        87   3  2.193827E+06  6.483942E+05  6.768436E+05 -1.682142E+05 -1.807139E+05 -2.369452E+04
        87   4  1.988942E+05 -8.979087E+03  5.125135E+04 -1.095500E+05 -3.949200E+04 -6.874872E+04
        87   5  1.735249E+05 -1.278476E+04  8.424683E+04 -5.779084E+04 -8.456010E+04 -7.119573E+04
        87   6  1.987050E+05  1.528001E+05  1.894189E+05 -1.098481E+05 -1.297374E+05 -2.360331E+04
        87   7 -1.403268E+06 -4.036312E+05 -3.184400E+05 -1.329502E+05 -5.848930E+04 -6.877161E+04
        87   8 -1.620354E+06 -4.551448E+05 -3.323845E+05 -4.038871E+04 -6.865476E+04 -7.118827E+04
        87   9 -1.792784E+06 -3.430729E+05 -2.982844E+05 -5.167111E+04 -7.892348E+04 -2.350243E+04
        87  10  1.803434E+06  3.854901E+05  4.207639E+05 -8.609009E+04  6.359161E-10  1.125281E-10
        87  11  1.970369E+06  4.293415E+05  5.006344E+05 -7.525045E+04  6.900371E-11 -2.320150E-11
        87  12  2.193791E+06  6.483848E+05  6.767814E+05 -1.682177E+05  3.568285E-11 -3.295706E-10
        87  13  1.988913E+05 -8.984582E+03  5.123953E+04 -1.095521E+05  2.498131E-11 -2.792644E-10
        87  14  1.735159E+05 -1.279212E+04  8.422386E+04 -5.779569E+04 -2.475327E-09 -5.401989E-10
        87  15  1.986867E+05  1.527950E+05  1.893862E+05 -1.098506E+05 -7.622725E-10 -1.150077E-11
        87  16 -1.403273E+06 -4.036372E+05 -3.184553E+05 -1.329534E+05 -5.016991E-10 -4.592385E-10
        87  17 -1.620361E+06 -4.551515E+05 -3.324029E+05 -4.039265E+04 -8.547782E-10  1.406066E-10
        87  18 -1.792790E+06 -3.430752E+05 -2.982971E+05 -5.167260E+04  1.354660E-09 -1.255169E-10
        87  19  1.803435E+06  3.854952E+05  4.207735E+05 -8.608896E+04  2.044586E+04  6.872443E+04
        87  20  1.970381E+06  4.293497E+05  5.006629E+05 -7.524470E+04  1.005109E+05  7.120230E+04
        87  21  2.193827E+06  6.483942E+05  6.768436E+05 -1.682142E+05  1.807139E+05  2.369452E+04
        87  22  1.988942E+05 -8.979087E+03  5.125135E+04 -1.095500E+05  3.949200E+04  6.874872E+04
        87  23  1.735249E+05 -1.278476E+04  8.424683E+04 -5.779084E+04  8.456010E+04  7.119573E+04
        87  24  1.987050E+05  1.528001E+05  1.894189E+05 -1.098481E+05  1.297374E+05  2.360331E+04
        87  25 -1.403268E+06 -4.036312E+05 -3.184400E+05 -1.329502E+05  5.848930E+04  6.877161E+04
        87  26 -1.620354E+06 -4.551448E+05 -3.323845E+05 -4.038871E+04  6.865476E+04  7.118827E+04
        87  27 -1.792784E+06 -3.430729E+05 -2.982844E+05 -5.167111E+04  7.892348E+04  2.350243E+04
        88   1  1.103672E+05 -1.310267E+05  1.298539E+05 -1.595849E+05 -1.177177E+03  7.436468E+04
        88   2 -4.163687E+04 -3.647372E+05  1.525241E+04 -7.512629E+04 -6.601204E+03  4.540566E+04
        88   3 -9.370421E+04 -5.710195E+05 -5.581122E+04 -1.095283E+05 -1.636742E+04  1.643853E+04
        88   4  9.081664E+04 -2.071694E+05  1.103654E+05 -1.234921E+05 -1.184489E+03  7.673176E+04
        88   5 -6.306232E+03 -2.206194E+05  4.837561E+04 -6.429214E+04 -6.626083E+03  5.079650E+04
        88   6 -4.021762E+03 -2.071999E+05  2.783447E+04 -1.239421E+05 -1.640722E+04  2.484322E+04
        88   7  7.127052E+04 -2.833041E+05  9.087708E+04 -8.740376E+04 -1.191527E+03  7.909855E+04
        88   8  2.902344E+04 -7.648214E+04  8.149761E+04 -5.345543E+04 -6.650771E+03  5.618858E+04
        88   9  8.565219E+04  1.567428E+05  1.114718E+05 -1.383641E+05 -1.644740E+04  3.325279E+04
        88  10  1.103657E+05 -1.310327E+05  1.298435E+05 -1.595848E+05  8.335597E-10  1.333909E-09
        88  11 -4.163747E+04 -3.647394E+05  1.524845E+04 -7.512605E+04 -4.022249E-10 -1.479742E-10
        88  12 -9.370457E+04 -5.710199E+05 -5.581223E+04 -1.095281E+05  1.147890E-10 -1.547333E-09
        88  13  9.081506E+04 -2.071757E+05  1.103543E+05 -1.234921E+05 -1.055634E-09  7.551483E-11
        88  14 -6.306972E+03 -2.206222E+05  4.837067E+04 -6.429187E+04  2.842952E-09  2.789609E-11
        88  15 -4.022216E+03 -2.072006E+05  2.783280E+04 -1.239417E+05  2.009616E-09  9.226802E-11
        88  16  7.126884E+04 -2.833108E+05  9.086532E+04 -8.740369E+04 -7.341369E-10 -1.274422E-09
        88  17  2.902254E+04 -7.648554E+04  8.149159E+04 -5.345513E+04  2.073978E-09  2.215978E-10
        88  18  8.565160E+04  1.567416E+05  1.114692E+05 -1.383637E+05  1.667165E-09  1.548862E-09
        88  19  1.103672E+05 -1.310267E+05  1.298539E+05 -1.595849E+05  1.177177E+03 -7.436468E+04
        88  20 -4.163687E+04 -3.647372E+05  1.525241E+04 -7.512629E+04  6.601204E+03 -4.540566E+04
        88  21 -9.370421E+04 -5.710195E+05 -5.581122E+04 -1.095283E+05  1.636742E+04 -1.643853E+04
        88  22  9.081664E+04 -2.071694E+05  1.103654E+05 -1.234921E+05  1.184489E+03 -7.673176E+04
        88  23 -6.306232E+03 -2.206194E+05  4.837561E+04 -6.429214E+04  6.626083E+03 -5.079650E+04
        88  24 -4.021762E+03 -2.071999E+05  2.783447E+04 -1.239421E+05  1.640722E+04 -2.484322E+04
        88  25  7.127052E+04 -2.833041E+05  9.087708E+04 -8.740376E+04  1.191527E+03 -7.909855E+04
        88  26  2.902344E+04 -7.648214E+04  8.149761E+04 -5.345543E+04  6.650771E+03 -5.618858E+04
        88  27  8.565219E+04  1.567428E+05  1.114718E+05 -1.383641E+05  1.644740E+04 -3.325279E+04
        89   1 -1.348857E+05 -7.935859E+05 -1.133038E+05 -1.237047E+05 -2.335175E+04  1.307896E+04
        89   2 -1.971855E+05 -1.013919E+06 -1.773057E+05 -6.259793E+04 -3.342028E+04  1.044825E+04
        89   3 -2.538124E+05 -1.233289E+06 -2.383770E+05 -1.206139E+05 -4.152219E+04  7.839076E+03
        89   4  8.234444E+03 -2.129621E+05  2.138108E+04 -1.238478E+05 -2.338608E+04  2.078671E+04
        89   5  2.170410E+01 -2.135879E+05  7.798705E+03 -6.431393E+04 -3.344426E+04  1.678607E+04
        89   6 -2.278808E+03 -2.130558E+05 -1.897810E+03 -1.238928E+05 -4.153713E+04  1.280610E+04
        89   7  1.513309E+05  3.679736E+05  1.560436E+05 -1.239907E+05 -2.342039E+04  2.850162E+04
        89   8  1.971839E+05  5.873358E+05  1.928604E+05 -6.603151E+04 -3.346826E+04  2.313201E+04
        89   9  2.491815E+05  8.081400E+05  2.345117E+05 -1.271761E+05 -4.155211E+04  1.778123E+04
        89  10 -1.348863E+05 -7.935863E+05 -1.133052E+05 -1.237045E+05 -3.322115E-10  6.731039E-10
        89  11 -1.971867E+05 -1.013919E+06 -1.773080E+05 -6.259765E+04  1.137452E-09  1.923034E-10
        89  12 -2.538142E+05 -1.233289E+06 -2.383803E+05 -1.206136E+05  7.424987E-10 -1.443375E-09
        89  13  8.233741E+03 -2.129627E+05  2.137924E+04 -1.238474E+05  1.591739E-09  1.961204E-10
        89  14  2.042756E+01 -2.135885E+05  7.796074E+03 -6.431348E+04  1.045196E-09  2.169670E-10
        89  15 -2.280705E+03 -2.130565E+05 -1.901359E+03 -1.238923E+05  1.659995E-09  1.786301E-10
        89  16  1.513301E+05  3.679725E+05  1.560410E+05 -1.239902E+05 -1.164156E-09 -5.320112E-10
        89  17  1.971826E+05  5.873350E+05  1.928573E+05 -6.603089E+04 -1.929052E-10 -1.220145E-10
        89  18  2.491796E+05  8.081392E+05  2.345078E+05 -1.271755E+05 -3.194338E-10  1.688230E-09
        89  19 -1.348857E+05 -7.935859E+05 -1.133038E+05 -1.237047E+05  2.335175E+04 -1.307896E+04
        89  20 -1.971855E+05 -1.013919E+06 -1.773057E+05 -6.259793E+04  3.342028E+04 -1.044825E+04
        89  21 -2.538124E+05 -1.233289E+06 -2.383770E+05 -1.206139E+05  4.152219E+04 -7.839076E+03
        89  22  8.234444E+03 -2.129621E+05  2.138108E+04 -1.238478E+05  2.338608E+04 -2.078671E+04
        89  23  2.170410E+01 -2.135879E+05  7.798705E+03 -6.431393E+04  3.344426E+04 -1.678607E+04
        89  24 -2.278808E+03 -2.130558E+05 -1.897810E+03 -1.238928E+05  4.153713E+04 -1.280610E+04
        89  25  1.513309E+05  3.679736E+05  1.560436E+05 -1.239907E+05  2.342039E+04 -2.850162E+04
        89  26  1.971839E+05  5.873358E+05  1.928604E+05 -6.603151E+04  3.346826E+04 -2.313201E+04
        89  27  2.491815E+05  8.081400E+05  2.345117E+05 -1.271761E+05  4.155211E+04 -1.778123E+04
        90   1 -3.017443E+05 -1.452393E+06 -2.913794E+05 -1.152450E+05 -5.285527E+04 -4.789235E+03
        90   2 -3.561963E+05 -1.664738E+06 -3.539664E+05 -6.576370E+04 -5.756794E+04  3.369582E+04
        90   3 -4.507992E+05 -1.891687E+06 -4.516102E+05 -1.337077E+05 -1.936510E+04  7.227257E+04
        90   4  3.044227E+03 -2.155309E+05 -5.803478E+03 -1.234689E+05 -5.291431E+04  1.331465E+04
        90   5  2.441993E+03 -2.108963E+05 -1.614246E+04 -6.481122E+04 -5.752357E+04  2.201845E+04
        90   6 -3.307976E+04 -2.156995E+05 -4.079668E+04 -1.235664E+05 -1.926083E+04  3.082880E+04
        90   7  3.077258E+05  1.022749E+06  2.796718E+05 -1.317078E+05 -5.297378E+04  3.145437E+04
        90   8  3.609312E+05  1.244901E+06  3.215397E+05 -6.385495E+04 -5.747930E+04  1.031381E+04
        90   9  3.844327E+05  1.462855E+06  3.698175E+05 -1.133958E+05 -1.915807E+04 -1.072698E+04
        90  10 -3.017473E+05 -1.452394E+06 -2.913847E+05 -1.152452E+05 -2.445059E-10 -7.340634E-09
        90  11 -3.562002E+05 -1.664740E+06 -3.539748E+05 -6.576213E+04 -9.534792E-10 -3.422760E-10
        90  12 -4.508010E+05 -1.891692E+06 -4.516208E+05 -1.337065E+05  1.189195E-09  6.086399E-09
        90  13  3.041174E+03 -2.155319E+05 -5.809071E+03 -1.234683E+05 -1.670246E-09  7.254503E-11
        90  14  2.438310E+03 -2.108977E+05 -1.614959E+04 -6.481020E+04 -1.143563E-09  4.596548E-11
        90  15 -3.308042E+04 -2.157006E+05 -4.079916E+04 -1.235659E+05  2.342689E-10 -8.017827E-11
        90  16  3.077225E+05  1.022747E+06  2.796646E+05 -1.317065E+05 -3.071653E-10  7.475518E-09
        90  17  3.609276E+05  1.244900E+06  3.215333E+05 -6.385447E+04  5.362371E-10  4.818065E-10
        90  18  3.844323E+05  1.462855E+06  3.698166E+05 -1.133959E+05  1.252743E-09 -6.043624E-09
        90  19 -3.017443E+05 -1.452393E+06 -2.913794E+05 -1.152450E+05  5.285527E+04  4.789235E+03
        90  20 -3.561963E+05 -1.664738E+06 -3.539664E+05 -6.576370E+04  5.756794E+04 -3.369582E+04
        90  21 -4.507992E+05 -1.891687E+06 -4.516102E+05 -1.337077E+05  1.936510E+04 -7.227257E+04
        90  22  3.044227E+03 -2.155309E+05 -5.803478E+03 -1.234689E+05  5.291431E+04 -1.331465E+04
        90  23  2.441993E+03 -2.108963E+05 -1.614246E+04 -6.481122E+04  5.752357E+04 -2.201845E+04
        90  24 -3.307976E+04 -2.156995E+05 -4.079668E+04 -1.235664E+05  1.926083E+04 -3.082880E+04
        90  25  3.077258E+05  1.022749E+06  2.796718E+05 -1.317078E+05  5.297378E+04 -3.145437E+04
        90  26  3.609312E+05  1.244901E+06  3.215397E+05 -6.385495E+04  5.747930E+04 -1.031381E+04
        90  27  3.844327E+05  1.462855E+06  3.698175E+05 -1.133958E+05  1.915807E+04  1.072698E+04
        91   1 -4.145474E+06 -1.470393E+06 -9.090118E+05 -1.456869E+06 -3.182171E+05 -9.428243E+04
        91   2 -4.008556E+06 -1.004520E+06 -6.119105E+05 -1.431627E+06 -2.097268E+05  2.076432E+03
        91   3 -3.968057E+06 -9.425671E+05 -5.058348E+05 -1.373890E+06 -8.250818E+04  4.924116E+04
        91   4 -2.404765E+06 -6.910932E+05 -4.140342E+05 -8.595908E+05 -2.715536E+05 -7.663353E+04
        91   5 -2.337316E+06 -3.374795E+05 -1.758245E+05 -9.345106E+05 -1.946823E+05  7.746722E+03
        91   6 -2.359612E+06 -3.809218E+05 -1.030742E+05 -9.770439E+05 -9.913011E+04  4.294917E+04
        91   7 -6.610814E+05  8.874368E+04  8.065873E+04 -2.606740E+05 -2.247446E+05 -5.890709E+04
        91   8 -6.633290E+05  3.298382E+05  2.600248E+05 -4.361401E+05 -1.795926E+05  1.343640E+04
        91   9 -7.486265E+05  1.808076E+05  2.994870E+05 -5.792984E+05 -1.157994E+05  3.664229E+04
        91  10 -4.145586E+06 -1.470430E+06 -9.092203E+05 -1.456893E+06  1.191719E-09 -1.031281E-10
        91  11 -4.008604E+06 -1.004532E+06 -6.119936E+05 -1.431627E+06 -2.239427E-09 -1.236642E-09
        91  12 -3.968065E+06 -9.425715E+05 -5.058521E+05 -1.373887E+06 -9.288581E-10 -4.339395E-10
        91  13 -2.404846E+06 -6.911194E+05 -4.141845E+05 -8.596076E+05 -4.812865E-10 -3.311340E-10
        91  14 -2.337356E+06 -3.374898E+05 -1.758961E+05 -9.345094E+05 -1.378481E-09 -1.016897E-09
        91  15 -2.359623E+06 -3.809264E+05 -1.030962E+05 -9.770405E+05 -3.835574E-10 -6.999376E-11
        91  16 -6.611366E+05  8.872637E+04  8.055717E+04 -2.606846E+05 -9.889766E-10 -5.312430E-10
        91  17 -6.633637E+05  3.298293E+05  2.599638E+05 -4.361381E+05  2.700884E-09 -7.286137E-10
        91  18 -7.486413E+05  1.808025E+05  2.994593E+05 -5.792950E+05  3.775320E-10  2.705488E-10
        91  19 -4.145474E+06 -1.470393E+06 -9.090118E+05 -1.456869E+06  3.182171E+05  9.428243E+04
        91  20 -4.008556E+06 -1.004520E+06 -6.119105E+05 -1.431627E+06  2.097268E+05 -2.076432E+03
        91  21 -3.968057E+06 -9.425671E+05 -5.058348E+05 -1.373890E+06  8.250818E+04 -4.924116E+04
        91  22 -2.404765E+06 -6.910932E+05 -4.140342E+05 -8.595908E+05  2.715536E+05  7.663353E+04
        91  23 -2.337316E+06 -3.374795E+05 -1.758245E+05 -9.345106E+05  1.946823E+05 -7.746722E+03
        91  24 -2.359612E+06 -3.809218E+05 -1.030742E+05 -9.770439E+05  9.913011E+04 -4.294917E+04
        91  25 -6.610814E+05  8.874368E+04  8.065873E+04 -2.606740E+05  2.247446E+05  5.890709E+04
        91  26 -6.633290E+05  3.298382E+05  2.600248E+05 -4.361401E+05  1.795926E+05 -1.343640E+04
        91  27 -7.486265E+05  1.808076E+05  2.994870E+05 -5.792984E+05  1.157994E+05 -3.664229E+04
        92   1 -3.778712E+06 -9.685217E+05 -4.525700E+05 -1.358101E+06 -7.979871E+04  3.877908E+04
        92   2 -3.667876E+06 -8.553259E+05 -3.749845E+05 -1.291026E+06 -5.532073E+04  4.361674E+04
        92   3 -3.512516E+06 -8.294327E+05 -3.224397E+05 -1.281999E+06 -2.975858E+04  4.554970E+04
        92   4 -2.345213E+06 -4.203403E+05 -8.297635E+04 -9.560861E+05 -8.145007E+04  3.814266E+04
        92   5 -2.365710E+06 -3.636556E+05 -4.131531E+04 -9.320194E+05 -5.880506E+04  4.229385E+04
        92   6 -2.341308E+06 -3.938592E+05 -2.319000E+04 -9.660049E+05 -3.508230E+04  4.354082E+04
        92   7 -9.097035E+05  1.279912E+05  2.864453E+05 -5.532206E+05 -8.310549E+04  3.750468E+04
        92   8 -1.061882E+06  1.281294E+05  2.922148E+05 -5.723254E+05 -6.229737E+04  4.096795E+04
        92   9 -1.168753E+06  4.179770E+04  2.759492E+05 -6.494698E+05 -4.041708E+04  4.152788E+04
        92  10 -3.778719E+06 -9.685250E+05 -4.525848E+05 -1.358098E+06  1.034054E-09  5.089473E-11
        92  11 -3.667880E+06 -8.553287E+05 -3.749938E+05 -1.291024E+06 -1.321729E-10 -3.809267E-10
        92  12 -3.512517E+06 -8.294351E+05 -3.224453E+05 -1.281998E+06  8.510135E-10 -3.499684E-10
        92  13 -2.345220E+06 -4.203436E+05 -8.299158E+04 -9.560836E+05 -9.731281E-10 -9.933371E-11
        92  14 -2.365714E+06 -3.636584E+05 -4.132517E+04 -9.320174E+05  8.960661E-10 -6.596416E-10
        92  15 -2.341310E+06 -3.938616E+05 -2.319587E+04 -9.660037E+05  8.457685E-10 -3.796815E-11
        92  16 -9.097113E+05  1.279878E+05  2.864297E+05 -5.532181E+05 -1.781010E-09 -1.166335E-10
        92  17 -1.061887E+06  1.281266E+05  2.922043E+05 -5.723233E+05 -9.086441E-10 -2.202324E-10
        92  18 -1.168755E+06  4.179541E+04  2.759429E+05 -6.494685E+05 -3.240537E-10 -2.270090E-10
        92  19 -3.778712E+06 -9.685217E+05 -4.525700E+05 -1.358101E+06  7.979871E+04 -3.877908E+04
        92  20 -3.667876E+06 -8.553259E+05 -3.749845E+05 -1.291026E+06  5.532073E+04 -4.361674E+04
        92  21 -3.512516E+06 -8.294327E+05 -3.224397E+05 -1.281999E+06  2.975858E+04 -4.554970E+04
        92  22 -2.345213E+06 -4.203403E+05 -8.297635E+04 -9.560861E+05  8.145007E+04 -3.814266E+04
        92  23 -2.365710E+06 -3.636556E+05 -4.131531E+04 -9.320194E+05  5.880506E+04 -4.229385E+04
        92  24 -2.341308E+06 -3.938592E+05 -2.319000E+04 -9.660049E+05  3.508230E+04 -4.354082E+04
        92  25 -9.097035E+05  1.279912E+05  2.864453E+05 -5.532206E+05  8.310549E+04 -3.750468E+04
        92  26 -1.061882E+06  1.281294E+05  2.922148E+05 -5.723254E+05  6.229737E+04 -4.096795E+04
        92  27 -1.168753E+06  4.179770E+04  2.759492E+05 -6.494698E+05  4.041708E+04 -4.152788E+04
        93   1 -3.360208E+06 -7.810924E+05 -2.786194E+05 -1.244353E+06 -2.553040E+04  4.196328E+04
        93   2 -3.245744E+06 -6.934615E+05 -2.337175E+05 -1.170121E+06 -1.784009E+04  3.667654E+04
        93   3 -3.071362E+06 -6.692313E+05 -1.930869E+05 -1.165006E+06 -1.005778E+04  3.111079E+04
        93   4 -2.339189E+06 -3.978087E+05 -1.790530E+04 -9.649726E+05 -3.010155E+04  4.024053E+04
        93   5 -2.368943E+06 -3.648949E+05 -9.600751E+03 -9.308601E+05 -2.258339E+04  3.489324E+04
        93   6 -2.338767E+06 -3.953390E+05 -5.423851E+03 -9.658662E+05 -1.497461E+04  2.926675E+04
        93   7 -1.317149E+06 -1.445718E+04  2.427239E+05 -6.851740E+05 -3.468095E+04  3.851468E+04
        93   8 -1.491391E+06 -3.627980E+04  2.144529E+05 -6.912926E+05 -2.733404E+04  3.310719E+04
        93   9 -1.605650E+06 -1.214141E+05  1.821946E+05 -7.665134E+05 -1.989780E+04  2.742034E+04
        93  10 -3.360209E+06 -7.810945E+05 -2.786240E+05 -1.244352E+06  4.146456E-10  5.362244E-10
        93  11 -3.245745E+06 -6.934631E+05 -2.337207E+05 -1.170120E+06  2.182867E-09  4.584430E-10
        93  12 -3.071362E+06 -6.692324E+05 -1.930889E+05 -1.165006E+06  1.548448E-09  8.434924E-11
        93  13 -2.339191E+06 -3.978107E+05 -1.791004E+04 -9.649716E+05  8.884842E-10  1.957406E-10
        93  14 -2.368944E+06 -3.648964E+05 -9.603994E+03 -9.308595E+05 -6.567724E-10  2.300394E-10
        93  15 -2.338768E+06 -3.953400E+05 -5.425879E+03 -9.658658E+05  2.735417E-10 -2.479588E-11
        93  16 -1.317150E+06 -1.445910E+04  2.427188E+05 -6.851729E+05 -8.352109E-10 -2.483004E-10
        93  17 -1.491392E+06 -3.628118E+04  2.144494E+05 -6.912919E+05 -2.295351E-10 -1.533505E-10
        93  18 -1.605650E+06 -1.214151E+05  1.821924E+05 -7.665129E+05 -1.448885E-09  7.924459E-10
        93  19 -3.360208E+06 -7.810924E+05 -2.786194E+05 -1.244353E+06  2.553040E+04 -4.196328E+04
        93  20 -3.245744E+06 -6.934615E+05 -2.337175E+05 -1.170121E+06  1.784009E+04 -3.667654E+04
        93  21 -3.071362E+06 -6.692313E+05 -1.930869E+05 -1.165006E+06  1.005778E+04 -3.111079E+04
        93  22 -2.339189E+06 -3.978087E+05 -1.790530E+04 -9.649726E+05  3.010155E+04 -4.024053E+04
        93  23 -2.368943E+06 -3.648949E+05 -9.600751E+03 -9.308601E+05  2.258339E+04 -3.489324E+04
        93  24 -2.338767E+06 -3.953390E+05 -5.423851E+03 -9.658662E+05  1.497461E+04 -2.926675E+04
        93  25 -1.317149E+06 -1.445718E+04  2.427239E+05 -6.851740E+05  3.468095E+04 -3.851468E+04
        93  26 -1.491391E+06 -3.627980E+04  2.144529E+05 -6.912926E+05  2.733404E+04 -3.310719E+04
        93  27 -1.605650E+06 -1.214141E+05  1.821946E+05 -7.665134E+05  1.989780E+04 -2.742034E+04
        94   1 -2.916211E+06 -6.122435E+05 -1.513824E+05 -1.123701E+06 -7.610470E+03  2.698913E+04
        94   2 -2.797713E+06 -5.244421E+05 -1.120611E+05 -1.046708E+06 -3.363690E+03  1.989867E+04
        94   3 -2.616406E+06 -4.998224E+05 -7.381927E+04 -1.041980E+06  9.028526E+02  1.273746E+04
        94   4 -2.338189E+06 -3.960760E+05 -4.260645E+03 -9.662520E+05 -1.253080E+04  2.514590E+04
        94   5 -2.369541E+06 -3.643249E+05 -2.707376E+03 -9.301699E+05 -8.328615E+03  1.804080E+04
        94   6 -2.338105E+06 -3.957459E+05 -2.197594E+03 -9.663588E+05 -4.107099E+03  1.086496E+04
        94   7 -1.759835E+06 -1.798857E+05  1.428351E+05 -8.086687E+05 -1.745620E+04  2.330077E+04
        94   8 -1.941190E+06 -2.041965E+05  1.066313E+05 -8.135591E+05 -1.329729E+04  1.618152E+04
        94   9 -2.059731E+06 -2.916656E+05  6.941697E+04 -8.907075E+05 -9.119464E+03  8.991552E+03
        94  10 -2.916211E+06 -6.122443E+05 -1.513839E+05 -1.123701E+06  1.090911E-09  5.156282E-10
        94  11 -2.797713E+06 -5.244425E+05 -1.120619E+05 -1.046708E+06 -5.449112E-09 -2.201152E-09
        94  12 -2.616406E+06 -4.998226E+05 -7.381958E+04 -1.041980E+06 -1.101161E-08 -4.839455E-09
        94  13 -2.338189E+06 -3.960767E+05 -4.262126E+03 -9.662517E+05 -8.583877E-10  6.219377E-10
        94  14 -2.369541E+06 -3.643253E+05 -2.708117E+03 -9.301697E+05 -1.102993E-09  7.211399E-11
        94  15 -2.338105E+06 -3.957460E+05 -2.197848E+03 -9.663587E+05 -1.658204E-09 -1.969682E-09
        94  16 -1.759836E+06 -1.798864E+05  1.428335E+05 -8.086683E+05 -3.914808E-10  6.358159E-10
        94  17 -1.941191E+06 -2.041969E+05  1.066304E+05 -8.135590E+05  3.111116E-09  1.807412E-09
        94  18 -2.059731E+06 -2.916657E+05  6.941666E+04 -8.907074E+05  7.934410E-09  9.385503E-10
        94  19 -2.916211E+06 -6.122435E+05 -1.513824E+05 -1.123701E+06  7.610470E+03 -2.698913E+04
        94  20 -2.797713E+06 -5.244421E+05 -1.120611E+05 -1.046708E+06  3.363690E+03 -1.989867E+04
        94  21 -2.616406E+06 -4.998224E+05 -7.381927E+04 -1.041980E+06 -9.028526E+02 -1.273746E+04
        94  22 -2.338189E+06 -3.960760E+05 -4.260645E+03 -9.662520E+05  1.253080E+04 -2.514590E+04
        94  23 -2.369541E+06 -3.643249E+05 -2.707376E+03 -9.301699E+05  8.328615E+03 -1.804080E+04
        94  24 -2.338105E+06 -3.957459E+05 -2.197594E+03 -9.663588E+05  4.107099E+03 -1.086496E+04
        94  25 -1.759835E+06 -1.798857E+05  1.428351E+05 -8.086687E+05  1.745620E+04 -2.330077E+04
        94  26 -1.941190E+06 -2.041965E+05  1.066313E+05 -8.135591E+05  1.329729E+04 -1.618152E+04
        94  27 -2.059731E+06 -2.916656E+05  6.941697E+04 -8.907075E+05  9.119464E+03 -8.991552E+03
        95   1 -2.458301E+06 -4.408138E+05 -3.242647E+04 -9.993503E+05  2.966636E+03  8.379375E+03
        95   2 -2.338382E+06 -3.524289E+05  4.984346E+03 -9.214973E+05  7.340315E+03  1.202046E+03
        95   3 -2.155220E+06 -3.278957E+05  4.120295E+04 -9.167248E+05  1.171057E+04 -5.963261E+03
        95   4 -2.337992E+06 -3.958962E+05 -2.260799E+03 -9.665343E+05 -2.059043E+03  6.501665E+03
        95   5 -2.369617E+06 -3.640635E+05 -2.982725E+03 -9.299543E+05  2.321661E+03 -6.732804E+02
        95   6 -2.338021E+06 -3.960858E+05 -4.900894E+03 -9.664644E+05  6.698520E+03 -7.836264E+03
        95   7 -2.217670E+06 -3.509774E+05  2.790400E+04 -9.337125E+05 -7.085814E+03  4.623545E+03
        95   8 -2.400851E+06 -3.756981E+05 -1.094984E+04 -9.384110E+05 -2.696757E+03 -2.548520E+03
        95   9 -2.520791E+06 -4.642747E+05 -5.100791E+04 -1.016191E+06  1.688029E+03 -9.708687E+03
        95  10 -2.458301E+06 -4.408139E+05 -3.242662E+04 -9.993503E+05  8.516953E-09  1.994506E-09
        95  11 -2.338382E+06 -3.524289E+05  4.984242E+03 -9.214973E+05  6.340860E-09  1.862532E-09
        95  12 -2.155221E+06 -3.278957E+05  4.120262E+04 -9.167247E+05 -2.430441E-09  4.181936E-10
        95  13 -2.337992E+06 -3.958962E+05 -2.260886E+03 -9.665343E+05  1.843986E-10 -1.934127E-09
        95  14 -2.369617E+06 -3.640635E+05 -2.982736E+03 -9.299543E+05  3.502625E-11 -2.379186E-10
        95  15 -2.338021E+06 -3.960859E+05 -4.901094E+03 -9.664643E+05 -2.827320E-09  1.170599E-10
        95  16 -2.217670E+06 -3.509774E+05  2.790387E+04 -9.337124E+05 -9.820388E-09 -6.105007E-09
        95  17 -2.400851E+06 -3.756981E+05 -1.094987E+04 -9.384110E+05 -7.975564E-09 -2.314092E-09
        95  18 -2.520791E+06 -4.642748E+05 -5.100810E+04 -1.016191E+06  2.317309E-10  6.959931E-10
        95  19 -2.458301E+06 -4.408138E+05 -3.242647E+04 -9.993503E+05 -2.966636E+03 -8.379375E+03
        95  20 -2.338382E+06 -3.524289E+05  4.984346E+03 -9.214973E+05 -7.340315E+03 -1.202046E+03
        95  21 -2.155220E+06 -3.278957E+05  4.120295E+04 -9.167248E+05 -1.171057E+04  5.963261E+03
        95  22 -2.337992E+06 -3.958962E+05 -2.260799E+03 -9.665343E+05  2.059043E+03 -6.501665E+03
        95  23 -2.369617E+06 -3.640635E+05 -2.982725E+03 -9.299543E+05 -2.321661E+03  6.732804E+02
        95  24 -2.338021E+06 -3.960858E+05 -4.900894E+03 -9.664644E+05 -6.698520E+03  7.836264E+03
        95  25 -2.217670E+06 -3.509774E+05  2.790400E+04 -9.337125E+05  7.085814E+03 -4.623545E+03
        95  26 -2.400851E+06 -3.756981E+05 -1.094984E+04 -9.384110E+05  2.696757E+03  2.548520E+03
        95  27 -2.520791E+06 -4.642747E+05 -5.100791E+04 -1.016191E+06 -1.688029E+03  9.708687E+03
        96   1 -1.997626E+06 -2.686534E+05  8.113130E+04 -8.742742E+05  1.433182E+04 -1.011702E+04
        96   2 -1.879224E+06 -1.808951E+05  1.138688E+05 -7.967888E+05  2.270147E+04 -1.569871E+04
        96   3 -1.699738E+06 -1.588579E+05  1.417343E+05 -7.907840E+05  3.100761E+04 -2.108556E+04
        96   4 -2.338404E+06 -3.956143E+05 -6.324241E+03 -9.664536E+05  9.300403E+03 -1.199812E+04
        96   5 -2.369138E+06 -3.640854E+05 -1.119203E+04 -9.302149E+05  1.779051E+04 -1.753722E+04
        96   6 -2.338832E+06 -3.983073E+05 -2.102897E+04 -9.654683E+05  2.621563E+04 -2.288185E+04
        96   7 -2.679065E+06 -5.225667E+05 -9.378818E+04 -1.058586E+06  4.272071E+03 -1.387807E+04
        96   8 -2.858814E+06 -5.472594E+05 -1.362715E+05 -1.063545E+06  1.288383E+04 -1.937412E+04
        96   9 -2.977525E+06 -6.377298E+05 -1.838250E+05 -1.139989E+06  2.142907E+04 -2.467612E+04
        96  10 -1.997626E+06 -2.686536E+05  8.113072E+04 -8.742741E+05 -2.072202E-10  6.236562E-10
        96  11 -1.879224E+06 -1.808955E+05  1.138674E+05 -7.967885E+05  8.752479E-10 -2.304139E-10
        96  12 -1.699739E+06 -1.588586E+05  1.417316E+05 -7.907835E+05 -8.206701E-10  6.426519E-10
        96  13 -2.338404E+06 -3.956145E+05 -6.324673E+03 -9.664535E+05 -8.045696E-10  4.689231E-10
        96  14 -2.369138E+06 -3.640858E+05 -1.119321E+04 -9.302146E+05  3.017104E-10 -4.367446E-10
        96  15 -2.338833E+06 -3.983080E+05 -2.103125E+04 -9.654678E+05 -5.464981E-10 -8.114894E-11
        96  16 -2.679065E+06 -5.225669E+05 -9.378857E+04 -1.058586E+06 -1.359213E-09  3.100129E-10
        96  17 -2.858815E+06 -5.472598E+05 -1.362725E+05 -1.063544E+06 -6.001245E-10 -1.912786E-10
        96  18 -2.977526E+06 -6.377306E+05 -1.838270E+05 -1.139988E+06  8.453240E-10 -3.230138E-10
        96  19 -1.997626E+06 -2.686534E+05  8.113130E+04 -8.742742E+05 -1.433182E+04  1.011702E+04
        96  20 -1.879224E+06 -1.808951E+05  1.138688E+05 -7.967888E+05 -2.270147E+04  1.569871E+04
        96  21 -1.699738E+06 -1.588579E+05  1.417343E+05 -7.907840E+05 -3.100761E+04  2.108556E+04
        96  22 -2.338404E+06 -3.956143E+05 -6.324241E+03 -9.664536E+05 -9.300403E+03  1.199812E+04
        96  23 -2.369138E+06 -3.640854E+05 -1.119203E+04 -9.302149E+05 -1.779051E+04  1.753722E+04
        96  24 -2.338832E+06 -3.983073E+05 -2.102897E+04 -9.654683E+05 -2.621563E+04  2.288185E+04
        96  25 -2.679065E+06 -5.225667E+05 -9.378818E+04 -1.058586E+06 -4.272071E+03  1.387807E+04
        96  26 -2.858814E+06 -5.472594E+05 -1.362715E+05 -1.063545E+06 -1.288383E+04  1.937412E+04
        96  27 -2.977525E+06 -6.377298E+05 -1.838250E+05 -1.139989E+06 -2.142907E+04  2.467612E+04
        97   1 -1.544341E+06 -1.006883E+05  1.756961E+05 -7.548888E+05  3.725009E+04 -2.405535E+04
        97   2 -1.430666E+06 -9.139583E+03  1.907807E+05 -6.729628E+05  6.329927E+04 -2.243089E+04
        97   3 -1.271842E+06 -1.256083E+04  1.792146E+05 -6.518446E+05  8.847324E+04 -1.842179E+04
        97   4 -2.340974E+06 -3.940996E+05 -2.727551E+04 -9.671630E+05  3.181803E+04 -2.609346E+04
        97   5 -2.365627E+06 -3.619292E+05 -4.847022E+04 -9.309669E+05  5.937757E+04 -2.390774E+04
        97   6 -2.345475E+06 -4.250766E+05 -9.754902E+04 -9.555939E+05  8.605553E+04 -1.933838E+04
        97   7 -3.136990E+06 -6.874769E+05 -2.302993E+05 -1.179193E+06  2.639358E+04 -2.812881E+04
        97   8 -3.299734E+06 -7.146603E+05 -2.877931E+05 -1.188617E+06  5.546230E+04 -2.538214E+04
        97   9 -3.417979E+06 -8.375032E+05 -3.744084E+05 -1.258861E+06  8.364231E+04 -2.025318E+04
        97  10 -1.544342E+06 -1.006893E+05  1.756924E+05 -7.548880E+05  6.160174E-10  5.845452E-10
        97  11 -1.430671E+06 -9.141199E+03  1.907722E+05 -6.729617E+05  3.056194E-09  5.353761E-10
        97  12 -1.271851E+06 -1.256330E+04  1.791993E+05 -6.518433E+05  2.029070E-09  2.947829E-10
        97  13 -2.340975E+06 -3.941006E+05 -2.727869E+04 -9.671623E+05  2.095207E-09  1.140255E-10
        97  14 -2.365631E+06 -3.619308E+05 -4.847793E+04 -9.309657E+05  4.374014E-09  6.777295E-10
        97  15 -2.345483E+06 -4.250790E+05 -9.756368E+04 -9.555925E+05  9.391775E-10  2.888483E-10
        97  16 -3.136991E+06 -6.874780E+05 -2.303021E+05 -1.179192E+06  2.629459E-09 -5.155435E-10
        97  17 -3.299737E+06 -7.146618E+05 -2.878001E+05 -1.188616E+06  4.254012E-09  8.985490E-10
        97  18 -3.417987E+06 -8.375055E+05 -3.744223E+05 -1.258859E+06  5.221483E-10  8.254427E-10
        97  19 -1.544341E+06 -1.006883E+05  1.756961E+05 -7.548888E+05 -3.725009E+04  2.405535E+04
        97  20 -1.430666E+06 -9.139583E+03  1.907807E+05 -6.729628E+05 -6.329927E+04  2.243089E+04
        97  21 -1.271842E+06 -1.256083E+04  1.792146E+05 -6.518446E+05 -8.847324E+04  1.842179E+04
        97  22 -2.340974E+06 -3.940996E+05 -2.727551E+04 -9.671630E+05 -3.181803E+04  2.609346E+04
        97  23 -2.365627E+06 -3.619292E+05 -4.847022E+04 -9.309669E+05 -5.937757E+04  2.390774E+04
        97  24 -2.345475E+06 -4.250766E+05 -9.754902E+04 -9.555939E+05 -8.605553E+04  1.933838E+04
        97  25 -3.136990E+06 -6.874769E+05 -2.302993E+05 -1.179193E+06 -2.639358E+04  2.812881E+04
        97  26 -3.299734E+06 -7.146603E+05 -2.877931E+05 -1.188617E+06 -5.546230E+04  2.538214E+04
        97  27 -3.417979E+06 -8.375032E+05 -3.744084E+05 -1.258861E+06 -8.364231E+04  2.025318E+04
        98   1 -1.096927E+06  4.344309E+04  1.916303E+05 -6.877624E+05  1.207427E+05 -1.686560E+04
        98   2 -1.003555E+06  2.114743E+05  1.418410E+05 -5.251262E+05  2.072886E+05  1.312380E+04
        98   3 -1.015737E+06 -7.776845E+04 -8.163368E+04 -3.203671E+05  2.784856E+05  8.385368E+04
        98   4 -2.362000E+06 -3.791932E+05 -1.211969E+05 -9.807877E+05  1.058791E+05 -2.245420E+04
        98   5 -2.332696E+06 -3.302650E+05 -2.065323E+05 -9.331050E+05  2.187014E+05  1.739845E+04
        98   6 -2.414548E+06 -7.444345E+05 -4.867346E+05 -8.432324E+05  3.161422E+05  9.799657E+04
        98   7 -3.625503E+06 -8.018013E+05 -4.341427E+05 -1.273305E+06  9.104863E+04 -2.803346E+04
        98   8 -3.660100E+06 -8.718012E+05 -5.550556E+05 -1.340258E+06  2.300869E+05  2.166083E+04
        98   9 -3.811414E+06 -1.410622E+06 -8.920194E+05 -1.364916E+06  3.537049E+05  1.120829E+05
        98  10 -1.096943E+06  4.343887E+04  1.916024E+05 -6.877608E+05  5.212648E-10  2.882414E-10
        98  11 -1.003601E+06  2.114625E+05  1.417598E+05 -5.251284E+05 -1.049317E-09  2.270843E-10
        98  12 -1.015822E+06 -7.779688E+04 -8.179292E+04 -3.203859E+05  5.672047E-11 -7.765774E-11
        98  13 -2.362012E+06 -3.791968E+05 -1.212190E+05 -9.807858E+05 -3.351583E-10  6.039362E-10
        98  14 -2.332748E+06 -3.302782E+05 -2.066231E+05 -9.331081E+05 -1.891802E-11 -3.245228E-10
        98  15 -2.414659E+06 -7.444718E+05 -4.869413E+05 -8.432574E+05  2.549164E-09 -5.091955E-10
        98  16 -3.625512E+06 -8.018044E+05 -4.341598E+05 -1.273303E+06 -2.826409E-10  6.399269E-10
        98  17 -3.660158E+06 -8.718160E+05 -5.551566E+05 -1.340262E+06 -3.652360E-10  6.269577E-10
        98  18 -3.811553E+06 -1.410669E+06 -8.922799E+05 -1.364948E+06 -5.477456E-10 -1.655497E-10
        98  19 -1.096927E+06  4.344309E+04  1.916303E+05 -6.877624E+05 -1.207427E+05  1.686560E+04
        98  20 -1.003555E+06  2.114743E+05  1.418410E+05 -5.251262E+05 -2.072886E+05 -1.312380E+04
        98  21 -1.015737E+06 -7.776845E+04 -8.163368E+04 -3.203671E+05 -2.784856E+05 -8.385368E+04
        98  22 -2.362000E+06 -3.791932E+05 -1.211969E+05 -9.807877E+05 -1.058791E+05  2.245420E+04
        98  23 -2.332696E+06 -3.302650E+05 -2.065323E+05 -9.331050E+05 -2.187014E+05 -1.739845E+04
        98  24 -2.414548E+06 -7.444345E+05 -4.867346E+05 -8.432324E+05 -3.161422E+05 -9.799657E+04
        98  25 -3.625503E+06 -8.018013E+05 -4.341427E+05 -1.273305E+06 -9.104863E+04  2.803346E+04
        98  26 -3.660100E+06 -8.718012E+05 -5.550556E+05 -1.340258E+06 -2.300869E+05 -2.166083E+04
        98  27 -3.811414E+06 -1.410622E+06 -8.920194E+05 -1.364916E+06 -3.537049E+05 -1.120829E+05
        99   1 -1.513576E+06 -2.504359E+05 -2.190352E+05 -2.144393E+04  5.325174E+04  1.717347E+04
        99   2 -1.419823E+06 -3.350465E+05 -2.484630E+05 -2.099820E+04  4.660289E+04  5.262074E+04
        99   3 -1.295408E+06 -3.058621E+05 -2.448707E+05 -7.839582E+04  4.003663E+04  5.234004E+04
        99   4 -7.936014E+04  1.066480E+05  1.320769E+05 -6.176741E+04  9.044264E+04  1.725594E+04
        99   5 -9.678076E+04 -8.803691E+03  5.877435E+04 -3.273357E+04  5.891652E+04  5.263454E+04
        99   6 -7.929407E+04 -6.270672E+03  3.571784E+04 -6.153286E+04  2.747596E+04  5.231850E+04
        99   7  1.356740E+06  4.635867E+05  4.830447E+05 -1.021855E+05  1.277192E+05  1.733348E+04
        99   8  1.227881E+06  3.173163E+05  3.658946E+05 -4.449488E+04  7.125615E+04  5.264788E+04
        99   9  1.138190E+06  2.932182E+05  3.162087E+05 -4.463691E+04  1.489079E+04  5.229630E+04
        99  10 -1.513579E+06 -2.504370E+05 -2.190411E+05 -2.144466E+04  8.011931E-10  8.158740E-11
        99  11 -1.419826E+06 -3.350501E+05 -2.484723E+05 -2.100017E+04  2.467723E-09 -1.307447E-09
        99  12 -1.295410E+06 -3.058655E+05 -2.448788E+05 -7.839751E+04  3.462146E-10 -5.135454E-10
        99  13 -7.936900E+04  1.066454E+05  1.320610E+05 -6.176867E+04  1.062332E-09 -8.285661E-10
        99  14 -9.678523E+04 -8.807597E+03  5.876262E+04 -3.273607E+04  2.513197E-10 -3.739046E-10
        99  15 -7.929561E+04 -6.273814E+03  3.571128E+04 -6.153402E+04 -7.239914E-11 -7.322255E-10
        99  16  1.356722E+06  4.635820E+05  4.830136E+05 -1.021872E+05 -4.108421E-10  8.887408E-10
        99  17  1.227875E+06  3.173120E+05  3.658799E+05 -4.449790E+04 -2.847215E-10 -9.057770E-10
        99  18  1.138189E+06  2.932152E+05  3.162031E+05 -4.463753E+04  1.279630E-10 -1.109565E-09
        99  19 -1.513576E+06 -2.504359E+05 -2.190352E+05 -2.144393E+04 -5.325174E+04 -1.717347E+04
        99  20 -1.419823E+06 -3.350465E+05 -2.484630E+05 -2.099820E+04 -4.660289E+04 -5.262074E+04
        99  21 -1.295408E+06 -3.058621E+05 -2.448707E+05 -7.839582E+04 -4.003663E+04 -5.234004E+04
        99  22 -7.936014E+04  1.066480E+05  1.320769E+05 -6.176741E+04 -9.044264E+04 -1.725594E+04
        99  23 -9.678076E+04 -8.803691E+03  5.877435E+04 -3.273357E+04 -5.891652E+04 -5.263454E+04
        99  24 -7.929407E+04 -6.270672E+03  3.571784E+04 -6.153286E+04 -2.747596E+04 -5.231850E+04
        99  25  1.356740E+06  4.635867E+05  4.830447E+05 -1.021855E+05 -1.277192E+05 -1.733348E+04
        99  26  1.227881E+06  3.173163E+05  3.658946E+05 -4.449488E+04 -7.125615E+04 -5.264788E+04
        99  27  1.138190E+06  2.932182E+05  3.162087E+05 -4.463691E+04 -1.489079E+04 -5.229630E+04
       100   1 -1.194759E+06 -2.653252E+05 -2.282342E+05 -5.989356E+04  2.373101E+04  4.494819E+04
       100   2 -1.087760E+06 -2.473086E+05 -2.160824E+05 -3.208462E+04  1.736668E+04  4.174670E+04
       100   3 -9.769430E+05 -2.201318E+05 -1.973403E+05 -6.329006E+04  1.099484E+04  3.671927E+04
       100   4 -8.609436E+04  7.975555E+03  2.878247E+04 -6.186175E+04  2.217134E+04  4.494109E+04
       100   5 -8.807814E+04 -9.953217E+02  1.509935E+04 -3.235466E+04  1.452562E+04  4.174055E+04
       100   6 -8.603886E+04 -5.916424E+02  8.888002E+03 -6.185575E+04  6.873495E+03  3.671540E+04
       100   7  1.023707E+06  2.811898E+05  2.857167E+05 -6.383371E+04  2.060887E+04  4.493401E+04
       100   8  9.125289E+05  2.452477E+05  2.462144E+05 -3.262523E+04  1.168001E+04  4.173440E+04
       100   9  8.055995E+05  2.188927E+05  2.150633E+05 -6.041934E+04  2.746263E+03  3.671151E+04
       100  10 -1.194760E+06 -2.653275E+05 -2.282391E+05 -5.989442E+04 -2.520235E-10 -1.083477E-10
       100  11 -1.087761E+06 -2.473105E+05 -2.160863E+05 -3.208520E+04 -2.803627E-10  6.048732E-10
       100  12 -9.769435E+05 -2.201333E+05 -1.973431E+05 -6.329038E+04  1.768931E-09  1.044546E-09
       100  13 -8.609543E+04  7.973255E+03  2.877775E+04 -6.186256E+04 -1.060134E-09 -9.526488E-10
       100  14 -8.807884E+04 -9.972492E+02  1.509568E+04 -3.235514E+04  1.130420E-09  1.189647E-09
       100  15 -8.603928E+04 -5.931026E+02  8.885380E+03 -6.185595E+04  1.633024E-09  5.435497E-11
       100  16  1.023706E+06  2.811875E+05  2.857122E+05 -6.383445E+04  9.220062E-10 -3.937992E-10
       100  17  9.125283E+05  2.452458E+05  2.462109E+05 -3.262562E+04  3.917558E-09  5.577684E-10
       100  18  8.055991E+05  2.188912E+05  2.150607E+05 -6.041942E+04  1.282283E-09 -2.237801E-10
       100  19 -1.194759E+06 -2.653252E+05 -2.282342E+05 -5.989356E+04 -2.373101E+04 -4.494819E+04
       100  20 -1.087760E+06 -2.473086E+05 -2.160824E+05 -3.208462E+04 -1.736668E+04 -4.174670E+04
       100  21 -9.769430E+05 -2.201318E+05 -1.973403E+05 -6.329006E+04 -1.099484E+04 -3.671927E+04
       100  22 -8.609436E+04  7.975555E+03  2.878247E+04 -6.186175E+04 -2.217134E+04 -4.494109E+04
       100  23 -8.807814E+04 -9.953217E+02  1.509935E+04 -3.235466E+04 -1.452562E+04 -4.174055E+04
       100  24 -8.603886E+04 -5.916424E+02  8.888002E+03 -6.185575E+04 -6.873495E+03 -3.671540E+04
       100  25  1.023707E+06  2.811898E+05  2.857167E+05 -6.383371E+04 -2.060887E+04 -4.493401E+04
       100  26  9.125289E+05  2.452477E+05  2.462144E+05 -3.262523E+04 -1.168001E+04 -4.173440E+04
       100  27  8.055995E+05  2.188927E+05  2.150633E+05 -6.041934E+04 -2.746263E+03 -3.671151E+04
       101   1 -8.703590E+05 -1.924966E+05 -1.740031E+05 -6.176381E+04  9.047276E+03  3.342475E+04
       101   2 -7.615938E+05 -1.663107E+05 -1.520699E+05 -3.216170E+04  7.200459E+03  2.824778E+04
       101   3 -6.521576E+05 -1.393326E+05 -1.286867E+05 -6.171697E+04  5.347535E+03  2.297566E+04
       101   4 -8.673895E+04  4.909788E+02  6.866755E+03 -6.188950E+04  5.485341E+03  3.342237E+04
       101   5 -8.705551E+04 -1.511751E+02  3.848348E+03 -3.231287E+04  3.569887E+03  2.824719E+04
       101   6 -8.670089E+04  1.108308E+01  2.326684E+03 -6.188967E+04  1.648647E+03  2.297695E+04
       101   7  6.974495E+05  1.934355E+05  1.876958E+05 -6.201530E+04  1.918936E+03  3.341998E+04
       101   8  5.879037E+05  1.659764E+05  1.597362E+05 -3.246415E+04 -6.460478E+01  2.824660E+04
       101   9  4.790515E+05  1.393323E+05  1.333186E+05 -6.206246E+04 -2.053589E+03  2.297824E+04
       101  10 -8.703594E+05 -1.924978E+05 -1.740054E+05 -6.176405E+04  1.169069E-09  3.945955E-10
       101  11 -7.615941E+05 -1.663116E+05 -1.520714E+05 -3.216186E+04  1.788895E-09 -8.627274E-10
       101  12 -6.521578E+05 -1.393332E+05 -1.286877E+05 -6.171707E+04  5.862348E-10 -7.145447E-10
       101  13 -8.673928E+04  4.897713E+02  6.864599E+03 -6.188964E+04 -1.066425E-09  1.273710E-10
       101  14 -8.705574E+04 -1.520353E+02  3.846825E+03 -3.231295E+04 -5.590185E-10  2.817180E-11
       101  15 -8.670104E+04  1.051545E+01  2.325687E+03 -6.188970E+04 -1.865478E-09  6.052809E-10
       101  16  6.974492E+05  1.934343E+05  1.876937E+05 -6.201535E+04  1.488107E-09 -2.849678E-10
       101  17  5.879035E+05  1.659756E+05  1.597347E+05 -3.246415E+04 -1.878973E-09  6.548042E-10
       101  18  4.790513E+05  1.393317E+05  1.333176E+05 -6.206242E+04 -1.072298E-09 -1.959530E-10
       101  19 -8.703590E+05 -1.924966E+05 -1.740031E+05 -6.176381E+04 -9.047276E+03 -3.342475E+04
       101  20 -7.615938E+05 -1.663107E+05 -1.520699E+05 -3.216170E+04 -7.200459E+03 -2.824778E+04
       101  21 -6.521576E+05 -1.393326E+05 -1.286867E+05 -6.171697E+04 -5.347535E+03 -2.297566E+04
       101  22 -8.673895E+04  4.909788E+02  6.866755E+03 -6.188950E+04 -5.485341E+03 -3.342237E+04
       101  23 -8.705551E+04 -1.511751E+02  3.848348E+03 -3.231287E+04 -3.569887E+03 -2.824719E+04
       101  24 -8.670089E+04  1.108308E+01  2.326684E+03 -6.188967E+04 -1.648647E+03 -2.297695E+04
       101  25  6.974495E+05  1.934355E+05  1.876958E+05 -6.201530E+04 -1.918936E+03 -3.341998E+04
       101  26  5.879037E+05  1.659764E+05  1.597362E+05 -3.246415E+04  6.460478E+01 -2.824660E+04
       101  27  4.790515E+05  1.393323E+05  1.333186E+05 -6.206246E+04  2.053589E+03 -2.297824E+04
       102   1 -5.448320E+05 -1.126647E+05 -1.037073E+05 -6.164996E+04  4.943363E+03  1.988729E+04
       102   2 -4.356286E+05 -8.587898E+04 -7.939080E+04 -3.206535E+04  4.342765E+03  1.460497E+04
       102   3 -3.263591E+05 -5.892892E+04 -5.465753E+04 -6.169574E+04  3.739067E+03  9.316820E+03
       102   4 -8.680994E+04  8.111428E+01  1.827552E+03 -6.190283E+04  1.271436E+03  1.988946E+04
       102   5 -8.682869E+04  2.409925E+01  1.216127E+03 -3.229634E+04  6.661333E+02  1.460807E+04
       102   6 -8.679016E+04  1.333347E+02  1.025496E+03 -6.190279E+04  5.783302E+01  9.320895E+03
       102   7  3.714064E+05  1.128123E+05  1.073485E+05 -6.215583E+04 -2.403180E+03  1.989164E+04
       102   8  2.620837E+05  8.591865E+04  8.181499E+04 -3.252743E+04 -3.012550E+03  1.461117E+04
       102   9  1.528318E+05  5.919155E+04  5.670471E+04 -6.210991E+04 -3.624812E+03  9.324971E+03
       102  10 -5.448322E+05 -1.126652E+05 -1.037081E+05 -6.165004E+04 -9.660469E-10 -1.822380E-11
       102  11 -4.356287E+05 -8.587922E+04 -7.939124E+04 -3.206541E+04 -6.547101E-10  6.630574E-11
       102  12 -3.263591E+05 -5.892902E+04 -5.465772E+04 -6.169577E+04 -1.304551E-09 -2.940563E-10
       102  13 -8.681004E+04  8.068907E+01  1.826805E+03 -6.190285E+04 -1.317207E-11 -9.030592E-10
       102  14 -8.682875E+04  2.386999E+01  1.215725E+03 -3.229635E+04 -6.459485E-10 -8.582180E-11
       102  15 -8.679019E+04  1.332415E+02  1.025333E+03 -6.190279E+04  1.454755E-09 -1.609045E-10
       102  16  3.714062E+05  1.128119E+05  1.073478E+05 -6.215579E+04 -2.001628E-10 -5.615063E-10
       102  17  2.620837E+05  8.591842E+04  8.181457E+04 -3.252739E+04  1.474707E-09 -3.826250E-10
       102  18  1.528318E+05  5.919145E+04  5.670452E+04 -6.210989E+04 -1.709678E-09 -5.197501E-10
       102  19 -5.448320E+05 -1.126647E+05 -1.037073E+05 -6.164996E+04 -4.943363E+03 -1.988729E+04
       102  20 -4.356286E+05 -8.587898E+04 -7.939080E+04 -3.206535E+04 -4.342765E+03 -1.460497E+04
       102  21 -3.263591E+05 -5.892892E+04 -5.465753E+04 -6.169574E+04 -3.739067E+03 -9.316820E+03
       102  22 -8.680994E+04  8.111428E+01  1.827552E+03 -6.190283E+04 -1.271436E+03 -1.988946E+04
       102  23 -8.682869E+04  2.409925E+01  1.216127E+03 -3.229634E+04 -6.661333E+02 -1.460807E+04
       102  24 -8.679016E+04  1.333347E+02  1.025496E+03 -6.190279E+04 -5.783302E+01 -9.320895E+03
       102  25  3.714064E+05  1.128123E+05  1.073485E+05 -6.215583E+04  2.403180E+03 -1.989164E+04
       102  26  2.620837E+05  8.591865E+04  8.181499E+04 -3.252743E+04  3.012550E+03 -1.461117E+04
       102  27  1.528318E+05  5.919155E+04  5.670471E+04 -6.210991E+04  3.624812E+03 -9.324971E+03
       103   1 -2.188260E+05 -3.231671E+04 -2.914592E+04 -6.178416E+04  3.548100E+03  6.237164E+03
       103   2 -1.095164E+05 -5.535998E+03 -3.931742E+03 -3.224704E+04  2.886784E+03  9.487871E+02
       103   3 -2.268046E+02  2.143410E+04  2.172183E+04 -6.194880E+04  2.225152E+03 -4.336280E+03
       103   4 -8.680030E+04  1.300901E+02  1.038152E+03 -6.190854E+04 -1.335017E+02  6.241567E+03
       103   5 -8.678309E+04  6.174453E+01  1.320710E+03 -3.228914E+04 -7.928664E+02  9.532264E+02
       103   6 -8.679898E+04  1.828162E+02  2.041458E+03 -6.190847E+04 -1.452433E+03 -4.331760E+03
       103   7  4.524155E+04  3.257569E+04  3.122113E+04 -6.203295E+04 -3.815880E+03  6.245970E+03
       103   8 -6.404930E+04  5.659458E+03  6.573178E+03 -3.233124E+04 -4.472651E+03  9.576661E+02
       103   9 -1.733642E+05 -2.106898E+04 -1.763935E+04 -6.186814E+04 -5.129510E+03 -4.327239E+03
       103  10 -2.188260E+05 -3.231676E+04 -2.914601E+04 -6.178418E+04  5.995368E-11  3.965824E-10
       103  11 -1.095164E+05 -5.536002E+03 -3.931759E+03 -3.224705E+04  1.092715E-09  1.120019E-09
       103  12 -2.268150E+02  2.143408E+04  2.172178E+04 -6.194879E+04  1.846793E-09 -1.205514E-09
       103  13 -8.680031E+04  1.300482E+02  1.038079E+03 -6.190854E+04 -1.032207E-12 -5.228700E-11
       103  14 -8.678309E+04  6.174339E+01  1.320707E+03 -3.228914E+04 -2.866804E-09 -1.186487E-09
       103  15 -8.679899E+04  1.827954E+02  2.041418E+03 -6.190847E+04 -5.481153E-10 -3.084583E-10
       103  16  4.524153E+04  3.257564E+04  3.122103E+04 -6.203293E+04 -1.271788E-09  2.993185E-10
       103  17 -6.404932E+04  5.659452E+03  6.573139E+03 -3.233124E+04 -5.579801E-10 -9.485235E-10
       103  18 -1.733642E+05 -2.106900E+04 -1.763943E+04 -6.186816E+04 -1.825025E-09 -5.544328E-10
       103  19 -2.188260E+05 -3.231671E+04 -2.914592E+04 -6.178416E+04 -3.548100E+03 -6.237164E+03
       103  20 -1.095164E+05 -5.535998E+03 -3.931742E+03 -3.224704E+04 -2.886784E+03 -9.487871E+02
       103  21 -2.268046E+02  2.143410E+04  2.172183E+04 -6.194880E+04 -2.225152E+03  4.336280E+03
       103  22 -8.680030E+04  1.300901E+02  1.038152E+03 -6.190854E+04  1.335017E+02 -6.241567E+03
       103  23 -8.678309E+04  6.174453E+01  1.320710E+03 -3.228914E+04  7.928664E+02 -9.532264E+02
       103  24 -8.679898E+04  1.828162E+02  2.041458E+03 -6.190847E+04  1.452433E+03  4.331760E+03
       103  25  4.524155E+04  3.257569E+04  3.122113E+04 -6.203295E+04  3.815880E+03 -6.245970E+03
       103  26 -6.404930E+04  5.659458E+03  6.573178E+03 -3.233124E+04  4.472651E+03 -9.576661E+02
       103  27 -1.733642E+05 -2.106898E+04 -1.763935E+04 -6.186814E+04  5.129510E+03  4.327239E+03
       104   1  1.074495E+05  4.796117E+04  4.778054E+04 -6.191908E+04  1.824016E+03 -7.422730E+03
       104   2  2.165160E+05  7.465834E+04  7.448314E+04 -3.247997E+04 -4.145339E+02 -1.269890E+04
       104   3  3.260363E+05  1.023158E+05  1.028601E+05 -6.225886E+04 -2.650813E+03 -1.790407E+04
       104   4 -8.670258E+04  9.686059E+01  2.606048E+03 -6.190451E+04 -1.874961E+03 -7.418431E+03
       104   5 -8.692837E+04 -4.549128E+01  4.383139E+03 -3.229427E+04 -4.063397E+03 -1.269550E+04
       104   6 -8.671964E+04  7.648919E+02  7.801101E+03 -6.190378E+04 -6.249175E+03 -1.790151E+04
       104   7 -2.808198E+05 -4.777010E+04 -4.257093E+04 -6.188993E+04 -5.572790E+03 -7.414132E+03
       104   8 -3.902876E+05 -7.475577E+04 -6.572295E+04 -3.210863E+04 -7.710490E+03 -1.269210E+04
       104   9 -4.993180E+05 -1.007979E+05 -8.726914E+04 -6.154889E+04 -9.845163E+03 -1.789896E+04
       104  10  1.074495E+05  4.796111E+04  4.778043E+04 -6.191906E+04 -8.076520E-10 -9.499772E-10
       104  11  2.165159E+05  7.465816E+04  7.448284E+04 -3.247997E+04 -9.728400E-10  6.460215E-10
       104  12  3.260362E+05  1.023154E+05  1.028595E+05 -6.225890E+04 -1.631616E-09  5.034088E-10
       104  13 -8.670260E+04  9.680055E+01  2.605938E+03 -6.190452E+04 -2.141464E-09  9.511823E-11
       104  14 -8.692843E+04 -4.566878E+01  4.382805E+03 -3.229431E+04 -6.830311E-10 -1.226362E-10
       104  15 -8.671977E+04  7.645373E+02  7.800425E+03 -6.190387E+04 -1.111136E-09  1.681573E-11
       104  16 -2.808199E+05 -4.777017E+04 -4.257109E+04 -6.188996E+04 -3.100901E-10 -1.327995E-10
       104  17 -3.902877E+05 -7.475596E+04 -6.572337E+04 -3.210871E+04  6.370466E-11  1.347754E-09
       104  18 -4.993181E+05 -1.007983E+05 -8.726993E+04 -6.154903E+04 -1.029234E-10  6.482431E-10
       104  19  1.074495E+05  4.796117E+04  4.778054E+04 -6.191908E+04 -1.824016E+03  7.422730E+03
       104  20  2.165160E+05  7.465834E+04  7.448314E+04 -3.247997E+04  4.145339E+02  1.269890E+04
       104  21  3.260363E+05  1.023158E+05  1.028601E+05 -6.225886E+04  2.650813E+03  1.790407E+04
       104  22 -8.670258E+04  9.686059E+01  2.606048E+03 -6.190451E+04  1.874961E+03  7.418431E+03
       104  23 -8.692837E+04 -4.549128E+01  4.383139E+03 -3.229427E+04  4.063397E+03  1.269550E+04
       104  24 -8.671964E+04  7.648919E+02  7.801101E+03 -6.190378E+04  6.249175E+03  1.790151E+04
       104  25 -2.808198E+05 -4.777010E+04 -4.257093E+04 -6.188993E+04  5.572790E+03  7.414132E+03
       104  26 -3.902876E+05 -7.475577E+04 -6.572295E+04 -3.210863E+04  7.710490E+03  1.269210E+04
       104  27 -4.993180E+05 -1.007979E+05 -8.726914E+04 -6.154889E+04  9.845163E+03  1.789896E+04
       105   1  4.343694E+05  1.276617E+05  1.305578E+05 -6.061778E+04 -3.807159E+03 -2.114484E+04
       105   2  5.415127E+05  1.540455E+05  1.626482E+05 -3.334179E+04 -1.349476E+04 -2.623139E+04
       105   3  6.528150E+05  1.913150E+05  2.037957E+05 -6.518575E+04 -2.317852E+04 -2.994736E+04
       105   4 -8.595506E+04 -4.716654E+02  1.008899E+04 -6.188410E+04 -7.827224E+03 -2.114275E+04
       105   5 -8.796621E+04 -9.031929E+02  1.721339E+04 -3.232039E+04 -1.655238E+04 -2.623164E+04
       105   6 -8.598965E+04  9.391678E+03  3.273457E+04 -6.187998E+04 -2.527203E+04 -2.994936E+04
       105   7 -6.060295E+05 -1.286240E+05 -1.103979E+05 -6.314928E+04 -1.184395E+04 -2.114064E+04
       105   8 -7.170790E+05 -1.558797E+05 -1.282478E+05 -3.129997E+04 -1.960692E+04 -2.623190E+04
       105   9 -8.242902E+05 -1.725700E+05 -1.383631E+05 -5.857810E+04 -2.736305E+04 -2.995138E+04
       105  10  4.343693E+05  1.276612E+05  1.305570E+05 -6.061785E+04  1.356827E-10  4.175695E-10
       105  11  5.415123E+05  1.540447E+05  1.626466E+05 -3.334207E+04 -1.047044E-09 -8.356669E-10
       105  12  6.528142E+05  1.913139E+05  2.037930E+05 -6.518631E+04 -1.049623E-09 -1.811689E-10
       105  13 -8.595524E+04 -4.721618E+02  1.008804E+04 -6.188423E+04 -1.085075E-09  4.586053E-10
       105  14 -8.796669E+04 -9.040054E+02  1.721158E+04 -3.232074E+04 -2.179075E-09  3.882354E-10
       105  15 -8.599057E+04  9.390544E+03  3.273169E+04 -6.188059E+04 -4.106926E-10 -2.350284E-11
       105  16 -6.060297E+05 -1.286245E+05 -1.103990E+05 -6.314949E+04 -1.406786E-09  5.286835E-10
       105  17 -7.170796E+05 -1.558805E+05 -1.282499E+05 -3.130039E+04  4.902725E-10 -1.104081E-10
       105  18 -8.242913E+05 -1.725711E+05 -1.383662E+05 -5.857876E+04  1.368374E-09  4.598908E-11
       105  19  4.343694E+05  1.276617E+05  1.305578E+05 -6.061778E+04  3.807159E+03  2.114484E+04
       105  20  5.415127E+05  1.540455E+05  1.626482E+05 -3.334179E+04  1.349476E+04  2.623139E+04
       105  21  6.528150E+05  1.913150E+05  2.037957E+05 -6.518575E+04  2.317852E+04  2.994736E+04
       105  22 -8.595506E+04 -4.716654E+02  1.008899E+04 -6.188410E+04  7.827224E+03  2.114275E+04
       105  23 -8.796621E+04 -9.031929E+02  1.721339E+04 -3.232039E+04  1.655238E+04  2.623164E+04
       105  24 -8.598965E+04  9.391678E+03  3.273457E+04 -6.187998E+04  2.527203E+04  2.994936E+04
       105  25 -6.060295E+05 -1.286240E+05 -1.103979E+05 -6.314928E+04  1.184395E+04  2.114064E+04
       105  26 -7.170790E+05 -1.558797E+05 -1.282478E+05 -3.129997E+04  1.960692E+04  2.623190E+04
       105  27 -8.242902E+05 -1.725700E+05 -1.383631E+05 -5.857810E+04  2.736305E+04  2.995138E+04
       106   1  7.683177E+05  2.014817E+05  2.357433E+05 -4.378906E+04 -2.093742E+04 -3.625427E+04
       106   2  8.566815E+05  2.253926E+05  2.882990E+05 -4.778071E+04 -7.546330E+04 -3.778360E+04
       106   3  9.870428E+05  3.865578E+05  4.107582E+05 -1.099586E+05 -1.300204E+05 -1.250666E+04
       106   4 -7.829717E+04 -6.795477E+03  4.061216E+04 -6.165629E+04 -3.130997E+04 -3.625634E+04
       106   5 -9.771889E+04 -9.661053E+03  6.692818E+04 -3.259982E+04 -6.711026E+04 -3.778639E+04
       106   6 -7.834223E+04  1.215886E+05  1.502136E+05 -6.172725E+04 -1.029304E+05 -1.249763E+04
       106   7 -9.242486E+05 -2.151216E+05 -1.545660E+05 -7.949894E+04 -4.166847E+04 -3.625783E+04
       106   8 -1.051278E+06 -2.447779E+05 -1.545034E+05 -1.744247E+04 -5.876989E+04 -3.778878E+04
       106   9 -1.142687E+06 -1.434553E+05 -1.104099E+05 -1.357892E+04 -7.588663E+04 -1.248440E+04
       106  10  7.683169E+05  2.014802E+05  2.357400E+05 -4.378967E+04 -1.161858E-09 -8.943682E-11
       106  11  8.566750E+05  2.253895E+05  2.882856E+05 -4.778301E+04  1.046350E-09 -4.443438E-10
       106  12  9.870246E+05  3.865531E+05  4.107262E+05 -1.099599E+05  1.505095E-09 -4.381515E-10
       106  13 -7.829858E+04 -6.797152E+03  4.060784E+04 -6.165720E+04 -3.253659E-09 -3.267731E-11
       106  14 -9.772411E+04 -9.663795E+03  6.691703E+04 -3.260186E+04  1.605523E-09  2.909182E-10
       106  15 -7.835365E+04  1.215856E+05  1.501934E+05 -6.172829E+04  1.757351E-09 -2.545267E-10
       106  16 -9.242509E+05 -2.151234E+05 -1.545718E+05 -7.950016E+04  1.962596E-11 -2.563933E-11
       106  17 -1.051282E+06 -2.447804E+05 -1.545126E+05 -1.744426E+04 -1.652037E-09 -2.445768E-10
       106  18 -1.142693E+06 -1.434570E+05 -1.104210E+05 -1.357969E+04  5.519097E-10 -4.804380E-10
       106  19  7.683177E+05  2.014817E+05  2.357433E+05 -4.378906E+04  2.093742E+04  3.625427E+04
       106  20  8.566815E+05  2.253926E+05  2.882990E+05 -4.778071E+04  7.546330E+04  3.778360E+04
       106  21  9.870428E+05  3.865578E+05  4.107582E+05 -1.099586E+05  1.300204E+05  1.250666E+04
       106  22 -7.829717E+04 -6.795477E+03  4.061216E+04 -6.165629E+04  3.130997E+04  3.625634E+04
       106  23 -9.771889E+04 -9.661053E+03  6.692818E+04 -3.259982E+04  6.711026E+04  3.778639E+04
       106  24 -7.834223E+04  1.215886E+05  1.502136E+05 -6.172725E+04  1.029304E+05  1.249763E+04
       106  25 -9.242486E+05 -2.151216E+05 -1.545660E+05 -7.949894E+04  4.166847E+04  3.625783E+04
       106  26 -1.051278E+06 -2.447779E+05 -1.545034E+05 -1.744247E+04  5.876989E+04  3.778878E+04
       106  27 -1.142687E+06 -1.434553E+05 -1.104099E+05 -1.357892E+04  7.588663E+04  1.248440E+04
       107   1  3.916873E+05  1.054521E+06  3.988758E+05 -3.541889E+05  9.247158E+03  1.753885E+05
       107   2  1.988748E+05  7.915226E+05  2.249008E+05 -2.717398E+05  2.852275E+04  9.006395E+04
       107   3  1.079996E+05  5.648188E+05  1.318614E+05 -2.425893E+05  2.494199E+04  4.713725E+03
       107   4  1.641768E+05  1.382627E+05  1.807215E+05 -2.497613E+05  9.439071E+03  1.234046E+05
       107   5  3.799354E+04  1.235594E+05  8.990742E+04 -2.233664E+05  2.857361E+04  7.711900E+04
       107   6  7.038251E+03  1.383774E+05  5.299951E+04 -2.502500E+05  2.485587E+04  3.077181E+04
       107   7 -6.335261E+04 -7.771978E+05 -3.747590E+04 -1.454877E+05  9.613685E+03  7.149688E+04
       107   8 -1.229068E+05 -5.439740E+05 -4.510719E+04 -1.750455E+05  2.862249E+04  6.418767E+04
       107   9 -9.393288E+04 -2.878863E+05 -2.586739E+04 -2.579052E+05  2.476907E+04  5.681246E+04
       107  10  3.916789E+05  1.054488E+06  3.988180E+05 -3.541902E+05  1.001062E-10  1.364721E-09
       107  11  1.988718E+05  7.915137E+05  2.248840E+05 -2.717419E+05  7.864778E-10 -6.005294E-10
       107  12  1.079989E+05  5.648186E+05  1.318602E+05 -2.425894E+05 -1.053028E-09 -4.234958E-09
       107  13  1.641726E+05  1.382463E+05  1.806927E+05 -2.497623E+05 -8.290115E-11  1.485213E-09
       107  14  3.799107E+04  1.235528E+05  8.989470E+04 -2.233681E+05  3.156855E-09  1.408386E-11
       107  15  7.037332E+03  1.383762E+05  5.299657E+04 -2.502507E+05  9.431892E-10  9.804500E-10
       107  16 -6.335409E+04 -7.772033E+05 -3.748569E+04 -1.454882E+05 -4.072598E-10 -1.352810E-09
       107  17 -1.229088E+05 -5.439787E+05 -4.511648E+04 -1.750470E+05  1.841941E-10  5.550432E-10
       107  18 -9.393441E+04 -2.878900E+05 -2.587462E+04 -2.579063E+05 -7.172697E-10  4.252231E-09
       107  19  3.916873E+05  1.054521E+06  3.988758E+05 -3.541889E+05 -9.247158E+03 -1.753885E+05
       107  20  1.988748E+05  7.915226E+05  2.249008E+05 -2.717398E+05 -2.852275E+04 -9.006395E+04
       107  21  1.079996E+05  5.648188E+05  1.318614E+05 -2.425893E+05 -2.494199E+04 -4.713725E+03
       107  22  1.641768E+05  1.382627E+05  1.807215E+05 -2.497613E+05 -9.439071E+03 -1.234046E+05
       107  23  3.799354E+04  1.235594E+05  8.990742E+04 -2.233664E+05 -2.857361E+04 -7.711900E+04
       107  24  7.038251E+03  1.383774E+05  5.299951E+04 -2.502500E+05 -2.485587E+04 -3.077181E+04
       107  25 -6.335261E+04 -7.771978E+05 -3.747590E+04 -1.454877E+05 -9.613685E+03 -7.149688E+04
       107  26 -1.229068E+05 -5.439740E+05 -4.510719E+04 -1.750455E+05 -2.862249E+04 -6.418767E+04
       107  27 -9.393288E+04 -2.878863E+05 -2.586739E+04 -2.579052E+05 -2.476907E+04 -5.681246E+04
       108   1  7.211372E+04  3.985138E+05  9.249205E+04 -2.549955E+05  1.548202E+04 -3.265417E+02
       108   2  8.234525E+03  1.516491E+05  3.564425E+04 -2.235226E+05  1.526987E+03 -1.652363E+04
       108   3 -4.706939E+04 -9.130652E+04 -8.630003E+03 -2.468498E+05 -1.251644E+04 -3.271511E+04
       108   4  9.078532E+03  1.326872E+05  4.322647E+04 -2.505258E+05  1.540177E+04  2.347525E+04
       108   5  3.340464E+03  1.307759E+05  3.205806E+04 -2.231314E+05  1.446094E+03  7.428538E+03
       108   6  6.155465E+03  1.326907E+05  3.336220E+04 -2.505356E+05 -1.259789E+04 -8.618578E+03
       108   7 -5.396034E+04 -1.330697E+05 -6.039945E+03 -2.460580E+05  1.532184E+04  4.726712E+04
       108   8 -1.553312E+03  1.099043E+05  2.847402E+04 -2.227402E+05  1.365231E+03  3.137993E+04
       108   9  5.937777E+04  3.567377E+05  7.535442E+04 -2.542227E+05 -1.267961E+04  1.548643E+04
       108  10  7.211346E+04  3.985137E+05  9.249160E+04 -2.549955E+05 -8.199834E-10 -2.667017E-08
       108  11  8.234449E+03  1.516488E+05  3.564373E+04 -2.235226E+05  2.819742E-10  1.913435E-09
       108  12 -4.706985E+04 -9.130771E+04 -8.632310E+03 -2.468502E+05 -7.364935E-11  2.869644E-08
       108  13  9.078129E+03  1.326865E+05  4.322499E+04 -2.505261E+05  4.866883E-10  1.541640E-09
       108  14  3.340447E+03  1.307758E+05  3.205796E+04 -2.231314E+05 -6.246438E-10 -7.641251E-11
       108  15  6.155275E+03  1.326906E+05  3.336176E+04 -2.505357E+05  1.610446E-09  1.006896E-09
       108  16 -5.396119E+04 -1.330722E+05 -6.044587E+03 -2.460585E+05  9.516619E-10  2.654333E-08
       108  17 -1.553578E+03  1.099032E+05  2.847217E+04 -2.227402E+05  9.441062E-10 -1.975702E-09
       108  18  5.937753E+04  3.567374E+05  7.535367E+04 -2.542226E+05  7.789195E-10 -2.869964E-08
       108  19  7.211372E+04  3.985138E+05  9.249205E+04 -2.549955E+05 -1.548202E+04  3.265417E+02
       108  20  8.234525E+03  1.516491E+05  3.564425E+04 -2.235226E+05 -1.526987E+03  1.652363E+04
       108  21 -4.706939E+04 -9.130652E+04 -8.630003E+03 -2.468498E+05  1.251644E+04  3.271511E+04
       108  22  9.078532E+03  1.326872E+05  4.322647E+04 -2.505258E+05 -1.540177E+04 -2.347525E+04
       108  23  3.340464E+03  1.307759E+05  3.205806E+04 -2.231314E+05 -1.446094E+03 -7.428538E+03
       108  24  6.155465E+03  1.326907E+05  3.336220E+04 -2.505356E+05  1.259789E+04  8.618578E+03
       108  25 -5.396034E+04 -1.330697E+05 -6.039945E+03 -2.460580E+05 -1.532184E+04 -4.726712E+04
       108  26 -1.553312E+03  1.099043E+05  2.847402E+04 -2.227402E+05 -1.365231E+03 -3.137993E+04
       108  27  5.937777E+04  3.567377E+05  7.535442E+04 -2.542227E+05  1.267961E+04 -1.548643E+04
       109   1 -8.616232E+04 -2.485713E+05 -3.399761E+04 -2.543408E+05 -2.201971E+04 -4.037753E+04
       109   2 -1.270689E+05 -4.992750E+05 -6.953728E+04 -1.929257E+05 -2.651169E+04 -3.267572E+04
       109   3 -1.156504E+05 -7.381536E+05 -9.708646E+04 -1.849369E+05 -9.109298E+03 -2.491708E+04
       109   4  5.002139E+03  1.358706E+05  3.752983E+04 -2.502631E+05 -2.210731E+04 -1.414043E+04
       109   5  2.379147E+04  1.267099E+05  5.750873E+04 -2.234075E+05 -2.647223E+04 -4.374468E+04
       109   6  1.013494E+05  1.357657E+05  1.113719E+05 -2.499622E+05 -8.953747E+03 -7.328952E+04
       109   7  9.615855E+04  5.204572E+05  1.090536E+05 -2.461826E+05 -2.219453E+04  1.211251E+04
       109   8  1.746308E+05  7.530699E+05  1.845352E+05 -2.539204E+05 -2.643170E+04 -5.482459E+04
       109   9  3.183107E+05  1.010400E+06  3.197875E+05 -3.150789E+05 -8.788180E+03 -1.217297E+05
       109  10 -8.616328E+04 -2.485732E+05 -3.400158E+04 -2.543416E+05 -6.658414E-10  7.081182E-10
       109  11 -1.270700E+05 -4.992763E+05 -6.954061E+04 -1.929264E+05 -2.649758E-09  1.639088E-09
       109  12 -1.156507E+05 -7.381543E+05 -9.708779E+04 -1.849371E+05 -1.457958E-09  1.532808E-09
       109  13  5.001560E+03  1.358703E+05  3.752853E+04 -2.502633E+05 -1.295848E-09  1.585266E-09
       109  14  2.379020E+04  1.267076E+05  5.750381E+04 -2.234085E+05 -1.792933E-09  1.036592E-10
       109  15  1.013479E+05  1.357599E+05  1.113617E+05 -2.499627E+05 -1.891297E-09  9.728777E-10
       109  16  9.615798E+04  5.204569E+05  1.090524E+05 -2.461824E+05 -1.406058E-10 -7.061309E-10
       109  17  1.746293E+05  7.530665E+05  1.845283E+05 -2.539216E+05 -1.715975E-09 -1.521761E-09
       109  18  3.183067E+05  1.010384E+06  3.197596E+05 -3.150798E+05  8.356818E-10 -1.193567E-09
       109  19 -8.616232E+04 -2.485713E+05 -3.399761E+04 -2.543408E+05  2.201971E+04  4.037753E+04
       109  20 -1.270689E+05 -4.992750E+05 -6.953728E+04 -1.929257E+05  2.651169E+04  3.267572E+04
       109  21 -1.156504E+05 -7.381536E+05 -9.708646E+04 -1.849369E+05  9.109298E+03  2.491708E+04
       109  22  5.002139E+03  1.358706E+05  3.752983E+04 -2.502631E+05  2.210731E+04  1.414043E+04
       109  23  2.379147E+04  1.267099E+05  5.750873E+04 -2.234075E+05  2.647223E+04  4.374468E+04
       109  24  1.013494E+05  1.357657E+05  1.113719E+05 -2.499622E+05  8.953747E+03  7.328952E+04
       109  25  9.615855E+04  5.204572E+05  1.090536E+05 -2.461826E+05  2.219453E+04 -1.211251E+04
       109  26  1.746308E+05  7.530699E+05  1.845352E+05 -2.539204E+05  2.643170E+04  5.482459E+04
       109  27  3.183107E+05  1.010400E+06  3.197875E+05 -3.150789E+05  8.788180E+03  1.217297E+05
       110   1 -3.660808E+06 -1.256871E+06 -7.708322E+05 -1.311078E+06 -3.266246E+05 -1.066433E+05
       110   2 -3.555689E+06 -7.767968E+05 -4.687215E+05 -1.312099E+06 -2.125057E+05 -2.897716E+04
       110   3 -3.580077E+06 -7.187840E+05 -3.668689E+05 -1.250687E+06 -8.666813E+04  1.772846E+04
       110   4 -2.605472E+06 -7.276593E+05 -4.596431E+05 -8.904786E+05 -2.972979E+05 -9.565126E+04
       110   5 -2.518008E+06 -3.464079E+05 -1.949721E+05 -9.866094E+05 -2.030998E+05 -2.545237E+04
       110   6 -2.555833E+06 -3.828827E+05 -1.144581E+05 -1.020383E+06 -9.720126E+04  1.376357E+04
       110   7 -1.549005E+06 -1.981031E+05 -1.485580E+05 -4.691442E+05 -2.679159E+05 -8.462279E+04
       110   8 -1.479265E+06  8.411710E+04  7.868461E+04 -6.606010E+05 -1.936765E+05 -2.191940E+04
       110   9 -1.530564E+06 -4.697157E+04  1.378739E+05 -7.897603E+05 -1.077534E+05  9.793625E+03
       110  10 -3.660926E+06 -1.256912E+06 -7.710555E+05 -1.311106E+06 -2.849408E-10 -5.946119E-10
       110  11 -3.555738E+06 -7.768100E+05 -4.688085E+05 -1.312104E+06  5.961345E-09  1.802553E-09
       110  12 -3.580085E+06 -7.187864E+05 -3.668837E+05 -1.250686E+06  1.040478E-08  5.590944E-09
       110  13 -2.605570E+06 -7.276931E+05 -4.598273E+05 -8.905016E+05  2.541244E-10 -1.237966E-09
       110  14 -2.518053E+06 -3.464198E+05 -1.950511E+05 -9.866136E+05  4.004161E-09 -3.881254E-10
       110  15 -2.555843E+06 -3.828854E+05 -1.144763E+05 -1.020382E+06  4.603388E-09  1.767781E-09
       110  16 -1.549084E+06 -1.981301E+05 -1.487067E+05 -4.691625E+05  5.961190E-10  1.436131E-09
       110  17 -1.479306E+06  8.410648E+04  7.861303E+04 -6.606044E+05 -7.406220E-09 -1.035960E-09
       110  18 -1.530576E+06 -4.697480E+04  1.378519E+05 -7.897595E+05 -9.251688E-09 -6.042335E-10
       110  19 -3.660808E+06 -1.256871E+06 -7.708322E+05 -1.311078E+06  3.266246E+05  1.066433E+05
       110  20 -3.555689E+06 -7.767968E+05 -4.687215E+05 -1.312099E+06  2.125057E+05  2.897716E+04
       110  21 -3.580077E+06 -7.187840E+05 -3.668689E+05 -1.250687E+06  8.666813E+04 -1.772846E+04
       110  22 -2.605472E+06 -7.276593E+05 -4.596431E+05 -8.904786E+05  2.972979E+05  9.565126E+04
       110  23 -2.518008E+06 -3.464079E+05 -1.949721E+05 -9.866094E+05  2.030998E+05  2.545237E+04
       110  24 -2.555833E+06 -3.828827E+05 -1.144581E+05 -1.020383E+06  9.720126E+04 -1.376357E+04
       110  25 -1.549005E+06 -1.981031E+05 -1.485580E+05 -4.691442E+05  2.679159E+05  8.462279E+04
       110  26 -1.479265E+06  8.411710E+04  7.868461E+04 -6.606010E+05  1.936765E+05  2.191940E+04
       110  27 -1.530564E+06 -4.697157E+04  1.378739E+05 -7.897603E+05  1.077534E+05 -9.793625E+03
       111   1 -3.434095E+06 -7.712223E+05 -3.231466E+05 -1.250587E+06 -7.825977E+04  1.361617E+04
       111   2 -3.360356E+06 -6.834223E+05 -2.536948E+05 -1.208952E+06 -5.267076E+04  2.036344E+04
       111   3 -3.264820E+06 -6.657581E+05 -2.115529E+05 -1.201629E+06 -2.639405E+04  2.527722E+04
       111   4 -2.540291E+06 -4.261012E+05 -9.210763E+04 -9.964462E+05 -7.936775E+04  1.319337E+04
       111   5 -2.549203E+06 -3.766154E+05 -4.576200E+04 -9.847354E+05 -5.493450E+04  1.950868E+04
       111   6 -2.536077E+06 -3.970039E+05 -2.577553E+04 -1.007339E+06 -2.981764E+04  2.398964E+04
       111   7 -1.645699E+06 -8.091495E+04  1.388657E+05 -7.419670E+05 -8.047743E+04  1.276989E+04
       111   8 -1.737404E+06 -6.976273E+04  1.621172E+05 -7.602504E+05 -5.720146E+04  1.865269E+04
       111   9 -1.806813E+06 -1.282201E+05  1.599588E+05 -8.128437E+05 -3.324564E+04  2.270046E+04
       111  10 -3.434102E+06 -7.712242E+05 -3.231585E+05 -1.250586E+06 -6.380824E-09 -1.800895E-09
       111  11 -3.360359E+06 -6.834235E+05 -2.537008E+05 -1.208951E+06 -3.424021E-09 -3.271285E-09
       111  12 -3.264821E+06 -6.657590E+05 -2.115554E+05 -1.201629E+06 -1.940098E-09 -2.377732E-09
       111  13 -2.540297E+06 -4.261031E+05 -9.211984E+04 -9.964454E+05  3.375756E-09  2.143407E-09
       111  14 -2.549207E+06 -3.766167E+05 -4.576840E+04 -9.847345E+05  2.890803E-10 -1.322827E-09
       111  15 -2.536078E+06 -3.970047E+05 -2.577828E+04 -1.007339E+06 -4.244057E-09 -3.049744E-09
       111  16 -1.645706E+06 -8.091687E+04  1.388531E+05 -7.419662E+05  1.062614E-08  5.625824E-09
       111  17 -1.737407E+06 -6.976398E+04  1.621104E+05 -7.602495E+05  3.922247E-09  1.402801E-09
       111  18 -1.806814E+06 -1.282209E+05  1.599558E+05 -8.128431E+05 -9.594355E-09 -3.235414E-09
       111  19 -3.434095E+06 -7.712223E+05 -3.231466E+05 -1.250587E+06  7.825977E+04 -1.361617E+04
       111  20 -3.360356E+06 -6.834223E+05 -2.536948E+05 -1.208952E+06  5.267076E+04 -2.036344E+04
       111  21 -3.264820E+06 -6.657581E+05 -2.115529E+05 -1.201629E+06  2.639405E+04 -2.527722E+04
       111  22 -2.540291E+06 -4.261012E+05 -9.210763E+04 -9.964462E+05  7.936775E+04 -1.319337E+04
       111  23 -2.549203E+06 -3.766154E+05 -4.576200E+04 -9.847354E+05  5.493450E+04 -1.950868E+04
       111  24 -2.536077E+06 -3.970039E+05 -2.577553E+04 -1.007339E+06  2.981764E+04 -2.398964E+04
       111  25 -1.645699E+06 -8.091495E+04  1.388657E+05 -7.419670E+05  8.047743E+04 -1.276989E+04
       111  26 -1.737404E+06 -6.976273E+04  1.621172E+05 -7.602504E+05  5.720146E+04 -1.865269E+04
       111  27 -1.806813E+06 -1.282201E+05  1.599588E+05 -8.128437E+05  3.324564E+04 -2.270046E+04
       112   1 -3.164312E+06 -6.375879E+05 -1.807956E+05 -1.178220E+06 -2.212564E+04  2.354972E+04
       112   2 -3.089989E+06 -5.799420E+05 -1.479241E+05 -1.130490E+06 -1.494742E+04  2.096777E+04
       112   3 -2.977926E+06 -5.644094E+05 -1.198229E+05 -1.127227E+06 -7.707138E+03  1.820816E+04
       112   4 -2.533992E+06 -4.009984E+05 -1.986774E+04 -1.005763E+06 -2.507807E+04  2.244013E+04
       112   5 -2.552676E+06 -3.787096E+05 -1.060515E+04 -9.839879E+05 -1.800949E+04  1.981870E+04
       112   6 -2.533607E+06 -3.985088E+05 -6.021316E+03 -1.006680E+06 -1.087976E+04  1.701936E+04
       112   7 -1.903285E+06 -1.643839E+05  1.410271E+05 -8.331481E+05 -2.803378E+04  2.132931E+04
       112   8 -2.015081E+06 -1.774588E+05  1.266903E+05 -8.373706E+05 -2.107448E+04  1.866853E+04
       112   9 -2.089092E+06 -2.325953E+05  1.077646E+05 -8.860554E+05 -1.405489E+04  1.582964E+04
       112  10 -3.164313E+06 -6.375886E+05 -1.807976E+05 -1.178219E+06 -7.471711E-09 -2.391680E-09
       112  11 -3.089990E+06 -5.799426E+05 -1.479254E+05 -1.130490E+06 -3.384567E-10  7.419933E-10
       112  12 -2.977927E+06 -5.644098E+05 -1.198237E+05 -1.127227E+06  1.720676E-09  4.905062E-10
       112  13 -2.533993E+06 -4.009991E+05 -1.986987E+04 -1.005763E+06 -5.080366E-09 -2.276904E-09
       112  14 -2.552677E+06 -3.787101E+05 -1.060650E+04 -9.839876E+05 -2.076249E-10  2.533965E-10
       112  15 -2.533607E+06 -3.985091E+05 -6.022082E+03 -1.006680E+06  6.618071E-10  4.003719E-10
       112  16 -1.903286E+06 -1.643846E+05  1.410248E+05 -8.331476E+05 -3.134468E-09 -1.775169E-09
       112  17 -2.015081E+06 -1.774593E+05  1.266888E+05 -8.373703E+05  4.078654E-10 -2.170256E-11
       112  18 -2.089092E+06 -2.325956E+05  1.077638E+05 -8.860552E+05  2.611728E-10 -1.855144E-10
       112  19 -3.164312E+06 -6.375879E+05 -1.807956E+05 -1.178220E+06  2.212564E+04 -2.354972E+04
       112  20 -3.089989E+06 -5.799420E+05 -1.479241E+05 -1.130490E+06  1.494742E+04 -2.096777E+04
       112  21 -2.977926E+06 -5.644094E+05 -1.198229E+05 -1.127227E+06  7.707138E+03 -1.820816E+04
       112  22 -2.533992E+06 -4.009984E+05 -1.986774E+04 -1.005763E+06  2.507807E+04 -2.244013E+04
       112  23 -2.552676E+06 -3.787096E+05 -1.060515E+04 -9.839879E+05  1.800949E+04 -1.981870E+04
       112  24 -2.533607E+06 -3.985088E+05 -6.021316E+03 -1.006680E+06  1.087976E+04 -1.701936E+04
       112  25 -1.903285E+06 -1.643839E+05  1.410271E+05 -8.331481E+05  2.803378E+04 -2.132931E+04
       112  26 -2.015081E+06 -1.774588E+05  1.266903E+05 -8.373706E+05  2.107448E+04 -1.866853E+04
       112  27 -2.089092E+06 -2.325953E+05  1.077646E+05 -8.860554E+05  1.405489E+04 -1.582964E+04
       113   1 -2.877562E+06 -5.278721E+05 -9.233693E+04 -1.100636E+06 -5.761206E+03  1.568674E+04
       113   2 -2.801023E+06 -4.711767E+05 -6.621489E+04 -1.050985E+06 -2.428913E+03  1.133420E+04
       113   3 -2.684128E+06 -4.553560E+05 -4.126769E+04 -1.047960E+06  9.174390E+02  6.937520E+03
       113   4 -2.533126E+06 -3.990804E+05 -4.693694E+03 -1.006835E+06 -8.936223E+03  1.449786E+04
       113   5 -2.553278E+06 -3.785299E+05 -2.936146E+03 -9.835614E+05 -5.631752E+03  1.013568E+04
       113   6 -2.533078E+06 -3.988472E+05 -2.330391E+03 -1.006916E+06 -2.313514E+03  5.729335E+03
       113   7 -2.188574E+06 -2.702808E+05  8.294018E+04 -9.129875E+05 -1.211318E+04  1.330826E+04
       113   8 -2.305475E+06 -2.858797E+05  6.033720E+04 -9.161143E+05 -8.835976E+03  8.936653E+03
       113   9 -2.382009E+06 -3.423378E+05  3.660444E+04 -9.658633E+05 -5.545283E+03  4.520846E+03
       113  10 -2.877562E+06 -5.278724E+05 -9.233745E+04 -1.100636E+06 -1.986696E-10 -6.211647E-10
       113  11 -2.801023E+06 -4.711768E+05 -6.621514E+04 -1.050985E+06  3.315437E-09  2.806412E-09
       113  12 -2.684128E+06 -4.553560E+05 -4.126778E+04 -1.047960E+06  2.770323E-09  7.576996E-11
       113  13 -2.533126E+06 -3.990806E+05 -4.694239E+03 -1.006835E+06  9.272567E-10  1.391840E-10
       113  14 -2.553278E+06 -3.785300E+05 -2.936399E+03 -9.835614E+05  4.179868E-09  1.530025E-09
       113  15 -2.533078E+06 -3.988472E+05 -2.330463E+03 -1.006916E+06  2.898123E-09  1.646815E-09
       113  16 -2.188574E+06 -2.702811E+05  8.293957E+04 -9.129874E+05  2.141814E-09  5.787187E-10
       113  17 -2.305475E+06 -2.858799E+05  6.033691E+04 -9.161142E+05  3.343402E-09  7.046895E-10
       113  18 -2.382009E+06 -3.423379E+05  3.660435E+04 -9.658633E+05 -7.932071E-10 -2.679718E-10
       113  19 -2.877562E+06 -5.278721E+05 -9.233693E+04 -1.100636E+06  5.761206E+03 -1.568674E+04
       113  20 -2.801023E+06 -4.711767E+05 -6.621489E+04 -1.050985E+06  2.428913E+03 -1.133420E+04
       113  21 -2.684128E+06 -4.553560E+05 -4.126769E+04 -1.047960E+06 -9.174390E+02 -6.937520E+03
       113  22 -2.533126E+06 -3.990804E+05 -4.693694E+03 -1.006835E+06  8.936223E+03 -1.449786E+04
       113  23 -2.553278E+06 -3.785299E+05 -2.936146E+03 -9.835614E+05  5.631752E+03 -1.013568E+04
       113  24 -2.533078E+06 -3.988472E+05 -2.330391E+03 -1.006916E+06  2.313514E+03 -5.729335E+03
       113  25 -2.188574E+06 -2.702808E+05  8.294018E+04 -9.129875E+05  1.211318E+04 -1.330826E+04
       113  26 -2.305475E+06 -2.858797E+05  6.033720E+04 -9.161143E+05  8.835976E+03 -8.936653E+03
       113  27 -2.382009E+06 -3.423378E+05  3.660444E+04 -9.658633E+05  5.545283E+03 -4.520846E+03
       114   1 -2.582138E+06 -4.172756E+05 -1.454165E+04 -1.020446E+06  2.396959E+03  4.182761E+03
       114   2 -2.504898E+06 -3.603280E+05  9.346212E+03 -9.702993E+05  5.759186E+03 -2.382667E+02
       114   3 -2.387018E+06 -3.446063E+05  3.204076E+04 -9.672029E+05  9.117366E+03 -4.645989E+03
       114   4 -2.533012E+06 -3.989270E+05 -2.349913E+03 -1.007009E+06 -8.422839E+02  2.971693E+03
       114   5 -2.553341E+06 -3.784058E+05 -3.018137E+03 -9.834469E+05  2.528102E+03 -1.446495E+03
       114   6 -2.533041E+06 -3.991141E+05 -4.885992E+03 -1.006940E+06  5.894165E+03 -5.851429E+03
       114   7 -2.483883E+06 -3.805781E+05  9.841846E+03 -9.935705E+05 -4.081848E+03  1.760505E+03
       114   8 -2.601782E+06 -3.964838E+05 -1.538277E+04 -9.965937E+05 -7.027393E+02 -2.654633E+03
       114   9 -2.679044E+06 -4.536209E+05 -4.181476E+04 -1.046669E+06  2.671767E+03 -7.056569E+03
       114  10 -2.582138E+06 -4.172756E+05 -1.454169E+04 -1.020446E+06 -3.144973E-10 -1.412745E-09
       114  11 -2.504898E+06 -3.603280E+05  9.346149E+03 -9.702993E+05 -1.294550E-09 -9.151711E-10
       114  12 -2.387018E+06 -3.446064E+05  3.204056E+04 -9.672029E+05  1.991502E-10 -1.172706E-09
       114  13 -2.533012E+06 -3.989270E+05 -2.349931E+03 -1.007009E+06 -1.188220E-09 -1.173601E-09
       114  14 -2.553341E+06 -3.784059E+05 -3.018153E+03 -9.834469E+05  1.394398E-10  1.363198E-09
       114  15 -2.533041E+06 -3.991141E+05 -4.886122E+03 -1.006940E+06  7.154467E-10  7.743017E-10
       114  16 -2.483883E+06 -3.805781E+05  9.841808E+03 -9.935705E+05  1.516368E-09 -2.288778E-10
       114  17 -2.601782E+06 -3.964838E+05 -1.538279E+04 -9.965937E+05  2.544090E-09  1.055748E-09
       114  18 -2.679044E+06 -4.536210E+05 -4.181486E+04 -1.046669E+06  1.711606E-09  6.764112E-10
       114  19 -2.582138E+06 -4.172756E+05 -1.454165E+04 -1.020446E+06 -2.396959E+03 -4.182761E+03
       114  20 -2.504898E+06 -3.603280E+05  9.346212E+03 -9.702993E+05 -5.759186E+03  2.382667E+02
       114  21 -2.387018E+06 -3.446063E+05  3.204076E+04 -9.672029E+05 -9.117366E+03  4.645989E+03
       114  22 -2.533012E+06 -3.989270E+05 -2.349913E+03 -1.007009E+06  8.422839E+02 -2.971693E+03
       114  23 -2.553341E+06 -3.784058E+05 -3.018137E+03 -9.834469E+05 -2.528102E+03  1.446495E+03
       114  24 -2.533041E+06 -3.991141E+05 -4.885992E+03 -1.006940E+06 -5.894165E+03  5.851429E+03
       114  25 -2.483883E+06 -3.805781E+05  9.841846E+03 -9.935705E+05  4.081848E+03 -1.760505E+03
       114  26 -2.601782E+06 -3.964838E+05 -1.538277E+04 -9.965937E+05  7.027393E+02  2.654633E+03
       114  27 -2.679044E+06 -4.536209E+05 -4.181476E+04 -1.046669E+06 -2.671767E+03  7.056569E+03
       115   1 -2.285715E+06 -3.064827E+05  5.722803E+04 -9.400623E+05  1.112659E+04 -7.196402E+03
       115   2 -2.209580E+06 -2.499253E+05  7.657770E+04 -8.901423E+05  1.845624E+04 -1.005013E+04
       115   3 -2.094896E+06 -2.366114E+05  9.105969E+04 -8.859271E+05  2.574018E+04 -1.276971E+04
       115   4 -2.533398E+06 -3.986889E+05 -6.292366E+03 -1.006975E+06  7.893168E+03 -8.406069E+03
       115   5 -2.552853E+06 -3.783347E+05 -1.108182E+04 -9.836482E+05  1.530603E+04 -1.122975E+04
       115   6 -2.533784E+06 -4.012430E+05 -2.080673E+04 -1.006031E+06  2.267231E+04 -1.391958E+04
       115   7 -2.781018E+06 -4.908901E+05 -6.981676E+04 -1.073862E+06  4.661210E+03 -9.615194E+03
       115   8 -2.896008E+06 -5.067360E+05 -9.875050E+04 -1.077107E+06  1.215774E+04 -1.240866E+04
       115   9 -2.972486E+06 -5.658631E+05 -1.326895E+05 -1.126058E+06  1.960679E+04 -1.506856E+04
       115  10 -2.285715E+06 -3.064828E+05  5.722770E+04 -9.400622E+05 -9.022355E-10 -1.307695E-09
       115  11 -2.209581E+06 -2.499255E+05  7.657687E+04 -8.901422E+05 -2.345228E-09 -5.780679E-10
       115  12 -2.094897E+06 -2.366117E+05  9.105814E+04 -8.859269E+05  2.209004E-10 -1.363514E-11
       115  13 -2.533398E+06 -3.986890E+05 -6.292615E+03 -1.006975E+06 -2.072352E-09  6.387761E-10
       115  14 -2.552853E+06 -3.783349E+05 -1.108250E+04 -9.836481E+05 -5.167509E-09 -1.793188E-09
       115  15 -2.533785E+06 -4.012434E+05 -2.080806E+04 -1.006031E+06 -7.990005E-10 -3.499892E-10
       115  16 -2.781018E+06 -4.908902E+05 -6.981697E+04 -1.073862E+06 -3.330959E-09 -2.119855E-10
       115  17 -2.896009E+06 -5.067362E+05 -9.875107E+04 -1.077107E+06 -7.795509E-10 -2.198003E-10
       115  18 -2.972486E+06 -5.658634E+05 -1.326907E+05 -1.126058E+06  3.407712E-09  7.049629E-10
       115  19 -2.285715E+06 -3.064827E+05  5.722803E+04 -9.400623E+05 -1.112659E+04  7.196402E+03
       115  20 -2.209580E+06 -2.499253E+05  7.657770E+04 -8.901423E+05 -1.845624E+04  1.005013E+04
       115  21 -2.094896E+06 -2.366114E+05  9.105969E+04 -8.859271E+05 -2.574018E+04  1.276971E+04
       115  22 -2.533398E+06 -3.986889E+05 -6.292366E+03 -1.006975E+06 -7.893168E+03  8.406069E+03
       115  23 -2.552853E+06 -3.783347E+05 -1.108182E+04 -9.836482E+05 -1.530603E+04  1.122975E+04
       115  24 -2.533784E+06 -4.012430E+05 -2.080673E+04 -1.006031E+06 -2.267231E+04  1.391958E+04
       115  25 -2.781018E+06 -4.908901E+05 -6.981676E+04 -1.073862E+06 -4.661210E+03  9.615194E+03
       115  26 -2.896008E+06 -5.067360E+05 -9.875050E+04 -1.077107E+06 -1.215774E+04  1.240866E+04
       115  27 -2.972486E+06 -5.658631E+05 -1.326895E+05 -1.126058E+06 -1.960679E+04  1.506856E+04
       116   1 -1.994764E+06 -1.993773E+05  1.106096E+05 -8.652414E+05  3.109523E+04 -1.416854E+04
       116   2 -1.921867E+06 -1.383160E+05  1.128658E+05 -8.102926E+05  5.640579E+04 -9.880120E+03
       116   3 -1.826013E+06 -1.501974E+05  8.826309E+04 -7.913665E+05  8.113482E+04 -4.017074E+03
       116   4 -2.535814E+06 -3.972368E+05 -2.700464E+04 -1.007882E+06  2.761110E+04 -1.547511E+04
       116   5 -2.549374E+06 -3.758798E+05 -4.791009E+04 -9.841775E+05  5.391871E+04 -1.081537E+04
       116   6 -2.540199E+06 -4.276922E+05 -9.648911E+04 -9.965009E+05  7.964085E+04 -4.582246E+03
       116   7 -3.076578E+06 -5.950811E+05 -1.646424E+05 -1.150411E+06  2.413030E+04 -1.678050E+04
       116   8 -3.176495E+06 -6.134158E+05 -2.087180E+05 -1.157901E+06  5.143437E+04 -1.174956E+04
       116   9 -3.253883E+06 -7.051430E+05 -2.812831E+05 -1.201416E+06  7.814873E+04 -5.146668E+03
       116  10 -1.994765E+06 -1.993778E+05  1.106074E+05 -8.652410E+05  3.930249E-09  1.334643E-09
       116  11 -1.921870E+06 -1.383169E+05  1.128596E+05 -8.102922E+05  3.602550E-10 -5.533341E-10
       116  12 -1.826020E+06 -1.501992E+05  8.825066E+04 -7.913663E+05 -4.596932E-10 -4.783100E-10
       116  13 -2.535815E+06 -3.972373E+05 -2.700652E+04 -1.007882E+06  1.789106E-09  1.186019E-09
       116  14 -2.549377E+06 -3.758807E+05 -4.791579E+04 -9.841770E+05 -2.714080E-10 -1.261251E-10
       116  15 -2.540206E+06 -4.276939E+05 -9.650111E+04 -9.965006E+05 -1.088608E-09 -2.633576E-10
       116  16 -3.076578E+06 -5.950816E+05 -1.646440E+05 -1.150411E+06  4.892442E-10  3.861647E-10
       116  17 -3.176498E+06 -6.134166E+05 -2.087232E+05 -1.157901E+06 -1.539357E-09 -2.676850E-10
       116  18 -3.253889E+06 -7.051447E+05 -2.812947E+05 -1.201416E+06  1.497037E-10 -3.112270E-10
       116  19 -1.994764E+06 -1.993773E+05  1.106096E+05 -8.652414E+05 -3.109523E+04  1.416854E+04
       116  20 -1.921867E+06 -1.383160E+05  1.128658E+05 -8.102926E+05 -5.640579E+04  9.880120E+03
       116  21 -1.826013E+06 -1.501974E+05  8.826309E+04 -7.913665E+05 -8.113482E+04  4.017074E+03
       116  22 -2.535814E+06 -3.972368E+05 -2.700464E+04 -1.007882E+06 -2.761110E+04  1.547511E+04
       116  23 -2.549374E+06 -3.758798E+05 -4.791009E+04 -9.841775E+05 -5.391871E+04  1.081537E+04
       116  24 -2.540199E+06 -4.276922E+05 -9.648911E+04 -9.965009E+05 -7.964085E+04  4.582246E+03
       116  25 -3.076578E+06 -5.950811E+05 -1.646424E+05 -1.150411E+06 -2.413030E+04  1.678050E+04
       116  26 -3.176495E+06 -6.134158E+05 -2.087180E+05 -1.157901E+06 -5.143437E+04  1.174956E+04
       116  27 -3.253883E+06 -7.051430E+05 -2.812831E+05 -1.201416E+06 -7.814873E+04  5.146668E+03
       117   1 -1.704530E+06 -1.144749E+05  8.775242E+04 -8.416230E+05  1.077328E+05 -8.830061E+02
       117   2 -1.648717E+06  2.370403E+04  2.601452E+04 -7.052771E+05  2.016851E+05  3.291283E+04
       117   3 -1.719823E+06 -2.730336E+05 -2.148051E+05 -5.050219E+05  2.855669E+05  9.351947E+04
       117   4 -2.556332E+06 -3.825825E+05 -1.199076E+05 -1.021770E+06  9.806796E+04 -4.507315E+03
       117   5 -2.516901E+06 -3.439324E+05 -2.041994E+05 -9.858444E+05  2.092885E+05  3.575207E+04
       117   6 -2.608077E+06 -7.440362E+05 -4.814992E+05 -8.859610E+05  3.104241E+05  1.028031E+05
       117   7 -3.407427E+06 -6.506916E+05 -3.276208E+05 -1.201717E+06  8.841760E+04 -8.128203E+03
       117   8 -3.384339E+06 -7.114597E+05 -4.344778E+05 -1.266033E+06  2.168801E+05  3.858554E+04
       117   9 -3.495507E+06 -1.214726E+06 -7.482636E+05 -1.266326E+06  3.352417E+05  1.120581E+05
       117  10 -1.704542E+06 -1.144780E+05  8.773055E+04 -8.416229E+05  7.576015E-10 -6.749466E-11
       117  11 -1.648761E+06  2.369190E+04  2.593581E+04 -7.052825E+05  6.497178E-11 -1.406935E-09
       117  12 -1.719914E+06 -2.730650E+05 -2.149753E+05 -5.050435E+05 -1.003599E-09 -1.635157E-09
       117  13 -2.556342E+06 -3.825851E+05 -1.199258E+05 -1.021770E+06 -1.774392E-10 -6.457698E-10
       117  14 -2.516949E+06 -3.439456E+05 -2.042845E+05 -9.858504E+05  9.043183E-11 -4.253428E-10
       117  15 -2.608184E+06 -7.440736E+05 -4.817011E+05 -8.859868E+05  1.063668E-09 -2.034245E-09
       117  16 -3.407436E+06 -6.506938E+05 -3.276356E+05 -1.201717E+06  3.157599E-10 -8.496526E-10
       117  17 -3.384390E+06 -7.114741E+05 -4.345696E+05 -1.266040E+06 -2.737598E-10 -4.297084E-10
       117  18 -3.495632E+06 -1.214770E+06 -7.484999E+05 -1.266356E+06  1.332235E-09 -3.789113E-11
       117  19 -1.704530E+06 -1.144749E+05  8.775242E+04 -8.416230E+05 -1.077328E+05  8.830061E+02
       117  20 -1.648717E+06  2.370403E+04  2.601452E+04 -7.052771E+05 -2.016851E+05 -3.291283E+04
       117  21 -1.719823E+06 -2.730336E+05 -2.148051E+05 -5.050219E+05 -2.855669E+05 -9.351947E+04
       117  22 -2.556332E+06 -3.825825E+05 -1.199076E+05 -1.021770E+06 -9.806796E+04  4.507315E+03
       117  23 -2.516901E+06 -3.439324E+05 -2.041994E+05 -9.858444E+05 -2.092885E+05 -3.575207E+04
       117  24 -2.608077E+06 -7.440362E+05 -4.814992E+05 -8.859610E+05 -3.104241E+05 -1.028031E+05
       117  25 -3.407427E+06 -6.506916E+05 -3.276208E+05 -1.201717E+06 -8.841760E+04  8.128203E+03
       117  26 -3.384339E+06 -7.114597E+05 -4.344778E+05 -1.266033E+06 -2.168801E+05 -3.858554E+04
       117  27 -3.495507E+06 -1.214726E+06 -7.482636E+05 -1.266326E+06 -3.352417E+05 -1.120581E+05
       118   1 -4.610931E+05  1.336692E+04  5.043070E+04  3.342850E+04  1.117662E+05  6.536052E+03
       118   2 -4.379763E+05 -1.342088E+05 -3.363377E+04  5.031606E+03  7.745534E+04  1.978500E+04
       118   3 -3.696563E+05 -1.196954E+05 -5.478172E+04 -4.767125E+04  4.315263E+04  1.945700E+04
       118   4  8.302763E+04  1.487005E+05  1.835490E+05 -2.579116E+04  1.258064E+05  6.537386E+03
       118   5  5.963130E+04 -1.159769E+04  8.184685E+04 -1.357879E+04  8.201494E+04  1.978464E+04
       118   6  8.304061E+04 -8.237563E+03  4.960672E+04 -2.567020E+04  3.823498E+04  1.945532E+04
       118   7  6.274263E+05  2.840256E+05  3.166483E+05 -8.506292E+04  1.398589E+05  6.536043E+03
       118   8  5.574685E+05  1.109973E+05  1.973111E+05 -3.220426E+04  8.657815E+04  1.978402E+04
       118   9  5.359282E+05  1.032078E+05  1.539819E+05 -3.653002E+03  3.331376E+04  1.945329E+04
       118  10 -4.611065E+05  1.336352E+04  5.040713E+04  3.342791E+04 -5.945056E-10  1.913992E-10
       118  11 -4.379829E+05 -1.342108E+05 -3.364579E+04  5.030372E+03  3.288807E-10 -4.949018E-10
       118  12 -3.696584E+05 -1.196963E+05 -5.478594E+04 -4.767193E+04 -1.512908E-09  1.829626E-10
       118  13  8.301063E+04  1.486962E+05  1.835192E+05 -2.579182E+04 -1.068726E-09  7.020484E-11
       118  14  5.962398E+04 -1.159992E+04  8.183348E+04 -1.358010E+04  6.106992E-10 -1.133472E-09
       118  15  8.303894E+04 -8.238362E+03  4.960326E+04 -2.567080E+04 -5.373293E-10 -3.612607E-10
       118  16  6.274053E+05  2.840203E+05  3.166115E+05 -8.506365E+04  1.793666E-09 -8.427244E-11
       118  17  5.574603E+05  1.109948E+05  1.972963E+05 -3.220564E+04 -4.692898E-10 -3.971666E-10
       118  18  5.359269E+05  1.032071E+05  1.539791E+05 -3.653523E+03 -5.089903E-10 -1.143086E-09
       118  19 -4.610931E+05  1.336692E+04  5.043070E+04  3.342850E+04 -1.117662E+05 -6.536052E+03
       118  20 -4.379763E+05 -1.342088E+05 -3.363377E+04  5.031606E+03 -7.745534E+04 -1.978500E+04
       118  21 -3.696563E+05 -1.196954E+05 -5.478172E+04 -4.767125E+04 -4.315263E+04 -1.945700E+04
       118  22  8.302763E+04  1.487005E+05  1.835490E+05 -2.579116E+04 -1.258064E+05 -6.537386E+03
       118  23  5.963130E+04 -1.159769E+04  8.184685E+04 -1.357879E+04 -8.201494E+04 -1.978464E+04
       118  24  8.304061E+04 -8.237563E+03  4.960672E+04 -2.567020E+04 -3.823498E+04 -1.945532E+04
       118  25  6.274263E+05  2.840256E+05  3.166483E+05 -8.506292E+04 -1.398589E+05 -6.536043E+03
       118  26  5.574685E+05  1.109973E+05  1.973111E+05 -3.220426E+04 -8.657815E+04 -1.978402E+04
       118  27  5.359282E+05  1.032078E+05  1.539819E+05 -3.653002E+03 -3.331376E+04 -1.945329E+04
       119   1 -3.340874E+05 -8.893427E+04 -5.447669E+04 -2.200410E+04  3.159231E+04  1.653307E+04
       119   2 -2.909505E+05 -9.028922E+04 -6.269263E+04 -1.255340E+04  2.142083E+04  1.511898E+04
       119   3 -2.431624E+05 -7.871991E+04 -6.103193E+04 -2.771679E+04  1.124791E+04  1.301347E+04
       119   4  7.369891E+04  1.152795E+04  3.999749E+04 -2.577392E+04  3.086501E+04  1.653187E+04
       119   5  7.133787E+04 -1.074713E+03  2.104210E+04 -1.346586E+04  2.020605E+04  1.511810E+04
       119   6  7.370781E+04 -6.728190E+02  1.229723E+04 -2.577083E+04  9.546392E+03  1.301300E+04
       119   7  4.816389E+05  1.119785E+05  1.344605E+05 -2.954624E+04  3.013723E+04  1.653069E+04
       119   8  4.337476E+05  8.813059E+04  1.047681E+05 -1.437886E+04  1.899057E+04  1.511723E+04
       119   9  3.906709E+05  7.736723E+04  8.561969E+04 -2.382387E+04  7.844008E+03  1.301252E+04
       119  10 -3.340886E+05 -8.893483E+04 -5.447908E+04 -2.200453E+04 -1.128518E-09  5.336460E-10
       119  11 -2.909510E+05 -9.028959E+04 -6.269392E+04 -1.255366E+04 -2.296622E-09  1.066320E-09
       119  12 -2.431626E+05 -7.872012E+04 -6.103249E+04 -2.771691E+04  6.450197E-10 -8.719112E-10
       119  13  7.369781E+04  1.152740E+04  3.999519E+04 -2.577433E+04 -1.077045E-09  2.749361E-11
       119  14  7.133737E+04 -1.075068E+03  2.104091E+04 -1.346610E+04 -1.586546E-09  7.313963E-10
       119  15  7.370767E+04 -6.730253E+02  1.229674E+04 -2.577093E+04 -1.506298E-10 -5.881535E-10
       119  16  4.816379E+05  1.119780E+05  1.344583E+05 -2.954664E+04  7.412501E-10 -3.953727E-10
       119  17  4.337471E+05  8.813025E+04  1.047670E+05 -1.437909E+04  5.298423E-10  3.480305E-10
       119  18  3.906708E+05  7.736703E+04  8.561926E+04 -2.382395E+04 -3.996403E-11 -2.426895E-10
       119  19 -3.340874E+05 -8.893427E+04 -5.447669E+04 -2.200410E+04 -3.159231E+04 -1.653307E+04
       119  20 -2.909505E+05 -9.028922E+04 -6.269263E+04 -1.255340E+04 -2.142083E+04 -1.511898E+04
       119  21 -2.431624E+05 -7.871991E+04 -6.103193E+04 -2.771679E+04 -1.124791E+04 -1.301347E+04
       119  22  7.369891E+04  1.152795E+04  3.999749E+04 -2.577392E+04 -3.086501E+04 -1.653187E+04
       119  23  7.133787E+04 -1.074713E+03  2.104210E+04 -1.346586E+04 -2.020605E+04 -1.511810E+04
       119  24  7.370781E+04 -6.728190E+02  1.229723E+04 -2.577083E+04 -9.546392E+03 -1.301300E+04
       119  25  4.816389E+05  1.119785E+05  1.344605E+05 -2.954624E+04 -3.013723E+04 -1.653069E+04
       119  26  4.337476E+05  8.813059E+04  1.047681E+05 -1.437886E+04 -1.899057E+04 -1.511723E+04
       119  27  3.906709E+05  7.736723E+04  8.561969E+04 -2.382387E+04 -7.844008E+03 -1.301252E+04
       120   1 -1.993620E+05 -6.614855E+04 -5.325975E+04 -2.566934E+04  9.114683E+03  1.164959E+04
       120   2 -1.542716E+05 -5.595496E+04 -4.707950E+04 -1.349941E+04  6.494847E+03  9.491914E+03
       120   3 -1.085541E+05 -4.472595E+04 -3.892885E+04 -2.594026E+04  3.873985E+03  7.299692E+03
       120   4  7.280264E+04  8.424989E+02  9.507822E+03 -2.577098E+04  7.627382E+03  1.164931E+04
       120   5  7.249111E+04 -1.213806E+02  5.312770E+03 -1.346593E+04  4.982387E+03  9.491883E+03
       120   6  7.280809E+04 -4.584249E+01  3.104776E+03 -2.577110E+04  2.336554E+03  7.299926E+03
       120   7  3.450358E+05  6.782836E+04  7.227048E+04 -2.587267E+04  6.139433E+03  1.164903E+04
       120   8  2.993014E+05  5.570859E+04  5.770162E+04 -1.343244E+04  3.469378E+03  9.491852E+03
       120   9  2.542007E+05  4.463195E+04  4.513621E+04 -2.560188E+04  7.986767E+02  7.300158E+03
       120  10 -1.993622E+05 -6.614871E+04 -5.326016E+04 -2.566942E+04 -2.939354E-09 -1.062212E-09
       120  11 -1.542717E+05 -5.595507E+04 -4.707975E+04 -1.349946E+04 -2.517227E-09  3.219794E-10
       120  12 -1.085541E+05 -4.472601E+04 -3.892898E+04 -2.594028E+04 -3.093238E-09  2.413937E-10
       120  13  7.280254E+04  8.423376E+02  9.507458E+03 -2.577105E+04  5.355083E-13 -6.968293E-10
       120  14  7.249106E+04 -1.214840E+02  5.312554E+03 -1.346597E+04 -5.376247E-10  4.645384E-10
       120  15  7.280807E+04 -4.590118E+01  3.104665E+03 -2.577111E+04 -1.879477E-09  3.348864E-10
       120  16  3.450358E+05  6.782820E+04  7.227016E+04 -2.587272E+04  1.301972E-09 -3.412326E-10
       120  17  2.993014E+05  5.570849E+04  5.770143E+04 -1.343246E+04  6.311612E-10  7.381378E-10
       120  18  2.542007E+05  4.463189E+04  4.513611E+04 -2.560189E+04  4.042725E-10  7.933163E-10
       120  19 -1.993620E+05 -6.614855E+04 -5.325975E+04 -2.566934E+04 -9.114683E+03 -1.164959E+04
       120  20 -1.542716E+05 -5.595496E+04 -4.707950E+04 -1.349941E+04 -6.494847E+03 -9.491914E+03
       120  21 -1.085541E+05 -4.472595E+04 -3.892885E+04 -2.594026E+04 -3.873985E+03 -7.299692E+03
       120  22  7.280264E+04  8.424989E+02  9.507822E+03 -2.577098E+04 -7.627382E+03 -1.164931E+04
       120  23  7.249111E+04 -1.213806E+02  5.312770E+03 -1.346593E+04 -4.982387E+03 -9.491883E+03
       120  24  7.280809E+04 -4.584249E+01  3.104776E+03 -2.577110E+04 -2.336554E+03 -7.299926E+03
       120  25  3.450358E+05  6.782836E+04  7.227048E+04 -2.587267E+04 -6.139433E+03 -1.164903E+04
       120  26  2.993014E+05  5.570859E+04  5.770162E+04 -1.343244E+04 -3.469378E+03 -9.491852E+03
       120  27  2.542007E+05  4.463195E+04  4.513621E+04 -2.560188E+04 -7.986767E+02 -7.300158E+03
       121   1 -6.400491E+04 -3.356935E+04 -2.905298E+04 -2.578342E+04  3.367984E+03  6.016973E+03
       121   2 -1.867854E+04 -2.249480E+04 -1.965328E+04 -1.348307E+04  2.653797E+03  3.822903E+03
       121   3  2.675440E+04 -1.132444E+04 -9.767601E+03 -2.577639E+04  1.939231E+03  1.627390E+03
       121   4  7.269525E+04  6.034441E+01  2.395176E+03 -2.576733E+04  1.841613E+03  6.017319E+03
       121   5  7.264394E+04 -1.131165E+01  1.444085E+03 -1.347061E+04  1.126227E+03  3.823348E+03
       121   6  7.269742E+04  1.314140E+01  9.797955E+02 -2.576735E+04  4.105156E+02  1.627942E+03
       121   7  2.094127E+05  3.368873E+04  3.384210E+04 -2.575123E+04  3.149087E+02  6.017665E+03
       121   8  1.639741E+05  2.247159E+04  2.254090E+04 -1.345816E+04 -4.015647E+02  3.823793E+03
       121   9  1.186424E+05  1.135058E+04  1.172706E+04 -2.575832E+04 -1.118313E+03  1.628494E+03
       121  10 -6.400493E+04 -3.356939E+04 -2.905307E+04 -2.578344E+04 -1.275970E-09 -1.132391E-11
       121  11 -1.867855E+04 -2.249481E+04 -1.965332E+04 -1.348307E+04 -1.676972E-10  3.469763E-10
       121  12  2.675440E+04 -1.132445E+04 -9.767613E+03 -2.577639E+04 -1.347517E-10 -2.359122E-10
       121  13  7.269523E+04  6.030462E+01  2.395102E+03 -2.576734E+04 -2.177512E-09  2.085586E-10
       121  14  7.264393E+04 -1.132769E+01  1.444055E+03 -1.347062E+04 -1.102625E-09 -5.844435E-10
       121  15  7.269742E+04  1.313851E+01  9.797902E+02 -2.576735E+04  2.831473E-10 -5.701346E-10
       121  16  2.094127E+05  3.368869E+04  3.384204E+04 -2.575123E+04 -8.543800E-10 -3.592207E-10
       121  17  1.639741E+05  2.247157E+04  2.254088E+04 -1.345816E+04  2.220204E-09 -8.221954E-10
       121  18  1.186424E+05  1.135057E+04  1.172705E+04 -2.575832E+04  4.533458E-10 -6.481008E-10
       121  19 -6.400491E+04 -3.356935E+04 -2.905298E+04 -2.578342E+04 -3.367984E+03 -6.016973E+03
       121  20 -1.867854E+04 -2.249480E+04 -1.965328E+04 -1.348307E+04 -2.653797E+03 -3.822903E+03
       121  21  2.675440E+04 -1.132444E+04 -9.767601E+03 -2.577639E+04 -1.939231E+03 -1.627390E+03
       121  22  7.269525E+04  6.034441E+01  2.395176E+03 -2.576733E+04 -1.841613E+03 -6.017319E+03
       121  23  7.264394E+04 -1.131165E+01  1.444085E+03 -1.347061E+04 -1.126227E+03 -3.823348E+03
       121  24  7.269742E+04  1.314140E+01  9.797955E+02 -2.576735E+04 -4.105156E+02 -1.627942E+03
       121  25  2.094127E+05  3.368873E+04  3.384210E+04 -2.575123E+04 -3.149087E+02 -6.017665E+03
       121  26  1.639741E+05  2.247159E+04  2.254090E+04 -1.345816E+04  4.015647E+02 -3.823793E+03
       121  27  1.186424E+05  1.135058E+04  1.172706E+04 -2.575832E+04  1.118313E+03 -1.628494E+03
       122   1  7.139264E+04 -2.753465E+02  7.025848E+02 -2.577312E+04  1.771452E+03  3.491024E+02
       122   2  1.167467E+05  1.085213E+04  1.102080E+04 -1.347867E+04  1.355695E+03 -1.846177E+03
       122   3  1.621509E+05  2.203013E+04  2.161780E+04 -2.577547E+04  9.400714E+02 -4.040040E+03
       122   4  7.268551E+04  1.614100E+01  8.672831E+02 -2.576689E+04  2.427509E+02  3.496718E+02
       122   5  7.266057E+04 -9.386561E-01  8.368020E+02 -1.347120E+04 -1.720452E+02 -1.845661E+03
       122   6  7.268447E+04  3.264305E+01  1.084723E+03 -2.576688E+04 -5.866774E+02 -4.039571E+03
       122   7  7.397839E+04  3.076297E+02  1.031990E+03 -2.576065E+04 -1.285954E+03  3.502411E+02
       122   8  2.857628E+04 -1.085414E+04 -9.347317E+03 -1.346373E+04 -1.699678E+03 -1.845146E+03
       122   9 -1.677457E+04 -2.196540E+04 -1.944887E+04 -2.575828E+04 -2.113208E+03 -4.039101E+03
       122  10  7.139264E+04 -2.753475E+02  7.025787E+02 -2.577312E+04  2.727807E-10 -1.892803E-11
       122  11  1.167467E+05  1.085213E+04  1.102079E+04 -1.347866E+04  7.864993E-11  8.399716E-10
       122  12  1.621509E+05  2.203011E+04  2.161777E+04 -2.577547E+04  2.523547E-09 -3.517634E-10
       122  13  7.268551E+04  1.614086E+01  8.672828E+02 -2.576689E+04  1.050884E-09  4.586708E-10
       122  14  7.266057E+04 -9.423221E-01  8.367956E+02 -1.347120E+04 -6.044998E-10  9.525842E-10
       122  15  7.268446E+04  3.262543E+01  1.084692E+03 -2.576688E+04 -6.356050E-10 -7.000722E-10
       122  16  7.397839E+04  3.076291E+02  1.031987E+03 -2.576065E+04  2.180531E-10  1.765212E-10
       122  17  2.857628E+04 -1.085415E+04 -9.347328E+03 -1.346373E+04  1.172711E-09  5.405821E-10
       122  18 -1.677458E+04 -2.196542E+04 -1.944891E+04 -2.575829E+04 -3.112645E-09 -2.144139E-10
       122  19  7.139264E+04 -2.753465E+02  7.025848E+02 -2.577312E+04 -1.771452E+03 -3.491024E+02
       122  20  1.167467E+05  1.085213E+04  1.102080E+04 -1.347867E+04 -1.355695E+03  1.846177E+03
       122  21  1.621509E+05  2.203013E+04  2.161780E+04 -2.577547E+04 -9.400714E+02  4.040040E+03
       122  22  7.268551E+04  1.614100E+01  8.672831E+02 -2.576689E+04 -2.427509E+02 -3.496718E+02
       122  23  7.266057E+04 -9.386561E-01  8.368020E+02 -1.347120E+04  1.720452E+02  1.845661E+03
       122  24  7.268447E+04  3.264305E+01  1.084723E+03 -2.576688E+04  5.866774E+02  4.039571E+03
       122  25  7.397839E+04  3.076297E+02  1.031990E+03 -2.576065E+04  1.285954E+03 -3.502411E+02
       122  26  2.857628E+04 -1.085414E+04 -9.347317E+03 -1.346373E+04  1.699678E+03  1.845146E+03
       122  27 -1.677457E+04 -2.196540E+04 -1.944887E+04 -2.575828E+04  2.113208E+03  4.039101E+03
       123   1  2.068572E+05  3.303661E+04  3.243619E+04 -2.572530E+04  7.333149E+02 -5.321985E+03
       123   2  2.521350E+05  4.414857E+04  4.358963E+04 -1.347747E+04 -3.446830E+02 -7.513641E+03
       123   3  2.976664E+05  5.567232E+04  5.554889E+04 -2.582822E+04 -1.422132E+03 -9.673392E+03
       123   4  7.272608E+04 -8.404729E+00  1.320299E+03 -2.576860E+04 -8.036925E+02 -5.321594E+03
       123   5  7.260031E+04 -4.566075E+01  2.119169E+03 -1.346906E+04 -1.859264E+03 -7.513462E+03
       123   6  7.272181E+04  3.250364E+02  3.708404E+03 -2.576853E+04 -2.914208E+03 -9.673412E+03
       123   7 -6.138842E+04 -3.305469E+04 -2.979679E+04 -2.581189E+04 -2.340370E+03 -5.321203E+03
       123   8 -1.069045E+05 -4.424215E+04 -3.935343E+04 -1.346065E+04 -3.373410E+03 -7.513283E+03
       123   9 -1.521760E+05 -5.502578E+04 -4.813543E+04 -2.570885E+04 -4.405748E+03 -9.673433E+03
       123  10  2.068572E+05  3.303658E+04  3.243614E+04 -2.572529E+04  7.472938E-10 -4.394598E-10
       123  11  2.521349E+05  4.414851E+04  4.358952E+04 -1.347747E+04  1.106853E-09 -7.930263E-11
       123  12  2.976663E+05  5.567221E+04  5.554871E+04 -2.582823E+04  6.679503E-12 -3.313303E-10
       123  13  7.272607E+04 -8.435314E+00  1.320245E+03 -2.576860E+04  2.910578E-11 -9.381414E-10
       123  14  7.260029E+04 -4.572230E+01  2.119056E+03 -1.346907E+04  5.534454E-10 -5.172392E-10
       123  15  7.272178E+04  3.249337E+02  3.708212E+03 -2.576855E+04  6.627309E-10  3.799407E-10
       123  16 -6.138843E+04 -3.305472E+04 -2.979686E+04 -2.581190E+04 -1.366557E-09 -2.842018E-10
       123  17 -1.069046E+05 -4.424221E+04 -3.935356E+04 -1.346067E+04 -1.153402E-09 -5.689282E-10
       123  18 -1.521760E+05 -5.502589E+04 -4.813565E+04 -2.570889E+04  3.303313E-09  8.702614E-10
       123  19  2.068572E+05  3.303661E+04  3.243619E+04 -2.572530E+04 -7.333149E+02  5.321985E+03
       123  20  2.521350E+05  4.414857E+04  4.358963E+04 -1.347747E+04  3.446830E+02  7.513641E+03
       123  21  2.976664E+05  5.567232E+04  5.554889E+04 -2.582822E+04  1.422132E+03  9.673392E+03
       123  22  7.272608E+04 -8.404729E+00  1.320299E+03 -2.576860E+04  8.036925E+02  5.321594E+03
       123  23  7.260031E+04 -4.566075E+01  2.119169E+03 -1.346906E+04  1.859264E+03  7.513462E+03
       123  24  7.272181E+04  3.250364E+02  3.708404E+03 -2.576853E+04  2.914208E+03  9.673412E+03
       123  25 -6.138842E+04 -3.305469E+04 -2.979679E+04 -2.581189E+04  2.340370E+03  5.321203E+03
       123  26 -1.069045E+05 -4.424215E+04 -3.935343E+04 -1.346065E+04  3.373410E+03  7.513283E+03
       123  27 -1.521760E+05 -5.502578E+04 -4.813543E+04 -2.570885E+04  4.405748E+03  9.673433E+03
       124   1  3.427284E+05  6.613821E+04  6.717584E+04 -2.503933E+04 -1.972501E+03 -1.102902E+04
       124   2  3.872207E+05  7.713290E+04  8.092826E+04 -1.382389E+04 -6.537076E+03 -1.313841E+04
       124   3  4.336473E+05  9.322435E+04  9.893869E+04 -2.721243E+04 -1.110106E+04 -1.461294E+04
       124   4  7.307396E+04 -2.592705E+02  4.776485E+03 -2.576969E+04 -3.661371E+03 -1.102921E+04
       124   5  7.214184E+04 -4.248063E+02  8.133377E+03 -1.346762E+04 -7.782015E+03 -1.313895E+04
       124   6  7.306631E+04  4.431044E+03  1.544176E+04 -2.577022E+04 -1.190174E+04 -1.461370E+04
       124   7 -1.965133E+05 -6.666186E+04 -5.762772E+04 -2.649974E+04 -5.349514E+03 -1.102938E+04
       124   8 -2.428453E+05 -7.798948E+04 -6.466812E+04 -1.311153E+04 -9.026326E+03 -1.313949E+04
       124   9 -2.873946E+05 -8.437140E+04 -6.806387E+04 -2.432886E+04 -1.270195E+04 -1.461447E+04
       124  10  3.427283E+05  6.613808E+04  6.717560E+04 -2.503935E+04  1.141508E-09 -4.601205E-10
       124  11  3.872206E+05  7.713270E+04  8.092785E+04 -1.382396E+04  6.468757E-10  2.396464E-10
       124  12  4.336471E+05  9.322409E+04  9.893806E+04 -2.721257E+04 -1.286204E-09  6.321564E-10
       124  13  7.307391E+04 -2.594047E+02  4.776231E+03 -2.576973E+04  2.153498E-09  1.579645E-10
       124  14  7.214173E+04 -4.250080E+02  8.132939E+03 -1.346770E+04 -2.666420E-09 -8.605670E-11
       124  15  7.306610E+04  4.430776E+03  1.544109E+04 -2.577036E+04  1.340576E-09  3.868982E-10
       124  16 -1.965134E+05 -6.666199E+04 -5.762800E+04 -2.649978E+04 -4.441154E-11  7.020368E-10
       124  17 -2.428454E+05 -7.798968E+04 -6.466860E+04 -1.311163E+04  6.233706E-10 -5.453374E-10
       124  18 -2.873949E+05 -8.437167E+04 -6.806458E+04 -2.432901E+04  4.068478E-10  3.817982E-10
       124  19  3.427284E+05  6.613821E+04  6.717584E+04 -2.503933E+04  1.972501E+03  1.102902E+04
       124  20  3.872207E+05  7.713290E+04  8.092826E+04 -1.382389E+04  6.537076E+03  1.313841E+04
       124  21  4.336473E+05  9.322435E+04  9.893869E+04 -2.721243E+04  1.110106E+04  1.461294E+04
       124  22  7.307396E+04 -2.592705E+02  4.776485E+03 -2.576969E+04  3.661371E+03  1.102921E+04
       124  23  7.214184E+04 -4.248063E+02  8.133377E+03 -1.346762E+04  7.782015E+03  1.313895E+04
       124  24  7.306631E+04  4.431044E+03  1.544176E+04 -2.577022E+04  1.190174E+04  1.461370E+04
       124  25 -1.965133E+05 -6.666186E+04 -5.762772E+04 -2.649974E+04  5.349514E+03  1.102938E+04
       124  26 -2.428453E+05 -7.798948E+04 -6.466812E+04 -1.311153E+04  9.026326E+03  1.313949E+04
       124  27 -2.873946E+05 -8.437140E+04 -6.806387E+04 -2.432886E+04  1.270195E+04  1.461447E+04
       125   1  4.821932E+05  9.657865E+04  1.126141E+05 -1.715721E+04 -1.010096E+04 -1.739391E+04
       125   2  5.180422E+05  1.064405E+05  1.360561E+05 -2.069020E+04 -3.567256E+04 -1.785847E+04
       125   3  5.735275E+05  1.809489E+05  1.923298E+05 -4.847697E+04 -6.125427E+04 -5.873693E+03
       125   4  7.667730E+04 -3.197260E+03  1.914858E+04 -2.568244E+04 -1.474701E+04 -1.739589E+04
       125   5  6.760010E+04 -4.505376E+03  3.157217E+04 -1.357310E+04 -3.163747E+04 -1.785779E+04
       125   6  7.666524E+04  5.735108E+04  7.081524E+04 -2.571737E+04 -4.853595E+04 -5.867634E+03
       125   7 -3.286864E+05 -1.029844E+05 -7.432774E+04 -3.420206E+04 -1.939005E+04 -1.739774E+04
       125   8 -3.826546E+05 -1.154654E+05 -7.292534E+04 -6.461216E+03 -2.760527E+04 -1.785702E+04
       125   9 -4.199707E+05 -6.626290E+04 -5.071645E+04 -2.976047E+03 -3.582777E+04 -5.860642E+03
       125  10  4.821930E+05  9.657830E+04  1.126133E+05 -1.715735E+04  8.485156E-10  5.225814E-10
       125  11  5.180408E+05  1.064398E+05  1.360531E+05 -2.069071E+04 -1.007818E-10  1.865690E-10
       125  12  5.735235E+05  1.809478E+05  1.923227E+05 -4.847726E+04 -6.622374E-10  3.347413E-10
       125  13  7.667699E+04 -3.197643E+03  1.914760E+04 -2.568264E+04 -1.127411E-09  2.646033E-11
       125  14  6.759894E+04 -4.505987E+03  3.156969E+04 -1.357355E+04  6.114811E-10  1.692267E-10
       125  15  7.666270E+04  5.735041E+04  7.081075E+04 -2.571760E+04  2.427729E-09 -2.840355E-10
       125  16 -3.286869E+05 -1.029848E+05 -7.432901E+04 -3.420233E+04 -8.849858E-10  6.051169E-10
       125  17 -3.826555E+05 -1.154659E+05 -7.292737E+04 -6.461613E+03  2.147702E-09 -2.573808E-10
       125  18 -4.199721E+05 -6.626328E+04 -5.071892E+04 -2.976217E+03  8.784882E-10  5.256579E-10
       125  19  4.821932E+05  9.657865E+04  1.126141E+05 -1.715721E+04  1.010096E+04  1.739391E+04
       125  20  5.180422E+05  1.064405E+05  1.360561E+05 -2.069020E+04  3.567256E+04  1.785847E+04
       125  21  5.735275E+05  1.809489E+05  1.923298E+05 -4.847697E+04  6.125427E+04  5.873693E+03
       125  22  7.667730E+04 -3.197260E+03  1.914858E+04 -2.568244E+04  1.474701E+04  1.739589E+04
       125  23  6.760010E+04 -4.505376E+03  3.157217E+04 -1.357310E+04  3.163747E+04  1.785779E+04
       125  24  7.666524E+04  5.735108E+04  7.081524E+04 -2.571737E+04  4.853595E+04  5.867634E+03
       125  25 -3.286864E+05 -1.029844E+05 -7.432774E+04 -3.420206E+04  1.939005E+04  1.739774E+04
       125  26 -3.826546E+05 -1.154654E+05 -7.292534E+04 -6.461216E+03  2.760527E+04  1.785702E+04
       125  27 -4.199707E+05 -6.626290E+04 -5.071645E+04 -2.976047E+03  3.582777E+04  5.860642E+03
       126   1  5.314298E+05  1.368533E+06  5.279191E+05 -2.712422E+05  2.173521E+04  6.532135E+04
       126   2  3.878385E+05  8.987802E+05  3.783953E+05 -1.411982E+05  6.170294E+04  2.132880E+04
       126   3  2.761048E+05  4.431932E+05  2.655071E+05 -2.594543E+05  4.724328E+04 -2.273303E+04
       126   4  2.195242E+04 -6.781443E+05  2.638903E+04 -2.600552E+05  2.181957E+04  1.851008E+04
       126   5 -1.622912E+03 -6.816697E+05  1.133859E+04 -1.359085E+05  6.173391E+04  1.249479E+04
       126   6  1.303292E+02 -6.777749E+05  6.621398E+03 -2.600965E+05  4.716011E+04  6.377218E+03
       126   7 -4.878340E+05 -2.721004E+06 -4.754399E+05 -2.489027E+05  2.190241E+04 -2.814749E+04
       126   8 -3.912604E+05 -2.259814E+06 -3.558860E+05 -1.306309E+05  6.176479E+04  3.683050E+03
       126   9 -2.759319E+05 -1.797579E+06 -2.523449E+05 -2.607363E+05  4.707679E+04  3.543532E+04
       126  10  5.314282E+05  1.368528E+06  5.279102E+05 -2.712434E+05  5.056508E-10  7.154395E-09
       126  11  3.878343E+05  8.987786E+05  3.783873E+05 -1.411992E+05 -6.482322E-10 -2.879462E-09
       126  12  2.761023E+05  4.431921E+05  2.655020E+05 -2.594535E+05 -1.044009E-10 -1.151090E-08
       126  13  2.195181E+04 -6.781448E+05  2.638749E+04 -2.600555E+05  1.528539E-09  1.295871E-09
       126  14 -1.627045E+03 -6.816709E+05  1.133113E+04 -1.359091E+05 -9.274190E-10  1.251210E-09
       126  15  1.279305E+02 -6.777755E+05  6.617142E+03 -2.600967E+05  4.299357E-10  1.610614E-09
       126  16 -4.878347E+05 -2.721005E+06 -4.754423E+05 -2.489022E+05 -1.102437E-09 -8.007185E-09
       126  17 -3.912645E+05 -2.259815E+06 -3.558932E+05 -1.306311E+05  1.178044E-09  2.149152E-09
       126  18 -2.759346E+05 -1.797581E+06 -2.523515E+05 -2.607377E+05 -2.717888E-10  9.784495E-09
       126  19  5.314298E+05  1.368533E+06  5.279191E+05 -2.712422E+05 -2.173521E+04 -6.532135E+04
       126  20  3.878385E+05  8.987802E+05  3.783953E+05 -1.411982E+05 -6.170294E+04 -2.132880E+04
       126  21  2.761048E+05  4.431932E+05  2.655071E+05 -2.594543E+05 -4.724328E+04  2.273303E+04
       126  22  2.195242E+04 -6.781443E+05  2.638903E+04 -2.600552E+05 -2.181957E+04 -1.851008E+04
       126  23 -1.622912E+03 -6.816697E+05  1.133859E+04 -1.359085E+05 -6.173391E+04 -1.249479E+04
       126  24  1.303292E+02 -6.777749E+05  6.621398E+03 -2.600965E+05 -4.716011E+04 -6.377218E+03
       126  25 -4.878340E+05 -2.721004E+06 -4.754399E+05 -2.489027E+05 -2.190241E+04  2.814749E+04
       126  26 -3.912604E+05 -2.259814E+06 -3.558860E+05 -1.306309E+05 -6.176479E+04 -3.683050E+03
       126  27 -2.759319E+05 -1.797579E+06 -2.523449E+05 -2.607363E+05 -4.707679E+04 -3.543532E+04
       127   1  1.667639E+05 -1.540424E+04  1.586381E+05 -2.625912E+05  2.731071E+04 -7.641603E+03
       127   2  5.023477E+04 -4.782527E+05  4.793000E+04 -1.358639E+05  8.395070E+03 -8.810317E+03
       127   3 -6.401325E+04 -9.419852E+05 -6.187853E+04 -2.600826E+05 -1.101718E+04 -9.986304E+03
       127   4  3.151467E+03 -6.794735E+05  4.924154E+03 -2.606605E+05  2.726997E+04  5.347931E+03
       127   5  8.008792E+02 -6.788796E+05  1.531572E+03 -1.351895E+05  8.351547E+03  4.521960E+03
       127   6  6.870149E+02 -6.794269E+05 -1.186339E+03 -2.606687E+05 -1.106427E+04  3.687889E+03
       127   7 -1.604919E+05 -1.343135E+06 -1.488187E+05 -2.587316E+05  2.722928E+04  1.832367E+04
       127   8 -4.863575E+04 -8.794689E+05 -4.486888E+04 -1.345153E+05  8.308046E+03  1.784996E+04
       127   9  6.538254E+04 -4.168043E+05  5.950196E+04 -2.612550E+05 -1.111137E+04  1.736783E+04
       127  10  1.667631E+05 -1.540451E+04  1.586366E+05 -2.625910E+05 -2.559775E-10 -1.429548E-09
       127  11  5.023468E+04 -4.782528E+05  4.792973E+04 -1.358639E+05  1.540495E-09 -3.330947E-09
       127  12 -6.401341E+04 -9.419854E+05 -6.187895E+04 -2.600827E+05 -8.451189E-10 -3.614720E-09
       127  13  3.150661E+03 -6.794737E+05  4.922703E+03 -2.606607E+05  2.782817E-09  3.220149E-09
       127  14  8.007988E+02 -6.788797E+05  1.531402E+03 -1.351896E+05  1.255955E-10  1.766973E-09
       127  15  6.868798E+02 -6.794269E+05 -1.186594E+03 -2.606687E+05 -8.557264E-10  1.974091E-09
       127  16 -1.604927E+05 -1.343135E+06 -1.488207E+05 -2.587320E+05 -2.094529E-09 -8.439259E-10
       127  17 -4.863591E+04 -8.794693E+05 -4.486961E+04 -1.345154E+05  2.179032E-09  2.273891E-09
       127  18  6.538232E+04 -4.168046E+05  5.950116E+04 -2.612548E+05  2.455742E-10  1.861337E-09
       127  19  1.667639E+05 -1.540424E+04  1.586381E+05 -2.625912E+05 -2.731071E+04  7.641603E+03
       127  20  5.023477E+04 -4.782527E+05  4.793000E+04 -1.358639E+05 -8.395070E+03  8.810317E+03
       127  21 -6.401325E+04 -9.419852E+05 -6.187853E+04 -2.600826E+05  1.101718E+04  9.986304E+03
       127  22  3.151467E+03 -6.794735E+05  4.924154E+03 -2.606605E+05 -2.726997E+04 -5.347931E+03
       127  23  8.008792E+02 -6.788796E+05  1.531572E+03 -1.351895E+05 -8.351547E+03 -4.521960E+03
       127  24  6.870149E+02 -6.794269E+05 -1.186339E+03 -2.606687E+05  1.106427E+04 -3.687889E+03
       127  25 -1.604919E+05 -1.343135E+06 -1.488187E+05 -2.587316E+05 -2.722928E+04 -1.832367E+04
       127  26 -4.863575E+04 -8.794689E+05 -4.486888E+04 -1.345153E+05 -8.308046E+03 -1.784996E+04
       127  27  6.538254E+04 -4.168043E+05  5.950196E+04 -2.612550E+05  1.111137E+04 -1.736783E+04
       128   1 -1.749708E+05 -1.399141E+06 -1.687377E+05 -2.568585E+05 -2.978485E+04 -2.279525E+04
       128   2 -2.897279E+05 -1.857191E+06 -2.799283E+05 -1.347796E+05 -4.582473E+04  1.132806E+04
       128   3 -4.202229E+05 -2.324084E+06 -4.175028E+05 -2.618088E+05 -1.695717E+04  4.553529E+04
       128   4  2.321833E+03 -6.800852E+05 -2.286781E+03 -2.602415E+05 -2.987151E+04  3.870851E+03
       128   5  1.244993E+03 -6.784253E+05 -5.553496E+03 -1.357158E+05 -4.580642E+04  6.815255E+03
       128   6 -1.011722E+04 -6.803719E+05 -1.349492E+04 -2.602711E+05 -1.687153E+04  9.869704E+03
       128   7  1.795785E+05  3.945121E+04  1.641323E+05 -2.636280E+05 -2.995839E+04  3.056766E+04
       128   8  2.921196E+05  5.016258E+05  2.687275E+05 -1.366528E+05 -4.578811E+04  2.293907E+03
       128   9  3.997880E+05  9.658093E+05  3.903188E+05 -2.587273E+05 -1.678620E+04 -2.589045E+04
       128  10 -1.749719E+05 -1.399142E+06 -1.687404E+05 -2.568590E+05 -1.920206E-09 -7.603418E-10
       128  11 -2.897302E+05 -1.857192E+06 -2.799325E+05 -1.347792E+05 -3.017222E-10 -1.980138E-09
       128  12 -4.202237E+05 -2.324086E+06 -4.175073E+05 -2.618082E+05  2.271731E-10 -1.568755E-09
       128  13  2.320871E+03 -6.800855E+05 -2.288485E+03 -2.602414E+05 -1.549227E-09  3.132439E-09
       128  14  1.242728E+03 -6.784260E+05 -5.557525E+03 -1.357156E+05 -2.570738E-10  1.264602E-09
       128  15 -1.011755E+04 -6.803721E+05 -1.349563E+04 -2.602709E+05  3.384239E-10  1.032656E-09
       128  16  1.795772E+05  3.944997E+04  1.641288E+05 -2.636272E+05  1.826864E-11 -1.440495E-09
       128  17  2.921173E+05  5.016253E+05  2.687236E+05 -1.366527E+05  1.495094E-10  9.166906E-10
       128  18  3.997875E+05  9.658086E+05  3.903170E+05 -2.587277E+05 -3.517211E-10  1.212255E-10
       128  19 -1.749708E+05 -1.399141E+06 -1.687377E+05 -2.568585E+05  2.978485E+04  2.279525E+04
       128  20 -2.897279E+05 -1.857191E+06 -2.799283E+05 -1.347796E+05  4.582473E+04 -1.132806E+04
       128  21 -4.202229E+05 -2.324084E+06 -4.175028E+05 -2.618088E+05  1.695717E+04 -4.553529E+04
       128  22  2.321833E+03 -6.800852E+05 -2.286781E+03 -2.602415E+05  2.987151E+04 -3.870851E+03
       128  23  1.244993E+03 -6.784253E+05 -5.553496E+03 -1.357158E+05  4.580642E+04 -6.815255E+03
       128  24 -1.011722E+04 -6.803719E+05 -1.349492E+04 -2.602711E+05  1.687153E+04 -9.869704E+03
       128  25  1.795785E+05  3.945121E+04  1.641323E+05 -2.636280E+05  2.995839E+04 -3.056766E+04
       128  26  2.921196E+05  5.016258E+05  2.687275E+05 -1.366528E+05  4.578811E+04 -2.293907E+03
       128  27  3.997880E+05  9.658093E+05  3.903188E+05 -2.587273E+05  1.678620E+04  2.589045E+04
       129   1 -1.904882E+06 -5.602767E+05 -3.031115E+05 -6.951687E+05 -1.349542E+05 -4.489740E+04
       129   2 -1.860609E+06 -3.587860E+05 -1.772919E+05 -6.951643E+05 -8.738435E+04 -1.503962E+04
       129   3 -1.870370E+06 -3.345250E+05 -1.345417E+05 -6.694219E+05 -3.567699E+04  3.825574E+03
       129   4 -1.536729E+06 -3.671989E+05 -1.930375E+05 -5.392779E+05 -1.246103E+05 -4.102270E+04
       129   5 -1.500137E+06 -2.068712E+05 -8.187977E+04 -5.793477E+05 -8.416405E+04 -1.383296E+04
       129   6 -1.516127E+06 -2.223066E+05 -4.809883E+04 -5.936913E+05 -3.958261E+04  2.359188E+03
       129   7 -1.168437E+06 -1.740708E+05 -8.297646E+04 -3.832912E+05 -1.142597E+05 -3.714318E+04
       129   8 -1.139536E+06 -5.493809E+04  1.352121E+04 -4.634665E+05 -8.094168E+04 -1.262531E+04
       129   9 -1.161760E+06 -1.100875E+05  3.833535E+04 -5.179250E+05 -4.349070E+04  8.922036E+02
       129  10 -1.904902E+06 -5.602838E+05 -3.031496E+05 -6.951736E+05 -6.984405E-10  8.367345E-11
       129  11 -1.860617E+06 -3.587883E+05 -1.773067E+05 -6.951654E+05  1.628600E-09 -3.416320E-10
       129  12 -1.870371E+06 -3.345254E+05 -1.345441E+05 -6.694218E+05 -1.111757E-09  1.048564E-10
       129  13 -1.536746E+06 -3.672049E+05 -1.930700E+05 -5.392820E+05 -1.033449E-10 -1.275186E-10
       129  14 -1.500144E+06 -2.068733E+05 -8.189348E+04 -5.793487E+05 -1.805331E-10  7.642081E-11
       129  15 -1.516129E+06 -2.223070E+05 -4.810179E+04 -5.936912E+05 -9.519737E-10  1.994985E-10
       129  16 -1.168452E+06 -1.740758E+05 -8.300365E+04 -3.832946E+05  6.349550E-10  1.111331E-10
       129  17 -1.139543E+06 -5.494003E+04  1.350858E+04 -4.634674E+05 -2.064888E-09 -2.891224E-10
       129  18 -1.161762E+06 -1.100880E+05  3.833179E+04 -5.179250E+05  1.127964E-09  4.762138E-10
       129  19 -1.904882E+06 -5.602767E+05 -3.031115E+05 -6.951687E+05  1.349542E+05  4.489740E+04
       129  20 -1.860609E+06 -3.587860E+05 -1.772919E+05 -6.951643E+05  8.738435E+04  1.503962E+04
       129  21 -1.870370E+06 -3.345250E+05 -1.345417E+05 -6.694219E+05  3.567699E+04 -3.825574E+03
       129  22 -1.536729E+06 -3.671989E+05 -1.930375E+05 -5.392779E+05  1.246103E+05  4.102270E+04
       129  23 -1.500137E+06 -2.068712E+05 -8.187977E+04 -5.793477E+05  8.416405E+04  1.383296E+04
       129  24 -1.516127E+06 -2.223066E+05 -4.809883E+04 -5.936913E+05  3.958261E+04 -2.359188E+03
       129  25 -1.168437E+06 -1.740708E+05 -8.297646E+04 -3.832912E+05  1.142597E+05  3.714318E+04
       129  26 -1.139536E+06 -5.493809E+04  1.352121E+04 -4.634665E+05  8.094168E+04  1.262531E+04
       129  27 -1.161760E+06 -1.100875E+05  3.833535E+04 -5.179250E+05  4.349070E+04 -8.922036E+02
       130   1 -1.809861E+06 -3.566950E+05 -1.162648E+05 -6.695038E+05 -3.164376E+04  2.585550E+03
       130   2 -1.779863E+06 -3.207689E+05 -8.752498E+04 -6.527669E+05 -2.094371E+04  5.322814E+03
       130   3 -1.741454E+06 -3.136857E+05 -7.021664E+04 -6.498145E+05 -1.000740E+04  7.430158E+03
       130   4 -1.509726E+06 -2.402864E+05 -3.870305E+04 -5.834463E+05 -3.217789E+04  2.384238E+03
       130   5 -1.513105E+06 -2.198264E+05 -1.922849E+04 -5.788320E+05 -2.188261E+04  4.969944E+03
       130   6 -1.507991E+06 -2.281244E+05 -1.085941E+04 -5.880026E+05 -1.135173E+04  6.925520E+03
       130   7 -1.209504E+06 -1.238703E+05  3.885118E+04 -4.973504E+05 -3.271231E+04  2.182811E+03
       130   8 -1.246279E+06 -1.188792E+05  4.906204E+04 -5.048683E+05 -2.282195E+04  4.616906E+03
       130   9 -1.274476E+06 -1.425605E+05  4.849319E+04 -5.261701E+05 -1.269661E+04  6.420685E+03
       130  10 -1.809862E+06 -3.566953E+05 -1.162667E+05 -6.695038E+05  7.366967E-10  1.284391E-10
       130  11 -1.779863E+06 -3.207690E+05 -8.752586E+04 -6.527668E+05 -6.846347E-12  1.299110E-10
       130  12 -1.741454E+06 -3.136858E+05 -7.021693E+04 -6.498145E+05 -1.747978E-09 -3.215698E-10
       130  13 -1.509728E+06 -2.402867E+05 -3.870501E+04 -5.834463E+05  3.427843E-10  2.937939E-10
       130  14 -1.513106E+06 -2.198266E+05 -1.922944E+04 -5.788319E+05 -5.261613E-11  8.780228E-11
       130  15 -1.507991E+06 -2.281245E+05 -1.085974E+04 -5.880025E+05 -7.805090E-10 -9.169857E-10
       130  16 -1.209505E+06 -1.238706E+05  3.884915E+04 -4.973503E+05 -9.721813E-10  8.332571E-10
       130  17 -1.246279E+06 -1.188794E+05  4.906102E+04 -5.048683E+05  1.381689E-09  6.474260E-11
       130  18 -1.274476E+06 -1.425606E+05  4.849281E+04 -5.261700E+05 -1.981030E-10 -1.400387E-09
       130  19 -1.809861E+06 -3.566950E+05 -1.162648E+05 -6.695038E+05  3.164376E+04 -2.585550E+03
       130  20 -1.779863E+06 -3.207689E+05 -8.752498E+04 -6.527669E+05  2.094371E+04 -5.322814E+03
       130  21 -1.741454E+06 -3.136857E+05 -7.021664E+04 -6.498145E+05  1.000740E+04 -7.430158E+03
       130  22 -1.509726E+06 -2.402864E+05 -3.870305E+04 -5.834463E+05  3.217789E+04 -2.384238E+03
       130  23 -1.513105E+06 -2.198264E+05 -1.922849E+04 -5.788320E+05  2.188261E+04 -4.969944E+03
       130  24 -1.507991E+06 -2.281244E+05 -1.085941E+04 -5.880026E+05  1.135173E+04 -6.925520E+03
       130  25 -1.209504E+06 -1.238703E+05  3.885118E+04 -4.973504E+05  3.271231E+04 -2.182811E+03
       130  26 -1.246279E+06 -1.188792E+05  4.906204E+04 -5.048683E+05  2.282195E+04 -4.616906E+03
       130  27 -1.274476E+06 -1.425605E+05  4.849319E+04 -5.261701E+05  1.269661E+04 -6.420685E+03
       131   1 -1.701573E+06 -3.026020E+05 -5.789777E+04 -6.404643E+05 -8.214904E+03  6.793803E+03
       131   2 -1.672447E+06 -2.800405E+05 -4.481232E+04 -6.218307E+05 -5.241221E+03  5.836094E+03
       131   3 -1.628695E+06 -2.740263E+05 -3.374904E+04 -6.205625E+05 -2.250156E+03  4.830907E+03
       131   4 -1.507226E+06 -2.296727E+05 -8.375467E+03 -5.871974E+05 -9.382367E+03  6.355661E+03
       131   5 -1.514467E+06 -2.209017E+05 -4.494915E+03 -5.787009E+05 -6.438853E+03  5.386818E+03
       131   6 -1.507079E+06 -2.286718E+05 -2.612176E+03 -5.875701E+05 -3.478111E+03  4.370454E+03
       131   7 -1.312841E+06 -1.567406E+05  4.114398E+04 -5.339151E+05 -1.055023E+04  5.917366E+03
       131   8 -1.356463E+06 -1.617612E+05  3.582055E+04 -5.355610E+05 -7.636820E+03  4.937417E+03
       131   9 -1.385449E+06 -1.833164E+05  2.852349E+04 -5.545719E+05 -4.706330E+03  3.909902E+03
       131  10 -1.701573E+06 -3.026021E+05 -5.789798E+04 -6.404642E+05 -1.168501E-09 -8.716140E-10
       131  11 -1.672447E+06 -2.800406E+05 -4.481244E+04 -6.218307E+05 -1.680289E-09 -4.607120E-10
       131  12 -1.628695E+06 -2.740264E+05 -3.374909E+04 -6.205625E+05 -1.011897E-09  6.358596E-10
       131  13 -1.507226E+06 -2.296727E+05 -8.375708E+03 -5.871973E+05  9.377392E-10 -9.944604E-10
       131  14 -1.514467E+06 -2.209017E+05 -4.495048E+03 -5.787008E+05 -3.433926E-09 -5.152314E-10
       131  15 -1.507079E+06 -2.286718E+05 -2.612235E+03 -5.875701E+05  1.014484E-09 -1.411411E-10
       131  16 -1.312841E+06 -1.567406E+05  4.114371E+04 -5.339150E+05  2.440324E-09 -1.321844E-09
       131  17 -1.356463E+06 -1.617612E+05  3.582039E+04 -5.355609E+05  4.898626E-10 -4.009554E-10
       131  18 -1.385449E+06 -1.833164E+05  2.852342E+04 -5.545718E+05 -2.811914E-10 -1.452901E-10
       131  19 -1.701573E+06 -3.026020E+05 -5.789777E+04 -6.404643E+05  8.214904E+03 -6.793803E+03
       131  20 -1.672447E+06 -2.800405E+05 -4.481232E+04 -6.218307E+05  5.241221E+03 -5.836094E+03
       131  21 -1.628695E+06 -2.740263E+05 -3.374904E+04 -6.205625E+05  2.250156E+03 -4.830907E+03
       131  22 -1.507226E+06 -2.296727E+05 -8.375467E+03 -5.871974E+05  9.382367E+03 -6.355661E+03
       131  23 -1.514467E+06 -2.209017E+05 -4.494915E+03 -5.787009E+05  6.438853E+03 -5.386818E+03
       131  24 -1.507079E+06 -2.286718E+05 -2.612176E+03 -5.875701E+05  3.478111E+03 -4.370454E+03
       131  25 -1.312841E+06 -1.567406E+05  4.114398E+04 -5.339151E+05  1.055023E+04 -5.917366E+03
       131  26 -1.356463E+06 -1.617612E+05  3.582055E+04 -5.355610E+05  7.636820E+03 -4.937417E+03
       131  27 -1.385449E+06 -1.833164E+05  2.852349E+04 -5.545719E+05  4.706330E+03 -3.909902E+03
       132   1 -1.590027E+06 -2.598847E+05 -2.313635E+04 -6.102130E+05 -1.459209E+03  3.874777E+03
       132   2 -1.560709E+06 -2.381807E+05 -1.316492E+04 -5.912004E+05 -4.287827E+01  2.257921E+03
       132   3 -1.515971E+06 -2.321532E+05 -3.752977E+03 -5.900157E+05  1.375643E+03  6.348017E+02
       132   4 -1.506951E+06 -2.288277E+05 -2.074183E+03 -5.875414E+05 -2.681809E+03  3.416414E+03
       132   5 -1.514654E+06 -2.209544E+05 -1.415001E+03 -5.786403E+05 -1.269487E+03  1.798110E+03
       132   6 -1.506940E+06 -2.287568E+05 -1.312077E+03 -5.875675E+05  1.449740E+02  1.735344E+02
       132   7 -1.423868E+06 -1.977702E+05  1.898740E+04 -5.648671E+05 -3.904586E+03  2.957984E+03
       132   8 -1.468598E+06 -2.037280E+05  1.033470E+04 -5.660794E+05 -2.496190E+03  1.338264E+03
       132   9 -1.497908E+06 -2.253604E+05  1.128804E+03 -5.851193E+05 -1.085706E+03 -2.877369E+02
       132  10 -1.590027E+06 -2.598847E+05 -2.313638E+04 -6.102130E+05  8.082242E-10  9.781750E-10
       132  11 -1.560709E+06 -2.381807E+05 -1.316493E+04 -5.912004E+05  1.489388E-09 -1.719726E-10
       132  12 -1.515971E+06 -2.321532E+05 -3.752982E+03 -5.900157E+05 -8.268021E-10  6.091561E-11
       132  13 -1.506951E+06 -2.288277E+05 -2.074218E+03 -5.875414E+05 -1.184546E-09 -2.802353E-11
       132  14 -1.514654E+06 -2.209544E+05 -1.415011E+03 -5.786403E+05  6.266138E-10 -1.155607E-09
       132  15 -1.506940E+06 -2.287568E+05 -1.312077E+03 -5.875675E+05  7.181281E-10  1.202257E-10
       132  16 -1.423868E+06 -1.977703E+05  1.898736E+04 -5.648671E+05 -6.712047E-10 -1.097783E-09
       132  17 -1.468598E+06 -2.037280E+05  1.033468E+04 -5.660794E+05  4.244666E-10 -1.058978E-09
       132  18 -1.497908E+06 -2.253604E+05  1.128802E+03 -5.851193E+05  2.076409E-09  3.150031E-10
       132  19 -1.590027E+06 -2.598847E+05 -2.313635E+04 -6.102130E+05  1.459209E+03 -3.874777E+03
       132  20 -1.560709E+06 -2.381807E+05 -1.316492E+04 -5.912004E+05  4.287827E+01 -2.257921E+03
       132  21 -1.515971E+06 -2.321532E+05 -3.752977E+03 -5.900157E+05 -1.375643E+03 -6.348017E+02
       132  22 -1.506951E+06 -2.288277E+05 -2.074183E+03 -5.875414E+05  2.681809E+03 -3.416414E+03
       132  23 -1.514654E+06 -2.209544E+05 -1.415001E+03 -5.786403E+05  1.269487E+03 -1.798110E+03
       132  24 -1.506940E+06 -2.287568E+05 -1.312077E+03 -5.875675E+05 -1.449740E+02 -1.735344E+02
       132  25 -1.423868E+06 -1.977702E+05  1.898740E+04 -5.648671E+05  3.904586E+03 -2.957984E+03
       132  26 -1.468598E+06 -2.037280E+05  1.033470E+04 -5.660794E+05  2.496190E+03 -1.338264E+03
       132  27 -1.497908E+06 -2.253604E+05  1.128804E+03 -5.851193E+05  1.085706E+03  2.877369E+02
       133   1 -1.477274E+06 -2.176504E+05  6.277736E+03 -5.795133E+05  2.014759E+03 -3.821671E+02
       133   2 -1.447983E+06 -1.960396E+05  1.493543E+04 -5.604879E+05  3.747536E+03 -1.885150E+03
       133   3 -1.403364E+06 -1.901605E+05  2.277950E+04 -5.592582E+05  5.477483E+03 -3.379662E+03
       133   4 -1.506957E+06 -2.287470E+05 -1.427432E+03 -5.875689E+05  7.845554E+02 -8.432682E+02
       133   5 -1.514631E+06 -2.209489E+05 -2.063776E+03 -5.786455E+05  2.522667E+03 -2.344344E+03
       133   6 -1.506978E+06 -2.288838E+05 -3.517788E+03 -5.875185E+05  4.257877E+03 -3.836966E+03
       133   7 -1.536639E+06 -2.398437E+05 -9.132736E+03 -5.956242E+05 -4.455936E+02 -1.304349E+03
       133   8 -1.581275E+06 -2.458581E+05 -1.906346E+04 -5.968015E+05  1.297935E+03 -2.803487E+03
       133   9 -1.610582E+06 -2.676065E+05 -2.981607E+04 -6.157746E+05  3.038488E+03 -4.294189E+03
       133  10 -1.477274E+06 -2.176504E+05  6.277728E+03 -5.795133E+05 -7.068459E-10  2.782441E-11
       133  11 -1.447983E+06 -1.960396E+05  1.493539E+04 -5.604879E+05  3.305028E-10 -1.042815E-09
       133  12 -1.403364E+06 -1.901605E+05  2.277943E+04 -5.592582E+05 -2.535500E-09 -1.385242E-09
       133  13 -1.506957E+06 -2.287471E+05 -1.427435E+03 -5.875689E+05 -2.840098E-11  3.040611E-10
       133  14 -1.514631E+06 -2.209489E+05 -2.063799E+03 -5.786455E+05 -9.653275E-10 -4.478667E-10
       133  15 -1.506978E+06 -2.288838E+05 -3.517849E+03 -5.875185E+05 -1.829093E-09 -1.103391E-09
       133  16 -1.536639E+06 -2.398437E+05 -9.132740E+03 -5.956242E+05  2.073845E-09  4.813116E-10
       133  17 -1.581275E+06 -2.458581E+05 -1.906347E+04 -5.968015E+05  1.918637E-09  4.077388E-10
       133  18 -1.610582E+06 -2.676066E+05 -2.981612E+04 -6.157746E+05 -1.668033E-09 -1.040220E-09
       133  19 -1.477274E+06 -2.176504E+05  6.277736E+03 -5.795133E+05 -2.014759E+03  3.821671E+02
       133  20 -1.447983E+06 -1.960396E+05  1.493543E+04 -5.604879E+05 -3.747536E+03  1.885150E+03
       133  21 -1.403364E+06 -1.901605E+05  2.277950E+04 -5.592582E+05 -5.477483E+03  3.379662E+03
       133  22 -1.506957E+06 -2.287470E+05 -1.427432E+03 -5.875689E+05 -7.845554E+02  8.432682E+02
       133  23 -1.514631E+06 -2.209489E+05 -2.063776E+03 -5.786455E+05 -2.522667E+03  2.344344E+03
       133  24 -1.506978E+06 -2.288838E+05 -3.517788E+03 -5.875185E+05 -4.257877E+03  3.836966E+03
       133  25 -1.536639E+06 -2.398437E+05 -9.132736E+03 -5.956242E+05  4.455936E+02  1.304349E+03
       133  26 -1.581275E+06 -2.458581E+05 -1.906346E+04 -5.968015E+05 -1.297935E+03  2.803487E+03
       133  27 -1.610582E+06 -2.676065E+05 -2.981607E+04 -6.157746E+05 -3.038488E+03  4.294189E+03
       134   1 -1.365051E+06 -1.757562E+05  3.175628E+04 -5.491756E+05  6.557773E+03 -4.223573E+03
       134   2 -1.336055E+06 -1.540848E+05  3.733789E+04 -5.300439E+05  1.132036E+04 -4.555514E+03
       134   3 -1.293092E+06 -1.498874E+05  3.931406E+04 -5.280248E+05  1.606480E+04 -4.836318E+03
       134   4 -1.507195E+06 -2.286290E+05 -4.583011E+03 -5.876093E+05  5.332957E+03 -4.682925E+03
       134   5 -1.514307E+06 -2.208026E+05 -8.143038E+03 -5.787114E+05  1.012745E+04 -5.003119E+03
       134   6 -1.507460E+06 -2.304574E+05 -1.533477E+04 -5.869270E+05  1.490354E+04 -5.272263E+03
       134   7 -1.649317E+06 -2.815003E+05 -4.092367E+04 -6.260347E+05  4.108457E+03 -5.142160E+03
       134   8 -1.692527E+06 -2.875182E+05 -5.362643E+04 -6.273661E+05  8.934906E+03 -5.450583E+03
       134   9 -1.721784E+06 -3.110245E+05 -6.998746E+04 -6.458109E+05  1.374271E+04 -5.708042E+03
       134  10 -1.365051E+06 -1.757562E+05  3.175617E+04 -5.491756E+05 -3.616460E-09 -1.218030E-09
       134  11 -1.336055E+06 -1.540849E+05  3.733761E+04 -5.300438E+05 -2.018070E-09  1.249461E-10
       134  12 -1.293092E+06 -1.498875E+05  3.931353E+04 -5.280248E+05  2.367352E-10  6.654409E-11
       134  13 -1.507195E+06 -2.286291E+05 -4.583105E+03 -5.876092E+05 -6.525689E-10 -9.252737E-10
       134  14 -1.514307E+06 -2.208027E+05 -8.143278E+03 -5.787113E+05  2.177934E-10  3.248036E-10
       134  15 -1.507460E+06 -2.304575E+05 -1.533524E+04 -5.869270E+05  4.583639E-11 -6.193463E-11
       134  16 -1.649317E+06 -2.815003E+05 -4.092375E+04 -6.260347E+05 -8.605036E-11 -5.413638E-10
       134  17 -1.692527E+06 -2.875183E+05 -5.362664E+04 -6.273661E+05  5.625275E-10 -3.922884E-10
       134  18 -1.721784E+06 -3.110246E+05 -6.998788E+04 -6.458109E+05 -1.930810E-10  2.569841E-10
       134  19 -1.365051E+06 -1.757562E+05  3.175628E+04 -5.491756E+05 -6.557773E+03  4.223573E+03
       134  20 -1.336055E+06 -1.540848E+05  3.733789E+04 -5.300439E+05 -1.132036E+04  4.555514E+03
       134  21 -1.293092E+06 -1.498874E+05  3.931406E+04 -5.280248E+05 -1.606480E+04  4.836318E+03
       134  22 -1.507195E+06 -2.286290E+05 -4.583011E+03 -5.876093E+05 -5.332957E+03  4.682925E+03
       134  23 -1.514307E+06 -2.208026E+05 -8.143038E+03 -5.787114E+05 -1.012745E+04  5.003119E+03
       134  24 -1.507460E+06 -2.304574E+05 -1.533477E+04 -5.869270E+05 -1.490354E+04  5.272263E+03
       134  25 -1.649317E+06 -2.815003E+05 -4.092367E+04 -6.260347E+05 -4.108457E+03  5.142160E+03
       134  26 -1.692527E+06 -2.875182E+05 -5.362643E+04 -6.273661E+05 -8.934906E+03  5.450583E+03
       134  27 -1.721784E+06 -3.110245E+05 -6.998746E+04 -6.458109E+05 -1.374271E+04  5.708042E+03
       135   1 -1.254267E+06 -1.358288E+05  4.449968E+04 -5.225454E+05  1.949958E+04 -4.852677E+03
       135   2 -1.226049E+06 -1.097854E+05  3.797334E+04 -4.987912E+05  3.787179E+04  6.559583E+01
       135   3 -1.194775E+06 -1.239505E+05  1.136394E+04 -4.859826E+05  5.599789E+04  5.644286E+03
       135   4 -1.508800E+06 -2.276904E+05 -1.992226E+04 -5.884996E+05  1.815358E+04 -5.358005E+03
       135   5 -1.511875E+06 -2.187122E+05 -3.532583E+04 -5.788392E+05  3.694664E+04 -2.823391E+02
       135   6 -1.511984E+06 -2.500347E+05 -7.115406E+04 -5.801247E+05  5.549264E+04  5.453173E+03
       135   7 -1.763269E+06 -3.195486E+05 -8.434911E+04 -6.544295E+05  1.680819E+04 -5.863124E+03
       135   8 -1.797621E+06 -3.276330E+05 -1.086317E+05 -6.588535E+05  3.602196E+04 -6.300930E+02
       135   9 -1.829096E+06 -3.761095E+05 -1.536809E+05 -6.742223E+05  5.498767E+04  5.262177E+03
       135  10 -1.254267E+06 -1.358289E+05  4.449892E+04 -5.225454E+05 -1.738616E-09 -1.899106E-10
       135  11 -1.226051E+06 -1.097858E+05  3.797064E+04 -4.987912E+05 -2.051192E-09 -1.174531E-09
       135  12 -1.194779E+06 -1.239514E+05  1.135798E+04 -4.859828E+05 -1.724889E-09 -2.995549E-09
       135  13 -1.508800E+06 -2.276905E+05 -1.992293E+04 -5.884995E+05 -1.737489E-09  8.409931E-13
       135  14 -1.511877E+06 -2.187126E+05 -3.532840E+04 -5.788392E+05 -1.503916E-09 -2.382555E-10
       135  15 -1.511988E+06 -2.500356E+05 -7.115991E+04 -5.801250E+05  2.311113E-09 -1.192153E-09
       135  16 -1.763269E+06 -3.195488E+05 -8.434971E+04 -6.544295E+05 -6.697709E-10  2.731521E-11
       135  17 -1.797623E+06 -3.276333E+05 -1.086342E+05 -6.588535E+05  3.462684E-09  1.007964E-09
       135  18 -1.829099E+06 -3.761104E+05 -1.536866E+05 -6.742225E+05  4.679043E-09  1.514362E-09
       135  19 -1.254267E+06 -1.358288E+05  4.449968E+04 -5.225454E+05 -1.949958E+04  4.852677E+03
       135  20 -1.226049E+06 -1.097854E+05  3.797334E+04 -4.987912E+05 -3.787179E+04 -6.559583E+01
       135  21 -1.194775E+06 -1.239505E+05  1.136394E+04 -4.859826E+05 -5.599789E+04 -5.644286E+03
       135  22 -1.508800E+06 -2.276904E+05 -1.992226E+04 -5.884996E+05 -1.815358E+04  5.358005E+03
       135  23 -1.511875E+06 -2.187122E+05 -3.532583E+04 -5.788392E+05 -3.694664E+04  2.823391E+02
       135  24 -1.511984E+06 -2.500347E+05 -7.115406E+04 -5.801247E+05 -5.549264E+04 -5.453173E+03
       135  25 -1.763269E+06 -3.195486E+05 -8.434911E+04 -6.544295E+05 -1.680819E+04  5.863124E+03
       135  26 -1.797621E+06 -3.276330E+05 -1.086317E+05 -6.588535E+05 -3.602196E+04  6.300930E+02
       135  27 -1.829096E+06 -3.761095E+05 -1.536809E+05 -6.742223E+05 -5.498767E+04 -5.262177E+03
       136   1 -1.137620E+06 -1.102714E+05  2.858698E+03 -5.324570E+05  7.239290E+04  8.985149E+03
       136   2 -1.119116E+06 -2.548091E+04 -5.034014E+04 -4.468688E+05  1.467542E+05  3.647768E+04
       136   3 -1.207753E+06 -2.504349E+05 -2.398798E+05 -3.004122E+05  2.167969E+05  7.547310E+04
       136   4 -1.523600E+06 -2.171346E+05 -8.843631E+04 -5.991527E+05  6.836403E+04  7.475841E+03
       136   5 -1.488194E+06 -1.946655E+05 -1.505270E+05 -5.795568E+05  1.501534E+05  3.774583E+04
       136   6 -1.561492E+06 -4.835481E+05 -3.549198E+05 -4.990725E+05  2.276232E+05  7.950159E+04
       136   7 -1.909433E+06 -3.240013E+05 -1.797409E+05 -6.658182E+05  6.433789E+04  5.966944E+03
       136   8 -1.857133E+06 -3.638192E+05 -2.507250E+05 -7.121655E+05  1.535504E+05  3.901271E+04
       136   9 -1.915078E+06 -7.165494E+05 -4.699671E+05 -6.976018E+05  2.384426E+05  8.352307E+04
       136  10 -1.137626E+06 -1.102729E+05  2.848677E+03 -5.324575E+05  5.798652E-09  5.187071E-10
       136  11 -1.119139E+06 -2.548814E+04 -5.038320E+04 -4.468731E+05  2.193441E-09  2.483845E-09
       136  12 -1.207805E+06 -2.504536E+05 -2.399791E+05 -3.004254E+05 -5.958080E-10  1.150192E-09
       136  13 -1.523605E+06 -2.171360E+05 -8.844522E+04 -5.991531E+05 -4.368634E-10 -2.301291E-10
       136  14 -1.488219E+06 -1.946731E+05 -1.505721E+05 -5.795614E+05 -1.278284E-10  8.363764E-11
       136  15 -1.561549E+06 -4.835689E+05 -3.550293E+05 -4.990871E+05  9.658423E-10  7.119016E-10
       136  16 -1.909437E+06 -3.240024E+05 -1.797488E+05 -6.658185E+05 -4.275850E-09 -2.475313E-09
       136  17 -1.857159E+06 -3.638272E+05 -2.507723E+05 -7.121703E+05 -3.766148E-09 -1.420584E-09
       136  18 -1.915141E+06 -7.165723E+05 -4.700875E+05 -6.976178E+05 -2.170199E-10 -2.019224E-10
       136  19 -1.137620E+06 -1.102714E+05  2.858698E+03 -5.324570E+05 -7.239290E+04 -8.985149E+03
       136  20 -1.119116E+06 -2.548091E+04 -5.034014E+04 -4.468688E+05 -1.467542E+05 -3.647768E+04
       136  21 -1.207753E+06 -2.504349E+05 -2.398798E+05 -3.004122E+05 -2.167969E+05 -7.547310E+04
       136  22 -1.523600E+06 -2.171346E+05 -8.843631E+04 -5.991527E+05 -6.836403E+04 -7.475841E+03
       136  23 -1.488194E+06 -1.946655E+05 -1.505270E+05 -5.795568E+05 -1.501534E+05 -3.774583E+04
       136  24 -1.561492E+06 -4.835481E+05 -3.549198E+05 -4.990725E+05 -2.276232E+05 -7.950159E+04
       136  25 -1.909433E+06 -3.240013E+05 -1.797409E+05 -6.658182E+05 -6.433789E+04 -5.966944E+03
       136  26 -1.857133E+06 -3.638192E+05 -2.507250E+05 -7.121655E+05 -1.535504E+05 -3.901271E+04
       136  27 -1.915078E+06 -7.165494E+05 -4.699671E+05 -6.976018E+05 -2.384426E+05 -8.352307E+04
       137   1 -1.810448E+05 -1.598523E+04  3.436879E+03  1.185478E+04  5.507857E+04  4.409158E+03
       137   2 -1.594629E+05 -8.910881E+04 -3.630326E+04 -1.982059E+02  3.907090E+04  1.339872E+04
       137   3 -1.149672E+05 -7.931620E+04 -4.487111E+04 -2.980841E+04  2.306824E+04  1.310006E+04
       137   4  1.900702E+05  7.634036E+04  9.422493E+04 -1.854523E+04  6.460090E+04  4.412997E+03
       137   5  1.780652E+05 -5.952169E+03  4.201412E+04 -9.741992E+03  4.211784E+04  1.339934E+04
       137   6  1.900822E+05 -4.230652E+03  2.545858E+04 -1.849453E+04  1.964085E+04  1.309862E+04
       137   7  5.613129E+05  1.686593E+05  1.850038E+05 -4.896347E+04  7.412889E+04  4.415902E+03
       137   8  5.156986E+05  7.719680E+04  1.203239E+05 -1.929102E+04  4.516643E+04  1.339986E+04
       137   9  4.952179E+05  7.084887E+04  9.578220E+04 -7.175053E+03  1.621180E+04  1.309705E+04
       137  10 -1.810480E+05 -1.598607E+04  3.431140E+03  1.185458E+04  1.142662E-09 -6.723267E-10
       137  11 -1.594645E+05 -8.910942E+04 -3.630647E+04 -1.986276E+02  3.165912E-11  1.830657E-11
       137  12 -1.149678E+05 -7.931653E+04 -4.487243E+04 -2.980865E+04 -8.343888E-10 -1.200742E-09
       137  13  1.900657E+05  7.633922E+04  9.421705E+04 -1.854546E+04  6.175521E-11  5.163507E-10
       137  14  1.780632E+05 -5.952838E+03  4.201045E+04 -9.742446E+03  1.419052E-10 -1.817451E-10
       137  15  1.900817E+05 -4.230940E+03  2.545753E+04 -1.849473E+04  1.688776E-09 -1.077916E-09
       137  16  5.613070E+05  1.686578E+05  1.849934E+05 -4.896373E+04  2.336368E-10  4.706348E-10
       137  17  5.156964E+05  7.719606E+04  1.203198E+05 -1.929151E+04  1.573317E-09 -2.224865E-11
       137  18  4.952175E+05  7.084861E+04  9.578139E+04 -7.175224E+03  1.632460E-09  4.582255E-10
       137  19 -1.810448E+05 -1.598523E+04  3.436879E+03  1.185478E+04 -5.507857E+04 -4.409158E+03
       137  20 -1.594629E+05 -8.910881E+04 -3.630326E+04 -1.982059E+02 -3.907090E+04 -1.339872E+04
       137  21 -1.149672E+05 -7.931620E+04 -4.487111E+04 -2.980841E+04 -2.306824E+04 -1.310006E+04
       137  22  1.900702E+05  7.634036E+04  9.422493E+04 -1.854523E+04 -6.460090E+04 -4.412997E+03
       137  23  1.780652E+05 -5.952169E+03  4.201412E+04 -9.741992E+03 -4.211784E+04 -1.339934E+04
       137  24  1.900822E+05 -4.230652E+03  2.545858E+04 -1.849453E+04 -1.964085E+04 -1.309862E+04
       137  25  5.613129E+05  1.686593E+05  1.850038E+05 -4.896347E+04 -7.412889E+04 -4.415902E+03
       137  26  5.156986E+05  7.719680E+04  1.203239E+05 -1.929102E+04 -4.516643E+04 -1.339986E+04
       137  27  4.952179E+05  7.084887E+04  9.578220E+04 -7.175053E+03 -1.621180E+04 -1.309705E+04
       138   1 -8.732897E+04 -6.123126E+04 -4.262211E+04 -1.663358E+04  1.641865E+04  1.105280E+04
       138   2 -5.572105E+04 -5.959038E+04 -4.463300E+04 -9.224406E+03  1.128836E+04  1.000438E+04
       138   3 -2.174366E+04 -5.133391E+04 -4.163926E+04 -1.956959E+04  6.157412E+03  8.483533E+03
       138   4  1.852859E+05  5.916619E+03  2.052200E+04 -1.855366E+04  1.585925E+04  1.105222E+04
       138   5  1.840760E+05 -5.514046E+02  1.078026E+04 -9.675858E+03  1.039798E+04  1.000389E+04
       138   6  1.852909E+05 -3.478922E+02  6.271318E+03 -1.855190E+04  4.936324E+03  8.483190E+03
       138   7  4.579694E+05  7.305929E+04  8.366113E+04 -2.047459E+04  1.529961E+04  1.105165E+04
       138   8  4.239263E+05  5.848354E+04  6.618968E+04 -1.012749E+04  9.507268E+03  1.000340E+04
       138   9  3.923650E+05  5.063512E+04  5.417904E+04 -1.753388E+04  3.714832E+03  8.482844E+03
       138  10 -8.732929E+04 -6.123146E+04 -4.262285E+04 -1.663372E+04 -1.352656E-09 -6.625502E-10
       138  11 -5.572121E+04 -5.959053E+04 -4.463343E+04 -9.224497E+03  1.078413E-09  8.783064E-10
       138  12 -2.174372E+04 -5.133400E+04 -4.163947E+04 -1.956963E+04 -1.506771E-09  3.936755E-10
       138  13  1.852856E+05  5.916420E+03  2.052129E+04 -1.855380E+04 -2.092499E-09  1.444572E-10
       138  14  1.840759E+05 -5.515411E+02  1.077987E+04 -9.675942E+03  1.347327E-10  5.423180E-10
       138  15  1.852908E+05 -3.479760E+02  6.271137E+03 -1.855194E+04 -2.221395E-09  2.809497E-10
       138  16  4.579691E+05  7.305909E+04  8.366046E+04 -2.047473E+04  3.383943E-10 -5.134035E-11
       138  17  4.239261E+05  5.848341E+04  6.618933E+04 -1.012756E+04 -1.216263E-09 -2.498878E-10
       138  18  3.923650E+05  5.063504E+04  5.417888E+04 -1.753391E+04  9.132517E-10  5.701700E-10
       138  19 -8.732897E+04 -6.123126E+04 -4.262211E+04 -1.663358E+04 -1.641865E+04 -1.105280E+04
       138  20 -5.572105E+04 -5.959038E+04 -4.463300E+04 -9.224406E+03 -1.128836E+04 -1.000438E+04
       138  21 -2.174366E+04 -5.133391E+04 -4.163926E+04 -1.956959E+04 -6.157412E+03 -8.483533E+03
       138  22  1.852859E+05  5.916619E+03  2.052200E+04 -1.855366E+04 -1.585925E+04 -1.105222E+04
       138  23  1.840760E+05 -5.514046E+02  1.078026E+04 -9.675858E+03 -1.039798E+04 -1.000389E+04
       138  24  1.852909E+05 -3.478922E+02  6.271318E+03 -1.855190E+04 -4.936324E+03 -8.483190E+03
       138  25  4.579694E+05  7.305929E+04  8.366113E+04 -2.047459E+04 -1.529961E+04 -1.105165E+04
       138  26  4.239263E+05  5.848354E+04  6.618968E+04 -1.012749E+04 -9.507268E+03 -1.000340E+04
       138  27  3.923650E+05  5.063512E+04  5.417904E+04 -1.753388E+04 -3.714832E+03 -8.482844E+03
       139   1  1.000524E+04 -4.259083E+04 -3.547495E+04 -1.850941E+04  5.033957E+03  7.504027E+03
       139   2  4.254886E+04 -3.504906E+04 -3.020028E+04 -9.720610E+03  3.740812E+03  5.948466E+03
       139   3  7.540704E+04 -2.698214E+04 -2.394943E+04 -1.865073E+04  2.447259E+03  4.369803E+03
       139   4  1.848254E+05  4.297961E+02  4.825517E+03 -1.854459E+04  3.960082E+03  7.503793E+03
       139   5  1.846683E+05 -6.252279E+01  2.629916E+03 -9.685255E+03  2.650497E+03  5.948344E+03
       139   6  1.848280E+05 -2.675090E+01  1.421843E+03 -1.854458E+04  1.340572E+03  4.369799E+03
       139   7  3.596739E+05  4.344828E+04  4.512395E+04 -1.857979E+04  2.885906E+03  7.503560E+03
       139   8  3.268065E+05  3.492260E+04  3.545877E+04 -9.649891E+03  1.559934E+03  5.948222E+03
       139   9  2.942601E+05  2.692779E+04  2.679232E+04 -1.843841E+04  2.336916E+02  4.369793E+03
       139  10  1.000520E+04 -4.259090E+04 -3.547510E+04 -1.850944E+04  1.293172E-10 -4.628001E-10
       139  11  4.254883E+04 -3.504910E+04 -3.020037E+04 -9.720628E+03 -9.864460E-10 -1.004525E-09
       139  12  7.540703E+04 -2.698216E+04 -2.394948E+04 -1.865074E+04 -1.037153E-09 -1.528345E-10
       139  13  1.848254E+05  4.297314E+02  4.825382E+03 -1.854462E+04 -1.152018E-09 -1.424398E-10
       139  14  1.846683E+05 -6.256267E+01  2.629837E+03 -9.685267E+03 -1.069821E-09 -9.357371E-10
       139  15  1.848280E+05 -2.677189E+01  1.421804E+03 -1.854459E+04 -1.616299E-09  4.334904E-10
       139  16  3.596739E+05  4.344822E+04  4.512383E+04 -1.857980E+04 -1.860072E-09  1.430603E-10
       139  17  3.268065E+05  3.492256E+04  3.545870E+04 -9.649899E+03  5.270975E-10 -7.860153E-10
       139  18  2.942601E+05  2.692777E+04  2.679229E+04 -1.843841E+04  1.067779E-10  9.887469E-10
       139  19  1.000524E+04 -4.259083E+04 -3.547495E+04 -1.850941E+04 -5.033957E+03 -7.504027E+03
       139  20  4.254886E+04 -3.504906E+04 -3.020028E+04 -9.720610E+03 -3.740812E+03 -5.948466E+03
       139  21  7.540704E+04 -2.698214E+04 -2.394943E+04 -1.865073E+04 -2.447259E+03 -4.369803E+03
       139  22  1.848254E+05  4.297961E+02  4.825517E+03 -1.854459E+04 -3.960082E+03 -7.503793E+03
       139  23  1.846683E+05 -6.252279E+01  2.629916E+03 -9.685255E+03 -2.650497E+03 -5.948344E+03
       139  24  1.848280E+05 -2.675090E+01  1.421843E+03 -1.854458E+04 -1.340572E+03 -4.369799E+03
       139  25  3.596739E+05  4.344828E+04  4.512395E+04 -1.857979E+04 -2.885906E+03 -7.503560E+03
       139  26  3.268065E+05  3.492260E+04  3.545877E+04 -9.649891E+03 -1.559934E+03 -5.948222E+03
       139  27  2.942601E+05  2.692779E+04  2.679232E+04 -1.843841E+04 -2.336916E+02 -4.369793E+03
       140   1  1.074921E+05 -1.897566E+04 -1.675105E+04 -1.856588E+04  2.221603E+03  3.446730E+03
       140   2  1.401351E+05 -1.098697E+04 -9.960439E+03 -9.719129E+03  2.051007E+03  1.867654E+03
       140   3  1.728096E+05 -2.962152E+03 -3.050025E+03 -1.857032E+04  1.880285E+03  2.877299E+02
       140   4  1.847658E+05  2.732420E+01  1.002431E+03 -1.853996E+04  1.122781E+03  3.446773E+03
       140   5  1.847512E+05 -4.226161E+00  3.452221E+02 -9.691033E+03  9.515293E+02  1.867732E+03
       140   6  1.847666E+05  4.058564E-01 -1.918389E+02 -1.853997E+04  7.801609E+02  2.878459E+02
       140   7  2.620451E+05  1.902989E+04  1.875552E+04 -1.851404E+04  2.382290E+01  3.446817E+03
       140   8  2.293691E+05  1.097838E+04  1.065075E+04 -9.662936E+03 -1.480268E+02  1.867810E+03
       140   9  1.967238E+05  2.962954E+03  2.666342E+03 -1.850962E+04 -3.199848E+02  2.879618E+02
       140  10  1.074921E+05 -1.897567E+04 -1.675108E+04 -1.856589E+04 -1.684698E-10  5.035712E-10
       140  11  1.401351E+05 -1.098698E+04 -9.960453E+03 -9.719132E+03  1.511036E-09  5.813846E-10
       140  12  1.728096E+05 -2.962154E+03 -3.050032E+03 -1.857032E+04 -2.300315E-09 -4.889262E-10
       140  13  1.847658E+05  2.731111E+01  1.002407E+03 -1.853997E+04 -4.187785E-12  1.009430E-09
       140  14  1.847512E+05 -4.230150E+00  3.452138E+02 -9.691035E+03 -1.115260E-09  4.129945E-10
       140  15  1.847666E+05  4.056040E-01 -1.918402E+02 -1.853997E+04 -2.488350E-09 -4.870443E-10
       140  16  2.620451E+05  1.902988E+04  1.875550E+04 -1.851404E+04  1.291392E-09  1.501666E-09
       140  17  2.293691E+05  1.097838E+04  1.065075E+04 -9.662936E+03  3.014939E-10  1.677586E-10
       140  18  1.967238E+05  2.962954E+03  2.666341E+03 -1.850962E+04  4.047115E-10 -2.965629E-10
       140  19  1.074921E+05 -1.897566E+04 -1.675105E+04 -1.856588E+04 -2.221603E+03 -3.446730E+03
       140  20  1.401351E+05 -1.098697E+04 -9.960439E+03 -9.719129E+03 -2.051007E+03 -1.867654E+03
       140  21  1.728096E+05 -2.962152E+03 -3.050025E+03 -1.857032E+04 -1.880285E+03 -2.877299E+02
       140  22  1.847658E+05  2.732420E+01  1.002431E+03 -1.853996E+04 -1.122781E+03 -3.446773E+03
       140  23  1.847512E+05 -4.226161E+00  3.452221E+02 -9.691033E+03 -9.515293E+02 -1.867732E+03
       140  24  1.847666E+05  4.058564E-01 -1.918389E+02 -1.853997E+04 -7.801609E+02 -2.878459E+02
       140  25  2.620451E+05  1.902989E+04  1.875552E+04 -1.851404E+04 -2.382290E+01 -3.446817E+03
       140  26  2.293691E+05  1.097838E+04  1.065075E+04 -9.662936E+03  1.480268E+02 -1.867810E+03
       140  27  1.967238E+05  2.962954E+03  2.666342E+03 -1.850962E+04  3.199848E+02 -2.879618E+02
       141   1  2.049107E+05  4.992890E+03  4.284940E+03 -1.857991E+04  1.940127E+03 -6.320682E+02
       141   2  2.376209E+05  1.302134E+04  1.103877E+04 -9.736378E+03  2.516381E+03 -2.211995E+03
       141   3  2.702369E+05  2.097095E+04  1.739753E+04 -1.859134E+04  3.092800E+03 -3.791153E+03
       141   4  1.847387E+05  8.239264E+00 -4.706577E+02 -1.854013E+04  8.399395E+02 -6.319543E+02
       141   5  1.847860E+05  1.617954E+01 -1.164617E+03 -9.690840E+03  1.416651E+03 -2.211925E+03
       141   6  1.847379E+05 -5.475547E+01 -2.253975E+03 -1.854014E+04  1.993497E+03 -3.791125E+03
       141   7  1.645671E+05 -4.976440E+03 -5.226278E+03 -1.850035E+04 -2.602122E+02 -6.318405E+02
       141   8  1.319536E+05 -1.298918E+04 -1.336819E+04 -9.645306E+03  3.170131E+02 -2.211857E+03
       141   9  9.924563E+04 -2.108097E+04 -2.190595E+04 -1.848895E+04  8.943437E+02 -3.791097E+03
       141  10  2.049107E+05  4.992888E+03  4.284932E+03 -1.857991E+04 -2.421469E-09 -8.676352E-10
       141  11  2.376209E+05  1.302133E+04  1.103875E+04 -9.736374E+03 -2.620963E-10 -2.885546E-10
       141  12  2.702369E+05  2.097093E+04  1.739748E+04 -1.859133E+04 -1.092847E-09  2.789113E-10
       141  13  1.847387E+05  8.238646E+00 -4.706598E+02 -1.854013E+04 -3.097474E-09 -7.982799E-10
       141  14  1.847860E+05  1.617375E+01 -1.164630E+03 -9.690838E+03 -4.111538E-10 -3.515963E-10
       141  15  1.847379E+05 -5.477197E+01 -2.254009E+03 -1.854013E+04 -1.996905E-09  1.786391E-10
       141  16  1.645671E+05 -4.976440E+03 -5.226279E+03 -1.850035E+04  7.971246E-10 -4.483607E-10
       141  17  1.319536E+05 -1.298918E+04 -1.336820E+04 -9.645306E+03 -1.870192E-09 -3.020756E-10
       141  18  9.924563E+04 -2.108098E+04 -2.190598E+04 -1.848894E+04 -1.371924E-09  1.650047E-10
       141  19  2.049107E+05  4.992890E+03  4.284940E+03 -1.857991E+04 -1.940127E+03  6.320682E+02
       141  20  2.376209E+05  1.302134E+04  1.103877E+04 -9.736378E+03 -2.516381E+03  2.211995E+03
       141  21  2.702369E+05  2.097095E+04  1.739753E+04 -1.859134E+04 -3.092800E+03  3.791153E+03
       141  22  1.847387E+05  8.239264E+00 -4.706577E+02 -1.854013E+04 -8.399395E+02  6.319543E+02
       141  23  1.847860E+05  1.617954E+01 -1.164617E+03 -9.690840E+03 -1.416651E+03  2.211925E+03
       141  24  1.847379E+05 -5.475547E+01 -2.253975E+03 -1.854014E+04 -1.993497E+03  3.791125E+03
       141  25  1.645671E+05 -4.976440E+03 -5.226278E+03 -1.850035E+04  2.602122E+02  6.318405E+02
       141  26  1.319536E+05 -1.298918E+04 -1.336819E+04 -9.645306E+03 -3.170131E+02  2.211857E+03
       141  27  9.924563E+04 -2.108097E+04 -2.190595E+04 -1.848895E+04 -8.943437E+02  3.791097E+03
       142   1  3.022823E+05  2.903235E+04  2.425893E+04 -1.875872E+04  3.573982E+03 -4.714258E+03
       142   2  3.352878E+05  3.711993E+04  2.942184E+04 -9.733978E+03  6.200897E+03 -6.292514E+03
       142   3  3.677073E+05  4.416338E+04  3.261744E+04 -1.843367E+04  8.828283E+03 -7.846975E+03
       142   4  1.846265E+05  5.373963E+01 -3.010847E+03 -1.854596E+04  2.466450E+03 -4.714282E+03
       142   5  1.849201E+05  1.094662E+02 -5.307620E+03 -9.683584E+03  5.109335E+03 -6.292662E+03
       142   6  1.846243E+05 -8.817171E+02 -9.583011E+03 -1.854592E+04  7.752554E+03 -7.847242E+03
       142   7  6.698342E+04 -2.892585E+04 -3.028155E+04 -1.833323E+04  1.359127E+03 -4.714306E+03
       142   8  3.457336E+04 -3.690258E+04 -4.003858E+04 -9.633202E+03  4.018035E+03 -6.292811E+03
       142   9  1.572322E+03 -4.592916E+04 -5.178568E+04 -1.865814E+04  6.677140E+03 -7.847509E+03
       142  10  3.022823E+05  2.903233E+04  2.425886E+04 -1.875871E+04 -8.966854E-10  3.909424E-10
       142  11  3.352877E+05  3.711987E+04  2.942169E+04 -9.733946E+03 -2.496483E-10  1.905775E-10
       142  12  3.677072E+05  4.416329E+04  3.261718E+04 -1.843362E+04 -1.067464E-09  2.035488E-10
       142  13  1.846265E+05  5.371413E+01 -3.010900E+03 -1.854595E+04  2.100331E-12  2.969574E-10
       142  14  1.849201E+05  1.094167E+02 -5.307743E+03 -9.683558E+03  2.095949E-09  1.680528E-10
       142  15  1.846242E+05 -8.817994E+02 -9.583240E+03 -1.854587E+04 -2.061375E-09  1.582933E-10
       142  16  6.698341E+04 -2.892587E+04 -3.028159E+04 -1.833323E+04 -1.767107E-09  2.820072E-10
       142  17  3.457333E+04 -3.690263E+04 -4.003868E+04 -9.633182E+03 -1.916855E-09  4.811646E-11
       142  18  1.572258E+03 -4.592924E+04 -5.178588E+04 -1.865809E+04 -9.120109E-11  3.238683E-10
       142  19  3.022823E+05  2.903235E+04  2.425893E+04 -1.875872E+04 -3.573982E+03  4.714258E+03
       142  20  3.352878E+05  3.711993E+04  2.942184E+04 -9.733978E+03 -6.200897E+03  6.292514E+03
       142  21  3.677073E+05  4.416338E+04  3.261744E+04 -1.843367E+04 -8.828283E+03  7.846975E+03
       142  22  1.846265E+05  5.373963E+01 -3.010847E+03 -1.854596E+04 -2.466450E+03  4.714282E+03
       142  23  1.849201E+05  1.094662E+02 -5.307620E+03 -9.683584E+03 -5.109335E+03  6.292662E+03
       142  24  1.846243E+05 -8.817171E+02 -9.583011E+03 -1.854592E+04 -7.752554E+03  7.847242E+03
       142  25  6.698342E+04 -2.892585E+04 -3.028155E+04 -1.833323E+04 -1.359127E+03  4.714306E+03
       142  26  3.457336E+04 -3.690258E+04 -4.003858E+04 -9.633202E+03 -4.018035E+03  6.292811E+03
       142  27  1.572322E+03 -4.592916E+04 -5.178568E+04 -1.865814E+04 -6.677140E+03  7.847509E+03
       143   1  3.990391E+05  5.366508E+04  3.739970E+04 -2.049440E+04  1.091500E+04 -8.826919E+03
       143   2  4.341452E+05  6.210281E+04  3.602296E+04 -8.640876E+03  2.136917E+04 -1.034115E+04
       143   3  4.646664E+05  5.743227E+04  2.457819E+04 -1.453731E+04  3.182434E+04 -1.137013E+04
       143   4  1.837193E+05  6.540019E+02 -1.241199E+04 -1.855277E+04  9.687924E+03 -8.827278E+03
       143   5  1.860418E+05  1.036149E+03 -2.129316E+04 -9.675583E+03  2.047602E+04 -1.034170E+04
       143   6  1.837175E+05 -1.175117E+04 -4.047737E+04 -1.854900E+04  3.126457E+04 -1.137089E+04
       143   7 -3.155762E+04 -5.236032E+04 -6.222677E+04 -1.661182E+04  8.461264E+03 -8.827645E+03
       143   8 -6.200474E+04 -6.003483E+04 -7.861338E+04 -1.070988E+04  1.958321E+04 -1.034226E+04
       143   9 -9.715841E+04 -8.094009E+04 -1.055382E+05 -2.255888E+04  3.070505E+04 -1.137165E+04
       143  10  3.990390E+05  5.366496E+04  3.739933E+04 -2.049432E+04  5.349699E-10  1.203707E-10
       143  11  4.341447E+05  6.210258E+04  3.602190E+04 -8.640698E+03  1.608632E-09 -2.484599E-10
       143  12  4.646653E+05  5.743186E+04  2.457604E+04 -1.453701E+04  7.001845E-11 -5.417969E-10
       143  13  1.837192E+05  6.538930E+02 -1.241231E+04 -1.855270E+04 -2.154092E-09  1.922396E-12
       143  14  1.860413E+05  1.035922E+03 -2.129415E+04 -9.675413E+03  2.193442E-09 -3.238978E-10
       143  15  1.837165E+05 -1.175157E+04 -4.047945E+04 -1.854872E+04 -1.174648E-09 -2.437162E-10
       143  16 -3.155772E+04 -5.236042E+04 -6.222705E+04 -1.661176E+04 -2.030665E-09  1.717678E-11
       143  17 -6.200518E+04 -6.003504E+04 -7.861430E+04 -1.070971E+04 -1.708174E-09  1.298592E-10
       143  18 -9.715946E+04 -8.094049E+04 -1.055402E+05 -2.255860E+04 -2.762322E-10  3.447533E-10
       143  19  3.990391E+05  5.366508E+04  3.739970E+04 -2.049440E+04 -1.091500E+04  8.826919E+03
       143  20  4.341452E+05  6.210281E+04  3.602296E+04 -8.640876E+03 -2.136917E+04  1.034115E+04
       143  21  4.646664E+05  5.743227E+04  2.457819E+04 -1.453731E+04 -3.182434E+04  1.137013E+04
       143  22  1.837193E+05  6.540019E+02 -1.241199E+04 -1.855277E+04 -9.687924E+03  8.827278E+03
       143  23  1.860418E+05  1.036149E+03 -2.129316E+04 -9.675583E+03 -2.047602E+04  1.034170E+04
       143  24  1.837175E+05 -1.175117E+04 -4.047737E+04 -1.854900E+04 -3.126457E+04  1.137089E+04
       143  25 -3.155762E+04 -5.236032E+04 -6.222677E+04 -1.661182E+04 -8.461264E+03  8.827645E+03
       143  26 -6.200474E+04 -6.003483E+04 -7.861338E+04 -1.070988E+04 -1.958321E+04  1.034226E+04
       143  27 -9.715841E+04 -8.094009E+04 -1.055382E+05 -2.255888E+04 -3.070505E+04  1.137165E+04
       144   1  4.877495E+05  8.534654E+04  2.204068E+04 -4.052660E+04  4.221914E+04 -1.343508E+04
       144   2  5.437099E+05  9.684643E+04 -2.618757E+03  9.525882E+03  7.995585E+04 -1.366081E+04
       144   3  5.537739E+05 -5.607441E+04 -9.290596E+04  4.216791E+04  1.176886E+05 -4.372968E+03
       144   4  1.742820E+05  8.252956E+03 -5.019778E+04 -1.850510E+04  3.872174E+04 -1.343559E+04
       144   5  1.978253E+05  1.162594E+04 -8.284841E+04 -9.746806E+03  8.305962E+04 -1.366194E+04
       144   6  1.742951E+05 -1.506233E+05 -1.857359E+05 -1.839978E+04  1.273909E+05 -4.377377E+03
       144   7 -1.390935E+05 -6.884567E+04 -1.224424E+05  3.505202E+03  3.522609E+04 -1.343634E+04
       144   8 -1.479481E+05 -7.360158E+04 -1.630859E+05 -2.900870E+04  8.616165E+04 -1.366326E+04
       144   9 -2.050446E+05 -2.451691E+05 -2.785740E+05 -7.893042E+04  1.370873E+05 -4.383682E+03
       144  10  4.877476E+05  8.534587E+04  2.203699E+04 -4.052614E+04  1.042733E-09 -1.206519E-09
       144  11  5.437030E+05  9.684451E+04 -2.631112E+03  9.526762E+03 -1.663703E-09 -2.501350E-09
       144  12  5.537590E+05 -5.607814E+04 -9.293200E+04  4.216833E+04 -2.018077E-09 -8.187175E-10
       144  13  1.742804E+05  8.252360E+03 -5.020093E+04 -1.850468E+04 -1.573372E-10 -2.282090E-09
       144  14  1.978178E+05  1.162389E+04 -8.286172E+04 -9.745893E+03  3.006925E-09  2.441412E-10
       144  15  1.742776E+05 -1.506277E+05 -1.857664E+05 -1.839933E+04  2.955930E-11 -3.728001E-10
       144  16 -1.390949E+05 -6.884620E+04 -1.224451E+05  3.505583E+03  1.164262E-09 -2.302656E-10
       144  17 -1.479561E+05 -7.360377E+04 -1.631002E+05 -2.900776E+04  1.249506E-09 -1.947120E-11
       144  18 -2.050648E+05 -2.451742E+05 -2.786093E+05 -7.892993E+04  2.049616E-09 -1.178148E-09
       144  19  4.877495E+05  8.534654E+04  2.204068E+04 -4.052660E+04 -4.221914E+04  1.343508E+04
       144  20  5.437099E+05  9.684643E+04 -2.618757E+03  9.525882E+03 -7.995585E+04  1.366081E+04
       144  21  5.537739E+05 -5.607441E+04 -9.290596E+04  4.216791E+04 -1.176886E+05  4.372968E+03
       144  22  1.742820E+05  8.252956E+03 -5.019778E+04 -1.850510E+04 -3.872174E+04  1.343559E+04
       144  23  1.978253E+05  1.162594E+04 -8.284841E+04 -9.746806E+03 -8.305962E+04  1.366194E+04
       144  24  1.742951E+05 -1.506233E+05 -1.857359E+05 -1.839978E+04 -1.273909E+05  4.377377E+03
       144  25 -1.390935E+05 -6.884567E+04 -1.224424E+05  3.505202E+03 -3.522609E+04  1.343634E+04
       144  26 -1.479481E+05 -7.360158E+04 -1.630859E+05 -2.900870E+04 -8.616165E+04  1.366326E+04
       144  27 -2.050446E+05 -2.451691E+05 -2.785740E+05 -7.893042E+04 -1.370873E+05  4.383682E+03
       145   1  3.624019E+05  1.221403E+06  3.605917E+05 -1.911729E+05  1.465039E+04  4.654494E+04
       145   2  2.599085E+05  8.920513E+05  2.547674E+05 -9.944172E+04  4.133761E+04  1.614215E+04
       145   3  1.812364E+05  5.727547E+05  1.746820E+05 -1.818175E+05  3.103335E+04 -1.429627E+04
       145   4  1.725740E+04 -1.653334E+05  2.079561E+04 -1.830967E+05  1.469266E+04  1.506224E+04
       145   5 -1.246449E+03 -1.679984E+05  8.616946E+03 -9.604760E+04  4.135190E+04  1.045964E+04
       145   6 -3.737271E+02 -1.651577E+05  4.301936E+03 -1.831213E+05  3.099205E+04  5.805554E+03
       145   7 -3.280288E+05 -1.550318E+06 -3.191376E+05 -1.750377E+05  1.473417E+04 -1.635041E+04
       145   8 -2.624806E+05 -1.227011E+06 -2.376090E+05 -9.265880E+04  4.136614E+04  4.786746E+03
       145   9 -1.820218E+05 -9.025661E+05 -1.661129E+05 -1.844232E+05  3.095064E+04  2.588368E+04
       145  10  3.624010E+05  1.221401E+06  3.605872E+05 -1.911735E+05  1.455893E-10  6.211386E-10
       145  11  2.599066E+05  8.920505E+05  2.547637E+05 -9.944226E+04 -5.974070E-10 -1.744698E-09
       145  12  1.812354E+05  5.727543E+05  1.746798E+05 -1.818171E+05 -2.896401E-10 -4.436606E-09
       145  13  1.725711E+04 -1.653337E+05  2.079477E+04 -1.830968E+05 -5.084344E-10  1.434495E-12
       145  14 -1.248314E+03 -1.679990E+05  8.613527E+03 -9.604794E+04  3.436847E-09 -1.606431E-09
       145  15 -3.747676E+02 -1.651580E+05  4.300067E+03 -1.831214E+05  4.745324E-11 -3.274004E-09
       145  16 -3.280291E+05 -1.550318E+06 -3.191385E+05 -1.750375E+05  1.749725E-09 -5.971394E-10
       145  17 -2.624824E+05 -1.227012E+06 -2.376122E+05 -9.265896E+04  4.612133E-09 -1.497626E-09
       145  18 -1.820231E+05 -9.025671E+05 -1.661160E+05 -1.844238E+05 -9.107074E-10  4.836849E-09
       145  19  3.624019E+05  1.221403E+06  3.605917E+05 -1.911729E+05 -1.465039E+04 -4.654494E+04
       145  20  2.599085E+05  8.920513E+05  2.547674E+05 -9.944172E+04 -4.133761E+04 -1.614215E+04
       145  21  1.812364E+05  5.727547E+05  1.746820E+05 -1.818175E+05 -3.103335E+04  1.429627E+04
       145  22  1.725740E+04 -1.653334E+05  2.079561E+04 -1.830967E+05 -1.469266E+04 -1.506224E+04
       145  23 -1.246449E+03 -1.679984E+05  8.616946E+03 -9.604760E+04 -4.135190E+04 -1.045964E+04
       145  24 -3.737271E+02 -1.651577E+05  4.301936E+03 -1.831213E+05 -3.099205E+04 -5.805554E+03
       145  25 -3.280288E+05 -1.550318E+06 -3.191376E+05 -1.750377E+05 -1.473417E+04  1.635041E+04
       145  26 -2.624806E+05 -1.227011E+06 -2.376090E+05 -9.265880E+04 -4.136614E+04 -4.786746E+03
       145  27 -1.820218E+05 -9.025661E+05 -1.661129E+05 -1.844232E+05 -3.095064E+04 -2.588368E+04
       146   1  1.051771E+05  2.518650E+05  9.947052E+04 -1.842115E+05  1.722122E+04 -3.958073E+03
       146   2  2.369634E+04 -7.175949E+04  2.086283E+04 -9.609581E+04  3.937218E+03 -3.674850E+03
       146   3 -5.771992E+04 -3.962016E+05 -5.812757E+04 -1.834479E+05 -9.579518E+03 -3.394443E+03
       146   4  2.150732E+03 -1.664985E+05  2.685550E+03 -1.834097E+05  1.720065E+04  5.206128E+03
       146   5  4.823041E+02 -1.660201E+05 -9.254699E+02 -9.567886E+04  3.915793E+03  5.649968E+03
       146   6 -1.141945E+03 -1.664832E+05 -5.023852E+03 -1.834173E+05 -9.602170E+03  6.091144E+03
       146   7 -1.008879E+05 -5.847001E+05 -9.411080E+04 -1.826084E+05  1.718010E+04  1.436420E+04
       146   8 -2.273231E+04 -2.602724E+05 -2.271404E+04 -9.526196E+04  3.894379E+03  1.497338E+04
       146   9  5.543237E+04  6.328425E+04  4.807668E+04 -1.833866E+05 -9.624817E+03  1.558022E+04
       146  10  1.051768E+05  2.518649E+05  9.946993E+04 -1.842115E+05  8.845963E-11 -5.914903E-10
       146  11  2.369632E+04 -7.175951E+04  2.086278E+04 -9.609580E+04  1.402477E-09 -2.101792E-09
       146  12 -5.772002E+04 -3.962017E+05 -5.812776E+04 -1.834479E+05 -2.077105E-09 -4.932994E-09
       146  13  2.150407E+03 -1.664986E+05  2.684943E+03 -1.834098E+05 -1.205303E-10  6.044025E-11
       146  14  4.822790E+02 -1.660202E+05 -9.255587E+02 -9.567888E+04  3.315765E-09 -2.297092E-09
       146  15 -1.142054E+03 -1.664833E+05 -5.024095E+03 -1.834172E+05 -1.865523E-09 -3.659613E-09
       146  16 -1.008883E+05 -5.847004E+05 -9.411175E+04 -1.826085E+05 -2.206499E-09  5.895732E-10
       146  17 -2.273238E+04 -2.602726E+05 -2.271449E+04 -9.526201E+04  1.196145E-09 -2.431182E-09
       146  18  5.543220E+04  6.328397E+04  4.807605E+04 -1.833865E+05 -1.138328E-09  5.373801E-09
       146  19  1.051771E+05  2.518650E+05  9.947052E+04 -1.842115E+05 -1.722122E+04  3.958073E+03
       146  20  2.369634E+04 -7.175949E+04  2.086283E+04 -9.609581E+04 -3.937218E+03  3.674850E+03
       146  21 -5.771992E+04 -3.962016E+05 -5.812757E+04 -1.834479E+05  9.579518E+03  3.394443E+03
       146  22  2.150732E+03 -1.664985E+05  2.685550E+03 -1.834097E+05 -1.720065E+04 -5.206128E+03
       146  23  4.823041E+02 -1.660201E+05 -9.254699E+02 -9.567886E+04 -3.915793E+03 -5.649968E+03
       146  24 -1.141945E+03 -1.664832E+05 -5.023852E+03 -1.834173E+05  9.602170E+03 -6.091144E+03
       146  25 -1.008879E+05 -5.847001E+05 -9.411080E+04 -1.826084E+05 -1.718010E+04 -1.436420E+04
       146  26 -2.273231E+04 -2.602724E+05 -2.271404E+04 -9.526196E+04 -3.894379E+03 -1.497338E+04
       146  27  5.543237E+04  6.328425E+04  4.807668E+04 -1.833866E+05  9.624817E+03 -1.558022E+04
       147   1 -1.330746E+05 -7.169351E+05 -1.338375E+05 -1.787183E+05 -2.283880E+04 -1.193162E+04
       147   2 -2.127945E+05 -1.035271E+06 -2.152669E+05 -9.784253E+04 -3.389133E+04  1.745826E+04
       147   3 -3.217985E+05 -1.364922E+06 -3.232528E+05 -1.913388E+05 -1.243285E+04  4.688606E+04
       147   4  2.181410E+03 -1.679957E+05 -6.888391E+03 -1.831550E+05 -2.288119E+04  7.014784E+03
       147   5  2.014597E+03 -1.643336E+05 -1.272112E+04 -9.599562E+04 -3.388119E+04  1.381476E+04
       147   6 -2.348189E+04 -1.681437E+05 -2.939093E+04 -1.831967E+05 -1.238984E+04  2.066862E+04
       147   7  1.374165E+05  3.812232E+05  1.200419E+05 -1.875954E+05 -2.292382E+04  2.597782E+04
       147   8  2.167702E+05  7.073051E+05  1.897736E+05 -9.414573E+04 -3.387107E+04  1.016617E+04
       147   9  2.747290E+05  1.029943E+06  2.643682E+05 -1.750382E+05 -1.234757E+04 -5.599384E+03
       147  10 -1.330752E+05 -7.169354E+05 -1.338387E+05 -1.787185E+05 -3.170442E-09 -1.044901E-09
       147  11 -2.127958E+05 -1.035272E+06 -2.152696E+05 -9.784205E+04 -2.699451E-10 -7.134909E-10
       147  12 -3.217992E+05 -1.364925E+06 -3.232572E+05 -1.913383E+05 -1.982187E-10 -1.394446E-09
       147  13  2.180835E+03 -1.679959E+05 -6.889467E+03 -1.831548E+05 -2.166429E-09 -1.602746E-11
       147  14  2.013313E+03 -1.643341E+05 -1.272364E+04 -9.599524E+04  1.644653E-09 -1.813768E-09
       147  15 -2.348217E+04 -1.681442E+05 -2.939202E+04 -1.831965E+05  1.052981E-09 -2.241638E-09
       147  16  1.374158E+05  3.812223E+05  1.200397E+05 -1.875949E+05 -1.845765E-10  1.019455E-09
       147  17  2.167689E+05  7.073047E+05  1.897712E+05 -9.414545E+04  8.243436E-10 -2.899683E-09
       147  18  2.747288E+05  1.029942E+06  2.643679E+05 -1.750382E+05  4.171778E-10  1.576002E-09
       147  19 -1.330746E+05 -7.169351E+05 -1.338375E+05 -1.787183E+05  2.283880E+04  1.193162E+04
       147  20 -2.127945E+05 -1.035271E+06 -2.152669E+05 -9.784253E+04  3.389133E+04 -1.745826E+04
       147  21 -3.217985E+05 -1.364922E+06 -3.232528E+05 -1.913388E+05  1.243285E+04 -4.688606E+04
       147  22  2.181410E+03 -1.679957E+05 -6.888391E+03 -1.831550E+05  2.288119E+04 -7.014784E+03
       147  23  2.014597E+03 -1.643336E+05 -1.272112E+04 -9.599562E+04  3.388119E+04 -1.381476E+04
       147  24 -2.348189E+04 -1.681437E+05 -2.939093E+04 -1.831967E+05  1.238984E+04 -2.066862E+04
       147  25  1.374165E+05  3.812232E+05  1.200419E+05 -1.875954E+05  2.292382E+04 -2.597782E+04
       147  26  2.167702E+05  7.073051E+05  1.897736E+05 -9.414573E+04  3.387107E+04 -1.016617E+04
       147  27  2.747290E+05  1.029943E+06  2.643682E+05 -1.750382E+05  1.234757E+04  5.599384E+03
       148   1 -9.835332E+05 -3.307361E+05 -1.936399E+05 -3.573443E+05 -7.467519E+04 -2.326001E+04
       148   2 -9.447099E+05 -2.130870E+05 -1.206559E+05 -3.474871E+05 -4.844608E+04 -3.754587E+03
       148   3 -9.266854E+05 -1.971236E+05 -9.316258E+04 -3.332878E+05 -1.871990E+04  6.452800E+03
       148   4 -6.630321E+05 -1.814043E+05 -1.015444E+05 -2.407453E+05 -6.616869E+04 -2.006776E+04
       148   5 -6.478430E+05 -9.306072E+04 -4.308746E+04 -2.572254E+05 -4.597996E+04 -2.829566E+03
       148   6 -6.522390E+05 -1.051814E+05 -2.531357E+04 -2.693685E+05 -2.229664E+04  5.109823E+03
       148   7 -3.424279E+05 -3.204904E+04 -9.458104E+03 -1.240861E+05 -5.765733E+04 -1.687268E+04
       148   8 -3.508889E+05  2.697556E+04  3.447367E+04 -1.669228E+05 -4.351254E+04 -1.903967E+03
       148   9 -3.777191E+05 -1.323790E+04  4.252983E+04 -2.054252E+05 -2.587512E+04  3.766351E+03
       148  10 -9.835394E+05 -3.307382E+05 -1.936514E+05 -3.573457E+05 -3.652038E-10  4.790438E-10
       148  11 -9.447125E+05 -2.130877E+05 -1.206603E+05 -3.474873E+05 -1.617439E-09  4.610687E-10
       148  12 -9.266858E+05 -1.971237E+05 -9.316331E+04 -3.332877E+05  3.229481E-09  7.760343E-10
       148  13 -6.630369E+05 -1.814059E+05 -1.015534E+05 -2.407464E+05 -9.775030E-10  5.466287E-11
       148  14 -6.478452E+05 -9.306130E+04 -4.309145E+04 -2.572255E+05 -1.528839E-09  4.477054E-10
       148  15 -6.522396E+05 -1.051816E+05 -2.531455E+04 -2.693684E+05  4.567460E-09  5.231786E-10
       148  16 -3.424315E+05 -3.205024E+04 -9.464890E+03 -1.240869E+05  7.542860E-10 -7.294114E-10
       148  17 -3.508910E+05  2.697505E+04  3.447010E+04 -1.669229E+05 -9.803493E-10 -2.216679E-10
       148  18 -3.777198E+05 -1.323810E+04  4.252854E+04 -2.054251E+05  2.484435E-09  9.647515E-10
       148  19 -9.835332E+05 -3.307361E+05 -1.936399E+05 -3.573443E+05  7.467519E+04  2.326001E+04
       148  20 -9.447099E+05 -2.130870E+05 -1.206559E+05 -3.474871E+05  4.844608E+04  3.754587E+03
       148  21 -9.266854E+05 -1.971236E+05 -9.316258E+04 -3.332878E+05  1.871990E+04 -6.452800E+03
       148  22 -6.630321E+05 -1.814043E+05 -1.015444E+05 -2.407453E+05  6.616869E+04  2.006776E+04
       148  23 -6.478430E+05 -9.306072E+04 -4.308746E+04 -2.572254E+05  4.597996E+04  2.829566E+03
       148  24 -6.522390E+05 -1.051814E+05 -2.531357E+04 -2.693685E+05  2.229664E+04 -5.109823E+03
       148  25 -3.424279E+05 -3.204904E+04 -9.458104E+03 -1.240861E+05  5.765733E+04  1.687268E+04
       148  26 -3.508889E+05  2.697556E+04  3.447367E+04 -1.669228E+05  4.351254E+04  1.903967E+03
       148  27 -3.777191E+05 -1.323790E+04  4.252983E+04 -2.054252E+05  2.587512E+04 -3.766351E+03
       149   1 -8.748641E+05 -2.013107E+05 -7.852742E+04 -3.278605E+05 -1.730555E+04  4.378205E+03
       149   2 -8.440354E+05 -1.712922E+05 -5.852748E+04 -3.092814E+05 -1.126115E+04  5.111755E+03
       149   3 -8.008189E+05 -1.644525E+05 -4.463965E+04 -3.070982E+05 -5.021941E+03  5.325479E+03
       149   4 -6.488778E+05 -1.146284E+05 -2.037154E+04 -2.639709E+05 -1.801586E+04  4.111225E+03
       149   5 -6.546506E+05 -9.987296E+04 -1.012870E+04 -2.569721E+05 -1.230794E+04  4.718718E+03
       149   6 -6.479692E+05 -1.082281E+05 -5.729247E+03 -2.663699E+05 -6.405572E+03  4.806308E+03
       149   7 -4.228424E+05 -2.794240E+04  3.777988E+04 -2.000603E+05 -1.872646E+04  3.844133E+03
       149   8 -4.652309E+05 -2.845128E+04  3.826716E+04 -2.046484E+05 -1.335508E+04  4.325549E+03
       149   9 -4.950962E+05 -5.200212E+04  3.317943E+04 -2.256324E+05 -7.789581E+03  4.287001E+03
       149  10 -8.748645E+05 -2.013108E+05 -7.852802E+04 -3.278605E+05  3.104009E-09  7.578015E-10
       149  11 -8.440355E+05 -1.712923E+05 -5.852777E+04 -3.092813E+05  3.055150E-09 -1.110612E-09
       149  12 -8.008190E+05 -1.644526E+05 -4.463975E+04 -3.070982E+05 -7.593388E-10 -3.372764E-10
       149  13 -6.488782E+05 -1.146285E+05 -2.037219E+04 -2.639709E+05  3.029495E-09  4.245115E-10
       149  14 -6.546508E+05 -9.987302E+04 -1.012903E+04 -2.569721E+05 -4.944922E-10 -1.023969E-09
       149  15 -6.479693E+05 -1.082281E+05 -5.729367E+03 -2.663698E+05 -3.134690E-10  2.327636E-10
       149  16 -4.228428E+05 -2.794251E+04  3.777919E+04 -2.000602E+05  2.073715E-09 -6.180172E-12
       149  17 -4.652311E+05 -2.845134E+04  3.826679E+04 -2.046484E+05 -5.772979E-10 -5.137131E-10
       149  18 -4.950963E+05 -5.200215E+04  3.317928E+04 -2.256324E+05  6.027066E-10  7.751191E-10
       149  19 -8.748641E+05 -2.013107E+05 -7.852742E+04 -3.278605E+05  1.730555E+04 -4.378205E+03
       149  20 -8.440354E+05 -1.712922E+05 -5.852748E+04 -3.092814E+05  1.126115E+04 -5.111755E+03
       149  21 -8.008189E+05 -1.644525E+05 -4.463965E+04 -3.070982E+05  5.021941E+03 -5.325479E+03
       149  22 -6.488778E+05 -1.146284E+05 -2.037154E+04 -2.639709E+05  1.801586E+04 -4.111225E+03
       149  23 -6.546506E+05 -9.987296E+04 -1.012870E+04 -2.569721E+05  1.230794E+04 -4.718718E+03
       149  24 -6.479692E+05 -1.082281E+05 -5.729247E+03 -2.663699E+05  6.405572E+03 -4.806308E+03
       149  25 -4.228424E+05 -2.794240E+04  3.777988E+04 -2.000603E+05  1.872646E+04 -3.844133E+03
       149  26 -4.652309E+05 -2.845128E+04  3.826716E+04 -2.046484E+05  1.335508E+04 -4.325549E+03
       149  27 -4.950962E+05 -5.200212E+04  3.317943E+04 -2.256324E+05  7.789581E+03 -4.287001E+03
       150   1 -7.602112E+05 -1.512301E+05 -3.303054E+04 -2.967922E+05 -3.918880E+03  4.384562E+03
       150   2 -7.300580E+05 -1.284223E+05 -2.144491E+04 -2.773506E+05 -1.979856E+03  2.943078E+03
       150   3 -6.843454E+05 -1.221955E+05 -1.093886E+04 -2.760629E+05 -2.936610E+01  1.470322E+03
       150   4 -6.475917E+05 -1.090178E+05 -4.425747E+03 -2.659181E+05 -5.146832E+03  3.923893E+03
       150   5 -6.553347E+05 -1.004666E+05 -2.395516E+03 -2.569391E+05 -3.227944E+03  2.474946E+03
       150   6 -6.475156E+05 -1.084921E+05 -1.428562E+03 -2.661144E+05 -1.297678E+03  9.947057E+02
       150   7 -5.349598E+05 -6.680474E+04  2.417802E+04 -2.350389E+05 -6.375026E+03  3.463132E+03
       150   8 -5.806062E+05 -7.251064E+04  1.665339E+04 -2.365255E+05 -4.476194E+03  2.006753E+03
       150   9 -6.106847E+05 -9.478870E+04  8.081596E+03 -2.561654E+05 -2.566067E+03  5.190603E+02
       150  10 -7.602112E+05 -1.512301E+05 -3.303060E+04 -2.967922E+05  1.419102E-09  1.001484E-09
       150  11 -7.300580E+05 -1.284223E+05 -2.144493E+04 -2.773506E+05  2.567442E-11 -9.189595E-11
       150  12 -6.843454E+05 -1.221955E+05 -1.093887E+04 -2.760629E+05  5.762461E-10 -8.519329E-10
       150  13 -6.475917E+05 -1.090178E+05 -4.425825E+03 -2.659181E+05  1.057397E-09  7.321721E-10
       150  14 -6.553347E+05 -1.004666E+05 -2.395547E+03 -2.569391E+05 -4.013357E-09 -1.447010E-10
       150  15 -6.475156E+05 -1.084921E+05 -1.428567E+03 -2.661144E+05 -2.300490E-09 -5.616257E-10
       150  16 -5.349598E+05 -6.680476E+04  2.417793E+04 -2.350389E+05 -1.449184E-09  3.729031E-10
       150  17 -5.806062E+05 -7.251065E+04  1.665335E+04 -2.365255E+05 -1.837693E-09 -2.146955E-10
       150  18 -6.106847E+05 -9.478870E+04  8.081583E+03 -2.561654E+05 -1.969154E-10 -3.200561E-10
       150  19 -7.602112E+05 -1.512301E+05 -3.303054E+04 -2.967922E+05  3.918880E+03 -4.384562E+03
       150  20 -7.300580E+05 -1.284223E+05 -2.144491E+04 -2.773506E+05  1.979856E+03 -2.943078E+03
       150  21 -6.843454E+05 -1.221955E+05 -1.093886E+04 -2.760629E+05  2.936610E+01 -1.470322E+03
       150  22 -6.475917E+05 -1.090178E+05 -4.425747E+03 -2.659181E+05  5.146832E+03 -3.923893E+03
       150  23 -6.553347E+05 -1.004666E+05 -2.395516E+03 -2.569391E+05  3.227944E+03 -2.474946E+03
       150  24 -6.475156E+05 -1.084921E+05 -1.428562E+03 -2.661144E+05  1.297678E+03 -9.947057E+02
       150  25 -5.349598E+05 -6.680474E+04  2.417802E+04 -2.350389E+05  6.375026E+03 -3.463132E+03
       150  26 -5.806062E+05 -7.251064E+04  1.665339E+04 -2.365255E+05  4.476194E+03 -2.006753E+03
       150  27 -6.106847E+05 -9.478870E+04  8.081596E+03 -2.561654E+05  2.566067E+03 -5.190603E+02
       151   1 -6.446168E+05 -1.074575E+05 -2.944182E+02 -2.653016E+05  5.994302E+02  4.157220E+02
       151   2 -6.145466E+05 -8.523499E+04  9.543185E+03 -2.457746E+05  1.760798E+03 -1.355962E+03
       151   3 -5.685955E+05 -7.904377E+04  1.903924E+04 -2.445326E+05  2.922312E+03 -3.127502E+03
       151   4 -6.474705E+05 -1.085527E+05 -1.162498E+03 -2.660753E+05 -6.605228E+02 -5.674732E+01
       151   5 -6.554083E+05 -1.005226E+05 -8.728117E+02 -2.569379E+05  5.008582E+02 -1.828483E+03
       151   6 -6.474676E+05 -1.085244E+05 -9.248725E+02 -2.660864E+05  1.662347E+03 -3.600073E+03
       151   7 -6.503242E+05 -1.096480E+05 -2.030578E+03 -2.668491E+05 -1.920477E+03 -5.292172E+02
       151   8 -6.962683E+05 -1.158101E+05 -1.128891E+04 -2.681006E+05 -7.589884E+02 -2.300969E+03
       151   9 -7.263327E+05 -1.380043E+05 -2.088925E+04 -2.876375E+05  4.025699E+02 -4.072573E+03
       151  10 -6.446168E+05 -1.074575E+05 -2.944192E+02 -2.653016E+05  1.013663E-09 -8.244993E-10
       151  11 -6.145466E+05 -8.523500E+04  9.543176E+03 -2.457746E+05 -1.711413E-10 -5.629482E-10
       151  12 -5.685955E+05 -7.904378E+04  1.903921E+04 -2.445326E+05 -9.088832E-10 -4.559320E-10
       151  13 -6.474705E+05 -1.085527E+05 -1.162499E+03 -2.660753E+05 -1.834971E-09 -7.638643E-10
       151  14 -6.554083E+05 -1.005226E+05 -8.728184E+02 -2.569379E+05 -7.991631E-10 -8.120677E-10
       151  15 -6.474676E+05 -1.085244E+05 -9.249020E+02 -2.660864E+05 -2.770522E-09 -5.514345E-10
       151  16 -6.503242E+05 -1.096480E+05 -2.030585E+03 -2.668491E+05 -1.670832E-09 -7.817320E-10
       151  17 -6.962683E+05 -1.158101E+05 -1.128892E+04 -2.681006E+05 -5.959648E-10 -1.193612E-09
       151  18 -7.263327E+05 -1.380044E+05 -2.088928E+04 -2.876375E+05  7.886731E-10 -5.797503E-10
       151  19 -6.446168E+05 -1.074575E+05 -2.944182E+02 -2.653016E+05 -5.994302E+02 -4.157220E+02
       151  20 -6.145466E+05 -8.523499E+04  9.543185E+03 -2.457746E+05 -1.760798E+03  1.355962E+03
       151  21 -5.685955E+05 -7.904377E+04  1.903924E+04 -2.445326E+05 -2.922312E+03  3.127502E+03
       151  22 -6.474705E+05 -1.085527E+05 -1.162498E+03 -2.660753E+05  6.605228E+02  5.674732E+01
       151  23 -6.554083E+05 -1.005226E+05 -8.728117E+02 -2.569379E+05 -5.008582E+02  1.828483E+03
       151  24 -6.474676E+05 -1.085244E+05 -9.248725E+02 -2.660864E+05 -1.662347E+03  3.600073E+03
       151  25 -6.503242E+05 -1.096480E+05 -2.030578E+03 -2.668491E+05  1.920477E+03  5.292172E+02
       151  26 -6.962683E+05 -1.158101E+05 -1.128891E+04 -2.681006E+05  7.589884E+02  2.300969E+03
       151  27 -7.263327E+05 -1.380043E+05 -2.088925E+04 -2.876375E+05 -4.025699E+02  4.072573E+03
       152   1 -5.290714E+05 -6.420217E+04  2.925969E+04 -2.337624E+05  3.507261E+03 -4.192131E+03
       152   2 -4.991580E+05 -4.211696E+04  3.816294E+04 -2.143041E+05  5.049899E+03 -5.812549E+03
       152   3 -4.535093E+05 -3.607084E+04  4.642051E+04 -2.130160E+05  6.589910E+03 -7.424011E+03
       152   4 -6.474977E+05 -1.084982E+05 -1.061563E+03 -2.660722E+05  2.248940E+03 -4.664164E+03
       152   5 -6.553746E+05 -1.005409E+05 -1.651726E+03 -2.569637E+05  3.797081E+03 -6.282722E+03
       152   6 -6.475181E+05 -1.086241E+05 -2.891854E+03 -2.660262E+05  5.342542E+03 -7.892340E+03
       152   7 -7.659110E+05 -1.527936E+05 -3.138411E+04 -2.983767E+05  9.908755E+02 -5.136100E+03
       152   8 -8.115688E+05 -1.589638E+05 -4.146873E+04 -2.996140E+05  2.544597E+03 -6.752770E+03
       152   9 -8.414926E+05 -1.811758E+05 -5.220791E+04 -3.190221E+05  4.095585E+03 -8.360515E+03
       152  10 -5.290714E+05 -6.420219E+04  2.925963E+04 -2.337624E+05  4.495983E-10 -3.678510E-10
       152  11 -4.991580E+05 -4.211700E+04  3.816283E+04 -2.143041E+05  2.888412E-09 -6.089598E-10
       152  12 -4.535093E+05 -3.607091E+04  4.642032E+04 -2.130160E+05  1.901058E-10  1.117888E-09
       152  13 -6.474978E+05 -1.084982E+05 -1.061613E+03 -2.660722E+05 -4.999802E-11 -5.338424E-10
       152  14 -6.553746E+05 -1.005409E+05 -1.651827E+03 -2.569637E+05  6.799586E-10 -1.058310E-10
       152  15 -6.475182E+05 -1.086241E+05 -2.892025E+03 -2.660262E+05  4.518494E-09  1.425426E-09
       152  16 -7.659110E+05 -1.527936E+05 -3.138416E+04 -2.983767E+05 -3.868529E-10 -6.812003E-10
       152  17 -8.115688E+05 -1.589638E+05 -4.146883E+04 -2.996140E+05  1.484582E-09  5.782470E-11
       152  18 -8.414927E+05 -1.811759E+05 -5.220807E+04 -3.190220E+05  4.735385E-09  2.086144E-09
       152  19 -5.290714E+05 -6.420217E+04  2.925969E+04 -2.337624E+05 -3.507261E+03  4.192131E+03
       152  20 -4.991580E+05 -4.211696E+04  3.816294E+04 -2.143041E+05 -5.049899E+03  5.812549E+03
       152  21 -4.535093E+05 -3.607084E+04  4.642051E+04 -2.130160E+05 -6.589910E+03  7.424011E+03
       152  22 -6.474977E+05 -1.084982E+05 -1.061563E+03 -2.660722E+05 -2.248940E+03  4.664164E+03
       152  23 -6.553746E+05 -1.005409E+05 -1.651726E+03 -2.569637E+05 -3.797081E+03  6.282722E+03
       152  24 -6.475181E+05 -1.086241E+05 -2.891854E+03 -2.660262E+05 -5.342542E+03  7.892340E+03
       152  25 -7.659110E+05 -1.527936E+05 -3.138411E+04 -2.983767E+05 -9.908755E+02  5.136100E+03
       152  26 -8.115688E+05 -1.589638E+05 -4.146873E+04 -2.996140E+05 -2.544597E+03  6.752770E+03
       152  27 -8.414926E+05 -1.811758E+05 -5.220791E+04 -3.190221E+05 -4.095585E+03  8.360515E+03
       153   1 -4.143346E+05 -2.134760E+04  5.578225E+04 -2.026246E+05  7.567506E+03 -8.334926E+03
       153   2 -3.846502E+05  8.262304E+02  6.218027E+04 -1.830480E+05  1.165440E+04 -8.969721E+03
       153   3 -3.403291E+05  5.488544E+03  6.559736E+04 -1.810888E+05  1.572222E+04 -9.550408E+03
       153   4 -6.476937E+05 -1.084160E+05 -3.787535E+03 -2.661073E+05  6.311128E+03 -8.806808E+03
       153   5 -6.551194E+05 -1.004222E+05 -6.768121E+03 -2.570122E+05  1.043161E+04 -9.429320E+03
       153   6 -6.479163E+05 -1.099474E+05 -1.275706E+04 -2.655352E+05  1.453282E+04 -9.997791E+03
       153   7 -8.809971E+05 -1.954800E+05 -6.336104E+04 -3.295678E+05  5.055281E+03 -9.278493E+03
       153   8 -9.255154E+05 -2.016654E+05 -7.572198E+04 -3.309468E+05  9.209416E+03 -9.888698E+03
       153   9 -9.554108E+05 -2.253769E+05 -9.111903E+04 -3.499435E+05  1.334406E+04 -1.044493E+04
       153  10 -4.143347E+05 -2.134769E+04  5.578201E+04 -2.026246E+05  4.290440E-09  1.742091E-09
       153  11 -3.846504E+05  8.261076E+02  6.217986E+04 -1.830479E+05  1.256680E-09 -1.679418E-09
       153  12 -3.403294E+05  5.488380E+03  6.559673E+04 -1.810887E+05 -7.343418E-10 -7.151604E-10
       153  13 -6.476937E+05 -1.084161E+05 -3.787755E+03 -2.661073E+05  3.888253E-09  1.197014E-09
       153  14 -6.551195E+05 -1.004224E+05 -6.768492E+03 -2.570121E+05 -1.818057E-10 -1.482743E-10
       153  15 -6.479166E+05 -1.099475E+05 -1.275765E+04 -2.655350E+05 -7.792321E-10 -5.082680E-10
       153  16 -8.809972E+05 -1.954801E+05 -6.336125E+04 -3.295678E+05  2.277339E-09  3.359339E-10
       153  17 -9.255155E+05 -2.016655E+05 -7.572232E+04 -3.309468E+05  8.691015E-10 -4.125998E-10
       153  18 -9.554110E+05 -2.253770E+05 -9.111957E+04 -3.499433E+05  8.671030E-10  4.820007E-10
       153  19 -4.143346E+05 -2.134760E+04  5.578225E+04 -2.026246E+05 -7.567506E+03  8.334926E+03
       153  20 -3.846502E+05  8.262304E+02  6.218027E+04 -1.830480E+05 -1.165440E+04  8.969721E+03
       153  21 -3.403291E+05  5.488544E+03  6.559736E+04 -1.810888E+05 -1.572222E+04  9.550408E+03
       153  22 -6.476937E+05 -1.084160E+05 -3.787535E+03 -2.661073E+05 -6.311128E+03  8.806808E+03
       153  23 -6.551194E+05 -1.004222E+05 -6.768121E+03 -2.570122E+05 -1.043161E+04  9.429320E+03
       153  24 -6.479163E+05 -1.099474E+05 -1.275706E+04 -2.655352E+05 -1.453282E+04  9.997791E+03
       153  25 -8.809971E+05 -1.954800E+05 -6.336104E+04 -3.295678E+05 -5.055281E+03  9.278493E+03
       153  26 -9.255154E+05 -2.016654E+05 -7.572198E+04 -3.309468E+05 -9.209416E+03  9.888698E+03
       153  27 -9.554108E+05 -2.253769E+05 -9.111903E+04 -3.499435E+05 -1.334406E+04  1.044493E+04
       154   1 -3.005457E+05  1.996954E+04  7.184138E+04 -1.744876E+05  1.875491E+04 -9.775031E+03
       154   2 -2.713499E+05  4.593245E+04  6.824614E+04 -1.509394E+05  3.401591E+04 -6.071516E+03
       154   3 -2.364278E+05  3.543979E+04  4.809896E+04 -1.399671E+05  4.897924E+04 -1.569900E+03
       154   4 -6.490033E+05 -1.076679E+05 -1.657530E+04 -2.668656E+05  1.733067E+04 -1.031084E+04
       154   5 -6.531348E+05 -9.867317E+04 -2.940324E+04 -2.570876E+05  3.310191E+04 -6.416153E+03
       154   6 -6.516489E+05 -1.262455E+05 -5.919606E+04 -2.598866E+05  4.857451E+04 -1.723709E+03
       154   7 -9.973439E+05 -2.352993E+05 -1.050021E+05 -3.591977E+05  1.590729E+04 -1.084634E+04
       154   8 -1.034778E+06 -2.432688E+05 -1.270648E+05 -3.631767E+05  3.218851E+04 -6.760555E+03
       154   9 -1.066702E+06 -2.879161E+05 -1.665055E+05 -3.797322E+05  4.817007E+04 -1.877401E+03
       154  10 -3.005461E+05  1.996934E+04  7.184054E+04 -1.744875E+05  2.219465E-09  7.911628E-10
       154  11 -2.713511E+05  4.593210E+04  6.824390E+04 -1.509392E+05  7.222245E-10 -1.502036E-09
       154  12 -2.364304E+05  3.543915E+04  4.809445E+04 -1.399670E+05 -9.445829E-10 -3.247588E-09
       154  13 -6.490036E+05 -1.076681E+05 -1.657607E+04 -2.668655E+05  7.802280E-12  1.129379E-10
       154  14 -6.531360E+05 -9.867351E+04 -2.940538E+04 -2.570875E+05  2.956548E-10 -1.167371E-09
       154  15 -6.516514E+05 -1.262462E+05 -5.920051E+04 -2.598865E+05 -5.120230E-10 -3.695287E-09
       154  16 -9.973442E+05 -2.352995E+05 -1.050028E+05 -3.591975E+05 -9.944596E-10  9.681146E-10
       154  17 -1.034779E+06 -2.432692E+05 -1.270668E+05 -3.631765E+05 -2.225308E-09 -2.603467E-10
       154  18 -1.066704E+06 -2.879168E+05 -1.665098E+05 -3.797321E+05 -4.215693E-09 -1.644213E-09
       154  19 -3.005457E+05  1.996954E+04  7.184138E+04 -1.744876E+05 -1.875491E+04  9.775031E+03
       154  20 -2.713499E+05  4.593245E+04  6.824614E+04 -1.509394E+05 -3.401591E+04  6.071516E+03
       154  21 -2.364278E+05  3.543979E+04  4.809896E+04 -1.399671E+05 -4.897924E+04  1.569900E+03
       154  22 -6.490033E+05 -1.076679E+05 -1.657530E+04 -2.668656E+05 -1.733067E+04  1.031084E+04
       154  23 -6.531348E+05 -9.867317E+04 -2.940324E+04 -2.570876E+05 -3.310191E+04  6.416153E+03
       154  24 -6.516489E+05 -1.262455E+05 -5.919606E+04 -2.598866E+05 -4.857451E+04  1.723709E+03
       154  25 -9.973439E+05 -2.352993E+05 -1.050021E+05 -3.591977E+05 -1.590729E+04  1.084634E+04
       154  26 -1.034778E+06 -2.432688E+05 -1.270648E+05 -3.631767E+05 -3.218851E+04  6.760555E+03
       154  27 -1.066702E+06 -2.879161E+05 -1.665055E+05 -3.797322E+05 -4.817007E+04  1.877401E+03
       155   1 -1.809357E+05  4.964758E+04  4.280414E+04 -1.764393E+05  6.436217E+04  9.573498E+02
       155   2 -1.597198E+05  1.247354E+05  6.907981E+02 -1.013397E+05  1.231779E+05  2.288224E+04
       155   3 -2.237625E+05 -6.012386E+04 -1.523490E+05  2.091014E+04  1.766621E+05  5.897187E+04
       155   4 -6.612814E+05 -9.893232E+04 -7.357138E+04 -2.757516E+05  5.959354E+04 -8.350678E+02
       155   5 -6.334582E+05 -7.868579E+04 -1.252264E+05 -2.576436E+05  1.275827E+05  2.453391E+04
       155   6 -6.927967E+05 -3.203386E+05 -2.951494E+05 -1.923662E+05  1.902374E+05  6.405906E+04
       155   7 -1.141401E+06 -2.475129E+05 -1.899630E+05 -3.750022E+05  5.482894E+04 -2.626573E+03
       155   8 -1.106972E+06 -2.820708E+05 -2.511622E+05 -4.138314E+05  1.319838E+05  2.618370E+04
       155   9 -1.161594E+06 -5.804474E+05 -4.379678E+05 -4.054691E+05  2.038012E+05  6.913735E+04
       155  10 -1.809402E+05  4.964646E+04  4.279635E+04 -1.764394E+05 -3.289933E-09 -2.439040E-09
       155  11 -1.597363E+05  1.247307E+05  6.612906E+02 -1.013420E+05 -6.431678E-11  1.356563E-09
       155  12 -2.237969E+05 -6.013597E+04 -1.524143E+05  2.090174E+04  1.249192E-09  3.739346E-10
       155  13 -6.612852E+05 -9.893327E+04 -7.357806E+04 -2.757515E+05 -1.436449E-09 -2.492528E-09
       155  14 -6.334758E+05 -7.869081E+04 -1.252582E+05 -2.576461E+05 -6.765784E-11 -9.333450E-10
       155  15 -6.928367E+05 -3.203527E+05 -2.952252E+05 -1.923760E+05  7.744971E-11  2.719215E-09
       155  16 -1.141404E+06 -2.475137E+05 -1.899687E+05 -3.750021E+05 -1.487239E-09 -4.779739E-10
       155  17 -1.106991E+06 -2.820762E+05 -2.511963E+05 -4.138342E+05  8.167108E-10  2.599025E-09
       155  18 -1.161640E+06 -5.804637E+05 -4.380550E+05 -4.054805E+05 -1.005913E-09 -9.719606E-10
       155  19 -1.809357E+05  4.964758E+04  4.280414E+04 -1.764393E+05 -6.436217E+04 -9.573498E+02
       155  20 -1.597198E+05  1.247354E+05  6.907981E+02 -1.013397E+05 -1.231779E+05 -2.288224E+04
       155  21 -2.237625E+05 -6.012386E+04 -1.523490E+05  2.091014E+04 -1.766621E+05 -5.897187E+04
       155  22 -6.612814E+05 -9.893232E+04 -7.357138E+04 -2.757516E+05 -5.959354E+04  8.350678E+02
       155  23 -6.334582E+05 -7.868579E+04 -1.252264E+05 -2.576436E+05 -1.275827E+05 -2.453391E+04
       155  24 -6.927967E+05 -3.203386E+05 -2.951494E+05 -1.923662E+05 -1.902374E+05 -6.405906E+04
       155  25 -1.141401E+06 -2.475129E+05 -1.899630E+05 -3.750022E+05 -5.482894E+04  2.626573E+03
       155  26 -1.106972E+06 -2.820708E+05 -2.511622E+05 -4.138314E+05 -1.319838E+05 -2.618370E+04
       155  27 -1.161594E+06 -5.804474E+05 -4.379678E+05 -4.054691E+05 -2.038012E+05 -6.913735E+04
       156   1  2.436537E+05  2.149138E+06  2.420753E+05 -4.444098E+04  1.073794E+04  1.094536E+05
       156   2  1.836765E+05  2.141142E+06  1.754992E+05 -2.164162E+04  3.739758E+04  6.047193E+04
       156   3  1.690269E+05  2.150884E+06  1.521012E+05  2.543032E+03  4.760394E+04  1.148009E+04
       156   4  6.910644E+04  1.440263E+06  7.721184E+04 -1.478437E+02  1.079744E+04  4.989864E+04
       156   5  1.547460E+04  1.433844E+06  4.058101E+04 -8.768656E+02  3.743397E+04  2.904641E+04
       156   6  2.322486E+03  1.440306E+06  2.765219E+04 -2.194517E+02  4.761234E+04  8.182373E+03
       156   7 -1.054670E+05  7.318613E+05 -8.767120E+04  4.409461E+04  1.084850E+04 -9.589018E+03
       156   8 -1.527545E+05  7.270297E+05 -9.435584E+04  1.986386E+04  3.746828E+04 -2.344274E+03
       156   9 -1.644093E+05  7.302208E+05 -9.681489E+04 -2.978558E+03  4.762078E+04  4.888302E+03
       156  10  2.436503E+05  2.149125E+06  2.420527E+05 -4.444193E+04 -3.891161E-10  2.885704E-08
       156  11  1.836740E+05  2.141138E+06  1.754897E+05 -2.164344E+04  1.401172E-09 -1.738422E-09
       156  12  1.690245E+05  2.150884E+06  1.520967E+05  2.542593E+03 -3.556957E-10 -3.083892E-08
       156  13  6.910564E+04  1.440260E+06  7.720695E+04 -1.482773E+02  1.292163E-09 -9.055182E-10
       156  14  1.547287E+04  1.433843E+06  4.057679E+04 -8.777408E+02 -1.299453E-09 -1.512491E-10
       156  15  2.320032E+03  1.440306E+06  2.764780E+04 -2.197653E+02  1.451003E-09 -2.238843E-10
       156  16 -1.054672E+05  7.318612E+05 -8.767159E+04  4.409470E+04 -4.116695E-10 -2.744923E-08
       156  17 -1.527560E+05  7.270294E+05 -9.435849E+04  1.986393E+04  2.069178E-09 -7.785565E-10
       156  18 -1.644118E+05  7.302202E+05 -9.681920E+04 -2.978746E+03  2.338489E-09  2.928215E-08
       156  19  2.436537E+05  2.149138E+06  2.420753E+05 -4.444098E+04 -1.073794E+04 -1.094536E+05
       156  20  1.836765E+05  2.141142E+06  1.754992E+05 -2.164162E+04 -3.739758E+04 -6.047193E+04
       156  21  1.690269E+05  2.150884E+06  1.521012E+05  2.543032E+03 -4.760394E+04 -1.148009E+04
       156  22  6.910644E+04  1.440263E+06  7.721184E+04 -1.478437E+02 -1.079744E+04 -4.989864E+04
       156  23  1.547460E+04  1.433844E+06  4.058101E+04 -8.768656E+02 -3.743397E+04 -2.904641E+04
       156  24  2.322486E+03  1.440306E+06  2.765219E+04 -2.194517E+02 -4.761234E+04 -8.182373E+03
       156  25 -1.054670E+05  7.318613E+05 -8.767120E+04  4.409461E+04 -1.084850E+04  9.589018E+03
       156  26 -1.527545E+05  7.270297E+05 -9.435584E+04  1.986386E+04 -3.746828E+04  2.344274E+03
       156  27 -1.644093E+05  7.302208E+05 -9.681489E+04 -2.978558E+03 -4.762078E+04 -4.888302E+03
       157   1  1.695847E+05  2.148778E+06  1.488607E+05 -3.539185E+03  4.848588E+04  9.262987E+03
       157   2  1.678960E+05  2.148022E+06  1.483244E+05 -9.013107E+02  5.007776E+04 -8.986206E+03
       157   3  1.738550E+05  2.151598E+06  1.615681E+05  2.055711E+03  4.869555E+04 -2.723942E+04
       157   4  3.060509E+03  1.438208E+06  2.538627E+04 -4.489961E+02  4.849702E+04  4.036422E+03
       157   5  1.485243E+03  1.436477E+06  2.634961E+04 -6.067002E+02  5.008308E+04 -9.117097E+03
       157   6  6.680079E+03  1.438201E+06  3.757037E+04 -4.452312E+02  4.869351E+04 -2.227457E+04
       157   7 -1.634908E+05  7.281303E+05 -9.810583E+04  2.637700E+03  4.850813E+04 -1.184363E+03
       157   8 -1.649525E+05  7.254282E+05 -9.564224E+04 -3.122803E+02  5.008840E+04 -9.247839E+03
       157   9 -1.605222E+05  7.253010E+05 -8.644517E+04 -2.943048E+03  4.869142E+04 -1.731522E+04
       157  10  1.695821E+05  2.148777E+06  1.488562E+05 -3.539546E+03 -2.474272E-09  2.695209E-08
       157  11  1.678933E+05  2.148021E+06  1.483196E+05 -9.009486E+02  1.281062E-12 -4.742117E-09
       157  12  1.738523E+05  2.151597E+06  1.615623E+05  2.056778E+03 -1.029922E-09 -3.422719E-08
       157  13  3.057977E+03  1.438207E+06  2.538181E+04 -4.491537E+02  4.188396E-10 -1.355454E-09
       157  14  1.482526E+03  1.436477E+06  2.634474E+04 -6.063327E+02  1.931572E-09 -1.813191E-10
       157  15  6.677398E+03  1.438200E+06  3.756499E+04 -4.443581E+02 -5.929056E-10 -1.960278E-10
       157  16 -1.634934E+05  7.281297E+05 -9.811026E+04  2.637746E+03  1.427803E-09 -2.499265E-08
       157  17 -1.649552E+05  7.254274E+05 -9.564712E+04 -3.119073E+02  1.312914E-10  1.411005E-09
       157  18 -1.605249E+05  7.253001E+05 -8.645019E+04 -2.942369E+03 -1.678702E-09  3.187760E-08
       157  19  1.695847E+05  2.148778E+06  1.488607E+05 -3.539185E+03 -4.848588E+04 -9.262987E+03
       157  20  1.678960E+05  2.148022E+06  1.483244E+05 -9.013107E+02 -5.007776E+04  8.986206E+03
       157  21  1.738550E+05  2.151598E+06  1.615681E+05  2.055711E+03 -4.869555E+04  2.723942E+04
       157  22  3.060509E+03  1.438208E+06  2.538627E+04 -4.489961E+02 -4.849702E+04 -4.036422E+03
       157  23  1.485243E+03  1.436477E+06  2.634961E+04 -6.067002E+02 -5.008308E+04  9.117097E+03
       157  24  6.680079E+03  1.438201E+06  3.757037E+04 -4.452312E+02 -4.869351E+04  2.227457E+04
       157  25 -1.634908E+05  7.281303E+05 -9.810583E+04  2.637700E+03 -4.850813E+04  1.184363E+03
       157  26 -1.649525E+05  7.254282E+05 -9.564224E+04 -3.122803E+02 -5.008840E+04  9.247839E+03
       157  27 -1.605222E+05  7.253010E+05 -8.644517E+04 -2.943048E+03 -4.869142E+04  1.731522E+04
       158   1  1.726946E+05  2.158596E+06  1.720706E+05 -9.426141E+03  4.793190E+04 -3.163205E+04
       158   2  2.028511E+05  2.144851E+06  2.170170E+05  4.105025E+04  3.793377E+04 -1.017843E+05
       158   3  3.233799E+05  2.162837E+06  3.301353E+05  9.088773E+04  1.122692E+04 -1.719719E+05
       158   4  4.857917E+03  1.443398E+06  4.676011E+04 -6.907930E+02  4.793179E+04 -2.861796E+04
       158   5  3.304159E+04  1.429945E+06  8.059313E+04 -2.598349E+02  3.789236E+04 -7.019977E+04
       158   6  1.466939E+05  1.443299E+06  1.628274E+05 -4.698088E+02  1.114667E+04 -1.118133E+05
       158   7 -1.630063E+05  7.286992E+05 -7.856868E+04  8.034405E+03  4.793177E+04 -2.560722E+04
       158   8 -1.367909E+05  7.155368E+05 -5.584916E+04 -4.152119E+04  3.784673E+04 -3.865066E+04
       158   9 -2.999513E+04  7.242628E+05 -4.497197E+03 -9.172089E+04  1.104874E+04 -5.172371E+04
       158  10  1.726919E+05  2.158594E+06  1.720644E+05 -9.424921E+03  1.666173E-09  3.030752E-10
       158  11  2.028468E+05  2.144839E+06  2.169949E+05  4.105336E+04  1.732914E-09 -4.052109E-09
       158  12  3.233719E+05  2.162805E+06  3.300797E+05  9.088928E+04  1.064923E-09 -5.654454E-09
       158  13  4.855230E+03  1.443396E+06  4.675426E+04 -6.896889E+02 -1.628073E-09 -1.744833E-09
       158  14  3.303873E+04  1.429940E+06  8.058120E+04 -2.576938E+02  2.650341E-10 -7.414804E-11
       158  15  1.466904E+05  1.443286E+06  1.628038E+05 -4.688057E+02 -1.214219E-10 -1.602104E-10
       158  16 -1.630089E+05  7.286978E+05 -7.857423E+04  8.035394E+03 -1.252281E-10  2.162623E-09
       158  17 -1.367928E+05  7.155348E+05 -5.585466E+04 -4.152001E+04  2.893874E-09 -4.190598E-10
       158  18 -2.999598E+04  7.242599E+05 -4.502448E+03 -9.172043E+04  5.982715E-11  2.615135E-09
       158  19  1.726946E+05  2.158596E+06  1.720706E+05 -9.426141E+03 -4.793190E+04  3.163205E+04
       158  20  2.028511E+05  2.144851E+06  2.170170E+05  4.105025E+04 -3.793377E+04  1.017843E+05
       158  21  3.233799E+05  2.162837E+06  3.301353E+05  9.088773E+04 -1.122692E+04  1.719719E+05
       158  22  4.857917E+03  1.443398E+06  4.676011E+04 -6.907930E+02 -4.793179E+04  2.861796E+04
       158  23  3.304159E+04  1.429945E+06  8.059313E+04 -2.598349E+02 -3.789236E+04  7.019977E+04
       158  24  1.466939E+05  1.443299E+06  1.628274E+05 -4.698088E+02 -1.114667E+04  1.118133E+05
       158  25 -1.630063E+05  7.286992E+05 -7.856868E+04  8.034405E+03 -4.793177E+04  2.560722E+04
       158  26 -1.367909E+05  7.155368E+05 -5.584916E+04 -4.152119E+04 -3.784673E+04  3.865066E+04
       158  27 -2.999513E+04  7.242628E+05 -4.497197E+03 -9.172089E+04 -1.104874E+04  5.172371E+04
       159   1 -1.126924E+05 -1.204615E+05 -6.885345E+04  9.836685E+03  1.342666E+05  1.519598E+04
       159   2 -2.006620E+04 -2.996006E+05 -1.589463E+05 -1.096864E+04  9.851973E+04  4.576100E+04
       159   3  1.316345E+05 -2.652526E+05 -1.721868E+05 -9.687296E+04  6.281588E+04  4.433671E+04
       159   4  1.164564E+06  1.969585E+05  2.434342E+05 -6.761845E+04  1.669494E+05  1.523269E+04
       159   5  1.133249E+06 -1.564595E+04  1.085134E+05 -3.492521E+04  1.088366E+05  4.576392E+04
       159   6  1.164747E+06 -1.110972E+04  6.584753E+04 -6.731627E+04  5.077609E+04  4.432608E+04
       159   7  2.443321E+06  5.142815E+05  5.556101E+05 -1.452338E+05  1.996990E+05  1.526123E+04
       159   8  2.287793E+06  2.682175E+05  3.758848E+05 -5.892694E+04  1.191724E+05  4.576604E+04
       159   9  2.198849E+06  2.429619E+05  3.038120E+05 -3.771016E+04  3.871637E+04  4.431430E+04
       159  10 -1.127118E+05 -1.204666E+05 -6.888776E+04  9.835041E+03  5.987239E-09  3.394429E-10
       159  11 -2.007718E+04 -2.996055E+05 -1.589685E+05 -1.097227E+04 -8.105264E-10  7.813079E-10
       159  12  1.316297E+05 -2.652557E+05 -1.721979E+05 -9.687520E+04 -8.227482E-09  3.236154E-10
       159  13  1.164534E+06  1.969508E+05  2.433815E+05 -6.762050E+04 -5.397015E-10  2.990795E-10
       159  14  1.133236E+06 -1.565138E+04  1.084873E+05 -3.492922E+04 -1.327193E-09  7.946805E-10
       159  15  1.164744E+06 -1.111252E+04  6.583900E+04 -6.731809E+04 -1.231035E-09  1.598274E-10
       159  16  2.443279E+06  5.142706E+05  5.555350E+05 -1.452363E+05 -5.859231E-09  3.326250E-10
       159  17  2.287777E+06  2.682114E+05  3.758542E+05 -5.893133E+04  6.145934E-10  8.199762E-10
       159  18  2.198846E+06  2.429593E+05  3.038055E+05 -3.771154E+04  7.860775E-09  1.829572E-10
       159  19 -1.126924E+05 -1.204615E+05 -6.885345E+04  9.836685E+03 -1.342666E+05 -1.519598E+04
       159  20 -2.006620E+04 -2.996006E+05 -1.589463E+05 -1.096864E+04 -9.851973E+04 -4.576100E+04
       159  21  1.316345E+05 -2.652526E+05 -1.721868E+05 -9.687296E+04 -6.281588E+04 -4.433671E+04
       159  22  1.164564E+06  1.969585E+05  2.434342E+05 -6.761845E+04 -1.669494E+05 -1.523269E+04
       159  23  1.133249E+06 -1.564595E+04  1.085134E+05 -3.492521E+04 -1.088366E+05 -4.576392E+04
       159  24  1.164747E+06 -1.110972E+04  6.584753E+04 -6.731627E+04 -5.077609E+04 -4.432608E+04
       159  25  2.443321E+06  5.142815E+05  5.556101E+05 -1.452338E+05 -1.996990E+05 -1.526123E+04
       159  26  2.287793E+06  2.682175E+05  3.758848E+05 -5.892694E+04 -1.191724E+05 -4.576604E+04
       159  27  2.198849E+06  2.429619E+05  3.038120E+05 -3.771016E+04 -3.871637E+04 -4.431430E+04
       160   1  2.375868E+05 -2.100300E+05 -1.586234E+05 -6.244184E+04  4.310794E+04  3.707761E+04
       160   2  3.532898E+05 -1.972942E+05 -1.558157E+05 -3.388423E+04  3.008519E+04  3.316374E+04
       160   3  4.753852E+05 -1.674854E+05 -1.401714E+05 -6.968715E+04  1.705394E+04  2.765577E+04
       160   4  1.152281E+06  1.511088E+04  5.308430E+04 -6.723848E+04  4.098208E+04  3.707252E+04
       160   5  1.149031E+06 -1.523362E+03  2.793209E+04 -3.505894E+04  2.683028E+04  3.316030E+04
       160   6  1.152346E+06 -9.012917E+02  1.638569E+04 -6.723413E+04  1.267244E+04  2.765480E+04
       160   7  2.067748E+06  2.401931E+05  2.647361E+05 -7.204228E+04  3.885308E+04  3.706748E+04
       160   8  1.945357E+06  1.942032E+05  2.116378E+05 -3.623517E+04  2.357122E+04  3.315688E+04
       160   9  1.829729E+06  1.656508E+05  1.729122E+05 -6.477838E+04  8.286187E+03  2.765379E+04
       160  10  2.375844E+05 -2.100319E+05 -1.586295E+05 -6.244312E+04 -2.213596E-09 -2.468845E-10
       160  11  3.532886E+05 -1.972957E+05 -1.558195E+05 -3.388503E+04 -6.984762E-10 -7.381602E-10
       160  12  4.753847E+05 -1.674863E+05 -1.401733E+05 -6.968753E+04 -1.198054E-09 -2.234396E-10
       160  13  1.152279E+06  1.510895E+04  5.307857E+04 -6.723970E+04 -7.385491E-10 -3.363037E-10
       160  14  1.149030E+06 -1.524736E+03  2.792867E+04 -3.505965E+04 -1.411336E-09 -5.286634E-10
       160  15  1.152345E+06 -9.021564E+02  1.638395E+04 -6.723442E+04 -8.244006E-10 -3.859070E-10
       160  16  2.067746E+06  2.401912E+05  2.647307E+05 -7.204344E+04  7.882299E-10 -2.977020E-10
       160  17  1.945356E+06  1.942019E+05  2.116347E+05 -3.623580E+04  1.111105E-10 -2.741508E-10
       160  18  1.829729E+06  1.656499E+05  1.729107E+05 -6.477856E+04  5.669537E-11 -3.560667E-10
       160  19  2.375868E+05 -2.100300E+05 -1.586234E+05 -6.244184E+04 -4.310794E+04 -3.707761E+04
       160  20  3.532898E+05 -1.972942E+05 -1.558157E+05 -3.388423E+04 -3.008519E+04 -3.316374E+04
       160  21  4.753852E+05 -1.674854E+05 -1.401714E+05 -6.968715E+04 -1.705394E+04 -2.765577E+04
       160  22  1.152281E+06  1.511088E+04  5.308430E+04 -6.723848E+04 -4.098208E+04 -3.707252E+04
       160  23  1.149031E+06 -1.523362E+03  2.793209E+04 -3.505894E+04 -2.683028E+04 -3.316030E+04
       160  24  1.152346E+06 -9.012917E+02  1.638569E+04 -6.723413E+04 -1.267244E+04 -2.765480E+04
       160  25  2.067748E+06  2.401931E+05  2.647361E+05 -7.204228E+04 -3.885308E+04 -3.706748E+04
       160  26  1.945357E+06  1.942032E+05  2.116378E+05 -3.623517E+04 -2.357122E+04 -3.315688E+04
       160  27  1.829729E+06  1.656508E+05  1.729122E+05 -6.477838E+04 -8.286187E+03 -2.765379E+04
       161   1  5.899995E+05 -1.368564E+05 -1.165202E+05 -6.675935E+04  1.396901E+04  2.414132E+04
       161   2  7.066802E+05 -1.093636E+05 -9.532104E+04 -3.521476E+04  1.045041E+04  1.856209E+04
       161   3  8.242279E+05 -8.045238E+04 -7.147003E+04 -6.709972E+04  6.927138E+03  1.292128E+04
       161   4  1.151113E+06  1.101423E+03  1.268338E+04 -6.702864E+04  1.010923E+04  2.414132E+04
       161   5  1.150696E+06 -1.546847E+02  7.156447E+03 -3.531559E+04  6.544479E+03  1.856336E+04
       161   6  1.151143E+06  1.595880E+01  4.312408E+03 -6.702928E+04  2.975700E+03  1.292389E+04
       161   7  1.712517E+06  1.390373E+05  1.418661E+05 -6.729814E+04  6.245995E+03  2.414132E+04
       161   8  1.594895E+06  1.090404E+05  1.096209E+05 -3.541647E+04  2.635774E+03  1.856463E+04
       161   9  1.478156E+06  8.047679E+04  8.008775E+04 -6.695878E+04 -9.778027E+02  1.292650E+04
       161  10  5.899991E+05 -1.368571E+05 -1.165216E+05 -6.675962E+04 -1.582265E-09  2.729240E-10
       161  11  7.066800E+05 -1.093640E+05 -9.532189E+04 -3.521491E+04  2.050563E-10 -3.100787E-12
       161  12  8.242278E+05 -8.045257E+04 -7.147044E+04 -6.709979E+04  5.625431E-10 -4.470892E-10
       161  13  1.151113E+06  1.100769E+03  1.268209E+04 -6.702884E+04  2.903425E-11 -1.209308E-10
       161  14  1.150696E+06 -1.550664E+02  7.155719E+03 -3.531569E+04  1.868744E-09  3.353864E-11
       161  15  1.151143E+06  1.577697E+01  4.312077E+03 -6.702931E+04  9.311338E-11 -1.465641E-10
       161  16  1.712517E+06  1.390366E+05  1.418649E+05 -6.729826E+04  7.572855E-10 -3.601810E-10
       161  17  1.594895E+06  1.090400E+05  1.096202E+05 -3.541651E+04  2.821059E-11 -1.309978E-10
       161  18  1.478156E+06  8.047661E+04  8.008743E+04 -6.695877E+04 -7.936419E-10  8.337200E-11
       161  19  5.899995E+05 -1.368564E+05 -1.165202E+05 -6.675935E+04 -1.396901E+04 -2.414132E+04
       161  20  7.066802E+05 -1.093636E+05 -9.532104E+04 -3.521476E+04 -1.045041E+04 -1.856209E+04
       161  21  8.242279E+05 -8.045238E+04 -7.147003E+04 -6.709972E+04 -6.927138E+03 -1.292128E+04
       161  22  1.151113E+06  1.101423E+03  1.268338E+04 -6.702864E+04 -1.010923E+04 -2.414132E+04
       161  23  1.150696E+06 -1.546847E+02  7.156447E+03 -3.531559E+04 -6.544479E+03 -1.856336E+04
       161  24  1.151143E+06  1.595880E+01  4.312408E+03 -6.702928E+04 -2.975700E+03 -1.292389E+04
       161  25  1.712517E+06  1.390373E+05  1.418661E+05 -6.729814E+04 -6.245995E+03 -2.414132E+04
       161  26  1.594895E+06  1.090404E+05  1.096209E+05 -3.541647E+04 -2.635774E+03 -1.856463E+04
       161  27  1.478156E+06  8.047679E+04  8.008775E+04 -6.695878E+04  9.778027E+02 -1.292650E+04
       162   1  9.386734E+05 -5.198930E+04 -4.522886E+04 -6.686429E+04  6.193999E+03  9.631576E+03
       162   2  1.054981E+06 -2.356802E+04 -1.980960E+04 -3.540240E+04  5.035129E+03  4.009123E+03
       162   3  1.171387E+06  5.053040E+03  6.385872E+03 -6.695326E+04  3.875153E+03 -1.612754E+03
       162   4  1.150985E+06  1.540754E+02  3.421019E+03 -6.693694E+04  2.275707E+03  9.634660E+03
       162   5  1.150946E+06  3.017915E+01  2.333661E+03 -3.543090E+04  1.116553E+03  4.012457E+03
       162   6  1.150991E+06  1.064757E+02  2.022624E+03 -6.693701E+04 -4.349391E+01 -1.609118E+03
       162   7  1.363339E+06  5.229432E+04  5.206799E+04 -6.700960E+04 -1.643912E+03  9.637744E+03
       162   8  1.246920E+06  2.362774E+04  2.447637E+04 -3.545940E+04 -2.802623E+03  4.015791E+03
       162   9  1.130596E+06 -4.840108E+03 -2.340591E+03 -6.692076E+04 -3.962014E+03 -1.605483E+03
       162  10  9.386733E+05 -5.198941E+04 -4.522911E+04 -6.686434E+04  1.795066E-10 -3.297130E-10
       162  11  1.054981E+06 -2.356804E+04 -1.980968E+04 -3.540241E+04 -6.372176E-10  1.738522E-10
       162  12  1.171387E+06  5.053033E+03  6.385839E+03 -6.695325E+04  3.216275E-10 -1.025067E-10
       162  13  1.150985E+06  1.539743E+02  3.420835E+03 -6.693695E+04  3.306041E-10 -1.884033E-10
       162  14  1.150946E+06  3.016152E+01  2.333629E+03 -3.543090E+04 -5.904838E-10  3.353717E-10
       162  15  1.150991E+06  1.064729E+02  2.022619E+03 -6.693701E+04 -1.248339E-10  8.690469E-11
       162  16  1.363339E+06  5.229422E+04  5.206781E+04 -6.700959E+04  9.162469E-10  1.164535E-10
       162  17  1.246920E+06  2.362772E+04  2.447632E+04 -3.545940E+04  1.192951E-09  1.172715E-10
       162  18  1.130596E+06 -4.840115E+03 -2.340625E+03 -6.692076E+04 -2.462644E-10  1.059381E-12
       162  19  9.386734E+05 -5.198930E+04 -4.522886E+04 -6.686429E+04 -6.193999E+03 -9.631576E+03
       162  20  1.054981E+06 -2.356802E+04 -1.980960E+04 -3.540240E+04 -5.035129E+03 -4.009123E+03
       162  21  1.171387E+06  5.053040E+03  6.385872E+03 -6.695326E+04 -3.875153E+03  1.612754E+03
       162  22  1.150985E+06  1.540754E+02  3.421019E+03 -6.693694E+04 -2.275707E+03 -9.634660E+03
       162  23  1.150946E+06  3.017915E+01  2.333661E+03 -3.543090E+04 -1.116553E+03 -4.012457E+03
       162  24  1.150991E+06  1.064757E+02  2.022624E+03 -6.693701E+04  4.349391E+01  1.609118E+03
       162  25  1.363339E+06  5.229432E+04  5.206799E+04 -6.700960E+04  1.643912E+03 -9.637744E+03
       162  26  1.246920E+06  2.362774E+04  2.447637E+04 -3.545940E+04  2.802623E+03 -4.015791E+03
       162  27  1.130596E+06 -4.840108E+03 -2.340591E+03 -6.692076E+04  3.962014E+03  1.605483E+03
       163   1  1.285764E+06  3.330731E+04  3.353505E+04 -6.703202E+04  3.500225E+03 -4.885074E+03
       163   2  1.402286E+06  6.180713E+04  6.074283E+04 -3.548299E+04  2.137223E+03 -1.051296E+04
       163   3  1.518982E+06  9.053035E+04  8.887353E+04 -6.706582E+04  7.762675E+02 -1.614864E+04
       163   4  1.151005E+06  1.056057E+02  2.103082E+03 -6.696396E+04 -4.211799E+02 -4.881581E+03
       163   5  1.150915E+06  7.021874E+00  2.753165E+03 -3.539721E+04 -1.789487E+03 -1.051021E+04
       163   6  1.150989E+06  1.337285E+02  4.330799E+03 -6.696388E+04 -3.155498E+03 -1.614659E+04
       163   7  1.016262E+06 -3.309737E+04 -2.933005E+04 -6.689590E+04 -4.341741E+03 -4.878088E+03
       163   8  8.996025E+05 -6.179750E+04 -5.524064E+04 -3.531145E+04 -5.714623E+03 -1.050746E+04
       163   9  7.831203E+05 -9.027232E+04 -8.022082E+04 -6.686198E+04 -7.084956E+03 -1.614454E+04
       163  10  1.285764E+06  3.330728E+04  3.353498E+04 -6.703201E+04 -4.047564E-10 -1.135593E-10
       163  11  1.402286E+06  6.180701E+04  6.074262E+04 -3.548298E+04 -5.699763E-10  5.392696E-10
       163  12  1.518982E+06  9.053007E+04  8.887304E+04 -6.706581E+04 -5.163754E-11  2.458434E-10
       163  13  1.151005E+06  1.055801E+02  2.103037E+03 -6.696396E+04 -4.477419E-10  9.987708E-11
       163  14  1.150915E+06  6.902331E+00  2.752952E+03 -3.539722E+04  7.563379E-10  3.222364E-10
       163  15  1.150989E+06  1.334457E+02  4.330290E+03 -6.696392E+04  2.000882E-10  6.899174E-11
       163  16  1.016262E+06 -3.309740E+04 -2.933013E+04 -6.689592E+04 -4.204909E-10 -1.309881E-11
       163  17  8.996024E+05 -6.179762E+04 -5.524091E+04 -3.531150E+04 -7.000319E-11  1.752794E-10
       163  18  7.831202E+05 -9.027261E+04 -8.022140E+04 -6.686207E+04 -1.317542E-09 -2.602470E-10
       163  19  1.285764E+06  3.330731E+04  3.353505E+04 -6.703202E+04 -3.500225E+03  4.885074E+03
       163  20  1.402286E+06  6.180713E+04  6.074283E+04 -3.548299E+04 -2.137223E+03  1.051296E+04
       163  21  1.518982E+06  9.053035E+04  8.887353E+04 -6.706582E+04 -7.762675E+02  1.614864E+04
       163  22  1.151005E+06  1.056057E+02  2.103082E+03 -6.696396E+04  4.211799E+02  4.881581E+03
       163  23  1.150915E+06  7.021874E+00  2.753165E+03 -3.539721E+04  1.789487E+03  1.051021E+04
       163  24  1.150989E+06  1.337285E+02  4.330799E+03 -6.696388E+04  3.155498E+03  1.614659E+04
       163  25  1.016262E+06 -3.309737E+04 -2.933005E+04 -6.689590E+04  4.341741E+03  4.878088E+03
       163  26  8.996025E+05 -6.179750E+04 -5.524064E+04 -3.531145E+04  5.714623E+03  1.050746E+04
       163  27  7.831203E+05 -9.027232E+04 -8.022082E+04 -6.686198E+04  7.084956E+03  1.614454E+04
       164   1  1.634318E+06  1.187779E+05  1.173301E+05 -6.697330E+04 -7.539491E+01 -1.945115E+04
       164   2  1.751550E+06  1.474686E+05  1.479854E+05 -3.522754E+04 -4.793300E+03 -2.511713E+04
       164   3  1.870049E+06  1.780100E+05  1.822036E+05 -6.728186E+04 -9.506500E+03 -3.071966E+04
       164   4  1.151205E+06 -4.716130E+01  5.556147E+03 -6.711301E+04 -4.048636E+03 -1.944988E+04
       164   5  1.150561E+06 -2.555255E+02  9.367542E+03 -3.521088E+04 -8.718528E+03 -2.511764E+04
       164   6  1.151165E+06  1.381238E+03  1.671237E+04 -6.711260E+04 -1.338284E+04 -3.072189E+04
       164   7  6.683083E+05 -1.188886E+05 -1.062334E+05 -6.725256E+04 -8.018814E+03 -1.944859E+04
       164   8  5.499048E+05 -1.480049E+05 -1.292743E+05 -3.519421E+04 -1.263999E+04 -2.511815E+04
       164   9  4.327581E+05 -1.752835E+05 -1.488130E+05 -6.694352E+04 -1.725473E+04 -3.072411E+04
       164  10  1.634318E+06  1.187775E+05  1.173294E+05 -6.697330E+04 -7.882071E-10 -1.143114E-10
       164  11  1.751550E+06  1.474679E+05  1.479842E+05 -3.522764E+04 -4.372595E-10  2.172869E-10
       164  12  1.870048E+06  1.780089E+05  1.822016E+05 -6.728209E+04 -1.810784E-10 -1.243009E-10
       164  13  1.151205E+06 -4.757214E+01  5.555405E+03 -6.711307E+04 -9.006673E-10 -2.483773E-10
       164  14  1.150561E+06 -2.562238E+02  9.366213E+03 -3.521106E+04 -4.349646E-10  2.218984E-11
       164  15  1.151165E+06  1.380176E+03  1.671026E+04 -6.711293E+04  3.026832E-10  9.183505E-11
       164  16  6.683082E+05 -1.188890E+05 -1.062342E+05 -6.725269E+04  2.924153E-10 -2.492548E-10
       164  17  5.499045E+05 -1.480056E+05 -1.292758E+05 -3.519446E+04  4.896150E-10 -1.407457E-10
       164  18  4.327575E+05 -1.752846E+05 -1.488153E+05 -6.694394E+04 -8.492781E-10  3.478638E-10
       164  19  1.634318E+06  1.187779E+05  1.173301E+05 -6.697330E+04  7.539491E+01  1.945115E+04
       164  20  1.751550E+06  1.474686E+05  1.479854E+05 -3.522754E+04  4.793300E+03  2.511713E+04
       164  21  1.870049E+06  1.780100E+05  1.822036E+05 -6.728186E+04  9.506500E+03  3.071966E+04
       164  22  1.151205E+06 -4.716130E+01  5.556147E+03 -6.711301E+04  4.048636E+03  1.944988E+04
       164  23  1.150561E+06 -2.555255E+02  9.367542E+03 -3.521088E+04  8.718528E+03  2.511764E+04
       164  24  1.151165E+06  1.381238E+03  1.671237E+04 -6.711260E+04  1.338284E+04  3.072189E+04
       164  25  6.683083E+05 -1.188886E+05 -1.062334E+05 -6.725256E+04  8.018814E+03  1.944859E+04
       164  26  5.499048E+05 -1.480049E+05 -1.292743E+05 -3.519421E+04  1.263999E+04  2.511815E+04
       164  27  4.327581E+05 -1.752835E+05 -1.488130E+05 -6.694352E+04  1.725473E+04  3.072411E+04
       165   1  1.988563E+06  2.041988E+05  2.146488E+05 -6.387650E+04 -1.229471E+04 -3.428340E+04
       165   2  2.104230E+06  2.328574E+05  2.573666E+05 -3.614335E+04 -3.225733E+04 -3.981955E+04
       165   3  2.228885E+06  2.844783E+05  3.189264E+05 -7.336573E+04 -5.221770E+04 -4.357244E+04
       165   4  1.152793E+06 -1.265421E+03  2.161504E+04 -6.736564E+04 -1.676065E+04 -3.428711E+04
       165   5  1.148369E+06 -2.056170E+03  3.688393E+04 -3.489307E+04 -3.545325E+04 -3.982570E+04
       165   6  1.152713E+06  1.991656E+04  7.013595E+04 -6.738126E+04 -5.413976E+04 -4.358004E+04
       165   7  3.176655E+05 -2.067785E+05 -1.714652E+05 -7.085006E+04 -2.122062E+04 -3.429077E+04
       165   8  1.933498E+05 -2.370336E+05 -1.836594E+05 -3.364483E+04 -3.864425E+04 -3.983187E+04
       165   9  7.760821E+04 -2.447261E+05 -1.787318E+05 -6.140741E+04 -5.605846E+04 -4.358769E+04
       165  10  1.988563E+06  2.041975E+05  2.146463E+05 -6.387684E+04 -2.966722E-11 -2.333339E-10
       165  11  2.104229E+06  2.328554E+05  2.573617E+05 -3.614438E+04 -4.231969E-10 -1.962624E-11
       165  12  2.228881E+06  2.844755E+05  3.189178E+05 -7.336756E+04 -8.596378E-10  5.219694E-11
       165  13  1.152792E+06 -1.266760E+03  2.161230E+04 -6.736611E+04 -1.566341E-10 -1.818148E-10
       165  14  1.148367E+06 -2.058211E+03  3.687859E+04 -3.489421E+04 -4.701122E-10 -3.976809E-10
       165  15  1.152709E+06  1.991373E+04  7.012688E+04 -6.738316E+04 -4.672903E-11 -6.133999E-11
       165  16  3.176647E+05 -2.067799E+05 -1.714682E+05 -7.085064E+04 -1.063905E-09  3.563439E-11
       165  17  1.933477E+05 -2.370357E+05 -1.836652E+05 -3.364607E+04  2.177370E-10 -8.648402E-10
       165  18  7.760432E+04 -2.447290E+05 -1.787412E+05 -6.140938E+04  4.087833E-10  4.778219E-11
       165  19  1.988563E+06  2.041988E+05  2.146488E+05 -6.387650E+04  1.229471E+04  3.428340E+04
       165  20  2.104230E+06  2.328574E+05  2.573666E+05 -3.614335E+04  3.225733E+04  3.981955E+04
       165  21  2.228885E+06  2.844783E+05  3.189264E+05 -7.336573E+04  5.221770E+04  4.357244E+04
       165  22  1.152793E+06 -1.265421E+03  2.161504E+04 -6.736564E+04  1.676065E+04  3.428711E+04
       165  23  1.148369E+06 -2.056170E+03  3.688393E+04 -3.489307E+04  3.545325E+04  3.982570E+04
       165  24  1.152713E+06  1.991656E+04  7.013595E+04 -6.738126E+04  5.413976E+04  4.358004E+04
       165  25  3.176655E+05 -2.067785E+05 -1.714652E+05 -7.085006E+04  2.122062E+04  3.429077E+04
       165  26  1.933498E+05 -2.370336E+05 -1.836594E+05 -3.364483E+04  3.864425E+04  3.983187E+04
       165  27  7.760821E+04 -2.447261E+05 -1.787318E+05 -6.140741E+04  5.605846E+04  4.358769E+04
       166   1  2.365303E+06  2.791786E+05  3.622080E+05 -2.792513E+04 -5.399624E+04 -5.134291E+04
       166   2  2.445697E+06  3.033072E+05  4.485940E+05 -6.602279E+04 -1.559084E+05 -5.240229E+04
       166   3  2.613307E+06  6.183704E+05  6.741606E+05 -1.701680E+05 -2.579297E+05 -1.756441E+04
       166   4  1.169176E+06 -1.473057E+04  8.700162E+04 -6.745232E+04 -6.707715E+04 -5.136279E+04
       166   5  1.127556E+06 -2.068424E+04  1.433983E+05 -3.472293E+04 -1.437952E+05 -5.239573E+04
       166   6  1.168949E+06  2.602469E+05  3.216976E+05 -6.802980E+04 -2.205977E+05 -1.752073E+04
       166   7 -2.562852E+04 -3.087337E+05 -1.882980E+05 -1.069033E+05 -8.013303E+04 -5.138103E+04
       166   8 -1.889832E+05 -3.447937E+05 -1.619125E+05 -3.490475E+03 -1.317071E+05 -5.238795E+04
       166   9 -2.734874E+05 -9.798961E+04 -3.090599E+04  3.387011E+04 -1.833516E+05 -1.746480E+04
       166  10  2.365299E+06  2.791750E+05  3.621975E+05 -2.792736E+04  4.817797E-10  7.594531E-10
       166  11  2.445670E+06  3.032978E+05  4.485434E+05 -6.602936E+04 -6.846870E-10  3.926915E-10
       166  12  2.613236E+06  6.183523E+05  6.740355E+05 -1.701717E+05 -1.660580E-09 -2.341007E-10
       166  13  1.169170E+06 -1.473461E+04  8.698821E+04 -6.745509E+04 -9.033008E-10  5.074980E-10
       166  14  1.127533E+06 -2.069272E+04  1.433543E+05 -3.472900E+04 -1.935913E-09 -3.052860E-12
       166  15  1.168897E+06  2.602335E+05  3.216058E+05 -6.803291E+04 -1.339792E-09  1.302929E-10
       166  16 -2.563612E+04 -3.087383E+05 -1.883150E+05 -1.069067E+05  4.370109E-10  4.803349E-10
       166  17 -1.890025E+05 -3.448013E+05 -1.619503E+05 -3.496034E+03  6.460714E-10  1.008095E-09
       166  18 -2.735236E+05 -9.799896E+04 -3.096977E+04  3.386753E+04 -8.350827E-11  5.946586E-11
       166  19  2.365303E+06  2.791786E+05  3.622080E+05 -2.792513E+04  5.399624E+04  5.134291E+04
       166  20  2.445697E+06  3.033072E+05  4.485940E+05 -6.602279E+04  1.559084E+05  5.240229E+04
       166  21  2.613307E+06  6.183704E+05  6.741606E+05 -1.701680E+05  2.579297E+05  1.756441E+04
       166  22  1.169176E+06 -1.473057E+04  8.700162E+04 -6.745232E+04  6.707715E+04  5.136279E+04
       166  23  1.127556E+06 -2.068424E+04  1.433983E+05 -3.472293E+04  1.437952E+05  5.239573E+04
       166  24  1.168949E+06  2.602469E+05  3.216976E+05 -6.802980E+04  2.205977E+05  1.752073E+04
       166  25 -2.562852E+04 -3.087337E+05 -1.882980E+05 -1.069033E+05  8.013303E+04  5.138103E+04
       166  26 -1.889832E+05 -3.447937E+05 -1.619125E+05 -3.490475E+03  1.317071E+05  5.238795E+04
       166  27 -2.734874E+05 -9.798961E+04 -3.090599E+04  3.387011E+04  1.833516E+05  1.746480E+04
       167   1  1.157666E+05  5.567627E+05  1.277741E+05 -8.708914E+04  1.981062E+03  5.087870E+04
       167   2  2.707988E+04  4.351127E+05  6.067123E+04 -4.137394E+04  4.667649E+03  2.932797E+04
       167   3  8.777519E+02  3.315895E+05  2.314987E+04 -5.631120E+04  3.153640E+02  7.766038E+03
       167   4  5.594352E+04  3.170642E+05  6.880478E+04 -6.435476E+04  1.992045E+03  4.658001E+04
       167   5 -4.185880E+03  3.084355E+05  3.115196E+04 -3.409092E+04  4.666741E+03  2.993703E+04
       167   6 -2.673202E+03  3.170798E+05  1.968336E+04 -6.447752E+04  3.029807E+02  1.327897E+04
       167   7 -3.881900E+03  7.741908E+04  9.831587E+03 -4.162913E+04  2.002716E+03  4.228298E+04
       167   8 -3.545258E+04  1.817732E+05  1.631628E+03 -2.680939E+04  4.665847E+03  3.054598E+04
       167   9 -6.223903E+03  3.025705E+05  1.621699E+04 -7.264364E+04  2.904523E+02  1.879178E+04
       167  10  1.157659E+05  5.567599E+05  1.277692E+05 -8.708922E+04 -4.109302E-11  7.613030E-10
       167  11  2.707962E+04  4.351118E+05  6.066957E+04 -4.137405E+04 -1.030736E-09 -9.019860E-11
       167  12  8.777356E+02  3.315894E+05  2.314975E+04 -5.631120E+04 -9.757571E-10 -1.249942E-09
       167  13  5.594293E+04  3.170619E+05  6.880070E+04 -6.435483E+04  1.472897E-09 -3.744171E-11
       167  14 -4.186144E+03  3.084346E+05  3.115023E+04 -3.409104E+04  2.216663E-10  1.711857E-11
       167  15 -2.673249E+03  3.170796E+05  1.968303E+04 -6.447752E+04  1.780264E-10 -2.382625E-11
       167  16 -3.882385E+03  7.741716E+04  9.828220E+03 -4.162920E+04  3.637989E-10 -7.252959E-10
       167  17 -3.545285E+04  1.817722E+05  1.629834E+03 -2.680951E+04  3.153357E-09  8.342597E-11
       167  18 -6.223998E+03  3.025702E+05  1.621632E+04 -7.264365E+04  2.255838E-10  1.059517E-09
       167  19  1.157666E+05  5.567627E+05  1.277741E+05 -8.708914E+04 -1.981062E+03 -5.087870E+04
       167  20  2.707988E+04  4.351127E+05  6.067123E+04 -4.137394E+04 -4.667649E+03 -2.932797E+04
       167  21  8.777519E+02  3.315895E+05  2.314987E+04 -5.631120E+04 -3.153640E+02 -7.766038E+03
       167  22  5.594352E+04  3.170642E+05  6.880478E+04 -6.435476E+04 -1.992045E+03 -4.658001E+04
       167  23 -4.185880E+03  3.084355E+05  3.115196E+04 -3.409092E+04 -4.666741E+03 -2.993703E+04
       167  24 -2.673202E+03  3.170798E+05  1.968336E+04 -6.447752E+04 -3.029807E+02 -1.327897E+04
       167  25 -3.881900E+03  7.741908E+04  9.831587E+03 -4.162913E+04 -2.002716E+03 -4.228298E+04
       167  26 -3.545258E+04  1.817732E+05  1.631628E+03 -2.680939E+04 -4.665847E+03 -3.054598E+04
       167  27 -6.223903E+03  3.025705E+05  1.621699E+04 -7.264364E+04 -2.904523E+02 -1.879178E+04
       168   1 -1.920624E+04  2.173373E+05 -5.900326E+03 -6.605245E+04 -3.809396E+03  6.683677E+03
       168   2 -5.182793E+04  1.037048E+05 -3.777548E+04 -3.393817E+04 -8.708729E+03  1.706136E+03
       168   3 -7.768413E+04 -7.858889E+03 -6.478455E+04 -6.278497E+04 -1.309785E+04 -3.267804E+03
       168   4  4.526615E+03  3.137082E+05  1.646419E+04 -6.450572E+04 -3.817315E+03  1.028115E+04
       168   5 -3.942266E+02  3.126432E+05  1.050269E+04 -3.402921E+04 -8.715338E+03  4.947339E+03
       168   6  1.512115E+03  3.136968E+05  9.654964E+03 -6.451220E+04 -1.310325E+04 -3.837480E+02
       168   7  2.825883E+04  4.100877E+05  3.882813E+04 -6.295875E+04 -3.825214E+03  1.387918E+04
       168   8  5.103642E+04  5.216219E+05  5.877799E+04 -3.412025E+04 -8.721947E+03  8.189625E+03
       168   9  8.070111E+04  6.353480E+05  8.408760E+04 -6.624029E+04 -1.310866E+04  2.501791E+03
       168  10 -1.920627E+04  2.173372E+05 -5.900437E+03 -6.605243E+04 -1.158158E-09  8.598227E-11
       168  11 -5.182801E+04  1.037048E+05 -3.777562E+04 -3.393816E+04 -1.640057E-09  4.109033E-11
       168  12 -7.768432E+04 -7.858946E+03 -6.478490E+04 -6.278500E+04 -1.938955E-11 -2.863179E-10
       168  13  4.526571E+03  3.137081E+05  1.646396E+04 -6.450569E+04 -7.546860E-10 -3.464774E-11
       168  14 -3.943148E+02  3.126432E+05  1.050250E+04 -3.402917E+04 -1.489685E-10 -1.318808E-10
       168  15  1.511930E+03  3.136967E+05  9.654641E+03 -6.451221E+04 -5.442926E-10  4.343001E-11
       168  16  2.825876E+04  4.100875E+05  3.882774E+04 -6.295870E+04 -7.781130E-10 -1.360847E-10
       168  17  5.103632E+04  5.216218E+05  5.877772E+04 -3.412019E+04 -5.978298E-10  1.712314E-11
       168  18  8.070092E+04  6.353480E+05  8.408726E+04 -6.624026E+04 -1.248604E-10  2.838980E-10
       168  19 -1.920624E+04  2.173373E+05 -5.900326E+03 -6.605245E+04  3.809396E+03 -6.683677E+03
       168  20 -5.182793E+04  1.037048E+05 -3.777548E+04 -3.393817E+04  8.708729E+03 -1.706136E+03
       168  21 -7.768413E+04 -7.858889E+03 -6.478455E+04 -6.278497E+04  1.309785E+04  3.267804E+03
       168  22  4.526615E+03  3.137082E+05  1.646419E+04 -6.450572E+04  3.817315E+03 -1.028115E+04
       168  23 -3.942266E+02  3.126432E+05  1.050269E+04 -3.402921E+04  8.715338E+03 -4.947339E+03
       168  24  1.512115E+03  3.136968E+05  9.654964E+03 -6.451220E+04  1.310325E+04  3.837480E+02
       168  25  2.825883E+04  4.100877E+05  3.882813E+04 -6.295875E+04  3.825214E+03 -1.387918E+04
       168  26  5.103642E+04  5.216219E+05  5.877799E+04 -3.412025E+04  8.721947E+03 -8.189625E+03
       168  27  8.070111E+04  6.353480E+05  8.408760E+04 -6.624029E+04  1.310866E+04 -2.501791E+03
       169   1 -1.070194E+05 -1.180592E+05 -8.999744E+04 -6.672121E+04 -1.836652E+04 -1.010679E+04
       169   2 -1.357487E+05 -2.332358E+05 -1.141718E+05 -3.093230E+04 -2.140625E+04 -4.714170E+03
       169   3 -1.442456E+05 -3.441064E+05 -1.368147E+05 -5.568682E+04 -7.319485E+03  7.034364E+02
       169   4 -5.384028E+02  3.146183E+05  9.827973E+03 -6.442733E+04 -1.838133E+04 -2.041379E+03
       169   5 -1.515173E+03  3.114228E+05  1.228868E+04 -3.414190E+04 -2.139847E+04 -8.569102E+03
       169   6  1.980055E+04  3.145838E+05  2.455418E+04 -6.439572E+04 -7.295888E+03 -1.507076E+04
       169   7  1.059295E+05  7.474691E+05  1.096412E+05 -6.213175E+04 -1.839607E+04  6.029611E+03
       169   8  1.326975E+05  8.563552E+05  1.387293E+05 -3.735421E+04 -2.139066E+04 -1.242739E+04
       169   9  1.838149E+05  9.736699E+05  1.858922E+05 -7.311372E+04 -7.271863E+03 -3.086165E+04
       169  10 -1.070197E+05 -1.180594E+05 -8.999826E+04 -6.672136E+04  4.605873E-10  6.778862E-11
       169  11 -1.357492E+05 -2.332359E+05 -1.141727E+05 -3.093238E+04  8.296327E-10  1.011018E-10
       169  12 -1.442456E+05 -3.441064E+05 -1.368148E+05 -5.568682E+04  2.871384E-11 -2.502930E-10
       169  13 -5.387668E+02  3.146182E+05  9.827331E+03 -6.442736E+04  7.380567E-11 -5.252548E-11
       169  14 -1.515685E+03  3.114226E+05  1.228768E+04 -3.414205E+04  6.788975E-10 -3.301333E-11
       169  15  1.980043E+04  3.145835E+05  2.455365E+04 -6.439581E+04 -1.528883E-10  3.692822E-11
       169  16  1.059291E+05  7.474689E+05  1.096405E+05 -6.213166E+04 -1.161464E-09 -4.810578E-12
       169  17  1.326970E+05  8.563549E+05  1.387282E+05 -3.735443E+04  7.283084E-10 -2.104329E-10
       169  18  1.838146E+05  9.736689E+05  1.858903E+05 -7.311390E+04  4.390551E-10  1.619733E-10
       169  19 -1.070194E+05 -1.180592E+05 -8.999744E+04 -6.672121E+04  1.836652E+04  1.010679E+04
       169  20 -1.357487E+05 -2.332358E+05 -1.141718E+05 -3.093230E+04  2.140625E+04  4.714170E+03
       169  21 -1.442456E+05 -3.441064E+05 -1.368147E+05 -5.568682E+04  7.319485E+03 -7.034364E+02
       169  22 -5.384028E+02  3.146183E+05  9.827973E+03 -6.442733E+04  1.838133E+04  2.041379E+03
       169  23 -1.515173E+03  3.114228E+05  1.228868E+04 -3.414190E+04  2.139847E+04  8.569102E+03
       169  24  1.980055E+04  3.145838E+05  2.455418E+04 -6.439572E+04  7.295888E+03  1.507076E+04
       169  25  1.059295E+05  7.474691E+05  1.096412E+05 -6.213175E+04  1.839607E+04 -6.029611E+03
       169  26  1.326975E+05  8.563552E+05  1.387293E+05 -3.735421E+04  2.139066E+04  1.242739E+04
       169  27  1.838149E+05  9.736699E+05  1.858922E+05 -7.311372E+04  7.271863E+03  3.086165E+04
       170   1 -1.746044E+06 -6.666566E+05 -4.393450E+05 -6.179722E+05 -1.874238E+05 -6.124391E+04
       170   2 -1.687470E+06 -3.925763E+05 -2.667854E+05 -6.195065E+05 -1.219617E+05 -1.701315E+04
       170   3 -1.704100E+06 -3.596945E+05 -2.089071E+05 -5.843836E+05 -4.992825E+04  9.814921E+03
       170   4 -1.149775E+06 -3.670648E+05 -2.637232E+05 -3.791147E+05 -1.707456E+05 -5.498284E+04
       170   5 -1.099214E+06 -1.487334E+05 -1.118924E+05 -4.346833E+05 -1.165479E+05 -1.498086E+04
       170   6 -1.121540E+06 -1.692456E+05 -6.571991E+04 -4.536210E+05 -5.578438E+04  7.611052E+03
       170   7 -5.531497E+05 -6.736373E+04 -8.813557E+04 -1.400235E+05 -1.540498E+05 -4.871011E+04
       170   8 -5.106192E+05  9.515308E+04  4.297063E+04 -2.496938E+05 -1.111285E+05 -1.294592E+04
       170   9 -5.386467E+05  2.120722E+04  7.744270E+04 -3.227557E+05 -6.164654E+04  5.405579E+03
       170  10 -1.746083E+06 -6.666701E+05 -4.394183E+05 -6.179815E+05  2.957506E-10  5.344576E-11
       170  11 -1.687486E+06 -3.925806E+05 -2.668140E+05 -6.195081E+05 -3.027401E-10 -1.495933E-10
       170  12 -1.704103E+06 -3.596953E+05 -2.089120E+05 -5.843832E+05 -1.243397E-10 -9.160297E-11
       170  13 -1.149807E+06 -3.670759E+05 -2.637838E+05 -3.791223E+05  5.995608E-10 -1.453905E-10
       170  14 -1.099229E+06 -1.487373E+05 -1.119184E+05 -4.346847E+05 -6.454671E-10 -3.841947E-10
       170  15 -1.121544E+06 -1.692465E+05 -6.572587E+04 -4.536207E+05 -1.413560E-10  8.053559E-11
       170  16 -5.531758E+05 -6.737266E+04 -8.818467E+04 -1.400296E+05 -4.985721E-10 -2.991879E-10
       170  17 -5.106325E+05  9.514958E+04  4.294708E+04 -2.496949E+05  8.537252E-10 -3.769867E-10
       170  18 -5.386508E+05  2.120617E+04  7.743550E+04 -3.227554E+05 -1.782912E-10  1.897313E-10
       170  19 -1.746044E+06 -6.666566E+05 -4.393450E+05 -6.179722E+05  1.874238E+05  6.124391E+04
       170  20 -1.687470E+06 -3.925763E+05 -2.667854E+05 -6.195065E+05  1.219617E+05  1.701315E+04
       170  21 -1.704100E+06 -3.596945E+05 -2.089071E+05 -5.843836E+05  4.992825E+04 -9.814921E+03
       170  22 -1.149775E+06 -3.670648E+05 -2.637232E+05 -3.791147E+05  1.707456E+05  5.498284E+04
       170  23 -1.099214E+06 -1.487334E+05 -1.118924E+05 -4.346833E+05  1.165479E+05  1.498086E+04
       170  24 -1.121540E+06 -1.692456E+05 -6.571991E+04 -4.536210E+05  5.578438E+04 -7.611052E+03
       170  25 -5.531497E+05 -6.736373E+04 -8.813557E+04 -1.400235E+05  1.540498E+05  4.871011E+04
       170  26 -5.106192E+05  9.515308E+04  4.297063E+04 -2.496938E+05  1.111285E+05  1.294592E+04
       170  27 -5.386467E+05  2.120722E+04  7.744270E+04 -3.227557E+05  6.164654E+04 -5.405579E+03
       171   1 -1.624204E+06 -3.910241E+05 -1.848038E+05 -5.851368E+05 -4.507224E+04  7.627307E+03
       171   2 -1.585465E+06 -3.434646E+05 -1.461529E+05 -5.636569E+05 -3.047794E+04  1.169484E+04
       171   3 -1.536289E+06 -3.341710E+05 -1.231595E+05 -5.596372E+05 -1.551102E+04  1.476996E+04
       171   4 -1.112819E+06 -1.937852E+05 -5.288188E+04 -4.395991E+05 -4.558218E+04  7.433506E+03
       171   5 -1.116914E+06 -1.664064E+05 -2.627531E+04 -4.339890E+05 -3.162219E+04  1.126327E+04
       171   6 -1.110441E+06 -1.771574E+05 -1.481251E+04 -4.458405E+05 -1.729075E+04  1.410037E+04
       171   7 -6.011801E+05  3.473730E+03  7.901779E+04 -2.939517E+05 -4.609257E+04  7.239525E+03
       171   8 -6.481482E+05  1.066694E+04  9.358433E+04 -3.042320E+05 -3.276739E+04  1.083133E+04
       171   9 -6.844140E+05 -2.013308E+04  9.352027E+04 -3.319733E+05 -1.907182E+04  1.343030E+04
       171  10 -1.624206E+06 -3.910247E+05 -1.848077E+05 -5.851365E+05  9.802335E-10  2.787958E-10
       171  11 -1.585466E+06 -3.434650E+05 -1.461549E+05 -5.636566E+05 -5.354519E-10  3.148855E-10
       171  12 -1.536290E+06 -3.341713E+05 -1.231604E+05 -5.596370E+05  1.937243E-10 -2.105803E-10
       171  13 -1.112821E+06 -1.937859E+05 -5.288589E+04 -4.395988E+05 -1.196622E-09  1.057606E-10
       171  14 -1.116915E+06 -1.664068E+05 -2.627743E+04 -4.339887E+05 -1.352980E-09 -1.345300E-10
       171  15 -1.110441E+06 -1.771577E+05 -1.481344E+04 -4.458403E+05  3.476575E-10  8.130847E-11
       171  16 -6.011824E+05  3.473103E+03  7.901370E+04 -2.939515E+05 -1.157418E-09  2.581155E-12
       171  17 -6.481493E+05  1.066653E+04  9.358209E+04 -3.042317E+05  1.352172E-10 -1.634153E-10
       171  18 -6.844145E+05 -2.013337E+04  9.351925E+04 -3.319731E+05 -2.904308E-10  2.255611E-10
       171  19 -1.624204E+06 -3.910241E+05 -1.848038E+05 -5.851368E+05  4.507224E+04 -7.627307E+03
       171  20 -1.585465E+06 -3.434646E+05 -1.461529E+05 -5.636569E+05  3.047794E+04 -1.169484E+04
       171  21 -1.536289E+06 -3.341710E+05 -1.231595E+05 -5.596372E+05  1.551102E+04 -1.476996E+04
       171  22 -1.112819E+06 -1.937852E+05 -5.288188E+04 -4.395991E+05  4.558218E+04 -7.433506E+03
       171  23 -1.116914E+06 -1.664064E+05 -2.627531E+04 -4.339890E+05  3.162219E+04 -1.126327E+04
       171  24 -1.110441E+06 -1.771574E+05 -1.481251E+04 -4.458405E+05  1.729075E+04 -1.410037E+04
       171  25 -6.011801E+05  3.473730E+03  7.901779E+04 -2.939517E+05  4.609257E+04 -7.239525E+03
       171  26 -6.481482E+05  1.066694E+04  9.358433E+04 -3.042320E+05  3.276739E+04 -1.083133E+04
       171  27 -6.844140E+05 -2.013308E+04  9.352027E+04 -3.319733E+05  1.907182E+04 -1.343030E+04
       172   1 -1.484732E+06 -3.201062E+05 -1.070944E+05 -5.476268E+05 -1.313172E+04  1.395067E+04
       172   2 -1.447137E+06 -2.908261E+05 -8.986802E+04 -5.235456E+05 -9.147399E+03  1.278286E+04
       172   3 -1.390626E+06 -2.830082E+05 -7.536967E+04 -5.218474E+05 -5.136158E+03  1.153944E+04
       172   4 -1.109398E+06 -1.792746E+05 -1.141011E+04 -4.447410E+05 -1.462906E+04  1.338752E+04
       172   5 -1.118757E+06 -1.678552E+05 -6.081631E+03 -4.338076E+05 -1.069196E+04  1.220247E+04
       172   6 -1.109192E+06 -1.778869E+05 -3.442227E+03 -4.452571E+05 -6.728216E+03  1.094175E+04
       172   7 -7.339260E+05 -3.843384E+04  8.426277E+04 -3.417987E+05 -1.612740E+04  1.282399E+04
       172   8 -7.902714E+05 -4.487758E+04  7.769582E+04 -3.440268E+05 -1.223742E+04  1.162175E+04
       172   9 -8.276812E+05 -7.276112E+04  6.847847E+04 -3.686357E+05 -8.321058E+03  1.034377E+04
       172  10 -1.484733E+06 -3.201064E+05 -1.070951E+05 -5.476267E+05  9.649960E-10 -1.905552E-10
       172  11 -1.447137E+06 -2.908263E+05 -8.986849E+04 -5.235455E+05 -4.251142E-10 -1.556854E-10
       172  12 -1.390626E+06 -2.830083E+05 -7.536997E+04 -5.218473E+05  3.472746E-10 -1.162588E-10
       172  13 -1.109398E+06 -1.792748E+05 -1.141085E+04 -4.447408E+05 -2.266382E-10  9.319997E-11
       172  14 -1.118757E+06 -1.678554E+05 -6.082125E+03 -4.338075E+05  3.976442E-10  9.189479E-11
       172  15 -1.109192E+06 -1.778870E+05 -3.442537E+03 -4.452570E+05  7.256875E-10  3.900584E-11
       172  16 -7.339263E+05 -3.843409E+04  8.426198E+04 -3.417985E+05 -7.080671E-10  2.789526E-10
       172  17 -7.902716E+05 -4.487777E+04  7.769528E+04 -3.440267E+05 -3.649043E-10 -1.183116E-10
       172  18 -8.276813E+05 -7.276126E+04  6.847813E+04 -3.686356E+05  3.228440E-10 -2.215542E-10
       172  19 -1.484732E+06 -3.201062E+05 -1.070944E+05 -5.476268E+05  1.313172E+04 -1.395067E+04
       172  20 -1.447137E+06 -2.908261E+05 -8.986802E+04 -5.235456E+05  9.147399E+03 -1.278286E+04
       172  21 -1.390626E+06 -2.830082E+05 -7.536967E+04 -5.218474E+05  5.136158E+03 -1.153944E+04
       172  22 -1.109398E+06 -1.792746E+05 -1.141011E+04 -4.447410E+05  1.462906E+04 -1.338752E+04
       172  23 -1.118757E+06 -1.678552E+05 -6.081631E+03 -4.338076E+05  1.069196E+04 -1.220247E+04
       172  24 -1.109192E+06 -1.778869E+05 -3.442227E+03 -4.452571E+05  6.728216E+03 -1.094175E+04
       172  25 -7.339260E+05 -3.843384E+04  8.426277E+04 -3.417987E+05  1.612740E+04 -1.282399E+04
       172  26 -7.902714E+05 -4.487758E+04  7.769582E+04 -3.440268E+05  1.223742E+04 -1.162175E+04
       172  27 -8.276812E+05 -7.276112E+04  6.847847E+04 -3.686357E+05  8.321058E+03 -1.034377E+04
       173   1 -1.340521E+06 -2.647311E+05 -6.155146E+04 -5.084645E+05 -4.108601E+03  1.030125E+04
       173   2 -1.302450E+06 -2.365027E+05 -4.841395E+04 -4.837509E+05 -2.368701E+03  8.166955E+03
       173   3 -1.244298E+06 -2.286414E+05 -3.592213E+04 -4.821885E+05 -6.240365E+02  6.017559E+03
       173   4 -1.108996E+06 -1.781255E+05 -2.667272E+03 -4.452452E+05 -5.693356E+03  9.706567E+03
       173   5 -1.119025E+06 -1.678830E+05 -1.630114E+03 -4.336905E+05 -3.962959E+03  7.568987E+03
       173   6 -1.108974E+06 -1.780058E+05 -1.231120E+03 -4.452877E+05 -2.227874E+03  5.416294E+03
       173   7 -8.774182E+05 -9.151611E+04  5.621284E+04 -3.820043E+05 -7.278766E+03  9.111638E+03
       173   8 -9.355664E+05 -9.926107E+04  4.515110E+04 -3.836166E+05 -5.557736E+03  6.970824E+03
       173   9 -9.736327E+05 -1.273691E+05  3.345841E+04 -4.083796E+05 -3.832094E+03  4.814886E+03
       173  10 -1.340521E+06 -2.647312E+05 -6.155169E+04 -5.084644E+05 -1.454921E-10 -1.061580E-12
       173  11 -1.302450E+06 -2.365027E+05 -4.841408E+04 -4.837508E+05 -4.762705E-10 -1.012197E-10
       173  12 -1.244298E+06 -2.286414E+05 -3.592220E+04 -4.821885E+05  5.756046E-10 -5.121416E-11
       173  13 -1.108996E+06 -1.781256E+05 -2.667510E+03 -4.452451E+05  7.054487E-11 -4.339844E-11
       173  14 -1.119025E+06 -1.678831E+05 -1.630251E+03 -4.336904E+05  1.803705E-11  1.486642E-10
       173  15 -1.108974E+06 -1.780058E+05 -1.231184E+03 -4.452877E+05 -2.776004E-10 -9.741576E-11
       173  16 -8.774183E+05 -9.151622E+04  5.621258E+04 -3.820043E+05  1.088650E-10 -4.693156E-12
       173  17 -9.355665E+05 -9.926113E+04  4.515095E+04 -3.836166E+05 -1.188183E-11  2.134401E-10
       173  18 -9.736327E+05 -1.273691E+05  3.345834E+04 -4.083796E+05 -7.065409E-10  2.080285E-12
       173  19 -1.340521E+06 -2.647311E+05 -6.155146E+04 -5.084645E+05  4.108601E+03 -1.030125E+04
       173  20 -1.302450E+06 -2.365027E+05 -4.841395E+04 -4.837509E+05  2.368701E+03 -8.166955E+03
       173  21 -1.244298E+06 -2.286414E+05 -3.592213E+04 -4.821885E+05  6.240365E+02 -6.017559E+03
       173  22 -1.108996E+06 -1.781255E+05 -2.667272E+03 -4.452452E+05  5.693356E+03 -9.706567E+03
       173  23 -1.119025E+06 -1.678830E+05 -1.630114E+03 -4.336905E+05  3.962959E+03 -7.568987E+03
       173  24 -1.108974E+06 -1.780058E+05 -1.231120E+03 -4.452877E+05  2.227874E+03 -5.416294E+03
       173  25 -8.774182E+05 -9.151611E+04  5.621284E+04 -3.820043E+05  7.278766E+03 -9.111638E+03
       173  26 -9.355664E+05 -9.926107E+04  4.515110E+04 -3.836166E+05  5.557736E+03 -6.970824E+03
       173  27 -9.736327E+05 -1.273691E+05  3.345841E+04 -4.083796E+05  3.832094E+03 -4.814886E+03
       174   1 -1.193796E+06 -2.097765E+05 -2.267131E+04 -4.685191E+05  1.197985E+02  4.657376E+03
       174   2 -1.155392E+06 -1.814340E+05 -1.073478E+04 -4.435690E+05  1.778584E+03  2.460651E+03
       174   3 -1.096752E+06 -1.736047E+05  6.221410E+02 -4.419782E+05  3.437441E+03  2.633082E+02
       174   4 -1.108938E+06 -1.780462E+05 -1.204424E+03 -4.453298E+05 -1.487851E+03  4.054800E+03
       174   5 -1.119059E+06 -1.678264E+05 -1.465841E+03 -4.336358E+05  1.705339E+02  1.857979E+03
       174   6 -1.108948E+06 -1.781198E+05 -2.306437E+03 -4.453021E+05  1.828928E+03 -3.394752E+02
       174   7 -1.024073E+06 -1.463156E+05  2.026181E+04 -4.221378E+05 -3.095735E+03  3.452136E+03
       174   8 -1.082725E+06 -1.542187E+05  7.803004E+03 -4.237022E+05 -1.437619E+03  1.255269E+03
       174   9 -1.121144E+06 -1.826349E+05 -5.235027E+03 -4.486259E+05  2.204442E+02 -9.422480E+02
       174  10 -1.193796E+06 -2.097765E+05 -2.267135E+04 -4.685191E+05 -5.018258E-10 -1.604960E-10
       174  11 -1.155392E+06 -1.814340E+05 -1.073480E+04 -4.435690E+05  3.979476E-10  4.813576E-10
       174  12 -1.096752E+06 -1.736047E+05  6.221187E+02 -4.419782E+05  1.758272E-10  4.570303E-11
       174  13 -1.108938E+06 -1.780463E+05 -1.204459E+03 -4.453298E+05  1.064941E-10  1.467342E-11
       174  14 -1.119059E+06 -1.678264E+05 -1.465848E+03 -4.336358E+05  2.697683E-10  1.659014E-10
       174  15 -1.108948E+06 -1.781198E+05 -2.306443E+03 -4.453021E+05 -9.614133E-10 -2.733462E-11
       174  16 -1.024073E+06 -1.463156E+05  2.026177E+04 -4.221378E+05 -3.116375E-11  1.231700E-10
       174  17 -1.082725E+06 -1.542187E+05  7.802997E+03 -4.237022E+05 -9.604451E-11  2.573215E-10
       174  18 -1.121144E+06 -1.826349E+05 -5.235028E+03 -4.486259E+05  4.820087E-10  2.464123E-10
       174  19 -1.193796E+06 -2.097765E+05 -2.267131E+04 -4.685191E+05 -1.197985E+02 -4.657376E+03
       174  20 -1.155392E+06 -1.814340E+05 -1.073478E+04 -4.435690E+05 -1.778584E+03 -2.460651E+03
       174  21 -1.096752E+06 -1.736047E+05  6.221410E+02 -4.419782E+05 -3.437441E+03 -2.633082E+02
       174  22 -1.108938E+06 -1.780462E+05 -1.204424E+03 -4.453298E+05  1.487851E+03 -4.054800E+03
       174  23 -1.119059E+06 -1.678264E+05 -1.465841E+03 -4.336358E+05 -1.705339E+02 -1.857979E+03
       174  24 -1.108948E+06 -1.781198E+05 -2.306437E+03 -4.453021E+05 -1.828928E+03  3.394752E+02
       174  25 -1.024073E+06 -1.463156E+05  2.026181E+04 -4.221378E+05  3.095735E+03 -3.452136E+03
       174  26 -1.082725E+06 -1.542187E+05  7.803004E+03 -4.237022E+05  1.437619E+03 -1.255269E+03
       174  27 -1.121144E+06 -1.826349E+05 -5.235027E+03 -4.486259E+05 -2.204442E+02  9.422480E+02
       175   1 -1.046131E+06 -1.546330E+05  1.323161E+04 -4.284489E+05  4.420849E+03 -1.016046E+03
       175   2 -1.007723E+06 -1.261260E+05  2.318285E+04 -4.033057E+05  7.916017E+03 -2.517161E+03
       175   3 -9.498317E+05 -1.193207E+05  3.085422E+04 -4.012099E+05  1.139529E+04 -3.973853E+03
       175   4 -1.109060E+06 -1.779825E+05 -2.954642E+03 -4.453842E+05  2.802254E+03 -1.622648E+03
       175   5 -1.118882E+06 -1.677054E+05 -5.164337E+03 -4.336448E+05  6.325710E+03 -3.113342E+03
       175   6 -1.109228E+06 -1.791363E+05 -9.676539E+03 -4.449541E+05  9.833045E+03 -4.559684E+03
       175   7 -1.171985E+06 -2.013317E+05 -1.914121E+04 -4.623179E+05  1.183839E+03 -2.229184E+03
       175   8 -1.230028E+06 -2.092840E+05 -3.351246E+04 -4.639790E+05  4.735719E+03 -3.709406E+03
       175   9 -1.268598E+06 -2.389500E+05 -5.020917E+04 -4.886879E+05  8.271244E+03 -5.145346E+03
       175  10 -1.046131E+06 -1.546330E+05  1.323157E+04 -4.284489E+05  2.385046E-11 -1.857847E-10
       175  11 -1.007723E+06 -1.261260E+05  2.318272E+04 -4.033057E+05  2.955829E-11 -8.186762E-11
       175  12 -9.498319E+05 -1.193207E+05  3.085394E+04 -4.012099E+05  2.419500E-10 -2.487904E-10
       175  13 -1.109060E+06 -1.779825E+05 -2.954662E+03 -4.453842E+05  2.525811E-10 -1.212994E-10
       175  14 -1.118882E+06 -1.677054E+05 -5.164431E+03 -4.336448E+05 -5.739059E-11 -1.673458E-10
       175  15 -1.109228E+06 -1.791363E+05 -9.676760E+03 -4.449540E+05 -2.043663E-10 -9.322968E-11
       175  16 -1.171985E+06 -2.013317E+05 -1.914122E+04 -4.623179E+05  1.682919E-10 -1.902008E-10
       175  17 -1.230028E+06 -2.092840E+05 -3.351253E+04 -4.639789E+05 -3.795084E-10 -4.294710E-10
       175  18 -1.268598E+06 -2.389500E+05 -5.020935E+04 -4.886878E+05  3.566475E-10 -1.851332E-10
       175  19 -1.046131E+06 -1.546330E+05  1.323161E+04 -4.284489E+05 -4.420849E+03  1.016046E+03
       175  20 -1.007723E+06 -1.261260E+05  2.318285E+04 -4.033057E+05 -7.916017E+03  2.517161E+03
       175  21 -9.498317E+05 -1.193207E+05  3.085422E+04 -4.012099E+05 -1.139529E+04  3.973853E+03
       175  22 -1.109060E+06 -1.779825E+05 -2.954642E+03 -4.453842E+05 -2.802254E+03  1.622648E+03
       175  23 -1.118882E+06 -1.677054E+05 -5.164337E+03 -4.336448E+05 -6.325710E+03  3.113342E+03
       175  24 -1.109228E+06 -1.791363E+05 -9.676539E+03 -4.449541E+05 -9.833045E+03  4.559684E+03
       175  25 -1.171985E+06 -2.013317E+05 -1.914121E+04 -4.623179E+05 -1.183839E+03  2.229184E+03
       175  26 -1.230028E+06 -2.092840E+05 -3.351246E+04 -4.639790E+05 -4.735719E+03  3.709406E+03
       175  27 -1.268598E+06 -2.389500E+05 -5.020917E+04 -4.886879E+05 -8.271244E+03  5.145346E+03
       176   1 -8.987492E+05 -1.004850E+05  4.108576E+04 -3.905053E+05  1.394392E+04 -4.743649E+03
       176   2 -8.608198E+05 -6.920582E+04  4.340871E+04 -3.624282E+05  2.581518E+04 -2.985232E+03
       176   3 -8.101994E+05 -7.390719E+04  3.323414E+04 -3.535186E+05  3.742982E+04 -5.365993E+02
       176   4 -1.110065E+06 -1.773959E+05 -1.255843E+04 -4.459439E+05  1.218026E+04 -5.405142E+03
       176   5 -1.117365E+06 -1.663974E+05 -2.225128E+04 -4.337227E+05  2.449559E+04 -3.480685E+03
       176   6 -1.112067E+06 -1.914737E+05 -4.479855E+04 -4.406710E+05  3.655337E+04 -8.663402E+02
       176   7 -1.321339E+06 -2.543049E+05 -6.620641E+04 -5.013658E+05  1.041725E+04 -6.066406E+03
       176   8 -1.373846E+06 -2.635845E+05 -8.791679E+04 -5.049905E+05  2.317659E+04 -3.975910E+03
       176   9 -1.413846E+06 -3.090324E+05 -1.228388E+05 -5.277843E+05  3.567738E+04 -1.195891E+03
       176  10 -8.987494E+05 -1.004850E+05  4.108535E+04 -3.905053E+05  6.619702E-11 -1.459770E-10
       176  11 -8.608206E+05 -6.920601E+04  4.340743E+04 -3.624281E+05 -5.891434E-11 -1.106902E-10
       176  12 -8.102009E+05 -7.390757E+04  3.323150E+04 -3.535186E+05 -6.698195E-10 -2.650542E-11
       176  13 -1.110066E+06 -1.773960E+05 -1.255876E+04 -4.459438E+05  2.909114E-10 -1.481140E-10
       176  14 -1.117366E+06 -1.663976E+05 -2.225243E+04 -4.337226E+05 -5.115729E-10 -8.869414E-11
       176  15 -1.112069E+06 -1.914740E+05 -4.480106E+04 -4.406710E+05  5.437184E-10 -1.165593E-10
       176  16 -1.321339E+06 -2.543049E+05 -6.620669E+04 -5.013658E+05 -1.953709E-10 -2.170951E-10
       176  17 -1.373847E+06 -2.635847E+05 -8.791783E+04 -5.049904E+05  1.250044E-10  3.430583E-11
       176  18 -1.413848E+06 -3.090327E+05 -1.228412E+05 -5.277843E+05  2.183064E-10 -1.928722E-10
       176  19 -8.987492E+05 -1.004850E+05  4.108576E+04 -3.905053E+05 -1.394392E+04  4.743649E+03
       176  20 -8.608198E+05 -6.920582E+04  4.340871E+04 -3.624282E+05 -2.581518E+04  2.985232E+03
       176  21 -8.101994E+05 -7.390719E+04  3.323414E+04 -3.535186E+05 -3.742982E+04  5.365993E+02
       176  22 -1.110065E+06 -1.773959E+05 -1.255843E+04 -4.459439E+05 -1.218026E+04  5.405142E+03
       176  23 -1.117365E+06 -1.663974E+05 -2.225128E+04 -4.337227E+05 -2.449559E+04  3.480685E+03
       176  24 -1.112067E+06 -1.914737E+05 -4.479855E+04 -4.406710E+05 -3.655337E+04  8.663402E+02
       176  25 -1.321339E+06 -2.543049E+05 -6.620641E+04 -5.013658E+05 -1.041725E+04  6.066406E+03
       176  26 -1.373846E+06 -2.635845E+05 -8.791679E+04 -5.049905E+05 -2.317659E+04  3.975910E+03
       176  27 -1.413846E+06 -3.090324E+05 -1.228388E+05 -5.277843E+05 -3.567738E+04  1.195891E+03
       177   1 -7.476484E+05 -5.530042E+04  3.455800E+04 -3.754443E+05  4.981004E+04  7.586744E+02
       177   2 -7.161276E+05  1.276821E+04  7.647372E+03 -3.086224E+05  9.366913E+04  1.610699E+04
       177   3 -7.407580E+05 -1.239924E+05 -1.024831E+05 -2.155745E+05  1.329470E+05  4.366099E+04
       177   4 -1.119423E+06 -1.707234E+05 -5.567466E+04 -4.525927E+05  4.518037E+04 -9.778182E+02
       177   5 -1.102429E+06 -1.513391E+05 -9.477039E+04 -4.342271E+05  9.695145E+04  1.733550E+04
       177   6 -1.143210E+06 -3.384375E+05 -2.234046E+05 -3.896254E+05  1.441381E+05  4.785007E+04
       177   7 -1.491061E+06 -2.861464E+05 -1.459167E+05 -5.297036E+05  4.055375E+04 -2.713611E+03
       177   8 -1.488583E+06 -3.154245E+05 -1.972010E+05 -5.597565E+05  1.002315E+05  1.856290E+04
       177   9 -1.545495E+06 -5.528184E+05 -3.443413E+05 -5.635586E+05  1.553213E+05  5.203331E+04
       177  10 -7.476511E+05 -5.530109E+04  3.455333E+04 -3.754443E+05 -5.107304E-10  1.890469E-10
       177  11 -7.161371E+05  1.276557E+04  7.630374E+03 -3.086236E+05 -1.211562E-10 -1.224596E-10
       177  12 -7.407775E+05 -1.239992E+05 -1.025199E+05 -2.155792E+05 -1.019975E-10 -1.662739E-10
       177  13 -1.119425E+06 -1.707240E+05 -5.567851E+04 -4.525926E+05  1.919374E-10  9.798728E-11
       177  14 -1.102439E+06 -1.513420E+05 -9.478866E+04 -4.342284E+05 -4.649317E-10 -5.968906E-11
       177  15 -1.143233E+06 -3.384456E+05 -2.234480E+05 -3.896309E+05  1.213941E-10 -1.466744E-10
       177  16 -1.491063E+06 -2.861469E+05 -1.459198E+05 -5.297035E+05 -4.466023E-11 -3.180177E-11
       177  17 -1.488593E+06 -3.154276E+05 -1.972205E+05 -5.597580E+05 -1.167592E-10  3.861272E-10
       177  18 -1.545521E+06 -5.528278E+05 -3.443919E+05 -5.635651E+05 -1.512916E-10  6.747787E-11
       177  19 -7.476484E+05 -5.530042E+04  3.455800E+04 -3.754443E+05 -4.981004E+04 -7.586744E+02
       177  20 -7.161276E+05  1.276821E+04  7.647372E+03 -3.086224E+05 -9.366913E+04 -1.610699E+04
       177  21 -7.407580E+05 -1.239924E+05 -1.024831E+05 -2.155745E+05 -1.329470E+05 -4.366099E+04
       177  22 -1.119423E+06 -1.707234E+05 -5.567466E+04 -4.525927E+05 -4.518037E+04  9.778182E+02
       177  23 -1.102429E+06 -1.513391E+05 -9.477039E+04 -4.342271E+05 -9.695145E+04 -1.733550E+04
       177  24 -1.143210E+06 -3.384375E+05 -2.234046E+05 -3.896254E+05 -1.441381E+05 -4.785007E+04
       177  25 -1.491061E+06 -2.861464E+05 -1.459167E+05 -5.297036E+05 -4.055375E+04  2.713611E+03
       177  26 -1.488583E+06 -3.154245E+05 -1.972010E+05 -5.597565E+05 -1.002315E+05 -1.856290E+04
       177  27 -1.545495E+06 -5.528184E+05 -3.443413E+05 -5.635586E+05 -1.553213E+05 -5.203331E+04
       178   1 -1.225997E+06 -2.752521E+05 -2.359338E+05 -2.466015E+04  7.293475E+04  1.972944E+04
       178   2 -1.109066E+06 -3.845343E+05 -2.764528E+05 -2.472423E+04  6.142640E+04  6.017754E+04
       178   3 -9.524033E+05 -3.478401E+05 -2.726607E+05 -9.746181E+04  5.001027E+04  5.934712E+04
       178   4  4.276950E+05  1.362709E+05  1.687660E+05 -7.655433E+04  1.156183E+05  1.982037E+04
       178   5  4.054554E+05 -1.124206E+04  7.510898E+04 -4.008004E+04  7.533808E+04  6.018979E+04
       178   6  4.278268E+05 -7.977612E+03  4.565359E+04 -7.626373E+04  3.515518E+04  5.932416E+04
       178   7  2.083891E+06  5.476030E+05  5.732744E+05 -1.285886E+05  1.584151E+05  1.990406E+04
       178   8  1.922098E+06  3.618897E+05  4.265176E+05 -5.547449E+04  8.928332E+04  6.020135E+04
       178   9  1.809821E+06  3.317532E+05  3.638423E+05 -5.501845E+04  2.026722E+04  5.930021E+04
       178  10 -1.226003E+06 -2.752539E+05 -2.359446E+05 -2.466131E+04  1.671647E-10  2.227593E-10
       178  11 -1.109071E+06 -3.845393E+05 -2.764668E+05 -2.472721E+04 -2.893078E-10 -9.869289E-10
       178  12 -9.524069E+05 -3.478446E+05 -2.726720E+05 -9.746420E+04 -1.410084E-09 -4.505661E-10
       178  13  4.276805E+05  1.362668E+05  1.687401E+05 -7.655618E+04 -1.782515E-09 -6.353011E-10
       178  14  4.054483E+05 -1.124747E+04  7.509151E+04 -4.008370E+04 -1.081412E-09 -1.247025E-10
       178  15  4.278246E+05 -7.981724E+03  4.564466E+04 -7.626541E+04 -1.087259E-09 -7.392219E-10
       178  16  2.083864E+06  5.475959E+05  5.732266E+05 -1.285911E+05  3.001372E-10  1.110905E-09
       178  17  1.922088E+06  3.618837E+05  4.264958E+05 -5.547882E+04  1.702929E-09 -2.289023E-10
       178  18  1.809820E+06  3.317493E+05  3.638350E+05 -5.501941E+04  1.415139E-09 -3.999677E-10
       178  19 -1.225997E+06 -2.752521E+05 -2.359338E+05 -2.466015E+04 -7.293475E+04 -1.972944E+04
       178  20 -1.109066E+06 -3.845343E+05 -2.764528E+05 -2.472423E+04 -6.142640E+04 -6.017754E+04
       178  21 -9.524033E+05 -3.478401E+05 -2.726607E+05 -9.746181E+04 -5.001027E+04 -5.934712E+04
       178  22  4.276950E+05  1.362709E+05  1.687660E+05 -7.655433E+04 -1.156183E+05 -1.982037E+04
       178  23  4.054554E+05 -1.124206E+04  7.510898E+04 -4.008004E+04 -7.533808E+04 -6.018979E+04
       178  24  4.278268E+05 -7.977612E+03  4.565359E+04 -7.626373E+04 -3.515518E+04 -5.932416E+04
       178  25  2.083891E+06  5.476030E+05  5.732744E+05 -1.285886E+05 -1.584151E+05 -1.990406E+04
       178  26  1.922098E+06  3.618897E+05  4.265176E+05 -5.547449E+04 -8.928332E+04 -6.020135E+04
       178  27  1.809821E+06  3.317532E+05  3.638423E+05 -5.501845E+04 -2.026722E+04 -5.930021E+04
       179   1 -8.273580E+05 -2.969005E+05 -2.520290E+05 -7.359320E+04  3.048476E+04  5.052972E+04
       179   2 -6.948714E+05 -2.749679E+05 -2.376065E+05 -3.926395E+04  2.217454E+04  4.638285E+04
       179   3 -5.575389E+05 -2.412708E+05 -2.146503E+05 -7.802206E+04  1.385289E+04  4.014983E+04
       179   4  4.191218E+05  1.022436E+04  3.678707E+04 -7.643883E+04  2.836892E+04  5.052107E+04
       179   5  4.166260E+05 -1.239223E+03  1.930780E+04 -3.989700E+04  1.859029E+04  4.637618E+04
       179   6  4.192033E+05 -6.950930E+02  1.136902E+04 -7.643395E+04  8.801988E+03  4.014683E+04
       179   7  1.667038E+06  3.172400E+05  3.254991E+05 -7.929040E+04  2.624882E+04  5.051244E+04
       179   8  1.529266E+06  2.724028E+05  2.761398E+05 -4.053124E+04  1.499964E+04  4.636953E+04
       179   9  1.396827E+06  2.398136E+05  2.373247E+05 -7.484321E+04  3.743183E+03  4.014382E+04
       179  10 -8.273597E+05 -2.969035E+05 -2.520356E+05 -7.359444E+04 -1.433819E-09 -5.448128E-10
       179  11 -6.948725E+05 -2.749703E+05 -2.376115E+05 -3.926478E+04 -1.517134E-09 -4.823448E-10
       179  12 -5.575396E+05 -2.412726E+05 -2.146537E+05 -7.802251E+04 -8.997480E-10  1.097462E-12
       179  13  4.191203E+05  1.022140E+04  3.678077E+04 -7.643999E+04 -1.397047E-09 -8.518338E-10
       179  14  4.166250E+05 -1.241625E+03  1.930311E+04 -3.989770E+04 -2.009289E-09 -9.575690E-11
       179  15  4.192028E+05 -6.968450E+02  1.136585E+04 -7.643423E+04 -8.601364E-10  1.838836E-10
       179  16  1.667036E+06  3.172371E+05  3.254930E+05 -7.929147E+04  8.911453E-10 -4.773787E-10
       179  17  1.529265E+06  2.724004E+05  2.761353E+05 -4.053180E+04 -1.506391E-09  1.825758E-10
       179  18  1.396827E+06  2.398119E+05  2.373217E+05 -7.484333E+04 -7.726121E-10  7.204792E-11
       179  19 -8.273580E+05 -2.969005E+05 -2.520290E+05 -7.359320E+04 -3.048476E+04 -5.052972E+04
       179  20 -6.948714E+05 -2.749679E+05 -2.376065E+05 -3.926395E+04 -2.217454E+04 -4.638285E+04
       179  21 -5.575389E+05 -2.412708E+05 -2.146503E+05 -7.802206E+04 -1.385289E+04 -4.014983E+04
       179  22  4.191218E+05  1.022436E+04  3.678707E+04 -7.643883E+04 -2.836892E+04 -5.052107E+04
       179  23  4.166260E+05 -1.239223E+03  1.930780E+04 -3.989700E+04 -1.859029E+04 -4.637618E+04
       179  24  4.192033E+05 -6.950930E+02  1.136902E+04 -7.643395E+04 -8.801988E+03 -4.014683E+04
       179  25  1.667038E+06  3.172400E+05  3.254991E+05 -7.929040E+04 -2.624882E+04 -5.051244E+04
       179  26  1.529266E+06  2.724028E+05  2.761398E+05 -4.053124E+04 -1.499964E+04 -4.636953E+04
       179  27  1.396827E+06  2.398136E+05  2.373247E+05 -7.484321E+04 -3.743183E+03 -4.014382E+04
       180   1 -4.262583E+05 -2.071906E+05 -1.859998E+05 -7.597128E+04  1.141627E+04  3.610839E+04
       180   2 -2.926736E+05 -1.751037E+05 -1.592325E+05 -3.969153E+04  9.025895E+03  2.973928E+04
       180   3 -1.583190E+05 -1.419649E+05 -1.306068E+05 -7.602966E+04  6.627510E+03  2.327569E+04
       180   4  4.183053E+05  6.869460E+02  8.785242E+03 -7.633128E+04  7.023860E+03  3.610716E+04
       180   5  4.179482E+05 -1.502173E+02  4.937206E+03 -4.002512E+04  4.564293E+03  2.974038E+04
       180   6  4.183554E+05  7.680672E+01  2.994382E+03 -7.633175E+04  2.097221E+03  2.327924E+04
       180   7  1.263529E+06  2.085145E+05  2.035229E+05 -7.669165E+04  2.625517E+03  3.610593E+04
       180   8  1.129037E+06  1.747678E+05  1.690733E+05 -4.035901E+04  9.761934E+01  2.974148E+04
       180   9  9.953370E+05  1.420952E+05  1.365734E+05 -7.663401E+04 -2.437246E+03  2.328280E+04
       180  10 -4.262587E+05 -2.071920E+05 -1.860025E+05 -7.597161E+04 -7.596814E-11  3.833505E-10
       180  11 -2.926739E+05 -1.751046E+05 -1.592343E+05 -3.969174E+04 -7.129878E-10  1.767573E-10
       180  12 -1.583192E+05 -1.419655E+05 -1.306079E+05 -7.602978E+04  1.062447E-09 -9.202764E-10
       180  13  4.183049E+05  6.855325E+02  8.782698E+03 -7.633148E+04 -1.516916E-09  1.349338E-10
       180  14  4.179479E+05 -1.511729E+02  4.935505E+03 -4.002523E+04 -1.185827E-09  3.912619E-10
       180  15  4.183552E+05  7.622349E+01  2.993355E+03 -7.633179E+04  7.002423E-10  4.923885E-10
       180  16  1.263528E+06  2.085131E+05  2.035205E+05 -7.669173E+04 -7.444486E-10  7.954812E-11
       180  17  1.129037E+06  1.747669E+05  1.690717E+05 -4.035901E+04  8.936628E-10 -5.179438E-10
       180  18  9.953368E+05  1.420946E+05  1.365724E+05 -7.663397E+04 -3.714583E-10 -4.565955E-10
       180  19 -4.262583E+05 -2.071906E+05 -1.859998E+05 -7.597128E+04 -1.141627E+04 -3.610839E+04
       180  20 -2.926736E+05 -1.751037E+05 -1.592325E+05 -3.969153E+04 -9.025895E+03 -2.973928E+04
       180  21 -1.583190E+05 -1.419649E+05 -1.306068E+05 -7.602966E+04 -6.627510E+03 -2.327569E+04
       180  22  4.183053E+05  6.869460E+02  8.785242E+03 -7.633128E+04 -7.023860E+03 -3.610716E+04
       180  23  4.179482E+05 -1.502173E+02  4.937206E+03 -4.002512E+04 -4.564293E+03 -2.974038E+04
       180  24  4.183554E+05  7.680672E+01  2.994382E+03 -7.633175E+04 -2.097221E+03 -2.327924E+04
       180  25  1.263529E+06  2.085145E+05  2.035229E+05 -7.669165E+04 -2.625517E+03 -3.610593E+04
       180  26  1.129037E+06  1.747678E+05  1.690733E+05 -4.035901E+04 -9.761934E+01 -2.974148E+04
       180  27  9.953370E+05  1.420952E+05  1.365734E+05 -7.663401E+04  2.437246E+03 -2.328280E+04
       181   1 -2.699608E+04 -1.093480E+05 -1.000801E+05 -7.590862E+04  6.101607E+03  1.949829E+04
       181   2  1.064640E+05 -7.667008E+04 -7.040365E+04 -3.982548E+04  5.302705E+03  1.304384E+04
       181   3  2.399368E+05 -4.374647E+04 -4.018536E+04 -7.606519E+04  4.500372E+03  6.589663E+03
       181   4  4.182185E+05  1.664040E+02  2.362862E+03 -7.626665E+04  1.609177E+03  1.950290E+04
       181   5  4.182303E+05  6.749603E+01  1.602513E+03 -4.010634E+04  8.095779E+02  1.304945E+04
       181   6  4.182402E+05  2.159736E+02  1.385503E+03 -7.626663E+04  6.715871E+00  6.596335E+03
       181   7  8.636165E+05  1.096670E+05  1.047928E+05 -7.662487E+04 -2.886449E+03  1.950751E+04
       181   8  7.300865E+05  7.679827E+04  7.360227E+04 -4.038730E+04 -3.685788E+03  1.305506E+04
       181   9  5.965729E+05  4.417618E+04  4.295429E+04 -7.646811E+04 -4.488222E+03  6.603009E+03
       181  10 -2.699622E+04 -1.093484E+05 -1.000809E+05 -7.590871E+04 -1.845983E-10 -4.908112E-10
       181  11  1.064640E+05 -7.667027E+04 -7.040402E+04 -3.982554E+04  5.875193E-10  1.381073E-10
       181  12  2.399368E+05 -4.374652E+04 -4.018548E+04 -7.606522E+04  2.329336E-10 -1.210031E-10
       181  13  4.182184E+05  1.659947E+02  2.362142E+03 -7.626667E+04  1.443803E-09 -1.146044E-09
       181  14  4.182303E+05  6.731296E+01  1.602192E+03 -4.010635E+04 -1.148462E-09  5.054848E-10
       181  15  4.182402E+05  2.159269E+02  1.385421E+03 -7.626663E+04  7.132369E-10 -4.967677E-10
       181  16  8.636164E+05  1.096666E+05  1.047921E+05 -7.662483E+04 -1.399297E-10 -3.689557E-11
       181  17  7.300864E+05  7.679808E+04  7.360193E+04 -4.038727E+04 -1.932942E-09 -2.529198E-10
       181  18  5.965729E+05  4.417613E+04  4.295417E+04 -7.646809E+04 -1.099646E-09 -1.032133E-09
       181  19 -2.699608E+04 -1.093480E+05 -1.000801E+05 -7.590862E+04 -6.101607E+03 -1.949829E+04
       181  20  1.064640E+05 -7.667008E+04 -7.040365E+04 -3.982548E+04 -5.302705E+03 -1.304384E+04
       181  21  2.399368E+05 -4.374647E+04 -4.018536E+04 -7.606519E+04 -4.500372E+03 -6.589663E+03
       181  22  4.182185E+05  1.664040E+02  2.362862E+03 -7.626665E+04 -1.609177E+03 -1.950290E+04
       181  23  4.182303E+05  6.749603E+01  1.602513E+03 -4.010634E+04 -8.095779E+02 -1.304945E+04
       181  24  4.182402E+05  2.159736E+02  1.385503E+03 -7.626663E+04 -6.715871E+00 -6.596335E+03
       181  25  8.636165E+05  1.096670E+05  1.047928E+05 -7.662487E+04  2.886449E+03 -1.950751E+04
       181  26  7.300865E+05  7.679827E+04  7.360227E+04 -4.038730E+04  3.685788E+03 -1.305506E+04
       181  27  5.965729E+05  4.417618E+04  4.295429E+04 -7.646811E+04  4.488222E+03 -6.603009E+03
       182   1  3.711189E+05 -1.130427E+04 -9.058899E+03 -7.618927E+04  4.237633E+03  2.834090E+03
       182   2  5.045184E+05  2.131931E+04  2.177739E+04 -4.018203E+04  3.306227E+03 -3.614728E+03
       182   3  6.378831E+05  5.422063E+04  5.323203E+04 -7.643270E+04  2.375519E+03 -1.006056E+04
       182   4  4.182360E+05  2.125572E+02  1.428056E+03 -7.625286E+04 -2.550484E+02  2.841003E+03
       182   5  4.182598E+05  9.292973E+01  1.859614E+03 -4.012356E+04 -1.184748E+03 -3.608137E+03
       182   6  4.182299E+05  2.514376E+02  2.908772E+03 -7.625277E+04 -2.113553E+03 -1.005423E+04
       182   7  4.653553E+05  1.172925E+04  1.191495E+04 -7.631645E+04 -4.748067E+03  2.847916E+03
       182   8  3.320081E+05 -2.113396E+04 -1.805858E+04 -4.006509E+04 -5.675104E+03 -3.601545E+03
       182   9  1.986214E+05 -5.372110E+04 -4.741758E+04 -7.607288E+04 -6.601051E+03 -1.004789E+04
       182  10  3.711188E+05 -1.130429E+04 -9.058948E+03 -7.618928E+04 -5.693800E-10  7.217162E-10
       182  11  5.045184E+05  2.131929E+04  2.177734E+04 -4.018202E+04 -1.080658E-09  1.921705E-09
       182  12  6.378831E+05  5.422052E+04  5.323183E+04 -7.643268E+04  1.378166E-09 -1.181047E-09
       182  13  4.182360E+05  2.125486E+02  1.428041E+03 -7.625286E+04 -6.998485E-10 -1.000309E-11
       182  14  4.182598E+05  9.291537E+01  1.859587E+03 -4.012356E+04 -4.256548E-10 -8.482679E-10
       182  15  4.182299E+05  2.513278E+02  2.908574E+03 -7.625278E+04 -7.372318E-10  1.750248E-10
       182  16  4.653553E+05  1.172923E+04  1.191489E+04 -7.631644E+04  5.176362E-10  8.070523E-11
       182  17  3.320081E+05 -2.113398E+04 -1.805866E+04 -4.006511E+04  3.767813E-10 -4.488646E-10
       182  18  1.986214E+05 -5.372122E+04 -4.741786E+04 -7.607293E+04 -2.362631E-09  1.563011E-10
       182  19  3.711189E+05 -1.130427E+04 -9.058899E+03 -7.618927E+04 -4.237633E+03 -2.834090E+03
       182  20  5.045184E+05  2.131931E+04  2.177739E+04 -4.018203E+04 -3.306227E+03  3.614728E+03
       182  21  6.378831E+05  5.422063E+04  5.323203E+04 -7.643270E+04 -2.375519E+03  1.006056E+04
       182  22  4.182360E+05  2.125572E+02  1.428056E+03 -7.625286E+04  2.550484E+02 -2.841003E+03
       182  23  4.182598E+05  9.292973E+01  1.859614E+03 -4.012356E+04  1.184748E+03  3.608137E+03
       182  24  4.182299E+05  2.514376E+02  2.908772E+03 -7.625277E+04  2.113553E+03  1.005423E+04
       182  25  4.653553E+05  1.172925E+04  1.191495E+04 -7.631645E+04  4.748067E+03 -2.847916E+03
       182  26  3.320081E+05 -2.113396E+04 -1.805858E+04 -4.006509E+04  5.675104E+03  3.601545E+03
       182  27  1.986214E+05 -5.372110E+04 -4.741758E+04 -7.607288E+04  6.601051E+03  1.004789E+04
       183   1  7.693540E+05  8.656205E+04  8.514857E+04 -7.642401E+04  1.803663E+03 -1.382757E+04
       183   2  9.027109E+05  1.191537E+05  1.181737E+05 -4.041596E+04 -1.392098E+03 -2.027202E+04
       183   3  1.036790E+06  1.531154E+05  1.536031E+05 -7.682397E+04 -4.583391E+03 -2.663237E+04
       183   4  4.183780E+05  1.305790E+02  3.728688E+03 -7.628893E+04 -2.717356E+03 -1.382180E+04
       183   5  4.180125E+05 -9.205363E+01  6.277809E+03 -4.007862E+04 -5.852721E+03 -2.026796E+04
       183   6  4.183435E+05  1.046694E+03  1.119168E+04 -7.628782E+04 -8.982944E+03 -2.662992E+04
       183   7  6.751559E+04 -8.630955E+04 -7.769938E+04 -7.615388E+04 -7.235839E+03 -1.381603E+04
       183   8 -6.646893E+04 -1.193543E+05 -1.056337E+05 -3.974147E+04 -1.030989E+04 -2.026391E+04
       183   9 -1.997500E+05 -1.510487E+05 -1.312450E+05 -7.575210E+04 -1.337815E+04 -2.662749E+04
       183  10  7.693540E+05  8.656185E+04  8.514820E+04 -7.642399E+04  8.697338E-11 -1.219611E-09
       183  11  9.027108E+05  1.191533E+05  1.181729E+05 -4.041598E+04 -1.442870E-09  1.713160E-10
       183  12  1.036790E+06  1.531146E+05  1.536017E+05 -7.682407E+04 -1.613114E-09  2.012675E-10
       183  13  4.183779E+05  1.303719E+02  3.728315E+03 -7.628896E+04 -8.111315E-10  1.115610E-10
       183  14  4.180124E+05 -9.250403E+01  6.276972E+03 -4.007871E+04 -1.942829E-10 -7.743833E-10
       183  15  4.183433E+05  1.045911E+03  1.119019E+04 -7.628801E+04  5.231103E-10 -2.532259E-10
       183  16  6.751549E+04 -8.630977E+04 -7.769984E+04 -7.615396E+04 -4.306261E-10  1.398645E-10
       183  17 -6.646916E+04 -1.193548E+05 -1.056346E+05 -3.974164E+04 -5.327667E-10  9.361548E-10
       183  18 -1.997504E+05 -1.510495E+05 -1.312467E+05 -7.575238E+04  1.377428E-09  5.800987E-10
       183  19  7.693540E+05  8.656205E+04  8.514857E+04 -7.642401E+04 -1.803663E+03  1.382757E+04
       183  20  9.027109E+05  1.191537E+05  1.181737E+05 -4.041596E+04  1.392098E+03  2.027202E+04
       183  21  1.036790E+06  1.531154E+05  1.536031E+05 -7.682397E+04  4.583391E+03  2.663237E+04
       183  22  4.183780E+05  1.305790E+02  3.728688E+03 -7.628893E+04  2.717356E+03  1.382180E+04
       183  23  4.180125E+05 -9.205363E+01  6.277809E+03 -4.007862E+04  5.852721E+03  2.026796E+04
       183  24  4.183435E+05  1.046694E+03  1.119168E+04 -7.628782E+04  8.982944E+03  2.662992E+04
       183  25  6.751559E+04 -8.630955E+04 -7.769938E+04 -7.615388E+04  7.235839E+03  1.381603E+04
       183  26 -6.646893E+04 -1.193543E+05 -1.056337E+05 -3.974147E+04  1.030989E+04  2.026391E+04
       183  27 -1.997500E+05 -1.510487E+05 -1.312450E+05 -7.575210E+04  1.337815E+04  2.662749E+04
       184   1  1.169801E+06  1.839108E+05  1.880161E+05 -7.453673E+04 -6.278505E+03 -3.062208E+04
       184   2  1.301229E+06  2.162702E+05  2.289520E+05 -4.134302E+04 -2.006878E+04 -3.685359E+04
       184   3  1.438765E+06  2.642048E+05  2.828291E+05 -8.090214E+04 -3.385312E+04 -4.128104E+04
       184   4  4.194516E+05 -7.244308E+02  1.448136E+04 -7.636504E+04 -1.124823E+04 -3.062064E+04
       184   5  4.164771E+05 -1.357737E+03  2.469017E+04 -3.998408E+04 -2.376494E+04 -3.685583E+04
       184   6  4.193854E+05  1.337800E+04  4.697167E+04 -7.636172E+04 -3.627278E+04 -4.128588E+04
       184   7 -3.303778E+05 -1.853991E+05 -1.590909E+05 -7.819100E+04 -1.621200E+04 -3.061916E+04
       184   8 -4.675517E+05 -2.190405E+05 -1.796237E+05 -3.862699E+04 -2.745586E+04 -3.685808E+04
       184   9 -5.990355E+05 -2.375216E+05 -1.889552E+05 -7.182873E+04 -3.868847E+04 -4.129076E+04
       184  10  1.169800E+06  1.839097E+05  1.880142E+05 -7.453689E+04 -1.078862E-09  5.386687E-10
       184  11  1.301228E+06  2.162686E+05  2.289487E+05 -4.134362E+04  2.603811E-10 -5.811515E-12
       184  12  1.438763E+06  2.642027E+05  2.828238E+05 -8.090327E+04  1.488590E-11 -7.952268E-10
       184  13  4.194512E+05 -7.254718E+02  1.447936E+04 -7.636532E+04  7.117615E-10  7.241807E-10
       184  14  4.164762E+05 -1.359348E+03  2.468655E+04 -3.998478E+04 -9.524576E-10  4.236171E-10
       184  15  4.193836E+05  1.337581E+04  4.696600E+04 -7.636292E+04 -1.653902E-10 -1.155687E-09
       184  16 -3.303783E+05 -1.854002E+05 -1.590931E+05 -7.819140E+04  6.590916E-10  8.541271E-10
       184  17 -4.675529E+05 -2.190421E+05 -1.796277E+05 -3.862781E+04  6.871992E-10 -1.516900E-10
       184  18 -5.990376E+05 -2.375239E+05 -1.889612E+05 -7.183001E+04 -2.847832E-10 -9.879241E-10
       184  19  1.169801E+06  1.839108E+05  1.880161E+05 -7.453673E+04  6.278505E+03  3.062208E+04
       184  20  1.301229E+06  2.162702E+05  2.289520E+05 -4.134302E+04  2.006878E+04  3.685359E+04
       184  21  1.438765E+06  2.642048E+05  2.828291E+05 -8.090214E+04  3.385312E+04  4.128104E+04
       184  22  4.194516E+05 -7.244308E+02  1.448136E+04 -7.636504E+04  1.124823E+04  3.062064E+04
       184  23  4.164771E+05 -1.357737E+03  2.469017E+04 -3.998408E+04  2.376494E+04  3.685583E+04
       184  24  4.193854E+05  1.337800E+04  4.697167E+04 -7.636172E+04  3.627278E+04  4.128588E+04
       184  25 -3.303778E+05 -1.853991E+05 -1.590909E+05 -7.819100E+04  1.621200E+04  3.061916E+04
       184  26 -4.675517E+05 -2.190405E+05 -1.796237E+05 -3.862699E+04  2.745586E+04  3.685808E+04
       184  27 -5.990355E+05 -2.375216E+05 -1.889552E+05 -7.182873E+04  3.868847E+04  4.129076E+04
       185   1  1.583116E+06  2.735285E+05  3.237303E+05 -5.028519E+04 -3.147450E+04 -4.938729E+04
       185   2  1.689106E+06  3.026625E+05  3.942076E+05 -6.151310E+04 -1.078004E+05 -5.097677E+04
       185   3  1.855253E+06  5.283256E+05  5.636516E+05 -1.450930E+05 -1.841942E+05 -1.690397E+04
       185   4  4.304432E+05 -9.846155E+03  5.827997E+04 -7.622062E+04 -4.494033E+04 -4.939565E+04
       185   5  4.024174E+05 -1.396050E+04  9.600944E+04 -4.014666E+04 -9.630050E+04 -5.097824E+04
       185   6  4.303214E+05  1.743374E+05  2.155123E+05 -7.641990E+04 -1.477087E+05 -1.687730E+04
       185   7 -7.210014E+05 -2.933110E+05 -2.072575E+05 -1.021076E+05 -5.838134E+04 -4.940290E+04
       185   8 -8.827439E+05 -3.306980E+05 -2.022989E+05 -1.882499E+04 -8.482409E+04 -5.097892E+04
       185   9 -9.927504E+05 -1.797819E+05 -1.327675E+05 -7.904859E+03 -1.113062E+05 -1.684256E+04
       185  10  1.583115E+06  2.735256E+05  3.237239E+05 -5.028644E+04 -1.746673E-09 -5.387415E-10
       185  11  1.689093E+06  3.026566E+05  3.941809E+05 -6.151752E+04 -1.157893E-09  3.413102E-10
       185  12  1.855217E+06  5.283162E+05  5.635875E+05 -1.450955E+05 -4.682503E-10 -1.589561E-10
       185  13  4.304404E+05 -9.849318E+03  5.827159E+04 -7.622241E+04 -2.126149E-09 -4.069545E-10
       185  14  4.024067E+05 -1.396578E+04  9.598714E+04 -4.015061E+04 -6.306943E-11  1.755835E-09
       185  15  4.302979E+05  1.743313E+05  2.154708E+05 -7.642191E+04  1.137865E-09 -4.470837E-11
       185  16 -7.210057E+05 -2.933145E+05 -2.072685E+05 -1.021100E+05  1.458942E-09 -7.531731E-10
       185  17 -8.827524E+05 -3.307027E+05 -2.023173E+05 -1.882848E+04  1.299146E-09  3.159748E-10
       185  18 -9.927638E+05 -1.797855E+05 -1.327914E+05 -7.906370E+03  5.660388E-10 -3.518348E-10
       185  19  1.583116E+06  2.735285E+05  3.237303E+05 -5.028519E+04  3.147450E+04  4.938729E+04
       185  20  1.689106E+06  3.026625E+05  3.942076E+05 -6.151310E+04  1.078004E+05  5.097677E+04
       185  21  1.855253E+06  5.283256E+05  5.636516E+05 -1.450930E+05  1.841942E+05  1.690397E+04
       185  22  4.304432E+05 -9.846155E+03  5.827997E+04 -7.622062E+04  4.494033E+04  4.939565E+04
       185  23  4.024174E+05 -1.396050E+04  9.600944E+04 -4.014666E+04  9.630050E+04  5.097824E+04
       185  24  4.303214E+05  1.743374E+05  2.155123E+05 -7.641990E+04  1.477087E+05  1.687730E+04
       185  25 -7.210014E+05 -2.933110E+05 -2.072575E+05 -1.021076E+05  5.838134E+04  4.940290E+04
       185  26 -8.827439E+05 -3.306980E+05 -2.022989E+05 -1.882499E+04  8.482409E+04  5.097892E+04
       185  27 -9.927504E+05 -1.797819E+05 -1.327675E+05 -7.904859E+03  1.113062E+05  1.684256E+04
       186   1  2.331560E+05  7.391643E+05  2.545171E+05 -1.947228E+05  4.111296E+03  9.269282E+04
       186   2  5.548765E+04  4.535519E+05  1.170278E+05 -9.397155E+04  9.234038E+03  5.102331E+04
       186   3 -7.576948E+03  2.010589E+05  3.508439E+04 -1.382080E+05 -1.309602E+03  9.325109E+03
       186   4  1.021289E+05  2.143846E+05  1.253341E+05 -1.528253E+05  4.144628E+03  8.372300E+04
       186   5 -7.423314E+03  1.988107E+05  5.760463E+04 -8.049254E+04  9.229334E+03  5.298877E+04
       186   6 -4.232981E+03  2.144280E+05  3.786892E+04 -1.531386E+05 -1.351500E+03  2.220787E+04
       186   7 -2.891226E+04 -3.101411E+05 -3.867981E+03 -1.109631E+05  4.176766E+03  7.476071E+04
       186   8 -7.033821E+04 -5.587039E+04 -1.822859E+03 -6.701905E+04  9.224714E+03  5.495344E+04
       186   9 -8.880992E+02  2.277982E+05  4.065418E+04 -1.680695E+05 -1.394018E+03  3.509089E+04
       186  10  2.331537E+05  7.391551E+05  2.545010E+05 -1.947231E+05 -1.612799E-10  1.363208E-09
       186  11  5.548686E+04  4.535491E+05  1.170228E+05 -9.397193E+04 -1.143480E-09 -1.032370E-10
       186  12 -7.576974E+03  2.010588E+05  3.508423E+04 -1.382080E+05 -6.684316E-10 -2.456257E-09
       186  13  1.021270E+05  2.143770E+05  1.253209E+05 -1.528256E+05  6.501600E-10 -7.118028E-10
       186  14 -7.424159E+03  1.988076E+05  5.759919E+04 -8.049294E+04 -1.073676E-09  8.419579E-10
       186  15 -4.233115E+03  2.144275E+05  3.786799E+04 -1.531385E+05  8.906925E-11 -1.693404E-09
       186  16 -2.891378E+04 -3.101471E+05 -3.878522E+03 -1.109634E+05  3.938639E-10 -6.402921E-10
       186  17 -7.033912E+04 -5.587366E+04 -1.828694E+03 -6.701946E+04  2.822445E-09  1.754780E-10
       186  18 -8.884317E+02  2.277968E+05  4.065186E+04 -1.680694E+05 -9.668161E-10  2.652227E-09
       186  19  2.331560E+05  7.391643E+05  2.545171E+05 -1.947228E+05 -4.111296E+03 -9.269282E+04
       186  20  5.548765E+04  4.535519E+05  1.170278E+05 -9.397155E+04 -9.234038E+03 -5.102331E+04
       186  21 -7.576948E+03  2.010589E+05  3.508439E+04 -1.382080E+05  1.309602E+03 -9.325109E+03
       186  22  1.021289E+05  2.143846E+05  1.253341E+05 -1.528253E+05 -4.144628E+03 -8.372300E+04
       186  23 -7.423314E+03  1.988107E+05  5.760463E+04 -8.049254E+04 -9.229334E+03 -5.298877E+04
       186  24 -4.232981E+03  2.144280E+05  3.786892E+04 -1.531386E+05  1.351500E+03 -2.220787E+04
       186  25 -2.891226E+04 -3.101411E+05 -3.867981E+03 -1.109631E+05 -4.176766E+03 -7.476071E+04
       186  26 -7.033821E+04 -5.587039E+04 -1.822859E+03 -6.701905E+04 -9.224714E+03 -5.495344E+04
       186  27 -8.880992E+02  2.277982E+05  4.065418E+04 -1.680695E+05  1.394018E+03 -3.509089E+04
       187   1 -6.004636E+04 -6.983941E+04 -3.187111E+04 -1.560791E+05 -1.103692E+04  7.631895E+03
       187   2 -1.355762E+05 -3.411710E+05 -1.025351E+05 -7.940772E+04 -2.279804E+04 -3.614531E+03
       187   3 -1.954740E+05 -6.078670E+05 -1.621616E+05 -1.484269E+05 -3.322356E+04 -1.484206E+04
       187   4  8.516976E+03  2.085262E+05  3.272037E+04 -1.531943E+05 -1.106430E+04  1.631192E+04
       187   5 -8.030490E+02  2.061241E+05  2.396636E+04 -8.035839E+04 -2.281911E+04  4.128312E+03
       187   6  5.669872E+03  2.084502E+05  2.690044E+04 -1.532035E+05 -3.323898E+04 -8.041148E+03
       187   7  7.707493E+04  4.869635E+05  9.730693E+04 -1.503081E+05 -1.109159E+04  2.499582E+04
       187   8  1.339491E+05  7.536962E+05  1.504480E+05 -8.130968E+04 -2.284020E+04  1.187793E+04
       187   9  2.067670E+05  1.025383E+06  2.159180E+05 -1.579859E+05 -3.325449E+04 -1.231344E+03
       187  10 -6.004651E+04 -6.983950E+04 -3.187145E+04 -1.560791E+05 -1.577236E-09  4.542223E-10
       187  11 -1.355768E+05 -3.411712E+05 -1.025361E+05 -7.940779E+04 -9.461803E-10 -3.120231E-09
       187  12 -1.954753E+05 -6.078675E+05 -1.621641E+05 -1.484273E+05  6.219063E-10 -5.918347E-09
       187  13  8.516773E+03  2.085259E+05  3.271964E+04 -1.531942E+05 -1.589079E-09 -8.552494E-10
       187  14 -8.036127E+02  2.061239E+05  2.396535E+04 -8.035831E+04  7.802191E-11  6.774480E-10
       187  15  5.668668E+03  2.084498E+05  2.689824E+04 -1.532037E+05  6.129870E-10 -1.373466E-09
       187  16  7.707463E+04  4.869628E+05  9.730552E+04 -1.503079E+05 -1.969697E-09  2.775145E-10
       187  17  1.339485E+05  7.536959E+05  1.504468E+05 -8.130946E+04 -2.153452E-09  3.229463E-09
       187  18  2.067658E+05  1.025383E+06  2.159159E+05 -1.579860E+05 -8.899669E-12  6.064183E-09
       187  19 -6.004636E+04 -6.983941E+04 -3.187111E+04 -1.560791E+05  1.103692E+04 -7.631895E+03
       187  20 -1.355762E+05 -3.411710E+05 -1.025351E+05 -7.940772E+04  2.279804E+04  3.614531E+03
       187  21 -1.954740E+05 -6.078670E+05 -1.621616E+05 -1.484269E+05  3.322356E+04  1.484206E+04
       187  22  8.516976E+03  2.085262E+05  3.272037E+04 -1.531943E+05  1.106430E+04 -1.631192E+04
       187  23 -8.030490E+02  2.061241E+05  2.396636E+04 -8.035839E+04  2.281911E+04 -4.128312E+03
       187  24  5.669872E+03  2.084502E+05  2.690044E+04 -1.532035E+05  3.323898E+04  8.041148E+03
       187  25  7.707493E+04  4.869635E+05  9.730693E+04 -1.503081E+05  1.109159E+04 -2.499582E+04
       187  26  1.339491E+05  7.536962E+05  1.504480E+05 -8.130968E+04  2.284020E+04 -1.187793E+04
       187  27  2.067670E+05  1.025383E+06  2.159180E+05 -1.579859E+05  3.325449E+04  1.231344E+03
       188   1 -2.690258E+05 -8.692686E+05 -2.201552E+05 -1.614437E+05 -4.593410E+04 -3.234043E+04
       188   2 -3.383081E+05 -1.148117E+06 -2.719173E+05 -6.984076E+04 -5.304207E+04 -2.515019E+04
       188   3 -3.331624E+05 -1.408710E+06 -3.096573E+05 -1.227881E+05 -1.806666E+04 -1.790226E+04
       188   4 -2.714308E+03  2.124365E+05  2.951751E+04 -1.529839E+05 -4.597754E+04 -1.280395E+04
       188   5 -5.662927E+03  2.007280E+05  4.144088E+04 -8.066570E+04 -5.301590E+04 -3.489710E+04
       188   6  7.081727E+04  2.122425E+05  8.769180E+04 -1.528711E+05 -1.801193E+04 -5.692984E+04
       188   7  2.635157E+05  1.295225E+06  2.791138E+05 -1.445084E+05 -4.602040E+04  6.766355E+03
       188   8  3.268544E+05  1.551255E+06  3.546770E+05 -9.151350E+04 -5.298943E+04 -4.466499E+04
       188   9  4.746062E+05  1.835596E+06  4.848544E+05 -1.830320E+05 -1.795350E+04 -9.605914E+04
       188  10 -2.690284E+05 -8.692703E+05 -2.201611E+05 -1.614449E+05  1.079275E-09  5.380687E-09
       188  11 -3.383113E+05 -1.148119E+06 -2.719238E+05 -6.984183E+04  1.517919E-09  3.277777E-09
       188  12 -3.331629E+05 -1.408710E+06 -3.096585E+05 -1.227883E+05  2.820809E-10 -9.250247E-10
       188  13 -2.716622E+03  2.124358E+05  2.951322E+04 -1.529844E+05  1.808910E-09 -6.292570E-10
       188  14 -5.666272E+03  2.007259E+05  4.143331E+04 -8.066719E+04  5.840370E-10  4.660715E-10
       188  15  7.081605E+04  2.122389E+05  8.768510E+04 -1.528720E+05  3.785086E-10 -5.311573E-10
       188  16  2.635135E+05  1.295225E+06  2.791097E+05 -1.445081E+05 -5.881976E-10 -4.674719E-09
       188  17  3.268508E+05  1.551252E+06  3.546680E+05 -9.151540E+04 -1.475152E-10 -3.286284E-09
       188  18  4.746034E+05  1.835586E+06  4.848365E+05 -1.830334E+05  2.038951E-10  8.695086E-10
       188  19 -2.690258E+05 -8.692686E+05 -2.201552E+05 -1.614437E+05  4.593410E+04  3.234043E+04
       188  20 -3.383081E+05 -1.148117E+06 -2.719173E+05 -6.984076E+04  5.304207E+04  2.515019E+04
       188  21 -3.331624E+05 -1.408710E+06 -3.096573E+05 -1.227881E+05  1.806666E+04  1.790226E+04
       188  22 -2.714308E+03  2.124365E+05  2.951751E+04 -1.529839E+05  4.597754E+04  1.280395E+04
       188  23 -5.662927E+03  2.007280E+05  4.144088E+04 -8.066570E+04  5.301590E+04  3.489710E+04
       188  24  7.081727E+04  2.122425E+05  8.769180E+04 -1.528711E+05  1.801193E+04  5.692984E+04
       188  25  2.635157E+05  1.295225E+06  2.791138E+05 -1.445084E+05  4.602040E+04 -6.766355E+03
       188  26  3.268544E+05  1.551255E+06  3.546770E+05 -9.151350E+04  5.298943E+04  4.466499E+04
       188  27  4.746062E+05  1.835596E+06  4.848544E+05 -1.830320E+05  1.795350E+04  9.605914E+04
       189   1 -3.317736E+06 -1.202143E+06 -7.610396E+05 -1.178189E+06 -3.075670E+05 -9.817232E+04
       189   2 -3.207793E+06 -7.482363E+05 -4.749635E+05 -1.171060E+06 -2.005749E+05 -2.059908E+04
       189   3 -3.211455E+06 -6.917985E+05 -3.765227E+05 -1.113591E+06 -8.092539E+04  2.353274E+04
       189   4 -2.163778E+06 -6.453110E+05 -4.251788E+05 -7.403884E+05 -2.759550E+05 -8.630609E+04
       189   5 -2.086319E+06 -2.894475E+05 -1.804072E+05 -8.256135E+05 -1.904954E+05 -1.681948E+04
       189   6 -2.117929E+06 -3.263927E+05 -1.058912E+05 -8.605729E+05 -9.240113E+04  1.921190E+04
       189   7 -1.008484E+06 -8.813229E+04 -8.944215E+04 -3.017644E+05 -2.442777E+05 -7.439974E+04
       189   8 -9.636083E+05  1.694878E+05  1.140414E+05 -4.795754E+05 -1.803956E+05 -1.303068E+04
       189   9 -1.023236E+06  3.903133E+04  1.646495E+05 -6.071767E+05 -1.038990E+05  1.488485E+04
       189  10 -3.317841E+06 -1.202179E+06 -7.612367E+05 -1.178213E+06  1.617366E-10  3.975572E-10
       189  11 -3.207836E+06 -7.482476E+05 -4.750404E+05 -1.171064E+06 -1.198504E-09 -9.376571E-10
       189  12 -3.211462E+06 -6.918008E+05 -3.765361E+05 -1.113590E+06 -1.559139E-09 -2.164533E-09
       189  13 -2.163862E+06 -6.453396E+05 -4.253365E+05 -7.404077E+05  4.182176E-09 -5.269274E-10
       189  14 -2.086358E+06 -2.894576E+05 -1.804762E+05 -8.256161E+05  3.493179E-09  1.033393E-12
       189  15 -2.117939E+06 -3.263954E+05 -1.059080E+05 -8.605715E+05  2.989856E-09 -5.291854E-10
       189  16 -1.008550E+06 -8.815429E+04 -8.956491E+04 -3.017790E+05  2.021104E-09  1.735304E-09
       189  17 -9.636433E+05  1.694789E+05  1.139799E+05 -4.795773E+05  8.764631E-09  2.546718E-09
       189  18 -1.023248E+06  3.902819E+04  1.646287E+05 -6.071755E+05  7.234946E-09  2.348068E-09
       189  19 -3.317736E+06 -1.202143E+06 -7.610396E+05 -1.178189E+06  3.075670E+05  9.817232E+04
       189  20 -3.207793E+06 -7.482363E+05 -4.749635E+05 -1.171060E+06  2.005749E+05  2.059908E+04
       189  21 -3.211455E+06 -6.917985E+05 -3.765227E+05 -1.113591E+06  8.092539E+04 -2.353274E+04
       189  22 -2.163778E+06 -6.453110E+05 -4.251788E+05 -7.403884E+05  2.759550E+05  8.630609E+04
       189  23 -2.086319E+06 -2.894475E+05 -1.804072E+05 -8.256135E+05  1.904954E+05  1.681948E+04
       189  24 -2.117929E+06 -3.263927E+05 -1.058912E+05 -8.605729E+05  9.240113E+04 -1.921190E+04
       189  25 -1.008484E+06 -8.813229E+04 -8.944215E+04 -3.017644E+05  2.442777E+05  7.439974E+04
       189  26 -9.636083E+05  1.694878E+05  1.140414E+05 -4.795754E+05  1.803956E+05  1.303068E+04
       189  27 -1.023236E+06  3.903133E+04  1.646495E+05 -6.071767E+05  1.038990E+05 -1.488485E+04
       190   1 -3.060031E+06 -7.341543E+05 -3.320647E+05 -1.108994E+06 -7.422326E+04  1.809889E+04
       190   2 -2.979583E+06 -6.437705E+05 -2.637623E+05 -1.062452E+06 -5.018168E+04  2.390473E+04
       190   3 -2.872350E+06 -6.248034E+05 -2.208265E+05 -1.055112E+06 -2.540747E+04  2.775360E+04
       190   4 -2.103556E+06 -3.663684E+05 -8.521911E+04 -8.384434E+05 -7.549378E+04  1.761459E+04
       190   5 -2.115126E+06 -3.173207E+05 -4.235381E+04 -8.238849E+05 -5.268879E+04  2.295837E+04
       190   6 -2.099655E+06 -3.394120E+05 -2.384107E+04 -8.485320E+05 -2.915548E+04  2.634453E+04
       190   7 -1.146181E+06  1.489872E+03  1.615515E+05 -5.675084E+05 -7.676640E+04  1.712947E+04
       190   8 -1.249935E+06  9.180637E+03  1.789939E+05 -5.850148E+05 -5.519971E+04  2.201056E+04
       190   9 -1.326377E+06 -5.398681E+04  1.730960E+05 -6.417205E+05 -3.290860E+04  2.493360E+04
       190  10 -3.060037E+06 -7.341562E+05 -3.320758E+05 -1.108993E+06  6.106772E-09  9.146030E-10
       190  11 -2.979586E+06 -6.437718E+05 -2.637681E+05 -1.062451E+06  2.386771E-09  7.514526E-10
       190  12 -2.872350E+06 -6.248044E+05 -2.208292E+05 -1.055111E+06 -1.400669E-09  1.466703E-10
       190  13 -2.103562E+06 -3.663703E+05 -8.523043E+04 -8.384423E+05  3.660058E-10 -9.396561E-10
       190  14 -2.115129E+06 -3.173220E+05 -4.236002E+04 -8.238840E+05 -1.365708E-09 -1.286045E-10
       190  15 -2.099656E+06 -3.394130E+05 -2.384397E+04 -8.485314E+05 -5.062160E-10  6.540359E-10
       190  16 -1.146188E+06  1.487974E+03  1.615399E+05 -5.675073E+05 -4.641479E-09 -2.652600E-09
       190  17 -1.249939E+06  9.179299E+03  1.789872E+05 -5.850138E+05 -3.163703E-09 -1.109334E-09
       190  18 -1.326378E+06 -5.398777E+04  1.730928E+05 -6.417198E+05  3.717162E-10  1.573560E-09
       190  19 -3.060031E+06 -7.341543E+05 -3.320647E+05 -1.108994E+06  7.422326E+04 -1.809889E+04
       190  20 -2.979583E+06 -6.437705E+05 -2.637623E+05 -1.062452E+06  5.018168E+04 -2.390473E+04
       190  21 -2.872350E+06 -6.248034E+05 -2.208265E+05 -1.055112E+06  2.540747E+04 -2.775360E+04
       190  22 -2.103556E+06 -3.663684E+05 -8.521911E+04 -8.384434E+05  7.549378E+04 -1.761459E+04
       190  23 -2.115126E+06 -3.173207E+05 -4.235381E+04 -8.238849E+05  5.268879E+04 -2.295837E+04
       190  24 -2.099655E+06 -3.394120E+05 -2.384107E+04 -8.485320E+05  2.915548E+04 -2.634453E+04
       190  25 -1.146181E+06  1.489872E+03  1.615515E+05 -5.675084E+05  7.676640E+04 -1.712947E+04
       190  26 -1.249935E+06  9.180637E+03  1.789939E+05 -5.850148E+05  5.519971E+04 -2.201056E+04
       190  27 -1.326377E+06 -5.398681E+04  1.730960E+05 -6.417205E+05  3.290860E+04 -2.493360E+04
       191   1 -2.763325E+06 -5.926885E+05 -1.881755E+05 -1.029048E+06 -2.135857E+04  2.563191E+04
       191   2 -2.682469E+06 -5.304118E+05 -1.539006E+05 -9.770131E+05 -1.442961E+04  2.247583E+04
       191   3 -2.560242E+06 -5.135036E+05 -1.240279E+05 -9.734909E+05 -7.440402E+03  1.914471E+04
       191   4 -2.097760E+06 -3.430878E+05 -1.837604E+04 -8.470523E+05 -2.458646E+04  2.441935E+04
       191   5 -2.118269E+06 -3.192495E+05 -9.798416E+03 -8.232240E+05 -1.776557E+04  2.122462E+04
       191   6 -2.097396E+06 -3.407546E+05 -5.532874E+03 -8.479100E+05 -1.088535E+04  1.785462E+04
       191   7 -1.431764E+06 -9.345933E+04  1.513867E+05 -6.648800E+05 -2.781813E+04  2.320537E+04
       191   8 -1.553758E+06 -1.080670E+05  1.342779E+05 -6.693080E+05 -2.110486E+04  1.997216E+04
       191   9 -1.634338E+06 -1.679918E+05  1.129452E+05 -7.222437E+05 -1.433314E+04  1.656348E+04
       191  10 -2.763325E+06 -5.926894E+05 -1.881776E+05 -1.029047E+06  6.735481E-10  9.951291E-10
       191  11 -2.682470E+06 -5.304124E+05 -1.539019E+05 -9.770128E+05  8.746334E-10  4.298863E-10
       191  12 -2.560242E+06 -5.135040E+05 -1.240287E+05 -9.734908E+05  1.464057E-10 -5.100793E-10
       191  13 -2.097761E+06 -3.430886E+05 -1.837830E+04 -8.470519E+05 -8.466736E-11  6.342551E-10
       191  14 -2.118270E+06 -3.192501E+05 -9.799855E+03 -8.232237E+05 -3.291550E-10  2.811251E-10
       191  15 -2.097396E+06 -3.407550E+05 -5.533695E+03 -8.479098E+05  3.913140E-10  6.298243E-10
       191  16 -1.431765E+06 -9.346012E+04  1.513843E+05 -6.648795E+05 -1.486600E-09  1.327917E-10
       191  17 -1.553758E+06 -1.080675E+05  1.342763E+05 -6.693077E+05  2.388865E-10 -3.481799E-10
       191  18 -1.634338E+06 -1.679921E+05  1.129443E+05 -7.222435E+05 -1.857758E-09 -1.895004E-10
       191  19 -2.763325E+06 -5.926885E+05 -1.881755E+05 -1.029048E+06  2.135857E+04 -2.563191E+04
       191  20 -2.682469E+06 -5.304118E+05 -1.539006E+05 -9.770131E+05  1.442961E+04 -2.247583E+04
       191  21 -2.560242E+06 -5.135036E+05 -1.240279E+05 -9.734909E+05  7.440402E+03 -1.914471E+04
       191  22 -2.097760E+06 -3.430878E+05 -1.837604E+04 -8.470523E+05  2.458646E+04 -2.441935E+04
       191  23 -2.118269E+06 -3.192495E+05 -9.798416E+03 -8.232240E+05  1.776557E+04 -2.122462E+04
       191  24 -2.097396E+06 -3.407546E+05 -5.532874E+03 -8.479100E+05  1.088535E+04 -1.785462E+04
       191  25 -1.431764E+06 -9.345933E+04  1.513867E+05 -6.648800E+05  2.781813E+04 -2.320537E+04
       191  26 -1.553758E+06 -1.080670E+05  1.342779E+05 -6.693080E+05  2.110486E+04 -1.997216E+04
       191  27 -1.634338E+06 -1.679918E+05  1.129452E+05 -7.222437E+05  1.433314E+04 -1.656348E+04
       192   1 -2.451566E+06 -4.737606E+05 -9.444430E+04 -9.445693E+05 -5.484418E+03  1.635375E+04
       192   2 -2.368781E+06 -4.125140E+05 -6.643967E+04 -8.908702E+05 -2.160725E+03  1.153810E+04
       192   3 -2.242331E+06 -3.953984E+05 -3.948616E+04 -8.875999E+05  1.174394E+03  6.684603E+03
       192   4 -2.096975E+06 -3.412668E+05 -4.294162E+03 -8.480323E+05 -8.925397E+03  1.506606E+04
       192   5 -2.118781E+06 -3.190899E+05 -2.625666E+03 -8.228559E+05 -5.625520E+03  1.024234E+04
       192   6 -2.096928E+06 -3.410384E+05 -1.988203E+03 -8.481108E+05 -2.314486E+03  5.380746E+03
       192   7 -1.742261E+06 -2.087650E+05  8.584584E+04 -7.514452E+05 -1.236853E+04  1.377758E+04
       192   8 -1.868720E+06 -2.256621E+05  6.118316E+04 -7.548168E+05 -9.091840E+03  8.946019E+03
       192   9 -1.951505E+06 -2.866773E+05  3.550790E+04 -8.086135E+05 -5.804251E+03  4.076558E+03
       192  10 -2.451567E+06 -4.737609E+05 -9.444486E+04 -9.445693E+05  5.112304E-10 -9.070322E-10
       192  11 -2.368781E+06 -4.125141E+05 -6.643993E+04 -8.908702E+05  2.288878E-10  1.293525E-09
       192  12 -2.242331E+06 -3.953985E+05 -3.948625E+04 -8.875999E+05  4.110358E-10  1.651240E-11
       192  13 -2.096976E+06 -3.412670E+05 -4.294738E+03 -8.480322E+05 -4.764568E-10  6.536542E-11
       192  14 -2.118781E+06 -3.190900E+05 -2.625922E+03 -8.228558E+05  1.089030E-10  5.625183E-10
       192  15 -2.096928E+06 -3.410384E+05 -1.988268E+03 -8.481108E+05  2.407979E-11  1.555234E-09
       192  16 -1.742261E+06 -2.087652E+05  8.584519E+04 -7.514450E+05 -1.369038E-09  5.208393E-10
       192  17 -1.868720E+06 -2.256622E+05  6.118285E+04 -7.548167E+05 -1.053960E-10  7.068932E-10
       192  18 -1.951505E+06 -2.866773E+05  3.550781E+04 -8.086135E+05 -6.646809E-10 -7.424836E-10
       192  19 -2.451566E+06 -4.737606E+05 -9.444430E+04 -9.445693E+05  5.484418E+03 -1.635375E+04
       192  20 -2.368781E+06 -4.125140E+05 -6.643967E+04 -8.908702E+05  2.160725E+03 -1.153810E+04
       192  21 -2.242331E+06 -3.953984E+05 -3.948616E+04 -8.875999E+05 -1.174394E+03 -6.684603E+03
       192  22 -2.096975E+06 -3.412668E+05 -4.294162E+03 -8.480323E+05  8.925397E+03 -1.506606E+04
       192  23 -2.118781E+06 -3.190899E+05 -2.625666E+03 -8.228559E+05  5.625520E+03 -1.024234E+04
       192  24 -2.096928E+06 -3.410384E+05 -1.988203E+03 -8.481108E+05  2.314486E+03 -5.380746E+03
       192  25 -1.742261E+06 -2.087650E+05  8.584584E+04 -7.514452E+05  1.236853E+04 -1.377758E+04
       192  26 -1.868720E+06 -2.256621E+05  6.118316E+04 -7.548168E+05  9.091840E+03 -8.946019E+03
       192  27 -1.951505E+06 -2.866773E+05  3.550790E+04 -8.086135E+05  5.804251E+03 -4.076558E+03
       193   1 -2.132363E+06 -3.543260E+05 -1.062350E+04 -8.578907E+05  2.675083E+03  3.677990E+03
       193   2 -2.049050E+06 -2.929477E+05  1.541616E+04 -8.038084E+05  5.867213E+03 -1.251383E+03
       193   3 -1.921839E+06 -2.759250E+05  4.051313E+04 -8.004810E+05  9.055207E+03 -6.166924E+03
       193   4 -2.096875E+06 -3.411019E+05 -1.950743E+03 -8.481773E+05 -8.199673E+02  2.372034E+03
       193   5 -2.118829E+06 -3.189975E+05 -2.387499E+03 -8.227700E+05  2.380602E+03 -2.554462E+03
       193   6 -2.096900E+06 -3.412526E+05 -3.773687E+03 -8.481231E+05  5.576795E+03 -7.467157E+03
       193   7 -2.061384E+06 -3.278775E+05  6.722006E+03 -8.384634E+05 -4.315250E+03  1.065991E+03
       193   8 -2.188603E+06 -3.450471E+05 -2.019154E+04 -8.417297E+05 -1.105587E+03 -3.857384E+03
       193   9 -2.271931E+06 -4.065782E+05 -4.806292E+04 -8.957530E+05  2.099457E+03 -8.766988E+03
       193  10 -2.132363E+06 -3.543260E+05 -1.062354E+04 -8.578907E+05  2.713113E-10 -6.088196E-10
       193  11 -2.049050E+06 -2.929477E+05  1.541609E+04 -8.038084E+05  1.053489E-09  1.590222E-09
       193  12 -1.921839E+06 -2.759250E+05  4.051290E+04 -8.004810E+05 -1.364616E-09 -8.452981E-10
       193  13 -2.096875E+06 -3.411019E+05 -1.950755E+03 -8.481773E+05  2.616892E-10 -1.153888E-09
       193  14 -2.118829E+06 -3.189976E+05 -2.387522E+03 -8.227700E+05  2.469940E-10  1.232978E-09
       193  15 -2.096900E+06 -3.412526E+05 -3.773850E+03 -8.481231E+05 -7.035172E-10  1.165916E-09
       193  16 -2.061384E+06 -3.278775E+05  6.721969E+03 -8.384634E+05 -2.500356E-10 -1.196300E-09
       193  17 -2.188603E+06 -3.450471E+05 -2.019157E+04 -8.417297E+05  8.740989E-10  1.593092E-09
       193  18 -2.271931E+06 -4.065783E+05 -4.806307E+04 -8.957530E+05  1.485912E-09  1.077577E-09
       193  19 -2.132363E+06 -3.543260E+05 -1.062350E+04 -8.578907E+05 -2.675083E+03 -3.677990E+03
       193  20 -2.049050E+06 -2.929477E+05  1.541616E+04 -8.038084E+05 -5.867213E+03  1.251383E+03
       193  21 -1.921839E+06 -2.759250E+05  4.051313E+04 -8.004810E+05 -9.055207E+03  6.166924E+03
       193  22 -2.096875E+06 -3.411019E+05 -1.950743E+03 -8.481773E+05  8.199673E+02 -2.372034E+03
       193  23 -2.118829E+06 -3.189975E+05 -2.387499E+03 -8.227700E+05 -2.380602E+03  2.554462E+03
       193  24 -2.096900E+06 -3.412526E+05 -3.773687E+03 -8.481231E+05 -5.576795E+03  7.467157E+03
       193  25 -2.061384E+06 -3.278775E+05  6.722006E+03 -8.384634E+05  4.315250E+03 -1.065991E+03
       193  26 -2.188603E+06 -3.450471E+05 -2.019154E+04 -8.417297E+05  1.105587E+03  3.857384E+03
       193  27 -2.271931E+06 -4.065782E+05 -4.806292E+04 -8.957530E+05 -2.099457E+03  8.766988E+03
       194   1 -1.812523E+06 -2.348116E+05  6.813636E+04 -7.710340E+05  1.094109E+04 -9.023463E+03
       194   2 -1.730369E+06 -1.739230E+05  9.056540E+04 -7.172736E+05  1.709958E+04 -1.276129E+04
       194   3 -1.605990E+06 -1.587749E+05  1.093053E+05 -7.130531E+05  2.321085E+04 -1.635906E+04
       194   4 -2.097195E+06 -3.408942E+05 -4.830526E+03 -8.481099E+05  7.449787E+03 -1.032903E+04
       194   5 -2.118447E+06 -3.190074E+05 -8.473142E+03 -8.229712E+05  1.369574E+04 -1.403551E+04
       194   6 -2.097501E+06 -3.428822E+05 -1.587567E+04 -8.473785E+05  1.989369E+04 -1.760213E+04
       194   7 -2.381787E+06 -4.469715E+05 -7.780371E+04 -9.251536E+05  3.960258E+03 -1.163394E+04
       194   8 -2.506377E+06 -4.640823E+05 -1.075239E+05 -9.286088E+05  1.029422E+04 -1.530885E+04
       194   9 -2.588778E+06 -5.269745E+05 -1.410767E+05 -9.816078E+05  1.657939E+04 -1.884413E+04
       194  10 -1.812523E+06 -2.348117E+05  6.813598E+04 -7.710339E+05 -2.588613E-10  1.390449E-10
       194  11 -1.730370E+06 -1.739233E+05  9.056454E+04 -7.172734E+05  3.398139E-10  7.049824E-10
       194  12 -1.605991E+06 -1.587753E+05  1.093038E+05 -7.130528E+05 -3.654598E-10 -2.743950E-10
       194  13 -2.097195E+06 -3.408944E+05 -4.830830E+03 -8.481099E+05  6.203953E-11  1.875682E-10
       194  14 -2.118447E+06 -3.190077E+05 -8.473864E+03 -8.229710E+05  2.947654E-10 -8.919497E-10
       194  15 -2.097502E+06 -3.428826E+05 -1.587699E+04 -8.473783E+05 -5.718115E-10 -7.441758E-10
       194  16 -2.381787E+06 -4.469717E+05 -7.780399E+04 -9.251536E+05 -1.966054E-10  2.696415E-10
       194  17 -2.506377E+06 -4.640826E+05 -1.075245E+05 -9.286086E+05  1.548289E-09  4.193475E-10
       194  18 -2.588778E+06 -5.269749E+05 -1.410779E+05 -9.816076E+05  6.910724E-10  1.037175E-11
       194  19 -1.812523E+06 -2.348116E+05  6.813636E+04 -7.710340E+05 -1.094109E+04  9.023463E+03
       194  20 -1.730369E+06 -1.739230E+05  9.056540E+04 -7.172736E+05 -1.709958E+04  1.276129E+04
       194  21 -1.605990E+06 -1.587749E+05  1.093053E+05 -7.130531E+05 -2.321085E+04  1.635906E+04
       194  22 -2.097195E+06 -3.408942E+05 -4.830526E+03 -8.481099E+05 -7.449787E+03  1.032903E+04
       194  23 -2.118447E+06 -3.190074E+05 -8.473142E+03 -8.229712E+05 -1.369574E+04  1.403551E+04
       194  24 -2.097501E+06 -3.428822E+05 -1.587567E+04 -8.473785E+05 -1.989369E+04  1.760213E+04
       194  25 -2.381787E+06 -4.469715E+05 -7.780371E+04 -9.251536E+05 -3.960258E+03  1.163394E+04
       194  26 -2.506377E+06 -4.640823E+05 -1.075239E+05 -9.286088E+05 -1.029422E+04  1.530885E+04
       194  27 -2.588778E+06 -5.269745E+05 -1.410767E+05 -9.816078E+05 -1.657939E+04  1.884413E+04
       195   1 -1.498165E+06 -1.184933E+05  1.324491E+05 -6.886035E+05  2.780339E+04 -1.832938E+04
       195   2 -1.419129E+06 -5.453500E+04  1.416717E+05 -6.313262E+05  4.732786E+04 -1.665312E+04
       195   3 -1.309857E+06 -5.858543E+04  1.307242E+05 -6.158260E+05  6.621839E+04 -1.326043E+04
       195   4 -2.099098E+06 -3.397594E+05 -2.059142E+04 -8.487095E+05  2.402052E+04 -1.974791E+04
       195   5 -2.115774E+06 -3.172686E+05 -3.654478E+04 -8.234713E+05  4.463893E+04 -1.766432E+04
       195   6 -2.102452E+06 -3.630288E+05 -7.355531E+04 -8.400170E+05  6.462003E+04 -1.386483E+04
       195   7 -2.699678E+06 -5.610056E+05 -1.736611E+05 -1.008676E+06  2.024167E+04 -2.116500E+04
       195   8 -2.811943E+06 -5.799688E+05 -2.148006E+05 -1.015420E+06  4.195330E+04 -1.867427E+04
       195   9 -2.894430E+06 -6.674223E+05 -2.778861E+05 -1.063944E+06  6.302387E+04 -1.446836E+04
       195  10 -1.498166E+06 -1.184938E+05  1.324470E+05 -6.886031E+05  1.413035E-10 -1.995101E-10
       195  11 -1.419132E+06 -5.453590E+04  1.416670E+05 -6.313256E+05 -2.499593E-11 -7.098266E-10
       195  12 -1.309862E+06 -5.858680E+04  1.307157E+05 -6.158252E+05 -4.099694E-10  3.018492E-10
       195  13 -2.099098E+06 -3.397600E+05 -2.059323E+04 -8.487091E+05  5.021150E-10  2.940540E-10
       195  14 -2.115776E+06 -3.172695E+05 -3.654912E+04 -8.234707E+05 -2.955259E-10 -3.112502E-10
       195  15 -2.102457E+06 -3.630301E+05 -7.356354E+04 -8.400162E+05  2.044597E-10  2.169641E-10
       195  16 -2.699679E+06 -5.610062E+05 -1.736627E+05 -1.008676E+06  7.212003E-10 -1.630864E-10
       195  17 -2.811945E+06 -5.799697E+05 -2.148046E+05 -1.015419E+06  1.396617E-10 -9.103890E-11
       195  18 -2.894434E+06 -6.674236E+05 -2.778940E+05 -1.063943E+06 -1.173816E-10  8.823185E-11
       195  19 -1.498165E+06 -1.184933E+05  1.324491E+05 -6.886035E+05 -2.780339E+04  1.832938E+04
       195  20 -1.419129E+06 -5.453500E+04  1.416717E+05 -6.313262E+05 -4.732786E+04  1.665312E+04
       195  21 -1.309857E+06 -5.858543E+04  1.307242E+05 -6.158260E+05 -6.621839E+04  1.326043E+04
       195  22 -2.099098E+06 -3.397594E+05 -2.059142E+04 -8.487095E+05 -2.402052E+04  1.974791E+04
       195  23 -2.115774E+06 -3.172686E+05 -3.654478E+04 -8.234713E+05 -4.463893E+04  1.766432E+04
       195  24 -2.102452E+06 -3.630288E+05 -7.355531E+04 -8.400170E+05 -6.462003E+04  1.386483E+04
       195  25 -2.699678E+06 -5.610056E+05 -1.736611E+05 -1.008676E+06 -2.024167E+04  2.116500E+04
       195  26 -2.811943E+06 -5.799688E+05 -2.148006E+05 -1.015420E+06 -4.195330E+04  1.867427E+04
       195  27 -2.894430E+06 -6.674223E+05 -2.778861E+05 -1.063944E+06 -6.302387E+04  1.446836E+04
       196   1 -1.186621E+06 -1.972635E+04  1.378598E+05 -6.454711E+05  9.004970E+04 -1.183549E+04
       196   2 -1.121857E+06  1.023002E+05  9.838024E+04 -5.268721E+05  1.559485E+05  1.126633E+04
       196   3 -1.140385E+06 -1.176444E+05 -7.277394E+04 -3.730840E+05  2.107531E+05  6.387254E+04
       196   4 -2.114872E+06 -3.285144E+05 -9.139659E+04 -8.590998E+05  7.942871E+04 -1.582364E+04
       196   5 -2.090932E+06 -2.931920E+05 -1.556924E+05 -8.249441E+05  1.643946E+05  1.442880E+04
       196   6 -2.154278E+06 -6.039617E+05 -3.669748E+05 -7.555654E+05  2.382492E+05  7.418665E+04
       196   7 -3.042286E+06 -6.372911E+05 -3.207186E+05 -1.072459E+06  6.882504E+04 -1.980696E+04
       196   8 -3.059082E+06 -6.885746E+05 -4.098445E+05 -1.122576E+06  1.728260E+05  1.758464E+04
       196   9 -3.167136E+06 -1.090014E+06 -6.612690E+05 -1.137415E+06  2.656953E+05  8.447041E+04
       196  10 -1.186630E+06 -1.972868E+04  1.378442E+05 -6.454703E+05 -6.572637E-11  5.374628E-10
       196  11 -1.121884E+06  1.022935E+05  9.833421E+04 -5.268735E+05 -2.059622E-10 -3.700597E-10
       196  12 -1.140434E+06 -1.176607E+05 -7.286526E+04 -3.730948E+05 -6.049551E-10 -4.947780E-10
       196  13 -2.114879E+06 -3.285164E+05 -9.140894E+04 -8.590988E+05  1.358022E-09  5.903977E-12
       196  14 -2.090961E+06 -2.931995E+05 -1.557438E+05 -8.249460E+05 -8.437395E-10  2.863600E-10
       196  15 -2.154341E+06 -6.039829E+05 -3.670923E+05 -7.555797E+05  9.853116E-10 -2.100823E-09
       196  16 -3.042291E+06 -6.372928E+05 -3.207283E+05 -1.072458E+06 -4.642038E-10  1.678890E-10
       196  17 -3.059114E+06 -6.885830E+05 -4.099015E+05 -1.122578E+06 -4.159694E-10  2.807946E-10
       196  18 -3.167214E+06 -1.090040E+06 -6.614159E+05 -1.137433E+06  3.715280E-10 -2.409422E-11
       196  19 -1.186621E+06 -1.972635E+04  1.378598E+05 -6.454711E+05 -9.004970E+04  1.183549E+04
       196  20 -1.121857E+06  1.023002E+05  9.838024E+04 -5.268721E+05 -1.559485E+05 -1.126633E+04
       196  21 -1.140385E+06 -1.176444E+05 -7.277394E+04 -3.730840E+05 -2.107531E+05 -6.387254E+04
       196  22 -2.114872E+06 -3.285144E+05 -9.139659E+04 -8.590998E+05 -7.942871E+04  1.582364E+04
       196  23 -2.090932E+06 -2.931920E+05 -1.556924E+05 -8.249441E+05 -1.643946E+05 -1.442880E+04
       196  24 -2.154278E+06 -6.039617E+05 -3.669748E+05 -7.555654E+05 -2.382492E+05 -7.418665E+04
       196  25 -3.042286E+06 -6.372911E+05 -3.207186E+05 -1.072459E+06 -6.882504E+04  1.980696E+04
       196  26 -3.059082E+06 -6.885746E+05 -4.098445E+05 -1.122576E+06 -1.728260E+05 -1.758464E+04
       196  27 -3.167136E+06 -1.090014E+06 -6.612690E+05 -1.137415E+06 -2.656953E+05 -8.447041E+04
       197   1  1.146243E+05  5.178118E+04  1.175615E+05  6.584459E+04  2.028838E+05  1.051509E+04
       197   2  1.463162E+05 -2.150103E+05 -3.651168E+04  1.268542E+04  1.395410E+05  3.142301E+04
       197   3  2.593589E+05 -1.914625E+05 -7.664962E+04 -7.902255E+04  7.621908E+04  3.087949E+04
       197   4  9.772561E+05  2.659538E+05  3.283910E+05 -3.984768E+04  2.252022E+05  1.051274E+04
       197   5  9.354139E+05 -2.077800E+04  1.464596E+05 -2.039114E+04  1.468221E+05  3.142120E+04
       197   6  9.774051E+05 -1.478237E+04  8.878553E+04 -3.947823E+04  6.847274E+04  3.087555E+04
       197   7  1.840591E+06  4.801141E+05  5.391742E+05 -1.456873E+05  2.475513E+05  1.050281E+04
       197   8  1.725089E+06  1.734147E+05  3.293899E+05 -5.351019E+04  1.541123E+05  3.141863E+04
       197   9  1.695931E+06  1.618676E+05  2.541875E+05  1.120910E+02  6.071748E+04  3.087062E+04
       197  10  1.145800E+05  5.177002E+04  1.174840E+05  6.584287E+04 -2.788621E-11  5.746971E-10
       197  11  1.462950E+05 -2.150166E+05 -3.655012E+04  1.268189E+04 -4.538483E-10 -3.068197E-10
       197  12  2.593524E+05 -1.914651E+05 -7.666232E+04 -7.902445E+04  8.646739E-10  2.121825E-11
       197  13  9.772017E+05  2.659401E+05  3.282956E+05 -3.984959E+04  6.535732E-10  1.576253E-10
       197  14  9.353905E+05 -2.078483E+04  1.464173E+05 -2.039485E+04 -1.300742E-09 -1.601970E-09
       197  15  9.773999E+05 -1.478465E+04  8.877494E+04 -3.947993E+04 -6.756440E-10 -7.299169E-11
       197  16  1.840525E+06  4.800976E+05  5.390591E+05 -1.456894E+05  5.665996E-10 -1.985513E-10
       197  17  1.725063E+06  1.734073E+05  3.293435E+05 -5.351409E+04  1.008652E-09 -4.819663E-10
       197  18  1.695927E+06  1.618656E+05  2.541788E+05  1.105828E+02  1.208182E-10 -4.282473E-10
       197  19  1.146243E+05  5.178118E+04  1.175615E+05  6.584459E+04 -2.028838E+05 -1.051509E+04
       197  20  1.463162E+05 -2.150103E+05 -3.651168E+04  1.268542E+04 -1.395410E+05 -3.142301E+04
       197  21  2.593589E+05 -1.914625E+05 -7.664962E+04 -7.902255E+04 -7.621908E+04 -3.087949E+04
       197  22  9.772561E+05  2.659538E+05  3.283910E+05 -3.984768E+04 -2.252022E+05 -1.051274E+04
       197  23  9.354139E+05 -2.077800E+04  1.464596E+05 -2.039114E+04 -1.468221E+05 -3.142120E+04
       197  24  9.774051E+05 -1.478237E+04  8.878553E+04 -3.947823E+04 -6.847274E+04 -3.087555E+04
       197  25  1.840591E+06  4.801141E+05  5.391742E+05 -1.456873E+05 -2.475513E+05 -1.050281E+04
       197  26  1.725089E+06  1.734147E+05  3.293899E+05 -5.351019E+04 -1.541123E+05 -3.141863E+04
       197  27  1.695931E+06  1.618676E+05  2.541875E+05  1.120910E+02 -6.071748E+04 -3.087062E+04
       198   1  3.126447E+05 -1.389358E+05 -7.841259E+04 -3.286010E+04  5.636657E+04  2.627131E+04
       198   2  3.787591E+05 -1.440765E+05 -9.572470E+04 -1.889673E+04  3.804238E+04  2.409556E+04
       198   3  4.532868E+05 -1.260925E+05 -9.527504E+04 -4.298881E+04  1.971448E+04  2.084972E+04
       198   4  9.606684E+05  2.057031E+04  7.158811E+04 -3.947731E+04  5.527103E+04  2.626810E+04
       198   5  9.564213E+05 -1.948238E+03  3.767287E+04 -2.044555E+04  3.618343E+04  2.409317E+04
       198   6  9.607065E+05 -1.222423E+03  2.203550E+04 -3.946651E+04  1.709419E+04  2.084830E+04
       198   7  1.609080E+06  1.800472E+05  2.215608E+05 -4.610152E+04  5.417432E+04  2.626491E+04
       198   8  1.534392E+06  1.401566E+05  1.710482E+05 -2.199584E+04  3.432275E+04  2.409078E+04
       198   9  1.468364E+06  1.236297E+05  1.393289E+05 -3.594131E+04  1.447177E+04  2.084686E+04
       198  10  3.126411E+05 -1.389374E+05 -7.841986E+04 -3.286129E+04  2.633161E-10 -4.634115E-10
       198  11  3.787574E+05 -1.440775E+05 -9.572851E+04 -1.889747E+04  9.449698E-11  2.848008E-10
       198  12  4.532863E+05 -1.260931E+05 -9.527659E+04 -4.298914E+04  4.996043E-11 -4.818422E-10
       198  13  9.606649E+05  2.056875E+04  7.158108E+04 -3.947848E+04  3.723169E-10 -1.773688E-10
       198  14  9.564197E+05 -1.949212E+03  3.766933E+04 -2.044625E+04 -8.164971E-10  2.205576E-11
       198  15  9.607061E+05 -1.222968E+03  2.203413E+04 -3.946679E+04  4.071900E-10 -4.164182E-10
       198  16  1.609076E+06  1.800456E+05  2.215540E+05 -4.610266E+04  2.484217E-10  2.947521E-10
       198  17  1.534390E+06  1.401557E+05  1.710449E+05 -2.199651E+04 -4.445219E-10 -4.080018E-10
       198  18  1.468364E+06  1.236292E+05  1.393277E+05 -3.594155E+04  2.023922E-10 -1.213367E-13
       198  19  3.126447E+05 -1.389358E+05 -7.841259E+04 -3.286010E+04 -5.636657E+04 -2.627131E+04
       198  20  3.787591E+05 -1.440765E+05 -9.572470E+04 -1.889673E+04 -3.804238E+04 -2.409556E+04
       198  21  4.532868E+05 -1.260925E+05 -9.527504E+04 -4.298881E+04 -1.971448E+04 -2.084972E+04
       198  22  9.606684E+05  2.057031E+04  7.158811E+04 -3.947731E+04 -5.527103E+04 -2.626810E+04
       198  23  9.564213E+05 -1.948238E+03  3.767287E+04 -2.044555E+04 -3.618343E+04 -2.409317E+04
       198  24  9.607065E+05 -1.222423E+03  2.203550E+04 -3.946651E+04 -1.709419E+04 -2.084830E+04
       198  25  1.609080E+06  1.800472E+05  2.215608E+05 -4.610152E+04 -5.417432E+04 -2.626491E+04
       198  26  1.534392E+06  1.401566E+05  1.710482E+05 -2.199584E+04 -3.432275E+04 -2.409078E+04
       198  27  1.468364E+06  1.236297E+05  1.393289E+05 -3.594131E+04 -1.447177E+04 -2.084686E+04
       199   1  5.201562E+05 -1.064577E+05 -8.409970E+04 -3.918452E+04  1.592300E+04  1.875491E+04
       199   2  5.887447E+05 -9.119005E+04 -7.580680E+04 -2.067235E+04  1.119969E+04  1.546488E+04
       199   3  6.584905E+05 -7.407024E+04 -6.396110E+04 -3.963168E+04  6.473833E+03  1.213447E+04
       199   4  9.590820E+05  1.485863E+03  1.704439E+04 -3.933992E+04  1.365203E+04  1.875395E+04
       199   5  9.585122E+05 -2.278785E+02  9.548337E+03 -2.060496E+04  8.897408E+03  1.546455E+04
       199   6  9.590985E+05 -8.495754E+01  5.624675E+03 -3.934011E+04  4.140743E+03  1.213479E+04
       199   7  1.398186E+06  1.094160E+05  1.181757E+05 -3.949543E+04  1.137947E+04  1.875300E+04
       199   8  1.328406E+06  9.072472E+04  9.489439E+04 -2.053753E+04  6.593761E+03  1.546421E+04
       199   9  1.259790E+06  7.389399E+04  7.520443E+04 -3.904840E+04  1.806533E+03  1.213510E+04
       199  10  5.201559E+05 -1.064582E+05 -8.410084E+04 -3.918476E+04 -1.183472E-09 -3.333815E-10
       199  11  5.887445E+05 -9.119034E+04 -7.580748E+04 -2.067249E+04 -9.283730E-10  1.670350E-10
       199  12  6.584904E+05 -7.407041E+04 -6.396146E+04 -3.963174E+04 -1.815962E-09  4.445757E-10
       199  13  9.590817E+05  1.485435E+03  1.704338E+04 -3.934013E+04 -1.084354E-09 -2.008836E-10
       199  14  9.585120E+05 -2.281566E+02  9.547739E+03 -2.060507E+04 -9.045523E-10  1.886591E-10
       199  15  9.590985E+05 -8.512033E+01  5.624365E+03 -3.934015E+04 -6.906492E-10  1.070332E-10
       199  16  1.398186E+06  1.094156E+05  1.181748E+05 -3.949560E+04  1.022978E-09 -7.832478E-11
       199  17  1.328406E+06  9.072445E+04  9.489386E+04 -2.053762E+04  1.443927E-09  2.380338E-10
       199  18  1.259790E+06  7.389383E+04  7.520415E+04 -3.904841E+04  3.126633E-10  2.987740E-10
       199  19  5.201562E+05 -1.064577E+05 -8.409970E+04 -3.918452E+04 -1.592300E+04 -1.875491E+04
       199  20  5.887447E+05 -9.119005E+04 -7.580680E+04 -2.067235E+04 -1.119969E+04 -1.546488E+04
       199  21  6.584905E+05 -7.407024E+04 -6.396110E+04 -3.963168E+04 -6.473833E+03 -1.213447E+04
       199  22  9.590820E+05  1.485863E+03  1.704439E+04 -3.933992E+04 -1.365203E+04 -1.875395E+04
       199  23  9.585122E+05 -2.278785E+02  9.548337E+03 -2.060496E+04 -8.897408E+03 -1.546455E+04
       199  24  9.590985E+05 -8.495754E+01  5.624675E+03 -3.934011E+04 -4.140743E+03 -1.213479E+04
       199  25  1.398186E+06  1.094160E+05  1.181757E+05 -3.949543E+04 -1.137947E+04 -1.875300E+04
       199  26  1.328406E+06  9.072472E+04  9.489439E+04 -2.053753E+04 -6.593761E+03 -1.546421E+04
       199  27  1.259790E+06  7.389399E+04  7.520443E+04 -3.904840E+04 -1.806533E+03 -1.213510E+04
       200   1  7.259061E+05 -5.716518E+04 -4.920179E+04 -3.927785E+04  5.549825E+03  1.019238E+04
       200   2  7.943357E+05 -4.047392E+04 -3.522974E+04 -2.070712E+04  4.195759E+03  6.878354E+03
       200   3  8.629713E+05 -2.360517E+04 -2.033723E+04 -3.925640E+04  2.840662E+03  3.568306E+03
       200   4  9.588953E+05  1.041767E+02  4.371948E+03 -3.926211E+04  3.240198E+03  1.019298E+04
       200   5  9.587980E+05 -2.170867E+01  2.728368E+03 -2.070244E+04  1.888338E+03  6.879223E+03
       200   6  9.589018E+05  2.973404E+01  2.003610E+03 -3.926217E+04  5.355963E+02  3.569461E+03
       200   7  1.191935E+06  5.736975E+04  5.794212E+04 -3.924636E+04  9.297112E+02  1.019358E+04
       200   8  1.123285E+06  4.042861E+04  4.068469E+04 -2.069775E+04 -4.196875E+02  6.880092E+03
       200   9  1.054841E+06  2.366399E+04  2.434384E+04 -3.926795E+04 -1.769823E+03  3.570616E+03
       200  10  7.259060E+05 -5.716530E+04 -4.920205E+04 -3.927790E+04 -1.421104E-09  2.653561E-10
       200  11  7.943357E+05 -4.047398E+04 -3.522986E+04 -2.070714E+04 -4.634377E-10  7.322202E-10
       200  12  8.629713E+05 -2.360518E+04 -2.033726E+04 -3.925640E+04 -4.182043E-11  1.860979E-10
       200  13  9.588953E+05  1.040622E+02  4.371733E+03 -3.926214E+04 -1.350729E-09  4.271282E-10
       200  14  9.587980E+05 -2.176047E+01  2.728272E+03 -2.070245E+04 -1.981714E-09 -2.562911E-10
       200  15  9.589018E+05  2.972028E+01  2.003585E+03 -3.926217E+04  3.319780E-10 -6.937873E-10
       200  16  1.191935E+06  5.736963E+04  5.794193E+04 -3.924637E+04  1.403105E-09 -4.272269E-10
       200  17  1.123285E+06  4.042856E+04  4.068460E+04 -2.069775E+04  4.710497E-10 -4.064742E-10
       200  18  1.054841E+06  2.366397E+04  2.434381E+04 -3.926794E+04 -9.401703E-10 -1.160134E-09
       200  19  7.259061E+05 -5.716518E+04 -4.920179E+04 -3.927785E+04 -5.549825E+03 -1.019238E+04
       200  20  7.943357E+05 -4.047392E+04 -3.522974E+04 -2.070712E+04 -4.195759E+03 -6.878354E+03
       200  21  8.629713E+05 -2.360517E+04 -2.033723E+04 -3.925640E+04 -2.840662E+03 -3.568306E+03
       200  22  9.588953E+05  1.041767E+02  4.371948E+03 -3.926211E+04 -3.240198E+03 -1.019298E+04
       200  23  9.587980E+05 -2.170867E+01  2.728368E+03 -2.070244E+04 -1.888338E+03 -6.879223E+03
       200  24  9.589018E+05  2.973404E+01  2.003610E+03 -3.926217E+04 -5.355963E+02 -3.569461E+03
       200  25  1.191935E+06  5.736975E+04  5.794212E+04 -3.924636E+04 -9.297112E+02 -1.019358E+04
       200  26  1.123285E+06  4.042861E+04  4.068469E+04 -2.069775E+04  4.196875E+02 -6.880092E+03
       200  27  1.054841E+06  2.366399E+04  2.434384E+04 -3.926795E+04  1.769823E+03 -3.570616E+03
       201   1  9.301962E+05 -6.983524E+03 -4.539853E+03 -3.923287E+04  2.486135E+03  1.643823E+03
       201   2  9.985226E+05  9.758991E+03  1.122738E+04 -2.071736E+04  1.461473E+03 -1.661170E+03
       201   3  1.066977E+06  2.663120E+04  2.768328E+04 -3.923975E+04  4.369293E+02 -4.965477E+03
       201   4  9.588870E+05  3.254870E+01  1.879832E+03 -3.924409E+04  1.825676E+02  1.645045E+03
       201   5  9.588236E+05 -4.425269E+00  2.065868E+03 -2.072505E+04 -8.416807E+02 -1.660024E+03
       201   6  9.588853E+05  8.879616E+01  2.940802E+03 -3.924405E+04 -1.865701E+03 -4.964390E+03
       201   7  9.875786E+05  7.048569E+03  8.299485E+03 -3.925530E+04 -2.121105E+03  1.646268E+03
       201   8  9.191261E+05 -9.767949E+03 -7.095733E+03 -2.073273E+04 -3.144689E+03 -1.658878E+03
       201   9  8.508040E+05 -2.645442E+04 -2.180242E+04 -3.924834E+04 -4.167934E+03 -4.963302E+03
       201  10  9.301962E+05 -6.983529E+03 -4.539869E+03 -3.923287E+04  3.229775E-10 -2.971852E-10
       201  11  9.985226E+05  9.758988E+03  1.122737E+04 -2.071736E+04  2.272514E-10 -3.582196E-10
       201  12  1.066977E+06  2.663117E+04  2.768323E+04 -3.923974E+04  2.913200E-10 -1.424892E-10
       201  13  9.588870E+05  3.254578E+01  1.879827E+03 -3.924409E+04  8.551333E-10  1.397032E-10
       201  14  9.588236E+05 -4.428419E+00  2.065861E+03 -2.072505E+04 -3.461540E-10  5.443435E-10
       201  15  9.588853E+05  8.876875E+01  2.940749E+03 -3.924405E+04 -2.674979E-10 -7.266780E-10
       201  16  9.875786E+05  7.048565E+03  8.299471E+03 -3.925530E+04 -3.002672E-10 -3.650625E-10
       201  17  9.191261E+05 -9.767955E+03 -7.095756E+03 -2.073273E+04 -9.986911E-10  7.485092E-10
       201  18  8.508039E+05 -2.645445E+04 -2.180250E+04 -3.924836E+04 -1.136227E-09 -5.204860E-12
       201  19  9.301962E+05 -6.983524E+03 -4.539853E+03 -3.923287E+04 -2.486135E+03 -1.643823E+03
       201  20  9.985226E+05  9.758991E+03  1.122738E+04 -2.071736E+04 -1.461473E+03  1.661170E+03
       201  21  1.066977E+06  2.663120E+04  2.768328E+04 -3.923975E+04 -4.369293E+02  4.965477E+03
       201  22  9.588870E+05  3.254870E+01  1.879832E+03 -3.924409E+04 -1.825676E+02 -1.645045E+03
       201  23  9.588236E+05 -4.425269E+00  2.065868E+03 -2.072505E+04  8.416807E+02  1.660024E+03
       201  24  9.588853E+05  8.879616E+01  2.940802E+03 -3.924405E+04  1.865701E+03  4.964390E+03
       201  25  9.875786E+05  7.048569E+03  8.299485E+03 -3.925530E+04  2.121105E+03 -1.646268E+03
       201  26  9.191261E+05 -9.767949E+03 -7.095733E+03 -2.073273E+04  3.144689E+03  1.658878E+03
       201  27  8.508040E+05 -2.645442E+04 -2.180242E+04 -3.924834E+04  4.167934E+03  4.963302E+03
       202   1  1.134447E+06  4.315307E+04  4.435707E+04 -3.912503E+04 -1.415901E+02 -6.897561E+03
       202   2  1.202837E+06  5.991916E+04  6.240872E+04 -2.067557E+04 -3.189756E+03 -1.020807E+04
       202   3  1.271932E+06  7.786517E+04  8.273766E+04 -3.944396E+04 -6.236989E+03 -1.348080E+04
       202   4  9.590072E+05 -3.023451E+01  3.674063E+03 -3.928431E+04 -2.462497E+03 -6.896621E+03
       202   5  9.586543E+05 -1.272517E+02  6.063314E+03 -2.067477E+04 -5.483382E+03 -1.020757E+04
       202   6  9.589964E+05  9.513567E+02  1.071168E+04 -3.928396E+04 -8.503002E+03 -1.348070E+04
       202   7  7.835953E+05 -4.321570E+04 -3.701099E+04 -3.944355E+04 -4.782753E+03 -6.895679E+03
       202   8  7.145262E+05 -6.017784E+04 -5.028604E+04 -2.067397E+04 -7.776114E+03 -1.020706E+04
       202   9  6.461512E+05 -7.596929E+04 -6.132078E+04 -3.912404E+04 -1.076788E+04 -1.348061E+04
       202  10  1.134447E+06  4.315302E+04  4.435698E+04 -3.912503E+04  5.406409E-10  3.732359E-10
       202  11  1.202837E+06  5.991905E+04  6.240851E+04 -2.067560E+04 -1.222761E-10 -1.341093E-10
       202  12  1.271932E+06  7.786497E+04  8.273725E+04 -3.944403E+04 -3.008575E-10  2.871902E-10
       202  13  9.590072E+05 -3.028723E+01  3.673962E+03 -3.928433E+04 -2.877009E-11 -4.923624E-10
       202  14  9.586543E+05 -1.273717E+02  6.063061E+03 -2.067482E+04 -2.166203E-09 -6.065149E-10
       202  15  9.589963E+05  9.511421E+02  1.071120E+04 -3.928405E+04 -1.227708E-09  3.036257E-10
       202  16  7.835953E+05 -4.321576E+04 -3.701112E+04 -3.944357E+04 -4.499918E-10  1.007842E-10
       202  17  7.145261E+05 -6.017796E+04 -5.028635E+04 -2.067404E+04 -3.089110E-10 -4.212084E-10
       202  18  6.461510E+05 -7.596952E+04 -6.132134E+04 -3.912416E+04 -1.316185E-09  2.625894E-10
       202  19  1.134447E+06  4.315307E+04  4.435707E+04 -3.912503E+04  1.415901E+02  6.897561E+03
       202  20  1.202837E+06  5.991916E+04  6.240872E+04 -2.067557E+04  3.189756E+03  1.020807E+04
       202  21  1.271932E+06  7.786517E+04  8.273766E+04 -3.944396E+04  6.236989E+03  1.348080E+04
       202  22  9.590072E+05 -3.023451E+01  3.674063E+03 -3.928431E+04  2.462497E+03  6.896621E+03
       202  23  9.586543E+05 -1.272517E+02  6.063314E+03 -2.067477E+04  5.483382E+03  1.020757E+04
       202  24  9.589964E+05  9.513567E+02  1.071168E+04 -3.928396E+04  8.503002E+03  1.348070E+04
       202  25  7.835953E+05 -4.321570E+04 -3.701099E+04 -3.944355E+04  4.782753E+03  6.895679E+03
       202  26  7.145262E+05 -6.017784E+04 -5.028604E+04 -2.067397E+04  7.776114E+03  1.020706E+04
       202  27  6.461512E+05 -7.596929E+04 -6.132078E+04 -3.912404E+04  1.076788E+04  1.348061E+04
       203   1  1.340900E+06  9.294652E+04  1.018780E+05 -3.725390E+04 -8.100898E+03 -1.553692E+04
       203   2  1.407776E+06  1.095490E+05  1.275411E+05 -2.161776E+04 -2.069985E+04 -1.876090E+04
       203   3  1.480084E+06  1.408079E+05  1.650840E+05 -4.362651E+04 -3.329824E+04 -2.106759E+04
       203   4  9.600135E+05 -7.424791E+02  1.382164E+04 -3.937875E+04 -1.066462E+04 -1.553713E+04
       203   5  9.573398E+05 -1.209278E+03  2.358469E+04 -2.055647E+04 -2.261633E+04 -1.876196E+04
       203   6  9.599863E+05  1.287489E+04  4.478540E+04 -3.938042E+04 -3.456609E+04 -2.106933E+04
       203   7  5.792611E+05 -9.444162E+04 -7.424438E+04 -4.150228E+04 -1.322677E+04 -1.553732E+04
       203   8  5.070909E+05 -1.119817E+05 -8.038522E+04 -1.949595E+04 -2.453142E+04 -1.876304E+04
       203   9  4.401379E+05 -1.150770E+05 -7.553121E+04 -3.513790E+04 -3.583287E+04 -2.107108E+04
       203  10  1.340899E+06  9.294624E+04  1.018774E+05 -3.725400E+04 -1.191539E-10  3.614026E-10
       203  11  1.407775E+06  1.095485E+05  1.275397E+05 -2.161807E+04 -1.525939E-09  4.978453E-10
       203  12  1.480083E+06  1.408071E+05  1.650810E+05 -4.362708E+04 -4.743014E-10 -3.867062E-10
       203  13  9.600133E+05 -7.427689E+02  1.382097E+04 -3.937888E+04 -1.566755E-09  3.222424E-10
       203  14  9.573391E+05 -1.209793E+03  2.358307E+04 -2.055681E+04 -9.136944E-10  7.964156E-11
       203  15  9.599849E+05  1.287409E+04  4.478232E+04 -3.938100E+04  6.196144E-10 -3.653360E-10
       203  16  5.792609E+05 -9.444193E+04 -7.424516E+04 -4.150244E+04 -8.409827E-10  2.278450E-10
       203  17  5.070901E+05 -1.119822E+05 -8.038701E+04 -1.949632E+04  7.109514E-10 -2.057484E-10
       203  18  4.401364E+05 -1.150778E+05 -7.553446E+04 -3.513851E+04 -1.308500E-10 -1.702031E-10
       203  19  1.340900E+06  9.294652E+04  1.018780E+05 -3.725390E+04  8.100898E+03  1.553692E+04
       203  20  1.407776E+06  1.095490E+05  1.275411E+05 -2.161776E+04  2.069985E+04  1.876090E+04
       203  21  1.480084E+06  1.408079E+05  1.650840E+05 -4.362651E+04  3.329824E+04  2.106759E+04
       203  22  9.600135E+05 -7.424791E+02  1.382164E+04 -3.937875E+04  1.066462E+04  1.553713E+04
       203  23  9.573398E+05 -1.209278E+03  2.358469E+04 -2.055647E+04  2.261633E+04  1.876196E+04
       203  24  9.599863E+05  1.287489E+04  4.478540E+04 -3.938042E+04  3.456609E+04  2.106933E+04
       203  25  5.792611E+05 -9.444162E+04 -7.424438E+04 -4.150228E+04  1.322677E+04  1.553732E+04
       203  26  5.070909E+05 -1.119817E+05 -8.038522E+04 -1.949595E+04  2.453142E+04  1.876304E+04
       203  27  4.401379E+05 -1.150770E+05 -7.553121E+04 -3.513790E+04  3.583287E+04  2.107108E+04
       204   1  1.559800E+06  1.356234E+05  1.912248E+05 -1.474308E+04 -3.587240E+04 -2.525794E+04
       204   2  1.603624E+06  1.492223E+05  2.443895E+05 -4.133551E+04 -9.769982E+04 -2.613269E+04
       204   3  1.702076E+06  3.480498E+05  3.841084E+05 -1.058159E+05 -1.595512E+05 -8.681197E+03
       204   4  9.704592E+05 -9.237728E+03  5.553884E+04 -3.939440E+04 -4.282521E+04 -2.526076E+04
       204   5  9.441785E+05 -1.300369E+04  9.159279E+04 -2.052260E+04 -9.183104E+04 -2.613397E+04
       204   6  9.703569E+05  1.663357E+05  2.053685E+05 -3.953441E+04 -1.408526E+05 -8.681333E+03
       204   7  3.814400E+05 -1.541208E+05 -8.016959E+04 -6.402221E+04 -4.977146E+04 -2.526302E+04
       204   8  2.851348E+05 -1.752586E+05 -6.123270E+04  2.680364E+02 -8.596839E+04 -2.613486E+04
       204   9  2.391346E+05 -1.540124E+04  2.659331E+04  2.666891E+04 -1.221758E+05 -8.677493E+03
       204  10  1.559799E+06  1.356223E+05  1.912212E+05 -1.474381E+04 -1.601067E-10 -4.409813E-10
       204  11  1.603613E+06  1.492191E+05  2.443704E+05 -4.133756E+04 -1.969239E-09  3.063438E-10
       204  12  1.702049E+06  3.480429E+05  3.840606E+05 -1.058170E+05 -2.059871E-10  5.995371E-10
       204  13  9.704571E+05 -9.238905E+03  5.553420E+04 -3.939527E+04  8.347525E-10 -1.091034E-09
       204  14  9.441693E+05 -1.300668E+04  9.157569E+04 -2.052453E+04  5.386064E-10  1.440655E-10
       204  15  9.703356E+05  1.663303E+05  2.053312E+05 -3.953539E+04  7.129629E-10 -2.922487E-10
       204  16  3.814372E+05 -1.541221E+05 -8.017545E+04 -6.402322E+04  1.243922E-09 -2.305068E-10
       204  17  2.851267E+05 -1.752613E+05 -6.124787E+04  2.662269E+02  1.330026E-09 -5.953268E-10
       204  18  2.391185E+05 -1.540532E+04  2.656513E+04  2.666805E+04  1.680635E-10  7.749577E-10
       204  19  1.559800E+06  1.356234E+05  1.912248E+05 -1.474308E+04  3.587240E+04  2.525794E+04
       204  20  1.603624E+06  1.492223E+05  2.443895E+05 -4.133551E+04  9.769982E+04  2.613269E+04
       204  21  1.702076E+06  3.480498E+05  3.841084E+05 -1.058159E+05  1.595512E+05  8.681197E+03
       204  22  9.704592E+05 -9.237728E+03  5.553884E+04 -3.939440E+04  4.282521E+04  2.526076E+04
       204  23  9.441785E+05 -1.300369E+04  9.159279E+04 -2.052260E+04  9.183104E+04  2.613397E+04
       204  24  9.703569E+05  1.663357E+05  2.053685E+05 -3.953441E+04  1.408526E+05  8.681333E+03
       204  25  3.814400E+05 -1.541208E+05 -8.016959E+04 -6.402221E+04  4.977146E+04  2.526302E+04
       204  26  2.851348E+05 -1.752586E+05 -6.123270E+04  2.680364E+02  8.596839E+04  2.613486E+04
       204  27  2.391346E+05 -1.540124E+04  2.659331E+04  2.666891E+04  1.221758E+05  8.677493E+03
       205   1  5.362312E+05  1.635670E+06  5.246432E+05 -5.440337E+05  1.963134E+04  1.623108E+05
       205   2  3.462583E+05  1.137179E+06  3.172371E+05 -4.648871E+05  5.901443E+04  6.171282E+04
       205   3  2.145349E+05  6.662246E+05  1.897302E+05 -4.912980E+05  5.225849E+04 -3.888116E+04
       205   4  7.720851E+04 -2.187074E+05  8.364398E+04 -4.931568E+05  1.992042E+04  5.606789E+04
       205   5  1.880141E+04 -2.253564E+05  4.243710E+04 -4.404741E+05  5.910273E+04  3.432009E+04
       205   6  5.061898E+03 -2.182871E+05  2.651300E+04 -4.933423E+05  5.210803E+04  1.249496E+04
       205   7 -3.820468E+05 -2.069904E+06 -3.575523E+05 -4.424291E+05  2.019266E+04 -4.986000E+04
       205   8 -3.087680E+05 -1.586121E+06 -2.324553E+05 -4.161138E+05  5.918901E+04  6.986179E+03
       205   9 -2.044543E+05 -1.102035E+06 -1.367268E+05 -4.953828E+05  5.195709E+04  6.379985E+04
       205  10  5.362237E+05  1.635642E+06  5.245931E+05 -5.440362E+05  3.840357E-10  5.388670E-10
       205  11  3.462536E+05  1.137173E+06  3.172234E+05 -4.648900E+05  2.103115E-10 -9.128699E-10
       205  12  2.145316E+05  6.662223E+05  1.897222E+05 -4.912963E+05  2.409715E-11 -1.223593E-09
       205  13  7.720724E+04 -2.187109E+05  8.363732E+04 -4.931577E+05 -2.764599E-10  1.113019E-09
       205  14  1.879734E+04 -2.253586E+05  4.242832E+04 -4.404757E+05 -7.318625E-10 -2.084780E-09
       205  15  5.058940E+03 -2.182880E+05  2.650760E+04 -4.933428E+05 -4.783441E-11  9.241576E-10
       205  16 -3.820479E+05 -2.069907E+06 -3.575578E+05 -4.424283E+05  3.871721E-10 -4.488404E-10
       205  17 -3.087718E+05 -1.586122E+06 -2.324620E+05 -4.161141E+05  1.014392E-09  2.557363E-10
       205  18 -2.044583E+05 -1.102040E+06 -1.367396E+05 -4.953854E+05 -1.740287E-09  1.061589E-09
       205  19  5.362312E+05  1.635670E+06  5.246432E+05 -5.440337E+05 -1.963134E+04 -1.623108E+05
       205  20  3.462583E+05  1.137179E+06  3.172371E+05 -4.648871E+05 -5.901443E+04 -6.171282E+04
       205  21  2.145349E+05  6.662246E+05  1.897302E+05 -4.912980E+05 -5.225849E+04  3.888116E+04
       205  22  7.720851E+04 -2.187074E+05  8.364398E+04 -4.931568E+05 -1.992042E+04 -5.606789E+04
       205  23  1.880141E+04 -2.253564E+05  4.243710E+04 -4.404741E+05 -5.910273E+04 -3.432009E+04
       205  24  5.061898E+03 -2.182871E+05  2.651300E+04 -4.933423E+05 -5.210803E+04 -1.249496E+04
       205  25 -3.820468E+05 -2.069904E+06 -3.575523E+05 -4.424291E+05 -2.019266E+04  4.986000E+04
       205  26 -3.087680E+05 -1.586121E+06 -2.324553E+05 -4.161138E+05 -5.918901E+04 -6.986179E+03
       205  27 -2.044543E+05 -1.102035E+06 -1.367268E+05 -4.953828E+05 -5.195709E+04 -6.379985E+04
       206   1  1.403943E+05  3.461416E+05  1.273331E+05 -4.972277E+05  3.356258E+04 -3.813008E+04
       206   2  2.291167E+04 -1.393056E+05  3.391463E+04 -4.398734E+05  5.970092E+03 -4.863084E+04
       206   3 -8.889711E+04 -6.223221E+05 -5.142501E+04 -4.909029E+05 -2.196828E+04 -5.912643E+04
       206   4  6.078136E+03 -2.207805E+05  2.271292E+04 -4.939507E+05  3.341843E+04  8.653858E+03
       206   5  3.570502E+03 -2.218176E+05  1.973439E+04 -4.397587E+05  5.823076E+03 -1.270259E+03
       206   6  6.647845E+03 -2.207539E+05  2.443436E+04 -4.939491E+05 -2.211856E+04 -1.119691E+04
       206   7 -1.282552E+05 -7.873862E+05 -8.191236E+04 -4.906764E+05  3.327469E+04  5.539621E+04
       206   8 -1.576983E+04 -3.043181E+05  5.562358E+03 -4.396440E+05  5.676066E+03  4.608422E+04
       206   9  1.021847E+05  1.809751E+05  1.002953E+05 -4.969972E+05 -2.226924E+04  3.676289E+04
       206  10  1.403927E+05  3.461397E+05  1.273282E+05 -4.972266E+05 -4.990395E-10  6.383320E-09
       206  11  2.291100E+04 -1.393082E+05  3.391012E+04 -4.398731E+05 -2.743330E-10 -1.054026E-08
       206  12 -8.889857E+04 -6.223260E+05 -5.143250E+04 -4.909040E+05  8.149082E-10 -2.340871E-08
       206  13  6.076917E+03 -2.207809E+05  2.271068E+04 -4.939509E+05 -1.918859E-09  1.380283E-09
       206  14  3.570465E+03 -2.218176E+05  1.973433E+04 -4.397587E+05 -1.707376E-09 -2.474246E-09
       206  15  6.647286E+03 -2.207542E+05  2.443321E+04 -4.939493E+05 -2.152190E-10  9.823156E-10
       206  16 -1.282572E+05 -7.873898E+05 -8.192022E+04 -4.906779E+05 -9.201604E-10 -6.348646E-09
       206  17 -1.577044E+04 -3.043203E+05  5.558303E+03 -4.396442E+05 -1.342386E-09  8.874533E-09
       206  18  1.021838E+05  1.809735E+05  1.002918E+05 -4.969965E+05  8.685206E-10  2.305191E-08
       206  19  1.403943E+05  3.461416E+05  1.273331E+05 -4.972277E+05 -3.356258E+04  3.813008E+04
       206  20  2.291167E+04 -1.393056E+05  3.391463E+04 -4.398734E+05 -5.970092E+03  4.863084E+04
       206  21 -8.889711E+04 -6.223221E+05 -5.142501E+04 -4.909029E+05  2.196828E+04  5.912643E+04
       206  22  6.078136E+03 -2.207805E+05  2.271292E+04 -4.939507E+05 -3.341843E+04 -8.653858E+03
       206  23  3.570502E+03 -2.218176E+05  1.973439E+04 -4.397587E+05 -5.823076E+03  1.270259E+03
       206  24  6.647845E+03 -2.207539E+05  2.443436E+04 -4.939491E+05  2.211856E+04  1.119691E+04
       206  25 -1.282552E+05 -7.873862E+05 -8.191236E+04 -4.906764E+05 -3.327469E+04 -5.539621E+04
       206  26 -1.576983E+04 -3.043181E+05  5.562358E+03 -4.396440E+05 -5.676066E+03 -4.608422E+04
       206  27  1.021847E+05  1.809751E+05  1.002953E+05 -4.969972E+05  2.226924E+04 -3.676289E+04
       207   1 -1.651284E+05 -9.364141E+05 -1.050064E+05 -4.964013E+05 -4.084222E+04 -6.739213E+04
       207   2 -2.669154E+05 -1.422030E+06 -1.952941E+05 -4.131920E+05 -5.040793E+04 -2.006299E+04
       207   3 -3.302079E+05 -1.904298E+06 -3.069121E+05 -4.358325E+05 -1.760732E+04  2.730502E+04
       207   4  5.506004E+03 -2.178190E+05  2.920836E+04 -4.934036E+05 -4.100029E+04 -1.534771E+04
       207   5  2.140777E+04 -2.258103E+05  4.809240E+04 -4.403877E+05 -5.034238E+04 -4.011104E+04
       207   6  8.829262E+04 -2.181865E+05  9.573547E+04 -4.931862E+05 -1.736017E+04 -6.479866E+04
       207   7  1.761121E+05  5.012823E+05  1.634112E+05 -4.904018E+05 -4.115774E+04  3.675550E+04
       207   8  3.096443E+05  9.717747E+05  2.914058E+05 -4.676355E+05 -5.027516E+04 -6.019702E+04
       207   9  5.066035E+05  1.470562E+06  4.982164E+05 -5.506942E+05 -1.709638E+04 -1.571518E+05
       207  10 -1.651314E+05 -9.364195E+05 -1.050181E+05 -4.964036E+05  1.406037E-09  2.461626E-08
       207  11 -2.669182E+05 -1.422031E+06 -1.952996E+05 -4.131928E+05  1.572238E-09  8.986141E-09
       207  12 -3.302084E+05 -1.904299E+06 -3.069141E+05 -4.358321E+05  2.158509E-10 -6.169496E-09
       207  13  5.504135E+03 -2.178197E+05  2.920475E+04 -4.934041E+05  1.151680E-09  1.254903E-09
       207  14  2.140462E+04 -2.258127E+05  4.808461E+04 -4.403893E+05 -1.874797E-09 -2.277455E-09
       207  15  8.829117E+04 -2.181910E+05  9.572701E+04 -4.931871E+05  4.856136E-10  7.375422E-10
       207  16  1.761099E+05  5.012804E+05  1.634055E+05 -4.904006E+05  7.131823E-11 -2.429810E-08
       207  17  3.096406E+05  9.717701E+05  2.913942E+05 -4.676379E+05  1.824564E-09 -9.929459E-09
       207  18  5.065966E+05  1.470536E+06  4.981695E+05 -5.506964E+05  1.014982E-09  5.871510E-09
       207  19 -1.651284E+05 -9.364141E+05 -1.050064E+05 -4.964013E+05  4.084222E+04  6.739213E+04
       207  20 -2.669154E+05 -1.422030E+06 -1.952941E+05 -4.131920E+05  5.040793E+04  2.006299E+04
       207  21 -3.302079E+05 -1.904298E+06 -3.069121E+05 -4.358325E+05  1.760732E+04 -2.730502E+04
       207  22  5.506004E+03 -2.178190E+05  2.920836E+04 -4.934036E+05  4.100029E+04  1.534771E+04
       207  23  2.140777E+04 -2.258103E+05  4.809240E+04 -4.403877E+05  5.034238E+04  4.011104E+04
       207  24  8.829262E+04 -2.181865E+05  9.573547E+04 -4.931862E+05  1.736017E+04  6.479866E+04
       207  25  1.761121E+05  5.012823E+05  1.634112E+05 -4.904018E+05  4.115774E+04 -3.675550E+04
       207  26  3.096443E+05  9.717747E+05  2.914058E+05 -4.676355E+05  5.027516E+04  6.019702E+04
       207  27  5.066035E+05  1.470562E+06  4.982164E+05 -5.506942E+05  1.709638E+04  1.571518E+05
       208   1 -2.344367E+06 -9.131899E+05 -4.901316E+05 -8.921603E+05 -1.853738E+05 -4.378786E+04
       208   2 -2.213306E+06 -7.560075E+05 -3.371467E+05 -8.422359E+05 -1.178839E+05  4.128012E+04
       208   3 -2.093941E+06 -6.823506E+05 -2.655504E+05 -8.053668E+05 -3.515843E+04  8.602003E+04
       208   4 -8.527965E+05 -3.050298E+05 -9.538026E+04 -4.350830E+05 -7.028496E+04 -4.744900E+02
       208   5 -8.480384E+05 -2.327255E+05 -4.414089E+04 -4.424081E+05 -6.686828E+04  6.045140E+04
       208   6 -8.421942E+05 -2.311429E+05 -2.331578E+04 -4.628110E+05 -4.825707E+04  8.107719E+04
       208   7  6.409434E+05  3.033769E+05  2.992239E+05  2.302638E+04  4.510467E+04  4.297439E+04
       208   8  5.191362E+05  2.907527E+05  2.487666E+05 -4.175267E+04 -1.573170E+04  7.967261E+04
       208   9  4.112007E+05  2.202023E+05  2.188555E+05 -1.196121E+05 -6.138427E+04  7.612393E+04
       208  10 -2.344405E+06 -9.132013E+05 -4.902001E+05 -8.921668E+05 -5.004410E-10 -4.786140E-10
       208  11 -2.213321E+06 -7.560131E+05 -3.371760E+05 -8.422320E+05 -5.677047E-10  2.499091E-10
       208  12 -2.093945E+06 -6.823588E+05 -2.655666E+05 -8.053644E+05  7.976004E-10 -2.379347E-10
       208  13 -8.528018E+05 -3.050311E+05 -9.538955E+04 -4.350831E+05 -6.689383E-10  2.133900E-10
       208  14 -8.480442E+05 -2.327306E+05 -4.415616E+04 -4.424048E+05 -1.419655E-09  1.106629E-09
       208  15 -8.421984E+05 -2.311506E+05 -2.333250E+04 -4.628079E+05  2.276940E-10 -5.116064E-11
       208  16  6.409407E+05  3.033744E+05  2.992166E+05  2.302482E+04  6.957497E-10  1.112988E-09
       208  17  5.191342E+05  2.907458E+05  2.487542E+05 -4.175166E+04  4.607298E-11  6.823631E-10
       208  18  4.111951E+05  2.201951E+05  2.188375E+05 -1.196083E+05 -1.955242E-09  4.537259E-10
       208  19 -2.344367E+06 -9.131899E+05 -4.901316E+05 -8.921603E+05  1.853738E+05  4.378786E+04
       208  20 -2.213306E+06 -7.560075E+05 -3.371467E+05 -8.422359E+05  1.178839E+05 -4.128012E+04
       208  21 -2.093941E+06 -6.823506E+05 -2.655504E+05 -8.053668E+05  3.515843E+04 -8.602003E+04
       208  22 -8.527965E+05 -3.050298E+05 -9.538026E+04 -4.350830E+05  7.028496E+04  4.744900E+02
       208  23 -8.480384E+05 -2.327255E+05 -4.414089E+04 -4.424081E+05  6.686828E+04 -6.045140E+04
       208  24 -8.421942E+05 -2.311429E+05 -2.331578E+04 -4.628110E+05  4.825707E+04 -8.107719E+04
       208  25  6.409434E+05  3.033769E+05  2.992239E+05  2.302638E+04 -4.510467E+04 -4.297439E+04
       208  26  5.191362E+05  2.907527E+05  2.487666E+05 -4.175267E+04  1.573170E+04 -7.967261E+04
       208  27  4.112007E+05  2.202023E+05  2.188555E+05 -1.196121E+05  6.138427E+04 -7.612393E+04
       209   1 -1.992828E+06 -6.545947E+05 -2.403160E+05 -7.837600E+05 -3.668403E+04  7.947188E+04
       209   2 -1.865659E+06 -5.874313E+05 -2.006118E+05 -7.316617E+05 -2.463271E+04  7.718258E+04
       209   3 -1.716751E+06 -5.477440E+05 -1.690590E+05 -7.066233E+05 -1.137920E+04  7.167785E+04
       209   4 -8.389729E+05 -2.328575E+05 -1.765713E+04 -4.615506E+05 -4.364216E+04  7.684064E+04
       209   5 -8.500454E+05 -2.178982E+05 -9.330078E+03 -4.486458E+05 -3.669605E+04  7.263913E+04
       209   6 -8.383825E+05 -2.293960E+05 -5.094011E+03 -4.628049E+05 -2.855119E+04  6.522425E+04
       209   7  3.162696E+05  1.890019E+05  2.049442E+05 -1.387833E+05 -5.061418E+04  7.420417E+04
       209   8  1.666437E+05  1.517286E+05  1.819095E+05 -1.651995E+05 -4.878049E+04  6.808775E+04
       209   9  4.078717E+04  8.901963E+04  1.588398E+05 -2.186673E+05 -4.574906E+04  5.876099E+04
       209  10 -1.992831E+06 -6.546018E+05 -2.403304E+05 -7.837576E+05 -1.789826E-11 -3.314032E-10
       209  11 -1.865661E+06 -5.874379E+05 -2.006241E+05 -7.316601E+05 -5.613879E-10  6.798599E-10
       209  12 -1.716753E+06 -5.477496E+05 -1.690689E+05 -7.066227E+05  2.474894E-13  7.806324E-10
       209  13 -8.389766E+05 -2.328644E+05 -1.767180E+04 -4.615479E+05  1.064638E-09  1.001810E-10
       209  14 -8.500482E+05 -2.179042E+05 -9.342517E+03 -4.486436E+05  3.258101E-10  2.814407E-10
       209  15 -8.383845E+05 -2.294008E+05 -5.103532E+03 -4.628034E+05 -1.940143E-10  6.910196E-10
       209  16  3.162654E+05  1.889953E+05  2.049291E+05 -1.387803E+05 -4.141717E-11  6.928699E-10
       209  17  1.666399E+05  1.517230E+05  1.818963E+05 -1.651968E+05 -3.607574E-10 -7.503073E-11
       209  18  4.078399E+04  8.901536E+04  1.588294E+05 -2.186651E+05  7.185673E-11  8.338126E-10
       209  19 -1.992828E+06 -6.545947E+05 -2.403160E+05 -7.837600E+05  3.668403E+04 -7.947188E+04
       209  20 -1.865659E+06 -5.874313E+05 -2.006118E+05 -7.316617E+05  2.463271E+04 -7.718258E+04
       209  21 -1.716751E+06 -5.477440E+05 -1.690590E+05 -7.066233E+05  1.137920E+04 -7.167785E+04
       209  22 -8.389729E+05 -2.328575E+05 -1.765713E+04 -4.615506E+05  4.364216E+04 -7.684064E+04
       209  23 -8.500454E+05 -2.178982E+05 -9.330078E+03 -4.486458E+05  3.669605E+04 -7.263913E+04
       209  24 -8.383825E+05 -2.293960E+05 -5.094011E+03 -4.628049E+05  2.855119E+04 -6.522425E+04
       209  25  3.162696E+05  1.890019E+05  2.049442E+05 -1.387833E+05  5.061418E+04 -7.420417E+04
       209  26  1.666437E+05  1.517286E+05  1.819095E+05 -1.651995E+05  4.878049E+04 -6.808775E+04
       209  27  4.078717E+04  8.901963E+04  1.588398E+05 -2.186673E+05  4.574906E+04 -5.876099E+04
       210   1 -1.624501E+06 -5.146137E+05 -1.499029E+05 -6.813730E+05 -8.766346E+03  6.544984E+04
       210   2 -1.497556E+06 -4.518404E+05 -1.223195E+05 -6.288201E+05 -3.295446E+03  5.538093E+04
       210   3 -1.346492E+06 -4.135506E+05 -9.586816E+04 -6.040768E+05  2.268764E+03  4.504629E+04
       210   4 -8.381116E+05 -2.294805E+05 -3.838267E+03 -4.627569E+05 -2.546934E+04  5.917622E+04
       210   5 -8.501505E+05 -2.171633E+05 -2.125724E+03 -4.488780E+05 -2.042055E+04  4.895420E+04
       210   6 -8.380134E+05 -2.292475E+05 -1.212532E+03 -4.628156E+05 -1.527889E+04  3.846650E+04
       210   7 -5.106510E+04  5.571298E+04  1.422060E+05 -2.438804E+05 -4.219515E+04  5.289405E+04
       210   8 -2.023018E+05  1.755394E+04  1.180541E+05 -2.687599E+05 -3.756486E+04  4.252027E+04
       210   9 -3.292625E+05 -4.492038E+04  9.343446E+04 -3.214463E+05 -3.284193E+04  3.188095E+04
       210  10 -1.624502E+06 -5.146183E+05 -1.499111E+05 -6.813726E+05  2.790120E-09  1.048023E-09
       210  11 -1.497556E+06 -4.518437E+05 -1.223252E+05 -6.288199E+05  1.439441E-09 -2.018261E-10
       210  12 -1.346493E+06 -4.135527E+05 -9.587198E+04 -6.040769E+05 -1.429383E-09 -9.982912E-11
       210  13 -8.381132E+05 -2.294844E+05 -3.846063E+03 -4.627557E+05 -1.089755E-10  5.680682E-10
       210  14 -8.501515E+05 -2.171660E+05 -2.131008E+03 -4.488772E+05 -1.551553E-10 -2.082644E-11
       210  15 -8.380140E+05 -2.292492E+05 -1.215750E+03 -4.628151E+05  5.448119E-10  4.075413E-10
       210  16 -5.106776E+04  5.570950E+04  1.421974E+05 -2.438786E+05 -1.924649E-09  3.249037E-11
       210  17 -2.023038E+05  1.755162E+04  1.180480E+05 -2.687586E+05  3.944598E-10 -2.709372E-11
       210  18 -3.292639E+05 -4.492176E+04  9.343053E+04 -3.214455E+05  1.034419E-09  8.539799E-10
       210  19 -1.624501E+06 -5.146137E+05 -1.499029E+05 -6.813730E+05  8.766346E+03 -6.544984E+04
       210  20 -1.497556E+06 -4.518404E+05 -1.223195E+05 -6.288201E+05  3.295446E+03 -5.538093E+04
       210  21 -1.346492E+06 -4.135506E+05 -9.586816E+04 -6.040768E+05 -2.268764E+03 -4.504629E+04
       210  22 -8.381116E+05 -2.294805E+05 -3.838267E+03 -4.627569E+05  2.546934E+04 -5.917622E+04
       210  23 -8.501505E+05 -2.171633E+05 -2.125724E+03 -4.488780E+05  2.042055E+04 -4.895420E+04
       210  24 -8.380134E+05 -2.292475E+05 -1.212532E+03 -4.628156E+05  1.527889E+04 -3.846650E+04
       210  25 -5.106510E+04  5.571298E+04  1.422060E+05 -2.438804E+05  4.219515E+04 -5.289405E+04
       210  26 -2.023018E+05  1.755394E+04  1.180541E+05 -2.687599E+05  3.756486E+04 -4.252027E+04
       210  27 -3.292625E+05 -4.492038E+04  9.343446E+04 -3.214463E+05  3.284193E+04 -3.188095E+04
       211   1 -1.254544E+06 -3.801155E+05 -7.780468E+04 -5.786088E+05  4.827494E+03  3.868450E+04
       211   2 -1.127361E+06 -3.174933E+05 -5.202576E+04 -5.259313E+05  9.318474E+03  2.780716E+04
       211   3 -9.758582E+05 -2.792173E+05 -2.651440E+04 -5.011472E+05  1.381549E+04  1.690570E+04
       211   4 -8.379672E+05 -2.292417E+05 -9.530586E+02 -4.628234E+05 -1.269386E+04  3.211688E+04
       211   5 -8.501036E+05 -2.170403E+05 -6.488473E+02 -4.488792E+05 -8.242388E+03  2.122707E+04
       211   6 -8.379329E+05 -2.291789E+05 -5.820755E+02 -4.628358E+05 -3.784957E+03  1.031308E+04
       211   7 -4.212115E+05 -7.835309E+04  7.589230E+04 -3.469664E+05 -3.022763E+04  2.554461E+04
       211   8 -5.727647E+05 -1.165800E+05  5.072647E+04 -3.717949E+05 -2.581164E+04  1.464383E+04
       211   9 -6.999856E+05 -1.791380E+05  2.535118E+04 -4.245159E+05 -2.138975E+04  3.718837E+03
       211  10 -1.254544E+06 -3.801172E+05 -7.780754E+04 -5.786090E+05  8.350984E-10  1.191876E-09
       211  11 -1.127361E+06 -3.174942E+05 -5.202738E+04 -5.259315E+05 -1.221222E-10  8.308801E-10
       211  12 -9.758585E+05 -2.792177E+05 -2.651530E+04 -5.011474E+05 -9.023081E-10 -9.058476E-11
       211  13 -8.379677E+05 -2.292429E+05 -9.552986E+02 -4.628231E+05 -4.592800E-10  7.865283E-10
       211  14 -8.501038E+05 -2.170408E+05 -6.498213E+02 -4.488791E+05 -1.335589E-09 -6.440809E-11
       211  15 -8.379329E+05 -2.291790E+05 -5.823022E+02 -4.628358E+05 -1.491622E-09  7.552890E-11
       211  16 -4.212127E+05 -7.835403E+04  7.588936E+04 -3.469658E+05 -1.469309E-09 -1.376381E-11
       211  17 -5.727655E+05 -1.165804E+05  5.072481E+04 -3.717946E+05 -4.298168E-10 -5.187611E-10
       211  18 -6.999861E+05 -1.791382E+05  2.535029E+04 -4.245159E+05 -9.147296E-11  3.843287E-11
       211  19 -1.254544E+06 -3.801155E+05 -7.780468E+04 -5.786088E+05 -4.827494E+03 -3.868450E+04
       211  20 -1.127361E+06 -3.174933E+05 -5.202576E+04 -5.259313E+05 -9.318474E+03 -2.780716E+04
       211  21 -9.758582E+05 -2.792173E+05 -2.651440E+04 -5.011472E+05 -1.381549E+04 -1.690570E+04
       211  22 -8.379672E+05 -2.292417E+05 -9.530586E+02 -4.628234E+05  1.269386E+04 -3.211688E+04
       211  23 -8.501036E+05 -2.170403E+05 -6.488473E+02 -4.488792E+05  8.242388E+03 -2.122707E+04
       211  24 -8.379329E+05 -2.291789E+05 -5.820755E+02 -4.628358E+05  3.784957E+03 -1.031308E+04
       211  25 -4.212115E+05 -7.835309E+04  7.589230E+04 -3.469664E+05  3.022763E+04 -2.554461E+04
       211  26 -5.727647E+05 -1.165800E+05  5.072647E+04 -3.717949E+05  2.581164E+04 -1.464383E+04
       211  27 -6.999856E+05 -1.791380E+05  2.535118E+04 -4.245159E+05  2.138975E+04 -3.718837E+03
       212   1 -8.838165E+05 -2.457551E+05 -8.747224E+03 -4.756431E+05  1.632847E+04  1.051308E+04
       212   2 -7.565241E+05 -1.831615E+05  1.643331E+04 -4.229395E+05  2.088685E+04 -3.665573E+02
       212   3 -6.049233E+05 -1.449160E+05  4.129963E+04 -3.981502E+05  2.543944E+04 -1.122843E+04
       212   4 -8.379330E+05 -2.291760E+05 -6.282247E+02 -4.628411E+05 -1.275185E+03  3.919700E+03
       212   5 -8.500796E+05 -2.169980E+05 -9.010718E+02 -4.488823E+05  3.309252E+03 -6.950957E+03
       212   6 -8.379432E+05 -2.291755E+05 -1.509481E+03 -4.628458E+05  7.887783E+03 -1.780383E+04
       212   7 -7.920466E+05 -2.125964E+05  7.492033E+03 -4.500381E+05 -1.888023E+04 -2.674204E+03
       212   8 -9.436248E+05 -2.508333E+05 -1.823433E+04 -4.748211E+05 -1.426543E+04 -1.353427E+04
       212   9 -1.070903E+06 -3.134290E+05 -4.431866E+04 -5.275180E+05 -9.656676E+03 -2.437654E+04
       212  10 -8.838168E+05 -2.457553E+05 -8.747934E+03 -4.756432E+05  1.774953E-09 -2.391214E-10
       212  11 -7.565246E+05 -1.831616E+05  1.643249E+04 -4.229395E+05  1.340903E-09 -6.538835E-10
       212  12 -6.049241E+05 -1.449163E+05  4.129818E+04 -3.981499E+05 -9.430630E-11 -1.609200E-09
       212  13 -8.379330E+05 -2.291760E+05 -6.282566E+02 -4.628411E+05  9.301973E-10  1.955653E-10
       212  14 -8.500797E+05 -2.169981E+05 -9.011831E+02 -4.488822E+05  9.088655E-10 -9.749054E-10
       212  15 -8.379433E+05 -2.291759E+05 -1.510193E+03 -4.628457E+05  3.769756E-11  2.449113E-11
       212  16 -7.920470E+05 -2.125965E+05  7.491349E+03 -4.500381E+05 -1.458645E-09 -4.592029E-10
       212  17 -9.436251E+05 -2.508336E+05 -1.823506E+04 -4.748212E+05  4.970776E-11 -8.005822E-12
       212  18 -1.070903E+06 -3.134296E+05 -4.431996E+04 -5.275182E+05  1.019933E-09  8.376922E-10
       212  19 -8.838165E+05 -2.457551E+05 -8.747224E+03 -4.756431E+05 -1.632847E+04 -1.051308E+04
       212  20 -7.565241E+05 -1.831615E+05  1.643331E+04 -4.229395E+05 -2.088685E+04  3.665573E+02
       212  21 -6.049233E+05 -1.449160E+05  4.129963E+04 -3.981502E+05 -2.543944E+04  1.122843E+04
       212  22 -8.379330E+05 -2.291760E+05 -6.282247E+02 -4.628411E+05  1.275185E+03 -3.919700E+03
       212  23 -8.500796E+05 -2.169980E+05 -9.010718E+02 -4.488823E+05 -3.309252E+03  6.950957E+03
       212  24 -8.379432E+05 -2.291755E+05 -1.509481E+03 -4.628458E+05 -7.887783E+03  1.780383E+04
       212  25 -7.920466E+05 -2.125964E+05  7.492033E+03 -4.500381E+05  1.888023E+04  2.674204E+03
       212  26 -9.436248E+05 -2.508333E+05 -1.823433E+04 -4.748211E+05  1.426543E+04  1.353427E+04
       212  27 -1.070903E+06 -3.134290E+05 -4.431866E+04 -5.275180E+05  9.656676E+03  2.437654E+04
       213   1 -5.129063E+05 -1.114773E+05  5.864328E+04 -3.726652E+05  2.816425E+04 -1.753103E+04
       213   2 -3.856722E+05 -4.894934E+04  8.261540E+04 -3.199766E+05  3.366093E+04 -2.791400E+04
       213   3 -2.343057E+05 -1.086136E+04  1.055191E+05 -2.951532E+05  3.907545E+04 -3.806419E+04
       213   4 -8.380015E+05 -2.291719E+05 -1.980677E+03 -4.628544E+05  1.058369E+04 -2.411865E+04
       213   5 -8.500593E+05 -2.170288E+05 -3.554056E+03 -4.488832E+05  1.644667E+04 -3.436826E+04
       213   6 -8.380802E+05 -2.294032E+05 -6.488191E+03 -4.627881E+05  2.222709E+04 -4.438507E+04
       213   7 -1.162988E+06 -3.468578E+05 -6.260829E+04 -5.530003E+05 -6.987186E+03 -3.070264E+04
       213   8 -1.314222E+06 -3.850891E+05 -8.973114E+04 -5.777006E+05 -7.539208E+02 -4.081740E+04
       213   9 -1.441472E+06 -4.479116E+05 -1.185083E+05 -6.302712E+05  5.396237E+03 -5.069940E+04
       213  10 -5.129072E+05 -1.114779E+05  5.864121E+04 -3.726648E+05  2.462262E-09 -1.630999E-10
       213  11 -3.856736E+05 -4.895048E+04  8.261180E+04 -3.199758E+05 -6.267341E-09 -2.640633E-09
       213  12 -2.343077E+05 -1.086332E+04  1.055136E+05 -2.951520E+05 -7.613948E-09 -1.448925E-09
       213  13 -8.380017E+05 -2.291726E+05 -1.981979E+03 -4.628542E+05 -1.901747E-09 -1.008977E-09
       213  14 -8.500600E+05 -2.170301E+05 -3.556782E+03 -4.488827E+05 -7.137177E-09 -2.624281E-09
       213  15 -8.380813E+05 -2.294055E+05 -6.492819E+03 -4.627873E+05 -1.742984E-09 -7.261825E-10
       213  16 -1.162989E+06 -3.468588E+05 -6.261015E+04 -5.530005E+05 -7.255869E-09 -1.686128E-09
       213  17 -1.314223E+06 -3.850909E+05 -8.973427E+04 -5.777006E+05 -6.857045E-09 -2.244845E-09
       213  18 -1.441473E+06 -4.479143E+05 -1.185132E+05 -6.302709E+05  2.201930E-09 -2.757449E-10
       213  19 -5.129063E+05 -1.114773E+05  5.864328E+04 -3.726652E+05 -2.816425E+04  1.753103E+04
       213  20 -3.856722E+05 -4.894934E+04  8.261540E+04 -3.199766E+05 -3.366093E+04  2.791400E+04
       213  21 -2.343057E+05 -1.086136E+04  1.055191E+05 -2.951532E+05 -3.907545E+04  3.806419E+04
       213  22 -8.380015E+05 -2.291719E+05 -1.980677E+03 -4.628544E+05 -1.058369E+04  2.411865E+04
       213  23 -8.500593E+05 -2.170288E+05 -3.554056E+03 -4.488832E+05 -1.644667E+04  3.436826E+04
       213  24 -8.380802E+05 -2.294032E+05 -6.488191E+03 -4.627881E+05 -2.222709E+04  4.438507E+04
       213  25 -1.162988E+06 -3.468578E+05 -6.260829E+04 -5.530003E+05  6.987186E+03  3.070264E+04
       213  26 -1.314222E+06 -3.850891E+05 -8.973114E+04 -5.777006E+05  7.539208E+02  4.081740E+04
       213  27 -1.441472E+06 -4.479116E+05 -1.185083E+05 -6.302712E+05 -5.396237E+03  5.069940E+04
       214   1 -1.422717E+05  2.231954E+04  1.212743E+05 -2.702626E+05  4.307523E+04 -4.378848E+04
       214   2 -1.614526E+04  8.528708E+04  1.412263E+05 -2.159162E+05  5.004578E+04 -5.190107E+04
       214   3  1.325739E+05  1.209146E+05  1.577751E+05 -1.884424E+05  5.595831E+04 -5.717477E+04
       214   4 -8.384963E+05 -2.292704E+05 -8.634462E+03 -4.629395E+05  2.580643E+04 -5.027009E+04
       214   5 -8.497740E+05 -2.179827E+05 -1.580424E+04 -4.484534E+05  3.729270E+04 -5.669514E+04
       214   6 -8.393759E+05 -2.349373E+05 -2.996233E+04 -4.608501E+05  4.771937E+04 -6.027950E+04
       214   7 -1.534207E+06 -4.808141E+05 -1.385591E+05 -6.554138E+05  8.558488E+03 -5.674394E+04
       214   8 -1.682676E+06 -5.211880E+05 -1.728621E+05 -6.807001E+05  2.455793E+04 -6.148230E+04
       214   9 -1.810352E+06 -5.907048E+05 -2.177430E+05 -7.328634E+05  3.949416E+04 -6.337900E+04
       214  10 -1.422742E+05  2.231698E+04  1.212672E+05 -2.702611E+05  3.915529E-10  1.342711E-09
       214  11 -1.614867E+04  8.528351E+04  1.412166E+05 -2.159141E+05  2.729483E-10 -6.864905E-10
       214  12  1.325697E+05  1.209102E+05  1.577631E+05 -1.884398E+05 -1.654893E-09 -6.839922E-10
       214  13 -8.384977E+05 -2.292733E+05 -8.640459E+03 -4.629385E+05 -6.298676E-11 -2.852767E-10
       214  14 -8.497764E+05 -2.179865E+05 -1.581289E+04 -4.484517E+05  1.179608E-09 -5.251890E-10
       214  15 -8.393793E+05 -2.349418E+05 -2.997343E+04 -4.608478E+05 -7.262622E-11 -1.438226E-10
       214  16 -1.534208E+06 -4.808176E+05 -1.385653E+05 -6.554135E+05 -3.579338E-10 -1.660132E-09
       214  17 -1.682678E+06 -5.211922E+05 -1.728703E+05 -6.806989E+05 -1.831725E-10 -1.113068E-09
       214  18 -1.810355E+06 -5.907095E+05 -2.177535E+05 -7.328613E+05  2.057489E-09  5.052384E-10
       214  19 -1.422717E+05  2.231954E+04  1.212743E+05 -2.702626E+05 -4.307523E+04  4.378848E+04
       214  20 -1.614526E+04  8.528708E+04  1.412263E+05 -2.159162E+05 -5.004578E+04  5.190107E+04
       214  21  1.325739E+05  1.209146E+05  1.577751E+05 -1.884424E+05 -5.595831E+04  5.717477E+04
       214  22 -8.384963E+05 -2.292704E+05 -8.634462E+03 -4.629395E+05 -2.580643E+04  5.027009E+04
       214  23 -8.497740E+05 -2.179827E+05 -1.580424E+04 -4.484534E+05 -3.729270E+04  5.669514E+04
       214  24 -8.393759E+05 -2.349373E+05 -2.996233E+04 -4.608501E+05 -4.771937E+04  6.027950E+04
       214  25 -1.534207E+06 -4.808141E+05 -1.385591E+05 -6.554138E+05 -8.558488E+03  5.674394E+04
       214  26 -1.682676E+06 -5.211880E+05 -1.728621E+05 -6.807001E+05 -2.455793E+04  6.148230E+04
       214  27 -1.810352E+06 -5.907048E+05 -2.177430E+05 -7.328634E+05 -3.949416E+04  6.337900E+04
       215   1  2.290399E+05  1.495286E+05  1.675534E+05 -1.745241E+05  6.792634E+04 -5.881796E+04
       215   2  3.282367E+05  2.247197E+05  1.800990E+05 -7.524134E+04  4.678781E+04 -5.618611E+04
       215   3  4.251457E+05  2.060491E+05  1.860066E+05  1.901878E+04  1.223923E+04 -1.794122E+04
       215   4 -8.444672E+05 -2.323293E+05 -3.957496E+04 -4.634201E+05  5.423729E+04 -6.397166E+04
       215   5 -8.466049E+05 -2.424627E+05 -7.487453E+04 -4.373697E+05  8.991285E+04 -3.999404E+04
       215   6 -8.623657E+05 -3.578252E+05 -1.618908E+05 -4.163418E+05  1.121649E+05  1.963451E+04
       215   7 -1.916779E+06 -6.140980E+05 -2.467527E+05 -7.518584E+05  4.057361E+04 -6.911637E+04
       215   8 -2.020020E+06 -7.094608E+05 -3.299187E+05 -7.988395E+05  1.329497E+05 -2.384141E+04
       215   9 -2.148205E+06 -9.214019E+05 -5.098882E+05 -8.508141E+05  2.118628E+05  5.709182E+04
       215  10  2.290340E+05  1.495236E+05  1.675382E+05 -1.745209E+05 -1.290672E-09  2.685495E-10
       215  11  3.282335E+05  2.247158E+05  1.800889E+05 -7.523922E+04 -7.065314E-10  9.825585E-10
       215  12  4.251455E+05  2.060487E+05  1.860057E+05  1.901895E+04  1.312325E-09 -2.835302E-10
       215  13 -8.444715E+05 -2.323345E+05 -3.958817E+04 -4.634173E+05  4.431241E-10 -4.161065E-10
       215  14 -8.466140E+05 -2.424666E+05 -7.489273E+04 -4.373669E+05  1.110679E-10 -8.719372E-10
       215  15 -8.623793E+05 -3.578290E+05 -1.619152E+05 -4.163436E+05  1.030403E-09 -6.071017E-11
       215  16 -1.916782E+06 -6.141035E+05 -2.467648E+05 -7.518561E+05 -8.477059E-11  9.210055E-10
       215  17 -2.020039E+06 -7.094662E+05 -3.299530E+05 -7.988370E+05 -8.761776E-10  1.877752E-10
       215  18 -2.148254E+06 -9.214175E+05 -5.099790E+05 -8.508239E+05 -3.320951E-09  5.521824E-10
       215  19  2.290399E+05  1.495286E+05  1.675534E+05 -1.745241E+05 -6.792634E+04  5.881796E+04
       215  20  3.282367E+05  2.247197E+05  1.800990E+05 -7.524134E+04 -4.678781E+04  5.618611E+04
       215  21  4.251457E+05  2.060491E+05  1.860066E+05  1.901878E+04 -1.223923E+04  1.794122E+04
       215  22 -8.444672E+05 -2.323293E+05 -3.957496E+04 -4.634201E+05 -5.423729E+04  6.397166E+04
       215  23 -8.466049E+05 -2.424627E+05 -7.487453E+04 -4.373697E+05 -8.991285E+04  3.999404E+04
       215  24 -8.623657E+05 -3.578252E+05 -1.618908E+05 -4.163418E+05 -1.121649E+05 -1.963451E+04
       215  25 -1.916779E+06 -6.140980E+05 -2.467527E+05 -7.518584E+05 -4.057361E+04  6.911637E+04
       215  26 -2.020020E+06 -7.094608E+05 -3.299187E+05 -7.988395E+05 -1.329497E+05  2.384141E+04
       215  27 -2.148205E+06 -9.214019E+05 -5.098882E+05 -8.508141E+05 -2.118628E+05 -5.709182E+04
       216   1 -4.715999E+05 -1.586200E+05 -1.261893E+05 -4.725152E+04  2.936410E+04  1.718909E+04
       216   2 -3.377608E+05 -2.355961E+05 -1.357902E+05 -8.588390E+04  3.770659E+04  5.632806E+04
       216   3 -1.839817E+05 -2.294034E+05 -1.300090E+05 -1.546988E+05  4.608385E+04  6.475040E+04
       216   4  8.110255E+05  1.579438E+05  1.753381E+05 -1.456719E+05  1.223286E+05  1.725624E+04
       216   5  7.966316E+05  3.537054E+04  8.526450E+04 -1.305416E+05  7.830572E+04  5.634155E+04
       216   6  8.111900E+05  4.957433E+03  4.688532E+04 -1.455832E+05  3.431833E+04  6.473736E+04
       216   7  2.095205E+06  4.744317E+05  4.767903E+05 -2.442970E+05  2.154840E+05  1.729388E+04
       216   8  1.932266E+06  3.062685E+05  3.062653E+05 -1.752829E+05  1.189773E+05  5.634920E+04
       216   9  1.807329E+06  2.392640E+05  2.237431E+05 -1.364526E+05  2.253445E+04  6.472398E+04
       216  10 -4.716009E+05 -1.586206E+05 -1.261915E+05 -4.725193E+04  9.446685E-10 -6.493490E-10
       216  11 -3.377632E+05 -2.355999E+05 -1.357988E+05 -8.588561E+04  5.654539E-11  1.146319E-09
       216  12 -1.839851E+05 -2.294084E+05 -1.300209E+05 -1.547012E+05 -2.908637E-09  5.271825E-10
       216  13  8.110093E+05  1.579395E+05  1.753094E+05 -1.456736E+05 -7.754505E-10  8.614303E-10
       216  14  7.966242E+05  3.536549E+04  8.524702E+04 -1.305452E+05 -9.122657E-10  6.614591E-10
       216  15  8.111876E+05  4.952614E+03  4.687522E+04 -1.455850E+05  6.335397E-10  1.135710E-10
       216  16  2.095155E+06  4.744190E+05  4.767027E+05 -2.443000E+05  3.818406E-10  7.439196E-10
       216  17  1.932250E+06  3.062613E+05  3.062328E+05 -1.752882E+05  2.053695E-09  6.298773E-10
       216  18  1.807327E+06  2.392594E+05  2.237343E+05 -1.364537E+05  3.828524E-09  1.405817E-09
       216  19 -4.715999E+05 -1.586200E+05 -1.261893E+05 -4.725152E+04 -2.936410E+04 -1.718909E+04
       216  20 -3.377608E+05 -2.355961E+05 -1.357902E+05 -8.588390E+04 -3.770659E+04 -5.632806E+04
       216  21 -1.839817E+05 -2.294034E+05 -1.300090E+05 -1.546988E+05 -4.608385E+04 -6.475040E+04
       216  22  8.110255E+05  1.579438E+05  1.753381E+05 -1.456719E+05 -1.223286E+05 -1.725624E+04
       216  23  7.966316E+05  3.537054E+04  8.526450E+04 -1.305416E+05 -7.830572E+04 -5.634155E+04
       216  24  8.111900E+05  4.957433E+03  4.688532E+04 -1.455832E+05 -3.431833E+04 -6.473736E+04
       216  25  2.095205E+06  4.744317E+05  4.767903E+05 -2.442970E+05 -2.154840E+05 -1.729388E+04
       216  26  1.932266E+06  3.062685E+05  3.062653E+05 -1.752829E+05 -1.189773E+05 -5.634920E+04
       216  27  1.807329E+06  2.392640E+05  2.237431E+05 -1.364526E+05 -2.253445E+04 -6.472398E+04
       217   1 -9.516039E+04 -2.046584E+05 -1.227175E+05 -1.433053E+05  3.668276E+04  6.009729E+04
       217   2  4.711187E+04 -1.762831E+05 -1.099607E+05 -1.292707E+05  3.165410E+04  5.371663E+04
       217   3  1.911887E+05 -1.437820E+05 -9.287170E+04 -1.472515E+05  2.662093E+04  4.455425E+04
       217   4  8.053639E+05  7.055217E+03  3.566530E+04 -1.460093E+05  2.821196E+04  6.008696E+04
       217   5  8.041007E+05  9.602212E+02  1.961020E+04 -1.300027E+05  1.843010E+04  5.370848E+04
       217   6  8.054420E+05 -1.874449E+02  1.117876E+04 -1.460086E+05  8.644873E+03  4.455000E+04
       217   7  1.706681E+06  2.187246E+05  1.940189E+05 -1.487172E+05  1.972922E+04  6.007671E+04
       217   8  1.561653E+06  1.781731E+05  1.491626E+05 -1.307355E+05  5.190473E+03  5.370038E+04
       217   9  1.420067E+06  1.433874E+05  1.152182E+05 -1.447644E+05 -9.348389E+03  4.454568E+04
       217  10 -9.516280E+04 -2.046626E+05 -1.227269E+05 -1.433071E+05  9.198654E-10 -1.969596E-10
       217  11  4.711002E+04 -1.762865E+05 -1.099680E+05 -1.292721E+05 -2.271358E-09 -1.434956E-09
       217  12  1.911874E+05 -1.437843E+05 -9.287677E+04 -1.472525E+05 -3.024069E-09 -1.405226E-09
       217  13  8.053621E+05  7.051124E+03  3.565702E+04 -1.460106E+05  3.224198E-10  8.164072E-10
       217  14  8.040995E+05  9.570312E+02  1.960414E+04 -1.300035E+05  9.273305E-10 -5.723799E-10
       217  15  8.054413E+05 -1.895971E+02  1.117489E+04 -1.460089E+05 -1.967154E-09 -8.198738E-10
       217  16  1.706680E+06  2.187207E+05  1.940114E+05 -1.487182E+05 -1.198979E-09  7.116740E-10
       217  17  1.561652E+06  1.781700E+05  1.491572E+05 -1.307358E+05  2.687280E-09  1.785079E-11
       217  18  1.420066E+06  1.433852E+05  1.152143E+05 -1.447641E+05  2.906270E-09  9.810900E-11
       217  19 -9.516039E+04 -2.046584E+05 -1.227175E+05 -1.433053E+05 -3.668276E+04 -6.009729E+04
       217  20  4.711187E+04 -1.762831E+05 -1.099607E+05 -1.292707E+05 -3.165410E+04 -5.371663E+04
       217  21  1.911887E+05 -1.437820E+05 -9.287170E+04 -1.472515E+05 -2.662093E+04 -4.455425E+04
       217  22  8.053639E+05  7.055217E+03  3.566530E+04 -1.460093E+05 -2.821196E+04 -6.008696E+04
       217  23  8.041007E+05  9.602212E+02  1.961020E+04 -1.300027E+05 -1.843010E+04 -5.370848E+04
       217  24  8.054420E+05 -1.874449E+02  1.117876E+04 -1.460086E+05 -8.644873E+03 -4.455000E+04
       217  25  1.706681E+06  2.187246E+05  1.940189E+05 -1.487172E+05 -1.972922E+04 -6.007671E+04
       217  26  1.561653E+06  1.781731E+05  1.491626E+05 -1.307355E+05 -5.190473E+03 -5.370038E+04
       217  27  1.420067E+06  1.433874E+05  1.152182E+05 -1.447644E+05  9.348389E+03 -4.454568E+04
       218   1  2.838207E+05 -1.216942E+05 -7.916909E+04 -1.465027E+05  2.460018E+04  3.835884E+04
       218   2  4.266140E+05 -8.846628E+04 -5.873716E+04 -1.303114E+05  2.264211E+04  2.786498E+04
       218   3  5.697563E+05 -5.505855E+04 -3.697791E+04 -1.462627E+05  2.068082E+04  1.712174E+04
       218   4  8.049735E+05  4.648752E+00  8.483491E+03 -1.460377E+05  6.928332E+03  3.835668E+04
       218   5  8.047899E+05 -1.703787E+02  4.825429E+03 -1.299671E+05  4.541472E+03  2.786522E+04
       218   6  8.050106E+05 -9.028462E+01  2.790764E+03 -1.460379E+05  2.151821E+03  1.712447E+04
       218   7  1.326394E+06  1.216894E+05  9.612868E+04 -1.455722E+05 -1.075786E+04  3.835449E+04
       218   8  1.183107E+06  8.811821E+04  6.838474E+04 -1.296225E+05 -1.356983E+04  2.786544E+04
       218   9  1.040320E+06  5.487525E+04  4.255895E+04 -1.458130E+05 -1.638397E+04  1.712720E+04
       218  10  2.838196E+05 -1.216959E+05 -7.917300E+04 -1.465035E+05 -1.012433E-09 -7.293143E-10
       218  11  4.266133E+05 -8.846725E+04 -5.873958E+04 -1.303120E+05 -1.800422E-09 -3.858964E-11
       218  12  5.697557E+05 -5.505898E+04 -3.697926E+04 -1.462630E+05  3.192982E-11 -1.184091E-10
       218  13  8.049730E+05  3.055354E+00  8.480635E+03 -1.460379E+05 -2.470317E-09 -2.272055E-10
       218  14  8.047896E+05 -1.712184E+02  4.823930E+03 -1.299672E+05 -5.565755E-10 -5.797368E-11
       218  15  8.050105E+05 -9.060089E+01  2.790204E+03 -1.460379E+05 -1.175418E-09  5.019929E-11
       218  16  1.326394E+06  1.216878E+05  9.612569E+04 -1.455719E+05 -3.460565E-10  1.990997E-10
       218  17  1.183107E+06  8.811732E+04  6.838294E+04 -1.296222E+05  8.791169E-10  7.426150E-11
       218  18  1.040320E+06  5.487486E+04  4.255789E+04 -1.458128E+05 -1.719696E-10 -8.447624E-11
       218  19  2.838207E+05 -1.216942E+05 -7.916909E+04 -1.465027E+05 -2.460018E+04 -3.835884E+04
       218  20  4.266140E+05 -8.846628E+04 -5.873716E+04 -1.303114E+05 -2.264211E+04 -2.786498E+04
       218  21  5.697563E+05 -5.505855E+04 -3.697791E+04 -1.462627E+05 -2.068082E+04 -1.712174E+04
       218  22  8.049735E+05  4.648752E+00  8.483491E+03 -1.460377E+05 -6.928332E+03 -3.835668E+04
       218  23  8.047899E+05 -1.703787E+02  4.825429E+03 -1.299671E+05 -4.541472E+03 -2.786522E+04
       218  24  8.050106E+05 -9.028462E+01  2.790764E+03 -1.460379E+05 -2.151821E+03 -1.712447E+04
       218  25  1.326394E+06  1.216894E+05  9.612868E+04 -1.455722E+05  1.075786E+04 -3.835449E+04
       218  26  1.183107E+06  8.811821E+04  6.838474E+04 -1.296225E+05  1.356983E+04 -2.786544E+04
       218  27  1.040320E+06  5.487525E+04  4.255895E+04 -1.458130E+05  1.638397E+04 -1.712720E+04
       219   1  6.626093E+05 -3.321846E+04 -2.144739E+04 -1.462020E+05  2.020673E+04  1.079278E+04
       219   2  8.054838E+05  8.924009E+01  1.329885E+03 -1.300777E+05  1.962394E+04 -6.544077E+01
       219   3  9.484655E+05  3.339961E+04  2.448871E+04 -1.460967E+05  1.904102E+04 -1.094404E+04
       219   4  8.049477E+05 -5.904204E+01  2.129212E+03 -1.460383E+05  1.705778E+03  1.079623E+04
       219   5  8.049024E+05 -4.228897E+01  1.252619E+03 -1.299667E+05  1.085921E+03 -6.199268E+01
       219   6  8.049480E+05 -1.635834E+01  7.816509E+02 -1.460384E+05  4.660643E+02 -1.094058E+04
       219   7  9.473069E+05  3.309951E+04  2.570649E+04 -1.458746E+05 -1.679927E+04  1.079968E+04
       219   8  8.043218E+05 -1.736338E+02  1.176643E+03 -1.298557E+05 -1.745208E+04 -5.855121E+01
       219   9  6.614516E+05 -3.343321E+04 -2.292473E+04 -1.459800E+05 -1.810475E+04 -1.093712E+04
       219  10  6.626089E+05 -3.321869E+04 -2.144837E+04 -1.462022E+05 -9.733592E-10  3.621220E-11
       219  11  8.054833E+05  8.913687E+01  1.329162E+03 -1.300777E+05 -1.213378E-09  9.552377E-10
       219  12  9.484650E+05  3.339939E+04  2.448781E+04 -1.460965E+05 -1.870896E-09  1.487857E-09
       219  13  8.049477E+05 -5.916804E+01  2.128987E+03 -1.460383E+05 -2.120967E-09 -3.422459E-11
       219  14  8.049024E+05 -4.228930E+01  1.252617E+03 -1.299667E+05 -1.767461E-09  4.885812E-10
       219  15  8.049479E+05 -1.648698E+01  7.814255E+02 -1.460384E+05 -1.134682E-09  8.972684E-10
       219  16  9.473066E+05  3.309931E+04  2.570574E+04 -1.458744E+05  5.362337E-10 -1.603154E-10
       219  17  8.043215E+05 -1.737154E+02  1.176072E+03 -1.298557E+05  1.499143E-09  1.651577E-10
       219  18  6.614512E+05 -3.343342E+04 -2.292557E+04 -1.459802E+05  1.238083E-09  5.107350E-10
       219  19  6.626093E+05 -3.321846E+04 -2.144739E+04 -1.462020E+05 -2.020673E+04 -1.079278E+04
       219  20  8.054838E+05  8.924009E+01  1.329885E+03 -1.300777E+05 -1.962394E+04  6.544077E+01
       219  21  9.484655E+05  3.339961E+04  2.448871E+04 -1.460967E+05 -1.904102E+04  1.094404E+04
       219  22  8.049477E+05 -5.904204E+01  2.129212E+03 -1.460383E+05 -1.705778E+03 -1.079623E+04
       219  23  8.049024E+05 -4.228897E+01  1.252619E+03 -1.299667E+05 -1.085921E+03  6.199268E+01
       219  24  8.049480E+05 -1.635834E+01  7.816509E+02 -1.460384E+05 -4.660643E+02  1.094058E+04
       219  25  9.473069E+05  3.309951E+04  2.570649E+04 -1.458746E+05  1.679927E+04 -1.079968E+04
       219  26  8.043218E+05 -1.736338E+02  1.176643E+03 -1.298557E+05  1.745208E+04  5.855121E+01
       219  27  6.614516E+05 -3.343321E+04 -2.292473E+04 -1.459800E+05  1.810475E+04  1.093712E+04
       220   1  1.041390E+06  5.519536E+04  4.052541E+04 -1.460968E+05  1.891490E+04 -1.728295E+04
       220   2  1.184383E+06  8.845883E+04  6.402755E+04 -1.299696E+05  1.862955E+04 -2.815963E+04
       220   3  1.327465E+06  1.217250E+05  8.772234E+04 -1.460009E+05  1.834709E+04 -3.901282E+04
       220   4  8.049346E+05 -2.182919E+01  6.432543E+02 -1.460420E+05  3.351544E+02 -1.728022E+04
       220   5  8.048860E+05 -5.908781E+01  4.990479E+02 -1.299622E+05  8.797407E+01 -2.815940E+04
       220   6  8.048986E+05 -9.956309E+01  5.202459E+02 -1.460420E+05 -1.562597E+02 -3.901506E+04
       220   7  5.685354E+05 -5.524177E+04 -3.923939E+04 -1.459872E+05 -1.823775E+04 -1.727750E+04
       220   8  4.255315E+05 -8.858434E+04 -6.303264E+04 -1.299547E+05 -1.844266E+04 -2.815917E+04
       220   9  2.826022E+05 -1.219382E+05 -8.668897E+04 -1.460831E+05 -1.864458E+04 -3.901729E+04
       220  10  1.041389E+06  5.519495E+04  4.052418E+04 -1.460966E+05  4.728371E-10  1.139678E-09
       220  11  1.184382E+06  8.845789E+04  6.402541E+04 -1.299692E+05  6.460039E-10  1.648200E-11
       220  12  1.327464E+06  1.217233E+05  8.771885E+04 -1.460003E+05 -5.316505E-10 -3.961379E-10
       220  13  8.049345E+05 -2.214999E+01  6.426928E+02 -1.460420E+05  6.067228E-10  6.580291E-10
       220  14  8.048858E+05 -5.993962E+01  4.975572E+02 -1.299622E+05  1.640923E-09 -8.043333E-11
       220  15  8.048982E+05 -1.011983E+02  5.173843E+02 -1.460420E+05 -1.115297E-09 -3.098988E-10
       220  16  5.685350E+05 -5.524218E+04 -3.924058E+04 -1.459875E+05 -1.194001E-09  4.188233E-10
       220  17  4.255310E+05 -8.858528E+04 -6.303477E+04 -1.299552E+05  7.071245E-10 -8.594275E-11
       220  18  2.826014E+05 -1.219399E+05 -8.669248E+04 -1.460837E+05  5.618970E-10 -2.347985E-10
       220  19  1.041390E+06  5.519536E+04  4.052541E+04 -1.460968E+05 -1.891490E+04  1.728295E+04
       220  20  1.184383E+06  8.845883E+04  6.402755E+04 -1.299696E+05 -1.862955E+04  2.815963E+04
       220  21  1.327465E+06  1.217250E+05  8.772234E+04 -1.460009E+05 -1.834709E+04  3.901282E+04
       220  22  8.049346E+05 -2.182919E+01  6.432543E+02 -1.460420E+05 -3.351544E+02  1.728022E+04
       220  23  8.048860E+05 -5.908781E+01  4.990479E+02 -1.299622E+05 -8.797407E+01  2.815940E+04
       220  24  8.048986E+05 -9.956309E+01  5.202459E+02 -1.460420E+05  1.562597E+02  3.901506E+04
       220  25  5.685354E+05 -5.524177E+04 -3.923939E+04 -1.459872E+05  1.823775E+04  1.727750E+04
       220  26  4.255315E+05 -8.858434E+04 -6.303264E+04 -1.299547E+05  1.844266E+04  2.815917E+04
       220  27  2.826022E+05 -1.219382E+05 -8.668897E+04 -1.460831E+05  1.864458E+04  3.901729E+04
       221   1  1.420548E+06  1.435234E+05  1.040039E+05 -1.459691E+05  1.829187E+04 -4.534145E+04
       221   2  1.563707E+06  1.768193E+05  1.281495E+05 -1.297423E+05  1.732830E+04 -5.604669E+04
       221   3  1.707136E+06  2.102381E+05  1.529755E+05 -1.457047E+05  1.637018E+04 -6.643413E+04
       221   4  8.048998E+05 -1.299025E+02  5.906150E+02 -1.460491E+05 -2.558815E+02 -4.534588E+04
       221   5  8.047844E+05 -2.143116E+02  8.591609E+02 -1.299533E+05 -6.781455E+02 -5.605596E+04
       221   6  8.048277E+05 -2.681920E+02  1.433030E+03 -1.460490E+05 -1.094760E+03 -6.644802E+04
       221   7  1.896254E+05 -1.438029E+05 -1.028333E+05 -1.461290E+05 -1.878587E+04 -4.535031E+04
       221   8  4.642931E+04 -1.772778E+05 -1.264480E+05 -1.301641E+05 -1.866334E+04 -5.606523E+04
       221   9 -9.667976E+04 -2.108169E+05 -1.501339E+05 -1.463929E+05 -1.853520E+04 -6.646190E+04
       221  10  1.420547E+06  1.435211E+05  1.039994E+05 -1.459684E+05 -1.513295E-09  1.759940E-10
       221  11  1.563706E+06  1.768158E+05  1.281430E+05 -1.297415E+05 -2.160257E-09  2.742706E-10
       221  12  1.707135E+06  2.102333E+05  1.529667E+05 -1.457038E+05 -9.086745E-10  4.835055E-10
       221  13  8.048993E+05 -1.321114E+02  5.867493E+02 -1.460491E+05 -1.060474E-09 -5.205621E-11
       221  14  8.047835E+05 -2.176873E+02  8.532528E+02 -1.299534E+05  1.254447E-09  3.482626E-10
       221  15  8.048265E+05 -2.729354E+02  1.424727E+03 -1.460491E+05  9.308382E-10  6.425838E-10
       221  16  1.896245E+05 -1.438052E+05 -1.028378E+05 -1.461296E+05 -4.531622E-10 -3.670108E-10
       221  17  4.642809E+04 -1.772813E+05 -1.264546E+05 -1.301649E+05  2.374802E-09  1.045130E-10
       221  18 -9.668132E+04 -2.108217E+05 -1.501429E+05 -1.463938E+05  2.000366E-09  1.427097E-09
       221  19  1.420548E+06  1.435234E+05  1.040039E+05 -1.459691E+05 -1.829187E+04  4.534145E+04
       221  20  1.563707E+06  1.768193E+05  1.281495E+05 -1.297423E+05 -1.732830E+04  5.604669E+04
       221  21  1.707136E+06  2.102381E+05  1.529755E+05 -1.457047E+05 -1.637018E+04  6.643413E+04
       221  22  8.048998E+05 -1.299025E+02  5.906150E+02 -1.460491E+05  2.558815E+02  4.534588E+04
       221  23  8.047844E+05 -2.143116E+02  8.591609E+02 -1.299533E+05  6.781455E+02  5.605596E+04
       221  24  8.048277E+05 -2.681920E+02  1.433030E+03 -1.460490E+05  1.094760E+03  6.644802E+04
       221  25  1.896254E+05 -1.438029E+05 -1.028333E+05 -1.461290E+05  1.878587E+04  4.535031E+04
       221  26  4.642931E+04 -1.772778E+05 -1.264480E+05 -1.301641E+05  1.866334E+04  5.606523E+04
       221  27 -9.667976E+04 -2.108169E+05 -1.501339E+05 -1.463929E+05  1.853520E+04  6.646190E+04
       222   1  1.800678E+06  2.321188E+05  1.698983E+05 -1.454494E+05  1.648715E+04 -7.259240E+04
       222   2  1.943553E+06  2.660131E+05  1.973547E+05 -1.295228E+05  8.777225E+03 -8.126662E+04
       222   3  2.088121E+06  3.017651E+05  2.303359E+05 -1.456233E+05  1.069083E+03 -8.636263E+04
       222   4  8.048945E+05 -3.415046E+02  1.868877E+03 -1.460131E+05 -1.378562E+03 -7.260997E+04
       222   5  8.045335E+05 -2.530340E+02  3.217253E+03 -1.299981E+05 -2.973604E+03 -8.128722E+04
       222   6  8.047858E+05  6.356068E+02  5.853833E+03 -1.460137E+05 -4.565053E+03 -8.638294E+04
       222   7 -1.899143E+05 -2.328538E+05 -1.661911E+05 -1.465760E+05 -1.921661E+04 -7.262752E+04
       222   8 -3.332133E+05 -2.665878E+05 -1.909626E+05 -1.304725E+05 -1.470361E+04 -8.130782E+04
       222   9 -4.769412E+05 -3.005832E+05 -2.186870E+05 -1.464033E+05 -1.018792E+04 -8.640327E+04
       222  10  1.800677E+06  2.321131E+05  1.698879E+05 -1.454484E+05 -1.815748E-09  3.347246E-10
       222  11  1.943551E+06  2.660059E+05  1.973422E+05 -1.295222E+05 -2.037927E-09  3.153589E-10
       222  12  2.088119E+06  3.017571E+05  2.303218E+05 -1.456233E+05 -3.440516E-09 -1.226592E-09
       222  13  8.048931E+05 -3.471687E+02  1.858962E+03 -1.460132E+05  1.093671E-09  8.021958E-10
       222  14  8.045317E+05 -2.601345E+02  3.204814E+03 -1.299983E+05  1.493961E-09  2.361970E-10
       222  15  8.047838E+05  6.275852E+02  5.839766E+03 -1.460140E+05 -2.114297E-10 -6.292439E-10
       222  16 -1.899161E+05 -2.328595E+05 -1.662017E+05 -1.465771E+05  4.063809E-09  1.402439E-09
       222  17 -3.332153E+05 -2.665950E+05 -1.909754E+05 -1.304735E+05  3.169001E-09  2.087644E-09
       222  18 -4.769433E+05 -3.005913E+05 -2.187013E+05 -1.464040E+05  3.140427E-09  2.694679E-10
       222  19  1.800678E+06  2.321188E+05  1.698983E+05 -1.454494E+05 -1.648715E+04  7.259240E+04
       222  20  1.943553E+06  2.660131E+05  1.973547E+05 -1.295228E+05 -8.777225E+03  8.126662E+04
       222  21  2.088121E+06  3.017651E+05  2.303359E+05 -1.456233E+05 -1.069083E+03  8.636263E+04
       222  22  8.048945E+05 -3.415046E+02  1.868877E+03 -1.460131E+05  1.378562E+03  7.260997E+04
       222  23  8.045335E+05 -2.530340E+02  3.217253E+03 -1.299981E+05  2.973604E+03  8.128722E+04
       222  24  8.047858E+05  6.356068E+02  5.853833E+03 -1.460137E+05  4.565053E+03  8.638294E+04
       222  25 -1.899143E+05 -2.328538E+05 -1.661911E+05 -1.465760E+05  1.921661E+04  7.262752E+04
       222  26 -3.332133E+05 -2.665878E+05 -1.909626E+05 -1.304725E+05  1.470361E+04  8.130782E+04
       222  27 -4.769412E+05 -3.005832E+05 -2.186870E+05 -1.464033E+05  1.018792E+04  8.640327E+04
       223   1  2.184679E+06  3.242819E+05  2.513931E+05 -1.429255E+05  4.341376E+03 -9.053174E+04
       223   2  2.320827E+06  3.668890E+05  3.077526E+05 -1.367024E+05 -7.041700E+04 -7.664313E+04
       223   3  2.473772E+06  4.364576E+05  4.194789E+05 -1.600708E+05 -1.452737E+05 -2.322639E+04
       223   4  8.057348E+05  2.311579E+02  7.697095E+03 -1.454660E+05 -5.565034E+03 -9.055875E+04
       223   5  8.031130E+05  5.159826E+03  1.394495E+04 -1.306861E+05 -1.273708E+04 -7.658844E+04
       223   6  8.055865E+05  2.537284E+04  2.874051E+04 -1.454953E+05 -1.998604E+04 -2.304788E+04
       223   7 -5.713561E+05 -3.239236E+05 -2.360687E+05 -1.480010E+05 -1.545013E+04 -9.058572E+04
       223   8 -7.123876E+05 -3.567044E+05 -2.799582E+05 -1.246852E+05  4.480544E+04 -7.653258E+04
       223   9 -8.600098E+05 -3.859000E+05 -3.621287E+05 -1.309597E+05  1.049682E+05 -2.286330E+04
       223  10  2.184677E+06  3.242730E+05  2.513776E+05 -1.429252E+05 -5.819561E-08 -3.268368E-09
       223  11  2.320820E+06  3.668813E+05  3.077322E+05 -1.367068E+05 -4.888647E-09 -5.942735E-09
       223  12  2.473749E+06  4.364513E+05  4.194384E+05 -1.600735E+05  4.895210E-08 -2.037862E-09
       223  13  8.057326E+05  2.223398E+02  7.681620E+03 -1.454664E+05 -1.983720E-09 -5.863054E-09
       223  14  8.031112E+05  5.153481E+03  1.393362E+04 -1.306869E+05  2.247252E-09  8.090868E-10
       223  15  8.055859E+05  2.537216E+04  2.873877E+04 -1.454956E+05 -2.163923E-09 -7.049794E-10
       223  16 -5.713585E+05 -3.239325E+05 -2.360846E+05 -1.480021E+05  5.809659E-08 -1.417823E-09
       223  17 -7.123914E+05 -3.567113E+05 -2.799729E+05 -1.246824E+05  4.593725E-09  4.037206E-10
       223  18 -8.600218E+05 -3.859035E+05 -3.621505E+05 -1.309577E+05 -4.825897E-08 -2.337032E-09
       223  19  2.184679E+06  3.242819E+05  2.513931E+05 -1.429255E+05 -4.341376E+03  9.053174E+04
       223  20  2.320827E+06  3.668890E+05  3.077526E+05 -1.367024E+05  7.041700E+04  7.664313E+04
       223  21  2.473772E+06  4.364576E+05  4.194789E+05 -1.600708E+05  1.452737E+05  2.322639E+04
       223  22  8.057348E+05  2.311579E+02  7.697095E+03 -1.454660E+05  5.565034E+03  9.055875E+04
       223  23  8.031130E+05  5.159826E+03  1.394495E+04 -1.306861E+05  1.273708E+04  7.658844E+04
       223  24  8.055865E+05  2.537284E+04  2.874051E+04 -1.454953E+05  1.998604E+04  2.304788E+04
       223  25 -5.713561E+05 -3.239236E+05 -2.360687E+05 -1.480010E+05  1.545013E+04  9.058572E+04
       223  26 -7.123876E+05 -3.567044E+05 -2.799582E+05 -1.246852E+05 -4.480544E+04  7.653258E+04
       223  27 -8.600098E+05 -3.859000E+05 -3.621287E+05 -1.309597E+05 -1.049682E+05  2.286330E+04
       224   1  5.335852E+05  2.161534E+06  5.158214E+05 -5.546338E+05  2.181646E+04  1.380651E+05
       224   2  3.685327E+05  1.628150E+06  3.199974E+05 -4.870280E+05  6.536904E+04  4.277497E+04
       224   3  2.364283E+05  1.115482E+06  1.942782E+05 -5.332331E+05  5.845550E+04 -5.248881E+04
       224   4  3.110505E+04  1.295733E+05  3.301511E+04 -5.328468E+05  2.206772E+04  2.087758E+04
       224   5  8.125565E+03  1.270471E+05  1.773641E+04 -4.759668E+05  6.545300E+04  1.186379E+04
       224   6  3.205718E+03  1.300835E+05  1.280677E+04 -5.329053E+05  5.831944E+04  2.794516E+03
       224   7 -4.716632E+05 -1.898576E+06 -4.500279E+05 -5.111278E+05  2.231132E+04 -9.592938E+04
       224   8 -3.524198E+05 -1.371909E+06 -2.846364E+05 -4.649309E+05  6.553600E+04 -1.897428E+04
       224   9 -2.300705E+05 -8.543678E+05 -1.686934E+05 -5.325770E+05  5.818330E+04  5.799252E+04
       224  10  5.335795E+05  2.161513E+06  5.157848E+05 -5.546362E+05 -3.154025E-10  1.135117E-10
       224  11  3.685276E+05  1.628146E+06  3.199859E+05 -4.870303E+05  8.079384E-10  1.429539E-09
       224  12  2.364239E+05  1.115478E+06  1.942666E+05 -5.332306E+05 -5.446478E-10  1.568002E-09
       224  13  3.110441E+04  1.295727E+05  3.301338E+04 -5.328472E+05  1.816193E-09  3.407806E-12
       224  14  8.120926E+03  1.270458E+05  1.772809E+04 -4.759675E+05  6.100028E-10 -1.506343E-09
       224  15  3.202064E+03  1.300826E+05  1.280037E+04 -5.329054E+05  7.486006E-10 -2.353464E-10
       224  16 -4.716662E+05 -1.898586E+06 -4.500462E+05 -5.111261E+05  4.898742E-10 -8.417069E-11
       224  17 -3.524245E+05 -1.371911E+06 -2.846452E+05 -4.649299E+05  2.407329E-09 -3.809900E-09
       224  18 -2.300751E+05 -8.543723E+05 -1.687061E+05 -5.325797E+05  7.024463E-10 -1.301313E-09
       224  19  5.335852E+05  2.161534E+06  5.158214E+05 -5.546338E+05 -2.181646E+04 -1.380651E+05
       224  20  3.685327E+05  1.628150E+06  3.199974E+05 -4.870280E+05 -6.536904E+04 -4.277497E+04
       224  21  2.364283E+05  1.115482E+06  1.942782E+05 -5.332331E+05 -5.845550E+04  5.248881E+04
       224  22  3.110505E+04  1.295733E+05  3.301511E+04 -5.328468E+05 -2.206772E+04 -2.087758E+04
       224  23  8.125565E+03  1.270471E+05  1.773641E+04 -4.759668E+05 -6.545300E+04 -1.186379E+04
       224  24  3.205718E+03  1.300835E+05  1.280677E+04 -5.329053E+05 -5.831944E+04 -2.794516E+03
       224  25 -4.716632E+05 -1.898576E+06 -4.500279E+05 -5.111278E+05 -2.231132E+04  9.592938E+04
       224  26 -3.524198E+05 -1.371909E+06 -2.846364E+05 -4.649309E+05 -6.553600E+04  1.897428E+04
       224  27 -2.300705E+05 -8.543678E+05 -1.686934E+05 -5.325770E+05 -5.818330E+04 -5.799252E+04
       225   1  1.558215E+05  7.721239E+05  1.304241E+05 -5.358962E+05  3.833312E+04 -4.948524E+04
       225   2  3.115344E+04  2.489795E+05  3.428063E+04 -4.750727E+05  8.640223E+03 -5.718062E+04
       225   3 -8.944348E+04 -2.723550E+05 -5.598643E+04 -5.311083E+05 -2.155616E+04 -6.487358E+04
       225   4  3.657812E+03  1.292634E+05  1.216841E+04 -5.335753E+05  3.820112E+04  7.519625E+02
       225   5  2.946289E+03  1.285866E+05  1.360027E+04 -4.751427E+05  8.504120E+03 -6.102757E+03
       225   6  6.171924E+03  1.293047E+05  2.032178E+04 -5.335690E+05 -2.169691E+04 -1.296113E+04
       225   7 -1.485280E+05 -5.131911E+05 -1.060949E+05 -5.312565E+05  3.806940E+04  5.093857E+04
       225   8 -2.526024E+04  8.213611E+03 -7.070770E+03 -4.752128E+05  8.367988E+03  4.496552E+04
       225   9  1.017793E+05  5.311257E+05  9.663290E+04 -5.360312E+05 -2.183800E+04  3.898411E+04
       225  10  1.558193E+05  7.721209E+05  1.304168E+05 -5.358947E+05 -4.488493E-10  1.560242E-09
       225  11  3.115249E+04  2.489759E+05  3.427435E+04 -4.750723E+05  9.251486E-10  6.987535E-10
       225  12 -8.944511E+04 -2.723596E+05 -5.599522E+04 -5.311094E+05 -2.089746E-11 -1.455103E-09
       225  13  3.656245E+03  1.292630E+05  1.216566E+04 -5.335753E+05 -3.937710E-10 -3.217098E-11
       225  14  2.946202E+03  1.285866E+05  1.360007E+04 -4.751427E+05 -4.222606E-10 -2.035790E-09
       225  15  6.171373E+03  1.293043E+05  2.032058E+04 -5.335692E+05 -5.333899E-10 -2.809193E-10
       225  16 -1.485303E+05 -5.131942E+05 -1.061025E+05 -5.312580E+05  4.628923E-10 -1.450792E-09
       225  17 -2.526086E+04  8.211421E+03 -7.074703E+03 -4.752131E+05 -2.378324E-09 -3.631018E-09
       225  18  1.017784E+05  5.311239E+05  9.662916E+04 -5.360305E+05  1.067421E-09  1.636568E-09
       225  19  1.558215E+05  7.721239E+05  1.304241E+05 -5.358962E+05 -3.833312E+04  4.948524E+04
       225  20  3.115344E+04  2.489795E+05  3.428063E+04 -4.750727E+05 -8.640223E+03  5.718062E+04
       225  21 -8.944348E+04 -2.723550E+05 -5.598643E+04 -5.311083E+05  2.155616E+04  6.487358E+04
       225  22  3.657812E+03  1.292634E+05  1.216841E+04 -5.335753E+05 -3.820112E+04 -7.519625E+02
       225  23  2.946289E+03  1.285866E+05  1.360027E+04 -4.751427E+05 -8.504120E+03  6.102757E+03
       225  24  6.171924E+03  1.293047E+05  2.032178E+04 -5.335690E+05  2.169691E+04  1.296113E+04
       225  25 -1.485280E+05 -5.131911E+05 -1.060949E+05 -5.312565E+05 -3.806940E+04 -5.093857E+04
       225  26 -2.526024E+04  8.213611E+03 -7.070770E+03 -4.752128E+05 -8.367988E+03 -4.496552E+04
       225  27  1.017793E+05  5.311257E+05  9.663290E+04 -5.360312E+05  2.183800E+04 -3.898411E+04
       226   1 -1.715186E+05 -6.112807E+05 -1.135774E+05 -5.360744E+05 -4.194499E+04 -7.273369E+04
       226   2 -2.832542E+05 -1.134205E+06 -2.118931E+05 -4.504037E+05 -5.268937E+04 -1.917585E+04
       226   3 -3.601260E+05 -1.655339E+06 -3.364709E+05 -4.789557E+05 -1.849572E+04  3.439377E+04
       226   4  5.034655E+03  1.322052E+05  2.558615E+04 -5.329941E+05 -4.209183E+04 -1.647046E+04
       226   5  2.007570E+04  1.245987E+05  4.451586E+04 -4.758170E+05 -5.263161E+04 -3.940551E+04
       226   6  8.323236E+04  1.317731E+05  9.031192E+04 -5.328250E+05 -1.828000E+04 -6.228368E+04
       226   7  1.815577E+05  8.762329E+05  1.647378E+05 -5.299095E+05 -4.223799E+04  3.985850E+04
       226   8  3.233090E+05  1.384913E+06  3.008435E+05 -5.012815E+05 -5.257226E+04 -5.967542E+04
       226   9  5.263749E+05  1.921844E+06  5.169065E+05 -5.868475E+05 -1.804789E+04 -1.592385E+05
       226  10 -1.715219E+05 -6.112869E+05 -1.135907E+05 -5.360769E+05  6.928260E-10  2.919509E-09
       226  11 -2.832573E+05 -1.134206E+06 -2.118990E+05 -4.504045E+05  1.152714E-09  1.301904E-09
       226  12 -3.601267E+05 -1.655341E+06 -3.364737E+05 -4.789552E+05  8.609729E-10 -1.344024E-09
       226  13  5.032679E+03  1.322044E+05  2.558230E+04 -5.329947E+05  7.077313E-10  1.105091E-11
       226  14  2.007230E+04  1.245963E+05  4.450773E+04 -4.758187E+05  4.680116E-10 -1.838827E-09
       226  15  8.323096E+04  1.317688E+05  9.030400E+04 -5.328259E+05  1.192738E-09 -2.036450E-10
       226  16  1.815553E+05  8.762307E+05  1.647315E+05 -5.299081E+05 -1.091029E-10 -2.773854E-09
       226  17  3.233051E+05  1.384909E+06  3.008316E+05 -5.012840E+05 -3.725605E-10 -3.575145E-09
       226  18  5.263678E+05  1.921817E+06  5.168583E+05 -5.868499E+05  5.365603E-10  1.676896E-09
       226  19 -1.715186E+05 -6.112807E+05 -1.135774E+05 -5.360744E+05  4.194499E+04  7.273369E+04
       226  20 -2.832542E+05 -1.134205E+06 -2.118931E+05 -4.504037E+05  5.268937E+04  1.917585E+04
       226  21 -3.601260E+05 -1.655339E+06 -3.364709E+05 -4.789557E+05  1.849572E+04 -3.439377E+04
       226  22  5.034655E+03  1.322052E+05  2.558615E+04 -5.329941E+05  4.209183E+04  1.647046E+04
       226  23  2.007570E+04  1.245987E+05  4.451586E+04 -4.758170E+05  5.263161E+04  3.940551E+04
       226  24  8.323236E+04  1.317731E+05  9.031192E+04 -5.328250E+05  1.828000E+04  6.228368E+04
       226  25  1.815577E+05  8.762329E+05  1.647378E+05 -5.299095E+05  4.223799E+04 -3.985850E+04
       226  26  3.233090E+05  1.384913E+06  3.008435E+05 -5.012815E+05  5.257226E+04  5.967542E+04
       226  27  5.263749E+05  1.921844E+06  5.169065E+05 -5.868475E+05  1.804789E+04  1.592385E+05
       227   1 -1.300068E+06 -6.019702E+05 -3.427063E+05 -5.296974E+05 -1.530972E+05 -4.465158E+04
       227   2 -1.222897E+06 -4.362578E+05 -2.117690E+05 -4.966491E+05 -9.562737E+04  6.110679E+03
       227   3 -1.170095E+06 -3.636652E+05 -1.522363E+05 -4.614028E+05 -3.038976E+04  3.627367E+04
       227   4 -5.755128E+05 -2.592351E+05 -1.418910E+05 -2.588030E+05 -9.606005E+04 -2.322591E+04
       227   5 -5.587940E+05 -1.609609E+05 -6.561806E+04 -2.805470E+05 -7.137299E+04  1.521794E+04
       227   6 -5.599043E+05 -1.492586E+05 -3.469842E+04 -3.001083E+05 -3.893251E+04  3.305983E+04
       227   7  1.495655E+05  8.362798E+04  5.888780E+04  1.240697E+04 -3.895090E+04 -1.756755E+03
       227   8  1.057627E+05  1.144063E+05  8.050837E+04 -6.422004E+04 -4.709074E+04  2.433877E+04
       227   9  5.067618E+04  6.517576E+04  8.282462E+04 -1.386685E+05 -4.748432E+04  2.984287E+04
       227  10 -1.300094E+06 -6.019787E+05 -3.427542E+05 -5.297029E+05  2.368351E-08  9.055043E-09
       227  11 -1.222907E+06 -4.362603E+05 -2.117863E+05 -4.966487E+05  3.651074E-09  2.888279E-09
       227  12 -1.170096E+06 -3.636668E+05 -1.522405E+05 -4.614019E+05 -2.212434E-08 -8.352746E-09
       227  13 -5.755229E+05 -2.592382E+05 -1.419093E+05 -2.588048E+05  1.356346E-09  2.099311E-09
       227  14 -5.587996E+05 -1.609625E+05 -6.562807E+04 -2.805462E+05  4.598062E-09  3.237264E-09
       227  15 -5.599062E+05 -1.492602E+05 -3.470332E+04 -3.001073E+05  2.905003E-09  5.307668E-10
       227  16  1.495639E+05  8.362757E+04  5.888495E+04  1.240691E+04 -1.935551E-08 -6.722665E-09
       227  17  1.057602E+05  1.144051E+05  8.050309E+04 -6.421912E+04  8.101808E-09  1.976483E-09
       227  18  5.067352E+04  6.517420E+04  8.281871E+04 -1.386673E+05  2.638621E-08  1.136127E-08
       227  19 -1.300068E+06 -6.019702E+05 -3.427063E+05 -5.296974E+05  1.530972E+05  4.465158E+04
       227  20 -1.222897E+06 -4.362578E+05 -2.117690E+05 -4.966491E+05  9.562737E+04 -6.110679E+03
       227  21 -1.170095E+06 -3.636652E+05 -1.522363E+05 -4.614028E+05  3.038976E+04 -3.627367E+04
       227  22 -5.755128E+05 -2.592351E+05 -1.418910E+05 -2.588030E+05  9.606005E+04  2.322591E+04
       227  23 -5.587940E+05 -1.609609E+05 -6.561806E+04 -2.805470E+05  7.137299E+04 -1.521794E+04
       227  24 -5.599043E+05 -1.492586E+05 -3.469842E+04 -3.001083E+05  3.893251E+04 -3.305983E+04
       227  25  1.495655E+05  8.362798E+04  5.888780E+04  1.240697E+04  3.895090E+04  1.756755E+03
       227  26  1.057627E+05  1.144063E+05  8.050837E+04 -6.422004E+04  4.709074E+04 -2.433877E+04
       227  27  5.067618E+04  6.517576E+04  8.282462E+04 -1.386685E+05  4.748432E+04 -2.984287E+04
       228   1 -1.101305E+06 -3.520881E+05 -1.319469E+05 -4.513956E+05 -2.833507E+04  3.322924E+04
       228   2 -1.022689E+06 -3.078920E+05 -1.008617E+05 -4.193508E+05 -1.717821E+04  3.262771E+04
       228   3 -9.319462E+05 -2.826766E+05 -7.798723E+04 -4.036417E+05 -5.406548E+03  3.038739E+04
       228   4 -5.555709E+05 -1.514485E+05 -2.626889E+04 -2.977045E+05 -3.373060E+04  3.119871E+04
       228   5 -5.615334E+05 -1.397872E+05 -1.385728E+04 -2.904417E+05 -2.517848E+04  2.962057E+04
       228   6 -5.548571E+05 -1.465878E+05 -7.585366E+03 -2.995170E+05 -1.601311E+04  2.640375E+04
       228   7 -9.531477E+03  4.921751E+04  7.939480E+04 -1.438887E+05 -3.913117E+04  2.916625E+04
       228   8 -1.001552E+05  2.833754E+04  7.313883E+04 -1.614432E+05 -3.318511E+04  2.661102E+04
       228   9 -1.776154E+05 -1.048484E+04  6.281238E+04 -1.953325E+05 -2.662667E+04  2.241752E+04
       228  10 -1.101306E+06 -3.520895E+05 -1.319505E+05 -4.513948E+05  2.559313E-10 -8.780091E-10
       228  11 -1.022690E+06 -3.078932E+05 -1.008643E+05 -4.193504E+05 -2.010038E-09 -1.186127E-09
       228  12 -9.319464E+05 -2.826776E+05 -7.798902E+04 -4.036416E+05 -8.598977E-10 -7.599096E-10
       228  13 -5.555724E+05 -1.514499E+05 -2.627286E+04 -2.977037E+05  1.604976E-09  1.898486E-11
       228  14 -5.615344E+05 -1.397883E+05 -1.386011E+04 -2.904411E+05  9.630790E-11 -1.843330E-09
       228  15 -5.548575E+05 -1.465886E+05 -7.587157E+03 -2.995166E+05  1.390732E-09 -7.077518E-10
       228  16 -9.533349E+03  4.921619E+04  7.939033E+04 -1.438878E+05  7.725885E-10  2.982843E-11
       228  17 -1.001566E+05  2.833648E+04  7.313543E+04 -1.614425E+05  9.607482E-10  6.467285E-10
       228  18 -1.776163E+05 -1.048557E+04  6.281010E+04 -1.953321E+05  9.168857E-10 -7.015939E-10
       228  19 -1.101305E+06 -3.520881E+05 -1.319469E+05 -4.513956E+05  2.833507E+04 -3.322924E+04
       228  20 -1.022689E+06 -3.078920E+05 -1.008617E+05 -4.193508E+05  1.717821E+04 -3.262771E+04
       228  21 -9.319462E+05 -2.826766E+05 -7.798723E+04 -4.036417E+05  5.406548E+03 -3.038739E+04
       228  22 -5.555709E+05 -1.514485E+05 -2.626889E+04 -2.977045E+05  3.373060E+04 -3.119871E+04
       228  23 -5.615334E+05 -1.397872E+05 -1.385728E+04 -2.904417E+05  2.517848E+04 -2.962057E+04
       228  24 -5.548571E+05 -1.465878E+05 -7.585366E+03 -2.995170E+05  1.601311E+04 -2.640375E+04
       228  25 -9.531477E+03  4.921751E+04  7.939480E+04 -1.438887E+05  3.913117E+04 -2.916625E+04
       228  26 -1.001552E+05  2.833754E+04  7.313883E+04 -1.614432E+05  3.318511E+04 -2.661102E+04
       228  27 -1.776154E+05 -1.048484E+04  6.281238E+04 -1.953325E+05  2.662667E+04 -2.241752E+04
       229   1 -8.747893E+05 -2.626340E+05 -6.512392E+04 -3.882657E+05 -3.132916E+03  2.679957E+04
       229   2 -7.966271E+05 -2.240554E+05 -4.672500E+04 -3.559946E+05  1.111540E+03  2.089940E+04
       229   3 -7.038232E+05 -2.006382E+05 -2.970066E+04 -3.408290E+05  5.404332E+03  1.486692E+04
       229   4 -5.545167E+05 -1.467062E+05 -5.705553E+03 -2.993605E+05 -1.349478E+04  2.290882E+04
       229   5 -5.618375E+05 -1.390776E+05 -3.144578E+03 -2.908291E+05 -9.460730E+03  1.693086E+04
       229   6 -5.544827E+05 -1.465687E+05 -1.791154E+03 -2.994056E+05 -5.378626E+03  1.082054E+04
       229   7 -2.341364E+05 -3.076895E+04  5.370932E+04 -2.104126E+05 -2.386236E+04  1.901593E+04
       229   8 -3.269910E+05 -5.409510E+04  4.043388E+04 -2.256410E+05 -2.003723E+04  1.296074E+04
       229   9 -4.051201E+05 -9.249761E+04  2.611758E+04 -2.579733E+05 -1.616426E+04  6.773154E+03
       229  10 -8.747895E+05 -2.626348E+05 -6.512529E+04 -3.882656E+05 -9.033702E-10 -6.132833E-10
       229  11 -7.966272E+05 -2.240559E+05 -4.672582E+04 -3.559946E+05  5.783725E-10 -7.176246E-10
       229  12 -7.038233E+05 -2.006384E+05 -2.970113E+04 -3.408291E+05  1.087126E-09 -4.459589E-10
       229  13 -5.545170E+05 -1.467068E+05 -5.706881E+03 -2.993603E+05  2.597283E-09 -8.237369E-10
       229  14 -5.618376E+05 -1.390779E+05 -3.145285E+03 -2.908290E+05  2.479057E-09 -2.062604E-10
       229  15 -5.544828E+05 -1.465688E+05 -1.791428E+03 -2.994056E+05  4.986181E-10 -3.696173E-10
       229  16 -2.341371E+05 -3.076949E+04  5.370757E+04 -2.104122E+05  2.130696E-09 -5.128699E-10
       229  17 -3.269915E+05 -5.409539E+04  4.043281E+04 -2.256408E+05  2.352323E-09  9.825809E-11
       229  18 -4.051204E+05 -9.249773E+04  2.611700E+04 -2.579732E+05  2.291765E-10  1.074618E-11
       229  19 -8.747893E+05 -2.626340E+05 -6.512392E+04 -3.882657E+05  3.132916E+03 -2.679957E+04
       229  20 -7.966271E+05 -2.240554E+05 -4.672500E+04 -3.559946E+05 -1.111540E+03 -2.089940E+04
       229  21 -7.038232E+05 -2.006382E+05 -2.970066E+04 -3.408290E+05 -5.404332E+03 -1.486692E+04
       229  22 -5.545167E+05 -1.467062E+05 -5.705553E+03 -2.993605E+05  1.349478E+04 -2.290882E+04
       229  23 -5.618375E+05 -1.390776E+05 -3.144578E+03 -2.908291E+05  9.460730E+03 -1.693086E+04
       229  24 -5.544827E+05 -1.465687E+05 -1.791154E+03 -2.994056E+05  5.378626E+03 -1.082054E+04
       229  25 -2.341364E+05 -3.076895E+04  5.370932E+04 -2.104126E+05  2.386236E+04 -1.901593E+04
       229  26 -3.269910E+05 -5.409510E+04  4.043388E+04 -2.256410E+05  2.003723E+04 -1.296074E+04
       229  27 -4.051201E+05 -9.249761E+04  2.611758E+04 -2.579733E+05  1.616426E+04 -6.773154E+03
       230   1 -6.473206E+05 -1.801353E+05 -1.837790E+04 -3.251753E+05  7.129117E+03  1.102015E+04
       230   2 -5.692458E+05 -1.417337E+05 -2.280283E+03 -2.928345E+05  1.013588E+04  4.438532E+03
       230   3 -4.762819E+05 -1.182906E+05  1.346606E+04 -2.776082E+05  1.314609E+04 -2.152321E+03
       230   4 -5.544406E+05 -1.465759E+05 -1.393660E+03 -2.993906E+05 -3.636368E+03  6.980686E+03
       230   5 -5.618823E+05 -1.391042E+05 -9.140703E+02 -2.908288E+05 -6.451458E+02  3.932482E+02
       230   6 -5.544416E+05 -1.465897E+05 -7.743593E+02 -2.993850E+05  2.349446E+03 -6.203432E+03
       230   7 -4.615504E+05 -1.130152E+05  1.559101E+04 -2.736021E+05 -1.440367E+04  2.940546E+03
       230   8 -5.545185E+05 -1.364747E+05  4.526490E+02 -2.888230E+05 -1.142636E+04 -3.652105E+03
       230   9 -6.325946E+05 -1.748881E+05 -1.501451E+04 -3.211592E+05 -8.445747E+03 -1.025400E+04
       230  10 -6.473207E+05 -1.801355E+05 -1.837822E+04 -3.251753E+05  1.436708E-09 -6.688901E-10
       230  11 -5.692459E+05 -1.417338E+05 -2.280513E+03 -2.928346E+05  2.868933E-10 -3.269951E-10
       230  12 -4.762821E+05 -1.182907E+05  1.346573E+04 -2.776081E+05 -2.821756E-10 -1.954762E-10
       230  13 -5.544407E+05 -1.465759E+05 -1.393776E+03 -2.993906E+05  1.120558E-10 -1.569636E-10
       230  14 -5.618823E+05 -1.391042E+05 -9.140714E+02 -2.908288E+05  2.892263E-10 -2.687626E-10
       230  15 -5.544416E+05 -1.465897E+05 -7.744419E+02 -2.993850E+05 -1.081985E-09  2.435379E-10
       230  16 -4.615506E+05 -1.130152E+05  1.559060E+04 -2.736021E+05 -5.174022E-10  1.097635E-10
       230  17 -5.545186E+05 -1.364747E+05  4.523783E+02 -2.888230E+05  1.601734E-10  1.176706E-10
       230  18 -6.325947E+05 -1.748883E+05 -1.501484E+04 -3.211593E+05 -1.195118E-10  2.294822E-10
       230  19 -6.473206E+05 -1.801353E+05 -1.837790E+04 -3.251753E+05 -7.129117E+03 -1.102015E+04
       230  20 -5.692458E+05 -1.417337E+05 -2.280283E+03 -2.928345E+05 -1.013588E+04 -4.438532E+03
       230  21 -4.762819E+05 -1.182906E+05  1.346606E+04 -2.776082E+05 -1.314609E+04  2.152321E+03
       230  22 -5.544406E+05 -1.465759E+05 -1.393660E+03 -2.993906E+05  3.636368E+03 -6.980686E+03
       230  23 -5.618823E+05 -1.391042E+05 -9.140703E+02 -2.908288E+05  6.451458E+02 -3.932482E+02
       230  24 -5.544416E+05 -1.465897E+05 -7.743593E+02 -2.993850E+05 -2.349446E+03  6.203432E+03
       230  25 -4.615504E+05 -1.130152E+05  1.559101E+04 -2.736021E+05  1.440367E+04 -2.940546E+03
       230  26 -5.545185E+05 -1.364747E+05  4.526490E+02 -2.888230E+05  1.142636E+04  3.652105E+03
       230  27 -6.325946E+05 -1.748881E+05 -1.501451E+04 -3.211592E+05  8.445747E+03  1.025400E+04
       231   1 -4.198444E+05 -9.776318E+04  2.435152E+04 -2.619401E+05  1.475691E+04 -6.044740E+03
       231   2 -3.417934E+05 -5.937274E+04  3.965600E+04 -2.296074E+05  1.782140E+04 -1.261039E+04
       231   3 -2.488620E+05 -3.593146E+04  5.456990E+04 -2.143820E+05  2.088169E+04 -1.916107E+04
       231   4 -5.544480E+05 -1.465914E+05 -8.076944E+02 -2.993838E+05  3.960877E+03 -1.009594E+04
       231   5 -5.618890E+05 -1.391179E+05 -1.101686E+03 -2.908298E+05  7.047875E+03 -1.665425E+04
       231   6 -5.544612E+05 -1.465988E+05 -1.804200E+03 -2.993863E+05  1.013060E+04 -2.319764E+04
       231   7 -6.890312E+05 -1.954173E+05 -2.596677E+04 -3.368196E+05 -6.832556E+03 -1.414616E+04
       231   8 -7.819335E+05 -2.188584E+05 -4.186071E+04 -3.520320E+05 -3.721570E+03 -2.069658E+04
       231   9 -8.599650E+05 -2.572585E+05 -5.818209E+04 -3.843525E+05 -6.149238E+02 -2.723214E+04
       231  10 -4.198446E+05 -9.776328E+04  2.435104E+04 -2.619400E+05 -4.734497E-09 -1.762831E-09
       231  11 -3.417938E+05 -5.937300E+04  3.965510E+04 -2.296072E+05  9.458928E-09  4.075866E-09
       231  12 -2.488626E+05 -3.593198E+04  5.456839E+04 -2.143817E+05  2.298052E-08  8.277836E-09
       231  13 -5.544481E+05 -1.465915E+05 -8.079153E+02 -2.993838E+05  2.559362E-10  4.353381E-10
       231  14 -5.618891E+05 -1.391182E+05 -1.102301E+03 -2.908297E+05  7.801026E-10  2.785844E-10
       231  15 -5.544615E+05 -1.465994E+05 -1.805404E+03 -2.993862E+05 -1.409689E-09  6.812419E-10
       231  16 -6.890313E+05 -1.954175E+05 -2.596724E+04 -3.368197E+05  4.774222E-09  2.265702E-09
       231  17 -7.819336E+05 -2.188589E+05 -4.186155E+04 -3.520321E+05 -1.018618E-08 -2.599159E-09
       231  18 -8.599652E+05 -2.572593E+05 -5.818348E+04 -3.843525E+05 -2.419892E-08 -7.752559E-09
       231  19 -4.198444E+05 -9.776318E+04  2.435152E+04 -2.619401E+05 -1.475691E+04  6.044740E+03
       231  20 -3.417934E+05 -5.937274E+04  3.965600E+04 -2.296074E+05 -1.782140E+04  1.261039E+04
       231  21 -2.488620E+05 -3.593146E+04  5.456990E+04 -2.143820E+05 -2.088169E+04  1.916107E+04
       231  22 -5.544480E+05 -1.465914E+05 -8.076944E+02 -2.993838E+05 -3.960877E+03  1.009594E+04
       231  23 -5.618890E+05 -1.391179E+05 -1.101686E+03 -2.908298E+05 -7.047875E+03  1.665425E+04
       231  24 -5.544612E+05 -1.465988E+05 -1.804200E+03 -2.993863E+05 -1.013060E+04  2.319764E+04
       231  25 -6.890312E+05 -1.954173E+05 -2.596677E+04 -3.368196E+05  6.832556E+03  1.414616E+04
       231  26 -7.819335E+05 -2.188584E+05 -4.186071E+04 -3.520320E+05  3.721570E+03  2.069658E+04
       231  27 -8.599650E+05 -2.572585E+05 -5.818209E+04 -3.843525E+05  6.149238E+02  2.723214E+04
       232   1 -1.924949E+05 -1.543384E+04  6.493216E+04 -1.987663E+05  2.272445E+04 -2.295669E+04
       232   2 -1.144461E+05  2.292857E+04  7.875530E+04 -1.664547E+05  2.705752E+04 -2.893841E+04
       232   3 -2.175607E+04  4.617794E+04  9.117949E+04 -1.512235E+05  3.133009E+04 -3.475109E+04
       232   4 -5.545258E+05 -1.465930E+05 -2.356345E+03 -2.994041E+05  1.195284E+04 -2.700199E+04
       232   5 -5.618452E+05 -1.391111E+05 -4.200486E+03 -2.908301E+05  1.655256E+04 -3.288586E+04
       232   6 -5.545834E+05 -1.467967E+05 -7.655658E+03 -2.993404E+05  2.109147E+04 -3.860070E+04
       232   7 -9.164191E+05 -2.777400E+05 -6.964936E+04 -3.999873E+05  1.187948E+03 -3.104479E+04
       232   8 -1.009032E+06 -3.011314E+05 -8.716283E+04 -4.151215E+05  6.055740E+03 -3.683026E+04
       232   9 -1.087108E+06 -3.397433E+05 -1.064998E+05 -4.473377E+05  1.086233E+04 -4.244675E+04
       232  10 -1.924956E+05 -1.543454E+04  6.493020E+04 -1.987659E+05 -2.167808E-08 -8.988722E-09
       232  11 -1.144471E+05  2.292748E+04  7.875235E+04 -1.664541E+05 -9.411963E-09 -3.944443E-09
       232  12 -2.175745E+04  4.617638E+04  9.117538E+04 -1.512226E+05  4.894735E-09  1.439218E-09
       232  13 -5.545262E+05 -1.465938E+05 -2.357983E+03 -2.994039E+05 -6.176703E-10 -1.083190E-11
       232  14 -5.618458E+05 -1.391123E+05 -4.203032E+03 -2.908296E+05  1.385722E-10  3.568329E-10
       232  15 -5.545842E+05 -1.467984E+05 -7.659293E+03 -2.993397E+05  1.235568E-09  5.851043E-10
       232  16 -9.164194E+05 -2.777410E+05 -6.965118E+04 -3.999872E+05  1.956326E-08  9.039819E-09
       232  17 -1.009033E+06 -3.011329E+05 -8.716545E+04 -4.151213E+05  1.038164E-08  3.913941E-09
       232  18 -1.087109E+06 -3.397453E+05 -1.065034E+05 -4.473373E+05 -3.686831E-09  4.321341E-10
       232  19 -1.924949E+05 -1.543384E+04  6.493216E+04 -1.987663E+05 -2.272445E+04  2.295669E+04
       232  20 -1.144461E+05  2.292857E+04  7.875530E+04 -1.664547E+05 -2.705752E+04  2.893841E+04
       232  21 -2.175607E+04  4.617794E+04  9.117949E+04 -1.512235E+05 -3.133009E+04  3.475109E+04
       232  22 -5.545258E+05 -1.465930E+05 -2.356345E+03 -2.994041E+05 -1.195284E+04  2.700199E+04
       232  23 -5.618452E+05 -1.391111E+05 -4.200486E+03 -2.908301E+05 -1.655256E+04  3.288586E+04
       232  24 -5.545834E+05 -1.467967E+05 -7.655658E+03 -2.993404E+05 -2.109147E+04  3.860070E+04
       232  25 -9.164191E+05 -2.777400E+05 -6.964936E+04 -3.999873E+05 -1.187948E+03  3.104479E+04
       232  26 -1.009032E+06 -3.011314E+05 -8.716283E+04 -4.151215E+05 -6.055740E+03  3.683026E+04
       232  27 -1.087108E+06 -3.397433E+05 -1.064998E+05 -4.473377E+05 -1.086233E+04  4.244675E+04
       233   1  3.469153E+04  6.635480E+04  9.963119E+04 -1.363489E+05  3.451392E+04 -3.797167E+04
       233   2  1.118072E+05  1.052684E+05  1.080260E+05 -1.019473E+05  4.268899E+04 -4.125972E+04
       233   3  2.014319E+05  1.251924E+05  1.107917E+05 -8.358088E+04  5.008983E+04 -4.247699E+04
       233   4 -5.550384E+05 -1.466385E+05 -1.018480E+04 -2.995468E+05  2.396620E+04 -4.193902E+04
       233   5 -5.614452E+05 -1.400829E+05 -1.862202E+04 -2.903080E+05  3.543403E+04 -4.399278E+04
       233   6 -5.560072E+05 -1.531765E+05 -3.530494E+04 -2.971101E+05  4.612629E+04 -4.397485E+04
       233   7 -1.144410E+06 -3.596027E+05 -1.200154E+05 -4.626023E+05  1.342909E+04 -4.590242E+04
       233   8 -1.234227E+06 -3.853931E+05 -1.452889E+05 -4.784796E+05  2.818745E+04 -4.672267E+04
       233   9 -1.312850E+06 -4.314908E+05 -1.814264E+05 -5.103965E+05  4.216792E+04 -4.547073E+04
       233  10  3.468986E+04  6.635293E+04  9.962624E+04 -1.363479E+05  2.091189E-09  1.223175E-09
       233  11  1.118048E+05  1.052661E+05  1.080194E+05 -1.019458E+05  3.810280E-10  8.200038E-11
       233  12  2.014287E+05  1.251898E+05  1.107836E+05 -8.357917E+04 -2.066348E-10 -2.248819E-09
       233  13 -5.550395E+05 -1.466406E+05 -1.018918E+04 -2.995460E+05 -2.365949E-10  2.063048E-10
       233  14 -5.614471E+05 -1.400853E+05 -1.862802E+04 -2.903068E+05  4.726367E-10 -8.161063E-10
       233  15 -5.560100E+05 -1.531792E+05 -3.531257E+04 -2.971084E+05  2.543088E-10 -1.759897E-09
       233  16 -1.144411E+06 -3.596050E+05 -1.200197E+05 -4.626018E+05 -1.203216E-09  3.950676E-10
       233  17 -1.234229E+06 -3.853956E+05 -1.452945E+05 -4.784785E+05  3.914947E-10  2.332790E-10
       233  18 -1.312852E+06 -4.314935E+05 -1.814337E+05 -5.103950E+05  1.365529E-09 -4.262520E-10
       233  19  3.469153E+04  6.635480E+04  9.963119E+04 -1.363489E+05 -3.451392E+04  3.797167E+04
       233  20  1.118072E+05  1.052684E+05  1.080260E+05 -1.019473E+05 -4.268899E+04  4.125972E+04
       233  21  2.014319E+05  1.251924E+05  1.107917E+05 -8.358088E+04 -5.008983E+04  4.247699E+04
       233  22 -5.550384E+05 -1.466385E+05 -1.018480E+04 -2.995468E+05 -2.396620E+04  4.193902E+04
       233  23 -5.614452E+05 -1.400829E+05 -1.862202E+04 -2.903080E+05 -3.543403E+04  4.399278E+04
       233  24 -5.560072E+05 -1.531765E+05 -3.530494E+04 -2.971101E+05 -4.612629E+04  4.397485E+04
       233  25 -1.144410E+06 -3.596027E+05 -1.200154E+05 -4.626023E+05 -1.342909E+04  4.590242E+04
       233  26 -1.234227E+06 -3.853931E+05 -1.452889E+05 -4.784796E+05 -2.818745E+04  4.672267E+04
       233  27 -1.312850E+06 -4.314908E+05 -1.814264E+05 -5.103965E+05 -4.216792E+04  4.547073E+04
       234   1  2.627641E+05  1.394882E+05  1.115457E+05 -8.199770E+04  6.057178E+04 -4.216173E+04
       234   2  3.099099E+05  1.923824E+05  1.019815E+05  7.056163E+03  6.216751E+04 -3.236687E+04
       234   3  3.362876E+05  1.423598E+05  6.438481E+04  1.048900E+05  5.396535E+04  3.439839E+03
       234   4 -5.618102E+05 -1.502514E+05 -4.663431E+04 -3.003614E+05  5.262433E+04 -4.515845E+04
       234   5 -5.577975E+05 -1.685059E+05 -8.819267E+04 -2.769810E+05  9.569504E+04 -1.976007E+04
       234   6 -5.828363E+05 -2.979959E+05 -1.907010E+05 -2.448143E+05  1.289570E+05  3.166638E+04
       234   7 -1.385678E+06 -4.399419E+05 -2.048429E+05 -5.184610E+05  4.468819E+04 -4.815127E+04
       234   8 -1.424713E+06 -5.292638E+05 -2.784025E+05 -5.606260E+05  1.291716E+05 -7.178181E+03
       234   9 -1.501072E+06 -7.381121E+05 -4.458310E+05 -5.939837E+05  2.038254E+05  5.981753E+04
       234  10  2.627597E+05  1.394854E+05  1.115355E+05 -8.199564E+04  1.395922E-09 -8.890307E-11
       234  11  3.099055E+05  1.923802E+05  1.019723E+05  7.057783E+03 -8.953019E-10 -1.000693E-09
       234  12  3.362845E+05  1.423590E+05  6.437932E+04  1.048899E+05 -1.576599E-09 -6.822342E-10
       234  13 -5.618137E+05 -1.502544E+05 -4.664335E+04 -3.003595E+05  1.010263E-09 -3.797212E-09
       234  14 -5.578075E+05 -1.685088E+05 -8.821062E+04 -2.769795E+05 -1.695307E-09 -9.867995E-10
       234  15 -5.828545E+05 -2.980014E+05 -1.907342E+05 -2.448176E+05 -3.591448E-11 -4.180215E-10
       234  16 -1.385681E+06 -4.399450E+05 -2.048510E+05 -5.184592E+05 -1.937724E-10 -1.249673E-09
       234  17 -1.424731E+06 -5.292683E+05 -2.784341E+05 -5.606252E+05 -2.749073E-10  1.048565E-09
       234  18 -1.501118E+06 -7.381272E+05 -4.459160E+05 -5.939935E+05  5.503110E-10  2.213789E-10
       234  19  2.627641E+05  1.394882E+05  1.115457E+05 -8.199770E+04 -6.057178E+04  4.216173E+04
       234  20  3.099099E+05  1.923824E+05  1.019815E+05  7.056163E+03 -6.216751E+04  3.236687E+04
       234  21  3.362876E+05  1.423598E+05  6.438481E+04  1.048900E+05 -5.396535E+04 -3.439839E+03
       234  22 -5.618102E+05 -1.502514E+05 -4.663431E+04 -3.003614E+05 -5.262433E+04  4.515845E+04
       234  23 -5.577975E+05 -1.685059E+05 -8.819267E+04 -2.769810E+05 -9.569504E+04  1.976007E+04
       234  24 -5.828363E+05 -2.979959E+05 -1.907010E+05 -2.448143E+05 -1.289570E+05 -3.166638E+04
       234  25 -1.385678E+06 -4.399419E+05 -2.048429E+05 -5.184610E+05 -4.468819E+04  4.815127E+04
       234  26 -1.424713E+06 -5.292638E+05 -2.784025E+05 -5.606260E+05 -1.291716E+05  7.178181E+03
       234  27 -1.501072E+06 -7.381121E+05 -4.458310E+05 -5.939837E+05 -2.038254E+05 -5.981753E+04
       235   1  1.226975E+06  1.635252E+05  1.415320E+05  3.744910E+03  1.331126E+04 -1.446944E+04
       235   2  1.176669E+06  2.072674E+05  1.371739E+05  2.741947E+04 -3.365675E+03 -4.901406E+04
       235   3  1.118019E+06  2.087191E+05  1.331419E+05  6.162192E+04 -2.008236E+04 -5.986365E+04
       235   4  2.185573E+05 -8.490702E+04 -9.423159E+04  5.554228E+04 -6.573732E+04 -1.462429E+04
       235   5  2.262572E+05 -1.914325E+04 -4.584333E+04  5.018781E+04 -4.199371E+04 -4.910226E+04
       235   6  2.185804E+05 -2.721344E+03 -2.518955E+04  5.536196E+04 -1.829071E+04 -5.986704E+04
       235   7 -7.889049E+05 -3.333976E+05 -3.300394E+05  1.072546E+05 -1.446585E+05 -1.479245E+04
       235   8 -7.232825E+05 -2.456046E+05 -2.288964E+05  7.292009E+04 -8.056401E+04 -4.919336E+04
       235   9 -6.800678E+05 -2.142059E+05 -1.835505E+05  4.911085E+04 -1.650156E+04 -5.987046E+04
       235  10  1.226974E+06  1.635249E+05  1.415313E+05  3.745065E+03  4.512521E-09 -1.298254E-09
       235  11  1.176668E+06  2.072648E+05  1.371693E+05  2.741934E+04  1.319724E-09 -6.045018E-09
       235  12  1.118017E+06  2.087152E+05  1.331344E+05  6.162095E+04 -9.587902E-10 -4.849100E-09
       235  13  2.185526E+05 -8.490841E+04 -9.424011E+04  5.554150E+04 -1.016100E-09  8.079432E-10
       235  14  2.262547E+05 -1.914631E+04 -4.585117E+04  5.018615E+04 -1.343990E-09 -3.838016E-09
       235  15  2.185791E+05 -2.725283E+03 -2.519691E+04  5.536108E+04  1.092646E-09 -8.086650E-10
       235  16 -7.889274E+05 -3.334035E+05 -3.300792E+05  1.072529E+05 -5.929776E-09 -1.338789E-10
       235  17 -7.232901E+05 -2.456090E+05 -2.289132E+05  7.291690E+04  1.797504E-10 -7.568836E-09
       235  18 -6.800691E+05 -2.142098E+05 -1.835578E+05  4.911005E+04 -1.486016E-10 -6.420650E-09
       235  19  1.226975E+06  1.635252E+05  1.415320E+05  3.744910E+03 -1.331126E+04  1.446944E+04
       235  20  1.176669E+06  2.072674E+05  1.371739E+05  2.741947E+04  3.365675E+03  4.901406E+04
       235  21  1.118019E+06  2.087191E+05  1.331419E+05  6.162192E+04  2.008236E+04  5.986365E+04
       235  22  2.185573E+05 -8.490702E+04 -9.423159E+04  5.554228E+04  6.573732E+04  1.462429E+04
       235  23  2.262572E+05 -1.914325E+04 -4.584333E+04  5.018781E+04  4.199371E+04  4.910226E+04
       235  24  2.185804E+05 -2.721344E+03 -2.518955E+04  5.536196E+04  1.829071E+04  5.986704E+04
       235  25 -7.889049E+05 -3.333976E+05 -3.300394E+05  1.072546E+05  1.446585E+05  1.479245E+04
       235  26 -7.232825E+05 -2.456046E+05 -2.288964E+05  7.292009E+04  8.056401E+04  4.919336E+04
       235  27 -6.800678E+05 -2.142059E+05 -1.835505E+05  4.911085E+04  1.650156E+04  5.987046E+04
       236   1  1.084794E+06  1.987597E+05  1.312820E+05  5.567335E+04 -1.424623E+04 -5.876835E+04
       236   2  1.031071E+06  1.886299E+05  1.270023E+05  5.077145E+04 -1.263940E+04 -5.814933E+04
       236   3  9.766495E+05  1.765529E+05  1.211942E+05  5.787532E+04 -1.103944E+04 -5.538229E+04
       236   4  2.217127E+05 -3.806869E+03 -1.916468E+04  5.571389E+04 -1.501403E+04 -5.877748E+04
       236   5  2.223948E+05 -4.957104E+02 -1.054487E+04  4.970521E+04 -9.747972E+03 -5.814886E+04
       236   6  2.217403E+05  2.318399E+02 -5.995444E+03  5.570332E+04 -4.488585E+03 -5.537083E+04
       236   7 -6.406397E+05 -2.064138E+05 -1.696377E+05  5.575392E+04 -1.578078E+04 -5.878661E+04
       236   8 -5.856386E+05 -1.896560E+05 -1.481135E+05  4.863998E+04 -6.860184E+03 -5.814841E+04
       236   9 -5.326078E+05 -1.761191E+05 -1.332031E+05  5.353367E+04  2.054577E+03 -5.535942E+04
       236  10  1.084793E+06  1.987560E+05  1.312751E+05  5.567268E+04 -5.040836E-09 -4.742113E-09
       236  11  1.031070E+06  1.886262E+05  1.269957E+05  5.077086E+04 -3.542952E-09  2.330530E-09
       236  12  9.766486E+05  1.765496E+05  1.211882E+05  5.787482E+04 -1.117425E-09  3.318708E-09
       236  13  2.217116E+05 -3.810640E+03 -1.917159E+04  5.571318E+04 -2.160917E-09 -2.579872E-09
       236  14  2.223938E+05 -4.993672E+02 -1.055140E+04  4.970475E+04 -1.944690E-09  1.254457E-10
       236  15  2.217395E+05  2.285419E+02 -6.001244E+03  5.570312E+04  2.338085E-10 -2.155866E-09
       236  16 -6.406409E+05 -2.064176E+05 -1.696447E+05  5.575317E+04  4.360001E-09 -8.461948E-11
       236  17 -5.856396E+05 -1.896596E+05 -1.481199E+05  4.863966E+04  4.119120E-09  2.181576E-09
       236  18 -5.326086E+05 -1.761224E+05 -1.332088E+05  5.353377E+04  1.078701E-09  6.915368E-10
       236  19  1.084794E+06  1.987597E+05  1.312820E+05  5.567335E+04  1.424623E+04  5.876835E+04
       236  20  1.031071E+06  1.886299E+05  1.270023E+05  5.077145E+04  1.263940E+04  5.814933E+04
       236  21  9.766495E+05  1.765529E+05  1.211942E+05  5.787532E+04  1.103944E+04  5.538229E+04
       236  22  2.217127E+05 -3.806869E+03 -1.916468E+04  5.571389E+04  1.501403E+04  5.877748E+04
       236  23  2.223948E+05 -4.957104E+02 -1.054487E+04  4.970521E+04  9.747972E+03  5.814886E+04
       236  24  2.217403E+05  2.318399E+02 -5.995444E+03  5.570332E+04  4.488585E+03  5.537083E+04
       236  25 -6.406397E+05 -2.064138E+05 -1.696377E+05  5.575392E+04  1.578078E+04  5.878661E+04
       236  26 -5.856386E+05 -1.896560E+05 -1.481135E+05  4.863998E+04  6.860184E+03  5.814841E+04
       236  27 -5.326078E+05 -1.761191E+05 -1.332031E+05  5.353367E+04 -2.054577E+03  5.535942E+04
       237   1  9.416818E+05  1.681845E+05  1.163703E+05  5.746664E+04 -9.887959E+03 -5.310324E+04
       237   2  8.877962E+05  1.556470E+05  1.090626E+05  5.129895E+04 -8.945861E+03 -4.930412E+04
       237   3  8.337507E+05  1.431047E+05  1.011308E+05  5.725295E+04 -8.006270E+03 -4.531185E+04
       237   4  2.219985E+05  1.572524E+02 -4.547882E+03  5.573062E+04 -3.572626E+03 -5.309142E+04
       237   5  2.221203E+05  2.646257E+02 -2.580988E+03  4.966918E+04 -2.302557E+03 -4.928985E+04
       237   6  2.220221E+05  3.101491E+02 -1.466656E+03  5.573019E+04 -1.034918E+03 -4.529501E+04
       237   7 -4.971747E+05 -1.678971E+05 -1.254822E+05  5.399631E+04  2.735637E+03 -5.307963E+04
       237   8 -4.431190E+05 -1.551409E+05 -1.142383E+05  4.804089E+04  4.333866E+03 -4.927560E+04
       237   9 -3.893377E+05 -1.425040E+05 -1.040756E+05  5.420870E+04  5.929799E+03 -4.527820E+04
       237  10  9.416810E+05  1.681814E+05  1.163649E+05  5.746622E+04 -5.192534E-09  3.516019E-09
       237  11  8.877955E+05  1.556444E+05  1.090579E+05  5.129859E+04  7.902593E-10  2.395900E-09
       237  12  8.337501E+05  1.431025E+05  1.011268E+05  5.725266E+04  6.680447E-09  1.044959E-10
       237  13  2.219977E+05  1.542218E+02 -4.553203E+03  5.573046E+04 -2.316637E-09 -2.891136E-09
       237  14  2.221196E+05  2.620151E+02 -2.585564E+03  4.966909E+04  1.502673E-10  4.319824E-09
       237  15  2.220216E+05  3.079454E+02 -1.470514E+03  5.573015E+04  2.129289E-09  5.542837E-09
       237  16 -4.971755E+05 -1.679001E+05 -1.254876E+05  5.399642E+04  3.584392E-09  3.368663E-09
       237  17 -4.431196E+05 -1.551435E+05 -1.142429E+05  4.804106E+04  2.699680E-09  6.289702E-09
       237  18 -3.893383E+05 -1.425062E+05 -1.040795E+05  5.420891E+04 -4.910582E-09  1.453276E-09
       237  19  9.416818E+05  1.681845E+05  1.163703E+05  5.746664E+04  9.887959E+03  5.310324E+04
       237  20  8.877962E+05  1.556470E+05  1.090626E+05  5.129895E+04  8.945861E+03  4.930412E+04
       237  21  8.337507E+05  1.431047E+05  1.011308E+05  5.725295E+04  8.006270E+03  4.531185E+04
       237  22  2.219985E+05  1.572524E+02 -4.547882E+03  5.573062E+04  3.572626E+03  5.309142E+04
       237  23  2.221203E+05  2.646257E+02 -2.580988E+03  4.966918E+04  2.302557E+03  4.928985E+04
       237  24  2.220221E+05  3.101491E+02 -1.466656E+03  5.573019E+04  1.034918E+03  4.529501E+04
       237  25 -4.971747E+05 -1.678971E+05 -1.254822E+05  5.399631E+04 -2.735637E+03  5.307963E+04
       237  26 -4.431190E+05 -1.551409E+05 -1.142383E+05  4.804089E+04 -4.333866E+03  4.927560E+04
       237  27 -3.893377E+05 -1.425040E+05 -1.040756E+05  5.420870E+04 -5.929799E+03  4.527820E+04
       238   1  7.987126E+05  1.348712E+05  9.537565E+04  5.716021E+04 -7.756180E+03 -4.292947E+04
       238   2  7.448555E+05  1.222838E+05  8.693350E+04  5.098251E+04 -7.492698E+03 -3.884795E+04
       238   3  6.909222E+05  1.097752E+05  7.832165E+04  5.692241E+04 -7.230823E+03 -3.475042E+04
       238   4  2.220602E+05  3.090290E+02 -1.103765E+03  5.572936E+04 -8.085508E+02 -4.291184E+04
       238   5  2.221119E+05  2.812470E+02 -6.087168E+02  4.967026E+04 -5.183406E+02 -3.882896E+04
       238   6  2.220789E+05  3.274952E+02 -3.024298E+02  5.572935E+04 -2.297155E+02 -3.473005E+04
       238   7 -3.542642E+05 -1.342705E+05 -9.759331E+04  5.429962E+04  6.132845E+03 -4.289423E+04
       238   8 -3.003622E+05 -1.217356E+05 -8.815925E+04  4.835893E+04  6.450343E+03 -3.880998E+04
       238   9 -2.465477E+05 -1.091317E+05 -7.893319E+04  5.453704E+04  6.766283E+03 -3.470970E+04
       238  10  7.987120E+05  1.348692E+05  9.537207E+04  5.715994E+04  3.969479E-09  7.590970E-10
       238  11  7.448551E+05  1.222822E+05  8.693056E+04  5.098227E+04  1.878033E-09  7.956088E-09
       238  12  6.909219E+05  1.097739E+05  7.831928E+04  5.692220E+04 -1.442029E-09  6.026329E-09
       238  13  2.220597E+05  3.070513E+02 -1.107227E+03  5.572933E+04 -1.073159E-09  8.197814E-10
       238  14  2.221115E+05  2.796278E+02 -6.115509E+02  4.967024E+04 -2.597339E-10  6.564304E-09
       238  15  2.220786E+05  3.261998E+02 -3.046967E+02  5.572934E+04 -1.082944E-09  1.726405E-09
       238  16 -3.542648E+05 -1.342725E+05 -9.759684E+04  5.429983E+04 -4.481951E-09 -2.631132E-10
       238  17 -3.003627E+05 -1.217372E+05 -8.816216E+04  4.835914E+04  2.834659E-09  1.749873E-09
       238  18 -2.465481E+05 -1.091330E+05 -7.893554E+04  5.453723E+04  3.329211E-09  1.301050E-09
       238  19  7.987126E+05  1.348712E+05  9.537565E+04  5.716021E+04  7.756180E+03  4.292947E+04
       238  20  7.448555E+05  1.222838E+05  8.693350E+04  5.098251E+04  7.492698E+03  3.884795E+04
       238  21  6.909222E+05  1.097752E+05  7.832165E+04  5.692241E+04  7.230823E+03  3.475042E+04
       238  22  2.220602E+05  3.090290E+02 -1.103765E+03  5.572936E+04  8.085508E+02  4.291184E+04
       238  23  2.221119E+05  2.812470E+02 -6.087168E+02  4.967026E+04  5.183406E+02  3.882896E+04
       238  24  2.220789E+05  3.274952E+02 -3.024298E+02  5.572935E+04  2.297155E+02  3.473005E+04
       238  25 -3.542642E+05 -1.342705E+05 -9.759331E+04  5.429962E+04 -6.132845E+03  4.289423E+04
       238  26 -3.003622E+05 -1.217356E+05 -8.815925E+04  4.835893E+04 -6.450343E+03  3.880998E+04
       238  27 -2.465477E+05 -1.091317E+05 -7.893319E+04  5.453704E+04 -6.766283E+03  3.470970E+04
       239   1  6.559056E+05  1.015605E+05  7.233258E+04  5.684442E+04 -7.189070E+03 -3.236116E+04
       239   2  6.020953E+05  8.898528E+04  6.361553E+04  5.067024E+04 -7.194277E+03 -2.825898E+04
       239   3  5.482233E+05  7.649332E+04  5.489851E+04  5.660843E+04 -7.200595E+03 -2.415840E+04
       239   4  2.220898E+05  3.327828E+02 -1.923397E+02  5.572816E+04 -1.917130E+02 -3.234015E+04
       239   5  2.221282E+05  2.997985E+02 -8.508908E+00  4.967176E+04 -1.998843E+02 -2.823704E+04
       239   6  2.221034E+05  3.509054E+02  1.775195E+02  5.572814E+04 -2.091658E+02 -2.413553E+04
       239   7 -2.115403E+05 -1.009047E+05 -7.272289E+04  5.461255E+04  6.800920E+03 -3.231915E+04
       239   8 -1.576964E+05 -8.839320E+04 -6.363685E+04  4.867379E+04  6.790372E+03 -2.821512E+04
       239   9 -1.039116E+05 -7.579704E+04 -5.454661E+04  5.484825E+04  6.778714E+03 -2.411268E+04
       239  10  6.559053E+05  1.015594E+05  7.233051E+04  5.684423E+04  1.565648E-08  7.698985E-10
       239  11  6.020950E+05  8.898441E+04  6.361393E+04  5.067008E+04  3.216617E-09 -3.797135E-09
       239  12  5.482231E+05  7.649268E+04  5.489731E+04  5.660829E+04 -8.511575E-09 -3.234220E-09
       239  13  2.220895E+05  3.316596E+02 -1.943054E+02  5.572815E+04  1.497069E-10  8.330147E-09
       239  14  2.221280E+05  2.989423E+02 -1.000748E+01  4.967175E+04  1.257745E-09 -2.413070E-10
       239  15  2.221033E+05  3.502798E+02  1.764246E+02  5.572814E+04  9.132773E-11 -4.321376E-09
       239  16 -2.115407E+05 -1.009059E+05 -7.272494E+04  5.461273E+04 -1.568887E-08  4.983998E-09
       239  17 -1.576967E+05 -8.839407E+04 -6.363843E+04  4.867394E+04 -1.479466E-09 -2.011488E-09
       239  18 -1.039118E+05 -7.579768E+04 -5.454779E+04  5.484838E+04  8.825451E-09 -3.357297E-09
       239  19  6.559056E+05  1.015605E+05  7.233258E+04  5.684442E+04  7.189070E+03  3.236116E+04
       239  20  6.020953E+05  8.898528E+04  6.361553E+04  5.067024E+04  7.194277E+03  2.825898E+04
       239  21  5.482233E+05  7.649332E+04  5.489851E+04  5.660843E+04  7.200595E+03  2.415840E+04
       239  22  2.220898E+05  3.327828E+02 -1.923397E+02  5.572816E+04  1.917130E+02  3.234015E+04
       239  23  2.221282E+05  2.997985E+02 -8.508908E+00  4.967176E+04  1.998843E+02  2.823704E+04
       239  24  2.221034E+05  3.509054E+02  1.775195E+02  5.572814E+04  2.091658E+02  2.413553E+04
       239  25 -2.115403E+05 -1.009047E+05 -7.272289E+04  5.461255E+04 -6.800920E+03  3.231915E+04
       239  26 -1.576964E+05 -8.839320E+04 -6.363685E+04  4.867379E+04 -6.790372E+03  2.821512E+04
       239  27 -1.039116E+05 -7.579704E+04 -5.454661E+04  5.484825E+04 -6.778714E+03  2.411268E+04
       240   1  5.132393E+05  6.828161E+04  4.891130E+04  5.652873E+04 -7.250982E+03 -2.177132E+04
       240   2  4.594528E+05  5.570658E+04  4.029703E+04  5.035306E+04 -7.510823E+03 -1.768303E+04
       240   3  4.056319E+05  4.324209E+04  3.185159E+04  5.627935E+04 -7.771261E+03 -1.361800E+04
       240   4  2.221149E+05  3.531344E+02  2.851805E+02  5.572583E+04 -2.587236E+02 -2.174800E+04
       240   5  2.221343E+05  3.149633E+02  5.780311E+02  4.967466E+04 -5.584368E+02 -1.765927E+04
       240   6  2.221233E+05  3.943450E+02  1.067294E+03  5.572571E+04 -8.587664E+02 -1.359380E+04
       240   7 -6.892582E+04 -6.757973E+04 -4.834337E+04  5.492325E+04  6.730367E+03 -2.172469E+04
       240   8 -1.512855E+04 -5.507957E+04 -3.914254E+04  4.899648E+04  6.391382E+03 -1.763551E+04
       240   9  3.864805E+04 -4.245514E+04 -2.971787E+04  5.517221E+04  6.051753E+03 -1.356961E+04
       240  10  5.132391E+05  6.828108E+04  4.891031E+04  5.652860E+04 -3.665086E-09  2.592881E-09
       240  11  4.594527E+05  5.570623E+04  4.029634E+04  5.035295E+04 -1.168179E-09  3.175315E-10
       240  12  4.056318E+05  4.324188E+04  3.185112E+04  5.627926E+04 -3.135814E-09  2.470046E-09
       240  13  2.221148E+05  3.526265E+02  2.842915E+02  5.572583E+04 -4.874120E-12  1.997862E-10
       240  14  2.221342E+05  3.146283E+02  5.774444E+02  4.967465E+04 -4.650105E-10  1.906264E-09
       240  15  2.221233E+05  3.941464E+02  1.066945E+03  5.572570E+04  2.310821E-09  2.027371E-09
       240  16 -6.892600E+04 -6.758025E+04 -4.834434E+04  5.492336E+04  2.204652E-09  3.127541E-09
       240  17 -1.512868E+04 -5.507992E+04 -3.914320E+04  4.899657E+04  5.084626E-09 -9.288216E-09
       240  18  3.864796E+04 -4.245534E+04 -2.971829E+04  5.517228E+04  4.351836E-09  6.316280E-10
       240  19  5.132393E+05  6.828161E+04  4.891130E+04  5.652873E+04  7.250982E+03  2.177132E+04
       240  20  4.594528E+05  5.570658E+04  4.029703E+04  5.035306E+04  7.510823E+03  1.768303E+04
       240  21  4.056319E+05  4.324209E+04  3.185159E+04  5.627935E+04  7.771261E+03  1.361800E+04
       240  22  2.221149E+05  3.531344E+02  2.851805E+02  5.572583E+04  2.587236E+02  2.174800E+04
       240  23  2.221343E+05  3.149633E+02  5.780311E+02  4.967466E+04  5.584368E+02  1.765927E+04
       240  24  2.221233E+05  3.943450E+02  1.067294E+03  5.572571E+04  8.587664E+02  1.359380E+04
       240  25 -6.892582E+04 -6.757973E+04 -4.834337E+04  5.492325E+04 -6.730367E+03  2.172469E+04
       240  26 -1.512855E+04 -5.507957E+04 -3.914254E+04  4.899648E+04 -6.391382E+03  1.763551E+04
       240  27  3.864805E+04 -4.245514E+04 -2.971787E+04  5.517221E+04 -6.051753E+03  1.356961E+04
       241   1  3.707083E+05  3.500848E+04  2.609451E+04  5.627834E+04 -8.022538E+03 -1.124515E+04
       241   2  3.168430E+05  2.256828E+04  1.813259E+04  4.982382E+04 -8.863448E+03 -7.303300E+03
       241   3  2.631471E+05  1.077592E+04  1.085043E+04  5.544939E+04 -9.703687E+03 -3.611846E+03
       241   4  2.221856E+05  3.760642E+02  1.419109E+03  5.572135E+04 -1.084004E+03 -1.122061E+04
       241   5  2.220674E+05  4.949650E+02  2.512737E+03  4.967957E+04 -2.351949E+03 -7.280066E+03
       241   6  2.221888E+05  1.335737E+03  4.582239E+03  5.571794E+04 -3.619285E+03 -3.589933E+03
       241   7  7.368473E+04 -3.425747E+04 -2.325678E+04  5.516448E+04  5.852927E+03 -1.119608E+04
       241   8  1.273006E+05 -2.157879E+04 -1.310722E+04  4.953533E+04  4.158590E+03 -7.256833E+03
       241   9  1.812322E+05 -8.104503E+03 -1.685847E+03  5.598648E+04  2.464732E+03 -3.568014E+03
       241  10  3.707082E+05  3.500833E+04  2.609416E+04  5.627827E+04 -4.481088E-09  5.692241E-09
       241  11  3.168429E+05  2.256820E+04  1.813235E+04  4.982377E+04  1.919557E-09 -7.396726E-10
       241  12  2.631469E+05  1.077588E+04  1.085023E+04  5.544936E+04  7.039241E-09  4.614789E-09
       241  13  2.221856E+05  3.759287E+02  1.418870E+03  5.572134E+04 -2.190046E-11  3.788538E-09
       241  14  2.220673E+05  4.949066E+02  2.512627E+03  4.967956E+04 -1.553839E-09  1.706413E-09
       241  15  2.221887E+05  1.335719E+03  4.582190E+03  5.571793E+04  2.313603E-09 -1.033992E-09
       241  16  7.368466E+04 -3.425762E+04 -2.325708E+04  5.516453E+04  2.982625E-09  4.333470E-09
       241  17  1.273006E+05 -2.157885E+04 -1.310735E+04  4.953536E+04  1.488134E-09  1.662953E-09
       241  18  1.812322E+05 -8.104518E+03 -1.685883E+03  5.598648E+04 -6.684450E-09 -9.441689E-09
       241  19  3.707083E+05  3.500848E+04  2.609451E+04  5.627834E+04  8.022538E+03  1.124515E+04
       241  20  3.168430E+05  2.256828E+04  1.813259E+04  4.982382E+04  8.863448E+03  7.303300E+03
       241  21  2.631471E+05  1.077592E+04  1.085043E+04  5.544939E+04  9.703687E+03  3.611846E+03
       241  22  2.221856E+05  3.760642E+02  1.419109E+03  5.572135E+04  1.084004E+03  1.122061E+04
       241  23  2.220674E+05  4.949650E+02  2.512737E+03  4.967957E+04  2.351949E+03  7.280066E+03
       241  24  2.221888E+05  1.335737E+03  4.582239E+03  5.571794E+04  3.619285E+03  3.589933E+03
       241  25  7.368473E+04 -3.425747E+04 -2.325678E+04  5.516448E+04 -5.852927E+03  1.119608E+04
       241  26  1.273006E+05 -2.157879E+04 -1.310722E+04  4.953533E+04 -4.158590E+03  7.256833E+03
       241  27  1.812322E+05 -8.104503E+03 -1.685847E+03  5.598648E+04 -2.464732E+03  3.568014E+03
       242   1  2.287855E+05  2.244860E+03  5.999860E+03  5.682437E+04 -1.079174E+04 -1.381740E+03
       242   2  1.736369E+05 -6.747612E+03  2.217202E+02  4.376587E+04 -1.176267E+04  9.802627E+02
       242   3  1.212912E+05 -4.625579E+03 -2.172038E+03  4.258067E+04 -1.272393E+04  5.860569E+02
       242   4  2.229394E+05  1.071479E+03  6.026229E+03  5.568159E+04 -4.411520E+03 -1.358699E+03
       242   5  2.211299E+05  4.948740E+03  1.096834E+04  4.971017E+04 -1.008062E+04  9.861946E+02
       242   6  2.229359E+05  2.075547E+04  2.255632E+04  5.561149E+04 -1.574021E+04  5.749555E+02
       242   7  2.170934E+05 -1.018752E+02  6.052754E+03  5.453882E+04  1.968643E+03 -1.335681E+03
       242   8  2.686251E+05  1.664507E+04  2.171484E+04  5.565493E+04 -8.398435E+03  9.921584E+02
       242   9  3.245903E+05  4.613639E+04  4.728405E+04  6.864444E+04 -1.875697E+04  5.637285E+02
       242  10  2.287854E+05  2.244827E+03  5.999638E+03  5.682435E+04 -4.181930E-09  3.932917E-09
       242  11  1.736367E+05 -6.747650E+03  2.214584E+02  4.376588E+04 -2.642378E-10 -4.170849E-09
       242  12  1.212911E+05 -4.625623E+03 -2.172343E+03  4.258067E+04 -3.868779E-10 -6.277583E-10
       242  13  2.229394E+05  1.071472E+03  6.026189E+03  5.568158E+04  1.597134E-10  7.779267E-09
       242  14  2.211298E+05  4.948712E+03  1.096815E+04  4.971018E+04 -1.149414E-09 -8.296766E-09
       242  15  2.229356E+05  2.075540E+04  2.255586E+04  5.561150E+04  1.176300E-11  5.761678E-09
       242  16  2.170934E+05 -1.018782E+02  6.052744E+03  5.453882E+04  2.807074E-09 -3.440157E-10
       242  17  2.686250E+05  1.664505E+04  2.171471E+04  5.565493E+04  5.213973E-09 -5.797961E-10
       242  18  3.245899E+05  4.613630E+04  4.728339E+04  6.864445E+04  3.260857E-09 -2.002988E-09
       242  19  2.287855E+05  2.244860E+03  5.999860E+03  5.682437E+04  1.079174E+04  1.381740E+03
       242  20  1.736369E+05 -6.747612E+03  2.217202E+02  4.376587E+04  1.176267E+04 -9.802627E+02
       242  21  1.212912E+05 -4.625579E+03 -2.172038E+03  4.258067E+04  1.272393E+04 -5.860569E+02
       242  22  2.229394E+05  1.071479E+03  6.026229E+03  5.568159E+04  4.411520E+03  1.358699E+03
       242  23  2.211299E+05  4.948740E+03  1.096834E+04  4.971017E+04  1.008062E+04 -9.861946E+02
       242  24  2.229359E+05  2.075547E+04  2.255632E+04  5.561149E+04  1.574021E+04 -5.749555E+02
       242  25  2.170934E+05 -1.018752E+02  6.052754E+03  5.453882E+04 -1.968643E+03  1.335681E+03
       242  26  2.686251E+05  1.664507E+04  2.171484E+04  5.565493E+04  8.398435E+03 -9.921584E+02
       242  27  3.245903E+05  4.613639E+04  4.728405E+04  6.864444E+04  1.875697E+04 -5.637285E+02
       243   1  1.299656E+05  1.240944E+06  1.317197E+05 -1.760751E+05  2.839494E+03  4.394225E+04
       243   2  6.023569E+04  1.091215E+06  6.936642E+04 -1.458373E+05  7.086567E+03  1.534877E+04
       243   3  1.772466E+04  9.518804E+05  3.238053E+04 -1.473955E+05  2.209870E+03 -1.325479E+04
       243   4  4.215507E+04  8.872142E+05  4.662154E+04 -1.491083E+05  2.872369E+03  2.900571E+04
       243   5  9.853261E+03  8.833900E+05  2.535479E+04 -1.332517E+05  7.085714E+03  1.598661E+04
       243   6  2.077406E+03  8.872498E+05  1.866133E+04 -1.491886E+05  2.175198E+03  2.950938E+03
       243   7 -4.566173E+04  5.336006E+05 -3.848426E+04 -1.221567E+05  2.903959E+03  1.407763E+04
       243   8 -4.053138E+04  6.756062E+05 -1.865922E+04 -1.206703E+05  7.084887E+03  1.662425E+04
       243   9 -1.356996E+04  8.226237E+05  4.942880E+03 -1.509815E+05  2.140430E+03  1.915501E+04
       243  10  1.299650E+05  1.240942E+06  1.317160E+05 -1.760752E+05 -5.339513E-10  1.127545E-09
       243  11  6.023558E+04  1.091215E+06  6.936588E+04 -1.458374E+05  1.498272E-09 -3.728039E-09
       243  12  1.772461E+04  9.518802E+05  3.238019E+04 -1.473954E+05  2.607693E-09 -4.873526E-09
       243  13  4.215484E+04  8.872133E+05  4.661995E+04 -1.491083E+05  8.814239E-10 -1.966387E-09
       243  14  9.853139E+03  8.833897E+05  2.535421E+04 -1.332518E+05 -1.661652E-09 -2.638537E-11
       243  15  2.077398E+03  8.872498E+05  1.866130E+04 -1.491886E+05  8.851395E-10 -6.827607E-10
       243  16 -4.566179E+04  5.336003E+05 -3.848465E+04 -1.221568E+05  2.367077E-10  1.558738E-09
       243  17 -4.053151E+04  6.756059E+05 -1.865983E+04 -1.206704E+05  2.463008E-09 -1.263110E-09
       243  18 -1.357007E+04  8.226233E+05  4.942182E+03 -1.509815E+05  3.154389E-10  1.978748E-09
       243  19  1.299656E+05  1.240944E+06  1.317197E+05 -1.760751E+05 -2.839494E+03 -4.394225E+04
       243  20  6.023569E+04  1.091215E+06  6.936642E+04 -1.458373E+05 -7.086567E+03 -1.534877E+04
       243  21  1.772466E+04  9.518804E+05  3.238053E+04 -1.473955E+05 -2.209870E+03  1.325479E+04
       243  22  4.215507E+04  8.872142E+05  4.662154E+04 -1.491083E+05 -2.872369E+03 -2.900571E+04
       243  23  9.853261E+03  8.833900E+05  2.535479E+04 -1.332517E+05 -7.085714E+03 -1.598661E+04
       243  24  2.077406E+03  8.872498E+05  1.866133E+04 -1.491886E+05 -2.175198E+03 -2.950938E+03
       243  25 -4.566173E+04  5.336006E+05 -3.848426E+04 -1.221567E+05 -2.903959E+03 -1.407763E+04
       243  26 -4.053138E+04  6.756062E+05 -1.865922E+04 -1.206703E+05 -7.084887E+03 -1.662425E+04
       243  27 -1.356996E+04  8.226237E+05  4.942880E+03 -1.509815E+05 -2.140430E+03 -1.915501E+04
       244   1 -4.160960E+03  8.562690E+05  1.461071E+04 -1.510375E+05 -3.590662E+03 -1.535263E+04
       244   2 -3.902595E+04  7.105832E+05 -9.023502E+03 -1.323906E+05 -1.222239E+04 -2.454413E+04
       244   3 -6.863186E+04  5.672836E+05 -2.540404E+04 -1.460626E+05 -2.012342E+04 -3.373124E+04
       244   4  2.479741E+03  8.861150E+05  1.804253E+04 -1.492962E+05 -3.623675E+03  2.583346E+01
       244   5  1.772409E+03  8.848143E+05  2.087784E+04 -1.331329E+05 -1.225174E+04 -1.041585E+04
       244   6  6.540670E+03  8.860944E+05  3.183191E+04 -1.492875E+05 -2.014918E+04 -2.085516E+04
       244   7  9.120547E+03  9.159624E+05  2.147525E+04 -1.475548E+05 -3.656600E+03  1.540499E+04
       244   8  4.256925E+04  1.059076E+06  5.077892E+04 -1.338755E+05 -1.228112E+04  3.716272E+03
       244   9  8.170767E+04  1.205004E+06  8.906455E+04 -1.525140E+05 -2.017507E+04 -7.972651E+03
       244  10 -4.161037E+03  8.562688E+05  1.461024E+04 -1.510375E+05  2.126229E-09  8.993907E-10
       244  11 -3.902627E+04  7.105826E+05 -9.024914E+03 -1.323908E+05  1.829147E-09 -4.721948E-09
       244  12 -6.863260E+04  5.672822E+05 -2.540693E+04 -1.460631E+05  7.994455E-10 -5.461861E-09
       244  13  2.479727E+03  8.861150E+05  1.804251E+04 -1.492962E+05  3.350542E-10 -2.112551E-09
       244  14  1.772218E+03  8.848142E+05  2.087736E+04 -1.331330E+05  2.188278E-09  2.301667E-10
       244  15  6.540117E+03  8.860938E+05  3.183033E+04 -1.492878E+05 -2.182967E-09 -6.078960E-10
       244  16  9.120469E+03  9.159622E+05  2.147478E+04 -1.475547E+05 -3.451625E-10  2.319671E-09
       244  17  4.256909E+04  1.059076E+06  5.077861E+04 -1.338755E+05 -1.325140E-09  2.426743E-11
       244  18  8.170722E+04  1.205004E+06  8.906367E+04 -1.525141E+05 -2.038047E-09  2.699728E-09
       244  19 -4.160960E+03  8.562690E+05  1.461071E+04 -1.510375E+05  3.590662E+03  1.535263E+04
       244  20 -3.902595E+04  7.105832E+05 -9.023502E+03 -1.323906E+05  1.222239E+04  2.454413E+04
       244  21 -6.863186E+04  5.672836E+05 -2.540404E+04 -1.460626E+05  2.012342E+04  3.373124E+04
       244  22  2.479741E+03  8.861150E+05  1.804253E+04 -1.492962E+05  3.623675E+03 -2.583346E+01
       244  23  1.772409E+03  8.848143E+05  2.087784E+04 -1.331329E+05  1.225174E+04  1.041585E+04
       244  24  6.540670E+03  8.860944E+05  3.183191E+04 -1.492875E+05  2.014918E+04  2.085516E+04
       244  25  9.120547E+03  9.159624E+05  2.147525E+04 -1.475548E+05  3.656600E+03 -1.540499E+04
       244  26  4.256925E+04  1.059076E+06  5.077892E+04 -1.338755E+05  1.228112E+04 -3.716272E+03
       244  27  8.170767E+04  1.205004E+06  8.906455E+04 -1.525140E+05  2.017507E+04  7.972651E+03
       245   1 -9.274284E+04  4.770455E+05 -3.465389E+04 -1.554856E+05 -2.550801E+04 -4.090744E+04
       245   2 -1.036800E+05  3.232263E+05 -3.987056E+04 -9.546401E+04 -2.547028E+04 -4.790560E+04
       245   3 -4.419454E+04  1.878592E+05 -2.294268E+04 -6.665892E+04 -8.178694E+03 -5.487362E+04
       245   4  4.889152E+03  8.907357E+05  4.028872E+04 -1.490706E+05 -2.553693E+04 -2.626262E+04
       245   5  2.965729E+04  8.789295E+05  7.063896E+04 -1.333494E+05 -2.543703E+04 -6.269784E+04
       245   6  1.299108E+05  8.906299E+05  1.435398E+05 -1.488345E+05 -8.089333E+03 -9.910562E+04
       245   7  1.025118E+05  1.304593E+06  1.152254E+05 -1.426510E+05 -2.556553E+04 -1.160831E+04
       245   8  1.629811E+05  1.434931E+06  1.811347E+05 -1.712693E+05 -2.540199E+04 -7.750303E+04
       245   9  3.040068E+05  1.593872E+06  3.099988E+05 -2.311033E+05 -7.988331E+03 -1.433874E+05
       245  10 -9.274399E+04  4.770436E+05 -3.465826E+04 -1.554865E+05  6.613329E-10  8.697193E-10
       245  11 -1.036813E+05  3.232236E+05 -3.987609E+04 -9.546499E+04  1.473533E-09 -3.767340E-09
       245  12 -4.419542E+04  1.878559E+05 -2.294846E+04 -6.665928E+04  2.549097E-10 -3.896559E-09
       245  13  4.888266E+03  8.907348E+05  4.028620E+04 -1.490711E+05  1.353726E-09 -1.871487E-09
       245  14  2.965554E+04  8.789251E+05  7.063037E+04 -1.333507E+05 -6.272411E-10 -8.042568E-12
       245  15  1.299081E+05  8.906194E+05  1.435212E+05 -1.488351E+05  7.056126E-10 -4.052241E-10
       245  16  1.025111E+05  1.304592E+06  1.152239E+05 -1.426513E+05 -1.073589E-09  2.015904E-09
       245  17  1.629788E+05  1.434924E+06  1.811222E+05 -1.712709E+05 -8.394883E-10 -4.748496E-10
       245  18  3.040012E+05  1.593850E+06  3.099602E+05 -2.311042E+05 -1.111684E-09  1.636760E-09
       245  19 -9.274284E+04  4.770455E+05 -3.465389E+04 -1.554856E+05  2.550801E+04  4.090744E+04
       245  20 -1.036800E+05  3.232263E+05 -3.987056E+04 -9.546401E+04  2.547028E+04  4.790560E+04
       245  21 -4.419454E+04  1.878592E+05 -2.294268E+04 -6.665892E+04  8.178694E+03  5.487362E+04
       245  22  4.889152E+03  8.907357E+05  4.028872E+04 -1.490706E+05  2.553693E+04  2.626262E+04
       245  23  2.965729E+04  8.789295E+05  7.063896E+04 -1.333494E+05  2.543703E+04  6.269784E+04
       245  24  1.299108E+05  8.906299E+05  1.435398E+05 -1.488345E+05  8.089333E+03  9.910562E+04
       245  25  1.025118E+05  1.304593E+06  1.152254E+05 -1.426510E+05  2.556553E+04  1.160831E+04
       245  26  1.629811E+05  1.434931E+06  1.811347E+05 -1.712693E+05  2.540199E+04  7.750303E+04
       245  27  3.040068E+05  1.593872E+06  3.099988E+05 -2.311033E+05  7.988331E+03  1.433874E+05
       246   1  1.370256E+06  4.397081E+05  2.164056E+05  4.869542E+05  5.766527E+04  4.804960E+03
       246   2  1.296013E+06  4.279681E+05  1.736315E+05  4.626808E+05  3.842005E+04 -4.178029E+04
       246   3  1.210343E+06  4.175140E+05  1.517863E+05  4.561657E+05  9.511708E+03 -6.271747E+04
       246   4  3.767583E+05  8.458626E+04 -3.617685E+04  2.325962E+05 -1.783598E+04 -2.368109E+04
       246   5  3.885512E+05  1.019892E+05 -1.674880E+04  2.184458E+05  3.919661E+03 -5.481107E+04
       246   6  3.807911E+05  1.125543E+05 -8.847775E+03  2.220565E+05  1.599946E+04 -6.027559E+04
       246   7 -6.157362E+05 -2.704784E+05 -2.888047E+05 -2.139300E+04 -9.320234E+04 -5.212177E+04
       246   8 -5.180537E+05 -2.239238E+05 -2.071644E+05 -2.546033E+04 -3.052575E+04 -6.782223E+04
       246   9 -4.480445E+05 -1.923395E+05 -1.695114E+05 -1.176183E+04  2.247792E+04 -5.783728E+04
       246  10  1.370252E+06  4.397072E+05  2.163993E+05  4.869540E+05 -2.409123E-09 -1.143283E-10
       246  11  1.296011E+06  4.279658E+05  1.736254E+05  4.626821E+05  2.064364E-09  1.093265E-09
       246  12  1.210342E+06  4.175097E+05  1.517788E+05  4.561662E+05  5.308239E-09  7.810739E-10
       246  13  3.767578E+05  8.458557E+04 -3.617850E+04  2.325958E+05  4.336976E-10  2.487252E-09
       246  14  3.885504E+05  1.019860E+05 -1.675447E+04  2.184460E+05  1.860468E-09 -1.627811E-09
       246  15  3.807899E+05  1.125503E+05 -8.855085E+03  2.220572E+05  2.417431E-09 -2.573085E-09
       246  16 -6.157462E+05 -2.704836E+05 -2.888262E+05 -2.139691E+04  7.689709E-10 -1.663855E-09
       246  17 -5.180559E+05 -2.239290E+05 -2.071748E+05 -2.546199E+04  1.031564E-09 -2.823901E-09
       246  18 -4.480460E+05 -1.923432E+05 -1.695186E+05 -1.176078E+04 -3.641488E-09 -3.971056E-09
       246  19  1.370256E+06  4.397081E+05  2.164056E+05  4.869542E+05 -5.766527E+04 -4.804960E+03
       246  20  1.296013E+06  4.279681E+05  1.736315E+05  4.626808E+05 -3.842005E+04  4.178029E+04
       246  21  1.210343E+06  4.175140E+05  1.517863E+05  4.561657E+05 -9.511708E+03  6.271747E+04
       246  22  3.767583E+05  8.458626E+04 -3.617685E+04  2.325962E+05  1.783598E+04  2.368109E+04
       246  23  3.885512E+05  1.019892E+05 -1.674880E+04  2.184458E+05 -3.919661E+03  5.481107E+04
       246  24  3.807911E+05  1.125543E+05 -8.847775E+03  2.220565E+05 -1.599946E+04  6.027559E+04
       246  25 -6.157362E+05 -2.704784E+05 -2.888047E+05 -2.139300E+04  9.320234E+04  5.212177E+04
       246  26 -5.180537E+05 -2.239238E+05 -2.071644E+05 -2.546033E+04  3.052575E+04  6.782223E+04
       246  27 -4.480445E+05 -1.923395E+05 -1.695114E+05 -1.176183E+04 -2.247792E+04  5.783728E+04
       247   1  1.163208E+06  3.971717E+05  1.433519E+05  4.412446E+05  1.345661E+04 -5.820750E+04
       247   2  1.095950E+06  3.647878E+05  1.292869E+05  4.136226E+05  1.101188E+04 -5.615255E+04
       247   3  1.016067E+06  3.449162E+05  1.162436E+05  4.006612E+05  7.797496E+03 -5.206805E+04
       247   4  3.815824E+05  1.123376E+05 -6.698659E+03  2.230265E+05  1.600765E+04 -5.725148E+04
       247   5  3.883283E+05  1.070557E+05 -3.536239E+03  2.154566E+05  1.680550E+04 -5.396945E+04
       247   6  3.818019E+05  1.136444E+05 -1.920719E+03  2.225468E+05  1.683307E+04 -4.865662E+04
       247   7 -3.994165E+05 -1.724438E+05 -1.567774E+05  5.060360E+03  1.855529E+04 -5.629675E+04
       247   8 -3.187744E+05 -1.506310E+05 -1.363802E+05  1.749924E+04  2.259208E+04 -5.178901E+04
       247   9 -2.520423E+05 -1.175893E+05 -1.201004E+05  4.460139E+04  2.585879E+04 -4.524893E+04
       247  10  1.163207E+06  3.971680E+05  1.433452E+05  4.412453E+05  8.625133E-09 -1.750024E-09
       247  11  1.095949E+06  3.647843E+05  1.292808E+05  4.136231E+05  5.357198E-09 -1.159734E-09
       247  12  1.016066E+06  3.449133E+05  1.162384E+05  4.006616E+05 -6.301041E-09  1.814191E-09
       247  13  3.815812E+05  1.123340E+05 -6.705301E+03  2.230272E+05  6.588335E-10 -2.207309E-09
       247  14  3.883272E+05  1.070525E+05 -3.542244E+03  2.154574E+05 -1.443323E-09  1.090791E-08
       247  15  3.818010E+05  1.136418E+05 -1.925701E+03  2.225475E+05 -6.849264E-09 -1.166571E-09
       247  16 -3.994177E+05 -1.724473E+05 -1.567840E+05  5.061201E+03 -2.905229E-09 -2.140960E-09
       247  17 -3.187757E+05 -1.506340E+05 -1.363862E+05  1.750018E+04 -2.327863E-09  3.079106E-09
       247  18 -2.520435E+05 -1.175917E+05 -1.201055E+05  4.460234E+04 -4.748652E-09 -6.716737E-09
       247  19  1.163208E+06  3.971717E+05  1.433519E+05  4.412446E+05 -1.345661E+04  5.820750E+04
       247  20  1.095950E+06  3.647878E+05  1.292869E+05  4.136226E+05 -1.101188E+04  5.615255E+04
       247  21  1.016067E+06  3.449162E+05  1.162436E+05  4.006612E+05 -7.797496E+03  5.206805E+04
       247  22  3.815824E+05  1.123376E+05 -6.698659E+03  2.230265E+05 -1.600765E+04  5.725148E+04
       247  23  3.883283E+05  1.070557E+05 -3.536239E+03  2.154566E+05 -1.680550E+04  5.396945E+04
       247  24  3.818019E+05  1.136444E+05 -1.920719E+03  2.225468E+05 -1.683307E+04  4.865662E+04
       247  25 -3.994165E+05 -1.724438E+05 -1.567774E+05  5.060360E+03 -1.855529E+04  5.629675E+04
       247  26 -3.187744E+05 -1.506310E+05 -1.363802E+05  1.749924E+04 -2.259208E+04  5.178901E+04
       247  27 -2.520423E+05 -1.175893E+05 -1.201004E+05  4.460139E+04 -2.585879E+04  4.524893E+04
       248   1  9.678254E+05  3.271435E+05  1.072945E+05  3.870843E+05  7.132038E+03 -4.853500E+04
       248   2  9.011291E+05  2.941578E+05  9.432719E+04  3.592980E+05  5.174738E+03 -4.295092E+04
       248   3  8.216128E+05  2.740274E+05  8.127253E+04  3.460646E+05  3.155425E+03 -3.721013E+04
       248   4  3.818715E+05  1.136476E+05 -1.438104E+03  2.226049E+05  1.584880E+04 -4.524262E+04
       248   5  3.883307E+05  1.072907E+05 -7.704648E+02  2.153178E+05  1.414177E+04 -3.956171E+04
       248   6  3.819130E+05  1.137396E+05 -3.895372E+02  2.225826E+05  1.237270E+04 -3.372398E+04
       248   7 -2.037177E+05 -9.981352E+04 -1.101820E+05  5.827119E+04  2.455670E+04 -4.195360E+04
       248   8 -1.241925E+05 -7.955134E+04 -9.587782E+04  7.144819E+04  2.310089E+04 -3.617550E+04
       248   9 -5.758856E+04 -4.653131E+04 -8.205979E+04  9.918074E+04  2.158308E+04 -3.024045E+04
       248  10  9.678247E+05  3.271409E+05  1.072900E+05  3.870846E+05  4.031433E-08  2.107542E-08
       248  11  9.011286E+05  2.941558E+05  9.432367E+04  3.592982E+05  6.323939E-09  1.488487E-08
       248  12  8.216124E+05  2.740259E+05  8.126991E+04  3.460647E+05 -4.058192E-08 -8.335409E-09
       248  13  3.818706E+05  1.136453E+05 -1.442423E+03  2.226055E+05 -1.766109E-09 -1.607030E-09
       248  14  3.883300E+05  1.072890E+05 -7.737825E+02  2.153183E+05  8.850356E-09 -9.959064E-10
       248  15  3.819125E+05  1.137383E+05 -3.919626E+02  2.225829E+05  1.648046E-09  5.621527E-09
       248  16 -2.037189E+05 -9.981557E+04 -1.101865E+05  5.827202E+04 -4.536130E-08 -1.475659E-08
       248  17 -1.241934E+05 -7.955288E+04 -9.588128E+04  7.144886E+04  1.203974E-08  1.249867E-08
       248  18 -5.758931E+04 -4.653242E+04 -8.206238E+04  9.918127E+04  4.682995E-08  1.919676E-08
       248  19  9.678254E+05  3.271435E+05  1.072945E+05  3.870843E+05 -7.132038E+03  4.853500E+04
       248  20  9.011291E+05  2.941578E+05  9.432719E+04  3.592980E+05 -5.174738E+03  4.295092E+04
       248  21  8.216128E+05  2.740274E+05  8.127253E+04  3.460646E+05 -3.155425E+03  3.721013E+04
       248  22  3.818715E+05  1.136476E+05 -1.438104E+03  2.226049E+05 -1.584880E+04  4.524262E+04
       248  23  3.883307E+05  1.072907E+05 -7.704648E+02  2.153178E+05 -1.414177E+04  3.956171E+04
       248  24  3.819130E+05  1.137396E+05 -3.895372E+02  2.225826E+05 -1.237270E+04  3.372398E+04
       248  25 -2.037177E+05 -9.981352E+04 -1.101820E+05  5.827119E+04 -2.455670E+04  4.195360E+04
       248  26 -1.241925E+05 -7.955134E+04 -9.587782E+04  7.144819E+04 -2.310089E+04  3.617550E+04
       248  27 -5.758856E+04 -4.653131E+04 -8.205979E+04  9.918074E+04 -2.158308E+04  3.024045E+04
       249   1  7.734392E+05  2.564129E+05  7.206987E+04  3.325642E+05  1.968563E+03 -3.381965E+04
       249   2  7.068899E+05  2.234612E+05  5.893235E+04  3.048015E+05 -1.884225E+02 -2.805500E+04
       249   3  6.275187E+05  2.033503E+05  4.578309E+04  2.915712E+05 -2.350599E+03 -2.228102E+04
       249   4  3.819298E+05  1.137453E+05 -2.670098E+02  2.225813E+05  1.115622E+04 -3.034362E+04
       249   5  3.883554E+05  1.073418E+05 -7.230351E+01  2.153139E+05  9.013936E+03 -2.457203E+04
       249   6  3.819499E+05  1.137756E+05  9.826092E+01  2.225768E+05  6.866466E+03 -1.879111E+04
       249   7 -9.418718E+03 -2.890746E+04 -7.260927E+04  1.126630E+05  2.033768E+04 -2.686995E+04
       249   8  6.992886E+04 -8.767183E+03 -5.908002E+04  1.258694E+05  1.821120E+04 -2.109099E+04
       249   9  1.364466E+05  2.420766E+04 -4.558788E+04  1.536084E+05  1.607955E+04 -1.530270E+04
       249  10  7.734389E+05  2.564116E+05  7.206771E+04  3.325643E+05  1.370004E-09  3.396430E-09
       249  11  7.068897E+05  2.234603E+05  5.893087E+04  3.048015E+05 -3.885737E-09  9.070655E-10
       249  12  6.275186E+05  2.033498E+05  4.578214E+04  2.915711E+05 -6.757419E-09  2.247106E-09
       249  13  3.819295E+05  1.137443E+05 -2.689744E+02  2.225816E+05  1.195771E-09  5.687231E-10
       249  14  3.883551E+05  1.073411E+05 -7.359112E+01  2.153140E+05 -1.559123E-09  4.127084E-09
       249  15  3.819497E+05  1.137752E+05  9.750859E+01  2.225769E+05 -1.332632E-09 -8.387334E-11
       249  16 -9.419357E+03 -2.890834E+04 -7.261141E+04  1.126634E+05 -3.034943E-09  3.962287E-09
       249  17  6.992838E+04 -8.767750E+03 -5.908148E+04  1.258697E+05  1.200750E-09 -2.808917E-09
       249  18  1.364463E+05  2.420734E+04 -4.558880E+04  1.536086E+05  4.703662E-09  5.093476E-09
       249  19  7.734392E+05  2.564129E+05  7.206987E+04  3.325642E+05 -1.968563E+03  3.381965E+04
       249  20  7.068899E+05  2.234612E+05  5.893235E+04  3.048015E+05  1.884225E+02  2.805500E+04
       249  21  6.275187E+05  2.033503E+05  4.578309E+04  2.915712E+05  2.350599E+03  2.228102E+04
       249  22  3.819298E+05  1.137453E+05 -2.670098E+02  2.225813E+05 -1.115622E+04  3.034362E+04
       249  23  3.883554E+05  1.073418E+05 -7.230351E+01  2.153139E+05 -9.013936E+03  2.457203E+04
       249  24  3.819499E+05  1.137756E+05  9.826092E+01  2.225768E+05 -6.866466E+03  1.879111E+04
       249  25 -9.418718E+03 -2.890746E+04 -7.260927E+04  1.126630E+05 -2.033768E+04  2.686995E+04
       249  26  6.992886E+04 -8.767183E+03 -5.908002E+04  1.258694E+05 -1.821120E+04  2.109099E+04
       249  27  1.364466E+05  2.420766E+04 -4.558788E+04  1.536084E+05 -1.607955E+04  1.530270E+04
       250   1  5.794119E+05  1.857517E+05  3.656338E+04  2.780869E+05 -3.642950E+03 -1.892980E+04
       250   2  5.129164E+05  1.528107E+05  2.350411E+04  2.503555E+05 -6.029791E+03 -1.324073E+04
       250   3  4.336237E+05  1.327076E+05  1.059688E+04  2.371505E+05 -8.414475E+03 -7.558977E+03
       250   4  3.819629E+05  1.137791E+05  1.883392E+02  2.225769E+05  5.570305E+03 -1.544076E+04
       250   5  3.883649E+05  1.073573E+05  4.331528E+02  2.153163E+05  3.171459E+03 -9.755664E+03
       250   6  3.819679E+05  1.137758E+05  8.396456E+02  2.225806E+05  7.747482E+02 -4.077912E+03
       250   7  1.845530E+05  4.180956E+04 -3.618832E+04  1.670829E+05  1.478052E+04 -1.195287E+04
       250   8  2.638293E+05  6.190513E+04 -2.263820E+04  1.802836E+05  1.237078E+04 -6.271332E+03
       250   9  3.303151E+05  9.484439E+04 -8.917337E+03  2.080119E+05  9.963157E+03 -5.971591E+02
       250  10  5.794118E+05  1.857513E+05  3.656268E+04  2.780868E+05  6.673247E-09  6.200120E-09
       250  11  5.129163E+05  1.528105E+05  2.350371E+04  2.503554E+05 -2.853258E-09 -1.091890E-09
       250  12  4.336236E+05  1.327075E+05  1.059664E+04  2.371504E+05 -1.547874E-08 -1.094129E-08
       250  13  3.819628E+05  1.137788E+05  1.878327E+02  2.225770E+05 -8.964971E-10  3.107843E-09
       250  14  3.883649E+05  1.073572E+05  4.329550E+02  2.153163E+05 -2.000694E-09 -1.919753E-09
       250  15  3.819679E+05  1.137758E+05  8.396132E+02  2.225806E+05 -2.434057E-09 -2.154780E-10
       250  16  1.845527E+05  4.180935E+04 -3.618900E+04  1.670831E+05 -6.265402E-09  1.695432E-09
       250  17  2.638291E+05  6.190505E+04 -2.263856E+04  1.802837E+05  3.386548E-09  4.420209E-09
       250  18  3.303150E+05  9.484436E+04 -8.917524E+03  2.080119E+05  1.264000E-08 -4.580490E-10
       250  19  5.794119E+05  1.857517E+05  3.656338E+04  2.780869E+05  3.642950E+03  1.892980E+04
       250  20  5.129164E+05  1.528107E+05  2.350411E+04  2.503555E+05  6.029791E+03  1.324073E+04
       250  21  4.336237E+05  1.327076E+05  1.059688E+04  2.371505E+05  8.414475E+03  7.558977E+03
       250  22  3.819629E+05  1.137791E+05  1.883392E+02  2.225769E+05 -5.570305E+03  1.544076E+04
       250  23  3.883649E+05  1.073573E+05  4.331528E+02  2.153163E+05 -3.171459E+03  9.755664E+03
       250  24  3.819679E+05  1.137758E+05  8.396456E+02  2.225806E+05 -7.747482E+02  4.077912E+03
       250  25  1.845530E+05  4.180956E+04 -3.618832E+04  1.670829E+05 -1.478052E+04  1.195287E+04
       250  26  2.638293E+05  6.190513E+04 -2.263820E+04  1.802836E+05 -1.237078E+04  6.271332E+03
       250  27  3.303151E+05  9.484439E+04 -8.917337E+03  2.080119E+05 -9.963157E+03  5.971591E+02
       251   1  3.855537E+05  1.151233E+05  1.582598E+03  2.237057E+05 -9.862121E+03 -4.270240E+03
       251   2  3.189957E+05  8.216727E+04 -1.083134E+04  1.959906E+05 -1.291961E+04  1.112170E+03
       251   3  2.397685E+05  6.214037E+04 -2.255880E+04  1.828068E+05 -1.594284E+04  6.405632E+03
       251   4  3.819980E+05  1.137704E+05  1.133187E+03  2.225937E+05 -6.600146E+02 -7.842330E+02
       251   5  3.883234E+05  1.073201E+05  2.074858E+03  2.153177E+05 -3.860357E+03  4.543747E+03
       251   6  3.820019E+05  1.138264E+05  3.815787E+03  2.225706E+05 -7.026565E+03  9.782772E+03
       251   7  3.784426E+05  1.124175E+05  6.841489E+02  2.214817E+05  8.541954E+03  2.701718E+03
       251   8  4.576564E+05  1.324734E+05  1.498122E+04  2.346468E+05  5.199982E+03  7.975730E+03
       251   9  5.242581E+05  1.655148E+05  3.019031E+04  2.623432E+05  1.891974E+03  1.316076E+04
       251  10  3.855536E+05  1.151233E+05  1.582381E+03  2.237057E+05  1.508112E-08 -2.557275E-09
       251  11  3.189955E+05  8.216722E+04 -1.083165E+04  1.959906E+05  7.948487E-09  1.178089E-09
       251  12  2.397682E+05  6.214026E+04 -2.255935E+04  1.828069E+05 -2.986621E-09 -3.538803E-09
       251  13  3.819980E+05  1.137704E+05  1.133185E+03  2.225937E+05 -1.569841E-09  4.281149E-10
       251  14  3.883234E+05  1.073201E+05  2.074791E+03  2.153177E+05  4.335756E-09  6.538693E-10
       251  15  3.820019E+05  1.138263E+05  3.815514E+03  2.225706E+05 -8.410317E-11 -9.418449E-09
       251  16  3.784425E+05  1.124174E+05  6.839982E+02  2.214816E+05 -1.814571E-08 -1.086525E-08
       251  17  4.576563E+05  1.324734E+05  1.498105E+04  2.346468E+05 -4.576042E-09  3.864974E-09
       251  18  5.242580E+05  1.655147E+05  3.018997E+04  2.623431E+05  4.816771E-09  2.283479E-09
       251  19  3.855537E+05  1.151233E+05  1.582598E+03  2.237057E+05  9.862121E+03  4.270240E+03
       251  20  3.189957E+05  8.216727E+04 -1.083134E+04  1.959906E+05  1.291961E+04 -1.112170E+03
       251  21  2.397685E+05  6.214037E+04 -2.255880E+04  1.828068E+05  1.594284E+04 -6.405632E+03
       251  22  3.819980E+05  1.137704E+05  1.133187E+03  2.225937E+05  6.600146E+02  7.842330E+02
       251  23  3.883234E+05  1.073201E+05  2.074858E+03  2.153177E+05  3.860357E+03 -4.543747E+03
       251  24  3.820019E+05  1.138264E+05  3.815787E+03  2.225706E+05  7.026565E+03 -9.782772E+03
       251  25  3.784426E+05  1.124175E+05  6.841489E+02  2.214817E+05 -8.541954E+03 -2.701718E+03
       251  26  4.576564E+05  1.324734E+05  1.498122E+04  2.346468E+05 -5.199982E+03 -7.975730E+03
       251  27  5.242581E+05  1.655148E+05  3.019031E+04  2.623432E+05 -1.891974E+03 -1.316076E+04
       252   1  1.915786E+05  4.470102E+04 -3.064833E+04  1.697404E+05 -1.808469E+04  9.398730E+03
       252   2  1.253237E+05  1.140365E+04 -4.046124E+04  1.409770E+05 -2.290461E+04  1.344235E+04
       252   3  4.745540E+04 -7.023995E+03 -4.757099E+04  1.262645E+05 -2.729643E+04  1.635956E+04
       252   4  3.822218E+05  1.137408E+05  5.086502E+03  2.226855E+05 -8.994769E+03  1.284124E+04
       252   5  3.880743E+05  1.077178E+05  9.301128E+03  2.150565E+05 -1.561522E+04  1.620187E+04
       252   6  3.826638E+05  1.169195E+05  1.764477E+04  2.214755E+05 -2.180801E+04  1.843623E+04
       252   7  5.729031E+05  1.827838E+05  4.082023E+04  2.756457E+05  9.814133E+01  1.628487E+04
       252   8  6.508958E+05  2.040382E+05  5.906054E+04  2.891648E+05 -8.322559E+03  1.896264E+04
       252   9  7.179858E+05  2.408728E+05  8.285478E+04  3.167335E+05 -1.631646E+04  2.051411E+04
       252  10  1.915782E+05  4.470084E+04 -3.064912E+04  1.697406E+05 -2.766015E-09  4.180442E-09
       252  11  1.253231E+05  1.140331E+04 -4.046256E+04  1.409773E+05 -2.643826E-09 -4.434381E-09
       252  12  4.745453E+04 -7.024483E+03 -4.757289E+04  1.262648E+05  4.402422E-09  1.073514E-08
       252  13  3.822217E+05  1.137406E+05  5.086040E+03  2.226856E+05  6.164339E-11  4.449930E-10
       252  14  3.880740E+05  1.077175E+05  9.300176E+03  2.150567E+05  1.035652E-09 -3.113992E-09
       252  15  3.826632E+05  1.169190E+05  1.764323E+04  2.214758E+05 -1.230905E-11 -2.556271E-09
       252  16  5.729030E+05  1.827835E+05  4.081974E+04  2.756457E+05  2.389033E-09  9.800302E-10
       252  17  6.508956E+05  2.040378E+05  5.905973E+04  2.891650E+05 -2.626142E-09 -6.879800E-11
       252  18  7.179854E+05  2.408722E+05  8.285348E+04  3.167338E+05 -4.584090E-09  8.159187E-10
       252  19  1.915786E+05  4.470102E+04 -3.064833E+04  1.697404E+05  1.808469E+04 -9.398730E+03
       252  20  1.253237E+05  1.140365E+04 -4.046124E+04  1.409770E+05  2.290461E+04 -1.344235E+04
       252  21  4.745540E+04 -7.023995E+03 -4.757099E+04  1.262645E+05  2.729643E+04 -1.635956E+04
       252  22  3.822218E+05  1.137408E+05  5.086502E+03  2.226855E+05  8.994769E+03 -1.284124E+04
       252  23  3.880743E+05  1.077178E+05  9.301128E+03  2.150565E+05  1.561522E+04 -1.620187E+04
       252  24  3.826638E+05  1.169195E+05  1.764477E+04  2.214755E+05  2.180801E+04 -1.843623E+04
       252  25  5.729031E+05  1.827838E+05  4.082023E+04  2.756457E+05 -9.814133E+01 -1.628487E+04
       252  26  6.508958E+05  2.040382E+05  5.906054E+04  2.891648E+05  8.322559E+03 -1.896264E+04
       252  27  7.179858E+05  2.408728E+05  8.285478E+04  3.167335E+05  1.631646E+04 -2.051411E+04
       253   1 -3.386354E+03 -2.155531E+04 -5.189693E+04  1.198078E+05 -3.324208E+04  1.748624E+04
       253   2 -5.474283E+04 -6.206588E+04 -5.353642E+04  6.382900E+04 -3.267990E+04  1.506973E+04
       253   3 -1.013081E+05 -4.607756E+04 -4.269822E+04  9.455184E+03 -2.673969E+04 -1.565464E+03
       253   4  3.855525E+05  1.154447E+05  2.331102E+04  2.231117E+05 -2.558053E+04  2.038525E+04
       253   5  3.861752E+05  1.217942E+05  4.406359E+04  2.083599E+05 -4.771353E+04  9.377110E+03
       253   6  3.960687E+05  1.891153E+05  9.527574E+04  1.952144E+05 -6.447184E+04 -1.584482E+04
       253   7  7.746534E+05  2.524575E+05  9.851404E+04  3.264756E+05 -1.791372E+04  2.328608E+04
       253   8  8.272930E+05  3.056861E+05  1.416526E+05  3.529907E+05 -6.275861E+04  3.678864E+03
       253   9  8.936875E+05  4.243661E+05  2.332309E+05  3.811202E+05 -1.022364E+05 -3.014371E+04
       253  10 -3.387623E+03 -2.155593E+04 -5.189958E+04  1.198083E+05  6.336416E-09  1.438599E-09
       253  11 -5.474404E+04 -6.206641E+04 -5.353885E+04  6.382939E+04  5.033904E-09  4.619640E-09
       253  12 -1.013089E+05 -4.607776E+04 -4.269957E+04  9.455150E+03 -5.331617E-10  7.103599E-10
       253  13  3.855517E+05  1.154440E+05  2.330901E+04  2.231121E+05  1.909311E-09 -4.658977E-10
       253  14  3.861728E+05  1.217935E+05  4.405914E+04  2.083603E+05 -3.142506E-10  8.682107E-10
       253  15  3.960641E+05  1.891140E+05  9.526746E+04  1.952135E+05 -3.357164E-10  1.592632E-09
       253  16  7.746529E+05  2.524568E+05  9.851242E+04  3.264760E+05 -8.554837E-09 -4.007033E-09
       253  17  8.272888E+05  3.056850E+05  1.416452E+05  3.529909E+05 -5.655863E-09 -9.880934E-09
       253  18  8.936760E+05  4.243623E+05  2.332096E+05  3.811177E+05  9.063503E-10  4.973859E-10
       253  19 -3.386354E+03 -2.155531E+04 -5.189693E+04  1.198078E+05  3.324208E+04 -1.748624E+04
       253  20 -5.474283E+04 -6.206588E+04 -5.353642E+04  6.382900E+04  3.267990E+04 -1.506973E+04
       253  21 -1.013081E+05 -4.607756E+04 -4.269822E+04  9.455184E+03  2.673969E+04  1.565464E+03
       253  22  3.855525E+05  1.154447E+05  2.331102E+04  2.231117E+05  2.558053E+04 -2.038525E+04
       253  23  3.861752E+05  1.217942E+05  4.406359E+04  2.083599E+05  4.771353E+04 -9.377110E+03
       253  24  3.960687E+05  1.891153E+05  9.527574E+04  1.952144E+05  6.447184E+04  1.584482E+04
       253  25  7.746534E+05  2.524575E+05  9.851404E+04  3.264756E+05  1.791372E+04 -2.328608E+04
       253  26  8.272930E+05  3.056861E+05  1.416526E+05  3.529907E+05  6.275861E+04 -3.678864E+03
       253  27  8.936875E+05  4.243661E+05  2.332309E+05  3.811202E+05  1.022364E+05  3.014371E+04
       254   1  1.242649E+05  1.073437E+04  6.118059E+03  3.158665E+02 -1.208897E+04 -1.369101E+03
       254   2  1.144246E+05  2.642361E+04  1.384565E+04  1.769173E+03 -8.878656E+03 -4.052833E+03
       254   3  9.934764E+04  2.304169E+04  1.471160E+04  9.883103E+03 -5.678622E+03 -3.847762E+03
       254   4  9.979769E+03 -1.765358E+04 -2.183774E+04  7.105790E+03 -1.496851E+04 -1.379401E+03
       254   5  1.277354E+04  1.395992E+03 -9.739434E+03  3.742308E+03 -9.748138E+03 -4.056011E+03
       254   6  9.980532E+03  1.023643E+03 -5.899506E+03  7.039584E+03 -4.537961E+03 -3.843656E+03
       254   7 -1.042933E+05 -4.604230E+04 -4.979443E+04  1.389445E+04 -1.784752E+04 -1.389764E+03
       254   8 -8.886798E+04 -2.363234E+04 -3.332521E+04  5.715110E+03 -1.061748E+04 -4.059194E+03
       254   9 -7.937917E+04 -2.099493E+04 -2.651113E+04  4.196471E+03 -3.397463E+03 -3.839560E+03
       254  10  1.242647E+05  1.073433E+04  6.117781E+03  3.158532E+02 -6.962131E-09  1.685593E-09
       254  11  1.144245E+05  2.642358E+04  1.384547E+04  1.769144E+03 -2.026634E-09  9.514234E-09
       254  12  9.934760E+04  2.304166E+04  1.471151E+04  9.883085E+03  1.153182E-09  6.175050E-09
       254  13  9.979528E+03 -1.765364E+04 -2.183816E+04  7.105773E+03 -3.106789E-09 -4.277325E-09
       254  14  1.277344E+04  1.395949E+03 -9.739643E+03  3.742277E+03 -1.638630E-09 -1.174996E-08
       254  15  9.980506E+03  1.023622E+03 -5.899573E+03  7.039570E+03 -3.854188E-09  2.288606E-11
       254  16 -1.042937E+05 -4.604239E+04 -4.979504E+04  1.389443E+04  6.363817E-09  2.339876E-09
       254  17 -8.886810E+04 -2.363239E+04 -3.332545E+04  5.715075E+03  7.239506E-10  1.323071E-08
       254  18 -7.937919E+04 -2.099495E+04 -2.651118E+04  4.196460E+03 -2.596926E-09 -8.648526E-10
       254  19  1.242649E+05  1.073437E+04  6.118059E+03  3.158665E+02  1.208897E+04  1.369101E+03
       254  20  1.144246E+05  2.642361E+04  1.384565E+04  1.769173E+03  8.878656E+03  4.052833E+03
       254  21  9.934764E+04  2.304169E+04  1.471160E+04  9.883103E+03  5.678622E+03  3.847762E+03
       254  22  9.979769E+03 -1.765358E+04 -2.183774E+04  7.105790E+03  1.496851E+04  1.379401E+03
       254  23  1.277354E+04  1.395992E+03 -9.739434E+03  3.742308E+03  9.748138E+03  4.056011E+03
       254  24  9.980532E+03  1.023643E+03 -5.899506E+03  7.039584E+03  4.537961E+03  3.843656E+03
       254  25 -1.042933E+05 -4.604230E+04 -4.979443E+04  1.389445E+04  1.784752E+04  1.389764E+03
       254  26 -8.886798E+04 -2.363234E+04 -3.332521E+04  5.715110E+03  1.061748E+04  4.059194E+03
       254  27 -7.937917E+04 -2.099493E+04 -2.651113E+04  4.196471E+03  3.397463E+03  3.839560E+03
       255   1  8.824111E+04  1.767201E+04  1.311159E+04  6.822687E+03 -3.913411E+03 -3.144619E+03
       255   2  7.613552E+04  1.609134E+04  1.246381E+04  3.777717E+03 -2.751538E+03 -2.709152E+03
       255   3  6.345000E+04  1.303024E+04  1.067692E+04  7.445192E+03 -1.590300E+03 -2.126051E+03
       255   4  1.108955E+04 -1.327824E+03 -4.756102E+03  7.073676E+03 -3.664318E+03 -3.143744E+03
       255   5  1.138885E+04  1.503508E+02 -2.498979E+03  3.714764E+03 -2.399830E+03 -2.707885E+03
       255   6  1.108998E+04  1.301517E+02 -1.452377E+03  7.068352E+03 -1.135955E+03 -2.124386E+03
       255   7 -6.605650E+04 -2.032807E+04 -2.262419E+04  7.324628E+03 -3.415256E+03 -3.142868E+03
       255   8 -5.335395E+04 -1.579093E+04 -1.746205E+04  3.651815E+03 -2.048158E+03 -2.706618E+03
       255   9 -4.126750E+04 -1.277013E+04 -1.358186E+04  6.691543E+03 -6.816484E+02 -2.122722E+03
       255  10  8.824109E+04  1.767199E+04  1.311154E+04  6.822678E+03 -3.482130E-09 -4.377261E-09
       255  11  7.613551E+04  1.609133E+04  1.246378E+04  3.777711E+03 -1.663099E-09  1.700360E-09
       255  12  6.345000E+04  1.303024E+04  1.067691E+04  7.445189E+03 -5.899670E-10  1.189961E-08
       255  13  1.108954E+04 -1.327838E+03 -4.756146E+03  7.073667E+03 -9.867092E-10  1.190299E-08
       255  14  1.138884E+04  1.503414E+02 -2.499004E+03  3.714759E+03 -1.060934E-09 -2.219376E-08
       255  15  1.108998E+04  1.301465E+02 -1.452388E+03  7.068350E+03 -7.591385E-10  1.070205E-08
       255  16 -6.605652E+04 -2.032809E+04 -2.262423E+04  7.324619E+03  2.685240E-09 -9.587200E-09
       255  17 -5.335396E+04 -1.579094E+04 -1.746207E+04  3.651810E+03  8.297274E-10 -4.123799E-09
       255  18 -4.126750E+04 -1.277014E+04 -1.358187E+04  6.691542E+03  4.161854E-10 -1.127974E-09
       255  19  8.824111E+04  1.767201E+04  1.311159E+04  6.822687E+03  3.913411E+03  3.144619E+03
       255  20  7.613552E+04  1.609134E+04  1.246381E+04  3.777717E+03  2.751538E+03  2.709152E+03
       255  21  6.345000E+04  1.303024E+04  1.067692E+04  7.445192E+03  1.590300E+03  2.126051E+03
       255  22  1.108955E+04 -1.327824E+03 -4.756102E+03  7.073676E+03  3.664318E+03  3.143744E+03
       255  23  1.138885E+04  1.503508E+02 -2.498979E+03  3.714764E+03  2.399830E+03  2.707885E+03
       255  24  1.108998E+04  1.301517E+02 -1.452377E+03  7.068352E+03  1.135955E+03  2.124386E+03
       255  25 -6.605650E+04 -2.032807E+04 -2.262419E+04  7.324628E+03  3.415256E+03  3.142868E+03
       255  26 -5.335395E+04 -1.579093E+04 -1.746205E+04  3.651815E+03  2.048158E+03  2.706618E+03
       255  27 -4.126750E+04 -1.277013E+04 -1.358186E+04  6.691543E+03  6.816484E+02  2.122722E+03
       256   1  5.136307E+04  9.832435E+03  8.129102E+03  7.171370E+03 -1.319998E+03 -1.758331E+03
       256   2  3.903262E+04  6.879836E+03  5.808549E+03  3.797957E+03 -1.024259E+03 -1.166263E+03
       256   3  2.658361E+04  3.854893E+03  3.263581E+03  7.138901E+03 -7.285771E+02 -5.666673E+02
       256   4  1.119664E+04 -5.031158E+01 -1.117700E+03  7.070587E+03 -9.112485E+02 -1.756826E+03
       256   5  1.125645E+04  4.091942E+01 -6.086407E+02  3.713193E+03 -6.102898E+02 -1.164731E+03
       256   6  1.119683E+04  5.894982E+01 -3.275813E+02  7.070174E+03 -3.093812E+02 -5.651064E+02
       256   7 -2.896829E+04 -9.933171E+03 -1.036461E+04  6.969809E+03 -5.025256E+02 -1.755321E+03
       256   8 -1.651900E+04 -6.798051E+03 -7.025881E+03  3.628432E+03 -1.963386E+02 -1.163198E+03
       256   9 -4.189741E+03 -3.737010E+03 -3.918759E+03  7.001449E+03  1.098043E+02 -5.635456E+02
       256  10  5.136307E+04  9.832431E+03  8.129093E+03  7.171368E+03 -2.822472E-09 -3.314199E-09
       256  11  3.903262E+04  6.879834E+03  5.808544E+03  3.797956E+03 -1.159654E-09 -9.213586E-09
       256  12  2.658361E+04  3.854893E+03  3.263579E+03  7.138901E+03  1.521776E-09 -4.275269E-09
       256  13  1.119664E+04 -5.031511E+01 -1.117707E+03  7.070585E+03  7.989628E-11  1.228208E-09
       256  14  1.125645E+04  4.091786E+01 -6.086440E+02  3.713193E+03 -5.525816E-10 -9.003796E-09
       256  15  1.119683E+04  5.894945E+01 -3.275821E+02  7.070174E+03 -1.586250E-09 -2.847920E-09
       256  16 -2.896829E+04 -9.933174E+03 -1.036461E+04  6.969808E+03  2.280634E-09 -9.213651E-09
       256  17 -1.651900E+04 -6.798053E+03 -7.025884E+03  3.628432E+03  3.235075E-09  4.802810E-09
       256  18 -4.189741E+03 -3.737010E+03 -3.918759E+03  7.001449E+03 -2.153663E-09  1.302994E-08
       256  19  5.136307E+04  9.832435E+03  8.129102E+03  7.171370E+03  1.319998E+03  1.758331E+03
       256  20  3.903262E+04  6.879836E+03  5.808549E+03  3.797957E+03  1.024259E+03  1.166263E+03
       256  21  2.658361E+04  3.854893E+03  3.263581E+03  7.138901E+03  7.285771E+02  5.666673E+02
       256  22  1.119664E+04 -5.031158E+01 -1.117700E+03  7.070587E+03  9.112485E+02  1.756826E+03
       256  23  1.125645E+04  4.091942E+01 -6.086407E+02  3.713193E+03  6.102898E+02  1.164731E+03
       256  24  1.119683E+04  5.894982E+01 -3.275813E+02  7.070174E+03  3.093812E+02  5.651064E+02
       256  25 -2.896829E+04 -9.933171E+03 -1.036461E+04  6.969809E+03  5.025256E+02  1.755321E+03
       256  26 -1.651900E+04 -6.798051E+03 -7.025881E+03  3.628432E+03  1.963386E+02  1.163198E+03
       256  27 -4.189741E+03 -3.737010E+03 -3.918759E+03  7.001449E+03 -1.098043E+02  5.635456E+02
       257   1  1.440576E+04  8.257411E+02  4.715959E+02  7.085870E+03 -6.774980E+02 -2.166282E+02
       257   2  2.045038E+03 -2.234718E+03 -2.200443E+03  3.694570E+03 -6.420611E+02  3.826322E+02
       257   3 -1.037231E+04 -5.253650E+03 -4.899093E+03  7.017316E+03 -6.066173E+02  9.822505E+02
       257   4  1.121080E+04  4.631170E+01 -2.301396E+02  7.070239E+03 -2.606329E+02 -2.150742E+02
       257   5  1.123917E+04  2.896092E+01 -7.637672E+01  3.713203E+03 -2.249519E+02  3.841840E+02
       257   6  1.121074E+04  5.310319E+01  5.060994E+01  7.070206E+03 -1.892633E+02  9.838007E+02
       257   7  8.015848E+03 -7.331183E+02 -9.318751E+02  7.054608E+03  1.562301E+02 -2.135202E+02
       257   8  2.043339E+04  2.292634E+03  2.047685E+03  3.731836E+03  1.921634E+02  3.857359E+02
       257   9  3.279421E+04  5.359825E+03  5.000283E+03  7.123097E+03  2.281051E+02  9.853510E+02
       257  10  1.440576E+04  8.257409E+02  4.715950E+02  7.085870E+03  5.331131E-09 -1.052489E-08
       257  11  2.045038E+03 -2.234718E+03 -2.200444E+03  3.694570E+03 -6.551985E-09  2.177238E-09
       257  12 -1.037231E+04 -5.253652E+03 -4.899096E+03  7.017316E+03 -1.505961E-08 -1.555060E-09
       257  13  1.121080E+04  4.631163E+01 -2.301398E+02  7.070239E+03 -2.090501E-09  5.842313E-09
       257  14  1.123917E+04  2.896074E+01 -7.637709E+01  3.713203E+03  1.083923E-09 -3.760325E-09
       257  15  1.121074E+04  5.310214E+01  5.060805E+01  7.070206E+03  1.250134E-09 -5.280464E-09
       257  16  8.015848E+03 -7.331183E+02 -9.318752E+02  7.054608E+03 -7.505923E-09  4.512316E-09
       257  17  2.043339E+04  2.292634E+03  2.047684E+03  3.731836E+03  7.041988E-09  9.182082E-09
       257  18  3.279421E+04  5.359823E+03  5.000281E+03  7.123097E+03  1.380595E-08  9.817990E-10
       257  19  1.440576E+04  8.257411E+02  4.715959E+02  7.085870E+03  6.774980E+02  2.166282E+02
       257  20  2.045038E+03 -2.234718E+03 -2.200443E+03  3.694570E+03  6.420611E+02 -3.826322E+02
       257  21 -1.037231E+04 -5.253650E+03 -4.899093E+03  7.017316E+03  6.066173E+02 -9.822505E+02
       257  22  1.121080E+04  4.631170E+01 -2.301396E+02  7.070239E+03  2.606329E+02  2.150742E+02
       257  23  1.123917E+04  2.896092E+01 -7.637672E+01  3.713203E+03  2.249519E+02 -3.841840E+02
       257  24  1.121074E+04  5.310319E+01  5.060994E+01  7.070206E+03  1.892633E+02 -9.838007E+02
       257  25  8.015848E+03 -7.331183E+02 -9.318751E+02  7.054608E+03 -1.562301E+02  2.135202E+02
       257  26  2.043339E+04  2.292634E+03  2.047685E+03  3.731836E+03 -1.921634E+02 -3.857359E+02
       257  27  3.279421E+04  5.359825E+03  5.000283E+03  7.123097E+03 -2.281051E+02 -9.853510E+02
       258   1 -2.255716E+04 -8.271977E+03 -7.722374E+03  6.984943E+03 -6.231600E+02  1.331255E+03
       258   2 -3.493406E+04 -1.134314E+04 -1.038189E+04  3.595131E+03 -7.653961E+02  1.930235E+03
       258   3 -4.733577E+04 -1.434568E+04 -1.294516E+04  6.920229E+03 -9.075804E+02  2.528694E+03
       258   4  1.121762E+04  5.128445E+01  1.171861E+02  7.070418E+03 -2.057484E+02  1.332800E+03
       258   5  1.123000E+04  2.336302E+01  2.834878E+02  3.712951E+03 -3.483641E+02  1.931764E+03
       258   6  1.121731E+04  6.409741E+01  5.462514E+02  7.070362E+03 -4.909307E+02  2.530208E+03
       258   7  4.499345E+04  8.374465E+03  7.956671E+03  7.155898E+03  2.116856E+02  1.334345E+03
       258   8  5.739603E+04  1.138972E+04  1.094872E+04  3.830778E+03  6.869868E+01  1.933293E+03
       258   9  6.977356E+04  1.447363E+04  1.403743E+04  7.220506E+03 -7.424204E+01  2.531721E+03
       258  10 -2.255716E+04 -8.271979E+03 -7.722379E+03  6.984944E+03  2.915742E-09  8.562664E-10
       258  11 -3.493406E+04 -1.134315E+04 -1.038190E+04  3.595132E+03  1.260730E-10 -6.015448E-09
       258  12 -4.733577E+04 -1.434568E+04 -1.294517E+04  6.920231E+03 -8.100672E-09 -2.320002E-09
       258  13  1.121762E+04  5.128253E+01  1.171827E+02  7.070419E+03 -2.090978E-09  4.458555E-09
       258  14  1.123000E+04  2.335898E+01  2.834805E+02  3.712951E+03 -1.599364E-09 -2.219110E-09
       258  15  1.121731E+04  6.409047E+01  5.462389E+02  7.070363E+03 -1.410321E-09 -4.232241E-09
       258  16  4.499345E+04  8.374463E+03  7.956667E+03  7.155897E+03 -2.656894E-09 -4.925487E-09
       258  17  5.739603E+04  1.138971E+04  1.094872E+04  3.830778E+03 -3.965266E-10 -1.787473E-08
       258  18  6.977356E+04  1.447362E+04  1.403742E+04  7.220507E+03  7.284926E-09 -1.040888E-08
       258  19 -2.255716E+04 -8.271977E+03 -7.722374E+03  6.984943E+03  6.231600E+02 -1.331255E+03
       258  20 -3.493406E+04 -1.134314E+04 -1.038189E+04  3.595131E+03  7.653961E+02 -1.930235E+03
       258  21 -4.733577E+04 -1.434568E+04 -1.294516E+04  6.920229E+03  9.075804E+02 -2.528694E+03
       258  22  1.121762E+04  5.128445E+01  1.171861E+02  7.070418E+03  2.057484E+02 -1.332800E+03
       258  23  1.123000E+04  2.336302E+01  2.834878E+02  3.712951E+03  3.483641E+02 -1.931764E+03
       258  24  1.121731E+04  6.409741E+01  5.462514E+02  7.070362E+03  4.909307E+02 -2.530208E+03
       258  25  4.499345E+04  8.374465E+03  7.956671E+03  7.155898E+03 -2.116856E+02 -1.334345E+03
       258  26  5.739603E+04  1.138972E+04  1.094872E+04  3.830778E+03 -6.869868E+01 -1.933293E+03
       258  27  6.977356E+04  1.447363E+04  1.403743E+04  7.220506E+03  7.424204E+01 -2.531721E+03
       259   1 -5.950093E+04 -1.738823E+04 -1.565160E+04  6.926111E+03 -1.026910E+03  2.878589E+03
       259   2 -7.194235E+04 -2.047260E+04 -1.792425E+04  3.500466E+03 -1.660554E+03  3.474466E+03
       259   3 -8.428296E+04 -2.325672E+04 -1.972198E+04  6.788624E+03 -2.294075E+03  4.059386E+03
       259   4  1.124519E+04  3.805144E+01  7.294852E+02  7.070389E+03 -6.068520E+02  2.880102E+03
       259   5  1.119383E+04 -2.293419E+00  1.283661E+03  3.713112E+03 -1.248198E+03  3.475925E+03
       259   6  1.124463E+04  2.589936E+02  2.318120E+03  7.069582E+03 -1.889435E+03  4.060793E+03
       259   7  8.199593E+04  1.746398E+04  1.711024E+04  7.214679E+03 -1.867468E+02  2.881616E+03
       259   8  9.433639E+04  2.046753E+04  2.049112E+04  3.925780E+03 -8.357880E+02  3.477385E+03
       259   9  1.067807E+05  2.377406E+04  2.435761E+04  7.350575E+03 -1.484732E+03  4.062200E+03
       259  10 -5.950093E+04 -1.738824E+04 -1.565162E+04  6.926113E+03 -9.010352E-10 -2.471311E-09
       259  11 -7.194236E+04 -2.047262E+04 -1.792428E+04  3.500471E+03 -6.820095E-09 -1.014351E-08
       259  12 -8.428297E+04 -2.325674E+04 -1.972202E+04  6.788632E+03 -1.223242E-08 -5.699137E-10
       259  13  1.124519E+04  3.804243E+01  7.294689E+02  7.070390E+03 -2.044924E-09 -1.410881E-09
       259  14  1.119382E+04 -2.306812E+00  1.283636E+03  3.713115E+03 -1.057875E-09  3.364865E-09
       259  15  1.124462E+04  2.589749E+02  2.318082E+03  7.069588E+03 -1.011155E-09  9.505396E-10
       259  16  8.199593E+04  1.746397E+04  1.711022E+04  7.214679E+03 -1.178552E-09  4.206994E-09
       259  17  9.433639E+04  2.046752E+04  2.049109E+04  3.925782E+03  7.371720E-09  4.346730E-10
       259  18  1.067807E+05  2.377405E+04  2.435757E+04  7.350580E+03  1.033322E-08  8.230751E-09
       259  19 -5.950093E+04 -1.738823E+04 -1.565160E+04  6.926111E+03  1.026910E+03 -2.878589E+03
       259  20 -7.194235E+04 -2.047260E+04 -1.792425E+04  3.500466E+03  1.660554E+03 -3.474466E+03
       259  21 -8.428296E+04 -2.325672E+04 -1.972198E+04  6.788624E+03  2.294075E+03 -4.059386E+03
       259  22  1.124519E+04  3.805144E+01  7.294852E+02  7.070389E+03  6.068520E+02 -2.880102E+03
       259  23  1.119383E+04 -2.293419E+00  1.283661E+03  3.713112E+03  1.248198E+03 -3.475925E+03
       259  24  1.124463E+04  2.589936E+02  2.318120E+03  7.069582E+03  1.889435E+03 -4.060793E+03
       259  25  8.199593E+04  1.746398E+04  1.711024E+04  7.214679E+03  1.867468E+02 -2.881616E+03
       259  26  9.433639E+04  2.046753E+04  2.049112E+04  3.925780E+03  8.357880E+02 -3.477385E+03
       259  27  1.067807E+05  2.377406E+04  2.435761E+04  7.350575E+03  1.484732E+03 -4.062200E+03
       260   1 -9.626296E+04 -2.664017E+04 -2.191675E+04  7.256990E+03 -2.830046E+03  4.432539E+03
       260   2 -1.091897E+05 -2.980950E+04 -2.260877E+04  3.160021E+03 -5.290209E+03  4.993556E+03
       260   3 -1.210443E+05 -2.977175E+04 -2.090825E+04  5.765358E+03 -7.749477E+03  5.339213E+03
       260   4  1.146526E+04 -1.122513E+02  3.003038E+03  7.070601E+03 -2.358914E+03  4.434164E+03
       260   5  1.091595E+04 -2.320213E+02  5.148987E+03  3.714277E+03 -4.969406E+03  4.994611E+03
       260   6  1.146449E+04  2.881033E+03  9.791520E+03  7.060165E+03 -7.579051E+03  5.339711E+03
       260   7  1.192042E+05  2.641485E+04  2.792205E+04  6.884170E+03 -1.887701E+03  4.435789E+03
       260   8  1.310349E+05  2.934445E+04  3.290578E+04  4.268630E+03 -4.648541E+03  4.995666E+03
       260   9  1.439895E+05  3.553259E+04  4.049012E+04  8.355236E+03 -7.408588E+03  5.340209E+03
       260  10 -9.626297E+04 -2.664019E+04 -2.191680E+04  7.257000E+03  5.963585E-09 -3.751975E-10
       260  11 -1.091897E+05 -2.980953E+04 -2.260887E+04  3.160042E+03 -6.120508E-10  5.142478E-09
       260  12 -1.210444E+05 -2.977180E+04 -2.090842E+04  5.765392E+03 -3.813875E-09 -9.524215E-09
       260  13  1.146525E+04 -1.122739E+02  3.002991E+03  7.070609E+03 -2.030780E-09 -7.944131E-09
       260  14  1.091592E+04 -2.320547E+02  5.148894E+03  3.714297E+03 -2.145330E-09  3.256787E-09
       260  15  1.146443E+04  2.880987E+03  9.791359E+03  7.060197E+03 -2.996032E-09 -2.235568E-09
       260  16  1.192042E+05  2.641483E+04  2.792201E+04  6.884176E+03 -7.088902E-09 -7.431130E-09
       260  17  1.310349E+05  2.934441E+04  3.290569E+04  4.268649E+03  1.189025E-09 -9.942058E-09
       260  18  1.439894E+05  3.553254E+04  4.048996E+04  8.355268E+03  4.750345E-09  5.795696E-09
       260  19 -9.626296E+04 -2.664017E+04 -2.191675E+04  7.256990E+03  2.830046E+03 -4.432539E+03
       260  20 -1.091897E+05 -2.980950E+04 -2.260877E+04  3.160021E+03  5.290209E+03 -4.993556E+03
       260  21 -1.210443E+05 -2.977175E+04 -2.090825E+04  5.765358E+03  7.749477E+03 -5.339213E+03
       260  22  1.146526E+04 -1.122513E+02  3.003038E+03  7.070601E+03  2.358914E+03 -4.434164E+03
       260  23  1.091595E+04 -2.320213E+02  5.148987E+03  3.714277E+03  4.969406E+03 -4.994611E+03
       260  24  1.146449E+04  2.881033E+03  9.791520E+03  7.060165E+03  7.579051E+03 -5.339711E+03
       260  25  1.192042E+05  2.641485E+04  2.792205E+04  6.884170E+03  1.887701E+03 -4.435789E+03
       260  26  1.310349E+05  2.934445E+04  3.290578E+04  4.268630E+03  4.648541E+03 -4.995666E+03
       260  27  1.439895E+05  3.553259E+04  4.049012E+04  8.355236E+03  7.408588E+03 -5.340209E+03
       261   1 -1.310598E+05 -3.755582E+04 -2.123197E+04  1.203058E+04 -1.085788E+04  6.185756E+03
       261   2 -1.488724E+05 -4.151386E+04 -1.637932E+04 -1.264585E+03 -1.864209E+04  6.167833E+03
       261   3 -1.558057E+05 -5.857554E+03  3.438661E+03 -8.084322E+03 -2.641211E+04  1.932178E+03
       261   4  1.374983E+04 -1.958877E+03  1.214422E+04  7.053428E+03 -9.386005E+03  6.190780E+03
       261   5  8.056515E+03 -2.802532E+03  2.004106E+04  3.752107E+03 -2.010768E+04  6.162680E+03
       261   6  1.374925E+04  3.647236E+04  4.494044E+04  6.925899E+03 -3.081533E+04  1.917074E+03
       261   7  1.585789E+05  3.363670E+04  4.551903E+04  2.075090E+03 -7.913794E+03  6.195779E+03
       261   8  1.650083E+05  3.590715E+04  5.645980E+04  8.770057E+03 -2.157363E+04  6.157505E+03
       261   9  1.833309E+05  7.880097E+04  8.644029E+04  2.194021E+04 -3.521975E+04  1.901759E+03
       261  10 -1.310599E+05 -3.755589E+04 -2.123226E+04  1.203063E+04  4.154055E-09 -7.332547E-09
       261  11 -1.488728E+05 -4.151399E+04 -1.638004E+04 -1.264492E+03  1.070856E-09 -4.356993E-09
       261  12 -1.558064E+05 -5.857746E+03  3.437343E+03 -8.084281E+03 -1.003892E-09  6.009433E-09
       261  13  1.374973E+04 -1.958942E+03  1.214398E+04  7.053475E+03 -9.106377E-10  2.357076E-09
       261  14  8.056070E+03 -2.802681E+03  2.004023E+04  3.752207E+03 -1.614072E-09  4.942815E-10
       261  15  1.374823E+04  3.647210E+04  4.493864E+04  6.925947E+03 -1.363232E-09  5.829882E-09
       261  16  1.585788E+05  3.363664E+04  4.551884E+04  2.075130E+03 -5.280455E-09  3.056294E-09
       261  17  1.650077E+05  3.590698E+04  5.645886E+04  8.770164E+03 -3.018088E-09  1.092634E-08
       261  18  1.833295E+05  7.880064E+04  8.643796E+04  2.194026E+04  1.354639E-09 -1.738358E-09
       261  19 -1.310598E+05 -3.755582E+04 -2.123197E+04  1.203058E+04  1.085788E+04 -6.185756E+03
       261  20 -1.488724E+05 -4.151386E+04 -1.637932E+04 -1.264585E+03  1.864209E+04 -6.167833E+03
       261  21 -1.558057E+05 -5.857554E+03  3.438661E+03 -8.084322E+03  2.641211E+04 -1.932178E+03
       261  22  1.374983E+04 -1.958877E+03  1.214422E+04  7.053428E+03  9.386005E+03 -6.190780E+03
       261  23  8.056515E+03 -2.802532E+03  2.004106E+04  3.752107E+03  2.010768E+04 -6.162680E+03
       261  24  1.374925E+04  3.647236E+04  4.494044E+04  6.925899E+03  3.081533E+04 -1.917074E+03
       261  25  1.585789E+05  3.363670E+04  4.551903E+04  2.075090E+03  7.913794E+03 -6.195779E+03
       261  26  1.650083E+05  3.590715E+04  5.645980E+04  8.770057E+03  2.157363E+04 -6.157505E+03
       261  27  1.833309E+05  7.880097E+04  8.644029E+04  2.194021E+04  3.521975E+04 -1.901759E+03
       262   1 -3.148044E+05 -1.343130E+06 -3.348264E+05  1.350261E+05 -9.007680E+03 -1.038096E+05
       262   2 -1.622251E+05 -1.165708E+06 -2.184514E+05  6.376526E+04 -2.686556E+04 -5.716969E+04
       262   3 -1.256622E+05 -1.022435E+06 -1.613462E+05  7.834755E+04 -2.240338E+04 -1.044569E+04
       262   4 -1.026759E+05 -4.935313E+05 -1.263562E+05  9.196917E+04 -9.064783E+03 -8.381705E+04
       262   5  7.574755E+03 -4.777703E+05 -5.852867E+04  4.921403E+04 -2.687575E+04 -5.264748E+04
       262   6  4.569237E+03 -4.934498E+05 -3.916583E+04  9.230502E+04 -2.237336E+04 -2.140700E+04
       262   7  1.094060E+05  3.567300E+05  8.206349E+04  4.885353E+04 -9.124629E+03 -6.379704E+04
       262   8  1.773419E+05  2.106051E+05  1.013623E+05  3.464684E+04 -2.688615E+04 -4.812025E+04
       262   9  1.347819E+05  3.579565E+04  8.299641E+04  1.062746E+05 -2.234386E+04 -3.237759E+04
       262  10 -3.148074E+05 -1.343141E+06 -3.348469E+05  1.350254E+05 -2.270029E-09 -1.336639E-09
       262  11 -1.622268E+05 -1.165711E+06 -2.184589E+05  6.376403E+04 -6.853580E-09  4.598249E-09
       262  12 -1.256628E+05 -1.022436E+06 -1.613473E+05  7.834736E+04  2.667314E-09  5.039744E-09
       262  13 -1.026778E+05 -4.935389E+05 -1.263695E+05  9.196856E+04 -1.371733E-10  8.474121E-09
       262  14  7.573235E+03 -4.777735E+05 -5.853524E+04  4.921289E+04  8.842828E-10 -2.658804E-11
       262  15  4.568576E+03 -4.934504E+05 -3.916763E+04  9.230463E+04  2.554910E-09 -5.066252E-10
       262  16  1.094048E+05  3.567256E+05  8.205569E+04  4.885306E+04  1.215810E-10  7.064063E-09
       262  17  1.773405E+05  2.106024E+05  1.013566E+05  3.464579E+04  3.465769E-09 -2.402515E-09
       262  18  1.347811E+05  3.579439E+04  8.299351E+04  1.062741E+05 -6.157730E-10 -1.593760E-09
       262  19 -3.148044E+05 -1.343130E+06 -3.348264E+05  1.350261E+05  9.007680E+03  1.038096E+05
       262  20 -1.622251E+05 -1.165708E+06 -2.184514E+05  6.376526E+04  2.686556E+04  5.716969E+04
       262  21 -1.256622E+05 -1.022435E+06 -1.613462E+05  7.834755E+04  2.240338E+04  1.044569E+04
       262  22 -1.026759E+05 -4.935313E+05 -1.263562E+05  9.196917E+04  9.064783E+03  8.381705E+04
       262  23  7.574755E+03 -4.777703E+05 -5.852867E+04  4.921403E+04  2.687575E+04  5.264748E+04
       262  24  4.569237E+03 -4.934498E+05 -3.916583E+04  9.230502E+04  2.237336E+04  2.140700E+04
       262  25  1.094060E+05  3.567300E+05  8.206349E+04  4.885353E+04  9.124629E+03  6.379704E+04
       262  26  1.773419E+05  2.106051E+05  1.013623E+05  3.464684E+04  2.688615E+04  4.812025E+04
       262  27  1.347819E+05  3.579565E+04  8.299641E+04  1.062746E+05  2.234386E+04  3.237759E+04
       263   1 -9.939510E+04 -8.580333E+05 -1.201609E+05  9.704785E+04 -1.510968E+04 -1.100816E+04
       263   2 -5.053251E+04 -6.944103E+05 -7.510782E+04  4.940565E+04 -8.744551E+03  2.871701E+03
       263   3 -1.894318E+04 -5.362978E+05 -4.329149E+04  8.889572E+04 -1.860019E+03  1.675402E+04
       263   4 -8.072465E+03 -4.876485E+05 -3.434544E+04  9.248722E+04 -1.509819E+04 -1.528308E+04
       263   5  1.088857E+03 -4.849045E+05 -2.665452E+04  4.892308E+04 -8.732914E+03 -1.759100E+03
       263   6 -6.955980E+03 -4.876306E+05 -3.194731E+04  9.249045E+04 -1.848221E+03  1.176383E+04
       263   7  8.324059E+04 -1.171368E+05  5.146089E+04  8.792392E+04 -1.508665E+04 -1.956054E+04
       263   8  5.270715E+04 -2.753580E+05  2.179593E+04  4.844037E+04 -8.721271E+03 -6.391452E+03
       263   9  5.031114E+03 -4.389612E+05 -2.060319E+04  9.608547E+04 -1.836481E+03  6.773255E+03
       263  10 -9.939537E+04 -8.580335E+05 -1.201615E+05  9.704772E+04  2.479704E-09 -2.129740E-10
       263  11 -5.053259E+04 -6.944104E+05 -7.510798E+04  4.940567E+04 -8.803607E-10  4.028431E-09
       263  12 -1.894326E+04 -5.362981E+05 -4.329203E+04  8.889574E+04  1.827911E-09  6.377566E-09
       263  13 -8.072772E+03 -4.876488E+05 -3.434631E+04  9.248704E+04  1.706712E-10  4.750088E-09
       263  14  1.088774E+03 -4.849045E+05 -2.665467E+04  4.892307E+04 -3.997440E-09 -2.309753E-09
       263  15 -6.956021E+03 -4.876308E+05 -3.194758E+04  9.249047E+04 -5.507288E-10 -2.279166E-09
       263  16  8.324024E+04 -1.171373E+05  5.145974E+04  8.792368E+04 -1.770395E-09  5.434202E-09
       263  17  5.270705E+04 -2.753581E+05  2.179571E+04  4.844033E+04 -3.300526E-09 -5.940040E-09
       263  18  5.031098E+03 -4.389613E+05 -2.060328E+04  9.608548E+04  2.480560E-10 -2.995140E-09
       263  19 -9.939510E+04 -8.580333E+05 -1.201609E+05  9.704785E+04  1.510968E+04  1.100816E+04
       263  20 -5.053251E+04 -6.944103E+05 -7.510782E+04  4.940565E+04  8.744551E+03 -2.871701E+03
       263  21 -1.894318E+04 -5.362978E+05 -4.329149E+04  8.889572E+04  1.860019E+03 -1.675402E+04
       263  22 -8.072465E+03 -4.876485E+05 -3.434544E+04  9.248722E+04  1.509819E+04  1.528308E+04
       263  23  1.088857E+03 -4.849045E+05 -2.665452E+04  4.892308E+04  8.732914E+03  1.759100E+03
       263  24 -6.955980E+03 -4.876306E+05 -3.194731E+04  9.249045E+04  1.848221E+03 -1.176383E+04
       263  25  8.324059E+04 -1.171368E+05  5.146089E+04  8.792392E+04  1.508665E+04  1.956054E+04
       263  26  5.270715E+04 -2.753580E+05  2.179593E+04  4.844037E+04  8.721271E+03  6.391452E+03
       263  27  5.031114E+03 -4.389612E+05 -2.060319E+04  9.608547E+04  1.836481E+03 -6.773255E+03
       264   1  3.094254E+04 -3.825155E+05 -1.015233E+04  1.054278E+05  4.271796E+03  2.584270E+04
       264   2  7.345730E+04 -2.084674E+05  1.103803E+04  3.711481E+04  1.021942E+04  4.501831E+04
       264   3  1.801405E+04 -6.076020E+04 -4.613787E+03  5.535985E+04  3.937812E+03  6.416753E+04
       264   4  3.877319E+03 -4.926041E+05 -3.570954E+04  9.243996E+04  4.291111E+03  1.741366E+04
       264   5  6.738068E+03 -4.786960E+05 -5.187874E+04  4.903546E+04  1.022039E+04  4.508656E+04
       264   6 -8.986053E+04 -4.926478E+05 -1.108080E+05  9.219673E+04  3.919578E+03  7.272778E+04
       264   7 -2.318807E+04 -6.026809E+05 -6.126720E+04  7.945443E+04  4.310781E+03  8.986101E+03
       264   8 -5.998581E+04 -7.488569E+05 -1.148004E+05  6.095092E+04  1.022136E+04  4.515478E+04
       264   9 -1.977440E+05 -9.243626E+05 -2.170150E+05  1.290080E+05  3.902355E+03  8.128208E+04
       264  10  3.094234E+04 -3.825162E+05 -1.015362E+04  1.054277E+05  2.529393E-09 -1.719578E-10
       264  11  7.345664E+04 -2.084696E+05  1.103403E+04  3.711444E+04 -1.185298E-09  6.600564E-09
       264  12  1.801293E+04 -6.076463E+04 -4.621554E+03  5.535965E+04 -1.545156E-09  2.329716E-09
       264  13  3.877218E+03 -4.926044E+05 -3.571014E+04  9.243990E+04  3.043563E-09  7.624111E-09
       264  14  6.737410E+03 -4.786982E+05 -5.188276E+04  4.903509E+04 -5.431389E-09 -2.868821E-09
       264  15 -8.986197E+04 -4.926535E+05 -1.108180E+05  9.219650E+04 -1.363648E-09 -1.595575E-09
       264  16 -2.318811E+04 -6.026810E+05 -6.126739E+04  7.945440E+04  5.317642E-10  4.986795E-09
       264  17 -5.998647E+04 -7.488591E+05 -1.148044E+05  6.095055E+04  1.091320E-09 -2.205529E-09
       264  18 -1.977457E+05 -9.243698E+05 -2.170275E+05  1.290078E+05  9.203329E-10  2.390975E-09
       264  19  3.094254E+04 -3.825155E+05 -1.015233E+04  1.054278E+05 -4.271796E+03 -2.584270E+04
       264  20  7.345730E+04 -2.084674E+05  1.103803E+04  3.711481E+04 -1.021942E+04 -4.501831E+04
       264  21  1.801405E+04 -6.076020E+04 -4.613787E+03  5.535985E+04 -3.937812E+03 -6.416753E+04
       264  22  3.877319E+03 -4.926041E+05 -3.570954E+04  9.243996E+04 -4.291111E+03 -1.741366E+04
       264  23  6.738068E+03 -4.786960E+05 -5.187874E+04  4.903546E+04 -1.022039E+04 -4.508656E+04
       264  24 -8.986053E+04 -4.926478E+05 -1.108080E+05  9.219673E+04 -3.919578E+03 -7.272778E+04
       264  25 -2.318807E+04 -6.026809E+05 -6.126720E+04  7.945443E+04 -4.310781E+03 -8.986101E+03
       264  26 -5.998581E+04 -7.488569E+05 -1.148004E+05  6.095092E+04 -1.022136E+04 -4.515478E+04
       264  27 -1.977440E+05 -9.243626E+05 -2.170150E+05  1.290080E+05 -3.902355E+03 -8.128208E+04
       265   1  5.032081E+05  1.690163E+05  9.991033E+04  1.892699E+05  5.213040E+04  1.865688E+04
       265   2  4.876712E+05  8.915657E+04  5.083635E+04  1.907723E+05  3.340145E+04  9.388807E+03
       265   3  4.949349E+05  7.970479E+04  3.427899E+04  1.804632E+05  1.383813E+04  2.323364E+03
       265   4  4.393278E+05  1.226548E+05  7.832230E+04  1.491402E+05  5.017276E+04  1.791256E+04
       265   5  4.238633E+05  5.827226E+04  3.323834E+04  1.661628E+05  3.288125E+04  9.191150E+03
       265   6  4.309173E+05  6.401595E+04  1.953420E+04  1.713732E+05  1.475516E+04  2.671205E+03
       265   7  3.754534E+05  7.629847E+04  5.673428E+04  1.090158E+05  4.821536E+04  1.716851E+04
       265   8  3.600597E+05  2.738918E+04  1.564003E+04  1.415560E+05  3.236112E+04  8.993529E+03
       265   9  3.669034E+05  4.832692E+04  4.789106E+03  1.622838E+05  1.567208E+04  3.019040E+03
       265  10  5.032051E+05  1.690152E+05  9.990457E+04  1.892691E+05  2.767754E-09  3.336272E-09
       265  11  4.876700E+05  8.915617E+04  5.083409E+04  1.907720E+05 -6.594255E-10  6.162676E-09
       265  12  4.949347E+05  7.970474E+04  3.427862E+04  1.804632E+05 -2.223915E-09  4.641745E-09
       265  13  4.393250E+05  1.226537E+05  7.831697E+04  1.491395E+05  1.022401E-09 -8.696640E-09
       265  14  4.238621E+05  5.827188E+04  3.323615E+04  1.661626E+05  4.082929E-09  9.072035E-09
       265  15  4.309170E+05  6.401589E+04  1.953378E+04  1.713732E+05  3.012122E-09 -1.130005E-09
       265  16  3.754508E+05  7.629753E+04  5.672936E+04  1.090151E+05 -1.010150E-09 -7.900509E-10
       265  17  3.600585E+05  2.738882E+04  1.563791E+04  1.415558E+05  8.133354E-10 -6.973317E-09
       265  18  3.669031E+05  4.832685E+04  4.788628E+03  1.622837E+05  2.944558E-09 -7.635345E-09
       265  19  5.032081E+05  1.690163E+05  9.991033E+04  1.892699E+05 -5.213040E+04 -1.865688E+04
       265  20  4.876712E+05  8.915657E+04  5.083635E+04  1.907723E+05 -3.340145E+04 -9.388807E+03
       265  21  4.949349E+05  7.970479E+04  3.427899E+04  1.804632E+05 -1.383813E+04 -2.323364E+03
       265  22  4.393278E+05  1.226548E+05  7.832230E+04  1.491402E+05 -5.017276E+04 -1.791256E+04
       265  23  4.238633E+05  5.827226E+04  3.323834E+04  1.661628E+05 -3.288125E+04 -9.191150E+03
       265  24  4.309173E+05  6.401595E+04  1.953420E+04  1.713732E+05 -1.475516E+04 -2.671205E+03
       265  25  3.754534E+05  7.629847E+04  5.673428E+04  1.090158E+05 -4.821536E+04 -1.716851E+04
       265  26  3.600597E+05  2.738918E+04  1.564003E+04  1.415560E+05 -3.236112E+04 -8.993529E+03
       265  27  3.669034E+05  4.832692E+04  4.789106E+03  1.622838E+05 -1.567208E+04 -3.019040E+03
       266   1  4.737579E+05  8.987807E+04  2.760793E+04  1.812464E+05  1.164981E+04  2.183205E+03
       266   2  4.643511E+05  7.733469E+04  1.689438E+04  1.762459E+05  7.402074E+03  1.053550E+03
       266   3  4.529682E+05  7.503852E+04  1.075175E+04  1.751370E+05  3.108732E+03  4.446299E+01
       266   4  4.284124E+05  7.119914E+04  1.571762E+04  1.670936E+05  1.188409E+04  2.271976E+03
       266   5  4.290568E+05  6.363087E+04  7.812287E+03  1.660781E+05  7.715223E+03  1.172264E+03
       266   6  4.277095E+05  6.629437E+04  4.415622E+03  1.689541E+05  3.500691E+03  1.930786E+02
       266   7  3.830690E+05  5.252046E+04  3.827133E+03  1.529418E+05  1.211834E+04  2.360738E+03
       266   8  3.937638E+05  4.992719E+04 -1.269894E+03  1.559108E+05  8.028353E+03  1.290969E+03
       266   9  4.024515E+05  5.755027E+04 -1.920526E+03  1.627714E+05  3.892630E+03  3.416883E+02
       266  10  4.737577E+05  8.987803E+04  2.760767E+04  1.812464E+05  7.503594E-09  5.336508E-09
       266  11  4.643510E+05  7.733467E+04  1.689428E+04  1.762459E+05  1.635652E-09  8.341294E-09
       266  12  4.529682E+05  7.503852E+04  1.075173E+04  1.751370E+05 -9.859348E-09  1.110763E-08
       266  13  4.284123E+05  7.119909E+04  1.571734E+04  1.670936E+05  1.555299E-09  1.283488E-09
       266  14  4.290567E+05  6.363085E+04  7.812173E+03  1.660781E+05 -9.318422E-11 -1.140075E-08
       266  15  4.277095E+05  6.629437E+04  4.415599E+03  1.689541E+05 -1.181430E-09 -4.587883E-09
       266  16  3.830689E+05  5.252041E+04  3.826847E+03  1.529418E+05 -5.313381E-09 -8.407624E-09
       266  17  3.937637E+05  4.992717E+04 -1.270018E+03  1.559108E+05  2.970942E-09 -1.175922E-08
       266  18  4.024515E+05  5.755027E+04 -1.920555E+03  1.627714E+05  9.844655E-09  1.175944E-08
       266  19  4.737579E+05  8.987807E+04  2.760793E+04  1.812464E+05 -1.164981E+04 -2.183205E+03
       266  20  4.643511E+05  7.733469E+04  1.689438E+04  1.762459E+05 -7.402074E+03 -1.053550E+03
       266  21  4.529682E+05  7.503852E+04  1.075175E+04  1.751370E+05 -3.108732E+03 -4.446299E+01
       266  22  4.284124E+05  7.119914E+04  1.571762E+04  1.670936E+05 -1.188409E+04 -2.271976E+03
       266  23  4.290568E+05  6.363087E+04  7.812287E+03  1.660781E+05 -7.715223E+03 -1.172264E+03
       266  24  4.277095E+05  6.629437E+04  4.415622E+03  1.689541E+05 -3.500691E+03 -1.930786E+02
       266  25  3.830690E+05  5.252046E+04  3.827133E+03  1.529418E+05 -1.211834E+04 -2.360738E+03
       266  26  3.937638E+05  4.992719E+04 -1.269894E+03  1.559108E+05 -8.028353E+03 -1.290969E+03
       266  27  4.024515E+05  5.755027E+04 -1.920526E+03  1.627714E+05 -3.892630E+03 -3.416883E+02
       267   1  4.407576E+05  7.195556E+04  6.777655E+03  1.723284E+05  2.392028E+03  1.591287E+02
       267   2  4.320628E+05  6.506569E+04  2.461329E+03  1.667757E+05  1.262571E+03  3.558769E+02
       267   3  4.190563E+05  6.327193E+04 -1.040195E+03  1.663449E+05  1.306226E+02  5.592053E+02
       267   4  4.274412E+05  6.687489E+04  3.404097E+03  1.685746E+05  2.746179E+03  2.934092E+02
       267   5  4.295691E+05  6.412854E+04  1.825423E+03  1.660891E+05  1.621034E+03  4.917940E+02
       267   6  4.273844E+05  6.647755E+04  1.058226E+03  1.687254E+05  4.933814E+02  6.967529E+02
       267   7  4.141250E+05  6.179421E+04  3.051036E+01  1.648209E+05  3.100323E+03  4.276869E+02
       267   8  4.270753E+05  6.319139E+04  1.189515E+03  1.654024E+05  1.979496E+03  6.277108E+02
       267   9  4.357125E+05  6.968317E+04  3.156643E+03  1.711059E+05  8.561455E+02  8.343027E+02
       267  10  4.407575E+05  7.195556E+04  6.777645E+03  1.723284E+05  1.923192E-09  5.036050E-09
       267  11  4.320628E+05  6.506569E+04  2.461326E+03  1.667757E+05 -9.155046E-10 -1.966137E-09
       267  12  4.190563E+05  6.327193E+04 -1.040196E+03  1.663449E+05 -6.787587E-09 -5.164512E-09
       267  13  4.274412E+05  6.687489E+04  3.404082E+03  1.685746E+05 -3.314287E-10  3.102903E-09
       267  14  4.295691E+05  6.412854E+04  1.825417E+03  1.660891E+05  5.071301E-09  9.630283E-09
       267  15  4.273844E+05  6.647755E+04  1.058225E+03  1.687254E+05  1.430204E-10 -1.373503E-08
       267  16  4.141250E+05  6.179421E+04  3.049197E+01  1.648209E+05 -3.771690E-09 -1.330750E-09
       267  17  4.270753E+05  6.319139E+04  1.189507E+03  1.654024E+05  2.790982E-09 -2.588483E-09
       267  18  4.357125E+05  6.968317E+04  3.156641E+03  1.711059E+05  1.091263E-08  2.742633E-09
       267  19  4.407576E+05  7.195556E+04  6.777655E+03  1.723284E+05 -2.392028E+03 -1.591287E+02
       267  20  4.320628E+05  6.506569E+04  2.461329E+03  1.667757E+05 -1.262571E+03 -3.558769E+02
       267  21  4.190563E+05  6.327193E+04 -1.040195E+03  1.663449E+05 -1.306226E+02 -5.592053E+02
       267  22  4.274412E+05  6.687489E+04  3.404097E+03  1.685746E+05 -2.746179E+03 -2.934092E+02
       267  23  4.295691E+05  6.412854E+04  1.825423E+03  1.660891E+05 -1.621034E+03 -4.917940E+02
       267  24  4.273844E+05  6.647755E+04  1.058226E+03  1.687254E+05 -4.933814E+02 -6.967529E+02
       267  25  4.141250E+05  6.179421E+04  3.051036E+01  1.648209E+05 -3.100323E+03 -4.276869E+02
       267  26  4.270753E+05  6.319139E+04  1.189515E+03  1.654024E+05 -1.979496E+03 -6.277108E+02
       267  27  4.357125E+05  6.968317E+04  3.156643E+03  1.711059E+05 -8.561455E+02 -8.343027E+02
       268   1  4.076504E+05  5.909353E+04 -4.228796E+03  1.632518E+05 -1.458063E+02  8.240410E+02
       268   2  3.990315E+05  5.265056E+04 -7.243655E+03  1.576383E+05 -6.367374E+02  1.271622E+03
       268   3  3.858486E+05  5.087607E+04 -1.003728E+04  1.572425E+05 -1.128041E+03  1.720322E+03
       268   4  4.273486E+05  6.652282E+04  8.366964E+02  1.686935E+05  2.151290E+02  9.608935E+02
       268   5  4.296286E+05  6.417481E+04  5.615990E+02  1.660899E+05 -2.750913E+02  1.408733E+03
       268   6  4.273444E+05  6.649508E+04  5.071785E+02  1.687039E+05 -7.656914E+02  1.857689E+03
       268   7  4.470470E+05  7.395211E+04  5.902138E+03  1.741353E+05  5.760756E+02  1.097750E+03
       268   8  4.602266E+05  7.569911E+04  8.366777E+03  1.745418E+05  8.657441E+01  1.545850E+03
       268   9  4.688420E+05  8.211427E+04  1.105155E+04  1.801661E+05 -4.033135E+02  1.995066E+03
       268  10  4.076504E+05  5.909353E+04 -4.228798E+03  1.632518E+05 -6.292218E-09 -2.604122E-09
       268  11  3.990315E+05  5.265056E+04 -7.243659E+03  1.576383E+05  3.515399E-09 -8.706810E-10
       268  12  3.858486E+05  5.087606E+04 -1.003729E+04  1.572425E+05  3.383163E-09 -3.238998E-09
       268  13  4.273486E+05  6.652282E+04  8.366945E+02  1.686935E+05  1.100500E-09 -6.197901E-09
       268  14  4.296286E+05  6.417480E+04  5.615951E+02  1.660899E+05  7.147220E-10 -2.089888E-09
       268  15  4.273444E+05  6.649508E+04  5.071709E+02  1.687039E+05 -3.536762E-09 -6.549589E-09
       268  16  4.470470E+05  7.395211E+04  5.902135E+03  1.741353E+05  9.851017E-09  2.705850E-09
       268  17  4.602266E+05  7.569911E+04  8.366773E+03  1.745418E+05 -1.389113E-09 -1.495221E-08
       268  18  4.688420E+05  8.211426E+04  1.105154E+04  1.801661E+05 -8.108411E-09 -5.891523E-09
       268  19  4.076504E+05  5.909353E+04 -4.228796E+03  1.632518E+05  1.458063E+02 -8.240410E+02
       268  20  3.990315E+05  5.265056E+04 -7.243655E+03  1.576383E+05  6.367374E+02 -1.271622E+03
       268  21  3.858486E+05  5.087607E+04 -1.003728E+04  1.572425E+05  1.128041E+03 -1.720322E+03
       268  22  4.273486E+05  6.652282E+04  8.366964E+02  1.686935E+05 -2.151290E+02 -9.608935E+02
       268  23  4.296286E+05  6.417481E+04  5.615990E+02  1.660899E+05  2.750913E+02 -1.408733E+03
       268  24  4.273444E+05  6.649508E+04  5.071785E+02  1.687039E+05  7.656914E+02 -1.857689E+03
       268  25  4.470470E+05  7.395211E+04  5.902138E+03  1.741353E+05 -5.760756E+02 -1.097750E+03
       268  26  4.602266E+05  7.569911E+04  8.366777E+03  1.745418E+05 -8.657441E+01 -1.545850E+03
       268  27  4.688420E+05  8.211427E+04  1.105155E+04  1.801661E+05  4.033135E+02 -1.995066E+03
       269   1  3.744735E+05  4.660032E+04 -1.297840E+04  1.541333E+05 -1.338712E+03  2.010742E+03
       269   2  3.657960E+05  4.014339E+04 -1.550672E+04  1.484733E+05 -1.936187E+03  2.421609E+03
       269   3  3.525541E+05  3.840869E+04 -1.772790E+04  1.480624E+05 -2.533913E+03  2.833407E+03
       269   4  4.273430E+05  6.650003E+04  5.451196E+02  1.687134E+05 -9.756499E+02  2.148368E+03
       269   5  4.296284E+05  6.416157E+04  7.726922E+02  1.660803E+05 -1.572575E+03  2.559420E+03
       269   6  4.273491E+05  6.654516E+04  1.306936E+03  1.686961E+05 -2.169759E+03  2.971400E+03
       269   7  4.802152E+05  8.639992E+04  1.406841E+04  1.832946E+05 -6.125536E+02  2.286007E+03
       269   8  4.934647E+05  8.817997E+04  1.705174E+04  1.836888E+05 -1.208923E+03  2.697246E+03
       269   9  5.021494E+05  9.468189E+04  2.034124E+04  1.893320E+05 -1.805558E+03  3.109411E+03
       269  10  3.744735E+05  4.660031E+04 -1.297841E+04  1.541333E+05 -1.105459E-08 -8.058537E-09
       269  11  3.657960E+05  4.014339E+04 -1.550674E+04  1.484733E+05 -8.620598E-09  1.193509E-09
       269  12  3.525540E+05  3.840868E+04 -1.772793E+04  1.480624E+05  5.172606E-09  5.789947E-09
       269  13  4.273430E+05  6.650002E+04  5.451091E+02  1.687134E+05 -3.399459E-09 -2.441831E-10
       269  14  4.296284E+05  6.416156E+04  7.726752E+02  1.660803E+05 -6.506813E-10 -2.304966E-09
       269  15  4.273491E+05  6.654514E+04  1.306911E+03  1.686961E+05 -8.176945E-10 -2.007829E-09
       269  16  4.802152E+05  8.639992E+04  1.406840E+04  1.832946E+05  4.607670E-09  8.239418E-09
       269  17  4.934647E+05  8.817996E+04  1.705172E+04  1.836888E+05  3.689248E-09 -5.603832E-10
       269  18  5.021494E+05  9.468187E+04  2.034122E+04  1.893320E+05 -6.168951E-09  2.361798E-09
       269  19  3.744735E+05  4.660032E+04 -1.297840E+04  1.541333E+05  1.338712E+03 -2.010742E+03
       269  20  3.657960E+05  4.014339E+04 -1.550672E+04  1.484733E+05  1.936187E+03 -2.421609E+03
       269  21  3.525541E+05  3.840869E+04 -1.772790E+04  1.480624E+05  2.533913E+03 -2.833407E+03
       269  22  4.273430E+05  6.650003E+04  5.451196E+02  1.687134E+05  9.756499E+02 -2.148368E+03
       269  23  4.296284E+05  6.416157E+04  7.726922E+02  1.660803E+05  1.572575E+03 -2.559420E+03
       269  24  4.273491E+05  6.654516E+04  1.306936E+03  1.686961E+05  2.169759E+03 -2.971400E+03
       269  25  4.802152E+05  8.639992E+04  1.406841E+04  1.832946E+05  6.125536E+02 -2.286007E+03
       269  26  4.934647E+05  8.817997E+04  1.705174E+04  1.836888E+05  1.208923E+03 -2.697246E+03
       269  27  5.021494E+05  9.468189E+04  2.034124E+04  1.893320E+05  1.805558E+03 -3.109411E+03
       270   1  3.410582E+05  3.410626E+04 -2.033776E+04  1.450725E+05 -2.910831E+03  3.065821E+03
       270   2  3.322140E+05  2.743521E+04 -2.181078E+04  1.392072E+05 -4.630880E+03  3.055760E+03
       270   3  3.191805E+05  2.626569E+04 -2.194576E+04  1.385046E+05 -6.346338E+03  3.033898E+03
       270   4  4.273985E+05  6.648381E+04  1.700588E+03  1.687656E+05 -2.541177E+03  3.205880E+03
       270   5  4.295393E+05  6.406273E+04  3.012485E+03  1.660589E+05 -4.269167E+03  3.192774E+03
       270   6  4.274924E+05  6.714472E+04  5.668615E+03  1.685147E+05 -5.992593E+03  3.167858E+03
       270   7  5.137465E+05  9.886198E+04  2.373842E+04  1.924619E+05 -2.171465E+03  3.345960E+03
       270   8  5.268741E+05  1.006910E+05  2.783503E+04  1.929144E+05 -3.907391E+03  3.329812E+03
       270   9  5.358158E+05  1.080246E+05  3.328205E+04  1.985296E+05 -5.638780E+03  3.301844E+03
       270  10  3.410582E+05  3.410625E+04 -2.033779E+04  1.450725E+05 -4.673450E-10  1.020307E-09
       270  11  3.322140E+05  2.743519E+04 -2.181083E+04  1.392072E+05  9.127276E-10  3.761903E-09
       270  12  3.191804E+05  2.626567E+04 -2.194586E+04  1.385046E+05  1.736869E-09 -1.032015E-09
       270  13  4.273985E+05  6.648380E+04  1.700556E+03  1.687656E+05  1.818630E-11  1.379381E-09
       270  14  4.295393E+05  6.406271E+04  3.012431E+03  1.660589E+05 -3.007695E-09  5.310765E-09
       270  15  4.274924E+05  6.714470E+04  5.668529E+03  1.685147E+05  6.286353E-10  1.639013E-08
       270  16  5.137464E+05  9.886196E+04  2.373839E+04  1.924619E+05 -5.352193E-10  6.577300E-09
       270  17  5.268741E+05  1.006909E+05  2.783498E+04  1.929144E+05 -9.799093E-10  1.974338E-08
       270  18  5.358157E+05  1.080245E+05  3.328197E+04  1.985296E+05 -3.754377E-09  8.070734E-09
       270  19  3.410582E+05  3.410626E+04 -2.033776E+04  1.450725E+05  2.910831E+03 -3.065821E+03
       270  20  3.322140E+05  2.743521E+04 -2.181078E+04  1.392072E+05  4.630880E+03 -3.055760E+03
       270  21  3.191805E+05  2.626569E+04 -2.194576E+04  1.385046E+05  6.346338E+03 -3.033898E+03
       270  22  4.273985E+05  6.648381E+04  1.700588E+03  1.687656E+05  2.541177E+03 -3.205880E+03
       270  23  4.295393E+05  6.406273E+04  3.012485E+03  1.660589E+05  4.269167E+03 -3.192774E+03
       270  24  4.274924E+05  6.714472E+04  5.668615E+03  1.685147E+05  5.992593E+03 -3.167858E+03
       270  25  5.137465E+05  9.886198E+04  2.373842E+04  1.924619E+05  2.171465E+03 -3.345960E+03
       270  26  5.268741E+05  1.006910E+05  2.783503E+04  1.929144E+05  3.907391E+03 -3.329812E+03
       270  27  5.358158E+05  1.080246E+05  3.328205E+04  1.985296E+05  5.638780E+03 -3.301844E+03
       271   1  3.069946E+05  2.195729E+04 -2.327450E+04  1.371171E+05 -7.609992E+03  2.970540E+03
       271   2  2.979673E+05  1.333155E+04 -2.042852E+04  1.292598E+05 -1.434370E+04  1.038677E+03
       271   3  2.885589E+05  1.881353E+04 -1.017851E+04  1.245702E+05 -2.098025E+04 -1.149089E+03
       271   4  4.279323E+05  6.618573E+04  7.364951E+03  1.691615E+05 -7.174315E+03  3.135529E+03
       271   5  4.286926E+05  6.321445E+04  1.304682E+04  1.660245E+05 -1.407629E+04  1.139842E+03
       271   6  4.291040E+05  7.438269E+04  2.626486E+04  1.660551E+05 -2.088126E+04 -1.111822E+03
       271   7  5.488838E+05  1.104148E+05  3.800311E+04  2.012113E+05 -6.738546E+03  3.300549E+03
       271   8  5.594345E+05  1.130986E+05  4.652076E+04  2.027963E+05 -1.380882E+04  1.241032E+03
       271   9  5.696690E+05  1.299539E+05  6.270673E+04  2.075489E+05 -2.078225E+04 -1.074544E+03
       271  10  3.069945E+05  2.195727E+04 -2.327462E+04  1.371171E+05  3.637669E-09 -2.348895E-09
       271  11  2.979671E+05  1.333149E+04 -2.042891E+04  1.292598E+05  1.112213E-09  9.392152E-10
       271  12  2.885584E+05  1.881341E+04 -1.017934E+04  1.245701E+05  5.796487E-10 -9.428716E-09
       271  13  4.279322E+05  6.618571E+04  7.364836E+03  1.691615E+05 -3.989712E-09 -8.729150E-09
       271  14  4.286924E+05  6.321440E+04  1.304644E+04  1.660245E+05 -1.941922E-10 -3.104321E-09
       271  15  4.291036E+05  7.438257E+04  2.626404E+04  1.660551E+05 -8.003582E-11  3.432474E-11
       271  16  5.488838E+05  1.104147E+05  3.800300E+04  2.012113E+05 -7.940561E-09  3.833469E-09
       271  17  5.594343E+05  1.130986E+05  4.652040E+04  2.027963E+05 -5.380974E-09 -3.479803E-09
       271  18  5.696685E+05  1.299538E+05  6.270591E+04  2.075489E+05 -2.180485E-10 -5.320289E-09
       271  19  3.069946E+05  2.195729E+04 -2.327450E+04  1.371171E+05  7.609992E+03 -2.970540E+03
       271  20  2.979673E+05  1.333155E+04 -2.042852E+04  1.292598E+05  1.434370E+04 -1.038677E+03
       271  21  2.885589E+05  1.881353E+04 -1.017851E+04  1.245702E+05  2.098025E+04  1.149089E+03
       271  22  4.279323E+05  6.618573E+04  7.364951E+03  1.691615E+05  7.174315E+03 -3.135529E+03
       271  23  4.286926E+05  6.321445E+04  1.304682E+04  1.660245E+05  1.407629E+04 -1.139842E+03
       271  24  4.291040E+05  7.438269E+04  2.626486E+04  1.660551E+05  2.088126E+04  1.111822E+03
       271  25  5.488838E+05  1.104148E+05  3.800311E+04  2.012113E+05  6.738546E+03 -3.300549E+03
       271  26  5.594345E+05  1.130986E+05  4.652076E+04  2.027963E+05  1.380882E+04 -1.241032E+03
       271  27  5.696690E+05  1.299539E+05  6.270673E+04  2.075489E+05  2.078225E+04  1.074544E+03
       272   1  2.687688E+05  1.453037E+04 -6.614344E+03  1.421765E+05 -2.721174E+04 -2.443283E+03
       272   2  2.627614E+05 -1.635519E+04  1.321207E+04  1.111224E+05 -5.425385E+04 -1.262824E+04
       272   3  2.967445E+05  6.645316E+04  8.306139E+04  5.703025E+04 -7.951392E+04 -2.751925E+04
       272   4  4.332949E+05  6.237508E+04  3.264551E+04  1.732043E+05 -2.565157E+04 -1.851970E+03
       272   5  4.200131E+05  5.425311E+04  5.555004E+04  1.661627E+05 -5.577050E+04 -1.320373E+04
       272   6  4.473178E+05  1.604138E+05  1.309063E+05  1.360871E+05 -8.410723E+04 -2.926350E+04
       272   7  5.978479E+05  1.102195E+05  7.190367E+04  2.042385E+05 -2.409095E+04 -1.260572E+03
       272   8  5.772884E+05  1.248658E+05  9.788558E+04  2.212164E+05 -5.728755E+04 -1.377944E+04
       272   9  5.979145E+05  2.543894E+05  1.787486E+05  2.151639E+05 -8.870168E+04 -3.100888E+04
       272  10  2.687680E+05  1.453017E+04 -6.615746E+03  1.421764E+05  3.328098E-09 -2.414578E-10
       272  11  2.627582E+05 -1.635615E+04  1.320625E+04  1.111219E+05  8.876297E-10 -9.016354E-09
       272  12  2.967375E+05  6.645065E+04  8.304809E+04  5.702849E+04 -2.980440E-09 -4.059824E-09
       272  13  4.332941E+05  6.237490E+04  3.264427E+04  1.732043E+05  2.869265E-09 -8.701608E-09
       272  14  4.200097E+05  5.425209E+04  5.554388E+04  1.661621E+05  3.176941E-10  1.063994E-09
       272  15  4.473100E+05  1.604110E+05  1.308914E+05  1.360851E+05  1.738988E-09  8.960620E-10
       272  16  5.978473E+05  1.102194E+05  7.190258E+04  2.042385E+05 -3.111020E-10  2.029762E-09
       272  17  5.772848E+05  1.248647E+05  9.787907E+04  2.212158E+05 -4.747587E-10  5.027114E-09
       272  18  5.979058E+05  2.543862E+05  1.787320E+05  2.151617E+05  2.708413E-09 -2.771786E-09
       272  19  2.687688E+05  1.453037E+04 -6.614344E+03  1.421765E+05  2.721174E+04  2.443283E+03
       272  20  2.627614E+05 -1.635519E+04  1.321207E+04  1.111224E+05  5.425385E+04  1.262824E+04
       272  21  2.967445E+05  6.645316E+04  8.306139E+04  5.703025E+04  7.951392E+04  2.751925E+04
       272  22  4.332949E+05  6.237508E+04  3.264551E+04  1.732043E+05  2.565157E+04  1.851970E+03
       272  23  4.200131E+05  5.425311E+04  5.555004E+04  1.661627E+05  5.577050E+04  1.320373E+04
       272  24  4.473178E+05  1.604138E+05  1.309063E+05  1.360871E+05  8.410723E+04  2.926350E+04
       272  25  5.978479E+05  1.102195E+05  7.190367E+04  2.042385E+05  2.409095E+04  1.260572E+03
       272  26  5.772884E+05  1.248658E+05  9.788558E+04  2.212164E+05  5.728755E+04  1.377944E+04
       272  27  5.979145E+05  2.543894E+05  1.787486E+05  2.151639E+05  8.870168E+04  3.100888E+04
       273   1 -7.875418E+04 -5.928288E+05 -8.692342E+04  2.927050E+04 -1.772775E+03 -3.442282E+04
       273   2 -3.225895E+04 -5.645229E+05 -5.500951E+04  1.307445E+04 -5.563302E+03 -1.981466E+04
       273   3 -2.794360E+04 -5.485643E+05 -4.314451E+04  8.639111E+03 -5.130059E+03 -5.192235E+03
       273   4 -3.758138E+04 -4.280424E+05 -4.653102E+04  1.376675E+04 -1.784949E+03 -3.035487E+04
       273   5  2.890785E+03 -4.221200E+05 -2.192988E+04  7.948567E+03 -5.566628E+03 -1.868174E+04
       273   6  1.697862E+03 -4.280326E+05 -1.533493E+04  1.389159E+04 -5.124479E+03 -6.994964E+03
       273   7  3.590304E+03 -2.632308E+05 -6.140428E+03 -1.741118E+03 -1.797326E+03 -2.628584E+04
       273   8  3.803918E+04 -2.796982E+05  1.114841E+04  2.821511E+03 -5.569973E+03 -1.754856E+04
       273   9  3.133842E+04 -3.074874E+05  1.247371E+04  1.914510E+04 -5.118930E+03 -8.798040E+03
       273  10 -7.875450E+04 -5.928301E+05 -8.692566E+04  2.927045E+04  2.982043E-10  1.397974E-09
       273  11 -3.225909E+04 -5.645234E+05 -5.501031E+04  1.307436E+04  1.385661E-09  1.702280E-08
       273  12 -2.794364E+04 -5.485643E+05 -4.314461E+04  8.639090E+03  8.191432E-10  5.608658E-09
       273  13 -3.758163E+04 -4.280434E+05 -4.653276E+04  1.376670E+04  2.462736E-09 -6.919517E-09
       273  14  2.890658E+03 -4.221204E+05 -2.193059E+04  7.948483E+03 -6.102583E-10 -1.091828E-09
       273  15  1.697821E+03 -4.280327E+05 -1.533507E+04  1.389156E+04  1.485224E-09 -4.893872E-09
       273  16  3.590115E+03 -2.632315E+05 -6.141733E+03 -1.741156E+03 -5.130714E-10 -1.160499E-09
       273  17  3.803906E+04 -2.796986E+05  1.114777E+04  2.821432E+03  2.092501E-09 -2.118588E-09
       273  18  3.133837E+04 -3.074875E+05  1.247352E+04  1.914507E+04  1.114371E-09  6.304877E-09
       273  19 -7.875418E+04 -5.928288E+05 -8.692342E+04  2.927050E+04  1.772775E+03  3.442282E+04
       273  20 -3.225895E+04 -5.645229E+05 -5.500951E+04  1.307445E+04  5.563302E+03  1.981466E+04
       273  21 -2.794360E+04 -5.485643E+05 -4.314451E+04  8.639111E+03  5.130059E+03  5.192235E+03
       273  22 -3.758138E+04 -4.280424E+05 -4.653102E+04  1.376675E+04  1.784949E+03  3.035487E+04
       273  23  2.890785E+03 -4.221200E+05 -2.192988E+04  7.948567E+03  5.566628E+03  1.868174E+04
       273  24  1.697862E+03 -4.280326E+05 -1.533493E+04  1.389159E+04  5.124479E+03  6.994964E+03
       273  25  3.590304E+03 -2.632308E+05 -6.140428E+03 -1.741118E+03  1.797326E+03  2.628584E+04
       273  26  3.803918E+04 -2.796982E+05  1.114841E+04  2.821511E+03  5.569973E+03  1.754856E+04
       273  27  3.133842E+04 -3.074874E+05  1.247371E+04  1.914510E+04  5.118930E+03  8.798040E+03
       274   1 -2.709094E+04 -5.245320E+05 -3.671156E+04  1.576331E+04 -3.995654E+03 -4.043512E+03
       274   2 -1.823435E+04 -5.009607E+05 -2.964542E+04  7.994149E+03 -3.187231E+03  2.173389E+03
       274   3 -1.701222E+04 -4.800124E+05 -2.851701E+04  1.227343E+04 -2.190243E+03  8.390955E+03
       274   4 -2.789960E+03 -4.259810E+05 -1.387391E+04  1.391731E+04 -3.994041E+03 -4.553905E+03
       274   5  5.574911E+02 -4.246804E+05 -1.200655E+04  7.891747E+03 -3.185265E+03  1.532559E+03
       274   6 -3.706310E+03 -4.259805E+05 -1.598572E+04  1.391461E+04 -2.187901E+03  7.619470E+03
       274   7  2.151035E+04 -3.274210E+05  8.963079E+03  1.207101E+04 -3.992424E+03 -5.064379E+03
       274   8  1.934892E+04 -3.483948E+05  5.631940E+03  7.789338E+03 -3.183298E+03  8.916508E+02
       274   9  9.599409E+03 -3.719458E+05 -3.454632E+03  1.555593E+04 -2.185563E+03  6.847919E+03
       274  10 -2.709096E+04 -5.245320E+05 -3.671162E+04  1.576330E+04  1.164499E-10  5.985749E-09
       274  11 -1.823436E+04 -5.009607E+05 -2.964545E+04  7.994154E+03  1.154940E-09  1.484412E-08
       274  12 -1.701225E+04 -4.800125E+05 -2.851715E+04  1.227345E+04 -8.843422E-10  4.520043E-09
       274  13 -2.789983E+03 -4.259810E+05 -1.387398E+04  1.391729E+04 -6.397796E-10 -1.095149E-08
       274  14  5.574795E+02 -4.246804E+05 -1.200657E+04  7.891751E+03  3.864157E-10 -5.366826E-09
       274  15 -3.706331E+03 -4.259805E+05 -1.598584E+04  1.391462E+04 -1.498227E-09 -6.473709E-09
       274  16  2.151032E+04 -3.274210E+05  8.963001E+03  1.207100E+04  1.424279E-09 -1.650138E-09
       274  17  1.934891E+04 -3.483948E+05  5.631919E+03  7.789340E+03  1.716489E-09 -1.045432E-09
       274  18  9.599391E+03 -3.719458E+05 -3.454729E+03  1.555594E+04 -1.014365E-10  1.870633E-09
       274  19 -2.709094E+04 -5.245320E+05 -3.671156E+04  1.576331E+04  3.995654E+03  4.043512E+03
       274  20 -1.823435E+04 -5.009607E+05 -2.964542E+04  7.994149E+03  3.187231E+03 -2.173389E+03
       274  21 -1.701222E+04 -4.800124E+05 -2.851701E+04  1.227343E+04  2.190243E+03 -8.390955E+03
       274  22 -2.789960E+03 -4.259810E+05 -1.387391E+04  1.391731E+04  3.994041E+03  4.553905E+03
       274  23  5.574911E+02 -4.246804E+05 -1.200655E+04  7.891747E+03  3.185265E+03 -1.532559E+03
       274  24 -3.706310E+03 -4.259805E+05 -1.598572E+04  1.391461E+04  2.187901E+03 -7.619470E+03
       274  25  2.151035E+04 -3.274210E+05  8.963079E+03  1.207101E+04  3.992424E+03  5.064379E+03
       274  26  1.934892E+04 -3.483948E+05  5.631940E+03  7.789338E+03  3.183298E+03 -8.916508E+02
       274  27  9.599409E+03 -3.719458E+05 -3.454632E+03  1.555593E+04  2.185563E+03 -6.847919E+03
       275   1 -5.548423E+03 -4.608160E+05 -2.576067E+04  2.118698E+04 -1.476116E+03  1.135600E+04
       275   2  1.392410E+03 -4.309550E+05 -3.001395E+04  1.710522E+03 -5.313702E+02  2.579713E+04
       275   3 -4.549715E+04 -4.163439E+05 -5.711078E+04 -5.804787E+03 -1.422980E+02  4.023691E+04
       275   4  2.381503E+03 -4.288039E+05 -1.839640E+04  1.394419E+04 -1.473621E+03  1.047573E+04
       275   5  3.757461E+03 -4.211501E+05 -2.777668E+04  7.887312E+03 -5.296410E+02  2.530313E+04
       275   6 -4.876441E+04 -4.288144E+05 -6.026902E+04  1.379166E+04 -1.407076E+02  4.012868E+04
       275   7  1.031155E+04 -3.967907E+05 -1.103217E+04  6.701021E+03 -1.471106E+03  9.595415E+03
       275   8  6.122650E+03 -4.113450E+05 -2.553939E+04  1.406420E+04 -5.279217E+02  2.480913E+04
       275   9 -5.203024E+04 -4.412840E+05 -6.342706E+04  3.338770E+04 -1.391241E+02  4.002046E+04
       275  10 -5.548460E+03 -4.608162E+05 -2.576092E+04  2.118699E+04 -1.558065E-09  1.544132E-08
       275  11  1.392231E+03 -4.309557E+05 -3.001521E+04  1.710533E+03  8.356005E-10  1.719418E-08
       275  12 -4.549759E+04 -4.163457E+05 -5.711383E+04 -5.804782E+03 -3.734734E-10 -4.108783E-09
       275  13  2.381471E+03 -4.288040E+05 -1.839661E+04  1.394420E+04 -9.347670E-10  2.771886E-11
       275  14  3.757289E+03 -4.211508E+05 -2.777788E+04  7.887323E+03 -1.844012E-09 -5.367630E-09
       275  15 -4.876484E+04 -4.288162E+05 -6.027204E+04  1.379166E+04 -5.145307E-10  8.318649E-10
       275  16  1.031153E+04 -3.967908E+05 -1.103235E+04  6.701033E+03 -1.275878E-09 -1.429260E-08
       275  17  6.122484E+03 -4.113457E+05 -2.554054E+04  1.406421E+04 -2.125519E-09 -6.328252E-09
       275  18 -5.203067E+04 -4.412857E+05 -6.343007E+04  3.338771E+04 -1.768549E-09  1.144838E-08
       275  19 -5.548423E+03 -4.608160E+05 -2.576067E+04  2.118698E+04  1.476116E+03 -1.135600E+04
       275  20  1.392410E+03 -4.309550E+05 -3.001395E+04  1.710522E+03  5.313702E+02 -2.579713E+04
       275  21 -4.549715E+04 -4.163439E+05 -5.711078E+04 -5.804787E+03  1.422980E+02 -4.023691E+04
       275  22  2.381503E+03 -4.288039E+05 -1.839640E+04  1.394419E+04  1.473621E+03 -1.047573E+04
       275  23  3.757461E+03 -4.211501E+05 -2.777668E+04  7.887312E+03  5.296410E+02 -2.530313E+04
       275  24 -4.876441E+04 -4.288144E+05 -6.026902E+04  1.379166E+04  1.407076E+02 -4.012868E+04
       275  25  1.031155E+04 -3.967907E+05 -1.103217E+04  6.701021E+03  1.471106E+03 -9.595415E+03
       275  26  6.122650E+03 -4.113450E+05 -2.553939E+04  1.406420E+04  5.279217E+02 -2.480913E+04
       275  27 -5.203024E+04 -4.412840E+05 -6.342706E+04  3.338770E+04  1.391241E+02 -4.002046E+04
       276   1 -1.177283E+05 -1.021723E+05 -8.814095E+04 -8.573144E+03  2.560376E+04  7.197800E+03
       276   2 -7.484682E+04 -1.407565E+05 -1.020978E+05 -8.584815E+03  2.177836E+04  2.205184E+04
       276   3 -1.825302E+04 -1.274877E+05 -1.005573E+05 -3.496178E+04  1.796969E+04  2.177956E+04
       276   4  4.885973E+05  4.867337E+04  6.015254E+04 -2.759179E+04  4.123440E+04  7.214576E+03
       276   5  4.808481E+05 -3.870846E+03  2.681086E+04 -1.438392E+04  2.687173E+04  2.205496E+04
       276   6  4.886234E+05 -2.759053E+03  1.626943E+04 -2.753902E+04  1.252621E+04  2.177489E+04
       276   7  1.095259E+06  1.994934E+05  2.084203E+05 -4.662914E+04  5.688025E+04  7.230387E+03
       276   8  1.036828E+06  1.329932E+05  1.556989E+05 -2.018832E+04  3.196961E+04  2.205799E+04
       276   9  9.957375E+05  1.219518E+05  1.330792E+05 -2.011020E+04  7.078322E+03  2.177010E+04
       276  10 -1.177290E+05 -1.021725E+05 -8.814228E+04 -8.573293E+03  8.837411E-12 -9.323386E-12
       276  11 -7.484746E+04 -1.407571E+05 -1.020996E+05 -8.585202E+03 -5.106973E-10  1.765021E-11
       276  12 -1.825349E+04 -1.274883E+05 -1.005588E+05 -3.496209E+04  3.261919E-10  2.198551E-10
       276  13  4.885955E+05  4.867286E+04  6.014925E+04 -2.759203E+04  1.681098E-11  1.920075E-11
       276  14  4.808472E+05 -3.871562E+03  2.680859E+04 -1.438440E+04  2.621570E-10  7.221344E-11
       276  15  4.886231E+05 -2.759604E+03  1.626824E+04 -2.753924E+04 -3.896762E-11  5.190217E-11
       276  16  1.095256E+06  1.994924E+05  2.084141E+05 -4.662947E+04  1.189392E-10  4.077007E-11
       276  17  1.036827E+06  1.329924E+05  1.556961E+05 -2.018889E+04 -2.406759E-10  7.179166E-11
       276  18  9.957373E+05  1.219513E+05  1.330782E+05 -2.011032E+04  3.161350E-10 -7.351509E-11
       276  19 -1.177283E+05 -1.021723E+05 -8.814095E+04 -8.573144E+03 -2.560376E+04 -7.197800E+03
       276  20 -7.484682E+04 -1.407565E+05 -1.020978E+05 -8.584815E+03 -2.177836E+04 -2.205184E+04
       276  21 -1.825302E+04 -1.274877E+05 -1.005573E+05 -3.496178E+04 -1.796969E+04 -2.177956E+04
       276  22  4.885973E+05  4.867337E+04  6.015254E+04 -2.759179E+04 -4.123440E+04 -7.214576E+03
       276  23  4.808481E+05 -3.870846E+03  2.681086E+04 -1.438392E+04 -2.687173E+04 -2.205496E+04
       276  24  4.886234E+05 -2.759053E+03  1.626943E+04 -2.753902E+04 -1.252621E+04 -2.177489E+04
       276  25  1.095259E+06  1.994934E+05  2.084203E+05 -4.662914E+04 -5.688025E+04 -7.230387E+03
       276  26  1.036828E+06  1.329932E+05  1.556989E+05 -2.018832E+04 -3.196961E+04 -2.205799E+04
       276  27  9.957375E+05  1.219518E+05  1.330792E+05 -2.011020E+04 -7.078322E+03 -2.177010E+04
       277   1  2.730001E+04 -1.091260E+05 -9.300258E+04 -2.651178E+04  1.087669E+04  1.856533E+04
       277   2  7.550063E+04 -1.011185E+05 -8.763823E+04 -1.413622E+04  7.913524E+03  1.707110E+04
       277   3  1.252574E+05 -8.894873E+04 -7.927632E+04 -2.827256E+04  4.949074E+03  1.481247E+04
       277   4  4.855483E+05  3.722114E+03  1.311848E+04 -2.758754E+04  1.010883E+04  1.856394E+04
       277   5  4.847316E+05 -3.877366E+02  6.905138E+03 -1.433128E+04  6.611272E+03  1.706982E+04
       277   6  4.855604E+05 -2.440743E+02  4.058696E+03 -2.758577E+04  3.112666E+03  1.481153E+04
       277   7  9.439906E+05  1.165554E+05  1.192255E+05 -2.866413E+04  9.340396E+03  1.856256E+04
       277   8  8.941174E+05  1.003313E+05  1.014374E+05 -1.452648E+04  5.308167E+03  1.706855E+04
       277   9  8.459833E+05  8.845148E+04  8.738506E+04 -2.689857E+04  1.275201E+03  1.481059E+04
       277  10  2.729979E+04 -1.091264E+05 -9.300345E+04 -2.651194E+04 -3.214494E-11  1.099637E-10
       277  11  7.550049E+04 -1.011188E+05 -8.763890E+04 -1.413633E+04 -6.237598E-10 -1.728760E-10
       277  12  1.252573E+05 -8.894897E+04 -7.927678E+04 -2.827262E+04  1.734386E-11 -1.414780E-10
       277  13  4.855481E+05  3.721717E+03  1.311764E+04 -2.758769E+04  1.087403E-11  8.858421E-11
       277  14  4.847315E+05 -3.880613E+02  6.904508E+03 -1.433137E+04 -4.863429E-11 -7.722514E-11
       277  15  4.855603E+05 -2.443126E+02  4.058266E+03 -2.758580E+04  6.230918E-11 -1.814076E-10
       277  16  9.439904E+05  1.165550E+05  1.192247E+05 -2.866427E+04  3.775412E-11  3.671603E-13
       277  17  8.941173E+05  1.003310E+05  1.014368E+05 -1.452655E+04  7.693317E-10  1.022519E-10
       277  18  8.459832E+05  8.845124E+04  8.738464E+04 -2.689859E+04  1.647481E-10 -1.020373E-10
       277  19  2.730001E+04 -1.091260E+05 -9.300258E+04 -2.651178E+04 -1.087669E+04 -1.856533E+04
       277  20  7.550063E+04 -1.011185E+05 -8.763823E+04 -1.413622E+04 -7.913524E+03 -1.707110E+04
       277  21  1.252574E+05 -8.894873E+04 -7.927632E+04 -2.827256E+04 -4.949074E+03 -1.481247E+04
       277  22  4.855483E+05  3.722114E+03  1.311848E+04 -2.758754E+04 -1.010883E+04 -1.856394E+04
       277  23  4.847316E+05 -3.877366E+02  6.905138E+03 -1.433128E+04 -6.611272E+03 -1.706982E+04
       277  24  4.855604E+05 -2.440743E+02  4.058696E+03 -2.758577E+04 -3.112666E+03 -1.481153E+04
       277  25  9.439906E+05  1.165554E+05  1.192255E+05 -2.866413E+04 -9.340396E+03 -1.856256E+04
       277  26  8.941174E+05  1.003313E+05  1.014374E+05 -1.452648E+04 -5.308167E+03 -1.706855E+04
       277  27  8.459833E+05  8.845148E+04  8.738506E+04 -2.689857E+04 -1.275201E+03 -1.481059E+04
       278   1  1.729023E+05 -7.660024E+04 -6.886485E+04 -2.753997E+04  4.071826E+03  1.334653E+04
       278   2  2.213456E+05 -6.497515E+04 -5.912659E+04 -1.440709E+04  3.203135E+03  1.103878E+04
       278   3  2.700312E+05 -5.301528E+04 -4.872977E+04 -2.758476E+04  2.333390E+03  8.697024E+03
       278   4  4.852570E+05  2.514283E+02  3.148732E+03 -2.754163E+04  2.477994E+03  1.334589E+04
       278   5  4.851380E+05 -5.258224E+01  1.794346E+03 -1.438669E+04  1.585177E+03  1.103845E+04
       278   6  4.852639E+05 -1.741561E+01  1.115293E+03 -2.754162E+04  6.913734E+02  8.697021E+03
       278   7  7.977019E+05  7.709627E+04  7.515584E+04 -2.754328E+04  8.833667E+02  1.334526E+04
       278   8  7.489947E+05  6.486511E+04  6.271065E+04 -1.436629E+04 -3.346284E+01  1.103813E+04
       278   9  7.005394E+05  5.297720E+04  5.095727E+04 -2.749847E+04 -9.512078E+02  8.697018E+03
       278  10  1.729023E+05 -7.660043E+04 -6.886521E+04 -2.754001E+04  7.762647E-12 -1.217085E-12
       278  11  2.213456E+05 -6.497528E+04 -5.912684E+04 -1.440712E+04 -1.295088E-11 -2.528994E-11
       278  12  2.700312E+05 -5.301537E+04 -4.872993E+04 -2.758477E+04  2.384980E-10  1.405596E-10
       278  13  4.852570E+05  2.512353E+02  3.148386E+03 -2.754165E+04 -2.886450E-10 -1.638634E-10
       278  14  4.851380E+05 -5.271379E+01  1.794112E+03 -1.438671E+04  5.414659E-10  5.837746E-11
       278  15  4.852639E+05 -1.749698E+01  1.115150E+03 -2.754163E+04  1.367811E-10 -2.657197E-12
       278  16  7.977018E+05  7.709607E+04  7.515550E+04 -2.754329E+04  7.485471E-11 -1.773639E-10
       278  17  7.489947E+05  6.486498E+04  6.271043E+04 -1.436629E+04  2.412037E-10 -1.890897E-11
       278  18  7.005394E+05  5.297712E+04  5.095713E+04 -2.749846E+04  1.409659E-10 -4.598075E-11
       278  19  1.729023E+05 -7.660024E+04 -6.886485E+04 -2.753997E+04 -4.071826E+03 -1.334653E+04
       278  20  2.213456E+05 -6.497515E+04 -5.912659E+04 -1.440709E+04 -3.203135E+03 -1.103878E+04
       278  21  2.700312E+05 -5.301528E+04 -4.872977E+04 -2.758476E+04 -2.333390E+03 -8.697024E+03
       278  22  4.852570E+05  2.514283E+02  3.148732E+03 -2.754163E+04 -2.477994E+03 -1.334589E+04
       278  23  4.851380E+05 -5.258224E+01  1.794346E+03 -1.438669E+04 -1.585177E+03 -1.103845E+04
       278  24  4.852639E+05 -1.741561E+01  1.115293E+03 -2.754162E+04 -6.913734E+02 -8.697021E+03
       278  25  7.977019E+05  7.709627E+04  7.515584E+04 -2.754328E+04 -8.833667E+02 -1.334526E+04
       278  26  7.489947E+05  6.486511E+04  6.271065E+04 -1.436629E+04  3.346284E+01 -1.103813E+04
       278  27  7.005394E+05  5.297720E+04  5.095727E+04 -2.749847E+04  9.512078E+02 -8.697018E+03
       279   1  3.176220E+05 -4.120150E+04 -3.765022E+04 -2.750655E+04  2.136061E+03  7.328931E+03
       279   2  3.659284E+05 -2.935679E+04 -2.685025E+04 -1.440663E+04  1.793196E+03  4.991649E+03
       279   3  4.142891E+05 -1.747279E+04 -1.581815E+04 -2.749544E+04  1.449846E+03  2.654905E+03
       279   4  4.852255E+05  1.672979E+01  9.111168E+02 -2.751464E+04  5.085359E+02  7.329075E+03
       279   5  4.852013E+05 -4.942454E+00  6.919659E+02 -1.442043E+04  1.659012E+02  4.991932E+03
       279   6  4.852285E+05  1.259539E+01  7.046749E+02 -2.751464E+04 -1.771921E+02  2.655334E+03
       279   7  6.528549E+05  4.123300E+04  3.947060E+04 -2.752272E+04 -1.119425E+03  7.329220E+03
       279   8  6.044874E+05  2.934591E+04  2.823325E+04 -1.443423E+04 -1.461703E+03  4.992214E+03
       279   9  5.561725E+05  1.749763E+04  1.722717E+04 -2.753384E+04 -1.804414E+03  2.655764E+03
       279  10  3.176219E+05 -4.120156E+04 -3.765033E+04 -2.750656E+04 -3.422270E-12  3.585617E-12
       279  11  3.659284E+05 -2.935682E+04 -2.685031E+04 -1.440663E+04 -4.449878E-11 -1.020808E-11
       279  12  4.142891E+05 -1.747280E+04 -1.581816E+04 -2.749544E+04  1.798562E-10 -1.130798E-10
       279  13  4.852254E+05  1.667202E+01  9.110153E+02 -2.751464E+04  5.079348E-12  2.287157E-11
       279  14  4.852013E+05 -4.969227E+00  6.919190E+02 -1.442043E+04 -5.988252E-10  7.472973E-11
       279  15  4.852285E+05  1.258781E+01  7.046616E+02 -2.751464E+04 -2.956272E-11  3.983614E-11
       279  16  6.528549E+05  4.123294E+04  3.947050E+04 -2.752272E+04 -6.842678E-11 -5.231859E-12
       279  17  6.044874E+05  2.934588E+04  2.823320E+04 -1.443422E+04  3.133944E-10  1.950920E-10
       279  18  5.561724E+05  1.749762E+04  1.722715E+04 -2.753384E+04 -2.536194E-10  1.810788E-10
       279  19  3.176220E+05 -4.120150E+04 -3.765022E+04 -2.750655E+04 -2.136061E+03 -7.328931E+03
       279  20  3.659284E+05 -2.935679E+04 -2.685025E+04 -1.440663E+04 -1.793196E+03 -4.991649E+03
       279  21  4.142891E+05 -1.747279E+04 -1.581815E+04 -2.749544E+04 -1.449846E+03 -2.654905E+03
       279  22  4.852255E+05  1.672979E+01  9.111168E+02 -2.751464E+04 -5.085359E+02 -7.329075E+03
       279  23  4.852013E+05 -4.942454E+00  6.919659E+02 -1.442043E+04 -1.659012E+02 -4.991932E+03
       279  24  4.852285E+05  1.259539E+01  7.046749E+02 -2.751464E+04  1.771921E+02 -2.655334E+03
       279  25  6.528549E+05  4.123300E+04  3.947060E+04 -2.752272E+04  1.119425E+03 -7.329220E+03
       279  26  6.044874E+05  2.934591E+04  2.823325E+04 -1.443423E+04  1.461703E+03 -4.992214E+03
       279  27  5.561725E+05  1.749763E+04  1.722717E+04 -2.753384E+04  1.804414E+03 -2.655764E+03
       280   1  4.617875E+05 -5.731605E+03 -4.482985E+03 -2.748637E+04  1.313463E+03  1.295391E+03
       280   2  5.100281E+05  6.103551E+03  6.885146E+03 -1.440826E+04  7.420446E+02 -1.039334E+03
       280   3  5.583495E+05  1.801454E+04  1.864034E+04 -2.748623E+04  1.706768E+02 -3.372950E+03
       280   4  4.852356E+05  9.905304E+00  7.887928E+02 -2.750747E+04 -3.129415E+02  1.295857E+03
       280   5  4.851960E+05 -6.844904E+00  1.151429E+03 -1.442939E+04 -8.836239E+02 -1.038903E+03
       280   6  4.852349E+05  5.227549E+01  1.900755E+03 -2.750745E+04 -1.454212E+03 -3.372544E+03
       280   7  5.086842E+05  5.751379E+03  6.060546E+03 -2.752858E+04 -1.939407E+03  1.296323E+03
       280   8  4.603644E+05 -6.117282E+03 -4.582320E+03 -1.445052E+04 -2.509228E+03 -1.038471E+03
       280   9  4.121252E+05 -1.791036E+04 -1.483917E+04 -2.752867E+04 -3.078912E+03 -3.372137E+03
       280  10  4.617875E+05 -5.731607E+03 -4.482992E+03 -2.748637E+04 -1.044704E-10 -1.675290E-10
       280  11  5.100281E+05  6.103549E+03  6.885143E+03 -1.440826E+04 -3.092016E-10 -1.338980E-10
       280  12  5.583495E+05  1.801453E+04  1.864032E+04 -2.748623E+04 -5.729632E-10  1.297454E-10
       280  13  4.852356E+05  9.903474E+00  7.887894E+02 -2.750747E+04 -6.907193E-11 -3.590763E-11
       280  14  4.851960E+05 -6.846272E+00  1.151425E+03 -1.442939E+04 -3.438738E-10 -2.079093E-11
       280  15  4.852349E+05  5.226270E+01  1.900729E+03 -2.750746E+04  2.045403E-10  1.396465E-10
       280  16  5.086842E+05  5.751377E+03  6.060536E+03 -2.752857E+04 -2.457570E-10 -3.518785E-14
       280  17  4.603644E+05 -6.117285E+03 -4.582334E+03 -1.445052E+04  7.419376E-11 -9.348256E-11
       280  18  4.121252E+05 -1.791038E+04 -1.483921E+04 -2.752868E+04  2.251033E-10 -8.534308E-12
       280  19  4.617875E+05 -5.731605E+03 -4.482985E+03 -2.748637E+04 -1.313463E+03 -1.295391E+03
       280  20  5.100281E+05  6.103551E+03  6.885146E+03 -1.440826E+04 -7.420446E+02  1.039334E+03
       280  21  5.583495E+05  1.801454E+04  1.864034E+04 -2.748623E+04 -1.706768E+02  3.372950E+03
       280  22  4.852356E+05  9.905304E+00  7.887928E+02 -2.750747E+04  3.129415E+02 -1.295857E+03
       280  23  4.851960E+05 -6.844904E+00  1.151429E+03 -1.442939E+04  8.836239E+02  1.038903E+03
       280  24  4.852349E+05  5.227549E+01  1.900755E+03 -2.750745E+04  1.454212E+03  3.372544E+03
       280  25  5.086842E+05  5.751379E+03  6.060546E+03 -2.752858E+04  1.939407E+03 -1.296323E+03
       280  26  4.603644E+05 -6.117282E+03 -4.582320E+03 -1.445052E+04  2.509228E+03  1.038471E+03
       280  27  4.121252E+05 -1.791036E+04 -1.483917E+04 -2.752867E+04  3.078912E+03  3.372137E+03
       281   1  6.059660E+05  2.968096E+04  3.045681E+04 -2.738364E+04 -2.106124E+02 -4.736770E+03
       281   2  6.541231E+05  4.150159E+04  4.323789E+04 -1.438644E+04 -2.327836E+03 -7.071111E+03
       281   3  7.027724E+05  5.414784E+04  5.760388E+04 -2.760951E+04 -4.444553E+03 -9.375631E+03
       281   4  4.853234E+05 -3.182837E+01  2.461083E+03 -2.752183E+04 -1.846997E+03 -4.736436E+03
       281   5  4.850773E+05 -9.185374E+01  4.207948E+03 -1.441143E+04 -3.942974E+03 -7.070988E+03
       281   6  4.853184E+05  6.705969E+02  7.525672E+03 -2.752172E+04 -6.038282E+03 -9.375707E+03
       281   7  3.646942E+05 -2.974564E+04 -2.553561E+04 -2.766000E+04 -3.483067E+03 -4.736102E+03
       281   8  3.160578E+05 -4.168729E+04 -3.482388E+04 -1.443640E+04 -5.557676E+03 -7.070865E+03
       281   9  2.679082E+05 -5.280995E+04 -4.255566E+04 -2.743395E+04 -7.631458E+03 -9.375784E+03
       281  10  6.059660E+05  2.968094E+04  3.045677E+04 -2.738364E+04 -7.252392E-11 -8.670845E-12
       281  11  6.541231E+05  4.150153E+04  4.323778E+04 -1.438646E+04 -3.285739E-10 -1.348950E-10
       281  12  7.027723E+05  5.414774E+04  5.760368E+04 -2.760955E+04 -3.454077E-10  8.718557E-12
       281  13  4.853234E+05 -3.185338E+01  2.461034E+03 -2.752184E+04  3.214714E-10 -1.346039E-11
       281  14  4.850772E+05 -9.191161E+01  4.207825E+03 -1.441145E+04  2.813342E-10 -6.059127E-11
       281  15  4.853184E+05  6.704927E+02  7.525438E+03 -2.752176E+04 -8.794593E-12 -2.115372E-11
       281  16  3.646942E+05 -2.974567E+04 -2.553568E+04 -2.766001E+04 -3.379011E-10  2.465258E-11
       281  17  3.160578E+05 -4.168736E+04 -3.482404E+04 -1.443643E+04 -1.177413E-10 -7.234733E-11
       281  18  2.679081E+05 -5.281006E+04 -4.255594E+04 -2.743401E+04 -4.795171E-11  2.026199E-12
       281  19  6.059660E+05  2.968096E+04  3.045681E+04 -2.738364E+04  2.106124E+02  4.736770E+03
       281  20  6.541231E+05  4.150159E+04  4.323789E+04 -1.438644E+04  2.327836E+03  7.071111E+03
       281  21  7.027724E+05  5.414784E+04  5.760388E+04 -2.760951E+04  4.444553E+03  9.375631E+03
       281  22  4.853234E+05 -3.182837E+01  2.461083E+03 -2.752183E+04  1.846997E+03  4.736436E+03
       281  23  4.850773E+05 -9.185374E+01  4.207948E+03 -1.441143E+04  3.942974E+03  7.070988E+03
       281  24  4.853184E+05  6.705969E+02  7.525672E+03 -2.752172E+04  6.038282E+03  9.375707E+03
       281  25  3.646942E+05 -2.974564E+04 -2.553561E+04 -2.766000E+04  3.483067E+03  4.736102E+03
       281  26  3.160578E+05 -4.168729E+04 -3.482388E+04 -1.443640E+04  5.557676E+03  7.070865E+03
       281  27  2.679082E+05 -5.280995E+04 -4.255566E+04 -2.743395E+04  7.631458E+03  9.375784E+03
       282   1  7.512351E+05  6.474513E+04  7.108318E+04 -2.602230E+04 -5.759511E+03 -1.082018E+04
       282   2  7.980359E+05  7.637827E+04  8.913574E+04 -1.511113E+04 -1.465039E+04 -1.308183E+04
       282   3  8.486526E+05  9.837186E+04  1.155756E+05 -3.055445E+04 -2.354118E+04 -1.469733E+04
       282   4  4.860351E+05 -5.276868E+02  9.732995E+03 -2.755122E+04 -7.557858E+03 -1.082042E+04
       282   5  4.841609E+05 -8.477207E+02  1.665186E+04 -1.437446E+04 -1.599479E+04 -1.308246E+04
       282   6  4.860234E+05  9.117063E+03  3.164616E+04 -2.755281E+04 -2.443096E+04 -1.469825E+04
       282   7  2.209001E+05 -6.580543E+04 -5.162187E+04 -2.907947E+04 -9.355444E+03 -1.082066E+04
       282   8  1.703768E+05 -7.808061E+04 -5.583858E+04 -1.363816E+04 -1.733853E+04 -1.308308E+04
       282   9  1.235155E+05 -8.014693E+04 -5.229206E+04 -2.455294E+04 -2.532021E+04 -1.469918E+04
       282  10  7.512351E+05  6.474500E+04  7.108290E+04 -2.602235E+04 -8.217094E-11 -5.858023E-11
       282  11  7.980356E+05  7.637803E+04  8.913502E+04 -1.511129E+04 -4.848891E-10 -6.068722E-11
       282  12  8.486520E+05  9.837148E+04  1.155741E+05 -3.055473E+04 -3.797548E-10  2.492813E-10
       282  13  4.860351E+05 -5.278278E+02  9.732668E+03 -2.755128E+04 -5.904664E-10  4.420155E-11
       282  14  4.841605E+05 -8.479731E+02  1.665106E+04 -1.437463E+04 -3.449606E-10  5.128136E-11
       282  15  4.860227E+05  9.116671E+03  3.164463E+04 -2.755310E+04 -5.782368E-10  4.085372E-11
       282  16  2.209000E+05 -6.580558E+04 -5.162226E+04 -2.907955E+04 -1.740570E-10  1.093165E-10
       282  17  1.703764E+05 -7.808087E+04 -5.583946E+04 -1.363834E+04 -2.608318E-10  1.526476E-11
       282  18  1.235147E+05 -8.014734E+04 -5.229367E+04 -2.455324E+04 -2.022388E-11 -8.870810E-11
       282  19  7.512351E+05  6.474513E+04  7.108318E+04 -2.602230E+04  5.759511E+03  1.082018E+04
       282  20  7.980359E+05  7.637827E+04  8.913574E+04 -1.511113E+04  1.465039E+04  1.308183E+04
       282  21  8.486526E+05  9.837186E+04  1.155756E+05 -3.055445E+04  2.354118E+04  1.469733E+04
       282  22  4.860351E+05 -5.276868E+02  9.732995E+03 -2.755122E+04  7.557858E+03  1.082042E+04
       282  23  4.841609E+05 -8.477207E+02  1.665186E+04 -1.437446E+04  1.599479E+04  1.308246E+04
       282  24  4.860234E+05  9.117063E+03  3.164616E+04 -2.755281E+04  2.443096E+04  1.469825E+04
       282  25  2.209001E+05 -6.580543E+04 -5.162187E+04 -2.907947E+04  9.355444E+03  1.082066E+04
       282  26  1.703768E+05 -7.808061E+04 -5.583858E+04 -1.363816E+04  1.733853E+04  1.308308E+04
       282  27  1.235155E+05 -8.014693E+04 -5.229206E+04 -2.455294E+04  2.532021E+04  1.469918E+04
       283   1  9.043270E+05  9.454783E+04  1.339161E+05 -1.010102E+04 -2.541941E+04 -1.761750E+04
       283   2  9.343813E+05  1.039400E+05  1.712858E+05 -2.917301E+04 -6.898634E+04 -1.821669E+04
       283   3  1.002988E+06  2.442852E+05  2.697621E+05 -7.449717E+04 -1.125664E+05 -6.034558E+03
       283   4  4.934184E+05 -6.517406E+03  3.924872E+04 -2.750691E+04 -3.026421E+04 -1.761923E+04
       283   5  4.748845E+05 -9.174276E+03  6.474913E+04 -1.442154E+04 -6.490480E+04 -1.821703E+04
       283   6  4.933795E+05  1.176223E+05  1.451910E+05 -2.758580E+04 -9.955442E+04 -6.033822E+03
       283   7  8.266642E+04 -1.075933E+05 -5.542967E+04 -4.490122E+04 -3.510582E+04 -1.762070E+04
       283   8  1.558290E+04 -1.223026E+05 -4.180153E+04  3.189354E+02 -6.082625E+04 -1.821719E+04
       283   9 -1.598709E+04 -9.051488E+03  2.060266E+04  1.928699E+04 -8.655304E+04 -6.031123E+03
       283  10  9.043262E+05  9.454732E+04  1.339143E+05 -1.010138E+04  3.475437E-10  4.251260E-10
       283  11  9.343761E+05  1.039384E+05  1.712763E+05 -2.917403E+04 -3.620115E-10  6.522633E-11
       283  12  1.002974E+06  2.442818E+05  2.697383E+05 -7.449772E+04 -1.672494E-10 -1.160089E-10
       283  13  4.934173E+05 -6.517985E+03  3.924641E+04 -2.750734E+04  2.608537E-10  1.347354E-10
       283  14  4.748799E+05 -9.175762E+03  6.474059E+04 -1.442249E+04  6.721185E-10 -9.452350E-11
       283  15  4.933688E+05  1.176196E+05  1.451723E+05 -2.758629E+04  1.834292E-11  4.144770E-11
       283  16  8.266501E+04 -1.075940E+05 -5.543257E+04 -4.490172E+04  7.255864E-11 -1.253861E-10
       283  17  1.557884E+04 -1.223039E+05 -4.180911E+04  3.180429E+02  3.037526E-10  2.041073E-10
       283  18 -1.599515E+04 -9.053538E+03  2.058851E+04  1.928657E+04 -3.802122E-10  1.069678E-11
       283  19  9.043270E+05  9.454783E+04  1.339161E+05 -1.010102E+04  2.541941E+04  1.761750E+04
       283  20  9.343813E+05  1.039400E+05  1.712858E+05 -2.917301E+04  6.898634E+04  1.821669E+04
       283  21  1.002988E+06  2.442852E+05  2.697621E+05 -7.449717E+04  1.125664E+05  6.034558E+03
       283  22  4.934184E+05 -6.517406E+03  3.924872E+04 -2.750691E+04  3.026421E+04  1.761923E+04
       283  23  4.748845E+05 -9.174276E+03  6.474913E+04 -1.442154E+04  6.490480E+04  1.821703E+04
       283  24  4.933795E+05  1.176223E+05  1.451910E+05 -2.758580E+04  9.955442E+04  6.033822E+03
       283  25  8.266642E+04 -1.075933E+05 -5.542967E+04 -4.490122E+04  3.510582E+04  1.762070E+04
       283  26  1.558290E+04 -1.223026E+05 -4.180153E+04  3.189354E+02  6.082625E+04  1.821719E+04
       283  27 -1.598709E+04 -9.051488E+03  2.060266E+04  1.928699E+04  8.655304E+04  6.031123E+03
       284   1  1.338551E+05  8.454254E+05  1.457179E+05 -7.611505E+04  3.024515E+03  5.539747E+04
       284   2  4.870485E+04  7.437200E+05  8.075510E+04 -3.566409E+04  8.267841E+03  3.303159E+04
       284   3  2.722295E+04  6.606930E+05  4.622857E+04 -4.486425E+04  5.063845E+03  1.065673E+04
       284   4  5.710106E+04  5.373574E+05  7.015362E+04 -5.299423E+04  3.035875E+03  4.881096E+04
       284   5 -4.324729E+03  5.285405E+05  3.076294E+04 -2.821187E+04  8.269445E+03  3.233765E+04
       284   6 -3.090945E+03  5.373830E+05  1.773069E+04 -5.307935E+04  5.055518E+03  1.585199E+04
       284   7 -1.965802E+04  2.293769E+05 -5.417184E+03 -2.988485E+04  3.046748E+03  4.222770E+04
       284   8 -5.735736E+04  3.134037E+05 -1.923232E+04 -2.076223E+04  8.271033E+03  3.164394E+04
       284   9 -3.340564E+04  4.140873E+05 -1.076806E+04 -6.129280E+04  5.047052E+03  2.104622E+04
       284  10  1.338543E+05  8.454221E+05  1.457121E+05 -7.611519E+04 -7.326923E-11 -2.053839E-10
       284  11  4.870448E+04  7.437189E+05  8.075293E+04 -3.566431E+04 -3.296557E-10  1.689849E-10
       284  12  2.722290E+04  6.606929E+05  4.622831E+04 -4.486429E+04  6.211919E-10  3.457918E-10
       284  13  5.710041E+04  5.373548E+05  7.014913E+04 -5.299435E+04  3.891435E-10 -9.627662E-11
       284  14 -4.325083E+03  5.285394E+05  3.076084E+04 -2.821208E+04 -1.818343E-09  1.708303E-10
       284  15 -3.091040E+03  5.373827E+05  1.773017E+04 -5.307941E+04  3.588485E-10 -7.364293E-12
       284  16 -1.965851E+04  2.293750E+05 -5.420551E+03 -2.988496E+04 -5.699671E-11  3.061959E-10
       284  17 -5.735771E+04  3.134026E+05 -1.923432E+04 -2.076244E+04 -5.660249E-10 -5.014408E-11
       284  18 -3.340578E+04  4.140868E+05 -1.076894E+04 -6.129289E+04 -3.099880E-10 -3.715668E-10
       284  19  1.338551E+05  8.454254E+05  1.457179E+05 -7.611505E+04 -3.024515E+03 -5.539747E+04
       284  20  4.870485E+04  7.437200E+05  8.075510E+04 -3.566409E+04 -8.267841E+03 -3.303159E+04
       284  21  2.722295E+04  6.606930E+05  4.622857E+04 -4.486425E+04 -5.063845E+03 -1.065673E+04
       284  22  5.710106E+04  5.373574E+05  7.015362E+04 -5.299423E+04 -3.035875E+03 -4.881096E+04
       284  23 -4.324729E+03  5.285405E+05  3.076294E+04 -2.821187E+04 -8.269445E+03 -3.233765E+04
       284  24 -3.090945E+03  5.373830E+05  1.773069E+04 -5.307935E+04 -5.055518E+03 -1.585199E+04
       284  25 -1.965802E+04  2.293769E+05 -5.417184E+03 -2.988485E+04 -3.046748E+03 -4.222770E+04
       284  26 -5.735736E+04  3.134037E+05 -1.923232E+04 -2.076223E+04 -8.271033E+03 -3.164394E+04
       284  27 -3.340564E+04  4.140873E+05 -1.076806E+04 -6.129280E+04 -5.047052E+03 -2.104622E+04
       285   1  1.267124E+04  5.661191E+05  2.109451E+04 -5.435675E+04  1.377349E+03  1.052744E+04
       285   2 -1.487473E+04  4.734157E+05 -8.749718E+03 -2.858706E+04 -2.502113E+03  8.059452E+03
       285   3 -3.912708E+04  3.816794E+05 -3.620760E+04 -5.273521E+04 -6.236374E+03  5.592442E+03
       285   4  4.686982E+03  5.336763E+05  1.361978E+04 -5.310864E+04  1.372942E+03  1.328276E+04
       285   5 -1.675282E+02  5.331876E+05  5.056537E+03 -2.815492E+04 -2.506238E+03  1.071395E+04
       285   6 -1.710163E+03  5.336764E+05 -1.049088E+03 -5.311862E+04 -6.240244E+03  8.145758E+03
       285   7 -3.297339E+03  5.012344E+05  6.145014E+03 -5.186060E+04  1.368546E+03  1.603794E+04
       285   8  1.453943E+04  5.929627E+05  1.886258E+04 -2.772273E+04 -2.510358E+03  1.336870E+04
       285   9  3.570514E+04  6.856947E+05  3.410791E+04 -5.350211E+04 -6.244118E+03  1.069969E+04
       285  10  1.267121E+04  5.661190E+05  2.109430E+04 -5.435677E+04  1.451659E-10 -4.398924E-10
       285  11 -1.487475E+04  4.734156E+05 -8.749852E+03 -2.858704E+04  3.255929E-10 -2.141686E-10
       285  12 -3.912713E+04  3.816793E+05 -3.620774E+04 -5.273518E+04 -6.332093E-10  8.441614E-11
       285  13  4.686933E+03  5.336761E+05  1.361945E+04 -5.310866E+04  3.812523E-10 -1.667690E-11
       285  14 -1.675657E+02  5.331874E+05  5.056310E+03 -2.815490E+04  1.066722E-09 -1.606368E-10
       285  15 -1.710223E+03  5.336763E+05 -1.049286E+03 -5.311858E+04  9.263542E-10 -1.319614E-10
       285  16 -3.297410E+03  5.012341E+05  6.144528E+03 -5.186062E+04 -1.533537E-10  4.704530E-10
       285  17  1.453937E+04  5.929625E+05  1.886223E+04 -2.772270E+04 -1.071148E-09  2.278885E-10
       285  18  3.570507E+04  6.856946E+05  3.410762E+04 -5.350206E+04 -4.190151E-10 -3.131964E-11
       285  19  1.267124E+04  5.661191E+05  2.109451E+04 -5.435675E+04 -1.377349E+03 -1.052744E+04
       285  20 -1.487473E+04  4.734157E+05 -8.749718E+03 -2.858706E+04  2.502113E+03 -8.059452E+03
       285  21 -3.912708E+04  3.816794E+05 -3.620760E+04 -5.273521E+04  6.236374E+03 -5.592442E+03
       285  22  4.686982E+03  5.336763E+05  1.361978E+04 -5.310864E+04 -1.372942E+03 -1.328276E+04
       285  23 -1.675282E+02  5.331876E+05  5.056537E+03 -2.815492E+04  2.506238E+03 -1.071395E+04
       285  24 -1.710163E+03  5.336764E+05 -1.049088E+03 -5.311862E+04  6.240244E+03 -8.145758E+03
       285  25 -3.297339E+03  5.012344E+05  6.145014E+03 -5.186060E+04 -1.368546E+03 -1.603794E+04
       285  26  1.453943E+04  5.929627E+05  1.886258E+04 -2.772273E+04  2.510358E+03 -1.336870E+04
       285  27  3.570514E+04  6.856947E+05  3.410791E+04 -5.350211E+04  6.244118E+03 -1.069969E+04
       286   1 -5.817133E+04  2.891130E+05 -5.959047E+04 -4.977520E+04 -1.025027E+04  2.539257E+03
       286   2 -8.086788E+04  2.003733E+05 -8.759838E+04 -3.047545E+04 -1.311454E+04  1.575878E+04
       286   3 -1.271569E+05  1.039311E+05 -1.301306E+05 -6.088694E+04 -4.636616E+03  2.899027E+04
       286   4  1.616580E+03  5.320407E+05 -3.526120E+03 -5.306050E+04 -1.025894E+04  8.470818E+03
       286   5  1.612222E+03  5.352045E+05 -9.857759E+03 -2.821925E+04 -1.311136E+04  1.379718E+04
       286   6 -2.060752E+04  5.320311E+05 -2.523016E+04 -5.308854E+04 -4.624061E+03  1.913768E+04
       286   7  6.140041E+04  7.750230E+05  5.253444E+04 -5.634708E+04 -1.026767E+04  1.440468E+04
       286   8  8.408445E+04  8.701392E+05  6.787535E+04 -2.596178E+04 -1.310819E+04  1.183452E+04
       286   9  8.592857E+04  9.602982E+05  7.965729E+04 -4.528470E+04 -4.611758E+03  9.278311E+03
       286  10 -5.817144E+04  2.891129E+05 -5.959068E+04 -4.977518E+04 -3.575868E-12 -8.409547E-11
       286  11 -8.086813E+04  2.003730E+05 -8.759917E+04 -3.047528E+04  2.602254E-10 -5.625995E-11
       286  12 -1.271571E+05  1.039302E+05 -1.301322E+05 -6.088683E+04 -2.282983E-10  1.397947E-10
       286  13  1.616448E+03  5.320406E+05 -3.526453E+03 -5.306043E+04 -1.127847E-09  6.252395E-11
       286  14  1.611986E+03  5.352043E+05 -9.858439E+03 -2.821910E+04  3.888808E-10 -8.425845E-11
       286  15 -2.060764E+04  5.320307E+05 -2.523089E+04 -5.308847E+04 -3.166911E-10  3.613147E-11
       286  16  6.140024E+04  7.750227E+05  5.253385E+04 -5.634696E+04  1.639507E-10  1.546541E-11
       286  17  8.408422E+04  8.701390E+05  6.787476E+04 -2.596166E+04 -1.257606E-10 -5.249952E-11
       286  18  8.592853E+04  9.602981E+05  7.965709E+04 -4.528466E+04 -4.392558E-10 -6.459078E-11
       286  19 -5.817133E+04  2.891130E+05 -5.959047E+04 -4.977520E+04  1.025027E+04 -2.539257E+03
       286  20 -8.086788E+04  2.003733E+05 -8.759838E+04 -3.047545E+04  1.311454E+04 -1.575878E+04
       286  21 -1.271569E+05  1.039311E+05 -1.301306E+05 -6.088694E+04  4.636616E+03 -2.899027E+04
       286  22  1.616580E+03  5.320407E+05 -3.526120E+03 -5.306050E+04  1.025894E+04 -8.470818E+03
       286  23  1.612222E+03  5.352045E+05 -9.857759E+03 -2.821925E+04  1.311136E+04 -1.379718E+04
       286  24 -2.060752E+04  5.320311E+05 -2.523016E+04 -5.308854E+04  4.624061E+03 -1.913768E+04
       286  25  6.140041E+04  7.750230E+05  5.253444E+04 -5.634708E+04  1.026767E+04 -1.440468E+04
       286  26  8.408445E+04  8.701392E+05  6.787535E+04 -2.596178E+04  1.310819E+04 -1.183452E+04
       286  27  8.592857E+04  9.602982E+05  7.965729E+04 -4.528470E+04  4.611758E+03 -9.278311E+03
       287   1 -8.319699E+05 -3.602333E+05 -2.546554E+05 -2.891587E+05 -1.078855E+05 -3.504977E+04
       287   2 -7.984197E+05 -2.031275E+05 -1.556086E+05 -2.899976E+05 -7.025748E+04 -9.350268E+03
       287   3 -8.080527E+05 -1.843133E+05 -1.224321E+05 -2.698642E+05 -2.877714E+04  6.121932E+03
       287   4 -4.793418E+05 -1.846926E+05 -1.512042E+05 -1.493496E+05 -9.801343E+04 -3.134362E+04
       287   5 -4.503764E+05 -5.950087E+04 -6.415988E+04 -1.811676E+05 -6.702599E+04 -8.137179E+03
       287   6 -4.632497E+05 -7.124400E+04 -3.769307E+04 -1.920224E+05 -3.218802E+04  4.839693E+03
       287   7 -1.265907E+05 -9.115592E+03 -4.776511E+04 -9.460459E+03 -8.813528E+04 -2.763347E+04
       287   8 -1.022148E+05  8.414050E+04  2.727830E+04 -7.227983E+04 -6.379251E+04 -6.923170E+03
       287   9 -1.183298E+05  4.182688E+04  4.703744E+04 -1.141442E+05 -3.560099E+04  3.556893E+03
       287  10 -8.319827E+05 -3.602377E+05 -2.546797E+05 -2.891617E+05 -2.249502E-10 -7.667936E-12
       287  11 -7.984251E+05 -2.031289E+05 -1.556180E+05 -2.899982E+05 -6.448998E-10 -3.761918E-11
       287  12 -8.080536E+05 -1.843135E+05 -1.224337E+05 -2.698641E+05  1.370312E-10  9.476118E-11
       287  13 -4.793524E+05 -1.846962E+05 -1.512241E+05 -1.493521E+05  6.635227E-10  4.026541E-11
       287  14 -4.503813E+05 -5.950215E+04 -6.416845E+04 -1.811680E+05  6.025045E-10 -7.591880E-12
       287  15 -4.632509E+05 -7.124430E+04 -3.769506E+04 -1.920222E+05 -3.063896E-10  7.413660E-11
       287  16 -1.265993E+05 -9.118498E+03 -4.778114E+04 -9.462421E+03 -5.161753E-10  1.123039E-10
       287  17 -1.022192E+05  8.413936E+04  2.727056E+04 -7.228018E+04  3.268557E-11  1.411870E-10
       287  18 -1.183312E+05  4.182652E+04  4.703503E+04 -1.141441E+05  2.105623E-11  3.746505E-11
       287  19 -8.319699E+05 -3.602333E+05 -2.546554E+05 -2.891587E+05  1.078855E+05  3.504977E+04
       287  20 -7.984197E+05 -2.031275E+05 -1.556086E+05 -2.899976E+05  7.025748E+04  9.350268E+03
       287  21 -8.080527E+05 -1.843133E+05 -1.224321E+05 -2.698642E+05  2.877714E+04 -6.121932E+03
       287  22 -4.793418E+05 -1.846926E+05 -1.512042E+05 -1.493496E+05  9.801343E+04  3.134362E+04
       287  23 -4.503764E+05 -5.950087E+04 -6.415988E+04 -1.811676E+05  6.702599E+04  8.137179E+03
       287  24 -4.632497E+05 -7.124400E+04 -3.769307E+04 -1.920224E+05  3.218802E+04 -4.839693E+03
       287  25 -1.265907E+05 -9.115592E+03 -4.776511E+04 -9.460459E+03  8.813528E+04  2.763347E+04
       287  26 -1.022148E+05  8.414050E+04  2.727830E+04 -7.227983E+04  6.379251E+04  6.923170E+03
       287  27 -1.183298E+05  4.182688E+04  4.703744E+04 -1.141442E+05  3.560099E+04 -3.556893E+03
       288   1 -7.627154E+05 -2.024065E+05 -1.087498E+05 -2.703888E+05 -2.606820E+04  4.813442E+03
       288   2 -7.410226E+05 -1.755831E+05 -8.676379E+04 -2.584399E+05 -1.770765E+04  7.193736E+03
       288   3 -7.136843E+05 -1.703956E+05 -7.376322E+04 -2.561775E+05 -9.132269E+03  9.001731E+03
       288   4 -4.582920E+05 -8.525588E+04 -3.032910E+04 -1.839198E+05 -2.632406E+04  4.716598E+03
       288   5 -4.604769E+05 -6.971734E+04 -1.507080E+04 -1.808629E+05 -1.833233E+04  6.958558E+03
       288   6 -4.569413E+05 -7.573826E+04 -8.502027E+03 -1.874929E+05 -1.012614E+04  8.628154E+03
       288   7 -1.537792E+05  3.190158E+04  4.808358E+04 -9.741221E+04 -2.658006E+04  4.619701E+03
       288   8 -1.798544E+05  3.615378E+04  5.661577E+04 -1.032540E+05 -1.895733E+04  6.723262E+03
       288   9 -2.001331E+05  1.892314E+04  5.675411E+04 -1.187827E+05 -1.112046E+04  8.254414E+03
       288  10 -7.627162E+05 -2.024067E+05 -1.087511E+05 -2.703887E+05 -2.949581E-11  1.122727E-10
       288  11 -7.410229E+05 -1.755832E+05 -8.676447E+04 -2.584398E+05  2.308250E-10  2.603937E-11
       288  12 -7.136844E+05 -1.703957E+05 -7.376353E+04 -2.561774E+05 -1.839661E-10  3.346782E-11
       288  13 -4.582928E+05 -8.525609E+04 -3.033044E+04 -1.839197E+05  6.846393E-10  7.226453E-11
       288  14 -4.604773E+05 -6.971748E+04 -1.507152E+04 -1.808628E+05  7.550012E-10 -8.414960E-11
       288  15 -4.569414E+05 -7.573837E+04 -8.502360E+03 -1.874929E+05 -1.473942E-10  1.188885E-10
       288  16 -1.537800E+05  3.190137E+04  4.808222E+04 -9.741211E+04 -2.321646E-10 -9.920660E-11
       288  17 -1.798548E+05  3.615364E+04  5.661501E+04 -1.032539E+05 -3.913005E-10 -5.001813E-11
       288  18 -2.001333E+05  1.892303E+04  5.675375E+04 -1.187826E+05  1.707458E-10  1.163169E-10
       288  19 -7.627154E+05 -2.024065E+05 -1.087498E+05 -2.703888E+05  2.606820E+04 -4.813442E+03
       288  20 -7.410226E+05 -1.755831E+05 -8.676379E+04 -2.584399E+05  1.770765E+04 -7.193736E+03
       288  21 -7.136843E+05 -1.703956E+05 -7.376322E+04 -2.561775E+05  9.132269E+03 -9.001731E+03
       288  22 -4.582920E+05 -8.525588E+04 -3.032910E+04 -1.839198E+05  2.632406E+04 -4.716598E+03
       288  23 -4.604769E+05 -6.971734E+04 -1.507080E+04 -1.808629E+05  1.833233E+04 -6.958558E+03
       288  24 -4.569413E+05 -7.573826E+04 -8.502027E+03 -1.874929E+05  1.012614E+04 -8.628154E+03
       288  25 -1.537792E+05  3.190158E+04  4.808358E+04 -9.741221E+04  2.658006E+04 -4.619701E+03
       288  26 -1.798544E+05  3.615378E+04  5.661577E+04 -1.032540E+05  1.895733E+04 -6.723262E+03
       288  27 -2.001331E+05  1.892314E+04  5.675411E+04 -1.187827E+05  1.112046E+04 -8.254414E+03
       289   1 -6.851773E+05 -1.626813E+05 -6.482573E+04 -2.495231E+05 -7.784929E+03  8.556782E+03
       289   2 -6.645287E+05 -1.465974E+05 -5.525003E+04 -2.363214E+05 -5.522400E+03  7.944970E+03
       289   3 -6.335481E+05 -1.423210E+05 -4.724040E+04 -2.353892E+05 -3.246498E+03  7.296148E+03
       289   4 -4.563832E+05 -7.690656E+04 -6.549003E+03 -1.868119E+05 -8.607947E+03  8.247478E+03
       289   5 -4.614941E+05 -7.061304E+04 -3.493274E+03 -1.808237E+05 -6.368824E+03  7.627049E+03
       289   6 -4.562691E+05 -7.612174E+04 -1.984520E+03 -1.871050E+05 -4.116414E+03  6.969588E+03
       289   7 -2.275379E+05  8.871555E+03  5.172347E+04 -1.240798E+05 -9.431297E+03  7.938049E+03
       289   8 -2.584197E+05  5.373790E+03  4.826003E+04 -1.253098E+05 -7.215549E+03  7.309015E+03
       289   9 -2.789601E+05 -9.920808E+03  4.326862E+04 -1.388085E+05 -4.986600E+03  6.642927E+03
       289  10 -6.851774E+05 -1.626814E+05 -6.482598E+04 -2.495231E+05  3.074707E-11  1.906445E-10
       289  11 -6.645288E+05 -1.465975E+05 -5.525021E+04 -2.363213E+05  2.633631E-10 -2.587570E-11
       289  12 -6.335482E+05 -1.423210E+05 -4.724052E+04 -2.353891E+05 -1.216588E-10 -1.528742E-10
       289  13 -4.563833E+05 -7.690665E+04 -6.549270E+03 -1.868119E+05 -2.998454E-10  1.618755E-10
       289  14 -4.614942E+05 -7.061311E+04 -3.493459E+03 -1.808237E+05  4.007615E-10  1.394180E-10
       289  15 -4.562691E+05 -7.612180E+04 -1.984643E+03 -1.871050E+05 -6.884070E-12 -1.583660E-10
       289  16 -2.275380E+05  8.871463E+03  5.172319E+04 -1.240798E+05 -2.483561E-10  1.586714E-10
       289  17 -2.584198E+05  5.373718E+03  4.825983E+04 -1.253098E+05 -3.682902E-10 -1.259001E-11
       289  18 -2.789601E+05 -9.920862E+03  4.326849E+04 -1.388085E+05 -4.538469E-11 -2.784297E-11
       289  19 -6.851773E+05 -1.626813E+05 -6.482573E+04 -2.495231E+05  7.784929E+03 -8.556782E+03
       289  20 -6.645287E+05 -1.465974E+05 -5.525003E+04 -2.363214E+05  5.522400E+03 -7.944970E+03
       289  21 -6.335481E+05 -1.423210E+05 -4.724040E+04 -2.353892E+05  3.246498E+03 -7.296148E+03
       289  22 -4.563832E+05 -7.690656E+04 -6.549003E+03 -1.868119E+05  8.607947E+03 -8.247478E+03
       289  23 -4.614941E+05 -7.061304E+04 -3.493274E+03 -1.808237E+05  6.368824E+03 -7.627049E+03
       289  24 -4.562691E+05 -7.612174E+04 -1.984520E+03 -1.871050E+05  4.116414E+03 -6.969588E+03
       289  25 -2.275379E+05  8.871555E+03  5.172347E+04 -1.240798E+05  9.431297E+03 -7.938049E+03
       289  26 -2.584197E+05  5.373790E+03  4.826003E+04 -1.253098E+05  7.215549E+03 -7.309015E+03
       289  27 -2.789601E+05 -9.920808E+03  4.326862E+04 -1.388085E+05  4.986600E+03 -6.642927E+03
       290   1 -6.062635E+05 -1.323526E+05 -3.969760E+04 -2.280690E+05 -2.673331E+03  6.626506E+03
       290   2 -5.855840E+05 -1.170296E+05 -3.254651E+04 -2.146496E+05 -1.695624E+03  5.479298E+03
       290   3 -5.540120E+05 -1.127673E+05 -2.577137E+04 -2.137950E+05 -7.163332E+02  4.326979E+03
       290   4 -4.561821E+05 -7.623069E+04 -1.541264E+03 -1.870670E+05 -3.536018E+03  6.302750E+03
       290   5 -4.616226E+05 -7.066907E+04 -9.543305E+02 -1.807959E+05 -2.561515E+03  5.154442E+03
       290   6 -4.561712E+05 -7.616763E+04 -7.408670E+02 -1.870898E+05 -1.585454E+03  4.001019E+03
       290   7 -3.060782E+05 -2.010713E+04  3.661341E+04 -1.460559E+05 -4.398937E+03  5.978908E+03
       290   8 -3.376460E+05 -2.430751E+04  3.063667E+04 -1.469360E+05 -3.427598E+03  4.829514E+03
       290   9 -3.583211E+05 -3.956736E+04  2.428886E+04 -1.603807E+05 -2.454724E+03  3.675003E+03
       290  10 -6.062635E+05 -1.323526E+05 -3.969769E+04 -2.280689E+05  3.939747E-11 -2.788359E-10
       290  11 -5.855841E+05 -1.170296E+05 -3.254657E+04 -2.146496E+05 -2.357848E-11 -9.858061E-11
       290  12 -5.540120E+05 -1.127673E+05 -2.577141E+04 -2.137950E+05 -4.182495E-11 -1.767688E-10
       290  13 -4.561821E+05 -7.623074E+04 -1.541362E+03 -1.870670E+05  3.937943E-11 -1.883697E-10
       290  14 -4.616226E+05 -7.066910E+04 -9.543927E+02 -1.807959E+05 -3.618264E-10 -1.376850E-10
       290  15 -4.561713E+05 -7.616764E+04 -7.409018E+02 -1.870898E+05 -1.935251E-10 -1.977882E-10
       290  16 -3.060782E+05 -2.010717E+04  3.661331E+04 -1.460559E+05 -1.396856E-10 -1.080962E-10
       290  17 -3.376460E+05 -2.430754E+04  3.063661E+04 -1.469360E+05 -1.795584E-10 -2.185442E-10
       290  18 -3.583211E+05 -3.956737E+04  2.428882E+04 -1.603807E+05 -4.116278E-11 -5.208612E-11
       290  19 -6.062635E+05 -1.323526E+05 -3.969760E+04 -2.280690E+05  2.673331E+03 -6.626506E+03
       290  20 -5.855840E+05 -1.170296E+05 -3.254651E+04 -2.146496E+05  1.695624E+03 -5.479298E+03
       290  21 -5.540120E+05 -1.127673E+05 -2.577137E+04 -2.137950E+05  7.163332E+02 -4.326979E+03
       290  22 -4.561821E+05 -7.623069E+04 -1.541264E+03 -1.870670E+05  3.536018E+03 -6.302750E+03
       290  23 -4.616226E+05 -7.066907E+04 -9.543305E+02 -1.807959E+05  2.561515E+03 -5.154442E+03
       290  24 -4.561712E+05 -7.616763E+04 -7.408670E+02 -1.870898E+05  1.585454E+03 -4.001019E+03
       290  25 -3.060782E+05 -2.010713E+04  3.661341E+04 -1.460559E+05  4.398937E+03 -5.978908E+03
       290  26 -3.376460E+05 -2.430751E+04  3.063667E+04 -1.469360E+05  3.427598E+03 -4.829514E+03
       290  27 -3.583211E+05 -3.956736E+04  2.428886E+04 -1.603807E+05  2.454724E+03 -3.675003E+03
       291   1 -5.266920E+05 -1.025534E+05 -1.861644E+04 -2.063847E+05 -3.014195E+02  3.595785E+03
       291   2 -5.059058E+05 -8.721894E+04 -1.220757E+04 -1.928820E+05  6.606799E+02  2.432162E+03
       291   3 -4.741843E+05 -8.299347E+04 -6.162502E+03 -1.920108E+05  1.622787E+03  1.268190E+03
       291   4 -4.561608E+05 -7.618041E+04 -7.362496E+02 -1.871033E+05 -1.171628E+03  3.269466E+03
       291   5 -4.616312E+05 -7.064962E+04 -9.224491E+02 -1.807785E+05 -2.097279E+02  2.105806E+03
       291   6 -4.561670E+05 -7.622784E+04 -1.472264E+03 -1.870854E+05  7.521595E+02  9.417896E+02
       291   7 -3.856250E+05 -4.980717E+04  1.714347E+04 -1.678201E+05 -2.041940E+03  2.943108E+03
       291   8 -4.173547E+05 -5.408016E+04  1.036252E+04 -1.686742E+05 -1.080204E+03  1.779424E+03
       291   9 -4.381493E+05 -6.946216E+04  3.217969E+03 -1.821598E+05 -1.184989E+02  6.153779E+02
       291  10 -5.266920E+05 -1.025534E+05 -1.861647E+04 -2.063847E+05 -2.232672E-10 -2.686341E-10
       291  11 -5.059058E+05 -8.721895E+04 -1.220758E+04 -1.928820E+05 -2.610239E-10  1.291750E-10
       291  12 -4.741843E+05 -8.299347E+04 -6.162510E+03 -1.920108E+05 -4.473205E-12  2.519034E-13
       291  13 -4.561608E+05 -7.618043E+04 -7.362723E+02 -1.871033E+05 -6.956067E-11 -1.128428E-10
       291  14 -4.616312E+05 -7.064962E+04 -9.224576E+02 -1.807785E+05 -4.582348E-11  1.707867E-11
       291  15 -4.561670E+05 -7.622784E+04 -1.472266E+03 -1.870854E+05 -3.607479E-10 -1.235811E-10
       291  16 -3.856250E+05 -4.980718E+04  1.714345E+04 -1.678201E+05  1.528359E-10  8.754325E-12
       291  17 -4.173547E+05 -5.408017E+04  1.036251E+04 -1.686742E+05  2.050192E-11  2.999371E-11
       291  18 -4.381493E+05 -6.946217E+04  3.217968E+03 -1.821598E+05 -8.500689E-11 -9.652001E-11
       291  19 -5.266920E+05 -1.025534E+05 -1.861644E+04 -2.063847E+05  3.014195E+02 -3.595785E+03
       291  20 -5.059058E+05 -8.721894E+04 -1.220757E+04 -1.928820E+05 -6.606799E+02 -2.432162E+03
       291  21 -4.741843E+05 -8.299347E+04 -6.162502E+03 -1.920108E+05 -1.622787E+03 -1.268190E+03
       291  22 -4.561608E+05 -7.618041E+04 -7.362496E+02 -1.871033E+05  1.171628E+03 -3.269466E+03
       291  23 -4.616312E+05 -7.064962E+04 -9.224491E+02 -1.807785E+05  2.097279E+02 -2.105806E+03
       291  24 -4.561670E+05 -7.622784E+04 -1.472264E+03 -1.870854E+05 -7.521595E+02 -9.417896E+02
       291  25 -3.856250E+05 -4.980717E+04  1.714347E+04 -1.678201E+05  2.041940E+03 -2.943108E+03
       291  26 -4.173547E+05 -5.408016E+04  1.036252E+04 -1.686742E+05  1.080204E+03 -1.779424E+03
       291  27 -4.381493E+05 -6.946216E+04  3.217969E+03 -1.821598E+05  1.184989E+02 -6.153779E+02
       292   1 -4.467880E+05 -7.274193E+04  5.845150E+02 -1.847219E+05  2.197852E+03  5.925607E+02
       292   2 -4.259177E+05 -5.724548E+04  5.756724E+03 -1.710504E+05  4.356129E+03 -1.219034E+02
       292   3 -3.945639E+05 -5.366289E+04  9.460410E+03 -1.698592E+05  6.507333E+03 -8.171144E+02
       292   4 -4.562315E+05 -7.614897E+04 -1.892534E+03 -1.871486E+05  1.321522E+03  2.640250E+02
       292   5 -4.615239E+05 -7.055753E+04 -3.316528E+03 -1.807710E+05  3.492208E+03 -4.458189E+02
       292   6 -4.563358E+05 -7.688248E+04 -6.218900E+03 -1.868741E+05  5.655740E+03 -1.136436E+03
       292   7 -4.656748E+05 -7.955601E+04 -4.369588E+03 -1.895752E+05  4.452075E+02 -6.450571E+01
       292   8 -4.971287E+05 -8.386947E+04 -1.238986E+04 -1.904912E+05  2.628343E+03 -7.697135E+02
       292   9 -5.181037E+05 -1.001017E+05 -2.189845E+04 -2.038874E+05  4.804243E+03 -1.455720E+03
       292  10 -4.467880E+05 -7.274193E+04  5.845052E+02 -1.847219E+05 -1.054916E-11 -1.126570E-10
       292  11 -4.259177E+05 -5.724549E+04  5.756688E+03 -1.710504E+05 -2.111390E-10 -1.219384E-10
       292  12 -3.945639E+05 -5.366290E+04  9.460330E+03 -1.698592E+05 -1.007440E-10  1.061624E-10
       292  13 -4.562315E+05 -7.614897E+04 -1.892538E+03 -1.871486E+05  4.508301E-11 -2.573702E-11
       292  14 -4.615239E+05 -7.055753E+04 -3.316551E+03 -1.807710E+05 -9.356424E-11 -1.170738E-10
       292  15 -4.563358E+05 -7.688249E+04 -6.218963E+03 -1.868741E+05 -1.656799E-10  1.156783E-10
       292  16 -4.656748E+05 -7.955601E+04 -4.369588E+03 -1.895752E+05  8.703822E-11 -1.959036E-10
       292  17 -4.971287E+05 -8.386947E+04 -1.238987E+04 -1.904912E+05 -1.204070E-10 -1.420470E-10
       292  18 -5.181037E+05 -1.001017E+05 -2.189850E+04 -2.038874E+05 -8.822141E-11  1.954555E-10
       292  19 -4.467880E+05 -7.274193E+04  5.845150E+02 -1.847219E+05 -2.197852E+03 -5.925607E+02
       292  20 -4.259177E+05 -5.724548E+04  5.756724E+03 -1.710504E+05 -4.356129E+03  1.219034E+02
       292  21 -3.945639E+05 -5.366289E+04  9.460410E+03 -1.698592E+05 -6.507333E+03  8.171144E+02
       292  22 -4.562315E+05 -7.614897E+04 -1.892534E+03 -1.871486E+05 -1.321522E+03 -2.640250E+02
       292  23 -4.615239E+05 -7.055753E+04 -3.316528E+03 -1.807710E+05 -3.492208E+03  4.458189E+02
       292  24 -4.563358E+05 -7.688248E+04 -6.218900E+03 -1.868741E+05 -5.655740E+03  1.136436E+03
       292  25 -4.656748E+05 -7.955601E+04 -4.369588E+03 -1.895752E+05 -4.452075E+02  6.450571E+01
       292  26 -4.971287E+05 -8.386947E+04 -1.238986E+04 -1.904912E+05 -2.628343E+03  7.697135E+02
       292  27 -5.181037E+05 -1.001017E+05 -2.189845E+04 -2.038874E+05 -4.804243E+03  1.455720E+03
       293   1 -3.666388E+05 -4.344568E+04  1.474141E+04 -1.643588E+05  8.061679E+03 -1.168945E+03
       293   2 -3.458021E+05 -2.598658E+04  1.509418E+04 -1.486423E+05  1.567749E+04  2.100589E+02
       293   3 -3.187421E+05 -2.976263E+04  7.359490E+03 -1.430811E+05  2.316791E+04  1.925389E+03
       293   4 -4.568470E+05 -7.579642E+04 -8.073653E+03 -1.875455E+05  7.108180E+03 -1.526499E+03
       293   5 -4.605737E+05 -6.967040E+04 -1.430103E+04 -1.807755E+05  1.494152E+04 -6.605992E+01
       293   6 -4.581223E+05 -8.482459E+04 -2.878974E+04 -1.841615E+05  2.264915E+04  1.730560E+03
       293   7 -5.470476E+05 -1.081469E+05 -3.088946E+04 -2.107292E+05  6.154830E+03 -1.884004E+03
       293   8 -5.753327E+05 -1.133534E+05 -4.369738E+04 -2.129034E+05  1.420571E+04 -3.421213E+02
       293   9 -5.974835E+05 -1.398847E+05 -6.494060E+04 -2.252334E+05  2.213052E+04  1.535786E+03
       293  10 -3.666389E+05 -4.344569E+04  1.474129E+04 -1.643588E+05  1.090477E-10  1.256684E-10
       293  11 -3.458024E+05 -2.598664E+04  1.509372E+04 -1.486423E+05  2.661568E-10 -1.337206E-10
       293  12 -3.187427E+05 -2.976277E+04  7.358474E+03 -1.430811E+05  8.054697E-11 -7.620244E-11
       293  13 -4.568470E+05 -7.579644E+04 -8.073753E+03 -1.875455E+05 -1.245884E-10 -3.259837E-11
       293  14 -4.605739E+05 -6.967046E+04 -1.430145E+04 -1.807755E+05 -1.832317E-10 -6.146684E-11
       293  15 -4.581229E+05 -8.482473E+04 -2.879071E+04 -1.841616E+05 -6.418393E-12 -1.049931E-12
       293  16 -5.470476E+05 -1.081470E+05 -3.088954E+04 -2.107292E+05 -1.155623E-10  6.429471E-11
       293  17 -5.753329E+05 -1.133534E+05 -4.369776E+04 -2.129034E+05 -1.566625E-10  7.248643E-11
       293  18 -5.974841E+05 -1.398849E+05 -6.494152E+04 -2.252335E+05  1.609908E-10 -6.549890E-11
       293  19 -3.666388E+05 -4.344568E+04  1.474141E+04 -1.643588E+05 -8.061679E+03  1.168945E+03
       293  20 -3.458021E+05 -2.598658E+04  1.509418E+04 -1.486423E+05 -1.567749E+04 -2.100589E+02
       293  21 -3.187421E+05 -2.976263E+04  7.359490E+03 -1.430811E+05 -2.316791E+04 -1.925389E+03
       293  22 -4.568470E+05 -7.579642E+04 -8.073653E+03 -1.875455E+05 -7.108180E+03  1.526499E+03
       293  23 -4.605737E+05 -6.967040E+04 -1.430103E+04 -1.807755E+05 -1.494152E+04  6.605992E+01
       293  24 -4.581223E+05 -8.482459E+04 -2.878974E+04 -1.841615E+05 -2.264915E+04 -1.730560E+03
       293  25 -5.470476E+05 -1.081469E+05 -3.088946E+04 -2.107292E+05 -6.154830E+03  1.884004E+03
       293  26 -5.753327E+05 -1.133534E+05 -4.369738E+04 -2.129034E+05 -1.420571E+04  3.421213E+02
       293  27 -5.974835E+05 -1.398847E+05 -6.494060E+04 -2.252334E+05 -2.213052E+04 -1.535786E+03
       294   1 -2.830014E+05 -1.955528E+04  7.129565E+03 -1.584904E+05  3.044891E+04  2.906030E+03
       294   2 -2.657530E+05  2.187556E+04 -1.122513E+04 -1.175349E+05  5.979588E+04  1.319928E+04
       294   3 -2.864687E+05 -6.693560E+04 -8.397726E+04 -5.791626E+04  8.687742E+04  2.953422E+04
       294   4 -4.628010E+05 -7.155509E+04 -3.578089E+04 -1.918885E+05  2.806542E+04  2.012530E+03
       294   5 -4.510258E+05 -5.991069E+04 -6.089366E+04 -1.810057E+05  6.133707E+04  1.377599E+04
       294   6 -4.780100E+05 -1.793129E+05 -1.435279E+05 -1.514573E+05  9.234231E+04  3.157851E+04
       294   7 -6.425688E+05 -1.235554E+05 -7.869343E+04 -2.252793E+05  2.568269E+04  1.119167E+03
       294   8 -6.362636E+05 -1.416903E+05 -1.105649E+05 -2.444576E+05  6.287775E+04  1.435244E+04
       294   9 -6.695093E+05 -2.916677E+05 -2.030810E+05 -2.449660E+05  9.780529E+04  3.362119E+04
       294  10 -2.830024E+05 -1.955554E+04  7.127806E+03 -1.584905E+05  2.024076E-11  7.611595E-11
       294  11 -2.657568E+05  2.187441E+04 -1.123218E+04 -1.175355E+05  8.398414E-11  9.160575E-11
       294  12 -2.864770E+05 -6.693857E+04 -8.399309E+04 -5.791832E+04  1.854333E-10  2.869625E-11
       294  13 -4.628019E+05 -7.155531E+04 -3.578238E+04 -1.918886E+05  8.452722E-11 -4.784997E-11
       294  14 -4.510299E+05 -5.991191E+04 -6.090109E+04 -1.810064E+05 -3.588754E-10  4.723061E-11
       294  15 -4.780194E+05 -1.793162E+05 -1.435458E+05 -1.514596E+05 -1.425459E-10 -9.765804E-11
       294  16 -6.425695E+05 -1.235556E+05 -7.869468E+04 -2.252793E+05  6.879554E-11 -1.025759E-11
       294  17 -6.362679E+05 -1.416916E+05 -1.105727E+05 -2.444583E+05 -3.105221E-10  1.288974E-10
       294  18 -6.695199E+05 -2.916715E+05 -2.031012E+05 -2.449687E+05 -1.293114E-10 -2.118771E-12
       294  19 -2.830014E+05 -1.955528E+04  7.129565E+03 -1.584904E+05 -3.044891E+04 -2.906030E+03
       294  20 -2.657530E+05  2.187556E+04 -1.122513E+04 -1.175349E+05 -5.979588E+04 -1.319928E+04
       294  21 -2.864687E+05 -6.693560E+04 -8.397726E+04 -5.791626E+04 -8.687742E+04 -2.953422E+04
       294  22 -4.628010E+05 -7.155509E+04 -3.578089E+04 -1.918885E+05 -2.806542E+04 -2.012530E+03
       294  23 -4.510258E+05 -5.991069E+04 -6.089366E+04 -1.810057E+05 -6.133707E+04 -1.377599E+04
       294  24 -4.780100E+05 -1.793129E+05 -1.435279E+05 -1.514573E+05 -9.234231E+04 -3.157851E+04
       294  25 -6.425688E+05 -1.235554E+05 -7.869343E+04 -2.252793E+05 -2.568269E+04 -1.119167E+03
       294  26 -6.362636E+05 -1.416903E+05 -1.105649E+05 -2.444576E+05 -6.287775E+04 -1.435244E+04
       294  27 -6.695093E+05 -2.916677E+05 -2.030810E+05 -2.449660E+05 -9.780529E+04 -3.362119E+04
       295   1 -5.152874E+05 -1.262741E+05 -9.825891E+04 -1.014800E+04  6.358128E+04  1.080942E+04
       295   2 -4.397902E+05 -2.123088E+05 -1.356958E+05 -1.399138E+04  4.942453E+04  3.282378E+04
       295   3 -3.343213E+05 -1.877290E+05 -1.361621E+05 -6.596833E+04  3.527928E+04  3.170097E+04
       295   4  4.050993E+05  1.027915E+05  1.269639E+05 -5.093562E+04  8.703563E+04  1.081935E+04
       295   5  3.887680E+05 -8.138181E+03  5.658516E+04 -2.684678E+04  5.674774E+04  3.282196E+04
       295   6  4.051573E+05 -5.735660E+03  3.433664E+04 -5.088521E+04  2.647458E+04  3.169988E+04
       295   7  1.326263E+06  3.318011E+05  3.521278E+05 -9.178396E+04  1.105246E+05  1.082619E+04
       295   8  1.217961E+06  1.959847E+05  2.488203E+05 -3.971950E+04  6.408061E+04  3.281985E+04
       295   9  1.145142E+06  1.762203E+05  2.047994E+05 -3.578395E+04  1.765946E+04  3.169836E+04
       295  10 -5.152917E+05 -1.262753E+05 -9.826673E+04 -1.014855E+04  5.411056E-10  3.542572E-11
       295  11 -4.397931E+05 -2.123106E+05 -1.357024E+05 -1.399269E+04 -2.004920E-10 -3.388098E-10
       295  12 -3.343229E+05 -1.877304E+05 -1.361663E+05 -6.596923E+04 -4.540549E-10 -3.091947E-10
       295  13  4.050912E+05  1.027893E+05  1.269494E+05 -5.093637E+04  2.372656E-10 -2.966465E-10
       295  14  3.887643E+05 -8.140202E+03  5.657709E+04 -2.684828E+04  3.741533E-10 -2.016704E-10
       295  15  4.051562E+05 -5.736927E+03  3.433343E+04 -5.088588E+04  4.164769E-10 -2.131136E-10
       295  16  1.326250E+06  3.317977E+05  3.521046E+05 -9.178492E+04  5.463677E-11  1.032788E-10
       295  17  1.217956E+06  1.959825E+05  2.488106E+05 -3.972120E+04 -2.389104E-10 -4.985567E-10
       295  18  1.145142E+06  1.762192E+05  2.047970E+05 -3.578440E+04  3.241886E-10 -6.002855E-11
       295  19 -5.152874E+05 -1.262741E+05 -9.825891E+04 -1.014800E+04 -6.358128E+04 -1.080942E+04
       295  20 -4.397902E+05 -2.123088E+05 -1.356958E+05 -1.399138E+04 -4.942453E+04 -3.282378E+04
       295  21 -3.343213E+05 -1.877290E+05 -1.361621E+05 -6.596833E+04 -3.527928E+04 -3.170097E+04
       295  22  4.050993E+05  1.027915E+05  1.269639E+05 -5.093562E+04 -8.703563E+04 -1.081935E+04
       295  23  3.887680E+05 -8.138181E+03  5.658516E+04 -2.684678E+04 -5.674774E+04 -3.282196E+04
       295  24  4.051573E+05 -5.735660E+03  3.433664E+04 -5.088521E+04 -2.647458E+04 -3.169988E+04
       295  25  1.326263E+06  3.318011E+05  3.521278E+05 -9.178396E+04 -1.105246E+05 -1.082619E+04
       295  26  1.217961E+06  1.959847E+05  2.488203E+05 -3.971950E+04 -6.408061E+04 -3.281985E+04
       295  27  1.145142E+06  1.762203E+05  2.047994E+05 -3.578395E+04 -1.765946E+04 -3.169836E+04
       296   1 -2.521372E+05 -1.523569E+05 -1.230505E+05 -4.818722E+04  2.302637E+04  2.638171E+04
       296   2 -1.642047E+05 -1.389271E+05 -1.151133E+05 -2.587479E+04  1.646855E+04  2.339206E+04
       296   3 -7.303991E+04 -1.165767E+05 -1.006439E+05 -5.205800E+04  9.905750E+03  1.923039E+04
       296   4  3.986595E+05  7.943754E+03  2.768167E+04 -5.097673E+04  2.136756E+04  2.638013E+04
       296   5  3.969926E+05 -7.619611E+02  1.456753E+04 -2.673203E+04  1.398708E+04  2.339176E+04
       296   6  3.986882E+05 -4.090499E+02  8.551297E+03 -5.097993E+04  6.602540E+03  1.923185E+04
       296   7  1.049847E+06  1.682146E+05  1.783855E+05 -5.376915E+04  1.970701E+04  2.637856E+04
       296   8  9.584811E+05  1.373811E+05  1.442274E+05 -2.759000E+04  1.150338E+04  2.339147E+04
       296   9  8.706220E+05  1.157430E+05  1.177316E+05 -4.990100E+04  3.296838E+03  1.923330E+04
       296  10 -2.521380E+05 -1.523578E+05 -1.230528E+05 -4.818771E+04  1.400248E-10 -2.069198E-10
       296  11 -1.642052E+05 -1.389278E+05 -1.151148E+05 -2.587510E+04 -4.782051E-10 -4.535552E-11
       296  12 -7.304011E+04 -1.165771E+05 -1.006447E+05 -5.205815E+04 -6.953475E-10  5.257474E-10
       296  13  3.986588E+05  7.942884E+03  2.767950E+04 -5.097718E+04 -6.139793E-10  1.242675E-11
       296  14  3.969923E+05 -7.626013E+02  1.456614E+04 -2.673229E+04 -1.002337E-10 -4.952235E-10
       296  15  3.986881E+05 -4.094589E+02  8.550520E+03 -5.098003E+04 -5.220190E-10  3.921602E-10
       296  16  1.049847E+06  1.682138E+05  1.783835E+05 -5.376956E+04 -4.437418E-11  8.913094E-11
       296  17  9.584808E+05  1.373805E+05  1.442261E+05 -2.759021E+04  4.313621E-10 -2.662717E-11
       296  18  8.706219E+05  1.157426E+05  1.177309E+05 -4.990105E+04  2.257313E-10  1.007359E-10
       296  19 -2.521372E+05 -1.523569E+05 -1.230505E+05 -4.818722E+04 -2.302637E+04 -2.638171E+04
       296  20 -1.642047E+05 -1.389271E+05 -1.151133E+05 -2.587479E+04 -1.646855E+04 -2.339206E+04
       296  21 -7.303991E+04 -1.165767E+05 -1.006439E+05 -5.205800E+04 -9.905750E+03 -1.923039E+04
       296  22  3.986595E+05  7.943754E+03  2.768167E+04 -5.097673E+04 -2.136756E+04 -2.638013E+04
       296  23  3.969926E+05 -7.619611E+02  1.456753E+04 -2.673203E+04 -1.398708E+04 -2.339176E+04
       296  24  3.986882E+05 -4.090499E+02  8.551297E+03 -5.097993E+04 -6.602540E+03 -1.923185E+04
       296  25  1.049847E+06  1.682146E+05  1.783855E+05 -5.376915E+04 -1.970701E+04 -2.637856E+04
       296  26  9.584811E+05  1.373811E+05  1.442274E+05 -2.759000E+04 -1.150338E+04 -2.339147E+04
       296  27  8.706220E+05  1.157430E+05  1.177316E+05 -4.990100E+04 -3.296838E+03 -1.923330E+04
       297   1  1.416765E+04 -9.381060E+04 -8.181089E+04 -5.063424E+04  8.198309E+03  1.657374E+04
       297   2  1.031015E+05 -7.259930E+04 -6.432569E+04 -2.661801E+04  6.365843E+03  1.232838E+04
       297   3  1.924234E+05 -5.059733E+04 -4.546288E+04 -5.089879E+04  4.531018E+03  8.027696E+03
       297   4  3.980455E+05  6.362496E+02  6.624817E+03 -5.093478E+04  5.263650E+03  1.657552E+04
       297   5  3.978590E+05 -4.714245E+01  3.754924E+03 -2.678728E+04  3.391415E+03  1.233083E+04
       297   6  3.980596E+05  6.722323E+01  2.289838E+03 -5.093535E+04  1.517080E+03  8.030848E+03
       297   7  7.820596E+05  9.507280E+04  9.505078E+04 -5.123548E+04  2.327190E+03  1.657730E+04
       297   8  6.926968E+05  7.249893E+04  7.182978E+04 -2.695660E+04  4.155863E+02  1.233327E+04
       297   9  6.037349E+05  5.072880E+04  5.003975E+04 -5.097191E+04 -1.497849E+03  8.033998E+03
       297  10  1.416750E+04 -9.381092E+04 -8.181153E+04 -5.063435E+04 -9.719038E-11  1.776333E-10
       297  11  1.031014E+05 -7.259948E+04 -6.432605E+04 -2.661808E+04  1.190836E-10 -1.425624E-10
       297  12  1.924233E+05 -5.059741E+04 -4.546304E+04 -5.089882E+04 -3.528437E-11 -6.081852E-10
       297  13  3.980454E+05  6.359471E+02  6.624248E+03 -5.093485E+04  1.693441E-11  1.748940E-10
       297  14  3.978590E+05 -4.730885E+01  3.754617E+03 -2.678731E+04 -1.018670E-09  3.017442E-10
       297  15  3.980596E+05  6.715334E+01  2.289712E+03 -5.093536E+04 -1.737062E-10  6.671074E-10
       297  16  7.820596E+05  9.507250E+04  9.505025E+04 -5.123551E+04 -6.513829E-10  2.824065E-11
       297  17  6.926968E+05  7.249877E+04  7.182949E+04 -2.695661E+04  3.656534E-10 -7.676716E-10
       297  18  6.037349E+05  5.072873E+04  5.003962E+04 -5.097190E+04  9.654360E-11 -3.924619E-10
       297  19  1.416765E+04 -9.381060E+04 -8.181089E+04 -5.063424E+04 -8.198309E+03 -1.657374E+04
       297  20  1.031015E+05 -7.259930E+04 -6.432569E+04 -2.661801E+04 -6.365843E+03 -1.232838E+04
       297  21  1.924234E+05 -5.059733E+04 -4.546288E+04 -5.089879E+04 -4.531018E+03 -8.027696E+03
       297  22  3.980455E+05  6.362496E+02  6.624817E+03 -5.093478E+04 -5.263650E+03 -1.657552E+04
       297  23  3.978590E+05 -4.714245E+01  3.754924E+03 -2.678728E+04 -3.391415E+03 -1.233083E+04
       297  24  3.980596E+05  6.722323E+01  2.289838E+03 -5.093535E+04 -1.517080E+03 -8.030848E+03
       297  25  7.820596E+05  9.507280E+04  9.505078E+04 -5.123548E+04 -2.327190E+03 -1.657730E+04
       297  26  6.926968E+05  7.249893E+04  7.182978E+04 -2.695660E+04 -4.155863E+02 -1.233327E+04
       297  27  6.037349E+05  5.072880E+04  5.003975E+04 -5.097191E+04  1.497849E+03 -8.033998E+03
       298   1  2.799058E+05 -2.886755E+04 -2.516689E+04 -5.084457E+04  4.136069E+03  5.514439E+03
       298   2  3.688858E+05 -7.116020E+03 -5.404120E+03 -2.679948E+04  3.482702E+03  1.213710E+03
       298   3  4.578672E+05  1.479197E+04  1.479286E+04 -5.096370E+04  2.829048E+03 -3.089488E+03
       298   4  3.979797E+05  1.398058E+02  1.839664E+03 -5.091595E+04  1.142048E+03  5.517799E+03
       298   5  3.979825E+05  4.472451E+01  1.315193E+03 -2.681139E+04  4.866976E+02  1.217122E+03
       298   6  3.979811E+05  1.072699E+02  1.226943E+03 -5.091600E+04 -1.688490E+02 -3.085996E+03
       298   7  5.160665E+05  2.914619E+04  2.884533E+04 -5.098734E+04 -1.852537E+03  5.521160E+03
       298   8  4.270801E+05  7.205414E+03  8.034483E+03 -2.682331E+04 -2.509446E+03  1.220533E+03
       298   9  3.380984E+05 -1.457767E+04 -1.233917E+04 -5.086831E+04 -3.166459E+03 -3.082503E+03
       298  10  2.799058E+05 -2.886758E+04 -2.516698E+04 -5.084459E+04  5.343697E-11 -1.164199E-11
       298  11  3.688857E+05 -7.116024E+03 -5.404145E+03 -2.679948E+04  2.680964E-10  1.202787E-10
       298  12  4.578672E+05  1.479195E+04  1.479282E+04 -5.096369E+04 -4.067993E-10 -3.347188E-11
       298  13  3.979797E+05  1.397727E+02  1.839604E+03 -5.091596E+04  6.712740E-11 -8.132276E-10
       298  14  3.979825E+05  4.472286E+01  1.315190E+03 -2.681139E+04 -2.240920E-10  2.732424E-10
       298  15  3.979811E+05  1.072597E+02  1.226925E+03 -5.091600E+04  1.349343E-10 -5.671440E-10
       298  16  5.160665E+05  2.914616E+04  2.884527E+04 -5.098734E+04 -1.711655E-10  1.495013E-10
       298  17  4.270801E+05  7.205411E+03  8.034469E+03 -2.682330E+04 -1.099743E-10 -1.008557E-10
       298  18  3.380984E+05 -1.457768E+04 -1.233920E+04 -5.086832E+04 -9.889168E-10 -8.622364E-10
       298  19  2.799058E+05 -2.886755E+04 -2.516689E+04 -5.084457E+04 -4.136069E+03 -5.514439E+03
       298  20  3.688858E+05 -7.116020E+03 -5.404120E+03 -2.679948E+04 -3.482702E+03 -1.213710E+03
       298  21  4.578672E+05  1.479197E+04  1.479286E+04 -5.096370E+04 -2.829048E+03  3.089488E+03
       298  22  3.979797E+05  1.398058E+02  1.839664E+03 -5.091595E+04 -1.142048E+03 -5.517799E+03
       298  23  3.979825E+05  4.472451E+01  1.315193E+03 -2.681139E+04 -4.866976E+02 -1.217122E+03
       298  24  3.979811E+05  1.072699E+02  1.226943E+03 -5.091600E+04  1.688490E+02  3.085996E+03
       298  25  5.160665E+05  2.914619E+04  2.884533E+04 -5.098734E+04  1.852537E+03 -5.521160E+03
       298  26  4.270801E+05  7.205414E+03  8.034483E+03 -2.682331E+04  2.509446E+03 -1.220533E+03
       298  27  3.380984E+05 -1.457767E+04 -1.233917E+04 -5.086831E+04  3.166459E+03  3.082503E+03
       299   1  5.454379E+05  3.644001E+04  3.563214E+04 -5.103376E+04  2.595980E+03 -5.595224E+03
       299   2  6.344926E+05  5.822419E+04  5.644706E+04 -2.693380E+04  1.684574E+03 -9.900898E+03
       299   3  7.236396E+05  8.019814E+04  7.788235E+04 -5.109606E+04  7.746830E+02 -1.420703E+04
       299   4  3.979962E+05  1.058832E+02  1.325308E+03 -5.092804E+04 -4.033841E+02 -5.591878E+03
       299   5  3.979488E+05  1.989597E+01  1.831350E+03 -2.679634E+04 -1.315026E+03 -9.898089E+03
       299   6  3.979851E+05  1.239523E+02  2.958156E+03 -5.092799E+04 -2.225024E+03 -1.420473E+04
       299   7  2.505745E+05 -3.622977E+04 -3.298296E+04 -5.082235E+04 -3.402042E+03 -5.588533E+03
       299   8  1.614566E+05 -5.818832E+04 -5.278805E+04 -2.665893E+04 -4.313492E+03 -9.895280E+03
       299   9  7.242858E+04 -7.995764E+04 -7.197302E+04 -5.075999E+04 -5.223171E+03 -1.420243E+04
       299  10  5.454378E+05  3.643998E+04  3.563207E+04 -5.103375E+04 -3.592135E-10  7.802785E-10
       299  11  6.344926E+05  5.822409E+04  5.644687E+04 -2.693378E+04 -2.500984E-10  1.321461E-09
       299  12  7.236395E+05  8.019792E+04  7.788197E+04 -5.109605E+04  6.904852E-10 -1.006755E-09
       299  13  3.979961E+05  1.058496E+02  1.325249E+03 -5.092804E+04 -8.403517E-12  1.274551E-11
       299  14  3.979487E+05  1.979028E+01  1.831163E+03 -2.679635E+04 -1.090414E-09 -5.719739E-10
       299  15  3.979850E+05  1.237342E+02  2.957768E+03 -5.092802E+04 -9.304001E-10 -1.443914E-10
       299  16  2.505745E+05 -3.622981E+04 -3.298304E+04 -5.082236E+04 -1.259806E-10 -8.582979E-11
       299  17  1.614566E+05 -5.818843E+04 -5.278827E+04 -2.665896E+04  1.731921E-10 -4.010389E-10
       299  18  7.242849E+04 -7.995786E+04 -7.197346E+04 -5.076005E+04 -1.399144E-09  2.239160E-10
       299  19  5.454379E+05  3.644001E+04  3.563214E+04 -5.103376E+04 -2.595980E+03  5.595224E+03
       299  20  6.344926E+05  5.822419E+04  5.644706E+04 -2.693380E+04 -1.684574E+03  9.900898E+03
       299  21  7.236396E+05  8.019814E+04  7.788235E+04 -5.109606E+04 -7.746830E+02  1.420703E+04
       299  22  3.979962E+05  1.058832E+02  1.325308E+03 -5.092804E+04  4.033841E+02  5.591878E+03
       299  23  3.979488E+05  1.989597E+01  1.831350E+03 -2.679634E+04  1.315026E+03  9.898089E+03
       299  24  3.979851E+05  1.239523E+02  2.958156E+03 -5.092799E+04  2.225024E+03  1.420473E+04
       299  25  2.505745E+05 -3.622977E+04 -3.298296E+04 -5.082235E+04  3.402042E+03  5.588533E+03
       299  26  1.614566E+05 -5.818832E+04 -5.278805E+04 -2.665893E+04  4.313492E+03  9.895280E+03
       299  27  7.242858E+04 -7.995764E+04 -7.197302E+04 -5.075999E+04  5.223171E+03  1.420243E+04
       300   1  8.115996E+05  1.017763E+05  9.953254E+04 -5.099120E+04  1.887121E+02 -1.672704E+04
       300   2  9.006619E+05  1.235784E+05  1.225861E+05 -2.689030E+04 -3.086890E+03 -2.103746E+04
       300   3  9.905727E+05  1.467052E+05  1.481170E+05 -5.125142E+04 -6.359419E+03 -2.528351E+04
       300   4  3.981356E+05 -1.938911E+00  3.817779E+03 -5.097289E+04 -2.837388E+03 -1.672525E+04
       300   5  3.977066E+05 -1.598981E+02  6.475038E+03 -2.674038E+04 -6.065969E+03 -2.103683E+04
       300   6  3.981114E+05  1.000001E+03  1.157888E+04 -5.097229E+04 -9.291013E+03 -2.528398E+04
       300   7 -1.517057E+04 -1.017922E+05 -9.190838E+04 -5.095456E+04 -5.861489E+03 -1.672345E+04
       300   8 -1.050151E+05 -1.239159E+05 -1.096529E+05 -2.659055E+04 -9.042653E+03 -2.103620E+04
       300   9 -1.940256E+05 -1.447298E+05 -1.249825E+05 -5.069339E+04 -1.221983E+04 -2.528446E+04
       300  10  8.115995E+05  1.017760E+05  9.953201E+04 -5.099119E+04  2.689185E-11 -8.378429E-10
       300  11  9.006617E+05  1.235779E+05  1.225853E+05 -2.689035E+04  2.242080E-10  5.587703E-10
       300  12  9.905725E+05  1.467045E+05  1.481157E+05 -5.125155E+04 -3.817832E-10  5.148929E-10
       300  13  3.981355E+05 -2.241517E+00  3.817238E+03 -5.097293E+04 -6.230339E-10  2.190833E-10
       300  14  3.977064E+05 -1.603833E+02  6.474137E+03 -2.674048E+04  1.933692E-10 -3.318185E-10
       300  15  3.981112E+05  9.992910E+02  1.157751E+04 -5.097248E+04  6.719210E-10  2.168246E-10
       300  16 -1.517068E+04 -1.017925E+05 -9.190897E+04 -5.095464E+04 -4.336725E-10  3.778334E-11
       300  17 -1.050153E+05 -1.239164E+05 -1.096538E+05 -2.659070E+04 -1.800834E-10  5.540277E-10
       300  18 -1.940259E+05 -1.447305E+05 -1.249840E+05 -5.069364E+04  9.826444E-11  4.798872E-10
       300  19  8.115996E+05  1.017763E+05  9.953254E+04 -5.099120E+04 -1.887121E+02  1.672704E+04
       300  20  9.006619E+05  1.235784E+05  1.225861E+05 -2.689030E+04  3.086890E+03  2.103746E+04
       300  21  9.905727E+05  1.467052E+05  1.481170E+05 -5.125142E+04  6.359419E+03  2.528351E+04
       300  22  3.981356E+05 -1.938911E+00  3.817779E+03 -5.097289E+04  2.837388E+03  1.672525E+04
       300  23  3.977066E+05 -1.598981E+02  6.475038E+03 -2.674038E+04  6.065969E+03  2.103683E+04
       300  24  3.981114E+05  1.000001E+03  1.157888E+04 -5.097229E+04  9.291013E+03  2.528398E+04
       300  25 -1.517057E+04 -1.017922E+05 -9.190838E+04 -5.095456E+04  5.861489E+03  1.672345E+04
       300  26 -1.050151E+05 -1.239159E+05 -1.096529E+05 -2.659055E+04  9.042653E+03  2.103620E+04
       300  27 -1.940256E+05 -1.447298E+05 -1.249825E+05 -5.069339E+04  1.221983E+04  2.528446E+04
       301   1  1.080046E+06  1.666808E+05  1.723546E+05 -4.880657E+04 -8.248274E+03 -2.798323E+04
       301   2  1.167098E+06  1.882382E+05  2.035655E+05 -2.775147E+04 -2.221751E+04 -3.213473E+04
       301   3  1.260343E+06  2.258048E+05  2.479392E+05 -5.546756E+04 -3.618420E+04 -3.486266E+04
       301   4  3.992368E+05 -8.385100E+02  1.498012E+04 -5.104075E+04 -1.163067E+04 -2.798447E+04
       301   5  3.962056E+05 -1.397839E+03  2.557971E+04 -2.665524E+04 -2.459324E+04 -3.213778E+04
       301   6  3.991963E+05  1.388990E+04  4.865624E+04 -5.104423E+04 -3.755127E+04 -3.486684E+04
       301   7 -2.811449E+05 -1.683904E+05 -1.424253E+05 -5.327242E+04 -1.500938E+04 -2.798570E+04
       301   8 -3.741377E+05 -1.910755E+05 -1.524456E+05 -2.556037E+04 -2.696602E+04 -3.214084E+04
       301   9 -4.612661E+05 -1.980770E+05 -1.506762E+05 -4.662711E+04 -3.891643E+04 -3.487104E+04
       301  10  1.080046E+06  1.666800E+05  1.723530E+05 -4.880676E+04 -5.258973E-10  1.559443E-10
       301  11  1.167097E+06  1.882370E+05  2.035626E+05 -2.775205E+04  2.187142E-10  1.906344E-10
       301  12  1.260341E+06  2.258032E+05  2.479344E+05 -5.546858E+04 -5.343808E-10 -1.715469E-10
       301  13  3.992365E+05 -8.393875E+02  1.497840E+04 -5.104101E+04 -2.524309E-10  3.896773E-10
       301  14  3.962047E+05 -1.399110E+03  2.557663E+04 -2.665587E+04 -3.610694E-10 -3.075354E-10
       301  15  3.991944E+05  1.388821E+04  4.865131E+04 -5.104528E+04 -2.140105E-10  1.149012E-10
       301  16 -2.811453E+05 -1.683913E+05 -1.424271E+05 -5.327276E+04 -2.795507E-11  4.208173E-10
       301  17 -3.741388E+05 -1.910769E+05 -1.524489E+05 -2.556107E+04  2.470352E-10 -2.984260E-13
       301  18 -4.612681E+05 -1.980788E+05 -1.506814E+05 -4.662820E+04  3.705471E-10  3.137909E-11
       301  19  1.080046E+06  1.666808E+05  1.723546E+05 -4.880657E+04  8.248274E+03  2.798323E+04
       301  20  1.167098E+06  1.882382E+05  2.035655E+05 -2.775147E+04  2.221751E+04  3.213473E+04
       301  21  1.260343E+06  2.258048E+05  2.479392E+05 -5.546756E+04  3.618420E+04  3.486266E+04
       301  22  3.992368E+05 -8.385100E+02  1.498012E+04 -5.104075E+04  1.163067E+04  2.798447E+04
       301  23  3.962056E+05 -1.397839E+03  2.557971E+04 -2.665524E+04  2.459324E+04  3.213778E+04
       301  24  3.991963E+05  1.388990E+04  4.865624E+04 -5.104423E+04  3.755127E+04  3.486684E+04
       301  25 -2.811449E+05 -1.683904E+05 -1.424253E+05 -5.327242E+04  1.500938E+04  2.798570E+04
       301  26 -3.741377E+05 -1.910755E+05 -1.524456E+05 -2.556037E+04  2.696602E+04  3.214084E+04
       301  27 -4.612661E+05 -1.980770E+05 -1.506762E+05 -4.662711E+04  3.891643E+04  3.487104E+04
       302   1  1.361187E+06  2.235923E+05  2.792754E+05 -2.382578E+04 -3.643106E+04 -4.081672E+04
       302   2  1.422210E+06  2.417179E+05  3.406324E+05 -4.887884E+04 -1.093793E+05 -4.132814E+04
       302   3  1.544063E+06  4.622562E+05  5.001738E+05 -1.224572E+05 -1.823850E+05 -1.366190E+04
       302   4  4.106030E+05 -1.015916E+04  6.035632E+04 -5.091753E+04 -4.652275E+04 -4.082609E+04
       302   5  3.818142E+05 -1.431100E+04  9.950226E+04 -2.678379E+04 -9.974971E+04 -4.132607E+04
       302   6  4.105233E+05  1.807033E+05  2.232511E+05 -5.116944E+04 -1.530208E+05 -1.363893E+04
       302   7 -5.391445E+05 -2.439709E+05 -1.586219E+05 -7.796765E+04 -5.659910E+04 -4.083458E+04
       302   8 -6.575820E+05 -2.704141E+05 -1.416998E+05 -4.726217E+03 -9.013602E+04 -4.132332E+04
       302   9 -7.218346E+05 -1.009246E+05 -5.375923E+04  1.998774E+04 -1.237097E+05 -1.360923E+04
       302  10  1.361185E+06  2.235901E+05  2.792698E+05 -2.382698E+04 -1.213904E-10  5.405840E-10
       302  11  1.422196E+06  2.417129E+05  3.406068E+05 -4.888248E+04 -4.659764E-10  3.119988E-10
       302  12  1.544028E+06  4.622471E+05  5.001111E+05 -1.224592E+05  1.289178E-10 -2.117184E-10
       302  13  4.106002E+05 -1.016153E+04  6.034912E+04 -5.091906E+04 -6.705598E-10  8.592363E-10
       302  14  3.818031E+05 -1.431550E+04  9.948037E+04 -2.678711E+04  1.101123E-10  2.298417E-09
       302  15  4.104981E+05  1.806969E+05  2.232068E+05 -5.117112E+04 -2.185037E-10 -1.753331E-10
       302  16 -5.391484E+05 -2.439736E+05 -1.586311E+05 -7.796951E+04  4.919334E-10  3.725188E-10
       302  17 -6.575911E+05 -2.704181E+05 -1.417183E+05 -4.729218E+03 -2.218261E-10  3.664773E-10
       302  18 -7.218511E+05 -1.009289E+05 -5.378837E+04  1.998638E+04 -2.425563E-10 -5.093039E-10
       302  19  1.361187E+06  2.235923E+05  2.792754E+05 -2.382578E+04  3.643106E+04  4.081672E+04
       302  20  1.422210E+06  2.417179E+05  3.406324E+05 -4.887884E+04  1.093793E+05  4.132814E+04
       302  21  1.544063E+06  4.622562E+05  5.001738E+05 -1.224572E+05  1.823850E+05  1.366190E+04
       302  22  4.106030E+05 -1.015916E+04  6.035632E+04 -5.091753E+04  4.652275E+04  4.082609E+04
       302  23  3.818142E+05 -1.431100E+04  9.950226E+04 -2.678379E+04  9.974971E+04  4.132607E+04
       302  24  4.105233E+05  1.807033E+05  2.232511E+05 -5.116944E+04  1.530208E+05  1.363893E+04
       302  25 -5.391445E+05 -2.439709E+05 -1.586219E+05 -7.796765E+04  5.659910E+04  4.083458E+04
       302  26 -6.575820E+05 -2.704141E+05 -1.416998E+05 -4.726217E+03  9.013602E+04  4.132332E+04
       302  27 -7.218346E+05 -1.009246E+05 -5.375923E+04  1.998774E+04  1.237097E+05  1.360923E+04
       303   1  2.272155E+05  8.366784E+05  2.408127E+05 -1.375976E+05  6.288778E+03  7.176550E+04
       303   2  1.032579E+05  6.318749E+05  1.404416E+05 -6.670485E+04  1.696140E+04  3.922771E+04
       303   3  5.764991E+04  4.507377E+05  8.078354E+04 -9.959976E+04  1.020728E+04  6.679623E+03
       303   4  6.922505E+04  2.023090E+05  8.519322E+04 -1.093902E+05  6.307349E+03  5.825258E+04
       303   5 -5.254753E+03  1.915590E+05  3.812021E+04 -5.753810E+04  1.696447E+04  3.787526E+04
       303   6 -3.459331E+03  2.023590E+05  2.334952E+04 -1.094723E+05  1.019136E+04  1.747741E+04
       303   7 -8.879218E+04 -4.316923E+05 -7.045465E+04 -8.121142E+04  6.324705E+03  4.475339E+04
       303   8 -1.137808E+05 -2.485780E+05 -6.421421E+04 -4.837783E+04  1.696752E+04  3.652376E+04
       303   9 -6.457246E+04 -4.596216E+04 -3.408812E+04 -1.193408E+05  1.017509E+04  2.827091E+04
       303  10  2.272141E+05  8.366729E+05  2.408029E+05 -1.375980E+05 -2.516572E-10 -1.350328E-10
       303  11  1.032572E+05  6.318732E+05  1.404382E+05 -6.670538E+04 -4.706697E-10 -2.927901E-12
       303  12  5.764978E+04  4.507376E+05  8.078326E+04 -9.959982E+04  3.782557E-10 -9.395749E-11
       303  13  6.922410E+04  2.023054E+05  8.518677E+04 -1.093905E+05  2.730516E-10 -3.100971E-10
       303  14 -5.255447E+03  1.915573E+05  3.811698E+04 -5.753862E+04 -1.462580E-09  3.293667E-10
       303  15 -3.459525E+03  2.023587E+05  2.334875E+04 -1.094724E+05  4.349902E-10 -7.432453E-10
       303  16 -8.879276E+04 -4.316945E+05 -7.045849E+04 -8.121165E+04 -1.035806E-10  3.105707E-10
       303  17 -1.137815E+05 -2.485795E+05 -6.421726E+04 -4.837833E+04 -6.558803E-10 -1.717201E-10
       303  18 -6.457279E+04 -4.596305E+04 -3.408982E+04 -1.193411E+05  2.485195E-10  8.655722E-11
       303  19  2.272155E+05  8.366784E+05  2.408127E+05 -1.375976E+05 -6.288778E+03 -7.176550E+04
       303  20  1.032579E+05  6.318749E+05  1.404416E+05 -6.670485E+04 -1.696140E+04 -3.922771E+04
       303  21  5.764991E+04  4.507377E+05  8.078354E+04 -9.959976E+04 -1.020728E+04 -6.679623E+03
       303  22  6.922505E+04  2.023090E+05  8.519322E+04 -1.093902E+05 -6.307349E+03 -5.825258E+04
       303  23 -5.254753E+03  1.915590E+05  3.812021E+04 -5.753810E+04 -1.696447E+04 -3.787526E+04
       303  24 -3.459331E+03  2.023590E+05  2.334952E+04 -1.094723E+05 -1.019136E+04 -1.747741E+04
       303  25 -8.879218E+04 -4.316923E+05 -7.045465E+04 -8.121142E+04 -6.324705E+03 -4.475339E+04
       303  26 -1.137808E+05 -2.485780E+05 -6.421421E+04 -4.837783E+04 -1.696752E+04 -3.652376E+04
       303  27 -6.457246E+04 -4.596216E+04 -3.408812E+04 -1.193408E+05 -1.017509E+04 -2.827091E+04
       304   1  2.003898E+04  2.564921E+05  3.245070E+04 -1.115026E+05  2.524811E+03  8.201112E+03
       304   2 -3.341962E+04  6.274289E+04 -2.050985E+04 -5.766772E+04 -5.598489E+03  3.089337E+03
       304   3 -8.008899E+04 -1.289334E+05 -6.852504E+04 -1.081771E+05 -1.339434E+04 -2.018599E+03
       304   4  5.653857E+03  1.980452E+05  1.899150E+04 -1.095671E+05  2.516018E+03  1.397589E+04
       304   5 -3.683265E+02  1.969993E+05  1.051450E+04 -5.739961E+04 -5.606331E+03  8.636031E+03
       304   6  4.406995E+02  1.980326E+05  7.144453E+03 -1.095745E+05 -1.340137E+04  3.298468E+03
       304   7 -8.731477E+03  1.396015E+05  5.532196E+03 -1.076317E+05  2.507259E+03  1.975012E+04
       304   8  3.268172E+04  3.312724E+05  4.153776E+04 -5.713145E+04 -5.614169E+03  1.418391E+04
       304   9  8.096289E+04  5.250974E+05  8.280690E+04 -1.109727E+05 -1.340841E+04  8.618314E+03
       304  10  2.003896E+04  2.564921E+05  3.245056E+04 -1.115026E+05  2.908182E-11 -8.574912E-10
       304  11 -3.341966E+04  6.274288E+04 -2.050993E+04 -5.766770E+04 -8.246888E-12 -3.443530E-10
       304  12 -8.008918E+04 -1.289335E+05 -6.852538E+04 -1.081771E+05 -6.383852E-10 -1.517784E-10
       304  13  5.653798E+03  1.980450E+05  1.899112E+04 -1.095671E+05  2.151458E-10 -4.472146E-10
       304  14 -3.683803E+02  1.969992E+05  1.051430E+04 -5.739958E+04  2.220404E-10  2.213388E-10
       304  15  4.405037E+02  1.980325E+05  7.144095E+03 -1.095745E+05  9.079961E-10 -8.005244E-10
       304  16 -8.731588E+03  1.396010E+05  5.531451E+03 -1.076317E+05  8.229189E-11  1.082008E-09
       304  17  3.268163E+04  3.312722E+05  4.153732E+04 -5.713138E+04 -1.124584E-09  2.341360E-10
       304  18  8.096268E+04  5.250973E+05  8.280643E+04 -1.109726E+05 -4.794363E-10  2.297499E-10
       304  19  2.003898E+04  2.564921E+05  3.245070E+04 -1.115026E+05 -2.524811E+03 -8.201112E+03
       304  20 -3.341962E+04  6.274289E+04 -2.050985E+04 -5.766772E+04  5.598489E+03 -3.089337E+03
       304  21 -8.008899E+04 -1.289334E+05 -6.852504E+04 -1.081771E+05  1.339434E+04  2.018599E+03
       304  22  5.653857E+03  1.980452E+05  1.899150E+04 -1.095671E+05 -2.516018E+03 -1.397589E+04
       304  23 -3.683265E+02  1.969993E+05  1.051450E+04 -5.739961E+04  5.606331E+03 -8.636031E+03
       304  24  4.406995E+02  1.980326E+05  7.144453E+03 -1.095745E+05  1.340137E+04 -3.298468E+03
       304  25 -8.731477E+03  1.396015E+05  5.532196E+03 -1.076317E+05 -2.507259E+03 -1.975012E+04
       304  26  3.268172E+04  3.312724E+05  4.153776E+04 -5.713145E+04  5.614169E+03 -1.418391E+04
       304  27  8.096289E+04  5.250974E+05  8.280690E+04 -1.109727E+05  1.340841E+04 -8.618314E+03
       305   1 -1.269737E+05 -3.188689E+05 -1.131630E+05 -1.098995E+05 -2.180537E+04 -1.030298E+04
       305   2 -1.752085E+05 -5.117166E+05 -1.593022E+05 -5.625146E+04 -2.773538E+04  3.558358E+03
       305   3 -2.185601E+05 -7.050231E+05 -2.132381E+05 -1.062872E+05 -9.742475E+03  1.743357E+04
       305   4  2.913927E+02  1.980627E+05  6.194122E+03 -1.094260E+05 -2.182036E+04  2.132299E+03
       305   5 -5.454139E+02  1.968305E+05  5.305480E+03 -5.758564E+04 -2.772919E+04 -6.472130E+02
       305   6  6.389461E+03  1.979916E+05  8.179569E+03 -1.094214E+05 -9.727304E+03 -3.408262E+03
       305   7  1.275378E+05  7.152417E+05  1.255340E+05 -1.089519E+05 -2.183533E+04  1.457786E+04
       305   8  1.740823E+05  9.058414E+05  1.698795E+05 -5.892121E+04 -2.772299E+04 -4.857552E+03
       305   9  2.312789E+05  1.101750E+06  2.295390E+05 -1.125599E+05 -9.711935E+03 -2.428037E+04
       305  10 -1.269742E+05 -3.188692E+05 -1.131641E+05 -1.098997E+05  7.437052E-11 -6.074276E-11
       305  11 -1.752094E+05 -5.117169E+05 -1.593037E+05 -5.625138E+04  1.914153E-10  5.157767E-11
       305  12 -2.185603E+05 -7.050234E+05 -2.132388E+05 -1.062870E+05 -8.409804E-11 -8.899209E-11
       305  13  2.908802E+02  1.980625E+05  6.193218E+03 -1.094259E+05 -7.928991E-10 -2.888277E-10
       305  14 -5.462398E+02  1.968303E+05  5.304034E+03 -5.758565E+04  4.954137E-11  1.446887E-10
       305  15  6.389357E+03  1.979916E+05  8.179369E+03 -1.094214E+05  1.121236E-10 -2.306210E-10
       305  16  1.275372E+05  7.152413E+05  1.255327E+05 -1.089517E+05  1.375585E-10  2.738245E-10
       305  17  1.740815E+05  9.058411E+05  1.698780E+05 -5.892132E+04 -1.035822E-10 -1.362735E-10
       305  18  2.312786E+05  1.101750E+06  2.295378E+05 -1.125601E+05 -3.425485E-10  1.060012E-10
       305  19 -1.269737E+05 -3.188689E+05 -1.131630E+05 -1.098995E+05  2.180537E+04  1.030298E+04
       305  20 -1.752085E+05 -5.117166E+05 -1.593022E+05 -5.625146E+04  2.773538E+04 -3.558358E+03
       305  21 -2.185601E+05 -7.050231E+05 -2.132381E+05 -1.062872E+05  9.742475E+03 -1.743357E+04
       305  22  2.913927E+02  1.980627E+05  6.194122E+03 -1.094260E+05  2.182036E+04 -2.132299E+03
       305  23 -5.454139E+02  1.968305E+05  5.305480E+03 -5.758564E+04  2.772919E+04  6.472130E+02
       305  24  6.389461E+03  1.979916E+05  8.179569E+03 -1.094214E+05  9.727304E+03  3.408262E+03
       305  25  1.275378E+05  7.152417E+05  1.255340E+05 -1.089519E+05  2.183533E+04 -1.457786E+04
       305  26  1.740823E+05  9.058414E+05  1.698795E+05 -5.892121E+04  2.772299E+04  4.857552E+03
       305  27  2.312789E+05  1.101750E+06  2.295390E+05 -1.125599E+05  9.711935E+03  2.428037E+04
       306   1 -1.460496E+06 -5.116432E+05 -3.209666E+05 -5.250121E+05 -1.465779E+05 -4.920534E+04
       306   2 -1.418728E+06 -2.962688E+05 -1.861011E+05 -5.291725E+05 -9.495938E+04 -1.764364E+04
       306   3 -1.439320E+06 -2.710862E+05 -1.414733E+05 -5.012761E+05 -3.923822E+04  3.011977E+03
       306   4 -1.096339E+06 -3.151066E+05 -2.110657E+05 -3.650005E+05 -1.361502E+05 -4.530357E+04
       306   5 -1.054647E+06 -1.415246E+05 -8.953853E+04 -4.107676E+05 -9.160205E+04 -1.638660E+04
       306   6 -1.073872E+06 -1.566735E+05 -5.259995E+04 -4.244901E+05 -4.295321E+04  1.618059E+03
       306   7 -7.320430E+05 -1.185139E+05 -1.011767E+05 -2.048899E+05 -1.257158E+05 -4.139676E+04
       306   8 -6.904357E+05  1.323897E+04  7.012441E+03 -2.922961E+05 -8.824256E+04 -1.512850E+04
       306   9 -7.082948E+05 -4.226142E+04  3.626357E+04 -3.476678E+05 -4.667057E+04  2.235858E+02
       306  10 -1.460520E+06 -5.116515E+05 -3.210117E+05 -5.250179E+05  6.484203E-10 -3.984563E-11
       306  11 -1.418738E+06 -2.962716E+05 -1.861187E+05 -5.291738E+05  8.594159E-10 -3.747622E-10
       306  12 -1.439322E+06 -2.710866E+05 -1.414762E+05 -5.012760E+05 -2.334170E-09 -7.459783E-10
       306  13 -1.096359E+06 -3.151138E+05 -2.111044E+05 -3.650055E+05  8.421726E-10 -3.666772E-10
       306  14 -1.054656E+06 -1.415271E+05 -8.955483E+04 -4.107688E+05 -1.982829E-10 -3.455788E-10
       306  15 -1.073874E+06 -1.566740E+05 -5.260343E+04 -4.244901E+05 -3.378983E-09 -6.166051E-10
       306  16 -7.320604E+05 -1.185200E+05 -1.012096E+05 -2.048941E+05  2.568446E-10  4.796370E-10
       306  17 -6.904441E+05  1.323663E+04  6.997359E+03 -2.922972E+05 -1.218042E-09  8.395751E-11
       306  18 -7.082971E+05 -4.226201E+04  3.625947E+04 -3.476678E+05 -3.228142E-09 -8.214080E-10
       306  19 -1.460496E+06 -5.116432E+05 -3.209666E+05 -5.250121E+05  1.465779E+05  4.920534E+04
       306  20 -1.418728E+06 -2.962688E+05 -1.861011E+05 -5.291725E+05  9.495938E+04  1.764364E+04
       306  21 -1.439320E+06 -2.710862E+05 -1.414733E+05 -5.012761E+05  3.923822E+04 -3.011977E+03
       306  22 -1.096339E+06 -3.151066E+05 -2.110657E+05 -3.650005E+05  1.361502E+05  4.530357E+04
       306  23 -1.054647E+06 -1.415246E+05 -8.953853E+04 -4.107676E+05  9.160205E+04  1.638660E+04
       306  24 -1.073872E+06 -1.566735E+05 -5.259995E+04 -4.244901E+05  4.295321E+04 -1.618059E+03
       306  25 -7.320430E+05 -1.185139E+05 -1.011767E+05 -2.048899E+05  1.257158E+05  4.139676E+04
       306  26 -6.904357E+05  1.323897E+04  7.012441E+03 -2.922961E+05  8.824256E+04  1.512850E+04
       306  27 -7.082948E+05 -4.226142E+04  3.626357E+04 -3.476678E+05  4.667057E+04 -2.235858E+02
       307   1 -1.382124E+06 -2.986213E+05 -1.237641E+05 -5.037592E+05 -3.463760E+04  2.176706E+03
       307   2 -1.356274E+06 -2.644955E+05 -9.458426E+04 -4.899711E+05 -2.312375E+04  5.528314E+03
       307   3 -1.324916E+06 -2.581947E+05 -7.786234E+04 -4.870322E+05 -1.137713E+04  8.260125E+03
       307   4 -1.066922E+06 -1.762768E+05 -4.232261E+04 -4.132269E+05 -3.499969E+04  2.039960E+03
       307   5 -1.068772E+06 -1.557605E+05 -2.102140E+04 -4.102918E+05 -2.388368E+04  5.242682E+03
       307   6 -1.065033E+06 -1.629855E+05 -1.185752E+04 -4.182064E+05 -1.253553E+04  7.825392E+03
       307   7 -7.516215E+05 -5.392345E+04  3.911097E+04 -3.226519E+05 -3.536198E+04  1.903133E+03
       307   8 -7.811890E+05 -4.701961E+04  5.253486E+04 -3.305787E+05 -2.464400E+04  4.956902E+03
       307   9 -8.050844E+05 -6.777265E+04  5.414187E+04 -3.493549E+05 -1.369447E+04  7.390471E+03
       307  10 -1.382125E+06 -2.986216E+05 -1.237664E+05 -5.037591E+05 -3.560813E-09 -8.154327E-10
       307  11 -1.356275E+06 -2.644957E+05 -9.458533E+04 -4.899710E+05 -9.745278E-10 -2.411190E-10
       307  12 -1.324916E+06 -2.581948E+05 -7.786271E+04 -4.870321E+05  3.933308E-10 -8.025396E-11
       307  13 -1.066923E+06 -1.762771E+05 -4.232492E+04 -4.132268E+05 -2.713661E-09 -8.401044E-10
       307  14 -1.068773E+06 -1.557607E+05 -2.102252E+04 -4.102917E+05 -2.634010E-10 -2.345189E-10
       307  15 -1.065033E+06 -1.629856E+05 -1.185793E+04 -4.182063E+05  1.012677E-10 -1.849487E-10
       307  16 -7.516229E+05 -5.392379E+04  3.910861E+04 -3.226518E+05 -1.881831E-09 -8.103966E-10
       307  17 -7.811897E+05 -4.701980E+04  5.253368E+04 -3.305786E+05  6.358644E-10 -1.561179E-10
       307  18 -8.050847E+05 -6.777276E+04  5.414142E+04 -3.493548E+05  5.137049E-11 -2.025304E-10
       307  19 -1.382124E+06 -2.986213E+05 -1.237641E+05 -5.037592E+05  3.463760E+04 -2.176706E+03
       307  20 -1.356274E+06 -2.644955E+05 -9.458426E+04 -4.899711E+05  2.312375E+04 -5.528314E+03
       307  21 -1.324916E+06 -2.581947E+05 -7.786234E+04 -4.870322E+05  1.137713E+04 -8.260125E+03
       307  22 -1.066922E+06 -1.762768E+05 -4.232261E+04 -4.132269E+05  3.499969E+04 -2.039960E+03
       307  23 -1.068772E+06 -1.557605E+05 -2.102140E+04 -4.102918E+05  2.388368E+04 -5.242682E+03
       307  24 -1.065033E+06 -1.629855E+05 -1.185752E+04 -4.182064E+05  1.253553E+04 -7.825392E+03
       307  25 -7.516215E+05 -5.392345E+04  3.911097E+04 -3.226519E+05  3.536198E+04 -1.903133E+03
       307  26 -7.811890E+05 -4.701961E+04  5.253486E+04 -3.305787E+05  2.464400E+04 -4.956902E+03
       307  27 -8.050844E+05 -6.777265E+04  5.414187E+04 -3.493549E+05  1.369447E+04 -7.390471E+03
       308   1 -1.290731E+06 -2.495796E+05 -6.684912E+04 -4.793366E+05 -9.507402E+03  7.844194E+03
       308   2 -1.266066E+06 -2.302301E+05 -5.480805E+04 -4.636343E+05 -6.458089E+03  7.244422E+03
       308   3 -1.229226E+06 -2.251366E+05 -4.495136E+04 -4.625387E+05 -3.392132E+03  6.598856E+03
       308   4 -1.064222E+06 -1.646480E+05 -9.131452E+03 -4.172918E+05 -1.048830E+04  7.476148E+03
       308   5 -1.070232E+06 -1.569765E+05 -4.862439E+03 -4.101921E+05 -7.467868E+03  6.865746E+03
       308   6 -1.064063E+06 -1.635547E+05 -2.754228E+03 -4.176994E+05 -4.430919E+03  6.209510E+03
       308   7 -8.376634E+05 -7.971335E+04  4.858182E+04 -3.552266E+05 -1.146959E+04  7.107957E+03
       308   8 -8.743613E+05 -8.372039E+04  4.508006E+04 -3.567346E+05 -8.477997E+03  6.486940E+03
       308   9 -8.988733E+05 -1.019710E+05  3.944086E+04 -3.728491E+05 -5.470014E+03  5.820050E+03
       308  10 -1.290731E+06 -2.495797E+05 -6.684941E+04 -4.793365E+05  3.734919E-10  3.173687E-11
       308  11 -1.266066E+06 -2.302302E+05 -5.480822E+04 -4.636343E+05 -6.033449E-10 -6.315135E-11
       308  12 -1.229226E+06 -2.251366E+05 -4.495147E+04 -4.625387E+05  3.369497E-10  1.686890E-10
       308  13 -1.064222E+06 -1.646481E+05 -9.131763E+03 -4.172917E+05 -4.047157E-10 -1.794595E-10
       308  14 -1.070232E+06 -1.569765E+05 -4.862632E+03 -4.101920E+05 -2.602613E-10 -6.285327E-11
       308  15 -1.064063E+06 -1.635548E+05 -2.754338E+03 -4.176994E+05  4.606115E-10  3.311811E-10
       308  16 -8.376636E+05 -7.971344E+04  4.858148E+04 -3.552265E+05 -2.274372E-10 -1.371093E-10
       308  17 -8.743614E+05 -8.372045E+04  4.507984E+04 -3.567345E+05 -3.382888E-10 -2.577444E-10
       308  18 -8.988733E+05 -1.019710E+05  3.944074E+04 -3.728490E+05 -2.198161E-10  4.470712E-11
       308  19 -1.290731E+06 -2.495796E+05 -6.684912E+04 -4.793366E+05  9.507402E+03 -7.844194E+03
       308  20 -1.266066E+06 -2.302301E+05 -5.480805E+04 -4.636343E+05  6.458089E+03 -7.244422E+03
       308  21 -1.229226E+06 -2.251366E+05 -4.495136E+04 -4.625387E+05  3.392132E+03 -6.598856E+03
       308  22 -1.064222E+06 -1.646480E+05 -9.131452E+03 -4.172918E+05  1.048830E+04 -7.476148E+03
       308  23 -1.070232E+06 -1.569765E+05 -4.862439E+03 -4.101921E+05  7.467868E+03 -6.865746E+03
       308  24 -1.064063E+06 -1.635547E+05 -2.754228E+03 -4.176994E+05  4.430919E+03 -6.209510E+03
       308  25 -8.376634E+05 -7.971335E+04  4.858182E+04 -3.552266E+05  1.146959E+04 -7.107957E+03
       308  26 -8.743613E+05 -8.372039E+04  4.508006E+04 -3.567346E+05  8.477997E+03 -6.486940E+03
       308  27 -8.988733E+05 -1.019710E+05  3.944086E+04 -3.728491E+05  5.470014E+03 -5.820050E+03
       309   1 -1.196504E+06 -2.132645E+05 -3.582359E+04 -4.538213E+05 -2.648894E+03  5.818793E+03
       309   2 -1.171670E+06 -1.948775E+05 -2.710823E+04 -4.377291E+05 -1.399546E+03  4.471058E+03
       309   3 -1.133800E+06 -1.897682E+05 -1.890748E+04 -4.367277E+05 -1.474082E+02  3.114951E+03
       309   4 -1.063924E+06 -1.637211E+05 -2.130660E+03 -4.176623E+05 -3.682352E+03  5.431543E+03
       309   5 -1.070435E+06 -1.570404E+05 -1.296504E+03 -4.101323E+05 -2.438295E+03  4.081928E+03
       309   6 -1.063910E+06 -1.636361E+05 -9.725611E+02 -4.176932E+05 -1.191489E+03  2.723934E+03
       309   7 -9.313264E+05 -1.141767E+05  3.156085E+04 -3.814963E+05 -4.716051E+03  5.044203E+03
       309   8 -9.691898E+05 -1.192028E+05  2.451434E+04 -3.825315E+05 -3.477228E+03  3.692729E+03
       309   9 -9.940150E+05 -1.375038E+05  1.696188E+04 -3.986569E+05 -2.235695E+03  2.332870E+03
       309  10 -1.196504E+06 -2.132645E+05 -3.582367E+04 -4.538213E+05  1.099594E-10  9.137096E-11
       309  11 -1.171670E+06 -1.948775E+05 -2.710827E+04 -4.377291E+05 -1.650917E-10  1.389694E-10
       309  12 -1.133800E+06 -1.897682E+05 -1.890749E+04 -4.367277E+05 -9.090527E-11 -3.225022E-10
       309  13 -1.063924E+06 -1.637212E+05 -2.130741E+03 -4.176623E+05 -2.982921E-10  6.666907E-11
       309  14 -1.070435E+06 -1.570405E+05 -1.296546E+03 -4.101323E+05 -5.882194E-11  3.274251E-10
       309  15 -1.063910E+06 -1.636361E+05 -9.725777E+02 -4.176932E+05  1.716854E-10  6.778368E-10
       309  16 -9.313264E+05 -1.141767E+05  3.156076E+04 -3.814963E+05 -3.820157E-10 -9.334469E-11
       309  17 -9.691898E+05 -1.192028E+05  2.451429E+04 -3.825315E+05 -5.179156E-10 -2.143514E-10
       309  18 -9.940150E+05 -1.375038E+05  1.696186E+04 -3.986569E+05  7.929921E-11 -3.466314E-10
       309  19 -1.196504E+06 -2.132645E+05 -3.582359E+04 -4.538213E+05  2.648894E+03 -5.818793E+03
       309  20 -1.171670E+06 -1.948775E+05 -2.710823E+04 -4.377291E+05  1.399546E+03 -4.471058E+03
       309  21 -1.133800E+06 -1.897682E+05 -1.890748E+04 -4.367277E+05  1.474082E+02 -3.114951E+03
       309  22 -1.063924E+06 -1.637211E+05 -2.130660E+03 -4.176623E+05  3.682352E+03 -5.431543E+03
       309  23 -1.070435E+06 -1.570404E+05 -1.296504E+03 -4.101323E+05  2.438295E+03 -4.081928E+03
       309  24 -1.063910E+06 -1.636361E+05 -9.725611E+02 -4.176932E+05  1.191489E+03 -2.723934E+03
       309  25 -9.313264E+05 -1.141767E+05  3.156085E+04 -3.814963E+05  4.716051E+03 -5.044203E+03
       309  26 -9.691898E+05 -1.192028E+05  2.451434E+04 -3.825315E+05  3.477228E+03 -3.692729E+03
       309  27 -9.940150E+05 -1.375038E+05  1.696188E+04 -3.986569E+05  2.235695E+03 -2.332870E+03
       310   1 -1.100933E+06 -1.774946E+05 -1.027600E+04 -4.278333E+05  3.631867E+02  2.240005E+03
       310   2 -1.075959E+06 -1.590872E+05 -2.545449E+03 -4.116208E+05  1.533499E+03  8.463391E+02
       310   3 -1.037865E+06 -1.540151E+05  4.735786E+03 -4.105946E+05  2.703425E+03 -5.462581E+02
       310   4 -1.063892E+06 -1.636553E+05 -9.456663E+02 -4.177119E+05 -6.825776E+02  1.848394E+03
       310   5 -1.070455E+06 -1.570174E+05 -1.139926E+03 -4.101073E+05  4.884016E+02  4.549785E+02
       310   6 -1.063900E+06 -1.637154E+05 -1.784157E+03 -4.176895E+05  1.658960E+03 -9.373747E+02
       310   7 -1.026849E+06 -1.498160E+05  8.384599E+03 -4.075900E+05 -1.728414E+03  1.456756E+03
       310   8 -1.064951E+06 -1.549477E+05  2.656019E+02 -4.085938E+05 -5.567078E+02  6.361322E+01
       310   9 -1.089935E+06 -1.734157E+05 -8.304149E+03 -4.247841E+05  6.145430E+02 -1.328473E+03
       310  10 -1.100933E+06 -1.774946E+05 -1.027601E+04 -4.278333E+05 -1.415001E-13 -8.275449E-11
       310  11 -1.075959E+06 -1.590872E+05 -2.545455E+03 -4.116208E+05  5.565899E-10  1.006841E-09
       310  12 -1.037865E+06 -1.540151E+05  4.735772E+03 -4.105946E+05 -4.241910E-10 -2.288687E-10
       310  13 -1.063892E+06 -1.636553E+05 -9.456736E+02 -4.177119E+05 -3.718385E-10 -3.719713E-10
       310  14 -1.070455E+06 -1.570174E+05 -1.139927E+03 -4.101073E+05  1.056522E-09  6.923852E-10
       310  15 -1.063900E+06 -1.637154E+05 -1.784163E+03 -4.176895E+05  1.132440E-10  6.410596E-10
       310  16 -1.026849E+06 -1.498160E+05  8.384589E+03 -4.075900E+05 -2.788802E-10 -4.433630E-10
       310  17 -1.064951E+06 -1.549477E+05  2.656013E+02 -4.085938E+05 -2.537823E-10  5.211392E-10
       310  18 -1.089935E+06 -1.734157E+05 -8.304153E+03 -4.247841E+05  1.503968E-10  5.290688E-10
       310  19 -1.100933E+06 -1.774946E+05 -1.027600E+04 -4.278333E+05 -3.631867E+02 -2.240005E+03
       310  20 -1.075959E+06 -1.590872E+05 -2.545449E+03 -4.116208E+05 -1.533499E+03 -8.463391E+02
       310  21 -1.037865E+06 -1.540151E+05  4.735786E+03 -4.105946E+05 -2.703425E+03  5.462581E+02
       310  22 -1.063892E+06 -1.636553E+05 -9.456663E+02 -4.177119E+05  6.825776E+02 -1.848394E+03
       310  23 -1.070455E+06 -1.570174E+05 -1.139926E+03 -4.101073E+05 -4.884016E+02 -4.549785E+02
       310  24 -1.063900E+06 -1.637154E+05 -1.784157E+03 -4.176895E+05 -1.658960E+03  9.373747E+02
       310  25 -1.026849E+06 -1.498160E+05  8.384599E+03 -4.075900E+05  1.728414E+03 -1.456756E+03
       310  26 -1.064951E+06 -1.549477E+05  2.656019E+02 -4.085938E+05  5.567078E+02 -6.361322E+01
       310  27 -1.089935E+06 -1.734157E+05 -8.304149E+03 -4.247841E+05 -6.145430E+02  1.328473E+03
       311   1 -1.005001E+06 -1.417019E+05  1.284253E+04 -4.018432E+05  3.395272E+03 -1.356977E+03
       311   2 -9.800529E+05 -1.231846E+05  1.902877E+04 -3.855016E+05  5.980276E+03 -2.212482E+03
       311   3 -9.425781E+05 -1.189048E+05  2.345512E+04 -3.840889E+05  8.553989E+03 -3.036756E+03
       311   4 -1.063990E+06 -1.636060E+05 -2.282683E+03 -4.177490E+05  2.344235E+03 -1.750582E+03
       311   5 -1.070315E+06 -1.569283E+05 -3.984727E+03 -4.101190E+05  4.949184E+03 -2.598712E+03
       311   6 -1.064117E+06 -1.644923E+05 -7.462666E+03 -4.174184E+05  7.542741E+03 -3.415646E+03
       311   7 -1.122976E+06 -1.855098E+05 -1.740812E+04 -4.336533E+05  1.293310E+03 -2.144145E+03
       311   8 -1.160568E+06 -1.906714E+05 -2.699888E+04 -4.347331E+05  3.918256E+03 -2.984880E+03
       311   9 -1.185643E+06 -2.100790E+05 -3.838177E+04 -4.507421E+05  6.531705E+03 -3.794456E+03
       311  10 -1.005001E+06 -1.417019E+05  1.284251E+04 -4.018432E+05  1.612615E-10  3.120646E-11
       311  11 -9.800529E+05 -1.231847E+05  1.902869E+04 -3.855016E+05  5.486500E-10  2.910837E-10
       311  12 -9.425782E+05 -1.189049E+05  2.345496E+04 -3.840889E+05 -5.852289E-11 -1.297293E-10
       311  13 -1.063990E+06 -1.636060E+05 -2.282699E+03 -4.177490E+05  9.817270E-11  1.989087E-10
       311  14 -1.070315E+06 -1.569283E+05 -3.984786E+03 -4.101190E+05 -7.247782E-11 -3.683746E-10
       311  15 -1.064117E+06 -1.644923E+05 -7.462795E+03 -4.174183E+05 -1.962659E-10 -4.317968E-10
       311  16 -1.122976E+06 -1.855098E+05 -1.740813E+04 -4.336533E+05 -1.651954E-10  1.079553E-10
       311  17 -1.160568E+06 -1.906715E+05 -2.699892E+04 -4.347331E+05  1.379851E-10  3.008013E-10
       311  18 -1.185643E+06 -2.100790E+05 -3.838187E+04 -4.507420E+05  2.128612E-10 -3.904991E-11
       311  19 -1.005001E+06 -1.417019E+05  1.284253E+04 -4.018432E+05 -3.395272E+03  1.356977E+03
       311  20 -9.800529E+05 -1.231846E+05  1.902877E+04 -3.855016E+05 -5.980276E+03  2.212482E+03
       311  21 -9.425781E+05 -1.189048E+05  2.345512E+04 -3.840889E+05 -8.553989E+03  3.036756E+03
       311  22 -1.063990E+06 -1.636060E+05 -2.282683E+03 -4.177490E+05 -2.344235E+03  1.750582E+03
       311  23 -1.070315E+06 -1.569283E+05 -3.984727E+03 -4.101190E+05 -4.949184E+03  2.598712E+03
       311  24 -1.064117E+06 -1.644923E+05 -7.462666E+03 -4.174184E+05 -7.542741E+03  3.415646E+03
       311  25 -1.122976E+06 -1.855098E+05 -1.740812E+04 -4.336533E+05 -1.293310E+03  2.144145E+03
       311  26 -1.160568E+06 -1.906714E+05 -2.699888E+04 -4.347331E+05 -3.918256E+03  2.984880E+03
       311  27 -1.185643E+06 -2.100790E+05 -3.838177E+04 -4.507421E+05 -6.531705E+03  3.794456E+03
       312   1 -9.093650E+05 -1.067091E+05  2.972702E+04 -3.775311E+05  1.043348E+04 -3.454388E+03
       312   2 -8.847428E+05 -8.603504E+04  3.003957E+04 -3.589111E+05  1.951465E+04 -1.793466E+03
       312   3 -8.528361E+05 -9.063953E+04  2.068148E+04 -3.522608E+05  2.841944E+04  3.405197E+02
       312   4 -1.064762E+06 -1.631553E+05 -9.685656E+03 -4.181868E+05  9.284331E+03 -3.885005E+03
       312   5 -1.069142E+06 -1.559076E+05 -1.715660E+04 -4.101720E+05  1.867064E+04 -2.109992E+03
       312   6 -1.066299E+06 -1.740019E+05 -3.454255E+04 -4.141275E+05  2.788010E+04  1.378985E+02
       312   7 -1.220136E+06 -2.196003E+05 -4.910026E+04 -4.588335E+05  8.135498E+03 -4.315511E+03
       312   8 -1.253507E+06 -2.257776E+05 -6.435544E+04 -4.614189E+05  1.782691E+04 -2.426413E+03
       312   9 -1.279718E+06 -2.573599E+05 -8.977014E+04 -4.759743E+05  2.734095E+04 -6.463881E+01
       312  10 -9.093651E+05 -1.067092E+05  2.972680E+04 -3.775311E+05  4.484707E-10  1.884878E-10
       312  11 -8.847433E+05 -8.603514E+04  3.003885E+04 -3.589111E+05  6.685088E-10 -1.003429E-11
       312  12 -8.528370E+05 -9.063975E+04  2.067996E+04 -3.522608E+05 -1.365152E-09 -6.155054E-10
       312  13 -1.064762E+06 -1.631553E+05 -9.685847E+03 -4.181868E+05  7.362703E-10  3.749493E-10
       312  14 -1.069142E+06 -1.559077E+05 -1.715726E+04 -4.101720E+05  9.806876E-11  3.899640E-10
       312  15 -1.066300E+06 -1.740021E+05 -3.454401E+04 -4.141275E+05 -2.725918E-09 -9.568545E-10
       312  16 -1.220136E+06 -2.196003E+05 -4.910042E+04 -4.588334E+05  3.938631E-10  4.145033E-11
       312  17 -1.253507E+06 -2.257777E+05 -6.435605E+04 -4.614189E+05 -8.631480E-10 -4.484313E-11
       312  18 -1.279718E+06 -2.573601E+05 -8.977155E+04 -4.759743E+05 -3.681955E-09 -1.162878E-09
       312  19 -9.093650E+05 -1.067091E+05  2.972702E+04 -3.775311E+05 -1.043348E+04  3.454388E+03
       312  20 -8.847428E+05 -8.603504E+04  3.003957E+04 -3.589111E+05 -1.951465E+04  1.793466E+03
       312  21 -8.528361E+05 -9.063953E+04  2.068148E+04 -3.522608E+05 -2.841944E+04 -3.405197E+02
       312  22 -1.064762E+06 -1.631553E+05 -9.685656E+03 -4.181868E+05 -9.284331E+03  3.885005E+03
       312  23 -1.069142E+06 -1.559076E+05 -1.715660E+04 -4.101720E+05 -1.867064E+04  2.109992E+03
       312  24 -1.066299E+06 -1.740019E+05 -3.454255E+04 -4.141275E+05 -2.788010E+04 -1.378985E+02
       312  25 -1.220136E+06 -2.196003E+05 -4.910026E+04 -4.588335E+05 -8.135498E+03  4.315511E+03
       312  26 -1.253507E+06 -2.257776E+05 -6.435544E+04 -4.614189E+05 -1.782691E+04  2.426413E+03
       312  27 -1.279718E+06 -2.573599E+05 -8.977014E+04 -4.759743E+05 -2.734095E+04  6.463881E+01
       313   1 -8.107012E+05 -7.857608E+04  2.016560E+04 -3.708668E+05  3.753442E+04  1.520009E+03
       313   2 -7.908364E+05 -2.948104E+04 -2.069670E+03 -3.222779E+05  7.195707E+04  1.376381E+04
       313   3 -8.168193E+05 -1.361074E+05 -8.901859E+04 -2.507856E+05  1.032413E+05  3.438199E+04
       313   4 -1.071965E+06 -1.580125E+05 -4.293012E+04 -4.233297E+05  3.441985E+04  3.531432E+02
       313   5 -1.057631E+06 -1.442657E+05 -7.307138E+04 -4.105366E+05  7.427533E+04  1.463088E+04
       313   6 -1.090252E+06 -2.873639E+05 -1.722582E+05 -3.748359E+05  1.109908E+05  3.727984E+04
       313   7 -1.333163E+06 -2.374499E+05 -1.060309E+05 -4.757754E+05  3.130670E+04 -8.134220E+02
       313   8 -1.324356E+06 -2.590390E+05 -1.440791E+05 -4.987585E+05  7.659249E+04  1.549739E+04
       313   9 -1.363604E+06 -4.385842E+05 -2.555038E+05 -4.988272E+05  1.187365E+05  4.017474E+04
       313  10 -8.107028E+05 -7.857646E+04  2.016295E+04 -3.708668E+05 -3.425689E-09 -1.160515E-09
       313  11 -7.908420E+05 -2.948263E+04 -2.079771E+03 -3.222787E+05 -8.691365E-10 -1.217281E-10
       313  12 -8.168311E+05 -1.361116E+05 -8.904088E+04 -2.507885E+05  6.079629E-10 -1.153692E-11
       313  13 -1.071966E+06 -1.580128E+05 -4.293236E+04 -4.233297E+05 -2.554073E-09 -6.743477E-10
       313  14 -1.057637E+06 -1.442674E+05 -7.308217E+04 -4.105375E+05 -2.779663E-12 -1.660100E-10
       313  15 -1.090266E+06 -2.873687E+05 -1.722840E+05 -3.748392E+05  2.446553E-10 -1.013309E-10
       313  16 -1.333164E+06 -2.374502E+05 -1.060328E+05 -4.757753E+05 -1.555923E-09 -5.828113E-10
       313  17 -1.324362E+06 -2.590408E+05 -1.440906E+05 -4.987595E+05  4.971062E-10 -1.592209E-10
       313  18 -1.363619E+06 -4.385898E+05 -2.555334E+05 -4.988310E+05  4.122844E-10 -9.029532E-11
       313  19 -8.107012E+05 -7.857608E+04  2.016560E+04 -3.708668E+05 -3.753442E+04 -1.520009E+03
       313  20 -7.908364E+05 -2.948104E+04 -2.069670E+03 -3.222779E+05 -7.195707E+04 -1.376381E+04
       313  21 -8.168193E+05 -1.361074E+05 -8.901859E+04 -2.507856E+05 -1.032413E+05 -3.438199E+04
       313  22 -1.071965E+06 -1.580125E+05 -4.293012E+04 -4.233297E+05 -3.441985E+04 -3.531432E+02
       313  23 -1.057631E+06 -1.442657E+05 -7.307138E+04 -4.105366E+05 -7.427533E+04 -1.463088E+04
       313  24 -1.090252E+06 -2.873639E+05 -1.722582E+05 -3.748359E+05 -1.109908E+05 -3.727984E+04
       313  25 -1.333163E+06 -2.374499E+05 -1.060309E+05 -4.757754E+05 -3.130670E+04  8.134220E+02
       313  26 -1.324356E+06 -2.590390E+05 -1.440791E+05 -4.987585E+05 -7.659249E+04 -1.549739E+04
       313  27 -1.363604E+06 -4.385842E+05 -2.555038E+05 -4.988272E+05 -1.187365E+05 -4.017474E+04
       314   1  6.067141E+05  1.390001E+05  2.287358E+05  1.031349E+05  2.875458E+05  1.137935E+04
       314   2  6.297942E+05 -2.355958E+05  7.528905E+03  2.417510E+04  1.952848E+05  3.354631E+04
       314   3  7.659914E+05 -2.081060E+05 -5.297776E+04 -9.728309E+04  1.030421E+05  3.282191E+04
       314   4  1.528878E+06  3.676349E+05  4.539558E+05 -4.325831E+04  3.114147E+05  1.134820E+04
       314   5  1.471168E+06 -2.865310E+04  2.025062E+05 -2.173856E+04  2.030477E+05  3.353823E+04
       314   6  1.529176E+06 -2.039758E+04  1.227569E+05 -4.271247E+04  9.471442E+04  3.282088E+04
       314   7  2.451864E+06  5.962884E+05  6.791278E+05 -1.898695E+05  3.353187E+05  1.130587E+04
       314   8  2.313199E+06  1.782479E+05  3.974376E+05 -6.771501E+04  2.108209E+05  3.352902E+04
       314   9  2.292905E+06  1.672813E+05  2.984548E+05  1.192558E+04  8.637650E+04  3.281839E+04
       314  10  6.066254E+05  1.389778E+05  2.285803E+05  1.031323E+05 -1.288123E-10  6.371508E-10
       314  11  6.297530E+05 -2.356072E+05  7.455205E+03  2.416983E+04 -1.881345E-10 -4.060207E-10
       314  12  7.659797E+05 -2.081100E+05 -5.299972E+04 -9.728581E+04  1.071528E-09  1.251167E-11
       314  13  1.528774E+06  3.676088E+05  4.537738E+05 -4.326115E+04  3.112148E-10  2.859323E-10
       314  14  1.471123E+06 -2.866535E+04  2.024268E+05 -2.174404E+04 -5.328184E-10 -1.583951E-09
       314  15  1.529166E+06 -2.040114E+04  1.227380E+05 -4.271497E+04 -1.254601E-10 -1.588963E-10
       314  16  2.451743E+06  5.962582E+05  6.789170E+05 -1.898725E+05  5.649773E-10 -9.438921E-11
       314  17  2.313151E+06  1.782348E+05  3.973523E+05 -6.772070E+04 -4.150593E-10 -3.621024E-10
       314  18  2.292896E+06  1.672782E+05  2.984388E+05  1.192330E+04 -1.033224E-09 -5.467389E-10
       314  19  6.067141E+05  1.390001E+05  2.287358E+05  1.031349E+05 -2.875458E+05 -1.137935E+04
       314  20  6.297942E+05 -2.355958E+05  7.528905E+03  2.417510E+04 -1.952848E+05 -3.354631E+04
       314  21  7.659914E+05 -2.081060E+05 -5.297776E+04 -9.728309E+04 -1.030421E+05 -3.282191E+04
       314  22  1.528878E+06  3.676349E+05  4.539558E+05 -4.325831E+04 -3.114147E+05 -1.134820E+04
       314  23  1.471168E+06 -2.865310E+04  2.025062E+05 -2.173856E+04 -2.030477E+05 -3.353823E+04
       314  24  1.529176E+06 -2.039758E+04  1.227569E+05 -4.271247E+04 -9.471442E+04 -3.282088E+04
       314  25  2.451864E+06  5.962884E+05  6.791278E+05 -1.898695E+05 -3.353187E+05 -1.130587E+04
       314  26  2.313199E+06  1.782479E+05  3.974376E+05 -6.771501E+04 -2.108209E+05 -3.352902E+04
       314  27  2.292905E+06  1.672813E+05  2.984548E+05  1.192558E+04 -8.637650E+04 -3.281839E+04
       315   1  8.192028E+05 -1.404971E+05 -5.990221E+04 -3.337999E+04  7.765760E+04  2.784821E+04
       315   2  8.897573E+05 -1.527744E+05 -8.877433E+04 -1.976225E+04  5.206341E+04  2.545328E+04
       315   3  9.719174E+05 -1.330573E+05 -9.293718E+04 -4.745223E+04  2.646456E+04  2.193064E+04
       315   4  1.506036E+06  2.845753E+04  9.898412E+04 -4.260816E+04  7.645087E+04  2.784407E+04
       315   5  1.500203E+06 -2.668555E+03  5.211074E+04 -2.194792E+04  5.004403E+04  2.545048E+04
       315   6  1.506098E+06 -1.678092E+03  3.048992E+04 -4.259205E+04  2.363564E+04  2.192911E+04
       315   7  2.193305E+06  1.973794E+05  2.578390E+05 -5.184665E+04  7.524279E+04  2.783998E+04
       315   8  2.110993E+06  1.474113E+05  1.929711E+05 -2.413579E+04  4.802266E+04  2.544770E+04
       315   9  2.040541E+06  1.296813E+05  1.538981E+05 -3.772766E+04  2.080430E+04  2.192754E+04
       315  10  8.191961E+05 -1.404995E+05 -5.991498E+04 -3.338173E+04 -2.810479E-10 -7.542021E-10
       315  11  8.897543E+05 -1.527758E+05 -8.878063E+04 -1.976332E+04 -2.870562E-10  2.548866E-10
       315  12  9.719165E+05 -1.330581E+05 -9.293940E+04 -4.745269E+04 -2.109239E-10  5.191290E-11
       315  13  1.506030E+06  2.845513E+04  9.897170E+04 -4.260987E+04  5.728602E-10 -3.965269E-10
       315  14  1.500200E+06 -2.669921E+03  5.210483E+04 -2.194895E+04  2.691358E-10 -6.400696E-12
       315  15  1.506097E+06 -1.678759E+03  3.048797E+04 -4.259246E+04 -9.897674E-10 -4.521758E-11
       315  16  2.193299E+06  1.973770E+05  2.578269E+05 -5.184834E+04  3.387135E-10  7.372003E-11
       315  17  2.110990E+06  1.474100E+05  1.929655E+05 -2.413677E+04 -6.337959E-10 -4.396022E-10
       315  18  2.040541E+06  1.296806E+05  1.538963E+05 -3.772803E+04  4.283270E-10  1.248176E-10
       315  19  8.192028E+05 -1.404971E+05 -5.990221E+04 -3.337999E+04 -7.765760E+04 -2.784821E+04
       315  20  8.897573E+05 -1.527744E+05 -8.877433E+04 -1.976225E+04 -5.206341E+04 -2.545328E+04
       315  21  9.719174E+05 -1.330573E+05 -9.293718E+04 -4.745223E+04 -2.646456E+04 -2.193064E+04
       315  22  1.506036E+06  2.845753E+04  9.898412E+04 -4.260816E+04 -7.645087E+04 -2.784407E+04
       315  23  1.500203E+06 -2.668555E+03  5.211074E+04 -2.194792E+04 -5.004403E+04 -2.545048E+04
       315  24  1.506098E+06 -1.678092E+03  3.048992E+04 -4.259205E+04 -2.363564E+04 -2.192911E+04
       315  25  2.193305E+06  1.973794E+05  2.578390E+05 -5.184665E+04 -7.524279E+04 -2.783998E+04
       315  26  2.110993E+06  1.474113E+05  1.929711E+05 -2.413579E+04 -4.802266E+04 -2.544770E+04
       315  27  2.040541E+06  1.296813E+05  1.538981E+05 -3.772766E+04 -2.080430E+04 -2.192754E+04
       316   1  1.043643E+06 -1.110456E+05 -8.238340E+04 -4.216254E+04  2.131875E+04  1.966955E+04
       316   2  1.117308E+06 -9.515103E+04 -7.574582E+04 -2.232214E+04  1.474837E+04  1.612466E+04
       316   3  1.192555E+06 -7.669954E+04 -6.417828E+04 -4.280268E+04  8.174928E+03  1.254539E+04
       316   4  1.503858E+06  2.064832E+03  2.359569E+04 -4.237749E+04  1.886950E+04  1.966846E+04
       316   5  1.503079E+06 -3.086828E+02  1.324998E+04 -2.221794E+04  1.227053E+04  1.612428E+04
       316   6  1.503880E+06 -1.216201E+02  7.850962E+03 -4.237775E+04  5.669283E+03  1.254573E+04
       316   7  1.964268E+06  1.151605E+05  1.295608E+05 -4.259260E+04  1.641844E+04  1.966739E+04
       316   8  1.888987E+06  9.452326E+04  1.022359E+05 -2.211367E+04  9.791169E+03  1.612390E+04
       316   9  1.815293E+06  7.644951E+04  7.987375E+04 -4.195259E+04  3.162393E+03  1.254607E+04
       316  10  1.043642E+06 -1.110461E+05 -8.238498E+04 -4.216288E+04  2.796503E-10  1.446075E-10
       316  11  1.117308E+06 -9.515137E+04 -7.574672E+04 -2.232234E+04  3.328590E-10 -7.691151E-11
       316  12  1.192555E+06 -7.669973E+04 -6.417870E+04 -4.280276E+04  1.037011E-10  1.934550E-10
       316  13  1.503857E+06  2.064321E+03  2.359430E+04 -4.237779E+04  2.862485E-10  8.820302E-11
       316  14  1.503079E+06 -3.090025E+02  1.324921E+04 -2.221810E+04 -1.900713E-09  1.031670E-10
       316  15  1.503879E+06 -1.217978E+02  7.850606E+03 -4.237780E+04  2.660707E-10  6.088869E-11
       316  16  1.964267E+06  1.151600E+05  1.295595E+05 -4.259286E+04 -2.282519E-10  1.176389E-10
       316  17  1.888987E+06  9.452296E+04  1.022352E+05 -2.211380E+04 -4.738651E-10  2.062123E-10
       316  18  1.815293E+06  7.644934E+04  7.987344E+04 -4.195262E+04 -5.867552E-10  3.927256E-10
       316  19  1.043643E+06 -1.110456E+05 -8.238340E+04 -4.216254E+04 -2.131875E+04 -1.966955E+04
       316  20  1.117308E+06 -9.515103E+04 -7.574582E+04 -2.232214E+04 -1.474837E+04 -1.612466E+04
       316  21  1.192555E+06 -7.669954E+04 -6.417828E+04 -4.280268E+04 -8.174928E+03 -1.254539E+04
       316  22  1.503858E+06  2.064832E+03  2.359569E+04 -4.237749E+04 -1.886950E+04 -1.966846E+04
       316  23  1.503079E+06 -3.086828E+02  1.324998E+04 -2.221794E+04 -1.227053E+04 -1.612428E+04
       316  24  1.503880E+06 -1.216201E+02  7.850962E+03 -4.237775E+04 -5.669283E+03 -1.254573E+04
       316  25  1.964268E+06  1.151605E+05  1.295608E+05 -4.259260E+04 -1.641844E+04 -1.966739E+04
       316  26  1.888987E+06  9.452326E+04  1.022359E+05 -2.211367E+04 -9.791169E+03 -1.612390E+04
       316  27  1.815293E+06  7.644951E+04  7.987375E+04 -4.195259E+04 -3.162393E+03 -1.254607E+04
       317   1  1.264817E+06 -5.851636E+04 -4.872070E+04 -4.229255E+04  6.885373E+03  1.046243E+04
       317   2  1.338093E+06 -4.068518E+04 -3.420458E+04 -2.239479E+04  4.929017E+03  6.912007E+03
       317   3  1.411667E+06 -2.261350E+04 -1.836186E+04 -4.225153E+04  2.971486E+03  3.369245E+03
       317   4  1.503604E+06  1.404965E+02  6.142423E+03 -4.225199E+04  4.408293E+03  1.046309E+04
       317   5  1.503461E+06 -3.479811E+01  3.939352E+03 -2.237510E+04  2.456487E+03  6.912951E+03
       317   6  1.503611E+06  2.981769E+01  3.059519E+03 -4.225207E+04  5.037341E+02  3.370496E+03
       317   7  1.742443E+06  5.879339E+04  6.100181E+04 -4.221141E+04  1.930268E+03  1.046374E+04
       317   8  1.668855E+06  4.061367E+04  4.208149E+04 -2.235541E+04 -1.669530E+01  6.913895E+03
       317   9  1.595563E+06  2.267255E+04  2.448035E+04 -4.225261E+04 -1.964380E+03  3.371746E+03
       317  10  1.264817E+06 -5.851649E+04 -4.872100E+04 -4.229260E+04  3.001228E-10  3.218437E-10
       317  11  1.338093E+06 -4.068523E+04 -3.420472E+04 -2.239481E+04 -5.175263E-10  5.919760E-10
       317  12  1.411667E+06 -2.261352E+04 -1.836190E+04 -4.225154E+04 -9.231381E-10  1.614391E-10
       317  13  1.503604E+06  1.403737E+02  6.142181E+03 -4.225203E+04 -5.452185E-11  4.385574E-10
       317  14  1.503461E+06 -3.485108E+01  3.939251E+03 -2.237512E+04 -1.428232E-09 -4.001427E-10
       317  15  1.503611E+06  2.980541E+01  3.059497E+03 -4.225207E+04  2.261857E-10 -4.391387E-10
       317  16  1.742443E+06  5.879327E+04  6.100159E+04 -4.221143E+04  4.559761E-10 -5.349378E-10
       317  17  1.668855E+06  4.061362E+04  4.208140E+04 -2.235541E+04  1.495913E-10 -5.240908E-10
       317  18  1.595563E+06  2.267253E+04  2.448032E+04 -4.225261E+04  7.653398E-10 -6.350886E-10
       317  19  1.264817E+06 -5.851636E+04 -4.872070E+04 -4.229255E+04 -6.885373E+03 -1.046243E+04
       317  20  1.338093E+06 -4.068518E+04 -3.420458E+04 -2.239479E+04 -4.929017E+03 -6.912007E+03
       317  21  1.411667E+06 -2.261350E+04 -1.836186E+04 -4.225153E+04 -2.971486E+03 -3.369245E+03
       317  22  1.503604E+06  1.404965E+02  6.142423E+03 -4.225199E+04 -4.408293E+03 -1.046309E+04
       317  23  1.503461E+06 -3.479811E+01  3.939352E+03 -2.237510E+04 -2.456487E+03 -6.912951E+03
       317  24  1.503611E+06  2.981769E+01  3.059519E+03 -4.225207E+04 -5.037341E+02 -3.370496E+03
       317  25  1.742443E+06  5.879339E+04  6.100181E+04 -4.221141E+04 -1.930268E+03 -1.046374E+04
       317  26  1.668855E+06  4.061367E+04  4.208149E+04 -2.235541E+04  1.669530E+01 -6.913895E+03
       317  27  1.595563E+06  2.267255E+04  2.448035E+04 -4.225261E+04  1.964380E+03 -3.371746E+03
       318   1  1.483593E+06 -4.843381E+03 -1.418723E+03 -4.220380E+04  2.420708E+03  1.310819E+03
       318   2  1.556695E+06  1.305809E+04  1.579107E+04 -2.237672E+04  6.774599E+02 -2.224824E+03
       318   3  1.630038E+06  3.116985E+04  3.417573E+04 -4.218882E+04 -1.065661E+03 -5.761311E+03
       318   4  1.503601E+06  3.139622E+01  2.980377E+03 -4.222664E+04 -4.494852E+01  1.312134E+03
       318   5  1.503481E+06 -2.110182E+01  3.518237E+03 -2.240690E+04 -1.788801E+03 -2.223614E+03
       318   6  1.503598E+06  1.374486E+02  5.232022E+03 -4.222656E+04 -3.532325E+03 -5.760188E+03
       318   7  1.523610E+06  4.906150E+03  7.379475E+03 -4.224947E+04 -2.510683E+03  1.313449E+03
       318   8  1.450270E+06 -1.310049E+04 -8.754760E+03 -2.243708E+04 -4.254853E+03 -2.222405E+03
       318   9  1.377173E+06 -3.089606E+04 -2.371271E+04 -4.226429E+04 -5.998492E+03 -5.759064E+03
       318  10  1.483593E+06 -4.843385E+03 -1.418737E+03 -4.220381E+04  1.024998E-10 -4.274588E-10
       318  11  1.556695E+06  1.305809E+04  1.579106E+04 -2.237672E+04  8.855249E-10 -5.609611E-10
       318  12  1.630038E+06  3.116981E+04  3.417566E+04 -4.218882E+04  3.261982E-10 -1.783008E-10
       318  13  1.503601E+06  3.139437E+01  2.980373E+03 -4.222664E+04 -6.102399E-10  4.781579E-10
       318  14  1.503481E+06 -2.110799E+01  3.518222E+03 -2.240691E+04 -3.903769E-10  5.130221E-10
       318  15  1.503598E+06  1.374096E+02  5.231936E+03 -4.222658E+04  6.110040E-10 -8.627579E-10
       318  16  1.523610E+06  4.906147E+03  7.379460E+03 -4.224947E+04 -6.638846E-10  1.959885E-10
       318  17  1.450270E+06 -1.310050E+04 -8.754803E+03 -2.243709E+04 -6.912506E-10  6.914088E-10
       318  18  1.377173E+06 -3.089611E+04 -2.371284E+04 -4.226432E+04 -7.382598E-10 -8.386367E-11
       318  19  1.483593E+06 -4.843381E+03 -1.418723E+03 -4.220380E+04 -2.420708E+03 -1.310819E+03
       318  20  1.556695E+06  1.305809E+04  1.579107E+04 -2.237672E+04 -6.774599E+02  2.224824E+03
       318  21  1.630038E+06  3.116985E+04  3.417573E+04 -4.218882E+04  1.065661E+03  5.761311E+03
       318  22  1.503601E+06  3.139622E+01  2.980377E+03 -4.222664E+04  4.494852E+01 -1.312134E+03
       318  23  1.503481E+06 -2.110182E+01  3.518237E+03 -2.240690E+04  1.788801E+03  2.223614E+03
       318  24  1.503598E+06  1.374486E+02  5.232022E+03 -4.222656E+04  3.532325E+03  5.760188E+03
       318  25  1.523610E+06  4.906150E+03  7.379475E+03 -4.224947E+04  2.510683E+03 -1.313449E+03
       318  26  1.450270E+06 -1.310049E+04 -8.754760E+03 -2.243708E+04  4.254853E+03  2.222405E+03
       318  27  1.377173E+06 -3.089606E+04 -2.371271E+04 -4.226429E+04  5.998492E+03  5.759064E+03
       319   1  1.702410E+06  4.876775E+04  5.261877E+04 -4.195885E+04 -2.111033E+03 -7.830726E+03
       319   2  1.775619E+06  6.671659E+04  7.386028E+04 -2.226757E+04 -7.634649E+03 -1.138147E+04
       319   3  1.850103E+06  8.680032E+04  9.922661E+04 -4.254229E+04 -1.315745E+04 -1.489761E+04
       319   4  1.503821E+06 -8.055074E+01  6.609300E+03 -4.229956E+04 -4.600033E+03 -7.829782E+03
       319   5  1.503180E+06 -2.364797E+02  1.103424E+04 -2.231574E+04 -1.009749E+04 -1.138104E+04
       319   6  1.503804E+06  1.738810E+03  1.956742E+04 -4.229897E+04 -1.559348E+04 -1.489767E+04
       319   7  1.305267E+06 -4.893161E+04 -3.940279E+04 -4.264016E+04 -7.088244E+03 -7.828836E+03
       319   8  1.230809E+06 -6.719473E+04 -5.179671E+04 -2.236390E+04 -1.255925E+04 -1.138061E+04
       319   9  1.157616E+06 -8.333105E+04 -6.009968E+04 -4.205578E+04 -1.802816E+04 -1.489774E+04
       319  10  1.702410E+06  4.876768E+04  5.261865E+04 -4.195886E+04 -1.366887E-09  4.247197E-10
       319  11  1.775619E+06  6.671643E+04  7.385993E+04 -2.226764E+04 -6.509975E-11  9.529896E-11
       319  12  1.850103E+06  8.680003E+04  9.922587E+04 -4.254245E+04 -3.268424E-10  5.187668E-10
       319  13  1.503821E+06 -8.062228E+01  6.609145E+03 -4.229959E+04 -4.679933E-10 -3.613660E-10
       319  14  1.503180E+06 -2.366462E+02  1.103380E+04 -2.231584E+04  4.763976E-10 -1.909210E-10
       319  15  1.503804E+06  1.738507E+03  1.956655E+04 -4.229916E+04 -2.439077E-10  6.406209E-11
       319  16  1.305267E+06 -4.893169E+04 -3.940300E+04 -4.264021E+04  2.387430E-10  1.327120E-10
       319  17  1.230809E+06 -6.719491E+04 -5.179725E+04 -2.236401E+04  3.248493E-10 -2.996772E-10
       319  18  1.157616E+06 -8.333138E+04 -6.010071E+04 -4.205600E+04  2.068625E-10 -1.604983E-10
       319  19  1.702410E+06  4.876775E+04  5.261877E+04 -4.195885E+04  2.111033E+03  7.830726E+03
       319  20  1.775619E+06  6.671659E+04  7.386028E+04 -2.226757E+04  7.634649E+03  1.138147E+04
       319  21  1.850103E+06  8.680032E+04  9.922661E+04 -4.254229E+04  1.315745E+04  1.489761E+04
       319  22  1.503821E+06 -8.055074E+01  6.609300E+03 -4.229956E+04  4.600033E+03  7.829782E+03
       319  23  1.503180E+06 -2.364797E+02  1.103424E+04 -2.231574E+04  1.009749E+04  1.138104E+04
       319  24  1.503804E+06  1.738810E+03  1.956742E+04 -4.229897E+04  1.559348E+04  1.489767E+04
       319  25  1.305267E+06 -4.893161E+04 -3.940279E+04 -4.264016E+04  7.088244E+03  7.828836E+03
       319  26  1.230809E+06 -6.719473E+04 -5.179671E+04 -2.236390E+04  1.255925E+04  1.138061E+04
       319  27  1.157616E+06 -8.333105E+04 -6.009968E+04 -4.205578E+04  1.802816E+04  1.489774E+04
       320   1  1.925142E+06  1.017575E+05  1.221764E+05 -3.852852E+04 -1.677814E+04 -1.711413E+04
       320   2  1.995560E+06  1.193935E+05  1.572635E+05 -2.403979E+04 -3.935354E+04 -2.059689E+04
       320   3  2.075744E+06  1.637358E+05  2.137247E+05 -5.027668E+04 -6.192970E+04 -2.309024E+04
       320   4  1.505656E+06 -1.359732E+03  2.526422E+04 -4.246687E+04 -1.954455E+04 -1.711450E+04
       320   5  1.500806E+06 -2.184862E+03  4.315229E+04 -2.210586E+04 -4.141424E+04 -2.059839E+04
       320   6  1.505606E+06  2.358714E+04  8.193875E+04 -4.247182E+04 -6.328200E+04 -2.309291E+04
       320   7  1.086333E+06 -1.044892E+05 -7.165962E+04 -4.640255E+04 -2.230912E+04 -1.711484E+04
       320   8  1.006278E+06 -1.237803E+05 -7.097513E+04 -2.017349E+04 -4.347331E+04 -2.059989E+04
       320   9  9.357664E+05 -1.165841E+05 -4.986886E+04 -3.467417E+04 -6.463304E+04 -2.309562E+04
       320  10  1.925141E+06  1.017571E+05  1.221753E+05 -3.852875E+04  2.771315E-10 -3.878007E-11
       320  11  1.995558E+06  1.193926E+05  1.572598E+05 -2.404044E+04 -9.132060E-10 -3.712164E-10
       320  12  2.075740E+06  1.637342E+05  2.137165E+05 -5.027783E+04 -8.545237E-10  1.202889E-10
       320  13  1.505656E+06 -1.360149E+03  2.526296E+04 -4.246714E+04 -1.684986E-11 -1.292109E-10
       320  14  1.500804E+06 -2.185777E+03  4.314828E+04 -2.210655E+04  8.738900E-10 -3.522157E-10
       320  15  1.505601E+06  2.358550E+04  8.193024E+04 -4.247299E+04 -6.358120E-10 -3.793821E-11
       320  16  1.086332E+06 -1.044897E+05 -7.166110E+04 -4.640285E+04 -6.647512E-10 -3.332265E-10
       320  17  1.006276E+06 -1.237813E+05 -7.097947E+04 -2.017421E+04  1.062085E-09 -3.070921E-10
       320  18  9.357618E+05 -1.165857E+05 -4.987770E+04 -3.467537E+04  1.318509E-09  3.979741E-10
       320  19  1.925142E+06  1.017575E+05  1.221764E+05 -3.852852E+04  1.677814E+04  1.711413E+04
       320  20  1.995560E+06  1.193935E+05  1.572635E+05 -2.403979E+04  3.935354E+04  2.059689E+04
       320  21  2.075744E+06  1.637358E+05  2.137247E+05 -5.027668E+04  6.192970E+04  2.309024E+04
       320  22  1.505656E+06 -1.359732E+03  2.526422E+04 -4.246687E+04  1.954455E+04  1.711450E+04
       320  23  1.500806E+06 -2.184862E+03  4.315229E+04 -2.210586E+04  4.141424E+04  2.059839E+04
       320  24  1.505606E+06  2.358714E+04  8.193875E+04 -4.247182E+04  6.328200E+04  2.309291E+04
       320  25  1.086333E+06 -1.044892E+05 -7.165962E+04 -4.640255E+04  2.230912E+04  1.711484E+04
       320  26  1.006278E+06 -1.237803E+05 -7.097513E+04 -2.017349E+04  4.347331E+04  2.059989E+04
       320  27  9.357664E+05 -1.165841E+05 -4.986886E+04 -3.467417E+04  6.463304E+04  2.309562E+04
       321   1  2.170121E+06  1.417077E+05  2.500985E+05  2.460835E+03 -7.082257E+04 -2.766977E+04
       321   2  2.198925E+06  1.538127E+05  3.348266E+05 -6.021215E+04 -1.745514E+05 -2.865020E+04
       321   3  2.325782E+06  5.030217E+05  5.712857E+05 -1.644743E+05 -2.783142E+05 -9.601370E+03
       321   4  1.524758E+06 -1.685106E+04  1.016123E+05 -4.257580E+04 -7.840045E+04 -2.767020E+04
       321   5  1.476772E+06 -2.369236E+04  1.676140E+05 -2.193850E+04 -1.680768E+05 -2.865814E+04
       321   6  1.524507E+06  3.043230E+05  3.757219E+05 -4.287667E+04 -2.577716E+05 -9.634245E+03
       321   7  8.797833E+05 -1.754313E+05 -4.690027E+04 -8.756543E+04 -8.597050E+04 -2.766954E+04
       321   8  7.551029E+05 -2.012285E+05  3.674162E+02  1.629036E+04 -1.616095E+05 -2.866530E+04
       321   9  7.238469E+05  1.056328E+05  1.801209E+05  7.856408E+04 -2.372552E+05 -9.659146E+03
       321  10  2.170115E+06  1.417056E+05  2.500877E+05  2.459258E+03  1.361048E-09  6.830326E-11
       321  11  2.198892E+06  1.538037E+05  3.347680E+05 -6.021618E+04  4.462979E-10 -3.680179E-10
       321  12  2.325699E+06  5.030009E+05  5.711405E+05 -1.644765E+05  6.335492E-10  3.034688E-10
       321  13  1.524751E+06 -1.685353E+04  1.015993E+05 -4.257755E+04 -1.584585E-09 -7.153625E-10
       321  14  1.476742E+06 -2.370080E+04  1.675595E+05 -2.194238E+04 -3.059070E-10 -1.589624E-10
       321  15  1.524435E+06  3.043051E+05  3.755971E+05 -4.287867E+04 -1.981699E-10 -6.265438E-10
       321  16  8.797751E+05 -1.754341E+05 -4.691557E+04 -8.756734E+04 -1.065282E-09  1.663952E-10
       321  17  7.550747E+05 -2.012364E+05  3.168554E+02  1.628663E+04 -7.859134E-10 -8.243169E-10
       321  18  7.237865E+05  1.056176E+05  1.800151E+05  7.856224E+04  4.166958E-10  8.228405E-10
       321  19  2.170121E+06  1.417077E+05  2.500985E+05  2.460835E+03  7.082257E+04  2.766977E+04
       321  20  2.198925E+06  1.538127E+05  3.348266E+05 -6.021215E+04  1.745514E+05  2.865020E+04
       321  21  2.325782E+06  5.030217E+05  5.712857E+05 -1.644743E+05  2.783142E+05  9.601370E+03
       321  22  1.524758E+06 -1.685106E+04  1.016123E+05 -4.257580E+04  7.840045E+04  2.767020E+04
       321  23  1.476772E+06 -2.369236E+04  1.676140E+05 -2.193850E+04  1.680768E+05  2.865814E+04
       321  24  1.524507E+06  3.043230E+05  3.757219E+05 -4.287667E+04  2.577716E+05  9.634245E+03
       321  25  8.797833E+05 -1.754313E+05 -4.690027E+04 -8.756543E+04  8.597050E+04  2.766954E+04
       321  26  7.551029E+05 -2.012285E+05  3.674162E+02  1.629036E+04  1.616095E+05  2.866530E+04
       321  27  7.238469E+05  1.056328E+05  1.801209E+05  7.856408E+04  2.372552E+05  9.659146E+03
       322   1  1.830389E+05  4.348726E+05  2.282724E+05 -1.353349E+05 -1.522228E+03  1.540157E+05
       322   2 -4.766983E+04  3.021638E+05  7.753459E+04 -5.536649E+04 -5.826355E+03  9.579891E+04
       322   3 -6.785740E+04  2.294309E+05  1.726289E+04 -3.088042E+04 -1.056470E+04  3.758990E+04
       322   4  1.904480E+05  4.664283E+05  2.355399E+05 -5.885954E+04 -1.508797E+03  1.569653E+05
       322   5 -1.472360E+04  4.364865E+05  1.085195E+05 -3.130312E+04 -5.828366E+03  9.904259E+04
       322   6 -9.452662E+03  4.664581E+05  7.176140E+04 -5.921725E+04 -1.057234E+04  4.111855E+04
       322   7  1.978790E+05  4.979975E+05  2.428105E+05  1.761970E+04 -1.494642E+03  1.599150E+05
       322   8  1.822356E+04  5.708271E+05  1.395036E+05 -7.234494E+03 -5.830126E+03  1.022870E+05
       322   9  4.895114E+04  7.035390E+05  1.262567E+05 -8.756496E+04 -1.058030E+04  4.464853E+04
       322  10  1.830326E+05  4.348471E+05  2.282279E+05 -1.353347E+05 -4.708554E-10 -1.357982E-09
       322  11 -4.767232E+04  3.021539E+05  7.751729E+04 -5.536604E+04 -5.057133E-10 -1.235064E-09
       322  12 -6.785790E+04  2.294294E+05  1.726003E+04 -3.088010E+04  5.734355E-10 -1.146360E-10
       322  13  1.904414E+05  4.664018E+05  2.354936E+05 -5.885935E+04  6.278001E-10  2.035210E-09
       322  14 -1.472626E+04  4.364759E+05  1.085010E+05 -3.130265E+04  4.632351E-10  1.065385E-09
       322  15 -9.453235E+03  4.664562E+05  7.175801E+04 -5.921690E+04  5.352694E-10  9.853075E-10
       322  16  1.978722E+05  4.979701E+05  2.427625E+05  1.761990E+04  4.273106E-11 -2.273451E-11
       322  17  1.822072E+04  5.708159E+05  1.394839E+05 -7.234013E+03  9.075783E-10  6.545056E-10
       322  18  4.895049E+04  7.035368E+05  1.262527E+05 -8.756458E+04  1.745067E-11 -7.882009E-10
       322  19  1.830389E+05  4.348726E+05  2.282724E+05 -1.353349E+05  1.522228E+03 -1.540157E+05
       322  20 -4.766983E+04  3.021638E+05  7.753459E+04 -5.536649E+04  5.826355E+03 -9.579891E+04
       322  21 -6.785740E+04  2.294309E+05  1.726289E+04 -3.088042E+04  1.056470E+04 -3.758990E+04
       322  22  1.904480E+05  4.664283E+05  2.355399E+05 -5.885954E+04  1.508797E+03 -1.569653E+05
       322  23 -1.472360E+04  4.364865E+05  1.085195E+05 -3.130312E+04  5.828366E+03 -9.904259E+04
       322  24 -9.452662E+03  4.664581E+05  7.176140E+04 -5.921725E+04  1.057234E+04 -4.111855E+04
       322  25  1.978790E+05  4.979975E+05  2.428105E+05  1.761970E+04  1.494642E+03 -1.599150E+05
       322  26  1.822356E+04  5.708271E+05  1.395036E+05 -7.234494E+03  5.830126E+03 -1.022870E+05
       322  27  4.895114E+04  7.035390E+05  1.262567E+05 -8.756496E+04  1.058030E+04 -4.464853E+04
       323   1 -6.897997E+04  1.169144E+05 -1.614087E+04 -6.561807E+04 -1.363587E+04  2.624485E+04
       323   2 -1.110026E+05  8.586215E+03 -5.548540E+04 -3.108573E+04 -1.840343E+04  3.393999E+03
       323   3 -1.237767E+05 -8.952355E+04 -7.266178E+04 -5.243007E+04 -2.210078E+04 -1.944831E+04
       323   4  1.436014E+04  4.554171E+05  6.229338E+04 -5.919556E+04 -1.364137E+04  2.997551E+04
       323   5 -2.282815E+03  4.502391E+05  4.656267E+04 -3.126277E+04 -1.840691E+04  6.366619E+03
       323   6  1.044380E+04  4.553948E+05  5.351823E+04 -5.920312E+04 -2.210213E+04 -1.723744E+04
       323   7  9.769237E+04  7.940259E+05  1.407200E+05 -5.276948E+04 -1.364680E+04  3.370819E+04
       323   8  1.064233E+05  8.920722E+05  1.485978E+05 -3.143987E+04 -1.841039E+04  9.341336E+03
       323   9  1.446436E+05  1.000587E+06  1.796784E+05 -6.598205E+04 -2.210353E+04 -1.502464E+04
       323  10 -6.898035E+04  1.169136E+05 -1.614251E+04 -6.561778E+04  3.256830E-10 -2.291992E-09
       323  11 -1.110030E+05  8.586112E+03 -5.548606E+04 -3.108568E+04  4.451207E-10  1.333439E-09
       323  12 -1.237773E+05 -8.952409E+04 -7.266341E+04 -5.243042E+04 -1.448056E-09  4.429636E-09
       323  13  1.435970E+04  4.554161E+05  6.229134E+04 -5.919523E+04  4.001361E-10  1.629198E-09
       323  14 -2.283190E+03  4.502389E+05  4.656195E+04 -3.126268E+04  1.108080E-09  3.257318E-10
       323  15  1.044320E+04  4.553943E+05  5.351675E+04 -5.920342E+04 -6.050290E-11  5.722318E-10
       323  16  9.769186E+04  7.940246E+05  1.407175E+05 -5.276911E+04  1.122789E-10  1.100148E-09
       323  17  1.064229E+05  8.920720E+05  1.485970E+05 -3.143973E+04 -1.264872E-09 -1.929563E-09
       323  18  1.446430E+05  1.000587E+06  1.796771E+05 -6.598232E+04 -1.422532E-09 -5.369194E-09
       323  19 -6.897997E+04  1.169144E+05 -1.614087E+04 -6.561807E+04  1.363587E+04 -2.624485E+04
       323  20 -1.110026E+05  8.586215E+03 -5.548540E+04 -3.108573E+04  1.840343E+04 -3.393999E+03
       323  21 -1.237767E+05 -8.952355E+04 -7.266178E+04 -5.243007E+04  2.210078E+04  1.944831E+04
       323  22  1.436014E+04  4.554171E+05  6.229338E+04 -5.919556E+04  1.364137E+04 -2.997551E+04
       323  23 -2.282815E+03  4.502391E+05  4.656267E+04 -3.126277E+04  1.840691E+04 -6.366619E+03
       323  24  1.044380E+04  4.553948E+05  5.351823E+04 -5.920312E+04  2.210213E+04  1.723744E+04
       323  25  9.769237E+04  7.940259E+05  1.407200E+05 -5.276948E+04  1.364680E+04 -3.370819E+04
       323  26  1.064233E+05  8.920722E+05  1.485978E+05 -3.143987E+04  1.841039E+04 -9.341336E+03
       323  27  1.446436E+05  1.000587E+06  1.796784E+05 -6.598205E+04  2.210353E+04  1.502464E+04
       324   1 -1.659203E+05 -1.837742E+05 -9.012899E+04 -7.983497E+04 -2.761862E+04 -3.556784E+04
       324   2 -1.961448E+05 -3.095514E+05 -8.982467E+04 -1.253828E+04 -2.956971E+04 -6.527805E+04
       324   3 -6.911112E+04 -3.918759E+05 -3.079502E+04 -7.432419E+02 -9.802447E+03 -9.496947E+04
       324   4 -6.738797E+03  4.632993E+05  5.906865E+04 -5.915310E+04 -2.762813E+04 -2.665382E+04
       324   5 -1.134622E+04  4.402592E+05  8.420011E+04 -3.135766E+04 -2.956030E+04 -7.152169E+04
       324   6  1.438266E+05  4.632300E+05  1.785266E+05 -5.905482E+04 -9.781984E+03 -1.163767E+05
       324   7  1.524151E+05  1.110761E+06  2.082390E+05 -3.844939E+04 -2.763704E+04 -1.773056E+04
       324   8  1.734141E+05  1.190590E+06  2.581875E+05 -5.019984E+04 -2.955051E+04 -7.777277E+04
       324   9  3.567231E+05  1.319010E+06  3.877982E+05 -1.174468E+05 -9.757518E+03 -1.378132E+05
       324  10 -1.659215E+05 -1.837758E+05 -9.013280E+04 -7.983576E+04 -9.822669E-10 -5.837228E-09
       324  11 -1.961469E+05 -3.095562E+05 -8.983433E+04 -1.253983E+04 -1.232651E-10 -3.436309E-09
       324  12 -6.911364E+04 -3.918856E+05 -3.081216E+04 -7.439918E+02  6.473381E-11  4.979012E-10
       324  13 -6.739807E+03  4.632983E+05  5.906588E+04 -5.915370E+04 -1.649422E-09  1.213093E-09
       324  14 -1.134853E+04  4.402534E+05  8.418886E+04 -3.135937E+04  2.714774E-11  2.717927E-10
       324  15  1.438228E+05  4.632155E+05  1.785010E+05 -5.905573E+04  2.516537E-10  3.243121E-10
       324  16  1.524142E+05  1.110761E+06  2.082370E+05 -3.844978E+04 -7.301404E-10  4.977231E-09
       324  17  1.734115E+05  1.190583E+06  2.581745E+05 -5.020168E+04 -1.611784E-10  3.210000E-09
       324  18  3.567179E+05  1.318990E+06  3.877625E+05 -1.174479E+05  4.179663E-11 -7.606952E-10
       324  19 -1.659203E+05 -1.837742E+05 -9.012899E+04 -7.983497E+04  2.761862E+04  3.556784E+04
       324  20 -1.961448E+05 -3.095514E+05 -8.982467E+04 -1.253828E+04  2.956971E+04  6.527805E+04
       324  21 -6.911112E+04 -3.918759E+05 -3.079502E+04 -7.432419E+02  9.802447E+03  9.496947E+04
       324  22 -6.738797E+03  4.632993E+05  5.906865E+04 -5.915310E+04  2.762813E+04  2.665382E+04
       324  23 -1.134622E+04  4.402592E+05  8.420011E+04 -3.135766E+04  2.956030E+04  7.152169E+04
       324  24  1.438266E+05  4.632300E+05  1.785266E+05 -5.905482E+04  9.781984E+03  1.163767E+05
       324  25  1.524151E+05  1.110761E+06  2.082390E+05 -3.844939E+04  2.763704E+04  1.773056E+04
       324  26  1.734141E+05  1.190590E+06  2.581875E+05 -5.019984E+04  2.955051E+04  7.777277E+04
       324  27  3.567231E+05  1.319010E+06  3.877982E+05 -1.174468E+05  9.757518E+03  1.378132E+05
       325   1 -2.756595E+06 -1.049083E+06 -5.692091E+05 -1.065127E+06 -2.724950E+05 -8.280881E+04
       325   2 -2.685934E+06 -7.686008E+05 -3.494607E+05 -1.031995E+06 -1.737046E+05  4.496586E+02
       325   3 -2.673808E+06 -6.517037E+05 -2.556942E+05 -9.781789E+05 -6.362935E+04  5.386379E+04
       325   4 -1.721570E+06 -5.222160E+05 -2.758385E+05 -6.405209E+05 -1.848134E+05 -4.984681E+04
       325   5 -1.681791E+06 -3.383414E+05 -1.275192E+05 -6.910206E+05 -1.333991E+05  1.559784E+04
       325   6 -1.691029E+06 -3.085097E+05 -6.741629E+04 -7.208709E+05 -7.072234E+04  5.118395E+04
       325   7 -6.854489E+05  5.010971E+03  1.746155E+04 -2.151862E+05 -9.697392E+04 -1.677611E+04
       325   8 -6.766001E+05  9.210823E+04  9.436828E+04 -3.494994E+05 -9.302332E+04  3.078248E+04
       325   9 -7.072304E+05  3.475499E+04  1.208241E+05 -4.631887E+05 -7.782749E+04  4.850002E+04
       325  10 -2.756677E+06 -1.049111E+06 -5.693622E+05 -1.065146E+06 -6.745283E-10 -7.326397E-10
       325  11 -2.685967E+06 -7.686089E+05 -3.495177E+05 -1.031995E+06  3.102164E-10  3.387331E-10
       325  12 -2.673814E+06 -6.517079E+05 -2.557072E+05 -9.781761E+05  2.096703E-09  4.073916E-10
       325  13 -1.721607E+06 -5.222278E+05 -2.759076E+05 -6.405284E+05  5.770387E-10  4.998298E-10
       325  14 -1.681810E+06 -3.383465E+05 -1.275532E+05 -6.910189E+05 -4.299177E-10  1.421127E-09
       325  15 -1.691035E+06 -3.085139E+05 -6.743062E+04 -7.208679E+05 -8.062626E-10  2.006023E-10
       325  16 -6.854591E+05  5.008140E+03  1.744333E+04 -2.151875E+05  1.460096E-09  1.562134E-09
       325  17 -6.766097E+05  9.210488E+04  9.435023E+04 -3.494971E+05 -1.406614E-09  1.082135E-09
       325  18 -7.072375E+05  3.475084E+04  1.208083E+05 -4.631857E+05 -1.657992E-09  3.188078E-10
       325  19 -2.756595E+06 -1.049083E+06 -5.692091E+05 -1.065127E+06  2.724950E+05  8.280881E+04
       325  20 -2.685934E+06 -7.686008E+05 -3.494607E+05 -1.031995E+06  1.737046E+05 -4.496586E+02
       325  21 -2.673808E+06 -6.517037E+05 -2.556942E+05 -9.781789E+05  6.362935E+04 -5.386379E+04
       325  22 -1.721570E+06 -5.222160E+05 -2.758385E+05 -6.405209E+05  1.848134E+05  4.984681E+04
       325  23 -1.681791E+06 -3.383414E+05 -1.275192E+05 -6.910206E+05  1.333991E+05 -1.559784E+04
       325  24 -1.691029E+06 -3.085097E+05 -6.741629E+04 -7.208709E+05  7.072234E+04 -5.118395E+04
       325  25 -6.854489E+05  5.010971E+03  1.746155E+04 -2.151862E+05  9.697392E+04  1.677611E+04
       325  26 -6.766001E+05  9.210823E+04  9.436828E+04 -3.494994E+05  9.302332E+04 -3.078248E+04
       325  27 -7.072304E+05  3.475499E+04  1.208241E+05 -4.631887E+05  7.782749E+04 -4.850002E+04
       326   1 -2.596345E+06 -6.496223E+05 -2.275018E+05 -9.741573E+05 -5.942440E+04  5.212243E+04
       326   2 -2.520470E+06 -6.017379E+05 -1.839355E+05 -9.435713E+05 -4.105998E+04  5.586167E+04
       326   3 -2.435381E+06 -5.758447E+05 -1.553124E+05 -9.279728E+05 -2.179737E+04  5.721039E+04
       326   4 -1.682699E+06 -3.127050E+05 -5.103563E+04 -7.160908E+05 -6.197411E+04  5.115218E+04
       326   5 -1.686981E+06 -2.973754E+05 -2.691557E+04 -7.103531E+05 -4.738941E+04  5.347237E+04
       326   6 -1.681297E+06 -3.032765E+05 -1.471926E+04 -7.196040E+05 -3.190968E+04  5.340271E+04
       326   7 -7.681799E+05  2.429291E+04  1.253943E+05 -4.576684E+05 -6.452783E+04  5.018040E+04
       326   8 -8.527667E+05  7.051110E+03  1.300755E+05 -4.768433E+05 -5.372792E+04  5.107963E+04
       326   9 -9.266237E+05 -3.065983E+04  1.258502E+05 -5.110014E+05 -4.203506E+04  4.959020E+04
       326  10 -2.596350E+06 -6.496261E+05 -2.275135E+05 -9.741548E+05 -1.227846E-09  3.823253E-10
       326  11 -2.520472E+06 -6.017417E+05 -1.839445E+05 -9.435694E+05  1.772845E-10  1.473964E-09
       326  12 -2.435382E+06 -5.758484E+05 -1.553195E+05 -9.279718E+05  1.297105E-09  1.210831E-09
       326  13 -1.682704E+06 -3.127089E+05 -5.104776E+04 -7.160883E+05  1.134581E-10  5.447987E-10
       326  14 -1.686984E+06 -2.973790E+05 -2.692515E+04 -7.103511E+05  5.353608E-10  7.579774E-10
       326  15 -1.681299E+06 -3.032798E+05 -1.472652E+04 -7.196026E+05  4.609718E-10  3.973950E-10
       326  16 -7.681851E+05  2.428909E+04  1.253818E+05 -4.576658E+05  8.302886E-10  1.038689E-09
       326  17 -8.527705E+05  7.047538E+03  1.300652E+05 -4.768411E+05  6.089595E-10  1.773960E-10
       326  18 -9.266263E+05 -3.066294E+04  1.258423E+05 -5.109997E+05 -2.133505E-09  5.463463E-10
       326  19 -2.596345E+06 -6.496223E+05 -2.275018E+05 -9.741573E+05  5.942440E+04 -5.212243E+04
       326  20 -2.520470E+06 -6.017379E+05 -1.839355E+05 -9.435713E+05  4.105998E+04 -5.586167E+04
       326  21 -2.435381E+06 -5.758447E+05 -1.553124E+05 -9.279728E+05  2.179737E+04 -5.721039E+04
       326  22 -1.682699E+06 -3.127050E+05 -5.103563E+04 -7.160908E+05  6.197411E+04 -5.115218E+04
       326  23 -1.686981E+06 -2.973754E+05 -2.691557E+04 -7.103531E+05  4.738941E+04 -5.347237E+04
       326  24 -1.681297E+06 -3.032765E+05 -1.471926E+04 -7.196040E+05  3.190968E+04 -5.340271E+04
       326  25 -7.681799E+05  2.429291E+04  1.253943E+05 -4.576684E+05  6.452783E+04 -5.018040E+04
       326  26 -8.527667E+05  7.051110E+03  1.300755E+05 -4.768433E+05  5.372792E+04 -5.107963E+04
       326  27 -9.266237E+05 -3.065983E+04  1.258502E+05 -5.110014E+05  4.203506E+04 -4.959020E+04
       327   1 -2.379605E+06 -5.569921E+05 -1.410231E+05 -9.134425E+05 -1.867977E+04  5.412434E+04
       327   2 -2.303984E+06 -5.194950E+05 -1.205852E+05 -8.823022E+05 -1.297327E+04  4.913609E+04
       327   3 -2.214434E+06 -4.968652E+05 -1.027339E+05 -8.677167E+05 -7.192305E+03  4.394103E+04
       327   4 -1.680629E+06 -3.035213E+05 -1.106614E+04 -7.193178E+05 -2.845850E+04  5.044406E+04
       327   5 -1.687580E+06 -2.959761E+05 -6.081751E+03 -7.110845E+05 -2.307745E+04  4.533649E+04
       327   6 -1.680547E+06 -3.032334E+05 -3.424643E+03 -7.194078E+05 -1.762247E+04  4.002207E+04
       327   7 -9.811315E+05 -5.000280E+04  1.188743E+05 -5.249873E+05 -3.824914E+04  4.675934E+04
       327   8 -1.070773E+06 -7.242099E+04  1.084084E+05 -5.397072E+05 -3.319244E+04  4.153286E+04
       327   9 -1.146361E+06 -1.095753E+05  9.587418E+04 -5.709798E+05 -2.806226E+04  3.609951E+04
       327  10 -2.379607E+06 -5.569954E+05 -1.410293E+05 -9.134417E+05  9.250623E-10  8.760256E-10
       327  11 -2.303985E+06 -5.194977E+05 -1.205900E+05 -8.823017E+05  5.498027E-10 -4.426799E-11
       327  12 -2.214435E+06 -4.968673E+05 -1.027377E+05 -8.677165E+05  6.331800E-10 -3.380443E-10
       327  13 -1.680630E+06 -3.035242E+05 -1.107244E+04 -7.193166E+05 -9.968306E-11  1.926498E-10
       327  14 -1.687581E+06 -2.959785E+05 -6.086610E+03 -7.110836E+05  1.282339E-09 -5.850263E-10
       327  15 -1.680548E+06 -3.032352E+05 -3.428233E+03 -7.194073E+05  2.079975E-10 -8.231580E-10
       327  16 -9.811336E+05 -5.000554E+04  1.188675E+05 -5.249858E+05 -1.160614E-09 -5.104666E-10
       327  17 -1.070775E+06 -7.242313E+04  1.084031E+05 -5.397060E+05 -7.258967E-10 -9.108769E-10
       327  18 -1.146362E+06 -1.095769E+05  9.587025E+04 -5.709790E+05 -5.972657E-11 -1.333112E-09
       327  19 -2.379605E+06 -5.569921E+05 -1.410231E+05 -9.134425E+05  1.867977E+04 -5.412434E+04
       327  20 -2.303984E+06 -5.194950E+05 -1.205852E+05 -8.823022E+05  1.297327E+04 -4.913609E+04
       327  21 -2.214434E+06 -4.968652E+05 -1.027339E+05 -8.677167E+05  7.192305E+03 -4.394103E+04
       327  22 -1.680629E+06 -3.035213E+05 -1.106614E+04 -7.193178E+05  2.845850E+04 -5.044406E+04
       327  23 -1.687580E+06 -2.959761E+05 -6.081751E+03 -7.110845E+05  2.307745E+04 -4.533649E+04
       327  24 -1.680547E+06 -3.032334E+05 -3.424643E+03 -7.194078E+05  1.762247E+04 -4.002207E+04
       327  25 -9.811315E+05 -5.000280E+04  1.188743E+05 -5.249873E+05  3.824914E+04 -4.675934E+04
       327  26 -1.070773E+06 -7.242099E+04  1.084084E+05 -5.397072E+05  3.319244E+04 -4.153286E+04
       327  27 -1.146361E+06 -1.095753E+05  9.587418E+04 -5.709798E+05  2.806226E+04 -3.609951E+04
       328   1 -2.159587E+06 -4.769942E+05 -9.132969E+04 -8.525724E+05 -5.262185E+03  4.030399E+04
       328   2 -2.083685E+06 -4.396149E+05 -7.511540E+04 -8.211564E+05 -1.935813E+03  3.406155E+04
       328   3 -1.993331E+06 -4.168013E+05 -5.953947E+04 -8.064052E+05  1.398225E+03  2.779211E+04
       328   4 -1.680441E+06 -3.032554E+05 -2.634832E+03 -7.193982E+05 -1.568517E+04  3.638924E+04
       328   5 -1.687655E+06 -2.959644E+05 -1.645755E+03 -7.110644E+05 -1.240126E+04  3.013286E+04
       328   6 -1.680416E+06 -3.032311E+05 -1.261629E+03 -7.193979E+05 -9.109797E+03  2.384941E+04
       328   7 -1.201059E+06 -1.294970E+05  8.605056E+04 -5.861293E+05 -2.611668E+04  3.247130E+04
       328   8 -1.291460E+06 -1.522993E+05  7.181837E+04 -6.009069E+05 -2.287387E+04  2.620148E+04
       328   9 -1.367395E+06 -1.896506E+05  5.701370E+04 -6.323488E+05 -1.962359E+04  1.990455E+04
       328  10 -2.159587E+06 -4.769960E+05 -9.133279E+04 -8.525722E+05 -9.656472E-09 -3.470570E-09
       328  11 -2.083685E+06 -4.396162E+05 -7.511758E+04 -8.211563E+05  1.583689E-08  7.824466E-09
       328  12 -1.993332E+06 -4.168021E+05 -5.954092E+04 -8.064053E+05  4.301884E-08  1.836560E-08
       328  13 -1.680442E+06 -3.032569E+05 -2.637779E+03 -7.193978E+05  3.109127E-10 -3.984340E-10
       328  14 -1.687656E+06 -2.959654E+05 -1.647749E+03 -7.110641E+05 -3.815767E-10  9.743405E-10
       328  15 -1.680417E+06 -3.032317E+05 -1.262853E+03 -7.193977E+05  1.589813E-09  2.971207E-09
       328  16 -1.201060E+06 -1.294983E+05  8.604730E+04 -5.861286E+05  9.716969E-09  2.711530E-09
       328  17 -1.291461E+06 -1.523002E+05  7.181609E+04 -6.009064E+05 -1.735822E-08 -5.814889E-09
       328  18 -1.367396E+06 -1.896511E+05  5.701223E+04 -6.323485E+05 -3.964175E-08 -1.241232E-08
       328  19 -2.159587E+06 -4.769942E+05 -9.132969E+04 -8.525724E+05  5.262185E+03 -4.030399E+04
       328  20 -2.083685E+06 -4.396149E+05 -7.511540E+04 -8.211564E+05  1.935813E+03 -3.406155E+04
       328  21 -1.993331E+06 -4.168013E+05 -5.953947E+04 -8.064052E+05 -1.398225E+03 -2.779211E+04
       328  22 -1.680441E+06 -3.032554E+05 -2.634832E+03 -7.193982E+05  1.568517E+04 -3.638924E+04
       328  23 -1.687655E+06 -2.959644E+05 -1.645755E+03 -7.110644E+05  1.240126E+04 -3.013286E+04
       328  24 -1.680416E+06 -3.032311E+05 -1.261629E+03 -7.193979E+05  9.109797E+03 -2.384941E+04
       328  25 -1.201059E+06 -1.294970E+05  8.605056E+04 -5.861293E+05  2.611668E+04 -3.247130E+04
       328  26 -1.291460E+06 -1.522993E+05  7.181837E+04 -6.009069E+05  2.287387E+04 -2.620148E+04
       328  27 -1.367395E+06 -1.896506E+05  5.701370E+04 -6.323488E+05  1.962359E+04 -1.990455E+04
       329   1 -1.938312E+06 -3.967832E+05 -4.886247E+04 -7.911719E+05  3.061701E+03  2.402762E+04
       329   2 -1.862092E+06 -3.592750E+05 -3.391297E+04 -7.596597E+05  6.312259E+03  1.770614E+04
       329   3 -1.771376E+06 -3.363755E+05 -1.953779E+04 -7.448813E+05  9.561453E+03  1.138529E+04
       329   4 -1.680400E+06 -3.032343E+05 -1.246072E+03 -7.194130E+05 -7.457478E+03  2.008158E+04
       329   5 -1.687635E+06 -2.959011E+05 -1.550925E+03 -7.110536E+05 -4.206087E+03  1.376129E+04
       329   6 -1.680382E+06 -3.031772E+05 -2.431145E+03 -7.194303E+05 -9.561793E+02  7.441617E+03
       329   7 -1.422417E+06 -2.096792E+05  4.636828E+04 -6.476263E+05 -1.798133E+04  1.613379E+04
       329   8 -1.513147E+06 -2.325246E+05  3.081020E+04 -6.624349E+05 -1.472755E+04  9.815277E+03
       329   9 -1.589380E+06 -2.699783E+05  1.467540E+04 -6.939759E+05 -1.147537E+04  3.497359E+03
       329  10 -1.938312E+06 -3.967838E+05 -4.886357E+04 -7.911719E+05 -3.849239E-08 -1.293995E-08
       329  11 -1.862092E+06 -3.592753E+05 -3.391364E+04 -7.596598E+05 -1.721857E-08 -6.529940E-09
       329  12 -1.771376E+06 -3.363757E+05 -1.953820E+04 -7.448814E+05  8.048137E-09  1.523381E-09
       329  13 -1.680400E+06 -3.032348E+05 -1.246933E+03 -7.194129E+05  1.854927E-09  2.735826E-09
       329  14 -1.687635E+06 -2.959013E+05 -1.551313E+03 -7.110535E+05 -5.184304E-10  8.547933E-11
       329  15 -1.680382E+06 -3.031772E+05 -2.431251E+03 -7.194303E+05 -9.098567E-10 -1.297159E-09
       329  16 -1.422418E+06 -2.096795E+05  4.636718E+04 -6.476261E+05  4.242385E-08  1.826628E-08
       329  17 -1.513147E+06 -2.325248E+05  3.080961E+04 -6.624348E+05  1.728087E-08  7.282592E-09
       329  18 -1.589380E+06 -2.699784E+05  1.467513E+04 -6.939759E+05 -9.062050E-09 -3.988833E-09
       329  19 -1.938312E+06 -3.967832E+05 -4.886247E+04 -7.911719E+05 -3.061701E+03 -2.402762E+04
       329  20 -1.862092E+06 -3.592750E+05 -3.391297E+04 -7.596597E+05 -6.312259E+03 -1.770614E+04
       329  21 -1.771376E+06 -3.363755E+05 -1.953779E+04 -7.448813E+05 -9.561453E+03 -1.138529E+04
       329  22 -1.680400E+06 -3.032343E+05 -1.246072E+03 -7.194130E+05  7.457478E+03 -2.008158E+04
       329  23 -1.687635E+06 -2.959011E+05 -1.550925E+03 -7.110536E+05  4.206087E+03 -1.376129E+04
       329  24 -1.680382E+06 -3.031772E+05 -2.431145E+03 -7.194303E+05  9.561793E+02 -7.441617E+03
       329  25 -1.422417E+06 -2.096792E+05  4.636828E+04 -6.476263E+05  1.798133E+04 -1.613379E+04
       329  26 -1.513147E+06 -2.325246E+05  3.081020E+04 -6.624349E+05  1.472755E+04 -9.815277E+03
       329  27 -1.589380E+06 -2.699783E+05  1.467540E+04 -6.939759E+05  1.147537E+04 -3.497359E+03
       330   1 -1.716240E+06 -3.163367E+05 -9.561991E+03 -7.296835E+05  1.148623E+04  7.711702E+03
       330   2 -1.639747E+06 -2.787950E+05  3.346121E+03 -6.981383E+05  1.656411E+04  2.122036E+03
       330   3 -1.549090E+06 -2.561567E+05  1.423699E+04 -6.833587E+05  2.160581E+04 -3.369284E+03
       330   4 -1.680450E+06 -3.031641E+05 -3.147055E+03 -7.194694E+05  9.508312E+02  3.761565E+03
       330   5 -1.687527E+06 -2.957888E+05 -5.555191E+03 -7.110512E+05  6.183913E+03 -1.770173E+03
       330   6 -1.680482E+06 -3.033496E+05 -1.010511E+04 -7.194024E+05  1.138042E+04 -7.203677E+03
       330   7 -1.644658E+06 -2.899912E+05  3.268412E+03 -7.092545E+05 -9.585312E+03 -1.888621E+02
       330   8 -1.735305E+06 -3.127825E+05 -1.445619E+04 -7.239632E+05 -4.195483E+03 -5.662094E+03
       330   9 -1.811855E+06 -3.505409E+05 -3.444743E+04 -7.554390E+05  1.157336E+03 -1.103722E+04
       330  10 -1.716240E+06 -3.163368E+05 -9.562352E+03 -7.296836E+05 -1.136086E-09 -1.787897E-09
       330  11 -1.639747E+06 -2.787951E+05  3.345595E+03 -6.981384E+05 -4.063264E-10 -7.542651E-10
       330  12 -1.549091E+06 -2.561569E+05  1.423609E+04 -6.833587E+05  4.417896E-10 -1.829048E-10
       330  13 -1.680450E+06 -3.031641E+05 -3.147083E+03 -7.194694E+05  3.990657E-10 -7.976047E-10
       330  14 -1.687527E+06 -2.957888E+05 -5.555269E+03 -7.110512E+05  1.701307E-09  4.872740E-10
       330  15 -1.680482E+06 -3.033497E+05 -1.010545E+04 -7.194024E+05  4.229589E-10 -9.828376E-11
       330  16 -1.644658E+06 -2.899912E+05  3.268239E+03 -7.092545E+05  1.340500E-09 -5.887264E-11
       330  17 -1.735306E+06 -3.127825E+05 -1.445629E+04 -7.239633E+05 -1.076078E-10 -9.964280E-11
       330  18 -1.811855E+06 -3.505410E+05 -3.444766E+04 -7.554390E+05 -2.782701E-10 -5.576929E-10
       330  19 -1.716240E+06 -3.163367E+05 -9.561991E+03 -7.296835E+05 -1.148623E+04 -7.711702E+03
       330  20 -1.639747E+06 -2.787950E+05  3.346121E+03 -6.981383E+05 -1.656411E+04 -2.122036E+03
       330  21 -1.549090E+06 -2.561567E+05  1.423699E+04 -6.833587E+05 -2.160581E+04  3.369284E+03
       330  22 -1.680450E+06 -3.031641E+05 -3.147055E+03 -7.194694E+05 -9.508312E+02 -3.761565E+03
       330  23 -1.687527E+06 -2.957888E+05 -5.555191E+03 -7.110512E+05 -6.183913E+03  1.770173E+03
       330  24 -1.680482E+06 -3.033496E+05 -1.010511E+04 -7.194024E+05 -1.138042E+04  7.203677E+03
       330  25 -1.644658E+06 -2.899912E+05  3.268412E+03 -7.092545E+05  9.585312E+03  1.888621E+02
       330  26 -1.735305E+06 -3.127825E+05 -1.445619E+04 -7.239632E+05  4.195483E+03  5.662094E+03
       330  27 -1.811855E+06 -3.505409E+05 -3.444743E+04 -7.554390E+05 -1.157336E+03  1.103722E+04
       331   1 -1.493783E+06 -2.365684E+05  2.163529E+04 -6.691719E+05  2.509127E+04 -6.418009E+03
       331   2 -1.418223E+06 -1.983457E+05  2.651210E+04 -6.347181E+05  3.771223E+04 -8.436291E+03
       331   3 -1.331712E+06 -1.806927E+05  2.203554E+04 -6.157824E+05  4.987314E+04 -9.221224E+03
       331   4 -1.681062E+06 -3.031440E+05 -1.344216E+04 -7.197065E+05  1.468328E+04 -1.032128E+04
       331   5 -1.686956E+06 -2.969360E+05 -2.456182E+04 -7.103505E+05  2.926087E+04 -1.160710E+04
       331   6 -1.682297E+06 -3.116899E+05 -4.659246E+04 -7.165161E+05  4.337695E+04 -1.165990E+04
       331   7 -1.868302E+06 -3.697159E+05 -4.852007E+04 -7.702266E+05  4.278757E+03 -1.422332E+04
       331   8 -1.955613E+06 -3.955193E+05 -7.563842E+04 -7.859521E+05  2.081343E+04 -1.477641E+04
       331   9 -2.032758E+06 -4.426756E+05 -1.152267E+05 -8.171971E+05  3.688464E+04 -1.409703E+04
       331  10 -1.493784E+06 -2.365687E+05  2.163403E+04 -6.691717E+05 -4.897377E-11 -4.954915E-10
       331  11 -1.418224E+06 -1.983461E+05  2.650929E+04 -6.347179E+05 -3.481662E-10 -4.718829E-10
       331  12 -1.331714E+06 -1.806935E+05  2.203070E+04 -6.157821E+05 -1.803176E-09  9.985614E-11
       331  13 -1.681062E+06 -3.031441E+05 -1.344277E+04 -7.197064E+05 -8.508732E-11 -5.048007E-10
       331  14 -1.686957E+06 -2.969364E+05 -2.456369E+04 -7.103502E+05 -1.274827E-09 -8.358118E-10
       331  15 -1.682299E+06 -3.116906E+05 -4.659625E+04 -7.165157E+05 -5.267856E-10  2.405258E-10
       331  16 -1.868302E+06 -3.697162E+05 -4.852048E+04 -7.702266E+05  7.574391E-10 -3.567896E-10
       331  17 -1.955614E+06 -3.955197E+05 -7.563964E+04 -7.859519E+05  1.940377E-11 -3.652528E-10
       331  18 -2.032760E+06 -4.426762E+05 -1.152296E+05 -8.171966E+05  1.447806E-09  5.151485E-10
       331  19 -1.493783E+06 -2.365684E+05  2.163529E+04 -6.691719E+05 -2.509127E+04  6.418009E+03
       331  20 -1.418223E+06 -1.983457E+05  2.651210E+04 -6.347181E+05 -3.771223E+04  8.436291E+03
       331  21 -1.331712E+06 -1.806927E+05  2.203554E+04 -6.157824E+05 -4.987314E+04  9.221224E+03
       331  22 -1.681062E+06 -3.031440E+05 -1.344216E+04 -7.197065E+05 -1.468328E+04  1.032128E+04
       331  23 -1.686956E+06 -2.969360E+05 -2.456182E+04 -7.103505E+05 -2.926087E+04  1.160710E+04
       331  24 -1.682297E+06 -3.116899E+05 -4.659246E+04 -7.165161E+05 -4.337695E+04  1.165990E+04
       331  25 -1.868302E+06 -3.697159E+05 -4.852007E+04 -7.702266E+05 -4.278757E+03  1.422332E+04
       331  26 -1.955613E+06 -3.955193E+05 -7.563842E+04 -7.859521E+05 -2.081343E+04  1.477641E+04
       331  27 -2.032758E+06 -4.426756E+05 -1.152267E+05 -8.171971E+05 -3.688464E+04  1.409703E+04
       332   1 -1.270617E+06 -1.694483E+05  1.844744E+04 -6.195937E+05  6.050408E+04 -9.116514E+03
       332   2 -1.232841E+06 -1.137091E+05 -1.145591E+04 -5.110881E+05  9.589181E+04  6.674575E+03
       332   3 -1.232754E+06 -1.960123E+05 -1.023599E+05 -3.863818E+05  1.254707E+05  3.795627E+04
       332   4 -1.689763E+06 -3.079775E+05 -6.154926E+04 -7.210382E+05  5.164320E+04 -1.244148E+04
       332   5 -1.682310E+06 -3.341309E+05 -1.164055E+05 -6.925351E+05  1.116519E+05  1.257750E+04
       332   6 -1.717495E+06 -5.033030E+05 -2.518433E+05 -6.478309E+05  1.658436E+05  5.308045E+04
       332   7 -2.108729E+06 -4.464996E+05 -1.415537E+05 -8.224229E+05  4.278869E+04 -1.576457E+04
       332   8 -2.131554E+06 -5.544802E+05 -2.213637E+05 -8.738416E+05  1.273994E+05  1.847216E+04
       332   9 -2.201942E+06 -8.103982E+05 -4.013313E+05 -9.090404E+05  2.061806E+05  6.817056E+04
       332  10 -1.270621E+06 -1.694494E+05  1.844040E+04 -6.195933E+05 -1.005635E-09  6.902033E-10
       332  11 -1.232851E+06 -1.137117E+05 -1.147331E+04 -5.110887E+05 -1.960599E-10  5.563438E-10
       332  12 -1.232771E+06 -1.960181E+05 -1.023922E+05 -3.863856E+05  3.309044E-10  9.089957E-10
       332  13 -1.689766E+06 -3.079784E+05 -6.155457E+04 -7.210377E+05  6.191695E-10  7.866464E-10
       332  14 -1.682324E+06 -3.341344E+05 -1.164293E+05 -6.925363E+05 -2.967969E-10  8.764265E-10
       332  15 -1.717526E+06 -5.033134E+05 -2.519004E+05 -6.478380E+05 -8.437511E-11  1.425580E-10
       332  16 -2.108731E+06 -4.465003E+05 -1.415576E+05 -8.224223E+05 -1.534002E-11  7.392545E-10
       332  17 -2.131572E+06 -5.544849E+05 -2.213949E+05 -8.738435E+05 -1.685581E-10  8.762637E-10
       332  18 -2.201989E+06 -8.104146E+05 -4.014203E+05 -9.090518E+05 -1.958650E-09  5.674140E-11
       332  19 -1.270617E+06 -1.694483E+05  1.844744E+04 -6.195937E+05 -6.050408E+04  9.116514E+03
       332  20 -1.232841E+06 -1.137091E+05 -1.145591E+04 -5.110881E+05 -9.589181E+04 -6.674575E+03
       332  21 -1.232754E+06 -1.960123E+05 -1.023599E+05 -3.863818E+05 -1.254707E+05 -3.795627E+04
       332  22 -1.689763E+06 -3.079775E+05 -6.154926E+04 -7.210382E+05 -5.164320E+04  1.244148E+04
       332  23 -1.682310E+06 -3.341309E+05 -1.164055E+05 -6.925351E+05 -1.116519E+05 -1.257750E+04
       332  24 -1.717495E+06 -5.033030E+05 -2.518433E+05 -6.478309E+05 -1.658436E+05 -5.308045E+04
       332  25 -2.108729E+06 -4.464996E+05 -1.415537E+05 -8.224229E+05 -4.278869E+04  1.576457E+04
       332  26 -2.131554E+06 -5.544802E+05 -2.213637E+05 -8.738416E+05 -1.273994E+05 -1.847216E+04
       332  27 -2.201942E+06 -8.103982E+05 -4.013313E+05 -9.090404E+05 -2.061806E+05 -6.817056E+04
       333   1  4.277739E+05  7.670754E+04  1.286612E+05  5.619335E+04  1.659909E+05  6.622140E+03
       333   2  4.473075E+05 -1.382510E+05  2.410045E+03  1.207021E+04  1.129317E+05  1.967782E+04
       333   3  5.320655E+05 -1.208324E+05 -3.116362E+04 -5.986703E+04  5.988083E+04  1.904307E+04
       333   4  9.752230E+05  2.126163E+05  2.624595E+05 -2.859968E+04  1.800125E+05  6.615146E+03
       333   5  9.418685E+05 -1.654089E+04  1.170735E+05 -1.457730E+04  1.173645E+05  1.967604E+04
       333   6  9.753346E+05 -1.177169E+04  7.095953E+04 -2.836583E+04  5.473023E+04  1.904142E+04
       333   7  1.522961E+06  3.485302E+05  3.962406E+05 -1.134676E+05  1.940464E+05  6.604337E+03
       333   8  1.436657E+06  1.051547E+05  2.317210E+05 -4.124623E+04  1.218007E+05  1.967389E+04
       333   9  1.418787E+06  9.727897E+04  1.730703E+05  3.157981E+03  4.957597E+04  1.903926E+04
       333  10  4.277443E+05  7.670010E+04  1.286093E+05  5.619246E+04  2.252004E-09 -1.453351E-09
       333  11  4.472937E+05 -1.382549E+05  2.385370E+03  1.206842E+04 -2.050472E-12 -3.419589E-10
       333  12  5.320616E+05 -1.208337E+05 -3.117104E+04 -5.986795E+04 -2.892085E-09 -9.082503E-10
       333  13  9.751883E+05  2.126076E+05  2.623986E+05 -2.860064E+04  3.418469E-10  5.462803E-10
       333  14  9.418536E+05 -1.654500E+04  1.170469E+05 -1.457916E+04 -2.111332E-10 -5.782854E-10
       333  15  9.753313E+05 -1.177289E+04  7.095323E+04 -2.836667E+04 -9.263876E-10 -9.832637E-10
       333  16  1.522921E+06  3.485201E+05  3.961700E+05 -1.134687E+05 -9.434568E-10  5.277959E-10
       333  17  1.436641E+06  1.051504E+05  2.316925E+05 -4.124816E+04  1.233791E-09 -3.743132E-10
       333  18  1.418785E+06  9.727793E+04  1.730650E+05  3.157222E+03  2.596266E-09  1.424981E-09
       333  19  4.277739E+05  7.670754E+04  1.286612E+05  5.619335E+04 -1.659909E+05 -6.622140E+03
       333  20  4.473075E+05 -1.382510E+05  2.410045E+03  1.207021E+04 -1.129317E+05 -1.967782E+04
       333  21  5.320655E+05 -1.208324E+05 -3.116362E+04 -5.986703E+04 -5.988083E+04 -1.904307E+04
       333  22  9.752230E+05  2.126163E+05  2.624595E+05 -2.859968E+04 -1.800125E+05 -6.615146E+03
       333  23  9.418685E+05 -1.654089E+04  1.170735E+05 -1.457730E+04 -1.173645E+05 -1.967604E+04
       333  24  9.753346E+05 -1.177169E+04  7.095953E+04 -2.836583E+04 -5.473023E+04 -1.904142E+04
       333  25  1.522961E+06  3.485302E+05  3.962406E+05 -1.134676E+05 -1.940464E+05 -6.604337E+03
       333  26  1.436657E+06  1.051547E+05  2.317210E+05 -4.124623E+04 -1.218007E+05 -1.967389E+04
       333  27  1.418787E+06  9.727897E+04  1.730703E+05  3.157981E+03 -4.957597E+04 -1.903926E+04
       334   1  5.692570E+05 -8.016383E+04 -3.366564E+04 -2.301180E+04  4.508513E+04  1.593561E+04
       334   2  6.168007E+05 -8.561472E+04 -4.880636E+04 -1.334508E+04  3.031086E+04  1.425761E+04
       334   3  6.709964E+05 -7.257859E+04 -4.968845E+04 -3.120997E+04  1.553479E+04  1.189464E+04
       334   4  9.619699E+05  1.648173E+04  5.721824E+04 -2.837439E+04  4.417993E+04  1.593396E+04
       334   5  9.586169E+05 -1.526585E+03  3.011853E+04 -1.460457E+04  2.891962E+04  1.425633E+04
       334   6  9.619928E+05 -9.698210E+02  1.760778E+04 -2.836506E+04  1.365870E+04  1.189373E+04
       334   7  1.354825E+06  1.131166E+05  1.480918E+05 -3.374041E+04  4.327415E+04  1.593232E+04
       334   8  1.300541E+06  8.255338E+04  1.090357E+05 -1.586476E+04  2.752762E+04  1.425506E+04
       334   9  1.253067E+06  7.063304E+04  8.489838E+04 -2.551881E+04  1.178173E+04  1.189280E+04
       334  10  5.692548E+05 -8.016465E+04 -3.366993E+04 -2.301238E+04  3.369952E-10 -6.091519E-10
       334  11  6.167997E+05 -8.561519E+04 -4.880847E+04 -1.334543E+04 -1.264715E-09 -1.242871E-10
       334  12  6.709961E+05 -7.257881E+04 -4.968917E+04 -3.121012E+04 -4.676577E-10  2.037577E-10
       334  13  9.619678E+05  1.648093E+04  5.721410E+04 -2.837496E+04 -1.694412E-10  9.485830E-10
       334  14  9.586160E+05 -1.527028E+03  3.011658E+04 -1.460490E+04  3.959291E-10  2.271846E-10
       334  15  9.619926E+05 -9.700229E+02  1.760717E+04 -2.836519E+04 -7.981311E-10 -2.454545E-10
       334  16  1.354823E+06  1.131158E+05  1.480878E+05 -3.374096E+04 -1.026957E-09  6.469317E-10
       334  17  1.300540E+06  8.255296E+04  1.090339E+05 -1.586508E+04 -4.051656E-10 -3.352830E-10
       334  18  1.253067E+06  7.063285E+04  8.489785E+04 -2.551892E+04  5.381832E-10  6.344192E-11
       334  19  5.692570E+05 -8.016383E+04 -3.366564E+04 -2.301180E+04 -4.508513E+04 -1.593561E+04
       334  20  6.168007E+05 -8.561472E+04 -4.880636E+04 -1.334508E+04 -3.031086E+04 -1.425761E+04
       334  21  6.709964E+05 -7.257859E+04 -4.968845E+04 -3.120997E+04 -1.553479E+04 -1.189464E+04
       334  22  9.619699E+05  1.648173E+04  5.721824E+04 -2.837439E+04 -4.417993E+04 -1.593396E+04
       334  23  9.586169E+05 -1.526585E+03  3.011853E+04 -1.460457E+04 -2.891962E+04 -1.425633E+04
       334  24  9.619928E+05 -9.698210E+02  1.760778E+04 -2.836506E+04 -1.365870E+04 -1.189373E+04
       334  25  1.354825E+06  1.131166E+05  1.480918E+05 -3.374041E+04 -4.327415E+04 -1.593232E+04
       334  26  1.300541E+06  8.255338E+04  1.090357E+05 -1.586476E+04 -2.752762E+04 -1.425506E+04
       334  27  1.253067E+06  7.063304E+04  8.489838E+04 -2.551881E+04 -1.178173E+04 -1.189280E+04
       335   1  7.193411E+05 -5.814703E+04 -4.195690E+04 -2.820621E+04  1.256261E+04  1.038819E+04
       335   2  7.691103E+05 -4.719332E+04 -3.648675E+04 -1.480072E+04  8.783369E+03  7.995413E+03
       335   3  8.197745E+05 -3.477954E+04 -2.818537E+04 -2.859106E+04  5.003163E+03  5.574794E+03
       335   4  9.607021E+05  1.196210E+03  1.362140E+04 -2.829344E+04  1.090879E+04  1.038749E+04
       335   5  9.602577E+05 -1.764577E+02  7.632088E+03 -1.469568E+04  7.108738E+03  7.994945E+03
       335   6  9.607097E+05 -8.554718E+01  4.487772E+03 -2.829322E+04  3.308024E+03  5.574566E+03
       335   7  1.202117E+06  6.053539E+04  6.919586E+04 -2.838072E+04  9.254326E+03  1.038679E+04
       335   8  1.151439E+06  4.683785E+04  5.174851E+04 -1.459061E+04  5.433596E+03  7.994476E+03
       335   9  1.101663E+06  3.460706E+04  3.715959E+04 -2.799531E+04  1.612503E+03  5.574336E+03
       335  10  7.193409E+05 -5.814719E+04 -4.195740E+04 -2.820631E+04  1.192228E-09  1.866705E-10
       335  11  7.691102E+05 -4.719341E+04 -3.648702E+04 -1.480078E+04 -6.572237E-10 -4.569294E-10
       335  12  8.197745E+05 -3.477958E+04 -2.818547E+04 -2.859108E+04  5.859298E-11 -4.364939E-10
       335  13  9.607019E+05  1.196063E+03  1.362098E+04 -2.829353E+04 -8.178793E-10  2.345126E-10
       335  14  9.602576E+05 -1.765399E+02  7.631873E+03 -1.469573E+04  1.406309E-09  5.892731E-11
       335  15  9.607097E+05 -8.558349E+01  4.487693E+03 -2.829323E+04  2.136797E-10 -3.933177E-10
       335  16  1.202117E+06  6.053525E+04  6.919550E+04 -2.838079E+04 -1.085095E-09  3.520491E-10
       335  17  1.151439E+06  4.683777E+04  5.174833E+04 -1.459065E+04 -9.612727E-10 -7.315888E-11
       335  18  1.101663E+06  3.460702E+04  3.715953E+04 -2.799531E+04 -7.483711E-11  2.108489E-10
       335  19  7.193411E+05 -5.814703E+04 -4.195690E+04 -2.820621E+04 -1.256261E+04 -1.038819E+04
       335  20  7.691103E+05 -4.719332E+04 -3.648675E+04 -1.480072E+04 -8.783369E+03 -7.995413E+03
       335  21  8.197745E+05 -3.477954E+04 -2.818537E+04 -2.859106E+04 -5.003163E+03 -5.574794E+03
       335  22  9.607021E+05  1.196210E+03  1.362140E+04 -2.829344E+04 -1.090879E+04 -1.038749E+04
       335  23  9.602577E+05 -1.764577E+02  7.632088E+03 -1.469568E+04 -7.108738E+03 -7.994945E+03
       335  24  9.607097E+05 -8.554718E+01  4.487772E+03 -2.829322E+04 -3.308024E+03 -5.574566E+03
       335  25  1.202117E+06  6.053539E+04  6.919586E+04 -2.838072E+04 -9.254326E+03 -1.038679E+04
       335  26  1.151439E+06  4.683785E+04  5.174851E+04 -1.459061E+04 -5.433596E+03 -7.994476E+03
       335  27  1.101663E+06  3.460706E+04  3.715959E+04 -2.799531E+04 -1.612503E+03 -5.574336E+03
       336   1  8.688001E+05 -2.247068E+04 -1.754143E+04 -2.832653E+04  4.271746E+03  4.162909E+03
       336   2  9.186494E+05 -1.031324E+04 -7.482036E+03 -1.478291E+04  3.198513E+03  1.749280E+03
       336   3  9.686770E+05  1.958758E+03  3.305393E+03 -2.828575E+04  2.125017E+03 -6.644108E+02
       336   4  9.605523E+05  6.685062E+01  3.487062E+03 -2.826020E+04  2.590338E+03  4.162773E+03
       336   5  9.604655E+05 -2.865034E+01  2.168466E+03 -1.473703E+04  1.516845E+03  1.749191E+03
       336   6  9.605539E+05 -9.615232E+00  1.577877E+03 -2.826021E+04  4.431732E+02 -6.644434E+02
       336   7  1.052312E+06  2.260380E+04  2.451502E+04 -2.819386E+04  9.086841E+02  4.162637E+03
       336   8  1.002283E+06  1.025582E+04  1.181886E+04 -1.469115E+04 -1.649356E+02  1.749102E+03
       336   9  9.524308E+05 -1.977991E+03 -1.496314E+02 -2.823467E+04 -1.238649E+03 -6.644761E+02
       336  10  8.688001E+05 -2.247070E+04 -1.754150E+04 -2.832654E+04  4.889784E-10 -3.925495E-10
       336  11  9.186494E+05 -1.031324E+04 -7.482061E+03 -1.478292E+04 -9.653694E-10  1.502102E-10
       336  12  9.686770E+05  1.958756E+03  3.305384E+03 -2.828574E+04 -1.207795E-09  1.049277E-09
       336  13  9.605523E+05  6.683021E+01  3.487017E+03 -2.826021E+04 -6.734504E-11 -9.035181E-11
       336  14  9.604655E+05 -2.865425E+01  2.168456E+03 -1.473703E+04 -6.878683E-10 -1.360523E-10
       336  15  9.605539E+05 -9.615758E+00  1.577876E+03 -2.826021E+04  1.057422E-09  1.044660E-09
       336  16  1.052312E+06  2.260378E+04  2.451498E+04 -2.819386E+04 -5.868100E-10  1.943079E-10
       336  17  1.002283E+06  1.025581E+04  1.181886E+04 -1.469115E+04  7.175822E-10 -3.931755E-10
       336  18  9.524308E+05 -1.977992E+03 -1.496352E+02 -2.823467E+04  1.183320E-09  1.084975E-09
       336  19  8.688001E+05 -2.247068E+04 -1.754143E+04 -2.832653E+04 -4.271746E+03 -4.162909E+03
       336  20  9.186494E+05 -1.031324E+04 -7.482036E+03 -1.478291E+04 -3.198513E+03 -1.749280E+03
       336  21  9.686770E+05  1.958758E+03  3.305393E+03 -2.828575E+04 -2.125017E+03  6.644108E+02
       336  22  9.605523E+05  6.685062E+01  3.487062E+03 -2.826020E+04 -2.590338E+03 -4.162773E+03
       336  23  9.604655E+05 -2.865034E+01  2.168466E+03 -1.473703E+04 -1.516845E+03 -1.749191E+03
       336  24  9.605539E+05 -9.615232E+00  1.577877E+03 -2.826021E+04 -4.431732E+02  6.644434E+02
       336  25  1.052312E+06  2.260380E+04  2.451502E+04 -2.819386E+04 -9.086841E+02 -4.162637E+03
       336  26  1.002283E+06  1.025582E+04  1.181886E+04 -1.469115E+04  1.649356E+02 -1.749102E+03
       336  27  9.524308E+05 -1.977991E+03 -1.496314E+02 -2.823467E+04  1.238649E+03  6.644761E+02
       337   1  1.017757E+06  1.409336E+04  1.482295E+04 -2.826852E+04  1.849490E+03 -2.069347E+03
       337   2  1.067710E+06  2.634796E+04  2.634542E+04 -1.470048E+04  1.059438E+03 -4.485323E+03
       337   3  1.117802E+06  3.867214E+04  3.840181E+04 -2.822107E+04  2.697448E+02 -6.903753E+03
       337   4  9.605443E+05 -6.455147E+00  1.473301E+03 -2.826967E+04  1.667141E+02 -2.069406E+03
       337   5  9.604750E+05 -2.400093E+01  1.599442E+03 -1.472521E+04 -6.250036E+02 -4.485520E+03
       337   6  9.605413E+05  2.850979E+01  2.260854E+03 -2.826967E+04 -1.416300E+03 -6.904078E+03
       337   7  9.033348E+05 -1.410650E+04 -1.187656E+04 -2.827082E+04 -1.515907E+03 -2.069465E+03
       337   8  8.532502E+05 -2.639676E+04 -2.314729E+04 -1.474994E+04 -2.309156E+03 -4.485716E+03
       337   9  8.033039E+05 -3.861685E+04 -3.388173E+04 -2.831825E+04 -3.101921E+03 -6.904402E+03
       337  10  1.017757E+06  1.409335E+04  1.482294E+04 -2.826851E+04  1.521004E-09  1.222602E-09
       337  11  1.067710E+06  2.634794E+04  2.634538E+04 -1.470048E+04 -5.955504E-09  4.097603E-10
       337  12  1.117802E+06  3.867209E+04  3.840172E+04 -2.822107E+04 -1.080028E-08 -2.060457E-09
       337  13  9.605443E+05 -6.459755E+00  1.473293E+03 -2.826967E+04  6.601185E-10  1.568262E-09
       337  14  9.604750E+05 -2.402265E+01  1.599404E+03 -1.472521E+04  4.586202E-10  5.501521E-10
       337  15  9.605413E+05  2.845805E+01  2.260760E+03 -2.826968E+04 -1.724551E-09 -1.849187E-09
       337  16  9.033348E+05 -1.410650E+04 -1.187658E+04 -2.827083E+04 -2.280370E-09  1.465601E-09
       337  17  8.532502E+05 -2.639679E+04 -2.314733E+04 -1.474994E+04  6.337558E-09  4.232649E-10
       337  18  8.033039E+05 -3.861690E+04 -3.388183E+04 -2.831827E+04  9.884070E-09 -1.575746E-09
       337  19  1.017757E+06  1.409336E+04  1.482295E+04 -2.826852E+04 -1.849490E+03  2.069347E+03
       337  20  1.067710E+06  2.634796E+04  2.634542E+04 -1.470048E+04 -1.059438E+03  4.485323E+03
       337  21  1.117802E+06  3.867214E+04  3.840181E+04 -2.822107E+04 -2.697448E+02  6.903753E+03
       337  22  9.605443E+05 -6.455147E+00  1.473301E+03 -2.826967E+04 -1.667141E+02  2.069406E+03
       337  23  9.604750E+05 -2.400093E+01  1.599442E+03 -1.472521E+04  6.250036E+02  4.485520E+03
       337  24  9.605413E+05  2.850979E+01  2.260854E+03 -2.826967E+04  1.416300E+03  6.904078E+03
       337  25  9.033348E+05 -1.410650E+04 -1.187656E+04 -2.827082E+04  1.515907E+03  2.069465E+03
       337  26  8.532502E+05 -2.639676E+04 -2.314729E+04 -1.474994E+04  2.309156E+03  4.485716E+03
       337  27  8.033039E+05 -3.861685E+04 -3.388173E+04 -2.831825E+04  3.101921E+03  6.904402E+03
       338   1  1.167248E+06  5.077509E+04  5.064080E+04 -2.812815E+04 -1.707714E+02 -8.320366E+03
       338   2  1.217422E+06  6.309628E+04  6.396301E+04 -1.455522E+04 -2.503695E+03 -1.074987E+04
       338   3  1.268180E+06  7.628854E+04  7.903228E+04 -2.831009E+04 -4.835774E+03 -1.314993E+04
       338   4  9.606354E+05 -6.238042E+01  2.819581E+03 -2.832283E+04 -1.873668E+03 -8.320840E+03
       338   5  9.603417E+05 -1.209792E+02  4.642515E+03 -1.465870E+04 -4.185253E+03 -1.075067E+04
       338   6  9.606272E+05  6.884414E+02  8.198612E+03 -2.832306E+04 -6.495807E+03 -1.315103E+04
       338   7  7.540624E+05 -5.090285E+04 -4.500448E+04 -2.851745E+04 -3.576002E+03 -8.321313E+03
       338   8  7.033226E+05 -6.334286E+04 -5.468236E+04 -1.476214E+04 -5.866120E+03 -1.075146E+04
       338   9  6.531617E+05 -7.491827E+04 -6.264131E+04 -2.833603E+04 -8.155026E+03 -1.315213E+04
       338  10  1.167248E+06  5.077502E+04  5.064067E+04 -2.812815E+04  8.777035E-09 -1.832779E-09
       338  11  1.217422E+06  6.309616E+04  6.396278E+04 -1.455524E+04  2.755195E-09 -2.153220E-10
       338  12  1.268180E+06  7.628835E+04  7.903191E+04 -2.831014E+04 -1.970561E-09  1.253302E-09
       338  13  9.606354E+05 -6.245574E+01  2.819444E+03 -2.832284E+04 -1.651685E-09 -1.593510E-09
       338  14  9.603417E+05 -1.211081E+02  4.642265E+03 -1.465873E+04 -1.317936E-09  1.623302E-10
       338  15  9.606271E+05  6.882442E+02  8.198208E+03 -2.832313E+04  7.977010E-10  1.043197E-09
       338  16  7.540624E+05 -5.090293E+04 -4.500463E+04 -2.851747E+04 -1.064709E-08 -1.970054E-09
       338  17  7.033226E+05 -6.334300E+04 -5.468264E+04 -1.476219E+04 -5.864535E-09 -2.575180E-11
       338  18  6.531616E+05 -7.491847E+04 -6.264176E+04 -2.833611E+04  1.972779E-09  1.438721E-09
       338  19  1.167248E+06  5.077509E+04  5.064080E+04 -2.812815E+04  1.707714E+02  8.320366E+03
       338  20  1.217422E+06  6.309628E+04  6.396301E+04 -1.455522E+04  2.503695E+03  1.074987E+04
       338  21  1.268180E+06  7.628854E+04  7.903228E+04 -2.831009E+04  4.835774E+03  1.314993E+04
       338  22  9.606354E+05 -6.238042E+01  2.819581E+03 -2.832283E+04  1.873668E+03  8.320840E+03
       338  23  9.603417E+05 -1.209792E+02  4.642515E+03 -1.465870E+04  4.185253E+03  1.075067E+04
       338  24  9.606272E+05  6.884414E+02  8.198612E+03 -2.832306E+04  6.495807E+03  1.315103E+04
       338  25  7.540624E+05 -5.090285E+04 -4.500448E+04 -2.851745E+04  3.576002E+03  8.321313E+03
       338  26  7.033226E+05 -6.334286E+04 -5.468236E+04 -1.476214E+04  5.866120E+03  1.075146E+04
       338  27  6.531617E+05 -7.491827E+04 -6.264131E+04 -2.833603E+04  8.155026E+03  1.315213E+04
       339   1  1.318936E+06  8.733247E+04  9.319686E+04 -2.662232E+04 -6.238425E+03 -1.467473E+04
       339   2  1.368117E+06  9.956964E+04  1.123876E+05 -1.516825E+04 -1.592241E+04 -1.704144E+04
       339   3  1.421503E+06  1.229987E+05  1.407024E+05 -3.144973E+04 -2.560650E+04 -1.864035E+04
       339   4  9.614045E+05 -6.078664E+02  1.057718E+04 -2.841138E+04 -8.149207E+03 -1.467620E+04
       339   5  9.593393E+05 -9.458568E+02  1.804585E+04 -1.454696E+04 -1.729256E+04 -1.704314E+04
       339   6  9.613852E+05  9.818615E+03  3.426795E+04 -2.841900E+04 -2.643522E+04 -1.864213E+04
       339   7  6.039913E+05 -8.855715E+04 -7.205101E+04 -3.019943E+04 -1.005890E+04 -1.467766E+04
       339   8  5.507158E+05 -1.014730E+05 -7.630704E+04 -1.392611E+04 -1.866181E+04 -1.704485E+04
       339   9  5.014626E+05 -1.033762E+05 -7.218064E+04 -2.539056E+04 -2.726332E+04 -1.864391E+04
       339  10  1.318936E+06  8.733223E+04  9.319639E+04 -2.662239E+04  1.739783E-09  3.776809E-10
       339  11  1.368117E+06  9.956926E+04  1.123866E+05 -1.516847E+04  9.706432E-10 -1.448527E-09
       339  12  1.421502E+06  1.229981E+05  1.407005E+05 -3.145012E+04 -3.151351E-10 -6.735104E-10
       339  13  9.614044E+05 -6.081156E+02  1.057665E+04 -2.841148E+04 -5.052676E-10  3.290504E-10
       339  14  9.593389E+05 -9.462490E+02  1.804474E+04 -1.454720E+04  1.276796E-09 -1.063874E-09
       339  15  9.613844E+05  9.818055E+03  3.426598E+04 -2.841940E+04 -5.521226E-10 -5.912962E-10
       339  16  6.039912E+05 -8.855740E+04 -7.205160E+04 -3.019954E+04 -1.303096E-09  7.356048E-10
       339  17  5.507154E+05 -1.014734E+05 -7.630824E+04 -1.392637E+04  5.092239E-10  7.559185E-10
       339  18  5.014617E+05 -1.033768E+05 -7.218269E+04 -2.539097E+04  3.999254E-10 -5.964787E-10
       339  19  1.318936E+06  8.733247E+04  9.319686E+04 -2.662232E+04  6.238425E+03  1.467473E+04
       339  20  1.368117E+06  9.956964E+04  1.123876E+05 -1.516825E+04  1.592241E+04  1.704144E+04
       339  21  1.421503E+06  1.229987E+05  1.407024E+05 -3.144973E+04  2.560650E+04  1.864035E+04
       339  22  9.614045E+05 -6.078664E+02  1.057718E+04 -2.841138E+04  8.149207E+03  1.467620E+04
       339  23  9.593393E+05 -9.458568E+02  1.804585E+04 -1.454696E+04  1.729256E+04  1.704314E+04
       339  24  9.613852E+05  9.818615E+03  3.426795E+04 -2.841900E+04  2.643522E+04  1.864213E+04
       339  25  6.039913E+05 -8.855715E+04 -7.205101E+04 -3.019943E+04  1.005890E+04  1.467766E+04
       339  26  5.507158E+05 -1.014730E+05 -7.630704E+04 -1.392611E+04  1.866181E+04  1.704485E+04
       339  27  5.014626E+05 -1.033762E+05 -7.218064E+04 -2.539056E+04  2.726332E+04  1.864391E+04
       340   1  1.480626E+06  1.185884E+05  1.601946E+05 -9.321306E+03 -2.715764E+04 -2.195504E+04
       340   2  1.512297E+06  1.285300E+05  2.005278E+05 -3.018070E+04 -7.539464E+04 -2.237325E+04
       340   3  1.585951E+06  2.803378E+05  3.077349E+05 -7.903900E+04 -1.236584E+05 -7.429697E+03
       340   4  9.693954E+05 -7.101005E+03  4.249434E+04 -2.842266E+04 -3.275237E+04 -2.196080E+04
       340   5  9.492797E+05 -9.961078E+03  7.008071E+04 -1.451286E+04 -7.025034E+04 -2.237038E+04
       340   6  9.693193E+05  1.272486E+05  1.571317E+05 -2.859922E+04 -1.077701E+05 -7.417400E+03
       340   7  4.584071E+05 -1.328073E+05 -7.522296E+04 -4.750824E+04 -3.834253E+04 -2.196622E+04
       340   8  3.865553E+05 -1.484734E+05 -6.038738E+04  1.140611E+03 -6.511064E+04 -2.236725E+04
       340   9  3.530398E+05 -2.585889E+04  6.503205E+03  2.179035E+04 -9.189743E+04 -7.402524E+03
       340  10  1.480625E+06  1.185877E+05  1.601923E+05 -9.321786E+03  9.637305E-10 -1.568068E-09
       340  11  1.512291E+06  1.285279E+05  2.005162E+05 -3.018206E+04 -2.141174E-09 -4.285791E-09
       340  12  1.585934E+06  2.803337E+05  3.077061E+05 -7.903974E+04 -7.876232E-10 -1.168659E-09
       340  13  9.693941E+05 -7.101811E+03  4.249142E+04 -2.842323E+04 -4.817265E-10 -4.554604E-09
       340  14  9.492743E+05 -9.962938E+03  7.007051E+04 -1.451413E+04  1.344836E-09  2.405796E-09
       340  15  9.693069E+05  1.272454E+05  1.571098E+05 -2.859986E+04 -1.041897E-09 -4.206159E-10
       340  16  4.584054E+05 -1.328082E+05 -7.522663E+04 -4.750892E+04 -1.108296E-09 -9.881924E-10
       340  17  3.865506E+05 -1.484751E+05 -6.039629E+04  1.139438E+03  1.114208E-09  1.921074E-09
       340  18  3.530307E+05 -2.586121E+04  6.487241E+03  2.178981E+04  1.175499E-09 -1.443431E-09
       340  19  1.480626E+06  1.185884E+05  1.601946E+05 -9.321306E+03  2.715764E+04  2.195504E+04
       340  20  1.512297E+06  1.285300E+05  2.005278E+05 -3.018070E+04  7.539464E+04  2.237325E+04
       340  21  1.585951E+06  2.803378E+05  3.077349E+05 -7.903900E+04  1.236584E+05  7.429697E+03
       340  22  9.693954E+05 -7.101005E+03  4.249434E+04 -2.842266E+04  3.275237E+04  2.196080E+04
       340  23  9.492797E+05 -9.961078E+03  7.008071E+04 -1.451286E+04  7.025034E+04  2.237038E+04
       340  24  9.693193E+05  1.272486E+05  1.571317E+05 -2.859922E+04  1.077701E+05  7.417400E+03
       340  25  4.584071E+05 -1.328073E+05 -7.522296E+04 -4.750824E+04  3.834253E+04  2.196622E+04
       340  26  3.865553E+05 -1.484734E+05 -6.038738E+04  1.140611E+03  6.511064E+04  2.236725E+04
       340  27  3.530398E+05 -2.585889E+04  6.503205E+03  2.179035E+04  9.189743E+04  7.402524E+03
       341   1  9.652252E+05  3.766600E+06  9.736634E+05 -5.726593E+05  3.569237E+04  1.528382E+05
       341   2  6.220247E+05  2.812236E+06  6.497739E+05 -2.958448E+05  9.898464E+04  5.674982E+04
       341   3  4.008283E+05  1.901955E+06  4.187056E+05 -5.193305E+05  6.804409E+04 -3.946577E+04
       341   4  9.646413E+04  2.709495E+05  1.181849E+05 -5.274225E+05  3.591364E+04  7.559767E+04
       341   5 -7.126854E+03  2.555322E+05  5.669917E+04 -2.773631E+05  9.905261E+04  4.557872E+04
       341   6  1.902175E+02  2.721867E+05  4.256297E+04 -5.276915E+05  6.779439E+04  1.528642E+04
       341   7 -7.731902E+05 -3.213597E+06 -7.381641E+05 -4.824283E+05  3.612450E+04 -1.211790E+03
       341   8 -6.367372E+05 -2.295154E+06 -5.368139E+05 -2.589513E+05  9.912009E+04  3.445285E+04
       341   9 -4.006318E+05 -1.355125E+06 -3.337451E+05 -5.360265E+05  6.754284E+04  6.989626E+04
       341  10  9.652176E+05  3.766574E+06  9.736173E+05 -5.726637E+05  2.130621E-10 -1.210596E-09
       341  11  6.220133E+05  2.812230E+06  6.497494E+05 -2.958494E+05 -9.993369E-10 -2.242951E-09
       341  12  4.008229E+05  1.901953E+06  4.186939E+05 -5.193284E+05  1.170703E-09 -4.456675E-09
       341  13  9.646121E+04  2.709430E+05  1.181717E+05 -5.274247E+05  3.680958E-10 -5.006515E-11
       341  14 -7.137951E+03  2.555273E+05  5.667682E+04 -2.773667E+05 -1.967456E-09 -3.175398E-09
       341  15  1.852176E+02  2.721852E+05  4.255389E+04 -5.276923E+05 -9.081195E-10 -6.931941E-09
       341  16 -7.731916E+05 -3.213598E+06 -7.381666E+05 -4.824283E+05  5.152755E-10  1.220336E-09
       341  17 -6.367481E+05 -2.295158E+06 -5.368346E+05 -2.589540E+05  2.461742E-09 -3.899326E-09
       341  18 -4.006380E+05 -1.355131E+06 -3.337629E+05 -5.360303E+05 -2.656988E-09  4.914014E-09
       341  19  9.652252E+05  3.766600E+06  9.736634E+05 -5.726593E+05 -3.569237E+04 -1.528382E+05
       341  20  6.220247E+05  2.812236E+06  6.497739E+05 -2.958448E+05 -9.898464E+04 -5.674982E+04
       341  21  4.008283E+05  1.901955E+06  4.187056E+05 -5.193305E+05 -6.804409E+04  3.946577E+04
       341  22  9.646413E+04  2.709495E+05  1.181849E+05 -5.274225E+05 -3.591364E+04 -7.559767E+04
       341  23 -7.126854E+03  2.555322E+05  5.669917E+04 -2.773631E+05 -9.905261E+04 -4.557872E+04
       341  24  1.902175E+02  2.721867E+05  4.256297E+04 -5.276915E+05 -6.779439E+04 -1.528642E+04
       341  25 -7.731902E+05 -3.213597E+06 -7.381641E+05 -4.824283E+05 -3.612450E+04  1.211790E+03
       341  26 -6.367372E+05 -2.295154E+06 -5.368139E+05 -2.589513E+05 -9.912009E+04 -3.445285E+04
       341  27 -4.006318E+05 -1.355125E+06 -3.337451E+05 -5.360265E+05 -6.754284E+04 -6.989626E+04
       342   1  1.866854E+05  9.794534E+05  2.044012E+05 -5.353419E+05  2.974725E+04 -1.901925E+04
       342   2 -5.262398E+04  4.781769E+04 -1.170361E+04 -2.754113E+05 -8.837715E+03 -3.821346E+04
       342   3 -2.646858E+05 -8.787874E+05 -2.097695E+05 -5.185404E+05 -4.688651E+04 -5.736338E+04
       342   4  1.120380E+04  2.665419E+05  3.972873E+04 -5.281948E+05  2.961115E+04  8.102040E+03
       342   5  6.916802E+02  2.643456E+05  3.833051E+04 -2.766611E+05 -8.965859E+03 -1.148109E+04
       342   6  1.754579E+04  2.664366E+05  5.528092E+04 -5.281649E+05 -4.700926E+04 -3.104780E+04
       342   7 -1.643129E+05 -4.458987E+05 -1.249748E+05 -5.210552E+05  2.947560E+04  3.519246E+04
       342   8  5.400443E+04  4.809184E+05  8.836418E+04 -2.779112E+05 -9.094086E+03  1.526053E+04
       342   9  2.996858E+05  1.412875E+06  3.202463E+05 -5.378053E+05 -4.713269E+04 -4.683948E+03
       342  10  1.866844E+05  9.794528E+05  2.043988E+05 -5.353415E+05 -1.780469E-10 -2.056816E-09
       342  11 -5.262445E+04  4.781610E+04 -1.170650E+04 -2.754116E+05  1.805298E-09 -2.835740E-09
       342  12 -2.646890E+05 -8.787915E+05 -2.097798E+05 -5.185426E+05 -1.157025E-09 -5.760898E-09
       342  13  1.120284E+04  2.665416E+05  3.972696E+04 -5.281950E+05 -6.501551E-10  1.004152E-11
       342  14  6.915585E+02  2.643454E+05  3.833011E+04 -2.766612E+05  4.455191E-09 -4.717555E-09
       342  15  1.754316E+04  2.664350E+05  5.527495E+04 -5.281661E+05  3.443504E-09 -7.156283E-09
       342  16 -1.643142E+05 -4.459003E+05 -1.249788E+05 -5.210560E+05 -1.335130E-09  2.136275E-09
       342  17  5.400428E+04  4.809181E+05  8.836358E+04 -2.779111E+05 -1.100295E-09 -6.501055E-09
       342  18  2.996834E+05  1.412874E+06  3.202421E+05 -5.378055E+05 -1.900182E-09  6.596446E-09
       342  19  1.866854E+05  9.794534E+05  2.044012E+05 -5.353419E+05 -2.974725E+04  1.901925E+04
       342  20 -5.262398E+04  4.781769E+04 -1.170361E+04 -2.754113E+05  8.837715E+03  3.821346E+04
       342  21 -2.646858E+05 -8.787874E+05 -2.097695E+05 -5.185404E+05  4.688651E+04  5.736338E+04
       342  22  1.120380E+04  2.665419E+05  3.972873E+04 -5.281948E+05 -2.961115E+04 -8.102040E+03
       342  23  6.916802E+02  2.643456E+05  3.833051E+04 -2.766611E+05  8.965859E+03  1.148109E+04
       342  24  1.754579E+04  2.664366E+05  5.528092E+04 -5.281649E+05  4.700926E+04  3.104780E+04
       342  25 -1.643129E+05 -4.458987E+05 -1.249748E+05 -5.210552E+05 -2.947560E+04 -3.519246E+04
       342  26  5.400443E+04  4.809184E+05  8.836418E+04 -2.779112E+05  9.094086E+03 -1.526053E+04
       342  27  2.996858E+05  1.412875E+06  3.202463E+05 -5.378053E+05  4.713269E+04  4.683948E+03
       343   1 -5.126953E+05 -1.782010E+06 -4.109705E+05 -5.470972E+05 -8.613526E+04 -9.848864E+04
       343   2 -7.507362E+05 -2.735325E+06 -5.943262E+05 -2.486185E+05 -1.162830E+05 -7.881615E+04
       343   3 -7.996034E+05 -3.640486E+06 -7.428144E+05 -4.505335E+05 -4.143346E+04 -5.893063E+04
       343   4 -5.297105E+03  2.780345E+05  6.521816E+04 -5.276891E+05 -8.637705E+04 -4.131643E+04
       343   5 -1.427466E+04  2.474400E+05  9.971041E+04 -2.773944E+05 -1.161941E+05 -9.468433E+04
       343   6  1.781653E+05  2.765819E+05  2.196359E+05 -5.272785E+05 -4.124097E+04 -1.478137E+05
       343   7  5.018068E+05  2.342016E+06  5.411364E+05 -5.082101E+05 -8.661480E+04  1.604465E+04
       343   8  7.215606E+05  3.238439E+06  7.931481E+05 -3.063022E+05 -1.161040E+05 -1.106276E+05
       343   9  1.154818E+06  4.207696E+06  1.180990E+06 -6.044987E+05 -4.102727E+04 -2.372567E+05
       343  10 -5.127059E+05 -1.782022E+06 -4.110028E+05 -5.471040E+05  3.509552E-10 -2.421863E-09
       343  11 -7.507524E+05 -2.735335E+06 -5.943634E+05 -2.486259E+05  5.508269E-10 -9.320337E-10
       343  12 -7.996062E+05 -3.640490E+06 -7.428242E+05 -4.505354E+05 -1.203044E-10 -1.806481E-09
       343  13 -5.305580E+03  2.780306E+05  6.520091E+04 -5.276920E+05 -3.164235E-09  7.563041E-11
       343  14 -1.429158E+04  2.474267E+05  9.966817E+04 -2.774033E+05  1.798308E-09 -2.778255E-09
       343  15  1.781576E+05  2.765580E+05  2.195916E+05 -5.272834E+05  1.142889E-11 -1.835491E-09
       343  16  5.017987E+05  2.342014E+06  5.411218E+05 -5.082089E+05  2.174319E-10  2.373720E-09
       343  17  7.215429E+05  3.238422E+06  7.930999E+05 -3.063125E+05  1.820109E-09 -4.874004E-09
       343  18  1.154801E+06  4.207636E+06  1.180882E+06 -6.045066E+05  7.858117E-11  2.018460E-09
       343  19 -5.126953E+05 -1.782010E+06 -4.109705E+05 -5.470972E+05  8.613526E+04  9.848864E+04
       343  20 -7.507362E+05 -2.735325E+06 -5.943262E+05 -2.486185E+05  1.162830E+05  7.881615E+04
       343  21 -7.996034E+05 -3.640486E+06 -7.428144E+05 -4.505335E+05  4.143346E+04  5.893063E+04
       343  22 -5.297105E+03  2.780345E+05  6.521816E+04 -5.276891E+05  8.637705E+04  4.131643E+04
       343  23 -1.427466E+04  2.474400E+05  9.971041E+04 -2.773944E+05  1.161941E+05  9.468433E+04
       343  24  1.781653E+05  2.765819E+05  2.196359E+05 -5.272785E+05  4.124097E+04  1.478137E+05
       343  25  5.018068E+05  2.342016E+06  5.411364E+05 -5.082101E+05  8.661480E+04 -1.604465E+04
       343  26  7.215606E+05  3.238439E+06  7.931481E+05 -3.063022E+05  1.161040E+05  1.106276E+05
       343  27  1.154818E+06  4.207696E+06  1.180990E+06 -6.044987E+05  4.102727E+04  2.372567E+05
       344   1 -1.668977E+06 -6.936439E+05 -3.753751E+05 -6.782533E+05 -1.770123E+05 -5.425816E+04
       344   2 -1.595678E+06 -4.942534E+05 -2.242690E+05 -6.451865E+05 -1.105255E+05 -1.473932E+03
       344   3 -1.556163E+06 -4.086276E+05 -1.567265E+05 -6.042078E+05 -3.659985E+04  3.160377E+04
       344   4 -9.939740E+05 -3.486663E+05 -1.833595E+05 -3.996409E+05 -1.226477E+05 -3.383769E+04
       344   5 -9.701052E+05 -2.238642E+05 -8.477863E+04 -4.302835E+05 -8.750779E+04  7.170803E+03
       344   6 -9.737574E+05 -2.065557E+05 -4.482891E+04 -4.530317E+05 -4.494387E+04  2.846345E+04
       344   7 -3.184876E+05 -3.523566E+03  8.630502E+03 -1.207096E+05 -6.821792E+04 -1.337243E+04
       344   8 -3.441209E+05  4.660419E+04  5.469169E+04 -2.151637E+05 -6.446496E+04  1.582880E+04
       344   9 -3.909990E+05 -4.461576E+03  6.705443E+04 -3.017272E+05 -5.329630E+04  2.532032E+04
       344  10 -1.669011E+06 -6.936555E+05 -3.754397E+05 -6.782610E+05  2.484859E-08  9.245451E-09
       344  11 -1.595691E+06 -4.942567E+05 -2.242920E+05 -6.451866E+05  3.939263E-09  3.192350E-09
       344  12 -1.556165E+06 -4.086291E+05 -1.567309E+05 -6.042069E+05 -2.181051E-08 -8.168618E-09
       344  13 -9.939904E+05 -3.486716E+05 -1.833899E+05 -3.996443E+05  2.205688E-09  2.070643E-09
       344  14 -9.701135E+05 -2.238664E+05 -8.479314E+04 -4.302830E+05  4.213929E-09  2.840452E-09
       344  15 -9.737598E+05 -2.065571E+05 -4.483423E+04 -4.530307E+05  3.054705E-09 -7.891113E-11
       344  16 -3.184926E+05 -3.525009E+03  8.621415E+03 -1.207103E+05 -2.051437E-08 -7.176867E-09
       344  17 -3.441254E+05  4.660281E+04  5.468341E+04 -2.151629E+05  5.870669E-09  7.017149E-10
       344  18 -3.910022E+05 -4.463027E+03  6.704789E+04 -3.017261E+05  2.576449E-08  1.018620E-08
       344  19 -1.668977E+06 -6.936439E+05 -3.753751E+05 -6.782533E+05  1.770123E+05  5.425816E+04
       344  20 -1.595678E+06 -4.942534E+05 -2.242690E+05 -6.451865E+05  1.105255E+05  1.473932E+03
       344  21 -1.556163E+06 -4.086276E+05 -1.567265E+05 -6.042078E+05  3.659985E+04 -3.160377E+04
       344  22 -9.939740E+05 -3.486663E+05 -1.833595E+05 -3.996409E+05  1.226477E+05  3.383769E+04
       344  23 -9.701052E+05 -2.238642E+05 -8.477863E+04 -4.302835E+05  8.750779E+04 -7.170803E+03
       344  24 -9.737574E+05 -2.065557E+05 -4.482891E+04 -4.530317E+05  4.494387E+04 -2.846345E+04
       344  25 -3.184876E+05 -3.523566E+03  8.630502E+03 -1.207096E+05  6.821792E+04  1.337243E+04
       344  26 -3.441209E+05  4.660419E+04  5.469169E+04 -2.151637E+05  6.446496E+04 -1.582880E+04
       344  27 -3.909990E+05 -4.461576E+03  6.705443E+04 -3.017272E+05  5.329630E+04 -2.532032E+04
       345   1 -1.485679E+06 -4.003409E+05 -1.343173E+05 -5.962781E+05 -3.328866E+04  2.912548E+04
       345   2 -1.409082E+06 -3.556877E+05 -1.001576E+05 -5.651346E+05 -2.023933E+04  2.931965E+04
       345   3 -1.321390E+06 -3.306625E+05 -7.591954E+04 -5.496835E+05 -6.600197E+03  2.794380E+04
       345   4 -9.682322E+05 -2.093275E+05 -3.393712E+04 -4.498417E+05 -3.862344E+04  2.711694E+04
       345   5 -9.735685E+05 -1.966350E+05 -1.789751E+04 -4.431623E+05 -2.806682E+04  2.637594E+04
       345   6 -9.673184E+05 -2.030730E+05 -9.795150E+03 -4.521778E+05 -1.692215E+04  2.406487E+04
       345   7 -4.505107E+05 -1.828998E+04  6.643012E+04 -3.032924E+05 -4.396293E+04  2.510657E+04
       345   8 -5.378561E+05 -3.756432E+04  6.435513E+04 -3.211102E+05 -3.590020E+04  2.343000E+04
       345   9 -6.131119E+05 -7.547111E+04  5.632569E+04 -3.546196E+05 -2.725049E+04  2.018358E+04
       345  10 -1.485681E+06 -4.003421E+05 -1.343210E+05 -5.962773E+05  3.988941E-10 -8.511959E-10
       345  11 -1.409083E+06 -3.556887E+05 -1.001600E+05 -5.651341E+05 -1.033875E-09 -1.815743E-09
       345  12 -1.321390E+06 -3.306634E+05 -7.592109E+04 -5.496834E+05 -2.559973E-09 -1.208653E-09
       345  13 -9.682340E+05 -2.093287E+05 -3.394130E+04 -4.498408E+05 -4.383291E-10 -4.543955E-10
       345  14 -9.735696E+05 -1.966359E+05 -1.790030E+04 -4.431617E+05  2.041369E-09 -2.344790E-09
       345  15 -9.673189E+05 -2.030737E+05 -9.796776E+03 -4.521775E+05  6.138056E-10 -1.919125E-11
       345  16 -4.505129E+05 -1.829117E+04  6.642530E+04 -3.032915E+05  5.253879E-10 -1.281714E-09
       345  17 -5.378576E+05 -3.756525E+04  6.435167E+04 -3.211095E+05  8.476911E-10  1.022544E-09
       345  18 -6.131128E+05 -7.547175E+04  5.632353E+04 -3.546192E+05  2.262799E-09  8.638545E-10
       345  19 -1.485679E+06 -4.003409E+05 -1.343173E+05 -5.962781E+05  3.328866E+04 -2.912548E+04
       345  20 -1.409082E+06 -3.556877E+05 -1.001576E+05 -5.651346E+05  2.023933E+04 -2.931965E+04
       345  21 -1.321390E+06 -3.306625E+05 -7.591954E+04 -5.496835E+05  6.600197E+03 -2.794380E+04
       345  22 -9.682322E+05 -2.093275E+05 -3.393712E+04 -4.498417E+05  3.862344E+04 -2.711694E+04
       345  23 -9.735685E+05 -1.966350E+05 -1.789751E+04 -4.431623E+05  2.806682E+04 -2.637594E+04
       345  24 -9.673184E+05 -2.030730E+05 -9.795150E+03 -4.521778E+05  1.692215E+04 -2.406487E+04
       345  25 -4.505107E+05 -1.828998E+04  6.643012E+04 -3.032924E+05  4.396293E+04 -2.510657E+04
       345  26 -5.378561E+05 -3.756432E+04  6.435513E+04 -3.211102E+05  3.590020E+04 -2.343000E+04
       345  27 -6.131119E+05 -7.547111E+04  5.632569E+04 -3.546196E+05  2.725049E+04 -2.018358E+04
       346   1 -1.265539E+06 -3.113118E+05 -6.279550E+04 -5.348063E+05 -4.043774E+03  2.457895E+04
       346   2 -1.189405E+06 -2.737047E+05 -4.406071E+04 -5.034043E+05  5.835265E+02  1.901554E+04
       346   3 -1.099093E+06 -2.509298E+05 -2.704585E+04 -4.886636E+05  5.257739E+03  1.332429E+04
       346   4 -9.668844E+05 -2.032260E+05 -7.365216E+03 -4.519695E+05 -1.413440E+04  2.078785E+04
       346   5 -9.739719E+05 -1.957488E+05 -4.052636E+03 -4.436652E+05 -9.710128E+03  1.514924E+04
       346   6 -9.668476E+05 -2.030634E+05 -2.298501E+03 -4.520244E+05 -5.239286E+03  9.382721E+03
       346   7 -6.681363E+05 -9.513211E+04  4.806206E+04 -3.690956E+05 -2.423021E+04  1.699480E+04
       346   8 -7.584906E+05 -1.177890E+05  3.595381E+04 -3.839071E+05 -2.000756E+04  1.128153E+04
       346   9 -8.345847E+05 -1.551958E+05  2.244828E+04 -4.153781E+05 -1.573861E+04  5.440292E+03
       346  10 -1.265539E+06 -3.113124E+05 -6.279667E+04 -5.348062E+05  3.500753E-09  1.300517E-09
       346  11 -1.189405E+06 -2.737051E+05 -4.406139E+04 -5.034043E+05 -7.396906E-09 -4.441686E-09
       346  12 -1.099093E+06 -2.509300E+05 -2.704624E+04 -4.886637E+05 -2.128003E-08 -9.309898E-09
       346  13 -9.668847E+05 -2.032266E+05 -7.366403E+03 -4.519692E+05  1.267673E-09 -1.625751E-10
       346  14 -9.739720E+05 -1.957491E+05 -4.053244E+03 -4.436651E+05  1.781655E-09 -3.447228E-10
       346  15 -9.668477E+05 -2.030635E+05 -2.298718E+03 -4.520243E+05 -3.363043E-09 -2.876562E-09
       346  16 -6.681370E+05 -9.513257E+04  4.806041E+04 -3.690952E+05 -2.248389E-09 -8.007541E-10
       346  17 -7.584910E+05 -1.177892E+05  3.595282E+04 -3.839069E+05  8.674260E-09  3.453186E-09
       346  18 -8.345850E+05 -1.551959E+05  2.244776E+04 -4.153781E+05  1.446981E-08  3.695822E-09
       346  19 -1.265539E+06 -3.113118E+05 -6.279550E+04 -5.348063E+05  4.043774E+03 -2.457895E+04
       346  20 -1.189405E+06 -2.737047E+05 -4.406071E+04 -5.034043E+05 -5.835265E+02 -1.901554E+04
       346  21 -1.099093E+06 -2.509298E+05 -2.704585E+04 -4.886636E+05 -5.257739E+03 -1.332429E+04
       346  22 -9.668844E+05 -2.032260E+05 -7.365216E+03 -4.519695E+05  1.413440E+04 -2.078785E+04
       346  23 -9.739719E+05 -1.957488E+05 -4.052636E+03 -4.436652E+05  9.710128E+03 -1.514924E+04
       346  24 -9.668476E+05 -2.030634E+05 -2.298501E+03 -4.520244E+05  5.239286E+03 -9.382721E+03
       346  25 -6.681363E+05 -9.513211E+04  4.806206E+04 -3.690956E+05  2.423021E+04 -1.699480E+04
       346  26 -7.584906E+05 -1.177890E+05  3.595381E+04 -3.839071E+05  2.000756E+04 -1.128153E+04
       346  27 -8.345847E+05 -1.551958E+05  2.244828E+04 -4.153781E+05  1.573861E+04 -5.440292E+03
       347   1 -1.044052E+06 -2.309642E+05 -1.588128E+04 -4.734202E+05  7.020596E+03  9.608139E+03
       347   2 -9.680289E+05 -1.935585E+05 -2.967599E+01 -4.419288E+05  1.007596E+04  3.244096E+03
       347   3 -8.775145E+05 -1.707338E+05  1.538604E+04 -4.271065E+05  1.313462E+04 -3.128494E+03
       347   4 -9.667931E+05 -2.030740E+05 -1.779570E+03 -4.520039E+05 -3.460536E+03  5.672843E+03
       347   5 -9.740372E+05 -1.957953E+05 -1.143120E+03 -4.436634E+05 -4.195867E+02 -6.966720E+02
       347   6 -9.667959E+05 -2.030963E+05 -9.319805E+02 -4.519953E+05  2.624567E+03 -7.074745E+03
       347   7 -8.895273E+05 -1.751829E+05  1.232260E+04 -4.305848E+05 -1.394316E+04  1.736992E+03
       347   8 -9.800452E+05 -1.980320E+05 -2.256100E+03 -4.453978E+05 -1.091508E+04 -4.637416E+03
       347   9 -1.056069E+06 -2.354579E+05 -1.724982E+04 -4.768808E+05 -7.883878E+03 -1.102039E+04
       347  10 -1.044052E+06 -2.309643E+05 -1.588154E+04 -4.734202E+05  1.378201E-08  4.229145E-09
       347  11 -9.680290E+05 -1.935585E+05 -2.988694E+01 -4.419289E+05  6.356821E-09  3.072219E-09
       347  12 -8.775147E+05 -1.707339E+05  1.538570E+04 -4.271065E+05 -4.417921E-09 -7.261138E-10
       347  13 -9.667931E+05 -2.030741E+05 -1.779653E+03 -4.520038E+05 -3.720804E-09 -2.760459E-09
       347  14 -9.740372E+05 -1.957953E+05 -1.143121E+03 -4.436634E+05  2.116655E-10 -6.209439E-10
       347  15 -9.667959E+05 -2.030963E+05 -9.320874E+02 -4.519953E+05  5.369174E-10  1.167965E-09
       347  16 -8.895275E+05 -1.751830E+05  1.232223E+04 -4.305848E+05 -2.119500E-08 -9.515300E-09
       347  17 -9.800453E+05 -1.980320E+05 -2.256365E+03 -4.453978E+05 -6.160694E-09 -3.907112E-09
       347  18 -1.056069E+06 -2.354581E+05 -1.725017E+04 -4.768808E+05  4.602792E-09  2.667160E-09
       347  19 -1.044052E+06 -2.309642E+05 -1.588128E+04 -4.734202E+05 -7.020596E+03 -9.608139E+03
       347  20 -9.680289E+05 -1.935585E+05 -2.967599E+01 -4.419288E+05 -1.007596E+04 -3.244096E+03
       347  21 -8.775145E+05 -1.707338E+05  1.538604E+04 -4.271065E+05 -1.313462E+04  3.128494E+03
       347  22 -9.667931E+05 -2.030740E+05 -1.779570E+03 -4.520039E+05  3.460536E+03 -5.672843E+03
       347  23 -9.740372E+05 -1.957953E+05 -1.143120E+03 -4.436634E+05  4.195867E+02  6.966720E+02
       347  24 -9.667959E+05 -2.030963E+05 -9.319805E+02 -4.519953E+05 -2.624567E+03  7.074745E+03
       347  25 -8.895273E+05 -1.751829E+05  1.232260E+04 -4.305848E+05  1.394316E+04 -1.736992E+03
       347  26 -9.800452E+05 -1.980320E+05 -2.256100E+03 -4.453978E+05  1.091508E+04  4.637416E+03
       347  27 -1.056069E+06 -2.354579E+05 -1.724982E+04 -4.768808E+05  7.883878E+03  1.102039E+04
       348   1 -8.225648E+05 -1.507335E+05  2.600424E+04 -4.118451E+05  1.473185E+04 -6.909207E+03
       348   2 -7.466028E+05 -1.133469E+05  4.088890E+04 -3.803739E+05  1.780586E+04 -1.326915E+04
       348   3 -6.561572E+05 -9.052435E+04  5.532730E+04 -3.655563E+05  2.087509E+04 -1.961257E+04
       348   4 -9.668027E+05 -2.030970E+05 -9.519778E+02 -4.519921E+05  4.223632E+03 -1.085510E+04
       348   5 -9.740450E+05 -1.958152E+05 -1.256627E+03 -4.436654E+05  7.322595E+03 -1.720679E+04
       348   6 -9.668158E+05 -2.031031E+05 -2.027431E+03 -4.519952E+05  1.041672E+04 -2.354201E+04
       348   7 -1.111017E+06 -2.554581E+05 -2.790817E+04 -4.921301E+05 -6.281877E+03 -1.479998E+04
       348   8 -1.201433E+06 -2.782786E+05 -4.340365E+04 -5.069352E+05 -3.156560E+03 -2.114290E+04
       348   9 -1.277376E+06 -3.156739E+05 -5.938612E+04 -5.383946E+05 -3.616195E+01 -2.746940E+04
       348  10 -8.225651E+05 -1.507336E+05  2.600374E+04 -4.118450E+05 -4.716813E-10  1.157106E-09
       348  11 -7.466031E+05 -1.133472E+05  4.088797E+04 -3.803737E+05  8.097889E-10  7.618065E-10
       348  12 -6.561578E+05 -9.052488E+04  5.532576E+04 -3.655560E+05 -4.738582E-10  2.365474E-10
       348  13 -9.668027E+05 -2.030971E+05 -9.522327E+02 -4.519921E+05 -1.239754E-09  1.321541E-09
       348  14 -9.740452E+05 -1.958155E+05 -1.257284E+03 -4.436653E+05  1.435222E-09  5.055632E-10
       348  15 -9.668161E+05 -2.031037E+05 -2.028676E+03 -4.519950E+05 -1.217834E-09  4.917240E-10
       348  16 -1.111017E+06 -2.554583E+05 -2.790865E+04 -4.921301E+05 -2.017161E-10  1.046506E-09
       348  17 -1.201433E+06 -2.782791E+05 -4.340451E+04 -5.069353E+05 -1.165200E-09  1.392167E-09
       348  18 -1.277376E+06 -3.156747E+05 -5.938754E+04 -5.383946E+05 -8.136642E-10  5.295318E-10
       348  19 -8.225648E+05 -1.507335E+05  2.600424E+04 -4.118451E+05 -1.473185E+04  6.909207E+03
       348  20 -7.466028E+05 -1.133469E+05  4.088890E+04 -3.803739E+05 -1.780586E+04  1.326915E+04
       348  21 -6.561572E+05 -9.052435E+04  5.532730E+04 -3.655563E+05 -2.087509E+04  1.961257E+04
       348  22 -9.668027E+05 -2.030970E+05 -9.519778E+02 -4.519921E+05 -4.223632E+03  1.085510E+04
       348  23 -9.740450E+05 -1.958152E+05 -1.256627E+03 -4.436654E+05 -7.322595E+03  1.720679E+04
       348  24 -9.668158E+05 -2.031031E+05 -2.027431E+03 -4.519952E+05 -1.041672E+04  2.354201E+04
       348  25 -1.111017E+06 -2.554581E+05 -2.790817E+04 -4.921301E+05  6.281877E+03  1.479998E+04
       348  26 -1.201433E+06 -2.782786E+05 -4.340365E+04 -5.069352E+05  3.156560E+03  2.114290E+04
       348  27 -1.277376E+06 -3.156739E+05 -5.938612E+04 -5.383946E+05  3.616195E+01  2.746940E+04
       349   1 -6.013252E+05 -7.056804E+04  6.534125E+04 -3.503636E+05  2.271737E+04 -2.328838E+04
       349   2 -5.254302E+05 -3.324684E+04  7.852969E+04 -3.189469E+05  2.722654E+04 -2.899588E+04
       349   3 -4.353384E+05 -1.066605E+04  9.013075E+04 -3.041408E+05  3.167491E+04 -3.453371E+04
       349   4 -9.668898E+05 -2.030926E+05 -2.639367E+03 -4.520122E+05  1.224219E+04 -2.722515E+04
       349   5 -9.739882E+05 -1.958040E+05 -4.690282E+03 -4.436705E+05  1.701870E+04 -3.283441E+04
       349   6 -9.669494E+05 -2.033105E+05 -8.541456E+03 -4.519432E+05  2.173405E+04 -3.827403E+04
       349   7 -1.332314E+06 -3.356047E+05 -7.062463E+04 -5.536051E+05  1.773620E+03 -3.115944E+04
       349   8 -1.422333E+06 -3.583417E+05 -8.791689E+04 -5.683096E+05  6.818790E+03 -3.666996E+04
       349   9 -1.498259E+06 -3.959269E+05 -1.072227E+05 -5.996264E+05  1.180240E+04 -4.201090E+04
       349  10 -6.013259E+05 -7.056876E+04  6.533926E+04 -3.503632E+05 -4.367646E-10 -1.993659E-10
       349  11 -5.254312E+05 -3.324794E+04  7.852672E+04 -3.189463E+05 -5.646400E-10 -8.283157E-10
       349  12 -4.353398E+05 -1.066760E+04  9.012663E+04 -3.041399E+05 -5.468860E-10 -6.954950E-10
       349  13 -9.668902E+05 -2.030934E+05 -2.641041E+03 -4.520120E+05  1.708644E-10  1.775112E-10
       349  14 -9.739888E+05 -1.958052E+05 -4.692850E+03 -4.436701E+05  3.854239E-11  5.476245E-10
       349  15 -9.669503E+05 -2.033122E+05 -8.545095E+03 -4.519425E+05  1.177672E-10  7.997879E-10
       349  16 -1.332314E+06 -3.356058E+05 -7.062646E+04 -5.536050E+05  7.396596E-10  3.931306E-10
       349  17 -1.422333E+06 -3.583432E+05 -8.791950E+04 -5.683094E+05  2.337666E-09  2.430937E-10
       349  18 -1.498260E+06 -3.959289E+05 -1.072262E+05 -5.996260E+05  9.720855E-11  2.462475E-09
       349  19 -6.013252E+05 -7.056804E+04  6.534125E+04 -3.503636E+05 -2.271737E+04  2.328838E+04
       349  20 -5.254302E+05 -3.324684E+04  7.852969E+04 -3.189469E+05 -2.722654E+04  2.899588E+04
       349  21 -4.353384E+05 -1.066605E+04  9.013075E+04 -3.041408E+05 -3.167491E+04  3.453371E+04
       349  22 -9.668898E+05 -2.030926E+05 -2.639367E+03 -4.520122E+05 -1.224219E+04  2.722515E+04
       349  23 -9.739882E+05 -1.958040E+05 -4.690282E+03 -4.436705E+05 -1.701870E+04  3.283441E+04
       349  24 -9.669494E+05 -2.033105E+05 -8.541456E+03 -4.519432E+05 -2.173405E+04  3.827403E+04
       349  25 -1.332314E+06 -3.356047E+05 -7.062463E+04 -5.536051E+05 -1.773620E+03  3.115944E+04
       349  26 -1.422333E+06 -3.583417E+05 -8.791689E+04 -5.683096E+05 -6.818790E+03  3.666996E+04
       349  27 -1.498259E+06 -3.959269E+05 -1.072227E+05 -5.996264E+05 -1.180240E+04  4.201090E+04
       350   1 -3.804889E+05  8.900836E+03  9.798670E+04 -2.898008E+05  3.497174E+04 -3.758654E+04
       350   2 -3.057136E+05  4.677082E+04  1.049353E+05 -2.560788E+05  4.420718E+04 -4.027398E+04
       350   3 -2.192141E+05  6.550329E+04  1.052627E+05 -2.377952E+05  5.267808E+04 -4.091768E+04
       350   4 -9.674584E+05 -2.031298E+05 -1.136194E+04 -4.521727E+05  2.473175E+04 -4.144088E+04
       350   5 -9.735315E+05 -1.968746E+05 -2.077146E+04 -4.430931E+05  3.721379E+04 -4.291044E+04
       350   6 -9.685361E+05 -2.104081E+05 -3.938447E+04 -4.494572E+05  4.892980E+04 -4.233546E+04
       350   7 -1.554073E+06 -4.151316E+05 -1.207251E+05 -6.144036E+05  1.450203E+04 -4.529141E+04
       350   8 -1.640886E+06 -4.404793E+05 -1.464968E+05 -6.299209E+05  3.022841E+04 -4.554387E+04
       350   9 -1.717274E+06 -4.862656E+05 -1.840560E+05 -6.608809E+05  4.518636E+04 -4.375139E+04
       350  10 -3.804906E+05  8.898992E+03  9.798175E+04 -2.897997E+05  1.635388E-09  1.684799E-09
       350  11 -3.057161E+05  4.676856E+04  1.049285E+05 -2.560773E+05 -2.031479E-11  9.238496E-10
       350  12 -2.192176E+05  6.550075E+04  1.052544E+05 -2.377934E+05  1.785057E-10 -2.968291E-09
       350  13 -9.674595E+05 -2.031318E+05 -1.136631E+04 -4.521719E+05  3.455469E-10  2.907764E-10
       350  14 -9.735335E+05 -1.968770E+05 -2.077752E+04 -4.430918E+05 -1.053721E-09 -8.021818E-10
       350  15 -9.685392E+05 -2.104107E+05 -3.939234E+04 -4.494556E+05  1.374032E-09 -2.911234E-09
       350  16 -1.554073E+06 -4.151338E+05 -1.207293E+05 -6.144031E+05 -1.409889E-09  6.412793E-10
       350  17 -1.640888E+06 -4.404818E+05 -1.465024E+05 -6.299198E+05  6.008557E-10  2.890444E-10
       350  18 -1.717276E+06 -4.862682E+05 -1.840634E+05 -6.608793E+05  2.150162E-09 -1.015407E-09
       350  19 -3.804889E+05  8.900836E+03  9.798670E+04 -2.898008E+05 -3.497174E+04  3.758654E+04
       350  20 -3.057136E+05  4.677082E+04  1.049353E+05 -2.560788E+05 -4.420718E+04  4.027398E+04
       350  21 -2.192141E+05  6.550329E+04  1.052627E+05 -2.377952E+05 -5.267808E+04  4.091768E+04
       350  22 -9.674584E+05 -2.031298E+05 -1.136194E+04 -4.521727E+05 -2.473175E+04  4.144088E+04
       350  23 -9.735315E+05 -1.968746E+05 -2.077146E+04 -4.430931E+05 -3.721379E+04  4.291044E+04
       350  24 -9.685361E+05 -2.104081E+05 -3.938447E+04 -4.494572E+05 -4.892980E+04  4.233546E+04
       350  25 -1.554073E+06 -4.151316E+05 -1.207251E+05 -6.144036E+05 -1.450203E+04  4.529141E+04
       350  26 -1.640886E+06 -4.404793E+05 -1.464968E+05 -6.299209E+05 -3.022841E+04  4.554387E+04
       350  27 -1.717274E+06 -4.862656E+05 -1.840560E+05 -6.608809E+05 -4.518636E+04  4.375139E+04
       351   1 -1.591228E+05  7.835875E+04  1.043612E+05 -2.383898E+05  6.366544E+04 -4.029012E+04
       351   2 -1.176567E+05  1.316366E+05  8.924417E+04 -1.434370E+05  7.122677E+04 -2.826617E+04
       351   3 -1.024946E+05  7.098644E+04  3.853126E+04 -3.636781E+04  6.912986E+04  9.386904E+03
       351   4 -9.749782E+05 -2.071661E+05 -5.202391E+04 -4.531235E+05  5.599790E+04 -4.318315E+04
       351   5 -9.695010E+05 -2.285185E+05 -9.838989E+04 -4.281837E+05  1.043905E+05 -1.578905E+04
       351   6 -9.984973E+05 -3.720075E+05 -2.127857E+05 -3.911196E+05  1.431133E+05  3.724796E+04
       351   7 -1.790142E+06 -4.926441E+05 -2.084369E+05 -6.676006E+05  4.834116E+04 -4.607250E+04
       351   8 -1.820579E+06 -5.885378E+05 -2.860583E+05 -7.125413E+05  1.375048E+05 -3.336917E+03
       351   9 -1.893647E+06 -8.147419E+05 -4.641436E+05 -7.453354E+05  2.169781E+05  6.503240E+04
       351  10 -1.591276E+05  7.835592E+04  1.043505E+05 -2.383877E+05 -6.748408E-10 -2.054648E-09
       351  11 -1.176624E+05  1.316344E+05  8.923314E+04 -1.434353E+05  7.010584E-11 -2.289185E-09
       351  12 -1.024998E+05  7.098506E+04  3.852211E+04 -3.636833E+04 -2.590310E-09 -6.103355E-10
       351  13 -9.749821E+05 -2.071689E+05 -5.203331E+04 -4.531216E+05  4.383768E-10 -4.381496E-09
       351  14 -9.695128E+05 -2.285217E+05 -9.841086E+04 -4.281823E+05  1.833044E-09 -1.185121E-09
       351  15 -9.985197E+05 -3.720145E+05 -2.128269E+05 -3.911239E+05 -5.108616E-11  3.128822E-10
       351  16 -1.790145E+06 -4.926470E+05 -2.084453E+05 -6.675988E+05  1.214169E-09  1.460202E-09
       351  17 -1.820599E+06 -5.885429E+05 -2.860940E+05 -7.125409E+05 -4.418253E-10  2.397941E-09
       351  18 -1.893698E+06 -8.147592E+05 -4.642404E+05 -7.453468E+05  6.409763E-10  6.426566E-10
       351  19 -1.591228E+05  7.835875E+04  1.043612E+05 -2.383898E+05 -6.366544E+04  4.029012E+04
       351  20 -1.176567E+05  1.316366E+05  8.924417E+04 -1.434370E+05 -7.122677E+04  2.826617E+04
       351  21 -1.024946E+05  7.098644E+04  3.853126E+04 -3.636781E+04 -6.912986E+04 -9.386904E+03
       351  22 -9.749782E+05 -2.071661E+05 -5.202391E+04 -4.531235E+05 -5.599790E+04  4.318315E+04
       351  23 -9.695010E+05 -2.285185E+05 -9.838989E+04 -4.281837E+05 -1.043905E+05  1.578905E+04
       351  24 -9.984973E+05 -3.720075E+05 -2.127857E+05 -3.911196E+05 -1.431133E+05 -3.724796E+04
       351  25 -1.790142E+06 -4.926441E+05 -2.084369E+05 -6.676006E+05 -4.834116E+04  4.607250E+04
       351  26 -1.820579E+06 -5.885378E+05 -2.860583E+05 -7.125413E+05 -1.375048E+05  3.336917E+03
       351  27 -1.893647E+06 -8.147419E+05 -4.641436E+05 -7.453354E+05 -2.169781E+05 -6.503240E+04
       352   1 -6.117838E+04  1.548188E+03 -3.365634E+04 -3.576379E+04 -1.040788E+05 -7.010947E+03
       352   2 -7.725415E+04  1.424287E+05  4.648694E+04 -7.176350E+03 -7.247590E+04 -2.135785E+04
       352   3 -1.355739E+05  1.304231E+05  6.787709E+04  4.107652E+04 -4.090031E+04 -2.150424E+04
       352   4 -6.332710E+05 -1.406851E+05 -1.735871E+05  1.987722E+04 -1.189616E+05 -7.045740E+03
       352   5 -6.112458E+05  1.088904E+04 -7.742983E+04  9.909510E+03 -7.751128E+04 -2.137076E+04
       352   6 -6.332181E+05  7.789562E+03 -4.690629E+04  1.960935E+04 -3.608562E+04 -2.149376E+04
       352   7 -1.205058E+06 -2.829306E+05 -3.135392E+05  7.546671E+04 -1.338307E+05 -7.083221E+03
       352   8 -1.144973E+06 -1.206695E+05 -2.013655E+05  2.698044E+04 -8.254234E+04 -2.138396E+04
       352   9 -1.130632E+06 -1.148596E+05 -1.617058E+05 -1.840597E+03 -3.127474E+04 -2.148361E+04
       352  10 -6.119002E+04  1.545227E+03 -3.367680E+04 -3.576438E+04 -8.726964E-10  1.429800E-10
       352  11 -7.725991E+04  1.424268E+05  4.647621E+04 -7.177596E+03  3.566808E-09 -2.305100E-09
       352  12 -1.355758E+05  1.304221E+05  6.787308E+04  4.107581E+04  8.921121E-09 -2.597878E-09
       352  13 -6.332862E+05 -1.406889E+05 -1.736138E+05  1.987654E+04 -2.153377E-10  1.637406E-09
       352  14 -6.112524E+05  1.088694E+04 -7.744199E+04  9.908175E+03  5.079192E-10 -5.104312E-10
       352  15 -6.332196E+05  7.788716E+03 -4.690960E+04  1.960872E+04 -6.939530E-10  1.067755E-09
       352  16 -1.205077E+06 -2.829355E+05 -3.135730E+05  7.546595E+04  8.468953E-10  1.096235E-09
       352  17 -1.144981E+06 -1.206718E+05 -2.013792E+05  2.697902E+04 -3.452959E-09 -3.671440E-09
       352  18 -1.130633E+06 -1.148604E+05 -1.617085E+05 -1.841139E+03 -8.240791E-09 -5.321171E-09
       352  19 -6.117838E+04  1.548188E+03 -3.365634E+04 -3.576379E+04  1.040788E+05  7.010947E+03
       352  20 -7.725415E+04  1.424287E+05  4.648694E+04 -7.176350E+03  7.247590E+04  2.135785E+04
       352  21 -1.355739E+05  1.304231E+05  6.787709E+04  4.107652E+04  4.090031E+04  2.150424E+04
       352  22 -6.332710E+05 -1.406851E+05 -1.735871E+05  1.987722E+04  1.189616E+05  7.045740E+03
       352  23 -6.112458E+05  1.088904E+04 -7.742983E+04  9.909510E+03  7.751128E+04  2.137076E+04
       352  24 -6.332181E+05  7.789562E+03 -4.690629E+04  1.960935E+04  3.608562E+04  2.149376E+04
       352  25 -1.205058E+06 -2.829306E+05 -3.135392E+05  7.546671E+04  1.338307E+05  7.083221E+03
       352  26 -1.144973E+06 -1.206695E+05 -2.013655E+05  2.698044E+04  8.254234E+04  2.138396E+04
       352  27 -1.130632E+06 -1.148596E+05 -1.617058E+05 -1.840597E+03  3.127474E+04  2.148361E+04
       353   1 -1.636404E+05  1.026277E+05  6.895793E+04  1.697788E+04 -2.957464E+04 -1.872293E+04
       353   2 -1.991806E+05  1.052012E+05  7.788322E+04  9.506035E+03 -1.999512E+04 -1.771229E+04
       353   3 -2.390093E+05  9.567312E+04  7.754299E+04  2.244481E+04 -1.041878E+04 -1.596337E+04
       353   4 -6.244151E+05 -1.090527E+04 -3.782860E+04  1.987194E+04 -2.912865E+04 -1.872305E+04
       353   5 -6.222174E+05  9.997255E+02 -1.991899E+04  9.652368E+03 -1.904220E+04 -1.771083E+04
       353   6 -6.244008E+05  7.102467E+02 -1.163205E+04  1.984442E+04 -8.958344E+03 -1.596018E+04
       353   7 -1.084993E+06 -1.244532E+05 -1.446294E+05  2.276372E+04 -2.868297E+04 -1.872317E+04
       353   8 -1.045089E+06 -1.032143E+05 -1.177332E+05  9.798498E+03 -1.808992E+04 -1.770936E+04
       353   9 -1.009655E+06 -9.426305E+04 -1.008170E+05  1.724556E+04 -7.498810E+03 -1.595700E+04
       353  10 -1.636415E+05  1.026271E+05  6.895563E+04  1.697744E+04 -7.380379E-09 -4.448403E-09
       353  11 -1.991811E+05  1.052008E+05  7.788188E+04  9.505750E+03 -6.575667E-09  2.824685E-09
       353  12 -2.390095E+05  9.567281E+04  7.754231E+04  2.244467E+04 -1.524204E-09  4.279895E-09
       353  13 -6.244161E+05 -1.090587E+04 -3.783086E+04  1.987150E+04 -1.027836E-09 -3.074951E-09
       353  14 -6.222179E+05  9.992913E+02 -1.992026E+04  9.652096E+03  1.179515E-09  3.225732E-11
       353  15 -6.244009E+05  7.099516E+02 -1.163268E+04  1.984430E+04  7.539739E-10 -6.270783E-10
       353  16 -1.084994E+06 -1.244538E+05 -1.446316E+05  2.276329E+04  7.714822E-09 -8.480600E-10
       353  17 -1.045089E+06 -1.032148E+05 -1.177344E+05  9.798240E+03  5.462320E-09  3.490996E-10
       353  18 -1.009655E+06 -9.426333E+04 -1.008176E+05  1.724547E+04  1.594186E-09  1.001338E-09
       353  19 -1.636404E+05  1.026277E+05  6.895793E+04  1.697788E+04  2.957464E+04  1.872293E+04
       353  20 -1.991806E+05  1.052012E+05  7.788322E+04  9.506035E+03  1.999512E+04  1.771229E+04
       353  21 -2.390093E+05  9.567312E+04  7.754299E+04  2.244481E+04  1.041878E+04  1.596337E+04
       353  22 -6.244151E+05 -1.090527E+04 -3.782860E+04  1.987194E+04  2.912865E+04  1.872305E+04
       353  23 -6.222174E+05  9.997255E+02 -1.991899E+04  9.652368E+03  1.904220E+04  1.771083E+04
       353  24 -6.244008E+05  7.102467E+02 -1.163205E+04  1.984442E+04  8.958344E+03  1.596018E+04
       353  25 -1.084993E+06 -1.244532E+05 -1.446294E+05  2.276372E+04  2.868297E+04  1.872317E+04
       353  26 -1.045089E+06 -1.032143E+05 -1.177332E+05  9.798498E+03  1.808992E+04  1.770936E+04
       353  27 -1.009655E+06 -9.426305E+04 -1.008170E+05  1.724556E+04  7.498810E+03  1.595700E+04
       354   1 -2.755721E+05  8.497571E+04  7.133786E+04  2.054219E+04 -8.389030E+03 -1.480124E+04
       354   2 -3.135004E+05  7.644972E+04  6.653748E+04  1.027020E+04 -5.905989E+03 -1.299021E+04
       354   3 -3.520530E+05  6.707410E+04  5.988761E+04  2.072577E+04 -3.424144E+03 -1.113354E+04
       354   4 -6.235612E+05 -7.263006E+02 -9.005967E+03  1.992452E+04 -7.146905E+03 -1.479843E+04
       354   5 -6.232418E+05  1.480234E+02 -5.059451E+03  9.559151E+03 -4.633414E+03 -1.298703E+04
       354   6 -6.235539E+05  1.671226E+02 -2.984328E+03  1.992199E+04 -2.120970E+03 -1.112997E+04
       354   7 -9.714383E+05 -8.643681E+04 -8.935786E+04  1.930712E+04 -5.905471E+03 -1.479562E+04
       354   8 -9.328945E+05 -7.616041E+04 -7.666278E+04  8.848396E+03 -3.361470E+03 -1.298385E+04
       354   9 -8.949867E+05 -6.674504E+04 -6.586119E+04  1.911851E+04 -8.183610E+02 -1.112640E+04
       354  10 -2.755722E+05  8.497546E+04  7.133732E+04  2.054209E+04 -1.398912E-09  5.824501E-09
       354  11 -3.135005E+05  7.644953E+04  6.653709E+04  1.027014E+04 -1.649013E-09  3.392639E-09
       354  12 -3.520531E+05  6.707396E+04  5.988735E+04  2.072574E+04  3.832488E-09 -1.321966E-10
       354  13 -6.235613E+05 -7.265494E+02 -9.006475E+03  1.992443E+04 -6.123439E-10 -1.253947E-09
       354  14 -6.232419E+05  1.478366E+02 -5.059808E+03  9.559102E+03  1.024775E-09  4.614784E-09
       354  15 -6.235540E+05  1.669884E+02 -2.984569E+03  1.992197E+04  5.943405E-10  6.310963E-09
       354  16 -9.714384E+05 -8.643705E+04 -8.935834E+04  1.930705E+04  2.023233E-09  4.004158E-09
       354  17 -9.328946E+05 -7.616059E+04 -7.666312E+04  8.848361E+03  1.070347E-09  4.721625E-09
       354  18 -8.949867E+05 -6.674517E+04 -6.586143E+04  1.911851E+04 -2.328484E-09  2.884464E-09
       354  19 -2.755721E+05  8.497571E+04  7.133786E+04  2.054219E+04  8.389030E+03  1.480124E+04
       354  20 -3.135004E+05  7.644972E+04  6.653748E+04  1.027020E+04  5.905989E+03  1.299021E+04
       354  21 -3.520530E+05  6.707410E+04  5.988761E+04  2.072577E+04  3.424144E+03  1.113354E+04
       354  22 -6.235612E+05 -7.263006E+02 -9.005967E+03  1.992452E+04  7.146905E+03  1.479843E+04
       354  23 -6.232418E+05  1.480234E+02 -5.059451E+03  9.559151E+03  4.633414E+03  1.298703E+04
       354  24 -6.235539E+05  1.671226E+02 -2.984328E+03  1.992199E+04  2.120970E+03  1.112997E+04
       354  25 -9.714383E+05 -8.643681E+04 -8.935786E+04  1.930712E+04  5.905471E+03  1.479562E+04
       354  26 -9.328945E+05 -7.616041E+04 -7.666278E+04  8.848396E+03  3.361470E+03  1.298385E+04
       354  27 -8.949867E+05 -6.674504E+04 -6.586119E+04  1.911851E+04  8.183610E+02  1.112640E+04
       355   1 -3.898314E+05  5.759666E+04  5.155691E+04  2.054439E+04 -2.942068E+03 -1.004390E+04
       355   2 -4.283542E+05  4.811364E+04  4.358175E+04  9.984593E+03 -2.213509E+03 -8.176217E+03
       355   3 -4.670984E+05  3.868042E+04  3.511321E+04  2.036542E+04 -1.485620E+03 -6.301454E+03
       355   4 -6.234587E+05  6.454497E+01 -2.335785E+03  1.997016E+04 -1.646381E+03 -1.004019E+04
       355   5 -6.233445E+05  7.625898E+01 -1.492731E+03  9.499522E+03 -9.131857E+02 -8.172314E+03
       355   6 -6.234545E+05  1.368750E+02 -1.146513E+03  1.996991E+04 -1.806163E+02 -6.297345E+03
       355   7 -8.570354E+05 -5.747139E+04 -5.623210E+04  1.939611E+04 -3.511781E+02 -1.003649E+04
       355   8 -8.182996E+05 -4.796379E+04 -4.656974E+04  9.014576E+03  3.867318E+02 -8.168412E+03
       355   9 -7.797880E+05 -3.840839E+04 -3.740787E+04  1.957448E+04  1.124061E+03 -6.293238E+03
       355  10 -3.898315E+05  5.759655E+04  5.155670E+04  2.054436E+04  5.759309E-09  3.300004E-10
       355  11 -4.283543E+05  4.811357E+04  4.358161E+04  9.984579E+03 -5.410398E-10  7.114931E-09
       355  12 -4.670984E+05  3.868038E+04  3.511313E+04  2.036541E+04 -2.648949E-10  6.252424E-09
       355  13 -6.234587E+05  6.443602E+01 -2.335980E+03  1.997014E+04  5.086759E-10  9.361860E-10
       355  14 -6.233445E+05  7.618706E+01 -1.492858E+03  9.499516E+03  1.067464E-10  7.305793E-09
       355  15 -6.234545E+05  1.368324E+02 -1.146588E+03  1.996991E+04 -1.180976E-09  2.800492E-11
       355  16 -8.570354E+05 -5.747150E+04 -5.623229E+04  1.939610E+04 -3.797807E-09  1.471608E-09
       355  17 -8.182996E+05 -4.796386E+04 -4.656987E+04  9.014579E+03 -3.548956E-10 -1.982534E-09
       355  18 -7.797880E+05 -3.840843E+04 -3.740794E+04  1.957448E+04  9.944738E-10 -2.628543E-09
       355  19 -3.898314E+05  5.759666E+04  5.155691E+04  2.054439E+04  2.942068E+03  1.004390E+04
       355  20 -4.283542E+05  4.811364E+04  4.358175E+04  9.984593E+03  2.213509E+03  8.176217E+03
       355  21 -4.670984E+05  3.868042E+04  3.511321E+04  2.036542E+04  1.485620E+03  6.301454E+03
       355  22 -6.234587E+05  6.454497E+01 -2.335785E+03  1.997016E+04  1.646381E+03  1.004019E+04
       355  23 -6.233445E+05  7.625898E+01 -1.492731E+03  9.499522E+03  9.131857E+02  8.172314E+03
       355  24 -6.234545E+05  1.368750E+02 -1.146513E+03  1.996991E+04  1.806163E+02  6.297345E+03
       355  25 -8.570354E+05 -5.747139E+04 -5.623210E+04  1.939611E+04  3.511781E+02  1.003649E+04
       355  26 -8.182996E+05 -4.796379E+04 -4.656974E+04  9.014576E+03 -3.867318E+02  8.168412E+03
       355  27 -7.797880E+05 -3.840839E+04 -3.740787E+04  1.957448E+04 -1.124061E+03  6.293238E+03
       356   1 -5.052707E+05  2.922926E+04  2.609331E+04  2.027970E+04 -1.286784E+03 -5.207928E+03
       356   2 -5.439989E+05  1.963026E+04  1.703726E+04  9.644491E+03 -6.483840E+02 -3.326369E+03
       356   3 -5.829612E+05  1.009916E+04  7.544458E+03  2.006979E+04 -1.026151E+01 -1.443605E+03
       356   4 -6.234543E+05  1.353703E+02 -1.113354E+03  1.999651E+04  2.008463E+01 -5.203728E+03
       356   5 -6.233360E+05  8.372450E+01 -1.303739E+03  9.466224E+03  6.592155E+02 -3.322092E+03
       356   6 -6.234529E+05  1.000811E+02 -1.931183E+03  1.999661E+04  1.298109E+03 -1.439247E+03
       356   7 -7.416250E+05 -2.895949E+04 -2.832094E+04  1.971336E+04  1.326706E+03 -5.199528E+03
       356   8 -7.026674E+05 -1.946326E+04 -1.964515E+04  9.287976E+03  1.966649E+03 -3.317816E+03
       356   9 -6.639430E+05 -9.899110E+03 -1.140693E+04  1.992344E+04  2.606394E+03 -1.434888E+03
       356  10 -5.052707E+05  2.922923E+04  2.609326E+04  2.027970E+04  6.143235E-09  3.024286E-09
       356  11 -5.439989E+05  1.963025E+04  1.703724E+04  9.644489E+03  1.822882E-09 -1.350673E-09
       356  12 -5.829612E+05  1.009915E+04  7.544454E+03  2.006979E+04  2.098726E-09 -3.193707E-09
       356  13 -6.234543E+05  1.353412E+02 -1.113405E+03  1.999651E+04  1.044758E-10  9.371562E-09
       356  14 -6.233360E+05  8.371253E+01 -1.303760E+03  9.466226E+03  6.511062E-10  5.502228E-10
       356  15 -6.234529E+05  1.000785E+02 -1.931190E+03  1.999661E+04 -1.274311E-10 -4.700162E-09
       356  16 -7.416250E+05 -2.895952E+04 -2.832100E+04  1.971337E+04 -5.191722E-09  3.103115E-09
       356  17 -7.026674E+05 -1.946327E+04 -1.964518E+04  9.287981E+03 -3.074248E-09 -1.387595E-10
       356  18 -6.639430E+05 -9.899114E+03 -1.140695E+04  1.992344E+04  8.154652E-10 -5.552280E-09
       356  19 -5.052707E+05  2.922926E+04  2.609331E+04  2.027970E+04  1.286784E+03  5.207928E+03
       356  20 -5.439989E+05  1.963026E+04  1.703726E+04  9.644491E+03  6.483840E+02  3.326369E+03
       356  21 -5.829612E+05  1.009916E+04  7.544458E+03  2.006979E+04  1.026151E+01  1.443605E+03
       356  22 -6.234543E+05  1.353703E+02 -1.113354E+03  1.999651E+04 -2.008463E+01  5.203728E+03
       356  23 -6.233360E+05  8.372450E+01 -1.303739E+03  9.466224E+03 -6.592155E+02  3.322092E+03
       356  24 -6.234529E+05  1.000811E+02 -1.931183E+03  1.999661E+04 -1.298109E+03  1.439247E+03
       356  25 -7.416250E+05 -2.895949E+04 -2.832094E+04  1.971336E+04 -1.326706E+03  5.199528E+03
       356  26 -7.026674E+05 -1.946326E+04 -1.964515E+04  9.287976E+03 -1.966649E+03  3.317816E+03
       356  27 -6.639430E+05 -9.899110E+03 -1.140693E+04  1.992344E+04 -2.606394E+03  1.434888E+03
       357   1 -6.213316E+05  6.996412E+02 -2.042451E+03  1.985416E+04  3.719501E+02 -3.437471E+02
       357   2 -6.599096E+05 -8.880318E+03 -1.254942E+04  9.332181E+03  2.406007E+03  1.543098E+03
       357   3 -6.990866E+05 -1.910853E+04 -2.458257E+04  1.988891E+04  4.440114E+03  3.408623E+03
       357   4 -6.235330E+05  1.813963E+02 -2.436627E+03  1.999981E+04  1.686906E+03 -3.393530E+02
       357   5 -6.232350E+05  1.564892E+02 -4.069610E+03  9.461649E+03  3.706215E+03  1.547405E+03
       357   6 -6.235347E+05 -5.139495E+02 -7.218328E+03  2.000212E+04  5.725700E+03  3.412849E+03
       357   7 -6.257345E+05 -3.368478E+02 -2.830796E+03  2.014545E+04  3.001857E+03 -3.349583E+02
       357   8 -5.865591E+05  9.193203E+03  4.410112E+03  9.591124E+03  5.006499E+03  1.551713E+03
       357   9 -5.479775E+05  1.808024E+04  1.014555E+04  2.011534E+04  7.011441E+03  3.417074E+03
       357  10 -6.213316E+05  6.996410E+02 -2.042452E+03  1.985416E+04 -4.129049E-09  1.310952E-09
       357  11 -6.599096E+05 -8.880322E+03 -1.254943E+04  9.332178E+03 -1.442420E-09  3.081875E-09
       357  12 -6.990867E+05 -1.910855E+04 -2.458263E+04  1.988889E+04  4.610413E-09  3.684483E-09
       357  13 -6.235330E+05  1.813954E+02 -2.436632E+03  1.999981E+04  1.087483E-09 -2.886472E-09
       357  14 -6.232350E+05  1.564829E+02 -4.069640E+03  9.461645E+03  3.392263E-10  1.976166E-09
       357  15 -6.235347E+05 -5.139708E+02 -7.218411E+03  2.000210E+04 -1.476408E-09  3.435898E-09
       357  16 -6.257345E+05 -3.368504E+02 -2.830813E+03  2.014545E+04  4.875415E-09 -1.006514E-10
       357  17 -5.865591E+05  9.193193E+03  4.410061E+03  9.591118E+03 -1.205071E-10 -1.018428E-08
       357  18 -5.479775E+05  1.808021E+04  1.014543E+04  2.011532E+04 -3.995129E-09 -1.335393E-09
       357  19 -6.213316E+05  6.996412E+02 -2.042451E+03  1.985416E+04 -3.719501E+02  3.437471E+02
       357  20 -6.599096E+05 -8.880318E+03 -1.254942E+04  9.332181E+03 -2.406007E+03 -1.543098E+03
       357  21 -6.990866E+05 -1.910853E+04 -2.458257E+04  1.988891E+04 -4.440114E+03 -3.408623E+03
       357  22 -6.235330E+05  1.813963E+02 -2.436627E+03  1.999981E+04 -1.686906E+03  3.393530E+02
       357  23 -6.232350E+05  1.564892E+02 -4.069610E+03  9.461649E+03 -3.706215E+03 -1.547405E+03
       357  24 -6.235347E+05 -5.139495E+02 -7.218328E+03  2.000212E+04 -5.725700E+03 -3.412849E+03
       357  25 -6.257345E+05 -3.368478E+02 -2.830796E+03  2.014545E+04 -3.001857E+03  3.349583E+02
       357  26 -5.865591E+05  9.193203E+03  4.410112E+03  9.591124E+03 -5.006499E+03 -1.551713E+03
       357  27 -5.479775E+05  1.808024E+04  1.014555E+04  2.011534E+04 -7.011441E+03 -3.417074E+03
       358   1 -7.379887E+05 -2.743387E+04 -3.573014E+04  1.822730E+04  5.768462E+03  4.555521E+03
       358   2 -7.748936E+05 -3.672154E+04 -5.120275E+04  9.856178E+03  1.411018E+04  6.403359E+03
       358   3 -8.154791E+05 -5.576889E+04 -7.458554E+04  2.248964E+04  2.245290E+04  7.847278E+03
       358   4 -6.242105E+05  6.344927E+02 -9.316669E+03  1.997550E+04  7.175900E+03  4.560102E+03
       358   5 -6.223981E+05  8.516869E+02 -1.593040E+04  9.488053E+03  1.523850E+04  6.406857E+03
       358   6 -6.242185E+05 -8.640833E+03 -3.025876E+04  2.000503E+04  2.330262E+04  7.849684E+03
       358   7 -5.104203E+05  2.870196E+04  1.709593E+04  2.172401E+04  8.583595E+03  4.564690E+03
       358   8 -4.698811E+05  3.842328E+04  1.934039E+04  9.119820E+03  1.636709E+04  6.410352E+03
       358   9 -4.329241E+05  3.848467E+04  1.406557E+04  1.751961E+04  2.415259E+04  7.852083E+03
       358  10 -7.379888E+05 -2.743391E+04 -3.573024E+04  1.822728E+04 -1.203784E-08  8.433136E-09
       358  11 -7.748938E+05 -3.672164E+04 -5.120320E+04  9.856106E+03 -5.037668E-09  3.662746E-09
       358  12 -8.154796E+05 -5.576909E+04 -7.458660E+04  2.248950E+04  4.715338E-09  6.482440E-09
       358  13 -6.242106E+05  6.344566E+02 -9.316805E+03  1.997547E+04 -1.072275E-09  5.128135E-09
       358  14 -6.223984E+05  8.515805E+02 -1.593092E+04  9.487975E+03 -2.371605E-10  3.360367E-09
       358  15 -6.242191E+05 -8.641045E+03 -3.025990E+04  2.000488E+04 -9.232156E-10  8.945020E-10
       358  16 -5.104204E+05  2.870192E+04  1.709576E+04  2.172398E+04  1.088536E-08  1.113709E-09
       358  17 -4.698814E+05  3.842316E+04  1.933981E+04  9.119735E+03  2.624571E-09 -1.924360E-09
       358  18 -4.329247E+05  3.848445E+04  1.406436E+04  1.751946E+04 -3.604219E-09 -7.932237E-09
       358  19 -7.379887E+05 -2.743387E+04 -3.573014E+04  1.822730E+04 -5.768462E+03 -4.555521E+03
       358  20 -7.748936E+05 -3.672154E+04 -5.120275E+04  9.856178E+03 -1.411018E+04 -6.403359E+03
       358  21 -8.154791E+05 -5.576889E+04 -7.458554E+04  2.248964E+04 -2.245290E+04 -7.847278E+03
       358  22 -6.242105E+05  6.344927E+02 -9.316669E+03  1.997550E+04 -7.175900E+03 -4.560102E+03
       358  23 -6.223981E+05  8.516869E+02 -1.593040E+04  9.488053E+03 -1.523850E+04 -6.406857E+03
       358  24 -6.242185E+05 -8.640833E+03 -3.025876E+04  2.000503E+04 -2.330262E+04 -7.849684E+03
       358  25 -5.104203E+05  2.870196E+04  1.709593E+04  2.172401E+04 -8.583595E+03 -4.564690E+03
       358  26 -4.698811E+05  3.842328E+04  1.934039E+04  9.119820E+03 -1.636709E+04 -6.410352E+03
       358  27 -4.329241E+05  3.848467E+04  1.406557E+04  1.751961E+04 -2.415259E+04 -7.852083E+03
       359   1 -8.605155E+05 -5.028839E+04 -9.046448E+04  2.782365E+03  2.560931E+04  9.884264E+03
       359   2 -8.810364E+05 -5.707704E+04 -1.240230E+05  2.328772E+04  6.416164E+04  1.076503E+04
       359   3 -9.378688E+05 -1.885167E+05 -2.138911E+05  6.457374E+04  1.027346E+05  3.822197E+03
       359   4 -6.312639E+05  6.313398E+03 -3.751932E+04  1.983588E+04  2.886665E+04  9.894789E+03
       359   5 -6.136075E+05  8.774327E+03 -6.191911E+04  9.617906E+03  6.198992E+04  1.075678E+04
       359   6 -6.313046E+05 -1.124462E+05 -1.388388E+05  2.018251E+04  9.513647E+04  3.792850E+03
       359   7 -4.019629E+05  6.291257E+04  1.542252E+04  3.689572E+04  3.212519E+04  9.905491E+03
       359   8 -3.461119E+05  7.462138E+04  1.801306E+02 -4.057892E+03  5.981727E+04  1.074863E+04
       359   9 -3.246502E+05 -3.637514E+04 -6.379208E+04 -2.423078E+04  8.753461E+04  3.764599E+03
       359  10 -8.605162E+05 -5.028867E+04 -9.046590E+04  2.782161E+03 -1.182577E-09  3.298267E-09
       359  11 -8.810409E+05 -5.707827E+04 -1.240310E+05  2.328716E+04 -6.273988E-10 -1.770048E-09
       359  12 -9.378802E+05 -1.885195E+05 -2.139110E+05  6.457343E+04  1.954890E-09 -1.705546E-09
       359  13 -6.312648E+05  6.313069E+03 -3.752107E+04  1.983565E+04 -4.454480E-10  6.474614E-09
       359  14 -6.136116E+05  8.773169E+03 -6.192655E+04  9.617369E+03  2.040121E-09 -4.932239E-09
       359  15 -6.313144E+05 -1.124486E+05 -1.388559E+05  2.018222E+04 -5.853105E-10  3.286826E-09
       359  16 -4.019641E+05  6.291219E+04  1.542040E+04  3.689546E+04  2.098833E-09  2.198518E-09
       359  17 -3.461158E+05  7.462030E+04  1.731856E+02 -4.058409E+03 -4.079178E-10  2.784002E-09
       359  18 -3.246584E+05 -3.637721E+04 -6.380651E+04 -2.423104E+04 -1.200455E-09 -2.162434E-10
       359  19 -8.605155E+05 -5.028839E+04 -9.046448E+04  2.782365E+03 -2.560931E+04 -9.884264E+03
       359  20 -8.810364E+05 -5.707704E+04 -1.240230E+05  2.328772E+04 -6.416164E+04 -1.076503E+04
       359  21 -9.378688E+05 -1.885167E+05 -2.138911E+05  6.457374E+04 -1.027346E+05 -3.822197E+03
       359  22 -6.312639E+05  6.313398E+03 -3.751932E+04  1.983588E+04 -2.886665E+04 -9.894789E+03
       359  23 -6.136075E+05  8.774327E+03 -6.191911E+04  9.617906E+03 -6.198992E+04 -1.075678E+04
       359  24 -6.313046E+05 -1.124462E+05 -1.388388E+05  2.018251E+04 -9.513647E+04 -3.792850E+03
       359  25 -4.019629E+05  6.291257E+04  1.542252E+04  3.689572E+04 -3.212519E+04 -9.905491E+03
       359  26 -3.461119E+05  7.462138E+04  1.801306E+02 -4.057892E+03 -5.981727E+04 -1.074863E+04
       359  27 -3.246502E+05 -3.637514E+04 -6.379208E+04 -2.423078E+04 -8.753461E+04 -3.764599E+03
       360   1  5.703240E+05  2.881506E+06  6.106853E+05 -2.894951E+05  1.542592E+04  1.922041E+05
       360   2  2.656141E+05  2.485023E+06  3.786263E+05 -1.382105E+05  4.410033E+04  1.032162E+05
       360   3  1.832580E+05  2.155370E+06  2.598376E+05 -1.816178E+05  3.262327E+04  1.419039E+04
       360   4  1.957541E+05  1.375371E+06  2.421963E+05 -2.082466E+05  1.552423E+04  1.580751E+05
       360   5 -1.502713E+04  1.344543E+06  1.142139E+05 -1.111333E+05  4.412499E+04  9.726129E+04
       360   6 -8.097075E+03  1.375711E+06  8.016247E+04 -2.086997E+05  3.255700E+04  3.635582E+04
       360   7 -1.789586E+05 -1.286891E+05 -1.264508E+05 -1.271935E+05  1.561379E+04  1.240280E+05
       360   8 -2.957571E+05  2.052622E+05 -1.502853E+05 -8.410514E+04  4.414916E+04  9.131708E+04
       360   9 -1.994914E+05  5.966152E+05 -9.955074E+04 -2.357469E+05  3.248875E+04  5.849369E+04
       360  10  5.703139E+05  2.881467E+06  6.106158E+05 -2.894975E+05 -5.928968E-10 -9.448917E-10
       360  11  2.656092E+05  2.485011E+06  3.786027E+05 -1.382141E+05 -1.111798E-09  2.901918E-09
       360  12  1.832568E+05  2.155369E+06  2.598353E+05 -1.816182E+05  1.322628E-09  8.308291E-09
       360  13  1.957471E+05  1.375345E+06  2.421490E+05 -2.082486E+05 -3.721942E-10 -1.983329E-09
       360  14 -1.503175E+04  1.344533E+06  1.141925E+05 -1.111367E+05 -4.348473E-09  1.149564E-09
       360  15 -8.098568E+03  1.375709E+06  8.015800E+04 -2.087007E+05 -4.329020E-10  6.298728E-09
       360  16 -1.789630E+05 -1.287056E+05 -1.264801E+05 -1.271951E+05 -9.133360E-10  1.091237E-09
       360  17 -2.957615E+05  2.052527E+05 -1.503046E+05 -8.410839E+04  8.949336E-10 -7.376750E-09
       360  18 -1.994935E+05  5.966113E+05 -9.955915E+04 -2.357485E+05 -1.605591E-10 -9.790004E-09
       360  19  5.703240E+05  2.881506E+06  6.106853E+05 -2.894951E+05 -1.542592E+04 -1.922041E+05
       360  20  2.656141E+05  2.485023E+06  3.786263E+05 -1.382105E+05 -4.410033E+04 -1.032162E+05
       360  21  1.832580E+05  2.155370E+06  2.598376E+05 -1.816178E+05 -3.262327E+04 -1.419039E+04
       360  22  1.957541E+05  1.375371E+06  2.421963E+05 -2.082466E+05 -1.552423E+04 -1.580751E+05
       360  23 -1.502713E+04  1.344543E+06  1.142139E+05 -1.111333E+05 -4.412499E+04 -9.726129E+04
       360  24 -8.097075E+03  1.375711E+06  8.016247E+04 -2.086997E+05 -3.255700E+04 -3.635582E+04
       360  25 -1.789586E+05 -1.286891E+05 -1.264508E+05 -1.271935E+05 -1.561379E+04 -1.240280E+05
       360  26 -2.957571E+05  2.052622E+05 -1.502853E+05 -8.410514E+04 -4.414916E+04 -9.131708E+04
       360  27 -1.994914E+05  5.966152E+05 -9.955074E+04 -2.357469E+05 -3.248875E+04 -5.849369E+04
       361   1  1.194722E+05  1.788584E+06  1.704315E+05 -2.180787E+05  1.738601E+04  1.325379E+04
       361   2  1.301125E+04  1.421401E+06  7.762251E+04 -1.108477E+05  2.679476E+03 -1.888635E+04
       361   3 -5.291178E+04  1.067229E+06  1.550596E+04 -1.986769E+05 -1.217623E+04 -5.101052E+04
       361   4  1.524194E+04  1.364875E+06  7.258074E+04 -2.086375E+05  1.735374E+04  2.352146E+04
       361   5 -2.464096E+03  1.358442E+06  6.309457E+04 -1.111014E+05  2.646411E+03 -8.507656E+03
       361   6  2.035951E+04  1.364881E+06  8.423597E+04 -2.086210E+05 -1.220957E+04 -4.053897E+04
       361   7 -8.900047E+04  9.413317E+05 -2.528154E+04 -1.992027E+05  1.732177E+04  3.378218E+04
       361   8 -1.793966E+04  1.295487E+06  4.856678E+04 -1.113550E+05  2.613336E+03  1.869997E+03
       361   9  9.362500E+04  1.662615E+06  1.529605E+05 -2.185699E+05 -1.224324E+04 -3.006244E+04
       361  10  1.194718E+05  1.788584E+06  1.704306E+05 -2.180789E+05 -4.708186E-10 -6.783841E-09
       361  11  1.301114E+04  1.421400E+06  7.762182E+04 -1.108477E+05 -2.940568E-12 -5.011302E-09
       361  12 -5.291263E+04  1.067226E+06  1.550079E+04 -1.986774E+05  1.355736E-09  5.438858E-09
       361  13  1.524147E+04  1.364874E+06  7.257913E+04 -2.086378E+05 -6.527045E-10 -3.334365E-09
       361  14 -2.464122E+03  1.358442E+06  6.309442E+04 -1.111013E+05  1.949195E-10 -3.504878E-10
       361  15  2.035891E+04  1.364879E+06  8.423261E+04 -2.086214E+05  3.700949E-09  6.704267E-09
       361  16 -8.900110E+04  9.413304E+05 -2.528425E+04 -1.992031E+05 -5.428377E-10  6.825888E-09
       361  17 -1.793967E+04  1.295487E+06  4.856676E+04 -1.113550E+05 -2.986517E-09 -1.354703E-09
       361  18  9.362459E+04  1.662614E+06  1.529586E+05 -2.185702E+05  4.125690E-10 -6.294307E-09
       361  19  1.194722E+05  1.788584E+06  1.704315E+05 -2.180787E+05 -1.738601E+04 -1.325379E+04
       361  20  1.301125E+04  1.421401E+06  7.762251E+04 -1.108477E+05 -2.679476E+03  1.888635E+04
       361  21 -5.291178E+04  1.067229E+06  1.550596E+04 -1.986769E+05  1.217623E+04  5.101052E+04
       361  22  1.524194E+04  1.364875E+06  7.258074E+04 -2.086375E+05 -1.735374E+04 -2.352146E+04
       361  23 -2.464096E+03  1.358442E+06  6.309457E+04 -1.111014E+05 -2.646411E+03  8.507656E+03
       361  24  2.035951E+04  1.364881E+06  8.423597E+04 -2.086210E+05  1.220957E+04  4.053897E+04
       361  25 -8.900047E+04  9.413317E+05 -2.528154E+04 -1.992027E+05 -1.732177E+04 -3.378218E+04
       361  26 -1.793966E+04  1.295487E+06  4.856678E+04 -1.113550E+05 -2.613336E+03 -1.869997E+03
       361  27  9.362500E+04  1.662615E+06  1.529605E+05 -2.185699E+05  1.224324E+04  3.006244E+04
       362   1 -1.721085E+05  7.268953E+05 -5.362814E+04 -2.450187E+05 -2.697892E+04 -7.702251E+04
       362   2 -2.693190E+05  3.264393E+05 -8.869936E+04 -7.646978E+04 -3.899634E+04 -1.292935E+05
       362   3 -8.569659E+04  2.645183E+03 -1.963909E+04 -1.024066E+05 -1.389124E+04 -1.814395E+05
       362   4 -1.179150E+04  1.379938E+06  9.704356E+04 -2.086975E+05 -2.704941E+04 -5.567416E+04
       362   5 -1.966113E+04  1.339336E+06  1.465055E+05 -1.111611E+05 -3.897289E+04 -1.339129E+05
       362   6  2.575334E+05  1.379583E+06  3.179638E+05 -2.080547E+05 -1.378883E+04 -2.120594E+05
       362   7  1.485010E+05  2.033379E+06  2.476894E+05 -1.723374E+05 -2.711736E+04 -3.430352E+04
       362   8  2.299288E+05  2.353180E+06  3.816421E+05 -1.459087E+05 -3.894895E+04 -1.385397E+05
       362   9  6.006646E+05  2.758271E+06  6.554371E+05 -3.139362E+05 -1.367615E+04 -2.427466E+05
       362  10 -1.721108E+05  7.268887E+05 -5.364065E+04 -2.450204E+05  1.939849E-09 -1.774354E-09
       362  11 -2.693251E+05  3.264209E+05 -8.873361E+04 -7.647384E+04 -1.022013E-09 -2.584011E-09
       362  12 -8.570564E+04  2.609781E+03 -1.970132E+04 -1.024086E+05 -1.081272E-09  1.675294E-09
       362  13 -1.179311E+04  1.379935E+06  9.703637E+04 -2.086987E+05  8.151540E-11 -2.501303E-09
       362  14 -1.966756E+04  1.339316E+06  1.464690E+05 -1.111653E+05 -8.020321E-10 -2.404243E-10
       362  15  2.575212E+05  1.379535E+06  3.178792E+05 -2.080570E+05 -1.751781E-09  4.470437E-09
       362  16  1.484999E+05  2.033378E+06  2.476858E+05 -1.723382E+05  1.980878E-09  1.471087E-09
       362  17  2.299221E+05  2.353159E+06  3.816033E+05 -1.459131E+05 -1.035909E-09 -3.010032E-09
       362  18  6.006487E+05  2.758208E+06  6.553265E+05 -3.139389E+05 -1.606021E-09 -2.240285E-09
       362  19 -1.721085E+05  7.268953E+05 -5.362814E+04 -2.450187E+05  2.697892E+04  7.702251E+04
       362  20 -2.693190E+05  3.264393E+05 -8.869936E+04 -7.646978E+04  3.899634E+04  1.292935E+05
       362  21 -8.569659E+04  2.645183E+03 -1.963909E+04 -1.024066E+05  1.389124E+04  1.814395E+05
       362  22 -1.179150E+04  1.379938E+06  9.704356E+04 -2.086975E+05  2.704941E+04  5.567416E+04
       362  23 -1.966113E+04  1.339336E+06  1.465055E+05 -1.111611E+05  3.897289E+04  1.339129E+05
       362  24  2.575334E+05  1.379583E+06  3.179638E+05 -2.080547E+05  1.378883E+04  2.120594E+05
       362  25  1.485010E+05  2.033379E+06  2.476894E+05 -1.723374E+05  2.711736E+04  3.430352E+04
       362  26  2.299288E+05  2.353180E+06  3.816421E+05 -1.459087E+05  3.894895E+04  1.385397E+05
       362  27  6.006646E+05  2.758271E+06  6.554371E+05 -3.139362E+05  1.367615E+04  2.427466E+05
       363   1  3.845000E+05  1.252839E+05  6.727541E+04  1.127368E+05 -2.949502E+04 -1.851455E+04
       363   2  3.617143E+05  1.698229E+05  9.175191E+04  8.905118E+04 -1.698891E+04 -2.916627E+04
       363   3  3.021121E+05  1.710807E+05  9.491224E+04  9.695989E+04 -9.632966E+03 -2.615759E+04
       363   4 -1.426365E+05 -5.379557E+04 -7.093676E+04 -1.096769E+04 -4.269204E+04 -2.349059E+04
       363   5 -1.195486E+05 -4.665970E+03 -3.011881E+04 -3.679292E+04 -2.129055E+04 -3.079044E+04
       363   6 -1.350605E+05 -6.062786E+02 -1.768172E+04 -3.101786E+04 -5.040236E+03 -2.442492E+04
       363   7 -6.694988E+05 -2.328683E+05 -2.091693E+05 -1.345817E+05 -5.587653E+04 -2.846298E+04
       363   8 -6.005826E+05 -1.791424E+05 -1.520070E+05 -1.625496E+05 -2.558850E+04 -3.241332E+04
       363   9 -5.720458E+05 -1.722756E+05 -1.302913E+05 -1.589121E+05 -4.510439E+02 -2.269372E+04
       363  10  3.844990E+05  1.252833E+05  6.727313E+04  1.127364E+05  1.563525E-09  1.956592E-09
       363  11  3.617137E+05  1.698219E+05  9.174977E+04  8.905078E+04  3.566066E-09  4.080576E-09
       363  12  3.021119E+05  1.710800E+05  9.491078E+04  9.695969E+04  6.253842E-09  3.791755E-09
       363  13 -1.426386E+05 -5.379665E+04 -7.094122E+04 -1.096850E+04  8.100785E-10  1.315369E-09
       363  14 -1.195494E+05 -4.667110E+03 -3.012144E+04 -3.679345E+04 -1.268235E-09 -4.378586E-09
       363  15 -1.350607E+05 -6.069260E+02 -1.768289E+04 -3.101796E+04  2.121013E-09 -2.324258E-09
       363  16 -6.695023E+05 -2.328700E+05 -2.091767E+05 -1.345830E+05 -1.172316E-10 -4.464722E-09
       363  17 -6.005836E+05 -1.791437E+05 -1.520102E+05 -1.625503E+05 -1.999306E-09 -1.157438E-08
       363  18 -5.720459E+05 -1.722762E+05 -1.302923E+05 -1.589121E+05 -3.885007E-09 -7.716411E-09
       363  19  3.845000E+05  1.252839E+05  6.727541E+04  1.127368E+05  2.949502E+04  1.851455E+04
       363  20  3.617143E+05  1.698229E+05  9.175191E+04  8.905118E+04  1.698891E+04  2.916627E+04
       363  21  3.021121E+05  1.710807E+05  9.491224E+04  9.695989E+04  9.632966E+03  2.615759E+04
       363  22 -1.426365E+05 -5.379557E+04 -7.093676E+04 -1.096769E+04  4.269204E+04  2.349059E+04
       363  23 -1.195486E+05 -4.665970E+03 -3.011881E+04 -3.679292E+04  2.129055E+04  3.079044E+04
       363  24 -1.350605E+05 -6.062786E+02 -1.768172E+04 -3.101786E+04  5.040236E+03  2.442492E+04
       363  25 -6.694988E+05 -2.328683E+05 -2.091693E+05 -1.345817E+05  5.587653E+04  2.846298E+04
       363  26 -6.005826E+05 -1.791424E+05 -1.520070E+05 -1.625496E+05  2.558850E+04  3.241332E+04
       363  27 -5.720458E+05 -1.722756E+05 -1.302913E+05 -1.589121E+05  4.510439E+02  2.269372E+04
       364   1  2.744802E+05  1.445721E+05  8.967160E+04  8.346644E+04 -4.056332E+03 -2.090522E+04
       364   2  2.475914E+05  1.296718E+05  8.765743E+04  6.502982E+04 -1.266984E+03 -1.878704E+04
       364   3  2.038351E+05  1.244988E+05  8.197662E+04  6.448777E+04  1.235631E+03 -1.591345E+04
       364   4 -1.328889E+05 -7.028252E+03 -1.422813E+04 -2.705219E+04 -3.689895E+03 -2.076784E+04
       364   5 -1.240822E+05 -9.601646E+03 -7.074214E+03 -3.684475E+04 -4.102059E+02 -1.846416E+04
       364   6 -1.322427E+05 -2.546288E+03 -3.977525E+03 -2.874224E+04  2.582865E+03 -1.540479E+04
       364   7 -5.400980E+05 -1.586192E+05 -1.181418E+05 -1.375061E+05 -3.323717E+03 -2.063055E+04
       364   8 -4.956219E+05 -1.488665E+05 -1.018173E+05 -1.386645E+05  4.460141E+02 -1.814150E+04
       364   9 -4.682105E+05 -1.295836E+05 -8.994090E+04 -1.219265E+05  3.929300E+03 -1.489643E+04
       364  10  2.744801E+05  1.445717E+05  8.967075E+04  8.346637E+04  2.775786E-09  1.067391E-09
       364  11  2.475913E+05  1.296714E+05  8.765677E+04  6.502980E+04 -2.107010E-09  8.708888E-10
       364  12  2.038351E+05  1.244986E+05  8.197614E+04  6.448778E+04 -7.962018E-09  1.244549E-09
       364  13 -1.328890E+05 -7.028719E+03 -1.422896E+04 -2.705226E+04  3.121663E-09 -3.428138E-09
       364  14 -1.240823E+05 -9.602012E+03 -7.074855E+03 -3.684476E+04  1.078981E-09  8.426692E-09
       364  15 -1.322428E+05 -2.546545E+03 -3.977984E+03 -2.874221E+04 -1.994560E-09  2.439173E-09
       364  16 -5.400981E+05 -1.586196E+05 -1.181426E+05 -1.375061E+05  2.822019E-09 -6.814699E-09
       364  17 -4.956220E+05 -1.488668E+05 -1.018179E+05 -1.386645E+05  4.763126E-09 -7.783532E-09
       364  18 -4.682105E+05 -1.295839E+05 -8.994135E+04 -1.219264E+05  7.301364E-09  1.250604E-09
       364  19  2.744802E+05  1.445721E+05  8.967160E+04  8.346644E+04  4.056332E+03  2.090522E+04
       364  20  2.475914E+05  1.296718E+05  8.765743E+04  6.502982E+04  1.266984E+03  1.878704E+04
       364  21  2.038351E+05  1.244988E+05  8.197662E+04  6.448777E+04 -1.235631E+03  1.591345E+04
       364  22 -1.328889E+05 -7.028252E+03 -1.422813E+04 -2.705219E+04  3.689895E+03  2.076784E+04
       364  23 -1.240822E+05 -9.601646E+03 -7.074214E+03 -3.684475E+04  4.102059E+02  1.846416E+04
       364  24 -1.322427E+05 -2.546288E+03 -3.977525E+03 -2.874224E+04 -2.582865E+03  1.540479E+04
       364  25 -5.400980E+05 -1.586192E+05 -1.181418E+05 -1.375061E+05  3.323717E+03  2.063055E+04
       364  26 -4.956219E+05 -1.488665E+05 -1.018173E+05 -1.386645E+05 -4.460141E+02  1.814150E+04
       364  27 -4.682105E+05 -1.295836E+05 -8.994090E+04 -1.219265E+05 -3.929300E+03  1.489643E+04
       365   1  1.682836E+05  1.097537E+05  7.342006E+04  5.424397E+04  1.604068E+03 -1.448460E+04
       365   2  1.408122E+05  8.973183E+04  6.606088E+04  3.621227E+04  1.735963E+03 -1.245614E+04
       365   3  9.835705E+04  8.405776E+04  5.801405E+04  3.500379E+04  1.850534E+03 -1.038464E+04
       365   4 -1.320211E+05 -3.062952E+03 -3.060722E+03 -2.838676E+04  2.719268E+03 -1.406342E+04
       365   5 -1.244951E+05 -1.004131E+04 -1.618616E+03 -3.687028E+04  2.878927E+03 -1.202417E+04
       365   6 -1.319604E+05 -2.677032E+03 -8.864664E+02 -2.853034E+04  3.021305E+03 -9.941838E+03
       365   7 -4.322366E+05 -1.158732E+05 -7.954851E+04 -1.109810E+05  3.833873E+03 -1.364247E+04
       365   8 -3.897337E+05 -1.098098E+05 -6.930383E+04 -1.099246E+05  4.021356E+03 -1.159240E+04
       365   9 -3.622271E+05 -8.940861E+04 -5.979155E+04 -9.204338E+04  4.191604E+03 -9.499215E+03
       365  10  1.682835E+05  1.097534E+05  7.341966E+04  5.424398E+04  2.041766E-09  7.416960E-09
       365  11  1.408122E+05  8.973167E+04  6.606058E+04  3.621229E+04 -3.959838E-09  3.447292E-09
       365  12  9.835701E+04  8.405764E+04  5.801384E+04  3.500381E+04 -6.147888E-09 -2.245459E-09
       365  13 -1.320212E+05 -3.063166E+03 -3.061108E+03 -2.838673E+04 -1.904514E-09  3.604424E-09
       365  14 -1.244951E+05 -1.004147E+04 -1.618904E+03 -3.687025E+04  1.217154E-09 -9.044901E-10
       365  15 -1.319605E+05 -2.677141E+03 -8.866693E+02 -2.853032E+04 -1.138207E-09  6.641858E-10
       365  16 -4.322367E+05 -1.158734E+05 -7.954888E+04 -1.109810E+05 -4.906382E-09  2.700841E-09
       365  17 -3.897338E+05 -1.098099E+05 -6.930411E+04 -1.099245E+05  3.628580E-09 -8.602820E-09
       365  18 -3.622271E+05 -8.940872E+04 -5.979175E+04 -9.204335E+04  4.748079E-09  1.801236E-09
       365  19  1.682836E+05  1.097537E+05  7.342006E+04  5.424397E+04 -1.604068E+03  1.448460E+04
       365  20  1.408122E+05  8.973183E+04  6.606088E+04  3.621227E+04 -1.735963E+03  1.245614E+04
       365  21  9.835705E+04  8.405776E+04  5.801405E+04  3.500379E+04 -1.850534E+03  1.038464E+04
       365  22 -1.320211E+05 -3.062952E+03 -3.060722E+03 -2.838676E+04 -2.719268E+03  1.406342E+04
       365  23 -1.244951E+05 -1.004131E+04 -1.618616E+03 -3.687028E+04 -2.878927E+03  1.202417E+04
       365  24 -1.319604E+05 -2.677032E+03 -8.864664E+02 -2.853034E+04 -3.021305E+03  9.941838E+03
       365  25 -4.322366E+05 -1.158732E+05 -7.954851E+04 -1.109810E+05 -3.833873E+03  1.364247E+04
       365  26 -3.897337E+05 -1.098098E+05 -6.930383E+04 -1.099246E+05 -4.021356E+03  1.159240E+04
       365  27 -3.622271E+05 -8.940861E+04 -5.979155E+04 -9.204338E+04 -4.191604E+03  9.499215E+03
       366   1  6.201788E+04  7.024800E+04  4.869331E+04  2.498292E+04  1.595576E+03 -9.290481E+03
       366   2  3.443770E+04  4.974272E+04  4.021579E+04  6.944674E+03  1.091717E+03 -7.447167E+03
       366   3 -7.976934E+03  4.401665E+04  3.160613E+04  5.674226E+03  5.860905E+02 -5.600749E+03
       366   4 -1.319409E+05 -2.710664E+03 -6.657512E+02 -2.849171E+04  2.754224E+03 -8.852106E+03
       366   5 -1.245181E+05 -1.007877E+04 -3.434544E+02 -3.688285E+04  2.252364E+03 -7.007856E+03
       366   6 -1.319319E+05 -2.668111E+03 -1.549704E+02 -2.850656E+04  1.748746E+03 -5.160496E+03
       366   7 -3.258629E+05 -7.566680E+04 -5.002784E+04 -8.195122E+04  3.912475E+03 -8.413882E+03
       366   8 -2.834490E+05 -6.989846E+04 -4.090466E+04 -8.070014E+04  3.412684E+03 -6.568670E+03
       366   9 -2.558714E+05 -4.935167E+04 -3.191719E+04 -6.268104E+04  2.911143E+03 -4.720340E+03
       366  10  6.201785E+04  7.024791E+04  4.869314E+04  2.498294E+04 -4.334507E-10  3.790700E-09
       366  11  3.443768E+04  4.974266E+04  4.021568E+04  6.944681E+03  1.840104E-09  2.725902E-09
       366  12 -7.976943E+03  4.401661E+04  3.160607E+04  5.674229E+03  2.353262E-09 -1.458878E-09
       366  13 -1.319409E+05 -2.710750E+03 -6.659127E+02 -2.849169E+04 -1.564340E-09  4.143909E-09
       366  14 -1.245182E+05 -1.007882E+04 -3.435563E+02 -3.688284E+04  1.062171E-09  7.997558E-09
       366  15 -1.319319E+05 -2.668141E+03 -1.550262E+02 -2.850655E+04  4.765786E-11  3.088294E-10
       366  16 -3.258629E+05 -7.566688E+04 -5.002800E+04 -8.195119E+04 -1.810997E-09  5.382349E-09
       366  17 -2.834490E+05 -6.989851E+04 -4.090476E+04 -8.070012E+04 -4.094414E-09 -1.327786E-09
       366  18 -2.558714E+05 -4.935169E+04 -3.191725E+04 -6.268103E+04 -4.898720E-09  9.694282E-10
       366  19  6.201788E+04  7.024800E+04  4.869331E+04  2.498292E+04 -1.595576E+03  9.290481E+03
       366  20  3.443770E+04  4.974272E+04  4.021579E+04  6.944674E+03 -1.091717E+03  7.447167E+03
       366  21 -7.976934E+03  4.401665E+04  3.160613E+04  5.674226E+03 -5.860905E+02  5.600749E+03
       366  22 -1.319409E+05 -2.710664E+03 -6.657512E+02 -2.849171E+04 -2.754224E+03  8.852106E+03
       366  23 -1.245181E+05 -1.007877E+04 -3.434544E+02 -3.688285E+04 -2.252364E+03  7.007856E+03
       366  24 -1.319319E+05 -2.668111E+03 -1.549704E+02 -2.850656E+04 -1.748746E+03  5.160496E+03
       366  25 -3.258629E+05 -7.566680E+04 -5.002784E+04 -8.195122E+04 -3.912475E+03  8.413882E+03
       366  26 -2.834490E+05 -6.989846E+04 -4.090466E+04 -8.070014E+04 -3.412684E+03  6.568670E+03
       366  27 -2.558714E+05 -4.935167E+04 -3.191719E+04 -6.268104E+04 -2.911143E+03  4.720340E+03
       367   1 -4.442802E+04  3.025178E+04  2.211079E+04 -4.353229E+03  2.128761E+02 -4.554670E+03
       367   2 -7.203755E+04  9.674536E+03  1.342229E+04 -2.241313E+04 -4.772484E+02 -2.776435E+03
       367   3 -1.144789E+05  3.941464E+03  4.746192E+03 -2.369592E+04 -1.167196E+03 -9.991573E+02
       367   4 -1.319307E+05 -2.667607E+03 -8.978468E+01 -2.849811E+04  1.375548E+03 -4.114330E+03
       367   5 -1.245131E+05 -1.008256E+04  3.032363E+01 -3.688915E+04  6.847961E+02 -2.336272E+03
       367   6 -1.319278E+05 -2.652954E+03  1.635695E+02 -2.850330E+04 -5.781858E+00 -5.591685E+02
       367   7 -2.194263E+05 -3.558661E+04 -2.229106E+04 -5.264000E+04  2.538045E+03 -3.674056E+03
       367   8 -1.769861E+05 -2.983951E+04 -1.336189E+04 -5.136410E+04  1.846735E+03 -1.896149E+03
       367   9 -1.493764E+05 -9.247351E+03 -4.419074E+03 -3.331055E+04  1.155597E+03 -1.191933E+02
       367  10 -4.442802E+04  3.025176E+04  2.211075E+04 -4.353228E+03 -3.104289E-09  7.524780E-10
       367  11 -7.203755E+04  9.674527E+03  1.342228E+04 -2.241313E+04  3.012160E-09  3.411271E-09
       367  12 -1.144789E+05  3.941462E+03  4.746187E+03 -2.369592E+04  1.008595E-08 -2.197699E-09
       367  13 -1.319307E+05 -2.667626E+03 -8.982005E+01 -2.849810E+04 -2.641471E-09  2.295651E-09
       367  14 -1.245131E+05 -1.008257E+04  3.031249E+01 -3.688915E+04 -4.386429E-09  2.831947E-09
       367  15 -1.319278E+05 -2.652954E+03  1.635689E+02 -2.850330E+04  1.073092E-09  4.530893E-09
       367  16 -2.194263E+05 -3.558662E+04 -2.229110E+04 -5.263999E+04 -4.034968E-11  4.528394E-09
       367  17 -1.769861E+05 -2.983952E+04 -1.336191E+04 -5.136410E+04 -3.305826E-09  7.457890E-09
       367  18 -1.493764E+05 -9.247352E+03 -4.419076E+03 -3.331055E+04 -6.605162E-09 -2.739783E-09
       367  19 -4.442802E+04  3.025178E+04  2.211079E+04 -4.353229E+03 -2.128761E+02  4.554670E+03
       367  20 -7.203755E+04  9.674536E+03  1.342229E+04 -2.241313E+04  4.772484E+02  2.776435E+03
       367  21 -1.144789E+05  3.941464E+03  4.746192E+03 -2.369592E+04  1.167196E+03  9.991573E+02
       367  22 -1.319307E+05 -2.667607E+03 -8.978468E+01 -2.849811E+04 -1.375548E+03  4.114330E+03
       367  23 -1.245131E+05 -1.008256E+04  3.032363E+01 -3.688915E+04 -6.847961E+02  2.336272E+03
       367  24 -1.319278E+05 -2.652954E+03  1.635695E+02 -2.850330E+04  5.781858E+00  5.591685E+02
       367  25 -2.194263E+05 -3.558661E+04 -2.229106E+04 -5.264000E+04 -2.538045E+03  3.674056E+03
       367  26 -1.769861E+05 -2.983951E+04 -1.336189E+04 -5.136410E+04 -1.846735E+03  1.896149E+03
       367  27 -1.493764E+05 -9.247351E+03 -4.419074E+03 -3.331055E+04 -1.155597E+03  1.191933E+02
       368   1 -1.509502E+05 -9.829894E+03 -4.739748E+03 -3.371098E+04 -1.602904E+03  2.712761E+01
       368   2 -1.785742E+05 -3.043868E+04 -1.331326E+04 -5.179132E+04 -2.502145E+03  1.723760E+03
       368   3 -2.209537E+05 -3.608067E+04 -2.168482E+04 -5.311752E+04 -3.391538E+03  3.395050E+03
       368   4 -1.319159E+05 -2.664953E+03  2.427323E+02 -2.849338E+04 -4.338406E+02  4.700121E+02
       368   5 -1.245323E+05 -1.009737E+04  4.788359E+02 -3.689027E+04 -1.349677E+03  2.160291E+03
       368   6 -1.319019E+05 -2.559922E+03  9.301368E+02 -2.853364E+04 -2.255682E+03  3.825231E+03
       368   7 -1.128812E+05  4.499985E+03  5.225168E+03 -2.327566E+04  7.352574E+02  9.129097E+02
       368   8 -7.048744E+04  1.024414E+04  1.427070E+04 -2.198804E+04 -1.970986E+02  2.596864E+03
       368   9 -4.284191E+04  3.096149E+04  2.354455E+04 -3.946482E+03 -1.119644E+03  4.255482E+03
       368  10 -1.509502E+05 -9.829894E+03 -4.739753E+03 -3.371098E+04 -4.304536E-09 -1.886984E-09
       368  11 -1.785743E+05 -3.043868E+04 -1.331328E+04 -5.179132E+04 -1.858849E-09 -8.973103E-10
       368  12 -2.209537E+05 -3.608069E+04 -2.168486E+04 -5.311751E+04 -5.844998E-10 -4.528105E-09
       368  13 -1.319159E+05 -2.664953E+03  2.427315E+02 -2.849338E+04  9.939907E-10  5.281065E-09
       368  14 -1.245323E+05 -1.009737E+04  4.788237E+02 -3.689027E+04 -5.303329E-10 -1.696684E-09
       368  15 -1.319019E+05 -2.559939E+03  9.300997E+02 -2.853364E+04  1.213926E-09 -3.851837E-09
       368  16 -1.128812E+05  4.499984E+03  5.225165E+03 -2.327566E+04  1.018471E-08 -5.192501E-10
       368  17 -7.048744E+04  1.024413E+04  1.427069E+04 -2.198804E+04  6.545458E-09  2.175034E-09
       368  18 -4.284192E+04  3.096147E+04  2.354451E+04 -3.946479E+03  3.181573E-09 -6.318678E-09
       368  19 -1.509502E+05 -9.829894E+03 -4.739748E+03 -3.371098E+04  1.602904E+03 -2.712761E+01
       368  20 -1.785742E+05 -3.043868E+04 -1.331326E+04 -5.179132E+04  2.502145E+03 -1.723760E+03
       368  21 -2.209537E+05 -3.608067E+04 -2.168482E+04 -5.311752E+04  3.391538E+03 -3.395050E+03
       368  22 -1.319159E+05 -2.664953E+03  2.427323E+02 -2.849338E+04  4.338406E+02 -4.700121E+02
       368  23 -1.245323E+05 -1.009737E+04  4.788359E+02 -3.689027E+04  1.349677E+03 -2.160291E+03
       368  24 -1.319019E+05 -2.559922E+03  9.301368E+02 -2.853364E+04  2.255682E+03 -3.825231E+03
       368  25 -1.128812E+05  4.499985E+03  5.225168E+03 -2.327566E+04 -7.352574E+02 -9.129097E+02
       368  26 -7.048744E+04  1.024414E+04  1.427070E+04 -2.198804E+04  1.970986E+02 -2.596864E+03
       368  27 -4.284191E+04  3.096149E+04  2.354455E+04 -3.946482E+03  1.119644E+03 -4.255482E+03
       369   1 -2.574909E+05 -4.983645E+04 -3.093341E+04 -6.285915E+04 -4.118656E+03  4.372420E+03
       369   2 -2.850990E+05 -7.071914E+04 -3.880575E+04 -8.121601E+04 -5.587225E+03  5.795768E+03
       369   3 -3.268162E+05 -7.528883E+04 -4.565698E+04 -8.318275E+04 -6.882776E+03  6.763848E+03
       369   4 -1.318165E+05 -2.726370E+03  1.216664E+03 -2.843456E+04 -2.842629E+03  4.855610E+03
       369   5 -1.246953E+05 -1.023728E+04  2.161998E+03 -3.688521E+04 -4.608165E+03  6.166316E+03
       369   6 -1.316256E+05 -1.376980E+03  4.363808E+03 -2.894655E+04 -6.200752E+03  7.021798E+03
       369   7 -6.126752E+03  4.438471E+04  3.336545E+04  5.996311E+03 -1.566320E+03  5.338907E+03
       369   8  3.573317E+04  5.024619E+04  4.312757E+04  7.455874E+03 -3.628830E+03  6.536968E+03
       369   9  6.360127E+04  7.253723E+04  5.438127E+04  2.530493E+04 -5.518495E+03  7.279837E+03
       369  10 -2.574909E+05 -4.983647E+04 -3.093348E+04 -6.285913E+04 -1.350540E-09 -2.974791E-09
       369  11 -2.850990E+05 -7.071919E+04 -3.880588E+04 -8.121598E+04 -9.327031E-10 -1.182130E-09
       369  12 -3.268162E+05 -7.528889E+04 -4.565715E+04 -8.318271E+04  1.465001E-10 -3.943806E-09
       369  13 -1.318165E+05 -2.726398E+03  1.216605E+03 -2.843455E+04  4.191798E-10 -2.176272E-09
       369  14 -1.246953E+05 -1.023733E+04  2.161887E+03 -3.688519E+04  8.488583E-10 -6.020923E-09
       369  15 -1.316257E+05 -1.377043E+03  4.363643E+03 -2.894651E+04  6.640220E-10 -9.830475E-09
       369  16 -6.126762E+03  4.438468E+04  3.336539E+04  5.996317E+03  2.439633E-09 -3.074225E-09
       369  17  3.573315E+04  5.024614E+04  4.312746E+04  7.455893E+03  3.969575E-09  5.126841E-09
       369  18  6.360123E+04  7.253716E+04  5.438111E+04  2.530496E+04  8.252359E-10 -2.152703E-11
       369  19 -2.574909E+05 -4.983645E+04 -3.093341E+04 -6.285915E+04  4.118656E+03 -4.372420E+03
       369  20 -2.850990E+05 -7.071914E+04 -3.880575E+04 -8.121601E+04  5.587225E+03 -5.795768E+03
       369  21 -3.268162E+05 -7.528883E+04 -4.565698E+04 -8.318275E+04  6.882776E+03 -6.763848E+03
       369  22 -1.318165E+05 -2.726370E+03  1.216664E+03 -2.843456E+04  2.842629E+03 -4.855610E+03
       369  23 -1.246953E+05 -1.023728E+04  2.161998E+03 -3.688521E+04  4.608165E+03 -6.166316E+03
       369  24 -1.316256E+05 -1.376980E+03  4.363808E+03 -2.894655E+04  6.200752E+03 -7.021798E+03
       369  25 -6.126752E+03  4.438471E+04  3.336545E+04  5.996311E+03  1.566320E+03 -5.338907E+03
       369  26  3.573317E+04  5.024619E+04  4.312757E+04  7.455874E+03  3.628830E+03 -6.536968E+03
       369  27  6.360127E+04  7.253723E+04  5.438127E+04  2.530493E+04  5.518495E+03 -7.279837E+03
       370   1 -3.645616E+05 -8.899956E+04 -5.366208E+04 -8.982919E+04 -1.095339E+04  7.599820E+03
       370   2 -3.913822E+05 -1.133521E+05 -5.898803E+04 -1.117494E+05 -1.089884E+04  8.580470E+03
       370   3 -4.262300E+05 -1.059542E+05 -5.983468E+04 -1.218853E+05 -7.725174E+03  1.313680E+03
       370   4 -1.308718E+05 -3.425718E+03  5.427526E+03 -2.781480E+04 -7.721844E+03  8.822572E+03
       370   5 -1.262250E+05 -1.168239E+04  9.227902E+03 -3.678995E+04 -1.304048E+04  7.769827E+03
       370   6 -1.285430E+05  1.287236E+04  2.176783E+04 -3.398039E+04 -1.524079E+04 -1.528639E+03
       370   7  1.028725E+05  8.215152E+04  6.451317E+04  3.422076E+04 -4.488948E+03  1.004581E+04
       370   8  1.390004E+05  8.999261E+04  7.743797E+04  3.819867E+04 -1.518312E+04  6.958791E+03
       370   9  1.692272E+05  1.317061E+05  1.033618E+05  5.396283E+04 -2.276031E+04 -4.372623E+03
       370  10 -3.645618E+05 -8.899965E+04 -5.366241E+04 -8.982912E+04  1.336391E-09 -7.427614E-09
       370  11 -3.913823E+05 -1.133522E+05 -5.898840E+04 -1.117493E+05 -6.683022E-10 -4.037744E-10
       370  12 -4.262301E+05 -1.059543E+05 -5.983479E+04 -1.218853E+05  2.178614E-09 -1.673166E-09
       370  13 -1.308719E+05 -3.425817E+03  5.427267E+03 -2.781474E+04 -2.728631E-09 -2.093987E-09
       370  14 -1.262252E+05 -1.168250E+04  9.227469E+03 -3.678987E+04  1.289112E-09  5.872116E-09
       370  15 -1.285433E+05  1.287229E+04  2.176739E+04 -3.398041E+04 -3.960556E-09  8.172104E-09
       370  16  1.028725E+05  8.215140E+04  6.451294E+04  3.422080E+04 -2.259094E-09 -6.663292E-09
       370  17  1.390002E+05  8.999250E+04  7.743745E+04  3.819875E+04 -2.953893E-09  1.420205E-08
       370  18  1.692266E+05  1.317060E+05  1.033608E+05  5.396275E+04 -2.005584E-09  4.814132E-09
       370  19 -3.645616E+05 -8.899956E+04 -5.366208E+04 -8.982919E+04  1.095339E+04 -7.599820E+03
       370  20 -3.913822E+05 -1.133521E+05 -5.898803E+04 -1.117494E+05  1.089884E+04 -8.580470E+03
       370  21 -4.262300E+05 -1.059542E+05 -5.983468E+04 -1.218853E+05  7.725174E+03 -1.313680E+03
       370  22 -1.308718E+05 -3.425718E+03  5.427526E+03 -2.781480E+04  7.721844E+03 -8.822572E+03
       370  23 -1.262250E+05 -1.168239E+04  9.227902E+03 -3.678995E+04  1.304048E+04 -7.769827E+03
       370  24 -1.285430E+05  1.287236E+04  2.176783E+04 -3.398039E+04  1.524079E+04  1.528639E+03
       370  25  1.028725E+05  8.215152E+04  6.451317E+04  3.422076E+04  4.488948E+03 -1.004581E+04
       370  26  1.390004E+05  8.999261E+04  7.743797E+04  3.819867E+04  1.518312E+04 -6.958791E+03
       370  27  1.692272E+05  1.317061E+05  1.033618E+05  5.396283E+04  2.276031E+04  4.372623E+03
       371   1  6.024845E+04  4.146334E+04  2.188135E+04 -8.446621E+03 -5.172020E+04 -5.704840E+03
       371   2  3.252972E+04  1.119122E+05  5.836791E+04  1.737110E+03 -3.763076E+04 -1.719408E+04
       371   3 -1.740984E+04  1.009572E+05  6.534900E+04  3.257350E+04 -2.357662E+04 -1.693282E+04
       371   4 -4.098434E+05 -7.536708E+04 -9.310295E+04  2.076429E+04 -6.380096E+04 -5.742494E+03
       371   5 -3.980025E+05  5.876756E+03 -4.153367E+04  1.031832E+04 -4.154738E+04 -1.720748E+04
       371   6 -4.098192E+05  4.266699E+03 -2.515745E+04  2.052663E+04 -1.932786E+04 -1.691928E+04
       371   7 -8.797317E+05 -1.922105E+05 -2.081024E+05  4.995288E+04 -7.587258E+04 -5.781299E+03
       371   8 -8.283632E+05 -1.001714E+05 -1.414476E+05  1.889341E+04 -4.546130E+04 -1.722100E+04
       371   9 -8.020858E+05 -9.243409E+04 -1.156740E+05  8.487307E+03 -1.508177E+04 -1.690590E+04
       371  10  6.024557E+04  4.146258E+04  2.187626E+04 -8.446858E+03 -4.340206E-09  3.793603E-09
       371  11  3.252812E+04  1.119115E+05  5.836469E+04  1.736589E+03 -1.249096E-09  9.677387E-09
       371  12 -1.741052E+04  1.009568E+05  6.534742E+04  3.257318E+04  4.742934E-09  5.205143E-09
       371  13 -4.098478E+05 -7.536821E+04 -9.311066E+04  2.076399E+04 -2.522725E-10 -3.795430E-09
       371  14 -3.980044E+05  5.875974E+03 -4.153747E+04  1.031775E+04 -8.995187E-11 -9.963088E-09
       371  15 -4.098197E+05  4.266292E+03 -2.515869E+04  2.052636E+04 -1.796996E-09  1.379917E-09
       371  16 -8.797379E+05 -1.922120E+05 -2.081132E+05  4.995253E+04  5.352061E-09  1.114776E-10
       371  17 -8.283655E+05 -1.001723E+05 -1.414520E+05  1.889278E+04 -1.066196E-09  9.055172E-09
       371  18 -8.020861E+05 -9.243446E+04 -1.156750E+05  8.487102E+03 -4.324192E-09 -1.426312E-09
       371  19  6.024845E+04  4.146334E+04  2.188135E+04 -8.446621E+03  5.172020E+04  5.704840E+03
       371  20  3.252972E+04  1.119122E+05  5.836791E+04  1.737110E+03  3.763076E+04  1.719408E+04
       371  21 -1.740984E+04  1.009572E+05  6.534900E+04  3.257350E+04  2.357662E+04  1.693282E+04
       371  22 -4.098434E+05 -7.536708E+04 -9.310295E+04  2.076429E+04  6.380096E+04  5.742494E+03
       371  23 -3.980025E+05  5.876756E+03 -4.153367E+04  1.031832E+04  4.154738E+04  1.720748E+04
       371  24 -4.098192E+05  4.266699E+03 -2.515745E+04  2.052663E+04  1.932786E+04  1.691928E+04
       371  25 -8.797317E+05 -1.922105E+05 -2.081024E+05  4.995288E+04  7.587258E+04  5.781299E+03
       371  26 -8.283632E+05 -1.001714E+05 -1.414476E+05  1.889341E+04  4.546130E+04  1.722100E+04
       371  27 -8.020858E+05 -9.243409E+04 -1.156740E+05  8.487307E+03  1.508177E+04  1.690590E+04
       372   1 -5.097565E+04  8.148137E+04  6.175954E+04  1.963120E+04 -1.622976E+04 -1.440317E+04
       372   2 -8.877327E+04  7.818758E+04  6.215557E+04  1.047757E+04 -1.124190E+04 -1.318863E+04
       372   3 -1.289346E+05  6.852260E+04  5.768559E+04  2.242895E+04 -6.257333E+03 -1.136774E+04
       372   4 -4.051005E+05 -5.757940E+03 -2.028926E+04  2.071026E+04 -1.560118E+04 -1.440167E+04
       372   5 -4.038762E+05  5.837703E+02 -1.068262E+04  1.014666E+04 -1.019415E+04 -1.318545E+04
       372   6 -4.050919E+05  4.794018E+02 -6.235411E+03  2.068885E+04 -4.790113E+03 -1.136275E+04
       372   7 -7.591095E+05 -9.300607E+04 -1.023465E+05  2.178859E+04 -1.497295E+04 -1.440018E+04
       372   8 -7.188873E+05 -7.702701E+04 -8.352744E+04  9.815831E+03 -9.146924E+03 -1.318227E+04
       372   9 -6.811787E+05 -6.756915E+04 -7.016151E+04  1.894946E+04 -3.323540E+03 -1.135776E+04
       372  10 -5.097599E+04  8.148108E+04  6.175865E+04  1.963102E+04 -7.323757E-10 -7.138120E-10
       372  11 -8.877345E+04  7.818736E+04  6.215501E+04  1.047745E+04 -1.977273E-09  7.006974E-09
       372  12 -1.289346E+05  6.852245E+04  5.768528E+04  2.242890E+04  4.279557E-09  1.447852E-08
       372  13 -4.051008E+05 -5.758229E+03 -2.029011E+04  2.071007E+04  2.083060E-10  1.158421E-08
       372  14 -4.038763E+05  5.835557E+02 -1.068314E+04  1.014655E+04  1.291874E-09 -1.813957E-08
       372  15 -4.050920E+05  4.792570E+02 -6.235697E+03  2.068881E+04 -2.343061E-09  9.519865E-09
       372  16 -7.591098E+05 -9.300635E+04 -1.023473E+05  2.178841E+04  2.366741E-09 -8.502625E-09
       372  17 -7.188874E+05 -7.702722E+04 -8.352792E+04  9.815734E+03  5.842168E-10 -3.428374E-09
       372  18 -6.811788E+05 -6.756929E+04 -7.016177E+04  1.894943E+04 -3.883328E-09 -2.299285E-09
       372  19 -5.097565E+04  8.148137E+04  6.175954E+04  1.963120E+04  1.622976E+04  1.440317E+04
       372  20 -8.877327E+04  7.818758E+04  6.215557E+04  1.047757E+04  1.124190E+04  1.318863E+04
       372  21 -1.289346E+05  6.852260E+04  5.768559E+04  2.242895E+04  6.257333E+03  1.136774E+04
       372  22 -4.051005E+05 -5.757940E+03 -2.028926E+04  2.071026E+04  1.560118E+04  1.440167E+04
       372  23 -4.038762E+05  5.837703E+02 -1.068262E+04  1.014666E+04  1.019415E+04  1.318545E+04
       372  24 -4.050919E+05  4.794018E+02 -6.235411E+03  2.068885E+04  4.790113E+03  1.136275E+04
       372  25 -7.591095E+05 -9.300607E+04 -1.023465E+05  2.178859E+04  1.497295E+04  1.440018E+04
       372  26 -7.188873E+05 -7.702701E+04 -8.352744E+04  9.815831E+03  9.146924E+03  1.318227E+04
       372  27 -6.811787E+05 -6.756915E+04 -7.016151E+04  1.894946E+04  3.323540E+03  1.135776E+04
       373   1 -1.669916E+05  5.822095E+04  4.999698E+04  2.134021E+04 -5.106066E+03 -1.018975E+04
       373   2 -2.059943E+05  4.900482E+04  4.315374E+04  1.068803E+04 -3.789690E+03 -8.323337E+03
       373   3 -2.454339E+05  3.942873E+04  3.532395E+04  2.129570E+04 -2.474112E+03 -6.422744E+03
       373   4 -4.046432E+05 -2.910767E+02 -4.826216E+03  2.073060E+04 -3.821662E+03 -1.018527E+04
       373   5 -4.044199E+05  1.321029E+02 -2.704745E+03  1.009956E+04 -2.481997E+03 -8.318584E+03
       373   6 -4.046387E+05  1.913802E+02 -1.586091E+03  2.072878E+04 -1.143046E+03 -6.417705E+03
       373   7 -6.422425E+05 -5.880706E+04 -5.965316E+04  2.012118E+04 -2.537745E+03 -1.018079E+04
       373   8 -6.028091E+05 -4.874338E+04 -4.856585E+04  9.511238E+03 -1.174718E+03 -8.313833E+03
       373   9 -5.638200E+05 -3.904776E+04 -3.849783E+04  2.016198E+04  1.876808E+02 -6.412668E+03
       373  10 -1.669916E+05  5.822083E+04  4.999673E+04  2.134017E+04 -1.576928E-09 -2.458209E-09
       373  11 -2.059943E+05  4.900474E+04  4.315358E+04  1.068801E+04 -2.083807E-09 -7.311976E-09
       373  12 -2.454340E+05  3.942869E+04  3.532387E+04  2.129569E+04  3.374919E-09 -3.512198E-09
       373  13 -4.046432E+05 -2.911920E+02 -4.826439E+03  2.073057E+04 -3.527982E-11 -1.643118E-09
       373  14 -4.044199E+05  1.320269E+02 -2.704886E+03  1.009954E+04  3.328264E-10 -6.141689E-09
       373  15 -4.046387E+05  1.913356E+02 -1.586171E+03  2.072877E+04 -7.964373E-10 -1.511142E-09
       373  16 -6.422425E+05 -5.880717E+04 -5.965337E+04  2.012116E+04  2.030829E-09 -9.996798E-09
       373  17 -6.028091E+05 -4.874345E+04 -4.856598E+04  9.511230E+03  2.603072E-10  3.213386E-09
       373  18 -5.638200E+05 -3.904780E+04 -3.849791E+04  2.016198E+04 -2.879913E-09  9.680819E-09
       373  19 -1.669916E+05  5.822095E+04  4.999698E+04  2.134021E+04  5.106066E+03  1.018975E+04
       373  20 -2.059943E+05  4.900482E+04  4.315374E+04  1.068803E+04  3.789690E+03  8.323337E+03
       373  21 -2.454339E+05  3.942873E+04  3.532395E+04  2.129570E+04  2.474112E+03  6.422744E+03
       373  22 -4.046432E+05 -2.910767E+02 -4.826216E+03  2.073060E+04  3.821662E+03  1.018527E+04
       373  23 -4.044199E+05  1.321029E+02 -2.704745E+03  1.009956E+04  2.481997E+03  8.318584E+03
       373  24 -4.046387E+05  1.913802E+02 -1.586091E+03  2.072878E+04  1.143046E+03  6.417705E+03
       373  25 -6.422425E+05 -5.880706E+04 -5.965316E+04  2.012118E+04  2.537745E+03  1.018079E+04
       373  26 -6.028091E+05 -4.874338E+04 -4.856585E+04  9.511238E+03  1.174718E+03  8.313833E+03
       373  27 -5.638200E+05 -3.904776E+04 -3.849783E+04  2.016198E+04 -1.876808E+02  6.412668E+03
       374   1 -2.840812E+05  2.979576E+04  2.650236E+04  2.112034E+04 -2.217100E+03 -5.310569E+03
       374   2 -3.233308E+05  2.008146E+04  1.798814E+04  1.033301E+04 -1.847051E+03 -3.406268E+03
       374   3 -3.628018E+05  1.048898E+04  9.217617E+03  2.088116E+04 -1.477288E+03 -1.499089E+03
       374   4 -4.045873E+05  1.363766E+02 -1.233586E+03  2.074615E+04 -8.941030E+02 -5.305473E+03
       374   5 -4.044748E+05  9.399230E+01 -7.661516E+02  1.007824E+04 -5.221535E+02 -3.401089E+03
       374   6 -4.045856E+05  1.731940E+02 -5.563174E+02  2.074599E+04 -1.504667E+02 -1.493819E+03
       374   7 -5.250801E+05 -2.952402E+04 -2.897049E+04  2.037201E+04  4.286395E+02 -5.300378E+03
       374   8 -4.856128E+05 -1.989393E+04 -1.952088E+04  9.823505E+03  8.025722E+02 -3.395910E+03
       374   9 -4.463677E+05 -1.014272E+04 -1.033036E+04  2.061083E+04  1.176266E+03 -1.488550E+03
       374  10 -2.840812E+05  2.979573E+04  2.650230E+04  2.112033E+04  4.151470E-09 -4.432076E-09
       374  11 -3.233308E+05  2.008144E+04  1.798811E+04  1.033300E+04 -7.969657E-09  2.969209E-09
       374  12 -3.628018E+05  1.048898E+04  9.217608E+03  2.088116E+04 -7.672012E-09  1.687406E-09
       374  13 -4.045873E+05  1.363462E+02 -1.233640E+03  2.074615E+04  5.015429E-10  4.109098E-09
       374  14 -4.044749E+05  9.397980E+01 -7.661738E+02  1.007824E+04  2.748651E-10 -8.864442E-09
       374  15 -4.045856E+05  1.731916E+02 -5.563216E+02  2.074599E+04 -1.072381E-09 -3.471185E-09
       374  16 -5.250801E+05 -2.952405E+04 -2.897054E+04  2.037202E+04 -1.992434E-09  5.267634E-09
       374  17 -4.856128E+05 -1.989395E+04 -1.952090E+04  9.823507E+03  4.982343E-09  1.321485E-08
       374  18 -4.463677E+05 -1.014272E+04 -1.033037E+04  2.061083E+04  8.592531E-09  4.193824E-09
       374  19 -2.840812E+05  2.979576E+04  2.650236E+04  2.112034E+04  2.217100E+03  5.310569E+03
       374  20 -3.233308E+05  2.008146E+04  1.798814E+04  1.033301E+04  1.847051E+03  3.406268E+03
       374  21 -3.628018E+05  1.048898E+04  9.217617E+03  2.088116E+04  1.477288E+03  1.499089E+03
       374  22 -4.045873E+05  1.363766E+02 -1.233586E+03  2.074615E+04  8.941030E+02  5.305473E+03
       374  23 -4.044748E+05  9.399230E+01 -7.661516E+02  1.007824E+04  5.221535E+02  3.401089E+03
       374  24 -4.045856E+05  1.731940E+02 -5.563174E+02  2.074599E+04  1.504667E+02  1.493819E+03
       374  25 -5.250801E+05 -2.952402E+04 -2.897049E+04  2.037201E+04 -4.286395E+02  5.300378E+03
       374  26 -4.856128E+05 -1.989393E+04 -1.952088E+04  9.823505E+03 -8.025722E+02  3.395910E+03
       374  27 -4.463677E+05 -1.014272E+04 -1.033036E+04  2.061083E+04 -1.176266E+03  1.488550E+03
       375   1 -4.015739E+05  8.898537E+02  5.962609E+01  2.075688E+04 -1.384677E+03 -3.884550E+02
       375   2 -4.408492E+05 -8.866856E+03 -8.971321E+03  9.961142E+03 -1.111525E+03  1.519200E+03
       375   3 -4.803335E+05 -1.848604E+04 -1.819260E+04  2.051369E+04 -8.382749E+02  3.424881E+03
       375   4 -4.045824E+05  1.720540E+02 -5.193340E+02  2.074880E+04 -5.770007E+01 -3.831706E+02
       375   5 -4.044774E+05  9.290784E+01 -5.643267E+02  1.007474E+04  2.140406E+02  1.524440E+03
       375   6 -4.045832E+05  1.514910E+02 -7.987477E+02  2.074888E+04  4.858976E+02  3.430083E+03
       375   7 -4.075909E+05 -5.457452E+02 -1.098288E+03  2.074071E+04  1.269270E+03 -3.778862E+02
       375   8 -3.681044E+05  9.052580E+03  7.842586E+03  1.018834E+04  1.539683E+03  1.529681E+03
       375   9 -3.288275E+05  1.878862E+04  1.659474E+04  2.098409E+04  1.810230E+03  3.435286E+03
       375  10 -4.015739E+05  8.898530E+02  5.962220E+01  2.075688E+04 -3.210159E-09  8.572523E-10
       375  11 -4.408492E+05 -8.866859E+03 -8.971328E+03  9.961144E+03 -4.576271E-09 -6.544641E-09
       375  12 -4.803335E+05 -1.848605E+04 -1.819263E+04  2.051369E+04 -5.543000E-09  1.039161E-09
       375  13 -4.045824E+05  1.720539E+02 -5.193343E+02  2.074880E+04  2.346054E-10  1.044243E-08
       375  14 -4.044774E+05  9.290533E+01 -5.643311E+02  1.007474E+04  2.582278E-10 -1.281060E-09
       375  15 -4.045832E+05  1.514783E+02 -7.987702E+02  2.074887E+04 -6.409794E-10 -2.807568E-09
       375  16 -4.075909E+05 -5.457458E+02 -1.098291E+03  2.074071E+04  3.869386E-09  2.464471E-10
       375  17 -3.681044E+05  9.052577E+03  7.842577E+03  1.018834E+04  4.014629E-09 -1.301349E-08
       375  18 -3.288275E+05  1.878860E+04  1.659471E+04  2.098408E+04  6.729185E-09 -1.019038E-08
       375  19 -4.015739E+05  8.898537E+02  5.962609E+01  2.075688E+04  1.384677E+03  3.884550E+02
       375  20 -4.408492E+05 -8.866856E+03 -8.971321E+03  9.961142E+03  1.111525E+03 -1.519200E+03
       375  21 -4.803335E+05 -1.848604E+04 -1.819260E+04  2.051369E+04  8.382749E+02 -3.424881E+03
       375  22 -4.045824E+05  1.720540E+02 -5.193340E+02  2.074880E+04  5.770007E+01  3.831706E+02
       375  23 -4.044774E+05  9.290784E+01 -5.643267E+02  1.007474E+04 -2.140406E+02 -1.524440E+03
       375  24 -4.045832E+05  1.514910E+02 -7.987477E+02  2.074888E+04 -4.858976E+02 -3.430083E+03
       375  25 -4.075909E+05 -5.457452E+02 -1.098288E+03  2.074071E+04 -1.269270E+03  3.778862E+02
       375  26 -3.681044E+05  9.052580E+03  7.842586E+03  1.018834E+04 -1.539683E+03 -1.529681E+03
       375  27 -3.288275E+05  1.878862E+04  1.659474E+04  2.098409E+04 -1.810230E+03 -3.435286E+03
       376   1 -5.190978E+05 -2.804247E+04 -2.757402E+04  2.033762E+04 -6.890997E+02  4.537772E+03
       376   2 -5.582108E+05 -3.776647E+04 -3.718845E+04  9.631108E+03  1.428622E+02  6.440330E+03
       376   3 -5.976604E+05 -4.764561E+04 -4.742652E+04  2.021826E+04  9.753735E+02  8.312267E+03
       376   4 -4.046123E+05  1.845712E+02 -9.946757E+02  2.073631E+04  6.426628E+02  4.542943E+03
       376   5 -4.044472E+05  1.140231E+02 -1.644141E+03  1.009020E+04  1.453482E+03  6.445266E+03
       376   6 -4.046157E+05 -1.076704E+02 -2.902196E+03  2.073743E+04  2.264903E+03  8.316977E+03
       376   7 -2.901147E+05  2.841069E+04  2.558379E+04  2.113505E+04  1.974669E+03  4.548116E+03
       376   8 -2.506617E+05  3.799286E+04  3.389860E+04  1.054939E+04  2.764424E+03  6.450204E+03
       376   9 -2.115366E+05  4.742766E+04  4.161966E+04  2.125674E+04  3.554830E+03  8.321690E+03
       376  10 -5.190978E+05 -2.804249E+04 -2.757406E+04  2.033763E+04 -3.303900E-09  2.217188E-09
       376  11 -5.582108E+05 -3.776652E+04 -3.718853E+04  9.631107E+03 -1.096501E-09 -1.244482E-08
       376  12 -5.976604E+05 -4.764569E+04 -4.742666E+04  2.021825E+04  4.543550E-09 -3.112014E-09
       376  13 -4.046123E+05  1.845489E+02 -9.947152E+02  2.073630E+04 -5.343936E-10  2.215315E-09
       376  14 -4.044472E+05  1.139779E+02 -1.644223E+03  1.009019E+04  1.029755E-09  2.705172E-09
       376  15 -4.046158E+05 -1.077460E+02 -2.902336E+03  2.073742E+04 -1.078875E-09 -1.032330E-10
       376  16 -2.901147E+05  2.841066E+04  2.558374E+04  2.113504E+04  3.603868E-09  4.032428E-09
       376  17 -2.506617E+05  3.799281E+04  3.389850E+04  1.054937E+04 -6.533989E-10 -9.308410E-09
       376  18 -2.115366E+05  4.742758E+04  4.161951E+04  2.125671E+04 -3.403363E-09  7.623458E-09
       376  19 -5.190978E+05 -2.804247E+04 -2.757402E+04  2.033762E+04  6.890997E+02 -4.537772E+03
       376  20 -5.582108E+05 -3.776647E+04 -3.718845E+04  9.631108E+03 -1.428622E+02 -6.440330E+03
       376  21 -5.976604E+05 -4.764561E+04 -4.742652E+04  2.021826E+04 -9.753735E+02 -8.312267E+03
       376  22 -4.046123E+05  1.845712E+02 -9.946757E+02  2.073631E+04 -6.426628E+02 -4.542943E+03
       376  23 -4.044472E+05  1.140231E+02 -1.644141E+03  1.009020E+04 -1.453482E+03 -6.445266E+03
       376  24 -4.046157E+05 -1.076704E+02 -2.902196E+03  2.073743E+04 -2.264903E+03 -8.316977E+03
       376  25 -2.901147E+05  2.841069E+04  2.558379E+04  2.113505E+04 -1.974669E+03 -4.548116E+03
       376  26 -2.506617E+05  3.799286E+04  3.389860E+04  1.054939E+04 -2.764424E+03 -6.450204E+03
       376  27 -2.115366E+05  4.742766E+04  4.161966E+04  2.125674E+04 -3.554830E+03 -8.321690E+03
       377   1 -6.365065E+05 -5.673630E+04 -5.738792E+04  1.946432E+04  1.388796E+03  9.484084E+03
       377   2 -6.747896E+05 -6.630433E+04 -6.898662E+04  9.689546E+03  5.004510E+03  1.131416E+04
       377   3 -7.146546E+05 -7.973081E+04 -8.393901E+04  2.108281E+04  8.622705E+03  1.259275E+04
       377   4 -4.048825E+05  3.534810E+02 -3.740935E+03  2.070487E+04  2.844673E+03  9.489283E+03
       377   5 -4.041279E+05  3.796123E+02 -6.397761E+03  1.012777E+04  6.078133E+03  1.131769E+04
       377   6 -4.048893E+05 -3.385151E+03 -1.214150E+04  2.071820E+04  9.314297E+03  1.259472E+04
       377   7 -1.732088E+05  5.743949E+04  4.990246E+04  2.194584E+04  4.301090E+03  9.494487E+03
       377   8 -1.333984E+05  6.705841E+04  5.618621E+04  1.056613E+04  7.152220E+03  1.132123E+04
       377   9 -9.503534E+04  7.295376E+04  5.964959E+04  2.035332E+04  1.000623E+04  1.259670E+04
       377  10 -6.365065E+05 -5.673639E+04 -5.738809E+04  1.946431E+04  3.071285E-09  1.149400E-09
       377  11 -6.747897E+05 -6.630447E+04 -6.898691E+04  9.689500E+03 -5.927817E-09  8.405690E-09
       377  12 -7.146547E+05 -7.973100E+04 -8.393945E+04  2.108272E+04  5.858432E-10  1.417693E-09
       377  13 -4.048825E+05  3.533821E+02 -3.741120E+03  2.070485E+04 -2.469761E-10 -1.091320E-08
       377  14 -4.041280E+05  3.794648E+02 -6.398071E+03  1.012772E+04  2.469155E-10  6.573480E-09
       377  15 -4.048895E+05 -3.385345E+03 -1.214196E+04  2.071810E+04 -1.242889E-09  6.157192E-09
       377  16 -1.732088E+05  5.743939E+04  4.990226E+04  2.194581E+04 -2.778243E-09 -5.837778E-10
       377  17 -1.333984E+05  6.705825E+04  5.618587E+04  1.056607E+04  3.552484E-09 -1.958036E-08
       377  18 -9.503549E+04  7.295356E+04  5.964910E+04  2.035322E+04  1.699148E-09 -2.000809E-11
       377  19 -6.365065E+05 -5.673630E+04 -5.738792E+04  1.946432E+04 -1.388796E+03 -9.484084E+03
       377  20 -6.747896E+05 -6.630433E+04 -6.898662E+04  9.689546E+03 -5.004510E+03 -1.131416E+04
       377  21 -7.146546E+05 -7.973081E+04 -8.393901E+04  2.108281E+04 -8.622705E+03 -1.259275E+04
       377  22 -4.048825E+05  3.534810E+02 -3.740935E+03  2.070487E+04 -2.844673E+03 -9.489283E+03
       377  23 -4.041279E+05  3.796123E+02 -6.397761E+03  1.012777E+04 -6.078133E+03 -1.131769E+04
       377  24 -4.048893E+05 -3.385151E+03 -1.214150E+04  2.071820E+04 -9.314297E+03 -1.259472E+04
       377  25 -1.732088E+05  5.743949E+04  4.990246E+04  2.194584E+04 -4.301090E+03 -9.494487E+03
       377  26 -1.333984E+05  6.705841E+04  5.618621E+04  1.056613E+04 -7.152220E+03 -1.132123E+04
       377  27 -9.503534E+04  7.295376E+04  5.964959E+04  2.035332E+04 -1.000623E+04 -1.259670E+04
       378   1 -7.558825E+05 -8.319594E+04 -9.539346E+04  1.304507E+04  7.555964E+03  1.497226E+04
       378   2 -7.870600E+05 -9.170511E+04 -1.145744E+05  1.506272E+04  2.828158E+04  1.541694E+04
       378   3 -8.337221E+05 -1.510189E+05 -1.599776E+05  3.780203E+04  4.903844E+04  5.162426E+03
       378   4 -4.077090E+05  2.610998E+03 -1.505204E+04  2.056661E+04  1.154080E+04  1.498538E+04
       378   5 -4.006249E+05  3.537861E+03 -2.485166E+04  1.028103E+04  2.483431E+04  1.540485E+04
       378   6 -4.077265E+05 -4.503209E+04 -5.569917E+04  2.071748E+04  3.816069E+04  5.127264E+03
       378   7 -5.942323E+04  8.840963E+04  6.528138E+04  2.809230E+04  1.552785E+04  1.499859E+04
       378   8 -1.405172E+04  9.877041E+04  6.486112E+04  5.496223E+03  2.138490E+04  1.539281E+04
       378   9  1.843554E+04  6.094248E+04  4.856663E+04  3.621041E+03  2.727548E+04  5.092715E+03
       378  10 -7.558826E+05 -8.319620E+04 -9.539399E+04  1.304498E+04  1.453892E-08  1.645892E-09
       378  11 -7.870609E+05 -9.170558E+04 -1.145764E+05  1.506237E+04  5.435767E-09  4.063353E-09
       378  12 -8.337247E+05 -1.510196E+05 -1.599822E+05  3.780183E+04 -1.825411E-09  7.464040E-09
       378  13 -4.077092E+05  2.610721E+03 -1.505272E+04  2.056647E+04 -9.084626E-12  4.864698E-09
       378  14 -4.006256E+05  3.537441E+03 -2.485327E+04  1.028072E+04  1.680821E-09 -1.887060E-09
       378  15 -4.077281E+05 -4.503251E+04 -5.570196E+04  2.071732E+04 -2.094300E-09  5.098395E-09
       378  16 -5.942355E+04  8.840933E+04  6.528051E+04  2.809211E+04 -1.429217E-08  6.764828E-09
       378  17 -1.405228E+04  9.877003E+04  6.485981E+04  5.495958E+03 -7.211333E-09  5.224519E-09
       378  18  1.843474E+04  6.094225E+04  4.856519E+04  3.620929E+03  2.042933E-09  1.265447E-09
       378  19 -7.558825E+05 -8.319594E+04 -9.539346E+04  1.304507E+04 -7.555964E+03 -1.497226E+04
       378  20 -7.870600E+05 -9.170511E+04 -1.145744E+05  1.506272E+04 -2.828158E+04 -1.541694E+04
       378  21 -8.337221E+05 -1.510189E+05 -1.599776E+05  3.780203E+04 -4.903844E+04 -5.162426E+03
       378  22 -4.077090E+05  2.610998E+03 -1.505204E+04  2.056661E+04 -1.154080E+04 -1.498538E+04
       378  23 -4.006249E+05  3.537861E+03 -2.485166E+04  1.028103E+04 -2.483431E+04 -1.540485E+04
       378  24 -4.077265E+05 -4.503209E+04 -5.569917E+04  2.071748E+04 -3.816069E+04 -5.127264E+03
       378  25 -5.942323E+04  8.840963E+04  6.528138E+04  2.809230E+04 -1.552785E+04 -1.499859E+04
       378  26 -1.405172E+04  9.877041E+04  6.486112E+04  5.496223E+03 -2.138490E+04 -1.539281E+04
       378  27  1.843554E+04  6.094248E+04  4.856663E+04  3.621041E+03 -2.727548E+04 -5.092715E+03
       379   1 -1.839196E+05 -7.165490E+05 -1.778843E+05  1.789479E+05 -7.367334E+03 -5.311188E+04
       379   2 -1.262664E+05 -5.483752E+05 -1.096639E+05  1.552796E+05 -2.242143E+04 -2.062247E+04
       379   3 -8.301870E+04 -3.877476E+05 -6.618959E+04  1.673621E+05 -2.074549E+04  1.192326E+04
       379   4 -1.699980E+04 -4.279487E+04 -1.767612E+04  1.676986E+05 -7.464642E+03 -1.338257E+04
       379   5 -4.447073E+03 -4.145724E+04 -7.811787E+03  1.498425E+05 -2.244691E+04 -9.368653E+03
       379   6 -1.345409E+03 -4.274037E+04 -2.900489E+03  1.677371E+05 -2.070481E+04 -5.307959E+03
       379   7  1.498886E+05  6.313799E+05  1.425064E+05  1.564371E+05 -7.563342E+03  2.638969E+04
       379   8  1.173565E+05  4.657062E+05  9.402776E+04  1.444009E+05 -2.247258E+04  1.894179E+03
       379   9  8.032128E+04  3.023831E+05  6.038486E+04  1.681124E+05 -2.066416E+04 -2.254850E+04
       379  10 -1.839204E+05 -7.165520E+05 -1.778897E+05  1.789476E+05 -5.503158E-12  9.830784E-09
       379  11 -1.262670E+05 -5.483757E+05 -1.096657E+05  1.552792E+05  1.891553E-09  1.210581E-08
       379  12 -8.301920E+04 -3.877479E+05 -6.619067E+04  1.673622E+05  1.667357E-09 -3.491267E-10
       379  13 -1.699991E+04 -4.279507E+04 -1.767656E+04  1.676985E+05  2.433190E-09  4.887582E-09
       379  14 -4.447638E+03 -4.145747E+04 -7.812899E+03  1.498423E+05  1.588665E-09  5.403975E-10
       379  15 -1.345877E+03 -4.274051E+04 -2.901347E+03  1.677370E+05 -3.453079E-10  3.903096E-09
       379  16  1.498883E+05  6.313791E+05  1.425049E+05  1.564373E+05  1.616838E-09 -2.102262E-09
       379  17  1.173560E+05  4.657061E+05  9.402680E+04  1.444010E+05  2.874116E-09 -1.121181E-08
       379  18  8.032069E+04  3.023825E+05  6.038310E+04  1.681120E+05 -2.417364E-09 -2.237512E-09
       379  19 -1.839196E+05 -7.165490E+05 -1.778843E+05  1.789479E+05  7.367334E+03  5.311188E+04
       379  20 -1.262664E+05 -5.483752E+05 -1.096639E+05  1.552796E+05  2.242143E+04  2.062247E+04
       379  21 -8.301870E+04 -3.877476E+05 -6.618959E+04  1.673621E+05  2.074549E+04 -1.192326E+04
       379  22 -1.699980E+04 -4.279487E+04 -1.767612E+04  1.676986E+05  7.464642E+03  1.338257E+04
       379  23 -4.447073E+03 -4.145724E+04 -7.811787E+03  1.498425E+05  2.244691E+04  9.368653E+03
       379  24 -1.345409E+03 -4.274037E+04 -2.900489E+03  1.677371E+05  2.070481E+04  5.307959E+03
       379  25  1.498886E+05  6.313799E+05  1.425064E+05  1.564371E+05  7.563342E+03 -2.638969E+04
       379  26  1.173565E+05  4.657062E+05  9.402776E+04  1.444009E+05  2.247258E+04 -1.894179E+03
       379  27  8.032128E+04  3.023831E+05  6.038486E+04  1.681124E+05  2.066416E+04  2.254850E+04
       380   1 -5.770868E+04 -2.792959E+05 -4.440720E+04  1.684006E+05 -1.444643E+04  1.049362E+04
       380   2 -1.764730E+04 -1.151727E+05 -9.898864E+03  1.499941E+05 -5.162278E+03  9.730464E+03
       380   3  2.280981E+04  4.941751E+04  2.526584E+04  1.683751E+05  4.427733E+03  8.967367E+03
       380   4 -1.578898E+03 -4.202780E+04 -1.078651E+03  1.679611E+05 -1.441062E+04 -5.059371E+03
       380   5 -5.632655E+02 -4.228986E+04  2.621526E+03  1.495703E+05 -5.125686E+03 -6.345288E+03
       380   6  9.403462E+02 -4.201973E+04  7.341693E+03  1.679669E+05  4.465044E+03 -7.630950E+03
       380   7  5.454783E+04  1.952955E+05  4.224853E+04  1.675214E+05 -1.437481E+04 -2.061815E+04
       380   8  1.652062E+04  3.059881E+04  1.514271E+04  1.491465E+05 -5.089075E+03 -2.242287E+04
       380   9 -2.092948E+04 -1.334484E+05 -1.058183E+04  1.675587E+05  4.502379E+03 -2.422688E+04
       380  10 -5.770893E+04 -2.792961E+05 -4.440780E+04  1.684008E+05  1.379720E-09  1.489390E-08
       380  11 -1.764735E+04 -1.151729E+05 -9.899092E+03  1.499941E+05  2.364064E-09  6.683198E-09
       380  12  2.280977E+04  4.941742E+04  2.526566E+04  1.683751E+05 -1.238134E-09 -6.038439E-09
       380  13 -1.579128E+03 -4.202788E+04 -1.079090E+03  1.679610E+05  3.708838E-10  5.493774E-09
       380  14 -5.633045E+02 -4.228991E+04  2.621401E+03  1.495703E+05  3.418228E-09 -2.136693E-09
       380  15  9.403091E+02 -4.201980E+04  7.341546E+03  1.679669E+05  1.575062E-09  2.881823E-09
       380  16  5.454749E+04  1.952950E+05  4.224734E+04  1.675212E+05 -1.768364E-09 -7.437105E-09
       380  17  1.652046E+04  3.059826E+04  1.514171E+04  1.491464E+05  1.817280E-09 -9.388874E-09
       380  18 -2.092966E+04 -1.334490E+05 -1.058297E+04  1.675588E+05 -7.712077E-10  2.508322E-09
       380  19 -5.770868E+04 -2.792959E+05 -4.440720E+04  1.684006E+05  1.444643E+04 -1.049362E+04
       380  20 -1.764730E+04 -1.151727E+05 -9.898864E+03  1.499941E+05  5.162278E+03 -9.730464E+03
       380  21  2.280981E+04  4.941751E+04  2.526584E+04  1.683751E+05 -4.427733E+03 -8.967367E+03
       380  22 -1.578898E+03 -4.202780E+04 -1.078651E+03  1.679611E+05  1.441062E+04  5.059371E+03
       380  23 -5.632655E+02 -4.228986E+04  2.621526E+03  1.495703E+05  5.125686E+03  6.345288E+03
       380  24  9.403462E+02 -4.201973E+04  7.341693E+03  1.679669E+05 -4.465044E+03  7.630950E+03
       380  25  5.454783E+04  1.952955E+05  4.224853E+04  1.675214E+05  1.437481E+04  2.061815E+04
       380  26  1.652062E+04  3.059881E+04  1.514271E+04  1.491465E+05  5.089075E+03  2.242287E+04
       380  27 -2.092948E+04 -1.334484E+05 -1.058183E+04  1.675587E+05 -4.502379E+03  2.422688E+04
       381   1  4.777749E+04  1.584597E+05  4.795735E+04  1.653016E+05  1.089228E+04  8.985207E+03
       381   2  9.478830E+04  3.175279E+05  9.386231E+04  1.598222E+05  1.480204E+04 -2.395144E+04
       381   3  1.673851E+05  4.875534E+05  1.676545E+05  1.903951E+05  5.395750E+03 -5.693260E+04
       381   4  4.270644E+02 -4.058811E+04  1.030260E+04  1.677899E+05  1.093303E+04 -8.896268E+03
       381   5  7.728275E+03 -4.410765E+04  1.984171E+04  1.498087E+05  1.479185E+04 -1.913031E+04
       381   6  3.668542E+04 -4.062572E+04  4.151194E+04  1.678778E+05  5.332383E+03 -2.940008E+04
       381   7 -4.692548E+04 -2.395970E+05 -2.735271E+04  1.702774E+05  1.097364E+04 -2.677215E+04
       381   8 -7.933954E+04 -4.056187E+05 -5.418568E+04  1.398011E+05  1.478149E+04 -1.431192E+04
       381   9 -9.403210E+04 -5.685464E+05 -8.464708E+04  1.453799E+05  5.266996E+03 -1.890853E+03
       381  10  4.777734E+04  1.584596E+05  4.795698E+04  1.653015E+05  1.533862E-10  1.519741E-08
       381  11  9.478791E+04  3.175272E+05  9.386082E+04  1.598225E+05  1.950632E-09  1.061900E-08
       381  12  1.673842E+05  4.875499E+05  1.676483E+05  1.903953E+05  1.905234E-10 -4.323231E-10
       381  13  4.269148E+02 -4.058823E+04  1.030223E+04  1.677900E+05 -3.027704E-09  4.364329E-09
       381  14  7.727941E+03 -4.410810E+04  1.984061E+04  1.498089E+05  2.141967E-09 -1.064195E-09
       381  15  3.668516E+04 -4.062665E+04  4.151026E+04  1.678779E+05  1.605588E-10  4.576336E-09
       381  16 -4.692580E+04 -2.395978E+05 -2.735428E+04  1.702776E+05 -2.232969E-09 -6.681981E-09
       381  17 -7.933983E+04 -4.056190E+05 -5.418648E+04  1.398013E+05  1.755438E-09 -1.089268E-08
       381  18 -9.403213E+04 -5.685464E+05 -8.464714E+04  1.453799E+05  3.276944E-10 -7.750109E-10
       381  19  4.777749E+04  1.584597E+05  4.795735E+04  1.653016E+05 -1.089228E+04 -8.985207E+03
       381  20  9.478830E+04  3.175279E+05  9.386231E+04  1.598222E+05 -1.480204E+04  2.395144E+04
       381  21  1.673851E+05  4.875534E+05  1.676545E+05  1.903951E+05 -5.395750E+03  5.693260E+04
       381  22  4.270644E+02 -4.058811E+04  1.030260E+04  1.677899E+05 -1.093303E+04  8.896268E+03
       381  23  7.728275E+03 -4.410765E+04  1.984171E+04  1.498087E+05 -1.479185E+04  1.913031E+04
       381  24  3.668542E+04 -4.062572E+04  4.151194E+04  1.678778E+05 -5.332383E+03  2.940008E+04
       381  25 -4.692548E+04 -2.395970E+05 -2.735271E+04  1.702774E+05 -1.097364E+04  2.677215E+04
       381  26 -7.933954E+04 -4.056187E+05 -5.418568E+04  1.398011E+05 -1.478149E+04  1.431192E+04
       381  27 -9.403210E+04 -5.685464E+05 -8.464708E+04  1.453799E+05 -5.266996E+03  1.890853E+03
       382   1  8.139870E+05  3.082906E+05  1.988172E+05  2.901724E+05  8.036995E+04  2.572891E+04
       382   2  7.832501E+05  1.886556E+05  1.236578E+05  2.870728E+05  5.237232E+04  5.514577E+03
       382   3  7.812622E+05  1.736064E+05  9.739877E+04  2.721430E+05  2.107353E+04 -5.967748E+03
       382   4  5.101447E+05  1.620568E+05  1.107693E+05  1.748454E+05  7.200655E+04  2.256008E+04
       382   5  4.904024E+05  6.883406E+04  4.700092E+04  1.964643E+05  4.971684E+04  4.508183E+03
       382   6  4.982953E+05  7.909210E+04  2.762765E+04  2.062484E+05  2.412408E+04 -4.812815E+03
       382   7  2.063979E+05  1.584860E+04  2.271399E+04  5.957632E+04  6.364772E+04  1.939403E+04
       382   8  1.976396E+05 -5.097696E+04 -2.966295E+04  1.058963E+05  4.706274E+04  3.502412E+03
       382   9  2.154048E+05 -1.542138E+04 -4.214984E+04  1.403789E+05  2.717311E+04 -3.658307E+03
       382  10  8.139799E+05  3.082881E+05  1.988038E+05  2.901707E+05 -2.071634E-09  5.607423E-09
       382  11  7.832472E+05  1.886548E+05  1.236526E+05  2.870726E+05 -4.043059E-09  9.033370E-09
       382  12  7.812617E+05  1.736063E+05  9.739787E+04  2.721431E+05 -1.700057E-09  3.135946E-09
       382  13  5.101390E+05  1.620549E+05  1.107586E+05  1.748440E+05  9.713300E-10 -3.625067E-09
       382  14  4.903998E+05  6.883337E+04  4.699624E+04  1.964641E+05 -2.717147E-09 -1.086858E-08
       382  15  4.982946E+05  7.909192E+04  2.762651E+04  2.062485E+05 -3.063827E-09 -1.033094E-09
       382  16  2.063935E+05  1.584711E+04  2.270567E+04  5.957533E+04  2.000462E-09  9.523163E-10
       382  17  1.976372E+05 -5.097757E+04 -2.966714E+04  1.058962E+05  1.292050E-09 -2.266390E-09
       382  18  2.154040E+05 -1.542159E+04 -4.215125E+04  1.403789E+05 -1.346603E-09 -5.273864E-09
       382  19  8.139870E+05  3.082906E+05  1.988172E+05  2.901724E+05 -8.036995E+04 -2.572891E+04
       382  20  7.832501E+05  1.886556E+05  1.236578E+05  2.870728E+05 -5.237232E+04 -5.514577E+03
       382  21  7.812622E+05  1.736064E+05  9.739877E+04  2.721430E+05 -2.107353E+04  5.967748E+03
       382  22  5.101447E+05  1.620568E+05  1.107693E+05  1.748454E+05 -7.200655E+04 -2.256008E+04
       382  23  4.904024E+05  6.883406E+04  4.700092E+04  1.964643E+05 -4.971684E+04 -4.508183E+03
       382  24  4.982953E+05  7.909210E+04  2.762765E+04  2.062484E+05 -2.412408E+04  4.812815E+03
       382  25  2.063979E+05  1.584860E+04  2.271399E+04  5.957632E+04 -6.364772E+04 -1.939403E+04
       382  26  1.976396E+05 -5.097696E+04 -2.966295E+04  1.058963E+05 -4.706274E+04 -3.502412E+03
       382  27  2.154048E+05 -1.542138E+04 -4.214984E+04  1.403789E+05 -2.717311E+04  3.658307E+03
       383   1  7.406022E+05  1.840294E+05  8.550372E+04  2.703106E+05  1.933880E+04 -4.489738E+03
       383   2  7.193009E+05  1.603668E+05  6.764786E+04  2.580653E+05  1.306894E+04 -5.990053E+03
       383   3  6.910247E+05  1.554923E+05  5.641957E+04  2.561472E+05  6.619246E+03 -7.016005E+03
       383   4  4.947423E+05  8.925528E+04  2.222757E+04  2.001983E+05  1.967839E+04 -4.361558E+03
       383   5  4.977665E+05  7.642879E+04  1.104307E+04  1.963476E+05  1.372019E+04 -5.743643E+03
       383   6  4.937546E+05  8.233065E+04  6.241224E+03  2.028238E+05  7.581888E+03 -6.651412E+03
       383   7  2.489413E+05 -5.513966E+03 -4.105357E+04  1.301114E+05  2.001783E+04 -4.233437E+03
       383   8  2.762804E+05 -7.505569E+03 -4.556559E+04  1.346501E+05  1.437119E+04 -5.497331E+03
       383   9  2.965233E+05  9.171533E+03 -4.394006E+04  1.495158E+05  8.544191E+03 -6.286944E+03
       383  10  7.406017E+05  1.840292E+05  8.550298E+04  2.703107E+05  3.958333E-09  4.183150E-09
       383  11  7.193007E+05  1.603667E+05  6.764747E+04  2.580654E+05  6.097729E-09  1.266310E-08
       383  12  6.910246E+05  1.554923E+05  5.641940E+04  2.561473E+05 -9.254089E-10  1.504380E-08
       383  13  4.947418E+05  8.925516E+04  2.222680E+04  2.001984E+05  5.050804E-10 -6.685753E-09
       383  14  4.977663E+05  7.642871E+04  1.104266E+04  1.963477E+05  2.031997E-09 -1.050064E-08
       383  15  4.937546E+05  8.233059E+04  6.241033E+03  2.028239E+05 -2.180668E-09 -2.516746E-09
       383  16  2.489409E+05 -5.514093E+03 -4.105435E+04  1.301115E+05 -3.802269E-09 -7.034023E-09
       383  17  2.762801E+05 -7.505657E+03 -4.556604E+04  1.346501E+05 -5.180209E-10 -1.098773E-08
       383  18  2.965232E+05  9.171471E+03 -4.394027E+04  1.495159E+05  2.188802E-09  9.588578E-09
       383  19  7.406022E+05  1.840294E+05  8.550372E+04  2.703106E+05 -1.933880E+04  4.489738E+03
       383  20  7.193009E+05  1.603668E+05  6.764786E+04  2.580653E+05 -1.306894E+04  5.990053E+03
       383  21  6.910247E+05  1.554923E+05  5.641957E+04  2.561472E+05 -6.619246E+03  7.016005E+03
       383  22  4.947423E+05  8.925528E+04  2.222757E+04  2.001983E+05 -1.967839E+04  4.361558E+03
       383  23  4.977665E+05  7.642879E+04  1.104307E+04  1.963476E+05 -1.372019E+04  5.743643E+03
       383  24  4.937546E+05  8.233065E+04  6.241224E+03  2.028238E+05 -7.581888E+03  6.651412E+03
       383  25  2.489413E+05 -5.513966E+03 -4.105357E+04  1.301114E+05 -2.001783E+04  4.233437E+03
       383  26  2.762804E+05 -7.505569E+03 -4.556559E+04  1.346501E+05 -1.437119E+04  5.497331E+03
       383  27  2.965233E+05  9.171533E+03 -4.394006E+04  1.495158E+05 -8.544191E+03  6.286944E+03
       384   1  6.634383E+05  1.472179E+05  4.810851E+04  2.493077E+05  5.578490E+03 -6.482932E+03
       384   2  6.434004E+05  1.317221E+05  3.952573E+04  2.364023E+05  3.796726E+03 -5.723073E+03
       384   3  6.131256E+05  1.275913E+05  3.210025E+04  2.354377E+05  2.006271E+03 -4.941215E+03
       384   4  4.933947E+05  8.312816E+04  4.807396E+03  2.022615E+05  6.389209E+03 -6.175822E+03
       384   5  4.984761E+05  7.717110E+04  2.567700E+03  1.963960E+05  4.622176E+03 -5.410260E+03
       384   6  4.933176E+05  8.257664E+04  1.474048E+03  2.024715E+05  2.846397E+03 -4.622716E+03
       384   7  3.233786E+05  1.904014E+04 -3.849624E+04  1.552266E+05  7.199688E+03 -5.868803E+03
       384   8  3.535720E+05  2.262143E+04 -3.439212E+04  1.563981E+05  5.447417E+03 -5.097526E+03
       384   9  3.735236E+05  3.756288E+04 -2.915333E+04  1.695111E+05  3.686345E+03 -4.304284E+03
       384  10  6.634383E+05  1.472178E+05  4.810837E+04  2.493078E+05  7.426984E-09  9.880649E-09
       384  11  6.434004E+05  1.317220E+05  3.952565E+04  2.364023E+05  1.101030E-09 -7.786897E-10
       384  12  6.131256E+05  1.275913E+05  3.210020E+04  2.354377E+05 -9.093415E-09 -8.530891E-09
       384  13  4.933946E+05  8.312811E+04  4.807248E+03  2.022615E+05 -1.163539E-09  8.206245E-09
       384  14  4.984761E+05  7.717106E+04  2.567605E+03  1.963960E+05  6.283368E-09  6.492748E-09
       384  15  4.933176E+05  8.257662E+04  1.473993E+03  2.024716E+05  1.695929E-09 -1.161184E-08
       384  16  3.233785E+05  1.904009E+04 -3.849640E+04  1.552267E+05 -1.032592E-08 -1.420143E-09
       384  17  3.535720E+05  2.262139E+04 -3.439222E+04  1.563981E+05  2.748843E-09  2.326781E-10
       384  18  3.735236E+05  3.756286E+04 -2.915339E+04  1.695111E+05  1.466877E-08  8.383125E-09
       384  19  6.634383E+05  1.472179E+05  4.810851E+04  2.493077E+05 -5.578490E+03  6.482932E+03
       384  20  6.434004E+05  1.317221E+05  3.952573E+04  2.364023E+05 -3.796726E+03  5.723073E+03
       384  21  6.131256E+05  1.275913E+05  3.210025E+04  2.354377E+05 -2.006271E+03  4.941215E+03
       384  22  4.933947E+05  8.312816E+04  4.807396E+03  2.022615E+05 -6.389209E+03  6.175822E+03
       384  23  4.984761E+05  7.717110E+04  2.567700E+03  1.963960E+05 -4.622176E+03  5.410260E+03
       384  24  4.933176E+05  8.257664E+04  1.474048E+03  2.024715E+05 -2.846397E+03  4.622716E+03
       384  25  3.233786E+05  1.904014E+04 -3.849624E+04  1.552266E+05 -7.199688E+03  5.868803E+03
       384  26  3.535720E+05  2.262143E+04 -3.439212E+04  1.563981E+05 -5.447417E+03  5.097526E+03
       384  27  3.735236E+05  3.756288E+04 -2.915333E+04  1.695111E+05 -3.686345E+03  4.304284E+03
       385   1  5.869231E+05  1.178536E+05  2.493969E+04  2.282605E+05  1.517270E+03 -4.273029E+03
       385   2  5.671700E+05  1.031005E+05  1.823796E+04  2.153691E+05  6.673217E+02 -3.139463E+03
       385   3  5.368866E+05  9.901782E+04  1.182603E+04  2.144492E+05 -1.825190E+02 -2.006586E+03
       385   4  4.932828E+05  8.262050E+04  1.151605E+03  2.024040E+05  2.347581E+03 -3.958195E+03
       385   5  4.985464E+05  7.726826E+04  7.370504E+02  1.964250E+05  1.497237E+03 -2.824726E+03
       385   6  4.932790E+05  8.258656E+04  6.126922E+02  2.024174E+05  6.469824E+02 -1.691947E+03
       385   7  3.996514E+05  4.738809E+04 -2.263709E+04  1.765511E+05  3.177751E+03 -3.643414E+03
       385   8  4.299273E+05  5.143629E+04 -1.676424E+04  1.774828E+05  2.327052E+03 -2.510026E+03
       385   9  4.496732E+05  6.615537E+04 -1.060085E+04  1.903863E+05  1.476423E+03 -1.377330E+03
       385  10  5.869231E+05  1.178536E+05  2.493965E+04  2.282606E+05 -2.025990E-09 -5.067301E-09
       385  11  5.671700E+05  1.031005E+05  1.823794E+04  2.153691E+05  1.761923E-09 -1.949249E-09
       385  12  5.368866E+05  9.901781E+04  1.182603E+04  2.144492E+05  4.266939E-10 -2.520132E-09
       385  13  4.932828E+05  8.262048E+04  1.151565E+03  2.024040E+05  2.429593E-09 -5.785797E-09
       385  14  4.985464E+05  7.726825E+04  7.370312E+02  1.964250E+05  4.537707E-09 -1.236640E-09
       385  15  4.932790E+05  8.258656E+04  6.126860E+02  2.024174E+05  1.910746E-09 -5.866772E-09
       385  16  3.996514E+05  4.738808E+04 -2.263713E+04  1.765511E+05  7.199962E-09  3.669380E-09
       385  17  4.299273E+05  5.143628E+04 -1.676426E+04  1.774828E+05  3.819597E-09 -1.374056E-08
       385  18  4.496732E+05  6.615536E+04 -1.060086E+04  1.903863E+05  4.689506E-09 -7.130810E-09
       385  19  5.869231E+05  1.178536E+05  2.493969E+04  2.282605E+05 -1.517270E+03  4.273029E+03
       385  20  5.671700E+05  1.031005E+05  1.823796E+04  2.153691E+05 -6.673217E+02  3.139463E+03
       385  21  5.368866E+05  9.901782E+04  1.182603E+04  2.144492E+05  1.825190E+02  2.006586E+03
       385  22  4.932828E+05  8.262050E+04  1.151605E+03  2.024040E+05 -2.347581E+03  3.958195E+03
       385  23  4.985464E+05  7.726826E+04  7.370504E+02  1.964250E+05 -1.497237E+03  2.824726E+03
       385  24  4.932790E+05  8.258656E+04  6.126922E+02  2.024174E+05 -6.469824E+02  1.691947E+03
       385  25  3.996514E+05  4.738809E+04 -2.263709E+04  1.765511E+05 -3.177751E+03  3.643414E+03
       385  26  4.299273E+05  5.143629E+04 -1.676424E+04  1.774828E+05 -2.327052E+03  2.510026E+03
       385  27  4.496732E+05  6.615537E+04 -1.060085E+04  1.903863E+05 -1.476423E+03  1.377330E+03
       386   1  5.109062E+05  8.921215E+04  5.034946E+03  2.072977E+05 -5.656550E+02 -1.305486E+03
       386   2  4.911992E+05  7.452163E+04 -1.029989E+03  1.944163E+05 -1.466174E+03 -1.936936E+02
       386   3  4.609921E+05  7.049270E+04 -6.764259E+03  1.934794E+05 -2.366310E+03  9.172741E+02
       386   4  4.932856E+05  8.258092E+04  6.308107E+02  2.024129E+05  2.632145E+02 -9.910681E+02
       386   5  4.985393E+05  7.727414E+04  8.400807E+02  1.964317E+05 -6.378779E+02  1.204981E+02
       386   6  4.932923E+05  8.262892E+04  1.380452E+03  2.023946E+05 -1.538606E+03  1.231235E+03
       386   7  4.756652E+05  7.594972E+04 -3.773346E+03  1.975282E+05  1.092058E+03 -6.766603E+02
       386   8  5.058794E+05  8.002665E+04  2.710145E+03  1.984471E+05  1.904273E+02  4.346932E+02
       386   9  5.255935E+05  9.476517E+04  9.525049E+03  2.113103E+05 -7.108571E+02  1.545212E+03
       386  10  5.109062E+05  8.921214E+04  5.034942E+03  2.072977E+05  8.320076E-10 -4.636321E-09
       386  11  4.911992E+05  7.452163E+04 -1.029993E+03  1.944163E+05 -5.504864E-09  2.916853E-09
       386  12  4.609921E+05  7.049270E+04 -6.764272E+03  1.934794E+05 -6.315922E-09 -2.671080E-09
       386  13  4.932856E+05  8.258092E+04  6.308087E+02  2.024129E+05  9.776511E-10 -1.111450E-09
       386  14  4.985393E+05  7.727414E+04  8.400799E+02  1.964317E+05 -3.881593E-09 -1.195991E-09
       386  15  4.932923E+05  8.262892E+04  1.380445E+03  2.023946E+05 -1.512385E-09 -6.311779E-09
       386  16  4.756652E+05  7.594972E+04 -3.773349E+03  1.975282E+05  2.104746E-09  9.778345E-09
       386  17  5.058794E+05  8.002665E+04  2.710144E+03  1.984471E+05  7.675030E-09  7.265224E-09
       386  18  5.255935E+05  9.476517E+04  9.525044E+03  2.113103E+05  6.461385E-09  7.468173E-09
       386  19  5.109062E+05  8.921215E+04  5.034946E+03  2.072977E+05  5.656550E+02  1.305486E+03
       386  20  4.911992E+05  7.452163E+04 -1.029989E+03  1.944163E+05  1.466174E+03  1.936936E+02
       386  21  4.609921E+05  7.049270E+04 -6.764259E+03  1.934794E+05  2.366310E+03 -9.172741E+02
       386  22  4.932856E+05  8.258092E+04  6.308107E+02  2.024129E+05 -2.632145E+02  9.910681E+02
       386  23  4.985393E+05  7.727414E+04  8.400807E+02  1.964317E+05  6.378779E+02 -1.204981E+02
       386  24  4.932923E+05  8.262892E+04  1.380452E+03  2.023946E+05  1.538606E+03 -1.231235E+03
       386  25  4.756652E+05  7.594972E+04 -3.773346E+03  1.975282E+05 -1.092058E+03  6.766603E+02
       386  26  5.058794E+05  8.002665E+04  2.710145E+03  1.984471E+05 -1.904273E+02 -4.346932E+02
       386  27  5.255935E+05  9.476517E+04  9.525049E+03  2.113103E+05  7.108571E+02 -1.545212E+03
       387   1  4.349685E+05  6.069520E+04 -1.317168E+04  1.864826E+05 -2.915550E+03  1.558643E+03
       387   2  4.151229E+05  4.580597E+04 -1.810565E+04  1.734109E+05 -4.967299E+03  2.234479E+03
       387   3  3.851853E+05  4.237019E+04 -2.164758E+04  1.721739E+05 -7.011539E+03  2.891252E+03
       387   4  4.933478E+05  8.256119E+04  1.785871E+03  2.024626E+05 -2.080513E+03  1.875361E+03
       387   5  4.984411E+05  7.717593E+04  3.146084E+03  1.964150E+05 -4.144951E+03  2.546316E+03
       387   6  4.934447E+05  8.324663E+04  5.908411E+03  2.022018E+05 -6.201947E+03  3.198185E+03
       387   7  5.517307E+05  1.044275E+05  1.674321E+04  2.184439E+05 -1.245386E+03  2.192113E+03
       387   8  5.817662E+05  1.085464E+05  2.439730E+04  2.194218E+05 -3.322481E+03  2.858200E+03
       387   9  6.017155E+05  1.241239E+05  3.346346E+04  2.322345E+05 -5.392200E+03  3.505177E+03
       387  10  4.349685E+05  6.069520E+04 -1.317170E+04  1.864826E+05 -1.007995E-08 -1.313668E-09
       387  11  4.151229E+05  4.580595E+04 -1.810571E+04  1.734109E+05 -1.260146E-09  1.131353E-09
       387  12  3.851853E+05  4.237017E+04 -2.164769E+04  1.721739E+05  4.688111E-10 -1.152104E-09
       387  13  4.933478E+05  8.256119E+04  1.785856E+03  2.024626E+05 -3.029341E-09 -1.552035E-09
       387  14  4.984411E+05  7.717592E+04  3.146039E+03  1.964150E+05 -2.875138E-09 -1.063003E-08
       387  15  4.934447E+05  8.324661E+04  5.908319E+03  2.022018E+05 -1.248683E-09  2.178223E-08
       387  16  5.517307E+05  1.044275E+05  1.674320E+04  2.184439E+05  8.506448E-09  1.097529E-08
       387  17  5.817662E+05  1.085464E+05  2.439727E+04  2.194219E+05 -5.988408E-10  3.168459E-08
       387  18  6.017155E+05  1.241239E+05  3.346338E+04  2.322345E+05 -5.401328E-09  1.295531E-08
       387  19  4.349685E+05  6.069520E+04 -1.317168E+04  1.864826E+05  2.915550E+03 -1.558643E+03
       387  20  4.151229E+05  4.580597E+04 -1.810565E+04  1.734109E+05  4.967299E+03 -2.234479E+03
       387  21  3.851853E+05  4.237019E+04 -2.164758E+04  1.721739E+05  7.011539E+03 -2.891252E+03
       387  22  4.933478E+05  8.256119E+04  1.785871E+03  2.024626E+05  2.080513E+03 -1.875361E+03
       387  23  4.984411E+05  7.717593E+04  3.146084E+03  1.964150E+05  4.144951E+03 -2.546316E+03
       387  24  4.934447E+05  8.324663E+04  5.908411E+03  2.022018E+05  6.201947E+03 -3.198185E+03
       387  25  5.517307E+05  1.044275E+05  1.674321E+04  2.184439E+05  1.245386E+03 -2.192113E+03
       387  26  5.817662E+05  1.085464E+05  2.439730E+04  2.194218E+05  3.322481E+03 -2.858200E+03
       387  27  6.017155E+05  1.241239E+05  3.346346E+04  2.322345E+05  5.392200E+03 -3.505177E+03
       388   1  3.584432E+05  3.257900E+04 -2.670820E+04  1.668565E+05 -8.523641E+03  3.225702E+03
       388   2  3.383776E+05  1.563879E+04 -2.715369E+04  1.517015E+05 -1.571491E+04  1.915927E+03
       388   3  3.121728E+05  1.911023E+04 -1.994807E+04  1.463188E+05 -2.275924E+04  2.202836E+02
       388   4  4.939017E+05  8.225115E+04  7.674779E+03  2.028788E+05 -7.591079E+03  3.579214E+03
       388   5  4.975565E+05  7.628537E+04  1.358988E+04  1.963753E+05 -1.503583E+04  2.173172E+03
       388   6  4.951207E+05  9.077931E+04  2.735541E+04  1.996436E+05 -2.233396E+04  3.811432E+02
       388   7  6.293776E+05  1.319241E+05  4.205615E+04  2.389079E+05 -6.658297E+03  3.932804E+03
       388   8  6.567602E+05  1.369338E+05  5.433138E+04  2.410595E+05 -1.435656E+04  2.430490E+03
       388   9  6.781020E+05  1.624516E+05  7.465629E+04  2.529831E+05 -2.190855E+04  5.420605E+02
       388  10  3.584431E+05  3.257897E+04 -2.670835E+04  1.668566E+05 -9.123945E-09  8.662888E-10
       388  11  3.383773E+05  1.563872E+04 -2.715416E+04  1.517015E+05  1.004293E-10  5.715305E-09
       388  12  3.121722E+05  1.911009E+04 -1.994904E+04  1.463188E+05  8.710529E-09 -5.310352E-09
       388  13  4.939016E+05  8.225112E+04  7.674647E+03  2.028788E+05 -1.402466E-09 -3.726787E-09
       388  14  4.975563E+05  7.628530E+04  1.358945E+04  1.963753E+05 -3.595569E-09 -1.684330E-09
       388  15  4.951202E+05  9.077917E+04  2.735447E+04  1.996436E+05 -1.006023E-10  2.484146E-09
       388  16  6.293775E+05  1.319241E+05  4.205603E+04  2.389079E+05  3.237959E-09  1.197908E-08
       388  17  6.567600E+05  1.369337E+05  5.433099E+04  2.410595E+05 -5.456303E-09 -6.803520E-09
       388  18  6.781015E+05  1.624515E+05  7.465539E+04  2.529831E+05 -1.085650E-08 -8.329864E-09
       388  19  3.584432E+05  3.257900E+04 -2.670820E+04  1.668565E+05  8.523641E+03 -3.225702E+03
       388  20  3.383776E+05  1.563879E+04 -2.715369E+04  1.517015E+05  1.571491E+04 -1.915927E+03
       388  21  3.121728E+05  1.911023E+04 -1.994807E+04  1.463188E+05  2.275924E+04 -2.202836E+02
       388  22  4.939017E+05  8.225115E+04  7.674779E+03  2.028788E+05  7.591079E+03 -3.579214E+03
       388  23  4.975565E+05  7.628537E+04  1.358988E+04  1.963753E+05  1.503583E+04 -2.173172E+03
       388  24  4.951207E+05  9.077931E+04  2.735541E+04  1.996436E+05  2.233396E+04 -3.811432E+02
       388  25  6.293776E+05  1.319241E+05  4.205615E+04  2.389079E+05  6.658297E+03 -3.932804E+03
       388  26  6.567602E+05  1.369338E+05  5.433138E+04  2.410595E+05  1.435656E+04 -2.430490E+03
       388  27  6.781020E+05  1.624516E+05  7.465629E+04  2.529831E+05  2.190855E+04 -5.420605E+02
       389   1  2.774119E+05  9.340812E+03 -1.981044E+04  1.607479E+05 -3.018631E+04 -7.073640E+02
       389   2  2.604670E+05 -3.080735E+04 -2.688897E+03  1.214525E+05 -5.708558E+04 -1.033429E+04
       389   3  2.792011E+05  5.290094E+04  6.540549E+04  6.462681E+04 -8.129863E+04 -2.705042E+04
       389   4  4.994871E+05  7.827654E+04  3.400161E+04  2.070924E+05 -2.756029E+04  2.881855E+02
       389   5  4.885038E+05  6.694619E+04  5.785160E+04  1.965198E+05 -5.909372E+04 -1.109653E+04
       389   6  5.140978E+05  1.803599E+05  1.363326E+05  1.684214E+05 -8.794177E+04 -2.957203E+04
       389   7  7.216111E+05  1.472123E+05  8.781035E+04  2.534503E+05 -2.493324E+04  1.283973E+03
       389   8  7.165904E+05  1.647071E+05  1.183872E+05  2.716132E+05 -6.110265E+04 -1.185916E+04
       389   9  7.490486E+05  3.078406E+05  2.072535E+05  2.722558E+05 -9.458757E+04 -3.209568E+04
       389  10  2.774109E+05  9.340567E+03 -1.981216E+04  1.607478E+05 -6.180016E-10  2.825649E-09
       389  11  2.604634E+05 -3.080834E+04 -2.695218E+03  1.214520E+05  1.945313E-09 -8.536005E-09
       389  12  2.791939E+05  5.289839E+04  6.539170E+04  6.462504E+04  3.302082E-09  2.543346E-09
       389  13  4.994863E+05  7.827634E+04  3.400019E+04  2.070924E+05  1.668205E-09 -5.507068E-09
       389  14  4.885000E+05  6.694512E+04  5.784482E+04  1.965193E+05  2.506527E-09 -6.507186E-10
       389  15  5.140893E+05  1.803569E+05  1.363164E+05  1.684193E+05 -6.299139E-10  2.486397E-09
       389  16  7.216105E+05  1.472121E+05  8.780918E+04  2.534503E+05  2.986420E-09 -2.691065E-11
       389  17  7.165864E+05  1.647060E+05  1.183800E+05  2.716126E+05 -2.175752E-09 -2.843176E-09
       389  18  7.490387E+05  3.078371E+05  2.072348E+05  2.722534E+05 -4.542782E-09 -4.038358E-09
       389  19  2.774119E+05  9.340812E+03 -1.981044E+04  1.607479E+05  3.018631E+04  7.073640E+02
       389  20  2.604670E+05 -3.080735E+04 -2.688897E+03  1.214525E+05  5.708558E+04  1.033429E+04
       389  21  2.792011E+05  5.290094E+04  6.540549E+04  6.462681E+04  8.129863E+04  2.705042E+04
       389  22  4.994871E+05  7.827654E+04  3.400161E+04  2.070924E+05  2.756029E+04 -2.881855E+02
       389  23  4.885038E+05  6.694619E+04  5.785160E+04  1.965198E+05  5.909372E+04  1.109653E+04
       389  24  5.140978E+05  1.803599E+05  1.363326E+05  1.684214E+05  8.794177E+04  2.957203E+04
       389  25  7.216111E+05  1.472123E+05  8.781035E+04  2.534503E+05  2.493324E+04 -1.283973E+03
       389  26  7.165904E+05  1.647071E+05  1.183872E+05  2.716132E+05  6.110265E+04  1.185916E+04
       389  27  7.490486E+05  3.078406E+05  2.072535E+05  2.722558E+05  9.458757E+04  3.209568E+04
       390   1 -1.534247E+05 -7.814484E+05 -1.546003E+05  9.172319E+04 -5.631434E+03 -2.458019E+04
       390   2 -9.826404E+04 -6.304897E+05 -1.027735E+05  4.735726E+04 -1.561668E+04 -9.300302E+03
       390   3 -6.259338E+04 -4.857355E+05 -6.566901E+04  8.250939E+04 -1.065510E+04  6.024392E+03
       390   4 -1.606097E+04 -2.304480E+05 -1.934133E+04  8.429116E+04 -5.664554E+03 -1.247588E+04
       390   5  9.509735E+02 -2.282235E+05 -9.240676E+03  4.455556E+04 -1.562049E+04 -7.584365E+03
       390   6  2.859308E+02 -2.304154E+05 -6.636645E+03  8.433602E+04 -1.063367E+04 -2.651930E+03
       390   7  1.212804E+05  3.208296E+05  1.158959E+05  7.685269E+04 -5.697950E+03 -3.608282E+02
       390   8  1.001546E+05  1.741921E+05  8.428128E+04  4.175211E+04 -1.562430E+04 -5.867321E+03
       390   9  6.316072E+04  2.496516E+04  5.239166E+04  8.616343E+04 -1.061230E+04 -1.133179E+04
       390  10 -1.534249E+05 -7.814491E+05 -1.546015E+05  9.172308E+04  1.949792E-10  2.035131E-09
       390  11 -9.826432E+04 -6.304898E+05 -1.027741E+05  4.735715E+04  3.403819E-10  1.105410E-08
       390  12 -6.259351E+04 -4.857355E+05 -6.566929E+04  8.250944E+04  2.112674E-09  1.394483E-10
       390  13 -1.606105E+04 -2.304482E+05 -1.934169E+04  8.429111E+04  1.479597E-09 -1.490593E-08
       390  14  9.506961E+02 -2.282237E+05 -9.241242E+03  4.455546E+04 -2.185702E-09  2.066136E-09
       390  15  2.858075E+02 -2.304154E+05 -6.636871E+03  8.433599E+04  1.720498E-09 -2.893130E-09
       390  16  1.212804E+05  3.208295E+05  1.158959E+05  7.685269E+04 -6.217242E-10 -3.179370E-09
       390  17  1.001543E+05  1.741920E+05  8.428076E+04  4.175204E+04  5.567424E-10 -1.074745E-09
       390  18  6.316056E+04  2.496499E+04  5.239120E+04  8.616333E+04  1.167459E-09  8.142693E-09
       390  19 -1.534247E+05 -7.814484E+05 -1.546003E+05  9.172319E+04  5.631434E+03  2.458019E+04
       390  20 -9.826404E+04 -6.304897E+05 -1.027735E+05  4.735726E+04  1.561668E+04  9.300302E+03
       390  21 -6.259338E+04 -4.857355E+05 -6.566901E+04  8.250939E+04  1.065510E+04 -6.024392E+03
       390  22 -1.606097E+04 -2.304480E+05 -1.934133E+04  8.429116E+04  5.664554E+03  1.247588E+04
       390  23  9.509735E+02 -2.282235E+05 -9.240676E+03  4.455556E+04  1.562049E+04  7.584365E+03
       390  24  2.859308E+02 -2.304154E+05 -6.636645E+03  8.433602E+04  1.063367E+04  2.651930E+03
       390  25  1.212804E+05  3.208296E+05  1.158959E+05  7.685269E+04  5.697950E+03  3.608282E+02
       390  26  1.001546E+05  1.741921E+05  8.428128E+04  4.175211E+04  1.562430E+04  5.867321E+03
       390  27  6.316072E+04  2.496516E+04  5.239166E+04  8.616343E+04  1.061230E+04  1.133179E+04
       391   1 -2.851552E+04 -3.391781E+05 -3.146349E+04  8.539162E+04 -4.573746E+03  2.750363E+03
       391   2  9.501142E+03 -1.908826E+05  3.208788E+03  4.427282E+04  1.583116E+03  5.561959E+03
       391   3  4.355591E+04 -4.340908E+04  3.516848E+04  8.323772E+04  7.645788E+03  8.374368E+03
       391   4 -1.523668E+03 -2.296109E+05 -6.131219E+03  8.444903E+04 -4.563383E+03 -1.570952E+03
       391   5  6.728391E+01 -2.291856E+05 -5.645880E+03  4.440593E+04  1.593487E+03  1.305794E+03
       391   6 -2.313658E+03 -2.296140E+05 -7.917334E+03  8.444709E+04  7.656101E+03  4.182703E+03
       391   7  2.546735E+04 -1.200325E+05  1.920033E+04  8.350628E+04 -4.553007E+03 -5.893025E+03
       391   8 -9.366668E+03 -2.674871E+05 -1.450058E+04  4.453904E+04  1.603856E+03 -2.950110E+03
       391   9 -4.818565E+04 -4.157868E+05 -5.100540E+04  8.565611E+04  7.666398E+03 -7.714587E+00
       391  10 -2.851554E+04 -3.391781E+05 -3.146355E+04  8.539163E+04  2.104248E-09  1.387530E-08
       391  11  9.501131E+03 -1.908827E+05  3.208725E+03  4.427281E+04  3.281432E-09  1.434917E-08
       391  12  4.355583E+04 -4.340918E+04  3.516824E+04  8.323767E+04 -2.046477E-09  2.014146E-09
       391  13 -1.523691E+03 -2.296109E+05 -6.131263E+03  8.444903E+04  1.473852E-09 -3.336518E-09
       391  14  6.728073E+01 -2.291856E+05 -5.645888E+03  4.440593E+04  2.272539E-09  2.218872E-09
       391  15 -2.313725E+03 -2.296140E+05 -7.917477E+03  8.444706E+04  8.040856E-10 -6.853195E-09
       391  16  2.546732E+04 -1.200325E+05  1.920022E+04  8.350626E+04  9.811922E-10 -1.008934E-08
       391  17 -9.366673E+03 -2.674871E+05 -1.450060E+04  4.453904E+04 -2.352260E-09 -8.644070E-09
       391  18 -4.818571E+04 -4.157868E+05 -5.100551E+04  8.565611E+04 -1.738886E-09  2.102444E-09
       391  19 -2.851552E+04 -3.391781E+05 -3.146349E+04  8.539162E+04  4.573746E+03 -2.750363E+03
       391  20  9.501142E+03 -1.908826E+05  3.208788E+03  4.427282E+04 -1.583116E+03 -5.561959E+03
       391  21  4.355591E+04 -4.340908E+04  3.516848E+04  8.323772E+04 -7.645788E+03 -8.374368E+03
       391  22 -1.523668E+03 -2.296109E+05 -6.131219E+03  8.444903E+04  4.563383E+03  1.570952E+03
       391  23  6.728391E+01 -2.291856E+05 -5.645880E+03  4.440593E+04 -1.593487E+03 -1.305794E+03
       391  24 -2.313658E+03 -2.296140E+05 -7.917334E+03  8.444709E+04 -7.656101E+03 -4.182703E+03
       391  25  2.546735E+04 -1.200325E+05  1.920033E+04  8.350628E+04  4.553007E+03  5.893025E+03
       391  26 -9.366668E+03 -2.674871E+05 -1.450058E+04  4.453904E+04 -1.603856E+03  2.950110E+03
       391  27 -4.818565E+04 -4.157868E+05 -5.100540E+04  8.565611E+04 -7.666398E+03  7.714586E+00
       392   1  8.257460E+04  1.009688E+05  6.746643E+04  8.737387E+04  1.391158E+04  1.476213E+04
       392   2  1.197117E+05  2.514852E+05  9.707363E+04  4.039896E+04  1.866471E+04  1.067114E+04
       392   3  1.308835E+05  3.967669E+05  1.229996E+05  7.282099E+04  6.636374E+03  6.531617E+03
       392   4  8.474130E+02 -2.310618E+05 -9.221976E+03  8.431926E+04  1.393475E+04  5.616185E+03
       392   5  1.654158E+03 -2.274378E+05 -1.418810E+04  4.458065E+04  1.865885E+04  1.320424E+04
       392   6 -2.554151E+04 -2.311014E+05 -3.095009E+04  8.424425E+04  6.595648E+03  2.074444E+04
       392   7 -8.088742E+04 -5.629902E+05 -8.591741E+04  8.126635E+04  1.395800E+04 -3.524903E+03
       392   8 -1.164195E+05 -7.061491E+05 -1.254652E+05  4.875922E+04  1.865302E+04  1.573540E+04
       392   9 -1.819952E+05 -8.586100E+05 -1.849279E+05  9.565618E+04  6.555425E+03  3.494292E+04
       392  10  8.257433E+04  1.009685E+05  6.746565E+04  8.737371E+04 -2.145342E-09  7.337293E-09
       392  11  1.197113E+05  2.514850E+05  9.707276E+04  4.039880E+04 -6.979353E-10  1.694491E-08
       392  12  1.308835E+05  3.967668E+05  1.229995E+05  7.282096E+04 -6.847357E-10  4.408565E-09
       392  13  8.471961E+02 -2.310619E+05 -9.222400E+03  8.431920E+04 -3.131710E-09 -3.583828E-09
       392  14  1.653737E+03 -2.274381E+05 -1.418909E+04  4.458045E+04 -4.074132E-10 -1.037916E-09
       392  15 -2.554167E+04 -2.311019E+05 -3.095098E+04  8.424414E+04 -1.165590E-09  2.086432E-09
       392  16 -8.088763E+04 -5.629903E+05 -8.591780E+04  8.126639E+04 -1.467537E-10 -2.318137E-09
       392  17 -1.164200E+05 -7.061495E+05 -1.254664E+05  4.875899E+04 -8.492340E-10  1.711903E-09
       392  18 -1.819956E+05 -8.586114E+05 -1.849303E+05  9.565599E+04 -1.325838E-09  7.593624E-09
       392  19  8.257460E+04  1.009688E+05  6.746643E+04  8.737387E+04 -1.391158E+04 -1.476213E+04
       392  20  1.197117E+05  2.514852E+05  9.707363E+04  4.039896E+04 -1.866471E+04 -1.067114E+04
       392  21  1.308835E+05  3.967669E+05  1.229996E+05  7.282099E+04 -6.636374E+03 -6.531617E+03
       392  22  8.474130E+02 -2.310618E+05 -9.221976E+03  8.431926E+04 -1.393475E+04 -5.616185E+03
       392  23  1.654158E+03 -2.274378E+05 -1.418810E+04  4.458065E+04 -1.865885E+04 -1.320424E+04
       392  24 -2.554151E+04 -2.311014E+05 -3.095009E+04  8.424425E+04 -6.595648E+03 -2.074444E+04
       392  25 -8.088742E+04 -5.629902E+05 -8.591741E+04  8.126635E+04 -1.395800E+04  3.524903E+03
       392  26 -1.164195E+05 -7.061491E+05 -1.254652E+05  4.875922E+04 -1.865302E+04 -1.573540E+04
       392  27 -1.819952E+05 -8.586100E+05 -1.849279E+05  9.565618E+04 -6.555425E+03 -3.494292E+04
       393   1  3.305320E+05 -9.166041E+04 -8.453288E+04 -1.028270E+04  6.748462E+03  5.425739E+03
       393   2  3.621496E+05 -1.055440E+05 -8.565879E+04 -7.109860E+03  8.182095E+03  1.672085E+04
       393   3  3.994253E+05 -9.662330E+04 -8.199277E+04 -2.214277E+04  9.626936E+03  1.666508E+04
       393   4  7.871494E+05  2.191217E+04  2.709269E+04 -1.875313E+04  1.857290E+04  5.437032E+03
       393   5  7.836458E+05 -1.755189E+03  1.207493E+04 -9.640501E+03  1.210002E+04  1.672320E+04
       393   6  7.871658E+05 -1.255021E+03  7.331977E+03 -1.873260E+04  5.638231E+03  1.666195E+04
       393   7  1.243957E+06  1.354697E+05  1.387036E+05 -2.722984E+04  3.040602E+04  5.447998E+03
       393   8  1.205306E+06  1.020212E+05  1.097968E+05 -1.217290E+04  1.602058E+04  1.672552E+04
       393   9  1.175045E+06  9.410280E+04  9.664682E+04 -1.532030E+04  1.647054E+03  1.665877E+04
       393  10  3.305320E+05 -9.166045E+04 -8.453302E+04 -1.028273E+04 -3.345254E-10  8.514920E-11
       393  11  3.621494E+05 -1.055444E+05 -8.565944E+04 -7.109970E+03 -4.790352E-10  2.112171E-10
       393  12  3.994251E+05 -9.662363E+04 -8.199347E+04 -2.214290E+04 -8.979819E-11  2.113374E-10
       393  13  7.871490E+05  2.191205E+04  2.709199E+04 -1.875321E+04  1.675910E-11  6.608278E-11
       393  14  7.836456E+05 -1.755528E+03  1.207413E+04 -9.640664E+03  2.466024E-10  2.576467E-10
       393  15  7.871657E+05 -1.255328E+03  7.331395E+03 -1.873267E+04  6.357893E-11  1.373262E-10
       393  16  1.243956E+06  1.354694E+05  1.387018E+05 -2.722998E+04  8.687885E-11  8.193374E-11
       393  17  1.205306E+06  1.020208E+05  1.097958E+05 -1.217312E+04  4.758574E-10  2.925217E-10
       393  18  1.175045E+06  9.410250E+04  9.664629E+04 -1.532032E+04 -2.066200E-10 -5.359680E-11
       393  19  3.305320E+05 -9.166041E+04 -8.453288E+04 -1.028270E+04 -6.748462E+03 -5.425739E+03
       393  20  3.621496E+05 -1.055440E+05 -8.565879E+04 -7.109860E+03 -8.182095E+03 -1.672085E+04
       393  21  3.994253E+05 -9.662330E+04 -8.199277E+04 -2.214277E+04 -9.626936E+03 -1.666508E+04
       393  22  7.871494E+05  2.191217E+04  2.709269E+04 -1.875313E+04 -1.857290E+04 -5.437032E+03
       393  23  7.836458E+05 -1.755189E+03  1.207493E+04 -9.640501E+03 -1.210002E+04 -1.672320E+04
       393  24  7.871658E+05 -1.255021E+03  7.331977E+03 -1.873260E+04 -5.638231E+03 -1.666195E+04
       393  25  1.243957E+06  1.354697E+05  1.387036E+05 -2.722984E+04 -3.040602E+04 -5.447998E+03
       393  26  1.205306E+06  1.020212E+05  1.097968E+05 -1.217290E+04 -1.602058E+04 -1.672552E+04
       393  27  1.175045E+06  9.410280E+04  9.664682E+04 -1.532030E+04 -1.647054E+03 -1.665877E+04
       394   1  4.315530E+05 -8.553333E+04 -7.608781E+04 -1.830304E+04  5.022789E+03  1.433934E+04
       394   2  4.647977E+05 -7.906755E+04 -7.092182E+04 -9.598616E+03  3.841857E+03  1.337049E+04
       394   3  4.987381E+05 -7.075751E+04 -6.450886E+04 -1.906992E+04  2.660369E+03  1.183196E+04
       394   4  7.857790E+05  1.664620E+03  5.913428E+03 -1.873222E+04  4.548665E+03  1.433852E+04
       394   5  7.854008E+05 -1.830367E+02  3.116369E+03 -9.644261E+03  2.970220E+03  1.336967E+04
       394   6  7.857858E+05 -1.179737E+02  1.841599E+03 -1.873143E+04  1.391281E+03  1.183127E+04
       394   7  1.140121E+06  8.885376E+04  8.790627E+04 -1.916166E+04  4.074272E+03  1.433771E+04
       394   8  1.106099E+06  7.869428E+04  7.714772E+04 -9.689939E+03  2.098136E+03  1.336886E+04
       394   9  1.072910E+06  7.051579E+04  6.818657E+04 -1.839278E+04  1.216113E+02  1.183059E+04
       394  10  4.315530E+05 -8.553356E+04 -7.608824E+04 -1.830310E+04 -4.751523E-10  2.169817E-10
       394  11  4.647976E+05 -7.906775E+04 -7.092218E+04 -9.598658E+03 -3.548348E-10 -2.506282E-11
       394  12  4.987381E+05 -7.075767E+04 -6.450914E+04 -1.906994E+04 -9.981429E-11 -2.686089E-11
       394  13  7.857790E+05  1.664394E+03  5.913002E+03 -1.873227E+04 -4.301912E-11 -4.392578E-11
       394  14  7.854007E+05 -1.832311E+02  3.116017E+03 -9.644293E+03  1.192565E-10  1.099828E-10
       394  15  7.857858E+05 -1.181246E+02  1.841332E+03 -1.873144E+04  1.007018E-10  1.062770E-10
       394  16  1.140121E+06  8.885354E+04  8.790585E+04 -1.916171E+04  3.286726E-10 -7.173095E-11
       394  17  1.106099E+06  7.869408E+04  7.714737E+04 -9.689961E+03  2.427896E-10  6.694980E-11
       394  18  1.072910E+06  7.051564E+04  6.818630E+04 -1.839279E+04 -1.206448E-11  2.988199E-11
       394  19  4.315530E+05 -8.553333E+04 -7.608781E+04 -1.830304E+04 -5.022789E+03 -1.433934E+04
       394  20  4.647977E+05 -7.906755E+04 -7.092182E+04 -9.598616E+03 -3.841857E+03 -1.337049E+04
       394  21  4.987381E+05 -7.075751E+04 -6.450886E+04 -1.906992E+04 -2.660369E+03 -1.183196E+04
       394  22  7.857790E+05  1.664620E+03  5.913428E+03 -1.873222E+04 -4.548665E+03 -1.433852E+04
       394  23  7.854008E+05 -1.830367E+02  3.116369E+03 -9.644261E+03 -2.970220E+03 -1.336967E+04
       394  24  7.857858E+05 -1.179737E+02  1.841599E+03 -1.873143E+04 -1.391281E+03 -1.183127E+04
       394  25  1.140121E+06  8.885376E+04  8.790627E+04 -1.916166E+04 -4.074272E+03 -1.433771E+04
       394  26  1.106099E+06  7.869428E+04  7.714772E+04 -9.689939E+03 -2.098136E+03 -1.336886E+04
       394  27  1.072910E+06  7.051579E+04  6.818657E+04 -1.839278E+04 -1.216113E+02 -1.183059E+04
       395   1  5.313423E+05 -6.244458E+04 -5.719046E+04 -1.869313E+04  2.187178E+03  1.082490E+04
       395   2  5.643338E+05 -5.446284E+04 -5.024177E+04 -9.743206E+03  1.786854E+03  9.256049E+03
       395   3  5.974492E+05 -4.633292E+04 -4.298818E+04 -1.869544E+04  1.385946E+03  7.664934E+03
       395   4  7.856485E+05  1.050942E+02  1.435284E+03 -1.867091E+04  1.102654E+03  1.082440E+04
       395   5  7.855875E+05 -2.925898E+01  8.365192E+02 -9.720026E+03  6.866525E+02  9.255725E+03
       395   6  7.856524E+05 -1.256697E+01  5.536111E+02 -1.867090E+04  2.700881E+02  7.664792E+03
       395   7  1.040014E+06  6.265025E+04  6.005673E+04 -1.864869E+04  1.768972E+01  1.082390E+04
       395   8  1.006886E+06  5.440089E+04  5.191155E+04 -9.696837E+03 -4.139381E+02  9.255401E+03
       395   9  9.738884E+05  4.630531E+04  4.409304E+04 -1.864636E+04 -8.461056E+02  7.664650E+03
       395  10  5.313423E+05 -6.244471E+04 -5.719068E+04 -1.869315E+04 -2.194284E-10 -9.697541E-11
       395  11  5.643338E+05 -5.446293E+04 -5.024193E+04 -9.743220E+03 -2.073509E-10 -9.604169E-11
       395  12  5.974491E+05 -4.633299E+04 -4.298830E+04 -1.869544E+04 -1.087250E-10  5.181866E-11
       395  13  7.856484E+05  1.049680E+02  1.435062E+03 -1.867092E+04  1.592488E-11 -5.123630E-11
       395  14  7.855874E+05 -2.935113E+01  8.363573E+02 -9.720031E+03  1.404061E-10 -9.537429E-12
       395  15  7.856524E+05 -1.263010E+01  5.535005E+02 -1.867090E+04  8.541867E-11  7.417117E-11
       395  16  1.040014E+06  6.265012E+04  6.005651E+04 -1.864869E+04  1.399674E-10 -2.591130E-11
       395  17  1.006886E+06  5.440080E+04  5.191139E+04 -9.696834E+03  2.116052E-10  9.636719E-12
       395  18  9.738884E+05  4.630524E+04  4.409293E+04 -1.864635E+04  1.418553E-10  1.019575E-11
       395  19  5.313423E+05 -6.244458E+04 -5.719046E+04 -1.869313E+04 -2.187178E+03 -1.082490E+04
       395  20  5.643338E+05 -5.446284E+04 -5.024177E+04 -9.743206E+03 -1.786854E+03 -9.256049E+03
       395  21  5.974492E+05 -4.633292E+04 -4.298818E+04 -1.869544E+04 -1.385946E+03 -7.664934E+03
       395  22  7.856485E+05  1.050942E+02  1.435284E+03 -1.867091E+04 -1.102654E+03 -1.082440E+04
       395  23  7.855875E+05 -2.925898E+01  8.365192E+02 -9.720026E+03 -6.866525E+02 -9.255725E+03
       395  24  7.856524E+05 -1.256697E+01  5.536111E+02 -1.867090E+04 -2.700881E+02 -7.664792E+03
       395  25  1.040014E+06  6.265025E+04  6.005673E+04 -1.864869E+04 -1.768972E+01 -1.082390E+04
       395  26  1.006886E+06  5.440089E+04  5.191155E+04 -9.696837E+03  4.139381E+02 -9.255401E+03
       395  27  9.738884E+05  4.630531E+04  4.409304E+04 -1.864636E+04  8.461056E+02 -7.664650E+03
       396   1  6.297400E+05 -3.833018E+04 -3.541339E+04 -1.862873E+04  1.280266E+03  6.736702E+03
       396   2  6.624340E+05 -3.031010E+04 -2.800785E+04 -9.759143E+03  1.066773E+03  5.154070E+03
       396   3  6.951675E+05 -2.227040E+04 -2.045733E+04 -1.861174E+04  8.529496E+02  3.574089E+03
       396   4  7.856356E+05  2.748134E+00  4.774502E+02 -1.863095E+04  1.770169E+02  6.736651E+03
       396   5  7.856177E+05 -5.908922E+00  4.279313E+02 -9.769966E+03 -3.470580E+01  5.154117E+03
       396   6  7.856376E+05  4.677847E+00  5.220710E+02 -1.863095E+04 -2.467485E+02  3.574237E+03
       396   7  9.415536E+05  3.833398E+04  3.636668E+04 -1.863317E+04 -9.265071E+02  6.736599E+03
       396   8  9.088155E+05  3.029722E+04  2.886271E+04 -9.780791E+03 -1.136402E+03  5.154163E+03
       396   9  8.761153E+05  2.227918E+04  2.150093E+04 -1.865016E+04 -1.346605E+03  3.574385E+03
       396  10  6.297400E+05 -3.833023E+04 -3.541348E+04 -1.862874E+04 -5.035635E-11 -1.352612E-11
       396  11  6.624340E+05 -3.031012E+04 -2.800791E+04 -9.759148E+03 -1.372763E-11 -1.433690E-10
       396  12  6.951675E+05 -2.227041E+04 -2.045736E+04 -1.861174E+04 -2.932751E-11 -1.085725E-10
       396  13  7.856356E+05  2.699375E+00  4.773649E+02 -1.863095E+04  7.758651E-11  2.428796E-11
       396  14  7.856177E+05 -5.937459E+00  4.278814E+02 -9.769966E+03 -6.509618E-11  3.138110E-11
       396  15  7.856376E+05  4.664107E+00  5.220468E+02 -1.863095E+04 -4.462754E-11  1.522619E-11
       396  16  9.415536E+05  3.833393E+04  3.636659E+04 -1.863316E+04  1.681965E-11  8.478630E-11
       396  17  9.088155E+05  3.029719E+04  2.886266E+04 -9.780786E+03 -1.793329E-11 -1.304119E-10
       396  18  8.761153E+05  2.227916E+04  2.150090E+04 -1.865016E+04  9.663295E-11 -1.007298E-10
       396  19  6.297400E+05 -3.833018E+04 -3.541339E+04 -1.862873E+04 -1.280266E+03 -6.736702E+03
       396  20  6.624340E+05 -3.031010E+04 -2.800785E+04 -9.759143E+03 -1.066773E+03 -5.154070E+03
       396  21  6.951675E+05 -2.227040E+04 -2.045733E+04 -1.861174E+04 -8.529496E+02 -3.574089E+03
       396  22  7.856356E+05  2.748134E+00  4.774502E+02 -1.863095E+04 -1.770169E+02 -6.736651E+03
       396  23  7.856177E+05 -5.908922E+00  4.279313E+02 -9.769966E+03  3.470580E+01 -5.154117E+03
       396  24  7.856376E+05  4.677847E+00  5.220710E+02 -1.863095E+04  2.467485E+02 -3.574237E+03
       396  25  9.415536E+05  3.833398E+04  3.636668E+04 -1.863317E+04  9.265071E+02 -6.736599E+03
       396  26  9.088155E+05  3.029722E+04  2.886271E+04 -9.780791E+03  1.136402E+03 -5.154163E+03
       396  27  8.761153E+05  2.227918E+04  2.150093E+04 -1.865016E+04  1.346605E+03 -3.574385E+03
       397   1  7.272469E+05 -1.434549E+04 -1.275944E+04 -1.858765E+04  7.472422E+02  2.656069E+03
       397   2  7.597789E+05 -6.363259E+03 -4.975186E+03 -9.764264E+03  2.568241E+02  1.080816E+03
       397   3  7.923848E+05  1.682705E+03  3.142303E+03 -1.858198E+04 -2.336856E+02 -4.926097E+02
       397   4  7.856466E+05  1.446662E+00  6.246068E+02 -1.861297E+04 -3.508198E+02  2.656256E+03
       397   5  7.856103E+05 -8.901351E+00  9.873459E+02 -9.792435E+03 -8.400067E+02  1.081021E+03
       397   6  7.856468E+05  4.434005E+01  1.682517E+03 -1.861296E+04 -1.329260E+03 -4.923819E+02
       397   7  8.440494E+05  1.434815E+04  1.400844E+04 -1.863830E+04 -1.448984E+03  2.656442E+03
       397   8  8.114424E+05  6.345410E+03  6.949838E+03 -9.820608E+03 -1.936883E+03  1.081226E+03
       397   9  7.789087E+05 -1.594028E+03  2.227332E+02 -1.864394E+04 -2.424822E+03 -4.921541E+02
       397  10  7.272469E+05 -1.434550E+04 -1.275946E+04 -1.858765E+04  7.421342E-12 -5.875259E-11
       397  11  7.597789E+05 -6.363260E+03 -4.975189E+03 -9.764264E+03  7.184000E-11 -1.582037E-10
       397  12  7.923848E+05  1.682705E+03  3.142302E+03 -1.858198E+04  8.655476E-11 -1.142523E-10
       397  13  7.856466E+05  1.439049E+00  6.245933E+02 -1.861297E+04 -1.382888E-10  1.233836E-10
       397  14  7.856103E+05 -8.902795E+00  9.873424E+02 -9.792434E+03 -1.802454E-10  2.671530E-11
       397  15  7.856468E+05  4.433931E+01  1.682513E+03 -1.861296E+04 -4.093211E-11 -7.330366E-11
       397  16  8.440494E+05  1.434814E+04  1.400842E+04 -1.863829E+04 -4.174126E-11 -1.405185E-11
       397  17  8.114424E+05  6.345408E+03  6.949829E+03 -9.820606E+03 -2.366783E-10  1.066540E-10
       397  18  7.789087E+05 -1.594030E+03  2.227218E+02 -1.864394E+04 -1.023006E-10 -7.112593E-11
       397  19  7.272469E+05 -1.434549E+04 -1.275944E+04 -1.858765E+04 -7.472422E+02 -2.656069E+03
       397  20  7.597789E+05 -6.363259E+03 -4.975186E+03 -9.764264E+03 -2.568241E+02 -1.080816E+03
       397  21  7.923848E+05  1.682705E+03  3.142303E+03 -1.858198E+04  2.336856E+02  4.926097E+02
       397  22  7.856466E+05  1.446662E+00  6.246068E+02 -1.861297E+04  3.508198E+02 -2.656256E+03
       397  23  7.856103E+05 -8.901351E+00  9.873459E+02 -9.792435E+03  8.400067E+02 -1.081021E+03
       397  24  7.856468E+05  4.434005E+01  1.682517E+03 -1.861296E+04  1.329260E+03  4.923819E+02
       397  25  8.440494E+05  1.434815E+04  1.400844E+04 -1.863830E+04  1.448984E+03 -2.656442E+03
       397  26  8.114424E+05  6.345410E+03  6.949838E+03 -9.820608E+03  1.936883E+03 -1.081226E+03
       397  27  7.789087E+05 -1.594028E+03  2.227332E+02 -1.864394E+04  2.424822E+03  4.921541E+02
       398   1  8.244862E+05  9.521961E+03  1.123463E+04 -1.847943E+04 -5.759038E+02 -1.411198E+03
       398   2  8.568874E+05  1.747822E+04  2.025046E+04 -9.755181E+03 -2.468642E+03 -2.984172E+03
       398   3  8.897170E+05  2.617475E+04  3.068128E+04 -1.869613E+04 -4.361271E+03 -4.539651E+03
       398   4  7.857249E+05 -3.168712E+01  2.192544E+03 -1.861839E+04 -1.678058E+03 -1.410981E+03
       398   5  7.855108E+05 -7.905481E+01  3.775123E+03 -9.785668E+03 -3.558424E+03 -2.984016E+03
       398   6  7.857226E+05  6.119830E+02  6.764466E+03 -1.861827E+04 -5.438583E+03 -4.539553E+03
       398   7  7.469650E+05 -9.585441E+03 -6.849644E+03 -1.875734E+04 -2.780143E+03 -1.410763E+03
       398   8  7.141389E+05 -1.763668E+04 -1.270054E+04 -9.816152E+03 -4.648082E+03 -2.983861E+03
       398   9  6.817382E+05 -2.495154E+04 -1.715305E+04 -1.854042E+04 -6.515717E+03 -4.539455E+03
       398  10  8.244862E+05  9.521959E+03  1.123463E+04 -1.847943E+04 -7.218389E-11 -1.581402E-10
       398  11  8.568873E+05  1.747821E+04  2.025043E+04 -9.755186E+03 -6.467041E-11 -1.804549E-10
       398  12  8.897170E+05  2.617472E+04  3.068120E+04 -1.869615E+04  1.623628E-10 -2.379143E-10
       398  13  7.857249E+05 -3.169001E+01  2.192535E+03 -1.861839E+04  1.045528E-10 -1.278229E-10
       398  14  7.855108E+05 -7.906777E+01  3.775083E+03 -9.785677E+03  3.410502E-13 -5.160905E-11
       398  15  7.857226E+05  6.119529E+02  6.764372E+03 -1.861829E+04  2.920698E-11 -9.282528E-11
       398  16  7.469650E+05 -9.585445E+03 -6.849662E+03 -1.875734E+04 -2.810558E-11 -2.620291E-11
       398  17  7.141389E+05 -1.763670E+04 -1.270060E+04 -9.816163E+03  8.214527E-11  1.077380E-10
       398  18  6.817382E+05 -2.495157E+04 -1.715317E+04 -1.854045E+04 -7.188586E-11 -3.276719E-12
       398  19  8.244862E+05  9.521961E+03  1.123463E+04 -1.847943E+04  5.759038E+02  1.411198E+03
       398  20  8.568874E+05  1.747822E+04  2.025046E+04 -9.755181E+03  2.468642E+03  2.984172E+03
       398  21  8.897170E+05  2.617475E+04  3.068128E+04 -1.869613E+04  4.361271E+03  4.539651E+03
       398  22  7.857249E+05 -3.168712E+01  2.192544E+03 -1.861839E+04  1.678058E+03  1.410981E+03
       398  23  7.855108E+05 -7.905481E+01  3.775123E+03 -9.785668E+03  3.558424E+03  2.984016E+03
       398  24  7.857226E+05  6.119830E+02  6.764466E+03 -1.861827E+04  5.438583E+03  4.539553E+03
       398  25  7.469650E+05 -9.585441E+03 -6.849644E+03 -1.875734E+04  2.780143E+03  1.410763E+03
       398  26  7.141389E+05 -1.763668E+04 -1.270054E+04 -9.816152E+03  4.648082E+03  2.983861E+03
       398  27  6.817382E+05 -2.495154E+04 -1.715305E+04 -1.854042E+04  6.515717E+03  4.539455E+03
       399   1  9.225283E+05  3.304286E+04  4.026335E+04 -1.727317E+04 -5.605128E+03 -5.506671E+03
       399   2  9.537035E+05  4.082563E+04  5.400195E+04 -1.044717E+04 -1.346538E+04 -7.037883E+03
       399   3  9.882418E+05  5.790528E+04  7.517977E+04 -2.139968E+04 -2.132581E+04 -8.186164E+03
       399   4  7.863635E+05 -4.662967E+02  8.750449E+03 -1.864354E+04 -6.804858E+03 -5.506609E+03
       399   5  7.847010E+05 -7.459776E+02  1.498212E+04 -9.754198E+03 -1.439646E+04 -7.038003E+03
       399   6  7.863548E+05  8.226113E+03  2.846817E+04 -1.864353E+04 -2.198783E+04 -8.186467E+03
       399   7  6.502157E+05 -3.397675E+04 -2.276369E+04 -2.001361E+04 -8.004328E+03 -5.506542E+03
       399   8  6.157249E+05 -4.231959E+04 -2.403962E+04 -9.061415E+03 -1.532728E+04 -7.038125E+03
       399   9  5.845054E+05 -4.145588E+04 -1.824616E+04 -1.588828E+04 -2.264963E+04 -8.186775E+03
       399  10  9.225282E+05  3.304282E+04  4.026324E+04 -1.727319E+04 -1.893976E-10 -1.677160E-10
       399  11  9.537033E+05  4.082553E+04  5.400152E+04 -1.044725E+04  6.390088E-12  1.123834E-10
       399  12  9.882413E+05  5.790508E+04  7.517879E+04 -2.139982E+04  2.872730E-11  3.437577E-12
       399  13  7.863634E+05 -4.663417E+02  8.750306E+03 -1.864357E+04 -5.379207E-11 -3.417637E-11
       399  14  7.847008E+05 -7.460864E+02  1.498164E+04 -9.754280E+03 -1.671465E-10  1.807119E-10
       399  15  7.863543E+05  8.225911E+03  2.846713E+04 -1.864368E+04 -5.614495E-11  6.251673E-11
       399  16  6.502157E+05 -3.397680E+04 -2.276386E+04 -2.001364E+04  1.044391E-10  1.465688E-11
       399  17  6.157246E+05 -4.231970E+04 -2.404015E+04 -9.061502E+03 -1.848047E-10  5.257179E-11
       399  18  5.845049E+05 -4.145609E+04 -1.824725E+04 -1.588843E+04 -3.414781E-11  1.044765E-11
       399  19  9.225283E+05  3.304286E+04  4.026335E+04 -1.727317E+04  5.605128E+03  5.506671E+03
       399  20  9.537035E+05  4.082563E+04  5.400195E+04 -1.044717E+04  1.346538E+04  7.037883E+03
       399  21  9.882418E+05  5.790528E+04  7.517977E+04 -2.139968E+04  2.132581E+04  8.186164E+03
       399  22  7.863635E+05 -4.662967E+02  8.750449E+03 -1.864354E+04  6.804858E+03  5.506609E+03
       399  23  7.847010E+05 -7.459776E+02  1.498212E+04 -9.754198E+03  1.439646E+04  7.038003E+03
       399  24  7.863548E+05  8.226113E+03  2.846817E+04 -1.864353E+04  2.198783E+04  8.186467E+03
       399  25  6.502157E+05 -3.397675E+04 -2.276369E+04 -2.001361E+04  8.004328E+03  5.506542E+03
       399  26  6.157249E+05 -4.231959E+04 -2.403962E+04 -9.061415E+03  1.532728E+04  7.038125E+03
       399  27  5.845054E+05 -4.145588E+04 -1.824616E+04 -1.588828E+04  2.264963E+04  8.186775E+03
       400   1  1.027485E+06  5.182161E+04  8.932045E+04 -3.058335E+03 -2.421925E+04 -1.003424E+04
       400   2  1.043787E+06  5.760735E+04  1.202480E+05 -2.315933E+04 -6.069782E+04 -1.057631E+04
       400   3  1.094201E+06  1.807126E+05  2.042377E+05 -6.104641E+04 -9.718086E+04 -3.513734E+03
       400   4  7.930017E+05 -5.834443E+03  3.530543E+04 -1.863676E+04 -2.723651E+04 -1.003417E+04
       400   5  7.763766E+05 -8.212461E+03  5.825393E+04 -9.759695E+03 -5.840575E+04 -1.057744E+04
       400   6  7.929556E+05  1.058327E+05  1.305964E+05 -1.866671E+04 -8.957716E+04 -3.518005E+03
       400   7  5.585696E+05 -6.349343E+04 -1.871309E+04 -3.420927E+04 -3.025264E+04 -1.003395E+04
       400   8  5.090325E+05 -7.403662E+04 -3.744788E+03  3.634134E+03 -5.611466E+04 -1.057847E+04
       400   9  4.917972E+05  3.095287E+04  5.694955E+04  2.369241E+04 -8.197713E+04 -3.521242E+03
       400  10  1.027484E+06  5.182135E+04  8.931916E+04 -3.058530E+03 -2.895472E-10 -1.048643E-10
       400  11  1.043783E+06  5.760624E+04  1.202409E+05 -2.315985E+04 -3.909603E-10 -1.298272E-10
       400  12  1.094190E+06  1.807100E+05  2.042200E+05 -6.104668E+04  5.901182E-11 -1.441466E-11
       400  13  7.930009E+05 -5.834750E+03  3.530384E+04 -1.863698E+04 -7.576154E-11  2.615573E-11
       400  14  7.763729E+05 -8.213496E+03  5.824732E+04 -9.760192E+03 -7.001488E-11  2.092843E-10
       400  15  7.929470E+05  1.058305E+05  1.305813E+05 -1.866696E+04  8.339144E-11  1.541770E-11
       400  16  5.585686E+05 -6.349378E+04 -1.871499E+04 -3.420952E+04  3.159685E-10  1.628917E-10
       400  17  5.090291E+05 -7.403758E+04 -3.750911E+03  3.633656E+03  3.070696E-10  3.913465E-10
       400  18  4.917899E+05  3.095105E+04  5.693691E+04  2.369218E+04 -2.803040E-10  1.258850E-10
       400  19  1.027485E+06  5.182161E+04  8.932045E+04 -3.058335E+03  2.421925E+04  1.003424E+04
       400  20  1.043787E+06  5.760735E+04  1.202480E+05 -2.315933E+04  6.069782E+04  1.057631E+04
       400  21  1.094201E+06  1.807126E+05  2.042377E+05 -6.104641E+04  9.718086E+04  3.513734E+03
       400  22  7.930017E+05 -5.834443E+03  3.530543E+04 -1.863676E+04  2.723651E+04  1.003417E+04
       400  23  7.763766E+05 -8.212461E+03  5.825393E+04 -9.759695E+03  5.840575E+04  1.057744E+04
       400  24  7.929556E+05  1.058327E+05  1.305964E+05 -1.866671E+04  8.957716E+04  3.518005E+03
       400  25  5.585696E+05 -6.349343E+04 -1.871309E+04 -3.420927E+04  3.025264E+04  1.003395E+04
       400  26  5.090325E+05 -7.403662E+04 -3.744788E+03  3.634134E+03  5.611466E+04  1.057847E+04
       400  27  4.917972E+05  3.095287E+04  5.694955E+04  2.369241E+04  8.197713E+04  3.521242E+03
       401   1 -1.999332E+05 -9.333946E+04 -8.980585E+04 -1.658572E+04 -3.976766E+03  4.781803E+03
       401   2 -1.658027E+05 -9.182253E+04 -8.169531E+04 -9.417634E+03  8.393920E+02  1.467399E+04
       401   3 -1.304128E+05 -8.311969E+04 -7.490732E+04 -2.066403E+04  5.658846E+03  1.442361E+04
       401   4  2.055519E+05  7.597363E+03  9.398966E+03 -1.954762E+04  6.437239E+03  4.784856E+03
       401   5  2.043141E+05 -6.238860E+02  4.184180E+03 -1.033981E+04  4.195306E+03  1.467391E+04
       401   6  2.055593E+05 -4.360164E+02  2.547628E+03 -1.954580E+04  1.956520E+03  1.442313E+04
       401   7  6.111871E+05  1.085221E+05  1.085922E+05 -2.251146E+04  1.685803E+04  4.787809E+03
       401   8  5.745574E+05  9.056512E+04  9.005451E+04 -1.126254E+04  7.553207E+03  1.467382E+04
       401   9  5.416358E+05  8.223977E+04  7.999513E+04 -1.842695E+04 -1.747794E+03  1.442263E+04
       401  10 -1.999332E+05 -9.333949E+04 -8.980592E+04 -1.658571E+04 -9.572386E-11 -7.949220E-12
       401  11 -1.658028E+05 -9.182276E+04 -8.169571E+04 -9.417644E+03 -6.684626E-11 -1.644737E-10
       401  12 -1.304129E+05 -8.311992E+04 -7.490777E+04 -2.066410E+04 -1.580867E-10 -4.277532E-13
       401  13  2.055519E+05  7.597327E+03  9.398845E+03 -1.954764E+04 -2.891189E-11 -1.011597E-10
       401  14  2.043140E+05 -6.241220E+02  4.183743E+03 -1.033986E+04 -2.192499E-10 -8.885175E-11
       401  15  2.055592E+05 -4.362408E+02  2.547230E+03 -1.954582E+04 -1.527034E-10 -1.175191E-10
       401  16  6.111868E+05  1.085220E+05  1.085916E+05 -2.251153E+04  1.461014E-10  1.905315E-10
       401  17  5.745573E+05  9.056488E+04  9.005400E+04 -1.126263E+04  1.003649E-10 -4.297427E-11
       401  18  5.416358E+05  8.223955E+04  7.999473E+04 -1.842693E+04 -1.513629E-10  1.020416E-11
       401  19 -1.999332E+05 -9.333946E+04 -8.980585E+04 -1.658572E+04  3.976766E+03 -4.781803E+03
       401  20 -1.658027E+05 -9.182253E+04 -8.169531E+04 -9.417634E+03 -8.393920E+02 -1.467399E+04
       401  21 -1.304128E+05 -8.311969E+04 -7.490732E+04 -2.066403E+04 -5.658846E+03 -1.442361E+04
       401  22  2.055519E+05  7.597363E+03  9.398966E+03 -1.954762E+04 -6.437239E+03 -4.784856E+03
       401  23  2.043141E+05 -6.238860E+02  4.184180E+03 -1.033981E+04 -4.195306E+03 -1.467391E+04
       401  24  2.055593E+05 -4.360164E+02  2.547628E+03 -1.954580E+04 -1.956520E+03 -1.442313E+04
       401  25  6.111871E+05  1.085221E+05  1.085922E+05 -2.251146E+04 -1.685803E+04 -4.787809E+03
       401  26  5.745574E+05  9.056512E+04  9.005451E+04 -1.126254E+04 -7.553207E+03 -1.467382E+04
       401  27  5.416358E+05  8.223977E+04  7.999513E+04 -1.842695E+04  1.747794E+03 -1.442263E+04
       402   1 -9.674619E+04 -7.376524E+04 -6.785472E+04 -1.938791E+04  2.148059E+03  1.222879E+04
       402   2 -6.235856E+04 -6.587386E+04 -6.068006E+04 -1.017843E+04  1.956622E+03  1.114946E+04
       402   3 -2.775605E+04 -5.736610E+04 -5.321903E+04 -1.964602E+04  1.764441E+03  9.554078E+03
       402   4  2.050740E+05  5.780849E+02  2.055503E+03 -1.960458E+04  1.577021E+03  1.222843E+04
       402   5  2.049386E+05 -6.445266E+01  1.087445E+03 -1.026634E+04  1.026201E+03  1.114932E+04
       402   6  2.050788E+05 -2.843983E+01  6.550875E+02 -1.960467E+04  4.746413E+02  9.554252E+03
       402   7  5.069783E+05  7.491501E+04  7.195963E+04 -1.982135E+04  1.005708E+03  1.222807E+04
       402   8  4.723019E+05  6.573994E+04  6.285019E+04 -1.035428E+04  9.538176E+01  1.114917E+04
       402   9  4.379638E+05  5.730541E+04  5.452559E+04 -1.956331E+04 -8.156385E+02  9.554425E+03
       402  10 -9.674624E+04 -7.376541E+04 -6.785501E+04 -1.938793E+04  1.222692E-10  7.566581E-11
       402  11 -6.235860E+04 -6.587399E+04 -6.068030E+04 -1.017845E+04  1.262071E-11 -3.063496E-11
       402  12 -2.775608E+04 -5.736620E+04 -5.321921E+04 -1.964604E+04 -6.461914E-12  1.695141E-10
       402  13  2.050739E+05  5.779236E+02  2.055218E+03 -1.960460E+04 -4.960446E-11 -7.290054E-11
       402  14  2.049386E+05 -6.458644E+01  1.087210E+03 -1.026635E+04 -1.072590E-10 -3.768751E-11
       402  15  2.050788E+05 -2.853793E+01  6.549155E+02 -1.960468E+04 -1.692679E-10  1.548815E-10
       402  16  5.069782E+05  7.491485E+04  7.195935E+04 -1.982136E+04 -7.134442E-11 -4.684215E-11
       402  17  4.723018E+05  6.573981E+04  6.284996E+04 -1.035429E+04 -2.137853E-10 -9.114987E-11
       402  18  4.379638E+05  5.730532E+04  5.452542E+04 -1.956330E+04  2.313642E-10 -1.117400E-10
       402  19 -9.674619E+04 -7.376524E+04 -6.785472E+04 -1.938791E+04 -2.148059E+03 -1.222879E+04
       402  20 -6.235856E+04 -6.587386E+04 -6.068006E+04 -1.017843E+04 -1.956622E+03 -1.114946E+04
       402  21 -2.775605E+04 -5.736610E+04 -5.321903E+04 -1.964602E+04 -1.764441E+03 -9.554078E+03
       402  22  2.050740E+05  5.780849E+02  2.055503E+03 -1.960458E+04 -1.577021E+03 -1.222843E+04
       402  23  2.049386E+05 -6.445266E+01  1.087445E+03 -1.026634E+04 -1.026201E+03 -1.114932E+04
       402  24  2.050788E+05 -2.843983E+01  6.550875E+02 -1.960467E+04 -4.746413E+02 -9.554252E+03
       402  25  5.069783E+05  7.491501E+04  7.195963E+04 -1.982135E+04 -1.005708E+03 -1.222807E+04
       402  26  4.723019E+05  6.573994E+04  6.285019E+04 -1.035428E+04 -9.538176E+01 -1.114917E+04
       402  27  4.379638E+05  5.730541E+04  5.452559E+04 -1.956331E+04  8.156385E+02 -9.554425E+03
       403   1  6.074204E+03 -4.891234E+04 -4.535337E+04 -1.953429E+04  1.499500E+03  8.522060E+03
       403   2  4.043941E+04 -4.051679E+04 -3.769131E+04 -1.022655E+04  1.354633E+03  6.887700E+03
       403   3  7.483774E+04 -3.205487E+04 -2.991920E+04 -1.955037E+04  1.209304E+03  5.228302E+03
       403   4  2.050290E+05  4.864215E+01  5.181161E+02 -1.959456E+04  3.707319E+02  8.522301E+03
       403   5  2.050130E+05 -2.936618E+00  3.255071E+02 -1.027894E+04  2.083643E+02  6.888084E+03
       403   6  2.050320E+05  1.496378E+01  2.551200E+02 -1.959458E+04  4.554338E+01  5.228837E+03
       403   7  4.040205E+05  4.900685E+04  4.638698E+04 -1.965485E+04 -7.583952E+02  8.522542E+03
       403   8  3.696116E+05  4.050902E+04  3.834052E+04 -1.033134E+04 -9.382055E+02  6.888468E+03
       403   9  3.352419E+05  3.208361E+04  3.042831E+04 -1.963879E+04 -1.118459E+03  5.229372E+03
       403  10  6.074183E+03 -4.891242E+04 -4.535351E+04 -1.953430E+04  2.122300E-10 -4.721462E-11
       403  11  4.043940E+04 -4.051684E+04 -3.769140E+04 -1.022656E+04  1.306904E-10 -5.667262E-11
       403  12  7.483773E+04 -3.205490E+04 -2.991925E+04 -1.955037E+04  9.889581E-11 -2.784592E-10
       403  13  2.050290E+05  4.856411E+01  5.179794E+02 -1.959456E+04 -1.325409E-10  1.058095E-10
       403  14  2.050130E+05 -2.987583E+00  3.254178E+02 -1.027894E+04 -1.023776E-10  2.165512E-10
       403  15  2.050320E+05  1.493442E+01  2.550686E+02 -1.959458E+04  1.252962E-12  3.493369E-10
       403  16  4.040204E+05  4.900677E+04  4.638684E+04 -1.965484E+04 -3.263774E-10 -1.107778E-10
       403  17  3.696116E+05  4.050897E+04  3.834043E+04 -1.033134E+04 -3.327820E-10 -2.983059E-10
       403  18  3.352419E+05  3.208358E+04  3.042825E+04 -1.963879E+04  1.927650E-10 -1.463511E-10
       403  19  6.074204E+03 -4.891234E+04 -4.535337E+04 -1.953429E+04 -1.499500E+03 -8.522060E+03
       403  20  4.043941E+04 -4.051679E+04 -3.769131E+04 -1.022655E+04 -1.354633E+03 -6.887700E+03
       403  21  7.483774E+04 -3.205487E+04 -2.991920E+04 -1.955037E+04 -1.209304E+03 -5.228302E+03
       403  22  2.050290E+05  4.864215E+01  5.181161E+02 -1.959456E+04 -3.707319E+02 -8.522301E+03
       403  23  2.050130E+05 -2.936618E+00  3.255071E+02 -1.027894E+04 -2.083643E+02 -6.888084E+03
       403  24  2.050320E+05  1.496378E+01  2.551200E+02 -1.959458E+04 -4.554338E+01 -5.228837E+03
       403  25  4.040205E+05  4.900685E+04  4.638698E+04 -1.965485E+04  7.583952E+02 -8.522542E+03
       403  26  3.696116E+05  4.050902E+04  3.834052E+04 -1.033134E+04  9.382055E+02 -6.888468E+03
       403  27  3.352419E+05  3.208361E+04  3.042831E+04 -1.963879E+04  1.118459E+03 -5.229372E+03
       404   1  1.086239E+05 -2.369047E+04 -2.191871E+04 -1.954732E+04  1.154548E+03  4.257906E+03
       404   2  1.429477E+05 -1.527329E+04 -1.404643E+04 -1.025600E+04  1.009624E+03  2.598295E+03
       404   3  1.772747E+05 -6.828726E+03 -6.078365E+03 -1.956445E+04  8.645272E+02  9.379363E+02
       404   4  2.050267E+05  2.021845E+01  2.482235E+02 -1.958755E+04 -5.095257E-01  4.258498E+03
       404   5  2.050259E+05  7.793596E+00  2.925385E+02 -1.028772E+04 -1.459873E+02  2.598938E+03
       404   6  2.050278E+05  2.305781E+01  4.332036E+02 -1.958754E+04 -2.916310E+02  9.386354E+02
       404   7  3.014381E+05  2.373026E+04  2.241455E+04 -1.962778E+04 -1.155744E+03  4.259091E+03
       404   8  2.671076E+05  1.528861E+04  1.463125E+04 -1.031945E+04 -1.301713E+03  2.599582E+03
       404   9  2.327816E+05  6.874787E+03  6.944725E+03 -1.961064E+04 -1.447841E+03  9.393345E+02
       404  10  1.086239E+05 -2.369049E+04 -2.191875E+04 -1.954732E+04  5.853984E-10 -7.693345E-11
       404  11  1.429477E+05 -1.527330E+04 -1.404644E+04 -1.025600E+04  2.503203E-10 -1.490559E-10
       404  12  1.772747E+05 -6.828727E+03 -6.078368E+03 -1.956445E+04  2.186379E-10 -9.654410E-11
       404  13  2.050267E+05  2.019898E+01  2.481894E+02 -1.958755E+04  1.673087E-10 -4.847985E-10
       404  14  2.050259E+05  7.786337E+00  2.925257E+02 -1.028772E+04 -1.814076E-10  6.007064E-12
       404  15  2.050278E+05  2.305684E+01  4.332018E+02 -1.958754E+04 -6.248186E-11 -2.199163E-10
       404  16  3.014381E+05  2.373024E+04  2.241451E+04 -1.962778E+04 -5.202488E-10  1.117614E-11
       404  17  2.671076E+05  1.528860E+04  1.463124E+04 -1.031944E+04 -5.934930E-10 -1.882147E-10
       404  18  2.327816E+05  6.874786E+03  6.944719E+03 -1.961064E+04 -1.573146E-10 -3.641544E-10
       404  19  1.086239E+05 -2.369047E+04 -2.191871E+04 -1.954732E+04 -1.154548E+03 -4.257906E+03
       404  20  1.429477E+05 -1.527329E+04 -1.404643E+04 -1.025600E+04 -1.009624E+03 -2.598295E+03
       404  21  1.772747E+05 -6.828726E+03 -6.078365E+03 -1.956445E+04 -8.645272E+02 -9.379363E+02
       404  22  2.050267E+05  2.021845E+01  2.482235E+02 -1.958755E+04  5.095257E-01 -4.258498E+03
       404  23  2.050259E+05  7.793596E+00  2.925385E+02 -1.028772E+04  1.459873E+02 -2.598938E+03
       404  24  2.050278E+05  2.305781E+01  4.332036E+02 -1.958754E+04  2.916310E+02 -9.386354E+02
       404  25  3.014381E+05  2.373026E+04  2.241455E+04 -1.962778E+04  1.155744E+03 -4.259091E+03
       404  26  2.671076E+05  1.528861E+04  1.463125E+04 -1.031945E+04  1.301713E+03 -2.599582E+03
       404  27  2.327816E+05  6.874787E+03  6.944725E+03 -1.961064E+04  1.447841E+03 -9.393345E+02
       405   1  2.110496E+05  1.519428E+03  2.038528E+03 -1.957130E+04  7.748998E+02 -2.860275E+01
       405   2  2.453441E+05  9.927323E+03  1.023572E+04 -1.028095E+04  3.176214E+02 -1.688529E+03
       405   3  2.796936E+05  1.841112E+04  1.874380E+04 -1.958736E+04 -1.395794E+02 -3.347581E+03
       405   4  2.050392E+05  1.975767E+01  5.490339E+02 -1.958693E+04 -3.812038E+02 -2.789767E+01
       405   5  2.050122E+05 -7.807752E-02  9.203309E+02 -1.028850E+04 -8.378826E+02 -1.687861E+03
       405   6  2.050384E+05  5.584503E+01  1.602043E+03 -1.958690E+04 -1.294459E+03 -3.346945E+03
       405   7  1.990289E+05 -1.479915E+03 -9.404581E+02 -1.960256E+04 -1.537296E+03 -2.719252E+01
       405   8  1.646818E+05 -9.927592E+03 -8.395163E+03 -1.029605E+04 -1.993312E+03 -1.687192E+03
       405   9  1.303884E+05 -1.829982E+04 -1.554007E+04 -1.958644E+04 -2.449201E+03 -3.346309E+03
       405  10  2.110496E+05  1.519428E+03  2.038527E+03 -1.957130E+04  2.439056E-10  3.682212E-10
       405  11  2.453441E+05  9.927320E+03  1.023572E+04 -1.028095E+04  1.164417E-10  8.509644E-10
       405  12  2.796936E+05  1.841111E+04  1.874378E+04 -1.958736E+04  6.392623E-10 -4.488794E-10
       405  13  2.050392E+05  1.975763E+01  5.490337E+02 -1.958693E+04 -1.282719E-10  9.676737E-11
       405  14  2.050122E+05 -8.132544E-02  9.203242E+02 -1.028850E+04 -9.424295E-11 -3.575960E-10
       405  15  2.050384E+05  5.583255E+01  1.602019E+03 -1.958691E+04 -2.424057E-10  5.099701E-11
       405  16  1.990289E+05 -1.479915E+03 -9.404625E+02 -1.960256E+04 -2.167539E-10  1.268084E-10
       405  17  1.646818E+05 -9.927597E+03 -8.395176E+03 -1.029605E+04 -4.433049E-10 -2.352738E-10
       405  18  1.303884E+05 -1.829984E+04 -1.554011E+04 -1.958645E+04 -3.097456E-10  5.759166E-11
       405  19  2.110496E+05  1.519428E+03  2.038528E+03 -1.957130E+04 -7.748998E+02  2.860275E+01
       405  20  2.453441E+05  9.927323E+03  1.023572E+04 -1.028095E+04 -3.176214E+02  1.688529E+03
       405  21  2.796936E+05  1.841112E+04  1.874380E+04 -1.958736E+04  1.395794E+02  3.347581E+03
       405  22  2.050392E+05  1.975767E+01  5.490339E+02 -1.958693E+04  3.812038E+02  2.789767E+01
       405  23  2.050122E+05 -7.807752E-02  9.203309E+02 -1.028850E+04  8.378826E+02  1.687861E+03
       405  24  2.050384E+05  5.584503E+01  1.602043E+03 -1.958690E+04  1.294459E+03  3.346945E+03
       405  25  1.990289E+05 -1.479915E+03 -9.404581E+02 -1.960256E+04  1.537296E+03  2.719252E+01
       405  26  1.646818E+05 -9.927592E+03 -8.395163E+03 -1.029605E+04  1.993312E+03  1.687192E+03
       405  27  1.303884E+05 -1.829982E+04 -1.554007E+04 -1.958644E+04  2.449201E+03  3.346309E+03
       406   1  3.135576E+05  2.669404E+04  2.724390E+04 -1.949762E+04 -4.646248E+02 -4.317255E+03
       406   2  3.477237E+05  3.507785E+04  3.660970E+04 -1.029433E+04 -2.287788E+03 -5.975115E+03
       406   3  3.823008E+05  4.418927E+04  4.734146E+04 -1.971284E+04 -4.110659E+03 -7.609235E+03
       406   4  2.051155E+05 -1.707203E+01  2.097784E+03 -1.959261E+04 -1.627683E+03 -4.316665E+03
       406   5  2.049106E+05 -7.259418E+01  3.625697E+03 -1.028143E+04 -3.433967E+03 -5.974658E+03
       406   6  2.051127E+05  5.967849E+02  6.508179E+03 -1.959231E+04 -5.239860E+03 -7.608903E+03
       406   7  9.668432E+04 -2.672901E+04 -2.304911E+04 -1.968758E+04 -2.790540E+03 -4.316075E+03
       406   8  6.211627E+04 -3.522446E+04 -2.935966E+04 -1.026853E+04 -4.579884E+03 -5.974201E+03
       406   9  2.795369E+04 -4.299790E+04 -3.432719E+04 -1.947182E+04 -6.368741E+03 -7.608573E+03
       406  10  3.135576E+05  2.669402E+04  2.724386E+04 -1.949763E+04  5.528127E-10 -5.617929E-10
       406  11  3.477237E+05  3.507781E+04  3.660962E+04 -1.029434E+04  7.753675E-11  2.568399E-11
       406  12  3.823007E+05  4.418921E+04  4.734132E+04 -1.971286E+04 -2.401242E-10  1.331079E-10
       406  13  2.051155E+05 -1.709276E+01  2.097744E+03 -1.959262E+04 -3.062245E-10  9.605793E-11
       406  14  2.049105E+05 -7.263568E+01  3.625608E+03 -1.028145E+04  1.168123E-10 -2.996392E-10
       406  15  2.051127E+05  5.967153E+02  6.508018E+03 -1.959235E+04 -1.367491E-10 -8.741689E-11
       406  16  9.668431E+04 -2.672903E+04 -2.304916E+04 -1.968759E+04 -3.318526E-10  1.706875E-10
       406  17  6.211624E+04 -3.522451E+04 -2.935977E+04 -1.026856E+04 -4.642037E-10  4.300466E-10
       406  18  2.795363E+04 -4.299797E+04 -3.432737E+04 -1.947186E+04  3.293202E-10  2.126650E-10
       406  19  3.135576E+05  2.669404E+04  2.724390E+04 -1.949762E+04  4.646248E+02  4.317255E+03
       406  20  3.477237E+05  3.507785E+04  3.660970E+04 -1.029433E+04  2.287788E+03  5.975115E+03
       406  21  3.823008E+05  4.418927E+04  4.734146E+04 -1.971284E+04  4.110659E+03  7.609235E+03
       406  22  2.051155E+05 -1.707203E+01  2.097784E+03 -1.959261E+04  1.627683E+03  4.316665E+03
       406  23  2.049106E+05 -7.259418E+01  3.625697E+03 -1.028143E+04  3.433967E+03  5.974658E+03
       406  24  2.051127E+05  5.967849E+02  6.508179E+03 -1.959231E+04  5.239860E+03  7.608903E+03
       406  25  9.668432E+04 -2.672901E+04 -2.304911E+04 -1.968758E+04  2.790540E+03  4.316075E+03
       406  26  6.211627E+04 -3.522446E+04 -2.935966E+04 -1.026853E+04  4.579884E+03  5.974201E+03
       406  27  2.795369E+04 -4.299790E+04 -3.432719E+04 -1.947182E+04  6.368741E+03  7.608573E+03
       407   1  4.167907E+05  5.151977E+04  5.725306E+04 -1.833131E+04 -5.272640E+03 -8.636960E+03
       407   2  4.496338E+05  5.970560E+04  7.113761E+04 -1.098173E+04 -1.292231E+04 -1.023287E+04
       407   3  4.857429E+05  7.687580E+04  9.225084E+04 -2.229328E+04 -2.057164E+04 -1.134081E+04
       407   4  2.057319E+05 -4.420023E+02  8.422162E+03 -1.960184E+04 -6.554202E+03 -8.636667E+03
       407   5  2.041253E+05 -7.212849E+02  1.442222E+04 -1.027015E+04 -1.386147E+04 -1.023292E+04
       407   6  2.057262E+05  7.926708E+03  2.741561E+04 -1.959997E+04 -2.116798E+04 -1.134115E+04
       407   7 -5.285735E+03 -5.240690E+04 -4.041170E+04 -2.087193E+04 -7.835330E+03 -8.636368E+03
       407   8 -4.132761E+04 -6.115239E+04 -4.229718E+04 -9.558856E+03 -1.480026E+04 -1.023297E+04
       407   9 -7.421813E+04 -6.102786E+04 -3.742487E+04 -1.690788E+04 -2.176405E+04 -1.134150E+04
       407  10  4.167906E+05  5.151968E+04  5.725287E+04 -1.833135E+04  4.301364E-10  3.503698E-10
       407  11  4.496336E+05  5.970544E+04  7.113710E+04 -1.098184E+04  1.618424E-10 -4.365133E-11
       407  12  4.857424E+05  7.687555E+04  9.224980E+04 -2.229346E+04 -6.479711E-11 -1.034043E-10
       407  13  2.057318E+05 -4.420940E+02  8.421942E+03 -1.960189E+04  1.368016E-10  2.285599E-10
       407  14  2.041250E+05 -7.214489E+02  1.442166E+04 -1.027027E+04 -4.051187E-10  3.618585E-10
       407  15  2.057257E+05  7.926450E+03  2.741452E+04 -1.960016E+04  1.279921E-11 -2.719211E-11
       407  16 -5.285821E+03 -5.240699E+04 -4.041196E+04 -2.087199E+04 -2.066662E-10  2.169046E-10
       407  17 -4.132787E+04 -6.115256E+04 -4.229779E+04 -9.558978E+03 -2.846458E-10 -8.797425E-12
       407  18 -7.421867E+04 -6.102813E+04 -3.742600E+04 -1.690808E+04 -8.322682E-12 -1.328144E-11
       407  19  4.167907E+05  5.151977E+04  5.725306E+04 -1.833131E+04  5.272640E+03  8.636960E+03
       407  20  4.496338E+05  5.970560E+04  7.113761E+04 -1.098173E+04  1.292231E+04  1.023287E+04
       407  21  4.857429E+05  7.687580E+04  9.225084E+04 -2.229328E+04  2.057164E+04  1.134081E+04
       407  22  2.057319E+05 -4.420023E+02  8.422162E+03 -1.960184E+04  6.554202E+03  8.636667E+03
       407  23  2.041253E+05 -7.212849E+02  1.442222E+04 -1.027015E+04  1.386147E+04  1.023292E+04
       407  24  2.057262E+05  7.926708E+03  2.741561E+04 -1.959997E+04  2.116798E+04  1.134115E+04
       407  25 -5.285735E+03 -5.240690E+04 -4.041170E+04 -2.087193E+04  7.835330E+03  8.636368E+03
       407  26 -4.132761E+04 -6.115239E+04 -4.229718E+04 -9.558856E+03  1.480026E+04  1.023297E+04
       407  27 -7.421813E+04 -6.102786E+04 -3.742487E+04 -1.690788E+04  2.176405E+04  1.134150E+04
       408   1  5.262703E+05  7.165790E+04  1.063974E+05 -4.582253E+03 -2.265803E+04 -1.347168E+04
       408   2  5.444103E+05  7.786050E+04  1.368900E+05 -2.326181E+04 -5.937197E+04 -1.379803E+04
       408   3  5.957247E+05  1.973789E+05  2.196160E+05 -6.037538E+04 -9.609077E+04 -4.522422E+03
       408   4  2.121279E+05 -5.620698E+03  3.400228E+04 -1.954681E+04 -2.622119E+04 -1.347129E+04
       408   5  1.961065E+05 -7.926089E+03  5.610456E+04 -1.033824E+04 -5.623464E+04 -1.379958E+04
       408   6  2.121127E+05  1.019530E+05  1.258074E+05 -1.956148E+04 -8.625034E+04 -4.526805E+03
       408   7 -1.019228E+05 -8.290535E+04 -3.839923E+04 -3.450374E+04 -2.978256E+04 -1.347073E+04
       408   8 -1.520849E+05 -9.372059E+04 -2.468889E+04  2.578036E+03 -5.309904E+04 -1.380100E+04
       408   9 -1.713614E+05  6.522568E+03  3.198942E+04  2.122717E+04 -7.641596E+04 -4.529898E+03
       408  10  5.262697E+05  7.165757E+04  1.063961E+05 -4.582499E+03  6.999222E-12 -9.003976E-11
       408  11  5.444064E+05  7.785935E+04  1.368830E+05 -2.326247E+04 -2.134514E-10  5.708843E-11
       408  12  5.957147E+05  1.973764E+05  2.195986E+05 -6.037573E+04 -5.170483E-11 -1.349977E-11
       408  13  2.121271E+05 -5.621078E+03  3.400065E+04 -1.954709E+04 -6.251791E-11 -1.569282E-10
       408  14  1.961031E+05 -7.927142E+03  5.609826E+04 -1.033886E+04  2.615511E-10  2.314479E-10
       408  15  2.121047E+05  1.019510E+05  1.257934E+05 -1.956179E+04 -2.097485E-10  6.517939E-11
       408  16 -1.019238E+05 -8.290579E+04 -3.840124E+04 -3.450406E+04 -1.725908E-10  5.952191E-11
       408  17 -1.520880E+05 -9.372155E+04 -2.469455E+04  2.577446E+03 -2.208233E-10  2.395548E-11
       408  18 -1.713677E+05  6.520978E+03  3.197841E+04  2.122689E+04 -1.176086E-10 -6.357221E-11
       408  19  5.262703E+05  7.165790E+04  1.063974E+05 -4.582253E+03  2.265803E+04  1.347168E+04
       408  20  5.444103E+05  7.786050E+04  1.368900E+05 -2.326181E+04  5.937197E+04  1.379803E+04
       408  21  5.957247E+05  1.973789E+05  2.196160E+05 -6.037538E+04  9.609077E+04  4.522422E+03
       408  22  2.121279E+05 -5.620698E+03  3.400228E+04 -1.954681E+04  2.622119E+04  1.347129E+04
       408  23  1.961065E+05 -7.926089E+03  5.610456E+04 -1.033824E+04  5.623464E+04  1.379958E+04
       408  24  2.121127E+05  1.019530E+05  1.258074E+05 -1.956148E+04  8.625034E+04  4.526805E+03
       408  25 -1.019228E+05 -8.290535E+04 -3.839923E+04 -3.450374E+04  2.978256E+04  1.347073E+04
       408  26 -1.520849E+05 -9.372059E+04 -2.468889E+04  2.578036E+03  5.309904E+04  1.380100E+04
       408  27 -1.713614E+05  6.522568E+03  3.198942E+04  2.122717E+04  7.641596E+04  4.529898E+03
       409   1 -1.135350E+06 -1.352649E+05 -1.579384E+05 -4.835494E+04 -8.793181E+04  1.643783E+03
       409   2 -1.104939E+06 -2.370518E+04 -8.449408E+04 -1.721475E+04 -5.607832E+04  5.041476E+03
       409   3 -1.106240E+06 -2.238109E+04 -5.937022E+04  6.212699E+03 -2.422318E+04  4.845731E+03
       409   4 -9.931767E+05 -9.980441E+04 -1.230993E+05 -8.393227E+03 -8.433593E+04  1.639044E+03
       409   5 -9.775147E+05  7.736649E+03 -5.488805E+04 -4.548624E+03 -5.497576E+04  5.040493E+03
       409   6 -9.931260E+05  5.485194E+03 -3.325662E+04 -8.418106E+03 -2.561485E+04  4.846029E+03
       409   7 -8.509817E+05 -6.433941E+04 -8.826086E+04  3.157767E+04 -8.073922E+04  1.634769E+03
       409   8 -8.500750E+05  3.917794E+04 -2.528301E+04  8.120125E+03 -5.387298E+04  5.039557E+03
       409   9 -8.799992E+05  3.335139E+04 -7.143739E+03 -2.305160E+04 -2.700678E+04  4.846393E+03
       409  10 -1.135358E+06 -1.352670E+05 -1.579529E+05 -4.835482E+04 -1.642468E-11  2.518143E-11
       409  11 -1.104942E+06 -2.370606E+04 -8.450005E+04 -1.721452E+04  2.344064E-10 -1.085183E-10
       409  12 -1.106241E+06 -2.238127E+04 -5.937137E+04  6.212793E+03 -3.505992E-10  3.831729E-11
       409  13 -9.931843E+05 -9.980633E+04 -1.231127E+05 -8.393116E+03  8.422042E-12  1.295601E-11
       409  14 -9.775180E+05  7.735809E+03 -5.489378E+04 -4.548401E+03  5.179650E-10 -4.530310E-10
       409  15 -9.931267E+05  5.484992E+03 -3.325790E+04 -8.418006E+03  5.253727E-11  1.020998E-10
       409  16 -8.509887E+05 -6.434116E+04 -8.827313E+04  3.157778E+04 -7.985943E-11 -1.178598E-10
       409  17 -8.500782E+05  3.917713E+04 -2.528852E+04  8.120344E+03  2.166432E-10 -2.130098E-10
       409  18 -8.799999E+05  3.335116E+04 -7.145156E+03 -2.305150E+04  3.970203E-10 -1.159143E-10
       409  19 -1.135350E+06 -1.352649E+05 -1.579384E+05 -4.835494E+04  8.793181E+04 -1.643783E+03
       409  20 -1.104939E+06 -2.370518E+04 -8.449408E+04 -1.721475E+04  5.607832E+04 -5.041476E+03
       409  21 -1.106240E+06 -2.238109E+04 -5.937022E+04  6.212699E+03  2.422318E+04 -4.845731E+03
       409  22 -9.931767E+05 -9.980441E+04 -1.230993E+05 -8.393227E+03  8.433593E+04 -1.639044E+03
       409  23 -9.775147E+05  7.736649E+03 -5.488805E+04 -4.548624E+03  5.497576E+04 -5.040493E+03
       409  24 -9.931260E+05  5.485194E+03 -3.325662E+04 -8.418106E+03  2.561485E+04 -4.846029E+03
       409  25 -8.509817E+05 -6.433941E+04 -8.826086E+04  3.157767E+04  8.073922E+04 -1.634769E+03
       409  26 -8.500750E+05  3.917794E+04 -2.528301E+04  8.120125E+03  5.387298E+04 -5.039557E+03
       409  27 -8.799992E+05  3.335139E+04 -7.143739E+03 -2.305160E+04  2.700678E+04 -4.846393E+03
       410   1 -1.085501E+06 -3.209871E+04 -4.968738E+04 -1.108748E+04 -2.039177E+04  4.001984E+03
       410   2 -1.069162E+06 -1.997044E+04 -3.350719E+04 -5.132090E+03 -1.311781E+04  3.498702E+03
       410   3 -1.055956E+06 -1.659678E+04 -2.425593E+04 -7.177254E+03 -5.843802E+03  2.808177E+03
       410   4 -9.868767E+05 -7.776115E+03 -2.681681E+04 -8.474313E+03 -2.067922E+04  4.001819E+03
       410   5 -9.853184E+05  6.976070E+02 -1.410781E+04 -4.474500E+03 -1.353440E+04  3.498617E+03
       410   6 -9.868692E+05  4.399721E+02 -8.237033E+03 -8.475187E+03 -6.389698E+03  2.808139E+03
       410   7 -8.882438E+05  1.654582E+04 -3.946890E+03 -5.860728E+03 -2.096673E+04  4.001650E+03
       410   8 -9.014681E+05  2.136516E+04  5.291092E+03 -3.816821E+03 -1.395105E+04  3.498531E+03
       410   9 -9.177779E+05  1.747640E+04  7.781544E+03 -9.773265E+03 -6.935654E+03  2.808103E+03
       410  10 -1.085501E+06 -3.209884E+04 -4.968819E+04 -1.108741E+04 -3.193507E-11  1.003841E-11
       410  11 -1.069162E+06 -1.997050E+04 -3.350754E+04 -5.132053E+03 -2.227250E-10  2.716514E-10
       410  12 -1.055956E+06 -1.659680E+04 -2.425601E+04 -7.177241E+03  3.710600E-10 -6.112754E-11
       410  13 -9.868772E+05 -7.776247E+03 -2.681764E+04 -8.474247E+03  1.009354E-10  7.724878E-11
       410  14 -9.853186E+05  6.975446E+02 -1.410818E+04 -4.474462E+03  1.628125E-10  8.103249E-12
       410  15 -9.868692E+05  4.399527E+02 -8.237124E+03 -8.475172E+03  2.013805E-10 -7.321661E-11
       410  16 -8.882443E+05  1.654568E+04 -3.947748E+03 -5.860660E+03  1.064378E-10  5.350766E-11
       410  17 -9.014683E+05  2.136509E+04  5.290703E+03 -3.816782E+03  2.130804E-10 -1.652065E-10
       410  18 -9.177780E+05  1.747637E+04  7.781438E+03 -9.773249E+03 -3.473423E-10 -4.522322E-11
       410  19 -1.085501E+06 -3.209871E+04 -4.968738E+04 -1.108748E+04  2.039177E+04 -4.001984E+03
       410  20 -1.069162E+06 -1.997044E+04 -3.350719E+04 -5.132090E+03  1.311781E+04 -3.498702E+03
       410  21 -1.055956E+06 -1.659678E+04 -2.425593E+04 -7.177254E+03  5.843802E+03 -2.808177E+03
       410  22 -9.868767E+05 -7.776115E+03 -2.681681E+04 -8.474313E+03  2.067922E+04 -4.001819E+03
       410  23 -9.853184E+05  6.976070E+02 -1.410781E+04 -4.474500E+03  1.353440E+04 -3.498617E+03
       410  24 -9.868692E+05  4.399721E+02 -8.237033E+03 -8.475187E+03  6.389698E+03 -2.808139E+03
       410  25 -8.882438E+05  1.654582E+04 -3.946890E+03 -5.860728E+03  2.096673E+04 -4.001650E+03
       410  26 -9.014681E+05  2.136516E+04  5.291092E+03 -3.816821E+03  1.395105E+04 -3.498531E+03
       410  27 -9.177779E+05  1.747640E+04  7.781544E+03 -9.773265E+03  6.935654E+03 -2.808103E+03
       411   1 -1.040715E+06 -1.399098E+04 -1.892421E+04 -8.562074E+03 -4.614827E+03  2.367138E+03
       411   2 -1.025592E+06 -9.666343E+03 -1.269995E+04 -4.414480E+03 -2.836536E+03  1.656007E+03
       411   3 -1.010872E+06 -6.037346E+03 -7.808448E+03 -8.359097E+03 -1.058218E+03  9.338297E+02
       411   4 -9.862679E+05 -5.782996E+02 -6.369637E+03 -8.495300E+03 -5.105628E+03  2.367105E+03
       411   5 -9.860657E+05  7.617449E+01 -3.557735E+03 -4.449214E+03 -3.334880E+03  1.655989E+03
       411   6 -9.862663E+05  3.632420E+01 -2.073283E+03 -8.495311E+03 -1.564146E+03  9.338263E+02
       411   7 -9.318181E+05  1.283418E+04  6.184742E+03 -8.428519E+03 -5.596472E+03  2.367072E+03
       411   8 -9.465383E+05  9.818583E+03  5.584376E+03 -4.483950E+03 -3.833254E+03  1.655970E+03
       411   9 -9.616600E+05  6.109952E+03  3.661841E+03 -8.631531E+03 -2.070093E+03  9.338230E+02
       411  10 -1.040715E+06 -1.399099E+04 -1.892426E+04 -8.562066E+03 -3.585211E-10 -7.025590E-11
       411  11 -1.025592E+06 -9.666349E+03 -1.269997E+04 -4.414476E+03 -1.578204E-10 -2.181395E-10
       411  12 -1.010872E+06 -6.037347E+03 -7.808452E+03 -8.359096E+03  1.842574E-10 -6.037021E-11
       411  13 -9.862680E+05 -5.783126E+02 -6.369696E+03 -8.495290E+03 -1.177197E-10 -9.396913E-11
       411  14 -9.860657E+05  7.616856E+01 -3.557761E+03 -4.449209E+03 -1.685628E-10 -2.038920E-10
       411  15 -9.862663E+05  3.632260E+01 -2.073290E+03 -8.495310E+03 -2.644454E-10 -1.605034E-10
       411  16 -9.318181E+05  1.283416E+04  6.184672E+03 -8.428509E+03  6.307499E-11 -1.023833E-10
       411  17 -9.465383E+05  9.818576E+03  5.584344E+03 -4.483945E+03 -1.003955E-10 -1.647042E-10
       411  18 -9.616600E+05  6.109950E+03  3.661832E+03 -8.631530E+03  1.808242E-10 -2.538110E-10
       411  19 -1.040715E+06 -1.399098E+04 -1.892421E+04 -8.562074E+03  4.614827E+03 -2.367138E+03
       411  20 -1.025592E+06 -9.666343E+03 -1.269995E+04 -4.414480E+03  2.836536E+03 -1.656007E+03
       411  21 -1.010872E+06 -6.037346E+03 -7.808448E+03 -8.359097E+03  1.058218E+03 -9.338297E+02
       411  22 -9.862679E+05 -5.782996E+02 -6.369637E+03 -8.495300E+03  5.105628E+03 -2.367105E+03
       411  23 -9.860657E+05  7.617449E+01 -3.557735E+03 -4.449214E+03  3.334880E+03 -1.655989E+03
       411  24 -9.862663E+05  3.632420E+01 -2.073283E+03 -8.495311E+03  1.564146E+03 -9.338263E+02
       411  25 -9.318181E+05  1.283418E+04  6.184742E+03 -8.428519E+03  5.596472E+03 -2.367072E+03
       411  26 -9.465383E+05  9.818583E+03  5.584376E+03 -4.483950E+03  3.833254E+03 -1.655970E+03
       411  27 -9.616600E+05  6.109952E+03  3.661841E+03 -8.631531E+03  2.070093E+03 -9.338230E+02
       412   1 -9.960650E+05 -2.459977E+03 -3.837040E+03 -8.471614E+03 -7.309813E+02  5.108584E+02
       412   2 -9.810629E+05  1.267183E+03  2.213448E+02 -4.420491E+03 -2.574547E+02 -2.134986E+02
       412   3 -9.661364E+05  4.937372E+03  3.956857E+03 -8.484784E+03  2.160894E+02 -9.380781E+02
       412   4 -9.861935E+05 -3.565732E+01 -1.597902E+03 -8.500470E+03 -1.234456E+03  5.108589E+02
       412   5 -9.861555E+05  1.198604E+01 -9.564587E+02 -4.442759E+03 -7.610814E+02 -2.135004E+02
       412   6 -9.861932E+05  2.703659E+00 -6.377594E+02 -8.500468E+03 -2.877008E+02 -9.380815E+02
       412   7 -9.763219E+05  2.388656E+03  6.412298E+02 -8.529325E+03 -1.737938E+03  5.108595E+02
       412   8 -9.912481E+05 -1.243212E+03 -2.134263E+03 -4.465026E+03 -1.264704E+03 -2.135022E+02
       412   9 -1.006250E+06 -4.931993E+03 -5.232401E+03 -8.516151E+03 -7.914747E+02 -9.380847E+02
       412  10 -9.960650E+05 -2.459977E+03 -3.837041E+03 -8.471614E+03  2.937775E-12 -4.401766E-11
       412  11 -9.810629E+05  1.267183E+03  2.213446E+02 -4.420491E+03  2.590973E-10  1.523574E-10
       412  12 -9.661364E+05  4.937371E+03  3.956855E+03 -8.484784E+03  3.453238E-10 -2.295767E-11
       412  13 -9.861935E+05 -3.565801E+01 -1.597906E+03 -8.500469E+03  4.573256E-10 -7.593017E-11
       412  14 -9.861555E+05  1.198583E+01 -9.564599E+02 -4.442759E+03 -1.402576E-10  4.739975E-11
       412  15 -9.861932E+05  2.702692E+00 -6.377612E+02 -8.500468E+03 -2.022131E-10  1.055286E-10
       412  16 -9.763219E+05  2.388655E+03  6.412237E+02 -8.529325E+03 -3.727160E-10 -2.040055E-10
       412  17 -9.912481E+05 -1.243213E+03 -2.134266E+03 -4.465026E+03 -1.718231E-10 -3.688024E-11
       412  18 -1.006250E+06 -4.931994E+03 -5.232404E+03 -8.516152E+03 -3.993521E-10  5.411303E-11
       412  19 -9.960650E+05 -2.459977E+03 -3.837040E+03 -8.471614E+03  7.309813E+02 -5.108584E+02
       412  20 -9.810629E+05  1.267183E+03  2.213448E+02 -4.420491E+03  2.574547E+02  2.134986E+02
       412  21 -9.661364E+05  4.937372E+03  3.956857E+03 -8.484784E+03 -2.160894E+02  9.380781E+02
       412  22 -9.861935E+05 -3.565732E+01 -1.597902E+03 -8.500470E+03  1.234456E+03 -5.108589E+02
       412  23 -9.861555E+05  1.198604E+01 -9.564587E+02 -4.442759E+03  7.610814E+02  2.135004E+02
       412  24 -9.861932E+05  2.703659E+00 -6.377594E+02 -8.500468E+03  2.877008E+02  9.380815E+02
       412  25 -9.763219E+05  2.388656E+03  6.412298E+02 -8.529325E+03  1.737938E+03 -5.108595E+02
       412  26 -9.912481E+05 -1.243212E+03 -2.134263E+03 -4.465026E+03  1.264704E+03  2.135022E+02
       412  27 -1.006250E+06 -4.931993E+03 -5.232401E+03 -8.516151E+03  7.914747E+02  9.380847E+02
       413   1 -9.514057E+05  8.581439E+03  7.530927E+03 -8.487561E+03  3.234598E+02 -1.359689E+03
       413   2 -9.364911E+05  1.224869E+04  1.096814E+04 -4.452419E+03  5.790763E+02 -2.082074E+03
       413   3 -9.216133E+05  1.589228E+04  1.423326E+04 -8.496128E+03  8.347532E+02 -2.801749E+03
       413   4 -9.861849E+05  4.913225E-01 -5.571343E+02 -8.492351E+03 -1.796896E+02 -1.359699E+03
       413   5 -9.861665E+05  5.227902E+00 -5.205667E+02 -4.452905E+03  7.779418E+01 -2.082103E+03
       413   6 -9.861853E+05 -1.395706E+01 -6.573293E+02 -8.492350E+03  3.353323E+02 -2.801795E+03
       413   7 -1.020963E+06 -8.580541E+03 -8.645276E+03 -8.497140E+03 -6.828110E+02 -1.359709E+03
       413   8 -1.035840E+06 -1.223841E+04 -1.200944E+04 -4.453391E+03 -4.234481E+02 -2.082132E+03
       413   9 -1.050753E+06 -1.592048E+04 -1.554820E+04 -8.488573E+03 -1.640369E+02 -2.801842E+03
       413  10 -9.514057E+05  8.581437E+03  7.530923E+03 -8.487561E+03  6.863861E-11  8.301365E-11
       413  11 -9.364911E+05  1.224869E+04  1.096813E+04 -4.452418E+03 -3.913690E-10  1.912600E-10
       413  12 -9.216133E+05  1.589227E+04  1.423324E+04 -8.496126E+03 -1.180292E-10 -1.156515E-10
       413  13 -9.861849E+05  4.893295E-01 -5.571379E+02 -8.492351E+03  2.555357E-10 -7.524498E-12
       413  14 -9.861665E+05  5.223247E+00 -5.205749E+02 -4.452905E+03  4.363459E-10 -5.281108E-11
       413  15 -9.861853E+05 -1.396552E+01 -6.573442E+02 -8.492350E+03 -4.123115E-10 -2.798018E-11
       413  16 -1.020963E+06 -8.580543E+03 -8.645280E+03 -8.497140E+03 -1.508097E-10  8.557035E-11
       413  17 -1.035840E+06 -1.223841E+04 -1.200945E+04 -4.453391E+03  4.013623E-10 -1.831479E-10
       413  18 -1.050753E+06 -1.592049E+04 -1.554821E+04 -8.488574E+03 -2.783936E-10  1.121584E-11
       413  19 -9.514057E+05  8.581439E+03  7.530927E+03 -8.487561E+03 -3.234598E+02  1.359689E+03
       413  20 -9.364911E+05  1.224869E+04  1.096814E+04 -4.452419E+03 -5.790763E+02  2.082074E+03
       413  21 -9.216133E+05  1.589228E+04  1.423326E+04 -8.496128E+03 -8.347532E+02  2.801749E+03
       413  22 -9.861849E+05  4.913225E-01 -5.571343E+02 -8.492351E+03  1.796896E+02  1.359699E+03
       413  23 -9.861665E+05  5.227902E+00 -5.205667E+02 -4.452905E+03 -7.779418E+01  2.082103E+03
       413  24 -9.861853E+05 -1.395706E+01 -6.573293E+02 -8.492350E+03 -3.353323E+02  2.801795E+03
       413  25 -1.020963E+06 -8.580541E+03 -8.645276E+03 -8.497140E+03  6.828110E+02  1.359709E+03
       413  26 -1.035840E+06 -1.223841E+04 -1.200944E+04 -4.453391E+03  4.234481E+02  2.082132E+03
       413  27 -1.050753E+06 -1.592048E+04 -1.554820E+04 -8.488573E+03  1.640369E+02  2.801842E+03
       414   1 -9.070340E+05  1.953329E+04  1.756188E+04 -8.510026E+03  9.672227E+02 -3.221239E+03
       414   2 -8.922498E+05  2.316453E+04  2.044972E+04 -4.482180E+03  1.585122E+03 -3.934156E+03
       414   3 -8.775973E+05  2.655880E+04  2.287730E+04 -8.434273E+03  2.203150E+03 -4.630482E+03
       414   4 -9.862073E+05  1.104047E+01 -7.926601E+02 -8.470387E+03  4.657251E+02 -3.221303E+03
       414   5 -9.861409E+05  2.381050E+01 -1.264820E+03 -4.480367E+03  1.095066E+03 -3.934254E+03
       414   6 -9.862085E+05 -2.024450E+02 -2.205296E+03 -8.470361E+03  1.724522E+03 -4.630611E+03
       414   7 -1.065375E+06 -1.951165E+04 -1.914762E+04 -8.430752E+03 -3.570897E+01 -3.221367E+03
       414   8 -1.080024E+06 -2.311753E+04 -2.297995E+04 -4.478553E+03  6.050835E+02 -3.934352E+03
       414   9 -1.094809E+06 -2.696452E+04 -2.728868E+04 -8.506444E+03  1.245976E+03 -4.630741E+03
       414  10 -9.070340E+05  1.953328E+04  1.756186E+04 -8.510024E+03  2.873972E-10 -1.593749E-11
       414  11 -8.922498E+05  2.316451E+04  2.044969E+04 -4.482175E+03 -1.483468E-10  2.699588E-10
       414  12 -8.775973E+05  2.655878E+04  2.287725E+04 -8.434265E+03  2.310106E-10 -1.833872E-11
       414  13 -9.862073E+05  1.102927E+01 -7.926800E+02 -8.470385E+03 -3.395764E-10  6.407991E-11
       414  14 -9.861409E+05  2.379356E+01 -1.264851E+03 -4.480363E+03 -5.674884E-10  2.656716E-10
       414  15 -9.862085E+05 -2.024688E+02 -2.205342E+03 -8.470355E+03  1.323907E-10 -1.438811E-10
       414  16 -1.065375E+06 -1.951166E+04 -1.914764E+04 -8.430752E+03  2.153240E-10 -1.760803E-12
       414  17 -1.080024E+06 -2.311755E+04 -2.297998E+04 -4.478551E+03 -6.161164E-10  2.525417E-10
       414  18 -1.094809E+06 -2.696454E+04 -2.728872E+04 -8.506439E+03 -4.715396E-10  1.176855E-10
       414  19 -9.070340E+05  1.953329E+04  1.756188E+04 -8.510026E+03 -9.672227E+02  3.221239E+03
       414  20 -8.922498E+05  2.316453E+04  2.044972E+04 -4.482180E+03 -1.585122E+03  3.934156E+03
       414  21 -8.775973E+05  2.655880E+04  2.287730E+04 -8.434273E+03 -2.203150E+03  4.630482E+03
       414  22 -9.862073E+05  1.104047E+01 -7.926601E+02 -8.470387E+03 -4.657251E+02  3.221303E+03
       414  23 -9.861409E+05  2.381050E+01 -1.264820E+03 -4.480367E+03 -1.095066E+03  3.934254E+03
       414  24 -9.862085E+05 -2.024450E+02 -2.205296E+03 -8.470361E+03 -1.724522E+03  4.630611E+03
       414  25 -1.065375E+06 -1.951165E+04 -1.914762E+04 -8.430752E+03  3.570897E+01  3.221367E+03
       414  26 -1.080024E+06 -2.311753E+04 -2.297995E+04 -4.478553E+03 -6.050835E+02  3.934352E+03
       414  27 -1.094809E+06 -2.696452E+04 -2.728868E+04 -8.506444E+03 -1.245976E+03  4.630741E+03
       415   1 -8.634265E+05  3.046426E+04  2.564319E+04 -8.861284E+03  2.719766E+03 -5.071464E+03
       415   2 -8.484851E+05  3.409932E+04  2.694929E+04 -4.276540E+03  4.993640E+03 -5.737882E+03
       415   3 -8.345629E+05  3.477801E+04  2.603792E+04 -7.507508E+03  7.267630E+03 -6.151485E+03
       415   4 -9.864127E+05  1.459879E+02 -2.836701E+03 -8.434108E+03  2.167912E+03 -5.071632E+03
       415   5 -9.858893E+05  2.332752E+02 -4.836304E+03 -4.525815E+03  4.617075E+03 -5.738065E+03
       415   6 -9.864161E+05 -2.666659E+03 -9.175595E+03 -8.433357E+03  7.066301E+03 -6.151661E+03
       415   7 -1.109385E+06 -3.017334E+04 -3.131760E+04 -8.007019E+03  1.616168E+03 -5.071801E+03
       415   8 -1.123276E+06 -3.363410E+04 -3.662315E+04 -4.775035E+03  4.240592E+03 -5.738247E+03
       415   9 -1.138248E+06 -4.011295E+04 -4.439066E+04 -9.358979E+03  6.865021E+03 -6.151836E+03
       415  10 -8.634265E+05  3.046423E+04  2.564313E+04 -8.861273E+03 -2.075068E-10 -6.372017E-11
       415  11 -8.484851E+05  3.409928E+04  2.694918E+04 -4.276517E+03 -1.627186E-10 -7.748264E-11
       415  12 -8.345630E+05  3.477795E+04  2.603775E+04 -7.507472E+03 -2.846302E-10  1.281393E-10
       415  13 -9.864127E+05  1.459590E+02 -2.836758E+03 -8.434100E+03 -3.359991E-11 -2.075896E-10
       415  14 -9.858893E+05  2.332342E+02 -4.836406E+03 -4.525794E+03 -1.085079E-10 -1.060478E-10
       415  15 -9.864162E+05 -2.666713E+03 -9.175761E+03 -8.433322E+03  1.338234E-10  1.043187E-10
       415  16 -1.109385E+06 -3.017337E+04 -3.131766E+04 -8.007012E+03 -1.892026E-10 -2.333093E-10
       415  17 -1.123276E+06 -3.363414E+04 -3.662325E+04 -4.775016E+03  4.212068E-11 -1.491172E-10
       415  18 -1.138248E+06 -4.011300E+04 -4.439082E+04 -9.358945E+03  1.123798E-10  3.424672E-10
       415  19 -8.634265E+05  3.046426E+04  2.564319E+04 -8.861284E+03 -2.719766E+03  5.071464E+03
       415  20 -8.484851E+05  3.409932E+04  2.694929E+04 -4.276540E+03 -4.993640E+03  5.737882E+03
       415  21 -8.345629E+05  3.477801E+04  2.603792E+04 -7.507508E+03 -7.267630E+03  6.151485E+03
       415  22 -9.864127E+05  1.459879E+02 -2.836701E+03 -8.434108E+03 -2.167912E+03  5.071632E+03
       415  23 -9.858893E+05  2.332752E+02 -4.836304E+03 -4.525815E+03 -4.617075E+03  5.738065E+03
       415  24 -9.864161E+05 -2.666659E+03 -9.175595E+03 -8.433357E+03 -7.066301E+03  6.151661E+03
       415  25 -1.109385E+06 -3.017334E+04 -3.131760E+04 -8.007019E+03 -1.616168E+03  5.071801E+03
       415  26 -1.123276E+06 -3.363410E+04 -3.662315E+04 -4.775035E+03 -4.240592E+03  5.738247E+03
       415  27 -1.138248E+06 -4.011295E+04 -4.439066E+04 -9.358979E+03 -6.865021E+03  6.151836E+03
       416   1 -8.225867E+05  4.274878E+04  2.692276E+04 -1.331585E+04  1.044175E+04 -7.133578E+03
       416   2 -8.034756E+05  4.697541E+04  2.297422E+04 -2.486791E+02  1.712157E+04 -7.135878E+03
       416   3 -7.944470E+05  1.425519E+04  5.442131E+03  5.394020E+03  2.379910E+04 -2.301189E+03
       416   4 -9.885515E+05  1.867045E+03 -1.137547E+04 -8.351484E+03  8.755104E+03 -7.134206E+03
       416   5 -9.832258E+05  2.636159E+03 -1.877222E+04 -4.630971E+03  1.879568E+04 -7.135428E+03
       416   6 -9.885703E+05 -3.413173E+04 -4.209183E+04 -8.335013E+03  2.883371E+04 -2.299239E+03
       416   7 -1.154491E+06 -3.901652E+04 -4.967552E+04 -3.388461E+03  7.068901E+03 -7.134861E+03
       416   8 -1.162946E+06 -4.170530E+04 -6.052081E+04 -9.011987E+03  2.046932E+04 -7.135002E+03
       416   9 -1.182659E+06 -8.252073E+04 -8.962835E+04 -2.205974E+04  3.386674E+04 -2.297512E+03
       416  10 -8.225869E+05  4.274869E+04  2.692246E+04 -1.331579E+04  1.392350E-10  2.526070E-10
       416  11 -8.034759E+05  4.697528E+04  2.297357E+04 -2.485807E+02 -1.027640E-10  2.491545E-10
       416  12 -7.944477E+05  1.425503E+04  5.441055E+03  5.394064E+03  7.023253E-11  2.079574E-10
       416  13 -9.885516E+05  1.866970E+03 -1.137571E+04 -8.351434E+03  6.412832E-10 -3.119766E-10
       416  14 -9.832262E+05  2.636009E+03 -1.877298E+04 -4.630863E+03  1.006676E-10  1.688303E-10
       416  15 -9.885712E+05 -3.413196E+04 -4.209340E+04 -8.334960E+03  2.242835E-10 -1.771259E-10
       416  16 -1.154491E+06 -3.901659E+04 -4.967571E+04 -3.388420E+03 -8.395121E-11  3.920620E-10
       416  17 -1.162947E+06 -4.170547E+04 -6.052170E+04 -9.011869E+03  3.325354E-10 -9.545986E-11
       416  18 -1.182660E+06 -8.252104E+04 -8.963052E+04 -2.205968E+04 -7.235939E-10  5.037211E-10
       416  19 -8.225867E+05  4.274878E+04  2.692276E+04 -1.331585E+04 -1.044175E+04  7.133578E+03
       416  20 -8.034756E+05  4.697541E+04  2.297422E+04 -2.486791E+02 -1.712157E+04  7.135878E+03
       416  21 -7.944470E+05  1.425519E+04  5.442131E+03  5.394020E+03 -2.379910E+04  2.301189E+03
       416  22 -9.885515E+05  1.867045E+03 -1.137547E+04 -8.351484E+03 -8.755104E+03  7.134206E+03
       416  23 -9.832258E+05  2.636159E+03 -1.877222E+04 -4.630971E+03 -1.879568E+04  7.135428E+03
       416  24 -9.885703E+05 -3.413173E+04 -4.209183E+04 -8.335013E+03 -2.883371E+04  2.299239E+03
       416  25 -1.154491E+06 -3.901652E+04 -4.967552E+04 -3.388461E+03 -7.068901E+03  7.134861E+03
       416  26 -1.162946E+06 -4.170530E+04 -6.052081E+04 -9.011987E+03 -2.046932E+04  7.135002E+03
       416  27 -1.182659E+06 -8.252073E+04 -8.962835E+04 -2.205974E+04 -3.386674E+04  2.297512E+03
       417   1  1.760384E+06  4.106853E+05  5.182084E+05  1.678011E+05  3.821831E+05  2.385998E+03
       417   2  1.717844E+06 -7.389574E+04  2.150997E+05  5.038516E+04  2.509943E+05  6.303114E+03
       417   3  1.817738E+06 -5.686851E+04  1.227059E+05 -8.237578E+04  1.197947E+05  5.515227E+03
       417   4  1.946314E+06  4.565956E+05  5.635986E+05 -1.539566E+04  3.867556E+05  2.275672E+03
       417   5  1.875056E+06 -3.529725E+04  2.515112E+05 -7.607789E+03  2.522115E+05  6.280121E+03
       417   6  1.946736E+06 -2.513056E+04  1.524116E+05 -1.517419E+04  1.176635E+05  5.527323E+03
       417   7  2.132348E+06  5.026292E+05  6.090043E+05 -1.986472E+05  3.913294E+05  2.162683E+03
       417   8  2.032298E+06  3.312129E+03  2.879228E+05 -6.561550E+04  2.534291E+05  6.256907E+03
       417   9  2.075759E+06  6.623154E+03  1.821187E+05  5.204143E+04  1.155319E+05  5.538957E+03
       417  10  1.760228E+06  4.106462E+05  5.179347E+05  1.678003E+05  2.822014E-10 -7.028947E-10
       417  11  1.717776E+06 -7.391263E+04  2.149816E+05  5.038389E+04  1.704168E-10 -2.459402E-10
       417  12  1.817723E+06 -5.687238E+04  1.226789E+05 -8.237631E+04 -1.896910E-09 -2.380987E-10
       417  13  1.946154E+06  4.565556E+05  5.633184E+05 -1.539637E+04  6.715098E-10  1.575749E-10
       417  14  1.874988E+06 -3.531430E+04  2.513919E+05 -7.609063E+03  7.917704E-10 -2.629907E-10
       417  15  1.946721E+06 -2.513429E+04  1.523857E+05 -1.517472E+04 -7.483510E-10 -9.414249E-11
       417  16  2.132184E+06  5.025883E+05  6.087175E+05 -1.986479E+05  1.253691E-11 -4.402792E-12
       417  17  2.032230E+06  3.294918E+03  2.878024E+05 -6.561677E+04  1.458093E-09 -1.190567E-10
       417  18  2.075745E+06  6.619553E+03  1.820937E+05  5.204092E+04  2.509750E-09  1.217319E-09
       417  19  1.760384E+06  4.106853E+05  5.182084E+05  1.678011E+05 -3.821831E+05 -2.385998E+03
       417  20  1.717844E+06 -7.389574E+04  2.150997E+05  5.038516E+04 -2.509943E+05 -6.303114E+03
       417  21  1.817738E+06 -5.686851E+04  1.227059E+05 -8.237578E+04 -1.197947E+05 -5.515227E+03
       417  22  1.946314E+06  4.565956E+05  5.635986E+05 -1.539566E+04 -3.867556E+05 -2.275672E+03
       417  23  1.875056E+06 -3.529725E+04  2.515112E+05 -7.607789E+03 -2.522115E+05 -6.280121E+03
       417  24  1.946736E+06 -2.513056E+04  1.524116E+05 -1.517419E+04 -1.176635E+05 -5.527323E+03
       417  25  2.132348E+06  5.026292E+05  6.090043E+05 -1.986472E+05 -3.913294E+05 -2.162683E+03
       417  26  2.032298E+06  3.312129E+03  2.879228E+05 -6.561550E+04 -2.534291E+05 -6.256907E+03
       417  27  2.075759E+06  6.623154E+03  1.821187E+05  5.204143E+04 -1.155319E+05 -5.538957E+03
       418   1  1.816541E+06  1.055963E+04  9.945649E+04 -3.274545E+03  9.562935E+04  4.157616E+03
       418   2  1.837255E+06 -2.130295E+04  4.773465E+04 -4.684861E+03  6.299105E+04  3.078535E+03
       418   3  1.872177E+06 -1.332978E+04  2.718429E+04 -2.113229E+04  3.035237E+04  1.762595E+03
       418   4  1.918045E+06  3.549875E+04  1.229070E+05 -1.517361E+04  9.497746E+04  4.155528E+03
       418   5  1.910958E+06 -3.195026E+03  6.473452E+04 -7.649542E+03  6.216822E+04  3.077964E+03
       418   6  1.918105E+06 -2.027085E+03  3.784745E+04 -1.516195E+04  2.936002E+04  1.762620E+03
       418   7  2.019558E+06  6.043768E+04  1.463569E+05 -2.707463E+04  9.432547E+04  4.153465E+03
       418   8  1.984666E+06  1.491255E+04  8.173403E+04 -1.061458E+04  6.134528E+04  3.077401E+03
       418   9  1.964035E+06  9.275595E+03  4.851049E+04 -9.191172E+03  2.836759E+04  1.762626E+03
       418  10  1.816531E+06  1.055717E+04  9.943932E+04 -3.274865E+03 -3.737293E-10  3.359341E-11
       418  11  1.837251E+06 -2.130402E+04  4.772720E+04 -4.685017E+03  2.043588E-10  3.535992E-10
       418  12  1.872176E+06 -1.333003E+04  2.718256E+04 -2.113234E+04 -4.167966E-10 -3.501673E-10
       418  13  1.918035E+06  3.549632E+04  1.228901E+05 -1.517393E+04  5.508777E-10  9.358125E-10
       418  14  1.910954E+06 -3.196070E+03  6.472726E+04 -7.649696E+03  1.115074E-09  4.218434E-10
       418  15  1.918104E+06 -2.027319E+03  3.784583E+04 -1.516200E+04 -6.790037E-10 -4.204988E-10
       418  16  2.019548E+06  6.043528E+04  1.463402E+05 -2.707494E+04  3.171477E-11  9.199419E-10
       418  17  1.984662E+06  1.491153E+04  8.172697E+04 -1.061473E+04  8.545843E-10 -1.500806E-10
       418  18  1.964034E+06  9.275376E+03  4.850897E+04 -9.191212E+03  9.590926E-11 -3.081230E-11
       418  19  1.816541E+06  1.055963E+04  9.945649E+04 -3.274545E+03 -9.562935E+04 -4.157616E+03
       418  20  1.837255E+06 -2.130295E+04  4.773465E+04 -4.684861E+03 -6.299105E+04 -3.078535E+03
       418  21  1.872177E+06 -1.332978E+04  2.718429E+04 -2.113229E+04 -3.035237E+04 -1.762595E+03
       418  22  1.918045E+06  3.549875E+04  1.229070E+05 -1.517361E+04 -9.497746E+04 -4.155528E+03
       418  23  1.910958E+06 -3.195026E+03  6.473452E+04 -7.649542E+03 -6.216822E+04 -3.077964E+03
       418  24  1.918105E+06 -2.027085E+03  3.784745E+04 -1.516195E+04 -2.936002E+04 -1.762620E+03
       418  25  2.019558E+06  6.043768E+04  1.463569E+05 -2.707463E+04 -9.432547E+04 -4.153465E+03
       418  26  1.984666E+06  1.491255E+04  8.173403E+04 -1.061458E+04 -6.134528E+04 -3.077401E+03
       418  27  1.964035E+06  9.275595E+03  4.851049E+04 -9.191172E+03 -2.836759E+04 -1.762626E+03
       419   1  1.896580E+06 -1.973978E+03  2.504261E+04 -1.485665E+04  2.435823E+04  9.549972E+02
       419   2  1.923282E+06  1.820591E+03  1.849072E+04 -7.831276E+03  1.617394E+04 -3.669219E+02
       419   3  1.951846E+06  8.769219E+03  1.804614E+04 -1.575773E+04  7.989540E+03 -1.702435E+03
       419   4  1.915351E+06  2.622723E+03  2.929536E+04 -1.514706E+04  2.344240E+04  9.547541E+02
       419   5  1.914425E+06 -3.551148E+02  1.644944E+04 -7.670813E+03  1.524832E+04 -3.671591E+02
       419   6  1.915362E+06 -1.771755E+02  9.717328E+03 -1.514638E+04  7.054479E+03 -1.702675E+03
       419   7  1.934123E+06  7.219401E+03  3.354808E+04 -1.543748E+04  2.252654E+04  9.545119E+02
       419   8  1.905569E+06 -2.530825E+03  1.440815E+04 -7.510352E+03  1.432271E+04 -3.673969E+02
       419   9  1.878880E+06 -9.123660E+03  1.388431E+03 -1.453508E+04  6.119472E+03 -1.702918E+03
       419  10  1.896579E+06 -1.974137E+03  2.504150E+04 -1.485667E+04 -9.235348E-10 -5.755631E-10
       419  11  1.923282E+06  1.820520E+03  1.849023E+04 -7.831271E+03 -2.078041E-09 -6.423865E-10
       419  12  1.951846E+06  8.769199E+03  1.804602E+04 -1.575771E+04 -4.000310E-10 -1.411346E-10
       419  13  1.915351E+06  2.622575E+03  2.929433E+04 -1.514708E+04 -7.409679E-10 -2.305972E-10
       419  14  1.914425E+06 -3.551772E+02  1.644900E+04 -7.670808E+03  1.269212E-10  1.939921E-10
       419  15  1.915362E+06 -1.771920E+02  9.717229E+03 -1.514637E+04 -1.277132E-09 -5.435268E-10
       419  16  1.934122E+06  7.219264E+03  3.354713E+04 -1.543750E+04 -2.534143E-10  3.073803E-10
       419  17  1.905569E+06 -2.530880E+03  1.440777E+04 -7.510347E+03 -1.664638E-10 -1.040262E-10
       419  18  1.878880E+06 -9.123674E+03  1.388355E+03 -1.453507E+04 -6.350770E-11  3.003868E-10
       419  19  1.896580E+06 -1.973978E+03  2.504261E+04 -1.485665E+04 -2.435823E+04 -9.549972E+02
       419  20  1.923282E+06  1.820591E+03  1.849072E+04 -7.831276E+03 -1.617394E+04  3.669219E+02
       419  21  1.951846E+06  8.769219E+03  1.804614E+04 -1.575773E+04 -7.989540E+03  1.702435E+03
       419  22  1.915351E+06  2.622723E+03  2.929536E+04 -1.514706E+04 -2.344240E+04 -9.547541E+02
       419  23  1.914425E+06 -3.551148E+02  1.644944E+04 -7.670813E+03 -1.524832E+04  3.671591E+02
       419  24  1.915362E+06 -1.771755E+02  9.717328E+03 -1.514638E+04 -7.054479E+03  1.702675E+03
       419  25  1.934123E+06  7.219401E+03  3.354808E+04 -1.543748E+04 -2.252654E+04 -9.545119E+02
       419  26  1.905569E+06 -2.530825E+03  1.440815E+04 -7.510352E+03 -1.432271E+04  3.673969E+02
       419  27  1.878880E+06 -9.123660E+03  1.388431E+03 -1.453508E+04 -6.119472E+03  1.702918E+03
       420   1  1.978720E+06  1.581332E+04  2.235487E+04 -1.528973E+04  6.429301E+03 -2.482278E+03
       420   2  2.006396E+06  2.242622E+04  2.593579E+04 -7.700073E+03  4.042507E+03 -3.824737E+03
       420   3  2.034463E+06  2.929310E+04  3.113436E+04 -1.519176E+04  1.655781E+03 -5.175394E+03
       420   4  1.915035E+06  1.516723E+02  7.593647E+03 -1.517547E+04  5.495550E+03 -2.482547E+03
       420   5  1.914839E+06 -6.607506E+01  4.830421E+03 -7.634703E+03  3.103223E+03 -3.825073E+03
       420   6  1.915036E+06 -2.893069E+01  3.688649E+03 -1.517543E+04  7.110707E+02 -5.175794E+03
       420   7  1.851353E+06 -1.551026E+04 -7.167842E+03 -1.506121E+04  4.561893E+03 -2.482816E+03
       420   8  1.823291E+06 -2.255895E+04 -1.627550E+04 -7.569343E+03  2.164077E+03 -3.825409E+03
       420   9  1.795621E+06 -2.935195E+04 -2.375800E+04 -1.515910E+04 -2.334597E+02 -5.176193E+03
       420  10  1.978720E+06  1.581330E+04  2.235478E+04 -1.528972E+04 -6.306741E-11 -2.430158E-10
       420  11  2.006396E+06  2.242620E+04  2.593573E+04 -7.700061E+03 -1.051700E-09 -5.121219E-10
       420  12  2.034463E+06  2.929307E+04  3.113431E+04 -1.519176E+04 -1.012729E-09 -4.653704E-10
       420  13  1.915035E+06  1.516576E+02  7.593579E+03 -1.517545E+04 -2.694775E-10  1.019495E-11
       420  14  1.914839E+06 -6.609336E+01  4.830375E+03 -7.634693E+03 -2.539467E-10 -3.081018E-10
       420  15  1.915036E+06 -2.895962E+01  3.688598E+03 -1.517543E+04  8.370543E-10  3.595963E-10
       420  16  1.851353E+06 -1.551027E+04 -7.167892E+03 -1.506120E+04  3.381423E-10  2.179015E-10
       420  17  1.823291E+06 -2.255897E+04 -1.627554E+04 -7.569336E+03 -8.040973E-12 -5.105080E-10
       420  18  1.795621E+06 -2.935198E+04 -2.375805E+04 -1.515910E+04  6.125794E-10  1.584857E-10
       420  19  1.978720E+06  1.581332E+04  2.235487E+04 -1.528973E+04 -6.429301E+03  2.482278E+03
       420  20  2.006396E+06  2.242622E+04  2.593579E+04 -7.700073E+03 -4.042507E+03  3.824737E+03
       420  21  2.034463E+06  2.929310E+04  3.113436E+04 -1.519176E+04 -1.655781E+03  5.175394E+03
       420  22  1.915035E+06  1.516723E+02  7.593647E+03 -1.517547E+04 -5.495550E+03  2.482547E+03
       420  23  1.914839E+06 -6.607506E+01  4.830421E+03 -7.634703E+03 -3.103223E+03  3.825073E+03
       420  24  1.915036E+06 -2.893069E+01  3.688649E+03 -1.517543E+04 -7.110707E+02  5.175794E+03
       420  25  1.851353E+06 -1.551026E+04 -7.167842E+03 -1.506121E+04 -4.561893E+03  2.482816E+03
       420  26  1.823291E+06 -2.255895E+04 -1.627550E+04 -7.569343E+03 -2.164077E+03  3.825409E+03
       420  27  1.795621E+06 -2.935195E+04 -2.375800E+04 -1.515910E+04  2.334597E+02  5.176193E+03
       421   1  2.062089E+06  3.611893E+04  3.753927E+04 -1.519396E+04  1.005982E+03 -5.966223E+03
       421   2  2.090426E+06  4.306850E+04  4.459166E+04 -7.420767E+03 -1.025281E+03 -7.337144E+03
       421   3  2.119115E+06  5.021429E+04  5.302021E+04 -1.507737E+04 -3.056239E+03 -8.720946E+03
       421   4  1.915025E+06 -2.479964E+01  3.558521E+03 -1.525289E+04  5.446189E+01 -5.966685E+03
       421   5  1.914847E+06 -6.345292E+01  4.119422E+03 -7.537886E+03 -1.985319E+03 -7.337735E+03
       421   6  1.915021E+06  9.571985E+01  6.062683E+03 -1.525295E+04 -4.024704E+03 -8.721662E+03
       421   7  1.767981E+06 -3.617004E+04 -3.042366E+04 -1.531181E+04 -8.968348E+02 -5.967147E+03
       421   8  1.739296E+06 -4.319755E+04 -3.635486E+04 -7.654975E+03 -2.945089E+03 -7.338324E+03
       421   9  1.710965E+06 -5.002575E+04 -4.089760E+04 -1.542847E+04 -4.992854E+03 -8.722378E+03
       421  10  2.062089E+06  3.611889E+04  3.753920E+04 -1.519396E+04 -1.234383E-09  4.357312E-11
       421  11  2.090426E+06  4.306844E+04  4.459156E+04 -7.420773E+03 -8.040283E-11  8.250206E-10
       421  12  2.119115E+06  5.021421E+04  5.302005E+04 -1.507739E+04 -8.823573E-11 -3.861499E-10
       421  13  1.915025E+06 -2.483791E+01  3.558454E+03 -1.525289E+04  1.011885E-09  1.203031E-09
       421  14  1.914847E+06 -6.351185E+01  4.119313E+03 -7.537898E+03  1.817555E-09  1.642894E-09
       421  15  1.915021E+06  9.563376E+01  6.062509E+03 -1.525298E+04 -5.629491E-11  1.817656E-10
       421  16  1.767981E+06 -3.617008E+04 -3.042373E+04 -1.531181E+04  1.442688E-09  7.802847E-10
       421  17  1.739296E+06 -4.319761E+04 -3.635498E+04 -7.654993E+03  5.498921E-11  5.095914E-10
       421  18  1.710965E+06 -5.002584E+04 -4.089779E+04 -1.542851E+04 -6.581258E-10 -3.916577E-10
       421  19  2.062089E+06  3.611893E+04  3.753927E+04 -1.519396E+04 -1.005982E+03  5.966223E+03
       421  20  2.090426E+06  4.306850E+04  4.459166E+04 -7.420767E+03  1.025281E+03  7.337144E+03
       421  21  2.119115E+06  5.021429E+04  5.302021E+04 -1.507737E+04  3.056239E+03  8.720946E+03
       421  22  1.915025E+06 -2.479964E+01  3.558521E+03 -1.525289E+04 -5.446189E+01  5.966685E+03
       421  23  1.914847E+06 -6.345292E+01  4.119422E+03 -7.537886E+03  1.985319E+03  7.337735E+03
       421  24  1.915021E+06  9.571985E+01  6.062683E+03 -1.525295E+04  4.024704E+03  8.721662E+03
       421  25  1.767981E+06 -3.617004E+04 -3.042366E+04 -1.531181E+04  8.968348E+02  5.967147E+03
       421  26  1.739296E+06 -4.319755E+04 -3.635486E+04 -7.654975E+03  2.945089E+03  7.338324E+03
       421  27  1.710965E+06 -5.002575E+04 -4.089760E+04 -1.542847E+04  4.992854E+03  8.722378E+03
       422   1  2.147836E+06  5.698937E+04  6.132308E+04 -1.480713E+04 -4.269734E+03 -9.539630E+03
       422   2  2.176651E+06  6.409551E+04  7.313743E+04 -7.115081E+03 -1.061203E+04 -1.095769E+04
       422   3  2.206961E+06  7.361105E+04  8.968768E+04 -1.542458E+04 -1.695399E+04 -1.236684E+04
       422   4  1.915272E+06 -1.561412E+02  7.635610E+03 -1.537951E+04 -5.258298E+03 -9.540457E+03
       422   5  1.914519E+06 -2.957578E+02  1.271629E+04 -7.379312E+03 -1.159202E+04 -1.095870E+04
       422   6  1.915259E+06  1.973471E+03  2.252858E+04 -1.538107E+04 -1.792511E+04 -1.236804E+04
       422   7  1.682758E+06 -5.730543E+04 -4.605546E+04 -1.595168E+04 -6.246495E+03 -9.541281E+03
       422   8  1.652449E+06 -6.469182E+04 -4.770941E+04 -7.643442E+03 -1.257160E+04 -1.095971E+04
       422   9  1.623636E+06 -6.967004E+04 -4.463614E+04 -1.533760E+04 -1.889578E+04 -1.236925E+04
       422  10  2.147836E+06  5.698927E+04  6.132288E+04 -1.480717E+04 -1.260145E-09  5.476799E-10
       422  11  2.176651E+06  6.409535E+04  7.313699E+04 -7.115175E+03 -2.267742E-09 -1.181316E-09
       422  12  2.206961E+06  7.361081E+04  8.968685E+04 -1.542475E+04  4.846555E-10  7.504037E-10
       422  13  1.915272E+06 -1.562464E+02  7.635387E+03 -1.537955E+04 -3.031346E-10 -1.402071E-10
       422  14  1.914518E+06 -2.959228E+02  1.271581E+04 -7.379415E+03 -5.600551E-10  1.018396E-11
       422  15  1.915259E+06  1.973220E+03  2.252769E+04 -1.538125E+04  8.220704E-11 -2.417164E-10
       422  16  1.682758E+06 -5.730554E+04 -4.605570E+04 -1.595173E+04  5.552518E-10 -9.468266E-10
       422  17  1.652449E+06 -6.469199E+04 -4.770993E+04 -7.643553E+03  6.611310E-11 -2.512072E-10
       422  18  1.623635E+06 -6.967030E+04 -4.463710E+04 -1.533779E+04 -4.560844E-10  3.759777E-10
       422  19  2.147836E+06  5.698937E+04  6.132308E+04 -1.480713E+04  4.269734E+03  9.539630E+03
       422  20  2.176651E+06  6.409551E+04  7.313743E+04 -7.115081E+03  1.061203E+04  1.095769E+04
       422  21  2.206961E+06  7.361105E+04  8.968768E+04 -1.542458E+04  1.695399E+04  1.236684E+04
       422  22  1.915272E+06 -1.561412E+02  7.635610E+03 -1.537951E+04  5.258298E+03  9.540457E+03
       422  23  1.914519E+06 -2.957578E+02  1.271629E+04 -7.379312E+03  1.159202E+04  1.095870E+04
       422  24  1.915259E+06  1.973471E+03  2.252858E+04 -1.538107E+04  1.792511E+04  1.236804E+04
       422  25  1.682758E+06 -5.730543E+04 -4.605546E+04 -1.595168E+04  6.246495E+03  9.541281E+03
       422  26  1.652449E+06 -6.469182E+04 -4.770941E+04 -7.643442E+03  1.257160E+04  1.095971E+04
       422  27  1.623636E+06 -6.967004E+04 -4.463614E+04 -1.533760E+04  1.889578E+04  1.236925E+04
       423   1  2.238787E+06  7.738090E+04  1.032273E+05 -1.075879E+04 -2.130034E+04 -1.329463E+04
       423   2  2.264286E+06  8.408100E+04  1.309218E+05 -9.169556E+03 -4.688593E+04 -1.472319E+04
       423   3  2.300872E+06  1.213993E+05  1.829115E+05 -2.437830E+04 -7.247372E+04 -1.557715E+04
       423   4  1.917376E+06 -1.592710E+03  2.907569E+04 -1.554780E+04 -2.247331E+04 -1.329599E+04
       423   5  1.911840E+06 -2.489329E+03  4.966845E+04 -7.164696E+03 -4.764545E+04 -1.472473E+04
       423   6  1.917324E+06  2.717062E+04  9.428000E+04 -1.557979E+04 -7.281852E+04 -1.557928E+04
       423   7  1.596060E+06 -8.057345E+04 -4.508279E+04 -2.033434E+04 -2.364567E+04 -1.329734E+04
       423   8  1.559507E+06 -8.906831E+04 -3.159310E+04 -5.161008E+03 -4.840454E+04 -1.472628E+04
       423   9  1.533912E+06 -6.706805E+04  5.638732E+03 -6.786784E+03 -7.316310E+04 -1.558142E+04
       423  10  2.238787E+06  7.738059E+04  1.032261E+05 -1.075902E+04 -3.267639E-10 -7.301779E-11
       423  11  2.264284E+06  8.408018E+04  1.309172E+05 -9.170112E+03 -6.516694E-10 -1.418369E-09
       423  12  2.300866E+06  1.213976E+05  1.829012E+05 -2.437921E+04  3.616247E-10 -1.686903E-09
       423  13  1.917375E+06 -1.593035E+03  2.907441E+04 -1.554804E+04  1.001947E-13 -3.723279E-10
       423  14  1.911837E+06 -2.490169E+03  4.966379E+04 -7.165261E+03  5.616080E-10 -4.924483E-10
       423  15  1.917318E+06  2.716894E+04  9.426961E+04 -1.558071E+04  7.601781E-12 -1.348532E-09
       423  16  1.596059E+06 -8.057379E+04 -4.508417E+04 -2.033459E+04  2.671974E-10  9.610869E-11
       423  17  1.559505E+06 -8.906917E+04 -3.159790E+04 -5.161582E+03  1.547265E-09  2.455118E-09
       423  18  1.533906E+06 -6.706975E+04  5.628242E+03 -6.787702E+03 -2.645826E-12 -2.683338E-10
       423  19  2.238787E+06  7.738090E+04  1.032273E+05 -1.075879E+04  2.130034E+04  1.329463E+04
       423  20  2.264286E+06  8.408100E+04  1.309218E+05 -9.169556E+03  4.688593E+04  1.472319E+04
       423  21  2.300872E+06  1.213993E+05  1.829115E+05 -2.437830E+04  7.247372E+04  1.557715E+04
       423  22  1.917376E+06 -1.592710E+03  2.907569E+04 -1.554780E+04  2.247331E+04  1.329599E+04
       423  23  1.911840E+06 -2.489329E+03  4.966845E+04 -7.164696E+03  4.764545E+04  1.472473E+04
       423  24  1.917324E+06  2.717062E+04  9.428000E+04 -1.557979E+04  7.281852E+04  1.557928E+04
       423  25  1.596060E+06 -8.057345E+04 -4.508279E+04 -2.033434E+04  2.364567E+04  1.329734E+04
       423  26  1.559507E+06 -8.906831E+04 -3.159310E+04 -5.161008E+03  4.840454E+04  1.472628E+04
       423  27  1.533912E+06 -6.706805E+04  5.638732E+03 -6.786784E+03  7.316310E+04  1.558142E+04
       424   1  2.354246E+06  8.270050E+04  2.123362E+05  3.631236E+04 -8.617764E+04 -1.793829E+04
       424   2  2.331873E+06  8.273506E+04  2.964448E+05 -5.102047E+04 -1.977048E+05 -1.799411E+04
       424   3  2.420673E+06  4.691786E+05  5.496307E+05 -1.562613E+05 -3.092574E+05 -6.175956E+03
       424   4  1.939337E+06 -1.933665E+04  1.169052E+05 -1.563783E+04 -9.021715E+04 -1.793724E+04
       424   5  1.884273E+06 -2.713313E+04  1.928757E+05 -6.983731E+03 -1.934145E+05 -1.800267E+04
       424   6  1.939001E+06  3.501521E+05  4.322281E+05 -1.622351E+04 -2.966296E+05 -6.224703E+03
       424   7  1.524592E+06 -1.213757E+05  2.146429E+04 -6.755320E+04 -9.425397E+04 -1.793551E+04
       424   8  1.436862E+06 -1.370080E+05  8.929426E+04  3.702107E+04 -1.891274E+05 -1.801063E+04
       424   9  1.457582E+06  2.311824E+05  3.148198E+05  1.237058E+05 -2.840114E+05 -6.267811E+03
       424  10  2.354238E+06  8.269817E+04  2.123217E+05  3.631112E+04 -5.523302E-10 -2.926238E-09
       424  11  2.331832E+06  8.272426E+04  2.963710E+05 -5.102334E+04 -2.624550E-09 -5.268346E-09
       424  12  2.420571E+06  4.691530E+05  5.494516E+05 -1.562629E+05 -1.490042E-09 -1.505300E-09
       424  13  1.939328E+06 -1.933917E+04  1.168893E+05 -1.563913E+04 -2.016200E-09 -6.644904E-09
       424  14  1.884233E+06 -2.714348E+04  1.928050E+05 -6.986533E+03  2.553691E-09  2.603742E-09
       424  15  1.938907E+06  3.501285E+05  4.320632E+05 -1.622499E+04 -1.205005E-10 -4.111472E-10
       424  16  1.524582E+06 -1.213785E+05  2.144704E+04 -6.755456E+04  3.248133E-10 -1.729706E-09
       424  17  1.436824E+06 -1.370179E+05  8.922660E+04  3.701833E+04  2.281985E-09  1.639003E-09
       424  18  1.457496E+06  2.311607E+05  3.146685E+05  1.237043E+05  4.173719E-10 -1.643726E-09
       424  19  2.354246E+06  8.270050E+04  2.123362E+05  3.631236E+04  8.617764E+04  1.793829E+04
       424  20  2.331873E+06  8.273506E+04  2.964448E+05 -5.102047E+04  1.977048E+05  1.799411E+04
       424  21  2.420673E+06  4.691786E+05  5.496307E+05 -1.562613E+05  3.092574E+05  6.175956E+03
       424  22  1.939337E+06 -1.933665E+04  1.169052E+05 -1.563783E+04  9.021715E+04  1.793724E+04
       424  23  1.884273E+06 -2.713313E+04  1.928757E+05 -6.983731E+03  1.934145E+05  1.800267E+04
       424  24  1.939001E+06  3.501521E+05  4.322281E+05 -1.622351E+04  2.966296E+05  6.224703E+03
       424  25  1.524592E+06 -1.213757E+05  2.146429E+04 -6.755320E+04  9.425397E+04  1.793551E+04
       424  26  1.436862E+06 -1.370080E+05  8.929426E+04  3.702107E+04  1.891274E+05  1.801063E+04
       424  27  1.457582E+06  2.311824E+05  3.148198E+05  1.237058E+05  2.840114E+05  6.267811E+03
       425   1  5.524943E+05  1.864242E+05  1.709627E+05  4.255566E+04  4.068122E+04 -1.268633E+04
       425   2  4.883092E+05  1.916904E+05  1.419580E+05  4.872715E+04  1.458343E+04 -4.276378E+04
       425   3  4.237469E+05  1.817730E+05  1.261808E+05  6.781289E+04 -1.154761E+04 -5.142153E+04
       425   4 -3.532223E+05 -3.703404E+04 -4.125637E+04  6.452698E+04 -2.875675E+04 -1.282038E+04
       425   5 -3.498384E+05 -8.277464E+03 -2.007325E+04  5.803118E+04 -1.833038E+04 -4.283675E+04
       425   6 -3.531821E+05 -1.057258E+03 -1.102562E+04  6.445032E+04 -7.940536E+03 -5.141910E+04
       425   7 -1.258172E+06 -2.605461E+05 -2.535131E+05  8.646567E+04 -9.809410E+04 -1.295946E+04
       425   8 -1.187308E+06 -2.082862E+05 -1.821331E+05  6.732200E+04 -5.120078E+04 -4.291076E+04
       425   9 -1.129521E+06 -1.839206E+05 -1.482542E+05  6.109173E+04 -4.337841E+03 -5.141670E+04
       425  10  5.524925E+05  1.864236E+05  1.709593E+05  4.255608E+04  3.623275E-09 -1.182581E-09
       425  11  4.883085E+05  1.916884E+05  1.419541E+05  4.872765E+04  1.036295E-09 -4.787431E-09
       425  12  4.237460E+05  1.817701E+05  1.261756E+05  6.781241E+04  1.082793E-09 -4.306187E-09
       425  13 -3.532232E+05 -3.703444E+04 -4.125824E+04  6.452668E+04  1.464376E-10  1.602693E-09
       425  14 -3.498393E+05 -8.279524E+03 -2.007733E+04  5.803054E+04 -6.588236E-10 -2.883482E-09
       425  15 -3.531829E+05 -1.060113E+03 -1.103071E+04  6.444999E+04  2.431938E-09 -1.441622E-09
       425  16 -1.258182E+06 -2.605489E+05 -2.535315E+05  8.646465E+04 -5.276149E-09  1.700192E-10
       425  17 -1.187312E+06 -2.082889E+05 -1.821415E+05  6.732023E+04  1.302583E-09 -7.767080E-09
       425  18 -1.129522E+06 -1.839234E+05 -1.482592E+05  6.109155E+04 -4.520960E-10 -7.010028E-09
       425  19  5.524943E+05  1.864242E+05  1.709627E+05  4.255566E+04 -4.068122E+04  1.268633E+04
       425  20  4.883092E+05  1.916904E+05  1.419580E+05  4.872715E+04 -1.458343E+04  4.276378E+04
       425  21  4.237469E+05  1.817730E+05  1.261808E+05  6.781289E+04  1.154761E+04  5.142153E+04
       425  22 -3.532223E+05 -3.703404E+04 -4.125637E+04  6.452698E+04  2.875675E+04  1.282038E+04
       425  23 -3.498384E+05 -8.277464E+03 -2.007325E+04  5.803118E+04  1.833038E+04  4.283675E+04
       425  24 -3.531821E+05 -1.057258E+03 -1.102562E+04  6.445032E+04  7.940536E+03  5.141910E+04
       425  25 -1.258172E+06 -2.605461E+05 -2.535131E+05  8.646567E+04  9.809410E+04  1.295946E+04
       425  26 -1.187308E+06 -2.082862E+05 -1.821331E+05  6.732200E+04  5.120078E+04  4.291076E+04
       425  27 -1.129521E+06 -1.839206E+05 -1.482542E+05  6.109173E+04  4.337841E+03  5.141670E+04
       426   1  3.822823E+05  1.709569E+05  1.199523E+05  6.535356E+04 -7.812358E+03 -4.975243E+04
       426   2  3.180155E+05  1.566490E+05  1.095075E+05  5.862350E+04 -8.822235E+03 -4.802147E+04
       426   3  2.537197E+05  1.418322E+05  9.958638E+04  6.621654E+04 -9.838225E+03 -4.434512E+04
       426   4 -3.518106E+05 -1.522873E+03 -8.389965E+03  6.477346E+04 -6.509825E+03 -4.975464E+04
       426   5 -3.514921E+05 -7.929269E+01 -4.619875E+03  5.760919E+04 -4.205198E+03 -4.801492E+04
       426   6 -3.517815E+05  2.798889E+02 -2.628457E+03  6.476900E+04 -1.906730E+03 -4.432875E+04
       426   7 -1.085376E+06 -1.740319E+05 -1.367514E+05  6.419375E+04 -5.208781E+03 -4.975687E+04
       426   8 -1.020559E+06 -1.568313E+05 -1.187620E+05  5.659573E+04  4.070215E+02 -4.800839E+04
       426   9 -9.569215E+05 -1.412917E+05 -1.048548E+05  6.332268E+04  6.017283E+03 -4.431241E+04
       426  10  3.822816E+05  1.709542E+05  1.199475E+05  6.535325E+04 -6.782929E-09 -5.126084E-09
       426  11  3.180148E+05  1.566465E+05  1.095031E+05  5.862316E+04 -2.750245E-09  1.998041E-09
       426  12  2.537191E+05  1.418300E+05  9.958250E+04  6.621618E+04  1.911761E-09  3.133756E-09
       426  13 -3.518113E+05 -1.525542E+03 -8.394696E+03  6.477320E+04 -2.801382E-10 -4.108033E-09
       426  14 -3.514927E+05 -8.177265E+01 -4.624239E+03  5.760902E+04 -1.384461E-09 -3.646266E-10
       426  15 -3.517821E+05  2.777782E+02 -2.632156E+03  6.476893E+04  1.947235E-09 -2.921106E-09
       426  16 -1.085377E+06 -1.740346E+05 -1.367561E+05  6.419354E+04  4.798414E-09 -7.062624E-10
       426  17 -1.020559E+06 -1.568338E+05 -1.187663E+05  5.659574E+04  5.193885E-09  1.499874E-09
       426  18 -9.569220E+05 -1.412938E+05 -1.048585E+05  6.332289E+04 -2.351254E-09  1.701057E-10
       426  19  3.822823E+05  1.709569E+05  1.199523E+05  6.535356E+04  7.812358E+03  4.975243E+04
       426  20  3.180155E+05  1.566490E+05  1.095075E+05  5.862350E+04  8.822235E+03  4.802147E+04
       426  21  2.537197E+05  1.418322E+05  9.958638E+04  6.621654E+04  9.838225E+03  4.434512E+04
       426  22 -3.518106E+05 -1.522873E+03 -8.389965E+03  6.477346E+04  6.509825E+03  4.975464E+04
       426  23 -3.514921E+05 -7.929269E+01 -4.619875E+03  5.760919E+04  4.205198E+03  4.801492E+04
       426  24 -3.517815E+05  2.798889E+02 -2.628457E+03  6.476900E+04  1.906730E+03  4.432875E+04
       426  25 -1.085376E+06 -1.740319E+05 -1.367514E+05  6.419375E+04  5.208781E+03  4.975687E+04
       426  26 -1.020559E+06 -1.568313E+05 -1.187620E+05  5.659573E+04 -4.070215E+02  4.800839E+04
       426  27 -9.569215E+05 -1.412917E+05 -1.048548E+05  6.332268E+04 -6.017283E+03  4.431241E+04
       427   1  2.119088E+05  1.319369E+05  9.278697E+04  6.601575E+04 -9.234445E+03 -4.159643E+04
       427   2  1.475922E+05  1.169040E+05  8.267325E+04  5.866238E+04 -8.981941E+03 -3.697488E+04
       427   3  8.319630E+04  1.019436E+05  7.239451E+04  6.577689E+04 -8.731630E+03 -3.217496E+04
       427   4 -3.516672E+05  2.542929E+02 -1.997657E+03  6.480176E+04 -1.509071E+03 -4.157962E+04
       427   5 -3.515884E+05  2.911702E+02 -1.143368E+03  5.756738E+04 -9.533697E+02 -3.695587E+04
       427   6 -3.516457E+05  3.480923E+02 -6.650619E+02  6.480154E+04 -3.998364E+02 -3.215368E+04
       427   7 -9.149300E+05 -1.314450E+05 -9.679208E+04  6.358869E+04  6.209522E+03 -4.156284E+04
       427   8 -8.505230E+05 -1.163347E+05 -8.496756E+04  5.647311E+04  7.068959E+03 -3.693688E+04
       427   9 -7.863011E+05 -1.012573E+05 -7.373031E+04  6.382676E+04  7.926313E+03 -3.213241E+04
       427  10  2.119083E+05  1.319351E+05  9.278356E+04  6.601544E+04 -3.287309E-09  4.265578E-09
       427  11  1.475918E+05  1.169025E+05  8.267053E+04  5.866212E+04  7.192235E-11  2.365628E-09
       427  12  8.319594E+04  1.019425E+05  7.239242E+04  6.577666E+04  7.081343E-09 -3.007366E-10
       427  13 -3.516677E+05  2.524361E+02 -2.000910E+03  6.480171E+04  2.441300E-10 -3.969302E-09
       427  14 -3.515887E+05  2.897036E+02 -1.145936E+03  5.756735E+04 -1.403581E-09  2.326678E-09
       427  15 -3.516460E+05  3.469823E+02 -6.670047E+02  6.480153E+04  1.896371E-09  6.022199E-09
       427  16 -9.149305E+05 -1.314469E+05 -9.679540E+04  6.358890E+04  1.001170E-09  1.110037E-09
       427  17 -8.505235E+05 -1.163362E+05 -8.497022E+04  5.647332E+04  1.618815E-09  3.372534E-09
       427  18 -7.863015E+05 -1.012585E+05 -7.373237E+04  6.382696E+04 -7.389463E-09  2.989650E-10
       427  19  2.119088E+05  1.319369E+05  9.278697E+04  6.601575E+04  9.234445E+03  4.159643E+04
       427  20  1.475922E+05  1.169040E+05  8.267325E+04  5.866238E+04  8.981941E+03  3.697488E+04
       427  21  8.319630E+04  1.019436E+05  7.239451E+04  6.577689E+04  8.731630E+03  3.217496E+04
       427  22 -3.516672E+05  2.542929E+02 -1.997657E+03  6.480176E+04  1.509071E+03  4.157962E+04
       427  23 -3.515884E+05  2.911702E+02 -1.143368E+03  5.756738E+04  9.533697E+02  3.695587E+04
       427  24 -3.516457E+05  3.480923E+02 -6.650619E+02  6.480154E+04  3.998364E+02  3.215368E+04
       427  25 -9.149300E+05 -1.314450E+05 -9.679208E+04  6.358869E+04 -6.209522E+03  4.156284E+04
       427  26 -8.505230E+05 -1.163347E+05 -8.496756E+04  5.647311E+04 -7.068959E+03  3.693688E+04
       427  27 -7.863011E+05 -1.012573E+05 -7.373031E+04  6.382676E+04 -7.926313E+03  3.213241E+04
       428   1  4.132958E+04  9.210975E+04  6.523619E+04  6.568851E+04 -8.615879E+03 -2.932545E+04
       428   2 -2.304802E+04  7.705939E+04  5.474472E+04  5.830054E+04 -8.497721E+03 -2.443736E+04
       428   3 -8.750537E+04  6.209465E+04  4.417237E+04  6.540609E+04 -8.380777E+03 -1.953247E+04
       428   4 -3.516287E+05  3.521706E+02 -5.146292E+02  6.480722E+04 -3.006582E+02 -2.930349E+04
       428   5 -3.515767E+05  3.245254E+02 -3.219836E+02  5.756023E+04 -1.544107E+02 -2.441436E+04
       428   6 -3.516146E+05  3.775076E+02 -2.302430E+02  6.480718E+04 -9.364381E+00 -1.950841E+04
       428   7 -7.444344E+05 -9.141344E+04 -6.626997E+04  6.392640E+04  8.009473E+03 -2.928155E+04
       428   8 -6.799988E+05 -7.641595E+04 -5.539179E+04  5.682024E+04  8.184630E+03 -2.439137E+04
       428   9 -6.156549E+05 -6.134326E+04 -4.463479E+04  6.420848E+04  8.358603E+03 -1.948436E+04
       428  10  4.132927E+04  9.210881E+04  6.523444E+04  6.568831E+04  3.333163E-09  5.539144E-10
       428  11 -2.304826E+04  7.705873E+04  5.474347E+04  5.830037E+04 -5.035581E-10  7.770944E-09
       428  12 -8.750554E+04  6.209422E+04  4.417152E+04  6.540596E+04 -9.284045E-10  7.203149E-09
       428  13 -3.516289E+05  3.512486E+02 -5.162427E+02  6.480722E+04 -2.915003E-10  4.714118E-10
       428  14 -3.515769E+05  3.238854E+02 -3.231036E+02  5.756022E+04 -1.495155E-09  7.542584E-09
       428  15 -3.516147E+05  3.770990E+02 -2.309580E+02  6.480718E+04  1.854809E-09  2.914231E-09
       428  16 -7.444347E+05 -9.141438E+04 -6.627171E+04  6.392659E+04 -5.714745E-09 -5.879606E-10
       428  17 -6.799990E+05 -7.641660E+04 -5.539304E+04  5.682040E+04  2.755979E-09  2.971489E-09
       428  18 -6.156550E+05 -6.134368E+04 -4.463563E+04  6.420861E+04  1.185113E-09  7.355014E-10
       428  19  4.132958E+04  9.210975E+04  6.523619E+04  6.568851E+04  8.615879E+03  2.932545E+04
       428  20 -2.304802E+04  7.705939E+04  5.474472E+04  5.830054E+04  8.497721E+03  2.443736E+04
       428  21 -8.750537E+04  6.209465E+04  4.417237E+04  6.540609E+04  8.380777E+03  1.953247E+04
       428  22 -3.516287E+05  3.521706E+02 -5.146292E+02  6.480722E+04  3.006582E+02  2.930349E+04
       428  23 -3.515767E+05  3.245254E+02 -3.219836E+02  5.756023E+04  1.544107E+02  2.441436E+04
       428  24 -3.516146E+05  3.775076E+02 -2.302430E+02  6.480718E+04  9.364381E+00  1.950841E+04
       428  25 -7.444344E+05 -9.141344E+04 -6.626997E+04  6.392640E+04 -8.009473E+03  2.928155E+04
       428  26 -6.799988E+05 -7.641595E+04 -5.539179E+04  5.682024E+04 -8.184630E+03  2.439137E+04
       428  27 -6.156549E+05 -6.134326E+04 -4.463479E+04  6.420848E+04 -8.358603E+03  1.948436E+04
       429   1 -1.294094E+05  5.225620E+04  3.688436E+04  6.531395E+04 -8.348996E+03 -1.667189E+04
       429   2 -1.938131E+05  3.719642E+04  2.619992E+04  5.790653E+04 -8.239737E+03 -1.176045E+04
       429   3 -2.583113E+05  2.221785E+04  1.543495E+04  6.500502E+04 -8.131028E+03 -6.854462E+03
       429   4 -3.516120E+05  3.824302E+02 -2.139998E+02  6.480988E+04  2.276490E+01 -1.664741E+04
       429   5 -3.515606E+05  3.500794E+02 -2.302281E+02  5.755681E+04  1.223460E+02 -1.173553E+04
       429   6 -3.516053E+05  4.010145E+02 -3.201640E+02  6.480984E+04  2.213895E+02 -6.829107E+03
       429   7 -5.737658E+05 -5.149388E+04 -3.731361E+04  6.430596E+04  8.391628E+03 -1.662293E+04
       429   8 -5.092835E+05 -3.649753E+04 -2.666089E+04  5.720716E+04  8.482374E+03 -1.171062E+04
       429   9 -4.448905E+05 -2.141625E+04 -1.607529E+04  6.461469E+04  8.572592E+03 -6.803754E+03
       429  10 -1.294095E+05  5.225588E+04  3.688371E+04  6.531383E+04  1.145143E-08  2.162773E-09
       429  11 -1.938132E+05  3.719626E+04  2.619954E+04  5.790646E+04  2.147188E-09 -7.458827E-10
       429  12 -2.583114E+05  2.221779E+04  1.543474E+04  6.500498E+04 -2.819352E-09 -3.887807E-09
       429  13 -3.516121E+05  3.821327E+02 -2.145205E+02  6.480988E+04 -1.566156E-12  9.298073E-09
       429  14 -3.515607E+05  3.499315E+02 -2.304869E+02  5.755681E+04 -1.960222E-09  9.723439E-10
       429  15 -3.516053E+05  4.009644E+02 -3.202517E+02  6.480984E+04  2.687356E-09 -4.174130E-09
       429  16 -5.737659E+05 -5.149419E+04 -3.731427E+04  6.430608E+04 -1.397336E-08  3.115031E-09
       429  17 -5.092836E+05 -3.649770E+04 -2.666128E+04  5.720724E+04 -7.519899E-10 -3.208994E-09
       429  18 -4.448906E+05 -2.141632E+04 -1.607552E+04  6.461474E+04  2.828080E-09 -3.508923E-09
       429  19 -1.294094E+05  5.225620E+04  3.688436E+04  6.531395E+04  8.348996E+03  1.667189E+04
       429  20 -1.938131E+05  3.719642E+04  2.619992E+04  5.790653E+04  8.239737E+03  1.176045E+04
       429  21 -2.583113E+05  2.221785E+04  1.543495E+04  6.500502E+04  8.131028E+03  6.854462E+03
       429  22 -3.516120E+05  3.824302E+02 -2.139998E+02  6.480988E+04 -2.276490E+01  1.664741E+04
       429  23 -3.515606E+05  3.500794E+02 -2.302281E+02  5.755681E+04 -1.223460E+02  1.173553E+04
       429  24 -3.516053E+05  4.010145E+02 -3.201640E+02  6.480984E+04 -2.213895E+02  6.829107E+03
       429  25 -5.737658E+05 -5.149388E+04 -3.731361E+04  6.430596E+04 -8.391628E+03  1.662293E+04
       429  26 -5.092835E+05 -3.649753E+04 -2.666089E+04  5.720716E+04 -8.482374E+03  1.171062E+04
       429  27 -4.448905E+05 -2.141625E+04 -1.607529E+04  6.461469E+04 -8.572592E+03  6.803754E+03
       430   1 -3.002377E+05  1.237303E+04  8.042941E+03  6.489707E+04 -8.083649E+03 -3.995802E+03
       430   2 -3.646164E+05 -2.703862E+03 -2.938433E+03  5.748356E+04 -7.626945E+03  8.726598E+02
       430   3 -4.291517E+05 -1.775536E+04 -1.424160E+04  6.457292E+04 -7.170002E+03  5.657357E+03
       430   4 -3.516129E+05  4.053401E+02 -4.003515E+02  6.480908E+04  2.778117E+02 -3.970292E+03
       430   5 -3.515453E+05  3.669135E+02 -6.632110E+02  5.755771E+04  5.914412E+02  8.976937E+02
       430   6 -3.516136E+05  3.788931E+02 -1.148596E+03  6.480917E+04  9.053567E+02  5.681920E+03
       430   7 -4.029854E+05 -1.156245E+04 -8.843458E+03  6.472110E+04  8.638604E+03 -3.944784E+03
       430   8 -3.384739E+05  3.437716E+03  1.612259E+03  5.763187E+04  8.809996E+03  9.227293E+02
       430   9 -2.740694E+05  1.851286E+04  1.194446E+04  6.504545E+04  8.981692E+03  5.706488E+03
       430  10 -3.002378E+05  1.237300E+04  8.042788E+03  6.489704E+04 -2.474898E-09  3.097670E-09
       430  11 -3.646165E+05 -2.703878E+03 -2.938544E+03  5.748357E+04 -2.577115E-09  9.636713E-10
       430  12 -4.291518E+05 -1.775540E+04 -1.424175E+04  6.457295E+04 -9.625795E-10  5.610844E-10
       430  13 -3.516130E+05  4.053231E+02 -4.003812E+02  6.480909E+04 -2.595799E-10  6.772815E-10
       430  14 -3.515453E+05  3.669125E+02 -6.632132E+02  5.755771E+04 -1.451944E-09  8.403957E-10
       430  15 -3.516136E+05  3.788583E+02 -1.148658E+03  6.480917E+04  2.483422E-09  7.515257E-10
       430  16 -4.029855E+05 -1.156249E+04 -8.843627E+03  6.472113E+04 -2.370790E-10  1.770961E-09
       430  17 -3.384740E+05  3.437694E+03  1.612112E+03  5.763186E+04  6.043489E-09 -8.609458E-09
       430  18 -2.740695E+05  1.851280E+04  1.194425E+04  6.504541E+04  9.094178E-10 -9.712489E-10
       430  19 -3.002377E+05  1.237303E+04  8.042941E+03  6.489707E+04  8.083649E+03  3.995802E+03
       430  20 -3.646164E+05 -2.703862E+03 -2.938433E+03  5.748356E+04  7.626945E+03 -8.726598E+02
       430  21 -4.291517E+05 -1.775536E+04 -1.424160E+04  6.457292E+04  7.170002E+03 -5.657357E+03
       430  22 -3.516129E+05  4.053401E+02 -4.003515E+02  6.480908E+04 -2.778117E+02  3.970292E+03
       430  23 -3.515453E+05  3.669135E+02 -6.632110E+02  5.755771E+04 -5.914412E+02 -8.976937E+02
       430  24 -3.516136E+05  3.788931E+02 -1.148596E+03  6.480917E+04 -9.053567E+02 -5.681920E+03
       430  25 -4.029854E+05 -1.156245E+04 -8.843458E+03  6.472110E+04 -8.638604E+03  3.944784E+03
       430  26 -3.384739E+05  3.437716E+03  1.612259E+03  5.763187E+04 -8.809996E+03 -9.227293E+02
       430  27 -2.740694E+05  1.851286E+04  1.194446E+04  6.504545E+04 -8.981692E+03 -5.706488E+03
       431   1 -4.711681E+05 -2.760622E+04 -2.197584E+04  6.436059E+04 -7.045371E+03  8.469842E+03
       431   2 -5.352670E+05 -4.294389E+04 -3.438480E+04  5.728055E+04 -4.162677E+03  1.281564E+04
       431   3 -6.000524E+05 -5.913734E+04 -4.891389E+04  6.464133E+04 -1.277124E+03  1.623581E+04
       431   4 -3.516778E+05  3.987352E+02 -1.508691E+03  6.479486E+04  1.128674E+03  8.494537E+03
       431   5 -3.514731E+05  1.824966E+02 -2.643790E+03  5.757610E+04  2.435144E+03  1.283509E+04
       431   6 -3.516860E+05 -6.156096E+02 -4.803860E+03  6.479789E+04  3.744784E+03  1.625017E+04
       431   7 -2.321733E+05  2.840297E+04  1.895823E+04  6.522921E+04  9.304244E+03  8.519241E+03
       431   8 -1.676460E+05  4.330709E+04  2.909622E+04  5.787170E+04  9.034860E+03  1.285455E+04
       431   9 -1.032593E+05  5.790273E+04  3.930396E+04  6.495448E+04  8.768644E+03  1.626453E+04
       431  10 -4.711682E+05 -2.760631E+04 -2.197607E+04  6.436064E+04 -4.065956E-09  6.240442E-09
       431  11 -5.352670E+05 -4.294407E+04 -3.438514E+04  5.728060E+04 -7.456011E-10  2.992162E-09
       431  12 -6.000525E+05 -5.913762E+04 -4.891439E+04  6.464135E+04  5.849718E-09  4.546796E-09
       431  13 -3.516778E+05  3.986574E+02 -1.508829E+03  6.479485E+04 -2.504482E-10  1.152315E-09
       431  14 -3.514732E+05  1.823181E+02 -2.644110E+03  5.757607E+04 -2.104594E-09  2.941950E-09
       431  15 -3.516861E+05 -6.158969E+02 -4.804383E+03  6.479785E+04  2.940627E-09 -2.013876E-09
       431  16 -2.321734E+05  2.840286E+04  1.895793E+04  6.522914E+04  1.528570E-09  1.977325E-09
       431  17 -1.676461E+05  4.330689E+04  2.909576E+04  5.787161E+04  3.771259E-09 -8.150878E-10
       431  18 -1.032594E+05  5.790243E+04  3.930331E+04  6.495436E+04 -5.833019E-09 -7.344041E-09
       431  19 -4.711681E+05 -2.760622E+04 -2.197584E+04  6.436059E+04  7.045371E+03 -8.469842E+03
       431  20 -5.352670E+05 -4.294389E+04 -3.438480E+04  5.728055E+04  4.162677E+03 -1.281564E+04
       431  21 -6.000524E+05 -5.913734E+04 -4.891389E+04  6.464133E+04  1.277124E+03 -1.623581E+04
       431  22 -3.516778E+05  3.987352E+02 -1.508691E+03  6.479486E+04 -1.128674E+03 -8.494537E+03
       431  23 -3.514731E+05  1.824966E+02 -2.643790E+03  5.757610E+04 -2.435144E+03 -1.283509E+04
       431  24 -3.516860E+05 -6.156096E+02 -4.803860E+03  6.479789E+04 -3.744784E+03 -1.625017E+04
       431  25 -2.321733E+05  2.840297E+04  1.895823E+04  6.522921E+04 -9.304244E+03 -8.519241E+03
       431  26 -1.676460E+05  4.330709E+04  2.909622E+04  5.787170E+04 -9.034860E+03 -1.285455E+04
       431  27 -1.032593E+05  5.790273E+04  3.930396E+04  6.495448E+04 -8.768644E+03 -1.626453E+04
       432   1 -6.432250E+05 -6.897380E+04 -5.848306E+04  6.282047E+04 -1.558530E+03  1.853104E+04
       432   2 -7.042631E+05 -8.917474E+04 -8.108200E+04  6.309880E+04  2.174159E+04  1.709097E+04
       432   3 -7.722522E+05 -1.247118E+05 -1.227092E+05  7.716130E+04  4.506658E+04  5.449939E+03
       432   4 -3.524714E+05 -3.450942E+02 -6.313223E+03  6.464406E+04  4.559019E+03  1.854829E+04
       432   5 -3.505138E+05 -4.502266E+03 -1.148946E+04  5.778135E+04  1.049499E+04  1.705763E+04
       432   6 -3.524899E+05 -2.097386E+04 -2.362431E+04  6.470318E+04  1.645834E+04  5.368138E+03
       432   7 -6.163528E+04  6.827893E+04  4.585350E+04  6.646846E+04  1.067935E+04  1.856557E+04
       432   8  3.355734E+03  8.016282E+04  5.809749E+04  5.246072E+04 -7.578962E+02  1.702450E+04
       432   9  6.743681E+04  8.275253E+04  7.545162E+04  5.223646E+04 -1.216916E+04  5.287515E+03
       432  10 -6.432251E+05 -6.897417E+04 -5.848371E+04  6.282050E+04 -2.639538E-09  4.907853E-09
       432  11 -7.042636E+05 -8.917518E+04 -8.108344E+04  6.309850E+04 -2.005038E-09  2.448732E-09
       432  12 -7.722544E+05 -1.247124E+05 -1.227131E+05  7.716110E+04  2.217892E-10 -2.270560E-10
       432  13 -3.524716E+05 -3.454692E+02 -6.313908E+03  6.464399E+04  4.048062E-12  5.257136E-09
       432  14 -3.505140E+05 -4.502608E+03 -1.149021E+04  5.778121E+04 -1.098078E-09 -5.071442E-09
       432  15 -3.524902E+05 -2.097397E+04 -2.362487E+04  6.470311E+04  1.844966E-09  3.602387E-09
       432  16 -6.163549E+04  6.827853E+04  4.585264E+04  6.646831E+04  1.869815E-10  1.682103E-09
       432  17  3.355655E+03  8.016251E+04  5.809695E+04  5.246073E+04  4.765477E-09  1.707208E-09
       432  18  6.743664E+04  8.275246E+04  7.545128E+04  5.223652E+04 -3.120032E-11 -2.080595E-09
       432  19 -6.432250E+05 -6.897380E+04 -5.848306E+04  6.282047E+04  1.558530E+03 -1.853104E+04
       432  20 -7.042631E+05 -8.917474E+04 -8.108200E+04  6.309880E+04 -2.174159E+04 -1.709097E+04
       432  21 -7.722522E+05 -1.247118E+05 -1.227092E+05  7.716130E+04 -4.506658E+04 -5.449939E+03
       432  22 -3.524714E+05 -3.450942E+02 -6.313223E+03  6.464406E+04 -4.559019E+03 -1.854829E+04
       432  23 -3.505138E+05 -4.502266E+03 -1.148946E+04  5.778135E+04 -1.049499E+04 -1.705763E+04
       432  24 -3.524899E+05 -2.097386E+04 -2.362431E+04  6.470318E+04 -1.645834E+04 -5.368138E+03
       432  25 -6.163528E+04  6.827893E+04  4.585350E+04  6.646846E+04 -1.067935E+04 -1.856557E+04
       432  26  3.355734E+03  8.016282E+04  5.809749E+04  5.246072E+04  7.578962E+02 -1.702450E+04
       432  27  6.743681E+04  8.275253E+04  7.545162E+04  5.223646E+04  1.216916E+04 -5.287515E+03
       433   1 -1.337494E+05  5.614700E+04  3.986370E+04 -4.701957E+03 -3.953597E+04 -5.704583E+03
       433   2 -1.612677E+05  1.117692E+05  6.713050E+04  2.272618E+03 -2.966145E+04 -1.732934E+04
       433   3 -2.065186E+05  1.016907E+05  7.156187E+04  2.855729E+04 -1.982059E+04 -1.719624E+04
       433   4 -6.051882E+05 -6.108837E+04 -7.547460E+04  1.881198E+04 -5.170822E+04 -5.740282E+03
       433   5 -5.955909E+05  4.761300E+03 -3.367187E+04  9.063194E+03 -3.366319E+04 -1.734241E+04
       433   6 -6.051609E+05  3.464991E+03 -2.039451E+04  1.862591E+04 -1.565095E+04 -1.718353E+04
       433   7 -1.076423E+06 -1.783380E+05 -1.908283E+05  4.230787E+04 -6.387122E+04 -5.776917E+03
       433   8 -1.029740E+06 -1.022597E+05 -1.344868E+05  1.584886E+04 -3.766214E+04 -1.735556E+04
       433   9 -1.003656E+06 -9.477153E+04 -1.123614E+05  8.700850E+03 -1.148397E+04 -1.717096E+04
       433  10 -1.337511E+05  5.614655E+04  3.986071E+04 -4.702138E+03 -7.618617E-09  1.862368E-09
       433  11 -1.612687E+05  1.117687E+05  6.712828E+04  2.272204E+03 -2.185301E-09  5.502197E-09
       433  12 -2.065191E+05  1.016903E+05  7.156058E+04  2.855702E+04  3.528192E-09  4.951527E-09
       433  13 -6.051911E+05 -6.108913E+04 -7.547969E+04  1.881174E+04  5.776087E-10 -4.007391E-09
       433  14 -5.955922E+05  4.760673E+03 -3.367457E+04  9.062724E+03  1.851776E-09 -6.720099E-09
       433  15 -6.051613E+05  3.464608E+03 -2.039553E+04  1.862570E+04  3.936939E-10  4.993767E-09
       433  16 -1.076427E+06 -1.783391E+05 -1.908360E+05  4.230757E+04  7.193343E-09  3.442707E-09
       433  17 -1.029741E+06 -1.022604E+05 -1.344901E+05  1.584833E+04  1.555888E-09  1.151890E-08
       433  18 -1.003656E+06 -9.477188E+04 -1.123622E+05  8.700691E+03 -4.557766E-09  1.891541E-09
       433  19 -1.337494E+05  5.614700E+04  3.986370E+04 -4.701957E+03  3.953597E+04  5.704583E+03
       433  20 -1.612677E+05  1.117692E+05  6.713050E+04  2.272618E+03  2.966145E+04  1.732934E+04
       433  21 -2.065186E+05  1.016907E+05  7.156187E+04  2.855729E+04  1.982059E+04  1.719624E+04
       433  22 -6.051882E+05 -6.108837E+04 -7.547460E+04  1.881198E+04  5.170822E+04  5.740282E+03
       433  23 -5.955909E+05  4.761300E+03 -3.367187E+04  9.063194E+03  3.366319E+04  1.734241E+04
       433  24 -6.051609E+05  3.464991E+03 -2.039451E+04  1.862591E+04  1.565095E+04  1.718353E+04
       433  25 -1.076423E+06 -1.783380E+05 -1.908283E+05  4.230787E+04  6.387122E+04  5.776917E+03
       433  26 -1.029740E+06 -1.022597E+05 -1.344868E+05  1.584886E+04  3.766214E+04  1.735556E+04
       433  27 -1.003656E+06 -9.477153E+04 -1.123614E+05  8.700850E+03  1.148397E+04  1.717096E+04
       434   1 -2.387296E+05  8.469167E+04  6.758552E+04  1.811128E+04 -1.318207E+04 -1.473365E+04
       434   2 -2.745368E+05  8.073175E+04  6.666138E+04  9.292105E+03 -9.217742E+03 -1.363171E+04
       434   3 -3.122462E+05  7.163881E+04  6.185068E+04  2.037507E+04 -5.256561E+03 -1.192034E+04
       434   4 -6.013384E+05 -4.660871E+03 -1.644972E+04  1.882267E+04 -1.263138E+04 -1.473248E+04
       434   5 -6.003446E+05  4.737160E+02 -8.666813E+03  8.862787E+03 -8.245347E+03 -1.362891E+04
       434   6 -6.013295E+05  4.002725E+02 -5.065331E+03  1.880578E+04 -3.862236E+03 -1.191578E+04
       434   7 -9.638256E+05 -9.402267E+04 -1.004938E+05  1.953353E+04 -1.208100E+04 -1.473131E+04
       434   8 -9.260543E+05 -7.979178E+04 -8.400210E+04  8.433612E+03 -7.273457E+03 -1.362611E+04
       434   9 -8.903355E+05 -7.084413E+04 -7.198693E+04  1.723716E+04 -2.468557E+03 -1.191122E+04
       434  10 -2.387299E+05  8.469139E+04  6.758479E+04  1.811113E+04 -4.544023E-09 -1.130827E-09
       434  11 -2.745369E+05  8.073153E+04  6.666087E+04  9.292004E+03  7.979666E-10  2.709171E-09
       434  12 -3.122463E+05  7.163865E+04  6.185036E+04  2.037501E+04  7.326939E-09  6.904476E-09
       434  13 -6.013386E+05 -4.661147E+03 -1.645042E+04  1.882252E+04 -4.558315E-10  1.392399E-08
       434  14 -6.003447E+05  4.734983E+02 -8.667290E+03  8.862696E+03  2.367521E-09 -2.086822E-08
       434  15 -6.013296E+05  4.001161E+02 -5.065625E+03  1.880574E+04  1.124019E-10  8.225942E-09
       434  16 -9.638259E+05 -9.402294E+04 -1.004945E+05  1.953339E+04  4.443115E-09 -6.255674E-09
       434  17 -9.260544E+05 -7.979199E+04 -8.400254E+04  8.433532E+03 -7.557114E-10 -2.942875E-09
       434  18 -8.903355E+05 -7.084429E+04 -7.198720E+04  1.723714E+04 -9.397410E-09  2.072883E-09
       434  19 -2.387296E+05  8.469167E+04  6.758552E+04  1.811128E+04  1.318207E+04  1.473365E+04
       434  20 -2.745368E+05  8.073175E+04  6.666138E+04  9.292105E+03  9.217742E+03  1.363171E+04
       434  21 -3.122462E+05  7.163881E+04  6.185068E+04  2.037507E+04  5.256561E+03  1.192034E+04
       434  22 -6.013384E+05 -4.660871E+03 -1.644972E+04  1.882267E+04  1.263138E+04  1.473248E+04
       434  23 -6.003446E+05  4.737160E+02 -8.666813E+03  8.862787E+03  8.245347E+03  1.362891E+04
       434  24 -6.013295E+05  4.002725E+02 -5.065331E+03  1.880578E+04  3.862236E+03  1.191578E+04
       434  25 -9.638256E+05 -9.402267E+04 -1.004938E+05  1.953353E+04  1.208100E+04  1.473131E+04
       434  26 -9.260543E+05 -7.979178E+04 -8.400210E+04  8.433612E+03  7.273457E+03  1.362611E+04
       434  27 -8.903355E+05 -7.084413E+04 -7.198693E+04  1.723716E+04  2.468557E+03  1.191122E+04
       435   1 -3.482938E+05  6.200172E+04  5.438615E+04  1.950848E+04 -4.288494E+03 -1.080301E+04
       435   2 -3.852623E+05  5.320449E+04  4.759825E+04  9.411716E+03 -3.214270E+03 -9.038576E+03
       435   3 -4.225957E+05  4.413594E+04  4.000764E+04  1.945540E+04 -2.140852E+03 -7.237851E+03
       435   4 -6.009673E+05 -2.244666E+02 -3.927542E+03  1.886454E+04 -3.075486E+03 -1.079893E+04
       435   5 -6.007799E+05  1.110847E+02 -2.220717E+03  8.793357E+03 -1.976445E+03 -9.034215E+03
       435   6 -6.009627E+05  1.711015E+02 -1.333916E+03  1.886306E+04 -8.781448E+02 -7.233196E+03
       435   7 -8.535818E+05 -6.245513E+04 -6.224548E+04  1.822080E+04 -1.862968E+03 -1.079486E+04
       435   8 -8.162546E+05 -5.298558E+04 -5.204278E+04  8.175175E+03 -7.390454E+02 -9.029857E+03
       435   9 -7.793002E+05 -4.379597E+04 -4.267760E+04  1.827086E+04  3.842023E+02 -7.228542E+03
       435  10 -3.482939E+05  6.200159E+04  5.438589E+04  1.950845E+04 -3.924693E-09 -5.224119E-09
       435  11 -3.852623E+05  5.320440E+04  4.759808E+04  9.411692E+03 -6.291613E-09 -9.671981E-09
       435  12 -4.225957E+05  4.413588E+04  4.000753E+04  1.945539E+04 -2.523581E-09 -3.680868E-09
       435  13 -6.009674E+05 -2.245943E+02 -3.927779E+03  1.886451E+04  2.174532E-11 -3.942868E-09
       435  14 -6.007800E+05  1.109960E+02 -2.220878E+03  8.793342E+03  1.217423E-09 -1.321749E-08
       435  15 -6.009627E+05  1.710452E+02 -1.334016E+03  1.886306E+04  1.168887E-10 -2.523774E-09
       435  16 -8.535818E+05 -6.245525E+04 -6.224570E+04  1.822078E+04  3.262309E-09 -8.982916E-09
       435  17 -8.162546E+05 -5.298567E+04 -5.204294E+04  8.175169E+03  6.010670E-09  1.643496E-09
       435  18 -7.793002E+05 -4.379603E+04 -4.267770E+04  1.827087E+04  4.893191E-10  7.318059E-09
       435  19 -3.482938E+05  6.200172E+04  5.438615E+04  1.950848E+04  4.288494E+03  1.080301E+04
       435  20 -3.852623E+05  5.320449E+04  4.759825E+04  9.411716E+03  3.214270E+03  9.038576E+03
       435  21 -4.225957E+05  4.413594E+04  4.000764E+04  1.945540E+04  2.140852E+03  7.237851E+03
       435  22 -6.009673E+05 -2.244666E+02 -3.927542E+03  1.886454E+04  3.075486E+03  1.079893E+04
       435  23 -6.007799E+05  1.110847E+02 -2.220717E+03  8.793357E+03  1.976445E+03  9.034215E+03
       435  24 -6.009627E+05  1.711015E+02 -1.333916E+03  1.886306E+04  8.781448E+02  7.233196E+03
       435  25 -8.535818E+05 -6.245513E+04 -6.224548E+04  1.822080E+04  1.862968E+03  1.079486E+04
       435  26 -8.162546E+05 -5.298558E+04 -5.204278E+04  8.175175E+03  7.390454E+02  9.029857E+03
       435  27 -7.793002E+05 -4.379597E+04 -4.267760E+04  1.827086E+04 -3.842023E+02  7.228542E+03
       436   1 -4.592804E+05  3.500023E+04  3.156959E+04  1.931570E+04 -1.922395E+03 -6.182316E+03
       436   2 -4.965683E+05  2.576807E+04  2.336600E+04  9.069050E+03 -1.568924E+03 -4.373849E+03
       436   3 -5.340609E+05  1.665396E+04  1.491944E+04  1.909249E+04 -1.215798E+03 -2.561215E+03
       436   4 -6.009234E+05  1.262791E+02 -1.064318E+03  1.889231E+04 -6.667277E+02 -6.177591E+03
       436   5 -6.008191E+05  8.382987E+01 -7.337070E+02  8.757086E+03 -3.104631E+02 -4.369019E+03
       436   6 -6.009212E+05  1.590336E+02 -6.480027E+02  1.889216E+04  4.547836E+01 -2.556275E+03
       436   7 -7.425478E+05 -3.474908E+04 -3.369955E+04  1.846899E+04  5.886550E+02 -6.172868E+03
       436   8 -7.050597E+05 -2.560117E+04 -2.483414E+04  8.445165E+03  9.477881E+02 -4.364190E+03
       436   9 -6.677774E+05 -1.633621E+04 -1.621574E+04  1.869185E+04  1.306620E+03 -2.551335E+03
       436  10 -4.592804E+05  3.500019E+04  3.156951E+04  1.931569E+04  8.890250E-09 -6.831722E-09
       436  11 -4.965683E+05  2.576805E+04  2.336596E+04  9.069045E+03 -6.716033E-09 -1.282610E-09
       436  12 -5.340609E+05  1.665395E+04  1.491942E+04  1.909249E+04 -1.710644E-08 -8.791837E-10
       436  13 -6.009234E+05  1.262380E+02 -1.064390E+03  1.889230E+04  1.410535E-10  2.676468E-09
       436  14 -6.008191E+05  8.380935E+01 -7.337430E+02  8.757085E+03  1.437240E-09 -8.938382E-09
       436  15 -6.009212E+05  1.590265E+02 -6.480150E+02  1.889216E+04  3.432815E-10 -5.159536E-09
       436  16 -7.425478E+05 -3.474912E+04 -3.369962E+04  1.846900E+04 -9.498778E-09  3.320798E-09
       436  17 -7.050597E+05 -2.560119E+04 -2.483417E+04  8.445168E+03  5.287065E-09  1.151580E-08
       436  18 -6.677774E+05 -1.633622E+04 -1.621575E+04  1.869185E+04  1.525837E-08  3.411457E-09
       436  19 -4.592804E+05  3.500023E+04  3.156959E+04  1.931570E+04  1.922395E+03  6.182316E+03
       436  20 -4.965683E+05  2.576807E+04  2.336600E+04  9.069050E+03  1.568924E+03  4.373849E+03
       436  21 -5.340609E+05  1.665396E+04  1.491944E+04  1.909249E+04  1.215798E+03  2.561215E+03
       436  22 -6.009234E+05  1.262791E+02 -1.064318E+03  1.889231E+04  6.667277E+02  6.177591E+03
       436  23 -6.008191E+05  8.382987E+01 -7.337070E+02  8.757086E+03  3.104631E+02  4.369019E+03
       436  24 -6.009212E+05  1.590336E+02 -6.480027E+02  1.889216E+04 -4.547836E+01  2.556275E+03
       436  25 -7.425478E+05 -3.474908E+04 -3.369955E+04  1.846899E+04 -5.886550E+02  6.172868E+03
       436  26 -7.050597E+05 -2.560117E+04 -2.483414E+04  8.445165E+03 -9.477881E+02  4.364190E+03
       436  27 -6.677774E+05 -1.633621E+04 -1.621574E+04  1.869185E+04 -1.306620E+03  2.551335E+03
       437   1 -5.709401E+05  7.525404E+03  6.140205E+03  1.897911E+04 -1.100478E+03 -1.504884E+03
       437   2 -6.082864E+05 -1.752436E+03 -2.638690E+03  8.706728E+03 -6.560079E+02  3.105636E+02
       437   3 -6.458614E+05 -1.092459E+04 -1.172512E+04  1.874424E+04 -2.115443E+02  2.124646E+03
       437   4 -6.009257E+05  1.597858E+02 -6.812104E+02  1.890094E+04  1.614282E+02 -1.499912E+03
       437   5 -6.008106E+05  8.967698E+01 -9.103121E+02  8.746068E+03  6.049089E+02  3.155221E+02
       437   6 -6.009259E+05  1.253843E+02 -1.446327E+03  1.890107E+04  1.048410E+03  2.129597E+03
       437   7 -6.309103E+05 -7.205894E+03 -7.502678E+03  1.882277E+04  1.423274E+03 -1.494940E+03
       437   8 -5.933347E+05  1.931787E+03  8.180677E+02  8.785408E+03  1.865841E+03  3.204809E+02
       437   9 -5.559886E+05  1.117521E+04  8.832335E+03  1.905791E+04  2.308455E+03  2.134548E+03
       437  10 -5.709402E+05  7.525402E+03  6.140199E+03  1.897911E+04 -6.540323E-09  5.144430E-09
       437  11 -6.082864E+05 -1.752436E+03 -2.638691E+03  8.706729E+03 -5.172578E-09 -6.884069E-09
       437  12 -6.458614E+05 -1.092459E+04 -1.172513E+04  1.874424E+04 -7.709677E-09 -8.542593E-10
       437  13 -6.009257E+05  1.597834E+02 -6.812147E+02  1.890094E+04 -7.417213E-10  9.773201E-09
       437  14 -6.008106E+05  8.967678E+01 -9.103130E+02  8.746068E+03  3.184179E-10 -4.337899E-09
       437  15 -6.009259E+05  1.253792E+02 -1.446338E+03  1.890107E+04  4.579075E-10 -6.140404E-09
       437  16 -6.309103E+05 -7.205897E+03 -7.502686E+03  1.882277E+04  4.872970E-09  7.480846E-10
       437  17 -5.933347E+05  1.931786E+03  8.180610E+02  8.785408E+03  5.142010E-09 -1.872718E-08
       437  18 -5.559886E+05  1.117521E+04  8.832317E+03  1.905791E+04  6.306948E-09 -8.725235E-09
       437  19 -5.709401E+05  7.525404E+03  6.140205E+03  1.897911E+04  1.100478E+03  1.504884E+03
       437  20 -6.082864E+05 -1.752436E+03 -2.638690E+03  8.706728E+03  6.560079E+02 -3.105636E+02
       437  21 -6.458614E+05 -1.092459E+04 -1.172512E+04  1.874424E+04  2.115443E+02 -2.124646E+03
       437  22 -6.009257E+05  1.597858E+02 -6.812104E+02  1.890094E+04 -1.614282E+02  1.499912E+03
       437  23 -6.008106E+05  8.967698E+01 -9.103121E+02  8.746068E+03 -6.049089E+02 -3.155221E+02
       437  24 -6.009259E+05  1.253843E+02 -1.446327E+03  1.890107E+04 -1.048410E+03 -2.129597E+03
       437  25 -6.309103E+05 -7.205894E+03 -7.502678E+03  1.882277E+04 -1.423274E+03  1.494940E+03
       437  26 -5.933347E+05  1.931787E+03  8.180677E+02  8.785408E+03 -1.865841E+03 -3.204809E+02
       437  27 -5.559886E+05  1.117521E+04  8.832335E+03  1.905791E+04 -2.308455E+03 -2.134548E+03
       438   1 -6.827835E+05 -1.998844E+04 -2.087646E+04  1.852766E+04  7.420197E+01  3.184043E+03
       438   2 -7.198938E+05 -2.921925E+04 -3.070095E+04  8.385242E+03  1.654601E+03  4.997472E+03
       438   3 -7.575109E+05 -3.890956E+04 -4.171205E+04  1.849985E+04  3.235381E+03  6.782976E+03
       438   4 -6.009879E+05  1.889898E+02 -1.854991E+03  1.888855E+04  1.340813E+03  3.188981E+03
       438   5 -6.007374E+05  1.416015E+02 -3.150858E+03  8.761222E+03  2.902043E+03  5.002223E+03
       438   6 -6.009909E+05 -3.616206E+02 -5.619600E+03  1.889069E+04  4.463749E+03  6.787546E+03
       438   7 -5.191862E+05  2.036595E+04  1.716603E+04  1.924947E+04  2.607591E+03  3.193921E+03
       438   8 -4.815679E+05  2.950146E+04  2.439829E+04  9.137263E+03  4.149724E+03  5.006974E+03
       438   9 -4.444483E+05  3.818461E+04  3.047123E+04  1.928160E+04  5.692423E+03  6.792118E+03
       438  10 -6.827835E+05 -1.998845E+04 -2.087648E+04  1.852766E+04 -1.160209E-08  1.722169E-09
       438  11 -7.198938E+05 -2.921928E+04 -3.070100E+04  8.385235E+03 -5.372751E-09 -9.364046E-09
       438  12 -7.575109E+05 -3.890962E+04 -4.171216E+04  1.849983E+04  1.100606E-09  2.049210E-09
       438  13 -6.009879E+05  1.889784E+02 -1.855014E+03  1.888854E+04 -2.380488E-10 -5.850231E-09
       438  14 -6.007374E+05  1.415724E+02 -3.150921E+03  8.761210E+03  1.012590E-09  3.665527E-09
       438  15 -6.009910E+05 -3.616754E+02 -5.619724E+03  1.889066E+04  2.298875E-10  4.230153E-09
       438  16 -5.191862E+05  2.036594E+04  1.716600E+04  1.924947E+04  1.065678E-08  4.621551E-09
       438  17 -4.815679E+05  2.950143E+04  2.439821E+04  9.137246E+03  5.947341E-09 -1.054185E-08
       438  18 -4.444483E+05  3.818455E+04  3.047108E+04  1.928157E+04 -2.643965E-09  7.719597E-09
       438  19 -6.827835E+05 -1.998844E+04 -2.087646E+04  1.852766E+04 -7.420197E+01 -3.184043E+03
       438  20 -7.198938E+05 -2.921925E+04 -3.070095E+04  8.385242E+03 -1.654601E+03 -4.997472E+03
       438  21 -7.575109E+05 -3.890956E+04 -4.171205E+04  1.849985E+04 -3.235381E+03 -6.782976E+03
       438  22 -6.009879E+05  1.889898E+02 -1.854991E+03  1.888855E+04 -1.340813E+03 -3.188981E+03
       438  23 -6.007374E+05  1.416015E+02 -3.150858E+03  8.761222E+03 -2.902043E+03 -5.002223E+03
       438  24 -6.009909E+05 -3.616206E+02 -5.619600E+03  1.889069E+04 -4.463749E+03 -6.787546E+03
       438  25 -5.191862E+05  2.036595E+04  1.716603E+04  1.924947E+04 -2.607591E+03 -3.193921E+03
       438  26 -4.815679E+05  2.950146E+04  2.439829E+04  9.137263E+03 -4.149724E+03 -5.006974E+03
       438  27 -4.444483E+05  3.818461E+04  3.047123E+04  1.928160E+04 -5.692423E+03 -6.792118E+03
       439   1 -7.947131E+05 -4.710158E+04 -5.203013E+04  1.715583E+04  4.216416E+03  7.895262E+03
       439   2 -8.303706E+05 -5.606518E+04 -6.569202E+04  8.746364E+03  1.084615E+04  9.650578E+03
       439   3 -8.689431E+05 -7.262363E+04 -8.560736E+04  2.045187E+04  1.747784E+04  1.091357E+04
       439   4 -6.015164E+05  5.349426E+02 -7.260373E+03  1.885004E+04  5.592030E+03  7.900290E+03
       439   5 -6.000927E+05  6.775188E+02 -1.243094E+04  8.805874E+03  1.188153E+04  9.654115E+03
       439   6 -6.015247E+05 -6.713816E+03 -2.361664E+04  1.887632E+04  1.817339E+04  1.091567E+04
       439   7 -4.082852E+05  4.816884E+04  3.750689E+04  2.054474E+04  6.968070E+03  7.905325E+03
       439   8 -3.697657E+05  5.741649E+04  4.082660E+04  8.865362E+03  1.291730E+04  9.657651E+03
       439   9 -3.340401E+05  5.919097E+04  3.836928E+04  1.730002E+04  1.886923E+04  1.091776E+04
       439  10 -7.947131E+05 -4.710165E+04 -5.203028E+04  1.715580E+04  4.982316E-09  4.156940E-09
       439  11 -8.303708E+05 -5.606531E+04 -6.569241E+04  8.746279E+03  1.087720E-09  5.915330E-09
       439  12 -8.689434E+05 -7.262384E+04 -8.560816E+04  2.045172E+04  2.109176E-09 -3.101795E-09
       439  13 -6.015165E+05  5.348672E+02 -7.260549E+03  1.885000E+04  2.874694E-10 -8.040687E-09
       439  14 -6.000929E+05  6.773808E+02 -1.243138E+04  8.805782E+03  3.187456E-10  1.219318E-08
       439  15 -6.015251E+05 -6.714033E+03 -2.361749E+04  1.887616E+04 -2.137413E-10  8.789752E-10
       439  16 -4.082853E+05  4.816876E+04  3.750668E+04  2.054470E+04 -5.801145E-09 -5.211940E-09
       439  17 -3.697659E+05  5.741634E+04  4.082611E+04  8.865262E+03 -1.745051E-09 -1.911907E-08
       439  18 -3.340405E+05  5.919075E+04  3.836839E+04  1.729986E+04 -3.877948E-09  1.862111E-09
       439  19 -7.947131E+05 -4.710158E+04 -5.203013E+04  1.715583E+04 -4.216416E+03 -7.895262E+03
       439  20 -8.303706E+05 -5.606518E+04 -6.569202E+04  8.746364E+03 -1.084615E+04 -9.650578E+03
       439  21 -8.689431E+05 -7.262363E+04 -8.560736E+04  2.045187E+04 -1.747784E+04 -1.091357E+04
       439  22 -6.015164E+05  5.349426E+02 -7.260373E+03  1.885004E+04 -5.592030E+03 -7.900290E+03
       439  23 -6.000927E+05  6.775188E+02 -1.243094E+04  8.805874E+03 -1.188153E+04 -9.654115E+03
       439  24 -6.015247E+05 -6.713816E+03 -2.361664E+04  1.887632E+04 -1.817339E+04 -1.091567E+04
       439  25 -4.082852E+05  4.816884E+04  3.750689E+04  2.054474E+04 -6.968070E+03 -7.905325E+03
       439  26 -3.697657E+05  5.741649E+04  4.082660E+04  8.865362E+03 -1.291730E+04 -9.657651E+03
       439  27 -3.340401E+05  5.919097E+04  3.836928E+04  1.730002E+04 -1.886923E+04 -1.091776E+04
       440   1 -9.108115E+05 -6.998938E+04 -9.941478E+04  4.997963E+03  1.889074E+04  1.310176E+04
       440   2 -9.333691E+05 -7.694021E+04 -1.273176E+05  1.924561E+04  5.135215E+04  1.365587E+04
       440   3 -9.846811E+05 -1.815589E+05 -2.008130E+05  5.324954E+04  8.384149E+04  4.695367E+03
       440   4 -6.070212E+05  4.957884E+03 -2.928435E+04  1.869166E+04  2.251287E+04  1.311438E+04
       440   5 -5.932415E+05  6.853710E+03 -4.833788E+04  8.964511E+03  4.837089E+04  1.364447E+04
       440   6 -6.070550E+05 -8.774397E+04 -1.083784E+05  1.899538E+04  7.425924E+04  4.659756E+03
       440   7 -3.031451E+05  7.989935E+04  4.084007E+04  3.239205E+04  2.613675E+04  1.312716E+04
       440   8 -2.530066E+05  9.063990E+04  3.063418E+04 -1.322355E+03  4.538800E+04  1.363318E+04
       440   9 -2.292959E+05  6.064993E+03 -1.595330E+04 -1.527979E+04  6.467115E+04  4.625216E+03
       440  10 -9.108119E+05 -6.998966E+04 -9.941577E+04  4.997764E+03 -3.128038E-09  1.263151E-09
       440  11 -9.333720E+05 -7.694112E+04 -1.273229E+05  1.924504E+04  4.449627E-10 -1.840032E-09
       440  12 -9.846887E+05 -1.815608E+05 -2.008263E+05  5.324922E+04  4.802204E-09  8.635021E-09
       440  13 -6.070218E+05  4.957564E+03 -2.928562E+04  1.869143E+04 -3.958785E-10  6.645744E-09
       440  14 -5.932440E+05  6.852881E+03 -4.834263E+04  8.963980E+03  7.331683E-10  4.595223E-09
       440  15 -6.070609E+05 -8.774548E+04 -1.083888E+05  1.899510E+04 -3.555056E-10  1.422248E-09
       440  16 -3.031459E+05  7.989898E+04  4.083846E+04  3.239177E+04  2.179309E-09  4.175769E-09
       440  17 -2.530088E+05  9.063915E+04  3.062996E+04 -1.322854E+03 -7.664452E-10  8.554118E-09
       440  18 -2.293004E+05  6.063847E+03 -1.596121E+04 -1.528003E+04 -6.896590E-09 -2.022655E-10
       440  19 -9.108115E+05 -6.998938E+04 -9.941478E+04  4.997963E+03 -1.889074E+04 -1.310176E+04
       440  20 -9.333691E+05 -7.694021E+04 -1.273176E+05  1.924561E+04 -5.135215E+04 -1.365587E+04
       440  21 -9.846811E+05 -1.815589E+05 -2.008130E+05  5.324954E+04 -8.384149E+04 -4.695367E+03
       440  22 -6.070212E+05  4.957884E+03 -2.928435E+04  1.869166E+04 -2.251287E+04 -1.311438E+04
       440  23 -5.932415E+05  6.853710E+03 -4.833788E+04  8.964511E+03 -4.837089E+04 -1.364447E+04
       440  24 -6.070550E+05 -8.774397E+04 -1.083784E+05  1.899538E+04 -7.425924E+04 -4.659756E+03
       440  25 -3.031451E+05  7.989935E+04  4.084007E+04  3.239205E+04 -2.613675E+04 -1.312716E+04
       440  26 -2.530066E+05  9.063990E+04  3.063418E+04 -1.322355E+03 -4.538800E+04 -1.363318E+04
       440  27 -2.292959E+05  6.064993E+03 -1.595330E+04 -1.527979E+04 -6.467115E+04 -4.625216E+03
