    1C
    1UUSER                                                              
    1UDATE              11.october.2022                                 
    1UTIME              18:40:26                                        
    1UHOST                                                              
    1UPGM               CalculiX                                        
    1UVERSION           Version 2.20                             
    1UCOMPILETIME       Sun Jul 31 18:08:37 CEST 2022                    
    1UDIR                                                               
    1UDBN                                                               
    1UMAT    1MESH_MATERIAL                                             
    2C                           409                                     1
 -1         1 0.00000E+00 0.00000E+00 0.00000E+00
 -1         2 1.66667E-02 0.00000E+00 0.00000E+00
 -1         3 3.33333E-02 0.00000E+00 0.00000E+00
 -1         5 6.66667E-02 0.00000E+00 0.00000E+00
 -1         8 0.00000E+00 6.25000E-03 0.00000E+00
 -1         9 1.66667E-02 6.25000E-03 0.00000E+00
 -1        10 3.33333E-02 6.25000E-03 0.00000E+00
 -1        12 6.66667E-02 6.25000E-03 0.00000E+00
 -1        15 0.00000E+00 1.25000E-02 0.00000E+00
 -1        16 1.66667E-02 1.25000E-02 0.00000E+00
 -1        17 3.33333E-02 1.25000E-02 0.00000E+00
 -1        18 5.00000E-02 1.25000E-02 0.00000E+00
 -1        19 6.66667E-02 1.25000E-02 0.00000E+00
 -1        20 8.33333E-02 1.25000E-02 0.00000E+00
 -1        21 1.00000E-01 1.25000E-02 0.00000E+00
 -1        24 3.33333E-02 1.87500E-02 0.00000E+00
 -1        25 5.00000E-02 1.87500E-02 0.00000E+00
 -1        26 6.66667E-02 1.87500E-02 0.00000E+00
 -1        27 8.33333E-02 1.87500E-02 0.00000E+00
 -1        28 1.00000E-01 1.87500E-02 0.00000E+00
 -1        32 5.00000E-02 2.50000E-02 0.00000E+00
 -1        33 6.66667E-02 2.50000E-02 0.00000E+00
 -1        34 8.33333E-02 2.50000E-02 0.00000E+00
 -1        35 1.00000E-01 2.50000E-02 0.00000E+00
 -1        51 0.00000E+00 1.04167E-03 0.00000E+00
 -1        52 0.00000E+00 2.08333E-03 0.00000E+00
 -1        53 0.00000E+00 3.12500E-03 0.00000E+00
 -1        54 0.00000E+00 4.16667E-03 0.00000E+00
 -1        55 0.00000E+00 5.20833E-03 0.00000E+00
 -1        56 1.04167E-03 3.90630E-04 0.00000E+00
 -1        57 2.08333E-03 7.81250E-04 0.00000E+00
 -1        58 3.12500E-03 1.17188E-03 0.00000E+00
 -1        59 4.16667E-03 1.56250E-03 0.00000E+00
 -1        60 5.20833E-03 1.95312E-03 0.00000E+00
 -1        61 6.25000E-03 2.34375E-03 0.00000E+00
 -1        62 7.29167E-03 2.73438E-03 0.00000E+00
 -1        63 8.33333E-03 3.12500E-03 0.00000E+00
 -1        64 9.37500E-03 3.51563E-03 0.00000E+00
 -1        65 1.04167E-02 3.90625E-03 0.00000E+00
 -1        66 1.14583E-02 4.29688E-03 0.00000E+00
 -1        67 1.25000E-02 4.68750E-03 0.00000E+00
 -1        68 1.35417E-02 5.07813E-03 0.00000E+00
 -1        69 1.45833E-02 5.46875E-03 0.00000E+00
 -1        70 1.56250E-02 5.85938E-03 0.00000E+00
 -1        86 1.66667E-02 1.04167E-03 0.00000E+00
 -1        87 1.66667E-02 2.08333E-03 0.00000E+00
 -1        88 1.66667E-02 3.12500E-03 0.00000E+00
 -1        89 1.66667E-02 4.16667E-03 0.00000E+00
 -1        90 1.66667E-02 5.20833E-03 0.00000E+00
 -1       121 3.33333E-02 1.04167E-03 0.00000E+00
 -1       122 3.33333E-02 2.08333E-03 0.00000E+00
 -1       123 3.33333E-02 3.12500E-03 0.00000E+00
 -1       124 3.33333E-02 4.16667E-03 0.00000E+00
 -1       125 3.33333E-02 5.20833E-03 0.00000E+00
 -1       191 6.66667E-02 1.04167E-03 0.00000E+00
 -1       192 6.66667E-02 2.08333E-03 0.00000E+00
 -1       193 6.66667E-02 3.12500E-03 0.00000E+00
 -1       194 6.66667E-02 4.16667E-03 0.00000E+00
 -1       195 6.66667E-02 5.20833E-03 0.00000E+00
 -1       251 1.04167E-03 6.25000E-03 0.00000E+00
 -1       252 2.08333E-03 6.25000E-03 0.00000E+00
 -1       253 3.12500E-03 6.25000E-03 0.00000E+00
 -1       254 4.16667E-03 6.25000E-03 0.00000E+00
 -1       255 5.20833E-03 6.25000E-03 0.00000E+00
 -1       256 6.25000E-03 6.25000E-03 0.00000E+00
 -1       257 7.29167E-03 6.25000E-03 0.00000E+00
 -1       258 8.33333E-03 6.25000E-03 0.00000E+00
 -1       259 9.37500E-03 6.25000E-03 0.00000E+00
 -1       260 1.04167E-02 6.25000E-03 0.00000E+00
 -1       261 1.14583E-02 6.25000E-03 0.00000E+00
 -1       262 1.25000E-02 6.25000E-03 0.00000E+00
 -1       263 1.35417E-02 6.25000E-03 0.00000E+00
 -1       264 1.45833E-02 6.25000E-03 0.00000E+00
 -1       265 1.56250E-02 6.25000E-03 0.00000E+00
 -1       266 0.00000E+00 7.29167E-03 0.00000E+00
 -1       267 0.00000E+00 8.33333E-03 0.00000E+00
 -1       268 0.00000E+00 9.37500E-03 0.00000E+00
 -1       269 0.00000E+00 1.04167E-02 0.00000E+00
 -1       270 0.00000E+00 1.14583E-02 0.00000E+00
 -1       271 1.04167E-03 6.64063E-03 0.00000E+00
 -1       272 2.08333E-03 7.03125E-03 0.00000E+00
 -1       273 3.12500E-03 7.42188E-03 0.00000E+00
 -1       274 4.16667E-03 7.81250E-03 0.00000E+00
 -1       275 5.20833E-03 8.20313E-03 0.00000E+00
 -1       276 6.25000E-03 8.59375E-03 0.00000E+00
 -1       277 7.29167E-03 8.98438E-03 0.00000E+00
 -1       278 8.33333E-03 9.37500E-03 0.00000E+00
 -1       279 9.37500E-03 9.76562E-03 0.00000E+00
 -1       280 1.04167E-02 1.01562E-02 0.00000E+00
 -1       281 1.14583E-02 1.05469E-02 0.00000E+00
 -1       282 1.25000E-02 1.09375E-02 0.00000E+00
 -1       283 1.35417E-02 1.13281E-02 0.00000E+00
 -1       284 1.45833E-02 1.17188E-02 0.00000E+00
 -1       285 1.56250E-02 1.21094E-02 0.00000E+00
 -1       301 1.66667E-02 7.29167E-03 0.00000E+00
 -1       302 1.66667E-02 8.33333E-03 0.00000E+00
 -1       303 1.66667E-02 9.37500E-03 0.00000E+00
 -1       304 1.66667E-02 1.04167E-02 0.00000E+00
 -1       305 1.66667E-02 1.14583E-02 0.00000E+00
 -1       306 1.77083E-02 6.64063E-03 0.00000E+00
 -1       307 1.87500E-02 7.03125E-03 0.00000E+00
 -1       308 1.97917E-02 7.42188E-03 0.00000E+00
 -1       309 2.08333E-02 7.81250E-03 0.00000E+00
 -1       310 2.18750E-02 8.20313E-03 0.00000E+00
 -1       311 2.29167E-02 8.59375E-03 0.00000E+00
 -1       312 2.39583E-02 8.98438E-03 0.00000E+00
 -1       313 2.50000E-02 9.37500E-03 0.00000E+00
 -1       314 2.60417E-02 9.76562E-03 0.00000E+00
 -1       315 2.70833E-02 1.01562E-02 0.00000E+00
 -1       316 2.81250E-02 1.05469E-02 0.00000E+00
 -1       317 2.91667E-02 1.09375E-02 0.00000E+00
 -1       318 3.02083E-02 1.13281E-02 0.00000E+00
 -1       319 3.12500E-02 1.17188E-02 0.00000E+00
 -1       320 3.22917E-02 1.21094E-02 0.00000E+00
 -1       336 3.33333E-02 7.29167E-03 0.00000E+00
 -1       337 3.33333E-02 8.33333E-03 0.00000E+00
 -1       338 3.33333E-02 9.37500E-03 0.00000E+00
 -1       339 3.33333E-02 1.04167E-02 0.00000E+00
 -1       340 3.33333E-02 1.14583E-02 0.00000E+00
 -1       406 6.66667E-02 7.29167E-03 0.00000E+00
 -1       407 6.66667E-02 8.33333E-03 0.00000E+00
 -1       408 6.66667E-02 9.37500E-03 0.00000E+00
 -1       409 6.66667E-02 1.04167E-02 0.00000E+00
 -1       410 6.66667E-02 1.14583E-02 0.00000E+00
 -1       521 1.77083E-02 1.28906E-02 0.00000E+00
 -1       522 1.87500E-02 1.32813E-02 0.00000E+00
 -1       523 1.97917E-02 1.36719E-02 0.00000E+00
 -1       524 2.08333E-02 1.40625E-02 0.00000E+00
 -1       525 2.18750E-02 1.44531E-02 0.00000E+00
 -1       526 2.29167E-02 1.48437E-02 0.00000E+00
 -1       527 2.39583E-02 1.52344E-02 0.00000E+00
 -1       528 2.50000E-02 1.56250E-02 0.00000E+00
 -1       529 2.60417E-02 1.60156E-02 0.00000E+00
 -1       530 2.70833E-02 1.64062E-02 0.00000E+00
 -1       531 2.81250E-02 1.67969E-02 0.00000E+00
 -1       532 2.91667E-02 1.71875E-02 0.00000E+00
 -1       533 3.02083E-02 1.75781E-02 0.00000E+00
 -1       534 3.12500E-02 1.79687E-02 0.00000E+00
 -1       535 3.22917E-02 1.83594E-02 0.00000E+00
 -1       536 3.43750E-02 1.25000E-02 0.00000E+00
 -1       537 3.54167E-02 1.25000E-02 0.00000E+00
 -1       538 3.64583E-02 1.25000E-02 0.00000E+00
 -1       539 3.75000E-02 1.25000E-02 0.00000E+00
 -1       540 3.85417E-02 1.25000E-02 0.00000E+00
 -1       541 3.95833E-02 1.25000E-02 0.00000E+00
 -1       542 4.06250E-02 1.25000E-02 0.00000E+00
 -1       543 4.16667E-02 1.25000E-02 0.00000E+00
 -1       544 4.27083E-02 1.25000E-02 0.00000E+00
 -1       545 4.37500E-02 1.25000E-02 0.00000E+00
 -1       546 4.47917E-02 1.25000E-02 0.00000E+00
 -1       547 4.58333E-02 1.25000E-02 0.00000E+00
 -1       548 4.68750E-02 1.25000E-02 0.00000E+00
 -1       549 4.79167E-02 1.25000E-02 0.00000E+00
 -1       550 4.89583E-02 1.25000E-02 0.00000E+00
 -1       551 3.33333E-02 1.35417E-02 0.00000E+00
 -1       552 3.33333E-02 1.45833E-02 0.00000E+00
 -1       553 3.33333E-02 1.56250E-02 0.00000E+00
 -1       554 3.33333E-02 1.66667E-02 0.00000E+00
 -1       555 3.33333E-02 1.77083E-02 0.00000E+00
 -1       556 3.43750E-02 1.28906E-02 0.00000E+00
 -1       557 3.54167E-02 1.32813E-02 0.00000E+00
 -1       558 3.64583E-02 1.36719E-02 0.00000E+00
 -1       559 3.75000E-02 1.40625E-02 0.00000E+00
 -1       560 3.85417E-02 1.44531E-02 0.00000E+00
 -1       561 3.95833E-02 1.48437E-02 0.00000E+00
 -1       562 4.06250E-02 1.52344E-02 0.00000E+00
 -1       563 4.16667E-02 1.56250E-02 0.00000E+00
 -1       564 4.27083E-02 1.60156E-02 0.00000E+00
 -1       565 4.37500E-02 1.64062E-02 0.00000E+00
 -1       566 4.47917E-02 1.67969E-02 0.00000E+00
 -1       567 4.58333E-02 1.71875E-02 0.00000E+00
 -1       568 4.68750E-02 1.75781E-02 0.00000E+00
 -1       569 4.79167E-02 1.79687E-02 0.00000E+00
 -1       570 4.89583E-02 1.83594E-02 0.00000E+00
 -1       571 5.10417E-02 1.25000E-02 0.00000E+00
 -1       572 5.20833E-02 1.25000E-02 0.00000E+00
 -1       573 5.31250E-02 1.25000E-02 0.00000E+00
 -1       574 5.41667E-02 1.25000E-02 0.00000E+00
 -1       575 5.52083E-02 1.25000E-02 0.00000E+00
 -1       576 5.62500E-02 1.25000E-02 0.00000E+00
 -1       577 5.72917E-02 1.25000E-02 0.00000E+00
 -1       578 5.83333E-02 1.25000E-02 0.00000E+00
 -1       579 5.93750E-02 1.25000E-02 0.00000E+00
 -1       580 6.04167E-02 1.25000E-02 0.00000E+00
 -1       581 6.14583E-02 1.25000E-02 0.00000E+00
 -1       582 6.25000E-02 1.25000E-02 0.00000E+00
 -1       583 6.35417E-02 1.25000E-02 0.00000E+00
 -1       584 6.45833E-02 1.25000E-02 0.00000E+00
 -1       585 6.56250E-02 1.25000E-02 0.00000E+00
 -1       586 5.00000E-02 1.35417E-02 0.00000E+00
 -1       587 5.00000E-02 1.45833E-02 0.00000E+00
 -1       588 5.00000E-02 1.56250E-02 0.00000E+00
 -1       589 5.00000E-02 1.66667E-02 0.00000E+00
 -1       590 5.00000E-02 1.77083E-02 0.00000E+00
 -1       591 5.10417E-02 1.28906E-02 0.00000E+00
 -1       592 5.20833E-02 1.32813E-02 0.00000E+00
 -1       593 5.31250E-02 1.36719E-02 0.00000E+00
 -1       594 5.41667E-02 1.40625E-02 0.00000E+00
 -1       595 5.52083E-02 1.44531E-02 0.00000E+00
 -1       596 5.62500E-02 1.48437E-02 0.00000E+00
 -1       597 5.72917E-02 1.52344E-02 0.00000E+00
 -1       598 5.83333E-02 1.56250E-02 0.00000E+00
 -1       599 5.93750E-02 1.60156E-02 0.00000E+00
 -1       600 6.04167E-02 1.64062E-02 0.00000E+00
 -1       601 6.14583E-02 1.67969E-02 0.00000E+00
 -1       602 6.25000E-02 1.71875E-02 0.00000E+00
 -1       603 6.35417E-02 1.75781E-02 0.00000E+00
 -1       604 6.45833E-02 1.79687E-02 0.00000E+00
 -1       605 6.56250E-02 1.83594E-02 0.00000E+00
 -1       606 6.77083E-02 1.25000E-02 0.00000E+00
 -1       607 6.87500E-02 1.25000E-02 0.00000E+00
 -1       608 6.97917E-02 1.25000E-02 0.00000E+00
 -1       609 7.08333E-02 1.25000E-02 0.00000E+00
 -1       610 7.18750E-02 1.25000E-02 0.00000E+00
 -1       611 7.29167E-02 1.25000E-02 0.00000E+00
 -1       612 7.39583E-02 1.25000E-02 0.00000E+00
 -1       613 7.50000E-02 1.25000E-02 0.00000E+00
 -1       614 7.60417E-02 1.25000E-02 0.00000E+00
 -1       615 7.70833E-02 1.25000E-02 0.00000E+00
 -1       616 7.81250E-02 1.25000E-02 0.00000E+00
 -1       617 7.91667E-02 1.25000E-02 0.00000E+00
 -1       618 8.02083E-02 1.25000E-02 0.00000E+00
 -1       619 8.12500E-02 1.25000E-02 0.00000E+00
 -1       620 8.22917E-02 1.25000E-02 0.00000E+00
 -1       621 6.66667E-02 1.35417E-02 0.00000E+00
 -1       622 6.66667E-02 1.45833E-02 0.00000E+00
 -1       623 6.66667E-02 1.56250E-02 0.00000E+00
 -1       624 6.66667E-02 1.66667E-02 0.00000E+00
 -1       625 6.66667E-02 1.77083E-02 0.00000E+00
 -1       626 6.77083E-02 1.28906E-02 0.00000E+00
 -1       627 6.87500E-02 1.32813E-02 0.00000E+00
 -1       628 6.97917E-02 1.36719E-02 0.00000E+00
 -1       629 7.08333E-02 1.40625E-02 0.00000E+00
 -1       630 7.18750E-02 1.44531E-02 0.00000E+00
 -1       631 7.29167E-02 1.48437E-02 0.00000E+00
 -1       632 7.39583E-02 1.52344E-02 0.00000E+00
 -1       633 7.50000E-02 1.56250E-02 0.00000E+00
 -1       634 7.60417E-02 1.60156E-02 0.00000E+00
 -1       635 7.70833E-02 1.64062E-02 0.00000E+00
 -1       636 7.81250E-02 1.67969E-02 0.00000E+00
 -1       637 7.91667E-02 1.71875E-02 0.00000E+00
 -1       638 8.02083E-02 1.75781E-02 0.00000E+00
 -1       639 8.12500E-02 1.79687E-02 0.00000E+00
 -1       640 8.22917E-02 1.83594E-02 0.00000E+00
 -1       656 8.33333E-02 1.35417E-02 0.00000E+00
 -1       657 8.33333E-02 1.45833E-02 0.00000E+00
 -1       658 8.33333E-02 1.56250E-02 0.00000E+00
 -1       659 8.33333E-02 1.66667E-02 0.00000E+00
 -1       660 8.33333E-02 1.77083E-02 0.00000E+00
 -1       661 8.43750E-02 1.28906E-02 0.00000E+00
 -1       662 8.54167E-02 1.32813E-02 0.00000E+00
 -1       663 8.64583E-02 1.36719E-02 0.00000E+00
 -1       664 8.75000E-02 1.40625E-02 0.00000E+00
 -1       665 8.85417E-02 1.44531E-02 0.00000E+00
 -1       666 8.95833E-02 1.48437E-02 0.00000E+00
 -1       667 9.06250E-02 1.52344E-02 0.00000E+00
 -1       668 9.16667E-02 1.56250E-02 0.00000E+00
 -1       669 9.27083E-02 1.60156E-02 0.00000E+00
 -1       670 9.37500E-02 1.64062E-02 0.00000E+00
 -1       671 9.47917E-02 1.67969E-02 0.00000E+00
 -1       672 9.58333E-02 1.71875E-02 0.00000E+00
 -1       673 9.68750E-02 1.75781E-02 0.00000E+00
 -1       674 9.79167E-02 1.79687E-02 0.00000E+00
 -1       675 9.89583E-02 1.83594E-02 0.00000E+00
 -1       676 1.00000E-01 1.35417E-02 0.00000E+00
 -1       677 1.00000E-01 1.45833E-02 0.00000E+00
 -1       678 1.00000E-01 1.56250E-02 0.00000E+00
 -1       679 1.00000E-01 1.66667E-02 0.00000E+00
 -1       680 1.00000E-01 1.77083E-02 0.00000E+00
 -1       771 3.43750E-02 1.91406E-02 0.00000E+00
 -1       772 3.54167E-02 1.95312E-02 0.00000E+00
 -1       773 3.64583E-02 1.99219E-02 0.00000E+00
 -1       774 3.75000E-02 2.03125E-02 0.00000E+00
 -1       775 3.85417E-02 2.07031E-02 0.00000E+00
 -1       776 3.95833E-02 2.10938E-02 0.00000E+00
 -1       777 4.06250E-02 2.14844E-02 0.00000E+00
 -1       778 4.16667E-02 2.18750E-02 0.00000E+00
 -1       779 4.27083E-02 2.22656E-02 0.00000E+00
 -1       780 4.37500E-02 2.26563E-02 0.00000E+00
 -1       781 4.47917E-02 2.30469E-02 0.00000E+00
 -1       782 4.58333E-02 2.34375E-02 0.00000E+00
 -1       783 4.68750E-02 2.38281E-02 0.00000E+00
 -1       784 4.79167E-02 2.42187E-02 0.00000E+00
 -1       785 4.89583E-02 2.46094E-02 0.00000E+00
 -1       786 5.10417E-02 1.87500E-02 0.00000E+00
 -1       787 5.20833E-02 1.87500E-02 0.00000E+00
 -1       788 5.31250E-02 1.87500E-02 0.00000E+00
 -1       789 5.41667E-02 1.87500E-02 0.00000E+00
 -1       790 5.52083E-02 1.87500E-02 0.00000E+00
 -1       791 5.62500E-02 1.87500E-02 0.00000E+00
 -1       792 5.72917E-02 1.87500E-02 0.00000E+00
 -1       793 5.83333E-02 1.87500E-02 0.00000E+00
 -1       794 5.93750E-02 1.87500E-02 0.00000E+00
 -1       795 6.04167E-02 1.87500E-02 0.00000E+00
 -1       796 6.14583E-02 1.87500E-02 0.00000E+00
 -1       797 6.25000E-02 1.87500E-02 0.00000E+00
 -1       798 6.35417E-02 1.87500E-02 0.00000E+00
 -1       799 6.45833E-02 1.87500E-02 0.00000E+00
 -1       800 6.56250E-02 1.87500E-02 0.00000E+00
 -1       801 5.00000E-02 1.97917E-02 0.00000E+00
 -1       802 5.00000E-02 2.08333E-02 0.00000E+00
 -1       803 5.00000E-02 2.18750E-02 0.00000E+00
 -1       804 5.00000E-02 2.29167E-02 0.00000E+00
 -1       805 5.00000E-02 2.39583E-02 0.00000E+00
 -1       806 5.10417E-02 1.91406E-02 0.00000E+00
 -1       807 5.20833E-02 1.95312E-02 0.00000E+00
 -1       808 5.31250E-02 1.99219E-02 0.00000E+00
 -1       809 5.41667E-02 2.03125E-02 0.00000E+00
 -1       810 5.52083E-02 2.07031E-02 0.00000E+00
 -1       811 5.62500E-02 2.10938E-02 0.00000E+00
 -1       812 5.72917E-02 2.14844E-02 0.00000E+00
 -1       813 5.83333E-02 2.18750E-02 0.00000E+00
 -1       814 5.93750E-02 2.22656E-02 0.00000E+00
 -1       815 6.04167E-02 2.26563E-02 0.00000E+00
 -1       816 6.14583E-02 2.30469E-02 0.00000E+00
 -1       817 6.25000E-02 2.34375E-02 0.00000E+00
 -1       818 6.35417E-02 2.38281E-02 0.00000E+00
 -1       819 6.45833E-02 2.42187E-02 0.00000E+00
 -1       820 6.56250E-02 2.46094E-02 0.00000E+00
 -1       821 6.77083E-02 1.87500E-02 0.00000E+00
 -1       822 6.87500E-02 1.87500E-02 0.00000E+00
 -1       823 6.97917E-02 1.87500E-02 0.00000E+00
 -1       824 7.08333E-02 1.87500E-02 0.00000E+00
 -1       825 7.18750E-02 1.87500E-02 0.00000E+00
 -1       826 7.29167E-02 1.87500E-02 0.00000E+00
 -1       827 7.39583E-02 1.87500E-02 0.00000E+00
 -1       828 7.50000E-02 1.87500E-02 0.00000E+00
 -1       829 7.60417E-02 1.87500E-02 0.00000E+00
 -1       830 7.70833E-02 1.87500E-02 0.00000E+00
 -1       831 7.81250E-02 1.87500E-02 0.00000E+00
 -1       832 7.91667E-02 1.87500E-02 0.00000E+00
 -1       833 8.02083E-02 1.87500E-02 0.00000E+00
 -1       834 8.12500E-02 1.87500E-02 0.00000E+00
 -1       835 8.22917E-02 1.87500E-02 0.00000E+00
 -1       836 6.66667E-02 1.97917E-02 0.00000E+00
 -1       837 6.66667E-02 2.08333E-02 0.00000E+00
 -1       838 6.66667E-02 2.18750E-02 0.00000E+00
 -1       839 6.66667E-02 2.29167E-02 0.00000E+00
 -1       840 6.66667E-02 2.39583E-02 0.00000E+00
 -1       856 8.43750E-02 1.87500E-02 0.00000E+00
 -1       857 8.54167E-02 1.87500E-02 0.00000E+00
 -1       858 8.64583E-02 1.87500E-02 0.00000E+00
 -1       859 8.75000E-02 1.87500E-02 0.00000E+00
 -1       860 8.85417E-02 1.87500E-02 0.00000E+00
 -1       861 8.95833E-02 1.87500E-02 0.00000E+00
 -1       862 9.06250E-02 1.87500E-02 0.00000E+00
 -1       863 9.16667E-02 1.87500E-02 0.00000E+00
 -1       864 9.27083E-02 1.87500E-02 0.00000E+00
 -1       865 9.37500E-02 1.87500E-02 0.00000E+00
 -1       866 9.47917E-02 1.87500E-02 0.00000E+00
 -1       867 9.58333E-02 1.87500E-02 0.00000E+00
 -1       868 9.68750E-02 1.87500E-02 0.00000E+00
 -1       869 9.79167E-02 1.87500E-02 0.00000E+00
 -1       870 9.89583E-02 1.87500E-02 0.00000E+00
 -1       871 8.33333E-02 1.97917E-02 0.00000E+00
 -1       872 8.33333E-02 2.08333E-02 0.00000E+00
 -1       873 8.33333E-02 2.18750E-02 0.00000E+00
 -1       874 8.33333E-02 2.29167E-02 0.00000E+00
 -1       875 8.33333E-02 2.39583E-02 0.00000E+00
 -1       876 8.43750E-02 1.91406E-02 0.00000E+00
 -1       877 8.54167E-02 1.95312E-02 0.00000E+00
 -1       878 8.64583E-02 1.99219E-02 0.00000E+00
 -1       879 8.75000E-02 2.03125E-02 0.00000E+00
 -1       880 8.85417E-02 2.07031E-02 0.00000E+00
 -1       881 8.95833E-02 2.10938E-02 0.00000E+00
 -1       882 9.06250E-02 2.14844E-02 0.00000E+00
 -1       883 9.16667E-02 2.18750E-02 0.00000E+00
 -1       884 9.27083E-02 2.22656E-02 0.00000E+00
 -1       885 9.37500E-02 2.26563E-02 0.00000E+00
 -1       886 9.47917E-02 2.30469E-02 0.00000E+00
 -1       887 9.58333E-02 2.34375E-02 0.00000E+00
 -1       888 9.68750E-02 2.38281E-02 0.00000E+00
 -1       889 9.79167E-02 2.42187E-02 0.00000E+00
 -1       890 9.89583E-02 2.46094E-02 0.00000E+00
 -1       891 1.00000E-01 1.97917E-02 0.00000E+00
 -1       892 1.00000E-01 2.08333E-02 0.00000E+00
 -1       893 1.00000E-01 2.18750E-02 0.00000E+00
 -1       894 1.00000E-01 2.29167E-02 0.00000E+00
 -1       895 1.00000E-01 2.39583E-02 0.00000E+00
 -1       956 6.77083E-02 2.50000E-02 0.00000E+00
 -1       957 6.87500E-02 2.50000E-02 0.00000E+00
 -1       958 6.97917E-02 2.50000E-02 0.00000E+00
 -1       959 7.08333E-02 2.50000E-02 0.00000E+00
 -1       960 7.18750E-02 2.50000E-02 0.00000E+00
 -1       961 7.29167E-02 2.50000E-02 0.00000E+00
 -1       962 7.39583E-02 2.50000E-02 0.00000E+00
 -1       963 7.50000E-02 2.50000E-02 0.00000E+00
 -1       964 7.60417E-02 2.50000E-02 0.00000E+00
 -1       965 7.70833E-02 2.50000E-02 0.00000E+00
 -1       966 7.81250E-02 2.50000E-02 0.00000E+00
 -1       967 7.91667E-02 2.50000E-02 0.00000E+00
 -1       968 8.02083E-02 2.50000E-02 0.00000E+00
 -1       969 8.12500E-02 2.50000E-02 0.00000E+00
 -1       970 8.22917E-02 2.50000E-02 0.00000E+00
 -1       971 8.43750E-02 2.50000E-02 0.00000E+00
 -1       972 8.54167E-02 2.50000E-02 0.00000E+00
 -1       973 8.64583E-02 2.50000E-02 0.00000E+00
 -1       974 8.75000E-02 2.50000E-02 0.00000E+00
 -1       975 8.85417E-02 2.50000E-02 0.00000E+00
 -1       976 8.95833E-02 2.50000E-02 0.00000E+00
 -1       977 9.06250E-02 2.50000E-02 0.00000E+00
 -1       978 9.16667E-02 2.50000E-02 0.00000E+00
 -1       979 9.27083E-02 2.50000E-02 0.00000E+00
 -1       980 9.37500E-02 2.50000E-02 0.00000E+00
 -1       981 9.47917E-02 2.50000E-02 0.00000E+00
 -1       982 9.58333E-02 2.50000E-02 0.00000E+00
 -1       983 9.68750E-02 2.50000E-02 0.00000E+00
 -1       984 9.79167E-02 2.50000E-02 0.00000E+00
 -1       985 9.89583E-02 2.50000E-02 0.00000E+00
 -3
    3C                           211                                     1
 -1         1   12    0    1
 -2         1        52        51
 -1         2   12    0    1
 -2        52        54        53
 -1         3   12    0    1
 -2        54         8        55
 -1         4   12    0    1
 -2         1        57        56
 -1         5   12    0    1
 -2        57        59        58
 -1         6   12    0    1
 -2        59        61        60
 -1         7   12    0    1
 -2        61        63        62
 -1         8   12    0    1
 -2        63        65        64
 -1         9   12    0    1
 -2        65        67        66
 -1        10   12    0    1
 -2        67        69        68
 -1        11   12    0    1
 -2        69         9        70
 -1        12   12    0    1
 -2         2        87        86
 -1        13   12    0    1
 -2        87        89        88
 -1        14   12    0    1
 -2        89         9        90
 -1        15   12    0    1
 -2         3       122       121
 -1        16   12    0    1
 -2       122       124       123
 -1        17   12    0    1
 -2       124        10       125
 -1        18   12    0    1
 -2         5       192       191
 -1        19   12    0    1
 -2       192       194       193
 -1        20   12    0    1
 -2       194        12       195
 -1        21   12    0    1
 -2         8       252       251
 -1        22   12    0    1
 -2       252       254       253
 -1        23   12    0    1
 -2       254       256       255
 -1        24   12    0    1
 -2       256       258       257
 -1        25   12    0    1
 -2       258       260       259
 -1        26   12    0    1
 -2       260       262       261
 -1        27   12    0    1
 -2       262       264       263
 -1        28   12    0    1
 -2       264         9       265
 -1        29   12    0    1
 -2         8       267       266
 -1        30   12    0    1
 -2       267       269       268
 -1        31   12    0    1
 -2       269        15       270
 -1        32   12    0    1
 -2         8       272       271
 -1        33   12    0    1
 -2       272       274       273
 -1        34   12    0    1
 -2       274       276       275
 -1        35   12    0    1
 -2       276       278       277
 -1        36   12    0    1
 -2       278       280       279
 -1        37   12    0    1
 -2       280       282       281
 -1        38   12    0    1
 -2       282       284       283
 -1        39   12    0    1
 -2       284        16       285
 -1        40   12    0    1
 -2         9       302       301
 -1        41   12    0    1
 -2       302       304       303
 -1        42   12    0    1
 -2       304        16       305
 -1        43   12    0    1
 -2         9       307       306
 -1        44   12    0    1
 -2       307       309       308
 -1        45   12    0    1
 -2       309       311       310
 -1        46   12    0    1
 -2       311       313       312
 -1        47   12    0    1
 -2       313       315       314
 -1        48   12    0    1
 -2       315       317       316
 -1        49   12    0    1
 -2       317       319       318
 -1        50   12    0    1
 -2       319        17       320
 -1        51   12    0    1
 -2        10       337       336
 -1        52   12    0    1
 -2       337       339       338
 -1        53   12    0    1
 -2       339        17       340
 -1        54   12    0    1
 -2        12       407       406
 -1        55   12    0    1
 -2       407       409       408
 -1        56   12    0    1
 -2       409        19       410
 -1        57   12    0    1
 -2        16       522       521
 -1        58   12    0    1
 -2       522       524       523
 -1        59   12    0    1
 -2       524       526       525
 -1        60   12    0    1
 -2       526       528       527
 -1        61   12    0    1
 -2       528       530       529
 -1        62   12    0    1
 -2       530       532       531
 -1        63   12    0    1
 -2       532       534       533
 -1        64   12    0    1
 -2       534        24       535
 -1        65   12    0    1
 -2        17       537       536
 -1        66   12    0    1
 -2       537       539       538
 -1        67   12    0    1
 -2       539       541       540
 -1        68   12    0    1
 -2       541       543       542
 -1        69   12    0    1
 -2       543       545       544
 -1        70   12    0    1
 -2       545       547       546
 -1        71   12    0    1
 -2       547       549       548
 -1        72   12    0    1
 -2       549        18       550
 -1        73   12    0    1
 -2        17       552       551
 -1        74   12    0    1
 -2       552       554       553
 -1        75   12    0    1
 -2       554        24       555
 -1        76   12    0    1
 -2        17       557       556
 -1        77   12    0    1
 -2       557       559       558
 -1        78   12    0    1
 -2       559       561       560
 -1        79   12    0    1
 -2       561       563       562
 -1        80   12    0    1
 -2       563       565       564
 -1        81   12    0    1
 -2       565       567       566
 -1        82   12    0    1
 -2       567       569       568
 -1        83   12    0    1
 -2       569        25       570
 -1        84   12    0    1
 -2        18       572       571
 -1        85   12    0    1
 -2       572       574       573
 -1        86   12    0    1
 -2       574       576       575
 -1        87   12    0    1
 -2       576       578       577
 -1        88   12    0    1
 -2       578       580       579
 -1        89   12    0    1
 -2       580       582       581
 -1        90   12    0    1
 -2       582       584       583
 -1        91   12    0    1
 -2       584        19       585
 -1        92   12    0    1
 -2        18       587       586
 -1        93   12    0    1
 -2       587       589       588
 -1        94   12    0    1
 -2       589        25       590
 -1        95   12    0    1
 -2        18       592       591
 -1        96   12    0    1
 -2       592       594       593
 -1        97   12    0    1
 -2       594       596       595
 -1        98   12    0    1
 -2       596       598       597
 -1        99   12    0    1
 -2       598       600       599
 -1       100   12    0    1
 -2       600       602       601
 -1       101   12    0    1
 -2       602       604       603
 -1       102   12    0    1
 -2       604        26       605
 -1       103   12    0    1
 -2        19       607       606
 -1       104   12    0    1
 -2       607       609       608
 -1       105   12    0    1
 -2       609       611       610
 -1       106   12    0    1
 -2       611       613       612
 -1       107   12    0    1
 -2       613       615       614
 -1       108   12    0    1
 -2       615       617       616
 -1       109   12    0    1
 -2       617       619       618
 -1       110   12    0    1
 -2       619        20       620
 -1       111   12    0    1
 -2        19       622       621
 -1       112   12    0    1
 -2       622       624       623
 -1       113   12    0    1
 -2       624        26       625
 -1       114   12    0    1
 -2        19       627       626
 -1       115   12    0    1
 -2       627       629       628
 -1       116   12    0    1
 -2       629       631       630
 -1       117   12    0    1
 -2       631       633       632
 -1       118   12    0    1
 -2       633       635       634
 -1       119   12    0    1
 -2       635       637       636
 -1       120   12    0    1
 -2       637       639       638
 -1       121   12    0    1
 -2       639        27       640
 -1       122   12    0    1
 -2        20       657       656
 -1       123   12    0    1
 -2       657       659       658
 -1       124   12    0    1
 -2       659        27       660
 -1       125   12    0    1
 -2        20       662       661
 -1       126   12    0    1
 -2       662       664       663
 -1       127   12    0    1
 -2       664       666       665
 -1       128   12    0    1
 -2       666       668       667
 -1       129   12    0    1
 -2       668       670       669
 -1       130   12    0    1
 -2       670       672       671
 -1       131   12    0    1
 -2       672       674       673
 -1       132   12    0    1
 -2       674        28       675
 -1       133   12    0    1
 -2        21       677       676
 -1       134   12    0    1
 -2       677       679       678
 -1       135   12    0    1
 -2       679        28       680
 -1       136   12    0    1
 -2        24       772       771
 -1       137   12    0    1
 -2       772       774       773
 -1       138   12    0    1
 -2       774       776       775
 -1       139   12    0    1
 -2       776       778       777
 -1       140   12    0    1
 -2       778       780       779
 -1       141   12    0    1
 -2       780       782       781
 -1       142   12    0    1
 -2       782       784       783
 -1       143   12    0    1
 -2       784        32       785
 -1       144   12    0    1
 -2        25       787       786
 -1       145   12    0    1
 -2       787       789       788
 -1       146   12    0    1
 -2       789       791       790
 -1       147   12    0    1
 -2       791       793       792
 -1       148   12    0    1
 -2       793       795       794
 -1       149   12    0    1
 -2       795       797       796
 -1       150   12    0    1
 -2       797       799       798
 -1       151   12    0    1
 -2       799        26       800
 -1       152   12    0    1
 -2        25       802       801
 -1       153   12    0    1
 -2       802       804       803
 -1       154   12    0    1
 -2       804        32       805
 -1       155   12    0    1
 -2        25       807       806
 -1       156   12    0    1
 -2       807       809       808
 -1       157   12    0    1
 -2       809       811       810
 -1       158   12    0    1
 -2       811       813       812
 -1       159   12    0    1
 -2       813       815       814
 -1       160   12    0    1
 -2       815       817       816
 -1       161   12    0    1
 -2       817       819       818
 -1       162   12    0    1
 -2       819        33       820
 -1       163   12    0    1
 -2        26       822       821
 -1       164   12    0    1
 -2       822       824       823
 -1       165   12    0    1
 -2       824       826       825
 -1       166   12    0    1
 -2       826       828       827
 -1       167   12    0    1
 -2       828       830       829
 -1       168   12    0    1
 -2       830       832       831
 -1       169   12    0    1
 -2       832       834       833
 -1       170   12    0    1
 -2       834        27       835
 -1       171   12    0    1
 -2        26       837       836
 -1       172   12    0    1
 -2       837       839       838
 -1       173   12    0    1
 -2       839        33       840
 -1       174   12    0    1
 -2        27       857       856
 -1       175   12    0    1
 -2       857       859       858
 -1       176   12    0    1
 -2       859       861       860
 -1       177   12    0    1
 -2       861       863       862
 -1       178   12    0    1
 -2       863       865       864
 -1       179   12    0    1
 -2       865       867       866
 -1       180   12    0    1
 -2       867       869       868
 -1       181   12    0    1
 -2       869        28       870
 -1       182   12    0    1
 -2        27       872       871
 -1       183   12    0    1
 -2       872       874       873
 -1       184   12    0    1
 -2       874        34       875
 -1       185   12    0    1
 -2        27       877       876
 -1       186   12    0    1
 -2       877       879       878
 -1       187   12    0    1
 -2       879       881       880
 -1       188   12    0    1
 -2       881       883       882
 -1       189   12    0    1
 -2       883       885       884
 -1       190   12    0    1
 -2       885       887       886
 -1       191   12    0    1
 -2       887       889       888
 -1       192   12    0    1
 -2       889        35       890
 -1       193   12    0    1
 -2        28       892       891
 -1       194   12    0    1
 -2       892       894       893
 -1       195   12    0    1
 -2       894        35       895
 -1       196   12    0    1
 -2        33       957       956
 -1       197   12    0    1
 -2       957       959       958
 -1       198   12    0    1
 -2       959       961       960
 -1       199   12    0    1
 -2       961       963       962
 -1       200   12    0    1
 -2       963       965       964
 -1       201   12    0    1
 -2       965       967       966
 -1       202   12    0    1
 -2       967       969       968
 -1       203   12    0    1
 -2       969        34       970
 -1       204   12    0    1
 -2        34       972       971
 -1       205   12    0    1
 -2       972       974       973
 -1       206   12    0    1
 -2       974       976       975
 -1       207   12    0    1
 -2       976       978       977
 -1       208   12    0    1
 -2       978       980       979
 -1       209   12    0    1
 -2       980       982       981
 -1       210   12    0    1
 -2       982       984       983
 -1       211   12    0    1
 -2       984        35       985
 -3
    1PSTEP                         1           1           1          
  100CL  101 1.000000000         409                     0    1           1
 -4  DISP        4    1
 -5  D1          1    2    1    0
 -5  D2          1    2    2    0
 -5  D3          1    2    3    0
 -5  ALL         1    2    0    0    1ALL
 -1         1 2.26177E-04 0.00000E+00 0.00000E+00
 -1         2 2.09792E-04-1.51955E-27-3.30872E-24
 -1         3 2.07811E-04-1.58289E-25 0.00000E+00
 -1         5 1.41498E-04 7.29196E-25-6.61744E-24
 -1         8 1.84550E-04-1.79943E-06 0.00000E+00
 -1         9 1.85609E-04 8.36939E-07 0.00000E+00
 -1        10 1.90312E-04-2.80625E-06 1.32349E-23
 -1        12 1.40429E-04 1.12643E-06 3.30872E-24
 -1        15 1.36915E-04-2.02559E-06 0.00000E+00
 -1        16 1.35160E-04 5.27296E-07 0.00000E+00
 -1        17 1.35565E-04-6.02512E-06 0.00000E+00
 -1        18 1.35084E-04 7.56926E-07 0.00000E+00
 -1        19 1.37220E-04 2.24641E-06 0.00000E+00
 -1        20 1.37677E-04 3.07417E-05 0.00000E+00
 -1        21 1.35217E-04 6.21211E-05 3.30872E-24
 -1        24 3.46630E-05-8.62654E-06 0.00000E+00
 -1        25 1.31316E-04 1.04134E-06 0.00000E+00
 -1        26 1.33159E-04 3.08379E-06 0.00000E+00
 -1        27 1.30257E-04 2.82161E-05 0.00000E+00
 -1        28 1.28763E-04 6.12778E-05 0.00000E+00
 -1        32 0.00000E+00 0.00000E+00 0.00000E+00
 -1        33 1.27343E-04 4.25993E-06 0.00000E+00
 -1        34 1.24408E-04 2.81338E-05 0.00000E+00
 -1        35 1.21376E-04 6.07539E-05 0.00000E+00
 -1        51 2.23312E-04-2.92506E-07 0.00000E+00
 -1        52 2.18221E-04-5.78961E-07 0.00000E+00
 -1        53 2.11342E-04-8.69750E-07 0.00000E+00
 -1        54 2.03132E-04-1.16793E-06 0.00000E+00
 -1        55 1.94048E-04-1.47464E-06 9.92617E-24
 -1        56 2.24251E-04-1.34213E-06 5.29396E-23
 -1        57 2.22615E-04-3.67950E-06-2.64698E-23
 -1        58 2.21254E-04-6.74261E-06 5.29396E-23
 -1        59 2.20051E-04-1.02658E-05 2.64698E-23
 -1        60 2.18905E-04-1.39458E-05-5.29396E-23
 -1        61 2.17702E-04-1.74781E-05 0.00000E+00
 -1        62 2.16333E-04-2.05660E-05 5.29396E-23
 -1        63 2.14694E-04-2.29314E-05 2.64698E-23
 -1        64 2.12698E-04-2.43399E-05 0.00000E+00
 -1        65 2.10269E-04-2.45957E-05 0.00000E+00
 -1        66 2.07360E-04-2.35729E-05 5.29396E-23
 -1        67 2.03941E-04-2.11964E-05 0.00000E+00
 -1        68 2.00013E-04-1.74738E-05 5.29396E-23
 -1        69 1.95606E-04-1.24625E-05 0.00000E+00
 -1        70 1.90758E-04-6.30623E-06 0.00000E+00
 -1        86 2.09146E-04 1.58220E-07 3.30872E-24
 -1        87 2.07207E-04 3.13918E-07-1.65436E-24
 -1        88 2.03939E-04 4.66099E-07 0.00000E+00
 -1        89 1.99301E-04 6.07275E-07 0.00000E+00
 -1        90 1.93219E-04 7.42881E-07 0.00000E+00
 -1       121 2.07321E-04-4.62265E-07 1.32349E-23
 -1       122 2.05853E-04-9.25456E-07 0.00000E+00
 -1       123 2.03411E-04-1.39049E-06 1.32349E-23
 -1       124 2.00001E-04-1.85834E-06 6.61744E-24
 -1       125 1.95630E-04-2.32976E-06 0.00000E+00
 -1       191 1.41468E-04 1.87765E-07 6.61744E-24
 -1       192 1.41379E-04 3.75525E-07-3.30872E-24
 -1       193 1.41230E-04 5.63279E-07 0.00000E+00
 -1       194 1.41023E-04 7.51020E-07 3.30872E-24
 -1       195 1.40755E-04 9.38741E-07 0.00000E+00
 -1       251 1.84574E-04 4.76121E-06-6.61744E-24
 -1       252 1.84639E-04 8.66492E-06-1.65436E-24
 -1       253 1.84710E-04 1.03243E-05-2.06795E-25
 -1       254 1.84786E-04 1.01456E-05 0.00000E+00
 -1       255 1.84862E-04 8.51370E-06 1.65436E-24
 -1       256 1.84937E-04 5.80989E-06-8.27181E-25
 -1       257 1.85009E-04 2.40266E-06 0.00000E+00
 -1       258 1.85081E-04-1.34130E-06-8.27181E-25
 -1       259 1.85153E-04-5.05937E-06-1.65436E-24
 -1       260 1.85226E-04-8.38880E-06 8.27181E-25
 -1       261 1.85301E-04-1.09622E-05 1.65436E-24
 -1       262 1.85377E-04-1.24103E-05-4.13590E-25
 -1       263 1.85454E-04-1.23504E-05 0.00000E+00
 -1       264 1.85523E-04-1.03960E-05 0.00000E+00
 -1       265 1.85587E-04-6.13854E-06 0.00000E+00
 -1       266 1.76611E-04-1.85945E-06 6.61744E-24
 -1       267 1.68672E-04-1.89445E-06 0.00000E+00
 -1       268 1.60733E-04-1.93095E-06 0.00000E+00
 -1       269 1.52794E-04-1.96284E-06 8.27181E-25
 -1       270 1.44854E-04-1.99458E-06 8.27181E-25
 -1       271 1.79417E-04 4.01518E-06 5.29396E-23
 -1       272 1.75008E-04 7.66922E-06 2.64698E-23
 -1       273 1.71337E-04 9.38538E-06 0.00000E+00
 -1       274 1.68292E-04 9.40181E-06 0.00000E+00
 -1       275 1.65775E-04 8.00903E-06-1.05879E-22
 -1       276 1.63661E-04 5.53149E-06-5.29396E-23
 -1       277 1.61820E-04 2.32218E-06 1.05879E-22
 -1       278 1.60112E-04-1.24646E-06-5.29396E-23
 -1       279 1.58396E-04-4.79284E-06-1.05879E-22
 -1       280 1.56529E-04-7.93584E-06 0.00000E+00
 -1       281 1.54375E-04-1.03049E-05-1.05879E-22
 -1       282 1.51801E-04-1.15502E-05 0.00000E+00
 -1       283 1.48686E-04-1.13511E-05 5.29396E-23
 -1       284 1.44928E-04-9.42330E-06 2.64698E-23
 -1       285 1.40424E-04-5.53242E-06-5.29396E-23
 -1       301 1.77167E-04 7.75183E-07 1.32349E-23
 -1       302 1.68705E-04 7.39404E-07 0.00000E+00
 -1       303 1.60248E-04 7.05119E-07-6.61744E-24
 -1       304 1.51821E-04 6.67955E-07 0.00000E+00
 -1       305 1.43450E-04 6.25001E-07 0.00000E+00
 -1       306 1.80287E-04 6.53345E-06-5.29396E-23
 -1       307 1.76179E-04 8.75623E-06 2.64698E-23
 -1       308 1.73410E-04 7.44338E-06-1.05879E-22
 -1       309 1.71885E-04 2.74577E-06 5.29396E-23
 -1       310 1.71344E-04-4.61506E-06 0.00000E+00
 -1       311 1.71444E-04-1.37295E-05 0.00000E+00
 -1       312 1.71746E-04-2.33950E-05 0.00000E+00
 -1       313 1.71794E-04-3.23701E-05 0.00000E+00
 -1       314 1.71173E-04-3.95272E-05 0.00000E+00
 -1       315 1.69513E-04-4.38715E-05 0.00000E+00
 -1       316 1.66606E-04-4.48757E-05 0.00000E+00
 -1       317 1.62335E-04-4.22540E-05 5.29396E-23
 -1       318 1.56804E-04-3.63194E-05 0.00000E+00
 -1       319 1.50229E-04-2.76159E-05 2.64698E-23
 -1       320 1.42968E-04-1.71556E-05 0.00000E+00
 -1       336 1.83949E-04-3.32110E-06 0.00000E+00
 -1       337 1.76448E-04-3.84416E-06 0.00000E+00
 -1       338 1.67831E-04-4.37573E-06-1.32349E-23
 -1       339 1.58124E-04-4.91635E-06-6.61744E-24
 -1       340 1.47357E-04-5.46737E-06 1.32349E-23
 -1       406 1.40042E-04 1.31409E-06 0.00000E+00
 -1       407 1.39597E-04 1.50165E-06 0.00000E+00
 -1       408 1.39092E-04 1.68908E-06-6.61744E-24
 -1       409 1.38527E-04 1.87615E-06-3.30872E-24
 -1       410 1.37903E-04 2.06248E-06-6.61744E-24
 -1       521 1.25644E-04 9.15354E-06 0.00000E+00
 -1       522 1.14468E-04 2.15128E-05 5.29396E-23
 -1       523 1.03240E-04 3.40343E-05 0.00000E+00
 -1       524 9.33495E-05 4.30281E-05 0.00000E+00
 -1       525 8.57947E-05 4.59242E-05-2.11758E-22
 -1       526 8.11819E-05 4.09829E-05-1.05879E-22
 -1       527 7.91933E-05 2.89161E-05 0.00000E+00
 -1       528 7.91579E-05 1.14408E-05 1.05879E-22
 -1       529 7.98340E-05-8.02063E-06-2.11758E-22
 -1       530 7.98963E-05-2.57613E-05 0.00000E+00
 -1       531 7.81942E-05-3.86184E-05 0.00000E+00
 -1       532 7.37972E-05-4.41224E-05-1.05879E-22
 -1       533 6.65829E-05-4.21170E-05 2.11758E-22
 -1       534 5.68655E-05-3.34857E-05 0.00000E+00
 -1       535 4.57164E-05-2.11954E-05 0.00000E+00
 -1       536 1.35470E-04 4.87781E-06-6.61744E-24
 -1       537 1.35415E-04 1.31047E-05 1.65436E-24
 -1       538 1.35375E-04 1.89238E-05 0.00000E+00
 -1       539 1.35348E-04 2.26049E-05 0.00000E+00
 -1       540 1.35326E-04 2.44212E-05 8.27181E-25
 -1       541 1.35306E-04 2.46472E-05 0.00000E+00
 -1       542 1.35285E-04 2.35597E-05 8.27181E-25
 -1       543 1.35264E-04 2.14364E-05-4.13590E-25
 -1       544 1.35240E-04 1.85567E-05 0.00000E+00
 -1       545 1.35215E-04 1.52003E-05 0.00000E+00
 -1       546 1.35190E-04 1.16479E-05 0.00000E+00
 -1       547 1.35165E-04 8.17997E-06 0.00000E+00
 -1       548 1.35141E-04 5.07707E-06 0.00000E+00
 -1       549 1.35119E-04 2.61950E-06-2.58494E-26
 -1       550 1.35099E-04 1.08657E-06-8.27181E-25
 -1       551 1.20837E-04-6.42033E-06-6.61744E-24
 -1       552 1.04198E-04-6.83718E-06 1.34417E-24
 -1       553 8.64491E-05-7.27141E-06 0.00000E+00
 -1       554 6.84035E-05-7.71492E-06 0.00000E+00
 -1       555 5.08733E-05-8.15655E-06 0.00000E+00
 -1       556 1.31430E-04 4.53266E-06-2.64698E-23
 -1       557 1.28278E-04 1.25846E-05 0.00000E+00
 -1       558 1.25998E-04 1.83631E-05 0.00000E+00
 -1       559 1.24491E-04 2.21180E-05 1.32349E-23
 -1       560 1.23656E-04 2.40991E-05 0.00000E+00
 -1       561 1.23396E-04 2.45578E-05 0.00000E+00
 -1       562 1.23612E-04 2.37461E-05 0.00000E+00
 -1       563 1.24209E-04 2.19167E-05 0.00000E+00
 -1       564 1.25092E-04 1.93226E-05 6.61744E-24
 -1       565 1.26165E-04 1.62171E-05 0.00000E+00
 -1       566 1.27334E-04 1.28539E-05 1.65436E-24
 -1       567 1.28505E-04 9.48664E-06 2.06795E-25
 -1       568 1.29582E-04 6.36892E-06 0.00000E+00
 -1       569 1.30473E-04 3.75411E-06 0.00000E+00
 -1       570 1.31082E-04 1.89553E-06 0.00000E+00
 -1       571 1.35213E-04 9.46953E-07-1.65436E-24
 -1       572 1.35345E-04 1.04965E-06 0.00000E+00
 -1       573 1.35479E-04 1.08019E-06 3.30872E-24
 -1       574 1.35612E-04 1.05459E-06 0.00000E+00
 -1       575 1.35746E-04 9.88891E-07 0.00000E+00
 -1       576 1.35880E-04 8.99282E-07 0.00000E+00
 -1       577 1.36014E-04 8.01940E-07-3.30872E-24
 -1       578 1.36148E-04 7.13061E-07 3.30872E-24
 -1       579 1.36282E-04 6.48841E-07 0.00000E+00
 -1       580 1.36416E-04 6.25478E-07 3.30872E-24
 -1       581 1.36551E-04 6.59170E-07 0.00000E+00
 -1       582 1.36685E-04 7.66098E-07 0.00000E+00
 -1       583 1.36819E-04 9.62433E-07-6.61744E-24
 -1       584 1.36952E-04 1.26418E-06 0.00000E+00
 -1       585 1.37086E-04 1.68727E-06 0.00000E+00
 -1       586 1.34451E-04 8.06376E-07 0.00000E+00
 -1       587 1.33748E-04 8.55175E-07 8.27181E-25
 -1       588 1.33029E-04 9.03638E-07 1.24077E-24
 -1       589 1.32348E-04 9.51510E-07 0.00000E+00
 -1       590 1.31760E-04 9.98302E-07 0.00000E+00
 -1       591 1.34932E-04 1.00191E-06 0.00000E+00
 -1       592 1.34802E-04 1.17574E-06 0.00000E+00
 -1       593 1.34692E-04 1.29197E-06 0.00000E+00
 -1       594 1.34599E-04 1.36268E-06-8.27181E-25
 -1       595 1.34518E-04 1.40011E-06 0.00000E+00
 -1       596 1.34444E-04 1.41639E-06 8.27181E-25
 -1       597 1.34375E-04 1.42364E-06 0.00000E+00
 -1       598 1.34304E-04 1.43399E-06-8.27181E-25
 -1       599 1.34227E-04 1.45955E-06-1.65436E-24
 -1       600 1.34140E-04 1.51244E-06 8.27181E-25
 -1       601 1.34038E-04 1.60476E-06-8.27181E-25
 -1       602 1.33917E-04 1.74864E-06 4.13590E-25
 -1       603 1.33773E-04 1.95620E-06 0.00000E+00
 -1       604 1.33600E-04 2.23963E-06-3.10193E-25
 -1       605 1.33395E-04 2.61104E-06 0.00000E+00
 -1       606 1.37256E-04 3.09292E-06 0.00000E+00
 -1       607 1.37287E-04 4.11935E-06 0.00000E+00
 -1       608 1.37317E-04 5.31499E-06 0.00000E+00
 -1       609 1.37346E-04 6.66787E-06 3.30872E-24
 -1       610 1.37374E-04 8.16596E-06 0.00000E+00
 -1       611 1.37403E-04 9.79709E-06 0.00000E+00
 -1       612 1.37431E-04 1.15490E-05 0.00000E+00
 -1       613 1.37459E-04 1.34096E-05-1.65436E-24
 -1       614 1.37487E-04 1.53667E-05 0.00000E+00
 -1       615 1.37515E-04 1.74079E-05 0.00000E+00
 -1       616 1.37542E-04 1.95212E-05 0.00000E+00
 -1       617 1.37570E-04 2.16944E-05-8.27181E-25
 -1       618 1.37597E-04 2.39152E-05 0.00000E+00
 -1       619 1.37624E-04 2.61715E-05-1.65436E-24
 -1       620 1.37651E-04 2.84511E-05 8.27181E-25
 -1       621 1.36495E-04 2.38664E-06-3.30872E-24
 -1       622 1.35777E-04 2.52718E-06 1.65436E-24
 -1       623 1.35076E-04 2.66765E-06 3.30872E-24
 -1       624 1.34400E-04 2.80780E-06 0.00000E+00
 -1       625 1.33758E-04 2.94752E-06-3.30872E-24
 -1       626 1.37049E-04 3.16449E-06 0.00000E+00
 -1       627 1.36813E-04 4.25997E-06 0.00000E+00
 -1       628 1.36517E-04 5.51593E-06 0.00000E+00
 -1       629 1.36167E-04 6.91432E-06 0.00000E+00
 -1       630 1.35770E-04 8.43712E-06 0.00000E+00
 -1       631 1.35333E-04 1.00662E-05 0.00000E+00
 -1       632 1.34863E-04 1.17834E-05 6.61744E-24
 -1       633 1.34367E-04 1.35707E-05 0.00000E+00
 -1       634 1.33851E-04 1.54099E-05 0.00000E+00
 -1       635 1.33322E-04 1.72828E-05 0.00000E+00
 -1       636 1.32788E-04 1.91715E-05-3.30872E-24
 -1       637 1.32254E-04 2.10578E-05 1.65436E-24
 -1       638 1.31728E-04 2.29236E-05 0.00000E+00
 -1       639 1.31216E-04 2.47507E-05-1.65436E-24
 -1       640 1.30724E-04 2.65210E-05 1.65436E-24
 -1       656 1.35754E-04 3.03304E-05 0.00000E+00
 -1       657 1.34414E-04 2.99026E-05 0.00000E+00
 -1       658 1.33428E-04 2.94765E-05 0.00000E+00
 -1       659 1.32564E-04 2.90509E-05-3.30872E-24
 -1       660 1.31585E-04 2.86239E-05 0.00000E+00
 -1       661 1.36967E-04 3.30407E-05 0.00000E+00
 -1       662 1.36267E-04 3.53303E-05 1.65436E-24
 -1       663 1.35574E-04 3.75997E-05 3.30872E-24
 -1       664 1.34893E-04 3.98411E-05-1.65436E-24
 -1       665 1.34226E-04 4.20455E-05 0.00000E+00
 -1       666 1.33576E-04 4.42043E-05 1.65436E-24
 -1       667 1.32947E-04 4.63088E-05 0.00000E+00
 -1       668 1.32341E-04 4.83500E-05 0.00000E+00
 -1       669 1.31763E-04 5.03190E-05-3.30872E-24
 -1       670 1.31215E-04 5.22066E-05 0.00000E+00
 -1       671 1.30702E-04 5.40034E-05 3.30872E-24
 -1       672 1.30226E-04 5.56998E-05 0.00000E+00
 -1       673 1.29791E-04 5.72860E-05-3.30872E-24
 -1       674 1.29401E-04 5.87516E-05 0.00000E+00
 -1       675 1.29060E-04 6.00868E-05 0.00000E+00
 -1       676 1.34137E-04 6.19797E-05 0.00000E+00
 -1       677 1.33058E-04 6.18383E-05 0.00000E+00
 -1       678 1.31980E-04 6.16970E-05 0.00000E+00
 -1       679 1.30905E-04 6.15561E-05 0.00000E+00
 -1       680 1.29832E-04 6.14153E-05 3.30872E-24
 -1       771 2.81100E-05 3.46296E-06-5.29396E-23
 -1       772 2.23910E-05 1.33582E-05 0.00000E+00
 -1       773 1.74710E-05 2.11771E-05-1.05879E-22
 -1       774 1.32953E-05 2.70506E-05 0.00000E+00
 -1       775 9.80963E-06 3.11138E-05 0.00000E+00
 -1       776 6.95676E-06 3.35092E-05-2.64698E-23
 -1       777 4.67865E-06 3.43830E-05 5.29396E-23
 -1       778 2.91568E-06 3.38874E-05 0.00000E+00
 -1       779 1.60778E-06 3.21780E-05 0.00000E+00
 -1       780 6.93555E-07 2.94148E-05 0.00000E+00
 -1       781 1.11445E-07 2.57604E-05 5.29396E-23
 -1       782-2.01022E-07 2.13811E-05 2.64698E-23
 -1       783-3.06410E-07 1.64445E-05 0.00000E+00
 -1       784-2.67321E-07 1.11209E-05-2.64698E-23
 -1       785-1.46994E-07 5.58130E-06 0.00000E+00
 -1       786 1.31425E-04 1.11412E-06 1.65436E-24
 -1       787 1.31540E-04 1.15219E-06 1.65436E-24
 -1       788 1.31655E-04 1.16462E-06 0.00000E+00
 -1       789 1.31770E-04 1.16036E-06-1.65436E-24
 -1       790 1.31886E-04 1.14823E-06 0.00000E+00
 -1       791 1.32002E-04 1.13701E-06 0.00000E+00
 -1       792 1.32118E-04 1.13548E-06 0.00000E+00
 -1       793 1.32234E-04 1.15247E-06 1.65436E-24
 -1       794 1.32350E-04 1.19697E-06 0.00000E+00
 -1       795 1.32466E-04 1.27809E-06 0.00000E+00
 -1       796 1.32582E-04 1.40525E-06 0.00000E+00
 -1       797 1.32698E-04 1.58807E-06-1.65436E-24
 -1       798 1.32814E-04 1.83666E-06 0.00000E+00
 -1       799 1.32930E-04 2.16137E-06 1.65436E-24
 -1       800 1.33045E-04 2.57329E-06 0.00000E+00
 -1       801 1.21639E-04 1.11137E-06 0.00000E+00
 -1       802 9.57191E-05 9.15196E-07 0.00000E+00
 -1       803 6.20893E-05 5.13483E-07-1.65436E-24
 -1       804 2.92503E-05 1.26119E-07 0.00000E+00
 -1       805 5.70373E-06-2.55368E-08 0.00000E+00
 -1       806 1.31148E-04 1.04709E-06 0.00000E+00
 -1       807 1.30979E-04 1.04072E-06 0.00000E+00
 -1       808 1.30810E-04 1.03143E-06 3.30872E-24
 -1       809 1.30638E-04 1.02730E-06 0.00000E+00
 -1       810 1.30461E-04 1.03633E-06 3.30872E-24
 -1       811 1.30276E-04 1.06645E-06 0.00000E+00
 -1       812 1.30080E-04 1.12555E-06 0.00000E+00
 -1       813 1.29870E-04 1.22153E-06 0.00000E+00
 -1       814 1.29644E-04 1.36225E-06 3.30872E-24
 -1       815 1.29397E-04 1.55560E-06 0.00000E+00
 -1       816 1.29128E-04 1.80944E-06-3.30872E-24
 -1       817 1.28833E-04 2.13162E-06 8.27181E-25
 -1       818 1.28510E-04 2.53000E-06 1.65436E-24
 -1       819 1.28156E-04 3.01236E-06 8.27181E-25
 -1       820 1.27767E-04 3.58652E-06-1.65436E-24
 -1       821 1.32988E-04 3.75806E-06 0.00000E+00
 -1       822 1.32807E-04 4.65256E-06 0.00000E+00
 -1       823 1.32626E-04 5.75024E-06 0.00000E+00
 -1       824 1.32444E-04 7.03299E-06 0.00000E+00
 -1       825 1.32261E-04 8.47993E-06 6.61744E-24
 -1       826 1.32078E-04 1.00693E-05 0.00000E+00
 -1       827 1.31894E-04 1.17773E-05 0.00000E+00
 -1       828 1.31710E-04 1.35793E-05-3.30872E-24
 -1       829 1.31526E-04 1.54495E-05 0.00000E+00
 -1       830 1.31342E-04 1.73616E-05-3.30872E-24
 -1       831 1.31158E-04 1.92888E-05 0.00000E+00
 -1       832 1.30975E-04 2.12040E-05-3.30872E-24
 -1       833 1.30791E-04 2.30805E-05-3.30872E-24
 -1       834 1.30610E-04 2.48916E-05 0.00000E+00
 -1       835 1.30428E-04 2.66119E-05 0.00000E+00
 -1       836 1.32429E-04 3.27826E-06-3.30872E-24
 -1       837 1.31493E-04 3.47820E-06 0.00000E+00
 -1       838 1.30433E-04 3.67773E-06 3.30872E-24
 -1       839 1.29333E-04 3.87622E-06 0.00000E+00
 -1       840 1.28276E-04 4.07468E-06-8.27181E-25
 -1       856 1.30171E-04 2.98820E-05 0.00000E+00
 -1       857 1.30079E-04 3.17674E-05 0.00000E+00
 -1       858 1.29986E-04 3.38370E-05 0.00000E+00
 -1       859 1.29892E-04 3.60555E-05 1.65436E-24
 -1       860 1.29798E-04 3.83873E-05 0.00000E+00
 -1       861 1.29703E-04 4.07965E-05 1.65436E-24
 -1       862 1.29608E-04 4.32475E-05 0.00000E+00
 -1       863 1.29513E-04 4.57043E-05 0.00000E+00
 -1       864 1.29418E-04 4.81309E-05 0.00000E+00
 -1       865 1.29323E-04 5.04916E-05 0.00000E+00
 -1       866 1.29229E-04 5.27505E-05 0.00000E+00
 -1       867 1.29135E-04 5.48720E-05-1.65436E-24
 -1       868 1.29041E-04 5.68205E-05 3.30872E-24
 -1       869 1.28947E-04 5.85610E-05 1.65436E-24
 -1       870 1.28854E-04 6.00582E-05-3.30872E-24
 -1       871 1.29027E-04 2.82072E-05 0.00000E+00
 -1       872 1.28035E-04 2.81949E-05 0.00000E+00
 -1       873 1.27180E-04 2.81821E-05 0.00000E+00
 -1       874 1.26358E-04 2.81683E-05 2.06795E-25
 -1       875 1.25468E-04 2.81537E-05-8.27181E-25
 -1       876 1.29831E-04 2.98933E-05 0.00000E+00
 -1       877 1.29370E-04 3.16784E-05 3.30872E-24
 -1       878 1.28874E-04 3.35572E-05 0.00000E+00
 -1       879 1.28348E-04 3.55171E-05-3.30872E-24
 -1       880 1.27797E-04 3.75454E-05-6.61744E-24
 -1       881 1.27224E-04 3.96292E-05-3.30872E-24
 -1       882 1.26636E-04 4.17561E-05 6.61744E-24
 -1       883 1.26036E-04 4.39133E-05 0.00000E+00
 -1       884 1.25429E-04 4.60885E-05 0.00000E+00
 -1       885 1.24821E-04 4.82689E-05 0.00000E+00
 -1       886 1.24215E-04 5.04421E-05 6.61744E-24
 -1       887 1.23616E-04 5.25954E-05-3.30872E-24
 -1       888 1.23029E-04 5.47163E-05 0.00000E+00
 -1       889 1.22458E-04 5.67918E-05 0.00000E+00
 -1       890 1.21908E-04 5.88096E-05 0.00000E+00
 -1       891 1.27753E-04 6.11909E-05-1.65436E-24
 -1       892 1.26732E-04 6.11031E-05 8.27181E-25
 -1       893 1.25642E-04 6.10152E-05-3.30872E-24
 -1       894 1.24425E-04 6.09275E-05-8.27181E-25
 -1       895 1.23022E-04 6.08396E-05-1.65436E-24
 -1       956 1.27164E-04 5.18774E-06 0.00000E+00
 -1       957 1.26981E-04 6.27341E-06-1.65436E-24
 -1       958 1.26798E-04 7.50012E-06 0.00000E+00
 -1       959 1.26614E-04 8.85004E-06 0.00000E+00
 -1       960 1.26430E-04 1.03054E-05-6.61744E-24
 -1       961 1.26246E-04 1.18482E-05 1.65436E-24
 -1       962 1.26062E-04 1.34605E-05 0.00000E+00
 -1       963 1.25877E-04 1.51243E-05 3.30872E-24
 -1       964 1.25693E-04 1.68218E-05 0.00000E+00
 -1       965 1.25509E-04 1.85347E-05 0.00000E+00
 -1       966 1.25324E-04 2.02453E-05 0.00000E+00
 -1       967 1.25140E-04 2.19355E-05 0.00000E+00
 -1       968 1.24955E-04 2.35873E-05 6.61744E-24
 -1       969 1.24772E-04 2.51828E-05 0.00000E+00
 -1       970 1.24588E-04 2.67040E-05 0.00000E+00
 -1       971 1.24221E-04 2.95852E-05 3.30872E-24
 -1       972 1.24032E-04 3.12095E-05 0.00000E+00
 -1       973 1.23843E-04 3.29869E-05 6.61744E-24
 -1       974 1.23652E-04 3.48973E-05 0.00000E+00
 -1       975 1.23462E-04 3.69202E-05 0.00000E+00
 -1       976 1.23271E-04 3.90353E-05 0.00000E+00
 -1       977 1.23080E-04 4.12221E-05-6.61744E-24
 -1       978 1.22889E-04 4.34603E-05 0.00000E+00
 -1       979 1.22698E-04 4.57292E-05 0.00000E+00
 -1       980 1.22507E-04 4.80085E-05-3.30872E-24
 -1       981 1.22316E-04 5.02776E-05-6.61744E-24
 -1       982 1.22126E-04 5.25160E-05 0.00000E+00
 -1       983 1.21935E-04 5.47032E-05 6.61744E-24
 -1       984 1.21746E-04 5.68188E-05 3.30872E-24
 -1       985 1.21557E-04 5.88424E-05 0.00000E+00
 -3
    1PSTEP                         2           1           1          
  100CL  101 1.000000000         409                     0    1           1
 -4  STRESS      6    1
 -5  SXX         1    4    1    1
 -5  SYY         1    4    2    2
 -5  SZZ         1    4    3    3
 -5  SXY         1    4    1    2
 -5  SYZ         1    4    2    3
 -5  SZX         1    4    3    1
 -1         1-2.82071E+06-1.30794E+06-5.66666E+05-1.92569E+06 7.27596E-12 3.62779E-08
 -1         2 4.14226E+03 4.60438E+05 1.51600E+04 2.05603E+03 1.88379E-10 3.49703E-08
 -1         3-5.56593E+02-1.31780E+06 2.69776E+02-8.48649E+02-1.48393E-09-1.65528E-08
 -1         5-2.63059E+01 5.37422E+05 1.36826E+01 1.34899E+00 3.05263E-10-1.21127E-08
 -1         8-1.46531E+06-6.37178E+05-6.93285E+04-1.07798E+06-2.18279E-10 5.02041E-09
 -1         9-2.42527E+06-6.28567E+05-2.59537E+05-7.94185E+05-2.35741E-10-6.20494E-09
 -1        10-1.21262E+03-1.36675E+06-1.41192E+03-5.65977E+03 1.26474E-08-1.01937E-08
 -1        12-2.07858E+01 5.37451E+05 4.44383E+02 8.78122E+00 3.93584E-10 4.83706E-08
 -1        15 3.34236E+03 1.90418E+03 1.18069E+04 1.09648E+01-2.11969E-10 6.42295E-09
 -1        16-7.04685E+06-2.10185E+06-1.11677E+06-2.07428E+06-4.46259E-09 9.42964E-09
 -1        17-1.50514E+06-9.20741E+05-2.67675E+05-8.66463E+05 5.44242E-10-1.04483E-08
 -1        18 4.15891E+04 4.63647E+03-2.58230E+04-1.34291E+05 1.24601E-09 8.13998E-10
 -1        19 1.70672E+05 1.97277E+05-2.09801E+03 2.51540E+04-2.94312E-10-2.81871E-09
 -1        20 4.33656E+04-3.76909E+05-7.56650E+04 6.98404E+04 1.09155E-08-7.21532E-10
 -1        21-4.61957E+01-4.03279E+05-1.33236E+03-2.50426E+02-4.26116E-09 2.35590E-08
 -1        24-6.20146E+06-2.03633E+06-8.85722E+05-2.44015E+06-1.83500E-08-1.53280E-09
 -1        25 7.07273E+04 8.83324E+04 4.90881E+04-5.31500E+05 1.88775E-09-1.18380E-09
 -1        26-3.92864E+04 1.48917E+05-1.33456E+04-2.87184E+04 5.87170E-10-1.16286E-09
 -1        27-7.26056E+04-2.19926E+05-9.82897E+04 1.07212E+05-2.91857E-09 3.72711E-09
 -1        28 1.30381E+04-1.22593E+05 1.56895E+04 4.61130E+04 1.13897E-08 1.83228E-10
 -1        32-1.42692E+06-1.37538E+04 5.46696E+05-1.77398E+06-1.16561E-08-3.13275E-09
 -1        33-2.21086E+05 1.51012E+05 5.00830E+04-6.09671E+04-3.28707E-10 1.26104E-08
 -1        34-3.29352E+05-3.82575E+04-1.14720E+03 1.04806E+05 1.74888E-09-2.28768E-09
 -1        35-3.65505E+04-5.23866E+04-2.44037E+03 8.23075E+04 8.58799E-09-9.71219E-09
 -1        51 2.65921E+04-7.01885E+05 6.19798E+04-1.83898E+06-2.32831E-10 4.42378E-09
 -1        52 2.25644E+04-7.10643E+05 4.25868E+04-2.09419E+06 1.49885E-09 5.87897E-09
 -1        53 2.16277E+04-7.42782E+05 3.70055E+04-1.83290E+06 1.89175E-10-1.17288E-08
 -1        54 5.12322E+04-7.48565E+05 6.12447E+04-2.10010E+06 5.82077E-11-2.22644E-08
 -1        55 9.01237E+04-7.73632E+05 1.10655E+05-1.83147E+06-3.20142E-10 9.39326E-09
 -1        56-5.44143E+06-6.27540E+05-4.19690E+05-2.09252E+06-1.81171E-09 1.58907E-08
 -1        57-5.58375E+06-1.00311E+06-2.78541E+05-2.10429E+06-1.25874E-09 1.01500E-08
 -1        58-5.52667E+06-7.48653E+05-9.87891E+04-2.06523E+06 1.26238E-09 1.22818E-08
 -1        59-5.48519E+06-8.59132E+05-5.76690E+04-2.13820E+06-3.43766E-09-9.97898E-09
 -1        60-5.53878E+06-7.64091E+05-2.30109E+04-2.06131E+06-3.91174E-09-1.62090E-08
 -1        61-5.47449E+06-8.37178E+05-1.27916E+04-2.13851E+06-3.28760E-09-1.60352E-08
 -1        62-5.53691E+06-7.69845E+05-6.36206E+03-2.06505E+06 7.09406E-11-9.29754E-09
 -1        63-5.48299E+06-8.24051E+05-5.02445E+03-2.12570E+06-3.34512E-09 2.30473E-08
 -1        64-5.52958E+06-7.77552E+05-6.18976E+03-2.07368E+06 2.27374E-11 2.82853E-10
 -1        65-5.50111E+06-8.08622E+05-1.17210E+04-2.10481E+06-2.86536E-09-1.70894E-08
 -1        66-5.51818E+06-7.85773E+05-2.15816E+04-2.08545E+06-4.22006E-10-6.21003E-09
 -1        67-5.53349E+06-8.05999E+05-5.30267E+04-2.07824E+06 4.22096E-09 1.78015E-08
 -1        68-5.49733E+06-7.81069E+05-9.14248E+04-2.09990E+06-4.39150E-09-3.08864E-09
 -1        69-5.63953E+06-9.24856E+05-2.56958E+05-2.03218E+06 7.27596E-10 1.03209E-08
 -1        70-5.41418E+06-6.73188E+05-3.87359E+05-2.12960E+06-9.09495E-10-2.38651E-09
 -1        86-2.16231E+03 4.54485E+05 1.61113E+04-1.02837E+03-4.38831E-10 5.99357E-09
 -1        87 1.43475E+04 4.65616E+05 3.36738E+04 4.20614E+03-1.78443E-09-2.53881E-08
 -1        88-1.22857E+04 4.49335E+05 5.17226E+04-3.17926E+03-1.93904E-09 9.67248E-09
 -1        89 9.42201E+04 5.03754E+05 1.38814E+05 9.00358E+03-3.23416E-09-8.31005E-09
 -1        90-8.12364E+04 4.16470E+05 1.97219E+05-5.82150E+03-3.28873E-09-7.95444E-09
 -1       121-7.48244E+02-1.31936E+06 1.92790E+01 4.22369E+02 6.89212E-10 2.40470E-09
 -1       122-4.67464E+02-1.31777E+06 5.92777E+02-1.69948E+03-1.63018E-09-9.53150E-10
 -1       123-7.78030E+02-1.31943E+06 7.46458E+02 1.26544E+03 1.66301E-09 1.11031E-08
 -1       124 5.79386E+02-1.31721E+06 2.49560E+03-3.72930E+03-2.00453E-09-7.89441E-09
 -1       125-1.29538E+03-1.32007E+06 3.70631E+03 2.44387E+03 2.15186E-09 3.99814E-09
 -1       191-2.80645E+01 5.37465E+05 1.55231E+01-6.80735E-01 3.39442E-10-1.54323E-08
 -1       192-2.75796E+01 5.37423E+05 2.90055E+01 3.65690E+00 4.71807E-10-2.27919E-09
 -1       193-3.14400E+01 5.37464E+05 5.31288E+01-3.01604E+00 5.44429E-10-4.15275E-09
 -1       194-3.16735E+01 5.37428E+05 1.09790E+02 7.98360E+00 3.10834E-10-1.47738E-08
 -1       195-3.79230E+01 5.37460E+05 2.13927E+02-5.06074E+00 7.95083E-10 1.49357E-08
 -1       251 1.87239E+05-7.31631E+04 1.75855E+05 1.18944E+04-3.81078E-10-1.87356E-08
 -1       252 2.71308E+05 8.42620E+04 1.24605E+05-5.66277E+04 1.06957E-09 8.80937E-09
 -1       253 2.18186E+05-1.10499E+04 4.54504E+04 9.81704E+03 9.17225E-10 3.96722E-09
 -1       254 2.33826E+05 1.26376E+04 2.87642E+04-5.33908E+04-2.24190E-10 4.35102E-09
 -1       255 2.23802E+05-1.68856E+03 1.17248E+04 8.65627E+03 3.65617E-10-1.46792E-09
 -1       256 2.26542E+05 2.13002E+03 7.14042E+03-5.16787E+04-9.17851E-10 2.64220E-09
 -1       257 2.24981E+05-3.00350E+02 3.67479E+03 8.10498E+03-4.26326E-12-1.30835E-08
 -1       258 2.25230E+05 8.37235E+02 3.20312E+03-5.11467E+04-7.68253E-10-1.42530E-08
 -1       259 2.24965E+05-3.01432E+02 3.67174E+03 8.12489E+03-3.30033E-10-8.67772E-09
 -1       260 2.26632E+05 2.11838E+03 7.15658E+03-5.17639E+04-1.03910E-09 1.54402E-08
 -1       261 2.23751E+05-1.69245E+03 1.17172E+04 8.72150E+03 9.79298E-10-8.34507E-09
 -1       262 2.34020E+05 1.26179E+04 2.88055E+04-5.35588E+04 7.13044E-10-3.00552E-08
 -1       263 2.18092E+05-1.10613E+04 4.54476E+04 9.92011E+03-1.33468E-09 2.65754E-09
 -1       264 2.71647E+05 8.42698E+04 1.24710E+05-5.68926E+04-5.26802E-09 2.32449E-08
 -1       265 1.87076E+05-7.32154E+04 1.75894E+05 1.20571E+04-2.91857E-09-2.98314E-10
 -1       266-6.44186E+04-3.08540E+04 1.56849E+05-2.55837E+02 8.73115E-11 3.15578E-09
 -1       267 7.49078E+04 3.58518E+04 1.09943E+05 2.97694E+02 2.18279E-10 1.80961E-09
 -1       268-9.69595E+03-4.95792E+03 4.12336E+04-3.61149E+01 1.69166E-10-2.17636E-09
 -1       269 1.14619E+04 5.91240E+03 2.64943E+04 4.23022E+01-1.81899E-12-8.10448E-09
 -1       270-1.65789E+03-9.51617E+02 1.29322E+04-5.38424E+00-8.45830E-11 1.66381E-10
 -1       271-6.51815E+06-8.49624E+05-5.07476E+05-2.55753E+06-2.21917E-09 1.10012E-08
 -1       272-6.66529E+06-1.20725E+06-3.19685E+05-2.58642E+06 1.80489E-09 2.70666E-09
 -1       273-6.61614E+06-9.54579E+05-1.19836E+05-2.53317E+06-1.98997E-09-1.42609E-09
 -1       274-6.54928E+06-1.07383E+06-6.53255E+04-2.63066E+06 3.55067E-09-1.20435E-08
 -1       275-6.63383E+06-9.58834E+05-2.77999E+04-2.52404E+06-2.06637E-09-1.94595E-08
 -1       276-6.52896E+06-1.06857E+06-1.44004E+04-2.64685E+06 3.01952E-10 3.46290E-09
 -1       277-6.63907E+06-9.55870E+05-7.14757E+03-2.51985E+06 8.15817E-10 1.68329E-08
 -1       278-6.52488E+06-1.07048E+06-5.12806E+03-2.65178E+06 2.14459E-09 3.85580E-09
 -1       279-6.63901E+06-9.56051E+05-5.63785E+03-2.51997E+06-6.85759E-10-1.53977E-09
 -1       280-6.52879E+06-1.06757E+06-1.01867E+04-2.64630E+06-2.02635E-09-9.70613E-09
 -1       281-6.63390E+06-9.59691E+05-1.92748E+04-2.52438E+06-2.20643E-09-1.04737E-08
 -1       282-6.54578E+06-1.06741E+06-4.47168E+04-2.63016E+06-4.77576E-09-8.42738E-09
 -1       283-6.61915E+06-9.59608E+05-8.22611E+04-2.53337E+06-1.56433E-09-1.68075E-09
 -1       284-6.63015E+06-1.15283E+06-2.18615E+05-2.59250E+06-1.84627E-09-4.14730E-09
 -1       285-6.54863E+06-8.91615E+05-3.47788E+05-2.55383E+06-2.58115E-09-5.03496E-09
 -1       301 4.18991E+04 5.11456E+03 1.94606E+05-4.10661E+04-3.07773E-09 6.14244E-09
 -1       302 2.47036E+04 5.02846E+04 1.37282E+05-5.59193E+04 6.13136E-09 5.50369E-09
 -1       303 2.84392E+03 2.10505E+04 1.28054E+05-4.14571E+04-3.20142E-09 6.96991E-09
 -1       304 4.71906E+04 7.09085E+04 2.14372E+05-5.58118E+04 5.83532E-09 1.04731E-08
 -1       305 8.50276E+04-1.52895E+04 3.70798E+05-4.06776E+04-2.29920E-09 2.42367E-08
 -1       306-7.02856E+06-8.35992E+05-5.45990E+05-2.76902E+06 2.08092E-09-9.31323E-10
 -1       307-7.30542E+06-1.26564E+06-3.67061E+05-2.66046E+06-2.23918E-09-3.16868E-09
 -1       308-7.18578E+06-9.64805E+05-1.29341E+05-2.67960E+06 3.67208E-09-4.05998E-09
 -1       309-7.09887E+06-1.14314E+06-7.56783E+04-2.80117E+06 1.22780E-08 5.27052E-09
 -1       310-7.23574E+06-9.51992E+05-3.01409E+04-2.63148E+06 5.95219E-09-9.22955E-09
 -1       311-7.04261E+06-1.15759E+06-1.69256E+04-2.86134E+06 1.24869E-08 4.27463E-09
 -1       312-7.24474E+06-9.47560E+05-8.32548E+03-2.62178E+06 3.45563E-09 2.51009E-09
 -1       313-7.05483E+06-1.13663E+06-6.78115E+03-2.83995E+06-2.33363E-08 1.11368E-09
 -1       314-7.22211E+06-9.73849E+05-9.95953E+03-2.65189E+06-7.94080E-09 7.36964E-09
 -1       315-7.12158E+06-1.06921E+06-1.70495E+04-2.75233E+06 8.52197E-10 7.68023E-09
 -1       316-7.17448E+06-1.01753E+06-3.45354E+04-2.70678E+06-5.58884E-09 2.94131E-09
 -1       317-7.23617E+06-1.00788E+06-8.27969E+04-2.63991E+06-2.25509E-09-4.96766E-09
 -1       318-7.10801E+06-1.03581E+06-1.41468E+05-2.76421E+06-1.02746E-08 4.40923E-09
 -1       319-7.45432E+06-1.16481E+06-4.05075E+05-2.52039E+06-1.42463E-08 2.30175E-08
 -1       320-6.96185E+06-8.63376E+05-5.98286E+05-2.82748E+06-1.12195E-08 8.17818E-09
 -1       336-4.00648E+00-1.41621E+06-6.84807E+03 3.18323E+03-4.17367E-09 1.96087E-09
 -1       337-2.33889E+03-1.41667E+06-6.75253E+03-7.97024E+03 3.45744E-09-1.44064E-08
 -1       338-2.65087E+02-1.41656E+06-8.63351E+03 4.73145E+03-5.03292E-09 6.65023E-09
 -1       339-7.74363E+03-1.42069E+06-1.77359E+04-1.09843E+04 3.89628E-09 3.68527E-09
 -1       340 4.00988E+03-1.41276E+06-2.80926E+04 6.16744E+03-5.22368E-09 1.21508E-08
 -1       406 1.23473E+01 5.37441E+05 8.76414E+02-3.85920E+00 1.18195E-09 1.82445E-08
 -1       407 2.85157E+02 5.37605E+05 1.86437E+03-8.93643E+00 2.62105E-10-1.69275E-08
 -1       408 9.38381E+02 5.37306E+05 3.72223E+03 1.34381E+01 1.18916E-09-2.38397E-08
 -1       409 4.00639E+03 5.38793E+05 8.38080E+03-1.61468E+02-3.11275E-10-3.48609E-08
 -1       410 1.15482E+04 5.36244E+05 1.71079E+04 1.61639E+02 1.28966E-09-1.74332E-08
 -1       521-1.36321E+07-1.75616E+06-1.05576E+06-5.55062E+06 4.88944E-09-2.09548E-09
 -1       522-1.47461E+07-2.03439E+06-7.12946E+05-4.73408E+06 4.36557E-10-4.93310E-09
 -1       523-1.38342E+07-2.10861E+06-2.47717E+05-5.49214E+06-5.05315E-09-8.96398E-09
 -1       524-1.43082E+07-1.79406E+06-1.42488E+05-4.97572E+06-6.13591E-09-3.02680E-09
 -1       525-1.40499E+07-1.99838E+06-6.59621E+04-5.29903E+06 1.15324E-09 5.15865E-09
 -1       526-1.39019E+07-2.09604E+06-2.56793E+04-5.39142E+06 4.51109E-09-2.78305E-09
 -1       527-1.42332E+07-1.80873E+06-1.91529E+04-5.07250E+06 1.01172E-08-3.47336E-09
 -1       528-1.36936E+07-2.32669E+06-1.03825E+04-5.69638E+06 2.06364E-08 3.44619E-09
 -1       529-1.42761E+07-1.75243E+06-1.48716E+04-5.00786E+06 8.65384E-10 5.16775E-09
 -1       530-1.37587E+07-2.25945E+06-2.76156E+04-5.59680E+06-2.22590E-08-1.80507E-08
 -1       531-1.41612E+07-1.88331E+06-6.35534E+04-5.16639E+06 1.35187E-08 5.03496E-09
 -1       532-1.40993E+07-1.98628E+06-1.37575E+05-5.18694E+06 7.84257E-09-4.66935E-09
 -1       533-1.39238E+07-2.03677E+06-2.47299E+05-5.40782E+06-1.40608E-09-1.08266E-08
 -1       534-1.46794E+07-2.07405E+06-6.96355E+05-4.78508E+06 2.89583E-09 7.50879E-09
 -1       535-1.36031E+07-1.79130E+06-1.03114E+06-5.57973E+06-1.51340E-09 1.60653E-08
 -1       536-7.69658E+04-3.84060E+04 9.39301E+04 6.80562E+03 3.79350E-09 2.13549E-09
 -1       537-2.70682E+04 4.32378E+04 6.69547E+04-5.48534E+04-1.48334E-08-8.52560E-09
 -1       538-6.02479E+04-5.80961E+03 2.40450E+04 7.02635E+03 1.08139E-09-1.73322E-08
 -1       539-4.81807E+04 5.91991E+03 1.56287E+04-5.53956E+04 7.71433E-09-1.99755E-08
 -1       540-5.70300E+04-9.67966E+02 5.94741E+03 7.33409E+03 2.55841E-09 2.51930E-09
 -1       541-5.32284E+04 8.35575E+02 3.79106E+03-5.59240E+04 2.17324E-09 6.38352E-11
 -1       542-5.60773E+04-1.97612E+02 1.37534E+03 7.54783E+03 2.68301E-10 7.35292E-09
 -1       543-5.51617E+04 2.96189E+02 7.68085E+02-5.62614E+04 8.23547E-10 1.76269E-08
 -1       544-5.56715E+04-3.04312E+01 3.85838E+01 7.67101E+03 2.32058E-09 3.46819E-09
 -1       545-5.60124E+04 1.44023E+02-5.46468E+02-5.64163E+04-7.67812E-10-6.70912E-09
 -1       546-5.54919E+04 1.41636E+02-1.24574E+03 7.70372E+03 1.45974E-10 7.09178E-10
 -1       547-5.65061E+04-1.06265E+03-3.17335E+03-5.63874E+04-2.87486E-09 1.00108E-08
 -1       548-5.51303E+04 1.12348E+03-5.34182E+03 7.64183E+03-4.56703E-09-1.30694E-09
 -1       549-5.94550E+04-9.27566E+03-1.40740E+04-5.61510E+04-4.12365E-09-2.73940E-09
 -1       550-5.21837E+04 7.95082E+03-2.07140E+04 7.46638E+03 3.52429E-10 1.53705E-09
 -1       551 3.80468E+04-8.20684E+05 4.15864E+04-1.31310E+06-7.32689E-09-1.60217E-08
 -1       552 6.26361E+04-8.35368E+05 5.31008E+04-1.76897E+06 5.72618E-08 1.00845E-08
 -1       553 4.60244E+04-8.39331E+05 8.05722E+04-1.30919E+06-7.20320E-09 1.48393E-08
 -1       554 1.00250E+05-8.12296E+05 1.68636E+05-1.76948E+06 5.88625E-08 5.07862E-09
 -1       555 1.09870E+05-8.61924E+05 3.06445E+05-1.31087E+06-7.53789E-09-1.68438E-08
 -1       556 6.27017E+04-2.63930E+05 7.90266E+04-3.34508E+05-1.36788E-09 4.83124E-09
 -1       557 1.75048E+05-3.49968E+05 4.28377E+04-4.27020E+05-3.16504E-08-4.83851E-10
 -1       558 5.84683E+04-2.68915E+05 1.61682E+04-3.29075E+05-4.90400E-09 2.06273E-09
 -1       559 1.55247E+05-3.59333E+05 8.61651E+03-4.37232E+05 1.08921E-08-7.13044E-10
 -1       560 5.19065E+04-2.64497E+05 2.99353E+03-3.33626E+05 6.09725E-09 2.68119E-09
 -1       561 1.46040E+05-3.56263E+05 1.85697E+03-4.43192E+05 1.75351E-09 4.94947E-09
 -1       562 4.69011E+04-2.61188E+05 4.66611E+02-3.37211E+05 3.30328E-09 9.83619E-10
 -1       563 1.40175E+05-3.53762E+05 4.60546E+02-4.46984E+05 3.67436E-09 3.98893E-09
 -1       564 4.38511E+04-2.59198E+05 7.07606E+01-3.39360E+05 6.83940E-09-2.07401E-08
 -1       565 1.37208E+05-3.52498E+05 1.26997E+01-4.48872E+05 3.11775E-09-3.88718E-09
 -1       566 4.28378E+04-2.58515E+05-3.46044E+02-3.40082E+05-4.24461E-09 5.04951E-09
 -1       567 1.37033E+05-3.52474E+05-9.36770E+02-4.48835E+05 1.15720E-08-2.98678E-09
 -1       568 4.39642E+04-2.59238E+05-2.28434E+03-3.39418E+05 1.08521E-08-9.38599E-10
 -1       569 1.37605E+05-3.53840E+05-5.30065E+03-4.45714E+05-1.02391E-08 8.42556E-09
 -1       570 4.87057E+04-2.63644E+05-1.08325E+04-3.37583E+05 2.00816E-09-2.04091E-09
 -1       571 3.82183E+05 1.50741E+04 2.23884E+04-9.29085E+04-2.70393E-09 3.03680E-09
 -1       572 3.85501E+05 5.23079E+03 1.09709E+04-1.01826E+05-4.14730E-09 3.29237E-10
 -1       573 3.83477E+05 1.23808E+03 4.87358E+03-9.26558E+04 7.53062E-10-4.27735E-09
 -1       574 3.83859E+05 4.04454E+02 2.44267E+03-1.02101E+05 2.59570E-09-1.12495E-08
 -1       575 3.83598E+05 5.83918E+01 1.15053E+03-9.26235E+04-6.36237E-09 1.44646E-08
 -1       576 3.83621E+05 2.37776E+01 5.84678E+02-1.02138E+05-1.83830E-08-1.54432E-09
 -1       577 3.83613E+05-1.27313E+00 2.84833E+02-9.26193E+04-1.19221E-08 1.83700E-08
 -1       578 3.83604E+05 2.11307E+00 1.49151E+02-1.02142E+05-4.68549E-09 8.18818E-09
 -1       579 3.83652E+05-1.35578E+01 7.84824E+01-9.26189E+04-3.38059E-09-2.79033E-09
 -1       580 3.83662E+05-2.65893E+01 5.31886E+01-1.02138E+05-2.88128E-09-7.96717E-09
 -1       581 3.83732E+05-5.43685E+01 4.70047E+01-9.26236E+04-3.54703E-10 3.74712E-09
 -1       582 3.83778E+05-7.46707E+01 7.45866E+01-1.02086E+05 1.77170E-09 2.22735E-09
 -1       583 3.83851E+05-9.29199E+01 1.25946E+02-9.26712E+04 2.00816E-09-6.38511E-09
 -1       584 3.83977E+05-2.52672E+01 2.82771E+02-1.01680E+05-4.12547E-09-7.33303E-09
 -1       585 3.83964E+05 1.96113E+02 5.59645E+02-9.30291E+04 1.63527E-09 6.24277E-09
 -1       586-2.06377E+03 1.40041E+05-2.71851E+03-3.01440E+05 4.46107E-10 4.01133E-09
 -1       587 7.05866E+01 1.39635E+05 9.50755E+02-3.32886E+05 1.61344E-09-1.34904E-08
 -1       588 1.60455E+03 1.39526E+05 4.98925E+03-3.01209E+05 3.14685E-10-4.69936E-09
 -1       589 6.43755E+03 1.42002E+05 1.27914E+04-3.32685E+05 1.73895E-09 1.43118E-08
 -1       590 1.79694E+04 1.38184E+05 2.67190E+04-3.01643E+05 4.40650E-10 3.16868E-09
 -1       591-1.33574E+05-3.70264E+04-3.22344E+04-6.48593E+04-4.48222E-09-1.06575E-08
 -1       592-1.36345E+05-4.08131E+04-1.69143E+04-7.32431E+04-1.11515E-08-3.83443E-09
 -1       593-1.36196E+05-3.20074E+04-7.12379E+03-6.80607E+04-9.28276E-09-4.67298E-09
 -1       594-1.32228E+05-3.66360E+04-3.52447E+03-7.34161E+04 1.83627E-09 6.60964E-09
 -1       595-1.36413E+05-3.19172E+04-1.62567E+03-6.81858E+04-6.51880E-10 1.28154E-08
 -1       596-1.31962E+05-3.64740E+04-8.23760E+02-7.33807E+04-6.46367E-10-2.56023E-09
 -1       597-1.36445E+05-3.19400E+04-4.46863E+02-6.81885E+04-4.35641E-09-4.16242E-09
 -1       598-1.31934E+05-3.64708E+04-3.54843E+02-7.33703E+04-1.57815E-08 6.82940E-09
 -1       599-1.36441E+05-3.19421E+04-4.48258E+02-6.81869E+04-8.70614E-10-3.72484E-09
 -1       600-1.31956E+05-3.64768E+04-8.27221E+02-7.33741E+04 9.51331E-09 6.58292E-09
 -1       601-1.36402E+05-3.19231E+04-1.63239E+03-6.81805E+04 4.18913E-09 1.83263E-10
 -1       602-1.32219E+05-3.66397E+04-3.53865E+03-7.34007E+04-4.62023E-10-6.88033E-09
 -1       603-1.36177E+05-3.20208E+04-7.15231E+03-6.80541E+04-2.12822E-10-5.18776E-09
 -1       604-1.36371E+05-4.08073E+04-1.69786E+04-7.31899E+04 3.33193E-09 2.01576E-08
 -1       605-1.33513E+05-3.70828E+04-3.23568E+04-6.48637E+04 2.72075E-09 1.01409E-08
 -1       606 8.77601E+04-1.62663E+04-3.07541E+04 4.69915E+04-6.93763E-09 1.71167E-09
 -1       607 8.23434E+04-5.20759E+03-1.53808E+04 5.32168E+04-2.84490E-09-1.31722E-08
 -1       608 8.53558E+04-8.03460E+02-6.90383E+03 4.66030E+04 1.79352E-09 3.82806E-09
 -1       609 8.47472E+04-1.75509E+02-3.49101E+03 5.36390E+04-4.97676E-09 1.73554E-08
 -1       610 8.50344E+04 7.99058E+01-1.67554E+03 4.65617E+04-7.86349E-09 9.75842E-09
 -1       611 8.48970E+04 1.24102E+02-8.43947E+02 5.36817E+04-1.44319E-08-1.40744E-09
 -1       612 8.49202E+04 1.23033E+02-4.06408E+02 4.65584E+04-6.99038E-09 2.39015E-09
 -1       613 8.48495E+04 1.60867E+02-1.83169E+02 5.36854E+04-1.28566E-08-1.32441E-08
 -1       614 8.48471E+04 1.45077E+02-5.00908E+01 4.65574E+04-1.74987E-09 2.00134E-09
 -1       615 8.47956E+04 1.89142E+02 6.38253E+01 5.36851E+04 1.16825E-08-2.91402E-09
 -1       616 8.47919E+04 1.69632E+02 2.02496E+02 4.65582E+04-5.58157E-09-1.22859E-08
 -1       617 8.47853E+04 2.46630E+02 4.67769E+02 5.36831E+04 1.32786E-10 2.98269E-09
 -1       618 8.47280E+04 3.02088E+02 9.42418E+02 4.65586E+04 1.16552E-08-5.12273E-09
 -1       619 8.51061E+04 9.46517E+02 2.11504E+03 5.36793E+04 2.01287E-08-2.14959E-09
 -1       620 8.43943E+04 2.43599E+03 4.23170E+03 4.65553E+04 1.36981E-08-1.02150E-08
 -1       621 5.91877E+02 4.03262E+05 3.55422E+03-1.47186E+04-8.55493E-10 9.22125E-09
 -1       622 4.29983E+02 4.04048E+05 3.97889E+03-1.97764E+04-1.56888E-10-3.02691E-09
 -1       623 1.18931E+02 4.03365E+05 5.95732E+03-1.47199E+04-1.08412E-09-3.22370E-09
 -1       624 2.87989E+03 4.06300E+05 1.23816E+04-1.97131E+04-1.68939E-10 1.59664E-08
 -1       625 5.27889E+03 4.01025E+05 2.27256E+04-1.47785E+04-5.14774E-10 3.22871E-11
 -1       626 3.44990E+05 9.82481E+04 6.13970E+03 1.90925E+05-1.27384E-08 6.23550E-09
 -1       627 3.39356E+05 1.02927E+05 2.97909E+03 1.99256E+05-1.93786E-08 1.34080E-08
 -1       628 3.45228E+05 9.54519E+04 1.25489E+03 1.91715E+05-2.89583E-09 1.59430E-08
 -1       629 3.38330E+05 1.02345E+05 6.20619E+02 1.99641E+05 5.49426E-09-8.38440E-10
 -1       630 3.45186E+05 9.53630E+04 2.87660E+02 1.91691E+05 9.02764E-09-7.29051E-09
 -1       631 3.38162E+05 1.02361E+05 1.62876E+02 1.99604E+05-2.97678E-09-1.04130E-08
 -1       632 3.45126E+05 9.53989E+04 1.18350E+02 1.91650E+05-6.32099E-09-1.50433E-08
 -1       633 3.38104E+05 1.02385E+05 1.51660E+02 1.99565E+05 5.37693E-09 1.20110E-09
 -1       634 3.45082E+05 9.54113E+04 2.60612E+02 1.91628E+05 4.81668E-09-1.74859E-08
 -1       635 3.38101E+05 1.02393E+05 5.38048E+02 1.99554E+05 9.83891E-09-1.47893E-08
 -1       636 3.45047E+05 9.54066E+04 1.09010E+03 1.91618E+05 1.50840E-08 3.10365E-09
 -1       637 3.38316E+05 1.02546E+05 2.39255E+03 1.99555E+05 3.05193E-08-3.12466E-08
 -1       638 3.44957E+05 9.58574E+04 4.90821E+03 1.91404E+05 6.84122E-09-1.70694E-08
 -1       639 3.40899E+05 1.05968E+05 1.15962E+04 1.98908E+05 2.92766E-09-1.48439E-08
 -1       640 3.44529E+05 1.05926E+05 2.39371E+04 1.87053E+05 7.09679E-09 7.83530E-10
 -1       656 4.60528E+04-1.21046E+06-1.19906E+05-3.88003E+03-3.30328E-09 1.62026E-09
 -1       657-6.11619E+04-1.26258E+06-9.77800E+04 4.74307E+04-6.87669E-09 7.39624E-09
 -1       658 1.39159E+04-1.22573E+06-6.14990E+04-5.22825E+03-2.53863E-09-5.42855E-09
 -1       659-6.65908E+04-1.26534E+06-1.05239E+05 4.83212E+04-4.87853E-09-9.78773E-10
 -1       660 5.14230E+04-1.20776E+06-1.32875E+05-4.77003E+03-6.59202E-09-8.90350E-09
 -1       661 3.49343E+05 4.11769E+04 3.10142E+04 1.36059E+05 2.73621E-09-4.64388E-09
 -1       662 3.61144E+05 6.50623E+04 2.02123E+04 1.35350E+05-3.82715E-09-1.67595E-08
 -1       663 3.55062E+05 4.97375E+04 7.32931E+03 1.34792E+05-9.26320E-10 8.11815E-09
 -1       664 3.54563E+05 5.46837E+04 4.18891E+03 1.37068E+05 8.98297E-10 1.78716E-08
 -1       665 3.55817E+05 5.07710E+04 1.72596E+03 1.34640E+05 4.61455E-10-8.61405E-10
 -1       666 3.53681E+05 5.34622E+04 9.67778E+02 1.37292E+05 9.78787E-10 1.74413E-09
 -1       667 3.55936E+05 5.08738E+04 5.31634E+02 1.34601E+05 1.61640E-09 1.02328E-08
 -1       668 3.53545E+05 5.33909E+04 5.20583E+02 1.37368E+05 3.65600E-09 3.10149E-09
 -1       669 3.55955E+05 5.08334E+04 7.23321E+02 1.34569E+05 5.43776E-09 9.56788E-09
 -1       670 3.53658E+05 5.36883E+04 1.51552E+03 1.37419E+05 2.88532E-09-7.82620E-09
 -1       671 3.55829E+05 5.05859E+04 2.79928E+03 1.34549E+05-4.72670E-09-1.19785E-08
 -1       672 3.54979E+05 5.58383E+04 6.86380E+03 1.37218E+05-8.40058E-09-7.43330E-09
 -1       673 3.54657E+05 4.88174E+04 1.20265E+04 1.34721E+05-4.37547E-09 8.69022E-10
 -1       674 3.65671E+05 7.30105E+04 3.31925E+04 1.34550E+05-6.67046E-09-5.68070E-09
 -1       675 3.45323E+05 3.46982E+04 5.09311E+04 1.36735E+05 3.92174E-09-3.15413E-09
 -1       676 2.80290E+01-4.03179E+05-1.61536E+03 1.25220E+02 2.12651E-09-2.45064E-09
 -1       677-3.41338E+02-4.03530E+05-2.92741E+03-2.50199E+02-1.60975E-09-6.79620E-09
 -1       678 2.01620E+02-4.02928E+05-5.24066E+03 1.24867E+02 2.99224E-09 1.28243E-08
 -1       679-4.70843E+03-4.06593E+05-1.22700E+04-2.48711E+02-8.57654E-09 1.83916E-08
 -1       680 2.22676E+03-4.00119E+05-2.01698E+04 1.21518E+02 8.79481E-10 7.02293E-09
 -1       771-4.09308E+06-7.75019E+05-9.81186E+04-1.75049E+06-2.45345E-08-1.01281E-08
 -1       772-4.06462E+06-8.14322E+05-5.06090E+04-1.80852E+06-3.17814E-08-6.11180E-10
 -1       773-4.10712E+06-7.55208E+05-2.30354E+04-1.75931E+06-1.45519E-11 1.32932E-08
 -1       774-4.05388E+06-8.04668E+05-1.09567E+04-1.81804E+06 1.87938E-08-3.58159E-09
 -1       775-4.11298E+06-7.51036E+05-6.23336E+03-1.76094E+06 1.01281E-08-4.34011E-09
 -1       776-4.05596E+06-8.04449E+05-2.78814E+03-1.82434E+06 1.46974E-09-1.08048E-09
 -1       777-4.11772E+06-7.47752E+05-2.20323E+03-1.76227E+06 2.32831E-09 7.11589E-09
 -1       778-4.05860E+06-8.04351E+05-1.07299E+03-1.82963E+06 3.09956E-09 4.89490E-09
 -1       779-4.12160E+06-7.44976E+05-1.47769E+03-1.76342E+06 1.81899E-09 1.42427E-09
 -1       780-4.06096E+06-8.04215E+05-1.65346E+03-1.83384E+06 2.91038E-10 4.87944E-10
 -1       781-4.12446E+06-7.42802E+05-3.26153E+03-1.76429E+06-1.43264E-08-3.47063E-09
 -1       782-4.06317E+06-8.04368E+05-6.52701E+03-1.83685E+06-4.83851E-09-8.51992E-09
 -1       783-4.12596E+06-7.41619E+05-1.32401E+04-1.76464E+06-3.04863E-09-6.05814E-09
 -1       784-4.07177E+06-8.12053E+05-3.13499E+04-1.83815E+06-2.41471E-08-1.25819E-08
 -1       785-4.12186E+06-7.50385E+05-5.98447E+04-1.75904E+06-4.49290E-09-5.61704E-09
 -1       786 3.24523E+05-1.56641E+04 3.94721E+04 2.64105E+02 2.17413E-09 1.67347E-09
 -1       787 3.41082E+05 1.82737E+04 2.74199E+04-1.81322E+03-2.57640E-09-7.64430E-09
 -1       788 3.31020E+05-2.27978E+03 1.02407E+04 2.38665E+02 9.46265E-10-2.53294E-09
 -1       789 3.33582E+05 2.65345E+03 6.26852E+03-1.78006E+03-8.33111E-10 3.70665E-09
 -1       790 3.32026E+05-3.30825E+02 2.62000E+03 2.30971E+02 8.46298E-10-1.33718E-09
 -1       791 3.32418E+05 3.85714E+02 1.50483E+03-1.78188E+03 4.28120E-11-7.25140E-09
 -1       792 3.32184E+05-4.99779E+01 7.13944E+02 2.40484E+02-2.26635E-10 5.48653E-09
 -1       793 3.32243E+05 7.38122E+01 4.79043E+02-1.81851E+03-1.40055E-10-7.89496E-09
 -1       794 3.32202E+05-2.35532E+01 3.94794E+02 2.67610E+02 1.56064E-10-5.25370E-09
 -1       795 3.32279E+05 1.41785E+02 6.04885E+02-1.89106E+03 2.88381E-10 6.32182E-09
 -1       796 3.32149E+05-1.17257E+02 9.56448E+02 3.13034E+02-1.06400E-09 1.69166E-10
 -1       797 3.32686E+05 9.32531E+02 2.22259E+03-2.00085E+03 2.81062E-10 4.34000E-11
 -1       798 3.31795E+05-8.01762E+02 3.60763E+03 3.77392E+02-3.79885E-10 8.31437E-09
 -1       799 3.35325E+05 6.42187E+03 9.64360E+03-2.15109E+03-1.95675E-09 1.04269E-08
 -1       800 3.29510E+05-5.50687E+03 1.38733E+04 4.63229E+02-3.89832E-10 3.81260E-09
 -1       801-6.00745E+04 3.17013E+05 3.05630E+04 2.24139E+05 7.66222E-08-1.00918E-08
 -1       802 1.40601E+05 4.87107E+05 1.17606E+05-1.73492E+06 6.77974E-08-1.27166E-08
 -1       803-2.69610E+04 4.25095E+05 1.22559E+05 2.13215E+05 1.52919E-07 3.53000E-08
 -1       804 2.82758E+05 5.92885E+05 3.22208E+05-1.73811E+06 5.93936E-08 3.32157E-08
 -1       805-2.09059E+05 2.24959E+05 3.72359E+05 2.27000E+05 7.22066E-08 2.27446E-08
 -1       806-3.63852E+05-8.53229E+04-3.21221E+04-1.57156E+05-9.08767E-09 1.65637E-08
 -1       807-3.65022E+05-7.93545E+04-1.55571E+04-1.66259E+05-1.17466E-08 2.02216E-08
 -1       808-3.64345E+05-7.19224E+04-6.58351E+03-1.63170E+05-6.38215E-09 1.51507E-08
 -1       809-3.61757E+05-7.45852E+04-3.20655E+03-1.66970E+05 2.59638E-09 4.69572E-09
 -1       810-3.64465E+05-7.13214E+04-1.46135E+03-1.63481E+05 3.87899E-09-2.43767E-09
 -1       811-3.61482E+05-7.43665E+04-7.22475E+02-1.66948E+05-1.41154E-09-8.10132E-09
 -1       812-3.64485E+05-7.13446E+04-3.56587E+02-1.63481E+05-3.00906E-09 3.64253E-10
 -1       813-3.61440E+05-7.43729E+04-2.17613E+02-1.66922E+05 2.52840E-10-1.37738E-08
 -1       814-3.64473E+05-7.13622E+04-1.93063E+02-1.63471E+05 2.16460E-10-1.45506E-08
 -1       815-3.61433E+05-7.43817E+04-2.89480E+02-1.66907E+05-4.89536E-09 1.80898E-09
 -1       816-3.64441E+05-7.13720E+04-5.35432E+02-1.63458E+05-2.29556E-09 1.77015E-08
 -1       817-3.61520E+05-7.44527E+04-1.14649E+03-1.66873E+05-6.45196E-09 6.22185E-09
 -1       818-3.64359E+05-7.16170E+04-2.34440E+03-1.63350E+05 2.92221E-09 2.81034E-09
 -1       819-3.62803E+05-7.60015E+04-5.52582E+03-1.66423E+05-2.40107E-10-8.02629E-10
 -1       820-3.64019E+05-7.65160E+04-1.14097E+04-1.61354E+05-7.93079E-10 3.79441E-09
 -1       821-5.09426E+05 2.46444E+04-6.20752E+04-8.07854E+02-3.57966E-09 3.09592E-09
 -1       822-5.35421E+05-2.87486E+04-4.31261E+04 3.04181E+03-3.22188E-09-4.80213E-10
 -1       823-5.19638E+05 3.58291E+03-1.61149E+04-1.12135E+03 4.41264E-09 4.35648E-09
 -1       824-5.23638E+05-4.16738E+03-9.87352E+03 3.60717E+03-1.51934E-09 2.64345E-09
 -1       825-5.21210E+05 5.17180E+02-4.16353E+03-1.37346E+03-8.12486E-09-2.24895E-09
 -1       826-5.21830E+05-6.02073E+02-2.45450E+03 4.04169E+03-1.42395E-08-1.22281E-08
 -1       827-5.21449E+05 8.15977E+01-1.29801E+03-1.55597E+03-6.95590E-09-9.33511E-10
 -1       828-5.21599E+05-1.58835E+02-1.13017E+03 4.32962E+03-1.04354E-08-5.32950E-09
 -1       829-5.21445E+05 8.37255E+01-1.32188E+03-1.66142E+03 1.40746E-09-8.63446E-09
 -1       830-5.21860E+05-6.16394E+02-2.52660E+03 4.45849E+03 4.27842E-09-2.23003E-08
 -1       831-5.21191E+05 5.34017E+02-4.29004E+03-1.68483E+03-5.26027E-09 4.07385E-09
 -1       832-5.23742E+05-4.29270E+03-1.01917E+04 4.42465E+03-4.65014E-09 1.98764E-08
 -1       833-5.19564E+05 3.69825E+03-1.66256E+04-1.62747E+03-3.45150E-09 1.45319E-08
 -1       834-5.35914E+05-2.96593E+04-4.45115E+04 4.24098E+03-2.87571E-10-8.37554E-09
 -1       835-5.09023E+05 2.54350E+04-6.40557E+04-1.50047E+03 2.22207E-09 9.72432E-09
 -1       836-4.22001E+03 5.72900E+05 4.17143E+04-3.45685E+04-2.26646E-09-5.23869E-09
 -1       837 1.03614E+04 5.86415E+05 3.36845E+04-7.78968E+04 8.20421E-10-1.60587E-08
 -1       838-1.13621E+03 5.77013E+05 3.07696E+04-3.44816E+04-3.72347E-09-9.03356E-10
 -1       839 2.04671E+04 5.93469E+05 5.58437E+04-7.79043E+04 1.13505E-09 1.47963E-10
 -1       840-9.26573E+03 5.65763E+05 8.60265E+04-3.45564E+04-3.49610E-09 8.61655E-09
 -1       856-2.56010E+05 1.25289E+04-4.18428E+04 1.52369E+03-7.53471E-09 5.82077E-10
 -1       857-2.72079E+05-1.54452E+04-2.76825E+04 1.64344E+04-9.53787E-09 1.32650E-08
 -1       858-2.62572E+05 1.48300E+03-1.08709E+04 1.43476E+03-9.80708E-09-7.98082E-09
 -1       859-2.64711E+05-1.73460E+03-6.25979E+03 1.65652E+04-1.95212E-09-2.00289E-08
 -1       860-2.63418E+05 1.83155E+02-2.76105E+03 1.39088E+03 1.07821E-09-7.96695E-09
 -1       861-2.63768E+05-1.30836E+02-1.49511E+03 1.66237E+04-4.97351E-09 3.38102E-09
 -1       862-2.63536E+05 3.02620E+01-7.17679E+02 1.37585E+03 1.52699E-08-6.47088E-09
 -1       863-2.63636E+05 5.10836E+01-4.17370E+02 1.66280E+04 1.69164E-08-7.23617E-09
 -1       864-2.63551E+05 1.29969E+01-2.85147E+02 1.38657E+03 1.63022E-08-7.63580E-09
 -1       865-2.63618E+05 3.54048E+01-3.28611E+02 1.65793E+04 1.30814E-08-7.66509E-09
 -1       866-2.63535E+05 3.08246E+01-4.95864E+02 1.42466E+03 2.61480E-10-3.06966E-09
 -1       867-2.63734E+05-2.36298E+02-1.04054E+03 1.64759E+04 6.91193E-09-5.37215E-09
 -1       868-2.63396E+05 2.34757E+02-1.79422E+03 1.49009E+03 4.78326E-09-7.27709E-10
 -1       869-2.64886E+05-2.49054E+03-4.52161E+03 1.62871E+04-5.36011E-09-3.32804E-09
 -1       870-2.62325E+05 2.02590E+03-6.85551E+03 1.61381E+03 3.07273E-09-2.08183E-09
 -1       871-6.30039E+03-3.32639E+04-2.20634E+04 1.74261E+05-4.94947E-09 1.10049E-09
 -1       872-3.25094E+03-3.84199E+04-8.72884E+03 2.31977E+05-1.28830E-08-8.84211E-09
 -1       873-2.49528E+02-3.62435E+04 2.14131E+03 1.73862E+05-5.88170E-09-4.15594E-09
 -1       874 3.61776E+03-3.23520E+04 1.46116E+04 2.32066E+05-7.84530E-09 6.22185E-09
 -1       875 7.60175E+03-3.96057E+04 3.14129E+04 1.74203E+05-6.99038E-09 6.97128E-09
 -1       876 4.53809E+05 7.37468E+04 3.03472E+04 1.81376E+05-4.68583E-09 1.61526E-09
 -1       877 4.57693E+05 8.28088E+04 1.67818E+04 1.88193E+05-2.16392E-09 8.80391E-09
 -1       878 4.57220E+05 7.30044E+04 6.91997E+03 1.83080E+05 6.61157E-09-1.03073E-08
 -1       879 4.53219E+05 7.79679E+04 3.48132E+03 1.88463E+05 9.63155E-09 8.57335E-09
 -1       880 4.57466E+05 7.30608E+04 1.60131E+03 1.83173E+05 7.86804E-09 2.01828E-09
 -1       881 4.52903E+05 7.77105E+04 8.39721E+02 1.88418E+05 6.07497E-09 1.76692E-09
 -1       882 4.57487E+05 7.30887E+04 5.03150E+02 1.83180E+05 8.44034E-09 1.04492E-08
 -1       883 4.52880E+05 7.76937E+04 4.90204E+02 1.88400E+05 1.12343E-08 5.88085E-09
 -1       884 4.57477E+05 7.30880E+04 7.31950E+02 1.83181E+05-4.22574E-09 1.56865E-08
 -1       885 4.52941E+05 7.77153E+04 1.44517E+03 1.88414E+05 6.20812E-09 1.76510E-09
 -1       886 4.57420E+05 7.30490E+04 2.89039E+03 1.83171E+05-1.47879E-08-4.36921E-09
 -1       887 4.53524E+05 7.81785E+04 6.35266E+03 1.88471E+05-1.09509E-08-2.66391E-09
 -1       888 4.56949E+05 7.29582E+04 1.26607E+04 1.83000E+05-6.11919E-09-6.47651E-09
 -1       889 4.61637E+05 8.71069E+04 3.07162E+04 1.88032E+05-1.06573E-08-2.80352E-09
 -1       890 4.50761E+05 7.42595E+04 5.55582E+04 1.79795E+05-3.12411E-10 6.64113E-09
 -1       891-1.36038E+02-2.49714E+05-6.76802E+03 4.31702E+04-1.93094E-09 3.10172E-09
 -1       892-1.35744E+03-2.51557E+05-5.50224E+03 7.50127E+04-2.25373E-09-2.87559E-09
 -1       893-6.26276E+01-2.50271E+05-5.60839E+03 4.31533E+04-5.75892E-09-2.56296E-09
 -1       894-3.19053E+03-2.52882E+05-1.03201E+04 7.48007E+04-4.55384E-09 1.54600E-08
 -1       895-3.76282E+02-2.48108E+05-1.69331E+04 4.33771E+04-6.81257E-09 6.61566E-09
 -1       956-5.21531E+05-7.53679E+03-2.07096E+04 4.28767E+04-7.95262E-09-5.01450E-09
 -1       957-5.25773E+05-2.63592E+03-1.07093E+04 5.25729E+04-5.51881E-09-1.16652E-08
 -1       958-5.23488E+05-1.42848E+02-4.82976E+03 4.25811E+04 4.16185E-09-8.44420E-09
 -1       959-5.23847E+05 3.87675E+01-2.46679E+03 5.28931E+04-2.15550E-09-3.11775E-09
 -1       960-5.23695E+05 1.30122E+02-1.20349E+03 4.25504E+04-5.99903E-09 9.88075E-09
 -1       961-5.23753E+05 1.59428E+02-6.32486E+02 5.29298E+04-1.14283E-08 1.14301E-08
 -1       962-5.23757E+05 1.40188E+02-3.53951E+02 4.25435E+04-5.61431E-09 7.04313E-09
 -1       963-5.23773E+05 1.77055E+02-2.67929E+02 5.29393E+04-1.33577E-08 8.65384E-10
 -1       964-5.23779E+05 1.52371E+02-3.07009E+02 4.25405E+04-3.76326E-09-6.83349E-09
 -1       965-5.23799E+05 1.86528E+02-5.15131E+02 5.29408E+04 7.07989E-09-3.72256E-09
 -1       966-5.23763E+05 1.65537E+02-9.59607E+02 4.25419E+04-7.04267E-09 1.13187E-09
 -1       967-5.23911E+05 1.11568E+02-1.96205E+03 5.29225E+04 8.09678E-10 5.17593E-09
 -1       968-5.23626E+05-3.29845E+01-3.83509E+03 4.25593E+04 4.48745E-09 5.86181E-09
 -1       969-5.25475E+05-1.99860E+03-8.51104E+03 5.27262E+04 3.26690E-09 3.54817E-10
 -1       970-5.22091E+05-5.89984E+03-1.64548E+04 4.27481E+04 3.13958E-09 8.83301E-09
 -1       971-5.37191E+05-1.42299E+03-1.72044E+04 1.92069E+04-3.22052E-09-3.36831E-09
 -1       972-5.41789E+05-2.52766E+03-9.67503E+03 3.01213E+04-1.22418E-09-1.49339E-09
 -1       973-5.39287E+05 3.80213E+01-4.28227E+03 1.90086E+04-1.03955E-08 6.73481E-10
 -1       974-5.39643E+05-1.04559E+01-2.23146E+03 3.03431E+04-1.37002E-08 2.47746E-09
 -1       975-5.39464E+05 8.07609E+01-1.10571E+03 1.89802E+04-2.00544E-09 3.42106E-09
 -1       976-5.39522E+05 1.20195E+02-6.26444E+02 3.03828E+04-7.26391E-09-8.09109E-09
 -1       977-5.39500E+05 8.68415E+01-4.35033E+02 1.89683E+04 9.05720E-09-8.71296E-10
 -1       978-5.39535E+05 1.36348E+02-4.82077E+02 3.03995E+04 2.70998E-08-1.15683E-08
 -1       979-5.39502E+05 9.94037E+01-7.52419E+02 1.89633E+04 1.20457E-08 2.11253E-09
 -1       980-5.39594E+05 1.32218E+02-1.44109E+03 3.04023E+04 1.45002E-08-3.93027E-09
 -1       981-5.39452E+05 1.26924E+02-2.78144E+03 1.89654E+04 5.67934E-09-1.01252E-09
 -1       982-5.40010E+05-1.57827E+02-5.77214E+03 3.03862E+04-2.36241E-10 8.80797E-09
 -1       983-5.39058E+05 6.82026E+01-1.11321E+04 1.89804E+04 1.33900E-08-8.41283E-10
 -1       984-5.45737E+05-6.66668E+03-2.52317E+04 3.02438E+04 3.24144E-09-9.42509E-09
 -1       985-5.33660E+05-3.68164E+03-4.48524E+04 1.91253E+04 1.28994E-08-9.99171E-09
 -3
 9999
