
 stresses (elem, integ.pnt.,sxx,syy,szz,sxy,sxz,syz) for set ELALL and time  0.1000000E+01

         1   1  3.223193E+06  1.187451E+07  3.066261E+06 -2.105747E+06  1.527017E+05  1.098520E+06
         1   2  2.609924E+06  1.011163E+07  2.102758E+06 -1.917111E+06  5.116311E+05  4.922717E+05
         1   3  2.166116E+06  8.478737E+06  1.573406E+06 -2.028694E+06  5.904549E+05 -1.118258E+05
         1   4  1.190667E+05 -7.890967E+05  1.258114E+05 -1.987749E+06  1.568766E+05  8.248657E+04
         1   5  3.230904E+04 -7.979465E+05  6.534835E+04 -1.837935E+06  5.147460E+05  5.177741E+04
         1   6  1.756585E+04 -7.772279E+05  4.417213E+04 -1.988349E+06  5.903173E+05  2.136191E+04
         1   7 -2.995739E+06 -1.330419E+07 -2.821621E+06 -1.871794E+06  1.607391E+05 -9.132731E+05
         1   8 -2.552036E+06 -1.159311E+07 -1.976473E+06 -1.759876E+06  5.177900E+05 -3.812691E+05
         1   9 -2.135385E+06 -9.949161E+06 -1.487558E+06 -1.948359E+06  5.901950E+05  1.526494E+05
         1  10  3.222850E+06  1.187322E+07  3.063988E+06 -2.105882E+06 -3.874519E-10  1.112962E-08
         1  11  2.609578E+06  1.011130E+07  2.101815E+06 -1.917313E+06 -5.189642E-10 -1.524067E-09
         1  12  2.165739E+06  8.478630E+06  1.572729E+06 -2.028641E+06 -7.198590E-09 -1.299538E-08
         1  13  1.190384E+05 -7.891107E+05  1.257521E+05 -1.987760E+06  1.821810E-09  8.219147E-11
         1  14  3.202381E+04 -7.980206E+05  6.484522E+04 -1.837957E+06 -7.389759E-10 -2.874975E-11
         1  15  1.719162E+04 -7.773219E+05  4.351648E+04 -1.988360E+06 -5.279393E-09 -2.419402E-10
         1  16 -2.995995E+06 -1.330511E+07 -2.823268E+06 -1.871676E+06  8.306780E-09 -1.111871E-08
         1  17 -2.552362E+06 -1.159334E+07 -1.977252E+06 -1.759716E+06  2.482621E-09  1.223893E-09
         1  18 -2.135766E+06 -9.949280E+06 -1.488258E+06 -1.948432E+06 -1.844589E-11  1.256739E-08
         1  19  3.223193E+06  1.187451E+07  3.066261E+06 -2.105747E+06 -1.527017E+05 -1.098520E+06
         1  20  2.609924E+06  1.011163E+07  2.102758E+06 -1.917111E+06 -5.116311E+05 -4.922717E+05
         1  21  2.166116E+06  8.478737E+06  1.573406E+06 -2.028694E+06 -5.904549E+05  1.118258E+05
         1  22  1.190667E+05 -7.890967E+05  1.258114E+05 -1.987749E+06 -1.568766E+05 -8.248657E+04
         1  23  3.230904E+04 -7.979465E+05  6.534835E+04 -1.837935E+06 -5.147460E+05 -5.177741E+04
         1  24  1.756585E+04 -7.772279E+05  4.417213E+04 -1.988349E+06 -5.903173E+05 -2.136191E+04
         1  25 -2.995739E+06 -1.330419E+07 -2.821621E+06 -1.871794E+06 -1.607391E+05  9.132731E+05
         1  26 -2.552036E+06 -1.159311E+07 -1.976473E+06 -1.759876E+06 -5.177900E+05  3.812691E+05
         1  27 -2.135385E+06 -9.949161E+06 -1.487558E+06 -1.948359E+06 -5.901950E+05 -1.526494E+05
         2   1  1.912416E+06  7.385963E+06  1.360713E+06 -2.039238E+06  5.427347E+05 -1.123071E+05
         2   2  1.511594E+06  5.680829E+06  1.038579E+06 -1.868019E+06  4.656263E+05 -1.942307E+05
         2   3  1.137978E+06  3.995200E+06  7.759772E+05 -2.016900E+06  3.575557E+05 -2.764941E+05
         2   4  2.129340E+04 -7.790260E+05  3.882507E+04 -1.992784E+06  5.423998E+05  1.435918E+04
         2   5  2.321571E+04 -7.782983E+05  3.748510E+04 -1.832595E+06  4.644340E+05 -4.517628E+03
         2   6  4.166914E+04 -7.717136E+05  5.223410E+04 -1.992702E+06  3.553384E+05 -2.394484E+04
         2   7 -1.873191E+06 -8.878327E+06 -1.284853E+06 -1.946739E+06  5.420804E+05  1.394319E+05
         2   8 -1.467173E+06 -7.195905E+06 -9.644412E+05 -1.797410E+06  4.632545E+05  1.833100E+05
         2   9 -1.055692E+06 -5.515807E+06 -6.717479E+05 -1.968611E+06  3.531290E+05  2.267509E+05
         2  10  1.912096E+06  7.385870E+06  1.360137E+06 -2.039190E+06 -9.697715E-09  1.354005E-07
         2  11  1.511351E+06  5.680731E+06  1.038102E+06 -1.867947E+06 -5.990684E-09 -1.722362E-09
         2  12  1.137820E+06  3.995085E+06  7.755958E+05 -2.016821E+06 -5.778438E-09 -1.386935E-07
         2  13  2.097752E+04 -7.791052E+05  3.827193E+04 -1.992790E+06 -3.909293E-09 -1.642489E-10
         2  14  2.298419E+04 -7.783562E+05  3.707992E+04 -1.832593E+06 -3.430705E-09  1.090188E-10
         2  15  4.153350E+04 -7.717480E+05  5.199598E+04 -1.992695E+06 -6.171352E-09  3.134394E-10
         2  16 -1.873512E+06 -8.878427E+06 -1.285443E+06 -1.946801E+06  3.086511E-09 -1.336228E-07
         2  17 -1.467413E+06 -7.195999E+06 -9.649092E+05 -1.797479E+06 -5.071029E-09  2.200453E-09
         2  18 -1.055840E+06 -5.515896E+06 -6.720808E+05 -1.968676E+06 -5.305772E-09  1.380707E-07
         2  19  1.912416E+06  7.385963E+06  1.360713E+06 -2.039238E+06 -5.427347E+05  1.123071E+05
         2  20  1.511594E+06  5.680829E+06  1.038579E+06 -1.868019E+06 -4.656263E+05  1.942307E+05
         2  21  1.137978E+06  3.995200E+06  7.759772E+05 -2.016900E+06 -3.575557E+05  2.764941E+05
         2  22  2.129340E+04 -7.790260E+05  3.882507E+04 -1.992784E+06 -5.423998E+05 -1.435918E+04
         2  23  2.321571E+04 -7.782983E+05  3.748510E+04 -1.832595E+06 -4.644340E+05  4.517628E+03
         2  24  4.166914E+04 -7.717136E+05  5.223410E+04 -1.992702E+06 -3.553384E+05  2.394484E+04
         2  25 -1.873191E+06 -8.878327E+06 -1.284853E+06 -1.946739E+06 -5.420804E+05 -1.394319E+05
         2  26 -1.467173E+06 -7.195905E+06 -9.644412E+05 -1.797410E+06 -4.632545E+05 -1.833100E+05
         2  27 -1.055692E+06 -5.515807E+06 -6.717479E+05 -1.968611E+06 -3.531290E+05 -2.267509E+05
         3   1  8.954362E+05  2.929346E+06  6.182644E+05 -2.020229E+06  2.838636E+05 -2.852110E+05
         3   2  5.477271E+05  1.223573E+06  4.041830E+05 -1.779904E+06  1.607852E+05 -3.391150E+05
         3   3  3.031222E+05 -4.512583E+05  2.495377E+05 -1.861583E+06  3.940461E+04 -3.930418E+05
         3   4  4.658720E+04 -7.649725E+05  6.453557E+04 -1.993186E+06  2.814535E+05 -3.342879E+04
         3   5  9.024156E+04 -7.780479E+05  1.104556E+05 -1.831453E+06  1.582911E+05 -9.099095E+04
         3   6  2.378016E+05 -7.626042E+05  2.181716E+05 -1.991572E+06  3.684154E+04 -1.487002E+05
         3   7 -8.028728E+05 -4.445489E+06 -4.892244E+05 -1.966258E+06  2.790554E+05  2.169207E+05
         3   8 -3.673838E+05 -2.775496E+06 -1.831085E+05 -1.882815E+06  1.557505E+05  1.563675E+05
         3   9  1.725746E+05 -1.073682E+06  1.870410E+05 -2.121493E+06  3.417512E+04  9.552601E+04
         3  10  8.953284E+05  2.929238E+06  6.179621E+05 -2.020164E+06 -5.051269E-09  9.397658E-09
         3  11  5.476688E+05  1.223443E+06  4.039195E+05 -1.779860E+06 -1.155356E-09  2.325308E-09
         3  12  3.030791E+05 -4.514246E+05  2.492445E+05 -1.861570E+06 -5.844919E-09 -6.566454E-09
         3  13  4.650192E+04 -7.649949E+05  6.438482E+04 -1.993178E+06 -3.034988E-09 -3.380819E-11
         3  14  9.021251E+04 -7.780634E+05  1.103932E+05 -1.831441E+06  3.640561E-09 -3.812589E-10
         3  15  2.377942E+05 -7.626283E+05  2.181275E+05 -1.991568E+06  2.764287E-09 -8.822138E-11
         3  16 -8.029694E+05 -4.445561E+06 -4.894606E+05 -1.966307E+06 -7.507568E-09 -9.458360E-09
         3  17 -3.674166E+05 -2.775529E+06 -1.832006E+05 -1.882834E+06  1.220836E-09 -1.982035E-09
         3  18  1.725709E+05 -1.073692E+06  1.870215E+05 -2.121496E+06 -1.371487E-09  6.622577E-09
         3  19  8.954362E+05  2.929346E+06  6.182644E+05 -2.020229E+06 -2.838636E+05  2.852110E+05
         3  20  5.477271E+05  1.223573E+06  4.041830E+05 -1.779904E+06 -1.607852E+05  3.391150E+05
         3  21  3.031222E+05 -4.512583E+05  2.495377E+05 -1.861583E+06 -3.940461E+04  3.930418E+05
         3  22  4.658720E+04 -7.649725E+05  6.453557E+04 -1.993186E+06 -2.814535E+05  3.342879E+04
         3  23  9.024156E+04 -7.780479E+05  1.104556E+05 -1.831453E+06 -1.582911E+05  9.099095E+04
         3  24  2.378016E+05 -7.626042E+05  2.181716E+05 -1.991572E+06 -3.684154E+04  1.487002E+05
         3  25 -8.028728E+05 -4.445489E+06 -4.892244E+05 -1.966258E+06 -2.790554E+05 -2.169207E+05
         3  26 -3.673838E+05 -2.775496E+06 -1.831085E+05 -1.882815E+06 -1.557505E+05 -1.563675E+05
         3  27  1.725746E+05 -1.073682E+06  1.870410E+05 -2.121493E+06 -3.417512E+04 -9.552601E+04
         4   1 -6.343479E+06 -1.931480E+06 -1.240263E+06 -2.212563E+06 -6.539872E+05 -2.372324E+05
         4   2 -6.131731E+06 -9.308902E+05 -6.152752E+05 -2.323769E+06 -4.223111E+05 -1.362639E+05
         4   3 -6.258864E+06 -9.721940E+05 -4.360107E+05 -2.250174E+06 -1.843968E+05 -5.188434E+04
         4   4 -5.662855E+06 -1.513870E+06 -1.020792E+06 -1.863694E+06 -6.475317E+05 -2.350281E+05
         4   5 -5.441726E+06 -6.276486E+05 -4.199536E+05 -2.092670E+06 -4.211940E+05 -1.358848E+05
         4   6 -5.557977E+06 -7.816330E+05 -2.601863E+05 -2.136980E+06 -1.886182E+05 -5.343316E+04
         4   7 -4.981712E+06 -1.095949E+06 -8.013628E+05 -1.514402E+06 -6.410680E+05 -2.328163E+05
         4   8 -4.751252E+06 -3.243290E+05 -2.246778E+05 -1.861320E+06 -4.200754E+05 -1.355047E+05
         4   9 -4.856604E+06 -5.910862E+05 -8.439581E+04 -2.023694E+06 -1.928448E+05 -5.498267E+04
         4  10 -6.343957E+06 -1.931657E+06 -1.241183E+06 -2.212689E+06  2.924403E-09  4.378229E-10
         4  11 -6.131929E+06 -9.309589E+05 -6.156495E+05 -2.323816E+06 -1.082596E-08 -3.989451E-10
         4  12 -6.258901E+06 -9.722062E+05 -4.360805E+05 -2.250182E+06  1.806412E-09 -2.970407E-09
         4  13 -5.663324E+06 -1.514044E+06 -1.021693E+06 -1.863818E+06  1.354865E-10 -4.708273E-10
         4  14 -5.441923E+06 -6.277168E+05 -4.203255E+05 -2.092717E+06 -3.680574E-09 -1.697691E-09
         4  15 -5.558016E+06 -7.816457E+05 -2.602593E+05 -2.136988E+06 -6.468034E-09 -2.710419E-09
         4  16 -4.982171E+06 -1.096119E+06 -8.022448E+05 -1.514523E+06 -4.679670E-09 -8.298134E-10
         4  17 -4.751448E+06 -3.243968E+05 -2.250472E+05 -1.861366E+06  1.121432E-09 -2.525603E-09
         4  18 -4.856645E+06 -5.910996E+05 -8.447207E+04 -2.023703E+06 -2.490143E-09 -2.505204E-09
         4  19 -6.343479E+06 -1.931480E+06 -1.240263E+06 -2.212563E+06  6.539872E+05  2.372324E+05
         4  20 -6.131731E+06 -9.308902E+05 -6.152752E+05 -2.323769E+06  4.223111E+05  1.362639E+05
         4  21 -6.258864E+06 -9.721940E+05 -4.360107E+05 -2.250174E+06  1.843968E+05  5.188434E+04
         4  22 -5.662855E+06 -1.513870E+06 -1.020792E+06 -1.863694E+06  6.475317E+05  2.350281E+05
         4  23 -5.441726E+06 -6.276486E+05 -4.199536E+05 -2.092670E+06  4.211940E+05  1.358848E+05
         4  24 -5.557977E+06 -7.816330E+05 -2.601863E+05 -2.136980E+06  1.886182E+05  5.343316E+04
         4  25 -4.981712E+06 -1.095949E+06 -8.013628E+05 -1.514402E+06  6.410680E+05  2.328163E+05
         4  26 -4.751252E+06 -3.243290E+05 -2.246778E+05 -1.861320E+06  4.200754E+05  1.355047E+05
         4  27 -4.856604E+06 -5.910862E+05 -8.439581E+04 -2.023694E+06  1.928448E+05  5.498267E+04
         5   1 -5.945750E+06 -1.080645E+06 -3.325944E+05 -2.213329E+06 -1.484658E+05 -4.349371E+04
         5   2 -5.862461E+06 -8.798850E+05 -1.907883E+05 -2.160783E+06 -9.502688E+04 -2.591241E+04
         5   3 -5.752953E+06 -8.884310E+05 -1.234052E+05 -2.169796E+06 -4.078511E+04 -1.046350E+04
         5   4 -5.520112E+06 -9.008540E+05 -2.132769E+05 -2.078276E+06 -1.488602E+05 -4.364711E+04
         5   5 -5.526497E+06 -7.486245E+05 -9.879085E+04 -2.065173E+06 -9.609995E+04 -2.631321E+04
         5   6 -5.506501E+06 -8.055162E+05 -5.814147E+04 -2.113636E+06 -4.254549E+04 -1.111742E+04
         5   7 -5.094297E+06 -7.210390E+05 -9.397665E+04 -1.943135E+06 -1.492549E+05 -4.380063E+04
         5   8 -5.190425E+06 -6.173555E+05 -6.803940E+03 -1.969516E+06 -9.717366E+04 -2.671426E+04
         5   9 -5.259991E+06 -7.226011E+05  7.116920E+03 -2.057458E+06 -4.430663E+04 -1.177156E+04
         5  10 -5.945774E+06 -1.080653E+06 -3.326399E+05 -2.213334E+06  1.547496E-09 -2.820178E-09
         5  11 -5.862471E+06 -8.798882E+05 -1.908067E+05 -2.160785E+06 -9.261976E-09  9.497912E-10
         5  12 -5.752955E+06 -8.884316E+05 -1.234086E+05 -2.169796E+06 -6.955193E-10 -2.083254E-09
         5  13 -5.520136E+06 -9.008621E+05 -2.133226E+05 -2.078282E+06 -3.200509E-09 -1.753897E-09
         5  14 -5.526507E+06 -7.486278E+05 -9.880969E+04 -2.065175E+06 -3.997446E-09  4.652461E-10
         5  15 -5.506503E+06 -8.055168E+05 -5.814514E+04 -2.113637E+06  1.473817E-09 -2.819208E-09
         5  16 -5.094321E+06 -7.210471E+05 -9.402255E+04 -1.943140E+06 -3.913724E-10 -7.998503E-10
         5  17 -5.190435E+06 -6.173589E+05 -6.823208E+03 -1.969518E+06  5.603189E-10 -1.941735E-09
         5  18 -5.259994E+06 -7.226018E+05  7.112932E+03 -2.057458E+06  4.457723E-10 -1.403440E-09
         5  19 -5.945750E+06 -1.080645E+06 -3.325944E+05 -2.213329E+06  1.484658E+05  4.349371E+04
         5  20 -5.862461E+06 -8.798850E+05 -1.907883E+05 -2.160783E+06  9.502688E+04  2.591241E+04
         5  21 -5.752953E+06 -8.884310E+05 -1.234052E+05 -2.169796E+06  4.078511E+04  1.046350E+04
         5  22 -5.520112E+06 -9.008540E+05 -2.132769E+05 -2.078276E+06  1.488602E+05  4.364711E+04
         5  23 -5.526497E+06 -7.486245E+05 -9.879085E+04 -2.065173E+06  9.609995E+04  2.631321E+04
         5  24 -5.506501E+06 -8.055162E+05 -5.814147E+04 -2.113636E+06  4.254549E+04  1.111742E+04
         5  25 -5.094297E+06 -7.210390E+05 -9.397665E+04 -1.943135E+06  1.492549E+05  4.380063E+04
         5  26 -5.190425E+06 -6.173555E+05 -6.803940E+03 -1.969516E+06  9.717366E+04  2.671426E+04
         5  27 -5.259991E+06 -7.226011E+05  7.116920E+03 -2.057458E+06  4.430663E+04  1.177156E+04
         6   1 -5.494090E+06 -8.209072E+05 -4.425332E+04 -2.106955E+06 -3.171207E+04 -1.023429E+04
         6   2 -5.427448E+06 -7.227540E+05  7.002637E+03 -2.031773E+06 -1.839059E+04 -9.835484E+03
         6   3 -5.283378E+06 -7.266883E+05  4.483169E+04 -2.051340E+06 -5.045579E+03 -9.488812E+03
         6   4 -5.500676E+06 -8.211751E+05 -4.595925E+04 -2.106346E+06 -3.303933E+04 -1.072787E+04
         6   5 -5.538514E+06 -7.640529E+05 -2.300918E+04 -2.061215E+06 -1.973554E+04 -1.033580E+04
         6   6 -5.498927E+06 -8.090169E+05 -1.346886E+04 -2.110838E+06 -6.410424E+03 -9.996747E+03
         6   7 -5.507262E+06 -8.214430E+05 -4.766517E+04 -2.105737E+06 -3.436658E+04 -1.122145E+04
         6   8 -5.649568E+06 -8.053514E+05 -5.302220E+04 -2.090652E+06 -2.108022E+04 -1.083603E+04
         6   9 -5.714432E+06 -8.913427E+05 -7.177371E+04 -2.170317E+06 -7.774747E+03 -1.050448E+04
         6  10 -5.494091E+06 -8.209076E+05 -4.425543E+04 -2.106955E+06  6.737178E-09 -5.667020E-09
         6  11 -5.427448E+06 -7.227541E+05  7.001812E+03 -2.031773E+06 -1.813119E-08 -3.144978E-09
         6  12 -5.283378E+06 -7.266884E+05  4.483147E+04 -2.051340E+06 -7.775120E-09 -1.316358E-09
         6  13 -5.500677E+06 -8.211755E+05 -4.596154E+04 -2.106346E+06  1.178084E-09 -4.013769E-09
         6  14 -5.538514E+06 -7.640531E+05 -2.301012E+04 -2.061215E+06 -1.395448E-08 -1.649026E-09
         6  15 -5.498927E+06 -8.090171E+05 -1.346912E+04 -2.110838E+06 -4.020494E-09 -2.527897E-09
         6  16 -5.507263E+06 -8.214435E+05 -4.766765E+04 -2.105737E+06  3.536226E-12 -1.921565E-09
         6  17 -5.649569E+06 -8.053516E+05 -5.302326E+04 -2.090652E+06  4.168108E-09 -3.260375E-09
         6  18 -5.714432E+06 -8.913429E+05 -7.177403E+04 -2.170317E+06  4.128113E-09 -4.095838E-09
         6  19 -5.494090E+06 -8.209072E+05 -4.425332E+04 -2.106955E+06  3.171207E+04  1.023429E+04
         6  20 -5.427448E+06 -7.227540E+05  7.002637E+03 -2.031773E+06  1.839059E+04  9.835484E+03
         6  21 -5.283378E+06 -7.266883E+05  4.483169E+04 -2.051340E+06  5.045579E+03  9.488812E+03
         6  22 -5.500676E+06 -8.211751E+05 -4.595925E+04 -2.106346E+06  3.303933E+04  1.072787E+04
         6  23 -5.538514E+06 -7.640529E+05 -2.300918E+04 -2.061215E+06  1.973554E+04  1.033580E+04
         6  24 -5.498927E+06 -8.090169E+05 -1.346886E+04 -2.110838E+06  6.410424E+03  9.996747E+03
         6  25 -5.507262E+06 -8.214430E+05 -4.766517E+04 -2.105737E+06  3.436658E+04  1.122145E+04
         6  26 -5.649568E+06 -8.053514E+05 -5.302220E+04 -2.090652E+06  2.108022E+04  1.083603E+04
         6  27 -5.714432E+06 -8.913427E+05 -7.177371E+04 -2.170317E+06  7.774747E+03  1.050448E+04
         7   1 -5.052088E+06 -6.393781E+05  1.113571E+05 -1.985826E+06 -2.177981E+03 -1.116538E+04
         7   2 -4.998248E+06 -5.670168E+05  1.396440E+05 -1.919590E+06  2.229371E+03 -1.384972E+04
         7   3 -4.872081E+06 -5.697778E+05  1.652263E+05 -1.936631E+06  6.417894E+03 -1.592746E+04
         7   4 -5.500807E+06 -8.079416E+05 -1.058337E+04 -2.106489E+06 -3.546310E+03 -1.167529E+04
         7   5 -5.536868E+06 -7.698202E+05 -6.340136E+03 -2.065044E+06  1.061382E+03 -1.428620E+04
         7   6 -5.500648E+06 -8.068674E+05 -4.962031E+03 -2.106884E+06  5.449674E+03 -1.629042E+04
         7   7 -5.949329E+06 -9.764936E+05 -1.325416E+05 -2.227072E+06 -4.913536E+03 -1.218479E+04
         7   8 -6.075205E+06 -9.726070E+05 -1.523502E+05 -2.210383E+06 -1.054818E+02 -1.472227E+04
         7   9 -6.128833E+06 -1.043935E+06 -1.751860E+05 -2.276980E+06  4.482540E+03 -1.665298E+04
         7  10 -5.052088E+06 -6.393782E+05  1.113569E+05 -1.985826E+06 -5.979033E-10 -9.666292E-10
         7  11 -4.998248E+06 -5.670170E+05  1.396436E+05 -1.919590E+06  1.082249E-08  2.553863E-09
         7  12 -4.872081E+06 -5.697781E+05  1.652257E+05 -1.936631E+06  1.223487E-08  4.816387E-10
         7  13 -5.500807E+06 -8.079418E+05 -1.058365E+04 -2.106489E+06  8.674287E-09 -2.154757E-11
         7  14 -5.536868E+06 -7.698204E+05 -6.340521E+03 -2.065044E+06 -3.099427E-09  4.295452E-09
         7  15 -5.500648E+06 -8.068677E+05 -4.962584E+03 -2.106884E+06 -5.720100E-09 -8.653304E-10
         7  16 -5.949329E+06 -9.764938E+05 -1.325419E+05 -2.227072E+06 -6.087319E-09 -2.717282E-10
         7  17 -6.075205E+06 -9.726073E+05 -1.523506E+05 -2.210383E+06 -8.194975E-09  2.917853E-09
         7  18 -6.128833E+06 -1.043935E+06 -1.751866E+05 -2.276980E+06 -2.396891E-09 -1.839309E-09
         7  19 -5.052088E+06 -6.393781E+05  1.113571E+05 -1.985826E+06  2.177981E+03  1.116538E+04
         7  20 -4.998248E+06 -5.670168E+05  1.396440E+05 -1.919590E+06 -2.229371E+03  1.384972E+04
         7  21 -4.872081E+06 -5.697778E+05  1.652263E+05 -1.936631E+06 -6.417894E+03  1.592746E+04
         7  22 -5.500807E+06 -8.079416E+05 -1.058337E+04 -2.106489E+06  3.546310E+03  1.167529E+04
         7  23 -5.536868E+06 -7.698202E+05 -6.340136E+03 -2.065044E+06 -1.061382E+03  1.428620E+04
         7  24 -5.500648E+06 -8.068674E+05 -4.962031E+03 -2.106884E+06 -5.449674E+03  1.629042E+04
         7  25 -5.949329E+06 -9.764936E+05 -1.325416E+05 -2.227072E+06  4.913536E+03  1.218479E+04
         7  26 -6.075205E+06 -9.726070E+05 -1.523502E+05 -2.210383E+06  1.054818E+02  1.472227E+04
         7  27 -6.128833E+06 -1.043935E+06 -1.751860E+05 -2.276980E+06 -4.482540E+03  1.665298E+04
         8   1 -4.703569E+06 -4.980752E+05  2.131396E+05 -1.882778E+06  7.977889E+03 -1.738458E+04
         8   2 -4.670921E+06 -4.529415E+05  2.268687E+05 -1.840569E+06  1.171772E+04 -1.905975E+04
         8   3 -4.591378E+06 -4.556088E+05  2.384706E+05 -1.849983E+06  1.508681E+04 -1.972723E+04
         8   4 -5.506371E+06 -8.007143E+05 -4.809058E+03 -2.099918E+06  6.906754E+03 -1.778706E+04
         8   5 -5.529898E+06 -7.775482E+05 -6.134526E+03 -2.073816E+06  1.097975E+04 -1.933884E+04
         8   6 -5.506598E+06 -8.022572E+05 -9.855262E+03 -2.099343E+06  1.468147E+04 -1.988233E+04
         8   7 -6.308549E+06 -1.103316E+06 -2.228154E+05 -2.316803E+06  5.837158E+03 -1.818897E+04
         8   8 -6.388160E+06 -1.102112E+06 -2.392042E+05 -2.306770E+06  1.024290E+04 -1.961750E+04
         8   9 -6.421010E+06 -1.148857E+06 -2.582571E+05 -2.348369E+06  1.427678E+04 -2.003719E+04
         8  10 -4.703569E+06 -4.980755E+05  2.131389E+05 -1.882778E+06 -4.848658E-10 -2.584316E-09
         8  11 -4.670921E+06 -4.529419E+05  2.268677E+05 -1.840569E+06 -1.829138E-09  2.102566E-09
         8  12 -4.591378E+06 -4.556093E+05  2.384695E+05 -1.849983E+06 -9.777296E-09  1.504100E-09
         8  13 -5.506372E+06 -8.007146E+05 -4.809740E+03 -2.099918E+06  4.713977E-09 -1.418794E-09
         8  14 -5.529898E+06 -7.775486E+05 -6.135453E+03 -2.073816E+06 -3.570511E-09  1.613852E-10
         8  15 -5.506599E+06 -8.022577E+05 -9.856407E+03 -2.099342E+06  6.349764E-09 -5.032101E-10
         8  16 -6.308549E+06 -1.103317E+06 -2.228161E+05 -2.316802E+06 -6.358324E-09 -1.489229E-09
         8  17 -6.388161E+06 -1.102113E+06 -2.392051E+05 -2.306770E+06  4.392859E-09  1.012436E-09
         8  18 -6.421010E+06 -1.148857E+06 -2.582583E+05 -2.348368E+06 -1.006132E-09  6.331437E-10
         8  19 -4.703569E+06 -4.980752E+05  2.131396E+05 -1.882778E+06 -7.977889E+03  1.738458E+04
         8  20 -4.670921E+06 -4.529415E+05  2.268687E+05 -1.840569E+06 -1.171772E+04  1.905975E+04
         8  21 -4.591378E+06 -4.556088E+05  2.384706E+05 -1.849983E+06 -1.508681E+04  1.972723E+04
         8  22 -5.506371E+06 -8.007143E+05 -4.809058E+03 -2.099918E+06 -6.906754E+03  1.778706E+04
         8  23 -5.529898E+06 -7.775482E+05 -6.134526E+03 -2.073816E+06 -1.097975E+04  1.933884E+04
         8  24 -5.506598E+06 -8.022572E+05 -9.855262E+03 -2.099343E+06 -1.468147E+04  1.988233E+04
         8  25 -6.308549E+06 -1.103316E+06 -2.228154E+05 -2.316803E+06 -5.837158E+03  1.818897E+04
         8  26 -6.388160E+06 -1.102112E+06 -2.392042E+05 -2.306770E+06 -1.024290E+04  1.961750E+04
         8  27 -6.421010E+06 -1.148857E+06 -2.582571E+05 -2.348369E+06 -1.427678E+04  2.003719E+04
         9   1 -4.517669E+06 -4.157251E+05  2.583147E+05 -1.820543E+06  1.737077E+04 -1.983743E+04
         9   2 -4.511027E+06 -4.027722E+05  2.522493E+05 -1.809765E+06  2.831584E+04 -1.689847E+04
         9   3 -4.498891E+06 -4.142820E+05  2.348375E+05 -1.805590E+06  3.877071E+04 -1.265757E+04
         9   4 -5.515182E+06 -7.924137E+05 -1.237659E+04 -2.091118E+06  1.679662E+04 -2.005670E+04
         9   5 -5.518723E+06 -7.857856E+05 -2.150568E+04 -2.085689E+06  2.816061E+04 -1.696037E+04
         9   6 -5.516866E+06 -8.037239E+05 -4.233046E+04 -2.086863E+06  3.903380E+04 -1.256126E+04
         9   7 -6.511732E+06 -1.169045E+06 -2.831575E+05 -2.361298E+06  1.622349E+04 -2.027560E+04
         9   8 -6.525434E+06 -1.168737E+06 -2.953521E+05 -2.361205E+06  2.800564E+04 -1.702218E+04
         9   9 -6.533834E+06 -1.193099E+06 -3.195919E+05 -2.367714E+06  3.929637E+04 -1.246515E+04
         9  10 -4.517669E+06 -4.157256E+05  2.583134E+05 -1.820542E+06 -5.503001E-10 -1.820324E-09
         9  11 -4.511028E+06 -4.027727E+05  2.522472E+05 -1.809765E+06 -3.140576E-09 -1.452197E-09
         9  12 -4.498893E+06 -4.142826E+05  2.348344E+05 -1.805590E+06 -1.141746E-08 -6.368466E-10
         9  13 -5.515183E+06 -7.924142E+05 -1.237788E+04 -2.091117E+06 -1.274182E-08 -1.619566E-09
         9  14 -5.518724E+06 -7.857861E+05 -2.150772E+04 -2.085689E+06  4.887679E-13 -1.548300E-09
         9  15 -5.516867E+06 -8.037245E+05 -4.233364E+04 -2.086862E+06 -8.021491E-09  2.044965E-09
         9  16 -6.511732E+06 -1.169046E+06 -2.831588E+05 -2.361298E+06  6.166618E-09 -1.105320E-09
         9  17 -6.525435E+06 -1.168738E+06 -2.953541E+05 -2.361204E+06  4.110659E-09 -4.171756E-09
         9  18 -6.533836E+06 -1.193100E+06 -3.195951E+05 -2.367713E+06  5.095171E-09  5.747982E-10
         9  19 -4.517669E+06 -4.157251E+05  2.583147E+05 -1.820543E+06 -1.737077E+04  1.983743E+04
         9  20 -4.511027E+06 -4.027722E+05  2.522493E+05 -1.809765E+06 -2.831584E+04  1.689847E+04
         9  21 -4.498891E+06 -4.142820E+05  2.348375E+05 -1.805590E+06 -3.877071E+04  1.265757E+04
         9  22 -5.515182E+06 -7.924137E+05 -1.237659E+04 -2.091118E+06 -1.679662E+04  2.005670E+04
         9  23 -5.518723E+06 -7.857856E+05 -2.150568E+04 -2.085689E+06 -2.816061E+04  1.696037E+04
         9  24 -5.516866E+06 -8.037239E+05 -4.233046E+04 -2.086863E+06 -3.903380E+04  1.256126E+04
         9  25 -6.511732E+06 -1.169045E+06 -2.831575E+05 -2.361298E+06 -1.622349E+04  2.027560E+04
         9  26 -6.525434E+06 -1.168737E+06 -2.953521E+05 -2.361205E+06 -2.800564E+04  1.702218E+04
         9  27 -6.533834E+06 -1.193099E+06 -3.195919E+05 -2.367714E+06 -3.929637E+04  1.246515E+04
        10   1 -4.531004E+06 -4.105846E+05  2.160946E+05 -1.820196E+06  4.689941E+04 -9.420934E+03
        10   2 -4.544472E+06 -4.127455E+05  1.687847E+05 -1.833005E+06  9.382764E+04  9.347726E+03
        10   3 -4.634998E+06 -5.031192E+05  5.452290E+04 -1.782750E+06  1.398805E+05  3.039056E+04
        10   4 -5.529919E+06 -7.817790E+05 -5.360913E+04 -2.085100E+06  4.675313E+04 -9.478901E+03
        10   5 -5.497793E+06 -7.810830E+05 -9.136491E+04 -2.100109E+06  9.437178E+04  9.551160E+03
        10   6 -5.542938E+06 -8.688489E+05 -1.967013E+05 -2.052032E+06  1.411182E+05  3.085574E+04
        10   7 -6.527870E+06 -1.152925E+06 -3.234025E+05 -2.349622E+06  4.660707E+04 -9.536796E+03
        10   8 -6.450233E+06 -1.149358E+06 -3.515977E+05 -2.366837E+06  9.491489E+04  9.754189E+03
        10   9 -6.450077E+06 -1.234502E+06 -4.480024E+05 -2.320946E+06  1.423537E+05  3.131999E+04
        10  10 -4.531007E+06 -4.105853E+05  2.160903E+05 -1.820196E+06 -8.368491E-09  1.786148E-09
        10  11 -4.544482E+06 -4.127480E+05  1.687679E+05 -1.833005E+06  1.992772E-09 -4.266796E-09
        10  12 -4.635020E+06 -5.031255E+05  5.448407E+04 -1.782753E+06 -1.002391E-09 -8.915856E-10
        10  13 -5.529922E+06 -7.817797E+05 -5.361343E+04 -2.085100E+06 -1.657779E-08 -1.137372E-09
        10  14 -5.497803E+06 -7.810855E+05 -9.138198E+04 -2.100110E+06 -2.530537E-09 -6.238188E-09
        10  15 -5.542960E+06 -8.688554E+05 -1.967409E+05 -2.052036E+06 -5.330260E-09  1.650332E-09
        10  16 -6.527872E+06 -1.152926E+06 -3.234067E+05 -2.349622E+06 -1.289853E-09 -1.295918E-09
        10  17 -6.450243E+06 -1.149361E+06 -3.516150E+05 -2.366838E+06 -4.359326E-09 -2.613358E-09
        10  18 -6.450099E+06 -1.234508E+06 -4.480428E+05 -2.320949E+06  1.255503E-10  1.458724E-09
        10  19 -4.531004E+06 -4.105846E+05  2.160946E+05 -1.820196E+06 -4.689941E+04  9.420934E+03
        10  20 -4.544472E+06 -4.127455E+05  1.687847E+05 -1.833005E+06 -9.382764E+04 -9.347726E+03
        10  21 -4.634998E+06 -5.031192E+05  5.452290E+04 -1.782750E+06 -1.398805E+05 -3.039056E+04
        10  22 -5.529919E+06 -7.817790E+05 -5.360913E+04 -2.085100E+06 -4.675313E+04  9.478901E+03
        10  23 -5.497793E+06 -7.810830E+05 -9.136491E+04 -2.100109E+06 -9.437178E+04 -9.551160E+03
        10  24 -5.542938E+06 -8.688489E+05 -1.967013E+05 -2.052032E+06 -1.411182E+05 -3.085574E+04
        10  25 -6.527870E+06 -1.152925E+06 -3.234025E+05 -2.349622E+06 -4.660707E+04  9.536796E+03
        10  26 -6.450233E+06 -1.149358E+06 -3.515977E+05 -2.366837E+06 -9.491489E+04 -9.754189E+03
        10  27 -6.450077E+06 -1.234502E+06 -4.480024E+05 -2.320946E+06 -1.423537E+05 -3.131999E+04
        11   1 -4.738811E+06 -5.043701E+05 -2.500146E+04 -1.941391E+06  1.774028E+05  4.463704E+04
        11   2 -4.728167E+06 -3.697075E+05 -1.929314E+05 -1.898829E+06  3.857663E+05  1.269917E+05
        11   3 -5.149400E+06 -1.072115E+06 -7.648597E+05 -1.548432E+06  5.899037E+05  2.202922E+05
        11   4 -5.580511E+06 -7.569627E+05 -2.401658E+05 -2.104071E+06  1.761863E+05  4.419347E+04
        11   5 -5.414455E+06 -6.732787E+05 -3.875771E+05 -2.129741E+06  3.879737E+05  1.278049E+05
        11   6 -5.681369E+06 -1.427980E+06 -9.420485E+05 -1.847413E+06  5.955890E+05  2.222966E+05
        11   7 -6.421516E+06 -1.009567E+06 -4.553837E+05 -2.266579E+06  1.749715E+05  4.375022E+04
        11   8 -6.100277E+06 -9.767715E+05 -5.822676E+05 -2.360402E+06  3.901782E+05  1.286166E+05
        11   9 -6.213000E+06 -1.783597E+06 -1.119260E+06 -2.146101E+06  6.012687E+05  2.242952E+05
        11  10 -4.738846E+06 -5.043808E+05 -2.506490E+04 -1.941397E+06  1.313312E-09  2.978819E-10
        11  11 -4.728332E+06 -3.697653E+05 -1.932441E+05 -1.898869E+06 -7.484938E-10 -2.292188E-09
        11  12 -5.149790E+06 -1.072262E+06 -7.656117E+05 -1.548537E+06  1.558341E-09 -3.886428E-09
        11  13 -5.580545E+06 -7.569733E+05 -2.402284E+05 -2.104077E+06 -8.318099E-10  2.323982E-09
        11  14 -5.414622E+06 -6.733373E+05 -3.878939E+05 -2.129781E+06  1.167851E-09 -1.448652E-09
        11  15 -5.681766E+06 -1.428130E+06 -9.428158E+05 -1.847521E+06  1.388169E-09  2.415625E-09
        11  16 -6.421550E+06 -1.009577E+06 -4.554455E+05 -2.266586E+06 -1.221247E-09  8.089874E-10
        11  17 -6.100446E+06 -9.768309E+05 -5.825884E+05 -2.360442E+06 -3.968673E-09 -3.034340E-09
        11  18 -6.213405E+06 -1.783750E+06 -1.120043E+06 -2.146210E+06  5.288947E-09 -4.527291E-10
        11  19 -4.738811E+06 -5.043701E+05 -2.500146E+04 -1.941391E+06 -1.774028E+05 -4.463704E+04
        11  20 -4.728167E+06 -3.697075E+05 -1.929314E+05 -1.898829E+06 -3.857663E+05 -1.269917E+05
        11  21 -5.149400E+06 -1.072115E+06 -7.648597E+05 -1.548432E+06 -5.899037E+05 -2.202922E+05
        11  22 -5.580511E+06 -7.569627E+05 -2.401658E+05 -2.104071E+06 -1.761863E+05 -4.419347E+04
        11  23 -5.414455E+06 -6.732787E+05 -3.875771E+05 -2.129741E+06 -3.879737E+05 -1.278049E+05
        11  24 -5.681369E+06 -1.427980E+06 -9.420485E+05 -1.847413E+06 -5.955890E+05 -2.222966E+05
        11  25 -6.421516E+06 -1.009567E+06 -4.553837E+05 -2.266579E+06 -1.749715E+05 -4.375022E+04
        11  26 -6.100277E+06 -9.767715E+05 -5.822676E+05 -2.360402E+06 -3.901782E+05 -1.286166E+05
        11  27 -6.213000E+06 -1.783597E+06 -1.119260E+06 -2.146101E+06 -6.012687E+05 -2.242952E+05
        12   1  1.340953E+05  9.917388E+05  1.467817E+05  1.823926E+02  5.807892E+03 -1.287419E+03
        12   2  1.315097E+05  9.898123E+05  1.492713E+05 -1.377980E+03  5.836190E+03 -9.567341E+03
        12   3  1.418425E+05  9.950795E+05  1.609557E+05  7.759954E+02  5.884252E+03 -1.784737E+04
        12   4  8.588082E+02  4.578434E+05  1.405437E+04  8.207966E+02  5.808205E+03 -1.289364E+03
        12   5 -2.144449E+03  4.542454E+05  1.612801E+04 -1.028144E+03  5.836507E+03 -9.566361E+03
        12   6  7.775337E+03  4.578429E+05  2.739929E+04  8.374699E+02  5.884585E+03 -1.784344E+04
        12   7 -1.323991E+05 -7.579370E+04 -1.186943E+05  1.458670E+03  5.808518E+03 -1.291308E+03
        12   8 -1.358201E+05 -8.106161E+04 -1.170368E+05 -6.785286E+02  5.836823E+03 -9.565379E+03
        12   9 -1.263135E+05 -7.913222E+04 -1.061787E+05  8.990348E+02  5.884918E+03 -1.783951E+04
        12  10  1.340953E+05  9.917388E+05  1.467816E+05  1.823986E+02  5.030436E-09  3.980362E-09
        12  11  1.315097E+05  9.898121E+05  1.492711E+05 -1.377936E+03  1.778580E-08 -1.324155E-09
        12  12  1.418424E+05  9.950792E+05  1.609550E+05  7.760800E+02  8.019933E-09 -2.767168E-09
        12  13  8.587715E+02  4.578434E+05  1.405431E+04  8.208026E+02  5.072964E-09 -1.407358E-10
        12  14 -2.144510E+03  4.542453E+05  1.612777E+04 -1.028099E+03  1.013453E-08  3.414301E-11
        12  15  7.775214E+03  4.578426E+05  2.739863E+04  8.375544E+02  1.230882E-08  9.078364E-10
        12  16 -1.323992E+05 -7.579371E+04 -1.186944E+05  1.458676E+03  4.958935E-09 -3.881405E-09
        12  17 -1.358202E+05 -8.106172E+04 -1.170370E+05 -6.784836E+02  1.774024E-08  5.223189E-10
        12  18 -1.263136E+05 -7.913257E+04 -1.061793E+05  8.991193E+02  2.028827E-10  3.403931E-09
        12  19  1.340953E+05  9.917388E+05  1.467817E+05  1.823926E+02 -5.807892E+03  1.287419E+03
        12  20  1.315097E+05  9.898123E+05  1.492713E+05 -1.377980E+03 -5.836190E+03  9.567341E+03
        12  21  1.418425E+05  9.950795E+05  1.609557E+05  7.759954E+02 -5.884252E+03  1.784737E+04
        12  22  8.588082E+02  4.578434E+05  1.405437E+04  8.207966E+02 -5.808205E+03  1.289364E+03
        12  23 -2.144449E+03  4.542454E+05  1.612801E+04 -1.028144E+03 -5.836507E+03  9.566361E+03
        12  24  7.775337E+03  4.578429E+05  2.739929E+04  8.374699E+02 -5.884585E+03  1.784344E+04
        12  25 -1.323991E+05 -7.579370E+04 -1.186943E+05  1.458670E+03 -5.808518E+03  1.291308E+03
        12  26 -1.358201E+05 -8.106161E+04 -1.170368E+05 -6.785286E+02 -5.836823E+03  9.565379E+03
        12  27 -1.263135E+05 -7.913222E+04 -1.061787E+05  8.990348E+02 -5.884918E+03  1.783951E+04
        13   1  1.386213E+05  1.024027E+06  1.730690E+05 -1.703852E+03  6.127888E+03 -2.328029E+04
        13   2  1.292687E+05  1.016252E+06  1.927212E+05 -3.403102E+03  6.477836E+03 -5.058506E+04
        13   3  1.956379E+05  1.034285E+06  2.497317E+05  6.516753E+03  6.101545E+03 -7.789346E+04
        13   4 -1.665975E+03  4.619705E+05  3.333438E+04  2.502248E+03  6.128376E+03 -2.337285E+04
        13   5 -1.226634E+04  4.490668E+05  5.173549E+04 -3.179127E+03  6.478115E+03 -5.053374E+04
        13   6  5.286619E+04  4.619642E+05  1.074183E+05  2.759263E+03  6.101666E+03 -7.769804E+04
        13   7 -1.419769E+05 -9.980010E+04 -1.064239E+05  6.704741E+03  6.128862E+03 -2.346533E+04
        13   8 -1.538255E+05 -1.178272E+05 -8.927433E+04 -2.955080E+03  6.478394E+03 -5.048245E+04
        13   9 -8.993005E+04 -1.100596E+05 -3.491970E+04 -9.944098E+02  6.101786E+03 -7.750276E+04
        13  10  1.386211E+05  1.024027E+06  1.730680E+05 -1.703738E+03  1.277845E-09  1.449480E-09
        13  11  1.292679E+05  1.016249E+06  1.927164E+05 -3.402838E+03 -2.097479E-10 -3.829378E-09
        13  12  1.956363E+05  1.034278E+06  2.497203E+05  6.517136E+03 -5.868556E-09 -1.181603E-09
        13  13 -1.666162E+03  4.619699E+05  3.333328E+04  2.502363E+03  8.091471E-09 -1.484517E-09
        13  14 -1.226707E+04  4.490640E+05  5.173061E+04 -3.178864E+03 -3.316533E-09  2.813984E-11
        13  15  5.286453E+04  4.619577E+05  1.074069E+05  2.759645E+03 -6.101095E-09  1.962469E-09
        13  16 -1.419771E+05 -9.980071E+04 -1.064250E+05  6.704857E+03 -8.039829E-10 -6.684503E-10
        13  17 -1.538262E+05 -1.178299E+05 -8.927920E+04 -2.954817E+03  1.040754E-08  1.289957E-09
        13  18 -8.993170E+04 -1.100660E+05 -3.493106E+04 -9.940289E+02 -5.831479E-09  2.569414E-09
        13  19  1.386213E+05  1.024027E+06  1.730690E+05 -1.703852E+03 -6.127888E+03  2.328029E+04
        13  20  1.292687E+05  1.016252E+06  1.927212E+05 -3.403102E+03 -6.477836E+03  5.058506E+04
        13  21  1.956379E+05  1.034285E+06  2.497317E+05  6.516753E+03 -6.101545E+03  7.789346E+04
        13  22 -1.665975E+03  4.619705E+05  3.333438E+04  2.502248E+03 -6.128376E+03  2.337285E+04
        13  23 -1.226634E+04  4.490668E+05  5.173549E+04 -3.179127E+03 -6.478115E+03  5.053374E+04
        13  24  5.286619E+04  4.619642E+05  1.074183E+05  2.759263E+03 -6.101666E+03  7.769804E+04
        13  25 -1.419769E+05 -9.980010E+04 -1.064239E+05  6.704741E+03 -6.128862E+03  2.346533E+04
        13  26 -1.538255E+05 -1.178272E+05 -8.927433E+04 -2.955080E+03 -6.478394E+03  5.048245E+04
        13  27 -8.993005E+04 -1.100596E+05 -3.491970E+04 -9.944098E+02 -6.101786E+03  7.750276E+04
        14   1  1.434244E+05  1.111190E+06  2.845664E+05 -1.841764E+04  7.378872E+03 -9.853516E+04
        14   2  7.639515E+04  1.048361E+06  3.542003E+05  1.556626E+03  9.151872E+03 -2.073786E+05
        14   3  5.133453E+05  1.129981E+06  6.215072E+05  4.430944E+04  5.059645E+03 -3.162620E+05
        14   4 -1.229376E+04  4.883121E+05  1.296882E+05  4.171817E+03  7.379509E+03 -9.915835E+04
        14   5 -8.122350E+04  4.161062E+05  1.971637E+05 -5.827721E+03  9.152864E+03 -2.069205E+05
        14   6  3.539056E+05  4.882949E+05  4.617031E+05  6.950477E+03  5.068835E+03 -3.147208E+05
        14   7 -1.680393E+05 -1.342137E+05 -2.521887E+04  2.673910E+04  7.380100E+03 -9.978087E+04
        14   8 -2.388718E+05 -2.157865E+05  4.009730E+04 -1.320396E+04  9.153846E+03 -2.064628E+05
        14   9  1.944406E+05 -1.530146E+05  3.018692E+05 -3.036922E+04  5.077851E+03 -3.131810E+05
        14  10  1.434217E+05  1.111180E+06  2.845481E+05 -1.841706E+04 -4.793204E-09  1.570388E-09
        14  11  7.638354E+04  1.048315E+06  3.541195E+05  1.558153E+03  3.014616E-09 -4.072611E-09
        14  12  5.133185E+05  1.129874E+06  6.213195E+05  4.431073E+04 -9.242128E-10  1.267806E-09
        14  13 -1.229645E+04  4.883015E+05  1.296696E+05  4.172406E+03  1.433432E-09 -2.978858E-09
        14  14 -8.123507E+04  4.160602E+05  1.970832E+05 -5.826196E+03 -5.714582E-09  2.396921E-11
        14  15  3.538790E+05  4.881887E+05  4.615171E+05  6.951761E+03 -3.315399E-09  3.108755E-09
        14  16 -1.680420E+05 -1.342244E+05 -2.523768E+04  2.673970E+04 -1.178940E-08 -1.684833E-10
        14  17 -2.388834E+05 -2.158323E+05  4.001702E+04 -1.320243E+04 -9.147877E-09 -3.360436E-10
        14  18  1.944142E+05 -1.531199E+05  3.016847E+05 -3.036794E+04  8.145629E-10  9.314794E-10
        14  19  1.434244E+05  1.111190E+06  2.845664E+05 -1.841764E+04 -7.378872E+03  9.853516E+04
        14  20  7.639515E+04  1.048361E+06  3.542003E+05  1.556626E+03 -9.151872E+03  2.073786E+05
        14  21  5.133453E+05  1.129981E+06  6.215072E+05  4.430944E+04 -5.059645E+03  3.162620E+05
        14  22 -1.229376E+04  4.883121E+05  1.296882E+05  4.171817E+03 -7.379509E+03  9.915835E+04
        14  23 -8.122350E+04  4.161062E+05  1.971637E+05 -5.827721E+03 -9.152864E+03  2.069205E+05
        14  24  3.539056E+05  4.882949E+05  4.617031E+05  6.950477E+03 -5.068835E+03  3.147208E+05
        14  25 -1.680393E+05 -1.342137E+05 -2.521887E+04  2.673910E+04 -7.380100E+03  9.978087E+04
        14  26 -2.388718E+05 -2.157865E+05  4.009730E+04 -1.320396E+04 -9.153846E+03  2.064628E+05
        14  27  1.944406E+05 -1.530146E+05  3.018692E+05 -3.036922E+04 -5.077851E+03  3.131810E+05
        15   1  4.104387E+05  3.476501E+05  3.858882E+05 -5.570520E+02  6.985326E+04 -2.511870E+01
        15   2  4.096433E+05  3.440022E+05  3.851120E+05 -7.548396E+02  6.975776E+04 -2.530835E+02
        15   3  4.091480E+05  3.421019E+05  3.849192E+05 -2.480004E+03  6.946377E+04 -4.816919E+02
        15   4 -4.802134E+02 -1.320571E+06  2.912257E+02 -3.395208E+02  6.986627E+04 -2.758037E+01
        15   5 -5.892102E+02 -1.321430E+06  1.676197E+02  4.245261E+02  6.977060E+04 -1.169652E+02
        15   6 -4.237749E+02 -1.320568E+06  5.313509E+02 -3.390264E+02  6.947620E+04 -2.069928E+02
        15   7 -4.115947E+05 -2.986217E+06 -3.854917E+05 -1.224425E+02  6.987930E+04 -3.003535E+01
        15   8 -4.110167E+05 -2.984297E+06 -3.849620E+05  1.601300E+03  6.978346E+04  1.879145E+01
        15   9 -4.101899E+05 -2.980681E+06 -3.840412E+05  1.797231E+03  6.948866E+04  6.697741E+01
        15  10  4.104334E+05  3.476488E+05  3.858791E+05 -5.570505E+02 -8.935160E-11  1.797434E-09
        15  11  4.096381E+05  3.440008E+05  3.851028E+05 -7.548254E+02 -1.398277E-10  1.785549E-09
        15  12  4.091429E+05  3.421006E+05  3.849101E+05 -2.479978E+03 -4.839798E-09  2.063387E-09
        15  13 -4.854519E+02 -1.320572E+06  2.820584E+02 -3.395193E+02  9.289475E-11  2.025196E-10
        15  14 -5.944342E+02 -1.321431E+06  1.584775E+02  4.245327E+02 -2.219208E-09  5.143187E-10
        15  15 -4.289550E+02 -1.320569E+06  5.222857E+02 -3.390148E+02 -4.714467E-09  1.126491E-09
        15  16 -4.115999E+05 -2.986218E+06 -3.855009E+05 -1.224408E+02 -7.060001E-11 -1.950959E-09
        15  17 -4.110220E+05 -2.984298E+06 -3.849712E+05  1.601299E+03 -1.263462E-10 -2.153978E-09
        15  18 -4.101951E+05 -2.980682E+06 -3.840503E+05  1.797227E+03 -4.938013E-10 -3.061863E-09
        15  19  4.104387E+05  3.476501E+05  3.858882E+05 -5.570520E+02 -6.985326E+04  2.511870E+01
        15  20  4.096433E+05  3.440022E+05  3.851120E+05 -7.548396E+02 -6.975776E+04  2.530835E+02
        15  21  4.091480E+05  3.421019E+05  3.849192E+05 -2.480004E+03 -6.946377E+04  4.816919E+02
        15  22 -4.802134E+02 -1.320571E+06  2.912257E+02 -3.395208E+02 -6.986627E+04  2.758037E+01
        15  23 -5.892102E+02 -1.321430E+06  1.676197E+02  4.245261E+02 -6.977060E+04  1.169652E+02
        15  24 -4.237749E+02 -1.320568E+06  5.313509E+02 -3.390264E+02 -6.947620E+04  2.069928E+02
        15  25 -4.115947E+05 -2.986217E+06 -3.854917E+05 -1.224425E+02 -6.987930E+04  3.003535E+01
        15  26 -4.110167E+05 -2.984297E+06 -3.849620E+05  1.601300E+03 -6.978346E+04 -1.879145E+01
        15  27 -4.101899E+05 -2.980681E+06 -3.840412E+05  1.797231E+03 -6.948866E+04 -6.697741E+01
        16   1  4.077035E+05  3.366889E+05  3.836466E+05 -3.671569E+03  6.954208E+04 -3.980749E+01
        16   2  4.055418E+05  3.273384E+05  3.820658E+05 -2.164215E+03  6.891725E+04 -1.928591E+03
        16   3  4.045443E+05  3.201064E+05  3.823516E+05 -5.230442E+03  6.624309E+04 -3.825986E+03
        16   4 -5.018330E+02 -1.320531E+06  6.559198E+02 -1.016753E+03  6.955552E+04 -3.145397E+02
        16   5 -6.219682E+02 -1.321461E+06  8.921534E+02  1.271649E+03  6.892668E+04 -7.744951E+02
        16   6  1.736609E+02 -1.320523E+06  2.003621E+03 -1.014295E+03  6.624604E+04 -1.243092E+03
        16   7 -4.089001E+05 -2.975210E+06 -3.825181E+05  1.632240E+03  6.956898E+04 -5.885428E+02
        16   8 -4.069768E+05 -2.967746E+06 -3.804632E+05  4.700065E+03  6.893615E+04  3.765623E+02
        16   9 -4.043867E+05 -2.958663E+06 -3.785251E+05  3.192805E+03  6.624904E+04  1.333033E+03
        16  10  4.076983E+05  3.366876E+05  3.836375E+05 -3.671567E+03  1.425587E-09  3.878568E-09
        16  11  4.055367E+05  3.273371E+05  3.820569E+05 -2.164108E+03 -3.721785E-09  1.919080E-09
        16  12  4.045396E+05  3.201052E+05  3.823434E+05 -5.230238E+03 -6.941943E-09  2.074491E-09
        16  13 -5.070249E+02 -1.320532E+06  6.468337E+02 -1.016735E+03 -2.572923E-09  2.278638E-09
        16  14 -6.270668E+02 -1.321463E+06  8.832300E+02  1.271692E+03 -1.121773E-08  1.693268E-09
        16  15  1.689509E+02 -1.320524E+06  1.995376E+03 -1.014229E+03 -1.016378E-08  2.086849E-09
        16  16 -4.089053E+05 -2.975211E+06 -3.825272E+05  1.632273E+03 -6.257403E-10 -5.360712E-09
        16  17 -4.069819E+05 -2.967747E+06 -3.804721E+05  4.700044E+03 -2.814097E-09 -2.777623E-09
        16  18 -4.043914E+05 -2.958665E+06 -3.785333E+05  3.192734E+03  8.638176E-09 -4.414508E-09
        16  19  4.077035E+05  3.366889E+05  3.836466E+05 -3.671569E+03 -6.954208E+04  3.980749E+01
        16  20  4.055418E+05  3.273384E+05  3.820658E+05 -2.164215E+03 -6.891725E+04  1.928591E+03
        16  21  4.045443E+05  3.201064E+05  3.823516E+05 -5.230442E+03 -6.624309E+04  3.825986E+03
        16  22 -5.018330E+02 -1.320531E+06  6.559198E+02 -1.016753E+03 -6.955552E+04  3.145397E+02
        16  23 -6.219682E+02 -1.321461E+06  8.921534E+02  1.271649E+03 -6.892668E+04  7.744951E+02
        16  24  1.736609E+02 -1.320523E+06  2.003621E+03 -1.014295E+03 -6.624604E+04  1.243092E+03
        16  25 -4.089001E+05 -2.975210E+06 -3.825181E+05  1.632240E+03 -6.956898E+04  5.885428E+02
        16  26 -4.069768E+05 -2.967746E+06 -3.804632E+05  4.700065E+03 -6.893615E+04 -3.765623E+02
        16  27 -4.043867E+05 -2.958663E+06 -3.785251E+05  3.192805E+03 -6.624904E+04 -1.333033E+03
        17   1  4.005566E+05  3.102297E+05  3.782779E+05 -7.901491E+03  7.050350E+04  7.586399E+03
        17   2  3.968842E+05  2.926023E+05  3.784638E+05 -2.206928E+03  6.463793E+04 -2.123164E+04
        17   3  4.066781E+05  2.835342E+05  4.010767E+05 -5.299602E+03  2.040558E+04 -5.026355E+04
        17   4 -8.569919E+02 -1.320059E+06  2.460707E+03 -1.963765E+03  7.055272E+04 -1.603628E+03
        17   5 -1.142943E+03 -1.322011E+06  3.848889E+03  2.451775E+03  6.456788E+04 -3.690412E+03
        17   6  7.409421E+03 -1.320040E+06  9.105049E+03 -1.922911E+03  2.017167E+04 -5.991772E+03
        17   7 -4.024569E+05 -2.947886E+06 -3.735330E+05  3.960652E+03  7.060184E+04 -1.076971E+04
        17   8 -3.993538E+05 -2.934213E+06 -3.709401E+05  7.101043E+03  6.449801E+04  1.380554E+04
        17   9 -3.920486E+05 -2.921264E+06 -3.830471E+05  1.448157E+03  1.993793E+04  3.816594E+04
        17  10  4.005513E+05  3.102283E+05  3.782685E+05 -7.901921E+03  1.378890E-10 -1.838401E-09
        17  11  3.968796E+05  2.926007E+05  3.784551E+05 -2.205823E+03 -2.187117E-09 -1.141623E-08
        17  12  4.066770E+05  2.835313E+05  4.010711E+05 -5.298777E+03 -5.779132E-09 -1.381317E-08
        17  13 -8.623344E+02 -1.320060E+06  2.451354E+03 -1.963673E+03 -2.067752E-09  4.245201E-09
        17  14 -1.147420E+03 -1.322012E+06  3.841034E+03  2.451967E+03 -2.933687E-09  2.502102E-09
        17  15  7.408975E+03 -1.320040E+06  9.104218E+03 -1.922814E+03 -1.185061E-08  3.115934E-09
        17  16 -4.024622E+05 -2.947887E+06 -3.735426E+05  3.961266E+03  6.253490E-09 -1.172151E-09
        17  17 -3.993583E+05 -2.934215E+06 -3.709483E+05  7.100325E+03 -4.256413E-09  9.360631E-09
        17  18 -3.920494E+05 -2.921266E+06 -3.830506E+05  1.447543E+03 -1.378027E-08  1.021787E-08
        17  19  4.005566E+05  3.102297E+05  3.782779E+05 -7.901491E+03 -7.050350E+04 -7.586399E+03
        17  20  3.968842E+05  2.926023E+05  3.784638E+05 -2.206928E+03 -6.463793E+04  2.123164E+04
        17  21  4.066781E+05  2.835342E+05  4.010767E+05 -5.299602E+03 -2.040558E+04  5.026355E+04
        17  22 -8.569919E+02 -1.320059E+06  2.460707E+03 -1.963765E+03 -7.055272E+04  1.603628E+03
        17  23 -1.142943E+03 -1.322011E+06  3.848889E+03  2.451775E+03 -6.456788E+04  3.690412E+03
        17  24  7.409421E+03 -1.320040E+06  9.105049E+03 -1.922911E+03 -2.017167E+04  5.991772E+03
        17  25 -4.024569E+05 -2.947886E+06 -3.735330E+05  3.960652E+03 -7.060184E+04  1.076971E+04
        17  26 -3.993538E+05 -2.934213E+06 -3.709401E+05  7.101043E+03 -6.449801E+04 -1.380554E+04
        17  27 -3.920486E+05 -2.921264E+06 -3.830471E+05  1.448157E+03 -1.993793E+04 -3.816594E+04
        18   1  7.651482E+04  8.773492E+05  4.297938E+04 -2.951250E+00  2.685731E+04  1.846051E-01
        18   2  7.651907E+04  8.773685E+05  4.298602E+04 -1.742027E+01  2.685828E+04 -4.531419E+00
        18   3  7.652416E+04  8.773948E+05  4.299792E+04 -2.946191E+01  2.686023E+04 -9.247225E+00
        18   4 -2.347989E+01  5.373426E+05  1.249788E+01  5.396236E-01  2.685886E+04 -9.872862E-01
        18   5 -2.465971E+01  5.373389E+05  1.492362E+01 -6.739230E-01  2.685984E+04 -8.040391E+00
        18   6 -2.460240E+01  5.373426E+05  2.423042E+01  5.404478E-01  2.686179E+04 -1.509331E+01
        18   7 -7.656648E+04  1.974545E+05 -4.295475E+04  4.028851E+00  2.686041E+04 -2.158568E+00
        18   8 -7.657309E+04  1.974278E+05 -4.295654E+04  1.606440E+01  2.686139E+04 -1.154754E+01
        18   9 -7.657807E+04  1.974090E+05 -4.294983E+04  3.052841E+01  2.686334E+04 -2.093636E+01
        18  10  7.651404E+04  8.773490E+05  4.297803E+04 -2.951254E+00 -8.024123E-10  2.929112E-08
        18  11  7.651830E+04  8.773683E+05  4.298467E+04 -1.742018E+01 -9.849729E-10  3.822071E-08
        18  12  7.652339E+04  8.773946E+05  4.299657E+04 -2.946171E+01 -1.362259E-09  4.311929E-08
        18  13 -2.425474E+01  5.373424E+05  1.114189E+01  5.396447E-01  4.325832E-08  1.519555E-11
        18  14 -2.543462E+01  5.373387E+05  1.356753E+01 -6.737493E-01  2.216395E-08 -1.149878E-10
        18  15 -2.537742E+01  5.373424E+05  2.287413E+01  5.407741E-01  1.222076E-08  1.460383E-10
        18  16 -7.656725E+04  1.974543E+05 -4.295611E+04  4.028898E+00 -7.273666E-09 -2.923871E-08
        18  17 -7.657387E+04  1.974276E+05 -4.295790E+04  1.606465E+01  4.999383E-10 -3.825561E-08
        18  18 -7.657884E+04  1.974088E+05 -4.295119E+04  3.052886E+01  1.792362E-09 -4.307817E-08
        18  19  7.651482E+04  8.773492E+05  4.297938E+04 -2.951250E+00 -2.685731E+04 -1.846050E-01
        18  20  7.651907E+04  8.773685E+05  4.298602E+04 -1.742027E+01 -2.685828E+04  4.531420E+00
        18  21  7.652416E+04  8.773948E+05  4.299792E+04 -2.946191E+01 -2.686023E+04  9.247225E+00
        18  22 -2.347989E+01  5.373426E+05  1.249788E+01  5.396234E-01 -2.685886E+04  9.872862E-01
        18  23 -2.465971E+01  5.373389E+05  1.492362E+01 -6.739232E-01 -2.685984E+04  8.040391E+00
        18  24 -2.460240E+01  5.373426E+05  2.423042E+01  5.404476E-01 -2.686179E+04  1.509331E+01
        18  25 -7.656648E+04  1.974545E+05 -4.295475E+04  4.028851E+00 -2.686041E+04  2.158568E+00
        18  26 -7.657309E+04  1.974278E+05 -4.295654E+04  1.606440E+01 -2.686139E+04  1.154754E+01
        18  27 -7.657807E+04  1.974090E+05 -4.294983E+04  3.052841E+01 -2.686334E+04  2.093635E+01
        19   1  7.653005E+04  8.774234E+05  4.300914E+04 -3.511751E+01  2.686200E+04 -1.179878E+01
        19   2  7.654323E+04  8.774862E+05  4.304290E+04 -5.622539E+01  2.686489E+04 -3.967536E+01
        19   3  7.655855E+04  8.775594E+05  4.309731E+04 -6.655150E+01  2.686685E+04 -6.755142E+01
        19   4 -2.516281E+01  5.373431E+05  3.120293E+01  2.397047E+00  2.686355E+04 -1.983927E+01
        19   5 -2.803221E+01  5.373381E+05  5.252824E+01 -2.993844E+00  2.686644E+04 -4.547750E+01
        19   6 -2.915677E+01  5.373431E+05  9.295556E+01  2.397368E+00  2.686841E+04 -7.111522E+01
        19   7 -7.658508E+04  1.973815E+05 -4.294710E+04  3.989360E+01  2.686511E+04 -2.787557E+01
        19   8 -7.660400E+04  1.973087E+05 -4.293821E+04  5.021191E+01  2.686800E+04 -5.127662E+01
        19   9 -7.662157E+04  1.972455E+05 -4.291177E+04  7.131264E+01  2.686996E+04 -7.467715E+01
        19  10  7.652927E+04  8.774232E+05  4.300778E+04 -3.511725E+01  9.253932E-10  7.595831E-09
        19  11  7.654246E+04  8.774860E+05  4.304155E+04 -5.622453E+01  5.504357E-09  8.325906E-09
        19  12  7.655777E+04  8.775592E+05  4.309596E+04 -6.655004E+01  4.399830E-09  1.154403E-08
        19  13 -2.593793E+01  5.373429E+05  2.984647E+01  2.397476E+00 -3.452151E-09  1.162446E-10
        19  14 -2.880750E+01  5.373379E+05  5.117148E+01 -2.992860E+00  3.349520E-09 -4.074752E-10
        19  15 -2.993217E+01  5.373429E+05  9.159860E+01  2.398907E+00  4.121783E-09  2.139759E-10
        19  16 -7.658586E+04  1.973813E+05 -4.294846E+04  3.989420E+01  9.045142E-10 -7.770478E-09
        19  17 -7.660478E+04  1.973085E+05 -4.293957E+04  5.021302E+01 -2.706857E-09 -8.561185E-09
        19  18 -7.662235E+04  1.972453E+05 -4.291313E+04  7.131426E+01 -4.837828E-09 -1.149135E-08
        19  19  7.653005E+04  8.774234E+05  4.300914E+04 -3.511751E+01 -2.686200E+04  1.179878E+01
        19  20  7.654323E+04  8.774862E+05  4.304290E+04 -5.622539E+01 -2.686489E+04  3.967536E+01
        19  21  7.655855E+04  8.775594E+05  4.309731E+04 -6.655150E+01 -2.686685E+04  6.755142E+01
        19  22 -2.516281E+01  5.373431E+05  3.120293E+01  2.397047E+00 -2.686355E+04  1.983927E+01
        19  23 -2.803221E+01  5.373381E+05  5.252824E+01 -2.993844E+00 -2.686644E+04  4.547750E+01
        19  24 -2.915677E+01  5.373431E+05  9.295556E+01  2.397368E+00 -2.686841E+04  7.111522E+01
        19  25 -7.658508E+04  1.973815E+05 -4.294710E+04  3.989360E+01 -2.686511E+04  2.787557E+01
        19  26 -7.660400E+04  1.973087E+05 -4.293821E+04  5.021191E+01 -2.686800E+04  5.127662E+01
        19  27 -7.662157E+04  1.972455E+05 -4.291177E+04  7.131264E+01 -2.686996E+04  7.467715E+01
        20   1  7.657084E+04  8.776195E+05  4.313883E+04 -7.534472E+01  2.686846E+04 -8.569295E+01
        20   2  7.659633E+04  8.777183E+05  4.326591E+04 -1.037096E+02  2.686281E+04 -2.276456E+02
        20   3  7.663975E+04  8.778463E+05  4.349177E+04 -1.140074E+02  2.684191E+04 -3.696010E+02
        20   4 -3.066775E+01  5.373460E+05  1.226843E+02  4.015537E+00  2.687002E+04 -9.030405E+01
        20   5 -3.450616E+01  5.373345E+05  2.133265E+02 -5.017231E+00  2.686435E+04 -1.955720E+02
        20   6 -2.676864E+01  5.373459E+05  3.773389E+02  4.017091E+00  2.684344E+04 -3.008431E+02
        20   7 -7.663688E+04  1.971911E+05 -4.289383E+04  8.333693E+01  2.687157E+04 -9.491275E+01
        20   8 -7.667006E+04  1.970695E+05 -4.283963E+04  9.362641E+01  2.686590E+04 -1.635150E+02
        20   9 -7.669801E+04  1.969644E+05 -4.273748E+04  1.219830E+02  2.684497E+04 -2.321210E+02
        20  10  7.657006E+04  8.776193E+05  4.313747E+04 -7.534286E+01  5.060875E-11  4.213566E-08
        20  11  7.659555E+04  8.777181E+05  4.326455E+04 -1.037047E+02  8.171292E-09  3.022140E-08
        20  12  7.663897E+04  8.778461E+05  4.349042E+04 -1.139994E+02  1.088452E-08  1.531523E-08
        20  13 -3.144325E+01  5.373458E+05  1.213272E+02  4.017491E+00 -2.132726E-09  2.563875E-10
        20  14 -3.528134E+01  5.373343E+05  2.119699E+02 -5.013000E+00 -1.226068E-08 -7.030924E-10
        20  15 -2.754263E+01  5.373457E+05  3.759843E+02  4.023593E+00 -2.531261E-08  3.494647E-10
        20  16 -7.663766E+04  1.971910E+05 -4.289519E+04  8.333899E+01 -4.233606E-09 -4.253745E-08
        20  17 -7.667083E+04  1.970693E+05 -4.284099E+04  9.362995E+01  2.149642E-09 -3.048876E-08
        20  18 -7.669878E+04  1.969642E+05 -4.273884E+04  1.219880E+02  9.484256E-09 -1.516213E-08
        20  19  7.657084E+04  8.776195E+05  4.313883E+04 -7.534472E+01 -2.686846E+04  8.569295E+01
        20  20  7.659633E+04  8.777183E+05  4.326591E+04 -1.037096E+02 -2.686281E+04  2.276456E+02
        20  21  7.663975E+04  8.778463E+05  4.349177E+04 -1.140074E+02 -2.684191E+04  3.696010E+02
        20  22 -3.066775E+01  5.373460E+05  1.226843E+02  4.015537E+00 -2.687002E+04  9.030405E+01
        20  23 -3.450616E+01  5.373345E+05  2.133265E+02 -5.017231E+00 -2.686435E+04  1.955720E+02
        20  24 -2.676864E+01  5.373459E+05  3.773389E+02  4.017090E+00 -2.684344E+04  3.008431E+02
        20  25 -7.663688E+04  1.971911E+05 -4.289383E+04  8.333693E+01 -2.687157E+04  9.491274E+01
        20  26 -7.667006E+04  1.970695E+05 -4.283963E+04  9.362641E+01 -2.686590E+04  1.635150E+02
        20  27 -7.669801E+04  1.969644E+05 -4.273748E+04  1.219830E+02 -2.684497E+04  2.321210E+02
        21   1 -8.808683E+05  3.354138E+04  1.303314E+05 -1.635503E+03  2.791013E+05  6.751278E+03
        21   2 -9.122912E+05 -3.474824E+05 -9.736668E+04  1.714855E+04  1.847733E+05  1.464758E+04
        21   3 -8.050280E+05 -2.761051E+05 -1.477901E+05 -5.041711E+04  9.050362E+04  1.126246E+04
        21   4  2.557424E+05  3.170769E+05  4.139115E+05 -3.238180E+04  2.818359E+05  6.753281E+03
        21   5  1.862833E+05 -7.309719E+04  1.758647E+05  1.190328E+04  1.854581E+05  1.464669E+04
        21   6  2.556539E+05 -1.093496E+04  1.162894E+05 -3.015162E+04  8.914457E+04  1.125978E+04
        21   7  1.393528E+06  6.005193E+05  6.973951E+05 -6.318647E+04  2.845752E+05  6.755019E+03
        21   8  1.285954E+06  2.011975E+05  4.490057E+05  6.647321E+03  1.861438E+05  1.464580E+04
        21   9  1.317358E+06  2.541519E+05  3.802847E+05 -9.852193E+03  8.778310E+04  1.125702E+04
        21  10 -8.809521E+05  3.352038E+04  1.301847E+05 -1.637021E+03  2.736870E-09 -6.587162E-10
        21  11 -9.123280E+05 -3.474918E+05 -9.743132E+04  1.714637E+04  1.011955E-09 -1.968616E-10
        21  12 -8.050368E+05 -2.761074E+05 -1.478057E+05 -5.041794E+04  5.500656E-09  1.059887E-10
        21  13  2.556572E+05  3.170555E+05  4.137622E+05 -3.238334E+04 -3.375447E-09 -2.362442E-10
        21  14  1.862463E+05 -7.310665E+04  1.757997E+05  1.190109E+04  2.140435E-09 -1.929512E-10
        21  15  2.556454E+05 -1.093723E+04  1.162743E+05 -3.015243E+04  4.896234E-09  1.555701E-10
        21  16  1.393441E+06  6.004975E+05  6.972432E+05 -6.318802E+04  3.914843E-10 -1.454910E-10
        21  17  1.285917E+06  2.011880E+05  4.489403E+05  6.645127E+03 -3.202551E-09 -7.438597E-10
        21  18  1.317349E+06  2.541497E+05  3.802700E+05 -9.852988E+03 -6.035428E-09  6.767663E-11
        21  19 -8.808683E+05  3.354138E+04  1.303314E+05 -1.635503E+03 -2.791013E+05 -6.751278E+03
        21  20 -9.122912E+05 -3.474824E+05 -9.736668E+04  1.714855E+04 -1.847733E+05 -1.464758E+04
        21  21 -8.050280E+05 -2.761051E+05 -1.477901E+05 -5.041711E+04 -9.050362E+04 -1.126246E+04
        21  22  2.557424E+05  3.170769E+05  4.139115E+05 -3.238180E+04 -2.818359E+05 -6.753281E+03
        21  23  1.862833E+05 -7.309719E+04  1.758647E+05  1.190328E+04 -1.854581E+05 -1.464669E+04
        21  24  2.556539E+05 -1.093496E+04  1.162894E+05 -3.015162E+04 -8.914457E+04 -1.125978E+04
        21  25  1.393528E+06  6.005193E+05  6.973951E+05 -6.318647E+04 -2.845752E+05 -6.755019E+03
        21  26  1.285954E+06  2.011975E+05  4.490057E+05  6.647321E+03 -1.861438E+05 -1.464580E+04
        21  27  1.317358E+06  2.541519E+05  3.802847E+05 -9.852193E+03 -8.778310E+04 -1.125702E+04
        22   1 -5.639268E+05 -1.515470E+05 -1.019121E+05 -2.497756E+04  6.966602E+04  8.515826E+03
        22   2 -5.423522E+05 -2.008901E+05 -1.436462E+05  1.063066E+04  4.602154E+04  8.561312E+03
        22   3 -4.948492E+05 -1.826489E+05 -1.518783E+05 -3.109769E+04  2.237445E+04  6.987284E+03
        22   4  2.307383E+05  4.695357E+04  9.587062E+04 -2.889442E+04  6.987822E+04  8.515011E+03
        22   5  2.177355E+05 -1.101433E+04  4.548045E+04  9.818085E+03  4.593469E+04  8.560501E+03
        22   6  2.306905E+05 -1.388099E+03  2.877094E+04 -2.879992E+04  2.198988E+04  6.987127E+03
        22   7  1.025977E+06  2.454068E+05  2.936060E+05 -3.281658E+04  7.009064E+04  8.514194E+03
        22   8  9.783475E+05  1.788181E+05  2.345638E+05  9.004416E+03  4.584771E+04  8.559692E+03
        22   9  9.567078E+05  1.798332E+05  2.093807E+05 -2.649937E+04  2.160484E+04  6.986967E+03
        22  10 -5.639320E+05 -1.515484E+05 -1.019214E+05 -2.497804E+04  4.445175E-09  3.891572E-10
        22  11 -5.423545E+05 -2.008908E+05 -1.436503E+05  1.063034E+04 -1.900370E-09 -1.856185E-10
        22  12 -4.948498E+05 -1.826491E+05 -1.518793E+05 -3.109782E+04 -1.132784E-09 -9.774087E-10
        22  13  2.307330E+05  4.695218E+04  9.586131E+04 -2.889490E+04  8.905679E-09  1.790408E-10
        22  14  2.177332E+05 -1.101497E+04  4.547635E+04  9.817769E+03 -8.624640E-09 -4.230820E-12
        22  15  2.306900E+05 -1.388281E+03  2.876994E+04 -2.880005E+04 -2.374934E-09 -7.983394E-10
        22  16  1.025971E+06  2.454054E+05  2.935967E+05 -3.281706E+04 -4.164586E-09  3.220057E-10
        22  17  9.783452E+05  1.788174E+05  2.345597E+05  9.004100E+03 -5.499827E-09 -1.691417E-10
        22  18  9.567073E+05  1.798330E+05  2.093797E+05 -2.649949E+04 -3.867118E-09 -2.369482E-10
        22  19 -5.639268E+05 -1.515470E+05 -1.019121E+05 -2.497756E+04 -6.966602E+04 -8.515826E+03
        22  20 -5.423522E+05 -2.008901E+05 -1.436462E+05  1.063066E+04 -4.602154E+04 -8.561312E+03
        22  21 -4.948492E+05 -1.826489E+05 -1.518783E+05 -3.109769E+04 -2.237445E+04 -6.987284E+03
        22  22  2.307383E+05  4.695357E+04  9.587062E+04 -2.889442E+04 -6.987822E+04 -8.515011E+03
        22  23  2.177355E+05 -1.101433E+04  4.548045E+04  9.818085E+03 -4.593469E+04 -8.560501E+03
        22  24  2.306905E+05 -1.388099E+03  2.877094E+04 -2.879992E+04 -2.198988E+04 -6.987127E+03
        22  25  1.025977E+06  2.454068E+05  2.936060E+05 -3.281658E+04 -7.009064E+04 -8.514194E+03
        22  26  9.783475E+05  1.788181E+05  2.345638E+05  9.004416E+03 -4.584771E+04 -8.559692E+03
        22  27  9.567078E+05  1.798332E+05  2.093807E+05 -2.649937E+04 -2.160484E+04 -6.986967E+03
        23   1 -2.499014E+05 -1.120606E+05 -9.552175E+04 -2.674041E+04  1.743646E+04  5.937019E+03
        23   2 -2.196812E+05 -1.124054E+05 -9.856543E+04  9.476478E+03  1.144113E+04  4.832634E+03
        23   3 -1.845317E+05 -1.025415E+05 -9.483193E+04 -2.737217E+04  5.442733E+03  3.533556E+03
        23   4  2.261219E+05  6.821857E+03  2.283609E+04 -2.786971E+04  1.727484E+04  5.936924E+03
        23   5  2.236412E+05 -1.676293E+03  1.173621E+04  8.656955E+03  1.124270E+04  4.832825E+03
        23   6  2.260940E+05  3.746521E+01  7.435801E+03 -2.787865E+04  5.207795E+03  3.534093E+03
        23   7  7.023509E+05  1.256873E+05  1.411770E+05 -2.899980E+04  1.711310E+04  5.936829E+03
        23   8  6.671420E+05  1.090381E+05  1.220231E+05  7.836937E+03  1.104412E+04  4.833017E+03
        23   9  6.368726E+05  1.026037E+05  1.096909E+05 -2.838535E+04  4.972701E+03  3.534630E+03
        23  10 -2.499018E+05 -1.120607E+05 -9.552239E+04 -2.674049E+04 -3.697569E-10 -4.380829E-10
        23  11 -2.196814E+05 -1.124055E+05 -9.856572E+04  9.476433E+03 -6.860474E-09  4.748982E-10
        23  12 -1.845317E+05 -1.025415E+05 -9.483201E+04 -2.737218E+04  4.330985E-09 -1.046373E-09
        23  13  2.261216E+05  6.821739E+03  2.283546E+04 -2.786979E+04 -8.796582E-09  7.995358E-11
        23  14  2.236411E+05 -1.676352E+03  1.173593E+04  8.656911E+03  2.155251E-09  2.502115E-10
        23  15  2.260939E+05  3.744452E+01  7.435727E+03 -2.787866E+04  3.313921E-09 -1.896466E-10
        23  16  7.023505E+05  1.256872E+05  1.411763E+05 -2.899988E+04 -1.928728E-09 -4.105431E-10
        23  17  6.671419E+05  1.090380E+05  1.220228E+05  7.836894E+03  4.302827E-09  3.972095E-10
        23  18  6.368725E+05  1.026037E+05  1.096908E+05 -2.838536E+04  1.806495E-09  3.317850E-10
        23  19 -2.499014E+05 -1.120606E+05 -9.552175E+04 -2.674041E+04 -1.743646E+04 -5.937019E+03
        23  20 -2.196812E+05 -1.124054E+05 -9.856543E+04  9.476478E+03 -1.144113E+04 -4.832634E+03
        23  21 -1.845317E+05 -1.025415E+05 -9.483193E+04 -2.737217E+04 -5.442733E+03 -3.533556E+03
        23  22  2.261219E+05  6.821857E+03  2.283609E+04 -2.786971E+04 -1.727484E+04 -5.936924E+03
        23  23  2.236412E+05 -1.676293E+03  1.173621E+04  8.656955E+03 -1.124270E+04 -4.832825E+03
        23  24  2.260940E+05  3.746521E+01  7.435801E+03 -2.787865E+04 -5.207795E+03 -3.534093E+03
        23  25  7.023509E+05  1.256873E+05  1.411770E+05 -2.899980E+04 -1.711310E+04 -5.936829E+03
        23  26  6.671420E+05  1.090381E+05  1.220231E+05  7.836937E+03 -1.104412E+04 -4.833017E+03
        23  27  6.368726E+05  1.026037E+05  1.096909E+05 -2.838535E+04 -4.972701E+03 -3.534630E+03
        24   1  5.401944E+04 -4.165256E+04 -3.657871E+04 -2.694297E+04  4.194416E+03  2.755700E+03
        24   2  8.566214E+04 -3.508482E+04 -3.097573E+04  8.470358E+03  2.344520E+03  1.509987E+03
        24   3  1.176208E+05 -2.656776E+04 -2.376635E+04 -2.719482E+04  4.936585E+02  2.516902E+02
        24   4  2.251161E+05  1.057034E+03  5.886682E+03 -2.743224E+04  3.985880E+03  2.756319E+03
        24   5  2.249544E+05 -2.991192E+02  3.675808E+03  8.105335E+03  2.133419E+03  1.510689E+03
        24   6  2.251074E+05  2.942266E+02  3.072754E+03 -2.743460E+04  2.800864E+02  2.524786E+02
        24   7  3.962394E+05  4.376444E+04  4.834989E+04 -2.792163E+04  3.777287E+03  2.756939E+03
        24   8  3.642642E+05  3.448512E+04  3.832590E+04  7.740245E+03  1.922270E+03  1.511391E+03
        24   9  3.326045E+05  2.715534E+04  2.991098E+04 -2.767440E+04  6.647724E+01  2.532671E+02
        24  10  5.401942E+04 -4.165258E+04 -3.657876E+04 -2.694298E+04  1.499544E-09 -9.799979E-10
        24  11  8.566213E+04 -3.508482E+04 -3.097575E+04  8.470355E+03 -4.980975E-09  8.969317E-10
        24  12  1.176208E+05 -2.656776E+04 -2.376635E+04 -2.719482E+04 -6.513185E-09 -3.019703E-10
        24  13  2.251161E+05  1.057022E+03  5.886638E+03 -2.743225E+04  3.891716E-09 -7.484054E-10
        24  14  2.249543E+05 -2.991229E+02  3.675795E+03  8.105332E+03 -6.468345E-09  1.660804E-09
        24  15  2.251074E+05  2.942265E+02  3.072754E+03 -2.743460E+04 -2.378035E-09  2.620997E-10
        24  16  3.962394E+05  4.376443E+04  4.834985E+04 -2.792163E+04  2.277356E-10  1.277704E-10
        24  17  3.642642E+05  3.448512E+04  3.832588E+04  7.740243E+03  3.246709E-09 -1.045712E-10
        24  18  3.326045E+05  2.715534E+04  2.991098E+04 -2.767440E+04 -9.435310E-10 -7.324173E-10
        24  19  5.401944E+04 -4.165256E+04 -3.657871E+04 -2.694297E+04 -4.194416E+03 -2.755700E+03
        24  20  8.566214E+04 -3.508482E+04 -3.097573E+04  8.470358E+03 -2.344520E+03 -1.509987E+03
        24  21  1.176208E+05 -2.656776E+04 -2.376635E+04 -2.719482E+04 -4.936585E+02 -2.516902E+02
        24  22  2.251161E+05  1.057034E+03  5.886682E+03 -2.743224E+04 -3.985880E+03 -2.756319E+03
        24  23  2.249544E+05 -2.991192E+02  3.675808E+03  8.105335E+03 -2.133419E+03 -1.510689E+03
        24  24  2.251074E+05  2.942266E+02  3.072754E+03 -2.743460E+04 -2.800864E+02 -2.524786E+02
        24  25  3.962394E+05  4.376444E+04  4.834989E+04 -2.792163E+04 -3.777287E+03 -2.756939E+03
        24  26  3.642642E+05  3.448512E+04  3.832590E+04  7.740245E+03 -1.922270E+03 -1.511391E+03
        24  27  3.326045E+05  2.715534E+04  2.991098E+04 -2.767440E+04 -6.647724E+01 -2.532671E+02
        25   1  3.540523E+05  3.251514E+04  3.524670E+04 -2.774940E+04 -6.968819E+01 -4.866587E+02
        25   2  3.857124E+05  3.984450E+04  4.366276E+04  7.711822E+03 -1.924808E+03 -1.744715E+03
        25   3  4.177599E+05  4.911747E+04  5.370069E+04 -2.797511E+04 -3.779064E+03 -2.992784E+03
        25   4  2.251215E+05  3.025277E+02  3.077624E+03 -2.745049E+04 -2.830608E+02 -4.858770E+02
        25   5  2.249334E+05 -2.997982E+02  3.673167E+03  8.125269E+03 -2.136100E+03 -1.744030E+03
        25   6  2.251316E+05  1.041406E+03  5.889507E+03 -2.744828E+04 -3.988181E+03 -2.992192E+03
        25   7  9.620577E+04 -3.191134E+04 -2.909271E+04 -2.715162E+04 -4.963891E+02 -4.850955E+02
        25   8  6.417789E+04 -4.044604E+04 -3.631836E+04  8.538629E+03 -2.347338E+03 -1.743346E+03
        25   9  3.253697E+04 -4.703743E+04 -4.192445E+04 -2.692158E+04 -4.197234E+03 -2.991600E+03
        25  10  3.540523E+05  3.251514E+04  3.524670E+04 -2.774940E+04 -6.533306E-10 -5.860137E-10
        25  11  3.857124E+05  3.984450E+04  4.366274E+04  7.711820E+03  2.528876E-09  9.179858E-10
        25  12  4.177599E+05  4.911745E+04  5.370065E+04 -2.797512E+04 -5.890681E-09  7.631338E-10
        25  13  2.251215E+05  3.025275E+02  3.077623E+03 -2.745049E+04 -5.111818E-10  5.349977E-10
        25  14  2.249334E+05 -2.998027E+02  3.673152E+03  8.125266E+03  4.301792E-09  1.192391E-09
        25  15  2.251316E+05  1.041392E+03  5.889460E+03 -2.744829E+04 -1.109250E-09  4.306031E-10
        25  16  9.620577E+04 -3.191134E+04 -2.909271E+04 -2.715162E+04  6.603506E-09 -4.886542E-10
        25  17  6.417789E+04 -4.044605E+04 -3.631838E+04  8.538626E+03 -3.198328E-09  8.675547E-10
        25  18  3.253695E+04 -4.703745E+04 -4.192450E+04 -2.692159E+04  3.418004E-09 -1.173934E-09
        25  19  3.540523E+05  3.251514E+04  3.524670E+04 -2.774940E+04  6.968819E+01  4.866587E+02
        25  20  3.857124E+05  3.984450E+04  4.366276E+04  7.711822E+03  1.924808E+03  1.744715E+03
        25  21  4.177599E+05  4.911747E+04  5.370069E+04 -2.797511E+04  3.779064E+03  2.992784E+03
        25  22  2.251215E+05  3.025277E+02  3.077624E+03 -2.745049E+04  2.830608E+02  4.858770E+02
        25  23  2.249334E+05 -2.997982E+02  3.673167E+03  8.125269E+03  2.136100E+03  1.744030E+03
        25  24  2.251316E+05  1.041406E+03  5.889507E+03 -2.744828E+04  3.988181E+03  2.992192E+03
        25  25  9.620577E+04 -3.191134E+04 -2.909271E+04 -2.715162E+04  4.963891E+02  4.850955E+02
        25  26  6.417789E+04 -4.044604E+04 -3.631836E+04  8.538629E+03  2.347338E+03  1.743346E+03
        25  27  3.253697E+04 -4.703743E+04 -4.192445E+04 -2.692158E+04  4.197234E+03  2.991600E+03
        26   1  6.589269E+05  1.080978E+05  1.151763E+05 -2.845175E+04 -4.977318E+03 -3.773046E+03
        26   2  6.891709E+05  1.145492E+05  1.275096E+05  7.921293E+03 -1.104936E+04 -5.075330E+03
        26   3  7.245777E+05  1.312001E+05  1.467068E+05 -2.900016E+04 -1.711868E+04 -6.181218E+03
        26   4  2.261396E+05  3.866801E+01  7.449225E+03 -2.793058E+04 -5.212989E+03 -3.772551E+03
        26   5  2.235755E+05 -1.678921E+03  1.172987E+04  8.722195E+03 -1.124801E+04 -5.075191E+03
        26   6  2.261691E+05  6.800199E+03  2.285222E+04 -2.792295E+04 -1.728000E+04 -6.181369E+03
        26   7 -2.064779E+05 -1.080345E+05 -1.002919E+05 -2.740965E+04 -5.448494E+03 -3.772057E+03
        26   8 -2.418233E+05 -1.179233E+05 -1.040661E+05  9.522589E+03 -1.144652E+04 -5.075052E+03
        26   9 -2.720143E+05 -1.176183E+05 -1.010210E+05 -2.684653E+04 -1.744119E+04 -6.181521E+03
        26  10  6.589269E+05  1.080977E+05  1.151762E+05 -2.845177E+04 -6.649700E-09 -8.024925E-10
        26  11  6.891708E+05  1.145492E+05  1.275094E+05  7.921248E+03 -7.959993E-09 -1.005312E-09
        26  12  7.245773E+05  1.312000E+05  1.467062E+05 -2.900025E+04 -6.752225E-09  3.248898E-10
        26  13  2.261396E+05  3.864544E+01  7.449147E+03 -2.793059E+04 -3.493127E-10 -1.224835E-09
        26  14  2.235754E+05 -1.678983E+03  1.172958E+04  8.722149E+03 -2.135645E-09 -1.028334E-09
        26  15  2.261687E+05  6.800078E+03  2.285158E+04 -2.792303E+04 -5.191364E-09 -2.819062E-10
        26  16 -2.064779E+05 -1.080345E+05 -1.002919E+05 -2.740966E+04  6.292205E-09 -1.475984E-09
        26  17 -2.418234E+05 -1.179234E+05 -1.040664E+05  9.522543E+03  6.495553E-09  2.708249E-11
        26  18 -2.720146E+05 -1.176185E+05 -1.010216E+05 -2.684661E+04 -8.985437E-10  3.413447E-10
        26  19  6.589269E+05  1.080978E+05  1.151763E+05 -2.845175E+04  4.977318E+03  3.773046E+03
        26  20  6.891709E+05  1.145492E+05  1.275096E+05  7.921293E+03  1.104936E+04  5.075330E+03
        26  21  7.245777E+05  1.312001E+05  1.467068E+05 -2.900016E+04  1.711868E+04  6.181218E+03
        26  22  2.261396E+05  3.866801E+01  7.449225E+03 -2.793058E+04  5.212989E+03  3.772551E+03
        26  23  2.235755E+05 -1.678921E+03  1.172987E+04  8.722195E+03  1.124801E+04  5.075191E+03
        26  24  2.261691E+05  6.800199E+03  2.285222E+04 -2.792295E+04  1.728000E+04  6.181369E+03
        26  25 -2.064779E+05 -1.080345E+05 -1.002919E+05 -2.740965E+04  5.448494E+03  3.772057E+03
        26  26 -2.418233E+05 -1.179233E+05 -1.040661E+05  9.522589E+03  1.144652E+04  5.075052E+03
        26  27 -2.720143E+05 -1.176183E+05 -1.010210E+05 -2.684653E+04  1.744119E+04  6.181521E+03
        27   1  9.799729E+05  1.856102E+05  2.151721E+05 -2.647433E+04 -2.161362E+04 -7.241479E+03
        27   2  1.001591E+06  1.846370E+05  2.403690E+05  9.270848E+03 -4.586819E+04 -8.830590E+03
        27   3  1.049613E+06  2.512708E+05  2.995158E+05 -3.268830E+04 -7.012356E+04 -8.769642E+03
        27   4  2.307753E+05 -1.395263E+03  2.880108E+04 -2.887971E+04 -2.200265E+04 -7.241755E+03
        27   5  2.176146E+05 -1.102352E+04  4.547990E+04  9.921039E+03 -4.595300E+04 -8.831460E+03
        27   6  2.308251E+05  4.694539E+04  9.592662E+04 -2.898845E+04 -6.990280E+04 -8.770415E+03
        27   7 -5.179136E+05 -1.884429E+05 -1.576120E+05 -3.128212E+04 -2.239120E+04 -7.242028E+03
        27   8 -5.658047E+05 -2.067302E+05 -1.494552E+05  1.057027E+04 -4.603767E+04 -8.832331E+03
        27   9 -5.873551E+05 -1.574303E+05 -1.077127E+05 -2.529383E+04 -6.968227E+04 -8.771187E+03
        27  10  9.799724E+05  1.856100E+05  2.151711E+05 -2.647446E+04  4.507492E-09  1.097042E-10
        27  11  1.001589E+06  1.846364E+05  2.403649E+05  9.270522E+03 -7.297001E-09 -1.032916E-10
        27  12  1.049608E+06  2.512694E+05  2.995064E+05 -3.268879E+04 -4.412347E-09  8.064304E-10
        27  13  2.307748E+05 -1.395449E+03  2.880008E+04 -2.887984E+04  8.533614E-09  1.331479E-10
        27  14  2.176123E+05 -1.102417E+04  4.547579E+04  9.920712E+03 -4.304575E-09 -5.005485E-10
        27  15  2.308199E+05  4.694400E+04  9.591730E+04 -2.898895E+04 -7.752151E-10  8.908854E-11
        27  16 -5.179142E+05 -1.884431E+05 -1.576130E+05 -3.128225E+04 -4.558942E-09 -6.807770E-10
        27  17 -5.658070E+05 -2.067309E+05 -1.494593E+05  1.056994E+04  6.696971E-09 -1.854656E-09
        27  18 -5.873604E+05 -1.574316E+05 -1.077220E+05 -2.529432E+04 -2.719544E-09  5.083213E-10
        27  19  9.799729E+05  1.856102E+05  2.151721E+05 -2.647433E+04  2.161362E+04  7.241479E+03
        27  20  1.001591E+06  1.846370E+05  2.403690E+05  9.270848E+03  4.586819E+04  8.830590E+03
        27  21  1.049613E+06  2.512708E+05  2.995158E+05 -3.268830E+04  7.012356E+04  8.769642E+03
        27  22  2.307753E+05 -1.395263E+03  2.880108E+04 -2.887971E+04  2.200265E+04  7.241755E+03
        27  23  2.176146E+05 -1.102352E+04  4.547990E+04  9.921039E+03  4.595300E+04  8.831460E+03
        27  24  2.308251E+05  4.694539E+04  9.592662E+04 -2.898845E+04  6.990280E+04  8.770415E+03
        27  25 -5.179136E+05 -1.884429E+05 -1.576120E+05 -3.128212E+04  2.239120E+04  7.242028E+03
        27  26 -5.658047E+05 -2.067302E+05 -1.494552E+05  1.057027E+04  4.603767E+04  8.832331E+03
        27  27 -5.873551E+05 -1.574303E+05 -1.077127E+05 -2.529383E+04  6.968227E+04  8.771187E+03
        28   1  1.342524E+06  2.603861E+05  3.865805E+05 -9.633521E+03 -8.780023E+04 -1.156180E+04
        28   2  1.311053E+06  2.074548E+05  4.553298E+05  7.211573E+03 -1.862374E+05 -1.502625E+04
        28   3  1.419276E+06  6.070226E+05  7.039820E+05 -6.294664E+04 -2.847528E+05 -6.979456E+03
        28   4  2.558009E+05 -1.095646E+04  1.163675E+05 -3.025642E+04 -8.918602E+04 -1.156515E+04
        28   5  1.860769E+05 -7.314592E+04  1.759074E+05  1.206566E+04 -1.855334E+05 -1.502687E+04
        28   6  2.558941E+05  3.172258E+05  4.141288E+05 -3.262225E+04 -2.819526E+05 -6.976175E+03
        28   7 -8.298515E+05 -2.823862E+05 -1.539338E+05 -5.084412E+04 -9.056928E+04 -1.156840E+04
        28   8 -9.377523E+05 -3.538413E+05 -1.036095E+05  1.690941E+04 -1.848304E+05 -1.502748E+04
        28   9 -9.062593E+05  2.733137E+04  1.241747E+05 -2.356818E+03 -2.791573E+05 -6.972626E+03
        28  10  1.342516E+06  2.603839E+05  3.865658E+05 -9.634338E+03  2.445845E-09  2.451556E-09
        28  11  1.311016E+06  2.074452E+05  4.552643E+05  7.209322E+03 -2.110145E-09  1.072167E-09
        28  12  1.419189E+06  6.070009E+05  7.038299E+05 -6.294824E+04  1.073139E-09 -6.574766E-10
        28  13  2.557923E+05 -1.095874E+04  1.163523E+05 -3.025725E+04  4.822655E-09  1.283238E-09
        28  14  1.860399E+05 -7.315540E+04  1.758423E+05  1.206342E+04  6.443692E-09 -1.876047E-10
        28  15  2.558088E+05  3.172044E+05  4.139794E+05 -3.262383E+04  1.601544E-09  4.067102E-10
        28  16 -8.298604E+05 -2.823886E+05 -1.539495E+05 -5.084497E+04 -2.024424E-09  1.443748E-09
        28  17 -9.377891E+05 -3.538508E+05 -1.036742E+05  1.690717E+04 -1.380455E-09  2.643945E-09
        28  18 -9.063430E+05  2.731037E+04  1.240280E+05 -2.358386E+03 -5.130615E-09  4.781232E-10
        28  19  1.342524E+06  2.603861E+05  3.865805E+05 -9.633521E+03  8.780023E+04  1.156180E+04
        28  20  1.311053E+06  2.074548E+05  4.553298E+05  7.211573E+03  1.862374E+05  1.502625E+04
        28  21  1.419276E+06  6.070226E+05  7.039820E+05 -6.294664E+04  2.847528E+05  6.979456E+03
        28  22  2.558009E+05 -1.095646E+04  1.163675E+05 -3.025642E+04  8.918602E+04  1.156515E+04
        28  23  1.860769E+05 -7.314592E+04  1.759074E+05  1.206566E+04  1.855334E+05  1.502687E+04
        28  24  2.558941E+05  3.172258E+05  4.141288E+05 -3.262225E+04  2.819526E+05  6.976175E+03
        28  25 -8.298515E+05 -2.823862E+05 -1.539338E+05 -5.084412E+04  9.056928E+04  1.156840E+04
        28  26 -9.377523E+05 -3.538413E+05 -1.036095E+05  1.690941E+04  1.848304E+05  1.502748E+04
        28  27 -9.062593E+05  2.733137E+04  1.241747E+05 -2.356818E+03  2.791573E+05  6.972626E+03
        29   1  2.815027E+05  2.425642E+04  3.665606E+05 -3.064628E+04 -1.918394E+03  2.499765E+05
        29   2 -6.429943E+04 -3.100562E+04  1.567962E+05 -8.583380E+03 -1.254832E+03  1.643483E+05
        29   3 -9.939892E+03  2.495600E+04  1.028577E+05  1.568040E+04 -5.979384E+02  7.871649E+04
        29   4  2.810037E+05  2.475227E+04  3.665603E+05  1.953205E+03 -1.905266E+03  2.499766E+05
        29   5 -6.442651E+04 -3.087871E+04  1.567962E+05 -2.557087E+02 -1.252627E+03  1.643483E+05
        29   6 -9.697324E+03  2.471273E+04  1.028576E+05 -2.622808E+02 -5.999600E+02  7.871648E+04
        29   7  2.805088E+05  2.525041E+04  3.665606E+05  3.455270E+04 -1.892139E+03  2.499767E+05
        29   8 -6.455332E+04 -3.075165E+04  1.567962E+05  8.071963E+03 -1.250422E+03  1.643484E+05
        29   9 -9.453801E+03  2.447000E+04  1.028577E+05 -1.620496E+04 -6.019815E+02  7.871646E+04
        29  10  2.814859E+05  2.418934E+04  3.664431E+05 -3.064589E+04 -3.329088E-09 -4.616287E-10
        29  11 -6.430669E+04 -3.103462E+04  1.567454E+05 -8.583214E+03 -1.186157E-08 -9.170956E-10
        29  12 -9.941556E+03  2.494935E+04  1.028460E+05  1.568044E+04 -8.775676E-09  1.134093E-10
        29  13  2.809870E+05  2.468519E+04  3.664428E+05  1.953589E+03 -5.695325E-09  2.477383E-11
        29  14 -6.443376E+04 -3.090771E+04  1.567454E+05 -2.555430E+02  2.683556E-09 -8.138547E-11
        29  15 -9.698988E+03  2.470607E+04  1.028460E+05 -2.622428E+02 -5.548403E-09 -3.576413E-11
        29  16  2.804920E+05  2.518333E+04  3.664431E+05  3.455308E+04 -9.073250E-10  5.813539E-10
        29  17 -6.456057E+04 -3.078065E+04  1.567455E+05  8.072129E+03  4.532636E-09  8.112541E-10
        29  18 -9.455464E+03  2.446334E+04  1.028461E+05 -1.620492E+04 -7.017298E-10 -2.319989E-10
        29  19  2.815027E+05  2.425642E+04  3.665606E+05 -3.064628E+04  1.918394E+03 -2.499765E+05
        29  20 -6.429943E+04 -3.100562E+04  1.567962E+05 -8.583380E+03  1.254832E+03 -1.643483E+05
        29  21 -9.939892E+03  2.495600E+04  1.028577E+05  1.568040E+04  5.979384E+02 -7.871649E+04
        29  22  2.810037E+05  2.475227E+04  3.665603E+05  1.953205E+03  1.905266E+03 -2.499766E+05
        29  23 -6.442651E+04 -3.087871E+04  1.567962E+05 -2.557087E+02  1.252627E+03 -1.643483E+05
        29  24 -9.697324E+03  2.471273E+04  1.028576E+05 -2.622808E+02  5.999600E+02 -7.871648E+04
        29  25  2.805088E+05  2.525041E+04  3.665606E+05  3.455270E+04  1.892139E+03 -2.499767E+05
        29  26 -6.455332E+04 -3.075165E+04  1.567962E+05  8.071963E+03  1.250422E+03 -1.643484E+05
        29  27 -9.453801E+03  2.447000E+04  1.028577E+05 -1.620496E+04  6.019815E+02 -7.871646E+04
        30   1  4.213380E+04  3.900947E+03  8.520601E+04 -4.369112E+03 -4.709723E+02  6.173212E+04
        30   2 -9.679611E+03 -4.976221E+03  4.122859E+04 -1.141336E+03 -3.059711E+02  4.013490E+04
        30   3 -1.322677E+03  4.005368E+03  2.635784E+04  2.408945E+03 -1.412188E+02  1.853789E+04
        30   4  4.206274E+04  3.971981E+03  8.520602E+04  2.903371E+02 -4.705089E+02  6.173212E+04
        30   5 -9.696456E+03 -4.959348E+03  4.122860E+04 -3.610792E+01 -3.058997E+02  4.013490E+04
        30   6 -1.285349E+03  3.968052E+03  2.635785E+04 -4.004161E+01 -1.412919E+02  1.853789E+04
        30   7  4.199175E+04  4.043062E+03  8.520603E+04  4.949787E+03 -4.700456E+02  6.173213E+04
        30   8 -9.713296E+03 -4.942473E+03  4.122861E+04  1.069120E+03 -3.058282E+02  4.013490E+04
        30   9 -1.247999E+03  3.930749E+03  2.635785E+04 -2.489028E+03 -1.413651E+02  1.853789E+04
        30  10  4.213278E+04  3.896855E+03  8.519885E+04 -4.369089E+03  7.576398E-10  3.974999E-09
        30  11 -9.680044E+03 -4.977951E+03  4.122557E+04 -1.141326E+03  8.250196E-09 -1.079351E-10
        30  12 -1.322770E+03  4.004999E+03  2.635720E+04  2.408947E+03  2.227959E-09 -2.811284E-09
        30  13  4.206171E+04  3.967889E+03  8.519885E+04  2.903605E+02  8.352899E-09 -5.088142E-11
        30  14 -9.696888E+03 -4.961078E+03  4.122557E+04 -3.609804E+01  1.254221E-08 -7.526880E-11
        30  15 -1.285442E+03  3.967683E+03  2.635720E+04 -4.003950E+01  5.506975E-10 -9.073346E-11
        30  16  4.199073E+04  4.038970E+03  8.519887E+04  4.949810E+03 -7.114213E-09 -3.980706E-09
        30  17 -9.713728E+03 -4.944203E+03  4.122558E+04  1.069130E+03  1.073058E-08  2.149111E-10
        30  18 -1.248091E+03  3.930380E+03  2.635721E+04 -2.489026E+03 -4.782732E-09  2.720973E-09
        30  19  4.213380E+04  3.900947E+03  8.520601E+04 -4.369112E+03  4.709723E+02 -6.173212E+04
        30  20 -9.679611E+03 -4.976221E+03  4.122859E+04 -1.141336E+03  3.059711E+02 -4.013490E+04
        30  21 -1.322677E+03  4.005368E+03  2.635784E+04  2.408945E+03  1.412188E+02 -1.853789E+04
        30  22  4.206274E+04  3.971981E+03  8.520602E+04  2.903371E+02  4.705089E+02 -6.173212E+04
        30  23 -9.696456E+03 -4.959348E+03  4.122860E+04 -3.610792E+01  3.058997E+02 -4.013490E+04
        30  24 -1.285349E+03  3.968052E+03  2.635785E+04 -4.004161E+01  1.412919E+02 -1.853789E+04
        30  25  4.199175E+04  4.043062E+03  8.520603E+04  4.949787E+03  4.700456E+02 -6.173213E+04
        30  26 -9.713296E+03 -4.942473E+03  4.122861E+04  1.069120E+03  3.058282E+02 -4.013490E+04
        30  27 -1.247999E+03  3.930749E+03  2.635785E+04 -2.489028E+03  1.413651E+02 -1.853789E+04
        31   1  6.244829E+03  7.516020E+02  2.166369E+04 -6.519260E+02 -1.082134E+02  1.419582E+04
        31   2 -1.656121E+03 -9.534958E+02  1.293133E+04 -1.241407E+02 -5.791460E+01  7.598365E+03
        31   3  7.139894E+02  7.687783E+02  1.106229E+04  4.558050E+02 -7.629000E+00  1.001033E+03
        31   4  6.234257E+03  7.621867E+02  2.166369E+04  4.171061E+01 -1.081976E+02  1.419582E+04
        31   5 -1.657930E+03 -9.516762E+02  1.293133E+04 -5.384079E+00 -5.791315E+01  7.598365E+03
        31   6  7.209441E+02  7.618322E+02  1.106229E+04 -3.103710E-01 -7.629735E+00  1.001033E+03
        31   7  6.223687E+03  7.727725E+02  2.166369E+04  7.353472E+02 -1.081817E+02  1.419582E+04
        31   8 -1.659738E+03 -9.498567E+02  1.293133E+04  1.133726E+02 -5.791170E+01  7.598365E+03
        31   9  7.278995E+02  7.548864E+02  1.106230E+04 -4.564258E+02 -7.630471E+00  1.001033E+03
        31  10  6.244775E+03  7.513856E+02  2.166331E+04 -6.519247E+02 -7.469762E-09  6.159759E-10
        31  11 -1.656137E+03 -9.535578E+02  1.293122E+04 -1.241404E+02 -9.000051E-10  3.226107E-10
        31  12  7.139892E+02  7.687773E+02  1.106229E+04  4.558050E+02 -5.738138E-09  2.963169E-10
        31  13  6.234203E+03  7.619703E+02  2.166331E+04  4.171185E+01 -6.817484E-09 -1.790544E-10
        31  14 -1.657945E+03 -9.517382E+02  1.293122E+04 -5.383724E+00 -2.535837E-10 -1.608077E-10
        31  15  7.209438E+02  7.618311E+02  1.106229E+04 -3.103648E-01 -1.981834E-09 -2.607974E-11
        31  16  6.223633E+03  7.725561E+02  2.166332E+04  7.353484E+02 -1.000406E-09 -7.129090E-10
        31  17 -1.659753E+03 -9.499187E+02  1.293122E+04  1.133729E+02 -2.426719E-09 -3.984156E-10
        31  18  7.278992E+02  7.548853E+02  1.106229E+04 -4.564258E+02 -4.911440E-10 -3.639573E-10
        31  19  6.244829E+03  7.516020E+02  2.166369E+04 -6.519260E+02  1.082134E+02 -1.419582E+04
        31  20 -1.656121E+03 -9.534958E+02  1.293133E+04 -1.241407E+02  5.791460E+01 -7.598365E+03
        31  21  7.139894E+02  7.687783E+02  1.106229E+04  4.558050E+02  7.629000E+00 -1.001033E+03
        31  22  6.234257E+03  7.621867E+02  2.166369E+04  4.171061E+01  1.081976E+02 -1.419582E+04
        31  23 -1.657930E+03 -9.516762E+02  1.293133E+04 -5.384079E+00  5.791315E+01 -7.598365E+03
        31  24  7.209441E+02  7.618322E+02  1.106229E+04 -3.103710E-01  7.629735E+00 -1.001033E+03
        31  25  6.223687E+03  7.727725E+02  2.166369E+04  7.353472E+02  1.081817E+02 -1.419582E+04
        31  26 -1.659738E+03 -9.498567E+02  1.293133E+04  1.133726E+02  5.791170E+01 -7.598365E+03
        31  27  7.278995E+02  7.548864E+02  1.106230E+04 -4.564258E+02  7.630471E+00 -1.001033E+03
        32   1 -9.107973E+06 -3.043265E+06 -1.909632E+06 -3.208923E+06 -8.208551E+05 -2.808687E+05
        32   2 -8.878962E+06 -1.831255E+06 -1.148007E+06 -3.292891E+06 -5.363264E+05 -1.036653E+05
        32   3 -9.039364E+06 -1.766781E+06 -9.156118E+05 -3.157261E+06 -2.275171E+05  1.033159E+04
        32   4 -6.780144E+06 -1.864816E+06 -1.213057E+06 -2.280683E+06 -7.763427E+05 -2.642935E+05
        32   5 -6.522668E+06 -8.502812E+05 -5.074941E+05 -2.559693E+06 -5.231530E+05 -9.875649E+04
        32   6 -6.646729E+06 -9.745911E+05 -3.045333E+05 -2.619588E+06 -2.457297E+05  3.441520E+03
        32   7 -4.446795E+06 -6.846860E+05 -5.170171E+05 -1.348831E+06 -7.316392E+05 -2.475922E+05
        32   8 -4.160882E+06  1.313664E+05  1.325142E+05 -1.823823E+06 -5.099207E+05 -9.382036E+04
        32   9 -4.248458E+06 -1.823514E+05  3.060940E+05 -2.080158E+06 -2.640190E+05 -3.469056E+03
        32  10 -9.108727E+06 -3.043536E+06 -1.911071E+06 -3.209111E+06 -5.740582E-11 -5.112383E-10
        32  11 -8.879278E+06 -1.831346E+06 -1.148577E+06 -3.292936E+06 -1.180523E-09 -2.077834E-09
        32  12 -9.039421E+06 -1.766795E+06 -9.157106E+05 -3.157260E+06  3.044368E-09 -1.563433E-09
        32  13 -6.780816E+06 -1.865056E+06 -1.214337E+06 -2.280849E+06  4.011540E-09 -1.380686E-09
        32  14 -6.522967E+06 -8.503664E+05 -5.080331E+05 -2.559735E+06 -2.690928E-09 -2.752038E-09
        32  15 -6.646794E+06 -9.746075E+05 -3.046479E+05 -2.619588E+06  5.491782E-10  2.959288E-10
        32  16 -4.447390E+06 -6.848973E+05 -5.181471E+05 -1.348978E+06 -1.554178E-09 -2.164450E-09
        32  17 -4.161165E+06  1.312864E+05  1.320051E+05 -1.823861E+06 -1.323191E-09 -2.172371E-09
        32  18 -4.248533E+06 -1.823702E+05  3.059621E+05 -2.080159E+06  1.319012E-09  2.255656E-09
        32  19 -9.107973E+06 -3.043265E+06 -1.909632E+06 -3.208923E+06  8.208551E+05  2.808687E+05
        32  20 -8.878962E+06 -1.831255E+06 -1.148007E+06 -3.292891E+06  5.363264E+05  1.036653E+05
        32  21 -9.039364E+06 -1.766781E+06 -9.156118E+05 -3.157261E+06  2.275171E+05 -1.033159E+04
        32  22 -6.780144E+06 -1.864816E+06 -1.213057E+06 -2.280683E+06  7.763427E+05  2.642935E+05
        32  23 -6.522668E+06 -8.502812E+05 -5.074941E+05 -2.559693E+06  5.231530E+05  9.875649E+04
        32  24 -6.646729E+06 -9.745911E+05 -3.045333E+05 -2.619588E+06  2.457297E+05 -3.441520E+03
        32  25 -4.446795E+06 -6.846860E+05 -5.170171E+05 -1.348831E+06  7.316392E+05  2.475922E+05
        32  26 -4.160882E+06  1.313664E+05  1.325142E+05 -1.823823E+06  5.099207E+05  9.382036E+04
        32  27 -4.248458E+06 -1.823514E+05  3.060940E+05 -2.080158E+06  2.640190E+05  3.469056E+03
        33   1 -8.689258E+06 -1.926221E+06 -8.072482E+05 -3.157082E+06 -1.981060E+05  7.242645E+03
        33   2 -8.540103E+06 -1.689104E+06 -6.295670E+05 -3.065964E+06 -1.324346E+05  2.862064E+04
        33   3 -8.340225E+06 -1.662844E+06 -5.304151E+05 -3.056794E+06 -6.461680E+04  4.428827E+04
        33   4 -6.600138E+06 -1.106454E+06 -2.472854E+05 -2.557799E+06 -1.986182E+05  7.018514E+03
        33   5 -6.618859E+06 -9.547449E+05 -1.195886E+05 -2.534311E+06 -1.356554E+05  2.738643E+04
        33   6 -6.586182E+06 -1.013095E+06 -6.803704E+04 -2.592795E+06 -7.056878E+04  4.203994E+04
        33   7 -4.506734E+06 -2.863300E+05  3.122880E+05 -1.956632E+06 -1.991315E+05  6.794034E+03
        33   8 -4.693991E+06 -2.201351E+05  3.900676E+05 -2.001140E+06 -1.388869E+05  2.614818E+04
        33   9 -4.829119E+06 -3.631854E+05  3.940780E+05 -2.127605E+06 -7.653930E+04  3.978498E+04
        33  10 -8.689300E+06 -1.926232E+06 -8.073230E+05 -3.157081E+06  4.068410E-09  1.151059E-09
        33  11 -8.540122E+06 -1.689110E+06 -6.296018E+05 -3.065961E+06 -9.403465E-09 -1.207512E-09
        33  12 -8.340230E+06 -1.662847E+06 -5.304266E+05 -3.056791E+06 -2.517830E-09  1.677537E-10
        33  13 -6.600181E+06 -1.106464E+06 -2.473603E+05 -2.557798E+06 -7.521281E-10  2.835020E-10
        33  14 -6.618879E+06 -9.547506E+05 -1.196249E+05 -2.534308E+06 -6.249992E-10 -1.161870E-09
        33  15 -6.586188E+06 -1.013098E+06 -6.804975E+04 -2.592793E+06 -2.569666E-09  1.165803E-09
        33  16 -4.506777E+06 -2.863408E+05  3.122129E+05 -1.956631E+06 -1.128887E-09 -2.702363E-10
        33  17 -4.694012E+06 -2.201411E+05  3.900298E+05 -2.001137E+06  4.939655E-09 -2.005537E-09
        33  18 -4.829125E+06 -3.631886E+05  3.940640E+05 -2.127603E+06 -3.943596E-09  1.803725E-09
        33  19 -8.689258E+06 -1.926221E+06 -8.072482E+05 -3.157082E+06  1.981060E+05 -7.242645E+03
        33  20 -8.540103E+06 -1.689104E+06 -6.295670E+05 -3.065964E+06  1.324346E+05 -2.862064E+04
        33  21 -8.340225E+06 -1.662844E+06 -5.304151E+05 -3.056794E+06  6.461680E+04 -4.428827E+04
        33  22 -6.600138E+06 -1.106454E+06 -2.472854E+05 -2.557799E+06  1.986182E+05 -7.018514E+03
        33  23 -6.618859E+06 -9.547449E+05 -1.195886E+05 -2.534311E+06  1.356554E+05 -2.738643E+04
        33  24 -6.586182E+06 -1.013095E+06 -6.803704E+04 -2.592795E+06  7.056878E+04 -4.203994E+04
        33  25 -4.506734E+06 -2.863300E+05  3.122880E+05 -1.956632E+06  1.991315E+05 -6.794034E+03
        33  26 -4.693991E+06 -2.201351E+05  3.900676E+05 -2.001140E+06  1.388869E+05 -2.614818E+04
        33  27 -4.829119E+06 -3.631854E+05  3.940780E+05 -2.127605E+06  7.653930E+04 -3.978498E+04
        34   1 -8.040190E+06 -1.586107E+06 -4.400685E+05 -2.992135E+06 -5.370256E+04  4.124697E+04
        34   2 -7.867313E+06 -1.423383E+06 -3.534890E+05 -2.858922E+06 -3.547897E+04  3.676863E+04
        34   3 -7.575088E+06 -1.396236E+06 -2.805988E+05 -2.864932E+06 -1.688445E+04  3.122581E+04
        34   4 -6.575888E+06 -1.031781E+06 -5.307746E+04 -2.592140E+06 -5.856174E+04  3.941477E+04
        34   5 -6.634758E+06 -9.588641E+05 -2.769089E+04 -2.524429E+06 -4.084764E+04  3.475359E+04
        34   6 -6.574226E+06 -1.021387E+06 -1.555455E+04 -2.595942E+06 -2.276904E+04  2.902683E+04
        34   7 -5.109482E+06 -4.773198E+05  3.337280E+05 -2.191278E+06 -6.343356E+04  3.757781E+04
        34   8 -5.400716E+06 -4.942537E+05  2.979753E+05 -2.189327E+06 -4.622809E+04  3.273416E+04
        34   9 -5.572387E+06 -6.464820E+05  2.494021E+05 -2.326557E+06 -2.866414E+04  2.682397E+04
        34  10 -8.040193E+06 -1.586109E+06 -4.400772E+05 -2.992133E+06  6.641340E-09  2.279445E-09
        34  11 -7.867315E+06 -1.423385E+06 -3.534939E+05 -2.858921E+06 -1.479133E-09 -2.657454E-09
        34  12 -7.575088E+06 -1.396237E+06 -2.806012E+05 -2.864931E+06  4.224715E-10 -7.193167E-10
        34  13 -6.575892E+06 -1.031784E+06 -5.308684E+04 -2.592138E+06 -1.110006E-09  1.350663E-09
        34  14 -6.634760E+06 -9.588659E+05 -2.769629E+04 -2.524427E+06 -3.798502E-09 -2.468561E-09
        34  15 -6.574227E+06 -1.021388E+06 -1.555710E+04 -2.595941E+06 -7.508867E-09 -1.603127E-09
        34  16 -5.109487E+06 -4.773224E+05  3.337177E+05 -2.191276E+06 -4.553191E-09  1.834661E-10
        34  17 -5.400718E+06 -4.942554E+05  2.979693E+05 -2.189326E+06 -1.863849E-09 -1.935943E-09
        34  18 -5.572389E+06 -6.464830E+05  2.493992E+05 -2.326556E+06  6.629328E-09  1.622265E-10
        34  19 -8.040190E+06 -1.586107E+06 -4.400685E+05 -2.992135E+06  5.370256E+04 -4.124697E+04
        34  20 -7.867313E+06 -1.423383E+06 -3.534890E+05 -2.858922E+06  3.547897E+04 -3.676863E+04
        34  21 -7.575088E+06 -1.396236E+06 -2.805988E+05 -2.864932E+06  1.688445E+04 -3.122581E+04
        34  22 -6.575888E+06 -1.031781E+06 -5.307746E+04 -2.592140E+06  5.856174E+04 -3.941477E+04
        34  23 -6.634758E+06 -9.588641E+05 -2.769089E+04 -2.524429E+06  4.084764E+04 -3.475359E+04
        34  24 -6.574226E+06 -1.021387E+06 -1.555455E+04 -2.595942E+06  2.276904E+04 -2.902683E+04
        34  25 -5.109482E+06 -4.773198E+05  3.337280E+05 -2.191278E+06  6.343356E+04 -3.757781E+04
        34  26 -5.400716E+06 -4.942537E+05  2.979753E+05 -2.189327E+06  4.622809E+04 -3.273416E+04
        34  27 -5.572387E+06 -6.464820E+05  2.494021E+05 -2.326557E+06  2.866414E+04 -2.682397E+04
        35   1 -7.239495E+06 -1.276959E+06 -1.878006E+05 -2.779612E+06 -1.210700E+04  2.533792E+04
        35   2 -7.047752E+06 -1.109300E+06 -1.150381E+05 -2.630180E+06 -4.049236E+03  1.505217E+04
        35   3 -6.719548E+06 -1.080419E+06 -4.543264E+04 -2.639067E+06  4.096043E+03  4.502760E+03
        35   4 -6.570811E+06 -1.025825E+06 -1.216062E+04 -2.598738E+06 -1.801588E+04  2.313416E+04
        35   5 -6.638900E+06 -9.558310E+05 -7.133925E+03 -2.519787E+06 -1.008965E+04  1.280228E+04
        35   6 -6.570580E+06 -1.024587E+06 -5.153665E+03 -2.599174E+06 -2.077777E+03  2.206487E+03
        35   7 -5.901686E+06 -7.746631E+05  1.634421E+05 -2.417686E+06 -2.393184E+04  2.092776E+04
        35   8 -6.229886E+06 -8.023522E+05  1.007558E+05 -2.409327E+06 -1.613446E+04  1.055075E+04
        35   9 -6.421593E+06 -9.687533E+05  3.512314E+04 -2.559272E+06 -8.253189E+03 -9.037234E+01
        35  10 -7.239496E+06 -1.276959E+06 -1.878021E+05 -2.779611E+06 -2.123947E-09  9.825733E-10
        35  11 -7.047752E+06 -1.109300E+06 -1.150386E+05 -2.630180E+06  2.412066E-10  1.728169E-09
        35  12 -6.719548E+06 -1.080419E+06 -4.543271E+04 -2.639067E+06  9.034738E-10  4.163389E-10
        35  13 -6.570812E+06 -1.025826E+06 -1.216223E+04 -2.598738E+06 -4.660385E-09  2.261321E-10
        35  14 -6.638901E+06 -9.558312E+05 -7.134424E+03 -2.519787E+06 -1.304460E-09 -3.292014E-10
        35  15 -6.570580E+06 -1.024587E+06 -5.153682E+03 -2.599174E+06  3.407701E-09  2.100411E-09
        35  16 -5.901686E+06 -7.746637E+05  1.634402E+05 -2.417686E+06 -4.244093E-09  6.691222E-10
        35  17 -6.229886E+06 -8.023524E+05  1.007551E+05 -2.409327E+06  2.715274E-09  1.108471E-09
        35  18 -6.421593E+06 -9.687534E+05  3.512301E+04 -2.559272E+06 -3.760646E-09  1.597411E-09
        35  19 -7.239495E+06 -1.276959E+06 -1.878006E+05 -2.779612E+06  1.210700E+04 -2.533792E+04
        35  20 -7.047752E+06 -1.109300E+06 -1.150381E+05 -2.630180E+06  4.049236E+03 -1.505217E+04
        35  21 -6.719548E+06 -1.080419E+06 -4.543264E+04 -2.639067E+06 -4.096043E+03 -4.502760E+03
        35  22 -6.570811E+06 -1.025825E+06 -1.216062E+04 -2.598738E+06  1.801588E+04 -2.313416E+04
        35  23 -6.638900E+06 -9.558310E+05 -7.133925E+03 -2.519787E+06  1.008965E+04 -1.280228E+04
        35  24 -6.570580E+06 -1.024587E+06 -5.153665E+03 -2.599174E+06  2.077777E+03 -2.206487E+03
        35  25 -5.901686E+06 -7.746631E+05  1.634421E+05 -2.417686E+06  2.393184E+04 -2.092776E+04
        35  26 -6.229886E+06 -8.023522E+05  1.007558E+05 -2.409327E+06  1.613446E+04 -1.055075E+04
        35  27 -6.421593E+06 -9.687533E+05  3.512314E+04 -2.559272E+06  8.253189E+03  9.037234E+01
        36   1 -6.370744E+06 -9.495371E+05  4.883372E+04 -2.545339E+06  7.528076E+03 -2.233369E+03
        36   2 -6.179714E+06 -7.836765E+05  1.155002E+05 -2.395873E+06  1.462415E+04 -1.314339E+04
        36   3 -5.852297E+06 -7.557610E+05  1.799120E+05 -2.404264E+06  2.162513E+04 -2.375605E+04
        36   4 -6.570625E+06 -1.024521E+06 -4.880820E+03 -2.599039E+06  1.354899E+03 -4.529525E+03
        36   5 -6.638870E+06 -9.560131E+05 -5.620429E+03 -2.519923E+06  8.598904E+03 -1.538813E+04
        36   6 -6.570814E+06 -1.025492E+06 -8.728348E+03 -2.598701E+06  1.574647E+04 -2.594946E+04
        36   7 -6.770468E+06 -1.099503E+06 -5.859896E+04 -2.652723E+06 -4.816099E+03 -6.824872E+03
        36   8 -7.097822E+06 -1.128338E+06 -1.267600E+05 -2.643891E+06  2.578552E+03 -1.763105E+04
        36   9 -7.288832E+06 -1.295194E+06 -1.974147E+05 -2.792933E+06  9.875278E+03 -2.814010E+04
        36  10 -6.370744E+06 -9.495371E+05  4.883361E+04 -2.545339E+06 -3.399173E-09 -1.998406E-10
        36  11 -6.179714E+06 -7.836767E+05  1.154995E+05 -2.395873E+06 -6.272260E-09 -1.886698E-09
        36  12 -5.852298E+06 -7.557617E+05  1.799100E+05 -2.404264E+06 -3.356500E-09 -9.352592E-10
        36  13 -6.570625E+06 -1.024521E+06 -4.880862E+03 -2.599039E+06 -4.505558E-09  5.733819E-10
        36  14 -6.638870E+06 -9.560134E+05 -5.621011E+03 -2.519923E+06 -3.547702E-09 -1.485276E-09
        36  15 -6.570815E+06 -1.025493E+06 -8.730074E+03 -2.598700E+06 -8.993265E-09 -1.676573E-09
        36  16 -6.770468E+06 -1.099503E+06 -5.859909E+04 -2.652723E+06  4.508397E-09 -9.367132E-10
        36  17 -7.097822E+06 -1.128339E+06 -1.267606E+05 -2.643891E+06  5.204652E-09  8.886010E-11
        36  18 -7.288833E+06 -1.295195E+06 -1.974163E+05 -2.792933E+06 -3.768468E-09 -2.931277E-09
        36  19 -6.370744E+06 -9.495371E+05  4.883372E+04 -2.545339E+06 -7.528076E+03  2.233369E+03
        36  20 -6.179714E+06 -7.836765E+05  1.155002E+05 -2.395873E+06 -1.462415E+04  1.314339E+04
        36  21 -5.852297E+06 -7.557610E+05  1.799120E+05 -2.404264E+06 -2.162513E+04  2.375605E+04
        36  22 -6.570625E+06 -1.024521E+06 -4.880820E+03 -2.599039E+06 -1.354899E+03  4.529525E+03
        36  23 -6.638870E+06 -9.560131E+05 -5.620429E+03 -2.519923E+06 -8.598904E+03  1.538813E+04
        36  24 -6.570814E+06 -1.025492E+06 -8.728348E+03 -2.598701E+06 -1.574647E+04  2.594946E+04
        36  25 -6.770468E+06 -1.099503E+06 -5.859896E+04 -2.652723E+06  4.816099E+03  6.824872E+03
        36  26 -7.097822E+06 -1.128338E+06 -1.267600E+05 -2.643891E+06 -2.578552E+03  1.763105E+04
        36  27 -7.288832E+06 -1.295194E+06 -1.974147E+05 -2.792933E+06 -9.875278E+03  2.814010E+04
        37   1 -5.525645E+06 -6.282800E+05  2.664604E+05 -2.312864E+06  2.567539E+04 -2.985631E+04
        37   2 -5.356130E+06 -4.782655E+05  3.183086E+05 -2.177530E+06  3.886742E+04 -3.729451E+04
        37   3 -5.066219E+06 -4.586097E+05  3.616051E+05 -2.180731E+06  5.169175E+04 -4.364661E+04
        37   4 -6.574191E+06 -1.021253E+06 -1.090447E+04 -2.595444E+06  1.982561E+04 -3.204344E+04
        37   5 -6.634924E+06 -9.597291E+05 -1.915950E+04 -2.524801E+06  3.355072E+04 -3.929139E+04
        37   6 -6.575416E+06 -1.028703E+06 -3.640223E+04 -2.592732E+06  4.690398E+04 -4.545341E+04
        37   7 -7.621654E+06 -1.414160E+06 -2.883619E+05 -2.877585E+06  1.398680E+04 -3.422651E+04
        37   8 -7.912112E+06 -1.441091E+06 -3.567670E+05 -2.871416E+06  2.824614E+04 -4.128375E+04
        37   9 -8.082383E+06 -1.598653E+06 -4.346056E+05 -3.003817E+06  4.212902E+04 -4.725540E+04
        37  10 -5.525646E+06 -6.282811E+05  2.664575E+05 -2.312864E+06  2.985340E-09  1.812736E-09
        37  11 -5.356132E+06 -4.782673E+05  3.183032E+05 -2.177529E+06  2.386909E-09  2.624139E-09
        37  12 -5.066223E+06 -4.586125E+05  3.615965E+05 -2.180729E+06  9.447070E-09  8.186719E-10
        37  13 -6.574192E+06 -1.021255E+06 -1.090713E+04 -2.595443E+06 -3.794232E-09 -2.150832E-10
        37  14 -6.634925E+06 -9.597311E+05 -1.916451E+04 -2.524800E+06 -4.806760E-09  2.523862E-09
        37  15 -6.575419E+06 -1.028706E+06 -3.641024E+04 -2.592731E+06 -3.936323E-09  2.939767E-09
        37  16 -7.621654E+06 -1.414161E+06 -2.883645E+05 -2.877585E+06 -2.120136E-09 -2.692467E-09
        37  17 -7.912113E+06 -1.441093E+06 -3.567717E+05 -2.871415E+06  8.321959E-09 -2.762977E-09
        37  18 -8.082385E+06 -1.598656E+06 -4.346131E+05 -3.003815E+06 -6.829224E-09 -3.912486E-09
        37  19 -5.525645E+06 -6.282800E+05  2.664604E+05 -2.312864E+06 -2.567539E+04  2.985631E+04
        37  20 -5.356130E+06 -4.782655E+05  3.183086E+05 -2.177530E+06 -3.886742E+04  3.729451E+04
        37  21 -5.066219E+06 -4.586097E+05  3.616051E+05 -2.180731E+06 -5.169175E+04  4.364661E+04
        37  22 -6.574191E+06 -1.021253E+06 -1.090447E+04 -2.595444E+06 -1.982561E+04  3.204344E+04
        37  23 -6.634924E+06 -9.597291E+05 -1.915950E+04 -2.524801E+06 -3.355072E+04  3.929139E+04
        37  24 -6.575416E+06 -1.028703E+06 -3.640223E+04 -2.592732E+06 -4.690398E+04  4.545341E+04
        37  25 -7.621654E+06 -1.414160E+06 -2.883619E+05 -2.877585E+06 -1.398680E+04  3.422651E+04
        37  26 -7.912112E+06 -1.441091E+06 -3.567670E+05 -2.871416E+06 -2.824614E+04  4.128375E+04
        37  27 -8.082383E+06 -1.598653E+06 -4.346056E+05 -3.003817E+06 -4.212902E+04  4.725540E+04
        38   1 -4.791802E+06 -3.462772E+05  4.257178E+05 -2.111582E+06  6.171329E+04 -4.693076E+04
        38   2 -4.660808E+06 -2.132978E+05  4.368786E+05 -1.993355E+06  1.044815E+05 -4.051225E+04
        38   3 -4.463469E+06 -2.518006E+05  3.986724E+05 -1.963552E+06  1.451407E+05 -2.837585E+04
        38   4 -6.584320E+06 -1.013795E+06 -4.654388E+04 -2.590808E+06  5.583372E+04 -4.915408E+04
        38   5 -6.621975E+06 -9.597741E+05 -8.199341E+04 -2.534554E+06  1.014011E+05 -4.169409E+04
        38   6 -6.593978E+06 -1.077993E+06 -1.691761E+05 -2.566750E+06  1.448440E+05 -2.851415E+04
        38   7 -8.373705E+06 -1.681139E+06 -5.190834E+05 -3.068779E+06  4.997280E+04 -5.137063E+04
        38   8 -8.579382E+06 -1.705998E+06 -6.012003E+05 -3.074187E+06  9.833101E+04 -4.287198E+04
        38   9 -8.720046E+06 -1.903841E+06 -7.374241E+05 -3.168034E+06  1.445478E+05 -2.865231E+04
        38  10 -4.791807E+06 -3.462806E+05  4.257066E+05 -2.111580E+06 -2.455960E-09 -5.245664E-09
        38  11 -4.660820E+06 -2.133025E+05  4.368549E+05 -1.993351E+06 -3.393873E-09 -3.623732E-09
        38  12 -4.463492E+06 -2.518071E+05  3.986311E+05 -1.963549E+06  1.596137E-09 -1.665758E-09
        38  13 -6.584324E+06 -1.013798E+06 -4.655428E+04 -2.590805E+06  3.747092E-09  2.112742E-09
        38  14 -6.621986E+06 -9.597788E+05 -8.201611E+04 -2.534551E+06  3.452199E-09  1.382445E-09
        38  15 -6.594001E+06 -1.077999E+06 -1.692173E+05 -2.566747E+06  2.983008E-09  3.682901E-10
        38  16 -8.373709E+06 -1.681142E+06 -5.190931E+05 -3.068777E+06  9.485337E-09 -1.624058E-10
        38  17 -8.579393E+06 -1.706002E+06 -6.012220E+05 -3.074183E+06  7.088455E-09  8.345130E-11
        38  18 -8.720069E+06 -1.903847E+06 -7.374653E+05 -3.168030E+06 -2.748519E-09  2.063276E-09
        38  19 -4.791802E+06 -3.462772E+05  4.257178E+05 -2.111582E+06 -6.171329E+04  4.693076E+04
        38  20 -4.660808E+06 -2.132978E+05  4.368786E+05 -1.993355E+06 -1.044815E+05  4.051225E+04
        38  21 -4.463469E+06 -2.518006E+05  3.986724E+05 -1.963552E+06 -1.451407E+05  2.837585E+04
        38  22 -6.584320E+06 -1.013795E+06 -4.654388E+04 -2.590808E+06 -5.583372E+04  4.915408E+04
        38  23 -6.621975E+06 -9.597741E+05 -8.199341E+04 -2.534554E+06 -1.014011E+05  4.169409E+04
        38  24 -6.593978E+06 -1.077993E+06 -1.691761E+05 -2.566750E+06 -1.448440E+05  2.851415E+04
        38  25 -8.373705E+06 -1.681139E+06 -5.190834E+05 -3.068779E+06 -4.997280E+04  5.137063E+04
        38  26 -8.579382E+06 -1.705998E+06 -6.012003E+05 -3.074187E+06 -9.833101E+04  4.287198E+04
        38  27 -8.720046E+06 -1.903841E+06 -7.374241E+05 -3.168034E+06 -1.445478E+05  2.865231E+04
        39   1 -4.231931E+06 -1.558048E+05  4.090153E+05 -2.028505E+06  1.966435E+05 -2.310258E+04
        39   2 -4.151362E+06  7.918205E+04  2.981147E+05 -1.834942E+06  3.549900E+05  3.396749E+04
        39   3 -4.305306E+06 -4.720846E+05 -1.295635E+05 -1.509617E+06  4.891411E+05  1.543609E+05
        39   4 -6.628463E+06 -9.850127E+05 -2.082986E+05 -2.605833E+06  1.785442E+05 -2.997502E+04
        39   5 -6.553157E+06 -8.921263E+05 -3.475609E+05 -2.555922E+06  3.687235E+05  3.914072E+04
        39   6 -6.719897E+06 -1.593749E+06 -8.300461E+05 -2.373963E+06  5.346443E+05  1.716070E+05
        39   7 -9.019380E+06 -1.814085E+06 -8.260795E+05 -3.181227E+06  1.605213E+05 -3.682436E+04
        39   8 -8.949273E+06 -1.862843E+06 -9.937482E+05 -3.274268E+06  3.823957E+05  4.428721E+04
        39   9 -9.128680E+06 -2.714183E+06 -1.531089E+06 -3.234949E+06  5.799469E+05  1.887397E+05
        39  10 -4.231973E+06 -1.558158E+05  4.089412E+05 -2.028501E+06 -6.595841E-10  9.908250E-11
        39  11 -4.151498E+06  7.914666E+04  2.978740E+05 -1.834952E+06  1.363905E-11  1.471767E-09
        39  12 -4.305571E+06 -4.721752E+05 -1.300618E+05 -1.509678E+06  1.329649E-09  7.290124E-10
        39  13 -6.628498E+06 -9.850223E+05 -2.083607E+05 -2.605829E+06 -9.909149E-10  1.669767E-09
        39  14 -6.553304E+06 -8.921650E+05 -3.478222E+05 -2.555934E+06 -7.262881E-09  7.773215E-09
        39  15 -6.720215E+06 -1.593859E+06 -8.306459E+05 -2.374038E+06  1.432762E-09 -1.122672E-09
        39  16 -9.019408E+06 -1.814094E+06 -8.261310E+05 -3.181223E+06  2.571553E-09  2.908096E-09
        39  17 -8.949432E+06 -1.862885E+06 -9.940309E+05 -3.274282E+06 -6.592119E-09  6.249813E-10
        39  18 -9.129056E+06 -2.714314E+06 -1.531800E+06 -3.235038E+06  1.376614E-09 -4.718871E-11
        39  19 -4.231931E+06 -1.558048E+05  4.090153E+05 -2.028505E+06 -1.966435E+05  2.310258E+04
        39  20 -4.151362E+06  7.918205E+04  2.981147E+05 -1.834942E+06 -3.549900E+05 -3.396749E+04
        39  21 -4.305306E+06 -4.720846E+05 -1.295635E+05 -1.509617E+06 -4.891411E+05 -1.543609E+05
        39  22 -6.628463E+06 -9.850127E+05 -2.082986E+05 -2.605833E+06 -1.785442E+05  2.997502E+04
        39  23 -6.553157E+06 -8.921263E+05 -3.475609E+05 -2.555922E+06 -3.687235E+05 -3.914072E+04
        39  24 -6.719897E+06 -1.593749E+06 -8.300461E+05 -2.373963E+06 -5.346443E+05 -1.716070E+05
        39  25 -9.019380E+06 -1.814085E+06 -8.260795E+05 -3.181227E+06 -1.605213E+05  3.682436E+04
        39  26 -8.949273E+06 -1.862843E+06 -9.937482E+05 -3.274268E+06 -3.823957E+05 -4.428721E+04
        39  27 -9.128680E+06 -2.714183E+06 -1.531089E+06 -3.234949E+06 -5.799469E+05 -1.887397E+05
        40   1  3.642960E+05  1.648053E+05  4.111860E+05 -2.377699E+05 -1.063439E+03  2.481219E+05
        40   2  5.909183E+04  6.914389E+04  2.089613E+05 -1.196352E+05  1.060846E+03  1.423054E+05
        40   3 -2.751202E+03  4.778589E+04  1.364296E+05 -1.733080E+04 -4.728355E+02  3.646652E+04
        40   4  3.298200E+05  4.180808E+04  3.805641E+05 -4.760508E+04 -9.551213E+02  2.441147E+05
        40   5  4.185456E+04  5.067557E+03  1.945515E+05 -4.105339E+04  1.072344E+03  1.430957E+05
        40   6 -3.610059E+03  4.178835E+04  1.349125E+05 -5.031086E+04 -5.203406E+02  4.204420E+04
        40   7  2.954782E+05 -8.109816E+04  3.499603E+05  1.425215E+05 -8.492426E+02  2.401084E+05
        40   8  2.464012E+04 -5.899179E+04  1.801447E+05  3.752016E+04  1.084043E+03  1.438859E+05
        40   9 -4.464810E+03  3.579326E+04  1.333961E+05 -8.329062E+04 -5.684386E+02  4.762182E+04
        40  10  3.642795E+05  1.647392E+05  4.110704E+05 -2.377697E+05 -2.343914E-09  1.370422E-09
        40  11  5.908640E+04  6.912215E+04  2.089233E+05 -1.196353E+05 -1.075382E-08 -8.136737E-10
        40  12 -2.751559E+03  4.778446E+04  1.364271E+05 -1.733079E+04  9.561327E-10 -3.275520E-09
        40  13  3.298040E+05  4.174411E+04  3.804521E+05 -4.760489E+04  7.975388E-09 -2.188754E-09
        40  14  4.184907E+04  5.045573E+03  1.945130E+05 -4.105351E+04 -4.724301E-09 -3.880909E-11
        40  15 -3.610534E+03  4.178646E+04  1.349092E+05 -5.031084E+04 -6.043403E-09 -2.483411E-09
        40  16  2.954627E+05 -8.116006E+04  3.498519E+05  1.425217E+05 -1.057538E-10 -3.546772E-09
        40  17  2.463456E+04 -5.901402E+04  1.801058E+05  3.752004E+04  1.666685E-09 -7.730703E-10
        40  18 -4.465419E+03  3.579082E+04  1.333918E+05 -8.329059E+04 -7.465253E-09  3.497021E-09
        40  19  3.642960E+05  1.648053E+05  4.111860E+05 -2.377699E+05  1.063439E+03 -2.481219E+05
        40  20  5.909183E+04  6.914389E+04  2.089613E+05 -1.196352E+05 -1.060846E+03 -1.423054E+05
        40  21 -2.751202E+03  4.778589E+04  1.364296E+05 -1.733080E+04  4.728355E+02 -3.646652E+04
        40  22  3.298200E+05  4.180808E+04  3.805641E+05 -4.760508E+04  9.551213E+02 -2.441147E+05
        40  23  4.185456E+04  5.067557E+03  1.945515E+05 -4.105339E+04 -1.072344E+03 -1.430957E+05
        40  24 -3.610059E+03  4.178835E+04  1.349125E+05 -5.031086E+04  5.203406E+02 -4.204420E+04
        40  25  2.954782E+05 -8.109816E+04  3.499603E+05  1.425215E+05  8.492426E+02 -2.401084E+05
        40  26  2.464012E+04 -5.899179E+04  1.801447E+05  3.752016E+04 -1.084043E+03 -1.438859E+05
        40  27 -4.464810E+03  3.579326E+04  1.333961E+05 -8.329062E+04  5.684386E+02 -4.762182E+04
        41   1  3.521745E+03 -7.711152E+03  1.180647E+05 -5.939648E+04 -2.794825E+03  1.650205E+04
        41   2 -2.029800E+04 -7.573953E+04  1.092089E+05 -4.022487E+04 -5.860439E+03 -4.699808E+04
        41   3 -1.232919E+04 -1.278879E+05  1.495776E+05 -3.827187E+04 -8.625805E+03 -1.104915E+05
        41   4  1.205248E+04  2.900699E+04  1.249201E+05 -5.011813E+04 -2.834832E+03  2.143313E+04
        41   5  2.842771E+03  2.103633E+04  1.280402E+05 -4.145463E+04 -5.897131E+03 -4.247359E+04
        41   6  2.548859E+04  2.900868E+04  1.806621E+05 -5.000837E+04 -8.657094E+03 -1.063795E+05
        41   7  2.058348E+04  6.572668E+04  1.317756E+05 -4.083921E+04 -2.874690E+03  2.636448E+04
        41   8  2.598300E+04  1.178212E+05  1.468712E+05 -4.268456E+04 -5.933837E+03 -3.794840E+04
        41   9  6.330536E+04  1.859291E+05  2.117454E+05 -6.174784E+04 -8.688535E+03 -1.022664E+05
        41  10  3.521664E+03 -7.711446E+03  1.180641E+05 -5.939645E+04 -2.563583E-09  1.224961E-08
        41  11 -2.029863E+04 -7.574192E+04  1.092047E+05 -4.022509E+04 -6.065678E-09 -2.742091E-09
        41  12 -1.233255E+04 -1.279010E+05  1.495546E+05 -3.827264E+04  8.654568E-09 -1.797976E-08
        41  13  1.205235E+04  2.900650E+04  1.249192E+05 -5.011808E+04 -5.659765E-09 -2.455069E-09
        41  14  2.842249E+03  2.103438E+04  1.280368E+05 -4.145483E+04  1.466424E-09 -2.521461E-10
        41  15  2.548547E+04  2.899651E+04  1.806407E+05 -5.000911E+04 -4.606336E-09 -2.456047E-09
        41  16  2.058329E+04  6.572593E+04  1.317742E+05 -4.083914E+04 -8.304247E-09 -1.452360E-08
        41  17  2.598258E+04  1.178197E+05  1.468684E+05 -4.268474E+04  2.802503E-09  9.801627E-10
        41  18  6.330247E+04  1.859178E+05  2.117256E+05 -6.174856E+04  3.047293E-09  1.768810E-08
        41  19  3.521745E+03 -7.711152E+03  1.180647E+05 -5.939648E+04  2.794825E+03 -1.650205E+04
        41  20 -2.029800E+04 -7.573953E+04  1.092089E+05 -4.022487E+04  5.860439E+03  4.699808E+04
        41  21 -1.232919E+04 -1.278879E+05  1.495776E+05 -3.827187E+04  8.625805E+03  1.104915E+05
        41  22  1.205248E+04  2.900699E+04  1.249201E+05 -5.011813E+04  2.834832E+03 -2.143313E+04
        41  23  2.842771E+03  2.103633E+04  1.280402E+05 -4.145463E+04  5.897131E+03  4.247359E+04
        41  24  2.548859E+04  2.900868E+04  1.806621E+05 -5.000837E+04  8.657094E+03  1.063795E+05
        41  25  2.058348E+04  6.572668E+04  1.317756E+05 -4.083921E+04  2.874690E+03 -2.636448E+04
        41  26  2.598300E+04  1.178212E+05  1.468712E+05 -4.268456E+04  5.933837E+03  3.794840E+04
        41  27  6.330536E+04  1.859291E+05  2.117454E+05 -6.174784E+04  8.688535E+03  1.022664E+05
        42   1 -5.528309E+04 -1.420884E+05  1.810911E+05 -1.191867E+05 -1.088768E+04 -1.428897E+05
        42   2  1.982068E+04 -2.716098E+05  3.164558E+05  1.172521E+05 -9.728424E+03 -3.246482E+05
        42   3  5.844905E+05 -2.552144E+05  6.926473E+05  3.395314E+05 -2.671053E+02 -5.063141E+05
        42   4 -8.670157E+03  5.828181E+04  2.205347E+05 -5.042181E+04 -1.095050E+04 -1.370827E+05
        42   5  8.485417E+04 -1.552792E+04  3.705764E+05 -4.061354E+04 -9.602989E+03 -3.300382E+05
        42   6  6.695799E+05  5.833305E+04  7.691298E+05 -4.498631E+04  1.777381E+02 -5.229212E+05
        42   7  3.795844E+04  2.587010E+05  2.599791E+05  1.836573E+04 -1.101202E+04 -1.312738E+05
        42   8  1.499763E+05  2.406687E+05  4.247066E+05 -1.985456E+05 -9.474850E+03 -3.354304E+05
        42   9  7.552158E+05  3.722862E+05  8.456847E+05 -4.297010E+05  6.429907E+02 -5.395368E+05
        42  10 -5.528870E+04 -1.421104E+05  1.810525E+05 -1.191879E+05  3.594216E-09 -2.127304E-09
        42  11  1.979228E+04 -2.717230E+05  3.162575E+05  1.172495E+05  7.635723E-09  1.311222E-09
        42  12  5.844216E+05 -2.554896E+05  6.921654E+05  3.395314E+05  7.562573E-10  4.620278E-09
        42  13 -8.675329E+03  5.826161E+04  2.204991E+05 -5.042302E+04 -1.203377E-08 -2.472771E-09
        42  14  8.482484E+04 -1.564487E+04  3.703716E+05 -4.061609E+04 -2.057830E-09 -6.008570E-11
        42  15  6.695065E+05  5.803960E+04  7.686159E+05 -4.498624E+04 -2.860360E-09 -2.164153E-09
        42  16  3.795368E+04  2.586825E+05  2.599465E+05  1.836457E+04 -1.795607E-09 -3.270000E-10
        42  17  1.499461E+05  2.405480E+05  4.244951E+05 -1.985481E+05  4.498501E-09 -2.570688E-09
        42  18  7.551377E+05  3.719739E+05  8.451380E+05 -4.297008E+05  4.529426E-09 -4.369489E-09
        42  19 -5.528309E+04 -1.420884E+05  1.810911E+05 -1.191867E+05  1.088768E+04  1.428897E+05
        42  20  1.982068E+04 -2.716098E+05  3.164558E+05  1.172521E+05  9.728424E+03  3.246482E+05
        42  21  5.844905E+05 -2.552144E+05  6.926473E+05  3.395314E+05  2.671053E+02  5.063141E+05
        42  22 -8.670157E+03  5.828181E+04  2.205347E+05 -5.042181E+04  1.095050E+04  1.370827E+05
        42  23  8.485417E+04 -1.552792E+04  3.705764E+05 -4.061354E+04  9.602989E+03  3.300382E+05
        42  24  6.695799E+05  5.833305E+04  7.691298E+05 -4.498631E+04 -1.777381E+02  5.229212E+05
        42  25  3.795844E+04  2.587010E+05  2.599791E+05  1.836573E+04  1.101202E+04  1.312738E+05
        42  26  1.499763E+05  2.406687E+05  4.247066E+05 -1.985456E+05  9.474850E+03  3.354304E+05
        42  27  7.552158E+05  3.722862E+05  8.456847E+05 -4.297010E+05 -6.429907E+02  5.395368E+05
        43   1 -9.085668E+06 -2.721459E+06 -1.832197E+06 -2.991388E+06 -8.516127E+05 -3.125068E+05
        43   2 -8.872846E+06 -1.582186E+06 -1.061653E+06 -3.317475E+06 -5.553851E+05 -1.692375E+05
        43   3 -9.269110E+06 -1.666356E+06 -8.784277E+05 -3.194931E+06 -2.485692E+05 -5.379102E+04
        43   4 -7.405102E+06 -1.914984E+06 -1.332547E+06 -2.367474E+06 -8.436579E+05 -3.097314E+05
        43   5 -7.031267E+06 -8.363269E+05 -5.462440E+05 -2.770227E+06 -5.534689E+05 -1.685627E+05
        43   6 -7.263908E+06 -9.775891E+05 -3.411671E+05 -2.724816E+06 -2.526200E+05 -5.529347E+04
        43   7 -5.721721E+06 -1.107833E+06 -8.331867E+05 -1.741849E+06 -8.356760E+05 -3.069397E+05
        43   8 -5.186382E+06 -9.014833E+04 -3.115945E+04 -2.221448E+06 -5.515439E+05 -1.678841E+05
        43   9 -5.254800E+06 -2.887654E+05  1.957453E+05 -2.253392E+06 -2.566841E+05 -5.679982E+04
        43  10 -9.086484E+06 -2.721764E+06 -1.833769E+06 -2.991604E+06 -5.871010E-09  8.176612E-10
        43  11 -8.873190E+06 -1.582301E+06 -1.062297E+06 -3.317552E+06 -9.713455E-10  1.612957E-10
        43  12 -9.269178E+06 -1.666376E+06 -8.785512E+05 -3.194942E+06  7.323736E-09 -1.328133E-09
        43  13 -7.405901E+06 -1.915282E+06 -1.334085E+06 -2.367686E+06  4.468968E-09 -1.325109E-09
        43  14 -7.031607E+06 -8.364414E+05 -5.468815E+05 -2.770302E+06  1.860873E-09 -2.412694E-09
        43  15 -7.263978E+06 -9.776098E+05 -3.412945E+05 -2.724827E+06  3.305394E-09 -1.635391E-09
        43  16 -5.722502E+06 -1.108125E+06 -8.346913E+05 -1.742057E+06  5.112514E-09  1.311900E-10
        43  17 -5.186719E+06 -9.026155E+04 -3.179033E+04 -2.221523E+06  4.338564E-09 -2.516972E-09
        43  18 -5.254872E+06 -2.887868E+05  1.956142E+05 -2.253404E+06  3.125561E-09 -2.093314E-09
        43  19 -9.085668E+06 -2.721459E+06 -1.832197E+06 -2.991388E+06  8.516127E+05  3.125068E+05
        43  20 -8.872846E+06 -1.582186E+06 -1.061653E+06 -3.317475E+06  5.553851E+05  1.692375E+05
        43  21 -9.269110E+06 -1.666356E+06 -8.784277E+05 -3.194931E+06  2.485692E+05  5.379102E+04
        43  22 -7.405102E+06 -1.914984E+06 -1.332547E+06 -2.367474E+06  8.436579E+05  3.097314E+05
        43  23 -7.031267E+06 -8.363269E+05 -5.462440E+05 -2.770227E+06  5.534689E+05  1.685627E+05
        43  24 -7.263908E+06 -9.775891E+05 -3.411671E+05 -2.724816E+06  2.526200E+05  5.529347E+04
        43  25 -5.721721E+06 -1.107833E+06 -8.331867E+05 -1.741849E+06  8.356760E+05  3.069397E+05
        43  26 -5.186382E+06 -9.014833E+04 -3.115945E+04 -2.221448E+06  5.515439E+05  1.678841E+05
        43  27 -5.254800E+06 -2.887654E+05  1.957453E+05 -2.253392E+06  2.566841E+05  5.679982E+04
        44   1 -9.091054E+06 -1.918079E+06 -8.107450E+05 -3.224343E+06 -2.020523E+05 -3.971267E+04
        44   2 -9.025481E+06 -1.664254E+06 -6.347624E+05 -3.181078E+06 -1.331127E+05 -1.131098E+04
        44   3 -8.926267E+06 -1.689270E+06 -5.580283E+05 -3.195332E+06 -6.111742E+04  8.884569E+03
        44   4 -7.180834E+06 -1.171403E+06 -2.804378E+05 -2.684202E+06 -2.009513E+05 -3.931538E+04
        44   5 -7.188173E+06 -9.649269E+05 -1.291027E+05 -2.680604E+06 -1.338072E+05 -1.157940E+04
        44   6 -7.161277E+06 -1.036540E+06 -7.532728E+04 -2.734556E+06 -6.362105E+04  7.953130E+03
        44   7 -5.267063E+06 -4.244576E+05  2.495280E+05 -2.142518E+06 -1.998456E+05 -3.891619E+04
        44   8 -5.347585E+06 -2.653996E+05  3.762458E+05 -2.178771E+06 -1.345034E+05 -1.184847E+04
        44   9 -5.393266E+06 -3.836715E+05  4.070903E+05 -2.272595E+06 -6.613240E+04  7.018959E+03
        44  10 -9.091099E+06 -1.918092E+06 -8.108259E+05 -3.224350E+06 -3.256512E-09 -9.654794E-10
        44  11 -9.025500E+06 -1.664259E+06 -6.347964E+05 -3.181080E+06 -5.086663E-10  6.426813E-10
        44  12 -8.926272E+06 -1.689271E+06 -5.580356E+05 -3.195331E+06  8.416134E-10 -1.760036E-09
        44  13 -7.180879E+06 -1.171416E+06 -2.805176E+05 -2.684209E+06 -1.742891E-09 -1.529517E-09
        44  14 -7.188193E+06 -9.649320E+05 -1.291371E+05 -2.680605E+06  3.368061E-09 -4.717204E-10
        44  15 -7.161281E+06 -1.036541E+06 -7.533508E+04 -2.734555E+06 -1.463864E-09 -6.605416E-10
        44  16 -5.267107E+06 -4.244701E+05  2.494494E+05 -2.142524E+06  3.279965E-09 -2.236734E-09
        44  17 -5.347605E+06 -2.654046E+05  3.762112E+05 -2.178772E+06 -1.880416E-09  3.825318E-10
        44  18 -5.393271E+06 -3.836728E+05  4.070819E+05 -2.272595E+06 -2.719962E-09  3.844100E-09
        44  19 -9.091054E+06 -1.918079E+06 -8.107450E+05 -3.224343E+06  2.020523E+05  3.971267E+04
        44  20 -9.025481E+06 -1.664254E+06 -6.347624E+05 -3.181078E+06  1.331127E+05  1.131098E+04
        44  21 -8.926267E+06 -1.689270E+06 -5.580283E+05 -3.195332E+06  6.111742E+04 -8.884569E+03
        44  22 -7.180834E+06 -1.171403E+06 -2.804378E+05 -2.684202E+06  2.009513E+05  3.931538E+04
        44  23 -7.188173E+06 -9.649269E+05 -1.291027E+05 -2.680604E+06  1.338072E+05  1.157940E+04
        44  24 -7.161277E+06 -1.036540E+06 -7.532728E+04 -2.734556E+06  6.362105E+04 -7.953130E+03
        44  25 -5.267063E+06 -4.244576E+05  2.495280E+05 -2.142518E+06  1.998456E+05  3.891619E+04
        44  26 -5.347585E+06 -2.653996E+05  3.762458E+05 -2.178771E+06  1.345034E+05  1.184847E+04
        44  27 -5.393266E+06 -3.836715E+05  4.070903E+05 -2.272595E+06  6.613240E+04 -7.018959E+03
        45   1 -8.290126E+06 -1.527846E+06 -3.793779E+05 -3.070483E+06 -4.983510E+04  8.108029E+03
        45   2 -8.191758E+06 -1.310040E+06 -2.918346E+05 -2.886253E+06 -3.141480E+04  8.095773E+03
        45   3 -7.873890E+06 -1.346395E+06 -2.228796E+05 -2.961436E+06 -1.190401E+04  5.044754E+03
        45   4 -7.127730E+06 -1.089264E+06 -6.071856E+04 -2.757562E+06 -5.098284E+04  7.681247E+03
        45   5 -7.236134E+06 -9.519827E+05 -3.007013E+04 -2.631652E+06 -3.327496E+04  7.410537E+03
        45   6 -7.124933E+06 -1.068665E+06 -1.740681E+04 -2.765147E+06 -1.448344E+04  4.101086E+03
        45   7 -5.964025E+06 -6.506068E+05  2.578165E+05 -2.444106E+06 -5.213289E+04  7.253603E+03
        45   8 -6.279626E+06 -5.938776E+05  2.316108E+05 -2.376693E+06 -3.513828E+04  6.724141E+03
        45   9 -6.375432E+06 -7.909096E+05  1.880150E+05 -2.568643E+06 -1.706631E+04  3.156175E+03
        45  10 -8.290129E+06 -1.527847E+06 -3.793827E+05 -3.070483E+06 -4.584339E-10 -2.982712E-09
        45  11 -8.191759E+06 -1.310041E+06 -2.918366E+05 -2.886253E+06  8.051352E-09 -7.935452E-09
        45  12 -7.873890E+06 -1.346395E+06 -2.228799E+05 -2.961436E+06  2.920928E-09 -7.539871E-09
        45  13 -7.127733E+06 -1.089265E+06 -6.072360E+04 -2.757562E+06  3.696949E-10  1.389426E-10
        45  14 -7.236135E+06 -9.519830E+05 -3.007233E+04 -2.631652E+06 -6.831043E-09 -1.324002E-09
        45  15 -7.124933E+06 -1.068665E+06 -1.740724E+04 -2.765147E+06  1.159468E-08  4.222910E-10
        45  16 -5.964028E+06 -6.506076E+05  2.578113E+05 -2.444106E+06 -1.375904E-09  2.506231E-09
        45  17 -6.279627E+06 -5.938780E+05  2.316084E+05 -2.376693E+06  3.053014E-09  6.957406E-09
        45  18 -6.375433E+06 -7.909097E+05  1.880144E+05 -2.568643E+06 -1.180984E-09 -9.433951E-10
        45  19 -8.290126E+06 -1.527846E+06 -3.793779E+05 -3.070483E+06  4.983510E+04 -8.108029E+03
        45  20 -8.191758E+06 -1.310040E+06 -2.918346E+05 -2.886253E+06  3.141480E+04 -8.095773E+03
        45  21 -7.873890E+06 -1.346395E+06 -2.228796E+05 -2.961436E+06  1.190401E+04 -5.044754E+03
        45  22 -7.127730E+06 -1.089264E+06 -6.071856E+04 -2.757562E+06  5.098284E+04 -7.681247E+03
        45  23 -7.236134E+06 -9.519827E+05 -3.007013E+04 -2.631652E+06  3.327496E+04 -7.410537E+03
        45  24 -7.124933E+06 -1.068665E+06 -1.740681E+04 -2.765147E+06  1.448344E+04 -4.101086E+03
        45  25 -5.964025E+06 -6.506068E+05  2.578165E+05 -2.444106E+06  5.213289E+04 -7.253603E+03
        45  26 -6.279626E+06 -5.938776E+05  2.316108E+05 -2.376693E+06  3.513828E+04 -6.724141E+03
        45  27 -6.375432E+06 -7.909096E+05  1.880150E+05 -2.568643E+06  1.706631E+04 -3.156175E+03
        46   1 -6.975754E+06 -1.025265E+06  2.570446E+04 -2.733637E+06 -7.400584E+03 -1.210023E+02
        46   2 -6.867398E+06 -8.068537E+05  9.478956E+04 -2.521784E+06 -6.416493E+01 -7.722105E+03
        46   3 -6.507102E+06 -8.482044E+05  1.593963E+05 -2.608619E+06  6.925761E+03 -1.433237E+04
        46   4 -7.118713E+06 -1.078141E+06 -1.414683E+04 -2.770815E+06 -9.739373E+03 -9.752203E+02
        46   5 -7.244513E+06 -9.475179E+05 -8.313077E+03 -2.621702E+06 -2.162321E+03 -8.490405E+03
        46   6 -7.118462E+06 -1.076719E+06 -7.144432E+03 -2.771311E+06  5.066369E+03 -1.501487E+04
        46   7 -7.261653E+06 -1.131017E+06 -5.400003E+04 -2.807986E+06 -1.207757E+04 -1.829225E+03
        46   8 -7.621490E+06 -1.088175E+06 -1.114284E+05 -2.721566E+06 -4.259059E+03 -9.258186E+03
        46   9 -7.729458E+06 -1.305213E+06 -1.737181E+05 -2.933856E+06  3.209017E+03 -1.569662E+04
        46  10 -6.975754E+06 -1.025265E+06  2.570435E+04 -2.733637E+06  6.097846E-11 -4.610741E-09
        46  11 -6.867398E+06 -8.068537E+05  9.478945E+04 -2.521784E+06 -5.655076E-09  1.149159E-08
        46  12 -6.507102E+06 -8.482046E+05  1.593958E+05 -2.608618E+06  2.898564E-10  3.879212E-10
        46  13 -7.118713E+06 -1.078141E+06 -1.414701E+04 -2.770815E+06  2.484143E-09 -6.650172E-09
        46  14 -7.244513E+06 -9.475179E+05 -8.313222E+03 -2.621702E+06 -1.031470E-08 -2.007123E-09
        46  15 -7.118462E+06 -1.076719E+06 -7.144902E+03 -2.771310E+06  2.852315E-09  4.312556E-10
        46  16 -7.261654E+06 -1.131017E+06 -5.400032E+04 -2.807986E+06  7.897102E-09 -4.251280E-11
        46  17 -7.621490E+06 -1.088175E+06 -1.114286E+05 -2.721566E+06  5.128218E-09 -8.070689E-10
        46  18 -7.729458E+06 -1.305214E+06 -1.737186E+05 -2.933856E+06 -3.911311E-09  3.215786E-09
        46  19 -6.975754E+06 -1.025265E+06  2.570446E+04 -2.733637E+06  7.400584E+03  1.210023E+02
        46  20 -6.867398E+06 -8.068537E+05  9.478956E+04 -2.521784E+06  6.416493E+01  7.722105E+03
        46  21 -6.507102E+06 -8.482044E+05  1.593963E+05 -2.608619E+06 -6.925761E+03  1.433237E+04
        46  22 -7.118713E+06 -1.078141E+06 -1.414683E+04 -2.770815E+06  9.739373E+03  9.752203E+02
        46  23 -7.244513E+06 -9.475179E+05 -8.313077E+03 -2.621702E+06  2.162321E+03  8.490405E+03
        46  24 -7.118462E+06 -1.076719E+06 -7.144432E+03 -2.771311E+06 -5.066369E+03  1.501487E+04
        46  25 -7.261653E+06 -1.131017E+06 -5.400003E+04 -2.807986E+06  1.207757E+04  1.829225E+03
        46  26 -7.621490E+06 -1.088175E+06 -1.114284E+05 -2.721566E+06  4.259059E+03  9.258186E+03
        46  27 -7.729458E+06 -1.305213E+06 -1.737181E+05 -2.933856E+06 -3.209017E+03  1.569662E+04
        47   1 -5.749388E+06 -5.373634E+05  3.735027E+05 -2.378946E+06  1.037663E+04 -1.894286E+04
        47   2 -5.688094E+06 -3.973664E+05  4.105266E+05 -2.241316E+06  1.690538E+04 -2.520408E+04
        47   3 -5.451643E+06 -4.243958E+05  4.465530E+05 -2.291100E+06  2.191040E+04 -2.723940E+04
        47   4 -7.135924E+06 -1.055231E+06 -6.365006E+03 -2.747142E+06  7.988392E+03 -1.982387E+04
        47   5 -7.223651E+06 -9.739021E+05 -9.778348E+03 -2.652531E+06  1.554202E+04 -2.571395E+04
        47   6 -7.136444E+06 -1.059859E+06 -1.501328E+04 -2.745378E+06  2.156901E+04 -2.737335E+04
        47   7 -8.520610E+06 -1.573005E+06 -3.864103E+05 -3.114595E+06  5.606054E+03 -2.070272E+04
        47   8 -8.756934E+06 -1.550315E+06 -4.303004E+05 -3.062822E+06  1.418239E+04 -2.622246E+04
        47   9 -8.818505E+06 -1.695167E+06 -4.768410E+05 -3.198535E+06  2.122863E+04 -2.750694E+04
        47  10 -5.749388E+06 -5.373638E+05  3.735018E+05 -2.378946E+06  3.015566E-09 -5.694975E-10
        47  11 -5.688094E+06 -3.973672E+05  4.105249E+05 -2.241316E+06  1.492761E-09  1.373133E-11
        47  12 -5.451644E+06 -4.243968E+05  4.465507E+05 -2.291099E+06  1.259856E-09  5.564221E-09
        47  13 -7.135924E+06 -1.055232E+06 -6.365861E+03 -2.747142E+06  1.794625E-09 -1.603873E-09
        47  14 -7.223651E+06 -9.739028E+05 -9.780039E+03 -2.652530E+06  3.756817E-09  4.120857E-09
        47  15 -7.136445E+06 -1.059860E+06 -1.501556E+04 -2.745377E+06  4.495211E-09  4.174831E-09
        47  16 -8.520610E+06 -1.573005E+06 -3.864111E+05 -3.114595E+06 -5.794022E-09 -5.144958E-09
        47  17 -8.756934E+06 -1.550316E+06 -4.303021E+05 -3.062822E+06 -7.242466E-09 -7.482069E-09
        47  18 -8.818506E+06 -1.695168E+06 -4.768433E+05 -3.198534E+06 -7.508791E-09 -2.957896E-09
        47  19 -5.749388E+06 -5.373634E+05  3.735027E+05 -2.378946E+06 -1.037663E+04  1.894286E+04
        47  20 -5.688094E+06 -3.973664E+05  4.105266E+05 -2.241316E+06 -1.690538E+04  2.520408E+04
        47  21 -5.451643E+06 -4.243958E+05  4.465530E+05 -2.291100E+06 -2.191040E+04  2.723940E+04
        47  22 -7.135924E+06 -1.055231E+06 -6.365006E+03 -2.747142E+06 -7.988392E+03  1.982387E+04
        47  23 -7.223651E+06 -9.739021E+05 -9.778348E+03 -2.652531E+06 -1.554202E+04  2.571395E+04
        47  24 -7.136444E+06 -1.059859E+06 -1.501328E+04 -2.745378E+06 -2.156901E+04  2.737335E+04
        47  25 -8.520610E+06 -1.573005E+06 -3.864103E+05 -3.114595E+06 -5.606054E+03  2.070272E+04
        47  26 -8.756934E+06 -1.550315E+06 -4.303004E+05 -3.062822E+06 -1.418239E+04  2.622246E+04
        47  27 -8.818505E+06 -1.695167E+06 -4.768410E+05 -3.198535E+06 -2.122863E+04  2.750694E+04
        48   1 -5.189261E+06 -2.703595E+05  5.256059E+05 -2.169249E+06  2.617188E+04 -2.788774E+04
        48   2 -5.200193E+06 -2.657882E+05  5.087006E+05 -2.168428E+06  4.312148E+04 -2.446436E+04
        48   3 -5.205751E+06 -2.825689E+05  4.772241E+05 -2.151548E+06  5.802428E+04 -1.561371E+04
        48   4 -7.173229E+06 -1.018272E+06 -1.837624E+04 -2.703773E+06  2.485001E+04 -2.839063E+04
        48   5 -7.177278E+06 -1.017667E+06 -3.423773E+04 -2.707951E+06  4.308026E+04 -2.448924E+04
        48   6 -7.176294E+06 -1.038756E+06 -6.574407E+04 -2.696060E+06  5.926074E+04 -1.515251E+04
        48   7 -9.153378E+06 -1.765966E+06 -5.627160E+05 -3.236742E+06  2.353280E+04 -2.889181E+04
        48   8 -9.150575E+06 -1.769315E+06 -5.775347E+05 -3.245906E+06  4.303904E+04 -2.451415E+04
        48   9 -9.143080E+06 -1.794700E+06 -6.090729E+05 -3.238992E+06  6.049262E+04 -1.469309E+04
        48  10 -5.189262E+06 -2.703605E+05  5.256031E+05 -2.169249E+06  1.923965E-08  4.956645E-09
        48  11 -5.200195E+06 -2.657894E+05  5.086960E+05 -2.168427E+06  2.962412E-09 -4.813791E-09
        48  12 -5.205755E+06 -2.825700E+05  4.772172E+05 -2.151547E+06 -2.321478E-09 -1.108096E-08
        48  13 -7.173230E+06 -1.018273E+06 -1.837891E+04 -2.703773E+06  3.075995E-10  1.975115E-09
        48  14 -7.177280E+06 -1.017668E+06 -3.424236E+04 -2.707950E+06  1.177142E-09  8.252382E-10
        48  15 -7.176298E+06 -1.038757E+06 -6.575115E+04 -2.696059E+06 -2.291803E-09 -2.741954E-10
        48  16 -9.153379E+06 -1.765967E+06 -5.627187E+05 -3.236742E+06 -8.444979E-09  9.340599E-10
        48  17 -9.150577E+06 -1.769316E+06 -5.775394E+05 -3.245905E+06  3.305854E-09 -3.472851E-09
        48  18 -9.143084E+06 -1.794701E+06 -6.090802E+05 -3.238991E+06  3.053762E-09  5.007506E-09
        48  19 -5.189261E+06 -2.703595E+05  5.256059E+05 -2.169249E+06 -2.617188E+04  2.788774E+04
        48  20 -5.200193E+06 -2.657882E+05  5.087006E+05 -2.168428E+06 -4.312148E+04  2.446436E+04
        48  21 -5.205751E+06 -2.825689E+05  4.772241E+05 -2.151548E+06 -5.802428E+04  1.561371E+04
        48  22 -7.173229E+06 -1.018272E+06 -1.837624E+04 -2.703773E+06 -2.485001E+04  2.839063E+04
        48  23 -7.177278E+06 -1.017667E+06 -3.423773E+04 -2.707951E+06 -4.308026E+04  2.448924E+04
        48  24 -7.176294E+06 -1.038756E+06 -6.574407E+04 -2.696060E+06 -5.926074E+04  1.515251E+04
        48  25 -9.153378E+06 -1.765966E+06 -5.627160E+05 -3.236742E+06 -2.353280E+04  2.889181E+04
        48  26 -9.150575E+06 -1.769315E+06 -5.775347E+05 -3.245906E+06 -4.303904E+04  2.451415E+04
        48  27 -9.143080E+06 -1.794700E+06 -6.090729E+05 -3.238992E+06 -6.049262E+04  1.469309E+04
        49   1 -5.554161E+06 -3.510659E+05  3.733511E+05 -2.219751E+06  7.006094E+04 -8.451450E+03
        49   2 -5.608626E+06 -4.526917E+05  2.734443E+05 -2.342934E+06  1.422423E+05  2.354518E+04
        49   3 -5.912550E+06 -5.826612E+05  6.504233E+04 -2.216943E+06  2.128809E+05  5.939224E+04
        49   4 -7.223300E+06 -9.784872E+05 -8.351435E+04 -2.667776E+06  7.042401E+04 -8.318081E+03
        49   5 -7.109503E+06 -1.035895E+06 -1.413192E+05 -2.764865E+06  1.433785E+05  2.397483E+04
        49   6 -7.245566E+06 -1.122084E+06 -3.084302E+05 -2.612697E+06  2.148105E+05  6.012504E+04
        49   7 -8.889739E+06 -1.605763E+06 -5.406342E+05 -3.114713E+06  7.078579E+04 -8.185200E+03
        49   8 -8.608192E+06 -1.618941E+06 -5.562922E+05 -3.185858E+06  1.445113E+05  2.440311E+04
        49   9 -8.576851E+06 -1.661343E+06 -6.820716E+05 -3.007654E+06  2.167350E+05  6.085565E+04
        49  10 -5.554166E+06 -3.510673E+05  3.733416E+05 -2.219750E+06 -1.708603E-09 -2.921490E-09
        49  11 -5.608648E+06 -4.526978E+05  2.734049E+05 -2.342937E+06 -1.099385E-08  1.714057E-08
        49  12 -5.912600E+06 -5.826774E+05  6.494955E+04 -2.216954E+06 -3.843393E-09  8.601782E-09
        49  13 -7.223306E+06 -9.784886E+05 -8.352389E+04 -2.667776E+06 -3.637785E-09  2.918910E-09
        49  14 -7.109525E+06 -1.035901E+06 -1.413594E+05 -2.764868E+06  1.951191E-10  2.669517E-09
        49  15 -7.245617E+06 -1.122101E+06 -3.085249E+05 -2.612707E+06 -2.672105E-09  1.343708E-08
        49  16 -8.889745E+06 -1.605765E+06 -5.406439E+05 -3.114712E+06 -3.820569E-09  4.428335E-09
        49  17 -8.608214E+06 -1.618948E+06 -5.563331E+05 -3.185860E+06 -2.033830E-09  5.279623E-09
        49  18 -8.576903E+06 -1.661360E+06 -6.821684E+05 -3.007664E+06 -4.258443E-10  5.814495E-09
        49  19 -5.554161E+06 -3.510659E+05  3.733511E+05 -2.219751E+06 -7.006094E+04  8.451450E+03
        49  20 -5.608626E+06 -4.526917E+05  2.734443E+05 -2.342934E+06 -1.422423E+05 -2.354518E+04
        49  21 -5.912550E+06 -5.826612E+05  6.504233E+04 -2.216943E+06 -2.128809E+05 -5.939224E+04
        49  22 -7.223300E+06 -9.784872E+05 -8.351435E+04 -2.667776E+06 -7.042401E+04  8.318081E+03
        49  23 -7.109503E+06 -1.035895E+06 -1.413192E+05 -2.764865E+06 -1.433785E+05 -2.397483E+04
        49  24 -7.245566E+06 -1.122084E+06 -3.084302E+05 -2.612697E+06 -2.148105E+05 -6.012504E+04
        49  25 -8.889739E+06 -1.605763E+06 -5.406342E+05 -3.114713E+06 -7.078579E+04  8.185200E+03
        49  26 -8.608192E+06 -1.618941E+06 -5.562922E+05 -3.185858E+06 -1.445113E+05 -2.440311E+04
        49  27 -8.576851E+06 -1.661343E+06 -6.820716E+05 -3.007654E+06 -2.167350E+05 -6.085565E+04
        50   1 -6.676497E+06 -7.737650E+05 -2.174701E+05 -2.593557E+06  2.656847E+05  8.675941E+04
        50   2 -6.651983E+06 -6.972901E+05 -5.039750E+05 -2.695124E+06  5.924094E+05  2.234927E+05
        50   3 -7.490857E+06 -1.793457E+06 -1.435585E+06 -2.120001E+06  9.201590E+05  3.572288E+05
        50   4 -7.314112E+06 -9.358665E+05 -3.760903E+05 -2.687838E+06  2.680485E+05  8.771902E+04
        50   5 -6.961965E+06 -8.634965E+05 -5.989130E+05 -2.827486E+06  5.938779E+05  2.240078E+05
        50   6 -7.473290E+06 -1.963977E+06 -1.466250E+06 -2.290236E+06  9.209276E+05  3.572011E+05
        50   7 -7.951321E+06 -1.097980E+06 -5.347372E+05 -2.782056E+06  2.704095E+05  8.867837E+04
        50   8 -7.271846E+06 -1.029666E+06 -6.938606E+05 -2.959779E+06  5.953455E+05  2.245223E+05
        50   9 -7.455651E+06 -2.134341E+06 -1.496896E+06 -2.460458E+06  9.216963E+05  3.571729E+05
        50  10 -6.676576E+06 -7.737924E+05 -2.176187E+05 -2.593576E+06 -2.315298E-09  4.530522E-09
        50  11 -6.652377E+06 -6.974400E+05 -5.047380E+05 -2.695231E+06 -7.178017E-09  1.202080E-08
        50  12 -7.491811E+06 -1.793826E+06 -1.437440E+06 -2.120268E+06 -3.301814E-10 -3.561495E-09
        50  13 -7.314192E+06 -9.358945E+05 -3.762419E+05 -2.687857E+06 -2.768217E-09 -3.003274E-09
        50  14 -6.962361E+06 -8.636473E+05 -5.996802E+05 -2.827594E+06 -8.642387E-09  1.467671E-08
        50  15 -7.474245E+06 -1.964346E+06 -1.468108E+06 -2.290503E+06  1.507592E-09  3.096812E-09
        50  16 -7.951402E+06 -1.098009E+06 -5.348916E+05 -2.782075E+06 -2.264193E-10 -9.487852E-10
        50  17 -7.272245E+06 -1.029817E+06 -6.946321E+05 -2.959888E+06 -8.311130E-09  7.203838E-09
        50  18 -7.456608E+06 -2.134712E+06 -1.498758E+06 -2.460725E+06  6.438151E-09 -7.161844E-09
        50  19 -6.676497E+06 -7.737650E+05 -2.174701E+05 -2.593557E+06 -2.656847E+05 -8.675941E+04
        50  20 -6.651983E+06 -6.972901E+05 -5.039750E+05 -2.695124E+06 -5.924094E+05 -2.234927E+05
        50  21 -7.490857E+06 -1.793457E+06 -1.435585E+06 -2.120001E+06 -9.201590E+05 -3.572288E+05
        50  22 -7.314112E+06 -9.358665E+05 -3.760903E+05 -2.687838E+06 -2.680485E+05 -8.771902E+04
        50  23 -6.961965E+06 -8.634965E+05 -5.989130E+05 -2.827486E+06 -5.938779E+05 -2.240078E+05
        50  24 -7.473290E+06 -1.963977E+06 -1.466250E+06 -2.290236E+06 -9.209276E+05 -3.572011E+05
        50  25 -7.951321E+06 -1.097980E+06 -5.347372E+05 -2.782056E+06 -2.704095E+05 -8.867837E+04
        50  26 -7.271846E+06 -1.029666E+06 -6.938606E+05 -2.959779E+06 -5.953455E+05 -2.245223E+05
        50  27 -7.455651E+06 -2.134341E+06 -1.496896E+06 -2.460458E+06 -9.216963E+05 -3.571729E+05
        51   1  4.470097E+05  4.117840E+05  4.371187E+05 -7.170476E+03  2.164502E+04  3.822791E+04
        51   2  4.460686E+05  3.870361E+05  4.158889E+05 -4.821742E+03  6.888958E+04  1.387717E+04
        51   3  4.402866E+05  3.663218E+05  4.099193E+05 -1.402356E+04  7.274975E+04 -1.071921E+04
        51   4 -9.088435E+03 -1.419090E+06 -1.159548E+04 -2.604776E+03  2.190846E+04 -6.359562E+03
        51   5  1.886260E+02 -1.418648E+06 -6.665387E+03  3.198607E+03  6.901289E+04 -2.576129E+03
        51   6 -2.740502E+02 -1.419065E+06 -6.021180E+03 -2.548985E+03  7.267630E+04  9.606069E+02
        51   7 -4.654343E+05 -3.246904E+06 -4.605482E+05  1.951844E+03  2.217164E+04 -5.081582E+04
        51   8 -4.459229E+05 -3.221323E+06 -4.294411E+05  1.120043E+04  6.913597E+04 -1.898188E+04
        51   9 -4.410601E+05 -3.201508E+06 -4.221769E+05  8.897843E+03  7.260318E+04  1.260707E+04
        51  10  4.470088E+05  4.117823E+05  4.371151E+05 -7.171142E+03 -1.132704E-08  1.230699E-08
        51  11  4.460634E+05  3.870346E+05  4.158797E+05 -4.822512E+03  5.821828E-09 -1.002518E-08
        51  12  4.402809E+05  3.663202E+05  4.099091E+05 -1.402293E+04  5.883336E-09 -1.622256E-08
        51  13 -9.088961E+03 -1.419090E+06 -1.159646E+04 -2.604663E+03 -1.604674E-08 -1.254994E-11
        51  14  1.835132E+02 -1.418649E+06 -6.674343E+03  3.198750E+03  7.106043E-09  3.819164E-09
        51  15 -2.797185E+02 -1.419066E+06 -6.031100E+03 -2.549041E+03  3.682607E-09  3.929738E-10
        51  16 -4.654355E+05 -3.246907E+06 -4.605540E+05  1.952753E+03 -1.550990E-08 -9.346684E-09
        51  17 -4.459281E+05 -3.221325E+06 -4.294507E+05  1.120148E+04 -2.331893E-09 -7.369666E-10
        51  18 -4.410658E+05 -3.201509E+06 -4.221871E+05  8.897104E+03 -1.100991E-08  1.449005E-08
        51  19  4.470097E+05  4.117840E+05  4.371187E+05 -7.170476E+03 -2.164502E+04 -3.822791E+04
        51  20  4.460686E+05  3.870361E+05  4.158889E+05 -4.821742E+03 -6.888958E+04 -1.387717E+04
        51  21  4.402866E+05  3.663218E+05  4.099193E+05 -1.402356E+04 -7.274975E+04  1.071921E+04
        51  22 -9.088435E+03 -1.419090E+06 -1.159548E+04 -2.604776E+03 -2.190846E+04  6.359562E+03
        51  23  1.886260E+02 -1.418648E+06 -6.665387E+03  3.198607E+03 -6.901289E+04  2.576129E+03
        51  24 -2.740502E+02 -1.419065E+06 -6.021180E+03 -2.548985E+03 -7.267630E+04 -9.606069E+02
        51  25 -4.654343E+05 -3.246904E+06 -4.605482E+05  1.951844E+03 -2.217164E+04  5.081582E+04
        51  26 -4.459229E+05 -3.221323E+06 -4.294411E+05  1.120043E+04 -6.913597E+04  1.898188E+04
        51  27 -4.410601E+05 -3.201508E+06 -4.221769E+05  8.897843E+03 -7.260318E+04 -1.260707E+04
        52   1  4.332413E+05  3.389022E+05  4.051039E+05 -1.339575E+04  6.672904E+04  4.159723E+03
        52   2  4.265647E+05  3.092855E+05  3.951748E+05 -6.971340E+03  6.783107E+04  5.523996E+03
        52   3  4.153027E+05  2.800139E+05  3.835844E+05 -1.768167E+04  6.439340E+04  6.844652E+03
        52   4 -8.876683E+02 -1.418888E+06 -6.425935E+03 -3.799254E+03  6.675950E+04  1.964334E+03
        52   5 -9.145507E+01 -1.418791E+06 -8.469000E+03  4.753511E+03  6.783751E+04  6.262608E+03
        52   6 -4.400438E+03 -1.418867E+06 -1.421845E+04 -3.831543E+03  6.437011E+04  1.051726E+04
        52   7 -4.352363E+05 -3.173829E+06 -4.181666E+05  5.775552E+03  6.678995E+04 -2.248843E+02
        52   8 -4.269593E+05 -3.144112E+06 -4.123159E+05  1.645150E+04  6.784399E+04  6.999160E+03
        52   9 -4.243086E+05 -3.115086E+06 -4.122183E+05  9.986783E+03  6.434696E+04  1.417986E+04
        52  10  4.332366E+05  3.389010E+05  4.050955E+05 -1.339598E+04  3.529360E-09  1.149419E-08
        52  11  4.265597E+05  3.092842E+05  3.951661E+05 -6.971641E+03  1.106397E-08 -7.402731E-09
        52  12  4.152982E+05  2.800128E+05  3.835766E+05 -1.768202E+04  1.089566E-09 -7.517666E-09
        52  13 -8.924520E+02 -1.418890E+06 -6.434312E+03 -3.799360E+03  5.850171E-09  2.489007E-10
        52  14 -9.640404E+01 -1.418793E+06 -8.477716E+03  4.753169E+03  1.128622E-08  5.197683E-09
        52  15 -4.404914E+03 -1.418868E+06 -1.422644E+04 -3.832088E+03  8.834954E-10  1.053342E-09
        52  16 -4.352411E+05 -3.173830E+06 -4.181750E+05  5.775564E+03 -1.287024E-09 -7.133982E-09
        52  17 -4.269643E+05 -3.144113E+06 -4.123246E+05  1.645112E+04  7.303283E-10 -6.374805E-09
        52  18 -4.243131E+05 -3.115087E+06 -4.122265E+05  9.986047E+03  4.529649E-09  5.373423E-09
        52  19  4.332413E+05  3.389022E+05  4.051039E+05 -1.339575E+04 -6.672904E+04 -4.159723E+03
        52  20  4.265647E+05  3.092855E+05  3.951748E+05 -6.971340E+03 -6.783107E+04 -5.523996E+03
        52  21  4.153027E+05  2.800139E+05  3.835844E+05 -1.768167E+04 -6.439340E+04 -6.844652E+03
        52  22 -8.876683E+02 -1.418888E+06 -6.425935E+03 -3.799254E+03 -6.675950E+04 -1.964334E+03
        52  23 -9.145507E+01 -1.418791E+06 -8.469000E+03  4.753511E+03 -6.783751E+04 -6.262608E+03
        52  24 -4.400438E+03 -1.418867E+06 -1.421845E+04 -3.831543E+03 -6.437011E+04 -1.051726E+04
        52  25 -4.352363E+05 -3.173829E+06 -4.181666E+05  5.775552E+03 -6.678995E+04  2.248843E+02
        52  26 -4.269593E+05 -3.144112E+06 -4.123159E+05  1.645150E+04 -6.784399E+04 -6.999160E+03
        52  27 -4.243086E+05 -3.115086E+06 -4.122183E+05  9.986783E+03 -6.434696E+04 -1.417986E+04
        53   1  4.131661E+05  2.430455E+05  3.705656E+05 -1.026138E+04  6.772483E+04  2.153473E+04
        53   2  4.062046E+05  2.121351E+05  3.528139E+05 -1.290261E+04  6.213717E+04  1.238629E+04
        53   3  3.478902E+05  1.707781E+05  3.284157E+05 -3.830459E+04  1.940942E+04  2.798891E+03
        53   4  2.408148E+03 -1.422048E+06 -1.728670E+04 -4.890371E+03  6.782161E+04  1.315576E+04
        53   5  4.165417E+03 -1.414723E+06 -2.794459E+04  6.203147E+03  6.197851E+04  2.805939E+04
        53   6 -4.968435E+04 -1.422061E+06 -6.199478E+04 -5.470868E+03  1.895135E+04  4.252207E+04
        53   7 -4.085460E+05 -3.084581E+06 -4.053263E+05  4.725228E+02  6.791839E+04  4.799062E+03
        53   8 -3.980611E+05 -3.039138E+06 -4.088827E+05  2.526504E+04  6.182061E+04  4.369161E+04
        53   9 -4.474436E+05 -3.012582E+06 -4.525854E+05  2.728508E+04  1.849690E+04  8.214343E+04
        53  10  4.131611E+05  2.430437E+05  3.705561E+05 -1.026255E+04 -6.381614E-09  7.089905E-10
        53  11  4.062004E+05  2.121339E+05  3.528064E+05 -1.290323E+04 -1.302165E-10 -1.130795E-08
        53  12  3.478898E+05  1.707780E+05  3.284150E+05 -3.830463E+04 -3.196440E-09  9.793604E-10
        53  13  2.403166E+03 -1.422050E+06 -1.729567E+04 -4.891090E+03 -3.218341E-09  2.914152E-11
        53  14  4.161083E+03 -1.414724E+06 -2.795329E+04  6.201746E+03  3.023426E-09  5.397890E-09
        53  15 -4.968522E+04 -1.422063E+06 -6.199886E+04 -5.471517E+03  2.231855E-09  5.067593E-10
        53  16 -4.085510E+05 -3.084582E+06 -4.053350E+05  4.722598E+02  4.320467E-09  4.586995E-09
        53  17 -3.980657E+05 -3.039141E+06 -4.088935E+05  2.526286E+04 -5.997162E-09 -6.612538E-09
        53  18 -4.474458E+05 -3.012589E+06 -4.525988E+05  2.728386E+04  3.993743E-09 -3.896691E-09
        53  19  4.131661E+05  2.430455E+05  3.705656E+05 -1.026138E+04 -6.772483E+04 -2.153473E+04
        53  20  4.062046E+05  2.121351E+05  3.528139E+05 -1.290261E+04 -6.213717E+04 -1.238629E+04
        53  21  3.478902E+05  1.707781E+05  3.284157E+05 -3.830459E+04 -1.940942E+04 -2.798891E+03
        53  22  2.408148E+03 -1.422048E+06 -1.728670E+04 -4.890371E+03 -6.782161E+04 -1.315576E+04
        53  23  4.165417E+03 -1.414723E+06 -2.794459E+04  6.203147E+03 -6.197851E+04 -2.805939E+04
        53  24 -4.968435E+04 -1.422061E+06 -6.199478E+04 -5.470868E+03 -1.895135E+04 -4.252207E+04
        53  25 -4.085460E+05 -3.084581E+06 -4.053263E+05  4.725228E+02 -6.791839E+04 -4.799062E+03
        53  26 -3.980611E+05 -3.039138E+06 -4.088827E+05  2.526504E+04 -6.182061E+04 -4.369161E+04
        53  27 -4.474436E+05 -3.012582E+06 -4.525854E+05  2.728508E+04 -1.849690E+04 -8.214343E+04
        54   1  7.666930E+04  8.779549E+05  4.365697E+04 -1.385416E+02  2.682890E+04 -4.542239E+02
        54   2  7.677198E+04  8.780420E+05  4.421157E+04 -1.125531E+02  2.673694E+04 -1.180453E+03
        54   3  7.705185E+04  8.782741E+05  4.528475E+04 -7.276774E+01  2.652382E+04 -1.906755E+03
        54   4 -2.447142E+01  5.373618E+05  4.989957E+02  3.058343E+00  2.683043E+04 -3.780383E+02
        54   5  1.579696E+01  5.373144E+05  8.758453E+02 -3.804750E+00  2.673833E+04 -8.129345E+02
        54   6  1.827812E+02  5.373616E+05  1.569280E+03  3.129017E+00  2.652505E+04 -1.247899E+03
        54   7 -7.672298E+04  1.968876E+05 -4.265937E+04  1.445868E+02  2.683195E+04 -3.018923E+02
        54   8 -7.674514E+04  1.967058E+05 -4.246032E+04  1.048922E+02  2.673973E+04 -4.456073E+02
        54   9 -7.669108E+04  1.965681E+05 -4.214671E+04  7.899455E+01  2.652629E+04 -5.893858E+02
        54  10  7.666853E+04  8.779547E+05  4.365562E+04 -1.385318E+02  1.037632E-08 -4.787044E-08
        54  11  7.677121E+04  8.780418E+05  4.421022E+04 -1.125276E+02  1.498908E-09 -2.833377E-08
        54  12  7.705109E+04  8.782739E+05  4.528342E+04 -7.272702E+01 -7.224102E-09 -2.008931E-09
        54  13 -2.524467E+01  5.373616E+05  4.976423E+02  3.066510E+00 -2.958373E-08  3.878877E-10
        54  14  1.502887E+01  5.373143E+05  8.745002E+02 -3.787247E+00 -6.454402E-09 -8.989426E-10
        54  15  1.820251E+02  5.373614E+05  1.567955E+03  3.155671E+00  1.493206E-08  4.749870E-10
        54  16 -7.672375E+04  1.968874E+05 -4.266073E+04  1.445934E+02  6.013131E-09  4.730198E-08
        54  17 -7.674591E+04  1.967057E+05 -4.246166E+04  1.049018E+02 -5.624324E-09  2.814825E-08
        54  18 -7.669183E+04  1.965679E+05 -4.214803E+04  7.900714E+01 -9.149573E-09  2.169272E-09
        54  19  7.666930E+04  8.779549E+05  4.365697E+04 -1.385416E+02 -2.682890E+04  4.542239E+02
        54  20  7.677198E+04  8.780420E+05  4.421157E+04 -1.125531E+02 -2.673694E+04  1.180453E+03
        54  21  7.705185E+04  8.782741E+05  4.528475E+04 -7.276774E+01 -2.652382E+04  1.906755E+03
        54  22 -2.447142E+01  5.373618E+05  4.989957E+02  3.058343E+00 -2.683043E+04  3.780383E+02
        54  23  1.579696E+01  5.373144E+05  8.758453E+02 -3.804750E+00 -2.673833E+04  8.129345E+02
        54  24  1.827812E+02  5.373616E+05  1.569280E+03  3.129018E+00 -2.652505E+04  1.247899E+03
        54  25 -7.672298E+04  1.968876E+05 -4.265937E+04  1.445868E+02 -2.683195E+04  3.018923E+02
        54  26 -7.674514E+04  1.967058E+05 -4.246032E+04  1.048922E+02 -2.673973E+04  4.456073E+02
        54  27 -7.669108E+04  1.965681E+05 -4.214671E+04  7.899455E+01 -2.652629E+04  5.893858E+02
        55   1  7.722660E+04  8.785580E+05  4.605452E+04 -1.765235E+02  2.638921E+04 -2.283139E+03
        55   2  7.813816E+04  8.782918E+05  4.887827E+04  7.228605E+02  2.563581E+04 -6.322194E+03
        55   3  8.073713E+04  8.789785E+05  5.475250E+04  1.576992E+03  2.397814E+04 -1.036184E+04
        55   4  2.711375E+02  5.374687E+05  2.084226E+03 -1.010061E+01  2.639038E+04 -1.554174E+03
        55   5  9.419886E+02  5.371799E+05  3.721965E+03  1.313144E+01  2.563579E+04 -3.419443E+03
        55   6  2.923689E+03  5.374677E+05  6.902664E+03 -8.895805E+00  2.397667E+04 -5.285289E+03
        55   7 -7.668915E+04  1.964984E+05 -4.188665E+04  1.562397E+02  2.639156E+04 -8.255900E+02
        55   8 -7.625911E+04  1.961868E+05 -4.143518E+04 -6.961755E+02  2.563576E+04 -5.182106E+02
        55   9 -7.489492E+04  1.960749E+05 -4.094858E+04 -1.593858E+03  2.397517E+04 -2.114026E+02
        55  10  7.722586E+04  8.785578E+05  4.605321E+04 -1.764750E+02 -3.497336E-09 -4.597266E-08
        55  11  7.813744E+04  8.782915E+05  4.887696E+04  7.229910E+02  6.073744E-09 -5.249638E-08
        55  12  8.073648E+04  8.789783E+05  5.475122E+04  1.577192E+03 -5.109933E-09 -5.534783E-08
        55  13  2.703888E+02  5.374685E+05  2.082912E+03 -1.006759E+01  1.478155E-08  4.253585E-10
        55  14  9.412796E+02  5.371798E+05  3.720708E+03  1.320202E+01  1.905196E-08 -1.035479E-09
        55  15  2.923064E+03  5.374675E+05  6.901531E+03 -8.793765E+00  1.642424E-08  6.475644E-10
        55  16 -7.668989E+04  1.964982E+05 -4.188796E+04  1.562572E+02 -9.043706E-09  4.501865E-08
        55  17 -7.625981E+04  1.961866E+05 -4.143642E+04 -6.961648E+02 -1.130420E-08  5.196289E-08
        55  18 -7.489554E+04  1.960747E+05 -4.094967E+04 -1.593854E+03 -1.401224E-09  5.544329E-08
        55  19  7.722660E+04  8.785580E+05  4.605452E+04 -1.765235E+02 -2.638921E+04  2.283139E+03
        55  20  7.813816E+04  8.782918E+05  4.887827E+04  7.228605E+02 -2.563581E+04  6.322194E+03
        55  21  8.073713E+04  8.789785E+05  5.475250E+04  1.576992E+03 -2.397814E+04  1.036184E+04
        55  22  2.711375E+02  5.374687E+05  2.084226E+03 -1.010061E+01 -2.639038E+04  1.554174E+03
        55  23  9.419886E+02  5.371799E+05  3.721965E+03  1.313144E+01 -2.563579E+04  3.419443E+03
        55  24  2.923689E+03  5.374677E+05  6.902664E+03 -8.895805E+00 -2.397667E+04  5.285289E+03
        55  25 -7.668915E+04  1.964984E+05 -4.188665E+04  1.562397E+02 -2.639156E+04  8.255900E+02
        55  26 -7.625911E+04  1.961868E+05 -4.143518E+04 -6.961755E+02 -2.563576E+04  5.182106E+02
        55  27 -7.489492E+04  1.960749E+05 -4.094858E+04 -1.593858E+03 -2.397517E+04  2.114026E+02
        56   1  8.232702E+04  8.804435E+05  5.890040E+04  9.700857E+02  2.293066E+04 -1.210014E+04
        56   2  9.133669E+04  8.771619E+05  7.535724E+04  1.154027E+04  1.726336E+04 -3.690904E+04
        56   3  1.160877E+05  8.810460E+05  1.118868E+05  2.157667E+04  4.899986E+03 -6.172327E+04
        56   4  4.030337E+03  5.383124E+05  9.256905E+03 -1.186285E+02  2.292867E+04 -6.490428E+03
        56   5  1.155172E+04  5.361202E+05  1.710765E+04  1.563582E+02  1.725130E+04 -1.520849E+04
        56   6  3.202732E+04  5.383050E+05  3.386877E+04 -1.026255E+02  4.876993E+03 -2.393145E+04
        56   7 -7.427170E+04  1.962993E+05 -4.038839E+04 -1.206702E+03  2.292665E+04 -8.836704E+02
        56   8 -6.823869E+04  1.951940E+05 -4.114395E+04 -1.122109E+04  1.723843E+04  6.480529E+03
        56   9 -5.203862E+04  1.956770E+05 -4.415124E+04 -2.176985E+04  4.851358E+03  1.383972E+04
        56  10  8.232641E+04  8.804432E+05  5.889914E+04  9.703091E+02 -6.652237E-09 -4.697377E-09
        56  11  9.133600E+04  8.771604E+05  7.535412E+04  1.154078E+04  3.895412E-09  3.336417E-08
        56  12  1.160866E+05  8.810419E+05  1.118796E+05  2.157691E+04 -1.856223E-09  6.970897E-08
        56  13  4.029761E+03  5.383122E+05  9.255838E+03 -1.185087E+02  1.252123E-08  6.632790E-10
        56  14  1.155134E+04  5.361199E+05  1.710666E+04  1.565695E+02  1.079367E-08 -1.246562E-09
        56  15  3.202714E+04  5.383044E+05  3.386765E+04 -1.025315E+02  5.788261E-09  9.104587E-10
        56  16 -7.427226E+04  1.962991E+05 -4.038938E+04 -1.206686E+03 -4.511122E-09  3.706800E-09
        56  17 -6.823902E+04  1.951939E+05 -4.114459E+04 -1.122118E+04  3.218782E-09 -3.385073E-08
        56  18 -5.203869E+04  1.956768E+05 -4.415165E+04 -2.176990E+04  9.629472E-10 -6.936146E-08
        56  19  8.232702E+04  8.804435E+05  5.890040E+04  9.700857E+02 -2.293066E+04  1.210014E+04
        56  20  9.133669E+04  8.771619E+05  7.535724E+04  1.154027E+04 -1.726336E+04  3.690904E+04
        56  21  1.160877E+05  8.810460E+05  1.118868E+05  2.157667E+04 -4.899986E+03  6.172327E+04
        56  22  4.030337E+03  5.383124E+05  9.256905E+03 -1.186285E+02 -2.292867E+04  6.490428E+03
        56  23  1.155172E+04  5.361202E+05  1.710765E+04  1.563582E+02 -1.725130E+04  1.520849E+04
        56  24  3.202732E+04  5.383050E+05  3.386877E+04 -1.026255E+02 -4.876993E+03  2.393145E+04
        56  25 -7.427170E+04  1.962993E+05 -4.038839E+04 -1.206702E+03 -2.292665E+04  8.836704E+02
        56  26 -6.823869E+04  1.951940E+05 -4.114395E+04 -1.122109E+04 -1.723843E+04 -6.480529E+03
        56  27 -5.203862E+04  1.956770E+05 -4.415124E+04 -2.176985E+04 -4.851358E+03 -1.383972E+04
        57   1 -1.175318E+07 -2.773890E+06 -1.840973E+06 -3.975534E+06 -1.603914E+06 -6.391095E+05
        57   2 -1.153059E+07 -1.017582E+06 -4.885658E+05 -5.043507E+06 -1.023806E+06 -4.489414E+05
        57   3 -1.304542E+07 -1.089566E+06 -2.597258E+05 -4.652446E+06 -4.677111E+05 -1.993278E+05
        57   4 -1.465177E+07 -3.589986E+06 -2.591113E+06 -4.471535E+06 -1.612870E+06 -6.435857E+05
        57   5 -1.363636E+07 -1.756574E+06 -1.057457E+06 -5.551896E+06 -1.021224E+06 -4.481207E+05
        57   6 -1.436578E+07 -1.759617E+06 -6.610213E+05 -5.172340E+06 -4.527918E+05 -1.933283E+05
        57   7 -1.754199E+07 -4.406306E+06 -3.341872E+06 -4.965825E+06 -1.621760E+06 -6.480524E+05
        57   8 -1.573775E+07 -2.495471E+06 -1.626739E+06 -6.058768E+06 -1.018645E+06 -4.473011E+05
        57   9 -1.568436E+07 -2.429149E+06 -1.062498E+06 -5.691076E+06 -4.379074E+05 -1.873512E+05
        57  10 -1.175611E+07 -2.775045E+06 -1.846697E+06 -3.976371E+06 -1.121910E-09  8.320340E-10
        57  11 -1.153179E+07 -1.018091E+06 -4.909679E+05 -5.043882E+06 -1.667045E-09  2.441451E-09
        57  12 -1.304567E+07 -1.089670E+06 -2.602233E+05 -4.652522E+06 -9.603477E-10 -3.081286E-09
        57  13 -1.465474E+07 -3.591161E+06 -2.596930E+06 -4.472384E+06  2.557034E-09 -2.836448E-09
        57  14 -1.363755E+07 -1.757083E+06 -1.059856E+06 -5.552270E+06  1.629749E-08 -1.131732E-08
        57  15 -1.436602E+07 -1.759715E+06 -6.614891E+05 -5.172411E+06  1.010465E-08 -6.547638E-10
        57  16 -1.754500E+07 -4.407500E+06 -3.347784E+06 -4.966688E+06  7.275691E-10 -3.849533E-09
        57  17 -1.573895E+07 -2.495979E+06 -1.629135E+06 -6.059141E+06  5.495596E-09 -8.984566E-09
        57  18 -1.568458E+07 -2.429241E+06 -1.062937E+06 -5.691143E+06 -4.944691E-09  2.507937E-09
        57  19 -1.175318E+07 -2.773890E+06 -1.840973E+06 -3.975534E+06  1.603914E+06  6.391095E+05
        57  20 -1.153059E+07 -1.017582E+06 -4.885658E+05 -5.043507E+06  1.023806E+06  4.489414E+05
        57  21 -1.304542E+07 -1.089566E+06 -2.597258E+05 -4.652446E+06  4.677111E+05  1.993278E+05
        57  22 -1.465177E+07 -3.589986E+06 -2.591113E+06 -4.471535E+06  1.612870E+06  6.435857E+05
        57  23 -1.363636E+07 -1.756574E+06 -1.057457E+06 -5.551896E+06  1.021224E+06  4.481207E+05
        57  24 -1.436578E+07 -1.759617E+06 -6.610213E+05 -5.172340E+06  4.527918E+05  1.933283E+05
        57  25 -1.754199E+07 -4.406306E+06 -3.341872E+06 -4.965825E+06  1.621760E+06  6.480524E+05
        57  26 -1.573775E+07 -2.495471E+06 -1.626739E+06 -6.058768E+06  1.018645E+06  4.473011E+05
        57  27 -1.568436E+07 -2.429149E+06 -1.062498E+06 -5.691076E+06  4.379074E+05  1.873512E+05
        58   1 -1.551532E+07 -2.574406E+06 -8.958037E+05 -5.382829E+06 -3.717599E+05 -1.310011E+05
        58   2 -1.571808E+07 -2.853612E+06 -7.749261E+05 -6.028676E+06 -2.497845E+05 -5.775462E+04
        58   3 -1.679173E+07 -2.767643E+06 -8.506119E+05 -5.774986E+06 -1.261488E+05  1.127788E+04
        58   4 -1.429254E+07 -2.049923E+06 -5.432863E+05 -4.995780E+06 -3.666220E+05 -1.290172E+05
        58   5 -1.383664E+07 -2.108753E+06 -2.475145E+05 -5.493210E+06 -2.454403E+05 -5.607747E+04
        58   6 -1.425144E+07 -1.801771E+06 -1.473917E+05 -5.091566E+06 -1.224448E+05  1.269676E+04
        58   7 -1.306828E+07 -1.525249E+06 -1.909185E+05 -4.607985E+06 -3.614719E+05 -1.270276E+05
        58   8 -1.195170E+07 -1.363625E+06  2.795579E+05 -4.956213E+06 -2.410800E+05 -5.439387E+04
        58   9 -1.170477E+07 -8.355501E+05  5.552245E+05 -4.405561E+06 -1.187226E+05  1.412233E+04
        58  10 -1.551548E+07 -2.574463E+06 -8.961040E+05 -5.382869E+06  1.158877E-09  4.850158E-09
        58  11 -1.571815E+07 -2.853633E+06 -7.750532E+05 -6.028688E+06 -6.825042E-09  4.621571E-10
        58  12 -1.679174E+07 -2.767648E+06 -8.506427E+05 -5.774985E+06  1.998277E-09 -7.433146E-10
        58  13 -1.429269E+07 -2.049978E+06 -5.435777E+05 -4.995818E+06 -4.391554E-09  6.882440E-09
        58  14 -1.383671E+07 -2.108773E+06 -2.476366E+05 -5.493221E+06  1.892053E-09 -6.211844E-10
        58  15 -1.425145E+07 -1.801776E+06 -1.474208E+05 -5.091565E+06 -3.289937E-10  1.725127E-09
        58  16 -1.306843E+07 -1.525303E+06 -1.912011E+05 -4.608023E+06 -7.005952E-09  4.492400E-09
        58  17 -1.195176E+07 -1.363645E+06  2.794406E+05 -4.956224E+06 -8.286091E-10  7.395958E-11
        58  18 -1.170479E+07 -8.355542E+05  5.551972E+05 -4.405559E+06  4.804455E-09 -2.041629E-09
        58  19 -1.551532E+07 -2.574406E+06 -8.958037E+05 -5.382829E+06  3.717599E+05  1.310011E+05
        58  20 -1.571808E+07 -2.853612E+06 -7.749261E+05 -6.028676E+06  2.497845E+05  5.775462E+04
        58  21 -1.679173E+07 -2.767643E+06 -8.506119E+05 -5.774986E+06  1.261488E+05 -1.127788E+04
        58  22 -1.429254E+07 -2.049923E+06 -5.432863E+05 -4.995780E+06  3.666220E+05  1.290172E+05
        58  23 -1.383664E+07 -2.108753E+06 -2.475145E+05 -5.493210E+06  2.454403E+05  5.607747E+04
        58  24 -1.425144E+07 -1.801771E+06 -1.473917E+05 -5.091566E+06  1.224448E+05 -1.269676E+04
        58  25 -1.306828E+07 -1.525249E+06 -1.909185E+05 -4.607985E+06  3.614719E+05  1.270276E+05
        58  26 -1.195170E+07 -1.363625E+06  2.795579E+05 -4.956213E+06  2.410800E+05  5.439387E+04
        58  27 -1.170477E+07 -8.355501E+05  5.552245E+05 -4.405561E+06  1.187226E+05 -1.412233E+04
        59   1 -1.818113E+07 -3.561696E+06 -1.256718E+06 -6.346039E+06 -1.122941E+05  3.104616E+04
        59   2 -1.827517E+07 -3.610652E+06 -1.235076E+06 -6.445553E+06 -8.154590E+04  5.842857E+04
        59   3 -1.841142E+07 -3.571081E+06 -1.229643E+06 -6.373864E+06 -4.296011E+04  6.512191E+04
        59   4 -1.408699E+07 -1.970907E+06 -1.120181E+05 -5.213043E+06 -1.069400E+05  3.305999E+04
        59   5 -1.406382E+07 -1.999149E+06 -6.457529E+04 -5.304788E+06 -8.095973E+04  5.860434E+04
        59   6 -1.408129E+07 -1.937418E+06 -2.925686E+04 -5.225384E+06 -4.716050E+04  6.352842E+04
        59   7 -9.976283E+06 -3.790232E+05  1.031082E+06 -4.073040E+06 -1.015441E+05  3.509019E+04
        59   8 -9.834956E+06 -3.866061E+05  1.104253E+06 -4.156794E+06 -8.036803E+04  5.878244E+04
        59   9 -9.732690E+06 -3.027798E+05  1.169374E+06 -4.069455E+06 -5.139366E+04  6.192313E+04
        59  10 -1.818115E+07 -3.561700E+06 -1.256744E+06 -6.346036E+06 -2.499788E-09  2.080002E-09
        59  11 -1.827518E+07 -3.610657E+06 -1.235095E+06 -6.445549E+06 -3.335810E-09 -3.203940E-11
        59  12 -1.841142E+07 -3.571086E+06 -1.229655E+06 -6.373862E+06  8.844903E-10 -6.287270E-09
        59  13 -1.408700E+07 -1.970911E+06 -1.120420E+05 -5.213040E+06  5.601542E-09 -1.271331E-09
        59  14 -1.406382E+07 -1.999154E+06 -6.459411E+04 -5.304784E+06  6.600707E-09  3.662091E-09
        59  15 -1.408130E+07 -1.937422E+06 -2.926856E+04 -5.225381E+06  4.561793E-09  3.203574E-10
        59  16 -9.976294E+06 -3.790273E+05  1.031060E+06 -4.073037E+06  3.445956E-09  1.853348E-09
        59  17 -9.834964E+06 -3.866115E+05  1.104234E+06 -4.156790E+06  4.068486E-09  2.509697E-09
        59  18 -9.732693E+06 -3.027846E+05  1.169362E+06 -4.069453E+06  1.488504E-09  3.893708E-10
        59  19 -1.818113E+07 -3.561696E+06 -1.256718E+06 -6.346039E+06  1.122941E+05 -3.104616E+04
        59  20 -1.827517E+07 -3.610652E+06 -1.235076E+06 -6.445553E+06  8.154590E+04 -5.842857E+04
        59  21 -1.841142E+07 -3.571081E+06 -1.229643E+06 -6.373864E+06  4.296011E+04 -6.512191E+04
        59  22 -1.408699E+07 -1.970907E+06 -1.120181E+05 -5.213043E+06  1.069400E+05 -3.305999E+04
        59  23 -1.406382E+07 -1.999149E+06 -6.457529E+04 -5.304788E+06  8.095973E+04 -5.860434E+04
        59  24 -1.408129E+07 -1.937418E+06 -2.925686E+04 -5.225384E+06  4.716050E+04 -6.352842E+04
        59  25 -9.976283E+06 -3.790232E+05  1.031082E+06 -4.073040E+06  1.015441E+05 -3.509019E+04
        59  26 -9.834956E+06 -3.866061E+05  1.104253E+06 -4.156794E+06  8.036803E+04 -5.878244E+04
        59  27 -9.732690E+06 -3.027798E+05  1.169374E+06 -4.069455E+06  5.139366E+04 -6.192313E+04
        60   1 -1.737030E+07 -3.389642E+06 -9.742727E+05 -6.309464E+06 -4.015245E+04  5.897970E+04
        60   2 -1.715479E+07 -2.895686E+06 -8.223288E+05 -5.835596E+06 -2.387935E+04  5.233600E+04
        60   3 -1.633535E+07 -2.969169E+06 -6.717227E+05 -6.024523E+06 -2.556614E+03  3.108172E+04
        60   4 -1.393810E+07 -2.099962E+06 -2.581016E+04 -5.403520E+06 -4.114070E+04  5.858858E+04
        60   5 -1.423959E+07 -1.808973E+06 -1.848881E+04 -5.075038E+06 -2.833223E+04  5.070649E+04
        60   6 -1.393673E+07 -2.084410E+06 -9.635193E+03 -5.409230E+06 -1.049791E+04  2.824389E+04
        60   7 -1.049431E+07 -8.096832E+05  9.215540E+05 -4.492922E+06 -4.213493E+04  5.819540E+04
        60   8 -1.131604E+07 -7.218596E+05  7.845617E+05 -4.311173E+06 -3.280856E+04  4.906859E+04
        60   9 -1.153248E+07 -1.199409E+06  6.519174E+05 -4.791745E+06 -1.847360E+04  2.539388E+04
        60  10 -1.737031E+07 -3.389646E+06 -9.742822E+05 -6.309462E+06  4.263963E-09 -8.671146E-09
        60  11 -1.715479E+07 -2.895689E+06 -8.223350E+05 -5.835595E+06  9.860547E-09  8.994133E-09
        60  12 -1.633535E+07 -2.969170E+06 -6.717245E+05 -6.024523E+06 -8.519951E-09 -1.160751E-08
        60  13 -1.393810E+07 -2.099966E+06 -2.581974E+04 -5.403518E+06 -2.983613E-10 -1.188161E-08
        60  14 -1.423959E+07 -1.808976E+06 -1.849510E+04 -5.075037E+06 -6.386258E-10 -1.519424E-08
        60  15 -1.393673E+07 -2.084411E+06 -9.636887E+03 -5.409230E+06 -3.325908E-09 -4.647334E-11
        60  16 -1.049431E+07 -8.096873E+05  9.215443E+05 -4.492920E+06  2.005758E-09 -3.555976E-09
        60  17 -1.131604E+07 -7.218625E+05  7.845552E+05 -4.311172E+06 -7.680879E-09 -6.254370E-09
        60  18 -1.153248E+07 -1.199410E+06  6.519156E+05 -4.791745E+06 -8.003433E-10  1.159163E-08
        60  19 -1.737030E+07 -3.389642E+06 -9.742727E+05 -6.309464E+06  4.015245E+04 -5.897970E+04
        60  20 -1.715479E+07 -2.895686E+06 -8.223288E+05 -5.835596E+06  2.387935E+04 -5.233600E+04
        60  21 -1.633535E+07 -2.969169E+06 -6.717227E+05 -6.024523E+06  2.556614E+03 -3.108172E+04
        60  22 -1.393810E+07 -2.099962E+06 -2.581016E+04 -5.403520E+06  4.114070E+04 -5.858858E+04
        60  23 -1.423959E+07 -1.808973E+06 -1.848881E+04 -5.075038E+06  2.833223E+04 -5.070649E+04
        60  24 -1.393673E+07 -2.084410E+06 -9.635193E+03 -5.409230E+06  1.049791E+04 -2.824389E+04
        60  25 -1.049431E+07 -8.096832E+05  9.215540E+05 -4.492922E+06  4.213493E+04 -5.819540E+04
        60  26 -1.131604E+07 -7.218596E+05  7.845617E+05 -4.311173E+06  3.280856E+04 -4.906859E+04
        60  27 -1.153248E+07 -1.199409E+06  6.519174E+05 -4.791745E+06  1.847360E+04 -2.539388E+04
        61   1 -1.367473E+07 -2.046109E+06  5.278614E+04 -5.404663E+06  4.610973E+03  1.242531E+04
        61   2 -1.334679E+07 -1.408751E+06  2.403995E+05 -4.767658E+06  2.078840E+04 -1.190478E+04
        61   3 -1.227593E+07 -1.534690E+06  4.188696E+05 -5.034746E+06  3.542844E+04 -3.161942E+04
        61   4 -1.390458E+07 -2.129538E+06 -1.244296E+04 -5.461734E+06 -2.425765E+03  9.926910E+03
        61   5 -1.427630E+07 -1.752378E+06 -1.479082E+04 -5.007935E+06  1.485472E+04 -1.402581E+04
        61   6 -1.390575E+07 -2.138868E+06 -2.714207E+04 -5.458520E+06  3.058772E+04 -3.336109E+04
        61   7 -1.413438E+07 -2.212965E+06 -7.767702E+04 -5.518786E+06 -9.459597E+03  7.429491E+03
        61   8 -1.520496E+07 -2.095966E+06 -2.700608E+05 -5.247881E+06  8.930926E+03 -1.614331E+04
        61   9 -1.553298E+07 -2.742922E+06 -4.733974E+05 -5.881268E+06  2.576112E+04 -3.509768E+04
        61  10 -1.367473E+07 -2.046109E+06  5.278580E+04 -5.404663E+06  1.568183E-09 -1.413957E-08
        61  11 -1.334679E+07 -1.408752E+06  2.403985E+05 -4.767658E+06  1.682458E-08  3.406621E-09
        61  12 -1.227593E+07 -1.534692E+06  4.188654E+05 -5.034745E+06 -3.803365E-09  4.578757E-09
        61  13 -1.390458E+07 -2.129538E+06 -1.244316E+04 -5.461734E+06  6.950749E-09  8.378413E-10
        61  14 -1.427630E+07 -1.752378E+06 -1.479161E+04 -5.007935E+06  3.266148E-08  1.250025E-08
        61  15 -1.390575E+07 -2.138869E+06 -2.714591E+04 -5.458519E+06 -8.042160E-10  1.182340E-08
        61  16 -1.413438E+07 -2.212965E+06 -7.767730E+04 -5.518786E+06 -3.464482E-09 -6.450384E-09
        61  17 -1.520496E+07 -2.095967E+06 -2.700615E+05 -5.247881E+06  2.282133E-09 -1.308587E-08
        61  18 -1.553298E+07 -2.742923E+06 -4.734010E+05 -5.881267E+06 -2.520608E-09 -1.925587E-08
        61  19 -1.367473E+07 -2.046109E+06  5.278614E+04 -5.404663E+06 -4.610973E+03 -1.242531E+04
        61  20 -1.334679E+07 -1.408751E+06  2.403995E+05 -4.767658E+06 -2.078840E+04  1.190478E+04
        61  21 -1.227593E+07 -1.534690E+06  4.188696E+05 -5.034746E+06 -3.542844E+04  3.161942E+04
        61  22 -1.390458E+07 -2.129538E+06 -1.244296E+04 -5.461734E+06  2.425765E+03 -9.926910E+03
        61  23 -1.427630E+07 -1.752378E+06 -1.479082E+04 -5.007935E+06 -1.485472E+04  1.402581E+04
        61  24 -1.390575E+07 -2.138868E+06 -2.714207E+04 -5.458520E+06 -3.058772E+04  3.336109E+04
        61  25 -1.413438E+07 -2.212965E+06 -7.767702E+04 -5.518786E+06  9.459597E+03 -7.429491E+03
        61  26 -1.520496E+07 -2.095966E+06 -2.700608E+05 -5.247881E+06 -8.930926E+03  1.614331E+04
        61  27 -1.553298E+07 -2.742922E+06 -4.733974E+05 -5.881268E+06 -2.576112E+04  3.509768E+04
        62   1 -1.027634E+07 -6.473647E+05  9.933004E+05 -4.369108E+06  4.697166E+04 -4.414749E+04
        62   2 -1.020155E+07 -3.916515E+05  1.031139E+06 -4.116396E+06  7.975991E+04 -5.378929E+04
        62   3 -9.769733E+06 -4.570192E+05  1.057998E+06 -4.173099E+06  1.055164E+05 -4.377605E+04
        62   4 -1.399272E+07 -2.023619E+06 -2.844765E+04 -5.334143E+06  3.985882E+04 -4.674003E+04
        62   5 -1.417338E+07 -1.883892E+06 -6.233788E+04 -5.171318E+06  7.725470E+04 -5.474836E+04
        62   6 -1.399837E+07 -2.066776E+06 -1.110856E+05 -5.318105E+06  1.075843E+05 -4.304631E+04
        62   7 -1.769562E+07 -3.399251E+06 -1.051470E+06 -6.293881E+06  3.279311E+04 -4.931580E+04
        62   8 -1.812980E+07 -3.375318E+06 -1.157278E+06 -6.220024E+06  7.476649E+04 -5.570137E+04
        62   9 -1.820952E+07 -3.675506E+06 -1.281843E+06 -6.455902E+06  1.096346E+05 -4.232339E+04
        62  10 -1.027635E+07 -6.473674E+05  9.932926E+05 -4.369106E+06  4.736835E-09  1.393518E-08
        62  11 -1.020155E+07 -3.916563E+05  1.031122E+06 -4.116393E+06  7.790693E-10 -1.703247E-09
        62  12 -9.769746E+06 -4.570242E+05  1.057973E+06 -4.173095E+06  1.378706E-09 -2.619098E-09
        62  13 -1.399272E+07 -2.023621E+06 -2.845472E+04 -5.334141E+06  5.443300E-10  7.071984E-10
        62  14 -1.417339E+07 -1.883897E+06 -6.235478E+04 -5.171314E+06 -3.131157E-09  6.569509E-10
        62  15 -1.399838E+07 -2.066781E+06 -1.111111E+05 -5.318101E+06 -5.566989E-09 -2.962830E-09
        62  16 -1.769562E+07 -3.399254E+06 -1.051477E+06 -6.293879E+06 -3.512295E-09 -3.566109E-09
        62  17 -1.812981E+07 -3.375323E+06 -1.157295E+06 -6.220020E+06  2.269303E-09  3.816360E-09
        62  18 -1.820954E+07 -3.675511E+06 -1.281869E+06 -6.455899E+06 -2.775792E-09  2.450036E-09
        62  19 -1.027634E+07 -6.473647E+05  9.933004E+05 -4.369108E+06 -4.697166E+04  4.414749E+04
        62  20 -1.020155E+07 -3.916515E+05  1.031139E+06 -4.116396E+06 -7.975991E+04  5.378929E+04
        62  21 -9.769733E+06 -4.570192E+05  1.057998E+06 -4.173099E+06 -1.055164E+05  4.377605E+04
        62  22 -1.399272E+07 -2.023619E+06 -2.844765E+04 -5.334143E+06 -3.985882E+04  4.674003E+04
        62  23 -1.417338E+07 -1.883892E+06 -6.233788E+04 -5.171318E+06 -7.725470E+04  5.474836E+04
        62  24 -1.399837E+07 -2.066776E+06 -1.110856E+05 -5.318105E+06 -1.075843E+05  4.304631E+04
        62  25 -1.769562E+07 -3.399251E+06 -1.051470E+06 -6.293881E+06 -3.279311E+04  4.931580E+04
        62  26 -1.812980E+07 -3.375318E+06 -1.157278E+06 -6.220024E+06 -7.476649E+04  5.570137E+04
        62  27 -1.820952E+07 -3.675506E+06 -1.281843E+06 -6.455902E+06 -1.096346E+05  4.232339E+04
        63   1 -1.019502E+07 -3.632852E+05  9.562609E+05 -4.092936E+06  1.272263E+05 -3.258831E+04
        63   2 -1.037460E+07 -6.549974E+05  7.427879E+05 -4.420805E+06  2.505490E+05  2.084869E+04
        63   3 -1.107985E+07 -8.398182E+05  3.551752E+05 -4.143443E+06  3.674879E+05  9.014010E+04
        63   4 -1.417764E+07 -1.863913E+06 -1.415381E+05 -5.155416E+06  1.263010E+05 -3.297110E+04
        63   5 -1.393353E+07 -2.037387E+06 -2.463883E+05 -5.411984E+06  2.527871E+05  2.167022E+04
        63   6 -1.421704E+07 -2.105850E+06 -5.287185E+05 -5.062945E+06  3.729670E+05  9.222351E+04
        63   7 -1.814473E+07 -3.363725E+06 -1.240812E+06 -6.211642E+06  1.253804E+05 -3.335236E+04
        63   8 -1.748003E+07 -3.418927E+06 -1.236761E+06 -6.397872E+06  2.550071E+05  2.248453E+04
        63   9 -1.734454E+07 -3.371020E+06 -1.413564E+06 -5.978050E+06  3.784101E+05  9.429181E+04
        63  10 -1.019504E+07 -3.632908E+05  9.562282E+05 -4.092933E+06 -2.862346E-09 -1.531148E-09
        63  11 -1.037467E+07 -6.550151E+05  7.426670E+05 -4.420809E+06 -1.007127E-08  1.519620E-08
        63  12 -1.108000E+07 -8.398642E+05  3.549007E+05 -4.143470E+06 -1.697129E-10  1.181183E-08
        63  13 -1.417766E+07 -1.863919E+06 -1.415707E+05 -5.155413E+06 -8.779962E-10  1.714563E-09
        63  14 -1.393360E+07 -2.037405E+06 -2.465121E+05 -5.411989E+06  3.771270E-09  1.859647E-10
        63  15 -1.421720E+07 -2.105897E+06 -5.290031E+05 -5.062973E+06  1.455822E-09  1.088360E-08
        63  16 -1.814475E+07 -3.363731E+06 -1.240844E+06 -6.211639E+06  3.186732E-09 -4.226981E-09
        63  17 -1.748010E+07 -3.418946E+06 -1.236888E+06 -6.397877E+06  4.663924E-09 -1.390830E-09
        63  18 -1.734470E+07 -3.371070E+06 -1.413859E+06 -5.978079E+06  6.926774E-10  3.414060E-09
        63  19 -1.019502E+07 -3.632852E+05  9.562609E+05 -4.092936E+06 -1.272263E+05  3.258831E+04
        63  20 -1.037460E+07 -6.549974E+05  7.427879E+05 -4.420805E+06 -2.505490E+05 -2.084869E+04
        63  21 -1.107985E+07 -8.398182E+05  3.551752E+05 -4.143443E+06 -3.674879E+05 -9.014010E+04
        63  22 -1.417764E+07 -1.863913E+06 -1.415381E+05 -5.155416E+06 -1.263010E+05  3.297110E+04
        63  23 -1.393353E+07 -2.037387E+06 -2.463883E+05 -5.411984E+06 -2.527871E+05 -2.167022E+04
        63  24 -1.421704E+07 -2.105850E+06 -5.287185E+05 -5.062945E+06 -3.729670E+05 -9.222351E+04
        63  25 -1.814473E+07 -3.363725E+06 -1.240812E+06 -6.211642E+06 -1.253804E+05  3.335236E+04
        63  26 -1.748003E+07 -3.418927E+06 -1.236761E+06 -6.397872E+06 -2.550071E+05 -2.248453E+04
        63  27 -1.734454E+07 -3.371020E+06 -1.413564E+06 -5.978050E+06 -3.784101E+05 -9.429181E+04
        64   1 -1.346540E+07 -1.527336E+06 -4.220139E+05 -5.029565E+06  4.500693E+05  1.467794E+05
        64   2 -1.354826E+07 -1.690221E+06 -1.001044E+06 -5.486198E+06  1.011956E+06  3.972185E+05
        64   3 -1.549206E+07 -3.531786E+06 -2.704467E+06 -4.386096E+06  1.581889E+06  6.250306E+05
        64   4 -1.439091E+07 -1.742159E+06 -6.489265E+05 -5.145342E+06  4.590326E+05  1.504156E+05
        64   5 -1.360372E+07 -1.791637E+06 -1.033080E+06 -5.579745E+06  1.015435E+06  3.984164E+05
        64   6 -1.467641E+07 -3.518405E+06 -2.536561E+06 -4.456951E+06  1.580799E+06  6.236232E+05
        64   7 -1.531554E+07 -1.957004E+06 -8.758889E+05 -5.261022E+06  4.679802E+05  1.540512E+05
        64   8 -1.365917E+07 -1.893014E+06 -1.065114E+06 -5.673278E+06  1.018913E+06  3.996131E+05
        64   9 -1.385992E+07 -3.504857E+06 -2.368631E+06 -4.527975E+06  1.579707E+06  6.222174E+05
        64  10 -1.346563E+07 -1.527416E+06 -4.224457E+05 -5.029619E+06  2.904639E-10  9.875410E-09
        64  11 -1.354942E+07 -1.690677E+06 -1.003323E+06 -5.486526E+06 -4.581409E-09  1.211718E-08
        64  12 -1.549491E+07 -3.532909E+06 -2.710054E+06 -4.386906E+06 -7.810067E-10 -4.698809E-09
        64  13 -1.439115E+07 -1.742242E+06 -6.493767E+05 -5.145399E+06  1.866092E-08 -2.183496E-09
        64  14 -1.360490E+07 -1.792097E+06 -1.035376E+06 -5.580076E+06  2.627939E-08  2.241872E-08
        64  15 -1.467925E+07 -3.519524E+06 -2.542132E+06 -4.457758E+06  5.382049E-09  5.928817E-09
        64  16 -1.531579E+07 -1.957091E+06 -8.763580E+05 -5.261081E+06 -4.449198E-09  3.552396E-09
        64  17 -1.366036E+07 -1.893477E+06 -1.067425E+06 -5.673611E+06 -4.316447E-09  7.034773E-09
        64  18 -1.386276E+07 -3.505972E+06 -2.374186E+06 -4.528779E+06 -3.883202E-09 -2.944518E-09
        64  19 -1.346540E+07 -1.527336E+06 -4.220139E+05 -5.029565E+06 -4.500693E+05 -1.467794E+05
        64  20 -1.354826E+07 -1.690221E+06 -1.001044E+06 -5.486198E+06 -1.011956E+06 -3.972185E+05
        64  21 -1.549206E+07 -3.531786E+06 -2.704467E+06 -4.386096E+06 -1.581889E+06 -6.250306E+05
        64  22 -1.439091E+07 -1.742159E+06 -6.489265E+05 -5.145342E+06 -4.590326E+05 -1.504156E+05
        64  23 -1.360372E+07 -1.791637E+06 -1.033080E+06 -5.579745E+06 -1.015435E+06 -3.984164E+05
        64  24 -1.467641E+07 -3.518405E+06 -2.536561E+06 -4.456951E+06 -1.580799E+06 -6.236232E+05
        64  25 -1.531554E+07 -1.957004E+06 -8.758889E+05 -5.261022E+06 -4.679802E+05 -1.540512E+05
        64  26 -1.365917E+07 -1.893014E+06 -1.065114E+06 -5.673278E+06 -1.018913E+06 -3.996131E+05
        64  27 -1.385992E+07 -3.504857E+06 -2.368631E+06 -4.527975E+06 -1.579707E+06 -6.222174E+05
        65   1 -1.502424E+06 -1.953208E+05 -1.430885E+05 -1.882603E+04  1.456213E+05  9.293798E+03
        65   2 -1.499966E+06 -3.933237E+05 -2.584997E+05  3.526498E+03  9.783598E+04  2.328067E+04
        65   3 -1.417277E+06 -3.515238E+05 -2.800320E+05 -4.916932E+04  5.023123E+04  1.946505E+04
        65   4 -3.806808E+04  1.703366E+05  2.221258E+05 -3.168145E+04  1.509140E+05  9.345771E+03
        65   5 -7.850369E+04 -3.828285E+04  9.403429E+04  6.803023E+03  9.918381E+04  2.328877E+04
        65   6 -3.815954E+04 -6.696691E+03  6.241059E+04 -2.974898E+04  4.763769E+04  1.944475E+04
        65   7  1.428236E+06  5.358338E+05  5.871793E+05 -4.457264E+04  1.562189E+05  9.397466E+03
        65   8  1.344797E+06  3.166065E+05  4.464176E+05  1.008284E+04  1.005345E+05  2.329688E+04
        65   9  1.342688E+06  3.379886E+05  4.047110E+05 -1.028843E+04  4.503829E+04  1.942430E+04
        65  10 -1.502446E+06 -1.953266E+05 -1.431286E+05 -1.882712E+04 -1.930987E-09  3.497947E-09
        65  11 -1.499977E+06 -3.933268E+05 -2.585188E+05  3.524662E+03 -2.548123E-09 -3.771288E-09
        65  12 -1.417280E+06 -3.515249E+05 -2.800374E+05 -4.917011E+04  2.355509E-09 -3.332932E-10
        65  13 -3.809256E+04  1.703304E+05  2.220829E+05 -3.168258E+04  2.139709E-09  1.287171E-09
        65  14 -7.851440E+04 -3.828607E+04  9.401478E+04  6.801163E+03  9.195048E-11 -1.242156E-08
        65  15 -3.816207E+04 -6.697707E+03  6.240561E+04 -2.974972E+04  5.967571E-10 -1.696802E-10
        65  16  1.428210E+06  5.358271E+05  5.871334E+05 -4.457382E+04  7.466933E-10 -1.130230E-09
        65  17  1.344786E+06  3.166032E+05  4.463976E+05  1.008096E+04  1.590140E-10 -2.188907E-09
        65  18  1.342686E+06  3.379877E+05  4.047065E+05 -1.028913E+04 -2.656390E-09 -3.040386E-09
        65  19 -1.502424E+06 -1.953208E+05 -1.430885E+05 -1.882603E+04 -1.456213E+05 -9.293798E+03
        65  20 -1.499966E+06 -3.933237E+05 -2.584997E+05  3.526498E+03 -9.783598E+04 -2.328067E+04
        65  21 -1.417277E+06 -3.515238E+05 -2.800320E+05 -4.916932E+04 -5.023123E+04 -1.946505E+04
        65  22 -3.806808E+04  1.703366E+05  2.221258E+05 -3.168145E+04 -1.509140E+05 -9.345771E+03
        65  23 -7.850369E+04 -3.828285E+04  9.403429E+04  6.803023E+03 -9.918381E+04 -2.328877E+04
        65  24 -3.815954E+04 -6.696691E+03  6.241059E+04 -2.974898E+04 -4.763769E+04 -1.944475E+04
        65  25  1.428236E+06  5.358338E+05  5.871793E+05 -4.457264E+04 -1.562189E+05 -9.397466E+03
        65  26  1.344797E+06  3.166065E+05  4.464176E+05  1.008284E+04 -1.005345E+05 -2.329688E+04
        65  27  1.342688E+06  3.379886E+05  4.047110E+05 -1.028843E+04 -4.503829E+04 -1.942430E+04
        66   1 -1.230454E+06 -2.705036E+05 -2.413678E+05 -3.247543E+04  3.685094E+04  1.569852E+04
        66   2 -1.197029E+06 -2.894524E+05 -2.577619E+05  3.932432E+03  2.466283E+04  1.633124E+04
        66   3 -1.144718E+06 -2.740423E+05 -2.558618E+05 -3.430827E+04  1.248224E+04  1.443752E+04
        66   4 -5.171314E+04  2.396124E+04  5.136067E+04 -3.037170E+04  3.732415E+04  1.569937E+04
        66   5 -6.122342E+04 -5.729252E+03  2.412278E+04  7.022960E+03  2.456983E+04  1.632890E+04
        66   6 -5.176291E+04 -9.908369E+02  1.555082E+04 -3.022229E+04  1.182388E+04  1.443401E+04
        66   7  1.128290E+06  3.183218E+05  3.439853E+05 -2.826588E+04  3.779821E+04  1.570022E+04
        66   8  1.075754E+06  2.778971E+05  3.059111E+05  1.011781E+04  2.447663E+04  1.632657E+04
        66   9  1.042278E+06  2.719710E+05  2.868741E+05 -2.612987E+04  1.116434E+04  1.443050E+04
        66  10 -1.230455E+06 -2.705043E+05 -2.413708E+05 -3.247589E+04  1.173266E-09 -3.102449E-09
        66  11 -1.197029E+06 -2.894529E+05 -2.577635E+05  3.932108E+03 -3.057141E-09  4.102423E-09
        66  12 -1.144718E+06 -2.740426E+05 -2.558624E+05 -3.430841E+04 -3.223855E-09 -3.153669E-09
        66  13 -5.171470E+04  2.396060E+04  5.135759E+04 -3.037218E+04  2.176591E-09 -1.487241E-09
        66  14 -6.122414E+04 -5.729701E+03  2.412114E+04  7.022637E+03  4.318057E-09 -1.023441E-09
        66  15 -5.176312E+04 -9.910982E+02  1.555017E+04 -3.022242E+04 -3.034326E-09 -3.775143E-09
        66  16  1.128289E+06  3.183212E+05  3.439821E+05 -2.826636E+04  1.293239E-09  2.601276E-09
        66  17  1.075754E+06  2.778967E+05  3.059094E+05  1.011749E+04 -1.685396E-10 -4.995655E-09
        66  18  1.042278E+06  2.719707E+05  2.868735E+05 -2.613000E+04  1.431399E-09 -2.342119E-11
        66  19 -1.230454E+06 -2.705036E+05 -2.413678E+05 -3.247543E+04 -3.685094E+04 -1.569852E+04
        66  20 -1.197029E+06 -2.894524E+05 -2.577619E+05  3.932432E+03 -2.466283E+04 -1.633124E+04
        66  21 -1.144718E+06 -2.740423E+05 -2.558618E+05 -3.430827E+04 -1.248224E+04 -1.443752E+04
        66  22 -5.171314E+04  2.396124E+04  5.136067E+04 -3.037170E+04 -3.732415E+04 -1.569937E+04
        66  23 -6.122342E+04 -5.729252E+03  2.412278E+04  7.022960E+03 -2.456983E+04 -1.632890E+04
        66  24 -5.176291E+04 -9.908369E+02  1.555082E+04 -3.022229E+04 -1.182388E+04 -1.443401E+04
        66  25  1.128290E+06  3.183218E+05  3.439853E+05 -2.826588E+04 -3.779821E+04 -1.570022E+04
        66  26  1.075754E+06  2.778971E+05  3.059111E+05  1.011781E+04 -2.447663E+04 -1.632657E+04
        66  27  1.042278E+06  2.719710E+05  2.868741E+05 -2.612987E+04 -1.116434E+04 -1.443050E+04
        67   1 -9.429289E+05 -2.188388E+05 -2.081809E+05 -3.157700E+04  9.474878E+03  1.311791E+04
        67   2 -9.025495E+05 -2.119575E+05 -2.037087E+05  6.772186E+03  6.435857E+03  1.185508E+04
        67   3 -8.560288E+05 -2.002254E+05 -1.951256E+05 -3.054336E+04  3.392141E+03  1.022065E+04
        67   4 -5.447338E+04  3.041133E+03  1.222316E+04 -3.049870E+04  9.252856E+03  1.311625E+04
        67   5 -5.756849E+04 -9.233921E+02  5.991325E+03  7.333918E+03  6.129684E+03  1.185376E+04
        67   6 -5.450910E+04 -2.379034E+01  3.925832E+03 -3.049183E+04  3.002028E+03  1.021991E+04
        67   7  8.346995E+05  2.248619E+05  2.325683E+05 -2.941923E+04  9.030508E+03  1.311458E+04
        67   8  7.880614E+05  2.100571E+05  2.156380E+05  7.896253E+03  5.823089E+03  1.185244E+04
        67   9  7.475943E+05  2.001296E+05  2.029292E+05 -3.044019E+04  2.611409E+03  1.021916E+04
        67  10 -9.429290E+05 -2.188390E+05 -2.081814E+05 -3.157710E+04 -3.940590E-09 -5.301793E-10
        67  11 -9.025496E+05 -2.119577E+05 -2.037090E+05  6.772125E+03  3.988342E-09  2.150812E-09
        67  12 -8.560288E+05 -2.002255E+05 -1.951258E+05 -3.054339E+04 -5.262859E-10  6.969871E-12
        67  13 -5.447352E+04  3.040926E+03  1.222268E+04 -3.049880E+04 -4.302236E-09 -2.114758E-09
        67  14 -5.756857E+04 -9.235531E+02  5.990991E+03  7.333860E+03  1.075856E-08 -6.737442E-10
        67  15 -5.450914E+04 -2.390492E+01  3.925619E+03 -3.049185E+04 -1.615565E-09  1.232412E-09
        67  16  8.346994E+05  2.248617E+05  2.325678E+05 -2.941932E+04  1.646509E-09 -7.862834E-10
        67  17  7.880613E+05  2.100570E+05  2.156377E+05  7.896197E+03 -1.096385E-09  6.722504E-10
        67  18  7.475942E+05  2.001295E+05  2.029290E+05 -3.044021E+04  1.189443E-09  1.230102E-09
        67  19 -9.429289E+05 -2.188388E+05 -2.081809E+05 -3.157700E+04 -9.474878E+03 -1.311791E+04
        67  20 -9.025495E+05 -2.119575E+05 -2.037087E+05  6.772186E+03 -6.435857E+03 -1.185508E+04
        67  21 -8.560288E+05 -2.002254E+05 -1.951256E+05 -3.054336E+04 -3.392141E+03 -1.022065E+04
        67  22 -5.447338E+04  3.041133E+03  1.222316E+04 -3.049870E+04 -9.252856E+03 -1.311625E+04
        67  23 -5.756849E+04 -9.233921E+02  5.991325E+03  7.333918E+03 -6.129684E+03 -1.185376E+04
        67  24 -5.450910E+04 -2.379034E+01  3.925832E+03 -3.049183E+04 -3.002028E+03 -1.021991E+04
        67  25  8.346995E+05  2.248619E+05  2.325683E+05 -2.941923E+04 -9.030508E+03 -1.311458E+04
        67  26  7.880614E+05  2.100571E+05  2.156380E+05  7.896253E+03 -5.823089E+03 -1.185244E+04
        67  27  7.475943E+05  2.001296E+05  2.029292E+05 -3.044019E+04 -2.611409E+03 -1.021916E+04
        68   1 -6.496856E+05 -1.480925E+05 -1.444339E+05 -3.031424E+04  2.674334E+03  9.235555E+03
        68   2 -6.066849E+05 -1.376130E+05 -1.351741E+05  8.169519E+03  1.959013E+03  7.687302E+03
        68   3 -5.618341E+05 -1.263124E+05 -1.249301E+05 -2.977578E+04  1.240179E+03  6.079723E+03
        68   4 -5.536733E+04  2.900412E+02  2.909018E+03 -3.066395E+04  2.347944E+03  9.235255E+03
        68   5 -5.630445E+04 -1.786761E+02  1.394082E+03  7.548574E+03  1.619179E+03  7.687393E+03
        68   6 -5.539027E+04  1.766077E+02  8.724741E+02 -3.066376E+04  8.869523E+02  6.080235E+03
        68   7  5.392719E+05  1.486461E+05  1.502256E+05 -3.101392E+04  2.021241E+03  9.234955E+03
        68   8  4.943512E+05  1.372330E+05  1.379396E+05  6.927182E+03  1.279044E+03  7.687484E+03
        68   9  4.512865E+05  1.266463E+05  1.266559E+05 -3.155232E+04  5.334373E+02  6.080748E+03
        68  10 -6.496856E+05 -1.480926E+05 -1.444340E+05 -3.031426E+04  1.957134E-09 -5.953249E-10
        68  11 -6.066849E+05 -1.376131E+05 -1.351742E+05  8.169507E+03  4.414647E-09  2.736389E-09
        68  12 -5.618341E+05 -1.263124E+05 -1.249302E+05 -2.977578E+04  7.120497E-10  2.437414E-09
        68  13 -5.536736E+04  2.899481E+02  2.908847E+03 -3.066397E+04  2.175693E-09  1.320043E-10
        68  14 -5.630447E+04 -1.787403E+02  1.393966E+03  7.548564E+03 -4.316975E-09 -1.078109E-09
        68  15 -5.539028E+04  1.765678E+02  8.724031E+02 -3.066376E+04 -9.889944E-09 -6.869895E-10
        68  16  5.392719E+05  1.486460E+05  1.502254E+05 -3.101393E+04 -6.749197E-10 -4.997537E-10
        68  17  4.943512E+05  1.372329E+05  1.379395E+05  6.927174E+03 -7.825061E-09 -7.651952E-10
        68  18  4.512865E+05  1.266463E+05  1.266558E+05 -3.155232E+04 -1.673859E-09 -9.353367E-10
        68  19 -6.496856E+05 -1.480925E+05 -1.444339E+05 -3.031424E+04 -2.674334E+03 -9.235555E+03
        68  20 -6.066849E+05 -1.376130E+05 -1.351741E+05  8.169519E+03 -1.959013E+03 -7.687302E+03
        68  21 -5.618341E+05 -1.263124E+05 -1.249301E+05 -2.977578E+04 -1.240179E+03 -6.079723E+03
        68  22 -5.536733E+04  2.900412E+02  2.909018E+03 -3.066395E+04 -2.347944E+03 -9.235255E+03
        68  23 -5.630445E+04 -1.786761E+02  1.394082E+03  7.548574E+03 -1.619179E+03 -7.687393E+03
        68  24 -5.539027E+04  1.766077E+02  8.724741E+02 -3.066376E+04 -8.869523E+02 -6.080235E+03
        68  25  5.392719E+05  1.486461E+05  1.502256E+05 -3.101392E+04 -2.021241E+03 -9.234955E+03
        68  26  4.943512E+05  1.372330E+05  1.379396E+05  6.927182E+03 -1.279044E+03 -7.687484E+03
        68  27  4.512865E+05  1.266463E+05  1.266559E+05 -3.155232E+04 -5.334373E+02 -6.080748E+03
        69   1 -3.532929E+05 -7.416093E+04 -7.317006E+04 -3.019662E+04  1.093227E+03  5.132100E+03
        69   2 -3.090316E+05 -6.327110E+04 -6.280297E+04  8.230843E+03  1.064062E+03  3.530149E+03
        69   3 -2.648838E+05 -5.212423E+04 -5.239162E+04 -3.021123E+04  1.033363E+03  1.940214E+03
        69   4 -5.577022E+04  9.507014E+01  5.068118E+02 -3.076226E+04  7.462564E+02  5.132869E+03
        69   5 -5.571788E+04 -2.638606E+01  4.260141E+01  7.671544E+03  7.196525E+02  3.531086E+03
        69   6 -5.578057E+04  1.091537E+02 -3.788297E+02 -3.076223E+04  6.915161E+02  1.941326E+03
        69   7  2.418329E+05  7.434445E+04  7.417709E+04 -3.132812E+04  3.991196E+02  5.133638E+03
        69   8  1.976541E+05  6.321352E+04  6.288338E+04  7.112059E+03  3.751022E+02  3.532025E+03
        69   9  1.533623E+05  5.233925E+04  5.163068E+04 -3.131338E+04  3.495538E+02  1.942438E+03
        69  10 -3.532929E+05 -7.416096E+04 -7.317011E+04 -3.019663E+04 -7.033696E-10  1.690131E-09
        69  11 -3.090316E+05 -6.327112E+04 -6.280300E+04  8.230840E+03 -2.270993E-09  1.457250E-09
        69  12 -2.648838E+05 -5.212423E+04 -5.239163E+04 -3.021123E+04 -2.822416E-09 -5.451992E-10
        69  13 -5.577022E+04  9.504170E+01  5.067613E+02 -3.076227E+04 -4.279924E-09  4.778960E-09
        69  14 -5.571788E+04 -2.639959E+01  4.257701E+01  7.671542E+03  2.682132E-11  3.197885E-09
        69  15 -5.578057E+04  1.091495E+02 -3.788377E+02 -3.076223E+04 -3.420479E-09 -3.703691E-09
        69  16  2.418329E+05  7.434442E+04  7.417704E+04 -3.132813E+04 -2.475888E-09  1.560849E-09
        69  17  1.976541E+05  6.321351E+04  6.288336E+04  7.112058E+03  1.891976E-09  3.224510E-09
        69  18  1.533623E+05  5.233924E+04  5.163067E+04 -3.131338E+04  1.981021E-09  1.299896E-09
        69  19 -3.532929E+05 -7.416093E+04 -7.317006E+04 -3.019662E+04 -1.093227E+03 -5.132100E+03
        69  20 -3.090316E+05 -6.327110E+04 -6.280297E+04  8.230843E+03 -1.064062E+03 -3.530149E+03
        69  21 -2.648838E+05 -5.212423E+04 -5.239162E+04 -3.021123E+04 -1.033363E+03 -1.940214E+03
        69  22 -5.577022E+04  9.507014E+01  5.068118E+02 -3.076226E+04 -7.462564E+02 -5.132869E+03
        69  23 -5.571788E+04 -2.638606E+01  4.260141E+01  7.671544E+03 -7.196525E+02 -3.531086E+03
        69  24 -5.578057E+04  1.091537E+02 -3.788297E+02 -3.076223E+04 -6.915161E+02 -1.941326E+03
        69  25  2.418329E+05  7.434445E+04  7.417709E+04 -3.132812E+04 -3.991196E+02 -5.133638E+03
        69  26  1.976541E+05  6.321352E+04  6.288338E+04  7.112059E+03 -3.751022E+02 -3.532025E+03
        69  27  1.533623E+05  5.233925E+04  5.163068E+04 -3.131338E+04 -3.495538E+02 -1.942438E+03
        70   1 -5.529288E+04  3.961715E+02 -3.399102E+02 -3.086050E+04  1.148019E+03  9.718463E+02
        70   2 -1.056311E+04  1.135618E+04  9.895249E+03  7.610783E+03  1.743814E+03 -6.581149E+02
        70   3  3.328331E+04  2.161958E+04  1.943760E+04 -3.090372E+04  2.340531E+03 -2.108220E+03
        70   4 -5.593847E+04  2.066990E+02 -6.386635E+02 -3.078757E+04  7.769606E+02  9.731294E+02
        70   5 -5.549119E+04  1.418077E+02 -1.245505E+03  7.704115E+03  1.411540E+03 -6.570002E+02
        70   6 -5.593653E+04 -6.265047E+02 -2.572202E+03 -3.079033E+04  2.047000E+03 -2.107261E+03
        70   7 -5.658405E+04  1.722658E+01 -9.374164E+02 -3.071463E+04  4.059027E+02  9.744125E+02
        70   8 -1.004174E+05 -1.107271E+04 -1.238641E+04  7.797441E+03  1.079291E+03 -6.558856E+02
        70   9 -1.451491E+05 -2.287319E+04 -2.458259E+04 -3.067696E+04  1.753512E+03 -2.106303E+03
        70  10 -5.529288E+04  3.961701E+02 -3.399144E+02 -3.086050E+04  2.037221E-09  2.454302E-09
        70  11 -1.056311E+04  1.135618E+04  9.895243E+03  7.610784E+03  2.020464E-09 -2.603703E-09
        70  12  3.328330E+04  2.161958E+04  1.943758E+04 -3.090371E+04 -1.330094E-09  1.286302E-09
        70  13 -5.593847E+04  2.066978E+02 -6.386664E+02 -3.078757E+04 -6.483895E-09 -2.423048E-09
        70  14 -5.549119E+04  1.418067E+02 -1.245509E+03  7.704115E+03  4.264173E-09 -7.712789E-09
        70  15 -5.593654E+04 -6.265105E+02 -2.572218E+03 -3.079033E+04  3.350864E-09  2.762698E-09
        70  16 -5.658405E+04  1.722552E+01 -9.374184E+02 -3.071464E+04 -3.082612E-09  3.690775E-09
        70  17 -1.004174E+05 -1.107271E+04 -1.238641E+04  7.797441E+03  6.965805E-10 -6.267442E-09
        70  18 -1.451491E+05 -2.287319E+04 -2.458260E+04 -3.067696E+04 -1.459138E-09 -4.807940E-10
        70  19 -5.529288E+04  3.961715E+02 -3.399102E+02 -3.086050E+04 -1.148019E+03 -9.718463E+02
        70  20 -1.056311E+04  1.135618E+04  9.895249E+03  7.610783E+03 -1.743814E+03  6.581149E+02
        70  21  3.328331E+04  2.161958E+04  1.943760E+04 -3.090372E+04 -2.340531E+03  2.108220E+03
        70  22 -5.593847E+04  2.066990E+02 -6.386635E+02 -3.078757E+04 -7.769606E+02 -9.731294E+02
        70  23 -5.549119E+04  1.418077E+02 -1.245505E+03  7.704115E+03 -1.411540E+03  6.570002E+02
        70  24 -5.593653E+04 -6.265047E+02 -2.572202E+03 -3.079033E+04 -2.047000E+03  2.107261E+03
        70  25 -5.658405E+04  1.722658E+01 -9.374164E+02 -3.071463E+04 -4.059027E+02 -9.744125E+02
        70  26 -1.004174E+05 -1.107271E+04 -1.238641E+04  7.797441E+03 -1.079291E+03  6.558856E+02
        70  27 -1.451491E+05 -2.287319E+04 -2.458259E+04 -3.067696E+04 -1.753512E+03  2.106303E+03
        71   1  2.426868E+05  7.504517E+04  7.105913E+04 -3.185678E+04  3.072292E+03 -3.243158E+03
        71   2  2.878293E+05  8.674128E+04  7.971684E+04  7.144859E+03  5.570219E+03 -4.981538E+03
        71   3  3.310736E+05  9.131437E+04  8.500664E+04 -3.061943E+04  8.073351E+03 -5.434684E+03
        71   4 -5.619894E+04  4.174649E+02 -3.200066E+03 -3.073539E+04  2.558596E+03 -3.241624E+03
        71   5 -5.521718E+04  1.130876E+03 -5.334218E+03  7.642389E+03  5.332870E+03 -4.981081E+03
        71   6 -5.618501E+04 -5.329045E+03 -1.102960E+04 -3.074846E+04  8.112172E+03 -5.434993E+03
        71   7 -3.550036E+05 -7.421694E+04 -7.746594E+04 -2.961448E+04  2.045147E+03 -3.240091E+03
        71   8 -3.981568E+05 -8.448835E+04 -9.039406E+04  8.139714E+03  5.095652E+03 -4.980624E+03
        71   9 -4.433075E+05 -1.019837E+05 -1.070770E+05 -3.087732E+04  8.150968E+03 -5.435303E+03
        71  10  2.426868E+05  7.504515E+04  7.105909E+04 -3.185677E+04  9.349187E-10 -1.215835E-09
        71  11  2.878293E+05  8.674125E+04  7.971674E+04  7.144882E+03  6.143203E-09  1.524730E-09
        71  12  3.310735E+05  9.131433E+04  8.500647E+04 -3.061940E+04 -2.110100E-09 -5.460434E-10
        71  13 -5.619895E+04  4.174518E+02 -3.200098E+03 -3.073538E+04 -2.144866E-09  2.912881E-09
        71  14 -5.521721E+04  1.130841E+03 -5.334318E+03  7.642411E+03 -4.313258E-09  9.064096E-10
        71  15 -5.618508E+04 -5.329094E+03 -1.102978E+04 -3.074842E+04  6.271884E-09 -2.194519E-10
        71  16 -3.550036E+05 -7.421695E+04 -7.746597E+04 -2.961447E+04  1.370136E-10  3.764272E-09
        71  17 -3.981569E+05 -8.448838E+04 -9.039415E+04  8.139735E+03 -1.747478E-09  3.297638E-09
        71  18 -4.433076E+05 -1.019837E+05 -1.070772E+05 -3.087729E+04 -9.681477E-10 -1.984617E-09
        71  19  2.426868E+05  7.504517E+04  7.105913E+04 -3.185678E+04 -3.072292E+03  3.243158E+03
        71  20  2.878293E+05  8.674128E+04  7.971684E+04  7.144859E+03 -5.570219E+03  4.981538E+03
        71  21  3.310736E+05  9.131437E+04  8.500664E+04 -3.061943E+04 -8.073351E+03  5.434684E+03
        71  22 -5.619894E+04  4.174649E+02 -3.200066E+03 -3.073539E+04 -2.558596E+03  3.241624E+03
        71  23 -5.521718E+04  1.130876E+03 -5.334218E+03  7.642389E+03 -5.332870E+03  4.981081E+03
        71  24 -5.618501E+04 -5.329045E+03 -1.102960E+04 -3.074846E+04 -8.112172E+03  5.434993E+03
        71  25 -3.550036E+05 -7.421694E+04 -7.746594E+04 -2.961448E+04 -2.045147E+03  3.240091E+03
        71  26 -3.981568E+05 -8.448835E+04 -9.039406E+04  8.139714E+03 -5.095652E+03  4.980624E+03
        71  27 -4.433075E+05 -1.019837E+05 -1.070770E+05 -3.087732E+04 -8.150968E+03  5.435303E+03
        72   1  5.374689E+05  1.502644E+05  1.346185E+05 -3.405470E+04  1.178580E+04 -7.748981E+03
        72   2  5.872105E+05  1.675593E+05  1.377514E+05  8.451632E+03  2.106822E+04 -1.021925E+04
        72   3  6.253680E+05  1.340402E+05  1.226100E+05 -2.515145E+04  3.035650E+04 -3.617253E+03
        72   4 -5.847436E+04  1.526159E+03 -1.324023E+04 -3.058902E+04  1.026782E+04 -7.746646E+03
        72   5 -5.249148E+04  7.976386E+03 -2.068802E+04  7.465797E+03  2.150132E+04 -1.022035E+04
        72   6 -5.844873E+04 -3.675517E+04 -4.777923E+04 -3.059390E+04  3.273997E+04 -3.617826E+03
        72   7 -6.540953E+05 -1.472387E+05 -1.611255E+05 -2.712652E+04  8.751290E+03 -7.744326E+03
        72   8 -6.918220E+05 -1.516372E+05 -1.791579E+05  6.481058E+03  2.193397E+04 -1.022145E+04
        72   9 -7.418417E+05 -2.075856E+05 -2.182035E+05 -3.603034E+04  3.512080E+04 -3.618442E+03
        72  10  5.374687E+05  1.502643E+05  1.346181E+05 -3.405462E+04  1.460365E-09 -8.145680E-10
        72  11  5.872100E+05  1.675591E+05  1.377503E+05  8.451805E+03  4.682293E-09  3.424451E-10
        72  12  6.253670E+05  1.340399E+05  1.226082E+05 -2.515136E+04  2.227563E-09  2.838018E-10
        72  13 -5.847449E+04  1.526066E+03 -1.324054E+04 -3.058896E+04 -4.268882E-09  1.858774E-09
        72  14 -5.249200E+04  7.976149E+03 -2.068908E+04  7.465974E+03 -2.152823E-09 -1.318825E-11
        72  15 -5.844988E+04 -3.675547E+04 -4.778127E+04 -3.059380E+04  8.081137E-09  2.489679E-10
        72  16 -6.540954E+05 -1.472387E+05 -1.611257E+05 -2.712647E+04  5.947790E-10 -1.918291E-09
        72  17 -6.918225E+05 -1.516374E+05 -1.791590E+05  6.481239E+03 -2.576305E-09  4.710644E-10
        72  18 -7.418430E+05 -2.075859E+05 -2.182059E+05 -3.603024E+04 -4.340454E-09  2.605609E-10
        72  19  5.374689E+05  1.502644E+05  1.346185E+05 -3.405470E+04 -1.178580E+04  7.748981E+03
        72  20  5.872105E+05  1.675593E+05  1.377514E+05  8.451632E+03 -2.106822E+04  1.021925E+04
        72  21  6.253680E+05  1.340402E+05  1.226100E+05 -2.515145E+04 -3.035650E+04  3.617253E+03
        72  22 -5.847436E+04  1.526159E+03 -1.324023E+04 -3.058902E+04 -1.026782E+04  7.746646E+03
        72  23 -5.249148E+04  7.976386E+03 -2.068802E+04  7.465797E+03 -2.150132E+04  1.022035E+04
        72  24 -5.844873E+04 -3.675517E+04 -4.777923E+04 -3.059390E+04 -3.273997E+04  3.617826E+03
        72  25 -6.540953E+05 -1.472387E+05 -1.611255E+05 -2.712652E+04 -8.751290E+03  7.744326E+03
        72  26 -6.918220E+05 -1.516372E+05 -1.791579E+05  6.481058E+03 -2.193397E+04  1.022145E+04
        72  27 -7.418417E+05 -2.075856E+05 -2.182035E+05 -3.603034E+04 -3.512080E+04  3.618442E+03
        73   1  2.104938E+06  7.268469E+06  2.007442E+06 -1.707818E+06  8.875848E+04  4.237636E+05
        73   2  1.527769E+06  5.301880E+06  1.335761E+06 -1.399394E+06  2.797567E+05  1.154858E+05
        73   3  1.064974E+06  3.395687E+06  8.906399E+05 -1.633877E+06  2.542317E+05 -1.945388E+05
        73   4  9.656133E+04 -8.513813E+05  6.650863E+04 -1.583560E+06  9.471481E+04  3.153880E+04
        73   5  4.017466E+04 -8.514102E+05  4.335119E+04 -1.312420E+06  2.816352E+05  1.229651E+04
        73   6  4.900107E+04 -8.439313E+05  4.774778E+04 -1.584396E+06  2.510869E+05 -9.688263E+03
        73   7 -1.916472E+06 -8.910873E+06 -1.878505E+06 -1.460630E+06  1.005600E+05 -3.556239E+05
        73   8 -1.449832E+06 -6.969073E+06 -1.251141E+06 -1.226143E+06  2.834960E+05 -8.989282E+04
        73   9 -9.680482E+05 -5.066345E+06 -7.959131E+05 -1.535166E+06  2.479588E+05  1.739309E+05
        73  10  2.104882E+06  7.268275E+06  2.007093E+06 -1.707849E+06  2.901730E-09  1.799666E-08
        73  11  1.527681E+06  5.301844E+06  1.335589E+06 -1.399420E+06 -4.746898E-09 -1.504280E-08
        73  12  1.064895E+06  3.395630E+06  8.904484E+05 -1.633837E+06 -6.721896E-09 -1.581362E-08
        73  13  9.655143E+04 -8.513848E+05  6.648987E+04 -1.583562E+06  3.966933E-09  4.547621E-10
        73  14  4.008948E+04 -8.514317E+05  4.320189E+04 -1.312423E+06  1.160353E-08  1.189226E-09
        73  15  4.893339E+04 -8.439483E+05  4.762921E+04 -1.584394E+06  9.543697E-09 -1.711538E-08
        73  16 -1.916517E+06 -8.911013E+06 -1.878765E+06 -1.460601E+06  1.771183E-10 -1.447945E-08
        73  17 -1.449920E+06 -6.969103E+06 -1.251307E+06 -1.226122E+06  1.069856E-08 -4.604705E-10
        73  18 -9.681226E+05 -5.066394E+06 -7.960864E+05 -1.535201E+06 -7.505285E-09  4.117205E-09
        73  19  2.104938E+06  7.268469E+06  2.007442E+06 -1.707818E+06 -8.875848E+04 -4.237636E+05
        73  20  1.527769E+06  5.301880E+06  1.335761E+06 -1.399394E+06 -2.797567E+05 -1.154858E+05
        73  21  1.064974E+06  3.395687E+06  8.906399E+05 -1.633877E+06 -2.542317E+05  1.945388E+05
        73  22  9.656133E+04 -8.513813E+05  6.650863E+04 -1.583560E+06 -9.471481E+04 -3.153880E+04
        73  23  4.017466E+04 -8.514102E+05  4.335119E+04 -1.312420E+06 -2.816352E+05 -1.229651E+04
        73  24  4.900107E+04 -8.439313E+05  4.774778E+04 -1.584396E+06 -2.510869E+05  9.688263E+03
        73  25 -1.916472E+06 -8.910873E+06 -1.878505E+06 -1.460630E+06 -1.005600E+05  3.556239E+05
        73  26 -1.449832E+06 -6.969073E+06 -1.251141E+06 -1.226143E+06 -2.834960E+05  8.989282E+04
        73  27 -9.680482E+05 -5.066345E+06 -7.959131E+05 -1.535166E+06 -2.479588E+05 -1.739309E+05
        74   1  7.456878E+05  2.039788E+06  6.291140E+05 -1.629763E+06  1.728935E+05 -1.615840E+05
        74   2  2.736308E+05  1.098127E+05  2.657475E+05 -1.320489E+06  6.518938E+04 -2.072327E+05
        74   3 -1.606539E+05 -1.822355E+06 -6.406976E+04 -1.566753E+06 -4.542198E+04 -2.528976E+05
        74   4  5.325396E+04 -8.451017E+05  5.430043E+04 -1.587032E+06  1.703714E+05 -2.000430E+04
        74   5  4.612091E+04 -8.412460E+05  8.057022E+04 -1.309079E+06  6.254590E+04 -6.196650E+04
        74   6  7.630169E+04 -8.438926E+05  1.378296E+05 -1.586634E+06 -4.819664E+04 -1.040768E+05
        74   7 -6.396759E+05 -3.722007E+06 -5.208549E+05 -1.544460E+06  1.678620E+05  1.209325E+05
        74   8 -1.814317E+05 -1.791391E+06 -1.045707E+05 -1.297682E+06  5.990539E+04  8.308215E+04
        74   9  3.132093E+05  1.355286E+05  3.397608E+05 -1.606543E+06 -5.097830E+04  4.497518E+04
        74  10  7.456489E+05  2.039752E+06  6.290093E+05 -1.629740E+06 -7.222318E-09 -9.845440E-09
        74  11  2.736147E+05  1.097655E+05  2.656590E+05 -1.320478E+06  4.991431E-09 -2.191370E-08
        74  12 -1.606734E+05 -1.822425E+06 -6.419431E+04 -1.566762E+06  2.725653E-09  8.652689E-09
        74  13  5.322272E+04 -8.451099E+05  5.424520E+04 -1.587029E+06  3.491081E-09  1.846899E-10
        74  14  4.611570E+04 -8.412512E+05  8.055569E+04 -1.309075E+06 -6.747598E-09  3.616517E-10
        74  15  7.629626E+04 -8.439048E+05  1.378048E+05 -1.586638E+06  4.982295E-10 -1.814137E-08
        74  16 -6.397101E+05 -3.722030E+06 -5.209358E+05 -1.544476E+06 -6.584251E-09  1.372469E-08
        74  17 -1.814374E+05 -1.791399E+06 -1.045905E+05 -1.297686E+06 -9.615010E-09 -7.530777E-10
        74  18  3.132060E+05  1.355258E+05  3.397522E+05 -1.606541E+06  3.883224E-09 -1.972585E-08
        74  19  7.456878E+05  2.039788E+06  6.291140E+05 -1.629763E+06 -1.728935E+05  1.615840E+05
        74  20  2.736308E+05  1.098127E+05  2.657475E+05 -1.320489E+06 -6.518938E+04  2.072327E+05
        74  21 -1.606539E+05 -1.822355E+06 -6.406976E+04 -1.566753E+06  4.542198E+04  2.528976E+05
        74  22  5.325396E+04 -8.451017E+05  5.430043E+04 -1.587032E+06 -1.703714E+05  2.000430E+04
        74  23  4.612091E+04 -8.412460E+05  8.057022E+04 -1.309079E+06 -6.254590E+04  6.196650E+04
        74  24  7.630169E+04 -8.438926E+05  1.378296E+05 -1.586634E+06  4.819664E+04  1.040768E+05
        74  25 -6.396759E+05 -3.722007E+06 -5.208549E+05 -1.544460E+06 -1.678620E+05 -1.209325E+05
        74  26 -1.814317E+05 -1.791391E+06 -1.045707E+05 -1.297682E+06 -5.990539E+04 -8.308215E+04
        74  27  3.132093E+05  1.355286E+05  3.397608E+05 -1.606543E+06  5.097830E+04 -4.497518E+04
        75   1 -5.129546E+05 -3.145038E+06 -2.946614E+05 -1.614242E+06 -1.246839E+05 -3.103741E+05
        75   2 -9.244793E+05 -5.103180E+06 -5.966407E+05 -1.125645E+06 -1.790413E+05 -2.466934E+05
        75   3 -9.382907E+05 -6.982434E+06 -8.447959E+05 -1.180597E+06 -6.318710E+04 -1.807569E+05
        75   4  4.564897E+04 -8.182421E+05  1.757513E+05 -1.585638E+06 -1.280181E+05 -1.294680E+05
        75   5  1.107958E+05 -8.772258E+05  3.071937E+05 -1.309601E+06 -1.781488E+05 -2.899569E+05
        75   6  6.111681E+05 -8.230223E+05  6.478184E+05 -1.576271E+06 -5.863860E+04 -4.480322E+05
        75   7  6.039413E+05  1.513810E+06  6.460102E+05 -1.556897E+06 -1.313282E+05  5.210668E+04
        75   8  1.144997E+06  3.365693E+06  1.210009E+06 -1.494749E+06 -1.772343E+05 -3.335075E+05
        75   9  2.158367E+06  5.371752E+06  2.138022E+06 -1.975741E+06 -5.377309E+04 -7.179564E+05
        75  10 -5.129975E+05 -3.145146E+06 -2.948730E+05 -1.614273E+06  5.321752E-09  5.082311E-09
        75  11 -9.245303E+05 -5.103254E+06 -5.968166E+05 -1.125681E+06  9.866510E-09 -1.800410E-08
        75  12 -9.383039E+05 -6.982471E+06 -8.448656E+05 -1.180606E+06  1.345758E-09 -3.931522E-09
        75  13  4.562681E+04 -8.182645E+05  1.756888E+05 -1.585652E+06  6.946497E-09  3.684007E-10
        75  14  1.107390E+05 -8.773248E+05  3.069754E+05 -1.309643E+06 -1.321717E-08 -3.827227E-11
        75  15  6.111103E+05 -8.232390E+05  6.474338E+05 -1.576292E+06  1.894638E-09 -1.590295E-08
        75  16  6.039221E+05  1.513803E+06  6.459728E+05 -1.556892E+06 -1.893778E-09 -5.442027E-10
        75  17  1.144934E+06  3.365565E+06  1.209742E+06 -1.494796E+06  4.214618E-09 -2.311162E-09
        75  18  2.158226E+06  5.371202E+06  2.137055E+06 -1.975772E+06  2.302261E-09 -6.836241E-09
        75  19 -5.129546E+05 -3.145038E+06 -2.946614E+05 -1.614242E+06  1.246839E+05  3.103741E+05
        75  20 -9.244793E+05 -5.103180E+06 -5.966407E+05 -1.125645E+06  1.790413E+05  2.466934E+05
        75  21 -9.382907E+05 -6.982434E+06 -8.447959E+05 -1.180597E+06  6.318710E+04  1.807569E+05
        75  22  4.564897E+04 -8.182421E+05  1.757513E+05 -1.585638E+06  1.280181E+05  1.294680E+05
        75  23  1.107958E+05 -8.772258E+05  3.071937E+05 -1.309601E+06  1.781488E+05  2.899569E+05
        75  24  6.111681E+05 -8.230223E+05  6.478184E+05 -1.576271E+06  5.863860E+04  4.480322E+05
        75  25  6.039413E+05  1.513810E+06  6.460102E+05 -1.556897E+06  1.313282E+05 -5.210668E+04
        75  26  1.144997E+06  3.365693E+06  1.210009E+06 -1.494749E+06  1.772343E+05  3.335075E+05
        75  27  2.158367E+06  5.371752E+06  2.138022E+06 -1.975741E+06  5.377309E+04  7.179564E+05
        76   1 -7.277879E+06 -2.941010E+06 -1.753117E+06 -2.439066E+06 -3.673017E+05 -1.208079E+04
        76   2 -6.810805E+06 -2.809727E+06 -1.474874E+06 -2.241951E+06 -2.555578E+05  3.255692E+05
        76   3 -6.225828E+06 -2.711654E+06 -1.331634E+06 -2.190271E+06 -6.317434E+04  4.563813E+05
        76   4  1.169604E+05 -1.858234E+05  1.849057E+05 -4.516110E+05  7.361623E+04  1.585105E+05
        76   5  2.318901E+04 -2.669485E+05  8.132329E+04 -3.504871E+05 -6.748128E+04  3.975701E+05
        76   6  9.753091E+04 -3.311717E+05  4.513826E+04 -3.947110E+05 -1.285977E+05  4.308993E+05
        76   7  7.565484E+06  2.572493E+06  2.119099E+06  1.557229E+06  5.203715E+05  3.312115E+05
        76   8  6.904533E+06  2.279453E+06  1.634602E+06  1.560159E+06  1.228636E+05  4.704234E+05
        76   9  6.461925E+06  2.052990E+06  1.419576E+06  1.417942E+06 -1.947546E+05  4.051349E+05
        76  10 -7.278025E+06 -2.941047E+06 -1.753374E+06 -2.439070E+06 -2.076802E-09  8.427901E-12
        76  11 -6.810903E+06 -2.809858E+06 -1.475196E+06 -2.241884E+06 -7.123821E-09 -1.031716E-08
        76  12 -6.225888E+06 -2.711879E+06 -1.332033E+06 -2.190248E+06  3.368930E-09 -1.013906E-08
        76  13  1.169479E+05 -1.858519E+05  1.848483E+05 -4.516204E+05  3.252076E-09 -7.581669E-10
        76  14  2.314169E+04 -2.671195E+05  8.101766E+04 -3.504655E+05 -6.418281E-09 -2.053478E-08
        76  15  9.746333E+04 -3.313755E+05  4.475825E+04 -3.946664E+05  6.398404E-09  2.094891E-09
        76  16  7.565168E+06  2.572304E+06  2.118392E+06  1.557092E+06 -5.976653E-09  1.220484E-09
        76  17  6.904458E+06  2.279212E+06  1.634160E+06  1.560113E+06  5.240471E-09  1.325935E-08
        76  18  6.461840E+06  2.052804E+06  1.419196E+06  1.418006E+06 -1.985886E-09  6.237672E-09
        76  19 -7.277879E+06 -2.941010E+06 -1.753117E+06 -2.439066E+06  3.673017E+05  1.208079E+04
        76  20 -6.810805E+06 -2.809727E+06 -1.474874E+06 -2.241951E+06  2.555578E+05 -3.255692E+05
        76  21 -6.225828E+06 -2.711654E+06 -1.331634E+06 -2.190271E+06  6.317434E+04 -4.563813E+05
        76  22  1.169604E+05 -1.858234E+05  1.849057E+05 -4.516110E+05 -7.361623E+04 -1.585105E+05
        76  23  2.318901E+04 -2.669485E+05  8.132329E+04 -3.504871E+05  6.748128E+04 -3.975701E+05
        76  24  9.753091E+04 -3.311717E+05  4.513826E+04 -3.947110E+05  1.285977E+05 -4.308993E+05
        76  25  7.565484E+06  2.572493E+06  2.119099E+06  1.557229E+06 -5.203715E+05 -3.312115E+05
        76  26  6.904533E+06  2.279453E+06  1.634602E+06  1.560159E+06 -1.228636E+05 -4.704234E+05
        76  27  6.461925E+06  2.052990E+06  1.419576E+06  1.417942E+06  1.947546E+05 -4.051349E+05
        77   1 -5.884352E+06 -2.551887E+06 -1.266608E+06 -2.077594E+06 -1.062855E+05  4.078004E+05
        77   2 -5.445929E+06 -2.305916E+06 -1.162000E+06 -1.870158E+06 -9.282577E+04  3.900542E+05
        77   3 -4.886257E+06 -2.169244E+06 -1.058845E+06 -1.789514E+06 -7.509680E+04  3.605775E+05
        77   4  9.378631E+04 -3.239949E+05  3.463609E+04 -4.034581E+05 -1.232766E+05  4.009249E+05
        77   5  3.275171E+04 -2.711381E+05  1.743442E+04 -3.395116E+05 -1.242184E+05  3.777838E+05
        77   6  9.552491E+04 -3.246705E+05  1.021002E+04 -4.023791E+05 -1.209167E+05  3.429662E+05
        77   7  6.108469E+06  1.906954E+06  1.333759E+06  1.285644E+06 -1.404498E+05  3.939829E+05
        77   8  5.542150E+06  1.766196E+06  1.195130E+06  1.203667E+06 -1.559153E+05  3.654000E+05
        77   9  5.102674E+06  1.521987E+06  1.077838E+06  9.950684E+05 -1.671379E+05  3.252044E+05
        77  10 -5.884409E+06 -2.552069E+06 -1.266941E+06 -2.077559E+06  3.034646E-09  1.087487E-09
        77  11 -5.445979E+06 -2.306081E+06 -1.162302E+06 -1.870129E+06  1.109493E-09  5.520778E-09
        77  12 -4.886298E+06 -2.169385E+06 -1.059100E+06 -1.789492E+06 -6.340143E-10  8.650139E-10
        77  13  9.372687E+04 -3.241716E+05  3.430546E+04 -4.034184E+05 -5.056734E-09 -3.546711E-09
        77  14  3.269685E+04 -2.712955E+05  1.713723E+04 -3.394738E+05  1.003780E-09 -3.005916E-09
        77  15  9.547766E+04 -3.248007E+05  9.961518E+03 -4.023457E+05  4.746321E-09  1.597261E-09
        77  16  6.108407E+06  1.906782E+06  1.333431E+06  1.285688E+06 -2.057900E-10  6.275308E-09
        77  17  5.542088E+06  1.766046E+06  1.194834E+06  1.203712E+06 -1.566010E-09  2.659830E-09
        77  18  5.102616E+06  1.521866E+06  1.077587E+06  9.951120E+05 -2.609322E-09  1.944364E-09
        77  19 -5.884352E+06 -2.551887E+06 -1.266608E+06 -2.077594E+06  1.062855E+05 -4.078004E+05
        77  20 -5.445929E+06 -2.305916E+06 -1.162000E+06 -1.870158E+06  9.282577E+04 -3.900542E+05
        77  21 -4.886257E+06 -2.169244E+06 -1.058845E+06 -1.789514E+06  7.509680E+04 -3.605775E+05
        77  22  9.378631E+04 -3.239949E+05  3.463609E+04 -4.034581E+05  1.232766E+05 -4.009249E+05
        77  23  3.275171E+04 -2.711381E+05  1.743442E+04 -3.395116E+05  1.242184E+05 -3.777838E+05
        77  24  9.552491E+04 -3.246705E+05  1.021002E+04 -4.023791E+05  1.209167E+05 -3.429662E+05
        77  25  6.108469E+06  1.906954E+06  1.333759E+06  1.285644E+06  1.404498E+05 -3.939829E+05
        77  26  5.542150E+06  1.766196E+06  1.195130E+06  1.203667E+06  1.559153E+05 -3.654000E+05
        77  27  5.102674E+06  1.521987E+06  1.077838E+06  9.950684E+05  1.671379E+05 -3.252044E+05
        78   1 -4.530916E+06 -2.032942E+06 -9.818489E+05 -1.688411E+06 -7.095362E+04  3.374201E+05
        78   2 -4.087687E+06 -1.786140E+06 -8.783580E+05 -1.482103E+06 -5.835494E+04  3.015156E+05
        78   3 -3.526425E+06 -1.651827E+06 -7.729677E+05 -1.404018E+06 -4.566299E+04  2.648763E+05
        78   4  9.524934E+04 -3.238401E+05  7.506673E+03 -4.031937E+05 -1.141115E+05  3.208902E+05
        78   5  3.727945E+04 -2.657311E+05  3.679441E+03 -3.394866E+05 -1.024083E+05  2.847533E+05
        78   6  9.720235E+04 -3.199119E+05  2.423148E+03 -4.040554E+05 -9.061214E+04  2.478851E+05
        78   7  4.743356E+06  1.387071E+06  9.956595E+05  8.909081E+05 -1.576206E+05  3.042288E+05
        78   8  4.179664E+06  1.256093E+06  8.847593E+05  8.101596E+05 -1.467805E+05  2.678717E+05
        78   9  3.734243E+06  1.013072E+06  7.770725E+05  6.013010E+05 -1.358463E+05  2.307876E+05
        78  10 -4.530952E+06 -2.033065E+06 -9.820724E+05 -1.688392E+06 -3.321471E-09 -7.322925E-10
        78  11 -4.087715E+06 -1.786238E+06 -8.785353E+05 -1.482089E+06 -2.373009E-09  2.889449E-09
        78  12 -3.526446E+06 -1.651903E+06 -7.731035E+05 -1.404008E+06  4.358627E-09 -1.332755E-11
        78  13  9.520774E+04 -3.239542E+05  7.288715E+03 -4.031642E+05 -2.430105E-10 -1.215647E-10
        78  14  3.724643E+04 -2.658210E+05  3.507373E+03 -3.394631E+05 -2.555953E-09  3.044565E-10
        78  15  9.717705E+04 -3.199801E+05  2.292259E+03 -4.040374E+05  1.068858E-08  7.052143E-10
        78  16  4.743304E+06  1.386965E+06  9.954389E+05  8.909466E+05 -9.479222E-10  3.108111E-09
        78  17  4.179622E+06  1.256010E+06  8.845840E+05  8.101912E+05  3.331649E-10 -1.257957E-09
        78  18  3.734208E+06  1.013010E+06  7.769377E+05  6.013262E+05 -4.376583E-09 -4.950222E-10
        78  19 -4.530916E+06 -2.032942E+06 -9.818489E+05 -1.688411E+06  7.095362E+04 -3.374201E+05
        78  20 -4.087687E+06 -1.786140E+06 -8.783580E+05 -1.482103E+06  5.835494E+04 -3.015156E+05
        78  21 -3.526425E+06 -1.651827E+06 -7.729677E+05 -1.404018E+06  4.566299E+04 -2.648763E+05
        78  22  9.524934E+04 -3.238401E+05  7.506673E+03 -4.031937E+05  1.141115E+05 -3.208902E+05
        78  23  3.727945E+04 -2.657311E+05  3.679441E+03 -3.394866E+05  1.024083E+05 -2.847533E+05
        78  24  9.720235E+04 -3.199119E+05  2.423148E+03 -4.040554E+05  9.061214E+04 -2.478851E+05
        78  25  4.743356E+06  1.387071E+06  9.956595E+05  8.909081E+05  1.576206E+05 -3.042288E+05
        78  26  4.179664E+06  1.256093E+06  8.847593E+05  8.101596E+05  1.467805E+05 -2.678717E+05
        78  27  3.734243E+06  1.013072E+06  7.770725E+05  6.013010E+05  1.358463E+05 -2.307876E+05
        79   1 -3.168099E+06 -1.517862E+06 -6.936842E+05 -1.304527E+06 -3.810549E+04  2.434087E+05
        79   2 -2.720274E+06 -1.273489E+06 -5.880148E+05 -1.099398E+06 -2.466275E+04  2.068024E+05
        79   3 -2.157122E+06 -1.141866E+06 -4.816174E+05 -1.023848E+06 -1.131010E+04  1.701059E+05
        79   4  9.719181E+04 -3.194591E+05  1.701924E+03 -4.043298E+05 -8.295334E+04  2.265098E+05
        79   5  4.031770E+04 -2.617204E+05  7.711461E+02 -3.398181E+05 -6.961668E+04  1.899354E+05
        79   6  9.849651E+04 -3.167068E+05  6.311782E+02 -4.049571E+05 -5.637005E+04  1.532717E+05
        79   7  3.373355E+06  8.798029E+05  6.964876E+05  5.002358E+05 -1.280567E+05  2.095156E+05
        79   8  2.808690E+06  7.506622E+05  5.891333E+05  4.228782E+05 -1.147871E+05  1.729877E+05
        79   9  2.359319E+06  5.088628E+05  4.826024E+05  2.160109E+05 -1.016074E+05  1.363715E+05
        79  10 -3.168117E+06 -1.517926E+06 -6.937984E+05 -1.304520E+06  6.705781E-09 -1.997769E-09
        79  11 -2.720287E+06 -1.273535E+06 -5.880964E+05 -1.099394E+06  2.149831E-09 -2.152954E-09
        79  12 -2.157130E+06 -1.141897E+06 -4.816720E+05 -1.023847E+06  2.561135E-09 -2.650644E-09
        79  13  9.717066E+04 -3.195161E+05  1.592587E+03 -4.043147E+05  2.080396E-09 -4.092672E-10
        79  14  4.030282E+04 -2.617604E+05  6.942528E+02 -3.398075E+05  1.232374E-09 -1.215556E-09
        79  15  9.848680E+04 -3.167328E+05  5.810651E+02 -4.049501E+05  8.403923E-10 -7.099569E-10
        79  16  3.373326E+06  8.797514E+05  6.963744E+05  5.002573E+05  1.994076E-10  1.006413E-09
        79  17  2.808668E+06  7.506265E+05  5.890524E+05  4.228942E+05 -5.182111E-09 -9.250451E-10
        79  18  2.359303E+06  5.088401E+05  4.825481E+05  2.160221E+05 -5.239311E-09 -3.283277E-09
        79  19 -3.168099E+06 -1.517862E+06 -6.936842E+05 -1.304527E+06  3.810549E+04 -2.434087E+05
        79  20 -2.720274E+06 -1.273489E+06 -5.880148E+05 -1.099398E+06  2.466275E+04 -2.068024E+05
        79  21 -2.157122E+06 -1.141866E+06 -4.816174E+05 -1.023848E+06  1.131010E+04 -1.701059E+05
        79  22  9.719181E+04 -3.194591E+05  1.701924E+03 -4.043298E+05  8.295334E+04 -2.265098E+05
        79  23  4.031770E+04 -2.617204E+05  7.711461E+02 -3.398181E+05  6.961668E+04 -1.899354E+05
        79  24  9.849651E+04 -3.167068E+05  6.311782E+02 -4.049571E+05  5.637005E+04 -1.532717E+05
        79  25  3.373355E+06  8.798029E+05  6.964876E+05  5.002358E+05  1.280567E+05 -2.095156E+05
        79  26  2.808690E+06  7.506622E+05  5.891333E+05  4.228782E+05  1.147871E+05 -1.729877E+05
        79  27  2.359319E+06  5.088628E+05  4.826024E+05  2.160109E+05  1.016074E+05 -1.363715E+05
        80   1 -1.796904E+06 -1.008929E+06 -4.017814E+05 -9.250993E+05 -3.436404E+03  1.487762E+05
        80   2 -1.346179E+06 -7.663217E+05 -2.954367E+05 -7.205341E+05  1.015191E+04  1.121756E+05
        80   3 -7.817392E+05 -6.365509E+05 -1.889329E+05 -6.463514E+05  2.368264E+04  7.556143E+04
        80   4  9.850833E+04 -3.164368E+05  3.974154E+02 -4.051055E+05 -4.852825E+04  1.319628E+05
        80   5  4.212121E+04 -2.593253E+05  1.447756E+02 -3.400277E+05 -3.496223E+04  9.538963E+04
        80   6  9.916886E+04 -3.150545E+05  5.854669E+01 -4.054170E+05 -2.145401E+04  5.880380E+04
        80   7  1.997589E+06  3.763432E+05  4.023832E+05  1.163519E+05 -9.376877E+04  1.150940E+05
        80   8  1.432383E+06  2.478229E+05  2.956245E+05  4.126126E+04 -8.018508E+04  7.856322E+04
        80   9  9.808632E+05  6.501368E+03  1.890122E+05 -1.641690E+05 -6.665942E+04  4.202062E+04
        80  10 -1.796910E+06 -1.008953E+06 -4.018230E+05 -9.250989E+05 -2.730951E-09 -2.810045E-09
        80  11 -1.346182E+06 -7.663352E+05 -2.954606E+05 -7.205350E+05 -1.336305E-08 -2.442754E-10
        80  12 -7.817413E+05 -6.365572E+05 -1.889447E+05 -6.463529E+05 -1.061868E-08 -9.304499E-10
        80  13  9.850113E+04 -3.164562E+05  3.602687E+02 -4.051003E+05  8.528935E-10 -3.610369E-10
        80  14  4.211746E+04 -2.593354E+05  1.253812E+02 -3.400250E+05 -5.347748E-09 -1.051034E-09
        80  15  9.916744E+04 -3.150584E+05  5.118436E+01 -4.054159E+05 -2.023181E-09  3.152206E-09
        80  16  1.997576E+06  3.763267E+05  4.023419E+05  1.163606E+05 -5.211288E-09 -4.303529E-10
        80  17  1.432375E+06  2.478145E+05  2.956008E+05  4.126633E+04 -3.586255E-09  3.239985E-09
        80  18  9.808580E+05  6.498283E+03  1.890005E+05 -1.641668E+05  2.873653E-09  7.333922E-10
        80  19 -1.796904E+06 -1.008929E+06 -4.017814E+05 -9.250993E+05  3.436404E+03 -1.487762E+05
        80  20 -1.346179E+06 -7.663217E+05 -2.954367E+05 -7.205341E+05 -1.015191E+04 -1.121756E+05
        80  21 -7.817392E+05 -6.365509E+05 -1.889329E+05 -6.463514E+05 -2.368264E+04 -7.556143E+04
        80  22  9.850833E+04 -3.164368E+05  3.974154E+02 -4.051055E+05  4.852825E+04 -1.319628E+05
        80  23  4.212121E+04 -2.593253E+05  1.447756E+02 -3.400277E+05  3.496223E+04 -9.538963E+04
        80  24  9.916886E+04 -3.150545E+05  5.854669E+01 -4.054170E+05  2.145401E+04 -5.880380E+04
        80  25  1.997589E+06  3.763432E+05  4.023832E+05  1.163519E+05  9.376877E+04 -1.150940E+05
        80  26  1.432383E+06  2.478229E+05  2.956245E+05  4.126126E+04  8.018508E+04 -7.856322E+04
        80  27  9.808632E+05  6.501368E+03  1.890122E+05 -1.641690E+05  6.665942E+04 -4.202062E+04
        81   1 -4.203261E+05 -5.041690E+05 -1.089816E+05 -5.478173E+05  3.167300E+04  5.427471E+04
        81   2  3.163809E+04 -2.625669E+05 -2.582086E+03 -3.431799E+05  4.504861E+04  1.774558E+04
        81   3  5.967877E+05 -1.337722E+05  1.039346E+05 -2.691750E+05  5.831334E+04 -1.848854E+04
        81   4  9.915774E+04 -3.149632E+05 -7.338232E+01 -4.054709E+05 -1.355449E+04  3.749440E+04
        81   5  4.274158E+04 -2.585106E+05 -3.510146E+02 -3.400993E+05  1.668489E+02  1.093258E+03
        81   6  9.916379E+04 -3.149631E+05 -7.902412E+02 -4.054685E+05  1.377718E+04 -3.501196E+04
        81   7  6.189254E+05 -1.257327E+05  1.088299E+05 -2.630127E+05 -5.882304E+04  2.069880E+04
        81   8  5.384972E+04 -2.544527E+05  1.888679E+03 -3.370174E+05 -4.471594E+04 -1.555946E+04
        81   9 -3.982037E+05 -4.961327E+05 -1.055203E+05 -5.416604E+05 -3.072061E+04 -5.152112E+04
        81  10 -4.203280E+05 -5.041724E+05 -1.089890E+05 -5.478187E+05 -3.040343E-09  1.267153E-09
        81  11  3.163582E+04 -2.625678E+05 -2.586493E+03 -3.431806E+05 -1.462297E-08 -1.392634E-09
        81  12  5.967840E+05 -1.337735E+05  1.039276E+05 -2.691742E+05 -1.560546E-08 -7.289231E-09
        81  13  9.915717E+04 -3.149647E+05 -7.636915E+01 -4.054705E+05  1.941214E-09 -1.120923E-10
        81  14  4.274158E+04 -2.585106E+05 -3.510169E+02 -3.400993E+05  2.970264E-09 -5.106102E-09
        81  15  9.916326E+04 -3.149644E+05 -7.929012E+02 -4.054681E+05  2.074113E-09 -1.594659E-08
        81  16  6.189216E+05 -1.257341E+05  1.088227E+05 -2.630117E+05  6.466808E-09  2.606826E-09
        81  17  5.384751E+04 -2.544535E+05  1.884465E+03 -3.370180E+05  1.503882E-08  1.597653E-09
        81  18 -3.982054E+05 -4.961358E+05 -1.055271E+05 -5.416617E+05  2.036195E-08  1.303305E-08
        81  19 -4.203261E+05 -5.041690E+05 -1.089816E+05 -5.478173E+05 -3.167300E+04 -5.427471E+04
        81  20  3.163809E+04 -2.625669E+05 -2.582086E+03 -3.431799E+05 -4.504861E+04 -1.774558E+04
        81  21  5.967877E+05 -1.337722E+05  1.039346E+05 -2.691750E+05 -5.831334E+04  1.848854E+04
        81  22  9.915774E+04 -3.149632E+05 -7.338232E+01 -4.054709E+05  1.355449E+04 -3.749440E+04
        81  23  4.274158E+04 -2.585106E+05 -3.510146E+02 -3.400993E+05 -1.668489E+02 -1.093258E+03
        81  24  9.916379E+04 -3.149631E+05 -7.902412E+02 -4.054685E+05 -1.377718E+04  3.501196E+04
        81  25  6.189254E+05 -1.257327E+05  1.088299E+05 -2.630127E+05  5.882304E+04 -2.069880E+04
        81  26  5.384972E+04 -2.544527E+05  1.888679E+03 -3.370174E+05  4.471594E+04  1.555946E+04
        81  27 -3.982037E+05 -4.961327E+05 -1.055203E+05 -5.416604E+05  3.072061E+04  5.152112E+04
        82   1  9.588442E+05 -1.485168E+03  1.835966E+05 -1.703453E+05  6.767845E+04 -3.943088E+04
        82   2  1.410053E+06  2.399638E+05  2.908351E+05  3.486691E+04  7.504715E+04 -7.579288E+04
        82   3  1.975598E+06  3.695387E+05  4.023356E+05  1.100603E+05  8.049432E+04 -1.068652E+05
        82   4  9.905425E+04 -3.149729E+05 -1.078275E+03 -4.054034E+05  2.188467E+04 -5.643148E+04
        82   5  4.228960E+04 -2.593589E+05 -2.206878E+03 -3.400640E+05  3.577704E+04 -9.040510E+04
        82   6  9.832620E+04 -3.169464E+05 -4.221655E+03 -4.048664E+05  4.775002E+04 -1.190804E+05
        82   7 -7.599757E+05 -6.283996E+05 -1.857852E+05 -6.401602E+05 -2.384053E+04 -7.340663E+04
        82   8 -1.323573E+06 -7.585345E+05 -2.953499E+05 -7.142371E+05 -3.400004E+03 -1.049827E+05
        82   9 -1.775394E+06 -1.003163E+06 -4.109858E+05 -9.183711E+05  1.511205E+04 -1.312560E+05
        82  10  9.588389E+05 -1.488064E+03  1.835851E+05 -1.703432E+05  1.584737E-08  1.182885E-08
        82  11  1.410045E+06  2.399562E+05  2.908138E+05  3.487149E+04  1.968592E-08  9.950622E-09
        82  12  1.975588E+06  3.695247E+05  4.023020E+05  1.100673E+05  2.345359E-08  6.699658E-09
        82  13  9.905288E+04 -3.149764E+05 -1.085158E+03 -4.054024E+05  1.562413E-08 -9.074332E-09
        82  14  4.228603E+04 -2.593680E+05 -2.224640E+03 -3.400614E+05 -2.777969E-10 -6.039174E-09
        82  15  9.831995E+04 -3.169622E+05 -4.252582E+03 -4.048618E+05 -2.300783E-10  1.779105E-11
        82  16 -7.599778E+05 -6.284055E+05 -1.857964E+05 -6.401617E+05 -4.445885E-09  6.599215E-09
        82  17 -1.323576E+06 -7.585464E+05 -2.953706E+05 -7.142374E+05 -1.120457E-08 -2.077535E-09
        82  18 -1.775399E+06 -1.003181E+06 -4.110186E+05 -9.183695E+05 -2.201702E-08 -4.019854E-09
        82  19  9.588442E+05 -1.485168E+03  1.835966E+05 -1.703453E+05 -6.767845E+04  3.943088E+04
        82  20  1.410053E+06  2.399638E+05  2.908351E+05  3.486691E+04 -7.504715E+04  7.579288E+04
        82  21  1.975598E+06  3.695387E+05  4.023356E+05  1.100603E+05 -8.049432E+04  1.068652E+05
        82  22  9.905425E+04 -3.149729E+05 -1.078275E+03 -4.054034E+05 -2.188467E+04  5.643148E+04
        82  23  4.228960E+04 -2.593589E+05 -2.206878E+03 -3.400640E+05 -3.577704E+04  9.040510E+04
        82  24  9.832620E+04 -3.169464E+05 -4.221655E+03 -4.048664E+05 -4.775002E+04  1.190804E+05
        82  25 -7.599757E+05 -6.283996E+05 -1.857852E+05 -6.401602E+05  2.384053E+04  7.340663E+04
        82  26 -1.323573E+06 -7.585345E+05 -2.953499E+05 -7.142371E+05  3.400004E+03  1.049827E+05
        82  27 -1.775394E+06 -1.003163E+06 -4.109858E+05 -9.183711E+05 -1.511205E+04  1.312560E+05
        83   1  2.340703E+06  5.030389E+05  4.792364E+05  2.093987E+05  1.124444E+05 -1.227045E+05
        83   2  2.781286E+06  7.477438E+05  6.137408E+05  4.148460E+05  9.375413E+02 -1.614086E+05
        83   3  3.350423E+06  8.939882E+05  8.327831E+05  4.984382E+05 -1.457587E+05 -1.065403E+05
        83   4  9.681711E+04 -3.155213E+05 -5.409764E+03 -4.044111E+05  5.743288E+04 -1.432380E+05
        83   5  4.234905E+04 -2.641173E+05 -1.044935E+04 -3.401385E+05  6.216295E+04 -1.386186E+05
        83   6  9.328122E+04 -3.341768E+05 -2.275262E+04 -3.978527E+05  3.173101E+04 -4.017863E+04
        83   7 -2.141981E+06 -1.133698E+06 -4.903408E+05 -1.016194E+06  2.635063E+03 -1.636924E+05
        83   8 -2.689051E+06 -1.275397E+06 -6.351088E+05 -1.092074E+06  1.230962E+05 -1.159390E+05
        83   9 -3.153480E+06 -1.561603E+06 -8.790342E+05 -1.289864E+06  2.081990E+05  2.579363E+04
        83  10  2.340685E+06  5.030193E+05  4.791844E+05  2.094098E+05  2.702677E-08  1.006649E-08
        83  11  2.781279E+06  7.477159E+05  6.136918E+05  4.148461E+05  7.412418E-09  4.288550E-09
        83  12  3.350398E+06  8.939704E+05  8.327222E+05  4.984257E+05 -1.588396E-08 -4.348681E-09
        83  13  9.680806E+04 -3.155442E+05 -5.454512E+03 -4.044045E+05  1.852426E-09  3.721437E-09
        83  14  4.233975E+04 -2.641390E+05 -1.049271E+04 -3.401316E+05  1.720393E-08  5.601056E-09
        83  15  9.327970E+04 -3.341788E+05 -2.275754E+04 -3.978516E+05  5.204885E-09  1.599186E-09
        83  16 -2.141988E+06 -1.133727E+06 -4.903912E+05 -1.016194E+06 -2.815425E-08 -6.058391E-09
        83  17 -2.689071E+06 -1.275416E+06 -6.351625E+05 -1.092063E+06 -3.121211E-09  2.607203E-09
        83  18 -3.153527E+06 -1.561616E+06 -8.791173E+05 -1.289868E+06  1.675764E-08  6.874638E-09
        83  19  2.340703E+06  5.030389E+05  4.792364E+05  2.093987E+05 -1.124444E+05  1.227045E+05
        83  20  2.781286E+06  7.477438E+05  6.137408E+05  4.148460E+05 -9.375413E+02  1.614086E+05
        83  21  3.350423E+06  8.939882E+05  8.327831E+05  4.984382E+05  1.457587E+05  1.065403E+05
        83  22  9.681711E+04 -3.155213E+05 -5.409764E+03 -4.044111E+05 -5.743288E+04  1.432380E+05
        83  23  4.234905E+04 -2.641173E+05 -1.044935E+04 -3.401385E+05 -6.216295E+04  1.386186E+05
        83  24  9.328122E+04 -3.341768E+05 -2.275262E+04 -3.978527E+05 -3.173101E+04  4.017863E+04
        83  25 -2.141981E+06 -1.133698E+06 -4.903408E+05 -1.016194E+06 -2.635063E+03  1.636924E+05
        83  26 -2.689051E+06 -1.275397E+06 -6.351088E+05 -1.092074E+06 -1.230962E+05  1.159390E+05
        83  27 -3.153480E+06 -1.561603E+06 -8.790342E+05 -1.289864E+06 -2.081990E+05 -2.579363E+04
        84   1 -1.952609E+05 -1.009597E+05 -8.989049E+04 -6.959653E+04 -2.147148E+04  6.894976E+03
        84   2 -1.246784E+05 -1.043632E+05 -6.829792E+04 -7.783206E+04 -4.628434E+03  2.300729E+04
        84   3 -5.324586E+04 -9.569955E+04 -5.465427E+04 -9.650448E+04  1.222112E+04  2.734639E+04
        84   4  3.848093E+05  4.187576E+04  4.433082E+04 -9.811176E+04  3.132383E+04  6.902191E+03
        84   5  3.819523E+05  1.508400E+04  2.239187E+04 -9.289293E+04  1.991661E+04  2.300737E+04
        84   6  3.848399E+05  5.256793E+03  1.211815E+04 -9.810956E+04  8.513693E+03  2.734451E+04
        84   7  9.651980E+05  1.846922E+05  1.785406E+05 -1.266538E+05  8.416811E+04  6.904557E+03
        84   8  8.888350E+05  1.345182E+05  1.130742E+05 -1.079664E+05  4.448110E+04  2.300627E+04
        84   9  8.231178E+05  1.062039E+05  7.888654E+04 -9.971579E+04  4.803751E+03  2.734264E+04
        84  10 -1.952614E+05 -1.009599E+05 -8.989145E+04 -6.959641E+04 -6.191499E-08 -1.108041E-09
        84  11 -1.246786E+05 -1.043638E+05 -6.829895E+04 -7.783197E+04  9.767863E-10 -3.839317E-09
        84  12 -5.324622E+04 -9.570040E+04 -5.465595E+04 -9.650475E+04  7.143005E-08 -4.761778E-09
        84  13  3.848082E+05  4.187544E+04  4.432889E+04 -9.811194E+04 -4.198951E-09 -6.401837E-10
        84  14  3.819517E+05  1.508333E+04  2.239013E+04 -9.289330E+04  6.623758E-09 -2.919933E-09
        84  15  3.848396E+05  5.255970E+03  1.211661E+04 -9.810974E+04  7.655409E-09 -4.004383E-09
        84  16  9.651904E+05  1.846902E+05  1.785272E+05 -1.266543E+05  6.344947E-08 -3.273953E-10
        84  17  8.888327E+05  1.345171E+05  1.130695E+05 -1.079673E+05 -3.607837E-09 -1.934343E-09
        84  18  8.231176E+05  1.062031E+05  7.888509E+04 -9.971590E+04 -7.083544E-08 -3.051139E-09
        84  19 -1.952609E+05 -1.009597E+05 -8.989049E+04 -6.959653E+04  2.147148E+04 -6.894976E+03
        84  20 -1.246784E+05 -1.043632E+05 -6.829792E+04 -7.783206E+04  4.628434E+03 -2.300729E+04
        84  21 -5.324586E+04 -9.569955E+04 -5.465427E+04 -9.650448E+04 -1.222112E+04 -2.734639E+04
        84  22  3.848093E+05  4.187576E+04  4.433082E+04 -9.811176E+04 -3.132383E+04 -6.902191E+03
        84  23  3.819523E+05  1.508400E+04  2.239187E+04 -9.289293E+04 -1.991661E+04 -2.300737E+04
        84  24  3.848399E+05  5.256793E+03  1.211815E+04 -9.810956E+04 -8.513693E+03 -2.734451E+04
        84  25  9.651980E+05  1.846922E+05  1.785406E+05 -1.266538E+05 -8.416811E+04 -6.904557E+03
        84  26  8.888350E+05  1.345182E+05  1.130742E+05 -1.079664E+05 -4.448110E+04 -2.300627E+04
        84  27  8.231178E+05  1.062039E+05  7.888654E+04 -9.971579E+04 -4.803751E+03 -2.734264E+04
        85   1 -9.786096E+03 -8.644799E+04 -4.885224E+04 -9.604625E+04  1.158167E+04  2.590159E+04
        85   2  6.106397E+04 -7.207432E+04 -3.947918E+04 -9.154421E+04  1.296025E+04  2.316897E+04
        85   3  1.320121E+05 -5.664865E+04 -3.073793E+04 -9.834976E+04  1.433853E+04  1.884522E+04
        85   4  3.837377E+05  3.818774E+03  9.036188E+03 -9.830397E+04  6.936278E+03  2.590010E+04
        85   5  3.833682E+05  1.241512E+03  4.873501E+03 -9.265056E+04  4.494660E+03  2.316833E+04
        85   6  3.837542E+05  3.790226E+02  2.730550E+03 -9.830422E+04  2.052586E+03  1.884588E+04
        85   7  7.774175E+05  9.407836E+04  6.692196E+04 -1.005632E+05  2.288067E+03  2.589864E+04
        85   8  7.057781E+05  7.455283E+04  4.922529E+04 -9.375751E+04 -3.975131E+03  2.316773E+04
        85   9  6.355614E+05  5.740407E+04  3.619910E+04 -9.825866E+04 -1.023810E+04  1.884655E+04
        85  10 -9.786420E+03 -8.644875E+04 -4.885375E+04 -9.604649E+04  6.255897E-08 -2.796981E-09
        85  11  6.106365E+04 -7.207494E+04 -3.948051E+04 -9.154445E+04 -2.302872E-11  1.441383E-09
        85  12  1.320118E+05 -5.664908E+04 -3.073898E+04 -9.834998E+04 -6.629834E-08  3.000270E-09
        85  13  3.837375E+05  3.818040E+03  9.034837E+03 -9.830411E+04 -4.164693E-09 -2.525426E-09
        85  14  3.833680E+05  1.240930E+03  4.872454E+03 -9.265065E+04 -4.088351E-09  8.835366E-10
        85  15  3.837541E+05  3.786400E+02  2.729874E+03 -9.830425E+04 -4.175830E-09  2.531172E-09
        85  16  7.774173E+05  9.407764E+04  6.692069E+04 -1.005632E+05 -6.794810E-08 -2.353521E-09
        85  17  7.057779E+05  7.455225E+04  4.922426E+04 -9.375743E+04  1.143758E-10  3.260692E-10
        85  18  6.355611E+05  5.740367E+04  3.619823E+04 -9.825850E+04  6.205611E-08  1.937963E-09
        85  19 -9.786096E+03 -8.644799E+04 -4.885224E+04 -9.604625E+04 -1.158167E+04 -2.590159E+04
        85  20  6.106397E+04 -7.207432E+04 -3.947918E+04 -9.154421E+04 -1.296025E+04 -2.316897E+04
        85  21  1.320121E+05 -5.664865E+04 -3.073793E+04 -9.834976E+04 -1.433853E+04 -1.884522E+04
        85  22  3.837377E+05  3.818774E+03  9.036188E+03 -9.830397E+04 -6.936278E+03 -2.590010E+04
        85  23  3.833682E+05  1.241512E+03  4.873501E+03 -9.265056E+04 -4.494660E+03 -2.316833E+04
        85  24  3.837542E+05  3.790226E+02  2.730550E+03 -9.830422E+04 -2.052586E+03 -1.884588E+04
        85  25  7.774175E+05  9.407836E+04  6.692196E+04 -1.005632E+05 -2.288067E+03 -2.589864E+04
        85  26  7.057781E+05  7.455283E+04  4.922529E+04 -9.375751E+04  3.975131E+03 -2.316773E+04
        85  27  6.355614E+05  5.740407E+04  3.619910E+04 -9.825866E+04  1.023810E+04 -1.884655E+04
        86   1  1.756946E+05 -4.675866E+04 -2.522807E+04 -9.826548E+04  1.406308E+04  1.579265E+04
        86   2  2.465540E+05 -3.089393E+04 -1.665656E+04 -9.261501E+04  1.400652E+04  1.051478E+04
        86   3  3.174461E+05 -1.495443E+04 -8.028883E+03 -9.838695E+04  1.394959E+04  5.022747E+03
        86   4  3.836163E+05  2.695505E+02  2.056457E+03 -9.832985E+04  1.650759E+03  1.579379E+04
        86   5  3.835607E+05  5.893422E+01  1.149839E+03 -9.261875E+04  1.079285E+03  1.051647E+04
        86   6  3.836231E+05  1.279506E+01  6.566043E+02 -9.832990E+04  5.074524E+02  5.024997E+03
        86   7  5.915825E+05  4.729602E+04  2.934127E+04 -9.839424E+04 -1.076552E+04  1.579493E+04
        86   8  5.205871E+05  3.101111E+04  1.895676E+04 -9.262249E+04 -1.185067E+04  1.051815E+04
        86   9  4.498050E+05  1.497993E+04  9.342741E+03 -9.827286E+04 -1.293605E+04  5.027245E+03
        86  10  1.756943E+05 -4.675898E+04 -2.522891E+04 -9.826566E+04  8.283134E-08  2.808061E-09
        86  11  2.465537E+05 -3.089410E+04 -1.665714E+04 -9.261513E+04  1.631772E-08  9.904663E-10
        86  12  3.174459E+05 -1.495450E+04 -8.029296E+03 -9.838700E+04 -5.542749E-08 -3.054438E-09
        86  13  3.836162E+05  2.692819E+02  2.055983E+03 -9.832987E+04 -1.513165E-10  4.685290E-09
        86  14  3.835607E+05  5.881512E+01  1.149629E+03 -9.261876E+04  2.694623E-13  1.027588E-08
        86  15  3.836231E+05  1.276787E+01  6.565564E+02 -9.832991E+04 -9.483896E-12  1.426038E-08
        86  16  5.915823E+05  4.729573E+04  2.934059E+04 -9.839410E+04 -8.525735E-08  1.994422E-09
        86  17  5.205869E+05  3.101095E+04  1.895629E+04 -9.262239E+04 -1.461361E-08  7.447524E-11
        86  18  4.498048E+05  1.497986E+04  9.342379E+03 -9.827280E+04  5.028945E-08 -3.768422E-09
        86  19  1.756946E+05 -4.675866E+04 -2.522807E+04 -9.826548E+04 -1.406308E+04 -1.579265E+04
        86  20  2.465540E+05 -3.089393E+04 -1.665656E+04 -9.261501E+04 -1.400652E+04 -1.051478E+04
        86  21  3.174461E+05 -1.495443E+04 -8.028883E+03 -9.838695E+04 -1.394959E+04 -5.022747E+03
        86  22  3.836163E+05  2.695505E+02  2.056457E+03 -9.832985E+04 -1.650759E+03 -1.579379E+04
        86  23  3.835607E+05  5.893422E+01  1.149839E+03 -9.261875E+04 -1.079285E+03 -1.051647E+04
        86  24  3.836231E+05  1.279506E+01  6.566043E+02 -9.832990E+04 -5.074524E+02 -5.024997E+03
        86  25  5.915825E+05  4.729602E+04  2.934127E+04 -9.839424E+04  1.076552E+04 -1.579493E+04
        86  26  5.205871E+05  3.101111E+04  1.895676E+04 -9.262249E+04  1.185067E+04 -1.051815E+04
        86  27  4.498050E+05  1.497993E+04  9.342741E+03 -9.827286E+04  1.293605E+04 -5.027245E+03
        87   1  3.611495E+05 -5.050978E+03 -2.368209E+03 -9.837245E+04  1.386403E+04  1.754253E+03
        87   2  4.320189E+05  1.089382E+04  6.353889E+03 -9.264840E+04  1.377993E+04 -3.862767E+03
        87   3  5.029078E+05  2.684275E+04  1.513238E+04 -9.836193E+04  1.369597E+04 -9.503208E+03
        87   4  3.836028E+05  1.095265E+01  4.975758E+02 -9.833332E+04  4.049178E+02  1.756600E+03
        87   5  3.835901E+05 -1.246982E+00  2.841579E+02 -9.261451E+04  2.637186E+02 -3.860583E+03
        87   6  3.836004E+05  3.740735E-01  1.659188E+02 -9.833333E+04  1.226610E+02 -9.501199E+03
        87   7  4.060569E+05  5.072960E+03  3.364039E+03 -9.829419E+04 -1.305466E+04  1.758945E+03
        87   8  3.351641E+05 -1.089631E+04 -5.784892E+03 -9.258063E+04 -1.325149E+04 -3.858401E+03
        87   9  2.643081E+05 -2.684248E+04 -1.479989E+04 -9.830473E+04 -1.344817E+04 -9.499192E+03
        87  10  3.611493E+05 -5.051033E+03 -2.368576E+03 -9.837246E+04 -8.060974E-08 -5.446673E-09
        87  11  4.320187E+05  1.089376E+04  6.353504E+03 -9.264836E+04 -1.779092E-08 -6.635105E-09
        87  12  5.029076E+05  2.684261E+04  1.513186E+04 -9.836182E+04  5.119680E-08 -4.874517E-09
        87  13  3.836028E+05  1.094929E+01  4.975697E+02 -9.833332E+04 -2.167937E-09  1.247984E-08
        87  14  3.835901E+05 -1.263007E+00  2.841298E+02 -9.261451E+04 -1.083759E-08  4.788244E-09
        87  15  3.836004E+05  2.771151E-01  1.657491E+02 -9.833333E+04  1.494126E-09 -2.593151E-09
        87  16  4.060568E+05  5.072911E+03  3.363714E+03 -9.829417E+04  7.962330E-08 -4.618411E-09
        87  17  3.351639E+05 -1.089638E+04 -5.785250E+03 -9.258067E+04  1.872517E-08 -3.528622E-09
        87  18  2.643079E+05 -2.684263E+04 -1.480040E+04 -9.830484E+04 -5.329343E-08 -4.493327E-09
        87  19  3.611495E+05 -5.050978E+03 -2.368209E+03 -9.837245E+04 -1.386403E+04 -1.754253E+03
        87  20  4.320189E+05  1.089382E+04  6.353889E+03 -9.264840E+04 -1.377993E+04  3.862767E+03
        87  21  5.029078E+05  2.684275E+04  1.513238E+04 -9.836193E+04 -1.369597E+04  9.503208E+03
        87  22  3.836028E+05  1.095265E+01  4.975758E+02 -9.833332E+04 -4.049178E+02 -1.756600E+03
        87  23  3.835901E+05 -1.246982E+00  2.841579E+02 -9.261451E+04 -2.637186E+02  3.860583E+03
        87  24  3.836004E+05  3.740736E-01  1.659188E+02 -9.833333E+04 -1.226610E+02  9.501199E+03
        87  25  4.060569E+05  5.072960E+03  3.364039E+03 -9.829419E+04  1.305466E+04 -1.758945E+03
        87  26  3.351641E+05 -1.089631E+04 -5.784892E+03 -9.258063E+04  1.325149E+04  3.858401E+03
        87  27  2.643081E+05 -2.684248E+04 -1.479989E+04 -9.830473E+04  1.344817E+04  9.499192E+03
        88   1  5.466254E+05  3.673601E+04  2.087460E+04 -9.835987E+04  1.366909E+04 -1.279509E+04
        88   2  6.175116E+05  5.267746E+04  2.973518E+04 -9.263196E+04  1.353929E+04 -1.842736E+04
        88   3  6.884293E+05  6.863555E+04  3.868589E+04 -9.834285E+04  1.341015E+04 -2.402141E+04
        88   4  3.835954E+05 -1.558582E+00  1.279624E+02 -9.833364E+04  9.573733E+01 -1.279338E+04
        88   5  3.835844E+05 -1.197896E+01  7.757140E+01 -9.261412E+04  5.698446E+01 -1.842652E+04
        88   6  3.835840E+05 -2.148092E+01  5.362924E+01 -9.833365E+04  1.890798E+01 -2.402144E+04
        88   7  2.205930E+05 -3.674011E+04 -2.061809E+04 -9.830742E+04 -1.347423E+04 -1.279168E+04
        88   8  1.497137E+05 -5.270355E+04 -2.957955E+04 -9.259629E+04 -1.342049E+04 -1.842568E+04
        88   9  7.883431E+04 -6.868221E+04 -3.857828E+04 -9.832444E+04 -1.336609E+04 -2.402147E+04
        88  10  5.466252E+05  3.673578E+04  2.087395E+04 -9.835973E+04 -2.618065E-09 -2.870617E-09
        88  11  6.175113E+05  5.267705E+04  2.973420E+04 -9.263176E+04  3.924015E-09 -1.459797E-09
        88  12  6.884290E+05  6.863488E+04  3.868447E+04 -9.834259E+04 -8.663994E-10 -2.522351E-09
        88  13  3.835953E+05 -1.734370E+00  1.276547E+02 -9.833364E+04  2.423449E-09 -4.391702E-09
        88  14  3.835843E+05 -1.234363E+01  7.693322E+01 -9.261412E+04  2.829880E-10 -3.675527E-09
        88  15  3.835838E+05 -2.210066E+01  5.254470E+01 -9.833365E+04 -3.723649E-09 -3.187139E-09
        88  16  2.205927E+05 -3.674034E+04 -2.061874E+04 -9.830756E+04  4.632477E-09 -5.669151E-09
        88  17  1.497135E+05 -5.270397E+04 -2.958052E+04 -9.259649E+04 -2.808848E-09 -5.825573E-09
        88  18  7.883396E+04 -6.868288E+04 -3.857970E+04 -9.832470E+04 -4.341524E-09 -3.775104E-09
        88  19  5.466254E+05  3.673601E+04  2.087460E+04 -9.835987E+04 -1.366909E+04  1.279509E+04
        88  20  6.175116E+05  5.267746E+04  2.973518E+04 -9.263196E+04 -1.353929E+04  1.842736E+04
        88  21  6.884293E+05  6.863555E+04  3.868589E+04 -9.834285E+04 -1.341015E+04  2.402141E+04
        88  22  3.835954E+05 -1.558582E+00  1.279624E+02 -9.833364E+04 -9.573733E+01  1.279338E+04
        88  23  3.835844E+05 -1.197896E+01  7.757140E+01 -9.261412E+04 -5.698446E+01  1.842652E+04
        88  24  3.835840E+05 -2.148092E+01  5.362924E+01 -9.833365E+04 -1.890798E+01  2.402144E+04
        88  25  2.205930E+05 -3.674011E+04 -2.061809E+04 -9.830742E+04  1.347423E+04  1.279168E+04
        88  26  1.497137E+05 -5.270355E+04 -2.957955E+04 -9.259629E+04  1.342049E+04  1.842568E+04
        88  27  7.883431E+04 -6.868221E+04 -3.857828E+04 -9.832444E+04  1.336609E+04  2.402147E+04
        89   1  7.321885E+05  7.854226E+04  4.452834E+04 -9.833250E+04  1.337824E+04 -2.727464E+04
        89   2  8.030549E+05  9.453803E+04  5.378140E+04 -9.260059E+04  1.260032E+04 -3.268177E+04
        89   3  8.740752E+05  1.106681E+05  6.357809E+04 -9.829019E+04  1.182344E+04 -3.777419E+04
        89   4  3.835805E+05 -2.950503E+01  4.825236E+01 -9.832985E+04  9.831598E+00 -2.727537E+04
        89   5  3.835608E+05 -4.909771E+01  4.579705E+01 -9.261887E+04 -1.251481E+01 -3.268400E+04
        89   6  3.835600E+05 -6.499147E+01  6.265753E+01 -9.832985E+04 -3.375843E+01 -3.777781E+04
        89   7  3.509731E+04 -7.860616E+04 -4.443166E+04 -9.832719E+04 -1.335144E+04 -2.727610E+04
        89   8 -3.575260E+04 -9.464338E+04 -5.368998E+04 -9.263712E+04 -1.261725E+04 -3.268623E+04
        89   9 -1.067087E+05 -1.108081E+05 -6.345355E+04 -9.836947E+04 -1.188205E+04 -3.778144E+04
        89  10  7.321882E+05  7.854142E+04  4.452661E+04 -9.833221E+04 -3.102025E-09 -2.662628E-09
        89  11  8.030544E+05  9.453684E+04  5.377909E+04 -9.260025E+04 -4.022795E-09 -9.619967E-10
        89  12  8.740746E+05  1.106666E+05  6.357515E+04 -9.828983E+04  4.286895E-09  5.636064E-10
        89  13  3.835803E+05 -3.030405E+01  4.685408E+01 -9.832985E+04 -2.153944E-09 -2.336823E-09
        89  14  3.835606E+05 -5.024503E+01  4.378925E+01 -9.261887E+04  4.190154E-09 -1.973911E-10
        89  15  3.835596E+05 -6.652427E+01  5.997513E+01 -9.832985E+04 -2.759827E-09  1.504044E-09
        89  16  3.509692E+04 -7.860701E+04 -4.443339E+04 -9.832749E+04 -2.103816E-09 -1.897726E-09
        89  17 -3.575306E+04 -9.464457E+04 -5.369229E+04 -9.263746E+04 -2.723117E-09  5.888833E-10
        89  18 -1.067093E+05 -1.108096E+05 -6.345650E+04 -9.836983E+04 -2.939918E-09  2.651317E-09
        89  19  7.321885E+05  7.854226E+04  4.452834E+04 -9.833250E+04 -1.337824E+04  2.727464E+04
        89  20  8.030549E+05  9.453803E+04  5.378140E+04 -9.260059E+04 -1.260032E+04  3.268177E+04
        89  21  8.740752E+05  1.106681E+05  6.357809E+04 -9.829019E+04 -1.182344E+04  3.777419E+04
        89  22  3.835805E+05 -2.950504E+01  4.825236E+01 -9.832985E+04 -9.831598E+00  2.727537E+04
        89  23  3.835608E+05 -4.909771E+01  4.579705E+01 -9.261887E+04  1.251481E+01  3.268400E+04
        89  24  3.835600E+05 -6.499147E+01  6.265753E+01 -9.832985E+04  3.375843E+01  3.777781E+04
        89  25  3.509731E+04 -7.860616E+04 -4.443166E+04 -9.832719E+04  1.335144E+04  2.727610E+04
        89  26 -3.575260E+04 -9.464338E+04 -5.368998E+04 -9.263712E+04  1.261725E+04  3.268623E+04
        89  27 -1.067087E+05 -1.108081E+05 -6.345355E+04 -9.836947E+04  1.188205E+04  3.778144E+04
        90   1  9.180157E+05  1.207142E+05  6.998031E+04 -9.823052E+04  1.162852E+04 -4.070954E+04
        90   2  9.885151E+05  1.371705E+05  8.187896E+04 -9.258947E+04  5.948557E+03 -4.439880E+04
        90   3  1.060044E+06  1.546475E+05  9.773476E+04 -9.819817E+04  2.681541E+02 -4.574998E+04
        90   4  3.835585E+05 -7.530404E+01  7.816630E+01 -9.829173E+04 -4.488987E+01 -4.071414E+04
        90   5  3.835193E+05 -8.090756E+01  1.266444E+02 -9.266651E+04 -1.060244E+02 -4.440423E+04
        90   6  3.835294E+05 -4.007883E+01  2.341342E+02 -9.829174E+04 -1.668897E+02 -4.575503E+04
        90   7 -1.506067E+05 -1.208768E+05 -6.982528E+04 -9.835287E+04 -1.170874E+04 -4.071874E+04
        90   8 -2.211043E+05 -1.373481E+05 -8.162899E+04 -9.274346E+04 -6.154984E+03 -4.440966E+04
        90   9 -2.925237E+05 -1.547485E+05 -9.727369E+04 -9.838520E+04 -6.014801E+02 -4.576009E+04
        90  10  9.180151E+05  1.207124E+05  6.997694E+04 -9.823014E+04  7.177227E-08  1.495689E-09
        90  11  9.885146E+05  1.371684E+05  8.187519E+04 -9.258926E+04  8.849449E-09  1.707595E-09
        90  12  1.060043E+06  1.546452E+05  9.773083E+04 -9.819816E+04 -5.997474E-08 -9.693008E-10
        90  13  3.835580E+05 -7.708438E+01  7.505070E+01 -9.829174E+04  5.879862E-12  2.352378E-09
        90  14  3.835187E+05 -8.302524E+01  1.229384E+02 -9.266652E+04 -4.258497E-09  2.083035E-09
        90  15  3.835289E+05 -4.232732E+01  2.301993E+02 -9.829175E+04 -2.063128E-09 -1.200837E-09
        90  16 -1.506073E+05 -1.208786E+05 -6.982866E+04 -9.835326E+04 -7.575541E-08  3.351260E-09
        90  17 -2.211048E+05 -1.373502E+05 -8.163277E+04 -9.274368E+04 -1.110385E-08  2.963535E-09
        90  18 -2.925242E+05 -1.547508E+05 -9.727762E+04 -9.838522E+04  6.019072E-08 -1.208179E-09
        90  19  9.180157E+05  1.207142E+05  6.998031E+04 -9.823052E+04 -1.162852E+04  4.070954E+04
        90  20  9.885151E+05  1.371705E+05  8.187896E+04 -9.258947E+04 -5.948557E+03  4.439880E+04
        90  21  1.060044E+06  1.546475E+05  9.773476E+04 -9.819817E+04 -2.681541E+02  4.574998E+04
        90  22  3.835585E+05 -7.530404E+01  7.816630E+01 -9.829173E+04  4.488987E+01  4.071414E+04
        90  23  3.835193E+05 -8.090756E+01  1.266444E+02 -9.266651E+04  1.060244E+02  4.440423E+04
        90  24  3.835294E+05 -4.007883E+01  2.341342E+02 -9.829174E+04  1.668897E+02  4.575503E+04
        90  25 -1.506067E+05 -1.208768E+05 -6.982528E+04 -9.835287E+04  1.170874E+04  4.071874E+04
        90  26 -2.211043E+05 -1.373481E+05 -8.162899E+04 -9.274346E+04  6.154984E+03  4.440966E+04
        90  27 -2.925237E+05 -1.547485E+05 -9.727369E+04 -9.838520E+04  6.014801E+02  4.576009E+04
        91   1  1.105126E+06  1.657422E+05  1.081715E+05 -9.785725E+04 -1.150812E+03 -4.632249E+04
        91   2  1.172603E+06  1.856871E+05  1.394429E+05 -9.317697E+04 -4.302225E+04 -3.729266E+04
        91   3  1.247495E+06  2.133149E+05  1.998730E+05 -9.846096E+04 -8.491374E+04 -1.096239E+04
        91   4  3.835521E+05 -1.702744E+01  3.142892E+02 -9.800570E+04 -2.081430E+02 -4.632747E+04
        91   5  3.834333E+05  2.237957E+02  5.705319E+02 -9.302413E+04 -4.892817E+02 -3.728001E+04
        91   6  3.835159E+05  9.386021E+02  1.135245E+03 -9.800605E+04 -7.843038E+02 -1.092203E+04
        91   7 -3.374995E+05 -1.658009E+05 -1.075530E+05 -9.815398E+04  7.334758E+02 -4.633245E+04
        91   8 -4.051246E+05 -1.852725E+05 -1.383177E+05 -9.287151E+04  4.199130E+04 -3.726733E+04
        91   9 -4.797583E+05 -2.114860E+05 -1.976254E+05 -9.755180E+04  8.322918E+04 -1.088152E+04
        91  10  1.105125E+06  1.657399E+05  1.081674E+05 -9.785729E+04  6.689048E-08 -8.064756E-10
        91  11  1.172601E+06  1.856851E+05  1.394368E+05 -9.317826E+04 -1.859920E-09  1.204859E-09
        91  12  1.247487E+06  2.133128E+05  1.998593E+05 -9.846171E+04 -6.430252E-08  7.255421E-10
        91  13  3.835515E+05 -1.933255E+01  3.102552E+02 -9.800571E+04 -4.731132E-09 -2.976942E-09
        91  14  3.834329E+05  2.223030E+02  5.679193E+02 -9.302415E+04  5.021523E-10  1.830339E-09
        91  15  3.835159E+05  9.384738E+02  1.135020E+03 -9.800606E+04 -6.126345E-09  5.695420E-10
        91  16 -3.375001E+05 -1.658032E+05 -1.075570E+05 -9.815396E+04 -6.462619E-08 -2.587115E-09
        91  17 -4.051268E+05 -1.852745E+05 -1.383236E+05 -9.287025E+04 -4.172351E-10 -9.923760E-12
        91  18 -4.797658E+05 -2.114880E+05 -1.976386E+05 -9.755107E+04  6.505379E-08 -5.697201E-10
        91  19  1.105126E+06  1.657422E+05  1.081715E+05 -9.785725E+04  1.150812E+03  4.632249E+04
        91  20  1.172603E+06  1.856871E+05  1.394429E+05 -9.317697E+04  4.302225E+04  3.729266E+04
        91  21  1.247495E+06  2.133149E+05  1.998730E+05 -9.846096E+04  8.491374E+04  1.096239E+04
        91  22  3.835521E+05 -1.702744E+01  3.142892E+02 -9.800570E+04  2.081430E+02  4.632747E+04
        91  23  3.834333E+05  2.237957E+02  5.705319E+02 -9.302413E+04  4.892817E+02  3.728001E+04
        91  24  3.835159E+05  9.386021E+02  1.135245E+03 -9.800605E+04  7.843038E+02  1.092203E+04
        91  25 -3.374995E+05 -1.658009E+05 -1.075530E+05 -9.815398E+04 -7.334758E+02  4.633245E+04
        91  26 -4.051246E+05 -1.852725E+05 -1.383177E+05 -9.287151E+04 -4.199130E+04  3.726733E+04
        91  27 -4.797583E+05 -2.114860E+05 -1.976254E+05 -9.755180E+04 -8.322918E+04  1.088152E+04
        92   1  1.513209E+05  7.776079E+05  1.449189E+05 -3.158752E+05  4.719138E+03  2.727919E+04
        92   2  9.413542E+04  5.397482E+05  7.855920E+04 -2.992079E+05  1.218538E+04 -3.611380E+03
        92   3  3.987001E+04  3.066733E+05  3.301584E+04 -3.200311E+05  5.935165E+03 -3.449317E+04
        92   4 -6.678032E+03  1.394265E+05 -7.279816E+03 -3.201755E+05  4.747754E+03 -6.375861E+03
        92   5 -2.053778E+03  1.398904E+05 -2.711007E+03 -3.014264E+05  1.218721E+04 -4.974795E+03
        92   6 -1.073740E+02  1.394884E+05  2.666010E+02 -3.201708E+05  5.905914E+03 -3.576104E+03
        92   7 -1.647057E+05 -4.983792E+05 -1.595029E+05 -3.244711E+05  4.776859E+03 -3.999651E+04
        92   8 -9.825291E+04 -2.598155E+05 -8.398957E+04 -3.036434E+05  1.218906E+04 -6.337349E+03
        92   9 -4.008593E+04 -2.766765E+04 -3.248039E+04 -3.203105E+05  5.876643E+03  2.733282E+04
        92  10  1.513207E+05  7.776071E+05  1.449175E+05 -3.158753E+05  4.053911E-09  7.418024E-08
        92  11  9.413525E+04  5.397482E+05  7.855890E+04 -2.992078E+05  5.264481E-09 -4.844773E-09
        92  12  3.986965E+04  3.066720E+05  3.301354E+04 -3.200310E+05  7.880944E-09 -8.433392E-08
        92  13 -6.678067E+03  1.394264E+05 -7.279935E+03 -3.201754E+05 -2.777963E-11  3.621077E-10
        92  14 -2.053944E+03  1.398903E+05 -2.711332E+03 -3.014264E+05  1.246339E-08  2.228994E-10
        92  15 -1.074148E+02  1.394884E+05  2.665115E+02 -3.201708E+05  1.575349E-09  3.083497E-10
        92  16 -1.647062E+05 -4.983810E+05 -1.595060E+05 -3.244709E+05 -2.279738E-09 -7.414095E-08
        92  17 -9.825308E+04 -2.598156E+05 -8.398992E+04 -3.036433E+05 -8.469179E-09  4.785644E-09
        92  18 -4.008617E+04 -2.766846E+04 -3.248186E+04 -3.203106E+05 -8.540748E-09  8.481148E-08
        92  19  1.513209E+05  7.776079E+05  1.449189E+05 -3.158752E+05 -4.719138E+03 -2.727919E+04
        92  20  9.413542E+04  5.397482E+05  7.855920E+04 -2.992079E+05 -1.218538E+04  3.611380E+03
        92  21  3.987001E+04  3.066733E+05  3.301584E+04 -3.200311E+05 -5.935165E+03  3.449317E+04
        92  22 -6.678032E+03  1.394265E+05 -7.279816E+03 -3.201755E+05 -4.747754E+03  6.375861E+03
        92  23 -2.053778E+03  1.398904E+05 -2.711007E+03 -3.014264E+05 -1.218721E+04  4.974795E+03
        92  24 -1.073740E+02  1.394884E+05  2.666010E+02 -3.201708E+05 -5.905914E+03  3.576104E+03
        92  25 -1.647057E+05 -4.983792E+05 -1.595029E+05 -3.244711E+05 -4.776859E+03  3.999651E+04
        92  26 -9.825291E+04 -2.598155E+05 -8.398957E+04 -3.036434E+05 -1.218906E+04  6.337349E+03
        92  27 -4.008593E+04 -2.766765E+04 -3.248039E+04 -3.203105E+05 -5.876643E+03 -2.733282E+04
        93   1  6.127271E+03  1.603755E+05  1.055153E+04 -3.201321E+05 -2.431973E+03 -3.543649E+04
        93   2 -4.733056E+04 -7.509896E+04 -2.512927E+04 -2.996888E+05 -1.532798E+04 -3.528752E+04
        93   3 -9.946252E+04 -3.102280E+05 -6.058534E+04 -3.175673E+05 -2.709711E+04 -3.513680E+04
        93   4  2.426023E+02  1.398524E+05  1.643678E+03 -3.203549E+05 -2.462292E+03 -3.779694E+03
        93   5  1.606473E+03  1.394601E+05  4.986780E+03 -3.011929E+05 -1.535389E+04 -6.287560E+03
        93   6  4.758638E+03  1.398176E+05  1.039594E+04 -3.203514E+05 -2.711886E+04 -8.793612E+03
        93   7 -5.641582E+03  1.193317E+05 -7.260463E+03 -3.205777E+05 -2.492635E+03  2.787598E+04
        93   8  5.054190E+04  3.540677E+05  3.510539E+04 -3.026975E+05 -1.537993E+04  2.272199E+04
        93   9  1.089702E+05  5.900665E+05  8.137481E+04 -3.231375E+05 -2.714083E+04  1.756797E+04
        93  10  6.126927E+03  1.603741E+05  1.054916E+04 -3.201322E+05  4.601382E-09  7.005278E-08
        93  11 -4.733114E+04 -7.510036E+04 -2.513205E+04 -2.996892E+05  1.957333E-09  5.881187E-10
        93  12 -9.946364E+04 -3.102295E+05 -6.058904E+04 -3.175681E+05  4.210503E-09 -6.824602E-08
        93  13  2.425920E+02  1.398523E+05  1.643640E+03 -3.203549E+05 -2.787596E-09  4.960361E-10
        93  14  1.606209E+03  1.394600E+05  4.986262E+03 -3.011930E+05 -5.630363E-09  1.527176E-10
        93  15  4.757827E+03  1.398173E+05  1.039441E+04 -3.203516E+05 -1.055367E-08  2.500802E-10
        93  16 -5.641797E+03  1.193309E+05 -7.261934E+03 -3.205776E+05 -8.185355E-09 -7.002804E-08
        93  17  5.054151E+04  3.540671E+05  3.510398E+04 -3.026973E+05 -9.888595E-09 -8.720184E-10
        93  18  1.089693E+05  5.900660E+05  8.137285E+04 -3.231371E+05 -3.495408E-09  6.871358E-08
        93  19  6.127271E+03  1.603755E+05  1.055153E+04 -3.201321E+05  2.431973E+03  3.543649E+04
        93  20 -4.733056E+04 -7.509896E+04 -2.512927E+04 -2.996888E+05  1.532798E+04  3.528752E+04
        93  21 -9.946252E+04 -3.102280E+05 -6.058534E+04 -3.175673E+05  2.709711E+04  3.513680E+04
        93  22  2.426023E+02  1.398524E+05  1.643678E+03 -3.203549E+05  2.462292E+03  3.779694E+03
        93  23  1.606473E+03  1.394601E+05  4.986780E+03 -3.011929E+05  1.535389E+04  6.287560E+03
        93  24  4.758638E+03  1.398176E+05  1.039594E+04 -3.203514E+05  2.711886E+04  8.793612E+03
        93  25 -5.641582E+03  1.193317E+05 -7.260463E+03 -3.205777E+05  2.492635E+03 -2.787598E+04
        93  26  5.054190E+04  3.540677E+05  3.510539E+04 -3.026975E+05  1.537993E+04 -2.272199E+04
        93  27  1.089702E+05  5.900665E+05  8.137481E+04 -3.231375E+05  2.714083E+04 -1.756797E+04
        94   1 -1.324436E+05 -4.559565E+05 -8.244731E+04 -3.180676E+05 -3.434710E+04 -3.557767E+04
        94   2 -1.787150E+05 -6.902830E+05 -1.285346E+05 -2.833308E+05 -3.381262E+04  3.398344E+03
        94   3 -2.132096E+05 -9.266550E+05 -1.970636E+05 -2.853832E+05 -1.090059E+04  4.235805E+04
        94   4  6.346668E+03  1.411842E+05  1.422425E+04 -3.200096E+05 -3.436540E+04 -1.062799E+04
        94   5  1.800174E+04  1.376056E+05  2.673789E+04 -3.016054E+05 -3.378852E+04 -2.424035E+04
        94   6  5.055641E+04  1.410520E+05  5.333639E+04 -3.199820E+05 -1.084993E+04 -3.785354E+04
        94   7  1.451192E+05  7.386801E+05  1.108884E+05 -3.219532E+05 -3.438385E+04  1.434485E+04
        94   8  2.146804E+05  9.661596E+05  1.819838E+05 -3.199048E+05 -3.376281E+04 -5.191500E+04
        94   9  3.142492E+05  1.209826E+06  3.036833E+05 -3.546404E+05 -1.079039E+04 -1.182023E+05
        94  10 -1.324452E+05 -4.559582E+05 -8.245191E+04 -3.180686E+05  2.777506E-09 -1.276383E-09
        94  11 -1.787162E+05 -6.902833E+05 -1.285368E+05 -2.833307E+05 -1.161973E-09 -1.556154E-09
        94  12 -2.132102E+05 -9.266570E+05 -1.970672E+05 -2.853829E+05 -3.854009E-09 -2.324092E-09
        94  13  6.345369E+03  1.411838E+05  1.422182E+04 -3.200098E+05  5.537282E-10  3.720257E-10
        94  14  1.800035E+04  1.376047E+05  2.673464E+04 -3.016061E+05 -1.424553E-08  1.682975E-10
        94  15  5.055589E+04  1.410505E+05  5.333347E+04 -3.199824E+05 -3.647430E-09  1.134648E-10
        94  16  1.451178E+05  7.386796E+05  1.108858E+05 -3.219528E+05  1.296736E-09  1.417278E-09
        94  17  2.146784E+05  9.661565E+05  1.819766E+05 -3.199062E+05 -1.192466E-09  1.720369E-09
        94  18  3.142453E+05  1.209811E+06  3.036569E+05 -3.546414E+05 -2.788484E-09  2.586052E-09
        94  19 -1.324436E+05 -4.559565E+05 -8.244731E+04 -3.180676E+05  3.434710E+04  3.557767E+04
        94  20 -1.787150E+05 -6.902830E+05 -1.285346E+05 -2.833308E+05  3.381262E+04 -3.398344E+03
        94  21 -2.132096E+05 -9.266550E+05 -1.970636E+05 -2.853832E+05  1.090059E+04 -4.235805E+04
        94  22  6.346668E+03  1.411842E+05  1.422425E+04 -3.200096E+05  3.436540E+04  1.062799E+04
        94  23  1.800174E+04  1.376056E+05  2.673789E+04 -3.016054E+05  3.378852E+04  2.424035E+04
        94  24  5.055641E+04  1.410520E+05  5.333639E+04 -3.199820E+05  1.084993E+04  3.785354E+04
        94  25  1.451192E+05  7.386801E+05  1.108884E+05 -3.219532E+05  3.438385E+04 -1.434485E+04
        94  26  2.146804E+05  9.661596E+05  1.819838E+05 -3.199048E+05  3.376281E+04  5.191500E+04
        94  27  3.142492E+05  1.209826E+06  3.036833E+05 -3.546404E+05  1.079039E+04  1.182023E+05
        95   1 -3.352272E+05 -1.926519E+05 -1.277424E+05 -1.360358E+05 -5.947790E+04 -1.874726E+04
        95   2 -3.130522E+05 -1.156517E+05 -7.507376E+04 -1.270485E+05 -3.751483E+04 -2.699093E+03
        95   3 -3.060041E+05 -8.955426E+04 -5.310699E+04 -1.128519E+05 -1.327368E+04  7.284675E+03
        95   4 -1.443626E+05 -8.975335E+04 -7.173234E+04 -5.175576E+04 -4.728545E+04 -1.417528E+04
        95   5 -1.335954E+05 -3.702998E+04 -3.223237E+04 -6.487106E+04 -3.281136E+04 -9.353214E+02
        95   6 -1.364661E+05 -3.371920E+04 -1.749445E+04 -7.277963E+04 -1.606022E+04  6.239065E+03
        95   7  4.653811E+04  1.315959E+04 -1.572564E+04  3.255063E+04 -3.508908E+04 -9.600269E+03
        95   8  4.589363E+04  4.159785E+04  1.060666E+04 -2.676060E+03 -2.810643E+04  8.292312E+02
        95   9  3.310175E+04  2.211707E+04  1.811678E+04 -3.269772E+04 -1.884760E+04  5.193215E+03
        95  10 -3.352311E+05 -1.926532E+05 -1.277497E+05 -1.360367E+05  5.677817E-09  3.730294E-09
        95  11 -3.130537E+05 -1.156521E+05 -7.507642E+04 -1.270486E+05 -1.345005E-08 -1.547703E-09
        95  12 -3.060043E+05 -8.955436E+04 -5.310742E+04 -1.128518E+05 -1.773255E-08 -8.831424E-09
        95  13 -1.443650E+05 -8.975417E+04 -7.173692E+04 -5.175630E+04 -5.434751E-09  4.852906E-10
        95  14 -1.335966E+05 -3.703027E+04 -3.223440E+04 -6.487108E+04 -3.091541E-10  2.423962E-09
        95  15 -1.364664E+05 -3.371931E+04 -1.749501E+04 -7.277954E+04  3.439879E-09  4.586289E-09
        95  16  4.653676E+04  1.315916E+04 -1.572812E+04  3.255036E+04 -1.128365E-08 -4.873058E-09
        95  17  4.589278E+04  4.159763E+04  1.060518E+04 -2.676041E+03  5.587716E-09 -3.473328E-09
        95  18  3.310136E+04  2.211694E+04  1.811606E+04 -3.269764E+04  1.650425E-08  1.169912E-09
        95  19 -3.352272E+05 -1.926519E+05 -1.277424E+05 -1.360358E+05  5.947790E+04  1.874726E+04
        95  20 -3.130522E+05 -1.156517E+05 -7.507376E+04 -1.270485E+05  3.751483E+04  2.699093E+03
        95  21 -3.060041E+05 -8.955426E+04 -5.310699E+04 -1.128519E+05  1.327368E+04 -7.284675E+03
        95  22 -1.443626E+05 -8.975335E+04 -7.173234E+04 -5.175576E+04  4.728545E+04  1.417528E+04
        95  23 -1.335954E+05 -3.702998E+04 -3.223237E+04 -6.487106E+04  3.281136E+04  9.353214E+02
        95  24 -1.364661E+05 -3.371920E+04 -1.749445E+04 -7.277963E+04  1.606022E+04 -6.239065E+03
        95  25  4.653811E+04  1.315959E+04 -1.572564E+04  3.255063E+04  3.508908E+04  9.600269E+03
        95  26  4.589363E+04  4.159785E+04  1.060666E+04 -2.676060E+03  2.810643E+04 -8.292312E+02
        95  27  3.310175E+04  2.211707E+04  1.811678E+04 -3.269772E+04  1.884760E+04 -5.193215E+03
        96   1 -2.810692E+05 -9.151324E+04 -4.542628E+04 -1.118569E+05 -1.218428E+04  6.306466E+03
        96   2 -2.591597E+05 -7.730650E+04 -3.349249E+04 -1.021747E+05 -7.702008E+03  6.547593E+03
        96   3 -2.331036E+05 -7.056335E+04 -2.508086E+04 -9.834577E+04 -3.091759E+03  6.447444E+03
        96   4 -1.342450E+05 -3.680963E+04 -1.351302E+04 -7.057225E+04 -1.353501E+04  5.799498E+03
        96   5 -1.362024E+05 -3.200683E+04 -7.122834E+03 -6.806248E+04 -9.473583E+03  5.882888E+03
        96   6 -1.339299E+05 -3.458398E+04 -3.920696E+03 -7.140624E+04 -5.284321E+03  5.624973E+03
        96   7  1.260007E+04  1.789545E+04  1.839869E+04 -2.927884E+04 -1.488609E+04  5.292400E+03
        96   8 -1.322973E+04  1.329408E+04  1.924596E+04 -3.394403E+04 -1.124554E+04  5.218040E+03
        96   9 -3.474549E+04  1.396402E+03  1.723913E+04 -4.446259E+04 -7.477276E+03  4.802358E+03
        96  10 -2.810693E+05 -9.151332E+04 -4.542663E+04 -1.118569E+05  1.237071E-08  5.961720E-10
        96  11 -2.591598E+05 -7.730656E+04 -3.349268E+04 -1.021747E+05  1.681541E-09 -6.394274E-09
        96  12 -2.331036E+05 -7.056340E+04 -2.508096E+04 -9.834575E+04 -1.878124E-08 -6.438373E-09
        96  13 -1.342452E+05 -3.680971E+04 -1.351342E+04 -7.057219E+04 -2.126716E-09  3.360317E-09
        96  14 -1.362025E+05 -3.200689E+04 -7.123067E+03 -6.806244E+04 -5.420543E-09 -1.089707E-09
        96  15 -1.339299E+05 -3.458402E+04 -3.920808E+03 -7.140622E+04 -2.012741E-09  4.403040E-10
        96  16  1.259983E+04  1.789536E+04  1.839822E+04 -2.927878E+04 -1.781607E-08 -1.132562E-08
        96  17 -1.322987E+04  1.329402E+04  1.924567E+04 -3.394399E+04 -9.821564E-09 -5.540149E-09
        96  18 -3.474555E+04  1.396362E+03  1.723898E+04 -4.446256E+04  1.250889E-08  5.073894E-09
        96  19 -2.810692E+05 -9.151324E+04 -4.542628E+04 -1.118569E+05  1.218428E+04 -6.306466E+03
        96  20 -2.591597E+05 -7.730650E+04 -3.349249E+04 -1.021747E+05  7.702008E+03 -6.547593E+03
        96  21 -2.331036E+05 -7.056335E+04 -2.508086E+04 -9.834577E+04  3.091759E+03 -6.447444E+03
        96  22 -1.342450E+05 -3.680963E+04 -1.351302E+04 -7.057225E+04  1.353501E+04 -5.799498E+03
        96  23 -1.362024E+05 -3.200683E+04 -7.122834E+03 -6.806248E+04  9.473583E+03 -5.882888E+03
        96  24 -1.339299E+05 -3.458398E+04 -3.920696E+03 -7.140624E+04  5.284321E+03 -5.624973E+03
        96  25  1.260007E+04  1.789545E+04  1.839869E+04 -2.927884E+04  1.488609E+04 -5.292400E+03
        96  26 -1.322973E+04  1.329408E+04  1.924596E+04 -3.394403E+04  1.124554E+04 -5.218040E+03
        96  27 -3.474549E+04  1.396402E+03  1.723913E+04 -4.446259E+04  7.477276E+03 -4.802358E+03
        97   1 -2.154491E+05 -6.456840E+04 -2.029872E+04 -9.374687E+04 -2.234172E+03  5.597199E+03
        97   2 -1.938125E+05 -5.290355E+04 -1.385029E+04 -8.395803E+04 -7.548067E+02  4.191176E+03
        97   3 -1.668890E+05 -4.676929E+04 -8.045877E+03 -8.040180E+04  7.317133E+02  2.765758E+03
        97   4 -1.337683E+05 -3.470610E+04 -2.956520E+03 -7.128973E+04 -4.346411E+03  4.804919E+03
        97   5 -1.364095E+05 -3.191575E+04 -1.625423E+03 -6.818344E+04 -2.890906E+03  3.390019E+03
        97   6 -1.337596E+05 -3.465117E+04 -9.193232E+02 -7.130988E+04 -1.428287E+03  1.955715E+03
        97   7 -5.208078E+04 -4.843274E+03  1.438532E+04 -4.882988E+04 -6.458949E+03  4.012528E+03
        97   8 -7.900338E+04 -1.092777E+04  1.059922E+04 -5.240757E+04 -5.027211E+03  2.588785E+03
        97   9 -1.006294E+05 -2.253306E+04  6.207119E+03 -6.221758E+04 -3.588395E+03  1.145632E+03
        97  10 -2.154491E+05 -6.456843E+04 -2.029879E+04 -9.374686E+04  2.408212E-09  2.138839E-09
        97  11 -1.938125E+05 -5.290357E+04 -1.385033E+04 -8.395803E+04  8.329207E-09 -9.541600E-10
        97  12 -1.668890E+05 -4.676929E+04 -8.045892E+03 -8.040180E+04  5.026820E-09 -4.417446E-10
        97  13 -1.337684E+05 -3.470613E+04 -2.956599E+03 -7.128971E+04  1.818244E-09  1.058399E-09
        97  14 -1.364095E+05 -3.191577E+04 -1.625460E+03 -6.818343E+04  4.416992E-09 -6.390244E-10
        97  15 -1.337596E+05 -3.465117E+04 -9.193342E+02 -7.130988E+04  4.056210E-09 -9.577734E-10
        97  16 -5.208083E+04 -4.843302E+03  1.438521E+04 -4.882986E+04 -9.822807E-10 -1.365886E-11
        97  17 -7.900341E+04 -1.092779E+04  1.059916E+04 -5.240756E+04  2.397162E-09 -4.873108E-10
        97  18 -1.006294E+05 -2.253306E+04  6.207093E+03 -6.221757E+04 -6.374981E-10 -1.398718E-09
        97  19 -2.154491E+05 -6.456840E+04 -2.029872E+04 -9.374687E+04  2.234172E+03 -5.597199E+03
        97  20 -1.938125E+05 -5.290355E+04 -1.385029E+04 -8.395803E+04  7.548067E+02 -4.191176E+03
        97  21 -1.668890E+05 -4.676929E+04 -8.045877E+03 -8.040180E+04 -7.317133E+02 -2.765758E+03
        97  22 -1.337683E+05 -3.470610E+04 -2.956520E+03 -7.128973E+04  4.346411E+03 -4.804919E+03
        97  23 -1.364095E+05 -3.191575E+04 -1.625423E+03 -6.818344E+04  2.890906E+03 -3.390019E+03
        97  24 -1.337596E+05 -3.465117E+04 -9.193232E+02 -7.130988E+04  1.428287E+03 -1.955715E+03
        97  25 -5.208078E+04 -4.843274E+03  1.438532E+04 -4.882988E+04  6.458949E+03 -4.012528E+03
        97  26 -7.900338E+04 -1.092777E+04  1.059922E+04 -5.240757E+04  5.027211E+03 -2.588785E+03
        97  27 -1.006294E+05 -2.253306E+04  6.207119E+03 -6.221758E+04  3.588395E+03 -1.145632E+03
        98   1 -1.496034E+05 -4.042946E+04 -4.009154E+03 -7.565293E+04  1.243931E+03  1.797717E+03
        98   2 -1.280305E+05 -2.883508E+04  1.346569E+03 -6.584375E+04  2.122006E+03  1.366834E+02
        98   3 -1.010591E+05 -2.267763E+04  6.534958E+03 -6.226246E+04  3.000449E+03 -1.525284E+03
        98   4 -1.337390E+05 -3.465408E+04 -7.088302E+02 -7.130037E+04 -9.116694E+02  9.893421E+02
        98   5 -1.364383E+05 -3.193837E+04 -4.468486E+02 -6.818517E+04 -3.480809E+01 -6.721633E+02
        98   6 -1.337398E+05 -3.465963E+04 -3.513934E+02 -7.129830E+04  8.424096E+02 -2.334602E+03
        98   7 -1.178742E+05 -2.887863E+04  2.591532E+03 -6.694766E+04 -3.067345E+03  1.809396E+02
        98   8 -1.448460E+05 -3.504166E+04 -2.240259E+03 -7.052658E+04 -2.191599E+03 -1.481001E+03
        98   9 -1.664195E+05 -4.664154E+04 -7.237786E+03 -8.033370E+04 -1.315508E+03 -3.143874E+03
        98  10 -1.496034E+05 -4.042947E+04 -4.009163E+03 -7.565294E+04  5.919733E-09  3.649605E-09
        98  11 -1.280305E+05 -2.883508E+04  1.346560E+03 -6.584375E+04  7.954620E-09  7.532688E-09
        98  12 -1.010591E+05 -2.267763E+04  6.534937E+03 -6.226246E+04  1.545387E-08  1.604423E-09
        98  13 -1.337390E+05 -3.465408E+04 -7.088336E+02 -7.130037E+04 -6.191582E-09  2.788933E-09
        98  14 -1.364383E+05 -3.193837E+04 -4.468495E+02 -6.818517E+04 -9.206741E-09  1.201525E-08
        98  15 -1.337398E+05 -3.465964E+04 -3.514050E+02 -7.129830E+04  1.014923E-08  1.648744E-08
        98  16 -1.178742E+05 -2.887864E+04  2.591515E+03 -6.694766E+04 -6.441314E-09 -2.375296E-09
        98  17 -1.448460E+05 -3.504166E+04 -2.240272E+03 -7.052658E+04 -6.037024E-09 -3.192799E-09
        98  18 -1.664195E+05 -4.664156E+04 -7.237808E+03 -8.033370E+04 -5.175496E-09 -3.549054E-09
        98  19 -1.496034E+05 -4.042946E+04 -4.009154E+03 -7.565293E+04 -1.243931E+03 -1.797717E+03
        98  20 -1.280305E+05 -2.883508E+04  1.346569E+03 -6.584375E+04 -2.122006E+03 -1.366834E+02
        98  21 -1.010591E+05 -2.267763E+04  6.534958E+03 -6.226246E+04 -3.000449E+03  1.525284E+03
        98  22 -1.337390E+05 -3.465408E+04 -7.088302E+02 -7.130037E+04  9.116694E+02 -9.893421E+02
        98  23 -1.364383E+05 -3.193837E+04 -4.468486E+02 -6.818517E+04  3.480809E+01  6.721633E+02
        98  24 -1.337398E+05 -3.465963E+04 -3.513934E+02 -7.129830E+04 -8.424096E+02  2.334602E+03
        98  25 -1.178742E+05 -2.887863E+04  2.591532E+03 -6.694766E+04  3.067345E+03 -1.809396E+02
        98  26 -1.448460E+05 -3.504166E+04 -2.240259E+03 -7.052658E+04  2.191599E+03  1.481001E+03
        98  27 -1.664195E+05 -4.664154E+04 -7.237786E+03 -8.033370E+04  1.315508E+03  3.143874E+03
        99   1 -8.380737E+04 -1.632479E+04  1.036074E+04 -5.751048E+04  3.440300E+03 -2.519710E+03
        99   2 -6.223969E+04 -4.728267E+03  1.535583E+04 -4.770335E+04  4.315935E+03 -4.182183E+03
        99   3 -3.527400E+04  1.432706E+03  2.018566E+04 -4.412234E+04  5.191058E+03 -5.842913E+03
        99   4 -1.337405E+05 -3.465968E+04 -3.515760E+02 -7.129796E+04  1.282300E+03 -3.329042E+03
        99   5 -1.364393E+05 -3.194086E+04 -4.480069E+02 -6.818531E+04  2.159987E+03 -4.990835E+03
        99   6 -1.337412E+05 -3.465801E+04 -7.112972E+02 -7.129899E+04  3.037156E+03 -6.650893E+03
        99   7 -1.836707E+05 -5.299424E+04 -1.106392E+04 -8.508432E+04 -8.754979E+02 -4.138297E+03
        99   8 -2.106334E+05 -5.915301E+04 -1.625213E+04 -8.866502E+04  4.317165E+00 -5.799383E+03
        99   9 -2.321992E+05 -7.074821E+04 -2.160897E+04 -9.847187E+04  8.836080E+02 -7.458740E+03
        99  10 -8.380739E+04 -1.632480E+04  1.036071E+04 -5.751047E+04 -1.521661E-08 -1.127161E-08
        99  11 -6.223972E+04 -4.728291E+03  1.535576E+04 -4.770334E+04 -2.703349E-08 -1.539515E-08
        99  12 -3.527404E+04  1.432662E+03  2.018554E+04 -4.412232E+04 -3.591434E-08 -1.866838E-08
        99  13 -1.337405E+05 -3.465970E+04 -3.516000E+02 -7.129795E+04  4.482667E-09  1.338108E-08
        99  14 -1.364394E+05 -3.194089E+04 -4.480625E+02 -6.818530E+04 -1.788407E-09 -1.013589E-09
        99  15 -1.337412E+05 -3.465806E+04 -7.113977E+02 -7.129897E+04 -7.425040E-09 -1.836445E-08
        99  16 -1.836707E+05 -5.299426E+04 -1.106395E+04 -8.508432E+04  1.893391E-08  7.453458E-09
        99  17 -2.106334E+05 -5.915304E+04 -1.625220E+04 -8.866502E+04  2.321928E-08  1.356320E-08
        99  18 -2.321992E+05 -7.074827E+04 -2.160908E+04 -9.847186E+04  2.652178E-08  1.253640E-08
        99  19 -8.380737E+04 -1.632479E+04  1.036074E+04 -5.751048E+04 -3.440300E+03  2.519710E+03
        99  20 -6.223969E+04 -4.728267E+03  1.535583E+04 -4.770335E+04 -4.315935E+03  4.182183E+03
        99  21 -3.527400E+04  1.432706E+03  2.018566E+04 -4.412234E+04 -5.191058E+03  5.842913E+03
        99  22 -1.337405E+05 -3.465968E+04 -3.515760E+02 -7.129796E+04 -1.282300E+03  3.329042E+03
        99  23 -1.364393E+05 -3.194086E+04 -4.480069E+02 -6.818531E+04 -2.159987E+03  4.990835E+03
        99  24 -1.337412E+05 -3.465801E+04 -7.112972E+02 -7.129899E+04 -3.037156E+03  6.650893E+03
        99  25 -1.836707E+05 -5.299424E+04 -1.106392E+04 -8.508432E+04  8.754979E+02  4.138297E+03
        99  26 -2.106334E+05 -5.915301E+04 -1.625213E+04 -8.866502E+04 -4.317165E+00  5.799383E+03
        99  27 -2.321992E+05 -7.074821E+04 -2.160897E+04 -9.847187E+04 -8.836080E+02  7.458740E+03
       100   1 -1.803967E+04  7.776240E+03  2.379803E+04 -3.939191E+04  5.713955E+03 -6.806497E+03
       100   2  3.566233E+03  1.937551E+04  2.818571E+04 -2.958494E+04  7.145429E+03 -8.247493E+03
       100   3  3.046735E+04  2.545806E+04  3.197225E+04 -2.600464E+04  8.567118E+03 -9.661631E+03
       100   4 -1.337632E+05 -3.465527E+04 -9.226680E+02 -7.130787E+04  3.554272E+03 -7.616728E+03
       100   5 -1.364128E+05 -3.192303E+04 -1.631657E+03 -6.818390E+04  5.018667E+03 -9.045547E+03
       100   6 -1.337741E+05 -3.471419E+04 -2.967917E+03 -7.128695E+04  6.473240E+03 -1.044751E+04
       100   7 -2.494730E+05 -7.708570E+04 -2.564410E+04 -1.032184E+05  1.395023E+03 -8.426796E+03
       100   8 -2.763713E+05 -8.321980E+04 -3.144997E+04 -1.067747E+05  2.892431E+03 -9.843404E+03
       100   9 -2.979869E+05 -9.488381E+04 -3.790925E+04 -1.165579E+05  4.379974E+03 -1.123317E+04
       100  10 -1.803972E+04  7.776182E+03  2.379788E+04 -3.939188E+04  1.294660E-08  2.114714E-09
       100  11  3.566160E+03  1.937542E+04  2.818549E+04 -2.958490E+04  1.450088E-08  5.207681E-09
       100  12  3.046725E+04  2.545794E+04  3.197194E+04 -2.600458E+04 -3.551922E-09  1.956805E-09
       100  13 -1.337632E+05 -3.465534E+04 -9.228007E+02 -7.130785E+04 -6.503061E-09 -2.123039E-08
       100  14 -1.364128E+05 -3.192313E+04 -1.631859E+03 -6.818387E+04 -1.583433E-09 -1.208364E-08
       100  15 -1.337742E+05 -3.471432E+04 -2.968201E+03 -7.128690E+04 -1.375316E-08 -3.258420E-09
       100  16 -2.494730E+05 -7.708577E+04 -2.564424E+04 -1.032183E+05 -2.915251E-08 -9.534327E-09
       100  17 -2.763713E+05 -8.321991E+04 -3.145016E+04 -1.067747E+05 -1.954689E-08 -9.755984E-09
       100  18 -2.979870E+05 -9.488395E+04 -3.790953E+04 -1.165579E+05 -1.330124E-08 -3.877105E-09
       100  19 -1.803967E+04  7.776240E+03  2.379803E+04 -3.939191E+04 -5.713955E+03  6.806497E+03
       100  20  3.566233E+03  1.937551E+04  2.818571E+04 -2.958494E+04 -7.145429E+03  8.247493E+03
       100  21  3.046735E+04  2.545806E+04  3.197225E+04 -2.600464E+04 -8.567118E+03  9.661631E+03
       100  22 -1.337632E+05 -3.465527E+04 -9.226680E+02 -7.130787E+04 -3.554272E+03  7.616728E+03
       100  23 -1.364128E+05 -3.192303E+04 -1.631657E+03 -6.818390E+04 -5.018667E+03  9.045547E+03
       100  24 -1.337741E+05 -3.471419E+04 -2.967917E+03 -7.128695E+04 -6.473240E+03  1.044751E+04
       100  25 -2.494730E+05 -7.708570E+04 -2.564410E+04 -1.032184E+05 -1.395023E+03  8.426796E+03
       100  26 -2.763713E+05 -8.321980E+04 -3.144997E+04 -1.067747E+05 -2.892431E+03  9.843404E+03
       100  27 -2.979869E+05 -9.488381E+04 -3.790925E+04 -1.165579E+05 -4.379974E+03  1.123317E+04
       101   1  4.778665E+04  3.169642E+04  3.481609E+04 -2.163498E+04  9.618689E+03 -1.044244E+04
       101   2  6.925893E+04  4.358528E+04  3.684840E+04 -1.113013E+04  1.322373E+04 -1.085631E+04
       101   3  9.506403E+04  4.821611E+04  3.614027E+04 -6.458513E+03  1.665354E+04 -1.080183E+04
       101   4 -1.339374E+05 -3.459000E+04 -3.935341E+03 -7.140076E+04  7.414734E+03 -1.126975E+04
       101   5 -1.362054E+05 -3.202185E+04 -7.150063E+03 -6.806493E+04  1.159732E+04 -1.146714E+04
       101   6 -1.342564E+05 -3.682714E+04 -1.356371E+04 -7.056300E+04  1.560452E+04 -1.119615E+04
       101   7 -3.156292E+05 -1.008744E+05 -4.268900E+04 -1.211536E+05  5.211458E+03 -1.209681E+04
       101   8 -3.416277E+05 -1.076258E+05 -5.115116E+04 -1.249826E+05  9.971485E+03 -1.207776E+04
       101   9 -3.635236E+05 -1.218660E+05 -6.327080E+04 -1.346457E+05  1.455592E+04 -1.159031E+04
       101  10  4.778653E+04  3.169628E+04  3.481571E+04 -2.163490E+04 -6.050439E-09  7.078193E-10
       101  11  6.925871E+04  4.358511E+04  3.684785E+04 -1.113002E+04 -6.028072E-09  4.567995E-10
       101  12  9.506371E+04  4.821591E+04  3.613953E+04 -6.458368E+03 -4.070275E-09  1.872828E-10
       101  13 -1.339375E+05 -3.459015E+04 -3.935683E+03 -7.140069E+04 -1.253149E-08 -1.643059E-09
       101  14 -1.362056E+05 -3.202203E+04 -7.150563E+03 -6.806482E+04  4.438594E-10 -5.929293E-10
       101  15 -1.342567E+05 -3.682734E+04 -1.356440E+04 -7.056286E+04  1.393222E-10  1.854401E-09
       101  16 -3.156293E+05 -1.008745E+05 -4.268932E+04 -1.211535E+05 -9.287407E-09 -3.219719E-09
       101  17 -3.416278E+05 -1.076260E+05 -5.115162E+04 -1.249825E+05 -1.339651E-09 -1.962931E-09
       101  18 -3.635238E+05 -1.218662E+05 -6.327145E+04 -1.346455E+05  1.171609E-09  3.014142E-09
       101  19  4.778665E+04  3.169642E+04  3.481609E+04 -2.163498E+04 -9.618689E+03  1.044244E+04
       101  20  6.925893E+04  4.358528E+04  3.684840E+04 -1.113013E+04 -1.322373E+04  1.085631E+04
       101  21  9.506403E+04  4.821611E+04  3.614027E+04 -6.458513E+03 -1.665354E+04  1.080183E+04
       101  22 -1.339374E+05 -3.459000E+04 -3.935341E+03 -7.140076E+04 -7.414734E+03  1.126975E+04
       101  23 -1.362054E+05 -3.202185E+04 -7.150063E+03 -6.806493E+04 -1.159732E+04  1.146714E+04
       101  24 -1.342564E+05 -3.682714E+04 -1.356371E+04 -7.056300E+04 -1.560452E+04  1.119615E+04
       101  25 -3.156292E+05 -1.008744E+05 -4.268900E+04 -1.211536E+05 -5.211458E+03  1.209681E+04
       101  26 -3.416277E+05 -1.076258E+05 -5.115116E+04 -1.249826E+05 -9.971485E+03  1.207776E+04
       101  27 -3.635236E+05 -1.218660E+05 -6.327080E+04 -1.346457E+05 -1.455592E+04  1.159031E+04
       102   1  1.156094E+05  5.245999E+04  3.579166E+04 -9.857764E+03  2.118413E+04 -1.057157E+04
       102   2  1.281577E+05  7.198043E+04  2.901372E+04  2.005212E+04  2.736942E+04 -6.286678E+03
       102   3  1.289378E+05  4.408738E+04  5.530367E+03  5.534004E+04  3.043134E+04  6.316091E+03
       102   4 -1.365056E+05 -3.370627E+04 -1.755986E+04 -7.275533E+04  1.816508E+04 -1.170533E+04
       102   5 -1.335682E+05 -3.709131E+04 -3.235377E+04 -6.489054E+04  3.462646E+04 -3.563068E+03
       102   6 -1.444426E+05 -8.993876E+04 -7.200041E+04 -5.164695E+04  4.796332E+04  1.289807E+04
       102   7 -3.885559E+05 -1.198695E+05 -7.091478E+04 -1.356303E+05  1.514736E+04 -1.283868E+04
       102   8 -3.952216E+05 -1.461512E+05 -9.372492E+04 -1.497976E+05  4.188011E+04 -8.410950E+02
       102   9 -4.177415E+05 -2.239403E+05 -1.495351E+05 -1.585838E+05  6.548651E+04  1.947451E+04
       102  10  1.156089E+05  5.245975E+04  3.579061E+04 -9.857584E+03  4.317232E-09  1.737616E-09
       102  11  1.281569E+05  7.198019E+04  2.901224E+04  2.005226E+04 -3.535074E-09 -5.190058E-10
       102  12  1.289368E+05  4.408709E+04  5.528552E+03  5.533988E+04 -9.277731E-10 -3.923330E-10
       102  13 -1.365060E+05 -3.370650E+04 -1.756073E+04 -7.275516E+04 -4.765968E-09  1.811831E-09
       102  14 -1.335694E+05 -3.709165E+04 -3.235605E+04 -6.489044E+04 -2.962486E-09  1.113808E-09
       102  15 -1.444451E+05 -8.993955E+04 -7.200505E+04 -5.164745E+04 -6.609684E-09  7.376802E-10
       102  16 -3.885562E+05 -1.198697E+05 -7.091553E+04 -1.356301E+05 -5.889592E-09  2.273647E-09
       102  17 -3.952235E+05 -1.461517E+05 -9.372822E+04 -1.497976E+05 -8.024483E-09  2.249601E-09
       102  18 -4.177462E+05 -2.239419E+05 -1.495439E+05 -1.585848E+05  1.496963E-10  5.547416E-10
       102  19  1.156094E+05  5.245999E+04  3.579166E+04 -9.857764E+03 -2.118413E+04  1.057157E+04
       102  20  1.281577E+05  7.198043E+04  2.901372E+04  2.005212E+04 -2.736942E+04  6.286678E+03
       102  21  1.289378E+05  4.408738E+04  5.530367E+03  5.534004E+04 -3.043134E+04 -6.316091E+03
       102  22 -1.365056E+05 -3.370627E+04 -1.755986E+04 -7.275533E+04 -1.816508E+04  1.170533E+04
       102  23 -1.335682E+05 -3.709131E+04 -3.235377E+04 -6.489054E+04 -3.462646E+04  3.563068E+03
       102  24 -1.444426E+05 -8.993876E+04 -7.200041E+04 -5.164695E+04 -4.796332E+04 -1.289807E+04
       102  25 -3.885559E+05 -1.198695E+05 -7.091478E+04 -1.356303E+05 -1.514736E+04  1.283868E+04
       102  26 -3.952216E+05 -1.461512E+05 -9.372492E+04 -1.497976E+05 -4.188011E+04  8.410950E+02
       102  27 -4.177415E+05 -2.239403E+05 -1.495351E+05 -1.585838E+05 -6.548651E+04 -1.947451E+04
       103   1  9.873385E+05  1.655088E+05  1.475191E+05  1.378315E+04  3.707299E+04 -1.273764E+04
       103   2  9.444781E+05  1.867155E+05  1.274072E+05  2.949383E+04  1.355762E+04 -4.373298E+04
       103   3  8.992658E+05  1.860782E+05  1.171551E+05  5.222394E+04 -9.967242E+03 -5.476835E+04
       103   4  8.255471E+04 -5.720565E+04 -6.216811E+04  5.054661E+04 -4.359096E+04 -1.280170E+04
       103   5  8.715744E+04 -1.623294E+04 -3.073655E+04  4.700988E+04 -2.778156E+04 -4.377646E+04
       103   6  8.257571E+04 -3.945975E+03 -1.674198E+04  5.049230E+04 -1.198357E+04 -5.477716E+04
       103   7 -8.214568E+05 -2.799691E+05 -2.718850E+05  8.725601E+04 -1.241383E+05 -1.287535E+04
       103   8 -7.694468E+05 -2.192212E+05 -1.889043E+05  6.450096E+04 -6.906520E+04 -4.382231E+04
       103   9 -7.334548E+05 -1.940044E+05 -1.506583E+05  4.876281E+04 -1.399733E+04 -5.478597E+04
       103  10  9.873370E+05  1.655083E+05  1.475162E+05  1.378353E+04  1.882814E-09 -6.334366E-10
       103  11  9.444774E+05  1.867134E+05  1.274033E+05  2.949430E+04 -3.656358E-10 -3.340037E-09
       103  12  8.992649E+05  1.860750E+05  1.171493E+05  5.222350E+04 -3.473464E-09 -3.721078E-09
       103  13  8.255263E+04 -5.720633E+04 -6.217199E+04  5.054616E+04  2.188800E-09  4.481870E-10
       103  14  8.715610E+04 -1.623521E+04 -3.074160E+04  4.700890E+04  4.313585E-09 -2.097164E-09
       103  15  8.257475E+04 -3.949236E+03 -1.674788E+04  5.049177E+04  4.055541E-09 -1.297492E-09
       103  16 -8.214735E+05 -2.799734E+05 -2.719143E+05  8.725472E+04 -2.066939E-09 -6.521067E-12
       103  17 -7.694525E+05 -2.192245E+05 -1.889169E+05  6.449852E+04  6.432117E-09 -3.365616E-09
       103  18 -7.334558E+05 -1.940076E+05 -1.506643E+05  4.876220E+04  8.423251E-09 -3.449787E-09
       103  19  9.873385E+05  1.655088E+05  1.475191E+05  1.378315E+04 -3.707299E+04  1.273764E+04
       103  20  9.444781E+05  1.867155E+05  1.274072E+05  2.949383E+04 -1.355762E+04  4.373298E+04
       103  21  8.992658E+05  1.860782E+05  1.171551E+05  5.222394E+04  9.967242E+03  5.476835E+04
       103  22  8.255471E+04 -5.720565E+04 -6.216811E+04  5.054661E+04  4.359096E+04  1.280170E+04
       103  23  8.715744E+04 -1.623294E+04 -3.073655E+04  4.700988E+04  2.778156E+04  4.377646E+04
       103  24  8.257571E+04 -3.945975E+03 -1.674198E+04  5.049230E+04  1.198357E+04  5.477716E+04
       103  25 -8.214568E+05 -2.799691E+05 -2.718850E+05  8.725601E+04  1.241383E+05  1.287535E+04
       103  26 -7.694468E+05 -2.192212E+05 -1.889043E+05  6.450096E+04  6.906520E+04  4.382231E+04
       103  27 -7.334548E+05 -1.940044E+05 -1.506583E+05  4.876281E+04  1.399733E+04  5.478597E+04
       104   1  8.721749E+05  1.793403E+05  1.141110E+05  4.979084E+04 -7.073847E+03 -5.471766E+04
       104   2  8.284284E+05  1.709008E+05  1.083992E+05  4.663872E+04 -7.912981E+03 -5.502510E+04
       104   3  7.845094E+05  1.612525E+05  1.029387E+05  5.188827E+04 -8.755489E+03 -5.315352E+04
       104   4  8.442085E+04 -3.461941E+03 -1.261893E+04  5.080399E+04 -9.814911E+03 -5.472732E+04
       104   5  8.489086E+04 -7.828818E+02 -6.896300E+03  4.660052E+04 -6.364153E+03 -5.502946E+04
       104   6  8.444213E+04 -5.777475E+01 -3.900899E+03  5.079939E+04 -2.916746E+03 -5.315124E+04
       104   7 -7.027176E+05 -1.862954E+05 -1.393655E+05  5.181562E+04 -1.255262E+04 -5.473700E+04
       104   8 -6.580951E+05 -1.724935E+05 -1.222045E+05  4.656219E+04 -4.817104E+03 -5.503382E+04
       104   9 -6.151349E+05 -1.613916E+05 -1.107509E+05  4.971161E+04  2.915677E+03 -5.314897E+04
       104  10  8.721741E+05  1.793371E+05  1.141053E+05  4.979053E+04 -6.590778E-08 -4.818173E-09
       104  11  8.284275E+05  1.708975E+05  1.083934E+05  4.663837E+04  2.361451E-10 -2.448066E-09
       104  12  7.845086E+05  1.612495E+05  1.029332E+05  5.188790E+04  6.360160E-08 -2.362044E-09
       104  13  8.441994E+04 -3.465183E+03 -1.262474E+04  5.080356E+04 -2.147565E-09 -3.321004E-09
       104  14  8.489000E+04 -7.861445E+02 -6.902067E+03  4.660024E+04 -4.340212E-09 -3.296530E-09
       104  15  8.444136E+04 -6.081076E+01 -3.906224E+03  5.079927E+04  1.790336E-09 -4.467297E-09
       104  16 -7.027186E+05 -1.862987E+05 -1.393714E+05  5.181507E+04  6.637545E-08 -1.394515E-09
       104  17 -6.580959E+05 -1.724967E+05 -1.222103E+05  4.656197E+04  5.108413E-09 -2.275242E-09
       104  18 -6.151356E+05 -1.613946E+05 -1.107562E+05  4.971173E+04 -6.802680E-08 -2.464253E-09
       104  19  8.721749E+05  1.793403E+05  1.141110E+05  4.979084E+04  7.073847E+03  5.471766E+04
       104  20  8.284284E+05  1.709008E+05  1.083992E+05  4.663872E+04  7.912981E+03  5.502510E+04
       104  21  7.845094E+05  1.612525E+05  1.029387E+05  5.188827E+04  8.755489E+03  5.315352E+04
       104  22  8.442085E+04 -3.461941E+03 -1.261893E+04  5.080399E+04  9.814911E+03  5.472732E+04
       104  23  8.489086E+04 -7.828818E+02 -6.896300E+03  4.660052E+04  6.364153E+03  5.502946E+04
       104  24  8.444213E+04 -5.777475E+01 -3.900899E+03  5.079939E+04  2.916746E+03  5.315124E+04
       104  25 -7.027176E+05 -1.862954E+05 -1.393655E+05  5.181562E+04  1.255262E+04  5.473700E+04
       104  26 -6.580951E+05 -1.724935E+05 -1.222045E+05  4.656219E+04  4.817104E+03  5.503382E+04
       104  27 -6.151349E+05 -1.613916E+05 -1.107509E+05  4.971161E+04 -2.915677E+03  5.314897E+04
       105   1  7.568174E+05  1.547624E+05  9.922376E+04  5.167711E+04 -8.085882E+03 -5.135804E+04
       105   2  7.130513E+05  1.447303E+05  9.345162E+04  4.739247E+04 -7.726533E+03 -4.831668E+04
       105   3  6.692361E+05  1.346812E+05  8.744203E+04  5.165333E+04 -7.368835E+03 -4.503788E+04
       105   4  8.462412E+04 -4.507517E+01 -2.953372E+03  5.083179E+04 -2.327518E+03 -5.135510E+04
       105   5  8.469950E+04  9.396012E+01 -1.671684E+03  4.655864E+04 -1.501384E+03 -4.831183E+04
       105   6  8.464261E+04  1.350674E+02 -9.519060E+02  5.083150E+04 -6.768776E+02 -4.503101E+04
       105   7 -5.871168E+05 -1.548742E+05 -1.051399E+05  4.998724E+04  3.424863E+03 -5.135217E+04
       105   8 -5.432568E+05 -1.445612E+05 -9.680299E+04  4.572553E+04  4.717719E+03 -4.830700E+04
       105   9 -4.996084E+05 -1.344274E+05 -8.935268E+04  5.001033E+04  6.009033E+03 -4.502415E+04
       105  10  7.568166E+05  1.547595E+05  9.921868E+04  5.167677E+04 -1.350138E-09  2.586903E-10
       105  11  7.130507E+05  1.447277E+05  9.344712E+04  4.739216E+04  8.728655E-09  4.006365E-09
       105  12  6.692355E+05  1.346790E+05  8.743812E+04  5.165306E+04  5.105046E-09  2.860361E-09
       105  13  8.462341E+04 -4.790878E+01 -2.958338E+03  5.083169E+04 -6.520001E-09 -3.436900E-09
       105  14  8.469887E+04  9.145308E+01 -1.676075E+03  4.655858E+04 -2.155422E-09  2.733152E-09
       105  15  8.464207E+04  1.328897E+02 -9.557177E+02  5.083147E+04  2.137123E-09  4.882736E-09
       105  16 -5.871176E+05 -1.548770E+05 -1.051449E+05  4.998738E+04  4.540247E-09 -1.226601E-10
       105  17 -5.432575E+05 -1.445637E+05 -9.680741E+04  4.572571E+04  1.994711E-09  2.606000E-09
       105  18 -4.996090E+05 -1.344296E+05 -8.935656E+04  5.001054E+04 -7.432565E-09  9.555289E-10
       105  19  7.568174E+05  1.547624E+05  9.922376E+04  5.167711E+04  8.085882E+03  5.135804E+04
       105  20  7.130513E+05  1.447303E+05  9.345162E+04  4.739247E+04  7.726533E+03  4.831668E+04
       105  21  6.692361E+05  1.346812E+05  8.744203E+04  5.165333E+04  7.368835E+03  4.503788E+04
       105  22  8.462412E+04 -4.507517E+01 -2.953372E+03  5.083179E+04  2.327518E+03  5.135510E+04
       105  23  8.469950E+04  9.396012E+01 -1.671684E+03  4.655864E+04  1.501384E+03  4.831183E+04
       105  24  8.464261E+04  1.350674E+02 -9.519060E+02  5.083150E+04  6.768776E+02  4.503101E+04
       105  25 -5.871168E+05 -1.548742E+05 -1.051399E+05  4.998724E+04 -3.424863E+03  5.135217E+04
       105  26 -5.432568E+05 -1.445612E+05 -9.680299E+04  4.572553E+04 -4.717719E+03  4.830700E+04
       105  27 -4.996084E+05 -1.344274E+05 -8.935268E+04  5.001033E+04 -6.009033E+03  4.502415E+04
       106   1  6.415199E+05  1.282605E+05  8.328763E+04  5.161253E+04 -7.211179E+03 -4.305300E+04
       106   2  5.977637E+05  1.181922E+05  7.702897E+04  4.728793E+04 -7.065571E+03 -3.964759E+04
       106   3  5.539843E+05  1.081596E+05  7.068028E+04  5.151974E+04 -6.921117E+03 -3.621664E+04
       106   4  8.467036E+04  1.363038E+02 -7.189951E+02  5.083395E+04 -5.288363E+02 -4.304543E+04
       106   5  8.469515E+04  1.323458E+02 -4.040503E+02  4.655553E+04 -3.333637E+02 -3.963884E+04
       106   6  8.468551E+04  1.553725E+02 -2.141585E+02  5.083393E+04 -1.390351E+02 -3.620671E+04
       106   7 -4.718683E+05 -1.280026E+05 -8.473173E+04  5.005595E+04  6.147755E+03 -4.303787E+04
       106   8 -4.281095E+05 -1.179400E+05 -7.784224E+04  4.582364E+04  6.393505E+03 -3.963011E+04
       106   9 -3.843925E+05 -1.078593E+05 -7.111292E+04  5.014856E+04  6.638127E+03 -3.619679E+04
       106  10  6.415193E+05  1.282585E+05  8.328404E+04  5.161228E+04  5.102227E-09  2.184709E-09
       106  11  5.977632E+05  1.181905E+05  7.702592E+04  4.728770E+04 -5.183802E-09  5.740526E-09
       106  12  5.539839E+05  1.081581E+05  7.067772E+04  5.151954E+04 -2.079371E-09  3.779723E-09
       106  13  8.466986E+04  1.343140E+02 -7.224777E+02  5.083393E+04 -2.154270E-09  1.773276E-09
       106  14  8.469473E+04  1.306584E+02 -4.070033E+02  4.655552E+04  6.090906E-11  5.521133E-09
       106  15  8.468515E+04  1.539647E+02 -2.166221E+02  5.083393E+04 -7.078382E-09  1.103014E-09
       106  16 -4.718689E+05 -1.280046E+05 -8.473528E+04  5.005617E+04 -5.431086E-09  1.028616E-09
       106  17 -4.281099E+05 -1.179417E+05 -7.784527E+04  4.582384E+04  3.305939E-10  1.900257E-09
       106  18 -3.843929E+05 -1.078607E+05 -7.111546E+04  5.014875E+04 -3.130670E-09  7.812163E-10
       106  19  6.415199E+05  1.282605E+05  8.328763E+04  5.161253E+04  7.211179E+03  4.305300E+04
       106  20  5.977637E+05  1.181922E+05  7.702897E+04  4.728793E+04  7.065571E+03  3.964759E+04
       106  21  5.539843E+05  1.081596E+05  7.068028E+04  5.151974E+04  6.921117E+03  3.621664E+04
       106  22  8.467036E+04  1.363038E+02 -7.189951E+02  5.083395E+04  5.288363E+02  4.304543E+04
       106  23  8.469515E+04  1.323458E+02 -4.040503E+02  4.655553E+04  3.333637E+02  3.963884E+04
       106  24  8.468551E+04  1.553725E+02 -2.141585E+02  5.083393E+04  1.390351E+02  3.620671E+04
       106  25 -4.718683E+05 -1.280026E+05 -8.473173E+04  5.005595E+04 -6.147755E+03  4.303787E+04
       106  26 -4.281095E+05 -1.179400E+05 -7.784224E+04  4.582364E+04 -6.393505E+03  3.963011E+04
       106  27 -3.843925E+05 -1.078593E+05 -7.111292E+04  5.014856E+04 -6.638127E+03  3.619679E+04
       107   1  5.262726E+05  1.017524E+05  6.638911E+04  5.149003E+04 -6.889339E+03 -3.421171E+04
       107   2  4.825326E+05  9.169336E+04  5.997005E+04  4.716141E+04 -6.875144E+03 -3.076762E+04
       107   3  4.387732E+05  8.167097E+04  5.354257E+04  5.139225E+04 -6.861810E+03 -2.732122E+04
       107   4  8.469318E+04  1.597511E+02 -1.490446E+02  5.083459E+04 -1.089952E+02 -3.420121E+04
       107   5  8.470979E+04  1.506688E+02 -4.875635E+01  4.655470E+04 -9.043842E+01 -3.075626E+04
       107   6  8.470493E+04  1.776680E+02  4.014423E+01  5.083457E+04 -7.274135E+01 -2.730900E+04
       107   7 -3.566907E+05 -1.014421E+05 -6.669095E+04  5.017954E+04  6.666720E+03 -3.419072E+04
       107   8 -3.129543E+05 -9.139953E+04 -6.007060E+04  4.594831E+04  6.690094E+03 -3.074491E+04
       107   9 -2.692376E+05 -8.132158E+04 -5.346467E+04  5.027717E+04  6.712610E+03 -2.729679E+04
       107  10  5.262722E+05  1.017511E+05  6.638682E+04  5.148984E+04  5.847736E-09  4.436669E-10
       107  11  4.825323E+05  9.169234E+04  5.996818E+04  4.716124E+04  1.019755E-09  3.483984E-10
       107  12  4.387729E+05  8.167016E+04  5.354108E+04  5.139210E+04 -8.201237E-09  2.458235E-09
       107  13  8.469287E+04  1.584950E+02 -1.512428E+02  5.083459E+04 -2.095978E-09  5.601028E-09
       107  14  8.470953E+04  1.496530E+02 -5.053406E+01  4.655470E+04 -2.124657E-09  1.473244E-09
       107  15  8.470473E+04  1.768672E+02  3.874270E+01  5.083457E+04 -2.770834E-09 -1.272418E-10
       107  16 -3.566910E+05 -1.014434E+05 -6.669323E+04  5.017972E+04 -7.359252E-09  2.981806E-09
       107  17 -3.129546E+05 -9.140056E+04 -6.007246E+04  4.594848E+04 -1.198566E-09 -6.395336E-10
       107  18 -2.692379E+05 -8.132240E+04 -5.346615E+04  5.027731E+04  8.049694E-09 -1.843347E-09
       107  19  5.262726E+05  1.017524E+05  6.638911E+04  5.149003E+04  6.889339E+03  3.421171E+04
       107  20  4.825326E+05  9.169336E+04  5.997005E+04  4.716141E+04  6.875144E+03  3.076762E+04
       107  21  4.387732E+05  8.167097E+04  5.354257E+04  5.139225E+04  6.861810E+03  2.732122E+04
       107  22  8.469318E+04  1.597511E+02 -1.490446E+02  5.083459E+04  1.089952E+02  3.420121E+04
       107  23  8.470979E+04  1.506688E+02 -4.875635E+01  4.655470E+04  9.043842E+01  3.075626E+04
       107  24  8.470493E+04  1.776680E+02  4.014423E+01  5.083457E+04  7.274135E+01  2.730900E+04
       107  25 -3.566907E+05 -1.014421E+05 -6.669095E+04  5.017954E+04 -6.666720E+03  3.419072E+04
       107  26 -3.129543E+05 -9.139953E+04 -6.007060E+04  4.594831E+04 -6.690094E+03  3.074491E+04
       107  27 -2.692376E+05 -8.132158E+04 -5.346467E+04  5.027717E+04 -6.712610E+03  2.729679E+04
       108   1  4.110730E+05  7.526577E+04  4.923668E+04  5.135904E+04 -6.876013E+03 -2.531467E+04
       108   2  3.673410E+05  6.520995E+04  4.284012E+04  4.702118E+04 -6.980350E+03 -2.186797E+04
       108   3  3.236007E+05  5.520768E+04  3.651386E+04  5.123928E+04 -7.085285E+03 -1.842259E+04
       108   4  8.471111E+04  1.813348E+02  8.614199E+01  5.083378E+04 -8.760967E+01 -2.530202E+04
       108   5  8.472017E+04  1.724485E+02  2.030791E+02  4.655567E+04 -1.947229E+02 -2.185472E+04
       108   6  8.471945E+04  2.176379E+02  3.921266E+02  5.083372E+04 -3.024416E+02 -1.840875E+04
       108   7 -2.415439E+05 -7.490813E+04 -4.906636E+04  5.030876E+04  6.697369E+03 -2.528938E+04
       108   8 -1.978205E+05 -6.486883E+04 -4.243541E+04  4.609033E+04  6.587939E+03 -2.184148E+04
       108   9 -1.541045E+05 -5.477510E+04 -3.573060E+04  5.042830E+04  6.477897E+03 -1.839491E+04
       108  10  4.110728E+05  7.526507E+04  4.923539E+04  5.135890E+04 -3.758053E-09  5.059716E-09
       108  11  3.673408E+05  6.520943E+04  4.283913E+04  4.702106E+04 -5.205513E-09 -1.035857E-09
       108  12  3.236006E+05  5.520730E+04  3.651313E+04  5.123917E+04 -9.613682E-09  4.655330E-10
       108  13  8.471093E+04  1.806474E+02  8.493888E+01  5.083378E+04  4.305341E-09  1.124585E-09
       108  14  8.472004E+04  1.719355E+02  2.021814E+02  4.655566E+04 -2.153954E-09  1.301134E-09
       108  15  8.471936E+04  2.172740E+02  3.914896E+02  5.083372E+04  5.043452E-09  2.062493E-09
       108  16 -2.415441E+05 -7.490883E+04 -4.906765E+04  5.030889E+04  4.572915E-09  1.177756E-09
       108  17 -1.978207E+05 -6.486936E+04 -4.243639E+04  4.609045E+04  9.967622E-09 -3.885413E-09
       108  18 -1.541047E+05 -5.477548E+04 -3.573132E+04  5.042840E+04  7.825090E-09  8.246717E-10
       108  19  4.110730E+05  7.526577E+04  4.923668E+04  5.135904E+04  6.876013E+03  2.531467E+04
       108  20  3.673410E+05  6.520995E+04  4.284012E+04  4.702118E+04  6.980350E+03  2.186797E+04
       108  21  3.236007E+05  5.520768E+04  3.651386E+04  5.123928E+04  7.085285E+03  1.842259E+04
       108  22  8.471111E+04  1.813348E+02  8.614199E+01  5.083378E+04  8.760967E+01  2.530202E+04
       108  23  8.472017E+04  1.724485E+02  2.030791E+02  4.655567E+04  1.947229E+02  2.185472E+04
       108  24  8.471945E+04  2.176379E+02  3.921266E+02  5.083372E+04  3.024416E+02  1.840875E+04
       108  25 -2.415439E+05 -7.490813E+04 -4.906636E+04  5.030876E+04 -6.697369E+03  2.528938E+04
       108  26 -1.978205E+05 -6.486883E+04 -4.243541E+04  4.609033E+04 -6.587939E+03  2.184148E+04
       108  27 -1.541045E+05 -5.477510E+04 -3.573060E+04  5.042830E+04 -6.477897E+03  1.839491E+04
       109   1  2.959287E+05  4.880342E+04  3.229561E+04  5.123002E+04 -7.168363E+03 -1.641729E+04
       109   2  2.521561E+05  3.883741E+04  2.619002E+04  4.674249E+04 -7.621570E+03 -1.297933E+04
       109   3  2.084784E+05  2.917763E+04  2.044328E+04  5.080768E+04 -8.075076E+03 -9.553980E+03
       109   4  8.474545E+04  2.212912E+02  5.261097E+02  5.083310E+04 -3.855026E+02 -1.640316E+04
       109   5  8.469962E+04  3.030601E+02  9.424721E+02  4.655618E+04 -8.636997E+02 -1.296490E+04
       109   6  8.475036E+04  6.952994E+02  1.734742E+03  5.083209E+04 -1.342224E+03 -9.539247E+03
       109   7 -1.263930E+05 -4.836293E+04 -3.124411E+04  5.043629E+04  6.395143E+03 -1.638904E+04
       109   8 -8.272866E+04 -3.823260E+04 -2.430547E+04  4.636990E+04  5.892421E+03 -1.295047E+04
       109   9 -3.896223E+04 -2.778774E+04 -1.697394E+04  5.085649E+04  5.389340E+03 -9.524512E+03
       109  10  2.959286E+05  4.880311E+04  3.229500E+04  5.122993E+04 -1.136879E-08  5.278560E-09
       109  11  2.521560E+05  3.883722E+04  2.618960E+04  4.674241E+04 -2.972236E-08  2.426264E-09
       109  12  2.084783E+05  2.917752E+04  2.044298E+04  5.080762E+04 -5.426475E-08  6.188281E-09
       109  13  8.474537E+04  2.210022E+02  5.256038E+02  5.083309E+04  4.305555E-09  2.250797E-09
       109  14  8.469957E+04  3.028794E+02  9.421548E+02  4.655617E+04 -2.177045E-09 -2.332370E-09
       109  15  8.475033E+04  6.952012E+02  1.734568E+03  5.083208E+04 -3.383708E-09 -1.394889E-08
       109  16 -1.263931E+05 -4.836323E+04 -3.124469E+04  5.043638E+04  8.976729E-09  5.086255E-09
       109  17 -8.272874E+04 -3.823279E+04 -2.430585E+04  4.636997E+04  3.377912E-08  6.720165E-09
       109  18 -3.896229E+04 -2.778784E+04 -1.697416E+04  5.085654E+04  5.225809E-08  1.741656E-09
       109  19  2.959287E+05  4.880342E+04  3.229561E+04  5.123002E+04  7.168363E+03  1.641729E+04
       109  20  2.521561E+05  3.883741E+04  2.619002E+04  4.674249E+04  7.621570E+03  1.297933E+04
       109  21  2.084784E+05  2.917763E+04  2.044328E+04  5.080768E+04  8.075076E+03  9.553980E+03
       109  22  8.474545E+04  2.212912E+02  5.261097E+02  5.083310E+04  3.855026E+02  1.640316E+04
       109  23  8.469962E+04  3.030601E+02  9.424721E+02  4.655618E+04  8.636997E+02  1.296490E+04
       109  24  8.475036E+04  6.952994E+02  1.734742E+03  5.083209E+04  1.342224E+03  9.539247E+03
       109  25 -1.263930E+05 -4.836293E+04 -3.124411E+04  5.043629E+04 -6.395143E+03  1.638904E+04
       109  26 -8.272866E+04 -3.823260E+04 -2.430547E+04  4.636990E+04 -5.892421E+03  1.295047E+04
       109  27 -3.896223E+04 -2.778774E+04 -1.697394E+04  5.085649E+04 -5.389340E+03  9.524512E+03
       110   1  1.810331E+05  2.283429E+04  1.664593E+04  5.114128E+04 -8.381407E+03 -7.559255E+03
       110   2  1.367250E+05  1.443517E+04  1.196189E+04  4.414339E+04 -1.033471E+04 -4.198413E+03
       110   3  9.361650E+04  9.996122E+03  9.525591E+03  4.568526E+04 -1.228779E+04 -9.519748E+02
       110   4  8.500501E+04  7.620469E+02  2.303696E+03  5.083081E+04 -1.644737E+03 -7.544370E+03
       110   5  8.438702E+04  2.435896E+03  4.231316E+03  4.655297E+04 -3.823320E+03 -4.183962E+03
       110   6  8.500628E+04  8.109252E+03  8.563168E+03  5.081476E+04 -6.001807E+03 -9.379806E+02
       110   7 -1.101367E+04 -2.131061E+04 -1.203854E+04  5.052038E+04  5.090934E+03 -7.529490E+03
       110   8  3.205191E+04 -9.563457E+03 -3.499143E+03  4.896232E+04  2.687541E+03 -4.169460E+03
       110   9  7.639628E+04  6.222499E+03  7.600908E+03  5.594419E+04  2.840966E+02 -9.238824E+02
       110  10  1.810330E+05  2.283421E+04  1.664569E+04  5.114123E+04  6.178599E-08  5.365351E-09
       110  11  1.367249E+05  1.443512E+04  1.196166E+04  4.414336E+04  4.091658E-08 -6.420522E-10
       110  12  9.361633E+04  9.996081E+03  9.525306E+03  4.568525E+04 -7.651351E-10 -5.103566E-10
       110  13  8.500499E+04  7.619851E+02  2.303584E+03  5.083080E+04 -5.929587E-12 -1.017638E-08
       110  14  8.438700E+04  2.435873E+03  4.231256E+03  4.655295E+04 -2.222185E-09 -1.340528E-08
       110  15  8.500624E+04  8.109242E+03  8.563098E+03  5.081476E+04 -2.999962E-09  6.676731E-10
       110  16 -1.101372E+04 -2.131068E+04 -1.203870E+04  5.052041E+04 -6.105818E-08  4.018066E-09
       110  17  3.205189E+04 -9.563477E+03 -3.499190E+03  4.896233E+04 -3.517820E-08  2.666674E-09
       110  18  7.639628E+04  6.222499E+03  7.600906E+03  5.594419E+04  5.158811E-10 -7.114490E-10
       110  19  1.810331E+05  2.283429E+04  1.664593E+04  5.114128E+04  8.381407E+03  7.559255E+03
       110  20  1.367250E+05  1.443517E+04  1.196189E+04  4.414339E+04  1.033471E+04  4.198413E+03
       110  21  9.361650E+04  9.996122E+03  9.525591E+03  4.568526E+04  1.228779E+04  9.519748E+02
       110  22  8.500501E+04  7.620469E+02  2.303696E+03  5.083081E+04  1.644737E+03  7.544370E+03
       110  23  8.438702E+04  2.435896E+03  4.231316E+03  4.655297E+04  3.823320E+03  4.183962E+03
       110  24  8.500628E+04  8.109252E+03  8.563168E+03  5.081476E+04  6.001807E+03  9.379806E+02
       110  25 -1.101367E+04 -2.131061E+04 -1.203854E+04  5.052038E+04 -5.090934E+03  7.529490E+03
       110  26  3.205191E+04 -9.563457E+03 -3.499143E+03  4.896232E+04 -2.687541E+03  4.169460E+03
       110  27  7.639628E+04  6.222499E+03  7.600908E+03  5.594419E+04 -2.840966E+02  9.238824E+02
       111   1  4.097901E+03  4.010686E+05  5.193707E+03 -2.051908E+04 -3.550257E+02  1.016077E+03
       111   2 -5.073864E+03  3.794351E+05 -9.887090E+02 -1.590012E+04 -1.635159E+03 -9.431542E+02
       111   3 -1.071789E+04  3.589284E+05 -5.016949E+03 -1.735096E+04 -3.014456E+03 -2.902391E+03
       111   4  4.712926E+03  4.037931E+05  5.569117E+03 -1.775104E+04 -3.561793E+02  2.643044E+03
       111   5  5.918361E+02  4.032414E+05  3.554026E+03 -1.471779E+04 -1.636393E+03  8.147194E+02
       111   6 -2.419297E+01  4.037935E+05  3.602329E+03 -1.775430E+04 -3.015760E+03 -1.013670E+03
       111   7  5.327982E+03  4.065177E+05  5.944541E+03 -1.498298E+04 -3.573183E+02  4.270018E+03
       111   8  6.257510E+03  4.270482E+05  8.096749E+03 -1.353542E+04 -1.637621E+03  2.572659E+03
       111   9  1.066939E+04  4.486606E+05  1.222153E+04 -1.815766E+04 -3.017066E+03  8.751844E+02
       111  10  4.097900E+03  4.010686E+05  5.193705E+03 -2.051908E+04  5.232501E-09 -4.326550E-08
       111  11 -5.073867E+03  3.794351E+05 -9.887157E+02 -1.590012E+04  5.889373E-09  3.896759E-10
       111  12 -1.071790E+04  3.589284E+05 -5.016982E+03 -1.735097E+04  4.608632E-09  4.800998E-08
       111  13  4.712924E+03  4.037931E+05  5.569104E+03 -1.775104E+04  4.328039E-09 -7.828358E-10
       111  14  5.918330E+02  4.032414E+05  3.554020E+03 -1.471779E+04  4.423695E-09  6.270278E-10
       111  15 -2.420302E+01  4.037935E+05  3.602310E+03 -1.775430E+04 -3.183804E-09 -5.036752E-10
       111  16  5.327977E+03  4.065177E+05  5.944506E+03 -1.498298E+04 -4.529145E-09  4.261686E-08
       111  17  6.257505E+03  4.270482E+05  8.096731E+03 -1.353541E+04  7.878773E-10 -2.013558E-09
       111  18  1.066938E+04  4.486606E+05  1.222151E+04 -1.815766E+04 -3.907419E-09 -4.726332E-08
       111  19  4.097901E+03  4.010686E+05  5.193707E+03 -2.051908E+04  3.550257E+02 -1.016077E+03
       111  20 -5.073864E+03  3.794351E+05 -9.887090E+02 -1.590012E+04  1.635159E+03  9.431542E+02
       111  21 -1.071789E+04  3.589284E+05 -5.016949E+03 -1.735096E+04  3.014456E+03  2.902391E+03
       111  22  4.712926E+03  4.037931E+05  5.569117E+03 -1.775104E+04  3.561793E+02 -2.643044E+03
       111  23  5.918361E+02  4.032414E+05  3.554026E+03 -1.471779E+04  1.636393E+03 -8.147194E+02
       111  24 -2.419297E+01  4.037935E+05  3.602329E+03 -1.775430E+04  3.015760E+03  1.013670E+03
       111  25  5.327982E+03  4.065177E+05  5.944541E+03 -1.498298E+04  3.573183E+02 -4.270018E+03
       111  26  6.257510E+03  4.270482E+05  8.096749E+03 -1.353542E+04  1.637621E+03 -2.572659E+03
       111  27  1.066939E+04  4.486606E+05  1.222153E+04 -1.815766E+04  3.017066E+03 -8.751844E+02
       112   1 -1.408275E+04  3.441903E+05 -7.477333E+03 -1.812524E+04 -3.868006E+03 -3.576607E+03
       112   2 -1.912522E+04  3.227560E+05 -9.713657E+03 -1.460948E+04 -5.193460E+03 -6.216560E+03
       112   3 -2.274846E+04  3.020117E+05 -9.879343E+03 -1.716148E+04 -6.266542E+03 -8.856181E+03
       112   4  1.259819E+02  4.037139E+05  4.070923E+03 -1.775342E+04 -3.869310E+03 -1.657421E+03
       112   5  1.192180E+02  4.033393E+05  5.957182E+03 -1.471907E+04 -5.194471E+03 -4.631010E+03
       112   6  1.589456E+03  4.037120E+05  1.014543E+04 -1.775242E+04 -6.267273E+03 -7.604354E+03
       112   7  1.433451E+04  4.632409E+05  1.561903E+04 -1.738157E+04 -3.870611E+03  2.619446E+02
       112   8  1.936327E+04  4.839288E+05  2.162772E+04 -1.482868E+04 -5.195482E+03 -3.045259E+03
       112   9  2.592675E+04  5.054223E+05  3.016971E+04 -1.834346E+04 -6.268006E+03 -6.352325E+03
       112  10 -1.408277E+04  3.441903E+05 -7.477385E+03 -1.812525E+04 -1.418563E-09  2.584764E-09
       112  11 -1.912526E+04  3.227559E+05 -9.713780E+03 -1.460950E+04  6.536405E-10  3.750146E-09
       112  12 -2.274853E+04  3.020116E+05 -9.879564E+03 -1.716153E+04 -2.221438E-09  8.754891E-09
       112  13  1.259651E+02  4.037139E+05  4.070890E+03 -1.775343E+04 -2.401924E-09 -7.126432E-10
       112  14  1.191833E+02  4.033392E+05  5.957091E+03 -1.471909E+04  1.052262E-09  5.401766E-10
       112  15  1.589398E+03  4.037120E+05  1.014525E+04 -1.775246E+04 -2.209184E-09 -4.390419E-10
       112  16  1.433449E+04  4.632409E+05  1.561900E+04 -1.738157E+04 -2.508012E-09 -3.258562E-09
       112  17  1.936324E+04  4.839288E+05  2.162765E+04 -1.482869E+04 -3.556450E-09 -5.545337E-09
       112  18  2.592670E+04  5.054222E+05  3.016956E+04 -1.834349E+04 -1.586582E-09 -8.099837E-09
       112  19 -1.408275E+04  3.441903E+05 -7.477333E+03 -1.812524E+04  3.868006E+03  3.576607E+03
       112  20 -1.912522E+04  3.227560E+05 -9.713657E+03 -1.460948E+04  5.193460E+03  6.216560E+03
       112  21 -2.274846E+04  3.020117E+05 -9.879343E+03 -1.716148E+04  6.266542E+03  8.856181E+03
       112  22  1.259819E+02  4.037139E+05  4.070923E+03 -1.775342E+04  3.869310E+03  1.657421E+03
       112  23  1.192180E+02  4.033393E+05  5.957182E+03 -1.471907E+04  5.194471E+03  4.631010E+03
       112  24  1.589456E+03  4.037120E+05  1.014543E+04 -1.775242E+04  6.267273E+03  7.604354E+03
       112  25  1.433451E+04  4.632409E+05  1.561903E+04 -1.738157E+04  3.870611E+03 -2.619446E+02
       112  26  1.936327E+04  4.839288E+05  2.162772E+04 -1.482868E+04  5.195482E+03  3.045259E+03
       112  27  2.592675E+04  5.054223E+05  3.016971E+04 -1.834346E+04  6.268006E+03  6.352325E+03
       113   1 -2.845738E+04  2.890648E+05 -1.001779E+04 -2.206335E+04 -7.169864E+03 -1.145574E+04
       113   2 -2.786763E+04  2.637980E+05 -5.797054E+03 -4.992059E+03 -6.699456E+03 -1.785469E+04
       113   3  2.390762E+03  2.467769E+05  1.000523E+04  6.244373E+03 -2.100265E+03 -2.425095E+04
       113   4 -5.783774E+02  4.055882E+05  1.293217E+04 -1.770570E+04 -7.171189E+03 -9.347338E+03
       113   5  5.278670E+03  4.009888E+05  2.272429E+04 -1.477574E+04 -6.697029E+03 -2.120043E+04
       113   6  4.174640E+04  4.055782E+05  4.788193E+04 -1.768009E+04 -2.094209E+03 -3.305109E+04
       113   7  2.729987E+04  5.221247E+05  3.588150E+04 -1.334721E+04 -7.172484E+03 -7.238551E+03
       113   8  3.842414E+04  5.381976E+05  5.124469E+04 -2.456161E+04 -6.694498E+03 -2.454690E+04
       113   9  8.110241E+04  5.644040E+05  8.575745E+04 -4.161069E+04 -2.087477E+03 -4.185347E+04
       113  10 -2.845747E+04  2.890646E+05 -1.001813E+04 -2.206342E+04  2.224321E-09  1.295942E-09
       113  11 -2.786777E+04  2.637976E+05 -5.797737E+03 -4.992155E+03  3.933119E-09  1.496870E-11
       113  12  2.390600E+03  2.467763E+05  1.000412E+04  6.244332E+03 -2.429366E-09  1.648096E-09
       113  13 -5.784561E+02  4.055881E+05  1.293191E+04 -1.770575E+04  4.571499E-13 -6.318504E-10
       113  14  5.278502E+03  4.009883E+05  2.272336E+04 -1.477585E+04 -3.436330E-09  7.000559E-10
       113  15  4.174610E+04  4.055770E+05  4.787987E+04 -1.768014E+04 -3.936394E-09 -4.418902E-10
       113  16  2.729980E+04  5.221247E+05  3.588130E+04 -1.334725E+04 -4.203699E-10 -1.991067E-09
       113  17  3.842393E+04  5.381970E+05  5.124347E+04 -2.456174E+04  1.161092E-09 -1.309598E-09
       113  18  8.110193E+04  5.644021E+05  8.575416E+04 -4.161076E+04  2.447041E-09 -1.095082E-09
       113  19 -2.845738E+04  2.890648E+05 -1.001779E+04 -2.206335E+04  7.169864E+03  1.145574E+04
       113  20 -2.786763E+04  2.637980E+05 -5.797054E+03 -4.992059E+03  6.699456E+03  1.785469E+04
       113  21  2.390762E+03  2.467769E+05  1.000523E+04  6.244373E+03  2.100265E+03  2.425095E+04
       113  22 -5.783774E+02  4.055882E+05  1.293217E+04 -1.770570E+04  7.171189E+03  9.347338E+03
       113  23  5.278670E+03  4.009888E+05  2.272429E+04 -1.477574E+04  6.697029E+03  2.120043E+04
       113  24  4.174640E+04  4.055782E+05  4.788193E+04 -1.768009E+04  2.094209E+03  3.305109E+04
       113  25  2.729987E+04  5.221247E+05  3.588150E+04 -1.334721E+04  7.172484E+03  7.238551E+03
       113  26  3.842414E+04  5.381976E+05  5.124469E+04 -2.456161E+04  6.694498E+03  2.454690E+04
       113  27  8.110241E+04  5.644040E+05  8.575745E+04 -4.161069E+04  2.087477E+03  4.185347E+04
       114   1  1.122182E+06  4.086111E+05  2.131011E+05  4.130352E+05  8.206821E+04  1.761977E+04
       114   2  1.066077E+06  3.652111E+05  1.518004E+05  3.947331E+05  5.325938E+04 -2.451695E+04
       114   3  1.012428E+06  3.421966E+05  1.229280E+05  3.833703E+05  1.723182E+04 -4.742034E+04
       114   4  3.428738E+05  1.098359E+05  1.307443E+04  1.923079E+05  1.286130E+04 -8.401784E+03
       114   5  3.445096E+05  9.819649E+04  6.150905E+03  1.907273E+05  1.999125E+04 -3.703422E+04
       114   6  3.414966E+05  9.984027E+04  3.222899E+03  1.960844E+05  1.989230E+04 -4.642533E+04
       114   7 -4.358013E+05 -1.888763E+05 -1.869730E+05 -2.815473E+04 -5.624792E+04 -3.438464E+04
       114   8 -3.765034E+05 -1.687627E+05 -1.395152E+05 -1.305345E+04 -1.323470E+04 -4.953518E+04
       114   9 -3.289597E+05 -1.424725E+05 -1.164967E+05  8.987179E+03  2.254972E+04 -4.543149E+04
       114  10  1.122175E+06  4.086089E+05  2.130879E+05  4.130341E+05  1.521823E-08  6.588667E-09
       114  11  1.066073E+06  3.652097E+05  1.517939E+05  3.947342E+05  4.453425E-09 -1.037122E-09
       114  12  1.012428E+06  3.421941E+05  1.229232E+05  3.833709E+05 -2.733850E-08 -1.934091E-08
       114  13  3.428736E+05  1.098357E+05  1.307398E+04  1.923080E+05  5.750800E-09  4.800414E-09
       114  14  3.445088E+05  9.819491E+04  6.147576E+03  1.907279E+05  6.445200E-10  9.832185E-09
       114  15  3.414956E+05  9.983785E+04  3.218104E+03  1.960852E+05  1.312607E-10  1.095331E-08
       114  16 -4.358051E+05 -1.888784E+05 -1.869812E+05 -2.815629E+04 -1.300538E-08 -6.532442E-09
       114  17 -3.765042E+05 -1.687653E+05 -1.395201E+05 -1.305398E+04  9.801381E-09  3.700952E-10
       114  18 -3.289608E+05 -1.424749E+05 -1.165015E+05  8.988005E+03  3.099907E-08  8.156287E-09
       114  19  1.122182E+06  4.086111E+05  2.131011E+05  4.130352E+05 -8.206821E+04 -1.761977E+04
       114  20  1.066077E+06  3.652111E+05  1.518004E+05  3.947331E+05 -5.325938E+04  2.451695E+04
       114  21  1.012428E+06  3.421966E+05  1.229280E+05  3.833703E+05 -1.723182E+04  4.742034E+04
       114  22  3.428738E+05  1.098359E+05  1.307443E+04  1.923079E+05 -1.286130E+04  8.401784E+03
       114  23  3.445096E+05  9.819649E+04  6.150905E+03  1.907273E+05 -1.999125E+04  3.703422E+04
       114  24  3.414966E+05  9.984027E+04  3.222899E+03  1.960844E+05 -1.989230E+04  4.642533E+04
       114  25 -4.358013E+05 -1.888763E+05 -1.869730E+05 -2.815473E+04  5.624792E+04  3.438464E+04
       114  26 -3.765034E+05 -1.687627E+05 -1.395152E+05 -1.305345E+04  1.323470E+04  4.953518E+04
       114  27 -3.289597E+05 -1.424725E+05 -1.164967E+05  8.987179E+03 -2.254972E+04  4.543149E+04
       115   1  9.744933E+05  3.292251E+05  1.137612E+05  3.738439E+05  1.804564E+04 -4.562524E+04
       115   2  9.223642E+05  3.036275E+05  9.914773E+04  3.536608E+05  1.338014E+04 -4.571119E+04
       115   3  8.628881E+05  2.873962E+05  8.787160E+04  3.428735E+05  8.012219E+03 -4.393361E+04
       115   4  3.409238E+05  1.000129E+05  2.411246E+03  1.961858E+05  1.903789E+04 -4.525740E+04
       115   5  3.449168E+05  9.541891E+04  1.260510E+03  1.915886E+05  1.785456E+04 -4.403182E+04
       115   6  3.408722E+05  9.950306E+04  6.916889E+02  1.963869E+05  1.596813E+04 -4.094184E+04
       115   7 -2.922292E+05 -1.291627E+05 -1.089532E+05  1.869473E+04  2.002908E+04 -4.488996E+04
       115   8 -2.321798E+05 -1.127576E+05 -9.663649E+04  2.965638E+04  2.232460E+04 -4.235411E+04
       115   9 -1.808536E+05 -8.836267E+04 -8.649481E+04  5.001529E+04  2.391694E+04 -3.795274E+04
       115  10  9.744924E+05  3.292228E+05  1.137566E+05  3.738446E+05  3.523735E-08  2.304148E-09
       115  11  9.223634E+05  3.036252E+05  9.914346E+04  3.536613E+05  8.420210E-09 -4.945705E-09
       115  12  8.628875E+05  2.873941E+05  8.786785E+04  3.428738E+05 -3.262316E-08 -8.139561E-09
       115  13  3.409228E+05  1.000106E+05  2.406715E+03  1.961865E+05 -1.379874E-09  1.104357E-08
       115  14  3.449159E+05  9.541674E+04  1.256267E+03  1.915893E+05  7.074394E-10  4.244187E-09
       115  15  3.408715E+05  9.950119E+04  6.880590E+02  1.963874E+05 -1.099403E-08  1.324394E-09
       115  16 -2.922301E+05 -1.291650E+05 -1.089578E+05  1.869545E+04 -3.934464E-08 -1.747321E-08
       115  17 -2.321808E+05 -1.127597E+05 -9.664080E+04  2.965714E+04 -1.234330E-08 -6.060654E-09
       115  18 -1.808546E+05 -8.836437E+04 -8.649859E+04  5.001602E+04  3.309718E-08  7.275264E-09
       115  19  9.744933E+05  3.292251E+05  1.137612E+05  3.738439E+05 -1.804564E+04  4.562524E+04
       115  20  9.223642E+05  3.036275E+05  9.914773E+04  3.536608E+05 -1.338014E+04  4.571119E+04
       115  21  8.628881E+05  2.873962E+05  8.787160E+04  3.428735E+05 -8.012219E+03  4.393361E+04
       115  22  3.409238E+05  1.000129E+05  2.411246E+03  1.961858E+05 -1.903789E+04  4.525740E+04
       115  23  3.449168E+05  9.541891E+04  1.260510E+03  1.915886E+05 -1.785456E+04  4.403182E+04
       115  24  3.408722E+05  9.950306E+04  6.916889E+02  1.963869E+05 -1.596813E+04  4.094184E+04
       115  25 -2.922292E+05 -1.291627E+05 -1.089532E+05  1.869473E+04 -2.002908E+04  4.488996E+04
       115  26 -2.321798E+05 -1.127576E+05 -9.663649E+04  2.965638E+04 -2.232460E+04  4.235411E+04
       115  27 -1.808536E+05 -8.836267E+04 -8.649481E+04  5.001529E+04 -2.391694E+04  3.795274E+04
       116   1  8.270590E+05  2.745427E+05  8.133494E+04  3.329272E+05  7.133063E+03 -4.138225E+04
       116   2  7.754900E+05  2.502793E+05  7.162318E+04  3.125410E+05  5.051704E+03 -3.730149E+04
       116   3  7.156611E+05  2.344848E+05  6.229442E+04  3.017022E+05  2.901693E+03 -3.304230E+04
       116   4  3.408258E+05  9.953155E+04  5.197804E+02  1.963894E+05  1.492311E+04 -3.845195E+04
       116   5  3.450023E+05  9.534134E+04  2.893762E+02  1.916160E+05  1.317515E+04 -3.424416E+04
       116   6  3.408484E+05  9.955413E+04  1.773901E+02  1.963894E+05  1.135846E+04 -2.985787E+04
       116   7 -1.451500E+05 -7.545358E+04 -8.029941E+04  5.995310E+04  2.270660E+04 -3.552411E+04
       116   8 -8.528764E+04 -5.957777E+04 -7.104859E+04  7.076947E+04  2.129263E+04 -3.118908E+04
       116   9 -3.381837E+04 -3.536378E+04 -6.194383E+04  9.113503E+04  1.980990E+04 -2.667545E+04
       116  10  8.270585E+05  2.745408E+05  8.133162E+04  3.329274E+05 -1.791282E-09  5.338207E-09
       116  11  7.754896E+05  2.502778E+05  7.162052E+04  3.125412E+05  6.257874E-09  4.231676E-09
       116  12  7.156608E+05  2.344837E+05  6.229235E+04  3.017023E+05 -5.625624E-09  1.631559E-09
       116  13  3.408252E+05  9.952990E+04  5.165828E+02  1.963899E+05 -3.971056E-09  9.931322E-10
       116  14  3.450018E+05  9.534003E+04  2.868458E+02  1.916164E+05  8.120682E-09 -3.367448E-09
       116  15  3.408480E+05  9.955314E+04  1.754720E+02  1.963897E+05  8.123238E-09  4.612259E-09
       116  16 -1.451508E+05 -7.545507E+04 -8.030275E+04  5.995375E+04 -1.166992E-09 -3.288034E-09
       116  17 -8.528839E+04 -5.957894E+04 -7.105127E+04  7.077000E+04  1.641992E-08 -2.437562E-09
       116  18 -3.381898E+04 -3.536465E+04 -6.194590E+04  9.113546E+04  1.316518E-08  3.529945E-09
       116  19  8.270590E+05  2.745427E+05  8.133494E+04  3.329272E+05 -7.133063E+03  4.138225E+04
       116  20  7.754900E+05  2.502793E+05  7.162318E+04  3.125410E+05 -5.051704E+03  3.730149E+04
       116  21  7.156611E+05  2.344848E+05  6.229442E+04  3.017022E+05 -2.901693E+03  3.304230E+04
       116  22  3.408258E+05  9.953155E+04  5.197804E+02  1.963894E+05 -1.492311E+04  3.845195E+04
       116  23  3.450023E+05  9.534134E+04  2.893762E+02  1.916160E+05 -1.317515E+04  3.424416E+04
       116  24  3.408484E+05  9.955413E+04  1.773901E+02  1.963894E+05 -1.135846E+04  2.985787E+04
       116  25 -1.451500E+05 -7.545358E+04 -8.029941E+04  5.995310E+04 -2.270660E+04  3.552411E+04
       116  26 -8.528764E+04 -5.957777E+04 -7.104859E+04  7.076947E+04 -2.129263E+04  3.118908E+04
       116  27 -3.381837E+04 -3.536378E+04 -6.194383E+04  9.113503E+04 -1.980990E+04  2.667545E+04
       117   1  6.800762E+05  2.216523E+05  5.609805E+04  2.917320E+05  1.899517E+03 -3.040542E+04
       117   2  6.286469E+05  1.974911E+05  4.698489E+04  2.713355E+05  1.072225E+02 -2.591129E+04
       117   3  5.688654E+05  1.817144E+05  3.794016E+04  2.604809E+05 -1.691705E+03 -2.140213E+04
       117   4  3.408472E+05  9.956199E+04  1.456712E+02  1.963847E+05  1.033741E+04 -2.722734E+04
       117   5  3.450351E+05  9.538614E+04  1.185558E+02  1.916116E+05  8.573049E+03 -2.272168E+04
       117   6  3.408617E+05  9.958880E+04  1.372084E+02  1.963793E+05  6.802047E+03 -1.820100E+04
       117   7  1.741247E+03 -2.251649E+04 -5.580906E+04  1.010863E+05  1.877042E+04 -2.405110E+04
       117   8  6.151098E+04 -6.709965E+03 -4.674891E+04  1.119224E+05  1.703473E+04 -1.953364E+04
       117   9  1.129161E+05  1.746950E+04 -3.766597E+04  1.323004E+05  1.529240E+04 -1.500116E+04
       117  10  6.800760E+05  2.216513E+05  5.609631E+04  2.917320E+05  4.419143E-09  3.390325E-09
       117  11  6.286467E+05  1.974904E+05  4.698363E+04  2.713355E+05  4.030627E-09 -1.815264E-09
       117  12  5.688652E+05  1.817139E+05  3.793929E+04  2.604809E+05 -6.332382E-09 -4.775485E-09
       117  13  3.408469E+05  9.956116E+04  1.440770E+02  1.963849E+05  3.672936E-09  3.292751E-09
       117  14  3.450349E+05  9.538556E+04  1.174472E+02  1.916118E+05 -6.529247E-09 -4.048820E-09
       117  15  3.408615E+05  9.958844E+04  1.364988E+02  1.963794E+05 -1.907343E-09  7.661661E-10
       117  16  1.740714E+03 -2.251720E+04 -5.581081E+04  1.010866E+05 -8.914399E-09  3.509820E-09
       117  17  6.151057E+04 -6.710453E+03 -4.675017E+04  1.119227E+05 -1.159887E-08  4.791500E-09
       117  18  1.129158E+05  1.746920E+04 -3.766683E+04  1.323006E+05 -1.191312E-09  2.460947E-09
       117  19  6.800762E+05  2.216523E+05  5.609805E+04  2.917320E+05 -1.899517E+03  3.040542E+04
       117  20  6.286469E+05  1.974911E+05  4.698489E+04  2.713355E+05 -1.072225E+02  2.591129E+04
       117  21  5.688654E+05  1.817144E+05  3.794016E+04  2.604809E+05  1.691705E+03  2.140213E+04
       117  22  3.408472E+05  9.956199E+04  1.456712E+02  1.963847E+05 -1.033741E+04  2.722734E+04
       117  23  3.450351E+05  9.538614E+04  1.185558E+02  1.916116E+05 -8.573049E+03  2.272168E+04
       117  24  3.408617E+05  9.958880E+04  1.372084E+02  1.963793E+05 -6.802047E+03  1.820100E+04
       117  25  1.741247E+03 -2.251649E+04 -5.580906E+04  1.010863E+05 -1.877042E+04  2.405110E+04
       117  26  6.151098E+04 -6.709965E+03 -4.674891E+04  1.119224E+05 -1.703473E+04  1.953364E+04
       117  27  1.129161E+05  1.746950E+04 -3.766597E+04  1.323004E+05 -1.529240E+04  1.500116E+04
       118   1  5.333379E+05  1.688841E+05  3.182225E+04  2.505154E+05 -2.712250E+03 -1.876199E+04
       118   2  4.819557E+05  1.447281E+05  2.287083E+04  2.301325E+05 -4.540956E+03 -1.426050E+04
       118   3  4.222202E+05  1.289487E+05  1.400594E+04  2.192861E+05 -6.367302E+03 -9.766506E+03
       118   4  3.408683E+05  9.959227E+04  1.625862E+02  1.963788E+05  5.778535E+03 -1.556154E+04
       118   5  3.450473E+05  9.540485E+04  2.607240E+02  1.916111E+05  3.935652E+03 -1.106488E+04
       118   6  3.408736E+05  9.959701E+04  4.566954E+02  1.963790E+05  2.095123E+03 -6.575737E+03
       118   7  1.484362E+05  3.030344E+04 -3.149823E+04  1.422574E+05  1.426662E+04 -1.236210E+04
       118   8  2.081582E+05  4.608324E+04 -2.234973E+04  1.530974E+05  1.241033E+04 -7.869989E+03
       118   9  2.595341E+05  7.024603E+04 -1.309241E+04  1.734749E+05  1.055637E+04 -3.385412E+03
       118  10  5.333378E+05  1.688838E+05  3.182158E+04  2.505154E+05 -6.745399E-09 -2.521252E-09
       118  11  4.819557E+05  1.447279E+05  2.287041E+04  2.301324E+05 -1.536292E-08 -1.103327E-09
       118  12  4.222202E+05  1.289486E+05  1.400568E+04  2.192860E+05 -1.411107E-08  5.792214E-10
       118  13  3.408682E+05  9.959200E+04  1.620682E+02  1.963789E+05  1.821856E-09 -5.447270E-10
       118  14  3.450472E+05  9.540472E+04  2.604647E+02  1.916111E+05 -2.176708E-09  2.152255E-09
       118  15  3.408735E+05  9.959696E+04  4.566059E+02  1.963791E+05  5.901628E-09  5.735064E-09
       118  16  1.484360E+05  3.030322E+04 -3.149890E+04  1.422575E+05 -3.690780E-10  1.016393E-09
       118  17  2.081580E+05  4.608313E+04 -2.235014E+04  1.530975E+05  6.055787E-09  3.954076E-09
       118  18  2.595340E+05  7.024599E+04 -1.309264E+04  1.734749E+05  1.172413E-08  3.921707E-09
       118  19  5.333379E+05  1.688841E+05  3.182225E+04  2.505154E+05  2.712250E+03  1.876199E+04
       118  20  4.819557E+05  1.447281E+05  2.287083E+04  2.301325E+05  4.540956E+03  1.426050E+04
       118  21  4.222202E+05  1.289487E+05  1.400594E+04  2.192861E+05  6.367302E+03  9.766506E+03
       118  22  3.408683E+05  9.959227E+04  1.625862E+02  1.963788E+05 -5.778535E+03  1.556154E+04
       118  23  3.450473E+05  9.540485E+04  2.607240E+02  1.916111E+05 -3.935652E+03  1.106488E+04
       118  24  3.408736E+05  9.959701E+04  4.566954E+02  1.963790E+05 -2.095123E+03  6.575737E+03
       118  25  1.484362E+05  3.030344E+04 -3.149823E+04  1.422574E+05 -1.426662E+04  1.236210E+04
       118  26  2.081582E+05  4.608324E+04 -2.234973E+04  1.530974E+05 -1.241033E+04  7.869989E+03
       118  27  2.595341E+05  7.024603E+04 -1.309241E+04  1.734749E+05 -1.055637E+04  3.385412E+03
       119   1  3.867184E+05  1.161254E+05  8.007399E+03  2.093435E+05 -7.457993E+03 -7.158810E+03
       119   2  3.353281E+05  9.195626E+04 -6.204453E+02  1.889593E+05 -9.537110E+03 -2.808264E+03
       119   3  2.756451E+05  7.621503E+04 -8.947812E+03  1.781032E+05 -1.158395E+04  1.457013E+03
       119   4  3.408911E+05  9.959401E+04  6.045130E+02  1.963853E+05  1.010917E+03 -3.965471E+03
       119   5  3.450285E+05  9.540146E+04  1.089716E+03  1.916079E+05 -1.227782E+03  3.248570E+02
       119   6  3.409011E+05  9.966784E+04  2.001429E+03  1.963571E+05 -3.434250E+03  4.529924E+03
       119   7  2.950668E+05  8.306311E+04 -6.797971E+03  1.834281E+05  9.479074E+03 -7.724176E+02
       119   8  3.547292E+05  9.884672E+04  2.800170E+03  1.942565E+05  7.081685E+03  3.458028E+03
       119   9  4.061624E+05  1.231214E+05  1.295104E+04  2.146131E+05  4.716445E+03  7.603208E+03
       119  10  3.867183E+05  1.161253E+05  8.007198E+03  2.093435E+05 -1.097176E-08  3.549244E-09
       119  11  3.353280E+05  9.195623E+04 -6.206309E+02  1.889593E+05 -2.608064E-08 -8.410347E-09
       119  12  2.756450E+05  7.621499E+04 -8.948068E+03  1.781032E+05 -5.810903E-08 -2.032877E-08
       119  13  3.408911E+05  9.959399E+04  6.044815E+02  1.963853E+05  9.009006E-09  5.431127E-09
       119  14  3.450285E+05  9.540146E+04  1.089713E+03  1.916079E+05  9.803773E-09  8.567629E-10
       119  15  3.409011E+05  9.966782E+04  2.001368E+03  1.963571E+05 -1.181325E-09 -1.381627E-08
       119  16  2.950667E+05  8.306309E+04 -6.798141E+03  1.834281E+05  1.788119E-08  8.427596E-09
       119  17  3.547291E+05  9.884670E+04  2.800054E+03  1.942565E+05  3.055942E-08  2.271989E-08
       119  18  4.061624E+05  1.231213E+05  1.295089E+04  2.146131E+05  3.822194E-08  3.115767E-08
       119  19  3.867184E+05  1.161254E+05  8.007399E+03  2.093435E+05  7.457993E+03  7.158810E+03
       119  20  3.353281E+05  9.195626E+04 -6.204453E+02  1.889593E+05  9.537110E+03  2.808264E+03
       119  21  2.756451E+05  7.621503E+04 -8.947812E+03  1.781032E+05  1.158395E+04 -1.457013E+03
       119  22  3.408911E+05  9.959401E+04  6.045130E+02  1.963853E+05 -1.010917E+03  3.965471E+03
       119  23  3.450285E+05  9.540146E+04  1.089716E+03  1.916079E+05  1.227782E+03 -3.248570E+02
       119  24  3.409011E+05  9.966784E+04  2.001429E+03  1.963571E+05  3.434250E+03 -4.529924E+03
       119  25  2.950668E+05  8.306311E+04 -6.797971E+03  1.834281E+05 -9.479074E+03  7.724176E+02
       119  26  3.547292E+05  9.884672E+04  2.800170E+03  1.942565E+05 -7.081685E+03 -3.458028E+03
       119  27  4.061624E+05  1.231214E+05  1.295104E+04  2.146131E+05 -4.716445E+03 -7.603208E+03
       120   1  2.400920E+05  6.347444E+04 -1.451539E+04  1.683325E+05 -1.300181E+04  3.877777E+03
       120   2  1.890443E+05  3.911417E+04 -2.209017E+04  1.472304E+05 -1.532952E+04  7.533695E+03
       120   3  1.302083E+05  2.420511E+04 -2.873991E+04  1.353441E+05 -1.732521E+04  1.031027E+04
       120   4  3.410340E+05  9.965634E+04  2.671007E+03  1.964018E+05 -4.775698E+03  6.979344E+03
       120   5  3.449181E+05  9.585050E+04  4.908434E+03  1.913854E+05 -8.745174E+03  1.001575E+04
       120   6  3.413354E+05  1.018202E+05  9.371081E+03  1.955833E+05 -1.238273E+04  1.217291E+04
       120   7  4.419870E+05  1.358393E+05  1.985740E+04  2.244753E+05  3.451830E+03  1.008144E+04
       120   8  5.008168E+05  1.525890E+05  3.190626E+04  2.355506E+05 -2.159107E+03  1.249846E+04
       120   9  5.525072E+05  1.794389E+05  4.747998E+04  2.558410E+05 -7.438518E+03  1.403622E+04
       120  10  2.400918E+05  6.347438E+04 -1.451574E+04  1.683326E+05  2.301724E-09 -1.962998E-09
       120  11  1.890440E+05  3.911405E+04 -2.209072E+04  1.472305E+05 -2.965417E-08 -1.200536E-08
       120  12  1.302080E+05  2.420492E+04 -2.874068E+04  1.353442E+05 -5.925632E-08 -2.617371E-08
       120  13  3.410340E+05  9.965628E+04  2.670872E+03  1.964018E+05 -1.303132E-08 -1.713126E-08
       120  14  3.449180E+05  9.585038E+04  4.908102E+03  1.913855E+05 -5.843976E-09 -1.931868E-08
       120  15  3.413352E+05  1.018200E+05  9.370514E+03  1.955834E+05 -1.607340E-08 -2.634945E-08
       120  16  4.419869E+05  1.358391E+05  1.985719E+04  2.244753E+05 -2.741564E-08  4.921994E-10
       120  17  5.008168E+05  1.525889E+05  3.190596E+04  2.355506E+05  1.492807E-09  6.432558E-09
       120  18  5.525070E+05  1.794387E+05  4.747951E+04  2.558411E+05  2.315795E-08  6.323741E-09
       120  19  2.400920E+05  6.347444E+04 -1.451539E+04  1.683325E+05  1.300181E+04 -3.877777E+03
       120  20  1.890443E+05  3.911417E+04 -2.209017E+04  1.472304E+05  1.532952E+04 -7.533695E+03
       120  21  1.302083E+05  2.420511E+04 -2.873991E+04  1.353441E+05  1.732521E+04 -1.031027E+04
       120  22  3.410340E+05  9.965634E+04  2.671007E+03  1.964018E+05  4.775698E+03 -6.979344E+03
       120  23  3.449181E+05  9.585050E+04  4.908434E+03  1.913854E+05  8.745174E+03 -1.001575E+04
       120  24  3.413354E+05  1.018202E+05  9.371081E+03  1.955833E+05  1.238273E+04 -1.217291E+04
       120  25  4.419870E+05  1.358393E+05  1.985740E+04  2.244753E+05 -3.451830E+03 -1.008144E+04
       120  26  5.008168E+05  1.525890E+05  3.190626E+04  2.355506E+05  2.159107E+03 -1.249846E+04
       120  27  5.525072E+05  1.794389E+05  4.747998E+04  2.558410E+05  7.438518E+03 -1.403622E+04
       121   1  9.387604E+04  1.291930E+04 -3.276062E+04  1.277675E+05 -2.027844E+04  1.149414E+04
       121   2  5.151192E+04 -1.439843E+04 -3.833759E+04  9.224859E+04 -1.523254E+04  1.172703E+04
       121   3  8.138798E+03 -1.428517E+04 -4.183681E+04  6.011710E+04 -6.771307E+03  2.892442E+03
       121   4  3.428614E+05  1.019233E+05  1.252223E+04  1.960058E+05 -1.455223E+04  1.365195E+04
       121   5  3.444369E+05  1.059089E+05  2.393839E+04  1.870071E+05 -2.642256E+04  7.508537E+03
       121   6  3.483481E+05  1.406691E+05  5.083301E+04  1.813960E+05 -3.487874E+04 -7.699885E+03
       121   7  5.919158E+05  1.909342E+05  5.780411E+04  2.642704E+05 -8.823484E+03  1.581069E+04
       121   8  6.374503E+05  2.262297E+05  8.620999E+04  2.818090E+05 -3.761822E+04  3.287331E+03
       121   9  6.886671E+05  2.956448E+05  1.434938E+05  3.027385E+05 -6.300240E+04 -1.830142E+04
       121  10  9.387557E+04  1.291904E+04 -3.276164E+04  1.277677E+05  8.322774E-08  3.386152E-08
       121  11  5.151163E+04 -1.439864E+04 -3.833828E+04  9.224874E+04  4.144200E-08  2.542515E-08
       121  12  8.138747E+03 -1.428519E+04 -4.183691E+04  6.011712E+04 -5.789117E-09  2.533953E-10
       121  13  3.428611E+05  1.019230E+05  1.252149E+04  1.960059E+05 -1.167034E-08 -2.189799E-08
       121  14  3.444362E+05  1.059087E+05  2.393697E+04  1.870073E+05 -6.771526E-09 -1.020031E-08
       121  15  3.483468E+05  1.406687E+05  5.083062E+04  1.813958E+05  6.752844E-10  6.857600E-10
       121  16  5.919157E+05  1.909339E+05  5.780349E+04  2.642705E+05 -1.145567E-07 -4.279616E-08
       121  17  6.374488E+05  2.262293E+05  8.620731E+04  2.818091E+05 -5.871902E-08 -1.869688E-08
       121  18  6.886627E+05  2.956434E+05  1.434858E+05  3.027376E+05  4.566022E-10  2.071231E-09
       121  19  9.387604E+04  1.291930E+04 -3.276062E+04  1.277675E+05  2.027844E+04 -1.149414E+04
       121  20  5.151192E+04 -1.439843E+04 -3.833759E+04  9.224859E+04  1.523254E+04 -1.172703E+04
       121  21  8.138798E+03 -1.428517E+04 -4.183681E+04  6.011710E+04  6.771307E+03 -2.892442E+03
       121  22  3.428614E+05  1.019233E+05  1.252223E+04  1.960058E+05  1.455223E+04 -1.365195E+04
       121  23  3.444369E+05  1.059089E+05  2.393839E+04  1.870071E+05  2.642256E+04 -7.508537E+03
       121  24  3.483481E+05  1.406691E+05  5.083301E+04  1.813960E+05  3.487874E+04  7.699885E+03
       121  25  5.919158E+05  1.909342E+05  5.780411E+04  2.642704E+05  8.823484E+03 -1.581069E+04
       121  26  6.374503E+05  2.262297E+05  8.620999E+04  2.818090E+05  3.761822E+04 -3.287331E+03
       121  27  6.886671E+05  2.956448E+05  1.434938E+05  3.027385E+05  6.300240E+04  1.830142E+04
       122   1 -2.896048E+05 -1.594452E+06 -3.522837E+05  5.668994E+04 -1.500298E+03 -1.753767E+05
       122   2 -3.115214E+04 -1.519290E+06 -1.965389E+05  4.154282E+03 -4.836560E+03 -1.091228E+05
       122   3 -6.589198E+04 -1.525308E+06 -1.571401E+05  1.127946E+04 -3.238282E+03 -4.285753E+04
       122   4 -2.035028E+05 -1.251018E+06 -2.665071E+05  2.575185E+04 -1.493918E+03 -1.742152E+05
       122   5  4.605567E+04 -1.210486E+06 -1.199137E+05 -3.876806E+03 -4.835254E+03 -1.089939E+05
       122   6  2.678807E+03 -1.250911E+06 -8.890259E+04  2.615649E+04 -3.238224E+03 -4.376488E+04
       122   7 -1.174062E+05 -9.074747E+05 -1.807390E+05 -5.203355E+03 -1.487658E+03 -1.730531E+05
       122   8  1.232566E+05 -9.015942E+05 -4.329555E+04 -1.191187E+04 -4.833952E+03 -1.088649E+05
       122   9  7.124478E+04 -9.764461E+05 -2.067064E+04  4.104014E+04 -3.238210E+03 -4.467262E+04
       122  10 -2.896131E+05 -1.594485E+06 -3.523416E+05  5.668973E+04 -6.472378E-10 -3.324628E-09
       122  11 -3.115538E+04 -1.519303E+06 -1.965614E+05  4.153857E+03 -6.261040E-09  2.349842E-09
       122  12 -6.589249E+04 -1.525310E+06 -1.571435E+05  1.127935E+04 -4.918635E-09  2.284712E-09
       122  13 -2.035110E+05 -1.251050E+06 -2.665643E+05  2.575164E+04 -1.269750E-09  8.024494E-11
       122  14  4.605245E+04 -1.210499E+06 -1.199361E+05 -3.877231E+03 -2.568801E-09  2.094329E-10
       122  15  2.678280E+03 -1.250914E+06 -8.890621E+04  2.615638E+04 -3.161280E-09  7.566122E-10
       122  16 -1.174143E+05 -9.075068E+05 -1.807954E+05 -5.203562E+03 -6.329185E-10 -1.491560E-11
       122  17  1.232533E+05 -9.016070E+05 -4.331789E+04 -1.191229E+04  2.721635E-09 -8.961181E-10
       122  18  7.124423E+04 -9.764483E+05 -2.067441E+04  4.104002E+04 -2.888170E-09 -4.956970E-09
       122  19 -2.896048E+05 -1.594452E+06 -3.522837E+05  5.668994E+04  1.500298E+03  1.753767E+05
       122  20 -3.115214E+04 -1.519290E+06 -1.965389E+05  4.154282E+03  4.836560E+03  1.091228E+05
       122  21 -6.589198E+04 -1.525308E+06 -1.571401E+05  1.127946E+04  3.238282E+03  4.285753E+04
       122  22 -2.035028E+05 -1.251018E+06 -2.665071E+05  2.575185E+04  1.493918E+03  1.742152E+05
       122  23  4.605567E+04 -1.210486E+06 -1.199137E+05 -3.876806E+03  4.835254E+03  1.089939E+05
       122  24  2.678807E+03 -1.250911E+06 -8.890259E+04  2.615649E+04  3.238224E+03  4.376488E+04
       122  25 -1.174062E+05 -9.074747E+05 -1.807390E+05 -5.203355E+03  1.487658E+03  1.730531E+05
       122  26  1.232566E+05 -9.015942E+05 -4.329555E+04 -1.191187E+04  4.833952E+03  1.088649E+05
       122  27  7.124478E+04 -9.764461E+05 -2.067064E+04  4.104014E+04  3.238210E+03  4.467262E+04
       123   1 -5.394593E+04 -1.340770E+06 -1.057001E+05  3.380008E+04 -1.663359E+03 -2.842749E+04
       123   2 -2.271238E+03 -1.290438E+06 -7.757929E+04 -5.303123E+03 -9.393579E+02  3.792043E+03
       123   3 -3.898099E+04 -1.266243E+06 -9.252602E+04  2.037239E+04  9.040140E+00  3.601342E+04
       123   4 -2.843170E+04 -1.238734E+06 -8.038806E+04  2.715993E+04 -1.662905E+03 -2.856890E+04
       123   5  1.391618E+04 -1.225672E+06 -6.149650E+04 -5.228522E+03 -9.391847E+02  3.605924E+03
       123   6 -3.210761E+04 -1.238739E+06 -8.563768E+04  2.716173E+04  9.616293E+00  3.578068E+04
       123   7 -2.918076E+03 -1.136689E+06 -5.507676E+04  2.051868E+04 -1.662447E+03 -2.871034E+04
       123   8  3.010327E+04 -1.160903E+06 -4.541403E+04 -5.153912E+03 -9.390115E+02  3.419786E+03
       123   9 -2.523412E+04 -1.211234E+06 -7.874937E+04  3.395138E+04  1.018733E+01  3.554792E+04
       123  10 -5.394615E+04 -1.340770E+06 -1.057016E+05  3.380004E+04 -2.089535E-09  1.041186E-09
       123  11 -2.271242E+03 -1.290438E+06 -7.757932E+04 -5.303121E+03  2.329701E-10  1.731947E-09
       123  12 -3.898134E+04 -1.266245E+06 -9.252846E+04  2.037239E+04  1.095878E-09  2.644425E-10
       123  13 -2.843192E+04 -1.238735E+06 -8.038960E+04  2.715989E+04 -3.016813E-09  5.288570E-10
       123  14  1.391617E+04 -1.225672E+06 -6.149653E+04 -5.228520E+03 -2.185748E-09 -4.833103E-10
       123  15 -3.210796E+04 -1.238740E+06 -8.564009E+04  2.716173E+04 -1.501038E-09 -8.323328E-10
       123  16 -2.918301E+03 -1.136689E+06 -5.507832E+04  2.051864E+04 -4.341189E-09 -3.578539E-09
       123  17  3.010327E+04 -1.160903E+06 -4.541405E+04 -5.153910E+03 -1.771631E-09 -1.690928E-09
       123  18 -2.523446E+04 -1.211235E+06 -7.875175E+04  3.395138E+04  4.718080E-09 -2.340520E-09
       123  19 -5.394593E+04 -1.340770E+06 -1.057001E+05  3.380008E+04  1.663359E+03  2.842749E+04
       123  20 -2.271238E+03 -1.290438E+06 -7.757929E+04 -5.303123E+03  9.393579E+02 -3.792043E+03
       123  21 -3.898099E+04 -1.266243E+06 -9.252602E+04  2.037239E+04 -9.040140E+00 -3.601342E+04
       123  22 -2.843170E+04 -1.238734E+06 -8.038806E+04  2.715993E+04  1.662905E+03  2.856890E+04
       123  23  1.391618E+04 -1.225672E+06 -6.149650E+04 -5.228522E+03  9.391847E+02 -3.605924E+03
       123  24 -3.210761E+04 -1.238739E+06 -8.563768E+04  2.716173E+04 -9.616293E+00 -3.578068E+04
       123  25 -2.918076E+03 -1.136689E+06 -5.507676E+04  2.051868E+04  1.662447E+03  2.871034E+04
       123  26  3.010327E+04 -1.160903E+06 -4.541403E+04 -5.153912E+03  9.390115E+02 -3.419786E+03
       123  27 -2.523412E+04 -1.211234E+06 -7.874937E+04  3.395138E+04 -1.018733E+01 -3.554792E+04
       124   1  4.136848E+04 -1.103892E+06 -5.907899E+04  4.356874E+04  1.440007E+03  5.283117E+04
       124   2  9.778378E+04 -1.022265E+06 -8.689136E+04 -1.354525E+04  2.943846E+03  1.244376E+05
       124   3 -1.725501E+05 -1.031294E+06 -2.429650E+05 -7.720993E+03  9.267589E+02  1.960451E+05
       124   4  4.097061E+03 -1.253089E+06 -9.621257E+04  2.685793E+04  1.439199E+03  5.210365E+04
       124   5  5.142113E+04 -1.207741E+06 -1.328911E+05 -4.767812E+03  2.945622E+03  1.244492E+05
       124   6 -2.281883E+05 -1.253213E+06 -2.983752E+05  2.654534E+04  9.365470E+02  1.967916E+05
       124   7 -3.317498E+04 -1.402265E+06 -1.333477E+05  1.015116E+04  1.438430E+03  5.137629E+04
       124   8  5.056190E+03 -1.393186E+06 -1.788933E+05  4.007009E+03  2.947400E+03  1.244609E+05
       124   9 -2.838257E+05 -1.475083E+06 -3.537884E+05  6.079941E+04  9.464208E+02  1.975379E+05
       124  10  4.136773E+04 -1.103895E+06 -5.908425E+04  4.356868E+04  3.894292E-10 -1.270394E-09
       124  11  9.777961E+04 -1.022281E+06 -8.692052E+04 -1.354555E+04 -3.903927E-10  2.332314E-10
       124  12 -1.725604E+05 -1.031336E+06 -2.430374E+05 -7.721140E+03 -1.565544E-09 -1.915352E-09
       124  13  4.096328E+03 -1.253092E+06 -9.621768E+04  2.685787E+04  7.415585E-10  1.166365E-10
       124  14  5.141696E+04 -1.207758E+06 -1.329203E+05 -4.768107E+03 -6.700616E-09  5.796784E-12
       124  15 -2.281987E+05 -1.253254E+06 -2.984481E+05  2.654519E+04  1.439097E-09  1.338208E-09
       124  16 -3.317569E+04 -1.402268E+06 -1.333526E+05  1.015110E+04 -2.029437E-09 -2.297717E-09
       124  17  5.052010E+03 -1.393203E+06 -1.789225E+05  4.006714E+03  5.782172E-10  6.947164E-10
       124  18 -2.838363E+05 -1.475125E+06 -3.538619E+05  6.079926E+04  3.021974E-09 -1.704220E-09
       124  19  4.136848E+04 -1.103892E+06 -5.907899E+04  4.356874E+04 -1.440007E+03 -5.283117E+04
       124  20  9.778378E+04 -1.022265E+06 -8.689136E+04 -1.354525E+04 -2.943846E+03 -1.244376E+05
       124  21 -1.725501E+05 -1.031294E+06 -2.429650E+05 -7.720993E+03 -9.267589E+02 -1.960451E+05
       124  22  4.097061E+03 -1.253089E+06 -9.621257E+04  2.685793E+04 -1.439199E+03 -5.210365E+04
       124  23  5.142113E+04 -1.207741E+06 -1.328911E+05 -4.767812E+03 -2.945622E+03 -1.244492E+05
       124  24 -2.281883E+05 -1.253213E+06 -2.983752E+05  2.654534E+04 -9.365470E+02 -1.967916E+05
       124  25 -3.317498E+04 -1.402265E+06 -1.333477E+05  1.015116E+04 -1.438430E+03 -5.137629E+04
       124  26  5.056190E+03 -1.393186E+06 -1.788933E+05  4.007009E+03 -2.947400E+03 -1.244609E+05
       124  27 -2.838257E+05 -1.475083E+06 -3.537884E+05  6.079941E+04 -9.464208E+02 -1.975379E+05
       125   1  3.495698E+05  1.123090E+05  7.310575E+04  1.281334E+05  4.734743E+04  1.795952E+04
       125   2  3.361281E+05  4.007346E+04  2.823791E+04  1.364081E+05  3.027600E+04  1.176676E+04
       125   3  3.485432E+05  4.050824E+04  1.519231E+04  1.295912E+05  1.322543E+04  5.518952E+03
       125   4  3.660993E+05  1.045279E+05  7.483323E+04  1.183054E+05  4.744897E+04  1.799651E+04
       125   5  3.493244E+05  4.117355E+04  3.101062E+04  1.360518E+05  3.035452E+04  1.179616E+04
       125   6  3.584104E+05  5.049261E+04  1.902802E+04  1.387066E+05  1.328096E+04  5.540078E+03
       125   7  3.826294E+05  9.674755E+04  7.656081E+04  1.084773E+05  4.755052E+04  1.803349E+04
       125   8  3.625208E+05  4.227365E+04  3.378332E+04  1.356954E+05  3.043305E+04  1.182556E+04
       125   9  3.682779E+05  6.047731E+04  2.286375E+04  1.478222E+05  1.333648E+04  5.561207E+03
       125  10  3.495673E+05  1.123080E+05  7.310094E+04  1.281327E+05  2.129567E-09  3.490493E-09
       125  11  3.361270E+05  4.007307E+04  2.823593E+04  1.364078E+05 -3.386469E-09 -7.280529E-09
       125  12  3.485430E+05  4.050816E+04  1.519192E+04  1.295911E+05 -6.584721E-09  8.003025E-09
       125  13  3.660968E+05  1.045269E+05  7.482839E+04  1.183047E+05  3.463891E-11 -5.606857E-09
       125  14  3.493233E+05  4.117315E+04  3.100863E+04  1.360515E+05 -1.058352E-08  1.047638E-09
       125  15  3.584102E+05  5.049253E+04  1.902763E+04  1.387065E+05 -1.948004E-09  1.368841E-10
       125  16  3.826269E+05  9.674659E+04  7.655595E+04  1.084766E+05  4.853989E-10  4.280559E-09
       125  17  3.625198E+05  4.227325E+04  3.378132E+04  1.356952E+05  4.516516E-09 -6.325236E-09
       125  18  3.682777E+05  6.047723E+04  2.286335E+04  1.478222E+05  3.365081E-09  4.884770E-09
       125  19  3.495698E+05  1.123090E+05  7.310575E+04  1.281334E+05 -4.734743E+04 -1.795952E+04
       125  20  3.361281E+05  4.007346E+04  2.823791E+04  1.364081E+05 -3.027600E+04 -1.176676E+04
       125  21  3.485432E+05  4.050824E+04  1.519231E+04  1.295912E+05 -1.322543E+04 -5.518952E+03
       125  22  3.660993E+05  1.045279E+05  7.483323E+04  1.183054E+05 -4.744897E+04 -1.799651E+04
       125  23  3.493244E+05  4.117355E+04  3.101062E+04  1.360518E+05 -3.035452E+04 -1.179616E+04
       125  24  3.584104E+05  5.049261E+04  1.902802E+04  1.387066E+05 -1.328096E+04 -5.540078E+03
       125  25  3.826294E+05  9.674755E+04  7.656081E+04  1.084773E+05 -4.755052E+04 -1.803349E+04
       125  26  3.625208E+05  4.227365E+04  3.378332E+04  1.356954E+05 -3.043305E+04 -1.182556E+04
       125  27  3.682779E+05  6.047731E+04  2.286375E+04  1.478222E+05 -1.333648E+04 -5.561207E+03
       126   1  3.332504E+05  5.158161E+04  9.760948E+03  1.294623E+05  1.041869E+04  4.560547E+03
       126   2  3.291068E+05  4.034030E+04  4.733519E+02  1.280837E+05  6.519092E+03  3.285126E+03
       126   3  3.258820E+05  4.032571E+04 -3.650360E+03  1.277383E+05  2.621039E+03  2.005852E+03
       126   4  3.559641E+05  5.858896E+04  1.554439E+04  1.340786E+05  1.048940E+04  4.587200E+03
       126   5  3.550438E+05  4.973486E+04  7.328862E+03  1.347855E+05  6.588083E+03  3.311157E+03
       126   6  3.550425E+05  5.210759E+04  4.278439E+03  1.365256E+05  2.688296E+03  2.031236E+03
       126   7  3.786783E+05  6.559630E+04  2.132780E+04  1.386950E+05  1.056011E+04  4.613853E+03
       126   8  3.809814E+05  5.912944E+04  1.418431E+04  1.414875E+05  6.657077E+03  3.337188E+03
       126   9  3.842038E+05  6.388953E+04  1.220714E+04  1.453132E+05  2.755558E+03  2.056621E+03
       126  10  3.332503E+05  5.158156E+04  9.760705E+03  1.294622E+05 -1.459975E-09  4.167038E-09
       126  11  3.291067E+05  4.034028E+04  4.732518E+02  1.280837E+05 -1.858079E-09 -2.347825E-09
       126  12  3.258820E+05  4.032571E+04 -3.650380E+03  1.277383E+05 -4.900091E-09  6.543802E-09
       126  13  3.559640E+05  5.858891E+04  1.554415E+04  1.340785E+05 -8.461679E-09 -6.330145E-11
       126  14  3.550438E+05  4.973484E+04  7.328760E+03  1.347855E+05 -6.033213E-09  1.102402E-08
       126  15  3.550425E+05  5.210759E+04  4.278418E+03  1.365256E+05 -1.613541E-10  6.412343E-10
       126  16  3.786782E+05  6.559625E+04  2.132755E+04  1.386950E+05 -2.380143E-09 -3.682958E-09
       126  17  3.809814E+05  5.912942E+04  1.418420E+04  1.414875E+05 -5.984365E-09 -4.615020E-09
       126  18  3.842038E+05  6.388952E+04  1.220712E+04  1.453132E+05  4.568298E-09  5.431756E-09
       126  19  3.332504E+05  5.158161E+04  9.760948E+03  1.294623E+05 -1.041869E+04 -4.560547E+03
       126  20  3.291068E+05  4.034030E+04  4.733519E+02  1.280837E+05 -6.519092E+03 -3.285126E+03
       126  21  3.258820E+05  4.032571E+04 -3.650360E+03  1.277383E+05 -2.621039E+03 -2.005852E+03
       126  22  3.559641E+05  5.858896E+04  1.554439E+04  1.340786E+05 -1.048940E+04 -4.587200E+03
       126  23  3.550438E+05  4.973486E+04  7.328862E+03  1.347855E+05 -6.588083E+03 -3.311157E+03
       126  24  3.550425E+05  5.210759E+04  4.278439E+03  1.365256E+05 -2.688296E+03 -2.031236E+03
       126  25  3.786783E+05  6.559630E+04  2.132780E+04  1.386950E+05 -1.056011E+04 -4.613853E+03
       126  26  3.809814E+05  5.912944E+04  1.418431E+04  1.414875E+05 -6.657077E+03 -3.337188E+03
       126  27  3.842038E+05  6.388953E+04  1.220714E+04  1.453132E+05 -2.755558E+03 -2.056621E+03
       127   1  3.175780E+05  3.922204E+04 -6.539892E+03  1.259690E+05  1.961002E+03  1.868012E+03
       127   2  3.146183E+05  3.525875E+04 -9.273859E+03  1.233842E+05  1.014767E+03  1.705410E+03
       127   3  3.093436E+05  3.513602E+04 -1.107367E+04  1.237682E+05  6.796555E+01  1.544343E+03
       127   4  3.546946E+05  5.307269E+04  3.365118E+03  1.359718E+05  2.029700E+03  1.893931E+03
       127   5  3.557976E+05  5.076831E+04  1.725971E+03  1.346324E+05  1.084035E+03  1.731541E+03
       127   6  3.545855E+05  5.230438E+04  1.020515E+03  1.362618E+05  1.377983E+02  1.570682E+03
       127   7  3.918126E+05  6.692344E+04  1.327003E+04  1.459751E+05  2.098402E+03  1.919851E+03
       127   8  3.969785E+05  6.627799E+04  1.272567E+04  1.458813E+05  1.153307E+03  1.757674E+03
       127   9  3.998294E+05  6.947286E+04  1.311452E+04  1.487563E+05  2.076367E+02  1.597025E+03
       127  10  3.175780E+05  3.922203E+04 -6.539906E+03  1.259690E+05 -7.516671E-09  5.204330E-10
       127  11  3.146183E+05  3.525875E+04 -9.273866E+03  1.233842E+05 -1.180052E-09  1.501403E-09
       127  12  3.093436E+05  3.513602E+04 -1.107367E+04  1.237682E+05  4.897733E-09 -2.474133E-09
       127  13  3.546946E+05  5.307268E+04  3.365103E+03  1.359718E+05 -4.876572E-09  1.239217E-09
       127  14  3.557976E+05  5.076831E+04  1.725963E+03  1.346324E+05 -8.823032E-09 -2.500613E-09
       127  15  3.545855E+05  5.230437E+04  1.020510E+03  1.362618E+05 -1.034532E-09  4.621427E-09
       127  16  3.918126E+05  6.692344E+04  1.327002E+04  1.459751E+05  2.582780E-09 -1.589735E-09
       127  17  3.969785E+05  6.627798E+04  1.272566E+04  1.458813E+05 -3.152734E-09  5.767043E-09
       127  18  3.998294E+05  6.947286E+04  1.311452E+04  1.487563E+05 -7.046288E-09 -1.564303E-09
       127  19  3.175780E+05  3.922204E+04 -6.539892E+03  1.259690E+05 -1.961002E+03 -1.868012E+03
       127  20  3.146183E+05  3.525875E+04 -9.273859E+03  1.233842E+05 -1.014767E+03 -1.705410E+03
       127  21  3.093436E+05  3.513602E+04 -1.107367E+04  1.237682E+05 -6.796555E+01 -1.544343E+03
       127  22  3.546946E+05  5.307269E+04  3.365118E+03  1.359718E+05 -2.029700E+03 -1.893931E+03
       127  23  3.557976E+05  5.076831E+04  1.725971E+03  1.346324E+05 -1.084035E+03 -1.731541E+03
       127  24  3.545855E+05  5.230438E+04  1.020515E+03  1.362618E+05 -1.377983E+02 -1.570682E+03
       127  25  3.918126E+05  6.692344E+04  1.327003E+04  1.459751E+05 -2.098402E+03 -1.919851E+03
       127  26  3.969785E+05  6.627799E+04  1.272567E+04  1.458813E+05 -1.153307E+03 -1.757674E+03
       127  27  3.998294E+05  6.947286E+04  1.311452E+04  1.487563E+05 -2.076367E+02 -1.597025E+03
       128   1  3.017526E+05  3.253055E+04 -1.329876E+04  1.217787E+05 -1.213811E+02  1.587669E+03
       128   2  2.988807E+05  2.935229E+04 -1.471067E+04  1.189761E+05 -4.560103E+02  1.660464E+03
       128   3  2.932094E+05  2.921828E+04 -1.588182E+04  1.194432E+05 -7.915968E+02  1.735892E+03
       128   4  3.545207E+05  5.243021E+04  8.173026E+02  1.362143E+05 -5.136815E+01  1.614073E+03
       128   5  3.559152E+05  5.087108E+04  5.318385E+02  1.345935E+05 -3.849564E+02  1.687254E+03
       128   6  3.545101E+05  5.235591E+04  4.863124E+02  1.362423E+05 -7.195047E+02  1.763068E+03
       128   7  4.072914E+05  7.233000E+04  1.493309E+04  1.506510E+05  1.865124E+01  1.640479E+03
       128   8  4.129528E+05  7.239006E+04  1.577407E+04  1.502122E+05 -3.138953E+02  1.714047E+03
       128   9  4.158145E+05  7.549382E+04  1.685416E+04  1.530430E+05 -6.474046E+02  1.790247E+03
       128  10  3.017526E+05  3.253054E+04 -1.329876E+04  1.217787E+05 -2.007212E-09 -6.963627E-09
       128  11  2.988807E+05  2.935229E+04 -1.471068E+04  1.189761E+05  1.172617E-09 -1.108540E-09
       128  12  2.932094E+05  2.921827E+04 -1.588183E+04  1.194432E+05  3.387814E-09 -4.464736E-10
       128  13  3.545207E+05  5.243021E+04  8.172977E+02  1.362143E+05  1.135478E-09  8.124083E-10
       128  14  3.559152E+05  5.087108E+04  5.318329E+02  1.345935E+05  6.098502E-09 -6.149731E-09
       128  15  3.545101E+05  5.235590E+04  4.863056E+02  1.362423E+05  8.611979E-10  1.104101E-09
       128  16  4.072914E+05  7.233000E+04  1.493308E+04  1.506510E+05  1.229867E-10  4.271994E-09
       128  17  4.129528E+05  7.239006E+04  1.577406E+04  1.502122E+05 -2.047436E-09 -4.551235E-09
       128  18  4.158145E+05  7.549382E+04  1.685415E+04  1.530430E+05 -2.953306E-09 -3.171486E-09
       128  19  3.017526E+05  3.253055E+04 -1.329876E+04  1.217787E+05  1.213811E+02 -1.587669E+03
       128  20  2.988807E+05  2.935229E+04 -1.471067E+04  1.189761E+05  4.560103E+02 -1.660464E+03
       128  21  2.932094E+05  2.921828E+04 -1.588182E+04  1.194432E+05  7.915968E+02 -1.735892E+03
       128  22  3.545207E+05  5.243021E+04  8.173026E+02  1.362143E+05  5.136815E+01 -1.614073E+03
       128  23  3.559152E+05  5.087108E+04  5.318385E+02  1.345935E+05  3.849564E+02 -1.687254E+03
       128  24  3.545101E+05  5.235591E+04  4.863124E+02  1.362423E+05  7.195047E+02 -1.763068E+03
       128  25  4.072914E+05  7.233000E+04  1.493309E+04  1.506510E+05 -1.865124E+01 -1.640479E+03
       128  26  4.129528E+05  7.239006E+04  1.577407E+04  1.502122E+05  3.138953E+02 -1.714047E+03
       128  27  4.158145E+05  7.549382E+04  1.685416E+04  1.530430E+05  6.474046E+02 -1.790247E+03
       129   1  2.854813E+05  2.635475E+04 -1.793527E+04  1.174025E+05 -9.148094E+02  1.808375E+03
       129   2  2.825047E+05  2.313172E+04 -1.889915E+04  1.144594E+05 -1.348212E+03  1.850793E+03
       129   3  2.766681E+05  2.312754E+04 -1.953057E+04  1.148944E+05 -1.782092E+03  1.894616E+03
       129   4  3.544932E+05  5.237242E+04  5.204369E+02  1.362747E+05 -8.421641E+02  1.835754E+03
       129   5  3.559328E+05  5.083057E+04  7.236899E+02  1.345602E+05 -1.275045E+03  1.878361E+03
       129   6  3.545122E+05  5.250744E+04  1.258958E+03  1.362238E+05 -1.708406E+03  1.922371E+03
       129   7  4.235095E+05  7.839038E+04  1.897572E+04  1.551489E+05 -7.695100E+02  1.863137E+03
       129   8  4.293659E+05  7.852971E+04  2.034604E+04  1.546631E+05 -1.201869E+03  1.905933E+03
       129   9  4.323620E+05  8.188764E+04  2.204791E+04  1.575555E+05 -1.634710E+03  1.950130E+03
       129  10  2.854813E+05  2.635475E+04 -1.793528E+04  1.174025E+05  6.642927E-09 -5.913849E-09
       129  11  2.825047E+05  2.313171E+04 -1.889916E+04  1.144594E+05 -6.524569E-11 -1.825595E-09
       129  12  2.766681E+05  2.312753E+04 -1.953059E+04  1.148944E+05  4.967155E-09 -5.067327E-09
       129  13  3.544932E+05  5.237242E+04  5.204292E+02  1.362747E+05 -5.891712E-09  5.129842E-09
       129  14  3.559328E+05  5.083057E+04  7.236802E+02  1.345602E+05  1.092814E-08 -4.665268E-09
       129  15  3.545122E+05  5.250743E+04  1.258946E+03  1.362238E+05  4.205994E-09  2.444883E-09
       129  16  4.235095E+05  7.839037E+04  1.897572E+04  1.551489E+05  3.806709E-09 -1.530673E-09
       129  17  4.293659E+05  7.852971E+04  2.034603E+04  1.546631E+05  4.487974E-10 -1.966676E-09
       129  18  4.323620E+05  8.188763E+04  2.204790E+04  1.575555E+05  1.114609E-09 -6.320975E-09
       129  19  2.854813E+05  2.635475E+04 -1.793527E+04  1.174025E+05  9.148094E+02 -1.808375E+03
       129  20  2.825047E+05  2.313172E+04 -1.889915E+04  1.144594E+05  1.348212E+03 -1.850793E+03
       129  21  2.766681E+05  2.312754E+04 -1.953057E+04  1.148944E+05  1.782092E+03 -1.894616E+03
       129  22  3.544932E+05  5.237242E+04  5.204369E+02  1.362747E+05  8.421641E+02 -1.835754E+03
       129  23  3.559328E+05  5.083057E+04  7.236899E+02  1.345602E+05  1.275045E+03 -1.878361E+03
       129  24  3.545122E+05  5.250744E+04  1.258958E+03  1.362238E+05  1.708406E+03 -1.922371E+03
       129  25  4.235095E+05  7.839038E+04  1.897572E+04  1.551489E+05  7.695100E+02 -1.863137E+03
       129  26  4.293659E+05  7.852971E+04  2.034604E+04  1.546631E+05  1.201869E+03 -1.905933E+03
       129  27  4.323620E+05  8.188764E+04  2.204791E+04  1.575555E+05  1.634710E+03 -1.950130E+03
       130   1  2.685840E+05  2.009031E+04 -2.134766E+04  1.130072E+05 -2.067327E+03  1.914772E+03
       130   2  2.653475E+05  1.642210E+04 -2.138102E+04  1.097379E+05 -3.560385E+03  1.567225E+03
       130   3  2.598086E+05  1.756508E+04 -1.989847E+04  1.096562E+05 -5.045701E+03  1.199222E+03
       130   4  3.545647E+05  5.235914E+04  1.614113E+03  1.363706E+05 -1.987035E+03  1.945011E+03
       130   5  3.558043E+05  5.058285E+04  2.799678E+03  1.345393E+05 -3.488573E+03  1.594257E+03
       130   6  3.547431E+05  5.361929E+04  5.507733E+03  1.358956E+05 -4.982380E+03  1.223043E+03
       130   7  4.405527E+05  8.462848E+04  2.457530E+04  1.597370E+05 -1.906730E+03  1.975255E+03
       130   8  4.462690E+05  8.474413E+04  2.697969E+04  1.593439E+05 -3.416751E+03  1.621293E+03
       130   9  4.496862E+05  8.967409E+04  3.091315E+04  1.621386E+05 -4.919049E+03  1.246869E+03
       130  10  2.685840E+05  2.009030E+04 -2.134768E+04  1.130072E+05 -4.230430E-10 -8.188117E-09
       130  11  2.653475E+05  1.642209E+04 -2.138105E+04  1.097379E+05 -1.991230E-09 -3.652159E-09
       130  12  2.598086E+05  1.756507E+04 -1.989852E+04  1.096562E+05  3.704647E-09 -6.318340E-09
       130  13  3.545647E+05  5.235914E+04  1.614099E+03  1.363706E+05  3.565558E-09  1.678171E-09
       130  14  3.558043E+05  5.058284E+04  2.799651E+03  1.345393E+05  8.215009E-10  1.208907E-09
       130  15  3.547431E+05  5.361928E+04  5.507683E+03  1.358956E+05  6.927881E-09 -3.024185E-09
       130  16  4.405527E+05  8.462848E+04  2.457528E+04  1.597370E+05  3.902541E-09  3.989621E-09
       130  17  4.462690E+05  8.474413E+04  2.697967E+04  1.593439E+05 -2.109559E-09  1.723284E-08
       130  18  4.496862E+05  8.967408E+04  3.091310E+04  1.621386E+05  2.631138E-10 -9.714667E-10
       130  19  2.685840E+05  2.009031E+04 -2.134766E+04  1.130072E+05  2.067327E+03 -1.914772E+03
       130  20  2.653475E+05  1.642210E+04 -2.138102E+04  1.097379E+05  3.560385E+03 -1.567225E+03
       130  21  2.598086E+05  1.756508E+04 -1.989847E+04  1.096562E+05  5.045701E+03 -1.199222E+03
       130  22  3.545647E+05  5.235914E+04  1.614113E+03  1.363706E+05  1.987035E+03 -1.945011E+03
       130  23  3.558043E+05  5.058285E+04  2.799678E+03  1.345393E+05  3.488573E+03 -1.594257E+03
       130  24  3.547431E+05  5.361929E+04  5.507733E+03  1.358956E+05  4.982380E+03 -1.223043E+03
       130  25  4.405527E+05  8.462848E+04  2.457530E+04  1.597370E+05  1.906730E+03 -1.975255E+03
       130  26  4.462690E+05  8.474413E+04  2.697969E+04  1.593439E+05  3.416751E+03 -1.621293E+03
       130  27  4.496862E+05  8.967409E+04  3.091315E+04  1.621386E+05  4.919049E+03 -1.246869E+03
       131   1  2.508290E+05  1.399168E+04 -2.065712E+04  1.096126E+05 -6.192425E+03  9.413585E+02
       131   2  2.467265E+05  7.495499E+03 -1.692331E+04  1.045410E+05 -1.246041E+04 -1.188581E+03
       131   3  2.453779E+05  1.817811E+04 -4.787458E+03  9.977138E+04 -1.863096E+04 -3.577103E+03
       131   4  3.552634E+05  5.208969E+04  7.013247E+03  1.368670E+05 -6.058789E+03  9.916758E+02
       131   5  3.546298E+05  4.881407E+04  1.202645E+04  1.347108E+05 -1.243248E+04 -1.178120E+03
       131   6  3.567700E+05  6.273651E+04  2.552429E+04  1.328567E+05 -1.870879E+04 -3.606544E+03
       131   7  4.597081E+05  9.018810E+04  3.468261E+04  1.641253E+05 -5.925128E+03  1.042002E+03
       131   8  4.625443E+05  9.013345E+04  4.097518E+04  1.648853E+05 -1.240454E+04 -1.167657E+03
       131   9  4.681743E+05  1.072962E+05  5.583499E+04  1.659475E+05 -1.878663E+04 -3.635991E+03
       131  10  2.508290E+05  1.399167E+04 -2.065719E+04  1.096127E+05 -1.351205E-09 -6.051192E-09
       131  11  2.467264E+05  7.495456E+03 -1.692361E+04  1.045410E+05  3.598179E-09  9.375871E-10
       131  12  2.453775E+05  1.817800E+04 -4.788134E+03  9.977132E+04  4.030453E-09  5.995618E-09
       131  13  3.552634E+05  5.208968E+04  7.013176E+03  1.368670E+05 -1.743291E-09 -6.097041E-09
       131  14  3.546296E+05  4.881403E+04  1.202615E+04  1.347107E+05  7.667374E-09  1.487184E-09
       131  15  3.567696E+05  6.273640E+04  2.552361E+04  1.328566E+05  9.395123E-10 -4.272747E-09
       131  16  4.597081E+05  9.018809E+04  3.468254E+04  1.641253E+05  8.241948E-10 -4.066787E-09
       131  17  4.625441E+05  9.013340E+04  4.097488E+04  1.648853E+05 -6.290462E-10  3.703802E-09
       131  18  4.681740E+05  1.072961E+05  5.583431E+04  1.659475E+05 -1.209228E-09 -3.759369E-09
       131  19  2.508290E+05  1.399168E+04 -2.065712E+04  1.096126E+05  6.192425E+03 -9.413585E+02
       131  20  2.467265E+05  7.495499E+03 -1.692331E+04  1.045410E+05  1.246041E+04  1.188581E+03
       131  21  2.453779E+05  1.817811E+04 -4.787458E+03  9.977138E+04  1.863096E+04  3.577103E+03
       131  22  3.552634E+05  5.208969E+04  7.013247E+03  1.368670E+05  6.058789E+03 -9.916758E+02
       131  23  3.546298E+05  4.881407E+04  1.202645E+04  1.347108E+05  1.243248E+04  1.178120E+03
       131  24  3.567700E+05  6.273651E+04  2.552429E+04  1.328567E+05  1.870879E+04  3.606544E+03
       131  25  4.597081E+05  9.018810E+04  3.468261E+04  1.641253E+05  5.925128E+03 -1.042002E+03
       131  26  4.625443E+05  9.013345E+04  4.097518E+04  1.648853E+05  1.240454E+04  1.167657E+03
       131  27  4.681743E+05  1.072962E+05  5.583499E+04  1.659475E+05  1.878663E+04  3.635991E+03
       132   1  2.312103E+05  1.091847E+04 -1.340323E+03  1.156099E+05 -2.410544E+04 -5.029975E+03
       132   2  2.227151E+05 -1.783176E+04  1.701082E+04  9.669872E+04 -5.101533E+04 -1.486299E+04
       132   3  2.575010E+05  7.158099E+04  8.677250E+04  5.190515E+04 -7.687806E+04 -2.747762E+04
       132   4  3.607602E+05  4.947267E+04  3.124769E+04  1.404927E+05 -2.344089E+04 -4.779386E+03
       132   5  3.452905E+05  3.469236E+04  5.092456E+04  1.367220E+05 -5.148219E+04 -1.503939E+04
       132   6  3.733158E+05  1.382835E+05  1.229002E+05  1.070720E+05 -7.847602E+04 -2.808235E+04
       132   7  4.903265E+05  8.802666E+04  6.383451E+04  1.653795E+05 -2.277618E+04 -4.528766E+03
       132   8  4.678800E+05  8.721846E+04  8.483679E+04  1.767526E+05 -5.194915E+04 -1.521583E+04
       132   9  4.891439E+05  2.049926E+05  1.590263E+05  1.622494E+05 -8.007429E+04 -2.868734E+04
       132  10  2.312097E+05  1.091828E+04 -1.341462E+03  1.156098E+05  5.038408E-09  5.898856E-09
       132  11  2.227123E+05 -1.783269E+04  1.700552E+04  9.669811E+04  2.321292E-09  3.942525E-09
       132  12  2.574944E+05  7.157859E+04  8.675998E+04  5.190345E+04  1.279365E-09  8.657356E-10
       132  13  3.607596E+05  4.947250E+04  3.124661E+04  1.404926E+05 -4.109885E-09 -3.347105E-09
       132  14  3.452876E+05  3.469141E+04  5.091916E+04  1.367213E+05 -5.241597E-09  6.253409E-10
       132  15  3.733090E+05  1.382810E+05  1.228871E+05  1.070702E+05 -1.480510E-09 -5.639915E-09
       132  16  4.903260E+05  8.802650E+04  6.383350E+04  1.653794E+05 -5.890204E-09 -5.184018E-09
       132  17  4.678770E+05  8.721749E+04  8.483129E+04  1.767520E+05 -3.069690E-09  3.559719E-09
       132  18  4.891368E+05  2.049900E+05  1.590127E+05  1.622475E+05 -2.781358E-09  8.566162E-10
       132  19  2.312103E+05  1.091847E+04 -1.340323E+03  1.156099E+05  2.410544E+04  5.029975E+03
       132  20  2.227151E+05 -1.783176E+04  1.701082E+04  9.669872E+04  5.101533E+04  1.486299E+04
       132  21  2.575010E+05  7.158099E+04  8.677250E+04  5.190515E+04  7.687806E+04  2.747762E+04
       132  22  3.607602E+05  4.947267E+04  3.124769E+04  1.404927E+05  2.344089E+04  4.779386E+03
       132  23  3.452905E+05  3.469236E+04  5.092456E+04  1.367220E+05  5.148219E+04  1.503939E+04
       132  24  3.733158E+05  1.382835E+05  1.229002E+05  1.070720E+05  7.847602E+04  2.808235E+04
       132  25  4.903265E+05  8.802666E+04  6.383451E+04  1.653795E+05  2.277618E+04  4.528766E+03
       132  26  4.678800E+05  8.721846E+04  8.483679E+04  1.767526E+05  5.194915E+04  1.521583E+04
       132  27  4.891439E+05  2.049926E+05  1.590263E+05  1.622494E+05  8.007429E+04  2.868734E+04
       133   1 -9.707968E+01 -4.036557E+05 -1.400270E+03 -6.581907E+01 -3.188837E+01  1.025949E+02
       133   2 -2.928593E+02 -4.044651E+05 -1.913105E+03  1.351391E+02 -6.038635E+01  8.943837E+02
       133   3 -7.152623E+02 -4.054355E+05 -2.998586E+03 -1.148227E+02 -1.030225E+02  1.686168E+03
       133   4  3.771420E+00 -4.032405E+05 -1.311805E+03 -1.001479E+02 -3.190427E+01  1.179196E+02
       133   5  2.802975E+01 -4.031592E+05 -1.615276E+03  1.252187E+02 -6.041314E+01  9.202234E+02
       133   6 -1.761577E+02 -4.032406E+05 -2.498692E+03 -1.003343E+02 -1.030601E+02  1.722524E+03
       133   7  1.046225E+02 -4.028253E+05 -1.223340E+03 -1.344767E+02 -3.192018E+01  1.332443E+02
       133   8  3.489187E+02 -4.018532E+05 -1.317446E+03  1.152983E+02 -6.043994E+01  9.460632E+02
       133   9  3.629465E+02 -4.010458E+05 -1.998799E+03 -8.584588E+01 -1.030977E+02  1.758880E+03
       133  10 -9.707969E+01 -4.036557E+05 -1.400270E+03 -6.581907E+01  3.125844E-09  5.560853E-09
       133  11 -2.928596E+02 -4.044651E+05 -1.913107E+03  1.351392E+02  3.235084E-10  3.496192E-09
       133  12 -7.152630E+02 -4.054355E+05 -2.998591E+03 -1.148226E+02 -7.945402E-10  3.653130E-09
       133  13  3.771415E+00 -4.032405E+05 -1.311805E+03 -1.001479E+02 -1.938014E-09  5.435319E-09
       133  14  2.802952E+01 -4.031592E+05 -1.615277E+03  1.252188E+02 -4.087524E-10  1.058247E-09
       133  15 -1.761585E+02 -4.032406E+05 -2.498698E+03 -1.003342E+02  3.019350E-09 -2.816786E-09
       133  16  1.046225E+02 -4.028253E+05 -1.223340E+03 -1.344767E+02  2.133431E-09 -3.945528E-09
       133  17  3.489185E+02 -4.018532E+05 -1.317448E+03  1.152984E+02  3.756876E-09  8.882454E-11
       133  18  3.629457E+02 -4.010458E+05 -1.998805E+03 -8.584574E+01  2.248161E-09 -9.111118E-09
       133  19 -9.707968E+01 -4.036557E+05 -1.400270E+03 -6.581907E+01  3.188837E+01 -1.025949E+02
       133  20 -2.928593E+02 -4.044651E+05 -1.913105E+03  1.351391E+02  6.038635E+01 -8.943837E+02
       133  21 -7.152623E+02 -4.054355E+05 -2.998586E+03 -1.148227E+02  1.030225E+02 -1.686168E+03
       133  22  3.771420E+00 -4.032405E+05 -1.311805E+03 -1.001479E+02  3.190427E+01 -1.179196E+02
       133  23  2.802975E+01 -4.031592E+05 -1.615276E+03  1.252187E+02  6.041314E+01 -9.202234E+02
       133  24 -1.761577E+02 -4.032406E+05 -2.498692E+03 -1.003343E+02  1.030601E+02 -1.722524E+03
       133  25  1.046225E+02 -4.028253E+05 -1.223340E+03 -1.344767E+02  3.192018E+01 -1.332443E+02
       133  26  3.489187E+02 -4.018532E+05 -1.317446E+03  1.152983E+02  6.043994E+01 -9.460632E+02
       133  27  3.629465E+02 -4.010458E+05 -1.998799E+03 -8.584588E+01  1.030977E+02 -1.758880E+03
       134   1 -5.925657E+02 -4.064665E+05 -3.835419E+03  3.538467E+02 -1.322862E+02  2.184604E+03
       134   2 -7.597692E+02 -4.068211E+05 -6.135490E+03 -9.844238E+01 -1.773681E+02  4.838092E+03
       134   3 -3.816140E+03 -4.082450E+05 -1.088646E+04 -1.002475E+03 -2.138991E+02  7.491578E+03
       134   4  1.525390E+02 -4.034418E+05 -3.141634E+03 -9.956661E+01 -1.323237E+02  2.219273E+03
       134   5  2.016336E+02 -4.029082E+05 -5.240410E+03  1.248640E+02 -1.773955E+02  4.866413E+03
       134   6 -2.637326E+03 -4.034428E+05 -9.785662E+03 -1.024488E+02 -2.139108E+02  7.513555E+03
       134   7  8.976438E+02 -4.004170E+05 -2.447850E+03 -5.529822E+02 -1.323612E+02  2.253942E+03
       134   8  1.163036E+03 -3.989952E+05 -4.345331E+03  3.481718E+02 -1.774229E+02  4.894734E+03
       134   9 -1.458511E+03 -3.986405E+05 -8.684865E+03  7.975843E+02 -2.139224E+02  7.535532E+03
       134  10 -5.925670E+02 -4.064665E+05 -3.835428E+03  3.538470E+02  2.111066E-09  4.925193E-09
       134  11 -7.597755E+02 -4.068212E+05 -6.135534E+03 -9.844169E+01  5.579346E-09  7.426916E-10
       134  12 -3.816155E+03 -4.082451E+05 -1.088657E+04 -1.002474E+03  6.205996E-09 -3.615183E-09
       134  13  1.525377E+02 -4.034418E+05 -3.141643E+03 -9.956638E+01  9.829872E-09 -2.171138E-09
       134  14  2.016272E+02 -4.029082E+05 -5.240455E+03  1.248647E+02  8.190924E-09 -3.744458E-09
       134  15 -2.637342E+03 -4.034428E+05 -9.785768E+03 -1.024475E+02  3.502617E-09  6.546034E-10
       134  16  8.976424E+02 -4.004170E+05 -2.447859E+03 -5.529819E+02  6.501797E-09 -7.608851E-09
       134  17  1.163029E+03 -3.989952E+05 -4.345376E+03  3.481725E+02  9.077195E-09 -2.219078E-09
       134  18 -1.458527E+03 -3.986405E+05 -8.684972E+03  7.975856E+02  5.331442E-09  1.471360E-09
       134  19 -5.925657E+02 -4.064665E+05 -3.835419E+03  3.538467E+02  1.322862E+02 -2.184604E+03
       134  20 -7.597692E+02 -4.068211E+05 -6.135490E+03 -9.844238E+01  1.773681E+02 -4.838092E+03
       134  21 -3.816140E+03 -4.082450E+05 -1.088646E+04 -1.002475E+03  2.138991E+02 -7.491578E+03
       134  22  1.525390E+02 -4.034418E+05 -3.141634E+03 -9.956661E+01  1.323237E+02 -2.219273E+03
       134  23  2.016336E+02 -4.029082E+05 -5.240410E+03  1.248640E+02  1.773955E+02 -4.866413E+03
       134  24 -2.637326E+03 -4.034428E+05 -9.785662E+03 -1.024488E+02  2.139108E+02 -7.513555E+03
       134  25  8.976438E+02 -4.004170E+05 -2.447850E+03 -5.529822E+02  1.323612E+02 -2.253942E+03
       134  26  1.163036E+03 -3.989952E+05 -4.345331E+03  3.481718E+02  1.774229E+02 -4.894734E+03
       134  27 -1.458511E+03 -3.986405E+05 -8.684865E+03  7.975843E+02  2.139224E+02 -7.535532E+03
       135   1  6.092655E+02 -4.113100E+05 -1.343711E+04  5.326488E+03 -2.633468E+02  9.220150E+03
       135   2  6.363650E+02 -4.066128E+05 -2.166671E+04 -4.850215E+03 -2.872994E+02  2.012761E+04
       135   3 -3.849543E+04 -4.131291E+05 -4.679065E+04 -1.549587E+04 -1.204680E+02  3.103511E+04
       135   4  2.004137E+03 -4.056903E+05 -1.215175E+04 -9.327929E+01 -2.635101E+02  9.300557E+03
       135   5  2.226740E+03 -4.000996E+05 -2.016930E+04  1.214696E+02 -2.870744E+02  2.006597E+04
       135   6 -3.668507E+04 -4.056979E+05 -4.498243E+04 -1.330211E+02 -1.194902E+02  3.083144E+04
       135   7  3.399117E+03 -4.000706E+05 -1.086637E+04 -5.513096E+03 -2.636747E+02  9.380964E+03
       135   8  3.817205E+03 -3.935864E+05 -1.867187E+04  5.093206E+03 -2.868503E+02  2.000433E+04
       135   9 -3.487382E+04 -3.982661E+05 -4.317409E+04  1.523002E+04 -1.185225E+02  3.062778E+04
       135  10  6.092426E+02 -4.113101E+05 -1.343727E+04  5.326490E+03  4.705668E-09 -1.574034E-10
       135  11  6.362561E+02 -4.066132E+05 -2.166748E+04 -4.850210E+03  3.785184E-09  2.169172E-09
       135  12 -3.849569E+04 -4.131301E+05 -4.679247E+04 -1.549587E+04  2.191465E-09 -1.374656E-09
       135  13  2.004114E+03 -4.056904E+05 -1.215191E+04 -9.327732E+01  1.359695E-09 -2.112282E-09
       135  14  2.226632E+03 -4.001001E+05 -2.017006E+04  1.214743E+02  3.942000E-09 -2.300887E-09
       135  15 -3.668532E+04 -4.056989E+05 -4.498422E+04 -1.330181E+02  3.337986E-10 -1.864514E-09
       135  16  3.399093E+03 -4.000707E+05 -1.086654E+04 -5.513094E+03  6.959173E-10  1.778540E-09
       135  17  3.817097E+03 -3.935868E+05 -1.867262E+04  5.093211E+03 -1.146315E-09  3.057983E-09
       135  18 -3.487407E+04 -3.982671E+05 -4.317585E+04  1.523002E+04  7.231779E-10  1.182110E-09
       135  19  6.092656E+02 -4.113100E+05 -1.343711E+04  5.326488E+03  2.633468E+02 -9.220150E+03
       135  20  6.363650E+02 -4.066128E+05 -2.166671E+04 -4.850215E+03  2.872994E+02 -2.012761E+04
       135  21 -3.849543E+04 -4.131291E+05 -4.679065E+04 -1.549587E+04  1.204680E+02 -3.103511E+04
       135  22  2.004137E+03 -4.056903E+05 -1.215175E+04 -9.327929E+01  2.635101E+02 -9.300557E+03
       135  23  2.226740E+03 -4.000996E+05 -2.016930E+04  1.214696E+02  2.870744E+02 -2.006597E+04
       135  24 -3.668507E+04 -4.056979E+05 -4.498243E+04 -1.330211E+02  1.194902E+02 -3.083144E+04
       135  25  3.399117E+03 -4.000706E+05 -1.086637E+04 -5.513096E+03  2.636747E+02 -9.380964E+03
       135  26  3.817205E+03 -3.935864E+05 -1.867187E+04  5.093206E+03  2.868503E+02 -2.000433E+04
       135  27 -3.487382E+04 -3.982661E+05 -4.317409E+04  1.523002E+04  1.185225E+02 -3.062778E+04
       136   1 -1.022391E+07 -3.391775E+06 -1.845148E+06 -3.546560E+06 -5.553547E+05 -1.030164E+05
       136   2 -9.988516E+06 -3.041207E+06 -1.447370E+06 -3.459665E+06 -3.818538E+05  2.256658E+05
       136   3 -9.794845E+06 -2.905494E+06 -1.290455E+06 -3.390871E+06 -1.403106E+05  3.808409E+05
       136   4 -4.134228E+06 -9.441087E+05 -2.118102E+05 -1.741220E+06 -1.741912E+05  4.527994E+04
       136   5 -4.122243E+06 -7.777626E+05 -9.640489E+04 -1.763016E+06 -2.112142E+05  2.914850E+05
       136   6 -4.108828E+06 -7.829691E+05 -5.162916E+04 -1.803083E+06 -1.806753E+05  3.649031E+05
       136   7  1.992256E+06  1.507182E+06  1.418833E+06  8.085406E+04  2.111600E+05  1.953500E+05
       136   8  1.779264E+06  1.488999E+06  1.252369E+06 -5.122348E+04 -3.879037E+04  3.580236E+05
       136   9  1.610617E+06  1.342326E+06  1.185297E+06 -2.016787E+05 -2.214482E+05  3.488135E+05
       136  10 -1.022425E+07 -3.391871E+06 -1.845758E+06 -3.546607E+06 -1.223008E-08  2.566159E-09
       136  11 -9.988687E+06 -3.041301E+06 -1.447742E+06 -3.459595E+06 -6.620375E-09  5.287344E-09
       136  12 -9.794904E+06 -2.905655E+06 -1.290763E+06 -3.390828E+06  7.655331E-10  8.156928E-09
       136  13 -4.134261E+06 -9.441191E+05 -2.118713E+05 -1.741214E+06  5.908698E-09  2.475401E-09
       136  14 -4.122314E+06 -7.778655E+05 -9.664796E+04 -1.762967E+06  1.116852E-08 -1.592899E-08
       136  15 -4.108898E+06 -7.831205E+05 -5.194002E+04 -1.803030E+06 -1.025914E-10  9.732892E-09
       136  16  1.992198E+06  1.507129E+06  1.418678E+06  8.082093E+04  9.982983E-09  4.723916E-09
       136  17  1.779228E+06  1.488862E+06  1.252126E+06 -5.121232E+04 -3.424685E-09  1.563786E-08
       136  18  1.610531E+06  1.342182E+06  1.184977E+06 -2.016167E+05 -6.591613E-09  7.328405E-09
       136  19 -1.022391E+07 -3.391775E+06 -1.845148E+06 -3.546560E+06  5.553547E+05  1.030164E+05
       136  20 -9.988516E+06 -3.041207E+06 -1.447370E+06 -3.459665E+06  3.818538E+05 -2.256658E+05
       136  21 -9.794845E+06 -2.905494E+06 -1.290455E+06 -3.390871E+06  1.403106E+05 -3.808409E+05
       136  22 -4.134228E+06 -9.441087E+05 -2.118102E+05 -1.741220E+06  1.741912E+05 -4.527994E+04
       136  23 -4.122243E+06 -7.777626E+05 -9.640489E+04 -1.763016E+06  2.112142E+05 -2.914850E+05
       136  24 -4.108828E+06 -7.829691E+05 -5.162916E+04 -1.803083E+06  1.806753E+05 -3.649031E+05
       136  25  1.992256E+06  1.507182E+06  1.418833E+06  8.085406E+04 -2.111600E+05 -1.953500E+05
       136  26  1.779264E+06  1.488999E+06  1.252369E+06 -5.122348E+04  3.879037E+04 -3.580236E+05
       136  27  1.610617E+06  1.342326E+06  1.185297E+06 -2.016787E+05  2.214482E+05 -3.488135E+05
       137   1 -9.586241E+06 -2.859297E+06 -1.241565E+06 -3.348569E+06 -1.678272E+05  3.511822E+05
       137   2 -9.355131E+06 -2.714669E+06 -1.153534E+06 -3.237304E+06 -1.421636E+05  3.548315E+05
       137   3 -9.062978E+06 -2.636991E+06 -1.083383E+06 -3.190825E+06 -1.126226E+05  3.481608E+05
       137   4 -4.099840E+06 -7.939574E+05 -3.999719E+04 -1.799742E+06 -1.682341E+05  3.506874E+05
       137   5 -4.130448E+06 -7.572620E+05 -2.186709E+04 -1.768860E+06 -1.550157E+05  3.495891E+05
       137   6 -4.097539E+06 -7.849227E+05 -1.154649E+04 -1.802750E+06 -1.379486E+05  3.382126E+05
       137   7  1.417602E+06  1.274069E+06  1.159760E+06 -2.380624E+05 -1.686458E+05  3.501931E+05
       137   8  1.122407E+06  1.202548E+06  1.108194E+06 -2.888251E+05 -1.679876E+05  3.443028E+05
       137   9  8.933189E+05  1.069267E+06  1.058848E+06 -4.042823E+05 -1.634979E+05  3.281812E+05
       137  10 -9.586304E+06 -2.859437E+06 -1.241849E+06 -3.348521E+06  2.433798E-08  1.828387E-08
       137  11 -9.355186E+06 -2.714809E+06 -1.153807E+06 -3.237263E+06  3.636215E-09  1.258645E-08
       137  12 -9.063023E+06 -2.637125E+06 -1.083634E+06 -3.190794E+06 -1.440694E-08 -6.797876E-09
       137  13 -4.099903E+06 -7.940967E+05 -4.028083E+04 -1.799694E+06 -6.018460E-09  1.093557E-09
       137  14 -4.130507E+06 -7.573994E+05 -2.214127E+04 -1.768816E+06  7.692509E-09  2.429232E-09
       137  15 -4.097590E+06 -7.850503E+05 -1.179663E+04 -1.802713E+06 -2.080961E-09  3.044390E-09
       137  16  1.417539E+06  1.273930E+06  1.159476E+06 -2.380150E+05 -2.893808E-08  4.080130E-09
       137  17  1.122345E+06  1.202414E+06  1.107918E+06 -2.887786E+05 -4.985810E-09  1.004076E-08
       137  18  8.932615E+05  1.069144E+06  1.058596E+06 -4.042392E+05  1.829907E-08  1.236681E-08
       137  19 -9.586241E+06 -2.859297E+06 -1.241565E+06 -3.348569E+06  1.678272E+05 -3.511822E+05
       137  20 -9.355131E+06 -2.714669E+06 -1.153534E+06 -3.237304E+06  1.421636E+05 -3.548315E+05
       137  21 -9.062978E+06 -2.636991E+06 -1.083383E+06 -3.190825E+06  1.126226E+05 -3.481608E+05
       137  22 -4.099840E+06 -7.939574E+05 -3.999719E+04 -1.799742E+06  1.682341E+05 -3.506874E+05
       137  23 -4.130448E+06 -7.572620E+05 -2.186709E+04 -1.768860E+06  1.550157E+05 -3.495891E+05
       137  24 -4.097539E+06 -7.849227E+05 -1.154649E+04 -1.802750E+06  1.379486E+05 -3.382126E+05
       137  25  1.417602E+06  1.274069E+06  1.159760E+06 -2.380624E+05  1.686458E+05 -3.501931E+05
       137  26  1.122407E+06  1.202548E+06  1.108194E+06 -2.888251E+05  1.679876E+05 -3.443028E+05
       137  27  8.933189E+05  1.069267E+06  1.058848E+06 -4.042823E+05  1.634979E+05 -3.281812E+05
       138   1 -8.864641E+06 -2.562711E+06 -1.036370E+06 -3.135452E+06 -1.079864E+05  3.360714E+05
       138   2 -8.614309E+06 -2.418865E+06 -9.708042E+05 -3.015880E+06 -9.632679E+04  3.176782E+05
       138   3 -8.294435E+06 -2.339706E+06 -9.069270E+05 -2.968963E+06 -8.437166E+04  2.982120E+05
       138   4 -4.095928E+06 -7.860531E+05 -8.827635E+03 -1.803891E+06 -1.316318E+05  3.268068E+05
       138   5 -4.130138E+06 -7.525035E+05 -5.404869E+03 -1.767877E+06 -1.212438E+05  3.079959E+05
       138   6 -4.094654E+06 -7.833513E+05 -2.657668E+03 -1.804516E+06 -1.105637E+05  2.881155E+05
       138   7  6.962993E+05  9.925815E+05  1.017409E+06 -4.627389E+05 -1.554777E+05  3.174676E+05
       138   8  3.747972E+05  9.155772E+05  9.588383E+05 -5.114340E+05 -1.463589E+05  2.982399E+05
       138   9  1.233086E+05  7.744821E+05  9.005935E+05 -6.327063E+05 -1.369504E+05  2.779466E+05
       138  10 -8.864684E+06 -2.562835E+06 -1.036604E+06 -3.135423E+06 -3.200951E-09 -2.204871E-09
       138  11 -8.614346E+06 -2.418976E+06 -9.710108E+05 -3.015855E+06 -2.185518E-09 -1.364395E-09
       138  12 -8.294466E+06 -2.339803E+06 -9.071071E+05 -2.968943E+06 -3.328103E-09 -6.924656E-11
       138  13 -4.095975E+06 -7.861722E+05 -9.060362E+03 -1.803857E+06 -2.521779E-09 -4.689839E-09
       138  14 -4.130179E+06 -7.526091E+05 -5.610284E+03 -1.767847E+06  4.152911E-09 -4.045601E-09
       138  15 -4.094690E+06 -7.834435E+05 -2.836223E+03 -1.804491E+06 -2.002725E-09  1.378662E-09
       138  16  6.962465E+05  9.924671E+05  1.017175E+06 -4.626992E+05  2.416483E-09  3.856061E-09
       138  17  3.747504E+05  9.154762E+05  9.586314E+05 -5.113989E+05  4.742660E-10 -2.781294E-09
       138  18  1.232679E+05  7.743943E+05  9.004135E+05 -6.326757E+05  3.254017E-09 -8.237307E-11
       138  19 -8.864641E+06 -2.562711E+06 -1.036370E+06 -3.135452E+06  1.079864E+05 -3.360714E+05
       138  20 -8.614309E+06 -2.418865E+06 -9.708042E+05 -3.015880E+06  9.632679E+04 -3.176782E+05
       138  21 -8.294435E+06 -2.339706E+06 -9.069270E+05 -2.968963E+06  8.437166E+04 -2.982120E+05
       138  22 -4.095928E+06 -7.860531E+05 -8.827635E+03 -1.803891E+06  1.316318E+05 -3.268068E+05
       138  23 -4.130138E+06 -7.525035E+05 -5.404869E+03 -1.767877E+06  1.212438E+05 -3.079959E+05
       138  24 -4.094654E+06 -7.833513E+05 -2.657668E+03 -1.804516E+06  1.105637E+05 -2.881155E+05
       138  25  6.962993E+05  9.925815E+05  1.017409E+06 -4.627389E+05  1.554777E+05 -3.174676E+05
       138  26  3.747972E+05  9.155772E+05  9.588383E+05 -5.114340E+05  1.463589E+05 -2.982399E+05
       138  27  1.233086E+05  7.744821E+05  9.005935E+05 -6.327063E+05  1.369504E+05 -2.779466E+05
       139   1 -8.082787E+06 -2.260053E+06 -8.588200E+05 -2.910110E+06 -7.876961E+04  2.858985E+05
       139   2 -7.814319E+06 -2.109591E+06 -7.931471E+05 -2.784404E+06 -6.902576E+04  2.644246E+05
       139   3 -7.473690E+06 -2.027468E+06 -7.275693E+05 -2.736730E+06 -5.920671E+04  2.424854E+05
       139   4 -4.093677E+06 -7.839111E+05 -2.126329E+03 -1.805651E+06 -1.053461E+05  2.756959E+05
       139   5 -4.129225E+06 -7.486982E+05 -1.644745E+03 -1.766881E+06 -9.615200E+04  2.540737E+05
       139   6 -4.092616E+06 -7.816958E+05 -8.308149E+02 -1.806153E+06 -8.688396E+04  2.319875E+05
       139   7 -8.819074E+04  6.935486E+05  8.536464E+05 -6.945680E+05 -1.321097E+05  2.654236E+05
       139   8 -4.301431E+05  6.133147E+05  7.890785E+05 -7.437188E+05 -1.234546E+05  2.436571E+05
       139   9 -6.997536E+05  4.650155E+05  7.252577E+05 -8.708428E+05 -1.147263E+05  2.214282E+05
       139  10 -8.082816E+06 -2.260142E+06 -8.589849E+05 -2.910092E+06 -1.268265E-09 -2.261713E-09
       139  11 -7.814343E+06 -2.109667E+06 -7.932872E+05 -2.784390E+06 -5.949813E-10 -4.615929E-10
       139  12 -7.473710E+06 -2.027532E+06 -7.276861E+05 -2.736718E+06 -4.013220E-09 -1.843257E-09
       139  13 -4.093709E+06 -7.839955E+05 -2.289643E+03 -1.805628E+06  5.027907E-10  7.593809E-10
       139  14 -4.129252E+06 -7.487698E+05 -1.783110E+03 -1.766861E+06 -1.525591E-10  6.958829E-11
       139  15 -4.092639E+06 -7.817555E+05 -9.458714E+02 -1.806136E+06  5.272649E-10 -6.622547E-12
       139  16 -8.822827E+04  6.934684E+05  8.534816E+05 -6.945398E+05  2.417651E-09  2.821825E-10
       139  17 -4.301753E+05  6.132470E+05  7.889386E+05 -7.436946E+05  2.386047E-09  2.049745E-09
       139  18 -6.997809E+05  4.649595E+05  7.251411E+05 -8.708224E+05  3.217596E-09  6.068525E-10
       139  19 -8.082787E+06 -2.260053E+06 -8.588200E+05 -2.910110E+06  7.876961E+04 -2.858985E+05
       139  20 -7.814319E+06 -2.109591E+06 -7.931471E+05 -2.784404E+06  6.902576E+04 -2.644246E+05
       139  21 -7.473690E+06 -2.027468E+06 -7.275693E+05 -2.736730E+06  5.920671E+04 -2.424854E+05
       139  22 -4.093677E+06 -7.839111E+05 -2.126329E+03 -1.805651E+06  1.053461E+05 -2.756959E+05
       139  23 -4.129225E+06 -7.486982E+05 -1.644745E+03 -1.766881E+06  9.615200E+04 -2.540737E+05
       139  24 -4.092616E+06 -7.816958E+05 -8.308149E+02 -1.806153E+06  8.688396E+04 -2.319875E+05
       139  25 -8.819074E+04  6.935486E+05  8.536464E+05 -6.945680E+05  1.321097E+05 -2.654236E+05
       139  26 -4.301431E+05  6.133147E+05  7.890785E+05 -7.437188E+05  1.234546E+05 -2.436571E+05
       139  27 -6.997536E+05  4.650155E+05  7.252577E+05 -8.708428E+05  1.147263E+05 -2.214282E+05
       140   1 -7.249929E+06 -1.944212E+06 -6.774640E+05 -2.675350E+06 -5.365375E+04  2.294044E+05
       140   2 -6.966657E+06 -1.788412E+06 -6.096556E+05 -2.544862E+06 -4.397995E+04  2.066396E+05
       140   3 -6.609577E+06 -1.704115E+06 -5.420210E+05 -2.496735E+06 -3.426113E+04  1.835387E+05
       140   4 -4.091890E+06 -7.821122E+05 -8.592188E+02 -1.807083E+06 -8.173547E+04  2.187877E+05
       140   5 -4.128336E+06 -7.455056E+05 -1.146163E+03 -1.766096E+06 -7.246104E+04  1.959209E+05
       140   6 -4.091021E+06 -7.803096E+05 -1.298853E+03 -1.807486E+06 -6.314249E+04  1.727189E+05
       140   7 -9.235850E+05  3.807972E+05  6.751773E+05 -9.346978E+05 -1.099732E+05  2.081129E+05
       140   8 -1.281739E+06  2.980439E+05  6.069013E+05 -9.840171E+05 -1.010841E+05  1.851494E+05
       140   9 -1.565966E+06  1.439928E+05  5.390562E+05 -1.115641E+06 -9.215134E+04  1.618518E+05
       140  10 -7.249947E+06 -1.944270E+06 -6.775681E+05 -2.675340E+06 -2.782148E-09 -1.741666E-09
       140  11 -6.966670E+06 -1.788458E+06 -6.097393E+05 -2.544855E+06 -7.968696E-10 -2.611817E-09
       140  12 -6.609587E+06 -1.704152E+06 -5.420864E+05 -2.496730E+06 -2.437391E-09 -3.169115E-09
       140  13 -4.091910E+06 -7.821653E+05 -9.614918E+02 -1.807068E+06  2.093453E-10  1.804173E-10
       140  14 -4.128351E+06 -7.455481E+05 -1.227975E+03 -1.766085E+06  1.247109E-10 -1.968652E-10
       140  15 -4.091033E+06 -7.803427E+05 -1.362260E+03 -1.807477E+06  1.242755E-09 -4.803362E-10
       140  16 -9.236095E+05  3.807475E+05  6.750734E+05 -9.346794E+05  1.943193E-09  2.792474E-09
       140  17 -1.281759E+06  2.980045E+05  6.068179E+05 -9.840020E+05  2.283280E-09  2.558872E-09
       140  18 -1.565983E+06  1.439625E+05  5.389912E+05 -1.115629E+06  1.830372E-09 -4.687350E-09
       140  19 -7.249929E+06 -1.944212E+06 -6.774640E+05 -2.675350E+06  5.365375E+04 -2.294044E+05
       140  20 -6.966657E+06 -1.788412E+06 -6.096556E+05 -2.544862E+06  4.397995E+04 -2.066396E+05
       140  21 -6.609577E+06 -1.704115E+06 -5.420210E+05 -2.496735E+06  3.426113E+04 -1.835387E+05
       140  22 -4.091890E+06 -7.821122E+05 -8.592188E+02 -1.807083E+06  8.173547E+04 -2.187877E+05
       140  23 -4.128336E+06 -7.455056E+05 -1.146163E+03 -1.766096E+06  7.246104E+04 -1.959209E+05
       140  24 -4.091021E+06 -7.803096E+05 -1.298853E+03 -1.807486E+06  6.314249E+04 -1.727189E+05
       140  25 -9.235850E+05  3.807972E+05  6.751773E+05 -9.346978E+05  1.099732E+05 -2.081129E+05
       140  26 -1.281739E+06  2.980439E+05  6.069013E+05 -9.840171E+05  1.010841E+05 -1.851494E+05
       140  27 -1.565966E+06  1.439928E+05  5.390562E+05 -1.115641E+06  9.215134E+04 -1.618518E+05
       141   1 -6.376344E+06 -1.618121E+06 -4.903608E+05 -2.433406E+06 -2.854547E+04  1.699308E+05
       141   2 -6.081957E+06 -1.458513E+06 -4.214817E+05 -2.299378E+06 -1.782768E+04  1.466601E+05
       141   3 -5.712822E+06 -1.372924E+06 -3.537280E+05 -2.250957E+06 -7.090857E+03  1.231868E+05
       141   4 -4.090548E+06 -7.806082E+05 -1.744366E+03 -1.808209E+06 -5.773714E+04  1.590204E+05
       141   5 -4.127577E+06 -7.430355E+05 -3.108826E+03 -1.765515E+06 -4.725964E+04  1.356938E+05
       141   6 -4.089948E+06 -7.794317E+05 -5.416490E+03 -1.808457E+06 -3.676434E+04  1.121649E+05
       141   7 -1.799363E+06  5.732690E+04  4.865824E+05 -1.180865E+06 -8.704604E+04  1.480665E+05
       141   8 -2.169265E+06 -2.725325E+04  4.150512E+05 -1.230087E+06 -7.679249E+04  1.246901E+05
       141   9 -2.464370E+06 -1.857334E+05  3.427472E+05 -1.364881E+06 -6.652214E+04  1.011118E+05
       141  10 -6.376352E+06 -1.618153E+06 -4.904165E+05 -2.433402E+06  2.840604E-09 -5.533563E-11
       141  11 -6.081963E+06 -1.458536E+06 -4.215226E+05 -2.299376E+06 -5.358752E-10  3.563986E-09
       141  12 -5.712826E+06 -1.372940E+06 -3.537566E+05 -2.250956E+06 -1.565065E-08 -5.441366E-09
       141  13 -4.090558E+06 -7.806362E+05 -1.798027E+03 -1.808201E+06  7.119452E-10 -1.182695E-09
       141  14 -4.127584E+06 -7.430558E+05 -3.147537E+03 -1.765510E+06  2.629650E-09  4.577433E-09
       141  15 -4.089952E+06 -7.794455E+05 -5.442614E+03 -1.808453E+06 -1.632606E-09  4.253798E-10
       141  16 -1.799377E+06  5.730140E+04  4.865271E+05 -1.180854E+06 -5.631746E-10 -4.320821E-09
       141  17 -2.169276E+06 -2.727148E+04  4.150110E+05 -1.230079E+06  4.365709E-09 -5.260924E-09
       141  18 -2.464378E+06 -1.857455E+05  3.427197E+05 -1.364876E+06  7.105889E-09  6.981987E-09
       141  19 -6.376344E+06 -1.618121E+06 -4.903608E+05 -2.433406E+06  2.854547E+04 -1.699308E+05
       141  20 -6.081957E+06 -1.458513E+06 -4.214817E+05 -2.299378E+06  1.782768E+04 -1.466601E+05
       141  21 -5.712822E+06 -1.372924E+06 -3.537280E+05 -2.250957E+06  7.090857E+03 -1.231868E+05
       141  22 -4.090548E+06 -7.806082E+05 -1.744366E+03 -1.808209E+06  5.773714E+04 -1.590204E+05
       141  23 -4.127577E+06 -7.430355E+05 -3.108826E+03 -1.765515E+06  4.725964E+04 -1.356938E+05
       141  24 -4.089948E+06 -7.794317E+05 -5.416490E+03 -1.808457E+06  3.676434E+04 -1.121649E+05
       141  25 -1.799363E+06  5.732690E+04  4.865824E+05 -1.180865E+06  8.704604E+04 -1.480665E+05
       141  26 -2.169265E+06 -2.725325E+04  4.150512E+05 -1.230087E+06  7.679249E+04 -1.246901E+05
       141  27 -2.464370E+06 -1.857334E+05  3.427472E+05 -1.364881E+06  6.652214E+04 -1.011118E+05
       142   1 -5.472918E+06 -1.285226E+06 -3.021323E+05 -2.186843E+06 -5.019112E+02  1.094834E+05
       142   2 -5.171685E+06 -1.122858E+06 -2.363475E+05 -2.049230E+06  1.464079E+04  8.750291E+04
       142   3 -4.796880E+06 -1.039286E+06 -1.760324E+05 -1.998545E+06  2.960756E+04  6.592337E+04
       142   4 -4.089922E+06 -7.793825E+05 -7.242284E+03 -1.809108E+06 -3.049301E+04  9.835987E+04
       142   5 -4.126727E+06 -7.416599E+05 -1.319713E+04 -1.764940E+06 -1.485144E+04  7.658200E+04
       142   6 -4.090185E+06 -7.828355E+05 -2.501984E+04 -1.807741E+06  6.107891E+02  5.520360E+04
       142   7 -2.704970E+06 -2.733903E+05  2.875404E+05 -1.430592E+06 -6.055643E+04  8.720950E+04
       142   8 -3.080647E+06 -3.603768E+05  2.098948E+05 -1.480206E+06 -4.439753E+04  6.564118E+04
       142   9 -3.382973E+06 -5.263449E+05  1.259692E+05 -1.616733E+06 -2.842199E+04  4.447068E+04
       142  10 -5.472922E+06 -1.285239E+06 -3.021548E+05 -2.186843E+06  5.609672E-09  6.791500E-09
       142  11 -5.171687E+06 -1.122866E+06 -2.363623E+05 -2.049231E+06 -2.243501E-09 -5.473571E-09
       142  12 -4.796882E+06 -1.039291E+06 -1.760422E+05 -1.998547E+06 -7.248961E-09 -4.617228E-09
       142  13 -4.089926E+06 -7.793931E+05 -7.262168E+03 -1.809105E+06 -3.621814E-09  4.300476E-09
       142  14 -4.126729E+06 -7.416663E+05 -1.320854E+04 -1.764939E+06 -8.908261E-11 -3.357641E-09
       142  15 -4.090186E+06 -7.828388E+05 -2.502556E+04 -1.807741E+06 -1.806097E-09  3.567758E-09
       142  16 -2.704976E+06 -2.733994E+05  2.875192E+05 -1.430588E+06 -6.402679E-09  4.825714E-09
       142  17 -3.080650E+06 -3.603820E+05  2.098830E+05 -1.480203E+06  9.812630E-10  2.066846E-10
       142  18 -3.382974E+06 -5.263472E+05  1.259640E+05 -1.616732E+06  2.671834E-09  6.650035E-09
       142  19 -5.472918E+06 -1.285226E+06 -3.021323E+05 -2.186843E+06  5.019112E+02 -1.094834E+05
       142  20 -5.171685E+06 -1.122858E+06 -2.363475E+05 -2.049230E+06 -1.464079E+04 -8.750291E+04
       142  21 -4.796880E+06 -1.039286E+06 -1.760324E+05 -1.998545E+06 -2.960756E+04 -6.592337E+04
       142  22 -4.089922E+06 -7.793825E+05 -7.242284E+03 -1.809108E+06  3.049301E+04 -9.835987E+04
       142  23 -4.126727E+06 -7.416599E+05 -1.319713E+04 -1.764940E+06  1.485144E+04 -7.658200E+04
       142  24 -4.090185E+06 -7.828355E+05 -2.501984E+04 -1.807741E+06 -6.107891E+02 -5.520360E+04
       142  25 -2.704970E+06 -2.733903E+05  2.875404E+05 -1.430592E+06  6.055643E+04 -8.720950E+04
       142  26 -3.080647E+06 -3.603768E+05  2.098948E+05 -1.480206E+06  4.439753E+04 -6.564118E+04
       142  27 -3.382973E+06 -5.263449E+05  1.259692E+05 -1.616733E+06  2.842199E+04 -4.447068E+04
       143   1 -4.547736E+06 -9.541107E+05 -1.295005E+05 -1.948036E+06  4.115956E+04  5.350134E+04
       143   2 -4.259315E+06 -7.774217E+05 -8.157328E+04 -1.773045E+06  6.894666E+04  4.014078E+04
       143   3 -3.927931E+06 -7.564455E+05 -7.060281E+04 -1.665475E+06  9.325645E+04  3.619829E+04
       143   4 -4.094193E+06 -7.771071E+05 -3.243266E+04 -1.811994E+06  9.848832E+03  4.193443E+04
       143   5 -4.121710E+06 -7.503578E+05 -5.984717E+04 -1.758973E+06  4.919787E+04  3.284197E+04
       143   6 -4.108699E+06 -8.816512E+05 -1.334249E+05 -1.773446E+06  8.505895E+04  3.315997E+04
       143   7 -3.640433E+06 -6.000770E+05  6.462835E+04 -1.675855E+06 -2.148676E+04  3.035676E+04
       143   8 -3.984085E+06 -7.232939E+05 -3.811994E+04 -1.744900E+06  2.944460E+04  2.554333E+04
       143   9 -4.289422E+06 -1.006820E+06 -1.962475E+05 -1.881378E+06  7.686429E+04  3.012464E+04
       143  10 -4.547739E+06 -9.541143E+05 -1.295091E+05 -1.948038E+06  5.548607E-09  6.930785E-11
       143  11 -4.259321E+06 -7.774247E+05 -8.158534E+04 -1.773047E+06  4.125632E-09 -2.792355E-09
       143  12 -3.927940E+06 -7.564492E+05 -7.062176E+04 -1.665478E+06 -3.316731E-09 -1.595808E-09
       143  13 -4.094194E+06 -7.771090E+05 -3.243615E+04 -1.811994E+06 -2.900771E-09  6.692801E-09
       143  14 -4.121713E+06 -7.503596E+05 -5.985380E+04 -1.758974E+06  4.048509E-09  4.386900E-09
       143  15 -4.108707E+06 -8.816544E+05 -1.334407E+05 -1.773449E+06 -7.430875E-10 -1.530167E-09
       143  16 -3.640434E+06 -6.000782E+05  6.462576E+04 -1.675854E+06 -9.944205E-09 -1.117189E-09
       143  17 -3.984086E+06 -7.232949E+05 -3.812281E+04 -1.744900E+06  5.160791E-10 -6.310688E-09
       143  18 -4.289429E+06 -1.006822E+06 -1.962604E+05 -1.881380E+06  5.108661E-09 -4.792095E-09
       143  19 -4.547736E+06 -9.541107E+05 -1.295005E+05 -1.948036E+06 -4.115956E+04 -5.350134E+04
       143  20 -4.259315E+06 -7.774217E+05 -8.157328E+04 -1.773045E+06 -6.894666E+04 -4.014078E+04
       143  21 -3.927931E+06 -7.564455E+05 -7.060281E+04 -1.665475E+06 -9.325645E+04 -3.619829E+04
       143  22 -4.094193E+06 -7.771071E+05 -3.243266E+04 -1.811994E+06 -9.848832E+03 -4.193443E+04
       143  23 -4.121710E+06 -7.503578E+05 -5.984717E+04 -1.758973E+06 -4.919787E+04 -3.284197E+04
       143  24 -4.108699E+06 -8.816512E+05 -1.334249E+05 -1.773446E+06 -8.505895E+04 -3.315997E+04
       143  25 -3.640433E+06 -6.000770E+05  6.462835E+04 -1.675855E+06  2.148676E+04 -3.035676E+04
       143  26 -3.984085E+06 -7.232939E+05 -3.811994E+04 -1.744900E+06 -2.944460E+04 -2.554333E+04
       143  27 -4.289422E+06 -1.006820E+06 -1.962475E+05 -1.881378E+06 -7.686429E+04 -3.012464E+04
       144   1  3.184356E+05  6.588537E+04  8.715680E+04  9.471786E+03  6.283422E+04  1.113779E+02
       144   2  3.060520E+05 -2.026757E+04  3.489719E+04  2.972775E+03  4.135178E+04  2.974080E+02
       144   3  3.213574E+05 -6.849393E+03  2.151394E+04 -6.053911E+03  1.986882E+04  2.176591E+02
       144   4  3.383478E+05  7.085626E+04  9.211762E+04 -1.002435E+03  6.290509E+04  1.103235E+02
       144   5  3.245042E+05 -1.566476E+04  3.946701E+04  2.641876E+02  4.136448E+04  2.972278E+02
       144   6  3.383588E+05 -2.606403E+03  2.573220E+04 -9.968754E+02  1.982341E+04  2.178193E+02
       144   7  3.582605E+05  7.582754E+04  9.707848E+04 -1.147699E+04  6.297596E+04  1.092668E+02
       144   8  3.429568E+05 -1.106195E+04  4.403680E+04 -2.444480E+03  4.137718E+04  2.970474E+02
       144   9  3.553605E+05  1.636661E+03  2.995046E+04  4.060299E+03  1.977800E+04  2.179787E+02
       144  10  3.184314E+05  6.588431E+04  8.714938E+04  9.471780E+03  5.388525E-10  7.294304E-10
       144  11  3.060502E+05 -2.026803E+04  3.489397E+04  2.972765E+03 -1.737015E-09  1.360949E-09
       144  12  3.213570E+05 -6.849499E+03  2.151320E+04 -6.053915E+03  6.361281E-10 -1.631150E-09
       144  13  3.383435E+05  7.085520E+04  9.211019E+04 -1.002441E+03 -2.003916E-09  9.527069E-10
       144  14  3.245024E+05 -1.566522E+04  3.946379E+04  2.641777E+02  1.281014E-10  1.454120E-09
       144  15  3.383584E+05 -2.606509E+03  2.573147E+04 -9.968789E+02  3.999549E-10 -1.676928E-09
       144  16  3.582563E+05  7.582648E+04  9.707103E+04 -1.147700E+04  1.710665E-09  9.933950E-10
       144  17  3.429550E+05 -1.106241E+04  4.403359E+04 -2.444490E+03  9.187767E-10  1.441094E-09
       144  18  3.553601E+05  1.636556E+03  2.994973E+04  4.060295E+03 -3.353334E-09 -1.743829E-09
       144  19  3.184356E+05  6.588537E+04  8.715680E+04  9.471786E+03 -6.283422E+04 -1.113779E+02
       144  20  3.060520E+05 -2.026757E+04  3.489719E+04  2.972775E+03 -4.135178E+04 -2.974080E+02
       144  21  3.213574E+05 -6.849393E+03  2.151394E+04 -6.053911E+03 -1.986882E+04 -2.176591E+02
       144  22  3.383478E+05  7.085626E+04  9.211762E+04 -1.002435E+03 -6.290509E+04 -1.103235E+02
       144  23  3.245042E+05 -1.566476E+04  3.946701E+04  2.641876E+02 -4.136448E+04 -2.972278E+02
       144  24  3.383588E+05 -2.606403E+03  2.573220E+04 -9.968754E+02 -1.982341E+04 -2.178193E+02
       144  25  3.582605E+05  7.582754E+04  9.707848E+04 -1.147699E+04 -6.297596E+04 -1.092668E+02
       144  26  3.429568E+05 -1.106195E+04  4.403680E+04 -2.444480E+03 -4.137718E+04 -2.970474E+02
       144  27  3.553605E+05  1.636661E+03  2.995046E+04  4.060299E+03 -1.977800E+04 -2.179787E+02
       145   1  3.228875E+05  7.715369E+03  1.871105E+04  4.645136E+02  1.560105E+04  1.465899E+02
       145   2  3.221317E+05 -4.493292E+03  8.040985E+03  5.835230E+02  1.025359E+04  1.289667E+02
       145   3  3.256889E+05 -2.234422E+03  4.468142E+03 -1.729377E+03  4.906130E+03  7.466968E+01
       145   4  3.331593E+05  1.027822E+04  2.125748E+04 -9.773493E+02  1.560139E+04  1.465535E+02
       145   5  3.310033E+05 -2.279829E+03  1.023994E+04  2.386817E+02  1.024593E+04  1.289609E+02
       145   6  3.331615E+05 -3.690764E+02  6.325091E+03 -9.771927E+02  4.890472E+03  7.467571E+01
       145   7  3.434313E+05  1.284107E+04  2.380389E+04 -2.419236E+03  1.560174E+04  1.465172E+02
       145   8  3.398749E+05 -6.637151E+01  1.243888E+04 -1.061646E+02  1.023827E+04  1.289550E+02
       145   9  3.406341E+05  1.496267E+03  8.182036E+03 -2.249991E+02  4.874813E+03  7.468170E+01
       145  10  3.228872E+05  7.715304E+03  1.871059E+04  4.645118E+02 -1.007796E-09 -1.639430E-09
       145  11  3.221316E+05 -4.493321E+03  8.040788E+03  5.835220E+02  2.600311E-09  7.852648E-10
       145  12  3.256889E+05 -2.234428E+03  4.468096E+03 -1.729378E+03  5.136707E-09 -1.995019E-11
       145  13  3.331591E+05  1.027815E+04  2.125702E+04 -9.773511E+02  1.328530E-10 -1.815456E-09
       145  14  3.310032E+05 -2.279857E+03  1.023974E+04  2.386806E+02  6.642769E-09  7.614901E-10
       145  15  3.331615E+05 -3.690828E+02  6.325046E+03 -9.771930E+02 -2.277230E-09 -5.151305E-11
       145  16  3.434310E+05  1.284100E+04  2.380344E+04 -2.419238E+03 -3.361331E-09 -2.009096E-09
       145  17  3.398748E+05 -6.639965E+01  1.243869E+04 -1.061656E+02 -6.736379E-09  7.783807E-10
       145  18  3.406341E+05  1.496261E+03  8.181991E+03 -2.249994E+02 -5.301395E-09  2.464954E-10
       145  19  3.228875E+05  7.715369E+03  1.871105E+04  4.645136E+02 -1.560105E+04 -1.465899E+02
       145  20  3.221317E+05 -4.493292E+03  8.040985E+03  5.835230E+02 -1.025359E+04 -1.289667E+02
       145  21  3.256889E+05 -2.234422E+03  4.468142E+03 -1.729377E+03 -4.906130E+03 -7.466968E+01
       145  22  3.331593E+05  1.027822E+04  2.125748E+04 -9.773493E+02 -1.560139E+04 -1.465535E+02
       145  23  3.310033E+05 -2.279829E+03  1.023994E+04  2.386817E+02 -1.024593E+04 -1.289609E+02
       145  24  3.331615E+05 -3.690764E+02  6.325091E+03 -9.771927E+02 -4.890472E+03 -7.467571E+01
       145  25  3.434313E+05  1.284107E+04  2.380389E+04 -2.419236E+03 -1.560174E+04 -1.465172E+02
       145  26  3.398749E+05 -6.637151E+01  1.243888E+04 -1.061646E+02 -1.023827E+04 -1.289550E+02
       145  27  3.406341E+05  1.496267E+03  8.182036E+03 -2.249991E+02 -4.874813E+03 -7.468170E+01
       146   1  3.314557E+05  1.257441E+03  4.829299E+03 -7.824262E+02  3.874224E+03  3.970404E+01
       146   2  3.324906E+05 -2.106234E+02  2.739386E+03  2.687206E+02  2.538295E+03 -5.982726E+00
       146   3  3.342226E+05  4.147526E+02  2.042204E+03 -1.084163E+03  1.202385E+03 -5.708521E+01
       146   4  3.323573E+05  1.481660E+03  5.049040E+03 -9.710233E+02  3.864934E+03  3.970297E+01
       146   5  3.320089E+05 -3.308312E+02  2.619848E+03  2.309837E+02  2.527833E+03 -5.982765E+00
       146   6  3.323578E+05 -4.967373E+01  1.584201E+03 -9.710416E+02  1.190753E+03 -5.708487E+01
       146   7  3.332590E+05  1.705879E+03  5.268782E+03 -1.159621E+03  3.855645E+03  3.970192E+01
       146   8  3.315272E+05 -4.510391E+02  2.500309E+03  1.932468E+02  2.517371E+03 -5.982803E+00
       146   9  3.304930E+05 -5.141002E+02  1.126198E+03 -8.579205E+02  1.179121E+03 -5.708453E+01
       146  10  3.314557E+05  1.257437E+03  4.829271E+03 -7.824263E+02  2.797895E-09 -2.392933E-10
       146  11  3.324906E+05 -2.106251E+02  2.739374E+03  2.687206E+02  3.501208E-09  8.514313E-10
       146  12  3.342226E+05  4.147522E+02  2.042201E+03 -1.084163E+03 -3.116095E-09  3.007102E-10
       146  13  3.323573E+05  1.481656E+03  5.049012E+03 -9.710234E+02  2.020378E-09 -2.555280E-10
       146  14  3.320089E+05 -3.308329E+02  2.619836E+03  2.309837E+02  1.723130E-08  6.767763E-10
       146  15  3.323578E+05 -4.967411E+01  1.584198E+03 -9.710415E+02  3.508115E-09  2.792490E-10
       146  16  3.332590E+05  1.705875E+03  5.268754E+03 -1.159621E+03 -2.978258E-09 -2.450347E-10
       146  17  3.315272E+05 -4.510408E+02  2.500297E+03  1.932468E+02 -4.422469E-09  4.617857E-10
       146  18  3.304930E+05 -5.141006E+02  1.126195E+03 -8.579205E+02  2.432229E-10  4.419864E-10
       146  19  3.314557E+05  1.257441E+03  4.829299E+03 -7.824262E+02 -3.874224E+03 -3.970404E+01
       146  20  3.324906E+05 -2.106234E+02  2.739386E+03  2.687206E+02 -2.538295E+03  5.982726E+00
       146  21  3.342226E+05  4.147526E+02  2.042204E+03 -1.084163E+03 -1.202385E+03  5.708521E+01
       146  22  3.323573E+05  1.481660E+03  5.049040E+03 -9.710233E+02 -3.864934E+03 -3.970297E+01
       146  23  3.320089E+05 -3.308312E+02  2.619848E+03  2.309837E+02 -2.527833E+03  5.982765E+00
       146  24  3.323578E+05 -4.967373E+01  1.584201E+03 -9.710416E+02 -1.190753E+03  5.708487E+01
       146  25  3.332590E+05  1.705879E+03  5.268782E+03 -1.159621E+03 -3.855645E+03 -3.970192E+01
       146  26  3.315272E+05 -4.510391E+02  2.500309E+03  1.932468E+02 -2.517371E+03  5.982803E+00
       146  27  3.304930E+05 -5.141002E+02  1.126198E+03 -8.579205E+02 -1.179121E+03  5.708453E+01
       147   1  3.406755E+05  2.318981E+03  3.348569E+03 -9.557829E+02  9.451811E+02 -8.713920E+01
       147   2  3.420157E+05  2.407221E+03  3.155682E+03  2.430499E+02  5.864984E+02 -1.370707E+02
       147   3  3.434818E+05  2.809820E+03  3.274944E+03 -9.964049E+02  2.278116E+02 -1.889440E+02
       147   4  3.322308E+05  2.110350E+02  1.250426E+03 -9.786473E+02  9.345914E+02 -8.713924E+01
       147   5  3.321678E+05 -4.997253E+01  7.139104E+02  2.404969E+02  5.754931E+02 -1.370709E+02
       147   6  3.322309E+05  3.448467E+00  4.898291E+02 -9.786486E+02  2.163916E+02 -1.889444E+02
       147   7  3.237861E+05 -1.896917E+03 -8.477232E+02 -1.001511E+03  9.240018E+02 -8.713927E+01
       147   8  3.223200E+05 -2.507174E+03 -1.727869E+03  2.379439E+02  5.644881E+02 -1.370711E+02
       147   9  3.209800E+05 -2.802932E+03 -2.295295E+03 -9.608926E+02  2.049719E+02 -1.889449E+02
       147  10  3.406755E+05  2.318981E+03  3.348568E+03 -9.557828E+02 -1.009873E-09 -2.376515E-10
       147  11  3.420157E+05  2.407221E+03  3.155682E+03  2.430499E+02  3.142109E-09 -5.239842E-10
       147  12  3.434818E+05  2.809820E+03  3.274944E+03 -9.964049E+02 -7.041227E-10 -3.645917E-10
       147  13  3.322308E+05  2.110348E+02  1.250424E+03 -9.786472E+02  4.293209E-09 -1.505286E-10
       147  14  3.321678E+05 -4.997264E+01  7.139097E+02  2.404969E+02 -2.211843E-09 -3.247289E-10
       147  15  3.322309E+05  3.448416E+00  4.898290E+02 -9.786486E+02 -1.214817E-09 -1.829594E-10
       147  16  3.237861E+05 -1.896917E+03 -8.477248E+02 -1.001511E+03  5.362768E-09 -1.194676E-10
       147  17  3.223200E+05 -2.507174E+03 -1.727870E+03  2.379440E+02  4.271956E-09 -3.682638E-10
       147  18  3.209800E+05 -2.802933E+03 -2.295295E+03 -9.608926E+02 -6.069897E-09 -1.011608E-10
       147  19  3.406755E+05  2.318981E+03  3.348569E+03 -9.557829E+02 -9.451811E+02  8.713920E+01
       147  20  3.420157E+05  2.407221E+03  3.155682E+03  2.430499E+02 -5.864984E+02  1.370707E+02
       147  21  3.434818E+05  2.809820E+03  3.274944E+03 -9.964049E+02 -2.278116E+02  1.889440E+02
       147  22  3.322308E+05  2.110350E+02  1.250426E+03 -9.786473E+02 -9.345914E+02  8.713924E+01
       147  23  3.321678E+05 -4.997253E+01  7.139104E+02  2.404969E+02 -5.754931E+02  1.370709E+02
       147  24  3.322309E+05  3.448467E+00  4.898291E+02 -9.786486E+02 -2.163916E+02  1.889444E+02
       147  25  3.237861E+05 -1.896917E+03 -8.477232E+02 -1.001511E+03 -9.240018E+02  8.713927E+01
       147  26  3.223200E+05 -2.507174E+03 -1.727869E+03  2.379439E+02 -5.644881E+02  1.370711E+02
       147  27  3.209800E+05 -2.802932E+03 -2.295295E+03 -9.608926E+02 -2.049719E+02  1.889449E+02
       148   1  3.502273E+05  4.521824E+03  4.902579E+03 -9.920520E+02  1.440490E+02 -2.193455E+02
       148   2  3.516538E+05  4.834275E+03  5.222070E+03  2.672606E+02 -5.379676E+01 -2.713878E+02
       148   3  3.531455E+05  5.293895E+03  5.707647E+03 -1.009368E+03 -2.516389E+02 -3.244930E+02
       148   4  3.322173E+05  2.719049E+01  4.326237E+02 -1.000349E+03  1.329166E+02 -2.193462E+02
       148   5  3.321847E+05 -2.352986E+01  3.947958E+02  2.676218E+02 -6.515355E+01 -2.713890E+02
       148   6  3.322173E+05  7.296014E+01  5.232136E+02 -1.000354E+03 -2.632197E+02 -3.244947E+02
       148   7  3.142076E+05 -4.467467E+03 -4.037356E+03 -1.008645E+03  1.217846E+02 -2.193470E+02
       148   8  3.127159E+05 -4.881364E+03 -4.432506E+03  2.679830E+02 -7.650998E+01 -2.713902E+02
       148   9  3.112895E+05 -5.148008E+03 -4.661252E+03 -9.913401E+02 -2.748001E+02 -3.244964E+02
       148  10  3.502273E+05  4.521824E+03  4.902579E+03 -9.920520E+02  3.025464E-09 -6.881415E-11
       148  11  3.516538E+05  4.834275E+03  5.222069E+03  2.672605E+02  2.161972E-09  2.413344E-10
       148  12  3.531455E+05  5.293895E+03  5.707646E+03 -1.009368E+03 -3.205424E-09  4.228312E-11
       148  13  3.322173E+05  2.719043E+01  4.326236E+02 -1.000349E+03 -6.208278E-09  8.692349E-11
       148  14  3.321847E+05 -2.352994E+01  3.947957E+02  2.676218E+02  2.566490E-10  4.300279E-10
       148  15  3.322173E+05  7.296001E+01  5.232133E+02 -1.000354E+03 -3.485600E-09  5.863721E-11
       148  16  3.142076E+05 -4.467467E+03 -4.037356E+03 -1.008645E+03 -4.040629E-09  1.740554E-10
       148  17  3.127159E+05 -4.881364E+03 -4.432506E+03  2.679830E+02 -6.978063E-09  3.678215E-10
       148  18  3.112895E+05 -5.148008E+03 -4.661252E+03 -9.913402E+02  4.855029E-09  8.584921E-11
       148  19  3.502273E+05  4.521824E+03  4.902579E+03 -9.920520E+02 -1.440490E+02  2.193455E+02
       148  20  3.516538E+05  4.834275E+03  5.222070E+03  2.672606E+02  5.379676E+01  2.713878E+02
       148  21  3.531455E+05  5.293895E+03  5.707647E+03 -1.009368E+03  2.516389E+02  3.244930E+02
       148  22  3.322173E+05  2.719049E+01  4.326237E+02 -1.000349E+03 -1.329166E+02  2.193462E+02
       148  23  3.321847E+05 -2.352986E+01  3.947958E+02  2.676218E+02  6.515355E+01  2.713890E+02
       148  24  3.322173E+05  7.296014E+01  5.232136E+02 -1.000354E+03  2.632197E+02  3.244947E+02
       148  25  3.142076E+05 -4.467467E+03 -4.037356E+03 -1.008645E+03 -1.217846E+02  2.193470E+02
       148  26  3.127159E+05 -4.881364E+03 -4.432506E+03  2.679830E+02  7.650998E+01  2.713902E+02
       148  27  3.112895E+05 -5.148008E+03 -4.661252E+03 -9.913401E+02  2.748001E+02  3.244964E+02
       149   1  3.603013E+05  6.983670E+03  7.578520E+03 -9.948429E+02 -3.536177E+02 -3.581528E+02
       149   2  3.617264E+05  7.266936E+03  8.294009E+03  3.028939E+02 -8.433561E+02 -4.141675E+02
       149   3  3.634067E+05  8.290684E+03  9.514596E+03 -1.098897E+03 -1.333084E+03 -4.610419E+02
       149   4  3.322593E+05 -1.407497E+01  6.210735E+02 -1.036673E+03 -3.666867E+02 -3.581552E+02
       149   5  3.321319E+05 -1.172043E+02  9.564478E+02  3.130459E+02 -8.544293E+02 -4.141704E+02
       149   6  3.322592E+05  5.198274E+02  1.795558E+03 -1.036772E+03 -1.342160E+03 -4.610452E+02
       149   7  3.042180E+05 -7.011879E+03 -6.336431E+03 -1.078501E+03 -3.797550E+02 -3.581576E+02
       149   8  3.025381E+05 -7.501410E+03 -6.381178E+03  3.231975E+02 -8.655021E+02 -4.141733E+02
       149   9  3.011127E+05 -7.251102E+03 -5.923553E+03 -9.746494E+02 -1.351236E+03 -4.610485E+02
       149  10  3.603013E+05  6.983670E+03  7.578519E+03 -9.948430E+02 -3.025889E-09  5.632886E-11
       149  11  3.617264E+05  7.266936E+03  8.294007E+03  3.028936E+02 -1.512770E-09 -6.459122E-10
       149  12  3.634067E+05  8.290683E+03  9.514592E+03 -1.098898E+03  1.220176E-09 -7.102737E-11
       149  13  3.322593E+05 -1.407514E+01  6.210730E+02 -1.036673E+03 -2.099724E-09 -2.395204E-10
       149  14  3.321319E+05 -1.172047E+02  9.564462E+02  3.130456E+02 -4.387879E-09 -5.868358E-10
       149  15  3.322592E+05  5.198267E+02  1.795554E+03 -1.036772E+03 -3.881872E-09  2.457877E-10
       149  16  3.042180E+05 -7.011879E+03 -6.336432E+03 -1.078501E+03  3.003350E-09 -5.157192E-10
       149  17  3.025381E+05 -7.501411E+03 -6.381180E+03  3.231972E+02  5.243026E-10 -4.555987E-10
       149  18  3.011127E+05 -7.251102E+03 -5.923556E+03 -9.746499E+02 -1.247827E-09  7.638628E-10
       149  19  3.603013E+05  6.983670E+03  7.578520E+03 -9.948429E+02  3.536177E+02  3.581528E+02
       149  20  3.617264E+05  7.266936E+03  8.294009E+03  3.028939E+02  8.433561E+02  4.141675E+02
       149  21  3.634067E+05  8.290684E+03  9.514596E+03 -1.098897E+03  1.333084E+03  4.610419E+02
       149  22  3.322593E+05 -1.407497E+01  6.210735E+02 -1.036673E+03  3.666867E+02  3.581552E+02
       149  23  3.321319E+05 -1.172043E+02  9.564478E+02  3.130459E+02  8.544293E+02  4.141704E+02
       149  24  3.322592E+05  5.198274E+02  1.795558E+03 -1.036772E+03  1.342160E+03  4.610452E+02
       149  25  3.042180E+05 -7.011879E+03 -6.336431E+03 -1.078501E+03  3.797550E+02  3.581576E+02
       149  26  3.025381E+05 -7.501410E+03 -6.381178E+03  3.231975E+02  8.655021E+02  4.141733E+02
       149  27  3.011127E+05 -7.251102E+03 -5.923553E+03 -9.746494E+02  1.351236E+03  4.610485E+02
       150   1  3.713409E+05  9.551992E+03  1.186370E+04 -8.174751E+02 -1.681734E+03 -5.097058E+02
       150   2  3.722634E+05  9.299501E+03  1.364378E+04  2.645064E+02 -3.587861E+03 -5.783039E+02
       150   3  3.747178E+05  1.413543E+04  1.793880E+04 -1.585486E+03 -5.494042E+03 -5.571912E+02
       150   4  3.325423E+05 -1.296930E+02  2.239438E+03 -1.087975E+03 -1.706086E+03 -5.097124E+02
       150   5  3.317776E+05 -8.016742E+02  3.607506E+03  3.774083E+02 -3.592718E+03 -5.783083E+02
       150   6  3.325415E+05  3.611559E+03  7.477090E+03 -1.089188E+03 -5.479400E+03 -5.571932E+02
       150   7  2.937450E+05 -9.811490E+03 -7.384933E+03 -1.358458E+03 -1.730436E+03 -5.097190E+02
       150   8  2.912932E+05 -1.090297E+04 -6.428890E+03  4.903026E+02 -3.597575E+03 -5.783127E+02
       150   9  2.903668E+05 -6.912448E+03 -2.984753E+03 -5.929232E+02 -5.464758E+03 -5.571952E+02
       150  10  3.713409E+05  9.551991E+03  1.186369E+04 -8.174758E+02  3.538595E-09  4.728377E-10
       150  11  3.722634E+05  9.299497E+03  1.364375E+04  2.645048E+02 -4.159903E-10  6.074634E-10
       150  12  3.747178E+05  1.413543E+04  1.793874E+04 -1.585489E+03  1.065741E-09 -4.533980E-10
       150  13  3.325422E+05 -1.296940E+02  2.239432E+03 -1.087976E+03 -4.181532E-09  5.150859E-10
       150  14  3.317776E+05 -8.016781E+02  3.607481E+03  3.774066E+02  7.461207E-11 -1.652976E-10
       150  15  3.325415E+05  3.611551E+03  7.477033E+03 -1.089190E+03  1.289984E-09 -4.094898E-10
       150  16  2.937450E+05 -9.811491E+03 -7.384939E+03 -1.358459E+03 -3.410817E-09  5.820020E-10
       150  17  2.912932E+05 -1.090298E+04 -6.428915E+03  4.903009E+02  1.110095E-09 -1.011796E-10
       150  18  2.903668E+05 -6.912457E+03 -2.984809E+03 -5.929256E+02 -2.383531E-09 -1.748515E-10
       150  19  3.713409E+05  9.551992E+03  1.186370E+04 -8.174751E+02  1.681734E+03  5.097058E+02
       150  20  3.722634E+05  9.299501E+03  1.364378E+04  2.645064E+02  3.587861E+03  5.783039E+02
       150  21  3.747178E+05  1.413543E+04  1.793880E+04 -1.585486E+03  5.494042E+03  5.571912E+02
       150  22  3.325423E+05 -1.296930E+02  2.239438E+03 -1.087975E+03  1.706086E+03  5.097124E+02
       150  23  3.317776E+05 -8.016742E+02  3.607506E+03  3.774083E+02  3.592718E+03  5.783083E+02
       150  24  3.325415E+05  3.611559E+03  7.477090E+03 -1.089188E+03  5.479400E+03  5.571932E+02
       150  25  2.937450E+05 -9.811490E+03 -7.384933E+03 -1.358458E+03  1.730436E+03  5.097190E+02
       150  26  2.912932E+05 -1.090297E+04 -6.428890E+03  4.903026E+02  3.597575E+03  5.783127E+02
       150  27  2.903668E+05 -6.912448E+03 -2.984753E+03 -5.929232E+02  5.464758E+03  5.571952E+02
       151   1  3.849289E+05  1.169964E+04  2.158587E+04  6.366596E+02 -6.864005E+03 -6.985666E+02
       151   2  3.819114E+05  7.568887E+03  2.685590E+04 -4.717222E+02 -1.458176E+04 -8.322020E+02
       151   3  3.886737E+05  3.846418E+04  4.590895E+04 -4.829039E+03 -2.229985E+04 -2.952137E+02
       151   4  3.343705E+05 -9.169631E+02  9.048933E+03 -1.154622E+03 -6.964330E+03 -6.985875E+02
       151   5  3.294908E+05 -5.506836E+03  1.387235E+04  4.633044E+02 -1.453662E+04 -8.322087E+02
       151   6  3.343664E+05  2.490564E+04  3.237861E+04 -1.167695E+03 -2.210921E+04 -2.952493E+02
       151   7  2.838144E+05 -1.353375E+04 -3.488187E+03 -2.945759E+03 -7.064647E+03 -6.986078E+02
       151   8  2.770727E+05 -1.858276E+04  8.885855E+02  1.398252E+03 -1.449147E+04 -8.322154E+02
       151   9  2.800617E+05  1.134693E+04  1.884806E+04  2.493329E+03 -2.191858E+04 -2.952827E+02
       151  10  3.849288E+05  1.169963E+04  2.158578E+04  6.366558E+02  2.453977E-09 -1.497920E-09
       151  11  3.819112E+05  7.568829E+03  2.685550E+04 -4.717320E+02  9.314927E-09 -2.362188E-09
       151  12  3.886732E+05  3.846405E+04  4.590801E+04 -4.829045E+03 -1.119973E-09 -8.012896E-10
       151  13  3.343704E+05 -9.169766E+02  9.048841E+03 -1.154626E+03  4.162177E-09 -2.109590E-09
       151  14  3.294906E+05 -5.506894E+03  1.387195E+04  4.632946E+02  2.629575E-09  2.370345E-10
       151  15  3.343658E+05  2.490551E+04  3.237769E+04 -1.167700E+03 -3.948307E-10 -2.307578E-10
       151  16  2.838144E+05 -1.353376E+04 -3.488282E+03 -2.945763E+03 -1.214838E-09 -2.268342E-10
       151  17  2.770724E+05 -1.858282E+04  8.881897E+02  1.398242E+03 -7.310052E-09  5.474256E-10
       151  18  2.800612E+05  1.134680E+04  1.884716E+04  2.493324E+03 -2.813326E-09 -6.101129E-10
       151  19  3.849289E+05  1.169964E+04  2.158587E+04  6.366596E+02  6.864005E+03  6.985666E+02
       151  20  3.819114E+05  7.568887E+03  2.685590E+04 -4.717222E+02  1.458176E+04  8.322020E+02
       151  21  3.886737E+05  3.846418E+04  4.590895E+04 -4.829039E+03  2.229985E+04  2.952137E+02
       151  22  3.343705E+05 -9.169631E+02  9.048933E+03 -1.154622E+03  6.964330E+03  6.985875E+02
       151  23  3.294908E+05 -5.506836E+03  1.387235E+04  4.633044E+02  1.453662E+04  8.322087E+02
       151  24  3.343664E+05  2.490564E+04  3.237861E+04 -1.167695E+03  2.210921E+04  2.952493E+02
       151  25  2.838144E+05 -1.353375E+04 -3.488187E+03 -2.945759E+03  7.064647E+03  6.986078E+02
       151  26  2.770727E+05 -1.858276E+04  8.885855E+02  1.398252E+03  1.449147E+04  8.322154E+02
       151  27  2.800617E+05  1.134693E+04  1.884806E+04  2.493329E+03  2.191858E+04  2.952827E+02
       152   1  2.586699E+06  1.053011E+07  2.615835E+06 -1.013966E+06  5.299539E+04  8.112960E+04
       152   2  2.098778E+06  8.930524E+06  2.171566E+06  1.147167E+05  1.409803E+05  2.103200E+04
       152   3  1.904158E+06  7.771620E+06  1.910552E+06 -1.120262E+06  8.188207E+04 -4.142355E+04
       152   4  9.195182E+04  4.808307E+05  1.275232E+05 -9.586702E+05  5.325664E+04  4.541444E+04
       152   5 -5.538892E+04  2.600067E+05  3.524011E+04  2.251453E+05  1.411559E+05  1.797279E+04
       152   6  8.396242E+04  4.697672E+05  1.043408E+05 -9.568718E+05  8.106021E+04 -1.197725E+04
       152   7 -2.410316E+06 -9.477766E+06 -2.368297E+06 -9.040623E+05  5.351429E+04  1.026492E+04
       152   8 -2.215117E+06 -8.342784E+06 -2.106640E+06  3.343195E+05  1.413321E+05  1.495465E+04
       152   9 -1.740165E+06 -6.784035E+06 -1.705830E+06 -7.949951E+05  8.024884E+04  1.712695E+04
       152  10  2.586694E+06  1.053010E+07  2.615817E+06 -1.013970E+06  2.932123E-10 -4.771111E-09
       152  11  2.098757E+06  8.930518E+06  2.171528E+06  1.147144E+05 -2.006975E-10 -3.140020E-09
       152  12  1.904150E+06  7.771616E+06  1.910537E+06 -1.120259E+06  1.247305E-08  6.881997E-09
       152  13  9.194822E+04  4.808277E+05  1.275140E+05 -9.586721E+05  1.997862E-09 -4.671850E-09
       152  14 -5.541041E+04  2.600010E+05  3.520205E+04  2.251433E+05 -1.108698E-08 -1.872914E-08
       152  15  8.395532E+04  4.697653E+05  1.043282E+05 -9.568710E+05  6.728603E-09 -1.135713E-08
       152  16 -2.410319E+06 -9.477767E+06 -2.368302E+06 -9.040628E+05  2.791427E-10  4.746450E-09
       152  17 -2.215139E+06 -8.342789E+06 -2.106678E+06  3.343177E+05 -1.966058E-09  2.200235E-08
       152  18 -1.740172E+06 -6.784037E+06 -1.705842E+06 -7.949963E+05  1.648469E-09  3.640764E-09
       152  19  2.586699E+06  1.053011E+07  2.615835E+06 -1.013966E+06 -5.299539E+04 -8.112960E+04
       152  20  2.098778E+06  8.930524E+06  2.171566E+06  1.147167E+05 -1.409803E+05 -2.103200E+04
       152  21  1.904158E+06  7.771620E+06  1.910552E+06 -1.120262E+06 -8.188207E+04  4.142355E+04
       152  22  9.195182E+04  4.808307E+05  1.275232E+05 -9.586702E+05 -5.325664E+04 -4.541444E+04
       152  23 -5.538892E+04  2.600067E+05  3.524011E+04  2.251453E+05 -1.411559E+05 -1.797279E+04
       152  24  8.396242E+04  4.697672E+05  1.043408E+05 -9.568718E+05 -8.106021E+04  1.197725E+04
       152  25 -2.410316E+06 -9.477766E+06 -2.368297E+06 -9.040623E+05 -5.351429E+04 -1.026492E+04
       152  26 -2.215117E+06 -8.342784E+06 -2.106640E+06  3.343195E+05 -1.413321E+05 -1.495465E+04
       152  27 -1.740165E+06 -6.784035E+06 -1.705830E+06 -7.949951E+05 -8.024884E+04 -1.712695E+04
       153   1  2.723533E+05  1.284945E+06  3.094546E+05 -9.742672E+05  2.694927E+04 -4.097374E+04
       153   2 -1.323481E+05  4.365577E+03  1.834037E+04  2.261008E+05 -2.774542E+03 -1.038172E+05
       153   3 -3.075586E+05 -1.390775E+06 -2.120036E+05 -8.953570E+05 -3.096051E+04 -1.664243E+05
       153   4  4.241521E+04  3.659566E+05  8.331954E+04 -9.489987E+05  2.671805E+04 -3.395352E+04
       153   5 -2.691053E+04  4.243888E+05  1.225897E+05  2.132555E+05 -2.984648E+03 -9.717302E+04
       153   6  1.333730E+05  3.665616E+05  2.229150E+05 -9.461479E+05 -3.114866E+04 -1.602892E+05
       153   7 -1.875845E+05 -5.522636E+05 -1.428776E+05 -9.237607E+05  2.648723E+04 -2.694362E+04
       153   8  7.851421E+04  8.445724E+05  2.268260E+05  2.004028E+05 -3.194959E+03 -9.052432E+04
       153   9  5.740782E+05  2.126709E+06  6.576041E+05 -9.970585E+05 -3.133757E+04 -1.541362E+05
       153  10  2.723520E+05  1.284943E+06  3.094501E+05 -9.742663E+05 -3.117281E-09  2.048672E-08
       153  11 -1.323510E+05  4.354002E+03  1.832010E+04  2.261006E+05  2.413091E-09 -8.939174E-09
       153  12 -3.075671E+05 -1.390805E+06 -2.120576E+05 -8.953612E+05 -1.010313E-08  2.075805E-09
       153  13  4.241414E+04  3.659552E+05  8.331604E+04 -9.489980E+05  1.650692E-09 -3.430351E-08
       153  14 -2.691307E+04  4.243787E+05  1.225719E+05  2.132553E+05  1.905918E-08 -3.459021E-08
       153  15  1.333651E+05  3.665337E+05  2.228649E+05 -9.461519E+05  2.886526E-08 -1.213398E-08
       153  16 -1.875855E+05 -5.522646E+05 -1.428803E+05 -9.237601E+05 -1.180480E-09 -2.046114E-08
       153  17  7.851200E+04  8.445636E+05  2.268106E+05  2.004026E+05 -2.127463E-08  4.290795E-08
       153  18  5.740708E+05  2.126684E+06  6.575577E+05 -9.970624E+05 -2.464273E-09  1.005717E-08
       153  19  2.723533E+05  1.284945E+06  3.094546E+05 -9.742672E+05 -2.694927E+04  4.097374E+04
       153  20 -1.323481E+05  4.365577E+03  1.834037E+04  2.261008E+05  2.774542E+03  1.038172E+05
       153  21 -3.075586E+05 -1.390775E+06 -2.120036E+05 -8.953570E+05  3.096051E+04  1.664243E+05
       153  22  4.241521E+04  3.659566E+05  8.331954E+04 -9.489987E+05 -2.671805E+04  3.395352E+04
       153  23 -2.691053E+04  4.243888E+05  1.225897E+05  2.132555E+05  2.984648E+03  9.717302E+04
       153  24  1.333730E+05  3.665616E+05  2.229150E+05 -9.461479E+05  3.114866E+04  1.602892E+05
       153  25 -1.875845E+05 -5.522636E+05 -1.428776E+05 -9.237607E+05 -2.648723E+04  2.694362E+04
       153  26  7.851421E+04  8.445724E+05  2.268260E+05  2.004028E+05  3.194959E+03  9.052432E+04
       153  27  5.740782E+05  2.126709E+06  6.576041E+05 -9.970585E+05  3.133757E+04  1.541362E+05
       154   1 -1.984012E+06 -7.542538E+06 -1.713316E+06 -8.371720E+05 -8.587781E+04 -2.423320E+05
       154   2 -2.576486E+06 -9.289514E+06 -1.975331E+06  3.516636E+05 -1.488066E+05 -4.256014E+05
       154   3 -1.967092E+06 -1.024532E+07 -1.721899E+06 -8.426397E+05 -5.717584E+04 -6.065057E+05
       154   4  4.736462E+04  5.476810E+05  3.051295E+05 -9.620365E+05 -8.663203E+04 -2.134008E+05
       154   5 -2.034631E+05  1.561180E+05  3.776766E+05  2.283409E+05 -1.485414E+05 -4.325952E+05
       154   6  7.482039E+05  5.598793E+05  9.863549E+05 -9.623124E+05 -5.694145E+04 -6.498535E+05
       154   7  2.073821E+06  8.697714E+06  2.318655E+06 -1.088079E+06 -8.739340E+04 -1.840743E+05
       154   8  2.162851E+06  9.683481E+06  2.723985E+06  1.033878E+05 -1.482766E+05 -4.396558E+05
       154   9  3.454687E+06  1.147200E+07  3.685777E+06 -1.083976E+06 -5.669378E+04 -6.938843E+05
       154  10 -1.984036E+06 -7.542604E+06 -1.713442E+06 -8.371889E+05  1.536862E-09  2.686499E-08
       154  11 -2.576560E+06 -9.289717E+06 -1.975718E+06  3.516123E+05 -1.250654E-09 -4.406477E-09
       154  12 -1.967196E+06 -1.024572E+07 -1.722608E+06 -8.426680E+05 -3.959697E-10 -4.026504E-09
       154  13  4.734431E+04  5.476301E+05  3.050298E+05 -9.620514E+05 -1.455012E-08 -2.889916E-08
       154  14 -2.035370E+05  1.559113E+05  3.772837E+05  2.282892E+05 -2.619398E-10 -1.556089E-08
       154  15  7.480871E+05  5.594255E+05  9.855556E+05 -9.623423E+05 -3.878291E-09  7.994581E-11
       154  16  2.073804E+06  8.697676E+06  2.318578E+06 -1.088092E+06  1.274420E-08 -2.719788E-08
       154  17  2.162777E+06  9.683270E+06  2.723586E+06  1.033357E+05 -8.301212E-09  1.883342E-08
       154  18  3.454557E+06  1.147149E+07  3.684882E+06 -1.084007E+06 -6.258477E-09  3.978823E-09
       154  19 -1.984012E+06 -7.542538E+06 -1.713316E+06 -8.371720E+05  8.587781E+04  2.423320E+05
       154  20 -2.576486E+06 -9.289514E+06 -1.975331E+06  3.516636E+05  1.488066E+05  4.256014E+05
       154  21 -1.967092E+06 -1.024532E+07 -1.721899E+06 -8.426397E+05  5.717584E+04  6.065057E+05
       154  22  4.736462E+04  5.476810E+05  3.051295E+05 -9.620365E+05  8.663203E+04  2.134008E+05
       154  23 -2.034631E+05  1.561180E+05  3.776766E+05  2.283409E+05  1.485414E+05  4.325952E+05
       154  24  7.482039E+05  5.598793E+05  9.863549E+05 -9.623124E+05  5.694145E+04  6.498535E+05
       154  25  2.073821E+06  8.697714E+06  2.318655E+06 -1.088079E+06  8.739340E+04  1.840743E+05
       154  26  2.162851E+06  9.683481E+06  2.723985E+06  1.033878E+05  1.482766E+05  4.396558E+05
       154  27  3.454687E+06  1.147200E+07  3.685777E+06 -1.083976E+06  5.669378E+04  6.938843E+05
       155   1 -4.128215E+05 -1.799983E+05 -8.575110E+04 -1.941654E+05 -4.814855E+04 -1.734239E+04
       155   2 -3.933973E+05 -1.133925E+05 -4.150595E+04 -1.831261E+05 -2.850893E+04 -8.848506E+03
       155   3 -3.847697E+05 -8.173368E+04 -2.068263E+04 -1.686705E+05 -8.197865E+03 -2.141385E+03
       155   4 -3.725736E+05 -1.285097E+05 -6.822490E+04 -1.456756E+05 -4.463559E+04 -1.602841E+04
       155   5 -3.638364E+05 -8.532104E+04 -3.212181E+04 -1.571493E+05 -2.832892E+04 -8.781989E+03
       155   6 -3.652346E+05 -7.641961E+04 -1.679831E+04 -1.652077E+05 -1.135105E+04 -3.323883E+03
       155   7 -3.323216E+05 -7.701281E+04 -5.069852E+04 -9.718223E+04 -4.112246E+04 -1.471385E+04
       155   8 -3.342740E+05 -5.724733E+04 -2.273766E+04 -1.311710E+05 -2.814892E+04 -8.715457E+03
       155   9 -3.456989E+05 -7.110549E+04 -1.291394E+04 -1.617448E+05 -1.450437E+04 -4.506405E+03
       155  10 -4.128240E+05 -1.799993E+05 -8.575603E+04 -1.941661E+05  1.857922E-09  1.115732E-09
       155  11 -3.933982E+05 -1.133928E+05 -4.150763E+04 -1.831263E+05  3.018459E-08  1.129529E-08
       155  12 -3.847698E+05 -8.173370E+04 -2.068276E+04 -1.686705E+05  6.440916E-08  2.176064E-08
       155  13 -3.725758E+05 -1.285105E+05 -6.822913E+04 -1.456762E+05 -2.248395E-09  1.102719E-09
       155  14 -3.638373E+05 -8.532134E+04 -3.212347E+04 -1.571495E+05  3.464949E-10  7.475589E-09
       155  15 -3.652347E+05 -7.641965E+04 -1.679858E+04 -1.652077E+05  1.276105E-08  1.752526E-08
       155  16 -3.323235E+05 -7.701350E+04 -5.070211E+04 -9.718271E+04 -5.199548E-09 -3.281855E-09
       155  17 -3.342749E+05 -5.724763E+04 -2.273930E+04 -1.311712E+05 -2.918996E-08 -1.612436E-08
       155  18 -3.456992E+05 -7.110556E+04 -1.291437E+04 -1.617449E+05 -3.921645E-08 -2.170668E-08
       155  19 -4.128215E+05 -1.799983E+05 -8.575110E+04 -1.941654E+05  4.814855E+04  1.734239E+04
       155  20 -3.933973E+05 -1.133925E+05 -4.150595E+04 -1.831261E+05  2.850893E+04  8.848506E+03
       155  21 -3.847697E+05 -8.173368E+04 -2.068263E+04 -1.686705E+05  8.197865E+03  2.141385E+03
       155  22 -3.725736E+05 -1.285097E+05 -6.822490E+04 -1.456756E+05  4.463559E+04  1.602841E+04
       155  23 -3.638364E+05 -8.532104E+04 -3.212181E+04 -1.571493E+05  2.832892E+04  8.781989E+03
       155  24 -3.652346E+05 -7.641961E+04 -1.679831E+04 -1.652077E+05  1.135105E+04  3.323883E+03
       155  25 -3.323216E+05 -7.701281E+04 -5.069852E+04 -9.718223E+04  4.112246E+04  1.471385E+04
       155  26 -3.342740E+05 -5.724733E+04 -2.273766E+04 -1.311710E+05  2.814892E+04  8.715457E+03
       155  27 -3.456989E+05 -7.110549E+04 -1.291394E+04 -1.617448E+05  1.450437E+04  4.506405E+03
       156   1 -3.648555E+05 -7.824189E+04 -1.357871E+04 -1.663973E+05 -6.075763E+03 -2.518711E+03
       156   2 -3.423194E+05 -6.459041E+04 -3.247450E+03 -1.575486E+05 -1.798552E+03 -2.848032E+03
       156   3 -3.173692E+05 -5.656910E+04  3.843072E+03 -1.524979E+05  2.543780E+03 -3.350512E+03
       156   4 -3.632944E+05 -7.616428E+04 -1.257060E+04 -1.645128E+05 -9.073955E+03 -3.643122E+03
       156   5 -3.643270E+05 -7.191880E+04 -6.583229E+03 -1.631619E+05 -5.119736E+03 -4.093585E+03
       156   6 -3.628820E+05 -7.323950E+04 -3.580516E+03 -1.656093E+05 -1.100496E+03 -4.717271E+03
       156   7 -3.617332E+05 -7.408668E+04 -1.156245E+04 -1.626282E+05 -1.207212E+04 -4.767542E+03
       156   8 -3.863341E+05 -7.924715E+04 -9.918967E+03 -1.687750E+05 -8.440797E+03 -5.339098E+03
       156   9 -4.083931E+05 -8.990984E+04 -1.100423E+04 -1.787199E+05 -4.744528E+03 -6.083933E+03
       156  10 -3.648556E+05 -7.824190E+04 -1.357880E+04 -1.663973E+05 -4.741817E-08 -2.255887E-08
       156  11 -3.423194E+05 -6.459042E+04 -3.247471E+03 -1.575486E+05 -4.304230E-09 -6.589866E-09
       156  12 -3.173692E+05 -5.656911E+04  3.843039E+03 -1.524979E+05  4.645963E-08  1.772356E-08
       156  13 -3.632945E+05 -7.616432E+04 -1.257078E+04 -1.645128E+05  1.116692E-08  1.831026E-08
       156  14 -3.643271E+05 -7.191883E+04 -6.583310E+03 -1.631619E+05  2.316586E-09  1.006387E-08
       156  15 -3.628820E+05 -7.323952E+04 -3.580560E+03 -1.656093E+05  5.634140E-09  3.928575E-09
       156  16 -3.617333E+05 -7.408674E+04 -1.156277E+04 -1.626283E+05  7.513385E-08  2.425171E-08
       156  17 -3.863342E+05 -7.924720E+04 -9.919155E+03 -1.687751E+05  2.783520E-08  7.044918E-09
       156  18 -4.083931E+05 -8.990989E+04 -1.100434E+04 -1.787199E+05 -4.162402E-08 -1.425888E-08
       156  19 -3.648555E+05 -7.824189E+04 -1.357871E+04 -1.663973E+05  6.075763E+03  2.518711E+03
       156  20 -3.423194E+05 -6.459041E+04 -3.247450E+03 -1.575486E+05  1.798552E+03  2.848032E+03
       156  21 -3.173692E+05 -5.656910E+04  3.843072E+03 -1.524979E+05 -2.543780E+03  3.350512E+03
       156  22 -3.632944E+05 -7.616428E+04 -1.257060E+04 -1.645128E+05  9.073955E+03  3.643122E+03
       156  23 -3.643270E+05 -7.191880E+04 -6.583229E+03 -1.631619E+05  5.119736E+03  4.093585E+03
       156  24 -3.628820E+05 -7.323950E+04 -3.580516E+03 -1.656093E+05  1.100496E+03  4.717271E+03
       156  25 -3.617332E+05 -7.408668E+04 -1.156245E+04 -1.626282E+05  1.207212E+04  4.767542E+03
       156  26 -3.863341E+05 -7.924715E+04 -9.918967E+03 -1.687750E+05  8.440797E+03  5.339098E+03
       156  27 -4.083931E+05 -8.990984E+04 -1.100423E+04 -1.787199E+05  4.744528E+03  6.083933E+03
       157   1 -3.015498E+05 -5.117656E+04  7.433063E+03 -1.483167E+05  3.446983E+03 -4.314312E+03
       157   2 -2.791036E+05 -4.058591E+04  1.262836E+04 -1.395009E+05  4.940186E+03 -5.983882E+03
       157   3 -2.531705E+05 -3.375256E+04  1.722738E+04 -1.348471E+05  6.439614E+03 -7.669689E+03
       157   4 -3.627141E+05 -7.324266E+04 -2.683026E+03 -1.655379E+05 -1.818948E+02 -5.675348E+03
       157   5 -3.644543E+05 -7.131863E+04 -1.461383E+03 -1.634753E+05  1.280872E+03 -7.356461E+03
       157   6 -3.627021E+05 -7.314595E+04 -8.118965E+02 -1.655749E+05  2.749828E+03 -9.053821E+03
       157   7 -4.238743E+05 -9.530835E+04 -1.279914E+04 -1.827574E+05 -3.810392E+03 -7.036239E+03
       157   8 -4.497967E+05 -1.020504E+05 -1.555110E+04 -1.874463E+05 -2.377887E+03 -8.728831E+03
       157   9 -4.722196E+05 -1.125376E+05 -1.885105E+04 -1.962972E+05 -9.392274E+02 -1.043768E+04
       157  10 -3.015498E+05 -5.117658E+04  7.433006E+03 -1.483167E+05  6.400613E-08  2.700301E-08
       157  11 -2.791037E+05 -4.058596E+04  1.262825E+04 -1.395009E+05 -2.622349E-08 -5.427338E-09
       157  12 -2.531706E+05 -3.375263E+04  1.722719E+04 -1.348470E+05 -1.071212E-07 -4.016409E-08
       157  13 -3.627141E+05 -7.324269E+04 -2.683087E+03 -1.655379E+05  2.683027E-09  3.515169E-09
       157  14 -3.644544E+05 -7.131869E+04 -1.461488E+03 -1.634752E+05  3.354421E-09  3.954907E-09
       157  15 -3.627021E+05 -7.314604E+04 -8.120647E+02 -1.655748E+05 -3.916052E-09  5.680393E-10
       157  16 -4.238743E+05 -9.530841E+04 -1.279926E+04 -1.827574E+05 -5.991013E-08 -2.006987E-08
       157  17 -4.497968E+05 -1.020505E+05 -1.555126E+04 -1.874464E+05  2.822592E-08  1.340305E-08
       157  18 -4.722197E+05 -1.125378E+05 -1.885126E+04 -1.962972E+05  1.081732E-07  4.123211E-08
       157  19 -3.015498E+05 -5.117656E+04  7.433063E+03 -1.483167E+05 -3.446983E+03  4.314312E+03
       157  20 -2.791036E+05 -4.058591E+04  1.262836E+04 -1.395009E+05 -4.940186E+03  5.983882E+03
       157  21 -2.531705E+05 -3.375256E+04  1.722738E+04 -1.348471E+05 -6.439614E+03  7.669689E+03
       157  22 -3.627141E+05 -7.324266E+04 -2.683026E+03 -1.655379E+05  1.818948E+02  5.675348E+03
       157  23 -3.644543E+05 -7.131863E+04 -1.461383E+03 -1.634753E+05 -1.280872E+03  7.356461E+03
       157  24 -3.627021E+05 -7.314595E+04 -8.118965E+02 -1.655749E+05 -2.749828E+03  9.053821E+03
       157  25 -4.238743E+05 -9.530835E+04 -1.279914E+04 -1.827574E+05  3.810392E+03  7.036239E+03
       157  26 -4.497967E+05 -1.020504E+05 -1.555110E+04 -1.874463E+05  2.377887E+03  8.728831E+03
       157  27 -4.722196E+05 -1.125376E+05 -1.885105E+04 -1.962972E+05  9.392274E+02  1.043768E+04
       158   1 -2.376809E+05 -2.820648E+04  2.009798E+04 -1.305407E+05  6.987272E+03 -8.778466E+03
       158   2 -2.153213E+05 -1.774708E+04  2.429113E+04 -1.217092E+05  7.906518E+03 -1.068962E+04
       158   3 -1.893575E+05 -1.092029E+04  2.835218E+04 -1.170366E+05  8.825936E+03 -1.260059E+04
       158   4 -3.626819E+05 -7.315042E+04 -6.144284E+02 -1.655627E+05  3.299788E+03 -1.016184E+04
       158   5 -3.644861E+05 -7.134277E+04 -3.561992E+02 -1.634803E+05  4.219151E+03 -1.207319E+04
       158   6 -3.626872E+05 -7.316817E+04 -2.303498E+02 -1.655573E+05  5.138678E+03 -1.398436E+04
       158   7 -4.876675E+05 -1.180933E+05 -2.132755E+04 -2.005785E+05 -3.869498E+02 -1.154494E+04
       158   8 -5.136280E+05 -1.249365E+05 -2.500424E+04 -2.052422E+05  5.327034E+02 -1.345642E+04
       158   9 -5.359848E+05 -1.354130E+05 -2.881354E+04 -2.140652E+05  1.452510E+03 -1.536771E+04
       158  10 -2.376810E+05 -2.820657E+04  2.009775E+04 -1.305406E+05 -4.526887E-09 -3.796725E-09
       158  11 -2.153214E+05 -1.774722E+04  2.429080E+04 -1.217092E+05 -4.762893E-10 -3.980116E-09
       158  12 -1.893576E+05 -1.092048E+04  2.835174E+04 -1.170366E+05 -1.373299E-08 -3.208586E-09
       158  13 -3.626819E+05 -7.315053E+04 -6.146429E+02 -1.655627E+05 -5.752997E-09 -2.073987E-09
       158  14 -3.644862E+05 -7.134293E+04 -3.565065E+02 -1.634803E+05  3.194790E-09 -3.026416E-09
       158  15 -3.626872E+05 -7.316839E+04 -2.307668E+02 -1.655572E+05 -5.478525E-09 -7.603161E-10
       158  16 -4.876675E+05 -1.180934E+05 -2.132780E+04 -2.005785E+05  6.539146E-09 -2.630194E-10
       158  17 -5.136280E+05 -1.249367E+05 -2.500458E+04 -2.052421E+05  7.007413E-09 -1.852291E-09
       158  18 -5.359849E+05 -1.354133E+05 -2.881399E+04 -2.140652E+05  3.316027E-09  1.199572E-09
       158  19 -2.376809E+05 -2.820648E+04  2.009798E+04 -1.305407E+05 -6.987272E+03  8.778466E+03
       158  20 -2.153213E+05 -1.774708E+04  2.429113E+04 -1.217092E+05 -7.906518E+03  1.068962E+04
       158  21 -1.893575E+05 -1.092029E+04  2.835218E+04 -1.170366E+05 -8.825936E+03  1.260059E+04
       158  22 -3.626819E+05 -7.315042E+04 -6.144284E+02 -1.655627E+05 -3.299788E+03  1.016184E+04
       158  23 -3.644861E+05 -7.134277E+04 -3.561992E+02 -1.634803E+05 -4.219151E+03  1.207319E+04
       158  24 -3.626872E+05 -7.316817E+04 -2.303498E+02 -1.655573E+05 -5.138678E+03  1.398436E+04
       158  25 -4.876675E+05 -1.180933E+05 -2.132755E+04 -2.005785E+05  3.869498E+02  1.154494E+04
       158  26 -5.136280E+05 -1.249365E+05 -2.500424E+04 -2.052422E+05 -5.327034E+02  1.345642E+04
       158  27 -5.359848E+05 -1.354130E+05 -2.881354E+04 -2.140652E+05 -1.452510E+03  1.536771E+04
       159   1 -1.739204E+05 -5.361158E+03  3.105112E+04 -1.127252E+05  9.293421E+03 -1.373845E+04
       159   2 -1.516066E+05  5.096021E+03  3.499293E+04 -1.038983E+05  1.010979E+04 -1.568154E+04
       159   3 -1.256761E+05  1.193276E+04  3.887963E+04 -9.922095E+04  1.092250E+04 -1.761399E+04
       159   4 -3.626874E+05 -7.316986E+04 -2.010192E+02 -1.655545E+05  5.606844E+03 -1.512212E+04
       159   5 -3.644955E+05 -7.136259E+04 -1.926043E+02 -1.634784E+05  6.442844E+03 -1.705817E+04
       159   6 -3.626912E+05 -7.317956E+04 -2.547723E+02 -1.655519E+05  7.275175E+03 -1.898359E+04
       159   7 -5.514143E+05 -1.409742E+05 -3.145339E+04 -2.183682E+05  1.921495E+03 -1.650533E+04
       159   8 -5.773359E+05 -1.478166E+05 -3.537915E+04 -2.230393E+05  2.777227E+03 -1.843430E+04
       159   9 -5.996489E+05 -1.582872E+05 -3.939115E+04 -2.318599E+05  3.629290E+03 -2.035266E+04
       159  10 -1.739206E+05 -5.361383E+03  3.105061E+04 -1.127251E+05 -1.024057E-08 -1.044459E-09
       159  11 -1.516068E+05  5.095729E+03  3.499227E+04 -1.038981E+05  2.550142E-09 -7.056832E-10
       159  12 -1.256763E+05  1.193240E+04  3.887882E+04 -9.922079E+04  4.730151E-09 -1.166166E-09
       159  13 -3.626875E+05 -7.317011E+04 -2.015079E+02 -1.655544E+05 -4.737226E-09  6.370383E-10
       159  14 -3.644956E+05 -7.136292E+04 -1.932290E+02 -1.634783E+05 -1.232737E-08 -2.262376E-11
       159  15 -3.626914E+05 -7.317996E+04 -2.555488E+02 -1.655518E+05 -3.774750E-09 -3.193762E-09
       159  16 -5.514144E+05 -1.409745E+05 -3.145390E+04 -2.183682E+05  1.976269E-10  2.047513E-09
       159  17 -5.773360E+05 -1.478170E+05 -3.537980E+04 -2.230393E+05 -4.452876E-10  7.789935E-10
       159  18 -5.996490E+05 -1.582876E+05 -3.939196E+04 -2.318598E+05 -5.909528E-09 -4.957584E-09
       159  19 -1.739204E+05 -5.361158E+03  3.105112E+04 -1.127252E+05 -9.293421E+03  1.373845E+04
       159  20 -1.516066E+05  5.096021E+03  3.499293E+04 -1.038983E+05 -1.010979E+04  1.568154E+04
       159  21 -1.256761E+05  1.193276E+04  3.887963E+04 -9.922095E+04 -1.092250E+04  1.761399E+04
       159  22 -3.626874E+05 -7.316986E+04 -2.010192E+02 -1.655545E+05 -5.606844E+03  1.512212E+04
       159  23 -3.644955E+05 -7.136259E+04 -1.926043E+02 -1.634784E+05 -6.442844E+03  1.705817E+04
       159  24 -3.626912E+05 -7.317956E+04 -2.547723E+02 -1.655519E+05 -7.275175E+03  1.898359E+04
       159  25 -5.514143E+05 -1.409742E+05 -3.145339E+04 -2.183682E+05 -1.921495E+03  1.650533E+04
       159  26 -5.773359E+05 -1.478166E+05 -3.537915E+04 -2.230393E+05 -2.777227E+03  1.843430E+04
       159  27 -5.996489E+05 -1.582872E+05 -3.939115E+04 -2.318599E+05 -3.629290E+03  2.035266E+04
       160   1 -1.102661E+05  1.748884E+04  4.149418E+04 -9.491892E+04  1.140567E+04 -1.873680E+04
       160   2 -8.799514E+04  2.794339E+04  4.527895E+04 -8.610458E+04  1.220319E+04 -2.061581E+04
       160   3 -6.211890E+04  3.478075E+04  4.900414E+04 -8.142383E+04  1.296349E+04 -2.239461E+04
       160   4 -3.627021E+05 -7.317849E+04 -3.157231E+02 -1.655523E+05  7.751730E+03 -2.010912E+04
       160   5 -3.644924E+05 -7.137568E+04 -5.349973E+02 -1.634774E+05  8.735849E+03 -2.191850E+04
       160   6 -3.627147E+05 -7.322724E+04 -9.617101E+02 -1.655365E+05  9.682735E+03 -2.362765E+04
       160   7 -6.150699E+05 -1.638394E+05 -4.212706E+04 -2.361587E+05  4.099364E+03 -2.148084E+04
       160   8 -6.409063E+05 -1.706864E+05 -4.635028E+04 -2.408174E+05  5.270166E+03 -2.322057E+04
       160   9 -6.632106E+05 -1.812249E+05 -5.092877E+04 -2.496101E+05  6.403703E+03 -2.486004E+04
       160  10 -1.102664E+05  1.748843E+04  4.149327E+04 -9.491875E+04 -7.126953E-09 -5.753697E-09
       160  11 -8.799542E+04  2.794289E+04  4.527788E+04 -8.610438E+04  6.024296E-09 -3.027315E-09
       160  12 -6.211922E+04  3.478017E+04  4.900288E+04 -8.142360E+04  5.796271E-09 -1.083836E-09
       160  13 -3.627023E+05 -7.317894E+04 -3.165957E+02 -1.655522E+05 -3.573449E-09 -3.006949E-09
       160  14 -3.644926E+05 -7.137621E+04 -5.360433E+02 -1.634772E+05 -1.275618E-08 -1.349509E-09
       160  15 -3.627150E+05 -7.322787E+04 -9.629351E+02 -1.655363E+05 -8.910637E-09 -3.441476E-09
       160  16 -6.150701E+05 -1.638399E+05 -4.212796E+04 -2.361587E+05  3.635755E-09 -9.630304E-10
       160  17 -6.409065E+05 -1.706870E+05 -4.635135E+04 -2.408173E+05  1.851111E-09 -7.736424E-10
       160  18 -6.632109E+05 -1.812256E+05 -5.093001E+04 -2.496100E+05 -1.363550E-08 -4.986761E-09
       160  19 -1.102661E+05  1.748884E+04  4.149418E+04 -9.491892E+04 -1.140567E+04  1.873680E+04
       160  20 -8.799514E+04  2.794339E+04  4.527895E+04 -8.610458E+04 -1.220319E+04  2.061581E+04
       160  21 -6.211890E+04  3.478075E+04  4.900414E+04 -8.142383E+04 -1.296349E+04  2.239461E+04
       160  22 -3.627021E+05 -7.317849E+04 -3.157231E+02 -1.655523E+05 -7.751730E+03  2.010912E+04
       160  23 -3.644924E+05 -7.137568E+04 -5.349973E+02 -1.634774E+05 -8.735849E+03  2.191850E+04
       160  24 -3.627147E+05 -7.322724E+04 -9.617101E+02 -1.655365E+05 -9.682735E+03  2.362765E+04
       160  25 -6.150699E+05 -1.638394E+05 -4.212706E+04 -2.361587E+05 -4.099364E+03  2.148084E+04
       160  26 -6.409063E+05 -1.706864E+05 -4.635028E+04 -2.408174E+05 -5.270166E+03  2.322057E+04
       160  27 -6.632106E+05 -1.812249E+05 -5.092877E+04 -2.496101E+05 -6.403703E+03  2.486004E+04
       161   1 -4.669285E+04  4.031626E+04  5.146188E+04 -7.719298E+04  1.362916E+04 -2.337247E+04
       161   2 -2.470783E+04  5.087605E+04  5.519575E+04 -6.812343E+04  1.339682E+04 -2.493792E+04
       161   3  8.114333E+02  5.757563E+04  5.937781E+04 -6.298851E+04  1.278205E+04 -2.548433E+04
       161   4 -3.627863E+05 -7.321588E+04 -1.277419E+03 -1.655453E+05  1.026260E+04 -2.463798E+04
       161   5 -3.644422E+05 -7.162283E+04 -2.342165E+03 -1.633818E+05  1.193034E+04 -2.549037E+04
       161   6 -3.629414E+05 -7.426715E+04 -4.464751E+03 -1.651536E+05  1.321558E+04 -2.532336E+04
       161   7 -6.787767E+05 -1.867394E+05 -5.402013E+04 -2.538565E+05  6.897836E+03 -2.590283E+04
       161   8 -7.040558E+05 -1.941109E+05 -5.988369E+04 -2.585919E+05  1.046471E+04 -2.604249E+04
       161   9 -7.265544E+05 -2.060969E+05 -6.831147E+04 -2.672628E+05  1.364885E+04 -2.516249E+04
       161  10 -4.669319E+04  4.031563E+04  5.146050E+04 -7.719273E+04 -1.501779E-08 -3.952413E-09
       161  11 -2.470819E+04  5.087533E+04  5.519424E+04 -6.812316E+04  4.438750E-09  7.118613E-09
       161  12  8.110836E+02  5.757489E+04  5.937629E+04 -6.298825E+04  1.012833E-08  5.413834E-09
       161  13 -3.627865E+05 -7.321656E+04 -1.278757E+03 -1.655451E+05 -1.060568E-08 -1.365036E-09
       161  14 -3.644426E+05 -7.162356E+04 -2.343653E+03 -1.633815E+05 -1.056068E-08  4.630833E-09
       161  15 -3.629418E+05 -7.426789E+04 -4.466284E+03 -1.651534E+05  2.945243E-09  1.755834E-09
       161  16 -6.787769E+05 -1.867401E+05 -5.402148E+04 -2.538563E+05  5.744320E-09  2.310739E-09
       161  17 -7.040561E+05 -1.941116E+05 -5.988517E+04 -2.585916E+05  4.813472E-09  1.848450E-09
       161  18 -7.265548E+05 -2.060976E+05 -6.831301E+04 -2.672625E+05 -9.896747E-09 -2.324462E-09
       161  19 -4.669285E+04  4.031626E+04  5.146188E+04 -7.719298E+04 -1.362916E+04  2.337247E+04
       161  20 -2.470783E+04  5.087605E+04  5.519575E+04 -6.812343E+04 -1.339682E+04  2.493792E+04
       161  21  8.114333E+02  5.757563E+04  5.937781E+04 -6.298851E+04 -1.278205E+04  2.548433E+04
       161  22 -3.627863E+05 -7.321588E+04 -1.277419E+03 -1.655453E+05 -1.026260E+04  2.463798E+04
       161  23 -3.644422E+05 -7.162283E+04 -2.342165E+03 -1.633818E+05 -1.193034E+04  2.549037E+04
       161  24 -3.629414E+05 -7.426715E+04 -4.464751E+03 -1.651536E+05 -1.321558E+04  2.532336E+04
       161  25 -6.787767E+05 -1.867394E+05 -5.402013E+04 -2.538565E+05 -6.897836E+03  2.590283E+04
       161  26 -7.040558E+05 -1.941109E+05 -5.988369E+04 -2.585919E+05 -1.046471E+04  2.604249E+04
       161  27 -7.265544E+05 -2.060969E+05 -6.831147E+04 -2.672628E+05 -1.364885E+04  2.516249E+04
       162   1  1.683183E+04  6.268950E+04  6.172058E+04 -5.968535E+04  1.451337E+04 -2.529824E+04
       162   2  3.400530E+04  7.502142E+04  6.935405E+04 -4.452933E+04 -9.976652E+02 -2.542983E+04
       162   3  5.323665E+04  7.731924E+04  8.511709E+04 -3.016859E+04 -2.045167E+04 -1.507540E+04
       162   4 -3.637435E+05 -7.424915E+04 -5.964578E+03 -1.652716E+05  1.404006E+04 -2.547798E+04
       162   5 -3.641437E+05 -7.652916E+04 -1.140621E+04 -1.614069E+05  1.808905E+04 -1.826002E+04
       162   6 -3.663640E+05 -9.272247E+04 -2.422050E+04 -1.583378E+05  1.819460E+04 -5.521377E+02
       162   7 -7.441653E+05 -2.111740E+05 -7.365428E+04 -2.707975E+05  1.356706E+04 -2.565760E+04
       162   8 -7.621215E+05 -2.280595E+05 -9.217100E+04 -2.782118E+05  3.716233E+04 -1.109573E+04
       162   9 -7.857764E+05 -2.627381E+05 -1.335631E+05 -2.864209E+05  5.681119E+04  1.395794E+04
       162  10  1.683143E+04  6.268875E+04  6.171898E+04 -5.968506E+04 -1.391996E-09 -2.770008E-09
       162  11  3.400512E+04  7.502073E+04  6.935283E+04 -4.452935E+04 -1.395051E-09 -1.911378E-09
       162  12  5.323614E+04  7.731889E+04  8.511587E+04 -3.016884E+04 -8.428489E-11  4.128066E-10
       162  13 -3.637439E+05 -7.424990E+04 -5.966167E+03 -1.652713E+05  4.154312E-09 -7.799071E-10
       162  14 -3.641441E+05 -7.652961E+04 -1.140746E+04 -1.614067E+05 -8.467626E-09  1.003349E-09
       162  15 -3.663644E+05 -9.272256E+04 -2.422113E+04 -1.583378E+05  2.487875E-09  1.700501E-09
       162  16 -7.441656E+05 -2.111747E+05 -7.365587E+04 -2.707972E+05  3.602091E-09  1.890434E-09
       162  17 -7.621230E+05 -2.280600E+05 -9.217383E+04 -2.782114E+05 -1.221375E-09  2.810785E-09
       162  18 -7.857799E+05 -2.627392E+05 -1.335695E+05 -2.864215E+05  1.342654E-09 -8.621402E-11
       162  19  1.683183E+04  6.268950E+04  6.172058E+04 -5.968535E+04 -1.451337E+04  2.529824E+04
       162  20  3.400530E+04  7.502142E+04  6.935405E+04 -4.452933E+04  9.976652E+02  2.542983E+04
       162  21  5.323665E+04  7.731924E+04  8.511709E+04 -3.016859E+04  2.045167E+04  1.507540E+04
       162  22 -3.637435E+05 -7.424915E+04 -5.964578E+03 -1.652716E+05 -1.404006E+04  2.547798E+04
       162  23 -3.641437E+05 -7.652916E+04 -1.140621E+04 -1.614069E+05 -1.808905E+04  1.826002E+04
       162  24 -3.663640E+05 -9.272247E+04 -2.422050E+04 -1.583378E+05 -1.819460E+04  5.521377E+02
       162  25 -7.441653E+05 -2.111740E+05 -7.365428E+04 -2.707975E+05 -1.356706E+04  2.565760E+04
       162  26 -7.621215E+05 -2.280595E+05 -9.217100E+04 -2.782118E+05 -3.716233E+04  1.109573E+04
       162  27 -7.857764E+05 -2.627381E+05 -1.335631E+05 -2.864209E+05 -5.681119E+04 -1.395794E+04
       163   1 -4.117159E+05 -8.164312E+04 -1.151126E+05 -1.505095E+04 -9.850012E+04 -6.808563E+02
       163   2 -3.924391E+05  5.384282E+04 -3.307836E+04 -5.000630E+03 -6.492817E+04 -1.886274E+03
       163   3 -4.166140E+05  3.272728E+04 -1.203952E+04  9.323590E+03 -3.135820E+04 -1.628479E+03
       163   4 -5.311851E+05 -1.114858E+05 -1.449042E+05  1.365042E+03 -9.890900E+04 -6.837199E+02
       163   5 -5.094145E+05  2.464440E+04 -6.207737E+04 -8.072109E+02 -6.502718E+04 -1.886816E+03
       163   6 -5.311580E+05  4.102992E+03 -4.046966E+04  1.294354E+03 -3.114719E+04 -1.627902E+03
       163   7 -6.506407E+05 -1.413285E+05 -1.746967E+05  1.777787E+04 -9.931779E+04 -6.866057E+02
       163   8 -6.263775E+05 -4.554972E+03 -9.107739E+04  3.385414E+03 -6.512616E+04 -1.887360E+03
       163   9 -6.456900E+05 -2.452204E+04 -6.890075E+04 -6.733401E+03 -3.093621E+04 -1.627330E+03
       163  10 -4.117264E+05 -8.164573E+04 -1.151309E+05 -1.505100E+04  1.477779E-10  8.093032E-11
       163  11 -3.924436E+05  5.384168E+04 -3.308629E+04 -5.000728E+03  2.224574E-09 -7.715805E-10
       163  12 -4.166151E+05  3.272702E+04 -1.204138E+04  9.323549E+03  1.930923E-09 -1.130102E-09
       163  13 -5.311956E+05 -1.114884E+05 -1.449226E+05  1.364987E+03  4.440815E-09  6.405756E-10
       163  14 -5.094191E+05  2.464326E+04 -6.208533E+04 -8.073098E+02 -4.108779E-09 -2.371855E-10
       163  15 -5.311591E+05  4.102728E+03 -4.047149E+04  1.294313E+03  1.817126E-09 -2.022371E-10
       163  16 -6.506513E+05 -1.413311E+05 -1.747152E+05  1.777781E+04  3.133108E-09  5.854304E-10
       163  17 -6.263821E+05 -4.556116E+03 -9.108538E+04  3.385315E+03 -7.469463E-09 -1.543420E-09
       163  18 -6.456910E+05 -2.452230E+04 -6.890256E+04 -6.733442E+03 -2.866185E-09 -3.108621E-09
       163  19 -4.117159E+05 -8.164312E+04 -1.151126E+05 -1.505095E+04  9.850012E+04  6.808563E+02
       163  20 -3.924391E+05  5.384282E+04 -3.307836E+04 -5.000630E+03  6.492817E+04  1.886274E+03
       163  21 -4.166140E+05  3.272728E+04 -1.203952E+04  9.323590E+03  3.135820E+04  1.628479E+03
       163  22 -5.311851E+05 -1.114858E+05 -1.449042E+05  1.365042E+03  9.890900E+04  6.837199E+02
       163  23 -5.094145E+05  2.464440E+04 -6.207737E+04 -8.072109E+02  6.502718E+04  1.886816E+03
       163  24 -5.311580E+05  4.102992E+03 -4.046966E+04  1.294354E+03  3.114719E+04  1.627902E+03
       163  25 -6.506407E+05 -1.413285E+05 -1.746967E+05  1.777787E+04  9.931779E+04  6.866057E+02
       163  26 -6.263775E+05 -4.554972E+03 -9.107739E+04  3.385414E+03  6.512616E+04  1.887360E+03
       163  27 -6.456900E+05 -2.452204E+04 -6.890075E+04 -6.733401E+03  3.093621E+04  1.627330E+03
       164   1 -4.215966E+05  9.147973E+03 -8.259523E+03 -6.140523E+02 -2.447349E+04 -1.347290E+03
       164   2 -4.213166E+05  2.813087E+04  8.276972E+03 -1.579543E+03 -1.609642E+04 -1.422138E+03
       164   3 -4.277713E+05  2.437061E+04  1.368030E+04  2.835389E+03 -7.719509E+03 -1.271673E+03
       164   4 -5.229936E+05 -1.617179E+04 -3.343514E+04  1.577513E+03 -2.451304E+04 -1.347433E+03
       164   5 -5.196191E+05  3.583497E+03 -1.611382E+04 -1.121294E+03 -1.608856E+04 -1.422157E+03
       164   6 -5.229885E+05  5.854136E+02 -9.959895E+03  1.560357E+03 -7.664191E+03 -1.271599E+03
       164   7 -6.243813E+05 -4.149231E+04 -5.861152E+04  3.768717E+03 -2.455259E+04 -1.347576E+03
       164   8 -6.179128E+05 -2.096460E+04 -4.050534E+04 -6.631203E+02 -1.608070E+04 -1.422176E+03
       164   9 -6.181975E+05 -2.320045E+04 -3.360077E+04  2.855194E+02 -7.608882E+03 -1.271526E+03
       164  10 -4.215973E+05  9.147810E+03 -8.260652E+03 -6.140789E+02  1.451421E-10 -2.342537E-09
       164  11 -4.213169E+05  2.813080E+04  8.276481E+03 -1.579561E+03 -2.441580E-09  5.966363E-10
       164  12 -4.277713E+05  2.437059E+04  1.368018E+04  2.835381E+03 -3.445524E-09  1.387821E-09
       164  13 -5.229943E+05 -1.617196E+04 -3.343627E+04  1.577486E+03  2.707657E-09 -2.125450E-09
       164  14 -5.196194E+05  3.583425E+03 -1.611431E+04 -1.121312E+03 -1.846149E-09 -3.446279E-10
       164  15 -5.229886E+05  5.853961E+02 -9.960008E+03  1.560350E+03  1.995511E-09 -1.285970E-09
       164  16 -6.243820E+05 -4.149247E+04 -5.861266E+04  3.768690E+03 -2.141015E-09 -1.287614E-09
       164  17 -6.179131E+05 -2.096467E+04 -4.050583E+04 -6.631387E+02 -2.625482E-09  8.197184E-11
       164  18 -6.181976E+05 -2.320047E+04 -3.360088E+04  2.855117E+02  7.150571E-10  5.835706E-10
       164  19 -4.215966E+05  9.147973E+03 -8.259523E+03 -6.140523E+02  2.447349E+04  1.347290E+03
       164  20 -4.213166E+05  2.813087E+04  8.276972E+03 -1.579543E+03  1.609642E+04  1.422138E+03
       164  21 -4.277713E+05  2.437061E+04  1.368030E+04  2.835389E+03  7.719509E+03  1.271673E+03
       164  22 -5.229936E+05 -1.617179E+04 -3.343514E+04  1.577513E+03  2.451304E+04  1.347433E+03
       164  23 -5.196191E+05  3.583497E+03 -1.611382E+04 -1.121294E+03  1.608856E+04  1.422157E+03
       164  24 -5.229885E+05  5.854136E+02 -9.959895E+03  1.560357E+03  7.664191E+03  1.271599E+03
       164  25 -6.243813E+05 -4.149231E+04 -5.861152E+04  3.768717E+03  2.455259E+04  1.347576E+03
       164  26 -6.179128E+05 -2.096460E+04 -4.050534E+04 -6.631203E+02  1.608070E+04  1.422176E+03
       164  27 -6.181975E+05 -2.320045E+04 -3.360077E+04  2.855194E+02  7.608882E+03  1.271526E+03
       165   1 -4.424571E+05  1.746717E+04  1.170444E+04  1.551403E+03 -6.066487E+03 -1.167223E+03
       165   2 -4.455262E+05  1.941311E+04  1.461314E+04 -1.350576E+03 -3.953264E+03 -1.068380E+03
       165   3 -4.496790E+05  1.807873E+04  1.532764E+04  2.028406E+03 -1.840152E+03 -9.237654E+02
       165   4 -5.217312E+05 -2.328424E+03 -7.961504E+03  1.768694E+03 -6.050184E+03 -1.167213E+03
       165   5 -5.211880E+05  5.175412E+02 -4.162972E+03 -1.373457E+03 -3.927321E+03 -1.068351E+03
       165   6 -5.217303E+05  8.128392E+01 -2.565541E+03  1.765403E+03 -1.804555E+03 -9.237158E+02
       165   7 -6.009995E+05 -2.212448E+04 -2.762792E+04  1.985955E+03 -6.033884E+03 -1.167203E+03
       165   8 -5.968447E+05 -1.837845E+04 -2.293951E+04 -1.396337E+03 -3.901381E+03 -1.068322E+03
       165   9 -5.937770E+05 -1.791655E+04 -2.045911E+04  1.502428E+03 -1.768963E+03 -9.236664E+02
       165  10 -4.424571E+05  1.746715E+04  1.170437E+04  1.551397E+03  1.948661E-09  2.739281E-09
       165  11 -4.455262E+05  1.941310E+04  1.461311E+04 -1.350579E+03  5.838918E-09  1.960665E-09
       165  12 -4.496790E+05  1.807873E+04  1.532763E+04  2.028405E+03  8.021627E-09 -1.204314E-10
       165  13 -5.217312E+05 -2.328435E+03 -7.961575E+03  1.768688E+03 -5.392931E-09 -1.635241E-09
       165  14 -5.211881E+05  5.175358E+02 -4.163003E+03 -1.373460E+03 -1.768065E-09  2.475074E-09
       165  15 -5.217303E+05  8.128213E+01 -2.565549E+03  1.765402E+03  6.269070E-10  4.001115E-09
       165  16 -6.009996E+05 -2.212450E+04 -2.762799E+04  1.985950E+03 -5.660409E-10  1.233694E-09
       165  17 -5.968447E+05 -1.837846E+04 -2.293954E+04 -1.396340E+03 -6.576318E-09  2.571559E-09
       165  18 -5.937770E+05 -1.791656E+04 -2.045911E+04  1.502427E+03 -8.144594E-09  3.445534E-09
       165  19 -4.424571E+05  1.746717E+04  1.170444E+04  1.551403E+03  6.066487E+03  1.167223E+03
       165  20 -4.455262E+05  1.941311E+04  1.461314E+04 -1.350576E+03  3.953264E+03  1.068380E+03
       165  21 -4.496790E+05  1.807873E+04  1.532764E+04  2.028406E+03  1.840152E+03  9.237654E+02
       165  22 -5.217312E+05 -2.328424E+03 -7.961504E+03  1.768694E+03  6.050184E+03  1.167213E+03
       165  23 -5.211880E+05  5.175412E+02 -4.162972E+03 -1.373457E+03  3.927321E+03  1.068351E+03
       165  24 -5.217303E+05  8.128392E+01 -2.565541E+03  1.765403E+03  1.804555E+03  9.237158E+02
       165  25 -6.009995E+05 -2.212448E+04 -2.762792E+04  1.985955E+03  6.033884E+03  1.167203E+03
       165  26 -5.968447E+05 -1.837845E+04 -2.293951E+04 -1.396337E+03  3.901381E+03  1.068322E+03
       165  27 -5.937770E+05 -1.791655E+04 -2.045911E+04  1.502428E+03  1.768963E+03  9.236664E+02
       166   1 -4.675796E+05  1.314809E+04  1.131352E+04  1.938612E+03 -1.414291E+03 -8.369423E+02
       166   2 -4.714555E+05  1.256142E+04  1.110308E+04 -1.497352E+03 -7.659748E+02 -7.009701E+02
       166   3 -4.755592E+05  1.145762E+04  1.033814E+04  2.003212E+03 -1.177253E+02 -5.499599E+02
       166   4 -5.215392E+05 -3.256824E+02 -2.066382E+03  1.912559E+03 -1.386706E+03 -8.369024E+02
       166   5 -5.214251E+05  8.175480E+01 -1.297787E+03 -1.555961E+03 -7.351937E+02 -7.009218E+02
       166   6 -5.215393E+05 -2.853210E+01 -1.085956E+03  1.912081E+03 -8.374345E+01 -5.499028E+02
       166   7 -5.754962E+05 -1.379967E+04 -1.544650E+04  1.886506E+03 -1.359124E+03 -8.368625E+02
       166   8 -5.713923E+05 -1.239810E+04 -1.369884E+04 -1.614567E+03 -7.044150E+02 -7.008736E+02
       166   9 -5.675174E+05 -1.151484E+04 -1.251021E+04  1.820957E+03 -4.976414E+01 -5.498456E+02
       166  10 -4.675796E+05  1.314809E+04  1.131352E+04  1.938611E+03  4.609546E-09 -7.052636E-10
       166  11 -4.714555E+05  1.256142E+04  1.110308E+04 -1.497352E+03  2.209638E-10  4.315181E-09
       166  12 -4.755592E+05  1.145762E+04  1.033814E+04  2.003212E+03 -2.558892E-09  3.904828E-09
       166  13 -5.215393E+05 -3.256836E+02 -2.066386E+03  1.912558E+03 -3.416491E-09  1.559962E-09
       166  14 -5.214251E+05  8.175413E+01 -1.297789E+03 -1.555962E+03  2.226272E-09  4.242263E-09
       166  15 -5.215393E+05 -2.853243E+01 -1.085957E+03  1.912081E+03 -6.484083E-09 -1.882885E-10
       166  16 -5.754962E+05 -1.379967E+04 -1.544651E+04  1.886505E+03 -5.188258E-09  2.978541E-09
       166  17 -5.713923E+05 -1.239810E+04 -1.369884E+04 -1.614568E+03 -3.050903E-09 -1.295465E-09
       166  18 -5.675174E+05 -1.151484E+04 -1.251021E+04  1.820957E+03 -1.465158E-09 -1.941623E-09
       166  19 -4.675796E+05  1.314809E+04  1.131352E+04  1.938612E+03  1.414291E+03  8.369423E+02
       166  20 -4.714555E+05  1.256142E+04  1.110308E+04 -1.497352E+03  7.659748E+02  7.009701E+02
       166  21 -4.755592E+05  1.145762E+04  1.033814E+04  2.003212E+03  1.177253E+02  5.499599E+02
       166  22 -5.215392E+05 -3.256824E+02 -2.066382E+03  1.912559E+03  1.386706E+03  8.369024E+02
       166  23 -5.214251E+05  8.175480E+01 -1.297787E+03 -1.555961E+03  7.351937E+02  7.009218E+02
       166  24 -5.215393E+05 -2.853210E+01 -1.085956E+03  1.912081E+03  8.374345E+01  5.499028E+02
       166  25 -5.754962E+05 -1.379967E+04 -1.544650E+04  1.886506E+03  1.359124E+03  8.368625E+02
       166  26 -5.713923E+05 -1.239810E+04 -1.369884E+04 -1.614567E+03  7.044150E+02  7.008736E+02
       166  27 -5.675174E+05 -1.151484E+04 -1.251021E+04  1.820957E+03  4.976414E+01  5.498456E+02
       167   1 -4.950749E+05  6.579865E+03  5.464759E+03  2.000761E+03  8.097531E+01 -4.603456E+02
       167   2 -4.991571E+05  5.643736E+03  4.203118E+03 -1.626669E+03  7.440502E+02 -3.098843E+02
       167   3 -5.034879E+05  4.179659E+03  2.371323E+03  2.062137E+03  1.407111E+03 -1.561555E+02
       167   4 -5.215433E+05 -2.794102E+01 -1.091293E+03  1.996432E+03  1.128446E+02 -4.602899E+02
       167   5 -5.214191E+05  8.375777E+01 -1.321779E+03 -1.661412E+03  7.766035E+02 -3.098260E+02
       167   6 -5.215436E+05 -3.326046E+02 -2.122889E+03  1.996996E+03  1.440353E+03 -1.560944E+02
       167   7 -5.480110E+05 -6.635799E+03 -7.647396E+03  1.992103E+03  1.447124E+02 -4.602342E+02
       167   8 -5.436806E+05 -5.476258E+03 -6.846712E+03 -1.696154E+03  8.091556E+02 -3.097676E+02
       167   9 -5.395990E+05 -4.844893E+03 -6.617125E+03  1.931858E+03  1.473594E+03 -1.560333E+02
       167  10 -4.950749E+05  6.579864E+03  5.464758E+03  2.000761E+03 -2.242574E-09  1.672175E-09
       167  11 -4.991571E+05  5.643736E+03  4.203117E+03 -1.626669E+03 -3.132998E-09  1.783773E-09
       167  12 -5.034879E+05  4.179659E+03  2.371320E+03  2.062137E+03 -1.041275E-09 -2.805015E-09
       167  13 -5.215433E+05 -2.794125E+01 -1.091293E+03  1.996432E+03  4.888195E-09  5.327858E-09
       167  14 -5.214191E+05  8.375751E+01 -1.321780E+03 -1.661412E+03  2.440885E-09  2.609680E-09
       167  15 -5.215436E+05 -3.326052E+02 -2.122893E+03  1.996996E+03  2.109021E-09 -3.997844E-09
       167  16 -5.480110E+05 -6.635799E+03 -7.647397E+03  1.992103E+03  4.158171E-10  2.401245E-09
       167  17 -5.436806E+05 -5.476258E+03 -6.846714E+03 -1.696154E+03  1.638931E-09  1.641428E-09
       167  18 -5.395990E+05 -4.844893E+03 -6.617129E+03  1.931858E+03 -4.565065E-10 -5.070853E-09
       167  19 -4.950749E+05  6.579865E+03  5.464759E+03  2.000761E+03 -8.097531E+01  4.603456E+02
       167  20 -4.991571E+05  5.643736E+03  4.203118E+03 -1.626669E+03 -7.440502E+02  3.098843E+02
       167  21 -5.034879E+05  4.179659E+03  2.371323E+03  2.062137E+03 -1.407111E+03  1.561555E+02
       167  22 -5.215433E+05 -2.794102E+01 -1.091293E+03  1.996432E+03 -1.128446E+02  4.602899E+02
       167  23 -5.214191E+05  8.375777E+01 -1.321779E+03 -1.661412E+03 -7.766035E+02  3.098260E+02
       167  24 -5.215436E+05 -3.326046E+02 -2.122889E+03  1.996996E+03 -1.440353E+03  1.560944E+02
       167  25 -5.480110E+05 -6.635799E+03 -7.647396E+03  1.992103E+03 -1.447124E+02  4.602342E+02
       167  26 -5.436806E+05 -5.476258E+03 -6.846712E+03 -1.696154E+03 -8.091556E+02  3.097676E+02
       167  27 -5.395990E+05 -4.844893E+03 -6.617125E+03  1.931858E+03 -1.473594E+03  1.560333E+02
       168   1 -5.238345E+05 -4.393706E+02 -3.173527E+03  1.827861E+03  1.834777E+03 -6.154277E+01
       168   2 -5.275080E+05 -1.049757E+03 -5.863569E+03 -1.632052E+03  4.026744E+03  9.854068E+01
       168   3 -5.323464E+05 -5.040812E+03 -1.083370E+04  2.310796E+03  6.218728E+03  2.403902E+02
       168   4 -5.217468E+05  8.553562E+01 -2.642000E+03  2.014282E+03  1.870435E+03 -6.147603E+01
       168   5 -5.211652E+05  5.340232E+02 -4.289825E+03 -1.684817E+03  4.058486E+03  9.859876E+01
       168   6 -5.217479E+05 -2.397452E+03 -8.214995E+03  2.018842E+03  6.246569E+03  2.404380E+02
       168   7 -5.196591E+05  6.104416E+02 -2.110473E+03  2.200703E+03  1.906092E+03 -6.140928E+01
       168   8 -5.148225E+05  2.117800E+03 -2.716084E+03 -1.737582E+03  4.090228E+03  9.865683E+01
       168   9 -5.111493E+05  2.458992E+02 -5.596294E+03  1.726883E+03  6.274411E+03  2.404859E+02
       168  10 -5.238345E+05 -4.393715E+02 -3.173533E+03  1.827861E+03  2.743379E-10  3.735470E-10
       168  11 -5.275080E+05 -1.049761E+03 -5.863600E+03 -1.632053E+03  9.308754E-10  1.807535E-09
       168  12 -5.323464E+05 -5.040823E+03 -1.083378E+04  2.310794E+03 -6.240346E-10 -8.737523E-10
       168  13 -5.217468E+05  8.553468E+01 -2.642006E+03  2.014282E+03  7.444860E-09 -2.801262E-09
       168  14 -5.211652E+05  5.340188E+02 -4.289856E+03 -1.684817E+03 -3.813121E-09  4.321529E-09
       168  15 -5.217479E+05 -2.397463E+03 -8.215068E+03  2.018841E+03 -4.937971E-09  2.723008E-09
       168  16 -5.196591E+05  6.104407E+02 -2.110480E+03  2.200703E+03  1.023443E-09 -2.312750E-09
       168  17 -5.148225E+05  2.117796E+03 -2.716115E+03 -1.737583E+03 -2.848856E-09 -3.972246E-09
       168  18 -5.111493E+05  2.458886E+02 -5.596368E+03  1.726882E+03  3.344585E-11 -1.929866E-09
       168  19 -5.238345E+05 -4.393706E+02 -3.173527E+03  1.827861E+03 -1.834777E+03  6.154277E+01
       168  20 -5.275080E+05 -1.049757E+03 -5.863569E+03 -1.632052E+03 -4.026744E+03 -9.854068E+01
       168  21 -5.323464E+05 -5.040812E+03 -1.083370E+04  2.310796E+03 -6.218728E+03 -2.403902E+02
       168  22 -5.217468E+05  8.553562E+01 -2.642000E+03  2.014282E+03 -1.870435E+03  6.147603E+01
       168  23 -5.211652E+05  5.340232E+02 -4.289825E+03 -1.684817E+03 -4.058486E+03 -9.859876E+01
       168  24 -5.217479E+05 -2.397452E+03 -8.214995E+03  2.018842E+03 -6.246569E+03 -2.404380E+02
       168  25 -5.196591E+05  6.104416E+02 -2.110473E+03  2.200703E+03 -1.906092E+03  6.140928E+01
       168  26 -5.148225E+05  2.117800E+03 -2.716084E+03 -1.737582E+03 -4.090228E+03 -9.865683E+01
       168  27 -5.111493E+05  2.458992E+02 -5.596294E+03  1.726883E+03 -6.274411E+03 -2.404859E+02
       169   1 -5.536069E+05 -7.032027E+03 -1.787672E+04  7.008880E+02  7.863084E+03  3.518440E+02
       169   2 -5.542311E+05 -4.963303E+03 -2.523213E+04 -1.113800E+03  1.658286E+04  5.316623E+02
       169   3 -5.618868E+05 -2.637204E+04 -4.414246E+04  4.282208E+03  2.530265E+04  5.832741E+02
       169   4 -5.230498E+05  6.079713E+02 -1.027917E+04  1.962976E+03  7.912604E+03  3.519486E+02
       169   5 -5.195393E+05  3.698307E+03 -1.662506E+04 -1.627441E+03  1.660513E+04  5.316850E+02
       169   6 -5.230553E+05 -1.668338E+04 -3.450644E+04  1.992851E+03  2.529773E+04  5.831680E+02
       169   7 -4.924919E+05  8.247906E+03 -2.681701E+03  3.225127E+03  7.962127E+03  3.520534E+02
       169   8 -4.848464E+05  1.235983E+04 -8.018072E+03 -2.141112E+03  1.662740E+04  5.317076E+02
       169   9 -4.842223E+05 -6.994817E+03 -2.487053E+04 -2.966501E+02  2.529280E+04  5.830620E+02
       169  10 -5.536070E+05 -7.032044E+03 -1.787683E+04  7.008858E+02  3.179049E-09  1.472656E-09
       169  11 -5.542314E+05 -4.963377E+03 -2.523265E+04 -1.113807E+03  4.630660E-09  9.303517E-10
       169  12 -5.618875E+05 -2.637221E+04 -4.414366E+04  4.282196E+03  1.161460E-10  3.560693E-09
       169  13 -5.230499E+05  6.079543E+02 -1.027929E+04  1.962974E+03 -1.206868E-09  8.862018E-10
       169  14 -5.195396E+05  3.698232E+03 -1.662558E+04 -1.627448E+03 -1.679207E-09  3.072074E-09
       169  15 -5.230560E+05 -1.668355E+04 -3.450764E+04  1.992839E+03 -2.370520E-09  1.435202E-09
       169  16 -4.924919E+05  8.247889E+03 -2.681821E+03  3.225125E+03 -6.535470E-10 -1.750202E-09
       169  17 -4.848467E+05  1.235975E+04 -8.018592E+03 -2.141119E+03 -5.088065E-09 -2.338743E-09
       169  18 -4.842230E+05 -6.994989E+03 -2.487173E+04 -2.966620E+02  2.980981E-09 -2.041089E-09
       169  19 -5.536069E+05 -7.032027E+03 -1.787672E+04  7.008880E+02 -7.863084E+03 -3.518440E+02
       169  20 -5.542311E+05 -4.963303E+03 -2.523213E+04 -1.113800E+03 -1.658286E+04 -5.316623E+02
       169  21 -5.618868E+05 -2.637204E+04 -4.414246E+04  4.282208E+03 -2.530265E+04 -5.832741E+02
       169  22 -5.230498E+05  6.079713E+02 -1.027917E+04  1.962976E+03 -7.912604E+03 -3.519486E+02
       169  23 -5.195393E+05  3.698307E+03 -1.662506E+04 -1.627441E+03 -1.660513E+04 -5.316850E+02
       169  24 -5.230553E+05 -1.668338E+04 -3.450644E+04  1.992851E+03 -2.529773E+04 -5.831680E+02
       169  25 -4.924919E+05  8.247906E+03 -2.681701E+03  3.225127E+03 -7.962127E+03 -3.520534E+02
       169  26 -4.848464E+05  1.235983E+04 -8.018072E+03 -2.141112E+03 -1.662740E+04 -5.317076E+02
       169  27 -4.842223E+05 -6.994817E+03 -2.487053E+04 -2.966501E+02 -2.529280E+04 -5.830620E+02
       170   1 -5.892641E+05 -1.022746E+04 -5.612193E+04 -6.448097E+03  3.200126E+04  8.082646E+02
       170   2 -5.706513E+05  1.005842E+04 -7.933864E+04  2.821464E+03  6.714849E+04  1.089973E+03
       170   3 -5.970613E+05 -1.313761E+05 -1.658805E+05  1.892792E+04  1.022978E+05  5.043960E+02
       170   4 -5.314834E+05  4.240049E+03 -4.176670E+04  1.827762E+03  3.214502E+04  8.089256E+02
       170   5 -5.090042E+05  2.543426E+04 -6.405882E+04 -1.500102E+03  6.710780E+04  1.089426E+03
       170   6 -5.315115E+05 -1.150518E+05 -1.495434E+05  2.009166E+03  1.020729E+05  5.012512E+02
       170   7 -4.736996E+05  1.870756E+04 -2.741168E+04  1.010439E+04  3.228879E+04  8.095903E+02
       170   8 -4.473536E+05  4.080988E+04 -4.877927E+04 -5.822099E+03  6.706712E+04  1.088880E+03
       170   9 -4.659572E+05 -9.872683E+04 -1.332065E+05 -1.491138E+04  1.018479E+05  4.981188E+02
       170  10 -5.892652E+05 -1.022774E+04 -5.612386E+04 -6.448118E+03 -4.254330E-09  1.494889E-09
       170  11 -5.706561E+05  1.005720E+04 -7.934712E+04  2.821405E+03 -8.454613E-10 -1.725933E-09
       170  12 -5.970725E+05 -1.313789E+05 -1.659002E+05  1.892788E+04 -1.080823E-09 -9.629356E-10
       170  13 -5.314845E+05  4.239770E+03 -4.176864E+04  1.827741E+03  2.691019E-09  3.936836E-09
       170  14 -5.090090E+05  2.543304E+04 -6.406729E+04 -1.500161E+03 -1.357697E-09 -4.718819E-09
       170  15 -5.315227E+05 -1.150546E+05 -1.495630E+05  2.009125E+03 -9.065366E-09  1.101491E-09
       170  16 -4.737007E+05  1.870728E+04 -2.741364E+04  1.010437E+04 -2.110518E-09  2.507212E-09
       170  17 -4.473584E+05  4.080867E+04 -4.878773E+04 -5.822158E+03 -8.496191E-09 -1.220553E-09
       170  18 -4.659683E+05 -9.872962E+04 -1.332260E+05 -1.491142E+04 -5.820992E-09 -9.733463E-10
       170  19 -5.892641E+05 -1.022746E+04 -5.612193E+04 -6.448097E+03 -3.200126E+04 -8.082646E+02
       170  20 -5.706513E+05  1.005842E+04 -7.933864E+04  2.821464E+03 -6.714849E+04 -1.089973E+03
       170  21 -5.970613E+05 -1.313761E+05 -1.658805E+05  1.892792E+04 -1.022978E+05 -5.043960E+02
       170  22 -5.314834E+05  4.240049E+03 -4.176670E+04  1.827762E+03 -3.214502E+04 -8.089256E+02
       170  23 -5.090042E+05  2.543426E+04 -6.405882E+04 -1.500102E+03 -6.710780E+04 -1.089426E+03
       170  24 -5.315115E+05 -1.150518E+05 -1.495434E+05  2.009166E+03 -1.020729E+05 -5.012512E+02
       170  25 -4.736996E+05  1.870756E+04 -2.741168E+04  1.010439E+04 -3.228879E+04 -8.095903E+02
       170  26 -4.473536E+05  4.080988E+04 -4.877927E+04 -5.822099E+03 -6.706712E+04 -1.088880E+03
       170  27 -4.659572E+05 -9.872683E+04 -1.332065E+05 -1.491138E+04 -1.018479E+05 -4.981188E+02
       171   1  1.880517E+05  1.063734E+06  2.022372E+05 -8.974679E+04  5.245740E+03  6.554358E+04
       171   2  8.826162E+04  9.487808E+05  1.282962E+05 -4.422442E+04  1.514246E+04  3.381579E+04
       171   3  6.420018E+04  8.568595E+05  9.391567E+04 -5.057796E+04  1.216307E+04  2.083696E+03
       171   4  6.855245E+04  5.834250E+05  8.482984E+04 -6.047102E+04  5.257519E+03  5.336874E+04
       171   5 -4.213018E+03  5.727574E+05  4.171798E+04 -3.456042E+04  1.514573E+04  3.124783E+04
       171   6 -2.889965E+03  5.834644E+05  3.152081E+04 -6.052421E+04  1.215637E+04  9.117184E+03
       171   7 -5.096059E+04  1.033279E+05 -3.259335E+04 -3.121787E+04  5.268157E+03  4.120327E+04
       171   8 -9.669719E+04  1.968648E+05 -4.486953E+04 -2.490227E+04  1.514892E+04  2.868140E+04
       171   9 -6.998488E+04  3.101388E+05 -3.087869E+04 -7.046602E+04  1.214944E+04  1.614760E+04
       171  10  1.880505E+05  1.063729E+06  2.022291E+05 -8.974707E+04 -1.221688E-09 -1.153839E-09
       171  11  8.826107E+04  9.487795E+05  1.282936E+05 -4.422484E+04  1.724934E-09 -2.197144E-09
       171  12  6.420002E+04  8.568595E+05  9.391538E+04 -5.057798E+04  1.181901E-09  1.154353E-09
       171  13  6.855166E+04  5.834219E+05  8.482444E+04 -6.047124E+04  2.663011E-10 -9.997898E-11
       171  14 -4.213527E+03  5.727563E+05  4.171572E+04 -3.456080E+04  9.069091E-09  1.672759E-10
       171  15 -2.890146E+03  5.834643E+05  3.152038E+04 -6.052430E+04  4.079526E-09 -1.337709E-09
       171  16 -5.096108E+04  1.033261E+05 -3.259659E+04 -3.121804E+04 -1.247392E-09  1.458048E-09
       171  17 -9.669766E+04  1.968638E+05 -4.487151E+04 -2.490262E+04  8.131354E-09  1.206518E-10
       171  18 -6.998511E+04  3.101385E+05 -3.087946E+04 -7.046618E+04  7.055704E-09 -1.784213E-09
       171  19  1.880517E+05  1.063734E+06  2.022372E+05 -8.974679E+04 -5.245740E+03 -6.554358E+04
       171  20  8.826162E+04  9.487808E+05  1.282962E+05 -4.422442E+04 -1.514246E+04 -3.381579E+04
       171  21  6.420018E+04  8.568595E+05  9.391567E+04 -5.057796E+04 -1.216307E+04 -2.083696E+03
       171  22  6.855245E+04  5.834250E+05  8.482984E+04 -6.047102E+04 -5.257519E+03 -5.336874E+04
       171  23 -4.213018E+03  5.727574E+05  4.171798E+04 -3.456042E+04 -1.514573E+04 -3.124783E+04
       171  24 -2.889965E+03  5.834644E+05  3.152081E+04 -6.052421E+04 -1.215637E+04 -9.117184E+03
       171  25 -5.096059E+04  1.033279E+05 -3.259335E+04 -3.121787E+04 -5.268157E+03 -4.120327E+04
       171  26 -9.669719E+04  1.968648E+05 -4.486953E+04 -2.490227E+04 -1.514892E+04 -2.868140E+04
       171  27 -6.998488E+04  3.101388E+05 -3.087869E+04 -7.046602E+04 -1.214944E+04 -1.614760E+04
       172   1  4.785974E+04  7.569734E+05  7.059939E+04 -6.432341E+04  7.627096E+03  7.583926E+02
       172   2  1.698495E+04  6.507730E+05  4.763189E+04 -3.402703E+04  3.261525E+03 -1.493220E+04
       172   3  3.674535E+03  5.508897E+05  3.923488E+04 -5.592685E+04 -1.275236E+03 -3.062107E+04
       172   4  4.408713E+03  5.801180E+05  3.011251E+04 -6.058060E+04  7.623879E+03  3.956841E+03
       172   5 -1.135885E+03  5.769762E+05  3.076786E+04 -3.447918E+04  3.258025E+03 -1.160440E+04
       172   6  1.086306E+04  5.801190E+05  4.590537E+04 -6.057363E+04 -1.278854E+03 -2.716645E+04
       172   7 -3.904443E+04  4.032917E+05 -1.037639E+04 -5.683885E+04  7.620700E+03  7.154387E+03
       172   8 -1.925709E+04  5.031844E+05  1.390351E+04 -3.493127E+04  3.254520E+03 -8.276988E+03
       172   9  1.805161E+04  6.093491E+05  5.257586E+04 -6.522064E+04 -1.282525E+03 -2.371166E+04
       172  10  4.785968E+04  7.569733E+05  7.059928E+04 -6.432341E+04  3.968623E-09  4.688351E-09
       172  11  1.698488E+04  6.507728E+05  4.763145E+04 -3.402699E+04  2.909836E-09  2.149722E-09
       172  12  3.674282E+03  5.508887E+05  3.923312E+04 -5.592688E+04 -2.978297E-09  1.837720E-09
       172  13  4.408646E+03  5.801180E+05  3.011237E+04 -6.058062E+04  3.023164E-09  4.490555E-11
       172  14 -1.135933E+03  5.769760E+05  3.076759E+04 -3.447915E+04  1.074631E-08 -8.180946E-11
       172  15  1.086286E+04  5.801182E+05  4.590398E+04 -6.057366E+04  2.323912E-09 -1.536912E-09
       172  16 -3.904451E+04  4.032916E+05 -1.037659E+04 -5.683890E+04  8.275581E-10 -4.188740E-09
       172  17 -1.925712E+04  5.031844E+05  1.390337E+04 -3.493125E+04 -3.496928E-09 -4.986559E-09
       172  18  1.805145E+04  6.093485E+05  5.257480E+04 -6.522066E+04 -2.154811E-09 -2.378579E-09
       172  19  4.785974E+04  7.569734E+05  7.059939E+04 -6.432341E+04 -7.627096E+03 -7.583926E+02
       172  20  1.698495E+04  6.507730E+05  4.763189E+04 -3.402703E+04 -3.261525E+03  1.493220E+04
       172  21  3.674535E+03  5.508897E+05  3.923488E+04 -5.592685E+04  1.275236E+03  3.062107E+04
       172  22  4.408713E+03  5.801180E+05  3.011251E+04 -6.058060E+04 -7.623879E+03 -3.956841E+03
       172  23 -1.135885E+03  5.769762E+05  3.076786E+04 -3.447918E+04 -3.258025E+03  1.160440E+04
       172  24  1.086306E+04  5.801190E+05  4.590537E+04 -6.057363E+04  1.278854E+03  2.716645E+04
       172  25 -3.904443E+04  4.032917E+05 -1.037639E+04 -5.683885E+04 -7.620700E+03 -7.154387E+03
       172  26 -1.925709E+04  5.031844E+05  1.390351E+04 -3.493127E+04 -3.254520E+03  8.276988E+03
       172  27  1.805161E+04  6.093491E+05  5.257586E+04 -6.522064E+04  1.282525E+03  2.371166E+04
       173   1 -3.870776E+04  4.635200E+05  2.579228E+04 -8.310130E+04 -5.403932E+03 -4.153087E+04
       173   2 -6.545451E+04  3.375244E+05  3.337544E+04 -1.351891E+04 -8.968858E+03 -8.048584E+04
       173   3  7.062269E+04  2.572369E+05  1.070064E+05  4.206152E+03 -3.289510E+03 -1.194244E+05
       173   4 -7.910206E+03  5.891418E+05  5.452628E+04 -6.054477E+04 -5.412075E+03 -3.541446E+04
       173   5 -9.268875E+03  5.656828E+05  8.601325E+04 -3.454539E+04 -8.965156E+03 -8.126938E+04
       173   6  1.533518E+05  5.890876E+05  1.883145E+05 -6.039635E+04 -3.270017E+03 -1.271146E+05
       173   7  2.288819E+04  7.147794E+05  8.325967E+04 -3.798363E+04 -5.419772E+03 -2.929683E+04
       173   8  4.691476E+04  7.938902E+05  1.386478E+05 -5.557964E+04 -8.961403E+03 -8.205320E+04
       173   9  2.360883E+05  9.210476E+05  2.696170E+05 -1.250334E+05 -3.248932E+03 -1.348089E+05
       173  10 -3.870825E+04  4.635182E+05  2.578898E+04 -8.310148E+04 -3.355063E-09 -4.957312E-09
       173  11 -6.545633E+04  3.375174E+05  3.336312E+04 -1.351949E+04  2.608298E-09 -5.611211E-09
       173  12  7.061886E+04  2.572216E+05  1.069796E+05  4.205836E+03 -8.799616E-10 -1.246241E-09
       173  13 -7.910573E+03  5.891405E+05  5.452387E+04 -6.054492E+04 -5.225261E-09  1.664876E-10
       173  14 -9.270732E+03  5.656757E+05  8.600070E+04 -3.454598E+04 -2.939963E-09 -2.258626E-11
       173  15  1.533474E+05  5.890703E+05  1.882841E+05 -6.039669E+04 -5.980172E-09 -9.662502E-10
       173  16  2.288793E+04  7.147785E+05  8.325800E+04 -3.798376E+04 -1.232621E-09  5.509580E-09
       173  17  4.691287E+04  7.938830E+05  1.386350E+05 -5.558023E+04 -4.657443E-09  3.041452E-09
       173  18  2.360834E+05  9.210282E+05  2.695829E+05 -1.250338E+05 -2.860047E-09  7.519604E-10
       173  19 -3.870776E+04  4.635200E+05  2.579228E+04 -8.310130E+04  5.403932E+03  4.153087E+04
       173  20 -6.545451E+04  3.375244E+05  3.337544E+04 -1.351891E+04  8.968858E+03  8.048584E+04
       173  21  7.062269E+04  2.572369E+05  1.070064E+05  4.206152E+03  3.289510E+03  1.194244E+05
       173  22 -7.910206E+03  5.891418E+05  5.452628E+04 -6.054477E+04  5.412075E+03  3.541446E+04
       173  23 -9.268875E+03  5.656828E+05  8.601325E+04 -3.454539E+04  8.965156E+03  8.126938E+04
       173  24  1.533518E+05  5.890876E+05  1.883145E+05 -6.039635E+04  3.270017E+03  1.271146E+05
       173  25  2.288819E+04  7.147794E+05  8.325967E+04 -3.798363E+04  5.419772E+03  2.929683E+04
       173  26  4.691476E+04  7.938902E+05  1.386478E+05 -5.557964E+04  8.961403E+03  8.205320E+04
       173  27  2.360883E+05  9.210476E+05  2.696170E+05 -1.250334E+05  3.248932E+03  1.348089E+05
       174   1 -1.598403E+04 -1.224983E+04 -3.340384E+04 -1.011879E+04 -6.271362E+04 -2.364699E+03
       174   2 -2.323788E+04  7.033932E+04  1.448165E+04 -4.044284E+03 -4.230148E+04 -6.767708E+03
       174   3 -5.724579E+04  5.649742E+04  2.498018E+04  1.988496E+04 -2.189869E+04 -5.936596E+03
       174   4 -2.696234E+05 -7.546350E+04 -9.617050E+04  1.051605E+04 -6.574104E+04 -2.371565E+03
       174   5 -2.560398E+05  1.253175E+04 -4.184006E+04  1.525292E+03 -4.307643E+04 -6.769595E+03
       174   6 -2.696129E+05  3.684346E+03 -2.647206E+04  1.038986E+04 -2.042041E+04 -5.933628E+03
       174   7 -5.232035E+05 -1.386804E+05 -1.589417E+05  3.114244E+04 -6.876723E+04 -2.378635E+03
       174   8 -4.887920E+05 -4.527967E+04 -9.816564E+04  7.092752E+03 -4.385110E+04 -6.771496E+03
       174   9 -4.819385E+05 -4.913170E+04 -7.792749E+04  8.979976E+02 -1.894262E+04 -5.930706E+03
       174  10 -1.598826E+04 -1.225089E+04 -3.341124E+04 -1.011891E+04 -3.046843E-09  1.490469E-09
       174  11 -2.323981E+04  7.033879E+04  1.447820E+04 -4.044515E+03  7.476196E-09  9.190083E-09
       174  12 -5.724632E+04  5.649725E+04  2.497921E+04  1.988485E+04  5.385273E-09  2.214369E-09
       174  13 -2.696281E+05 -7.546467E+04 -9.617863E+04  1.051593E+04 -1.148639E-09 -6.331481E-10
       174  14 -2.560418E+05  1.253120E+04 -4.184363E+04  1.525057E+03 -6.014345E-09 -2.332097E-09
       174  15 -2.696133E+05  3.684196E+03 -2.647291E+04  1.038976E+04  1.881834E-10  1.475850E-09
       174  16 -5.232085E+05 -1.386816E+05 -1.589506E+05  3.114231E+04  3.464269E-09  8.746777E-10
       174  17 -4.887941E+05 -4.528023E+04 -9.816934E+04  7.092513E+03 -2.628892E-09  5.684290E-09
       174  18 -4.819389E+05 -4.913184E+04 -7.792823E+04  8.979071E+02 -4.888622E-09 -1.015361E-10
       174  19 -1.598403E+04 -1.224983E+04 -3.340384E+04 -1.011879E+04  6.271362E+04  2.364699E+03
       174  20 -2.323788E+04  7.033932E+04  1.448165E+04 -4.044284E+03  4.230148E+04  6.767708E+03
       174  21 -5.724579E+04  5.649742E+04  2.498018E+04  1.988496E+04  2.189869E+04  5.936596E+03
       174  22 -2.696234E+05 -7.546350E+04 -9.617050E+04  1.051605E+04  6.574104E+04  2.371565E+03
       174  23 -2.560398E+05  1.253175E+04 -4.184006E+04  1.525292E+03  4.307643E+04  6.769595E+03
       174  24 -2.696129E+05  3.684346E+03 -2.647206E+04  1.038986E+04  2.042041E+04  5.933628E+03
       174  25 -5.232035E+05 -1.386804E+05 -1.589417E+05  3.114244E+04  6.876723E+04  2.378635E+03
       174  26 -4.887920E+05 -4.527967E+04 -9.816564E+04  7.092752E+03  4.385110E+04  6.771496E+03
       174  27 -4.819385E+05 -4.913170E+04 -7.792749E+04  8.979976E+02  1.894262E+04  5.930706E+03
       175   1 -8.556309E+04  3.571292E+04  2.171263E+04  8.535583E+03 -1.629289E+04 -4.703003E+03
       175   2 -1.046033E+05  4.073955E+04  2.741180E+04  1.125163E+03 -1.089424E+04 -4.361224E+03
       175   3 -1.271990E+05  3.457157E+04  2.678659E+04  1.182975E+04 -5.497038E+03 -3.551838E+03
       175   4 -2.643750E+05 -8.725505E+03 -2.168323E+04  1.050138E+04 -1.624770E+04 -4.703061E+03
       175   5 -2.625776E+05  1.484531E+03 -1.086899E+04  1.434572E+03 -1.064855E+04 -4.360799E+03
       175   6 -2.643724E+05  4.634061E+02 -6.519837E+03  1.048314E+04 -5.050659E+03 -3.550907E+03
       175   7 -4.431576E+05 -5.316627E+04 -6.508141E+04  1.246660E+04 -1.620254E+04 -4.703118E+03
       175   8 -4.205291E+05 -3.777232E+04 -4.915159E+04  1.743890E+03 -1.040292E+04 -4.360374E+03
       175   9 -4.015286E+05 -3.364613E+04 -3.982762E+04  9.136814E+03 -4.604378E+03 -3.549977E+03
       175  10 -8.556338E+04  3.571283E+04  2.171209E+04  8.535522E+03  2.259286E-09 -2.103545E-09
       175  11 -1.046035E+05  4.073950E+04  2.741154E+04  1.125125E+03 -1.053608E-09  2.520494E-09
       175  12 -1.271991E+05  3.457155E+04  2.678651E+04  1.182973E+04 -2.049092E-09  6.827105E-09
       175  13 -2.643752E+05 -8.725599E+03 -2.168377E+04  1.050132E+04  2.998066E-09  5.954930E-09
       175  14 -2.625778E+05  1.484480E+03 -1.086924E+04  1.434534E+03  2.735742E-09 -1.268663E-08
       175  15 -2.643725E+05  4.633857E+02 -6.519909E+03  1.048312E+04  7.587843E-10  6.380873E-09
       175  16 -4.431579E+05 -5.316636E+04 -6.508194E+04  1.246653E+04 -1.822403E-10 -5.354368E-09
       175  17 -4.205292E+05 -3.777237E+04 -4.915182E+04  1.743853E+03 -8.612048E-09 -3.636878E-09
       175  18 -4.015286E+05 -3.364615E+04 -3.982769E+04  9.136801E+03 -8.238383E-10 -3.227929E-11
       175  19 -8.556309E+04  3.571292E+04  2.171263E+04  8.535583E+03  1.629289E+04  4.703003E+03
       175  20 -1.046033E+05  4.073955E+04  2.741180E+04  1.125163E+03  1.089424E+04  4.361224E+03
       175  21 -1.271990E+05  3.457157E+04  2.678659E+04  1.182975E+04  5.497038E+03  3.551838E+03
       175  22 -2.643750E+05 -8.725505E+03 -2.168323E+04  1.050138E+04  1.624770E+04  4.703061E+03
       175  23 -2.625776E+05  1.484531E+03 -1.086899E+04  1.434572E+03  1.064855E+04  4.360799E+03
       175  24 -2.643724E+05  4.634061E+02 -6.519837E+03  1.048314E+04  5.050659E+03  3.550907E+03
       175  25 -4.431576E+05 -5.316627E+04 -6.508141E+04  1.246660E+04  1.620254E+04  4.703118E+03
       175  26 -4.205291E+05 -3.777232E+04 -4.915159E+04  1.743890E+03  1.040292E+04  4.360374E+03
       175  27 -4.015286E+05 -3.364613E+04 -3.982762E+04  9.136814E+03  4.604378E+03  3.549977E+03
       176   1 -1.604561E+05  2.468724E+04  1.984232E+04  1.049057E+04 -4.337550E+03 -3.016240E+03
       176   2 -1.811422E+05  2.062938E+04  1.717975E+04  1.499381E+03 -2.967512E+03 -2.253019E+03
       176   3 -2.024069E+05  1.534425E+04  1.329848E+04  1.077158E+04 -1.597751E+03 -1.446637E+03
       176   4 -2.637014E+05 -9.602497E+02 -5.129273E+03  1.052358E+04 -4.018125E+03 -3.015563E+03
       176   5 -2.634100E+05  1.835767E+02 -2.760501E+03  1.390618E+03 -2.629661E+03 -2.252269E+03
       176   6 -2.637006E+05  9.691652E+01 -1.623298E+03  1.052121E+04 -1.241428E+03 -1.445811E+03
       176   7 -3.669368E+05 -2.660852E+04 -3.010163E+04  1.055657E+04 -3.698753E+03 -3.014886E+03
       176   8 -3.456716E+05 -2.026272E+04 -2.270124E+04  1.281867E+03 -2.291855E+03 -2.251520E+03
       176   9 -3.249909E+05 -1.515070E+04 -1.654535E+04  1.027085E+04 -8.851407E+02 -1.444986E+03
       176  10 -1.604562E+05  2.468722E+04  1.984226E+04  1.049056E+04  1.735468E-09 -2.062518E-09
       176  11 -1.811422E+05  2.062937E+04  1.717972E+04  1.499375E+03  4.839158E-09 -2.971093E-09
       176  12 -2.024069E+05  1.534425E+04  1.329847E+04  1.077158E+04  3.332115E-09 -4.716782E-09
       176  13 -2.637014E+05 -9.602638E+02 -5.129320E+03  1.052357E+04  1.190003E-09 -4.467259E-10
       176  14 -2.634100E+05  1.835694E+02 -2.760523E+03  1.390613E+03  6.557783E-09 -1.940554E-09
       176  15 -2.637006E+05  9.691387E+01 -1.623305E+03  1.052120E+04  3.813220E-09 -2.991090E-09
       176  16 -3.669369E+05 -2.660853E+04 -3.010167E+04  1.055656E+04 -4.178096E-09 -5.559623E-09
       176  17 -3.456716E+05 -2.026273E+04 -2.270126E+04  1.281862E+03 -6.635853E-09  4.584814E-09
       176  18 -3.249909E+05 -1.515070E+04 -1.654535E+04  1.027085E+04 -5.429404E-09  4.950581E-09
       176  19 -1.604561E+05  2.468724E+04  1.984232E+04  1.049057E+04  4.337550E+03  3.016240E+03
       176  20 -1.811422E+05  2.062938E+04  1.717975E+04  1.499381E+03  2.967512E+03  2.253019E+03
       176  21 -2.024069E+05  1.534425E+04  1.329848E+04  1.077158E+04  1.597751E+03  1.446637E+03
       176  22 -2.637014E+05 -9.602497E+02 -5.129273E+03  1.052358E+04  4.018125E+03  3.015563E+03
       176  23 -2.634100E+05  1.835767E+02 -2.760501E+03  1.390618E+03  2.629661E+03  2.252269E+03
       176  24 -2.637006E+05  9.691653E+01 -1.623298E+03  1.052121E+04  1.241428E+03  1.445811E+03
       176  25 -3.669368E+05 -2.660852E+04 -3.010163E+04  1.055657E+04  3.698753E+03  3.014886E+03
       176  26 -3.456716E+05 -2.026272E+04 -2.270124E+04  1.281867E+03  2.291855E+03  2.251520E+03
       176  27 -3.249909E+05 -1.515070E+04 -1.654535E+04  1.027085E+04  8.851407E+02  1.444986E+03
       177   1 -2.364327E+05  6.679318E+03  5.265300E+03  1.057109E+04 -1.329207E+03 -9.717366E+02
       177   2 -2.573836E+05  1.556122E+03  7.704546E+02  1.390670E+03 -9.749352E+02 -1.699412E+02
       177   3 -2.785052E+05 -3.636378E+03 -3.995218E+03  1.052652E+04 -6.206950E+02  6.352332E+02
       177   4 -2.636085E+05 -6.209323E+01 -1.258119E+03  1.053387E+04 -9.840081E+02 -9.709245E+02
       177   5 -2.635227E+05  3.027359E+01 -7.176301E+02  1.375599E+03 -6.282980E+02 -1.691241E+02
       177   6 -2.636084E+05  5.311177E+01 -4.489571E+02  1.053360E+04 -2.726076E+02  6.360569E+02
       177   7 -2.907836E+05 -6.803558E+03 -7.781591E+03  1.049666E+04 -6.388243E+02 -9.701125E+02
       177   8 -2.696618E+05 -1.495577E+03 -2.205717E+03  1.360529E+03 -2.816643E+02 -1.683070E+02
       177   9 -2.487113E+05  3.742585E+03  3.097289E+03  1.054068E+04  7.548816E+01  6.368806E+02
       177  10 -2.364327E+05  6.679316E+03  5.265295E+03  1.057109E+04 -4.224785E-10 -4.972711E-09
       177  11 -2.573836E+05  1.556122E+03  7.704528E+02  1.390669E+03 -3.858492E-09  5.734260E-09
       177  12 -2.785052E+05 -3.636378E+03 -3.995220E+03  1.052652E+04 -3.914679E-09 -1.533500E-09
       177  13 -2.636085E+05 -6.209450E+01 -1.258123E+03  1.053387E+04 -9.033510E-10  1.048390E-09
       177  14 -2.635227E+05  3.027346E+01 -7.176309E+02  1.375599E+03 -4.111862E-09 -4.343404E-10
       177  15 -2.636084E+05  5.311131E+01 -4.489580E+02  1.053360E+04 -3.170983E-09 -5.235955E-09
       177  16 -2.907836E+05 -6.803559E+03 -7.781594E+03  1.049666E+04 -4.127603E-09  1.476899E-09
       177  17 -2.696618E+05 -1.495577E+03 -2.205717E+03  1.360529E+03  2.419987E-09  1.008153E-08
       177  18 -2.487113E+05  3.742585E+03  3.097288E+03  1.054068E+04  2.955728E-09  4.666256E-10
       177  19 -2.364327E+05  6.679318E+03  5.265300E+03  1.057109E+04  1.329207E+03  9.717366E+02
       177  20 -2.573836E+05  1.556122E+03  7.704546E+02  1.390670E+03  9.749352E+02  1.699412E+02
       177  21 -2.785052E+05 -3.636378E+03 -3.995218E+03  1.052652E+04  6.206950E+02 -6.352332E+02
       177  22 -2.636085E+05 -6.209323E+01 -1.258119E+03  1.053387E+04  9.840081E+02  9.709245E+02
       177  23 -2.635227E+05  3.027359E+01 -7.176301E+02  1.375599E+03  6.282980E+02  1.691241E+02
       177  24 -2.636084E+05  5.311177E+01 -4.489571E+02  1.053360E+04  2.726076E+02 -6.360569E+02
       177  25 -2.907836E+05 -6.803558E+03 -7.781591E+03  1.049666E+04  6.388243E+02  9.701125E+02
       177  26 -2.696618E+05 -1.495577E+03 -2.205717E+03  1.360529E+03  2.816643E+02  1.683070E+02
       177  27 -2.487113E+05  3.742585E+03  3.097289E+03  1.054068E+04 -7.548816E+01 -6.368806E+02
       178   1 -3.126213E+05 -1.215854E+04 -1.231881E+04  1.043694E+04 -5.482414E+02  1.105045E+03
       178   2 -3.335580E+05 -1.738950E+04 -1.725766E+04  1.267736E+03 -4.061029E+02  1.908915E+03
       178   3 -3.545998E+05 -2.258053E+04 -2.229973E+04  1.037626E+04 -2.638231E+02  2.706823E+03
       178   4 -2.635944E+05  4.018080E+01 -3.692271E+02  1.052509E+04 -1.999745E+02  1.105860E+03
       178   5 -2.635418E+05  1.330324E+01 -2.848322E+02  1.386308E+03 -6.040747E+01  1.909696E+03
       178   6 -2.635948E+05  2.676392E+01 -3.019263E+02  1.052512E+04  7.930586E+01  2.707572E+03
       178   7 -2.145652E+05  1.223872E+04  1.158018E+04  1.061326E+04  1.483198E+02  1.106675E+03
       178   8 -1.935212E+05  1.741575E+04  1.668764E+04  1.504890E+03  2.853269E+02  1.910477E+03
       178   9 -1.725821E+05  2.263345E+04  2.169529E+04  1.067400E+04  4.224849E+02  2.708321E+03
       178  10 -3.126213E+05 -1.215854E+04 -1.231881E+04  1.043694E+04 -4.841132E-09 -3.878561E-09
       178  11 -3.335580E+05 -1.738951E+04 -1.725766E+04  1.267736E+03 -5.241960E-09 -2.439968E-09
       178  12 -3.545998E+05 -2.258054E+04 -2.229975E+04  1.037626E+04 -5.461936E-09 -1.748143E-09
       178  13 -2.635944E+05  4.017947E+01 -3.692295E+02  1.052509E+04  1.089001E-09  2.704317E-09
       178  14 -2.635418E+05  1.329933E+01 -2.848391E+02  1.386308E+03 -6.459017E-09 -3.938766E-10
       178  15 -2.635948E+05  2.675605E+01 -3.019401E+02  1.052512E+04  4.007770E-09 -3.333068E-09
       178  16 -2.145652E+05  1.223872E+04  1.158018E+04  1.061326E+04  4.852118E-11 -2.885628E-10
       178  17 -1.935212E+05  1.741574E+04  1.668763E+04  1.504890E+03  2.770208E-09 -8.132056E-09
       178  18 -1.725821E+05  2.263345E+04  2.169527E+04  1.067400E+04  4.883978E-09 -2.925666E-09
       178  19 -3.126213E+05 -1.215854E+04 -1.231881E+04  1.043694E+04  5.482414E+02 -1.105045E+03
       178  20 -3.335580E+05 -1.738950E+04 -1.725766E+04  1.267736E+03  4.061029E+02 -1.908915E+03
       178  21 -3.545998E+05 -2.258053E+04 -2.229973E+04  1.037626E+04  2.638231E+02 -2.706823E+03
       178  22 -2.635944E+05  4.018080E+01 -3.692271E+02  1.052509E+04  1.999745E+02 -1.105860E+03
       178  23 -2.635418E+05  1.330324E+01 -2.848322E+02  1.386308E+03  6.040747E+01 -1.909696E+03
       178  24 -2.635948E+05  2.676392E+01 -3.019263E+02  1.052512E+04 -7.930586E+01 -2.707572E+03
       178  25 -2.145652E+05  1.223872E+04  1.158018E+04  1.061326E+04 -1.483198E+02 -1.106675E+03
       178  26 -1.935212E+05  1.741575E+04  1.668764E+04  1.504890E+03 -2.853269E+02 -1.910477E+03
       178  27 -1.725821E+05  2.263345E+04  2.169529E+04  1.067400E+04 -4.224849E+02 -2.708321E+03
       179   1 -3.885741E+05 -3.102231E+04 -3.069654E+04  1.026359E+04 -2.212617E+02  3.180583E+03
       179   2 -4.093444E+05 -3.621009E+04 -3.584080E+04  1.200896E+03  4.856647E+01  3.980253E+03
       179   3 -4.302486E+05 -4.154206E+04 -4.121045E+04  1.027922E+04  3.187764E+02  4.725846E+03
       179   4 -2.636023E+05  5.390791E+01 -3.366242E+02  1.049457E+04  1.354631E+02  3.181331E+03
       179   5 -2.635378E+05  3.212369E+01 -4.945706E+02  1.424376E+03  3.819906E+02  3.980894E+03
       179   6 -2.636032E+05 -1.296566E+02 -8.615659E+02  1.049494E+04  6.289084E+02  4.726386E+03
       179   7 -1.386163E+05  3.112898E+04  3.002217E+04  1.072558E+04  4.922597E+02  3.182079E+03
       179   8 -1.177118E+05  3.627278E+04  3.485013E+04  1.647899E+03  7.154928E+02  3.981535E+03
       179   9 -9.693244E+04  4.128071E+04  3.948532E+04  1.071071E+04  9.391234E+02  4.726926E+03
       179  10 -3.885741E+05 -3.102232E+04 -3.069656E+04  1.026359E+04 -4.774297E-09  2.744233E-11
       179  11 -4.093444E+05 -3.621011E+04 -3.584083E+04  1.200896E+03  4.751698E-09 -3.719719E-09
       179  12 -4.302486E+05 -4.154208E+04 -4.121049E+04  1.027922E+04  7.126283E-11 -1.373790E-09
       179  13 -2.636023E+05  5.389704E+01 -3.366432E+02  1.049457E+04 -3.145017E-09  9.756684E-12
       179  14 -2.635378E+05  3.210663E+01 -4.946007E+02  1.424375E+03  2.156703E-09  3.815179E-09
       179  15 -2.636032E+05 -1.296807E+02 -8.616086E+02  1.049494E+04  3.353713E-09  3.673503E-09
       179  16 -1.386163E+05  3.112897E+04  3.002215E+04  1.072558E+04  2.005386E-09  3.456798E-09
       179  17 -1.177118E+05  3.627276E+04  3.485010E+04  1.647897E+03 -1.716194E-09 -3.682453E-09
       179  18 -9.693245E+04  4.128068E+04  3.948527E+04  1.071070E+04 -3.386605E-11  5.713815E-09
       179  19 -3.885741E+05 -3.102231E+04 -3.069654E+04  1.026359E+04  2.212617E+02 -3.180583E+03
       179  20 -4.093444E+05 -3.621009E+04 -3.584080E+04  1.200896E+03 -4.856647E+01 -3.980253E+03
       179  21 -4.302486E+05 -4.154206E+04 -4.121045E+04  1.027922E+04 -3.187764E+02 -4.725846E+03
       179  22 -2.636023E+05  5.390791E+01 -3.366242E+02  1.049457E+04 -1.354631E+02 -3.181331E+03
       179  23 -2.635378E+05  3.212369E+01 -4.945706E+02  1.424376E+03 -3.819906E+02 -3.980894E+03
       179  24 -2.636032E+05 -1.296566E+02 -8.615659E+02  1.049494E+04 -6.289084E+02 -4.726386E+03
       179  25 -1.386163E+05  3.112898E+04  3.002217E+04  1.072558E+04 -4.922597E+02 -3.182079E+03
       179  26 -1.177118E+05  3.627278E+04  3.485013E+04  1.647899E+03 -7.154928E+02 -3.981535E+03
       179  27 -9.693244E+04  4.128071E+04  3.948532E+04  1.071071E+04 -9.391234E+02 -4.726926E+03
       180   1 -4.639793E+05 -4.968794E+04 -4.968783E+04  9.966142E+03  3.341475E+02  5.270484E+03
       180   2 -4.842553E+05 -5.465379E+04 -5.531883E+04  1.287714E+03  1.501619E+03  6.063849E+03
       180   3 -5.051434E+05 -6.144157E+04 -6.216728E+04  1.051628E+04  2.670388E+03  6.283584E+03
       180   4 -2.637044E+05  1.066883E+02 -1.080170E+03  1.044183E+04  7.997307E+02  5.271274E+03
       180   5 -2.634206E+05  2.377330E+02 -1.791221E+03  1.489795E+03  1.719841E+03  6.064095E+03
       180   6 -2.637059E+05 -1.409774E+03 -3.547552E+03  1.044437E+04  2.641288E+03  6.283376E+03
       180   7 -6.339281E+04  4.989837E+04  4.752460E+04  1.091766E+04  1.265464E+03  5.272065E+03
       180   8 -4.254119E+04  5.512567E+04  5.173287E+04  1.691929E+03  1.938141E+03  6.064341E+03
       180   9 -2.221517E+04  5.861774E+04  5.506797E+04  1.037240E+04  2.612176E+03  6.283168E+03
       180  10 -4.639793E+05 -4.968797E+04 -4.968788E+04  9.966140E+03  1.331634E-11 -3.981086E-10
       180  11 -4.842553E+05 -5.465383E+04 -5.531890E+04  1.287706E+03 -5.630020E-09  6.469413E-09
       180  12 -5.051434E+05 -6.144161E+04 -6.216737E+04  1.051627E+04 -6.528976E-09 -1.779252E-09
       180  13 -2.637044E+05  1.066583E+02 -1.080223E+03  1.044183E+04 -9.329737E-10 -2.617452E-09
       180  14 -2.634206E+05  2.376927E+02 -1.791296E+03  1.489787E+03 -6.746418E-09  3.935352E-09
       180  15 -2.637059E+05 -1.409819E+03 -3.547639E+03  1.044435E+04 -4.797967E-09 -2.709627E-09
       180  16 -6.339282E+04  4.989834E+04  4.752454E+04  1.091766E+04 -2.705444E-09 -7.012451E-10
       180  17 -4.254120E+04  5.512563E+04  5.173280E+04  1.691920E+03  2.943775E-09 -1.278018E-08
       180  18 -2.221518E+04  5.861769E+04  5.506788E+04  1.037239E+04 -1.169041E-10 -5.304662E-11
       180  19 -4.639793E+05 -4.968794E+04 -4.968783E+04  9.966142E+03 -3.341475E+02 -5.270484E+03
       180  20 -4.842553E+05 -5.465379E+04 -5.531883E+04  1.287714E+03 -1.501619E+03 -6.063849E+03
       180  21 -5.051434E+05 -6.144157E+04 -6.216728E+04  1.051628E+04 -2.670388E+03 -6.283584E+03
       180  22 -2.637044E+05  1.066883E+02 -1.080170E+03  1.044183E+04 -7.997307E+02 -5.271274E+03
       180  23 -2.634206E+05  2.377330E+02 -1.791221E+03  1.489795E+03 -1.719841E+03 -6.064095E+03
       180  24 -2.637059E+05 -1.409774E+03 -3.547552E+03  1.044437E+04 -2.641288E+03 -6.283376E+03
       180  25 -6.339281E+04  4.989837E+04  4.752460E+04  1.091766E+04 -1.265464E+03 -5.272065E+03
       180  26 -4.254119E+04  5.512567E+04  5.173287E+04  1.691929E+03 -1.938141E+03 -6.064341E+03
       180  27 -2.221517E+04  5.861774E+04  5.506797E+04  1.037240E+04 -2.612176E+03 -6.283168E+03
       181   1 -5.391277E+05 -6.763069E+04 -7.084540E+04  8.523765E+03  1.593322E+03  7.672754E+03
       181   2 -5.569954E+05 -7.117887E+04 -7.815842E+04  2.283335E+03  8.067407E+03  8.473061E+03
       181   3 -5.796919E+05 -9.096786E+04 -9.373418E+04  1.351068E+04  1.454866E+04  2.856833E+03
       181   4 -2.645499E+05  6.201549E+02 -4.325263E+03  1.034001E+04  3.320730E+03  7.675161E+03
       181   5 -2.623784E+05  2.031246E+03 -6.849987E+03  1.613851E+03  7.026475E+03  8.471427E+03
       181   6 -2.645531E+05 -1.231352E+04 -1.571175E+04  1.035509E+04  1.073967E+04  2.852447E+03
       181   7  1.009691E+04  6.886548E+04  6.218946E+04  1.215704E+04  5.048900E+03  7.677578E+03
       181   8  3.231806E+04  7.523500E+04  6.445221E+04  9.440221E+02  5.985048E+03  8.469795E+03
       181   9  5.067596E+04  6.633342E+04  6.230335E+04  7.197864E+03  6.928732E+03  2.848102E+03
       181  10 -5.391277E+05 -6.763075E+04 -7.084552E+04  8.523755E+03 -5.616924E-09 -2.254075E-09
       181  11 -5.569955E+05 -7.117896E+04 -7.815868E+04  2.283280E+03 -2.097802E-10  1.025600E-09
       181  12 -5.796921E+05 -9.096792E+04 -9.373459E+04  1.351065E+04  2.627271E-09  5.721918E-09
       181  13 -2.645499E+05  6.200887E+02 -4.325394E+03  1.033999E+04 -5.657127E-09  1.494942E-09
       181  14 -2.623784E+05  2.031156E+03 -6.850215E+03  1.613803E+03 -2.157859E-09  5.347405E-09
       181  15 -2.645533E+05 -1.231356E+04 -1.571198E+04  1.035506E+04 -7.008439E-10  3.268990E-09
       181  16  1.009687E+04  6.886541E+04  6.218930E+04  1.215701E+04  6.348970E-10  3.835700E-09
       181  17  3.231800E+04  7.523492E+04  6.445201E+04  9.439813E+02 -2.229968E-09  3.889725E-09
       181  18  5.067590E+04  6.633340E+04  6.230324E+04  7.197848E+03 -8.373856E-10 -6.376645E-10
       181  19 -5.391277E+05 -6.763069E+04 -7.084540E+04  8.523765E+03 -1.593322E+03 -7.672754E+03
       181  20 -5.569954E+05 -7.117887E+04 -7.815842E+04  2.283335E+03 -8.067407E+03 -8.473061E+03
       181  21 -5.796919E+05 -9.096786E+04 -9.373418E+04  1.351068E+04 -1.454866E+04 -2.856833E+03
       181  22 -2.645499E+05  6.201549E+02 -4.325263E+03  1.034001E+04 -3.320730E+03 -7.675161E+03
       181  23 -2.623784E+05  2.031246E+03 -6.849987E+03  1.613851E+03 -7.026475E+03 -8.471427E+03
       181  24 -2.645531E+05 -1.231352E+04 -1.571175E+04  1.035509E+04 -1.073967E+04 -2.852447E+03
       181  25  1.009691E+04  6.886548E+04  6.218946E+04  1.215704E+04 -5.048900E+03 -7.677578E+03
       181  26  3.231806E+04  7.523500E+04  6.445221E+04  9.440221E+02 -5.985048E+03 -8.469795E+03
       181  27  5.067596E+04  6.633342E+04  6.230335E+04  7.197864E+03 -6.928732E+03 -2.848102E+03
       182   1 -2.992212E+05 -1.066976E+06 -2.961544E+05  2.342414E+05 -1.193824E+04 -8.602694E+04
       182   2 -1.944097E+05 -8.107353E+05 -1.852571E+05  1.849365E+05 -3.554084E+04 -3.754533E+04
       182   3 -1.273198E+05 -5.698784E+05 -1.153566E+05  2.043553E+05 -3.157729E+04  1.099577E+04
       182   4 -4.391488E+04 -3.831639E+04 -4.932953E+04  2.086048E+05 -1.198730E+04 -3.594145E+04
       182   5 -6.266239E+03 -3.375695E+04 -2.203498E+04  1.742646E+05 -3.554895E+04 -2.443749E+04
       182   6  1.164864E+02 -3.819352E+04 -1.001148E+04  2.086494E+05 -3.155778E+04 -1.289522E+04
       182   7  2.113183E+05  9.913197E+05  1.974301E+05  1.829257E+05 -1.204048E+04  1.422684E+04
       182   8  1.818389E+05  7.437929E+05  1.411541E+05  1.635790E+05 -3.555751E+04 -1.131348E+04
       182   9  1.275360E+05  4.937631E+05  9.532178E+04  2.129472E+05 -3.153861E+04 -3.680625E+04
       182  10 -2.992234E+05 -1.066984E+06 -2.961686E+05  2.342406E+05 -6.157005E-10 -3.275541E-10
       182  11 -1.944114E+05 -8.107371E+05 -1.852622E+05  1.849355E+05 -4.110885E-10 -3.009616E-09
       182  12 -1.273209E+05 -5.698787E+05 -1.153587E+05  2.043556E+05 -8.257550E-10 -5.777758E-09
       182  13 -4.391538E+04 -3.831782E+04 -4.933223E+04  2.086045E+05  4.263879E-09  3.083832E-09
       182  14 -6.267756E+03 -3.375794E+04 -2.203847E+04  1.742639E+05  9.963025E-09  1.332712E-09
       182  15  1.153725E+02 -3.819397E+04 -1.001367E+04  2.086490E+05  4.667434E-09  4.427287E-10
       182  16  2.113181E+05  9.913194E+05  1.974294E+05  1.829258E+05  1.537930E-09  5.728915E-09
       182  17  1.818375E+05  7.437924E+05  1.411515E+05  1.635787E+05 -1.931063E-09  7.316070E-09
       182  18  1.275345E+05  4.937614E+05  9.531737E+04  2.129462E+05 -3.175839E-09  4.913465E-09
       182  19 -2.992212E+05 -1.066976E+06 -2.961544E+05  2.342414E+05  1.193824E+04  8.602694E+04
       182  20 -1.944097E+05 -8.107353E+05 -1.852571E+05  1.849365E+05  3.554084E+04  3.754533E+04
       182  21 -1.273198E+05 -5.698784E+05 -1.153566E+05  2.043553E+05  3.157729E+04 -1.099577E+04
       182  22 -4.391488E+04 -3.831639E+04 -4.932953E+04  2.086048E+05  1.198730E+04  3.594145E+04
       182  23 -6.266239E+03 -3.375695E+04 -2.203498E+04  1.742646E+05  3.554895E+04  2.443749E+04
       182  24  1.164864E+02 -3.819352E+04 -1.001148E+04  2.086494E+05  3.155778E+04  1.289522E+04
       182  25  2.113183E+05  9.913197E+05  1.974301E+05  1.829257E+05  1.204048E+04 -1.422684E+04
       182  26  1.818389E+05  7.437929E+05  1.411541E+05  1.635790E+05  3.555751E+04  1.131348E+04
       182  27  1.275360E+05  4.937631E+05  9.532178E+04  2.129472E+05  3.153861E+04  3.680625E+04
       183   1 -8.816803E+04 -3.950261E+05 -7.708963E+04  2.092313E+05 -2.121815E+04  6.809686E+03
       183   2 -2.661594E+04 -1.467632E+05 -1.919356E+04  1.741180E+05 -7.194457E+03  6.230812E+03
       183   3  3.523215E+04  1.018962E+05  3.919156E+04  2.092619E+05  7.182375E+03  5.650580E+03
       183   4 -2.117837E+03 -3.606989E+04 -5.888878E+03  2.089793E+05 -2.120485E+04 -1.179614E+04
       183   5 -2.480312E+02 -3.627202E+04  2.140975E+03  1.738524E+05 -7.181661E+03 -1.285164E+04
       183   6  2.004638E+03 -3.605207E+04  1.099417E+04  2.089819E+05  7.194460E+03 -1.390827E+04
       183   7  8.392468E+04  3.230104E+05  6.530680E+04  2.087271E+05 -2.119153E+04 -3.041251E+04
       183   8  2.611935E+04  7.423170E+04  2.347631E+04  1.735868E+05 -7.168849E+03 -3.193741E+04
       183   9 -3.122386E+04 -1.739814E+05 -1.720279E+04  2.087020E+05  7.206564E+03 -3.346286E+04
       183  10 -8.816852E+04 -3.950263E+05 -7.709057E+04  2.092314E+05 -6.020143E-09  3.486483E-08
       183  11 -2.661601E+04 -1.467633E+05 -1.919373E+04  1.741181E+05 -1.074341E-08  1.072824E-08
       183  12  3.523208E+04  1.018961E+05  3.919141E+04  2.092618E+05 -8.066361E-09 -1.547569E-08
       183  13 -2.118357E+03 -3.607016E+04 -5.889984E+03  2.089791E+05  1.026061E-08  2.194150E-09
       183  14 -2.481308E+02 -3.627221E+04  2.140568E+03  1.738524E+05  1.221168E-09  2.969535E-09
       183  15  2.004531E+03 -3.605229E+04  1.099371E+04  2.089820E+05 -2.290933E-09  4.687966E-10
       183  16  8.392395E+04  3.230093E+05  6.530422E+04  2.087266E+05 -4.936205E-10 -3.052846E-08
       183  17  2.611902E+04  7.423059E+04  2.347430E+04  1.735866E+05  3.804936E-09 -8.722693E-09
       183  18 -3.122422E+04 -1.739826E+05 -1.720499E+04  2.087022E+05 -8.391154E-10  1.439679E-08
       183  19 -8.816803E+04 -3.950261E+05 -7.708963E+04  2.092313E+05  2.121815E+04 -6.809686E+03
       183  20 -2.661594E+04 -1.467632E+05 -1.919356E+04  1.741180E+05  7.194457E+03 -6.230812E+03
       183  21  3.523215E+04  1.018962E+05  3.919156E+04  2.092619E+05 -7.182375E+03 -5.650580E+03
       183  22 -2.117837E+03 -3.606989E+04 -5.888878E+03  2.089793E+05  2.120485E+04  1.179614E+04
       183  23 -2.480312E+02 -3.627202E+04  2.140975E+03  1.738524E+05  7.181661E+03  1.285164E+04
       183  24  2.004638E+03 -3.605207E+04  1.099417E+04  2.089819E+05 -7.194460E+03  1.390827E+04
       183  25  8.392468E+04  3.230104E+05  6.530680E+04  2.087271E+05  2.119153E+04  3.041251E+04
       183  26  2.611935E+04  7.423170E+04  2.347631E+04  1.735868E+05  7.168849E+03  3.193741E+04
       183  27 -3.122386E+04 -1.739814E+05 -1.720279E+04  2.087020E+05 -7.206564E+03  3.346286E+04
       184   1  7.350340E+04  2.773326E+05  7.828199E+04  2.022276E+05  1.748696E+04  7.808389E+03
       184   2  1.425281E+05  5.169097E+05  1.494987E+05  1.878681E+05  2.411076E+04 -3.822235E+04
       184   3  2.598486E+05  7.748489E+05  2.627881E+05  2.426453E+05  8.705271E+03 -8.429812E+04
       184   4 -1.076251E+03 -3.323120E+04  1.595610E+04  2.087196E+05  1.750292E+04 -1.585844E+04
       184   5  7.618189E+03 -3.986732E+04  3.142489E+04  1.741806E+05  2.410850E+04 -3.225334E+04
       184   6  5.949402E+04 -3.331742E+04  6.841155E+04  2.087743E+05  8.678804E+03 -4.867448E+04
       184   7 -7.566138E+04 -3.437017E+05 -4.637258E+04  2.152082E+05  1.751840E+04 -3.951367E+04
       184   8 -1.273111E+05 -5.963517E+05 -8.666636E+04  1.605057E+05  2.410599E+04 -2.628960E+04
       184   9 -1.409031E+05 -8.408812E+05 -1.260061E+05  1.749476E+05  8.648444E+03 -1.309696E+04
       184  10  7.350305E+04  2.773325E+05  7.828130E+04  2.022274E+05  7.473922E-10  6.319388E-09
       184  11  1.425271E+05  5.169079E+05  1.494949E+05  1.878688E+05 -1.434292E-09  4.858681E-09
       184  12  2.598466E+05  7.748412E+05  2.627746E+05  2.426459E+05 -9.079385E-10  1.352191E-09
       184  13 -1.076647E+03 -3.323155E+04  1.595505E+04  2.087198E+05 -4.313248E-09  2.153071E-09
       184  14  7.617286E+03 -3.986859E+04  3.142184E+04  1.741813E+05  2.826305E-11  1.758326E-09
       184  15  5.949330E+04 -3.331998E+04  6.840695E+04  2.087747E+05  1.431234E-09  1.948522E-09
       184  16 -7.566213E+04 -3.437035E+05 -4.637609E+04  2.152088E+05 -3.221283E-10 -3.092967E-09
       184  17 -1.273119E+05 -5.963526E+05 -8.666875E+04  1.605062E+05 -3.301879E-09 -6.395124E-10
       184  18 -1.409032E+05 -8.408814E+05 -1.260066E+05  1.749477E+05 -1.690210E-09 -2.552103E-09
       184  19  7.350340E+04  2.773326E+05  7.828199E+04  2.022276E+05 -1.748696E+04 -7.808389E+03
       184  20  1.425281E+05  5.169097E+05  1.494987E+05  1.878681E+05 -2.411076E+04  3.822235E+04
       184  21  2.598486E+05  7.748489E+05  2.627881E+05  2.426453E+05 -8.705271E+03  8.429812E+04
       184  22 -1.076251E+03 -3.323120E+04  1.595610E+04  2.087196E+05 -1.750292E+04  1.585844E+04
       184  23  7.618189E+03 -3.986732E+04  3.142489E+04  1.741806E+05 -2.410850E+04  3.225334E+04
       184  24  5.949402E+04 -3.331742E+04  6.841155E+04  2.087743E+05 -8.678804E+03  4.867448E+04
       184  25 -7.566138E+04 -3.437017E+05 -4.637258E+04  2.152082E+05 -1.751840E+04  3.951367E+04
       184  26 -1.273111E+05 -5.963517E+05 -8.666636E+04  1.605057E+05 -2.410599E+04  2.628960E+04
       184  27 -1.409031E+05 -8.408812E+05 -1.260061E+05  1.749476E+05 -8.648444E+03  1.309696E+04
       185   1  6.989453E+05  2.418862E+05  1.361118E+05  2.591828E+05  5.716999E+04  1.731325E+04
       185   2  6.789282E+05  1.670161E+05  8.570256E+04  2.531845E+05  3.686074E+04  4.539252E+02
       185   3  6.753698E+05  1.474852E+05  6.629272E+04  2.408955E+05  1.383341E+04 -9.186216E+03
       185   4  4.650575E+05  1.274579E+05  6.910280E+04  1.681127E+05  4.560777E+04  1.295407E+04
       185   5  4.537423E+05  7.373539E+04  3.034668E+04  1.813452E+05  3.244827E+04 -1.209864E+03
       185   6  4.574771E+05  7.394657E+04  1.693523E+04  1.882851E+05  1.656932E+04 -8.155260E+03
       185   7  2.312292E+05  1.304714E+04  2.090466E+03  7.707906E+04  3.405052E+04  8.597998E+03
       185   8  2.286083E+05 -1.953771E+04 -2.501264E+04  1.095312E+05  2.803756E+04 -2.872822E+03
       185   9  2.396298E+05  4.088647E+02 -3.242577E+04  1.356902E+05  1.930421E+04 -7.124609E+03
       185  10  6.989417E+05  2.418850E+05  1.361052E+05  2.591820E+05  1.822166E-10  2.861820E-09
       185  11  6.789268E+05  1.670157E+05  8.570000E+04  2.531845E+05 -1.069873E-09  5.986453E-09
       185  12  6.753695E+05  1.474851E+05  6.629220E+04  2.408956E+05 -4.257101E-09 -3.422923E-09
       185  13  4.650552E+05  1.274571E+05  6.909858E+04  1.681123E+05  4.656196E-10 -2.922910E-09
       185  14  4.537412E+05  7.373511E+04  3.034470E+04  1.813452E+05 -7.374328E-09  2.952391E-09
       185  15  4.574767E+05  7.394643E+04  1.693459E+04  1.882852E+05 -4.406970E-09 -1.715515E-09
       185  16  2.312279E+05  1.304675E+04  2.088149E+03  7.707883E+04  2.878753E-09 -2.979913E-10
       185  17  2.286074E+05 -1.953793E+04 -2.501413E+04  1.095312E+05  2.071877E-09 -4.415200E-09
       185  18  2.396294E+05  4.087101E+02 -3.242657E+04  1.356903E+05  4.204820E-09  3.334664E-09
       185  19  6.989453E+05  2.418862E+05  1.361118E+05  2.591828E+05 -5.716999E+04 -1.731325E+04
       185  20  6.789282E+05  1.670161E+05  8.570256E+04  2.531845E+05 -3.686074E+04 -4.539252E+02
       185  21  6.753698E+05  1.474852E+05  6.629272E+04  2.408955E+05 -1.383341E+04  9.186216E+03
       185  22  4.650575E+05  1.274579E+05  6.910280E+04  1.681127E+05 -4.560777E+04 -1.295407E+04
       185  23  4.537423E+05  7.373539E+04  3.034668E+04  1.813452E+05 -3.244827E+04  1.209864E+03
       185  24  4.574771E+05  7.394657E+04  1.693523E+04  1.882851E+05 -1.656932E+04  8.155260E+03
       185  25  2.312292E+05  1.304714E+04  2.090466E+03  7.707906E+04 -3.405052E+04 -8.597998E+03
       185  26  2.286083E+05 -1.953771E+04 -2.501264E+04  1.095312E+05 -2.803756E+04  2.872822E+03
       185  27  2.396298E+05  4.088647E+02 -3.242577E+04  1.356902E+05 -1.930421E+04  7.124609E+03
       186   1  6.513347E+05  1.521263E+05  5.924917E+04  2.405460E+05  1.329852E+04 -7.905027E+03
       186   2  6.337658E+05  1.387836E+05  4.799379E+04  2.320710E+05  9.151491E+03 -8.491999E+03
       186   3  6.121224E+05  1.336425E+05  4.029018E+04  2.294018E+05  4.880962E+03 -8.751622E+03
       186   4  4.552875E+05  7.838745E+04  1.330188E+04  1.854644E+05  1.398045E+04 -7.648319E+03
       186   5  4.571710E+05  7.299844E+04  6.921043E+03  1.830600E+05  1.015846E+04 -8.112623E+03
       186   6  4.549157E+05  7.574719E+04  3.835368E+03  1.864614E+05  6.212833E+03 -8.249587E+03
       186   7  2.592787E+05  4.651702E+03 -3.264807E+04  1.303987E+05  1.466213E+04 -7.391702E+03
       186   8  2.806079E+05  7.215877E+03 -3.415369E+04  1.340620E+05  1.116511E+04 -7.733366E+03
       186   9  2.977345E+05  1.785398E+04 -3.262087E+04  1.435311E+05  7.544331E+03 -7.747689E+03
       186  10  6.513345E+05  1.521262E+05  5.924872E+04  2.405461E+05 -9.216268E-10 -3.092922E-10
       186  11  6.337657E+05  1.387835E+05  4.799350E+04  2.320710E+05 -8.644686E-09  1.824363E-09
       186  12  6.121223E+05  1.336424E+05  4.028999E+04  2.294018E+05 -1.767263E-09  4.101068E-09
       186  13  4.552873E+05  7.838733E+04  1.330141E+04  1.854645E+05  5.966786E-09  3.163040E-09
       186  14  4.571709E+05  7.299834E+04  6.920725E+03  1.830601E+05  3.592738E-09 -1.292392E-08
       186  15  4.549156E+05  7.574710E+04  3.835167E+03  1.864614E+05  5.819624E-09 -7.756171E-10
       186  16  2.592784E+05  4.651585E+03 -3.264857E+04  1.303988E+05  3.290487E-10  2.234152E-09
       186  17  2.806077E+05  7.215780E+03 -3.415404E+04  1.340621E+05  6.126356E-09  8.007365E-10
       186  18  2.977345E+05  1.785390E+04 -3.262109E+04  1.435312E+05  3.366021E-09  2.026296E-10
       186  19  6.513347E+05  1.521263E+05  5.924917E+04  2.405460E+05 -1.329852E+04  7.905027E+03
       186  20  6.337658E+05  1.387836E+05  4.799379E+04  2.320710E+05 -9.151491E+03  8.491999E+03
       186  21  6.121224E+05  1.336425E+05  4.029018E+04  2.294018E+05 -4.880962E+03  8.751622E+03
       186  22  4.552875E+05  7.838745E+04  1.330188E+04  1.854644E+05 -1.398045E+04  7.648319E+03
       186  23  4.571710E+05  7.299844E+04  6.921043E+03  1.830600E+05 -1.015846E+04  8.112623E+03
       186  24  4.549157E+05  7.574719E+04  3.835368E+03  1.864614E+05 -6.212833E+03  8.249587E+03
       186  25  2.592787E+05  4.651702E+03 -3.264807E+04  1.303987E+05 -1.466213E+04  7.391702E+03
       186  26  2.806079E+05  7.215877E+03 -3.415369E+04  1.340620E+05 -1.116511E+04  7.733366E+03
       186  27  2.977345E+05  1.785398E+04 -3.262087E+04  1.435311E+05 -7.544331E+03  7.747689E+03
       187   1  5.960903E+05  1.283746E+05  3.564195E+04  2.253043E+05  4.145887E+03 -8.150931E+03
       187   2  5.789590E+05  1.181372E+05  2.979231E+04  2.166997E+05  2.859393E+03 -7.201718E+03
       187   3  5.564500E+05  1.135905E+05  2.458482E+04  2.143973E+05  1.567760E+03 -6.239424E+03
       187   4  4.547478E+05  7.595223E+04  2.909687E+03  1.862899E+05  5.381794E+03 -7.685006E+03
       187   5  4.574313E+05  7.305623E+04  1.602075E+03  1.831586E+05  4.108449E+03 -6.730725E+03
       187   6  4.547345E+05  7.584852E+04  9.264198E+02  1.863296E+05  2.829940E+03 -5.763373E+03
       187   7  3.134244E+05  2.353104E+04 -2.982416E+04  1.472833E+05  6.617403E+03 -7.219192E+03
       187   8  3.359180E+05  2.797620E+04 -2.658927E+04  1.496234E+05  5.357244E+03 -6.259832E+03
       187   9  3.530294E+05  3.810726E+04 -2.273269E+04  1.582661E+05  4.091895E+03 -5.287408E+03
       187  10  5.960902E+05  1.283745E+05  3.564179E+04  2.253043E+05  3.722540E-12  1.524706E-09
       187  11  5.789590E+05  1.181372E+05  2.979220E+04  2.166997E+05  7.170500E-09 -1.266359E-09
       187  12  5.564500E+05  1.135905E+05  2.458474E+04  2.143973E+05 -9.197771E-10 -5.491475E-09
       187  13  4.547477E+05  7.595216E+04  2.909521E+03  1.862899E+05  3.700588E-09  1.304970E-10
       187  14  4.574313E+05  7.305618E+04  1.601958E+03  1.831586E+05  4.445630E-09 -4.304293E-09
       187  15  4.547345E+05  7.584848E+04  9.263423E+02  1.863297E+05 -5.986630E-09  5.362254E-10
       187  16  3.134244E+05  2.353097E+04 -2.982434E+04  1.472833E+05 -2.521900E-10 -4.731561E-09
       187  17  3.359179E+05  2.797615E+04 -2.658939E+04  1.496234E+05  2.743529E-09  8.137355E-11
       187  18  3.530293E+05  3.810722E+04 -2.273277E+04  1.582662E+05  5.044948E-09  8.184335E-10
       187  19  5.960903E+05  1.283746E+05  3.564195E+04  2.253043E+05 -4.145887E+03  8.150931E+03
       187  20  5.789590E+05  1.181372E+05  2.979231E+04  2.166997E+05 -2.859393E+03  7.201718E+03
       187  21  5.564500E+05  1.135905E+05  2.458482E+04  2.143973E+05 -1.567760E+03  6.239424E+03
       187  22  4.547478E+05  7.595223E+04  2.909687E+03  1.862899E+05 -5.381794E+03  7.685006E+03
       187  23  4.574313E+05  7.305623E+04  1.602075E+03  1.831586E+05 -4.108449E+03  6.730725E+03
       187  24  4.547345E+05  7.584852E+04  9.264198E+02  1.863296E+05 -2.829940E+03  5.763373E+03
       187  25  3.134244E+05  2.353104E+04 -2.982416E+04  1.472833E+05 -6.617403E+03  7.219192E+03
       187  26  3.359180E+05  2.797620E+04 -2.658927E+04  1.496234E+05 -5.357244E+03  6.259832E+03
       187  27  3.530294E+05  3.810726E+04 -2.273269E+04  1.582661E+05 -4.091895E+03  5.287408E+03
       188   1  5.409509E+05  1.078463E+05  2.066829E+04  2.101351E+05  1.156546E+03 -5.547781E+03
       188   2  5.239427E+05  9.776923E+04  1.592775E+04  2.015411E+05  4.274406E+02 -4.372424E+03
       188   3  5.014500E+05  9.322654E+04  1.137543E+04  1.992337E+05 -3.016074E+02 -3.197479E+03
       188   4  4.547172E+05  7.585147E+04  7.302973E+02  1.863124E+05  2.413095E+03 -5.073806E+03
       188   5  4.574602E+05  7.308464E+04  5.033418E+02  1.831692E+05  1.683614E+03 -3.898536E+03
       188   6  4.547183E+05  7.585235E+04  4.649201E+02  1.863125E+05  9.541775E+02 -2.723676E+03
       188   7  3.684913E+05  4.385736E+04 -1.920806E+04  1.624928E+05  3.669447E+03 -4.599905E+03
       188   8  3.909821E+05  4.840038E+04 -1.492136E+04  1.647991E+05  2.939640E+03 -3.424703E+03
       188   9  4.079886E+05  5.847822E+04 -1.044580E+04  1.733922E+05  2.209867E+03 -2.249909E+03
       188  10  5.409509E+05  1.078463E+05  2.066823E+04  2.101351E+05 -3.680073E-09 -1.570111E-09
       188  11  5.239427E+05  9.776921E+04  1.592771E+04  2.015411E+05  1.188196E-09  5.171008E-09
       188  12  5.014500E+05  9.322653E+04  1.137541E+04  1.992337E+05  8.713908E-09 -2.524824E-09
       188  13  4.547171E+05  7.585144E+04  7.302379E+02  1.863124E+05 -8.717640E-09 -9.453071E-10
       188  14  4.574602E+05  7.308462E+04  5.033079E+02  1.831692E+05 -8.441290E-09  8.957384E-09
       188  15  4.547183E+05  7.585234E+04  4.649044E+02  1.863125E+05 -6.085046E-09 -6.884878E-09
       188  16  3.684913E+05  4.385733E+04 -1.920813E+04  1.624928E+05 -1.120175E-09  3.826104E-09
       188  17  3.909821E+05  4.840037E+04 -1.492140E+04  1.647991E+05 -6.895603E-09 -1.204926E-09
       188  18  4.079886E+05  5.847821E+04 -1.044582E+04  1.733922E+05 -6.493732E-09  2.447807E-09
       188  19  5.409509E+05  1.078463E+05  2.066829E+04  2.101351E+05 -1.156546E+03  5.547781E+03
       188  20  5.239427E+05  9.776923E+04  1.592775E+04  2.015411E+05 -4.274406E+02  4.372424E+03
       188  21  5.014500E+05  9.322654E+04  1.137543E+04  1.992337E+05  3.016074E+02  3.197479E+03
       188  22  4.547172E+05  7.585147E+04  7.302973E+02  1.863124E+05 -2.413095E+03  5.073806E+03
       188  23  4.574602E+05  7.308464E+04  5.033418E+02  1.831692E+05 -1.683614E+03  3.898536E+03
       188  24  4.547183E+05  7.585235E+04  4.649201E+02  1.863125E+05 -9.541775E+02  2.723676E+03
       188  25  3.684913E+05  4.385736E+04 -1.920806E+04  1.624928E+05 -3.669447E+03  4.599905E+03
       188  26  3.909821E+05  4.840038E+04 -1.492136E+04  1.647991E+05 -2.939640E+03  3.424703E+03
       188  27  4.079886E+05  5.847822E+04 -1.044580E+04  1.733922E+05 -2.209867E+03  2.249909E+03
       189   1  4.860276E+05  8.747677E+04  7.704119E+03  1.949810E+05 -6.604348E+02 -2.489302E+03
       189   2  4.690345E+05  7.741317E+04  3.423544E+03  1.864016E+05 -1.502642E+03 -1.358348E+03
       189   3  4.465809E+05  7.288376E+04 -5.830987E+02  1.841028E+05 -2.344605E+03 -2.279878E+02
       189   4  4.547237E+05  7.585127E+04  5.057854E+02  1.863116E+05  5.946533E+02 -2.015740E+03
       189   5  4.574542E+05  7.308422E+04  7.319147E+02  1.831714E+05 -2.481697E+02 -8.850101E+02
       189   6  4.547238E+05  7.585139E+04  1.232438E+03  1.863116E+05 -1.090760E+03  2.451210E+02
       189   7  4.234208E+05  6.422585E+04 -6.692605E+03  1.776427E+05  1.849672E+03 -1.542204E+03
       189   8  4.458741E+05  6.875530E+04 -1.959707E+03  1.799414E+05  1.006273E+03 -4.116835E+02
       189   9  4.628668E+05  7.881902E+04  3.047963E+03  1.885205E+05  1.630957E+02  7.182336E+02
       189  10  4.860276E+05  8.747676E+04  7.704106E+03  1.949810E+05  2.293422E-09 -5.505831E-09
       189  11  4.690344E+05  7.741317E+04  3.423536E+03  1.864016E+05  1.275809E-10 -2.784426E-09
       189  12  4.465809E+05  7.288375E+04 -5.831092E+02  1.841028E+05  3.376444E-09  3.264785E-09
       189  13  4.547237E+05  7.585126E+04  5.057771E+02  1.863116E+05 -6.098777E-09  4.805423E-09
       189  14  4.574542E+05  7.308422E+04  7.319131E+02  1.831714E+05  7.900372E-10  1.730903E-10
       189  15  4.547238E+05  7.585139E+04  1.232435E+03  1.863116E+05  1.091648E-08 -1.333373E-09
       189  16  4.234208E+05  6.422584E+04 -6.692616E+03  1.776427E+05 -1.120215E-09 -8.779554E-10
       189  17  4.458741E+05  6.875530E+04 -1.959709E+03  1.799414E+05  3.220068E-09 -4.463541E-09
       189  18  4.628668E+05  7.881902E+04  3.047962E+03  1.885205E+05  4.706284E-09 -5.857654E-09
       189  19  4.860276E+05  8.747677E+04  7.704119E+03  1.949810E+05  6.604348E+02  2.489302E+03
       189  20  4.690345E+05  7.741317E+04  3.423544E+03  1.864016E+05  1.502642E+03  1.358348E+03
       189  21  4.465809E+05  7.288376E+04 -5.830987E+02  1.841028E+05  2.344605E+03  2.279878E+02
       189  22  4.547237E+05  7.585127E+04  5.057854E+02  1.863116E+05 -5.946533E+02  2.015740E+03
       189  23  4.574542E+05  7.308422E+04  7.319147E+02  1.831714E+05  2.481697E+02  8.850101E+02
       189  24  4.547238E+05  7.585139E+04  1.232438E+03  1.863116E+05  1.090760E+03 -2.451210E+02
       189  25  4.234208E+05  6.422585E+04 -6.692605E+03  1.776427E+05 -1.849672E+03  1.542204E+03
       189  26  4.458741E+05  6.875530E+04 -1.959707E+03  1.799414E+05 -1.006273E+03  4.116835E+02
       189  27  4.628668E+05  7.881902E+04  3.047963E+03  1.885205E+05 -1.630957E+02 -7.182336E+02
       190   1  4.311689E+05  6.715345E+04 -3.909354E+03  1.799082E+05 -2.862499E+03  4.207033E+02
       190   2  4.140761E+05  5.704838E+04 -7.147899E+03  1.712820E+05 -4.773158E+03  1.145631E+03
       190   3  3.917466E+05  5.272781E+04 -9.255142E+03  1.689297E+05 -6.679987E+03  1.860706E+03
       190   4  4.547643E+05  7.584020E+04  1.617306E+03  1.863355E+05 -1.605480E+03  8.950017E+02
       190   5  4.573952E+05  7.304512E+04  2.890293E+03  1.831613E+05 -3.526022E+03  1.616166E+03
       190   6  4.547913E+05  7.603661E+04  5.302463E+03  1.862609E+05 -5.442780E+03  2.327459E+03
       190   7  4.783604E+05  8.452704E+04  7.143973E+03  1.927630E+05 -3.484013E+02  1.369322E+03
       190   8  5.007163E+05  8.904205E+04  1.292840E+04  1.950413E+05 -2.278789E+03  2.086736E+03
       190   9  5.178400E+05  9.934570E+04  1.985981E+04  2.035937E+05 -4.205437E+03  2.794263E+03
       190  10  4.311689E+05  6.715345E+04 -3.909369E+03  1.799082E+05  2.286153E-09  6.116084E-09
       190  11  4.140761E+05  5.704837E+04 -7.147944E+03  1.712820E+05 -2.151262E-09  4.688109E-09
       190  12  3.917465E+05  5.272780E+04 -9.255232E+03  1.689297E+05  6.671761E-10  6.117728E-09
       190  13  4.547643E+05  7.584020E+04  1.617300E+03  1.863355E+05  3.749685E-09  1.605821E-09
       190  14  4.573952E+05  7.304512E+04  2.890265E+03  1.831613E+05 -1.366278E-10  1.684400E-09
       190  15  4.547912E+05  7.603660E+04  5.302397E+03  1.862609E+05 -1.938263E-09 -3.562569E-10
       190  16  4.783604E+05  8.452704E+04  7.143969E+03  1.927630E+05  2.757978E-09  2.158130E-09
       190  17  5.007163E+05  8.904205E+04  1.292838E+04  1.950413E+05 -4.341177E-09 -1.113532E-08
       190  18  5.178399E+05  9.934569E+04  1.985976E+04  2.035937E+05 -3.209702E-09 -5.003537E-09
       190  19  4.311689E+05  6.715345E+04 -3.909354E+03  1.799082E+05  2.862499E+03 -4.207033E+02
       190  20  4.140761E+05  5.704838E+04 -7.147899E+03  1.712820E+05  4.773158E+03 -1.145631E+03
       190  21  3.917466E+05  5.272781E+04 -9.255142E+03  1.689297E+05  6.679987E+03 -1.860706E+03
       190  22  4.547643E+05  7.584020E+04  1.617306E+03  1.863355E+05  1.605480E+03 -8.950017E+02
       190  23  4.573952E+05  7.304512E+04  2.890293E+03  1.831613E+05  3.526022E+03 -1.616166E+03
       190  24  4.547913E+05  7.603661E+04  5.302463E+03  1.862609E+05  5.442780E+03 -2.327459E+03
       190  25  4.783604E+05  8.452704E+04  7.143973E+03  1.927630E+05  3.484013E+02 -1.369322E+03
       190  26  5.007163E+05  8.904205E+04  1.292840E+04  1.950413E+05  2.278789E+03 -2.086736E+03
       190  27  5.178400E+05  9.934570E+04  1.985981E+04  2.035937E+05  4.205437E+03 -2.794263E+03
       191   1  3.760345E+05  4.717002E+04 -1.126033E+04  1.656352E+05 -8.018852E+03  2.220059E+03
       191   2  3.590250E+05  3.619928E+04 -1.016943E+04  1.555317E+05 -1.464810E+04  1.094535E+03
       191   3  3.390312E+05  3.543211E+04 -3.231136E+03  1.507632E+05 -2.119103E+04 -2.588721E+02
       191   4  4.551059E+05  7.565718E+04  7.002756E+03  1.865692E+05 -6.715449E+03  2.711758E+03
       191   5  4.569183E+05  7.295370E+04  1.266025E+04  1.829879E+05 -1.357126E+04  1.500658E+03
       191   6  4.557906E+05  8.049786E+04  2.434380E+04  1.847413E+05 -2.034099E+04  6.157715E+01
       191   7  5.341830E+05  1.041445E+05  2.526531E+04  2.075055E+05 -5.411873E+03  3.203517E+03
       191   8  5.548213E+05  1.097089E+05  3.548927E+04  2.104481E+05 -1.249423E+04  1.906852E+03
       191   9  5.725642E+05  1.255652E+05  5.191796E+04  2.187255E+05 -1.949077E+04  3.820996E+02
       191  10  3.760344E+05  4.716999E+04 -1.126046E+04  1.656352E+05  3.395678E-09  7.546903E-09
       191  11  3.590247E+05  3.619922E+04 -1.016984E+04  1.555317E+05 -4.746477E-09  1.579368E-09
       191  12  3.390307E+05  3.543199E+04 -3.231979E+03  1.507632E+05 -3.273682E-09  3.971898E-09
       191  13  4.551058E+05  7.565716E+04  7.002657E+03  1.865692E+05 -3.794797E-09 -4.745093E-09
       191  14  4.569181E+05  7.295365E+04  1.265990E+04  1.829879E+05  6.390336E-09  5.288739E-09
       191  15  4.557901E+05  8.049774E+04  2.434302E+04  1.847413E+05  7.541632E-09  5.132554E-09
       191  16  5.341830E+05  1.041445E+05  2.526523E+04  2.075055E+05 -7.238765E-09 -4.568237E-09
       191  17  5.548211E+05  1.097089E+05  3.548897E+04  2.104481E+05 -5.854902E-09 -1.825591E-09
       191  18  5.725638E+05  1.255651E+05  5.191724E+04  2.187255E+05  6.700528E-09  2.140990E-09
       191  19  3.760345E+05  4.717002E+04 -1.126033E+04  1.656352E+05  8.018852E+03 -2.220059E+03
       191  20  3.590250E+05  3.619928E+04 -1.016943E+04  1.555317E+05  1.464810E+04 -1.094535E+03
       191  21  3.390312E+05  3.543211E+04 -3.231136E+03  1.507632E+05  2.119103E+04  2.588721E+02
       191  22  4.551059E+05  7.565718E+04  7.002756E+03  1.865692E+05  6.715449E+03 -2.711758E+03
       191  23  4.569183E+05  7.295370E+04  1.266025E+04  1.829879E+05  1.357126E+04 -1.500658E+03
       191  24  4.557906E+05  8.049786E+04  2.434380E+04  1.847413E+05  2.034099E+04 -6.157715E+01
       191  25  5.341830E+05  1.041445E+05  2.526531E+04  2.075055E+05  5.411873E+03 -3.203517E+03
       191  26  5.548213E+05  1.097089E+05  3.548927E+04  2.104481E+05  1.249423E+04 -1.906852E+03
       191  27  5.725642E+05  1.255652E+05  5.191796E+04  2.187255E+05  1.949077E+04 -3.820996E+02
       192   1  3.163343E+05  3.260819E+04 -6.502450E+01  1.641958E+05 -2.688419E+04 -1.122534E+03
       192   2  3.102441E+05  4.594066E+03  1.896669E+04  1.231860E+05 -5.148227E+04 -1.062946E+04
       192   3  3.351309E+05  6.989641E+04  8.045527E+04  6.561228E+04 -7.418851E+04 -2.515081E+04
       192   4  4.597434E+05  7.242525E+04  3.099542E+04  1.899633E+05 -2.460734E+04 -2.632788E+02
       192   5  4.507188E+05  7.424761E+04  5.555125E+04  1.797750E+05 -5.417475E+04 -1.164671E+04
       192   6  4.736431E+05  1.703522E+05  1.264930E+05  1.530258E+05 -8.185040E+04 -2.804689E+04
       192   7  6.031737E+05  1.122422E+05  6.205491E+04  2.157353E+05 -2.232991E+04  5.960715E+02
       192   8  5.912128E+05  1.439069E+05  9.213393E+04  2.363766E+05 -5.686786E+04 -1.266437E+04
       192   9  6.121771E+05  2.708286E+05  1.725289E+05  2.404601E+05 -8.951398E+04 -3.094509E+04
       192  10  3.163335E+05  3.260800E+04 -6.638437E+01  1.641958E+05  1.112202E-08  9.642433E-09
       192  11  3.102412E+05  4.593234E+03  1.896150E+04  1.231856E+05  4.379946E-09 -1.331177E-09
       192  12  3.351248E+05  6.989426E+04  8.044374E+04  6.561077E+04 -6.938265E-10  5.017163E-10
       192  13  4.597428E+05  7.242509E+04  3.099428E+04  1.899633E+05  6.080760E-09  3.647187E-09
       192  14  4.507156E+05  7.424668E+04  5.554548E+04  1.797745E+05  3.432506E-09  1.594379E-09
       192  15  4.736357E+05  1.703496E+05  1.264790E+05  1.530239E+05  6.295184E-09 -4.578125E-10
       192  16  6.031732E+05  1.122421E+05  6.205397E+04  2.157353E+05 -1.017276E-08 -3.439890E-09
       192  17  5.912093E+05  1.439059E+05  9.212756E+04  2.363760E+05 -1.475960E-09  7.431628E-10
       192  18  6.121683E+05  2.708254E+05  1.725120E+05  2.404579E+05  4.963531E-10  6.065958E-09
       192  19  3.163343E+05  3.260819E+04 -6.502450E+01  1.641958E+05  2.688419E+04  1.122534E+03
       192  20  3.102441E+05  4.594066E+03  1.896669E+04  1.231860E+05  5.148227E+04  1.062946E+04
       192  21  3.351309E+05  6.989641E+04  8.045527E+04  6.561228E+04  7.418851E+04  2.515081E+04
       192  22  4.597434E+05  7.242525E+04  3.099542E+04  1.899633E+05  2.460734E+04  2.632788E+02
       192  23  4.507188E+05  7.424761E+04  5.555125E+04  1.797750E+05  5.417475E+04  1.164671E+04
       192  24  4.736431E+05  1.703522E+05  1.264930E+05  1.530258E+05  8.185040E+04  2.804689E+04
       192  25  6.031737E+05  1.122422E+05  6.205491E+04  2.157353E+05  2.232991E+04 -5.960715E+02
       192  26  5.912128E+05  1.439069E+05  9.213393E+04  2.363766E+05  5.686786E+04  1.266437E+04
       192  27  6.121771E+05  2.708286E+05  1.725289E+05  2.404601E+05  8.951398E+04  3.094509E+04
       193   1 -2.851036E+04 -3.208552E+05 -3.072380E+04  6.764448E+04  7.238896E+01 -7.609359E+03
       193   2  5.945920E+03 -2.243748E+05 -1.674267E+03  4.505626E+04  2.036202E+03 -1.523662E+03
       193   3  2.948995E+04 -1.313063E+05  2.070347E+04  6.065485E+04  6.701945E+03  4.566109E+03
       193   4 -1.106932E+04 -2.511957E+05 -1.326060E+04  6.225597E+04  7.298458E+01 -8.188233E+03
       193   5 -1.357426E+02 -2.497048E+05 -6.767534E+03  4.316783E+04  2.039134E+03 -4.630604E+03
       193   6  3.248689E+02 -2.511958E+05 -5.189514E+03  6.226715E+04  6.707312E+03 -1.069842E+03
       193   7  6.371450E+03 -1.815317E+05  4.202242E+03  5.686686E+04  7.359021E+01 -8.767172E+03
       193   8 -6.217426E+03 -2.750341E+05 -1.186080E+04  4.127947E+04  2.042085E+03 -7.737422E+03
       193   9 -2.884113E+04 -3.710718E+05 -3.108323E+04  6.387914E+04  6.712650E+03 -6.704720E+03
       193  10 -2.851037E+04 -3.208553E+05 -3.072391E+04  6.764448E+04  1.236501E-09  3.478150E-09
       193  11  5.945915E+03 -2.243748E+05 -1.674279E+03  4.505626E+04  1.395913E-09 -1.399794E-09
       193  12  2.948989E+04 -1.313063E+05  2.070335E+04  6.065483E+04  2.108243E-09 -1.117495E-09
       193  13 -1.106934E+04 -2.511958E+05 -1.326073E+04  6.225597E+04 -3.982399E-10 -1.024170E-09
       193  14 -1.357528E+02 -2.497048E+05 -6.767582E+03  4.316783E+04 -2.211854E-09 -7.010200E-10
       193  15  3.248203E+02 -2.511958E+05 -5.189601E+03  6.226716E+04  2.473262E-09  1.506065E-09
       193  16  6.371429E+03 -1.815318E+05  4.202097E+03  5.686686E+04  3.374985E-09 -4.034635E-09
       193  17 -6.217447E+03 -2.750342E+05 -1.186092E+04  4.127948E+04  2.984346E-09 -3.292238E-09
       193  18 -2.884119E+04 -3.710719E+05 -3.108340E+04  6.387917E+04 -3.192591E-09  2.735914E-09
       193  19 -2.851036E+04 -3.208552E+05 -3.072380E+04  6.764448E+04 -7.238896E+01  7.609359E+03
       193  20  5.945920E+03 -2.243748E+05 -1.674267E+03  4.505626E+04 -2.036202E+03  1.523662E+03
       193  21  2.948995E+04 -1.313063E+05  2.070347E+04  6.065485E+04 -6.701945E+03 -4.566109E+03
       193  22 -1.106932E+04 -2.511957E+05 -1.326060E+04  6.225597E+04 -7.298458E+01  8.188233E+03
       193  23 -1.357426E+02 -2.497048E+05 -6.767534E+03  4.316783E+04 -2.039134E+03  4.630604E+03
       193  24  3.248689E+02 -2.511958E+05 -5.189514E+03  6.226715E+04 -6.707312E+03  1.069842E+03
       193  25  6.371450E+03 -1.815317E+05  4.202242E+03  5.686686E+04 -7.359021E+01  8.767172E+03
       193  26 -6.217426E+03 -2.750341E+05 -1.186080E+04  4.127947E+04 -2.042085E+03  7.737422E+03
       193  27 -2.884113E+04 -3.710718E+05 -3.108323E+04  6.387914E+04 -6.712650E+03  6.704720E+03
       194   1  4.721721E+04 -5.444002E+04  3.781097E+04  6.264770E+04  1.017446E+04  4.850887E+03
       194   2  7.082501E+04  4.061468E+04  5.783548E+04  4.282680E+04  1.526062E+04  7.045686E+03
       194   3  9.228308E+04  1.349961E+05  7.592475E+04  6.126103E+04  1.968031E+04  9.241840E+03
       194   4 -6.176974E+02 -2.507144E+05 -5.062627E+03  6.227969E+04  1.017958E+04 -2.236889E+02
       194   5 -5.789193E+01 -2.503275E+05 -5.604038E+03  4.315092E+04  1.526592E+04  2.593555E+03
       194   6 -1.756000E+03 -2.507310E+05 -8.513474E+03  6.227847E+04  1.968564E+04  5.411830E+03
       194   7 -4.845516E+04 -4.469527E+05 -4.793845E+04  6.191181E+04  1.018471E+04 -5.296681E+03
       194   8 -7.094642E+04 -5.411903E+05 -6.904858E+04  4.347490E+04  1.527123E+04 -1.856517E+03
       194   9 -9.580500E+04 -6.363188E+05 -9.296067E+04  6.329531E+04  1.969095E+04  1.584169E+03
       194  10  4.721710E+04 -5.444007E+04  3.781073E+04  6.264766E+04  2.048108E-09  2.748711E-09
       194  11  7.082475E+04  4.061457E+04  5.783495E+04  4.282672E+04  1.674977E-09  4.147099E-09
       194  12  9.228264E+04  1.349959E+05  7.592387E+04  6.126088E+04 -2.569250E-09  5.617082E-09
       194  13 -6.178087E+02 -2.507145E+05 -5.062821E+03  6.227969E+04  1.135161E-09  3.238156E-09
       194  14 -5.814396E+01 -2.503276E+05 -5.604489E+03  4.315089E+04  3.585752E-10 -4.594636E-09
       194  15 -1.756424E+03 -2.507311E+05 -8.514257E+03  6.227839E+04 -1.392272E-08  5.705667E-10
       194  16 -4.845528E+04 -4.469527E+05 -4.793870E+04  6.191185E+04  4.662769E-11 -3.358942E-09
       194  17 -7.094667E+04 -5.411904E+05 -6.904902E+04  4.347492E+04 -3.791604E-09 -8.089262E-09
       194  18 -9.580542E+04 -6.363189E+05 -9.296140E+04  6.329529E+04  3.296471E-09 -7.006175E-09
       194  19  4.721721E+04 -5.444002E+04  3.781097E+04  6.264770E+04 -1.017446E+04 -4.850887E+03
       194  20  7.082501E+04  4.061468E+04  5.783548E+04  4.282680E+04 -1.526062E+04 -7.045686E+03
       194  21  9.228308E+04  1.349961E+05  7.592475E+04  6.126103E+04 -1.968031E+04 -9.241840E+03
       194  22 -6.176974E+02 -2.507144E+05 -5.062627E+03  6.227969E+04 -1.017958E+04  2.236889E+02
       194  23 -5.789193E+01 -2.503275E+05 -5.604038E+03  4.315092E+04 -1.526592E+04 -2.593555E+03
       194  24 -1.756000E+03 -2.507310E+05 -8.513474E+03  6.227847E+04 -1.968564E+04 -5.411830E+03
       194  25 -4.845516E+04 -4.469527E+05 -4.793845E+04  6.191181E+04 -1.018471E+04  5.296681E+03
       194  26 -7.094642E+04 -5.411903E+05 -6.904858E+04  4.347490E+04 -1.527123E+04  1.856517E+03
       194  27 -9.580500E+04 -6.363188E+05 -9.296067E+04  6.329531E+04 -1.969095E+04 -1.584169E+03
       195   1  1.138569E+05  2.100282E+05  9.045678E+04  6.597537E+04  2.431748E+04  1.573660E+04
       195   2  1.355292E+05  3.073589E+05  1.067631E+05  3.758023E+04  2.499944E+04  8.303851E+03
       195   3  1.313641E+05  3.994530E+05  1.214992E+05  4.657578E+04  8.182522E+03  8.415133E+02
       195   4  1.236429E+03 -2.523680E+05 -1.031068E+04  6.209967E+04  2.432960E+04  6.910001E+03
       195   5 -3.585434E+02 -2.483380E+05 -1.691672E+04  4.337919E+04  2.499033E+04  1.585777E+04
       195   6 -3.064709E+04 -2.524026E+05 -3.647330E+04  6.205240E+04  8.144936E+03  2.477665E+04
       195   7 -1.113982E+05 -7.145635E+05 -1.110907E+05  5.822694E+04  2.434182E+04 -1.910116E+03
       195   8 -1.362671E+05 -8.037467E+05 -1.406157E+05  4.917300E+04  2.498135E+04  2.340500E+04
       195   9 -1.926883E+05 -9.038683E+05 -1.944742E+05  7.751287E+04  8.108524E+03  4.868674E+04
       195  10  1.138562E+05  2.100278E+05  9.045520E+04  6.597506E+04  4.824903E-10  6.271268E-09
       195  11  1.355285E+05  3.073586E+05  1.067618E+05  3.758006E+04  6.320303E-09  3.703865E-11
       195  12  1.313640E+05  3.994529E+05  1.214991E+05  4.657577E+04  3.652499E-09 -8.904157E-09
       195  13  1.235781E+03 -2.523682E+05 -1.031188E+04  6.209953E+04 -6.077628E-09  3.202654E-09
       195  14 -3.592814E+02 -2.483384E+05 -1.691837E+04  4.337887E+04 -2.827723E-09 -1.066848E-09
       195  15 -3.064733E+04 -2.524032E+05 -3.647458E+04  6.205224E+04  2.347769E-09 -1.977134E-09
       195  16 -1.113988E+05 -7.145637E+05 -1.110918E+05  5.822698E+04  4.791422E-09 -6.024712E-09
       195  17 -1.362679E+05 -8.037474E+05 -1.406179E+05  4.917253E+04  7.723668E-09  2.981609E-09
       195  18 -1.926890E+05 -9.038709E+05 -1.944788E+05  7.751255E+04  1.248410E-09  9.434323E-09
       195  19  1.138569E+05  2.100282E+05  9.045678E+04  6.597537E+04 -2.431748E+04 -1.573660E+04
       195  20  1.355292E+05  3.073589E+05  1.067631E+05  3.758023E+04 -2.499944E+04 -8.303851E+03
       195  21  1.313641E+05  3.994530E+05  1.214992E+05  4.657578E+04 -8.182522E+03 -8.415133E+02
       195  22  1.236429E+03 -2.523680E+05 -1.031068E+04  6.209967E+04 -2.432960E+04 -6.910001E+03
       195  23 -3.585434E+02 -2.483380E+05 -1.691672E+04  4.337919E+04 -2.499033E+04 -1.585777E+04
       195  24 -3.064709E+04 -2.524026E+05 -3.647330E+04  6.205240E+04 -8.144936E+03 -2.477665E+04
       195  25 -1.113982E+05 -7.145635E+05 -1.110907E+05  5.822694E+04 -2.434182E+04  1.910116E+03
       195  26 -1.362671E+05 -8.037467E+05 -1.406157E+05  4.917300E+04 -2.498135E+04 -2.340500E+04
       195  27 -1.926883E+05 -9.038683E+05 -1.944742E+05  7.751287E+04 -8.108524E+03 -4.868674E+04
       196   1  1.350861E+05  1.249288E+05  1.126629E+05  2.555976E+04  1.712349E+04 -9.296933E+03
       196   2  8.507893E+04  1.378314E+05  9.915749E+04  3.299428E+04  2.388391E+03 -3.092696E+04
       196   3  3.215881E+04  1.313091E+05  9.040575E+04  5.173025E+04 -1.235715E+04 -3.647733E+04
       196   4 -5.254876E+05 -3.827745E+04 -4.290116E+04  4.855355E+04 -2.984139E+04 -9.338694E+03
       196   5 -5.218004E+05 -7.518364E+03 -2.069645E+04  4.288295E+04 -1.910509E+04 -3.095089E+04
       196   6 -5.254583E+05 -6.188884E+02 -1.143450E+04  4.851472E+04 -8.380611E+03 -3.647563E+04
       196   7 -1.185654E+06 -2.015117E+05 -1.984867E+05  7.152263E+04 -7.675658E+04 -9.383960E+03
       196   8 -1.128326E+06 -1.528899E+05 -1.405667E+05  5.276165E+04 -4.057800E+04 -3.097553E+04
       196   9 -1.082773E+06 -1.325644E+05 -1.132873E+05  4.530206E+04 -4.407542E+03 -3.647397E+04
       196  10  1.350858E+05  1.249287E+05  1.126622E+05  2.555989E+04  2.652797E-08 -5.809303E-10
       196  11  8.507866E+04  1.378304E+05  9.915568E+04  3.299434E+04 -1.816603E-09 -3.501852E-09
       196  12  3.215829E+04  1.313076E+05  9.040296E+04  5.172989E+04 -2.403449E-08 -3.783885E-09
       196  13 -5.254886E+05 -3.827778E+04 -4.290300E+04  4.855333E+04 -4.497326E-09  2.453072E-10
       196  14 -5.218010E+05 -7.519490E+03 -2.069894E+04  4.288247E+04  4.819759E-09 -2.741998E-09
       196  15 -5.254588E+05 -6.203356E+02 -1.143713E+04  4.851447E+04  4.506849E-09 -3.271023E-09
       196  16 -1.185660E+06 -2.015134E+05 -1.984979E+05  7.152205E+04 -2.970887E-08 -1.822822E-10
       196  17 -1.128328E+06 -1.528914E+05 -1.405716E+05  5.276064E+04  3.093837E-09 -4.623236E-09
       196  18 -1.082774E+06 -1.325658E+05 -1.132898E+05  4.530193E+04  2.605422E-08 -7.268110E-09
       196  19  1.350861E+05  1.249288E+05  1.126629E+05  2.555976E+04 -1.712349E+04  9.296933E+03
       196  20  8.507893E+04  1.378314E+05  9.915749E+04  3.299428E+04 -2.388391E+03  3.092696E+04
       196  21  3.215881E+04  1.313091E+05  9.040575E+04  5.173025E+04  1.235715E+04  3.647733E+04
       196  22 -5.254876E+05 -3.827745E+04 -4.290116E+04  4.855355E+04  2.984139E+04  9.338694E+03
       196  23 -5.218004E+05 -7.518364E+03 -2.069645E+04  4.288295E+04  1.910509E+04  3.095089E+04
       196  24 -5.254583E+05 -6.188884E+02 -1.143450E+04  4.851472E+04  8.380611E+03  3.647563E+04
       196  25 -1.185654E+06 -2.015117E+05 -1.984867E+05  7.152263E+04  7.675658E+04  9.383960E+03
       196  26 -1.128326E+06 -1.528899E+05 -1.405667E+05  5.276165E+04  4.057800E+04  3.097553E+04
       196  27 -1.082773E+06 -1.325644E+05 -1.132873E+05  4.530206E+04  4.407542E+03  3.647397E+04
       197   1 -1.045825E+03  1.220515E+05  8.614094E+04  4.862361E+04 -8.619512E+03 -3.480100E+04
       197   2 -5.238929E+04  1.109025E+05  7.895500E+04  4.287789E+04 -8.303357E+03 -3.304979E+04
       197   3 -1.039728E+05  9.899013E+04  7.137083E+04  4.947591E+04 -7.989848E+03 -2.997847E+04
       197   4 -5.239543E+05 -1.535284E+03 -8.745130E+03  4.875196E+04 -6.887486E+03 -3.480150E+04
       197   5 -5.236432E+05 -1.332912E+02 -4.823856E+03  4.257868E+04 -4.481980E+03 -3.304713E+04
       197   6 -5.239373E+05  1.422887E+02 -2.752838E+03  4.874975E+04 -2.079058E+03 -2.997217E+04
       197   7 -1.046597E+06 -1.251374E+05 -1.036421E+05  4.888012E+04 -5.156878E+03 -3.480199E+04
       197   8 -9.946801E+05 -1.111813E+05 -8.861098E+04  4.227964E+04 -6.634196E+02 -3.304448E+04
       197   9 -9.437293E+05 -9.871520E+04 -7.688285E+04  4.802404E+04  3.827851E+03 -2.996588E+04
       197  10 -1.046230E+03  1.220502E+05  8.613853E+04  4.862337E+04 -9.669112E-12 -4.128967E-09
       197  11 -5.238966E+04  1.109013E+05  7.895282E+04  4.287767E+04  1.325063E-09 -1.907563E-10
       197  12 -1.039731E+05  9.898914E+04  7.136902E+04  4.947572E+04 -1.138065E-09  1.435503E-09
       197  13 -5.239546E+05 -1.536597E+03 -8.747495E+03  4.875177E+04  4.294011E-09 -4.330742E-09
       197  14 -5.236435E+05 -1.344690E+02 -4.825945E+03  4.257856E+04 -3.663596E-09 -3.881073E-10
       197  15 -5.239376E+05  1.413231E+02 -2.754533E+03  4.874970E+04 -8.881715E-10 -1.645089E-09
       197  16 -1.046597E+06 -1.251388E+05 -1.036444E+05  4.887997E+04  3.180640E-09 -3.673999E-09
       197  17 -9.946804E+05 -1.111825E+05 -8.861304E+04  4.227962E+04  2.138967E-09  5.385119E-10
       197  18 -9.437295E+05 -9.871617E+04 -7.688456E+04  4.802413E+04 -2.913753E-09 -7.660048E-11
       197  19 -1.045825E+03  1.220515E+05  8.614094E+04  4.862361E+04  8.619512E+03  3.480100E+04
       197  20 -5.238929E+04  1.109025E+05  7.895500E+04  4.287789E+04  8.303357E+03  3.304979E+04
       197  21 -1.039728E+05  9.899013E+04  7.137083E+04  4.947591E+04  7.989848E+03  2.997847E+04
       197  22 -5.239543E+05 -1.535284E+03 -8.745130E+03  4.875196E+04  6.887486E+03  3.480150E+04
       197  23 -5.236432E+05 -1.332912E+02 -4.823856E+03  4.257868E+04  4.481980E+03  3.304713E+04
       197  24 -5.239373E+05  1.422887E+02 -2.752838E+03  4.874975E+04  2.079058E+03  2.997217E+04
       197  25 -1.046597E+06 -1.251374E+05 -1.036421E+05  4.888012E+04  5.156878E+03  3.480199E+04
       197  26 -9.946801E+05 -1.111813E+05 -8.861098E+04  4.227964E+04  6.634196E+02  3.304448E+04
       197  27 -9.437293E+05 -9.871520E+04 -7.688285E+04  4.802404E+04 -3.827851E+03  2.996588E+04
       198   1 -1.379666E+05  9.086585E+04  6.575953E+04  4.928923E+04 -7.387059E+03 -2.778800E+04
       198   2 -1.894919E+05  7.876427E+04  5.754203E+04  4.299587E+04 -6.971308E+03 -2.411456E+04
       198   3 -2.410960E+05  6.667409E+04  4.904856E+04  4.915441E+04 -6.556707E+03 -2.033080E+04
       198   4 -5.238223E+05  9.508816E+01 -2.094224E+03  4.877411E+04 -1.656731E+03 -2.778143E+04
       198   5 -5.237606E+05  1.348129E+02 -1.200876E+03  4.254791E+04 -1.066820E+03 -2.410701E+04
       198   6 -5.238108E+05  1.557431E+02 -7.047461E+02  4.877402E+04 -4.780264E+02 -2.032224E+04
       198   7 -9.095322E+05 -9.068379E+04 -6.995326E+04  4.825925E+04  4.070140E+03 -2.777486E+04
       198   8 -8.579199E+05 -7.850073E+04 -5.994770E+04  4.210016E+04  4.834582E+03 -2.409946E+04
       198   9 -8.064472E+05 -6.636696E+04 -5.046082E+04  4.839377E+04  5.597968E+03 -2.031367E+04
       198  10 -1.379669E+05  9.086500E+04  6.575798E+04  4.928907E+04 -3.121167E-09  2.776960E-09
       198  11 -1.894921E+05  7.876363E+04  5.754084E+04  4.299573E+04  1.257591E-09  2.395767E-09
       198  12 -2.410962E+05  6.667364E+04  4.904770E+04  4.915430E+04  5.737368E-10 -4.171168E-10
       198  13 -5.238225E+05  9.425884E+01 -2.095679E+03  4.877407E+04 -1.757703E-09 -1.939315E-09
       198  14 -5.237608E+05  1.341887E+02 -1.201970E+03  4.254789E+04 -1.404637E-09  2.716679E-09
       198  15 -5.238109E+05  1.552997E+02 -7.055225E+02  4.877401E+04  1.323343E-09  4.184805E-09
       198  16 -9.095324E+05 -9.068463E+04 -6.995474E+04  4.825935E+04  2.354382E-09  6.771490E-10
       198  17 -8.579200E+05 -7.850136E+04 -5.994883E+04  4.210026E+04 -9.577847E-10  3.401096E-09
       198  18 -8.064473E+05 -6.636741E+04 -5.046166E+04  4.839386E+04 -9.723097E-10  3.771054E-09
       198  19 -1.379666E+05  9.086585E+04  6.575953E+04  4.928923E+04  7.387059E+03  2.778800E+04
       198  20 -1.894919E+05  7.876427E+04  5.754203E+04  4.299587E+04  6.971308E+03  2.411456E+04
       198  21 -2.410960E+05  6.667409E+04  4.904856E+04  4.915441E+04  6.556707E+03  2.033080E+04
       198  22 -5.238223E+05  9.508816E+01 -2.094224E+03  4.877411E+04  1.656731E+03  2.778143E+04
       198  23 -5.237606E+05  1.348129E+02 -1.200876E+03  4.254791E+04  1.066820E+03  2.410701E+04
       198  24 -5.238108E+05  1.557431E+02 -7.047461E+02  4.877402E+04  4.780264E+02  2.032224E+04
       198  25 -9.095322E+05 -9.068379E+04 -6.995326E+04  4.825925E+04 -4.070140E+03  2.777486E+04
       198  26 -8.579199E+05 -7.850073E+04 -5.994770E+04  4.210016E+04 -4.834582E+03  2.409946E+04
       198  27 -8.064472E+05 -6.636696E+04 -5.046082E+04  4.839377E+04 -5.597968E+03  2.031367E+04
       199   1 -2.751919E+05  5.860467E+04  4.298012E+04  4.910900E+04 -6.434040E+03 -1.809471E+04
       199   2 -3.268031E+05  4.646712E+04  3.421674E+04  4.279843E+04 -6.280476E+03 -1.425873E+04
       199   3 -3.784643E+05  3.436864E+04  2.535136E+04  4.896415E+04 -6.127522E+03 -1.041284E+04
       199   4 -5.237948E+05  1.555062E+02 -5.488501E+02  4.877942E+04 -3.678809E+02 -1.808580E+04
       199   5 -5.237634E+05  1.418195E+02 -3.531304E+02  4.254116E+04 -1.989874E+02 -1.424935E+04
       199   6 -5.237881E+05  1.644190E+02 -2.704026E+02  4.877941E+04 -3.069191E+01 -1.040299E+04
       199   7 -7.723372E+05 -5.829700E+04 -4.407990E+04  4.844995E+04  5.695921E+03 -1.807690E+04
       199   8 -7.206856E+05 -4.618558E+04 -3.492426E+04  4.228395E+04  5.880628E+03 -1.423998E+04
       199   9 -6.690912E+05 -3.404094E+04 -2.589279E+04  4.859471E+04  6.064752E+03 -1.039314E+04
       199  10 -2.751920E+05  5.860431E+04  4.297943E+04  4.910891E+04  8.060142E-11  9.102208E-11
       199  11 -3.268031E+05  4.646690E+04  3.421628E+04  4.279836E+04  7.755301E-10  6.494003E-09
       199  12 -3.784644E+05  3.436851E+04  2.535108E+04  4.896410E+04 -1.693257E-09  3.243592E-09
       199  13 -5.237949E+05  1.551550E+02 -5.494648E+02  4.877941E+04  4.312496E-09  2.270430E-09
       199  14 -5.237634E+05  1.416015E+02 -3.535119E+02  4.254116E+04  4.406540E-10  4.571194E-09
       199  15 -5.237881E+05  1.643029E+02 -2.706059E+02  4.877941E+04 -4.886659E-09 -6.503312E-10
       199  16 -7.723373E+05 -5.829736E+04 -4.408057E+04  4.845003E+04  3.882494E-10  4.014230E-09
       199  17 -7.206857E+05 -4.618581E+04 -3.492470E+04  4.228402E+04 -2.014456E-09  1.017866E-09
       199  18 -6.690912E+05 -3.404106E+04 -2.589307E+04  4.859476E+04 -2.655406E-11 -2.622533E-09
       199  19 -2.751919E+05  5.860467E+04  4.298012E+04  4.910900E+04  6.434040E+03  1.809471E+04
       199  20 -3.268031E+05  4.646712E+04  3.421674E+04  4.279843E+04  6.280476E+03  1.425873E+04
       199  21 -3.784643E+05  3.436864E+04  2.535136E+04  4.896415E+04  6.127522E+03  1.041284E+04
       199  22 -5.237948E+05  1.555062E+02 -5.488501E+02  4.877942E+04  3.678809E+02  1.808580E+04
       199  23 -5.237634E+05  1.418195E+02 -3.531304E+02  4.254116E+04  1.989874E+02  1.424935E+04
       199  24 -5.237881E+05  1.644190E+02 -2.704026E+02  4.877941E+04  3.069191E+01  1.040299E+04
       199  25 -7.723372E+05 -5.829700E+04 -4.407990E+04  4.844995E+04 -5.695921E+03  1.807690E+04
       199  26 -7.206856E+05 -4.618558E+04 -3.492426E+04  4.228395E+04 -5.880628E+03  1.423998E+04
       199  27 -6.690912E+05 -3.404094E+04 -2.589279E+04  4.859471E+04 -6.064752E+03  1.039314E+04
       200   1 -4.126050E+05  2.629377E+04  1.913230E+04  4.892042E+04 -6.083395E+03 -8.170929E+03
       200   2 -4.642443E+05  1.414975E+04  1.013320E+04  4.259857E+04 -5.930850E+03 -4.321425E+03
       200   3 -5.159421E+05  2.041739E+03  1.029741E+03  4.876369E+04 -5.778483E+03 -4.762614E+02
       200   4 -5.237870E+05  1.664373E+02 -2.622316E+02  4.878175E+04  1.408442E+01 -8.160903E+03
       200   5 -5.237565E+05  1.525308E+02 -3.070209E+02  4.253822E+04  1.595476E+02 -4.311277E+03
       200   6 -5.237850E+05  1.761731E+02 -4.510924E+02  4.878174E+04  3.048440E+02 -4.659881E+02
       200   7 -6.349569E+05 -2.596155E+04 -1.965706E+04  4.864310E+04  6.110504E+03 -8.150878E+03
       200   8 -5.832651E+05 -1.384486E+04 -1.074723E+04  4.247789E+04  6.249378E+03 -4.301130E+03
       200   9 -5.316278E+05 -1.689376E+03 -1.931790E+03  4.879980E+04  6.388097E+03 -4.557145E+02
       200  10 -4.126050E+05  2.629369E+04  1.913211E+04  4.892038E+04  4.461745E-09 -9.113330E-11
       200  11 -4.642443E+05  1.414972E+04  1.013310E+04  4.259854E+04  2.928131E-09 -8.945011E-10
       200  12 -5.159422E+05  2.041729E+03  1.029678E+03  4.876369E+04 -5.953547E-09 -2.457890E-09
       200  13 -5.237871E+05  1.663658E+02 -2.623567E+02  4.878175E+04  3.944315E-09  2.132620E-09
       200  14 -5.237565E+05  1.525109E+02 -3.070559E+02  4.253822E+04  4.986934E-09 -2.039998E-09
       200  15 -5.237850E+05  1.761728E+02 -4.510930E+02  4.878174E+04  1.262512E-09 -2.259302E-09
       200  16 -6.349570E+05 -2.596163E+04 -1.965726E+04  4.864314E+04 -3.069339E-09 -1.795413E-09
       200  17 -5.832651E+05 -1.384489E+04 -1.074733E+04  4.247791E+04  2.040755E-09 -5.507645E-09
       200  18 -5.316278E+05 -1.689387E+03 -1.931867E+03  4.879980E+04  5.758957E-09 -2.010710E-09
       200  19 -4.126050E+05  2.629377E+04  1.913230E+04  4.892042E+04  6.083395E+03  8.170929E+03
       200  20 -4.642443E+05  1.414975E+04  1.013320E+04  4.259857E+04  5.930850E+03  4.321425E+03
       200  21 -5.159421E+05  2.041739E+03  1.029741E+03  4.876369E+04  5.778483E+03  4.762614E+02
       200  22 -5.237870E+05  1.664373E+02 -2.622316E+02  4.878175E+04 -1.408442E+01  8.160903E+03
       200  23 -5.237565E+05  1.525308E+02 -3.070209E+02  4.253822E+04 -1.595476E+02  4.311277E+03
       200  24 -5.237850E+05  1.761731E+02 -4.510924E+02  4.878174E+04 -3.048440E+02  4.659881E+02
       200  25 -6.349569E+05 -2.596155E+04 -1.965706E+04  4.864310E+04 -6.110504E+03  8.150878E+03
       200  26 -5.832651E+05 -1.384486E+04 -1.074723E+04  4.247789E+04 -6.249378E+03  4.301130E+03
       200  27 -5.316278E+05 -1.689376E+03 -1.931790E+03  4.879980E+04 -6.388097E+03  4.557145E+02
       201   1 -5.501039E+05 -6.035351E+03 -5.322604E+03  4.870575E+04 -5.698800E+03  1.764776E+03
       201   2 -6.017024E+05 -1.818437E+04 -1.469810E+04  4.237893E+04 -5.123048E+03  5.580782E+03
       201   3 -6.534283E+05 -3.035724E+04 -2.446847E+04  4.853423E+04 -4.547010E+03  9.329092E+03
       201   4 -5.237968E+05  1.797274E+02 -5.716433E+02  4.878060E+04  3.935559E+02  1.775052E+03
       201   5 -5.237425E+05  1.658055E+02 -9.595165E+02  4.253963E+04  8.619759E+02  5.590700E+03
       201   6 -5.237996E+05  1.467923E+02 -1.667696E+03  4.878067E+04  1.330728E+03  9.338660E+03
       201   7 -4.974889E+05  6.394787E+03  4.179430E+03  4.885546E+04  6.486163E+03  1.785329E+03
       201   8 -4.457765E+05  1.851567E+04  1.277898E+04  4.270034E+04  6.847730E+03  5.600621E+03
       201   9 -3.941544E+05  3.064993E+04  2.113260E+04  4.902716E+04  7.209657E+03  9.348233E+03
       201  10 -5.501040E+05 -6.035363E+03 -5.322671E+03  4.870576E+04 -2.520673E-08 -1.122554E-09
       201  11 -6.017024E+05 -1.818441E+04 -1.469821E+04  4.237895E+04  3.431382E-09 -2.237794E-09
       201  12 -6.534283E+05 -3.035734E+04 -2.446868E+04  4.853426E+04  2.580567E-08  4.768298E-10
       201  13 -5.237968E+05  1.797240E+02 -5.716495E+02  4.878060E+04  2.154344E-09 -1.803548E-09
       201  14 -5.237425E+05  1.657717E+02 -9.595767E+02  4.253962E+04 -1.318787E-09 -2.563371E-09
       201  15 -5.237996E+05  1.466982E+02 -1.667863E+03  4.878066E+04 -1.992243E-09  9.043675E-10
       201  16 -4.974889E+05  6.394773E+03  4.179344E+03  4.885545E+04  2.642643E-08  1.456621E-09
       201  17 -4.457766E+05  1.851562E+04  1.277883E+04  4.270031E+04 -2.715210E-09 -4.995400E-09
       201  18 -3.941545E+05  3.064982E+04  2.113234E+04  4.902710E+04 -2.754300E-08 -1.464094E-09
       201  19 -5.501039E+05 -6.035351E+03 -5.322604E+03  4.870575E+04  5.698800E+03 -1.764776E+03
       201  20 -6.017024E+05 -1.818437E+04 -1.469810E+04  4.237893E+04  5.123048E+03 -5.580782E+03
       201  21 -6.534283E+05 -3.035724E+04 -2.446847E+04  4.853423E+04  4.547010E+03 -9.329092E+03
       201  22 -5.237968E+05  1.797274E+02 -5.716433E+02  4.878060E+04 -3.935559E+02 -1.775052E+03
       201  23 -5.237425E+05  1.658055E+02 -9.595165E+02  4.253963E+04 -8.619759E+02 -5.590700E+03
       201  24 -5.237996E+05  1.467923E+02 -1.667696E+03  4.878067E+04 -1.330728E+03 -9.338660E+03
       201  25 -4.974889E+05  6.394787E+03  4.179430E+03  4.885546E+04 -6.486163E+03 -1.785329E+03
       201  26 -4.457765E+05  1.851567E+04  1.277898E+04  4.270034E+04 -6.847730E+03 -5.600621E+03
       201  27 -3.941544E+05  3.064993E+04  2.113260E+04  4.902716E+04 -7.209657E+03 -9.348233E+03
       202   1 -6.876846E+05 -3.840878E+04 -3.125645E+04  4.832984E+04 -4.325536E+03  1.154348E+04
       202   2 -7.389404E+05 -5.081727E+04 -4.230732E+04  4.241706E+04 -1.118047E+03  1.492287E+04
       202   3 -7.909309E+05 -6.433731E+04 -5.573756E+04  4.892647E+04  2.090894E+03  1.748015E+04
       202   4 -5.238905E+05  1.872679E+02 -2.190691E+03  4.876695E+04  1.665313E+03  1.155304E+04
       202   5 -5.236388E+05 -3.093982E+01 -3.833727E+03  4.255704E+04  3.572177E+03  1.492990E+04
       202   6 -5.238986E+05 -1.134533E+03 -6.951969E+03  4.876908E+04  5.480770E+03  1.748478E+04
       202   7 -3.600701E+05  3.878186E+04  2.687420E+04  4.920417E+04  7.657697E+03  1.156261E+04
       202   8 -3.082918E+05  5.075283E+04  3.463819E+04  4.269705E+04  8.263982E+03  1.493692E+04
       202   9 -2.567970E+05  6.206422E+04  4.183078E+04  4.861158E+04  8.872065E+03  1.748941E+04
       202  10 -6.876846E+05 -3.840893E+04 -3.125673E+04  4.832988E+04  2.087635E-09  4.976283E-09
       202  11 -7.389405E+05 -5.081751E+04 -4.230774E+04  4.241708E+04  5.975580E-09  2.979608E-09
       202  12 -7.909309E+05 -6.433764E+04 -5.573814E+04  4.892644E+04  5.151148E-10  3.997332E-09
       202  13 -5.238905E+05  1.871239E+02 -2.190947E+03  4.876693E+04 -2.889390E-11  2.408344E-09
       202  14 -5.236388E+05 -3.118255E+01 -3.834170E+03  4.255700E+04 -3.495060E-09  3.298569E-09
       202  15 -5.238987E+05 -1.134869E+03 -6.952600E+03  4.876900E+04 -1.612642E-09  1.410363E-09
       202  16 -3.600702E+05  3.878170E+04  2.687384E+04  4.920410E+04  2.460878E-09  6.331992E-10
       202  17 -3.082919E+05  5.075257E+04  3.463764E+04  4.269695E+04 -2.653959E-09 -3.713988E-10
       202  18 -2.567972E+05  6.206387E+04  4.183006E+04  4.861146E+04 -5.034659E-09 -1.798581E-09
       202  19 -6.876846E+05 -3.840878E+04 -3.125645E+04  4.832984E+04  4.325536E+03 -1.154348E+04
       202  20 -7.389404E+05 -5.081727E+04 -4.230732E+04  4.241706E+04  1.118047E+03 -1.492287E+04
       202  21 -7.909309E+05 -6.433731E+04 -5.573756E+04  4.892647E+04 -2.090894E+03 -1.748015E+04
       202  22 -5.238905E+05  1.872679E+02 -2.190691E+03  4.876695E+04 -1.665313E+03 -1.155304E+04
       202  23 -5.236388E+05 -3.093982E+01 -3.833727E+03  4.255704E+04 -3.572177E+03 -1.492990E+04
       202  24 -5.238986E+05 -1.134533E+03 -6.951969E+03  4.876908E+04 -5.480770E+03 -1.748478E+04
       202  25 -3.600701E+05  3.878186E+04  2.687420E+04  4.920417E+04 -7.657697E+03 -1.156261E+04
       202  26 -3.082918E+05  5.075283E+04  3.463819E+04  4.269705E+04 -8.263982E+03 -1.493692E+04
       202  27 -2.567970E+05  6.206422E+04  4.183078E+04  4.861158E+04 -8.872065E+03 -1.748941E+04
       203   1 -8.266703E+05 -7.186966E+04 -6.457008E+04  4.609148E+04  1.878862E+03  1.937239E+04
       203   2 -8.740049E+05 -9.030996E+04 -8.654841E+04  5.058841E+04  2.625364E+04  1.742163E+04
       203   3 -9.299767E+05 -1.304838E+05 -1.298470E+05  6.687061E+04  5.063910E+04  5.447888E+03
       203   4 -5.250945E+05 -4.030577E+02 -9.090073E+03  4.862107E+04  6.666214E+03  1.937889E+04
       203   5 -5.221646E+05 -5.893392E+03 -1.644975E+04  4.274991E+04  1.518560E+04  1.740442E+04
       203   6 -5.251139E+05 -3.035552E+04 -3.410531E+04  4.866458E+04  2.371789E+04  5.408751E+03
       203   7 -2.234303E+05  7.105839E+04  4.638628E+04  5.115188E+04  1.145583E+04  1.938542E+04
       203   8 -1.702055E+05  7.851590E+04  5.364321E+04  3.490682E+04  4.111413E+03  1.738749E+04
       203   9 -1.200978E+05  6.976268E+04  6.162793E+04  3.044653E+04 -3.220799E+03  5.371209E+03
       203  10 -8.266704E+05 -7.187006E+04 -6.457079E+04  4.609146E+04  2.549951E-08  3.222042E-09
       203  11 -8.740057E+05 -9.031047E+04 -8.655028E+04  5.058804E+04  1.571990E-09  1.148849E-11
       203  12 -9.299795E+05 -1.304845E+05 -1.298519E+05  6.687039E+04 -2.453468E-08  1.695973E-10
       203  13 -5.250947E+05 -4.034728E+02 -9.090862E+03  4.862096E+04  1.793565E-09  5.773258E-09
       203  14 -5.221650E+05 -5.893779E+03 -1.645075E+04  4.274969E+04  2.212340E-09 -2.014177E-09
       203  15 -5.251145E+05 -3.035570E+04 -3.410643E+04  4.866447E+04  1.038839E-09  7.909492E-10
       203  16 -2.234305E+05  7.105796E+04  4.638533E+04  5.115170E+04 -2.766565E-08  2.036545E-09
       203  17 -1.702056E+05  7.851557E+04  5.364261E+04  3.490676E+04 -8.129355E-13  1.442187E-09
       203  18 -1.200978E+05  6.976265E+04  6.162785E+04  3.044655E+04  2.602519E-08 -1.105887E-09
       203  19 -8.266703E+05 -7.186966E+04 -6.457008E+04  4.609148E+04 -1.878862E+03 -1.937239E+04
       203  20 -8.740049E+05 -9.030996E+04 -8.654841E+04  5.058841E+04 -2.625364E+04 -1.742163E+04
       203  21 -9.299767E+05 -1.304838E+05 -1.298470E+05  6.687061E+04 -5.063910E+04 -5.447888E+03
       203  22 -5.250945E+05 -4.030577E+02 -9.090073E+03  4.862107E+04 -6.666214E+03 -1.937889E+04
       203  23 -5.221646E+05 -5.893392E+03 -1.644975E+04  4.274991E+04 -1.518560E+04 -1.740442E+04
       203  24 -5.251139E+05 -3.035552E+04 -3.410531E+04  4.866458E+04 -2.371789E+04 -5.408751E+03
       203  25 -2.234303E+05  7.105839E+04  4.638628E+04  5.115188E+04 -1.145583E+04 -1.938542E+04
       203  26 -1.702055E+05  7.851590E+04  5.364321E+04  3.490682E+04 -4.111413E+03 -1.738749E+04
       203  27 -1.200978E+05  6.976268E+04  6.162793E+04  3.044653E+04  3.220799E+03 -5.371209E+03
       204   1 -5.715573E+04  8.864814E+04  7.929435E+04  9.950581E+03 -3.486415E+03 -6.647972E+03
       204   2 -9.209379E+04  1.069845E+05  7.951705E+04  1.370346E+04 -7.811789E+03 -2.128923E+04
       204   3 -1.327078E+05  1.003237E+05  7.632267E+04  3.034693E+04 -1.215362E+04 -2.323452E+04
       204   4 -5.413340E+05 -3.146795E+04 -3.721053E+04  2.567925E+04 -2.562976E+04 -6.678725E+03
       204   5 -5.373195E+05 -1.412014E+03 -1.719451E+04  1.920931E+04 -1.655333E+04 -2.130348E+04
       204   6 -5.413154E+05  1.308923E+03 -9.910309E+03  2.563075E+04 -7.493442E+03 -2.322802E+04
       204   7 -1.025296E+06 -1.515999E+05 -1.537301E+05  4.139553E+04 -4.775589E+04 -6.710614E+03
       204   8 -9.823589E+05 -1.098215E+05 -1.139176E+05  2.471108E+04 -2.528868E+04 -2.131790E+04
       204   9 -9.497652E+05 -9.771655E+04 -9.615263E+04  2.091766E+04 -2.836280E+03 -2.322159E+04
       204  10 -5.715576E+04  8.864809E+04  7.929424E+04  9.950563E+03 -4.984973E-09  1.215863E-09
       204  11 -9.209398E+04  1.069840E+05  7.951609E+04  1.370333E+04 -9.825461E-10  5.142577E-09
       204  12 -1.327081E+05  1.003231E+05  7.632138E+04  3.034670E+04  4.333478E-09  1.797832E-09
       204  13 -5.413348E+05 -3.146818E+04 -3.721185E+04  2.567911E+04  3.861052E-10 -1.214931E-09
       204  14 -5.373199E+05 -1.412575E+03 -1.719588E+04  1.920902E+04  4.576532E-09 -2.442989E-09
       204  15 -5.413156E+05  1.308329E+03 -9.911429E+03  2.563061E+04 -3.530834E-09  1.599270E-09
       204  16 -1.025299E+06 -1.516006E+05 -1.537345E+05  4.139527E+04  3.232304E-09  1.041955E-10
       204  17 -9.823597E+05 -1.098222E+05 -1.139197E+05  2.471065E+04 -9.342278E-10  4.635656E-09
       204  18 -9.497653E+05 -9.771713E+04 -9.615366E+04  2.091761E+04 -5.346631E-09  2.416036E-09
       204  19 -5.715573E+04  8.864814E+04  7.929435E+04  9.950581E+03  3.486415E+03  6.647972E+03
       204  20 -9.209379E+04  1.069845E+05  7.951705E+04  1.370346E+04  7.811789E+03  2.128923E+04
       204  21 -1.327078E+05  1.003237E+05  7.632267E+04  3.034693E+04  1.215362E+04  2.323452E+04
       204  22 -5.413340E+05 -3.146795E+04 -3.721053E+04  2.567925E+04  2.562976E+04  6.678725E+03
       204  23 -5.373195E+05 -1.412014E+03 -1.719451E+04  1.920931E+04  1.655333E+04  2.130348E+04
       204  24 -5.413154E+05  1.308923E+03 -9.910309E+03  2.563075E+04  7.493442E+03  2.322802E+04
       204  25 -1.025296E+06 -1.515999E+05 -1.537301E+05  4.139553E+04  4.775589E+04  6.710614E+03
       204  26 -9.823589E+05 -1.098215E+05 -1.139176E+05  2.471108E+04  2.528868E+04  2.131790E+04
       204  27 -9.497652E+05 -9.771655E+04 -9.615263E+04  2.091766E+04  2.836280E+03  2.322159E+04
       205   1 -1.600325E+05  9.069000E+04  7.265604E+04  2.579969E+04 -7.408477E+03 -2.107939E+04
       205   2 -1.976590E+05  8.281449E+04  6.774217E+04  1.936976E+04 -5.920983E+03 -1.955790E+04
       205   3 -2.357979E+05  7.377087E+04  6.156169E+04  2.651120E+04 -4.435450E+03 -1.741959E+04
       205   4 -5.396712E+05 -1.357749E+03 -7.806143E+03  2.579468E+04 -6.127765E+03 -2.107821E+04
       205   5 -5.393529E+05  4.407371E+01 -4.277019E+03  1.900739E+04 -3.990234E+03 -1.955527E+04
       205   6 -5.396623E+05  1.643429E+02 -2.466951E+03  2.579196E+04 -1.854584E+03 -1.741536E+04
       205   7 -9.191739E+05 -9.341484E+04 -8.827654E+04  2.578962E+04 -4.847823E+03 -2.107702E+04
       205   8 -8.809365E+05 -8.273387E+04 -7.630278E+04  1.864518E+04 -2.060531E+03 -1.955265E+04
       205   9 -8.434395E+05 -7.344814E+04 -6.650077E+04  2.507303E+04  7.250386E+02 -1.741113E+04
       205  10 -1.600327E+05  9.068951E+04  7.265510E+04  2.579956E+04  6.754303E-09 -1.382312E-09
       205  11 -1.976591E+05  8.281407E+04  6.774139E+04  1.936966E+04  7.979936E-09  9.572576E-11
       205  12 -2.357980E+05  7.377054E+04  6.156108E+04  2.651114E+04  6.117330E-09 -7.958470E-11
       205  13 -5.396714E+05 -1.358236E+03 -7.807049E+03  2.579458E+04  3.946305E-09  6.526608E-09
       205  14 -5.393530E+05  4.365890E+01 -4.277767E+03  1.900733E+04  1.654966E-09 -7.364714E-09
       205  15 -5.396624E+05  1.640164E+02 -2.467527E+03  2.579193E+04  1.432624E-09  1.052031E-08
       205  16 -9.191741E+05 -9.341533E+04 -8.827742E+04  2.578954E+04 -4.507985E-09 -2.877284E-09
       205  17 -8.809366E+05 -8.273429E+04 -7.630350E+04  1.864515E+04 -5.196217E-09 -4.851599E-09
       205  18 -8.434396E+05 -7.344846E+04 -6.650134E+04  2.507304E+04 -1.145052E-08 -2.228407E-09
       205  19 -1.600325E+05  9.069000E+04  7.265604E+04  2.579969E+04  7.408477E+03  2.107939E+04
       205  20 -1.976590E+05  8.281449E+04  6.774217E+04  1.936976E+04  5.920983E+03  1.955790E+04
       205  21 -2.357979E+05  7.377087E+04  6.156169E+04  2.651120E+04  4.435450E+03  1.741959E+04
       205  22 -5.396712E+05 -1.357749E+03 -7.806143E+03  2.579468E+04  6.127765E+03  2.107821E+04
       205  23 -5.393529E+05  4.407371E+01 -4.277019E+03  1.900739E+04  3.990234E+03  1.955527E+04
       205  24 -5.396623E+05  1.643429E+02 -2.466951E+03  2.579196E+04  1.854584E+03  1.741536E+04
       205  25 -9.191739E+05 -9.341484E+04 -8.827654E+04  2.578962E+04  4.847823E+03  2.107702E+04
       205  26 -8.809365E+05 -8.273387E+04 -7.630278E+04  1.864518E+04  2.060531E+03  1.955265E+04
       205  27 -8.434395E+05 -7.344814E+04 -6.650077E+04  2.507303E+04 -7.250386E+02  1.741113E+04
       206   1 -2.644833E+05  6.663940E+04  5.589756E+04  2.626724E+04 -3.893853E+03 -1.601534E+04
       206   2 -3.024820E+05  5.747854E+04  4.875696E+04  1.937653E+04 -3.386040E+03 -1.370473E+04
       206   3 -3.406002E+05  4.831160E+04  4.127125E+04  2.615702E+04 -2.878934E+03 -1.136139E+04
       206   4 -5.395473E+05  4.300075E+01 -1.893713E+03  2.581483E+04 -1.472502E+03 -1.601119E+04
       206   5 -5.394813E+05  8.366092E+01 -1.103256E+03  1.897901E+04 -9.304027E+02 -1.370021E+04
       206   6 -5.395416E+05  1.124711E+02 -6.816860E+02  2.581469E+04 -3.889790E+02 -1.135650E+04
       206   7 -8.145398E+05 -6.655826E+04 -5.968920E+04  2.536259E+04  9.477929E+02 -1.600704E+04
       206   8 -7.764275E+05 -5.731483E+04 -5.096660E+04  1.858161E+04  1.524312E+03 -1.369570E+04
       206   9 -7.384457E+05 -4.808921E+04 -4.263683E+04  2.547246E+04  2.100190E+03 -1.135160E+04
       206  10 -2.644834E+05  6.663912E+04  5.589705E+04  2.626719E+04 -4.844472E-09 -5.888517E-09
       206  11 -3.024821E+05  5.747834E+04  4.875658E+04  1.937650E+04 -9.391113E-09 -1.675034E-09
       206  12 -3.406002E+05  4.831146E+04  4.127099E+04  2.615699E+04 -5.688972E-09  3.848002E-10
       206  13 -5.395474E+05  4.272495E+01 -1.894199E+03  2.581481E+04 -4.290048E-09  5.141478E-09
       206  14 -5.394814E+05  8.345919E+01 -1.103610E+03  1.897900E+04  5.039292E-09  4.924581E-09
       206  15 -5.395417E+05  1.123326E+02 -6.819286E+02  2.581469E+04  4.442290E-09  9.498873E-10
       206  16 -8.145399E+05 -6.655854E+04 -5.968968E+04  2.536260E+04  4.261245E-09 -3.729361E-09
       206  17 -7.764276E+05 -5.731503E+04 -5.096696E+04  1.858163E+04  1.163341E-08  3.143709E-09
       206  18 -7.384457E+05 -4.808935E+04 -4.263708E+04  2.547248E+04  3.475896E-09  5.594371E-09
       206  19 -2.644833E+05  6.663940E+04  5.589756E+04  2.626724E+04  3.893853E+03  1.601534E+04
       206  20 -3.024820E+05  5.747854E+04  4.875696E+04  1.937653E+04  3.386040E+03  1.370473E+04
       206  21 -3.406002E+05  4.831160E+04  4.127125E+04  2.615702E+04  2.878934E+03  1.136139E+04
       206  22 -5.395473E+05  4.300075E+01 -1.893713E+03  2.581483E+04  1.472502E+03  1.601119E+04
       206  23 -5.394813E+05  8.366092E+01 -1.103256E+03  1.897901E+04  9.304027E+02  1.370021E+04
       206  24 -5.395416E+05  1.124711E+02 -6.816860E+02  2.581469E+04  3.889790E+02  1.135650E+04
       206  25 -8.145398E+05 -6.655826E+04 -5.968920E+04  2.536259E+04 -9.477929E+02  1.600704E+04
       206  26 -7.764275E+05 -5.731483E+04 -5.096660E+04  1.858161E+04 -1.524312E+03  1.369570E+04
       206  27 -7.384457E+05 -4.808921E+04 -4.263683E+04  2.547246E+04 -2.100190E+03  1.135160E+04
       207   1 -3.694847E+05  4.126980E+04  3.511042E+04  2.611049E+04 -2.764126E+03 -9.988619E+03
       207   2 -4.076194E+05  3.202382E+04  2.730631E+04  1.918357E+04 -2.557551E+03 -7.632848E+03
       207   3 -4.458340E+05  2.283124E+04  1.936445E+04  2.597032E+04 -2.351343E+03 -5.273918E+03
       207   4 -5.395295E+05  1.090407E+02 -5.592064E+02  2.582414E+04 -2.796387E+02 -9.983592E+03
       207   5 -5.394869E+05  8.775198E+01 -4.342700E+02  1.896721E+04 -6.984612E+01 -7.627647E+03
       207   6 -5.395264E+05  1.193690E+02 -4.493170E+02  2.582413E+04  1.395917E+02 -5.268538E+03
       207   7 -7.095468E+05 -4.105357E+04 -3.623043E+04  2.553786E+04  2.204179E+03 -9.978566E+03
       207   8 -6.713380E+05 -3.184944E+04 -2.817580E+04  1.875089E+04  2.417339E+03 -7.622447E+03
       207   9 -6.332104E+05 -2.259307E+04 -2.026356E+04  2.567795E+04  2.630157E+03 -5.263158E+03
       207  10 -3.694847E+05  4.126969E+04  3.511022E+04  2.611047E+04  2.531609E-09 -2.965378E-09
       207  11 -4.076194E+05  3.202376E+04  2.730619E+04  1.918355E+04 -8.901133E-09  2.055712E-09
       207  12 -4.458340E+05  2.283121E+04  1.936438E+04  2.597031E+04 -9.194429E-09  6.023567E-10
       207  13 -5.395295E+05  1.089336E+02 -5.593938E+02  2.582414E+04 -2.157024E-09  1.735143E-09
       207  14 -5.394869E+05  8.768952E+01 -4.343793E+02  1.896721E+04  3.113282E-09 -3.553132E-09
       207  15 -5.395264E+05  1.193392E+02 -4.493691E+02  2.582413E+04 -2.814583E-10 -2.977047E-09
       207  16 -7.095469E+05 -4.105368E+04 -3.623062E+04  2.553788E+04 -1.126770E-09  4.562907E-09
       207  17 -6.713380E+05 -3.184950E+04 -2.817592E+04  1.875091E+04  5.872508E-09  6.202079E-09
       207  18 -6.332104E+05 -2.259310E+04 -2.026362E+04  2.567796E+04  8.713593E-09  2.495736E-09
       207  19 -3.694847E+05  4.126980E+04  3.511042E+04  2.611049E+04  2.764126E+03  9.988619E+03
       207  20 -4.076194E+05  3.202382E+04  2.730631E+04  1.918357E+04  2.557551E+03  7.632848E+03
       207  21 -4.458340E+05  2.283124E+04  1.936445E+04  2.597032E+04  2.351343E+03  5.273918E+03
       207  22 -5.395295E+05  1.090407E+02 -5.592064E+02  2.582414E+04  2.796387E+02  9.983592E+03
       207  23 -5.394869E+05  8.775198E+01 -4.342700E+02  1.896721E+04  6.984612E+01  7.627647E+03
       207  24 -5.395264E+05  1.193690E+02 -4.493170E+02  2.582413E+04 -1.395917E+02  5.268538E+03
       207  25 -7.095468E+05 -4.105357E+04 -3.623043E+04  2.553786E+04 -2.204179E+03  9.978566E+03
       207  26 -6.713380E+05 -3.184944E+04 -2.817580E+04  1.875089E+04 -2.417339E+03  7.622447E+03
       207  27 -6.332104E+05 -2.259307E+04 -2.026356E+04  2.567795E+04 -2.630157E+03  5.263158E+03
       208   1 -4.747963E+05  1.577755E+04  1.300677E+04  2.592264E+04 -2.268353E+03 -3.899758E+03
       208   2 -5.129650E+05  6.520218E+03  4.824793E+03  1.897259E+04 -1.901075E+03 -1.538142E+03
       208   3 -5.512420E+05 -2.689217E+03 -3.602574E+03  2.575430E+04 -1.533894E+03  8.229517E+02
       208   4 -5.395316E+05  1.198241E+02 -5.086649E+02  2.582811E+04  2.234754E+02 -3.894314E+03
       208   5 -5.394763E+05  9.945826E+01 -7.523506E+02  1.896221E+04  5.900994E+02 -1.532667E+03
       208   6 -5.395311E+05  1.270372E+02 -1.241093E+03  2.582810E+04  9.566486E+02  8.284619E+02
       208   7 -6.042630E+05 -1.553816E+04 -1.402431E+04  2.573359E+04  2.715048E+03 -3.888869E+03
       208   8 -5.659869E+05 -6.321344E+03 -6.329511E+03  1.895183E+04  3.081169E+03 -1.527192E+03
       208   9 -5.278201E+05  2.943286E+03  1.120405E+03  2.590191E+04  3.447237E+03  8.339726E+02
       208  10 -4.747963E+05  1.577753E+04  1.300674E+04  2.592264E+04 -2.272086E-08 -7.514747E-10
       208  11 -5.129650E+05  6.520215E+03  4.824782E+03  1.897259E+04 -4.858540E-09 -3.542569E-09
       208  12 -5.512420E+05 -2.689218E+03 -3.602580E+03  2.575430E+04  1.000792E-08 -3.510832E-09
       208  13 -5.395316E+05  1.198078E+02 -5.086934E+02  2.582811E+04  3.935195E-09  5.300453E-09
       208  14 -5.394763E+05  9.945565E+01 -7.523557E+02  1.896221E+04 -5.202353E-10 -1.663011E-09
       208  15 -5.395311E+05  1.270362E+02 -1.241096E+03  2.582810E+04  8.712874E-09 -3.365773E-09
       208  16 -6.042631E+05 -1.553818E+04 -1.402435E+04  2.573360E+04  1.920776E-08  2.181816E-09
       208  17 -5.659869E+05 -6.321349E+03 -6.329533E+03  1.895184E+04  1.881219E-09 -8.187521E-09
       208  18 -5.278201E+05  2.943282E+03  1.120382E+03  2.590190E+04 -9.270844E-09 -1.945512E-09
       208  19 -4.747963E+05  1.577755E+04  1.300677E+04  2.592264E+04  2.268353E+03  3.899758E+03
       208  20 -5.129650E+05  6.520218E+03  4.824793E+03  1.897259E+04  1.901075E+03  1.538142E+03
       208  21 -5.512420E+05 -2.689217E+03 -3.602574E+03  2.575430E+04  1.533894E+03 -8.229517E+02
       208  22 -5.395316E+05  1.198241E+02 -5.086649E+02  2.582811E+04 -2.234754E+02  3.894314E+03
       208  23 -5.394763E+05  9.945826E+01 -7.523506E+02  1.896221E+04 -5.900994E+02  1.532667E+03
       208  24 -5.395311E+05  1.270372E+02 -1.241093E+03  2.582810E+04 -9.566486E+02 -8.284619E+02
       208  25 -6.042630E+05 -1.553816E+04 -1.402431E+04  2.573359E+04 -2.715048E+03  3.888869E+03
       208  26 -5.659869E+05 -6.321344E+03 -6.329511E+03  1.895183E+04 -3.081169E+03  1.527192E+03
       208  27 -5.278201E+05  2.943286E+03  1.120405E+03  2.590191E+04 -3.447237E+03 -8.339726E+02
       209   1 -5.802483E+05 -9.734992E+03 -1.027783E+04  2.566930E+04 -1.283919E+03  2.199304E+03
       209   2 -6.183105E+05 -1.898017E+04 -1.938175E+04  1.872131E+04  1.101300E+02  4.556583E+03
       209   3 -6.566563E+05 -2.834732E+04 -2.944234E+04  2.549780E+04  1.504366E+03  6.892547E+03
       209   4 -5.395693E+05  1.390575E+02 -1.615488E+03  2.582635E+04  1.211622E+03  2.204804E+03
       209   5 -5.394303E+05  1.272603E+02 -2.781038E+03  1.896433E+04  2.583292E+03  4.561930E+03
       209   6 -5.395716E+05 -2.354651E+00 -4.887383E+03  2.582667E+04  3.955233E+03  6.897749E+03
       209   7 -4.988887E+05  1.001300E+04  7.046782E+03  2.598341E+04  3.707323E+03  2.210306E+03
       209   8 -4.605441E+05  1.923429E+04  1.381935E+04  1.920737E+04  5.056764E+03  4.567280E+03
       209   9 -4.224740E+05  2.834174E+04  1.966683E+04  2.615560E+04  6.406555E+03  6.902952E+03
       209  10 -5.802483E+05 -9.734998E+03 -1.027784E+04  2.566930E+04 -9.131190E-09 -9.429911E-10
       209  11 -6.183105E+05 -1.898019E+04 -1.938179E+04  1.872131E+04 -1.038393E-08 -3.488852E-09
       209  12 -6.566563E+05 -2.834737E+04 -2.944243E+04  2.549779E+04  3.931467E-09  4.370555E-10
       209  13 -5.395693E+05  1.390519E+02 -1.615499E+03  2.582635E+04 -2.132002E-09 -4.230003E-10
       209  14 -5.394303E+05  1.272361E+02 -2.781090E+03  1.896432E+04  1.636186E-09  2.035650E-09
       209  15 -5.395717E+05 -2.409933E+00 -4.887502E+03  2.582665E+04  2.378126E-09  1.600637E-09
       209  16 -4.988887E+05  1.001299E+04  7.046747E+03  2.598340E+04  8.738828E-09  7.490927E-09
       209  17 -4.605442E+05  1.923426E+04  1.381926E+04  1.920735E+04  2.367517E-09 -1.280569E-09
       209  18 -4.224741E+05  2.834167E+04  1.966666E+04  2.615557E+04 -5.979124E-09  1.828306E-09
       209  19 -5.802483E+05 -9.734992E+03 -1.027783E+04  2.566930E+04  1.283919E+03 -2.199304E+03
       209  20 -6.183105E+05 -1.898017E+04 -1.938175E+04  1.872131E+04 -1.101300E+02 -4.556583E+03
       209  21 -6.566563E+05 -2.834732E+04 -2.944234E+04  2.549780E+04 -1.504366E+03 -6.892547E+03
       209  22 -5.395693E+05  1.390575E+02 -1.615488E+03  2.582635E+04 -1.211622E+03 -2.204804E+03
       209  23 -5.394303E+05  1.272603E+02 -2.781038E+03  1.896433E+04 -2.583292E+03 -4.561930E+03
       209  24 -5.395716E+05 -2.354651E+00 -4.887383E+03  2.582667E+04 -3.955233E+03 -6.897749E+03
       209  25 -4.988887E+05  1.001300E+04  7.046782E+03  2.598341E+04 -3.707323E+03 -2.210306E+03
       209  26 -4.605441E+05  1.923429E+04  1.381935E+04  1.920737E+04 -5.056764E+03 -4.567280E+03
       209  27 -4.224740E+05  2.834174E+04  1.966683E+04  2.615560E+04 -6.406555E+03 -6.902952E+03
       210   1 -6.858959E+05 -3.507592E+04 -3.723207E+04  2.482916E+04  2.386134E+03  8.293341E+03
       210   2 -7.231624E+05 -4.454435E+04 -4.996816E+04  1.893837E+04  8.393757E+03  1.052136E+04
       210   3 -7.621489E+05 -5.751822E+04 -6.751027E+04  2.672594E+04  1.440228E+04  1.232658E+04
       210   4 -5.398761E+05  3.193873E+02 -6.398841E+03  2.581421E+04  4.947310E+03  8.298678E+03
       210   5 -5.390578E+05  6.998381E+01 -1.113018E+04  1.897922E+04  1.051031E+04  1.052552E+04
       210   6 -5.398829E+05 -3.606773E+03 -2.035736E+04  2.582240E+04  1.607457E+04  1.232962E+04
       210   7 -3.938362E+05  3.571332E+04  2.443321E+04  2.679949E+04  7.509080E+03  8.304022E+03
       210   8 -3.549212E+05  4.468214E+04  2.770591E+04  1.902007E+04  1.262748E+04  1.052969E+04
       210   9 -3.175702E+05  5.030147E+04  2.679275E+04  2.491851E+04  1.774744E+04  1.233265E+04
       210  10 -6.858959E+05 -3.507599E+04 -3.723221E+04  2.482915E+04 -2.205879E-09 -2.737817E-09
       210  11 -7.231625E+05 -4.454449E+04 -4.996850E+04  1.893830E+04 -1.243956E-08  6.731881E-10
       210  12 -7.621492E+05 -5.751844E+04 -6.751094E+04  2.672580E+04 -4.618154E-09 -4.028766E-09
       210  13 -5.398761E+05  3.193068E+02 -6.399016E+03  2.581418E+04 -8.196006E-09 -5.598633E-09
       210  14 -5.390580E+05  6.983519E+01 -1.113059E+04  1.897914E+04  3.186844E-09  3.942436E-10
       210  15 -5.398832E+05 -3.607006E+03 -2.035813E+04  2.582224E+04  1.733916E-09 -9.904449E-09
       210  16 -3.938362E+05  3.571323E+04  2.443298E+04  2.679944E+04  6.580058E-09 -1.206540E-09
       210  17 -3.549214E+05  4.468197E+04  2.770540E+04  1.901997E+04  1.078036E-08 -7.784611E-09
       210  18 -3.175706E+05  5.030122E+04  2.679187E+04  2.491833E+04  4.469380E-09  2.276551E-09
       210  19 -6.858959E+05 -3.507592E+04 -3.723207E+04  2.482916E+04 -2.386134E+03 -8.293341E+03
       210  20 -7.231624E+05 -4.454435E+04 -4.996816E+04  1.893837E+04 -8.393757E+03 -1.052136E+04
       210  21 -7.621489E+05 -5.751822E+04 -6.751027E+04  2.672594E+04 -1.440228E+04 -1.232658E+04
       210  22 -5.398761E+05  3.193873E+02 -6.398841E+03  2.581421E+04 -4.947310E+03 -8.298678E+03
       210  23 -5.390578E+05  6.998381E+01 -1.113018E+04  1.897922E+04 -1.051031E+04 -1.052552E+04
       210  24 -5.398829E+05 -3.606773E+03 -2.035736E+04  2.582240E+04 -1.607457E+04 -1.232962E+04
       210  25 -3.938362E+05  3.571332E+04  2.443321E+04  2.679949E+04 -7.509080E+03 -8.304022E+03
       210  26 -3.549212E+05  4.468214E+04  2.770591E+04  1.902007E+04 -1.262748E+04 -1.052969E+04
       210  27 -3.175702E+05  5.030147E+04  2.679275E+04  2.491851E+04 -1.774744E+04 -1.233265E+04
       211   1 -7.954843E+05 -5.760953E+04 -7.897162E+04  1.431092E+04  1.565072E+04  1.423956E+04
       211   2 -8.223508E+05 -7.394827E+04 -1.076823E+05  3.438861E+04  4.846018E+04  1.372461E+04
       211   3 -8.718098E+05 -1.633661E+05 -1.760488E+05  6.775195E+04  8.128225E+04  4.493996E+03
       211   4 -5.441812E+05  3.365836E+03 -2.585422E+04  2.569371E+04  1.964226E+04  1.424736E+04
       211   5 -5.337014E+05 -3.678176E+03 -4.484914E+04  1.913058E+04  4.326428E+04  1.371301E+04
       211   6 -5.442100E+05 -8.218897E+04 -9.710467E+04  2.585544E+04  6.690158E+04  4.462014E+03
       211   7 -2.928181E+05  6.433760E+04  2.725972E+04  3.708115E+04  2.363538E+04  1.425530E+04
       211   8 -2.449733E+05  6.658730E+04  1.797923E+04  3.865322E+03  3.806599E+04  1.370168E+04
       211   9 -2.165076E+05 -1.012855E+03 -1.816645E+04 -1.606332E+04  5.251332E+04  4.431986E+03
       211  10 -7.954846E+05 -5.760981E+04 -7.897246E+04  1.431075E+04  3.701882E-09 -9.194821E-10
       211  11 -8.223533E+05 -7.394911E+04 -1.076870E+05  3.438807E+04  9.646935E-09  4.213762E-09
       211  12 -8.718170E+05 -1.633679E+05 -1.760613E+05  6.775166E+04  9.080853E-09  7.947366E-09
       211  13 -5.441817E+05  3.365514E+03 -2.585533E+04  2.569349E+04 -2.166449E-09 -6.314625E-09
       211  14 -5.337035E+05 -3.678881E+03 -4.485301E+04  1.913010E+04  1.568282E-09  6.950353E-10
       211  15 -5.442149E+05 -8.219019E+04 -9.711312E+04  2.585520E+04  2.668897E-09  2.601799E-09
       211  16 -2.928188E+05  6.433723E+04  2.725829E+04  3.708088E+04 -3.618096E-09  5.125635E-09
       211  17 -2.449749E+05  6.658671E+04  1.797615E+04  3.864901E+03 -3.517011E-09  4.666388E-09
       211  18 -2.165106E+05 -1.013616E+03 -1.817167E+04 -1.606351E+04 -1.194793E-08 -3.299331E-10
       211  19 -7.954843E+05 -5.760953E+04 -7.897162E+04  1.431092E+04 -1.565072E+04 -1.423956E+04
       211  20 -8.223508E+05 -7.394827E+04 -1.076823E+05  3.438861E+04 -4.846018E+04 -1.372461E+04
       211  21 -8.718098E+05 -1.633661E+05 -1.760488E+05  6.775195E+04 -8.128225E+04 -4.493996E+03
       211  22 -5.441812E+05  3.365836E+03 -2.585422E+04  2.569371E+04 -1.964226E+04 -1.424736E+04
       211  23 -5.337014E+05 -3.678176E+03 -4.484914E+04  1.913058E+04 -4.326428E+04 -1.371301E+04
       211  24 -5.442100E+05 -8.218897E+04 -9.710467E+04  2.585544E+04 -6.690158E+04 -4.462014E+03
       211  25 -2.928181E+05  6.433760E+04  2.725972E+04  3.708115E+04 -2.363538E+04 -1.425530E+04
       211  26 -2.449733E+05  6.658730E+04  1.797923E+04  3.865322E+03 -3.806599E+04 -1.370168E+04
       211  27 -2.165076E+05 -1.012855E+03 -1.816645E+04 -1.606332E+04 -5.251332E+04 -4.431986E+03
