    1C
    1UUSER                                                              
    1UDATE              11.october.2022                                 
    1UTIME              18:49:10                                        
    1UHOST                                                              
    1UPGM               CalculiX                                        
    1UVERSION           Version 2.20                             
    1UCOMPILETIME       Sun Jul 31 18:08:37 CEST 2022                    
    1UDIR                                                               
    1UDBN                                                               
    1UMAT    1MESH_MATERIAL                                             
    2C                           409                                     1
 -1         1 0.00000E+00 0.00000E+00 0.00000E+00
 -1         2 1.66667E-02 0.00000E+00 0.00000E+00
 -1         3 3.33333E-02 0.00000E+00 0.00000E+00
 -1         5 6.66667E-02 0.00000E+00 0.00000E+00
 -1         8 0.00000E+00 6.25000E-03 0.00000E+00
 -1         9 1.66667E-02 6.25000E-03 0.00000E+00
 -1        10 3.33333E-02 6.25000E-03 0.00000E+00
 -1        12 6.66667E-02 6.25000E-03 0.00000E+00
 -1        15 0.00000E+00 1.25000E-02 0.00000E+00
 -1        16 1.66667E-02 1.25000E-02 0.00000E+00
 -1        17 3.33333E-02 1.25000E-02 0.00000E+00
 -1        18 5.00000E-02 1.25000E-02 0.00000E+00
 -1        19 6.66667E-02 1.25000E-02 0.00000E+00
 -1        20 8.33333E-02 1.25000E-02 0.00000E+00
 -1        21 1.00000E-01 1.25000E-02 0.00000E+00
 -1        24 3.33333E-02 1.87500E-02 0.00000E+00
 -1        25 5.00000E-02 1.87500E-02 0.00000E+00
 -1        26 6.66667E-02 1.87500E-02 0.00000E+00
 -1        27 8.33333E-02 1.87500E-02 0.00000E+00
 -1        28 1.00000E-01 1.87500E-02 0.00000E+00
 -1        32 5.00000E-02 2.50000E-02 0.00000E+00
 -1        33 6.66667E-02 2.50000E-02 0.00000E+00
 -1        34 8.33333E-02 2.50000E-02 0.00000E+00
 -1        35 1.00000E-01 2.50000E-02 0.00000E+00
 -1        51 0.00000E+00 1.04167E-03 0.00000E+00
 -1        52 0.00000E+00 2.08333E-03 0.00000E+00
 -1        53 0.00000E+00 3.12500E-03 0.00000E+00
 -1        54 0.00000E+00 4.16667E-03 0.00000E+00
 -1        55 0.00000E+00 5.20833E-03 0.00000E+00
 -1        56 1.04167E-03 3.90630E-04 0.00000E+00
 -1        57 2.08333E-03 7.81250E-04 0.00000E+00
 -1        58 3.12500E-03 1.17188E-03 0.00000E+00
 -1        59 4.16667E-03 1.56250E-03 0.00000E+00
 -1        60 5.20833E-03 1.95312E-03 0.00000E+00
 -1        61 6.25000E-03 2.34375E-03 0.00000E+00
 -1        62 7.29167E-03 2.73438E-03 0.00000E+00
 -1        63 8.33333E-03 3.12500E-03 0.00000E+00
 -1        64 9.37500E-03 3.51563E-03 0.00000E+00
 -1        65 1.04167E-02 3.90625E-03 0.00000E+00
 -1        66 1.14583E-02 4.29688E-03 0.00000E+00
 -1        67 1.25000E-02 4.68750E-03 0.00000E+00
 -1        68 1.35417E-02 5.07813E-03 0.00000E+00
 -1        69 1.45833E-02 5.46875E-03 0.00000E+00
 -1        70 1.56250E-02 5.85938E-03 0.00000E+00
 -1        86 1.66667E-02 1.04167E-03 0.00000E+00
 -1        87 1.66667E-02 2.08333E-03 0.00000E+00
 -1        88 1.66667E-02 3.12500E-03 0.00000E+00
 -1        89 1.66667E-02 4.16667E-03 0.00000E+00
 -1        90 1.66667E-02 5.20833E-03 0.00000E+00
 -1       121 3.33333E-02 1.04167E-03 0.00000E+00
 -1       122 3.33333E-02 2.08333E-03 0.00000E+00
 -1       123 3.33333E-02 3.12500E-03 0.00000E+00
 -1       124 3.33333E-02 4.16667E-03 0.00000E+00
 -1       125 3.33333E-02 5.20833E-03 0.00000E+00
 -1       191 6.66667E-02 1.04167E-03 0.00000E+00
 -1       192 6.66667E-02 2.08333E-03 0.00000E+00
 -1       193 6.66667E-02 3.12500E-03 0.00000E+00
 -1       194 6.66667E-02 4.16667E-03 0.00000E+00
 -1       195 6.66667E-02 5.20833E-03 0.00000E+00
 -1       251 1.04167E-03 6.25000E-03 0.00000E+00
 -1       252 2.08333E-03 6.25000E-03 0.00000E+00
 -1       253 3.12500E-03 6.25000E-03 0.00000E+00
 -1       254 4.16667E-03 6.25000E-03 0.00000E+00
 -1       255 5.20833E-03 6.25000E-03 0.00000E+00
 -1       256 6.25000E-03 6.25000E-03 0.00000E+00
 -1       257 7.29167E-03 6.25000E-03 0.00000E+00
 -1       258 8.33333E-03 6.25000E-03 0.00000E+00
 -1       259 9.37500E-03 6.25000E-03 0.00000E+00
 -1       260 1.04167E-02 6.25000E-03 0.00000E+00
 -1       261 1.14583E-02 6.25000E-03 0.00000E+00
 -1       262 1.25000E-02 6.25000E-03 0.00000E+00
 -1       263 1.35417E-02 6.25000E-03 0.00000E+00
 -1       264 1.45833E-02 6.25000E-03 0.00000E+00
 -1       265 1.56250E-02 6.25000E-03 0.00000E+00
 -1       266 0.00000E+00 7.29167E-03 0.00000E+00
 -1       267 0.00000E+00 8.33333E-03 0.00000E+00
 -1       268 0.00000E+00 9.37500E-03 0.00000E+00
 -1       269 0.00000E+00 1.04167E-02 0.00000E+00
 -1       270 0.00000E+00 1.14583E-02 0.00000E+00
 -1       271 1.04167E-03 6.64063E-03 0.00000E+00
 -1       272 2.08333E-03 7.03125E-03 0.00000E+00
 -1       273 3.12500E-03 7.42188E-03 0.00000E+00
 -1       274 4.16667E-03 7.81250E-03 0.00000E+00
 -1       275 5.20833E-03 8.20313E-03 0.00000E+00
 -1       276 6.25000E-03 8.59375E-03 0.00000E+00
 -1       277 7.29167E-03 8.98438E-03 0.00000E+00
 -1       278 8.33333E-03 9.37500E-03 0.00000E+00
 -1       279 9.37500E-03 9.76562E-03 0.00000E+00
 -1       280 1.04167E-02 1.01562E-02 0.00000E+00
 -1       281 1.14583E-02 1.05469E-02 0.00000E+00
 -1       282 1.25000E-02 1.09375E-02 0.00000E+00
 -1       283 1.35417E-02 1.13281E-02 0.00000E+00
 -1       284 1.45833E-02 1.17188E-02 0.00000E+00
 -1       285 1.56250E-02 1.21094E-02 0.00000E+00
 -1       301 1.66667E-02 7.29167E-03 0.00000E+00
 -1       302 1.66667E-02 8.33333E-03 0.00000E+00
 -1       303 1.66667E-02 9.37500E-03 0.00000E+00
 -1       304 1.66667E-02 1.04167E-02 0.00000E+00
 -1       305 1.66667E-02 1.14583E-02 0.00000E+00
 -1       306 1.77083E-02 6.64063E-03 0.00000E+00
 -1       307 1.87500E-02 7.03125E-03 0.00000E+00
 -1       308 1.97917E-02 7.42188E-03 0.00000E+00
 -1       309 2.08333E-02 7.81250E-03 0.00000E+00
 -1       310 2.18750E-02 8.20313E-03 0.00000E+00
 -1       311 2.29167E-02 8.59375E-03 0.00000E+00
 -1       312 2.39583E-02 8.98438E-03 0.00000E+00
 -1       313 2.50000E-02 9.37500E-03 0.00000E+00
 -1       314 2.60417E-02 9.76562E-03 0.00000E+00
 -1       315 2.70833E-02 1.01562E-02 0.00000E+00
 -1       316 2.81250E-02 1.05469E-02 0.00000E+00
 -1       317 2.91667E-02 1.09375E-02 0.00000E+00
 -1       318 3.02083E-02 1.13281E-02 0.00000E+00
 -1       319 3.12500E-02 1.17188E-02 0.00000E+00
 -1       320 3.22917E-02 1.21094E-02 0.00000E+00
 -1       336 3.33333E-02 7.29167E-03 0.00000E+00
 -1       337 3.33333E-02 8.33333E-03 0.00000E+00
 -1       338 3.33333E-02 9.37500E-03 0.00000E+00
 -1       339 3.33333E-02 1.04167E-02 0.00000E+00
 -1       340 3.33333E-02 1.14583E-02 0.00000E+00
 -1       406 6.66667E-02 7.29167E-03 0.00000E+00
 -1       407 6.66667E-02 8.33333E-03 0.00000E+00
 -1       408 6.66667E-02 9.37500E-03 0.00000E+00
 -1       409 6.66667E-02 1.04167E-02 0.00000E+00
 -1       410 6.66667E-02 1.14583E-02 0.00000E+00
 -1       521 1.77083E-02 1.28906E-02 0.00000E+00
 -1       522 1.87500E-02 1.32813E-02 0.00000E+00
 -1       523 1.97917E-02 1.36719E-02 0.00000E+00
 -1       524 2.08333E-02 1.40625E-02 0.00000E+00
 -1       525 2.18750E-02 1.44531E-02 0.00000E+00
 -1       526 2.29167E-02 1.48437E-02 0.00000E+00
 -1       527 2.39583E-02 1.52344E-02 0.00000E+00
 -1       528 2.50000E-02 1.56250E-02 0.00000E+00
 -1       529 2.60417E-02 1.60156E-02 0.00000E+00
 -1       530 2.70833E-02 1.64062E-02 0.00000E+00
 -1       531 2.81250E-02 1.67969E-02 0.00000E+00
 -1       532 2.91667E-02 1.71875E-02 0.00000E+00
 -1       533 3.02083E-02 1.75781E-02 0.00000E+00
 -1       534 3.12500E-02 1.79687E-02 0.00000E+00
 -1       535 3.22917E-02 1.83594E-02 0.00000E+00
 -1       536 3.43750E-02 1.25000E-02 0.00000E+00
 -1       537 3.54167E-02 1.25000E-02 0.00000E+00
 -1       538 3.64583E-02 1.25000E-02 0.00000E+00
 -1       539 3.75000E-02 1.25000E-02 0.00000E+00
 -1       540 3.85417E-02 1.25000E-02 0.00000E+00
 -1       541 3.95833E-02 1.25000E-02 0.00000E+00
 -1       542 4.06250E-02 1.25000E-02 0.00000E+00
 -1       543 4.16667E-02 1.25000E-02 0.00000E+00
 -1       544 4.27083E-02 1.25000E-02 0.00000E+00
 -1       545 4.37500E-02 1.25000E-02 0.00000E+00
 -1       546 4.47917E-02 1.25000E-02 0.00000E+00
 -1       547 4.58333E-02 1.25000E-02 0.00000E+00
 -1       548 4.68750E-02 1.25000E-02 0.00000E+00
 -1       549 4.79167E-02 1.25000E-02 0.00000E+00
 -1       550 4.89583E-02 1.25000E-02 0.00000E+00
 -1       551 3.33333E-02 1.35417E-02 0.00000E+00
 -1       552 3.33333E-02 1.45833E-02 0.00000E+00
 -1       553 3.33333E-02 1.56250E-02 0.00000E+00
 -1       554 3.33333E-02 1.66667E-02 0.00000E+00
 -1       555 3.33333E-02 1.77083E-02 0.00000E+00
 -1       556 3.43750E-02 1.28906E-02 0.00000E+00
 -1       557 3.54167E-02 1.32813E-02 0.00000E+00
 -1       558 3.64583E-02 1.36719E-02 0.00000E+00
 -1       559 3.75000E-02 1.40625E-02 0.00000E+00
 -1       560 3.85417E-02 1.44531E-02 0.00000E+00
 -1       561 3.95833E-02 1.48437E-02 0.00000E+00
 -1       562 4.06250E-02 1.52344E-02 0.00000E+00
 -1       563 4.16667E-02 1.56250E-02 0.00000E+00
 -1       564 4.27083E-02 1.60156E-02 0.00000E+00
 -1       565 4.37500E-02 1.64062E-02 0.00000E+00
 -1       566 4.47917E-02 1.67969E-02 0.00000E+00
 -1       567 4.58333E-02 1.71875E-02 0.00000E+00
 -1       568 4.68750E-02 1.75781E-02 0.00000E+00
 -1       569 4.79167E-02 1.79687E-02 0.00000E+00
 -1       570 4.89583E-02 1.83594E-02 0.00000E+00
 -1       571 5.10417E-02 1.25000E-02 0.00000E+00
 -1       572 5.20833E-02 1.25000E-02 0.00000E+00
 -1       573 5.31250E-02 1.25000E-02 0.00000E+00
 -1       574 5.41667E-02 1.25000E-02 0.00000E+00
 -1       575 5.52083E-02 1.25000E-02 0.00000E+00
 -1       576 5.62500E-02 1.25000E-02 0.00000E+00
 -1       577 5.72917E-02 1.25000E-02 0.00000E+00
 -1       578 5.83333E-02 1.25000E-02 0.00000E+00
 -1       579 5.93750E-02 1.25000E-02 0.00000E+00
 -1       580 6.04167E-02 1.25000E-02 0.00000E+00
 -1       581 6.14583E-02 1.25000E-02 0.00000E+00
 -1       582 6.25000E-02 1.25000E-02 0.00000E+00
 -1       583 6.35417E-02 1.25000E-02 0.00000E+00
 -1       584 6.45833E-02 1.25000E-02 0.00000E+00
 -1       585 6.56250E-02 1.25000E-02 0.00000E+00
 -1       586 5.00000E-02 1.35417E-02 0.00000E+00
 -1       587 5.00000E-02 1.45833E-02 0.00000E+00
 -1       588 5.00000E-02 1.56250E-02 0.00000E+00
 -1       589 5.00000E-02 1.66667E-02 0.00000E+00
 -1       590 5.00000E-02 1.77083E-02 0.00000E+00
 -1       591 5.10417E-02 1.28906E-02 0.00000E+00
 -1       592 5.20833E-02 1.32813E-02 0.00000E+00
 -1       593 5.31250E-02 1.36719E-02 0.00000E+00
 -1       594 5.41667E-02 1.40625E-02 0.00000E+00
 -1       595 5.52083E-02 1.44531E-02 0.00000E+00
 -1       596 5.62500E-02 1.48437E-02 0.00000E+00
 -1       597 5.72917E-02 1.52344E-02 0.00000E+00
 -1       598 5.83333E-02 1.56250E-02 0.00000E+00
 -1       599 5.93750E-02 1.60156E-02 0.00000E+00
 -1       600 6.04167E-02 1.64062E-02 0.00000E+00
 -1       601 6.14583E-02 1.67969E-02 0.00000E+00
 -1       602 6.25000E-02 1.71875E-02 0.00000E+00
 -1       603 6.35417E-02 1.75781E-02 0.00000E+00
 -1       604 6.45833E-02 1.79687E-02 0.00000E+00
 -1       605 6.56250E-02 1.83594E-02 0.00000E+00
 -1       606 6.77083E-02 1.25000E-02 0.00000E+00
 -1       607 6.87500E-02 1.25000E-02 0.00000E+00
 -1       608 6.97917E-02 1.25000E-02 0.00000E+00
 -1       609 7.08333E-02 1.25000E-02 0.00000E+00
 -1       610 7.18750E-02 1.25000E-02 0.00000E+00
 -1       611 7.29167E-02 1.25000E-02 0.00000E+00
 -1       612 7.39583E-02 1.25000E-02 0.00000E+00
 -1       613 7.50000E-02 1.25000E-02 0.00000E+00
 -1       614 7.60417E-02 1.25000E-02 0.00000E+00
 -1       615 7.70833E-02 1.25000E-02 0.00000E+00
 -1       616 7.81250E-02 1.25000E-02 0.00000E+00
 -1       617 7.91667E-02 1.25000E-02 0.00000E+00
 -1       618 8.02083E-02 1.25000E-02 0.00000E+00
 -1       619 8.12500E-02 1.25000E-02 0.00000E+00
 -1       620 8.22917E-02 1.25000E-02 0.00000E+00
 -1       621 6.66667E-02 1.35417E-02 0.00000E+00
 -1       622 6.66667E-02 1.45833E-02 0.00000E+00
 -1       623 6.66667E-02 1.56250E-02 0.00000E+00
 -1       624 6.66667E-02 1.66667E-02 0.00000E+00
 -1       625 6.66667E-02 1.77083E-02 0.00000E+00
 -1       626 6.77083E-02 1.28906E-02 0.00000E+00
 -1       627 6.87500E-02 1.32813E-02 0.00000E+00
 -1       628 6.97917E-02 1.36719E-02 0.00000E+00
 -1       629 7.08333E-02 1.40625E-02 0.00000E+00
 -1       630 7.18750E-02 1.44531E-02 0.00000E+00
 -1       631 7.29167E-02 1.48437E-02 0.00000E+00
 -1       632 7.39583E-02 1.52344E-02 0.00000E+00
 -1       633 7.50000E-02 1.56250E-02 0.00000E+00
 -1       634 7.60417E-02 1.60156E-02 0.00000E+00
 -1       635 7.70833E-02 1.64062E-02 0.00000E+00
 -1       636 7.81250E-02 1.67969E-02 0.00000E+00
 -1       637 7.91667E-02 1.71875E-02 0.00000E+00
 -1       638 8.02083E-02 1.75781E-02 0.00000E+00
 -1       639 8.12500E-02 1.79687E-02 0.00000E+00
 -1       640 8.22917E-02 1.83594E-02 0.00000E+00
 -1       656 8.33333E-02 1.35417E-02 0.00000E+00
 -1       657 8.33333E-02 1.45833E-02 0.00000E+00
 -1       658 8.33333E-02 1.56250E-02 0.00000E+00
 -1       659 8.33333E-02 1.66667E-02 0.00000E+00
 -1       660 8.33333E-02 1.77083E-02 0.00000E+00
 -1       661 8.43750E-02 1.28906E-02 0.00000E+00
 -1       662 8.54167E-02 1.32813E-02 0.00000E+00
 -1       663 8.64583E-02 1.36719E-02 0.00000E+00
 -1       664 8.75000E-02 1.40625E-02 0.00000E+00
 -1       665 8.85417E-02 1.44531E-02 0.00000E+00
 -1       666 8.95833E-02 1.48437E-02 0.00000E+00
 -1       667 9.06250E-02 1.52344E-02 0.00000E+00
 -1       668 9.16667E-02 1.56250E-02 0.00000E+00
 -1       669 9.27083E-02 1.60156E-02 0.00000E+00
 -1       670 9.37500E-02 1.64062E-02 0.00000E+00
 -1       671 9.47917E-02 1.67969E-02 0.00000E+00
 -1       672 9.58333E-02 1.71875E-02 0.00000E+00
 -1       673 9.68750E-02 1.75781E-02 0.00000E+00
 -1       674 9.79167E-02 1.79687E-02 0.00000E+00
 -1       675 9.89583E-02 1.83594E-02 0.00000E+00
 -1       676 1.00000E-01 1.35417E-02 0.00000E+00
 -1       677 1.00000E-01 1.45833E-02 0.00000E+00
 -1       678 1.00000E-01 1.56250E-02 0.00000E+00
 -1       679 1.00000E-01 1.66667E-02 0.00000E+00
 -1       680 1.00000E-01 1.77083E-02 0.00000E+00
 -1       771 3.43750E-02 1.91406E-02 0.00000E+00
 -1       772 3.54167E-02 1.95312E-02 0.00000E+00
 -1       773 3.64583E-02 1.99219E-02 0.00000E+00
 -1       774 3.75000E-02 2.03125E-02 0.00000E+00
 -1       775 3.85417E-02 2.07031E-02 0.00000E+00
 -1       776 3.95833E-02 2.10938E-02 0.00000E+00
 -1       777 4.06250E-02 2.14844E-02 0.00000E+00
 -1       778 4.16667E-02 2.18750E-02 0.00000E+00
 -1       779 4.27083E-02 2.22656E-02 0.00000E+00
 -1       780 4.37500E-02 2.26563E-02 0.00000E+00
 -1       781 4.47917E-02 2.30469E-02 0.00000E+00
 -1       782 4.58333E-02 2.34375E-02 0.00000E+00
 -1       783 4.68750E-02 2.38281E-02 0.00000E+00
 -1       784 4.79167E-02 2.42187E-02 0.00000E+00
 -1       785 4.89583E-02 2.46094E-02 0.00000E+00
 -1       786 5.10417E-02 1.87500E-02 0.00000E+00
 -1       787 5.20833E-02 1.87500E-02 0.00000E+00
 -1       788 5.31250E-02 1.87500E-02 0.00000E+00
 -1       789 5.41667E-02 1.87500E-02 0.00000E+00
 -1       790 5.52083E-02 1.87500E-02 0.00000E+00
 -1       791 5.62500E-02 1.87500E-02 0.00000E+00
 -1       792 5.72917E-02 1.87500E-02 0.00000E+00
 -1       793 5.83333E-02 1.87500E-02 0.00000E+00
 -1       794 5.93750E-02 1.87500E-02 0.00000E+00
 -1       795 6.04167E-02 1.87500E-02 0.00000E+00
 -1       796 6.14583E-02 1.87500E-02 0.00000E+00
 -1       797 6.25000E-02 1.87500E-02 0.00000E+00
 -1       798 6.35417E-02 1.87500E-02 0.00000E+00
 -1       799 6.45833E-02 1.87500E-02 0.00000E+00
 -1       800 6.56250E-02 1.87500E-02 0.00000E+00
 -1       801 5.00000E-02 1.97917E-02 0.00000E+00
 -1       802 5.00000E-02 2.08333E-02 0.00000E+00
 -1       803 5.00000E-02 2.18750E-02 0.00000E+00
 -1       804 5.00000E-02 2.29167E-02 0.00000E+00
 -1       805 5.00000E-02 2.39583E-02 0.00000E+00
 -1       806 5.10417E-02 1.91406E-02 0.00000E+00
 -1       807 5.20833E-02 1.95312E-02 0.00000E+00
 -1       808 5.31250E-02 1.99219E-02 0.00000E+00
 -1       809 5.41667E-02 2.03125E-02 0.00000E+00
 -1       810 5.52083E-02 2.07031E-02 0.00000E+00
 -1       811 5.62500E-02 2.10938E-02 0.00000E+00
 -1       812 5.72917E-02 2.14844E-02 0.00000E+00
 -1       813 5.83333E-02 2.18750E-02 0.00000E+00
 -1       814 5.93750E-02 2.22656E-02 0.00000E+00
 -1       815 6.04167E-02 2.26563E-02 0.00000E+00
 -1       816 6.14583E-02 2.30469E-02 0.00000E+00
 -1       817 6.25000E-02 2.34375E-02 0.00000E+00
 -1       818 6.35417E-02 2.38281E-02 0.00000E+00
 -1       819 6.45833E-02 2.42187E-02 0.00000E+00
 -1       820 6.56250E-02 2.46094E-02 0.00000E+00
 -1       821 6.77083E-02 1.87500E-02 0.00000E+00
 -1       822 6.87500E-02 1.87500E-02 0.00000E+00
 -1       823 6.97917E-02 1.87500E-02 0.00000E+00
 -1       824 7.08333E-02 1.87500E-02 0.00000E+00
 -1       825 7.18750E-02 1.87500E-02 0.00000E+00
 -1       826 7.29167E-02 1.87500E-02 0.00000E+00
 -1       827 7.39583E-02 1.87500E-02 0.00000E+00
 -1       828 7.50000E-02 1.87500E-02 0.00000E+00
 -1       829 7.60417E-02 1.87500E-02 0.00000E+00
 -1       830 7.70833E-02 1.87500E-02 0.00000E+00
 -1       831 7.81250E-02 1.87500E-02 0.00000E+00
 -1       832 7.91667E-02 1.87500E-02 0.00000E+00
 -1       833 8.02083E-02 1.87500E-02 0.00000E+00
 -1       834 8.12500E-02 1.87500E-02 0.00000E+00
 -1       835 8.22917E-02 1.87500E-02 0.00000E+00
 -1       836 6.66667E-02 1.97917E-02 0.00000E+00
 -1       837 6.66667E-02 2.08333E-02 0.00000E+00
 -1       838 6.66667E-02 2.18750E-02 0.00000E+00
 -1       839 6.66667E-02 2.29167E-02 0.00000E+00
 -1       840 6.66667E-02 2.39583E-02 0.00000E+00
 -1       856 8.43750E-02 1.87500E-02 0.00000E+00
 -1       857 8.54167E-02 1.87500E-02 0.00000E+00
 -1       858 8.64583E-02 1.87500E-02 0.00000E+00
 -1       859 8.75000E-02 1.87500E-02 0.00000E+00
 -1       860 8.85417E-02 1.87500E-02 0.00000E+00
 -1       861 8.95833E-02 1.87500E-02 0.00000E+00
 -1       862 9.06250E-02 1.87500E-02 0.00000E+00
 -1       863 9.16667E-02 1.87500E-02 0.00000E+00
 -1       864 9.27083E-02 1.87500E-02 0.00000E+00
 -1       865 9.37500E-02 1.87500E-02 0.00000E+00
 -1       866 9.47917E-02 1.87500E-02 0.00000E+00
 -1       867 9.58333E-02 1.87500E-02 0.00000E+00
 -1       868 9.68750E-02 1.87500E-02 0.00000E+00
 -1       869 9.79167E-02 1.87500E-02 0.00000E+00
 -1       870 9.89583E-02 1.87500E-02 0.00000E+00
 -1       871 8.33333E-02 1.97917E-02 0.00000E+00
 -1       872 8.33333E-02 2.08333E-02 0.00000E+00
 -1       873 8.33333E-02 2.18750E-02 0.00000E+00
 -1       874 8.33333E-02 2.29167E-02 0.00000E+00
 -1       875 8.33333E-02 2.39583E-02 0.00000E+00
 -1       876 8.43750E-02 1.91406E-02 0.00000E+00
 -1       877 8.54167E-02 1.95312E-02 0.00000E+00
 -1       878 8.64583E-02 1.99219E-02 0.00000E+00
 -1       879 8.75000E-02 2.03125E-02 0.00000E+00
 -1       880 8.85417E-02 2.07031E-02 0.00000E+00
 -1       881 8.95833E-02 2.10938E-02 0.00000E+00
 -1       882 9.06250E-02 2.14844E-02 0.00000E+00
 -1       883 9.16667E-02 2.18750E-02 0.00000E+00
 -1       884 9.27083E-02 2.22656E-02 0.00000E+00
 -1       885 9.37500E-02 2.26563E-02 0.00000E+00
 -1       886 9.47917E-02 2.30469E-02 0.00000E+00
 -1       887 9.58333E-02 2.34375E-02 0.00000E+00
 -1       888 9.68750E-02 2.38281E-02 0.00000E+00
 -1       889 9.79167E-02 2.42187E-02 0.00000E+00
 -1       890 9.89583E-02 2.46094E-02 0.00000E+00
 -1       891 1.00000E-01 1.97917E-02 0.00000E+00
 -1       892 1.00000E-01 2.08333E-02 0.00000E+00
 -1       893 1.00000E-01 2.18750E-02 0.00000E+00
 -1       894 1.00000E-01 2.29167E-02 0.00000E+00
 -1       895 1.00000E-01 2.39583E-02 0.00000E+00
 -1       956 6.77083E-02 2.50000E-02 0.00000E+00
 -1       957 6.87500E-02 2.50000E-02 0.00000E+00
 -1       958 6.97917E-02 2.50000E-02 0.00000E+00
 -1       959 7.08333E-02 2.50000E-02 0.00000E+00
 -1       960 7.18750E-02 2.50000E-02 0.00000E+00
 -1       961 7.29167E-02 2.50000E-02 0.00000E+00
 -1       962 7.39583E-02 2.50000E-02 0.00000E+00
 -1       963 7.50000E-02 2.50000E-02 0.00000E+00
 -1       964 7.60417E-02 2.50000E-02 0.00000E+00
 -1       965 7.70833E-02 2.50000E-02 0.00000E+00
 -1       966 7.81250E-02 2.50000E-02 0.00000E+00
 -1       967 7.91667E-02 2.50000E-02 0.00000E+00
 -1       968 8.02083E-02 2.50000E-02 0.00000E+00
 -1       969 8.12500E-02 2.50000E-02 0.00000E+00
 -1       970 8.22917E-02 2.50000E-02 0.00000E+00
 -1       971 8.43750E-02 2.50000E-02 0.00000E+00
 -1       972 8.54167E-02 2.50000E-02 0.00000E+00
 -1       973 8.64583E-02 2.50000E-02 0.00000E+00
 -1       974 8.75000E-02 2.50000E-02 0.00000E+00
 -1       975 8.85417E-02 2.50000E-02 0.00000E+00
 -1       976 8.95833E-02 2.50000E-02 0.00000E+00
 -1       977 9.06250E-02 2.50000E-02 0.00000E+00
 -1       978 9.16667E-02 2.50000E-02 0.00000E+00
 -1       979 9.27083E-02 2.50000E-02 0.00000E+00
 -1       980 9.37500E-02 2.50000E-02 0.00000E+00
 -1       981 9.47917E-02 2.50000E-02 0.00000E+00
 -1       982 9.58333E-02 2.50000E-02 0.00000E+00
 -1       983 9.68750E-02 2.50000E-02 0.00000E+00
 -1       984 9.79167E-02 2.50000E-02 0.00000E+00
 -1       985 9.89583E-02 2.50000E-02 0.00000E+00
 -3
    3C                           211                                     1
 -1         1   12    0    1
 -2         1        52        51
 -1         2   12    0    1
 -2        52        54        53
 -1         3   12    0    1
 -2        54         8        55
 -1         4   12    0    1
 -2         1        57        56
 -1         5   12    0    1
 -2        57        59        58
 -1         6   12    0    1
 -2        59        61        60
 -1         7   12    0    1
 -2        61        63        62
 -1         8   12    0    1
 -2        63        65        64
 -1         9   12    0    1
 -2        65        67        66
 -1        10   12    0    1
 -2        67        69        68
 -1        11   12    0    1
 -2        69         9        70
 -1        12   12    0    1
 -2         2        87        86
 -1        13   12    0    1
 -2        87        89        88
 -1        14   12    0    1
 -2        89         9        90
 -1        15   12    0    1
 -2         3       122       121
 -1        16   12    0    1
 -2       122       124       123
 -1        17   12    0    1
 -2       124        10       125
 -1        18   12    0    1
 -2         5       192       191
 -1        19   12    0    1
 -2       192       194       193
 -1        20   12    0    1
 -2       194        12       195
 -1        21   12    0    1
 -2         8       252       251
 -1        22   12    0    1
 -2       252       254       253
 -1        23   12    0    1
 -2       254       256       255
 -1        24   12    0    1
 -2       256       258       257
 -1        25   12    0    1
 -2       258       260       259
 -1        26   12    0    1
 -2       260       262       261
 -1        27   12    0    1
 -2       262       264       263
 -1        28   12    0    1
 -2       264         9       265
 -1        29   12    0    1
 -2         8       267       266
 -1        30   12    0    1
 -2       267       269       268
 -1        31   12    0    1
 -2       269        15       270
 -1        32   12    0    1
 -2         8       272       271
 -1        33   12    0    1
 -2       272       274       273
 -1        34   12    0    1
 -2       274       276       275
 -1        35   12    0    1
 -2       276       278       277
 -1        36   12    0    1
 -2       278       280       279
 -1        37   12    0    1
 -2       280       282       281
 -1        38   12    0    1
 -2       282       284       283
 -1        39   12    0    1
 -2       284        16       285
 -1        40   12    0    1
 -2         9       302       301
 -1        41   12    0    1
 -2       302       304       303
 -1        42   12    0    1
 -2       304        16       305
 -1        43   12    0    1
 -2         9       307       306
 -1        44   12    0    1
 -2       307       309       308
 -1        45   12    0    1
 -2       309       311       310
 -1        46   12    0    1
 -2       311       313       312
 -1        47   12    0    1
 -2       313       315       314
 -1        48   12    0    1
 -2       315       317       316
 -1        49   12    0    1
 -2       317       319       318
 -1        50   12    0    1
 -2       319        17       320
 -1        51   12    0    1
 -2        10       337       336
 -1        52   12    0    1
 -2       337       339       338
 -1        53   12    0    1
 -2       339        17       340
 -1        54   12    0    1
 -2        12       407       406
 -1        55   12    0    1
 -2       407       409       408
 -1        56   12    0    1
 -2       409        19       410
 -1        57   12    0    1
 -2        16       522       521
 -1        58   12    0    1
 -2       522       524       523
 -1        59   12    0    1
 -2       524       526       525
 -1        60   12    0    1
 -2       526       528       527
 -1        61   12    0    1
 -2       528       530       529
 -1        62   12    0    1
 -2       530       532       531
 -1        63   12    0    1
 -2       532       534       533
 -1        64   12    0    1
 -2       534        24       535
 -1        65   12    0    1
 -2        17       537       536
 -1        66   12    0    1
 -2       537       539       538
 -1        67   12    0    1
 -2       539       541       540
 -1        68   12    0    1
 -2       541       543       542
 -1        69   12    0    1
 -2       543       545       544
 -1        70   12    0    1
 -2       545       547       546
 -1        71   12    0    1
 -2       547       549       548
 -1        72   12    0    1
 -2       549        18       550
 -1        73   12    0    1
 -2        17       552       551
 -1        74   12    0    1
 -2       552       554       553
 -1        75   12    0    1
 -2       554        24       555
 -1        76   12    0    1
 -2        17       557       556
 -1        77   12    0    1
 -2       557       559       558
 -1        78   12    0    1
 -2       559       561       560
 -1        79   12    0    1
 -2       561       563       562
 -1        80   12    0    1
 -2       563       565       564
 -1        81   12    0    1
 -2       565       567       566
 -1        82   12    0    1
 -2       567       569       568
 -1        83   12    0    1
 -2       569        25       570
 -1        84   12    0    1
 -2        18       572       571
 -1        85   12    0    1
 -2       572       574       573
 -1        86   12    0    1
 -2       574       576       575
 -1        87   12    0    1
 -2       576       578       577
 -1        88   12    0    1
 -2       578       580       579
 -1        89   12    0    1
 -2       580       582       581
 -1        90   12    0    1
 -2       582       584       583
 -1        91   12    0    1
 -2       584        19       585
 -1        92   12    0    1
 -2        18       587       586
 -1        93   12    0    1
 -2       587       589       588
 -1        94   12    0    1
 -2       589        25       590
 -1        95   12    0    1
 -2        18       592       591
 -1        96   12    0    1
 -2       592       594       593
 -1        97   12    0    1
 -2       594       596       595
 -1        98   12    0    1
 -2       596       598       597
 -1        99   12    0    1
 -2       598       600       599
 -1       100   12    0    1
 -2       600       602       601
 -1       101   12    0    1
 -2       602       604       603
 -1       102   12    0    1
 -2       604        26       605
 -1       103   12    0    1
 -2        19       607       606
 -1       104   12    0    1
 -2       607       609       608
 -1       105   12    0    1
 -2       609       611       610
 -1       106   12    0    1
 -2       611       613       612
 -1       107   12    0    1
 -2       613       615       614
 -1       108   12    0    1
 -2       615       617       616
 -1       109   12    0    1
 -2       617       619       618
 -1       110   12    0    1
 -2       619        20       620
 -1       111   12    0    1
 -2        19       622       621
 -1       112   12    0    1
 -2       622       624       623
 -1       113   12    0    1
 -2       624        26       625
 -1       114   12    0    1
 -2        19       627       626
 -1       115   12    0    1
 -2       627       629       628
 -1       116   12    0    1
 -2       629       631       630
 -1       117   12    0    1
 -2       631       633       632
 -1       118   12    0    1
 -2       633       635       634
 -1       119   12    0    1
 -2       635       637       636
 -1       120   12    0    1
 -2       637       639       638
 -1       121   12    0    1
 -2       639        27       640
 -1       122   12    0    1
 -2        20       657       656
 -1       123   12    0    1
 -2       657       659       658
 -1       124   12    0    1
 -2       659        27       660
 -1       125   12    0    1
 -2        20       662       661
 -1       126   12    0    1
 -2       662       664       663
 -1       127   12    0    1
 -2       664       666       665
 -1       128   12    0    1
 -2       666       668       667
 -1       129   12    0    1
 -2       668       670       669
 -1       130   12    0    1
 -2       670       672       671
 -1       131   12    0    1
 -2       672       674       673
 -1       132   12    0    1
 -2       674        28       675
 -1       133   12    0    1
 -2        21       677       676
 -1       134   12    0    1
 -2       677       679       678
 -1       135   12    0    1
 -2       679        28       680
 -1       136   12    0    1
 -2        24       772       771
 -1       137   12    0    1
 -2       772       774       773
 -1       138   12    0    1
 -2       774       776       775
 -1       139   12    0    1
 -2       776       778       777
 -1       140   12    0    1
 -2       778       780       779
 -1       141   12    0    1
 -2       780       782       781
 -1       142   12    0    1
 -2       782       784       783
 -1       143   12    0    1
 -2       784        32       785
 -1       144   12    0    1
 -2        25       787       786
 -1       145   12    0    1
 -2       787       789       788
 -1       146   12    0    1
 -2       789       791       790
 -1       147   12    0    1
 -2       791       793       792
 -1       148   12    0    1
 -2       793       795       794
 -1       149   12    0    1
 -2       795       797       796
 -1       150   12    0    1
 -2       797       799       798
 -1       151   12    0    1
 -2       799        26       800
 -1       152   12    0    1
 -2        25       802       801
 -1       153   12    0    1
 -2       802       804       803
 -1       154   12    0    1
 -2       804        32       805
 -1       155   12    0    1
 -2        25       807       806
 -1       156   12    0    1
 -2       807       809       808
 -1       157   12    0    1
 -2       809       811       810
 -1       158   12    0    1
 -2       811       813       812
 -1       159   12    0    1
 -2       813       815       814
 -1       160   12    0    1
 -2       815       817       816
 -1       161   12    0    1
 -2       817       819       818
 -1       162   12    0    1
 -2       819        33       820
 -1       163   12    0    1
 -2        26       822       821
 -1       164   12    0    1
 -2       822       824       823
 -1       165   12    0    1
 -2       824       826       825
 -1       166   12    0    1
 -2       826       828       827
 -1       167   12    0    1
 -2       828       830       829
 -1       168   12    0    1
 -2       830       832       831
 -1       169   12    0    1
 -2       832       834       833
 -1       170   12    0    1
 -2       834        27       835
 -1       171   12    0    1
 -2        26       837       836
 -1       172   12    0    1
 -2       837       839       838
 -1       173   12    0    1
 -2       839        33       840
 -1       174   12    0    1
 -2        27       857       856
 -1       175   12    0    1
 -2       857       859       858
 -1       176   12    0    1
 -2       859       861       860
 -1       177   12    0    1
 -2       861       863       862
 -1       178   12    0    1
 -2       863       865       864
 -1       179   12    0    1
 -2       865       867       866
 -1       180   12    0    1
 -2       867       869       868
 -1       181   12    0    1
 -2       869        28       870
 -1       182   12    0    1
 -2        27       872       871
 -1       183   12    0    1
 -2       872       874       873
 -1       184   12    0    1
 -2       874        34       875
 -1       185   12    0    1
 -2        27       877       876
 -1       186   12    0    1
 -2       877       879       878
 -1       187   12    0    1
 -2       879       881       880
 -1       188   12    0    1
 -2       881       883       882
 -1       189   12    0    1
 -2       883       885       884
 -1       190   12    0    1
 -2       885       887       886
 -1       191   12    0    1
 -2       887       889       888
 -1       192   12    0    1
 -2       889        35       890
 -1       193   12    0    1
 -2        28       892       891
 -1       194   12    0    1
 -2       892       894       893
 -1       195   12    0    1
 -2       894        35       895
 -1       196   12    0    1
 -2        33       957       956
 -1       197   12    0    1
 -2       957       959       958
 -1       198   12    0    1
 -2       959       961       960
 -1       199   12    0    1
 -2       961       963       962
 -1       200   12    0    1
 -2       963       965       964
 -1       201   12    0    1
 -2       965       967       966
 -1       202   12    0    1
 -2       967       969       968
 -1       203   12    0    1
 -2       969        34       970
 -1       204   12    0    1
 -2        34       972       971
 -1       205   12    0    1
 -2       972       974       973
 -1       206   12    0    1
 -2       974       976       975
 -1       207   12    0    1
 -2       976       978       977
 -1       208   12    0    1
 -2       978       980       979
 -1       209   12    0    1
 -2       980       982       981
 -1       210   12    0    1
 -2       982       984       983
 -1       211   12    0    1
 -2       984        35       985
 -3
    1PSTEP                         1           1           1          
  100CL  101 1.000000000         409                     0    1           1
 -4  DISP        4    1
 -5  D1          1    2    1    0
 -5  D2          1    2    2    0
 -5  D3          1    2    3    0
 -5  ALL         1    2    0    0    1ALL
 -1         1 2.78140E-04 0.00000E+00 0.00000E+00
 -1         2 2.57970E-04-3.81556E-28 1.32349E-23
 -1         3 2.57269E-04-2.37322E-26 1.32349E-23
 -1         5 1.72788E-04-6.09786E-26-6.61744E-24
 -1         8 2.29858E-04-1.97353E-06 0.00000E+00
 -1         9 2.33451E-04 2.37775E-06 0.00000E+00
 -1        10 2.35915E-04-3.46873E-06 0.00000E+00
 -1        12 1.71883E-04 1.10481E-06 0.00000E+00
 -1        15 1.73114E-04-2.27904E-06 0.00000E+00
 -1        16 1.77111E-04 2.19465E-06 0.00000E+00
 -1        17 1.69653E-04-7.50186E-06 0.00000E+00
 -1        18 1.67028E-04 3.05120E-06 0.00000E+00
 -1        19 1.69167E-04 2.20350E-06 0.00000E+00
 -1        20 1.69498E-04 2.92960E-05 0.00000E+00
 -1        21 1.67623E-04 5.69032E-05 0.00000E+00
 -1        24 3.94604E-05-1.09387E-05 0.00000E+00
 -1        25 1.64288E-04 3.31408E-06 0.00000E+00
 -1        26 1.66237E-04 3.05423E-06 0.00000E+00
 -1        27 1.63111E-04 2.58124E-05 0.00000E+00
 -1        28 1.61901E-04 5.60323E-05 0.00000E+00
 -1        32 0.00000E+00 0.00000E+00 0.00000E+00
 -1        33 1.60947E-04 4.16527E-06 0.00000E+00
 -1        34 1.57951E-04 2.57538E-05 0.00000E+00
 -1        35 1.55093E-04 5.55316E-05 0.00000E+00
 -1        51 2.74945E-04-3.16467E-07 0.00000E+00
 -1        52 2.69098E-04-6.27570E-07 0.00000E+00
 -1        53 2.61120E-04-9.45745E-07 0.00000E+00
 -1        54 2.51557E-04-1.27428E-06 0.00000E+00
 -1        55 2.40954E-04-1.61361E-06-8.16841E-24
 -1        56 2.76084E-04-1.55798E-06 0.00000E+00
 -1        57 2.74415E-04-4.39212E-06 0.00000E+00
 -1        58 2.73099E-04-8.16124E-06 5.29396E-23
 -1        59 2.71986E-04-1.25155E-05-2.64698E-23
 -1        60 2.70938E-04-1.70492E-05 0.00000E+00
 -1        61 2.69803E-04-2.13533E-05-2.64698E-23
 -1        62 2.68436E-04-2.50355E-05 0.00000E+00
 -1        63 2.66703E-04-2.77341E-05-2.64698E-23
 -1        64 2.64495E-04-2.91639E-05 0.00000E+00
 -1        65 2.61727E-04-2.91000E-05 2.64698E-23
 -1        66 2.58355E-04-2.74336E-05-5.29396E-23
 -1        67 2.54366E-04-2.41316E-05 2.64698E-23
 -1        68 2.49791E-04-1.92885E-05 0.00000E+00
 -1        69 2.44704E-04-1.30672E-05 0.00000E+00
 -1        70 2.39191E-04-5.74634E-06-5.29396E-23
 -1        86 2.57379E-04 4.19284E-07 0.00000E+00
 -1        87 2.55600E-04 8.35917E-07 6.61744E-24
 -1        88 2.52512E-04 1.24922E-06-6.61744E-24
 -1        89 2.47978E-04 1.64903E-06-1.65436E-24
 -1        90 2.41724E-04 2.04254E-06 0.00000E+00
 -1       121 2.56670E-04-5.70068E-07-1.32349E-23
 -1       122 2.54875E-04-1.14152E-06 0.00000E+00
 -1       123 2.51890E-04-1.71572E-06 1.32349E-23
 -1       124 2.47725E-04-2.29408E-06 0.00000E+00
 -1       125 2.42394E-04-2.87773E-06 1.32349E-23
 -1       191 1.72762E-04 1.84156E-07 0.00000E+00
 -1       192 1.72687E-04 3.68307E-07 3.30872E-24
 -1       193 1.72561E-04 5.52454E-07 0.00000E+00
 -1       194 1.72385E-04 7.36591E-07 6.61744E-24
 -1       195 1.72159E-04 9.20712E-07 0.00000E+00
 -1       251 2.30026E-04 5.82212E-06 6.61744E-24
 -1       252 2.30248E-04 1.04153E-05 2.06795E-25
 -1       253 2.30477E-04 1.23963E-05 0.00000E+00
 -1       254 2.30715E-04 1.23314E-05 0.00000E+00
 -1       255 2.30952E-04 1.06817E-05 0.00000E+00
 -1       256 2.31188E-04 7.89420E-06-3.30872E-24
 -1       257 2.31422E-04 4.35675E-06 0.00000E+00
 -1       258 2.31655E-04 4.50648E-07 0.00000E+00
 -1       259 2.31887E-04-3.46217E-06 6.61744E-24
 -1       260 2.32121E-04-7.01971E-06 0.00000E+00
 -1       261 2.32357E-04-9.84141E-06 0.00000E+00
 -1       262 2.32594E-04-1.15404E-05 0.00000E+00
 -1       263 2.32831E-04-1.16714E-05 0.00000E+00
 -1       264 2.33061E-04-9.77504E-06 0.00000E+00
 -1       265 2.33284E-04-5.28771E-06-6.61744E-24
 -1       266 2.20401E-04-2.04840E-06-1.32349E-23
 -1       267 2.10944E-04-2.09642E-06-3.30872E-24
 -1       268 2.01486E-04-2.14608E-06-3.30872E-24
 -1       269 1.92029E-04-2.19076E-06 0.00000E+00
 -1       270 1.82571E-04-2.23530E-06 0.00000E+00
 -1       271 2.24080E-04 5.10912E-06 5.29396E-23
 -1       272 2.19173E-04 9.63889E-06 0.00000E+00
 -1       273 2.15151E-04 1.18507E-05 1.05879E-22
 -1       274 2.11887E-04 1.20115E-05 0.00000E+00
 -1       275 2.09265E-04 1.04591E-05 0.00000E+00
 -1       276 2.07137E-04 7.57927E-06 0.00000E+00
 -1       277 2.05344E-04 3.79869E-06 1.05879E-22
 -1       278 2.03717E-04-4.28901E-07-5.29396E-23
 -1       279 2.02082E-04-4.63632E-06-1.05879E-22
 -1       280 2.00267E-04-8.35688E-06 5.29396E-23
 -1       281 1.98102E-04-1.11387E-05 1.05879E-22
 -1       282 1.95429E-04-1.25587E-05 5.29396E-23
 -1       283 1.92102E-04-1.22349E-05 1.05879E-22
 -1       284 1.88002E-04-9.83576E-06 2.64698E-23
 -1       285 1.83010E-04-5.09829E-06 5.29396E-23
 -1       301 2.24173E-04 2.33640E-06 0.00000E+00
 -1       302 2.14884E-04 2.32466E-06-3.30872E-24
 -1       303 2.05560E-04 2.31367E-06 0.00000E+00
 -1       304 1.96173E-04 2.29875E-06 6.61744E-24
 -1       305 1.86699E-04 2.27760E-06 2.64698E-23
 -1       306 2.25586E-04 1.24868E-05 5.29396E-23
 -1       307 2.16310E-04 2.58602E-05 5.29396E-23
 -1       308 2.07185E-04 3.88667E-05 0.00000E+00
 -1       309 1.99600E-04 4.78472E-05 0.00000E+00
 -1       310 1.94452E-04 5.04516E-05 1.05879E-22
 -1       311 1.92324E-04 4.49903E-05 0.00000E+00
 -1       312 1.92819E-04 3.23807E-05-1.05879E-22
 -1       313 1.95278E-04 1.43104E-05 0.00000E+00
 -1       314 1.98447E-04-5.75070E-06-1.05879E-22
 -1       315 2.01013E-04-2.41138E-05 0.00000E+00
 -1       316 2.01842E-04-3.76479E-05-1.05879E-22
 -1       317 1.99955E-04-4.37471E-05 0.00000E+00
 -1       318 1.95219E-04-4.22226E-05 1.05879E-22
 -1       319 1.87832E-04-3.36892E-05 5.29396E-23
 -1       320 1.78838E-04-2.10329E-05 0.00000E+00
 -1       336 2.28171E-04-4.10999E-06 0.00000E+00
 -1       337 2.19053E-04-4.76313E-06 6.61744E-24
 -1       338 2.08597E-04-5.42863E-06 1.32349E-23
 -1       339 1.96845E-04-6.10703E-06 6.61744E-24
 -1       340 1.83845E-04-6.80025E-06 0.00000E+00
 -1       406 1.71556E-04 1.28887E-06-1.32349E-23
 -1       407 1.71179E-04 1.47286E-06 0.00000E+00
 -1       408 1.70751E-04 1.65672E-06 0.00000E+00
 -1       409 1.70273E-04 1.84023E-06-3.30872E-24
 -1       410 1.69745E-04 2.02304E-06 6.61744E-24
 -1       521 1.60124E-04 2.82817E-05 0.00000E+00
 -1       522 1.29708E-04 8.55529E-05 0.00000E+00
 -1       523 9.57370E-05 1.50912E-04 0.00000E+00
 -1       524 6.89252E-05 1.99974E-04-1.05879E-22
 -1       525 5.61380E-05 2.14755E-04-2.11758E-22
 -1       526 6.06741E-05 1.82428E-04-1.05879E-22
 -1       527 7.84606E-05 1.09151E-04 0.00000E+00
 -1       528 1.04182E-04 8.16022E-06 1.05879E-22
 -1       529 1.30637E-04-9.54844E-05 2.11758E-22
 -1       530 1.50656E-04-1.76243E-04 0.00000E+00
 -1       531 1.58501E-04-2.18379E-04-2.11758E-22
 -1       532 1.49324E-04-2.12899E-04 1.05879E-22
 -1       533 1.25188E-04-1.70112E-04-2.11758E-22
 -1       534 9.17837E-05-1.06039E-04 0.00000E+00
 -1       535 5.97318E-05-4.50505E-05-1.05879E-22
 -1       536 1.69404E-04 6.11936E-06 6.61744E-24
 -1       537 1.69195E-04 1.74464E-05-3.30872E-24
 -1       538 1.69008E-04 2.63479E-05-6.61744E-24
 -1       539 1.68842E-04 3.27070E-05 0.00000E+00
 -1       540 1.68689E-04 3.65953E-05 0.00000E+00
 -1       541 1.68542E-04 3.80990E-05 0.00000E+00
 -1       542 1.68396E-04 3.74811E-05-3.30872E-24
 -1       543 1.68247E-04 3.50172E-05 0.00000E+00
 -1       544 1.68094E-04 3.11196E-05 3.30872E-24
 -1       545 1.67937E-04 2.62091E-05 1.65436E-24
 -1       546 1.67778E-04 2.07816E-05 3.30872E-24
 -1       547 1.67619E-04 1.53360E-05 0.00000E+00
 -1       548 1.67462E-04 1.03724E-05-3.30872E-24
 -1       549 1.67311E-04 6.38846E-06 1.65436E-24
 -1       550 1.67164E-04 3.80922E-06 1.65436E-24
 -1       551 1.51715E-04-7.99857E-06 0.00000E+00
 -1       552 1.30893E-04-8.53921E-06-6.61744E-24
 -1       553 1.08215E-04-9.11593E-06 6.61744E-24
 -1       554 8.47227E-05-9.71419E-06 0.00000E+00
 -1       555 6.14594E-05-1.03135E-05-2.64698E-23
 -1       556 1.64691E-04 5.23108E-06 0.00000E+00
 -1       557 1.60888E-04 1.50268E-05 0.00000E+00
 -1       558 1.58115E-04 2.21516E-05 0.00000E+00
 -1       559 1.56256E-04 2.68925E-05 0.00000E+00
 -1       560 1.55193E-04 2.95367E-05 0.00000E+00
 -1       561 1.54814E-04 3.03733E-05 0.00000E+00
 -1       562 1.55005E-04 2.96922E-05 0.00000E+00
 -1       563 1.55655E-04 2.77839E-05 0.00000E+00
 -1       564 1.56655E-04 2.49396E-05 0.00000E+00
 -1       565 1.57894E-04 2.14507E-05 0.00000E+00
 -1       566 1.59265E-04 1.76090E-05 0.00000E+00
 -1       567 1.60658E-04 1.37064E-05 4.13590E-25
 -1       568 1.61966E-04 1.00347E-05 0.00000E+00
 -1       569 1.63079E-04 6.88547E-06 0.00000E+00
 -1       570 1.63889E-04 4.55018E-06 0.00000E+00
 -1       571 1.67158E-04 3.08615E-06-2.48154E-24
 -1       572 1.67290E-04 3.03217E-06 4.13590E-25
 -1       573 1.67424E-04 2.90501E-06 3.30872E-24
 -1       574 1.67558E-04 2.72127E-06-1.65436E-24
 -1       575 1.67692E-04 2.49763E-06 0.00000E+00
 -1       576 1.67826E-04 2.25086E-06 0.00000E+00
 -1       577 1.67960E-04 1.99776E-06 0.00000E+00
 -1       578 1.68094E-04 1.75513E-06-3.30872E-24
 -1       579 1.68228E-04 1.53977E-06 0.00000E+00
 -1       580 1.68362E-04 1.36849E-06 0.00000E+00
 -1       581 1.68497E-04 1.25810E-06 0.00000E+00
 -1       582 1.68631E-04 1.22538E-06 0.00000E+00
 -1       583 1.68765E-04 1.28712E-06-6.61744E-24
 -1       584 1.68899E-04 1.45992E-06-3.30872E-24
 -1       585 1.69033E-04 1.76029E-06 6.61744E-24
 -1       586 1.66525E-04 3.09741E-06 0.00000E+00
 -1       587 1.65963E-04 3.14269E-06 0.00000E+00
 -1       588 1.65402E-04 3.18755E-06 0.00000E+00
 -1       589 1.64897E-04 3.23176E-06 0.00000E+00
 -1       590 1.64508E-04 3.27483E-06 0.00000E+00
 -1       591 1.66946E-04 3.15287E-06 0.00000E+00
 -1       592 1.66886E-04 3.18319E-06 4.13590E-25
 -1       593 1.66846E-04 3.15562E-06 0.00000E+00
 -1       594 1.66823E-04 3.08223E-06 8.27181E-25
 -1       595 1.66813E-04 2.97527E-06 0.00000E+00
 -1       596 1.66811E-04 2.84687E-06 8.27181E-25
 -1       597 1.66812E-04 2.70916E-06 0.00000E+00
 -1       598 1.66812E-04 2.57429E-06 0.00000E+00
 -1       599 1.66806E-04 2.45438E-06 1.65436E-24
 -1       600 1.66790E-04 2.36154E-06-8.27181E-25
 -1       601 1.66760E-04 2.30792E-06 8.27181E-25
 -1       602 1.66710E-04 2.30563E-06 0.00000E+00
 -1       603 1.66637E-04 2.36682E-06 0.00000E+00
 -1       604 1.66536E-04 2.50370E-06 0.00000E+00
 -1       605 1.66403E-04 2.72835E-06 0.00000E+00
 -1       606 1.69195E-04 2.94396E-06 0.00000E+00
 -1       607 1.69218E-04 3.86758E-06-3.30872E-24
 -1       608 1.69240E-04 4.96355E-06 0.00000E+00
 -1       609 1.69261E-04 6.21971E-06-3.30872E-24
 -1       610 1.69282E-04 7.62387E-06 6.61744E-24
 -1       611 1.69303E-04 9.16364E-06 0.00000E+00
 -1       612 1.69323E-04 1.08266E-05 0.00000E+00
 -1       613 1.69343E-04 1.26005E-05 0.00000E+00
 -1       614 1.69363E-04 1.44729E-05 0.00000E+00
 -1       615 1.69383E-04 1.64313E-05-1.65436E-24
 -1       616 1.69402E-04 1.84634E-05 0.00000E+00
 -1       617 1.69422E-04 2.05568E-05-8.27181E-25
 -1       618 1.69441E-04 2.26992E-05-1.65436E-24
 -1       619 1.69461E-04 2.48781E-05 0.00000E+00
 -1       620 1.69480E-04 2.70812E-05-8.27181E-25
 -1       621 1.68590E-04 2.34559E-06-3.30872E-24
 -1       622 1.68054E-04 2.48822E-06 1.65436E-24
 -1       623 1.67554E-04 2.63081E-06-3.30872E-24
 -1       624 1.67088E-04 2.77315E-06 1.65436E-24
 -1       625 1.66650E-04 2.91520E-06 0.00000E+00
 -1       626 1.69040E-04 3.00599E-06 6.61744E-24
 -1       627 1.68852E-04 3.97704E-06 0.00000E+00
 -1       628 1.68606E-04 5.10063E-06 0.00000E+00
 -1       629 1.68310E-04 6.35972E-06 6.61744E-24
 -1       630 1.67969E-04 7.73729E-06-6.61744E-24
 -1       631 1.67590E-04 9.21618E-06 0.00000E+00
 -1       632 1.67179E-04 1.07793E-05 0.00000E+00
 -1       633 1.66743E-04 1.24095E-05 0.00000E+00
 -1       634 1.66288E-04 1.40896E-05 0.00000E+00
 -1       635 1.65821E-04 1.58026E-05 3.30872E-24
 -1       636 1.65347E-04 1.75314E-05 3.30872E-24
 -1       637 1.64874E-04 1.92588E-05 0.00000E+00
 -1       638 1.64409E-04 2.09678E-05 3.30872E-24
 -1       639 1.63956E-04 2.26412E-05-1.65436E-24
 -1       640 1.63522E-04 2.42618E-05-3.30872E-24
 -1       656 1.67668E-04 2.87285E-05 6.61744E-24
 -1       657 1.66485E-04 2.81388E-05 0.00000E+00
 -1       658 1.65701E-04 2.75512E-05 1.32349E-23
 -1       659 1.65060E-04 2.69642E-05-6.61744E-24
 -1       660 1.64287E-04 2.63753E-05 0.00000E+00
 -1       661 1.68821E-04 3.14884E-05 0.00000E+00
 -1       662 1.68173E-04 3.36226E-05-1.65436E-24
 -1       663 1.67547E-04 3.56952E-05-3.30872E-24
 -1       664 1.66946E-04 3.77051E-05-1.65436E-24
 -1       665 1.66369E-04 3.96503E-05-3.30872E-24
 -1       666 1.65818E-04 4.15289E-05-1.65436E-24
 -1       667 1.65292E-04 4.33387E-05 0.00000E+00
 -1       668 1.64794E-04 4.50772E-05 0.00000E+00
 -1       669 1.64323E-04 4.67417E-05 0.00000E+00
 -1       670 1.63881E-04 4.83292E-05-1.65436E-24
 -1       671 1.63470E-04 4.98366E-05 0.00000E+00
 -1       672 1.63089E-04 5.12602E-05 0.00000E+00
 -1       673 1.62742E-04 5.25963E-05 0.00000E+00
 -1       674 1.62428E-04 5.38403E-05 0.00000E+00
 -1       675 1.62150E-04 5.49883E-05 8.27181E-25
 -1       676 1.66665E-04 5.67572E-05 3.30872E-24
 -1       677 1.65708E-04 5.66112E-05 0.00000E+00
 -1       678 1.64753E-04 5.64654E-05 0.00000E+00
 -1       679 1.63799E-04 5.63199E-05 0.00000E+00
 -1       680 1.62848E-04 5.61745E-05 3.30872E-24
 -1       771 3.07038E-05 6.20219E-06 5.29396E-23
 -1       772 2.31073E-05 2.03399E-05 0.00000E+00
 -1       773 1.66279E-05 3.16089E-05 1.05879E-22
 -1       774 1.11966E-05 4.01640E-05-5.29396E-23
 -1       775 6.74465E-06 4.61681E-05 0.00000E+00
 -1       776 3.19809E-06 4.97973E-05 0.00000E+00
 -1       777 4.81616E-07 5.12356E-05 0.00000E+00
 -1       778-1.48328E-06 5.06781E-05 2.64698E-23
 -1       779-2.77600E-06 4.83263E-05 0.00000E+00
 -1       780-3.47858E-06 4.43909E-05 2.64698E-23
 -1       781-3.67348E-06 3.90879E-05 5.29396E-23
 -1       782-3.44511E-06 3.26404E-05 0.00000E+00
 -1       783-2.87812E-06 2.52750E-05 0.00000E+00
 -1       784-2.05819E-06 1.72233E-05 0.00000E+00
 -1       785-1.07147E-06 8.71909E-06 0.00000E+00
 -1       786 1.64403E-04 3.14326E-06 0.00000E+00
 -1       787 1.64525E-04 2.97633E-06-1.65436E-24
 -1       788 1.64646E-04 2.81541E-06 0.00000E+00
 -1       789 1.64768E-04 2.66268E-06 0.00000E+00
 -1       790 1.64891E-04 2.52083E-06 0.00000E+00
 -1       791 1.65013E-04 2.39261E-06 0.00000E+00
 -1       792 1.65136E-04 2.28166E-06-3.30872E-24
 -1       793 1.65259E-04 2.19171E-06-1.65436E-24
 -1       794 1.65381E-04 2.12787E-06 0.00000E+00
 -1       795 1.65504E-04 2.09537E-06-1.65436E-24
 -1       796 1.65627E-04 2.10149E-06 3.30872E-24
 -1       797 1.65749E-04 2.15370E-06 0.00000E+00
 -1       798 1.65872E-04 2.26251E-06 3.30872E-24
 -1       799 1.65994E-04 2.43867E-06 1.65436E-24
 -1       800 1.66117E-04 2.69738E-06 0.00000E+00
 -1       801 1.53001E-04 3.17511E-06 3.30872E-24
 -1       802 1.19824E-04 2.56881E-06 0.00000E+00
 -1       803 7.63539E-05 1.60526E-06 0.00000E+00
 -1       804 3.42119E-05 6.83178E-07 6.61744E-24
 -1       805 4.92120E-06 1.78463E-07 2.64698E-23
 -1       806 1.64201E-04 3.06239E-06 3.30872E-24
 -1       807 1.64107E-04 2.81472E-06-1.65436E-24
 -1       808 1.64006E-04 2.58019E-06 0.00000E+00
 -1       809 1.63896E-04 2.36650E-06-3.30872E-24
 -1       810 1.63776E-04 2.18128E-06 3.30872E-24
 -1       811 1.63642E-04 2.03207E-06-1.65436E-24
 -1       812 1.63492E-04 1.92638E-06-3.30872E-24
 -1       813 1.63322E-04 1.87170E-06 1.65436E-24
 -1       814 1.63131E-04 1.87550E-06 3.30872E-24
 -1       815 1.62915E-04 1.94526E-06-3.30872E-24
 -1       816 1.62671E-04 2.08843E-06 3.30872E-24
 -1       817 1.62398E-04 2.31246E-06-3.30872E-24
 -1       818 1.62091E-04 2.62480E-06 6.61744E-24
 -1       819 1.61748E-04 3.03283E-06 0.00000E+00
 -1       820 1.61367E-04 3.54393E-06 0.00000E+00
 -1       821 1.66053E-04 3.53081E-06 0.00000E+00
 -1       822 1.65858E-04 4.15010E-06-1.65436E-24
 -1       823 1.65664E-04 4.93431E-06-6.61744E-24
 -1       824 1.65467E-04 5.90430E-06 3.30872E-24
 -1       825 1.65270E-04 7.06250E-06-6.61744E-24
 -1       826 1.65073E-04 8.40981E-06 3.30872E-24
 -1       827 1.64875E-04 9.92834E-06 0.00000E+00
 -1       828 1.64677E-04 1.15988E-05-3.30872E-24
 -1       829 1.64479E-04 1.33869E-05 0.00000E+00
 -1       830 1.64281E-04 1.52573E-05-3.30872E-24
 -1       831 1.64082E-04 1.71665E-05 6.61744E-24
 -1       832 1.63884E-04 1.90707E-05 0.00000E+00
 -1       833 1.63686E-04 2.09266E-05 0.00000E+00
 -1       834 1.63491E-04 2.26912E-05 1.65436E-24
 -1       835 1.63295E-04 2.43308E-05 0.00000E+00
 -1       836 1.65645E-04 3.23874E-06 0.00000E+00
 -1       837 1.64823E-04 3.42774E-06-3.30872E-24
 -1       838 1.63856E-04 3.61633E-06 0.00000E+00
 -1       839 1.62831E-04 3.80376E-06-1.65436E-24
 -1       840 1.61833E-04 3.99106E-06 0.00000E+00
 -1       856 1.63043E-04 2.73265E-05 0.00000E+00
 -1       857 1.62968E-04 2.90473E-05 4.13590E-25
 -1       858 1.62893E-04 3.09418E-05-1.65436E-24
 -1       859 1.62817E-04 3.29768E-05 0.00000E+00
 -1       860 1.62741E-04 3.51186E-05-1.65436E-24
 -1       861 1.62664E-04 3.73333E-05 0.00000E+00
 -1       862 1.62587E-04 3.95870E-05 1.65436E-24
 -1       863 1.62510E-04 4.18456E-05 0.00000E+00
 -1       864 1.62433E-04 4.40750E-05-1.65436E-24
 -1       865 1.62356E-04 4.62413E-05 0.00000E+00
 -1       866 1.62280E-04 4.83106E-05 0.00000E+00
 -1       867 1.62203E-04 5.02491E-05-8.27181E-25
 -1       868 1.62127E-04 5.20234E-05-1.65436E-24
 -1       869 1.62052E-04 5.36004E-05 0.00000E+00
 -1       870 1.61976E-04 5.49475E-05 1.65436E-24
 -1       871 1.62012E-04 2.58080E-05 0.00000E+00
 -1       872 1.61139E-04 2.57997E-05 0.00000E+00
 -1       873 1.60394E-04 2.57908E-05 8.27181E-25
 -1       874 1.59679E-04 2.57809E-05-4.13590E-25
 -1       875 1.58897E-04 2.57701E-05 4.13590E-25
 -1       876 1.62729E-04 2.73413E-05 0.00000E+00
 -1       877 1.62315E-04 2.89679E-05 0.00000E+00
 -1       878 1.61870E-04 3.06798E-05 6.61744E-24
 -1       879 1.61397E-04 3.24657E-05 3.30872E-24
 -1       880 1.60901E-04 3.43140E-05 0.00000E+00
 -1       881 1.60386E-04 3.62135E-05 3.30872E-24
 -1       882 1.59856E-04 3.81529E-05-6.61744E-24
 -1       883 1.59314E-04 4.01207E-05 3.30872E-24
 -1       884 1.58767E-04 4.21058E-05-6.61744E-24
 -1       885 1.58217E-04 4.40969E-05 0.00000E+00
 -1       886 1.57669E-04 4.60826E-05 0.00000E+00
 -1       887 1.57127E-04 4.80517E-05 3.30872E-24
 -1       888 1.56596E-04 4.99929E-05 3.30872E-24
 -1       889 1.56078E-04 5.18945E-05 0.00000E+00
 -1       890 1.55578E-04 5.37455E-05 1.65436E-24
 -1       891 1.60998E-04 5.59489E-05 1.65436E-24
 -1       892 1.60062E-04 5.58649E-05-8.27181E-25
 -1       893 1.59048E-04 5.57810E-05 0.00000E+00
 -1       894 1.57912E-04 5.56971E-05 0.00000E+00
 -1       895 1.56608E-04 5.56132E-05-8.27181E-25
 -1       956 1.60764E-04 5.03075E-06 0.00000E+00
 -1       957 1.60577E-04 6.03134E-06 0.00000E+00
 -1       958 1.60390E-04 7.15267E-06 0.00000E+00
 -1       959 1.60202E-04 8.37953E-06 1.65436E-24
 -1       960 1.60015E-04 9.69669E-06 6.61744E-24
 -1       961 1.59827E-04 1.10888E-05 3.30872E-24
 -1       962 1.59639E-04 1.25405E-05 6.61744E-24
 -1       963 1.59450E-04 1.40365E-05-3.30872E-24
 -1       964 1.59262E-04 1.55614E-05 0.00000E+00
 -1       965 1.59074E-04 1.70998E-05 0.00000E+00
 -1       966 1.58886E-04 1.86363E-05 6.61744E-24
 -1       967 1.58698E-04 2.01556E-05 0.00000E+00
 -1       968 1.58510E-04 2.16422E-05 0.00000E+00
 -1       969 1.58322E-04 2.30809E-05 0.00000E+00
 -1       970 1.58135E-04 2.44564E-05 6.61744E-24
 -1       971 1.57775E-04 2.70787E-05 0.00000E+00
 -1       972 1.57597E-04 2.85598E-05-1.65436E-24
 -1       973 1.57418E-04 3.01798E-05 3.30872E-24
 -1       974 1.57239E-04 3.19202E-05 1.65436E-24
 -1       975 1.57059E-04 3.37629E-05 0.00000E+00
 -1       976 1.56879E-04 3.56896E-05 0.00000E+00
 -1       977 1.56699E-04 3.76818E-05-6.61744E-24
 -1       978 1.56519E-04 3.97213E-05 0.00000E+00
 -1       979 1.56339E-04 4.17897E-05-6.61744E-24
 -1       980 1.56159E-04 4.38685E-05 3.30872E-24
 -1       981 1.55980E-04 4.59393E-05 6.61744E-24
 -1       982 1.55800E-04 4.79838E-05 0.00000E+00
 -1       983 1.55620E-04 4.99836E-05 0.00000E+00
 -1       984 1.55442E-04 5.19203E-05 0.00000E+00
 -1       985 1.55264E-04 5.37756E-05 0.00000E+00
 -3
    1PSTEP                         2           1           1          
  100CL  101 1.000000000         409                     0    1           1
 -4  STRESS      6    1
 -5  SXX         1    4    1    1
 -5  SYY         1    4    2    2
 -5  SZZ         1    4    3    3
 -5  SXY         1    4    1    2
 -5  SYZ         1    4    2    3
 -5  SZX         1    4    3    1
 -1         1-3.06517E+06-1.40894E+06-6.17373E+05-2.07167E+06 1.38243E-10-2.90311E-08
 -1         2 6.05700E+03 1.20975E+06 2.12299E+04 5.37002E+03-2.01078E-09 7.77936E-09
 -1         3-7.71360E+02-1.62411E+06 3.51232E+02-1.35470E+03 3.17868E-09-5.39148E-09
 -1         5-1.92256E+01 5.27061E+05 1.33948E+01 1.10891E+00 5.71613E-11 2.90829E-08
 -1         8-1.42013E+06-6.41156E+05-3.48732E+04-1.14432E+06 4.69299E-10-1.78989E-09
 -1         9-2.84419E+06-5.36481E+05-2.94795E+05-8.43013E+05 2.57278E-09-4.95929E-09
 -1        10-1.58030E+03-1.68691E+06-2.13237E+03-9.06756E+03-2.18497E-08 5.33345E-09
 -1        12-1.37934E+01 5.27089E+05 4.34606E+02 7.24380E+00 3.55072E-10 1.97329E-08
 -1        15 3.73104E+03 2.09552E+03 1.27294E+04 1.48510E+01 3.04397E-10-2.81533E-08
 -1        16-7.79891E+06-1.51512E+06-1.12686E+06-1.41962E+06 1.66668E-08-2.19637E-08
 -1        17-2.01504E+06-1.12623E+06-3.85872E+05-9.88162E+05 3.16970E-08-1.59082E-08
 -1        18-4.36428E+04-1.87133E+04-4.92389E+04-1.30812E+05 1.11822E-09-3.61524E-09
 -1        19 1.67483E+05 1.96120E+05-1.60357E+03 2.98055E+04 7.27596E-11-8.29459E-10
 -1        20-6.85236E+03-5.39073E+05-1.13232E+05 6.06710E+04 1.31228E-08-6.09725E-09
 -1        21-5.18981E+01-4.16719E+05-1.31753E+03-2.43008E+02-3.88801E-09-2.04044E-08
 -1        24-7.13480E+06-1.50402E+06-9.23404E+05-1.92128E+06-4.79243E-09-2.36711E-08
 -1        25 7.50261E+04 1.74543E+03 3.81975E+04-3.23848E+05 4.98076E-09 2.78123E-09
 -1        26-4.26277E+04 1.40041E+05-2.28259E+04-2.21039E+04 1.22818E-09-4.95572E-10
 -1        27-9.95710E+04-3.06817E+05-1.28441E+05 1.01360E+05 1.20288E-08-1.10958E-10
 -1        28 2.47763E+04-1.19823E+05 2.18380E+04 4.12255E+04 7.67381E-09-2.53752E-09
 -1        32-1.56812E+06-1.80373E+05 6.65365E+05-1.32871E+06 5.25324E-09 4.19141E-09
 -1        33-2.39102E+05 1.38617E+05 4.79759E+04-6.78439E+04-1.11341E-09 1.56524E-08
 -1        34-3.22112E+05-3.34678E+04 7.44903E+02 1.02098E+05-2.70527E-10-4.27705E-09
 -1        35-3.54426E+04-4.97952E+04-2.07239E+03 7.86827E+04 9.44621E-09-1.13505E-09
 -1        51 2.22014E+04-7.42922E+05 6.53260E+04-1.92863E+06-4.65661E-10-2.16824E-08
 -1        52 2.40468E+04-7.54854E+05 4.60779E+04-2.23288E+06-5.96629E-10-1.28639E-08
 -1        53 2.39094E+04-7.94228E+05 3.98134E+04-1.92170E+06-3.49246E-10-2.42144E-08
 -1        54 5.83729E+04-8.03468E+05 6.63181E+04-2.23946E+06-1.07684E-09-1.16415E-09
 -1        55 9.59529E+04-8.31808E+05 1.18619E+05-1.92001E+06-5.82077E-11 8.13452E-09
 -1        56-5.91393E+06-6.74800E+05-4.55707E+05-2.27178E+06-1.38243E-10-2.63972E-08
 -1        57-6.06408E+06-1.09800E+06-3.04024E+05-2.28971E+06 3.74712E-09 6.55928E-09
 -1        58-6.00958E+06-8.07194E+05-1.07186E+05-2.23816E+06-1.80262E-09 4.72937E-09
 -1        59-5.95359E+06-9.41200E+05-6.30275E+04-2.33082E+06-2.89219E-10 3.86353E-09
 -1        60-6.02335E+06-8.24491E+05-2.49603E+04-2.23331E+06 1.93950E-09-2.91584E-09
 -1        61-5.94300E+06-9.14836E+05-1.39414E+04-2.32939E+06-7.28960E-09-5.60954E-09
 -1        62-6.01956E+06-8.32903E+05-6.95626E+03-2.23961E+06-9.88621E-10 6.61271E-09
 -1        63-5.95716E+06-8.94972E+05-5.38984E+03-2.30894E+06 1.90448E-09-7.58428E-09
 -1        64-6.00818E+06-8.44889E+05-6.82357E+03-2.25309E+06 1.50976E-10-1.29512E-09
 -1        65-5.98423E+06-8.70860E+05-1.26745E+04-2.27761E+06 3.89537E-09-3.57113E-09
 -1        66-5.99179E+06-8.57579E+05-2.34789E+04-2.27038E+06 4.45561E-09-2.35104E-08
 -1        67-6.02701E+06-8.61999E+05-5.78246E+04-2.24121E+06 6.76232E-09-2.34168E-08
 -1        68-5.96587E+06-8.54418E+05-9.90599E+04-2.28939E+06 3.81988E-11 7.64339E-09
 -1        69-6.14702E+06-9.90448E+05-2.80178E+05-2.18711E+06-5.15683E-10 3.01952E-08
 -1        70-5.87433E+06-7.34684E+05-4.19924E+05-2.32311E+06-9.03674E-09-2.58733E-08
 -1        86-3.07701E+03 1.20267E+06 2.27574E+04-2.68527E+03 1.45792E-09-8.41874E-09
 -1        87 2.06622E+04 1.21733E+06 4.73791E+04 1.13687E+04 6.43922E-10-6.09089E-09
 -1        88-1.76247E+04 1.19514E+06 7.27335E+04-8.68449E+03 2.81216E-09 1.27147E-08
 -1        89 1.33941E+05 1.27211E+06 1.95637E+05 2.57721E+04 2.53203E-09 1.28146E-08
 -1        90-1.15648E+05 1.14816E+06 2.77026E+05-1.70840E+04 4.86034E-09 6.75982E-09
 -1       121-1.04738E+03-1.62640E+06-3.57689E+01 6.74012E+02-2.97089E-09-6.39557E-09
 -1       122-6.41349E+02-1.62410E+06 7.55085E+02-2.70923E+03 1.22441E-09 1.17507E-08
 -1       123-1.08369E+03-1.62651E+06 8.69609E+02 2.01537E+03-6.45605E-09-3.11411E-09
 -1       124 7.63742E+02-1.62343E+06 3.14022E+03-5.76710E+03 7.40329E-10-9.35324E-09
 -1       125-1.79820E+03-1.62734E+06 4.53571E+03 3.71760E+03-1.03628E-08-3.24144E-09
 -1       191-2.06246E+01 5.27104E+05 1.55270E+01-5.58430E-01 2.62936E-10 1.52868E-08
 -1       192-2.04668E+01 5.27062E+05 2.83798E+01 3.03218E+00 4.57381E-10-1.03646E-08
 -1       193-2.39174E+01 5.27104E+05 5.23040E+01-2.49962E+00 4.83020E-10 3.03589E-09
 -1       194-2.44576E+01 5.27066E+05 1.07383E+02 6.63147E+00 2.01737E-10 2.45236E-08
 -1       195-3.02419E+01 5.27100E+05 2.09560E+02-4.19468E+00 7.31106E-10 1.32177E-08
 -1       251 6.37762E+05-9.62003E+04 2.28147E+05 1.86416E+04 3.00133E-10 1.21654E-08
 -1       252 7.48394E+05 1.10816E+05 1.62295E+05-6.14730E+04 2.78237E-09 2.05109E-08
 -1       253 6.78738E+05-1.46298E+04 5.90165E+04 1.13375E+04 5.39785E-10 4.02360E-09
 -1       254 6.99016E+05 1.67797E+04 3.74480E+04-5.00302E+04 5.64910E-10 7.37464E-09
 -1       255 6.86145E+05-2.22943E+03 1.52458E+04 7.19725E+03 7.17591E-10-1.56451E-08
 -1       256 6.89700E+05 2.74210E+03 9.29233E+03-4.39467E+04 6.62112E-10-6.85895E-09
 -1       257 6.87624E+05-3.85996E+02 4.77706E+03 5.25387E+03 3.44983E-10 7.41784E-09
 -1       258 6.88094E+05 9.78457E+02 4.18600E+03-4.19852E+04-9.81113E-11-5.38804E-09
 -1       259 6.87626E+05-3.88387E+02 4.80343E+03 5.23612E+03-1.34685E-09 1.40847E-09
 -1       260 6.89689E+05 2.76715E+03 9.36133E+03-4.38777E+04 3.08364E-09-1.26743E-08
 -1       261 6.86149E+05-2.24864E+03 1.53815E+04 7.14596E+03 1.65210E-09-6.22276E-09
 -1       262 6.99032E+05 1.69363E+04 3.77651E+04-4.98786E+04-1.86446E-11-6.95672E-09
 -1       263 6.78707E+05-1.47579E+04 5.95521E+04 1.12372E+04-1.60117E-09 9.32778E-09
 -1       264 7.48729E+05 1.11812E+05 1.63703E+05-6.12146E+04-3.85535E-09-8.72387E-09
 -1       265 6.37434E+05-9.70422E+04 2.30207E+05 1.84833E+04-3.02953E-09-3.63798E-10
 -1       266-7.01749E+04-3.32840E+04 1.68434E+05-3.34980E+02 6.54836E-11 1.43359E-09
 -1       267 8.14982E+04 3.87360E+04 1.18422E+05 3.88294E+02 1.70985E-10-2.28513E-09
 -1       268-1.06971E+04-5.40625E+03 4.42609E+04-4.80423E+01-2.72848E-11 1.05649E-09
 -1       269 1.26381E+04 6.45652E+03 2.85645E+04 5.61306E+01-3.01952E-10 9.06647E-09
 -1       270-1.85501E+03-1.04769E+03 1.38834E+04-7.33070E+00-6.13909E-11 5.16184E-09
 -1       271-6.86488E+06-8.93229E+05-5.30684E+05-2.70005E+06-2.55386E-09 1.83645E-08
 -1       272-7.02056E+06-1.27850E+06-3.36169E+05-2.72595E+06 2.07410E-09 2.05619E-08
 -1       273-6.97175E+06-1.00502E+06-1.25496E+05-2.66924E+06-3.98359E-10 1.61672E-08
 -1       274-6.89309E+06-1.14031E+06-6.86764E+04-2.78023E+06 1.31513E-09 1.74623E-09
 -1       275-6.99304E+06-1.00779E+06-2.91665E+04-2.65678E+06 8.74934E-10 1.90084E-09
 -1       276-6.86858E+06-1.13736E+06-1.50901E+04-2.80216E+06 3.47427E-09-2.68460E-09
 -1       277-6.99990E+06-1.00336E+06-7.46085E+03-2.65092E+06-1.34423E-09 5.87602E-09
 -1       278-6.86331E+06-1.14044E+06-5.33453E+03-2.80907E+06 4.28679E-09-4.87489E-10
 -1       279-6.99984E+06-1.00356E+06-5.84089E+03-2.65104E+06 1.61890E-10 5.10590E-09
 -1       280-6.86833E+06-1.13626E+06-1.05458E+04-2.80162E+06 7.87986E-09 6.16456E-09
 -1       281-6.99316E+06-1.00874E+06-2.00204E+04-2.65711E+06 2.27556E-09 1.78043E-08
 -1       282-6.88911E+06-1.13310E+06-4.64237E+04-2.77986E+06 4.13820E-09-1.10158E-08
 -1       283-6.97518E+06-1.01074E+06-8.52091E+04-2.66933E+06-2.80124E-10-1.85173E-08
 -1       284-6.98213E+06-1.21851E+06-2.27106E+05-2.73310E+06-7.75435E-09-1.68802E-09
 -1       285-6.89822E+06-9.40296E+05-3.59516E+05-2.69532E+06 1.83718E-09-3.14321E-09
 -1       301 3.25998E+04 9.33893E+04 2.18409E+05 3.39490E+04 1.54978E-09 1.39113E-08
 -1       302 2.75655E+04 1.47773E+05 1.55759E+05 4.81960E+04 5.36238E-09-9.78935E-09
 -1       303 7.58722E+02 1.12605E+05 1.42812E+05 3.34845E+04 2.53567E-09 2.31412E-08
 -1       304 5.23953E+04 1.70857E+05 2.38442E+05 4.80511E+04 5.63159E-09 4.91673E-09
 -1       305 6.51436E+04 7.05874E+04 4.03385E+05 3.46576E+04 1.41154E-09 6.75391E-09
 -1       306-8.78056E+06-1.14493E+06-7.15179E+05-3.62999E+06 8.51287E-09-2.91038E-09
 -1       307-9.61287E+06-1.27628E+06-4.85899E+05-2.98672E+06 2.37924E-08-1.03610E-08
 -1       308-8.93263E+06-1.38015E+06-1.68847E+05-3.57715E+06 9.65156E-09-9.52423E-09
 -1       309-9.27263E+06-1.13699E+06-9.49511E+04-3.18336E+06-4.49700E-09 2.05328E-08
 -1       310-9.10728E+06-1.28860E+06-4.73128E+04-3.42538E+06-1.10049E-09 1.33623E-08
 -1       311-8.95930E+06-1.37589E+06-1.46688E+04-3.50900E+06 1.44992E-08 1.34860E-08
 -1       312-9.24247E+06-1.14289E+06-1.42817E+04-3.24956E+06-4.79304E-09 1.11295E-08
 -1       313-8.80777E+06-1.55501E+06-7.08772E+03-3.74549E+06-1.19894E-08 1.79772E-08
 -1       314-9.27170E+06-1.09935E+06-1.10698E+04-3.19869E+06-1.16743E-08-9.44056E-09
 -1       315-8.85356E+06-1.50396E+06-1.94935E+04-3.66973E+06-5.02951E-10-5.85169E-09
 -1       316-9.19144E+06-1.19816E+06-4.87914E+04-3.32137E+06 1.70548E-08 1.59052E-08
 -1       317-9.10820E+06-1.29453E+06-1.00779E+05-3.35173E+06-2.10503E-09 1.74805E-09
 -1       318-9.00816E+06-1.31684E+06-1.86213E+05-3.50923E+06-1.35233E-08 7.79255E-09
 -1       319-9.56554E+06-1.35122E+06-5.21355E+05-3.03086E+06-3.21597E-09-9.24047E-10
 -1       320-8.74792E+06-1.13722E+06-7.68224E+05-3.65003E+06 1.82918E-08-1.69966E-08
 -1       336 4.00206E+01-1.75040E+06-9.43704E+03 5.29478E+03 6.67751E-09-1.08266E-08
 -1       337-3.25728E+03-1.75112E+06-1.00476E+04-1.29384E+04-1.37047E-08-6.13363E-09
 -1       338-1.22056E+02-1.75072E+06-1.35999E+04 7.55469E+03 7.71570E-09-9.46602E-09
 -1       339-1.28243E+04-1.75813E+06-2.89452E+04-1.73101E+04-1.75369E-08-7.12134E-09
 -1       340 7.49547E+03-1.74441E+06-4.56989E+04 9.61844E+03 1.11177E-08 1.17361E-08
 -1       406 1.89351E+01 5.27080E+05 8.57471E+02-3.14246E+00 9.07107E-10 1.26893E-08
 -1       407 2.85390E+02 5.27240E+05 1.82335E+03-7.81643E+00 3.28328E-10-2.49429E-09
 -1       408 9.24507E+02 5.26949E+05 3.64078E+03 1.15194E+01 9.29049E-10 3.98995E-09
 -1       409 3.92429E+03 5.28402E+05 8.19670E+03-1.37013E+02-1.24601E-10-2.30557E-09
 -1       410 1.12998E+04 5.25911E+05 1.67324E+04 1.36794E+02 1.09321E-09 9.16771E-09
 -1       521-1.42272E+07-2.68931E+06-1.26440E+06-6.68605E+06 2.19152E-08-5.43077E-08
 -1       522-1.75724E+07 2.56069E+05-6.46554E+05-2.88358E+06 7.70960E-08 2.89583E-09
 -1       523-1.38851E+07-3.20658E+06-2.75503E+05-6.82479E+06 2.27465E-09 2.33849E-08
 -1       524-1.56833E+07-2.76681E+05 4.38385E+04-3.49705E+06-4.67917E-08 5.57484E-08
 -1       525-1.57732E+07-2.42763E+06-3.60785E+05-5.79044E+06-2.22790E-08-4.61296E-09
 -1       526-1.30365E+07-2.56451E+06 2.00301E+05-6.14625E+06-1.66183E-08-3.47427E-08
 -1       527-1.63745E+07-1.05103E+06-9.31683E+04-4.10620E+06 3.93920E-08-2.10912E-08
 -1       528-1.29773E+07-3.60717E+06 9.70757E+04-8.30980E+06 6.33645E-09 9.23028E-08
 -1       529-1.63510E+07-9.50244E+05-5.77820E+04-3.98500E+06-4.40195E-08 5.82804E-08
 -1       530-1.29510E+07-2.76692E+06 1.86354E+05-6.49489E+06-3.04499E-08-3.68454E-08
 -1       531-1.59394E+07-2.27864E+06-3.64056E+05-5.60793E+06 2.67901E-08 1.33368E-08
 -1       532-1.53102E+07-5.15106E+05 6.43983E+04-3.67566E+06 3.76021E-08-6.12854E-08
 -1       533-1.40255E+07-3.17212E+06-2.97782E+05-6.77830E+06 1.86628E-09-6.72881E-08
 -1       534-1.76414E+07 3.13200E+05-6.30233E+05-2.86656E+06 9.66247E-09 8.59945E-08
 -1       535-1.40344E+07-2.76690E+06-1.19665E+06-6.76463E+06-2.75904E-08 6.63567E-08
 -1       536-4.33263E+05-3.25498E+04 7.48561E+04-7.36467E+03 2.51407E-09-2.33413E-08
 -1       537-3.92600E+05 3.75714E+04 5.43104E+04 2.21089E+03-2.33936E-08-2.00453E-09
 -1       538-4.21297E+05-5.19467E+03 1.88495E+04-3.31028E+03-5.64341E-10-5.69707E-09
 -1       539-4.06951E+05 5.79761E+03 1.33044E+04-6.21951E+03 1.59330E-08 7.23139E-09
 -1       540-4.18912E+05-8.98733E+02 4.34580E+03 1.06397E+03-1.26170E-09-1.09458E-08
 -1       541-4.10916E+05 8.79075E+02 3.59046E+03-1.43685E+04-5.05707E-09 2.13840E-08
 -1       542-4.17489E+05-1.77969E+02 6.98237E+02 4.83536E+03-2.78669E-09 1.11855E-08
 -1       543-4.13814E+05 1.18609E+02 5.95179E+02-2.06856E+04 5.86346E-09-6.24937E-09
 -1       544-4.16250E+05 3.22415E+01-6.57313E+02 7.38015E+03 4.61336E-09 5.34357E-09
 -1       545-4.15969E+05-4.51860E+02-1.78626E+03-2.41475E+04-3.52384E-09 1.47282E-08
 -1       546-4.15507E+05 5.17154E+02-3.40279E+03 8.29799E+03-1.07936E-09-9.53173E-09
 -1       547-4.17694E+05-3.87845E+03-8.47456E+03-2.42130E+04-5.35569E-09-1.83957E-09
 -1       548-4.14530E+05 3.45097E+03-1.37983E+04 7.44570E+03-7.95069E-09-5.22596E-09
 -1       549-4.26175E+05-2.59679E+04-3.69813E+04-2.08359E+04-4.92301E-09-1.07593E-08
 -1       550-4.06864E+05 2.24122E+04-5.33957E+04 4.92000E+03 2.06910E-11-4.94765E-10
 -1       551 4.33093E+04-9.50384E+05 3.91051E+04-1.48399E+06-2.95986E-08-6.56291E-09
 -1       552 8.79658E+04-9.79564E+05 5.61923E+04-2.06505E+06 2.03872E-08 4.49800E-08
 -1       553 6.51126E+04-9.86631E+05 8.61448E+04-1.47805E+06-3.34257E-08 2.13040E-08
 -1       554 1.37564E+05-9.70006E+05 1.82369E+05-2.06643E+06 2.34286E-08 5.55383E-09
 -1       555 1.24491E+05-1.01743E+06 3.27067E+05-1.47904E+06-3.18396E-08-2.08966E-08
 -1       556 1.71341E+05-3.05038E+05 9.61647E+04-3.63598E+05 1.33150E-08 4.16185E-09
 -1       557 3.02617E+05-4.04534E+05 5.21178E+04-4.68882E+05-1.97906E-09 2.27756E-08
 -1       558 1.64405E+05-3.11524E+05 1.93613E+04-3.57682E+05 3.11411E-09 1.54250E-09
 -1       559 2.76396E+05-4.15073E+05 1.04175E+04-4.82633E+05 1.52504E-08 1.42936E-08
 -1       560 1.55046E+05-3.05388E+05 3.42205E+03-3.64279E+05 9.37143E-09 1.27038E-08
 -1       561 2.63506E+05-4.10570E+05 2.22555E+03-4.90945E+05 1.94996E-09 9.72068E-09
 -1       562 1.47880E+05-3.00725E+05 4.70462E+02-3.69448E+05 1.33587E-08 4.86125E-09
 -1       563 2.55102E+05-4.06947E+05 5.99755E+02-4.96326E+05 1.48575E-08-2.95928E-08
 -1       564 1.43405E+05-2.97847E+05 1.50367E+02-3.72615E+05 1.05792E-08-6.25550E-09
 -1       565 2.50669E+05-4.05029E+05 2.50083E+02-4.99121E+05-1.49157E-09-3.05135E-08
 -1       566 1.41726E+05-2.96753E+05 4.18596E+01-3.73802E+05 5.98629E-09 1.23109E-08
 -1       567 2.50149E+05-4.04787E+05-1.30700E+02-4.99311E+05 1.20376E-08 1.52213E-08
 -1       568 1.42925E+05-2.97529E+05-7.62992E+02-3.73099E+05 5.57702E-09 5.54428E-09
 -1       569 2.52133E+05-4.05384E+05-1.70675E+03-4.95626E+05 1.61890E-09 4.56930E-09
 -1       570 1.48102E+05-3.01568E+05-4.20414E+03-3.71522E+05 8.51287E-10 4.59113E-09
 -1       571 3.82570E+05 1.45029E+04 2.15043E+04-9.64459E+04 2.06637E-09 1.39471E-08
 -1       572 3.85749E+05 5.05336E+03 1.05382E+04-1.05710E+05 5.09317E-10 7.76708E-09
 -1       573 3.83804E+05 1.21699E+03 4.68150E+03-9.61904E+04 4.33829E-09 1.10776E-09
 -1       574 3.84164E+05 4.21060E+02 2.34688E+03-1.05992E+05 1.70303E-09-1.65164E-08
 -1       575 3.83916E+05 8.60652E+01 1.10595E+03-9.61575E+04 9.55424E-09-4.11728E-09
 -1       576 3.83934E+05 5.61389E+01 5.63138E+02-1.06029E+05 1.55542E-08-1.43400E-08
 -1       577 3.83932E+05 2.78533E+01 2.76247E+02-9.61532E+04 1.88570E-08 2.61116E-09
 -1       578 3.83922E+05 3.28111E+01 1.48587E+02-1.06034E+05 1.58584E-08 1.02973E-08
 -1       579 3.83976E+05 1.19037E+01 8.53972E+01-9.61528E+04 3.13130E-08-1.30722E-08
 -1       580 3.83989E+05 2.52343E-01 7.19102E+01-1.06030E+05 4.03197E-08 3.34694E-10
 -1       581 3.84064E+05-3.19123E+01 8.55976E+01-9.61577E+04 2.17678E-08 1.01318E-09
 -1       582 3.84123E+05-4.03143E+01 1.58140E+02-1.05975E+05 1.30058E-09-1.50594E-08
 -1       583 3.84188E+05-3.58014E+01 2.92452E+02-9.62077E+04-1.80626E-09 1.20053E-09
 -1       584 3.84391E+05 1.68838E+02 6.58689E+02-1.05550E+05-9.82254E-10 2.86104E-09
 -1       585 3.84267E+05 7.23379E+02 1.32591E+03-9.65834E+04 7.43967E-10-7.99992E-09
 -1       586-3.55342E+03 1.29493E+05-4.79237E+03-3.32825E+05 5.62068E-10-3.55385E-09
 -1       587-4.59425E+02 1.28819E+05-4.25370E+01-3.66241E+05 1.20053E-09-2.90652E-09
 -1       588 1.51424E+03 1.28919E+05 4.58693E+03-3.32622E+05 6.78483E-10 3.07591E-09
 -1       589 6.55407E+03 1.31435E+05 1.26864E+04-3.65937E+05 8.82210E-10 1.57343E-10
 -1       590 1.83897E+04 1.27721E+05 2.68911E+04-3.33139E+05 5.34783E-10 2.52476E-09
 -1       591-9.93512E+04-2.74978E+04-2.88198E+04-4.96844E+04-1.56456E-09-1.77715E-09
 -1       592-1.02071E+05-3.33658E+04-1.54604E+04-5.70971E+04 1.45178E-09 1.70653E-08
 -1       593-1.02102E+05-2.46825E+04-6.46218E+03-5.19957E+04-6.48038E-09 5.66297E-09
 -1       594-9.81626E+04-2.93379E+04-3.21387E+03-5.72761E+04-5.14592E-09 3.05420E-08
 -1       595-1.02317E+05-2.46495E+04-1.47916E+03-5.20968E+04-4.65275E-09-7.04119E-10
 -1       596-9.79043E+04-2.91626E+04-7.52464E+02-5.72479E+04 1.23407E-09 1.30399E-10
 -1       597-1.02346E+05-2.46679E+04-4.12527E+02-5.21005E+04-3.09342E-09 1.09867E-09
 -1       598-9.78789E+04-2.91568E+04-3.36301E+02-5.72395E+04 2.25648E-09-7.77391E-09
 -1       599-1.02343E+05-2.46691E+04-4.35827E+02-5.20992E+04 2.67551E-09 1.44003E-08
 -1       600-9.79031E+04-2.91654E+04-8.13842E+02-5.72436E+04-4.55793E-09 9.15725E-09
 -1       601-1.02305E+05-2.46518E+04-1.60954E+03-5.20924E+04-2.44290E-09-2.51521E-08
 -1       602-9.81813E+04-2.93568E+04-3.50197E+03-5.72676E+04 3.10138E-09-6.02449E-09
 -1       603-1.02065E+05-2.46931E+04-7.04353E+03-5.19816E+04 9.43601E-10-1.08935E-08
 -1       604-1.02453E+05-3.37301E+04-1.68496E+04-5.70478E+04-1.26192E-09-7.04676E-09
 -1       605-9.90465E+04-2.77764E+04-3.14094E+04-4.94771E+04-2.96541E-09-9.73887E-09
 -1       606 6.49488E+04-1.74960E+04-3.24969E+04 4.88685E+04-4.14002E-09 2.65754E-09
 -1       607 5.92801E+04-5.62139E+03-1.62272E+04 5.51773E+04-2.89401E-09-6.83576E-09
 -1       608 6.24357E+04-9.04991E+02-7.28001E+03 4.84704E+04 3.22325E-09-4.62796E-09
 -1       609 6.17937E+04-2.12497E+02-3.67911E+03 5.56135E+04-4.87307E-09 3.22530E-09
 -1       610 6.20946E+04 6.99725E+01-1.76439E+03 4.84270E+04-1.67547E-08-4.38422E-09
 -1       611 6.19531E+04 1.17102E+02-8.88627E+02 5.56588E+04-3.00424E-08-2.32330E-09
 -1       612 6.19732E+04 1.19008E+02-4.27835E+02 4.84232E+04-1.49921E-08 6.07633E-09
 -1       613 6.19027E+04 1.56781E+02-1.93086E+02 5.56633E+04-1.46583E-08 1.56697E-08
 -1       614 6.18954E+04 1.42432E+02-5.33325E+01 4.84219E+04 4.45652E-09-6.48379E-09
 -1       615 6.18454E+04 1.86805E+02 6.58546E+01 5.56634E+04 3.06090E-08 9.03037E-09
 -1       616 6.18367E+04 1.68932E+02 2.10521E+02 4.84226E+04 3.86717E-09-6.94354E-09
 -1       617 6.18339E+04 2.49038E+02 4.87208E+02 5.56618E+04-1.57706E-09-1.80180E-08
 -1       618 6.17690E+04 3.13343E+02 9.82329E+02 4.84228E+04 3.58341E-10-1.19585E-08
 -1       619 6.21646E+04 9.92984E+02 2.20577E+03 5.56592E+04 1.50044E-09-4.61478E-09
 -1       620 6.14236E+04 2.57696E+03 4.42019E+03 4.84182E+04 1.25146E-09 1.71985E-08
 -1       621 6.02495E+02 4.08887E+05 4.63409E+03 5.04329E+03-3.80510E-09 1.44883E-08
 -1       622 5.77276E+02 4.09998E+05 4.34145E+03 7.17485E+03-1.83235E-09 5.59373E-09
 -1       623 4.68402E+01 4.09151E+05 5.57764E+03 4.99667E+03-3.18244E-09 1.55972E-08
 -1       624 2.59747E+03 4.11866E+05 1.10561E+04 7.24380E+03-1.93177E-09-5.97811E-09
 -1       625 3.24433E+03 4.07009E+05 1.96282E+04 4.97577E+03-2.66300E-09 5.37216E-09
 -1       626 3.48642E+05 9.77203E+04 7.09494E+03 1.90079E+05 1.68166E-09 6.93399E-09
 -1       627 3.43478E+05 1.01727E+05 3.43481E+03 1.98183E+05-4.47017E-09-2.92523E-08
 -1       628 3.48880E+05 9.44815E+04 1.44773E+03 1.91083E+05 4.10910E-09-1.46215E-08
 -1       629 3.42380E+05 1.00973E+05 7.13072E+02 1.98591E+05 3.52156E-09-1.98221E-08
 -1       630 3.48847E+05 9.43645E+04 3.28444E+02 1.91076E+05 5.52973E-10-9.13155E-09
 -1       631 3.42212E+05 1.00977E+05 1.79539E+02 1.98558E+05-1.32559E-08 5.75696E-09
 -1       632 3.48794E+05 9.43981E+04 1.19965E+02 1.91039E+05-4.02360E-09 1.17271E-08
 -1       633 3.42157E+05 1.01000E+05 1.39037E+02 1.98521E+05 3.57568E-09-4.95584E-09
 -1       634 3.48752E+05 9.44109E+04 2.27494E+02 1.91017E+05 1.03137E-08-4.20505E-09
 -1       635 3.42152E+05 1.01008E+05 4.63206E+02 1.98510E+05 1.04055E-08-7.44740E-09
 -1       636 3.48722E+05 9.44092E+04 9.35213E+02 1.91008E+05 5.01791E-09-1.96646E-08
 -1       637 3.42338E+05 1.01144E+05 2.05235E+03 1.98506E+05 1.04897E-08-1.25638E-08
 -1       638 3.48645E+05 9.48179E+04 4.21163E+03 1.90817E+05 5.67888E-09-6.14818E-10
 -1       639 3.44564E+05 1.04117E+05 9.95419E+03 1.97914E+05 1.35856E-08-1.34723E-08
 -1       640 3.48304E+05 1.03639E+05 2.05838E+04 1.87041E+05 1.68820E-08-6.45014E-09
 -1       656 6.50976E+04-1.66964E+06-1.60892E+05-2.00471E+03 6.99220E-09-7.03369E-09
 -1       657-8.63044E+04-1.74132E+06-1.32778E+05 2.82704E+04 5.09772E-09 1.79085E-08
 -1       658 2.05192E+04-1.69012E+06-8.25892E+04-4.63047E+03 4.74870E-09 1.78023E-08
 -1       659-9.41870E+04-1.74517E+06-1.43278E+05 2.99976E+04 1.87174E-09-2.64291E-09
 -1       660 7.29448E+04-1.66583E+06-1.78985E+05-3.73172E+03 2.68483E-09-2.13963E-08
 -1       661 3.33419E+05 3.72918E+04 3.13325E+04 1.30264E+05 4.34738E-09 7.72707E-09
 -1       662 3.48174E+05 6.19373E+04 2.08977E+04 1.26516E+05 9.88439E-09 1.46556E-08
 -1       663 3.39464E+05 4.69231E+04 7.39389E+03 1.28624E+05 1.80971E-08 5.10863E-09
 -1       664 3.41185E+05 5.05819E+04 4.35698E+03 1.28568E+05 1.48184E-08-4.23364E-09
 -1       665 3.40345E+05 4.81877E+04 1.74311E+03 1.28387E+05 1.08037E-08-1.43311E-08
 -1       666 3.40142E+05 4.91293E+04 1.00306E+03 1.28892E+05 1.47106E-08 5.39205E-09
 -1       667 3.40500E+05 4.83200E+04 5.35387E+02 1.28322E+05-1.15709E-08 9.83418E-09
 -1       668 3.39960E+05 4.90450E+04 5.31298E+02 1.29002E+05-1.57088E-08 7.85099E-09
 -1       669 3.40527E+05 4.82664E+04 7.19249E+02 1.28279E+05 9.90156E-10 4.34079E-09
 -1       670 3.40087E+05 4.94276E+04 1.54093E+03 1.29054E+05 2.53650E-09 1.47438E-08
 -1       671 3.40375E+05 4.79461E+04 2.77002E+03 1.28267E+05 5.24381E-12 1.28357E-08
 -1       672 3.41566E+05 5.19719E+04 6.98816E+03 1.28767E+05-9.26198E-09 1.11686E-09
 -1       673 3.39060E+05 4.58105E+04 1.18788E+04 1.28533E+05-2.08502E-10-1.28452E-08
 -1       674 3.52601E+05 7.04313E+04 3.35914E+04 1.25704E+05 8.31278E-10-2.66668E-08
 -1       675 3.29444E+05 3.02255E+04 5.03707E+04 1.31052E+05 7.38419E-09-1.21363E-08
 -1       676 2.94892E+01-4.16618E+05-1.59458E+03 1.21509E+02-2.47036E-09-1.97053E-09
 -1       677-3.63687E+02-4.16976E+05-2.89863E+03-2.42753E+02-6.91671E-09-2.74989E-08
 -1       678 2.25002E+02-4.16362E+05-5.16874E+03 1.21147E+02-3.41288E-09 8.32223E-10
 -1       679-4.81281E+03-4.20030E+05-1.21585E+04-2.41285E+02-3.40629E-09 1.01090E-08
 -1       680 2.49446E+03-4.13567E+05-1.98564E+04 1.18247E+02 3.71529E-09-2.88900E-08
 -1       771-4.55968E+06-8.56470E+05-1.18978E+05-1.94031E+06 1.88593E-08-4.22006E-09
 -1       772-4.52570E+06-9.08126E+05-6.21797E+04-2.00353E+06 8.67294E-09-5.92991E-10
 -1       773-4.57914E+06-8.37999E+05-2.92227E+04-1.94817E+06 1.07684E-09 1.51849E-08
 -1       774-4.51151E+06-8.97106E+05-1.36585E+04-2.01802E+06 2.21771E-08-8.06176E-09
 -1       775-4.58778E+06-8.31712E+05-8.58899E+03-1.94975E+06 6.56291E-09 7.85803E-10
 -1       776-4.51392E+06-8.97825E+05-3.58737E+03-2.02870E+06-2.69210E-09-5.15138E-09
 -1       777-4.59515E+06-8.26243E+05-3.35491E+03-1.95123E+06 8.09086E-09-8.40373E-10
 -1       778-4.51751E+06-8.98428E+05-1.25608E+03-2.03799E+06 9.40054E-09 1.30967E-10
 -1       779-4.60147E+06-8.21460E+05-1.86972E+03-1.95263E+06 1.03028E-08 4.40195E-10
 -1       780-4.52101E+06-8.98710E+05-1.13410E+03-2.04565E+06-1.26383E-08-4.50837E-09
 -1       781-4.60646E+06-8.17591E+05-2.25586E+03-1.95379E+06-9.95351E-09 8.94943E-10
 -1       782-4.52409E+06-8.98964E+05-3.58256E+03-2.05134E+06-1.61745E-08-7.85258E-09
 -1       783-4.60973E+06-8.14984E+05-7.27538E+03-1.95453E+06-8.46194E-09-1.35060E-08
 -1       784-4.53014E+06-9.03417E+05-1.69550E+04-2.05464E+06-1.00408E-09-1.50658E-09
 -1       785-4.60850E+06-8.16712E+05-3.17257E+04-1.95245E+06 1.67674E-08 3.10683E-09
 -1       786 3.42925E+05-1.79448E+04 4.20755E+04-3.50621E+01 4.10187E-10 1.61526E-09
 -1       787 3.61059E+05 2.07932E+04 2.96780E+04-1.68670E+02 1.19449E-09 8.15999E-09
 -1       788 3.49941E+05-2.77999E+03 1.08955E+04-2.46176E+01 7.37727E-10 1.29280E-08
 -1       789 3.52899E+05 3.21880E+03 6.81610E+03-1.95696E+02-1.81010E-10 1.91905E-08
 -1       790 3.51088E+05-4.29206E+02 2.78673E+03-8.04673E+00 6.03864E-11 1.30283E-08
 -1       791 3.51564E+05 4.99051E+02 1.63086E+03-2.38245E+02-4.25315E-10 1.00735E-08
 -1       792 3.51278E+05-6.85907E+01 7.51025E+02 1.79306E+01-2.20506E-10-1.93120E-09
 -1       793 3.51352E+05 9.80081E+01 4.97638E+02-3.03489E+02 2.64596E-10-1.71152E-08
 -1       794 3.51301E+05-2.92547E+01 3.81002E+02 5.71982E+01 3.83649E-10-8.89374E-09
 -1       795 3.51379E+05 1.57158E+02 5.65199E+02-4.00860E+02-4.71770E-10 6.29753E-09
 -1       796 3.51250E+05-1.27597E+02 8.59498E+02 1.15304E+02 2.67388E-10-8.68368E-10
 -1       797 3.51768E+05 9.48196E+02 2.02637E+03-5.44074E+02 2.71575E-10-1.39329E-08
 -1       798 3.50913E+05-8.17977E+02 3.21430E+03 2.00415E+02-2.05453E-10-4.08932E-09
 -1       799 3.54171E+05 6.11673E+03 8.73612E+03-7.54550E+02-2.38876E-09 2.01794E-10
 -1       800 3.48846E+05-5.27917E+03 1.23761E+04 3.25776E+02-9.79696E-11-4.42378E-09
 -1       801-3.82074E+04-3.73170E+05-3.32226E+04 1.44575E+05 1.21581E-08-9.11859E-09
 -1       802 7.94482E+04 5.84736E+04 1.10663E+05-6.17208E+05 5.42268E-08-3.54876E-08
 -1       803-2.31696E+04-1.47090E+05 1.15195E+05 1.46662E+05 4.81159E-08 5.14182E-08
 -1       804 2.66408E+05 2.05763E+05 3.65099E+05-6.19395E+05 3.66163E-08 3.72740E-08
 -1       805-2.28679E+05-5.14401E+05 3.72907E+05 1.46595E+05 3.14903E-08 4.46380E-08
 -1       806-4.01819E+05-8.68657E+04-3.45771E+04-1.67022E+05 2.59979E-09-4.06180E-09
 -1       807-4.03838E+05-8.12437E+04-1.69128E+04-1.76132E+05 3.93857E-09-6.82223E-09
 -1       808-4.02653E+05-7.38087E+04-7.16989E+03-1.73076E+05 7.84803E-09-2.15386E-08
 -1       809-4.00257E+05-7.64099E+04-3.50142E+03-1.76679E+05 2.50657E-09-1.61267E-08
 -1       810-4.02794E+05-7.33177E+04-1.60133E+03-1.73353E+05-2.76805E-09-4.38422E-09
 -1       811-3.99971E+05-7.62119E+04-7.92978E+02-1.76635E+05-9.39099E-09 7.42057E-09
 -1       812-4.02814E+05-7.33529E+04-3.94197E+02-1.73350E+05-9.43146E-10 5.92263E-09
 -1       813-3.99927E+05-7.62187E+04-2.44290E+02-1.76605E+05 5.94855E-09-1.01181E-08
 -1       814-4.02800E+05-7.33716E+04-2.23473E+02-1.73340E+05-1.71440E-09-1.71658E-08
 -1       815-3.99922E+05-7.62258E+04-3.41232E+02-1.76588E+05-3.37650E-09 1.42295E-08
 -1       816-4.02765E+05-7.33781E+04-6.35753E+02-1.73329E+05-1.14323E-09 8.27913E-09
 -1       817-4.00022E+05-7.62934E+04-1.35854E+03-1.76560E+05 2.97632E-09-4.19368E-09
 -1       818-4.02670E+05-7.36009E+04-2.77182E+03-1.73226E+05 5.80076E-09 1.77333E-08
 -1       819-4.01541E+05-7.79970E+04-6.52131E+03-1.76133E+05 8.01265E-10-9.89166E-09
 -1       820-4.02171E+05-7.87871E+04-1.33330E+04-1.71047E+05-2.34832E-09-8.66339E-09
 -1       821-5.49199E+05 2.92419E+04-6.85110E+04 6.29649E+01-1.19338E-09-5.30781E-09
 -1       822-5.78707E+05-3.38819E+04-4.83382E+04-1.50639E+03-2.27799E-09 6.64022E-09
 -1       823-5.60633E+05 4.52898E+03-1.77533E+04-3.30987E+02 3.24393E-09 5.51972E-09
 -1       824-5.65401E+05-5.24675E+03-1.11173E+04-6.61260E+02 5.07896E-10-1.48430E-09
 -1       825-5.62496E+05 6.99051E+02-4.59064E+03-7.82213E+02-7.38612E-09-8.21979E-09
 -1       826-5.63241E+05-8.24857E+02-2.75987E+03 2.00925E+02-1.08350E-08-2.55218E-09
 -1       827-5.62790E+05 1.20864E+02-1.43386E+03-1.19320E+03-8.32733E-09 7.16921E-09
 -1       828-5.62958E+05-2.46335E+02-1.26718E+03 8.94519E+02-8.98145E-09-5.50220E-09
 -1       829-5.62780E+05 1.23203E+02-1.45862E+03-1.47583E+03-1.62159E-09-6.34492E-09
 -1       830-5.63285E+05-8.45478E+02-2.84111E+03 1.27079E+03 5.57627E-09-1.81576E-08
 -1       831-5.62465E+05 7.19237E+02-4.72471E+03-1.56947E+03-4.31782E-09 4.69640E-09
 -1       832-5.65520E+05-5.40328E+03-1.14659E+04 1.25148E+03-2.48799E-09 9.54947E-09
 -1       833-5.60548E+05 4.66719E+03-1.82999E+04-1.45650E+03-1.91681E-09-4.13911E-09
 -1       834-5.79218E+05-3.49263E+04-4.98387E+04 8.52852E+02 1.00863E-09 6.18456E-09
 -1       835-5.48774E+05 3.01457E+04-7.06352E+04-1.17071E+03 8.03479E-09 1.88447E-09
 -1       836-3.06196E+03 5.41729E+05 3.54294E+04-3.88388E+04-4.32738E-09 1.16779E-09
 -1       837 8.50968E+03 5.53031E+05 2.96111E+04-8.39669E+04-3.77440E-09-3.99700E-09
 -1       838-9.22412E+02 5.44959E+05 2.89075E+04-3.87316E+04-6.19730E-09-1.35335E-08
 -1       839 1.93950E+04 5.60766E+05 5.41291E+04-8.39876E+04-4.51928E-09 1.28373E-08
 -1       840-7.87891E+03 5.33863E+05 8.47942E+04-3.88125E+04-5.58794E-09 1.22000E-08
 -1       856-2.05613E+05 1.44362E+04-4.01834E+04-6.29122E+02-5.12523E-09-1.01136E-09
 -1       857-2.21906E+05-1.70683E+04-2.73836E+04 1.04851E+04-1.79034E-09-2.22963E-09
 -1       858-2.12106E+05 1.93588E+03-1.04368E+04-7.09215E+02-7.50231E-09 2.25873E-09
 -1       859-2.14498E+05-2.24350E+03-6.22114E+03 1.06126E+04-4.61910E-09 1.84261E-08
 -1       860-2.13040E+05 2.57599E+02-2.65307E+03-7.57537E+02 2.78413E-09 1.45114E-08
 -1       861-2.13433E+05-2.57531E+02-1.46829E+03 1.06779E+04-8.02612E-09-5.25958E-09
 -1       862-2.13180E+05 3.29286E+01-6.69534E+02-7.74678E+02 1.10072E-08-8.15970E-09
 -1       863-2.13270E+05 5.63951E+00-3.60385E+02 1.06822E+04 2.13362E-08-1.53925E-08
 -1       864-2.13203E+05 2.75855E+00-1.80121E+02-7.61851E+02 1.31628E-08-9.95114E-09
 -1       865-2.13233E+05 3.12977E+01-1.14016E+02 1.06253E+04 6.69166E-09-8.17236E-09
 -1       866-2.13208E+05 1.26700E+00-9.65632E+01-7.17790E+02 5.92718E-09 1.27038E-08
 -1       867-2.13222E+05-1.10708E+01-1.41003E+02 1.05070E+04 3.81181E-09 1.92348E-08
 -1       868-2.13196E+05 3.06175E+01-2.23829E+02-6.43465E+02 1.71076E-09-7.60902E-09
 -1       869-2.13328E+05-3.13863E+02-5.42148E+02 1.03173E+04-1.40558E-08-1.17822E-08
 -1       870-2.13075E+05 2.72411E+02-8.14286E+02-5.28010E+02 3.15526E-09-4.63353E-09
 -1       871-7.22848E+03-2.22946E+04-2.46826E+04 1.73028E+05-1.30767E-08 1.51958E-08
 -1       872-3.51404E+03-2.79958E+04-1.00061E+04 2.28226E+05-6.90852E-09 1.67347E-09
 -1       873-2.15756E+02-2.54991E+04 1.71803E+03 1.72642E+05-9.44601E-09 9.03265E-09
 -1       874 3.75997E+03-2.16031E+04 1.47233E+04 2.28307E+05-8.82028E-09 2.78396E-09
 -1       875 8.28523E+03-2.89314E+04 3.21888E+04 1.72978E+05-9.59153E-09 7.05040E-09
 -1       876 4.26220E+05 7.22555E+04 2.43832E+04 1.71995E+05 9.29936E-09-3.22871E-09
 -1       877 4.28232E+05 7.79785E+04 1.31447E+04 1.78560E+05 4.20005E-09-1.79716E-08
 -1       878 4.28616E+05 7.01579E+04 5.48577E+03 1.73829E+05 1.71440E-09-3.29874E-09
 -1       879 4.24847E+05 7.45298E+04 2.73912E+03 1.78721E+05-7.21502E-09-1.06525E-10
 -1       880 4.28785E+05 7.01512E+04 1.27103E+03 1.73909E+05 2.79306E-09 8.97171E-09
 -1       881 4.24619E+05 7.43725E+04 6.73557E+02 1.78679E+05-3.97381E-09-1.60045E-09
 -1       882 4.28798E+05 7.01740E+04 4.20082E+02 1.73912E+05 1.03660E-08-2.83281E-09
 -1       883 4.24602E+05 7.43636E+04 4.35244E+02 1.78665E+05 2.29350E-08 1.19255E-08
 -1       884 4.28788E+05 7.01713E+04 6.76846E+02 1.73913E+05 2.78117E-08-5.16445E-09
 -1       885 4.24656E+05 7.43756E+04 1.35177E+03 1.78680E+05 2.79697E-08-2.79539E-09
 -1       886 4.28737E+05 7.01328E+04 2.71803E+03 1.73906E+05 1.66275E-08-1.87708E-08
 -1       887 4.25149E+05 7.47164E+04 5.94394E+03 1.78748E+05 5.70685E-09-1.29417E-08
 -1       888 4.28348E+05 7.01583E+04 1.19461E+04 1.73724E+05 5.38950E-09 5.24506E-09
 -1       889 4.32408E+05 8.23403E+04 2.86412E+04 1.78493E+05 3.37333E-09 1.44655E-09
 -1       890 4.23214E+05 7.46374E+04 5.31437E+04 1.69598E+05 4.77621E-09-2.91220E-09
 -1       891-3.54549E+02-2.38983E+05-4.15446E+03 4.43959E+04-1.51772E-09-4.75188E-09
 -1       892-7.55384E+02-2.39998E+05-3.84129E+03 6.94447E+04-7.29642E-09-2.06680E-08
 -1       893-1.20122E+02-2.39206E+05-4.73929E+03 4.44018E+04-1.51931E-09-1.28293E-08
 -1       894-2.62766E+03-2.41489E+05-9.35904E+03 6.92020E+04 3.22052E-09 5.17957E-09
 -1       895-1.52222E+03-2.37225E+05-1.61265E+04 4.46324E+04 1.31934E-09-2.89219E-10
 -1       956-5.33053E+05-7.45306E+03-1.98786E+04 3.78074E+04-1.89175E-09-6.19139E-10
 -1       957-5.37075E+05-2.56652E+03-1.02538E+04 4.60912E+04 4.96402E-09-2.22963E-08
 -1       958-5.34893E+05-1.56689E+02-4.62300E+03 3.75497E+04 7.41238E-09-1.19699E-08
 -1       959-5.35227E+05 1.88582E+01-2.36155E+03 4.63703E+04-3.22871E-09 3.40697E-09
 -1       960-5.35079E+05 1.10629E+02-1.15255E+03 3.75226E+04-7.00584E-09 3.91128E-09
 -1       961-5.35123E+05 1.29197E+02-6.08998E+02 4.64025E+04-1.02377E-08-1.53400E-08
 -1       962-5.35130E+05 1.14797E+02-3.46006E+02 3.75166E+04-7.09997E-09-1.11172E-08
 -1       963-5.35135E+05 1.41719E+02-2.71887E+02 4.64108E+04-1.14214E-08 3.32147E-09
 -1       964-5.35146E+05 1.24550E+02-3.23994E+02 3.75141E+04 2.07979E-09-5.85578E-09
 -1       965-5.35160E+05 1.50301E+02-5.54658E+02 4.64120E+04 9.30818E-09-1.53391E-08
 -1       966-5.35129E+05 1.39399E+02-1.03914E+03 3.75154E+04-3.84443E-09-1.27845E-08
 -1       967-5.35287E+05 6.98275E+01-2.12870E+03 4.63959E+04 2.65732E-09 2.15277E-09
 -1       968-5.34988E+05-8.40259E+01-4.16321E+03 3.75308E+04 1.52068E-09 2.34877E-10
 -1       969-5.36986E+05-2.24465E+03-9.24133E+03 4.62255E+04 2.97678E-09-2.53422E-09
 -1       970-5.33351E+05-6.64955E+03-1.79123E+04 3.76957E+04 1.88993E-09-1.33332E-09
 -1       971-5.07295E+05-2.23527E+03-1.46930E+04 2.23702E+04-7.36236E-09-5.28127E-09
 -1       972-5.10969E+05-1.91876E+03-8.06871E+03 3.22509E+04-3.65435E-09-9.85074E-09
 -1       973-5.08987E+05 1.55699E+01-3.60575E+03 2.21658E+04-7.65340E-09-3.66390E-09
 -1       974-5.09262E+05 2.68421E+01-1.86982E+03 3.24752E+04-2.13504E-09 1.40983E-08
 -1       975-5.09132E+05 8.47701E+01-9.33023E+02 2.21413E+04-4.03452E-09-9.28048E-09
 -1       976-5.09177E+05 1.19566E+02-5.34087E+02 3.25076E+04-1.38625E-08-4.16981E-09
 -1       977-5.09166E+05 9.18850E+01-3.81758E+02 2.21327E+04-8.24002E-10-9.43373E-10
 -1       978-5.09193E+05 1.34000E+02-4.37996E+02 3.25196E+04 1.76915E-08 9.29958E-09
 -1       979-5.09169E+05 1.06040E+02-6.97111E+02 2.21291E+04 7.79107E-09 6.16569E-09
 -1       980-5.09246E+05 1.37069E+02-1.34233E+03 3.25217E+04 8.63295E-09-7.60588E-09
 -1       981-5.09124E+05 1.36219E+02-2.59785E+03 2.21306E+04-1.73281E-09 6.78904E-09
 -1       982-5.09604E+05-7.42021E+01-5.37379E+03 3.25078E+04 5.12773E-09 2.79023E-09
 -1       983-5.08783E+05-3.32444E+00-1.04246E+04 2.21439E+04 1.20135E-08 4.23051E-09
 -1       984-5.14703E+05-5.65449E+03-2.34097E+04 3.23641E+04 8.89122E-09 1.39355E-08
 -1       985-5.03962E+05-6.46859E+03-4.26170E+04 2.22932E+04 1.69675E-08-4.19459E-09
 -3
 9999
