
 stresses (elem, integ.pnt.,sxx,syy,szz,sxy,sxz,syz) for set ELALL and time  0.1000000E+01

         1   1  3.609830E+06  1.335800E+07  3.442978E+06 -2.237868E+06  1.742958E+05  1.180800E+06
         1   2  2.928045E+06  1.138326E+07  2.390452E+06 -2.018131E+06  5.818453E+05  5.225145E+05
         1   3  2.437329E+06  9.554085E+06  1.811017E+06 -2.156652E+06  6.662912E+05 -1.332140E+05
         1   4  1.274381E+05 -8.527450E+05  1.363016E+05 -2.106118E+06  1.791606E+05  8.910331E+04
         1   5  2.950411E+04 -8.634368E+05  6.988358E+04 -1.927330E+06  5.855695E+05  5.663848E+04
         1   6  1.705495E+04 -8.378916E+05  4.788846E+04 -2.106851E+06  6.660293E+05  2.448671E+04
         1   7 -3.368484E+06 -1.487708E+07 -3.179626E+06 -1.976890E+06  1.836581E+05 -9.781886E+05
         1   8 -2.877644E+06 -1.296660E+07 -2.256591E+06 -1.837941E+06  5.892123E+05 -4.003996E+05
         1   9 -2.408898E+06 -1.112452E+07 -1.718684E+06 -2.057540E+06  6.657893E+05  1.796598E+05
         1  10  3.609431E+06  1.335652E+07  3.440350E+06 -2.238034E+06  8.332419E-09 -6.125549E-09
         1  11  2.927609E+06  1.138288E+07  2.389307E+06 -2.018375E+06 -5.450621E-09 -2.874956E-08
         1  12  2.436849E+06  9.553947E+06  1.810151E+06 -2.156581E+06 -7.725686E-09 -4.697179E-08
         1  13  1.274014E+05 -8.527622E+05  1.362261E+05 -2.106131E+06  1.263163E-08 -1.897901E-10
         1  14  2.913506E+04 -8.635324E+05  6.923299E+04 -1.927357E+06  2.108128E-08 -1.974736E-10
         1  15  1.657857E+04 -8.380113E+05  4.705381E+04 -2.106865E+06  2.229922E-08 -5.352543E-10
         1  16 -3.368784E+06 -1.487814E+07 -3.181528E+06 -1.976745E+06  3.976235E-09  5.898077E-09
         1  17 -2.878059E+06 -1.296687E+07 -2.257547E+06 -1.837750E+06 -2.717908E-09  2.775272E-08
         1  18 -2.409384E+06 -1.112468E+07 -1.719580E+06 -2.057637E+06  6.193734E-09  4.600339E-08
         1  19  3.609830E+06  1.335800E+07  3.442978E+06 -2.237868E+06 -1.742958E+05 -1.180800E+06
         1  20  2.928045E+06  1.138326E+07  2.390452E+06 -2.018131E+06 -5.818453E+05 -5.225145E+05
         1  21  2.437329E+06  9.554085E+06  1.811017E+06 -2.156652E+06 -6.662912E+05  1.332140E+05
         1  22  1.274381E+05 -8.527450E+05  1.363016E+05 -2.106118E+06 -1.791606E+05 -8.910331E+04
         1  23  2.950411E+04 -8.634368E+05  6.988358E+04 -1.927330E+06 -5.855695E+05 -5.663848E+04
         1  24  1.705495E+04 -8.378916E+05  4.788846E+04 -2.106851E+06 -6.660293E+05 -2.448671E+04
         1  25 -3.368484E+06 -1.487708E+07 -3.179626E+06 -1.976890E+06 -1.836581E+05  9.781886E+05
         1  26 -2.877644E+06 -1.296660E+07 -2.256591E+06 -1.837941E+06 -5.892123E+05  4.003996E+05
         1  27 -2.408898E+06 -1.112452E+07 -1.718684E+06 -2.057540E+06 -6.657893E+05 -1.796598E+05
         2   1  2.152631E+06  8.317844E+06  1.571169E+06 -2.170058E+06  6.087635E+05 -1.227786E+05
         2   2  1.704080E+06  6.408470E+06  1.206887E+06 -1.967715E+06  5.200729E+05 -2.068454E+05
         2   3  1.284901E+06  4.519691E+06  9.038921E+05 -2.146100E+06  3.982165E+05 -2.914059E+05
         2   4  2.309349E+04 -8.401327E+05  4.212335E+04 -2.111843E+06  6.083301E+05  1.674373E+04
         2   5  2.598285E+04 -8.386454E+05  4.060331E+04 -1.921289E+06  5.186136E+05 -3.727714E+03
         2   6  4.752669E+04 -8.309975E+05  5.660731E+04 -2.111725E+06  3.955304E+05 -2.493582E+04
         2   7 -2.110791E+06 -9.915966E+06 -1.489451E+06 -2.054207E+06  6.079182E+05  1.542953E+05
         2   8 -1.654734E+06 -8.033843E+06 -1.126949E+06 -1.875225E+06  5.171730E+05  1.971214E+05
         2   9 -1.191230E+06 -6.153152E+06 -7.911377E+05 -2.077537E+06  3.928581E+05  2.393345E+05
         2  10  2.152229E+06  8.317728E+06  1.570446E+06 -2.169999E+06 -4.808509E-09  6.697161E-08
         2  11  1.703779E+06  6.408352E+06  1.206301E+06 -1.967629E+06  2.449323E-09  3.566244E-08
         2  12  1.284709E+06  4.519559E+06  9.034376E+05 -2.146007E+06 -3.926583E-12 -1.469372E-09
         2  13  2.269616E+04 -8.402323E+05  4.142753E+04 -2.111852E+06  2.867148E-08 -6.701675E-10
         2  14  2.569417E+04 -8.387175E+05  4.009810E+04 -1.921288E+06  4.117328E-09 -1.545846E-10
         2  15  4.735866E+04 -8.310401E+05  5.631245E+04 -2.111717E+06  8.043768E-09  2.773747E-10
         2  16 -2.111194E+06 -9.916091E+06 -1.490191E+06 -2.054284E+06  1.357183E-08 -6.663998E-08
         2  17 -1.655032E+06 -8.033957E+06 -1.127527E+06 -1.875308E+06  1.028250E-08 -3.590159E-08
         2  18 -1.191412E+06 -6.153256E+06 -7.915377E+05 -2.077613E+06 -1.118068E-08  7.014885E-10
         2  19  2.152631E+06  8.317844E+06  1.571169E+06 -2.170058E+06 -6.087635E+05  1.227786E+05
         2  20  1.704080E+06  6.408470E+06  1.206887E+06 -1.967715E+06 -5.200729E+05  2.068454E+05
         2  21  1.284901E+06  4.519691E+06  9.038921E+05 -2.146100E+06 -3.982165E+05  2.914059E+05
         2  22  2.309349E+04 -8.401327E+05  4.212335E+04 -2.111843E+06 -6.083301E+05 -1.674373E+04
         2  23  2.598285E+04 -8.386454E+05  4.060331E+04 -1.921289E+06 -5.186136E+05  3.727714E+03
         2  24  4.752669E+04 -8.309975E+05  5.660731E+04 -2.111725E+06 -3.955304E+05  2.493582E+04
         2  25 -2.110791E+06 -9.915966E+06 -1.489451E+06 -2.054207E+06 -6.079182E+05 -1.542953E+05
         2  26 -1.654734E+06 -8.033843E+06 -1.126949E+06 -1.875225E+06 -5.171730E+05 -1.971214E+05
         2  27 -1.191230E+06 -6.153152E+06 -7.911377E+05 -2.077537E+06 -3.928581E+05 -2.393345E+05
         3   1  1.007540E+06  3.313995E+06  7.170289E+05 -2.150442E+06  3.157790E+05 -3.000778E+05
         3   2  6.115490E+05  1.404318E+06  4.632478E+05 -1.870874E+06  1.786259E+05 -3.570215E+05
         3   3  3.341801E+05 -4.715737E+05  2.741286E+05 -1.973971E+06  4.403932E+04 -4.140068E+05
         3   4  5.140260E+04 -8.233281E+05  6.955071E+04 -2.112261E+06  3.128637E+05 -3.534317E+04
         3   5  9.612070E+04 -8.372941E+05  1.184300E+05 -1.919986E+06  1.756189E+05 -9.742134E+04
         3   6  2.605787E+05 -8.203790E+05  2.353472E+05 -2.110196E+06  4.095748E+04 -1.596885E+05
         3   7 -9.055372E+05 -4.943478E+06 -5.780774E+05 -2.074271E+06  3.099677E+05  2.277005E+05
         3   8 -4.195017E+05 -3.073732E+06 -2.262444E+05 -1.968895E+06  1.725636E+05  1.612793E+05
         3   9  1.870791E+05 -1.168877E+06  1.968205E+05 -2.246341E+06  3.776270E+04  9.449475E+04
         3  10  1.007410E+06  3.313872E+06  7.166747E+05 -2.150366E+06 -9.053556E-09 -1.041581E-09
         3  11  6.114809E+05  1.404173E+06  4.629497E+05 -1.870822E+06 -4.126827E-09  6.387262E-09
         3  12  3.341320E+05 -4.717582E+05  2.738029E+05 -1.973956E+06  2.238516E-09  1.405667E-08
         3  13  5.129727E+04 -8.233556E+05  6.936469E+04 -2.112252E+06 -1.375609E-08  1.823391E-10
         3  14  9.608513E+04 -8.373124E+05  1.183545E+05 -1.919973E+06  1.785771E-09  3.909305E-10
         3  15  2.605700E+05 -8.204068E+05  2.352962E+05 -2.110191E+06 -3.402589E-09  1.193084E-10
         3  16 -9.056548E+05 -4.943560E+06 -5.783572E+05 -2.074328E+06 -1.416864E-08  1.214316E-09
         3  17 -4.195408E+05 -3.073768E+06 -2.263499E+05 -1.968918E+06 -1.728815E-09 -6.937256E-09
         3  18  1.870751E+05 -1.168887E+06  1.968010E+05 -2.246344E+06 -1.355147E-09 -1.454268E-08
         3  19  1.007540E+06  3.313995E+06  7.170289E+05 -2.150442E+06 -3.157790E+05  3.000778E+05
         3  20  6.115490E+05  1.404318E+06  4.632478E+05 -1.870874E+06 -1.786259E+05  3.570215E+05
         3  21  3.341801E+05 -4.715737E+05  2.741286E+05 -1.973971E+06 -4.403932E+04  4.140068E+05
         3  22  5.140260E+04 -8.233281E+05  6.955071E+04 -2.112261E+06 -3.128637E+05  3.534317E+04
         3  23  9.612070E+04 -8.372941E+05  1.184300E+05 -1.919986E+06 -1.756189E+05  9.742134E+04
         3  24  2.605787E+05 -8.203790E+05  2.353472E+05 -2.110196E+06 -4.095748E+04  1.596885E+05
         3  25 -9.055372E+05 -4.943478E+06 -5.780774E+05 -2.074271E+06 -3.099677E+05 -2.277005E+05
         3  26 -4.195017E+05 -3.073732E+06 -2.262444E+05 -1.968895E+06 -1.725636E+05 -1.612793E+05
         3  27  1.870791E+05 -1.168877E+06  1.968205E+05 -2.246341E+06 -3.776270E+04 -9.449475E+04
         4   1 -6.983838E+06 -2.121571E+06 -1.372037E+06 -2.417713E+06 -7.108485E+05 -2.574181E+05
         4   2 -6.749166E+06 -1.033284E+06 -6.914209E+05 -2.542489E+06 -4.594848E+05 -1.471212E+05
         4   3 -6.880331E+06 -1.091167E+06 -4.974819E+05 -2.469712E+06 -2.009658E+05 -5.586249E+04
         4   4 -6.153406E+06 -1.644050E+06 -1.110289E+06 -2.025241E+06 -7.041115E+05 -2.551323E+05
         4   5 -5.914410E+06 -6.749368E+05 -4.560101E+05 -2.272018E+06 -4.583958E+05 -1.467572E+05
         4   6 -6.039546E+06 -8.500239E+05 -2.833755E+05 -2.321414E+06 -2.055283E+05 -5.753318E+04
         4   7 -5.322232E+06 -1.166162E+06 -8.486078E+05 -1.632200E+06 -6.973640E+05 -2.528379E+05
         4   8 -5.078969E+06 -3.164897E+05 -2.206661E+05 -2.001194E+06 -4.573049E+05 -1.463922E+05
         4   9 -5.198068E+06 -6.088985E+05 -6.932088E+04 -2.172965E+06 -2.100975E+05 -5.920499E+04
         4  10 -6.984404E+06 -2.121781E+06 -1.373124E+06 -2.417862E+06  2.730797E-09 -6.447312E-10
         4  11 -6.749401E+06 -1.033365E+06 -6.918638E+05 -2.542544E+06  2.189886E-09 -9.021002E-10
         4  12 -6.880376E+06 -1.091181E+06 -4.975647E+05 -2.469721E+06  2.290630E-09  2.685190E-09
         4  13 -6.153961E+06 -1.644255E+06 -1.111355E+06 -2.025387E+06  4.720558E-10 -2.444613E-10
         4  14 -5.914643E+06 -6.750174E+05 -4.564503E+05 -2.272072E+06 -4.138860E-09 -6.464661E-10
         4  15 -6.039593E+06 -8.500390E+05 -2.834620E+05 -2.321423E+06 -2.523442E-09  8.124875E-10
         4  16 -5.322776E+06 -1.166363E+06 -8.496517E+05 -1.632343E+06  3.805958E-09  7.532388E-11
         4  17 -5.079201E+06 -3.165698E+05 -2.211036E+05 -2.001248E+06  2.460012E-09 -4.829880E-10
         4  18 -5.198116E+06 -6.089143E+05 -6.941129E+04 -2.172975E+06 -5.773938E-09 -5.944032E-10
         4  19 -6.983838E+06 -2.121571E+06 -1.372037E+06 -2.417713E+06  7.108485E+05  2.574181E+05
         4  20 -6.749166E+06 -1.033284E+06 -6.914209E+05 -2.542489E+06  4.594848E+05  1.471212E+05
         4  21 -6.880331E+06 -1.091167E+06 -4.974819E+05 -2.469712E+06  2.009658E+05  5.586249E+04
         4  22 -6.153406E+06 -1.644050E+06 -1.110289E+06 -2.025241E+06  7.041115E+05  2.551323E+05
         4  23 -5.914410E+06 -6.749368E+05 -4.560101E+05 -2.272018E+06  4.583958E+05  1.467572E+05
         4  24 -6.039546E+06 -8.500239E+05 -2.833755E+05 -2.321414E+06  2.055283E+05  5.753318E+04
         4  25 -5.322232E+06 -1.166162E+06 -8.486078E+05 -1.632200E+06  6.973640E+05  2.528379E+05
         4  26 -5.078969E+06 -3.164897E+05 -2.206661E+05 -2.001194E+06  4.573049E+05  1.463922E+05
         4  27 -5.198068E+06 -6.088985E+05 -6.932088E+04 -2.172965E+06  2.100975E+05  5.920499E+04
         5   1 -6.502926E+06 -1.193920E+06 -3.743741E+05 -2.416989E+06 -1.615801E+05 -4.688235E+04
         5   2 -6.409137E+06 -9.625257E+05 -2.168284E+05 -2.350876E+06 -1.034304E+05 -2.784649E+04
         5   3 -6.274602E+06 -9.768644E+05 -1.414262E+05 -2.366673E+06 -4.428848E+04 -1.145284E+04
         5   4 -5.996502E+06 -9.828953E+05 -2.325489E+05 -2.259465E+06 -1.619651E+05 -4.703296E+04
         5   5 -6.009422E+06 -8.071656E+05 -1.071860E+05 -2.238113E+06 -1.045944E+05 -2.828051E+04
         5   6 -5.981403E+06 -8.769462E+05 -6.328588E+04 -2.298679E+06 -4.624282E+04 -1.217709E+04
         5   7 -5.489829E+06 -7.718403E+05 -9.074809E+04 -2.101818E+06 -1.623503E+05 -4.718370E+04
         5   8 -5.609552E+06 -6.517942E+05  2.441447E+03 -2.125282E+06 -1.057592E+05 -2.871484E+04
         5   9 -5.688123E+06 -7.770274E+05  1.484677E+04 -2.230657E+06 -4.819817E+04 -1.290163E+04
         5  10 -6.502954E+06 -1.193929E+06 -3.744280E+05 -2.416995E+06  5.778544E-09  1.089280E-09
         5  11 -6.409149E+06 -9.625294E+05 -2.168502E+05 -2.350879E+06  4.711957E-09 -2.576534E-09
         5  12 -6.274604E+06 -9.768651E+05 -1.414301E+05 -2.366674E+06  8.329181E-09 -4.324220E-09
         5  13 -5.996531E+06 -9.829048E+05 -2.326030E+05 -2.259471E+06  1.267134E-08 -1.504921E-10
         5  14 -6.009434E+06 -8.071695E+05 -1.072083E+05 -2.238115E+06  9.929289E-09 -2.960632E-09
         5  15 -5.981406E+06 -8.769470E+05 -6.329023E+04 -2.298679E+06 -8.206407E-09 -2.986522E-09
         5  16 -5.489858E+06 -7.718499E+05 -9.080234E+04 -2.101825E+06 -3.537378E-09 -1.590461E-09
         5  17 -5.609564E+06 -6.517981E+05  2.418646E+03 -2.125285E+06 -1.159497E-09 -3.549325E-09
         5  18 -5.688125E+06 -7.770282E+05  1.484205E+04 -2.230657E+06  1.432750E-10 -3.327639E-09
         5  19 -6.502926E+06 -1.193920E+06 -3.743741E+05 -2.416989E+06  1.615801E+05  4.688235E+04
         5  20 -6.409137E+06 -9.625257E+05 -2.168284E+05 -2.350876E+06  1.034304E+05  2.784649E+04
         5  21 -6.274602E+06 -9.768644E+05 -1.414262E+05 -2.366673E+06  4.428848E+04  1.145284E+04
         5  22 -5.996502E+06 -9.828953E+05 -2.325489E+05 -2.259465E+06  1.619651E+05  4.703296E+04
         5  23 -6.009422E+06 -8.071656E+05 -1.071860E+05 -2.238113E+06  1.045944E+05  2.828051E+04
         5  24 -5.981403E+06 -8.769462E+05 -6.328588E+04 -2.298679E+06  4.624282E+04  1.217709E+04
         5  25 -5.489829E+06 -7.718403E+05 -9.074809E+04 -2.101818E+06  1.623503E+05  4.718370E+04
         5  26 -5.609552E+06 -6.517942E+05  2.441447E+03 -2.125282E+06  1.057592E+05  2.871484E+04
         5  27 -5.688123E+06 -7.770274E+05  1.484677E+04 -2.230657E+06  4.819817E+04  1.290163E+04
         6   1 -5.937409E+06 -8.831616E+05 -4.002838E+04 -2.283364E+06 -3.431698E+04 -1.148301E+04
         6   2 -5.862405E+06 -7.645859E+05  1.861539E+04 -2.190555E+06 -1.974252E+04 -1.139463E+04
         6   3 -5.688745E+06 -7.729119E+05  6.238756E+04 -2.217982E+06 -5.165882E+03 -1.129567E+04
         6   4 -5.974739E+06 -8.947916E+05 -5.012475E+04 -2.290794E+06 -3.577273E+04 -1.202308E+04
         6   5 -6.023073E+06 -8.244503E+05 -2.495747E+04 -2.233210E+06 -2.119588E+04 -1.193414E+04
         6   6 -5.972761E+06 -8.810153E+05 -1.466025E+04 -2.295869E+06 -6.619682E+03 -1.183572E+04
         6   7 -6.012068E+06 -9.064217E+05 -6.022128E+04 -2.298225E+06 -3.722839E+04 -1.256312E+04
         6   8 -6.183716E+06 -8.843136E+05 -6.853278E+04 -2.275855E+06 -2.264882E+04 -1.247350E+04
         6   9 -6.256698E+06 -9.891140E+05 -9.171550E+04 -2.373724E+06 -8.072748E+03 -1.237548E+04
         6  10 -5.937411E+06 -8.831621E+05 -4.003087E+04 -2.283364E+06  7.103150E-09 -2.639809E-09
         6  11 -5.862405E+06 -7.645861E+05  1.861440E+04 -2.190555E+06 -2.424225E-09  7.141512E-10
         6  12 -5.688745E+06 -7.729120E+05  6.238727E+04 -2.217982E+06 -3.752687E-09  1.279622E-09
         6  13 -5.974741E+06 -8.947921E+05 -5.012746E+04 -2.290795E+06 -4.649110E-09 -1.258215E-09
         6  14 -6.023073E+06 -8.244506E+05 -2.495860E+04 -2.233210E+06  1.053727E-08  2.020956E-09
         6  15 -5.972761E+06 -8.810155E+05 -1.466059E+04 -2.295869E+06  9.426125E-11 -4.182517E-09
         6  16 -6.012070E+06 -9.064223E+05 -6.022421E+04 -2.298225E+06 -6.964511E-09  1.436747E-09
         6  17 -6.183716E+06 -8.843139E+05 -6.853405E+04 -2.275856E+06  3.116718E-09  1.992597E-09
         6  18 -6.256698E+06 -9.891141E+05 -9.171591E+04 -2.373724E+06  3.815274E-09 -6.449172E-09
         6  19 -5.937409E+06 -8.831616E+05 -4.002838E+04 -2.283364E+06  3.431698E+04  1.148301E+04
         6  20 -5.862405E+06 -7.645859E+05  1.861539E+04 -2.190555E+06  1.974252E+04  1.139463E+04
         6  21 -5.688745E+06 -7.729119E+05  6.238756E+04 -2.217982E+06  5.165882E+03  1.129567E+04
         6  22 -5.974739E+06 -8.947916E+05 -5.012475E+04 -2.290794E+06  3.577273E+04  1.202308E+04
         6  23 -6.023073E+06 -8.244503E+05 -2.495747E+04 -2.233210E+06  2.119588E+04  1.193414E+04
         6  24 -5.972761E+06 -8.810153E+05 -1.466025E+04 -2.295869E+06  6.619682E+03  1.183572E+04
         6  25 -6.012068E+06 -9.064217E+05 -6.022128E+04 -2.298225E+06  3.722839E+04  1.256312E+04
         6  26 -6.183716E+06 -8.843136E+05 -6.853278E+04 -2.275855E+06  2.264882E+04  1.247350E+04
         6  27 -6.256698E+06 -9.891140E+05 -9.171550E+04 -2.373724E+06  8.072748E+03  1.237548E+04
         7   1 -5.392541E+06 -6.591806E+05  1.475306E+05 -2.132593E+06 -1.946717E+03 -1.328561E+04
         7   2 -5.335592E+06 -5.753421E+05  1.790419E+05 -2.055188E+06  2.843157E+03 -1.643230E+04
         7   3 -5.191506E+06 -5.812335E+05  2.077564E+05 -2.077395E+06  7.282005E+03 -1.860801E+04
         7   4 -5.976195E+06 -8.783489E+05 -1.149622E+04 -2.289257E+06 -3.443486E+03 -1.384266E+04
         7   5 -6.019642E+06 -8.328828E+05 -6.920861E+03 -2.239651E+06  1.645879E+03 -1.687967E+04
         7   6 -5.976020E+06 -8.772163E+05 -5.382522E+03 -2.289669E+06  6.383461E+03 -1.894536E+04
         7   7 -6.559518E+06 -1.097498E+06 -1.705534E+05 -2.445786E+06 -4.938687E+03 -1.439912E+04
         7   8 -6.703239E+06 -1.090397E+06 -1.929257E+05 -2.423929E+06  4.500688E+02 -1.732649E+04
         7   9 -6.759939E+06 -1.173164E+06 -2.185772E+05 -2.501699E+06  5.486176E+03 -1.928224E+04
         7  10 -5.392541E+06 -6.591808E+05  1.475303E+05 -2.132593E+06 -9.428720E-09 -1.164679E-09
         7  11 -5.335592E+06 -5.753424E+05  1.790414E+05 -2.055188E+06 -5.020121E-09 -1.290526E-10
         7  12 -5.191507E+06 -5.812339E+05  2.077556E+05 -2.077395E+06 -6.050574E-09  3.917886E-09
         7  13 -5.976195E+06 -8.783491E+05 -1.149660E+04 -2.289257E+06  6.117389E-09 -2.081164E-09
         7  14 -6.019642E+06 -8.328832E+05 -6.921401E+03 -2.239651E+06 -8.644106E-09  3.199334E-09
         7  15 -5.976020E+06 -8.772167E+05 -5.383271E+03 -2.289669E+06 -4.049490E-09  3.676608E-09
         7  16 -6.559518E+06 -1.097498E+06 -1.705538E+05 -2.445786E+06  9.611866E-09 -2.939604E-09
         7  17 -6.703239E+06 -1.090398E+06 -1.929263E+05 -2.423929E+06 -3.946690E-09  7.300510E-09
         7  18 -6.759939E+06 -1.173165E+06 -2.185780E+05 -2.501699E+06 -7.877472E-09  2.474918E-10
         7  19 -5.392541E+06 -6.591806E+05  1.475306E+05 -2.132593E+06  1.946717E+03  1.328561E+04
         7  20 -5.335592E+06 -5.753421E+05  1.790419E+05 -2.055188E+06 -2.843157E+03  1.643230E+04
         7  21 -5.191506E+06 -5.812335E+05  2.077564E+05 -2.077395E+06 -7.282005E+03  1.860801E+04
         7  22 -5.976195E+06 -8.783489E+05 -1.149622E+04 -2.289257E+06  3.443486E+03  1.384266E+04
         7  23 -6.019642E+06 -8.328828E+05 -6.920861E+03 -2.239651E+06 -1.645879E+03  1.687967E+04
         7  24 -5.976020E+06 -8.772163E+05 -5.382522E+03 -2.289669E+06 -6.383461E+03  1.894536E+04
         7  25 -6.559518E+06 -1.097498E+06 -1.705534E+05 -2.445786E+06  4.938687E+03  1.439912E+04
         7  26 -6.703239E+06 -1.090397E+06 -1.929257E+05 -2.423929E+06 -4.500688E+02  1.732649E+04
         7  27 -6.759939E+06 -1.173164E+06 -2.185772E+05 -2.501699E+06 -5.486176E+03  1.928224E+04
         8   1 -4.997856E+06 -4.953049E+05  2.636167E+05 -2.011938E+06  9.017090E+03 -2.010040E+04
         8   2 -4.970363E+06 -4.520834E+05  2.758624E+05 -1.971311E+06  1.292331E+04 -2.176234E+04
         8   3 -4.895419E+06 -4.560021E+05  2.861237E+05 -1.980933E+06  1.626911E+04 -2.190904E+04
         8   4 -5.984941E+06 -8.676188E+05 -5.169811E+03 -2.278803E+06  7.925331E+03 -2.051133E+04
         8   5 -6.008748E+06 -8.448991E+05 -6.742459E+03 -2.253337E+06  1.229949E+04 -2.199963E+04
         8   6 -5.985201E+06 -8.694235E+05 -1.067635E+04 -2.278127E+06  1.611250E+04 -2.197156E+04
         8   7 -6.971081E+06 -1.239877E+06 -2.740442E+05 -2.545282E+06  6.835501E+03 -2.092154E+04
         8   8 -7.046088E+06 -1.237652E+06 -2.894450E+05 -2.534935E+06  1.167683E+04 -2.223649E+04
         8   9 -7.073835E+06 -1.282775E+06 -3.075847E+05 -2.574847E+06  1.595620E+04 -2.203396E+04
         8  10 -4.997856E+06 -4.953054E+05  2.636158E+05 -2.011938E+06 -3.869873E-09  1.562153E-09
         8  11 -4.970363E+06 -4.520840E+05  2.758612E+05 -1.971311E+06  4.007601E-09 -1.095180E-09
         8  12 -4.895420E+06 -4.560027E+05  2.861223E+05 -1.980932E+06 -1.598058E-09  1.427804E-09
         8  13 -5.984941E+06 -8.676193E+05 -5.170717E+03 -2.278803E+06 -1.232895E-08 -3.466026E-10
         8  14 -6.008748E+06 -8.448996E+05 -6.743649E+03 -2.253337E+06 -4.273081E-09 -1.313294E-09
         8  15 -5.985202E+06 -8.694241E+05 -1.067775E+04 -2.278127E+06  7.622702E-09  1.698359E-09
         8  16 -6.971081E+06 -1.239878E+06 -2.740451E+05 -2.545282E+06 -2.697555E-09 -1.574493E-09
         8  17 -7.046088E+06 -1.237653E+06 -2.894462E+05 -2.534935E+06  5.838836E-10  1.539543E-09
         8  18 -7.073835E+06 -1.282776E+06 -3.075861E+05 -2.574847E+06  1.034815E-09  1.720950E-09
         8  19 -4.997856E+06 -4.953049E+05  2.636167E+05 -2.011938E+06 -9.017090E+03  2.010040E+04
         8  20 -4.970363E+06 -4.520834E+05  2.758624E+05 -1.971311E+06 -1.292331E+04  2.176234E+04
         8  21 -4.895419E+06 -4.560021E+05  2.861237E+05 -1.980933E+06 -1.626911E+04  2.190904E+04
         8  22 -5.984941E+06 -8.676188E+05 -5.169811E+03 -2.278803E+06 -7.925331E+03  2.051133E+04
         8  23 -6.008748E+06 -8.448991E+05 -6.742459E+03 -2.253337E+06 -1.229949E+04  2.199963E+04
         8  24 -5.985201E+06 -8.694235E+05 -1.067635E+04 -2.278127E+06 -1.611250E+04  2.197156E+04
         8  25 -6.971081E+06 -1.239877E+06 -2.740442E+05 -2.545282E+06 -6.835501E+03  2.092154E+04
         8  26 -7.046088E+06 -1.237652E+06 -2.894450E+05 -2.534935E+06 -1.167683E+04  2.223649E+04
         8  27 -7.073835E+06 -1.282775E+06 -3.075847E+05 -2.574847E+06 -1.595620E+04  2.203396E+04
         9   1 -4.850498E+06 -4.213888E+05  2.989735E+05 -1.953991E+06  1.866547E+04 -2.160937E+04
         9   2 -4.856815E+06 -4.249662E+05  2.862894E+05 -1.959148E+06  3.023937E+04 -1.775078E+04
         9   3 -4.875293E+06 -4.368869E+05  2.613426E+05 -1.949518E+06  4.115460E+04 -1.215838E+04
         9   4 -5.997726E+06 -8.554992E+05 -1.341118E+04 -2.265696E+06  1.824420E+04 -2.177212E+04
         9   5 -5.992535E+06 -8.576019E+05 -2.338173E+04 -2.270702E+06  3.033918E+04 -1.771686E+04
         9   6 -5.999629E+06 -8.681756E+05 -4.604990E+04 -2.260916E+06  4.177512E+04 -1.192630E+04
         9   7 -7.143678E+06 -1.289534E+06 -3.259152E+05 -2.576879E+06  1.782378E+04 -2.193455E+04
         9   8 -7.127003E+06 -1.290159E+06 -3.331698E+05 -2.581735E+06  3.043875E+04 -1.768303E+04
         9   9 -7.122737E+06 -1.299382E+06 -3.535573E+05 -2.571797E+06  4.239433E+04 -1.169472E+04
         9  10 -4.850499E+06 -4.213894E+05  2.989720E+05 -1.953990E+06  6.759912E-09  3.802197E-09
         9  11 -4.856816E+06 -4.249668E+05  2.862871E+05 -1.959148E+06 -1.971104E-09  3.137613E-09
         9  12 -4.875295E+06 -4.368875E+05  2.613391E+05 -1.949517E+06  6.776208E-09  1.025511E-09
         9  13 -5.997726E+06 -8.554998E+05 -1.341269E+04 -2.265696E+06 -1.006142E-09  1.767455E-09
         9  14 -5.992536E+06 -8.576025E+05 -2.338405E+04 -2.270701E+06  7.736557E-09  1.117516E-09
         9  15 -5.999631E+06 -8.681762E+05 -4.605346E+04 -2.260915E+06  5.703304E-09  2.940056E-09
         9  16 -7.143679E+06 -1.289535E+06 -3.259167E+05 -2.576878E+06 -2.950849E-10  1.058445E-09
         9  17 -7.127004E+06 -1.290159E+06 -3.331722E+05 -2.581735E+06  3.727683E-09  1.662826E-09
         9  18 -7.122739E+06 -1.299383E+06 -3.535610E+05 -2.571797E+06  9.903230E-09  4.998892E-09
         9  19 -4.850498E+06 -4.213888E+05  2.989735E+05 -1.953991E+06 -1.866547E+04  2.160937E+04
         9  20 -4.856815E+06 -4.249662E+05  2.862894E+05 -1.959148E+06 -3.023937E+04  1.775078E+04
         9  21 -4.875293E+06 -4.368869E+05  2.613426E+05 -1.949518E+06 -4.115460E+04  1.215838E+04
         9  22 -5.997726E+06 -8.554992E+05 -1.341118E+04 -2.265696E+06 -1.824420E+04  2.177212E+04
         9  23 -5.992535E+06 -8.576019E+05 -2.338173E+04 -2.270702E+06 -3.033918E+04  1.771686E+04
         9  24 -5.999629E+06 -8.681756E+05 -4.604990E+04 -2.260916E+06 -4.177512E+04  1.192630E+04
         9  25 -7.143678E+06 -1.289534E+06 -3.259152E+05 -2.576879E+06 -1.782378E+04  2.193455E+04
         9  26 -7.127003E+06 -1.290159E+06 -3.331698E+05 -2.581735E+06 -3.043875E+04  1.768303E+04
         9  27 -7.122737E+06 -1.299382E+06 -3.535573E+05 -2.571797E+06 -4.239433E+04  1.169472E+04
        10   1 -4.986165E+06 -4.579936E+05  2.208056E+05 -1.983021E+06  4.963924E+04 -7.909398E+03
        10   2 -5.015635E+06 -4.857962E+05  1.615124E+05 -2.022281E+06  1.003297E+05  1.366893E+04
        10   3 -5.159481E+06 -5.841899E+05  2.827392E+04 -1.959370E+06  1.502238E+05  3.728491E+04
        10   4 -6.016331E+06 -8.417269E+05 -5.829966E+04 -2.256824E+06  4.989093E+04 -7.815908E+03
        10   5 -5.966309E+06 -8.544295E+05 -9.900176E+04 -2.289590E+06  1.011414E+05  1.397545E+04
        10   6 -6.030862E+06 -9.379542E+05 -2.141795E+05 -2.220155E+06  1.516021E+05  3.780555E+04
        10   7 -7.045470E+06 -1.225409E+06 -3.375006E+05 -2.530218E+06  5.014210E+04 -7.722608E+03
        10   8 -6.916106E+06 -1.223000E+06 -3.595992E+05 -2.556522E+06  1.019516E+05  1.428138E+04
        10   9 -6.901503E+06 -1.291645E+06 -4.567044E+05 -2.480596E+06  1.529782E+05  3.832519E+04
        10  10 -4.986168E+06 -4.579943E+05  2.208008E+05 -1.983021E+06  3.538317E-09  2.195107E-09
        10  11 -5.015646E+06 -4.857991E+05  1.614930E+05 -2.022283E+06  7.959787E-09 -5.018934E-09
        10  12 -5.159506E+06 -5.841976E+05  2.822847E+04 -1.959374E+06 -2.129162E-09 -3.138307E-09
        10  13 -6.016334E+06 -8.417277E+05 -5.830449E+04 -2.256823E+06  1.165898E-08  1.344893E-09
        10  14 -5.966320E+06 -8.544325E+05 -9.902155E+04 -2.289591E+06 -3.902493E-10 -3.630670E-09
        10  15 -6.030887E+06 -9.379620E+05 -2.142258E+05 -2.220159E+06  8.864376E-09 -3.609716E-09
        10  16 -7.045472E+06 -1.225409E+06 -3.375055E+05 -2.530218E+06 -8.559889E-10  2.396948E-09
        10  17 -6.916117E+06 -1.223003E+06 -3.596194E+05 -2.556524E+06 -5.329168E-09 -3.873542E-09
        10  18 -6.901529E+06 -1.291653E+06 -4.567517E+05 -2.480601E+06  3.332245E-09 -4.927041E-09
        10  19 -4.986165E+06 -4.579936E+05  2.208056E+05 -1.983021E+06 -4.963924E+04  7.909398E+03
        10  20 -5.015635E+06 -4.857962E+05  1.615124E+05 -2.022281E+06 -1.003297E+05 -1.366893E+04
        10  21 -5.159481E+06 -5.841899E+05  2.827392E+04 -1.959370E+06 -1.502238E+05 -3.728491E+04
        10  22 -6.016331E+06 -8.417269E+05 -5.829966E+04 -2.256824E+06 -4.989093E+04  7.815908E+03
        10  23 -5.966309E+06 -8.544295E+05 -9.900176E+04 -2.289590E+06 -1.011414E+05 -1.397545E+04
        10  24 -6.030862E+06 -9.379542E+05 -2.141795E+05 -2.220155E+06 -1.516021E+05 -3.780555E+04
        10  25 -7.045470E+06 -1.225409E+06 -3.375006E+05 -2.530218E+06 -5.014210E+04  7.722608E+03
        10  26 -6.916106E+06 -1.223000E+06 -3.595992E+05 -2.556522E+06 -1.019516E+05 -1.428138E+04
        10  27 -6.901503E+06 -1.291645E+06 -4.567044E+05 -2.480596E+06 -1.529782E+05 -3.832519E+04
        11   1 -5.370850E+06 -6.178922E+05 -8.417830E+04 -2.154548E+06  1.891433E+05  5.397184E+04
        11   2 -5.365752E+06 -4.981562E+05 -2.731121E+05 -2.140746E+06  4.167169E+05  1.457225E+05
        11   3 -5.865089E+06 -1.264796E+06 -9.048359E+05 -1.756393E+06  6.419949E+05  2.433217E+05
        11   4 -6.071994E+06 -8.153316E+05 -2.613189E+05 -2.277041E+06  1.892854E+05  5.405143E+04
        11   5 -5.874432E+06 -7.347609E+05 -4.202060E+05 -2.323165E+06  4.184902E+05  1.463694E+05
        11   6 -6.181964E+06 -1.541395E+06 -1.023433E+06 -1.998581E+06  6.454764E+05  2.444639E+05
        11   7 -6.772653E+06 -1.012783E+06 -4.384945E+05 -2.399432E+06  1.894272E+05  5.413098E+04
        11   8 -6.382854E+06 -9.713103E+05 -5.673249E+05 -2.505433E+06  4.202618E+05  1.470152E+05
        11   9 -6.498680E+06 -1.817796E+06 -1.142032E+06 -2.240614E+06  6.489560E+05  2.456030E+05
        11  10 -5.370890E+06 -6.179050E+05 -8.425174E+04 -2.154556E+06 -3.842591E-09 -1.854992E-09
        11  11 -5.365946E+06 -4.982264E+05 -2.734821E+05 -2.140796E+06 -2.382860E-10  1.481338E-09
        11  12 -5.865552E+06 -1.264972E+06 -9.057309E+05 -1.756519E+06  3.632234E-10  2.836444E-09
        11  13 -6.072034E+06 -8.153445E+05 -2.613925E+05 -2.277049E+06 -3.198748E-09 -1.093706E-09
        11  14 -5.874628E+06 -7.348318E+05 -4.205795E+05 -2.323214E+06 -6.435044E-09 -2.316749E-09
        11  15 -6.182432E+06 -1.541573E+06 -1.024339E+06 -1.998709E+06  4.311656E-09  3.477924E-09
        11  16 -6.772693E+06 -1.012796E+06 -4.385683E+05 -2.399440E+06  1.396209E-09 -2.211010E-09
        11  17 -6.383051E+06 -9.713819E+05 -5.677020E+05 -2.505483E+06 -5.260195E-09  1.882869E-09
        11  18 -6.499153E+06 -1.817976E+06 -1.142948E+06 -2.240744E+06 -2.827961E-09  2.696942E-09
        11  19 -5.370850E+06 -6.178922E+05 -8.417830E+04 -2.154548E+06 -1.891433E+05 -5.397184E+04
        11  20 -5.365752E+06 -4.981562E+05 -2.731121E+05 -2.140746E+06 -4.167169E+05 -1.457225E+05
        11  21 -5.865089E+06 -1.264796E+06 -9.048359E+05 -1.756393E+06 -6.419949E+05 -2.433217E+05
        11  22 -6.071994E+06 -8.153316E+05 -2.613189E+05 -2.277041E+06 -1.892854E+05 -5.405143E+04
        11  23 -5.874432E+06 -7.347609E+05 -4.202060E+05 -2.323165E+06 -4.184902E+05 -1.463694E+05
        11  24 -6.181964E+06 -1.541395E+06 -1.023433E+06 -1.998581E+06 -6.454764E+05 -2.444639E+05
        11  25 -6.772653E+06 -1.012783E+06 -4.384945E+05 -2.399432E+06 -1.894272E+05 -5.413098E+04
        11  26 -6.382854E+06 -9.713103E+05 -5.673249E+05 -2.505433E+06 -4.202618E+05 -1.470152E+05
        11  27 -6.498680E+06 -1.817796E+06 -1.142032E+06 -2.240614E+06 -6.489560E+05 -2.456030E+05
        12   1  1.057313E+05  1.625466E+06  1.238679E+05  1.388328E+03  3.924497E+03 -1.828223E+03
        12   2  1.022953E+05  1.624877E+06  1.278347E+05 -2.861983E+03  3.911817E+03 -1.346234E+04
        12   3  1.174607E+05  1.632907E+06  1.445054E+05  2.571185E+03  4.198044E+03 -2.509620E+04
        12   4  1.300943E+03  1.206788E+06  1.973296E+04  2.145793E+03  3.924654E+03 -1.803558E+03
        12   5 -3.065957E+03  1.202471E+06  2.276685E+04 -2.685144E+03  3.912000E+03 -1.347388E+04
        12   6  1.118117E+04  1.206783E+06  3.853526E+04  2.167806E+03  4.198361E+03 -2.514387E+04
        12   7 -1.031426E+05  7.882679E+05 -8.441510E+04  2.902758E+03  3.924811E+03 -1.778910E+03
        12   8 -1.084406E+05  7.802270E+05 -8.231440E+04 -2.508378E+03  3.912183E+03 -1.348541E+04
        12   9 -9.511194E+04  7.808242E+05 -6.744852E+04  1.764786E+03  4.198677E+03 -2.519150E+04
        12  10  1.057313E+05  1.625466E+06  1.238679E+05  1.388334E+03 -1.554169E-08  1.710069E-09
        12  11  1.022952E+05  1.624877E+06  1.278344E+05 -2.861940E+03  8.594537E-09  2.617551E-09
        12  12  1.174605E+05  1.632906E+06  1.445042E+05  2.571269E+03 -4.930367E-09  2.619890E-10
        12  13  1.300926E+03  1.206788E+06  1.973293E+04  2.145799E+03 -2.228779E-08  6.688633E-11
        12  14 -3.066022E+03  1.202471E+06  2.276648E+04 -2.685101E+03  1.093933E-08 -3.242632E-10
        12  15  1.118099E+04  1.206783E+06  3.853404E+04  2.167891E+03  3.968358E-09  1.673064E-10
        12  16 -1.031426E+05  7.882679E+05 -8.441514E+04  2.902763E+03 -1.985392E-08 -1.662233E-09
        12  17 -1.084406E+05  7.802268E+05 -8.231477E+04 -2.508336E+03 -2.447336E-08 -3.248115E-09
        12  18 -9.511213E+04  7.808235E+05 -6.744974E+04  1.764871E+03 -1.231986E-09 -4.955116E-11
        12  19  1.057313E+05  1.625466E+06  1.238679E+05  1.388328E+03 -3.924497E+03  1.828223E+03
        12  20  1.022953E+05  1.624877E+06  1.278347E+05 -2.861983E+03 -3.911817E+03  1.346234E+04
        12  21  1.174607E+05  1.632907E+06  1.445054E+05  2.571185E+03 -4.198044E+03  2.509620E+04
        12  22  1.300943E+03  1.206788E+06  1.973296E+04  2.145793E+03 -3.924654E+03  1.803558E+03
        12  23 -3.065957E+03  1.202471E+06  2.276685E+04 -2.685144E+03 -3.912000E+03  1.347388E+04
        12  24  1.118117E+04  1.206783E+06  3.853526E+04  2.167806E+03 -4.198361E+03  2.514387E+04
        12  25 -1.031426E+05  7.882679E+05 -8.441510E+04  2.902758E+03 -3.924811E+03  1.778910E+03
        12  26 -1.084406E+05  7.802270E+05 -8.231440E+04 -2.508378E+03 -3.912183E+03  1.348541E+04
        12  27 -9.511194E+04  7.808242E+05 -6.744852E+04  1.764786E+03 -4.198677E+03  2.519150E+04
        13   1  1.230122E+05  1.714864E+06  1.717923E+05  2.175050E+03  4.576527E+03 -3.283940E+04
        13   2  1.105965E+05  1.708936E+06  2.005803E+05 -8.401171E+03  5.141223E+03 -7.115254E+04
        13   3  2.061794E+05  1.738854E+06  2.820455E+05  1.253147E+04  5.222520E+03 -1.094685E+05
        13   4 -2.236169E+03  1.212818E+06  4.690509E+04  6.891140E+03  4.576772E+03 -3.292290E+04
        13   5 -1.760961E+04  1.194874E+06  7.273764E+04 -8.684586E+03  5.141618E+03 -7.113862E+04
        13   6  7.504555E+04  1.212784E+06  1.512101E+05  7.250106E+03  5.223497E+03 -1.093564E+05
        13   7 -1.275034E+05  7.110006E+05 -7.800097E+04  1.160357E+04  4.577015E+03 -3.300633E+04
        13   8 -1.458356E+05  6.810521E+05 -5.512474E+04 -8.967546E+03  5.142014E+03 -7.112469E+04
        13   9 -5.610888E+04  6.869653E+05  2.035399E+04  1.973506E+03  5.224473E+03 -1.092444E+05
        13  10  1.230119E+05  1.714863E+06  1.717902E+05  2.175171E+03  3.463687E-10  7.078156E-10
        13  11  1.105951E+05  1.708931E+06  2.005707E+05 -8.400877E+03  8.339760E-09  1.211247E-09
        13  12  2.061761E+05  1.738841E+06  2.820230E+05  1.253193E+04  2.145552E-09 -6.546262E-10
        13  13 -2.236482E+03  1.212817E+06  4.690301E+04  6.891261E+03 -7.811648E-09  7.198234E-10
        13  14 -1.761099E+04  1.194869E+06  7.272810E+04 -8.684291E+03  9.403231E-10 -9.977528E-10
        13  15  7.504232E+04  1.212772E+06  1.511876E+05  7.250566E+03  1.124590E-09  4.131991E-10
        13  16 -1.275037E+05  7.109994E+05 -7.800305E+04  1.160369E+04  3.524135E-10 -7.166533E-10
        13  17 -1.458369E+05  6.810466E+05 -5.513429E+04 -8.967251E+03 -1.118516E-08 -3.259429E-09
        13  18 -5.611211E+04  6.869525E+05  2.033153E+04  1.973966E+03 -6.757553E-09  1.115042E-09
        13  19  1.230122E+05  1.714864E+06  1.717923E+05  2.175050E+03 -4.576527E+03  3.283940E+04
        13  20  1.105965E+05  1.708936E+06  2.005803E+05 -8.401171E+03 -5.141223E+03  7.115254E+04
        13  21  2.061794E+05  1.738854E+06  2.820455E+05  1.253147E+04 -5.222520E+03  1.094685E+05
        13  22 -2.236169E+03  1.212818E+06  4.690509E+04  6.891140E+03 -4.576772E+03  3.292290E+04
        13  23 -1.760961E+04  1.194874E+06  7.273764E+04 -8.684586E+03 -5.141618E+03  7.113862E+04
        13  24  7.504555E+04  1.212784E+06  1.512101E+05  7.250106E+03 -5.223497E+03  1.093564E+05
        13  25 -1.275034E+05  7.110006E+05 -7.800097E+04  1.160357E+04 -4.577015E+03  3.300633E+04
        13  26 -1.458356E+05  6.810521E+05 -5.512474E+04 -8.967546E+03 -5.142014E+03  7.112469E+04
        13  27 -5.610888E+04  6.869653E+05  2.035399E+04  1.973506E+03 -5.224473E+03  1.092444E+05
        14   1  1.565544E+05  1.943953E+06  3.551681E+05 -1.426205E+04  6.965957E+03 -1.390591E+05
        14   2  6.300900E+04  1.864740E+06  4.550991E+05 -8.219546E+03  9.716058E+03 -2.915379E+05
        14   3  6.804395E+05  1.991026E+06  8.335045E+05  6.217361E+04  6.397276E+03 -4.440610E+05
        14   4 -1.673754E+04  1.250487E+06  1.826377E+05  1.294239E+04  6.964246E+03 -1.396642E+05
        14   5 -1.156388E+05  1.147637E+06  2.769064E+05 -1.709238E+04  9.719586E+03 -2.911160E+05
        14   6  4.966862E+05  1.250326E+06  6.491661E+05  1.722345E+04  6.420587E+03 -4.426059E+05
        14   7 -1.900631E+05  5.574579E+05  1.007169E+04  4.011710E+04  6.962480E+03 -1.402686E+05
        14   8 -2.943247E+05  4.310000E+05  9.867528E+04 -2.595417E+04  9.723105E+03 -2.906944E+05
        14   9  3.128999E+05  5.101271E+05  4.647879E+05 -2.767220E+04  6.443716E+03 -4.411524E+05
        14  10  1.565492E+05  1.943932E+06  3.551318E+05 -1.426127E+04 -6.978325E-09  7.087928E-10
        14  11  6.298617E+04  1.864649E+06  4.549397E+05 -8.217268E+03  6.791909E-09  1.286611E-09
        14  12  6.803868E+05  1.990814E+06  8.331350E+05  6.217590E+04  1.082267E-09 -1.091242E-09
        14  13 -1.674282E+04  1.250466E+06  1.826011E+05  1.294318E+04 -2.930682E-09  1.516867E-09
        14  14 -1.156616E+05  1.147546E+06  2.767473E+05 -1.709010E+04  8.668675E-09 -1.856323E-09
        14  15  4.966337E+05  1.250116E+06  6.487986E+05  1.722573E+04  5.941016E-09  6.048850E-10
        14  16 -1.900684E+05  5.574368E+05  1.003466E+04  4.011789E+04 -1.109456E-09 -8.220181E-10
        14  17 -2.943475E+05  4.309093E+05  9.851645E+04 -2.595189E+04  8.443082E-09 -4.855502E-09
        14  18  3.128477E+05  5.099183E+05  4.644224E+05 -2.766991E+04  8.569787E-09  1.768208E-09
        14  19  1.565544E+05  1.943953E+06  3.551681E+05 -1.426205E+04 -6.965957E+03  1.390591E+05
        14  20  6.300900E+04  1.864740E+06  4.550991E+05 -8.219546E+03 -9.716058E+03  2.915379E+05
        14  21  6.804395E+05  1.991026E+06  8.335045E+05  6.217361E+04 -6.397276E+03  4.440610E+05
        14  22 -1.673754E+04  1.250487E+06  1.826377E+05  1.294239E+04 -6.964246E+03  1.396642E+05
        14  23 -1.156388E+05  1.147637E+06  2.769064E+05 -1.709238E+04 -9.719586E+03  2.911160E+05
        14  24  4.966862E+05  1.250326E+06  6.491661E+05  1.722345E+04 -6.420587E+03  4.426059E+05
        14  25 -1.900631E+05  5.574579E+05  1.007169E+04  4.011710E+04 -6.962480E+03  1.402686E+05
        14  26 -2.943247E+05  4.310000E+05  9.867528E+04 -2.595417E+04 -9.723105E+03  2.906944E+05
        14  27  3.128999E+05  5.101271E+05  4.647879E+05 -2.767220E+04 -6.443716E+03  4.411524E+05
        15   1  4.852242E+05  3.423383E+05  4.582376E+05 -8.536922E+02  8.007515E+04 -3.887421E+01
        15   2  4.840050E+05  3.367464E+05  4.570235E+05 -1.023233E+03  7.993519E+04 -3.208768E+02
        15   3  4.832176E+05  3.337524E+05  4.566357E+05 -3.630849E+03  7.952198E+04 -6.040008E+02
        15   4 -6.673450E+02 -1.628022E+06  3.724746E+02 -5.419929E+02  8.009266E+04 -3.640492E+01
        15   5 -8.242623E+02 -1.629301E+06  1.734368E+02  6.776799E+02  7.995241E+04 -1.341707E+02
        15   6 -5.840529E+02 -1.628018E+06  6.728094E+02 -5.411579E+02  7.953853E+04 -2.330578E+02
        15   7 -4.868333E+05 -3.594794E+06 -4.577544E+05 -2.310573E+02  8.011021E+04 -3.394317E+01
        15   8 -4.859267E+05 -3.591775E+06 -4.569372E+05  2.374183E+03  7.996969E+04  5.194939E+01
        15   9 -4.846577E+05 -3.586231E+06 -4.555496E+05  2.540498E+03  7.955513E+04  1.367234E+02
        15  10  4.852173E+05  3.423366E+05  4.582256E+05 -8.536897E+02 -1.384968E-08  1.477931E-09
        15  11  4.839981E+05  3.367447E+05  4.570115E+05 -1.023213E+03 -3.602723E-09 -4.857464E-09
        15  12  4.832108E+05  3.337507E+05  4.566238E+05 -3.630811E+03  8.339904E-10 -2.703293E-09
        15  13 -6.742281E+02 -1.628024E+06  3.604291E+02 -5.419906E+02 -1.382946E-08  7.893538E-11
        15  14 -8.311214E+02 -1.629302E+06  1.614335E+02  6.776885E+02 -2.356960E-09  6.844826E-10
        15  15 -5.908411E+02 -1.628019E+06  6.609299E+02 -5.411430E+02  1.688689E-08  5.512145E-10
        15  16 -4.868401E+05 -3.594796E+06 -4.577665E+05 -2.310551E+02 -7.288396E-09 -1.420245E-09
        15  17 -4.859335E+05 -3.591777E+06 -4.569493E+05  2.374179E+03 -2.686456E-10  2.044253E-09
        15  18 -4.846645E+05 -3.586232E+06 -4.555615E+05  2.540489E+03 -3.615430E-09  3.519921E-09
        15  19  4.852242E+05  3.423383E+05  4.582376E+05 -8.536922E+02 -8.007515E+04  3.887421E+01
        15  20  4.840050E+05  3.367464E+05  4.570235E+05 -1.023233E+03 -7.993519E+04  3.208768E+02
        15  21  4.832176E+05  3.337524E+05  4.566357E+05 -3.630849E+03 -7.952198E+04  6.040008E+02
        15  22 -6.673450E+02 -1.628022E+06  3.724746E+02 -5.419929E+02 -8.009266E+04  3.640492E+01
        15  23 -8.242623E+02 -1.629301E+06  1.734368E+02  6.776799E+02 -7.995241E+04  1.341707E+02
        15  24 -5.840529E+02 -1.628018E+06  6.728094E+02 -5.411579E+02 -7.953853E+04  2.330578E+02
        15  25 -4.868333E+05 -3.594794E+06 -4.577544E+05 -2.310573E+02 -8.011021E+04  3.394317E+01
        15  26 -4.859267E+05 -3.591775E+06 -4.569372E+05  2.374183E+03 -7.996969E+04 -5.194939E+01
        15  27 -4.846577E+05 -3.586231E+06 -4.555496E+05  2.540498E+03 -7.955513E+04 -1.367234E+02
        16   1  4.809400E+05  3.251038E+05  4.545942E+05 -5.428740E+03  7.957233E+04 -9.938465E+01
        16   2  4.776046E+05  3.107793E+05  4.519695E+05 -2.916645E+03  7.874576E+04 -2.326802E+03
        16   3  4.758244E+05  2.994668E+05  4.516914E+05 -7.690411E+03  7.544227E+04 -4.567214E+03
        16   4 -6.896233E+02 -1.627974E+06  8.247626E+02 -1.619804E+03  7.959028E+04 -3.711035E+02
        16   5 -8.661898E+02 -1.629327E+06  1.073729E+03  2.025873E+03  7.875792E+04 -9.306560E+02
        16   6  2.219830E+02 -1.627960E+06  2.512306E+03 -1.615747E+03  7.544512E+04 -1.503257E+03
        16   7 -4.825888E+05 -3.577526E+06 -4.532018E+05  2.179300E+03  7.960827E+04 -6.419712E+02
        16   8 -4.796030E+05 -3.565954E+06 -4.500758E+05  6.955785E+03  7.877013E+04  4.611629E+02
        16   9 -4.756436E+05 -3.551956E+06 -4.469184E+05  4.443596E+03  7.544805E+04  1.551259E+03
        16  10  4.809332E+05  3.251021E+05  4.545823E+05 -5.428733E+03  1.124441E-08  1.320269E-09
        16  11  4.775979E+05  3.107777E+05  4.519578E+05 -2.916498E+03  1.833566E-09 -3.193369E-09
        16  12  4.758183E+05  2.994652E+05  4.516807E+05 -7.690134E+03  8.363616E-10  6.495625E-10
        16  13 -6.964204E+02 -1.627976E+06  8.128675E+02 -1.619780E+03  1.159566E-08  1.343600E-09
        16  14 -8.728456E+02 -1.629328E+06  1.062080E+03  2.025932E+03 -2.189147E-09  2.011280E-09
        16  15  2.158749E+02 -1.627962E+06  2.501613E+03 -1.615656E+03 -5.997926E-09  1.483087E-09
        16  16 -4.825956E+05 -3.577528E+06 -4.532137E+05  2.179341E+03  5.437067E-10 -1.310640E-09
        16  17 -4.796096E+05 -3.565956E+06 -4.500875E+05  6.955756E+03 -3.130410E-10 -5.046852E-09
        16  18 -4.756498E+05 -3.551958E+06 -4.469291E+05  4.443502E+03  2.153961E-10  1.197953E-09
        16  19  4.809400E+05  3.251038E+05  4.545942E+05 -5.428740E+03 -7.957233E+04  9.938465E+01
        16  20  4.776046E+05  3.107793E+05  4.519695E+05 -2.916645E+03 -7.874576E+04  2.326802E+03
        16  21  4.758244E+05  2.994668E+05  4.516914E+05 -7.690411E+03 -7.544227E+04  4.567214E+03
        16  22 -6.896233E+02 -1.627974E+06  8.247626E+02 -1.619804E+03 -7.959028E+04  3.711035E+02
        16  23 -8.661898E+02 -1.629327E+06  1.073729E+03  2.025873E+03 -7.875792E+04  9.306560E+02
        16  24  2.219830E+02 -1.627960E+06  2.512306E+03 -1.615747E+03 -7.544512E+04  1.503257E+03
        16  25 -4.825888E+05 -3.577526E+06 -4.532018E+05  2.179300E+03 -7.960827E+04  6.419712E+02
        16  26 -4.796030E+05 -3.565954E+06 -4.500758E+05  6.955785E+03 -7.877013E+04 -4.611629E+02
        16  27 -4.756436E+05 -3.551956E+06 -4.469184E+05  4.443596E+03 -7.544805E+04 -1.551259E+03
        17   1  4.698932E+05  2.833180E+05  4.458944E+05 -1.128948E+04  8.036087E+04  8.515069E+03
        17   2  4.641494E+05  2.573690E+05  4.445848E+05 -3.096611E+03  7.400466E+04 -2.379584E+04
        17   3  4.750311E+05  2.418556E+05  4.688993E+05 -8.275702E+03  2.345752E+04 -5.640607E+04
        17   4 -1.119351E+03 -1.627377E+06  3.069453E+03 -2.988860E+03  8.042854E+04 -1.955631E+03
        17   5 -1.588910E+03 -1.630001E+06  4.732462E+03  3.731227E+03  7.391080E+04 -4.536105E+03
        17   6  9.423461E+03 -1.627346E+06  1.137804E+04 -2.925139E+03  2.314210E+04 -7.417105E+03
        17   7 -4.723891E+05 -3.534694E+06 -4.400001E+05  5.290057E+03  8.049604E+04 -1.239434E+04
        17   8 -4.675794E+05 -3.514080E+06 -4.353598E+05  1.054277E+04  7.381723E+04  1.466550E+04
        17   9 -4.564419E+05 -3.493355E+06 -4.463902E+05  2.414445E+03  2.282705E+04  4.142471E+04
        17  10  4.698863E+05  2.833162E+05  4.458821E+05 -1.129003E+04  2.543318E-09  5.941385E-09
        17  11  4.641434E+05  2.573669E+05  4.445735E+05 -3.095193E+03  8.946191E-09 -9.790694E-09
        17  12  4.750296E+05  2.418520E+05  4.688923E+05 -8.274637E+03 -7.656627E-09 -7.941810E-09
        17  13 -1.126293E+03 -1.627378E+06  3.057299E+03 -2.988733E+03  1.313928E-08  2.892419E-09
        17  14 -1.594777E+03 -1.630002E+06  4.722165E+03  3.731497E+03  6.083085E-09  3.168440E-09
        17  15  9.422872E+03 -1.627347E+06  1.137693E+04 -2.925001E+03 -1.003615E-08  2.260795E-09
        17  16 -4.723961E+05 -3.534696E+06 -4.400126E+05  5.290862E+03 -6.406561E-09 -5.869255E-09
        17  17 -4.675853E+05 -3.514082E+06 -4.353705E+05  1.054190E+04  1.329022E-08 -3.797200E-09
        17  18 -4.564430E+05 -3.493357E+06 -4.463944E+05  2.413682E+03 -1.179649E-08  1.112410E-08
        17  19  4.698932E+05  2.833180E+05  4.458944E+05 -1.128948E+04 -8.036087E+04 -8.515069E+03
        17  20  4.641494E+05  2.573690E+05  4.445848E+05 -3.096611E+03 -7.400466E+04  2.379584E+04
        17  21  4.750311E+05  2.418556E+05  4.688993E+05 -8.275702E+03 -2.345752E+04  5.640607E+04
        17  22 -1.119351E+03 -1.627377E+06  3.069453E+03 -2.988860E+03 -8.042854E+04  1.955631E+03
        17  23 -1.588910E+03 -1.630001E+06  4.732462E+03  3.731227E+03 -7.391080E+04  4.536105E+03
        17  24  9.423461E+03 -1.627346E+06  1.137804E+04 -2.925139E+03 -2.314210E+04  7.417105E+03
        17  25 -4.723891E+05 -3.534694E+06 -4.400001E+05  5.290057E+03 -8.049604E+04  1.239434E+04
        17  26 -4.675794E+05 -3.514080E+06 -4.353598E+05  1.054277E+04 -7.381723E+04 -1.466550E+04
        17  27 -4.564419E+05 -3.493355E+06 -4.463902E+05  2.414445E+03 -2.282705E+04 -4.142471E+04
        18   1  6.477527E+04  8.148253E+05  3.638549E+04 -2.117871E+00  2.273575E+04 -6.220551E-02
        18   2  6.477882E+04  8.148416E+05  3.639157E+04 -1.300646E+01  2.273656E+04 -5.363179E+00
        18   3  6.478287E+04  8.148631E+05  3.640264E+04 -2.189962E+01  2.273817E+04 -1.066403E+01
        18   4 -1.722320E+01  5.270097E+05  1.252563E+01  4.435707E-01  2.273687E+04 -1.034822E+00
        18   5 -1.818464E+01  5.270069E+05  1.509721E+01 -5.540819E-01  2.273767E+04 -8.262725E+00
        18   6 -1.831784E+01  5.270097E+05  2.399949E+01  4.440822E-01  2.273928E+04 -1.549053E+01
        18   7 -6.481309E+04  2.392790E+05 -3.636070E+04  3.003985E+00  2.273798E+04 -2.007010E+00
        18   8 -6.481856E+04  2.392571E+05 -3.636164E+04  1.189321E+01  2.273879E+04 -1.116099E+01
        18   9 -6.482288E+04  2.392412E+05 -3.635490E+04  2.277864E+01  2.274040E+04 -2.031491E+01
        18  10  6.477472E+04  8.148252E+05  3.638452E+04 -2.117870E+00 -1.253436E-08 -1.197845E-07
        18  11  6.477827E+04  8.148415E+05  3.639060E+04 -1.300636E+01  3.579972E-09 -3.885882E-08
        18  12  6.478232E+04  8.148630E+05  3.640166E+04 -2.189942E+01 -2.622293E-09  4.506855E-08
        18  13 -1.777847E+01  5.270095E+05  1.155391E+01  4.435899E-01 -2.767302E-08  3.883228E-11
        18  14 -1.873995E+01  5.270067E+05  1.412542E+01 -5.539305E-01 -7.187160E-09 -1.174622E-10
        18  15 -1.887322E+01  5.270095E+05  2.302756E+01  4.443658E-01 -2.349796E-09  1.246597E-10
        18  16 -6.481364E+04  2.392789E+05 -3.636167E+04  3.004022E+00 -2.849573E-09  1.197181E-07
        18  17 -6.481912E+04  2.392570E+05 -3.636261E+04  1.189342E+01  6.682651E-09  3.879919E-08
        18  18 -6.482343E+04  2.392411E+05 -3.635587E+04  2.277901E+01  1.751388E-09 -4.498594E-08
        18  19  6.477527E+04  8.148253E+05  3.638549E+04 -2.117870E+00 -2.273575E+04  6.220527E-02
        18  20  6.477882E+04  8.148416E+05  3.639157E+04 -1.300646E+01 -2.273656E+04  5.363179E+00
        18  21  6.478287E+04  8.148631E+05  3.640264E+04 -2.189962E+01 -2.273817E+04  1.066403E+01
        18  22 -1.722320E+01  5.270097E+05  1.252563E+01  4.435712E-01 -2.273687E+04  1.034822E+00
        18  23 -1.818464E+01  5.270069E+05  1.509721E+01 -5.540818E-01 -2.273767E+04  8.262725E+00
        18  24 -1.831784E+01  5.270097E+05  2.399949E+01  4.440820E-01 -2.273928E+04  1.549053E+01
        18  25 -6.481309E+04  2.392790E+05 -3.636070E+04  3.003985E+00 -2.273798E+04  2.007011E+00
        18  26 -6.481856E+04  2.392571E+05 -3.636164E+04  1.189321E+01 -2.273879E+04  1.116099E+01
        18  27 -6.482288E+04  2.392412E+05 -3.635490E+04  2.277864E+01 -2.274040E+04  2.031491E+01
        19   1  6.478768E+04  8.148870E+05  3.641299E+04 -2.599484E+01  2.273963E+04 -1.362518E+01
        19   2  6.479840E+04  8.149392E+05  3.644441E+04 -4.276308E+01  2.274200E+04 -4.097411E+01
        19   3  6.481079E+04  8.149999E+05  3.649547E+04 -5.058267E+01  2.274356E+04 -6.832269E+01
        19   4 -1.886420E+01  5.270102E+05  3.081817E+01  1.989271E+00  2.274074E+04 -2.027051E+01
        19   5 -2.147527E+01  5.270062E+05  5.187282E+01 -2.485122E+00  2.274311E+04 -4.567402E+01
        19   6 -2.276115E+01  5.270102E+05  9.120951E+01  1.989367E+00  2.274468E+04 -7.107717E+01
        19   7 -6.482878E+04  2.392185E+05 -3.635161E+04  2.996192E+01  2.274186E+04 -2.691290E+01
        19   8 -6.484473E+04  2.391582E+05 -3.634093E+04  3.777615E+01  2.274423E+04 -5.037185E+01
        19   9 -6.485969E+04  2.391056E+05 -3.631331E+04  5.453949E+01  2.274579E+04 -7.383044E+01
        19  10  6.478713E+04  8.148868E+05  3.641201E+04 -2.599459E+01  3.485163E-10 -5.918601E-08
        19  11  6.479785E+04  8.149391E+05  3.644344E+04 -4.276233E+01  1.021673E-08  5.703977E-09
        19  12  6.481023E+04  8.149998E+05  3.649450E+04 -5.058142E+01  1.259440E-08  7.047485E-08
        19  13 -1.941966E+01  5.270101E+05  2.984612E+01  1.989642E+00  7.816418E-09  1.532955E-10
        19  14 -2.203084E+01  5.270060E+05  5.090056E+01 -2.484285E+00  9.141635E-09 -3.528950E-10
        19  15 -2.331680E+01  5.270101E+05  9.023711E+01  1.990669E+00  1.270524E-08  1.955806E-10
        19  16 -6.482934E+04  2.392184E+05 -3.635259E+04  2.996242E+01 -2.903702E-09  5.900245E-08
        19  17 -6.484528E+04  2.391580E+05 -3.634190E+04  3.777707E+01  1.474293E-09 -5.887096E-09
        19  18 -6.486024E+04  2.391054E+05 -3.631429E+04  5.454084E+01  1.452842E-08 -7.042276E-08
        19  19  6.478768E+04  8.148870E+05  3.641299E+04 -2.599483E+01 -2.273963E+04  1.362518E+01
        19  20  6.479840E+04  8.149392E+05  3.644441E+04 -4.276308E+01 -2.274200E+04  4.097411E+01
        19  21  6.481079E+04  8.149999E+05  3.649547E+04 -5.058267E+01 -2.274356E+04  6.832269E+01
        19  22 -1.886420E+01  5.270102E+05  3.081817E+01  1.989271E+00 -2.274074E+04  2.027051E+01
        19  23 -2.147527E+01  5.270062E+05  5.187282E+01 -2.485122E+00 -2.274311E+04  4.567402E+01
        19  24 -2.276115E+01  5.270102E+05  9.120951E+01  1.989367E+00 -2.274468E+04  7.107717E+01
        19  25 -6.482878E+04  2.392185E+05 -3.635161E+04  2.996192E+01 -2.274186E+04  2.691290E+01
        19  26 -6.484473E+04  2.391582E+05 -3.634093E+04  3.777615E+01 -2.274423E+04  5.037185E+01
        19  27 -6.485969E+04  2.391056E+05 -3.631331E+04  5.453949E+01 -2.274579E+04  7.383044E+01
        20   1  6.482079E+04  8.150502E+05  3.653440E+04 -5.771090E+01  2.274486E+04 -8.637896E+01
        20   2  6.484164E+04  8.151314E+05  3.665384E+04 -8.103149E+01  2.273993E+04 -2.207566E+02
        20   3  6.487882E+04  8.152385E+05  3.686618E+04 -8.935521E+01  2.272208E+04 -3.551358E+02
        20   4 -2.423567E+01  5.270130E+05  1.202827E+02  3.332733E+00  2.274597E+04 -8.998155E+01
        20   5 -2.779327E+01  5.270026E+05  2.091271E+02 -4.165127E+00  2.274104E+04 -1.932600E+02
        20   6 -2.041185E+01  5.270129E+05  3.693258E+02  3.333849E+00  2.272318E+04 -2.965404E+02
        20   7 -6.487264E+04  2.390608E+05 -3.629410E+04  6.435076E+01  2.274709E+04 -9.358255E+01
        20   8 -6.490061E+04  2.389591E+05 -3.623585E+04  7.266868E+01  2.274215E+04 -1.657755E+02
        20   9 -6.492303E+04  2.388726E+05 -3.612780E+04  9.598339E+01  2.272428E+04 -2.379708E+02
        20  10  6.482023E+04  8.150501E+05  3.653343E+04 -5.770932E+01  1.331215E-08 -7.474713E-10
        20  11  6.484108E+04  8.151312E+05  3.665286E+04 -8.102745E+01  1.488146E-08  3.208967E-08
        20  12  6.487826E+04  8.152384E+05  3.686521E+04 -8.934871E+01  7.555195E-09  6.243871E-08
        20  13 -2.479138E+01  5.270128E+05  1.193101E+02  3.334381E+00  3.407612E-10  2.003649E-10
        20  14 -2.834875E+01  5.270025E+05  2.081549E+02 -4.161588E+00 -1.632390E-08 -5.682951E-10
        20  15 -2.096647E+01  5.270128E+05  3.683551E+02  3.339275E+00 -2.055879E-08  2.804632E-10
        20  16 -6.487319E+04  2.390607E+05 -3.629507E+04  6.435248E+01  5.779550E-09  4.225901E-10
        20  17 -6.490116E+04  2.389589E+05 -3.623682E+04  7.267171E+01  5.097957E-09 -3.223360E-08
        20  18 -6.492358E+04  2.388724E+05 -3.612878E+04  9.598775E+01  5.770547E-09 -6.224372E-08
        20  19  6.482079E+04  8.150502E+05  3.653440E+04 -5.771090E+01 -2.274486E+04  8.637896E+01
        20  20  6.484164E+04  8.151314E+05  3.665384E+04 -8.103149E+01 -2.273993E+04  2.207566E+02
        20  21  6.487882E+04  8.152385E+05  3.686618E+04 -8.935521E+01 -2.272208E+04  3.551358E+02
        20  22 -2.423567E+01  5.270130E+05  1.202827E+02  3.332733E+00 -2.274597E+04  8.998155E+01
        20  23 -2.779327E+01  5.270026E+05  2.091271E+02 -4.165127E+00 -2.274104E+04  1.932600E+02
        20  24 -2.041185E+01  5.270129E+05  3.693258E+02  3.333849E+00 -2.272318E+04  2.965404E+02
        20  25 -6.487264E+04  2.390608E+05 -3.629410E+04  6.435076E+01 -2.274709E+04  9.358255E+01
        20  26 -6.490061E+04  2.389591E+05 -3.623585E+04  7.266868E+01 -2.274215E+04  1.657755E+02
        20  27 -6.492303E+04  2.388726E+05 -3.612780E+04  9.598339E+01 -2.272428E+04  2.379707E+02
        21   1 -4.479408E+05  1.182240E+05  2.442943E+05 -3.133055E+03  3.638303E+05  7.360335E+03
        21   2 -4.991814E+05 -3.797632E+05 -5.464487E+04  2.400536E+04  2.403903E+05  1.369369E+04
        21   3 -3.674818E+05 -2.875383E+05 -1.216825E+05 -5.625890E+04  1.170082E+05  9.933940E+03
        21   4  7.282016E+05  4.113244E+05  5.376796E+05 -3.676960E+04  3.660885E+05  7.354538E+03
        21   5  6.366992E+05 -9.613500E+04  2.281212E+05  1.865097E+04  2.409854E+05  1.369178E+04
        21   6  7.281412E+05 -1.365927E+04  1.513122E+05 -3.331902E+04  1.159485E+05  9.932921E+03
        21   7  1.905602E+06  7.043258E+05  8.309619E+05 -7.047246E+04  3.683503E+05  7.348516E+03
        21   8  1.773750E+06  1.873965E+05  5.107905E+05  1.328501E+04  2.415812E+05  1.368986E+04
        21   9  1.824853E+06  2.601312E+05  4.242169E+05 -1.033955E+04  1.148868E+05  9.931821E+03
        21  10 -4.480830E+05  1.181883E+05  2.440452E+05 -3.135212E+03  2.306077E-11  2.054643E-10
        21  11 -4.992435E+05 -3.797789E+05 -5.475388E+04  2.400271E+04  6.169825E-09 -1.228385E-11
        21  12 -3.674965E+05 -2.875420E+05 -1.217084E+05 -5.625984E+04 -8.700199E-10  1.900516E-09
        21  13  7.280579E+05  4.112884E+05  5.374280E+05 -3.677177E+04  9.749926E-09 -1.304472E-10
        21  14  6.366368E+05 -9.615076E+04  2.280118E+05  1.864831E+04  3.695674E-10 -3.646907E-10
        21  15  7.281267E+05 -1.366298E+04  1.512867E+05 -3.331994E+04  6.566572E-09  1.887948E-10
        21  16  1.905456E+06  7.042895E+05  8.307076E+05 -7.047464E+04  1.625716E-09  1.910173E-10
        21  17  1.773688E+06  1.873806E+05  5.106808E+05  1.328235E+04 -5.493499E-09  2.343214E-11
        21  18  1.824839E+06  2.601275E+05  4.241920E+05 -1.034047E+04  1.230963E-09  1.170241E-09
        21  19 -4.479408E+05  1.182240E+05  2.442943E+05 -3.133055E+03 -3.638303E+05 -7.360335E+03
        21  20 -4.991814E+05 -3.797632E+05 -5.464487E+04  2.400536E+04 -2.403903E+05 -1.369369E+04
        21  21 -3.674818E+05 -2.875383E+05 -1.216825E+05 -5.625890E+04 -1.170082E+05 -9.933940E+03
        21  22  7.282016E+05  4.113244E+05  5.376796E+05 -3.676960E+04 -3.660885E+05 -7.354538E+03
        21  23  6.366992E+05 -9.613500E+04  2.281212E+05  1.865097E+04 -2.409854E+05 -1.369178E+04
        21  24  7.281412E+05 -1.365927E+04  1.513122E+05 -3.331902E+04 -1.159485E+05 -9.932921E+03
        21  25  1.905602E+06  7.043258E+05  8.309619E+05 -7.047246E+04 -3.683503E+05 -7.348516E+03
        21  26  1.773750E+06  1.873965E+05  5.107905E+05  1.328501E+04 -2.415812E+05 -1.368986E+04
        21  27  1.824853E+06  2.601312E+05  4.242169E+05 -1.033955E+04 -1.148868E+05 -9.931821E+03
        22   1 -6.067695E+04 -1.270682E+05 -6.355080E+04 -2.365745E+04  9.065582E+04  7.195599E+03
        22   2 -4.737960E+04 -1.958291E+05 -1.216640E+05  1.221325E+04  5.975717E+04  7.037706E+03
        22   3 -3.985684E+02 -1.754792E+05 -1.358915E+05 -3.066378E+04  2.885602E+04  5.640505E+03
        22   4  6.951693E+05  6.166752E+04  1.246818E+05 -2.810607E+04  9.080784E+04  7.194585E+03
        22   5  6.783026E+05 -1.459780E+04  5.904032E+04  1.133846E+04  5.969723E+04  7.037005E+03
        22   6  6.951286E+05 -1.768609E+03  3.739550E+04 -2.795884E+04  2.858560E+04  5.640418E+03
        22   7  1.451534E+06  2.503604E+05  3.128716E+05 -3.256041E+04  9.095999E+04  7.193569E+03
        22   8  1.404462E+06  1.665940E+05  2.397052E+05  1.046253E+04  5.963717E+04  7.036305E+03
        22   9  1.391094E+06  1.719056E+05  2.106462E+05 -2.525080E+04  2.831487E+04  5.640328E+03
        22  10 -6.068579E+04 -1.270705E+05 -6.356634E+04 -2.365797E+04 -1.819411E-09  1.338925E-09
        22  11 -4.738344E+04 -1.958302E+05 -1.216708E+05  1.221291E+04 -6.468240E-09  5.640911E-10
        22  12 -3.994712E+02 -1.754795E+05 -1.358931E+05 -3.066391E+04 -1.549898E-09 -8.148261E-10
        22  13  6.951605E+05  6.166526E+04  1.246662E+05 -2.810660E+04  8.923618E-09  5.032042E-10
        22  14  6.782988E+05 -1.459881E+04  5.903354E+04  1.133812E+04  1.894574E-11 -3.454648E-10
        22  15  6.951277E+05 -1.768863E+03  3.739391E+04 -2.795897E+04  3.210792E-09 -6.435595E-10
        22  16  1.451525E+06  2.503581E+05  3.128560E+05 -3.256094E+04  3.837575E-09  1.343428E-09
        22  17  1.404458E+06  1.665929E+05  2.396984E+05  1.046220E+04 -2.260867E-09  1.114272E-10
        22  18  1.391093E+06  1.719054E+05  2.106446E+05 -2.525093E+04  1.267308E-09 -7.829808E-10
        22  19 -6.067695E+04 -1.270682E+05 -6.355080E+04 -2.365745E+04 -9.065582E+04 -7.195599E+03
        22  20 -4.737960E+04 -1.958291E+05 -1.216640E+05  1.221325E+04 -5.975717E+04 -7.037706E+03
        22  21 -3.985684E+02 -1.754792E+05 -1.358915E+05 -3.066378E+04 -2.885602E+04 -5.640505E+03
        22  22  6.951693E+05  6.166752E+04  1.246818E+05 -2.810607E+04 -9.080784E+04 -7.194585E+03
        22  23  6.783026E+05 -1.459780E+04  5.904032E+04  1.133846E+04 -5.969723E+04 -7.037005E+03
        22  24  6.951286E+05 -1.768609E+03  3.739550E+04 -2.795884E+04 -2.858560E+04 -5.640418E+03
        22  25  1.451534E+06  2.503604E+05  3.128716E+05 -3.256041E+04 -9.095999E+04 -7.193569E+03
        22  26  1.404462E+06  1.665940E+05  2.397052E+05  1.046253E+04 -5.963717E+04 -7.036305E+03
        22  27  1.391094E+06  1.719056E+05  2.106462E+05 -2.525080E+04 -2.831487E+04 -5.640328E+03
        23   1  2.610451E+05 -9.780386E+04 -7.681310E+04 -2.346085E+04  2.257887E+04  4.715480E+03
        23   2  2.823417E+05 -1.030105E+05 -8.525078E+04  7.993697E+03  1.474134E+04  3.741022E+03
        23   3  3.099194E+05 -9.472155E+04 -8.483502E+04 -2.425694E+04  6.901610E+03  2.756141E+03
        23   4  6.891393E+05  9.079500E+03  2.971094E+04 -2.464741E+04  2.244815E+04  4.715417E+03
        23   5  6.859874E+05 -2.219295E+03  1.525482E+04  7.197865E+03  1.460431E+04  3.741156E+03
        23   6  6.891151E+05 -2.546741E+01  9.652568E+03 -2.465945E+04  6.758594E+03  2.756468E+03
        23   7  1.117400E+06  1.159491E+05  1.362213E+05 -2.583472E+04  2.231733E+04  4.715355E+03
        23   8  1.089781E+06  9.855971E+04  1.157482E+05  6.401593E+03  1.446720E+04  3.741289E+03
        23   9  1.068441E+06  9.465980E+04  1.041294E+05 -2.506211E+04  6.615490E+03  2.756795E+03
        23  10  2.610445E+05 -9.780402E+04 -7.681410E+04 -2.346094E+04 -4.410878E-09 -1.587206E-12
        23  11  2.823415E+05 -1.030106E+05 -8.525121E+04  7.993652E+03 -1.755896E-09  2.820663E-10
        23  12  3.099193E+05 -9.472157E+04 -8.483512E+04 -2.425695E+04 -7.464012E-09 -1.341413E-10
        23  13  6.891387E+05  9.079341E+03  2.970996E+04 -2.464749E+04 -4.484408E-09  9.038972E-11
        23  14  6.859871E+05 -2.219367E+03  1.525439E+04  7.197821E+03  4.168451E-09 -2.768281E-10
        23  15  6.891151E+05 -2.548782E+01  9.652468E+03 -2.465947E+04 -1.145959E-08  2.806382E-10
        23  16  1.117399E+06  1.159489E+05  1.362203E+05 -2.583481E+04 -1.957586E-09 -1.482138E-10
        23  17  1.089780E+06  9.855964E+04  1.157478E+05  6.401550E+03  5.147866E-09  1.992306E-10
        23  18  1.068441E+06  9.465978E+04  1.041293E+05 -2.506212E+04 -1.562559E-09 -1.173422E-11
        23  19  2.610451E+05 -9.780386E+04 -7.681310E+04 -2.346085E+04 -2.257887E+04 -4.715480E+03
        23  20  2.823417E+05 -1.030105E+05 -8.525078E+04  7.993697E+03 -1.474134E+04 -3.741022E+03
        23  21  3.099194E+05 -9.472155E+04 -8.483502E+04 -2.425694E+04 -6.901610E+03 -2.756141E+03
        23  22  6.891393E+05  9.079500E+03  2.971094E+04 -2.464741E+04 -2.244815E+04 -4.715417E+03
        23  23  6.859874E+05 -2.219295E+03  1.525482E+04  7.197865E+03 -1.460431E+04 -3.741156E+03
        23  24  6.891151E+05 -2.546741E+01  9.652568E+03 -2.465945E+04 -6.758594E+03 -2.756468E+03
        23  25  1.117400E+06  1.159491E+05  1.362213E+05 -2.583472E+04 -2.231733E+04 -4.715355E+03
        23  26  1.089781E+06  9.855971E+04  1.157482E+05  6.401593E+03 -1.446720E+04 -3.741289E+03
        23  27  1.068441E+06  9.465980E+04  1.041294E+05 -2.506211E+04 -6.615490E+03 -2.756795E+03
        24   1  5.353316E+05 -3.670611E+04 -3.024385E+04 -2.262114E+04  5.314959E+03  2.172461E+03
        24   2  5.567565E+05 -3.304642E+04 -2.779118E+04  5.614129E+03  2.899366E+03  1.203786E+03
        24   3  5.788393E+05 -2.692705E+04 -2.320827E+04 -2.285791E+04  4.831922E+02  2.825060E+02
        24   4  6.879079E+05  1.373713E+03  7.669718E+03 -2.309736E+04  5.171633E+03  2.172901E+03
        24   5  6.875762E+05 -3.849225E+02  4.777865E+03  5.254224E+03  2.762350E+03  1.204258E+03
        24   6  6.879003E+05  3.147068E+02  4.011458E+03 -2.310075E+04  3.525701E+02  2.830075E+02
        24   7  8.405053E+05  3.945179E+04  4.558155E+04 -2.357367E+04  5.028271E+03  2.173342E+03
        24   8  8.184113E+05  3.227529E+04  3.734563E+04  4.894257E+03  2.625305E+03  1.204731E+03
        24   9  7.969720E+05  2.755557E+04  3.123029E+04 -2.334363E+04  2.219250E+02  2.835091E+02
        24  10  5.353315E+05 -3.670613E+04 -3.024391E+04 -2.262115E+04 -1.311751E-08  5.735876E-10
        24  11  5.567565E+05 -3.304642E+04 -2.779120E+04  5.614127E+03 -1.213908E-08  1.012942E-09
        24  12  5.788393E+05 -2.692705E+04 -2.320827E+04 -2.285791E+04 -6.631354E-09 -9.733987E-10
        24  13  6.879078E+05  1.373700E+03  7.669659E+03 -2.309736E+04 -4.501555E-10  2.720052E-10
        24  14  6.875762E+05 -3.849261E+02  4.777848E+03  5.254221E+03  4.044445E-09  2.094777E-09
        24  15  6.879003E+05  3.147067E+02  4.011458E+03 -2.310075E+04 -1.045205E-08  6.801234E-10
        24  16  8.405052E+05  3.945178E+04  4.558149E+04 -2.357368E+04  4.720152E-09 -1.043995E-10
        24  17  8.184113E+05  3.227528E+04  3.734561E+04  4.894254E+03  5.996092E-09  4.973998E-10
        24  18  7.969720E+05  2.755557E+04  3.123029E+04 -2.334363E+04  3.663245E-10  5.006778E-10
        24  19  5.353316E+05 -3.670611E+04 -3.024385E+04 -2.262114E+04 -5.314959E+03 -2.172461E+03
        24  20  5.567565E+05 -3.304642E+04 -2.779118E+04  5.614129E+03 -2.899366E+03 -1.203786E+03
        24  21  5.788393E+05 -2.692705E+04 -2.320827E+04 -2.285791E+04 -4.831922E+02 -2.825060E+02
        24  22  6.879079E+05  1.373713E+03  7.669718E+03 -2.309736E+04 -5.171633E+03 -2.172901E+03
        24  23  6.875762E+05 -3.849225E+02  4.777865E+03  5.254224E+03 -2.762350E+03 -1.204258E+03
        24  24  6.879003E+05  3.147068E+02  4.011458E+03 -2.310075E+04 -3.525701E+02 -2.830075E+02
        24  25  8.405053E+05  3.945179E+04  4.558155E+04 -2.357367E+04 -5.028271E+03 -2.173342E+03
        24  26  8.184113E+05  3.227529E+04  3.734563E+04  4.894257E+03 -2.625305E+03 -1.204731E+03
        24  27  7.969720E+05  2.755557E+04  3.123029E+04 -2.334363E+04 -2.219250E+02 -2.835091E+02
        25   1  7.922319E+05  2.636841E+04  3.005439E+04 -2.331519E+04 -2.492351E+02 -2.390114E+02
        25   2  8.136551E+05  3.108475E+04  3.618719E+04  4.887711E+03 -2.666033E+03 -1.160535E+03
        25   3  8.357213E+05  3.827528E+04  4.445012E+04 -2.355126E+04 -5.082469E+03 -2.126782E+03
        25   4  6.878980E+05  3.101688E+02  4.014786E+03 -2.308658E+04 -3.801200E+02 -2.385079E+02
        25   5  6.875797E+05 -3.873899E+02  4.804150E+03  5.236467E+03 -2.802949E+03 -1.160060E+03
        25   6  6.879052E+05  1.390561E+03  7.728163E+03 -2.308308E+04 -5.225331E+03 -2.126339E+03
        25   7  5.835739E+05 -2.574889E+04 -2.202563E+04 -2.285799E+04 -5.109829E+02 -2.380045E+02
        25   8  5.615187E+05 -3.186073E+04 -2.658008E+04  5.585165E+03 -2.939836E+03 -1.159585E+03
        25   9  5.401090E+05 -3.549580E+04 -2.899542E+04 -2.261499E+04 -5.368158E+03 -2.125895E+03
        25  10  7.922319E+05  2.636841E+04  3.005439E+04 -2.331519E+04 -6.374735E-09 -1.241968E-09
        25  11  8.136551E+05  3.108475E+04  3.618717E+04  4.887709E+03 -1.542193E-09 -9.812361E-10
        25  12  8.357213E+05  3.827527E+04  4.445006E+04 -2.355127E+04  1.337377E-09  1.388596E-09
        25  13  6.878980E+05  3.101687E+02  4.014786E+03 -2.308658E+04  8.057888E-09  3.024083E-10
        25  14  6.875797E+05 -3.873934E+02  4.804133E+03  5.236465E+03 -2.631547E-10 -5.452257E-12
        25  15  6.879052E+05  1.390549E+03  7.728104E+03 -2.308309E+04 -2.366844E-09  1.121873E-09
        25  16  5.835739E+05 -2.574889E+04 -2.202564E+04 -2.285799E+04  2.376538E-10 -5.949091E-10
        25  17  5.615187E+05 -3.186073E+04 -2.658010E+04  5.585163E+03  3.919281E-09 -5.828723E-10
        25  18  5.401090E+05 -3.549581E+04 -2.899549E+04 -2.261500E+04 -1.723513E-09 -2.207986E-10
        25  19  7.922319E+05  2.636841E+04  3.005439E+04 -2.331519E+04  2.492351E+02  2.390114E+02
        25  20  8.136551E+05  3.108475E+04  3.618719E+04  4.887711E+03  2.666033E+03  1.160535E+03
        25  21  8.357213E+05  3.827528E+04  4.445012E+04 -2.355126E+04  5.082469E+03  2.126782E+03
        25  22  6.878980E+05  3.101688E+02  4.014786E+03 -2.308658E+04  3.801200E+02  2.385079E+02
        25  23  6.875797E+05 -3.873899E+02  4.804150E+03  5.236467E+03  2.802949E+03  1.160060E+03
        25  24  6.879052E+05  1.390561E+03  7.728163E+03 -2.308308E+04  5.225331E+03  2.126339E+03
        25  25  5.835739E+05 -2.574889E+04 -2.202563E+04 -2.285799E+04  5.109829E+02  2.380045E+02
        25  26  5.615187E+05 -3.186073E+04 -2.658008E+04  5.585165E+03  2.939836E+03  1.159585E+03
        25  27  5.401090E+05 -3.549580E+04 -2.899542E+04 -2.261499E+04  5.368158E+03  2.125895E+03
        26   1  1.063180E+06  9.334387E+04  1.028952E+05 -2.501233E+04 -6.680804E+03 -2.708703E+03
        26   2  1.084442E+06  9.720650E+04  1.145535E+05  6.345070E+03 -1.460134E+04 -3.690762E+03
        26   3  1.111960E+06  1.146848E+05  1.351294E+05 -2.581258E+04 -2.252010E+04 -4.660874E+03
        26   4  6.891109E+05 -2.959521E+01  9.726632E+03 -2.461854E+04 -6.823742E+03 -2.708369E+03
        26   5  6.859945E+05 -2.238776E+03  1.539018E+04  7.146573E+03 -1.473809E+04 -3.690620E+03
        26   6  6.891345E+05  9.170989E+03  2.997109E+04 -2.460589E+04 -2.265035E+04 -4.660927E+03
        26   7  3.151685E+05 -9.341358E+04 -8.345247E+04 -2.422488E+04 -6.966593E+03 -2.708035E+03
        26   8  2.876905E+05 -1.016960E+05 -8.378504E+04  7.947639E+03 -1.487474E+04 -3.690478E+03
        26   9  2.664709E+05 -9.635623E+04 -7.520066E+04 -2.339997E+04 -2.278050E+04 -4.660979E+03
        26  10  1.063180E+06  9.334385E+04  1.028951E+05 -2.501235E+04 -1.662125E-09  3.227021E-10
        26  11  1.084442E+06  9.720643E+04  1.145531E+05  6.345026E+03  4.811808E-10 -2.286511E-09
        26  12  1.111959E+06  1.146846E+05  1.351285E+05 -2.581266E+04  6.045026E-10  2.677134E-10
        26  13  6.891108E+05 -2.961558E+01  9.726531E+03 -2.461855E+04 -3.551054E-10 -7.127419E-10
        26  14  6.859943E+05 -2.238849E+03  1.538975E+04  7.146529E+03 -8.704404E-09 -1.466850E-09
        26  15  6.891340E+05  9.170828E+03  2.997008E+04 -2.460598E+04  1.116088E-09 -8.712280E-11
        26  16  3.151685E+05 -9.341360E+04 -8.345258E+04 -2.422490E+04 -4.610963E-09  2.550836E-10
        26  17  2.876903E+05 -1.016961E+05 -8.378548E+04  7.947595E+03 -3.531060E-09 -1.519380E-09
        26  18  2.664704E+05 -9.635639E+04 -7.520167E+04 -2.340005E+04  1.977757E-09 -1.847901E-10
        26  19  1.063180E+06  9.334387E+04  1.028952E+05 -2.501233E+04  6.680804E+03  2.708703E+03
        26  20  1.084442E+06  9.720650E+04  1.145535E+05  6.345070E+03  1.460134E+04  3.690762E+03
        26  21  1.111960E+06  1.146848E+05  1.351294E+05 -2.581258E+04  2.252010E+04  4.660874E+03
        26  22  6.891109E+05 -2.959521E+01  9.726632E+03 -2.461854E+04  6.823742E+03  2.708369E+03
        26  23  6.859945E+05 -2.238776E+03  1.539018E+04  7.146573E+03  1.473809E+04  3.690620E+03
        26  24  6.891345E+05  9.170989E+03  2.997109E+04 -2.460589E+04  2.265035E+04  4.660927E+03
        26  25  3.151685E+05 -9.341358E+04 -8.345247E+04 -2.422488E+04  6.966593E+03  2.708035E+03
        26  26  2.876905E+05 -1.016960E+05 -8.378504E+04  7.947639E+03  1.487474E+04  3.690478E+03
        26  27  2.664709E+05 -9.635623E+04 -7.520066E+04 -2.339997E+04  2.278050E+04  4.660979E+03
        27   1  1.384659E+06  1.702760E+05  2.093607E+05 -2.516920E+04 -2.857036E+04 -5.581065E+03
        27   2  1.397858E+06  1.648242E+05  2.386036E+05  1.030577E+04 -6.016949E+04 -6.969756E+03
        27   3  1.444852E+06  2.492556E+05  3.123061E+05 -3.259240E+04 -9.176954E+04 -7.128130E+03
        27   4  6.951511E+05 -1.787072E+03  3.771651E+04 -2.787951E+04 -2.883973E+04 -5.581130E+03
        27   5  6.782784E+05 -1.472651E+04  5.957523E+04  1.123822E+04 -6.022940E+04 -6.970445E+03
        27   6  6.951908E+05  6.223398E+04  1.257836E+05 -2.802263E+04 -9.161846E+04 -7.129167E+03
        27   7  6.073404E+03 -1.738858E+05 -1.339633E+05 -3.058673E+04 -2.910879E+04 -5.581192E+03
        27   8 -4.083213E+04 -1.943160E+05 -1.194919E+05  1.216949E+04 -6.028921E+04 -6.971135E+03
        27   9 -5.396172E+04 -1.248298E+05 -6.078108E+04 -2.345865E+04 -9.146751E+04 -7.130204E+03
        27  10  1.384658E+06  1.702758E+05  2.093591E+05 -2.516933E+04 -1.836347E-09  3.003532E-10
        27  11  1.397854E+06  1.648231E+05  2.385967E+05  1.030543E+04 -1.205941E-09 -4.417701E-10
        27  12  1.444843E+06  2.492533E+05  3.122902E+05 -3.259293E+04 -4.701880E-09  1.331326E-09
        27  13  6.951502E+05 -1.787329E+03  3.771489E+04 -2.787964E+04 -1.434939E-10  7.847499E-10
        27  14  6.782745E+05 -1.472753E+04  5.956833E+04  1.123788E+04  1.086397E-08 -9.809929E-11
        27  15  6.951818E+05  6.223167E+04  1.257677E+05 -2.802315E+04  3.857637E-09 -1.429087E-10
        27  16  6.072486E+03 -1.738861E+05 -1.339650E+05 -3.058686E+04  1.897545E-09 -3.751275E-10
        27  17 -4.083604E+04 -1.943171E+05 -1.194988E+05  1.216915E+04 -2.959415E-09 -5.038757E-10
        27  18 -5.397072E+04 -1.248321E+05 -6.079690E+04 -2.345917E+04  4.785950E-09 -1.400155E-11
        27  19  1.384659E+06  1.702760E+05  2.093607E+05 -2.516920E+04  2.857036E+04  5.581065E+03
        27  20  1.397858E+06  1.648242E+05  2.386036E+05  1.030577E+04  6.016949E+04  6.969756E+03
        27  21  1.444852E+06  2.492556E+05  3.123061E+05 -3.259240E+04  9.176954E+04  7.128130E+03
        27  22  6.951511E+05 -1.787072E+03  3.771651E+04 -2.787951E+04  2.883973E+04  5.581130E+03
        27  23  6.782784E+05 -1.472651E+04  5.957523E+04  1.123822E+04  6.022940E+04  6.970445E+03
        27  24  6.951908E+05  6.223398E+04  1.257836E+05 -2.802263E+04  9.161846E+04  7.129167E+03
        27  25  6.073404E+03 -1.738858E+05 -1.339633E+05 -3.058673E+04  2.910879E+04  5.581192E+03
        27  26 -4.083213E+04 -1.943160E+05 -1.194919E+05  1.216949E+04  6.028921E+04  6.971135E+03
        27  27 -5.396172E+04 -1.248298E+05 -6.078108E+04 -2.345865E+04  9.146751E+04  7.130204E+03
        28   1  1.816682E+06  2.579060E+05  4.234441E+05 -1.013735E+04 -1.159233E+05 -9.848448E+03
        28   2  1.764812E+06  1.844034E+05  5.107049E+05  1.289984E+04 -2.437240E+05 -1.358261E+04
        28   3  1.897039E+06  7.057799E+05  8.335263E+05 -7.086242E+04 -3.715994E+05 -7.294343E+03
        28   4  7.283998E+05 -1.377887E+04  1.526360E+05 -3.319809E+04 -1.169770E+05 -9.849335E+03
        28   5  6.363845E+05 -9.697843E+04  2.301782E+05  1.849284E+04 -2.431310E+05 -1.358466E+04
        28   6  7.284574E+05  4.149748E+05  5.424403E+05 -3.662357E+04 -3.693513E+05 -7.301200E+03
        28   7 -3.588101E+05 -2.855509E+05 -1.182606E+05 -5.621937E+04 -1.180288E+05 -9.850143E+03
        28   8 -4.908905E+05 -3.784556E+05 -5.044370E+04  2.407399E+04 -2.425388E+05 -1.358671E+04
        28   9 -4.388848E+05  1.240723E+05  2.512529E+05 -2.451485E+03 -3.671069E+05 -7.307829E+03
        28  10  1.816668E+06  2.579023E+05  4.234187E+05 -1.013827E+04 -1.604402E-09  2.664648E-09
        28  11  1.764749E+06  1.843874E+05  5.105933E+05  1.289718E+04  3.215089E-09  4.984666E-11
        28  12  1.896891E+06  7.057429E+05  8.332674E+05 -7.086460E+04 -1.150653E-09 -1.326607E-09
        28  13  7.283851E+05 -1.378264E+04  1.526102E+05 -3.319901E+04 -8.191334E-09  7.726025E-10
        28  14  6.363210E+05 -9.699447E+04  2.300669E+05  1.849018E+04  6.839680E-09 -1.083544E-09
        28  15  7.283111E+05  4.149381E+05  5.421842E+05 -3.662574E+04 -4.944145E-09  1.171700E-10
        28  16 -3.588251E+05 -2.855547E+05 -1.182870E+05 -5.622031E+04 -7.752619E-10  4.330476E-10
        28  17 -4.909538E+05 -3.784716E+05 -5.055466E+04  2.407134E+04  2.668661E-09  2.282242E-09
        28  18 -4.390296E+05  1.240360E+05  2.509994E+05 -2.453646E+03 -1.150426E-09  2.891851E-10
        28  19  1.816682E+06  2.579060E+05  4.234441E+05 -1.013735E+04  1.159233E+05  9.848448E+03
        28  20  1.764812E+06  1.844034E+05  5.107049E+05  1.289984E+04  2.437240E+05  1.358261E+04
        28  21  1.897039E+06  7.057799E+05  8.335263E+05 -7.086242E+04  3.715994E+05  7.294343E+03
        28  22  7.283998E+05 -1.377887E+04  1.526360E+05 -3.319809E+04  1.169770E+05  9.849335E+03
        28  23  6.363845E+05 -9.697843E+04  2.301782E+05  1.849284E+04  2.431310E+05  1.358466E+04
        28  24  7.284574E+05  4.149748E+05  5.424403E+05 -3.662357E+04  3.693513E+05  7.301200E+03
        28  25 -3.588101E+05 -2.855509E+05 -1.182606E+05 -5.621937E+04  1.180288E+05  9.850143E+03
        28  26 -4.908905E+05 -3.784556E+05 -5.044370E+04  2.407399E+04  2.425388E+05  1.358671E+04
        28  27 -4.388848E+05  1.240723E+05  2.512529E+05 -2.451485E+03  3.671069E+05  7.307829E+03
        29   1  3.021918E+05  2.616604E+04  3.939947E+05 -2.761281E+04 -2.452302E+03  2.686550E+05
        29   2 -7.004451E+04 -3.345129E+04  1.683738E+05 -7.986691E+03 -1.606206E+03  1.766636E+05
        29   3 -1.038987E+04  2.692891E+04  1.106619E+05  1.447004E+04 -7.667284E+02  8.466795E+04
        29   4  3.016433E+05  2.671187E+04  3.939945E+05  2.496462E+03 -2.439270E+03  2.686551E+05
        29   5 -7.018359E+04 -3.331239E+04  1.683738E+05 -3.348018E+02 -1.604028E+03  1.766636E+05
        29   6 -1.012143E+04  2.665982E+04  1.106618E+05 -3.339852E+02 -7.687476E+02  8.466794E+04
        29   7  3.010982E+05  2.725965E+04  3.939947E+05  3.260575E+04 -2.426239E+03  2.686552E+05
        29   8 -7.032244E+04 -3.317337E+04  1.683738E+05  7.317089E+03 -1.601850E+03  1.766636E+05
        29   9 -9.852172E+03  2.639121E+04  1.106619E+05 -1.513801E+04 -7.707668E+02  8.466792E+04
        29  10  3.021724E+05  2.608856E+04  3.938591E+05 -2.761228E+04  1.645814E-09 -5.475521E-10
        29  11 -7.005289E+04 -3.348480E+04  1.683151E+05 -7.986463E+03  2.981387E-09 -2.074810E-09
        29  12 -1.039180E+04  2.692121E+04  1.106484E+05  1.447009E+04 -5.921048E-10 -1.521335E-10
        29  13  3.016239E+05  2.663439E+04  3.938588E+05  2.496990E+03 -4.685128E-09 -2.566672E-13
        29  14 -7.019197E+04 -3.334590E+04  1.683151E+05 -3.345736E+02  2.670987E-09 -4.622488E-11
        29  15 -1.012336E+04  2.665213E+04  1.106483E+05 -3.339328E+02 -2.845863E-09 -1.360526E-10
        29  16  3.010788E+05  2.718217E+04  3.938591E+05  3.260628E+04 -1.578913E-09  6.521610E-10
        29  17 -7.033082E+04 -3.320688E+04  1.683151E+05  7.317317E+03  8.437870E-09  2.117275E-09
        29  18 -9.854096E+03  2.638351E+04  1.106484E+05 -1.513796E+04  4.582713E-09  1.926043E-10
        29  19  3.021918E+05  2.616604E+04  3.939947E+05 -2.761281E+04  2.452302E+03 -2.686550E+05
        29  20 -7.004451E+04 -3.345129E+04  1.683738E+05 -7.986691E+03  1.606206E+03 -1.766636E+05
        29  21 -1.038987E+04  2.692891E+04  1.106619E+05  1.447004E+04  7.667284E+02 -8.466795E+04
        29  22  3.016433E+05  2.671187E+04  3.939945E+05  2.496462E+03  2.439270E+03 -2.686551E+05
        29  23 -7.018359E+04 -3.331239E+04  1.683738E+05 -3.348018E+02  1.604028E+03 -1.766636E+05
        29  24 -1.012143E+04  2.665982E+04  1.106618E+05 -3.339852E+02  7.687476E+02 -8.466794E+04
        29  25  3.010982E+05  2.725965E+04  3.939947E+05  3.260575E+04  2.426239E+03 -2.686552E+05
        29  26 -7.032244E+04 -3.317337E+04  1.683738E+05  7.317089E+03  1.601850E+03 -1.766636E+05
        29  27 -9.852172E+03  2.639121E+04  1.106619E+05 -1.513801E+04  7.707668E+02 -8.466792E+04
        30   1  4.581937E+04  4.252781E+03  9.171516E+04 -3.991007E+03 -6.029051E+02  6.635104E+04
        30   2 -1.067888E+04 -5.426647E+03  4.425532E+04 -1.080503E+03 -3.918006E+02  4.314404E+04
        30   3 -1.390546E+03  4.368224E+03  2.835515E+04  2.250523E+03 -1.809476E+02  1.993726E+04
        30   4  4.574003E+04  4.332068E+03  9.171516E+04  3.759971E+02 -6.024383E+02  6.635105E+04
        30   5 -1.069764E+04 -5.407898E+03  4.425532E+04 -4.803245E+01 -3.917289E+02  4.314404E+04
        30   6 -1.348749E+03  4.326411E+03  2.835515E+04 -5.153221E+01 -1.810216E+02  1.993726E+04
        30   7  4.566076E+04  4.411396E+03  9.171516E+04  4.743002E+03 -6.019715E+02  6.635105E+04
        30   8 -1.071638E+04 -5.389146E+03  4.425532E+04  9.844378E+02 -3.916571E+02  4.314404E+04
        30   9 -1.306933E+03  4.284610E+03  2.835515E+04 -2.353588E+03 -1.810955E+02  1.993726E+04
        30  10  4.581819E+04  4.248054E+03  9.170689E+04 -3.990975E+03  7.479085E-09  2.420125E-09
        30  11 -1.067938E+04 -5.428646E+03  4.425182E+04 -1.080489E+03  1.240104E-09  7.930175E-12
        30  12 -1.390653E+03  4.367797E+03  2.835441E+04  2.250526E+03 -4.175106E-09 -4.356100E-10
        30  13  4.573885E+04  4.327341E+03  9.170688E+04  3.760293E+02  5.668010E-09 -1.364929E-10
        30  14 -1.069813E+04 -5.409896E+03  4.425182E+04 -4.801884E+01  5.624368E-09  9.382103E-11
        30  15 -1.348856E+03  4.325985E+03  2.835440E+04 -5.152930E+01  6.065457E-09 -7.324139E-11
        30  16  4.565957E+04  4.406669E+03  9.170689E+04  4.743034E+03 -1.593086E-09 -2.421468E-09
        30  17 -1.071688E+04 -5.391145E+03  4.425182E+04  9.844515E+02 -6.118690E-10  1.306597E-11
        30  18 -1.307039E+03  4.284184E+03  2.835441E+04 -2.353585E+03 -7.328812E-09  3.897803E-10
        30  19  4.581937E+04  4.252781E+03  9.171516E+04 -3.991007E+03  6.029051E+02 -6.635104E+04
        30  20 -1.067888E+04 -5.426647E+03  4.425532E+04 -1.080503E+03  3.918006E+02 -4.314404E+04
        30  21 -1.390546E+03  4.368224E+03  2.835515E+04  2.250523E+03  1.809476E+02 -1.993726E+04
        30  22  4.574003E+04  4.332068E+03  9.171516E+04  3.759971E+02  6.024383E+02 -6.635105E+04
        30  23 -1.069764E+04 -5.407898E+03  4.425532E+04 -4.803245E+01  3.917289E+02 -4.314404E+04
        30  24 -1.348749E+03  4.326411E+03  2.835515E+04 -5.153221E+01  1.810216E+02 -1.993726E+04
        30  25  4.566076E+04  4.411396E+03  9.171516E+04  4.743002E+03  6.019715E+02 -6.635105E+04
        30  26 -1.071638E+04 -5.389146E+03  4.425532E+04  9.844378E+02  3.916571E+02 -4.314404E+04
        30  27 -1.306933E+03  4.284610E+03  2.835515E+04 -2.353588E+03  1.810955E+02 -1.993726E+04
        31   1  6.881254E+03  8.267642E+02  2.332599E+04 -6.070869E+02 -1.385553E+02  1.525834E+04
        31   2 -1.852995E+03 -1.049813E+03  1.388244E+04 -1.204455E+02 -7.416443E+01  8.168120E+03
        31   3  8.063510E+02  8.460887E+02  1.190380E+04  4.353905E+02 -9.787293E+00  1.078031E+03
        31   4  6.869233E+03  8.387833E+02  2.332599E+04  5.475835E+01 -1.385390E+02  1.525834E+04
        31   5 -1.855050E+03 -1.047758E+03  1.388244E+04 -7.330452E+00 -7.416294E+01  8.168120E+03
        31   6  8.142615E+02  8.381776E+02  1.190380E+04 -2.171657E-01 -9.788050E+00  1.078031E+03
        31   7  6.857214E+03  8.508033E+02  2.332599E+04  7.166036E+02 -1.385228E+02  1.525834E+04
        31   8 -1.857104E+03 -1.045704E+03  1.388244E+04  1.057846E+02 -7.416145E+01  8.168120E+03
        31   9  8.221728E+02  8.302669E+02  1.190380E+04 -4.358249E+02 -9.788806E+00  1.078031E+03
        31  10  6.881191E+03  8.265142E+02  2.332555E+04 -6.070851E+02 -4.830228E-09  1.537935E-09
        31  11 -1.853013E+03 -1.049884E+03  1.388231E+04 -1.204450E+02  1.024361E-09  4.295994E-10
        31  12  8.063507E+02  8.460875E+02  1.190380E+04  4.353905E+02  8.698387E-09 -2.853384E-11
        31  13  6.869171E+03  8.385333E+02  2.332555E+04  5.476005E+01 -1.745045E-08 -1.409466E-10
        31  14 -1.855067E+03 -1.047830E+03  1.388231E+04 -7.329964E+00 -7.265450E-09 -3.562407E-11
        31  15  8.142612E+02  8.381764E+02  1.190380E+04 -2.171571E-01 -3.078681E-09 -5.573606E-11
        31  16  6.857152E+03  8.505533E+02  2.332555E+04  7.166053E+02 -9.129908E-09 -1.682493E-09
        31  17 -1.857122E+03 -1.045776E+03  1.388231E+04  1.057850E+02 -2.340876E-09 -6.192872E-10
        31  18  8.221725E+02  8.302657E+02  1.190380E+04 -4.358248E+02 -6.630951E-09  1.022718E-10
        31  19  6.881254E+03  8.267642E+02  2.332599E+04 -6.070869E+02  1.385553E+02 -1.525834E+04
        31  20 -1.852995E+03 -1.049813E+03  1.388244E+04 -1.204455E+02  7.416443E+01 -8.168120E+03
        31  21  8.063510E+02  8.460887E+02  1.190380E+04  4.353905E+02  9.787293E+00 -1.078031E+03
        31  22  6.869233E+03  8.387833E+02  2.332599E+04  5.475835E+01  1.385390E+02 -1.525834E+04
        31  23 -1.855050E+03 -1.047758E+03  1.388244E+04 -7.330452E+00  7.416294E+01 -8.168120E+03
        31  24  8.142615E+02  8.381776E+02  1.190380E+04 -2.171657E-01  9.788050E+00 -1.078031E+03
        31  25  6.857214E+03  8.508033E+02  2.332599E+04  7.166036E+02  1.385228E+02 -1.525834E+04
        31  26 -1.857104E+03 -1.045704E+03  1.388244E+04  1.057846E+02  7.416145E+01 -8.168120E+03
        31  27  8.221728E+02  8.302669E+02  1.190380E+04 -4.358249E+02  9.788806E+00 -1.078031E+03
        32   1 -9.780099E+06 -3.260996E+06 -2.054457E+06 -3.424044E+06 -8.594405E+05 -2.937454E+05
        32   2 -9.544510E+06 -1.999198E+06 -1.259016E+06 -3.525166E+06 -5.631463E+05 -1.047469E+05
        32   3 -9.723329E+06 -1.945532E+06 -1.020391E+06 -3.386975E+06 -2.400527E+05  1.474027E+04
        32   4 -7.143845E+06 -1.957418E+06 -1.270518E+06 -2.406114E+06 -8.130010E+05 -2.763868E+05
        32   5 -6.870720E+06 -8.940142E+05 -5.306222E+05 -2.702811E+06 -5.494940E+05 -9.964928E+04
        32   6 -7.003510E+06 -1.029238E+06 -3.194285E+05 -2.760765E+06 -2.592415E+05  7.459038E+03
        32   7 -4.500563E+06 -6.519103E+05 -4.872701E+05 -1.383738E+06 -7.663343E+05 -2.588847E+05
        32   8 -4.189864E+06  2.119901E+05  1.971188E+05 -1.877065E+06 -5.357714E+05 -9.451977E+04
        32   9 -4.276415E+06 -1.128468E+05  3.809377E+05 -2.132204E+06 -2.785223E+05  1.521767E+02
        32  10 -9.780927E+06 -3.261293E+06 -2.056035E+06 -3.424250E+06  2.092055E-09 -9.714760E-10
        32  11 -9.544858E+06 -1.999297E+06 -1.259643E+06 -3.525214E+06  5.799903E-09 -2.169277E-09
        32  12 -9.723391E+06 -1.945548E+06 -1.020501E+06 -3.386972E+06 -5.036267E-09  1.042294E-09
        32  13 -7.144583E+06 -1.957681E+06 -1.271922E+06 -2.406296E+06  3.120528E-09 -1.115473E-09
        32  14 -6.871050E+06 -8.941073E+05 -5.312156E+05 -2.702856E+06  5.688343E-09 -2.278712E-09
        32  15 -7.003582E+06 -1.029257E+06 -3.195563E+05 -2.760764E+06  8.097417E-09  4.328605E-10
        32  16 -4.501216E+06 -6.521419E+05 -4.885095E+05 -1.383898E+06  9.969350E-10 -1.182967E-09
        32  17 -4.190176E+06  2.119026E+05  1.965582E+05 -1.877106E+06  7.540661E-09 -1.740952E-09
        32  18 -4.276498E+06 -1.128678E+05  3.807910E+05 -2.132204E+06  4.429884E-09  1.946602E-10
        32  19 -9.780099E+06 -3.260996E+06 -2.054457E+06 -3.424044E+06  8.594405E+05  2.937454E+05
        32  20 -9.544510E+06 -1.999198E+06 -1.259016E+06 -3.525166E+06  5.631463E+05  1.047469E+05
        32  21 -9.723329E+06 -1.945532E+06 -1.020391E+06 -3.386975E+06  2.400527E+05 -1.474027E+04
        32  22 -7.143845E+06 -1.957418E+06 -1.270518E+06 -2.406114E+06  8.130010E+05  2.763868E+05
        32  23 -6.870720E+06 -8.940142E+05 -5.306222E+05 -2.702811E+06  5.494940E+05  9.964928E+04
        32  24 -7.003510E+06 -1.029238E+06 -3.194285E+05 -2.760765E+06  2.592415E+05 -7.459038E+03
        32  25 -4.500563E+06 -6.519103E+05 -4.872701E+05 -1.383738E+06  7.663343E+05  2.588847E+05
        32  26 -4.189864E+06  2.119901E+05  1.971188E+05 -1.877065E+06  5.357714E+05  9.451977E+04
        32  27 -4.276415E+06 -1.128468E+05  3.809377E+05 -2.132204E+06  2.785223E+05 -1.521767E+02
        33   1 -9.350272E+06 -2.111904E+06 -9.052247E+05 -3.383887E+06 -2.093455E+05  1.111971E+04
        33   2 -9.193155E+06 -1.853544E+06 -7.166123E+05 -3.284020E+06 -1.405308E+05  3.421353E+04
        33   3 -8.975628E+06 -1.828048E+06 -6.114020E+05 -3.276282E+06 -6.916594E+04  5.052000E+04
        33   4 -6.952435E+06 -1.171645E+06 -2.597583E+05 -2.697943E+06 -2.094729E+05  1.103469E+04
        33   5 -6.975454E+06 -1.005255E+06 -1.251597E+05 -2.670793E+06 -1.437199E+05  3.298470E+04
        33   6 -6.937281E+06 -1.070790E+06 -7.124672E+04 -2.735798E+06 -7.544303E+04  4.814481E+04
        33   7 -4.548953E+06 -2.309247E+05  3.851918E+05 -2.009527E+06 -2.095997E+05  1.095006E+04
        33   8 -4.752925E+06 -1.566344E+05  4.658603E+05 -2.055542E+06 -1.469211E+05  3.175131E+04
        33   9 -4.894857E+06 -3.133136E+05  4.685497E+05 -2.193699E+06 -8.174285E+04  4.576147E+04
        33  10 -9.350319E+06 -2.111916E+06 -9.053085E+05 -3.383885E+06  9.740225E-09  7.040212E-09
        33  11 -9.193177E+06 -1.853551E+06 -7.166520E+05 -3.284017E+06 -9.199178E-09  1.429244E-10
        33  12 -8.975633E+06 -1.828052E+06 -6.114158E+05 -3.276279E+06 -1.094222E-08 -3.121100E-09
        33  13 -6.952482E+06 -1.171657E+06 -2.598419E+05 -2.697941E+06  5.877689E-09  7.145952E-10
        33  14 -6.975477E+06 -1.005261E+06 -1.252009E+05 -2.670789E+06  6.283976E-09 -1.290141E-09
        33  15 -6.937287E+06 -1.070794E+06 -7.126180E+04 -2.735795E+06 -6.953136E-09  5.005562E-10
        33  16 -4.549000E+06 -2.309367E+05  3.851085E+05 -2.009525E+06 -1.633565E-09 -3.106993E-09
        33  17 -4.752948E+06 -1.566413E+05  4.658176E+05 -2.055539E+06  8.047293E-09 -1.469480E-09
        33  18 -4.894865E+06 -3.133176E+05  4.685332E+05 -2.193696E+06  5.343441E-09  3.789460E-09
        33  19 -9.350272E+06 -2.111904E+06 -9.052247E+05 -3.383887E+06  2.093455E+05 -1.111971E+04
        33  20 -9.193155E+06 -1.853544E+06 -7.166123E+05 -3.284020E+06  1.405308E+05 -3.421353E+04
        33  21 -8.975628E+06 -1.828048E+06 -6.114020E+05 -3.276282E+06  6.916594E+04 -5.052000E+04
        33  22 -6.952435E+06 -1.171645E+06 -2.597583E+05 -2.697943E+06  2.094729E+05 -1.103469E+04
        33  23 -6.975454E+06 -1.005255E+06 -1.251597E+05 -2.670793E+06  1.437199E+05 -3.298470E+04
        33  24 -6.937281E+06 -1.070790E+06 -7.124672E+04 -2.735798E+06  7.544303E+04 -4.814481E+04
        33  25 -4.548953E+06 -2.309247E+05  3.851918E+05 -2.009527E+06  2.095997E+05 -1.095006E+04
        33  26 -4.752925E+06 -1.566344E+05  4.658603E+05 -2.055542E+06  1.469211E+05 -3.175131E+04
        33  27 -4.894857E+06 -3.133136E+05  4.685497E+05 -2.193699E+06  8.174285E+04 -4.576147E+04
        34   1 -8.627456E+06 -1.738069E+06 -5.079290E+05 -3.201775E+06 -5.773291E+04  4.701206E+04
        34   2 -8.436635E+06 -1.551639E+06 -4.119996E+05 -3.048324E+06 -3.836957E+04  4.194150E+04
        34   3 -8.104485E+06 -1.523906E+06 -3.305693E+05 -3.058554E+06 -1.852559E+04  3.548515E+04
        34   4 -6.924670E+06 -1.093038E+06 -5.574704E+04 -2.737022E+06 -6.275163E+04  4.511709E+04
        34   5 -6.994415E+06 -1.007848E+06 -2.901611E+04 -2.657347E+06 -4.402275E+04  3.981916E+04
        34   6 -6.922766E+06 -1.081179E+06 -1.623752E+04 -2.741353E+06 -2.482101E+04  3.313445E+04
        34   7 -5.219041E+06 -4.478249E+05  3.961819E+05 -2.271096E+06 -6.778553E+04  4.321642E+04
        34   8 -5.550159E+06 -4.639320E+05  3.537854E+05 -2.265537E+06 -4.969046E+04  3.769139E+04
        34   9 -5.739685E+06 -6.383755E+05  2.979714E+05 -2.423602E+06 -3.112970E+04  3.077885E+04
        34  10 -8.627460E+06 -1.738072E+06 -5.079395E+05 -3.201772E+06  4.825867E-09  1.863625E-09
        34  11 -8.436637E+06 -1.551641E+06 -4.120056E+05 -3.048322E+06 -1.059163E-09 -2.219995E-09
        34  12 -8.104486E+06 -1.523907E+06 -3.305723E+05 -3.058553E+06  4.812574E-09 -1.357867E-09
        34  13 -6.924675E+06 -1.093041E+06 -5.575828E+04 -2.737019E+06  4.703408E-09 -8.499829E-11
        34  14 -6.994418E+06 -1.007850E+06 -2.902273E+04 -2.657345E+06 -1.658676E-09 -3.012845E-09
        34  15 -6.922767E+06 -1.081181E+06 -1.624073E+04 -2.741353E+06 -3.906013E-09 -3.442418E-09
        34  16 -5.219046E+06 -4.478281E+05  3.961697E+05 -2.271094E+06  1.883150E-09  9.493926E-10
        34  17 -5.550162E+06 -4.639341E+05  3.537781E+05 -2.265535E+06 -1.264218E-08 -3.832340E-10
        34  18 -5.739686E+06 -6.383767E+05  2.979678E+05 -2.423601E+06 -1.042206E-09  2.401283E-09
        34  19 -8.627456E+06 -1.738069E+06 -5.079290E+05 -3.201775E+06  5.773291E+04 -4.701206E+04
        34  20 -8.436635E+06 -1.551639E+06 -4.119996E+05 -3.048324E+06  3.836957E+04 -4.194150E+04
        34  21 -8.104485E+06 -1.523906E+06 -3.305693E+05 -3.058554E+06  1.852559E+04 -3.548515E+04
        34  22 -6.924670E+06 -1.093038E+06 -5.574704E+04 -2.737022E+06  6.275163E+04 -4.511709E+04
        34  23 -6.994415E+06 -1.007848E+06 -2.901611E+04 -2.657347E+06  4.402275E+04 -3.981916E+04
        34  24 -6.922766E+06 -1.081179E+06 -1.623752E+04 -2.741353E+06  2.482101E+04 -3.313445E+04
        34  25 -5.219041E+06 -4.478249E+05  3.961819E+05 -2.271096E+06  6.778553E+04 -4.321642E+04
        34  26 -5.550159E+06 -4.639320E+05  3.537854E+05 -2.265537E+06  4.969046E+04 -3.769139E+04
        34  27 -5.739685E+06 -6.383755E+05  2.979714E+05 -2.423602E+06  3.112970E+04 -3.077885E+04
        35   1 -7.702299E+06 -1.381517E+06 -2.196437E+05 -2.957172E+06 -1.336795E+04  2.882839E+04
        35   2 -7.486157E+06 -1.185872E+06 -1.363728E+05 -2.781958E+06 -4.598556E+03  1.721977E+04
        35   3 -7.106670E+06 -1.156214E+06 -5.647596E+04 -2.796438E+06  4.288615E+03  5.253754E+03
        35   4 -6.918275E+06 -1.087066E+06 -1.275511E+04 -2.745461E+06 -1.967732E+04  2.647817E+04
        35   5 -6.999770E+06 -1.003325E+06 -7.441612E+03 -2.650871E+06 -1.107845E+04  1.480994E+04
        35   6 -6.917990E+06 -1.085532E+06 -5.358386E+03 -2.746000E+06 -2.364103E+03  2.784056E+03
        35   7 -6.133644E+06 -7.925764E+05  1.940816E+05 -2.533505E+06 -2.599554E+04  2.412466E+04
        35   8 -6.513153E+06 -8.207632E+05  1.214690E+05 -2.519690E+06 -1.756397E+04  1.239802E+04
        35   9 -6.729276E+06 -1.014848E+06  4.575576E+04 -2.695548E+06 -9.019012E+03  3.135505E+02
        35  10 -7.702300E+06 -1.381518E+06 -2.196456E+05 -2.957172E+06  1.700716E-09 -2.094562E-09
        35  11 -7.486157E+06 -1.185873E+06 -1.363734E+05 -2.781958E+06  1.990371E-09 -2.030272E-09
        35  12 -7.106670E+06 -1.156214E+06 -5.647605E+04 -2.796438E+06 -5.543179E-09  2.934929E-09
        35  13 -6.918276E+06 -1.087066E+06 -1.275715E+04 -2.745461E+06  3.949980E-10 -4.415013E-09
        35  14 -6.999771E+06 -1.003325E+06 -7.442253E+03 -2.650871E+06 -5.677427E-09 -2.695333E-09
        35  15 -6.917990E+06 -1.085532E+06 -5.358411E+03 -2.746000E+06  1.070469E-10  2.864189E-09
        35  16 -6.133645E+06 -7.925772E+05  1.940793E+05 -2.533504E+06 -4.467571E-09  2.571820E-09
        35  17 -6.513153E+06 -8.207634E+05  1.214681E+05 -2.519690E+06 -1.077192E-09 -6.904735E-10
        35  18 -6.729276E+06 -1.014848E+06  4.575560E+04 -2.695548E+06 -7.143085E-09  1.201762E-09
        35  19 -7.702299E+06 -1.381517E+06 -2.196437E+05 -2.957172E+06  1.336795E+04 -2.882839E+04
        35  20 -7.486157E+06 -1.185872E+06 -1.363728E+05 -2.781958E+06  4.598556E+03 -1.721977E+04
        35  21 -7.106670E+06 -1.156214E+06 -5.647596E+04 -2.796438E+06 -4.288615E+03 -5.253754E+03
        35  22 -6.918275E+06 -1.087066E+06 -1.275511E+04 -2.745461E+06  1.967732E+04 -2.647817E+04
        35  23 -6.999770E+06 -1.003325E+06 -7.441612E+03 -2.650871E+06  1.107845E+04 -1.480994E+04
        35  24 -6.917990E+06 -1.085532E+06 -5.358386E+03 -2.746000E+06  2.364103E+03 -2.784056E+03
        35  25 -6.133644E+06 -7.925764E+05  1.940816E+05 -2.533505E+06  2.599554E+04 -2.412466E+04
        35  26 -6.513153E+06 -8.207632E+05  1.214690E+05 -2.519690E+06  1.756397E+04 -1.239802E+04
        35  27 -6.729276E+06 -1.014848E+06  4.575576E+04 -2.695548E+06  9.019012E+03 -3.135505E+02
        36   1 -6.685195E+06 -9.981803E+05  5.774953E+04 -2.683457E+06  8.078730E+03 -2.372669E+03
        36   2 -6.469737E+06 -8.046393E+05  1.345920E+05 -2.508086E+06  1.578323E+04 -1.474804E+04
        36   3 -6.090966E+06 -7.761568E+05  2.090867E+05 -2.521945E+06  2.336307E+04 -2.673234E+04
        36   4 -6.918030E+06 -1.085471E+06 -5.065919E+03 -2.745858E+06  1.425293E+03 -4.842752E+03
        36   5 -6.999747E+06 -1.003518E+06 -5.817739E+03 -2.651010E+06  9.315965E+03 -1.715365E+04
        36   6 -6.918264E+06 -1.086678E+06 -9.059904E+03 -2.745438E+06  1.708037E+04 -2.907352E+04
        36   7 -7.150813E+06 -1.172759E+06 -6.788626E+04 -2.808238E+06 -5.225400E+03 -7.311820E+03
        36   8 -7.529486E+06 -1.202382E+06 -1.462527E+05 -2.793823E+06  2.854776E+03 -1.955701E+04
        36   9 -7.744900E+06 -1.397161E+06 -2.272675E+05 -2.968660E+06  1.080688E+04 -3.141127E+04
        36  10 -6.685195E+06 -9.981803E+05  5.774940E+04 -2.683457E+06 -9.111001E-10  5.144695E-09
        36  11 -6.469737E+06 -8.046396E+05  1.345911E+05 -2.508086E+06  5.107205E-09  4.223953E-10
        36  12 -6.090966E+06 -7.761577E+05  2.090843E+05 -2.521944E+06 -5.123763E-09  2.145041E-09
        36  13 -6.918030E+06 -1.085471E+06 -5.065966E+03 -2.745858E+06 -4.596668E-09  3.244550E-09
        36  14 -6.999747E+06 -1.003519E+06 -5.818452E+03 -2.651009E+06  2.244558E-09 -2.401974E-10
        36  15 -6.918265E+06 -1.086679E+06 -9.062033E+03 -2.745437E+06  8.056069E-09  2.334902E-09
        36  16 -7.150813E+06 -1.172759E+06 -6.788641E+04 -2.808238E+06 -3.276547E-09 -1.822877E-09
        36  17 -7.529486E+06 -1.202383E+06 -1.462534E+05 -2.793822E+06 -9.924457E-10 -9.843431E-10
        36  18 -7.744900E+06 -1.397162E+06 -2.272695E+05 -2.968660E+06  1.191062E-08  3.076652E-09
        36  19 -6.685195E+06 -9.981803E+05  5.774953E+04 -2.683457E+06 -8.078730E+03  2.372669E+03
        36  20 -6.469737E+06 -8.046393E+05  1.345920E+05 -2.508086E+06 -1.578323E+04  1.474804E+04
        36  21 -6.090966E+06 -7.761568E+05  2.090867E+05 -2.521945E+06 -2.336307E+04  2.673234E+04
        36  22 -6.918030E+06 -1.085471E+06 -5.065919E+03 -2.745858E+06 -1.425293E+03  4.842752E+03
        36  23 -6.999747E+06 -1.003518E+06 -5.817739E+03 -2.651010E+06 -9.315965E+03  1.715365E+04
        36  24 -6.918264E+06 -1.086678E+06 -9.059904E+03 -2.745438E+06 -1.708037E+04  2.907352E+04
        36  25 -7.150813E+06 -1.172759E+06 -6.788626E+04 -2.808238E+06  5.225400E+03  7.311820E+03
        36  26 -7.529486E+06 -1.202382E+06 -1.462527E+05 -2.793823E+06 -2.854776E+03  1.955701E+04
        36  27 -7.744900E+06 -1.397161E+06 -2.272675E+05 -2.968660E+06 -1.080688E+04  3.141127E+04
        37   1 -5.699757E+06 -6.227056E+05  3.136254E+05 -2.411700E+06  2.776729E+04 -3.361013E+04
        37   2 -5.512362E+06 -4.505821E+05  3.730021E+05 -2.255591E+06  4.163712E+04 -4.217503E+04
        37   3 -5.182307E+06 -4.312712E+05  4.236255E+05 -2.262579E+06  5.503272E+04 -4.933625E+04
        37   4 -6.922698E+06 -1.081055E+06 -1.124031E+04 -2.740829E+06  2.150114E+04 -3.595103E+04
        37   5 -6.994634E+06 -1.008802E+06 -1.986398E+04 -2.657713E+06  3.603065E+04 -4.428113E+04
        37   6 -6.924101E+06 -1.089539E+06 -3.777998E+04 -2.737747E+06  5.008098E+04 -5.120736E+04
        37   7 -8.144169E+06 -1.539315E+06 -3.362335E+05 -3.069364E+06  1.524870E+04 -3.828686E+04
        37   8 -8.474751E+06 -1.566888E+06 -4.129191E+05 -3.058955E+06  3.043900E+04 -4.638170E+04
        37   9 -8.662927E+06 -1.747618E+06 -4.994487E+05 -3.211693E+06  4.514454E+04 -5.307272E+04
        37  10 -5.699758E+06 -6.227070E+05  3.136218E+05 -2.411700E+06  2.835450E-09  4.831332E-09
        37  11 -5.512365E+06 -4.505845E+05  3.729955E+05 -2.255589E+06 -1.359047E-09 -3.010150E-09
        37  12 -5.182311E+06 -4.312746E+05  4.236153E+05 -2.262577E+06  1.715927E-09 -3.754807E-11
        37  13 -6.922699E+06 -1.081057E+06 -1.124360E+04 -2.740829E+06 -1.114783E-09  8.915162E-10
        37  14 -6.994636E+06 -1.008805E+06 -1.987009E+04 -2.657711E+06  1.414254E-08 -4.304207E-09
        37  15 -6.924104E+06 -1.089543E+06 -3.778961E+04 -2.737745E+06 -6.904633E-09  7.977754E-10
        37  16 -8.144170E+06 -1.539317E+06 -3.362367E+05 -3.069364E+06  8.564861E-10  1.356534E-09
        37  17 -8.474753E+06 -1.566891E+06 -4.129249E+05 -3.058954E+06  5.173982E-09 -2.203640E-09
        37  18 -8.662930E+06 -1.747622E+06 -4.994578E+05 -3.211691E+06  3.065175E-09  1.690309E-09
        37  19 -5.699757E+06 -6.227056E+05  3.136254E+05 -2.411700E+06 -2.776729E+04  3.361013E+04
        37  20 -5.512362E+06 -4.505821E+05  3.730021E+05 -2.255591E+06 -4.163712E+04  4.217503E+04
        37  21 -5.182307E+06 -4.312712E+05  4.236255E+05 -2.262579E+06 -5.503272E+04  4.933625E+04
        37  22 -6.922698E+06 -1.081055E+06 -1.124031E+04 -2.740829E+06 -2.150114E+04  3.595103E+04
        37  23 -6.994634E+06 -1.008802E+06 -1.986398E+04 -2.657713E+06 -3.603065E+04  4.428113E+04
        37  24 -6.924101E+06 -1.089539E+06 -3.777998E+04 -2.737747E+06 -5.008098E+04  5.120736E+04
        37  25 -8.144169E+06 -1.539315E+06 -3.362335E+05 -3.069364E+06 -1.524870E+04  3.828686E+04
        37  26 -8.474751E+06 -1.566888E+06 -4.129191E+05 -3.058955E+06 -3.043900E+04  4.638170E+04
        37  27 -8.662927E+06 -1.747618E+06 -4.994487E+05 -3.211693E+06 -4.514454E+04  5.307272E+04
        38   1 -4.864292E+06 -2.987915E+05  5.000605E+05 -2.179100E+06  6.566796E+04 -5.305352E+04
        38   2 -4.726661E+06 -1.530716E+05  5.136708E+05 -2.049568E+06  1.098325E+05 -4.682894E+04
        38   3 -4.510991E+06 -1.962982E+05  4.759477E+05 -2.019737E+06  1.514995E+05 -3.383803E+04
        38   4 -6.935169E+06 -1.071570E+06 -4.813341E+04 -2.733659E+06  5.946054E+04 -5.540463E+04
        38   5 -6.978980E+06 -1.010966E+06 -8.485153E+04 -2.670922E+06  1.067863E+05 -4.800411E+04
        38   6 -6.945547E+06 -1.140187E+06 -1.755858E+05 -2.707917E+06  1.515967E+05 -3.383275E+04
        38   7 -9.001865E+06 -1.844115E+06 -5.967008E+05 -3.286540E+06  5.327589E+04 -5.774747E+04
        38   8 -9.226342E+06 -1.868528E+06 -6.838185E+05 -3.290210E+06  1.037518E+05 -4.917484E+04
        38   9 -9.374307E+06 -2.083633E+06 -8.276446E+05 -3.393603E+06  1.516926E+05 -3.382807E+04
        38  10 -4.864298E+06 -2.987957E+05  5.000471E+05 -2.179098E+06  2.811408E-09  3.195015E-09
        38  11 -4.726675E+06 -1.530772E+05  5.136439E+05 -2.049564E+06 -2.172048E-09 -9.226627E-10
        38  12 -4.511016E+06 -1.963056E+05  4.759022E+05 -2.019732E+06 -6.018636E-09 -6.169088E-09
        38  13 -6.935173E+06 -1.071574E+06 -4.814581E+04 -2.733656E+06 -8.341314E-09  2.542273E-09
        38  14 -6.978993E+06 -1.010971E+06 -8.487741E+04 -2.670918E+06 -4.727534E-09 -1.297638E-10
        38  15 -6.945572E+06 -1.140195E+06 -1.756315E+05 -2.707913E+06  4.287225E-09 -3.007198E-09
        38  16 -9.001869E+06 -1.844119E+06 -5.967124E+05 -3.286537E+06  3.161692E-12 -9.472772E-10
        38  17 -9.226355E+06 -1.868534E+06 -6.838434E+05 -3.290206E+06  8.044616E-09 -4.124496E-10
        38  18 -9.374333E+06 -2.083640E+06 -8.276905E+05 -3.393598E+06  6.207220E-09  1.275185E-09
        38  19 -4.864292E+06 -2.987915E+05  5.000605E+05 -2.179100E+06 -6.566796E+04  5.305352E+04
        38  20 -4.726661E+06 -1.530716E+05  5.136708E+05 -2.049568E+06 -1.098325E+05  4.682894E+04
        38  21 -4.510991E+06 -1.962982E+05  4.759477E+05 -2.019737E+06 -1.514995E+05  3.383803E+04
        38  22 -6.935169E+06 -1.071570E+06 -4.813341E+04 -2.733659E+06 -5.946054E+04  5.540463E+04
        38  23 -6.978980E+06 -1.010966E+06 -8.485153E+04 -2.670922E+06 -1.067863E+05  4.800411E+04
        38  24 -6.945547E+06 -1.140187E+06 -1.755858E+05 -2.707917E+06 -1.515967E+05  3.383275E+04
        38  25 -9.001865E+06 -1.844115E+06 -5.967008E+05 -3.286540E+06 -5.327589E+04  5.774747E+04
        38  26 -9.226342E+06 -1.868528E+06 -6.838185E+05 -3.290210E+06 -1.037518E+05  4.917484E+04
        38  27 -9.374307E+06 -2.083633E+06 -8.276446E+05 -3.393603E+06 -1.516926E+05  3.382807E+04
        39   1 -4.266258E+06 -8.789880E+04  4.894603E+05 -2.079964E+06  2.058826E+05 -2.847540E+04
        39   2 -4.188930E+06  1.519024E+05  3.725967E+05 -1.889308E+06  3.693080E+05  3.034132E+04
        39   3 -4.357744E+06 -4.249572E+05 -7.300362E+04 -1.555413E+06  5.061260E+05  1.585128E+05
        39   4 -6.983631E+06 -1.040138E+06 -2.158650E+05 -2.746057E+06  1.868529E+05 -3.572308E+04
        39   5 -6.904052E+06 -9.409164E+05 -3.591821E+05 -2.697991E+06  3.835492E+05  3.571788E+04
        39   6 -7.078640E+06 -1.667227E+06 -8.590216E+05 -2.506345E+06  5.535647E+05  1.765665E+05
        39   7 -9.693788E+06 -1.992173E+06 -9.218008E+05 -3.409600E+06  1.679141E+05 -4.294243E+04
        39   8 -9.611928E+06 -2.033012E+06 -1.091619E+06 -3.503345E+06  3.977181E+05  4.106329E+04
        39   9 -9.792194E+06 -2.908076E+06 -1.645754E+06 -3.453143E+06  6.007669E+05  1.944911E+05
        39  10 -4.266304E+06 -8.791110E+04  4.893787E+05 -2.079959E+06  2.498540E-09 -1.964589E-09
        39  11 -4.189078E+06  1.518644E+05  3.723368E+05 -1.889317E+06  1.266235E-08  3.830501E-09
        39  12 -4.358028E+06 -4.250538E+05 -7.353643E+04 -1.555478E+06  3.751536E-09  1.652804E-09
        39  13 -6.983669E+06 -1.040148E+06 -2.159336E+05 -2.746051E+06 -2.857750E-09 -1.612033E-09
        39  14 -6.904212E+06 -9.409579E+05 -3.594642E+05 -2.698002E+06  9.056713E-09 -7.809384E-10
        39  15 -7.078981E+06 -1.667345E+06 -8.596643E+05 -2.506424E+06  5.968588E-09  1.238403E-09
        39  16 -9.693819E+06 -1.992182E+06 -9.218579E+05 -3.409595E+06 -6.292272E-09 -2.138762E-09
        39  17 -9.612100E+06 -2.033057E+06 -1.091924E+06 -3.503358E+06 -3.980612E-09 -1.816809E-09
        39  18 -9.792597E+06 -2.908216E+06 -1.646517E+06 -3.453238E+06 -2.346230E-10 -1.345100E-09
        39  19 -4.266258E+06 -8.789880E+04  4.894603E+05 -2.079964E+06 -2.058826E+05  2.847540E+04
        39  20 -4.188930E+06  1.519024E+05  3.725967E+05 -1.889308E+06 -3.693080E+05 -3.034132E+04
        39  21 -4.357744E+06 -4.249572E+05 -7.300362E+04 -1.555413E+06 -5.061260E+05 -1.585128E+05
        39  22 -6.983631E+06 -1.040138E+06 -2.158650E+05 -2.746057E+06 -1.868529E+05  3.572308E+04
        39  23 -6.904052E+06 -9.409164E+05 -3.591821E+05 -2.697991E+06 -3.835492E+05 -3.571788E+04
        39  24 -7.078640E+06 -1.667227E+06 -8.590216E+05 -2.506345E+06 -5.535647E+05 -1.765665E+05
        39  25 -9.693788E+06 -1.992173E+06 -9.218008E+05 -3.409600E+06 -1.679141E+05  4.294243E+04
        39  26 -9.611928E+06 -2.033012E+06 -1.091619E+06 -3.503345E+06 -3.977181E+05 -4.106329E+04
        39  27 -9.792194E+06 -2.908076E+06 -1.645754E+06 -3.453143E+06 -6.007669E+05 -1.944911E+05
        40   1  3.647555E+05  1.061383E+05  4.247295E+05 -1.579847E+05 -2.206769E+03  2.786961E+05
        40   2  4.073673E+04  1.203327E+05  2.236206E+05 -4.682187E+04  8.453286E+02  1.663246E+05
        40   3  9.332462E+03  2.227764E+05  1.689659E+05  8.388416E+04  5.037970E+03  5.394962E+04
        40   4  3.680795E+05  1.375659E+05  4.319517E+05  4.540574E+04 -2.100563E+03  2.770265E+05
        40   5  3.254893E+04  9.333125E+04  2.183414E+05  3.394645E+04  8.944466E+02  1.632267E+05
        40   6 -1.017456E+04  1.375472E+05  1.521600E+05  4.203255E+04  5.074473E+03  4.943349E+04
        40   7  3.715592E+05  1.690834E+05  4.391962E+05  2.488059E+05 -1.995456E+03  2.753568E+05
        40   8  2.438556E+04  6.634448E+04  2.130656E+05  1.147111E+05  9.427599E+02  1.601290E+05
        40   9 -2.967536E+04  5.232876E+04  1.353549E+05  1.867954E+02  5.111587E+03  4.491797E+04
        40  10  3.647346E+05  1.060549E+05  4.245835E+05 -1.579842E+05  3.991726E-09  2.568358E-09
        40  11  4.072931E+04  1.203030E+05  2.235686E+05 -4.682199E+04 -6.497133E-10  1.635306E-08
        40  12  9.331654E+03  2.227733E+05  1.689603E+05  8.388394E+04 -5.886746E-09  1.465450E-08
        40  13  3.680589E+05  1.374835E+05  4.318075E+05  4.540621E+04 -9.537741E-10 -4.718141E-09
        40  14  3.254178E+04  9.330265E+04  2.182913E+05  3.394633E+04  1.333827E-09  1.105100E-10
        40  15 -1.017525E+04  1.375445E+05  1.521554E+05  4.203235E+04 -1.202486E-08 -1.603281E-09
        40  16  3.715388E+05  1.690020E+05  4.390537E+05  2.488063E+05 -2.351651E-09 -3.678672E-09
        40  17  2.437868E+04  6.631695E+04  2.130175E+05  1.147110E+05  2.226549E-09 -1.240385E-08
        40  18 -2.967593E+04  5.232658E+04  1.353510E+05  1.866105E+02  3.146508E-10 -1.589690E-08
        40  19  3.647555E+05  1.061383E+05  4.247295E+05 -1.579847E+05  2.206769E+03 -2.786961E+05
        40  20  4.073673E+04  1.203327E+05  2.236206E+05 -4.682187E+04 -8.453286E+02 -1.663246E+05
        40  21  9.332462E+03  2.227764E+05  1.689659E+05  8.388416E+04 -5.037970E+03 -5.394962E+04
        40  22  3.680795E+05  1.375659E+05  4.319517E+05  4.540574E+04  2.100563E+03 -2.770265E+05
        40  23  3.254893E+04  9.333125E+04  2.183414E+05  3.394645E+04 -8.944466E+02 -1.632267E+05
        40  24 -1.017456E+04  1.375472E+05  1.521600E+05  4.203255E+04 -5.074473E+03 -4.943349E+04
        40  25  3.715592E+05  1.690834E+05  4.391962E+05  2.488059E+05  1.995456E+03 -2.753568E+05
        40  26  2.438556E+04  6.634448E+04  2.130656E+05  1.147111E+05 -9.427599E+02 -1.601290E+05
        40  27 -2.967536E+04  5.232876E+04  1.353549E+05  1.867954E+02 -5.111587E+03 -4.491797E+04
        41   1  4.249767E+04  2.468153E+05  1.661510E+05  3.064816E+04  7.465500E+03  3.043636E+04
        41   2  4.425663E+04  2.935580E+05  1.793442E+05  3.296590E+04  1.148820E+04 -4.145340E+04
        41   3  8.395870E+04  3.595667E+05  2.489393E+05  5.320918E+04  1.500675E+04 -1.133557E+05
        41   4  1.229421E+04  1.221482E+05  1.409863E+05  4.237943E+04  7.505001E+03  2.607188E+04
        41   5  7.585222E+02  1.125664E+05  1.427964E+05  3.348274E+04  1.152204E+04 -4.519914E+04
        41   6  2.706543E+04  1.221467E+05  2.005894E+05  4.251108E+04  1.503748E+04 -1.164764E+05
        41   7 -1.790971E+04 -2.503750E+03  1.158210E+05  5.410833E+04  7.544342E+03  2.170826E+04
        41   8 -4.274161E+04 -6.839390E+04  1.062470E+05  3.399950E+04  1.155589E+04 -4.894380E+04
        41   9 -2.983086E+04 -1.152193E+05  1.522366E+05  3.181727E+04  1.506833E+04 -1.195959E+05
        41  10  4.249736E+04  2.468143E+05  1.661491E+05  3.064798E+04 -6.653406E-09 -1.380487E-08
        41  11  4.425603E+04  2.935561E+05  1.793407E+05  3.296628E+04  3.364923E-09 -1.369748E-08
        41  12  8.395501E+04  3.595528E+05  2.489147E+05  5.321055E+04 -1.296767E-10 -1.601017E-08
        41  13  1.229397E+04  1.221475E+05  1.409849E+05  4.237927E+04  2.444247E-11 -4.873871E-09
        41  14  7.578314E+02  1.125642E+05  1.427923E+05  3.348316E+04  3.434925E-09 -6.683782E-12
        41  15  2.706155E+04  1.221321E+05  2.005635E+05  4.251250E+04 -4.288828E-10 -1.262554E-09
        41  16 -1.790989E+04 -2.504272E+03  1.158200E+05  5.410820E+04 -7.386527E-09  1.221973E-08
        41  17 -4.274239E+04 -6.839651E+04  1.062422E+05  3.399996E+04  4.624917E-09  1.746621E-08
        41  18 -2.983495E+04 -1.152347E+05  1.522093E+05  3.181872E+04 -9.360782E-09  1.521010E-08
        41  19  4.249767E+04  2.468153E+05  1.661510E+05  3.064816E+04 -7.465500E+03 -3.043636E+04
        41  20  4.425663E+04  2.935580E+05  1.793442E+05  3.296590E+04 -1.148820E+04  4.145340E+04
        41  21  8.395870E+04  3.595667E+05  2.489393E+05  5.320918E+04 -1.500675E+04  1.133557E+05
        41  22  1.229421E+04  1.221482E+05  1.409863E+05  4.237943E+04 -7.505001E+03 -2.607188E+04
        41  23  7.585222E+02  1.125664E+05  1.427964E+05  3.348274E+04 -1.152204E+04  4.519914E+04
        41  24  2.706543E+04  1.221467E+05  2.005894E+05  4.251108E+04 -1.503748E+04  1.164764E+05
        41  25 -1.790971E+04 -2.503750E+03  1.158210E+05  5.410833E+04 -7.544342E+03 -2.170826E+04
        41  26 -4.274161E+04 -6.839390E+04  1.062470E+05  3.399950E+04 -1.155589E+04  4.894380E+04
        41  27 -2.983086E+04 -1.152193E+05  1.522366E+05  3.181727E+04 -1.506833E+04  1.195959E+05
        42   1  4.838273E+04  4.323192E+05  2.994439E+05 -4.623700E+04  1.784710E+04 -1.451966E+05
        42   2  1.429395E+05  4.062722E+05  4.738954E+05  1.882857E+05  1.925130E+04 -3.683927E+05
        42   3  8.138191E+05  5.538847E+05  9.379121E+05  4.438495E+05  1.017528E+04 -5.917030E+05
        42   4 -2.007359E+04  1.559922E+05  2.429050E+05  4.166574E+04  1.787750E+04 -1.507260E+05
        42   5  6.496116E+04  7.028196E+04  4.031267E+05  3.458046E+04  1.928119E+04 -3.614501E+05
        42   6  7.241087E+05  1.560420E+05  8.443191E+05  4.846514E+04  1.037588E+04 -5.722615E+05
        42   7 -8.850620E+04 -1.202461E+05  1.863661E+05  1.295287E+05  1.790633E+04 -1.562530E+05
        42   8 -1.293445E+04 -2.655499E+05  3.323649E+05 -1.190405E+05  1.930767E+04 -3.545111E+05
        42   9  6.349783E+05 -2.413155E+05  7.508018E+05 -3.466671E+05  1.055188E+04 -5.528324E+05
        42  10  4.837673E+04  4.322965E+05  2.994037E+05 -4.623491E+04  1.090339E-09  1.326348E-08
        42  11  1.429027E+05  4.061265E+05  4.736399E+05  1.882914E+05  1.663849E-08  5.176248E-09
        42  12  8.137251E+05  5.535092E+05  9.372545E+05  4.438544E+05  1.503597E-09 -1.310787E-08
        42  13 -2.008003E+04  1.559677E+05  2.428617E+05  4.166791E+04 -1.135945E-08 -5.206869E-09
        42  14  6.492570E+04  7.014164E+04  4.028806E+05  3.458608E+04  1.796674E-08  1.064104E-10
        42  15  7.240207E+05  1.556906E+05  8.437037E+05  4.846993E+04 -1.143420E-09 -1.253007E-09
        42  16 -8.851310E+04 -1.202724E+05  1.863196E+05  1.295309E+05  1.368393E-09 -1.457101E-08
        42  17 -1.296859E+04 -2.656849E+05  3.321280E+05 -1.190350E+05  6.677349E-09 -9.792961E-10
        42  18  6.348961E+05 -2.416437E+05  7.502271E+05 -3.466624E+05  5.676859E-09  1.231240E-08
        42  19  4.838273E+04  4.323192E+05  2.994439E+05 -4.623700E+04 -1.784710E+04  1.451966E+05
        42  20  1.429395E+05  4.062722E+05  4.738954E+05  1.882857E+05 -1.925130E+04  3.683927E+05
        42  21  8.138191E+05  5.538847E+05  9.379121E+05  4.438495E+05 -1.017528E+04  5.917030E+05
        42  22 -2.007359E+04  1.559922E+05  2.429050E+05  4.166574E+04 -1.787750E+04  1.507260E+05
        42  23  6.496116E+04  7.028196E+04  4.031267E+05  3.458046E+04 -1.928119E+04  3.614501E+05
        42  24  7.241087E+05  1.560420E+05  8.443191E+05  4.846514E+04 -1.037588E+04  5.722615E+05
        42  25 -8.850620E+04 -1.202461E+05  1.863661E+05  1.295287E+05 -1.790633E+04  1.562530E+05
        42  26 -1.293445E+04 -2.655499E+05  3.323649E+05 -1.190405E+05 -1.930767E+04  3.545111E+05
        42  27  6.349783E+05 -2.413155E+05  7.508018E+05 -3.466671E+05 -1.055188E+04  5.528324E+05
        43   1 -7.503235E+06 -1.729388E+06 -1.226558E+06 -2.449744E+06 -1.092163E+06 -4.352460E+05
        43   2 -7.279343E+06 -6.056885E+05 -3.077255E+05 -3.253460E+06 -6.981382E+05 -3.026226E+05
        43   3 -8.342798E+06 -6.341677E+05 -1.554264E+05 -2.948994E+06 -3.193530E+05 -1.319592E+05
        43   4 -9.522711E+06 -2.338177E+06 -1.755293E+06 -2.839566E+06 -1.096893E+06 -4.374628E+05
        43   5 -8.782528E+06 -1.145113E+06 -7.159262E+05 -3.630625E+06 -6.966014E+05 -3.020934E+05
        43   6 -9.333375E+06 -1.108264E+06 -4.501737E+05 -3.313061E+06 -3.112002E+05 -1.287034E+05
        43   7 -1.153818E+07 -2.947037E+06 -2.284346E+06 -3.228399E+06 -1.101599E+06 -4.396751E+05
        43   8 -1.028351E+07 -1.684469E+06 -1.124328E+06 -4.006984E+06 -6.950668E+05 -3.015649E+05
        43   9 -1.032297E+07 -1.582135E+06 -7.450216E+05 -3.676541E+06 -3.030616E+05 -1.254559E+05
        43  10 -7.504581E+06 -1.729919E+06 -1.229191E+06 -2.450130E+06  9.079175E-09 -6.671191E-10
        43  11 -7.279897E+06 -6.059210E+05 -3.088292E+05 -3.253631E+06  1.986298E-09  5.962269E-09
        43  12 -8.342913E+06 -6.342145E+05 -1.556542E+05 -2.949029E+06 -8.081039E-10  2.220210E-09
        43  13 -9.524073E+06 -2.338715E+06 -1.757958E+06 -2.839956E+06  1.761143E-08 -4.705662E-09
        43  14 -8.783081E+06 -1.145346E+06 -7.170280E+05 -3.630796E+06  1.257884E-08 -1.006650E-08
        43  15 -9.333485E+06 -1.108308E+06 -4.503905E+05 -3.313094E+06 -1.290379E-08  8.070686E-10
        43  16 -1.153956E+07 -2.947581E+06 -2.287044E+06 -3.228794E+06 -6.359069E-09 -1.207484E-09
        43  17 -1.028406E+07 -1.684701E+06 -1.125428E+06 -4.007155E+06 -1.391403E-08 -4.736914E-09
        43  18 -1.032308E+07 -1.582177E+06 -7.452277E+05 -3.676572E+06 -3.023022E-09 -1.902230E-09
        43  19 -7.503235E+06 -1.729388E+06 -1.226558E+06 -2.449744E+06  1.092163E+06  4.352460E+05
        43  20 -7.279343E+06 -6.056885E+05 -3.077255E+05 -3.253460E+06  6.981382E+05  3.026226E+05
        43  21 -8.342798E+06 -6.341677E+05 -1.554264E+05 -2.948994E+06  3.193530E+05  1.319592E+05
        43  22 -9.522711E+06 -2.338177E+06 -1.755293E+06 -2.839566E+06  1.096893E+06  4.374628E+05
        43  23 -8.782528E+06 -1.145113E+06 -7.159262E+05 -3.630625E+06  6.966014E+05  3.020934E+05
        43  24 -9.333375E+06 -1.108264E+06 -4.501737E+05 -3.313061E+06  3.112002E+05  1.287034E+05
        43  25 -1.153818E+07 -2.947037E+06 -2.284346E+06 -3.228399E+06  1.101599E+06  4.396751E+05
        43  26 -1.028351E+07 -1.684469E+06 -1.124328E+06 -4.006984E+06  6.950668E+05  3.015649E+05
        43  27 -1.032297E+07 -1.582135E+06 -7.450216E+05 -3.676541E+06  3.030616E+05  1.254559E+05
        44   1 -1.063495E+07 -1.873727E+06 -7.563760E+05 -3.610761E+06 -2.547035E+05 -8.577605E+04
        44   2 -1.071260E+07 -2.077342E+06 -6.648686E+05 -4.080817E+06 -1.711681E+05 -3.587976E+04
        44   3 -1.143718E+07 -1.978755E+06 -7.071349E+05 -3.862749E+06 -8.577794E+04  9.378873E+03
        44   4 -9.272215E+06 -1.314343E+06 -3.698138E+05 -3.201176E+06 -2.517592E+05 -8.463547E+04
        44   5 -8.934837E+06 -1.380286E+06 -1.686327E+05 -3.578120E+06 -1.689685E+05 -3.503320E+04
        44   6 -9.244033E+06 -1.143524E+06 -1.003983E+05 -3.267206E+06 -8.425875E+04  9.955639E+03
        44   7 -7.907664E+06 -7.547765E+05  1.656784E+04 -2.790738E+06 -2.488069E+05 -8.349145E+04
        44   8 -7.153987E+06 -6.830025E+05  3.273039E+05 -3.074085E+06 -1.667611E+05 -3.418355E+04
        44   9 -7.046189E+06 -3.080220E+05  5.058903E+05 -2.669737E+06 -8.273309E+04  1.053484E+04
        44  10 -1.063502E+07 -1.873753E+06 -7.565143E+05 -3.610779E+06  2.813414E-09  7.384662E-09
        44  11 -1.071263E+07 -2.077352E+06 -6.649272E+05 -4.080822E+06 -2.026987E-09 -6.479885E-10
        44  12 -1.143719E+07 -1.978757E+06 -7.071491E+05 -3.862748E+06 -9.125032E-09  3.573799E-09
        44  13 -9.272286E+06 -1.314368E+06 -3.699486E+05 -3.201193E+06  6.852980E-09 -4.401782E-09
        44  14 -8.934869E+06 -1.380295E+06 -1.686896E+05 -3.578124E+06 -4.901119E-09  4.806924E-09
        44  15 -9.244041E+06 -1.143526E+06 -1.004120E+05 -3.267206E+06 -7.198515E-09 -1.392757E-09
        44  16 -7.907733E+06 -7.548010E+05  1.643654E+04 -2.790755E+06 -5.963917E-11  3.006754E-09
        44  17 -7.154017E+06 -6.830114E+05  3.272487E+05 -3.074090E+06 -2.755657E-09 -2.845170E-09
        44  18 -7.046197E+06 -3.080239E+05  5.058771E+05 -2.669737E+06 -3.055192E-09 -4.734487E-09
        44  19 -1.063495E+07 -1.873727E+06 -7.563760E+05 -3.610761E+06  2.547035E+05  8.577605E+04
        44  20 -1.071260E+07 -2.077342E+06 -6.648686E+05 -4.080817E+06  1.711681E+05  3.587976E+04
        44  21 -1.143718E+07 -1.978755E+06 -7.071349E+05 -3.862749E+06  8.577794E+04 -9.378873E+03
        44  22 -9.272215E+06 -1.314343E+06 -3.698138E+05 -3.201176E+06  2.517592E+05  8.463547E+04
        44  23 -8.934837E+06 -1.380286E+06 -1.686327E+05 -3.578120E+06  1.689685E+05  3.503320E+04
        44  24 -9.244033E+06 -1.143524E+06 -1.003983E+05 -3.267206E+06  8.425875E+04 -9.955639E+03
        44  25 -7.907664E+06 -7.547765E+05  1.656784E+04 -2.790738E+06  2.488069E+05  8.349145E+04
        44  26 -7.153987E+06 -6.830025E+05  3.273039E+05 -3.074085E+06  1.667611E+05  3.418355E+04
        44  27 -7.046189E+06 -3.080220E+05  5.058903E+05 -2.669737E+06  8.273309E+04 -1.053484E+04
        45   1 -1.262724E+07 -2.630340E+06 -1.054129E+06 -4.337671E+06 -7.715182E+04  2.208452E+04
        45   2 -1.269708E+07 -2.650707E+06 -1.037928E+06 -4.398123E+06 -5.597083E+04  4.122949E+04
        45   3 -1.275004E+07 -2.615011E+06 -1.024578E+06 -4.340628E+06 -2.867304E+04  4.412607E+04
        45   4 -9.110195E+06 -1.272720E+06 -7.471859E+04 -3.366041E+06 -7.386492E+04  2.331822E+04
        45   5 -9.117245E+06 -1.289144E+06 -4.631869E+04 -3.429497E+06 -5.578240E+04  4.127421E+04
        45   6 -9.106311E+06 -1.248490E+06 -1.813546E+04 -3.375023E+06 -3.159749E+04  4.302670E+04
        45   7 -5.581072E+06  8.568242E+04  9.035249E+05 -2.389323E+06 -7.055620E+04  2.456042E+04
        45   8 -5.524909E+06  7.314722E+04  9.440953E+05 -2.455729E+06 -5.559223E+04  4.131971E+04
        45   9 -5.449647E+06  1.187000E+05  9.870771E+05 -2.404222E+06 -3.454099E+04  4.192047E+04
        45  10 -1.262724E+07 -2.630342E+06 -1.054141E+06 -4.337670E+06 -5.455243E-10  1.254672E-09
        45  11 -1.269708E+07 -2.650710E+06 -1.037938E+06 -4.398121E+06 -7.176471E-10  2.326371E-09
        45  12 -1.275005E+07 -2.615013E+06 -1.024583E+06 -4.340627E+06 -6.563961E-09 -5.078995E-09
        45  13 -9.110201E+06 -1.272722E+06 -7.472997E+04 -3.366040E+06 -1.354871E-09 -1.175080E-09
        45  14 -9.117249E+06 -1.289147E+06 -4.632775E+04 -3.429495E+06  2.938817E-09  3.622581E-09
        45  15 -9.106313E+06 -1.248493E+06 -1.814080E+04 -3.375022E+06 -9.753923E-10 -1.050677E-09
        45  16 -5.581078E+06  8.568043E+04  9.035143E+05 -2.389321E+06  4.807232E-09 -1.860601E-09
        45  17 -5.524913E+06  7.314457E+04  9.440863E+05 -2.455727E+06 -3.826878E-09  5.254677E-09
        45  18 -5.449649E+06  1.186978E+05  9.870716E+05 -2.404221E+06  7.021629E-10  4.085709E-09
        45  19 -1.262724E+07 -2.630340E+06 -1.054129E+06 -4.337671E+06  7.715182E+04 -2.208452E+04
        45  20 -1.269708E+07 -2.650707E+06 -1.037928E+06 -4.398123E+06  5.597083E+04 -4.122949E+04
        45  21 -1.275004E+07 -2.615011E+06 -1.024578E+06 -4.340628E+06  2.867304E+04 -4.412607E+04
        45  22 -9.110195E+06 -1.272720E+06 -7.471859E+04 -3.366041E+06  7.386492E+04 -2.331822E+04
        45  23 -9.117245E+06 -1.289144E+06 -4.631869E+04 -3.429497E+06  5.578240E+04 -4.127421E+04
        45  24 -9.106311E+06 -1.248490E+06 -1.813546E+04 -3.375023E+06  3.159749E+04 -4.302670E+04
        45  25 -5.581072E+06  8.568242E+04  9.035249E+05 -2.389323E+06  7.055620E+04 -2.456042E+04
        45  26 -5.524909E+06  7.314722E+04  9.440953E+05 -2.455729E+06  5.559223E+04 -4.131971E+04
        45  27 -5.449647E+06  1.187000E+05  9.870771E+05 -2.404222E+06  3.454099E+04 -4.192047E+04
        46   1 -1.177088E+07 -2.409201E+06 -7.802643E+05 -4.243260E+06 -2.766569E+04  3.918001E+04
        46   2 -1.167746E+07 -2.043474E+06 -6.818315E+05 -3.884431E+06 -1.680625E+04  3.571417E+04
        46   3 -1.109223E+07 -2.129585E+06 -5.813155E+05 -4.053742E+06 -2.044453E+03  2.099597E+04
        46   4 -9.001041E+06 -1.374681E+06 -1.740233E+04 -3.512928E+06 -2.788991E+04  3.908257E+04
        46   5 -9.246826E+06 -1.143059E+06 -1.382546E+04 -3.251298E+06 -1.923431E+04  3.482877E+04
        46   6 -9.000457E+06 -1.362600E+06 -6.357674E+03 -3.517696E+06 -6.689325E+03  1.934235E+04
        46   7 -6.223741E+06 -3.397808E+05  7.447522E+05 -2.779612E+06 -2.811516E+04  3.898480E+04
        46   8 -6.810455E+06 -2.423776E+05  6.536365E+05 -2.615903E+06 -2.167294E+04  3.393961E+04
        46   9 -6.904451E+06 -5.954393E+05  5.681961E+05 -2.980009E+06 -1.135156E+04  1.768261E+04
        46  10 -1.177088E+07 -2.409203E+06 -7.802686E+05 -4.243259E+06 -2.552437E-10 -6.554306E-09
        46  11 -1.167746E+07 -2.043475E+06 -6.818345E+05 -3.884430E+06 -4.118809E-09 -7.228415E-09
        46  12 -1.109223E+07 -2.129586E+06 -5.813163E+05 -4.053742E+06  1.751626E-09 -1.888703E-08
        46  13 -9.001043E+06 -1.374683E+06 -1.740664E+04 -3.512927E+06 -5.253468E-09 -3.592384E-09
        46  14 -9.246826E+06 -1.143061E+06 -1.382842E+04 -3.251297E+06  3.523138E-09  1.132487E-08
        46  15 -9.000457E+06 -1.362600E+06 -6.358458E+03 -3.517696E+06  3.442181E-09  1.507603E-08
        46  16 -6.223742E+06 -3.397826E+05  7.447479E+05 -2.779611E+06  5.147948E-09  3.303340E-11
        46  17 -6.810456E+06 -2.423790E+05  6.536335E+05 -2.615902E+06 -3.065295E-09 -3.600828E-09
        46  18 -6.904451E+06 -5.954397E+05  5.681952E+05 -2.980009E+06 -5.872752E-10 -1.944614E-08
        46  19 -1.177088E+07 -2.409201E+06 -7.802643E+05 -4.243260E+06  2.766569E+04 -3.918001E+04
        46  20 -1.167746E+07 -2.043474E+06 -6.818315E+05 -3.884431E+06  1.680625E+04 -3.571417E+04
        46  21 -1.109223E+07 -2.129585E+06 -5.813155E+05 -4.053742E+06  2.044453E+03 -2.099597E+04
        46  22 -9.001041E+06 -1.374681E+06 -1.740233E+04 -3.512928E+06  2.788991E+04 -3.908257E+04
        46  23 -9.246826E+06 -1.143059E+06 -1.382546E+04 -3.251298E+06  1.923431E+04 -3.482877E+04
        46  24 -9.000457E+06 -1.362600E+06 -6.357674E+03 -3.517696E+06  6.689325E+03 -1.934235E+04
        46  25 -6.223741E+06 -3.397808E+05  7.447522E+05 -2.779612E+06  2.811516E+04 -3.898480E+04
        46  26 -6.810455E+06 -2.423776E+05  6.536365E+05 -2.615903E+06  2.167294E+04 -3.393961E+04
        46  27 -6.904451E+06 -5.954393E+05  5.681961E+05 -2.980009E+06  1.135156E+04 -1.768261E+04
        47   1 -8.676655E+06 -1.288781E+06  7.451732E+04 -3.482686E+06  2.692709E+03  7.958652E+03
        47   2 -8.514578E+06 -8.210948E+05  1.962608E+05 -3.003389E+06  1.408930E+04 -7.932799E+03
        47   3 -7.766104E+06 -9.584199E+05  3.104989E+05 -3.240992E+06  2.431080E+04 -2.033189E+04
        47   4 -8.978453E+06 -1.398312E+06 -9.391505E+03 -3.558623E+06 -1.194587E+03  6.583565E+03
        47   5 -9.271767E+06 -1.099309E+06 -1.101943E+04 -3.198730E+06  1.089108E+04 -9.071437E+03
        47   6 -8.978988E+06 -1.405535E+06 -2.069385E+04 -3.555882E+06  2.179654E+04 -2.123278E+04
        47   7 -9.280165E+06 -1.507841E+06 -9.330907E+04 -3.634528E+06 -5.079805E+03  5.209195E+03
        47   8 -1.002840E+07 -1.377500E+06 -2.183527E+05 -3.393856E+06  7.697153E+03 -1.020854E+04
        47   9 -1.019045E+07 -1.852585E+06 -3.520213E+05 -3.870213E+06  1.928768E+04 -2.213173E+04
        47  10 -8.676655E+06 -1.288781E+06  7.451719E+04 -3.482686E+06 -4.282999E-09 -2.860704E-09
        47  11 -8.514578E+06 -8.210949E+05  1.962604E+05 -3.003389E+06 -8.368190E-09  6.018832E-09
        47  12 -7.766105E+06 -9.584205E+05  3.104970E+05 -3.240992E+06  6.698123E-09  1.379246E-08
        47  13 -8.978453E+06 -1.398312E+06 -9.391589E+03 -3.558623E+06 -4.517792E-09 -1.388425E-08
        47  14 -9.271767E+06 -1.099309E+06 -1.101981E+04 -3.198730E+06  1.401746E-08  2.264160E-08
        47  15 -8.978989E+06 -1.405536E+06 -2.069559E+04 -3.555881E+06 -4.793449E-09 -6.292182E-09
        47  16 -9.280165E+06 -1.507841E+06 -9.330917E+04 -3.634528E+06  6.833846E-09 -6.054151E-09
        47  17 -1.002840E+07 -1.377500E+06 -2.183530E+05 -3.393856E+06 -1.098496E-08 -2.763055E-08
        47  18 -1.019045E+07 -1.852586E+06 -3.520229E+05 -3.870212E+06 -6.040456E-09 -5.513253E-09
        47  19 -8.676655E+06 -1.288781E+06  7.451732E+04 -3.482686E+06 -2.692709E+03 -7.958652E+03
        47  20 -8.514578E+06 -8.210948E+05  1.962608E+05 -3.003389E+06 -1.408930E+04  7.932799E+03
        47  21 -7.766104E+06 -9.584199E+05  3.104989E+05 -3.240992E+06 -2.431080E+04  2.033189E+04
        47  22 -8.978453E+06 -1.398312E+06 -9.391505E+03 -3.558623E+06  1.194587E+03 -6.583565E+03
        47  23 -9.271767E+06 -1.099309E+06 -1.101943E+04 -3.198730E+06 -1.089108E+04  9.071437E+03
        47  24 -8.978988E+06 -1.405535E+06 -2.069385E+04 -3.555882E+06 -2.179654E+04  2.123278E+04
        47  25 -9.280165E+06 -1.507841E+06 -9.330907E+04 -3.634528E+06  5.079805E+03 -5.209195E+03
        47  26 -1.002840E+07 -1.377500E+06 -2.183527E+05 -3.393856E+06 -7.697153E+03  1.020854E+04
        47  27 -1.019045E+07 -1.852585E+06 -3.520213E+05 -3.870213E+06 -1.928768E+04  2.213173E+04
        48   1 -5.900900E+06 -1.597683E+05  8.401973E+05 -2.646781E+06  3.264802E+04 -2.908859E+04
        48   2 -5.885018E+06  3.945881E+04  8.622819E+05 -2.446224E+06  5.790093E+04 -3.582572E+04
        48   3 -5.551459E+06 -2.913831E+04  8.801998E+05 -2.504170E+06  7.771032E+04 -2.734214E+04
        48   4 -9.039370E+06 -1.315554E+06 -2.000940E+04 -3.460620E+06  2.825633E+04 -3.068112E+04
        48   5 -9.199852E+06 -1.198561E+06 -4.795204E+04 -3.324761E+06  5.644877E+04 -3.637871E+04
        48   6 -9.043572E+06 -1.350429E+06 -8.252549E+04 -3.447535E+06  7.917692E+04 -2.681978E+04
        48   7 -1.216832E+07 -2.470905E+06 -8.811130E+05 -4.270732E+06  2.388905E+04 -3.226499E+04
        48   8 -1.250406E+07 -2.436031E+06 -9.591946E+05 -4.199032E+06  5.500473E+04 -3.692881E+04
        48   9 -1.252389E+07 -2.671043E+06 -1.046382E+06 -4.386058E+06  8.063348E+04 -2.630129E+04
        48  10 -5.900901E+06 -1.597695E+05  8.401937E+05 -2.646780E+06  2.366969E-09  6.288014E-10
        48  11 -5.885021E+06  3.945654E+04  8.622732E+05 -2.446222E+06 -1.210368E-09  3.512835E-10
        48  12 -5.551466E+06 -2.914074E+04  8.801870E+05 -2.504168E+06 -6.065169E-09 -5.842962E-09
        48  13 -9.039371E+06 -1.315555E+06 -2.001266E+04 -3.460620E+06  2.649597E-09 -5.955750E-09
        48  14 -9.199856E+06 -1.198563E+06 -4.796054E+04 -3.324759E+06 -2.592705E-09 -5.383313E-09
        48  15 -9.043579E+06 -1.350432E+06 -8.253872E+04 -3.447533E+06 -4.674051E-09 -4.859163E-09
        48  16 -1.216832E+07 -2.470907E+06 -8.811161E+05 -4.270731E+06 -1.464024E-10 -3.712359E-09
        48  17 -1.250406E+07 -2.436033E+06 -9.592029E+05 -4.199030E+06 -1.494736E-09  1.392101E-08
        48  18 -1.252389E+07 -2.671046E+06 -1.046396E+06 -4.386056E+06 -1.684494E-09 -1.384321E-09
        48  19 -5.900900E+06 -1.597683E+05  8.401973E+05 -2.646781E+06 -3.264802E+04  2.908859E+04
        48  20 -5.885018E+06  3.945881E+04  8.622819E+05 -2.446224E+06 -5.790093E+04  3.582572E+04
        48  21 -5.551459E+06 -2.913831E+04  8.801998E+05 -2.504170E+06 -7.771032E+04  2.734214E+04
        48  22 -9.039370E+06 -1.315554E+06 -2.000940E+04 -3.460620E+06 -2.825633E+04  3.068112E+04
        48  23 -9.199852E+06 -1.198561E+06 -4.795204E+04 -3.324761E+06 -5.644877E+04  3.637871E+04
        48  24 -9.043572E+06 -1.350429E+06 -8.252549E+04 -3.447535E+06 -7.917692E+04  2.681978E+04
        48  25 -1.216832E+07 -2.470905E+06 -8.811130E+05 -4.270732E+06 -2.388905E+04  3.226499E+04
        48  26 -1.250406E+07 -2.436031E+06 -9.591946E+05 -4.199032E+06 -5.500473E+04  3.692881E+04
        48  27 -1.252389E+07 -2.671043E+06 -1.046382E+06 -4.386058E+06 -8.063348E+04  2.630129E+04
        49   1 -5.814356E+06  7.226165E+04  8.215631E+05 -2.420175E+06  9.436544E+04 -1.967528E+04
        49   2 -5.905114E+06 -1.175962E+05  6.763583E+05 -2.649084E+06  1.881757E+05  1.787862E+04
        49   3 -6.356708E+06 -2.428405E+05  4.042938E+05 -2.424411E+06  2.766910E+05  6.885911E+04
        49   4 -9.181776E+06 -1.193118E+06 -1.050138E+05 -3.320845E+06  9.312261E+04 -2.016198E+04
        49   5 -9.015586E+06 -1.317301E+06 -1.855049E+05 -3.512380E+06  1.891671E+05  1.823583E+04
        49   6 -9.211590E+06 -1.378233E+06 -3.951927E+05 -3.250088E+06  2.799473E+05  7.009635E+04
        49   7 -1.253821E+07 -2.457916E+06 -1.032637E+06 -4.217081E+06  9.188624E+04 -2.064641E+04
        49   8 -1.211666E+07 -2.516383E+06 -1.048273E+06 -4.371703E+06  1.901509E+05  1.859001E+04
        49   9 -1.205854E+07 -2.512974E+06 -1.195456E+06 -4.072233E+06  2.831839E+05  7.132551E+04
        49  10 -5.814366E+06  7.225883E+04  8.215455E+05 -2.420174E+06 -1.035573E-08  2.403495E-09
        49  11 -5.905153E+06 -1.176062E+05  6.762905E+05 -2.649087E+06  4.643452E-09  1.434458E-08
        49  12 -6.356792E+06 -2.428665E+05  4.041392E+05 -2.424426E+06  3.750563E-09  5.446319E-09
        49  13 -9.181786E+06 -1.193121E+06 -1.050310E+05 -3.320844E+06  1.650876E-09  1.495004E-09
        49  14 -9.015625E+06 -1.317312E+06 -1.855738E+05 -3.512383E+06 -1.234041E-09  3.887601E-09
        49  15 -9.211676E+06 -1.378260E+06 -3.953518E+05 -3.250104E+06 -5.738072E-09  3.204496E-09
        49  16 -1.253822E+07 -2.457918E+06 -1.032654E+06 -4.217080E+06  2.801045E-09 -2.355730E-09
        49  17 -1.211670E+07 -2.516394E+06 -1.048343E+06 -4.371706E+06 -4.678607E-09  4.716293E-09
        49  18 -1.205863E+07 -2.513001E+06 -1.195620E+06 -4.072250E+06 -4.886928E-09 -1.028226E-08
        49  19 -5.814356E+06  7.226165E+04  8.215631E+05 -2.420175E+06 -9.436544E+04  1.967528E+04
        49  20 -5.905114E+06 -1.175962E+05  6.763583E+05 -2.649084E+06 -1.881757E+05 -1.787862E+04
        49  21 -6.356708E+06 -2.428405E+05  4.042938E+05 -2.424411E+06 -2.766910E+05 -6.885911E+04
        49  22 -9.181776E+06 -1.193118E+06 -1.050138E+05 -3.320845E+06 -9.312261E+04  2.016198E+04
        49  23 -9.015586E+06 -1.317301E+06 -1.855049E+05 -3.512380E+06 -1.891671E+05 -1.823583E+04
        49  24 -9.211590E+06 -1.378233E+06 -3.951927E+05 -3.250088E+06 -2.799473E+05 -7.009635E+04
        49  25 -1.253821E+07 -2.457916E+06 -1.032637E+06 -4.217081E+06 -9.188624E+04  2.064641E+04
        49  26 -1.211666E+07 -2.516383E+06 -1.048273E+06 -4.371703E+06 -1.901509E+05 -1.859001E+04
        49  27 -1.205854E+07 -2.512974E+06 -1.195456E+06 -4.072233E+06 -2.831839E+05 -7.132551E+04
        50   1 -8.467842E+06 -8.440910E+05 -2.584514E+05 -3.143935E+06  3.416825E+05  1.101310E+05
        50   2 -8.417520E+06 -9.599963E+05 -6.672310E+05 -3.509579E+06  7.605096E+05  2.931859E+05
        50   3 -9.792759E+06 -2.309979E+06 -1.915525E+06 -2.671689E+06  1.183192E+06  4.653955E+05
        50   4 -9.357133E+06 -1.098483E+06 -4.863805E+05 -3.303424E+06  3.459252E+05  1.118476E+05
        50   5 -8.748249E+06 -1.137408E+06 -7.692796E+05 -3.650084E+06  7.623924E+05  2.938483E+05
        50   6 -9.564756E+06 -2.410325E+06 -1.889809E+06 -2.792875E+06  1.183148E+06  4.649299E+05
        50   7 -1.024564E+07 -1.352894E+06 -7.143683E+05 -3.462743E+06  3.501607E+05  1.135631E+05
        50   8 -9.078864E+06 -1.314777E+06 -8.713393E+05 -3.790509E+06  7.642740E+05  2.945098E+05
        50   9 -9.336626E+06 -2.510548E+06 -1.864071E+06 -2.914105E+06  1.183104E+06  4.644645E+05
        50  10 -8.467972E+06 -8.441362E+05 -2.586974E+05 -3.143966E+06 -4.704056E-09 -1.481663E-09
        50  11 -8.418172E+06 -9.602482E+05 -6.684999E+05 -3.509761E+06 -3.671781E-09  1.009862E-08
        50  12 -9.794343E+06 -2.310598E+06 -1.918616E+06 -2.672137E+06 -1.125333E-09  5.360392E-09
        50  13 -9.357267E+06 -1.098530E+06 -4.866332E+05 -3.303456E+06 -4.543616E-09 -1.016612E-08
        50  14 -8.748904E+06 -1.137661E+06 -7.705555E+05 -3.650266E+06  4.036355E-09 -8.978647E-09
        50  15 -9.566339E+06 -2.410943E+06 -1.892897E+06 -2.793323E+06 -1.770411E-10  1.023789E-08
        50  16 -1.024578E+07 -1.352941E+06 -7.146277E+05 -3.462776E+06  8.942765E-09 -2.467163E-09
        50  17 -9.079524E+06 -1.315032E+06 -8.726223E+05 -3.790693E+06 -4.858578E-09  6.545299E-09
        50  18 -9.338208E+06 -2.511166E+06 -1.867158E+06 -2.914552E+06 -4.870619E-09  3.326927E-09
        50  19 -8.467842E+06 -8.440910E+05 -2.584514E+05 -3.143935E+06 -3.416825E+05 -1.101310E+05
        50  20 -8.417520E+06 -9.599963E+05 -6.672310E+05 -3.509579E+06 -7.605096E+05 -2.931859E+05
        50  21 -9.792759E+06 -2.309979E+06 -1.915525E+06 -2.671689E+06 -1.183192E+06 -4.653955E+05
        50  22 -9.357133E+06 -1.098483E+06 -4.863805E+05 -3.303424E+06 -3.459252E+05 -1.118476E+05
        50  23 -8.748249E+06 -1.137408E+06 -7.692796E+05 -3.650084E+06 -7.623924E+05 -2.938483E+05
        50  24 -9.564756E+06 -2.410325E+06 -1.889809E+06 -2.792875E+06 -1.183148E+06 -4.649299E+05
        50  25 -1.024564E+07 -1.352894E+06 -7.143683E+05 -3.462743E+06 -3.501607E+05 -1.135631E+05
        50  26 -9.078864E+06 -1.314777E+06 -8.713393E+05 -3.790509E+06 -7.642740E+05 -2.945098E+05
        50  27 -9.336626E+06 -2.510548E+06 -1.864071E+06 -2.914105E+06 -1.183104E+06 -4.644645E+05
        51   1  5.210951E+05  3.831934E+05  5.093606E+05 -1.138406E+04  2.466133E+04  4.108756E+04
        51   2  5.193351E+05  3.460328E+05  4.843129E+05 -6.209808E+03  7.819645E+04  1.499303E+04
        51   3  5.103549E+05  3.133775E+05  4.753120E+05 -2.024190E+04  8.161965E+04 -1.144925E+04
        51   4 -1.160119E+04 -1.754192E+06 -1.521035E+04 -4.326248E+03  2.501343E+04 -7.840023E+03
        51   5  3.017423E+02 -1.753699E+06 -9.187636E+03  5.320559E+03  7.835739E+04 -2.643756E+03
        51   6 -4.719565E+02 -1.754150E+06 -8.863441E+03 -4.241068E+03  8.151341E+04  2.202896E+03
        51   7 -5.446358E+05 -3.887408E+06 -5.401084E+05  2.714550E+03  2.536504E+04 -5.659946E+04
        51   8 -5.190461E+05 -3.849366E+06 -5.029899E+05  1.681982E+04  7.851797E+04 -2.022124E+04
        51   9 -5.116026E+05 -3.817733E+06 -4.933302E+05  1.171506E+04  8.140770E+04  1.580986E+04
        51  10  5.210940E+05  3.831914E+05  5.093563E+05 -1.138488E+04 -1.912934E-08  9.424818E-09
        51  11  5.193285E+05  3.460310E+05  4.843010E+05 -6.210752E+03 -1.177138E-08 -9.426264E-09
        51  12  5.103477E+05  3.133756E+05  4.752993E+05 -2.024115E+04 -1.712901E-09 -1.526366E-08
        51  13 -1.160188E+04 -1.754192E+06 -1.521164E+04 -4.326090E+03 -1.837030E-08  7.480860E-09
        51  14  2.951526E+02 -1.753701E+06 -9.199177E+03  5.320726E+03  8.458715E-09  5.847586E-11
        51  15 -4.790870E+02 -1.754152E+06 -8.875926E+03 -4.241213E+03 -3.593979E-09  6.813311E-09
        51  16 -5.446374E+05 -3.887411E+06 -5.401156E+05  2.715708E+03 -6.926073E-09 -3.664403E-09
        51  17 -5.190529E+05 -3.849369E+06 -5.030022E+05  1.682110E+04  4.263283E-09  1.014365E-08
        51  18 -5.116097E+05 -3.817735E+06 -4.933431E+05  1.171402E+04 -2.684364E-09  1.163089E-08
        51  19  5.210951E+05  3.831934E+05  5.093606E+05 -1.138406E+04 -2.466133E+04 -4.108756E+04
        51  20  5.193351E+05  3.460328E+05  4.843129E+05 -6.209808E+03 -7.819645E+04 -1.499303E+04
        51  21  5.103549E+05  3.133775E+05  4.753120E+05 -2.024190E+04 -8.161965E+04  1.144925E+04
        51  22 -1.160119E+04 -1.754192E+06 -1.521035E+04 -4.326248E+03 -2.501343E+04  7.840023E+03
        51  23  3.017423E+02 -1.753699E+06 -9.187636E+03  5.320559E+03 -7.835739E+04  2.643756E+03
        51  24 -4.719565E+02 -1.754150E+06 -8.863441E+03 -4.241068E+03 -8.151341E+04 -2.202896E+03
        51  25 -5.446358E+05 -3.887408E+06 -5.401084E+05  2.714550E+03 -2.536504E+04  5.659946E+04
        51  26 -5.190461E+05 -3.849366E+06 -5.029899E+05  1.681982E+04 -7.851797E+04  2.022124E+04
        51  27 -5.116026E+05 -3.817733E+06 -4.933302E+05  1.171506E+04 -8.140770E+04 -1.580986E+04
        52   1  4.993991E+05  2.697097E+05  4.664400E+05 -1.931805E+04  7.425249E+04  5.990184E+03
        52   2  4.891395E+05  2.245544E+05  4.510115E+05 -8.771927E+03  7.517381E+04  9.446400E+03
        52   3  4.709759E+05  1.791351E+05  4.318396E+05 -2.559590E+04  7.072013E+04  1.283864E+04
        52   4 -1.024890E+03 -1.754087E+06 -9.722484E+03 -6.063139E+03  7.429109E+04  3.710499E+03
        52   5  1.068142E+02 -1.753640E+06 -1.338187E+04  7.589901E+03  7.517885E+04  1.050477E+04
        52   6 -7.264552E+03 -1.754054E+06 -2.311705E+04 -6.132849E+03  7.068394E+04  1.723520E+04
        52   7 -5.017414E+05 -3.774108E+06 -4.861669E+05  7.157400E+03  7.432968E+04  1.438190E+03
        52   8 -4.892046E+05 -3.728226E+06 -4.780436E+05  2.390877E+04  7.518398E+04  1.155974E+04
        52   9 -4.857716E+05 -3.683798E+06 -4.783310E+05  1.327917E+04  7.064798E+04  2.161808E+04
        52  10  4.993932E+05  2.697082E+05  4.664296E+05 -1.931841E+04 -4.953560E-09 -1.102524E-08
        52  11  4.891334E+05  2.245527E+05  4.510007E+05 -8.772498E+03 -1.177891E-08 -1.338249E-08
        52  12  4.709705E+05  1.791336E+05  4.318299E+05 -2.559663E+04 -9.443296E-09 -2.538566E-09
        52  13 -1.030816E+03 -1.754088E+06 -9.732873E+03 -6.063361E+03 -1.070265E-08  1.059077E-08
        52  14  1.007203E+02 -1.753642E+06 -1.339269E+04  7.589264E+03 -1.457443E-08  5.237439E-11
        52  15 -7.269993E+03 -1.754055E+06 -2.312699E+04 -6.133830E+03 -1.209909E-08  8.858596E-09
        52  16 -5.017473E+05 -3.774110E+06 -4.861772E+05  7.157314E+03 -1.232760E-08  1.886829E-08
        52  17 -4.892107E+05 -3.728228E+06 -4.780544E+05  2.390807E+04 -1.118569E-08  1.482935E-08
        52  18 -4.857771E+05 -3.683799E+06 -4.783413E+05  1.327793E+04 -3.314776E-09 -3.020263E-09
        52  19  4.993991E+05  2.697097E+05  4.664400E+05 -1.931805E+04 -7.425249E+04 -5.990184E+03
        52  20  4.891395E+05  2.245544E+05  4.510115E+05 -8.771927E+03 -7.517381E+04 -9.446400E+03
        52  21  4.709759E+05  1.791351E+05  4.318396E+05 -2.559590E+04 -7.072013E+04 -1.283864E+04
        52  22 -1.024890E+03 -1.754087E+06 -9.722484E+03 -6.063139E+03 -7.429109E+04 -3.710499E+03
        52  23  1.068142E+02 -1.753640E+06 -1.338187E+04  7.589901E+03 -7.517885E+04 -1.050477E+04
        52  24 -7.264552E+03 -1.754054E+06 -2.311705E+04 -6.132849E+03 -7.068394E+04 -1.723520E+04
        52  25 -5.017414E+05 -3.774108E+06 -4.861669E+05  7.157400E+03 -7.432968E+04 -1.438190E+03
        52  26 -4.892046E+05 -3.728226E+06 -4.780436E+05  2.390877E+04 -7.518398E+04 -1.155974E+04
        52  27 -4.857716E+05 -3.683798E+06 -4.783310E+05  1.327917E+04 -7.064798E+04 -2.161808E+04
        53   1  4.682337E+05  1.200222E+05  4.118255E+05 -1.307302E+04  7.400124E+04  3.029562E+04
        53   2  4.585359E+05  7.473300E+04  3.827413E+05 -1.741143E+04  6.770319E+04  2.935365E+04
        53   3  3.610939E+05  8.932081E+03  3.325887E+05 -5.741822E+04  2.085626E+04  2.783484E+04
        53   4  4.144312E+03 -1.759338E+06 -2.817974E+04 -7.592252E+03  7.412290E+04  2.153650E+04
        53   5  7.690519E+03 -1.746871E+06 -4.551278E+04  9.675232E+03  6.750154E+04  4.585254E+04
        53   6 -8.104002E+04 -1.759378E+06 -1.015351E+05 -8.737514E+03  2.027801E+04  6.958928E+04
        53   7 -4.601963E+05 -3.635439E+06 -4.684257E+05 -2.118342E+03  7.424460E+04  1.280367E+04
        53   8 -4.433902E+05 -3.565414E+06 -4.739940E+05  3.669177E+04  6.730104E+04  6.230315E+04
        53   9 -5.233993E+05 -3.524829E+06 -5.358821E+05  3.981406E+04  1.970548E+04  1.112248E+05
        53  10  4.682276E+05  1.200197E+05  4.118135E+05 -1.307482E+04 -8.981731E-09 -7.805429E-09
        53  11  4.585307E+05  7.473084E+04  3.827311E+05 -1.741303E+04 -1.420075E-08 -1.845652E-08
        53  12  3.610932E+05  8.931132E+03  3.325864E+05 -5.741868E+04 -5.986312E-09 -9.363141E-09
        53  13  4.138292E+03 -1.759340E+06 -2.819093E+04 -7.593538E+03 -1.169868E-08  1.314444E-08
        53  14  7.685064E+03 -1.746874E+06 -4.552530E+04  9.672738E+03 -5.142910E-09 -4.142309E-10
        53  15 -8.104177E+04 -1.759383E+06 -1.015450E+05 -8.738651E+03 -7.400489E-09  9.999199E-09
        53  16 -4.602022E+05 -3.635441E+06 -4.684364E+05 -2.119109E+03 -5.141906E-10  1.757103E-08
        53  17 -4.433962E+05 -3.565419E+06 -4.740098E+05  3.668839E+04 -7.420172E-09  2.042816E-08
        53  18 -5.234031E+05 -3.524843E+06 -5.359062E+05  3.981229E+04 -4.896764E-10  3.229590E-09
        53  19  4.682337E+05  1.200222E+05  4.118255E+05 -1.307302E+04 -7.400124E+04 -3.029562E+04
        53  20  4.585359E+05  7.473300E+04  3.827413E+05 -1.741143E+04 -6.770319E+04 -2.935365E+04
        53  21  3.610939E+05  8.932081E+03  3.325887E+05 -5.741822E+04 -2.085626E+04 -2.783484E+04
        53  22  4.144312E+03 -1.759338E+06 -2.817974E+04 -7.592252E+03 -7.412290E+04 -2.153650E+04
        53  23  7.690519E+03 -1.746871E+06 -4.551278E+04  9.675232E+03 -6.750154E+04 -4.585254E+04
        53  24 -8.104002E+04 -1.759378E+06 -1.015351E+05 -8.737514E+03 -2.027801E+04 -6.958928E+04
        53  25 -4.601963E+05 -3.635439E+06 -4.684257E+05 -2.118342E+03 -7.424460E+04 -1.280367E+04
        53  26 -4.433902E+05 -3.565414E+06 -4.739940E+05  3.669177E+04 -6.730104E+04 -6.230315E+04
        53  27 -5.233993E+05 -3.524829E+06 -5.358821E+05  3.981406E+04 -1.970548E+04 -1.112248E+05
        54   1  6.490383E+04  8.153312E+05  3.702183E+04 -1.115313E+02  2.271097E+04 -4.370900E+02
        54   2  6.499564E+04  8.153970E+05  3.754069E+04 -8.193337E+01  2.263292E+04 -1.109358E+03
        54   3  6.525371E+04  8.155962E+05  3.853978E+04 -4.107205E+01  2.245229E+04 -1.781681E+03
        54   4 -1.816275E+01  5.270285E+05  4.883015E+02  2.496023E+00  2.271206E+04 -3.721705E+02
        54   5  2.140613E+01  5.269830E+05  8.570513E+02 -3.106456E+00  2.263392E+04 -7.978134E+02
        54   6  1.845021E+02  5.270283E+05  1.535018E+03  2.554356E+00  2.245318E+04 -1.223507E+03
        54   7 -6.494354E+04  2.388110E+05 -3.604551E+04  1.164739E+02  2.271316E+04 -3.072796E+02
        54   8 -6.495623E+04  2.386544E+05 -3.582690E+04  7.568886E+01  2.263492E+04 -4.864060E+02
        54   9 -6.488814E+04  2.385456E+05 -3.547012E+04  4.616706E+01  2.245406E+04 -6.655790E+02
        54  10  6.490327E+04  8.153310E+05  3.702086E+04 -1.115233E+02  2.802184E-09 -5.905607E-08
        54  11  6.499509E+04  8.153968E+05  3.753973E+04 -8.191315E+01  6.570878E-09 -3.983125E-08
        54  12  6.525317E+04  8.155961E+05  3.853883E+04 -4.103984E+01 -2.819699E-09 -1.562325E-08
        54  13 -1.871685E+01  5.270284E+05  4.873316E+02  2.502830E+00 -1.884010E-08  3.814708E-10
        54  14  2.085571E+01  5.269829E+05  8.560871E+02 -3.091916E+00 -9.494547E-09 -8.498084E-10
        54  15  1.839602E+02  5.270282E+05  1.534067E+03  2.576477E+00 -6.525640E-09  4.411182E-10
        54  16 -6.494410E+04  2.388109E+05 -3.604648E+04  1.164795E+02 -4.901365E-10  5.860895E-08
        54  17 -6.495678E+04  2.386542E+05 -3.582787E+04  7.569773E+01 -1.115636E-09  3.957605E-08
        54  18 -6.488868E+04  2.385455E+05 -3.547107E+04  4.617909E+01  1.401346E-09  1.575536E-08
        54  19  6.490383E+04  8.153312E+05  3.702183E+04 -1.115313E+02 -2.271097E+04  4.370900E+02
        54  20  6.499564E+04  8.153970E+05  3.754069E+04 -8.193337E+01 -2.263292E+04  1.109358E+03
        54  21  6.525371E+04  8.155962E+05  3.853978E+04 -4.107205E+01 -2.245229E+04  1.781681E+03
        54  22 -1.816275E+01  5.270285E+05  4.883015E+02  2.496024E+00 -2.271206E+04  3.721705E+02
        54  23  2.140613E+01  5.269830E+05  8.570513E+02 -3.106456E+00 -2.263392E+04  7.978134E+02
        54  24  1.845021E+02  5.270283E+05  1.535018E+03  2.554356E+00 -2.245318E+04  1.223507E+03
        54  25 -6.494354E+04  2.388110E+05 -3.604551E+04  1.164739E+02 -2.271316E+04  3.072796E+02
        54  26 -6.495623E+04  2.386544E+05 -3.582690E+04  7.568886E+01 -2.263492E+04  4.864060E+02
        54  27 -6.488814E+04  2.385456E+05 -3.547012E+04  4.616706E+01 -2.245406E+04  6.655790E+02
        55   1  6.541282E+04  8.158488E+05  3.925884E+04 -1.390987E+02  2.233821E+04 -2.140696E+03
        55   2  6.627201E+04  8.155830E+05  4.186420E+04  7.405464E+02  2.170009E+04 -5.805083E+03
        55   3  6.873140E+04  8.161980E+05  4.725424E+04  1.581346E+03  2.029650E+04 -9.469898E+03
        55   4  2.708969E+02  5.271330E+05  2.038623E+03 -8.669789E+00  2.233905E+04 -1.523151E+03
        55   5  9.270743E+02  5.268515E+05  3.640526E+03  1.125389E+01  2.170007E+04 -3.347643E+03
        55   6  2.864697E+03  5.271320E+05  6.751054E+03 -7.672645E+00  2.029545E+04 -5.172550E+03
        55   7 -6.487448E+04  2.385026E+05 -3.518201E+04  1.217036E+02  2.233989E+04 -9.058787E+02
        55   8 -6.442139E+04  2.382050E+05 -3.458375E+04 -7.176752E+02  2.170005E+04 -8.912909E+02
        55   9 -6.300571E+04  2.381507E+05 -3.375314E+04 -1.595910E+03  2.029438E+04 -8.771121E+02
        55  10  6.541229E+04  8.158486E+05  3.925790E+04 -1.390602E+02  7.714168E-10  6.569599E-08
        55  11  6.627150E+04  8.155828E+05  4.186325E+04  7.406479E+02  2.099431E-09 -3.056564E-09
        55  12  6.873094E+04  8.161978E+05  4.725330E+04  1.581500E+03  1.012455E-09 -7.005364E-08
        55  13  2.703603E+02  5.271329E+05  2.037680E+03 -8.642391E+00  5.086096E-09  4.431126E-10
        55  14  9.265655E+02  5.268514E+05  3.639619E+03  1.131239E+01  3.233677E-09 -8.486904E-10
        55  15  2.864247E+03  5.271319E+05  6.750230E+03 -7.588114E+00  7.990482E-09  6.889431E-10
        55  16 -6.487502E+04  2.385024E+05 -3.518295E+04  1.217199E+02 -2.509777E-09 -6.637253E-08
        55  17 -6.442190E+04  2.382049E+05 -3.458463E+04 -7.176596E+02  1.993297E-09  2.753172E-09
        55  18 -6.300615E+04  2.381505E+05 -3.375392E+04 -1.595896E+03  4.339756E-09  7.032243E-08
        55  19  6.541282E+04  8.158488E+05  3.925884E+04 -1.390987E+02 -2.233821E+04  2.140696E+03
        55  20  6.627201E+04  8.155830E+05  4.186420E+04  7.405464E+02 -2.170009E+04  5.805083E+03
        55  21  6.873140E+04  8.161980E+05  4.725424E+04  1.581346E+03 -2.029650E+04  9.469898E+03
        55  22  2.708969E+02  5.271330E+05  2.038623E+03 -8.669790E+00 -2.233905E+04  1.523151E+03
        55  23  9.270743E+02  5.268515E+05  3.640526E+03  1.125389E+01 -2.170007E+04  3.347643E+03
        55  24  2.864697E+03  5.271320E+05  6.751054E+03 -7.672645E+00 -2.029545E+04  5.172550E+03
        55  25 -6.487448E+04  2.385026E+05 -3.518201E+04  1.217036E+02 -2.233989E+04  9.058787E+02
        55  26 -6.442139E+04  2.382050E+05 -3.458375E+04 -7.176752E+02 -2.170005E+04  8.912909E+02
        55  27 -6.300571E+04  2.381507E+05 -3.375314E+04 -1.595910E+03 -2.029438E+04  8.771121E+02
        56   1  7.022202E+04  8.175469E+05  5.107459E+04  1.003949E+03  1.940965E+04 -1.109970E+04
        56   2  7.883632E+04  8.144777E+05  6.603689E+04  1.130638E+04  1.461084E+04 -3.324504E+04
        56   3  1.024772E+05  8.180481E+05  9.916148E+04  2.115617E+04  4.143974E+03 -5.539417E+04
        56   4  3.946790E+03  5.279582E+05  9.053487E+03 -1.005836E+02  1.940822E+04 -6.351094E+03
        56   5  1.130197E+04  5.258151E+05  1.673186E+04  1.324094E+02  1.460231E+04 -1.487729E+04
        56   6  3.132444E+04  5.279511E+05  3.312430E+04 -8.733661E+01  4.127849E+03 -2.340697E+04
        56   7 -6.233227E+04  2.384540E+05 -3.296890E+04 -1.204570E+03  1.940678E+04 -1.604603E+03
        56   8 -5.623616E+04  2.372353E+05 -3.257460E+04 -1.103619E+04  1.459312E+04  3.482196E+03
        56   9 -3.983187E+04  2.379352E+05 -3.291427E+04 -2.132083E+04  4.109534E+03  8.565447E+03
        56  10  7.022158E+04  8.175467E+05  5.107365E+04  1.004122E+03  4.744712E-09 -5.879090E-09
        56  11  7.883579E+04  8.144765E+05  6.603442E+04  1.130677E+04  1.062919E-08 -6.049898E-09
        56  12  1.024763E+05  8.180448E+05  9.915569E+04  2.115635E+04  1.542469E-09 -4.314982E-09
        56  13  3.946374E+03  5.279580E+05  9.052703E+03 -1.004843E+02  1.102560E-08  5.970901E-10
        56  14  1.130168E+04  5.258148E+05  1.673105E+04  1.325844E+02  8.364525E-09 -9.275625E-10
        56  15  3.132428E+04  5.279505E+05  3.312324E+04 -8.725881E+01 -1.118772E-10  7.238947E-10
        56  16 -6.233268E+04  2.384538E+05 -3.296962E+04 -1.204545E+03  4.733760E-09  5.229768E-09
        56  17 -5.623639E+04  2.372353E+05 -3.257502E+04 -1.103624E+04  2.915422E-09  5.691891E-09
        56  18 -3.983191E+04  2.379351E+05 -3.291443E+04 -2.132085E+04  1.990013E-09  4.571371E-09
        56  19  7.022202E+04  8.175469E+05  5.107459E+04  1.003949E+03 -1.940965E+04  1.109970E+04
        56  20  7.883632E+04  8.144777E+05  6.603689E+04  1.130638E+04 -1.461084E+04  3.324504E+04
        56  21  1.024772E+05  8.180481E+05  9.916148E+04  2.115617E+04 -4.143974E+03  5.539417E+04
        56  22  3.946790E+03  5.279582E+05  9.053487E+03 -1.005836E+02 -1.940822E+04  6.351094E+03
        56  23  1.130197E+04  5.258151E+05  1.673186E+04  1.324094E+02 -1.460231E+04  1.487729E+04
        56  24  3.132444E+04  5.279511E+05  3.312430E+04 -8.733661E+01 -4.127849E+03  2.340697E+04
        56  25 -6.233227E+04  2.384540E+05 -3.296890E+04 -1.204570E+03 -1.940678E+04  1.604603E+03
        56  26 -5.623616E+04  2.372353E+05 -3.257460E+04 -1.103619E+04 -1.459312E+04 -3.482196E+03
        56  27 -3.983187E+04  2.379352E+05 -3.291427E+04 -2.132083E+04 -4.109534E+03 -8.565447E+03
        57   1  2.337687E+06  4.087185E+06  2.437145E+06  1.225953E+06 -1.653829E+06 -7.952252E+05
        57   2  9.282818E+05  3.535945E+06  3.056865E+06 -2.198553E+06 -9.862421E+05 -7.695546E+05
        57   3 -3.904856E+06  4.651303E+06  2.913063E+06 -5.966609E+05 -4.809941E+05 -3.760134E+05
        57   4 -1.634134E+07 -2.966557E+06 -2.722463E+06 -3.822111E+06 -1.703834E+06 -8.165438E+05
        57   5 -1.442374E+07 -2.706639E+06 -1.247469E+06 -6.774272E+06 -9.719149E+05 -7.643144E+05
        57   6 -1.601634E+07 -8.493874E+05 -6.182020E+05 -4.690559E+06 -4.007205E+05 -3.394811E+05
        57   7 -3.468270E+07 -1.000298E+07 -7.914585E+06 -8.734357E+06 -1.751345E+06 -8.369735E+05
        57   8 -2.954471E+07 -8.928523E+06 -5.574571E+06 -1.124484E+07 -9.576236E+05 -7.591027E+05
        57   9 -2.798222E+07 -6.328216E+06 -4.164686E+06 -8.707190E+06 -3.221568E+05 -3.037851E+05
        57  10  2.334596E+06  4.085782E+06  2.430850E+06  1.224901E+06 -8.180463E-09  6.638839E-09
        57  11  9.270785E+05  3.535049E+06  3.053920E+06 -2.199163E+06 -2.547893E-08  1.308602E-08
        57  12 -3.905142E+06  4.651090E+06  2.912361E+06 -5.968062E+05  6.727706E-09 -5.108354E-10
        57  13 -1.634472E+07 -2.968091E+06 -2.729355E+06 -3.823249E+06  3.831009E-09 -4.356351E-10
        57  14 -1.442494E+07 -2.707538E+06 -1.250420E+06 -6.774880E+06 -1.197253E-08 -4.193543E-09
        57  15 -1.601655E+07 -8.495566E+05 -6.187320E+05 -4.690670E+06  4.205981E-09 -9.845434E-09
        57  16 -3.468636E+07 -1.000465E+07 -7.922102E+06 -8.735581E+06 -3.307507E-10  4.103666E-09
        57  17 -2.954591E+07 -8.929426E+06 -5.577529E+06 -1.124544E+07  1.243850E-08 -1.088305E-08
        57  18 -2.798236E+07 -6.328346E+06 -4.165070E+06 -8.707271E+06 -9.393557E-09  1.167815E-08
        57  19  2.337687E+06  4.087185E+06  2.437145E+06  1.225953E+06  1.653829E+06  7.952252E+05
        57  20  9.282818E+05  3.535945E+06  3.056865E+06 -2.198553E+06  9.862421E+05  7.695546E+05
        57  21 -3.904856E+06  4.651303E+06  2.913063E+06 -5.966609E+05  4.809941E+05  3.760134E+05
        57  22 -1.634134E+07 -2.966557E+06 -2.722463E+06 -3.822111E+06  1.703834E+06  8.165438E+05
        57  23 -1.442374E+07 -2.706639E+06 -1.247469E+06 -6.774272E+06  9.719149E+05  7.643144E+05
        57  24 -1.601634E+07 -8.493874E+05 -6.182020E+05 -4.690559E+06  4.007205E+05  3.394811E+05
        57  25 -3.468270E+07 -1.000298E+07 -7.914585E+06 -8.734357E+06  1.751345E+06  8.369735E+05
        57  26 -2.954471E+07 -8.928523E+06 -5.574571E+06 -1.124484E+07  9.576236E+05  7.591027E+05
        57  27 -2.798222E+07 -6.328216E+06 -4.164686E+06 -8.707190E+06  3.221568E+05  3.037851E+05
        58   1 -2.065614E+07 -2.953818E+06 -1.818859E+06 -5.801992E+06 -4.172388E+05 -1.703953E+05
        58   2 -2.179130E+07 -6.586070E+06 -2.538756E+06 -9.310880E+06 -3.298696E+05  1.163086E+04
        58   3 -2.789383E+07 -5.735930E+06 -3.465939E+06 -7.820386E+06 -2.310804E+05  1.759077E+05
        58   4 -1.644477E+07 -9.888729E+05 -5.643811E+05 -4.352955E+06 -3.925437E+05 -1.590951E+05
        58   5 -1.394065E+07 -3.212634E+06 -2.700074E+05 -6.851519E+06 -3.084104E+05  2.096766E+04
        58   6 -1.640578E+07 -9.506083E+05 -1.768230E+05 -4.361304E+06 -2.119619E+05  1.837674E+05
        58   7 -1.221548E+07  9.790036E+05  6.881944E+05 -2.894132E+06 -3.676398E+05 -1.476899E+05
        58   8 -6.027922E+06  1.678907E+05  1.992475E+06 -4.361905E+06 -2.866099E+05  3.045706E+04
        58   9 -4.784409E+06  3.847279E+06  3.099123E+06 -8.406972E+05 -1.924092E+05  1.918147E+05
        58  10 -2.065634E+07 -2.953899E+06 -1.819254E+06 -5.802050E+06 -1.343797E-09 -4.525117E-09
        58  11 -2.179142E+07 -6.586100E+06 -2.538968E+06 -9.310877E+06  2.109842E-08  2.696298E-08
        58  12 -2.789390E+07 -5.735977E+06 -3.466099E+06 -7.820353E+06  2.104571E-08 -3.536405E-08
        58  13 -1.644495E+07 -9.889433E+05 -5.647278E+05 -4.353006E+06 -2.974373E-09  2.264355E-08
        58  14 -1.394075E+07 -3.212660E+06 -2.701904E+05 -6.851514E+06  2.438105E-08 -2.927109E-08
        58  15 -1.640583E+07 -9.506563E+05 -1.769713E+05 -4.361273E+06 -2.349574E-08  2.036085E-08
        58  16 -1.221564E+07  9.789428E+05  6.878933E+05 -2.894176E+06  1.859652E-09 -2.236211E-08
        58  17 -6.028011E+06  1.678675E+05  1.992318E+06 -4.361898E+06 -1.949083E-08 -6.645238E-08
        58  18 -4.784458E+06  3.847230E+06  3.098984E+06 -8.406676E+05  1.955952E-09  1.740264E-08
        58  19 -2.065614E+07 -2.953818E+06 -1.818859E+06 -5.801992E+06  4.172388E+05  1.703953E+05
        58  20 -2.179130E+07 -6.586070E+06 -2.538756E+06 -9.310880E+06  3.298696E+05 -1.163086E+04
        58  21 -2.789383E+07 -5.735930E+06 -3.465939E+06 -7.820386E+06  2.310804E+05 -1.759077E+05
        58  22 -1.644477E+07 -9.888729E+05 -5.643811E+05 -4.352955E+06  3.925437E+05  1.590951E+05
        58  23 -1.394065E+07 -3.212634E+06 -2.700074E+05 -6.851519E+06  3.084104E+05 -2.096766E+04
        58  24 -1.640578E+07 -9.506083E+05 -1.768230E+05 -4.361304E+06  2.119619E+05 -1.837674E+05
        58  25 -1.221548E+07  9.790036E+05  6.881944E+05 -2.894132E+06  3.676398E+05  1.476899E+05
        58  26 -6.027922E+06  1.678907E+05  1.992475E+06 -4.361905E+06  2.866099E+05 -3.045706E+04
        58  27 -4.784409E+06  3.847279E+06  3.099123E+06 -8.406972E+05  1.924092E+05 -1.918147E+05
        59   1 -3.668693E+07 -1.064524E+07 -6.235889E+06 -1.152203E+07 -2.883828E+05  2.429877E+05
        59   2 -3.899225E+07 -1.112533E+07 -6.734935E+06 -1.196615E+07 -2.046756E+05  3.731355E+05
        59   3 -3.853885E+07 -1.014075E+07 -6.428079E+06 -1.067891E+07 -6.735675E+04  3.614608E+05
        59   4 -1.478256E+07 -1.668924E+06  5.986691E+04 -5.112838E+06 -2.593123E+05  2.539075E+05
        59   5 -1.620842E+07 -2.450457E+06 -3.192989E+05 -5.965536E+06 -2.024237E+05  3.727257E+05
        59   6 -1.478928E+07 -1.702596E+06  1.352904E+05 -5.079837E+06 -9.267604E+04  3.520647E+05
        59   7  7.607848E+06  7.349598E+06  6.307631E+06  1.516148E+06 -2.289603E+05  2.653844E+05
        59   8  7.098148E+06  6.251734E+06  6.046428E+06  2.458019E+05 -2.000633E+05  3.723931E+05
        59   9  9.521819E+06  6.748577E+06  6.646523E+06  7.196515E+05 -1.191397E+05  3.423288E+05
        59  10 -3.668704E+07 -1.064532E+07 -6.236160E+06 -1.152197E+07  1.173866E-08 -2.957365E-08
        59  11 -3.899233E+07 -1.112549E+07 -6.735273E+06 -1.196608E+07  5.536778E-09  1.044131E-08
        59  12 -3.853889E+07 -1.014089E+07 -6.428331E+06 -1.067889E+07 -5.082400E-09  3.914825E-08
        59  13 -1.478265E+07 -1.669011E+06  5.961963E+04 -5.112785E+06 -8.226356E-09  3.434611E-08
        59  14 -1.620850E+07 -2.450616E+06 -3.196345E+05 -5.965475E+06 -1.028430E-08 -3.286648E-09
        59  15 -1.478932E+07 -1.702730E+06  1.350433E+05 -5.079810E+06  2.727579E-09 -4.888244E-09
        59  16  7.607773E+06  7.349509E+06  6.307402E+06  1.516197E+06 -1.011148E-08  3.275005E-08
        59  17  7.098069E+06  6.251576E+06  6.046095E+06  2.458613E+05 -2.766864E-09  9.087669E-10
        59  18  9.521773E+06  6.748449E+06  6.646278E+06  7.196839E+05  1.349145E-08 -5.482035E-08
        59  19 -3.668693E+07 -1.064524E+07 -6.235889E+06 -1.152203E+07  2.883828E+05 -2.429877E+05
        59  20 -3.899225E+07 -1.112533E+07 -6.734935E+06 -1.196615E+07  2.046756E+05 -3.731355E+05
        59  21 -3.853885E+07 -1.014075E+07 -6.428079E+06 -1.067891E+07  6.735675E+04 -3.614608E+05
        59  22 -1.478256E+07 -1.668924E+06  5.986691E+04 -5.112838E+06  2.593123E+05 -2.539075E+05
        59  23 -1.620842E+07 -2.450457E+06 -3.192989E+05 -5.965536E+06  2.024237E+05 -3.727257E+05
        59  24 -1.478928E+07 -1.702596E+06  1.352904E+05 -5.079837E+06  9.267604E+04 -3.520647E+05
        59  25  7.607848E+06  7.349598E+06  6.307631E+06  1.516148E+06  2.289603E+05 -2.653844E+05
        59  26  7.098148E+06  6.251734E+06  6.046428E+06  2.458019E+05  2.000633E+05 -3.723931E+05
        59  27  9.521819E+06  6.748577E+06  6.646523E+06  7.196515E+05  1.191397E+05 -3.423288E+05
        60   1 -3.118487E+07 -8.597334E+06 -4.591306E+06 -1.023087E+07 -1.093496E+05  2.964505E+05
        60   2 -3.014278E+07 -5.576282E+06 -3.755412E+06 -7.003296E+06 -4.474048E+04  2.385451E+05
        60   3 -2.483594E+07 -5.787105E+06 -2.737084E+06 -8.536099E+06  3.765050E+04  9.528598E+04
        60   4 -1.438758E+07 -2.824000E+06 -1.346075E+04 -6.478816E+06 -1.159575E+05  2.937827E+05
        60   5 -1.652832E+07 -1.051164E+06 -7.919491E+04 -4.154989E+06 -6.894198E+04  2.312306E+05
        60   6 -1.439791E+07 -2.487821E+06  5.504124E+04 -6.587929E+06 -4.627351E+03  8.413727E+04
        60   7  2.687491E+06  2.952932E+06  4.538925E+06 -2.632613E+06 -1.227669E+05  2.910663E+05
        60   8 -2.732320E+06  3.473780E+06  3.580585E+06 -1.249758E+06 -9.373461E+04  2.237529E+05
        60   9 -3.854488E+06  8.095057E+05  2.837710E+06 -4.610352E+06 -4.768336E+04  7.279224E+04
        60  10 -3.118491E+07 -8.597431E+06 -4.591493E+06 -1.023084E+07  2.053746E-08  3.312273E-08
        60  11 -3.014279E+07 -5.576343E+06 -3.755522E+06 -7.003287E+06  1.599091E-08 -1.045309E-08
        60  12 -2.483594E+07 -5.787115E+06 -2.737104E+06 -8.536102E+06 -2.493514E-08 -6.038929E-08
        60  13 -1.438762E+07 -2.824095E+06 -1.364667E+04 -6.478789E+06  3.774434E-09 -5.131641E-08
        60  14 -1.652834E+07 -1.051223E+06 -7.930342E+04 -4.154976E+06  2.932807E-08  2.391737E-08
        60  15 -1.439791E+07 -2.487828E+06  5.502795E+04 -6.587929E+06  1.996260E-08 -2.261473E-08
        60  16  2.687452E+06  2.952838E+06  4.538739E+06 -2.632584E+06 -8.724065E-09 -3.131049E-08
        60  17 -2.732343E+06  3.473724E+06  3.580476E+06 -1.249741E+06 -6.162519E-08 -1.036311E-08
        60  18 -3.854492E+06  8.094995E+05  2.837696E+06 -4.610349E+06 -4.259108E-09  2.163352E-08
        60  19 -3.118487E+07 -8.597334E+06 -4.591306E+06 -1.023087E+07  1.093496E+05 -2.964505E+05
        60  20 -3.014278E+07 -5.576282E+06 -3.755412E+06 -7.003296E+06  4.474048E+04 -2.385451E+05
        60  21 -2.483594E+07 -5.787105E+06 -2.737084E+06 -8.536099E+06 -3.765050E+04 -9.528598E+04
        60  22 -1.438758E+07 -2.824000E+06 -1.346075E+04 -6.478816E+06  1.159575E+05 -2.937827E+05
        60  23 -1.652832E+07 -1.051164E+06 -7.919491E+04 -4.154989E+06  6.894198E+04 -2.312306E+05
        60  24 -1.439791E+07 -2.487821E+06  5.504124E+04 -6.587929E+06  4.627351E+03 -8.413727E+04
        60  25  2.687491E+06  2.952932E+06  4.538925E+06 -2.632613E+06  1.227669E+05 -2.910663E+05
        60  26 -2.732320E+06  3.473780E+06  3.580585E+06 -1.249758E+06  9.373461E+04 -2.237529E+05
        60  27 -3.854488E+06  8.095057E+05  2.837710E+06 -4.610352E+06  4.768336E+04 -7.279224E+04
        61   1 -6.587270E+06 -1.238380E+05  2.105098E+06 -5.241024E+06  4.140302E+04 -2.971380E+04
        61   2 -5.070017E+06  2.759538E+06  2.971020E+06 -1.661497E+06  8.348197E+04 -1.829509E+05
        61   3  5.310136E+05  2.127383E+06  3.944888E+06 -3.319044E+06  1.122409E+05 -2.671270E+05
        61   4 -1.443099E+07 -2.567758E+06  3.043064E+04 -6.690945E+06 -2.972093E+02 -4.058038E+04
        61   5 -1.645741E+07 -9.500275E+05 -4.813583E+04 -4.018196E+06  5.685183E+04 -1.906930E+05
        61   6 -1.442165E+07 -2.865635E+06 -3.127954E+04 -6.594615E+06  1.005033E+05 -2.711132E+05
        61   7 -2.221627E+07 -5.012891E+06 -2.049482E+06 -8.124815E+06 -4.143607E+04 -5.130730E+04
        61   8 -2.772098E+07 -4.660066E+06 -3.078467E+06 -6.336756E+06  3.074497E+04 -1.982910E+05
        61   9 -2.916123E+07 -7.856988E+06 -4.026861E+06 -9.799946E+06  8.906925E+04 -2.750173E+05
        61  10 -6.587272E+06 -1.238394E+05  2.105093E+06 -5.241023E+06  2.586373E-08  8.148928E-09
        61  11 -5.070034E+06  2.759501E+06  2.970944E+06 -1.661485E+06 -2.058598E-08  4.331903E-08
        61  12  5.309814E+05  2.127304E+06  3.944732E+06 -3.319020E+06 -1.034308E-08 -2.806870E-08
        61  13 -1.443099E+07 -2.567759E+06  3.042755E+04 -6.690945E+06  1.968141E-08  1.680693E-08
        61  14 -1.645743E+07 -9.500671E+05 -4.820963E+04 -4.018187E+06  2.223750E-08  5.954864E-08
        61  15 -1.442168E+07 -2.865716E+06 -3.143535E+04 -6.594593E+06  1.095759E-08  8.246781E-08
        61  16 -2.221627E+07 -5.012894E+06 -2.049490E+06 -8.124817E+06 -3.619762E-08  6.156085E-08
        61  17 -2.772099E+07 -4.660108E+06 -3.078542E+06 -6.336751E+06 -2.883448E-08 -5.000911E-08
        61  18 -2.916125E+07 -7.857071E+06 -4.027017E+06 -9.799926E+06  5.503315E-10  2.363902E-08
        61  19 -6.587270E+06 -1.238380E+05  2.105098E+06 -5.241024E+06 -4.140302E+04  2.971380E+04
        61  20 -5.070017E+06  2.759538E+06  2.971020E+06 -1.661497E+06 -8.348197E+04  1.829509E+05
        61  21  5.310136E+05  2.127383E+06  3.944888E+06 -3.319044E+06 -1.122409E+05  2.671270E+05
        61  22 -1.443099E+07 -2.567758E+06  3.043064E+04 -6.690945E+06  2.972093E+02  4.058038E+04
        61  23 -1.645741E+07 -9.500275E+05 -4.813583E+04 -4.018196E+06 -5.685183E+04  1.906930E+05
        61  24 -1.442165E+07 -2.865635E+06 -3.127954E+04 -6.594615E+06 -1.005033E+05  2.711132E+05
        61  25 -2.221627E+07 -5.012891E+06 -2.049482E+06 -8.124815E+06  4.143607E+04  5.130730E+04
        61  26 -2.772098E+07 -4.660066E+06 -3.078467E+06 -6.336756E+06 -3.074497E+04  1.982910E+05
        61  27 -2.916123E+07 -7.856988E+06 -4.026861E+06 -9.799946E+06 -8.906925E+04  2.750173E+05
        62   1  9.472432E+06  6.451559E+06  6.579852E+06  3.329511E+05  1.123982E+05 -3.301785E+05
        62   2  7.209356E+06  6.358236E+06  6.091378E+06  3.442400E+05  1.978037E+05 -3.771518E+05
        62   3  8.502259E+06  7.314823E+06  6.479802E+06  1.445148E+06  2.335850E+05 -2.848495E+05
        62   4 -1.465305E+07 -1.786412E+06  1.456778E+05 -5.240215E+06  8.212966E+04 -3.407834E+05
        62   5 -1.638417E+07 -2.298816E+06 -3.219508E+05 -5.782041E+06  1.967835E+05 -3.787321E+05
        62   6 -1.464741E+07 -1.829585E+06  5.953051E+04 -5.242176E+06  2.609412E+05 -2.749694E+05
        62   7 -3.822683E+07 -1.001539E+07 -6.339395E+06 -1.062297E+07  5.314958E+04 -3.510132E+05
        62   8 -3.944330E+07 -1.093192E+07 -6.785942E+06 -1.169895E+07  1.957951E+05 -3.803392E+05
        62   9 -3.727926E+07 -1.093360E+07 -6.411438E+06 -1.170157E+07  2.871050E+05 -2.656000E+05
        62  10  9.472389E+06  6.451440E+06  6.579626E+06  3.329806E+05  5.100610E-09 -1.835295E-10
        62  11  7.209276E+06  6.358075E+06  6.091040E+06  3.442994E+05  1.130402E-08 -1.768825E-08
        62  12  8.502179E+06  7.314722E+06  6.479549E+06  1.445201E+06 -1.709693E-08  4.020102E-09
        62  13 -1.465309E+07 -1.786537E+06  1.454486E+05 -5.240193E+06  1.227989E-08  1.552223E-08
        62  14 -1.638425E+07 -2.298979E+06 -3.222905E+05 -5.781981E+06 -1.012186E-08 -1.423260E-08
        62  15 -1.464751E+07 -1.829684E+06  5.926106E+04 -5.242118E+06 -3.601452E-09  4.337636E-09
        62  16 -3.822686E+07 -1.001552E+07 -6.339631E+06 -1.062295E+07  3.090671E-10  2.203215E-08
        62  17 -3.944338E+07 -1.093209E+07 -6.786283E+06 -1.169889E+07  3.477483E-09  4.478737E-08
        62  18 -3.727937E+07 -1.093369E+07 -6.411728E+06 -1.170151E+07  2.309688E-08 -2.107962E-08
        62  19  9.472432E+06  6.451559E+06  6.579852E+06  3.329511E+05 -1.123982E+05  3.301785E+05
        62  20  7.209356E+06  6.358236E+06  6.091378E+06  3.442400E+05 -1.978037E+05  3.771518E+05
        62  21  8.502259E+06  7.314823E+06  6.479802E+06  1.445148E+06 -2.335850E+05  2.848495E+05
        62  22 -1.465305E+07 -1.786412E+06  1.456778E+05 -5.240215E+06 -8.212966E+04  3.407834E+05
        62  23 -1.638417E+07 -2.298816E+06 -3.219508E+05 -5.782041E+06 -1.967835E+05  3.787321E+05
        62  24 -1.464741E+07 -1.829585E+06  5.953051E+04 -5.242176E+06 -2.609412E+05  2.749694E+05
        62  25 -3.822683E+07 -1.001539E+07 -6.339395E+06 -1.062297E+07 -5.314958E+04  3.510132E+05
        62  26 -3.944330E+07 -1.093192E+07 -6.785942E+06 -1.169895E+07 -1.957951E+05  3.803392E+05
        62  27 -3.727926E+07 -1.093360E+07 -6.411438E+06 -1.170157E+07 -2.871050E+05  2.656000E+05
        63   1 -2.336861E+06  4.658044E+06  3.754063E+06 -2.147821E+05  2.014648E+05 -2.221094E+05
        63   2 -3.759286E+06  1.202978E+06  2.660991E+06 -3.592943E+06  3.011617E+05 -7.478091E+04
        63   3 -9.519102E+06  2.100079E+06  1.466921E+06 -2.094229E+06  3.794723E+05  1.060676E+05
        63   4 -1.628473E+07 -1.019659E+06 -1.592129E+05 -4.373187E+06  2.161546E+05 -2.164167E+05
        63   5 -1.411741E+07 -3.181820E+06 -2.886679E+05 -6.822085E+06  3.213469E+05 -6.620133E+04
        63   6 -1.631865E+07 -1.000351E+06 -5.265008E+05 -4.392642E+06  4.058883E+05  1.181276E+05
        63   7 -3.004149E+07 -6.680514E+06 -4.091291E+06 -8.444914E+06  2.304499E+05 -2.108960E+05
        63   8 -2.436952E+07 -7.554980E+06 -3.248990E+06 -1.000014E+07  3.411120E+05 -5.780915E+04
        63   9 -2.307203E+07 -4.093870E+06 -2.524764E+06 -6.666559E+06  4.319418E+05  1.300109E+05
        63  10 -2.336918E+06  4.657980E+06  3.753894E+06 -2.147462E+05 -8.447720E-09 -3.675021E-10
        63  11 -3.759385E+06  1.202948E+06  2.660810E+06 -3.592925E+06 -3.633658E-08  2.188265E-08
        63  12 -9.519262E+06  2.100027E+06  1.466625E+06 -2.094262E+06 -9.741730E-09 -1.187383E-08
        63  13 -1.628479E+07 -1.019722E+06 -1.593889E+05 -4.373150E+06 -1.511049E-09 -1.546707E-08
        63  14 -1.411752E+07 -3.181853E+06 -2.888732E+05 -6.822068E+06  1.123392E-08  5.804914E-09
        63  15 -1.631883E+07 -1.000412E+06 -5.268464E+05 -4.392681E+06 -4.939748E-09  6.040746E-08
        63  16 -3.004156E+07 -6.680576E+06 -4.091476E+06 -8.444875E+06  2.440623E-08  7.034578E-10
        63  17 -2.436965E+07 -7.555015E+06 -3.249221E+06 -1.000012E+07  2.933284E-08  1.481737E-08
        63  18 -2.307224E+07 -4.093941E+06 -2.525163E+06 -6.666606E+06 -1.537255E-08  2.827018E-08
        63  19 -2.336861E+06  4.658044E+06  3.754063E+06 -2.147821E+05 -2.014648E+05  2.221094E+05
        63  20 -3.759286E+06  1.202978E+06  2.660991E+06 -3.592943E+06 -3.011617E+05  7.478091E+04
        63  21 -9.519102E+06  2.100079E+06  1.466921E+06 -2.094229E+06 -3.794723E+05 -1.060676E+05
        63  22 -1.628473E+07 -1.019659E+06 -1.592129E+05 -4.373187E+06 -2.161546E+05  2.164167E+05
        63  23 -1.411741E+07 -3.181820E+06 -2.886679E+05 -6.822085E+06 -3.213469E+05  6.620133E+04
        63  24 -1.631865E+07 -1.000351E+06 -5.265008E+05 -4.392642E+06 -4.058883E+05 -1.181276E+05
        63  25 -3.004149E+07 -6.680514E+06 -4.091291E+06 -8.444914E+06 -2.304499E+05  2.108960E+05
        63  26 -2.436952E+07 -7.554980E+06 -3.248990E+06 -1.000014E+07 -3.411120E+05  5.780915E+04
        63  27 -2.307203E+07 -4.093870E+06 -2.524764E+06 -6.666559E+06 -4.319418E+05 -1.300109E+05
        64   1 -2.585080E+07 -5.271381E+06 -3.499327E+06 -7.931847E+06  3.355654E+05  2.640255E+05
        64   2 -2.722761E+07 -8.196640E+06 -4.921870E+06 -1.073952E+07  9.403144E+05  7.147821E+05
        64   3 -3.299031E+07 -9.228708E+06 -7.347978E+06 -8.292695E+06  1.692823E+06  8.183719E+05
        64   4 -1.618617E+07 -7.876167E+05 -6.242753E+05 -4.636280E+06  4.110471E+05  2.986604E+05
        64   5 -1.418199E+07 -2.780525E+06 -1.184342E+06 -6.831599E+06  9.550598E+05  7.204568E+05
        64   6 -1.651291E+07 -2.822132E+06 -2.670411E+06 -3.785002E+06  1.649754E+06  7.993659E+05
        64   7 -6.426636E+06  3.711266E+06  2.240790E+06 -1.289379E+06  4.878679E+05  3.339630E+05
        64   8 -9.645526E+05  2.651788E+06  2.536179E+06 -2.844403E+06  9.699000E+05  7.261801E+05
        64   9  2.371746E+05  3.599990E+06  1.980724E+06  8.347325E+05  1.604674E+06  7.796284E+05
        64  10 -2.585095E+07 -5.271490E+06 -3.499684E+06 -7.931920E+06  6.069045E-09  2.624847E-08
        64  11 -2.722875E+07 -8.197459E+06 -4.924625E+06 -1.074008E+07  1.792508E-09 -6.012960E-08
        64  12 -3.299373E+07 -9.230280E+06 -7.355009E+06 -8.293850E+06 -5.996564E-09 -2.646780E-08
        64  13 -1.618638E+07 -7.877602E+05 -6.247723E+05 -4.636380E+06  4.132139E-08 -4.570305E-08
        64  14 -1.418314E+07 -2.781345E+06 -1.187106E+06 -6.832161E+06  1.434947E-08  2.177255E-08
        64  15 -1.651608E+07 -2.823584E+06 -2.676900E+06 -3.786080E+06  1.095598E-08 -1.049482E-08
        64  16 -6.426923E+06  3.711082E+06  2.240128E+06 -1.289510E+06 -1.979798E-08 -4.407759E-08
        64  17 -9.657076E+05  2.650967E+06  2.533407E+06 -2.844970E+06  2.647904E-08 -4.820013E-08
        64  18  2.342528E+05  3.598652E+06  1.974755E+06  8.337296E+05  2.703017E-08 -2.326918E-08
        64  19 -2.585080E+07 -5.271381E+06 -3.499327E+06 -7.931847E+06 -3.355654E+05 -2.640255E+05
        64  20 -2.722761E+07 -8.196640E+06 -4.921870E+06 -1.073952E+07 -9.403144E+05 -7.147821E+05
        64  21 -3.299031E+07 -9.228708E+06 -7.347978E+06 -8.292695E+06 -1.692823E+06 -8.183719E+05
        64  22 -1.618617E+07 -7.876167E+05 -6.242753E+05 -4.636280E+06 -4.110471E+05 -2.986604E+05
        64  23 -1.418199E+07 -2.780525E+06 -1.184342E+06 -6.831599E+06 -9.550598E+05 -7.204568E+05
        64  24 -1.651291E+07 -2.822132E+06 -2.670411E+06 -3.785002E+06 -1.649754E+06 -7.993659E+05
        64  25 -6.426636E+06  3.711266E+06  2.240790E+06 -1.289379E+06 -4.878679E+05 -3.339630E+05
        64  26 -9.645526E+05  2.651788E+06  2.536179E+06 -2.844403E+06 -9.699000E+05 -7.261801E+05
        64  27  2.371746E+05  3.599990E+06  1.980724E+06  8.347325E+05 -1.604674E+06 -7.796284E+05
        65   1 -9.395120E+05  1.789008E+03  4.305024E+04  2.755765E+03  1.200946E+05  2.918848E+03
        65   2 -9.752614E+05 -1.680484E+05 -6.045439E+04 -9.932941E+03  7.921103E+04  4.784948E+03
        65   3 -9.479236E+05 -1.411601E+05 -8.641974E+04 -7.461188E+03  3.836344E+04  3.988080E+03
        65   4 -4.018999E+05  1.360582E+05  1.774250E+05 -7.377343E+02  1.205271E+05  2.922953E+03
        65   5 -4.334697E+05 -3.253316E+04  7.486000E+04 -7.365811E+03  7.935700E+04  4.786192E+03
        65   6 -4.019430E+05 -4.436130E+03  4.998743E+04  1.165889E+03  3.822260E+04  3.986708E+03
        65   7  1.359746E+05  2.703057E+05  3.117780E+05 -4.235160E+03  1.209600E+05  2.927052E+03
        65   8  1.085883E+05  1.029599E+05  2.101522E+05 -4.797233E+03  7.950307E+04  4.787437E+03
        65   9  1.443083E+05  1.322655E+05  1.863721E+05  9.799869E+03  3.808163E+04  3.985333E+03
        65  10 -9.395275E+05  1.785120E+03  4.302308E+04  2.755482E+03  2.775152E-09  4.611385E-09
        65  11 -9.752682E+05 -1.680501E+05 -6.046624E+04 -9.933246E+03 -2.043598E-09 -5.821522E-09
        65  12 -9.479252E+05 -1.411605E+05 -8.642254E+04 -7.461311E+03  7.608538E-09 -1.871224E-09
        65  13 -4.019155E+05  1.360543E+05  1.773977E+05 -7.380180E+02  3.660564E-09  1.398485E-09
        65  14 -4.334765E+05 -3.253488E+04  7.484811E+04 -7.366117E+03  3.194408E-10 -1.706765E-08
        65  15 -4.019446E+05 -4.436539E+03  4.998465E+04  1.165766E+03 -3.788300E-09 -2.082835E-09
        65  16  1.359589E+05  2.703017E+05  3.117505E+05 -4.235445E+03 -4.662986E-09 -1.573781E-09
        65  17  1.085816E+05  1.029582E+05  2.101403E+05 -4.797540E+03 -2.104876E-10 -2.796778E-09
        65  18  1.443067E+05  1.322651E+05  1.863694E+05  9.799747E+03 -2.487077E-09 -6.523624E-09
        65  19 -9.395120E+05  1.789008E+03  4.305024E+04  2.755765E+03 -1.200946E+05 -2.918848E+03
        65  20 -9.752614E+05 -1.680484E+05 -6.045439E+04 -9.932941E+03 -7.921103E+04 -4.784948E+03
        65  21 -9.479236E+05 -1.411601E+05 -8.641974E+04 -7.461188E+03 -3.836344E+04 -3.988080E+03
        65  22 -4.018999E+05  1.360582E+05  1.774250E+05 -7.377343E+02 -1.205271E+05 -2.922953E+03
        65  23 -4.334697E+05 -3.253316E+04  7.486000E+04 -7.365811E+03 -7.935700E+04 -4.786192E+03
        65  24 -4.019430E+05 -4.436130E+03  4.998743E+04  1.165889E+03 -3.822260E+04 -3.986708E+03
        65  25  1.359746E+05  2.703057E+05  3.117780E+05 -4.235160E+03 -1.209600E+05 -2.927052E+03
        65  26  1.085883E+05  1.029599E+05  2.101522E+05 -4.797233E+03 -7.950307E+04 -4.787437E+03
        65  27  1.443083E+05  1.322655E+05  1.863721E+05  9.799869E+03 -3.808163E+04 -3.985333E+03
        66   1 -1.011440E+06 -1.290038E+05 -1.082931E+05 -5.489577E+03  2.968238E+04  3.582183E+03
        66   2 -1.021906E+06 -1.553623E+05 -1.311050E+05 -6.292120E+03  1.962777E+04  4.019185E+03
        66   3 -1.012306E+06 -1.509317E+05 -1.374492E+05 -5.467268E+03  9.579589E+03  3.714304E+03
        66   4 -4.115074E+05  2.107840E+04  4.160728E+04 -2.597160E+03  2.978857E+04  3.582901E+03
        66   5 -4.215493E+05 -5.172141E+03  1.887046E+04 -3.312071E+03  1.965426E+04  4.019134E+03
        66   6 -4.115131E+05 -6.310244E+02  1.264757E+04 -2.399620E+03  9.526377E+03  3.713802E+03
        66   7  1.887516E+05  1.711334E+05  1.914805E+05  2.973046E+02  2.989486E+04  3.583620E+03
        66   8  1.791348E+05  1.449908E+05  1.688187E+05 -3.297349E+02  1.968077E+04  4.019083E+03
        66   9  1.896077E+05  1.496424E+05  1.627171E+05  6.705573E+02  9.473109E+03  3.713299E+03
        66  10 -1.011441E+06 -1.290040E+05 -1.082948E+05 -5.489663E+03 -1.138995E-09 -6.050313E-09
        66  11 -1.021907E+06 -1.553624E+05 -1.311057E+05 -6.292184E+03  7.331076E-09  6.266508E-09
        66  12 -1.012306E+06 -1.509318E+05 -1.374494E+05 -5.467297E+03  7.722200E-11 -3.725197E-09
        66  13 -4.115083E+05  2.107814E+04  4.160559E+04 -2.597246E+03  2.506983E-09 -4.275407E-09
        66  14 -4.215498E+05 -5.172262E+03  1.886971E+04 -3.312135E+03  9.778746E-12 -5.983289E-10
        66  15 -4.115132E+05 -6.310636E+02  1.264737E+04 -2.399648E+03  3.396815E-09 -4.420348E-09
        66  16  1.887506E+05  1.711331E+05  1.914788E+05  2.972184E+02  1.170792E-09  1.082628E-09
        66  17  1.791343E+05  1.449907E+05  1.688179E+05 -3.297986E+02  5.421730E-09 -1.070564E-08
        66  18  1.896076E+05  1.496424E+05  1.627169E+05  6.705290E+02  4.080426E-09  5.907730E-10
        66  19 -1.011440E+06 -1.290038E+05 -1.082931E+05 -5.489577E+03 -2.968238E+04 -3.582183E+03
        66  20 -1.021906E+06 -1.553623E+05 -1.311050E+05 -6.292120E+03 -1.962777E+04 -4.019185E+03
        66  21 -1.012306E+06 -1.509317E+05 -1.374492E+05 -5.467268E+03 -9.579589E+03 -3.714304E+03
        66  22 -4.115074E+05  2.107840E+04  4.160728E+04 -2.597160E+03 -2.978857E+04 -3.582901E+03
        66  23 -4.215493E+05 -5.172141E+03  1.887046E+04 -3.312071E+03 -1.965426E+04 -4.019134E+03
        66  24 -4.115131E+05 -6.310244E+02  1.264757E+04 -2.399620E+03 -9.526377E+03 -3.713802E+03
        66  25  1.887516E+05  1.711334E+05  1.914805E+05  2.973046E+02 -2.989486E+04 -3.583620E+03
        66  26  1.791348E+05  1.449908E+05  1.688187E+05 -3.297349E+02 -1.968077E+04 -4.019083E+03
        66  27  1.896077E+05  1.496424E+05  1.627171E+05  6.705573E+02 -9.473109E+03 -3.713299E+03
        67   1 -9.800678E+05 -1.386504E+05 -1.314153E+05 -7.690788E+03  7.306349E+03  3.575431E+03
        67   2 -9.821993E+05 -1.417178E+05 -1.362915E+05  3.057354E+00  4.931612E+03  3.596446E+03
        67   3 -9.729536E+05 -1.398807E+05 -1.364192E+05 -6.306420E+03  2.557241E+03  3.209451E+03
        67   4 -4.134287E+05  3.087305E+03  1.013766E+04 -5.944729E+03  7.333520E+03  3.575345E+03
        67   5 -4.191308E+05 -8.788019E+02  4.365414E+03  1.063402E+03  4.917729E+03  3.596206E+03
        67   6 -4.134451E+05  6.818307E+01  3.368859E+03 -5.931022E+03  2.502317E+03  3.209225E+03
        67   7  1.535018E+05  1.448008E+05  1.516664E+05 -4.197390E+03  7.360713E+03  3.575260E+03
        67   8  1.442254E+05  1.399363E+05  1.449984E+05  2.124523E+03  4.903832E+03  3.595966E+03
        67   9  1.463476E+05  1.399934E+05  1.431332E+05 -5.555343E+03  2.447343E+03  3.208999E+03
        67  10 -9.800679E+05 -1.386504E+05 -1.314155E+05 -7.690809E+03 -1.482116E-09  1.448551E-09
        67  11 -9.821994E+05 -1.417179E+05 -1.362916E+05  3.043062E+00 -3.677026E-09  2.388129E-09
        67  12 -9.729536E+05 -1.398807E+05 -1.364192E+05 -6.306426E+03  1.822508E-09 -6.362561E-10
        67  13 -4.134288E+05  3.087277E+03  1.013754E+04 -5.944750E+03 -3.093491E-09 -1.211104E-09
        67  14 -4.191308E+05 -8.788223E+02  4.365344E+03  1.063387E+03 -7.467589E-11 -1.381134E-09
        67  15 -4.134451E+05  6.817033E+01  3.368828E+03 -5.931029E+03  5.959006E-10  2.933327E-10
        67  16  1.535018E+05  1.448008E+05  1.516663E+05 -4.197411E+03  3.966242E-09 -2.094965E-09
        67  17  1.442254E+05  1.399363E+05  1.449983E+05  2.124508E+03  6.573298E-09 -3.918683E-09
        67  18  1.463476E+05  1.399934E+05  1.431332E+05 -5.555349E+03 -1.824415E-09 -2.190458E-09
        67  19 -9.800678E+05 -1.386504E+05 -1.314153E+05 -7.690788E+03 -7.306349E+03 -3.575431E+03
        67  20 -9.821993E+05 -1.417178E+05 -1.362915E+05  3.057353E+00 -4.931612E+03 -3.596446E+03
        67  21 -9.729536E+05 -1.398807E+05 -1.364192E+05 -6.306420E+03 -2.557241E+03 -3.209451E+03
        67  22 -4.134287E+05  3.087305E+03  1.013766E+04 -5.944729E+03 -7.333520E+03 -3.575345E+03
        67  23 -4.191308E+05 -8.788019E+02  4.365414E+03  1.063402E+03 -4.917729E+03 -3.596206E+03
        67  24 -4.134451E+05  6.818307E+01  3.368859E+03 -5.931022E+03 -2.502317E+03 -3.209225E+03
        67  25  1.535018E+05  1.448008E+05  1.516664E+05 -4.197390E+03 -7.360713E+03 -3.575260E+03
        67  26  1.442254E+05  1.399363E+05  1.449984E+05  2.124523E+03 -4.903832E+03 -3.595966E+03
        67  27  1.463476E+05  1.399934E+05  1.431332E+05 -5.555343E+03 -2.447343E+03 -3.208999E+03
        68   1 -8.575811E+05 -1.105317E+05 -1.082089E+05 -8.949402E+03  1.890399E+03  3.003254E+03
        68   2 -8.535412E+05 -1.091937E+05 -1.081785E+05  5.312530E+03  1.458168E+03  2.765255E+03
        68   3 -8.435117E+05 -1.070912E+05 -1.065233E+05 -7.998259E+03  1.024376E+03  2.248771E+03
        68   4 -4.146022E+05  2.560515E+02  2.428565E+03 -8.950441E+03  1.881840E+03  3.003120E+03
        68   5 -4.176122E+05 -1.660162E+02  7.101221E+02  4.835614E+03  1.422614E+03  2.765186E+03
        68   6 -4.146256E+05  1.827297E+02  6.352374E+02 -8.949849E+03  9.618315E+02  2.248853E+03
        68   7  2.855472E+04  1.110290E+05  1.130512E+05 -8.951475E+03  1.873274E+03  3.002987E+03
        68   8  1.848935E+04  1.088474E+05  1.095844E+05  4.358426E+03  1.387034E+03  2.765117E+03
        68   9  1.442741E+04  1.074428E+05  1.077799E+05 -9.901976E+03  8.992435E+02  2.248934E+03
        68  10 -8.575811E+05 -1.105317E+05 -1.082089E+05 -8.949406E+03  8.702113E-09  1.410706E-09
        68  11 -8.535413E+05 -1.091938E+05 -1.081785E+05  5.312527E+03  3.431567E-09  5.483420E-10
        68  12 -8.435117E+05 -1.070912E+05 -1.065233E+05 -7.998261E+03 -8.214246E-10  2.936724E-09
        68  13 -4.146022E+05  2.560408E+02  2.428541E+03 -8.950446E+03  1.483426E-10 -6.161298E-10
        68  14 -4.176122E+05 -1.660249E+02  7.101040E+02  4.835611E+03  4.230111E-09 -2.529628E-09
        68  15 -4.146256E+05  1.827240E+02  6.352261E+02 -8.949850E+03 -6.279553E-09 -5.590645E-10
        68  16  2.855471E+04  1.110289E+05  1.130512E+05 -8.951480E+03 -3.291682E-09 -1.923858E-09
        68  17  1.848935E+04  1.088474E+05  1.095844E+05  4.358423E+03 -5.237101E-09 -2.753974E-09
        68  18  1.442741E+04  1.074428E+05  1.077799E+05 -9.901977E+03  4.476622E-10 -1.957161E-09
        68  19 -8.575811E+05 -1.105317E+05 -1.082089E+05 -8.949402E+03 -1.890399E+03 -3.003254E+03
        68  20 -8.535412E+05 -1.091937E+05 -1.081785E+05  5.312530E+03 -1.458168E+03 -2.765255E+03
        68  21 -8.435117E+05 -1.070912E+05 -1.065233E+05 -7.998259E+03 -1.024376E+03 -2.248771E+03
        68  22 -4.146022E+05  2.560515E+02  2.428565E+03 -8.950441E+03 -1.881840E+03 -3.003120E+03
        68  23 -4.176122E+05 -1.660162E+02  7.101221E+02  4.835614E+03 -1.422614E+03 -2.765186E+03
        68  24 -4.146256E+05  1.827297E+02  6.352374E+02 -8.949849E+03 -9.618315E+02 -2.248853E+03
        68  25  2.855472E+04  1.110290E+05  1.130512E+05 -8.951475E+03 -1.873274E+03 -3.002987E+03
        68  26  1.848935E+04  1.088474E+05  1.095844E+05  4.358426E+03 -1.387034E+03 -2.765117E+03
        68  27  1.442741E+04  1.074428E+05  1.077799E+05 -9.901976E+03 -8.992435E+02 -2.248934E+03
        69   1 -6.642462E+05 -6.225171E+04 -6.199626E+04 -1.037585E+04  8.848689E+02  1.946025E+03
        69   2 -6.554852E+05 -5.978860E+04 -6.039918E+04  8.133798E+03  1.203810E+03  1.510993E+03
        69   3 -6.454729E+05 -5.763933E+04 -5.881408E+04 -1.009108E+04  1.521320E+03  9.367777E+02
        69   4 -4.156368E+05 -8.326379E+01  7.273429E+01 -1.098620E+04  8.501481E+02  1.946097E+03
        69   5 -4.162725E+05  3.584228E+01 -6.536854E+02  7.380345E+03  1.155839E+03  1.511159E+03
        69   6 -4.156539E+05 -1.561336E+02 -1.382722E+03 -1.098674E+04  1.460095E+03  9.370614E+02
        69   7 -1.669713E+05  6.208052E+04  6.213707E+04 -1.159675E+04  8.154134E+02  1.946169E+03
        69   8 -1.770078E+05  5.985597E+04  5.908749E+04  6.626657E+03  1.107850E+03  1.511325E+03
        69   9 -1.857870E+05  5.732308E+04  5.604465E+04 -1.188268E+04  1.398847E+03  9.373452E+02
        69  10 -6.642462E+05 -6.225172E+04 -6.199627E+04 -1.037585E+04  2.535891E-09  2.539995E-09
        69  11 -6.554852E+05 -5.978860E+04 -6.039919E+04  8.133796E+03  4.871753E-09  2.202449E-09
        69  12 -6.454729E+05 -5.763933E+04 -5.881409E+04 -1.009108E+04 -2.104696E-09  5.469294E-10
        69  13 -4.156368E+05 -8.326805E+01  7.272581E+01 -1.098620E+04 -7.470177E-10  3.678736E-09
        69  14 -4.162725E+05  3.583947E+01 -6.536922E+02  7.380344E+03 -1.275473E-08  4.605329E-09
        69  15 -4.156539E+05 -1.561352E+02 -1.382727E+03 -1.098674E+04 -1.810402E-09 -5.422797E-09
        69  16 -1.669713E+05  6.208052E+04  6.213706E+04 -1.159675E+04 -6.326787E-09  8.066158E-10
        69  17 -1.770078E+05  5.985596E+04  5.908748E+04  6.626656E+03 -5.297690E-09  1.930141E-09
        69  18 -1.857870E+05  5.732308E+04  5.604464E+04 -1.188268E+04  5.143897E-09  2.774793E-09
        69  19 -6.642462E+05 -6.225171E+04 -6.199626E+04 -1.037585E+04 -8.848689E+02 -1.946025E+03
        69  20 -6.554852E+05 -5.978860E+04 -6.039918E+04  8.133798E+03 -1.203810E+03 -1.510993E+03
        69  21 -6.454729E+05 -5.763933E+04 -5.881408E+04 -1.009108E+04 -1.521320E+03 -9.367777E+02
        69  22 -4.156368E+05 -8.326379E+01  7.273429E+01 -1.098620E+04 -8.501481E+02 -1.946097E+03
        69  23 -4.162725E+05  3.584228E+01 -6.536854E+02  7.380345E+03 -1.155839E+03 -1.511159E+03
        69  24 -4.156539E+05 -1.561336E+02 -1.382722E+03 -1.098674E+04 -1.460095E+03 -9.370614E+02
        69  25 -1.669713E+05  6.208052E+04  6.213707E+04 -1.159675E+04 -8.154134E+02 -1.946169E+03
        69  26 -1.770078E+05  5.985597E+04  5.908749E+04  6.626657E+03 -1.107850E+03 -1.511325E+03
        69  27 -1.857870E+05  5.732308E+04  5.604465E+04 -1.188268E+04 -1.398847E+03 -9.373452E+02
        70   1 -4.307760E+05 -3.532976E+03 -5.594437E+03 -1.175209E+04  1.810665E+03  5.667434E+02
        70   2 -4.197679E+05 -5.541050E+02 -4.472726E+03  8.341746E+03  3.555359E+03 -2.721969E+00
        70   3 -4.103022E+05 -7.486634E+02 -5.387034E+03 -1.160786E+04  5.300440E+03 -5.047900E+02
        70   4 -4.162572E+05  9.041720E+01 -1.999195E+03 -1.171766E+04  1.753678E+03  5.670401E+02
        70   5 -4.154859E+05  5.171610E+02 -3.402619E+03  8.297978E+03  3.504845E+03 -2.458701E+00
        70   6 -4.162584E+05 -2.230676E+03 -6.846603E+03 -1.172981E+04  5.256370E+03 -5.045604E+02
        70   7 -4.017382E+05  3.713794E+03  1.596031E+03 -1.168324E+04  1.696690E+03  5.673369E+02
        70   8 -4.112039E+05  1.588426E+03 -2.332513E+03  8.254210E+03  3.454331E+03 -2.195428E+00
        70   9 -4.222145E+05 -3.712692E+03 -8.306175E+03 -1.185175E+04  5.212301E+03 -5.043308E+02
        70  10 -4.307760E+05 -3.532977E+03 -5.594444E+03 -1.175209E+04 -4.582592E-09  5.308742E-09
        70  11 -4.197679E+05 -5.541084E+02 -4.472749E+03  8.341746E+03 -3.953498E-10 -2.410034E-09
        70  12 -4.103022E+05 -7.486712E+02 -5.387087E+03 -1.160786E+04 -3.067608E-09  1.863093E-09
        70  13 -4.162572E+05  9.041603E+01 -1.999202E+03 -1.171766E+04 -1.523076E-09 -4.933794E-09
        70  14 -4.154859E+05  5.171577E+02 -3.402642E+03  8.297978E+03 -2.553181E-10 -1.055144E-08
        70  15 -4.162584E+05 -2.230684E+03 -6.846656E+03 -1.172980E+04  9.782014E-09  2.792368E-09
        70  16 -4.017382E+05  3.713793E+03  1.596025E+03 -1.168324E+04  6.559292E-09  6.605096E-09
        70  17 -4.112039E+05  1.588422E+03 -2.332535E+03  8.254210E+03 -2.438797E-09 -1.039759E-08
        70  18 -4.222145E+05 -3.712699E+03 -8.306226E+03 -1.185175E+04  4.175871E-09 -2.127805E-09
        70  19 -4.307760E+05 -3.532976E+03 -5.594437E+03 -1.175209E+04 -1.810665E+03 -5.667434E+02
        70  20 -4.197679E+05 -5.541050E+02 -4.472726E+03  8.341746E+03 -3.555359E+03  2.721969E+00
        70  21 -4.103022E+05 -7.486634E+02 -5.387034E+03 -1.160786E+04 -5.300440E+03  5.047900E+02
        70  22 -4.162572E+05  9.041720E+01 -1.999195E+03 -1.171766E+04 -1.753678E+03 -5.670401E+02
        70  23 -4.154859E+05  5.171610E+02 -3.402619E+03  8.297978E+03 -3.504845E+03  2.458701E+00
        70  24 -4.162584E+05 -2.230676E+03 -6.846603E+03 -1.172981E+04 -5.256370E+03  5.045604E+02
        70  25 -4.017382E+05  3.713794E+03  1.596031E+03 -1.168324E+04 -1.696690E+03 -5.673369E+02
        70  26 -4.112039E+05  1.588426E+03 -2.332513E+03  8.254210E+03 -3.454331E+03  2.195428E+00
        70  27 -4.222145E+05 -3.712692E+03 -8.306175E+03 -1.185175E+04 -5.212301E+03  5.043308E+02
        71   1 -1.950935E+05  5.614656E+04  4.700296E+04 -1.237624E+04  6.720450E+03 -9.342292E+02
        71   2 -1.831603E+05  6.130238E+04  4.397591E+04  6.927815E+03  1.388854E+04 -1.596524E+03
        71   3 -1.761683E+05  4.542892E+04  3.127284E+04 -1.076161E+04  2.105982E+04 -1.676653E+03
        71   4 -4.170323E+05  6.431876E+02 -8.446193E+03 -1.102335E+04  6.630723E+03 -9.337920E+02
        71   5 -4.145494E+05  3.454336E+03 -1.379445E+04  7.445826E+03  1.385232E+04 -1.596410E+03
        71   6 -4.170199E+05 -1.477767E+04 -2.885860E+04 -1.107935E+04  2.107699E+04 -1.676786E+03
        71   7 -6.389265E+05 -5.486390E+04 -6.389907E+04 -9.670895E+03  6.541027E+03 -9.333552E+02
        71   8 -6.458900E+05 -5.439775E+04 -7.156884E+04  7.963696E+03  1.381611E+04 -1.596295E+03
        71   9 -6.578189E+05 -7.498863E+04 -8.899442E+04 -1.139692E+04  2.109416E+04 -1.676919E+03
        71  10 -1.950936E+05  5.614655E+04  4.700288E+04 -1.237623E+04 -8.759879E-09 -3.754481E-09
        71  11 -1.831605E+05  6.130233E+04  4.397554E+04  6.927833E+03  8.026621E-10  1.984734E-09
        71  12 -1.761687E+05  4.542879E+04  3.127200E+04 -1.076158E+04  2.667030E-09  1.148927E-09
        71  13 -4.170324E+05  6.431748E+02 -8.446277E+03 -1.102335E+04 -1.322336E-09  4.040804E-09
        71  14 -4.145496E+05  3.454281E+03 -1.379481E+04  7.445844E+03  6.398432E-09  1.531257E-09
        71  15 -4.170204E+05 -1.477779E+04 -2.885944E+04 -1.107932E+04  9.900354E-09  1.278264E-09
        71  16 -6.389265E+05 -5.486392E+04 -6.389915E+04 -9.670890E+03  7.147511E-09  5.402001E-09
        71  17 -6.458902E+05 -5.439781E+04 -7.156921E+04  7.963714E+03 -3.505589E-09  6.446631E-09
        71  18 -6.578194E+05 -7.498875E+04 -8.899526E+04 -1.139690E+04  4.248852E-09 -1.993604E-09
        71  19 -1.950935E+05  5.614656E+04  4.700296E+04 -1.237624E+04 -6.720450E+03  9.342292E+02
        71  20 -1.831603E+05  6.130238E+04  4.397591E+04  6.927815E+03 -1.388854E+04  1.596524E+03
        71  21 -1.761683E+05  4.542892E+04  3.127284E+04 -1.076161E+04 -2.105982E+04  1.676653E+03
        71  22 -4.170323E+05  6.431876E+02 -8.446193E+03 -1.102335E+04 -6.630723E+03  9.337920E+02
        71  23 -4.145494E+05  3.454336E+03 -1.379445E+04  7.445826E+03 -1.385232E+04  1.596410E+03
        71  24 -4.170199E+05 -1.477767E+04 -2.885860E+04 -1.107935E+04 -2.107699E+04  1.676786E+03
        71  25 -6.389265E+05 -5.486390E+04 -6.389907E+04 -9.670895E+03 -6.541027E+03  9.333552E+02
        71  26 -6.458900E+05 -5.439775E+04 -7.156884E+04  7.963696E+03 -1.381611E+04  1.596295E+03
        71  27 -6.578189E+05 -7.498863E+04 -8.899442E+04 -1.139692E+04 -2.109416E+04  1.676919E+03
        72   1  3.014579E+01  1.090922E+05  7.107296E+04 -1.310200E+04  2.701823E+04 -2.379953E+03
        72   2  2.327191E+04  1.299626E+05  5.400341E+04  6.005195E+03  5.583080E+04 -3.239278E+03
        72   3  1.430367E+04  1.465474E+04 -1.474436E+04 -2.716997E+03  8.464698E+04 -1.148593E+03
        72   4 -4.231300E+05  3.281402E+03 -3.460277E+04 -8.978458E+03  2.678959E+04 -2.379234E+03
        72   5 -4.069857E+05  2.242337E+04 -5.338588E+04  4.919376E+03  5.586768E+04 -3.239618E+03
        72   6 -4.231252E+05 -9.471097E+04 -1.240580E+05 -9.013290E+03  8.494901E+04 -1.149590E+03
        72   7 -8.461278E+05 -1.025428E+05 -1.402920E+05 -4.857601E+03  2.656110E+04 -2.378519E+03
        72   8 -8.370754E+05 -8.512980E+04 -1.607891E+05  3.834375E+03  5.590451E+04 -3.239958E+03
        72   9 -8.603805E+05 -2.040910E+05 -2.333862E+05 -1.530514E+04  8.525082E+04 -1.150594E+03
        72  10  2.936041E+01  1.090920E+05  7.107158E+04 -1.310195E+04 -1.673354E-11  5.987890E-10
        72  11  2.326856E+04  1.299617E+05  5.399754E+04  6.005341E+03  1.404532E-10 -1.096811E-10
        72  12  1.429598E+04  1.465281E+04 -1.475783E+04 -2.716918E+03 -5.114121E-10 -1.701399E-10
        72  13 -4.231308E+05  3.281203E+03 -3.460413E+04 -8.978406E+03 -5.047430E-10  4.269454E-09
        72  14 -4.069890E+05  2.242252E+04 -5.339176E+04  4.919522E+03  6.462353E-09 -7.589717E-10
        72  15 -4.231329E+05 -9.471291E+04 -1.240716E+05 -9.013212E+03 -5.029220E-10  6.394116E-11
        72  16 -8.461285E+05 -1.025430E+05 -1.402933E+05 -4.857550E+03  3.992937E-10 -2.819891E-09
        72  17 -8.370788E+05 -8.513065E+04 -1.607950E+05  3.834521E+03  2.361931E-09  5.275163E-11
        72  18 -8.603883E+05 -2.040929E+05 -2.333998E+05 -1.530506E+04 -3.872609E-09 -2.615922E-10
        72  19  3.014579E+01  1.090922E+05  7.107296E+04 -1.310200E+04 -2.701823E+04  2.379953E+03
        72  20  2.327191E+04  1.299626E+05  5.400341E+04  6.005195E+03 -5.583080E+04  3.239278E+03
        72  21  1.430367E+04  1.465474E+04 -1.474436E+04 -2.716997E+03 -8.464698E+04  1.148593E+03
        72  22 -4.231300E+05  3.281402E+03 -3.460277E+04 -8.978458E+03 -2.678959E+04  2.379234E+03
        72  23 -4.069857E+05  2.242337E+04 -5.338588E+04  4.919376E+03 -5.586768E+04  3.239618E+03
        72  24 -4.231252E+05 -9.471097E+04 -1.240580E+05 -9.013290E+03 -8.494901E+04  1.149590E+03
        72  25 -8.461278E+05 -1.025428E+05 -1.402920E+05 -4.857601E+03 -2.656110E+04  2.378519E+03
        72  26 -8.370754E+05 -8.512980E+04 -1.607891E+05  3.834375E+03 -5.590451E+04  3.239958E+03
        72  27 -8.603805E+05 -2.040910E+05 -2.333862E+05 -1.530514E+04 -8.525082E+04  1.150594E+03
        73   1  2.870920E+06  1.016227E+07  2.735169E+06 -2.012258E+06  1.255777E+05  5.633999E+05
        73   2  2.173896E+06  7.780720E+06  1.900355E+06 -1.624058E+06  4.054300E+05  1.693138E+05
        73   3  1.624206E+06  5.477919E+06  1.355620E+06 -1.927656E+06  3.874310E+05 -2.278266E+05
        73   4  1.099282E+05 -1.013949E+06  6.578026E+04 -1.828146E+06  1.353227E+05  3.094741E+04
        73   5  4.760259E+04 -1.012287E+06  4.270665E+04 -1.482542E+06  4.089381E+05  1.443934E+04
        73   6  6.873969E+04 -1.001218E+06  5.051953E+04 -1.829146E+06  3.828311E+05 -6.684368E+03
        73   7 -2.659872E+06 -1.207615E+07 -2.611364E+06 -1.646672E+06  1.448554E+05 -4.920790E+05
        73   8 -2.083632E+06 -9.732809E+06 -1.819241E+06 -1.342615E+06  4.124057E+05 -1.382954E+05
        73   9 -1.489280E+06 -7.440426E+06 -1.256555E+06 -1.731409E+06  3.782734E+05  2.122095E+05
        73  10  2.870819E+06  1.016193E+07  2.734551E+06 -2.012315E+06  9.211526E-09  1.440607E-08
        73  11  2.173712E+06  7.780645E+06  1.899992E+06 -1.624113E+06  5.354019E-09 -1.026310E-08
        73  12  1.624032E+06  5.477824E+06  1.355242E+06 -1.927586E+06  1.697906E-09 -2.489612E-08
        73  13  1.099083E+05 -1.013955E+06  6.574400E+04 -1.828149E+06  1.264652E-08  7.725292E-09
        73  14  4.742304E+04 -1.012332E+06  4.239210E+04 -1.482547E+06  9.529566E-09 -9.718052E-09
        73  15  6.858241E+04 -1.001257E+06  5.024423E+04 -1.829144E+06  4.768127E-09  4.185409E-09
        73  16 -2.659961E+06 -1.207641E+07 -2.611866E+06 -1.646614E+06  1.400252E-09 -6.903571E-09
        73  17 -2.083820E+06 -9.732875E+06 -1.819596E+06 -1.342569E+06  2.161181E-08  1.295951E-09
        73  18 -1.489446E+06 -7.440514E+06 -1.256911E+06 -1.731474E+06  2.166338E-09  1.095304E-08
        73  19  2.870920E+06  1.016227E+07  2.735169E+06 -2.012258E+06 -1.255777E+05 -5.633999E+05
        73  20  2.173896E+06  7.780720E+06  1.900355E+06 -1.624058E+06 -4.054300E+05 -1.693138E+05
        73  21  1.624206E+06  5.477919E+06  1.355620E+06 -1.927656E+06 -3.874310E+05  2.278266E+05
        73  22  1.099282E+05 -1.013949E+06  6.578026E+04 -1.828146E+06 -1.353227E+05 -3.094741E+04
        73  23  4.760259E+04 -1.012287E+06  4.270665E+04 -1.482542E+06 -4.089381E+05 -1.443934E+04
        73  24  6.873969E+04 -1.001218E+06  5.051953E+04 -1.829146E+06 -3.828311E+05  6.684368E+03
        73  25 -2.659872E+06 -1.207615E+07 -2.611364E+06 -1.646672E+06 -1.448554E+05  4.920790E+05
        73  26 -2.083632E+06 -9.732809E+06 -1.819241E+06 -1.342615E+06 -4.124057E+05  1.382954E+05
        73  27 -1.489280E+06 -7.440426E+06 -1.256555E+06 -1.731409E+06 -3.782734E+05 -2.122095E+05
        74   1  1.231638E+06  3.804629E+06  1.028218E+06 -1.917834E+06  2.866063E+05 -1.740637E+05
        74   2  6.578380E+05  1.473602E+06  5.772804E+05 -1.518063E+06  1.601646E+05 -2.284961E+05
        74   3  1.365276E+05 -8.664655E+05  1.659278E+05 -1.827505E+06  2.662461E+04 -2.832142E+05
        74   4  7.541069E+04 -1.002996E+06  5.758520E+04 -1.832762E+06  2.831926E+05 -1.852641E+04
        74   5  6.548780E+04 -9.932131E+05  8.634252E+04 -1.477816E+06  1.563737E+05 -6.419371E+04
        74   6  1.068403E+05 -9.993017E+05  1.486844E+05 -1.832121E+06  2.243139E+04 -1.103360E+05
        74   7 -1.082224E+06 -5.788612E+06 -9.141498E+05 -1.748207E+06  2.798061E+05  1.358351E+05
        74   8 -5.272179E+05 -3.454158E+06 -4.047981E+05 -1.437694E+06  1.525955E+05  9.947043E+04
        74   9  7.716850E+04 -1.132056E+06  1.315534E+05 -1.836736E+06  1.823503E+04  6.250689E+04
        74  10  1.231542E+06  3.804575E+06  1.028008E+06 -1.917794E+06 -8.417989E-10 -1.349757E-08
        74  11  6.577966E+05  1.473539E+06  5.771348E+05 -1.518034E+06  1.057803E-08 -1.243256E-08
        74  12  1.365053E+05 -8.665518E+05  1.657757E+05 -1.827499E+06  1.408572E-09  9.645485E-09
        74  13  7.532456E+04 -1.003018E+06  5.743401E+04 -1.832758E+06 -4.680489E-09  1.085877E-08
        74  14  6.546049E+04 -9.932241E+05  8.628896E+04 -1.477808E+06 -2.173418E-08 -1.283771E-08
        74  15  1.068365E+05 -9.993149E+05  1.486606E+05 -1.832119E+06 -2.447793E-10  4.097133E-09
        74  16 -1.082314E+06 -5.788653E+06 -9.143323E+05 -1.748237E+06 -5.828545E-09  2.354758E-08
        74  17 -5.272456E+05 -3.454175E+06 -4.048607E+05 -1.437706E+06 -7.224826E-09 -6.176070E-09
        74  18  7.716709E+04 -1.132060E+06  1.315454E+05 -1.836737E+06  5.152466E-09 -2.656075E-08
        74  19  1.231638E+06  3.804629E+06  1.028218E+06 -1.917834E+06 -2.866063E+05  1.740637E+05
        74  20  6.578380E+05  1.473602E+06  5.772804E+05 -1.518063E+06 -1.601646E+05  2.284961E+05
        74  21  1.365276E+05 -8.664655E+05  1.659278E+05 -1.827505E+06 -2.662461E+04  2.832142E+05
        74  22  7.541069E+04 -1.002996E+06  5.758520E+04 -1.832762E+06 -2.831926E+05  1.852641E+04
        74  23  6.548780E+04 -9.932131E+05  8.634252E+04 -1.477816E+06 -1.563737E+05  6.419371E+04
        74  24  1.068403E+05 -9.993017E+05  1.486844E+05 -1.832121E+06 -2.243139E+04  1.103360E+05
        74  25 -1.082224E+06 -5.788612E+06 -9.141498E+05 -1.748207E+06 -2.798061E+05 -1.358351E+05
        74  26 -5.272179E+05 -3.454158E+06 -4.047981E+05 -1.437694E+06 -1.525955E+05 -9.947043E+04
        74  27  7.716850E+04 -1.132056E+06  1.315534E+05 -1.836736E+06 -1.823503E+04 -6.250689E+04
        75   1 -2.974162E+05 -2.499129E+06 -1.307278E+05 -1.873201E+06 -6.863527E+04 -3.466534E+05
        75   2 -8.187188E+05 -4.858668E+06 -5.068194E+05 -1.280872E+06 -1.499121E+05 -3.000774E+05
        75   3 -8.818979E+05 -7.135147E+06 -8.064488E+05 -1.384263E+06 -5.546774E+04 -2.501880E+05
        75   4  6.961064E+04 -9.708606E+05  1.887162E+05 -1.831712E+06 -7.368929E+04 -1.386063E+05
        75   5  1.252744E+05 -1.030689E+06  3.277136E+05 -1.477728E+06 -1.495256E+05 -3.110656E+05
        75   6  6.756531E+05 -9.758919E+05  6.948520E+05 -1.818351E+06 -5.017053E+04 -4.800730E+05
        75   7  4.365227E+05  5.597276E+05  5.081968E+05 -1.790104E+06 -7.870818E+04  6.994683E+04
        75   8  1.068396E+06  2.811157E+06  1.161375E+06 -1.675729E+06 -1.491338E+05 -3.221166E+05
        75   9  2.230994E+06  5.218674E+06  2.193650E+06 -2.256564E+06 -4.457949E+04 -7.122344E+05
        75  10 -2.974538E+05 -2.499260E+06 -1.309637E+05 -1.873220E+06  3.840089E-09  1.195620E-08
        75  11 -8.187675E+05 -4.858771E+06 -5.070325E+05 -1.280908E+06  1.240855E-08 -9.380341E-09
        75  12 -8.819183E+05 -7.135216E+06 -8.065737E+05 -1.384275E+06  2.824590E-09 -1.368416E-08
        75  13  6.959960E+04 -9.708827E+05  1.886697E+05 -1.831720E+06  8.546436E-09  1.110275E-08
        75  14  1.252242E+05 -1.030799E+06  3.274890E+05 -1.477765E+06 -1.881254E-08 -1.318251E-08
        75  15  6.755883E+05 -9.761403E+05  6.944131E+05 -1.818370E+06  4.398909E-09  3.949756E-09
        75  16  4.365148E+05  5.597208E+05  5.081761E+05 -1.790100E+06 -3.293314E-09 -4.226312E-10
        75  17  1.068345E+06  2.811040E+06  1.161139E+06 -1.675768E+06  1.095050E-08 -6.848360E-09
        75  18  2.230857E+06  5.218133E+06  2.192700E+06 -2.256590E+06  7.239444E-09 -1.074672E-09
        75  19 -2.974162E+05 -2.499129E+06 -1.307278E+05 -1.873201E+06  6.863527E+04  3.466534E+05
        75  20 -8.187188E+05 -4.858668E+06 -5.068194E+05 -1.280872E+06  1.499121E+05  3.000774E+05
        75  21 -8.818979E+05 -7.135147E+06 -8.064488E+05 -1.384263E+06  5.546774E+04  2.501880E+05
        75  22  6.961064E+04 -9.708606E+05  1.887162E+05 -1.831712E+06  7.368929E+04  1.386063E+05
        75  23  1.252744E+05 -1.030689E+06  3.277136E+05 -1.477728E+06  1.495256E+05  3.110656E+05
        75  24  6.756531E+05 -9.758919E+05  6.948520E+05 -1.818351E+06  5.017053E+04  4.800730E+05
        75  25  4.365227E+05  5.597276E+05  5.081968E+05 -1.790104E+06  7.870818E+04 -6.994683E+04
        75  26  1.068396E+06  2.811157E+06  1.161375E+06 -1.675729E+06  1.491338E+05  3.221166E+05
        75  27  2.230994E+06  5.218674E+06  2.193650E+06 -2.256564E+06  4.457949E+04  7.122344E+05
        76   1 -8.581754E+06 -3.499380E+06 -2.083575E+06 -2.882874E+06 -4.454459E+05 -1.782735E+04
        76   2 -8.033840E+06 -3.351039E+06 -1.750553E+06 -2.651654E+06 -3.106668E+05  3.881747E+05
        76   3 -7.346658E+06 -3.235470E+06 -1.579887E+06 -2.588916E+06 -7.928623E+04  5.483321E+05
        76   4  2.268141E+05 -2.065357E+05  2.261511E+05 -5.057987E+05  9.068014E+04  1.909120E+05
        76   5  1.149871E+05 -3.094470E+05  9.938499E+04 -3.864899E+05 -7.991873E+04  4.769115E+05
        76   6  2.031231E+05 -3.846058E+05  5.519843E+04 -4.355338E+05 -1.548562E+05  5.186385E+05
        76   7  9.111782E+06  3.090882E+06  2.530500E+06  1.901833E+06  6.352859E+05  4.027279E+05
        76   8  8.331345E+06  2.737430E+06  1.945220E+06  1.906148E+06  1.541542E+05  5.669038E+05
        76   9  7.811570E+06  2.471631E+06  1.686994E+06  1.742396E+06 -2.314412E+05  4.885534E+05
        76  10 -8.581970E+06 -3.499434E+06 -2.083953E+06 -2.882880E+06  1.513389E-09 -8.696403E-09
        76  11 -8.033984E+06 -3.351226E+06 -1.751018E+06 -2.651557E+06 -4.011574E-09 -1.671366E-08
        76  12 -7.346745E+06 -3.235795E+06 -1.580464E+06 -2.588881E+06 -5.270833E-09 -2.070624E-09
        76  13  2.267954E+05 -2.065771E+05  2.260670E+05 -5.058127E+05  3.731975E-09 -7.168975E-11
        76  14  1.149192E+05 -3.096930E+05  9.894547E+04 -3.864593E+05  7.176403E-09 -2.204772E-08
        76  15  2.030251E+05 -3.849011E+05  5.464783E+04 -4.354691E+05  8.996940E-09  9.230705E-09
        76  16  9.111311E+06  3.090603E+06  2.529451E+06  1.901629E+06 -2.223810E-09  5.307781E-09
        76  17  8.331233E+06  2.737080E+06  1.944574E+06  1.906078E+06 -3.407526E-09  4.066396E-09
        76  18  7.811448E+06  2.471360E+06  1.686445E+06  1.742487E+06  4.641329E-09  1.654572E-08
        76  19 -8.581754E+06 -3.499380E+06 -2.083575E+06 -2.882874E+06  4.454459E+05  1.782735E+04
        76  20 -8.033840E+06 -3.351039E+06 -1.750553E+06 -2.651654E+06  3.106668E+05 -3.881747E+05
        76  21 -7.346658E+06 -3.235470E+06 -1.579887E+06 -2.588916E+06  7.928623E+04 -5.483321E+05
        76  22  2.268141E+05 -2.065357E+05  2.261511E+05 -5.057987E+05 -9.068014E+04 -1.909120E+05
        76  23  1.149871E+05 -3.094470E+05  9.938499E+04 -3.864899E+05  7.991873E+04 -4.769115E+05
        76  24  2.031231E+05 -3.846058E+05  5.519843E+04 -4.355338E+05  1.548562E+05 -5.186385E+05
        76  25  9.111782E+06  3.090882E+06  2.530500E+06  1.901833E+06 -6.352859E+05 -4.027279E+05
        76  26  8.331345E+06  2.737430E+06  1.945220E+06  1.906148E+06 -1.541542E+05 -5.669038E+05
        76  27  7.811570E+06  2.471631E+06  1.686994E+06  1.742396E+06  2.314412E+05 -4.885534E+05
        77   1 -6.950260E+06 -3.046908E+06 -1.504661E+06 -2.456045E+06 -1.297558E+05  4.919903E+05
        77   2 -6.436948E+06 -2.757518E+06 -1.382615E+06 -2.212863E+06 -1.134628E+05  4.718818E+05
        77   3 -5.781840E+06 -2.593967E+06 -1.262260E+06 -2.115188E+06 -9.198905E+04  4.375023E+05
        77   4  1.985344E+05 -3.759648E+05  4.225843E+04 -4.460902E+05 -1.490524E+05  4.840271E+05
        77   5  1.273715E+05 -3.147914E+05  2.113839E+04 -3.727606E+05 -1.505772E+05  4.572338E+05
        77   6  2.011427E+05 -3.758417E+05  1.247634E+04 -4.449695E+05 -1.469590E+05  4.162480E+05
        77   7  7.399750E+06  2.299458E+06  1.586190E+06  1.585415E+06 -1.685982E+05  4.759736E+05
        77   8  6.735929E+06  2.131689E+06  1.422438E+06  1.485443E+06 -1.881241E+05  4.424246E+05
        77   9  6.220829E+06  1.845352E+06  1.285193E+06  1.240201E+06 -2.025084E+05  3.947764E+05
        77  10 -6.950342E+06 -3.047173E+06 -1.505148E+06 -2.455994E+06  8.729991E-09  8.154918E-09
        77  11 -6.437022E+06 -2.757761E+06 -1.383058E+06 -2.212820E+06  2.614393E-09  9.015452E-09
        77  12 -5.781900E+06 -2.594175E+06 -1.262636E+06 -2.115156E+06 -2.757571E-09  5.426094E-09
        77  13  1.984477E+05 -3.762224E+05  4.177639E+04 -4.460322E+05  6.785041E-09  1.369847E-09
        77  14  1.272911E+05 -3.150220E+05  2.070291E+04 -3.727052E+05 -8.047179E-09  3.721269E-09
        77  15  2.010730E+05 -3.760335E+05  1.211017E+04 -4.449203E+05 -9.866787E-10  2.281744E-10
        77  16  7.399659E+06  2.299207E+06  1.585711E+06  1.585479E+06 -6.459764E-09  8.197178E-09
        77  17  6.735838E+06  2.131470E+06  1.422004E+06  1.485510E+06 -7.994923E-09 -1.647374E-09
        77  18  6.220743E+06  1.845173E+06  1.284823E+06  1.240265E+06 -2.661447E-09 -1.934043E-09
        77  19 -6.950260E+06 -3.046908E+06 -1.504661E+06 -2.456045E+06  1.297558E+05 -4.919903E+05
        77  20 -6.436948E+06 -2.757518E+06 -1.382615E+06 -2.212863E+06  1.134628E+05 -4.718818E+05
        77  21 -5.781840E+06 -2.593967E+06 -1.262260E+06 -2.115188E+06  9.198905E+04 -4.375023E+05
        77  22  1.985344E+05 -3.759648E+05  4.225843E+04 -4.460902E+05  1.490524E+05 -4.840271E+05
        77  23  1.273715E+05 -3.147914E+05  2.113839E+04 -3.727606E+05  1.505772E+05 -4.572338E+05
        77  24  2.011427E+05 -3.758417E+05  1.247634E+04 -4.449695E+05  1.469590E+05 -4.162480E+05
        77  25  7.399750E+06  2.299458E+06  1.586190E+06  1.585415E+06  1.685982E+05 -4.759736E+05
        77  26  6.735929E+06  2.131689E+06  1.422438E+06  1.485443E+06  1.881241E+05 -4.424246E+05
        77  27  6.220829E+06  1.845352E+06  1.285193E+06  1.240201E+06  2.025084E+05 -3.947764E+05
        78   1 -5.368395E+06 -2.434248E+06 -1.173316E+06 -1.996684E+06 -8.712473E+04  4.101108E+05
        78   2 -4.848743E+06 -2.144665E+06 -1.053031E+06 -1.755350E+06 -7.212239E+04  3.677115E+05
        78   3 -4.191762E+06 -1.984668E+06 -9.302628E+05 -1.661422E+06 -5.703199E+04  3.243955E+05
        78   4  2.008281E+05 -3.746713E+05  9.144273E+03 -4.459925E+05 -1.389316E+05  3.901619E+05
        78   5  1.336554E+05 -3.072198E+05  4.398194E+03 -3.728645E+05 -1.250646E+05  3.474848E+05
        78   6  2.036047E+05 -3.690961E+05  2.980193E+03 -4.472144E+05 -1.111100E+05  3.038960E+05
        78   7  5.801932E+06  1.687571E+06  1.189890E+06  1.117632E+06 -1.912468E+05  3.700229E+05
        78   8  5.141530E+06  1.532321E+06  1.060455E+06  1.019915E+06 -1.784701E+05  3.270849E+05
        78   9  4.618755E+06  1.248071E+06  9.351528E+05  7.749523E+05 -1.656043E+05  2.832414E+05
        78  10 -5.368448E+06 -2.434430E+06 -1.173646E+06 -1.996655E+06  2.762216E-09  1.103953E-10
        78  11 -4.848785E+06 -2.144812E+06 -1.053295E+06 -1.755328E+06  4.112100E-09  2.135991E-09
        78  12 -4.191793E+06 -1.984782E+06 -9.304668E+05 -1.661407E+06  2.951353E-09  3.128978E-09
        78  13  2.007665E+05 -3.748399E+05  8.821946E+03 -4.459489E+05  3.533766E-09 -1.542219E-09
        78  14  1.336062E+05 -3.073536E+05  4.141907E+03 -3.728295E+05 -2.643469E-10  4.025507E-09
        78  15  2.035666E+05 -3.691986E+05  2.783455E+03 -4.471873E+05  7.367048E-09  6.253953E-09
        78  16  5.801856E+06  1.687414E+06  1.189565E+06  1.117688E+06  8.939777E-09 -7.465741E-10
        78  17  5.141467E+06  1.532198E+06  1.060194E+06  1.019962E+06  8.378974E-09  6.296556E-09
        78  18  4.618704E+06  1.247977E+06  9.349506E+05  7.749900E+05  1.018096E-08  6.129758E-09
        78  19 -5.368395E+06 -2.434248E+06 -1.173316E+06 -1.996684E+06  8.712473E+04 -4.101108E+05
        78  20 -4.848743E+06 -2.144665E+06 -1.053031E+06 -1.755350E+06  7.212239E+04 -3.677115E+05
        78  21 -4.191762E+06 -1.984668E+06 -9.302628E+05 -1.661422E+06  5.703199E+04 -3.243955E+05
        78  22  2.008281E+05 -3.746713E+05  9.144273E+03 -4.459925E+05  1.389316E+05 -3.901619E+05
        78  23  1.336554E+05 -3.072198E+05  4.398194E+03 -3.728645E+05  1.250646E+05 -3.474848E+05
        78  24  2.036047E+05 -3.690961E+05  2.980193E+03 -4.472144E+05  1.111100E+05 -3.038960E+05
        78  25  5.801932E+06  1.687571E+06  1.189890E+06  1.117632E+06  1.912468E+05 -3.700229E+05
        78  26  5.141530E+06  1.532321E+06  1.060455E+06  1.019915E+06  1.784701E+05 -3.270849E+05
        78  27  4.618755E+06  1.248071E+06  9.351528E+05  7.749523E+05  1.656043E+05 -2.832414E+05
        79   1 -3.774581E+06 -1.828164E+06 -8.386126E+05 -1.545181E+06 -4.809215E+04  2.989902E+05
        79   2 -3.248882E+06 -1.542157E+06 -7.157239E+05 -1.305660E+06 -3.215683E+04  2.556942E+05
        79   3 -2.589620E+06 -1.385995E+06 -5.918332E+05 -1.215320E+06 -1.635477E+04  2.122823E+05
        79   4  2.036064E+05 -3.684130E+05  2.080949E+03 -4.475760E+05 -1.020477E+05  2.786150E+05
        79   5  1.379558E+05 -3.015390E+05  9.166397E+02 -3.733826E+05 -8.624976E+04  2.353719E+05
        79   6  2.054876E+05 -3.644758E+05  8.312326E+02 -4.484663E+05 -7.058504E+04  1.920142E+05
        79   7  4.197976E+06  1.092631E+06  8.419014E+05  6.565308E+05 -1.563781E+05  2.581001E+05
        79   8  3.536531E+06  9.400129E+05  7.169313E+05  5.635949E+05 -1.406624E+05  2.149305E+05
        79   9  3.008599E+06  6.576779E+05  5.930766E+05  3.215790E+05 -1.250798E+05  1.716476E+05
        79  10 -3.774607E+06 -1.828260E+06 -8.387850E+05 -1.545170E+06 -1.494987E-08 -1.364192E-09
        79  11 -3.248900E+06 -1.542228E+06 -7.158487E+05 -1.305653E+06 -1.829154E-08 -1.942983E-09
        79  12 -2.589632E+06 -1.386044E+06 -5.919185E+05 -1.215317E+06 -1.077191E-08  2.536551E-09
        79  13  2.035744E+05 -3.684991E+05  1.915513E+03 -4.475531E+05  6.562571E-09  3.677003E-09
        79  14  1.379329E+05 -3.016005E+05  7.985600E+02 -3.733663E+05  2.493130E-09 -4.232571E-09
        79  15  2.054724E+05 -3.645167E+05  7.525900E+02 -4.484554E+05  5.237257E-09 -1.416439E-08
        79  16  4.197932E+06  1.092553E+06  8.417303E+05  6.565632E+05  1.704705E-08  1.134721E-08
        79  17  3.536497E+06  9.399580E+05  7.168074E+05  5.636192E+05  1.957453E-08  1.235227E-08
        79  18  3.008574E+06  6.576420E+05  5.929920E+05  3.215963E+05 -3.485648E-10  9.478974E-09
        79  19 -3.774581E+06 -1.828164E+06 -8.386126E+05 -1.545181E+06  4.809215E+04 -2.989902E+05
        79  20 -3.248882E+06 -1.542157E+06 -7.157239E+05 -1.305660E+06  3.215683E+04 -2.556942E+05
        79  21 -2.589620E+06 -1.385995E+06 -5.918332E+05 -1.215320E+06  1.635477E+04 -2.122823E+05
        79  22  2.036064E+05 -3.684130E+05  2.080949E+03 -4.475760E+05  1.020477E+05 -2.786150E+05
        79  23  1.379558E+05 -3.015390E+05  9.166397E+02 -3.733826E+05  8.624976E+04 -2.353719E+05
        79  24  2.054876E+05 -3.644758E+05  8.312326E+02 -4.484663E+05  7.058504E+04 -1.920142E+05
        79  25  4.197976E+06  1.092631E+06  8.419014E+05  6.565308E+05  1.563781E+05 -2.581001E+05
        79  26  3.536531E+06  9.400129E+05  7.169313E+05  5.635949E+05  1.406624E+05 -2.149305E+05
        79  27  3.008599E+06  6.576779E+05  5.930766E+05  3.215790E+05  1.250798E+05 -1.716476E+05
        80   1 -2.170013E+06 -1.231022E+06 -4.995290E+05 -1.100200E+06 -7.054763E+03  1.870459E+05
        80   2 -1.640413E+06 -9.476050E+05 -3.757928E+05 -8.616099E+05  8.970319E+03  1.437396E+05
        80   3 -9.795532E+05 -7.941060E+05 -2.517797E+05 -7.732713E+05  2.490974E+04  1.004130E+05
        80   4  2.055122E+05 -3.640570E+05  5.442075E+02 -4.486672E+05 -6.132536E+04  1.668109E+05
        80   5  1.405730E+05 -2.980639E+05  2.690414E+02 -3.737146E+05 -4.533278E+04  1.235471E+05
        80   6  2.065061E+05 -3.619927E+05  2.794838E+02 -4.491284E+05 -2.942607E+04  8.026407E+04
        80   7  2.586811E+06  5.033628E+05  5.003195E+05  2.051669E+05 -1.158202E+05  1.464925E+05
        80   8  1.924795E+06  3.517291E+05  3.761657E+05  1.154698E+05 -9.980375E+04  1.032921E+05
        80   9  1.393995E+06  7.022956E+04  2.522696E+05 -1.244168E+05 -8.387339E+04  6.007371E+04
        80  10 -2.170023E+06 -1.231060E+06 -4.995950E+05 -1.100199E+06  8.039651E-09  1.114035E-08
        80  11 -1.640419E+06 -9.476273E+05 -3.758318E+05 -8.616110E+05  2.133701E-08  7.833574E-09
        80  12 -9.795566E+05 -7.941170E+05 -2.517998E+05 -7.732734E+05  1.605221E-08  2.940119E-09
        80  13  2.055007E+05 -3.640879E+05  4.848537E+02 -4.486590E+05  7.375849E-09 -1.377225E-08
        80  14  1.405667E+05 -2.980808E+05  2.364978E+02 -3.737101E+05  9.618087E-09 -6.895531E-09
        80  15  2.065034E+05 -3.619999E+05  2.657511E+02 -4.491265E+05  6.841191E-09 -8.035377E-09
        80  16  2.586790E+06  5.033362E+05  5.002540E+05  2.051805E+05 -1.151763E-08  1.991878E-09
        80  17  1.924782E+06  3.517150E+05  3.761270E+05  1.154781E+05 -1.263839E-08 -1.895175E-09
        80  18  1.393987E+06  7.022380E+04  2.522496E+05 -1.244127E+05 -1.682256E-08 -1.092203E-08
        80  19 -2.170013E+06 -1.231022E+06 -4.995290E+05 -1.100200E+06  7.054763E+03 -1.870459E+05
        80  20 -1.640413E+06 -9.476050E+05 -3.757928E+05 -8.616099E+05 -8.970319E+03 -1.437396E+05
        80  21 -9.795532E+05 -7.941060E+05 -2.517797E+05 -7.732713E+05 -2.490974E+04 -1.004130E+05
        80  22  2.055122E+05 -3.640570E+05  5.442075E+02 -4.486672E+05  6.132536E+04 -1.668109E+05
        80  23  1.405730E+05 -2.980639E+05  2.690414E+02 -3.737146E+05  4.533278E+04 -1.235471E+05
        80  24  2.065061E+05 -3.619927E+05  2.794838E+02 -4.491284E+05  2.942607E+04 -8.026407E+04
        80  25  2.586811E+06  5.033628E+05  5.003195E+05  2.051669E+05  1.158202E+05 -1.464925E+05
        80  26  1.924795E+06  3.517291E+05  3.761657E+05  1.154698E+05  9.980375E+04 -1.032921E+05
        80  27  1.393995E+06  7.022956E+04  2.522696E+05 -1.244168E+05  8.387339E+04 -6.007371E+04
        81   1 -5.583556E+05 -6.399923E+05 -1.592981E+05 -6.585367E+05  3.430769E+04  7.522218E+04
        81   2 -2.696360E+04 -3.580760E+05 -3.533498E+04 -4.199610E+05  4.988110E+04  3.193987E+04
        81   3  6.348658E+05 -2.060121E+05  8.894079E+04 -3.320134E+05  6.531712E+04 -1.099899E+04
        81   4  2.065025E+05 -3.618355E+05  1.702277E+02 -4.492066E+05 -2.013736E+04  5.505092E+04
        81   5  1.415648E+05 -2.967523E+05  3.522957E+01 -3.738410E+05 -4.156656E+03  1.192391E+04
        81   6  2.065994E+05 -3.616395E+05 -1.178498E+02 -4.492493E+05  1.168676E+04 -3.085839E+04
        81   7  9.719707E+05 -8.362735E+04  1.596213E+05 -2.396358E+05 -7.465497E+04  3.485270E+04
        81   8  3.101293E+05 -2.354236E+05  3.541656E+04 -3.277076E+05 -5.821040E+04 -8.097979E+03
        81   9 -2.214735E+05 -5.172499E+05 -8.917404E+04 -5.664091E+05 -4.190390E+04 -5.070304E+04
        81  10 -5.583584E+05 -6.399987E+05 -1.593109E+05 -6.585388E+05  1.009679E-09  1.658324E-09
        81  11 -2.696655E+04 -3.580778E+05 -3.534158E+04 -4.199623E+05  9.800170E-10  1.555283E-08
        81  12  6.348612E+05 -2.060134E+05  8.893255E+04 -3.320128E+05  5.100507E-09  6.332709E-09
        81  13  2.065013E+05 -3.618389E+05  1.637710E+02 -4.492057E+05  1.365531E-09 -4.658961E-10
        81  14  1.415647E+05 -2.967524E+05  3.492993E+01 -3.738410E+05 -2.466564E-10  6.736641E-09
        81  15  2.065990E+05 -3.616406E+05 -1.198957E+02 -4.492490E+05  3.251666E-09 -7.900778E-09
        81  16  9.719644E+05 -8.363015E+04  1.596086E+05 -2.396337E+05 -5.923257E-09 -2.953452E-09
        81  17  3.101256E+05 -2.354246E+05  3.541007E+04 -3.277079E+05  3.661623E-09  1.096429E-08
        81  18 -2.214760E+05 -5.172531E+05 -8.918218E+04 -5.664108E+05 -4.918419E-09  4.419789E-11
        81  19 -5.583556E+05 -6.399923E+05 -1.592981E+05 -6.585367E+05 -3.430769E+04 -7.522218E+04
        81  20 -2.696360E+04 -3.580760E+05 -3.533498E+04 -4.199610E+05 -4.988110E+04 -3.193987E+04
        81  21  6.348658E+05 -2.060121E+05  8.894079E+04 -3.320134E+05 -6.531712E+04  1.099899E+04
        81  22  2.065025E+05 -3.618355E+05  1.702277E+02 -4.492066E+05  2.013736E+04 -5.505092E+04
        81  23  1.415648E+05 -2.967523E+05  3.522957E+01 -3.738410E+05  4.156656E+03 -1.192391E+04
        81  24  2.065994E+05 -3.616395E+05 -1.178498E+02 -4.492493E+05 -1.168676E+04  3.085839E+04
        81  25  9.719707E+05 -8.362735E+04  1.596213E+05 -2.396358E+05  7.465497E+04 -3.485270E+04
        81  26  3.101293E+05 -2.354236E+05  3.541656E+04 -3.277076E+05  5.821040E+04  8.097979E+03
        81  27 -2.214735E+05 -5.172499E+05 -8.917404E+04 -5.664091E+05  4.190390E+04  5.070304E+04
        82   1  1.056966E+06 -5.208008E+04  1.813096E+05 -2.168559E+05  7.614324E+04 -3.582085E+04
        82   2  1.587699E+06  2.294608E+05  3.069683E+05  2.227452E+04  8.395357E+04 -7.915963E+04
        82   3  2.250450E+06  3.827255E+05  4.384426E+05  1.113590E+05  8.956268E+04 -1.164252E+05
        82   4  2.065138E+05 -3.616838E+05 -2.034062E+02 -4.491480E+05  2.109272E+04 -5.621796E+04
        82   5  1.410211E+05 -2.976669E+05 -6.793521E+02 -3.738304E+05  3.652888E+04 -9.677293E+04
        82   6  2.056985E+05 -3.634819E+05 -1.353531E+03 -4.487251E+05  4.976810E+04 -1.312435E+05
        82   7 -6.431918E+05 -6.712268E+05 -1.817430E+05 -6.811450E+05 -3.387632E+04 -7.658485E+04
        82   8 -1.303528E+06 -8.246292E+05 -3.084356E+05 -7.690881E+05 -1.077704E+04 -1.143421E+05
        82   9 -1.834834E+06 -1.109370E+06 -4.413897E+05 -1.007124E+06  1.011416E+04 -1.460095E+05
        82  10  1.056959E+06 -5.208301E+04  1.812963E+05 -2.168537E+05 -8.360676E-09 -2.417522E-09
        82  11  1.587690E+06  2.294522E+05  3.069433E+05  2.227987E+04  3.808753E-09  6.412649E-09
        82  12  2.250438E+06  3.827088E+05  4.384021E+05  1.113674E+05  5.028314E-09  8.952535E-09
        82  13  2.065125E+05 -3.616873E+05 -2.101808E+02 -4.491471E+05 -2.225796E-09 -7.353063E-09
        82  14  1.410171E+05 -2.976773E+05 -6.994567E+02 -3.738276E+05 -2.049385E-09 -1.222395E-08
        82  15  2.056912E+05 -3.635010E+05 -1.390551E+03 -4.487198E+05  2.057488E-09  6.679522E-09
        82  16 -6.431946E+05 -6.712334E+05 -1.817562E+05 -6.811471E+05  1.562869E-08  1.012210E-08
        82  17 -1.303531E+06 -8.246433E+05 -3.084604E+05 -7.690891E+05  4.772629E-09 -6.870164E-10
        82  18 -1.834840E+06 -1.109393E+06 -4.414300E+05 -1.007123E+06  8.804272E-09  8.393634E-09
        82  19  1.056966E+06 -5.208008E+04  1.813096E+05 -2.168559E+05 -7.614324E+04  3.582085E+04
        82  20  1.587699E+06  2.294608E+05  3.069683E+05  2.227452E+04 -8.395357E+04  7.915963E+04
        82  21  2.250450E+06  3.827255E+05  4.384426E+05  1.113590E+05 -8.956268E+04  1.164252E+05
        82  22  2.065138E+05 -3.616838E+05 -2.034062E+02 -4.491480E+05 -2.109272E+04  5.621796E+04
        82  23  1.410211E+05 -2.976669E+05 -6.793521E+02 -3.738304E+05 -3.652888E+04  9.677293E+04
        82  24  2.056985E+05 -3.634819E+05 -1.353531E+03 -4.487251E+05 -4.976810E+04  1.312435E+05
        82  25 -6.431918E+05 -6.712268E+05 -1.817430E+05 -6.811450E+05  3.387632E+04  7.658485E+04
        82  26 -1.303528E+06 -8.246292E+05 -3.084356E+05 -7.690881E+05  1.077704E+04  1.143421E+05
        82  27 -1.834834E+06 -1.109370E+06 -4.413897E+05 -1.007124E+06 -1.011416E+04  1.460095E+05
        83   1  2.675424E+06  5.386560E+05  5.288193E+05  2.292539E+05  1.247033E+05 -1.354652E+05
        83   2  3.196133E+06  8.222210E+05  6.894798E+05  4.637325E+05 -6.714452E+03 -1.824217E+05
        83   3  3.869835E+06  1.003696E+06  9.531206E+05  5.546911E+05 -1.776210E+05 -1.243690E+05
        83   4  2.045366E+05 -3.627191E+05 -1.690127E+03 -4.476158E+05  6.041479E+04 -1.594237E+05
        83   5  1.401761E+05 -3.021448E+05 -3.730762E+03 -3.746887E+05  6.192721E+04 -1.569161E+05
        83   6  2.023145E+05 -3.699214E+05 -7.698377E+03 -4.454605E+05  2.400084E+04 -4.908476E+04
        83   7 -2.260175E+06 -1.263622E+06 -5.325378E+05 -1.122022E+06 -3.599043E+03 -1.832803E+05
        83   8 -2.906402E+06 -1.425802E+06 -6.975205E+05 -1.209340E+06  1.302039E+05 -1.315473E+05
        83   9 -3.452063E+06 -1.742650E+06 -9.694577E+05 -1.440256E+06  2.243177E+05  2.570899E+04
        83  10  2.675403E+06  5.386322E+05  5.287557E+05  2.292675E+05  1.278286E-08  9.432768E-09
        83  11  3.196124E+06  8.221853E+05  6.894172E+05  4.637315E+05  7.586378E-09  3.084491E-10
        83  12  3.869797E+06  1.003671E+06  9.530327E+05  5.546734E+05 -2.256368E-09 -2.527741E-09
        83  13  2.045258E+05 -3.627474E+05 -1.744743E+03 -4.476080E+05  2.650650E-09  8.361988E-09
        83  14  1.401653E+05 -3.021723E+05 -3.784234E+03 -3.746809E+05  5.945072E-10  3.492724E-09
        83  15  2.023132E+05 -3.699241E+05 -7.703985E+03 -4.454596E+05 -3.016882E-09 -1.192046E-09
        83  16 -2.260184E+06 -1.263658E+06 -5.326011E+05 -1.122022E+06 -6.653334E-10  4.234564E-10
        83  17 -2.906425E+06 -1.425825E+06 -6.975849E+05 -1.209326E+06  3.455861E-09  2.620565E-09
        83  18 -3.452118E+06 -1.742664E+06 -9.695540E+05 -1.440261E+06  1.251428E-09  7.501750E-10
        83  19  2.675424E+06  5.386560E+05  5.288193E+05  2.292539E+05 -1.247033E+05  1.354652E+05
        83  20  3.196133E+06  8.222210E+05  6.894798E+05  4.637325E+05  6.714452E+03  1.824217E+05
        83  21  3.869835E+06  1.003696E+06  9.531206E+05  5.546911E+05  1.776210E+05  1.243690E+05
        83  22  2.045366E+05 -3.627191E+05 -1.690127E+03 -4.476158E+05 -6.041479E+04  1.594237E+05
        83  23  1.401761E+05 -3.021448E+05 -3.730762E+03 -3.746887E+05 -6.192721E+04  1.569161E+05
        83  24  2.023145E+05 -3.699214E+05 -7.698377E+03 -4.454605E+05 -2.400084E+04  4.908476E+04
        83  25 -2.260175E+06 -1.263622E+06 -5.325378E+05 -1.122022E+06  3.599043E+03  1.832803E+05
        83  26 -2.906402E+06 -1.425802E+06 -6.975205E+05 -1.209340E+06 -1.302039E+05  1.315473E+05
        83  27 -3.452063E+06 -1.742650E+06 -9.694577E+05 -1.440256E+06 -2.243177E+05 -2.570899E+04
        84   1 -2.070742E+05 -1.055791E+05 -9.447250E+04 -7.439519E+04 -2.361911E+04  7.019624E+03
        84   2 -1.336672E+05 -1.071645E+05 -7.093807E+04 -8.190614E+04 -5.717883E+03  2.338371E+04
        84   3 -5.974315E+04 -9.745284E+04 -5.623345E+04 -1.002600E+05  1.218846E+04  2.772190E+04
        84   4  3.850736E+05  4.024950E+04  4.258124E+04 -1.018495E+05  3.008845E+04  7.018863E+03
        84   5  3.823311E+05  1.451334E+04  2.150815E+04 -9.643035E+04  1.913398E+04  2.337999E+04
        84   6  3.851053E+05  5.076965E+03  1.164022E+04 -1.018527E+05  8.182197E+03  2.772058E+04
        84   7  9.775530E+05  1.860579E+05  1.796228E+05 -1.293301E+05  8.384686E+04  7.013356E+03
        84   8  8.985907E+05  1.361775E+05  1.139466E+05 -1.109669E+05  4.400591E+04  2.337511E+04
        84   9  8.301518E+05  1.075973E+05  7.950971E+04 -1.034465E+05  4.173170E+03  2.771929E+04
        84  10 -2.070748E+05 -1.055793E+05 -9.447364E+04 -7.439506E+04  2.243408E-10  1.612808E-09
        84  11 -1.336674E+05 -1.071651E+05 -7.093916E+04 -8.190603E+04  3.051003E-09  3.814793E-09
        84  12 -5.974352E+04 -9.745371E+04 -5.623517E+04 -1.002603E+05 -2.768864E-09  1.779721E-09
        84  13  3.850726E+05  4.024920E+04  4.257944E+04 -1.018496E+05 -4.166919E-09  8.234392E-10
        84  14  3.823305E+05  1.451265E+04  2.150644E+04 -9.643071E+04 -6.317404E-09  1.970090E-09
        84  15  3.851050E+05  5.076121E+03  1.163865E+04 -1.018529E+05  9.269938E-10  9.418563E-10
        84  16  9.775455E+05  1.860559E+05  1.796095E+05 -1.293306E+05  1.230451E-10 -2.825917E-11
        84  17  8.985885E+05  1.361764E+05  1.139419E+05 -1.109678E+05  3.736889E-10  5.257492E-11
        84  18  8.301516E+05  1.075964E+05  7.950824E+04 -1.034466E+05  1.895316E-09 -1.144126E-11
        84  19 -2.070742E+05 -1.055791E+05 -9.447250E+04 -7.439519E+04  2.361911E+04 -7.019624E+03
        84  20 -1.336672E+05 -1.071645E+05 -7.093807E+04 -8.190614E+04  5.717883E+03 -2.338371E+04
        84  21 -5.974315E+04 -9.745284E+04 -5.623345E+04 -1.002600E+05 -1.218846E+04 -2.772190E+04
        84  22  3.850736E+05  4.024950E+04  4.258124E+04 -1.018495E+05 -3.008845E+04 -7.018863E+03
        84  23  3.823311E+05  1.451334E+04  2.150815E+04 -9.643035E+04 -1.913398E+04 -2.337999E+04
        84  24  3.851053E+05  5.076965E+03  1.164022E+04 -1.018527E+05 -8.182197E+03 -2.772058E+04
        84  25  9.775530E+05  1.860579E+05  1.796228E+05 -1.293301E+05 -8.384686E+04 -7.013356E+03
        84  26  8.985907E+05  1.361775E+05  1.139466E+05 -1.109669E+05 -4.400591E+04 -2.337511E+04
        84  27  8.301518E+05  1.075973E+05  7.950971E+04 -1.034465E+05 -4.173170E+03 -2.771929E+04
        85   1 -1.458119E+04 -8.775543E+04 -5.002663E+04 -9.983637E+04  1.163099E+04  2.619305E+04
        85   2  5.895218E+04 -7.266029E+04 -4.005672E+04 -9.508402E+04  1.318734E+04  2.331024E+04
        85   3  1.325371E+05 -5.659145E+04 -3.085500E+04 -1.020657E+05  1.474314E+04  1.880217E+04
        85   4  3.840469E+05  3.696609E+03  8.679830E+03 -1.020513E+05  6.666694E+03  2.619229E+04
        85   5  3.836940E+05  1.220488E+03  4.681425E+03 -9.618496E+04  4.320923E+03  2.331099E+04
        85   6  3.840640E+05  3.951045E+02  2.623262E+03 -1.020521E+05  1.974431E+03  1.880487E+04
        85   7  7.828349E+05  9.514128E+04  6.738355E+04 -1.042677E+05  1.699338E+03  2.619157E+04
        85   8  7.085430E+05  7.509669E+04  4.941867E+04 -9.728649E+04 -4.549925E+03  2.331177E+04
        85   9  6.356558E+05  5.737905E+04  3.610163E+04 -1.020384E+05 -1.079921E+04  1.880758E+04
        85  10 -1.458152E+04 -8.775620E+04 -5.002818E+04 -9.983661E+04 -8.476851E-08  1.699661E-09
        85  11  5.895185E+04 -7.266093E+04 -4.005806E+04 -9.508427E+04 -6.184858E-09  3.041929E-09
        85  12  1.325368E+05 -5.659189E+04 -3.085607E+04 -1.020659E+05  7.084958E-08 -6.118936E-10
        85  13  3.840466E+05  3.695860E+03  8.678457E+03 -1.020515E+05 -8.512477E-09  1.584604E-09
        85  14  3.836938E+05  1.219899E+03  4.680369E+03 -9.618504E+04  6.658986E-09  4.115600E-09
        85  15  3.840639E+05  3.947236E+02  2.622590E+03 -1.020521E+05  5.244934E-09  2.818918E-09
        85  16  7.828347E+05  9.514054E+04  6.738226E+04 -1.042678E+05  7.835630E-08  1.833204E-09
        85  17  7.085429E+05  7.509610E+04  4.941761E+04 -9.728641E+04  4.239950E-09  5.583247E-09
        85  18  6.356556E+05  5.737864E+04  3.610074E+04 -1.020383E+05 -6.802668E-08  6.327325E-09
        85  19 -1.458119E+04 -8.775543E+04 -5.002663E+04 -9.983637E+04 -1.163099E+04 -2.619305E+04
        85  20  5.895218E+04 -7.266029E+04 -4.005672E+04 -9.508402E+04 -1.318734E+04 -2.331024E+04
        85  21  1.325371E+05 -5.659145E+04 -3.085500E+04 -1.020657E+05 -1.474314E+04 -1.880217E+04
        85  22  3.840469E+05  3.696609E+03  8.679830E+03 -1.020513E+05 -6.666694E+03 -2.619229E+04
        85  23  3.836940E+05  1.220488E+03  4.681425E+03 -9.618496E+04 -4.320923E+03 -2.331099E+04
        85  24  3.840640E+05  3.951045E+02  2.623262E+03 -1.020521E+05 -1.974431E+03 -1.880487E+04
        85  25  7.828349E+05  9.514128E+04  6.738355E+04 -1.042677E+05 -1.699338E+03 -2.619157E+04
        85  26  7.085430E+05  7.509669E+04  4.941867E+04 -9.728649E+04  4.549925E+03 -2.331177E+04
        85  27  6.356558E+05  5.737905E+04  3.610163E+04 -1.020384E+05  1.079921E+04 -1.880758E+04
        86   1  1.778683E+05 -4.632315E+04 -2.509315E+04 -1.019918E+05  1.448570E+04  1.563102E+04
        86   2  2.513933E+05 -2.985032E+04 -1.614000E+04 -9.613334E+04  1.446153E+04  1.014863E+04
        86   3  3.249416E+05 -1.330761E+04 -7.154394E+03 -1.021264E+05  1.443695E+04  4.447489E+03
        86   4  3.839317E+05  2.903872E+02  1.975835E+03 -1.020783E+05  1.587857E+03  1.563423E+04
        86   5  3.838801E+05  8.656758E+01  1.105222E+03 -9.615263E+04  1.037704E+03  1.015247E+04
        86   6  3.839386E+05  4.428040E+01  6.319502E+02 -1.020784E+05  4.871601E+02  4.451981E+03
        86   7  5.900388E+05  4.690222E+04  2.904516E+04 -1.021647E+05 -1.131406E+04  1.563744E+04
        86   8  5.163853E+05  3.002282E+04  1.835102E+04 -9.617192E+04 -1.238884E+04  1.015632E+04
        86   9  4.429395E+05  1.339612E+04  8.419000E+03 -1.020303E+05 -1.346390E+04  4.456471E+03
        86  10  1.778680E+05 -4.632346E+04 -2.509400E+04 -1.019920E+05 -2.218305E-08 -1.571529E-09
        86  11  2.513930E+05 -2.985049E+04 -1.614059E+04 -9.613346E+04 -1.906583E-08  1.582473E-09
        86  12  3.249414E+05 -1.330768E+04 -7.154822E+03 -1.021264E+05 -1.701454E-08  3.556916E-09
        86  13  3.839316E+05  2.901240E+02  1.975371E+03 -1.020783E+05 -1.425225E-10 -1.897275E-11
        86  14  3.838801E+05  8.645659E+01  1.105027E+03 -9.615264E+04  8.599764E-09 -6.616885E-09
        86  15  3.839385E+05  4.425905E+01  6.319125E+02 -1.020784E+05 -1.899611E-09 -1.323919E-08
        86  16  5.900386E+05  4.690192E+04  2.904446E+04 -1.021646E+05  2.192351E-08  6.002754E-09
        86  17  5.163851E+05  3.002267E+04  1.835054E+04 -9.617181E+04  1.981953E-08  5.665695E-09
        86  18  4.429393E+05  1.339605E+04  8.418622E+03 -1.020303E+05  1.803833E-08  3.872238E-09
        86  19  1.778683E+05 -4.632315E+04 -2.509315E+04 -1.019918E+05 -1.448570E+04 -1.563102E+04
        86  20  2.513933E+05 -2.985032E+04 -1.614000E+04 -9.613334E+04 -1.446153E+04 -1.014863E+04
        86  21  3.249416E+05 -1.330761E+04 -7.154394E+03 -1.021264E+05 -1.443695E+04 -4.447489E+03
        86  22  3.839317E+05  2.903872E+02  1.975835E+03 -1.020783E+05 -1.587857E+03 -1.563423E+04
        86  23  3.838801E+05  8.656758E+01  1.105222E+03 -9.615263E+04 -1.037704E+03 -1.015247E+04
        86  24  3.839386E+05  4.428040E+01  6.319502E+02 -1.020784E+05 -4.871601E+02 -4.451981E+03
        86  25  5.900388E+05  4.690222E+04  2.904516E+04 -1.021647E+05  1.131406E+04 -1.563744E+04
        86  26  5.163853E+05  3.002282E+04  1.835102E+04 -9.617192E+04  1.238884E+04 -1.015632E+04
        86  27  4.429395E+05  1.339612E+04  8.419000E+03 -1.020303E+05  1.346390E+04 -4.456471E+03
        87   1  3.702876E+05 -3.032584E+03 -1.269494E+03 -1.021183E+05  1.435504E+04  1.055764E+03
        87   2  4.438212E+05  1.350891E+04  7.796274E+03 -9.618829E+04  1.427528E+04 -4.772942E+03
        87   3  5.173706E+05  3.005737E+04  1.691496E+04 -1.021253E+05  1.419568E+04 -1.062544E+04
        87   4  3.839190E+05  4.234824E+01  4.795416E+02 -1.020819E+05  3.878588E+02  1.060341E+03
        87   5  3.839080E+05  2.791115E+01  2.755166E+02 -9.614829E+04  2.500355E+02 -4.768569E+03
        87   6  3.839160E+05  3.028834E+01  1.638060E+02 -1.020819E+05  1.123906E+02 -1.062129E+04
        87   7  3.975509E+05  3.117378E+03  2.229309E+03 -1.020454E+05 -1.357962E+04  1.064917E+03
        87   8  3.239988E+05 -1.345313E+04 -7.244511E+03 -9.610830E+04 -1.377392E+04 -4.764197E+03
        87   9  2.504800E+05 -2.999740E+04 -1.658665E+04 -1.020384E+05 -1.396803E+04 -1.061713E+04
        87  10  3.702874E+05 -3.032641E+03 -1.269883E+03 -1.021184E+05  3.056697E-09  5.566449E-09
        87  11  4.438210E+05  1.350883E+04  7.795849E+03 -9.618823E+04 -2.611829E-08  7.508382E-09
        87  12  5.173704E+05  3.005719E+04  1.691437E+04 -1.021252E+05 -5.685613E-08  4.606239E-09
        87  13  3.839190E+05  4.234699E+01  4.795392E+02 -1.020819E+05 -8.601503E-09 -1.494541E-08
        87  14  3.839080E+05  2.788671E+01  2.754737E+02 -9.614829E+04 -9.082444E-11 -1.323098E-08
        87  15  3.839159E+05  3.016717E+01  1.635939E+02 -1.020819E+05 -4.694623E-09 -1.560334E-08
        87  16  3.975507E+05  3.117327E+03  2.228961E+03 -1.020454E+05 -2.005518E-09  3.792261E-09
        87  17  3.239986E+05 -1.345320E+04 -7.244910E+03 -9.610835E+04  3.040047E-08  5.321583E-09
        87  18  2.504798E+05 -2.999758E+04 -1.658723E+04 -1.020386E+05  5.546639E-08  4.328016E-09
        87  19  3.702876E+05 -3.032584E+03 -1.269494E+03 -1.021183E+05 -1.435504E+04 -1.055764E+03
        87  20  4.438212E+05  1.350891E+04  7.796274E+03 -9.618829E+04 -1.427528E+04  4.772942E+03
        87  21  5.173706E+05  3.005737E+04  1.691496E+04 -1.021253E+05 -1.419568E+04  1.062544E+04
        87  22  3.839190E+05  4.234824E+01  4.795416E+02 -1.020819E+05 -3.878588E+02 -1.060341E+03
        87  23  3.839080E+05  2.791115E+01  2.755166E+02 -9.614829E+04 -2.500355E+02  4.768569E+03
        87  24  3.839160E+05  3.028834E+01  1.638060E+02 -1.020819E+05 -1.123906E+02  1.062129E+04
        87  25  3.975509E+05  3.117378E+03  2.229309E+03 -1.020454E+05  1.357962E+04 -1.064917E+03
        87  26  3.239988E+05 -1.345313E+04 -7.244511E+03 -9.610830E+04  1.377392E+04  4.764197E+03
        87  27  2.504800E+05 -2.999740E+04 -1.658665E+04 -1.020384E+05  1.396803E+04  1.061713E+04
        88   1  5.627312E+05  4.032154E+04  2.287717E+04 -1.021284E+05  1.416841E+04 -1.404092E+04
        88   2  6.362823E+05  5.685878E+04  3.207898E+04 -9.619289E+04  1.402976E+04 -1.988439E+04
        88   3  7.098641E+05  7.341735E+04  4.137664E+04 -1.021258E+05  1.389185E+04 -2.568770E+04
        88   4  3.839110E+05  2.764043E+01  1.287431E+02 -1.020822E+05  8.507869E+01 -1.403712E+04
        88   5  3.839004E+05  1.374343E+01  8.439275E+01 -9.614786E+04  4.208342E+01 -1.988157E+04
        88   6  3.838982E+05  4.648239E+00  6.898948E+01 -1.020822E+05 -1.488748E-01 -2.568586E+04
        88   7  2.051239E+05 -4.026746E+04 -2.261906E+04 -1.020361E+05 -1.399440E+04 -1.403331E+04
        88   8  1.315842E+05 -5.683379E+04 -3.190968E+04 -9.610284E+04 -1.394019E+04 -1.987875E+04
        88   9  5.804166E+04 -7.341228E+04 -4.123830E+04 -1.020386E+05 -1.388522E+04 -2.568402E+04
        88  10  5.627310E+05  4.032127E+04  2.287643E+04 -1.021282E+05  1.669298E-08  4.977062E-09
        88  11  6.362820E+05  5.685831E+04  3.207787E+04 -9.619266E+04  4.665784E-08  1.046835E-08
        88  12  7.098637E+05  7.341659E+04  4.137504E+04 -1.021255E+05  8.976945E-08  1.401508E-08
        88  13  3.839109E+05  2.742880E+01  1.283728E+02 -1.020822E+05  2.835595E-10 -1.708783E-08
        88  14  3.839003E+05  1.331890E+01  8.364981E+01 -9.614786E+04 -2.343351E-08 -1.922401E-08
        88  15  3.838980E+05  3.939640E+00  6.774943E+01 -1.020822E+05 -4.795932E-09 -2.352847E-08
        88  16  2.051236E+05 -4.026772E+04 -2.261980E+04 -1.020362E+05 -7.187359E-09  5.480524E-09
        88  17  1.315838E+05 -5.683427E+04 -3.191079E+04 -9.610306E+04 -5.295014E-08  1.092870E-08
        88  18  5.804127E+04 -7.341304E+04 -4.123991E+04 -1.020389E+05 -8.741664E-08  1.363354E-08
        88  19  5.627312E+05  4.032154E+04  2.287717E+04 -1.021284E+05 -1.416841E+04  1.404092E+04
        88  20  6.362823E+05  5.685878E+04  3.207898E+04 -9.619289E+04 -1.402976E+04  1.988439E+04
        88  21  7.098641E+05  7.341735E+04  4.137664E+04 -1.021258E+05 -1.389185E+04  2.568770E+04
        88  22  3.839110E+05  2.764043E+01  1.287431E+02 -1.020822E+05 -8.507869E+01  1.403712E+04
        88  23  3.839004E+05  1.374343E+01  8.439275E+01 -9.614786E+04 -4.208342E+01  1.988157E+04
        88  24  3.838982E+05  4.648239E+00  6.898948E+01 -1.020822E+05  1.488748E-01  2.568586E+04
        88  25  2.051239E+05 -4.026746E+04 -2.261906E+04 -1.020361E+05  1.399440E+04  1.403331E+04
        88  26  1.315842E+05 -5.683379E+04 -3.190968E+04 -9.610284E+04  1.394019E+04  1.987875E+04
        88  27  5.804166E+04 -7.341228E+04 -4.123830E+04 -1.020386E+05  1.388522E+04  2.568402E+04
        89   1  7.552693E+05  8.369589E+04  4.744559E+04 -1.021188E+05  1.385519E+04 -2.906258E+04
        89   2  8.287986E+05  1.002920E+05  5.706811E+04 -9.617991E+04  1.302075E+04 -3.466975E+04
        89   3  9.024907E+05  1.170379E+05  6.727399E+04 -1.020915E+05  1.218749E+04 -3.994694E+04
        89   4  3.838951E+05 -4.258253E+00  6.948587E+01 -1.020783E+05 -1.289845E+01 -2.906151E+04
        89   5  3.838733E+05 -2.598488E+01  8.426195E+01 -9.615280E+04 -5.509933E+01 -3.467045E+04
        89   6  3.838726E+05 -3.500193E+01  1.326275E+02 -1.020783E+05 -9.604015E+01 -3.994929E+04
        89   7  1.266260E+04 -8.370996E+04 -4.730645E+04 -1.020378E+05 -1.387310E+04 -2.906045E+04
        89   8 -6.084878E+04 -1.003521E+05 -5.689982E+04 -9.612570E+04 -1.312204E+04 -3.467115E+04
        89   9 -1.344701E+05 -1.171190E+05 -6.700962E+04 -1.020651E+05 -1.236982E+04 -3.995164E+04
        89  10  7.552689E+05  8.369493E+04  4.744364E+04 -1.021185E+05 -8.281026E-08  1.320749E-08
        89  11  8.287981E+05  1.002907E+05  5.706554E+04 -9.617954E+04 -1.198954E-08  8.708738E-09
        89  12  9.024901E+05  1.170361E+05  6.727071E+04 -1.020911E+05  5.677858E-08  2.978041E-09
        89  13  3.838949E+05 -5.165339E+00  6.789847E+01 -1.020783E+05 -6.889354E-12 -2.200147E-08
        89  14  3.838730E+05 -2.727589E+01  8.200267E+01 -9.615280E+04 -1.315241E-10 -1.124975E-08
        89  15  3.838722E+05 -3.671601E+01  1.296278E+02 -1.020783E+05  4.249646E-09 -1.415014E-09
        89  16  1.266216E+04 -8.371092E+04 -4.730840E+04 -1.020381E+05  8.723261E-08  1.286746E-08
        89  17 -6.084928E+04 -1.003534E+05 -5.690240E+04 -9.612606E+04  1.340583E-08  8.216953E-09
        89  18 -1.344707E+05 -1.171208E+05 -6.701291E+04 -1.020655E+05 -5.221148E-08  2.976150E-09
        89  19  7.552693E+05  8.369589E+04  4.744559E+04 -1.021188E+05 -1.385519E+04  2.906258E+04
        89  20  8.287986E+05  1.002920E+05  5.706811E+04 -9.617991E+04 -1.302075E+04  3.466975E+04
        89  21  9.024907E+05  1.170379E+05  6.727399E+04 -1.020915E+05 -1.218749E+04  3.994694E+04
        89  22  3.838951E+05 -4.258253E+00  6.948587E+01 -1.020783E+05  1.289845E+01  2.906151E+04
        89  23  3.838733E+05 -2.598488E+01  8.426195E+01 -9.615280E+04  5.509933E+01  3.467045E+04
        89  24  3.838726E+05 -3.500193E+01  1.326275E+02 -1.020783E+05  9.604015E+01  3.994929E+04
        89  25  1.266260E+04 -8.370996E+04 -4.730645E+04 -1.020378E+05  1.387310E+04  2.906045E+04
        89  26 -6.084878E+04 -1.003521E+05 -5.689982E+04 -9.612570E+04  1.312204E+04  3.467115E+04
        89  27 -1.344701E+05 -1.171190E+05 -6.700962E+04 -1.020651E+05  1.236982E+04  3.995164E+04
        90   1  9.480904E+05  1.274663E+05  7.394630E+04 -1.020290E+05  1.196966E+04 -4.298850E+04
        90   2  1.021225E+06  1.445726E+05  8.639646E+04 -9.622046E+04  5.933136E+03 -4.679381E+04
        90   3  1.095461E+06  1.628092E+05  1.030626E+05 -1.020823E+05 -1.035365E+02 -4.814770E+04
        90   4  3.838754E+05 -4.267024E+01  1.714064E+02 -1.020383E+05 -1.211875E+02 -4.299194E+04
        90   5  3.838221E+05 -2.247977E+01  2.932120E+02 -9.620274E+04 -2.660951E+02 -4.679896E+04
        90   6  3.838436E+05  1.064996E+02  5.437715E+02 -1.020383E+05 -4.103779E+02 -4.815322E+04
        90   7 -1.800142E+05 -1.275649E+05 -7.360496E+04 -1.020476E+05 -1.220158E+04 -4.299537E+04
        90   8 -2.531672E+05 -1.446350E+05 -8.581371E+04 -9.618501E+04 -6.459262E+03 -4.680410E+04
        90   9 -3.272636E+05 -1.626193E+05 -1.019830E+05 -1.019944E+05 -7.168829E+02 -4.815874E+04
        90  10  9.480898E+05  1.274643E+05  7.394256E+04 -1.020286E+05 -1.283624E-07 -2.866204E-10
        90  11  1.021224E+06  1.445702E+05  8.639227E+04 -9.622023E+04  8.665625E-09 -2.995386E-09
        90  12  1.095461E+06  1.628067E+05  1.030582E+05 -1.020823E+05  1.345152E-07 -2.077175E-09
        90  13  3.838749E+05 -4.465536E+01  1.679324E+02 -1.020383E+05  1.047244E-11  1.761016E-10
        90  14  3.838215E+05 -2.483204E+01  2.890954E+02 -9.620275E+04  2.172292E-09 -1.630886E-09
        90  15  3.838430E+05  1.040091E+02  5.394130E+02 -1.020383E+05 -8.572839E-09 -7.507512E-10
        90  16 -1.800148E+05 -1.275669E+05 -7.360871E+04 -1.020480E+05  1.284688E-07  7.400469E-10
        90  17 -2.531678E+05 -1.446374E+05 -8.581791E+04 -9.618526E+04 -9.781495E-09  1.026415E-11
        90  18 -3.272642E+05 -1.626218E+05 -1.019873E+05 -1.019944E+05 -1.338802E-07  7.087148E-10
        90  19  9.480904E+05  1.274663E+05  7.394630E+04 -1.020290E+05 -1.196966E+04  4.298850E+04
        90  20  1.021225E+06  1.445726E+05  8.639646E+04 -9.622046E+04 -5.933136E+03  4.679381E+04
        90  21  1.095461E+06  1.628092E+05  1.030626E+05 -1.020823E+05  1.035365E+02  4.814770E+04
        90  22  3.838754E+05 -4.267024E+01  1.714064E+02 -1.020383E+05  1.211875E+02  4.299194E+04
        90  23  3.838221E+05 -2.247977E+01  2.932120E+02 -9.620274E+04  2.660951E+02  4.679896E+04
        90  24  3.838436E+05  1.064996E+02  5.437715E+02 -1.020383E+05  4.103779E+02  4.815322E+04
        90  25 -1.800142E+05 -1.275649E+05 -7.360496E+04 -1.020476E+05  1.220158E+04  4.299537E+04
        90  26 -2.531672E+05 -1.446350E+05 -8.581371E+04 -9.618501E+04  6.459262E+03  4.680410E+04
        90  27 -3.272636E+05 -1.626193E+05 -1.019830E+05 -1.019944E+05  7.168829E+02  4.815874E+04
        91   1  1.142290E+06  1.743812E+05  1.140445E+05 -1.017065E+05 -1.643617E+03 -4.871168E+04
        91   2  1.212173E+06  1.954424E+05  1.470757E+05 -9.731190E+04 -4.592304E+04 -3.917672E+04
        91   3  1.290019E+06  2.251239E+05  2.110660E+05 -1.032403E+05 -9.022205E+04 -1.150254E+04
        91   4  3.839037E+05  1.778415E+02  7.297707E+02 -1.017384E+05 -5.057783E+02 -4.871729E+04
        91   5  3.836839E+05  7.538313E+02  1.337805E+03 -9.657766E+04 -1.175611E+03 -3.916892E+04
        91   6  3.838642E+05  2.391783E+03  2.655078E+03 -1.017389E+05 -1.858206E+03 -1.147029E+04
        91   7 -3.739058E+05 -1.740526E+05 -1.125961E+05 -1.017703E+05  6.307290E+02 -4.872291E+04
        91   8 -4.441305E+05 -1.939712E+05 -1.444175E+05 -9.584442E+04  4.351396E+04 -3.916100E+04
        91   9 -5.215149E+05 -2.203934E+05 -2.057809E+05 -1.002398E+05  8.637790E+04 -1.143759E+04
        91  10  1.142289E+06  1.743786E+05  1.140400E+05 -1.017065E+05 -6.057921E-08 -6.056436E-10
        91  11  1.212170E+06  1.954402E+05  1.470689E+05 -9.731335E+04 -3.788044E-09  4.101427E-11
        91  12  1.290010E+06  2.251215E+05  2.110505E+05 -1.032411E+05  6.960596E-08  2.565727E-10
        91  13  3.839031E+05  1.752924E+02  7.253093E+02 -1.017384E+05 -4.097772E-10 -1.024728E-09
        91  14  3.836835E+05  7.521831E+02  1.334919E+03 -9.657769E+04 -5.998357E-09  6.424307E-10
        91  15  3.838641E+05  2.391640E+03  2.654824E+03 -1.017389E+05 -7.504171E-09 -1.604058E-10
        91  16 -3.739064E+05 -1.740551E+05 -1.126005E+05 -1.017703E+05  6.705211E-08  2.986108E-10
        91  17 -4.441330E+05 -1.939733E+05 -1.444240E+05 -9.584305E+04 -6.484431E-10 -7.506661E-10
        91  18 -5.215229E+05 -2.203956E+05 -2.057952E+05 -1.002390E+05 -6.544085E-08 -1.063092E-09
        91  19  1.142290E+06  1.743812E+05  1.140445E+05 -1.017065E+05  1.643617E+03  4.871168E+04
        91  20  1.212173E+06  1.954424E+05  1.470757E+05 -9.731190E+04  4.592304E+04  3.917672E+04
        91  21  1.290019E+06  2.251239E+05  2.110660E+05 -1.032403E+05  9.022205E+04  1.150254E+04
        91  22  3.839037E+05  1.778415E+02  7.297707E+02 -1.017384E+05  5.057783E+02  4.871729E+04
        91  23  3.836839E+05  7.538313E+02  1.337805E+03 -9.657766E+04  1.175611E+03  3.916892E+04
        91  24  3.838642E+05  2.391783E+03  2.655078E+03 -1.017389E+05  1.858206E+03  1.147029E+04
        91  25 -3.739058E+05 -1.740526E+05 -1.125961E+05 -1.017703E+05 -6.307290E+02  4.872291E+04
        91  26 -4.441305E+05 -1.939712E+05 -1.444175E+05 -9.584442E+04 -4.351396E+04  3.916100E+04
        91  27 -5.215149E+05 -2.203934E+05 -2.057809E+05 -1.002398E+05 -8.637790E+04  1.143759E+04
        92   1  1.365221E+05  7.221979E+05  1.311602E+05 -3.456994E+05  3.676917E+03  1.671196E+04
        92   2  7.792476E+04  4.655914E+05  6.649966E+04 -3.290738E+05  8.161140E+03 -1.139790E+04
        92   3  2.043474E+04  2.129777E+05  2.039569E+04 -3.523404E+05 -7.932759E+01 -3.949681E+04
        92   4 -1.062290E+04  1.286653E+05 -1.138443E+04 -3.527604E+05  3.696508E+03 -9.285320E+03
        92   5 -3.545485E+03  1.293776E+05 -4.786333E+03 -3.328097E+05  8.157990E+03 -6.831814E+03
        92   6 -6.596128E+02  1.287214E+05 -8.423687E+02 -3.527548E+05 -1.087206E+02 -4.378227E+03
        92   7 -1.577930E+05 -4.645435E+05 -1.539515E+05 -3.598145E+05  3.716706E+03 -3.525786E+04
        92   8 -8.502299E+04 -2.067297E+05 -7.607868E+04 -3.365436E+05  8.154784E+03 -2.268164E+03
        92   9 -2.175384E+04  4.447405E+04 -2.207634E+04 -3.531691E+05 -1.381636E+02  3.073559E+04
        92  10  1.365220E+05  7.221976E+05  1.311596E+05 -3.456995E+05  2.314419E-09 -6.189949E-09
        92  11  7.792465E+04  4.655912E+05  6.649929E+04 -3.290738E+05  7.409832E-09  2.349648E-09
        92  12  2.043432E+04  2.129761E+05  2.039276E+04 -3.523404E+05  4.445268E-09  1.057068E-08
        92  13 -1.062294E+04  1.286652E+05 -1.138462E+04 -3.527604E+05 -7.837405E-10 -1.808315E-11
        92  14 -3.545569E+03  1.293775E+05 -4.786545E+03 -3.328097E+05  4.341706E-09  2.372565E-10
        92  15 -6.596179E+02  1.287213E+05 -8.424048E+02 -3.527548E+05  2.784450E-09 -1.310708E-10
        92  16 -1.577933E+05 -4.645449E+05 -1.539538E+05 -3.598144E+05 -9.214544E-10  6.161267E-09
        92  17 -8.502306E+04 -2.067297E+05 -7.607882E+04 -3.365435E+05 -1.626430E-09 -2.142938E-09
        92  18 -2.175410E+04  4.447303E+04 -2.207811E+04 -3.531691E+05 -3.845950E-09 -1.034235E-08
        92  19  1.365221E+05  7.221979E+05  1.311602E+05 -3.456994E+05 -3.676917E+03 -1.671196E+04
        92  20  7.792476E+04  4.655914E+05  6.649966E+04 -3.290738E+05 -8.161140E+03  1.139790E+04
        92  21  2.043474E+04  2.129777E+05  2.039569E+04 -3.523404E+05  7.932759E+01  3.949681E+04
        92  22 -1.062290E+04  1.286653E+05 -1.138443E+04 -3.527604E+05 -3.696508E+03  9.285320E+03
        92  23 -3.545485E+03  1.293776E+05 -4.786333E+03 -3.328097E+05 -8.157990E+03  6.831814E+03
        92  24 -6.596128E+02  1.287214E+05 -8.423687E+02 -3.527548E+05  1.087206E+02  4.378227E+03
        92  25 -1.577930E+05 -4.645435E+05 -1.539515E+05 -3.598145E+05 -3.716706E+03  3.525786E+04
        92  26 -8.502299E+04 -2.067297E+05 -7.607868E+04 -3.365436E+05 -8.154784E+03  2.268164E+03
        92  27 -2.175384E+04  4.447405E+04 -2.207634E+04 -3.531691E+05  1.381636E+02 -3.073559E+04
        93   1 -1.569622E+04  5.531358E+04 -3.051196E+03 -3.523784E+05 -9.298587E+03 -4.032079E+04
        93   2 -7.315965E+04 -1.991559E+05 -4.081813E+04 -3.308545E+05 -2.338640E+04 -3.845384E+04
        93   3 -1.296811E+05 -4.535675E+05 -7.956913E+04 -3.499543E+05 -3.573873E+04 -3.658505E+04
        93   4 -1.458725E+02  1.291846E+05  8.302099E+02 -3.529164E+05 -9.328492E+03 -4.436863E+03
        93   5  1.518291E+03  1.287983E+05  4.584223E+03 -3.326039E+05 -2.340976E+04 -6.742122E+03
        93   6  4.850086E+03  1.291274E+05  1.024722E+04 -3.529132E+05 -3.575610E+04 -9.044832E+03
        93   7  1.540506E+04  2.030645E+05  4.716765E+03 -3.534544E+05 -9.358456E+03  3.145099E+04
        93   8  7.619204E+04  4.568638E+05  4.998909E+04 -3.343542E+05 -2.343330E+04  2.498560E+04
        93   9  1.393653E+05  7.121636E+05  1.000588E+05 -3.558749E+05 -3.577372E+04  1.852026E+04
        93  10 -1.569675E+04  5.531181E+04 -3.054414E+03 -3.523787E+05  3.329920E-09  9.718984E-09
        93  11 -7.316064E+04 -1.991576E+05 -4.082194E+04 -3.308552E+05  1.359105E-08  5.070658E-11
        93  12 -1.296829E+05 -4.535693E+05 -7.957405E+04 -3.499554E+05 -2.372645E-09 -9.357798E-09
        93  13 -1.459713E+02  1.291846E+05  8.300093E+02 -3.529164E+05  1.094177E-08 -7.189966E-11
        93  14  1.517690E+03  1.287981E+05  4.583107E+03 -3.326040E+05  6.009906E-09  3.615077E-10
        93  15  4.848691E+03  1.291270E+05  1.024466E+04 -3.529135E+05  9.842038E-10  2.488782E-11
        93  16  1.540470E+04  2.030634E+05  4.714743E+03 -3.534542E+05  5.500319E-09 -9.804540E-09
        93  17  7.619128E+04  4.568630E+05  4.998689E+04 -3.343537E+05  2.576892E-10  2.403109E-10
        93  18  1.393638E+05  7.121629E+05  1.000558E+05 -3.558743E+05  7.010959E-09  9.542179E-09
        93  19 -1.569622E+04  5.531358E+04 -3.051196E+03 -3.523784E+05  9.298587E+03  4.032079E+04
        93  20 -7.315965E+04 -1.991559E+05 -4.081813E+04 -3.308545E+05  2.338640E+04  3.845384E+04
        93  21 -1.296811E+05 -4.535675E+05 -7.956913E+04 -3.499543E+05  3.573873E+04  3.658505E+04
        93  22 -1.458725E+02  1.291846E+05  8.302099E+02 -3.529164E+05  9.328492E+03  4.436863E+03
        93  23  1.518291E+03  1.287983E+05  4.584223E+03 -3.326039E+05  2.340976E+04  6.742122E+03
        93  24  4.850086E+03  1.291274E+05  1.024722E+04 -3.529132E+05  3.575610E+04  9.044832E+03
        93  25  1.540506E+04  2.030645E+05  4.716765E+03 -3.534544E+05  9.358456E+03 -3.145099E+04
        93  26  7.619204E+04  4.568638E+05  4.998909E+04 -3.343542E+05  2.343330E+04 -2.498560E+04
        93  27  1.393653E+05  7.121636E+05  1.000588E+05 -3.558749E+05  3.577372E+04 -1.852026E+04
        94   1 -1.653495E+05 -6.110334E+05 -1.036929E+05 -3.502578E+05 -4.320808E+04 -3.646883E+04
        94   2 -2.165294E+05 -8.637015E+05 -1.567590E+05 -3.144791E+05 -4.102077E+04  1.172354E+04
        94   3 -2.578157E+05 -1.120042E+06 -2.387390E+05 -3.175222E+05 -1.302208E+04  5.988676E+04
        94   4  6.578742E+03  1.304869E+05  1.418695E+04 -3.525107E+05 -4.322110E+04 -1.086456E+04
        94   5  1.843601E+04  1.268997E+05  2.691707E+04 -3.330945E+05 -4.099520E+04 -2.455139E+04
        94   6  5.092430E+04  1.303171E+05  5.371972E+04 -3.524909E+05 -1.297954E+04 -3.824643E+04
        94   7  1.784800E+05  8.725560E+05  1.320552E+05 -3.547661E+05 -4.323429E+04  1.476920E+04
        94   8  2.533471E+05  1.118456E+06  2.105570E+05 -3.517401E+05 -4.096750E+04 -6.088273E+04
        94   9  3.595630E+05  1.382142E+06  3.461089E+05 -3.875300E+05 -1.292601E+04 -1.365762E+05
        94  10 -1.653519E+05 -6.110353E+05 -1.036989E+05 -3.502591E+05 -3.123626E-09  1.435597E-08
        94  11 -2.165312E+05 -8.637021E+05 -1.567624E+05 -3.144787E+05  8.414415E-09 -5.227883E-10
        94  12 -2.578169E+05 -1.120046E+06 -2.387461E+05 -3.175216E+05 -9.408982E-10 -1.494885E-08
        94  13  6.576703E+03  1.304863E+05  1.418321E+04 -3.525111E+05  2.239466E-09  1.194399E-10
        94  14  1.843404E+04  1.268986E+05  2.691278E+04 -3.330953E+05 -3.533875E-09  1.314481E-10
        94  15  5.092373E+04  1.303155E+05  5.371665E+04 -3.524913E+05 -6.329210E-10 -3.429491E-11
        94  16  1.784779E+05  8.725553E+05  1.320512E+05 -3.547656E+05  5.278716E-09 -1.431367E-08
        94  17  2.533443E+05  1.118452E+06  2.105469E+05 -3.517421E+05  3.757094E-09  1.053312E-09
        94  18  3.595579E+05  1.382122E+06  3.460736E+05 -3.875314E+05 -2.781285E-09  1.492188E-08
        94  19 -1.653495E+05 -6.110334E+05 -1.036929E+05 -3.502578E+05  4.320808E+04  3.646883E+04
        94  20 -2.165294E+05 -8.637015E+05 -1.567590E+05 -3.144791E+05  4.102077E+04 -1.172354E+04
        94  21 -2.578157E+05 -1.120042E+06 -2.387390E+05 -3.175222E+05  1.302208E+04 -5.988676E+04
        94  22  6.578742E+03  1.304869E+05  1.418695E+04 -3.525107E+05  4.322110E+04  1.086456E+04
        94  23  1.843601E+04  1.268997E+05  2.691707E+04 -3.330945E+05  4.099520E+04  2.455139E+04
        94  24  5.092430E+04  1.303171E+05  5.371972E+04 -3.524909E+05  1.297954E+04  3.824643E+04
        94  25  1.784800E+05  8.725560E+05  1.320552E+05 -3.547661E+05  4.323429E+04 -1.476920E+04
        94  26  2.533471E+05  1.118456E+06  2.105570E+05 -3.517401E+05  4.096750E+04  6.088273E+04
        94  27  3.595630E+05  1.382142E+06  3.461089E+05 -3.875300E+05  1.292601E+04  1.365762E+05
        95   1 -2.851316E+05 -1.692365E+05 -1.162294E+05 -1.132454E+05 -5.266771E+04 -1.651458E+04
        95   2 -2.645787E+05 -9.875756E+04 -6.892748E+04 -1.055616E+05 -3.336814E+04 -2.271087E+03
        95   3 -2.580187E+05 -7.710017E+04 -4.959435E+04 -9.306591E+04 -1.196171E+04  6.360649E+03
        95   4 -1.092958E+05 -7.654395E+04 -6.478723E+04 -3.781569E+04 -4.262609E+04 -1.275047E+04
        95   5 -9.936966E+04 -2.750051E+04 -2.881775E+04 -4.969421E+04 -2.962666E+04 -8.686020E+02
        95   6 -1.021837E+05 -2.602484E+04 -1.582056E+04 -5.676297E+04 -1.452123E+04  5.400670E+03
        95   7  6.657020E+04  1.615970E+04 -1.334804E+04  3.763551E+04 -3.258148E+04 -8.984150E+03
        95   8  6.586649E+04  4.376118E+04  1.128987E+04  6.187588E+03 -2.588412E+04  5.344371E+02
        95   9  5.367630E+04  2.505137E+04  1.795202E+04 -2.045207E+04 -1.708145E+04  4.440493E+03
        95  10 -2.851347E+05 -1.692375E+05 -1.162352E+05 -1.132461E+05  3.219964E-09 -7.111182E-10
        95  11 -2.645799E+05 -9.875786E+04 -6.892958E+04 -1.055617E+05  6.491937E-09 -3.111674E-09
        95  12 -2.580188E+05 -7.710026E+04 -4.959469E+04 -9.306585E+04  1.903400E-09  1.603137E-10
        95  13 -1.092978E+05 -7.654461E+04 -6.479096E+04 -3.781613E+04  2.121828E-10 -5.791686E-10
        95  14 -9.937060E+04 -2.750074E+04 -2.881940E+04 -4.969423E+04 -6.051247E-09 -1.653405E-09
        95  15 -1.021840E+05 -2.602493E+04 -1.582101E+04 -5.676290E+04  6.445178E-09  2.018151E-10
        95  16  6.656904E+04  1.615932E+04 -1.335019E+04  3.763527E+04  3.567823E-10 -9.050010E-10
        95  17  6.586577E+04  4.376100E+04  1.128861E+04  6.187599E+03 -1.173999E-09  1.088966E-10
        95  18  5.367598E+04  2.505128E+04  1.795144E+04 -2.045201E+04 -3.506085E-09  5.251648E-10
        95  19 -2.851316E+05 -1.692365E+05 -1.162294E+05 -1.132454E+05  5.266771E+04  1.651458E+04
        95  20 -2.645787E+05 -9.875756E+04 -6.892748E+04 -1.055616E+05  3.336814E+04  2.271087E+03
        95  21 -2.580187E+05 -7.710017E+04 -4.959435E+04 -9.306591E+04  1.196171E+04 -6.360649E+03
        95  22 -1.092958E+05 -7.654395E+04 -6.478723E+04 -3.781569E+04  4.262609E+04  1.275047E+04
        95  23 -9.936966E+04 -2.750051E+04 -2.881775E+04 -4.969421E+04  2.962666E+04  8.686020E+02
        95  24 -1.021837E+05 -2.602484E+04 -1.582056E+04 -5.676297E+04  1.452123E+04 -5.400670E+03
        95  25  6.657020E+04  1.615970E+04 -1.334804E+04  3.763551E+04  3.258148E+04  8.984150E+03
        95  26  6.586649E+04  4.376118E+04  1.128987E+04  6.187588E+03  2.588412E+04 -5.344371E+02
        95  27  5.367630E+04  2.505137E+04  1.795202E+04 -2.045207E+04  1.708145E+04 -4.440493E+03
        96   1 -2.344831E+05 -7.969766E+04 -4.255866E+04 -9.221844E+04 -1.107294E+04  5.355938E+03
        96   2 -2.149170E+05 -6.640467E+04 -3.159401E+04 -8.323248E+04 -7.075588E+03  5.576422E+03
        96   3 -1.911974E+05 -6.053076E+04 -2.383323E+04 -8.002716E+04 -2.972026E+03  5.513508E+03
        96   4 -1.001522E+05 -2.943878E+04 -1.231056E+04 -5.448374E+04 -1.217406E+04  4.942841E+03
        96   5 -1.021079E+05 -2.468210E+04 -6.461278E+03 -5.199745E+04 -8.494361E+03  5.044322E+03
        96   6 -9.984735E+04 -2.728131E+04 -3.563627E+03 -5.529201E+04 -4.708567E+03  4.862380E+03
        96   7  3.419607E+04  2.082128E+04  1.793614E+04 -1.674175E+04 -1.327544E+04  4.529647E+03
        96   8  1.071399E+04  1.704149E+04  1.867067E+04 -2.075720E+04 -9.913412E+03  4.512117E+03
        96   9 -8.488284E+03  5.968944E+03  1.670563E+04 -3.055339E+04 -6.445396E+03  4.211147E+03
        96  10 -2.344832E+05 -7.969773E+04 -4.255894E+04 -9.221840E+04  1.221140E-08  3.462307E-09
        96  11 -2.149171E+05 -6.640472E+04 -3.159417E+04 -8.323245E+04  1.668041E-08  2.458144E-09
        96  12 -1.911974E+05 -6.053080E+04 -2.383331E+04 -8.002714E+04  2.488885E-08  6.275850E-09
        96  13 -1.001523E+05 -2.943885E+04 -1.231089E+04 -5.448369E+04  4.270515E-09  4.279577E-10
        96  14 -1.021080E+05 -2.468214E+04 -6.461461E+03 -5.199741E+04  6.510155E-09  1.723111E-09
        96  15 -9.984738E+04 -2.728135E+04 -3.563713E+03 -5.529199E+04  6.373476E-10  8.427830E-09
        96  16  3.419587E+04  2.082121E+04  1.793577E+04 -1.674170E+04 -2.543015E-09 -4.444278E-09
        96  17  1.071388E+04  1.704144E+04  1.867045E+04 -2.075717E+04 -9.954608E-09 -8.796499E-09
        96  18 -8.488334E+03  5.968914E+03  1.670552E+04 -3.055337E+04 -8.113116E-09 -6.854772E-09
        96  19 -2.344831E+05 -7.969766E+04 -4.255866E+04 -9.221844E+04  1.107294E+04 -5.355938E+03
        96  20 -2.149170E+05 -6.640467E+04 -3.159401E+04 -8.323248E+04  7.075588E+03 -5.576422E+03
        96  21 -1.911974E+05 -6.053076E+04 -2.383323E+04 -8.002716E+04  2.972026E+03 -5.513508E+03
        96  22 -1.001522E+05 -2.943878E+04 -1.231056E+04 -5.448374E+04  1.217406E+04 -4.942841E+03
        96  23 -1.021079E+05 -2.468210E+04 -6.461278E+03 -5.199745E+04  8.494361E+03 -5.044322E+03
        96  24 -9.984735E+04 -2.728131E+04 -3.563627E+03 -5.529201E+04  4.708567E+03 -4.862380E+03
        96  25  3.419607E+04  2.082128E+04  1.793614E+04 -1.674175E+04  1.327544E+04 -4.529647E+03
        96  26  1.071399E+04  1.704149E+04  1.867067E+04 -2.075720E+04  9.913412E+03 -4.512117E+03
        96  27 -8.488284E+03  5.968944E+03  1.670563E+04 -3.055339E+04  6.445396E+03 -4.211147E+03
        97   1 -1.746342E+05 -5.493826E+04 -1.924633E+04 -7.573903E+04 -2.208255E+03  4.782462E+03
        97   2 -1.553312E+05 -4.411472E+04 -1.322926E+04 -6.663739E+04 -8.962861E+02  3.577457E+03
        97   3 -1.307823E+05 -3.877589E+04 -7.797791E+03 -6.371022E+04  4.210012E+02  2.357979E+03
        97   4 -9.969557E+04 -2.742267E+04 -2.692225E+03 -5.516995E+04 -3.871517E+03  4.158858E+03
        97   5 -1.023148E+05 -2.464836E+04 -1.478925E+03 -5.209509E+04 -2.575714E+03  2.947848E+03
        97   6 -9.968532E+04 -2.735548E+04 -8.383182E+02 -5.519478E+04 -1.274625E+03  1.722359E+03
        97   7 -2.475129E+04  9.334319E+01  1.386154E+04 -3.459861E+04 -5.534996E+03  3.535173E+03
        97   8 -4.929574E+04 -5.181866E+03  1.027120E+04 -3.755170E+04 -4.255292E+03  2.318183E+03
        97   9 -6.858755E+04 -1.593507E+04  6.121048E+03 -4.667900E+04 -2.970332E+03  1.086709E+03
        97  10 -1.746342E+05 -5.493829E+04 -1.924638E+04 -7.573903E+04  1.162256E-08  2.352177E-09
        97  11 -1.553312E+05 -4.411473E+04 -1.322928E+04 -6.663739E+04 -1.670384E-08 -6.954553E-09
        97  12 -1.307823E+05 -3.877589E+04 -7.797801E+03 -6.371022E+04 -3.079187E-08 -1.143657E-08
        97  13 -9.969559E+04 -2.742269E+04 -2.692286E+03 -5.516994E+04  3.690724E-09  9.212513E-09
        97  14 -1.023148E+05 -2.464838E+04 -1.478953E+03 -5.209509E+04  9.367475E-09  3.173446E-09
        97  15 -9.968532E+04 -2.735548E+04 -8.383268E+02 -5.519478E+04 -1.262305E-09  1.339909E-09
        97  16 -2.475132E+04  9.332155E+01  1.386146E+04 -3.459859E+04  3.212378E-09 -1.792597E-09
        97  17 -4.929576E+04 -5.181876E+03  1.027115E+04 -3.755170E+04  1.845301E-08  4.089543E-09
        97  18 -6.858756E+04 -1.593508E+04  6.121029E+03 -4.667900E+04  2.392380E-08  1.170564E-08
        97  19 -1.746342E+05 -5.493826E+04 -1.924633E+04 -7.573903E+04  2.208255E+03 -4.782462E+03
        97  20 -1.553312E+05 -4.411472E+04 -1.322926E+04 -6.663739E+04  8.962861E+02 -3.577457E+03
        97  21 -1.307823E+05 -3.877589E+04 -7.797791E+03 -6.371022E+04 -4.210012E+02 -2.357979E+03
        97  22 -9.969557E+04 -2.742267E+04 -2.692225E+03 -5.516995E+04  3.871517E+03 -4.158858E+03
        97  23 -1.023148E+05 -2.464836E+04 -1.478925E+03 -5.209509E+04  2.575714E+03 -2.947848E+03
        97  24 -9.968532E+04 -2.735548E+04 -8.383182E+02 -5.519478E+04  1.274625E+03 -1.722359E+03
        97  25 -2.475129E+04  9.334319E+01  1.386154E+04 -3.459861E+04  5.534996E+03 -3.535173E+03
        97  26 -4.929574E+04 -5.181866E+03  1.027120E+04 -3.755170E+04  4.255292E+03 -2.318183E+03
        97  27 -6.858755E+04 -1.593507E+04  6.121048E+03 -4.667900E+04  2.970332E+03 -1.086709E+03
        98   1 -1.145825E+05 -3.281406E+04 -3.881015E+03 -5.927205E+04  8.698495E+02  1.524749E+03
        98   2 -9.533562E+04 -2.207231E+04  1.142904E+03 -5.015318E+04  1.640717E+03  9.557004E+01
        98   3 -7.073793E+04 -1.671816E+04  6.012333E+03 -4.720804E+04  2.411832E+03 -1.334234E+03
        98   4 -9.966615E+04 -2.735899E+04 -6.480361E+02 -5.518552E+04 -8.221675E+02  8.904968E+02
        98   5 -1.023414E+05 -2.466659E+04 -4.125084E+02 -5.209793E+04 -5.204472E+01 -5.389740E+02
        98   6 -9.966658E+04 -2.736189E+04 -3.310102E+02 -5.518444E+04  7.183164E+02 -1.969069E+03
        98   7 -8.474943E+04 -2.190386E+04  2.584970E+03 -5.109887E+04 -2.514240E+03  2.562240E+02
        98   8 -1.093471E+05 -2.726087E+04 -1.967918E+03 -5.404267E+04 -1.744791E+03 -1.173512E+03
        98   9 -1.285944E+05 -3.800555E+04 -6.674393E+03 -6.316049E+04 -9.751146E+02 -2.603872E+03
        98  10 -1.145825E+05 -3.281407E+04 -3.881021E+03 -5.927205E+04 -2.057155E-09 -6.481823E-10
        98  11 -9.533562E+04 -2.207231E+04  1.142899E+03 -5.015318E+04  8.083168E-09 -3.240345E-09
        98  12 -7.073793E+04 -1.671817E+04  6.012318E+03 -4.720804E+04  6.874181E-10 -1.740264E-09
        98  13 -9.966615E+04 -2.735899E+04 -6.480388E+02 -5.518552E+04  1.398574E-10 -4.645693E-10
        98  14 -1.023414E+05 -2.466659E+04 -4.125089E+02 -5.209793E+04 -9.852927E-09 -3.034255E-09
        98  15 -9.966658E+04 -2.736189E+04 -3.310185E+02 -5.518444E+04 -3.398613E-09  1.935146E-10
        98  16 -8.474944E+04 -2.190386E+04  2.584958E+03 -5.109886E+04  1.789726E-10 -3.516601E-10
        98  17 -1.093471E+05 -2.726087E+04 -1.967926E+03 -5.404267E+04  1.340886E-09 -2.786141E-09
        98  18 -1.285944E+05 -3.800555E+04 -6.674408E+03 -6.316049E+04  7.902111E-09  2.195120E-09
        98  19 -1.145825E+05 -3.281406E+04 -3.881015E+03 -5.927205E+04 -8.698495E+02 -1.524749E+03
        98  20 -9.533562E+04 -2.207231E+04  1.142904E+03 -5.015318E+04 -1.640717E+03 -9.557004E+01
        98  21 -7.073793E+04 -1.671816E+04  6.012333E+03 -4.720804E+04 -2.411832E+03  1.334234E+03
        98  22 -9.966615E+04 -2.735899E+04 -6.480361E+02 -5.518552E+04  8.221675E+02 -8.904968E+02
        98  23 -1.023414E+05 -2.466659E+04 -4.125084E+02 -5.209793E+04  5.204472E+01  5.389740E+02
        98  24 -9.966658E+04 -2.736189E+04 -3.310102E+02 -5.518444E+04 -7.183164E+02  1.969069E+03
        98  25 -8.474943E+04 -2.190386E+04  2.584970E+03 -5.109887E+04  2.514240E+03 -2.562240E+02
        98  26 -1.093471E+05 -2.726087E+04 -1.967918E+03 -5.404267E+04  1.744791E+03  1.173512E+03
        98  27 -1.285944E+05 -3.800555E+04 -6.674393E+03 -6.316049E+04  9.751146E+02  2.603872E+03
        99   1 -5.457043E+04 -1.074249E+04  9.734648E+03 -4.276656E+04  2.796269E+03 -2.190753E+03
        99   2 -3.532665E+04 -4.291681E-01  1.442089E+04 -3.364913E+04  3.576782E+03 -3.616641E+03
        99   3 -1.073425E+04  5.354470E+03  1.894555E+04 -3.070424E+04  4.356965E+03 -5.041327E+03
        99   4 -9.966745E+04 -2.736193E+04 -3.351187E+02 -5.518426E+04  1.102781E+03 -2.825600E+03
        99   5 -1.023418E+05 -2.466811E+04 -4.355895E+02 -5.209811E+04  1.884566E+03 -4.251080E+03
        99   6 -9.966816E+04 -2.736171E+04 -6.986401E+02 -5.518467E+04  2.666016E+03 -5.675363E+03
        99   7 -1.447621E+05 -4.398110E+04 -1.040492E+04 -6.760107E+04 -5.905630E+02 -3.460392E+03
        99   8 -1.693523E+05 -4.933544E+04 -1.529234E+04 -7.054526E+04  1.925481E+02 -4.885444E+03
        99   9 -1.885947E+05 -6.007751E+04 -2.034347E+04 -7.966204E+04  9.753179E+02 -6.309305E+03
        99  10 -5.457044E+04 -1.074249E+04  9.734625E+03 -4.276655E+04 -1.218734E-09  1.605303E-09
        99  11 -3.532667E+04 -4.466469E-01  1.442085E+04 -3.364912E+04  6.346858E-09  3.329570E-10
        99  12 -1.073428E+04  5.354438E+03  1.894547E+04 -3.070423E+04  9.559339E-09 -2.991999E-09
        99  13 -9.966746E+04 -2.736194E+04 -3.351360E+02 -5.518426E+04  3.403120E-09  3.201487E-09
        99  14 -1.023418E+05 -2.466813E+04 -4.356301E+02 -5.209810E+04 -2.804484E-09  2.446762E-09
        99  15 -9.966818E+04 -2.736175E+04 -6.987140E+02 -5.518466E+04  9.118389E-10 -2.304211E-09
        99  16 -1.447621E+05 -4.398111E+04 -1.040494E+04 -6.760107E+04  1.443109E-09  4.354343E-09
        99  17 -1.693523E+05 -4.933547E+04 -1.529238E+04 -7.054526E+04 -1.303697E-09  4.318022E-09
        99  18 -1.885947E+05 -6.007755E+04 -2.034354E+04 -7.966203E+04 -5.538927E-09 -1.918992E-09
        99  19 -5.457043E+04 -1.074249E+04  9.734648E+03 -4.276656E+04 -2.796269E+03  2.190753E+03
        99  20 -3.532665E+04 -4.291681E-01  1.442089E+04 -3.364913E+04 -3.576782E+03  3.616641E+03
        99  21 -1.073425E+04  5.354470E+03  1.894555E+04 -3.070424E+04 -4.356965E+03  5.041327E+03
        99  22 -9.966745E+04 -2.736193E+04 -3.351187E+02 -5.518426E+04 -1.102781E+03  2.825600E+03
        99  23 -1.023418E+05 -2.466811E+04 -4.355895E+02 -5.209811E+04 -1.884566E+03  4.251080E+03
        99  24 -9.966816E+04 -2.736171E+04 -6.986401E+02 -5.518467E+04 -2.666016E+03  5.675363E+03
        99  25 -1.447621E+05 -4.398110E+04 -1.040492E+04 -6.760107E+04  5.905630E+02  3.460392E+03
        99  26 -1.693523E+05 -4.933544E+04 -1.529234E+04 -7.054526E+04 -1.925481E+02  4.885444E+03
        99  27 -1.885947E+05 -6.007751E+04 -2.034347E+04 -7.966204E+04 -9.753179E+02  6.309305E+03
       100   1  5.417963E+03  1.132081E+04  2.246049E+04 -2.628615E+04  4.824194E+03 -5.867418E+03
       100   2  2.469945E+04  2.207005E+04  2.654843E+04 -1.716075E+04  6.167073E+03 -7.073827E+03
       100   3  4.922112E+04  2.733527E+04  3.003101E+04 -1.420547E+04  7.502724E+03 -8.260296E+03
       100   4 -9.969027E+04 -2.735804E+04 -9.079743E+02 -5.519431E+04  3.128500E+03 -6.503297E+03
       100   5 -1.023144E+05 -2.465180E+04 -1.608829E+03 -5.209532E+04  4.493553E+03 -7.701524E+03
       100   6 -9.970313E+04 -2.743410E+04 -2.932659E+03 -5.516675E+04  5.851345E+03 -8.879817E+03
       100   7 -2.047873E+05 -6.603603E+04 -2.427711E+04 -8.409799E+04  1.433116E+03 -7.139060E+03
       100   8 -2.293116E+05 -7.137224E+04 -2.976696E+04 -8.702324E+04  2.820410E+03 -8.329081E+03
       100   9 -2.486040E+05 -8.220139E+04 -3.589741E+04 -9.611876E+04  4.200405E+03 -9.499174E+03
       100  10  5.417929E+03  1.132077E+04  2.246038E+04 -2.628613E+04 -1.757927E-08 -1.389293E-08
       100  11  2.469939E+04  2.206998E+04  2.654826E+04 -1.716071E+04 -1.858106E-08 -2.744948E-09
       100  12  4.922104E+04  2.733518E+04  3.003078E+04 -1.420542E+04  8.968985E-09  8.283735E-09
       100  13 -9.969029E+04 -2.735809E+04 -9.080722E+02 -5.519430E+04  3.574135E-09 -4.489503E-09
       100  14 -1.023145E+05 -2.465187E+04 -1.608978E+03 -5.209529E+04 -4.801199E-09 -2.730886E-09
       100  15 -9.970319E+04 -2.743420E+04 -2.932871E+03 -5.516670E+04  3.708602E-09  1.515823E-09
       100  16 -2.047873E+05 -6.603609E+04 -2.427720E+04 -8.409798E+04  1.609651E-08  4.898751E-09
       100  17 -2.293116E+05 -7.137232E+04 -2.976710E+04 -8.702322E+04 -9.098697E-09 -2.376875E-09
       100  18 -2.486040E+05 -8.220150E+04 -3.589761E+04 -9.611873E+04 -1.561036E-08 -5.347173E-09
       100  19  5.417963E+03  1.132081E+04  2.246049E+04 -2.628615E+04 -4.824194E+03  5.867418E+03
       100  20  2.469945E+04  2.207005E+04  2.654843E+04 -1.716075E+04 -6.167073E+03  7.073827E+03
       100  21  4.922112E+04  2.733527E+04  3.003101E+04 -1.420547E+04 -7.502724E+03  8.260296E+03
       100  22 -9.969027E+04 -2.735804E+04 -9.079743E+02 -5.519431E+04 -3.128500E+03  6.503297E+03
       100  23 -1.023144E+05 -2.465180E+04 -1.608829E+03 -5.209532E+04 -4.493553E+03  7.701524E+03
       100  24 -9.970313E+04 -2.743410E+04 -2.932659E+03 -5.516675E+04 -5.851345E+03  8.879817E+03
       100  25 -2.047873E+05 -6.603603E+04 -2.427711E+04 -8.409799E+04 -1.433116E+03  7.139060E+03
       100  26 -2.293116E+05 -7.137224E+04 -2.976696E+04 -8.702324E+04 -2.820410E+03  8.329081E+03
       100  27 -2.486040E+05 -8.220139E+04 -3.589741E+04 -9.611876E+04 -4.200405E+03  9.499174E+03
       101   1  6.547829E+04  3.320047E+04  3.278948E+04 -1.019321E+04  8.486609E+03 -8.913883E+03
       101   2  8.464675E+04  4.429401E+04  3.451610E+04 -3.472582E+02  1.211712E+04 -9.108930E+03
       101   3  1.080084E+05  4.795121E+04  3.337133E+04  3.767203E+03  1.560304E+04 -8.917186E+03
       101   4 -9.986918E+04 -2.727887E+04 -3.882456E+03 -5.529741E+04  6.735326E+03 -9.570970E+03
       101   5 -1.020894E+05 -2.469400E+04 -7.041449E+03 -5.199070E+04  1.079927E+04 -9.603638E+03
       101   6 -1.002035E+05 -2.963224E+04 -1.341603E+04 -5.441605E+04  1.471848E+04 -9.249503E+03
       101   7 -2.651902E+05 -8.775662E+04 -4.055638E+04 -1.003910E+05  4.984536E+03 -1.022787E+04
       101   8 -2.887911E+05 -9.367951E+04 -4.860135E+04 -1.036201E+05  9.481844E+03 -1.009819E+04
       101   9 -3.083719E+05 -1.072122E+05 -6.020617E+04 -1.125814E+05  1.383423E+04 -9.581697E+03
       101  10  6.547819E+04  3.320036E+04  3.278919E+04 -1.019315E+04 -5.134035E-09  4.292112E-09
       101  11  8.464657E+04  4.429388E+04  3.451567E+04 -3.471693E+02 -1.623577E-09  2.698268E-09
       101  12  1.080082E+05  4.795106E+04  3.337072E+04  3.767315E+03  1.161473E-08 -1.566333E-09
       101  13 -9.986925E+04 -2.727898E+04 -3.882713E+03 -5.529736E+04  3.391675E-09  2.742485E-09
       101  14 -1.020896E+05 -2.469413E+04 -7.041842E+03 -5.199062E+04  1.263582E-08  1.024856E-09
       101  15 -1.002038E+05 -2.963239E+04 -1.341660E+04 -5.441594E+04  9.122470E-09 -1.520929E-09
       101  16 -2.651902E+05 -8.775674E+04 -4.055662E+04 -1.003909E+05  3.222420E-09  1.206995E-09
       101  17 -2.887912E+05 -9.367964E+04 -4.860171E+04 -1.036200E+05  1.057913E-08 -5.958516E-10
       101  18 -3.083721E+05 -1.072123E+05 -6.020670E+04 -1.125813E+05  2.538781E-09 -7.342205E-10
       101  19  6.547829E+04  3.320047E+04  3.278948E+04 -1.019321E+04 -8.486609E+03  8.913883E+03
       101  20  8.464675E+04  4.429401E+04  3.451610E+04 -3.472582E+02 -1.211712E+04  9.108930E+03
       101  21  1.080084E+05  4.795121E+04  3.337133E+04  3.767203E+03 -1.560304E+04  8.917186E+03
       101  22 -9.986918E+04 -2.727887E+04 -3.882456E+03 -5.529741E+04 -6.735326E+03  9.570970E+03
       101  23 -1.020894E+05 -2.469400E+04 -7.041449E+03 -5.199070E+04 -1.079927E+04  9.603638E+03
       101  24 -1.002035E+05 -2.963224E+04 -1.341603E+04 -5.441605E+04 -1.471848E+04  9.249503E+03
       101  25 -2.651902E+05 -8.775662E+04 -4.055638E+04 -1.003910E+05 -4.984536E+03  1.022787E+04
       101  26 -2.887911E+05 -9.367951E+04 -4.860135E+04 -1.036201E+05 -9.481844E+03  1.009819E+04
       101  27 -3.083719E+05 -1.072122E+05 -6.020617E+04 -1.125814E+05 -1.383423E+04  9.581697E+03
       102   1  1.277995E+05  5.203661E+04  3.299464E+04 -6.416886E+02  2.015159E+04 -8.670582E+03
       102   2  1.392189E+05  7.145691E+04  2.572301E+04  2.745506E+04  2.775622E+04 -4.364864E+03
       102   3  1.379122E+05  4.131331E+04  2.329257E+02  6.143501E+04  3.248812E+04  7.595013E+03
       102   4 -1.024299E+05 -2.589988E+04 -1.724127E+04 -5.688510E+04  1.727715E+04 -9.749431E+03
       102   5 -9.909229E+04 -2.778334E+04 -3.140658E+04 -4.949945E+04  3.347781E+04 -2.218537E+03
       102   6 -1.101909E+05 -8.094589E+04 -7.060579E+04 -3.622979E+04  4.680473E+04  1.296718E+04
       102   7 -3.326058E+05 -1.038342E+05 -6.748024E+04 -1.131102E+05  1.440387E+04 -1.082793E+04
       102   8 -3.373438E+05 -1.270140E+05 -8.853945E+04 -1.264247E+05  3.919696E+04 -7.338137E+01
       102   9 -3.582269E+05 -2.031845E+05 -1.414480E+05 -1.338530E+05  6.111483E+04  1.833521E+04
       102  10  1.277991E+05  5.203642E+04  3.299374E+04 -6.415479E+02  1.432607E-08 -3.625460E-09
       102  11  1.392180E+05  7.145668E+04  2.572153E+04  2.745516E+04 -5.304567E-09 -3.345684E-09
       102  12  1.379110E+05  4.131297E+04  2.308343E+02  6.143481E+04 -5.640127E-09 -1.925943E-09
       102  13 -1.024303E+05 -2.590006E+04 -1.724201E+04 -5.688496E+04  9.645886E-09 -2.664487E-09
       102  14 -9.909349E+04 -2.778364E+04 -3.140869E+04 -4.949939E+04  9.375964E-09 -2.046030E-09
       102  15 -1.101933E+05 -8.094666E+04 -7.061023E+04 -3.623027E+04  6.359000E-09 -7.087404E-10
       102  16 -3.326061E+05 -1.038344E+05 -6.748085E+04 -1.131101E+05 -6.139402E-09 -1.463783E-09
       102  17 -3.373454E+05 -1.270145E+05 -8.854234E+04 -1.264247E+05  4.611911E-10 -2.576364E-09
       102  18 -3.582310E+05 -2.031859E+05 -1.414556E+05 -1.338539E+05  7.306854E-10 -3.897816E-10
       102  19  1.277995E+05  5.203661E+04  3.299464E+04 -6.416886E+02 -2.015159E+04  8.670582E+03
       102  20  1.392189E+05  7.145691E+04  2.572301E+04  2.745506E+04 -2.775622E+04  4.364864E+03
       102  21  1.379122E+05  4.131331E+04  2.329257E+02  6.143501E+04 -3.248812E+04 -7.595013E+03
       102  22 -1.024299E+05 -2.589988E+04 -1.724127E+04 -5.688510E+04 -1.727715E+04  9.749431E+03
       102  23 -9.909229E+04 -2.778334E+04 -3.140658E+04 -4.949945E+04 -3.347781E+04  2.218537E+03
       102  24 -1.101909E+05 -8.094589E+04 -7.060579E+04 -3.622979E+04 -4.680473E+04 -1.296718E+04
       102  25 -3.326058E+05 -1.038342E+05 -6.748024E+04 -1.131102E+05 -1.440387E+04  1.082793E+04
       102  26 -3.373438E+05 -1.270140E+05 -8.853945E+04 -1.264247E+05 -3.919696E+04  7.338137E+01
       102  27 -3.582269E+05 -2.031845E+05 -1.414480E+05 -1.338530E+05 -6.111483E+04 -1.833521E+04
       103   1  9.916056E+05  1.689400E+05  1.502602E+05  1.339972E+04  3.788694E+04 -1.309177E+04
       103   2  9.476279E+05  1.915279E+05  1.298663E+05  3.013169E+04  1.381279E+04 -4.497818E+04
       103   3  9.011246E+05  1.912718E+05  1.194447E+05  5.396483E+04 -1.026882E+04 -5.642131E+04
       103   4  5.949359E+04 -6.047970E+04 -6.560390E+04  5.246528E+04 -4.602170E+04 -1.314984E+04
       103   5  6.430973E+04 -1.746082E+04 -3.247875E+04  4.888892E+04 -2.932785E+04 -4.501938E+04
       103   6  5.951647E+04 -4.379889E+03 -1.768047E+04  5.241341E+04 -1.264344E+04 -5.643071E+04
       103   7 -8.717983E+05 -2.899509E+05 -2.814989E+05  9.147167E+04 -1.298054E+05 -1.321852E+04
       103   8 -8.182473E+05 -2.264915E+05 -1.948487E+05  6.761862E+04 -7.240878E+04 -4.506322E+04
       103   9 -7.813905E+05 -2.000676E+05 -1.548256E+05  5.086398E+04 -1.501494E+04 -5.644011E+04
       103  10  9.916041E+05  1.689394E+05  1.502572E+05  1.340012E+04  1.192219E-07  1.860569E-10
       103  11  9.476271E+05  1.915257E+05  1.298622E+05  3.013219E+04 -4.517892E-09 -2.082200E-10
       103  12  9.011236E+05  1.912683E+05  1.194385E+05  5.396437E+04 -1.296447E-07  1.337106E-10
       103  13  5.949127E+04 -6.048046E+04 -6.560821E+04  5.246479E+04  4.334520E-09  1.014197E-09
       103  14  6.430826E+04 -1.746323E+04 -3.248417E+04  4.888786E+04  6.704300E-09  1.570776E-10
       103  15  5.951544E+04 -4.383351E+03 -1.768676E+04  5.241284E+04  3.862496E-09 -2.610247E-10
       103  16 -8.718164E+05 -2.899556E+05 -2.815310E+05  9.147029E+04 -1.233641E-07  7.894546E-10
       103  17 -8.182534E+05 -2.264951E+05 -1.948624E+05  6.761599E+04  1.640598E-09 -1.603756E-09
       103  18 -7.813915E+05 -2.000711E+05 -1.548320E+05  5.086330E+04  1.235470E-07 -4.895625E-09
       103  19  9.916056E+05  1.689400E+05  1.502602E+05  1.339972E+04 -3.788694E+04  1.309177E+04
       103  20  9.476279E+05  1.915279E+05  1.298663E+05  3.013169E+04 -1.381279E+04  4.497818E+04
       103  21  9.011246E+05  1.912718E+05  1.194447E+05  5.396483E+04  1.026882E+04  5.642131E+04
       103  22  5.949359E+04 -6.047970E+04 -6.560390E+04  5.246528E+04  4.602170E+04  1.314984E+04
       103  23  6.430973E+04 -1.746082E+04 -3.247875E+04  4.888892E+04  2.932785E+04  4.501938E+04
       103  24  5.951647E+04 -4.379889E+03 -1.768047E+04  5.241341E+04  1.264344E+04  5.643071E+04
       103  25 -8.717983E+05 -2.899509E+05 -2.814989E+05  9.147167E+04  1.298054E+05  1.321852E+04
       103  26 -8.182473E+05 -2.264915E+05 -1.948487E+05  6.761862E+04  7.240878E+04  4.506322E+04
       103  27 -7.813905E+05 -2.000676E+05 -1.548256E+05  5.086398E+04  1.501494E+04  5.644011E+04
       104   1  8.733620E+05  1.844612E+05  1.163727E+05  5.151535E+04 -7.369376E+03 -5.643352E+04
       104   2  8.284135E+05  1.758994E+05  1.105892E+05  4.839429E+04 -8.242261E+03 -5.680361E+04
       104   3  7.832762E+05  1.660323E+05  1.050556E+05  5.380071E+04 -9.118429E+03 -5.490924E+04
       104   4  6.144421E+04 -3.764547E+03 -1.331654E+04  5.273438E+04 -1.035341E+04 -5.644361E+04
       104   5  6.194243E+04 -8.833025E+02 -7.272430E+03  4.846798E+04 -6.713914E+03 -5.680857E+04
       104   6  6.146685E+04 -9.132164E+01 -4.111432E+03  5.272975E+04 -3.077680E+03 -5.490762E+04
       104   7 -7.498189E+05 -1.920233E+05 -1.430230E+05  5.395158E+04 -1.333367E+04 -5.645373E+04
       104   8 -7.039417E+05 -1.776944E+05 -1.251471E+05  4.854138E+04 -5.187375E+03 -5.681353E+04
       104   9 -6.598206E+05 -1.662397E+05 -1.132890E+05  5.165989E+04  2.956331E+03 -5.490603E+04
       104  10  8.733611E+05  1.844578E+05  1.163667E+05  5.151502E+04 -7.298659E-09 -1.127303E-09
       104  11  8.284126E+05  1.758959E+05  1.105830E+05  4.839392E+04  1.723803E-10 -7.467154E-10
       104  12  7.832753E+05  1.660290E+05  1.050497E+05  5.380031E+04  4.400102E-09 -3.052989E-09
       104  13  6.144324E+04 -3.767997E+03 -1.332273E+04  5.273391E+04  1.829047E-12 -2.470048E-09
       104  14  6.194152E+04 -8.867801E+02 -7.278579E+03  4.846767E+04  2.932059E-10 -1.336493E-09
       104  15  6.146603E+04 -9.456169E+01 -4.117115E+03  5.272961E+04  3.774038E-09 -4.017817E-09
       104  16 -7.498199E+05 -1.920268E+05 -1.430293E+05  5.395097E+04  2.761231E-09 -3.340662E-09
       104  17 -7.039426E+05 -1.776979E+05 -1.251532E+05  4.854114E+04 -1.080729E-09 -5.224530E-10
       104  18 -6.598214E+05 -1.662430E+05 -1.132947E+05  5.166002E+04 -5.978728E-09 -1.023029E-09
       104  19  8.733620E+05  1.844612E+05  1.163727E+05  5.151535E+04  7.369376E+03  5.643352E+04
       104  20  8.284135E+05  1.758994E+05  1.105892E+05  4.839429E+04  8.242261E+03  5.680361E+04
       104  21  7.832762E+05  1.660323E+05  1.050556E+05  5.380071E+04  9.118429E+03  5.490924E+04
       104  22  6.144421E+04 -3.764547E+03 -1.331654E+04  5.273438E+04  1.035341E+04  5.644361E+04
       104  23  6.194243E+04 -8.833025E+02 -7.272430E+03  4.846798E+04  6.713914E+03  5.680857E+04
       104  24  6.146685E+04 -9.132164E+01 -4.111432E+03  5.272975E+04  3.077680E+03  5.490762E+04
       104  25 -7.498189E+05 -1.920233E+05 -1.430230E+05  5.395158E+04  1.333367E+04  5.645373E+04
       104  26 -7.039417E+05 -1.776944E+05 -1.251471E+05  4.854138E+04  5.187375E+03  5.681353E+04
       104  27 -6.598206E+05 -1.662397E+05 -1.132890E+05  5.165989E+04 -2.956331E+03  5.490603E+04
       105   1  7.548749E+05  1.593870E+05  1.012964E+05  5.358380E+04 -8.429511E+03 -5.307073E+04
       105   2  7.098941E+05  1.490967E+05  9.543896E+04  4.923949E+04 -8.057376E+03 -4.995093E+04
       105   3  6.648635E+05  1.387824E+05  8.933476E+04  5.357438E+04 -7.686951E+03 -4.658063E+04
       105   4  6.166011E+04 -7.063049E+01 -3.112036E+03  5.276387E+04 -2.457341E+03 -5.306840E+04
       105   5  6.173917E+04  8.478024E+01 -1.760639E+03  4.842385E+04 -1.586763E+03 -4.994661E+04
       105   6  6.167974E+04  1.295464E+02 -1.002454E+03  5.276356E+04 -7.178688E+02 -4.657420E+04
       105   7 -6.310730E+05 -1.595510E+05 -1.075300E+05  5.194472E+04  3.508432E+03 -5.306608E+04
       105   8 -5.859943E+05 -1.489470E+05 -9.896834E+04  4.760894E+04  4.877372E+03 -4.994231E+04
       105   9 -5.411389E+05 -1.385405E+05 -9.134659E+04  5.195341E+04  6.244720E+03 -4.656778E+04
       105  10  7.548741E+05  1.593839E+05  1.012910E+05  5.358344E+04 -5.872738E-10 -1.196385E-09
       105  11  7.098933E+05  1.490940E+05  9.543415E+04  4.923917E+04  3.440760E-08  2.547622E-09
       105  12  6.648628E+05  1.387801E+05  8.933057E+04  5.357410E+04  6.521699E-08  2.123723E-09
       105  13  6.165934E+04 -7.365636E+01 -3.117339E+03  5.276376E+04 -8.656563E-09 -2.298355E-09
       105  14  6.173849E+04  8.210065E+01 -1.765332E+03  4.842379E+04 -1.778272E-09  9.833175E-09
       105  15  6.167916E+04  1.272169E+02 -1.006532E+03  5.276354E+04  1.033818E-08  1.989454E-08
       105  16 -6.310738E+05 -1.595541E+05 -1.075353E+05  5.194487E+04  4.118710E-09 -1.196867E-09
       105  17 -5.859950E+05 -1.489497E+05 -9.897308E+04  4.760914E+04 -2.775219E-08 -1.821669E-09
       105  18 -5.411395E+05 -1.385428E+05 -9.135074E+04  5.195365E+04 -6.002879E-08 -2.804593E-09
       105  19  7.548749E+05  1.593870E+05  1.012964E+05  5.358380E+04  8.429511E+03  5.307073E+04
       105  20  7.098941E+05  1.490967E+05  9.543896E+04  4.923949E+04  8.057376E+03  4.995093E+04
       105  21  6.648635E+05  1.387824E+05  8.933476E+04  5.357438E+04  7.686951E+03  4.658063E+04
       105  22  6.166011E+04 -7.063049E+01 -3.112036E+03  5.276387E+04  2.457341E+03  5.306840E+04
       105  23  6.173917E+04  8.478024E+01 -1.760639E+03  4.842385E+04  1.586763E+03  4.994661E+04
       105  24  6.167974E+04  1.295464E+02 -1.002454E+03  5.276356E+04  7.178688E+02  4.657420E+04
       105  25 -6.310730E+05 -1.595510E+05 -1.075300E+05  5.194472E+04 -3.508432E+03  5.306608E+04
       105  26 -5.859943E+05 -1.489470E+05 -9.896834E+04  4.760894E+04 -4.877372E+03  4.994231E+04
       105  27 -5.411389E+05 -1.385405E+05 -9.134659E+04  5.195341E+04 -6.244720E+03  4.656778E+04
       106   1  6.364312E+05  1.322039E+05  8.511928E+04  5.353410E+04 -7.522622E+03 -4.453801E+04
       106   2  5.914548E+05  1.218688E+05  7.875500E+04  4.914368E+04 -7.370608E+03 -4.103284E+04
       106   3  5.464567E+05  1.115686E+05  7.229698E+04  5.344525E+04 -7.219804E+03 -3.750020E+04
       106   4  6.170930E+04  1.311612E+02 -7.571860E+02  5.276643E+04 -5.618152E+02 -4.453083E+04
       106   5  6.173438E+04  1.288347E+02 -4.255634E+02  4.842021E+04 -3.554993E+02 -4.102441E+04
       106   6  6.172540E+04  1.519101E+02 -2.258065E+02  5.276642E+04 -1.503842E+02 -3.749051E+04
       106   7 -5.126810E+05 -1.319571E+05 -8.663985E+04  5.199936E+04  6.392812E+03 -4.452366E+04
       106   8 -4.677044E+05 -1.216243E+05 -7.961137E+04  4.769727E+04  6.653868E+03 -4.101599E+04
       106   9 -4.227700E+05 -1.112759E+05 -7.275297E+04  5.208803E+04  6.913741E+03 -3.748083E+04
       106  10  6.364306E+05  1.322018E+05  8.511545E+04  5.353383E+04 -5.995185E-08 -9.204522E-11
       106  11  5.914543E+05  1.218670E+05  7.875173E+04  4.914343E+04 -3.637325E-08  3.351067E-10
       106  12  5.464562E+05  1.115671E+05  7.229424E+04  5.344503E+04 -3.375796E-09  3.232596E-10
       106  13  6.170877E+04  1.290317E+02 -7.609132E+02  5.276641E+04  8.657678E-09  1.786065E-08
       106  14  6.173392E+04  1.270274E+02 -4.287265E+02  4.842020E+04  6.944981E-09  1.393006E-08
       106  15  6.172503E+04  1.504007E+02 -2.284479E+02  5.276641E+04 -4.268174E-09  8.659701E-10
       106  16 -5.126815E+05 -1.319593E+05 -8.664365E+04  5.199959E+04  6.545464E-08 -9.581519E-12
       106  17 -4.677049E+05 -1.216261E+05 -7.961461E+04  4.769749E+04  3.440954E-08  3.683940E-09
       106  18 -4.227704E+05 -1.112774E+05 -7.275570E+04  5.208824E+04  5.621921E-09 -6.071902E-10
       106  19  6.364312E+05  1.322039E+05  8.511928E+04  5.353410E+04  7.522622E+03  4.453801E+04
       106  20  5.914548E+05  1.218688E+05  7.875500E+04  4.914368E+04  7.370608E+03  4.103284E+04
       106  21  5.464567E+05  1.115686E+05  7.229698E+04  5.344525E+04  7.219804E+03  3.750020E+04
       106  22  6.170930E+04  1.311612E+02 -7.571860E+02  5.276643E+04  5.618152E+02  4.453083E+04
       106  23  6.173438E+04  1.288347E+02 -4.255634E+02  4.842021E+04  3.554993E+02  4.102441E+04
       106  24  6.172540E+04  1.519101E+02 -2.258065E+02  5.276642E+04  1.503842E+02  3.749051E+04
       106  25 -5.126810E+05 -1.319571E+05 -8.663985E+04  5.199936E+04 -6.392812E+03  4.452366E+04
       106  26 -4.677044E+05 -1.216243E+05 -7.961137E+04  4.769727E+04 -6.653868E+03  4.101599E+04
       106  27 -4.227700E+05 -1.112759E+05 -7.275297E+04  5.208803E+04 -6.913741E+03  3.748083E+04
       107   1  5.180258E+05  1.050036E+05  6.793830E+04  5.341691E+04 -7.186374E+03 -3.543541E+04
       107   2  4.730621E+05  9.467724E+04  6.140591E+04  4.902174E+04 -7.171238E+03 -3.188831E+04
       107   3  4.280805E+05  8.438693E+04  5.486485E+04  5.332258E+04 -7.157009E+03 -2.833849E+04
       107   4  6.173357E+04  1.565337E+02 -1.573481E+02  5.276729E+04 -1.184359E+02 -3.542511E+04
       107   5  6.174988E+04  1.483483E+02 -5.205330E+01  4.841911E+04 -9.810949E+01 -3.187709E+04
       107   6  6.174608E+04  1.755787E+02  4.102203E+01  5.276727E+04 -7.868843E+01 -2.832635E+04
       107   7 -3.943496E+05 -1.047004E+05 -6.825680E+04  5.211807E+04  6.944520E+03 -3.541482E+04
       107   8 -3.493924E+05 -9.438850E+04 -6.151309E+04  4.781682E+04  6.970524E+03 -3.186588E+04
       107   9 -3.044535E+05 -8.404209E+04 -5.478523E+04  5.221224E+04  6.995625E+03 -2.831423E+04
       107  10  5.180254E+05  1.050023E+05  6.793584E+04  5.341670E+04 -2.486034E-08 -9.040993E-10
       107  11  4.730617E+05  9.467614E+04  6.140390E+04  4.902155E+04  1.123559E-09  1.633447E-09
       107  12  4.280802E+05  8.438606E+04  5.486324E+04  5.332242E+04  2.850891E-08  6.837368E-09
       107  13  6.173323E+04  1.551861E+02 -1.597065E+02  5.276729E+04  4.345694E-09  5.739457E-10
       107  14  6.174961E+04  1.472571E+02 -5.396292E+01  4.841911E+04  1.341956E-08 -8.587740E-09
       107  15  6.174586E+04  1.747170E+02  3.951415E+01  5.276727E+04 -3.704373E-09 -1.271224E-08
       107  16 -3.943500E+05 -1.047017E+05 -6.825924E+04  5.211827E+04  2.703081E-08 -1.247274E-09
       107  17 -3.493927E+05 -9.438961E+04 -6.151509E+04  4.781700E+04 -3.222686E-09 -3.198930E-09
       107  18 -3.044538E+05 -8.404296E+04 -5.478682E+04  5.221240E+04 -2.978723E-08  1.286331E-09
       107  19  5.180258E+05  1.050036E+05  6.793830E+04  5.341691E+04  7.186374E+03  3.543541E+04
       107  20  4.730621E+05  9.467724E+04  6.140591E+04  4.902174E+04  7.171238E+03  3.188831E+04
       107  21  4.280805E+05  8.438693E+04  5.486485E+04  5.332258E+04  7.157009E+03  2.833849E+04
       107  22  6.173357E+04  1.565337E+02 -1.573481E+02  5.276729E+04  1.184359E+02  3.542511E+04
       107  23  6.174988E+04  1.483483E+02 -5.205330E+01  4.841911E+04  9.810949E+01  3.187709E+04
       107  24  6.174608E+04  1.755787E+02  4.102203E+01  5.276727E+04  7.868843E+01  2.832635E+04
       107  25 -3.943496E+05 -1.047004E+05 -6.825680E+04  5.211807E+04 -6.944520E+03  3.541482E+04
       107  26 -3.493924E+05 -9.438850E+04 -6.151309E+04  4.781682E+04 -6.970524E+03  3.186588E+04
       107  27 -3.044535E+05 -8.404209E+04 -5.478523E+04  5.221224E+04 -6.995625E+03  2.831423E+04
       108   1  3.996593E+05  7.782362E+04  5.049028E+04  5.329067E+04 -7.171560E+03 -2.627163E+04
       108   2  3.547006E+05  6.750035E+04  4.398108E+04  4.888501E+04 -7.281116E+03 -2.272091E+04
       108   3  3.097359E+05  5.723155E+04  3.754616E+04  5.317243E+04 -7.391305E+03 -1.917082E+04
       108   4  6.175263E+04  1.795358E+02  8.907964E+01  5.276661E+04 -9.381294E+01 -2.625904E+04
       108   5  6.176094E+04  1.719268E+02  2.110721E+02  4.841992E+04 -2.048069E+02 -2.270767E+04
       108   6  6.176153E+04  2.190903E+02  4.082389E+02  5.276655E+04 -3.164416E+02 -1.915693E+04
       108   7 -2.760393E+05 -7.746990E+04 -5.031412E+04  5.224279E+04  6.980239E+03 -2.624645E+04
       108   8 -2.310924E+05 -6.716052E+04 -4.356040E+04  4.795501E+04  6.868299E+03 -2.269444E+04
       108   9 -1.861511E+05 -5.679625E+04 -3.673070E+04  5.236080E+04  6.755711E+03 -1.914305E+04
       108  10  3.996591E+05  7.782287E+04  5.048889E+04  5.329052E+04  2.596671E-08  1.010948E-08
       108  11  3.547004E+05  6.749978E+04  4.398001E+04  4.888487E+04 -1.481685E-08  4.019562E-09
       108  12  3.097358E+05  5.723114E+04  3.754537E+04  5.317232E+04 -4.853731E-08  2.582164E-09
       108  13  6.175244E+04  1.787953E+02  8.778381E+01  5.276661E+04  3.954285E-11 -1.038660E-08
       108  14  6.176080E+04  1.713730E+02  2.101030E+02  4.841991E+04  2.708154E-09 -5.263361E-09
       108  15  6.176143E+04  2.186962E+02  4.075490E+02  5.276654E+04 -4.775318E-09  1.389087E-09
       108  16 -2.760395E+05 -7.747066E+04 -5.031551E+04  5.224294E+04 -2.671626E-08  6.649191E-09
       108  17 -2.310926E+05 -6.716109E+04 -4.356145E+04  4.795514E+04  6.475515E-09 -5.612879E-10
       108  18 -1.861512E+05 -5.679665E+04 -3.673147E+04  5.236091E+04  4.369334E-08  5.035682E-10
       108  19  3.996593E+05  7.782362E+04  5.049028E+04  5.329067E+04  7.171560E+03  2.627163E+04
       108  20  3.547006E+05  6.750035E+04  4.398108E+04  4.888501E+04  7.281116E+03  2.272091E+04
       108  21  3.097359E+05  5.723155E+04  3.754616E+04  5.317243E+04  7.391305E+03  1.917082E+04
       108  22  6.175263E+04  1.795358E+02  8.907964E+01  5.276661E+04  9.381294E+01  2.625904E+04
       108  23  6.176094E+04  1.719268E+02  2.110721E+02  4.841992E+04  2.048069E+02  2.270767E+04
       108  24  6.176153E+04  2.190903E+02  4.082389E+02  5.276655E+04  3.164416E+02  1.915693E+04
       108  25 -2.760393E+05 -7.746990E+04 -5.031412E+04  5.224279E+04 -6.980239E+03  2.624645E+04
       108  26 -2.310924E+05 -6.716052E+04 -4.356040E+04  4.795501E+04 -6.868299E+03  2.269444E+04
       108  27 -1.861511E+05 -5.679625E+04 -3.673070E+04  5.236080E+04 -6.755711E+03  1.914305E+04
       109   1  2.813430E+05  5.066998E+04  3.326340E+04  5.316501E+04 -7.477312E+03 -1.710460E+04
       109   2  2.363386E+05  4.044415E+04  2.706225E+04  4.859883E+04 -7.961384E+03 -1.355886E+04
       109   3  1.914385E+05  3.054093E+04  2.124442E+04  5.272324E+04 -8.445786E+03 -1.002009E+04
       109   4  6.178885E+04  2.239806E+02  5.479720E+02  5.276609E+04 -4.026097E+02 -1.709041E+04
       109   5  6.173955E+04  3.143895E+02  9.823634E+02  4.842021E+04 -9.007651E+02 -1.354431E+04
       109   6  6.179414E+04  7.297629E+02  1.809552E+03  5.276505E+04 -1.399282E+03 -1.000519E+04
       109   7 -1.577167E+05 -5.022426E+04 -3.216819E+04  5.236728E+04  6.669693E+03 -1.707622E+04
       109   8 -1.128288E+05 -3.981678E+04 -2.509792E+04  4.824163E+04  6.157949E+03 -1.352977E+04
       109   9 -6.783322E+04 -2.908217E+04 -1.762546E+04  5.280685E+04  5.645810E+03 -9.990292E+03
       109  10  2.813428E+05  5.066965E+04  3.326275E+04  5.316491E+04 -4.880927E-08  5.723727E-09
       109  11  2.363385E+05  4.044393E+04  2.706179E+04  4.859874E+04 -4.783442E-08  1.925552E-09
       109  12  1.914384E+05  3.054080E+04  2.124409E+04  5.272317E+04 -3.839715E-08  4.164854E-09
       109  13  6.178878E+04  2.236669E+02  5.474228E+02  5.276608E+04 -1.973008E-11  2.945621E-09
       109  14  6.173950E+04  3.141923E+02  9.820171E+02  4.842020E+04 -3.820187E-09  3.028270E-09
       109  15  6.179411E+04  7.296548E+02  1.809360E+03  5.276504E+04  1.040311E-09  6.105912E-10
       109  16 -1.577169E+05 -5.022459E+04 -3.216882E+04  5.236738E+04  5.123073E-08  1.554164E-09
       109  17 -1.128289E+05 -3.981699E+04 -2.509834E+04  4.824170E+04  4.672614E-08  1.955779E-10
       109  18 -6.783328E+04 -2.908229E+04 -1.762570E+04  5.280689E+04  3.341519E-08 -5.931696E-09
       109  19  2.813430E+05  5.066998E+04  3.326340E+04  5.316501E+04  7.477312E+03  1.710460E+04
       109  20  2.363386E+05  4.044415E+04  2.706225E+04  4.859883E+04  7.961384E+03  1.355886E+04
       109  21  1.914385E+05  3.054093E+04  2.124442E+04  5.272324E+04  8.445786E+03  1.002009E+04
       109  22  6.178885E+04  2.239806E+02  5.479720E+02  5.276609E+04  4.026097E+02  1.709041E+04
       109  23  6.173955E+04  3.143895E+02  9.823634E+02  4.842021E+04  9.007651E+02  1.354431E+04
       109  24  6.179414E+04  7.297629E+02  1.809552E+03  5.276505E+04  1.399282E+03  1.000519E+04
       109  25 -1.577167E+05 -5.022426E+04 -3.216819E+04  5.236728E+04 -6.669693E+03  1.707622E+04
       109  26 -1.128288E+05 -3.981678E+04 -2.509792E+04  4.824163E+04 -6.157949E+03  1.352977E+04
       109  27 -6.783322E+04 -2.908217E+04 -1.762546E+04  5.280685E+04 -5.645810E+03  9.990292E+03
       110   1  1.632813E+05  2.405778E+04  1.740918E+04  5.305769E+04 -8.762902E+03 -7.960005E+03
       110   2  1.177148E+05  1.548572E+04  1.273890E+04  4.587598E+04 -1.091295E+04 -4.458262E+03
       110   3  7.341012E+04  1.101582E+04  1.048016E+04  4.737576E+04 -1.306289E+04 -1.018815E+03
       110   4  6.205714E+04  8.137316E+02  2.404834E+03  5.276458E+04 -1.714834E+03 -7.944947E+03
       110   5  6.141701E+04  2.576864E+03  4.419768E+03  4.841582E+04 -3.989095E+03 -4.443396E+03
       110   6  6.205865E+04  8.464051E+03  8.932553E+03  5.274844E+04 -6.263386E+03 -1.004164E+03
       110   7 -3.915657E+04 -2.243077E+04 -1.259952E+04  5.247151E+04  5.332131E+03 -7.929895E+03
       110   8  5.122503E+03 -1.033209E+04 -3.899239E+03  5.095542E+04  2.934158E+03 -4.428472E+03
       110   9  5.070747E+04  5.912412E+03  7.385137E+03  5.812101E+04  5.360046E+02 -9.893946E+02
       110  10  1.632812E+05  2.405769E+04  1.740892E+04  5.305764E+04  4.175399E-08  2.744504E-09
       110  11  1.177147E+05  1.548567E+04  1.273864E+04  4.587594E+04  3.768995E-08 -4.389407E-09
       110  12  7.340993E+04  1.101577E+04  1.047983E+04  4.737575E+04  3.524677E-08 -2.221496E-09
       110  13  6.205712E+04  8.136631E+02  2.404710E+03  5.276457E+04 -5.217637E-11  5.749158E-09
       110  14  6.141699E+04  2.576838E+03  4.419701E+03  4.841581E+04  2.623149E-09 -6.286033E-09
       110  15  6.205861E+04  8.464039E+03  8.932477E+03  5.274843E+04  1.696995E-09  9.475291E-10
       110  16 -3.915661E+04 -2.243085E+04 -1.259969E+04  5.247155E+04 -4.053361E-08  1.502749E-10
       110  17  5.122489E+03 -1.033212E+04 -3.899292E+03  5.095544E+04 -3.982273E-08  9.523137E-10
       110  18  5.070747E+04  5.912411E+03  7.385134E+03  5.812101E+04 -4.181667E-08 -6.254587E-10
       110  19  1.632813E+05  2.405778E+04  1.740918E+04  5.305769E+04  8.762902E+03  7.960005E+03
       110  20  1.177148E+05  1.548572E+04  1.273890E+04  4.587598E+04  1.091295E+04  4.458262E+03
       110  21  7.341012E+04  1.101582E+04  1.048016E+04  4.737576E+04  1.306289E+04  1.018815E+03
       110  22  6.205714E+04  8.137316E+02  2.404834E+03  5.276458E+04  1.714834E+03  7.944947E+03
       110  23  6.141701E+04  2.576864E+03  4.419768E+03  4.841582E+04  3.989095E+03  4.443396E+03
       110  24  6.205865E+04  8.464051E+03  8.932553E+03  5.274844E+04  6.263386E+03  1.004164E+03
       110  25 -3.915657E+04 -2.243077E+04 -1.259952E+04  5.247151E+04 -5.332131E+03  7.929895E+03
       110  26  5.122503E+03 -1.033209E+04 -3.899239E+03  5.095542E+04 -2.934158E+03  4.428472E+03
       110  27  5.070747E+04  5.912412E+03  7.385137E+03  5.812101E+04 -5.360046E+02  9.893946E+02
       111   1 -2.464111E+04  2.823733E+05 -2.222883E+04  2.496014E+03 -1.801827E+03 -2.270011E+03
       111   2 -2.808246E+04  2.903878E+05 -2.038144E+04  3.532306E+03 -5.873713E+03 -7.220569E+02
       111   3 -2.669095E+04  2.994151E+05 -1.833339E+04  7.075196E+03 -6.652931E+03  8.278481E+02
       111   4  6.892248E+03  4.097038E+05  8.181893E+03  6.297893E+03 -1.805652E+03  4.593726E+03
       111   5  6.031430E+02  4.088556E+05  4.634421E+03  5.042760E+03 -5.875172E+03  2.188923E+03
       111   6 -1.676957E+02  4.097056E+05  4.031212E+03  6.294161E+03 -6.652319E+03 -2.140032E+02
       111   7  3.842451E+04  5.370492E+05  3.859166E+04  1.010056E+04 -1.809393E+03  1.145886E+04
       111   8  2.928785E+04  5.273366E+05  2.964952E+04  6.553508E+03 -5.876616E+03  5.100449E+03
       111   9  2.635481E+04  5.200077E+05  2.639519E+04  5.512986E+03 -6.651704E+03 -1.256036E+03
       111  10 -2.464111E+04  2.823733E+05 -2.222885E+04  2.496011E+03 -3.254431E-09  2.843408E-09
       111  11 -2.808250E+04  2.903878E+05 -2.038151E+04  3.532303E+03  2.452676E-09 -3.042828E-09
       111  12 -2.669100E+04  2.994151E+05 -1.833348E+04  7.075200E+03 -5.822164E-12 -6.006550E-09
       111  13  6.892239E+03  4.097038E+05  8.181847E+03  6.297900E+03  5.456273E-09  5.862474E-10
       111  14  6.031047E+02  4.088556E+05  4.634347E+03  5.042770E+03  7.941812E-09 -4.805224E-11
       111  15 -1.677432E+02  4.097056E+05  4.031129E+03  6.294160E+03 -2.546868E-09  6.902246E-10
       111  16  3.842447E+04  5.370491E+05  3.859141E+04  1.010057E+04 -3.379847E-11 -3.852322E-09
       111  17  2.928781E+04  5.273366E+05  2.964941E+04  6.553532E+03 -1.094226E-08  1.372453E-09
       111  18  2.635476E+04  5.200077E+05  2.639510E+04  5.512979E+03 -6.835397E-09  5.552211E-09
       111  19 -2.464111E+04  2.823733E+05 -2.222883E+04  2.496014E+03  1.801827E+03  2.270011E+03
       111  20 -2.808246E+04  2.903878E+05 -2.038144E+04  3.532306E+03  5.873713E+03  7.220569E+02
       111  21 -2.669095E+04  2.994151E+05 -1.833339E+04  7.075196E+03  6.652931E+03 -8.278481E+02
       111  22  6.892248E+03  4.097038E+05  8.181893E+03  6.297893E+03  1.805652E+03 -4.593726E+03
       111  23  6.031430E+02  4.088556E+05  4.634421E+03  5.042760E+03  5.875172E+03 -2.188923E+03
       111  24 -1.676957E+02  4.097056E+05  4.031212E+03  6.294161E+03  6.652319E+03  2.140032E+02
       111  25  3.842451E+04  5.370492E+05  3.859166E+04  1.010056E+04  1.809393E+03 -1.145886E+04
       111  26  2.928785E+04  5.273366E+05  2.964952E+04  6.553508E+03  5.876616E+03 -5.100449E+03
       111  27  2.635481E+04  5.200077E+05  2.639519E+04  5.512986E+03  6.651704E+03  1.256036E+03
       112   1 -2.485422E+04  3.053891E+05 -1.691070E+04  5.974748E+03 -6.212366E+03 -6.535524E+02
       112   2 -2.293213E+04  3.134948E+05 -1.372930E+04  5.088553E+03 -5.874230E+03 -3.118137E+03
       112   3 -1.957711E+04  3.222845E+05 -8.584535E+03  6.872581E+03 -5.269096E+03 -5.582682E+03
       112   4  1.901187E+02  4.094927E+05  4.251016E+03  6.331211E+03 -6.212167E+03 -8.978627E+02
       112   5  4.726934E+01  4.091228E+05  5.577663E+03  4.996396E+03 -5.873898E+03 -3.683345E+03
       112   6  1.392904E+03  4.094925E+05  9.090243E+03  6.331774E+03 -5.268648E+03 -6.468756E+03
       112   7  2.523378E+04  5.136065E+05  2.541216E+04  6.687736E+03 -6.211967E+03 -1.142213E+03
       112   8  2.302610E+04  5.047596E+05  2.488416E+04  4.904226E+03 -5.873566E+03 -4.248638E+03
       112   9  2.236245E+04  4.967079E+05  2.676463E+04  5.790891E+03 -5.268199E+03 -7.354952E+03
       112  10 -2.485426E+04  3.053891E+05 -1.691077E+04  5.974745E+03  4.701683E-09  4.409860E-09
       112  11 -2.293217E+04  3.134948E+05 -1.372939E+04  5.088538E+03 -2.808993E-09  2.606474E-09
       112  12 -1.957715E+04  3.222844E+05 -8.584646E+03  6.872557E+03 -4.702085E-09  2.977712E-09
       112  13  1.900771E+02  4.094927E+05  4.250942E+03  6.331207E+03 -8.361358E-09  5.468765E-10
       112  14  4.722864E+01  4.091228E+05  5.577573E+03  4.996379E+03 -6.652550E-09  1.279847E-10
       112  15  1.392863E+03  4.094925E+05  9.090112E+03  6.331747E+03 -1.223332E-09  4.683433E-10
       112  16  2.523374E+04  5.136065E+05  2.541209E+04  6.687730E+03 -4.075112E-09 -5.150006E-09
       112  17  2.302606E+04  5.047595E+05  2.488406E+04  4.904206E+03 -2.177033E-09 -3.762843E-09
       112  18  2.236240E+04  4.967078E+05  2.676448E+04  5.790859E+03 -2.526659E-09 -3.384965E-09
       112  19 -2.485422E+04  3.053891E+05 -1.691070E+04  5.974748E+03  6.212366E+03  6.535524E+02
       112  20 -2.293213E+04  3.134948E+05 -1.372930E+04  5.088553E+03  5.874230E+03  3.118137E+03
       112  21 -1.957711E+04  3.222845E+05 -8.584535E+03  6.872581E+03  5.269096E+03  5.582682E+03
       112  22  1.901187E+02  4.094927E+05  4.251016E+03  6.331211E+03  6.212167E+03  8.978627E+02
       112  23  4.726934E+01  4.091228E+05  5.577663E+03  4.996396E+03  5.873898E+03  3.683345E+03
       112  24  1.392904E+03  4.094925E+05  9.090243E+03  6.331774E+03  5.268648E+03  6.468756E+03
       112  25  2.523378E+04  5.136065E+05  2.541216E+04  6.687736E+03  6.211967E+03  1.142213E+03
       112  26  2.302610E+04  5.047596E+05  2.488416E+04  4.904226E+03  5.873566E+03  4.248638E+03
       112  27  2.236245E+04  4.967079E+05  2.676463E+04  5.790891E+03  5.268199E+03  7.354952E+03
       113   1 -2.047637E+04  3.299978E+05 -4.991106E+03  2.096514E+03 -4.992711E+03 -7.559227E+03
       113   2 -1.431770E+04  3.343516E+05  4.459231E+03  1.268567E+04 -3.814203E+03 -1.596645E+04
       113   3  1.987727E+04  3.468118E+05  2.639121E+04  2.603378E+04 -1.079146E+03 -2.437302E+04
       113   4 -9.687023E+02  4.112027E+05  1.139758E+04  6.347985E+03 -4.992510E+03 -8.036261E+03
       113   5  3.243714E+03  4.069843E+05  1.962670E+04  4.976176E+03 -3.813023E+03 -1.831343E+04
       113   6  3.581474E+04  4.111958E+05  4.163465E+04  6.363157E+03 -1.076746E+03 -2.858988E+04
       113   7  1.853862E+04  4.924139E+05  2.778594E+04  1.060002E+04 -4.992316E+03 -8.513356E+03
       113   8  2.080502E+04  4.796221E+05  3.479393E+04 -2.734237E+03 -3.811784E+03 -2.066068E+04
       113   9  5.175338E+04  4.755845E+05  5.687809E+04 -1.330951E+04 -1.074079E+03 -3.280716E+04
       113  10 -2.047641E+04  3.299978E+05 -4.991260E+03  2.096484E+03  3.078057E-09 -1.379989E-08
       113  11 -1.431779E+04  3.343513E+05  4.458725E+03  1.268562E+04 -9.373974E-09 -9.889394E-10
       113  12  1.987711E+04  3.468112E+05  2.639009E+04  2.603376E+04  3.257982E-09  1.405458E-08
       113  13 -9.687464E+02  4.112026E+05  1.139741E+04  6.347952E+03  8.192505E-10  4.956079E-10
       113  14  3.243608E+03  4.069839E+05  1.962604E+04  4.976120E+03  7.655668E-10  1.077247E-10
       113  15  3.581452E+04  4.111950E+05  4.163312E+04  6.363132E+03 -2.210474E-09  3.631791E-10
       113  16  1.853858E+04  4.924138E+05  2.778576E+04  1.059999E+04 -1.568224E-09  1.324768E-08
       113  17  2.080489E+04  4.796216E+05  3.479310E+04 -2.734300E+03  1.302766E-09 -3.327464E-10
       113  18  5.175309E+04  4.755834E+05  5.687606E+04 -1.330954E+04 -8.722783E-09 -1.437999E-08
       113  19 -2.047637E+04  3.299978E+05 -4.991106E+03  2.096514E+03  4.992711E+03  7.559227E+03
       113  20 -1.431770E+04  3.343516E+05  4.459231E+03  1.268567E+04  3.814203E+03  1.596645E+04
       113  21  1.987727E+04  3.468118E+05  2.639121E+04  2.603378E+04  1.079146E+03  2.437302E+04
       113  22 -9.687023E+02  4.112027E+05  1.139758E+04  6.347985E+03  4.992510E+03  8.036261E+03
       113  23  3.243714E+03  4.069843E+05  1.962670E+04  4.976176E+03  3.813023E+03  1.831343E+04
       113  24  3.581474E+04  4.111958E+05  4.163465E+04  6.363157E+03  1.076746E+03  2.858988E+04
       113  25  1.853862E+04  4.924139E+05  2.778594E+04  1.060002E+04  4.992316E+03  8.513356E+03
       113  26  2.080502E+04  4.796221E+05  3.479393E+04 -2.734237E+03  3.811784E+03  2.066068E+04
       113  27  5.175338E+04  4.755845E+05  5.687809E+04 -1.330951E+04  1.074079E+03  3.280716E+04
       114   1  1.094746E+06  3.982244E+05  2.070900E+05  4.040046E+05  8.112371E+04  1.780737E+04
       114   2  1.041144E+06  3.546205E+05  1.465413E+05  3.864835E+05  5.259610E+04 -2.295580E+04
       114   3  9.905512E+05  3.315704E+05  1.180662E+05  3.752250E+05  1.717467E+04 -4.534552E+04
       114   4  3.470629E+05  1.102680E+05  1.507731E+04  1.908547E+05  1.398771E+04 -7.427180E+03
       114   5  3.481969E+05  9.767145E+04  7.104674E+03  1.898951E+05  2.020436E+04 -3.513880E+04
       114   6  3.454713E+05  9.876304E+04  3.718516E+03  1.951965E+05  1.951766E+04 -4.446986E+04
       114   7 -4.000348E+05 -1.776281E+05 -1.769536E+05 -2.204903E+04 -5.305725E+04 -3.262530E+04
       114   8 -3.442373E+05 -1.592253E+05 -1.323467E+05 -6.484642E+03 -1.214793E+04 -4.730646E+04
       114   9 -2.991684E+05 -1.340040E+05 -1.106422E+05  1.534235E+04  2.185807E+04 -4.359519E+04
       114  10  1.094739E+06  3.982223E+05  2.070771E+05  4.040035E+05  6.012209E-10  6.228256E-10
       114  11  1.041140E+06  3.546192E+05  1.465351E+05  3.864845E+05  1.110076E-08  6.931549E-09
       114  12  9.905503E+05  3.315682E+05  1.180618E+05  3.752257E+05  6.585062E-09  8.743218E-09
       114  13  3.470627E+05  1.102679E+05  1.507684E+04  1.908547E+05  4.162707E-09  1.965310E-09
       114  14  3.481962E+05  9.767001E+04  7.101586E+03  1.898956E+05 -5.193642E-10  3.612142E-09
       114  15  3.454704E+05  9.876081E+04  3.714083E+03  1.951972E+05  5.779361E-10  5.292649E-09
       114  16 -4.000381E+05 -1.776300E+05 -1.769609E+05 -2.205043E+04  1.143563E-08  2.033375E-09
       114  17 -3.442381E+05 -1.592277E+05 -1.323512E+05 -6.485105E+03  8.226756E-09 -2.097883E-09
       114  18 -2.991694E+05 -1.340062E+05 -1.106467E+05  1.534312E+04 -6.104988E-09 -2.551014E-09
       114  19  1.094746E+06  3.982244E+05  2.070900E+05  4.040046E+05 -8.112371E+04 -1.780737E+04
       114  20  1.041144E+06  3.546205E+05  1.465413E+05  3.864835E+05 -5.259610E+04  2.295580E+04
       114  21  9.905512E+05  3.315704E+05  1.180662E+05  3.752250E+05 -1.717467E+04  4.534552E+04
       114  22  3.470629E+05  1.102680E+05  1.507731E+04  1.908547E+05 -1.398771E+04  7.427180E+03
       114  23  3.481969E+05  9.767145E+04  7.104674E+03  1.898951E+05 -2.020436E+04  3.513880E+04
       114  24  3.454713E+05  9.876304E+04  3.718516E+03  1.951965E+05 -1.951766E+04  4.446986E+04
       114  25 -4.000348E+05 -1.776281E+05 -1.769536E+05 -2.204903E+04  5.305725E+04  3.262530E+04
       114  26 -3.442373E+05 -1.592253E+05 -1.323467E+05 -6.484642E+03  1.214793E+04  4.730646E+04
       114  27 -2.991684E+05 -1.340040E+05 -1.106422E+05  1.534235E+04 -2.185807E+04  4.359519E+04
       115   1  9.541876E+05  3.192213E+05  1.090988E+05  3.662030E+05  1.779792E+04 -4.374924E+04
       115   2  9.042772E+05  2.946532E+05  9.485507E+04  3.469572E+05  1.314304E+04 -4.395533E+04
       115   3  8.474978E+05  2.790391E+05  8.398340E+04  3.365755E+05  7.807699E+03 -4.235523E+04
       115   4  3.448511E+05  9.889719E+04  2.779864E+03  1.952772E+05  1.864957E+04 -4.343404E+04
       115   5  3.485903E+05  9.445061E+04  1.452683E+03  1.909651E+05  1.741034E+04 -4.235423E+04
       115   6  3.447832E+05  9.828314E+04  7.949184E+02  1.955166E+05  1.549000E+04 -3.946742E+04
       115   7 -2.640998E+05 -1.213930E+05 -1.035523E+05  2.450592E+04  1.950034E+04 -4.311917E+04
       115   8 -2.067715E+05 -1.057221E+05 -9.195849E+04  3.510254E+04  2.167361E+04 -4.075466E+04
       115   9 -1.576620E+05 -8.244730E+04 -8.239940E+04  5.456456E+04  2.316571E+04 -3.658209E+04
       115  10  9.541868E+05  3.192192E+05  1.090946E+05  3.662036E+05 -6.986381E-09  3.344419E-09
       115  11  9.042765E+05  2.946511E+05  9.485112E+04  3.469577E+05  4.869744E-09  4.433564E-09
       115  12  8.474973E+05  2.790372E+05  8.397992E+04  3.365758E+05  4.116786E-09  2.354878E-09
       115  13  3.448503E+05  9.889507E+04  2.775665E+03  1.952778E+05  2.790932E-09  3.014167E-09
       115  14  3.485894E+05  9.444860E+04  1.448741E+03  1.909657E+05  1.511035E-08 -4.069053E-10
       115  15  3.447825E+05  9.828141E+04  7.915396E+02  1.955171E+05 -1.473096E-09 -1.014396E-09
       115  16 -2.641008E+05 -1.213951E+05 -1.035565E+05  2.450660E+04 -3.049521E-09  3.931514E-09
       115  17 -2.067724E+05 -1.057241E+05 -9.196250E+04  3.510325E+04 -8.763085E-09  8.582243E-09
       115  18 -1.576630E+05 -8.244889E+04 -8.240292E+04  5.456524E+04 -1.494304E-08  3.870947E-09
       115  19  9.541876E+05  3.192213E+05  1.090988E+05  3.662030E+05 -1.779792E+04  4.374924E+04
       115  20  9.042772E+05  2.946532E+05  9.485507E+04  3.469572E+05 -1.314304E+04  4.395533E+04
       115  21  8.474978E+05  2.790391E+05  8.398340E+04  3.365755E+05 -7.807699E+03  4.235523E+04
       115  22  3.448511E+05  9.889719E+04  2.779864E+03  1.952772E+05 -1.864957E+04  4.343404E+04
       115  23  3.485903E+05  9.445061E+04  1.452683E+03  1.909651E+05 -1.741034E+04  4.235423E+04
       115  24  3.447832E+05  9.828314E+04  7.949184E+02  1.955166E+05 -1.549000E+04  3.946742E+04
       115  25 -2.640998E+05 -1.213930E+05 -1.035523E+05  2.450592E+04 -1.950034E+04  4.311917E+04
       115  26 -2.067715E+05 -1.057221E+05 -9.195849E+04  3.510254E+04 -2.167361E+04  4.075466E+04
       115  27 -1.576620E+05 -8.244730E+04 -8.239940E+04  5.456456E+04 -2.316571E+04  3.658209E+04
       116   1  8.132890E+05  2.667873E+05  7.775336E+04  3.270886E+05  6.942377E+03 -3.992820E+04
       116   2  7.639210E+05  2.436408E+05  6.848491E+04  3.076461E+05  4.913446E+03 -3.604214E+04
       116   3  7.067563E+05  2.285053E+05  5.961387E+04  2.972299E+05  2.817107E+03 -3.198054E+04
       116   4  3.447316E+05  9.830931E+04  5.966190E+02  1.955173E+05  1.447407E+04 -3.709616E+04
       116   5  3.486749E+05  9.434405E+04  3.298581E+02  1.910056E+05  1.277712E+04 -3.308378E+04
       116   6  3.447518E+05  9.832422E+04  1.971262E+02  1.955196E+05  1.101268E+04 -2.889578E+04
       116   7 -1.235861E+05 -7.014431E+04 -7.656356E+04  6.404032E+04  2.199966E+04 -3.426643E+04
       116   8 -6.638682E+04 -5.493503E+04 -6.782886E+04  7.443810E+04  2.063522E+04 -3.012752E+04
       116   9 -1.711660E+04 -3.184492E+04 -5.922342E+04  9.386378E+04  1.920327E+04 -2.581289E+04
       116  10  8.132885E+05  2.667856E+05  7.775028E+04  3.270888E+05 -9.652991E-09 -3.232383E-09
       116  11  7.639206E+05  2.436394E+05  6.848243E+04  3.076463E+05 -5.099814E-09 -1.531411E-09
       116  12  7.067560E+05  2.285042E+05  5.961193E+04  2.972299E+05 -3.269989E-09  5.135161E-09
       116  13  3.447310E+05  9.830778E+04  5.936386E+02  1.955177E+05 -4.771964E-09  1.601857E-09
       116  14  3.486745E+05  9.434283E+04  3.274940E+02  1.910059E+05 -2.180995E-09 -1.423973E-09
       116  15  3.447514E+05  9.832330E+04  1.953288E+02  1.955198E+05 -7.459659E-10 -2.471489E-09
       116  16 -1.235870E+05 -7.014570E+04 -7.656667E+04  6.404092E+04 -6.398731E-09  7.832483E-09
       116  17 -6.638752E+04 -5.493612E+04 -6.783137E+04  7.443860E+04  5.649254E-09  4.050129E-09
       116  18 -1.711718E+04 -3.184573E+04 -5.922537E+04  9.386418E+04 -4.587493E-09 -5.475678E-09
       116  19  8.132890E+05  2.667873E+05  7.775336E+04  3.270886E+05 -6.942377E+03  3.992820E+04
       116  20  7.639210E+05  2.436408E+05  6.848491E+04  3.076461E+05 -4.913446E+03  3.604214E+04
       116  21  7.067563E+05  2.285053E+05  5.961387E+04  2.972299E+05 -2.817107E+03  3.198054E+04
       116  22  3.447316E+05  9.830931E+04  5.966190E+02  1.955173E+05 -1.447407E+04  3.709616E+04
       116  23  3.486749E+05  9.434405E+04  3.298581E+02  1.910056E+05 -1.277712E+04  3.308378E+04
       116  24  3.447518E+05  9.832422E+04  1.971262E+02  1.955196E+05 -1.101268E+04  2.889578E+04
       116  25 -1.235861E+05 -7.014431E+04 -7.656356E+04  6.404032E+04 -2.199966E+04  3.426643E+04
       116  26 -6.638682E+04 -5.493503E+04 -6.782886E+04  7.443810E+04 -2.063522E+04  3.012752E+04
       116  27 -1.711660E+04 -3.184492E+04 -5.922342E+04  9.386378E+04 -1.920327E+04  2.581289E+04
       117   1  6.727944E+05  2.162720E+05  5.374667E+04  2.877152E+05  1.853349E+03 -2.945683E+04
       117   2  6.235625E+05  1.932328E+05  4.510034E+04  2.682613E+05  1.325978E+02 -2.515437E+04
       117   3  5.664390E+05  1.781170E+05  3.652319E+04  2.578294E+05 -1.594720E+03 -2.083681E+04
       117   4  3.447496E+05  9.833177E+04  1.585570E+02  1.955148E+05  1.003144E+04 -2.637795E+04
       117   5  3.487066E+05  9.438584E+04  1.200632E+02  1.910018E+05  8.339071E+03 -2.206386E+04
       117   6  3.447631E+05  9.835731E+04  1.277820E+02  1.955095E+05  6.640127E+03 -1.773469E+04
       117   7  1.682000E+04 -1.959730E+04 -5.343163E+04  1.033601E+05  1.820496E+04 -2.330079E+04
       117   8  7.393324E+04 -4.452657E+03 -4.486117E+04  1.137747E+05  1.654165E+04 -1.897482E+04
       117   9  1.231423E+05  1.860371E+04 -3.626776E+04  1.332112E+05  1.487177E+04 -1.463378E+04
       117  10  6.727942E+05  2.162710E+05  5.374504E+04  2.877152E+05  3.808682E-09  5.876379E-09
       117  11  6.235624E+05  1.932321E+05  4.509915E+04  2.682613E+05 -1.717841E-08 -1.041239E-09
       117  12  5.664389E+05  1.781165E+05  3.652237E+04  2.578294E+05 -5.429013E-08 -1.773012E-08
       117  13  3.447493E+05  9.833099E+04  1.570600E+02  1.955150E+05 -3.191115E-09 -1.060362E-09
       117  14  3.487064E+05  9.438530E+04  1.190175E+02  1.910019E+05 -2.340378E-09 -6.160292E-10
       117  15  3.447629E+05  9.835696E+04  1.271080E+02  1.955096E+05  1.191983E-08  4.517175E-09
       117  16  1.681950E+04 -1.959797E+04 -5.343327E+04  1.033604E+05 -6.784269E-09 -7.261691E-09
       117  17  7.393285E+04 -4.453118E+03 -4.486236E+04  1.137750E+05  3.359224E-08  9.164774E-09
       117  18  1.231420E+05  1.860342E+04 -3.626858E+04  1.332114E+05  5.678158E-08  2.558778E-08
       117  19  6.727944E+05  2.162720E+05  5.374667E+04  2.877152E+05 -1.853349E+03  2.945683E+04
       117  20  6.235625E+05  1.932328E+05  4.510034E+04  2.682613E+05 -1.325978E+02  2.515437E+04
       117  21  5.664390E+05  1.781170E+05  3.652319E+04  2.578294E+05  1.594720E+03  2.083681E+04
       117  22  3.447496E+05  9.833177E+04  1.585570E+02  1.955148E+05 -1.003144E+04  2.637795E+04
       117  23  3.487066E+05  9.438584E+04  1.200632E+02  1.910018E+05 -8.339071E+03  2.206386E+04
       117  24  3.447631E+05  9.835731E+04  1.277820E+02  1.955095E+05 -6.640127E+03  1.773469E+04
       117  25  1.682000E+04 -1.959730E+04 -5.343163E+04  1.033601E+05 -1.820496E+04  2.330079E+04
       117  26  7.393324E+04 -4.452657E+03 -4.486117E+04  1.137747E+05 -1.654165E+04  1.897482E+04
       117  27  1.231423E+05  1.860371E+04 -3.626776E+04  1.332112E+05 -1.487177E+04  1.463378E+04
       118   1  5.325329E+05  1.658855E+05  3.073545E+04  2.483187E+05 -2.570911E+03 -1.830717E+04
       118   2  4.833478E+05  1.428518E+05  2.224485E+04  2.288768E+05 -4.310610E+03 -1.399056E+04
       118   3  4.262677E+05  1.277329E+05  1.382861E+04  2.184514E+05 -6.047996E+03 -9.681255E+03
       118   4  3.447690E+05  9.836068E+04  1.469881E+02  1.955089E+05  5.661096E+03 -1.520570E+04
       118   5  3.487186E+05  9.440456E+04  2.275962E+02  1.910010E+05  3.907452E+03 -1.089387E+04
       118   6  3.447741E+05  9.836628E+04  3.936753E+02  1.955087E+05  2.156117E+03 -6.589350E+03
       118   7  1.570408E+05  3.083871E+04 -3.044255E+04  1.427136E+05  1.389056E+04 -1.210520E+04
       118   8  2.141082E+05  4.595894E+04 -2.179000E+04  1.531326E+05  1.212367E+04 -7.797872E+03
       118   9  2.632877E+05  6.900035E+04 -1.304114E+04  1.725689E+05  1.035909E+04 -3.497875E+03
       118  10  5.325328E+05  1.658852E+05  3.073481E+04  2.483186E+05  3.379303E-08  1.785482E-08
       118  11  4.833477E+05  1.428516E+05  2.224445E+04  2.288768E+05  4.309104E-10  2.794208E-09
       118  12  4.262677E+05  1.277328E+05  1.382837E+04  2.184513E+05 -3.461159E-08 -9.298419E-09
       118  13  3.447689E+05  9.836042E+04  1.464933E+02  1.955090E+05  6.516551E-10  5.309029E-09
       118  14  3.487185E+05  9.440443E+04  2.273445E+02  1.910010E+05 -1.120953E-08 -6.678149E-09
       118  15  3.447741E+05  9.836623E+04  3.935850E+02  1.955087E+05 -1.796637E-08 -1.607788E-08
       118  16  1.570406E+05  3.083850E+04 -3.044318E+04  1.427137E+05 -4.253259E-08 -7.006595E-09
       118  17  2.141080E+05  4.595884E+04 -2.179039E+04  1.531327E+05 -1.640355E-08  2.835923E-09
       118  18  2.632876E+05  6.900030E+04 -1.304136E+04  1.725689E+05  9.482437E-09  9.770425E-09
       118  19  5.325329E+05  1.658855E+05  3.073545E+04  2.483187E+05  2.570911E+03  1.830717E+04
       118  20  4.833478E+05  1.428518E+05  2.224485E+04  2.288768E+05  4.310610E+03  1.399056E+04
       118  21  4.262677E+05  1.277329E+05  1.382861E+04  2.184514E+05  6.047996E+03  9.681255E+03
       118  22  3.447690E+05  9.836068E+04  1.469881E+02  1.955089E+05 -5.661096E+03  1.520570E+04
       118  23  3.487186E+05  9.440456E+04  2.275962E+02  1.910010E+05 -3.907452E+03  1.089387E+04
       118  24  3.447741E+05  9.836628E+04  3.936753E+02  1.955087E+05 -2.156117E+03  6.589350E+03
       118  25  1.570408E+05  3.083871E+04 -3.044255E+04  1.427136E+05 -1.389056E+04  1.210520E+04
       118  26  2.141082E+05  4.595894E+04 -2.179000E+04  1.531326E+05 -1.212367E+04  7.797872E+03
       118  27  2.632877E+05  6.900035E+04 -1.304114E+04  1.725689E+05 -1.035909E+04  3.497875E+03
       119   1  3.923861E+05  1.155075E+05  8.144474E+03  2.089607E+05 -7.083384E+03 -7.179916E+03
       119   2  3.431982E+05  9.246139E+04 -7.425267E+01  1.895176E+05 -9.016195E+03 -2.991252E+03
       119   3  2.861653E+05  7.737214E+04 -8.049897E+03  1.790822E+05 -1.091779E+04  1.114842E+03
       119   4  3.447895E+05  9.836378E+04  5.197438E+02  1.955138E+05  1.126545E+03 -4.085697E+03
       119   5  3.487029E+05  9.440420E+04  9.348557E+02  1.909977E+05 -9.626232E+02  4.400867E+01
       119   6  3.447988E+05  9.843191E+04  1.716542E+03  1.954879E+05 -3.020613E+03  4.091154E+03
       119   7  2.971960E+05  8.122059E+04 -7.104597E+03  1.820680E+05  9.335720E+03 -9.917638E+02
       119   8  3.542078E+05  9.634708E+04  1.944241E+03  1.924778E+05  7.091025E+03  3.079296E+03
       119   9  4.034368E+05  1.194923E+05  1.148334E+04  2.118953E+05  4.877439E+03  7.067795E+03
       119  10  3.923860E+05  1.155074E+05  8.144283E+03  2.089607E+05  5.347500E-09  9.867650E-09
       119  11  3.431982E+05  9.246136E+04 -7.442213E+01  1.895176E+05  6.414826E-09  7.255919E-09
       119  12  2.861652E+05  7.737210E+04 -8.050124E+03  1.790822E+05  5.863895E-09  8.972266E-09
       119  13  3.447895E+05  9.836376E+04  5.197100E+02  1.955138E+05 -1.270348E-08 -1.476078E-08
       119  14  3.487029E+05  9.440420E+04  9.348540E+02  1.909977E+05 -7.557348E-09 -7.895104E-09
       119  15  3.447988E+05  9.843189E+04  1.716494E+03  1.954879E+05 -1.748566E-09  2.209981E-09
       119  16  2.971959E+05  8.122056E+04 -7.104762E+03  1.820680E+05 -1.897448E-08 -3.786800E-09
       119  17  3.542077E+05  9.634705E+04  1.944129E+03  1.924778E+05 -1.157587E-08 -5.548061E-09
       119  18  4.034367E+05  1.194923E+05  1.148320E+04  2.118953E+05 -1.274610E-08  5.676312E-09
       119  19  3.923861E+05  1.155075E+05  8.144474E+03  2.089607E+05  7.083384E+03  7.179916E+03
       119  20  3.431982E+05  9.246139E+04 -7.425267E+01  1.895176E+05  9.016195E+03  2.991252E+03
       119  21  2.861653E+05  7.737214E+04 -8.049897E+03  1.790822E+05  1.091779E+04 -1.114842E+03
       119  22  3.447895E+05  9.836378E+04  5.197438E+02  1.955138E+05 -1.126545E+03  4.085697E+03
       119  23  3.487029E+05  9.440420E+04  9.348557E+02  1.909977E+05  9.626232E+02 -4.400867E+01
       119  24  3.447988E+05  9.843191E+04  1.716542E+03  1.954879E+05  3.020613E+03 -4.091154E+03
       119  25  2.971960E+05  8.122059E+04 -7.104597E+03  1.820680E+05 -9.335720E+03  9.917638E+02
       119  26  3.542078E+05  9.634708E+04  1.944241E+03  1.924778E+05 -7.091025E+03 -3.079296E+03
       119  27  4.034368E+05  1.194923E+05  1.148334E+04  2.118953E+05 -4.877439E+03 -7.067795E+03
       120   1  2.522381E+05  6.521501E+04 -1.337659E+04  1.697355E+05 -1.223261E+04  3.447446E+03
       120   2  2.033646E+05  4.199853E+04 -2.077118E+04  1.496700E+05 -1.420097E+04  7.043874E+03
       120   3  1.470568E+05  2.759344E+04 -2.750788E+04  1.383360E+05 -1.585266E+04  9.801081E+03
       120   4  3.449150E+05  9.842443E+04  2.290983E+03  1.955241E+05 -4.267185E+03  6.449343E+03
       120   5  3.486089E+05  9.481137E+04  4.211823E+03  1.908002E+05 -7.821162E+03  9.447758E+03
       120   6  3.451792E+05  1.003230E+05  8.046262E+03  1.948062E+05 -1.105854E+04  1.160705E+04
       120   7  4.376012E+05  1.316347E+05  1.795859E+04  2.213163E+05  3.699496E+03  9.451708E+03
       120   8  4.938749E+05  1.476261E+05  2.919417E+04  2.319391E+05 -1.439807E+03  1.185224E+04
       120   9  5.433407E+05  1.730557E+05  4.359855E+04  2.512928E+05 -6.262851E+03  1.341363E+04
       120  10  2.522379E+05  6.521496E+04 -1.337689E+04  1.697355E+05  5.420619E-09  4.794873E-09
       120  11  2.033644E+05  4.199842E+04 -2.077166E+04  1.496701E+05 -3.844848E-08 -9.518044E-09
       120  12  1.470565E+05  2.759327E+04 -2.750853E+04  1.383361E+05 -7.575452E-08 -2.272495E-08
       120  13  3.449150E+05  9.842438E+04  2.290870E+03  1.955241E+05 -5.541434E-09  6.378746E-09
       120  14  3.486088E+05  9.481126E+04  4.211540E+03  1.908002E+05 -1.511987E-08 -6.863810E-09
       120  15  3.451790E+05  1.003228E+05  8.045779E+03  1.948064E+05 -2.806388E-08 -1.768892E-08
       120  16  4.376012E+05  1.316346E+05  1.795839E+04  2.213163E+05 -7.405742E-09  1.036469E-08
       120  17  4.938748E+05  1.476260E+05  2.919390E+04  2.319391E+05  1.154838E-08  1.896971E-08
       120  18  5.433407E+05  1.730555E+05  4.359814E+04  2.512928E+05  3.535240E-08  2.534546E-08
       120  19  2.522381E+05  6.521501E+04 -1.337659E+04  1.697355E+05  1.223261E+04 -3.447446E+03
       120  20  2.033646E+05  4.199853E+04 -2.077118E+04  1.496700E+05  1.420097E+04 -7.043874E+03
       120  21  1.470568E+05  2.759344E+04 -2.750788E+04  1.383360E+05  1.585266E+04 -9.801081E+03
       120  22  3.449150E+05  9.842443E+04  2.290983E+03  1.955241E+05  4.267185E+03 -6.449343E+03
       120  23  3.486089E+05  9.481137E+04  4.211823E+03  1.908002E+05  7.821162E+03 -9.447758E+03
       120  24  3.451792E+05  1.003230E+05  8.046262E+03  1.948062E+05  1.105854E+04 -1.160705E+04
       120  25  4.376012E+05  1.316347E+05  1.795859E+04  2.213163E+05 -3.699496E+03 -9.451708E+03
       120  26  4.938749E+05  1.476261E+05  2.919417E+04  2.319391E+05  1.439807E+03 -1.185224E+04
       120  27  5.433407E+05  1.730557E+05  4.359855E+04  2.512928E+05  6.262851E+03 -1.341363E+04
       121   1  1.124703E+05  1.664449E+04 -3.161822E+04  1.307732E+05 -1.847481E+04  1.099436E+04
       121   2  7.115301E+04 -9.104969E+03 -3.801187E+04  9.843125E+04 -1.253592E+04  1.168150E+04
       121   3  2.790220E+04 -1.113690E+04 -4.391996E+04  6.983201E+04 -3.385774E+03  3.839196E+03
       121   4  3.464955E+05  1.004622E+05  1.076066E+04  1.951314E+05 -1.299067E+04  1.306008E+04
       121   5  3.482201E+05  1.036234E+05  2.058509E+04  1.869989E+05 -2.315569E+04  7.679841E+03
       121   6  3.511959E+05  1.336862E+05  4.365201E+04  1.826091E+05 -3.011042E+04 -6.227560E+03
       121   7  5.805821E+05  1.842863E+05  5.313879E+04  2.595131E+05 -7.504243E+03  1.512664E+04
       121   8  6.253662E+05  2.163633E+05  7.917817E+04  2.756047E+05 -3.378052E+04  3.675795E+03
       121   9  6.745879E+05  2.785269E+05  1.312158E+05  2.954419E+05 -5.684968E+04 -1.630236E+04
       121  10  1.124699E+05  1.664427E+04 -3.161909E+04  1.307734E+05  3.445485E-08  2.223473E-08
       121  11  7.115280E+04 -9.105158E+03 -3.801243E+04  9.843137E+04  1.437133E-08  1.571160E-08
       121  12  2.790218E+04 -1.113692E+04 -4.392001E+04  6.983202E+04  1.395033E-09 -3.162360E-10
       121  13  3.464953E+05  1.004620E+05  1.076002E+04  1.951316E+05 -1.759511E-08 -1.486070E-08
       121  14  3.482195E+05  1.036232E+05  2.058398E+04  1.869990E+05 -2.339671E-08 -1.155395E-08
       121  15  3.511950E+05  1.336860E+05  4.365023E+04  1.826090E+05 -3.946001E-09 -3.448132E-09
       121  16  5.805820E+05  1.842860E+05  5.313825E+04  2.595132E+05 -7.608965E-08 -2.360442E-08
       121  17  6.253650E+05  2.163630E+05  7.917600E+04  2.756048E+05 -3.932205E-08 -1.629312E-08
       121  18  6.745843E+05  2.785258E+05  1.312092E+05  2.954411E+05  2.149887E-09 -7.519783E-10
       121  19  1.124703E+05  1.664449E+04 -3.161822E+04  1.307732E+05  1.847481E+04 -1.099436E+04
       121  20  7.115301E+04 -9.104969E+03 -3.801187E+04  9.843125E+04  1.253592E+04 -1.168150E+04
       121  21  2.790220E+04 -1.113690E+04 -4.391996E+04  6.983201E+04  3.385774E+03 -3.839196E+03
       121  22  3.464955E+05  1.004622E+05  1.076066E+04  1.951314E+05  1.299067E+04 -1.306008E+04
       121  23  3.482201E+05  1.036234E+05  2.058509E+04  1.869989E+05  2.315569E+04 -7.679841E+03
       121  24  3.511959E+05  1.336862E+05  4.365201E+04  1.826091E+05  3.011042E+04  6.227560E+03
       121  25  5.805821E+05  1.842863E+05  5.313879E+04  2.595131E+05  7.504243E+03 -1.512664E+04
       121  26  6.253662E+05  2.163633E+05  7.917817E+04  2.756047E+05  3.378052E+04 -3.675795E+03
       121  27  6.745879E+05  2.785269E+05  1.312158E+05  2.954419E+05  5.684968E+04  1.630236E+04
       122   1 -3.332741E+05 -1.966857E+06 -4.192791E+05  4.204785E+04 -4.927140E+02 -2.347284E+05
       122   2  7.772082E+03 -1.898555E+06 -2.180345E+05  5.043068E+03 -2.320202E+03 -1.467088E+05
       122   3 -5.195681E+04 -1.941182E+06 -1.742338E+05  8.395905E+02 -1.579984E+03 -5.868448E+04
       122   4 -2.725984E+05 -1.725138E+06 -3.587768E+05  1.413674E+04 -4.829352E+02 -2.343655E+05
       122   5  6.509577E+04 -1.669621E+06 -1.609154E+05 -2.002689E+03 -2.318566E+03 -1.466853E+05
       122   6  2.151860E+03 -1.724932E+06 -1.202183E+05  1.466078E+04 -1.580970E+03 -5.900228E+04
       122   7 -2.119243E+05 -1.483364E+06 -2.982786E+05 -1.378524E+04 -4.731925E+02 -2.340024E+05
       122   8  1.224157E+05 -1.440639E+06 -1.038003E+05 -9.051036E+03 -2.316931E+03 -1.466618E+05
       122   9  5.625772E+04 -1.508639E+06 -6.620624E+04  2.848682E+04 -1.581969E+03 -5.932020E+04
       122  10 -3.332889E+05 -1.966916E+06 -4.193829E+05  4.204775E+04  1.800737E-09 -1.414371E-09
       122  11  7.766275E+03 -1.898578E+06 -2.180751E+05  5.042794E+03  6.172550E-09 -6.810860E-10
       122  12 -5.195774E+04 -1.941186E+06 -1.742403E+05  8.395158E+02  1.074379E-09 -1.977684E-09
       122  13 -2.726132E+05 -1.725197E+06 -3.588803E+05  1.413665E+04  3.280848E-09  5.985168E-09
       122  14  6.508996E+04 -1.669644E+06 -1.609560E+05 -2.002964E+03  6.429711E-09 -2.456473E-09
       122  15  2.150919E+03 -1.724936E+06 -1.202249E+05  1.466071E+04  5.050878E-09  1.183611E-09
       122  16 -2.119390E+05 -1.483423E+06 -2.983818E+05 -1.378533E+04  7.533572E-10 -1.715629E-09
       122  17  1.224099E+05 -1.440662E+06 -1.038408E+05 -9.051310E+03  9.899722E-09  2.142769E-09
       122  18  5.625677E+04 -1.508643E+06 -6.621287E+04  2.848674E+04  7.519865E-09  1.009634E-09
       122  19 -3.332741E+05 -1.966857E+06 -4.192791E+05  4.204785E+04  4.927140E+02  2.347284E+05
       122  20  7.772082E+03 -1.898555E+06 -2.180345E+05  5.043068E+03  2.320202E+03  1.467088E+05
       122  21 -5.195681E+04 -1.941182E+06 -1.742338E+05  8.395905E+02  1.579984E+03  5.868448E+04
       122  22 -2.725984E+05 -1.725138E+06 -3.587768E+05  1.413674E+04  4.829352E+02  2.343655E+05
       122  23  6.509577E+04 -1.669621E+06 -1.609154E+05 -2.002689E+03  2.318566E+03  1.466853E+05
       122  24  2.151860E+03 -1.724932E+06 -1.202183E+05  1.466078E+04  1.580970E+03  5.900228E+04
       122  25 -2.119243E+05 -1.483364E+06 -2.982786E+05 -1.378524E+04  4.731925E+02  2.340024E+05
       122  26  1.224157E+05 -1.440639E+06 -1.038003E+05 -9.051036E+03  2.316931E+03  1.466618E+05
       122  27  5.625772E+04 -1.508639E+06 -6.620624E+04  2.848682E+04  1.581969E+03  5.932020E+04
       123   1 -5.659935E+04 -1.775264E+06 -1.254208E+05  2.297967E+04 -8.080416E+02 -3.827286E+04
       123   2  7.922807E+03 -1.740362E+06 -9.514668E+04 -4.720897E+03 -4.980434E+02  5.104900E+03
       123   3 -5.376748E+04 -1.742588E+06 -1.246977E+05  1.017695E+04 -2.931648E+01  4.848374E+04
       123   4 -3.990213E+04 -1.708591E+06 -1.087957E+05  1.666605E+04 -8.076165E+02 -3.831341E+04
       123   5  2.051919E+04 -1.690034E+06 -8.258671E+04 -4.630625E+03 -4.979987E+02  5.045035E+03
       123   6 -4.526312E+04 -1.708599E+06 -1.161858E+05  1.667108E+04 -2.876142E+01  4.840341E+04
       123   7 -2.320509E+04 -1.641915E+06 -9.217080E+04  1.035174E+04 -8.071906E+02 -3.835395E+04
       123   8  3.311539E+04 -1.639704E+06 -7.002693E+04 -4.540345E+03 -4.979539E+02  4.985165E+03
       123   9 -3.675869E+04 -1.674609E+06 -1.076739E+05  2.316555E+04 -2.820806E+01  4.832308E+04
       123  10 -5.659974E+04 -1.775265E+06 -1.254236E+05  2.297965E+04  9.638469E-09  8.128718E-10
       123  11  7.922799E+03 -1.740362E+06 -9.514673E+04 -4.720895E+03  4.605819E-09 -1.031254E-09
       123  12 -5.376811E+04 -1.742591E+06 -1.247021E+05  1.017696E+04  1.714546E-09 -7.819739E-10
       123  13 -3.990252E+04 -1.708593E+06 -1.087984E+05  1.666602E+04 -5.643312E-10  1.229988E-09
       123  14  2.051919E+04 -1.690034E+06 -8.258676E+04 -4.630623E+03  8.362640E-09 -1.223090E-09
       123  15 -4.526375E+04 -1.708602E+06 -1.161902E+05  1.667108E+04 -2.589644E-09  2.715796E-10
       123  16 -2.320549E+04 -1.641916E+06 -9.217358E+04  1.035172E+04 -2.162166E-09 -1.241569E-09
       123  17  3.311538E+04 -1.639704E+06 -7.002698E+04 -4.540343E+03  1.493841E-09  6.843868E-10
       123  18 -3.675932E+04 -1.674611E+06 -1.076783E+05  2.316556E+04  6.847563E-11 -3.569145E-10
       123  19 -5.659935E+04 -1.775264E+06 -1.254208E+05  2.297967E+04  8.080416E+02  3.827286E+04
       123  20  7.922807E+03 -1.740362E+06 -9.514668E+04 -4.720897E+03  4.980434E+02 -5.104900E+03
       123  21 -5.376748E+04 -1.742588E+06 -1.246977E+05  1.017695E+04  2.931648E+01 -4.848374E+04
       123  22 -3.990213E+04 -1.708591E+06 -1.087957E+05  1.666605E+04  8.076165E+02  3.831341E+04
       123  23  2.051919E+04 -1.690034E+06 -8.258671E+04 -4.630625E+03  4.979987E+02 -5.045035E+03
       123  24 -4.526312E+04 -1.708599E+06 -1.161858E+05  1.667108E+04  2.876142E+01 -4.840341E+04
       123  25 -2.320509E+04 -1.641915E+06 -9.217080E+04  1.035174E+04  8.071906E+02  3.835395E+04
       123  26  3.311539E+04 -1.639704E+06 -7.002693E+04 -4.540345E+03  4.979539E+02 -4.985165E+03
       123  27 -3.675869E+04 -1.674609E+06 -1.076739E+05  2.316555E+04  2.820806E+01 -4.832308E+04
       124   1  3.599737E+04 -1.600409E+06 -9.858662E+04  3.155878E+04  7.236208E+02  7.095035E+04
       124   2  1.086551E+05 -1.523121E+06 -1.434371E+05 -1.151341E+04  1.462214E+03  1.683243E+05
       124   3 -2.674286E+05 -1.570408E+06 -3.638705E+05 -1.545828E+04  2.950691E+02  2.657005E+05
       124   4  4.080910E+03 -1.727994E+06 -1.304665E+05  1.602287E+04  7.220082E+02  7.068739E+04
       124   5  7.293931E+04 -1.665785E+06 -1.790202E+05 -3.730281E+03  1.464334E+03  1.683144E+05
       124   6 -3.070454E+05 -1.728227E+06 -4.033635E+05  1.564268E+04  3.080644E+02  2.659412E+05
       124   7 -2.783587E+04 -1.855563E+06 -1.623474E+05  4.901588E+02  7.204085E+02  7.042448E+04
       124   8  3.722219E+04 -1.808431E+06 -2.146048E+05  4.051060E+03  1.466455E+03  1.683045E+05
       124   9 -3.466606E+05 -1.886023E+06 -4.428579E+05  4.673573E+04  3.210869E+02  2.661820E+05
       124  10  3.599602E+04 -1.600414E+06 -9.859610E+04  3.155874E+04  2.927801E-09 -9.034481E-10
       124  11  1.086475E+05 -1.523151E+06 -1.434905E+05 -1.151361E+04 -5.728891E-09 -9.715989E-10
       124  12 -2.674476E+05 -1.570484E+06 -3.640035E+05 -1.545834E+04 -5.949996E-09 -1.904811E-09
       124  13  4.079563E+03 -1.727999E+06 -1.304759E+05  1.602283E+04  1.316789E-09  2.623867E-09
       124  14  7.293167E+04 -1.665816E+06 -1.790736E+05 -3.730480E+03 -6.339567E-09 -4.994029E-10
       124  15 -3.070645E+05 -1.728304E+06 -4.034968E+05  1.564262E+04 -1.732167E-09  1.202372E-09
       124  16 -2.783721E+04 -1.855569E+06 -1.623568E+05  4.901179E+02  2.722418E-09  5.311436E-10
       124  17  3.721456E+04 -1.808462E+06 -2.146582E+05  4.050861E+03 -8.220344E-09  1.833905E-09
       124  18 -3.466797E+05 -1.886099E+06 -4.429915E+05  4.673566E+04 -1.625064E-09 -1.341879E-09
       124  19  3.599737E+04 -1.600409E+06 -9.858662E+04  3.155878E+04 -7.236208E+02 -7.095035E+04
       124  20  1.086551E+05 -1.523121E+06 -1.434371E+05 -1.151341E+04 -1.462214E+03 -1.683243E+05
       124  21 -2.674286E+05 -1.570408E+06 -3.638705E+05 -1.545828E+04 -2.950691E+02 -2.657005E+05
       124  22  4.080910E+03 -1.727994E+06 -1.304665E+05  1.602287E+04 -7.220082E+02 -7.068739E+04
       124  23  7.293931E+04 -1.665785E+06 -1.790202E+05 -3.730281E+03 -1.464334E+03 -1.683144E+05
       124  24 -3.070454E+05 -1.728227E+06 -4.033635E+05  1.564268E+04 -3.080644E+02 -2.659412E+05
       124  25 -2.783587E+04 -1.855563E+06 -1.623474E+05  4.901588E+02 -7.204085E+02 -7.042448E+04
       124  26  3.722219E+04 -1.808431E+06 -2.146048E+05  4.051060E+03 -1.466455E+03 -1.683045E+05
       124  27 -3.466606E+05 -1.886023E+06 -4.428579E+05  4.673573E+04 -3.210869E+02 -2.661820E+05
       125   1  3.019229E+05  9.364586E+04  6.466620E+04  1.085033E+05  4.782433E+04  1.842831E+04
       125   2  2.889390E+05  2.351069E+04  1.991312E+04  1.211802E+05  3.054076E+04  1.268445E+04
       125   3  3.055528E+05  2.711967E+04  7.973006E+03  1.150816E+05  1.352393E+04  6.233522E+03
       125   4  3.520764E+05  1.013002E+05  7.614922E+04  1.106334E+05  4.815322E+04  1.855132E+04
       125   5  3.333993E+05  3.728876E+04  3.132889E+04  1.302567E+05  3.064556E+04  1.272380E+04
       125   6  3.443625E+05  4.706221E+04  1.949719E+04  1.311050E+05  1.340475E+04  6.188701E+03
       125   7  4.022322E+05  1.089546E+05  8.763210E+04  1.127634E+05  4.848214E+04  1.867433E+04
       125   8  3.778615E+05  5.106680E+04  4.274449E+04  1.393337E+05  3.075037E+04  1.276315E+04
       125   9  3.831739E+05  6.700532E+04  3.102127E+04  1.471295E+05  1.328556E+04  6.143874E+03
       125  10  3.019204E+05  9.364489E+04  6.466127E+04  1.085026E+05  3.527940E-10  2.343739E-09
       125  11  2.889379E+05  2.351026E+04  1.991106E+04  1.211798E+05  5.881692E-09  8.905231E-09
       125  12  3.055526E+05  2.711958E+04  7.972589E+03  1.150815E+05  1.075323E-09  4.596854E-09
       125  13  3.520738E+05  1.012992E+05  7.614422E+04  1.106327E+05 -3.962313E-09 -4.675581E-09
       125  14  3.333982E+05  3.728834E+04  3.132682E+04  1.302564E+05 -2.956503E-09 -5.740711E-09
       125  15  3.443623E+05  4.706212E+04  1.949678E+04  1.311050E+05  1.555479E-09  3.959366E-09
       125  16  4.022296E+05  1.089536E+05  8.762703E+04  1.127627E+05 -2.521158E-09 -5.798829E-09
       125  17  3.778604E+05  5.106637E+04  4.274241E+04  1.393334E+05 -8.767469E-09 -7.868067E-09
       125  18  3.831737E+05  6.700523E+04  3.102086E+04  1.471295E+05 -7.012610E-10 -3.677401E-09
       125  19  3.019229E+05  9.364586E+04  6.466620E+04  1.085033E+05 -4.782433E+04 -1.842831E+04
       125  20  2.889390E+05  2.351069E+04  1.991312E+04  1.211802E+05 -3.054076E+04 -1.268445E+04
       125  21  3.055528E+05  2.711967E+04  7.973006E+03  1.150816E+05 -1.352393E+04 -6.233522E+03
       125  22  3.520764E+05  1.013002E+05  7.614922E+04  1.106334E+05 -4.815322E+04 -1.855132E+04
       125  23  3.333993E+05  3.728876E+04  3.132889E+04  1.302567E+05 -3.064556E+04 -1.272380E+04
       125  24  3.443625E+05  4.706221E+04  1.949719E+04  1.311050E+05 -1.340475E+04 -6.188701E+03
       125  25  4.022322E+05  1.089546E+05  8.763210E+04  1.127634E+05 -4.848214E+04 -1.867433E+04
       125  26  3.778615E+05  5.106680E+04  4.274449E+04  1.393337E+05 -3.075037E+04 -1.276315E+04
       125  27  3.831739E+05  6.700532E+04  3.102127E+04  1.471295E+05 -1.328556E+04 -6.143874E+03
       126   1  2.970811E+05  4.015352E+04  4.147928E+03  1.154805E+05  1.051153E+04  4.985030E+03
       126   2  2.949668E+05  3.046719E+04 -4.567122E+03  1.168091E+05  6.600874E+03  3.618667E+03
       126   3  2.966225E+05  3.102810E+04 -7.715402E+03  1.161608E+05  2.720022E+03  2.173440E+03
       126   4  3.418444E+05  5.564776E+04  1.599513E+04  1.262702E+05  1.055455E+04  5.001224E+03
       126   5  3.394455E+05  4.692059E+04  7.393525E+03  1.286175E+05  6.618789E+03  3.625413E+03
       126   6  3.408212E+05  4.844519E+04  4.378278E+03  1.289879E+05  2.712832E+03  2.170727E+03
       126   7  3.866096E+05  7.114204E+04  2.784216E+04  1.370605E+05  1.059758E+04  5.017418E+03
       126   8  3.839260E+05  6.337407E+04  1.935399E+04  1.404265E+05  6.636704E+03  3.632160E+03
       126   9  3.850218E+05  6.586241E+04  1.647176E+04  1.418158E+05  2.705642E+03  2.168014E+03
       126  10  2.970810E+05  4.015346E+04  4.147674E+03  1.154805E+05  7.529212E-09  4.233116E-09
       126  11  2.949667E+05  3.046717E+04 -4.567228E+03  1.168091E+05  1.111898E-09  1.993542E-09
       126  12  2.966224E+05  3.102809E+04 -7.715425E+03  1.161608E+05 -3.914053E-09 -1.015128E-09
       126  13  3.418443E+05  5.564770E+04  1.599487E+04  1.262701E+05 -4.189229E-09  5.356264E-09
       126  14  3.394454E+05  4.692057E+04  7.393418E+03  1.286174E+05  3.229717E-09 -1.006368E-08
       126  15  3.408212E+05  4.844519E+04  4.378255E+03  1.289879E+05 -5.116174E-09 -1.289644E-09
       126  16  3.866095E+05  7.114199E+04  2.784190E+04  1.370604E+05  2.501524E-09  8.529608E-11
       126  17  3.839259E+05  6.337405E+04  1.935388E+04  1.404265E+05  6.043543E-09 -5.421480E-09
       126  18  3.850218E+05  6.586241E+04  1.647173E+04  1.418158E+05 -6.165187E-09  4.242514E-09
       126  19  2.970811E+05  4.015352E+04  4.147928E+03  1.154805E+05 -1.051153E+04 -4.985030E+03
       126  20  2.949668E+05  3.046719E+04 -4.567122E+03  1.168091E+05 -6.600874E+03 -3.618667E+03
       126  21  2.966225E+05  3.102810E+04 -7.715402E+03  1.161608E+05 -2.720022E+03 -2.173440E+03
       126  22  3.418444E+05  5.564776E+04  1.599513E+04  1.262702E+05 -1.055455E+04 -5.001224E+03
       126  23  3.394455E+05  4.692059E+04  7.393525E+03  1.286175E+05 -6.618789E+03 -3.625413E+03
       126  24  3.408212E+05  4.844519E+04  4.378278E+03  1.289879E+05 -2.712832E+03 -2.170727E+03
       126  25  3.866096E+05  7.114204E+04  2.784216E+04  1.370605E+05 -1.059758E+04 -5.017418E+03
       126  26  3.839260E+05  6.337407E+04  1.935399E+04  1.404265E+05 -6.636704E+03 -3.632160E+03
       126  27  3.850218E+05  6.586241E+04  1.647176E+04  1.418158E+05 -2.705642E+03 -2.168014E+03
       127   1  2.941351E+05  3.227424E+04 -9.022100E+03  1.158763E+05  2.057302E+03  1.923805E+03
       127   2  2.934953E+05  3.053019E+04 -1.091711E+04  1.156086E+05  1.150398E+03  1.618403E+03
       127   3  2.929158E+05  3.065429E+04 -1.178829E+04  1.156647E+05  2.456452E+02  1.307268E+03
       127   4  3.404237E+05  4.959250E+04  3.469611E+03  1.283636E+05  2.068427E+03  1.927993E+03
       127   5  3.403263E+05  4.818512E+04  1.743160E+03  1.283801E+05  1.159656E+03  1.621887E+03
       127   6  3.402895E+05  4.864623E+04  1.041971E+03  1.287206E+05  2.530348E+02  1.310047E+03
       127   7  3.867145E+05  6.691092E+04  1.596116E+04  1.408517E+05  2.079553E+03  1.932182E+03
       127   8  3.871595E+05  6.584020E+04  1.440325E+04  1.411526E+05  1.168914E+03  1.625372E+03
       127   9  3.876654E+05  6.663830E+04  1.387203E+04  1.417774E+05  2.604250E+02  1.312827E+03
       127  10  2.941351E+05  3.227423E+04 -9.022115E+03  1.158763E+05  1.434276E-09 -3.444991E-09
       127  11  2.934953E+05  3.053019E+04 -1.091712E+04  1.156086E+05  3.337729E-09  1.713118E-09
       127  12  2.929158E+05  3.065429E+04 -1.178830E+04  1.156647E+05  7.599896E-10 -6.601367E-10
       127  13  3.404237E+05  4.959250E+04  3.469596E+03  1.283636E+05 -1.536545E-09 -2.123141E-10
       127  14  3.403263E+05  4.818512E+04  1.743153E+03  1.283801E+05  2.639169E-09  1.999062E-09
       127  15  3.402895E+05  4.864623E+04  1.041967E+03  1.287206E+05  1.527243E-09  8.244621E-10
       127  16  3.867145E+05  6.691091E+04  1.596114E+04  1.408517E+05 -2.714409E-09  3.341857E-09
       127  17  3.871595E+05  6.584020E+04  1.440324E+04  1.411526E+05  3.152230E-09  7.389482E-09
       127  18  3.876654E+05  6.663830E+04  1.387203E+04  1.417774E+05  4.250105E-09  3.587545E-09
       127  19  2.941351E+05  3.227424E+04 -9.022100E+03  1.158763E+05 -2.057302E+03 -1.923805E+03
       127  20  2.934953E+05  3.053019E+04 -1.091711E+04  1.156086E+05 -1.150398E+03 -1.618403E+03
       127  21  2.929158E+05  3.065429E+04 -1.178829E+04  1.156647E+05 -2.456452E+02 -1.307268E+03
       127  22  3.404237E+05  4.959250E+04  3.469611E+03  1.283636E+05 -2.068427E+03 -1.927993E+03
       127  23  3.403263E+05  4.818512E+04  1.743160E+03  1.283801E+05 -1.159656E+03 -1.621887E+03
       127  24  3.402895E+05  4.864623E+04  1.041971E+03  1.287206E+05 -2.530348E+02 -1.310047E+03
       127  25  3.867145E+05  6.691092E+04  1.596116E+04  1.408517E+05 -2.079553E+03 -1.932182E+03
       127  26  3.871595E+05  6.584020E+04  1.440325E+04  1.411526E+05 -1.168914E+03 -1.625372E+03
       127  27  3.876654E+05  6.663830E+04  1.387203E+04  1.417774E+05 -2.604250E+02 -1.312827E+03
       128   1  2.909325E+05  3.022720E+04 -1.248715E+04  1.152175E+05  8.312586E+01  1.262774E+03
       128   2  2.904282E+05  2.941754E+04 -1.300194E+04  1.146336E+05 -2.002082E+02  1.190028E+03
       128   3  2.893580E+05  2.950802E+04 -1.325582E+04  1.147943E+05 -4.846281E+02  1.120179E+03
       128   4  3.402050E+05  4.881671E+04  8.389424E+02  1.286686E+05  9.208784E+01  1.266145E+03
       128   5  3.404810E+05  4.831749E+04  5.355417E+02  1.283149E+05 -1.903555E+02  1.193734E+03
       128   6  3.401910E+05  4.871819E+04  4.923447E+02  1.287057E+05 -4.738855E+02  1.124220E+03
       128   7  3.894798E+05  6.740632E+04  1.416479E+04  1.421206E+05  1.010506E+02  1.269517E+03
       128   8  3.905363E+05  6.721759E+04  1.407280E+04  1.419971E+05 -1.805019E+02  1.197441E+03
       128   9  3.910266E+05  6.792855E+04  1.424030E+04  1.426181E+05 -4.631419E+02  1.128261E+03
       128  10  2.909325E+05  3.022720E+04 -1.248715E+04  1.152175E+05 -6.716655E-09 -1.715284E-09
       128  11  2.904282E+05  2.941754E+04 -1.300195E+04  1.146336E+05 -7.585757E-10  7.231586E-09
       128  12  2.893580E+05  2.950802E+04 -1.325582E+04  1.147943E+05  6.176373E-09  1.886479E-10
       128  13  3.402050E+05  4.881670E+04  8.389394E+02  1.286686E+05 -4.286372E-09  2.171669E-09
       128  14  3.404810E+05  4.831749E+04  5.355389E+02  1.283149E+05 -2.598565E-09  1.144201E-08
       128  15  3.401910E+05  4.871819E+04  4.923419E+02  1.287057E+05  8.180215E-10 -4.400448E-09
       128  16  3.894798E+05  6.740632E+04  1.416479E+04  1.421206E+05  8.195160E-09  6.898987E-09
       128  17  3.905363E+05  6.721759E+04  1.407280E+04  1.419971E+05 -4.296349E-09 -1.508009E-09
       128  18  3.910266E+05  6.792855E+04  1.424030E+04  1.426181E+05 -2.512918E-09  7.808391E-11
       128  19  2.909325E+05  3.022720E+04 -1.248715E+04  1.152175E+05 -8.312586E+01 -1.262774E+03
       128  20  2.904282E+05  2.941754E+04 -1.300194E+04  1.146336E+05  2.002082E+02 -1.190028E+03
       128  21  2.893580E+05  2.950802E+04 -1.325582E+04  1.147943E+05  4.846281E+02 -1.120179E+03
       128  22  3.402050E+05  4.881671E+04  8.389424E+02  1.286686E+05 -9.208784E+01 -1.266145E+03
       128  23  3.404810E+05  4.831749E+04  5.355417E+02  1.283149E+05  1.903555E+02 -1.193734E+03
       128  24  3.401910E+05  4.871819E+04  4.923447E+02  1.287057E+05  4.738855E+02 -1.124220E+03
       128  25  3.894798E+05  6.740632E+04  1.416479E+04  1.421206E+05 -1.010506E+02 -1.269517E+03
       128  26  3.905363E+05  6.721759E+04  1.407280E+04  1.419971E+05  1.805019E+02 -1.197441E+03
       128  27  3.910266E+05  6.792855E+04  1.424030E+04  1.426181E+05  4.631419E+02 -1.128261E+03
       129   1  2.870925E+05  2.872148E+04 -1.382867E+04  1.142664E+05 -5.763776E+02  1.108246E+03
       129   2  2.864990E+05  2.786947E+04 -1.388819E+04  1.135083E+05 -9.551604E+02  1.005697E+03
       129   3  2.852477E+05  2.814988E+04 -1.359212E+04  1.136361E+05 -1.334872E+03  9.056444E+02
       129   4  3.401661E+05  4.873889E+04  5.244430E+02  1.287487E+05 -5.657034E+02  1.112260E+03
       129   5  3.405081E+05  4.826386E+04  7.194360E+02  1.282715E+05 -9.437325E+02  1.009994E+03
       129   6  3.401919E+05  4.892110E+04  1.269392E+03  1.286801E+05 -1.322690E+03  9.102238E+02
       129   7  3.932425E+05  6.875645E+04  1.487731E+04  1.432322E+05 -5.550283E+02  1.116275E+03
       129   8  3.945199E+05  6.865840E+04  1.532679E+04  1.430358E+05 -9.323035E+02  1.014291E+03
       129   9  3.951390E+05  6.969245E+04  1.613061E+04  1.437253E+05 -1.310508E+03  9.148036E+02
       129  10  2.870925E+05  2.872148E+04 -1.382867E+04  1.142664E+05  6.831452E-09 -5.182662E-09
       129  11  2.864990E+05  2.786947E+04 -1.388819E+04  1.135083E+05  2.166668E-09 -2.084530E-09
       129  12  2.852477E+05  2.814988E+04 -1.359213E+04  1.136361E+05 -5.019968E-09 -3.580316E-09
       129  13  3.401661E+05  4.873888E+04  5.244401E+02  1.287487E+05  1.460494E-09  2.586806E-10
       129  14  3.405081E+05  4.826386E+04  7.194324E+02  1.282715E+05  2.447044E-09 -1.215293E-09
       129  15  3.401919E+05  4.892110E+04  1.269387E+03  1.286801E+05  3.149791E-10  2.856595E-09
       129  16  3.932425E+05  6.875645E+04  1.487730E+04  1.432322E+05  3.343741E-10 -1.567828E-09
       129  17  3.945199E+05  6.865840E+04  1.532678E+04  1.430358E+05  3.941972E-09 -5.364361E-10
       129  18  3.951390E+05  6.969245E+04  1.613060E+04  1.437253E+05 -2.045765E-09 -1.095389E-09
       129  19  2.870925E+05  2.872148E+04 -1.382867E+04  1.142664E+05  5.763776E+02 -1.108246E+03
       129  20  2.864990E+05  2.786947E+04 -1.388819E+04  1.135083E+05  9.551604E+02 -1.005697E+03
       129  21  2.852477E+05  2.814988E+04 -1.359212E+04  1.136361E+05  1.334872E+03 -9.056444E+02
       129  22  3.401661E+05  4.873889E+04  5.244430E+02  1.287487E+05  5.657034E+02 -1.112260E+03
       129  23  3.405081E+05  4.826386E+04  7.194360E+02  1.282715E+05  9.437325E+02 -1.009994E+03
       129  24  3.401919E+05  4.892110E+04  1.269392E+03  1.286801E+05  1.322690E+03 -9.102238E+02
       129  25  3.932425E+05  6.875645E+04  1.487731E+04  1.432322E+05  5.550283E+02 -1.116275E+03
       129  26  3.945199E+05  6.865840E+04  1.532679E+04  1.430358E+05  9.323035E+02 -1.014291E+03
       129  27  3.951390E+05  6.969245E+04  1.613061E+04  1.437253E+05  1.310508E+03 -9.148036E+02
       130   1  2.825189E+05  2.709200E+04 -1.396989E+04  1.132497E+05 -1.586230E+03  8.408893E+02
       130   2  2.816488E+05  2.572918E+04 -1.311680E+04  1.121654E+05 -3.023971E+03  3.483345E+02
       130   3  2.807812E+05  2.745430E+04 -1.063194E+04  1.117059E+05 -4.457106E+03 -1.565093E+02
       130   4  3.402495E+05  4.872593E+04  1.615344E+03  1.288593E+05 -1.570886E+03  8.466591E+02
       130   5  3.403556E+05  4.794349E+04  2.770095E+03  1.282599E+05 -3.012623E+03  3.525974E+02
       130   6  3.404650E+05  5.024970E+04  5.559672E+03  1.282854E+05 -4.449755E+03 -1.537544E+02
       130   7  3.979833E+05  7.036008E+04  1.720031E+04  1.444701E+05 -1.555540E+03  8.524294E+02
       130   8  3.990658E+05  7.015803E+04  1.865670E+04  1.443557E+05 -3.001274E+03  3.568608E+02
       130   9  4.001522E+05  7.304532E+04  2.175096E+04  1.448663E+05 -4.442404E+03 -1.509992E+02
       130  10  2.825189E+05  2.709200E+04 -1.396989E+04  1.132497E+05  1.963247E-09  8.552797E-10
       130  11  2.816488E+05  2.572917E+04 -1.311682E+04  1.121654E+05 -3.616119E-09  3.682361E-10
       130  12  2.807812E+05  2.745430E+04 -1.063198E+04  1.117059E+05 -1.008092E-08 -1.748974E-09
       130  13  3.402495E+05  4.872593E+04  1.615338E+03  1.288593E+05  1.679466E-09 -2.468711E-09
       130  14  3.403556E+05  4.794349E+04  2.770078E+03  1.282599E+05 -5.454610E-09  1.084659E-09
       130  15  3.404650E+05  5.024969E+04  5.559635E+03  1.282854E+05 -3.604690E-09  6.459347E-10
       130  16  3.979833E+05  7.036008E+04  1.720030E+04  1.444701E+05  1.114075E-09 -1.128996E-09
       130  17  3.990658E+05  7.015803E+04  1.865668E+04  1.443557E+05  2.186129E-09  2.580550E-09
       130  18  4.001522E+05  7.304532E+04  2.175093E+04  1.448663E+05  9.809421E-09  2.674752E-09
       130  19  2.825189E+05  2.709200E+04 -1.396989E+04  1.132497E+05  1.586230E+03 -8.408893E+02
       130  20  2.816488E+05  2.572918E+04 -1.311680E+04  1.121654E+05  3.023971E+03 -3.483345E+02
       130  21  2.807812E+05  2.745430E+04 -1.063194E+04  1.117059E+05  4.457106E+03  1.565093E+02
       130  22  3.402495E+05  4.872593E+04  1.615344E+03  1.288593E+05  1.570886E+03 -8.466591E+02
       130  23  3.403556E+05  4.794349E+04  2.770095E+03  1.282599E+05  3.012623E+03 -3.525974E+02
       130  24  3.404650E+05  5.024970E+04  5.559672E+03  1.282854E+05  4.449755E+03  1.537544E+02
       130  25  3.979833E+05  7.036008E+04  1.720031E+04  1.444701E+05  1.555540E+03 -8.524294E+02
       130  26  3.990658E+05  7.015803E+04  1.865670E+04  1.443557E+05  3.001274E+03 -3.568608E+02
       130  27  4.001522E+05  7.304532E+04  2.175096E+04  1.448663E+05  4.442404E+03  1.509992E+02
       131   1  2.771948E+05  2.555216E+04 -1.001190E+04  1.131334E+05 -5.542467E+03 -5.076704E+02
       131   2  2.751318E+05  2.113068E+04 -5.509975E+03  1.104962E+05 -1.178605E+04 -2.791311E+03
       131   3  2.786692E+05  3.364151E+04  7.934692E+03  1.052090E+05 -1.797603E+04 -5.217465E+03
       131   4  3.410252E+05  4.848542E+04  7.025069E+03  1.293803E+05 -5.502057E+03 -4.924584E+02
       131   5  3.390396E+05  4.580773E+04  1.187822E+04  1.285249E+05 -1.179112E+04 -2.793243E+03
       131   6  3.426628E+05  6.007030E+04  2.570942E+04  1.250197E+05 -1.802659E+04 -5.236582E+03
       131   7  4.048594E+05  7.141878E+04  2.406166E+04  1.456286E+05 -5.461644E+03 -4.772449E+02
       131   8  4.029513E+05  7.048508E+04  2.926604E+04  1.465554E+05 -1.179619E+04 -2.795175E+03
       131   9  4.066605E+05  8.649960E+04  4.348379E+04  1.448324E+05 -1.807716E+04 -5.255701E+03
       131  10  2.771948E+05  2.555215E+04 -1.001196E+04  1.131334E+05 -1.224694E-08  1.372052E-09
       131  11  2.751317E+05  2.113063E+04 -5.510250E+03  1.104961E+05 -1.157456E-09  5.070365E-09
       131  12  2.786689E+05  3.364140E+04  7.934034E+03  1.052089E+05  7.055508E-10  2.286504E-09
       131  13  3.410252E+05  4.848541E+04  7.025012E+03  1.293803E+05 -1.436070E-08 -2.440646E-09
       131  14  3.390394E+05  4.580769E+04  1.187794E+04  1.285249E+05 -6.284686E-09  1.194343E-09
       131  15  3.426625E+05  6.007018E+04  2.570876E+04  1.250196E+05 -7.857656E-09  2.252518E-09
       131  16  4.048593E+05  7.141878E+04  2.406160E+04  1.456286E+05  1.749761E-09  4.878681E-10
       131  17  4.029512E+05  7.048504E+04  2.926576E+04  1.465554E+05 -6.006610E-10 -5.040533E-09
       131  18  4.066601E+05  8.649948E+04  4.348313E+04  1.448323E+05 -1.006702E-08 -1.938300E-09
       131  19  2.771948E+05  2.555216E+04 -1.001190E+04  1.131334E+05  5.542467E+03  5.076704E+02
       131  20  2.751318E+05  2.113068E+04 -5.509975E+03  1.104962E+05  1.178605E+04  2.791311E+03
       131  21  2.786692E+05  3.364151E+04  7.934692E+03  1.052090E+05  1.797603E+04  5.217465E+03
       131  22  3.410252E+05  4.848542E+04  7.025069E+03  1.293803E+05  5.502057E+03  4.924584E+02
       131  23  3.390396E+05  4.580773E+04  1.187822E+04  1.285249E+05  1.179112E+04  2.793243E+03
       131  24  3.426628E+05  6.007030E+04  2.570942E+04  1.250197E+05  1.802659E+04  5.236582E+03
       131  25  4.048594E+05  7.141878E+04  2.406166E+04  1.456286E+05  5.461644E+03  4.772449E+02
       131  26  4.029513E+05  7.048508E+04  2.926604E+04  1.465554E+05  1.179619E+04  2.795175E+03
       131  27  4.066605E+05  8.649960E+04  4.348379E+04  1.448324E+05  1.807716E+04  5.255701E+03
       132   1  2.712343E+05  2.634966E+04  1.262213E+04  1.209673E+05 -2.299411E+04 -6.848250E+03
       132   2  2.621466E+05  9.220942E+00  3.125627E+04  1.077091E+05 -5.038340E+04 -1.699822E+04
       132   3  2.997695E+05  9.308600E+04  1.026104E+05  6.526775E+04 -7.729644E+04 -2.841342E+04
       132   4  3.466491E+05  4.633272E+04  3.134099E+04  1.328646E+05 -2.275431E+04 -6.757659E+03
       132   5  3.294204E+05  3.022102E+04  5.036331E+04  1.310431E+05 -5.054510E+04 -1.705954E+04
       132   6  3.589760E+05  1.335971E+05  1.224191E+05  1.000404E+05 -7.785916E+04 -2.862786E+04
       132   7  4.220695E+05  6.631562E+04  5.005949E+04  1.447628E+05 -2.251447E+04 -6.667064E+03
       132   8  3.966985E+05  6.043357E+04  6.946987E+04  1.543795E+05 -5.070681E+04 -1.712087E+04
       132   9  4.181865E+05  1.741113E+05  1.422274E+05  1.348166E+05 -7.842193E+04 -2.884238E+04
       132  10  2.712337E+05  2.634947E+04  1.262105E+04  1.209672E+05  4.095769E-09  9.137168E-10
       132  11  2.621438E+05  8.229782E+00  3.125096E+04  1.077084E+05  6.594361E-10  2.296947E-09
       132  12  2.997628E+05  9.308353E+04  1.025977E+05  6.526598E+04 -3.187510E-09 -2.548736E-09
       132  13  3.466485E+05  4.633253E+04  3.133993E+04  1.328645E+05  2.582246E-10 -7.565339E-10
       132  14  3.294176E+05  3.022002E+04  5.035797E+04  1.310424E+05 -7.182035E-09 -3.373750E-09
       132  15  3.589693E+05  1.335946E+05  1.224062E+05  1.000386E+05 -3.072957E-09 -8.273023E-10
       132  16  4.220690E+05  6.631544E+04  5.005845E+04  1.447627E+05 -4.459603E-09 -1.833142E-09
       132  17  3.966957E+05  6.043257E+04  6.946449E+04  1.543788E+05 -2.218153E-09 -6.387350E-10
       132  18  4.181796E+05  1.741088E+05  1.422143E+05  1.348148E+05 -2.021033E-09 -1.453995E-09
       132  19  2.712343E+05  2.634966E+04  1.262213E+04  1.209673E+05  2.299411E+04  6.848250E+03
       132  20  2.621466E+05  9.220942E+00  3.125627E+04  1.077091E+05  5.038340E+04  1.699822E+04
       132  21  2.997695E+05  9.308600E+04  1.026104E+05  6.526775E+04  7.729644E+04  2.841342E+04
       132  22  3.466491E+05  4.633272E+04  3.134099E+04  1.328646E+05  2.275431E+04  6.757659E+03
       132  23  3.294204E+05  3.022102E+04  5.036331E+04  1.310431E+05  5.054510E+04  1.705954E+04
       132  24  3.589760E+05  1.335971E+05  1.224191E+05  1.000404E+05  7.785916E+04  2.862786E+04
       132  25  4.220695E+05  6.631562E+04  5.005949E+04  1.447628E+05  2.251447E+04  6.667064E+03
       132  26  3.966985E+05  6.043357E+04  6.946987E+04  1.543795E+05  5.070681E+04  1.712087E+04
       132  27  4.181865E+05  1.741113E+05  1.422274E+05  1.348166E+05  7.842193E+04  2.884238E+04
       133   1 -9.512666E+01 -4.170804E+05 -1.382398E+03 -6.090476E+01 -2.905839E+01  1.027187E+02
       133   2 -2.746841E+02 -4.178342E+05 -1.878190E+03  1.288437E+02 -5.538679E+01  8.857275E+02
       133   3 -6.988399E+02 -4.187522E+05 -2.945375E+03 -1.189642E+02 -9.477078E+01  1.668734E+03
       133   4  2.270411E+00 -4.166805E+05 -1.295929E+03 -9.718227E+01 -2.907103E+01  1.164497E+02
       133   5  2.949005E+01 -4.165977E+05 -1.594493E+03  1.215075E+02 -5.540805E+01  9.088551E+02
       133   6 -1.895171E+02 -4.166807E+05 -2.470974E+03 -9.735850E+01 -9.480059E+01  1.701260E+03
       133   7  9.966748E+01 -4.162806E+05 -1.209460E+03 -1.334598E+02 -2.908367E+01  1.301808E+02
       133   8  3.336641E+02 -4.153612E+05 -1.310796E+03  1.141714E+02 -5.542932E+01  9.319828E+02
       133   9  3.198054E+02 -4.146092E+05 -1.996574E+03 -7.575275E+01 -9.483039E+01  1.733785E+03
       133  10 -9.512667E+01 -4.170804E+05 -1.382398E+03 -6.090476E+01  9.597268E-09 -7.800307E-10
       133  11 -2.746843E+02 -4.178342E+05 -1.878192E+03  1.288437E+02  1.305328E-08 -3.360116E-09
       133  12 -6.988407E+02 -4.187522E+05 -2.945380E+03 -1.189640E+02 -1.542425E-09 -4.491055E-09
       133  13  2.270406E+00 -4.166805E+05 -1.295929E+03 -9.718226E+01  5.578278E-09  1.094432E-09
       133  14  2.948983E+01 -4.165977E+05 -1.594495E+03  1.215076E+02  4.349977E-10  1.596837E-09
       133  15 -1.895179E+02 -4.166807E+05 -2.470980E+03 -9.735837E+01 -1.106532E-09 -3.736187E-09
       133  16  9.966747E+01 -4.162806E+05 -1.209460E+03 -1.334598E+02 -8.678359E-09 -3.309171E-09
       133  17  3.336639E+02 -4.153612E+05 -1.310798E+03  1.141714E+02 -3.017633E-09  6.371105E-09
       133  18  3.198046E+02 -4.146092E+05 -1.996580E+03 -7.575262E+01  2.948946E-10  8.087746E-09
       133  19 -9.512666E+01 -4.170804E+05 -1.382398E+03 -6.090476E+01  2.905839E+01 -1.027187E+02
       133  20 -2.746841E+02 -4.178342E+05 -1.878190E+03  1.288437E+02  5.538679E+01 -8.857275E+02
       133  21 -6.988399E+02 -4.187522E+05 -2.945375E+03 -1.189642E+02  9.477078E+01 -1.668734E+03
       133  22  2.270411E+00 -4.166805E+05 -1.295929E+03 -9.718227E+01  2.907103E+01 -1.164497E+02
       133  23  2.949005E+01 -4.165977E+05 -1.594493E+03  1.215075E+02  5.540805E+01 -9.088551E+02
       133  24 -1.895171E+02 -4.166807E+05 -2.470974E+03 -9.735850E+01  9.480059E+01 -1.701260E+03
       133  25  9.966748E+01 -4.162806E+05 -1.209460E+03 -1.334598E+02  2.908367E+01 -1.301808E+02
       133  26  3.336641E+02 -4.153612E+05 -1.310796E+03  1.141714E+02  5.542932E+01 -9.319828E+02
       133  27  3.198054E+02 -4.146092E+05 -1.996574E+03 -7.575275E+01  9.483039E+01 -1.733785E+03
       134   1 -5.528080E+02 -4.197568E+05 -3.765494E+03  3.606276E+02 -1.218353E+02  2.161151E+03
       134   2 -6.861848E+02 -4.200461E+05 -6.020530E+03 -1.070034E+02 -1.632716E+02  4.780908E+03
       134   3 -3.815695E+03 -4.214269E+05 -1.073123E+04 -1.012755E+03 -1.964429E+02  7.400663E+03
       134   4  1.550340E+02 -4.168861E+05 -3.103433E+03 -9.660838E+01 -1.218654E+02  2.192221E+03
       134   5  2.250151E+02 -4.163413E+05 -5.168490E+03  1.211445E+02 -1.632928E+02  4.806040E+03
       134   6 -2.700097E+03 -4.168871E+05 -9.685069E+03 -9.922303E+01 -1.964494E+02  7.419860E+03
       134   7  8.628761E+02 -4.140153E+05 -2.441373E+03 -5.538465E+02 -1.218955E+02  2.223290E+03
       134   8  1.136214E+03 -4.126366E+05 -4.316450E+03  3.492938E+02 -1.633140E+02  4.831172E+03
       134   9 -1.584496E+03 -4.123473E+05 -8.638912E+03  8.143156E+02 -1.964559E+02  7.439058E+03
       134  10 -5.528093E+02 -4.197568E+05 -3.765503E+03  3.606278E+02 -3.102302E-09  5.239955E-09
       134  11 -6.861910E+02 -4.200461E+05 -6.020573E+03 -1.070028E+02  5.165958E-09 -9.784570E-10
       134  12 -3.815710E+03 -4.214269E+05 -1.073133E+04 -1.012754E+03  6.218023E-09 -2.785246E-09
       134  13  1.550327E+02 -4.168861E+05 -3.103442E+03 -9.660816E+01 -7.269260E-09 -1.083711E-09
       134  14  2.250089E+02 -4.163414E+05 -5.168533E+03  1.211451E+02  5.107001E-09  2.719565E-09
       134  15 -2.700111E+03 -4.168872E+05 -9.685173E+03 -9.922185E+01  3.707951E-09 -7.111537E-09
       134  16  8.628748E+02 -4.140153E+05 -2.441382E+03 -5.538463E+02 -3.103642E-09 -6.724856E-09
       134  17  1.136208E+03 -4.126366E+05 -4.316494E+03  3.492944E+02  4.349400E-09  1.350596E-09
       134  18 -1.584511E+03 -4.123474E+05 -8.639016E+03  8.143167E+02  6.633011E-09  6.176151E-09
       134  19 -5.528080E+02 -4.197568E+05 -3.765494E+03  3.606276E+02  1.218353E+02 -2.161151E+03
       134  20 -6.861848E+02 -4.200461E+05 -6.020530E+03 -1.070034E+02  1.632716E+02 -4.780908E+03
       134  21 -3.815695E+03 -4.214269E+05 -1.073123E+04 -1.012755E+03  1.964429E+02 -7.400663E+03
       134  22  1.550340E+02 -4.168861E+05 -3.103433E+03 -9.660838E+01  1.218654E+02 -2.192221E+03
       134  23  2.250151E+02 -4.163413E+05 -5.168490E+03  1.211445E+02  1.632928E+02 -4.806040E+03
       134  24 -2.700097E+03 -4.168871E+05 -9.685069E+03 -9.922303E+01  1.964494E+02 -7.419860E+03
       134  25  8.628761E+02 -4.140153E+05 -2.441373E+03 -5.538465E+02  1.218955E+02 -2.223290E+03
       134  26  1.136214E+03 -4.126366E+05 -4.316450E+03  3.492938E+02  1.633140E+02 -4.831172E+03
       134  27 -1.584496E+03 -4.123473E+05 -8.638912E+03  8.143156E+02  1.964559E+02 -7.439058E+03
       135   1  6.586605E+02 -4.244507E+05 -1.323290E+04  5.230041E+03 -2.428932E+02  9.121043E+03
       135   2  9.866276E+02 -4.197118E+05 -2.127943E+04 -4.614748E+03 -2.662346E+02  1.985993E+04
       135   3 -3.780688E+04 -4.261550E+05 -4.610123E+04 -1.491219E+04 -1.105275E+02  3.059883E+04
       135   4  1.981277E+03 -4.191232E+05 -1.200794E+04 -9.093524E+01 -2.430391E+02  9.195224E+03
       135   5  2.494443E+03 -4.135471E+05 -1.985593E+04  1.182033E+02 -2.660328E+02  1.980510E+04
       135   6 -3.609163E+04 -4.191309E+05 -4.438950E+04 -1.255809E+02 -1.096308E+02  3.041502E+04
       135   7  3.303998E+03 -4.137956E+05 -1.078297E+04 -5.411958E+03 -2.431862E+02  9.269405E+03
       135   8  4.002341E+03 -4.073823E+05 -1.843242E+04  4.851202E+03 -2.658319E+02  1.975028E+04
       135   9 -3.437556E+04 -4.121062E+05 -4.267766E+04  1.466120E+04 -1.087430E+02  3.023120E+04
       135  10  6.586380E+02 -4.244508E+05 -1.323306E+04  5.230043E+03  8.572137E-10  1.363843E-09
       135  11  9.865215E+02 -4.197122E+05 -2.128018E+04 -4.614744E+03 -6.694903E-09 -2.999440E-09
       135  12 -3.780713E+04 -4.261560E+05 -4.610300E+04 -1.491219E+04 -1.015711E-09 -3.615825E-09
       135  13  1.981254E+03 -4.191233E+05 -1.200810E+04 -9.093344E+01  1.367686E-08  3.735429E-11
       135  14  2.494338E+03 -4.135475E+05 -1.985667E+04  1.182075E+02  8.180361E-09  2.543496E-09
       135  15 -3.609188E+04 -4.191319E+05 -4.439124E+04 -1.255782E+02 -2.127206E-09 -4.234316E-09
       135  16  3.303975E+03 -4.137957E+05 -1.078313E+04 -5.411956E+03  9.817805E-09 -2.239231E-09
       135  17  4.002236E+03 -4.073828E+05 -1.843316E+04  4.851207E+03  9.404801E-09  1.207737E-09
       135  18 -3.437580E+04 -4.121072E+05 -4.267938E+04  1.466120E+04  3.193653E-09  5.549426E-09
       135  19  6.586605E+02 -4.244507E+05 -1.323290E+04  5.230041E+03  2.428932E+02 -9.121043E+03
       135  20  9.866276E+02 -4.197118E+05 -2.127943E+04 -4.614748E+03  2.662346E+02 -1.985993E+04
       135  21 -3.780688E+04 -4.261550E+05 -4.610123E+04 -1.491219E+04  1.105275E+02 -3.059883E+04
       135  22  1.981277E+03 -4.191232E+05 -1.200794E+04 -9.093524E+01  2.430391E+02 -9.195224E+03
       135  23  2.494443E+03 -4.135471E+05 -1.985593E+04  1.182033E+02  2.660328E+02 -1.980510E+04
       135  24 -3.609163E+04 -4.191309E+05 -4.438950E+04 -1.255809E+02  1.096308E+02 -3.041502E+04
       135  25  3.303998E+03 -4.137956E+05 -1.078297E+04 -5.411958E+03  2.431862E+02 -9.269405E+03
       135  26  4.002341E+03 -4.073823E+05 -1.843242E+04  4.851202E+03  2.658319E+02 -1.975028E+04
       135  27 -3.437556E+04 -4.121062E+05 -4.267766E+04  1.466120E+04  1.087430E+02 -3.023120E+04
       136   1 -1.214070E+07 -4.110934E+06 -2.291099E+06 -4.176288E+06 -6.356397E+05 -1.115896E+05
       136   2 -1.190331E+07 -3.707007E+06 -1.843345E+06 -4.086663E+06 -4.445283E+05  2.836799E+05
       136   3 -1.171578E+07 -3.561750E+06 -1.675548E+06 -4.009250E+06 -1.669633E+05  4.619038E+05
       136   4 -4.620619E+06 -1.061294E+06 -2.558193E+05 -1.928810E+06 -2.115826E+05  5.588072E+04
       136   5 -4.604808E+06 -8.607786E+05 -1.161025E+05 -1.959922E+06 -2.588944E+05  3.561295E+05
       136   6 -4.589448E+06 -8.692756E+05 -6.246964E+04 -2.003492E+06 -2.204519E+05  4.404827E+05
       136   7  2.955652E+06  1.994015E+06  1.775109E+06  3.444780E+05  2.182700E+05  2.258241E+05
       136   8  2.748109E+06  1.990642E+06  1.607501E+06  1.904893E+05 -7.082660E+04  4.295702E+05
       136   9  2.589145E+06  1.827563E+06  1.547353E+06  2.385944E+04 -2.746237E+05  4.188052E+05
       136  10 -1.214114E+07 -4.111059E+06 -2.291898E+06 -4.176346E+06  2.765619E-09  5.201933E-09
       136  11 -1.190354E+07 -3.707147E+06 -1.843870E+06 -4.086561E+06 -3.472994E-09 -5.701647E-09
       136  12 -1.171587E+07 -3.561986E+06 -1.676000E+06 -4.009187E+06 -1.945055E-09  5.704037E-10
       136  13 -4.620669E+06 -1.061309E+06 -2.559097E+05 -1.928800E+06  9.084737E-09  7.607549E-09
       136  14 -4.604914E+06 -8.609324E+05 -1.164660E+05 -1.959847E+06 -1.977198E-09 -3.725500E-08
       136  15 -4.589551E+06 -8.694964E+05 -6.292443E+04 -2.003414E+06 -2.650725E-09  1.768834E-09
       136  16  2.955587E+06  1.993948E+06  1.774924E+06  3.444384E+05 -4.723016E-09  5.740294E-09
       136  17  2.748054E+06  1.990443E+06  1.607146E+06  1.905137E+05  6.700153E-09  4.243193E-09
       136  18  2.589018E+06  1.827355E+06  1.546883E+06  2.395177E+04  5.232557E-09  1.312468E-09
       136  19 -1.214070E+07 -4.110934E+06 -2.291099E+06 -4.176288E+06  6.356397E+05  1.115896E+05
       136  20 -1.190331E+07 -3.707007E+06 -1.843345E+06 -4.086663E+06  4.445283E+05 -2.836799E+05
       136  21 -1.171578E+07 -3.561750E+06 -1.675548E+06 -4.009250E+06  1.669633E+05 -4.619038E+05
       136  22 -4.620619E+06 -1.061294E+06 -2.558193E+05 -1.928810E+06  2.115826E+05 -5.588072E+04
       136  23 -4.604808E+06 -8.607786E+05 -1.161025E+05 -1.959922E+06  2.588944E+05 -3.561295E+05
       136  24 -4.589448E+06 -8.692756E+05 -6.246964E+04 -2.003492E+06  2.204519E+05 -4.404827E+05
       136  25  2.955652E+06  1.994015E+06  1.775109E+06  3.444780E+05 -2.182700E+05 -2.258241E+05
       136  26  2.748109E+06  1.990642E+06  1.607501E+06  1.904893E+05  7.082660E+04 -4.295702E+05
       136  27  2.589145E+06  1.827563E+06  1.547353E+06  2.385944E+04  2.746237E+05 -4.188052E+05
       137   1 -1.148454E+07 -3.516851E+06 -1.622960E+06 -3.963303E+06 -2.053684E+05  4.211356E+05
       137   2 -1.124382E+07 -3.351563E+06 -1.524124E+06 -3.836839E+06 -1.767199E+05  4.266964E+05
       137   3 -1.092541E+07 -3.265542E+06 -1.444403E+06 -3.785416E+06 -1.435890E+05  4.203689E+05
       137   4 -4.577955E+06 -8.855246E+05 -4.878305E+04 -1.999192E+06 -2.042971E+05  4.210525E+05
       137   5 -4.616565E+06 -8.412923E+05 -2.710871E+04 -1.963690E+06 -1.885842E+05  4.216344E+05
       137   6 -4.574855E+06 -8.735485E+05 -1.400756E+04 -2.003196E+06 -1.684283E+05  4.103889E+05
       137   7  2.377586E+06  1.750072E+06  1.522261E+06 -1.452580E+04 -2.032140E+05  4.209784E+05
       137   8  2.055783E+06  1.672825E+06  1.467071E+06 -7.175965E+04 -2.005907E+05  4.165213E+05
       137   9  1.817049E+06  1.521871E+06  1.413796E+06 -2.038924E+05 -1.935506E+05  4.003038E+05
       137  10 -1.148463E+07 -3.517052E+06 -1.623372E+06 -3.963233E+06 -1.529275E-08  7.515811E-09
       137  11 -1.124390E+07 -3.351766E+06 -1.524524E+06 -3.836779E+06 -1.751135E-08  2.584827E-09
       137  12 -1.092547E+07 -3.265737E+06 -1.444773E+06 -3.785367E+06 -1.259915E-08 -1.018027E-09
       137  13 -4.578047E+06 -8.857257E+05 -4.919360E+04 -1.999123E+06 -6.758739E-09  8.426503E-10
       137  14 -4.616651E+06 -8.414922E+05 -2.750860E+04 -1.963626E+06  4.554957E-09 -4.811200E-09
       137  15 -4.574930E+06 -8.737365E+05 -1.437642E+04 -2.003140E+06 -6.277549E-09 -7.215026E-09
       137  16  2.377495E+06  1.749871E+06  1.521851E+06 -1.445712E+04  5.686624E-09  3.571329E-09
       137  17  2.055693E+06  1.672629E+06  1.466670E+06 -7.169256E+04  3.444645E-09  2.166792E-10
       137  18  1.816966E+06  1.521689E+06  1.413425E+06 -2.038302E+05  1.411268E-10 -1.645234E-09
       137  19 -1.148454E+07 -3.516851E+06 -1.622960E+06 -3.963303E+06  2.053684E+05 -4.211356E+05
       137  20 -1.124382E+07 -3.351563E+06 -1.524124E+06 -3.836839E+06  1.767199E+05 -4.266964E+05
       137  21 -1.092541E+07 -3.265542E+06 -1.444403E+06 -3.785416E+06  1.435890E+05 -4.203689E+05
       137  22 -4.577955E+06 -8.855246E+05 -4.878305E+04 -1.999192E+06  2.042971E+05 -4.210525E+05
       137  23 -4.616565E+06 -8.412923E+05 -2.710871E+04 -1.963690E+06  1.885842E+05 -4.216344E+05
       137  24 -4.574855E+06 -8.735485E+05 -1.400756E+04 -2.003196E+06  1.684283E+05 -4.103889E+05
       137  25  2.377586E+06  1.750072E+06  1.522261E+06 -1.452580E+04  2.032140E+05 -4.209784E+05
       137  26  2.055783E+06  1.672825E+06  1.467071E+06 -7.175965E+04  2.005907E+05 -4.165213E+05
       137  27  1.817049E+06  1.521871E+06  1.413796E+06 -2.038924E+05  1.935506E+05 -4.003038E+05
       138   1 -1.069817E+07 -3.179299E+06 -1.388283E+06 -3.721327E+06 -1.383770E+05  4.073889E+05
       138   2 -1.042392E+07 -3.009916E+06 -1.311477E+06 -3.580477E+06 -1.249874E+05  3.878733E+05
       138   3 -1.005961E+07 -2.920060E+06 -1.235799E+06 -3.528425E+06 -1.112294E+05  3.669420E+05
       138   4 -4.572273E+06 -8.757556E+05 -1.077828E+04 -2.005354E+06 -1.613188E+05  3.981962E+05
       138   5 -4.616465E+06 -8.341235E+05 -7.008944E+03 -1.961456E+06 -1.494359E+05  3.781948E+05
       138   6 -4.570412E+06 -8.716422E+05 -3.159606E+03 -2.006340E+06 -1.371901E+05  3.567837E+05
       138   7  1.592173E+06  1.430988E+06  1.364344E+06 -2.734969E+05 -1.845127E+05  3.889099E+05
       138   8  1.225588E+06  1.344481E+06  1.295319E+06 -3.282533E+05 -1.741385E+05  3.684221E+05
       138   9  9.496491E+05  1.179225E+06  1.227564E+06 -4.716761E+05 -1.634052E+05  3.465312E+05
       138  10 -1.069823E+07 -3.179482E+06 -1.388630E+06 -3.721282E+06  2.019545E-08  1.025551E-08
       138  11 -1.042397E+07 -3.010081E+06 -1.311788E+06 -3.580438E+06  7.641617E-09  6.627659E-09
       138  12 -1.005966E+07 -2.920208E+06 -1.236075E+06 -3.528392E+06 -1.291024E-08 -3.204029E-09
       138  13 -4.572343E+06 -8.759324E+05 -1.112426E+04 -2.005302E+06 -8.623136E-09 -8.912659E-09
       138  14 -4.616527E+06 -8.342827E+05 -7.318898E+03 -1.961411E+06  3.484962E-09 -1.542930E-10
       138  15 -4.570466E+06 -8.717836E+05 -3.433485E+03 -2.006300E+06 -6.713930E-10  6.926786E-09
       138  16  1.592096E+06  1.430817E+06  1.363997E+06 -2.734393E+05 -3.145977E-08 -1.960402E-08
       138  17  1.225519E+06  1.344328E+06  1.295007E+06 -3.282018E+05 -1.118152E-08 -3.597586E-09
       138  18  9.495884E+05  1.179090E+06  1.227289E+06 -4.716307E+05  9.658557E-09  2.885927E-09
       138  19 -1.069817E+07 -3.179299E+06 -1.388283E+06 -3.721327E+06  1.383770E+05 -4.073889E+05
       138  20 -1.042392E+07 -3.009916E+06 -1.311477E+06 -3.580477E+06  1.249874E+05 -3.878733E+05
       138  21 -1.005961E+07 -2.920060E+06 -1.235799E+06 -3.528425E+06  1.112294E+05 -3.669420E+05
       138  22 -4.572273E+06 -8.757556E+05 -1.077828E+04 -2.005354E+06  1.613188E+05 -3.981962E+05
       138  23 -4.616465E+06 -8.341235E+05 -7.008944E+03 -1.961456E+06  1.494359E+05 -3.781948E+05
       138  24 -4.570412E+06 -8.716422E+05 -3.159606E+03 -2.006340E+06  1.371901E+05 -3.567837E+05
       138  25  1.592173E+06  1.430988E+06  1.364344E+06 -2.734969E+05  1.845127E+05 -3.889099E+05
       138  26  1.225588E+06  1.344481E+06  1.295319E+06 -3.282533E+05  1.741385E+05 -3.684221E+05
       138  27  9.496491E+05  1.179225E+06  1.227564E+06 -4.716761E+05  1.634052E+05 -3.465312E+05
       139   1 -9.807867E+06 -2.824261E+06 -1.176152E+06 -3.458170E+06 -1.047605E+05  3.535069E+05
       139   2 -9.502226E+06 -2.642517E+06 -1.096578E+06 -3.306150E+06 -9.347777E+04  3.298262E+05
       139   3 -9.101633E+06 -2.547594E+06 -1.016510E+06 -3.253191E+06 -8.207119E+04  3.053888E+05
       139   4 -4.568690E+06 -8.729436E+05 -2.567425E+03 -2.008486E+06 -1.313687E+05  3.431591E+05
       139   5 -4.615354E+06 -8.278586E+05 -2.240354E+03 -1.959368E+06 -1.208937E+05  3.192589E+05
       139   6 -4.567049E+06 -8.693867E+05 -7.874854E+02 -2.009315E+06 -1.102971E+05  2.946046E+05
       139   7  6.985632E+05  1.080577E+06  1.169271E+06 -5.473814E+05 -1.582250E+05  3.327195E+05
       139   8  2.959523E+05  9.886931E+05  1.090588E+06 -6.026965E+05 -1.485478E+05  3.086034E+05
       139   9 -1.142238E+04  8.104287E+05  1.013643E+06 -7.569676E+05 -1.387503E+05  2.837365E+05
       139  10 -9.807912E+06 -2.824398E+06 -1.176406E+06 -3.458141E+06  2.407485E-08  9.875234E-09
       139  11 -9.502264E+06 -2.642636E+06 -1.096798E+06 -3.306125E+06  1.198211E-08  3.549501E-09
       139  12 -9.101665E+06 -2.547696E+06 -1.016697E+06 -3.253171E+06 -5.731207E-09 -3.863756E-09
       139  13 -4.568740E+06 -8.730743E+05 -2.820498E+03 -2.008449E+06  2.173824E-09  8.573041E-09
       139  14 -4.615397E+06 -8.279717E+05 -2.458799E+03 -1.959337E+06  8.922995E-09  3.239930E-09
       139  15 -4.567085E+06 -8.694829E+05 -9.729712E+02 -2.009289E+06  7.344511E-09 -8.073455E-09
       139  16  6.985068E+05  1.080452E+06  1.169017E+06 -5.473392E+05 -2.304456E-08 -8.893843E-09
       139  17  2.959032E+05  9.885853E+05  1.090368E+06 -6.026597E+05  1.314517E-09  6.394312E-09
       139  18 -1.146451E+04  8.103373E+05  1.013456E+06 -7.569360E+05  1.816785E-08  1.118166E-08
       139  19 -9.807867E+06 -2.824261E+06 -1.176152E+06 -3.458170E+06  1.047605E+05 -3.535069E+05
       139  20 -9.502226E+06 -2.642517E+06 -1.096578E+06 -3.306150E+06  9.347777E+04 -3.298262E+05
       139  21 -9.101633E+06 -2.547594E+06 -1.016510E+06 -3.253191E+06  8.207119E+04 -3.053888E+05
       139  22 -4.568690E+06 -8.729436E+05 -2.567425E+03 -2.008486E+06  1.313687E+05 -3.431591E+05
       139  23 -4.615354E+06 -8.278586E+05 -2.240354E+03 -1.959368E+06  1.208937E+05 -3.192589E+05
       139  24 -4.567049E+06 -8.693867E+05 -7.874854E+02 -2.009315E+06  1.102971E+05 -2.946046E+05
       139  25  6.985632E+05  1.080577E+06  1.169271E+06 -5.473814E+05  1.582250E+05 -3.327195E+05
       139  26  2.959523E+05  9.886931E+05  1.090588E+06 -6.026965E+05  1.485478E+05 -3.086034E+05
       139  27 -1.142238E+04  8.104287E+05  1.013643E+06 -7.569676E+05  1.387503E+05 -2.837365E+05
       140   1 -8.827725E+06 -2.445029E+06 -9.525984E+05 -3.178267E+06 -7.562068E+04  2.906718E+05
       140   2 -8.495808E+06 -2.253234E+06 -8.681930E+05 -3.017319E+06 -6.449088E+04  2.648047E+05
       140   3 -8.065623E+06 -2.154510E+06 -7.834753E+05 -2.963945E+06 -5.328135E+04  2.383555E+05
       140   4 -4.565719E+06 -8.703924E+05 -8.247943E+02 -2.011116E+06 -1.044897E+05  2.796962E+05
       140   5 -4.614123E+06 -8.224216E+05 -1.167684E+03 -1.957670E+06 -9.398555E+04  2.536679E+05
       140   6 -4.564310E+06 -8.673624E+05 -7.126632E+02 -2.011812E+06 -8.340326E+04  2.270596E+05
       140   7 -2.851493E+05  7.056480E+05  9.498081E+05 -8.365034E+05 -1.335766E+05  2.686402E+05
       140   8 -7.170650E+05  6.095329E+05  8.649080E+05 -8.918635E+05 -1.236826E+05  2.424566E+05
       140   9 -1.050518E+06  4.206925E+05  7.812730E+05 -1.054698E+06 -1.137111E+05  2.156953E+05
       140  10 -8.827753E+06 -2.445121E+06 -9.527676E+05 -3.178250E+06 -9.016716E-09 -5.233365E-09
       140  11 -8.495832E+06 -2.253310E+06 -8.683323E+05 -3.017305E+06 -2.678310E-09 -1.630811E-09
       140  12 -8.065641E+06 -2.154571E+06 -7.835871E+05 -2.963935E+06  2.826255E-09  3.725230E-09
       140  13 -4.565751E+06 -8.704791E+05 -9.918936E+02 -2.011092E+06  4.854287E-09 -7.075833E-09
       140  14 -4.614149E+06 -8.224928E+05 -1.304855E+03 -1.957651E+06  2.588542E-10 -4.551734E-09
       140  15 -4.564332E+06 -8.674195E+05 -8.223388E+02 -2.011797E+06 -5.935901E-10  3.261332E-10
       140  16 -2.851877E+05  7.055659E+05  9.496394E+05 -8.364745E+05  1.638415E-08  9.651043E-09
       140  17 -7.170971E+05  6.094659E+05  8.647691E+05 -8.918394E+05 -6.048757E-10  3.873585E-09
       140  18 -1.050545E+06  4.206392E+05  7.811615E+05 -1.054678E+06 -6.367073E-09 -4.380095E-09
       140  19 -8.827725E+06 -2.445029E+06 -9.525984E+05 -3.178267E+06  7.562068E+04 -2.906718E+05
       140  20 -8.495808E+06 -2.253234E+06 -8.681930E+05 -3.017319E+06  6.449088E+04 -2.648047E+05
       140  21 -8.065623E+06 -2.154510E+06 -7.834753E+05 -2.963945E+06  5.328135E+04 -2.383555E+05
       140  22 -4.565719E+06 -8.703924E+05 -8.247943E+02 -2.011116E+06  1.044897E+05 -2.796962E+05
       140  23 -4.614123E+06 -8.224216E+05 -1.167684E+03 -1.957670E+06  9.398555E+04 -2.536679E+05
       140  24 -4.564310E+06 -8.673624E+05 -7.126632E+02 -2.011812E+06  8.340326E+04 -2.270596E+05
       140  25 -2.851493E+05  7.056480E+05  9.498081E+05 -8.365034E+05  1.335766E+05 -2.686402E+05
       140  26 -7.170650E+05  6.095329E+05  8.649080E+05 -8.918635E+05  1.236826E+05 -2.424566E+05
       140  27 -1.050518E+06  4.206925E+05  7.812730E+05 -1.054698E+06  1.137111E+05 -2.156953E+05
       141   1 -7.773886E+06 -2.046652E+06 -7.159702E+05 -2.885323E+06 -4.670642E+04  2.226576E+05
       141   2 -7.421582E+06 -1.847451E+06 -6.278974E+05 -2.717590E+06 -3.497884E+04  1.954081E+05
       141   3 -6.968810E+06 -1.746213E+06 -5.402784E+05 -2.664048E+06 -2.320030E+04  1.677410E+05
       141   4 -4.563358E+06 -8.681113E+05 -1.034561E+03 -2.013232E+06 -7.732741E+04  2.112164E+05
       141   5 -4.613006E+06 -8.180674E+05 -1.894461E+03 -1.956369E+06 -6.605084E+04  1.838548E+05
       141   6 -4.562301E+06 -8.658830E+05 -2.861427E+03 -2.013732E+06 -5.472478E+04  1.560768E+05
       141   7 -1.342292E+06  3.112072E+05  7.132654E+05 -1.136948E+06 -1.081219E+05  1.997114E+05
       141   8 -1.796381E+06  2.119020E+05  6.236202E+05 -1.191952E+06 -9.727658E+04  1.722450E+05
       141   9 -2.149896E+06  1.486786E+04  5.341948E+05 -1.361080E+06 -8.638266E+04  1.443636E+05
       141  10 -7.773902E+06 -2.046706E+06 -7.160672E+05 -2.885315E+06  4.269408E-09  9.283765E-09
       141  11 -7.421593E+06 -1.847492E+06 -6.279713E+05 -2.717584E+06  1.250576E-09 -6.528250E-09
       141  12 -6.968818E+06 -1.746243E+06 -5.403322E+05 -2.664045E+06 -6.314760E-09 -4.348948E-09
       141  13 -4.563377E+06 -8.681607E+05 -1.129391E+03 -2.013219E+06  3.170394E-09  1.404931E-09
       141  14 -4.613020E+06 -8.181048E+05 -1.965999E+03 -1.956359E+06  5.129810E-09  1.637103E-08
       141  15 -4.562311E+06 -8.659099E+05 -2.912702E+03 -2.013725E+06  4.591693E-09  2.202085E-09
       141  16 -1.342316E+06  3.111614E+05  7.131688E+05 -1.136930E+06 -3.628948E-09  1.784439E-09
       141  17 -1.796399E+06  2.118677E+05  6.235468E+05 -1.191938E+06  2.149526E-10 -1.743997E-09
       141  18 -2.149909E+06  1.484355E+04  5.341417E+05 -1.361070E+06  2.142113E-09 -5.620491E-09
       141  19 -7.773886E+06 -2.046652E+06 -7.159702E+05 -2.885323E+06  4.670642E+04 -2.226576E+05
       141  20 -7.421582E+06 -1.847451E+06 -6.278974E+05 -2.717590E+06  3.497884E+04 -1.954081E+05
       141  21 -6.968810E+06 -1.746213E+06 -5.402784E+05 -2.664048E+06  2.320030E+04 -1.677410E+05
       141  22 -4.563358E+06 -8.681113E+05 -1.034561E+03 -2.013232E+06  7.732741E+04 -2.112164E+05
       141  23 -4.613006E+06 -8.180674E+05 -1.894461E+03 -1.956369E+06  6.605084E+04 -1.838548E+05
       141  24 -4.562301E+06 -8.658830E+05 -2.861427E+03 -2.013732E+06  5.472478E+04 -1.560768E+05
       141  25 -1.342292E+06  3.112072E+05  7.132654E+05 -1.136948E+06  1.081219E+05 -1.997114E+05
       141  26 -1.796381E+06  2.119020E+05  6.236202E+05 -1.191952E+06  9.727658E+04 -1.722450E+05
       141  27 -2.149896E+06  1.486786E+04  5.341948E+05 -1.361080E+06  8.638266E+04 -1.443636E+05
       142   1 -6.664078E+06 -1.634630E+06 -4.707410E+05 -2.583031E+06 -1.618803E+04  1.514642E+05
       142   2 -6.297958E+06 -1.430388E+06 -3.822457E+05 -2.409963E+06 -1.788308E+03  1.241261E+05
       142   3 -5.831046E+06 -1.329318E+06 -2.969717E+05 -2.355106E+06  1.261846E+04  9.660077E+04
       142   4 -4.561812E+06 -8.662102E+05 -3.908164E+03 -2.014806E+06 -4.806899E+04  1.396965E+05
       142   5 -4.611974E+06 -8.151275E+05 -7.145294E+03 -1.955404E+06 -3.386818E+04  1.123190E+05
       142   6 -4.561498E+06 -8.671741E+05 -1.344779E+04 -2.014264E+06 -1.966323E+04  8.475407E+04
       142   7 -2.455057E+06 -9.747186E+04  4.626500E+05 -1.444802E+06 -8.006743E+04  1.278856E+05
       142   8 -2.923096E+06 -1.996623E+05  3.677817E+05 -1.499702E+06 -6.604295E+04  1.004772E+05
       142   9 -3.290304E+06 -4.049137E+05  2.699812E+05 -1.672775E+06 -5.201698E+04  7.288106E+04
       142  10 -6.664084E+06 -1.634655E+06 -4.707845E+05 -2.583029E+06 -3.605814E-08 -1.694507E-08
       142  11 -6.297962E+06 -1.430404E+06 -3.822747E+05 -2.409963E+06 -2.834034E-09 -4.789705E-09
       142  12 -5.831048E+06 -1.329328E+06 -2.969895E+05 -2.355107E+06  2.453485E-08 -5.135349E-10
       142  13 -4.561820E+06 -8.662317E+05 -3.949075E+03 -2.014801E+06 -2.250128E-09 -2.626233E-10
       142  14 -4.611979E+06 -8.151413E+05 -7.171093E+03 -1.955401E+06 -8.414247E-09 -4.130035E-09
       142  15 -4.561501E+06 -8.671819E+05 -1.346198E+04 -2.014263E+06 -2.527264E-09 -1.366024E-09
       142  16 -2.455068E+06 -9.749108E+04  4.626073E+05 -1.444794E+06  2.185645E-08  6.143506E-09
       142  17 -2.923103E+06 -1.996743E+05  3.677546E+05 -1.499697E+06 -1.337469E-08 -5.412640E-09
       142  18 -3.290308E+06 -4.049201E+05  2.699661E+05 -1.672772E+06 -2.867541E-08 -1.693375E-08
       142  19 -6.664078E+06 -1.634630E+06 -4.707410E+05 -2.583031E+06  1.618803E+04 -1.514642E+05
       142  20 -6.297958E+06 -1.430388E+06 -3.822457E+05 -2.409963E+06  1.788308E+03 -1.241261E+05
       142  21 -5.831046E+06 -1.329318E+06 -2.969717E+05 -2.355106E+06 -1.261846E+04 -9.660077E+04
       142  22 -4.561812E+06 -8.662102E+05 -3.908164E+03 -2.014806E+06  4.806899E+04 -1.396965E+05
       142  23 -4.611974E+06 -8.151275E+05 -7.145294E+03 -1.955404E+06  3.386818E+04 -1.123190E+05
       142  24 -4.561498E+06 -8.671741E+05 -1.344779E+04 -2.014264E+06  1.966323E+04 -8.475407E+04
       142  25 -2.455057E+06 -9.747186E+04  4.626500E+05 -1.444802E+06  8.006743E+04 -1.278856E+05
       142  26 -2.923096E+06 -1.996623E+05  3.677817E+05 -1.499702E+06  6.604295E+04 -1.004772E+05
       142  27 -3.290304E+06 -4.049137E+05  2.699812E+05 -1.672775E+06  5.201698E+04 -7.288106E+04
       143   1 -5.515189E+06 -1.217063E+06 -2.287002E+05 -2.280840E+06  2.147232E+04  8.048361E+04
       143   2 -5.149168E+06 -1.002710E+06 -1.496438E+05 -2.086489E+06  4.745954E+04  5.734646E+04
       143   3 -4.699774E+06 -9.375225E+05 -9.483323E+04 -2.001259E+06  7.296648E+04  3.549365E+04
       143   4 -4.563401E+06 -8.636337E+05 -1.736572E+04 -2.017247E+06 -1.133681E+04  6.845828E+04
       143   5 -4.608579E+06 -8.166909E+05 -3.171323E+04 -1.952464E+06  1.608351E+04  4.585443E+04
       143   6 -4.570861E+06 -9.192019E+05 -7.144478E+04 -1.996887E+06  4.301311E+04  2.453019E+04
       143   7 -3.610684E+06 -5.101273E+05  1.939180E+05 -1.753275E+06 -4.420071E+04  5.641191E+04
       143   8 -4.067698E+06 -6.306599E+05  8.620246E+04 -1.818336E+06 -1.532188E+04  3.435306E+04
       143   9 -4.441931E+06 -9.008805E+05 -4.805335E+04 -1.992515E+06  1.305369E+04  1.356810E+04
       143  10 -5.515191E+06 -1.217070E+06 -2.287132E+05 -2.280842E+06  4.379606E-09 -5.610338E-09
       143  11 -5.149171E+06 -1.002714E+06 -1.496543E+05 -2.086491E+06 -1.826540E-09 -2.724144E-09
       143  12 -4.699780E+06 -9.375253E+05 -9.484572E+04 -2.001261E+06 -5.012132E-09 -1.507646E-08
       143  13 -4.563403E+06 -8.636388E+05 -1.737475E+04 -2.017247E+06 -5.535428E-10 -6.836742E-09
       143  14 -4.608580E+06 -8.166932E+05 -3.171768E+04 -1.952465E+06  1.014075E-08  1.633193E-08
       143  15 -4.570863E+06 -9.192030E+05 -7.144943E+04 -1.996888E+06  8.006715E-10  1.692805E-09
       143  16 -3.610687E+06 -5.101312E+05  1.939084E+05 -1.753273E+06  9.814897E-10 -2.782694E-09
       143  17 -4.067698E+06 -6.306613E+05  8.619981E+04 -1.818335E+06  6.161023E-09  3.193359E-09
       143  18 -4.441931E+06 -9.008807E+05 -4.805402E+04 -1.992515E+06  1.121081E-08 -5.172625E-09
       143  19 -5.515189E+06 -1.217063E+06 -2.287002E+05 -2.280840E+06 -2.147232E+04 -8.048361E+04
       143  20 -5.149168E+06 -1.002710E+06 -1.496438E+05 -2.086489E+06 -4.745954E+04 -5.734646E+04
       143  21 -4.699774E+06 -9.375225E+05 -9.483323E+04 -2.001259E+06 -7.296648E+04 -3.549365E+04
       143  22 -4.563401E+06 -8.636337E+05 -1.736572E+04 -2.017247E+06  1.133681E+04 -6.845828E+04
       143  23 -4.608579E+06 -8.166909E+05 -3.171323E+04 -1.952464E+06 -1.608351E+04 -4.585443E+04
       143  24 -4.570861E+06 -9.192019E+05 -7.144478E+04 -1.996887E+06 -4.301311E+04 -2.453019E+04
       143  25 -3.610684E+06 -5.101273E+05  1.939180E+05 -1.753275E+06  4.420071E+04 -5.641191E+04
       143  26 -4.067698E+06 -6.306599E+05  8.620246E+04 -1.818336E+06  1.532188E+04 -3.435306E+04
       143  27 -4.441931E+06 -9.008805E+05 -4.805335E+04 -1.992515E+06 -1.305369E+04 -1.356810E+04
       144   1  3.588879E+05  7.563126E+04  9.887122E+04  4.951928E+03  6.734456E+04 -1.224369E+01
       144   2  3.438255E+05 -1.771609E+04  4.229934E+04  1.238185E+03  4.432693E+04 -1.317103E+01
       144   3  3.589763E+05 -2.181534E+03  2.792958E+04 -2.615952E+03  2.130878E+04 -1.184783E+01
       144   4  3.580057E+05  7.541287E+04  9.865130E+04 -9.885303E+01  6.734399E+04 -1.279119E+01
       144   5  3.429054E+05 -1.794546E+04  4.206987E+04 -3.506017E+01  4.432658E+04 -1.326185E+01
       144   6  3.580181E+05 -2.421888E+03  2.769045E+04 -1.116793E+02  2.130864E+04 -1.176191E+01
       144   7  3.571236E+05  7.519458E+04  9.843138E+04 -5.149627E+03  6.734342E+04 -1.333868E+01
       144   8  3.419852E+05 -1.817482E+04  4.184041E+04 -1.308303E+03  4.432622E+04 -1.335266E+01
       144   9  3.570599E+05 -2.662219E+03  2.745133E+04  2.392589E+03  2.130851E+04 -1.167599E+01
       144  10  3.588830E+05  7.563004E+04  9.886270E+04  4.951929E+03  2.006069E-09 -1.384758E-10
       144  11  3.438234E+05 -1.771662E+04  4.229565E+04  1.238185E+03 -8.652406E-10 -8.604108E-10
       144  12  3.589758E+05 -2.181656E+03  2.792873E+04 -2.615951E+03 -4.526845E-09 -6.807341E-11
       144  13  3.580008E+05  7.541165E+04  9.864278E+04 -9.885234E+01 -4.182331E-09 -3.563600E-10
       144  14  3.429033E+05 -1.794599E+04  4.206618E+04 -3.505970E+01 -6.386529E-09 -8.738866E-10
       144  15  3.580176E+05 -2.422010E+03  2.768960E+04 -1.116791E+02 -6.331954E-10 -4.061709E-10
       144  16  3.571187E+05  7.519336E+04  9.842287E+04 -5.149627E+03  1.242276E-09 -3.658894E-10
       144  17  3.419831E+05 -1.817535E+04  4.183672E+04 -1.308303E+03 -4.183285E-09 -9.949719E-10
       144  18  3.570594E+05 -2.662340E+03  2.745048E+04  2.392589E+03  2.063506E-09 -1.046153E-09
       144  19  3.588879E+05  7.563126E+04  9.887122E+04  4.951928E+03 -6.734456E+04  1.224369E+01
       144  20  3.438255E+05 -1.771609E+04  4.229934E+04  1.238185E+03 -4.432693E+04  1.317103E+01
       144  21  3.589763E+05 -2.181534E+03  2.792958E+04 -2.615952E+03 -2.130878E+04  1.184783E+01
       144  22  3.580057E+05  7.541287E+04  9.865130E+04 -9.885303E+01 -6.734399E+04  1.279119E+01
       144  23  3.429054E+05 -1.794546E+04  4.206987E+04 -3.506017E+01 -4.432658E+04  1.326185E+01
       144  24  3.580181E+05 -2.421888E+03  2.769045E+04 -1.116793E+02 -2.130864E+04  1.176191E+01
       144  25  3.571236E+05  7.519458E+04  9.843138E+04 -5.149627E+03 -6.734342E+04  1.333868E+01
       144  26  3.419852E+05 -1.817482E+04  4.184041E+04 -1.308303E+03 -4.432622E+04  1.335266E+01
       144  27  3.570599E+05 -2.662219E+03  2.745133E+04  2.392589E+03 -2.130851E+04  1.167599E+01
       145   1  3.542904E+05  1.213947E+04  2.340245E+04  6.316938E+02  1.671088E+04 -1.188360E+01
       145   2  3.518588E+05 -2.296700E+03  1.137753E+04  1.513848E+02  1.098276E+04 -1.360682E+01
       145   3  3.543879E+05  1.303487E+02  7.296251E+03 -5.132363E+02  5.254648E+03 -1.608669E+01
       145   4  3.524029E+05  1.166818E+04  2.293139E+04 -1.158315E+02  1.671063E+04 -1.190368E+01
       145   5  3.499238E+05 -2.780045E+03  1.089473E+04 -2.461490E+01  1.098245E+04 -1.360989E+01
       145   6  3.524054E+05 -3.650175E+02  6.801767E+03 -1.177109E+02  5.254283E+03 -1.608330E+01
       145   7  3.505153E+05  1.119689E+04  2.246034E+04 -8.633545E+02  1.671038E+04 -1.192376E+01
       145   8  3.479888E+05 -3.263390E+03  1.041193E+04 -2.006141E+02  1.098214E+04 -1.361296E+01
       145   9  3.504230E+05 -8.603835E+02  6.307282E+03  2.778133E+02  5.253918E+03 -1.607991E+01
       145  10  3.542901E+05  1.213939E+04  2.340192E+04  6.316939E+02 -5.481631E-09  1.073704E-10
       145  11  3.518586E+05 -2.296732E+03  1.137730E+04  1.513849E+02 -4.172984E-09  7.460455E-11
       145  12  3.543878E+05  1.303413E+02  7.296199E+03 -5.132362E+02 -1.195690E-09  5.805361E-10
       145  13  3.524026E+05  1.166810E+04  2.293087E+04 -1.158313E+02 -4.184897E-09 -2.756307E-10
       145  14  3.499236E+05 -2.780077E+03  1.089450E+04 -2.461478E+01 -4.160359E-09  8.464321E-11
       145  15  3.524054E+05 -3.650249E+02  6.801715E+03 -1.177108E+02  8.542634E-09 -2.846116E-11
       145  16  3.505150E+05  1.119682E+04  2.245981E+04 -8.633543E+02 -1.102597E-09 -5.509770E-10
       145  17  3.479886E+05 -3.263423E+03  1.041170E+04 -2.006139E+02  5.471501E-09  1.035318E-10
       145  18  3.504230E+05 -8.603909E+02  6.307231E+03  2.778133E+02  2.774350E-09 -5.494247E-10
       145  19  3.542904E+05  1.213947E+04  2.340245E+04  6.316938E+02 -1.671088E+04  1.188360E+01
       145  20  3.518588E+05 -2.296700E+03  1.137753E+04  1.513848E+02 -1.098276E+04  1.360682E+01
       145  21  3.543879E+05  1.303487E+02  7.296251E+03 -5.132363E+02 -5.254648E+03  1.608669E+01
       145  22  3.524029E+05  1.166818E+04  2.293139E+04 -1.158315E+02 -1.671063E+04  1.190368E+01
       145  23  3.499238E+05 -2.780045E+03  1.089473E+04 -2.461490E+01 -1.098245E+04  1.360989E+01
       145  24  3.524054E+05 -3.650175E+02  6.801767E+03 -1.177109E+02 -5.254283E+03  1.608330E+01
       145  25  3.505153E+05  1.119689E+04  2.246034E+04 -8.633545E+02 -1.671038E+04  1.192376E+01
       145  26  3.479888E+05 -3.263390E+03  1.041193E+04 -2.006141E+02 -1.098214E+04  1.361296E+01
       145  27  3.504230E+05 -8.603835E+02  6.307282E+03  2.778133E+02 -5.253918E+03  1.607991E+01
       146   1  3.546490E+05  2.585690E+03  6.244977E+03 -2.397840E+01  4.142017E+03 -1.751301E+01
       146   2  3.542935E+05  3.760139E+02  3.590800E+03  1.358331E+01  2.712255E+03 -2.016596E+01
       146   3  3.547748E+05  7.687468E+02  2.517697E+03 -1.937710E+02  1.282515E+03 -2.464783E+01
       146   4  3.514885E+05  1.796113E+03  5.456218E+03 -1.303741E+02  4.141816E+03 -1.751370E+01
       146   5  3.510703E+05 -4.292118E+02  2.786560E+03 -8.043941E+00  2.711885E+03 -2.016601E+01
       146   6  3.514890E+05 -5.209091E+01  1.698100E+03 -1.306311E+02  1.281976E+03 -2.464764E+01
       146   7  3.483279E+05  1.006536E+03  4.667459E+03 -2.367692E+02  4.141615E+03 -1.751439E+01
       146   8  3.478472E+05 -1.234438E+03  1.982320E+03 -2.967107E+01  2.711515E+03 -2.016606E+01
       146   9  3.482032E+05 -8.729294E+02  8.785014E+02 -6.749157E+01  1.281437E+03 -2.464745E+01
       146  10  3.546490E+05  2.585685E+03  6.244944E+03 -2.397834E+01  2.164828E-09  1.077602E-10
       146  11  3.542935E+05  3.760119E+02  3.590786E+03  1.358335E+01 -1.310422E-09 -3.590788E-10
       146  12  3.547748E+05  7.687463E+02  2.517694E+03 -1.937710E+02  5.404349E-09  7.476270E-11
       146  13  3.514885E+05  1.796109E+03  5.456186E+03 -1.303740E+02 -1.099575E-10 -1.819779E-10
       146  14  3.510703E+05 -4.292138E+02  2.786547E+03 -8.043897E+00  4.273513E-09  8.854277E-13
       146  15  3.514890E+05 -5.209135E+01  1.698096E+03 -1.306311E+02  8.558509E-10  2.695602E-10
       146  16  3.483279E+05  1.006531E+03  4.667427E+03 -2.367691E+02 -2.231340E-10 -5.016263E-10
       146  17  3.478471E+05 -1.234440E+03  1.982306E+03 -2.967103E+01 -3.382111E-09  4.457797E-10
       146  18  3.482032E+05 -8.729299E+02  8.784984E+02 -6.749154E+01 -1.147623E-09  2.704795E-12
       146  19  3.546490E+05  2.585690E+03  6.244977E+03 -2.397840E+01 -4.142017E+03  1.751301E+01
       146  20  3.542935E+05  3.760139E+02  3.590800E+03  1.358331E+01 -2.712255E+03  2.016596E+01
       146  21  3.547748E+05  7.687468E+02  2.517697E+03 -1.937710E+02 -1.282515E+03  2.464783E+01
       146  22  3.514885E+05  1.796113E+03  5.456218E+03 -1.303741E+02 -4.141816E+03  1.751370E+01
       146  23  3.510703E+05 -4.292118E+02  2.786560E+03 -8.043941E+00 -2.711885E+03  2.016601E+01
       146  24  3.514890E+05 -5.209091E+01  1.698100E+03 -1.306311E+02 -1.281976E+03  2.464764E+01
       146  25  3.483279E+05  1.006536E+03  4.667459E+03 -2.367692E+02 -4.141615E+03  1.751439E+01
       146  26  3.478472E+05 -1.234438E+03  1.982320E+03 -2.967108E+01 -2.711515E+03  2.016606E+01
       146  27  3.482032E+05 -8.729294E+02  8.785014E+02 -6.749157E+01 -1.281437E+03  2.464745E+01
       147   1  3.562168E+05  1.493011E+03  2.562552E+03 -1.371192E+02  1.006177E+03 -2.687881E+01
       147   2  3.562266E+05  1.172136E+03  1.990184E+03  1.961749E+01  6.269470E+02 -3.058957E+01
       147   3  3.563904E+05  1.266775E+03  1.768624E+03 -1.622159E+02  2.477116E+02 -3.709808E+01
       147   4  3.513372E+05  2.739209E+02  1.344797E+03 -1.513367E+02  1.005945E+03 -2.687882E+01
       147   5  3.512603E+05 -6.858997E+01  7.509843E+02  1.793312E+01  6.264493E+02 -3.058954E+01
       147   6  3.513373E+05  4.461075E+00  5.081660E+02 -1.513670E+02  2.469479E+02 -3.709803E+01
       147   7  3.464576E+05 -9.451714E+02  1.270399E+02 -1.655542E+02  1.005713E+03 -2.687883E+01
       147   8  3.462939E+05 -1.309318E+03 -4.882171E+02  1.624875E+01  6.259516E+02 -3.058951E+01
       147   9  3.462842E+05 -1.257855E+03 -7.522941E+02 -1.405183E+02  2.461842E+02 -3.709798E+01
       147  10  3.562168E+05  1.493011E+03  2.562550E+03 -1.371191E+02  6.456423E-09  3.964246E-10
       147  11  3.562266E+05  1.172136E+03  1.990183E+03  1.961751E+01 -8.725262E-09 -8.302198E-11
       147  12  3.563904E+05  1.266775E+03  1.768624E+03 -1.622159E+02 -7.064277E-10  4.362263E-10
       147  13  3.513372E+05  2.739206E+02  1.344795E+03 -1.513367E+02  8.418474E-12  1.993069E-11
       147  14  3.512603E+05 -6.859008E+01  7.509836E+02  1.793313E+01 -9.356517E-11  5.641147E-11
       147  15  3.513373E+05  4.461057E+00  5.081659E+02 -1.513670E+02  2.322942E-09  1.899310E-10
       147  16  3.464576E+05 -9.451717E+02  1.270380E+02 -1.655542E+02 -3.184057E-09 -2.507154E-10
       147  17  3.462939E+05 -1.309318E+03 -4.882179E+02  1.624877E+01 -3.842393E-14  5.696325E-11
       147  18  3.462842E+05 -1.257855E+03 -7.522942E+02 -1.405183E+02 -3.373058E-09  4.479810E-10
       147  19  3.562168E+05  1.493011E+03  2.562552E+03 -1.371192E+02 -1.006177E+03  2.687881E+01
       147  20  3.562266E+05  1.172136E+03  1.990184E+03  1.961749E+01 -6.269470E+02  3.058957E+01
       147  21  3.563904E+05  1.266775E+03  1.768624E+03 -1.622159E+02 -2.477116E+02  3.709808E+01
       147  22  3.513372E+05  2.739209E+02  1.344797E+03 -1.513367E+02 -1.005945E+03  2.687882E+01
       147  23  3.512603E+05 -6.858997E+01  7.509843E+02  1.793312E+01 -6.264493E+02  3.058954E+01
       147  24  3.513373E+05  4.461075E+00  5.081660E+02 -1.513670E+02 -2.469479E+02  3.709803E+01
       147  25  3.464576E+05 -9.451714E+02  1.270399E+02 -1.655542E+02 -1.005713E+03  2.687883E+01
       147  26  3.462939E+05 -1.309318E+03 -4.882171E+02  1.624875E+01 -6.259516E+02  3.058951E+01
       147  27  3.462842E+05 -1.257855E+03 -7.522941E+02 -1.405183E+02 -2.461842E+02  3.709798E+01
       148   1  3.586066E+05  1.859825E+03  2.260955E+03 -1.786151E+02  1.610878E+02 -4.037043E+01
       148   2  3.586940E+05  1.822104E+03  2.230058E+03  5.632263E+01 -3.041640E+01 -4.563631E+01
       148   3  3.588522E+05  1.961429E+03  2.368372E+03 -1.886889E+02 -2.219205E+02 -5.455143E+01
       148   4  3.513188E+05  3.909457E+01  4.422429E+02 -1.827742E+02  1.607548E+02 -4.037044E+01
       148   5  3.512834E+05 -2.925158E+01  3.809845E+02  5.720019E+01 -3.109798E+01 -4.563631E+01
       148   6  3.513188E+05  7.950938E+01  4.891812E+02 -1.827750E+02 -2.229505E+02 -5.455145E+01
       148   7  3.440310E+05 -1.781639E+03 -1.376473E+03 -1.869332E+02  1.604217E+02 -4.037044E+01
       148   8  3.438728E+05 -1.880611E+03 -1.468093E+03  5.807775E+01 -3.177955E+01 -4.563631E+01
       148   9  3.437855E+05 -1.802414E+03 -1.390014E+03 -1.768612E+02 -2.239805E+02 -5.455147E+01
       148  10  3.586066E+05  1.859825E+03  2.260955E+03 -1.786151E+02  2.138168E-11  4.536064E-10
       148  11  3.586940E+05  1.822104E+03  2.230058E+03  5.632263E+01 -3.131868E-09 -5.623742E-10
       148  12  3.588522E+05  1.961429E+03  2.368372E+03 -1.886889E+02 -5.369408E-09 -6.475985E-10
       148  13  3.513188E+05  3.909456E+01  4.422429E+02 -1.827741E+02  8.879266E-09  3.146972E-10
       148  14  3.512834E+05 -2.925159E+01  3.809845E+02  5.720019E+01  2.391443E-09 -1.582844E-10
       148  15  3.513188E+05  7.950936E+01  4.891811E+02 -1.827750E+02  6.006478E-10 -9.036645E-10
       148  16  3.440310E+05 -1.781640E+03 -1.376474E+03 -1.869332E+02 -2.151600E-09  1.208832E-10
       148  17  3.438728E+05 -1.880611E+03 -1.468093E+03  5.807774E+01  9.665088E-09 -4.236854E-11
       148  18  3.437855E+05 -1.802414E+03 -1.390014E+03 -1.768612E+02  8.626796E-10 -9.257967E-10
       148  19  3.586066E+05  1.859825E+03  2.260955E+03 -1.786151E+02 -1.610878E+02  4.037043E+01
       148  20  3.586940E+05  1.822104E+03  2.230058E+03  5.632263E+01  3.041640E+01  4.563631E+01
       148  21  3.588522E+05  1.961429E+03  2.368372E+03 -1.886889E+02  2.219205E+02  5.455143E+01
       148  22  3.513188E+05  3.909457E+01  4.422429E+02 -1.827742E+02 -1.607548E+02  4.037044E+01
       148  23  3.512834E+05 -2.925158E+01  3.809845E+02  5.720019E+01  3.109798E+01  4.563631E+01
       148  24  3.513188E+05  7.950938E+01  4.891812E+02 -1.827750E+02  2.229505E+02  5.455145E+01
       148  25  3.440310E+05 -1.781639E+03 -1.376473E+03 -1.869332E+02 -1.604217E+02  4.037044E+01
       148  26  3.438728E+05 -1.880611E+03 -1.468093E+03  5.807775E+01  3.177955E+01  4.563631E+01
       148  27  3.437855E+05 -1.802414E+03 -1.390014E+03 -1.768612E+02  2.239805E+02  5.455147E+01
       149   1  3.620844E+05  2.669724E+03  3.247890E+03 -2.107698E+02 -3.185246E+02 -5.974182E+01
       149   2  3.621333E+05  2.595719E+03  3.579384E+03  1.090065E+02 -7.588199E+02 -6.767924E+01
       149   3  3.624364E+05  3.295100E+03  4.391492E+03 -2.603719E+02 -1.199108E+03 -7.774790E+01
       149   4  3.513596E+05 -9.680404E+00  5.714732E+02 -2.292567E+02 -3.191810E+02 -5.974187E+01
       149   5  3.512323E+05 -1.275912E+02  8.594569E+02  1.153048E+02 -7.596742E+02 -6.767935E+01
       149   6  3.513594E+05  5.279266E+02  1.628199E+03 -2.292893E+02 -1.200160E+03 -7.774812E+01
       149   7  3.406348E+05 -2.689093E+03 -2.104952E+03 -2.477434E+02 -3.198374E+02 -5.974192E+01
       149   8  3.403315E+05 -2.850910E+03 -1.860479E+03  1.216031E+02 -7.605285E+02 -6.767945E+01
       149   9  3.402826E+05 -2.239256E+03 -1.135103E+03 -1.982073E+02 -1.201212E+03 -7.774833E+01
       149  10  3.620844E+05  2.669724E+03  3.247890E+03 -2.107698E+02 -2.195005E-09 -6.163279E-10
       149  11  3.621333E+05  2.595719E+03  3.579382E+03  1.090064E+02  7.153905E-09  2.684336E-10
       149  12  3.624364E+05  3.295100E+03  4.391489E+03 -2.603719E+02  4.030874E-09  5.509416E-10
       149  13  3.513596E+05 -9.680436E+00  5.714730E+02 -2.292568E+02  2.524426E-11 -7.218689E-10
       149  14  3.512323E+05 -1.275914E+02  8.594558E+02  1.153048E+02 -1.192350E-10  9.853709E-11
       149  15  3.513594E+05  5.279262E+02  1.628196E+03 -2.292894E+02  9.883752E-10  3.626763E-10
       149  16  3.406348E+05 -2.689093E+03 -2.104952E+03 -2.477434E+02 -2.173223E-09 -8.698041E-10
       149  17  3.403315E+05 -2.850911E+03 -1.860480E+03  1.216030E+02 -5.390920E-09 -2.112713E-10
       149  18  3.402826E+05 -2.239257E+03 -1.135106E+03 -1.982074E+02 -5.327634E-09  4.321645E-10
       149  19  3.620844E+05  2.669724E+03  3.247890E+03 -2.107698E+02  3.185246E+02  5.974182E+01
       149  20  3.621333E+05  2.595719E+03  3.579384E+03  1.090065E+02  7.588199E+02  6.767924E+01
       149  21  3.624364E+05  3.295100E+03  4.391492E+03 -2.603719E+02  1.199108E+03  7.774790E+01
       149  22  3.513596E+05 -9.680405E+00  5.714732E+02 -2.292567E+02  3.191810E+02  5.974187E+01
       149  23  3.512323E+05 -1.275912E+02  8.594569E+02  1.153048E+02  7.596742E+02  6.767935E+01
       149  24  3.513594E+05  5.279266E+02  1.628199E+03 -2.292893E+02  1.200160E+03  7.774812E+01
       149  25  3.406348E+05 -2.689093E+03 -2.104952E+03 -2.477434E+02  3.198374E+02  5.974192E+01
       149  26  3.403315E+05 -2.850910E+03 -1.860479E+03  1.216031E+02  7.605285E+02  6.767945E+01
       149  27  3.402826E+05 -2.239256E+03 -1.135103E+03 -1.982073E+02  1.201212E+03  7.774833E+01
       150   1  3.673042E+05  3.809617E+03  5.930422E+03 -1.800370E+02 -1.529103E+03 -8.829950E+01
       150   2  3.668247E+05  3.161632E+03  7.188621E+03  1.501915E+02 -3.220487E+03 -1.025072E+02
       150   3  3.678138E+05  7.475226E+03  1.078952E+04 -5.155599E+02 -4.911900E+03 -1.001662E+02
       150   4  3.516293E+05 -1.064629E+02  2.018774E+03 -2.972497E+02 -1.531221E+03 -8.829953E+01
       150   5  3.508948E+05 -8.179718E+02  3.214114E+03  2.004155E+02 -3.220978E+03 -1.025077E+02
       150   6  3.516285E+05  3.431884E+03  6.751063E+03 -2.978981E+02 -4.910763E+03 -1.001678E+02
       150   7  3.359546E+05 -4.022561E+03 -1.892892E+03 -4.144595E+02 -1.533340E+03 -8.829957E+01
       150   8  3.349651E+05 -4.797594E+03 -7.604133E+02  2.506383E+02 -3.221469E+03 -1.025082E+02
       150   9  3.354436E+05 -6.114781E+02  2.712588E+03 -8.024194E+01 -4.909626E+03 -1.001695E+02
       150  10  3.673042E+05  3.809616E+03  5.930417E+03 -1.800371E+02  3.227308E-09  2.306156E-10
       150  11  3.668247E+05  3.161629E+03  7.188602E+03  1.501912E+02 -5.238126E-09 -3.869834E-10
       150  12  3.678137E+05  7.475220E+03  1.078947E+04 -5.155603E+02  4.709429E-09 -1.796135E-10
       150  13  3.516293E+05 -1.064635E+02  2.018770E+03 -2.972498E+02 -1.689763E-11  3.105406E-10
       150  14  3.508948E+05 -8.179745E+02  3.214094E+03  2.004152E+02  3.684255E-11 -9.433609E-11
       150  15  3.516285E+05  3.431877E+03  6.751018E+03 -2.978985E+02  5.381749E-09 -8.393630E-10
       150  16  3.359546E+05 -4.022562E+03 -1.892897E+03 -4.144596E+02 -6.350421E-09  4.031197E-10
       150  17  3.349651E+05 -4.797597E+03 -7.604328E+02  2.506380E+02  3.367207E-09  3.814071E-10
       150  18  3.354435E+05 -6.114846E+02  2.712542E+03 -8.024234E+01  1.520065E-09 -1.095450E-09
       150  19  3.673042E+05  3.809617E+03  5.930422E+03 -1.800370E+02  1.529103E+03  8.829950E+01
       150  20  3.668247E+05  3.161632E+03  7.188621E+03  1.501915E+02  3.220487E+03  1.025072E+02
       150  21  3.678138E+05  7.475226E+03  1.078952E+04 -5.155599E+02  4.911900E+03  1.001662E+02
       150  22  3.516293E+05 -1.064629E+02  2.018774E+03 -2.972497E+02  1.531221E+03  8.829953E+01
       150  23  3.508948E+05 -8.179718E+02  3.214114E+03  2.004155E+02  3.220978E+03  1.025077E+02
       150  24  3.516285E+05  3.431884E+03  6.751063E+03 -2.978981E+02  4.910763E+03  1.001678E+02
       150  25  3.359546E+05 -4.022561E+03 -1.892892E+03 -4.144595E+02  1.533340E+03  8.829957E+01
       150  26  3.349651E+05 -4.797594E+03 -7.604133E+02  2.506382E+02  3.221469E+03  1.025082E+02
       150  27  3.354436E+05 -6.114781E+02  2.712588E+03 -8.024194E+01  4.909626E+03  1.001695E+02
       151   1  3.761184E+05  4.993331E+03  1.384847E+04  3.440903E+02 -6.254104E+03 -1.341306E+02
       151   2  3.720337E+05  5.176165E+02  1.816376E+04 -4.368042E+01 -1.303985E+04 -1.719472E+02
       151   3  3.768565E+05  2.807424E+04  3.490662E+04 -1.883823E+03 -1.982563E+04 -6.617081E+01
       151   4  3.532822E+05 -7.121674E+02  8.149960E+03 -3.962420E+02 -6.264327E+03 -1.341257E+02
       151   5  3.488275E+05 -5.279238E+03  1.237513E+04  3.257858E+02 -1.303606E+04 -1.719543E+02
       151   6  3.532783E+05  2.218422E+04  2.901848E+04 -4.045548E+02 -1.980783E+04 -6.621182E+01
       151   7  3.304465E+05 -6.417703E+03  2.451408E+03 -1.136547E+03 -6.274549E+03 -1.341209E+02
       151   8  3.256219E+05 -1.107613E+04  6.586462E+03  6.952382E+02 -1.303227E+04 -1.719615E+02
       151   9  3.297006E+05  1.629418E+04  2.313030E+04  1.074658E+03 -1.979003E+04 -6.625274E+01
       151  10  3.761184E+05  4.993321E+03  1.384840E+04  3.440896E+02  5.354868E-09 -4.763855E-10
       151  11  3.720335E+05  5.175708E+02  1.816344E+04 -4.368223E+01 -1.306114E-09 -1.125065E-09
       151  12  3.768561E+05  2.807413E+04  3.490588E+04 -1.883824E+03  3.058552E-09 -3.539690E-10
       151  13  3.532822E+05 -7.121780E+02  8.149886E+03 -3.962427E+02  3.940653E-09 -1.537584E-09
       151  14  3.488274E+05 -5.279284E+03  1.237481E+04  3.257840E+02 -1.697936E-09  5.225297E-10
       151  15  3.532779E+05  2.218412E+04  2.901774E+04 -4.045558E+02 -1.125299E-09  2.721888E-11
       151  16  3.304464E+05 -6.417714E+03  2.451334E+03 -1.136548E+03 -2.003897E-09 -1.147315E-09
       151  17  3.256217E+05 -1.107618E+04  6.586143E+03  6.952364E+02  3.499773E-09  8.457402E-10
       151  18  3.297002E+05  1.629407E+04  2.312956E+04  1.074657E+03 -5.845886E-10 -1.425847E-10
       151  19  3.761184E+05  4.993331E+03  1.384847E+04  3.440903E+02  6.254104E+03  1.341306E+02
       151  20  3.720337E+05  5.176165E+02  1.816376E+04 -4.368042E+01  1.303985E+04  1.719472E+02
       151  21  3.768565E+05  2.807424E+04  3.490662E+04 -1.883823E+03  1.982563E+04  6.617081E+01
       151  22  3.532822E+05 -7.121674E+02  8.149960E+03 -3.962420E+02  6.264327E+03  1.341257E+02
       151  23  3.488275E+05 -5.279238E+03  1.237513E+04  3.257858E+02  1.303606E+04  1.719543E+02
       151  24  3.532783E+05  2.218422E+04  2.901848E+04 -4.045548E+02  1.980783E+04  6.621182E+01
       151  25  3.304465E+05 -6.417703E+03  2.451408E+03 -1.136547E+03  6.274549E+03  1.341209E+02
       151  26  3.256219E+05 -1.107613E+04  6.586462E+03  6.952382E+02  1.303227E+04  1.719615E+02
       151  27  3.297006E+05  1.629418E+04  2.313030E+04  1.074658E+03  1.979003E+04  6.625274E+01
       152   1  1.396179E+06  5.441148E+06  1.394349E+06 -3.319428E+05  1.503603E+04 -3.198908E+04
       152   2  1.257494E+06  4.789781E+06  1.258793E+06  6.266388E+04  3.980692E+04 -3.658052E+04
       152   3  1.312350E+06  4.965347E+06  1.329578E+06 -4.536376E+05  2.304943E+04 -4.200214E+04
       152   4  4.601222E+04  2.233598E+04  4.502563E+04 -3.118763E+05  1.506646E+04 -3.617362E+04
       152   5 -3.653556E+04 -3.933931E+05 -3.154222E+04  1.450334E+05  3.983066E+04 -3.674024E+04
       152   6  7.143193E+04  1.348355E+04  9.534635E+04 -3.094313E+05  2.291362E+04 -3.814207E+04
       152   7 -1.306358E+06 -5.369997E+06 -1.306502E+06 -2.919425E+05  1.509678E+04 -4.032077E+04
       152   8 -1.332572E+06 -5.552307E+06 -1.323895E+06  2.268445E+05  3.985448E+04 -3.689758E+04
       152   9 -1.171296E+06 -4.916242E+06 -1.140729E+06 -1.661554E+05  2.277903E+04 -3.431163E+04
       152  10  1.396178E+06  5.441147E+06  1.394347E+06 -3.319424E+05  8.617995E-09  2.137607E-09
       152  11  1.257492E+06  4.789779E+06  1.258788E+06  6.266505E+04  8.723528E-09 -2.613466E-09
       152  12  1.312349E+06  4.965345E+06  1.329573E+06 -4.536369E+05  7.204945E-09 -2.111970E-08
       152  13  4.601162E+04  2.233451E+04  4.502275E+04 -3.118759E+05  7.829093E-10  1.167615E-11
       152  14 -3.653763E+04 -3.933950E+05 -3.154774E+04  1.450346E+05 -1.929980E-08 -4.618860E-10
       152  15  7.143098E+04  1.348184E+04  9.534263E+04 -3.094306E+05  2.688007E-09  4.976592E-09
       152  16 -1.306359E+06 -5.369998E+06 -1.306505E+06 -2.919420E+05  2.929933E-11  4.814221E-10
       152  17 -1.332575E+06 -5.552309E+06 -1.323900E+06  2.268457E+05 -2.919134E-09 -8.810729E-09
       152  18 -1.171297E+06 -4.916244E+06 -1.140732E+06 -1.661547E+05  6.135106E-10  7.712653E-09
       152  19  1.396179E+06  5.441148E+06  1.394349E+06 -3.319428E+05 -1.503603E+04  3.198908E+04
       152  20  1.257494E+06  4.789781E+06  1.258793E+06  6.266388E+04 -3.980692E+04  3.658052E+04
       152  21  1.312350E+06  4.965347E+06  1.329578E+06 -4.536376E+05 -2.304943E+04  4.200214E+04
       152  22  4.601222E+04  2.233598E+04  4.502563E+04 -3.118763E+05 -1.506646E+04  3.617362E+04
       152  23 -3.653556E+04 -3.933931E+05 -3.154222E+04  1.450334E+05 -3.983066E+04  3.674024E+04
       152  24  7.143193E+04  1.348355E+04  9.534635E+04 -3.094313E+05 -2.291362E+04  3.814207E+04
       152  25 -1.306358E+06 -5.369997E+06 -1.306502E+06 -2.919425E+05 -1.509678E+04  4.032077E+04
       152  26 -1.332572E+06 -5.552307E+06 -1.323895E+06  2.268445E+05 -3.985448E+04  3.689758E+04
       152  27 -1.171296E+06 -4.916242E+06 -1.140729E+06 -1.661554E+05 -2.277903E+04  3.431163E+04
       153   1 -2.904699E+04 -2.493541E+05  3.849913E+04 -3.121313E+05  8.511452E+03 -5.877216E+04
       153   2 -1.021633E+05 -4.605054E+05  3.681570E+04  1.579620E+05  2.742693E+03 -1.172960E+05
       153   3 -3.107846E+04 -7.191962E+05  9.084442E+04 -2.891506E+05 -2.388820E+03 -1.757567E+05
       153   4 -9.376570E+03 -1.713771E+05  5.839220E+04 -3.142799E+05  8.477327E+03 -5.796876E+04
       153   5 -2.316568E+04 -1.471853E+05  1.151744E+05  1.466685E+05  2.713816E+03 -1.165827E+05
       153   6  1.072355E+05 -1.706034E+05  2.276983E+05 -3.095568E+05 -2.411522E+03 -1.751554E+05
       153   7  1.029339E+04 -9.339463E+04  7.828480E+04 -3.164287E+05  8.443198E+03 -5.716525E+04
       153   8  5.582476E+04  1.662240E+05  1.935256E+05  1.353701E+05  2.684919E+03 -1.158690E+05
       153   9  2.455275E+05  3.782629E+05  3.645294E+05 -3.299782E+05 -2.434256E+03 -1.745536E+05
       153  10 -2.904799E+04 -2.493579E+05  3.849250E+04 -3.121309E+05 -9.536315E-09 -1.657831E-08
       153  11 -1.021670E+05 -4.605202E+05  3.678981E+04  1.579623E+05  1.345325E-08  4.515982E-09
       153  12 -3.108677E+04 -7.192294E+05  9.078630E+04 -2.891509E+05 -2.302847E-08 -2.217996E-08
       153  13 -9.377549E+03 -1.713808E+05  5.838575E+04 -3.142795E+05 -2.595382E-09 -2.623060E-11
       153  14 -2.316934E+04 -1.471999E+05  1.151488E+05  1.466687E+05  2.556368E-08  4.637345E-10
       153  15  1.072272E+05 -1.706363E+05  2.276406E+05 -3.095571E+05  2.567430E-08  5.756356E-09
       153  16  1.029244E+04 -9.339816E+04  7.827853E+04 -3.164283E+05 -5.123491E-10  3.899477E-08
       153  17  5.582115E+04  1.662096E+05  1.935004E+05  1.353704E+05 -2.291226E-08 -2.755628E-08
       153  18  2.455193E+05  3.782302E+05  3.644722E+05 -3.299785E+05 -1.092070E-08  7.450864E-09
       153  19 -2.904699E+04 -2.493541E+05  3.849913E+04 -3.121313E+05 -8.511452E+03  5.877216E+04
       153  20 -1.021633E+05 -4.605054E+05  3.681570E+04  1.579620E+05 -2.742693E+03  1.172960E+05
       153  21 -3.107846E+04 -7.191962E+05  9.084442E+04 -2.891506E+05  2.388820E+03  1.757567E+05
       153  22 -9.376570E+03 -1.713771E+05  5.839220E+04 -3.142799E+05 -8.477327E+03  5.796876E+04
       153  23 -2.316568E+04 -1.471853E+05  1.151744E+05  1.466685E+05 -2.713816E+03  1.165827E+05
       153  24  1.072355E+05 -1.706034E+05  2.276983E+05 -3.095568E+05  2.411522E+03  1.751554E+05
       153  25  1.029339E+04 -9.339463E+04  7.828480E+04 -3.164287E+05 -8.443198E+03  5.716525E+04
       153  26  5.582476E+04  1.662240E+05  1.935256E+05  1.353701E+05 -2.684919E+03  1.158690E+05
       153  27  2.455275E+05  3.782629E+05  3.645294E+05 -3.299782E+05  2.434256E+03  1.745536E+05
       154   1 -1.350465E+06 -5.381136E+06 -1.037941E+06 -1.922642E+05 -1.693671E+04 -2.369697E+05
       154   2 -1.669333E+06 -6.280600E+06 -1.063966E+06  2.305036E+05 -3.567839E+04 -4.600015E+05
       154   3 -6.512801E+05 -5.837398E+06 -4.117074E+05 -2.738720E+05 -1.731743E+04 -6.826908E+05
       154   4  3.533112E+04  1.281017E+05  3.428727E+05 -3.149141E+05 -1.702915E+04 -2.341475E+05
       154   5 -2.266546E+05 -5.396492E+05  3.746306E+05  1.471342E+05 -3.560126E+04 -4.625667E+05
       154   6  8.469197E+05  1.382266E+05  1.085685E+06 -3.175526E+05 -1.726415E+04 -6.907318E+05
       154   7  1.418849E+06  5.664997E+06  1.721386E+06 -4.384125E+05 -1.712257E+04 -2.312924E+05
       154   8  1.213534E+06  5.231370E+06  1.810729E+06  6.310691E+04 -3.552416E+04 -4.651397E+05
       154   9  2.342421E+06  6.146414E+06  2.580375E+06 -3.616607E+05 -1.721018E+04 -6.988246E+05
       154  10 -1.350481E+06 -5.381197E+06 -1.038048E+06 -1.922674E+05 -7.534308E-09 -2.296243E-08
       154  11 -1.669392E+06 -6.280830E+06 -1.064370E+06  2.304903E+05  5.329892E-09  1.066154E-08
       154  12 -6.514070E+05 -5.837902E+06 -4.125919E+05 -2.738816E+05  8.097433E-09  4.270219E-09
       154  13  3.531609E+04  1.280428E+05  3.427692E+05 -3.149174E+05 -2.727601E-08 -8.399489E-10
       154  14 -2.267135E+05 -5.398794E+05  3.742258E+05  1.471210E+05  8.315750E-09  1.262496E-10
       154  15  8.467913E+05  1.377147E+05  1.084788E+06 -3.175622E+05  5.887029E-10 -2.524362E-10
       154  16  1.418834E+06  5.664940E+06  1.721286E+06 -4.384157E+05  9.568767E-09  4.143991E-08
       154  17  1.213475E+06  5.231139E+06  1.810324E+06  6.309367E+04 -1.588701E-09 -2.003441E-08
       154  18  2.342291E+06  6.145894E+06  2.579465E+06 -3.616704E+05 -3.495960E-09 -3.683878E-09
       154  19 -1.350465E+06 -5.381136E+06 -1.037941E+06 -1.922642E+05  1.693671E+04  2.369697E+05
       154  20 -1.669333E+06 -6.280600E+06 -1.063966E+06  2.305036E+05  3.567839E+04  4.600015E+05
       154  21 -6.512801E+05 -5.837398E+06 -4.117074E+05 -2.738720E+05  1.731743E+04  6.826908E+05
       154  22  3.533112E+04  1.281017E+05  3.428727E+05 -3.149141E+05  1.702915E+04  2.341475E+05
       154  23 -2.266546E+05 -5.396492E+05  3.746306E+05  1.471342E+05  3.560126E+04  4.625667E+05
       154  24  8.469197E+05  1.382266E+05  1.085685E+06 -3.175526E+05  1.726415E+04  6.907318E+05
       154  25  1.418849E+06  5.664997E+06  1.721386E+06 -4.384125E+05  1.712257E+04  2.312924E+05
       154  26  1.213534E+06  5.231370E+06  1.810729E+06  6.310691E+04  3.552416E+04  4.651397E+05
       154  27  2.342421E+06  6.146414E+06  2.580375E+06 -3.616607E+05  1.721018E+04  6.988246E+05
       155   1 -3.825214E+05 -1.620956E+05 -7.412853E+04 -1.856346E+05 -4.532559E+04 -1.746043E+04
       155   2 -3.658940E+05 -9.148209E+04 -3.074892E+04 -1.753569E+05 -2.650889E+04 -1.215315E+04
       155   3 -3.613697E+05 -5.951937E+04 -1.053107E+04 -1.604347E+05 -7.640258E+03 -6.982058E+03
       155   4 -4.118320E+05 -1.346115E+05 -7.396934E+04 -1.540329E+05 -4.787896E+04 -1.842091E+04
       155   5 -4.018016E+05 -8.686275E+04 -3.457720E+04 -1.670136E+05 -2.930459E+04 -1.320189E+04
       155   6 -4.038269E+05 -7.771993E+04 -1.815551E+04 -1.753506E+05 -1.067816E+04 -8.120569E+03
       155   7 -4.411377E+05 -1.071215E+05 -7.380914E+04 -1.224329E+05 -5.043214E+04 -1.938172E+04
       155   8 -4.377069E+05 -8.224256E+04 -3.840522E+04 -1.586710E+05 -3.210009E+04 -1.425076E+04
       155   9 -4.462824E+05 -9.592020E+04 -2.578005E+04 -1.902655E+05 -1.371587E+04 -9.258968E+03
       155  10 -3.825237E+05 -1.620965E+05 -7.413297E+04 -1.856352E+05 -2.357477E-09 -3.432938E-10
       155  11 -3.658948E+05 -9.148244E+04 -3.075052E+04 -1.753571E+05 -1.376637E-08 -5.322616E-09
       155  12 -3.613698E+05 -5.951944E+04 -1.053127E+04 -1.604347E+05 -2.180712E-08 -7.693641E-09
       155  13 -4.118345E+05 -1.346125E+05 -7.397429E+04 -1.540336E+05  4.323646E-09 -9.467597E-10
       155  14 -4.018026E+05 -8.686317E+04 -3.457915E+04 -1.670139E+05  5.342707E-09 -4.125848E-09
       155  15 -4.038271E+05 -7.772003E+04 -1.815585E+04 -1.753507E+05 -1.639685E-08 -9.756476E-09
       155  16 -4.411405E+05 -1.071226E+05 -7.381463E+04 -1.224336E+05  3.635479E-09  1.362747E-09
       155  17 -4.377081E+05 -8.224305E+04 -3.840754E+04 -1.586713E+05  1.033412E-08  6.289547E-09
       155  18 -4.462827E+05 -9.592035E+04 -2.578057E+04 -1.902656E+05  1.044481E-08  5.106807E-09
       155  19 -3.825214E+05 -1.620956E+05 -7.412853E+04 -1.856346E+05  4.532559E+04  1.746043E+04
       155  20 -3.658940E+05 -9.148209E+04 -3.074892E+04 -1.753569E+05  2.650889E+04  1.215315E+04
       155  21 -3.613697E+05 -5.951937E+04 -1.053107E+04 -1.604347E+05  7.640258E+03  6.982058E+03
       155  22 -4.118320E+05 -1.346115E+05 -7.396934E+04 -1.540329E+05  4.787896E+04  1.842091E+04
       155  23 -4.018016E+05 -8.686275E+04 -3.457720E+04 -1.670136E+05  2.930459E+04  1.320189E+04
       155  24 -4.038269E+05 -7.771993E+04 -1.815551E+04 -1.753506E+05  1.067816E+04  8.120569E+03
       155  25 -4.411377E+05 -1.071215E+05 -7.380914E+04 -1.224329E+05  5.043214E+04  1.938172E+04
       155  26 -4.377069E+05 -8.224256E+04 -3.840522E+04 -1.586710E+05  3.210009E+04  1.425076E+04
       155  27 -4.462824E+05 -9.592020E+04 -2.578005E+04 -1.902655E+05  1.371587E+04  9.258968E+03
       156   1 -3.422056E+05 -5.777261E+04 -3.477598E+03 -1.590523E+05 -5.226733E+03 -7.231662E+03
       156   2 -3.221416E+05 -4.523510E+04  6.713004E+03 -1.510581E+05 -9.451956E+02 -7.601361E+03
       156   3 -2.998429E+05 -3.814668E+04  1.366984E+04 -1.466577E+05  3.340951E+03 -7.982711E+03
       156   4 -4.017201E+05 -7.795372E+04 -1.364651E+04 -1.743322E+05 -8.248503E+03 -8.364238E+03
       156   5 -4.026387E+05 -7.380549E+04 -7.169494E+03 -1.730694E+05 -3.987911E+03 -8.741875E+03
       156   6 -4.013189E+05 -7.510231E+04 -3.909755E+03 -1.754007E+05  2.772064E+02 -9.131218E+03
       156   7 -4.612303E+05 -9.813436E+04 -2.381531E+04 -1.896106E+05 -1.126993E+04 -9.496703E+03
       156   8 -4.831290E+05 -1.023753E+05 -2.105214E+04 -1.950782E+05 -7.030206E+03 -9.882237E+03
       156   9 -5.027850E+05 -1.120573E+05 -2.148990E+04 -2.041396E+05 -2.786036E+03 -1.027953E+04
       156  10 -3.422056E+05 -5.777268E+04 -3.477748E+03 -1.590524E+05  7.125179E-08  3.106658E-08
       156  11 -3.221416E+05 -4.523516E+04  6.712894E+03 -1.510581E+05  9.253908E-09  1.173800E-08
       156  12 -2.998429E+05 -3.814676E+04  1.366970E+04 -1.466577E+05 -4.591404E-08 -1.594532E-08
       156  13 -4.017202E+05 -7.795381E+04 -1.364677E+04 -1.743323E+05 -1.186623E-09 -8.964355E-09
       156  14 -4.026388E+05 -7.380557E+04 -7.169668E+03 -1.730695E+05  1.346989E-09 -5.769831E-10
       156  15 -4.013189E+05 -7.510240E+04 -3.909911E+03 -1.754007E+05  1.142923E-09  2.219969E-09
       156  16 -4.612304E+05 -9.813449E+04 -2.381572E+04 -1.896107E+05 -8.447005E-08 -3.148362E-08
       156  17 -4.831290E+05 -1.023754E+05 -2.105242E+04 -1.950782E+05 -1.369099E-08 -3.848248E-09
       156  18 -5.027850E+05 -1.120574E+05 -2.149011E+04 -2.041396E+05  4.771316E-08  2.236391E-08
       156  19 -3.422056E+05 -5.777261E+04 -3.477598E+03 -1.590523E+05  5.226733E+03  7.231662E+03
       156  20 -3.221416E+05 -4.523510E+04  6.713004E+03 -1.510581E+05  9.451956E+02  7.601361E+03
       156  21 -2.998429E+05 -3.814668E+04  1.366984E+04 -1.466577E+05 -3.340951E+03  7.982711E+03
       156  22 -4.017201E+05 -7.795372E+04 -1.364651E+04 -1.743322E+05  8.248503E+03  8.364238E+03
       156  23 -4.026387E+05 -7.380549E+04 -7.169494E+03 -1.730694E+05  3.987911E+03  8.741875E+03
       156  24 -4.013189E+05 -7.510231E+04 -3.909755E+03 -1.754007E+05 -2.772064E+02  9.131218E+03
       156  25 -4.612303E+05 -9.813436E+04 -2.381531E+04 -1.896106E+05  1.126993E+04  9.496703E+03
       156  26 -4.831290E+05 -1.023753E+05 -2.105214E+04 -1.950782E+05  7.030206E+03  9.882237E+03
       156  27 -5.027850E+05 -1.120573E+05 -2.148990E+04 -2.041396E+05  2.786036E+03  1.027953E+04
       157   1 -2.855058E+05 -3.332754E+04  1.717852E+04 -1.429143E+05  4.259989E+03 -8.799153E+03
       157   2 -2.655608E+05 -2.376912E+04  2.219513E+04 -1.349501E+05  5.714636E+03 -1.024699E+04
       157   3 -2.423196E+05 -1.776496E+04  2.658990E+04 -1.309370E+05  7.169527E+03 -1.169493E+04
       157   4 -4.011476E+05 -7.512959E+04 -2.932850E+03 -1.753128E+05  1.198577E+03 -9.946876E+03
       157   5 -4.027916E+05 -7.331594E+04 -1.601173E+03 -1.733513E+05  2.652804E+03 -1.139505E+04
       157   6 -4.011397E+05 -7.505657E+04 -8.910093E+02 -1.753412E+05  4.107243E+03 -1.284334E+04
       157   7 -5.167751E+05 -1.169303E+05 -2.304457E+04 -2.077056E+05 -1.862228E+03 -1.109437E+04
       157   8 -5.400017E+05 -1.228606E+05 -2.539778E+04 -2.117443E+05 -4.082906E+02 -1.254284E+04
       157   9 -5.599314E+05 -1.323451E+05 -2.837216E+04 -2.197342E+05  1.045823E+03 -1.399143E+04
       157  10 -2.855059E+05 -3.332763E+04  1.717834E+04 -1.429142E+05  6.379371E-10  2.759444E-09
       157  11 -2.655609E+05 -2.376924E+04  2.219487E+04 -1.349500E+05 -4.845221E-09  4.174818E-09
       157  12 -2.423197E+05 -1.776512E+04  2.658955E+04 -1.309370E+05  3.063775E-09  3.538269E-10
       157  13 -4.011476E+05 -7.512970E+04 -2.933039E+03 -1.753128E+05 -8.865352E-09  2.956070E-09
       157  14 -4.027917E+05 -7.331608E+04 -1.601430E+03 -1.733512E+05  7.723323E-10  5.658714E-09
       157  15 -4.011398E+05 -7.505675E+04 -8.913509E+02 -1.753411E+05  4.928627E-09  6.978656E-09
       157  16 -5.167752E+05 -1.169304E+05 -2.304480E+04 -2.077056E+05 -6.665892E-09  8.313005E-10
       157  17 -5.400017E+05 -1.228608E+05 -2.539808E+04 -2.117443E+05 -6.055587E-09 -2.198909E-09
       157  18 -5.599314E+05 -1.323453E+05 -2.837253E+04 -2.197342E+05 -5.897277E-10 -3.978273E-09
       157  19 -2.855058E+05 -3.332754E+04  1.717852E+04 -1.429143E+05 -4.259989E+03  8.799153E+03
       157  20 -2.655608E+05 -2.376912E+04  2.219513E+04 -1.349501E+05 -5.714636E+03  1.024699E+04
       157  21 -2.423196E+05 -1.776496E+04  2.658990E+04 -1.309370E+05 -7.169527E+03  1.169493E+04
       157  22 -4.011476E+05 -7.512959E+04 -2.932850E+03 -1.753128E+05 -1.198577E+03  9.946876E+03
       157  23 -4.027916E+05 -7.331594E+04 -1.601173E+03 -1.733513E+05 -2.652804E+03  1.139505E+04
       157  24 -4.011397E+05 -7.505657E+04 -8.910093E+02 -1.753412E+05 -4.107243E+03  1.284334E+04
       157  25 -5.167751E+05 -1.169303E+05 -2.304457E+04 -2.077056E+05  1.862228E+03  1.109437E+04
       157  26 -5.400017E+05 -1.228606E+05 -2.539778E+04 -2.117443E+05  4.082906E+02  1.254284E+04
       157  27 -5.599314E+05 -1.323451E+05 -2.837216E+04 -2.197342E+05 -1.045823E+03  1.399143E+04
       158   1 -2.283390E+05 -1.274380E+04  2.933321E+04 -1.270591E+05  7.679053E+03 -1.266387E+04
       158   2 -2.085005E+05 -3.295616E+03  3.329146E+04 -1.190838E+05  8.526524E+03 -1.433749E+04
       158   3 -1.852522E+05  2.715994E+03  3.710706E+04 -1.150476E+05  9.373551E+03 -1.600913E+04
       158   4 -4.011190E+05 -7.506083E+04 -6.748982E+02 -1.753272E+05  4.618314E+03 -1.381184E+04
       158   5 -4.028262E+05 -7.335214E+04 -3.933828E+02 -1.733544E+05  5.469020E+03 -1.548451E+04
       158   6 -4.011251E+05 -7.508107E+04 -2.572380E+02 -1.753211E+05  6.319273E+03 -1.715520E+04
       158   7 -5.738691E+05 -1.373756E+05 -3.068436E+04 -2.235833E+05  1.558450E+03 -1.495947E+04
       158   8 -5.971129E+05 -1.434054E+05 -3.407960E+04 -2.276093E+05  2.412519E+03 -1.663115E+04
       158   9 -6.169487E+05 -1.528736E+05 -3.762289E+04 -2.355749E+05  3.266124E+03 -1.830086E+04
       158  10 -2.283391E+05 -1.274398E+04  2.933279E+04 -1.270590E+05 -7.981123E-09 -6.754027E-09
       158  11 -2.085006E+05 -3.295856E+03  3.329094E+04 -1.190838E+05 -1.504147E-08 -1.103624E-08
       158  12 -1.852524E+05  2.715695E+03  3.710641E+04 -1.150475E+05 -3.549231E-08 -1.449862E-08
       158  13 -4.011191E+05 -7.506104E+04 -6.752967E+02 -1.753272E+05  2.754884E-09  5.761772E-09
       158  14 -4.028263E+05 -7.335241E+04 -3.938895E+02 -1.733543E+05  9.162754E-09 -5.406822E-10
       158  15 -4.011253E+05 -7.508140E+04 -2.578659E+02 -1.753210E+05 -1.033830E-08 -8.040278E-09
       158  16 -5.738692E+05 -1.373759E+05 -3.068478E+04 -2.235832E+05  1.754410E-08  2.614631E-09
       158  17 -5.971130E+05 -1.434057E+05 -3.408013E+04 -2.276092E+05  1.941615E-08  9.537607E-09
       158  18 -6.169488E+05 -1.528740E+05 -3.762354E+04 -2.355749E+05  2.263644E-08  1.361195E-08
       158  19 -2.283390E+05 -1.274380E+04  2.933321E+04 -1.270591E+05 -7.679053E+03  1.266387E+04
       158  20 -2.085005E+05 -3.295616E+03  3.329146E+04 -1.190838E+05 -8.526524E+03  1.433749E+04
       158  21 -1.852522E+05  2.715994E+03  3.710706E+04 -1.150476E+05 -9.373551E+03  1.600913E+04
       158  22 -4.011190E+05 -7.506083E+04 -6.748982E+02 -1.753272E+05 -4.618314E+03  1.381184E+04
       158  23 -4.028262E+05 -7.335214E+04 -3.933828E+02 -1.733544E+05 -5.469020E+03  1.548451E+04
       158  24 -4.011251E+05 -7.508107E+04 -2.572380E+02 -1.753211E+05 -6.319273E+03  1.715520E+04
       158  25 -5.738691E+05 -1.373756E+05 -3.068436E+04 -2.235833E+05 -1.558450E+03  1.495947E+04
       158  26 -5.971129E+05 -1.434054E+05 -3.407960E+04 -2.276093E+05 -2.412519E+03  1.663115E+04
       158  27 -6.169487E+05 -1.528736E+05 -3.762289E+04 -2.355749E+05 -3.266124E+03  1.830086E+04
       159   1 -1.713353E+05  7.747873E+03  3.966075E+04 -1.111681E+05  9.793723E+03 -1.700884E+04
       159   2 -1.515585E+05  1.718940E+04  4.333826E+04 -1.032034E+05  1.053969E+04 -1.871108E+04
       159   3 -1.283624E+05  2.320751E+04  4.694817E+04 -9.916484E+04  1.128236E+04 -2.040358E+04
       159   4 -4.011260E+05 -7.508208E+04 -2.265570E+02 -1.753176E+05  6.740516E+03 -1.815469E+04
       159   5 -4.028356E+05 -7.337335E+04 -2.224816E+02 -1.733534E+05  7.503360E+03 -1.985093E+04
       159   6 -4.011297E+05 -7.509128E+04 -2.993207E+02 -1.753153E+05  8.262909E+03 -2.153744E+04
       159   7 -6.308584E+05 -1.579060E+05 -4.011474E+04 -2.394444E+05  3.688541E+03 -1.930007E+04
       159   8 -6.540457E+05 -1.639300E+05 -4.378506E+04 -2.434768E+05  4.468338E+03 -2.099030E+04
       159   9 -6.738209E+05 -1.733839E+05 -4.754974E+04 -2.514352E+05  5.244838E+03 -2.267079E+04
       159  10 -1.713355E+05  7.747537E+03  3.966002E+04 -1.111679E+05  2.024894E-08  8.590733E-09
       159  11 -1.515587E+05  1.718900E+04  4.333740E+04 -1.032032E+05  3.012012E-09  2.730207E-10
       159  12 -1.283627E+05  2.320703E+04  4.694715E+04 -9.916465E+04 -1.334166E-08 -4.397979E-09
       159  13 -4.011261E+05 -7.508245E+04 -2.272616E+02 -1.753175E+05 -1.766850E-08 -1.082709E-08
       159  14 -4.028358E+05 -7.337379E+04 -2.233278E+02 -1.733533E+05 -2.068769E-08 -9.951360E-09
       159  15 -4.011299E+05 -7.509180E+04 -3.003205E+02 -1.753151E+05 -2.425347E-08 -5.744726E-09
       159  16 -6.308585E+05 -1.579064E+05 -4.011547E+04 -2.394444E+05 -4.975598E-08 -1.267027E-08
       159  17 -6.540459E+05 -1.639304E+05 -4.378592E+04 -2.434768E+05 -3.714409E-08 -1.028759E-08
       159  18 -6.738211E+05 -1.733844E+05 -4.755076E+04 -2.514351E+05 -1.429051E-08 -4.622192E-09
       159  19 -1.713353E+05  7.747873E+03  3.966075E+04 -1.111681E+05 -9.793723E+03  1.700884E+04
       159  20 -1.515585E+05  1.718940E+04  4.333826E+04 -1.032034E+05 -1.053969E+04  1.871108E+04
       159  21 -1.283624E+05  2.320751E+04  4.694817E+04 -9.916484E+04 -1.128236E+04  2.040358E+04
       159  22 -4.011260E+05 -7.508208E+04 -2.265570E+02 -1.753176E+05 -6.740516E+03  1.815469E+04
       159  23 -4.028356E+05 -7.337335E+04 -2.224816E+02 -1.733534E+05 -7.503360E+03  1.985093E+04
       159  24 -4.011297E+05 -7.509128E+04 -2.993207E+02 -1.753153E+05 -8.262909E+03  2.153744E+04
       159  25 -6.308584E+05 -1.579060E+05 -4.011474E+04 -2.394444E+05 -3.688541E+03  1.930007E+04
       159  26 -6.540457E+05 -1.639300E+05 -4.378506E+04 -2.434768E+05 -4.468338E+03  2.099030E+04
       159  27 -6.738209E+05 -1.733839E+05 -4.754974E+04 -2.514352E+05 -5.244838E+03  2.267079E+04
       160   1 -1.144854E+05  2.823141E+04  4.939832E+04 -9.529885E+04  1.172425E+04 -2.138716E+04
       160   2 -9.476139E+04  3.766144E+04  5.286268E+04 -8.735484E+04  1.251194E+04 -2.300997E+04
       160   3 -7.164103E+04  4.366788E+04  5.621054E+04 -8.331930E+04  1.326562E+04 -2.454106E+04
       160   4 -4.011422E+05 -7.508926E+04 -3.727669E+02 -1.753156E+05  8.697089E+03 -2.252414E+04
       160   5 -4.028302E+05 -7.338305E+04 -6.346253E+02 -1.733543E+05  9.645240E+03 -2.408714E+04
       160   6 -4.011539E+05 -7.513246E+04 -1.140137E+03 -1.753019E+05  1.055937E+04 -2.555839E+04
       160   7 -6.877117E+05 -1.784019E+05 -5.014623E+04 -2.552978E+05  5.671415E+03 -2.366056E+04
       160   8 -7.107967E+05 -1.844177E+05 -5.413426E+04 -2.593134E+05  6.780074E+03 -2.516374E+04
       160   9 -7.305483E+05 -1.939209E+05 -5.849309E+04 -2.672379E+05  7.854684E+03 -2.657514E+04
       160  10 -1.144857E+05  2.823088E+04  4.939720E+04 -9.529865E+04 -1.819443E-08 -1.422845E-09
       160  11 -9.476170E+04  3.766083E+04  5.286140E+04 -8.735461E+04 -3.661630E-09  1.452917E-09
       160  12 -7.164138E+04  4.366719E+04  5.620908E+04 -8.331904E+04 -2.355408E-09  2.426093E-09
       160  13 -4.011424E+05 -7.508983E+04 -3.738622E+02 -1.753154E+05 -1.247187E-08 -2.729170E-09
       160  14 -4.028304E+05 -7.338369E+04 -6.358902E+02 -1.733541E+05 -2.130393E-09 -3.380376E-10
       160  15 -4.011542E+05 -7.513319E+04 -1.141574E+03 -1.753017E+05 -1.820043E-09  2.335770E-09
       160  16 -6.877119E+05 -1.784025E+05 -5.014735E+04 -2.552977E+05 -7.082092E-09 -4.401819E-09
       160  17 -7.107969E+05 -1.844184E+05 -5.413554E+04 -2.593133E+05  2.732725E-09 -2.186113E-09
       160  18 -7.305486E+05 -1.939217E+05 -5.849453E+04 -2.672377E+05 -1.404077E-09  2.341381E-09
       160  19 -1.144854E+05  2.823141E+04  4.939832E+04 -9.529885E+04 -1.172425E+04  2.138716E+04
       160  20 -9.476139E+04  3.766144E+04  5.286268E+04 -8.735484E+04 -1.251194E+04  2.300997E+04
       160  21 -7.164103E+04  4.366788E+04  5.621054E+04 -8.331930E+04 -1.326562E+04  2.454106E+04
       160  22 -4.011422E+05 -7.508926E+04 -3.727669E+02 -1.753156E+05 -8.697089E+03  2.252414E+04
       160  23 -4.028302E+05 -7.338305E+04 -6.346253E+02 -1.733543E+05 -9.645240E+03  2.408714E+04
       160  24 -4.011539E+05 -7.513246E+04 -1.140137E+03 -1.753019E+05 -1.055937E+04  2.555839E+04
       160  25 -6.877117E+05 -1.784019E+05 -5.014623E+04 -2.552978E+05 -5.671415E+03  2.366056E+04
       160  26 -7.107967E+05 -1.844177E+05 -5.413426E+04 -2.593134E+05 -6.780074E+03  2.516374E+04
       160  27 -7.305483E+05 -1.939209E+05 -5.849309E+04 -2.672379E+05 -7.854684E+03  2.657514E+04
       161   1 -5.775752E+04  4.865702E+04  5.842896E+04 -7.954966E+04  1.394562E+04 -2.537612E+04
       161   2 -3.831786E+04  5.818656E+04  6.159020E+04 -7.133078E+04  1.400238E+04 -2.661779E+04
       161   3 -1.562795E+04  6.394687E+04  6.490457E+04 -6.680649E+04  1.368349E+04 -2.685821E+04
       161   4 -4.012329E+05 -7.511057E+04 -1.513512E+03 -1.753178E+05  1.112805E+04 -2.643549E+04
       161   5 -4.027655E+05 -7.360781E+04 -2.768710E+03 -1.732630E+05  1.293899E+04 -2.701898E+04
       161   6 -4.013964E+05 -7.622259E+04 -5.261289E+03 -1.749034E+05  1.437421E+04 -2.660087E+04
       161   7 -7.445870E+05 -1.988682E+05 -6.146055E+04 -2.710376E+05  8.312111E+03 -2.749425E+04
       161   8 -7.670749E+05 -2.053901E+05 -6.713241E+04 -2.751398E+05  1.187626E+04 -2.741992E+04
       161   9 -7.870085E+05 -2.163778E+05 -7.543250E+04 -2.829376E+05  1.506446E+04 -2.634370E+04
       161  10 -5.775791E+04  4.865627E+04  5.842739E+04 -7.954937E+04  2.143938E-08  1.281606E-08
       161  11 -3.831826E+04  5.818575E+04  6.158850E+04 -7.133048E+04  2.215896E-08  5.080053E-09
       161  12 -1.562834E+04  6.394604E+04  6.490286E+04 -6.680620E+04 -1.141984E-08 -9.479750E-09
       161  13 -4.012332E+05 -7.511136E+04 -1.515058E+03 -1.753176E+05  9.923066E-10  4.795854E-09
       161  14 -4.027659E+05 -7.360864E+04 -2.770396E+03 -1.732627E+05  1.107475E-08  6.675813E-09
       161  15 -4.013968E+05 -7.622341E+04 -5.263007E+03 -1.749031E+05  7.073775E-09  2.134388E-09
       161  16 -7.445872E+05 -1.988690E+05 -6.146210E+04 -2.710374E+05 -2.596815E-08 -3.036884E-09
       161  17 -7.670752E+05 -2.053909E+05 -6.713409E+04 -2.751396E+05  2.423633E-09  8.386719E-09
       161  18 -7.870089E+05 -2.163786E+05 -7.543423E+04 -2.829373E+05  1.928774E-08  1.429486E-08
       161  19 -5.775752E+04  4.865702E+04  5.842896E+04 -7.954966E+04 -1.394562E+04  2.537612E+04
       161  20 -3.831786E+04  5.818656E+04  6.159020E+04 -7.133078E+04 -1.400238E+04  2.661779E+04
       161  21 -1.562795E+04  6.394687E+04  6.490457E+04 -6.680649E+04 -1.368349E+04  2.685821E+04
       161  22 -4.012329E+05 -7.511057E+04 -1.513512E+03 -1.753178E+05 -1.112805E+04  2.643549E+04
       161  23 -4.027655E+05 -7.360781E+04 -2.768710E+03 -1.732630E+05 -1.293899E+04  2.701898E+04
       161  24 -4.013964E+05 -7.622259E+04 -5.261289E+03 -1.749034E+05 -1.437421E+04  2.660087E+04
       161  25 -7.445870E+05 -1.988682E+05 -6.146055E+04 -2.710376E+05 -8.312111E+03  2.749425E+04
       161  26 -7.670749E+05 -2.053901E+05 -6.713241E+04 -2.751398E+05 -1.187626E+04  2.741992E+04
       161  27 -7.870085E+05 -2.163778E+05 -7.543250E+04 -2.829376E+05 -1.506446E+04  2.634370E+04
       162   1 -9.761280E+02  6.833411E+04  6.660882E+04 -6.444402E+04  1.589839E+04 -2.649418E+04
       162   2  1.306857E+04  7.998614E+04  7.251183E+04 -4.884102E+04  1.369752E+03 -2.597834E+04
       162   3  2.782354E+04  7.918560E+04  8.502593E+04 -3.311973E+04 -1.734176E+04 -1.433631E+04
       162   4 -4.023324E+05 -7.601313E+04 -6.997874E+03 -1.751544E+05  1.531856E+04 -2.671406E+04
       162   5 -4.023056E+05 -7.880139E+04 -1.332848E+04 -1.711040E+05  2.029258E+04 -1.887126E+04
       162   6 -4.054359E+05 -9.791137E+04 -2.850563E+04 -1.669354E+05  2.108292E+04  1.019543E+02
       162   7 -8.035191E+05 -2.203457E+05 -8.061030E+04 -2.857982E+05  1.473912E+04 -2.693380E+04
       162   8 -8.174949E+05 -2.375671E+05 -9.917451E+04 -2.932879E+05  3.920152E+04 -1.176992E+04
       162   9 -8.384960E+05 -2.749801E+05 -1.420434E+05 -3.006583E+05  5.947722E+04  1.452649E+04
       162  10 -9.765878E+02  6.833329E+04  6.660703E+04 -6.444368E+04 -2.976537E-08 -1.431393E-08
       162  11  1.306839E+04  7.998542E+04  7.251056E+04 -4.884099E+04 -1.870377E-08 -6.695363E-09
       162  12  2.782317E+04  7.918530E+04  8.502498E+04 -3.311993E+04  1.245062E-08  6.338619E-09
       162  13 -4.023329E+05 -7.601396E+04 -6.999656E+03 -1.751541E+05 -5.940952E-09 -2.116452E-09
       162  14 -4.023061E+05 -7.880189E+04 -1.332993E+04 -1.711037E+05 -9.831684E-09 -2.448599E-09
       162  15 -4.054364E+05 -9.791149E+04 -2.850647E+04 -1.669354E+05 -5.070719E-09 -1.837062E-09
       162  16 -8.035195E+05 -2.203465E+05 -8.061207E+04 -2.857979E+05  1.609813E-08  1.151180E-08
       162  17 -8.174966E+05 -2.375677E+05 -9.917766E+04 -2.932875E+05 -6.830675E-09 -1.975777E-09
       162  18 -8.384998E+05 -2.749813E+05 -1.420505E+05 -3.006590E+05 -2.443779E-08 -9.398476E-09
       162  19 -9.761280E+02  6.833411E+04  6.660882E+04 -6.444402E+04 -1.589839E+04  2.649418E+04
       162  20  1.306857E+04  7.998614E+04  7.251183E+04 -4.884102E+04 -1.369752E+03  2.597834E+04
       162  21  2.782354E+04  7.918560E+04  8.502593E+04 -3.311973E+04  1.734176E+04  1.433631E+04
       162  22 -4.023324E+05 -7.601313E+04 -6.997874E+03 -1.751544E+05 -1.531856E+04  2.671406E+04
       162  23 -4.023056E+05 -7.880139E+04 -1.332848E+04 -1.711040E+05 -2.029258E+04  1.887126E+04
       162  24 -4.054359E+05 -9.791137E+04 -2.850563E+04 -1.669354E+05 -2.108292E+04 -1.019543E+02
       162  25 -8.035191E+05 -2.203457E+05 -8.061030E+04 -2.857982E+05 -1.473912E+04  2.693380E+04
       162  26 -8.174949E+05 -2.375671E+05 -9.917451E+04 -2.932879E+05 -3.920152E+04  1.176992E+04
       162  27 -8.384960E+05 -2.749801E+05 -1.420434E+05 -3.006583E+05 -5.947722E+04 -1.452649E+04
       163   1 -5.406923E+05 -1.146039E+05 -1.524189E+05 -9.286764E+03 -1.096242E+05 -1.207114E+02
       163   2 -5.154723E+05  3.766625E+04 -6.009921E+04 -1.996379E+03 -7.215027E+04 -2.737813E+02
       163   3 -5.394561E+05  1.252916E+04 -3.652940E+04  2.962370E+03 -3.467743E+04 -2.598485E+02
       163   4 -5.737969E+05 -1.228761E+05 -1.606942E+05 -1.075658E+03 -1.096442E+05 -1.221729E+02
       163   5 -5.491763E+05  2.924105E+04 -6.851511E+04  6.307042E+01 -7.215605E+04 -2.740263E+02
       163   6 -5.737646E+05  3.943278E+03 -4.509838E+04 -1.129959E+03 -3.466904E+04 -2.596162E+02
       163   7 -6.069005E+05 -1.311482E+05 -1.689696E+05  7.135010E+03 -1.096641E+05 -1.236350E+02
       163   8 -5.828793E+05  2.081577E+04 -7.693110E+04  2.122408E+03 -7.216184E+04 -2.742712E+02
       163   9 -6.080719E+05 -4.642625E+03 -5.366744E+04 -5.222061E+03 -3.466066E+04 -2.593839E+02
       163  10 -5.407052E+05 -1.146071E+05 -1.524415E+05 -9.286775E+03  3.201712E-11  3.776571E-10
       163  11 -5.154779E+05  3.766485E+04 -6.010900E+04 -1.996395E+03  2.297983E-09  1.461878E-10
       163  12 -5.394574E+05  1.252883E+04 -3.653166E+04  2.962363E+03 -6.823047E-10 -9.978335E-10
       163  13 -5.738099E+05 -1.228793E+05 -1.607168E+05 -1.075668E+03 -4.508771E-09  7.734687E-10
       163  14 -5.491819E+05  2.923965E+04 -6.852490E+04  6.305449E+01  2.295072E-09  4.177740E-10
       163  15 -5.737659E+05  3.942955E+03 -4.510064E+04 -1.129966E+03 -4.256704E-09  5.870897E-10
       163  16 -6.069134E+05 -1.311514E+05 -1.689922E+05  7.134999E+03 -5.418969E-09  3.901201E-10
       163  17 -5.828849E+05  2.081437E+04 -7.694089E+04  2.122392E+03 -1.906458E-09 -7.778492E-10
       163  18 -6.080732E+05 -4.642948E+03 -5.366970E+04 -5.222068E+03  5.225951E-09 -8.440295E-10
       163  19 -5.406923E+05 -1.146039E+05 -1.524189E+05 -9.286764E+03  1.096242E+05  1.207114E+02
       163  20 -5.154723E+05  3.766625E+04 -6.009921E+04 -1.996379E+03  7.215027E+04  2.737813E+02
       163  21 -5.394561E+05  1.252916E+04 -3.652940E+04  2.962370E+03  3.467743E+04  2.598485E+02
       163  22 -5.737969E+05 -1.228761E+05 -1.606942E+05 -1.075658E+03  1.096442E+05  1.221729E+02
       163  23 -5.491763E+05  2.924105E+04 -6.851511E+04  6.307042E+01  7.215605E+04  2.740263E+02
       163  24 -5.737646E+05  3.943278E+03 -4.509838E+04 -1.129959E+03  3.466904E+04  2.596162E+02
       163  25 -6.069005E+05 -1.311482E+05 -1.689696E+05  7.135010E+03  1.096641E+05  1.236350E+02
       163  26 -5.828793E+05  2.081577E+04 -7.693110E+04  2.122408E+03  7.216184E+04  2.742712E+02
       163  27 -6.080719E+05 -4.642625E+03 -5.366744E+04 -5.222061E+03  3.466066E+04  2.593839E+02
       164   1 -5.209898E+05 -8.101208E+03 -2.644810E+04 -1.984111E+03 -2.718062E+04 -2.527854E+02
       164   2 -5.167336E+05  1.549960E+04 -6.795751E+03 -5.901010E+02 -1.785541E+04 -2.982808E+02
       164   3 -5.205015E+05  1.162568E+04 -7.435887E+01 -1.272767E+02 -8.530061E+03 -2.836223E+02
       164   4 -5.646223E+05 -1.901092E+04 -3.734790E+04 -7.895512E+02 -2.718717E+04 -2.528443E+02
       164   5 -5.606062E+05  4.529072E+03 -1.775268E+04 -3.309485E+02 -1.785677E+04 -2.982914E+02
       164   6 -5.646156E+05  5.923738E+02 -1.109266E+04 -8.035505E+02 -8.526231E+03 -2.836109E+02
       164   7 -6.082531E+05 -2.992077E+04 -4.824785E+04  4.049241E+02 -2.719373E+04 -2.529034E+02
       164   8 -6.044770E+05 -6.441605E+03 -2.870975E+04 -7.181475E+01 -1.785813E+04 -2.983021E+02
       164   9 -6.087279E+05 -1.044107E+04 -2.211110E+04 -1.479777E+03 -8.522401E+03 -2.835995E+02
       164  10 -5.209906E+05 -8.101407E+03 -2.644949E+04 -1.984116E+03 -3.942259E-09 -2.147263E-09
       164  11 -5.167340E+05  1.549952E+04 -6.796351E+03 -5.901053E+02 -6.789539E-09  5.654583E-10
       164  12 -5.205016E+05  1.162566E+04 -7.449587E+01 -1.272787E+02 -1.080666E-10  1.536978E-09
       164  13 -5.646231E+05 -1.901112E+04 -3.734929E+04 -7.895567E+02 -8.608428E-09 -1.631598E-09
       164  14 -5.606065E+05  4.528986E+03 -1.775328E+04 -3.309528E+02  2.275932E-10 -1.303979E-09
       164  15 -5.646157E+05  5.923541E+02 -1.109279E+04 -8.035525E+02 -3.192454E-09 -2.034177E-10
       164  16 -6.082539E+05 -2.992097E+04 -4.824924E+04  4.049185E+02  1.870559E-09 -1.724629E-10
       164  17 -6.044774E+05 -6.441691E+03 -2.871035E+04 -7.181904E+01  9.900992E-10 -8.535510E-10
       164  18 -6.087280E+05 -1.044109E+04 -2.211124E+04 -1.479779E+03 -4.004195E-09  8.843453E-10
       164  19 -5.209898E+05 -8.101208E+03 -2.644810E+04 -1.984111E+03  2.718062E+04  2.527854E+02
       164  20 -5.167336E+05  1.549960E+04 -6.795751E+03 -5.901010E+02  1.785541E+04  2.982808E+02
       164  21 -5.205015E+05  1.162568E+04 -7.435887E+01 -1.272767E+02  8.530061E+03  2.836223E+02
       164  22 -5.646223E+05 -1.901092E+04 -3.734790E+04 -7.895512E+02  2.718717E+04  2.528443E+02
       164  23 -5.606062E+05  4.529072E+03 -1.775268E+04 -3.309485E+02  1.785677E+04  2.982914E+02
       164  24 -5.646156E+05  5.923738E+02 -1.109266E+04 -8.035505E+02  8.526231E+03  2.836109E+02
       164  25 -6.082531E+05 -2.992077E+04 -4.824785E+04  4.049241E+02  2.719373E+04  2.529034E+02
       164  26 -6.044770E+05 -6.441605E+03 -2.870975E+04 -7.181475E+01  1.785813E+04  2.983021E+02
       164  27 -6.087279E+05 -1.044107E+04 -2.211110E+04 -1.479777E+03  8.522401E+03  2.835995E+02
       165   1 -5.182908E+05  8.284789E+03  2.288810E+03 -5.753302E+02 -6.710296E+03 -2.803339E+02
       165   2 -5.178114E+05  1.186666E+04  6.562987E+03 -7.777548E+02 -4.361076E+03 -2.905916E+02
       165   3 -5.186406E+05  1.120288E+04  8.257275E+03 -2.920099E+02 -2.011904E+03 -2.599609E+02
       165   4 -5.631244E+05 -2.926505E+03 -8.909183E+03 -4.364856E+02 -6.713148E+03 -2.803401E+02
       165   5 -5.624692E+05  6.991795E+02 -4.590286E+03 -7.821814E+02 -4.360154E+03 -2.905920E+02
       165   6 -5.631232E+05  7.839022E+01 -2.854027E+03 -4.397043E+02 -2.007207E+03 -2.599555E+02
       165   7 -6.079563E+05 -1.413795E+04 -2.010733E+04 -2.976515E+02 -6.715999E+03 -2.803462E+02
       165   8 -6.071251E+05 -1.046845E+04 -1.574371E+04 -7.866082E+02 -4.359232E+03 -2.905925E+02
       165   9 -6.076039E+05 -1.104625E+04 -1.396548E+04 -5.873888E+02 -2.002511E+03 -2.599500E+02
       165  10 -5.182908E+05  8.284777E+03  2.288726E+03 -5.753317E+02  1.357602E-09  2.425315E-09
       165  11 -5.178115E+05  1.186665E+04  6.562951E+03 -7.777558E+02 -6.633698E-09  1.784967E-09
       165  12 -5.186406E+05  1.120288E+04  8.257268E+03 -2.920103E+02 -1.421585E-09  5.203451E-10
       165  13 -5.631245E+05 -2.926517E+03 -8.909267E+03 -4.364871E+02 -8.208477E-09 -4.333948E-10
       165  14 -5.624692E+05  6.991743E+02 -4.590321E+03 -7.821824E+02  6.790003E-09  1.701003E-09
       165  15 -5.631232E+05  7.838907E+01 -2.854034E+03 -4.397048E+02 -6.996274E-09  4.585804E-09
       165  16 -6.079564E+05 -1.413796E+04 -2.010741E+04 -2.976530E+02 -1.137194E-09  2.325860E-09
       165  17 -6.071251E+05 -1.046845E+04 -1.574374E+04 -7.866092E+02 -2.272599E-09  2.170601E-09
       165  18 -6.076039E+05 -1.104625E+04 -1.396549E+04 -5.873892E+02  1.012438E-08  3.488843E-09
       165  19 -5.182908E+05  8.284789E+03  2.288810E+03 -5.753302E+02  6.710296E+03  2.803339E+02
       165  20 -5.178114E+05  1.186666E+04  6.562987E+03 -7.777548E+02  4.361076E+03  2.905916E+02
       165  21 -5.186406E+05  1.120288E+04  8.257275E+03 -2.920099E+02  2.011904E+03  2.599609E+02
       165  22 -5.631244E+05 -2.926505E+03 -8.909183E+03 -4.364856E+02  6.713148E+03  2.803401E+02
       165  23 -5.624692E+05  6.991795E+02 -4.590286E+03 -7.821814E+02  4.360154E+03  2.905920E+02
       165  24 -5.631232E+05  7.839022E+01 -2.854027E+03 -4.397043E+02  2.007207E+03  2.599555E+02
       165  25 -6.079563E+05 -1.413795E+04 -2.010733E+04 -2.976515E+02  6.715999E+03  2.803462E+02
       165  26 -6.071251E+05 -1.046845E+04 -1.574371E+04 -7.866082E+02  4.359232E+03  2.905925E+02
       165  27 -6.076039E+05 -1.104625E+04 -1.396548E+04 -5.873888E+02  2.002511E+03  2.599500E+02
       166   1 -5.264469E+05  8.667044E+03  6.791298E+03 -9.707561E+01 -1.539853E+03 -2.452241E+02
       166   2 -5.268776E+05  9.094934E+03  7.528793E+03 -1.155382E+03 -8.200428E+02 -2.301651E+02
       166   3 -5.275561E+05  8.781544E+03  7.618326E+03 -4.722844E+01 -1.002974E+02 -1.850005E+02
       166   4 -5.628874E+05 -4.454838E+02 -2.309104E+03 -1.096564E+02 -1.539888E+03 -2.452252E+02
       166   5 -5.627631E+05  1.209457E+02 -1.433703E+03 -1.193162E+03 -8.172272E+02 -2.301616E+02
       166   6 -5.628873E+05 -5.442803E+01 -1.208273E+03 -1.101993E+02 -9.462995E+01 -1.849918E+02
       166   7 -5.993266E+05 -9.558112E+03 -1.140961E+04 -1.222368E+02 -1.539924E+03 -2.452262E+02
       166   8 -5.986475E+05 -8.853140E+03 -1.039630E+04 -1.230940E+03 -8.144117E+02 -2.301581E+02
       166   9 -5.982173E+05 -8.890494E+03 -1.003497E+04 -1.731669E+02 -8.896284E+01 -1.849832E+02
       166  10 -5.264469E+05  8.667044E+03  6.791293E+03 -9.707592E+01 -2.186284E-09  6.028490E-10
       166  11 -5.268776E+05  9.094934E+03  7.528792E+03 -1.155382E+03 -5.696881E-09  2.508540E-09
       166  12 -5.275561E+05  8.781544E+03  7.618326E+03 -4.722845E+01 -5.291053E-09  4.189618E-09
       166  13 -5.628874E+05 -4.454845E+02 -2.309109E+03 -1.096567E+02 -4.275594E-09  1.773091E-09
       166  14 -5.627631E+05  1.209455E+02 -1.433704E+03 -1.193162E+03 -8.608653E-09  1.780421E-09
       166  15 -5.628873E+05 -5.442807E+01 -1.208273E+03 -1.101993E+02 -4.179073E-10  6.161593E-10
       166  16 -5.993266E+05 -9.558113E+03 -1.140961E+04 -1.222371E+02 -2.740556E-09  1.839545E-09
       166  17 -5.986475E+05 -8.853140E+03 -1.039630E+04 -1.230940E+03  7.086581E-09 -1.940930E-09
       166  18 -5.982173E+05 -8.890494E+03 -1.003497E+04 -1.731670E+02  2.979903E-09 -1.210908E-09
       166  19 -5.264469E+05  8.667044E+03  6.791298E+03 -9.707561E+01  1.539853E+03  2.452241E+02
       166  20 -5.268776E+05  9.094934E+03  7.528793E+03 -1.155382E+03  8.200428E+02  2.301651E+02
       166  21 -5.275561E+05  8.781544E+03  7.618326E+03 -4.722844E+01  1.002974E+02  1.850005E+02
       166  22 -5.628874E+05 -4.454838E+02 -2.309104E+03 -1.096564E+02  1.539888E+03  2.452252E+02
       166  23 -5.627631E+05  1.209457E+02 -1.433703E+03 -1.193162E+03  8.172272E+02  2.301616E+02
       166  24 -5.628873E+05 -5.442803E+01 -1.208273E+03 -1.101993E+02  9.462995E+01  1.849918E+02
       166  25 -5.993266E+05 -9.558112E+03 -1.140961E+04 -1.222368E+02  1.539924E+03  2.452262E+02
       166  26 -5.986475E+05 -8.853140E+03 -1.039630E+04 -1.230940E+03  8.144117E+02  2.301581E+02
       166  27 -5.982173E+05 -8.890494E+03 -1.003497E+04 -1.731669E+02  8.896284E+01  1.849832E+02
       167   1 -5.426499E+05  5.008465E+03  3.839718E+03  1.219214E+02  1.219283E+02 -1.587769E+02
       167   2 -5.433200E+05  4.982753E+03  3.394767E+03 -1.446779E+03  8.562026E+02 -1.222774E+02
       167   3 -5.442773E+05  4.200593E+03  2.281842E+03  1.685746E+02  1.590454E+03 -7.055760E+01
       167   4 -5.628957E+05 -5.405476E+01 -1.214878E+03  1.158766E+02  1.245779E+02 -1.587727E+02
       167   5 -5.627521E+05  1.232284E+02 -1.458515E+03 -1.475785E+03  8.602920E+02 -1.222704E+02
       167   6 -5.628960E+05 -4.561981E+02 -2.371138E+03  1.166134E+02  1.595984E+03 -7.054775E+01
       167   7 -5.831411E+05 -5.116605E+03 -6.269505E+03  1.098318E+02  1.272273E+02 -1.587685E+02
       167   8 -5.821839E+05 -4.736325E+03 -6.311825E+03 -1.504790E+03  8.643813E+02 -1.222635E+02
       167   9 -5.815144E+05 -5.113015E+03 -7.024143E+03  6.465362E+01  1.601514E+03 -7.053790E+01
       167  10 -5.426499E+05  5.008465E+03  3.839718E+03  1.219215E+02 -3.475032E-09  2.193891E-09
       167  11 -5.433200E+05  4.982753E+03  3.394765E+03 -1.446779E+03 -4.184479E-09 -1.013996E-09
       167  12 -5.442773E+05  4.200592E+03  2.281837E+03  1.685747E+02  2.331901E-09 -3.688314E-09
       167  13 -5.628957E+05 -5.405479E+01 -1.214878E+03  1.158766E+02  3.868523E-09  6.225382E-09
       167  14 -5.627521E+05  1.232282E+02 -1.458517E+03 -1.475785E+03 -6.191577E-09  5.305094E-10
       167  15 -5.628960E+05 -4.561988E+02 -2.371143E+03  1.166135E+02 -4.764119E-09 -3.473194E-09
       167  16 -5.831411E+05 -5.116605E+03 -6.269505E+03  1.098318E+02  4.895328E-09  2.751137E-09
       167  17 -5.821839E+05 -4.736325E+03 -6.311827E+03 -1.504790E+03 -5.962862E-09  4.047145E-10
       167  18 -5.815144E+05 -5.113016E+03 -7.024148E+03  6.465371E+01 -6.435725E-09 -3.318815E-09
       167  19 -5.426499E+05  5.008465E+03  3.839718E+03  1.219214E+02 -1.219283E+02  1.587769E+02
       167  20 -5.433200E+05  4.982753E+03  3.394767E+03 -1.446779E+03 -8.562026E+02  1.222774E+02
       167  21 -5.442773E+05  4.200593E+03  2.281842E+03  1.685746E+02 -1.590454E+03  7.055760E+01
       167  22 -5.628957E+05 -5.405476E+01 -1.214878E+03  1.158766E+02 -1.245779E+02  1.587727E+02
       167  23 -5.627521E+05  1.232284E+02 -1.458515E+03 -1.475785E+03 -8.602920E+02  1.222704E+02
       167  24 -5.628960E+05 -4.561981E+02 -2.371138E+03  1.166134E+02 -1.595984E+03  7.054775E+01
       167  25 -5.831411E+05 -5.116605E+03 -6.269505E+03  1.098318E+02 -1.272273E+02  1.587685E+02
       167  26 -5.821839E+05 -4.736325E+03 -6.311825E+03 -1.504790E+03 -8.643813E+02  1.222635E+02
       167  27 -5.815144E+05 -5.113015E+03 -7.024143E+03  6.465362E+01 -1.601514E+03  7.053790E+01
       168   1 -5.634289E+05  1.124904E+01 -3.010464E+03  8.363871E+01  2.071990E+03 -3.665408E+01
       168   2 -5.636172E+05  4.242108E+02 -5.019223E+03 -1.534116E+03  4.495582E+03  1.669171E+01
       168   3 -5.652305E+05 -3.534273E+03 -9.703028E+03  3.719892E+02  6.919178E+03  6.327041E+01
       168   4 -5.631485E+05  8.238408E+01 -2.937694E+03  1.896696E+02  2.077008E+03 -3.664451E+01
       168   5 -5.624367E+05  7.192404E+02 -4.724484E+03 -1.569431E+03  4.499955E+03  1.669944E+01
       168   6 -5.631499E+05 -3.015231E+03 -9.185864E+03  1.953276E+02  6.922909E+03  6.327522E+01
       168   7 -5.628681E+05  1.535192E+02 -2.864925E+03  2.957006E+02  2.082026E+03 -3.663495E+01
       168   8 -5.612563E+05  1.014270E+03 -4.429744E+03 -1.604746E+03  4.504328E+03  1.670718E+01
       168   9 -5.610692E+05 -2.496189E+03 -8.668701E+03  1.866528E+01  6.926641E+03  6.328003E+01
       168  10 -5.634289E+05  1.124789E+01 -3.010472E+03  8.363877E+01 -3.322704E-09 -1.294431E-10
       168  11 -5.636172E+05  4.242053E+02 -5.019261E+03 -1.534116E+03 -2.197022E-09  8.756297E-10
       168  12 -5.652306E+05 -3.534286E+03 -9.703118E+03  3.719889E+02  3.882923E-09 -1.973333E-10
       168  13 -5.631485E+05  8.238292E+01 -2.937702E+03  1.896697E+02  2.051010E-11 -2.013630E-09
       168  14 -5.624368E+05  7.192350E+02 -4.724522E+03 -1.569431E+03  9.113050E-09  1.063411E-09
       168  15 -5.631499E+05 -3.015244E+03 -9.185954E+03  1.953272E+02  4.867987E-09  5.158442E-11
       168  16 -5.628681E+05  1.535180E+02 -2.864933E+03  2.957007E+02 -4.053741E-09 -3.440722E-10
       168  17 -5.612563E+05  1.014265E+03 -4.429782E+03 -1.604746E+03 -1.867712E-09 -2.819821E-09
       168  18 -5.610693E+05 -2.496202E+03 -8.668791E+03  1.866492E+01 -7.757889E-10 -4.929919E-10
       168  19 -5.634289E+05  1.124904E+01 -3.010464E+03  8.363870E+01 -2.071990E+03  3.665408E+01
       168  20 -5.636172E+05  4.242108E+02 -5.019223E+03 -1.534116E+03 -4.495582E+03 -1.669171E+01
       168  21 -5.652305E+05 -3.534273E+03 -9.703028E+03  3.719892E+02 -6.919178E+03 -6.327041E+01
       168  22 -5.631485E+05  8.238408E+01 -2.937694E+03  1.896696E+02 -2.077008E+03  3.664451E+01
       168  23 -5.624367E+05  7.192404E+02 -4.724484E+03 -1.569431E+03 -4.499955E+03 -1.669944E+01
       168  24 -5.631499E+05 -3.015231E+03 -9.185864E+03  1.953276E+02 -6.922909E+03 -6.327522E+01
       168  25 -5.628681E+05  1.535192E+02 -2.864925E+03  2.957006E+02 -2.082026E+03  3.663495E+01
       168  26 -5.612563E+05  1.014270E+03 -4.429744E+03 -1.604746E+03 -4.504328E+03 -1.670718E+01
       168  27 -5.610692E+05 -2.496189E+03 -8.668701E+03  1.866527E+01 -6.926641E+03 -6.328003E+01
       169   1 -5.854309E+05 -4.577103E+03 -1.662175E+04 -5.986472E+02  8.784839E+03  1.035597E+02
       169   2 -5.820621E+05 -7.186531E+02 -2.367909E+04 -1.188708E+03  1.840848E+04  1.750818E+02
       169   3 -5.870286E+05 -2.518121E+04 -4.408602E+04  1.353732E+03  2.803203E+04  1.923407E+02
       169   4 -5.646840E+05  6.148921E+02 -1.143656E+04  9.288053E+01  8.792843E+03  1.035834E+02
       169   5 -5.605203E+05  4.667187E+03 -1.829938E+04 -1.456448E+03  1.841157E+04  1.750780E+02
       169   6 -5.646908E+05 -1.960014E+04 -3.850803E+04  1.267347E+02  2.803022E+04  1.922806E+02
       169   7 -5.439368E+05  5.806857E+03 -6.251404E+03  7.844313E+02  8.800848E+03  1.036071E+02
       169   8 -5.389781E+05  1.005299E+04 -1.291970E+04 -1.724197E+03  1.841466E+04  1.750743E+02
       169   9 -5.423525E+05 -1.401911E+04 -3.293008E+04 -1.100307E+03  2.802840E+04  1.922205E+02
       169  10 -5.854310E+05 -4.577124E+03 -1.662189E+04 -5.986480E+02  2.811561E-09  2.773383E-09
       169  11 -5.820624E+05 -7.187442E+02 -2.367973E+04 -1.188711E+03 -5.293271E-09  3.043048E-09
       169  12 -5.870295E+05 -2.518142E+04 -4.408750E+04  1.353728E+03  4.793693E-09  1.672854E-09
       169  13 -5.646841E+05  6.148713E+02 -1.143671E+04  9.287979E+01  4.313410E-09  1.578694E-09
       169  14 -5.605207E+05  4.667096E+03 -1.830002E+04 -1.456450E+03  4.588774E-10  3.570411E-09
       169  15 -5.646917E+05 -1.960035E+04 -3.850951E+04  1.267304E+02  1.808502E-10 -9.552110E-10
       169  16 -5.439369E+05  5.806836E+03 -6.251550E+03  7.844305E+02 -3.016222E-10 -3.050336E-10
       169  17 -5.389784E+05  1.005290E+04 -1.292034E+04 -1.724199E+03 -3.277391E-09 -2.532461E-10
       169  18 -5.423534E+05 -1.401932E+04 -3.293156E+04 -1.100312E+03 -4.330828E-09 -3.783498E-09
       169  19 -5.854309E+05 -4.577103E+03 -1.662175E+04 -5.986472E+02 -8.784839E+03 -1.035597E+02
       169  20 -5.820621E+05 -7.186531E+02 -2.367909E+04 -1.188708E+03 -1.840848E+04 -1.750818E+02
       169  21 -5.870286E+05 -2.518121E+04 -4.408602E+04  1.353732E+03 -2.803203E+04 -1.923407E+02
       169  22 -5.646840E+05  6.148921E+02 -1.143656E+04  9.288053E+01 -8.792843E+03 -1.035834E+02
       169  23 -5.605203E+05  4.667187E+03 -1.829938E+04 -1.456448E+03 -1.841157E+04 -1.750780E+02
       169  24 -5.646908E+05 -1.960014E+04 -3.850803E+04  1.267347E+02 -2.803022E+04 -1.922806E+02
       169  25 -5.439368E+05  5.806857E+03 -6.251404E+03  7.844313E+02 -8.800848E+03 -1.036071E+02
       169  26 -5.389781E+05  1.005299E+04 -1.291970E+04 -1.724197E+03 -1.841466E+04 -1.750743E+02
       169  27 -5.423525E+05 -1.401911E+04 -3.293008E+04 -1.100307E+03 -2.802840E+04 -1.922205E+02
       170   1 -6.108812E+05 -5.144350E+03 -5.568670E+04 -4.417681E+03  3.572472E+04  2.601470E+02
       170   2 -5.860585E+05  2.082382E+04 -7.995375E+04  9.244869E+02  7.439646E+04  3.843469E+02
       170   3 -6.119785E+05 -1.361217E+05 -1.751316E+05  8.447446E+03  1.130696E+05  2.548970E+02
       170   4 -5.741039E+05  4.070512E+03 -4.649541E+04 -1.709633E+02  3.574427E+04  2.604198E+02
       170   5 -5.487526E+05  3.014474E+04 -7.063973E+04 -1.170581E+03  7.439363E+04  3.840853E+02
       170   6 -5.741371E+05 -1.266852E+05 -1.656763E+05  1.070554E+01  1.130444E+05  2.533168E+02
       170   7 -5.373254E+05  1.328534E+04 -3.730421E+04  4.076006E+03  3.576381E+04  2.606930E+02
       170   8 -5.114453E+05  3.946558E+04 -6.132582E+04 -3.265775E+03  7.439081E+04  3.838238E+02
       170   9 -5.362942E+05 -1.172485E+05 -1.562211E+05 -8.426550E+03  1.130193E+05  2.517373E+02
       170  10 -6.108825E+05 -5.144694E+03 -5.568910E+04 -4.417688E+03  3.187118E-09  4.813210E-10
       170  11 -5.860645E+05  2.082234E+04 -7.996416E+04  9.244639E+02 -1.190679E-08 -1.131788E-09
       170  12 -6.119923E+05 -1.361252E+05 -1.751557E+05  8.447423E+03 -3.024208E-09  3.612712E-10
       170  13 -5.741053E+05  4.070169E+03 -4.649781E+04 -1.709708E+02 -3.876832E-10  2.934175E-09
       170  14 -5.487585E+05  3.014326E+04 -7.065014E+04 -1.170604E+03 -5.660830E-09 -2.610975E-09
       170  15 -5.741508E+05 -1.266886E+05 -1.657004E+05  1.068247E+01 -7.603391E-09  2.516846E-09
       170  16 -5.373268E+05  1.328500E+04 -3.730661E+04  4.075998E+03  7.867354E-11  1.562155E-09
       170  17 -5.114513E+05  3.946409E+04 -6.133622E+04 -3.265798E+03  4.077758E-09  2.838898E-09
       170  18 -5.363079E+05 -1.172519E+05 -1.562451E+05 -8.426573E+03  1.779596E-09  8.677314E-10
       170  19 -6.108812E+05 -5.144350E+03 -5.568670E+04 -4.417681E+03 -3.572472E+04 -2.601470E+02
       170  20 -5.860585E+05  2.082382E+04 -7.995375E+04  9.244869E+02 -7.439646E+04 -3.843469E+02
       170  21 -6.119785E+05 -1.361217E+05 -1.751316E+05  8.447446E+03 -1.130696E+05 -2.548970E+02
       170  22 -5.741039E+05  4.070512E+03 -4.649541E+04 -1.709633E+02 -3.574427E+04 -2.604198E+02
       170  23 -5.487526E+05  3.014474E+04 -7.063973E+04 -1.170581E+03 -7.439363E+04 -3.840853E+02
       170  24 -5.741371E+05 -1.266852E+05 -1.656763E+05  1.070554E+01 -1.130444E+05 -2.533168E+02
       170  25 -5.373254E+05  1.328534E+04 -3.730421E+04  4.076006E+03 -3.576381E+04 -2.606930E+02
       170  26 -5.114453E+05  3.946558E+04 -6.132582E+04 -3.265775E+03 -7.439081E+04 -3.838238E+02
       170  27 -5.362942E+05 -1.172485E+05 -1.562211E+05 -8.426550E+03 -1.130193E+05 -2.517373E+02
       171   1  1.928968E+05  1.095794E+06  2.039201E+05 -9.084445E+04  6.099062E+03  5.837792E+04
       171   2  1.033772E+05  9.746893E+05  1.347478E+05 -4.722094E+04  1.774027E+04  2.835912E+04
       171   3  7.681656E+04  8.732362E+05  1.008375E+05 -5.761981E+04  1.474677E+04 -1.663023E+03
       171   4  5.725436E+04  5.503840E+05  7.075862E+04 -6.582278E+04  6.109908E+03  4.379009E+04
       171   5 -3.051896E+03  5.415527E+05  3.543653E+04 -3.883052E+04  1.774386E+04  2.504031E+04
       171   6 -2.328284E+03  5.504248E+05  2.757706E+04 -6.585985E+04  1.474017E+04  6.281696E+03
       171   7 -7.840756E+04  5.247006E+03 -6.242342E+04 -4.082306E+04  6.119587E+03  2.921501E+04
       171   8 -1.094938E+05  1.085898E+05 -6.388698E+04 -3.044596E+04  1.774736E+04  2.172380E+04
       171   9 -8.148002E+04  2.277103E+05 -4.568986E+04 -7.409554E+04  1.473335E+04  1.422233E+04
       171  10  1.928958E+05  1.095790E+06  2.039137E+05 -9.084474E+04  1.187156E-09 -2.699113E-09
       171  11  1.033766E+05  9.746883E+05  1.347457E+05 -4.722135E+04 -2.665831E-09 -4.217483E-09
       171  12  7.681633E+04  8.732361E+05  1.008371E+05 -5.761979E+04 -3.553648E-09 -2.021521E-09
       171  13  5.725381E+04  5.503820E+05  7.075495E+04 -6.582300E+04 -5.855581E-10 -6.322387E-10
       171  14 -3.052402E+03  5.415519E+05  3.543477E+04 -3.883088E+04 -3.646344E-09  1.660704E-10
       171  15 -2.328528E+03  5.504247E+05  2.757658E+04 -6.585992E+04 -4.173728E-09 -1.046100E-10
       171  16 -7.840783E+04  5.246079E+03 -6.242509E+04 -4.082321E+04 -9.867056E-10  3.545913E-09
       171  17 -1.094942E+05  1.085892E+05 -6.388846E+04 -3.044627E+04 -1.858447E-10  3.915864E-09
       171  18 -8.148031E+04  2.277100E+05 -4.569065E+04 -7.409571E+04  1.771838E-09  1.385599E-09
       171  19  1.928968E+05  1.095794E+06  2.039201E+05 -9.084445E+04 -6.099062E+03 -5.837792E+04
       171  20  1.033772E+05  9.746893E+05  1.347478E+05 -4.722094E+04 -1.774027E+04 -2.835912E+04
       171  21  7.681656E+04  8.732362E+05  1.008375E+05 -5.761981E+04 -1.474677E+04  1.663023E+03
       171  22  5.725436E+04  5.503840E+05  7.075862E+04 -6.582278E+04 -6.109908E+03 -4.379009E+04
       171  23 -3.051896E+03  5.415527E+05  3.543653E+04 -3.883052E+04 -1.774386E+04 -2.504031E+04
       171  24 -2.328284E+03  5.504248E+05  2.757706E+04 -6.585985E+04 -1.474017E+04 -6.281696E+03
       171  25 -7.840756E+04  5.247006E+03 -6.242342E+04 -4.082306E+04 -6.119587E+03 -2.921501E+04
       171  26 -1.094938E+05  1.085898E+05 -6.388698E+04 -3.044596E+04 -1.774736E+04 -2.172380E+04
       171  27 -8.148002E+04  2.277103E+05 -4.568986E+04 -7.409554E+04 -1.473335E+04 -1.422233E+04
       172   1  5.778263E+04  7.691011E+05  7.726908E+04 -6.930749E+04  9.773959E+03 -1.859884E+03
       172   2  2.617906E+04  6.553942E+05  5.401389E+04 -3.826261E+04  5.001060E+03 -1.665958E+04
       172   3  1.029340E+04  5.474382E+05  4.428990E+04 -6.162336E+04 -2.434726E+01 -3.145789E+04
       172   4  3.460290E+03  5.477690E+05  2.686260E+04 -6.593524E+04  9.770737E+03  1.722129E+03
       172   5 -9.216647E+02  5.449181E+05  2.890623E+04 -3.872900E+04  4.997409E+03 -1.288107E+04
       172   6  1.038225E+04  5.477725E+05  4.434645E+04 -6.592829E+04 -2.830942E+01 -2.748545E+04
       172   7 -5.086539E+04  3.264823E+05 -2.354703E+04 -6.256418E+04  9.767553E+03  5.302878E+03
       172   8 -2.802322E+04  4.344533E+05  3.797838E+03 -3.919530E+04  4.993752E+03 -9.103219E+03
       172   9  1.047117E+04  5.481068E+05  4.440306E+04 -7.023322E+04 -3.232661E+01 -2.351301E+04
       172  10  5.778252E+04  7.691011E+05  7.726890E+04 -6.930748E+04 -7.962112E-10  3.252271E-09
       172  11  2.617896E+04  6.553939E+05  5.401332E+04 -3.826254E+04 -2.894904E-09  9.326758E-10
       172  12  1.029313E+04  5.474372E+05  4.428805E+04 -6.162336E+04 -3.791511E-09 -2.232927E-09
       172  13  3.460187E+03  5.477690E+05  2.686241E+04 -6.593525E+04 -6.009263E-10 -8.976429E-10
       172  14 -9.217360E+02  5.449179E+05  2.890587E+04 -3.872895E+04 -2.184214E-09  1.561797E-11
       172  15  1.038204E+04  5.477717E+05  4.434503E+04 -6.592829E+04 -6.357201E-09 -3.975954E-10
       172  16 -5.086550E+04  3.264823E+05 -2.354726E+04 -6.256423E+04  2.546479E-09 -1.815394E-09
       172  17 -2.802327E+04  4.344532E+05  3.797636E+03 -3.919527E+04 -4.086421E-09 -1.996524E-09
       172  18  1.047102E+04  5.481062E+05  4.440203E+04 -7.023322E+04 -4.638986E-09  1.399341E-09
       172  19  5.778263E+04  7.691011E+05  7.726908E+04 -6.930749E+04 -9.773959E+03  1.859884E+03
       172  20  2.617906E+04  6.553942E+05  5.401389E+04 -3.826261E+04 -5.001060E+03  1.665958E+04
       172  21  1.029340E+04  5.474382E+05  4.428990E+04 -6.162336E+04  2.434726E+01  3.145789E+04
       172  22  3.460290E+03  5.477690E+05  2.686260E+04 -6.593524E+04 -9.770737E+03 -1.722129E+03
       172  23 -9.216647E+02  5.449181E+05  2.890623E+04 -3.872900E+04 -4.997409E+03  1.288107E+04
       172  24  1.038225E+04  5.477725E+05  4.434645E+04 -6.592829E+04  2.830942E+01  2.748545E+04
       172  25 -5.086539E+04  3.264823E+05 -2.354703E+04 -6.256418E+04 -9.767553E+03 -5.302878E+03
       172  26 -2.802322E+04  4.344533E+05  3.797838E+03 -3.919530E+04 -4.993752E+03  9.103219E+03
       172  27  1.047117E+04  5.481068E+05  4.440306E+04 -7.023322E+04  3.232661E+01  2.351301E+04
       173   1 -3.272095E+04  4.550633E+05  2.996176E+04 -8.823252E+04 -4.406944E+03 -4.202424E+04
       173   2 -6.003167E+04  3.219170E+05  3.604485E+04 -1.734936E+04 -8.357194E+03 -8.012372E+04
       173   3  7.117460E+04  2.332911E+05  1.065419E+05 -5.136254E+02 -3.144209E+03 -1.182071E+05
       173   4 -7.837339E+03  5.566665E+05  5.311031E+04 -6.589119E+04 -4.415253E+03 -3.544713E+04
       173   5 -7.882515E+03  5.337893E+05  8.478082E+04 -3.880148E+04 -8.353797E+03 -8.060508E+04
       173   6  1.517750E+05  5.566149E+05  1.857431E+05 -6.575162E+04 -3.125136E+03 -1.257539E+05
       173   7  1.704746E+04  6.582805E+05  7.625863E+04 -4.354618E+04 -4.423088E+03 -2.886895E+04
       173   8  4.426523E+04  7.457041E+05  1.335141E+05 -6.026096E+04 -8.350367E+03 -8.108659E+04
       173   9  2.323837E+05  8.800430E+05  2.649392E+05 -1.310236E+05 -3.104486E+03 -1.333047E+05
       173  10 -3.272144E+04  4.550614E+05  2.995840E+04 -8.823267E+04 -3.486509E-09  1.463487E-10
       173  11 -6.003347E+04  3.219101E+05  3.603266E+04 -1.734990E+04  6.471422E-09 -2.717401E-09
       173  12  7.117084E+04  2.332761E+05  1.065156E+05 -5.139247E+02  6.344239E-09 -3.362135E-09
       173  13 -7.837697E+03  5.566652E+05  5.310792E+04 -6.589132E+04 -8.469181E-09 -9.646874E-10
       173  14 -7.884332E+03  5.337823E+05  8.476849E+04 -3.880202E+04 -7.128792E-10 -2.295991E-10
       173  15  1.517708E+05  5.565979E+05  1.857134E+05 -6.575194E+04  2.755389E-09 -1.328448E-10
       173  16  1.704722E+04  6.582796E+05  7.625703E+04 -4.354628E+04  5.128503E-09  1.257379E-09
       173  17  4.426339E+04  7.456970E+05  1.335016E+05 -6.026150E+04  4.556849E-09  2.051675E-09
       173  18  2.323789E+05  8.800239E+05  2.649059E+05 -1.310240E+05  3.547396E-09  3.026673E-09
       173  19 -3.272095E+04  4.550633E+05  2.996176E+04 -8.823252E+04  4.406944E+03  4.202424E+04
       173  20 -6.003167E+04  3.219170E+05  3.604485E+04 -1.734936E+04  8.357194E+03  8.012372E+04
       173  21  7.117460E+04  2.332911E+05  1.065419E+05 -5.136254E+02  3.144209E+03  1.182071E+05
       173  22 -7.837339E+03  5.566665E+05  5.311031E+04 -6.589119E+04  4.415253E+03  3.544713E+04
       173  23 -7.882515E+03  5.337893E+05  8.478082E+04 -3.880148E+04  8.353797E+03  8.060508E+04
       173  24  1.517750E+05  5.566149E+05  1.857431E+05 -6.575162E+04  3.125136E+03  1.257539E+05
       173  25  1.704746E+04  6.582805E+05  7.625863E+04 -4.354618E+04  4.423088E+03  2.886895E+04
       173  26  4.426523E+04  7.457041E+05  1.335141E+05 -6.026096E+04  8.350367E+03  8.108659E+04
       173  27  2.323837E+05  8.800430E+05  2.649392E+05 -1.310236E+05  3.104486E+03  1.333047E+05
       174   1 -4.954314E+04 -2.992927E+04 -5.104284E+04 -8.805439E+03 -6.253400E+04 -1.288928E+03
       174   2 -4.700835E+04  5.393899E+04 -1.235510E+03 -4.463665E+03 -4.155290E+04 -3.558725E+03
       174   3 -7.166416E+04  3.987543E+04  1.043848E+04  1.317607E+04 -2.057658E+04 -2.968875E+03
       174   4 -2.193027E+05 -7.227539E+04 -9.323534E+04  6.074597E+03 -6.368523E+04 -1.292082E+03
       174   5 -2.056233E+05  1.443743E+04 -4.018227E+04 -6.283713E+02 -4.181753E+04 -3.559463E+03
       174   6 -2.192960E+05  3.050511E+03 -2.588581E+04  5.966812E+03 -1.995419E+04 -2.967622E+03
       174   7 -3.890357E+05 -1.146228E+05 -1.354299E+05  2.095055E+04 -6.483615E+04 -1.295292E+03
       174   8 -3.642153E+05 -2.506595E+04 -7.913086E+04  3.205932E+03 -4.208209E+04 -3.560203E+03
       174   9 -3.669079E+05 -3.377584E+04 -6.221168E+04 -1.240734E+03 -1.933195E+04 -2.966383E+03
       174  10 -4.954734E+04 -2.993032E+04 -5.105020E+04 -8.805504E+03 -4.832921E-09  5.300226E-10
       174  11 -4.701021E+04  5.393852E+04 -1.238779E+03 -4.463784E+03 -1.290456E-08  6.514122E-09
       174  12 -7.166461E+04  3.987531E+04  1.043767E+04  1.317602E+04  1.819075E-09  4.397296E-09
       174  13 -2.193071E+05 -7.227649E+04 -9.324297E+04  6.074531E+03 -3.411203E-09 -1.379040E-09
       174  14 -2.056252E+05  1.443694E+04 -4.018558E+04 -6.284912E+02 -8.258725E-09 -3.662904E-09
       174  15 -2.192964E+05  3.050395E+03 -2.588658E+04  5.966764E+03 -4.756393E-09  1.916654E-09
       174  16 -3.890402E+05 -1.146240E+05 -1.354378E+05  2.095049E+04  1.802408E-09  1.161786E-09
       174  17 -3.642172E+05 -2.506644E+04 -7.913422E+04  3.205811E+03 -1.453457E-09  4.285767E-09
       174  18 -3.669083E+05 -3.377595E+04 -6.221240E+04 -1.240780E+03 -3.174135E-09  3.915379E-10
       174  19 -4.954314E+04 -2.992927E+04 -5.104284E+04 -8.805439E+03  6.253400E+04  1.288928E+03
       174  20 -4.700835E+04  5.393899E+04 -1.235510E+03 -4.463665E+03  4.155290E+04  3.558725E+03
       174  21 -7.166416E+04  3.987543E+04  1.043848E+04  1.317607E+04  2.057658E+04  2.968875E+03
       174  22 -2.193027E+05 -7.227539E+04 -9.323534E+04  6.074597E+03  6.368523E+04  1.292082E+03
       174  23 -2.056233E+05  1.443743E+04 -4.018227E+04 -6.283713E+02  4.181753E+04  3.559463E+03
       174  24 -2.192960E+05  3.050511E+03 -2.588581E+04  5.966812E+03  1.995419E+04  2.967622E+03
       174  25 -3.890357E+05 -1.146228E+05 -1.354299E+05  2.095055E+04  6.483615E+04  1.295292E+03
       174  26 -3.642153E+05 -2.506595E+04 -7.913086E+04  3.205932E+03  4.208209E+04  3.560203E+03
       174  27 -3.669079E+05 -3.377584E+04 -6.221168E+04 -1.240734E+03  1.933195E+04  2.966383E+03
       175   1 -9.512102E+04  2.002619E+04  7.971310E+03  4.344011E+03 -1.574892E+04 -2.301816E+03
       175   2 -1.043718E+05  2.878340E+04  1.605658E+04 -1.015226E+03 -1.043038E+04 -2.211219E+03
       175   3 -1.176090E+05  2.448319E+04  1.740896E+04  7.164102E+03 -5.112727E+03 -1.782237E+03
       175   4 -2.141075E+05 -9.625053E+03 -2.131705E+04  6.069173E+03 -1.577438E+04 -2.301937E+03
       175   5 -2.121041E+05  1.936608E+03 -1.043568E+04 -7.092695E+02 -1.035122E+04 -2.211102E+03
       175   6 -2.141063E+05  4.213480E+02 -6.360838E+03  6.051047E+03 -4.928856E+03 -1.781880E+03
       175   7 -3.330811E+05 -3.927734E+04 -5.060644E+04  7.793998E+03 -1.579985E+04 -2.302059E+03
       175   8 -3.198258E+05 -2.491105E+04 -3.692878E+04 -4.033713E+02 -1.027208E+04 -2.210984E+03
       175   9 -3.105951E+05 -2.364118E+04 -3.013133E+04  4.938162E+03 -4.745014E+03 -1.781523E+03
       175  10 -9.512129E+04  2.002612E+04  7.970834E+03  4.343982E+03 -5.772246E-10  1.455480E-09
       175  11 -1.043720E+05  2.878337E+04  1.605636E+04 -1.015245E+03  4.816629E-09  2.881582E-09
       175  12 -1.176090E+05  2.448318E+04  1.740891E+04  7.164094E+03  1.510162E-09  2.963874E-09
       175  13 -2.141078E+05 -9.625125E+03 -2.131752E+04  6.069144E+03 -7.818795E-09  6.631725E-09
       175  14 -2.121042E+05  1.936574E+03 -1.043589E+04 -7.092880E+02 -1.891188E-08 -1.080252E-08
       175  15 -2.141063E+05  4.213381E+02 -6.360889E+03  6.051040E+03 -3.284871E-09  4.587088E-09
       175  16 -3.330814E+05 -3.927741E+04 -5.060692E+04  7.793969E+03 -4.226124E-09 -5.463539E-09
       175  17 -3.198259E+05 -2.491108E+04 -3.692899E+04 -4.033896E+02 -5.902345E-09 -4.276898E-09
       175  18 -3.105951E+05 -2.364119E+04 -3.013137E+04  4.938155E+03 -4.864882E-09 -4.848774E-10
       175  19 -9.512102E+04  2.002619E+04  7.971310E+03  4.344011E+03  1.574892E+04  2.301816E+03
       175  20 -1.043718E+05  2.878340E+04  1.605658E+04 -1.015226E+03  1.043038E+04  2.211219E+03
       175  21 -1.176090E+05  2.448319E+04  1.740896E+04  7.164102E+03  5.112727E+03  1.782237E+03
       175  22 -2.141075E+05 -9.625053E+03 -2.131705E+04  6.069173E+03  1.577438E+04  2.301937E+03
       175  23 -2.121041E+05  1.936608E+03 -1.043568E+04 -7.092695E+02  1.035122E+04  2.211102E+03
       175  24 -2.141063E+05  4.213480E+02 -6.360838E+03  6.051047E+03  4.928856E+03  1.781880E+03
       175  25 -3.330811E+05 -3.927734E+04 -5.060644E+04  7.793998E+03  1.579985E+04  2.302059E+03
       175  26 -3.198258E+05 -2.491105E+04 -3.692878E+04 -4.033713E+02  1.027208E+04  2.210984E+03
       175  27 -3.105951E+05 -2.364118E+04 -3.013133E+04  4.938162E+03  4.745014E+03  1.781523E+03
       176   1 -1.460098E+05  1.552686E+04  1.149308E+04  5.980322E+03 -4.016323E+03 -1.496383E+03
       176   2 -1.570578E+05  1.420837E+04  1.111529E+04 -7.110968E+02 -2.683961E+03 -1.129040E+03
       176   3 -1.687641E+05  1.120117E+04  9.434774E+03  6.301255E+03 -1.351755E+03 -7.203539E+02
       176   4 -2.133616E+05 -1.253112E+03 -5.045771E+03  6.095650E+03 -3.908760E+03 -1.496175E+03
       176   5 -2.130313E+05  2.577982E+02 -2.652739E+03 -7.576390E+02 -2.563635E+03 -1.128795E+03
       176   6 -2.133614E+05  7.772557E+01 -1.571355E+03  6.092921E+03 -1.218642E+03 -7.200706E+02
       176   7 -2.807094E+05 -1.803342E+04 -2.158495E+04  6.210963E+03 -3.801208E+03 -1.495967E+03
       176   8 -2.690019E+05 -1.369301E+04 -1.642100E+04 -8.041785E+02 -2.443320E+03 -1.128550E+03
       176   9 -2.579570E+05 -1.104587E+04 -1.257763E+04  5.884601E+03 -1.085538E+03 -7.197874E+02
       176  10 -1.460098E+05  1.552685E+04  1.149304E+04  5.980317E+03 -4.803236E-09 -3.944006E-09
       176  11 -1.570579E+05  1.420837E+04  1.111527E+04 -7.110992E+02 -2.839712E-09 -2.824148E-09
       176  12 -1.687641E+05  1.120117E+04  9.434769E+03  6.301254E+03 -2.642498E-09 -4.499045E-09
       176  13 -2.133617E+05 -1.253118E+03 -5.045804E+03  6.095645E+03  1.088079E-09  9.765011E-10
       176  14 -2.130313E+05  2.577951E+02 -2.652754E+03 -7.576413E+02  8.714993E-11 -3.371878E-09
       176  15 -2.133614E+05  7.772461E+01 -1.571359E+03  6.092920E+03  7.286127E-09 -2.663939E-09
       176  16 -2.807094E+05 -1.803342E+04 -2.158498E+04  6.210958E+03  9.232086E-10 -4.233911E-09
       176  17 -2.690019E+05 -1.369301E+04 -1.642101E+04 -8.041807E+02 -3.824956E-09  1.245066E-09
       176  18 -2.579570E+05 -1.104587E+04 -1.257763E+04  5.884600E+03  3.572175E-09  3.040232E-09
       176  19 -1.460098E+05  1.552686E+04  1.149308E+04  5.980322E+03  4.016323E+03  1.496383E+03
       176  20 -1.570578E+05  1.420837E+04  1.111529E+04 -7.110968E+02  2.683961E+03  1.129040E+03
       176  21 -1.687641E+05  1.120117E+04  9.434774E+03  6.301255E+03  1.351755E+03  7.203539E+02
       176  22 -2.133616E+05 -1.253112E+03 -5.045771E+03  6.095650E+03  3.908760E+03  1.496175E+03
       176  23 -2.130313E+05  2.577982E+02 -2.652739E+03 -7.576390E+02  2.563635E+03  1.128795E+03
       176  24 -2.133614E+05  7.772557E+01 -1.571355E+03  6.092921E+03  1.218642E+03  7.200706E+02
       176  25 -2.807094E+05 -1.803342E+04 -2.158495E+04  6.210963E+03  3.801208E+03  1.495967E+03
       176  26 -2.690019E+05 -1.369301E+04 -1.642100E+04 -8.041785E+02  2.443320E+03  1.128550E+03
       176  27 -2.579570E+05 -1.104587E+04 -1.257763E+04  5.884601E+03  1.085538E+03  7.197874E+02
       177   1 -1.980510E+05  3.641406E+03  2.482849E+03  6.111335E+03 -1.092067E+03 -4.782734E+02
       177   2 -2.093987E+05  9.727421E+02  2.579824E+02 -7.690901E+02 -7.587712E+02 -7.746949E+01
       177   3 -2.209073E+05 -1.869085E+03 -2.242676E+03  6.114614E+03 -4.254950E+02  3.273829E+02
       177   4 -2.132500E+05 -1.398223E+02 -1.221084E+03  6.107477E+03 -9.678934E+02 -4.780050E+02
       177   5 -2.131693E+05  3.293251E+01 -6.694947E+02 -7.747770E+02 -6.333446E+02 -7.719787E+01
       177   6 -2.132500E+05  3.231261E+01 -3.945686E+02  6.107104E+03 -2.988090E+02  3.276582E+02
       177   7 -2.284488E+05 -3.921068E+03 -4.925034E+03  6.103619E+03 -8.437231E+02 -4.777367E+02
       177   8 -2.169399E+05 -9.068781E+02 -1.596973E+03 -7.804639E+02 -5.079188E+02 -7.692625E+01
       177   9 -2.055925E+05  1.933706E+03  1.453535E+03  6.099593E+03 -1.721215E+02  3.279335E+02
       177  10 -1.980510E+05  3.641406E+03  2.482846E+03  6.111335E+03 -2.937303E-09 -7.063102E-09
       177  11 -2.093987E+05  9.727420E+02  2.579813E+02 -7.690902E+02 -9.133056E-09  2.970919E-10
       177  12 -2.209073E+05 -1.869085E+03 -2.242677E+03  6.114615E+03 -7.753890E-09 -2.979605E-09
       177  13 -2.132500E+05 -1.398228E+02 -1.221086E+03  6.107477E+03  9.787752E-09 -1.760656E-10
       177  14 -2.131693E+05  3.293240E+01 -6.694954E+02 -7.747771E+02  8.771186E-09 -2.243540E-09
       177  15 -2.132500E+05  3.231248E+01 -3.945690E+02  6.107104E+03 -5.653123E-09 -2.712068E-09
       177  16 -2.284488E+05 -3.921068E+03 -4.925036E+03  6.103619E+03  4.476787E-09  1.795690E-09
       177  17 -2.169399E+05 -9.068782E+02 -1.596973E+03 -7.804640E+02  1.283614E-10  8.602175E-09
       177  18 -2.055925E+05  1.933705E+03  1.453534E+03  6.099594E+03  1.235120E-08  4.002472E-09
       177  19 -1.980510E+05  3.641406E+03  2.482849E+03  6.111335E+03  1.092067E+03  4.782734E+02
       177  20 -2.093987E+05  9.727421E+02  2.579824E+02 -7.690901E+02  7.587712E+02  7.746949E+01
       177  21 -2.209073E+05 -1.869085E+03 -2.242676E+03  6.114614E+03  4.254950E+02 -3.273829E+02
       177  22 -2.132500E+05 -1.398223E+02 -1.221084E+03  6.107477E+03  9.678934E+02  4.780050E+02
       177  23 -2.131693E+05  3.293251E+01 -6.694947E+02 -7.747770E+02  6.333446E+02  7.719787E+01
       177  24 -2.132500E+05  3.231262E+01 -3.945686E+02  6.107104E+03  2.988090E+02 -3.276582E+02
       177  25 -2.284488E+05 -3.921068E+03 -4.925034E+03  6.103619E+03  8.437231E+02  4.777367E+02
       177  26 -2.169399E+05 -9.068781E+02 -1.596973E+03 -7.804639E+02  5.079188E+02  7.692625E+01
       177  27 -2.055925E+05  1.933706E+03  1.453535E+03  6.099593E+03  1.721215E+02 -3.279335E+02
       178   1 -2.503021E+05 -9.240849E+03 -9.460803E+03  6.035433E+03 -3.632727E+02  5.647568E+02
       178   2 -2.616544E+05 -1.207610E+04 -1.210128E+04 -8.372175E+02 -2.723935E+02  9.688563E+02
       178   3 -2.730786E+05 -1.489026E+04 -1.480929E+04  6.007977E+03 -1.814433E+02  1.365805E+03
       178   4 -2.132304E+05  6.661527E+00 -3.053284E+02  6.096951E+03 -2.361893E+02  5.650295E+02
       178   5 -2.131946E+05  2.906181E+00 -1.799657E+02 -7.619535E+02 -1.475380E+02  9.691149E+02
       178   6 -2.132304E+05  2.058622E+01 -1.206181E+02  6.096921E+03 -5.881405E+01  1.366050E+03
       178   7 -1.761575E+05  9.254069E+03  8.850044E+03  6.158472E+03 -1.090984E+02  5.653021E+02
       178   8 -1.647325E+05  1.208173E+04  1.174118E+04 -6.866848E+02 -2.267286E+01  9.693735E+02
       178   9 -1.533789E+05  1.493117E+04  1.456779E+04  6.185871E+03  6.382698E+01  1.366295E+03
       178  10 -2.503021E+05 -9.240849E+03 -9.460804E+03  6.035433E+03 -9.192302E-09 -6.252254E-10
       178  11 -2.616544E+05 -1.207610E+04 -1.210128E+04 -8.372173E+02 -5.415019E-09 -2.449536E-09
       178  12 -2.730786E+05 -1.489026E+04 -1.480929E+04  6.007978E+03 -3.008772E-09 -2.893728E-09
       178  13 -2.132304E+05  6.661169E+00 -3.053291E+02  6.096951E+03  9.929723E-10  2.568334E-09
       178  14 -2.131946E+05  2.905167E+00 -1.799675E+02 -7.619534E+02 -6.462594E-09 -2.531798E-09
       178  15 -2.132304E+05  2.058422E+01 -1.206216E+02  6.096921E+03 -1.414594E-09 -3.497348E-09
       178  16 -1.761575E+05  9.254069E+03  8.850044E+03  6.158472E+03  6.195696E-09  1.648184E-09
       178  17 -1.647325E+05  1.208173E+04  1.174117E+04 -6.866848E+02 -2.024599E-09 -8.353826E-09
       178  18 -1.533789E+05  1.493117E+04  1.456778E+04  6.185870E+03 -3.406271E-09 -4.749571E-09
       178  19 -2.503021E+05 -9.240849E+03 -9.460803E+03  6.035433E+03  3.632727E+02 -5.647568E+02
       178  20 -2.616544E+05 -1.207610E+04 -1.210128E+04 -8.372175E+02  2.723935E+02 -9.688563E+02
       178  21 -2.730786E+05 -1.489026E+04 -1.480929E+04  6.007977E+03  1.814433E+02 -1.365805E+03
       178  22 -2.132304E+05  6.661527E+00 -3.053284E+02  6.096951E+03  2.361893E+02 -5.650295E+02
       178  23 -2.131946E+05  2.906181E+00 -1.799657E+02 -7.619535E+02  1.475380E+02 -9.691149E+02
       178  24 -2.132304E+05  2.058622E+01 -1.206181E+02  6.096921E+03  5.881405E+01 -1.366050E+03
       178  25 -1.761575E+05  9.254069E+03  8.850044E+03  6.158472E+03  1.090984E+02 -5.653021E+02
       178  26 -1.647325E+05  1.208173E+04  1.174118E+04 -6.866848E+02  2.267286E+01 -9.693735E+02
       178  27 -1.533789E+05  1.493117E+04  1.456779E+04  6.185871E+03 -6.382698E+01 -1.366295E+03
       179   1 -3.022683E+05 -2.217797E+04 -2.204399E+04  5.923155E+03 -1.732439E+02  1.607101E+03
       179   2 -3.135078E+05 -2.499992E+04 -2.477072E+04 -8.609224E+02 -1.100504E+02  2.010623E+03
       179   3 -3.247890E+05 -2.781189E+04 -2.754374E+04  5.914352E+03 -4.664030E+01  2.362085E+03
       179   4 -2.132244E+05  2.452689E+01 -1.029955E+02  6.061672E+03 -3.931888E+01  1.607358E+03
       179   5 -2.132050E+05  1.890796E+00 -9.594190E+01 -7.179058E+02  7.644597E+00  2.010829E+03
       179   6 -2.132243E+05 -7.883178E+00 -1.238450E+02  6.061732E+03  5.482567E+01  2.362243E+03
       179   7 -1.241733E+05  2.222643E+04  2.183742E+04  6.200204E+03  9.462531E+01  1.607615E+03
       179   8 -1.128930E+05  2.500295E+04  2.457810E+04 -5.748705E+02  1.253586E+02  2.011034E+03
       179   9 -1.016483E+05  2.779519E+04  2.729513E+04  6.209134E+03  1.563099E+02  2.362402E+03
       179  10 -3.022683E+05 -2.217797E+04 -2.204400E+04  5.923156E+03 -3.379865E-09 -3.670721E-09
       179  11 -3.135078E+05 -2.499992E+04 -2.477073E+04 -8.609222E+02 -2.113976E-09 -5.064964E-09
       179  12 -3.247890E+05 -2.781189E+04 -2.754375E+04  5.914352E+03  1.171969E-09 -4.589288E-09
       179  13 -2.132244E+05  2.452411E+01 -1.030003E+02  6.061672E+03 -3.231486E-09 -3.697734E-09
       179  14 -2.132050E+05  1.886454E+00 -9.594949E+01 -7.179058E+02 -6.468752E-09 -3.104608E-09
       179  15 -2.132243E+05 -7.889170E+00 -1.238555E+02  6.061732E+03 -3.157195E-09 -2.981718E-09
       179  16 -1.241733E+05  2.222643E+04  2.183741E+04  6.200204E+03  8.955589E-09  3.148816E-09
       179  17 -1.128930E+05  2.500295E+04  2.457809E+04 -5.748707E+02 -6.278276E-09 -5.212542E-10
       179  18 -1.016483E+05  2.779519E+04  2.729512E+04  6.209133E+03 -4.558403E-09  3.565815E-09
       179  19 -3.022683E+05 -2.217797E+04 -2.204399E+04  5.923155E+03  1.732439E+02 -1.607101E+03
       179  20 -3.135078E+05 -2.499992E+04 -2.477072E+04 -8.609224E+02  1.100504E+02 -2.010623E+03
       179  21 -3.247890E+05 -2.781189E+04 -2.754374E+04  5.914352E+03  4.664030E+01 -2.362085E+03
       179  22 -2.132244E+05  2.452689E+01 -1.029955E+02  6.061672E+03  3.931888E+01 -1.607358E+03
       179  23 -2.132050E+05  1.890796E+00 -9.594190E+01 -7.179058E+02 -7.644597E+00 -2.010829E+03
       179  24 -2.132243E+05 -7.883178E+00 -1.238450E+02  6.061732E+03 -5.482567E+01 -2.362243E+03
       179  25 -1.241733E+05  2.222643E+04  2.183742E+04  6.200204E+03 -9.462531E+01 -1.607615E+03
       179  26 -1.128930E+05  2.500295E+04  2.457810E+04 -5.748705E+02 -1.253586E+02 -2.011034E+03
       179  27 -1.016483E+05  2.779519E+04  2.729513E+04  6.209134E+03 -1.563099E+02 -2.362402E+03
       180   1 -3.535395E+05 -3.495182E+04 -3.469105E+04  5.796140E+03 -1.175954E+02  2.654094E+03
       180   2 -3.645446E+05 -3.769140E+04 -3.744633E+04 -8.164106E+02  1.254218E+02  3.072604E+03
       180   3 -3.756275E+05 -4.066925E+04 -4.041700E+04  5.863087E+03  3.692261E+02  3.075786E+03
       180   4 -2.132303E+05  2.941647E+01 -1.415342E+02  6.002171E+03  7.756454E+01  2.654399E+03
       180   5 -2.132026E+05  3.203575E+01 -2.224165E+02 -6.435944E+02  1.910859E+02  3.072662E+03
       180   6 -2.132302E+05 -1.810765E+02 -4.286941E+02  6.002488E+03  3.053987E+02  3.075641E+03
       180   7 -7.290320E+04  3.500918E+04  3.440652E+04  6.208240E+03  2.727685E+02  2.654705E+03
       180   8 -6.183967E+04  3.775377E+04  3.699981E+04 -4.707443E+02  2.567660E+02  3.072719E+03
       180   9 -5.080880E+04  4.030514E+04  3.955767E+04  6.141916E+03  2.415546E+02  3.075496E+03
       180  10 -3.535395E+05 -3.495182E+04 -3.469106E+04  5.796141E+03  4.183648E-09 -2.077151E-09
       180  11 -3.645446E+05 -3.769141E+04 -3.744635E+04 -8.164109E+02 -2.350989E-09  5.224010E-09
       180  12 -3.756275E+05 -4.066926E+04 -4.041702E+04  5.863086E+03  3.771992E-09 -4.591083E-09
       180  13 -2.132303E+05  2.940891E+01 -1.415475E+02  6.002171E+03 -3.215871E-09 -7.154129E-09
       180  14 -2.132026E+05  3.202561E+01 -2.224343E+02 -6.435949E+02 -2.315537E-10  2.863679E-09
       180  15 -2.132302E+05 -1.810867E+02 -4.287121E+02  6.002487E+03  5.099947E-10  1.227684E-09
       180  16 -7.290321E+04  3.500918E+04  3.440651E+04  6.208240E+03  3.796360E-10 -3.285120E-09
       180  17 -6.183967E+04  3.775376E+04  3.699979E+04 -4.707450E+02  3.081628E-09 -6.970551E-09
       180  18 -5.080881E+04  4.030513E+04  3.955765E+04  6.141915E+03 -8.433832E-09 -3.098880E-10
       180  19 -3.535395E+05 -3.495182E+04 -3.469105E+04  5.796140E+03  1.175954E+02 -2.654094E+03
       180  20 -3.645446E+05 -3.769140E+04 -3.744633E+04 -8.164106E+02 -1.254218E+02 -3.072604E+03
       180  21 -3.756275E+05 -4.066925E+04 -4.041700E+04  5.863087E+03 -3.692261E+02 -3.075786E+03
       180  22 -2.132303E+05  2.941647E+01 -1.415342E+02  6.002171E+03 -7.756454E+01 -2.654399E+03
       180  23 -2.132026E+05  3.203575E+01 -2.224165E+02 -6.435944E+02 -1.910859E+02 -3.072662E+03
       180  24 -2.132302E+05 -1.810765E+02 -4.286941E+02  6.002488E+03 -3.053987E+02 -3.075641E+03
       180  25 -7.290320E+04  3.500918E+04  3.440652E+04  6.208240E+03 -2.727685E+02 -2.654705E+03
       180  26 -6.183967E+04  3.775377E+04  3.699981E+04 -4.707443E+02 -2.567660E+02 -3.072719E+03
       180  27 -5.080880E+04  4.030514E+04  3.955767E+04  6.141916E+03 -2.415546E+02 -3.075496E+03
       181   1 -4.037849E+05 -4.740304E+04 -4.737006E+04  5.572866E+03 -3.437709E+02  3.827662E+03
       181   2 -4.142319E+05 -4.984769E+04 -5.021630E+04 -6.242950E+02  1.187259E+03  4.420281E+03
       181   3 -4.253204E+05 -5.438289E+04 -5.456634E+04  6.055615E+03  2.721933E+03  1.508490E+03
       181   4 -2.133214E+05  7.488955E+01 -5.148447E+02  5.909520E+03  3.868936E+02  3.828586E+03
       181   5 -2.130955E+05  2.749257E+02 -8.117568E+02 -5.281291E+02  8.252727E+02  4.419767E+03
       181   6 -2.133213E+05 -1.425483E+03 -1.853191E+03  5.911045E+03  1.267340E+03  1.507035E+03
       181   7 -2.282479E+04  4.755012E+04  4.633770E+04  6.246265E+03  1.117782E+03  3.829510E+03
       181   8 -1.192219E+04  5.039453E+04  4.858981E+04 -4.319426E+02  4.631696E+02  4.419252E+03
       181   9 -1.281394E+03  5.152855E+04  5.085660E+04  5.766414E+03 -1.877497E+02  1.505581E+03
       181  10 -4.037849E+05 -4.740306E+04 -4.737009E+04  5.572868E+03  4.435269E-09 -5.505000E-09
       181  11 -4.142319E+05 -4.984771E+04 -5.021634E+04 -6.242992E+02 -1.242613E-08  2.752412E-10
       181  12 -4.253204E+05 -5.438290E+04 -5.456636E+04  6.055612E+03 -4.555737E-09  2.444923E-09
       181  13 -2.133214E+05  7.487377E+01 -5.148726E+02  5.909519E+03  7.443753E-10  1.488024E-09
       181  14 -2.130955E+05  2.749045E+02 -8.117948E+02 -5.281320E+02  5.366553E-12  3.479733E-09
       181  15 -2.133213E+05 -1.425486E+03 -1.853198E+03  5.911043E+03  4.542116E-09  3.224014E-09
       181  16 -2.282479E+04  4.755011E+04  4.633767E+04  6.246262E+03 -2.078944E-09  7.484720E-10
       181  17 -1.192219E+04  5.039451E+04  4.858978E+04 -4.319443E+02 -2.722493E-09  1.416528E-09
       181  18 -1.281395E+03  5.152855E+04  5.085659E+04  5.766415E+03  1.188735E-09 -3.608159E-10
       181  19 -4.037849E+05 -4.740304E+04 -4.737006E+04  5.572866E+03  3.437709E+02 -3.827662E+03
       181  20 -4.142319E+05 -4.984769E+04 -5.021630E+04 -6.242950E+02 -1.187259E+03 -4.420281E+03
       181  21 -4.253204E+05 -5.438289E+04 -5.456634E+04  6.055615E+03 -2.721933E+03 -1.508490E+03
       181  22 -2.133214E+05  7.488955E+01 -5.148447E+02  5.909520E+03 -3.868936E+02 -3.828586E+03
       181  23 -2.130955E+05  2.749257E+02 -8.117568E+02 -5.281291E+02 -8.252727E+02 -4.419767E+03
       181  24 -2.133213E+05 -1.425483E+03 -1.853191E+03  5.911045E+03 -1.267340E+03 -1.507035E+03
       181  25 -2.282479E+04  4.755012E+04  4.633770E+04  6.246265E+03 -1.117782E+03 -3.829510E+03
       181  26 -1.192219E+04  5.039453E+04  4.858981E+04 -4.319426E+02 -4.631696E+02 -4.419252E+03
       181  27 -1.281394E+03  5.152855E+04  5.085660E+04  5.766414E+03  1.877497E+02 -1.505581E+03
       182   1 -2.954340E+05 -1.021727E+06 -2.931768E+05  2.344124E+05 -1.149245E+04 -8.886382E+04
       182   2 -1.884471E+05 -7.716790E+05 -1.815037E+05  1.849440E+05 -3.419276E+04 -3.976938E+04
       182   3 -1.220790E+05 -5.378612E+05 -1.119543E+05  2.011893E+05 -3.035925E+04  9.379599E+03
       182   4 -4.878074E+04 -2.779631E+04 -5.483076E+04  2.058692E+05 -1.153371E+04 -3.981295E+04
       182   5 -7.196908E+03 -2.275398E+04 -2.465648E+04  1.730329E+05 -3.419920E+04 -2.694801E+04
       182   6  9.443465E+01 -2.768091E+04 -1.140070E+04  2.059127E+05 -3.034279E+04 -1.404947E+04
       182   7  1.978050E+05  9.670470E+05  1.834547E+05  1.772801E+05 -1.157947E+04  9.316274E+03
       182   8  1.740179E+05  7.267024E+05  1.321602E+05  1.611073E+05 -3.420613E+04 -1.411141E+04
       182   9  1.222525E+05  4.827499E+05  8.914228E+04  2.106401E+05 -3.032668E+04 -3.749740E+04
       182  10 -2.954362E+05 -1.021735E+06 -2.931919E+05  2.344115E+05  3.912520E-09  1.566836E-09
       182  11 -1.884487E+05 -7.716810E+05 -1.815088E+05  1.849429E+05 -2.824620E-09  1.694027E-10
       182  12 -1.220800E+05 -5.378615E+05 -1.119562E+05  2.011895E+05 -9.984560E-09 -5.640787E-09
       182  13 -4.878131E+04 -2.779805E+04 -5.483399E+04  2.058688E+05 -7.431982E-09 -1.295864E-12
       182  14 -7.198359E+03 -2.275508E+04 -2.466004E+04  1.730322E+05 -6.939371E-09  6.613547E-09
       182  15  9.339323E+01 -2.768137E+04 -1.140281E+04  2.059124E+05 -3.711720E-09  7.509249E-10
       182  16  1.978048E+05  9.670469E+05  1.834543E+05  1.772801E+05  2.832179E-09 -2.698335E-09
       182  17  1.740166E+05  7.267019E+05  1.321576E+05  1.611069E+05  9.805980E-10 -1.462436E-09
       182  18  1.222511E+05  4.827482E+05  8.913791E+04  2.106392E+05  5.591126E-09  4.118679E-09
       182  19 -2.954340E+05 -1.021727E+06 -2.931768E+05  2.344124E+05  1.149245E+04  8.886382E+04
       182  20 -1.884471E+05 -7.716790E+05 -1.815037E+05  1.849440E+05  3.419276E+04  3.976938E+04
       182  21 -1.220790E+05 -5.378612E+05 -1.119543E+05  2.011893E+05  3.035925E+04 -9.379599E+03
       182  22 -4.878074E+04 -2.779631E+04 -5.483076E+04  2.058692E+05  1.153371E+04  3.981295E+04
       182  23 -7.196908E+03 -2.275398E+04 -2.465648E+04  1.730329E+05  3.419920E+04  2.694801E+04
       182  24  9.443465E+01 -2.768091E+04 -1.140070E+04  2.059127E+05  3.034279E+04  1.404947E+04
       182  25  1.978050E+05  9.670470E+05  1.834547E+05  1.772801E+05  1.157947E+04 -9.316274E+03
       182  26  1.740179E+05  7.267024E+05  1.321602E+05  1.611073E+05  3.420613E+04  1.411141E+04
       182  27  1.222525E+05  4.827499E+05  8.914228E+04  2.106401E+05  3.032668E+04  3.749740E+04
       183   1 -8.438988E+04 -3.683017E+05 -7.455826E+04  2.064993E+05 -2.032600E+04  5.725077E+03
       183   2 -2.430896E+04 -1.266173E+05 -1.765260E+04  1.729038E+05 -6.633601E+03  5.332305E+03
       183   3  3.598661E+04  1.153890E+05  3.959440E+04  2.065119E+05  7.388826E+03  4.938374E+03
       183   4 -2.253861E+03 -2.536009E+04 -6.902031E+03  2.062331E+05 -2.031478E+04 -1.277658E+04
       183   5 -2.144234E+02 -2.552553E+04  1.717575E+03  1.726328E+05 -6.622868E+03 -1.362261E+04
       183   6  2.122332E+03 -2.534421E+04  1.099661E+04  2.062355E+05  7.398891E+03 -1.446965E+04
       183   7  7.987521E+04  3.176949E+05  6.074973E+04  2.059668E+05 -2.030355E+04 -3.128825E+04
       183   8  2.387971E+04  7.557689E+04  2.108864E+04  1.723618E+05 -6.612119E+03 -3.258054E+04
       183   9 -3.174297E+04 -1.660578E+05 -1.760079E+04  2.059591E+05  7.408973E+03 -3.387336E+04
       183  10 -8.439033E+04 -3.683018E+05 -7.455910E+04  2.064994E+05 -3.118007E-09  2.965339E-08
       183  11 -2.430902E+04 -1.266174E+05 -1.765274E+04  1.729038E+05  2.079423E-09  3.734563E-09
       183  12  3.598654E+04  1.153890E+05  3.959425E+04  2.065119E+05 -3.939753E-09 -2.421327E-08
       183  13 -2.254348E+03 -2.536038E+04 -6.903113E+03  2.062329E+05 -3.009100E-09  1.074195E-09
       183  14 -2.145203E+02 -2.552575E+04  1.717144E+03  1.726327E+05  1.576625E-09  4.510089E-09
       183  15  2.122217E+03 -2.534445E+04  1.099612E+04  2.062356E+05 -3.270956E-09 -5.204099E-10
       183  16  7.987450E+04  3.176937E+05  6.074712E+04  2.059663E+05 -4.068848E-09 -3.038308E-08
       183  17  2.387938E+04  7.557574E+04  2.108656E+04  1.723616E+05 -4.384096E-09 -5.291098E-09
       183  18 -3.174334E+04 -1.660590E+05 -1.760305E+04  2.059593E+05 -8.847332E-09  2.241325E-08
       183  19 -8.438988E+04 -3.683017E+05 -7.455826E+04  2.064993E+05  2.032600E+04 -5.725077E+03
       183  20 -2.430896E+04 -1.266173E+05 -1.765260E+04  1.729038E+05  6.633601E+03 -5.332305E+03
       183  21  3.598661E+04  1.153890E+05  3.959440E+04  2.065119E+05 -7.388826E+03 -4.938374E+03
       183  22 -2.253861E+03 -2.536009E+04 -6.902031E+03  2.062331E+05  2.031478E+04  1.277658E+04
       183  23 -2.144234E+02 -2.552553E+04  1.717575E+03  1.726328E+05  6.622868E+03  1.362261E+04
       183  24  2.122332E+03 -2.534421E+04  1.099661E+04  2.062355E+05 -7.398891E+03  1.446965E+04
       183  25  7.987521E+04  3.176949E+05  6.074973E+04  2.059668E+05  2.030355E+04  3.128825E+04
       183  26  2.387971E+04  7.557689E+04  2.108864E+04  1.723618E+05  6.612119E+03  3.258054E+04
       183  27 -3.174297E+04 -1.660578E+05 -1.760079E+04  2.059591E+05 -7.408973E+03  3.387336E+04
       184   1  7.298527E+04  2.853968E+05  7.763513E+04  1.995056E+05  1.739364E+04  6.866195E+03
       184   2  1.408834E+05  5.182860E+05  1.479320E+05  1.872924E+05  2.370231E+04 -3.934299E+04
       184   3  2.575942E+05  7.696563E+05  2.605407E+05  2.411779E+05  8.526272E+03 -8.559386E+04
       184   4 -8.801207E+02 -2.247059E+04  1.617348E+04  2.059777E+05  1.740702E+04 -1.642563E+04
       184   5  8.300836E+03 -2.918478E+04  3.219997E+04  1.729553E+05  2.370059E+04 -3.321543E+04
       184   6  6.121714E+04 -2.255356E+04  7.013357E+04  2.060271E+05  8.503937E+03 -5.002851E+04
       184   7 -7.475088E+04 -3.302463E+05 -4.529087E+04  2.124466E+05  1.741991E+04 -3.970614E+04
       184   8 -1.243003E+05 -5.763724E+05 -8.354883E+04  1.586310E+05  2.369859E+04 -2.709318E+04
       184   9 -1.352002E+05 -8.141840E+05 -1.203128E+05  1.709214E+05  8.477571E+03 -1.450829E+04
       184  10  7.298494E+04  2.853967E+05  7.763447E+04  1.995055E+05  7.177689E-09  6.146355E-09
       184  11  1.408824E+05  5.182842E+05  1.479281E+05  1.872931E+05  1.168252E-08 -2.000220E-10
       184  12  2.575922E+05  7.696485E+05  2.605268E+05  2.411785E+05  5.404129E-10 -9.592821E-09
       184  13 -8.805187E+02 -2.247096E+04  1.617240E+04  2.059780E+05 -3.171357E-09  5.249899E-10
       184  14  8.299936E+03 -2.918611E+04  3.219684E+04  1.729559E+05  7.781287E-09  5.204559E-09
       184  15  6.121639E+04 -2.255627E+04  7.012873E+04  2.060275E+05 -2.287165E-10 -1.383183E-10
       184  16 -7.475163E+04 -3.302480E+05 -4.529441E+04  2.124472E+05 -3.374096E-10 -7.088740E-09
       184  17 -1.243011E+05 -5.763733E+05 -8.355126E+04  1.586315E+05 -5.342619E-09 -1.385788E-09
       184  18 -1.352004E+05 -8.141843E+05 -1.203133E+05  1.709215E+05 -4.131899E-09  7.581695E-09
       184  19  7.298527E+04  2.853968E+05  7.763513E+04  1.995056E+05 -1.739364E+04 -6.866195E+03
       184  20  1.408834E+05  5.182860E+05  1.479320E+05  1.872924E+05 -2.370231E+04  3.934299E+04
       184  21  2.575942E+05  7.696563E+05  2.605407E+05  2.411779E+05 -8.526272E+03  8.559386E+04
       184  22 -8.801207E+02 -2.247059E+04  1.617348E+04  2.059777E+05 -1.740702E+04  1.642563E+04
       184  23  8.300836E+03 -2.918478E+04  3.219997E+04  1.729553E+05 -2.370059E+04  3.321543E+04
       184  24  6.121714E+04 -2.255356E+04  7.013357E+04  2.060271E+05 -8.503937E+03  5.002851E+04
       184  25 -7.475088E+04 -3.302463E+05 -4.529087E+04  2.124466E+05 -1.741991E+04  3.970614E+04
       184  26 -1.243003E+05 -5.763724E+05 -8.354883E+04  1.586310E+05 -2.369859E+04  2.709318E+04
       184  27 -1.352002E+05 -8.141840E+05 -1.203128E+05  1.709214E+05 -8.477571E+03  1.450829E+04
       185   1  6.735861E+05  2.266022E+05  1.221912E+05  2.505240E+05  4.996196E+04  1.445690E+04
       185   2  6.542185E+05  1.653166E+05  7.894678E+04  2.435981E+05  3.218230E+04 -1.873427E+03
       185   3  6.470012E+05  1.467869E+05  6.161975E+04  2.329205E+05  1.167108E+04 -1.094584E+04
       185   4  4.344646E+05  1.142098E+05  5.492864E+04  1.620334E+05  3.665507E+04  9.443237E+03
       185   5  4.261537E+05  7.224459E+04  2.438341E+04  1.719649E+05  2.687871E+04 -3.872037E+03
       185   6  4.284140E+05  7.145845E+04  1.342355E+04  1.781433E+05  1.436938E+04 -9.929629E+03
       185   7  1.954052E+05  1.833447E+03 -1.233706E+04  7.357876E+04  2.335405E+04  4.432991E+03
       185   8  1.981425E+05 -2.081995E+04 -3.018323E+04  1.003572E+05  2.157726E+04 -5.869661E+03
       185   9  2.098727E+05 -3.868532E+03 -3.477608E+04  1.233826E+05  1.706667E+04 -8.913739E+03
       185  10  6.735834E+05  2.266013E+05  1.221861E+05  2.505234E+05 -3.088030E-09  3.517867E-09
       185  11  6.542174E+05  1.653163E+05  7.894483E+04  2.435981E+05 -1.429379E-09  8.321936E-09
       185  12  6.470011E+05  1.467867E+05  6.161927E+04  2.329206E+05 -2.087251E-09  4.304924E-09
       185  13  4.344632E+05  1.142094E+05  5.492595E+04  1.620332E+05 -8.618583E-09 -1.467190E-09
       185  14  4.261529E+05  7.224438E+04  2.438203E+04  1.719650E+05 -9.340749E-09 -5.744783E-09
       185  15  4.284138E+05  7.145829E+04  1.342298E+04  1.781434E+05 -6.484568E-09 -1.399076E-09
       185  16  1.954046E+05  1.833280E+03 -1.233812E+04  7.357868E+04  4.361698E-09  3.028748E-09
       185  17  1.981420E+05 -2.082011E+04 -3.018417E+04  1.003573E+05  1.282629E-09 -7.730855E-10
       185  18  2.098724E+05 -3.868695E+03 -3.477678E+04  1.233827E+05 -8.400214E-09 -4.712986E-09
       185  19  6.735861E+05  2.266022E+05  1.221912E+05  2.505240E+05 -4.996196E+04 -1.445690E+04
       185  20  6.542185E+05  1.653166E+05  7.894678E+04  2.435981E+05 -3.218230E+04  1.873427E+03
       185  21  6.470012E+05  1.467869E+05  6.161975E+04  2.329205E+05 -1.167108E+04  1.094584E+04
       185  22  4.344646E+05  1.142098E+05  5.492864E+04  1.620334E+05 -3.665507E+04 -9.443237E+03
       185  23  4.261537E+05  7.224459E+04  2.438341E+04  1.719649E+05 -2.687871E+04  3.872037E+03
       185  24  4.284140E+05  7.145845E+04  1.342355E+04  1.781433E+05 -1.436938E+04  9.929629E+03
       185  25  1.954052E+05  1.833447E+03 -1.233706E+04  7.357876E+04 -2.335405E+04 -4.432991E+03
       185  26  1.981425E+05 -2.081995E+04 -3.018323E+04  1.003572E+05 -2.157726E+04  5.869661E+03
       185  27  2.098727E+05 -3.868532E+03 -3.477608E+04  1.233826E+05 -1.706667E+04  8.913739E+03
       186   1  6.255636E+05  1.486882E+05  5.544971E+04  2.318266E+05  1.151079E+04 -9.623559E+03
       186   2  6.076460E+05  1.365134E+05  4.564014E+04  2.235108E+05  8.016143E+03 -9.930216E+03
       186   3  5.857685E+05  1.311951E+05  3.866332E+04  2.206124E+05  4.387002E+03 -9.880249E+03
       186   4  4.266784E+05  7.446741E+04  1.046156E+04  1.761679E+05  1.228744E+04 -9.331315E+03
       186   5  4.285675E+05  7.015199E+04  5.486823E+03  1.738089E+05  9.186698E+03 -9.489410E+03
       186   6  4.264185E+05  7.261547E+04  3.033510E+03  1.768672E+05  5.951341E+03 -9.290875E+03
       186   7  2.278330E+05  2.499081E+02 -3.452913E+04  1.205255E+05  1.306382E+04 -9.039175E+03
       186   8  2.495218E+05  3.793371E+03 -3.466836E+04  1.241203E+05  1.035688E+04 -9.048745E+03
       186   9  2.670952E+05  1.403810E+04 -3.259761E+04  1.331325E+05  7.515234E+03 -8.701666E+03
       186  10  6.255634E+05  1.486880E+05  5.544929E+04  2.318267E+05 -1.677553E-08  1.244477E-09
       186  11  6.076459E+05  1.365132E+05  4.563983E+04  2.235109E+05 -6.930898E-09  6.693601E-09
       186  12  5.857684E+05  1.311950E+05  3.866310E+04  2.206125E+05  2.650270E-09  3.298716E-09
       186  13  4.266782E+05  7.446728E+04  1.046112E+04  1.761679E+05 -4.000309E-09  3.113438E-10
       186  14  4.285673E+05  7.015187E+04  5.486495E+03  1.738090E+05 -4.744682E-09 -1.330913E-09
       186  15  4.264185E+05  7.261537E+04  3.033281E+03  1.768672E+05 -5.592037E-09  1.580906E-09
       186  16  2.278327E+05  2.497745E+02 -3.452960E+04  1.205256E+05  5.222019E-09 -1.274589E-09
       186  17  2.495217E+05  3.793254E+03 -3.466872E+04  1.241204E+05  5.686378E-09  7.260490E-09
       186  18  2.670951E+05  1.403800E+04 -3.259786E+04  1.331325E+05 -3.102566E-09  6.968917E-10
       186  19  6.255636E+05  1.486882E+05  5.544971E+04  2.318266E+05 -1.151079E+04  9.623559E+03
       186  20  6.076460E+05  1.365134E+05  4.564014E+04  2.235108E+05 -8.016143E+03  9.930216E+03
       186  21  5.857685E+05  1.311951E+05  3.866332E+04  2.206124E+05 -4.387002E+03  9.880249E+03
       186  22  4.266784E+05  7.446741E+04  1.046156E+04  1.761679E+05 -1.228744E+04  9.331315E+03
       186  23  4.285675E+05  7.015199E+04  5.486823E+03  1.738089E+05 -9.186698E+03  9.489410E+03
       186  24  4.264185E+05  7.261547E+04  3.033510E+03  1.768672E+05 -5.951341E+03  9.290875E+03
       186  25  2.278330E+05  2.499081E+02 -3.452913E+04  1.205255E+05 -1.306382E+04  9.039175E+03
       186  26  2.495218E+05  3.793371E+03 -3.466836E+04  1.241203E+05 -1.035688E+04  9.048745E+03
       186  27  2.670952E+05  1.403810E+04 -3.259761E+04  1.331325E+05 -7.515234E+03  8.701666E+03
       187   1  5.704897E+05  1.259914E+05  3.447285E+04  2.166182E+05  3.748420E+03 -9.190011E+03
       187   2  5.529079E+05  1.160140E+05  2.901920E+04  2.082236E+05  2.591216E+03 -8.095956E+03
       187   3  5.304095E+05  1.111701E+05  2.407383E+04  2.055703E+05  1.427755E+03 -6.985849E+03
       187   4  4.262936E+05  7.273885E+04  2.296414E+03  1.767553E+05  5.215868E+03 -8.637069E+03
       187   5  4.287505E+05  7.014672E+04  1.271783E+03  1.738952E+05  4.076526E+03 -7.536162E+03
       187   6  4.262874E+05  7.268459E+04  7.414896E+02  1.767764E+05  2.930907E+03 -6.419208E+03
       187   7  2.821174E+05  1.948759E+04 -2.988158E+04  1.369006E+05  6.682957E+03 -8.084263E+03
       187   8  3.046082E+05  2.428043E+04 -2.647672E+04  1.395730E+05  5.561520E+03 -6.976486E+03
       187   9  3.221761E+05  3.419992E+04 -2.259154E+04  1.479869E+05  4.433786E+03 -5.852669E+03
       187  10  5.704897E+05  1.259913E+05  3.447267E+04  2.166182E+05 -8.266926E-09 -2.122821E-09
       187  11  5.529079E+05  1.160140E+05  2.901907E+04  2.082237E+05  6.498462E-09 -4.264218E-09
       187  12  5.304095E+05  1.111700E+05  2.407374E+04  2.055703E+05 -2.375068E-09 -4.136881E-09
       187  13  4.262935E+05  7.273877E+04  2.296223E+03  1.767553E+05 -4.492389E-10 -1.611037E-09
       187  14  4.287505E+05  7.014665E+04  1.271645E+03  1.738953E+05  2.256875E-09  1.660469E-09
       187  15  4.262873E+05  7.268454E+04  7.413960E+02  1.767764E+05 -8.359029E-10 -2.807195E-09
       187  16  2.821173E+05  1.948751E+04 -2.988179E+04  1.369006E+05  4.347801E-09  2.287462E-09
       187  17  3.046082E+05  2.428036E+04 -2.647686E+04  1.395730E+05 -4.017261E-09  1.904695E-09
       187  18  3.221761E+05  3.419988E+04 -2.259164E+04  1.479869E+05  3.259760E-09  4.817564E-10
       187  19  5.704897E+05  1.259914E+05  3.447285E+04  2.166182E+05 -3.748420E+03  9.190011E+03
       187  20  5.529079E+05  1.160140E+05  2.901920E+04  2.082236E+05 -2.591216E+03  8.095956E+03
       187  21  5.304095E+05  1.111701E+05  2.407383E+04  2.055703E+05 -1.427755E+03  6.985849E+03
       187  22  4.262936E+05  7.273885E+04  2.296414E+03  1.767553E+05 -5.215868E+03  8.637069E+03
       187  23  4.287505E+05  7.014672E+04  1.271783E+03  1.738952E+05 -4.076526E+03  7.536162E+03
       187  24  4.262874E+05  7.268459E+04  7.414896E+02  1.767764E+05 -2.930907E+03  6.419208E+03
       187  25  2.821174E+05  1.948759E+04 -2.988158E+04  1.369006E+05 -6.682957E+03  8.084263E+03
       187  26  3.046082E+05  2.428043E+04 -2.647672E+04  1.395730E+05 -5.561520E+03  6.976486E+03
       187  27  3.221761E+05  3.419992E+04 -2.259154E+04  1.479869E+05 -4.433786E+03  5.852669E+03
       188   1  5.155132E+05  1.056611E+05  2.046812E+04  2.014631E+05  1.024291E+03 -6.232228E+03
       188   2  4.980300E+05  9.578048E+04  1.590012E+04  1.930765E+05  3.029499E+02 -4.952313E+03
       188   3  4.755526E+05  9.093318E+04  1.148888E+04  1.904145E+05 -4.184606E+02 -3.672479E+03
       188   4  4.262745E+05  7.268529E+04  5.892037E+02  1.767646E+05  2.521509E+03 -5.667770E+03
       188   5  4.287726E+05  7.017004E+04  4.202689E+02  1.739020E+05  1.800102E+03 -4.387818E+03
       188   6  4.262760E+05  7.268812E+04  4.081437E+02  1.767640E+05  1.078615E+03 -3.107943E+03
       188   7  3.370443E+05  3.971035E+04 -1.929005E+04  1.520695E+05  4.018484E+03 -5.103403E+03
       188   8  3.595200E+05  4.455997E+04 -1.505987E+04  1.547295E+05  3.297073E+03 -3.823390E+03
       188   9  3.770016E+05  5.444314E+04 -1.067282E+04  1.631144E+05  2.575572E+03 -2.543452E+03
       188  10  5.155132E+05  1.056610E+05  2.046805E+04  2.014631E+05 -7.579467E-09 -1.585493E-09
       188  11  4.980300E+05  9.578046E+04  1.590007E+04  1.930765E+05 -5.059178E-09  1.083870E-10
       188  12  4.755526E+05  9.093316E+04  1.148885E+04  1.904145E+05 -1.631536E-08 -2.617167E-09
       188  13  4.262745E+05  7.268525E+04  5.891314E+02  1.767646E+05 -4.108252E-09  4.561017E-10
       188  14  4.287726E+05  7.017001E+04  4.202266E+02  1.739020E+05 -4.164641E-09 -4.504553E-09
       188  15  4.262760E+05  7.268811E+04  4.081234E+02  1.767640E+05 -1.876853E-08 -2.685503E-09
       188  16  3.370443E+05  3.971032E+04 -1.929013E+04  1.520695E+05 -2.458205E-09  3.431412E-10
       188  17  3.595200E+05  4.455995E+04 -1.505992E+04  1.547295E+05 -1.003912E-08  1.642290E-10
       188  18  3.770016E+05  5.444313E+04 -1.067284E+04  1.631144E+05  4.489822E-09 -2.255989E-09
       188  19  5.155132E+05  1.056611E+05  2.046812E+04  2.014631E+05 -1.024291E+03  6.232228E+03
       188  20  4.980300E+05  9.578048E+04  1.590012E+04  1.930765E+05 -3.029499E+02  4.952313E+03
       188  21  4.755526E+05  9.093318E+04  1.148888E+04  1.904145E+05  4.184606E+02  3.672479E+03
       188  22  4.262745E+05  7.268529E+04  5.892037E+02  1.767646E+05 -2.521509E+03  5.667770E+03
       188  23  4.287726E+05  7.017004E+04  4.202689E+02  1.739020E+05 -1.800102E+03  4.387818E+03
       188  24  4.262760E+05  7.268812E+04  4.081437E+02  1.767640E+05 -1.078615E+03  3.107943E+03
       188  25  3.370443E+05  3.971035E+04 -1.929005E+04  1.520695E+05 -4.018484E+03  5.103403E+03
       188  26  3.595200E+05  4.455997E+04 -1.505987E+04  1.547295E+05 -3.297073E+03  3.823390E+03
       188  27  3.770016E+05  5.444314E+04 -1.067282E+04  1.631144E+05 -2.575572E+03  2.543452E+03
       189   1  4.607141E+05  8.542374E+04  8.087294E+03  1.863160E+05 -7.878446E+02 -2.908769E+03
       189   2  4.432392E+05  7.555200E+04  3.916811E+03  1.779442E+05 -1.635872E+03 -1.677757E+03
       189   3  4.207935E+05  7.071436E+04 -1.592436E+00  1.752945E+05 -2.483617E+03 -4.474519E+02
       189   4  4.262813E+05  7.268762E+04  4.540537E+02  1.767637E+05  7.085440E+02 -2.344466E+03
       189   5  4.287666E+05  7.016772E+04  6.768099E+02  1.739039E+05 -1.402956E+02 -1.113749E+03
       189   6  4.262807E+05  7.268200E+04  1.152258E+03  1.767659E+05 -9.888629E+02  1.162570E+02
       189   7  3.918497E+05  5.995159E+04 -7.179248E+03  1.672120E+05  2.204842E+03 -1.780198E+03
       189   8  4.142942E+05  6.478348E+04 -2.563181E+03  1.698637E+05  1.355238E+03 -5.497570E+02
       189   9  4.317678E+05  7.464963E+04  2.306107E+03  1.782374E+05  5.058953E+02  6.799673E+02
       189  10  4.607141E+05  8.542373E+04  8.087277E+03  1.863160E+05 -3.619187E-08 -9.412698E-09
       189  11  4.432392E+05  7.555199E+04  3.916801E+03  1.779442E+05 -2.705060E-08 -3.444013E-09
       189  12  4.207935E+05  7.071436E+04 -1.604395E+00  1.752945E+05 -1.374633E-08  1.407580E-08
       189  13  4.262813E+05  7.268761E+04  4.540424E+02  1.767638E+05 -9.783250E-09 -4.365916E-09
       189  14  4.287666E+05  7.016772E+04  6.768076E+02  1.739039E+05 -7.567799E-09 -1.919864E-08
       189  15  4.262806E+05  7.268200E+04  1.152256E+03  1.767659E+05  2.988840E-09 -3.119466E-08
       189  16  3.918497E+05  5.995159E+04 -7.179263E+03  1.672120E+05  2.847208E-08  8.341185E-09
       189  17  4.142942E+05  6.478348E+04 -2.563185E+03  1.698637E+05  2.153766E-08  7.911300E-09
       189  18  4.317678E+05  7.464963E+04  2.306106E+03  1.782374E+05  6.140762E-09  3.372708E-09
       189  19  4.607141E+05  8.542374E+04  8.087294E+03  1.863160E+05  7.878446E+02  2.908769E+03
       189  20  4.432392E+05  7.555200E+04  3.916811E+03  1.779442E+05  1.635872E+03  1.677757E+03
       189  21  4.207935E+05  7.071436E+04 -1.592436E+00  1.752945E+05  2.483617E+03  4.474519E+02
       189  22  4.262813E+05  7.268762E+04  4.540537E+02  1.767637E+05 -7.085440E+02  2.344466E+03
       189  23  4.287666E+05  7.016772E+04  6.768099E+02  1.739039E+05  1.402956E+02  1.113749E+03
       189  24  4.262807E+05  7.268200E+04  1.152258E+03  1.767659E+05  9.888629E+02 -1.162570E+02
       189  25  3.918497E+05  5.995159E+04 -7.179248E+03  1.672120E+05 -2.204842E+03  1.780198E+03
       189  26  4.142942E+05  6.478348E+04 -2.563181E+03  1.698637E+05 -1.355238E+03  5.497570E+02
       189  27  4.317678E+05  7.464963E+04  2.306107E+03  1.782374E+05 -5.058953E+02 -6.799673E+02
       190   1  4.059680E+05  6.522224E+04 -3.083568E+03  1.712411E+05 -3.006535E+03  2.587512E+02
       190   2  3.883939E+05  5.532631E+04 -6.280535E+03  1.628464E+05 -4.860078E+03  1.106288E+03
       190   3  3.660413E+05  5.064773E+04 -8.432334E+03  1.601799E+05 -6.709171E+03  1.942297E+03
       190   4  4.263171E+05  7.267600E+04  1.516844E+03  1.767851E+05 -1.508484E+03  8.236962E+02
       190   5  4.287137E+05  7.012907E+04  2.717917E+03  1.738970E+05 -3.374855E+03  1.666361E+03
       190   6  4.263342E+05  7.280215E+04  4.974381E+03  1.767371E+05 -5.236817E+03  2.497482E+03
       190   7  4.466669E+05  8.012985E+04  6.117274E+03  1.823293E+05 -1.037098E+01  1.388664E+03
       190   8  4.690352E+05  8.493201E+04  1.171631E+04  1.849483E+05 -1.889522E+03  2.226475E+03
       190   9  4.866307E+05  9.495684E+04  1.838088E+04  1.932958E+05 -3.764308E+03  3.052725E+03
       190  10  4.059680E+05  6.522224E+04 -3.083585E+03  1.712411E+05 -1.520860E-09  1.444649E-08
       190  11  3.883939E+05  5.532630E+04 -6.280582E+03  1.628464E+05  1.888959E-08  8.482188E-09
       190  12  3.660413E+05  5.064772E+04 -8.432425E+03  1.601799E+05  2.062442E-08  1.413319E-08
       190  13  4.263171E+05  7.267600E+04  1.516838E+03  1.767851E+05  2.216168E-09 -2.722756E-08
       190  14  4.287137E+05  7.012907E+04  2.717891E+03  1.738970E+05  7.904271E-09 -1.910111E-08
       190  15  4.263341E+05  7.280213E+04  4.974318E+03  1.767371E+05 -9.708803E-09 -6.789086E-09
       190  16  4.466669E+05  8.012985E+04  6.117271E+03  1.823293E+05 -4.630102E-09  1.557296E-09
       190  17  4.690352E+05  8.493201E+04  1.171630E+04  1.849483E+05 -1.444888E-08 -3.005879E-09
       190  18  4.866306E+05  9.495683E+04  1.838084E+04  1.932958E+05 -3.021666E-08 -1.150949E-08
       190  19  4.059680E+05  6.522224E+04 -3.083568E+03  1.712411E+05  3.006535E+03 -2.587512E+02
       190  20  3.883939E+05  5.532631E+04 -6.280535E+03  1.628464E+05  4.860078E+03 -1.106288E+03
       190  21  3.660413E+05  5.064773E+04 -8.432334E+03  1.601799E+05  6.709171E+03 -1.942297E+03
       190  22  4.263171E+05  7.267600E+04  1.516844E+03  1.767851E+05  1.508484E+03 -8.236962E+02
       190  23  4.287137E+05  7.012907E+04  2.717917E+03  1.738970E+05  3.374855E+03 -1.666361E+03
       190  24  4.263342E+05  7.280215E+04  4.974381E+03  1.767371E+05  5.236817E+03 -2.497482E+03
       190  25  4.466669E+05  8.012985E+04  6.117274E+03  1.823293E+05  1.037098E+01 -1.388664E+03
       190  26  4.690352E+05  8.493201E+04  1.171631E+04  1.849483E+05  1.889522E+03 -2.226475E+03
       190  27  4.866307E+05  9.495684E+04  1.838088E+04  1.932958E+05  3.764308E+03 -3.052725E+03
       191   1  3.509955E+05  4.532765E+04 -1.025958E+04  1.568448E+05 -8.006579E+03  2.372433E+03
       191   2  3.335112E+05  3.478495E+04 -9.369780E+03  1.471650E+05 -1.424525E+04  1.476431E+03
       191   3  3.131321E+05  3.299246E+04 -3.203002E+03  1.424905E+05 -2.039248E+04  3.388165E+02
       191   4  4.266120E+05  7.253229E+04  6.588112E+03  1.769782E+05 -6.469176E+03  2.952114E+03
       191   5  4.283191E+05  7.015399E+04  1.194563E+04  1.737121E+05 -1.297506E+04  1.955252E+03
       191   6  4.271834E+05  7.657814E+04  2.279107E+04  1.754510E+05 -1.938974E+04  7.166900E+02
       191   7  5.022338E+05  9.973711E+04  2.343532E+04  1.971137E+05 -4.931581E+03  3.531864E+03
       191   8  5.231360E+05  1.055238E+05  3.326047E+04  2.002630E+05 -1.170466E+04  2.434153E+03
       191   9  5.412486E+05  1.201653E+05  4.878449E+04  2.084174E+05 -1.838679E+04  1.094647E+03
       191  10  3.509955E+05  4.532763E+04 -1.025971E+04  1.568448E+05  9.910925E-10  1.184301E-08
       191  11  3.335110E+05  3.478489E+04 -9.370165E+03  1.471650E+05  8.485083E-09  5.245875E-09
       191  12  3.131316E+05  3.299235E+04 -3.203783E+03  1.424905E+05 -1.961657E-09 -1.735468E-09
       191  13  4.266120E+05  7.253227E+04  6.588017E+03  1.769782E+05 -1.792480E-09  2.054256E-09
       191  14  4.283189E+05  7.015394E+04  1.194530E+04  1.737122E+05 -2.768112E-09  3.757022E-09
       191  15  4.271830E+05  7.657803E+04  2.279036E+04  1.754510E+05  8.476494E-10 -1.124201E-09
       191  16  5.022338E+05  9.973709E+04  2.343525E+04  1.971137E+05 -1.312636E-08 -8.211041E-10
       191  17  5.231359E+05  1.055237E+05  3.326020E+04  2.002630E+05 -1.558412E-09  6.971859E-09
       191  18  5.412482E+05  1.201652E+05  4.878385E+04  2.084174E+05  1.551308E-09  2.806070E-09
       191  19  3.509955E+05  4.532765E+04 -1.025958E+04  1.568448E+05  8.006579E+03 -2.372433E+03
       191  20  3.335112E+05  3.478495E+04 -9.369780E+03  1.471650E+05  1.424525E+04 -1.476431E+03
       191  21  3.131321E+05  3.299246E+04 -3.203002E+03  1.424905E+05  2.039248E+04 -3.388165E+02
       191  22  4.266120E+05  7.253229E+04  6.588112E+03  1.769782E+05  6.469176E+03 -2.952114E+03
       191  23  4.283191E+05  7.015399E+04  1.194563E+04  1.737121E+05  1.297506E+04 -1.955252E+03
       191  24  4.271834E+05  7.657814E+04  2.279107E+04  1.754510E+05  1.938974E+04 -7.166900E+02
       191  25  5.022338E+05  9.973711E+04  2.343532E+04  1.971137E+05  4.931581E+03 -3.531864E+03
       191  26  5.231360E+05  1.055238E+05  3.326047E+04  2.002630E+05  1.170466E+04 -2.434153E+03
       191  27  5.412486E+05  1.201653E+05  4.878449E+04  2.084174E+05  1.838679E+04 -1.094647E+03
       192   1  2.920300E+05  3.073928E+04 -2.022756E+01  1.538267E+05 -2.563777E+04 -4.147090E+02
       192   2  2.868133E+05  5.622492E+03  1.815646E+04  1.130128E+05 -4.831108E+04 -9.373526E+03
       192   3  3.091613E+05  6.354944E+04  7.472214E+04  5.761650E+04 -6.913370E+04 -2.324018E+04
       192   4  4.308823E+05  7.010624E+04  2.924675E+04  1.798463E+05 -2.333571E+04  4.535353E+02
       192   5  4.231741E+05  7.462554E+04  5.313734E+04  1.695786E+05 -5.142395E+04 -1.054875E+04
       192   6  4.440918E+05  1.632444E+05  1.196999E+05  1.447313E+05 -7.766161E+04 -2.646096E+04
       192   7  5.697548E+05  1.094732E+05  5.851290E+04  2.058705E+05 -2.103308E+04  1.321881E+03
       192   8  5.595532E+05  1.436346E+05  8.811648E+04  2.261569E+05 -5.453753E+04 -1.172447E+04
       192   9  5.790432E+05  2.629599E+05  1.646759E+05  2.318664E+05 -8.619132E+04 -2.968411E+04
       192  10  2.920293E+05  3.073910E+04 -2.146249E+01  1.538267E+05  1.935198E-08  9.869076E-10
       192  11  2.868108E+05  5.621771E+03  1.815191E+04  1.130124E+05  7.700096E-09 -4.855808E-09
       192  12  3.091560E+05  6.354758E+04  7.471215E+04  5.761521E+04 -2.225714E-09 -4.979350E-09
       192  13  4.308818E+05  7.010609E+04  2.924573E+04  1.798464E+05 -1.114576E-08 -1.985454E-09
       192  14  4.231713E+05  7.462471E+04  5.313216E+04  1.695782E+05 -4.801590E-10 -2.154965E-09
       192  15  4.440851E+05  1.632421E+05  1.196873E+05  1.447297E+05  1.952602E-09 -1.311049E-09
       192  16  5.697543E+05  1.094731E+05  5.851207E+04  2.058705E+05 -2.716651E-08 -8.508011E-09
       192  17  5.595500E+05  1.436336E+05  8.811064E+04  2.261563E+05 -1.636757E-08 -5.770826E-09
       192  18  5.790350E+05  2.629570E+05  1.646603E+05  2.318643E+05  1.021565E-09  4.249388E-09
       192  19  2.920300E+05  3.073928E+04 -2.022756E+01  1.538267E+05  2.563777E+04  4.147090E+02
       192  20  2.868133E+05  5.622492E+03  1.815646E+04  1.130128E+05  4.831108E+04  9.373526E+03
       192  21  3.091613E+05  6.354944E+04  7.472214E+04  5.761650E+04  6.913370E+04  2.324018E+04
       192  22  4.308823E+05  7.010624E+04  2.924675E+04  1.798463E+05  2.333571E+04 -4.535353E+02
       192  23  4.231741E+05  7.462554E+04  5.313734E+04  1.695786E+05  5.142395E+04  1.054875E+04
       192  24  4.440918E+05  1.632444E+05  1.196999E+05  1.447313E+05  7.766161E+04  2.646096E+04
       192  25  5.697548E+05  1.094732E+05  5.851290E+04  2.058705E+05  2.103308E+04 -1.321881E+03
       192  26  5.595532E+05  1.436346E+05  8.811648E+04  2.261569E+05  5.453753E+04  1.172447E+04
       192  27  5.790432E+05  2.629599E+05  1.646759E+05  2.318664E+05  8.619132E+04  2.968411E+04
       193   1 -6.442903E+03 -2.394795E+05 -8.182830E+03  6.270552E+04  1.047620E+03 -3.941626E+02
       193   2  1.999441E+04 -1.547665E+05  1.337004E+04  4.558483E+04  5.137046E+03  2.580280E+03
       193   3  4.072562E+04 -7.178613E+04  3.157565E+04  5.853039E+04  9.989874E+03  5.556358E+03
       193   4 -6.366592E+03 -2.397773E+05 -7.535779E+03  5.942390E+04  1.050799E+03 -4.310952E+03
       193   5 -3.540068E+02 -2.389789E+05 -4.153922E+03  4.439338E+04  5.141097E+03 -2.142843E+03
       193   6  9.227951E+01 -2.397809E+05 -3.559321E+03  5.942966E+04  9.994842E+03  2.651113E+01
       193   7 -6.290231E+03 -2.400750E+05 -6.888663E+03  5.614229E+04  1.054018E+03 -8.227741E+03
       193   8 -2.070286E+04 -3.231845E+05 -2.167819E+04  4.320210E+04  5.145166E+03 -6.865335E+03
       193   9 -4.054285E+04 -4.077490E+05 -3.869574E+04  6.032870E+04  9.999795E+03 -5.501864E+03
       193  10 -6.442904E+03 -2.394795E+05 -8.182833E+03  6.270552E+04  1.772947E-09 -2.635343E-09
       193  11  1.999438E+04 -1.547665E+05  1.336998E+04  4.558482E+04  1.542126E-09  1.215005E-09
       193  12  4.072550E+04 -7.178619E+04  3.157540E+04  5.853034E+04 -1.024272E-08  5.374646E-09
       193  13 -6.366598E+03 -2.397773E+05 -7.535816E+03  5.942391E+04 -1.006511E-09  1.125034E-09
       193  14 -3.540364E+02 -2.389789E+05 -4.153981E+03  4.439339E+04  1.257023E-08 -1.636624E-09
       193  15  9.217225E+01 -2.397810E+05 -3.559509E+03  5.942966E+04  2.860502E-09 -1.759468E-09
       193  16 -6.290251E+03 -2.400751E+05 -6.888792E+03  5.614229E+04  2.810795E-09  3.064328E-09
       193  17 -2.070290E+04 -3.231846E+05 -2.167833E+04  4.320213E+04  3.684542E-09 -1.699937E-10
       193  18 -4.054296E+04 -4.077490E+05 -3.869599E+04  6.032874E+04 -4.454766E-09 -5.699470E-09
       193  19 -6.442903E+03 -2.394795E+05 -8.182830E+03  6.270552E+04 -1.047620E+03  3.941626E+02
       193  20  1.999441E+04 -1.547665E+05  1.337004E+04  4.558483E+04 -5.137046E+03 -2.580280E+03
       193  21  4.072562E+04 -7.178613E+04  3.157565E+04  5.853039E+04 -9.989874E+03 -5.556358E+03
       193  22 -6.366592E+03 -2.397773E+05 -7.535779E+03  5.942390E+04 -1.050799E+03  4.310952E+03
       193  23 -3.540068E+02 -2.389789E+05 -4.153922E+03  4.439338E+04 -5.141097E+03  2.142843E+03
       193  24  9.227951E+01 -2.397809E+05 -3.559321E+03  5.942966E+04 -9.994842E+03 -2.651113E+01
       193  25 -6.290231E+03 -2.400750E+05 -6.888663E+03  5.614229E+04 -1.054018E+03  8.227741E+03
       193  26 -2.070286E+04 -3.231845E+05 -2.167819E+04  4.320210E+04 -5.145166E+03  6.865335E+03
       193  27 -4.054285E+04 -4.077490E+05 -3.869574E+04  6.032870E+04 -9.999795E+03  5.501864E+03
       194   1  5.576779E+04 -7.997069E+03  4.517745E+04  5.963026E+04  1.310272E+04  6.162878E+03
       194   2  7.624838E+04  7.602862E+04  6.175125E+04  4.408464E+04  1.795082E+04  7.717695E+03
       194   3  9.530670E+04  1.596124E+05  7.698209E+04  5.858722E+04  2.202221E+04  9.273516E+03
       194   4 -3.279553E+02 -2.395623E+05 -3.709458E+03  5.942459E+04  1.310803E+04  6.311277E+02
       194   5 -1.148446E+02 -2.392749E+05 -4.734716E+03  4.439943E+04  1.795621E+04  3.004904E+03
       194   6 -1.466292E+03 -2.395787E+05 -7.672226E+03  5.942349E+04  2.202748E+04  5.379483E+03
       194   7 -5.642714E+04 -4.710768E+05 -5.259929E+04  5.921900E+04  1.311335E+04 -4.898591E+03
       194   8 -7.648447E+04 -5.544844E+05 -7.122620E+04  4.471408E+04  1.796160E+04 -1.705530E+03
       194   9 -9.824961E+04 -6.386196E+05 -9.233557E+04  6.025925E+04  2.203274E+04  1.487914E+03
       194  10  5.576759E+04 -7.997156E+03  4.517706E+04  5.963020E+04 -7.794103E-09 -5.799700E-09
       194  11  7.624802E+04  7.602847E+04  6.175053E+04  4.408453E+04  2.404352E-09 -1.692381E-09
       194  12  9.530616E+04  1.596122E+05  7.698101E+04  5.858706E+04 -1.073838E-09 -6.671194E-09
       194  13 -3.281399E+02 -2.395623E+05 -3.709782E+03  5.942458E+04  3.095700E-09 -1.080021E-09
       194  14 -1.151932E+02 -2.392750E+05 -4.735339E+03  4.439939E+04  1.030685E-09  5.023203E-10
       194  15 -1.466820E+03 -2.395789E+05 -7.673192E+03  5.942340E+04 -1.869268E-10 -4.735564E-09
       194  16 -5.642734E+04 -4.710768E+05 -5.259965E+04  5.921905E+04 -7.689265E-09  4.705832E-09
       194  17 -7.648482E+04 -5.544845E+05 -7.122681E+04  4.471411E+04 -5.205585E-09  4.639242E-09
       194  18 -9.825013E+04 -6.386197E+05 -9.233649E+04  6.025922E+04 -6.721099E-10  4.691419E-09
       194  19  5.576779E+04 -7.997069E+03  4.517745E+04  5.963026E+04 -1.310272E+04 -6.162878E+03
       194  20  7.624838E+04  7.602862E+04  6.175125E+04  4.408464E+04 -1.795082E+04 -7.717695E+03
       194  21  9.530670E+04  1.596124E+05  7.698209E+04  5.858722E+04 -2.202221E+04 -9.273516E+03
       194  22 -3.279553E+02 -2.395623E+05 -3.709458E+03  5.942459E+04 -1.310803E+04 -6.311277E+02
       194  23 -1.148446E+02 -2.392749E+05 -4.734716E+03  4.439943E+04 -1.795621E+04 -3.004904E+03
       194  24 -1.466292E+03 -2.395787E+05 -7.672226E+03  5.942349E+04 -2.202748E+04 -5.379483E+03
       194  25 -5.642714E+04 -4.710768E+05 -5.259929E+04  5.921900E+04 -1.311335E+04  4.898591E+03
       194  26 -7.648447E+04 -5.544844E+05 -7.122620E+04  4.471408E+04 -1.796160E+04  1.705530E+03
       194  27 -9.824961E+04 -6.386196E+05 -9.233557E+04  6.025925E+04 -2.203274E+04 -1.487914E+03
       195   1  1.131672E+05  2.220772E+05  8.833548E+04  6.272589E+04  2.607688E+04  1.509975E+04
       195   2  1.313473E+05  3.079948E+05  1.026508E+05  3.849457E+04  2.558447E+04  5.771551E+03
       195   3  1.271574E+05  3.897229E+05  1.174824E+05  4.342494E+04  8.227844E+03 -3.583612E+03
       195   4  9.779067E+02 -2.410793E+05 -9.511501E+03  5.923717E+04  2.608789E+04  6.719491E+03
       195   5 -1.505520E+03 -2.374482E+05 -1.611159E+04  4.463467E+04  2.557376E+04  1.520299E+04
       195   6 -2.946177E+04 -2.411103E+05 -3.456834E+04  5.919611E+04  8.188441E+03  2.366033E+04
       195   7 -1.112252E+05 -7.040331E+05 -1.073704E+05  5.575114E+04  2.609900E+04 -1.654618E+03
       195   8 -1.343779E+05 -7.826121E+05 -1.348915E+05  5.076938E+04  2.556322E+04  2.462624E+04
       195   9 -1.861087E+05 -8.715774E+05 -1.866446E+05  7.495133E+04  8.150404E+03  5.087669E+04
       195  10  1.131664E+05  2.220767E+05  8.833377E+04  6.272558E+04  5.567657E-11  1.586787E-08
       195  11  1.313466E+05  3.079946E+05  1.026495E+05  3.849445E+04  5.014542E-10  1.215074E-08
       195  12  1.271573E+05  3.897228E+05  1.174823E+05  4.342496E+04 -1.857731E-09 -1.872843E-09
       195  13  9.771638E+02 -2.410795E+05 -9.512864E+03  5.923703E+04  1.107253E-09 -6.073015E-11
       195  14 -1.506284E+03 -2.374486E+05 -1.611325E+04  4.463435E+04 -4.373745E-09 -2.016689E-09
       195  15 -2.946199E+04 -2.411109E+05 -3.456952E+04  5.919596E+04  5.179600E-09 -6.301464E-09
       195  16 -1.112259E+05 -7.040333E+05 -1.073716E+05  5.575117E+04  6.383573E-11 -1.395376E-08
       195  17 -1.343788E+05 -7.826130E+05 -1.348938E+05  5.076887E+04 -4.556567E-09 -9.910009E-09
       195  18 -1.861095E+05 -8.715802E+05 -1.866496E+05  7.495099E+04 -4.639959E-09 -4.828828E-09
       195  19  1.131672E+05  2.220772E+05  8.833548E+04  6.272589E+04 -2.607688E+04 -1.509975E+04
       195  20  1.313473E+05  3.079948E+05  1.026508E+05  3.849457E+04 -2.558447E+04 -5.771551E+03
       195  21  1.271574E+05  3.897229E+05  1.174824E+05  4.342494E+04 -8.227844E+03  3.583612E+03
       195  22  9.779067E+02 -2.410793E+05 -9.511501E+03  5.923717E+04 -2.608789E+04 -6.719491E+03
       195  23 -1.505520E+03 -2.374482E+05 -1.611159E+04  4.463467E+04 -2.557376E+04 -1.520299E+04
       195  24 -2.946177E+04 -2.411103E+05 -3.456834E+04  5.919611E+04 -8.188441E+03 -2.366033E+04
       195  25 -1.112252E+05 -7.040331E+05 -1.073704E+05  5.575114E+04 -2.609900E+04  1.654618E+03
       195  26 -1.343779E+05 -7.826121E+05 -1.348915E+05  5.076938E+04 -2.556322E+04 -2.462624E+04
       195  27 -1.861087E+05 -8.715774E+05 -1.866446E+05  7.495133E+04 -8.150404E+03 -5.087669E+04
       196   1  3.702236E+04  1.049741E+05  9.389674E+04  2.038819E+04  1.275433E+04 -8.067689E+03
       196   2 -6.108559E+03  1.187364E+05  8.382598E+04  2.812587E+04  7.052995E+02 -2.686447E+04
       196   3 -5.233252E+04  1.137825E+05  7.693434E+04  4.551455E+04 -1.135243E+04 -3.176357E+04
       196   4 -5.367525E+05 -3.677139E+04 -4.111922E+04  4.265571E+04 -2.861448E+04 -8.102069E+03
       196   5 -5.332497E+05 -7.439191E+03 -1.986873E+04  3.781263E+04 -1.831787E+04 -2.688394E+04
       196   6 -5.367282E+05 -7.134670E+02 -1.096498E+04  4.262134E+04 -8.030951E+03 -3.176224E+04
       196   7 -1.110220E+06 -1.785375E+05 -1.761511E+05  6.490246E+04 -6.994527E+04 -8.139435E+03
       196   8 -1.060124E+06 -1.336310E+05 -1.235755E+05  4.749094E+04 -3.732523E+04 -2.690401E+04
       196   9 -1.020896E+06 -1.152226E+05 -9.887358E+04  3.973038E+04 -4.711987E+03 -3.176095E+04
       196  10  3.702217E+04  1.049740E+05  9.389632E+04  2.038827E+04 -3.600383E-08 -8.404981E-10
       196  11 -6.108754E+03  1.187356E+05  8.382462E+04  2.812588E+04  4.697079E-10 -3.177637E-09
       196  12 -5.233292E+04  1.137814E+05  7.693220E+04  4.551426E+04  4.853836E-08 -2.356787E-09
       196  13 -5.367534E+05 -3.677168E+04 -4.112088E+04  4.265552E+04  2.155717E-10 -4.313990E-10
       196  14 -5.332503E+05 -7.440057E+03 -1.987072E+04  3.781224E+04 -2.452597E-10 -5.577612E-09
       196  15 -5.367286E+05 -7.145674E+02 -1.096700E+04  4.262113E+04 -3.791902E-09 -8.997180E-09
       196  16 -1.110225E+06 -1.785389E+05 -1.761605E+05  6.490201E+04  3.769695E-08  1.085989E-09
       196  17 -1.060125E+06 -1.336322E+05 -1.235795E+05  4.749013E+04 -2.574245E-09 -6.948008E-10
       196  18 -1.020896E+06 -1.152237E+05 -9.887551E+04  3.973026E+04 -4.655996E-08 -2.448583E-09
       196  19  3.702236E+04  1.049741E+05  9.389674E+04  2.038819E+04 -1.275433E+04  8.067689E+03
       196  20 -6.108559E+03  1.187364E+05  8.382598E+04  2.812587E+04 -7.052995E+02  2.686447E+04
       196  21 -5.233252E+04  1.137825E+05  7.693434E+04  4.551455E+04  1.135243E+04  3.176357E+04
       196  22 -5.367525E+05 -3.677139E+04 -4.111922E+04  4.265571E+04  2.861448E+04  8.102069E+03
       196  23 -5.332497E+05 -7.439191E+03 -1.986873E+04  3.781263E+04  1.831787E+04  2.688394E+04
       196  24 -5.367282E+05 -7.134670E+02 -1.096498E+04  4.262134E+04  8.030951E+03  3.176224E+04
       196  25 -1.110220E+06 -1.785375E+05 -1.761511E+05  6.490246E+04  6.994527E+04  8.139435E+03
       196  26 -1.060124E+06 -1.336310E+05 -1.235755E+05  4.749094E+04  3.732523E+04  2.690401E+04
       196  27 -1.020896E+06 -1.152226E+05 -9.887358E+04  3.973038E+04  4.711987E+03  3.176095E+04
       197   1 -8.094271E+04  1.057618E+05  7.348232E+04  4.260694E+04 -8.071151E+03 -3.035505E+04
       197   2 -1.254926E+05  9.622462E+04  6.759367E+04  3.774857E+04 -7.640285E+03 -2.885936E+04
       197   3 -1.702984E+05  8.591897E+04  6.123083E+04  4.344808E+04 -7.211489E+03 -2.619821E+04
       197   4 -5.353018E+05 -1.510862E+03 -8.376924E+03  4.282771E+04 -6.600520E+03 -3.035540E+04
       197   5 -5.350039E+05 -1.495289E+02 -4.618628E+03  3.754757E+04 -4.297177E+03 -2.885718E+04
       197   6 -5.352888E+05  1.180079E+02 -2.635869E+03  4.282576E+04 -1.995843E+03 -2.619311E+04
       197   7 -9.894597E+05 -1.087951E+05 -9.024420E+04  4.304825E+04 -5.130934E+03 -3.035574E+04
       197   8 -9.443510E+05 -9.653287E+04 -7.683702E+04  3.734665E+04 -9.562102E+02 -2.885499E+04
       197   9 -9.001486E+05 -8.569019E+04 -6.650723E+04  4.220376E+04  3.216828E+03 -2.618801E+04
       197  10 -8.094303E+04  1.057608E+05  7.348047E+04  4.260674E+04 -7.578873E-08 -2.597788E-09
       197  11 -1.254929E+05  9.622371E+04  6.759199E+04  3.774839E+04  3.195291E-10  7.149643E-10
       197  12 -1.702986E+05  8.591822E+04  6.122944E+04  4.344793E+04  6.912324E-08  8.932902E-10
       197  13 -5.353021E+05 -1.511863E+03 -8.378737E+03  4.282755E+04  4.820446E-09 -1.073926E-08
       197  14 -5.350041E+05 -1.504278E+02 -4.620227E+03  3.754747E+04 -2.480538E-09 -5.210358E-09
       197  15 -5.352889E+05  1.172703E+02 -2.637165E+03  4.282571E+04  2.937692E-10 -3.054048E-09
       197  16 -9.894599E+05 -1.087961E+05 -9.024598E+04  4.304813E+04  7.949769E-08 -1.661477E-11
       197  17 -9.443513E+05 -9.653376E+04 -7.683859E+04  3.734663E+04  2.976647E-09  5.110244E-10
       197  18 -9.001488E+05 -8.569093E+04 -6.650854E+04  4.220383E+04 -6.436707E-08 -7.726635E-10
       197  19 -8.094271E+04  1.057618E+05  7.348232E+04  4.260694E+04  8.071151E+03  3.035505E+04
       197  20 -1.254926E+05  9.622462E+04  6.759367E+04  3.774857E+04  7.640285E+03  2.885936E+04
       197  21 -1.702984E+05  8.591897E+04  6.123083E+04  4.344808E+04  7.211489E+03  2.619821E+04
       197  22 -5.353018E+05 -1.510862E+03 -8.376924E+03  4.282771E+04  6.600520E+03  3.035540E+04
       197  23 -5.350039E+05 -1.495289E+02 -4.618628E+03  3.754757E+04  4.297177E+03  2.885718E+04
       197  24 -5.352888E+05  1.180079E+02 -2.635869E+03  4.282576E+04  1.995843E+03  2.619311E+04
       197  25 -9.894597E+05 -1.087951E+05 -9.024420E+04  4.304825E+04  5.130934E+03  3.035574E+04
       197  26 -9.443510E+05 -9.653287E+04 -7.683702E+04  3.734665E+04  9.562102E+02  2.885499E+04
       197  27 -9.001486E+05 -8.569019E+04 -6.650723E+04  4.220376E+04 -3.216828E+03  2.618801E+04
       198   1 -1.996976E+05  7.889457E+04  5.647751E+04  4.327155E+04 -6.655152E+03 -2.429211E+04
       198   2 -2.444259E+05  6.840582E+04  4.948269E+04  3.788688E+04 -6.248584E+03 -2.109246E+04
       198   3 -2.892286E+05  5.791854E+04  4.221705E+04  4.315529E+04 -5.842891E+03 -1.779339E+04
       198   4 -5.351784E+05  7.392257E+01 -2.005244E+03  4.284719E+04 -1.591392E+03 -2.428680E+04
       198   5 -5.351219E+05  1.141413E+02 -1.150635E+03  3.752048E+04 -1.025458E+03 -2.108638E+04
       198   6 -5.351696E+05  1.281936E+02 -6.777903E+02  4.284712E+04 -4.603701E+02 -1.778653E+04
       198   7 -8.705487E+05 -7.875282E+04 -6.049189E+04  4.242303E+04  3.469713E+03 -2.428149E+04
       198   8 -8.257349E+05 -6.818210E+04 -5.178684E+04  3.715421E+04  4.195295E+03 -2.108031E+04
       198   9 -7.810512E+05 -5.766542E+04 -4.357466E+04  4.253905E+04  4.920082E+03 -1.777967E+04
       198  10 -1.996978E+05  7.889393E+04  5.647632E+04  4.327142E+04 -1.166311E-09  1.750533E-09
       198  11 -2.444260E+05  6.840533E+04  4.948178E+04  3.788678E+04 -3.141232E-09  3.161730E-09
       198  12 -2.892287E+05  5.791819E+04  4.221639E+04  4.315520E+04  8.037730E-09  4.887759E-09
       198  13 -5.351785E+05  7.328866E+01 -2.006357E+03  4.284716E+04 -7.584757E-09 -2.035470E-09
       198  14 -5.351220E+05  1.136637E+02 -1.151472E+03  3.752046E+04 -2.496048E-09  2.554725E-09
       198  15 -5.351697E+05  1.278539E+02 -6.783851E+02  4.284711E+04  5.997129E-09  5.137297E-09
       198  16 -8.705489E+05 -7.875346E+04 -6.049302E+04  4.242310E+04 -2.365772E-09 -1.239372E-11
       198  17 -8.257351E+05 -6.818258E+04 -5.178771E+04  3.715429E+04 -7.426740E-09  2.381406E-09
       198  18 -7.810513E+05 -5.766576E+04 -4.357530E+04  4.253912E+04 -6.461056E-09  1.364389E-09
       198  19 -1.996976E+05  7.889457E+04  5.647751E+04  4.327155E+04  6.655152E+03  2.429211E+04
       198  20 -2.444259E+05  6.840582E+04  4.948269E+04  3.788688E+04  6.248584E+03  2.109246E+04
       198  21 -2.892286E+05  5.791854E+04  4.221705E+04  4.315529E+04  5.842891E+03  1.779339E+04
       198  22 -5.351784E+05  7.392257E+01 -2.005244E+03  4.284719E+04  1.591392E+03  2.428680E+04
       198  23 -5.351219E+05  1.141413E+02 -1.150635E+03  3.752048E+04  1.025458E+03  2.108638E+04
       198  24 -5.351696E+05  1.281936E+02 -6.777903E+02  4.284712E+04  4.603701E+02  1.778653E+04
       198  25 -8.705487E+05 -7.875282E+04 -6.049189E+04  4.242303E+04 -3.469713E+03  2.428149E+04
       198  26 -8.257349E+05 -6.818210E+04 -5.178684E+04  3.715421E+04 -4.195295E+03  2.108031E+04
       198  27 -7.810512E+05 -5.766542E+04 -4.357466E+04  4.253905E+04 -4.920082E+03  1.777967E+04
       199   1 -3.187241E+05  5.094561E+04  3.702734E+04  4.311700E+04 -5.725544E+03 -1.584264E+04
       199   2 -3.635303E+05  4.042277E+04  2.950243E+04  3.771963E+04 -5.573543E+03 -1.249604E+04
       199   3 -4.083797E+05  2.992989E+04  2.187688E+04  4.299645E+04 -5.422002E+03 -9.140412E+03
       199   4 -5.351545E+05  1.270009E+02 -5.295608E+02  4.285180E+04 -3.537337E+02 -1.583552E+04
       199   5 -5.351278E+05  1.160217E+02 -3.454089E+02  3.751462E+04 -1.874833E+02 -1.248856E+04
       199   6 -5.351494E+05  1.324279E+02 -2.720827E+02  4.285180E+04 -2.168258E+01 -9.132568E+03
       199   7 -7.515388E+05 -5.069413E+04 -3.808799E+04  4.258669E+04  5.016260E+03 -1.582840E+04
       199   8 -7.066962E+05 -4.019231E+04 -3.019417E+04  3.730966E+04  5.197132E+03 -1.248108E+04
       199   9 -6.619032E+05 -2.966590E+04 -2.242151E+04  4.270717E+04  5.377566E+03 -9.124726E+03
       199  10 -3.187242E+05  5.094534E+04  3.702681E+04  4.311692E+04  1.395652E-08  4.430363E-09
       199  11 -3.635304E+05  4.042259E+04  2.950208E+04  3.771958E+04  1.279262E-08  5.387686E-09
       199  12 -4.083797E+05  2.992980E+04  2.187667E+04  4.299641E+04  1.865155E-09  1.402797E-09
       199  13 -5.351546E+05  1.267316E+02 -5.300322E+02  4.285180E+04  9.334443E-09  3.546861E-09
       199  14 -5.351278E+05  1.158543E+02 -3.457020E+02  3.751462E+04  1.393834E-09  2.751645E-09
       199  15 -5.351494E+05  1.323384E+02 -2.722394E+02  4.285180E+04  6.331605E-09 -1.195335E-09
       199  16 -7.515389E+05 -5.069440E+04 -3.808851E+04  4.258675E+04 -8.844209E-09  8.664623E-10
       199  17 -7.066963E+05 -4.019248E+04 -3.019452E+04  3.730971E+04 -1.198719E-08 -1.133325E-09
       199  18 -6.619033E+05 -2.966599E+04 -2.242172E+04  4.270721E+04 -2.305233E-11 -8.883555E-10
       199  19 -3.187241E+05  5.094561E+04  3.702734E+04  4.311700E+04  5.725544E+03  1.584264E+04
       199  20 -3.635303E+05  4.042277E+04  2.950243E+04  3.771963E+04  5.573543E+03  1.249604E+04
       199  21 -4.083797E+05  2.992989E+04  2.187688E+04  4.299645E+04  5.422002E+03  9.140412E+03
       199  22 -5.351545E+05  1.270009E+02 -5.295608E+02  4.285180E+04  3.537337E+02  1.583552E+04
       199  23 -5.351278E+05  1.160217E+02 -3.454089E+02  3.751462E+04  1.874833E+02  1.248856E+04
       199  24 -5.351494E+05  1.324279E+02 -2.720827E+02  4.285180E+04  2.168258E+01  9.132568E+03
       199  25 -7.515388E+05 -5.069413E+04 -3.808799E+04  4.258669E+04 -5.016260E+03  1.582840E+04
       199  26 -7.066962E+05 -4.019231E+04 -3.019417E+04  3.730966E+04 -5.197132E+03  1.248108E+04
       199  27 -6.619032E+05 -2.966590E+04 -2.242151E+04  4.270717E+04 -5.377566E+03  9.124726E+03
       200   1 -4.379158E+05  2.295333E+04  1.654083E+04  4.296150E+04 -5.376304E+03 -7.184155E+03
       200   2 -4.827466E+05  1.242692E+04  8.781140E+03  3.755456E+04 -5.214556E+03 -3.825288E+03
       200   3 -5.276286E+05  1.927295E+03  9.119495E+02  4.283095E+04 -5.052945E+03 -4.704071E+02
       200   4 -5.351487E+05  1.340167E+02 -2.683918E+02  4.285380E+04  2.460624E+01 -7.176177E+03
       200   5 -5.351223E+05  1.246708E+02 -3.240042E+02  3.751211E+04  1.797914E+02 -3.817218E+03
       200   6 -5.351472E+05  1.434953E+02 -4.844233E+02  4.285380E+04  3.348514E+02 -4.622408E+02
       200   7 -6.323723E+05 -2.268578E+04 -1.707783E+04  4.274612E+04  5.424696E+03 -7.168201E+03
       200   8 -5.874952E+05 -1.217771E+04 -9.429135E+03  3.746966E+04  5.573697E+03 -3.809147E+03
       200   9 -5.426657E+05 -1.640292E+03 -1.880689E+03  4.287664E+04  5.722584E+03 -4.540740E+02
       200  10 -4.379159E+05  2.295326E+04  1.654068E+04  4.296147E+04  2.709596E-08 -1.368452E-10
       200  11 -4.827467E+05  1.242690E+04  8.781061E+03  3.755454E+04 -8.525866E-09  1.541313E-09
       200  12 -5.276286E+05  1.927288E+03  9.119011E+02  4.283095E+04 -2.617054E-08  1.780508E-09
       200  13 -5.351488E+05  1.339614E+02 -2.684886E+02  4.285380E+04  4.682543E-09  3.618117E-09
       200  14 -5.351223E+05  1.246551E+02 -3.240316E+02  3.751211E+04 -1.348265E-08  2.584946E-09
       200  15 -5.351472E+05  1.434951E+02 -4.844239E+02  4.285380E+04  4.878247E-10  6.207193E-10
       200  16 -6.323724E+05 -2.268585E+04 -1.707798E+04  4.274615E+04 -2.864609E-08  2.667341E-09
       200  17 -5.874953E+05 -1.217774E+04 -9.429220E+03  3.746968E+04 -5.428367E-09  2.040721E-09
       200  18 -5.426658E+05 -1.640301E+03 -1.880751E+03  4.287664E+04  2.318222E-08 -7.913464E-10
       200  19 -4.379158E+05  2.295333E+04  1.654083E+04  4.296150E+04  5.376304E+03  7.184155E+03
       200  20 -4.827466E+05  1.242692E+04  8.781140E+03  3.755456E+04  5.214556E+03  3.825288E+03
       200  21 -5.276286E+05  1.927295E+03  9.119495E+02  4.283095E+04  5.052945E+03  4.704071E+02
       200  22 -5.351487E+05  1.340167E+02 -2.683918E+02  4.285380E+04 -2.460624E+01  7.176177E+03
       200  23 -5.351223E+05  1.246708E+02 -3.240042E+02  3.751211E+04 -1.797914E+02  3.817218E+03
       200  24 -5.351472E+05  1.434953E+02 -4.844233E+02  4.285380E+04 -3.348514E+02  4.622408E+02
       200  25 -6.323723E+05 -2.268578E+04 -1.707783E+04  4.274612E+04 -5.424696E+03  7.168201E+03
       200  26 -5.874952E+05 -1.217771E+04 -9.429135E+03  3.746966E+04 -5.573697E+03  3.809147E+03
       200  27 -5.426657E+05 -1.640292E+03 -1.880689E+03  4.287664E+04 -5.722584E+03  4.540740E+02
       201   1 -5.571861E+05 -5.050148E+03 -4.564152E+03  4.278164E+04 -4.964114E+03  1.484841E+03
       201   2 -6.019757E+05 -1.557980E+04 -1.272163E+04  3.736874E+04 -4.357097E+03  4.813162E+03
       201   3 -6.468893E+05 -2.614570E+04 -2.129434E+04  4.263485E+04 -3.749871E+03  8.080664E+03
       201   4 -5.351601E+05  1.475312E+02 -6.165382E+02  4.285278E+04  4.314452E+02  1.493010E+03
       201   5 -5.351067E+05  1.395933E+02 -1.039066E+03  3.751335E+04  9.406069E+02  4.821051E+03
       201   6 -5.351623E+05  1.124877E+02 -1.808824E+03  4.285285E+04  1.450021E+03  8.088278E+03
       201   7 -5.131336E+05  5.345199E+03  3.331166E+03  4.292394E+04  5.827190E+03  1.501181E+03
       201   8 -4.682333E+05  1.585875E+04  1.064345E+04  3.765797E+04  6.238865E+03  4.828941E+03
       201   9 -4.234229E+05  2.637002E+04  1.767635E+04  4.307088E+04  6.650821E+03  8.095895E+03
       201  10 -5.571862E+05 -5.050157E+03 -4.564203E+03  4.278164E+04  2.073529E-08  3.748078E-09
       201  11 -6.019757E+05 -1.557983E+04 -1.272171E+04  3.736876E+04 -7.843576E-09  5.006188E-10
       201  12 -6.468894E+05 -2.614578E+04 -2.129449E+04  4.263488E+04 -3.575098E-08 -1.499666E-09
       201  13 -5.351601E+05  1.475287E+02 -6.165427E+02  4.285278E+04 -7.838606E-09 -3.484399E-10
       201  14 -5.351067E+05  1.395681E+02 -1.039111E+03  3.751335E+04 -3.493070E-10 -2.656916E-10
       201  15 -5.351623E+05  1.124169E+02 -1.808951E+03  4.285284E+04  5.782922E-09  1.844130E-09
       201  16 -5.131336E+05  5.345187E+03  3.331098E+03  4.292393E+04 -2.785865E-08  1.226656E-10
       201  17 -4.682333E+05  1.585872E+04  1.064333E+04  3.765795E+04 -1.144645E-09 -3.907866E-09
       201  18 -4.234230E+05  2.636993E+04  1.767614E+04  4.307083E+04  3.217870E-08  4.594465E-09
       201  19 -5.571861E+05 -5.050148E+03 -4.564152E+03  4.278164E+04  4.964114E+03 -1.484841E+03
       201  20 -6.019757E+05 -1.557980E+04 -1.272163E+04  3.736874E+04  4.357097E+03 -4.813162E+03
       201  21 -6.468893E+05 -2.614570E+04 -2.129434E+04  4.263485E+04  3.749871E+03 -8.080664E+03
       201  22 -5.351601E+05  1.475312E+02 -6.165382E+02  4.285278E+04 -4.314452E+02 -1.493010E+03
       201  23 -5.351067E+05  1.395933E+02 -1.039066E+03  3.751335E+04 -9.406069E+02 -4.821051E+03
       201  24 -5.351623E+05  1.124877E+02 -1.808824E+03  4.285285E+04 -1.450021E+03 -8.088278E+03
       201  25 -5.131336E+05  5.345199E+03  3.331166E+03  4.292394E+04 -5.827190E+03 -1.501181E+03
       201  26 -4.682333E+05  1.585875E+04  1.064345E+04  3.765797E+04 -6.238865E+03 -4.828941E+03
       201  27 -4.234229E+05  2.637002E+04  1.767635E+04  4.307088E+04 -6.650821E+03 -8.095895E+03
       202   1 -6.765479E+05 -3.309549E+04 -2.723932E+04  4.242889E+04 -3.481065E+03  1.000978E+04
       202   2 -7.209933E+05 -4.390548E+04 -3.714089E+04  3.746616E+04 -2.474197E+02  1.294830E+04
       202   3 -7.661860E+05 -5.589892E+04 -4.945425E+04  4.312972E+04  2.987316E+03  1.516347E+04
       202   4 -5.352613E+05  1.550611E+02 -2.377198E+03  4.284075E+04  1.813790E+03  1.001739E+04
       202   5 -5.349905E+05 -8.250713E+01 -4.162163E+03  3.752875E+04  3.885740E+03  1.295389E+04
       202   6 -5.352677E+05 -1.301516E+03 -7.551339E+03  4.284286E+04  5.959023E+03  1.516715E+04
       202   7 -3.939550E+05  3.340454E+04  2.248430E+04  4.325271E+04  7.109815E+03  1.002500E+04
       202   8 -3.489539E+05  4.373857E+04  2.881534E+04  3.759135E+04  8.020103E+03  1.295948E+04
       202   9 -3.042974E+05  5.329289E+04  3.434949E+04  4.255588E+04  8.931806E+03  1.517082E+04
       202  10 -6.765480E+05 -3.309560E+04 -2.723953E+04  4.242891E+04 -7.456631E-09  1.632473E-09
       202  11 -7.209933E+05 -4.390566E+04 -3.714120E+04  3.746616E+04  7.278677E-10  2.310093E-09
       202  12 -7.661861E+05 -5.589916E+04 -4.945470E+04  4.312968E+04  3.427411E-09  2.273619E-09
       202  13 -5.352613E+05  1.549525E+02 -2.377393E+03  4.284074E+04 -3.556206E-09  3.541162E-09
       202  14 -5.349906E+05 -8.269133E+01 -4.162506E+03  3.752871E+04 -8.984504E-09  2.334811E-09
       202  15 -5.352678E+05 -1.301773E+03 -7.551838E+03  4.284279E+04  6.814825E-09 -1.930579E-10
       202  16 -3.939551E+05  3.340442E+04  2.248402E+04  4.325265E+04  2.638781E-09  5.451758E-09
       202  17 -3.489541E+05  4.373837E+04  2.881490E+04  3.759126E+04 -1.267483E-09 -6.659322E-10
       202  18 -3.042976E+05  5.329262E+04  3.434891E+04  4.255577E+04 -2.002020E-09 -3.737130E-09
       202  19 -6.765479E+05 -3.309549E+04 -2.723932E+04  4.242889E+04  3.481065E+03 -1.000978E+04
       202  20 -7.209933E+05 -4.390548E+04 -3.714089E+04  3.746616E+04  2.474197E+02 -1.294830E+04
       202  21 -7.661860E+05 -5.589892E+04 -4.945425E+04  4.312972E+04 -2.987316E+03 -1.516347E+04
       202  22 -5.352613E+05  1.550611E+02 -2.377198E+03  4.284075E+04 -1.813790E+03 -1.001739E+04
       202  23 -5.349905E+05 -8.250713E+01 -4.162163E+03  3.752875E+04 -3.885740E+03 -1.295389E+04
       202  24 -5.352677E+05 -1.301516E+03 -7.551339E+03  4.284286E+04 -5.959023E+03 -1.516715E+04
       202  25 -3.939550E+05  3.340454E+04  2.248430E+04  4.325271E+04 -7.109815E+03 -1.002500E+04
       202  26 -3.489539E+05  4.373857E+04  2.881534E+04  3.759135E+04 -8.020103E+03 -1.295948E+04
       202  27 -3.042974E+05  5.329289E+04  3.434949E+04  4.255588E+04 -8.931806E+03 -1.517082E+04
       203   1 -7.973631E+05 -6.232715E+04 -5.757433E+04  4.017276E+04  3.127001E+03  1.678257E+04
       203   2 -8.378437E+05 -7.964056E+04 -7.834314E+04  4.645855E+04  2.625889E+04  1.506114E+04
       203   3 -8.870622E+05 -1.197571E+05 -1.198886E+05  6.281980E+04  4.939909E+04  4.706566E+03
       203   4 -5.365538E+05 -5.795453E+02 -9.884720E+03  4.271424E+04  7.247476E+03  1.678765E+04
       203   5 -5.333995E+05 -6.644750E+03 -1.790845E+04  3.769762E+04  1.651487E+04  1.504736E+04
       203   6 -5.365711E+05 -3.309808E+04 -3.706882E+04  4.275701E+04  2.579241E+04  4.675016E+03
       203   7 -2.756783E+05  6.116423E+04  3.780220E+04  4.525679E+04  1.136964E+04  1.679276E+04
       203   8 -2.288663E+05  6.634575E+04  4.252204E+04  2.893226E+04  6.766162E+03  1.503385E+04
       203   9 -1.859648E+05  5.355401E+04  4.574475E+04  2.268278E+04  2.172466E+03  4.645002E+03
       203  10 -7.973631E+05 -6.232745E+04 -5.757488E+04  4.017272E+04  3.983071E-10  9.402609E-10
       203  11 -8.378445E+05 -7.964099E+04 -7.834486E+04  4.645823E+04  9.070839E-10 -1.080349E-09
       203  12 -8.870648E+05 -1.197578E+05 -1.198932E+05  6.281961E+04  4.254484E-09  2.204471E-10
       203  13 -5.365539E+05 -5.798620E+02 -9.885348E+03  4.271414E+04 -3.979727E-09  2.829302E-09
       203  14 -5.333999E+05 -6.645066E+03 -1.790939E+04  3.769742E+04 -2.097188E-09 -2.085584E-09
       203  15 -5.365718E+05 -3.309828E+04 -3.707012E+04  4.275691E+04 -7.235680E-10  2.534958E-09
       203  16 -2.756785E+05  6.116390E+04  3.780143E+04  4.525664E+04  2.078109E-09  2.267976E-09
       203  17 -2.288664E+05  6.634549E+04  4.252153E+04  2.893218E+04  2.663489E-09  1.764570E-09
       203  18 -1.859648E+05  5.355399E+04  4.574470E+04  2.268277E+04 -3.955178E-09  3.829279E-10
       203  19 -7.973631E+05 -6.232715E+04 -5.757433E+04  4.017276E+04 -3.127001E+03 -1.678257E+04
       203  20 -8.378437E+05 -7.964056E+04 -7.834314E+04  4.645855E+04 -2.625889E+04 -1.506114E+04
       203  21 -8.870622E+05 -1.197571E+05 -1.198886E+05  6.281980E+04 -4.939909E+04 -4.706566E+03
       203  22 -5.365538E+05 -5.795453E+02 -9.884720E+03  4.271424E+04 -7.247476E+03 -1.678765E+04
       203  23 -5.333995E+05 -6.644750E+03 -1.790845E+04  3.769762E+04 -1.651487E+04 -1.504736E+04
       203  24 -5.365711E+05 -3.309808E+04 -3.706882E+04  4.275701E+04 -2.579241E+04 -4.675016E+03
       203  25 -2.756783E+05  6.116423E+04  3.780220E+04  4.525679E+04 -1.136964E+04 -1.679276E+04
       203  26 -2.288663E+05  6.634575E+04  4.252204E+04  2.893226E+04 -6.766162E+03 -1.503385E+04
       203  27 -1.859648E+05  5.355401E+04  4.574475E+04  2.268278E+04 -2.172466E+03 -4.645002E+03
       204   1 -2.312550E+04  9.389153E+04  8.525437E+04  1.402615E+04  3.656364E+03 -6.808826E+03
       204   2 -5.949185E+04  1.064003E+05  8.045805E+04  1.716063E+04 -3.540316E+03 -2.204281E+04
       204   3 -9.967229E+04  9.986876E+04  7.560210E+04  3.193207E+04 -1.075156E+04 -2.459098E+04
       204   4 -5.106419E+05 -2.693435E+04 -3.143366E+04  2.821006E+04 -2.169542E+04 -6.840887E+03
       204   5 -5.074282E+05 -2.224362E+03 -1.468361E+04  2.237229E+04 -1.397690E+04 -2.205830E+04
       204   6 -5.106246E+05  8.471846E+02 -8.357533E+03  2.817215E+04 -6.273237E+03 -2.458554E+04
       204   7 -9.979386E+05 -1.477763E+05 -1.481360E+05  4.238271E+04 -4.702737E+04 -6.874120E+03
       204   8 -9.551751E+05 -1.108619E+05 -1.098363E+05  2.758008E+04 -2.440606E+04 -2.207397E+04
       204   9 -9.214162E+05 -9.818491E+04 -9.232601E+04  2.441470E+04 -1.797827E+03 -2.458016E+04
       204  10 -2.312552E+04  9.389147E+04  8.525425E+04  1.402617E+04 -2.594389E-09 -5.431835E-10
       204  11 -5.949199E+04  1.063997E+05  8.045711E+04  1.716057E+04  6.100688E-09  2.715510E-09
       204  12 -9.967258E+04  9.986808E+04  7.560074E+04  3.193186E+04 -2.416433E-09  6.018494E-10
       204  13 -5.106424E+05 -2.693453E+04 -3.143464E+04  2.820994E+04 -3.322138E-09 -1.997519E-09
       204  14 -5.074286E+05 -2.224937E+03 -1.468490E+04  2.237205E+04 -3.033973E-09 -4.707244E-09
       204  15 -5.106248E+05  8.465251E+02 -8.358743E+03  2.817203E+04 -1.145175E-08  1.023418E-09
       204  16 -9.979410E+05 -1.477770E+05 -1.481402E+05  4.238245E+04  4.005248E-09  6.477845E-10
       204  17 -9.551758E+05 -1.108625E+05 -1.098384E+05  2.757964E+04 -7.991995E-09  3.430346E-09
       204  18 -9.214164E+05 -9.818556E+04 -9.232715E+04  2.441467E+04 -6.838726E-09  2.651602E-09
       204  19 -2.312550E+04  9.389153E+04  8.525437E+04  1.402615E+04 -3.656364E+03  6.808826E+03
       204  20 -5.949185E+04  1.064003E+05  8.045805E+04  1.716063E+04  3.540316E+03  2.204281E+04
       204  21 -9.967229E+04  9.986876E+04  7.560210E+04  3.193207E+04  1.075156E+04  2.459098E+04
       204  22 -5.106419E+05 -2.693435E+04 -3.143366E+04  2.821006E+04  2.169542E+04  6.840887E+03
       204  23 -5.074282E+05 -2.224362E+03 -1.468361E+04  2.237229E+04  1.397690E+04  2.205830E+04
       204  24 -5.106246E+05  8.471846E+02 -8.357533E+03  2.817215E+04  6.273237E+03  2.458554E+04
       204  25 -9.979386E+05 -1.477763E+05 -1.481360E+05  4.238271E+04  4.702737E+04  6.874120E+03
       204  26 -9.551751E+05 -1.108619E+05 -1.098363E+05  2.758008E+04  2.440606E+04  2.207397E+04
       204  27 -9.214162E+05 -9.818491E+04 -9.232601E+04  2.441470E+04  1.797827E+03  2.458016E+04
       205   1 -1.264492E+05  9.126214E+04  7.190351E+04  2.843185E+04 -6.560644E+03 -2.261844E+04
       205   2 -1.646085E+05  8.294079E+04  6.641971E+04  2.252409E+04 -5.573018E+03 -2.106783E+04
       205   3 -2.031138E+05  7.383737E+04  6.009238E+04  2.896219E+04 -4.587301E+03 -1.882851E+04
       205   4 -5.093051E+05 -1.022166E+03 -6.533993E+03  2.833849E+04 -5.141864E+03 -2.261735E+04
       205   5 -5.090562E+05  2.147291E+01 -3.600915E+03  2.216438E+04 -3.345444E+03 -2.106512E+04
       205   6 -5.092960E+05  1.421508E+02 -2.073930E+03  2.833658E+04 -1.550883E+03 -1.882400E+04
       205   7 -8.920216E+05 -9.331568E+04 -8.497928E+04  2.824514E+04 -3.723942E+03 -2.261625E+04
       205   8 -8.533909E+05 -8.290525E+04 -7.362772E+04  2.180483E+04 -1.119082E+03 -2.106241E+04
       205   9 -8.153890E+05 -7.355890E+04 -6.424509E+04  2.771124E+04  1.484065E+03 -1.881950E+04
       205  10 -1.264494E+05  9.126158E+04  7.190247E+04  2.843173E+04  4.349808E-09 -1.230310E-09
       205  11 -1.646087E+05  8.294031E+04  6.641881E+04  2.252400E+04  1.102257E-08  2.458981E-09
       205  12 -2.031139E+05  7.383698E+04  6.009167E+04  2.896212E+04  3.341728E-09  4.059441E-09
       205  13 -5.093052E+05 -1.022722E+03 -6.535004E+03  2.833840E+04  4.705420E-09  5.956453E-09
       205  14 -5.090563E+05  2.099352E+01 -3.601769E+03  2.216433E+04  1.537857E-09 -1.201343E-08
       205  15 -5.092961E+05  1.417697E+02 -2.074600E+03  2.833656E+04  8.842183E-11  3.112439E-09
       205  16 -8.920218E+05 -9.331623E+04 -8.498027E+04  2.824507E+04 -7.402210E-09 -2.406898E-09
       205  17 -8.533910E+05 -8.290572E+04 -7.362856E+04  2.180481E+04 -7.498706E-09 -6.149548E-09
       205  18 -8.153891E+05 -7.355929E+04 -6.424576E+04  2.771126E+04 -1.654049E-09 -3.195701E-09
       205  19 -1.264492E+05  9.126214E+04  7.190351E+04  2.843185E+04  6.560644E+03  2.261844E+04
       205  20 -1.646085E+05  8.294079E+04  6.641971E+04  2.252409E+04  5.573018E+03  2.106783E+04
       205  21 -2.031138E+05  7.383737E+04  6.009238E+04  2.896219E+04  4.587301E+03  1.882851E+04
       205  22 -5.093051E+05 -1.022166E+03 -6.533993E+03  2.833849E+04  5.141864E+03  2.261735E+04
       205  23 -5.090562E+05  2.147291E+01 -3.600915E+03  2.216438E+04  3.345444E+03  2.106512E+04
       205  24 -5.092960E+05  1.421508E+02 -2.073930E+03  2.833658E+04  1.550883E+03  1.882400E+04
       205  25 -8.920216E+05 -9.331568E+04 -8.497928E+04  2.824514E+04  3.723942E+03  2.261625E+04
       205  26 -8.533909E+05 -8.290525E+04 -7.362772E+04  2.180483E+04  1.119082E+03  2.106241E+04
       205  27 -8.153890E+05 -7.355890E+04 -6.424509E+04  2.771124E+04 -1.484065E+03  1.881950E+04
       206   1 -2.308565E+05  6.702775E+04  5.475765E+04  2.878292E+04 -4.104180E+03 -1.733752E+04
       206   2 -2.692766E+05  5.780692E+04  4.768262E+04  2.251072E+04 -3.693906E+03 -1.487248E+04
       206   3 -3.077905E+05  4.859489E+04  4.033165E+04  2.867052E+04 -3.284328E+03 -1.236778E+04
       206   4 -5.092069E+05  6.457949E+01 -1.590012E+03  2.835615E+04 -1.229869E+03 -1.733305E+04
       206   5 -5.091525E+05  8.761333E+01 -9.307693E+02  2.213997E+04 -7.732275E+02 -1.486759E+04
       206   6 -5.092010E+05  1.115879E+02 -5.796137E+02  2.835607E+04 -3.172561E+02 -1.236248E+04
       206   7 -7.874834E+05 -6.690340E+04 -5.794166E+04  2.792954E+04  1.643177E+03 -1.732857E+04
       206   8 -7.489736E+05 -5.763526E+04 -4.954711E+04  2.176934E+04  2.146344E+03 -1.486271E+04
       206   9 -7.105727E+05 -4.837423E+04 -4.149296E+04  2.804170E+04  2.648871E+03 -1.235717E+04
       206  10 -2.308566E+05  6.702742E+04  5.475706E+04  2.878286E+04  3.504592E-10 -2.204963E-09
       206  11 -2.692767E+05  5.780667E+04  4.768218E+04  2.251068E+04  2.665103E-08 -2.662432E-09
       206  12 -3.077906E+05  4.859472E+04  4.033134E+04  2.867048E+04  3.589745E-08 -1.789867E-09
       206  13 -5.092070E+05  6.425655E+01 -1.590579E+03  2.835613E+04 -3.415899E-09 -8.096619E-10
       206  14 -5.091526E+05  8.737586E+01 -9.311858E+02  2.213996E+04 -3.634876E-09 -2.289358E-10
       206  15 -5.092010E+05  1.114238E+02 -5.799010E+02  2.835606E+04 -5.740387E-10  8.079780E-09
       206  16 -7.874835E+05 -6.690372E+04 -5.794223E+04  2.792956E+04  4.927184E-10 -5.730320E-09
       206  17 -7.489737E+05 -5.763550E+04 -4.954754E+04  2.176936E+04 -1.915368E-08  2.240211E-09
       206  18 -7.105728E+05 -4.837440E+04 -4.149326E+04  2.804172E+04 -3.648359E-08  5.000709E-09
       206  19 -2.308565E+05  6.702775E+04  5.475765E+04  2.878292E+04  4.104180E+03  1.733752E+04
       206  20 -2.692766E+05  5.780692E+04  4.768262E+04  2.251072E+04  3.693906E+03  1.487248E+04
       206  21 -3.077905E+05  4.859489E+04  4.033165E+04  2.867052E+04  3.284328E+03  1.236778E+04
       206  22 -5.092069E+05  6.457949E+01 -1.590012E+03  2.835615E+04  1.229869E+03  1.733305E+04
       206  23 -5.091525E+05  8.761333E+01 -9.307693E+02  2.213997E+04  7.732275E+02  1.486759E+04
       206  24 -5.092010E+05  1.115879E+02 -5.796137E+02  2.835607E+04  3.172561E+02  1.236248E+04
       206  25 -7.874834E+05 -6.690340E+04 -5.794166E+04  2.792954E+04 -1.643177E+03  1.732857E+04
       206  26 -7.489736E+05 -5.763526E+04 -4.954711E+04  2.176934E+04 -2.146344E+03  1.486271E+04
       206  27 -7.105727E+05 -4.837423E+04 -4.149296E+04  2.804170E+04 -2.648871E+03  1.235717E+04
       207   1 -3.356747E+05  4.184249E+04  3.458104E+04  2.862986E+04 -3.184520E+03 -1.089887E+04
       207   2 -3.741989E+05  3.256689E+04  2.696443E+04  2.233286E+04 -3.004805E+03 -8.378533E+03
       207   3 -4.127898E+05  2.333646E+04  1.922800E+04  2.849844E+04 -2.825452E+03 -5.854770E+03
       207   4 -5.091912E+05  1.103001E+02 -4.788604E+02  2.836286E+04 -2.242055E+02 -1.089341E+04
       207   5 -5.091552E+05  9.279561E+01 -3.810497E+02  2.213149E+04 -4.058689E+01 -8.372884E+03
       207   6 -5.091879E+05  1.198464E+02 -4.057892E+02  2.836284E+04  1.426802E+02 -5.848922E+03
       207   7 -6.826790E+05 -4.162375E+04 -3.554028E+04  2.809592E+04  2.735297E+03 -1.088796E+04
       207   8 -6.440940E+05 -3.238243E+04 -2.772745E+04  2.193014E+04  2.922999E+03 -8.367237E+03
       207   9 -6.055772E+05 -2.309734E+04 -2.004004E+04  2.822726E+04  3.110360E+03 -5.843075E+03
       207  10 -3.356747E+05  4.184236E+04  3.458080E+04  2.862983E+04 -3.745372E-08 -4.471775E-09
       207  11 -3.741990E+05  3.256682E+04  2.696429E+04  2.233284E+04 -1.713295E-08  6.145729E-10
       207  12 -4.127898E+05  2.333642E+04  1.922793E+04  2.849843E+04 -8.840152E-09 -1.647822E-09
       207  13 -5.091912E+05  1.101727E+02 -4.790835E+02  2.836286E+04  1.068058E-09  7.369250E-09
       207  14 -5.091552E+05  9.272035E+01 -3.811815E+02  2.213149E+04  8.981738E-10 -4.229721E-09
       207  15 -5.091879E+05  1.198097E+02 -4.058535E+02  2.836285E+04  7.554135E-09 -3.122258E-09
       207  16 -6.826790E+05 -4.162388E+04 -3.554052E+04  2.809595E+04  3.301116E-08 -1.124533E-09
       207  17 -6.440941E+05 -3.238251E+04 -2.772759E+04  2.193016E+04  2.649427E-08 -1.266272E-10
       207  18 -6.055772E+05 -2.309738E+04 -2.004012E+04  2.822728E+04  5.137196E-09 -1.049379E-09
       207  19 -3.356747E+05  4.184249E+04  3.458104E+04  2.862986E+04  3.184520E+03  1.089887E+04
       207  20 -3.741989E+05  3.256689E+04  2.696443E+04  2.233286E+04  3.004805E+03  8.378533E+03
       207  21 -4.127898E+05  2.333646E+04  1.922800E+04  2.849844E+04  2.825452E+03  5.854770E+03
       207  22 -5.091912E+05  1.103001E+02 -4.788604E+02  2.836286E+04  2.242055E+02  1.089341E+04
       207  23 -5.091552E+05  9.279561E+01 -3.810497E+02  2.213149E+04  4.058689E+01  8.372884E+03
       207  24 -5.091879E+05  1.198464E+02 -4.057892E+02  2.836284E+04 -1.426802E+02  5.848922E+03
       207  25 -6.826790E+05 -4.162375E+04 -3.554028E+04  2.809592E+04 -2.735297E+03  1.088796E+04
       207  26 -6.440940E+05 -3.238243E+04 -2.772745E+04  2.193014E+04 -2.922999E+03  8.367237E+03
       207  27 -6.055772E+05 -2.309734E+04 -2.004004E+04  2.822726E+04 -3.110360E+03  5.843075E+03
       208   1 -4.407330E+05  1.657435E+04  1.330671E+04  2.845542E+04 -2.750139E+03 -4.384604E+03
       208   2 -4.792819E+05  7.292090E+03  5.353700E+03  2.213671E+04 -2.409598E+03 -1.858406E+03
       208   3 -5.179245E+05 -1.949539E+03 -2.826397E+03  2.829361E+04 -2.069158E+03  6.669134E+02
       208   4 -5.091929E+05  1.206210E+02 -4.647018E+02  2.836571E+04  2.187664E+02 -4.378684E+03
       208   5 -5.091448E+05  1.061000E+02 -6.970527E+02  2.212789E+04  5.581548E+02 -1.852449E+03
       208   6 -5.091923E+05  1.323432E+02 -1.155830E+03  2.836569E+04  8.974631E+02  6.729122E+02
       208   7 -5.776483E+05 -1.633340E+04 -1.423632E+04  2.827601E+04  3.187351E+03 -4.372765E+03
       208   8 -5.390069E+05 -7.079941E+03 -6.747819E+03  2.211906E+04  3.525767E+03 -1.846493E+03
       208   9 -5.004600E+05  2.214226E+03  5.147665E+02  2.843778E+04  3.864125E+03  6.789117E+02
       208  10 -4.407330E+05  1.657433E+04  1.330666E+04  2.845541E+04  1.599448E-08 -2.907453E-10
       208  11 -4.792819E+05  7.292085E+03  5.353683E+03  2.213671E+04  1.169213E-08 -9.256017E-10
       208  12 -5.179245E+05 -1.949540E+03 -2.826406E+03  2.829361E+04 -1.020971E-08  1.794769E-10
       208  13 -5.091929E+05  1.206004E+02 -4.647379E+02  2.836571E+04  6.849786E-10  4.480498E-09
       208  14 -5.091448E+05  1.060963E+02 -6.970598E+02  2.212789E+04  4.875283E-09  9.282649E-10
       208  15 -5.091923E+05  1.323425E+02 -1.155832E+03  2.836569E+04  2.660503E-09  6.233662E-09
       208  16 -5.776483E+05 -1.633342E+04 -1.423638E+04  2.827602E+04 -2.099353E-08  4.085598E-10
       208  17 -5.390069E+05 -7.079948E+03 -6.747848E+03  2.211907E+04 -6.504585E-09 -8.780308E-09
       208  18 -5.004600E+05  2.214221E+03  5.147376E+02  2.843777E+04  9.493620E-09 -5.230756E-09
       208  19 -4.407330E+05  1.657435E+04  1.330671E+04  2.845542E+04  2.750139E+03  4.384604E+03
       208  20 -4.792819E+05  7.292090E+03  5.353700E+03  2.213671E+04  2.409598E+03  1.858406E+03
       208  21 -5.179245E+05 -1.949539E+03 -2.826397E+03  2.829361E+04  2.069158E+03 -6.669134E+02
       208  22 -5.091929E+05  1.206210E+02 -4.647018E+02  2.836571E+04 -2.187664E+02  4.378684E+03
       208  23 -5.091448E+05  1.061000E+02 -6.970527E+02  2.212789E+04 -5.581548E+02  1.852449E+03
       208  24 -5.091923E+05  1.323432E+02 -1.155830E+03  2.836569E+04 -8.974631E+02 -6.729122E+02
       208  25 -5.776483E+05 -1.633340E+04 -1.423632E+04  2.827601E+04 -3.187351E+03  4.372765E+03
       208  26 -5.390069E+05 -7.079941E+03 -6.747819E+03  2.211906E+04 -3.525767E+03  1.846493E+03
       208  27 -5.004600E+05  2.214226E+03  5.147665E+02  2.843778E+04 -3.864125E+03 -6.789117E+02
       209   1 -5.459061E+05 -8.707059E+03 -9.041999E+03  2.822063E+04 -1.837043E+03  2.138937E+03
       209   2 -5.843624E+05 -1.797733E+04 -1.785708E+04  2.188854E+04 -5.265866E+02  4.657862E+03
       209   3 -6.230707E+05 -2.733620E+04 -2.756344E+04  2.802688E+04  7.840493E+02  7.151031E+03
       209   4 -5.092264E+05  1.408271E+02 -1.506944E+03  2.836444E+04  1.135257E+03  2.144928E+03
       209   5 -5.091037E+05  1.365114E+02 -2.597518E+03  2.212938E+04  2.415532E+03  4.663685E+03
       209   6 -5.092286E+05  4.910704E+01 -4.558097E+03  2.836464E+04  3.696065E+03  7.156692E+03
       209   7 -4.725453E+05  8.988633E+03  6.028072E+03  2.850826E+04  4.107731E+03  2.150920E+03
       209   8 -4.338396E+05  1.825000E+04  1.266179E+04  2.237024E+04  5.358001E+03  4.669509E+03
       209   9 -3.953742E+05  2.743361E+04  1.844661E+04  2.870247E+04  6.608604E+03  7.162356E+03
       209  10 -5.459061E+05 -8.707065E+03 -9.042014E+03  2.822063E+04 -3.607980E-08 -1.758310E-09
       209  11 -5.843624E+05 -1.797735E+04 -1.785712E+04  2.188854E+04 -2.085091E-08 -6.306429E-09
       209  12 -6.230707E+05 -2.733625E+04 -2.756354E+04  2.802687E+04 -6.417191E-09 -4.126401E-09
       209  13 -5.092264E+05  1.408218E+02 -1.506955E+03  2.836444E+04 -3.231465E-09  5.018411E-09
       209  14 -5.091037E+05  1.364865E+02 -2.597569E+03  2.212937E+04  2.681532E-09 -2.329710E-09
       209  15 -5.092286E+05  4.904838E+01 -4.558219E+03  2.836462E+04 -3.994740E-09 -9.158254E-09
       209  16 -4.725453E+05  8.988624E+03  6.028032E+03  2.850826E+04  3.313452E-08  2.343217E-09
       209  17 -4.338396E+05  1.824997E+04  1.266169E+04  2.237022E+04  2.355647E-08 -5.483760E-09
       209  18 -3.953742E+05  2.743354E+04  1.844644E+04  2.870243E+04  3.605044E-09 -5.893375E-10
       209  19 -5.459061E+05 -8.707059E+03 -9.041999E+03  2.822063E+04  1.837043E+03 -2.138937E+03
       209  20 -5.843624E+05 -1.797733E+04 -1.785708E+04  2.188854E+04  5.265866E+02 -4.657862E+03
       209  21 -6.230707E+05 -2.733620E+04 -2.756344E+04  2.802688E+04 -7.840493E+02 -7.151031E+03
       209  22 -5.092264E+05  1.408271E+02 -1.506944E+03  2.836444E+04 -1.135257E+03 -2.144928E+03
       209  23 -5.091037E+05  1.365114E+02 -2.597518E+03  2.212938E+04 -2.415532E+03 -4.663685E+03
       209  24 -5.092286E+05  4.910704E+01 -4.558097E+03  2.836464E+04 -3.696065E+03 -7.156692E+03
       209  25 -4.725453E+05  8.988633E+03  6.028072E+03  2.850826E+04 -4.107731E+03 -2.150920E+03
       209  26 -4.338396E+05  1.825000E+04  1.266179E+04  2.237024E+04 -5.358001E+03 -4.669509E+03
       209  27 -3.953742E+05  2.743361E+04  1.844661E+04  2.870247E+04 -6.608604E+03 -7.162356E+03
       210   1 -6.512623E+05 -3.386598E+04 -3.483385E+04  2.748115E+04  1.600826E+03  8.640400E+03
       210   2 -6.890307E+05 -4.341307E+04 -4.711149E+04  2.206116E+04  7.344787E+03  1.099086E+04
       210   3 -7.283127E+05 -5.581785E+04 -6.385917E+04  2.907034E+04  1.308964E+04  1.287734E+04
       210   4 -5.094906E+05  2.814962E+02 -5.979546E+03  2.835389E+04  4.622911E+03  8.646170E+03
       210   5 -5.087839E+05 -1.682347E+00 -1.042289E+04  2.214259E+04  9.823022E+03  1.099533E+04
       210   6 -5.094971E+05 -3.047374E+03 -1.895728E+04  2.836028E+04  1.502437E+04  1.288058E+04
       210   7 -3.676997E+05  3.442773E+04  2.287374E+04  2.922683E+04  7.645674E+03  8.651948E+03
       210   8 -3.285062E+05  4.340768E+04  2.626403E+04  2.222402E+04  1.230196E+04  1.099981E+04
       210   9 -2.906359E+05  4.972010E+04  2.594207E+04  2.764993E+04  1.695977E+04  1.288381E+04
       210  10 -6.512623E+05 -3.386606E+04 -3.483400E+04  2.748114E+04 -7.056059E-09 -1.144497E-09
       210  11 -6.890308E+05 -4.341322E+04 -4.711182E+04  2.206110E+04  2.181444E-08  5.105487E-09
       210  12 -7.283129E+05 -5.581808E+04 -6.385981E+04  2.907021E+04  4.079163E-08 -8.693896E-10
       210  13 -5.094906E+05  2.814102E+02 -5.979727E+03  2.835386E+04 -1.151851E-08 -1.599102E-08
       210  14 -5.087841E+05 -1.838064E+00 -1.042330E+04  2.214250E+04 -4.363143E-09 -2.792233E-09
       210  15 -5.094973E+05 -3.047612E+03 -1.895802E+04  2.836012E+04 -1.412900E-09 -1.045537E-09
       210  16 -3.676998E+05  3.442763E+04  2.287349E+04  2.922677E+04  2.284076E-09 -3.682604E-09
       210  17 -3.285064E+05  4.340751E+04  2.626352E+04  2.222392E+04 -2.087010E-08 -8.119598E-09
       210  18 -2.906363E+05  4.971984E+04  2.594122E+04  2.764976E+04 -3.405406E-08  4.047084E-09
       210  19 -6.512623E+05 -3.386598E+04 -3.483385E+04  2.748115E+04 -1.600826E+03 -8.640400E+03
       210  20 -6.890307E+05 -4.341307E+04 -4.711149E+04  2.206116E+04 -7.344787E+03 -1.099086E+04
       210  21 -7.283127E+05 -5.581785E+04 -6.385917E+04  2.907034E+04 -1.308964E+04 -1.287734E+04
       210  22 -5.094906E+05  2.814962E+02 -5.979546E+03  2.835389E+04 -4.622911E+03 -8.646170E+03
       210  23 -5.087839E+05 -1.682347E+00 -1.042289E+04  2.214259E+04 -9.823022E+03 -1.099533E+04
       210  24 -5.094971E+05 -3.047374E+03 -1.895728E+04  2.836028E+04 -1.502437E+04 -1.288058E+04
       210  25 -3.676997E+05  3.442773E+04  2.287374E+04  2.922683E+04 -7.645674E+03 -8.651948E+03
       210  26 -3.285062E+05  4.340768E+04  2.626403E+04  2.222402E+04 -1.230196E+04 -1.099981E+04
       210  27 -2.906359E+05  4.972010E+04  2.594207E+04  2.764993E+04 -1.695977E+04 -1.288381E+04
       211   1 -7.602451E+05 -5.717495E+04 -7.481389E+04  1.830692E+04  1.431487E+04  1.468923E+04
       211   2 -7.886078E+05 -7.548685E+04 -1.032502E+05  3.839339E+04  4.670522E+04  1.386794E+04
       211   3 -8.374128E+05 -1.585248E+05 -1.689786E+05  7.049163E+04  7.910652E+04  4.490118E+03
       211   4 -5.133348E+05  2.396474E+03 -2.425814E+04  2.823530E+04  1.831278E+04  1.469631E+04
       211   5 -5.040031E+05 -6.465278E+03 -4.261385E+04  2.229864E+04  4.065650E+04  1.385562E+04
       211   6 -5.133614E+05 -7.829376E+04 -9.127065E+04  2.837603E+04  6.301387E+04  4.457453E+03
       211   7 -2.663662E+05  6.196444E+04  2.629448E+04  3.816769E+04  2.231225E+04  1.470352E+04
       211   8 -2.193213E+05  6.255203E+04  1.801814E+04  6.196349E+03  3.460504E+04  1.384362E+04
       211   9 -1.892092E+05  1.936561E+03 -1.356822E+04 -1.376171E+04  4.691284E+04  4.426984E+03
       211  10 -7.602454E+05 -5.717524E+04 -7.481468E+04  1.830675E+04 -3.054194E-08 -7.324758E-10
       211  11 -7.886102E+05 -7.548764E+04 -1.032547E+05  3.839287E+04 -8.858473E-09  8.969295E-10
       211  12 -8.374196E+05 -1.585265E+05 -1.689904E+05  7.049135E+04  1.081675E-08  3.897432E-09
       211  13 -5.133352E+05  2.396152E+03 -2.425918E+04  2.823509E+04  9.949730E-10  2.544584E-09
       211  14 -5.040049E+05 -6.465928E+03 -4.261732E+04  2.229818E+04 -1.692660E-09  1.718763E-09
       211  15 -5.133656E+05 -7.829485E+04 -9.127815E+04  2.837580E+04  2.386285E-10 -1.357714E-09
       211  16 -2.663668E+05  6.196408E+04  2.629314E+04  3.816743E+04  3.335301E-08  6.686035E-09
       211  17 -2.193226E+05  6.255150E+04  1.801553E+04  6.195963E+03  1.103971E-08  7.766342E-09
       211  18 -1.892115E+05  1.935949E+03 -1.357239E+04 -1.376188E+04 -6.539411E-09  3.268857E-10
       211  19 -7.602451E+05 -5.717495E+04 -7.481389E+04  1.830692E+04 -1.431487E+04 -1.468923E+04
       211  20 -7.886078E+05 -7.548685E+04 -1.032502E+05  3.839339E+04 -4.670522E+04 -1.386794E+04
       211  21 -8.374128E+05 -1.585248E+05 -1.689786E+05  7.049163E+04 -7.910652E+04 -4.490118E+03
       211  22 -5.133348E+05  2.396474E+03 -2.425814E+04  2.823530E+04 -1.831278E+04 -1.469631E+04
       211  23 -5.040031E+05 -6.465278E+03 -4.261385E+04  2.229864E+04 -4.065650E+04 -1.385562E+04
       211  24 -5.133614E+05 -7.829376E+04 -9.127065E+04  2.837603E+04 -6.301387E+04 -4.457453E+03
       211  25 -2.663662E+05  6.196444E+04  2.629448E+04  3.816769E+04 -2.231225E+04 -1.470352E+04
       211  26 -2.193213E+05  6.255203E+04  1.801814E+04  6.196349E+03 -3.460504E+04 -1.384362E+04
       211  27 -1.892092E+05  1.936561E+03 -1.356822E+04 -1.376171E+04 -4.691284E+04 -4.426984E+03
