
 stresses (elem, integ.pnt.,sxx,syy,szz,sxy,sxz,syz) for set ELALL and time  0.1000000E+01

         1   1  2.211664E+06  7.918877E+06  2.092725E+06 -1.682296E+06  9.655087E+04  8.447581E+05
         1   2  1.770098E+06  6.722800E+06  1.382241E+06 -1.558829E+06  3.263138E+05  3.938185E+05
         1   3  1.453110E+06  5.619554E+06  9.947838E+05 -1.605244E+06  3.838149E+05 -5.598457E+04
         1   4  1.191133E+05 -6.112609E+05  1.234269E+05 -1.582095E+06  9.893682E+04  8.226718E+04
         1   5  4.365819E+04 -6.185242E+05  6.569653E+04 -1.497365E+06  3.279586E+05  5.013531E+04
         1   6  2.131598E+04 -6.057989E+05  4.250930E+04 -1.582478E+06  3.838318E+05  1.818347E+04
         1   7 -1.978187E+06 -9.073402E+06 -1.848559E+06 -1.483145E+06  1.011057E+05 -6.699318E+05
         1   8 -1.685700E+06 -7.907404E+06 -1.252488E+06 -1.436541E+06  3.295505E+05 -2.896331E+05
         1   9 -1.412340E+06 -6.792568E+06 -9.105910E+05 -1.559861E+06  3.838539E+05  9.164095E+04
         1  10  2.211465E+06  7.918116E+06  2.091382E+06 -1.682362E+06  3.184609E-09 -9.731135E-10
         1  11  1.769943E+06  6.722606E+06  1.381751E+06 -1.558933E+06  3.319619E-09 -4.530278E-09
         1  12  1.452952E+06  5.619511E+06  9.945014E+05 -1.605227E+06  3.173555E-10 -6.948157E-09
         1  13  1.191010E+05 -6.112708E+05  1.233957E+05 -1.582102E+06 -2.193539E-09  8.688494E-11
         1  14  4.354200E+04 -6.185558E+05  6.548956E+04 -1.497379E+06 -7.556550E-09  2.090295E-11
         1  15  2.115771E+04 -6.058388E+05  4.223183E+04 -1.582484E+06 -5.336304E-09 -4.503656E-11
         1  16 -1.978320E+06 -9.073892E+06 -1.849433E+06 -1.483090E+06  1.016696E-09  8.857727E-10
         1  17 -1.685839E+06 -7.907523E+06 -1.252851E+06 -1.436464E+06 -1.614328E-09  4.413380E-09
         1  18 -1.412500E+06 -6.792617E+06 -9.108841E+05 -1.559889E+06 -6.062820E-09  6.766550E-09
         1  19  2.211664E+06  7.918877E+06  2.092725E+06 -1.682296E+06 -9.655087E+04 -8.447581E+05
         1  20  1.770098E+06  6.722800E+06  1.382241E+06 -1.558829E+06 -3.263138E+05 -3.938185E+05
         1  21  1.453110E+06  5.619554E+06  9.947838E+05 -1.605244E+06 -3.838149E+05  5.598457E+04
         1  22  1.191133E+05 -6.112609E+05  1.234269E+05 -1.582095E+06 -9.893682E+04 -8.226718E+04
         1  23  4.365819E+04 -6.185242E+05  6.569653E+04 -1.497365E+06 -3.279586E+05 -5.013531E+04
         1  24  2.131598E+04 -6.057989E+05  4.250930E+04 -1.582478E+06 -3.838318E+05 -1.818347E+04
         1  25 -1.978187E+06 -9.073402E+06 -1.848559E+06 -1.483145E+06 -1.011057E+05  6.699318E+05
         1  26 -1.685700E+06 -7.907404E+06 -1.252488E+06 -1.436541E+06 -3.295505E+05  2.896331E+05
         1  27 -1.412340E+06 -6.792568E+06 -9.105910E+05 -1.559861E+06 -3.838539E+05 -9.164095E+04
         2   1  1.280400E+06  4.895383E+06  8.502355E+05 -1.610020E+06  3.580390E+05 -7.616475E+04
         2   2  1.006983E+06  3.738809E+06  6.359061E+05 -1.507627E+06  3.105413E+05 -1.490125E+05
         2   3  7.574431E+05  2.598826E+06  4.747036E+05 -1.588012E+06  2.401860E+05 -2.219370E+05
         2   4  1.994549E+04 -6.074412E+05  3.694723E+04 -1.585374E+06  3.578919E+05  1.182729E+04
         2   5  1.897048E+04 -6.086339E+05  3.501121E+04 -1.493938E+06  3.099486E+05 -5.772222E+03
         2   6  3.243285E+04 -6.040583E+05  4.802925E+04 -1.585350E+06  2.390645E+05 -2.357404E+04
         2   7 -1.241917E+06 -6.079933E+06 -7.768673E+05 -1.560883E+06  3.577507E+05  9.907546E+04
         2   8 -9.698623E+05 -4.936910E+06 -5.660279E+05 -1.480303E+06  3.093590E+05  1.365144E+05
         2   9 -6.929935E+05 -3.796415E+06 -3.785809E+05 -1.582676E+06  2.379404E+05  1.738166E+05
         2  10  1.280261E+06  4.895342E+06  8.499841E+05 -1.609998E+06 -3.853625E-09  7.171804E-09
         2  11  1.006873E+06  3.738760E+06  6.356840E+05 -1.507590E+06 -2.798931E-09  6.557953E-09
         2  12  7.573683E+05  2.598758E+06  4.745037E+05 -1.587970E+06 -6.857031E-10  5.652911E-09
         2  13  1.980794E+04 -6.074757E+05  3.670629E+04 -1.585378E+06 -3.561108E-09 -5.856069E-11
         2  14  1.886735E+04 -6.086597E+05  3.483070E+04 -1.493937E+06  1.205996E-09 -4.337120E-10
         2  15  3.237137E+04 -6.040742E+05  4.792091E+04 -1.585346E+06  1.378479E-09 -3.073884E-10
         2  16 -1.242058E+06 -6.079978E+06 -7.771267E+05 -1.560912E+06 -5.954734E-09 -7.425152E-09
         2  17 -9.699703E+05 -4.936956E+06 -5.662434E+05 -1.480338E+06 -2.867525E-09 -7.096494E-09
         2  18 -6.930626E+05 -3.796463E+06 -3.787448E+05 -1.582709E+06  2.191597E-09 -5.887381E-09
         2  19  1.280400E+06  4.895383E+06  8.502355E+05 -1.610020E+06 -3.580390E+05  7.616475E+04
         2  20  1.006983E+06  3.738809E+06  6.359061E+05 -1.507627E+06 -3.105413E+05  1.490125E+05
         2  21  7.574431E+05  2.598826E+06  4.747036E+05 -1.588012E+06 -2.401860E+05  2.219370E+05
         2  22  1.994549E+04 -6.074412E+05  3.694723E+04 -1.585374E+06 -3.578919E+05 -1.182729E+04
         2  23  1.897048E+04 -6.086339E+05  3.501121E+04 -1.493938E+06 -3.099486E+05  5.772222E+03
         2  24  3.243285E+04 -6.040583E+05  4.802925E+04 -1.585350E+06 -2.390645E+05  2.357404E+04
         2  25 -1.241917E+06 -6.079933E+06 -7.768673E+05 -1.560883E+06 -3.577507E+05 -9.907546E+04
         2  26 -9.698623E+05 -4.936910E+06 -5.660279E+05 -1.480303E+06 -3.093590E+05 -1.365144E+05
         2  27 -6.929935E+05 -3.796415E+06 -3.785809E+05 -1.582676E+06 -2.379404E+05 -1.738166E+05
         3   1  6.031470E+05  1.893525E+06  3.862379E+05 -1.588862E+06  1.911629E+05 -2.318810E+05
         3   2  3.858945E+05  7.345796E+05  2.727900E+05 -1.430681E+06  1.085563E+05 -2.839454E+05
         3   3  2.469628E+05 -3.980268E+05  2.124140E+05 -1.456805E+06  2.625931E+04 -3.359881E+05
         3   4  3.984664E+04 -5.990280E+05  5.987605E+04 -1.585696E+06  1.899397E+05 -3.201214E+04
         3   5  8.390061E+04 -6.109859E+05  1.031928E+05 -1.493166E+06  1.072922E+05 -8.495182E+04
         3   6  2.064894E+05 -5.979174E+05  2.000644E+05 -1.584842E+06  2.496660E+04 -1.379510E+05
         3   7 -5.236932E+05 -3.085152E+06 -2.663761E+05 -1.582526E+06  1.887150E+05  1.670945E+05
         3   8 -2.181293E+05 -1.954597E+06 -6.625846E+04 -1.555505E+06  1.059859E+05  1.136323E+05
         3   9  1.660982E+05 -7.976443E+05  1.878733E+05 -1.712836E+06  2.359182E+04  6.002711E+04
         3  10  6.030936E+05  1.893458E+06  3.860691E+05 -1.588826E+06 -2.167799E-09 -6.952014E-09
         3  11  3.858603E+05  7.344901E+05  2.726169E+05 -1.430656E+06 -5.299687E-09  2.063388E-10
         3  12  2.469318E+05 -3.981482E+05  2.122005E+05 -1.456798E+06  1.222669E-09  6.907325E-09
         3  13  3.980766E+04 -5.990387E+05  5.980642E+04 -1.585691E+06 -2.380401E-09 -5.131977E-11
         3  14  8.388635E+04 -6.109967E+05  1.031577E+05 -1.493159E+06  9.245843E-10 -1.925811E-11
         3  15  2.064836E+05 -5.979380E+05  2.000275E+05 -1.584840E+06 -2.583909E-09 -8.709536E-11
         3  16 -5.237391E+05 -3.085192E+06 -2.664961E+05 -1.582551E+06 -1.532221E-09  6.641021E-09
         3  17 -2.181448E+05 -1.954614E+06 -6.630404E+04 -1.555514E+06 -6.811486E-09 -2.605351E-10
         3  18  1.660967E+05 -7.976484E+05  1.878654E+05 -1.712837E+06 -2.516821E-09 -6.807653E-09
         3  19  6.031470E+05  1.893525E+06  3.862379E+05 -1.588862E+06 -1.911629E+05  2.318810E+05
         3  20  3.858945E+05  7.345796E+05  2.727900E+05 -1.430681E+06 -1.085563E+05  2.839454E+05
         3  21  2.469628E+05 -3.980268E+05  2.124140E+05 -1.456805E+06 -2.625931E+04  3.359881E+05
         3  22  3.984664E+04 -5.990280E+05  5.987605E+04 -1.585696E+06 -1.899397E+05  3.201214E+04
         3  23  8.390061E+04 -6.109859E+05  1.031928E+05 -1.493166E+06 -1.072922E+05  8.495182E+04
         3  24  2.064894E+05 -5.979174E+05  2.000644E+05 -1.584842E+06 -2.496660E+04  1.379510E+05
         3  25 -5.236932E+05 -3.085152E+06 -2.663761E+05 -1.582526E+06 -1.887150E+05 -1.670945E+05
         3  26 -2.181293E+05 -1.954597E+06 -6.625846E+04 -1.555505E+06 -1.059859E+05 -1.136323E+05
         3  27  1.660982E+05 -7.976443E+05  1.878733E+05 -1.712836E+06 -2.359182E+04 -6.002711E+04
         4   1 -7.482212E+06 -2.264026E+06 -1.525926E+06 -2.559787E+06 -8.747177E+05 -3.228507E+05
         4   2 -7.229996E+06 -9.858147E+05 -7.058527E+05 -2.788147E+06 -5.638018E+05 -1.972707E+05
         4   3 -7.508924E+06 -1.067288E+06 -4.893227E+05 -2.686051E+06 -2.492263E+05 -8.147038E+04
         4   4 -7.085117E+06 -1.924755E+06 -1.378340E+06 -2.258265E+06 -8.713701E+05 -3.219347E+05
         4   5 -6.749250E+06 -7.542351E+05 -5.648074E+05 -2.606679E+06 -5.631539E+05 -1.970865E+05
         4   6 -6.943605E+06 -9.423054E+05 -3.523443E+05 -2.624779E+06 -2.512314E+05 -8.217508E+04
         4   7 -6.687776E+06 -1.585182E+06 -1.230757E+06 -1.956503E+06 -8.680201E+05 -3.210150E+05
         4   8 -6.268270E+06 -5.225958E+05 -4.237850E+05 -2.425068E+06 -5.625053E+05 -1.969018E+05
         4   9 -6.377960E+06 -8.173313E+05 -2.153833E+05 -2.563480E+06 -2.532386E+05 -8.287981E+04
         4  10 -7.483071E+06 -2.264348E+06 -1.527582E+06 -2.560017E+06  1.797243E-09  2.600865E-10
         4  11 -7.230352E+06 -9.859438E+05 -7.065324E+05 -2.788237E+06  4.832209E-10  1.165327E-09
         4  12 -7.508994E+06 -1.067313E+06 -4.894537E+05 -2.686067E+06  2.341502E-10  1.516580E-09
         4  13 -7.085969E+06 -1.925075E+06 -1.379982E+06 -2.258492E+06 -1.847028E-10  4.686145E-10
         4  14 -6.749604E+06 -7.543637E+05 -5.654850E+05 -2.606769E+06 -6.918206E-09  1.051224E-09
         4  15 -6.943675E+06 -9.423299E+05 -3.524773E+05 -2.624796E+06 -2.072687E-09  1.295715E-09
         4  16 -6.688621E+06 -1.585499E+06 -1.232386E+06 -1.956729E+06 -1.902316E-09  2.411743E-10
         4  17 -6.268624E+06 -5.227240E+05 -4.244604E+05 -2.425158E+06  5.722691E-10  1.193318E-09
         4  18 -6.378031E+06 -8.173562E+05 -2.155184E+05 -2.563497E+06  3.776660E-09  1.206475E-09
         4  19 -7.482212E+06 -2.264026E+06 -1.525926E+06 -2.559787E+06  8.747177E+05  3.228507E+05
         4  20 -7.229996E+06 -9.858147E+05 -7.058527E+05 -2.788147E+06  5.638018E+05  1.972707E+05
         4  21 -7.508924E+06 -1.067288E+06 -4.893227E+05 -2.686051E+06  2.492263E+05  8.147038E+04
         4  22 -7.085117E+06 -1.924755E+06 -1.378340E+06 -2.258265E+06  8.713701E+05  3.219347E+05
         4  23 -6.749250E+06 -7.542351E+05 -5.648074E+05 -2.606679E+06  5.631539E+05  1.970865E+05
         4  24 -6.943605E+06 -9.423054E+05 -3.523443E+05 -2.624779E+06  2.512314E+05  8.217508E+04
         4  25 -6.687776E+06 -1.585182E+06 -1.230757E+06 -1.956503E+06  8.680201E+05  3.210150E+05
         4  26 -6.268270E+06 -5.225958E+05 -4.237850E+05 -2.425068E+06  5.625053E+05  1.969018E+05
         4  27 -6.377960E+06 -8.173313E+05 -2.153833E+05 -2.563480E+06  2.532386E+05  8.287981E+04
         5   1 -7.278808E+06 -1.276223E+06 -3.998024E+05 -2.673867E+06 -1.984928E+05 -6.480539E+04
         5   2 -7.218322E+06 -1.064058E+06 -2.300690E+05 -2.667882E+06 -1.278055E+05 -3.893096E+04
         5   3 -7.191240E+06 -1.079943E+06 -1.633172E+05 -2.667007E+06 -5.644929E+04 -1.482877E+04
         5   4 -6.892169E+06 -1.106009E+06 -2.892977E+05 -2.544466E+06 -1.984485E+05 -6.479906E+04
         5   5 -6.865915E+06 -9.251916E+05 -1.326882E+05 -2.566712E+06 -1.282326E+05 -3.909200E+04
         5   6 -6.872927E+06 -9.722616E+05 -7.863072E+04 -2.594076E+06 -5.735236E+04 -1.516363E+04
         5   7 -6.505383E+06 -9.357707E+05 -1.788076E+05 -2.414987E+06 -1.984041E+05 -6.479269E+04
         5   8 -6.513389E+06 -7.863158E+05 -3.531904E+04 -2.465488E+06 -1.286599E+05 -3.925314E+04
         5   9 -6.554517E+06 -8.645797E+05  6.046818E+03 -2.521113E+06 -5.825593E+04 -1.549864E+04
         5  10 -7.278852E+06 -1.276238E+06 -3.998854E+05 -2.673877E+06 -2.103960E-09  6.598376E-10
         5  11 -7.218340E+06 -1.064064E+06 -2.301030E+05 -2.667886E+06 -2.101707E-10 -9.598654E-10
         5  12 -7.191244E+06 -1.079944E+06 -1.633237E+05 -2.667007E+06  2.343512E-09 -5.614685E-10
         5  13 -6.892213E+06 -1.106024E+06 -2.893806E+05 -2.544477E+06 -4.308313E-09  6.544021E-10
         5  14 -6.865933E+06 -9.251978E+05 -1.327224E+05 -2.566716E+06  2.020145E-09 -8.797745E-10
         5  15 -6.872931E+06 -9.722628E+05 -7.863742E+04 -2.594076E+06 -6.981228E-11 -7.961059E-10
         5  16 -6.505427E+06 -9.357860E+05 -1.788904E+05 -2.414997E+06  3.431987E-09  8.096557E-10
         5  17 -6.513407E+06 -7.863220E+05 -3.535345E+04 -2.465492E+06 -2.790424E-09 -2.370792E-09
         5  18 -6.554521E+06 -8.645809E+05  6.039907E+03 -2.521114E+06 -5.734064E-09  1.975465E-09
         5  19 -7.278808E+06 -1.276223E+06 -3.998024E+05 -2.673867E+06  1.984928E+05  6.480539E+04
         5  20 -7.218322E+06 -1.064058E+06 -2.300690E+05 -2.667882E+06  1.278055E+05  3.893096E+04
         5  21 -7.191240E+06 -1.079943E+06 -1.633172E+05 -2.667007E+06  5.644929E+04  1.482877E+04
         5  22 -6.892169E+06 -1.106009E+06 -2.892977E+05 -2.544466E+06  1.984485E+05  6.479906E+04
         5  23 -6.865915E+06 -9.251916E+05 -1.326882E+05 -2.566712E+06  1.282326E+05  3.909200E+04
         5  24 -6.872927E+06 -9.722616E+05 -7.863072E+04 -2.594076E+06  5.735236E+04  1.516363E+04
         5  25 -6.505383E+06 -9.357707E+05 -1.788076E+05 -2.414987E+06  1.984041E+05  6.479269E+04
         5  26 -6.513389E+06 -7.863158E+05 -3.531904E+04 -2.465488E+06  1.286599E+05  3.925314E+04
         5  27 -6.554517E+06 -8.645797E+05  6.046818E+03 -2.521113E+06  5.825593E+04  1.549864E+04
         6   1 -7.004174E+06 -1.052707E+06 -1.013242E+05 -2.626814E+06 -4.466161E+04 -1.219385E+04
         6   2 -6.965200E+06 -9.764903E+05 -5.285887E+04 -2.580302E+06 -2.785517E+04 -8.416628E+03
         6   3 -6.879196E+06 -9.839285E+05 -2.321876E+04 -2.595618E+06 -1.094459E+04 -4.915983E+03
         6   4 -6.863004E+06 -9.965778E+05 -6.238972E+04 -2.585714E+06 -4.525621E+04 -1.241533E+04
         6   5 -6.885221E+06 -9.457405E+05 -3.091111E+04 -2.558129E+06 -2.852620E+04 -8.666204E+03
         6   6 -6.860393E+06 -9.785393E+05 -1.819154E+04 -2.592373E+06 -1.169381E+04 -5.194430E+03
         6   7 -6.721814E+06 -9.404465E+05 -2.345694E+04 -2.544604E+06 -4.585097E+04 -1.263687E+04
         6   8 -6.805236E+06 -9.149901E+05 -8.963876E+03 -2.535953E+06 -2.919733E+04 -8.915818E+03
         6   9 -6.841590E+06 -9.731501E+05 -1.316434E+04 -2.589127E+06 -1.244305E+04 -5.472881E+03
         6  10 -7.004176E+06 -1.052708E+06 -1.013283E+05 -2.626814E+06  3.755836E-09  1.609552E-09
         6  11 -6.965201E+06 -9.764906E+05 -5.286049E+04 -2.580302E+06 -4.672589E-09 -2.225573E-09
         6  12 -6.879196E+06 -9.839286E+05 -2.321903E+04 -2.595618E+06 -1.134890E-10 -2.044706E-09
         6  13 -6.863006E+06 -9.965785E+05 -6.239391E+04 -2.585714E+06  2.382427E-09 -1.069416E-09
         6  14 -6.885222E+06 -9.457408E+05 -3.091281E+04 -2.558129E+06 -3.891520E-09  5.526282E-10
         6  15 -6.860393E+06 -9.785394E+05 -1.819185E+04 -2.592373E+06 -3.101972E-09 -6.003473E-10
         6  16 -6.721816E+06 -9.404473E+05 -2.346124E+04 -2.544605E+06  1.335349E-09 -1.303503E-10
         6  17 -6.805237E+06 -9.149904E+05 -8.965649E+03 -2.535953E+06  1.826686E-09 -8.246200E-10
         6  18 -6.841590E+06 -9.731501E+05 -1.316469E+04 -2.589128E+06  3.132938E-09 -1.390059E-09
         6  19 -7.004174E+06 -1.052707E+06 -1.013242E+05 -2.626814E+06  4.466161E+04  1.219385E+04
         6  20 -6.965200E+06 -9.764903E+05 -5.285887E+04 -2.580302E+06  2.785517E+04  8.416628E+03
         6  21 -6.879196E+06 -9.839285E+05 -2.321876E+04 -2.595618E+06  1.094459E+04  4.915983E+03
         6  22 -6.863004E+06 -9.965778E+05 -6.238972E+04 -2.585714E+06  4.525621E+04  1.241533E+04
         6  23 -6.885221E+06 -9.457405E+05 -3.091111E+04 -2.558129E+06  2.852620E+04  8.666204E+03
         6  24 -6.860393E+06 -9.785393E+05 -1.819154E+04 -2.592373E+06  1.169381E+04  5.194430E+03
         6  25 -6.721814E+06 -9.404465E+05 -2.345694E+04 -2.544604E+06  4.585097E+04  1.263687E+04
         6  26 -6.805236E+06 -9.149901E+05 -8.963876E+03 -2.535953E+06  2.919733E+04  8.915818E+03
         6  27 -6.841590E+06 -9.731501E+05 -1.316434E+04 -2.589127E+06  1.244305E+04  5.472881E+03
         7   1 -6.696402E+06 -9.188488E+05  3.048156E+04 -2.545855E+06 -7.701881E+03 -5.456203E+03
         7   2 -6.664622E+06 -8.669318E+05  5.196964E+04 -2.499545E+06 -2.636092E+03 -6.279257E+03
         7   3 -6.580746E+06 -8.727169E+05  6.933051E+04 -2.514743E+06  2.278843E+03 -6.690199E+03
         7   4 -6.860330E+06 -9.802304E+05 -1.441900E+04 -2.589542E+06 -8.447435E+03 -5.733429E+03
         7   5 -6.886215E+06 -9.503597E+05 -8.487601E+03 -2.559156E+06 -3.263636E+03 -6.512898E+03
         7   6 -6.860031E+06 -9.782169E+05 -6.778214E+03 -2.590282E+06  1.768860E+03 -6.880335E+03
         7   7 -7.024231E+06 -1.041611E+06 -5.932186E+04 -2.633218E+06 -9.192767E+03 -6.010574E+03
         7   8 -7.107759E+06 -1.033785E+06 -6.894925E+04 -2.618748E+06 -3.890931E+03 -6.746446E+03
         7   9 -7.139240E+06 -1.083713E+06 -8.289411E+04 -2.665789E+06  1.259130E+03 -7.070375E+03
         7  10 -6.696403E+06 -9.188489E+05  3.048139E+04 -2.545855E+06 -4.000914E-09 -5.064900E-10
         7  11 -6.664622E+06 -8.669319E+05  5.196956E+04 -2.499545E+06  1.826430E-09  2.346467E-11
         7  12 -6.580746E+06 -8.727169E+05  6.933042E+04 -2.514743E+06  1.926617E-09  2.156599E-09
         7  13 -6.860330E+06 -9.802305E+05 -1.441919E+04 -2.589542E+06  2.350398E-09 -9.511520E-10
         7  14 -6.886215E+06 -9.503597E+05 -8.487702E+03 -2.559156E+06  4.763360E-09 -3.036575E-09
         7  15 -6.860031E+06 -9.782169E+05 -6.778308E+03 -2.590282E+06 -4.695406E-09  7.077638E-10
         7  16 -7.024232E+06 -1.041611E+06 -5.932209E+04 -2.633218E+06  6.879711E-10 -1.738764E-09
         7  17 -7.107759E+06 -1.033785E+06 -6.894936E+04 -2.618748E+06 -2.945266E-10 -1.016415E-09
         7  18 -7.139240E+06 -1.083713E+06 -8.289420E+04 -2.665789E+06 -1.978614E-09 -5.066023E-10
         7  19 -6.696402E+06 -9.188488E+05  3.048156E+04 -2.545855E+06  7.701881E+03  5.456203E+03
         7  20 -6.664622E+06 -8.669318E+05  5.196964E+04 -2.499545E+06  2.636092E+03  6.279257E+03
         7  21 -6.580746E+06 -8.727169E+05  6.933051E+04 -2.514743E+06 -2.278843E+03  6.690199E+03
         7  22 -6.860330E+06 -9.802304E+05 -1.441900E+04 -2.589542E+06  8.447435E+03  5.733429E+03
         7  23 -6.886215E+06 -9.503597E+05 -8.487601E+03 -2.559156E+06  3.263636E+03  6.512898E+03
         7  24 -6.860031E+06 -9.782169E+05 -6.778214E+03 -2.590282E+06 -1.768860E+03  6.880335E+03
         7  25 -7.024231E+06 -1.041611E+06 -5.932186E+04 -2.633218E+06  9.192767E+03  6.010574E+03
         7  26 -7.107759E+06 -1.033785E+06 -6.894925E+04 -2.618748E+06  3.890931E+03  6.746446E+03
         7  27 -7.139240E+06 -1.083713E+06 -8.289411E+04 -2.665789E+06 -1.259130E+03  7.070375E+03
         8   1 -6.446803E+06 -8.159238E+05  1.075473E+05 -2.472202E+06  3.925953E+03 -7.396094E+03
         8   2 -6.428469E+06 -7.859982E+05  1.151207E+05 -2.444231E+06  8.476318E+03 -7.655925E+03
         8   3 -6.379295E+06 -7.914568E+05  1.189796E+05 -2.452083E+06  1.270406E+04 -7.044486E+03
         8   4 -6.864791E+06 -9.732676E+05 -6.682823E+03 -2.584587E+06  3.302658E+03 -7.628780E+03
         8   5 -6.880336E+06 -9.565835E+05 -8.237737E+03 -2.566291E+06  8.102318E+03 -7.796088E+03
         8   6 -6.865093E+06 -9.753368E+05 -1.370834E+04 -2.583819E+06  1.257901E+04 -7.091906E+03
         8   7 -7.282609E+06 -1.130602E+06 -1.209286E+05 -2.696902E+06  2.679831E+03 -7.861294E+03
         8   8 -7.332005E+06 -1.127157E+06 -1.316147E+05 -2.688269E+06  7.728619E+03 -7.936140E+03
         8   9 -7.350663E+06 -1.159204E+06 -1.464180E+05 -2.715461E+06  1.245406E+04 -7.139287E+03
         8  10 -6.446803E+06 -8.159239E+05  1.075471E+05 -2.472202E+06  1.139942E-09  1.380590E-09
         8  11 -6.428469E+06 -7.859983E+05  1.151204E+05 -2.444231E+06  2.518751E-10 -2.552437E-10
         8  12 -6.379295E+06 -7.914569E+05  1.189792E+05 -2.452083E+06  1.419948E-09  3.915757E-10
         8  13 -6.864791E+06 -9.732677E+05 -6.682953E+03 -2.584587E+06  2.196904E-09 -4.397242E-10
         8  14 -6.880336E+06 -9.565835E+05 -8.237974E+03 -2.566290E+06  1.216295E-09 -2.698713E-09
         8  15 -6.865093E+06 -9.753369E+05 -1.370873E+04 -2.583819E+06  2.847483E-09  2.099043E-10
         8  16 -7.282609E+06 -1.130602E+06 -1.209288E+05 -2.696902E+06 -7.093301E-09  4.188831E-10
         8  17 -7.332005E+06 -1.127157E+06 -1.316150E+05 -2.688269E+06  2.780241E-10 -6.522139E-10
         8  18 -7.350663E+06 -1.159204E+06 -1.464184E+05 -2.715461E+06  9.522396E-10  3.971756E-10
         8  19 -6.446803E+06 -8.159238E+05  1.075473E+05 -2.472202E+06 -3.925953E+03  7.396094E+03
         8  20 -6.428469E+06 -7.859982E+05  1.151207E+05 -2.444231E+06 -8.476318E+03  7.655925E+03
         8  21 -6.379295E+06 -7.914568E+05  1.189796E+05 -2.452083E+06 -1.270406E+04  7.044486E+03
         8  22 -6.864791E+06 -9.732676E+05 -6.682823E+03 -2.584587E+06 -3.302658E+03  7.628780E+03
         8  23 -6.880336E+06 -9.565835E+05 -8.237737E+03 -2.566291E+06 -8.102318E+03  7.796088E+03
         8  24 -6.865093E+06 -9.753368E+05 -1.370834E+04 -2.583819E+06 -1.257901E+04  7.091906E+03
         8  25 -7.282609E+06 -1.130602E+06 -1.209286E+05 -2.696902E+06 -2.679831E+03  7.861294E+03
         8  26 -7.332005E+06 -1.127157E+06 -1.316147E+05 -2.688269E+06 -7.728619E+03  7.936140E+03
         8  27 -7.350663E+06 -1.159204E+06 -1.464180E+05 -2.715461E+06 -1.245406E+04  7.139287E+03
         9   1 -6.335536E+06 -7.638616E+05  1.294070E+05 -2.433214E+06  1.556337E+04 -6.455279E+03
         9   2 -6.334036E+06 -7.593226E+05  1.170217E+05 -2.431391E+06  3.052236E+04 -1.402003E+03
         9   3 -6.342779E+06 -7.776042E+05  8.740946E+04 -2.423026E+06  4.508340E+04  4.711440E+03
         9   4 -6.873238E+06 -9.654979E+05 -1.721510E+04 -2.577049E+06  1.526418E+04 -6.567974E+03
         9   5 -6.869333E+06 -9.625332E+05 -2.933061E+04 -2.577160E+06  3.051763E+04 -1.404610E+03
         9   6 -6.875740E+06 -9.824617E+05 -5.891991E+04 -2.570727E+06  4.537300E+04  4.819232E+03
         9   7 -7.410660E+06 -1.167119E+06 -1.638634E+05 -2.720771E+06  1.496528E+04 -6.680565E+03
         9   8 -7.404352E+06 -1.165727E+06 -1.757090E+05 -2.722814E+06  3.051289E+04 -1.407219E+03
         9   9 -7.408424E+06 -1.187300E+06 -2.052752E+05 -2.718311E+06  4.566230E+04  4.926910E+03
         9  10 -6.335537E+06 -7.638617E+05  1.294064E+05 -2.433214E+06  1.881019E-09  1.972220E-09
         9  11 -6.334037E+06 -7.593228E+05  1.170200E+05 -2.431391E+06  1.713715E-09  9.126889E-10
         9  12 -6.342782E+06 -7.776048E+05  8.740555E+04 -2.423026E+06 -1.578583E-09  7.820491E-10
         9  13 -6.873239E+06 -9.654980E+05 -1.721562E+04 -2.577049E+06  5.851506E-10  1.123858E-09
         9  14 -6.869334E+06 -9.625335E+05 -2.933238E+04 -2.577160E+06  3.759113E-10  2.509233E-09
         9  15 -6.875742E+06 -9.824623E+05 -5.892387E+04 -2.570727E+06  3.341105E-09  1.894445E-09
         9  16 -7.410660E+06 -1.167119E+06 -1.638639E+05 -2.720771E+06 -4.100725E-09  1.790464E-09
         9  17 -7.404353E+06 -1.165727E+06 -1.757108E+05 -2.722814E+06 -2.304316E-10  2.317720E-09
         9  18 -7.408426E+06 -1.187301E+06 -2.052792E+05 -2.718311E+06  3.643920E-09  3.212542E-09
         9  19 -6.335536E+06 -7.638616E+05  1.294070E+05 -2.433214E+06 -1.556337E+04  6.455279E+03
         9  20 -6.334036E+06 -7.593226E+05  1.170217E+05 -2.431391E+06 -3.052236E+04  1.402003E+03
         9  21 -6.342779E+06 -7.776042E+05  8.740946E+04 -2.423026E+06 -4.508340E+04 -4.711440E+03
         9  22 -6.873238E+06 -9.654979E+05 -1.721510E+04 -2.577049E+06 -1.526418E+04  6.567974E+03
         9  23 -6.869333E+06 -9.625332E+05 -2.933061E+04 -2.577160E+06 -3.051763E+04  1.404610E+03
         9  24 -6.875740E+06 -9.824617E+05 -5.891991E+04 -2.570727E+06 -4.537300E+04 -4.819232E+03
         9  25 -7.410660E+06 -1.167119E+06 -1.638634E+05 -2.720771E+06 -1.496528E+04  6.680565E+03
         9  26 -7.404352E+06 -1.165727E+06 -1.757090E+05 -2.722814E+06 -3.051289E+04  1.407219E+03
         9  27 -7.408424E+06 -1.187300E+06 -2.052752E+05 -2.718311E+06 -4.566230E+04 -4.926910E+03
        10   1 -6.399310E+06 -7.813146E+05  5.729105E+04 -2.452742E+06  5.598512E+04  9.313232E+03
        10   2 -6.403339E+06 -7.747514E+05 -3.379130E+03 -2.464940E+06  1.215101E+05  3.503174E+04
        10   3 -6.513584E+06 -9.081448E+05 -1.606234E+05 -2.395599E+06  1.866275E+05  6.180953E+04
        10   4 -6.889417E+06 -9.554462E+05 -7.431828E+04 -2.573984E+06  5.607497E+04  9.347617E+03
        10   5 -6.845508E+06 -9.483068E+05 -1.254051E+05 -2.591173E+06  1.218608E+05  3.516191E+04
        10   6 -6.907916E+06 -1.081251E+06 -2.733238E+05 -2.526806E+06  1.872445E+05  6.203320E+04
        10   7 -7.379292E+06 -1.129571E+06 -2.059489E+05 -2.695142E+06  5.616472E+04  9.381971E+03
        10   8 -7.287488E+06 -1.121847E+06 -2.474493E+05 -2.717322E+06  1.222112E+05  3.529195E+04
        10   9 -7.302095E+06 -1.254332E+06 -3.860393E+05 -2.657932E+06  1.878610E+05  6.225662E+04
        10  10 -6.399313E+06 -7.813156E+05  5.728493E+04 -2.452742E+06 -4.712518E-10  1.168437E-09
        10  11 -6.403355E+06 -7.747568E+05 -3.409538E+03 -2.464944E+06 -2.660750E-09  1.491093E-09
        10  12 -6.513623E+06 -9.081585E+05 -1.606969E+05 -2.395608E+06  9.209964E-10 -2.249677E-11
        10  13 -6.889420E+06 -9.554471E+05 -7.432443E+04 -2.573984E+06 -7.575231E-10  1.307939E-09
        10  14 -6.845524E+06 -9.483122E+05 -1.254357E+05 -2.591176E+06 -4.390415E-09  1.720197E-09
        10  15 -6.907955E+06 -1.081264E+06 -2.733978E+05 -2.526816E+06 -1.667028E-09 -3.522830E-09
        10  16 -7.379295E+06 -1.129572E+06 -2.059551E+05 -2.695142E+06 -2.889163E-09  1.646051E-10
        10  17 -7.287504E+06 -1.121853E+06 -2.474802E+05 -2.717326E+06 -2.371100E-09 -1.652042E-10
        10  18 -7.302134E+06 -1.254346E+06 -3.861139E+05 -2.657942E+06 -3.010867E-09 -3.032044E-09
        10  19 -6.399310E+06 -7.813146E+05  5.729105E+04 -2.452742E+06 -5.598512E+04 -9.313232E+03
        10  20 -6.403339E+06 -7.747514E+05 -3.379130E+03 -2.464940E+06 -1.215101E+05 -3.503174E+04
        10  21 -6.513584E+06 -9.081448E+05 -1.606234E+05 -2.395599E+06 -1.866275E+05 -6.180953E+04
        10  22 -6.889417E+06 -9.554462E+05 -7.431828E+04 -2.573984E+06 -5.607497E+04 -9.347617E+03
        10  23 -6.845508E+06 -9.483068E+05 -1.254051E+05 -2.591173E+06 -1.218608E+05 -3.516191E+04
        10  24 -6.907916E+06 -1.081251E+06 -2.733238E+05 -2.526806E+06 -1.872445E+05 -6.203320E+04
        10  25 -7.379292E+06 -1.129571E+06 -2.059489E+05 -2.695142E+06 -5.616472E+04 -9.381971E+03
        10  26 -7.287488E+06 -1.121847E+06 -2.474493E+05 -2.717322E+06 -1.222112E+05 -3.529195E+04
        10  27 -7.302095E+06 -1.254332E+06 -3.860393E+05 -2.657932E+06 -1.878610E+05 -6.225662E+04
        11   1 -6.622481E+06 -8.866692E+05 -2.589463E+05 -2.600463E+06  2.356647E+05  8.148190E+04
        11   2 -6.557947E+06 -6.698815E+05 -4.754565E+05 -2.529953E+06  5.283082E+05  1.943769E+05
        11   3 -7.066308E+06 -1.665398E+06 -1.259705E+06 -2.066502E+06  8.202735E+05  3.090277E+05
        11   4 -6.954935E+06 -9.285233E+05 -3.329792E+05 -2.604914E+06  2.359394E+05  8.162564E+04
        11   5 -6.736223E+06 -7.852636E+05 -5.336401E+05 -2.627147E+06  5.289872E+05  1.945822E+05
        11   6 -7.090685E+06 -1.854664E+06 -1.302470E+06 -2.256333E+06  8.214382E+05  3.091673E+05
        11   7 -7.287267E+06 -9.703721E+05 -4.070141E+05 -2.609374E+06  2.362139E+05  8.176941E+04
        11   8 -6.914462E+06 -9.006197E+05 -5.918262E+05 -2.724310E+06  5.296660E+05  1.947872E+05
        11   9 -7.114983E+06 -2.043752E+06 -1.345217E+06 -2.446133E+06  8.226029E+05  3.093061E+05
        11  10 -6.622543E+06 -8.866915E+05 -2.590646E+05 -2.600479E+06 -4.386489E-09 -5.466231E-10
        11  11 -6.558260E+06 -6.699985E+05 -4.760594E+05 -2.530036E+06 -6.414690E-09  2.818790E-09
        11  12 -7.067063E+06 -1.665685E+06 -1.261167E+06 -2.066708E+06  1.357685E-09  4.738330E-10
        11  13 -6.954997E+06 -9.285458E+05 -3.330979E+05 -2.604929E+06 -7.140861E-10 -1.013025E-09
        11  14 -6.736537E+06 -7.853809E+05 -5.342447E+05 -2.627231E+06 -6.232340E-09  2.788148E-09
        11  15 -7.091443E+06 -1.854952E+06 -1.303937E+06 -2.256539E+06 -4.922472E-09  1.260563E-09
        11  16 -7.287329E+06 -9.703946E+05 -4.071331E+05 -2.609389E+06 -5.395839E-09  3.465493E-10
        11  17 -6.914777E+06 -9.007374E+05 -5.924326E+05 -2.724393E+06  2.096068E-09  5.104498E-10
        11  18 -7.115743E+06 -2.044040E+06 -1.346687E+06 -2.446340E+06  1.744745E-09  6.839097E-10
        11  19 -6.622481E+06 -8.866692E+05 -2.589463E+05 -2.600463E+06 -2.356647E+05 -8.148190E+04
        11  20 -6.557947E+06 -6.698815E+05 -4.754565E+05 -2.529953E+06 -5.283082E+05 -1.943769E+05
        11  21 -7.066308E+06 -1.665398E+06 -1.259705E+06 -2.066502E+06 -8.202735E+05 -3.090277E+05
        11  22 -6.954935E+06 -9.285233E+05 -3.329792E+05 -2.604914E+06 -2.359394E+05 -8.162564E+04
        11  23 -6.736223E+06 -7.852636E+05 -5.336401E+05 -2.627147E+06 -5.289872E+05 -1.945822E+05
        11  24 -7.090685E+06 -1.854664E+06 -1.302470E+06 -2.256333E+06 -8.214382E+05 -3.091673E+05
        11  25 -7.287267E+06 -9.703721E+05 -4.070141E+05 -2.609374E+06 -2.362139E+05 -8.176941E+04
        11  26 -6.914462E+06 -9.006197E+05 -5.918262E+05 -2.724310E+06 -5.296660E+05 -1.947872E+05
        11  27 -7.114983E+06 -2.043752E+06 -1.345217E+06 -2.446133E+06 -8.226029E+05 -3.093061E+05
        12   1  1.341389E+05 -7.194368E+05  1.274290E+05 -1.649948E+02  2.070148E+04 -5.673652E+00
        12   2  1.338694E+05 -7.205858E+05  1.271484E+05  3.816591E+01  2.067128E+04  3.764081E+00
        12   3  1.336289E+05 -7.215130E+05  1.269155E+05 -3.932228E+02  2.060690E+04  1.314429E+01
        12   4 -5.025966E+01 -1.262336E+06 -3.224542E+01 -1.410196E+02  2.070272E+04  2.508659E+00
        12   5 -6.202534E+01 -1.262444E+06 -6.489010E+01  1.762788E+02  2.067250E+04  3.323236E+01
        12   6 -4.863856E+01 -1.262335E+06 -6.466342E+01 -1.410025E+02  2.060809E+04  6.389887E+01
        12   7 -1.342605E+05 -1.804962E+06 -1.275136E+05 -1.170604E+02  2.070395E+04  1.068385E+01
        12   8 -1.340144E+05 -1.804032E+06 -1.272983E+05  3.142931E+02  2.067372E+04  6.267505E+01
        12   9 -1.337471E+05 -1.802888E+06 -1.270649E+05  1.110369E+02  2.060929E+04  1.146094E+02
        12  10  1.341385E+05 -7.194370E+05  1.274281E+05 -1.649947E+02 -2.391147E-09  6.906899E-09
        12  11  1.338690E+05 -7.205859E+05  1.271476E+05  3.816585E+01 -9.135537E-09 -6.502005E-10
        12  12  1.336285E+05 -7.215132E+05  1.269147E+05 -3.932230E+02 -5.079544E-09 -7.146808E-09
        12  13 -5.071963E+01 -1.262336E+06 -3.305037E+01 -1.410197E+02  3.596768E-10  1.079716E-10
        12  14 -6.248397E+01 -1.262445E+06 -6.569271E+01  1.762782E+02 -6.895795E-09  1.429481E-11
        12  15 -4.909434E+01 -1.262335E+06 -6.546103E+01 -1.410036E+02 -4.224691E-09  4.423356E-10
        12  16 -1.342609E+05 -1.804962E+06 -1.275145E+05 -1.170605E+02  8.627592E-10 -6.856278E-09
        12  17 -1.340149E+05 -1.804032E+06 -1.272991E+05  3.142921E+02 -4.673507E-09  7.067559E-10
        12  18 -1.337475E+05 -1.802888E+06 -1.270657E+05  1.110350E+02 -1.718158E-09  6.763265E-09
        12  19  1.341389E+05 -7.194368E+05  1.274290E+05 -1.649948E+02 -2.070148E+04  5.673652E+00
        12  20  1.338694E+05 -7.205858E+05  1.271484E+05  3.816591E+01 -2.067128E+04 -3.764081E+00
        12  21  1.336289E+05 -7.215130E+05  1.269155E+05 -3.932228E+02 -2.060690E+04 -1.314429E+01
        12  22 -5.025966E+01 -1.262336E+06 -3.224542E+01 -1.410196E+02 -2.070272E+04 -2.508659E+00
        12  23 -6.202534E+01 -1.262444E+06 -6.489010E+01  1.762788E+02 -2.067250E+04 -3.323236E+01
        12  24 -4.863856E+01 -1.262335E+06 -6.466342E+01 -1.410025E+02 -2.060809E+04 -6.389887E+01
        12  25 -1.342605E+05 -1.804962E+06 -1.275136E+05 -1.170604E+02 -2.070395E+04 -1.068385E+01
        12  26 -1.340144E+05 -1.804032E+06 -1.272983E+05  3.142931E+02 -2.067372E+04 -6.267505E+01
        12  27 -1.337471E+05 -1.802888E+06 -1.270649E+05  1.110369E+02 -2.060929E+04 -1.146094E+02
        13   1  1.330700E+05 -7.237685E+05  1.263546E+05 -7.152597E+02  2.055185E+04  9.427461E+00
        13   2  1.322916E+05 -7.269791E+05  1.255427E+05  1.155210E+02  2.042720E+04  7.048696E+01
        13   3  1.315407E+05 -7.299843E+05  1.247425E+05 -9.315786E+02  2.026872E+04  1.313764E+02
        13   4 -4.857411E+01 -1.262338E+06 -8.437388E+01 -4.173175E+02  2.055301E+04  7.653639E+01
        13   5 -5.925697E+01 -1.262439E+06 -1.688652E+02  5.216818E+02  2.042831E+04  1.586320E+02
        13   6 -4.612999E+01 -1.262338E+06 -2.563086E+02 -4.173000E+02  2.026976E+04  2.405578E+02
        13   7 -1.331878E+05 -1.800640E+06 -1.265433E+05 -1.195852E+02  2.055418E+04  1.435874E+02
        13   8 -1.324305E+05 -1.797634E+06 -1.259001E+05  9.275563E+02  2.042942E+04  2.467013E+02
        13   9 -1.316531E+05 -1.794429E+06 -1.252745E+05  9.661741E+01  2.027080E+04  3.496460E+02
        13  10  1.330695E+05 -7.237686E+05  1.263538E+05 -7.152598E+02 -2.378142E-09 -1.995181E-09
        13  11  1.322911E+05 -7.269792E+05  1.255419E+05  1.155198E+02 -7.561049E-09 -7.137527E-09
        13  12  1.315402E+05 -7.299844E+05  1.247417E+05 -9.315808E+02 -2.522564E-09 -7.821801E-09
        13  13 -4.902746E+01 -1.262338E+06 -8.516724E+01 -4.173187E+02 -1.709694E-09  7.238054E-10
        13  14 -5.970483E+01 -1.262439E+06 -1.696490E+02  5.216792E+02  1.161552E-09  4.388496E-11
        13  15 -4.657094E+01 -1.262338E+06 -2.570803E+02 -4.173040E+02  2.313260E-09  9.474944E-10
        13  16 -1.331883E+05 -1.800641E+06 -1.265441E+05 -1.195876E+02  8.795352E-10  2.627659E-09
        13  17 -1.324310E+05 -1.797634E+06 -1.259009E+05  9.275523E+02  4.547345E-10  7.303783E-09
        13  18 -1.316536E+05 -1.794429E+06 -1.252753E+05  9.661170E+01  2.015606E-09  7.174884E-09
        13  19  1.330700E+05 -7.237685E+05  1.263546E+05 -7.152597E+02 -2.055185E+04 -9.427461E+00
        13  20  1.322916E+05 -7.269791E+05  1.255427E+05  1.155210E+02 -2.042720E+04 -7.048696E+01
        13  21  1.315407E+05 -7.299843E+05  1.247425E+05 -9.315786E+02 -2.026872E+04 -1.313764E+02
        13  22 -4.857411E+01 -1.262338E+06 -8.437388E+01 -4.173175E+02 -2.055301E+04 -7.653639E+01
        13  23 -5.925697E+01 -1.262439E+06 -1.688652E+02  5.216818E+02 -2.042831E+04 -1.586320E+02
        13  24 -4.612999E+01 -1.262338E+06 -2.563086E+02 -4.173000E+02 -2.026976E+04 -2.405578E+02
        13  25 -1.331878E+05 -1.800640E+06 -1.265433E+05 -1.195852E+02 -2.055418E+04 -1.435874E+02
        13  26 -1.324305E+05 -1.797634E+06 -1.259001E+05  9.275563E+02 -2.042942E+04 -2.467013E+02
        13  27 -1.316531E+05 -1.794429E+06 -1.252745E+05  9.661741E+01 -2.027080E+04 -3.496460E+02
        14   1  1.304351E+05 -7.344682E+05  1.235850E+05 -1.236767E+03  2.015944E+04  1.687209E+02
        14   2  1.291594E+05 -7.396830E+05  1.221122E+05  2.117711E+02  1.994133E+04  4.496885E+02
        14   3  1.278684E+05 -7.447500E+05  1.204930E+05 -1.438983E+03  1.968821E+04  7.303718E+02
        14   4 -4.174538E+01 -1.262349E+06 -3.392120E+02 -6.887206E+02  2.016043E+04  2.933947E+02
        14   5 -4.869777E+01 -1.262421E+06 -6.137495E+02  8.609843E+02  1.994222E+04  5.959670E+02
        14   6 -7.482962E+01 -1.262348E+06 -1.049671E+03 -6.887683E+02  1.968900E+04  8.982569E+02
        14   7 -1.305385E+05 -1.789973E+06 -1.242826E+05 -1.410526E+02  2.016142E+04  4.179630E+02
        14   8 -1.292763E+05 -1.784906E+06 -1.233584E+05  1.509752E+03  1.994312E+04  7.421228E+02
        14   9 -1.280372E+05 -1.779699E+06 -1.226108E+05  6.093495E+01  1.968979E+04  1.066003E+03
        14  10  1.304347E+05 -7.344683E+05  1.235843E+05 -1.236769E+03  7.513003E-10  1.031451E-08
        14  11  1.291590E+05 -7.396831E+05  1.221114E+05  2.117639E+02  6.447584E-11  2.867886E-09
        14  12  1.278680E+05 -7.447501E+05  1.204923E+05 -1.438994E+03  7.006275E-10 -5.366746E-09
        14  13 -4.218160E+01 -1.262349E+06 -3.399755E+02 -6.887253E+02  1.878026E-09  1.538370E-09
        14  14 -4.912466E+01 -1.262421E+06 -6.144970E+02  8.609748E+02 -1.486344E-09 -3.070218E-11
        14  15 -7.524587E+01 -1.262348E+06 -1.050400E+03 -6.887825E+02 -4.939089E-09  1.400515E-09
        14  16 -1.305389E+05 -1.789973E+06 -1.242833E+05 -1.410594E+02  1.292905E-09 -9.354259E-09
        14  17 -1.292767E+05 -1.784906E+06 -1.233591E+05  1.509740E+03 -8.106582E-10 -2.700141E-09
        14  18 -1.280376E+05 -1.779699E+06 -1.226115E+05  6.091803E+01  8.776046E-10  4.464954E-09
        14  19  1.304351E+05 -7.344682E+05  1.235850E+05 -1.236767E+03 -2.015944E+04 -1.687209E+02
        14  20  1.291594E+05 -7.396830E+05  1.221122E+05  2.117711E+02 -1.994133E+04 -4.496885E+02
        14  21  1.278684E+05 -7.447500E+05  1.204930E+05 -1.438983E+03 -1.968821E+04 -7.303718E+02
        14  22 -4.174538E+01 -1.262349E+06 -3.392120E+02 -6.887206E+02 -2.016043E+04 -2.933947E+02
        14  23 -4.869777E+01 -1.262421E+06 -6.137495E+02  8.609843E+02 -1.994222E+04 -5.959670E+02
        14  24 -7.482962E+01 -1.262348E+06 -1.049671E+03 -6.887683E+02 -1.968900E+04 -8.982569E+02
        14  25 -1.305385E+05 -1.789973E+06 -1.242826E+05 -1.410526E+02 -2.016142E+04 -4.179630E+02
        14  26 -1.292763E+05 -1.784906E+06 -1.233584E+05  1.509752E+03 -1.994312E+04 -7.421228E+02
        14  27 -1.280372E+05 -1.779699E+06 -1.226108E+05  6.093495E+01 -1.968979E+04 -1.066003E+03
        15   1  9.285113E+04  1.003408E+06  5.216260E+04 -4.394711E+00  3.259379E+04  7.957020E-02
        15   2  9.285663E+04  1.003434E+06  5.217185E+04 -2.565063E+01  3.259511E+04 -7.304558E+00
        15   3  9.286338E+04  1.003469E+06  5.218913E+04 -4.352008E+01  3.259777E+04 -1.468831E+01
        15   4 -3.462039E+01  5.907373E+05  1.875417E+01  7.528820E-01  3.259608E+04 -1.486022E+00
        15   5 -3.636982E+01  5.907318E+05  2.240753E+01 -9.400165E-01  3.259740E+04 -1.208537E+01
        15   6 -3.630355E+01  5.907373E+05  3.633095E+01  7.543572E-01  3.260006E+04 -2.268439E+01
        15   7 -9.292730E+04  1.782409E+05 -5.212563E+04  5.897529E+00  3.259836E+04 -3.050626E+00
        15   8 -9.293630E+04  1.782047E+05 -5.212757E+04  2.375623E+01  3.259969E+04 -1.686316E+01
        15   9 -9.294292E+04  1.781801E+05 -5.211700E+04  4.500300E+01  3.260235E+04 -3.067541E+01
        15  10  9.284999E+04  1.003408E+06  5.216060E+04 -4.394713E+00  3.571196E-09 -2.183468E-08
        15  11  9.285549E+04  1.003433E+06  5.216985E+04 -2.565044E+01  3.381235E-10 -7.116536E-08
        15  12  9.286224E+04  1.003469E+06  5.218713E+04 -4.351970E+01 -3.833730E-09 -1.117791E-07
        15  13 -3.576165E+01  5.907370E+05  1.675697E+01  7.529212E-01 -2.881944E-08  4.929351E-11
        15  14 -3.751118E+01  5.907315E+05  2.041016E+01 -9.396991E-01 -8.557933E-09 -1.410324E-10
        15  15 -3.744509E+01  5.907370E+05  3.433325E+01  7.549530E-01  1.323578E-08  1.721790E-10
        15  16 -9.292844E+04  1.782406E+05 -5.212763E+04  5.897609E+00  3.540854E-09  2.187696E-08
        15  17 -9.293744E+04  1.782044E+05 -5.212957E+04  2.375667E+01  5.042644E-09  7.108348E-08
        15  18 -9.294406E+04  1.781799E+05 -5.211900E+04  4.500380E+01 -1.774062E-09  1.117540E-07
        15  19  9.285113E+04  1.003408E+06  5.216260E+04 -4.394711E+00 -3.259379E+04 -7.957024E-02
        15  20  9.285663E+04  1.003434E+06  5.217185E+04 -2.565063E+01 -3.259511E+04  7.304558E+00
        15  21  9.286338E+04  1.003469E+06  5.218913E+04 -4.352008E+01 -3.259777E+04  1.468831E+01
        15  22 -3.462039E+01  5.907373E+05  1.875417E+01  7.528822E-01 -3.259608E+04  1.486022E+00
        15  23 -3.636982E+01  5.907318E+05  2.240753E+01 -9.400163E-01 -3.259740E+04  1.208537E+01
        15  24 -3.630355E+01  5.907373E+05  3.633095E+01  7.543576E-01 -3.260006E+04  2.268439E+01
        15  25 -9.292730E+04  1.782409E+05 -5.212563E+04  5.897529E+00 -3.259836E+04  3.050626E+00
        15  26 -9.293630E+04  1.782047E+05 -5.212757E+04  2.375623E+01 -3.259969E+04  1.686316E+01
        15  27 -9.294292E+04  1.781801E+05 -5.211700E+04  4.500300E+01 -3.260235E+04  3.067541E+01
        16   1  9.287114E+04  1.003507E+06  5.220517E+04 -5.216146E+01  3.260017E+04 -1.886342E+01
        16   2  9.288821E+04  1.003590E+06  5.225339E+04 -8.261774E+01  3.260425E+04 -5.965343E+01
        16   3  9.290827E+04  1.003689E+06  5.233180E+04 -9.866707E+01  3.260737E+04 -1.004425E+02
        16   4 -3.714393E+01  5.907381E+05  4.677669E+01  3.203500E+00  3.260246E+04 -2.980845E+01
        16   5 -4.142583E+01  5.907307E+05  7.874344E+01 -3.999970E+00  3.260654E+04 -6.825091E+01
        16   6 -4.313161E+01  5.907381E+05  1.392880E+02  3.204061E+00  3.260966E+04 -1.066924E+02
        16   7 -9.295235E+04  1.781436E+05 -5.211215E+04  5.853622E+01  3.260475E+04 -4.074658E+01
        16   8 -9.297800E+04  1.780457E+05 -5.209644E+04  7.457155E+01  3.260884E+04 -7.684294E+01
        16   9 -9.300147E+04  1.779622E+05 -5.205377E+04  1.050149E+02  3.261195E+04 -1.129384E+02
        16  10  9.286999E+04  1.003507E+06  5.220317E+04 -5.216097E+01 -3.487202E-09  1.300375E-07
        16  11  9.288707E+04  1.003590E+06  5.225139E+04 -8.261618E+01  1.803549E-09  3.099290E-08
        16  12  9.290713E+04  1.003689E+06  5.232980E+04 -9.866443E+01  5.380810E-10 -7.115552E-08
        16  13 -3.828563E+01  5.907378E+05  4.477870E+01  3.204282E+00  1.316427E-08  1.160915E-10
        16  14 -4.256782E+01  5.907304E+05  7.674494E+01 -3.998178E+00  6.126107E-09 -5.105827E-10
        16  15 -4.427383E+01  5.907378E+05  1.372892E+02  3.206862E+00  4.471149E-09  3.002441E-10
        16  16 -9.295350E+04  1.781433E+05 -5.211415E+04  5.853728E+01 -6.149677E-09 -1.301675E-07
        16  17 -9.297914E+04  1.780454E+05 -5.209844E+04  7.457357E+01 -4.795932E-09 -3.117464E-08
        16  18 -9.300262E+04  1.779619E+05 -5.205577E+04  1.050179E+02  7.625925E-10  7.122509E-08
        16  19  9.287114E+04  1.003507E+06  5.220517E+04 -5.216146E+01 -3.260017E+04  1.886342E+01
        16  20  9.288821E+04  1.003590E+06  5.225339E+04 -8.261774E+01 -3.260425E+04  5.965343E+01
        16  21  9.290827E+04  1.003689E+06  5.233180E+04 -9.866707E+01 -3.260737E+04  1.004425E+02
        16  22 -3.714393E+01  5.907381E+05  4.677669E+01  3.203499E+00 -3.260246E+04  2.980845E+01
        16  23 -4.142583E+01  5.907307E+05  7.874344E+01 -3.999970E+00 -3.260654E+04  6.825091E+01
        16  24 -4.313161E+01  5.907381E+05  1.392880E+02  3.204061E+00 -3.260966E+04  1.066924E+02
        16  25 -9.295235E+04  1.781436E+05 -5.211215E+04  5.853621E+01 -3.260475E+04  4.074658E+01
        16  26 -9.297800E+04  1.780457E+05 -5.209644E+04  7.457155E+01 -3.260884E+04  7.684294E+01
        16  27 -9.300147E+04  1.779622E+05 -5.205377E+04  1.050149E+02 -3.261195E+04  1.129384E+02
        17   1  9.292429E+04  1.003769E+06  5.239154E+04 -1.119437E+02  3.260983E+04 -1.276531E+02
        17   2  9.295726E+04  1.003900E+06  5.257343E+04 -1.526795E+02  3.260399E+04 -3.295976E+02
        17   3  9.301520E+04  1.004072E+06  5.289580E+04 -1.692855E+02  3.257979E+04 -5.315460E+02
        17   4 -4.539673E+01  5.907423E+05  1.838245E+02  5.363299E+00  3.261212E+04 -1.354542E+02
        17   5 -5.113085E+01  5.907253E+05  3.196320E+02 -6.700277E+00  3.260626E+04 -2.931903E+02
        17   6 -3.956148E+01  5.907422E+05  5.653123E+02  5.366101E+00  3.258204E+04 -4.509309E+02
        17   7 -9.302202E+04  1.778903E+05 -5.202444E+04  1.226005E+02  3.261442E+04 -1.432503E+02
        17   8 -9.306647E+04  1.777258E+05 -5.193472E+04  1.391914E+02  3.260854E+04 -2.568060E+02
        17   9 -9.310128E+04  1.775878E+05 -5.176575E+04  1.799123E+02  3.258430E+04 -3.703667E+02
        17  10  9.292314E+04  1.003769E+06  5.238954E+04 -1.119403E+02  1.673973E-09  8.135837E-10
        17  11  9.295612E+04  1.003899E+06  5.257143E+04 -1.526709E+02  1.359389E-09 -1.338260E-09
        17  12  9.301406E+04  1.004072E+06  5.289380E+04 -1.692716E+02  1.464422E-09 -2.423267E-09
        17  13 -4.653912E+01  5.907420E+05  1.818253E+02  5.366856E+00  2.704098E-09  2.597691E-10
        17  14 -5.227284E+01  5.907250E+05  3.176334E+02 -6.692580E+00  1.097153E-09 -7.200503E-10
        17  15 -4.070181E+01  5.907419E+05  5.633164E+02  5.377932E+00  2.406149E-09  4.571137E-10
        17  16 -9.302316E+04  1.778900E+05 -5.202644E+04  1.226043E+02  1.686177E-09 -1.324353E-09
        17  17 -9.306762E+04  1.777255E+05 -5.193672E+04  1.391982E+02 -1.243243E-10  1.157521E-09
        17  18 -9.310242E+04  1.775875E+05 -5.176774E+04  1.799221E+02 -4.367953E-10  2.581826E-09
        17  19  9.292429E+04  1.003769E+06  5.239154E+04 -1.119437E+02 -3.260983E+04  1.276531E+02
        17  20  9.295726E+04  1.003900E+06  5.257343E+04 -1.526795E+02 -3.260399E+04  3.295976E+02
        17  21  9.301520E+04  1.004072E+06  5.289580E+04 -1.692855E+02 -3.257979E+04  5.315460E+02
        17  22 -4.539673E+01  5.907423E+05  1.838245E+02  5.363299E+00 -3.261212E+04  1.354542E+02
        17  23 -5.113085E+01  5.907253E+05  3.196320E+02 -6.700277E+00 -3.260626E+04  2.931903E+02
        17  24 -3.956148E+01  5.907422E+05  5.653123E+02  5.366101E+00 -3.258204E+04  4.509309E+02
        17  25 -9.302202E+04  1.778903E+05 -5.202444E+04  1.226005E+02 -3.261442E+04  1.432503E+02
        17  26 -9.306647E+04  1.777258E+05 -5.193472E+04  1.391914E+02 -3.260854E+04  2.568060E+02
        17  27 -9.310128E+04  1.775878E+05 -5.176575E+04  1.799123E+02 -3.258430E+04  3.703667E+02
        18   1 -7.516675E+06 -2.512028E+06 -1.557814E+06 -2.669303E+06 -6.893744E+05 -2.330990E+05
        18   2 -7.331802E+06 -1.501977E+06 -9.230431E+05 -2.720206E+06 -4.488562E+05 -8.343257E+04
        18   3 -7.462993E+06 -1.416886E+06 -7.235497E+05 -2.597204E+06 -1.882861E+05  1.355775E+04
        18   4 -5.685168E+06 -1.554524E+06 -1.006331E+06 -1.904226E+06 -6.458638E+05 -2.169540E+05
        18   5 -5.475813E+06 -7.220046E+05 -4.236923E+05 -2.132121E+06 -4.352292E+05 -7.836553E+04
        18   6 -5.575541E+06 -8.069813E+05 -2.514842E+05 -2.186423E+06 -2.045747E+05  7.433368E+03
        18   7 -3.850202E+06 -5.958051E+05 -4.551718E+05 -1.136780E+06 -6.022084E+05 -2.007072E+05
        18   8 -3.616409E+06  5.842464E+04  7.535170E+04 -1.542339E+06 -4.215554E+05 -7.327621E+04
        18   9 -3.684576E+06 -1.970626E+05  2.203128E+05 -1.774600E+06 -2.209176E+05  1.295328E+03
        18  10 -7.517206E+06 -2.512217E+06 -1.558823E+06 -2.669434E+06  2.472874E-09 -1.758704E-11
        18  11 -7.332023E+06 -1.502040E+06 -9.234399E+05 -2.720236E+06 -3.218263E-10 -1.550505E-10
        18  12 -7.463032E+06 -1.416896E+06 -7.236174E+05 -2.597202E+06  2.011458E-09  3.757076E-10
        18  13 -5.685632E+06 -1.554688E+06 -1.007213E+06 -1.904339E+06  3.772498E-09 -3.015256E-10
        18  14 -5.476019E+06 -7.220628E+05 -4.240635E+05 -2.132149E+06  4.348218E-09 -3.257869E-10
        18  15 -5.575586E+06 -8.069927E+05 -2.515637E+05 -2.186422E+06  4.283658E-10  3.608657E-10
        18  16 -3.850605E+06 -5.959468E+05 -4.559341E+05 -1.136878E+06  4.844061E-10 -3.524095E-10
        18  17 -3.616602E+06  5.837071E+04  7.500536E+04 -1.542364E+06 -2.319658E-09 -6.130163E-10
        18  18 -3.684629E+06 -1.970758E+05  2.202206E+05 -1.774599E+06 -3.086904E-09  4.100126E-10
        18  19 -7.516675E+06 -2.512028E+06 -1.557814E+06 -2.669303E+06  6.893744E+05  2.330990E+05
        18  20 -7.331802E+06 -1.501977E+06 -9.230431E+05 -2.720206E+06  4.488562E+05  8.343257E+04
        18  21 -7.462993E+06 -1.416886E+06 -7.235497E+05 -2.597204E+06  1.882861E+05 -1.355775E+04
        18  22 -5.685168E+06 -1.554524E+06 -1.006331E+06 -1.904226E+06  6.458638E+05  2.169540E+05
        18  23 -5.475813E+06 -7.220046E+05 -4.236923E+05 -2.132121E+06  4.352292E+05  7.836553E+04
        18  24 -5.575541E+06 -8.069813E+05 -2.514842E+05 -2.186423E+06  2.045747E+05 -7.433368E+03
        18  25 -3.850202E+06 -5.958051E+05 -4.551718E+05 -1.136780E+06  6.022084E+05  2.007072E+05
        18  26 -3.616409E+06  5.842464E+04  7.535170E+04 -1.542339E+06  4.215554E+05  7.327621E+04
        18  27 -3.684576E+06 -1.970626E+05  2.203128E+05 -1.774600E+06  2.209176E+05 -1.295328E+03
        19   1 -7.193355E+06 -1.554467E+06 -6.397702E+05 -2.607604E+06 -1.654000E+05  1.040563E+04
        19   2 -7.074502E+06 -1.379217E+06 -4.981275E+05 -2.540755E+06 -1.108346E+05  2.754421E+04
        19   3 -6.925436E+06 -1.353104E+06 -4.187029E+05 -2.529203E+06 -5.480173E+04  4.076595E+04
        19   4 -5.539397E+06 -9.089892E+05 -2.032999E+05 -2.134282E+06 -1.662594E+05  1.006122E+04
        19   5 -5.549565E+06 -7.994459E+05 -9.964991E+04 -2.119782E+06 -1.138245E+05  2.640827E+04
        19   6 -5.529016E+06 -8.384672E+05 -5.638257E+04 -2.160594E+06 -5.993593E+04  3.883509E+04
        19   7 -3.882752E+06 -2.632884E+05  2.329322E+05 -1.659785E+06 -1.671208E+05  9.716007E+03
        19   8 -4.022343E+06 -2.195167E+05  2.986301E+05 -1.697857E+06 -1.168222E+05  2.526933E+04
        19   9 -4.130677E+06 -3.237280E+05  3.057758E+05 -1.791232E+06 -6.508286E+04  3.689971E+04
        19  10 -7.193385E+06 -1.554475E+06 -6.398224E+05 -2.607602E+06 -2.470729E-10  8.200058E-10
        19  11 -7.074516E+06 -1.379221E+06 -4.981522E+05 -2.540753E+06  1.225025E-10 -2.938750E-10
        19  12 -6.925440E+06 -1.353106E+06 -4.187116E+05 -2.529202E+06  2.206949E-09 -4.148837E-10
        19  13 -5.539427E+06 -9.089968E+05 -2.033524E+05 -2.134280E+06  1.120687E-10  4.732045E-10
        19  14 -5.549579E+06 -7.994501E+05 -9.967573E+04 -2.119780E+06 -2.356742E-09 -4.109007E-11
        19  15 -5.529020E+06 -8.384698E+05 -5.639217E+04 -2.160592E+06 -9.288842E-10 -1.928429E-09
        19  16 -3.882783E+06 -2.632960E+05  2.328793E+05 -1.659784E+06 -4.200126E-09  6.436392E-10
        19  17 -4.022357E+06 -2.195211E+05  2.986031E+05 -1.697854E+06  4.335540E-10 -1.603676E-10
        19  18 -4.130682E+06 -3.237306E+05  3.057653E+05 -1.791230E+06 -1.509281E-10 -2.999976E-09
        19  19 -7.193355E+06 -1.554467E+06 -6.397702E+05 -2.607604E+06  1.654000E+05 -1.040563E+04
        19  20 -7.074502E+06 -1.379217E+06 -4.981275E+05 -2.540755E+06  1.108346E+05 -2.754421E+04
        19  21 -6.925436E+06 -1.353104E+06 -4.187029E+05 -2.529203E+06  5.480173E+04 -4.076595E+04
        19  22 -5.539397E+06 -9.089892E+05 -2.032999E+05 -2.134282E+06  1.662594E+05 -1.006122E+04
        19  23 -5.549565E+06 -7.994459E+05 -9.964991E+04 -2.119782E+06  1.138245E+05 -2.640827E+04
        19  24 -5.529016E+06 -8.384672E+05 -5.638257E+04 -2.160594E+06  5.993593E+04 -3.883509E+04
        19  25 -3.882752E+06 -2.632884E+05  2.329322E+05 -1.659785E+06  1.671208E+05 -9.716007E+03
        19  26 -4.022343E+06 -2.195167E+05  2.986301E+05 -1.697857E+06  1.168222E+05 -2.526933E+04
        19  27 -4.130677E+06 -3.237280E+05  3.057758E+05 -1.791232E+06  6.508286E+04 -3.689971E+04
        20   1 -6.729091E+06 -1.304761E+06 -3.576488E+05 -2.487287E+06 -4.580300E+04  3.860640E+04
        20   2 -6.598493E+06 -1.193222E+06 -2.934132E+05 -2.396570E+06 -3.094074E+04  3.533930E+04
        20   3 -6.392209E+06 -1.168604E+06 -2.400211E+05 -2.395246E+06 -1.586109E+04  3.144688E+04
        20   4 -5.522531E+06 -8.504011E+05 -4.369357E+04 -2.158504E+06 -5.014555E+04  3.697533E+04
        20   5 -5.559842E+06 -8.035184E+05 -2.307251E+04 -2.115070E+06 -3.562172E+04  3.358711E+04
        20   6 -5.521425E+06 -8.434707E+05 -1.300534E+04 -2.161030E+06 -2.088430E+04  2.957279E+04
        20   7 -4.314542E+06 -3.959490E+05  2.701390E+05 -1.829135E+06 -5.449738E+04  3.534078E+04
        20   8 -4.520135E+06 -4.137498E+05  2.471768E+05 -1.833140E+06 -4.031133E+04  3.183170E+04
        20   9 -4.649900E+06 -5.182938E+05  2.139456E+05 -1.926515E+06 -2.591527E+04  2.769584E+04
        20  10 -6.729093E+06 -1.304763E+06 -3.576556E+05 -2.487285E+06  7.506933E-10 -1.527670E-09
        20  11 -6.598494E+06 -1.193223E+06 -2.934173E+05 -2.396569E+06  2.546089E-09 -8.302039E-10
        20  12 -6.392210E+06 -1.168605E+06 -2.400235E+05 -2.395245E+06 -1.258110E-09  1.093539E-09
        20  13 -5.522534E+06 -8.504032E+05 -4.370087E+04 -2.158502E+06 -3.615119E-09 -1.769437E-09
        20  14 -5.559844E+06 -8.035200E+05 -2.307701E+04 -2.115069E+06 -9.003700E-10  1.923144E-11
        20  15 -5.521426E+06 -8.434717E+05 -1.300780E+04 -2.161029E+06 -4.870934E-10  5.784946E-10
        20  16 -4.314546E+06 -3.959511E+05  2.701310E+05 -1.829133E+06  2.955223E-09 -1.556279E-09
        20  17 -4.520137E+06 -4.137514E+05  2.471718E+05 -1.833139E+06 -2.837011E-09  2.593917E-10
        20  18 -4.649901E+06 -5.182948E+05  2.139429E+05 -1.926514E+06 -9.856702E-10  1.363886E-09
        20  19 -6.729091E+06 -1.304761E+06 -3.576488E+05 -2.487287E+06  4.580300E+04 -3.860640E+04
        20  20 -6.598493E+06 -1.193222E+06 -2.934132E+05 -2.396570E+06  3.094074E+04 -3.533930E+04
        20  21 -6.392209E+06 -1.168604E+06 -2.400211E+05 -2.395246E+06  1.586109E+04 -3.144688E+04
        20  22 -5.522531E+06 -8.504011E+05 -4.369357E+04 -2.158504E+06  5.014555E+04 -3.697533E+04
        20  23 -5.559842E+06 -8.035184E+05 -2.307251E+04 -2.115070E+06  3.562172E+04 -3.358711E+04
        20  24 -5.521425E+06 -8.434707E+05 -1.300534E+04 -2.161030E+06  2.088430E+04 -2.957279E+04
        20  25 -4.314542E+06 -3.959490E+05  2.701390E+05 -1.829135E+06  5.449738E+04 -3.534078E+04
        20  26 -4.520135E+06 -4.137498E+05  2.471768E+05 -1.833140E+06  4.031133E+04 -3.183170E+04
        20  27 -4.649900E+06 -5.182938E+05  2.139456E+05 -1.926515E+06  2.591527E+04 -2.769584E+04
        21   1 -6.181378E+06 -1.093731E+06 -1.816555E+05 -2.341444E+06 -1.202868E+04  2.708052E+04
        21   2 -6.038649E+06 -9.800268E+05 -1.299535E+05 -2.241098E+06 -5.553217E+03  1.940050E+04
        21   3 -5.809750E+06 -9.538399E+05 -8.081243E+04 -2.240979E+06  9.887051E+02  1.151779E+04
        21   4 -5.519358E+06 -8.460172E+05 -1.013400E+04 -2.162507E+06 -1.710874E+04  2.518817E+04
        21   5 -5.562352E+06 -8.018744E+05 -6.126278E+03 -2.112525E+06 -1.074747E+04  1.746831E+04
        21   6 -5.519196E+06 -8.452242E+05 -4.585703E+03 -2.162779E+06 -4.320904E+03  9.545609E+03
        21   7 -4.856904E+06 -5.982750E+05  1.613520E+05 -1.983395E+06 -2.219482E+04  2.329360E+04
        21   8 -5.085833E+06 -6.237088E+05  1.176817E+05 -1.983863E+06 -1.594612E+04  1.553449E+04
        21   9 -5.228562E+06 -7.366045E+05  7.163316E+04 -2.084546E+06 -9.633207E+03  7.572426E+03
        21  10 -6.181378E+06 -1.093732E+06 -1.816572E+05 -2.341443E+06 -1.641889E-09  1.749335E-09
        21  11 -6.038649E+06 -9.800272E+05 -1.299543E+05 -2.241098E+06  8.770657E-10 -3.680116E-10
        21  12 -5.809750E+06 -9.538401E+05 -8.081268E+04 -2.240979E+06 -7.073648E-11 -4.226653E-10
        21  13 -5.519359E+06 -8.460180E+05 -1.013574E+04 -2.162507E+06 -9.864009E-10  2.152751E-10
        21  14 -5.562352E+06 -8.018748E+05 -6.127067E+03 -2.112525E+06  2.290674E-11  7.952301E-10
        21  15 -5.519196E+06 -8.452243E+05 -4.585909E+03 -2.162779E+06  2.183498E-09  1.111435E-10
        21  16 -4.856905E+06 -5.982757E+05  1.613500E+05 -1.983395E+06 -1.747337E-09 -3.092494E-10
        21  17 -5.085834E+06 -6.237091E+05  1.176808E+05 -1.983863E+06 -1.539051E-09  1.024235E-09
        21  18 -5.228562E+06 -7.366046E+05  7.163287E+04 -2.084546E+06  1.825354E-09  2.595412E-10
        21  19 -6.181378E+06 -1.093731E+06 -1.816555E+05 -2.341444E+06  1.202868E+04 -2.708052E+04
        21  20 -6.038649E+06 -9.800268E+05 -1.299535E+05 -2.241098E+06  5.553217E+03 -1.940050E+04
        21  21 -5.809750E+06 -9.538399E+05 -8.081243E+04 -2.240979E+06 -9.887051E+02 -1.151779E+04
        21  22 -5.519358E+06 -8.460172E+05 -1.013400E+04 -2.162507E+06  1.710874E+04 -2.518817E+04
        21  23 -5.562352E+06 -8.018744E+05 -6.126278E+03 -2.112525E+06  1.074747E+04 -1.746831E+04
        21  24 -5.519196E+06 -8.452242E+05 -4.585703E+03 -2.162779E+06  4.320904E+03 -9.545609E+03
        21  25 -4.856904E+06 -5.982750E+05  1.613520E+05 -1.983395E+06  2.219482E+04 -2.329360E+04
        21  26 -5.085833E+06 -6.237088E+05  1.176817E+05 -1.983863E+06  1.594612E+04 -1.553449E+04
        21  27 -5.228562E+06 -7.366045E+05  7.163316E+04 -2.084546E+06  9.633207E+03 -7.572426E+03
        22   1 -5.588945E+06 -8.718419E+05 -2.200466E+04 -2.182315E+06  3.749962E+03  6.447147E+03
        22   2 -5.443041E+06 -7.565794E+05  2.569895E+04 -2.079653E+06  9.828048E+03 -1.740466E+03
        22   3 -5.209298E+06 -7.305017E+05  7.120344E+04 -2.079443E+06  1.588693E+04 -9.866413E+03
        22   4 -5.518816E+06 -8.456544E+05 -4.477724E+03 -2.163247E+06 -1.589546E+03  4.464595E+03
        22   5 -5.562757E+06 -8.013000E+05 -5.403816E+03 -2.111926E+06  4.522698E+03 -3.711152E+03
        22   6 -5.518898E+06 -8.461410E+05 -8.553862E+03 -2.163073E+06  1.061480E+04 -1.182542E+04
        22   7 -5.448681E+06 -8.194664E+05  1.304903E+04 -2.144177E+06 -6.929740E+03  2.481787E+03
        22   8 -5.682459E+06 -8.460201E+05 -3.650792E+04 -2.144193E+06 -7.815632E+02 -5.681434E+03
        22   9 -5.828408E+06 -9.617758E+05 -8.831993E+04 -2.246666E+06  5.345517E+03 -1.378337E+04
        22  10 -5.588945E+06 -8.718419E+05 -2.200476E+04 -2.182315E+06  8.158965E-10 -5.486306E-10
        22  11 -5.443041E+06 -7.565794E+05  2.569876E+04 -2.079653E+06 -2.311701E-09 -5.437900E-10
        22  12 -5.209298E+06 -7.305019E+05  7.120278E+04 -2.079443E+06  2.548639E-09 -1.029135E-09
        22  13 -5.518816E+06 -8.456544E+05 -4.477766E+03 -2.163247E+06 -1.339077E-09  8.156979E-10
        22  14 -5.562757E+06 -8.013001E+05 -5.403880E+03 -2.111926E+06 -1.457790E-09 -5.799724E-10
        22  15 -5.518898E+06 -8.461412E+05 -8.554336E+03 -2.163073E+06 -7.298122E-10  2.892041E-10
        22  16 -5.448681E+06 -8.194664E+05  1.304893E+04 -2.144177E+06 -2.110562E-09 -1.054082E-09
        22  17 -5.682459E+06 -8.460202E+05 -3.650798E+04 -2.144193E+06 -4.690220E-09  6.588527E-10
        22  18 -5.828408E+06 -9.617760E+05 -8.832034E+04 -2.246665E+06 -1.173611E-09 -8.268129E-10
        22  19 -5.588945E+06 -8.718419E+05 -2.200466E+04 -2.182315E+06 -3.749962E+03 -6.447147E+03
        22  20 -5.443041E+06 -7.565794E+05  2.569895E+04 -2.079653E+06 -9.828048E+03  1.740466E+03
        22  21 -5.209298E+06 -7.305017E+05  7.120344E+04 -2.079443E+06 -1.588693E+04  9.866413E+03
        22  22 -5.518816E+06 -8.456544E+05 -4.477724E+03 -2.163247E+06  1.589546E+03 -4.464595E+03
        22  23 -5.562757E+06 -8.013000E+05 -5.403816E+03 -2.111926E+06 -4.522698E+03  3.711152E+03
        22  24 -5.518898E+06 -8.461410E+05 -8.553862E+03 -2.163073E+06 -1.061480E+04  1.182542E+04
        22  25 -5.448681E+06 -8.194664E+05  1.304903E+04 -2.144177E+06  6.929740E+03 -2.481787E+03
        22  26 -5.682459E+06 -8.460201E+05 -3.650792E+04 -2.144193E+06  7.815632E+02  5.681434E+03
        22  27 -5.828408E+06 -9.617758E+05 -8.831993E+04 -2.246666E+06 -5.345517E+03  1.378337E+04
        23   1 -4.992801E+06 -6.481629E+05  1.266780E+05 -2.021031E+06  1.943319E+04 -1.457953E+04
        23   2 -4.853822E+06 -5.371527E+05  1.647582E+05 -1.921933E+06  3.207574E+04 -1.993292E+04
        23   3 -4.633672E+06 -5.168873E+05  1.942086E+05 -1.918957E+06  4.456098E+04 -2.481692E+04
        23   4 -5.520169E+06 -8.445407E+05 -1.088962E+04 -2.162418E+06  1.416807E+04 -1.653756E+04
        23   5 -5.561159E+06 -8.019671E+05 -1.906483E+04 -2.113317E+06  2.706947E+04 -2.179876E+04
        23   6 -5.521061E+06 -8.502032E+05 -3.608192E+04 -2.160356E+06  3.981049E+04 -2.659132E+04
        23   7 -6.047260E+06 -1.040901E+06 -1.484792E+05 -2.303694E+06  8.907941E+03 -1.849377E+04
        23   8 -6.268002E+06 -1.066750E+06 -2.029288E+05 -2.304500E+06  2.206950E+04 -2.366225E+04
        23   9 -6.407677E+06 -1.183469E+06 -2.664382E+05 -2.401439E+06  3.506747E+04 -2.836292E+04
        23  10 -4.992801E+06 -6.481632E+05  1.266769E+05 -2.021030E+06  2.167173E-09  8.917055E-10
        23  11 -4.853823E+06 -5.371534E+05  1.647555E+05 -1.921933E+06 -5.687303E-10  1.882753E-10
        23  12 -4.633674E+06 -5.168885E+05  1.942037E+05 -1.918956E+06  2.030001E-10  1.740027E-09
        23  13 -5.520169E+06 -8.445411E+05 -1.089051E+04 -2.162418E+06 -3.720446E-09 -1.741745E-09
        23  14 -5.561160E+06 -8.019678E+05 -1.906710E+04 -2.113316E+06 -4.530509E-09 -9.445708E-10
        23  15 -5.521063E+06 -8.502044E+05 -3.608623E+04 -2.160355E+06  4.316588E-09  1.278542E-09
        23  16 -6.047260E+06 -1.040901E+06 -1.484800E+05 -2.303694E+06 -2.155199E-09 -5.789382E-10
        23  17 -6.268003E+06 -1.066750E+06 -2.029307E+05 -2.304499E+06 -3.173072E-09 -1.027873E-09
        23  18 -6.407678E+06 -1.183470E+06 -2.664420E+05 -2.401438E+06 -1.719415E-09  1.926856E-09
        23  19 -4.992801E+06 -6.481629E+05  1.266780E+05 -2.021031E+06 -1.943319E+04  1.457953E+04
        23  20 -4.853822E+06 -5.371527E+05  1.647582E+05 -1.921933E+06 -3.207574E+04  1.993292E+04
        23  21 -4.633672E+06 -5.168873E+05  1.942086E+05 -1.918957E+06 -4.456098E+04  2.481692E+04
        23  22 -5.520169E+06 -8.445407E+05 -1.088962E+04 -2.162418E+06 -1.416807E+04  1.653756E+04
        23  23 -5.561159E+06 -8.019671E+05 -1.906483E+04 -2.113317E+06 -2.706947E+04  2.179876E+04
        23  24 -5.521061E+06 -8.502032E+05 -3.608192E+04 -2.160356E+06 -3.981049E+04  2.659132E+04
        23  25 -6.047260E+06 -1.040901E+06 -1.484792E+05 -2.303694E+06 -8.907941E+03  1.849377E+04
        23  26 -6.268002E+06 -1.066750E+06 -2.029288E+05 -2.304500E+06 -2.206950E+04  2.366225E+04
        23  27 -6.407677E+06 -1.183469E+06 -2.664382E+05 -2.401439E+06 -3.506747E+04  2.836292E+04
        24   1 -4.432464E+06 -4.391268E+05  2.367274E+05 -1.874759E+06  5.385796E+04 -2.730967E+04
        24   2 -4.309750E+06 -3.273719E+05  2.419021E+05 -1.774648E+06  9.711922E+04 -1.988876E+04
        24   3 -4.141682E+06 -3.577040E+05  1.988056E+05 -1.743521E+06  1.391020E+05 -8.964398E+03
        24   4 -5.526224E+06 -8.405398E+05 -4.653321E+04 -2.162270E+06  4.835380E+04 -2.936803E+04
        24   5 -5.552926E+06 -7.983820E+05 -8.215219E+04 -2.116945E+06  9.356061E+04 -2.122837E+04
        24   6 -5.534749E+06 -8.988104E+05 -1.676742E+05 -2.140622E+06  1.374769E+05 -9.587945E+03
        24   7 -6.618818E+06 -1.241894E+06 -3.298946E+05 -2.449326E+06  4.286028E+04 -3.142262E+04
        24   8 -6.794590E+06 -1.269290E+06 -4.063379E+05 -2.458615E+06  9.000972E+04 -2.256505E+04
        24   9 -6.925914E+06 -1.439761E+06 -5.343210E+05 -2.536896E+06  1.358556E+05 -1.021000E+04
        24  10 -4.432467E+06 -4.391284E+05  2.367206E+05 -1.874757E+06  2.766342E-09  1.977859E-09
        24  11 -4.309760E+06 -3.273749E+05  2.418835E+05 -1.774647E+06 -1.373738E-09 -8.300597E-10
        24  12 -4.141703E+06 -3.577093E+05  1.987689E+05 -1.743520E+06 -5.462062E-09 -4.682629E-09
        24  13 -5.526227E+06 -8.405414E+05 -4.653924E+04 -2.162269E+06  7.046767E-11  3.582896E-09
        24  14 -5.552936E+06 -7.983849E+05 -8.216959E+04 -2.116944E+06 -3.534470E-09  7.964419E-10
        24  15 -5.534770E+06 -8.988156E+05 -1.677101E+05 -2.140621E+06 -7.306244E-09 -2.981748E-09
        24  16 -6.618820E+06 -1.241896E+06 -3.298999E+05 -2.449324E+06 -2.226867E-09  1.043775E-09
        24  17 -6.794599E+06 -1.269293E+06 -4.063542E+05 -2.458613E+06 -4.530820E-09  1.492798E-09
        24  18 -6.925934E+06 -1.439766E+06 -5.343562E+05 -2.536895E+06  4.270945E-10 -2.605033E-09
        24  19 -4.432464E+06 -4.391268E+05  2.367274E+05 -1.874759E+06 -5.385796E+04  2.730967E+04
        24  20 -4.309750E+06 -3.273719E+05  2.419021E+05 -1.774648E+06 -9.711922E+04  1.988876E+04
        24  21 -4.141682E+06 -3.577040E+05  1.988056E+05 -1.743521E+06 -1.391020E+05  8.964398E+03
        24  22 -5.526224E+06 -8.405398E+05 -4.653321E+04 -2.162270E+06 -4.835380E+04  2.936803E+04
        24  23 -5.552926E+06 -7.983820E+05 -8.215219E+04 -2.116945E+06 -9.356061E+04  2.122837E+04
        24  24 -5.534749E+06 -8.988104E+05 -1.676742E+05 -2.140622E+06 -1.374769E+05  9.587945E+03
        24  25 -6.618818E+06 -1.241894E+06 -3.298946E+05 -2.449326E+06 -4.286028E+04  3.142262E+04
        24  26 -6.794590E+06 -1.269290E+06 -4.063379E+05 -2.458615E+06 -9.000972E+04  2.256505E+04
        24  27 -6.925914E+06 -1.439761E+06 -5.343210E+05 -2.536896E+06 -1.358556E+05  1.021000E+04
        25   1 -3.928997E+06 -2.840483E+05  2.013686E+05 -1.824736E+06  1.855269E+05 -3.387945E+03
        25   2 -3.840120E+06 -4.859119E+04  9.263691E+04 -1.610450E+06  3.490227E+05  5.509957E+04
        25   3 -3.979927E+06 -5.830754E+05 -3.320559E+05 -1.276453E+06  4.944272E+05  1.617106E+05
        25   4 -5.564773E+06 -8.144261E+05 -2.073968E+05 -2.183295E+06  1.697691E+05 -9.286154E+03
        25   5 -5.492117E+06 -7.347489E+05 -3.494345E+05 -2.127317E+06  3.607124E+05  5.944098E+04
        25   6 -5.654454E+06 -1.431809E+06 -8.300036E+05 -1.951439E+06  5.335243E+05  1.762512E+05
        25   7 -7.197921E+06 -1.344789E+06 -6.163634E+05 -2.541065E+06  1.540566E+05 -1.517273E+04
        25   8 -7.141420E+06 -1.420565E+06 -7.917463E+05 -2.642867E+06  3.723668E+05  6.376588E+04
        25   9 -7.326127E+06 -2.279644E+06 -1.328220E+06 -2.624544E+06  5.725032E+05  1.907127E+05
        25  10 -3.929034E+06 -2.840576E+05  2.013035E+05 -1.824735E+06 -3.028155E-10 -1.668713E-09
        25  11 -3.840252E+06 -4.862747E+04  9.240064E+04 -1.610466E+06  4.293715E-09  4.146741E-09
        25  12 -3.980198E+06 -5.831698E+05 -3.325681E+05 -1.276517E+06  2.529962E-09  8.603317E-10
        25  13 -5.564805E+06 -8.144340E+05 -2.074516E+05 -2.183294E+06 -4.222223E-09 -3.465506E-09
        25  14 -5.492259E+06 -7.347881E+05 -3.496882E+05 -2.127334E+06  3.707752E-09  6.082862E-11
        25  15 -5.654771E+06 -1.431920E+06 -8.306030E+05 -1.951515E+06  5.076632E-10  8.043089E-10
        25  16 -7.197946E+06 -1.344796E+06 -6.164088E+05 -2.541063E+06 -6.527761E-09 -4.463610E-09
        25  17 -7.141571E+06 -1.420607E+06 -7.920179E+05 -2.642886E+06 -7.408851E-09 -8.846208E-10
        25  18 -7.326492E+06 -2.279773E+06 -1.328913E+06 -2.624633E+06  9.652952E-10 -3.381590E-10
        25  19 -3.928997E+06 -2.840483E+05  2.013686E+05 -1.824736E+06 -1.855269E+05  3.387945E+03
        25  20 -3.840120E+06 -4.859119E+04  9.263691E+04 -1.610450E+06 -3.490227E+05 -5.509957E+04
        25  21 -3.979927E+06 -5.830754E+05 -3.320559E+05 -1.276453E+06 -4.944272E+05 -1.617106E+05
        25  22 -5.564773E+06 -8.144261E+05 -2.073968E+05 -2.183295E+06 -1.697691E+05  9.286154E+03
        25  23 -5.492117E+06 -7.347489E+05 -3.494345E+05 -2.127317E+06 -3.607124E+05 -5.944098E+04
        25  24 -5.654454E+06 -1.431809E+06 -8.300036E+05 -1.951439E+06 -5.335243E+05 -1.762512E+05
        25  25 -7.197921E+06 -1.344789E+06 -6.163634E+05 -2.541065E+06 -1.540566E+05  1.517273E+04
        25  26 -7.141420E+06 -1.420565E+06 -7.917463E+05 -2.642867E+06 -3.723668E+05 -6.376588E+04
        25  27 -7.326127E+06 -2.279644E+06 -1.328220E+06 -2.624544E+06 -5.725032E+05 -1.907127E+05
        26   1  3.163180E+05  6.922464E+04  3.470554E+05 -2.436896E+05 -5.562831E+02  2.188691E+05
        26   2  7.680750E+04 -8.085335E+03  1.752923E+05 -1.373705E+05 -1.001882E+03  1.278671E+05
        26   3  5.341629E+03 -3.159158E+04  1.047915E+05 -4.162378E+04 -3.302010E+03  3.686567E+04
        26   4  2.986020E+05  3.778093E+03  3.305816E+05 -5.307789E+04 -4.882951E+02  2.185691E+05
        26   5  7.234144E+04 -2.283584E+04  1.707617E+05 -4.819322E+04 -9.917860E+02  1.308168E+05
        26   6  1.352895E+04  3.776608E+03  1.099514E+05 -5.386525E+04 -3.320109E+03  4.305803E+04
        26   7  2.810222E+05 -6.158666E+04  3.141270E+05  1.375136E+05 -4.204851E+02  2.182691E+05
        26   8  6.790525E+04 -3.756908E+04  1.662354E+05  4.098193E+04 -9.808428E+02  1.337664E+05
        26   9  2.171680E+04  3.914646E+04  1.151115E+05 -6.610744E+04 -3.338452E+03  4.925072E+04
        26  10  3.163051E+05  6.917321E+04  3.469654E+05 -2.436895E+05 -8.492994E-10  2.047184E-09
        26  11  7.680311E+04 -8.102890E+03  1.752616E+05 -1.373704E+05  2.493348E-09  6.851985E-10
        26  12  5.341252E+03 -3.159304E+04  1.047889E+05 -4.162368E+04  5.761918E-09  1.050975E-09
        26  13  2.985892E+05  3.726806E+03  3.304918E+05 -5.307781E+04  2.290164E-09  1.233354E-09
        26  14  7.233684E+04 -2.285422E+04  1.707296E+05 -4.819312E+04  7.704084E-10  1.277803E-09
        26  15  1.352844E+04  3.774615E+03  1.099479E+05 -5.386513E+04  3.989855E-09  1.215447E-09
        26  16  2.810094E+05 -6.163781E+04  3.140375E+05  1.375137E+05 -7.668365E-10 -1.526393E-09
        26  17  6.790044E+04 -3.758829E+04  1.662018E+05  4.098203E+04  4.376949E-09 -4.112826E-11
        26  18  2.171614E+04  3.914385E+04  1.151069E+05 -6.610731E+04  4.584646E-09 -6.349548E-10
        26  19  3.163180E+05  6.922464E+04  3.470554E+05 -2.436896E+05  5.562831E+02 -2.188691E+05
        26  20  7.680750E+04 -8.085335E+03  1.752923E+05 -1.373705E+05  1.001882E+03 -1.278671E+05
        26  21  5.341629E+03 -3.159158E+04  1.047915E+05 -4.162378E+04  3.302010E+03 -3.686567E+04
        26  22  2.986020E+05  3.778093E+03  3.305816E+05 -5.307789E+04  4.882951E+02 -2.185691E+05
        26  23  7.234144E+04 -2.283584E+04  1.707617E+05 -4.819322E+04  9.917860E+02 -1.308168E+05
        26  24  1.352895E+04  3.776608E+03  1.099514E+05 -5.386525E+04  3.320109E+03 -4.305803E+04
        26  25  2.810222E+05 -6.158666E+04  3.141270E+05  1.375136E+05  4.204851E+02 -2.182691E+05
        26  26  6.790525E+04 -3.756908E+04  1.662354E+05  4.098193E+04  9.808428E+02 -1.337664E+05
        26  27  2.171680E+04  3.914646E+04  1.151115E+05 -6.610744E+04  3.338452E+03 -4.925072E+04
        27   1 -6.487350E+02 -7.386949E+04  8.582743E+04 -6.349173E+04 -5.369637E+03  2.103034E+04
        27   2 -2.093056E+04 -1.306288E+05  7.121051E+04 -4.706992E+04 -8.411250E+03 -2.359753E+04
        27   3 -1.710944E+04 -1.756156E+05  9.166727E+04 -4.156091E+04 -1.093446E+04 -6.822086E+04
        27   4  1.517270E+04 -5.403601E+03  9.679090E+04 -5.385231E+04 -5.386319E+03  2.711821E+04
        27   5  6.934885E+03 -1.136908E+04  9.122625E+04 -4.838537E+04 -8.425393E+03 -1.843987E+04
        27   6  2.295834E+04 -5.405950E+03  1.213773E+05 -5.383011E+04 -1.094454E+04 -6.399686E+04
        27   7  3.099427E+04  6.306723E+04  1.077544E+05 -4.421179E+04 -5.402812E+03  3.320673E+04
        27   8  3.479961E+04  1.079047E+05  1.112417E+05 -4.970108E+04 -8.439555E+03 -1.328124E+04
        27   9  6.302511E+04  1.648325E+05  1.510865E+05 -6.610276E+04 -1.095480E+04 -5.977173E+04
        27  10 -6.488847E+02 -7.386997E+04  8.582655E+04 -6.349164E+04  3.655797E-09  3.931600E-09
        27  11 -2.093079E+04 -1.306294E+05  7.120933E+04 -4.707008E+04  2.802700E-09  1.570644E-08
        27  12 -1.711082E+04 -1.756207E+05  9.165830E+04 -4.156151E+04  2.169482E-09  2.664271E-08
        27  13  1.517247E+04 -5.404398E+03  9.678946E+04 -5.385219E+04  6.015660E-09  1.805579E-09
        27  14  6.934717E+03 -1.136946E+04  9.122548E+04 -4.838550E+04 -1.089091E-09  1.009914E-09
        27  15  2.295711E+04 -5.410379E+03  1.213694E+05 -5.383067E+04 -2.169003E-09 -5.512620E-11
        27  16  3.099394E+04  6.306603E+04  1.077523E+05 -4.421165E+04  1.883155E-09 -2.290719E-09
        27  17  3.479948E+04  1.079045E+05  1.112412E+05 -4.970117E+04  2.982371E-09 -1.437272E-08
        27  18  6.302403E+04  1.648286E+05  1.510795E+05 -6.610329E+04  3.089384E-09 -2.614036E-08
        27  19 -6.487350E+02 -7.386949E+04  8.582743E+04 -6.349173E+04  5.369637E+03 -2.103034E+04
        27  20 -2.093056E+04 -1.306288E+05  7.121051E+04 -4.706992E+04  8.411250E+03  2.359753E+04
        27  21 -1.710944E+04 -1.756156E+05  9.166727E+04 -4.156091E+04  1.093446E+04  6.822086E+04
        27  22  1.517270E+04 -5.403601E+03  9.679090E+04 -5.385231E+04  5.386319E+03 -2.711821E+04
        27  23  6.934885E+03 -1.136908E+04  9.122625E+04 -4.838537E+04  8.425393E+03  1.843987E+04
        27  24  2.295834E+04 -5.405950E+03  1.213773E+05 -5.383011E+04  1.094454E+04  6.399686E+04
        27  25  3.099427E+04  6.306723E+04  1.077544E+05 -4.421179E+04  5.402812E+03 -3.320673E+04
        27  26  3.479961E+04  1.079047E+05  1.112417E+05 -4.970108E+04  8.439555E+03  1.328124E+04
        27  27  6.302511E+04  1.648325E+05  1.510865E+05 -6.610276E+04  1.095480E+04  5.977173E+04
        28   1 -2.767273E+04 -1.937452E+05  1.126563E+05 -7.314724E+04 -1.265062E+04 -8.921192E+04
        28   2  4.925932E+04 -2.830626E+05  2.024411E+05  8.734160E+04 -1.147356E+04 -2.058137E+05
        28   3  3.791946E+05 -2.939294E+05  4.314568E+05  2.378050E+05 -3.059490E+03 -3.223832E+05
        28   4  2.011748E+04  9.860509E+03  1.486181E+05 -5.377628E+04 -1.266638E+04 -8.436934E+04
        28   5  1.105283E+05 -3.044851E+04  2.519257E+05 -4.817531E+04 -1.140642E+04 -2.139646E+05
        28   6  4.560485E+05  9.856173E+03  5.034435E+05 -5.260510E+04 -2.852619E+03 -3.435398E+05
        28   7  6.790687E+04  2.135077E+05  1.845786E+05 -3.439876E+04 -1.268183E+04 -7.952522E+04
        28   8  1.718622E+05  2.222661E+05  3.014172E+05 -1.837486E+05 -1.133575E+04 -2.221187E+05
        28   9  5.332127E+05  3.139082E+05  5.754705E+05 -3.431585E+05 -2.626027E+03 -3.647067E+05
        28  10 -2.767504E+04 -1.937538E+05  1.126410E+05 -7.314815E+04  4.417537E-09 -2.702915E-08
        28  11  4.924780E+04 -2.831081E+05  2.023612E+05  8.733970E+04  3.411278E-09 -1.826352E-08
        28  12  3.791666E+05 -2.940410E+05  4.312614E+05  2.378042E+05  1.311011E-09 -5.946286E-09
        28  13  2.011540E+04  9.852823E+03  1.486044E+05 -5.377714E+04 -1.180742E-08  6.404349E-10
        28  14  1.105158E+05 -3.049769E+04  2.518394E+05 -4.817728E+04 -3.629453E-09 -1.085666E-10
        28  15  4.560168E+05  9.729485E+03  5.032217E+05 -5.260589E+04 -1.720147E-09  1.449971E-09
        28  16  6.790500E+04  2.135008E+05  1.845664E+05 -3.439957E+04  3.747179E-09  2.828326E-08
        28  17  1.718488E+05  2.222131E+05  3.013243E+05 -1.837507E+05  4.070693E-09  1.930490E-08
        28  18  5.331770E+05  3.137655E+05  5.752207E+05 -3.431593E+05  2.469618E-09  5.519950E-09
        28  19 -2.767273E+04 -1.937452E+05  1.126563E+05 -7.314724E+04  1.265062E+04  8.921192E+04
        28  20  4.925932E+04 -2.830626E+05  2.024411E+05  8.734160E+04  1.147356E+04  2.058137E+05
        28  21  3.791946E+05 -2.939294E+05  4.314568E+05  2.378050E+05  3.059490E+03  3.223832E+05
        28  22  2.011748E+04  9.860509E+03  1.486181E+05 -5.377628E+04  1.266638E+04  8.436934E+04
        28  23  1.105283E+05 -3.044851E+04  2.519257E+05 -4.817531E+04  1.140642E+04  2.139646E+05
        28  24  4.560485E+05  9.856173E+03  5.034435E+05 -5.260510E+04  2.852619E+03  3.435398E+05
        28  25  6.790687E+04  2.135077E+05  1.845786E+05 -3.439876E+04  1.268183E+04  7.952522E+04
        28  26  1.718622E+05  2.222661E+05  3.014172E+05 -1.837486E+05  1.133575E+04  2.221187E+05
        28  27  5.332127E+05  3.139082E+05  5.754705E+05 -3.431585E+05  2.626027E+03  3.647067E+05
        29   1 -3.835745E+06 -1.118728E+06 -6.140704E+05 -1.408403E+06 -3.063660E+05 -1.080553E+05
        29   2 -3.750467E+06 -6.568734E+05 -3.277539E+05 -1.430268E+06 -1.975755E+05 -5.150159E+04
        29   3 -3.808435E+06 -6.181188E+05 -2.363282E+05 -1.374454E+06 -8.317438E+04 -9.769527E+03
        29   4 -3.356917E+06 -8.185657E+05 -4.604726E+05 -1.156540E+06 -2.943394E+05 -1.035835E+05
        29   5 -3.261480E+06 -4.369012E+05 -1.938601E+05 -1.259846E+06 -1.941052E+05 -5.020629E+04
        29   6 -3.307462E+06 -4.764633E+05 -1.152105E+05 -1.285513E+06 -8.826112E+04 -1.168245E+04
        29   7 -2.877834E+06 -5.182410E+05 -3.068959E+05 -9.044625E+05 -2.823027E+05 -9.910202E+04
        29   8 -2.772258E+06 -2.168841E+05 -5.998875E+04 -1.089292E+06 -1.906317E+05 -4.890933E+04
        29   9 -2.806242E+06 -3.348129E+05  5.890406E+03 -1.196519E+06 -9.335237E+04 -1.359610E+04
        29  10 -3.835850E+06 -1.118766E+06 -6.142701E+05 -1.408430E+06  9.811150E-10 -8.939082E-10
        29  11 -3.750510E+06 -6.568869E+05 -3.278328E+05 -1.430277E+06  2.565108E-09 -1.959986E-09
        29  12 -3.808442E+06 -6.181208E+05 -2.363415E+05 -1.374455E+06  4.037188E-10 -2.382179E-09
        29  13 -3.357014E+06 -8.186008E+05 -4.606567E+05 -1.156564E+06  7.089374E-11 -2.165945E-09
        29  14 -3.261522E+06 -4.369141E+05 -1.939361E+05 -1.259854E+06 -6.282762E-09  8.218145E-10
        29  15 -3.307471E+06 -4.764655E+05 -1.152255E+05 -1.285514E+06  1.644823E-10 -2.761578E-09
        29  16 -2.877923E+06 -5.182731E+05 -3.070650E+05 -9.044851E+05  8.340129E-10  1.920988E-10
        29  17 -2.772298E+06 -2.168965E+05 -6.006191E+04 -1.089300E+06 -5.095962E-09  2.126808E-09
        29  18 -2.806252E+06 -3.348155E+05  5.873599E+03 -1.196520E+06 -2.494450E-09 -1.017953E-09
        29  19 -3.835745E+06 -1.118728E+06 -6.140704E+05 -1.408403E+06  3.063660E+05  1.080553E+05
        29  20 -3.750467E+06 -6.568734E+05 -3.277539E+05 -1.430268E+06  1.975755E+05  5.150159E+04
        29  21 -3.808435E+06 -6.181188E+05 -2.363282E+05 -1.374454E+06  8.317438E+04  9.769527E+03
        29  22 -3.356917E+06 -8.185657E+05 -4.604726E+05 -1.156540E+06  2.943394E+05  1.035835E+05
        29  23 -3.261480E+06 -4.369012E+05 -1.938601E+05 -1.259846E+06  1.941052E+05  5.020629E+04
        29  24 -3.307462E+06 -4.764633E+05 -1.152105E+05 -1.285513E+06  8.826112E+04  1.168245E+04
        29  25 -2.877834E+06 -5.182410E+05 -3.068959E+05 -9.044625E+05  2.823027E+05  9.910202E+04
        29  26 -2.772258E+06 -2.168841E+05 -5.998875E+04 -1.089292E+06  1.906317E+05  4.890933E+04
        29  27 -2.806242E+06 -3.348129E+05  5.890406E+03 -1.196519E+06  9.335237E+04  1.359610E+04
        30   1 -3.691410E+06 -6.821407E+05 -1.990092E+05 -1.379544E+06 -7.048783E+04 -8.883270E+03
        30   2 -3.644148E+06 -6.085458E+05 -1.370843E+05 -1.354579E+06 -4.581559E+04 -1.390579E+03
        30   3 -3.588531E+06 -5.985295E+05 -1.034591E+05 -1.349672E+06 -2.076162E+04  5.094227E+03
        30   4 -3.292073E+06 -5.217866E+05 -9.311957E+04 -1.260143E+06 -7.114586E+04 -9.133570E+03
        30   5 -3.293991E+06 -4.740801E+05 -4.560464E+04 -1.256116E+06 -4.704512E+04 -1.854845E+03
        30   6 -3.287432E+06 -4.898237E+05 -2.591932E+04 -1.272150E+06 -2.256488E+04  4.414770E+03
        30   7 -2.892577E+06 -3.614158E+05  1.275654E+04 -1.140670E+06 -7.180435E+04 -9.384067E+03
        30   8 -2.943712E+06 -3.396051E+05  4.586477E+04 -1.157602E+06 -4.827540E+04 -2.319411E+03
        30   9 -2.986245E+06 -3.811140E+05  5.161301E+04 -1.194594E+06 -2.436910E+04  3.734985E+03
        30  10 -3.691416E+06 -6.821422E+05 -1.990187E+05 -1.379544E+06 -1.514873E-09 -2.183047E-09
        30  11 -3.644151E+06 -6.085464E+05 -1.370883E+05 -1.354579E+06 -1.057500E-10  1.350163E-09
        30  12 -3.588531E+06 -5.985297E+05 -1.034600E+05 -1.349672E+06  1.197769E-09  4.999628E-10
        30  13 -3.292078E+06 -5.217881E+05 -9.312930E+04 -1.260144E+06 -1.827573E-09 -9.731252E-10
        30  14 -3.293993E+06 -4.740807E+05 -4.560883E+04 -1.256116E+06 -4.400646E-09  1.510151E-09
        30  15 -3.287433E+06 -4.898239E+05 -2.592032E+04 -1.272150E+06 -5.704458E-09  9.682284E-10
        30  16 -2.892583E+06 -3.614173E+05  1.274664E+04 -1.140671E+06 -5.358632E-10 -1.709510E-10
        30  17 -2.943715E+06 -3.396057E+05  4.586036E+04 -1.157602E+06 -2.272313E-09  1.412372E-09
        30  18 -2.986245E+06 -3.811142E+05  5.161187E+04 -1.194594E+06 -1.220416E-09 -1.108856E-09
        30  19 -3.691410E+06 -6.821407E+05 -1.990092E+05 -1.379544E+06  7.048783E+04  8.883270E+03
        30  20 -3.644148E+06 -6.085458E+05 -1.370843E+05 -1.354579E+06  4.581559E+04  1.390579E+03
        30  21 -3.588531E+06 -5.985295E+05 -1.034591E+05 -1.349672E+06  2.076162E+04 -5.094227E+03
        30  22 -3.292073E+06 -5.217866E+05 -9.311957E+04 -1.260143E+06  7.114586E+04  9.133570E+03
        30  23 -3.293991E+06 -4.740801E+05 -4.560464E+04 -1.256116E+06  4.704512E+04  1.854845E+03
        30  24 -3.287432E+06 -4.898237E+05 -2.591932E+04 -1.272150E+06  2.256488E+04 -4.414770E+03
        30  25 -2.892577E+06 -3.614158E+05  1.275654E+04 -1.140670E+06  7.180435E+04  9.384067E+03
        30  26 -2.943712E+06 -3.396051E+05  4.586477E+04 -1.157602E+06  4.827540E+04  2.319411E+03
        30  27 -2.986245E+06 -3.811140E+05  5.161301E+04 -1.194594E+06  2.436910E+04 -3.734985E+03
        31   1 -3.517290E+06 -5.821559E+05 -8.026495E+04 -1.334116E+06 -1.669560E+04  4.673356E+03
        31   2 -3.472254E+06 -5.431123E+05 -5.595670E+04 -1.303203E+06 -1.026986E+04  4.006069E+03
        31   3 -3.402011E+06 -5.349055E+05 -3.665073E+04 -1.302606E+06 -3.807487E+03  3.240124E+03
        31   4 -3.285371E+06 -4.942458E+05 -2.007381E+04 -1.270031E+06 -1.824242E+04  4.090617E+03
        31   5 -3.297761E+06 -4.773638E+05 -1.061410E+04 -1.255421E+06 -1.187210E+04  3.402784E+03
        31   6 -3.284935E+06 -4.913067E+05 -6.110647E+03 -1.271129E+06 -5.465672E+03  2.616104E+03
        31   7 -3.053401E+06 -4.063323E+05  4.011261E+04 -1.205923E+06 -1.978988E+04  3.507637E+03
        31   8 -3.123238E+06 -4.116135E+05  3.472594E+04 -1.207627E+06 -1.347483E+04  2.799312E+03
        31   9 -3.167846E+06 -4.477070E+05  2.442840E+04 -1.239646E+06 -7.124207E+03  1.991955E+03
        31  10 -3.517290E+06 -5.821560E+05 -8.026552E+04 -1.334116E+06 -1.180145E-09 -1.704308E-10
        31  11 -3.472254E+06 -5.431123E+05 -5.595692E+04 -1.303203E+06 -1.910980E-09 -7.872644E-10
        31  12 -3.402011E+06 -5.349056E+05 -3.665077E+04 -1.302606E+06  2.675495E-10 -1.598555E-10
        31  13 -3.285372E+06 -4.942459E+05 -2.007447E+04 -1.270031E+06 -4.680822E-09 -2.115928E-10
        31  14 -3.297761E+06 -4.773639E+05 -1.061439E+04 -1.255421E+06 -1.339939E-09  3.936061E-10
        31  15 -3.284935E+06 -4.913067E+05 -6.110717E+03 -1.271129E+06  2.961406E-09  7.687669E-10
        31  16 -3.053401E+06 -4.063324E+05  4.011185E+04 -1.205923E+06  1.726107E-09 -1.013922E-09
        31  17 -3.123239E+06 -4.116135E+05  3.472558E+04 -1.207627E+06  1.254510E-09  9.353398E-11
        31  18 -3.167846E+06 -4.477070E+05  2.442829E+04 -1.239646E+06  3.239991E-09  1.358300E-09
        31  19 -3.517290E+06 -5.821559E+05 -8.026495E+04 -1.334116E+06  1.669560E+04 -4.673356E+03
        31  20 -3.472254E+06 -5.431123E+05 -5.595670E+04 -1.303203E+06  1.026986E+04 -4.006069E+03
        31  21 -3.402011E+06 -5.349055E+05 -3.665073E+04 -1.302606E+06  3.807487E+03 -3.240124E+03
        31  22 -3.285371E+06 -4.942458E+05 -2.007381E+04 -1.270031E+06  1.824242E+04 -4.090617E+03
        31  23 -3.297761E+06 -4.773638E+05 -1.061410E+04 -1.255421E+06  1.187210E+04 -3.402784E+03
        31  24 -3.284935E+06 -4.913067E+05 -6.110647E+03 -1.271129E+06  5.465672E+03 -2.616104E+03
        31  25 -3.053401E+06 -4.063323E+05  4.011261E+04 -1.205923E+06  1.978988E+04 -3.507637E+03
        31  26 -3.123238E+06 -4.116135E+05  3.472594E+04 -1.207627E+06  1.347483E+04 -2.799312E+03
        31  27 -3.167846E+06 -4.477070E+05  2.442840E+04 -1.239646E+06  7.124207E+03 -1.991955E+03
        32   1 -3.333408E+06 -5.100924E+05 -1.725838E+04 -1.284363E+06 -2.302077E+03  1.913928E+03
        32   2 -3.288192E+06 -4.737890E+05 -4.579700E+02 -1.252489E+06  3.036679E+02 -3.408653E+02
        32   3 -3.215615E+06 -4.655843E+05  1.509077E+04 -1.252179E+06  2.910426E+03 -2.597836E+03
        32   4 -3.284607E+06 -4.917630E+05 -4.801098E+03 -1.271005E+06 -3.949744E+03  1.293962E+03
        32   5 -3.298270E+06 -4.776014E+05 -3.079170E+03 -1.255264E+06 -1.345251E+03 -9.613260E+02
        32   6 -3.284574E+06 -4.915382E+05 -2.607540E+03 -1.271089E+06  1.260075E+03 -3.218830E+03
        32   7 -3.235803E+06 -4.734333E+05  7.656032E+03 -1.257646E+06 -5.597557E+03  6.739411E+02
        32   8 -3.308347E+06 -4.814137E+05 -5.700352E+03 -1.258040E+06 -2.994130E+03 -1.581772E+03
        32   9 -3.353527E+06 -5.174915E+05 -2.030598E+04 -1.289997E+06 -3.900515E+02 -3.839740E+03
        32  10 -3.333408E+06 -5.100924E+05 -1.725840E+04 -1.284363E+06  1.508807E-09 -7.385360E-10
        32  11 -3.288192E+06 -4.737890E+05 -4.579704E+02 -1.252489E+06  1.562636E-09 -2.753537E-10
        32  12 -3.215615E+06 -4.655843E+05  1.509074E+04 -1.252179E+06  2.545903E-09  1.748911E-09
        32  13 -3.284607E+06 -4.917630E+05 -4.801130E+03 -1.271005E+06 -3.677971E-10  1.197151E-09
        32  14 -3.298270E+06 -4.776014E+05 -3.079175E+03 -1.255264E+06 -9.847379E-11 -2.910995E-09
        32  15 -3.284574E+06 -4.915382E+05 -2.607563E+03 -1.271089E+06  6.083421E-11 -4.500453E-09
        32  16 -3.235803E+06 -4.734333E+05  7.655972E+03 -1.257646E+06  1.092682E-09  1.803569E-09
        32  17 -3.308347E+06 -4.814137E+05 -5.700373E+03 -1.258040E+06 -5.714750E-10  1.911692E-09
        32  18 -3.353527E+06 -5.174915E+05 -2.030600E+04 -1.289997E+06 -4.705306E-09 -1.554656E-09
        32  19 -3.333408E+06 -5.100924E+05 -1.725838E+04 -1.284363E+06  2.302077E+03 -1.913928E+03
        32  20 -3.288192E+06 -4.737890E+05 -4.579700E+02 -1.252489E+06 -3.036679E+02  3.408653E+02
        32  21 -3.215615E+06 -4.655843E+05  1.509077E+04 -1.252179E+06 -2.910426E+03  2.597836E+03
        32  22 -3.284607E+06 -4.917630E+05 -4.801098E+03 -1.271005E+06  3.949744E+03 -1.293962E+03
        32  23 -3.298270E+06 -4.776014E+05 -3.079170E+03 -1.255264E+06  1.345251E+03  9.613260E+02
        32  24 -3.284574E+06 -4.915382E+05 -2.607540E+03 -1.271089E+06 -1.260075E+03  3.218830E+03
        32  25 -3.235803E+06 -4.734333E+05  7.656032E+03 -1.257646E+06  5.597557E+03 -6.739411E+02
        32  26 -3.308347E+06 -4.814137E+05 -5.700352E+03 -1.258040E+06  2.994130E+03  1.581772E+03
        32  27 -3.353527E+06 -5.174915E+05 -2.030598E+04 -1.289997E+06  3.900515E+02  3.839740E+03
        33   1 -3.147797E+06 -4.398916E+05  3.306662E+04 -1.233586E+06  3.959927E+03 -4.085439E+03
        33   2 -3.103639E+06 -4.046087E+05  4.684308E+04 -1.202305E+06  6.809844E+03 -6.204684E+03
        33   3 -3.032755E+06 -3.968918E+05  5.916311E+04 -1.201847E+06  9.641690E+03 -8.271782E+03
        33   4 -3.284715E+06 -4.913893E+05 -2.706216E+03 -1.270938E+06  2.318392E+03 -4.703242E+03
        33   5 -3.298102E+06 -4.777755E+05 -3.658311E+03 -1.255462E+06  5.197842E+03 -6.811742E+03
        33   6 -3.284772E+06 -4.917350E+05 -6.090612E+03 -1.270812E+06  8.059027E+03 -8.868141E+03
        33   7 -3.421616E+06 -5.428865E+05 -3.848105E+04 -1.308283E+06  6.772376E+02 -5.320901E+03
        33   8 -3.492530E+06 -5.509406E+05 -5.416337E+04 -1.308604E+06  3.586381E+03 -7.418597E+03
        33   9 -3.536729E+06 -5.865749E+05 -7.135017E+04 -1.339752E+06  6.477060E+03 -9.464238E+03
        33  10 -3.147797E+06 -4.398916E+05  3.306656E+04 -1.233586E+06 -4.997571E-09 -7.520875E-10
        33  11 -3.103639E+06 -4.046088E+05  4.684292E+04 -1.202305E+06 -3.141671E-09  1.653770E-09
        33  12 -3.032755E+06 -3.968919E+05  5.916280E+04 -1.201847E+06 -2.900887E-09  2.257073E-09
        33  13 -3.284715E+06 -4.913894E+05 -2.706268E+03 -1.270938E+06 -1.381880E-09 -4.034500E-09
        33  14 -3.298102E+06 -4.777755E+05 -3.658449E+03 -1.255462E+06 -1.936196E-09 -6.216576E-10
        33  15 -3.284772E+06 -4.917351E+05 -6.090882E+03 -1.270812E+06 -3.558168E-09 -1.559836E-09
        33  16 -3.421616E+06 -5.428865E+05 -3.848110E+04 -1.308283E+06  2.783906E-09  4.322155E-10
        33  17 -3.492530E+06 -5.509406E+05 -5.416350E+04 -1.308604E+06 -3.876445E-09  2.514726E-10
        33  18 -3.536729E+06 -5.865750E+05 -7.135041E+04 -1.339751E+06 -1.709432E-09 -2.147510E-09
        33  19 -3.147797E+06 -4.398916E+05  3.306662E+04 -1.233586E+06 -3.959927E+03  4.085439E+03
        33  20 -3.103639E+06 -4.046087E+05  4.684308E+04 -1.202305E+06 -6.809844E+03  6.204684E+03
        33  21 -3.032755E+06 -3.968918E+05  5.916311E+04 -1.201847E+06 -9.641690E+03  8.271782E+03
        33  22 -3.284715E+06 -4.913893E+05 -2.706216E+03 -1.270938E+06 -2.318392E+03  4.703242E+03
        33  23 -3.298102E+06 -4.777755E+05 -3.658311E+03 -1.255462E+06 -5.197842E+03  6.811742E+03
        33  24 -3.284772E+06 -4.917350E+05 -6.090612E+03 -1.270812E+06 -8.059027E+03  8.868141E+03
        33  25 -3.421616E+06 -5.428865E+05 -3.848105E+04 -1.308283E+06 -6.772376E+02  5.320901E+03
        33  26 -3.492530E+06 -5.509406E+05 -5.416337E+04 -1.308604E+06 -3.586381E+03  7.418597E+03
        33  27 -3.536729E+06 -5.865749E+05 -7.135017E+04 -1.339752E+06 -6.477060E+03  9.464238E+03
        34   1 -2.968142E+06 -3.720449E+05  7.464544E+04 -1.184564E+06  1.137518E+04 -9.427924E+03
        34   2 -2.926496E+06 -3.380637E+05  8.244203E+04 -1.154413E+06  1.926514E+04 -9.460609E+03
        34   3 -2.861963E+06 -3.341819E+05  8.385685E+04 -1.152214E+06  2.709790E+04 -9.333933E+03
        34   4 -3.285440E+06 -4.908961E+05 -7.860658E+03 -1.270708E+06  9.795790E+03 -1.002337E+04
        34   5 -3.297161E+06 -4.777758E+05 -1.385707E+04 -1.256006E+06  1.777393E+04 -1.002346E+04
        34   6 -3.286019E+06 -4.947750E+05 -2.630832E+04 -1.269257E+06  2.569426E+04 -9.864387E+03
        34   7 -3.602635E+06 -6.097397E+05 -9.037406E+04 -1.356811E+06  8.217309E+03 -1.061849E+04
        34   8 -3.667692E+06 -6.174786E+05 -1.101673E+05 -1.357543E+06  1.628370E+04 -1.058595E+04
        34   9 -3.709901E+06 -6.553570E+05 -1.364892E+05 -1.386228E+06  2.429167E+04 -1.039444E+04
        34  10 -2.968142E+06 -3.720450E+05  7.464503E+04 -1.184564E+06 -1.076199E-09  1.274870E-10
        34  11 -2.926496E+06 -3.380639E+05  8.244117E+04 -1.154413E+06  3.884613E-09 -1.447571E-09
        34  12 -2.861964E+06 -3.341822E+05  8.385530E+04 -1.152214E+06  1.018078E-09  1.036383E-10
        34  13 -3.285440E+06 -4.908963E+05 -7.861027E+03 -1.270708E+06 -4.040137E-09 -3.993605E-10
        34  14 -3.297162E+06 -4.777760E+05 -1.385786E+04 -1.256005E+06  3.384930E-10 -6.736274E-10
        34  15 -3.286020E+06 -4.947753E+05 -2.630975E+04 -1.269257E+06 -2.298739E-09 -8.914623E-10
        34  16 -3.602635E+06 -6.097398E+05 -9.037440E+04 -1.356810E+06 -4.673238E-10 -1.347575E-09
        34  17 -3.667692E+06 -6.174788E+05 -1.101680E+05 -1.357543E+06 -3.454897E-09 -5.553050E-10
        34  18 -3.709902E+06 -6.553573E+05 -1.364905E+05 -1.386228E+06 -3.323630E-09 -1.540263E-09
        34  19 -2.968142E+06 -3.720449E+05  7.464544E+04 -1.184564E+06 -1.137518E+04  9.427924E+03
        34  20 -2.926496E+06 -3.380637E+05  8.244203E+04 -1.154413E+06 -1.926514E+04  9.460609E+03
        34  21 -2.861963E+06 -3.341819E+05  8.385685E+04 -1.152214E+06 -2.709790E+04  9.333933E+03
        34  22 -3.285440E+06 -4.908961E+05 -7.860658E+03 -1.270708E+06 -9.795790E+03  1.002337E+04
        34  23 -3.297161E+06 -4.777758E+05 -1.385707E+04 -1.256006E+06 -1.777393E+04  1.002346E+04
        34  24 -3.286019E+06 -4.947750E+05 -2.630832E+04 -1.269257E+06 -2.569426E+04  9.864387E+03
        34  25 -3.602635E+06 -6.097397E+05 -9.037406E+04 -1.356811E+06 -8.217309E+03  1.061849E+04
        34  26 -3.667692E+06 -6.174786E+05 -1.101673E+05 -1.357543E+06 -1.628370E+04  1.058595E+04
        34  27 -3.709901E+06 -6.553570E+05 -1.364892E+05 -1.386228E+06 -2.429167E+04  1.039444E+04
        35   1 -2.800337E+06 -3.108621E+05  9.192265E+04 -1.144337E+06  3.282898E+04 -8.991663E+03
        35   2 -2.762481E+06 -2.705682E+05  7.836305E+04 -1.108396E+06  6.381948E+04  1.047685E+02
        35   3 -2.724219E+06 -3.023967E+05  2.889360E+04 -1.086189E+06  9.432925E+04  1.048462E+04
        35   4 -3.288862E+06 -4.888291E+05 -3.399420E+04 -1.271884E+06  3.111716E+04 -9.638541E+03
        35   5 -3.292041E+06 -4.736515E+05 -5.986733E+04 -1.257120E+06  6.282766E+04 -2.717881E+02
        35   6 -3.294979E+06 -5.307705E+05 -1.222482E+05 -1.256091E+06  9.405499E+04  1.037690E+04
        35   7 -3.777154E+06 -6.667848E+05 -1.599307E+05 -1.399340E+06  2.940683E+04 -1.028491E+04
        35   8 -3.821327E+06 -6.767139E+05 -1.981212E+05 -1.405727E+06  6.183676E+04 -6.479868E+02
        35   9 -3.865418E+06 -7.591114E+05 -2.734177E+05 -1.425846E+06  9.378097E+04  1.026930E+04
        35  10 -2.800338E+06 -3.108625E+05  9.192046E+04 -1.144337E+06 -2.378215E-09  7.466619E-11
        35  11 -2.762485E+06 -2.705693E+05  7.835537E+04 -1.108396E+06 -3.090461E-09  6.819479E-10
        35  12 -2.724228E+06 -3.023993E+05  2.887659E+04 -1.086190E+06 -1.604126E-09  1.002750E-09
        35  13 -3.288863E+06 -4.888294E+05 -3.399620E+04 -1.271884E+06 -3.626772E-09 -5.180358E-10
        35  14 -3.292046E+06 -4.736526E+05 -5.987479E+04 -1.257120E+06 -8.664468E-10 -1.736999E-09
        35  15 -3.294989E+06 -5.307730E+05 -1.222651E+05 -1.256092E+06  1.477961E-09 -1.632302E-10
        35  16 -3.777155E+06 -6.667852E+05 -1.599325E+05 -1.399340E+06 -3.839125E-09 -8.277329E-10
        35  17 -3.821331E+06 -6.767150E+05 -1.981285E+05 -1.405727E+06  5.917940E-10  4.441113E-10
        35  18 -3.865428E+06 -7.591139E+05 -2.734345E+05 -1.425847E+06  1.097614E-09 -7.782436E-10
        35  19 -2.800337E+06 -3.108621E+05  9.192265E+04 -1.144337E+06 -3.282898E+04  8.991663E+03
        35  20 -2.762481E+06 -2.705682E+05  7.836305E+04 -1.108396E+06 -6.381948E+04 -1.047685E+02
        35  21 -2.724219E+06 -3.023967E+05  2.889360E+04 -1.086189E+06 -9.432925E+04 -1.048462E+04
        35  22 -3.288862E+06 -4.888291E+05 -3.399420E+04 -1.271884E+06 -3.111716E+04  9.638541E+03
        35  23 -3.292041E+06 -4.736515E+05 -5.986733E+04 -1.257120E+06 -6.282766E+04  2.717881E+02
        35  24 -3.294979E+06 -5.307705E+05 -1.222482E+05 -1.256091E+06 -9.405499E+04 -1.037690E+04
        35  25 -3.777154E+06 -6.667848E+05 -1.599307E+05 -1.399340E+06 -2.940683E+04  1.028491E+04
        35  26 -3.821327E+06 -6.767139E+05 -1.981212E+05 -1.405727E+06 -6.183676E+04  6.479868E+02
        35  27 -3.865418E+06 -7.591114E+05 -2.734177E+05 -1.425846E+06 -9.378097E+04 -1.026930E+04
        36   1 -2.638196E+06 -2.779117E+05  1.263648E+04 -1.166904E+06  1.219918E+05  1.672491E+04
        36   2 -2.612033E+06 -1.373410E+05 -7.996463E+04 -1.039065E+06  2.498942E+05  6.453490E+04
        36   3 -2.780545E+06 -5.358436E+05 -4.106650E+05 -7.962580E+05  3.707966E+05  1.308656E+05
        36   4 -3.315171E+06 -4.712836E+05 -1.512545E+05 -1.289423E+06  1.162132E+05  1.455086E+04
        36   5 -3.249281E+06 -4.248886E+05 -2.545042E+05 -1.262080E+06  2.547361E+05  6.634350E+04
        36   6 -3.380435E+06 -9.200765E+05 -6.045052E+05 -1.119704E+06  3.862606E+05  1.366122E+05
        36   7 -3.991698E+06 -6.646651E+05 -3.151772E+05 -1.411843E+06  1.104415E+05  1.237796E+04
        36   8 -3.886123E+06 -7.123563E+05 -4.290799E+05 -1.484868E+06  2.595724E+05  6.814903E+04
        36   9 -3.979906E+06 -1.304027E+06 -7.983732E+05 -1.442797E+06  4.017079E+05  1.423425E+05
        36  10 -2.638212E+06 -2.779160E+05  1.260786E+04 -1.166906E+06  1.477734E-09  1.105482E-09
        36  11 -2.612101E+06 -1.373623E+05 -8.009041E+04 -1.039078E+06  7.746136E-10 -8.949929E-10
        36  12 -2.780698E+06 -5.358992E+05 -4.109570E+05 -7.962972E+05  3.250152E-10 -4.346341E-10
        36  13 -3.315186E+06 -4.712875E+05 -1.512804E+05 -1.289425E+06 -4.945011E-10  3.422492E-09
        36  14 -3.249352E+06 -4.249109E+05 -2.546352E+05 -1.262093E+06 -3.017304E-09 -5.697571E-10
        36  15 -3.380601E+06 -9.201370E+05 -6.048226E+05 -1.119747E+06 -7.741944E-10 -3.901038E-10
        36  16 -3.991711E+06 -6.646686E+05 -3.152005E+05 -1.411844E+06 -1.383831E-10 -8.941810E-10
        36  17 -3.886197E+06 -7.123796E+05 -4.292162E+05 -1.484882E+06 -3.774534E-09  3.794564E-09
        36  18 -3.980086E+06 -1.304093E+06 -7.987170E+05 -1.442843E+06  3.341344E-11 -8.128986E-10
        36  19 -2.638196E+06 -2.779117E+05  1.263648E+04 -1.166904E+06 -1.219918E+05 -1.672491E+04
        36  20 -2.612033E+06 -1.373410E+05 -7.996463E+04 -1.039065E+06 -2.498942E+05 -6.453490E+04
        36  21 -2.780545E+06 -5.358436E+05 -4.106650E+05 -7.962580E+05 -3.707966E+05 -1.308656E+05
        36  22 -3.315171E+06 -4.712836E+05 -1.512545E+05 -1.289423E+06 -1.162132E+05 -1.455086E+04
        36  23 -3.249281E+06 -4.248886E+05 -2.545042E+05 -1.262080E+06 -2.547361E+05 -6.634350E+04
        36  24 -3.380435E+06 -9.200765E+05 -6.045052E+05 -1.119704E+06 -3.862606E+05 -1.366122E+05
        36  25 -3.991698E+06 -6.646651E+05 -3.151772E+05 -1.411843E+06 -1.104415E+05 -1.237796E+04
        36  26 -3.886123E+06 -7.123563E+05 -4.290799E+05 -1.484868E+06 -2.595724E+05 -6.814903E+04
        36  27 -3.979906E+06 -1.304027E+06 -7.983732E+05 -1.442797E+06 -4.017079E+05 -1.423425E+05
        37   1  1.262850E+05 -7.514546E+05  1.185675E+05 -1.650771E+03  1.952940E+04  9.417320E+02
        37   2  1.245561E+05 -7.584986E+05  1.158873E+05  3.203183E+02  1.921560E+04  2.099361E+03
        37   3  1.222721E+05 -7.656704E+05  1.123488E+05 -2.011892E+03  1.883622E+04  3.256538E+03
        37   4 -8.383763E+00 -1.262408E+06 -1.377041E+03 -9.559128E+02  1.953014E+04  1.114830E+03
        37   5  1.585250E+01 -1.262341E+06 -2.404495E+03  1.195221E+03  1.921616E+04  2.312490E+03
        37   6 -5.223538E+02 -1.262408E+06 -4.318463E+03 -9.571573E+02  1.883659E+04  3.509713E+03
        37   7 -1.263204E+05 -1.773121E+06 -1.213395E+05 -2.615058E+02  1.953087E+04  1.287785E+03
        37   8 -1.245425E+05 -1.765948E+06 -1.207137E+05  2.069544E+03  1.921673E+04  2.525448E+03
        37   9 -1.233344E+05 -1.758918E+06 -1.210026E+05  9.687241E+01  1.883697E+04  3.762687E+03
        37  10  1.262846E+05 -7.514547E+05  1.185668E+05 -1.650786E+03  2.735539E-10  4.301565E-09
        37  11  1.245557E+05 -7.584987E+05  1.158866E+05  3.202858E+02 -2.020236E-09 -3.510192E-09
        37  12  1.222717E+05 -7.656705E+05  1.123481E+05 -2.011941E+03 -3.632169E-09 -6.635839E-09
        37  13 -8.793440E+00 -1.262408E+06 -1.377760E+03 -9.559303E+02 -2.551786E-09  2.228788E-09
        37  14  1.545477E+01 -1.262341E+06 -2.405199E+03  1.195185E+03 -7.913775E-11  6.148704E-11
        37  15 -5.227380E+02 -1.262408E+06 -4.319153E+03 -9.572106E+02 -1.110195E-09  2.101160E-09
        37  16 -1.263208E+05 -1.773121E+06 -1.213402E+05 -2.615260E+02  2.472569E-10 -2.617763E-09
        37  17 -1.245429E+05 -1.765948E+06 -1.207144E+05  2.069505E+03 -3.613317E-09  3.864729E-09
        37  18 -1.233348E+05 -1.758918E+06 -1.210033E+05  9.681529E+01 -2.634458E-09  5.465584E-09
        37  19  1.262850E+05 -7.514546E+05  1.185675E+05 -1.650771E+03 -1.952940E+04 -9.417320E+02
        37  20  1.245561E+05 -7.584986E+05  1.158873E+05  3.203183E+02 -1.921560E+04 -2.099361E+03
        37  21  1.222721E+05 -7.656704E+05  1.123488E+05 -2.011892E+03 -1.883622E+04 -3.256538E+03
        37  22 -8.383763E+00 -1.262408E+06 -1.377041E+03 -9.559128E+02 -1.953014E+04 -1.114830E+03
        37  23  1.585250E+01 -1.262341E+06 -2.404495E+03  1.195221E+03 -1.921616E+04 -2.312490E+03
        37  24 -5.223538E+02 -1.262408E+06 -4.318463E+03 -9.571573E+02 -1.883659E+04 -3.509713E+03
        37  25 -1.263204E+05 -1.773121E+06 -1.213395E+05 -2.615058E+02 -1.953087E+04 -1.287785E+03
        37  26 -1.245425E+05 -1.765948E+06 -1.207137E+05  2.069544E+03 -1.921673E+04 -2.525448E+03
        37  27 -1.233344E+05 -1.758918E+06 -1.210026E+05  9.687241E+01 -1.883697E+04 -3.762687E+03
        38   1  1.209118E+05 -7.748518E+05  1.089709E+05 -1.274386E+03  1.869390E+04  4.287515E+03
        38   2  1.190085E+05 -7.827879E+05  1.029585E+05 -1.794148E+01  1.822781E+04  8.742220E+03
        38   3  1.104017E+05 -7.928523E+05  9.239510E+04 -4.230590E+03  1.715252E+04  1.319454E+04
        38   4  2.959954E+02 -1.262863E+06 -5.568332E+03 -1.209868E+03  1.869465E+04  4.378353E+03
        38   5  6.055963E+02 -1.261767E+06 -9.506580E+03  1.515443E+03  1.822740E+04  9.209577E+03
        38   6 -5.856674E+03 -1.262867E+06 -1.826014E+04 -1.228622E+03  1.715076E+04  1.403847E+04
        38   7 -1.203368E+05 -1.750654E+06 -1.201238E+05 -1.145252E+03  1.869540E+04  4.469118E+03
        38   8 -1.178136E+05 -1.740535E+06 -1.219874E+05  3.047791E+03  1.822699E+04  9.676572E+03
        38   9 -1.221308E+05 -1.732678E+06 -1.289306E+05  1.771218E+03  1.714900E+04  1.488177E+04
        38  10  1.209114E+05 -7.748519E+05  1.089702E+05 -1.274450E+03 -2.647509E-09  1.006660E-09
        38  11  1.190081E+05 -7.827881E+05  1.029578E+05 -1.806983E+01 -3.253664E-09 -3.429950E-09
        38  12  1.104013E+05 -7.928525E+05  9.239422E+04 -4.230772E+03 -1.295320E-09 -5.284758E-09
        38  13  2.956151E+02 -1.262863E+06 -5.569024E+03 -1.209934E+03 -2.382254E-09  3.114230E-09
        38  14  6.052169E+02 -1.261767E+06 -9.507364E+03  1.515308E+03  3.213590E-09  2.276631E-10
        38  15 -5.857043E+03 -1.262867E+06 -1.826107E+04 -1.228816E+03 -4.206526E-09  2.416490E-09
        38  16 -1.203371E+05 -1.750654E+06 -1.201245E+05 -1.145320E+03 -6.574620E-10  1.037418E-09
        38  17 -1.178140E+05 -1.740535E+06 -1.219882E+05  3.047648E+03  2.296226E-09  3.613017E-09
        38  18 -1.221312E+05 -1.732678E+06 -1.289316E+05  1.771012E+03 -3.058597E-10  3.650379E-09
        38  19  1.209118E+05 -7.748518E+05  1.089709E+05 -1.274386E+03 -1.869390E+04 -4.287515E+03
        38  20  1.190085E+05 -7.827879E+05  1.029585E+05 -1.794148E+01 -1.822781E+04 -8.742220E+03
        38  21  1.104017E+05 -7.928523E+05  9.239510E+04 -4.230590E+03 -1.715252E+04 -1.319454E+04
        38  22  2.959954E+02 -1.262863E+06 -5.568332E+03 -1.209868E+03 -1.869465E+04 -4.378353E+03
        38  23  6.055963E+02 -1.261767E+06 -9.506580E+03  1.515443E+03 -1.822740E+04 -9.209577E+03
        38  24 -5.856674E+03 -1.262867E+06 -1.826014E+04 -1.228622E+03 -1.715076E+04 -1.403847E+04
        38  25 -1.203368E+05 -1.750654E+06 -1.201238E+05 -1.145252E+03 -1.869540E+04 -4.469118E+03
        38  26 -1.178136E+05 -1.740535E+06 -1.219874E+05  3.047791E+03 -1.822699E+04 -9.676572E+03
        38  27 -1.221308E+05 -1.732678E+06 -1.289306E+05  1.771218E+03 -1.714900E+04 -1.488177E+04
        39   1  1.170762E+05 -8.076953E+05  8.503864E+04  6.946657E+03  1.816203E+04  1.965342E+04
        39   2  1.176873E+05 -8.082196E+05  6.857728E+04 -6.852953E+03  1.663024E+04  3.314805E+04
        39   3  4.269580E+04 -8.293217E+05  2.443934E+04 -2.769415E+04  5.057646E+03  4.660426E+04
        39   4  3.629109E+03 -1.267185E+06 -2.254593E+04 -1.491108E+03  1.816999E+04  1.744170E+04
        39   5  6.812933E+03 -1.256366E+06 -3.679811E+04  1.902780E+03  1.661720E+04  3.718372E+04
        39   6 -6.672191E+04 -1.267227E+06 -8.308492E+04 -1.746298E+03  5.021117E+03  5.688715E+04
        39   7 -1.098327E+05 -1.726479E+06 -1.301448E+05 -9.922420E+03  1.817801E+04  1.523160E+04
        39   8 -1.040755E+05 -1.704328E+06 -1.421872E+05  1.065231E+04  1.660427E+04  4.121649E+04
        39   9 -1.761514E+05 -1.704955E+06 -1.906226E+05  2.418335E+04  4.985437E+03  6.716278E+04
        39  10  1.170758E+05 -8.076958E+05  8.503729E+04  6.946370E+03 -6.931039E-10 -7.495901E-10
        39  11  1.176867E+05 -8.082208E+05  6.857469E+04 -6.853397E+03  6.158410E-10 -4.656493E-09
        39  12  4.269519E+04 -8.293240E+05  2.443520E+04 -2.769434E+04  1.185196E-09 -2.560397E-09
        39  13  3.628673E+03 -1.267185E+06 -2.254713E+04 -1.491363E+03 -4.534075E-09  3.508649E-09
        39  14  6.812265E+03 -1.256368E+06 -3.680123E+04  1.902282E+03 -1.526378E-11 -2.497269E-10
        39  15 -6.672281E+04 -1.267230E+06 -8.309106E+04 -1.746528E+03 -1.341653E-11  2.702153E-09
        39  16 -1.098331E+05 -1.726479E+06 -1.301459E+05 -9.922644E+03 -3.829373E-09  3.402932E-09
        39  17 -1.040763E+05 -1.704329E+06 -1.421909E+05  1.065176E+04 -3.042584E-09  5.078590E-09
        39  18 -1.761526E+05 -1.704960E+06 -1.906311E+05  2.418308E+04  5.299610E-10  1.105858E-09
        39  19  1.170762E+05 -8.076953E+05  8.503864E+04  6.946657E+03 -1.816203E+04 -1.965342E+04
        39  20  1.176873E+05 -8.082196E+05  6.857728E+04 -6.852953E+03 -1.663024E+04 -3.314805E+04
        39  21  4.269580E+04 -8.293217E+05  2.443934E+04 -2.769415E+04 -5.057646E+03 -4.660426E+04
        39  22  3.629109E+03 -1.267185E+06 -2.254593E+04 -1.491108E+03 -1.816999E+04 -1.744170E+04
        39  23  6.812933E+03 -1.256366E+06 -3.679811E+04  1.902780E+03 -1.661720E+04 -3.718372E+04
        39  24 -6.672191E+04 -1.267227E+06 -8.308492E+04 -1.746298E+03 -5.021117E+03 -5.688715E+04
        39  25 -1.098327E+05 -1.726479E+06 -1.301448E+05 -9.922420E+03 -1.817801E+04 -1.523160E+04
        39  26 -1.040755E+05 -1.704328E+06 -1.421872E+05  1.065231E+04 -1.660427E+04 -4.121649E+04
        39  27 -1.761514E+05 -1.704955E+06 -1.906226E+05  2.418335E+04 -4.985437E+03 -6.716278E+04
        40   1  9.305403E+04  1.004218E+06  5.313226E+04 -2.054171E+02  3.256476E+04 -6.559713E+02
        40   2  9.319446E+04  1.004330E+06  5.391521E+04 -1.657657E+02  3.245464E+04 -1.661088E+03
        40   3  9.358590E+04  1.004644E+06  5.541740E+04 -1.062771E+02  3.219756E+04 -2.666312E+03
        40   4 -3.612135E+01  5.907661E+05  7.475609E+02  4.394354E+00  3.256701E+04 -5.665933E+02
        40   5  2.422067E+01  5.906952E+05  1.312113E+03 -5.460085E+00  3.245670E+04 -1.218135E+03
        40   6  2.743473E+02  5.907657E+05  2.350871E+03  4.522827E+00  3.219938E+04 -1.869777E+03
        40   7 -9.313324E+04  1.774890E+05 -5.163772E+04  2.140772E+02  3.256926E+04 -4.772716E+02
        40   8 -9.315302E+04  1.772359E+05 -5.129162E+04  1.547536E+02  3.245876E+04 -7.754617E+02
        40   9 -9.304426E+04  1.770628E+05 -5.071643E+04  1.152677E+02  3.220121E+04 -1.073746E+03
        40  10  9.305289E+04  1.004218E+06  5.313026E+04 -2.053999E+02  1.931049E-10  2.444483E-08
        40  11  9.319333E+04  1.004330E+06  5.391322E+04 -1.657223E+02 -6.384353E-10 -8.373580E-09
        40  12  9.358478E+04  1.004644E+06  5.541544E+04 -1.062080E+02  4.217805E-09 -4.027872E-08
        40  13 -3.726067E+01  5.907658E+05  7.455667E+02  4.409212E+00 -1.537262E-09  3.995928E-10
        40  14  2.308875E+01  5.906949E+05  1.310130E+03 -5.428250E+00 -6.668443E-09 -1.000635E-09
        40  15  2.732328E+02  5.907654E+05  2.348916E+03  4.571305E+00 -1.196989E-08  6.625407E-10
        40  16 -9.313438E+04  1.774887E+05 -5.163971E+04  2.140897E+02 -3.465556E-10 -2.519780E-08
        40  17 -9.315415E+04  1.772356E+05 -5.129361E+04  1.547739E+02  3.823247E-09  8.104346E-09
        40  18 -9.304537E+04  1.770625E+05 -5.071838E+04  1.152955E+02  4.022847E-09  4.055753E-08
        40  19  9.305403E+04  1.004218E+06  5.313226E+04 -2.054171E+02 -3.256476E+04  6.559713E+02
        40  20  9.319446E+04  1.004330E+06  5.391521E+04 -1.657657E+02 -3.245464E+04  1.661088E+03
        40  21  9.358590E+04  1.004644E+06  5.541740E+04 -1.062771E+02 -3.219756E+04  2.666312E+03
        40  22 -3.612135E+01  5.907661E+05  7.475609E+02  4.394354E+00 -3.256701E+04  5.665933E+02
        40  23  2.422067E+01  5.906952E+05  1.312113E+03 -5.460085E+00 -3.245670E+04  1.218135E+03
        40  24  2.743473E+02  5.907657E+05  2.350871E+03  4.522827E+00 -3.219938E+04  1.869777E+03
        40  25 -9.313324E+04  1.774890E+05 -5.163772E+04  2.140772E+02 -3.256926E+04  4.772716E+02
        40  26 -9.315302E+04  1.772359E+05 -5.129162E+04  1.547536E+02 -3.245876E+04  7.754617E+02
        40  27 -9.304426E+04  1.770628E+05 -5.071643E+04  1.152677E+02 -3.220121E+04  1.073746E+03
        41   1  9.382626E+04  1.005032E+06  5.650006E+04 -2.576041E+02  3.203517E+04 -3.210142E+03
        41   2  9.512852E+04  1.004652E+06  6.039694E+04  1.081740E+03  3.112298E+04 -8.644499E+03
        41   3  9.885136E+04  1.005592E+06  6.843540E+04  2.370359E+03  2.911295E+04 -1.407974E+04
        41   4  4.067138E+02  5.909261E+05  3.122270E+03 -1.135244E+01  3.203691E+04 -2.328622E+03
        41   5  1.411678E+03  5.904936E+05  5.575626E+03  1.510965E+01  3.112295E+04 -5.122899E+03
        41   6  4.380204E+03  5.909244E+05  1.034024E+04 -9.162012E+00  2.911080E+04 -7.918030E+03
        41   7 -9.301993E+04  1.769953E+05 -5.025638E+04  2.347508E+02  3.203864E+04 -1.447660E+03
        41   8 -9.231242E+04  1.765101E+05 -4.924693E+04 -1.050751E+03  3.112291E+04 -1.603535E+03
        41   9 -9.009856E+04  1.764308E+05 -4.775700E+04 -2.386998E+03  2.910860E+04 -1.760250E+03
        41  10  9.382516E+04  1.005032E+06  5.649811E+04 -2.575213E+02  8.509765E-09 -2.317037E-08
        41  11  9.512746E+04  1.004652E+06  6.039498E+04  1.081957E+03  9.431955E-09  5.144184E-09
        41  12  9.885039E+04  1.005592E+06  6.843343E+04  2.370689E+03  2.879350E-09  3.703643E-08
        41  13  4.056100E+02  5.909258E+05  3.120330E+03 -1.129237E+01 -1.089122E-08  6.209277E-10
        41  14  1.410631E+03  5.904933E+05  5.573756E+03  1.523804E+01 -3.130541E-09 -1.286135E-09
        41  15  4.379277E+03  5.909241E+05  1.033853E+04 -8.976413E+00 -2.115642E-09  8.597535E-10
        41  16 -9.302103E+04  1.769950E+05 -5.025831E+04  2.347881E+02  5.102477E-09  2.214942E-08
        41  17 -9.231346E+04  1.765098E+05 -4.924876E+04 -1.050711E+03  2.854143E-09 -5.638832E-09
        41  18 -9.009947E+04  1.764306E+05 -4.775860E+04 -2.386957E+03  1.737936E-09 -3.662161E-08
        41  19  9.382626E+04  1.005032E+06  5.650006E+04 -2.576041E+02 -3.203517E+04  3.210142E+03
        41  20  9.512852E+04  1.004652E+06  6.039694E+04  1.081740E+03 -3.112298E+04  8.644499E+03
        41  21  9.885136E+04  1.005592E+06  6.843540E+04  2.370359E+03 -2.911295E+04  1.407974E+04
        41  22  4.067138E+02  5.909261E+05  3.122270E+03 -1.135244E+01 -3.203691E+04  2.328622E+03
        41  23  1.411678E+03  5.904936E+05  5.575626E+03  1.510965E+01 -3.112295E+04  5.122899E+03
        41  24  4.380204E+03  5.909244E+05  1.034024E+04 -9.162012E+00 -2.911080E+04  7.918030E+03
        41  25 -9.301993E+04  1.769953E+05 -5.025638E+04  2.347508E+02 -3.203864E+04  1.447660E+03
        41  26 -9.231242E+04  1.765101E+05 -4.924693E+04 -1.050751E+03 -3.112291E+04  1.603535E+03
        41  27 -9.009856E+04  1.764308E+05 -4.775700E+04 -2.386998E+03 -2.910860E+04  1.760250E+03
        42   1  1.011000E+05  1.007627E+06  7.414242E+04  1.492925E+03  2.784268E+04 -1.653301E+04
        42   2  1.141729E+05  1.003056E+06  9.635787E+04  1.725058E+04  2.096861E+04 -4.913454E+04
        42   3  1.500324E+05  1.008427E+06  1.454742E+05  3.236877E+04  5.964001E+03 -8.174415E+04
        42   4  6.038027E+03  5.921898E+05  1.386688E+04 -1.421113E+02  2.783975E+04 -9.723439E+03
        42   5  1.730471E+04  5.889056E+05  2.562721E+04  1.923155E+02  2.095119E+04 -2.278302E+04
        42   6  4.797558E+04  5.921776E+05  5.073465E+04 -1.130160E+02  5.931216E+03 -3.584983E+04
        42   7 -8.903180E+04  1.769267E+05 -4.641131E+04 -1.775980E+03  2.783679E+04 -2.918231E+03
        42   8 -7.957108E+04  1.749256E+05 -4.510639E+04 -1.685420E+04  2.093231E+04  3.551499E+03
        42   9 -5.408806E+04  1.760953E+05 -4.400766E+04 -3.257283E+04  5.893626E+03  1.001403E+04
        42  10  1.010991E+05  1.007626E+06  7.414045E+04  1.493295E+03  9.800770E-10 -6.724983E-12
        42  11  1.141717E+05  1.003053E+06  9.635252E+04  1.725141E+04  1.505987E-09 -1.465192E-09
        42  12  1.500305E+05  1.008420E+06  1.454616E+05  3.236916E+04 -1.883268E-09  3.405103E-10
        42  13  6.037170E+03  5.921895E+05  1.386525E+04 -1.418933E+02 -1.407735E-09  8.403991E-10
        42  14  1.730410E+04  5.889049E+05  2.562541E+04  1.926999E+02  9.796234E-12 -1.520504E-09
        42  15  4.797520E+04  5.921762E+05  5.073217E+04 -1.128448E+02  1.373330E-09  1.013813E-09
        42  16 -8.903264E+04  1.769265E+05 -4.641278E+04 -1.775914E+03 -1.171610E-10 -1.077418E-09
        42  17 -7.957155E+04  1.749254E+05 -4.510724E+04 -1.685426E+04 -5.982710E-10  1.204860E-09
        42  18 -5.408812E+04  1.760952E+05 -4.400792E+04 -3.257288E+04  3.129865E-10  1.173345E-10
        42  19  1.011000E+05  1.007627E+06  7.414242E+04  1.492925E+03 -2.784268E+04  1.653301E+04
        42  20  1.141729E+05  1.003056E+06  9.635787E+04  1.725058E+04 -2.096861E+04  4.913454E+04
        42  21  1.500324E+05  1.008427E+06  1.454742E+05  3.236877E+04 -5.964001E+03  8.174415E+04
        42  22  6.038027E+03  5.921898E+05  1.386688E+04 -1.421113E+02 -2.783975E+04  9.723439E+03
        42  23  1.730471E+04  5.889056E+05  2.562721E+04  1.923155E+02 -2.095119E+04  2.278302E+04
        42  24  4.797558E+04  5.921776E+05  5.073465E+04 -1.130160E+02 -5.931216E+03  3.584983E+04
        42  25 -8.903180E+04  1.769267E+05 -4.641131E+04 -1.775980E+03 -2.783679E+04  2.918231E+03
        42  26 -7.957108E+04  1.749256E+05 -4.510639E+04 -1.685420E+04 -2.093231E+04 -3.551499E+03
        42  27 -5.408806E+04  1.760953E+05 -4.400766E+04 -3.257283E+04 -5.893626E+03 -1.001403E+04
        43   1 -6.101552E+06 -1.771733E+06 -9.820117E+05 -2.262286E+06 -5.554871E+05 -2.035484E+05
        43   2 -5.979806E+06 -9.402575E+05 -4.670064E+05 -2.329383E+06 -3.561386E+05 -1.162398E+05
        43   3 -6.147153E+06 -8.753460E+05 -3.091658E+05 -2.225779E+06 -1.523163E+05 -4.074059E+04
        43   4 -5.814675E+06 -1.442018E+06 -8.601096E+05 -1.958740E+06 -5.460548E+05 -2.002344E+05
        43   5 -5.624294E+06 -7.397966E+05 -3.617520E+05 -2.164368E+06 -3.535372E+05 -1.153059E+05
        43   6 -5.721492E+06 -8.026100E+05 -2.149745E+05 -2.199358E+06 -1.565237E+05 -4.230213E+04
        43   7 -5.527594E+06 -1.111951E+06 -7.381935E+05 -1.655000E+06 -5.366178E+05 -1.969100E+05
        43   8 -5.268645E+06 -5.392716E+05 -2.565086E+05 -1.999250E+06 -3.509341E+05 -1.143706E+05
        43   9 -5.295640E+06 -7.298739E+05 -1.207894E+05 -2.172937E+06 -1.607342E+05 -4.386337E+04
        43  10 -6.101898E+06 -1.771862E+06 -9.826769E+05 -2.262377E+06 -3.746431E-09 -6.552627E-10
        43  11 -5.979947E+06 -9.403067E+05 -4.672731E+05 -2.329417E+06 -1.216200E-08 -1.391489E-09
        43  12 -6.147178E+06 -8.753542E+05 -3.092131E+05 -2.225784E+06 -9.580713E-09 -1.685142E-09
        43  13 -5.815009E+06 -1.442142E+06 -8.607520E+05 -1.958829E+06  4.142830E-09 -2.213214E-09
        43  14 -5.624433E+06 -7.398450E+05 -3.620146E+05 -2.164401E+06 -5.795046E-11 -4.088271E-10
        43  15 -5.721519E+06 -8.026186E+05 -2.150244E+05 -2.199364E+06  3.247595E-09 -3.509644E-09
        43  16 -5.527916E+06 -1.112072E+06 -7.388135E+05 -1.655085E+06  3.032598E-09 -7.444980E-10
        43  17 -5.268782E+06 -5.393192E+05 -2.567672E+05 -1.999283E+06  8.241770E-09  3.204986E-09
        43  18 -5.295668E+06 -7.298830E+05 -1.208421E+05 -2.172943E+06  6.592087E-09  3.383712E-09
        43  19 -6.101552E+06 -1.771733E+06 -9.820117E+05 -2.262286E+06  5.554871E+05  2.035484E+05
        43  20 -5.979806E+06 -9.402575E+05 -4.670064E+05 -2.329383E+06  3.561386E+05  1.162398E+05
        43  21 -6.147153E+06 -8.753460E+05 -3.091658E+05 -2.225779E+06  1.523163E+05  4.074059E+04
        43  22 -5.814675E+06 -1.442018E+06 -8.601096E+05 -1.958740E+06  5.460548E+05  2.002344E+05
        43  23 -5.624294E+06 -7.397966E+05 -3.617520E+05 -2.164368E+06  3.535372E+05  1.153059E+05
        43  24 -5.721492E+06 -8.026100E+05 -2.149745E+05 -2.199358E+06  1.565237E+05  4.230213E+04
        43  25 -5.527594E+06 -1.111951E+06 -7.381935E+05 -1.655000E+06  5.366178E+05  1.969100E+05
        43  26 -5.268645E+06 -5.392716E+05 -2.565086E+05 -1.999250E+06  3.509341E+05  1.143706E+05
        43  27 -5.295640E+06 -7.298739E+05 -1.207894E+05 -2.172937E+06  1.607342E+05  4.386337E+04
        44   1 -5.987546E+06 -1.016400E+06 -2.540950E+05 -2.250754E+06 -1.253025E+05 -3.379889E+04
        44   2 -5.938794E+06 -9.106886E+05 -1.521625E+05 -2.232262E+06 -8.048788E+04 -1.867834E+04
        44   3 -5.898925E+06 -8.993902E+05 -1.026816E+05 -2.223511E+06 -3.535018E+04 -4.398289E+03
        44   4 -5.693229E+06 -8.869559E+05 -1.737329E+05 -2.151521E+06 -1.260003E+05 -3.406706E+04
        44   5 -5.684450E+06 -8.099409E+05 -8.497104E+04 -2.157845E+06 -8.165434E+04 -1.911916E+04
        44   6 -5.684448E+06 -8.272260E+05 -4.826527E+04 -2.173914E+06 -3.698852E+04 -5.015218E+03
        44   7 -5.398825E+06 -7.574961E+05 -9.337833E+04 -2.052241E+06 -1.266985E+05 -3.433542E+04
        44   8 -5.430042E+06 -7.091870E+05 -1.778507E+04 -2.083400E+06 -8.282132E+04 -1.956020E+04
        44   9 -5.469925E+06 -7.550612E+05  6.147465E+03 -2.124303E+06 -3.862749E+04 -5.632324E+03
        44  10 -5.987563E+06 -1.016406E+06 -2.541270E+05 -2.250757E+06  6.853465E-09  2.963797E-09
        44  11 -5.938801E+06 -9.106908E+05 -1.521754E+05 -2.232263E+06  4.793615E-09  3.319324E-09
        44  12 -5.898926E+06 -8.993905E+05 -1.026840E+05 -2.223511E+06  2.255251E-10  4.935270E-10
        44  13 -5.693247E+06 -8.869615E+05 -1.737652E+05 -2.151524E+06  6.593148E-12 -2.414433E-09
        44  14 -5.684457E+06 -8.099431E+05 -8.498439E+04 -2.157846E+06 -2.087888E-09 -6.453705E-10
        44  15 -5.684449E+06 -8.272264E+05 -4.826791E+04 -2.173914E+06  1.644232E-09  6.173704E-10
        44  16 -5.398842E+06 -7.575018E+05 -9.341103E+04 -2.052245E+06 -7.898853E-09 -8.772186E-10
        44  17 -5.430050E+06 -7.091893E+05 -1.779882E+04 -2.083402E+06 -4.227212E-09  8.477790E-10
        44  18 -5.469927E+06 -7.550617E+05  6.144574E+03 -2.124303E+06 -2.001022E-10  5.969100E-10
        44  19 -5.987546E+06 -1.016400E+06 -2.540950E+05 -2.250754E+06  1.253025E+05  3.379889E+04
        44  20 -5.938794E+06 -9.106886E+05 -1.521625E+05 -2.232262E+06  8.048788E+04  1.867834E+04
        44  21 -5.898925E+06 -8.993902E+05 -1.026816E+05 -2.223511E+06  3.535018E+04  4.398289E+03
        44  22 -5.693229E+06 -8.869559E+05 -1.737329E+05 -2.151521E+06  1.260003E+05  3.406706E+04
        44  23 -5.684450E+06 -8.099409E+05 -8.497104E+04 -2.157845E+06  8.165434E+04  1.911916E+04
        44  24 -5.684448E+06 -8.272260E+05 -4.826527E+04 -2.173914E+06  3.698852E+04  5.015218E+03
        44  25 -5.398825E+06 -7.574961E+05 -9.337833E+04 -2.052241E+06  1.266985E+05  3.433542E+04
        44  26 -5.430042E+06 -7.091870E+05 -1.778507E+04 -2.083400E+06  8.282132E+04  1.956020E+04
        44  27 -5.469925E+06 -7.550612E+05  6.147465E+03 -2.124303E+06  3.862749E+04  5.632324E+03
        45   1 -5.827464E+06 -8.916827E+05 -7.560976E+04 -2.210929E+06 -2.812451E+04 -3.470591E+03
        45   2 -5.784866E+06 -8.519030E+05 -4.410144E+04 -2.182610E+06 -1.721514E+04 -2.243272E+03
        45   3 -5.720725E+06 -8.442307E+05 -2.186647E+04 -2.181842E+06 -6.273764E+03 -1.099231E+03
        45   4 -5.680840E+06 -8.352339E+05 -3.735277E+04 -2.169655E+06 -2.956724E+04 -4.014262E+03
        45   5 -5.691202E+06 -8.164549E+05 -1.967393E+04 -2.156896E+06 -1.870396E+04 -2.804098E+03
        45   6 -5.680015E+06 -8.297729E+05 -1.122911E+04 -2.171690E+06 -7.809575E+03 -1.677579E+03
        45   7 -5.534194E+06 -7.787836E+05  9.022602E+02 -2.128371E+06 -3.101034E+04 -4.558080E+03
        45   8 -5.597530E+06 -7.810062E+05  4.752848E+03 -2.131179E+06 -2.019303E+04 -3.365018E+03
        45   9 -5.639303E+06 -8.153151E+05 -5.918474E+02 -2.161536E+06 -9.345503E+03 -2.255964E+03
        45  10 -5.827465E+06 -8.916830E+05 -7.561129E+04 -2.210929E+06 -1.976943E-09  4.064547E-10
        45  11 -5.784866E+06 -8.519031E+05 -4.410201E+04 -2.182611E+06  2.205018E-09  1.010089E-09
        45  12 -5.720725E+06 -8.442307E+05 -2.186655E+04 -2.181842E+06  2.574586E-09 -7.187488E-10
        45  13 -5.680841E+06 -8.352341E+05 -3.735446E+04 -2.169655E+06 -4.148722E-10  1.867532E-09
        45  14 -5.691202E+06 -8.164550E+05 -1.967461E+04 -2.156896E+06  3.474958E-10  1.929816E-09
        45  15 -5.680015E+06 -8.297730E+05 -1.122923E+04 -2.171690E+06 -5.392367E-09 -5.024973E-11
        45  16 -5.534195E+06 -7.787839E+05  9.003962E+02 -2.128371E+06  2.007931E-09  7.006796E-10
        45  17 -5.597530E+06 -7.810063E+05  4.752052E+03 -2.131179E+06  4.107158E-10  4.786689E-10
        45  18 -5.639303E+06 -8.153151E+05 -5.920229E+02 -2.161536E+06 -1.080086E-09 -1.911211E-09
        45  19 -5.827464E+06 -8.916827E+05 -7.560976E+04 -2.210929E+06  2.812451E+04  3.470591E+03
        45  20 -5.784866E+06 -8.519030E+05 -4.410144E+04 -2.182610E+06  1.721514E+04  2.243272E+03
        45  21 -5.720725E+06 -8.442307E+05 -2.186647E+04 -2.181842E+06  6.273764E+03  1.099231E+03
        45  22 -5.680840E+06 -8.352339E+05 -3.735277E+04 -2.169655E+06  2.956724E+04  4.014262E+03
        45  23 -5.691202E+06 -8.164549E+05 -1.967393E+04 -2.156896E+06  1.870396E+04  2.804098E+03
        45  24 -5.680015E+06 -8.297729E+05 -1.122911E+04 -2.171690E+06  7.809575E+03  1.677579E+03
        45  25 -5.534194E+06 -7.787836E+05  9.022602E+02 -2.128371E+06  3.101034E+04  4.558080E+03
        45  26 -5.597530E+06 -7.810062E+05  4.752848E+03 -2.131179E+06  2.019303E+04  3.365018E+03
        45  27 -5.639303E+06 -8.153151E+05 -5.918474E+02 -2.161536E+06  9.345503E+03  2.255964E+03
        46   1 -5.656569E+06 -8.217177E+05 -2.539901E+03 -2.164963E+06 -4.078961E+03 -2.030970E+03
        46   2 -5.615087E+06 -7.881172E+05  1.465214E+04 -2.135815E+06 -4.250867E+02 -3.638632E+03
        46   3 -5.548787E+06 -7.806424E+05  2.966228E+04 -2.135562E+06  3.218948E+03 -5.218305E+03
        46   4 -5.679573E+06 -8.304348E+05 -8.740399E+03 -2.171241E+06 -5.601513E+03 -2.604328E+03
        46   5 -5.691947E+06 -8.171588E+05 -5.381848E+03 -2.156870E+06 -1.931660E+03 -4.206107E+03
        46   6 -5.679508E+06 -8.300119E+05 -4.217556E+03 -2.171397E+06  1.728088E+03 -5.779978E+03
        46   7 -5.702577E+06 -8.391519E+05 -1.494093E+04 -2.177517E+06 -7.124002E+03 -3.177662E+03
        46   8 -5.768801E+06 -8.462000E+05 -2.541629E+04 -2.177923E+06 -3.438025E+03 -4.773502E+03
        46   9 -5.810212E+06 -8.793801E+05 -3.809869E+04 -2.207226E+06  2.375798E+02 -6.341519E+03
        46  10 -5.656569E+06 -8.217177E+05 -2.539941E+03 -2.164963E+06 -3.477733E-09 -1.273800E-09
        46  11 -5.615087E+06 -7.881172E+05  1.465212E+04 -2.135815E+06 -9.636821E-10  1.551148E-09
        46  12 -5.548787E+06 -7.806425E+05  2.966221E+04 -2.135562E+06  3.336428E-10  4.891876E-10
        46  13 -5.679573E+06 -8.304348E+05 -8.740471E+03 -2.171241E+06 -2.424750E-09 -2.570085E-10
        46  14 -5.691947E+06 -8.171588E+05 -5.381889E+03 -2.156870E+06 -4.148229E-10  2.093264E-09
        46  15 -5.679508E+06 -8.300120E+05 -4.217624E+03 -2.171397E+06  4.889390E-09  5.502747E-10
        46  16 -5.702577E+06 -8.391520E+05 -1.494105E+04 -2.177518E+06  1.483783E-09 -2.302014E-11
        46  17 -5.768801E+06 -8.462000E+05 -2.541636E+04 -2.177923E+06  4.468783E-09  5.225225E-10
        46  18 -5.810212E+06 -8.793802E+05 -3.809877E+04 -2.207226E+06  8.148879E-10  2.027086E-10
        46  19 -5.656569E+06 -8.217177E+05 -2.539901E+03 -2.164963E+06  4.078961E+03  2.030970E+03
        46  20 -5.615087E+06 -7.881172E+05  1.465214E+04 -2.135815E+06  4.250867E+02  3.638632E+03
        46  21 -5.548787E+06 -7.806424E+05  2.966228E+04 -2.135562E+06 -3.218948E+03  5.218305E+03
        46  22 -5.679573E+06 -8.304348E+05 -8.740399E+03 -2.171241E+06  5.601513E+03  2.604328E+03
        46  23 -5.691947E+06 -8.171588E+05 -5.381848E+03 -2.156870E+06  1.931660E+03  4.206107E+03
        46  24 -5.679508E+06 -8.300119E+05 -4.217556E+03 -2.171397E+06 -1.728088E+03  5.779978E+03
        46  25 -5.702577E+06 -8.391519E+05 -1.494093E+04 -2.177517E+06  7.124002E+03  3.177662E+03
        46  26 -5.768801E+06 -8.462000E+05 -2.541629E+04 -2.177923E+06  3.438025E+03  4.773502E+03
        46  27 -5.810212E+06 -8.793801E+05 -3.809869E+04 -2.207226E+06 -2.375798E+02  6.341519E+03
        47   1 -5.487905E+06 -7.572523E+05  4.601118E+04 -2.118581E+06  4.445466E+03 -6.454232E+03
        47   2 -5.449270E+06 -7.262648E+05  5.782096E+04 -2.091185E+06  7.958449E+03 -7.958863E+03
        47   3 -5.387417E+06 -7.196924E+05  6.753733E+04 -2.090743E+06  1.143455E+04 -9.361175E+03
        47   4 -5.679871E+06 -8.296351E+05 -4.195997E+03 -2.170968E+06  2.979853E+03 -7.006575E+03
        47   5 -5.691512E+06 -8.176504E+05 -5.287726E+03 -2.157406E+06  6.550933E+03 -8.489708E+03
        47   6 -5.679949E+06 -8.300939E+05 -8.519972E+03 -2.170801E+06  1.008489E+04 -9.870577E+03
        47   7 -5.871801E+06 -9.020159E+05 -5.440648E+04 -2.223341E+06  1.514735E+03 -7.558732E+03
        47   8 -5.933696E+06 -9.090324E+05 -6.840149E+04 -2.223604E+06  5.144022E+03 -9.020325E+03
        47   9 -5.972397E+06 -9.404900E+05 -8.458449E+04 -2.250824E+06  8.735930E+03 -1.037971E+04
        47  10 -5.487905E+06 -7.572524E+05  4.601106E+04 -2.118581E+06 -6.656442E-10  1.214439E-09
        47  11 -5.449270E+06 -7.262649E+05  5.782073E+04 -2.091185E+06 -2.126424E-09  8.778320E-10
        47  12 -5.387417E+06 -7.196925E+05  6.753692E+04 -2.090743E+06  1.285449E-11 -1.035505E-09
        47  13 -5.679871E+06 -8.296352E+05 -4.196105E+03 -2.170968E+06  2.986647E-09  7.182915E-10
        47  14 -5.691512E+06 -8.176505E+05 -5.287942E+03 -2.157406E+06  5.209859E-09  4.727365E-10
        47  15 -5.679949E+06 -8.300941E+05 -8.520346E+03 -2.170801E+06  2.740884E-11 -1.654001E-09
        47  16 -5.871801E+06 -9.020159E+05 -5.440659E+04 -2.223341E+06  3.625075E-09 -3.863584E-10
        47  17 -5.933696E+06 -9.090325E+05 -6.840169E+04 -2.223604E+06  2.834786E-09  5.128236E-10
        47  18 -5.972398E+06 -9.404901E+05 -8.458483E+04 -2.250824E+06  4.873637E-10  4.207570E-10
        47  19 -5.487905E+06 -7.572523E+05  4.601118E+04 -2.118581E+06 -4.445466E+03  6.454232E+03
        47  20 -5.449270E+06 -7.262648E+05  5.782096E+04 -2.091185E+06 -7.958449E+03  7.958863E+03
        47  21 -5.387417E+06 -7.196924E+05  6.753733E+04 -2.090743E+06 -1.143455E+04  9.361175E+03
        47  22 -5.679871E+06 -8.296351E+05 -4.195997E+03 -2.170968E+06 -2.979853E+03  7.006575E+03
        47  23 -5.691512E+06 -8.176504E+05 -5.287726E+03 -2.157406E+06 -6.550933E+03  8.489708E+03
        47  24 -5.679949E+06 -8.300939E+05 -8.519972E+03 -2.170801E+06 -1.008489E+04  9.870577E+03
        47  25 -5.871801E+06 -9.020159E+05 -5.440648E+04 -2.223341E+06 -1.514735E+03  7.558732E+03
        47  26 -5.933696E+06 -9.090324E+05 -6.840149E+04 -2.223604E+06 -5.144022E+03  9.020325E+03
        47  27 -5.972397E+06 -9.404900E+05 -8.458449E+04 -2.250824E+06 -8.735930E+03  1.037971E+04
        48   1 -5.333072E+06 -6.982015E+05  7.977889E+04 -2.076101E+06  1.349409E+04 -1.011659E+04
        48   2 -5.299440E+06 -6.702869E+05  8.265310E+04 -2.051389E+06  2.382050E+04 -8.686031E+03
        48   3 -5.248888E+06 -6.693151E+05  7.668976E+04 -2.048586E+06  3.406572E+04 -7.033522E+03
        48   4 -5.681084E+06 -8.287234E+05 -1.092228E+04 -2.170414E+06  1.217550E+04 -1.061458E+04
        48   5 -5.689937E+06 -8.179061E+05 -1.912907E+04 -2.158463E+06  2.262426E+04 -9.138419E+03
        48   6 -5.681899E+06 -8.340599E+05 -3.627553E+04 -2.168422E+06  3.299112E+04 -7.440533E+03
        48   7 -6.028976E+06 -9.592376E+05 -1.016334E+05 -2.264678E+06  1.085773E+04 -1.111227E+04
        48   8 -6.080285E+06 -9.655154E+05 -1.209241E+05 -2.265475E+06  2.142885E+04 -9.590493E+03
        48   9 -6.114728E+06 -9.987925E+05 -1.492571E+05 -2.288183E+06  3.191734E+04 -7.847231E+03
        48  10 -5.333072E+06 -6.982016E+05  7.977835E+04 -2.076101E+06 -1.132849E-10 -1.617279E-09
        48  11 -5.299441E+06 -6.702872E+05  8.265189E+04 -2.051389E+06 -1.143940E-09 -1.000577E-09
        48  12 -5.248889E+06 -6.693155E+05  7.668747E+04 -2.048585E+06 -3.001905E-09  1.386612E-09
        48  13 -5.681085E+06 -8.287236E+05 -1.092277E+04 -2.170413E+06  1.441254E-09 -2.156486E-09
        48  14 -5.689938E+06 -8.179063E+05 -1.913019E+04 -2.158463E+06  6.164874E-10 -1.530720E-10
        48  15 -5.681900E+06 -8.340603E+05 -3.627769E+04 -2.168422E+06  1.175419E-09  5.669735E-10
        48  16 -6.028977E+06 -9.592378E+05 -1.016338E+05 -2.264678E+06  1.611517E-09 -1.023649E-09
        48  17 -6.080285E+06 -9.655156E+05 -1.209252E+05 -2.265475E+06  5.589411E-09 -1.998546E-09
        48  18 -6.114729E+06 -9.987928E+05 -1.492592E+05 -2.288183E+06  2.045477E-09 -7.398657E-10
        48  19 -5.333072E+06 -6.982015E+05  7.977889E+04 -2.076101E+06 -1.349409E+04  1.011659E+04
        48  20 -5.299440E+06 -6.702869E+05  8.265310E+04 -2.051389E+06 -2.382050E+04  8.686031E+03
        48  21 -5.248888E+06 -6.693151E+05  7.668976E+04 -2.048586E+06 -3.406572E+04  7.033522E+03
        48  22 -5.681084E+06 -8.287234E+05 -1.092228E+04 -2.170414E+06 -1.217550E+04  1.061458E+04
        48  23 -5.689937E+06 -8.179061E+05 -1.912907E+04 -2.158463E+06 -2.262426E+04  9.138419E+03
        48  24 -5.681899E+06 -8.340599E+05 -3.627553E+04 -2.168422E+06 -3.299112E+04  7.440533E+03
        48  25 -6.028976E+06 -9.592376E+05 -1.016334E+05 -2.264678E+06 -1.085773E+04  1.111227E+04
        48  26 -6.080285E+06 -9.655154E+05 -1.209241E+05 -2.265475E+06 -2.142885E+04  9.590493E+03
        48  27 -6.114728E+06 -9.987925E+05 -1.492571E+05 -2.288183E+06 -3.191734E+04  7.847231E+03
        49   1 -5.201221E+06 -6.509176E+05  7.801363E+04 -2.047660E+06  4.138277E+04 -5.660414E+03
        49   2 -5.174295E+06 -6.155636E+05  5.084687E+04 -2.016118E+06  8.381390E+04  8.538249E+03
        49   3 -5.162716E+06 -6.643931E+05 -2.625936E+04 -1.985767E+06  1.257897E+05  2.394616E+04
        49   4 -5.686046E+06 -8.256296E+05 -4.686617E+04 -2.171819E+06  4.007996E+04 -6.153382E+03
        49   5 -5.682584E+06 -8.124289E+05 -8.252638E+04 -2.160322E+06  8.317699E+04  8.295169E+03
        49   6 -5.694629E+06 -8.835844E+05 -1.686905E+05 -2.150014E+06  1.258167E+05  2.395051E+04
        49   7 -6.170642E+06 -1.000332E+06 -1.717653E+05 -2.295892E+06  3.877828E+04 -6.645974E+03
        49   8 -6.190619E+06 -1.009274E+06 -2.159215E+05 -2.304417E+06  8.254063E+04  8.052309E+03
        49   9 -6.226260E+06 -1.102742E+06 -3.111461E+05 -2.314127E+06  1.258436E+05  2.395483E+04
        49  10 -5.201223E+06 -6.509181E+05  7.801033E+04 -2.047660E+06  1.298252E-09  2.049184E-09
        49  11 -5.174303E+06 -6.155656E+05  5.083341E+04 -2.016119E+06  3.193245E-09  2.552525E-09
        49  12 -5.162734E+06 -6.643980E+05 -2.629046E+04 -1.985769E+06  2.005590E-09  1.206051E-10
        49  13 -5.686048E+06 -8.256300E+05 -4.686928E+04 -2.171819E+06 -2.380386E-10  1.433431E-09
        49  14 -5.682592E+06 -8.124309E+05 -8.253963E+04 -2.160323E+06  5.801078E-09 -5.391712E-10
        49  15 -5.694646E+06 -8.835893E+05 -1.687216E+05 -2.150017E+06  2.232297E-09 -8.675923E-10
        49  16 -6.170643E+06 -1.000332E+06 -1.717683E+05 -2.295891E+06  1.501197E-09  4.103596E-10
        49  17 -6.190626E+06 -1.009276E+06 -2.159346E+05 -2.304417E+06  2.532972E-09 -8.385929E-10
        49  18 -6.226277E+06 -1.102746E+06 -3.111773E+05 -2.314129E+06  1.022910E-09 -1.976544E-09
        49  19 -5.201221E+06 -6.509176E+05  7.801363E+04 -2.047660E+06 -4.138277E+04  5.660414E+03
        49  20 -5.174295E+06 -6.155636E+05  5.084687E+04 -2.016118E+06 -8.381390E+04 -8.538249E+03
        49  21 -5.162716E+06 -6.643931E+05 -2.625936E+04 -1.985767E+06 -1.257897E+05 -2.394616E+04
        49  22 -5.686046E+06 -8.256296E+05 -4.686617E+04 -2.171819E+06 -4.007996E+04  6.153382E+03
        49  23 -5.682584E+06 -8.124289E+05 -8.252638E+04 -2.160322E+06 -8.317699E+04 -8.295169E+03
        49  24 -5.694629E+06 -8.835844E+05 -1.686905E+05 -2.150014E+06 -1.258167E+05 -2.395051E+04
        49  25 -6.170642E+06 -1.000332E+06 -1.717653E+05 -2.295892E+06 -3.877828E+04  6.645974E+03
        49  26 -6.190619E+06 -1.009274E+06 -2.159215E+05 -2.304417E+06 -8.254063E+04 -8.052309E+03
        49  27 -6.226260E+06 -1.102742E+06 -3.111461E+05 -2.314127E+06 -1.258436E+05 -2.395483E+04
        50   1 -5.083516E+06 -6.451969E+05 -5.865575E+04 -2.107842E+06  1.601155E+05  3.366057E+04
        50   2 -5.073608E+06 -4.722383E+05 -1.956367E+05 -1.950536E+06  3.417133E+05  1.027220E+05
        50   3 -5.350871E+06 -1.029418E+06 -6.664257E+05 -1.615870E+06  5.172321E+05  1.878626E+05
        50   4 -5.722521E+06 -8.012413E+05 -2.087365E+05 -2.195955E+06  1.554669E+05  3.192425E+04
        50   5 -5.623445E+06 -7.450586E+05 -3.512824E+05 -2.167479E+06  3.461809E+05  1.043705E+05
        50   6 -5.813699E+06 -1.421341E+06 -8.351571E+05 -1.961543E+06  5.308376E+05  1.928016E+05
        50   7 -6.361118E+06 -9.572978E+05 -3.588412E+05 -2.284011E+06  1.508236E+05  3.018830E+04
        50   8 -6.172970E+06 -1.017787E+06 -5.069553E+05 -2.384223E+06  3.506440E+05  1.060161E+05
        50   9 -6.276194E+06 -1.812867E+06 -1.003891E+06 -2.306893E+06  5.444318E+05  1.977241E+05
        50  10 -5.083544E+06 -6.452051E+05 -5.870652E+04 -2.107847E+06  1.989007E-10 -6.891857E-10
        50  11 -5.073737E+06 -4.722814E+05 -1.958783E+05 -1.950565E+06  7.261846E-10 -3.692645E-09
        50  12 -5.351170E+06 -1.029529E+06 -6.670001E+05 -1.615949E+06  5.811492E-10 -1.546693E-09
        50  13 -5.722548E+06 -8.012490E+05 -2.087843E+05 -2.195959E+06  1.265655E-09 -6.584455E-10
        50  14 -5.623578E+06 -7.451030E+05 -3.515307E+05 -2.167509E+06 -4.968286E-09  4.781245E-09
        50  15 -5.814014E+06 -1.421458E+06 -8.357628E+05 -1.961626E+06  1.304603E-09 -1.102412E-09
        50  16 -6.361143E+06 -9.573050E+05 -3.588862E+05 -2.284015E+06  1.318538E-09 -1.363290E-09
        50  17 -6.173107E+06 -1.017833E+06 -5.072104E+05 -2.384253E+06 -2.914995E-09  4.039420E-09
        50  18 -6.276526E+06 -1.812990E+06 -1.004529E+06 -2.306980E+06 -3.034302E-10 -5.159111E-11
        50  19 -5.083516E+06 -6.451969E+05 -5.865575E+04 -2.107842E+06 -1.601155E+05 -3.366057E+04
        50  20 -5.073608E+06 -4.722383E+05 -1.956367E+05 -1.950536E+06 -3.417133E+05 -1.027220E+05
        50  21 -5.350871E+06 -1.029418E+06 -6.664257E+05 -1.615870E+06 -5.172321E+05 -1.878626E+05
        50  22 -5.722521E+06 -8.012413E+05 -2.087365E+05 -2.195955E+06 -1.554669E+05 -3.192425E+04
        50  23 -5.623445E+06 -7.450586E+05 -3.512824E+05 -2.167479E+06 -3.461809E+05 -1.043705E+05
        50  24 -5.813699E+06 -1.421341E+06 -8.351571E+05 -1.961543E+06 -5.308376E+05 -1.928016E+05
        50  25 -6.361118E+06 -9.572978E+05 -3.588412E+05 -2.284011E+06 -1.508236E+05 -3.018830E+04
        50  26 -6.172970E+06 -1.017787E+06 -5.069553E+05 -2.384223E+06 -3.506440E+05 -1.060161E+05
        50  27 -6.276194E+06 -1.812867E+06 -1.003891E+06 -2.306893E+06 -5.444318E+05 -1.977241E+05
        51   1 -1.395163E+06 -2.012963E+05 -1.627532E+05 -2.295063E+02  8.629669E+04  1.567197E+04
        51   2 -1.330451E+06 -3.277791E+05 -2.228374E+05 -8.811203E+03  6.610619E+04  4.737796E+04
        51   3 -1.223016E+06 -3.003072E+05 -2.309934E+05 -6.846324E+04  4.602471E+04  4.665435E+04
        51   4 -3.963228E+04  1.361749E+05  1.700811E+05 -4.725465E+04  1.163685E+05  1.576921E+04
        51   5 -6.268542E+04 -1.450839E+04  7.517179E+04 -2.149032E+04  7.590337E+04  4.739860E+04
        51   6 -3.958960E+04 -7.887669E+03  4.619414E+04 -4.678723E+04  3.555158E+04  4.662561E+04
        51   7  1.317582E+06  4.735190E+05  5.027850E+05 -9.438425E+04  1.465058E+05  1.586178E+04
        51   8  1.206562E+06  2.986484E+05  3.730712E+05 -3.419660E+04  8.572034E+04  4.741882E+04
        51   9  1.145130E+06  2.844340E+05  3.232868E+05 -2.507027E+04  2.505852E+04  4.659616E+04
        51  10 -1.395172E+06 -2.012986E+05 -1.627676E+05 -2.305963E+02 -1.469927E-10  1.048130E-09
        51  11 -1.330456E+06 -3.277827E+05 -2.228499E+05 -8.813727E+03  1.575956E-09 -1.783983E-09
        51  12 -1.223019E+06 -3.003101E+05 -2.310015E+05 -6.846497E+04  1.640824E-09 -6.634580E-10
        51  13 -3.964689E+04  1.361710E+05  1.700552E+05 -4.725613E+04 -8.834896E-12  2.485578E-10
        51  14 -6.269221E+04 -1.451235E+04  7.515674E+04 -2.149322E+04 -3.661796E-10 -4.882899E-09
        51  15 -3.959154E+04 -7.890343E+03  4.618768E+04 -4.678857E+04  2.629985E-09 -6.684649E-10
        51  16  1.317559E+06  4.735130E+05  5.027443E+05 -9.438612E+04 -3.293412E-10 -7.960913E-10
        51  17  1.206554E+06  2.986440E+05  3.730532E+05 -3.419987E+04 -2.304807E-10 -1.794303E-09
        51  18  1.145129E+06  2.844315E+05  3.232815E+05 -2.507121E+04  5.406593E-10 -1.819860E-09
        51  19 -1.395163E+06 -2.012963E+05 -1.627532E+05 -2.295063E+02 -8.629669E+04 -1.567197E+04
        51  20 -1.330451E+06 -3.277791E+05 -2.228374E+05 -8.811203E+03 -6.610619E+04 -4.737796E+04
        51  21 -1.223016E+06 -3.003072E+05 -2.309934E+05 -6.846324E+04 -4.602471E+04 -4.665435E+04
        51  22 -3.963228E+04  1.361749E+05  1.700811E+05 -4.725465E+04 -1.163685E+05 -1.576921E+04
        51  23 -6.268542E+04 -1.450839E+04  7.517179E+04 -2.149032E+04 -7.590337E+04 -4.739860E+04
        51  24 -3.958960E+04 -7.887669E+03  4.619414E+04 -4.678723E+04 -3.555158E+04 -4.662561E+04
        51  25  1.317582E+06  4.735190E+05  5.027850E+05 -9.438425E+04 -1.465058E+05 -1.586178E+04
        51  26  1.206562E+06  2.986484E+05  3.730712E+05 -3.419660E+04 -8.572034E+04 -4.741882E+04
        51  27  1.145130E+06  2.844340E+05  3.232868E+05 -2.507027E+04 -2.505852E+04 -4.659616E+04
        52   1 -1.139118E+06 -2.580321E+05 -2.191531E+05 -4.493142E+04  2.911840E+04  4.014482E+04
        52   2 -1.056121E+06 -2.498634E+05 -2.164486E+05 -2.141136E+04  2.044494E+04  3.827698E+04
        52   3 -9.676107E+05 -2.279916E+05 -2.044593E+05 -4.965248E+04  1.176761E+04  3.454261E+04
        52   4 -4.852155E+04  1.153844E+04  3.739777E+04 -4.708895E+04  2.858079E+04  4.013880E+04
        52   5 -5.135395E+04 -1.613248E+03  1.937023E+04 -2.120023E+04  1.872871E+04  3.827014E+04
        52   6 -4.848112E+04 -8.689128E+02  1.143496E+04 -4.706720E+04  8.873983E+03  3.453626E+04
        52   7  1.043171E+06  2.810241E+05  2.938669E+05 -4.925080E+04  2.804220E+04  4.013279E+04
        52   8  9.543441E+05  2.465650E+05  2.551199E+05 -2.098910E+04  1.700970E+04  3.826330E+04
        52   9  8.714271E+05  2.261936E+05  2.272714E+05 -4.447824E+04  5.976082E+03  3.452989E+04
        52  10 -1.139119E+06 -2.580340E+05 -2.191577E+05 -4.493236E+04 -3.360546E-10 -1.277826E-09
        52  11 -1.056122E+06 -2.498651E+05 -2.164521E+05 -2.141199E+04 -3.367121E-10  1.322460E-09
        52  12 -9.676112E+05 -2.279929E+05 -2.044618E+05 -4.965281E+04  3.195977E-09 -1.519095E-09
        52  13 -4.852286E+04  1.153649E+04  3.739321E+04 -4.708988E+04  1.074087E-09 -6.592728E-10
        52  14 -5.135472E+04 -1.614915E+03  1.936682E+04 -2.120081E+04  1.401922E-09 -1.392395E-11
        52  15 -4.848152E+04 -8.702148E+02  1.143257E+04 -4.706745E+04  3.246172E-10 -1.817215E-09
        52  16  1.043169E+06  2.810221E+05  2.938624E+05 -4.925171E+04  1.924089E-09  5.878803E-10
        52  17  9.543434E+05  2.465634E+05  2.551166E+05 -2.098962E+04 -2.550446E-09 -1.702343E-09
        52  18  8.714268E+05  2.261923E+05  2.272691E+05 -4.447840E+04 -1.632750E-09 -7.276720E-10
        52  19 -1.139118E+06 -2.580321E+05 -2.191531E+05 -4.493142E+04 -2.911840E+04 -4.014482E+04
        52  20 -1.056121E+06 -2.498634E+05 -2.164486E+05 -2.141136E+04 -2.044494E+04 -3.827698E+04
        52  21 -9.676107E+05 -2.279916E+05 -2.044593E+05 -4.965248E+04 -1.176761E+04 -3.454261E+04
        52  22 -4.852155E+04  1.153844E+04  3.739777E+04 -4.708895E+04 -2.858079E+04 -4.013880E+04
        52  23 -5.135395E+04 -1.613248E+03  1.937023E+04 -2.120023E+04 -1.872871E+04 -3.827014E+04
        52  24 -4.848112E+04 -8.689128E+02  1.143496E+04 -4.706720E+04 -8.873983E+03 -3.453626E+04
        52  25  1.043171E+06  2.810241E+05  2.938669E+05 -4.925080E+04 -2.804220E+04 -4.013279E+04
        52  26  9.543441E+05  2.465650E+05  2.551199E+05 -2.098910E+04 -1.700970E+04 -3.826330E+04
        52  27  8.714271E+05  2.261936E+05  2.272714E+05 -4.447824E+04 -5.976082E+03 -3.452989E+04
        53   1 -8.757739E+05 -2.033040E+05 -1.848337E+05 -4.743740E+04  9.409468E+03  3.202286E+04
        53   2 -7.904448E+05 -1.831860E+05 -1.688920E+05 -2.143235E+04  7.063513E+03  2.823012E+04
        53   3 -7.040326E+05 -1.618602E+05 -1.510178E+05 -4.732503E+04  4.712140E+03  2.432886E+04
        53   4 -4.946550E+04  7.865976E+02  8.850756E+03 -4.710449E+04  7.086565E+03  3.201820E+04
        53   5 -4.999345E+04 -2.732807E+02  4.846307E+03 -2.115725E+04  4.669893E+03  2.822683E+04
        53   6 -4.943511E+04 -1.137533E+02  2.821625E+03 -4.710394E+04  2.248124E+03  2.432703E+04
        53   7  7.774725E+05  2.048286E+05  2.024886E+05 -4.677124E+04  4.760582E+03  3.201353E+04
        53   8  6.909632E+05  1.826004E+05  1.785471E+05 -2.088187E+04  2.273431E+03  2.822353E+04
        53   9  6.055572E+05  1.616022E+05  1.566316E+05 -4.688260E+04 -2.184782E+02  2.432519E+04
        53  10 -8.757743E+05 -2.033051E+05 -1.848358E+05 -4.743764E+04 -3.563733E-10 -4.629072E-10
        53  11 -7.904450E+05 -1.831869E+05 -1.688936E+05 -2.143251E+04  5.961213E-10  6.527206E-10
        53  12 -7.040328E+05 -1.618609E+05 -1.510189E+05 -4.732512E+04  9.474950E-10 -1.018035E-10
        53  13 -4.946583E+04  7.854833E+02  8.848735E+03 -4.710468E+04 -3.228046E-09 -1.029793E-09
        53  14 -4.999368E+04 -2.741421E+02  4.844769E+03 -2.115736E+04 -3.307306E-09  3.146032E-10
        53  15 -4.943527E+04 -1.143901E+02  2.820503E+03 -4.710398E+04  3.637638E-09 -3.488881E-10
        53  16  7.774722E+05  2.048275E+05  2.024866E+05 -4.677136E+04  6.574882E-10 -8.938602E-10
        53  17  6.909630E+05  1.825996E+05  1.785456E+05 -2.088192E+04 -1.854140E-09  5.586637E-11
        53  18  6.055570E+05  1.616016E+05  1.566305E+05 -4.688260E+04 -2.841954E-10 -1.368302E-10
        53  19 -8.757739E+05 -2.033040E+05 -1.848337E+05 -4.743740E+04 -9.409468E+03 -3.202286E+04
        53  20 -7.904448E+05 -1.831860E+05 -1.688920E+05 -2.143235E+04 -7.063513E+03 -2.823012E+04
        53  21 -7.040326E+05 -1.618602E+05 -1.510178E+05 -4.732503E+04 -4.712140E+03 -2.432886E+04
        53  22 -4.946550E+04  7.865976E+02  8.850756E+03 -4.710449E+04 -7.086565E+03 -3.201820E+04
        53  23 -4.999345E+04 -2.732807E+02  4.846307E+03 -2.115725E+04 -4.669893E+03 -2.822683E+04
        53  24 -4.943511E+04 -1.137533E+02  2.821625E+03 -4.710394E+04 -2.248124E+03 -2.432703E+04
        53  25  7.774725E+05  2.048286E+05  2.024886E+05 -4.677124E+04 -4.760582E+03 -3.201353E+04
        53  26  6.909632E+05  1.826004E+05  1.785471E+05 -2.088187E+04 -2.273431E+03 -2.822353E+04
        53  27  6.055572E+05  1.616022E+05  1.566316E+05 -4.688260E+04  2.184782E+02 -2.432519E+04
        54   1 -6.112382E+05 -1.386691E+05 -1.293875E+05 -4.710679E+04  4.234440E+03  2.203789E+04
        54   2 -5.253807E+05 -1.175364E+05 -1.104476E+05 -2.106429E+04  3.671270E+03  1.813201E+04
        54   3 -4.392778E+05 -9.626434E+04 -9.107821E+04 -4.696836E+04  3.104697E+03  1.421907E+04
        54   4 -4.959404E+04  6.720384E+00  2.125649E+03 -4.711525E+04  1.802183E+03  2.203685E+04
        54   5 -4.970386E+04 -4.974762E+01  1.145621E+03 -2.114318E+04  1.233988E+03  1.813190E+04
        54   6 -4.957445E+04  3.446332E+01  5.986803E+02 -4.711525E+04  6.624666E+02  1.421991E+04
        54   7  5.123410E+05  1.386602E+05  1.336173E+05 -4.712370E+04 -6.322632E+02  2.203582E+04
        54   8  4.261815E+05  1.174208E+05  1.127234E+05 -2.122212E+04 -1.205153E+03  1.813179E+04
        54   9  3.402688E+05  9.632243E+04  9.226516E+04 -4.726220E+04 -1.781289E+03  1.422076E+04
        54  10 -6.112384E+05 -1.386697E+05 -1.293885E+05 -4.710686E+04  4.411043E-10 -2.948760E-10
        54  11 -5.253808E+05 -1.175368E+05 -1.104483E+05 -2.106434E+04  2.231981E-09  5.116859E-10
        54  12 -4.392779E+05 -9.626456E+04 -9.107861E+04 -4.696840E+04  5.814662E-09  7.537640E-10
        54  13 -4.959418E+04  6.198046E+00  2.124730E+03 -4.711528E+04  1.496593E-11 -3.288369E-10
        54  14 -4.970395E+04 -5.010106E+01  1.145001E+03 -2.114320E+04  2.720140E-09 -2.375632E-10
        54  15 -4.957450E+04  3.424607E+01  5.982995E+02 -4.711526E+04 -1.638779E-09  1.931169E-10
        54  16  5.123409E+05  1.386596E+05  1.336164E+05 -4.712369E+04  2.440526E-09 -5.897357E-10
        54  17  4.261814E+05  1.174205E+05  1.127228E+05 -2.122210E+04 -3.041766E-09 -3.956635E-10
        54  18  3.402687E+05  9.632222E+04  9.226477E+04 -4.726218E+04 -2.132980E-09  4.435091E-10
        54  19 -6.112382E+05 -1.386691E+05 -1.293875E+05 -4.710679E+04 -4.234440E+03 -2.203789E+04
        54  20 -5.253807E+05 -1.175364E+05 -1.104476E+05 -2.106429E+04 -3.671270E+03 -1.813201E+04
        54  21 -4.392778E+05 -9.626434E+04 -9.107821E+04 -4.696836E+04 -3.104697E+03 -1.421907E+04
        54  22 -4.959404E+04  6.720384E+00  2.125649E+03 -4.711525E+04 -1.802183E+03 -2.203685E+04
        54  23 -4.970386E+04 -4.974762E+01  1.145621E+03 -2.114318E+04 -1.233988E+03 -1.813190E+04
        54  24 -4.957445E+04  3.446332E+01  5.986803E+02 -4.711525E+04 -6.624666E+02 -1.421991E+04
        54  25  5.123410E+05  1.386602E+05  1.336173E+05 -4.712370E+04  6.322632E+02 -2.203582E+04
        54  26  4.261815E+05  1.174208E+05  1.127234E+05 -2.122212E+04  1.205153E+03 -1.813179E+04
        54  27  3.402688E+05  9.632243E+04  9.226516E+04 -4.726220E+04  1.781289E+03 -1.422076E+04
        55   1 -3.462754E+05 -7.317436E+04 -6.894727E+04 -4.699636E+04  3.013311E+03  1.193960E+04
        55   2 -2.602079E+05 -5.198570E+04 -4.936229E+04 -2.103392E+04  2.990875E+03  8.025514E+03
        55   3 -1.741796E+05 -3.074788E+04 -2.976471E+04 -4.704509E+04  2.966965E+03  4.113652E+03
        55   4 -4.962105E+04  3.642942E+01  3.823837E+02 -4.712156E+04  5.713216E+02  1.194090E+04
        55   5 -4.959424E+04  2.515398E+01  3.943900E+01 -2.113529E+04  5.501097E+02  8.027216E+03
        55   6 -4.961237E+04  6.362455E+01 -2.910729E+02 -4.712155E+04  5.274266E+02  4.115783E+03
        55   7  2.471144E+05  7.324098E+04  6.970607E+04 -4.724680E+04 -1.871828E+03  1.194220E+04
        55   8  1.610603E+05  5.203285E+04  4.943816E+04 -2.123670E+04 -1.891479E+03  8.028919E+03
        55   9  7.496918E+04  3.087402E+04  2.918151E+04 -4.719803E+04 -1.912598E+03  4.117915E+03
        55  10 -3.462754E+05 -7.317452E+04 -6.894755E+04 -4.699639E+04 -4.963136E-09  5.291662E-10
        55  11 -2.602080E+05 -5.198577E+04 -4.936243E+04 -2.103394E+04 -4.826976E-09  2.000328E-11
        55  12 -1.741797E+05 -3.074790E+04 -2.976476E+04 -4.704510E+04  2.095447E-09 -1.214619E-09
        55  13 -4.962109E+04  3.627622E+01  3.821151E+02 -4.712156E+04 -1.060784E-09  1.375071E-09
        55  14 -4.959426E+04  2.508470E+01  3.931734E+01 -2.113530E+04 -4.255704E-10  8.820094E-10
        55  15 -4.961238E+04  6.360629E+01 -2.911053E+02 -4.712155E+04  2.368275E-09 -1.926829E-09
        55  16  2.471144E+05  7.324083E+04  6.970580E+04 -4.724678E+04  4.540326E-09  6.904410E-10
        55  17  1.610603E+05  5.203278E+04  4.943803E+04 -2.123668E+04  1.827755E-09  2.301849E-10
        55  18  7.496917E+04  3.087400E+04  2.918147E+04 -4.719802E+04 -1.491484E-09 -7.213395E-10
        55  19 -3.462754E+05 -7.317436E+04 -6.894727E+04 -4.699636E+04 -3.013311E+03 -1.193960E+04
        55  20 -2.602079E+05 -5.198570E+04 -4.936229E+04 -2.103392E+04 -2.990875E+03 -8.025514E+03
        55  21 -1.741796E+05 -3.074788E+04 -2.976471E+04 -4.704509E+04 -2.966965E+03 -4.113652E+03
        55  22 -4.962105E+04  3.642942E+01  3.823837E+02 -4.712156E+04 -5.713216E+02 -1.194090E+04
        55  23 -4.959424E+04  2.515398E+01  3.943900E+01 -2.113529E+04 -5.501097E+02 -8.027216E+03
        55  24 -4.961237E+04  6.362455E+01 -2.910729E+02 -4.712155E+04 -5.274266E+02 -4.115783E+03
        55  25  2.471144E+05  7.324098E+04  6.970607E+04 -4.724680E+04  1.871828E+03 -1.194220E+04
        55  26  1.610603E+05  5.203285E+04  4.943816E+04 -2.123670E+04  1.891479E+03 -8.028919E+03
        55  27  7.496918E+04  3.087402E+04  2.918151E+04 -4.719803E+04  1.912598E+03 -4.117915E+03
        56   1 -8.110570E+04 -7.625369E+03 -7.603627E+03 -4.715497E+04  3.050481E+03  1.827613E+03
        56   2  5.070859E+03  1.355106E+04  1.181881E+04 -2.117375E+04  3.507239E+03 -2.082321E+03
        56   3  9.104477E+04  3.453568E+04  3.087220E+04 -4.717199E+04  3.964490E+03 -5.937014E+03
        56   4 -4.964681E+04  9.112089E+01 -4.819565E+02 -4.712309E+04  5.938266E+02  1.829863E+03
        56   5 -4.953953E+04  6.705011E+01 -9.894235E+02 -2.113333E+04  1.084834E+03 -2.080223E+03
        56   6 -4.964908E+04 -1.546431E+02 -1.889755E+03 -4.712331E+04  1.576271E+03 -5.935039E+03
        56   7 -1.818699E+04  7.807545E+03  6.639673E+03 -4.709121E+04 -1.862951E+03  1.832113E+03
        56   8 -1.041472E+05 -1.341717E+04 -1.379784E+04 -2.109291E+04 -1.337360E+03 -2.078126E+03
        56   9 -1.903247E+05 -3.484636E+04 -3.465303E+04 -4.707463E+04 -8.114101E+02 -5.933065E+03
        56  10 -8.110571E+04 -7.625375E+03 -7.603651E+03 -4.715497E+04 -7.102998E-10  2.278776E-10
        56  11  5.070845E+03  1.355105E+04  1.181878E+04 -2.117374E+04 -1.089963E-09  5.499127E-10
        56  12  9.104475E+04  3.453564E+04  3.087210E+04 -4.717197E+04  2.530479E-09  1.825775E-10
        56  13 -4.964681E+04  9.111720E+01 -4.819635E+02 -4.712309E+04 -2.170798E-09 -1.282381E-09
        56  14 -4.953953E+04  6.704515E+01 -9.894339E+02 -2.113332E+04 -9.964807E-10 -9.223031E-10
        56  15 -4.964910E+04 -1.546815E+02 -1.889826E+03 -4.712330E+04  1.464429E-09  7.738638E-10
        56  16 -1.818699E+04  7.807541E+03  6.639660E+03 -4.709121E+04  1.382783E-09  2.809525E-10
        56  17 -1.041472E+05 -1.341717E+04 -1.379785E+04 -2.109291E+04  1.260556E-09 -1.431666E-09
        56  18 -1.903247E+05 -3.484640E+04 -3.465309E+04 -4.707463E+04 -2.276792E-10  3.117104E-10
        56  19 -8.110570E+04 -7.625369E+03 -7.603627E+03 -4.715497E+04 -3.050481E+03 -1.827613E+03
        56  20  5.070859E+03  1.355106E+04  1.181881E+04 -2.117375E+04 -3.507239E+03  2.082321E+03
        56  21  9.104477E+04  3.453568E+04  3.087220E+04 -4.717199E+04 -3.964490E+03  5.937014E+03
        56  22 -4.964681E+04  9.112089E+01 -4.819565E+02 -4.712309E+04 -5.938266E+02 -1.829863E+03
        56  23 -4.953953E+04  6.705011E+01 -9.894235E+02 -2.113333E+04 -1.084834E+03  2.080223E+03
        56  24 -4.964908E+04 -1.546431E+02 -1.889755E+03 -4.712331E+04 -1.576271E+03  5.935039E+03
        56  25 -1.818699E+04  7.807545E+03  6.639673E+03 -4.709121E+04  1.862951E+03 -1.832113E+03
        56  26 -1.041472E+05 -1.341717E+04 -1.379784E+04 -2.109291E+04  1.337360E+03  2.078126E+03
        56  27 -1.903247E+05 -3.484636E+04 -3.465303E+04 -4.707463E+04  8.114101E+02  5.933065E+03
        57   1  1.839867E+05  5.798948E+04  5.261096E+04 -4.767385E+04  4.638071E+03 -8.339548E+03
        57   2  2.705176E+05  7.926020E+04  7.077982E+04 -2.108027E+04  6.191030E+03 -1.215766E+04
        57   3  3.561331E+05  9.764715E+04  8.721508E+04 -4.641990E+04  7.746772E+03 -1.501705E+04
        57   4 -4.983810E+04  2.146117E+02 -2.454084E+03 -4.711274E+04  1.955810E+03 -8.337578E+03
        57   5 -4.933133E+04  2.967384E+02 -4.234066E+03 -2.114605E+04  4.106067E+03 -1.215676E+04
        57   6 -4.985139E+04 -2.609065E+03 -8.162915E+03 -4.711432E+04  6.258896E+03 -1.501698E+04
        57   7 -2.836126E+05 -5.756415E+04 -5.752286E+04 -4.655182E+04 -7.254465E+02 -8.335612E+03
        57   8 -3.690861E+05 -7.867400E+04 -7.925493E+04 -2.121178E+04  2.022172E+03 -1.215586E+04
        57   9 -4.556842E+05 -1.028770E+05 -1.035522E+05 -4.780826E+04  4.771986E+03 -1.501691E+04
        57  10  1.839866E+05  5.798940E+04  5.261079E+04 -4.767382E+04  1.734383E-09 -1.412781E-09
        57  11  2.705176E+05  7.926003E+04  7.077947E+04 -2.108021E+04 -1.118878E-09 -3.534538E-10
        57  12  3.561330E+05  9.764689E+04  8.721455E+04 -4.641981E+04  1.625920E-09 -2.332453E-10
        57  13 -4.983812E+04  2.145360E+02 -2.454221E+03 -4.711272E+04 -1.074721E-09  1.806483E-10
        57  14 -4.933138E+04  2.965751E+02 -4.234375E+03 -2.114601E+04  1.144488E-09 -2.360270E-10
        57  15 -4.985149E+04 -2.609317E+03 -8.163412E+03 -4.711425E+04 -1.423355E-10  2.490018E-10
        57  16 -2.836126E+05 -5.756423E+04 -5.752299E+04 -4.655183E+04 -4.154890E-11  9.141472E-10
        57  17 -3.690861E+05 -7.867416E+04 -7.925522E+04 -2.121176E+04 -1.007449E-10  5.450463E-10
        57  18 -4.556843E+05 -1.028773E+05 -1.035527E+05 -4.780820E+04 -3.316449E-10  3.163753E-10
        57  19  1.839867E+05  5.798948E+04  5.261096E+04 -4.767385E+04 -4.638071E+03  8.339548E+03
        57  20  2.705176E+05  7.926020E+04  7.077982E+04 -2.108027E+04 -6.191030E+03  1.215766E+04
        57  21  3.561331E+05  9.764715E+04  8.721508E+04 -4.641990E+04 -7.746772E+03  1.501705E+04
        57  22 -4.983810E+04  2.146117E+02 -2.454084E+03 -4.711274E+04 -1.955810E+03  8.337578E+03
        57  23 -4.933133E+04  2.967384E+02 -4.234066E+03 -2.114605E+04 -4.106067E+03  1.215676E+04
        57  24 -4.985139E+04 -2.609065E+03 -8.162915E+03 -4.711432E+04 -6.258896E+03  1.501698E+04
        57  25 -2.836126E+05 -5.756415E+04 -5.752286E+04 -4.655182E+04  7.254465E+02  8.335612E+03
        57  26 -3.690861E+05 -7.867400E+04 -7.925493E+04 -2.121178E+04 -2.022172E+03  1.215586E+04
        57  27 -4.556842E+05 -1.028770E+05 -1.035522E+05 -4.780826E+04 -4.771986E+03  1.501691E+04
        58   1  4.475248E+05  1.248452E+05  1.068208E+05 -5.141457E+04  1.436588E+04 -1.944471E+04
        58   2  5.375311E+05  1.473201E+05  1.208072E+05 -1.793276E+04  1.284138E+04 -2.168202E+04
        58   3  6.198905E+05  1.373729E+05  1.277330E+05 -3.582522E+04  1.131481E+04 -7.302274E+03
        58   4 -5.174739E+04  1.633166E+03 -1.007103E+04 -4.698974E+04  7.775896E+03 -1.944321E+04
        58   5 -4.702891E+04  2.986290E+03 -1.648171E+04 -2.129947E+04  1.662128E+04 -2.168374E+04
        58   6 -5.177197E+04 -2.989879E+04 -3.715976E+04 -4.698722E+04  2.546449E+04 -7.300227E+03
        58   7 -5.507898E+05 -1.215964E+05 -1.269797E+05 -4.256846E+04  1.191174E+03 -1.944181E+04
        58   8 -6.312744E+05 -1.413718E+05 -1.537940E+05 -2.466299E+04  2.039763E+04 -2.168549E+04
        58   9 -7.230233E+05 -1.972034E+05 -2.020849E+05 -5.813714E+04  3.959890E+04 -7.298688E+03
        58  10  4.475244E+05  1.248447E+05  1.068197E+05 -5.141435E+04  8.532031E-10 -6.014164E-11
        58  11  5.375307E+05  1.473195E+05  1.208060E+05 -1.793254E+04 -8.387537E-10  3.501938E-10
        58  12  6.198903E+05  1.373728E+05  1.277327E+05 -3.582515E+04 -3.868539E-11  2.776576E-10
        58  13 -5.174756E+04  1.632744E+03 -1.007186E+04 -4.698962E+04 -3.198384E-09  8.619664E-10
        58  14 -4.702933E+04  2.985711E+03 -1.648312E+04 -2.129918E+04 -2.154350E-09  2.130693E-10
        58  15 -5.177269E+04 -2.989902E+04 -3.716108E+04 -4.698707E+04  2.440223E-09 -2.634666E-11
        58  16 -5.507899E+05 -1.215968E+05 -1.269804E+05 -4.256844E+04 -1.439668E-09  5.082824E-10
        58  17 -6.312749E+05 -1.413724E+05 -1.537957E+05 -2.466263E+04  6.290103E-10  1.699182E-10
        58  18 -7.230250E+05 -1.972038E+05 -2.020879E+05 -5.813691E+04  1.864385E-09  1.742812E-10
        58  19  4.475248E+05  1.248452E+05  1.068208E+05 -5.141457E+04 -1.436588E+04  1.944471E+04
        58  20  5.375311E+05  1.473201E+05  1.208072E+05 -1.793276E+04 -1.284138E+04  2.168202E+04
        58  21  6.198905E+05  1.373729E+05  1.277330E+05 -3.582522E+04 -1.131481E+04  7.302274E+03
        58  22 -5.174739E+04  1.633166E+03 -1.007103E+04 -4.698974E+04 -7.775896E+03  1.944321E+04
        58  23 -4.702891E+04  2.986290E+03 -1.648171E+04 -2.129947E+04 -1.662128E+04  2.168374E+04
        58  24 -5.177197E+04 -2.989879E+04 -3.715976E+04 -4.698722E+04 -2.546449E+04  7.300227E+03
        58  25 -5.507898E+05 -1.215964E+05 -1.269797E+05 -4.256846E+04 -1.191174E+03  1.944181E+04
        58  26 -6.312744E+05 -1.413718E+05 -1.537940E+05 -2.466299E+04 -2.039763E+04  2.168549E+04
        58  27 -7.230233E+05 -1.972034E+05 -2.020849E+05 -5.813714E+04 -3.959890E+04  7.298688E+03
        59   1  9.222343E+05  2.899472E+06  8.871042E+05 -9.753333E+05  3.577233E+04  2.450855E+05
        59   2  6.348983E+05  2.005423E+06  5.519920E+05 -8.596336E+05  1.100548E+05  7.417344E+04
        59   3  4.119491E+05  1.149106E+06  3.437720E+05 -9.264415E+05  1.004576E+05 -9.680538E+04
        59   4  7.130767E+04 -5.412591E+05  7.095567E+04 -9.203916E+05  3.692620E+04  3.959537E+04
        59   5  2.280727E+04 -5.461546E+05  4.239057E+04 -8.292942E+05  1.104192E+05  1.836479E+04
        59   6  1.295679E+04 -5.398217E+05  3.714535E+04 -9.207154E+05  9.988683E+04 -3.180469E+03
        59   7 -7.804384E+05 -3.971050E+06 -7.458589E+05 -8.657330E+05  3.804772E+04 -1.647661E+05
        59   8 -5.896791E+05 -3.091518E+06 -4.675269E+05 -7.990692E+05  1.107790E+05 -3.721974E+04
        59   9 -3.861912E+05 -2.225958E+06 -2.695619E+05 -9.149992E+05  9.931679E+04  9.019706E+04
        59  10  9.222168E+05  2.899407E+06  8.869893E+05 -9.753404E+05 -9.722278E-12 -2.301649E-12
        59  11  6.348839E+05  2.005414E+06  5.519589E+05 -8.596402E+05 -2.742420E-10 -4.005408E-09
        59  12  4.119358E+05  1.149093E+06  3.437355E+05 -9.264337E+05  7.108716E-10  2.936847E-09
        59  13  7.130579E+04 -5.412612E+05  7.095015E+04 -9.203928E+05  3.545648E-09  2.051701E-09
        59  14  2.279409E+04 -5.461582E+05  4.236702E+04 -8.292958E+05 -6.381413E-10 -2.515955E-09
        59  15  1.294608E+04 -5.398244E+05  3.712659E+04 -9.207151E+05 -1.199574E-09  7.646227E-10
        59  16 -7.804473E+05 -3.971080E+06 -7.459129E+05 -8.657280E+05 -5.542588E-10  1.341365E-09
        59  17 -5.896926E+05 -3.091523E+06 -4.675525E+05 -7.990658E+05  5.077258E-09  2.135330E-10
        59  18 -3.862040E+05 -2.225970E+06 -2.695959E+05 -9.150064E+05 -3.470776E-10  4.897726E-10
        59  19  9.222343E+05  2.899472E+06  8.871042E+05 -9.753333E+05 -3.577233E+04 -2.450855E+05
        59  20  6.348983E+05  2.005423E+06  5.519920E+05 -8.596336E+05 -1.100548E+05 -7.417344E+04
        59  21  4.119491E+05  1.149106E+06  3.437720E+05 -9.264415E+05 -1.004576E+05  9.680538E+04
        59  22  7.130767E+04 -5.412591E+05  7.095567E+04 -9.203916E+05 -3.692620E+04 -3.959537E+04
        59  23  2.280727E+04 -5.461546E+05  4.239057E+04 -8.292942E+05 -1.104192E+05 -1.836479E+04
        59  24  1.295679E+04 -5.398217E+05  3.714535E+04 -9.207154E+05 -9.988683E+04  3.180469E+03
        59  25 -7.804384E+05 -3.971050E+06 -7.458589E+05 -8.657330E+05 -3.804772E+04  1.647661E+05
        59  26 -5.896791E+05 -3.091518E+06 -4.675269E+05 -7.990692E+05 -1.107790E+05  3.721974E+04
        59  27 -3.861912E+05 -2.225958E+06 -2.695619E+05 -9.149992E+05 -9.931679E+04 -9.019706E+04
        60   1  2.781113E+05  5.789942E+05  2.420925E+05 -9.310703E+05  6.743074E+04 -9.640240E+04
        60   2  7.068820E+04 -2.981138E+05  9.465373E+04 -8.268869E+05  1.825911E+04 -1.251971E+05
        60   3 -1.203075E+05 -1.168790E+06 -3.055539E+04 -9.104986E+05 -3.196980E+04 -1.539686E+05
        60   4  1.352451E+04 -5.408265E+05  3.937225E+04 -9.218628E+05  6.687717E+04 -9.652932E+03
        60   5  1.339381E+04 -5.434201E+05  5.345835E+04 -8.279207E+05  1.768775E+04 -3.661891E+04
        60   6  2.940176E+04 -5.406725E+05  8.848111E+04 -9.217651E+05 -3.255975E+04 -6.359966E+04
        60   7 -2.511284E+05 -1.659411E+06 -1.633692E+05 -9.126697E+05  6.632553E+04  7.694449E+04
        60   8 -4.389951E+04 -7.886502E+05  1.229059E+04 -8.289540E+05  1.711596E+04  5.192537E+04
        60   9  1.790927E+05  8.784411E+04  2.075309E+05 -9.330425E+05 -3.315260E+04  2.685865E+04
        60  10  2.781039E+05  5.789831E+05  2.420666E+05 -9.310651E+05  3.622169E-10  1.023979E-08
        60  11  7.068364E+04 -2.981307E+05  9.462365E+04 -8.268851E+05  4.019573E-09 -9.195683E-09
        60  12 -1.203150E+05 -1.168816E+06 -3.060197E+04 -9.105026E+05  2.773415E-09 -1.508667E-08
        60  13  1.351969E+04 -5.408278E+05  3.936368E+04 -9.218623E+05 -8.666619E-10  2.267819E-09
        60  14  1.339312E+04 -5.434216E+05  5.345525E+04 -8.279202E+05 -6.673852E-09 -2.788787E-09
        60  15  2.939953E+04 -5.406771E+05  8.847150E+04 -9.217668E+05 -5.121471E-09  1.281572E-09
        60  16 -2.511348E+05 -1.659418E+06 -1.633887E+05 -9.126738E+05  3.156167E-11 -8.992286E-09
        60  17 -4.390056E+04 -7.886531E+05  1.228496E+04 -8.289547E+05 -1.246980E-09  3.596592E-09
        60  18  1.790913E+05  8.784304E+04  2.075274E+05 -9.330418E+05  4.845674E-09  1.860575E-08
        60  19  2.781113E+05  5.789942E+05  2.420925E+05 -9.310703E+05 -6.743074E+04  9.640240E+04
        60  20  7.068820E+04 -2.981138E+05  9.465373E+04 -8.268869E+05 -1.825911E+04  1.251971E+05
        60  21 -1.203075E+05 -1.168790E+06 -3.055539E+04 -9.104986E+05  3.196980E+04  1.539686E+05
        60  22  1.352451E+04 -5.408265E+05  3.937225E+04 -9.218628E+05 -6.687717E+04  9.652932E+03
        60  23  1.339381E+04 -5.434201E+05  5.345835E+04 -8.279207E+05 -1.768775E+04  3.661891E+04
        60  24  2.940176E+04 -5.406725E+05  8.848111E+04 -9.217651E+05  3.255975E+04  6.359966E+04
        60  25 -2.511284E+05 -1.659411E+06 -1.633692E+05 -9.126697E+05 -6.632553E+04 -7.694449E+04
        60  26 -4.389951E+04 -7.886502E+05  1.229059E+04 -8.289540E+05 -1.711596E+04 -5.192537E+04
        60  27  1.790927E+05  8.784411E+04  2.075309E+05 -9.330425E+05  3.315260E+04 -2.685865E+04
        61   1 -2.570514E+05 -1.723101E+06 -1.077179E+05 -9.324444E+05 -6.557045E+04 -1.749228E+05
        61   2 -3.972308E+05 -2.616647E+06 -2.129045E+05 -7.084935E+05 -8.366795E+04 -1.510248E+05
        61   3 -3.458726E+05 -3.466010E+06 -2.861625E+05 -6.676358E+05 -2.896991E+04 -1.268515E+05
        61   4  2.659389E+04 -5.274886E+05  1.143521E+05 -9.209050E+05 -6.618731E+04 -7.892167E+04
        61   5  9.977528E+04 -5.608060E+05  2.044957E+05 -8.284496E+05 -8.341820E+04 -1.841549E+05
        61   6  3.865285E+05 -5.285568E+05  4.161687E+05 -9.188781E+05 -2.797454E+04 -2.890920E+05
        61   7  3.101627E+05  6.695324E+05  3.363966E+05 -9.093398E+05 -6.679984E+04  1.726010E+04
        61   8  5.965685E+05  1.499101E+06  6.216864E+05 -9.488035E+05 -8.315616E+04 -2.173923E+05
        61   9  1.118545E+06  2.417023E+06  1.118021E+06 -1.171304E+06 -2.685032E+04 -4.520976E+05
        61  10 -2.570643E+05 -1.723135E+06 -1.077837E+05 -9.324536E+05  4.402324E-09  1.948635E-08
        61  11 -3.972445E+05 -2.616674E+06 -2.129607E+05 -7.085037E+05  3.468378E-09 -1.758142E-09
        61  12 -3.458779E+05 -3.466028E+06 -2.861945E+05 -6.676387E+05  9.075116E-11 -1.128083E-08
        61  13  2.658751E+04 -5.274965E+05  1.143321E+05 -9.209092E+05 -1.825605E-09  2.245902E-09
        61  14  9.975867E+04 -5.608443E+05  2.044187E+05 -8.284619E+05 -8.313510E-09 -2.549322E-09
        61  15  3.865052E+05 -5.286468E+05  4.160100E+05 -9.188846E+05  1.828144E-10  1.029979E-09
        61  16  3.101579E+05  6.695309E+05  3.363876E+05 -9.093389E+05  4.003304E-09 -1.812006E-08
        61  17  5.965484E+05  1.499048E+06  6.215847E+05 -9.488181E+05  3.886871E-09 -3.369720E-09
        61  18  1.118489E+06  2.416804E+06  1.117637E+06 -1.171314E+06  2.164098E-09  1.450875E-08
        61  19 -2.570514E+05 -1.723101E+06 -1.077179E+05 -9.324444E+05  6.557045E+04  1.749228E+05
        61  20 -3.972308E+05 -2.616647E+06 -2.129045E+05 -7.084935E+05  8.366795E+04  1.510248E+05
        61  21 -3.458726E+05 -3.466010E+06 -2.861625E+05 -6.676358E+05  2.896991E+04  1.268515E+05
        61  22  2.659389E+04 -5.274886E+05  1.143521E+05 -9.209050E+05  6.618731E+04  7.892167E+04
        61  23  9.977528E+04 -5.608060E+05  2.044957E+05 -8.284496E+05  8.341820E+04  1.841549E+05
        61  24  3.865285E+05 -5.285568E+05  4.161687E+05 -9.188781E+05  2.797454E+04  2.890920E+05
        61  25  3.101627E+05  6.695324E+05  3.363966E+05 -9.093398E+05  6.679984E+04 -1.726010E+04
        61  26  5.965685E+05  1.499101E+06  6.216864E+05 -9.488035E+05  8.315616E+04  2.173923E+05
        61  27  1.118545E+06  2.417023E+06  1.118021E+06 -1.171304E+06  2.685032E+04  4.520976E+05
        62   1 -3.255900E+06 -1.242204E+06 -6.864825E+05 -1.139207E+06 -2.017831E+05 -2.444680E+04
        62   2 -3.039999E+06 -1.189674E+06 -5.389485E+05 -1.069085E+06 -1.343859E+05  1.226245E+05
        62   3 -2.797261E+06 -1.150767E+06 -4.658940E+05 -1.045957E+06 -3.749325E+04  1.921466E+05
        62   4 -2.272083E+05 -1.443298E+05  8.643672E+04 -3.510140E+05  3.857240E+04  6.657766E+04
        62   5 -2.579771E+05 -1.837389E+05  3.999380E+04 -3.147849E+05 -2.236160E+04  1.649105E+05
        62   6 -2.364339E+05 -2.113197E+05  2.117414E+04 -3.255484E+05 -5.391608E+04  1.858636E+05
        62   7  2.810471E+06  9.539866E+05  8.588386E+05  4.406086E+05  2.802130E+05  1.580454E+05
        62   8  2.531990E+06  8.227831E+05  6.185703E+05  4.426154E+05  9.020518E+04  2.073928E+05
        62   9  2.331295E+06  7.287690E+05  5.079824E+05  3.976491E+05 -7.041230E+04  1.795528E+05
        62  10 -3.255944E+06 -1.242215E+06 -6.865606E+05 -1.139211E+06  2.840584E-09  1.417174E-09
        62  11 -3.040022E+06 -1.189695E+06 -5.390108E+05 -1.069072E+06 -5.282717E-09 -5.471330E-09
        62  12 -2.797272E+06 -1.150807E+06 -4.659660E+05 -1.045951E+06 -1.259114E-08 -2.890430E-09
        62  13 -2.272111E+05 -1.443349E+05  8.642559E+04 -3.510161E+05 -6.870876E-10 -1.571475E-09
        62  14 -2.579849E+05 -1.837683E+05  3.994176E+04 -3.147820E+05 -5.994051E-09 -2.574748E-09
        62  15 -2.364463E+05 -2.113576E+05  2.110377E+04 -3.255404E+05 -1.880722E-09 -1.007075E-09
        62  16  2.810381E+06  9.539389E+05  8.586449E+05  4.405731E+05 -8.880804E-09 -5.822871E-09
        62  17  2.531970E+06  8.227347E+05  6.184743E+05  4.426003E+05 -4.038805E-09 -3.135831E-09
        62  18  2.331281E+06  7.287331E+05  5.079126E+05  3.976593E+05  3.348329E-09 -6.397667E-10
        62  19 -3.255900E+06 -1.242204E+06 -6.864825E+05 -1.139207E+06  2.017831E+05  2.444680E+04
        62  20 -3.039999E+06 -1.189674E+06 -5.389485E+05 -1.069085E+06  1.343859E+05 -1.226245E+05
        62  21 -2.797261E+06 -1.150767E+06 -4.658940E+05 -1.045957E+06  3.749325E+04 -1.921466E+05
        62  22 -2.272083E+05 -1.443298E+05  8.643672E+04 -3.510140E+05 -3.857240E+04 -6.657766E+04
        62  23 -2.579771E+05 -1.837389E+05  3.999380E+04 -3.147849E+05  2.236160E+04 -1.649105E+05
        62  24 -2.364339E+05 -2.113197E+05  2.117414E+04 -3.255484E+05  5.391608E+04 -1.858636E+05
        62  25  2.810471E+06  9.539866E+05  8.588386E+05  4.406086E+05 -2.802130E+05 -1.580454E+05
        62  26  2.531990E+06  8.227831E+05  6.185703E+05  4.426154E+05 -9.020518E+04 -2.073928E+05
        62  27  2.331295E+06  7.287690E+05  5.079824E+05  3.976491E+05  7.041230E+04 -1.795528E+05
        63   1 -2.659437E+06 -1.092833E+06 -4.398112E+05 -1.003378E+06 -4.777815E+04  1.803196E+05
        63   2 -2.462664E+06 -9.969996E+05 -3.962147E+05 -9.230774E+05 -3.851760E+04  1.759622E+05
        63   3 -2.230077E+06 -9.366570E+05 -3.572837E+05 -8.837920E+05 -2.681965E+04  1.650780E+05
        63   4 -2.380197E+05 -2.111511E+05  1.594999E+04 -3.280157E+05 -5.369570E+04  1.780105E+05
        63   5 -2.569687E+05 -1.956259E+05  8.311012E+03 -3.070011E+05 -5.525122E+04  1.695916E+05
        63   6 -2.380132E+05 -2.134408E+05  4.592573E+03 -3.270090E+05 -5.437658E+04  1.546580E+05
        63   7  2.189541E+06  6.710747E+05  4.714764E+05  3.498034E+05 -5.963830E+04  1.756923E+05
        63   8  1.953837E+06  6.062053E+05  4.126564E+05  3.111175E+05 -7.204866E+04  1.631971E+05
        63   9  1.758215E+06  5.101484E+05  3.663259E+05  2.314398E+05 -8.202804E+04  1.442024E+05
        63  10 -2.659449E+06 -1.092869E+06 -4.398766E+05 -1.003371E+06  3.584870E-09  1.759765E-09
        63  11 -2.462674E+06 -9.970332E+05 -3.962757E+05 -9.230719E+05  2.275008E-09 -1.574568E-09
        63  12 -2.230085E+06 -9.366864E+05 -3.573362E+05 -8.837884E+05 -1.563447E-09 -1.228137E-10
        63  13 -2.380313E+05 -2.111859E+05  1.588503E+04 -3.280080E+05 -1.210480E-09 -2.279851E-09
        63  14 -2.569797E+05 -1.956576E+05  8.251238E+03 -3.069936E+05 -2.566259E-09 -3.598185E-09
        63  15 -2.380228E+05 -2.134673E+05  4.542077E+03 -3.270022E+05 -1.637263E-09  8.944004E-10
        63  16  2.189529E+06  6.710406E+05  4.714117E+05  3.498118E+05 -3.072504E-09 -2.056504E-09
        63  17  1.953824E+06  6.061753E+05  4.125966E+05  3.111269E+05 -6.934583E-10 -7.616447E-10
        63  18  1.758202E+06  5.101243E+05  3.662742E+05  2.314493E+05  6.338816E-09  2.343481E-09
        63  19 -2.659437E+06 -1.092833E+06 -4.398112E+05 -1.003378E+06  4.777815E+04 -1.803196E+05
        63  20 -2.462664E+06 -9.969996E+05 -3.962147E+05 -9.230774E+05  3.851760E+04 -1.759622E+05
        63  21 -2.230077E+06 -9.366570E+05 -3.572837E+05 -8.837920E+05  2.681965E+04 -1.650780E+05
        63  22 -2.380197E+05 -2.111511E+05  1.594999E+04 -3.280157E+05  5.369570E+04 -1.780105E+05
        63  23 -2.569687E+05 -1.956259E+05  8.311012E+03 -3.070011E+05  5.525122E+04 -1.695916E+05
        63  24 -2.380132E+05 -2.134408E+05  4.592573E+03 -3.270090E+05  5.437658E+04 -1.546580E+05
        63  25  2.189541E+06  6.710747E+05  4.714764E+05  3.498034E+05  5.963830E+04 -1.756923E+05
        63  26  1.953837E+06  6.062053E+05  4.126564E+05  3.111175E+05  7.204866E+04 -1.631971E+05
        63  27  1.758215E+06  5.101484E+05  3.663259E+05  2.314398E+05  8.202804E+04 -1.442024E+05
        64   1 -2.089854E+06 -8.847617E+05 -3.315453E+05 -8.443382E+05 -2.462392E+04  1.547313E+05
        64   2 -1.893302E+06 -7.881343E+05 -2.938344E+05 -7.634590E+05 -1.841215E+04  1.383507E+05
        64   3 -1.660179E+06 -7.276261E+05 -2.560416E+05 -7.237775E+05 -1.201399E+04  1.214058E+05
        64   4 -2.380833E+05 -2.133245E+05  3.421143E+03 -3.272679E+05 -5.132283E+04  1.446483E+05
        64   5 -2.562645E+05 -1.950716E+05  1.810687E+03 -3.067145E+05 -4.604694E+04  1.279368E+05
        64   6 -2.377518E+05 -2.127545E+05  1.014069E+03 -3.273722E+05 -4.058501E+04  1.106618E+05
        64   7  1.617325E+06  4.584483E+05  3.382761E+05  1.912499E+05 -7.810731E+04  1.345332E+05
        64   8  1.383609E+06  3.982505E+05  2.973683E+05  1.511584E+05 -7.375986E+04  1.174935E+05
        64   9  1.186810E+06  3.023100E+05  2.580029E+05  6.988202E+04 -6.922605E+04  9.989156E+04
        64  10 -2.089862E+06 -8.847876E+05 -3.315915E+05 -8.443352E+05  1.576584E-08  8.711698E-09
        64  11 -1.893307E+06 -7.881549E+05 -2.938710E+05 -7.634569E+05 -4.347866E-10 -1.509786E-09
        64  12 -1.660183E+06 -7.276420E+05 -2.560696E+05 -7.237763E+05 -1.768860E-08 -1.126071E-08
        64  13 -2.380918E+05 -2.133477E+05  3.376883E+03 -3.272619E+05 -2.520377E-09  7.663468E-10
        64  14 -2.562712E+05 -1.950898E+05  1.775951E+03 -3.067097E+05 -3.208538E-09  2.574488E-09
        64  15 -2.377569E+05 -2.127681E+05  9.879662E+02 -3.273686E+05 -3.045097E-10  4.927328E-09
        64  16  1.617313E+06  4.584272E+05  3.382307E+05  1.912583E+05 -1.142175E-08 -6.664147E-09
        64  17  1.383600E+06  3.982342E+05  2.973322E+05  1.511653E+05  5.379652E-09 -4.350851E-09
        64  18  1.186802E+06  3.022980E+05  2.579752E+05  6.988759E+04  1.473360E-08  3.440407E-09
        64  19 -2.089854E+06 -8.847617E+05 -3.315453E+05 -8.443382E+05  2.462392E+04 -1.547313E+05
        64  20 -1.893302E+06 -7.881343E+05 -2.938344E+05 -7.634590E+05  1.841215E+04 -1.383507E+05
        64  21 -1.660179E+06 -7.276261E+05 -2.560416E+05 -7.237775E+05  1.201399E+04 -1.214058E+05
        64  22 -2.380833E+05 -2.133245E+05  3.421143E+03 -3.272679E+05  5.132283E+04 -1.446483E+05
        64  23 -2.562645E+05 -1.950716E+05  1.810687E+03 -3.067145E+05  4.604694E+04 -1.279368E+05
        64  24 -2.377518E+05 -2.127545E+05  1.014069E+03 -3.273722E+05  4.058501E+04 -1.106618E+05
        64  25  1.617325E+06  4.584483E+05  3.382761E+05  1.912499E+05  7.810731E+04 -1.345332E+05
        64  26  1.383609E+06  3.982505E+05  2.973683E+05  1.511584E+05  7.375986E+04 -1.174935E+05
        64  27  1.186810E+06  3.023100E+05  2.580029E+05  6.988202E+04  6.922605E+04 -9.989156E+04
        65   1 -1.519460E+06 -6.762430E+05 -2.297535E+05 -6.845674E+05 -8.444438E+03  1.112917E+05
        65   2 -1.322176E+06 -5.799390E+05 -1.917815E+05 -6.037229E+05 -2.053721E+03  9.404812E+04
        65   3 -1.088482E+06 -5.197822E+05 -1.537033E+05 -5.642724E+05  4.340832E+03  7.674814E+04
        65   4 -2.377217E+05 -2.126563E+05  7.326878E+02 -3.274343E+05 -3.696091E+04  1.005788E+05
        65   5 -2.558017E+05 -1.943703E+05  3.350139E+02 -3.067781E+05 -3.066458E+04  8.331385E+04
        65   6 -2.375048E+05 -2.122159E+05  1.120905E+02 -3.275317E+05 -2.436438E+04  6.599257E+04
        65   7  1.045738E+06  2.510827E+05  2.311628E+05  3.038465E+04 -6.554003E+04  8.984234E+04
        65   8  8.117731E+05  1.913067E+05  1.924159E+05 -9.356735E+03 -5.932794E+04  7.255990E+04
        65   9  6.142444E+05  9.542248E+04  1.539081E+05 -9.048557E+04 -5.311189E+04  5.522115E+04
        65  10 -1.519463E+06 -6.762563E+05 -2.297770E+05 -6.845666E+05  1.734638E-08  2.341177E-09
        65  11 -1.322179E+06 -5.799485E+05 -1.917982E+05 -6.037227E+05 -2.968263E-09 -2.647897E-09
        65  12 -1.088483E+06 -5.197885E+05 -1.537144E+05 -5.642727E+05 -1.401340E-08 -5.537577E-09
        65  13 -2.377259E+05 -2.126675E+05  7.111149E+02 -3.274313E+05 -2.540477E-09  4.569829E-09
        65  14 -2.558046E+05 -1.943781E+05  3.202060E+02 -3.067761E+05 -5.894341E-09  1.001584E-09
        65  15 -2.375066E+05 -2.122207E+05  1.027929E+02 -3.275305E+05 -1.959815E-09 -1.034530E-09
        65  16  1.045731E+06  2.510729E+05  2.311396E+05  3.038939E+04 -2.544576E-08 -1.068132E-08
        65  17  8.117679E+05  1.913001E+05  1.923994E+05 -9.353270E+03 -7.200857E-09 -4.849519E-09
        65  18  6.142406E+05  9.541845E+04  1.538970E+05 -9.048321E+04  8.610571E-09  2.134293E-09
        65  19 -1.519460E+06 -6.762430E+05 -2.297535E+05 -6.845674E+05  8.444438E+03 -1.112917E+05
        65  20 -1.322176E+06 -5.799390E+05 -1.917815E+05 -6.037229E+05  2.053721E+03 -9.404812E+04
        65  21 -1.088482E+06 -5.197822E+05 -1.537033E+05 -5.642724E+05 -4.340832E+03 -7.674814E+04
        65  22 -2.377217E+05 -2.126563E+05  7.326878E+02 -3.274343E+05  3.696091E+04 -1.005788E+05
        65  23 -2.558017E+05 -1.943703E+05  3.350139E+02 -3.067781E+05  3.066458E+04 -8.331385E+04
        65  24 -2.375048E+05 -2.122159E+05  1.120905E+02 -3.275317E+05  2.436438E+04 -6.599257E+04
        65  25  1.045738E+06  2.510827E+05  2.311628E+05  3.038465E+04  6.554003E+04 -8.984234E+04
        65  26  8.117731E+05  1.913067E+05  1.924159E+05 -9.356735E+03  5.932794E+04 -7.255990E+04
        65  27  6.142444E+05  9.542248E+04  1.539081E+05 -9.048557E+04  5.311189E+04 -5.522115E+04
        66   1 -9.474125E+05 -4.685268E+05 -1.272494E+05 -5.251159E+05  8.109694E+03  6.667882E+04
        66   2 -7.496409E+05 -3.724322E+05 -8.916187E+04 -4.442923E+05  1.468239E+04  4.943047E+04
        66   3 -5.155978E+05 -3.125066E+05 -5.113157E+04 -4.049695E+05  2.124215E+04  3.219471E+04
        66   4 -2.374831E+05 -2.121576E+05 -2.627965E-01 -3.275603E+05 -2.060498E+04  5.592579E+04
        66   5 -2.555387E+05 -1.939629E+05 -2.354572E+02 -3.068253E+05 -1.401415E+04  3.869076E+04
        66   6 -2.373787E+05 -2.119442E+05 -5.464569E+02 -3.276078E+05 -7.436298E+03  2.146837E+04
        66   7  4.729793E+05  4.425983E+04  1.272353E+05 -1.297934E+05 -4.935469E+04  4.515963E+04
        66   8  2.388199E+05 -1.547092E+04  8.868539E+04 -1.692564E+05 -4.273490E+04  2.794197E+04
        66   9  4.092082E+04 -1.113750E+05  5.003865E+04 -2.502140E+05 -3.612818E+04  1.073699E+04
        66  10 -9.474137E+05 -4.685316E+05 -1.272579E+05 -5.251163E+05 -1.138270E-09  1.069372E-09
        66  11 -7.496418E+05 -3.724349E+05 -8.916687E+04 -4.442929E+05  1.494696E-08  6.074240E-09
        66  12 -5.155986E+05 -3.125078E+05 -5.113436E+04 -4.049701E+05  3.192815E-08  9.734580E-09
        66  13 -2.374844E+05 -2.121611E+05 -6.936811E+00 -3.275593E+05 -9.474733E-10  4.546325E-10
        66  14 -2.555393E+05 -1.939646E+05 -2.386388E+02 -3.068248E+05  4.035246E-10  4.657652E-09
        66  15 -2.373789E+05 -2.119448E+05 -5.474268E+02 -3.276077E+05  7.296156E-09  8.424558E-09
        66  16  4.729761E+05  4.425699E+04  1.272269E+05 -1.297916E+05 -4.109491E-10 -1.585351E-09
        66  17  2.388177E+05 -1.547225E+04  8.868049E+04 -1.692554E+05 -1.135991E-08 -7.040598E-09
        66  18  4.091939E+04 -1.113755E+05  5.003598E+04 -2.502137E+05 -1.967321E-08 -1.000998E-08
        66  19 -9.474125E+05 -4.685268E+05 -1.272494E+05 -5.251159E+05 -8.109694E+03 -6.667882E+04
        66  20 -7.496409E+05 -3.724322E+05 -8.916187E+04 -4.442923E+05 -1.468239E+04 -4.943047E+04
        66  21 -5.155978E+05 -3.125066E+05 -5.113157E+04 -4.049695E+05 -2.124215E+04 -3.219471E+04
        66  22 -2.374831E+05 -2.121576E+05 -2.627964E-01 -3.275603E+05  2.060498E+04 -5.592579E+04
        66  23 -2.555387E+05 -1.939629E+05 -2.354572E+02 -3.068253E+05  1.401415E+04 -3.869076E+04
        66  24 -2.373787E+05 -2.119442E+05 -5.464569E+02 -3.276078E+05  7.436298E+03 -2.146837E+04
        66  25  4.729793E+05  4.425983E+04  1.272353E+05 -1.297934E+05  4.935469E+04 -4.515963E+04
        66  26  2.388199E+05 -1.547092E+04  8.868539E+04 -1.692564E+05  4.273490E+04 -2.794197E+04
        66  27  4.092082E+04 -1.113750E+05  5.003865E+04 -2.502140E+05  3.612818E+04 -1.073699E+04
        67   1 -3.743185E+05 -2.613142E+05 -2.476214E+04 -3.658211E+05  2.515586E+04  2.218710E+04
        67   2 -1.763313E+05 -1.653338E+05  1.302806E+04 -2.849704E+05  3.186270E+04  5.150032E+03
        67   3  5.785349E+04 -1.055271E+05  5.060503E+04 -2.456368E+05  3.846995E+04 -1.161801E+04
        67   4 -2.373976E+05 -2.119231E+05 -7.700587E+02 -3.276234E+05 -3.564320E+03  1.144678E+04
        67   5 -2.554367E+05 -1.938312E+05 -1.467094E+03 -3.068406E+05  3.583871E+03 -5.426350E+03
        67   6 -2.374205E+05 -2.120083E+05 -2.731269E+03 -3.275965E+05  1.063234E+04 -2.203039E+04
        67   7 -1.004537E+05 -1.625290E+05  2.322535E+04 -2.894169E+05 -3.229152E+04  7.038173E+02
        67   8 -3.345341E+05 -2.223274E+05 -1.595916E+04 -3.287078E+05 -2.469126E+04 -1.600136E+04
        67   9 -5.326012E+05 -3.184808E+05 -5.606732E+04 -4.095194E+05 -1.719117E+04 -3.243751E+04
        67  10 -3.743193E+05 -2.613149E+05 -2.476425E+04 -3.658216E+05 -1.670381E-08 -1.095162E-08
        67  11 -1.763324E+05 -1.653341E+05  1.302610E+04 -2.849705E+05 -1.056161E-08 -8.182177E-09
        67  12  5.785187E+04 -1.055276E+05  5.060200E+04 -2.456364E+05 -1.881458E-09 -2.322596E-09
        67  13 -2.373976E+05 -2.119232E+05 -7.703288E+02 -3.276234E+05  7.521106E-09  8.330460E-09
        67  14 -2.554367E+05 -1.938312E+05 -1.467173E+03 -3.068406E+05 -5.168411E-10  5.150717E-09
        67  15 -2.374208E+05 -2.120088E+05 -2.732393E+03 -3.275963E+05 -9.073344E-10  7.674704E-10
        67  16 -1.004548E+05 -1.625292E+05  2.322339E+04 -2.894169E+05  2.918572E-08  9.207962E-09
        67  17 -3.345349E+05 -2.223279E+05 -1.596079E+04 -3.287081E+05  1.557431E-08  5.856462E-09
        67  18 -5.326018E+05 -3.184820E+05 -5.606985E+04 -4.095199E+05  8.398353E-11 -5.778561E-10
        67  19 -3.743185E+05 -2.613142E+05 -2.476214E+04 -3.658211E+05 -2.515586E+04 -2.218710E+04
        67  20 -1.763313E+05 -1.653338E+05  1.302806E+04 -2.849704E+05 -3.186270E+04 -5.150032E+03
        67  21  5.785349E+04 -1.055271E+05  5.060503E+04 -2.456368E+05 -3.846995E+04  1.161801E+04
        67  22 -2.373976E+05 -2.119231E+05 -7.700587E+02 -3.276234E+05  3.564320E+03 -1.144678E+04
        67  23 -2.554367E+05 -1.938312E+05 -1.467094E+03 -3.068406E+05 -3.583871E+03  5.426350E+03
        67  24 -2.374205E+05 -2.120083E+05 -2.731269E+03 -3.275965E+05 -1.063234E+04  2.203039E+04
        67  25 -1.004537E+05 -1.625290E+05  2.322535E+04 -2.894169E+05  3.229152E+04 -7.038173E+02
        67  26 -3.345341E+05 -2.223274E+05 -1.595916E+04 -3.287078E+05  2.469126E+04  1.600136E+04
        67  27 -5.326012E+05 -3.184808E+05 -5.606732E+04 -4.095194E+05  1.719117E+04  3.243751E+04
        68   1  1.993363E+05 -5.439351E+04  7.645598E+04 -2.066428E+05  4.313306E+04 -2.120816E+04
        68   2  3.967196E+05  4.184951E+04  1.138797E+05 -1.251211E+05  4.695752E+04 -3.732599E+04
        68   3  6.301871E+05  1.013494E+05  1.525428E+05 -8.457801E+04  4.958705E+04 -5.023462E+04
        68   4 -2.376274E+05 -2.119601E+05 -3.651041E+03 -3.276329E+05  1.485787E+04 -3.178695E+04
        68   5 -2.553556E+05 -1.944106E+05 -6.728916E+03 -3.066469E+05  2.401270E+04 -4.591824E+04
        68   6 -2.381020E+05 -2.146675E+05 -1.279044E+04 -3.266614E+05  3.197259E+04 -5.683817E+04
        68   7 -6.743850E+05 -3.695070E+05 -8.376051E+04 -4.485422E+05 -1.339581E+04 -4.235775E+04
        68   8 -9.069844E+05 -4.306308E+05 -1.273514E+05 -4.879950E+05  1.093599E+03 -5.450083E+04
        68   9 -1.105614E+06 -5.306182E+05 -1.781561E+05 -5.684325E+05  1.438429E+04 -6.343185E+04
        68  10  1.993342E+05 -5.439449E+04  7.645164E+04 -2.066421E+05  2.532555E-08  9.711231E-09
        68  11  3.967169E+05  4.184742E+04  1.138730E+05 -1.251197E+05  6.101542E-09  5.765522E-10
        68  12  6.301838E+05  1.013460E+05  1.525334E+05 -8.457601E+04 -2.350001E-08 -1.042583E-08
        68  13 -2.376279E+05 -2.119612E+05 -3.653354E+03 -3.276325E+05  2.126918E-09  4.638725E-10
        68  14 -2.553567E+05 -1.944130E+05 -6.733961E+03 -3.066460E+05  2.612993E-09  1.648699E-09
        68  15 -2.381040E+05 -2.146713E+05 -1.279843E+04 -3.266600E+05  1.302577E-10  1.344233E-09
        68  16 -6.743856E+05 -3.695090E+05 -8.376422E+04 -4.485427E+05 -2.136585E-08 -8.461952E-09
        68  17 -9.069852E+05 -4.306340E+05 -1.273570E+05 -4.879950E+05  7.440916E-09  2.180464E-09
        68  18 -1.105615E+06 -5.306226E+05 -1.781640E+05 -5.684317E+05  2.827160E-08  1.306559E-08
        68  19  1.993363E+05 -5.439351E+04  7.645598E+04 -2.066428E+05 -4.313306E+04  2.120816E+04
        68  20  3.967196E+05  4.184951E+04  1.138797E+05 -1.251211E+05 -4.695752E+04  3.732599E+04
        68  21  6.301871E+05  1.013494E+05  1.525428E+05 -8.457801E+04 -4.958705E+04  5.023462E+04
        68  22 -2.376274E+05 -2.119601E+05 -3.651041E+03 -3.276329E+05 -1.485787E+04  3.178695E+04
        68  23 -2.553556E+05 -1.944106E+05 -6.728916E+03 -3.066469E+05 -2.401270E+04  4.591824E+04
        68  24 -2.381020E+05 -2.146675E+05 -1.279044E+04 -3.266614E+05 -3.197259E+04  5.683817E+04
        68  25 -6.743850E+05 -3.695070E+05 -8.376051E+04 -4.485422E+05  1.339581E+04  4.235775E+04
        68  26 -9.069844E+05 -4.306308E+05 -1.273514E+05 -4.879950E+05 -1.093599E+03  5.450083E+04
        68  27 -1.105614E+06 -5.306182E+05 -1.781561E+05 -5.684325E+05 -1.438429E+04  6.343185E+04
        69   1  7.742560E+05  1.513966E+05  1.773386E+05 -4.921225E+04  5.992835E+04 -5.611356E+04
        69   2  9.577953E+05  2.536051E+05  2.268169E+05  4.927568E+04  1.116098E+04 -6.822747E+04
        69   3  1.173372E+06  3.001022E+05  3.048461E+05  1.170717E+05 -5.196894E+04 -4.215981E+04
        69   4 -2.405271E+05 -2.136942E+05 -1.694628E+04 -3.273092E+05  3.709234E+04 -6.467756E+04
        69   5 -2.540971E+05 -2.063675E+05 -3.221571E+04 -3.019348E+05  5.191669E+04 -5.296543E+04
        69   6 -2.482764E+05 -2.673866E+05 -6.929558E+04 -3.072761E+05  5.238163E+04 -3.024193E+03
        69   7 -1.254245E+06 -5.786997E+05 -2.112744E+05 -6.049883E+05  1.429612E+04 -7.322698E+04
        69   8 -1.464467E+06 -6.661826E+05 -2.913192E+05 -6.524976E+05  9.258611E+04 -3.773840E+04
        69   9 -1.667879E+06 -8.346430E+05 -4.435489E+05 -7.306968E+05  1.564670E+05  3.599702E+04
        69  10  7.742514E+05  1.513922E+05  1.773260E+05 -4.920954E+04  4.059287E-09 -1.210048E-09
        69  11  9.577940E+05  2.536001E+05  2.268079E+05  4.927629E+04 -6.015283E-09 -4.731208E-09
        69  12  1.173369E+06  3.000996E+05  3.048377E+05  1.170700E+05 -1.024898E-08 -4.487967E-09
        69  13 -2.405297E+05 -2.136990E+05 -1.695672E+04 -3.273073E+05 -1.917837E-09 -1.598482E-09
        69  14 -2.541007E+05 -2.063712E+05 -3.222604E+04 -3.019326E+05 -4.265121E-09 -4.063233E-09
        69  15 -2.482793E+05 -2.673873E+05 -6.930076E+04 -3.072760E+05 -1.047837E-09 -1.600086E-09
        69  16 -1.254247E+06 -5.787055E+05 -2.112848E+05 -6.049875E+05 -7.560268E-09 -1.318962E-09
        69  17 -1.464477E+06 -6.661865E+05 -2.913380E+05 -6.524947E+05 -7.918219E-09 -3.454972E-09
        69  18 -1.667906E+06 -8.346510E+05 -4.435975E+05 -7.307014E+05  5.571804E-09  9.393507E-10
        69  19  7.742560E+05  1.513966E+05  1.773386E+05 -4.921225E+04 -5.992835E+04  5.611356E+04
        69  20  9.577953E+05  2.536051E+05  2.268169E+05  4.927568E+04 -1.116098E+04  6.822747E+04
        69  21  1.173372E+06  3.001022E+05  3.048461E+05  1.170717E+05  5.196894E+04  4.215981E+04
        69  22 -2.405271E+05 -2.136942E+05 -1.694628E+04 -3.273092E+05 -3.709234E+04  6.467756E+04
        69  23 -2.540971E+05 -2.063675E+05 -3.221571E+04 -3.019348E+05 -5.191669E+04  5.296543E+04
        69  24 -2.482764E+05 -2.673866E+05 -6.929558E+04 -3.072761E+05 -5.238163E+04  3.024193E+03
        69  25 -1.254245E+06 -5.786997E+05 -2.112744E+05 -6.049883E+05 -1.429612E+04  7.322698E+04
        69  26 -1.464467E+06 -6.661826E+05 -2.913192E+05 -6.524976E+05 -9.258611E+04  3.773840E+04
        69  27 -1.667879E+06 -8.346430E+05 -4.435489E+05 -7.306968E+05 -1.564670E+05 -3.599702E+04
        70   1 -2.111297E+05 -9.471658E+04 -8.344884E+04 -6.980096E+04 -1.657559E+04  6.795753E+03
        70   2 -1.380994E+05 -1.010155E+05 -6.450550E+04 -7.956155E+04 -1.333917E+03  2.259725E+04
        70   3 -6.344957E+04 -9.301323E+04 -5.191033E+04 -1.002218E+05  1.391473E+04  2.667118E+04
        70   4  3.657323E+05  4.734407E+04  5.012703E+04 -1.020250E+05  3.541903E+04  6.805578E+03
        70   5  3.625013E+05  1.705188E+04  2.531968E+04 -9.657349E+04  2.251934E+04  2.259858E+04
        70   6  3.657642E+05  5.938237E+03  1.370232E+04 -1.020200E+05  9.624622E+03  2.666914E+04
        70   7  9.429099E+05  1.893867E+05  1.836913E+05 -1.342791E+05  8.746161E+04  6.810004E+03
        70   8  8.633480E+05  1.351067E+05  1.151375E+05 -1.135995E+05  4.639128E+04  2.259861E+04
        70   9  7.951624E+05  1.048809E+05  7.931106E+04 -1.038194E+05  5.331666E+03  2.666712E+04
        70  10 -2.111300E+05 -9.471670E+04 -8.344944E+04 -6.980087E+04 -1.115839E-09  4.154490E-10
        70  11 -1.380995E+05 -1.010161E+05 -6.450646E+04 -7.956153E+04 -2.283736E-09  1.300317E-09
        70  12 -6.344997E+04 -9.301405E+04 -5.191203E+04 -1.002221E+05 -3.606284E-09  1.293058E-09
        70  13  3.657310E+05  4.734369E+04  5.012458E+04 -1.020251E+05 -9.431069E-10  6.919574E-10
        70  14  3.625006E+05  1.705119E+04  2.531776E+04 -9.657390E+04  1.242890E-09  1.531956E-09
        70  15  3.657639E+05  5.937448E+03  1.370081E+04 -1.020202E+05  9.445387E-10  1.270475E-09
        70  16  9.429017E+05  1.893846E+05  1.836769E+05 -1.342796E+05  3.112337E-09  8.158122E-10
        70  17  8.633456E+05  1.351056E+05  1.151325E+05 -1.136004E+05  2.561055E-09  1.860303E-09
        70  18  7.951622E+05  1.048801E+05  7.930967E+04 -1.038195E+05  3.225470E-09  1.706926E-09
        70  19 -2.111297E+05 -9.471658E+04 -8.344884E+04 -6.980096E+04  1.657559E+04 -6.795753E+03
        70  20 -1.380994E+05 -1.010155E+05 -6.450550E+04 -7.956155E+04  1.333917E+03 -2.259725E+04
        70  21 -6.344957E+04 -9.301323E+04 -5.191033E+04 -1.002218E+05 -1.391473E+04 -2.667118E+04
        70  22  3.657323E+05  4.734407E+04  5.012703E+04 -1.020250E+05 -3.541903E+04 -6.805578E+03
        70  23  3.625013E+05  1.705188E+04  2.531968E+04 -9.657349E+04 -2.251934E+04 -2.259858E+04
        70  24  3.657642E+05  5.938237E+03  1.370232E+04 -1.020200E+05 -9.624622E+03 -2.666914E+04
        70  25  9.429099E+05  1.893867E+05  1.836913E+05 -1.342791E+05 -8.746161E+04 -6.810004E+03
        70  26  8.633480E+05  1.351067E+05  1.151375E+05 -1.135995E+05 -4.639128E+04 -2.259861E+04
        70  27  7.951624E+05  1.048809E+05  7.931106E+04 -1.038194E+05 -5.331666E+03 -2.666712E+04
        71   1 -1.839097E+04 -8.355815E+04 -4.629279E+04 -9.967730E+04  1.306587E+04  2.508701E+04
        71   2  5.524264E+04 -6.888877E+04 -3.712804E+04 -9.509499E+04  1.411071E+04  2.211598E+04
        71   3  1.290761E+05 -5.294261E+04 -2.832117E+04 -1.022786E+05  1.515532E+04  1.755994E+04
        71   4  3.645176E+05  4.311225E+03  1.021756E+04 -1.022137E+05  7.841145E+03  2.508532E+04
        71   5  3.640987E+05  1.396032E+03  5.510867E+03 -9.633103E+04  5.080264E+03  2.211495E+04
        71   6  3.645341E+05  4.178280E+02  3.087661E+03 -1.022137E+05  2.319033E+03  1.756000E+04
        71   7  7.475736E+05  9.217380E+04  6.672538E+04 -1.047517E+05  2.613332E+03  2.508367E+04
        71   8  6.730517E+05  7.167669E+04  4.814899E+04 -9.756770E+04 -3.954477E+03  2.211397E+04
        71   9  6.000489E+05  5.377599E+04  3.449666E+04 -1.021488E+05 -1.052190E+04  1.756006E+04
        71  10 -1.839132E+04 -8.355887E+04 -4.629430E+04 -9.967756E+04 -2.729803E-08  1.818679E-09
        71  11  5.524230E+04 -6.888935E+04 -3.712934E+04 -9.509524E+04  6.798334E-09  3.796594E-09
        71  12  1.290758E+05 -5.294300E+04 -2.832218E+04 -1.022788E+05  4.100299E-08  5.578271E-09
        71  13  3.645173E+05  4.310532E+03  1.021626E+04 -1.022139E+05  2.288762E-09 -3.636324E-10
        71  14  3.640985E+05  1.395500E+03  5.509899E+03 -9.633112E+04  2.161673E-10 -6.226282E-09
        71  15  3.645340E+05  4.174954E+02  3.087071E+03 -1.022138E+05 -9.254500E-10 -1.177486E-08
        71  16  7.475735E+05  9.217312E+04  6.672418E+04 -1.047518E+05  2.631141E-08  1.631065E-09
        71  17  6.730515E+05  7.167616E+04  4.814804E+04 -9.756763E+04 -6.511322E-09  3.341639E-09
        71  18  6.000487E+05  5.377563E+04  3.449587E+04 -1.021487E+05 -4.171878E-08  5.895646E-09
        71  19 -1.839097E+04 -8.355815E+04 -4.629279E+04 -9.967730E+04 -1.306587E+04 -2.508701E+04
        71  20  5.524264E+04 -6.888877E+04 -3.712804E+04 -9.509499E+04 -1.411071E+04 -2.211598E+04
        71  21  1.290761E+05 -5.294261E+04 -2.832117E+04 -1.022786E+05 -1.515532E+04 -1.755994E+04
        71  22  3.645176E+05  4.311225E+03  1.021756E+04 -1.022137E+05 -7.841145E+03 -2.508532E+04
        71  23  3.640987E+05  1.396032E+03  5.510867E+03 -9.633103E+04 -5.080264E+03 -2.211495E+04
        71  24  3.645341E+05  4.178280E+02  3.087661E+03 -1.022137E+05 -2.319033E+03 -1.756000E+04
        71  25  7.475736E+05  9.217380E+04  6.672538E+04 -1.047517E+05 -2.613332E+03 -2.508367E+04
        71  26  6.730517E+05  7.167669E+04  4.814899E+04 -9.756770E+04  3.954477E+03 -2.211397E+04
        71  27  6.000489E+05  5.377599E+04  3.449666E+04 -1.021488E+05  1.052190E+04 -1.756006E+04
        72   1  1.744890E+05 -4.267244E+04 -2.267029E+04 -1.021783E+05  1.482720E+04  1.437418E+04
        72   2  2.481773E+05 -2.619844E+04 -1.386523E+04 -9.630316E+04  1.469413E+04  8.867610E+03
        72   3  3.219159E+05 -9.629660E+03 -4.948597E+03 -1.023086E+05  1.456075E+04  3.147685E+03
        72   4  3.643777E+05  2.930138E+02  2.325566E+03 -1.022394E+05  1.864839E+03  1.437469E+04
        72   5  3.643135E+05  5.392830E+01  1.300672E+03 -9.629914E+04  1.218738E+03  8.868579E+03
        72   6  3.643838E+05 -9.985377E-01  7.432164E+02 -1.022394E+05  5.723421E+02  3.149128E+03
        72   7  5.543037E+05  4.325704E+04  2.732180E+04 -1.023004E+05 -1.110130E+04  1.437520E+04
        72   8  4.804638E+05  2.630583E+04  1.646717E+04 -9.629512E+04 -1.225906E+04  8.869548E+03
        72   9  4.068540E+05  9.627690E+03  6.435749E+03 -1.021702E+05 -1.341698E+04  3.150567E+03
        72  10  1.744887E+05 -4.267272E+04 -2.267109E+04 -1.021785E+05 -4.305175E-08  5.635783E-09
        72  11  2.481771E+05 -2.619858E+04 -1.386578E+04 -9.630326E+04 -6.484954E-09  3.371521E-09
        72  12  3.219156E+05 -9.629727E+03 -4.949014E+03 -1.023087E+05  2.988518E-08  1.934120E-10
        72  13  3.643777E+05  2.927910E+02  2.325171E+03 -1.022394E+05 -2.301368E-09 -1.162175E-08
        72  14  3.643135E+05  5.384342E+01  1.300521E+03 -9.629915E+04  1.087663E-09 -6.382413E-09
        72  15  3.643838E+05 -1.009277E+00  7.431972E+02 -1.022394E+05 -1.338164E-09 -1.742030E-09
        72  16  5.543035E+05  4.325678E+04  2.732118E+04 -1.023003E+05  4.291650E-08  6.133448E-09
        72  17  4.804637E+05  2.630570E+04  1.646674E+04 -9.629503E+04  7.080831E-09  3.556962E-09
        72  18  4.068538E+05  9.627631E+03  6.435393E+03 -1.021701E+05 -2.832094E-08  6.779031E-10
        72  19  1.744890E+05 -4.267244E+04 -2.267029E+04 -1.021783E+05 -1.482720E+04 -1.437418E+04
        72  20  2.481773E+05 -2.619844E+04 -1.386523E+04 -9.630316E+04 -1.469413E+04 -8.867610E+03
        72  21  3.219159E+05 -9.629660E+03 -4.948597E+03 -1.023086E+05 -1.456075E+04 -3.147685E+03
        72  22  3.643777E+05  2.930138E+02  2.325566E+03 -1.022394E+05 -1.864839E+03 -1.437469E+04
        72  23  3.643135E+05  5.392830E+01  1.300672E+03 -9.629914E+04 -1.218738E+03 -8.868579E+03
        72  24  3.643838E+05 -9.985377E-01  7.432164E+02 -1.022394E+05 -5.723421E+02 -3.149128E+03
        72  25  5.543037E+05  4.325704E+04  2.732180E+04 -1.023004E+05  1.110130E+04 -1.437520E+04
        72  26  4.804638E+05  2.630583E+04  1.646717E+04 -9.629512E+04  1.225906E+04 -8.869548E+03
        72  27  4.068540E+05  9.627690E+03  6.435749E+03 -1.021702E+05  1.341698E+04 -3.150567E+03
        73   1  3.673678E+05  6.689605E+02  9.223458E+02 -1.022890E+05  1.446195E+04 -2.531781E+02
        73   2  4.410752E+05  1.725044E+04  9.972039E+03 -9.632991E+04  1.435791E+04 -6.097418E+03
        73   3  5.148078E+05  3.383618E+04  1.909199E+04 -1.022667E+05  1.425409E+04 -1.196463E+04
        73   4  3.643605E+05 -3.910360E+00  5.637024E+02 -1.022429E+05  4.565072E+02 -2.516915E+02
        73   5  3.643445E+05 -1.821249E+01  3.231882E+02 -9.629486E+04  2.963785E+02 -6.096213E+03
        73   6  3.643566E+05 -1.874710E+01  1.909508E+02 -1.022429E+05  1.364846E+02 -1.196372E+04
        73   7  3.613536E+05 -6.766763E+02  2.057958E+02 -1.021967E+05 -1.354887E+04 -2.502070E+02
        73   8  2.876203E+05 -1.728700E+04 -9.324935E+03 -9.625982E+04 -1.376350E+04 -6.095010E+03
        73   9  2.139291E+05 -3.387448E+04 -1.870940E+04 -1.022191E+05 -1.397787E+04 -1.196281E+04
        73  10  3.673675E+05  6.689043E+02  9.219529E+02 -1.022890E+05  3.202893E-10 -2.226323E-10
        73  11  4.410749E+05  1.725034E+04  9.971582E+03 -9.632984E+04 -3.300275E-10  1.451209E-09
        73  12  5.148076E+05  3.383597E+04  1.909134E+04 -1.022665E+05 -6.556463E-10  2.212281E-09
        73  13  3.643605E+05 -3.910484E+00  5.637019E+02 -1.022429E+05 -3.235600E-09 -4.693764E-11
        73  14  3.643445E+05 -1.825242E+01  3.231182E+02 -9.629486E+04 -5.948945E-10  1.344631E-09
        73  15  3.643566E+05 -1.890083E+01  1.906817E+02 -1.022429E+05 -1.747051E-09  2.066597E-09
        73  16  3.613534E+05 -6.767256E+02  2.054509E+02 -1.021967E+05 -2.382069E-10  1.359442E-10
        73  17  2.876201E+05 -1.728709E+04 -9.325361E+03 -9.625989E+04 -1.219244E-09  1.204249E-09
        73  18  2.139289E+05 -3.387469E+04 -1.871003E+04 -1.022192E+05  1.917307E-09  1.949101E-09
        73  19  3.673678E+05  6.689605E+02  9.223458E+02 -1.022890E+05 -1.446195E+04  2.531781E+02
        73  20  4.410752E+05  1.725044E+04  9.972039E+03 -9.632991E+04 -1.435791E+04  6.097418E+03
        73  21  5.148078E+05  3.383618E+04  1.909199E+04 -1.022667E+05 -1.425409E+04  1.196463E+04
        73  22  3.643605E+05 -3.910360E+00  5.637024E+02 -1.022429E+05 -4.565072E+02  2.516915E+02
        73  23  3.643445E+05 -1.821249E+01  3.231882E+02 -9.629486E+04 -2.963785E+02  6.096213E+03
        73  24  3.643566E+05 -1.874710E+01  1.909508E+02 -1.022429E+05 -1.364846E+02  1.196372E+04
        73  25  3.613536E+05 -6.766763E+02  2.057958E+02 -1.021967E+05  1.354887E+04  2.502070E+02
        73  26  2.876203E+05 -1.728700E+04 -9.324935E+03 -9.625982E+04  1.376350E+04  6.095010E+03
        73  27  2.139291E+05 -3.387448E+04 -1.870940E+04 -1.022191E+05  1.397787E+04  1.196281E+04
        74   1  5.602785E+05  4.412531E+04  2.506218E+04 -1.022607E+05  1.422322E+04 -1.538842E+04
        74   2  6.340053E+05  6.070524E+04  3.427808E+04 -9.629584E+04  1.407799E+04 -2.124566E+04
        74   3  7.077700E+05  7.730159E+04  4.359526E+04 -1.022284E+05  1.393356E+04 -2.706174E+04
        74   4  3.643508E+05 -2.154976E+01  1.491630E+02 -1.022432E+05  1.056607E+02 -1.538790E+04
        74   5  3.643364E+05 -3.335488E+01  9.552432E+01 -9.629441E+04  5.850864E+01 -2.124617E+04
        74   6  3.643371E+05 -4.567092E+01  7.458962E+01 -1.022432E+05  1.216430E+01 -2.706328E+04
        74   7  1.684630E+05 -4.416987E+04 -2.476325E+04 -1.022258E+05 -1.400766E+04 -1.538738E+04
        74   8  9.474251E+04 -6.077481E+04 -3.408654E+04 -9.629298E+04 -1.395519E+04 -2.124668E+04
        74   9  2.102562E+04 -7.739764E+04 -4.344576E+04 -1.022581E+05 -1.390192E+04 -2.706482E+04
        74  10  5.602782E+05  4.412500E+04  2.506136E+04 -1.022605E+05  4.489596E-10  1.966145E-09
        74  11  6.340050E+05  6.070470E+04  3.427686E+04 -9.629560E+04 -1.638162E-09  9.819353E-10
        74  12  7.077696E+05  7.730075E+04  4.359352E+04 -1.022281E+05  9.866746E-11 -1.426680E-10
        74  13  3.643508E+05 -2.180407E+01  1.487180E+02 -1.022432E+05 -8.141196E-10  1.887585E-09
        74  14  3.643363E+05 -3.383969E+01  9.467590E+01 -9.629441E+04  1.892099E-09  1.023883E-09
        74  15  3.643369E+05 -4.645755E+01  7.321303E+01 -1.022432E+05 -4.794628E-10  1.207804E-10
        74  16  1.684627E+05 -4.417018E+04 -2.476406E+04 -1.022260E+05 -1.091066E-09  1.789421E-09
        74  17  9.474218E+04 -6.077535E+04 -3.408775E+04 -9.629321E+04  1.867995E-09  8.806156E-10
        74  18  2.102521E+04 -7.739848E+04 -4.344750E+04 -1.022584E+05  6.546162E-10  2.764878E-10
        74  19  5.602785E+05  4.412531E+04  2.506218E+04 -1.022607E+05 -1.422322E+04  1.538842E+04
        74  20  6.340053E+05  6.070524E+04  3.427808E+04 -9.629584E+04 -1.407799E+04  2.124566E+04
        74  21  7.077700E+05  7.730159E+04  4.359526E+04 -1.022284E+05 -1.393356E+04  2.706174E+04
        74  22  3.643508E+05 -2.154976E+01  1.491630E+02 -1.022432E+05 -1.056607E+02  1.538790E+04
        74  23  3.643364E+05 -3.335488E+01  9.552432E+01 -9.629441E+04 -5.850864E+01  2.124617E+04
        74  24  3.643371E+05 -4.567092E+01  7.458962E+01 -1.022432E+05 -1.216430E+01  2.706328E+04
        74  25  1.684630E+05 -4.416987E+04 -2.476325E+04 -1.022258E+05  1.400766E+04  1.538738E+04
        74  26  9.474251E+04 -6.077481E+04 -3.408654E+04 -9.629298E+04  1.395519E+04  2.124668E+04
        74  27  2.102562E+04 -7.739764E+04 -4.344576E+04 -1.022581E+05  1.390192E+04  2.706482E+04
        75   1  7.532864E+05  8.760534E+04  4.967864E+04 -1.022122E+05  1.389633E+04 -3.044392E+04
        75   2  8.269903E+05  1.042451E+05  5.932873E+04 -9.624363E+04  1.304689E+04 -3.605990E+04
        75   3  9.008664E+05  1.210316E+05  6.957371E+04 -1.021539E+05  1.219860E+04 -4.133909E+04
        75   4  3.643337E+05 -5.496964E+01  7.307026E+01 -1.022392E+05 -6.123191E-01 -3.044627E+04
        75   5  3.643082E+05 -7.498381E+01  8.432734E+01 -9.629948E+04 -4.149011E+01 -3.606389E+04
        75   6  3.643102E+05 -8.808386E+01  1.293827E+02 -1.022392E+05 -8.113405E+01 -4.134461E+04
        75   7 -2.446367E+04 -8.772138E+04 -4.953238E+04 -1.022661E+05 -1.388928E+04 -3.044862E+04
        75   8 -9.815428E+04 -1.044038E+05 -5.916037E+04 -9.635528E+04 -1.312060E+04 -3.606788E+04
        75   9 -1.719512E+05 -1.212196E+05 -6.931592E+04 -1.023243E+05 -1.235078E+04 -4.135012E+04
        75  10  7.532860E+05  8.760429E+04  4.967654E+04 -1.022118E+05 -3.435098E-09 -1.563624E-10
        75  11  8.269898E+05  1.042436E+05  5.932597E+04 -9.624325E+04 -1.053751E-09 -3.927640E-10
        75  12  9.008658E+05  1.210297E+05  6.957022E+04 -1.021535E+05  1.404675E-09 -4.458722E-10
        75  13  3.643334E+05 -5.596522E+01  7.132800E+01 -1.022392E+05 -1.060333E-09  1.502551E-10
        75  14  3.643079E+05 -7.638067E+01  8.188283E+01 -9.629949E+04 -6.320632E-10  2.760136E-10
        75  15  3.643098E+05 -8.991975E+01  1.261699E+02 -1.022392E+05 -1.266930E-09 -5.044798E-10
        75  16 -2.446413E+04 -8.772243E+04 -4.953449E+04 -1.022665E+05  5.300149E-09  4.316749E-10
        75  17 -9.815482E+04 -1.044052E+05 -5.916314E+04 -9.635567E+04 -1.210402E-10  7.316123E-10
        75  18 -1.719518E+05 -1.212215E+05 -6.931942E+04 -1.023247E+05 -5.286909E-10 -2.029103E-10
        75  19  7.532864E+05  8.760534E+04  4.967864E+04 -1.022122E+05 -1.389633E+04  3.044392E+04
        75  20  8.269903E+05  1.042451E+05  5.932873E+04 -9.624363E+04 -1.304689E+04  3.605990E+04
        75  21  9.008664E+05  1.210316E+05  6.957371E+04 -1.021539E+05 -1.219860E+04  4.133909E+04
        75  22  3.643337E+05 -5.496964E+01  7.307026E+01 -1.022392E+05  6.123191E-01  3.044627E+04
        75  23  3.643082E+05 -7.498381E+01  8.432734E+01 -9.629948E+04  4.149011E+01  3.606389E+04
        75  24  3.643102E+05 -8.808386E+01  1.293827E+02 -1.022392E+05  8.113405E+01  4.134461E+04
        75  25 -2.446367E+04 -8.772138E+04 -4.953238E+04 -1.022661E+05  1.388928E+04  3.044862E+04
        75  26 -9.815428E+04 -1.044038E+05 -5.916037E+04 -9.635528E+04  1.312060E+04  3.606788E+04
        75  27 -1.719512E+05 -1.212196E+05 -6.931592E+04 -1.023243E+05  1.235078E+04  4.135012E+04
        76   1  9.465799E+05  1.314877E+05  7.627194E+04 -1.020813E+05  1.197820E+04 -4.438112E+04
        76   2  1.019880E+06  1.486446E+05  8.880269E+04 -9.624194E+04  5.827773E+03 -4.815959E+04
        76   3  1.094308E+06  1.669436E+05  1.056288E+05 -1.020974E+05 -3.234125E+02 -4.943654E+04
        76   4  3.643124E+05 -9.649238E+01  1.661900E+02 -1.021983E+05 -1.048197E+02 -4.438772E+04
        76   5  3.642560E+05 -7.659381E+01  2.822288E+02 -9.635056E+04 -2.432068E+02 -4.816648E+04
        76   6  3.642797E+05  4.290422E+01  5.228497E+02 -1.021984E+05 -3.815583E+02 -4.944234E+04
        76   7 -2.176085E+05 -1.316948E+05 -7.594114E+04 -1.023152E+05 -1.217706E+04 -4.439431E+04
        76   8 -2.909305E+05 -1.488163E+05 -8.824212E+04 -9.645905E+04 -6.308078E+03 -4.817338E+04
        76   9 -3.652115E+05 -1.668821E+05 -1.045914E+05 -1.022992E+05 -4.396386E+02 -4.944814E+04
        76  10  9.465793E+05  1.314855E+05  7.626797E+04 -1.020808E+05 -1.360955E-07 -1.128559E-09
        76  11  1.019879E+06  1.486421E+05  8.879826E+04 -9.624172E+04  1.841033E-09 -2.524151E-09
        76  12  1.094307E+06  1.669410E+05  1.056242E+05 -1.020974E+05  1.401803E-07 -3.432114E-09
        76  13  3.643119E+05 -9.860847E+01  1.624868E+02 -1.021983E+05 -2.143651E-09 -1.279966E-09
        76  14  3.642554E+05 -7.908554E+01  2.778682E+02 -9.635057E+04 -1.575899E-09 -2.540738E-09
        76  15  3.642790E+05  4.027872E+01  5.182548E+02 -1.021984E+05  1.278479E-09 -3.256525E-09
        76  16 -2.176091E+05 -1.316969E+05 -7.594513E+04 -1.023157E+05  1.352215E-07 -1.259128E-09
        76  17 -2.909311E+05 -1.488188E+05 -8.824655E+04 -9.645930E+04 -1.051561E-09 -1.638475E-09
        76  18 -3.652121E+05 -1.668848E+05 -1.045960E+05 -1.022992E+05 -1.401737E-07 -2.842199E-09
        76  19  9.465799E+05  1.314877E+05  7.627194E+04 -1.020813E+05 -1.197820E+04  4.438112E+04
        76  20  1.019880E+06  1.486446E+05  8.880269E+04 -9.624194E+04 -5.827773E+03  4.815959E+04
        76  21  1.094308E+06  1.669436E+05  1.056288E+05 -1.020974E+05  3.234125E+02  4.943654E+04
        76  22  3.643124E+05 -9.649238E+01  1.661900E+02 -1.021983E+05  1.048197E+02  4.438772E+04
        76  23  3.642560E+05 -7.659381E+01  2.822288E+02 -9.635056E+04  2.432068E+02  4.816648E+04
        76  24  3.642797E+05  4.290422E+01  5.228497E+02 -1.021984E+05  3.815583E+02  4.944234E+04
        76  25 -2.176085E+05 -1.316948E+05 -7.594114E+04 -1.023152E+05  1.217706E+04  4.439431E+04
        76  26 -2.909305E+05 -1.488163E+05 -8.824212E+04 -9.645905E+04  6.308078E+03  4.817338E+04
        76  27 -3.652115E+05 -1.668821E+05 -1.045914E+05 -1.022992E+05  4.396386E+02  4.944814E+04
        77   1  1.141270E+06  1.785618E+05  1.167160E+05 -1.017066E+05 -1.889235E+03 -4.995068E+04
        77   2  1.211258E+06  1.997218E+05  1.502189E+05 -9.726876E+04 -4.703450E+04 -4.012598E+04
        77   3  1.289357E+06  2.296137E+05  2.152722E+05 -1.031504E+05 -9.220451E+04 -1.179160E+04
        77   4  3.643369E+05  1.106477E+02  7.015713E+02 -1.018922E+05 -4.731769E+02 -4.995619E+04
        77   5  3.641197E+05  6.660627E+02  1.285039E+03 -9.673349E+04 -1.118019E+03 -4.010669E+04
        77   6  3.642965E+05  2.240826E+03  2.550869E+03 -1.018932E+05 -1.780594E+03 -1.173599E+04
        77   7 -4.119913E+05 -1.783690E+05 -1.153245E+05 -1.020776E+05  9.411830E+02 -4.996171E+04
        77   8 -4.823136E+05 -1.984277E+05 -1.476670E+05 -9.619901E+04  4.473777E+04 -4.008731E+04
        77   9 -5.599564E+05 -2.251874E+05 -2.101964E+05 -1.006380E+05  8.850988E+04 -1.167998E+04
        77  10  1.141270E+06  1.785591E+05  1.167113E+05 -1.017067E+05  1.197435E-09 -3.095788E-09
        77  11  1.211256E+06  1.997194E+05  1.502117E+05 -9.727028E+04 -1.056706E-09 -2.068639E-09
        77  12  1.289348E+06  2.296113E+05  2.152560E+05 -1.031513E+05 -7.283204E-11 -3.006300E-10
        77  13  3.643362E+05  1.079673E+02  6.968803E+02 -1.018922E+05  7.104300E-10 -4.593748E-09
        77  14  3.641193E+05  6.643348E+02  1.282013E+03 -9.673353E+04  1.568302E-09  7.617040E-10
        77  15  3.642964E+05  2.240677E+03  2.550604E+03 -1.018933E+05 -4.371723E-10  1.695530E-10
        77  16 -4.119919E+05 -1.783716E+05 -1.153292E+05 -1.020776E+05  1.115652E-09 -2.624759E-09
        77  17 -4.823161E+05 -1.984299E+05 -1.476738E+05 -9.619757E+04 -1.162050E-09  2.703802E-10
        77  18 -5.599648E+05 -2.251896E+05 -2.102114E+05 -1.006372E+05  9.900820E-10 -6.233176E-10
        77  19  1.141270E+06  1.785618E+05  1.167160E+05 -1.017066E+05  1.889235E+03  4.995068E+04
        77  20  1.211258E+06  1.997218E+05  1.502189E+05 -9.726876E+04  4.703450E+04  4.012598E+04
        77  21  1.289357E+06  2.296137E+05  2.152722E+05 -1.031504E+05  9.220451E+04  1.179160E+04
        77  22  3.643369E+05  1.106477E+02  7.015713E+02 -1.018922E+05  4.731769E+02  4.995619E+04
        77  23  3.641197E+05  6.660627E+02  1.285039E+03 -9.673349E+04  1.118019E+03  4.010669E+04
        77  24  3.642965E+05  2.240826E+03  2.550869E+03 -1.018932E+05  1.780594E+03  1.173599E+04
        77  25 -4.119913E+05 -1.783690E+05 -1.153245E+05 -1.020776E+05 -9.411830E+02  4.996171E+04
        77  26 -4.823136E+05 -1.984277E+05 -1.476670E+05 -9.619901E+04 -4.473777E+04  4.008731E+04
        77  27 -5.599564E+05 -2.251874E+05 -2.101964E+05 -1.006380E+05 -8.850988E+04  1.167998E+04
        78   1  1.922065E+05  9.144586E+05  1.833428E+05 -2.357053E+05  7.405495E+03  6.128253E+04
        78   2  1.397370E+05  7.449618E+05  1.131537E+05 -2.201045E+05  2.312545E+04  2.143997E+04
        78   3  9.740150E+04  5.831961E+05  7.141174E+04 -2.298524E+05  2.348065E+04 -1.839606E+04
        78   4  8.817044E+03  1.711500E+05  9.273042E+03 -2.293159E+05  7.449592E+03  5.129641E+03
        78   5  3.432332E+03  1.705277E+05  5.782966E+03 -2.166439E+05  2.314327E+04  2.212164E+03
        78   6  1.783476E+03  1.712135E+05  5.123809E+03 -2.293211E+05  2.346599E+04 -7.094905E+02
        78   7 -1.746098E+05 -5.716433E+05 -1.648226E+05 -2.229339E+05  7.492570E+03 -5.095652E+04
        78   8 -1.328911E+05 -4.035866E+05 -1.016006E+05 -2.131865E+05  2.316089E+04 -1.699832E+04
        78   9 -9.384294E+04 -2.406001E+05 -6.116751E+04 -2.287901E+05  2.345135E+04  1.696577E+04
        78  10  1.922054E+05  9.144545E+05  1.833357E+05 -2.357056E+05  1.180455E-09 -6.526823E-08
        78  11  1.397363E+05  7.449611E+05  1.131518E+05 -2.201049E+05  1.726614E-10  2.000562E-09
        78  12  9.740082E+04  5.831956E+05  7.141007E+04 -2.298520E+05  1.234133E-09  6.920944E-08
        78  13  8.816977E+03  1.711500E+05  9.272888E+03 -2.293159E+05  7.682790E-10 -2.735731E-11
        78  14  3.431755E+03  1.705276E+05  5.781950E+03 -2.166440E+05 -1.484784E-10  4.645089E-10
        78  15  1.782885E+03  1.712133E+05  5.122774E+03 -2.293211E+05  4.563563E-10  4.295280E-11
        78  16 -1.746105E+05 -5.716461E+05 -1.648276E+05 -2.229336E+05  5.492193E-10  6.496410E-08
        78  17 -1.328918E+05 -4.035870E+05 -1.016021E+05 -2.131861E+05  1.823321E-09 -1.655481E-09
        78  18 -9.384361E+04 -2.406006E+05 -6.116909E+04 -2.287904E+05  1.161687E-09 -6.865096E-08
        78  19  1.922065E+05  9.144586E+05  1.833428E+05 -2.357053E+05 -7.405495E+03 -6.128253E+04
        78  20  1.397370E+05  7.449618E+05  1.131537E+05 -2.201045E+05 -2.312545E+04 -2.143997E+04
        78  21  9.740150E+04  5.831961E+05  7.141174E+04 -2.298524E+05 -2.348065E+04  1.839606E+04
        78  22  8.817044E+03  1.711500E+05  9.273042E+03 -2.293159E+05 -7.449592E+03 -5.129641E+03
        78  23  3.432332E+03  1.705277E+05  5.782966E+03 -2.166439E+05 -2.314327E+04 -2.212164E+03
        78  24  1.783476E+03  1.712135E+05  5.123809E+03 -2.293211E+05 -2.346599E+04  7.094905E+02
        78  25 -1.746098E+05 -5.716433E+05 -1.648226E+05 -2.229339E+05 -7.492570E+03  5.095652E+04
        78  26 -1.328911E+05 -4.035866E+05 -1.016006E+05 -2.131865E+05 -2.316089E+04  1.699832E+04
        78  27 -9.384294E+04 -2.406001E+05 -6.116751E+04 -2.287901E+05 -2.345135E+04 -1.696577E+04
        79   1  7.305402E+04  4.798871E+05  5.384713E+04 -2.303083E+05  1.844118E+04 -2.037911E+04
        79   2  3.490986E+04  3.136402E+05  2.749551E+04 -2.151332E+05  1.023286E+04 -2.605769E+04
        79   3 -1.392215E+02  1.489030E+05  5.603478E+03 -2.263695E+05  1.268807E+03 -3.173594E+04
        79   4  1.666308E+03  1.711957E+05  5.487616E+03 -2.295572E+05  1.842438E+04 -1.563030E+03
        79   5  2.357786E+03  1.706198E+05  7.700433E+03 -2.163499E+05  1.021363E+04 -5.428782E+03
        79   6  5.830886E+03  1.712112E+05  1.311343E+04 -2.295540E+05  1.247077E+03 -9.295602E+03
        79   7 -6.972591E+04 -1.374000E+05 -4.287287E+04 -2.288065E+05  1.840761E+04  1.724405E+04
        79   8 -3.019495E+04  2.762113E+04 -1.209328E+04 -2.175664E+05  1.019432E+04  1.519559E+04
        79   9  1.180125E+04  1.935210E+05  2.062523E+04 -2.327386E+05  1.225118E+03  1.314557E+04
        79  10  7.305355E+04  4.798866E+05  5.384572E+04 -2.303080E+05 -3.906910E-10  1.716822E-09
        79  11  3.490956E+04  3.136394E+05  2.749404E+04 -2.151329E+05  1.906520E-09  7.650581E-10
        79  12 -1.394935E+02  1.489019E+05  5.601582E+03 -2.263694E+05 -5.836971E-10  4.113558E-10
        79  13  1.665943E+03  1.711956E+05  5.486973E+03 -2.295572E+05 -8.282737E-10 -2.915578E-11
        79  14  2.357667E+03  1.706198E+05  7.700182E+03 -2.163499E+05  2.116326E-09  5.833997E-10
        79  15  5.830861E+03  1.712111E+05  1.311326E+04 -2.295540E+05 -2.730373E-09  6.490184E-11
        79  16 -6.972635E+04 -1.374005E+05 -4.287407E+04 -2.288067E+05  1.763980E-09 -2.051746E-09
        79  17 -3.019512E+04  2.762086E+04 -1.209391E+04 -2.175665E+05 -6.177489E-11 -5.955832E-10
        79  18  1.180120E+04  1.935208E+05  2.062490E+04 -2.327386E+05 -8.114648E-10  1.561027E-10
        79  19  7.305402E+04  4.798871E+05  5.384713E+04 -2.303083E+05 -1.844118E+04  2.037911E+04
        79  20  3.490986E+04  3.136402E+05  2.749551E+04 -2.151332E+05 -1.023286E+04  2.605769E+04
        79  21 -1.392215E+02  1.489030E+05  5.603478E+03 -2.263695E+05 -1.268807E+03  3.173594E+04
        79  22  1.666308E+03  1.711957E+05  5.487616E+03 -2.295572E+05 -1.842438E+04  1.563030E+03
        79  23  2.357786E+03  1.706198E+05  7.700433E+03 -2.163499E+05 -1.021363E+04  5.428782E+03
        79  24  5.830886E+03  1.712112E+05  1.311343E+04 -2.295540E+05 -1.247077E+03  9.295602E+03
        79  25 -6.972591E+04 -1.374000E+05 -4.287287E+04 -2.288065E+05 -1.840761E+04 -1.724405E+04
        79  26 -3.019495E+04  2.762113E+04 -1.209328E+04 -2.175664E+05 -1.019432E+04 -1.519559E+04
        79  27  1.180125E+04  1.935210E+05  2.062523E+04 -2.327386E+05 -1.225118E+03 -1.314557E+04
        80   1 -2.204957E+04  4.752339E+04 -6.869204E+03 -2.270883E+05 -4.536210E+03 -3.338631E+04
        80   2 -4.796049E+04 -1.199526E+05 -2.692954E+04 -1.952168E+05 -8.796118E+03 -2.618570E+04
        80   3 -5.412895E+04 -2.834221E+05 -4.674856E+04 -1.891682E+05 -3.379932E+03 -1.898284E+04
        80   4  7.825122E+03  1.727275E+05  1.728870E+04 -2.294234E+05 -4.557167E+03 -1.157496E+04
        80   5  2.149151E+04  1.687084E+05  3.145955E+04 -2.164948E+05 -8.793600E+03 -2.759944E+04
        80   6  5.892496E+04  1.726912E+05  6.199377E+04 -2.293830E+05 -3.356465E+03 -4.361974E+04
        80   7  3.769916E+04  2.979477E+05  4.144767E+04 -2.317589E+05 -4.578285E+03  1.024069E+04
        80   8  9.094004E+04  4.574496E+05  8.984458E+04 -2.377828E+05 -8.790987E+03 -2.901382E+04
        80   9  1.719702E+05  6.290002E+05  1.707246E+05 -2.696274E+05 -3.329818E+03 -6.827466E+04
        80  10 -2.204989E+04  4.752219E+04 -6.871338E+03 -2.270884E+05  6.237634E-10  2.510546E-09
        80  11 -4.796076E+04 -1.199533E+05 -2.693098E+04 -1.952170E+05  5.482725E-12  5.238516E-10
        80  12 -5.412906E+04 -2.834225E+05 -4.674926E+04 -1.891683E+05  1.531666E-10 -1.056759E-09
        80  13  7.825064E+03  1.727274E+05  1.728841E+04 -2.294234E+05  1.068359E-09 -3.875429E-11
        80  14  2.149123E+04  1.687075E+05  3.145797E+04 -2.164950E+05 -2.399857E-10  6.157087E-10
        80  15  5.892444E+04  1.726892E+05  6.199017E+04 -2.293831E+05  2.634126E-10  7.029331E-11
        80  16  3.769911E+04  2.979476E+05  4.144744E+04 -2.317589E+05  5.652479E-10 -2.791919E-09
        80  17  9.093973E+04  4.574487E+05  8.984285E+04 -2.377830E+05  2.103683E-09 -2.576926E-10
        80  18  1.719689E+05  6.289952E+05  1.707159E+05 -2.696276E+05  1.560968E-09  1.630788E-09
        80  19 -2.204957E+04  4.752339E+04 -6.869204E+03 -2.270883E+05  4.536210E+03  3.338631E+04
        80  20 -4.796049E+04 -1.199526E+05 -2.692954E+04 -1.952168E+05  8.796118E+03  2.618570E+04
        80  21 -5.412895E+04 -2.834221E+05 -4.674856E+04 -1.891682E+05  3.379932E+03  1.898284E+04
        80  22  7.825122E+03  1.727275E+05  1.728870E+04 -2.294234E+05  4.557167E+03  1.157496E+04
        80  23  2.149151E+04  1.687084E+05  3.145955E+04 -2.164948E+05  8.793600E+03  2.759944E+04
        80  24  5.892496E+04  1.726912E+05  6.199377E+04 -2.293830E+05  3.356465E+03  4.361974E+04
        80  25  3.769916E+04  2.979477E+05  4.144767E+04 -2.317589E+05  4.578285E+03 -1.024069E+04
        80  26  9.094004E+04  4.574496E+05  8.984458E+04 -2.377828E+05  8.790987E+03  2.901382E+04
        80  27  1.719702E+05  6.290002E+05  1.707246E+05 -2.696274E+05  3.329818E+03  6.827466E+04
        81   1 -3.989617E+05 -2.244852E+05 -1.357277E+05 -1.734615E+05 -6.781022E+04 -2.166787E+04
        81   2 -3.750150E+05 -1.463277E+05 -7.798381E+04 -1.617424E+05 -4.213147E+04 -3.521615E+03
        81   3 -3.651768E+05 -1.121518E+05 -5.217097E+04 -1.457716E+05 -1.416685E+04  8.542537E+03
        81   4 -1.946812E+05 -1.094773E+05 -7.577717E+04 -7.800842E+04 -5.036576E+04 -1.512539E+04
        81   5 -1.845024E+05 -5.921325E+04 -3.521137E+04 -9.111890E+04 -3.479380E+04 -7.694811E+02
        81   6 -1.864246E+05 -5.092280E+04 -1.856171E+04 -9.998040E+04 -1.693733E+04  7.502594E+03
        81   7  9.641419E+03  5.550242E+03 -1.582994E+04  1.747691E+04 -3.291535E+04 -8.577942E+03
        81   8  6.047571E+03  2.791013E+04  7.558894E+03 -2.047373E+04 -2.745376E+04  1.984062E+03
        81   9 -7.638029E+03  1.030863E+04  1.504661E+04 -5.417704E+04 -1.970868E+04  6.462367E+03
        81  10 -3.989668E+05 -2.244869E+05 -1.357373E+05 -1.734627E+05  1.089970E-08  3.723516E-09
        81  11 -3.750169E+05 -1.463282E+05 -7.798717E+04 -1.617425E+05  1.288070E-08  1.831318E-09
        81  12 -3.651770E+05 -1.121520E+05 -5.217149E+04 -1.457715E+05  1.108097E-08 -2.511344E-09
        81  13 -1.946840E+05 -1.094782E+05 -7.578237E+04 -7.800903E+04 -1.375969E-09  1.537368E-09
        81  14 -1.845037E+05 -5.921358E+04 -3.521365E+04 -9.111892E+04  4.801382E-10  7.011239E-09
        81  15 -1.864249E+05 -5.092294E+04 -1.856235E+04 -9.998030E+04  1.558890E-10  1.303980E-08
        81  16  9.640236E+03  5.549872E+03 -1.583211E+04  1.747668E+04 -1.165636E-08 -5.141016E-09
        81  17  6.046760E+03  2.790993E+04  7.557470E+03 -2.047369E+04 -1.010113E-08 -7.708313E-09
        81  18 -7.638457E+03  1.030848E+04  1.504580E+04 -5.417693E+04 -4.460406E-09 -5.862768E-09
        81  19 -3.989617E+05 -2.244852E+05 -1.357277E+05 -1.734615E+05  6.781022E+04  2.166787E+04
        81  20 -3.750150E+05 -1.463277E+05 -7.798381E+04 -1.617424E+05  4.213147E+04  3.521615E+03
        81  21 -3.651768E+05 -1.121518E+05 -5.217097E+04 -1.457716E+05  1.416685E+04 -8.542537E+03
        81  22 -1.946812E+05 -1.094773E+05 -7.577717E+04 -7.800842E+04  5.036576E+04  1.512539E+04
        81  23 -1.845024E+05 -5.921325E+04 -3.521137E+04 -9.111890E+04  3.479380E+04  7.694811E+02
        81  24 -1.864246E+05 -5.092280E+04 -1.856171E+04 -9.998040E+04  1.693733E+04 -7.502594E+03
        81  25  9.641419E+03  5.550242E+03 -1.582994E+04  1.747691E+04  3.291535E+04  8.577942E+03
        81  26  6.047571E+03  2.791013E+04  7.558894E+03 -2.047373E+04  2.745376E+04 -1.984062E+03
        81  27 -7.638029E+03  1.030863E+04  1.504661E+04 -5.417704E+04  1.970868E+04 -6.462367E+03
        82   1 -3.408282E+05 -1.096799E+05 -4.380349E+04 -1.435229E+05 -1.249461E+04  7.960884E+03
        82   2 -3.149326E+05 -9.416268E+04 -3.120148E+04 -1.331520E+05 -7.398935E+03  8.251106E+03
        82   3 -2.857534E+05 -8.545023E+04 -2.255778E+04 -1.277695E+05 -2.111690E+03  8.030852E+03
        82   4 -1.841808E+05 -5.168396E+04 -1.400717E+04 -9.879943E+04 -1.443499E+04  7.232460E+03
        82   5 -1.857147E+05 -4.701212E+04 -7.377592E+03 -9.681236E+04 -1.018695E+04  7.204807E+03
        82   6 -1.837972E+05 -4.897677E+04 -4.033837E+03 -9.981404E+04 -5.747534E+03  6.666649E+03
        82   7 -2.750927E+04  6.313846E+03  1.578773E+04 -5.406575E+04 -1.637587E+04  6.503838E+03
        82   8 -5.647926E+04  1.400683E+02  1.644571E+04 -6.046564E+04 -1.297558E+04  6.158271E+03
        82   9 -8.182914E+04 -1.250202E+04  1.449006E+04 -7.185409E+04 -9.384050E+03  5.302200E+03
        82  10 -3.408284E+05 -1.096800E+05 -4.380390E+04 -1.435229E+05 -3.259097E-08 -1.934534E-08
        82  11 -3.149327E+05 -9.416276E+04 -3.120172E+04 -1.331520E+05 -2.274808E-08 -1.317130E-08
        82  12 -2.857534E+05 -8.545030E+04 -2.255791E+04 -1.277695E+05  1.933648E-09 -3.111511E-11
        82  13 -1.841810E+05 -5.168408E+04 -1.400766E+04 -9.879934E+04 -6.307053E-09  1.170778E-08
        82  14 -1.857148E+05 -4.701220E+04 -7.377885E+03 -9.681230E+04 -1.254204E-08  2.229163E-09
        82  15 -1.837973E+05 -4.897683E+04 -4.033983E+03 -9.981401E+04 -2.833909E-09 -1.981569E-09
        82  16 -2.750957E+04  6.313729E+03  1.578715E+04 -5.406566E+04  2.813774E-08  7.134897E-09
        82  17 -5.647945E+04  1.399824E+02  1.644532E+04 -6.046558E+04  7.209051E-09 -2.152601E-09
        82  18 -8.182924E+04 -1.250207E+04  1.448984E+04 -7.185405E+04 -9.949790E-09 -8.178827E-09
        82  19 -3.408282E+05 -1.096799E+05 -4.380349E+04 -1.435229E+05  1.249461E+04 -7.960884E+03
        82  20 -3.149326E+05 -9.416268E+04 -3.120148E+04 -1.331520E+05  7.398935E+03 -8.251106E+03
        82  21 -2.857534E+05 -8.545023E+04 -2.255778E+04 -1.277695E+05  2.111690E+03 -8.030852E+03
        82  22 -1.841808E+05 -5.168396E+04 -1.400717E+04 -9.879943E+04  1.443499E+04 -7.232460E+03
        82  23 -1.857147E+05 -4.701212E+04 -7.377592E+03 -9.681236E+04  1.018695E+04 -7.204807E+03
        82  24 -1.837972E+05 -4.897677E+04 -4.033837E+03 -9.981404E+04  5.747534E+03 -6.666649E+03
        82  25 -2.750927E+04  6.313846E+03  1.578773E+04 -5.406575E+04  1.637587E+04 -6.503838E+03
        82  26 -5.647926E+04  1.400683E+02  1.644571E+04 -6.046564E+04  1.297558E+04 -6.158271E+03
        82  27 -8.182914E+04 -1.250202E+04  1.449006E+04 -7.185409E+04  9.384050E+03 -5.302200E+03
        83   1 -2.670959E+05 -7.907746E+04 -1.809079E+04 -1.228447E+05 -1.140162E+03  6.934495E+03
        83   2 -2.414243E+05 -6.658120E+04 -1.169045E+04 -1.124188E+05  5.745172E+02  5.105786E+03
        83   3 -2.112285E+05 -5.888786E+04 -5.989026E+03 -1.073660E+05  2.305197E+03  3.234134E+03
        83   4 -1.836197E+05 -4.902693E+04 -3.030834E+03 -9.972616E+04 -4.706826E+03  5.596334E+03
        83   5 -1.858833E+05 -4.659961E+04 -1.664529E+03 -9.705155E+04 -3.063451E+03  3.740969E+03
        83   6 -1.836092E+05 -4.896104E+04 -9.405574E+02 -9.975035E+04 -1.404124E+03  1.842654E+03
        83   7 -1.001361E+05 -1.897576E+04  1.202893E+04 -7.660470E+04 -8.274001E+03  4.257983E+03
        83   8 -1.303392E+05 -2.661784E+04  8.361265E+03 -8.168312E+04 -6.701748E+03  2.376031E+03
        83   9 -1.559894E+05 -3.903424E+04  4.107866E+03 -9.213443E+04 -5.113584E+03  4.511227E+02
        83  10 -2.670959E+05 -7.907751E+04 -1.809088E+04 -1.228447E+05 -3.382364E-09 -1.692408E-09
        83  11 -2.414243E+05 -6.658122E+04 -1.169050E+04 -1.124188E+05  6.023683E-09 -1.728664E-11
        83  12 -2.112285E+05 -5.888788E+04 -5.989055E+03 -1.073660E+05  6.562802E-09  1.736780E-10
        83  13 -1.836197E+05 -4.902697E+04 -3.030934E+03 -9.972614E+04  2.531005E-09 -1.033096E-09
        83  14 -1.858833E+05 -4.659963E+04 -1.664573E+03 -9.705155E+04  6.020482E-09  1.524696E-09
        83  15 -1.836092E+05 -4.896105E+04 -9.405675E+02 -9.975035E+04  4.941255E-09  2.430055E-09
        83  16 -1.001362E+05 -1.897580E+04  1.202876E+04 -7.660467E+04  8.359798E-09 -3.561170E-10
        83  17 -1.303393E+05 -2.661785E+04  8.361170E+03 -8.168311E+04  9.187825E-09  2.177420E-09
        83  18 -1.559894E+05 -3.903425E+04  4.107816E+03 -9.213443E+04  8.087313E-09  4.500474E-09
        83  19 -2.670959E+05 -7.907746E+04 -1.809079E+04 -1.228447E+05  1.140162E+03 -6.934495E+03
        83  20 -2.414243E+05 -6.658120E+04 -1.169045E+04 -1.124188E+05 -5.745172E+02 -5.105786E+03
        83  21 -2.112285E+05 -5.888786E+04 -5.989026E+03 -1.073660E+05 -2.305197E+03 -3.234134E+03
        83  22 -1.836197E+05 -4.902693E+04 -3.030834E+03 -9.972616E+04  4.706826E+03 -5.596334E+03
        83  23 -1.858833E+05 -4.659961E+04 -1.664529E+03 -9.705155E+04  3.063451E+03 -3.740969E+03
        83  24 -1.836092E+05 -4.896104E+04 -9.405574E+02 -9.975035E+04  1.404124E+03 -1.842654E+03
        83  25 -1.001361E+05 -1.897576E+04  1.202893E+04 -7.660470E+04  8.274001E+03 -4.257983E+03
        83  26 -1.303392E+05 -2.661784E+04  8.361265E+03 -8.168312E+04  6.701748E+03 -2.376031E+03
        83  27 -1.559894E+05 -3.903424E+04  4.107866E+03 -9.213443E+04  5.113584E+03 -4.511227E+02
        84   1 -1.929378E+05 -5.228640E+04 -2.337312E+03 -1.022995E+05  2.925023E+03  1.984527E+03
        84   2 -1.673412E+05 -3.988534E+04  2.887179E+03 -9.184690E+04  3.993453E+03 -1.577463E+02
        84   3 -1.370925E+05 -3.217488E+04  7.938290E+03 -8.676543E+04  5.063062E+03 -2.303066E+03
        84   4 -1.835876E+05 -4.896577E+04 -7.247356E+02 -9.973992E+04 -7.786217E+02  5.951946E+02
        84   5 -1.859143E+05 -4.662622E+04 -4.558182E+02 -9.705212E+04  2.846180E+02 -1.549067E+03
        84   6 -1.835894E+05 -4.897663E+04 -3.564036E+02 -9.973595E+04  1.349023E+03 -3.696374E+03
        84   7 -1.742372E+05 -4.564508E+04  8.879230E+02 -9.718033E+04 -4.482362E+03 -7.941724E+02
        84   8 -2.044871E+05 -5.336709E+04 -3.798794E+03 -1.022572E+05 -3.424117E+03 -2.940349E+03
        84   9 -2.300840E+05 -6.577816E+04 -8.651114E+03 -1.127056E+05 -2.364721E+03 -5.089570E+03
        84  10 -1.929378E+05 -5.228641E+04 -2.337336E+03 -1.022995E+05  8.842654E-09  9.333935E-10
        84  11 -1.673412E+05 -3.988534E+04  2.887149E+03 -9.184690E+04  1.505520E-10 -8.417378E-10
        84  12 -1.370925E+05 -3.217490E+04  7.938232E+03 -8.676542E+04 -5.066134E-09 -2.070741E-09
        84  13 -1.835876E+05 -4.896577E+04 -7.247374E+02 -9.973992E+04  3.890336E-09  1.574825E-09
        84  14 -1.859143E+05 -4.662622E+04 -4.558228E+02 -9.705212E+04 -1.513491E-09 -3.442730E-10
        84  15 -1.835894E+05 -4.897664E+04 -3.564327E+02 -9.973595E+04 -1.635516E-09 -5.502624E-10
        84  16 -1.742372E+05 -4.564509E+04  8.878841E+02 -9.718033E+04 -1.864663E-09  2.475731E-09
        84  17 -2.044871E+05 -5.336710E+04 -3.798833E+03 -1.022572E+05 -5.769779E-09  9.405244E-10
        84  18 -2.300840E+05 -6.577819E+04 -8.651174E+03 -1.127056E+05  2.495545E-09  8.977661E-10
        84  19 -1.929378E+05 -5.228640E+04 -2.337312E+03 -1.022995E+05 -2.925023E+03 -1.984527E+03
        84  20 -1.673412E+05 -3.988534E+04  2.887179E+03 -9.184690E+04 -3.993453E+03  1.577463E+02
        84  21 -1.370925E+05 -3.217488E+04  7.938290E+03 -8.676543E+04 -5.063062E+03  2.303066E+03
        84  22 -1.835876E+05 -4.896577E+04 -7.247356E+02 -9.973992E+04  7.786217E+02 -5.951946E+02
        84  23 -1.859143E+05 -4.662622E+04 -4.558182E+02 -9.705212E+04 -2.846180E+02  1.549067E+03
        84  24 -1.835894E+05 -4.897663E+04 -3.564036E+02 -9.973595E+04 -1.349023E+03  3.696374E+03
        84  25 -1.742372E+05 -4.564508E+04  8.879230E+02 -9.718033E+04  4.482362E+03  7.941724E+02
        84  26 -2.044871E+05 -5.336709E+04 -3.798794E+03 -1.022572E+05  3.424117E+03  2.940349E+03
        84  27 -2.300840E+05 -6.577816E+04 -8.651114E+03 -1.127056E+05  2.364721E+03  5.089570E+03
        85   1 -1.188405E+05 -2.555769E+04  1.137253E+04 -8.169426E+04  5.610532E+03 -3.581155E+03
        85   2 -9.325024E+04 -1.315057E+04  1.622947E+04 -7.124482E+04  6.662713E+03 -5.731665E+03
        85   3 -6.300594E+04 -5.430739E+03  2.092626E+04 -6.616493E+04  7.713067E+03 -7.876863E+03
        85   4 -1.835902E+05 -4.897708E+04 -3.552585E+02 -9.973559E+04  1.896457E+03 -4.974528E+03
        85   5 -1.859163E+05 -4.663018E+04 -4.493407E+02 -9.705189E+04  2.957299E+03 -7.121941E+03
        85   6 -1.835908E+05 -4.897228E+04 -7.104346E+02 -9.973799E+04  4.016311E+03 -9.264054E+03
        85   7 -2.483347E+05 -7.239584E+04 -1.208296E+04 -1.177750E+05 -1.817171E+03 -6.367733E+03
        85   8 -2.785732E+05 -8.010896E+04 -1.712839E+04 -1.228554E+05 -7.475253E+02 -8.511996E+03
        85   9 -3.041615E+05 -9.251287E+04 -2.234788E+04 -1.333053E+05  3.202854E+02 -1.065097E+04
        85  10 -1.188406E+05 -2.555771E+04  1.137245E+04 -8.169424E+04 -1.195812E-08 -5.315108E-09
        85  11 -9.325030E+04 -1.315062E+04  1.622933E+04 -7.124479E+04  7.840731E-10  1.409526E-09
        85  12 -6.300602E+04 -5.430821E+03  2.092603E+04 -6.616488E+04  1.905935E-08  9.631666E-09
        85  13 -1.835902E+05 -4.897711E+04 -3.553118E+02 -9.973559E+04  1.398541E-09 -1.187148E-09
        85  14 -1.859163E+05 -4.663023E+04 -4.494524E+02 -9.705187E+04 -4.575527E-09 -3.273147E-09
        85  15 -1.835909E+05 -4.897237E+04 -7.106261E+02 -9.973796E+04  1.375136E-10 -6.620483E-09
        85  16 -2.483347E+05 -7.239589E+04 -1.208304E+04 -1.177750E+05  1.346127E-08  5.041524E-09
        85  17 -2.785733E+05 -8.010904E+04 -1.712853E+04 -1.228554E+05 -3.713918E-09  8.482230E-10
        85  18 -3.041616E+05 -9.251299E+04 -2.234810E+04 -1.333053E+05 -1.652000E-08 -5.075861E-09
        85  19 -1.188405E+05 -2.555769E+04  1.137253E+04 -8.169426E+04 -5.610532E+03  3.581155E+03
        85  20 -9.325024E+04 -1.315057E+04  1.622947E+04 -7.124482E+04 -6.662713E+03  5.731665E+03
        85  21 -6.300594E+04 -5.430739E+03  2.092626E+04 -6.616493E+04 -7.713067E+03  7.876863E+03
        85  22 -1.835902E+05 -4.897708E+04 -3.552585E+02 -9.973559E+04 -1.896457E+03  4.974528E+03
        85  23 -1.859163E+05 -4.663018E+04 -4.493407E+02 -9.705189E+04 -2.957299E+03  7.121941E+03
        85  24 -1.835908E+05 -4.897228E+04 -7.104346E+02 -9.973799E+04 -4.016311E+03  9.264054E+03
        85  25 -2.483347E+05 -7.239584E+04 -1.208296E+04 -1.177750E+05  1.817171E+03  6.367733E+03
        85  26 -2.785732E+05 -8.010896E+04 -1.712839E+04 -1.228554E+05  7.475253E+02  8.511996E+03
        85  27 -3.041615E+05 -9.251287E+04 -2.234788E+04 -1.333053E+05 -3.202854E+02  1.065097E+04
        86   1 -4.476724E+04  1.178702E+03  2.415106E+04 -6.111712E+04  8.343325E+03 -9.120800E+03
        86   2 -1.914205E+04  1.358989E+04  2.843161E+04 -5.066888E+04  9.875090E+03 -1.105170E+04
        86   3  1.104294E+04  2.123851E+04  3.216712E+04 -4.558772E+04  1.138350E+04 -1.291951E+04
        86   4 -1.836137E+05 -4.896839E+04 -9.208247E+02 -9.974734E+04  4.638626E+03 -1.051111E+04
        86   5 -1.858898E+05 -4.661172E+04 -1.627654E+03 -9.705128E+04  6.274932E+03 -1.240305E+04
        86   6 -1.836275E+05 -4.903853E+04 -2.962445E+03 -9.972275E+04  7.887844E+03 -1.423191E+04
        86   7 -3.224397E+05 -9.911365E+04 -2.599331E+04 -1.383695E+05  9.348112E+02 -1.190108E+04
        86   8 -3.526073E+05 -1.068104E+05 -3.168759E+04 -1.434218E+05  2.675824E+03 -1.375402E+04
        86   9 -3.782560E+05 -1.193113E+05 -3.809274E+04 -1.538415E+05  4.393388E+03 -1.554387E+04
        86  10 -4.476734E+04  1.178594E+03  2.415077E+04 -6.111706E+04  9.024983E-09  7.258334E-09
        86  11 -1.914219E+04  1.358974E+04  2.843120E+04 -5.066879E+04  1.493904E-09  3.322938E-09
        86  12  1.104276E+04  2.123829E+04  3.216656E+04 -4.558760E+04 -1.199553E-08 -3.403879E-09
        86  13 -1.836137E+05 -4.896852E+04 -9.210727E+02 -9.974730E+04  1.468929E-09 -5.071831E-09
        86  14 -1.858899E+05 -4.661190E+04 -1.628017E+03 -9.705122E+04  4.227239E-09 -4.107400E-10
        86  15 -1.836276E+05 -4.903877E+04 -2.962942E+03 -9.972266E+04  2.745420E-09  5.600883E-10
        86  16 -3.224397E+05 -9.911380E+04 -2.599357E+04 -1.383695E+05 -4.309298E-09 -9.325432E-11
        86  17 -3.526074E+05 -1.068106E+05 -3.168796E+04 -1.434218E+05  6.080769E-09  4.305731E-09
        86  18 -3.782561E+05 -1.193115E+05 -3.809323E+04 -1.538414E+05  1.353660E-08  6.355570E-09
        86  19 -4.476724E+04  1.178702E+03  2.415106E+04 -6.111712E+04 -8.343325E+03  9.120800E+03
        86  20 -1.914205E+04  1.358989E+04  2.843161E+04 -5.066888E+04 -9.875090E+03  1.105170E+04
        86  21  1.104294E+04  2.123851E+04  3.216712E+04 -4.558772E+04 -1.138350E+04  1.291951E+04
        86  22 -1.836137E+05 -4.896839E+04 -9.208247E+02 -9.974734E+04 -4.638626E+03  1.051111E+04
        86  23 -1.858898E+05 -4.661172E+04 -1.627654E+03 -9.705128E+04 -6.274932E+03  1.240305E+04
        86  24 -1.836275E+05 -4.903853E+04 -2.962445E+03 -9.972275E+04 -7.887844E+03  1.423191E+04
        86  25 -3.224397E+05 -9.911365E+04 -2.599331E+04 -1.383695E+05 -9.348112E+02  1.190108E+04
        86  26 -3.526073E+05 -1.068104E+05 -3.168759E+04 -1.434218E+05 -2.675824E+03  1.375402E+04
        86  27 -3.782560E+05 -1.193113E+05 -3.809274E+04 -1.538415E+05 -4.393388E+03  1.554387E+04
        87   1  2.933954E+04  2.772198E+04  3.466297E+04 -4.082229E+04  1.250891E+04 -1.394580E+04
        87   2  5.463305E+04  4.036045E+04  3.685194E+04 -2.948841E+04  1.557128E+04 -1.483781E+04
        87   3  8.363847E+04  4.667396E+04  3.681423E+04 -2.312634E+04  1.835404E+04 -1.498361E+04
        87   4 -1.838032E+05 -4.898699E+04 -3.941851E+03 -9.980371E+04  8.912302E+03 -1.529628E+04
        87   5 -1.857251E+05 -4.702622E+04 -7.209436E+03 -9.682131E+04  1.321403E+04 -1.572347E+04
        87   6 -1.841823E+05 -5.163705E+04 -1.368667E+04 -9.881154E+04  1.723599E+04 -1.540432E+04
        87   7 -3.969004E+05 -1.256926E+05 -4.254881E+04 -1.587669E+05  5.316981E+03 -1.664629E+04
        87   8 -4.260239E+05 -1.344078E+05 -5.127325E+04 -1.641303E+05  1.085775E+04 -1.660876E+04
        87   9 -4.519282E+05 -1.499411E+05 -6.419048E+04 -1.744663E+05  1.611845E+04 -1.582484E+04
        87  10  2.933932E+04  2.772173E+04  3.466231E+04 -4.082215E+04 -1.017447E-09 -1.983742E-10
        87  11  5.463273E+04  4.036015E+04  3.685107E+04 -2.948823E+04 -3.526484E-10 -1.107542E-09
        87  12  8.363805E+04  4.667363E+04  3.681317E+04 -2.312611E+04  3.421618E-09  8.728526E-11
        87  13 -1.838034E+05 -4.898727E+04 -3.942440E+03 -9.980360E+04 -2.314556E-09  2.619437E-10
        87  14 -1.857254E+05 -4.702654E+04 -7.210228E+03 -9.682115E+04 -9.894125E-10  4.415084E-11
        87  15 -1.841827E+05 -5.163739E+04 -1.368767E+04 -9.881133E+04 -2.503950E-09  1.998648E-10
        87  16 -3.969005E+05 -1.256929E+05 -4.254939E+04 -1.587668E+05 -2.969996E-09  8.130701E-10
        87  17 -4.260241E+05 -1.344082E+05 -5.127399E+04 -1.641301E+05 -1.202469E-09  2.098843E-09
        87  18 -4.519286E+05 -1.499414E+05 -6.419143E+04 -1.744661E+05  2.803131E-09  9.235107E-10
        87  19  2.933954E+04  2.772198E+04  3.466297E+04 -4.082229E+04 -1.250891E+04  1.394580E+04
        87  20  5.463305E+04  4.036045E+04  3.685194E+04 -2.948841E+04 -1.557128E+04  1.483781E+04
        87  21  8.363847E+04  4.667396E+04  3.681423E+04 -2.312634E+04 -1.835404E+04  1.498361E+04
        87  22 -1.838032E+05 -4.898699E+04 -3.941851E+03 -9.980371E+04 -8.912302E+03  1.529628E+04
        87  23 -1.857251E+05 -4.702622E+04 -7.209436E+03 -9.682131E+04 -1.321403E+04  1.572347E+04
        87  24 -1.841823E+05 -5.163705E+04 -1.368667E+04 -9.881154E+04 -1.723599E+04  1.540432E+04
        87  25 -3.969004E+05 -1.256926E+05 -4.254881E+04 -1.587669E+05 -5.316981E+03  1.664629E+04
        87  26 -4.260239E+05 -1.344078E+05 -5.127325E+04 -1.641303E+05 -1.085775E+04  1.660876E+04
        87  27 -4.519282E+05 -1.499411E+05 -6.419048E+04 -1.744663E+05 -1.611845E+04  1.582484E+04
        88   1  1.035676E+05  5.083578E+04  3.634903E+04 -2.305003E+04  2.197981E+04 -1.470313E+04
        88   2  1.171833E+05  6.846009E+04  3.118135E+04  9.764515E+03  2.401142E+04 -1.046479E+04
        88   3  1.218592E+05  4.807631E+04  1.436062E+04  4.679922E+04  2.270424E+04  2.662354E+03
        88   4 -1.864060E+05 -5.086300E+04 -1.813652E+04 -9.992904E+04  1.964807E+04 -1.557956E+04
        88   5 -1.845086E+05 -5.898950E+04 -3.440575E+04 -9.130288E+04  3.645695E+04 -5.792562E+03
        88   6 -1.944862E+05 -1.080645E+05 -7.404175E+04 -7.845610E+04  4.992571E+04  1.288488E+04
        88   7 -4.762917E+05 -1.525554E+05 -7.262528E+04 -1.767752E+05  1.731749E+04 -1.645559E+04
        88   8 -4.861012E+05 -1.864206E+05 -9.999609E+04 -1.923204E+05  4.889582E+04 -1.123698E+03
        88   9 -5.107197E+05 -2.641701E+05 -1.624473E+05 -2.036425E+05  7.713133E+04  2.309730E+04
        88  10  1.035671E+05  5.083542E+04  3.634772E+04 -2.304977E+04  4.119814E-09  1.574461E-09
        88  11  1.171826E+05  6.845982E+04  3.118007E+04  9.764717E+03 -1.711162E-09  5.107740E-10
        88  12  1.218586E+05  4.807617E+04  1.435964E+04  4.679917E+04 -3.005264E-09 -5.349221E-10
        88  13 -1.864065E+05 -5.086337E+04 -1.813770E+04 -9.992879E+04 -8.981952E-10  3.696839E-10
        88  14 -1.845100E+05 -5.898989E+04 -3.440831E+04 -9.130271E+04 -1.786280E-09  1.764529E-11
        88  15 -1.944890E+05 -1.080653E+05 -7.404674E+04 -7.845662E+04 -4.332801E-10  5.192667E-11
        88  16 -4.762921E+05 -1.525558E+05 -7.262635E+04 -1.767750E+05  1.683646E-09 -9.769426E-10
        88  17 -4.861038E+05 -1.864213E+05 -1.000006E+05 -1.923204E+05  8.507697E-10 -6.242396E-10
        88  18 -5.107262E+05 -2.641723E+05 -1.624595E+05 -2.036439E+05 -4.324066E-11  9.182512E-12
        88  19  1.035676E+05  5.083578E+04  3.634903E+04 -2.305003E+04 -2.197981E+04  1.470313E+04
        88  20  1.171833E+05  6.846009E+04  3.118135E+04  9.764515E+03 -2.401142E+04  1.046479E+04
        88  21  1.218592E+05  4.807631E+04  1.436062E+04  4.679922E+04 -2.270424E+04 -2.662354E+03
        88  22 -1.864060E+05 -5.086300E+04 -1.813652E+04 -9.992904E+04 -1.964807E+04  1.557956E+04
        88  23 -1.845086E+05 -5.898950E+04 -3.440575E+04 -9.130288E+04 -3.645695E+04  5.792562E+03
        88  24 -1.944862E+05 -1.080645E+05 -7.404175E+04 -7.845610E+04 -4.992571E+04 -1.288488E+04
        88  25 -4.762917E+05 -1.525554E+05 -7.262528E+04 -1.767752E+05 -1.731749E+04  1.645559E+04
        88  26 -4.861012E+05 -1.864206E+05 -9.999609E+04 -1.923204E+05 -4.889582E+04  1.123698E+03
        88  27 -5.107197E+05 -2.641701E+05 -1.624473E+05 -2.036425E+05 -7.713133E+04 -2.309730E+04
        89   1  8.121979E+05  1.227012E+05  1.091824E+05  1.804964E+04  3.735074E+04 -8.849237E+03
        89   2  7.788434E+05  1.335614E+05  8.777688E+04  2.938474E+04  1.685014E+04 -3.080788E+04
        89   3  7.453346E+05  1.330710E+05  7.688519E+04  4.494694E+04 -3.658728E+03 -3.947584E+04
        89   4  1.423417E+05 -4.183211E+04 -4.430030E+04  4.610976E+04 -3.130470E+04 -8.911957E+03
        89   5  1.451961E+05 -1.509492E+04 -2.237927E+04  4.397667E+04 -1.987604E+04 -3.084731E+04
        89   6  1.423522E+05 -5.256091E+03 -1.210629E+04  4.607043E+04 -8.457206E+03 -3.948486E+04
        89   7 -5.270874E+05 -2.063911E+05 -1.977943E+05  7.413929E+04 -9.988674E+04 -8.980914E+03
        89   8 -4.880546E+05 -1.637713E+05 -1.325443E+05  5.855318E+04 -5.656591E+04 -3.088848E+04
        89   9 -4.602645E+05 -1.436001E+05 -1.011043E+05  4.719268E+04 -1.325122E+04 -3.949389E+04
        89  10  8.121964E+05  1.227007E+05  1.091796E+05  1.804991E+04  5.011052E-09 -5.488332E-10
        89  11  7.788428E+05  1.335603E+05  8.777457E+04  2.938516E+04  1.518046E-09 -2.675816E-09
        89  12  7.453341E+05  1.330693E+05  7.688223E+04  4.494682E+04 -1.335922E-09 -1.709856E-09
        89  13  1.423407E+05 -4.183245E+04 -4.430229E+04  4.610954E+04  1.144723E-09  2.795621E-10
        89  14  1.451954E+05 -1.509605E+04 -2.238180E+04  4.397618E+04  1.208309E-09 -1.928385E-09
        89  15  1.423518E+05 -5.257784E+03 -1.210936E+04  4.607016E+04 -1.213339E-09 -2.228705E-10
        89  16 -5.270981E+05 -2.063939E+05 -1.978133E+05  7.413856E+04 -3.121649E-09 -1.182986E-10
        89  17 -4.880583E+05 -1.637732E+05 -1.325521E+05  5.855177E+04 -2.467276E-09 -3.710092E-09
        89  18 -4.602651E+05 -1.436019E+05 -1.011075E+05  4.719226E+04  2.268486E-09 -3.186023E-09
        89  19  8.121979E+05  1.227012E+05  1.091824E+05  1.804964E+04 -3.735074E+04  8.849237E+03
        89  20  7.788434E+05  1.335614E+05  8.777688E+04  2.938474E+04 -1.685014E+04  3.080788E+04
        89  21  7.453346E+05  1.330710E+05  7.688519E+04  4.494694E+04  3.658728E+03  3.947584E+04
        89  22  1.423417E+05 -4.183211E+04 -4.430030E+04  4.610976E+04  3.130470E+04  8.911957E+03
        89  23  1.451961E+05 -1.509492E+04 -2.237927E+04  4.397667E+04  1.987604E+04  3.084731E+04
        89  24  1.423522E+05 -5.256091E+03 -1.210629E+04  4.607043E+04  8.457206E+03  3.948486E+04
        89  25 -5.270874E+05 -2.063911E+05 -1.977943E+05  7.413929E+04  9.988674E+04  8.980914E+03
        89  26 -4.880546E+05 -1.637713E+05 -1.325443E+05  5.855318E+04  5.656591E+04  3.088848E+04
        89  27 -4.602645E+05 -1.436001E+05 -1.011043E+05  4.719268E+04  1.325122E+04  3.949389E+04
        90   1  7.249459E+05  1.289791E+05  7.373552E+04  4.452887E+04 -3.139217E+03 -4.002435E+04
        90   2  6.916390E+05  1.229521E+05  6.844573E+04  4.307588E+04 -5.009497E+03 -4.068815E+04
        90   3  6.583417E+05  1.159811E+05  6.413888E+04  4.684143E+04 -6.882057E+03 -3.955556E+04
        90   4  1.434585E+05 -3.805162E+03 -9.028421E+03  4.629224E+04 -6.881402E+03 -4.003237E+04
        90   5  1.438343E+05 -1.214797E+03 -4.871594E+03  4.368059E+04 -4.437805E+03 -4.069117E+04
        90   6  1.434703E+05 -3.174541E+02 -2.726352E+03  4.628781E+04 -1.996511E+03 -3.955274E+04
        90   7 -4.376872E+05 -1.366047E+05 -9.179719E+04  4.805379E+04 -1.062023E+04 -4.004041E+04
        90   8 -4.036646E+05 -1.253946E+05 -7.819147E+04  4.428466E+04 -3.866592E+03 -4.069419E+04
        90   9 -3.711298E+05 -1.166271E+05 -6.959300E+04  4.573459E+04  2.885183E+03 -3.954992E+04
        90  10  7.249455E+05  1.289774E+05  7.373249E+04  4.452877E+04 -5.197776E-09 -1.481722E-09
        90  11  6.916385E+05  1.229504E+05  6.844257E+04  4.307571E+04  3.702109E-10  1.672890E-09
        90  12  6.583412E+05  1.159795E+05  6.413585E+04  4.684121E+04 -6.824463E-10  1.541948E-09
        90  13  1.434580E+05 -3.806896E+03 -9.031521E+03  4.629202E+04 -3.230372E-09 -1.120021E-09
        90  14  1.438338E+05 -1.216580E+03 -4.874743E+03  4.368045E+04  1.560772E-10  5.096421E-10
        90  15  1.434699E+05 -3.191352E+02 -2.729300E+03  4.628775E+04  2.252122E-10 -1.570908E-09
        90  16 -4.376877E+05 -1.366065E+05 -9.180042E+04  4.805345E+04  3.747050E-09  4.750534E-11
        90  17 -4.036651E+05 -1.253964E+05 -7.819461E+04  4.428453E+04  4.424094E-10  1.006648E-09
        90  18 -3.711302E+05 -1.166288E+05 -6.959595E+04  4.573468E+04 -9.718543E-10 -1.868068E-10
        90  19  7.249459E+05  1.289791E+05  7.373552E+04  4.452887E+04  3.139217E+03  4.002435E+04
        90  20  6.916390E+05  1.229521E+05  6.844573E+04  4.307588E+04  5.009497E+03  4.068815E+04
        90  21  6.583417E+05  1.159811E+05  6.413888E+04  4.684143E+04  6.882057E+03  3.955556E+04
        90  22  1.434585E+05 -3.805162E+03 -9.028421E+03  4.629224E+04  6.881402E+03  4.003237E+04
        90  23  1.438343E+05 -1.214797E+03 -4.871594E+03  4.368059E+04  4.437805E+03  4.069117E+04
        90  24  1.434703E+05 -3.174541E+02 -2.726352E+03  4.628781E+04  1.996511E+03  3.955274E+04
        90  25 -4.376872E+05 -1.366047E+05 -9.179719E+04  4.805379E+04  1.062023E+04  4.004041E+04
        90  26 -4.036646E+05 -1.253946E+05 -7.819147E+04  4.428466E+04  3.866592E+03  4.069419E+04
        90  27 -3.711298E+05 -1.166271E+05 -6.959300E+04  4.573459E+04 -2.885183E+03  3.954992E+04
        91   1  6.378295E+05  1.113386E+05  6.163146E+04  4.675474E+04 -6.623972E+03 -3.828886E+04
        91   2  6.045679E+05  1.039256E+05  5.767138E+04  4.412599E+04 -6.637679E+03 -3.607513E+04
        91   3  5.712918E+05  9.646698E+04  5.370732E+04  4.684518E+04 -6.652283E+03 -3.361897E+04
        91   4  1.436127E+05 -1.958659E+02 -2.053081E+03  4.631677E+04 -1.596686E+03 -3.828543E+04
        91   5  1.436762E+05  2.412578E+01 -1.147582E+03  4.364248E+04 -1.028565E+03 -3.607024E+04
        91   6  1.436231E+05  9.742129E+01 -6.501596E+02  4.631635E+04 -4.613405E+02 -3.361252E+04
        91   7 -3.503540E+05 -1.117404E+05 -6.573873E+04  4.587907E+04  3.426795E+03 -3.828201E+04
        91   8 -3.169976E+05 -1.038861E+05 -5.996728E+04  4.315926E+04  4.576592E+03 -3.606536E+04
        91   9 -2.838579E+05 -9.627961E+04 -5.500817E+04  4.578784E+04  5.725550E+03 -3.360608E+04
        91  10  6.378290E+05  1.113370E+05  6.162862E+04  4.675454E+04 -2.627590E-09  2.312970E-09
        91  11  6.045675E+05  1.039242E+05  5.766885E+04  4.412580E+04 -2.601067E-11  2.279395E-09
        91  12  5.712915E+05  9.646576E+04  5.370512E+04  4.684500E+04  1.734440E-09  4.632422E-10
        91  13  1.436123E+05 -1.974406E+02 -2.055840E+03  4.631672E+04 -3.334077E-09 -1.895785E-09
        91  14  1.436759E+05  2.272829E+01 -1.150029E+03  4.364245E+04 -1.441868E-09  1.949827E-09
        91  15  1.436228E+05  9.620794E+01 -6.522832E+02  4.631634E+04  4.677408E-09  2.818413E-09
        91  16 -3.503544E+05 -1.117420E+05 -6.574151E+04  4.587918E+04  2.667763E-09 -1.483600E-10
        91  17 -3.169980E+05 -1.038875E+05 -5.996977E+04  4.315939E+04  1.716128E-09  1.372100E-09
        91  18 -2.838583E+05 -9.628083E+04 -5.501035E+04  4.578800E+04  1.414024E-09 -5.525878E-11
        91  19  6.378295E+05  1.113386E+05  6.163146E+04  4.675474E+04  6.623972E+03  3.828886E+04
        91  20  6.045679E+05  1.039256E+05  5.767138E+04  4.412599E+04  6.637679E+03  3.607513E+04
        91  21  5.712918E+05  9.646698E+04  5.370732E+04  4.684518E+04  6.652283E+03  3.361897E+04
        91  22  1.436127E+05 -1.958659E+02 -2.053081E+03  4.631677E+04  1.596686E+03  3.828543E+04
        91  23  1.436762E+05  2.412578E+01 -1.147582E+03  4.364248E+04  1.028565E+03  3.607024E+04
        91  24  1.436231E+05  9.742129E+01 -6.501596E+02  4.631635E+04  4.613405E+02  3.361252E+04
        91  25 -3.503540E+05 -1.117404E+05 -6.573873E+04  4.587907E+04 -3.426795E+03  3.828201E+04
        91  26 -3.169976E+05 -1.038861E+05 -5.996728E+04  4.315926E+04 -4.576592E+03  3.606536E+04
        91  27 -2.838579E+05 -9.627961E+04 -5.500817E+04  4.578784E+04 -5.725550E+03  3.360608E+04
        92   1  5.507840E+05  9.181823E+04  5.109995E+04  4.681346E+04 -6.571612E+03 -3.210766E+04
        92   2  5.175403E+05  8.433066E+04  4.707214E+04  4.409927E+04 -6.517338E+03 -2.950616E+04
        92   3  4.842837E+05  7.686083E+04  4.300993E+04  4.674744E+04 -6.463622E+03 -2.687231E+04
        92   4  1.436460E+05  1.056431E+02 -4.898225E+02  4.631958E+04 -3.622711E+02 -3.210077E+04
        92   5  1.436643E+05  1.152357E+02 -2.725961E+02  4.363830E+04 -2.305749E+02 -2.949852E+04
        92   6  1.436545E+05  1.289985E+02 -1.438136E+02  4.631956E+04 -9.943524E+01 -2.686391E+04
        92   7 -2.633219E+05 -9.161369E+04 -5.208001E+04  4.582598E+04  5.843202E+03 -3.209389E+04
        92   8 -2.300682E+05 -8.410587E+04 -4.761765E+04  4.317756E+04  6.052591E+03 -2.949088E+04
        92   9 -1.968555E+05 -7.660755E+04 -4.329779E+04  4.589187E+04  6.261434E+03 -2.685551E+04
        92  10  5.507837E+05  9.181711E+04  5.109793E+04  4.681329E+04  4.913770E-11  1.689890E-10
        92  11  5.175401E+05  8.432972E+04  4.707042E+04  4.409911E+04 -2.098052E-09  3.016316E-09
        92  12  4.842835E+05  7.686004E+04  4.300849E+04  4.674730E+04 -2.214979E-09  1.136281E-09
        92  13  1.436457E+05  1.045364E+02 -4.917593E+02  4.631957E+04  3.247288E-09  1.032562E-09
        92  14  1.436641E+05  1.143012E+02 -2.742315E+02  4.363829E+04 -1.322405E-09  4.040852E-09
        92  15  1.436543E+05  1.282235E+02 -1.451699E+02  4.631955E+04 -1.978743E-09  1.965798E-10
        92  16 -2.633222E+05 -9.161481E+04 -5.208201E+04  4.582613E+04 -6.320330E-10  2.216639E-10
        92  17 -2.300685E+05 -8.410682E+04 -4.761935E+04  4.317771E+04  2.695280E-10  1.698090E-09
        92  18 -1.968557E+05 -7.660833E+04 -4.329922E+04  4.589201E+04  2.847765E-09  8.482783E-10
        92  19  5.507840E+05  9.181823E+04  5.109995E+04  4.681346E+04  6.571612E+03  3.210766E+04
        92  20  5.175403E+05  8.433066E+04  4.707214E+04  4.409927E+04  6.517338E+03  2.950616E+04
        92  21  4.842837E+05  7.686083E+04  4.300993E+04  4.674744E+04  6.463622E+03  2.687231E+04
        92  22  1.436460E+05  1.056431E+02 -4.898225E+02  4.631958E+04  3.622711E+02  3.210077E+04
        92  23  1.436643E+05  1.152357E+02 -2.725961E+02  4.363830E+04  2.305749E+02  2.949852E+04
        92  24  1.436545E+05  1.289985E+02 -1.438136E+02  4.631956E+04  9.943524E+01  2.686391E+04
        92  25 -2.633219E+05 -9.161369E+04 -5.208001E+04  4.582598E+04 -5.843202E+03  3.209389E+04
        92  26 -2.300682E+05 -8.410587E+04 -4.761765E+04  4.317756E+04 -6.052591E+03  2.949088E+04
        92  27 -1.968555E+05 -7.660755E+04 -4.329779E+04  4.589187E+04 -6.261434E+03  2.685551E+04
        93   1  4.637831E+05  7.222155E+04  4.034327E+04  4.672523E+04 -6.445563E+03 -2.532854E+04
        93   2  4.305528E+05  6.474025E+04  3.625234E+04  4.400642E+04 -6.442671E+03 -2.267600E+04
        93   3  3.973112E+05  5.727950E+04  3.215932E+04  4.665286E+04 -6.440178E+03 -2.002018E+04
        93   4  1.436604E+05  1.309676E+02 -9.909795E+01  4.632019E+04 -7.957208E+01 -2.531980E+04
        93   5  1.436702E+05  1.263444E+02 -2.931601E+01  4.363750E+04 -6.892325E+01 -2.266675E+04
        93   6  1.436669E+05  1.410638E+02  3.304936E+01  4.632019E+04 -5.867302E+01 -2.001042E+04
        93   7 -1.763571E+05 -7.196376E+04 -4.054164E+04  4.591533E+04  6.283301E+03 -2.531106E+04
        93   8 -1.431277E+05 -6.449090E+04 -3.631108E+04  4.326872E+04  6.302027E+03 -2.265750E+04
        93   9 -1.099112E+05 -5.699997E+04 -3.209329E+04  4.598763E+04  6.320355E+03 -2.000067E+04
        93  10  4.637829E+05  7.222085E+04  4.034199E+04  4.672510E+04 -5.967286E-08 -1.879958E-09
        93  11  4.305526E+05  6.473969E+04  3.625129E+04  4.400630E+04  2.992998E-09 -2.776046E-09
        93  12  3.973110E+05  5.727906E+04  3.215849E+04  4.665276E+04  6.649153E-08 -4.968111E-09
        93  13  1.436602E+05  1.302791E+02 -1.003028E+02  4.632019E+04  1.177088E-09  2.626848E-09
        93  14  1.436701E+05  1.257926E+02 -3.028158E+01  4.363749E+04 -8.503339E-10 -1.608434E-09
        93  15  1.436668E+05  1.406338E+02  3.229685E+01  4.632019E+04 -5.361763E-09 -4.531899E-09
        93  16 -1.763573E+05 -7.196446E+04 -4.054291E+04  4.591546E+04  6.065968E-08  1.683396E-09
        93  17 -1.431279E+05 -6.449146E+04 -3.631212E+04  4.326883E+04 -5.950333E-09 -3.548729E-09
        93  18 -1.099113E+05 -5.700041E+04 -3.209411E+04  4.598773E+04 -6.797297E-08 -4.377416E-09
        93  19  4.637831E+05  7.222155E+04  4.034327E+04  4.672523E+04  6.445563E+03  2.532854E+04
        93  20  4.305528E+05  6.474025E+04  3.625234E+04  4.400642E+04  6.442671E+03  2.267600E+04
        93  21  3.973112E+05  5.727950E+04  3.215932E+04  4.665286E+04  6.440178E+03  2.002018E+04
        93  22  1.436604E+05  1.309676E+02 -9.909795E+01  4.632019E+04  7.957208E+01  2.531980E+04
        93  23  1.436702E+05  1.263444E+02 -2.931601E+01  4.363750E+04  6.892325E+01  2.266675E+04
        93  24  1.436669E+05  1.410638E+02  3.304936E+01  4.632019E+04  5.867302E+01  2.001042E+04
        93  25 -1.763571E+05 -7.196376E+04 -4.054164E+04  4.591533E+04 -6.283301E+03  2.531106E+04
        93  26 -1.431277E+05 -6.449090E+04 -3.631108E+04  4.326872E+04 -6.302027E+03  2.265750E+04
        93  27 -1.099112E+05 -5.699997E+04 -3.209329E+04  4.598763E+04 -6.320355E+03  2.000067E+04
        94   1  3.768202E+05  5.264409E+04  2.948835E+04  4.663151E+04 -6.450457E+03 -1.847322E+04
        94   2  3.435948E+05  4.517325E+04  2.541935E+04  4.390089E+04 -6.516466E+03 -1.581886E+04
        94   3  3.103692E+05  3.774261E+04  2.139704E+04  4.653303E+04 -6.582737E+03 -1.317034E+04
        94   4  1.436720E+05  1.438468E+02  6.639536E+01  4.631963E+04 -6.965732E+01 -1.846322E+04
        94   5  1.436737E+05  1.467603E+02  1.528143E+02  4.363816E+04 -1.498308E+02 -1.580853E+04
        94   6  1.436765E+05  1.923522E+02  2.956459E+02  4.631956E+04 -2.302693E+02 -1.315970E+04
        94   7 -8.942037E+04 -5.235859E+04 -2.935557E+04  4.600785E+04  6.308866E+03 -1.845322E+04
        94   8 -5.620625E+04 -4.488134E+04 -2.511370E+04  4.337551E+04  6.214857E+03 -1.579821E+04
        94   9 -2.298748E+04 -3.735902E+04 -2.080569E+04  4.610614E+04  6.120578E+03 -1.314905E+04
        94  10  3.768201E+05  5.264371E+04  2.948763E+04  4.663142E+04 -6.474476E-08 -2.181500E-09
        94  11  3.435947E+05  4.517297E+04  2.541880E+04  4.390080E+04  1.721031E-09 -1.683445E-09
        94  12  3.103691E+05  3.774241E+04  2.139663E+04  4.653296E+04  6.919428E-08  7.864240E-10
        94  13  1.436719E+05  1.434808E+02  6.575471E+01  4.631963E+04 -3.244996E-09 -2.699970E-09
        94  14  1.436736E+05  1.464919E+02  1.523446E+02  4.363816E+04  1.260561E-09 -2.345411E-09
        94  15  1.436765E+05  1.921662E+02  2.953203E+02  4.631956E+04 -3.582771E-10  1.169418E-09
        94  16 -8.942051E+04 -5.235896E+04 -2.935628E+04  4.600794E+04  6.538244E-08 -1.318052E-09
        94  17 -5.620636E+04 -4.488161E+04 -2.511424E+04  4.337559E+04 -5.589032E-09 -7.613357E-09
        94  18 -2.298757E+04 -3.735921E+04 -2.080608E+04  4.610620E+04 -6.712009E-08 -1.762157E-09
        94  19  3.768202E+05  5.264409E+04  2.948835E+04  4.663151E+04  6.450457E+03  1.847322E+04
        94  20  3.435948E+05  4.517325E+04  2.541935E+04  4.390089E+04  6.516466E+03  1.581886E+04
        94  21  3.103692E+05  3.774261E+04  2.139704E+04  4.653303E+04  6.582737E+03  1.317034E+04
        94  22  1.436720E+05  1.438468E+02  6.639536E+01  4.631963E+04  6.965732E+01  1.846322E+04
        94  23  1.436737E+05  1.467603E+02  1.528143E+02  4.363816E+04  1.498308E+02  1.580853E+04
        94  24  1.436765E+05  1.923522E+02  2.956459E+02  4.631956E+04  2.302693E+02  1.315970E+04
        94  25 -8.942037E+04 -5.235859E+04 -2.935557E+04  4.600785E+04 -6.308866E+03  1.845322E+04
        94  26 -5.620625E+04 -4.488134E+04 -2.511370E+04  4.337551E+04 -6.214857E+03  1.579821E+04
        94  27 -2.298748E+04 -3.735902E+04 -2.080569E+04  4.610614E+04 -6.120578E+03  1.314905E+04
        95   1  2.898987E+05  3.312194E+04  1.878644E+04  4.652211E+04 -6.639392E+03 -1.162940E+04
        95   2  2.566430E+05  2.576449E+04  1.490443E+04  4.362662E+04 -6.894127E+03 -9.008680E+03
        95   3  2.234635E+05  1.866115E+04  1.124486E+04  4.608895E+04 -7.148924E+03 -6.434053E+03
        95   4  1.436983E+05  2.113074E+02  3.983051E+02  4.631850E+04 -2.909197E+02 -1.161860E+04
        95   5  1.436527E+05  3.353811E+02  7.205949E+02  4.363913E+04 -6.564765E+02 -8.997882E+03
        95   6  1.437008E+05  7.327021E+02  1.342009E+03  4.631761E+04 -1.022106E+03 -6.423264E+03
        95   7 -2.479985E+03 -3.270017E+04 -1.798974E+04  4.611494E+04  6.056133E+03 -1.160780E+04
        95   8  3.067566E+04 -2.509422E+04 -1.346313E+04  4.365163E+04  5.580095E+03 -8.987083E+03
        95   9  6.394483E+04 -1.719598E+04 -8.560707E+03  4.654625E+04  5.103965E+03 -6.412469E+03
        95  10  2.898986E+05  3.312178E+04  1.878611E+04  4.652205E+04  7.066590E-08  3.400979E-09
        95  11  2.566429E+05  2.576439E+04  1.490419E+04  4.362657E+04  4.234886E-08 -1.800513E-09
        95  12  2.234634E+05  1.866109E+04  1.124468E+04  4.608891E+04  9.614774E-09 -5.692370E-10
        95  13  1.436983E+05  2.111624E+02  3.980512E+02  4.631850E+04  2.169593E-09  4.648231E-09
        95  14  1.436527E+05  3.352940E+02  7.204419E+02  4.363913E+04 -2.675581E-10  1.143684E-08
        95  15  1.437008E+05  7.326576E+02  1.341930E+03  4.631761E+04 -1.523137E-09  1.466554E-08
        95  16 -2.480061E+03 -3.270033E+04 -1.799006E+04  4.611500E+04 -6.775817E-08  2.521175E-09
        95  17  3.067560E+04 -2.509432E+04 -1.346334E+04  4.365167E+04 -4.425076E-08  1.832839E-09
        95  18  6.394479E+04 -1.719603E+04 -8.560833E+03  4.654627E+04 -1.212801E-08 -6.870558E-09
        95  19  2.898987E+05  3.312194E+04  1.878644E+04  4.652211E+04  6.639392E+03  1.162940E+04
        95  20  2.566430E+05  2.576449E+04  1.490443E+04  4.362662E+04  6.894127E+03  9.008680E+03
        95  21  2.234635E+05  1.866115E+04  1.124486E+04  4.608895E+04  7.148924E+03  6.434053E+03
        95  22  1.436983E+05  2.113074E+02  3.983051E+02  4.631850E+04  2.909197E+02  1.161860E+04
        95  23  1.436527E+05  3.353811E+02  7.205949E+02  4.363913E+04  6.564765E+02  8.997882E+03
        95  24  1.437008E+05  7.327021E+02  1.342009E+03  4.631761E+04  1.022106E+03  6.423264E+03
        95  25 -2.479985E+03 -3.270017E+04 -1.798974E+04  4.611494E+04 -6.056133E+03  1.160780E+04
        95  26  3.067566E+04 -2.509422E+04 -1.346313E+04  4.365163E+04 -5.580095E+03  8.987083E+03
        95  27  6.394483E+04 -1.719598E+04 -8.560707E+03  4.654625E+04 -5.103965E+03  6.412469E+03
        96   1  2.031183E+05  1.421839E+04  8.912908E+03  4.615114E+04 -7.358363E+03 -4.939957E+03
        96   2  1.695632E+05  8.123122E+03  5.862276E+03  4.143176E+04 -8.241490E+03 -2.571049E+03
        96   3  1.367004E+05  4.426010E+03  3.978862E+03  4.204222E+04 -9.124059E+03 -5.428970E+02
        96   4  1.438658E+05  9.487943E+02  1.801070E+03  4.631187E+04 -1.258908E+03 -4.929146E+03
        96   5  1.434491E+05  2.404517E+03  3.331123E+03  4.364224E+04 -2.960114E+03 -2.561677E+03
        96   6  1.438660E+05  6.400558E+03  6.596427E+03  4.630238E+04 -4.660812E+03 -5.349787E+02
        96   7  8.461694E+04 -1.232092E+04 -5.310623E+03  4.647259E+04  4.839995E+03 -4.918331E+03
        96   8  1.173358E+05 -3.314078E+03  8.000905E+02  4.585263E+04  2.321054E+03 -2.552268E+03
        96   9  1.510318E+05  8.375179E+03  9.214070E+03  5.056258E+04 -1.975117E+02 -5.269992E+02
        96  10  2.031183E+05  1.421835E+04  8.912760E+03  4.615111E+04 -6.916215E-08 -2.327059E-09
        96  11  1.695632E+05  8.123097E+03  5.862136E+03  4.143175E+04 -3.817626E-08 -3.536228E-09
        96  12  1.367003E+05  4.425987E+03  3.978705E+03  4.204222E+04 -1.585233E-09 -8.663461E-10
        96  13  1.438658E+05  9.487678E+02  1.801021E+03  4.631187E+04 -2.011713E-09  1.690471E-08
        96  14  1.434491E+05  2.404507E+03  3.331094E+03  4.364224E+04  1.222028E-09  2.454952E-09
        96  15  1.438660E+05  6.400551E+03  6.596385E+03  4.630237E+04 -2.575180E-09  3.895738E-09
        96  16  8.461691E+04 -1.232095E+04 -5.310712E+03  4.647261E+04  6.788278E-08 -3.698948E-09
        96  17  1.173358E+05 -3.314086E+03  8.000682E+02  4.585263E+04  3.304046E-08 -3.284317E-09
        96  18  1.510318E+05  8.375178E+03  9.214069E+03  5.056258E+04  2.979682E-09 -1.312174E-09
        96  19  2.031183E+05  1.421839E+04  8.912908E+03  4.615114E+04  7.358363E+03  4.939957E+03
        96  20  1.695632E+05  8.123122E+03  5.862276E+03  4.143176E+04  8.241490E+03  2.571049E+03
        96  21  1.367004E+05  4.426010E+03  3.978862E+03  4.204222E+04  9.124059E+03  5.428970E+02
        96  22  1.438658E+05  9.487943E+02  1.801070E+03  4.631187E+04  1.258908E+03  4.929146E+03
        96  23  1.434491E+05  2.404517E+03  3.331123E+03  4.364224E+04  2.960114E+03  2.561677E+03
        96  24  1.438660E+05  6.400558E+03  6.596427E+03  4.630238E+04  4.660812E+03  5.349787E+02
        96  25  8.461694E+04 -1.232092E+04 -5.310623E+03  4.647259E+04 -4.839995E+03  4.918331E+03
        96  26  1.173358E+05 -3.314078E+03  8.000905E+02  4.585263E+04 -2.321054E+03  2.552268E+03
        96  27  1.510318E+05  8.375179E+03  9.214070E+03  5.056258E+04  1.975117E+02  5.269992E+02
        97   1 -7.488364E+02  3.551488E+05  1.025572E+03 -4.549613E+04 -1.107176E+03 -3.277175E+03
        97   2 -1.422413E+04  3.156901E+05 -7.048166E+03 -3.922204E+04 -4.649917E+03 -4.762505E+03
        97   3 -2.437852E+04  2.772389E+05 -1.333043E+04 -4.138707E+04 -7.772921E+03 -6.247312E+03
        97   4  6.065393E+03  3.834792E+05  6.820002E+03 -4.156940E+04 -1.113164E+03  3.392607E+03
        97   5  1.494006E+03  3.829108E+05  4.368170E+03 -3.735231E+04 -4.655101E+03  1.161274E+03
        97   6  3.730001E+02  3.834783E+05  4.225693E+03 -4.157416E+04 -7.777312E+03 -1.069624E+03
        97   7  1.287965E+04  4.118105E+05  1.261456E+04 -3.764249E+04 -1.119068E+03  1.006269E+04
        97   8  1.721193E+04  4.501360E+05  1.578449E+04 -3.548236E+04 -4.660248E+03  7.085673E+03
        97   9  2.512395E+04  4.897290E+05  2.178158E+04 -4.176127E+04 -7.781706E+03  4.108919E+03
        97  10 -7.488406E+02  3.551488E+05  1.025549E+03 -4.549613E+04  8.338913E-11 -8.197758E-09
        97  11 -1.422416E+04  3.156901E+05 -7.048249E+03 -3.922206E+04 -4.515630E-10  9.871174E-10
        97  12 -2.437860E+04  2.772389E+05 -1.333062E+04 -4.138711E+04 -3.402725E-09  1.290386E-08
        97  13  6.065389E+03  3.834792E+05  6.819978E+03 -4.156940E+04  3.006669E-09 -9.766240E-10
        97  14  1.493982E+03  3.829108E+05  4.368127E+03 -3.735230E+04  4.866781E-09  8.249896E-10
        97  15  3.729349E+02  3.834783E+05  4.225577E+03 -4.157416E+04  4.201487E-09 -1.118609E-10
        97  16  1.287963E+04  4.118104E+05  1.261437E+04 -3.764248E+04 -1.016060E-09  7.279960E-09
        97  17  1.721190E+04  4.501359E+05  1.578436E+04 -3.548233E+04 -2.084052E-09 -3.812989E-09
        97  18  2.512388E+04  4.897289E+05  2.178144E+04 -4.176124E+04 -3.963719E-09 -1.387754E-08
        97  19 -7.488364E+02  3.551488E+05  1.025572E+03 -4.549613E+04  1.107176E+03  3.277175E+03
        97  20 -1.422413E+04  3.156901E+05 -7.048166E+03 -3.922204E+04  4.649917E+03  4.762505E+03
        97  21 -2.437852E+04  2.772389E+05 -1.333043E+04 -4.138707E+04  7.772921E+03  6.247312E+03
        97  22  6.065393E+03  3.834792E+05  6.820002E+03 -4.156940E+04  1.113164E+03 -3.392607E+03
        97  23  1.494006E+03  3.829108E+05  4.368170E+03 -3.735231E+04  4.655101E+03 -1.161274E+03
        97  24  3.730001E+02  3.834783E+05  4.225693E+03 -4.157416E+04  7.777312E+03  1.069624E+03
        97  25  1.287965E+04  4.118105E+05  1.261456E+04 -3.764249E+04  1.119068E+03 -1.006269E+04
        97  26  1.721193E+04  4.501360E+05  1.578449E+04 -3.548236E+04  4.660248E+03 -7.085673E+03
        97  27  2.512395E+04  4.897290E+05  2.178158E+04 -4.176127E+04  7.781706E+03 -4.108919E+03
        98   1 -3.026494E+04  2.520389E+05 -1.714227E+04 -4.198788E+04 -9.497567E+03 -7.077171E+03
        98   2 -3.919683E+04  2.127249E+05 -2.171713E+04 -3.696563E+04 -1.209178E+04 -9.173997E+03
        98   3 -4.652918E+04  1.740724E+05 -2.453105E+04 -4.031784E+04 -1.394256E+04 -1.126987E+04
        98   4  3.704303E+02  3.834222E+05  4.702842E+03 -4.155946E+04 -9.501921E+03 -1.805476E+03
        98   5  5.542765E+02  3.829751E+05  6.841181E+03 -3.737139E+04 -1.209474E+04 -5.223915E+03
        98   6  2.566752E+03  3.834169E+05  1.165736E+04 -4.155758E+04 -1.394423E+04 -8.641528E+03
        98   7  3.100492E+04  5.148226E+05  2.654753E+04 -4.113094E+04 -9.506268E+03  3.467296E+03
        98   8  4.030387E+04  5.532539E+05  3.539864E+04 -3.777726E+04 -1.209771E+04 -1.272785E+03
        98   9  5.166033E+04  5.928044E+05  4.784428E+04 -4.279775E+04 -1.394590E+04 -6.012327E+03
        98  10 -3.026505E+04  2.520388E+05 -1.714253E+04 -4.198793E+04 -2.901086E-09 -1.363589E-08
        98  11 -3.919700E+04  2.127248E+05 -2.171756E+04 -3.696572E+04 -1.375155E-09 -3.471909E-09
        98  12 -4.652942E+04  1.740722E+05 -2.453166E+04 -4.031797E+04 -1.476864E-10  8.769008E-09
        98  13  3.703324E+02  3.834222E+05  4.702666E+03 -4.155947E+04  3.438598E-09 -8.513963E-10
        98  14  5.541121E+02  3.829751E+05  6.840855E+03 -3.737145E+04  4.150487E-09  8.677655E-10
        98  15  2.566523E+03  3.834167E+05  1.165685E+04 -4.155768E+04 -9.564558E-10 -1.126465E-10
        98  16  3.100482E+04  5.148226E+05  2.654734E+04 -4.113091E+04 -2.386134E-09  1.281308E-08
        98  17  4.030371E+04  5.532539E+05  3.539836E+04 -3.777728E+04 -3.407757E-09  1.083309E-09
        98  18  5.166011E+04  5.928043E+05  4.784385E+04 -4.279782E+04 -1.641154E-09 -9.657835E-09
        98  19 -3.026494E+04  2.520389E+05 -1.714227E+04 -4.198788E+04  9.497567E+03  7.077171E+03
        98  20 -3.919683E+04  2.127249E+05 -2.171713E+04 -3.696563E+04  1.209178E+04  9.173997E+03
        98  21 -4.652918E+04  1.740724E+05 -2.453105E+04 -4.031784E+04  1.394256E+04  1.126987E+04
        98  22  3.704303E+02  3.834222E+05  4.702842E+03 -4.155946E+04  9.501921E+03  1.805476E+03
        98  23  5.542765E+02  3.829751E+05  6.841181E+03 -3.737139E+04  1.209474E+04  5.223915E+03
        98  24  2.566752E+03  3.834169E+05  1.165736E+04 -4.155758E+04  1.394423E+04  8.641528E+03
        98  25  3.100492E+04  5.148226E+05  2.654753E+04 -4.113094E+04  9.506268E+03 -3.467296E+03
        98  26  4.030387E+04  5.532539E+05  3.539864E+04 -3.777726E+04  1.209771E+04  1.272785E+03
        98  27  5.166033E+04  5.928044E+05  4.784428E+04 -4.279775E+04  1.394590E+04  6.012327E+03
        99   1 -5.295522E+04  1.503139E+05 -2.596008E+04 -4.359333E+04 -1.519179E+04 -1.391426E+04
        99   2 -5.283179E+04  1.079577E+05 -2.543211E+04 -2.244514E+04 -1.333808E+04 -1.482245E+04
        99   3 -2.673791E+04  7.221005E+04 -1.781990E+04 -9.176206E+03 -4.076786E+03 -1.572596E+04
        99   4  2.227235E+03  3.851926E+05  1.516269E+04 -4.145151E+04 -1.519389E+04 -1.063102E+04
        99   5  1.228545E+04  3.807415E+05  2.731629E+04 -3.749472E+04 -1.333005E+04 -2.470084E+04
        99   6  5.059071E+04  3.851767E+05  5.568799E+04 -4.141611E+04 -4.060072E+03 -3.876614E+04
        99   7  5.740672E+04  6.201254E+05  5.628352E+04 -3.930884E+04 -1.519596E+04 -7.346575E+03
        99   8  7.739916E+04  6.535975E+05  8.006170E+04 -5.255105E+04 -1.332155E+04 -3.458348E+04
        99   9  1.279165E+05  6.982368E+05  1.291917E+05 -7.367235E+04 -4.040971E+03 -6.181787E+04
        99  10 -5.295552E+04  1.503136E+05 -2.596088E+04 -4.359350E+04 -3.649380E-10  3.710249E-09
        99  11 -5.283204E+04  1.079574E+05 -2.543286E+04 -2.244530E+04  1.837032E-09  2.219778E-10
        99  12 -2.673799E+04  7.220978E+04 -1.782039E+04 -9.176258E+03  4.277690E-10 -1.733024E-09
        99  13  2.226957E+03  3.851924E+05  1.516204E+04 -4.145164E+04  1.171269E-09 -8.109163E-10
        99  14  1.228510E+04  3.807408E+05  2.731481E+04 -3.749499E+04  7.503764E-10  8.489791E-10
        99  15  5.059029E+04  3.851750E+05  5.568513E+04 -4.141624E+04  5.925438E-10 -1.331591E-10
        99  16  5.740645E+04  6.201252E+05  5.628298E+04 -3.930893E+04  6.823969E-10 -4.421334E-09
        99  17  7.739865E+04  6.535961E+05  8.005912E+04 -5.255142E+04 -1.677818E-09 -2.292479E-09
        99  18  1.279155E+05  6.982326E+05  1.291845E+05 -7.367255E+04  1.659708E-10  1.033195E-09
        99  19 -5.295522E+04  1.503139E+05 -2.596008E+04 -4.359333E+04  1.519179E+04  1.391426E+04
        99  20 -5.283179E+04  1.079577E+05 -2.543211E+04 -2.244514E+04  1.333808E+04  1.482245E+04
        99  21 -2.673791E+04  7.221005E+04 -1.781990E+04 -9.176206E+03  4.076786E+03  1.572596E+04
        99  22  2.227235E+03  3.851926E+05  1.516269E+04 -4.145151E+04  1.519389E+04  1.063102E+04
        99  23  1.228545E+04  3.807415E+05  2.731629E+04 -3.749472E+04  1.333005E+04  2.470084E+04
        99  24  5.059071E+04  3.851767E+05  5.568799E+04 -4.141611E+04  4.060072E+03  3.876614E+04
        99  25  5.740672E+04  6.201254E+05  5.628352E+04 -3.930884E+04  1.519596E+04  7.346575E+03
        99  26  7.739916E+04  6.535975E+05  8.006170E+04 -5.255105E+04  1.332155E+04  3.458348E+04
        99  27  1.279165E+05  6.982368E+05  1.291917E+05 -7.367235E+04  4.040971E+03  6.181787E+04
       100   1  8.289369E+05  2.928817E+05  1.420392E+05  3.113638E+05  5.623349E+04  1.141040E+04
       100   2  7.809998E+05  2.758376E+05  1.011009E+05  2.981730E+05  3.635036E+04 -1.944899E+04
       100   3  7.320459E+05  2.649236E+05  8.083786E+04  2.917294E+05  1.132865E+04 -3.662605E+04
       100   4  2.098155E+05  6.863762E+04 -1.286780E+04  1.491718E+05 -5.236169E+03 -1.170881E+04
       100   5  2.140565E+05  7.337439E+04 -6.190262E+03  1.440141E+05  5.665307E+03 -3.099528E+04
       100   6  2.111859E+05  7.814847E+04 -3.207239E+03  1.456037E+05  1.142216E+04 -3.659461E+04
       100   7 -4.088937E+05 -1.555732E+05 -1.677804E+05 -1.286649E+04 -6.663586E+04 -3.480354E+04
       100   8 -3.525356E+05 -1.290563E+05 -1.134866E+05 -1.001116E+04 -2.498899E+04 -4.253048E+04
       100   9 -3.093820E+05 -1.085983E+05 -8.725753E+04 -4.068429E+02  1.151559E+04 -3.656320E+04
       100  10  8.289335E+05  2.928807E+05  1.420330E+05  3.113633E+05  5.380973E-08  2.157189E-08
       100  11  7.809983E+05  2.758368E+05  1.010978E+05  2.981736E+05 -2.540007E-08 -5.384672E-09
       100  12  7.320454E+05  2.649221E+05  8.083510E+04  2.917298E+05 -1.168394E-07 -4.183374E-08
       100  13  2.098154E+05  6.863747E+04 -1.286811E+04  1.491718E+05  8.638705E-09  1.131783E-09
       100  14  2.140563E+05  7.337335E+04 -6.192128E+03  1.440142E+05  1.342184E-08 -3.353440E-09
       100  15  2.111854E+05  7.814700E+04 -3.210002E+03  1.456040E+05  1.027516E-08 -1.475109E-08
       100  16 -4.088988E+05 -1.555757E+05 -1.677910E+05 -1.286835E+04 -4.232771E-08 -1.480123E-08
       100  17 -3.525368E+05 -1.290584E+05 -1.134911E+05 -1.001202E+04  4.531180E-08  1.973147E-08
       100  18 -3.093825E+05 -1.085997E+05 -8.726029E+04 -4.065037E+02  1.095699E-07  4.804516E-08
       100  19  8.289369E+05  2.928817E+05  1.420392E+05  3.113638E+05 -5.623349E+04 -1.141040E+04
       100  20  7.809998E+05  2.758376E+05  1.011009E+05  2.981730E+05 -3.635036E+04  1.944899E+04
       100  21  7.320459E+05  2.649236E+05  8.083786E+04  2.917294E+05 -1.132865E+04  3.662605E+04
       100  22  2.098155E+05  6.863762E+04 -1.286780E+04  1.491718E+05  5.236169E+03  1.170881E+04
       100  23  2.140565E+05  7.337439E+04 -6.190262E+03  1.440141E+05 -5.665307E+03  3.099528E+04
       100  24  2.111859E+05  7.814847E+04 -3.207239E+03  1.456037E+05 -1.142216E+04  3.659461E+04
       100  25 -4.088937E+05 -1.555732E+05 -1.677804E+05 -1.286649E+04  6.663586E+04  3.480354E+04
       100  26 -3.525356E+05 -1.290563E+05 -1.134866E+05 -1.001116E+04  2.498899E+04  4.253048E+04
       100  27 -3.093820E+05 -1.085983E+05 -8.725753E+04 -4.068429E+02 -1.151559E+04  3.656320E+04
       101   1  7.030070E+05  2.542452E+05  7.447424E+04  2.836140E+05  1.139184E+04 -3.597920E+04
       101   2  6.597012E+05  2.350765E+05  6.441139E+04  2.677633E+05  8.011259E+03 -3.622824E+04
       101   3  6.112572E+05  2.218419E+05  5.667713E+04  2.584311E+05  4.017113E+03 -3.484814E+04
       101   4  2.113774E+05  7.863943E+04 -2.372159E+03  1.458035E+05  1.157805E+04 -3.591266E+04
       101   5  2.143733E+05  7.643963E+04 -1.227481E+03  1.423948E+05  1.186231E+04 -3.478185E+04
       101   6  2.115045E+05  7.944885E+04 -6.559621E+02  1.455042E+05  1.153259E+04 -3.202125E+04
       101   7 -2.799988E+05 -9.694385E+04 -7.922450E+04  8.093610E+03  1.176411E+04 -3.584618E+04
       101   8 -2.307424E+05 -8.217692E+04 -6.686913E+04  1.711011E+04  1.571047E+04 -3.333653E+04
       101   9 -1.880742E+05 -6.292649E+04 -5.798994E+04  3.264597E+04  1.904298E+04 -2.919628E+04
       101  10  7.030065E+05  2.542438E+05  7.447157E+04  2.836143E+05 -2.706996E-09 -2.354687E-09
       101  11  6.597008E+05  2.350750E+05  6.440880E+04  2.677635E+05  2.567550E-08  5.260383E-09
       101  12  6.112569E+05  2.218406E+05  5.667482E+04  2.584312E+05  5.913349E-08  1.650328E-08
       101  13  2.113769E+05  7.863800E+04 -2.374834E+03  1.458039E+05 -3.245124E-09 -1.649255E-08
       101  14  2.143728E+05  7.643829E+04 -1.230019E+03  1.423951E+05 -7.794062E-09 -8.957467E-09
       101  15  2.115040E+05  7.944772E+04 -6.581392E+02  1.455045E+05 -9.036537E-09 -5.147349E-09
       101  16 -2.799993E+05 -9.694526E+04 -7.922718E+04  8.093950E+03 -1.965004E-08 -9.763928E-10
       101  17 -2.307429E+05 -8.217818E+04 -6.687168E+04  1.711054E+04 -4.718977E-08 -1.617283E-08
       101  18 -1.880748E+05 -6.292751E+04 -5.799223E+04  3.264641E+04 -6.973962E-08 -2.984409E-08
       101  19  7.030070E+05  2.542452E+05  7.447424E+04  2.836140E+05 -1.139184E+04  3.597920E+04
       101  20  6.597012E+05  2.350765E+05  6.441139E+04  2.677633E+05 -8.011259E+03  3.622824E+04
       101  21  6.112572E+05  2.218419E+05  5.667713E+04  2.584311E+05 -4.017113E+03  3.484814E+04
       101  22  2.113774E+05  7.863943E+04 -2.372159E+03  1.458035E+05 -1.157805E+04  3.591266E+04
       101  23  2.143733E+05  7.643963E+04 -1.227481E+03  1.423948E+05 -1.186231E+04  3.478185E+04
       101  24  2.115045E+05  7.944885E+04 -6.559621E+02  1.455042E+05 -1.153259E+04  3.202125E+04
       101  25 -2.799988E+05 -9.694385E+04 -7.922450E+04  8.093610E+03 -1.176411E+04  3.584618E+04
       101  26 -2.307424E+05 -8.217692E+04 -6.686913E+04  1.711011E+04 -1.571047E+04  3.333653E+04
       101  27 -1.880742E+05 -6.292649E+04 -5.798994E+04  3.264597E+04 -1.904298E+04  2.919628E+04
       102   1  5.828184E+05  2.116575E+05  5.232913E+04  2.504236E+05  3.339360E+03 -3.281264E+04
       102   2  5.400345E+05  1.925560E+05  4.569428E+04  2.342948E+05  1.736860E+03 -2.948632E+04
       102   3  4.915934E+05  1.792282E+05  3.930197E+04  2.246948E+05  6.093978E+01 -2.596693E+04
       102   4  2.115257E+05  7.949651E+04 -4.869503E+02  1.455300E+05  1.086411E+04 -2.998163E+04
       102   5  2.144106E+05  7.669021E+04 -2.540959E+02  1.422545E+05  9.695762E+03 -2.649090E+04
       102   6  2.115493E+05  7.957167E+04 -1.231506E+02  1.455073E+05  8.453939E+03 -2.280704E+04
       102   7 -1.596116E+05 -5.264726E+04 -5.330223E+04  4.069701E+04  1.838403E+04 -2.715243E+04
       102   8 -1.110973E+05 -3.916365E+04 -4.620271E+04  5.025986E+04  1.765028E+04 -2.349714E+04
       102   9 -6.841269E+04 -2.007743E+04 -3.954935E+04  6.635262E+04  1.684307E+04 -1.964860E+04
       102  10  5.828181E+05  2.116564E+05  5.232708E+04  2.504236E+05  1.346614E-09 -1.342850E-09
       102  11  5.400342E+05  1.925550E+05  4.569264E+04  2.342949E+05 -2.465383E-09  9.720527E-10
       102  12  4.915932E+05  1.792275E+05  3.930070E+04  2.246948E+05  3.327508E-09  8.252908E-10
       102  13  2.115253E+05  7.949551E+04 -4.888615E+02  1.455302E+05 -4.804729E-09 -6.893380E-09
       102  14  2.144103E+05  7.668943E+04 -2.555916E+02  1.422547E+05 -2.492792E-09  4.755289E-09
       102  15  2.115490E+05  7.957109E+04 -1.242626E+02  1.455075E+05 -1.583540E-09  1.536404E-09
       102  16 -1.596122E+05 -5.264815E+04 -5.330425E+04  4.069741E+04 -5.019880E-09 -6.406305E-09
       102  17 -1.110977E+05 -3.916433E+04 -4.620434E+04  5.026019E+04 -2.721688E-09 -3.789186E-09
       102  18 -6.841310E+04 -2.007792E+04 -3.955061E+04  6.635288E+04 -2.362519E-09 -1.416770E-09
       102  19  5.828184E+05  2.116575E+05  5.232913E+04  2.504236E+05 -3.339360E+03  3.281264E+04
       102  20  5.400345E+05  1.925560E+05  4.569428E+04  2.342948E+05 -1.736860E+03  2.948632E+04
       102  21  4.915934E+05  1.792282E+05  3.930197E+04  2.246948E+05 -6.093978E+01  2.596693E+04
       102  22  2.115257E+05  7.949651E+04 -4.869503E+02  1.455300E+05 -1.086411E+04  2.998163E+04
       102  23  2.144106E+05  7.669021E+04 -2.540959E+02  1.422545E+05 -9.695762E+03  2.649090E+04
       102  24  2.115493E+05  7.957167E+04 -1.231506E+02  1.455073E+05 -8.453939E+03  2.280704E+04
       102  25 -1.596116E+05 -5.264726E+04 -5.330223E+04  4.069701E+04 -1.838403E+04  2.715243E+04
       102  26 -1.110973E+05 -3.916365E+04 -4.620271E+04  5.025986E+04 -1.765028E+04  2.349714E+04
       102  27 -6.841269E+04 -2.007743E+04 -3.954935E+04  6.635262E+04 -1.684307E+04  1.964860E+04
       103   1  4.632501E+05  1.691146E+05  3.514907E+04  2.166974E+05 -7.432101E+02 -2.378152E+04
       103   2  4.205451E+05  1.500576E+05  2.887268E+04  2.005466E+05 -2.196062E+03 -2.005517E+04
       103   3  3.721212E+05  1.367394E+05  2.263117E+04  1.909278E+05 -3.657307E+03 -1.630776E+04
       103   4  2.115541E+05  7.957808E+04 -7.998834E+01  1.455098E+05  7.649661E+03 -2.062118E+04
       103   5  2.144235E+05  7.671951E+04 -7.577522E+00  1.422434E+05  6.243947E+03 -1.687645E+04
       103   6  2.115622E+05  7.959006E+04  6.193078E+01  1.455081E+05  4.829842E+03 -1.311066E+04
       103   7 -4.007240E+04 -9.951216E+03 -3.530896E+04  7.434953E+04  1.603895E+04 -1.746219E+04
       103   8  8.349914E+03  3.386833E+03 -2.888730E+04  8.395888E+04  1.468095E+04 -1.369885E+04
       103   9  5.103366E+04  2.244452E+04 -2.250651E+04  1.001000E+05  1.331457E+04 -9.914477E+03
       103  10  4.632500E+05  1.691140E+05  3.514801E+04  2.166974E+05  5.725727E-09  1.852442E-09
       103  11  4.205450E+05  1.500572E+05  2.887192E+04  2.005466E+05 -1.758069E-09  5.332398E-09
       103  12  3.721211E+05  1.367391E+05  2.263065E+04  1.909278E+05 -1.040298E-09  2.837276E-09
       103  13  2.115539E+05  7.957760E+04 -8.089752E+01  1.455099E+05 -3.839411E-09  1.381743E-11
       103  14  2.144234E+05  7.671920E+04 -8.186090E+00  1.422434E+05 -9.813703E-09  1.422698E-10
       103  15  2.115621E+05  7.958987E+04  6.156388E+01  1.455081E+05 -2.159408E-09 -1.992417E-09
       103  16 -4.007276E+04 -9.951613E+03 -3.531002E+04  7.434976E+04 -1.276573E-08 -2.698084E-09
       103  17  8.349632E+03  3.386574E+03 -2.888806E+04  8.395904E+04 -1.384898E-08 -8.969397E-09
       103  18  5.103345E+04  2.244437E+04 -2.250703E+04  1.001001E+05 -5.712013E-09 -4.103433E-09
       103  19  4.632501E+05  1.691146E+05  3.514907E+04  2.166974E+05  7.432101E+02  2.378152E+04
       103  20  4.205451E+05  1.500576E+05  2.887268E+04  2.005466E+05  2.196062E+03  2.005517E+04
       103  21  3.721212E+05  1.367394E+05  2.263117E+04  1.909278E+05  3.657307E+03  1.630776E+04
       103  22  2.115541E+05  7.957808E+04 -7.998834E+01  1.455098E+05 -7.649661E+03  2.062118E+04
       103  23  2.144235E+05  7.671951E+04 -7.577522E+00  1.422434E+05 -6.243947E+03  1.687645E+04
       103  24  2.115622E+05  7.959006E+04  6.193078E+01  1.455081E+05 -4.829842E+03  1.311066E+04
       103  25 -4.007240E+04 -9.951216E+03 -3.530896E+04  7.434953E+04 -1.603895E+04  1.746219E+04
       103  26  8.349914E+03  3.386833E+03 -2.888730E+04  8.395888E+04 -1.468095E+04  1.369885E+04
       103  27  5.103366E+04  2.244452E+04 -2.250651E+04  1.001000E+05 -1.331457E+04  9.914477E+03
       104   1  3.437988E+05  1.266344E+05  1.851078E+04  1.829354E+05 -4.498085E+03 -1.411461E+04
       104   2  3.011078E+05  1.075835E+05  1.232512E+04  1.667901E+05 -6.003079E+03 -1.037711E+04
       104   3  2.527003E+05  9.427083E+04  6.204088E+03  1.571774E+05 -7.504561E+03 -6.649427E+03
       104   4  2.115685E+05  7.959162E+04  1.019562E+02  1.455100E+05  3.988093E+03 -1.091762E+04
       104   5  2.144267E+05  7.672271E+04  2.153120E+02  1.422435E+05  2.460797E+03 -7.188216E+03
       104   6  2.115714E+05  7.959661E+04  4.110254E+02  1.455091E+05  9.370144E+02 -3.468666E+03
       104   7  7.935565E+04  3.255015E+04 -1.830712E+04  1.080917E+05  1.247248E+04 -7.721290E+03
       104   8  1.277532E+05  4.586257E+04 -1.189439E+04  1.177000E+05  1.092349E+04 -3.999773E+03
       104   9  1.704445E+05  6.492263E+04 -5.381745E+03  1.338415E+05  9.378005E+03 -2.881261E+02
       104  10  3.437988E+05  1.266342E+05  1.851037E+04  1.829354E+05 -1.302836E-08 -4.804709E-09
       104  11  3.011078E+05  1.075834E+05  1.232485E+04  1.667901E+05  5.238265E-08  2.524187E-08
       104  12  2.527002E+05  9.427077E+04  6.203899E+03  1.571773E+05  1.180917E-07  4.894610E-08
       104  13  2.115684E+05  7.959149E+04  1.017023E+02  1.455100E+05 -1.001956E-09  2.689870E-09
       104  14  2.144266E+05  7.672266E+04  2.152035E+02  1.422435E+05 -1.131812E-09  7.564061E-09
       104  15  2.115714E+05  7.959659E+04  4.110012E+02  1.455091E+05 -4.053670E-09  2.058566E-08
       104  16  7.935547E+04  3.255004E+04 -1.830752E+04  1.080917E+05  1.605900E-08  5.538130E-09
       104  17  1.277531E+05  4.586252E+04 -1.189464E+04  1.177001E+05 -5.412573E-08 -2.174639E-08
       104  18  1.704444E+05  6.492261E+04 -5.381910E+03  1.338415E+05 -1.151957E-07 -4.414355E-08
       104  19  3.437988E+05  1.266344E+05  1.851078E+04  1.829354E+05  4.498085E+03  1.411461E+04
       104  20  3.011078E+05  1.075835E+05  1.232512E+04  1.667901E+05  6.003079E+03  1.037711E+04
       104  21  2.527003E+05  9.427083E+04  6.204088E+03  1.571774E+05  7.504561E+03  6.649427E+03
       104  22  2.115685E+05  7.959162E+04  1.019562E+02  1.455100E+05 -3.988093E+03  1.091762E+04
       104  23  2.144267E+05  7.672271E+04  2.153120E+02  1.422435E+05 -2.460797E+03  7.188216E+03
       104  24  2.115714E+05  7.959661E+04  4.110254E+02  1.455091E+05 -9.370144E+02  3.468666E+03
       104  25  7.935565E+04  3.255015E+04 -1.830712E+04  1.080917E+05 -1.247248E+04  7.721290E+03
       104  26  1.277532E+05  4.586257E+04 -1.189439E+04  1.177000E+05 -1.092349E+04  3.999773E+03
       104  27  1.704445E+05  6.492263E+04 -5.381745E+03  1.338415E+05 -9.378005E+03  2.881261E+02
       105   1  2.243866E+05  8.417569E+04  2.172175E+03  1.492052E+05 -8.406530E+03 -4.489294E+03
       105   2  1.817101E+05  6.510874E+04 -3.768500E+03  1.330109E+05 -1.007974E+04 -8.905112E+02
       105   3  1.333829E+05  5.186686E+04 -9.476358E+03  1.233281E+05 -1.171411E+04  2.605581E+03
       105   4  2.115915E+05  7.959748E+04  5.535633E+02  1.455148E+05  3.405314E+01 -1.308866E+03
       105   5  2.144082E+05  7.675813E+04  1.017489E+03  1.422232E+05 -1.870407E+03  2.202673E+03
       105   6  2.116173E+05  7.978915E+04  1.897056E+03  1.454420E+05 -3.736063E+03  5.611535E+03
       105   7  1.987969E+05  7.501941E+04 -1.064694E+03  1.418246E+05  8.474347E+03  1.871451E+03
       105   8  2.471076E+05  8.840769E+04  5.803757E+03  1.514360E+05  6.339383E+03  5.296029E+03
       105   9  2.898596E+05  1.077126E+05  1.327098E+04  1.675588E+05  4.243149E+03  8.617926E+03
       105  10  2.243865E+05  8.417565E+04  2.172004E+03  1.492052E+05 -1.175313E-07 -3.980074E-08
       105  11  1.817100E+05  6.510871E+04 -3.768692E+03  1.330109E+05 -4.933078E-08 -1.599084E-08
       105  12  1.333827E+05  5.186681E+04 -9.476628E+03  1.233281E+05  1.002038E-08  8.273681E-09
       105  13  2.115915E+05  7.959747E+04  5.535601E+02  1.455148E+05  7.992713E-10  1.882320E-08
       105  14  2.144082E+05  7.675812E+04  1.017473E+03  1.422232E+05  1.130784E-08  1.528936E-08
       105  15  2.116173E+05  7.978911E+04  1.896971E+03  1.454420E+05  9.283819E-09  3.542580E-09
       105  16  1.987968E+05  7.501938E+04 -1.064836E+03  1.418246E+05  1.265636E-07  4.545458E-08
       105  17  2.471075E+05  8.840765E+04  5.803629E+03  1.514359E+05  6.919443E-08  2.422413E-08
       105  18  2.898595E+05  1.077125E+05  1.327080E+04  1.675588E+05 -1.382364E-09  1.841998E-09
       105  19  2.243866E+05  8.417569E+04  2.172175E+03  1.492052E+05  8.406530E+03  4.489294E+03
       105  20  1.817101E+05  6.510874E+04 -3.768500E+03  1.330109E+05  1.007974E+04  8.905112E+02
       105  21  1.333829E+05  5.186686E+04 -9.476358E+03  1.233281E+05  1.171411E+04 -2.605581E+03
       105  22  2.115915E+05  7.959748E+04  5.535633E+02  1.455148E+05 -3.405314E+01  1.308866E+03
       105  23  2.144082E+05  7.675813E+04  1.017489E+03  1.422232E+05  1.870407E+03 -2.202673E+03
       105  24  2.116173E+05  7.978915E+04  1.897056E+03  1.454420E+05  3.736063E+03 -5.611535E+03
       105  25  1.987969E+05  7.501941E+04 -1.064694E+03  1.418246E+05 -8.474347E+03 -1.871451E+03
       105  26  2.471076E+05  8.840769E+04  5.803757E+03  1.514360E+05 -6.339383E+03 -5.296029E+03
       105  27  2.898596E+05  1.077126E+05  1.327098E+04  1.675588E+05 -4.243149E+03 -8.617926E+03
       106   1  1.050615E+05  4.188257E+04 -1.317137E+04  1.154588E+05 -1.283563E+04  4.578060E+03
       106   2  6.298440E+04  2.264126E+04 -1.833376E+04  9.821527E+04 -1.445612E+04  7.524575E+03
       106   3  1.577947E+04  1.037846E+04 -2.280733E+04  8.711452E+04 -1.575063E+04  9.606538E+03
       106   4  2.117714E+05  7.986292E+04  2.545633E+03  1.454568E+05 -4.863416E+03  7.581667E+03
       106   5  2.143542E+05  7.767923E+04  4.732534E+03  1.418206E+05 -8.427902E+03  9.795336E+03
       106   6  2.121918E+05  8.285841E+04  9.148108E+03  1.443262E+05 -1.166647E+04  1.114456E+04
       106   7  3.184937E+05  1.178445E+05  1.826278E+04  1.754596E+05  3.110237E+03  1.058581E+04
       106   8  3.657479E+05  1.327195E+05  2.779839E+04  1.854358E+05 -2.398173E+03  1.206669E+04
       106   9  4.086430E+05  1.553419E+05  4.110206E+04  2.015543E+05 -7.580993E+03  1.268312E+04
       106  10  1.050614E+05  4.188250E+04 -1.317171E+04  1.154589E+05  5.506294E-09 -1.367902E-09
       106  11  6.298416E+04  2.264114E+04 -1.833426E+04  9.821536E+04  5.170154E-09 -1.284881E-09
       106  12  1.577918E+04  1.037830E+04 -2.280797E+04  8.711464E+04 -5.759131E-09 -5.906428E-09
       106  13  2.117713E+05  7.986285E+04  2.545480E+03  1.454568E+05  6.475639E-09  5.550486E-09
       106  14  2.143541E+05  7.767911E+04  4.732221E+03  1.418207E+05  7.345751E-09 -3.559058E-11
       106  15  2.121916E+05  8.285824E+04  9.147619E+03  1.443263E+05  1.030736E-09 -6.998032E-10
       106  16  3.184937E+05  1.178444E+05  1.826255E+04  1.754595E+05 -1.643897E-09  1.741757E-09
       106  17  3.657478E+05  1.327193E+05  2.779810E+04  1.854358E+05  3.818080E-09  2.133320E-09
       106  18  4.086428E+05  1.553417E+05  4.110165E+04  2.015544E+05  6.460466E-09  3.272419E-09
       106  19  1.050615E+05  4.188257E+04 -1.317137E+04  1.154588E+05  1.283563E+04 -4.578060E+03
       106  20  6.298440E+04  2.264126E+04 -1.833376E+04  9.821527E+04  1.445612E+04 -7.524575E+03
       106  21  1.577947E+04  1.037846E+04 -2.280733E+04  8.711452E+04  1.575063E+04 -9.606538E+03
       106  22  2.117714E+05  7.986292E+04  2.545633E+03  1.454568E+05  4.863416E+03 -7.581667E+03
       106  23  2.143542E+05  7.767923E+04  4.732534E+03  1.418206E+05  8.427902E+03 -9.795336E+03
       106  24  2.121918E+05  8.285841E+04  9.148108E+03  1.443262E+05  1.166647E+04 -1.114456E+04
       106  25  3.184937E+05  1.178445E+05  1.826278E+04  1.754596E+05 -3.110237E+03 -1.058581E+04
       106  26  3.657479E+05  1.327195E+05  2.779839E+04  1.854358E+05  2.398173E+03 -1.206669E+04
       106  27  4.086430E+05  1.553419E+05  4.110206E+04  2.015543E+05  7.580993E+03 -1.268312E+04
       107   1 -1.246275E+04  1.772014E+03 -2.535153E+04  7.995733E+04 -1.759313E+04  1.042229E+04
       107   2 -4.587155E+04 -1.930882E+04 -2.914684E+04  4.893787E+04 -1.287497E+04  1.010732E+04
       107   3 -7.914740E+04 -1.948502E+04 -3.160832E+04  1.946972E+04 -5.424587E+03  2.534248E+03
       107   4  2.136220E+05  8.399612E+04  1.236765E+04  1.442788E+05 -1.355984E+04  1.194096E+04
       107   5  2.145380E+05  9.026764E+04  2.384603E+04  1.365942E+05 -2.515311E+04  5.481815E+03
       107   6  2.188141E+05  1.206699E+05  4.958158E+04  1.304615E+05 -3.401520E+04 -8.233641E+03
       107   7  4.397657E+05  1.662274E+05  5.008687E+04  2.086236E+05 -9.524920E+03  1.346026E+04
       107   8  4.750184E+05  1.998566E+05  7.683609E+04  2.242867E+05 -3.743671E+04  8.535228E+02
       107   9  5.168590E+05  2.608436E+05  1.307650E+05  2.415043E+05 -6.262003E+04 -1.901018E+04
       107  10 -1.246311E+04  1.771814E+03 -2.535231E+04  7.995748E+04  2.471869E-10 -1.882602E-09
       107  11 -4.587175E+04 -1.930898E+04 -2.914734E+04  4.893797E+04  2.393932E-10 -1.274297E-09
       107  12 -7.914744E+04 -1.948504E+04 -3.160839E+04  1.946973E+04 -1.508716E-09  1.334593E-09
       107  13  2.136217E+05  8.399592E+04  1.236704E+04  1.442790E+05  3.337651E-10 -3.299754E-10
       107  14  2.145373E+05  9.026744E+04  2.384479E+04  1.365943E+05 -5.172018E-10 -1.162703E-09
       107  15  2.188128E+05  1.206695E+05  4.957928E+04  1.304612E+05  1.409373E-09  1.514599E-10
       107  16  4.397656E+05  1.662272E+05  5.008636E+04  2.086237E+05  1.326315E-10  2.957040E-09
       107  17  4.750169E+05  1.998562E+05  7.683346E+04  2.242867E+05  5.584781E-12 -2.682609E-11
       107  18  5.168546E+05  2.608421E+05  1.307569E+05  2.415033E+05  1.101244E-09  6.343820E-10
       107  19 -1.246275E+04  1.772014E+03 -2.535153E+04  7.995733E+04  1.759313E+04 -1.042229E+04
       107  20 -4.587155E+04 -1.930882E+04 -2.914684E+04  4.893787E+04  1.287497E+04 -1.010732E+04
       107  21 -7.914740E+04 -1.948502E+04 -3.160832E+04  1.946972E+04  5.424587E+03 -2.534248E+03
       107  22  2.136220E+05  8.399612E+04  1.236765E+04  1.442788E+05  1.355984E+04 -1.194096E+04
       107  23  2.145380E+05  9.026764E+04  2.384603E+04  1.365942E+05  2.515311E+04 -5.481815E+03
       107  24  2.188141E+05  1.206699E+05  4.958158E+04  1.304615E+05  3.401520E+04  8.233641E+03
       107  25  4.397657E+05  1.662274E+05  5.008687E+04  2.086236E+05  9.524920E+03 -1.346026E+04
       107  26  4.750184E+05  1.998566E+05  7.683609E+04  2.242867E+05  3.743671E+04 -8.535228E+02
       107  27  5.168590E+05  2.608436E+05  1.307650E+05  2.415043E+05  6.262003E+04  1.901018E+04
       108   1 -2.191282E+05 -9.769747E+05 -2.434291E+05  8.634585E+04 -4.667818E+03 -9.566597E+04
       108   2 -8.153729E+04 -8.745100E+05 -1.479085E+05  3.396769E+04 -1.374111E+04 -5.621662E+04
       108   3 -6.648019E+04 -8.075454E+05 -1.086869E+05  3.221787E+04 -1.113616E+04 -1.674363E+04
       108   4 -1.046583E+05 -5.185533E+05 -1.306454E+05  4.690713E+04 -4.676085E+03 -8.644635E+04
       108   5  1.072725E+04 -5.014222E+05 -6.016654E+04  2.167441E+04 -1.374224E+04 -5.425525E+04
       108   6  4.879476E+03 -5.185127E+05 -4.091469E+04  4.707316E+04 -1.112980E+04 -2.204638E+04
       108   7  9.801758E+03 -5.993691E+04 -1.787605E+04  7.439258E+03 -4.685523E+03 -7.721991E+04
       108   8  1.029824E+05 -1.282058E+05  2.756599E+04  9.373726E+03 -1.374344E+04 -5.229271E+04
       108   9  7.623406E+04 -2.294025E+05  2.685200E+04  6.193544E+04 -1.112370E+04 -2.735160E+04
       108  10 -2.191307E+05 -9.769845E+05 -2.434464E+05  8.634549E+04  6.038099E-10 -1.204286E-09
       108  11 -8.153835E+04 -8.745135E+05 -1.479149E+05  3.396707E+04 -1.849299E-09 -1.373593E-09
       108  12 -6.648040E+04 -8.075457E+05 -1.086876E+05  3.221772E+04  2.265905E-09  1.093426E-09
       108  13 -1.046603E+05 -5.185613E+05 -1.306595E+05  4.690680E+04 -4.659214E-10 -4.084724E-09
       108  14  1.072626E+04 -5.014254E+05 -6.017243E+04  2.167381E+04 -1.915194E-09 -5.397843E-10
       108  15  4.879213E+03 -5.185133E+05 -4.091584E+04  4.707296E+04  4.789308E-12  1.634308E-10
       108  16  9.800134E+03 -5.994332E+04 -1.788730E+04  7.438966E+03  1.989414E-10  5.654263E-09
       108  17  1.029815E+05 -1.282088E+05  2.756049E+04  9.373147E+03  3.510243E-09  4.218172E-09
       108  18  7.623372E+04 -2.294033E+05  2.685036E+04  6.193520E+04  1.777903E-09  1.286664E-09
       108  19 -2.191282E+05 -9.769747E+05 -2.434291E+05  8.634585E+04  4.667818E+03  9.566597E+04
       108  20 -8.153729E+04 -8.745100E+05 -1.479085E+05  3.396769E+04  1.374111E+04  5.621662E+04
       108  21 -6.648019E+04 -8.075454E+05 -1.086869E+05  3.221787E+04  1.113616E+04  1.674363E+04
       108  22 -1.046583E+05 -5.185533E+05 -1.306454E+05  4.690713E+04  4.676085E+03  8.644635E+04
       108  23  1.072725E+04 -5.014222E+05 -6.016654E+04  2.167441E+04  1.374224E+04  5.425525E+04
       108  24  4.879476E+03 -5.185127E+05 -4.091469E+04  4.707316E+04  1.112980E+04  2.204638E+04
       108  25  9.801758E+03 -5.993691E+04 -1.787605E+04  7.439258E+03  4.685523E+03  7.721991E+04
       108  26  1.029824E+05 -1.282058E+05  2.756599E+04  9.373726E+03  1.374344E+04  5.229271E+04
       108  27  7.623406E+04 -2.294025E+05  2.685200E+04  6.193544E+04  1.112370E+04  2.735160E+04
       109   1 -5.750117E+04 -7.093585E+05 -8.235811E+04  5.160961E+04 -7.331353E+03 -1.372899E+04
       109   2 -2.574574E+04 -6.208838E+05 -5.422480E+04  2.167364E+04 -4.256877E+03  6.886173E+02
       109   3 -1.454678E+04 -5.392622E+05 -4.059076E+04  4.307172E+04 -8.808792E+02  1.510782E+04
       109   4 -8.816535E+03 -5.124189E+05 -3.607041E+04  4.717696E+04 -7.329007E+03 -1.556499E+04
       109   5  1.896618E+03 -5.090033E+05 -2.796555E+04  2.151065E+04 -4.254589E+03 -1.332331E+03
       109   6 -7.911875E+03 -5.124140E+05 -3.422855E+04  4.717840E+04 -8.784990E+02  1.290000E+04
       109   7  3.986540E+04 -3.154435E+05  1.021466E+04  4.274291E+04 -7.326634E+03 -1.740158E+04
       109   8  2.953809E+04 -3.971114E+05 -1.707148E+03  2.134763E+04 -4.252300E+03 -3.353642E+03
       109   9 -1.276961E+03 -4.855652E+05 -2.786636E+04  5.128526E+04 -8.761481E+02  1.069207E+04
       109  10 -5.750128E+04 -7.093588E+05 -8.235857E+04  5.160953E+04  1.418871E-09 -2.718979E-09
       109  11 -2.574576E+04 -6.208838E+05 -5.422484E+04  2.167364E+04  6.840509E-10 -1.835994E-09
       109  12 -1.454684E+04 -5.392624E+05 -4.059119E+04  4.307173E+04 -2.157959E-10  2.207255E-09
       109  13 -8.816658E+03 -5.124192E+05 -3.607096E+04  4.717687E+04  9.544116E-10 -2.119956E-09
       109  14  1.896598E+03 -5.090033E+05 -2.796559E+04  2.151065E+04 -4.507387E-11 -1.425502E-09
       109  15 -7.911921E+03 -5.124142E+05 -3.422887E+04  4.717841E+04 -2.487086E-09  1.969447E-10
       109  16  3.986527E+04 -3.154439E+05  1.021399E+04  4.274280E+04  2.020692E-09  5.633065E-09
       109  17  2.953806E+04 -3.971114E+05 -1.707203E+03  2.134762E+04 -8.804255E-11  4.000956E-09
       109  18 -1.276992E+03 -4.855653E+05 -2.786658E+04  5.128527E+04  4.203520E-10 -1.155858E-09
       109  19 -5.750117E+04 -7.093585E+05 -8.235811E+04  5.160961E+04  7.331353E+03  1.372899E+04
       109  20 -2.574574E+04 -6.208838E+05 -5.422480E+04  2.167364E+04  4.256877E+03 -6.886173E+02
       109  21 -1.454678E+04 -5.392622E+05 -4.059076E+04  4.307172E+04  8.808792E+02 -1.510782E+04
       109  22 -8.816535E+03 -5.124189E+05 -3.607041E+04  4.717696E+04  7.329007E+03  1.556499E+04
       109  23  1.896618E+03 -5.090033E+05 -2.796555E+04  2.151065E+04  4.254589E+03  1.332331E+03
       109  24 -7.911875E+03 -5.124140E+05 -3.422855E+04  4.717840E+04  8.784990E+02 -1.290000E+04
       109  25  3.986540E+04 -3.154435E+05  1.021466E+04  4.274291E+04  7.326634E+03  1.740158E+04
       109  26  2.953809E+04 -3.971114E+05 -1.707148E+03  2.134763E+04  4.252300E+03  3.353642E+03
       109  27 -1.276961E+03 -4.855652E+05 -2.786636E+04  5.128526E+04  8.761481E+02 -1.069207E+04
       110   1  2.043931E+04 -4.524591E+05 -2.286818E+04  6.086956E+04  2.296447E+03  2.301592E+04
       110   2  4.691618E+04 -3.521505E+05 -1.984947E+04  1.062076E+04  5.438089E+03  4.848814E+04
       110   3 -3.623712E+04 -2.823900E+05 -6.078887E+04  1.142168E+04  2.090021E+03  7.395631E+04
       110   4  4.309250E+03 -5.178416E+05 -3.827308E+04  4.715357E+04  2.300104E+03  1.901295E+04
       110   5  9.796157E+03 -5.022218E+05 -5.516033E+04  2.156823E+04  5.438982E+03  4.852532E+04
       110   6 -9.506609E+04 -5.178708E+05 -1.188223E+05  4.703567E+04  2.089475E+03  7.803000E+04
       110   7 -1.182039E+04 -5.832198E+05 -5.367811E+04  3.343903E+04  2.303938E+03  1.501040E+04
       110   8 -2.732503E+04 -6.522720E+05 -9.047268E+04  3.251305E+04  5.439877E+03  4.856249E+04
       110   9 -1.538944E+05 -7.532984E+05 -1.768592E+05  8.263613E+04  2.089396E+03  8.210214E+04
       110  10  2.043916E+04 -4.524597E+05 -2.286919E+04  6.086952E+04  1.220386E-09 -4.327478E-10
       110  11  4.691552E+04 -3.521530E+05 -1.985395E+04  1.062055E+04  1.747998E-09 -2.880194E-09
       110  12 -3.623860E+04 -2.823959E+05 -6.079917E+04  1.142156E+04  1.972978E-11 -1.403266E-10
       110  13  4.309147E+03 -5.178420E+05 -3.827377E+04  4.715353E+04  1.015874E-09 -1.831860E-09
       110  14  9.795493E+03 -5.022243E+05 -5.516482E+04  2.156802E+04 -1.749767E-09 -1.197489E-09
       110  15 -9.506773E+04 -5.178774E+05 -1.188338E+05  4.703554E+04 -2.157784E-09 -1.118194E-09
       110  16 -1.182046E+04 -5.832200E+05 -5.367855E+04  3.343900E+04  1.443190E-09  4.180320E-09
       110  17 -2.732569E+04 -6.522746E+05 -9.047717E+04  3.251284E+04 -2.044778E-09  4.263331E-09
       110  18 -1.538963E+05 -7.533056E+05 -1.768719E+05  8.263599E+04  1.407268E-09  1.823185E-09
       110  19  2.043931E+04 -4.524591E+05 -2.286818E+04  6.086956E+04 -2.296447E+03 -2.301592E+04
       110  20  4.691618E+04 -3.521505E+05 -1.984947E+04  1.062076E+04 -5.438089E+03 -4.848814E+04
       110  21 -3.623712E+04 -2.823900E+05 -6.078887E+04  1.142168E+04 -2.090021E+03 -7.395631E+04
       110  22  4.309250E+03 -5.178416E+05 -3.827308E+04  4.715357E+04 -2.300104E+03 -1.901295E+04
       110  23  9.796157E+03 -5.022218E+05 -5.516033E+04  2.156823E+04 -5.438982E+03 -4.852532E+04
       110  24 -9.506609E+04 -5.178708E+05 -1.188223E+05  4.703567E+04 -2.089475E+03 -7.803000E+04
       110  25 -1.182039E+04 -5.832198E+05 -5.367811E+04  3.343903E+04 -2.303938E+03 -1.501040E+04
       110  26 -2.732503E+04 -6.522720E+05 -9.047268E+04  3.251305E+04 -5.439877E+03 -4.856249E+04
       110  27 -1.538944E+05 -7.532984E+05 -1.768592E+05  8.263613E+04 -2.089396E+03 -8.210214E+04
       111   1  6.891461E+05  2.394379E+05  1.493105E+05  2.470702E+05  6.383047E+04  2.120324E+04
       111   2  6.651974E+05  1.418035E+05  8.881419E+04  2.465429E+05  4.147690E+04  7.003123E+03
       111   3  6.658750E+05  1.327966E+05  6.826076E+04  2.353503E+05  1.704349E+04 -1.677970E+03
       111   4  4.932823E+05  1.418365E+05  9.170019E+04  1.692930E+05  5.924903E+04  1.947286E+04
       111   5  4.764537E+05  6.378777E+04  3.864760E+04  1.874700E+05  4.012886E+04  6.493974E+03
       111   6  4.836203E+05  7.374021E+04  2.298630E+04  1.949794E+05  1.892795E+04 -9.669177E+02
       111   7  2.974591E+05  4.424771E+04  3.408685E+04  9.154165E+04  5.466922E+04  1.774354E+04
       111   8  2.877453E+05 -1.422338E+04 -1.152194E+04  1.284144E+05  3.878128E+04  5.985032E+03
       111   9  3.013970E+05  1.468370E+04 -2.229086E+04  1.546181E+05  2.081181E+04 -2.560193E+02
       111  10  6.891416E+05  2.394364E+05  1.493020E+05  2.470691E+05 -5.355871E-10  7.896586E-10
       111  11  6.651956E+05  1.418030E+05  8.881087E+04  2.465426E+05  1.127619E-09 -6.244174E-10
       111  12  6.658747E+05  1.327966E+05  6.826021E+04  2.353503E+05 -3.204625E-09  4.068430E-09
       111  13  4.932785E+05  1.418352E+05  9.169288E+04  1.692921E+05  1.167934E-10 -3.968366E-09
       111  14  4.764520E+05  6.378729E+04  3.864450E+04  1.874698E+05  3.841698E-09 -5.205077E-09
       111  15  4.836199E+05  7.374012E+04  2.298563E+04  1.949794E+05  7.752008E-11  3.426512E-10
       111  16  2.974558E+05  4.424657E+04  3.408065E+04  9.154087E+04  1.811678E-09  4.469427E-09
       111  17  2.877437E+05 -1.422382E+04 -1.152483E+04  1.284142E+05  5.242303E-09  1.857094E-09
       111  18  3.013966E+05  1.468359E+04 -2.229168E+04  1.546181E+05  3.249242E-10  4.420868E-11
       111  19  6.891461E+05  2.394379E+05  1.493105E+05  2.470702E+05 -6.383047E+04 -2.120324E+04
       111  20  6.651974E+05  1.418035E+05  8.881419E+04  2.465429E+05 -4.147690E+04 -7.003123E+03
       111  21  6.658750E+05  1.327966E+05  6.826076E+04  2.353503E+05 -1.704349E+04  1.677970E+03
       111  22  4.932823E+05  1.418365E+05  9.170019E+04  1.692930E+05 -5.924903E+04 -1.947286E+04
       111  23  4.764537E+05  6.378777E+04  3.864760E+04  1.874700E+05 -4.012886E+04 -6.493974E+03
       111  24  4.836203E+05  7.374021E+04  2.298630E+04  1.949794E+05 -1.892795E+04  9.669177E+02
       111  25  2.974591E+05  4.424771E+04  3.408685E+04  9.154165E+04 -5.466922E+04 -1.774354E+04
       111  26  2.877453E+05 -1.422338E+04 -1.152194E+04  1.284144E+05 -3.878128E+04 -5.985032E+03
       111  27  3.013970E+05  1.468370E+04 -2.229086E+04  1.546181E+05 -2.081181E+04  2.560193E+02
       112   1  6.332565E+05  1.419397E+05  5.850315E+04  2.336596E+05  1.508313E+04 -9.800259E+02
       112   2  6.180390E+05  1.227111E+05  4.418266E+04  2.246061E+05  9.987974E+03 -2.317309E+03
       112   3  5.976636E+05  1.196801E+05  3.556448E+04  2.235698E+05  4.764000E+03 -3.313226E+03
       112   4  4.806635E+05  8.261171E+04  1.857816E+04  1.897634E+05  1.528066E+04 -9.056626E+02
       112   5  4.828133E+05  7.136724E+04  9.111079E+03  1.869502E+05  1.038625E+04 -2.167099E+03
       112   6  4.797657E+05  7.628154E+04  5.188397E+03  1.921539E+05  5.362867E+03 -3.087215E+03
       112   7  3.280932E+05  2.328567E+04 -2.134881E+04  1.458772E+05  1.547815E+04 -8.313212E+02
       112   8  3.476055E+05  2.002469E+04 -2.596196E+04  1.493018E+05  1.078444E+04 -2.016927E+03
       112   9  3.618818E+05  3.288391E+04 -2.518872E+04  1.607434E+05  5.961607E+03 -2.861250E+03
       112  10  6.332563E+05  1.419396E+05  5.850272E+04  2.336596E+05  5.208875E-10  2.892571E-09
       112  11  6.180389E+05  1.227111E+05  4.418246E+04  2.246061E+05  5.686947E-09  1.371216E-10
       112  12  5.976635E+05  1.196801E+05  3.556442E+04  2.235698E+05  2.217699E-09  1.915755E-09
       112  13  4.806633E+05  8.261164E+04  1.857772E+04  1.897634E+05  5.073017E-10 -2.936089E-09
       112  14  4.828132E+05  7.136720E+04  9.110868E+03  1.869502E+05  2.356605E-09 -8.684087E-09
       112  15  4.797657E+05  7.628153E+04  5.188325E+03  1.921539E+05 -3.698246E-09  9.671981E-09
       112  16  3.280929E+05  2.328561E+04 -2.134926E+04  1.458772E+05 -2.958668E-09 -1.252502E-09
       112  17  3.476054E+05  2.002466E+04 -2.596219E+04  1.493018E+05 -2.574383E-09  7.116200E-09
       112  18  3.618817E+05  3.288389E+04 -2.518880E+04  1.607434E+05 -5.629992E-09 -1.130310E-09
       112  19  6.332565E+05  1.419397E+05  5.850315E+04  2.336596E+05 -1.508313E+04  9.800259E+02
       112  20  6.180390E+05  1.227111E+05  4.418266E+04  2.246061E+05 -9.987974E+03  2.317309E+03
       112  21  5.976636E+05  1.196801E+05  3.556448E+04  2.235698E+05 -4.764000E+03  3.313226E+03
       112  22  4.806635E+05  8.261171E+04  1.857816E+04  1.897634E+05 -1.528066E+04  9.056626E+02
       112  23  4.828133E+05  7.136724E+04  9.111079E+03  1.869502E+05 -1.038625E+04  2.167099E+03
       112  24  4.797657E+05  7.628154E+04  5.188397E+03  1.921539E+05 -5.362867E+03  3.087215E+03
       112  25  3.280932E+05  2.328567E+04 -2.134881E+04  1.458772E+05 -1.547815E+04  8.313212E+02
       112  26  3.476055E+05  2.002469E+04 -2.596196E+04  1.493018E+05 -1.078444E+04  2.016927E+03
       112  27  3.618818E+05  3.288391E+04 -2.518872E+04  1.607434E+05 -5.961607E+03  2.861250E+03
       113   1  5.755120E+05  1.133051E+05  2.883329E+04  2.181497E+05  3.920898E+03 -2.995243E+03
       113   2  5.614368E+05  1.014761E+05  2.230216E+04  2.083790E+05  2.511630E+03 -2.554708E+03
       113   3  5.392173E+05  9.892024E+04  1.677235E+04  2.081858E+05  1.095084E+03 -2.095259E+03
       113   4  4.794412E+05  7.706603E+04  4.018824E+03  1.916274E+05  4.412815E+03 -2.809572E+03
       113   5  4.834743E+05  7.214469E+04  2.133044E+03  1.869468E+05  3.014783E+03 -2.364752E+03
       113   6  4.793607E+05  7.649449E+04  1.239929E+03  1.918436E+05  1.609441E+03 -1.901028E+03
       113   7  3.833791E+05  4.082740E+04 -2.079650E+04  1.651088E+05  4.904651E+03 -2.623933E+03
       113   8  4.055174E+05  4.281359E+04 -1.803662E+04  1.655170E+05  3.517869E+03 -2.174821E+03
       113   9  4.195076E+05  5.406897E+04 -1.429280E+04  1.755029E+05  2.123743E+03 -1.706818E+03
       113  10  5.755120E+05  1.133051E+05  2.883325E+04  2.181497E+05 -4.170920E-12  2.108490E-09
       113  11  5.614368E+05  1.014761E+05  2.230214E+04  2.083790E+05 -1.996616E-09 -1.534871E-09
       113  12  5.392173E+05  9.892024E+04  1.677234E+04  2.081858E+05 -2.307996E-09  5.048225E-09
       113  13  4.794412E+05  7.706601E+04  4.018773E+03  1.916274E+05 -3.642723E-09  2.404233E-09
       113  14  4.834742E+05  7.214468E+04  2.133017E+03  1.869468E+05 -2.301930E-09  2.788147E-09
       113  15  4.793607E+05  7.649449E+04  1.239917E+03  1.918436E+05 -2.292887E-09 -3.100703E-09
       113  16  3.833791E+05  4.082739E+04 -2.079656E+04  1.651088E+05 -4.791047E-09  3.812410E-09
       113  17  4.055174E+05  4.281358E+04 -1.803665E+04  1.655170E+05 -3.118902E-09 -7.925732E-10
       113  18  4.195076E+05  5.406896E+04 -1.429281E+04  1.755029E+05  4.509900E-09  9.753171E-10
       113  19  5.755120E+05  1.133051E+05  2.883329E+04  2.181497E+05 -3.920898E+03  2.995243E+03
       113  20  5.614368E+05  1.014761E+05  2.230216E+04  2.083790E+05 -2.511630E+03  2.554708E+03
       113  21  5.392173E+05  9.892024E+04  1.677235E+04  2.081858E+05 -1.095084E+03  2.095259E+03
       113  22  4.794412E+05  7.706603E+04  4.018824E+03  1.916274E+05 -4.412815E+03  2.809572E+03
       113  23  4.834743E+05  7.214469E+04  2.133044E+03  1.869468E+05 -3.014783E+03  2.364752E+03
       113  24  4.793607E+05  7.649449E+04  1.239929E+03  1.918436E+05 -1.609441E+03  1.901028E+03
       113  25  3.833791E+05  4.082740E+04 -2.079650E+04  1.651088E+05 -4.904651E+03  2.623933E+03
       113  26  4.055174E+05  4.281359E+04 -1.803662E+04  1.655170E+05 -3.517869E+03  2.174821E+03
       113  27  4.195076E+05  5.406897E+04 -1.429280E+04  1.755029E+05 -2.123743E+03  1.706818E+03
       114   1  5.182377E+05  9.117752E+04  1.098007E+04  2.024813E+05  7.274885E+02 -1.652256E+03
       114   2  5.043654E+05  8.006399E+04  6.037148E+03  1.926801E+05  7.389007E+01 -9.076115E+02
       114   3  4.820501E+05  7.754210E+04  1.356182E+03  1.925384E+05 -5.799362E+02 -1.624134E+02
       114   4  4.793251E+05  7.655250E+04  9.811503E+02  1.917832E+05  1.234648E+03 -1.460726E+03
       114   5  4.835439E+05  7.223543E+04  6.513649E+02  1.869615E+05  5.813863E+02 -7.159438E+02
       114   6  4.793193E+05  7.650995E+04  5.833090E+02  1.917994E+05 -7.211547E+01  2.939000E+01
       114   7  4.404141E+05  6.192763E+04 -9.017856E+03  1.810857E+05  1.741770E+03 -1.269209E+03
       114   8  4.627228E+05  6.440689E+04 -4.734453E+03  1.812432E+05  1.088864E+03 -5.242831E+02
       114   9  4.765885E+05  7.547779E+04 -1.895658E+02  1.910603E+05  4.357045E+02  2.211931E+02
       114  10  5.182377E+05  9.117752E+04  1.098006E+04  2.024813E+05 -4.730399E-09 -1.384357E-10
       114  11  5.043654E+05  8.006399E+04  6.037147E+03  1.926801E+05 -1.232827E-09  8.730180E-09
       114  12  4.820501E+05  7.754210E+04  1.356181E+03  1.925384E+05  1.240807E-10  1.104189E-08
       114  13  4.793251E+05  7.655250E+04  9.811434E+02  1.917832E+05  3.974463E-11 -8.465579E-10
       114  14  4.835439E+05  7.223542E+04  6.513633E+02  1.869615E+05 -7.712208E-11  2.726866E-09
       114  15  4.793193E+05  7.650995E+04  5.833090E+02  1.917994E+05 -8.634416E-10  4.683447E-10
       114  16  4.404141E+05  6.192763E+04 -9.017865E+03  1.810857E+05  5.448576E-09  8.863701E-09
       114  17  4.627228E+05  6.440689E+04 -4.734456E+03  1.812432E+05  2.456895E-09 -1.301013E-09
       114  18  4.765885E+05  7.547779E+04 -1.895663E+02  1.910603E+05  3.677241E-09  7.728472E-09
       114  19  5.182377E+05  9.117752E+04  1.098007E+04  2.024813E+05 -7.274885E+02  1.652256E+03
       114  20  5.043654E+05  8.006399E+04  6.037148E+03  1.926801E+05 -7.389007E+01  9.076115E+02
       114  21  4.820501E+05  7.754210E+04  1.356182E+03  1.925384E+05  5.799362E+02  1.624134E+02
       114  22  4.793251E+05  7.655250E+04  9.811503E+02  1.917832E+05 -1.234648E+03  1.460726E+03
       114  23  4.835439E+05  7.223543E+04  6.513649E+02  1.869615E+05 -5.813863E+02  7.159438E+02
       114  24  4.793193E+05  7.650995E+04  5.833090E+02  1.917994E+05  7.211547E+01 -2.939000E+01
       114  25  4.404141E+05  6.192763E+04 -9.017856E+03  1.810857E+05 -1.741770E+03  1.269209E+03
       114  26  4.627228E+05  6.440689E+04 -4.734453E+03  1.812432E+05 -1.088864E+03  5.242831E+02
       114  27  4.765885E+05  7.547779E+04 -1.895658E+02  1.910603E+05 -4.357045E+02 -2.211931E+02
       115   1  4.612128E+05  6.970084E+04 -4.126447E+03  1.868483E+05 -8.709180E+02  3.053782E+02
       115   2  4.473268E+05  5.861683E+04 -8.490445E+03  1.770180E+05 -1.636836E+03  1.008714E+03
       115   3  4.250224E+05  5.616837E+04 -1.249892E+04  1.768508E+05 -2.402620E+03  1.711990E+03
       115   4  4.793231E+05  7.650873E+04  6.233360E+02  1.918042E+05 -3.630198E+02  4.972086E+02
       115   5  4.835375E+05  7.222774E+04  8.755676E+02  1.869588E+05 -1.129021E+03  1.200492E+03
       115   6  4.793332E+05  7.658222E+04  1.483361E+03  1.917763E+05 -1.894901E+03  1.903711E+03
       115   7  4.974337E+05  8.331665E+04  5.373092E+03  1.967603E+05  1.448946E+02  6.890451E+02
       115   8  5.197495E+05  8.583872E+04  1.024145E+04  1.969001E+05 -6.211737E+02  1.392281E+03
       115   9  5.336468E+05  9.699619E+04  1.546535E+04  2.067029E+05 -1.387135E+03  2.095450E+03
       115  10  4.612128E+05  6.970084E+04 -4.126449E+03  1.868483E+05 -1.984306E-09  4.555089E-09
       115  11  4.473268E+05  5.861682E+04 -8.490452E+03  1.770180E+05  5.573856E-10  4.306607E-10
       115  12  4.250224E+05  5.616836E+04 -1.249894E+04  1.768508E+05  4.322305E-09  8.694848E-10
       115  13  4.793231E+05  7.650873E+04  6.233352E+02  1.918042E+05 -3.002052E-09  7.223295E-09
       115  14  4.835375E+05  7.222774E+04  8.755625E+02  1.869588E+05 -3.960427E-09 -2.500499E-09
       115  15  4.793332E+05  7.658221E+04  1.483348E+03  1.917763E+05  3.250443E-09  1.665182E-09
       115  16  4.974337E+05  8.331664E+04  5.373091E+03  1.967603E+05  2.175871E-09  1.205860E-09
       115  17  5.197495E+05  8.583872E+04  1.024145E+04  1.969001E+05 -2.462253E-09 -2.669669E-09
       115  18  5.336468E+05  9.699618E+04  1.546534E+04  2.067029E+05 -3.596702E-09 -5.115294E-09
       115  19  4.612128E+05  6.970084E+04 -4.126447E+03  1.868483E+05  8.709180E+02 -3.053782E+02
       115  20  4.473268E+05  5.861683E+04 -8.490445E+03  1.770180E+05  1.636836E+03 -1.008714E+03
       115  21  4.250224E+05  5.616837E+04 -1.249892E+04  1.768508E+05  2.402620E+03 -1.711990E+03
       115  22  4.793231E+05  7.650873E+04  6.233360E+02  1.918042E+05  3.630198E+02 -4.972086E+02
       115  23  4.835375E+05  7.222774E+04  8.755676E+02  1.869588E+05  1.129021E+03 -1.200492E+03
       115  24  4.793332E+05  7.658222E+04  1.483361E+03  1.917763E+05  1.894901E+03 -1.903711E+03
       115  25  4.974337E+05  8.331665E+04  5.373092E+03  1.967603E+05 -1.448946E+02 -6.890451E+02
       115  26  5.197495E+05  8.583872E+04  1.024145E+04  1.969001E+05  6.211737E+02 -1.392281E+03
       115  27  5.336468E+05  9.699619E+04  1.546535E+04  2.067029E+05  1.387135E+03 -2.095450E+03
       116   1  4.040617E+05  4.830075E+04 -1.760268E+04  1.713416E+05 -2.883020E+03  2.113684E+03
       116   2  3.899860E+05  3.692885E+04 -2.078251E+04  1.612535E+05 -4.912702E+03  2.343848E+03
       116   3  3.679909E+05  3.527920E+04 -2.238923E+04  1.606819E+05 -6.934602E+03  2.553980E+03
       116   4  4.793957E+05  7.648595E+04  1.923302E+03  1.918711E+05 -2.367380E+03  2.308373E+03
       116   5  4.834191E+05  7.208423E+04  3.391741E+03  1.869387E+05 -4.409056E+03  2.533956E+03
       116   6  4.795255E+05  7.740708E+04  6.442725E+03  1.915227E+05 -6.443001E+03  2.739489E+03
       116   7  5.547354E+05  1.046716E+05  2.144888E+04  2.124030E+05 -1.851669E+03  2.503088E+03
       116   8  5.768609E+05  1.072402E+05  2.756532E+04  2.126275E+05 -3.905325E+03  2.724096E+03
       116   9  5.910722E+05  1.195358E+05  3.527365E+04  2.223686E+05 -5.951303E+03  2.925035E+03
       116  10  4.040617E+05  4.830074E+04 -1.760270E+04  1.713416E+05 -3.380203E-09 -5.892230E-11
       116  11  3.899859E+05  3.692884E+04 -2.078257E+04  1.612535E+05 -4.026959E-10  9.782901E-09
       116  12  3.679908E+05  3.527918E+04 -2.238933E+04  1.606819E+05 -3.087579E-09 -2.779325E-10
       116  13  4.793957E+05  7.648595E+04  1.923281E+03  1.918711E+05  2.104058E-09 -2.663609E-09
       116  14  4.834191E+05  7.208422E+04  3.391692E+03  1.869387E+05 -2.127900E-09  8.007830E-10
       116  15  4.795254E+05  7.740706E+04  6.442633E+03  1.915227E+05 -5.232260E-09  2.197567E-09
       116  16  5.547354E+05  1.046716E+05  2.144886E+04  2.124030E+05  5.967338E-09 -1.213418E-09
       116  17  5.768608E+05  1.072402E+05  2.756527E+04  2.126275E+05 -1.144730E-09  6.842761E-09
       116  18  5.910721E+05  1.195358E+05  3.527357E+04  2.223686E+05 -3.867881E-09  6.039301E-09
       116  19  4.040617E+05  4.830075E+04 -1.760268E+04  1.713416E+05  2.883020E+03 -2.113684E+03
       116  20  3.899860E+05  3.692885E+04 -2.078251E+04  1.612535E+05  4.912702E+03 -2.343848E+03
       116  21  3.679909E+05  3.527920E+04 -2.238923E+04  1.606819E+05  6.934602E+03 -2.553980E+03
       116  22  4.793957E+05  7.648595E+04  1.923302E+03  1.918711E+05  2.367380E+03 -2.308373E+03
       116  23  4.834191E+05  7.208423E+04  3.391741E+03  1.869387E+05  4.409056E+03 -2.533956E+03
       116  24  4.795255E+05  7.740708E+04  6.442725E+03  1.915227E+05  6.443001E+03 -2.739489E+03
       116  25  5.547354E+05  1.046716E+05  2.144888E+04  2.124030E+05  1.851669E+03 -2.503088E+03
       116  26  5.768609E+05  1.072402E+05  2.756532E+04  2.126275E+05  3.905325E+03 -2.724096E+03
       116  27  5.910722E+05  1.195358E+05  3.527365E+04  2.223686E+05  5.951303E+03 -2.925035E+03
       117   1  3.461680E+05  2.729960E+04 -2.607905E+04  1.571476E+05 -8.448287E+03  2.624638E+03
       117   2  3.316991E+05  1.339633E+04 -2.447821E+04  1.447588E+05 -1.611299E+04  7.099790E+02
       117   3  3.140532E+05  2.022277E+04 -1.413063E+04  1.393365E+05 -2.363941E+04 -1.569884E+03
       117   4  4.800569E+05  7.613744E+04  8.329391E+03  1.923610E+05 -7.841960E+03  2.853427E+03
       117   5  4.823469E+05  7.084495E+04  1.464589E+04  1.869552E+05 -1.572203E+04  8.573615E+02
       117   6  4.815011E+05  8.632251E+04  2.987804E+04  1.885157E+05 -2.346407E+04 -1.504021E+03
       117   7  6.139627E+05  1.249760E+05  4.273624E+04  2.275810E+05 -7.235491E+03  3.082266E+03
       117   8  6.330168E+05  1.282952E+05  5.376810E+04  2.291610E+05 -1.533096E+04  1.004785E+03
       117   9  6.489769E+05  1.524250E+05  7.388446E+04  2.377073E+05 -2.328868E+04 -1.438136E+03
       117  10  3.461679E+05  2.729957E+04 -2.607920E+04  1.571477E+05  2.267901E-09  1.742302E-09
       117  11  3.316988E+05  1.339626E+04 -2.447870E+04  1.447588E+05 -5.675049E-09 -1.006370E-08
       117  12  3.140526E+05  2.022262E+04 -1.413169E+04  1.393364E+05 -1.039685E-08 -1.614278E-08
       117  13  4.800568E+05  7.613742E+04  8.329260E+03  1.923610E+05 -5.147582E-09 -2.017558E-09
       117  14  4.823467E+05  7.084488E+04  1.464543E+04  1.869552E+05 -1.486989E-09  2.548061E-09
       117  15  4.815005E+05  8.632236E+04  2.987700E+04  1.885157E+05 -2.628824E-09 -8.193004E-10
       117  16  6.139626E+05  1.249760E+05  4.273612E+04  2.275810E+05 -6.433974E-09  6.642686E-09
       117  17  6.330166E+05  1.282951E+05  5.376765E+04  2.291610E+05  3.582941E-09  7.268188E-09
       117  18  6.489764E+05  1.524249E+05  7.388344E+04  2.377073E+05  5.828620E-09  6.233530E-09
       117  19  3.461680E+05  2.729960E+04 -2.607905E+04  1.571476E+05  8.448287E+03 -2.624638E+03
       117  20  3.316991E+05  1.339633E+04 -2.447821E+04  1.447588E+05  1.611299E+04 -7.099790E+02
       117  21  3.140532E+05  2.022277E+04 -1.413063E+04  1.393365E+05  2.363941E+04  1.569884E+03
       117  22  4.800569E+05  7.613744E+04  8.329391E+03  1.923610E+05  7.841960E+03 -2.853427E+03
       117  23  4.823469E+05  7.084495E+04  1.464589E+04  1.869552E+05  1.572203E+04 -8.573615E+02
       117  24  4.815011E+05  8.632251E+04  2.987804E+04  1.885157E+05  2.346407E+04  1.504021E+03
       117  25  6.139627E+05  1.249760E+05  4.273624E+04  2.275810E+05  7.235491E+03 -3.082266E+03
       117  26  6.330168E+05  1.282952E+05  5.376810E+04  2.291610E+05  1.533096E+04 -1.004785E+03
       117  27  6.489769E+05  1.524250E+05  7.388446E+04  2.377073E+05  2.328868E+04  1.438136E+03
       118   1  2.840293E+05  1.121712E+04 -1.239241E+04  1.569382E+05 -3.104513E+04 -2.862978E+03
       118   2  2.706087E+05 -2.845808E+04  7.873954E+03  1.208172E+05 -6.156307E+04 -1.386083E+04
       118   3  3.003371E+05  6.752540E+04  8.555084E+04  6.159458E+04 -8.985210E+04 -3.076749E+04
       118   4  4.862598E+05  7.205052E+04  3.696968E+04  1.968996E+05 -2.906270E+04 -2.114562E+03
       118   5  4.721202E+05  5.866115E+04  6.216509E+04  1.877961E+05 -6.304639E+04 -1.442170E+04
       118   6  5.017966E+05  1.815868E+05  1.475017E+05  1.555960E+05 -9.480152E+04 -3.263986E+04
       118   7  6.885307E+05  1.328836E+05  8.632901E+04  2.368713E+05 -2.707955E+04 -1.365999E+03
       118   8  6.736706E+05  1.457864E+05  1.164523E+05  2.547957E+05 -6.453024E+04 -1.498283E+04
       118   9  7.032965E+05  2.956672E+05  2.094480E+05  2.496288E+05 -9.975262E+04 -3.451362E+04
       118  10  2.840282E+05  1.121686E+04 -1.239424E+04  1.569382E+05 -2.042259E-09 -6.716299E-09
       118  11  2.706046E+05 -2.845930E+04  7.866474E+03  1.208165E+05  3.690427E-09 -2.427692E-09
       118  12  3.003282E+05  6.752221E+04  8.553390E+04  6.159236E+04  1.345875E-09 -5.054057E-10
       118  13  4.862589E+05  7.205029E+04  3.696808E+04  1.968996E+05 -3.040766E-09 -6.973869E-09
       118  14  4.721159E+05  5.865986E+04  6.215724E+04  1.877954E+05 -2.987871E-09 -5.643706E-09
       118  15  5.017866E+05  1.815832E+05  1.474828E+05  1.555935E+05 -9.707839E-10 -6.149130E-09
       118  16  6.885299E+05  1.328834E+05  8.632763E+04  2.368712E+05 -1.536456E-09 -3.115566E-09
       118  17  6.736660E+05  1.457850E+05  1.164441E+05  2.547949E+05 -6.042365E-09 -1.175002E-09
       118  18  7.032855E+05  2.956633E+05  2.094271E+05  2.496260E+05 -4.059825E-09 -2.212775E-09
       118  19  2.840293E+05  1.121712E+04 -1.239241E+04  1.569382E+05  3.104513E+04  2.862978E+03
       118  20  2.706087E+05 -2.845808E+04  7.873954E+03  1.208172E+05  6.156307E+04  1.386083E+04
       118  21  3.003371E+05  6.752540E+04  8.555084E+04  6.159458E+04  8.985210E+04  3.076749E+04
       118  22  4.862598E+05  7.205052E+04  3.696968E+04  1.968996E+05  2.906270E+04  2.114562E+03
       118  23  4.721202E+05  5.866115E+04  6.216509E+04  1.877961E+05  6.304639E+04  1.442170E+04
       118  24  5.017966E+05  1.815868E+05  1.475017E+05  1.555960E+05  9.480152E+04  3.263986E+04
       118  25  6.885307E+05  1.328836E+05  8.632901E+04  2.368713E+05  2.707955E+04  1.365999E+03
       118  26  6.736706E+05  1.457864E+05  1.164523E+05  2.547957E+05  6.453024E+04  1.498283E+04
       118  27  7.032965E+05  2.956672E+05  2.094480E+05  2.496288E+05  9.975262E+04  3.451362E+04
       119   1 -2.610125E+02 -4.818437E+05 -2.220065E+03 -1.843417E+02 -5.953917E+01  1.526989E+02
       119   2 -6.685805E+02 -4.836193E+05 -3.125696E+03  3.218168E+02 -1.161744E+02  1.346404E+03
       119   3 -1.604022E+03 -4.856872E+05 -4.941914E+03 -3.319091E+02 -2.010505E+02  2.540076E+03
       119   4 -5.642313E+00 -4.808047E+05 -1.984203E+03 -2.575661E+02 -5.958105E+01  1.779807E+02
       119   5  6.307506E+01 -4.806572E+05 -2.431065E+03  3.220503E+02 -1.162453E+02  1.389303E+03
       119   6 -3.991314E+02 -4.808050E+05 -3.800744E+03 -2.582165E+02 -2.011502E+02  2.600595E+03
       119   7  2.497278E+02 -4.797657E+05 -1.748341E+03 -3.307907E+02 -5.962293E+01  2.032625E+02
       119   8  7.947300E+02 -4.776951E+05 -1.736435E+03  3.222837E+02 -1.163162E+02  1.432201E+03
       119   9  8.057573E+02 -4.759228E+05 -2.659576E+03 -1.845233E+02 -2.012498E+02  2.661114E+03
       119  10 -2.610125E+02 -4.818437E+05 -2.220065E+03 -1.843416E+02 -8.271632E-11  1.697062E-09
       119  11 -6.685810E+02 -4.836193E+05 -3.125699E+03  3.218169E+02  2.332958E-09  4.929997E-09
       119  12 -1.604024E+03 -4.856872E+05 -4.941926E+03 -3.319086E+02  2.007746E-10  3.978203E-09
       119  13 -5.642325E+00 -4.808047E+05 -1.984203E+03 -2.575661E+02  2.416649E-09 -2.595131E-10
       119  14  6.307452E+01 -4.806572E+05 -2.431069E+03  3.220504E+02  2.972204E-10 -1.801385E-09
       119  15 -3.991333E+02 -4.808050E+05 -3.800757E+03 -2.582160E+02 -1.584882E-09  3.081977E-10
       119  16  2.497278E+02 -4.797657E+05 -1.748341E+03 -3.307907E+02  3.648346E-09 -2.580133E-09
       119  17  7.947294E+02 -4.776951E+05 -1.736439E+03  3.222839E+02  1.568542E-09 -2.373490E-09
       119  18  8.057554E+02 -4.759228E+05 -2.659589E+03 -1.845228E+02 -9.553288E-10 -5.520857E-10
       119  19 -2.610125E+02 -4.818437E+05 -2.220065E+03 -1.843417E+02  5.953917E+01 -1.526989E+02
       119  20 -6.685805E+02 -4.836193E+05 -3.125696E+03  3.218168E+02  1.161744E+02 -1.346404E+03
       119  21 -1.604022E+03 -4.856872E+05 -4.941914E+03 -3.319091E+02  2.010505E+02 -2.540076E+03
       119  22 -5.642313E+00 -4.808047E+05 -1.984203E+03 -2.575661E+02  5.958105E+01 -1.779807E+02
       119  23  6.307506E+01 -4.806572E+05 -2.431065E+03  3.220503E+02  1.162453E+02 -1.389303E+03
       119  24 -3.991314E+02 -4.808050E+05 -3.800744E+03 -2.582165E+02  2.011502E+02 -2.600595E+03
       119  25  2.497278E+02 -4.797657E+05 -1.748341E+03 -3.307907E+02  5.962294E+01 -2.032625E+02
       119  26  7.947300E+02 -4.776951E+05 -1.736435E+03  3.222837E+02  1.163162E+02 -1.432201E+03
       119  27  8.057573E+02 -4.759228E+05 -2.659576E+03 -1.845233E+02  2.012498E+02 -2.661114E+03
       120   1 -1.458800E+03 -4.881203E+05 -6.387446E+03  5.040179E+02 -2.599854E+02  3.295808E+03
       120   2 -1.657757E+03 -4.890795E+05 -9.932641E+03 -5.545462E+01 -3.494531E+02  7.300602E+03
       120   3 -7.414487E+03 -4.919550E+05 -1.747707E+04 -1.775408E+03 -4.168234E+02  1.130541E+04
       120   4  2.635257E+02 -4.811645E+05 -4.750337E+03 -2.554205E+02 -2.600859E+02  3.354399E+03
       120   5  5.322013E+02 -4.802085E+05 -7.851079E+03  3.206955E+02 -3.495221E+02  7.345456E+03
       120   6 -4.754466E+03 -4.811664E+05 -1.494146E+04 -2.636704E+02 -4.168463E+02  1.133654E+04
       120   7  1.985850E+03 -4.742086E+05 -3.113230E+03 -1.014867E+03 -2.601866E+02  3.412990E+03
       120   8  2.722155E+03 -4.713374E+05 -5.769523E+03  6.968510E+02 -3.495910E+02  7.390309E+03
       120   9 -2.094444E+03 -4.703777E+05 -1.240586E+04  1.248094E+03 -4.168690E+02  1.136766E+04
       120  10 -1.458803E+03 -4.881203E+05 -6.387467E+03  5.040186E+02  4.797546E-10 -7.899415E-10
       120  11 -1.657772E+03 -4.890796E+05 -9.932741E+03 -5.545256E+01 -5.032994E-10  4.889857E-09
       120  12 -7.414522E+03 -4.919551E+05 -1.747731E+04 -1.775404E+03 -1.070135E-09  3.181685E-09
       120  13  2.635226E+02 -4.811645E+05 -4.750358E+03 -2.554198E+02 -3.758291E-10 -4.638027E-09
       120  14  5.321866E+02 -4.802086E+05 -7.851181E+03  3.206976E+02 -3.308691E-09 -1.920182E-09
       120  15 -4.754501E+03 -4.811665E+05 -1.494170E+04 -2.636665E+02 -1.101461E-09 -1.864467E-09
       120  16  1.985847E+03 -4.742086E+05 -3.113252E+03 -1.014867E+03 -1.107286E-09 -1.093299E-10
       120  17  2.722140E+03 -4.713375E+05 -5.769626E+03  6.968531E+02 -7.777668E-11 -3.529347E-09
       120  18 -2.094479E+03 -4.703778E+05 -1.240610E+04  1.248098E+03  2.069214E-10  1.206251E-09
       120  19 -1.458800E+03 -4.881203E+05 -6.387446E+03  5.040179E+02  2.599854E+02 -3.295808E+03
       120  20 -1.657757E+03 -4.890795E+05 -9.932641E+03 -5.545462E+01  3.494531E+02 -7.300602E+03
       120  21 -7.414487E+03 -4.919550E+05 -1.747707E+04 -1.775408E+03  4.168234E+02 -1.130541E+04
       120  22  2.635257E+02 -4.811645E+05 -4.750337E+03 -2.554205E+02  2.600859E+02 -3.354399E+03
       120  23  5.322013E+02 -4.802085E+05 -7.851079E+03  3.206955E+02  3.495221E+02 -7.345456E+03
       120  24 -4.754466E+03 -4.811664E+05 -1.494146E+04 -2.636704E+02  4.168463E+02 -1.133654E+04
       120  25  1.985850E+03 -4.742086E+05 -3.113230E+03 -1.014867E+03  2.601866E+02 -3.412990E+03
       120  26  2.722155E+03 -4.713374E+05 -5.769523E+03  6.968510E+02  3.495910E+02 -7.390309E+03
       120  27 -2.094444E+03 -4.703777E+05 -1.240586E+04  1.248094E+03  4.168690E+02 -1.136766E+04
       121   1 -2.287651E+02 -4.975043E+05 -2.142229E+04  7.579434E+03 -5.245585E+02  1.396292E+04
       121   2  1.959183E+03 -4.905655E+05 -3.343751E+04 -5.833388E+03 -5.968406E+02  3.030759E+04
       121   3 -5.842593E+04 -5.014073E+05 -7.174359E+04 -2.045007E+04 -2.602083E+02  4.665268E+04
       121   4  2.970313E+03 -4.846796E+05 -1.841178E+04 -2.401483E+02 -5.249893E+02  1.411896E+04
       121   5  5.578380E+03 -4.758181E+05 -2.997590E+04  3.153725E+02 -5.963767E+02  3.020849E+04
       121   6 -5.434222E+04 -4.846929E+05 -6.765327E+04 -3.334425E+02 -2.581180E+02  4.629851E+04
       121   7  6.169610E+03 -4.718546E+05 -1.540126E+04 -8.059894E+03 -5.254240E+02  1.427499E+04
       121   8  9.197705E+03 -4.610704E+05 -2.651429E+04  6.464280E+03 -5.959148E+02  3.010938E+04
       121   9 -5.025702E+04 -4.679774E+05 -6.356276E+04  1.978373E+04 -2.560507E+02  4.594433E+04
       121  10 -2.288178E+02 -4.975045E+05 -2.142265E+04  7.579440E+03  3.054617E-10  5.086578E-10
       121  11  1.958936E+03 -4.905665E+05 -3.343924E+04 -5.833373E+03  1.293547E-09  6.790885E-09
       121  12 -5.842652E+04 -5.014097E+05 -7.174768E+04 -2.045006E+04 -2.416774E-10  3.251921E-09
       121  13  2.970260E+03 -4.846798E+05 -1.841216E+04 -2.401424E+02 -1.088362E-09 -3.484249E-09
       121  14  5.578135E+03 -4.758191E+05 -2.997762E+04  3.153870E+02 -2.603552E-09  3.954995E-10
       121  15 -5.434280E+04 -4.846952E+05 -6.765730E+04 -3.334329E+02  1.331240E-09 -7.562448E-10
       121  16  6.169555E+03 -4.718548E+05 -1.540164E+04 -8.059888E+03  3.682380E-10  2.552137E-10
       121  17  9.197461E+03 -4.610714E+05 -2.651600E+04  6.464294E+03 -2.195817E-09 -5.821237E-09
       121  18 -5.025758E+04 -4.679796E+05 -6.356673E+04  1.978374E+04 -1.569174E-10 -2.910231E-09
       121  19 -2.287651E+02 -4.975043E+05 -2.142229E+04  7.579434E+03  5.245585E+02 -1.396292E+04
       121  20  1.959183E+03 -4.905655E+05 -3.343751E+04 -5.833388E+03  5.968406E+02 -3.030759E+04
       121  21 -5.842593E+04 -5.014073E+05 -7.174359E+04 -2.045007E+04  2.602083E+02 -4.665268E+04
       121  22  2.970313E+03 -4.846796E+05 -1.841178E+04 -2.401483E+02  5.249893E+02 -1.411896E+04
       121  23  5.578380E+03 -4.758181E+05 -2.997590E+04  3.153725E+02  5.963767E+02 -3.020849E+04
       121  24 -5.434222E+04 -4.846929E+05 -6.765327E+04 -3.334425E+02  2.581180E+02 -4.629851E+04
       121  25  6.169610E+03 -4.718546E+05 -1.540126E+04 -8.059894E+03  5.254240E+02 -1.427499E+04
       121  26  9.197705E+03 -4.610704E+05 -2.651429E+04  6.464280E+03  5.959148E+02 -3.010938E+04
       121  27 -5.025702E+04 -4.679774E+05 -6.356276E+04  1.978373E+04  2.560507E+02 -4.594433E+04
       122   1 -5.495363E+06 -1.799129E+06 -8.885840E+05 -2.033677E+06 -3.500425E+05 -8.397449E+04
       122   2 -5.316506E+06 -1.546654E+06 -6.197701E+05 -1.968021E+06 -2.277206E+05  7.659382E+04
       122   3 -5.169982E+06 -1.429045E+06 -4.994834E+05 -1.912607E+06 -7.787408E+04  1.649637E+05
       122   4 -2.778807E+06 -6.855354E+05 -1.697932E+05 -1.198084E+06 -1.259403E+05  9.225918E+02
       122   5 -2.765011E+06 -5.647588E+05 -7.896782E+04 -1.217546E+06 -1.225557E+05  1.163291E+05
       122   6 -2.759606E+06 -5.548637E+05 -4.152316E+04 -1.247309E+06 -9.176966E+04  1.596364E+05
       122   7 -5.493299E+04  4.289265E+05  5.485540E+05 -3.590062E+05  9.924004E+04  8.630725E+04
       122   8 -2.067733E+05  4.178527E+05  4.615163E+05 -4.641376E+05 -1.692162E+04  1.562589E+05
       122   9 -3.430884E+05  3.198460E+05  4.162078E+05 -5.795889E+05 -1.057237E+05  1.542878E+05
       122  10 -5.495497E+06 -1.799170E+06 -8.888299E+05 -2.033701E+06 -1.457991E-08 -3.434843E-09
       122  11 -5.316564E+06 -1.546674E+06 -6.198791E+05 -1.968007E+06 -1.463802E-08 -2.460118E-09
       122  12 -5.169996E+06 -1.429076E+06 -4.995458E+05 -1.912596E+06 -1.188174E-08  2.556729E-09
       122  13 -2.778824E+06 -6.855397E+05 -1.698231E+05 -1.198084E+06  7.953411E-11 -1.237212E-09
       122  14 -2.765031E+06 -5.647773E+05 -7.902145E+04 -1.217535E+06 -1.795179E-09 -4.584691E-09
       122  15 -2.759622E+06 -5.548933E+05 -4.158678E+04 -1.247297E+06  1.353007E-09 -1.261466E-08
       122  16 -5.494556E+04  4.289159E+05  5.485215E+05 -3.590131E+05  1.195849E-08  4.461879E-09
       122  17 -2.067802E+05  4.178264E+05  4.614700E+05 -4.641355E+05  1.245890E-08  9.274054E-09
       122  18 -3.431068E+05  3.198175E+05  4.161422E+05 -5.795757E+05  4.921625E-09  5.592757E-09
       122  19 -5.495363E+06 -1.799129E+06 -8.885840E+05 -2.033677E+06  3.500425E+05  8.397449E+04
       122  20 -5.316506E+06 -1.546654E+06 -6.197701E+05 -1.968021E+06  2.277206E+05 -7.659382E+04
       122  21 -5.169982E+06 -1.429045E+06 -4.994834E+05 -1.912607E+06  7.787408E+04 -1.649637E+05
       122  22 -2.778807E+06 -6.855354E+05 -1.697932E+05 -1.198084E+06  1.259403E+05 -9.225918E+02
       122  23 -2.765011E+06 -5.647588E+05 -7.896782E+04 -1.217546E+06  1.225557E+05 -1.163291E+05
       122  24 -2.759606E+06 -5.548637E+05 -4.152316E+04 -1.247309E+06  9.176966E+04 -1.596364E+05
       122  25 -5.493299E+04  4.289265E+05  5.485540E+05 -3.590062E+05 -9.924004E+04 -8.630725E+04
       122  26 -2.067733E+05  4.178527E+05  4.615163E+05 -4.641376E+05  1.692162E+04 -1.562589E+05
       122  27 -3.430884E+05  3.198460E+05  4.162078E+05 -5.795889E+05  1.057237E+05 -1.542878E+05
       123   1 -5.030491E+06 -1.392151E+06 -4.616248E+05 -1.884529E+06 -8.065010E+04  1.570952E+05
       123   2 -4.856359E+06 -1.297943E+06 -4.009403E+05 -1.813885E+06 -6.008337E+04  1.584864E+05
       123   3 -4.654650E+06 -1.241643E+06 -3.555409E+05 -1.778295E+06 -3.721306E+04  1.537375E+05
       123   4 -2.753785E+06 -5.571742E+05 -3.135337E+04 -1.245571E+06 -8.483263E+04  1.554460E+05
       123   5 -2.767941E+06 -5.358874E+05 -1.657645E+04 -1.229238E+06 -7.436420E+04  1.530378E+05
       123   6 -2.752532E+06 -5.504757E+05 -9.006347E+03 -1.247963E+06 -6.160268E+04  1.444985E+05
       123   7 -4.716196E+05  2.782996E+05  3.987087E+05 -6.044101E+05 -8.903172E+04  1.537908E+05
       123   8 -6.749194E+05  2.265847E+05  3.676243E+05 -6.427427E+05 -8.869673E+04  1.475697E+05
       123   9 -8.466010E+05  1.410299E+05  3.373965E+05 -7.161078E+05 -8.607247E+04  1.352295E+05
       123  10 -5.030505E+06 -1.392179E+06 -4.616833E+05 -1.884518E+06  8.065151E-09  9.333953E-09
       123  11 -4.856369E+06 -1.297971E+06 -4.009942E+05 -1.813877E+06  1.098215E-08  8.221672E-09
       123  12 -4.654657E+06 -1.241669E+06 -3.555879E+05 -1.778291E+06  1.024700E-08  8.377343E-09
       123  13 -2.753799E+06 -5.572020E+05 -3.141222E+04 -1.245561E+06  4.011692E-09 -1.580709E-08
       123  14 -2.767953E+06 -5.359140E+05 -1.663077E+04 -1.229229E+06  1.698634E-09 -1.005132E-08
       123  15 -2.752542E+06 -5.504991E+05 -9.052643E+03 -1.247956E+06 -4.269304E-10 -2.806504E-10
       123  16 -4.716345E+05  2.782721E+05  3.986494E+05 -6.043991E+05 -1.458246E-08 -2.593219E-09
       123  17 -6.749337E+05  2.265592E+05  3.675686E+05 -6.427321E+05 -1.354124E-08 -3.879220E-09
       123  18 -8.466138E+05  1.410084E+05  3.373483E+05 -7.160984E+05 -1.258266E-08 -5.129865E-09
       123  19 -5.030491E+06 -1.392151E+06 -4.616248E+05 -1.884529E+06  8.065010E+04 -1.570952E+05
       123  20 -4.856359E+06 -1.297943E+06 -4.009403E+05 -1.813885E+06  6.008337E+04 -1.584864E+05
       123  21 -4.654650E+06 -1.241643E+06 -3.555409E+05 -1.778295E+06  3.721306E+04 -1.537375E+05
       123  22 -2.753785E+06 -5.571742E+05 -3.135337E+04 -1.245571E+06  8.483263E+04 -1.554460E+05
       123  23 -2.767941E+06 -5.358874E+05 -1.657645E+04 -1.229238E+06  7.436420E+04 -1.530378E+05
       123  24 -2.752532E+06 -5.504757E+05 -9.006347E+03 -1.247963E+06  6.160268E+04 -1.444985E+05
       123  25 -4.716196E+05  2.782996E+05  3.987087E+05 -6.044101E+05  8.903172E+04 -1.537908E+05
       123  26 -6.749194E+05  2.265847E+05  3.676243E+05 -6.427427E+05  8.869673E+04 -1.475697E+05
       123  27 -8.466010E+05  1.410299E+05  3.373965E+05 -7.161078E+05  8.607247E+04 -1.352295E+05
       124   1 -4.528719E+06 -1.196334E+06 -3.293073E+05 -1.743813E+06 -3.337851E+04  1.452397E+05
       124   2 -4.352868E+06 -1.109530E+06 -2.909572E+05 -1.671604E+06 -2.501976E+04  1.316802E+05
       124   3 -4.144722E+06 -1.055477E+06 -2.547185E+05 -1.636295E+06 -1.646135E+04  1.175340E+05
       124   4 -2.751936E+06 -5.506294E+05 -6.783746E+03 -1.248001E+06 -5.706731E+04  1.362770E+05
       124   5 -2.767994E+06 -5.340006E+05 -3.762270E+03 -1.229628E+06 -4.967080E+04  1.223734E+05
       124   6 -2.751614E+06 -5.499316E+05 -2.089403E+03 -1.248165E+06 -4.207590E+04  1.078837E+05
       124   7 -9.717882E+05  9.538566E+04  3.156361E+05 -7.508486E+05 -8.082926E+04  1.272870E+05
       124   8 -1.180449E+06  4.177274E+04  2.833497E+05 -7.865888E+05 -7.438960E+04  1.130413E+05
       124   9 -1.356449E+06 -4.420050E+04  2.504745E+05 -8.592165E+05 -6.775220E+04  9.821025E+04
       124  10 -4.528726E+06 -1.196357E+06 -3.293489E+05 -1.743809E+06  2.577283E-08  1.568880E-08
       124  11 -4.352874E+06 -1.109549E+06 -2.909909E+05 -1.671601E+06  3.310414E-09  6.099692E-09
       124  12 -4.144726E+06 -1.055492E+06 -2.547449E+05 -1.636293E+06 -2.076313E-08 -6.865300E-09
       124  13 -2.751944E+06 -5.506502E+05 -6.824700E+03 -1.247994E+06  2.287503E-09  2.312020E-09
       124  14 -2.768001E+06 -5.340173E+05 -3.794997E+03 -1.229623E+06  5.159362E-09  5.486683E-09
       124  15 -2.751619E+06 -5.499445E+05 -2.114563E+03 -1.248161E+06 -1.743459E-10  3.115378E-09
       124  16 -9.717996E+05  9.536654E+04  3.155934E+05 -7.508403E+05 -2.245288E-08 -8.882575E-09
       124  17 -1.180458E+06  4.175756E+04  2.833153E+05 -7.865821E+05  3.880813E-09  3.344007E-09
       124  18 -1.356456E+06 -4.421207E+04  2.504478E+05 -8.592112E+05  2.400789E-08  1.274856E-08
       124  19 -4.528719E+06 -1.196334E+06 -3.293073E+05 -1.743813E+06  3.337851E+04 -1.452397E+05
       124  20 -4.352868E+06 -1.109530E+06 -2.909572E+05 -1.671604E+06  2.501976E+04 -1.316802E+05
       124  21 -4.144722E+06 -1.055477E+06 -2.547185E+05 -1.636295E+06  1.646135E+04 -1.175340E+05
       124  22 -2.751936E+06 -5.506294E+05 -6.783746E+03 -1.248001E+06  5.706731E+04 -1.362770E+05
       124  23 -2.767994E+06 -5.340006E+05 -3.762270E+03 -1.229628E+06  4.967080E+04 -1.223734E+05
       124  24 -2.751614E+06 -5.499316E+05 -2.089403E+03 -1.248165E+06  4.207590E+04 -1.078837E+05
       124  25 -9.717882E+05  9.538566E+04  3.156361E+05 -7.508486E+05  8.082926E+04 -1.272870E+05
       124  26 -1.180449E+06  4.177274E+04  2.833497E+05 -7.865888E+05  7.438960E+04 -1.130413E+05
       124  27 -1.356449E+06 -4.420050E+04  2.504745E+05 -8.592165E+05  6.775220E+04 -9.821025E+04
       125   1 -4.018013E+06 -1.009273E+06 -2.302635E+05 -1.601128E+06 -1.272916E+04  1.086135E+05
       125   2 -3.839974E+06 -9.221368E+05 -1.948927E+05 -1.528149E+06 -6.208769E+03  9.331122E+04
       125   3 -3.629060E+06 -8.677636E+05 -1.599774E+05 -1.492602E+06  3.324245E+02  7.791231E+04
       125   4 -2.751442E+06 -5.499316E+05 -1.617230E+03 -1.248267E+06 -3.836775E+04  9.896366E+04
       125   5 -2.767778E+06 -5.333844E+05 -1.030526E+03 -1.229581E+06 -3.200625E+04  8.361458E+04
       125   6 -2.751250E+06 -5.495710E+05 -7.773150E+02 -1.248340E+06 -2.562417E+04  6.816884E+04
       125   7 -1.483182E+06 -9.044049E+04  2.269731E+05 -8.947317E+05 -6.406225E+04  8.929282E+04
       125   8 -1.694362E+06 -1.445220E+05  1.927946E+05 -9.305285E+05 -5.785154E+04  7.390000E+04
       125   9 -1.872614E+06 -2.313015E+05  1.584010E+05 -1.003751E+06 -5.162038E+04  5.841051E+04
       125  10 -4.018017E+06 -1.009286E+06 -2.302860E+05 -1.601127E+06  1.940879E-09  5.920402E-10
       125  11 -3.839976E+06 -9.221461E+05 -1.949092E+05 -1.528149E+06 -7.482554E-09 -2.110227E-09
       125  12 -3.629061E+06 -8.677701E+05 -1.599888E+05 -1.492602E+06 -9.440165E-09 -1.740299E-09
       125  13 -2.751447E+06 -5.499425E+05 -1.638368E+03 -1.248264E+06 -3.494543E-09  4.993191E-10
       125  14 -2.767781E+06 -5.333922E+05 -1.045566E+03 -1.229579E+06 -7.186745E-09 -1.707972E-09
       125  15 -2.751252E+06 -5.495762E+05 -7.872660E+02 -1.248339E+06 -3.581313E-09 -6.412479E-10
       125  16 -1.483189E+06 -9.045014E+04  2.269505E+05 -8.947271E+05 -7.916397E-09  2.016930E-10
       125  17 -1.694367E+06 -1.445287E+05  1.927781E+05 -9.305251E+05 -7.314281E-09 -9.835993E-10
       125  18 -1.872618E+06 -2.313059E+05  1.583896E+05 -1.003748E+06  3.135360E-09  1.381116E-09
       125  19 -4.018013E+06 -1.009273E+06 -2.302635E+05 -1.601128E+06  1.272916E+04 -1.086135E+05
       125  20 -3.839974E+06 -9.221368E+05 -1.948927E+05 -1.528149E+06  6.208769E+03 -9.331122E+04
       125  21 -3.629060E+06 -8.677636E+05 -1.599774E+05 -1.492602E+06 -3.324245E+02 -7.791231E+04
       125  22 -2.751442E+06 -5.499316E+05 -1.617230E+03 -1.248267E+06  3.836775E+04 -9.896366E+04
       125  23 -2.767778E+06 -5.333844E+05 -1.030526E+03 -1.229581E+06  3.200625E+04 -8.361458E+04
       125  24 -2.751250E+06 -5.495710E+05 -7.773150E+02 -1.248340E+06  2.562417E+04 -6.816884E+04
       125  25 -1.483182E+06 -9.044049E+04  2.269731E+05 -8.947317E+05  6.406225E+04 -8.929282E+04
       125  26 -1.694362E+06 -1.445220E+05  1.927946E+05 -9.305285E+05  5.785154E+04 -7.390000E+04
       125  27 -1.872614E+06 -2.313015E+05  1.584010E+05 -1.003751E+06  5.162038E+04 -5.841051E+04
       126   1 -3.501146E+06 -8.212102E+05 -1.358044E+05 -1.457151E+06  3.946424E+03  6.883540E+04
       126   2 -3.321604E+06 -7.336946E+05 -1.010763E+05 -1.383748E+06  1.036297E+04  5.330284E+04
       126   3 -3.109071E+06 -6.791451E+05 -6.671822E+04 -1.348094E+06  1.677661E+04  3.775616E+04
       126   4 -2.751176E+06 -5.495614E+05 -7.794345E+02 -1.248414E+06 -2.206493E+04  5.907720E+04
       126   5 -2.767598E+06 -5.329695E+05 -9.899219E+02 -1.229557E+06 -1.567329E+04  4.354201E+04
       126   6 -2.751069E+06 -5.493413E+05 -1.554285E+03 -1.248463E+06 -9.284762E+03  2.799270E+04
       126   7 -2.000609E+06 -2.778585E+05  1.342292E+05 -1.039439E+06 -4.810995E+04  4.930638E+04
       126   8 -2.213269E+06 -3.322158E+05  9.908792E+04 -1.075237E+06 -4.173433E+04  3.377189E+04
       126   9 -2.392933E+06 -4.195262E+05  6.360701E+04 -1.148779E+06 -3.536199E+04  1.822329E+04
       126  10 -3.501147E+06 -8.212153E+05 -1.358134E+05 -1.457152E+06 -6.285921E-10  9.135425E-10
       126  11 -3.321604E+06 -7.336976E+05 -1.010818E+05 -1.383748E+06 -2.565123E-09 -9.065330E-10
       126  12 -3.109072E+06 -6.791467E+05 -6.672143E+04 -1.348094E+06 -1.757282E-09 -6.897906E-10
       126  13 -2.751177E+06 -5.495653E+05 -7.868964E+02 -1.248413E+06 -4.852693E-10  4.536096E-10
       126  14 -2.767599E+06 -5.329716E+05 -9.939401E+02 -1.229556E+06  1.235495E-10  1.662085E-10
       126  15 -2.751069E+06 -5.493422E+05 -1.555917E+03 -1.248463E+06 -1.190647E-10 -5.659256E-10
       126  16 -2.000612E+06 -2.778617E+05  1.342203E+05 -1.039437E+06  2.247307E-09  6.591085E-10
       126  17 -2.213271E+06 -3.322175E+05  9.908250E+04 -1.075236E+06  2.662165E-09  4.803340E-10
       126  18 -2.392934E+06 -4.195269E+05  6.360404E+04 -1.148779E+06  1.755438E-09 -2.698647E-10
       126  19 -3.501146E+06 -8.212102E+05 -1.358044E+05 -1.457151E+06 -3.946424E+03 -6.883540E+04
       126  20 -3.321604E+06 -7.336946E+05 -1.010763E+05 -1.383748E+06 -1.036297E+04 -5.330284E+04
       126  21 -3.109071E+06 -6.791451E+05 -6.671822E+04 -1.348094E+06 -1.677661E+04 -3.775616E+04
       126  22 -2.751176E+06 -5.495614E+05 -7.794345E+02 -1.248414E+06  2.206493E+04 -5.907720E+04
       126  23 -2.767598E+06 -5.329695E+05 -9.899219E+02 -1.229557E+06  1.567329E+04 -4.354201E+04
       126  24 -2.751069E+06 -5.493413E+05 -1.554285E+03 -1.248463E+06  9.284762E+03 -2.799270E+04
       126  25 -2.000609E+06 -2.778585E+05  1.342292E+05 -1.039439E+06  4.810995E+04 -4.930638E+04
       126  26 -2.213269E+06 -3.322158E+05  9.908792E+04 -1.075237E+06  4.173433E+04 -3.377189E+04
       126  27 -2.392933E+06 -4.195262E+05  6.360701E+04 -1.148779E+06  3.536199E+04 -1.822329E+04
       127   1 -2.980463E+06 -6.324313E+05 -4.288290E+04 -1.312511E+06  2.056357E+04  2.870535E+04
       127   2 -2.800229E+06 -5.448143E+05 -9.308077E+03 -1.238921E+06  2.785623E+04  1.358095E+04
       127   3 -2.587151E+06 -4.903794E+05  2.317105E+04 -1.203193E+06  3.506530E+04 -1.320812E+03
       127   4 -2.751094E+06 -5.493275E+05 -2.022794E+03 -1.248513E+06 -5.550705E+03  1.892420E+04
       127   5 -2.767464E+06 -5.327590E+05 -3.589631E+03 -1.229549E+06  2.106105E+03  3.936511E+03
       127   6 -2.751109E+06 -5.494518E+05 -6.545948E+03 -1.248466E+06  9.678836E+03 -1.082866E+04
       127   7 -2.521665E+06 -4.662171E+05  3.883917E+04 -1.184492E+06 -3.167556E+04  9.139055E+03
       127   8 -2.734696E+06 -5.207031E+05  2.131689E+03 -1.220177E+06 -2.364560E+04 -5.708546E+03
       127   9 -2.915037E+06 -6.085212E+05 -3.626113E+04 -1.293727E+06 -1.570045E+04 -2.033384E+04
       127  10 -2.980464E+06 -6.324323E+05 -4.288526E+04 -1.312512E+06 -8.391741E-10 -5.885070E-10
       127  11 -2.800230E+06 -5.448147E+05 -9.309892E+03 -1.238921E+06  4.147052E-10 -7.504161E-10
       127  12 -2.587153E+06 -4.903797E+05  2.316873E+04 -1.203193E+06 -4.516721E-11 -1.865615E-09
       127  13 -2.751094E+06 -5.493279E+05 -2.023524E+03 -1.248513E+06 -1.632596E-10 -8.467864E-10
       127  14 -2.767464E+06 -5.327591E+05 -3.589668E+03 -1.229549E+06  1.942733E-09  4.259245E-10
       127  15 -2.751109E+06 -5.494520E+05 -6.546344E+03 -1.248466E+06  1.080767E-09 -7.207123E-10
       127  16 -2.521666E+06 -4.662174E+05  3.883712E+04 -1.184492E+06  3.930127E-10 -1.517229E-09
       127  17 -2.734696E+06 -5.207033E+05  2.130571E+03 -1.220177E+06  3.446476E-10 -9.896077E-10
       127  18 -2.915038E+06 -6.085218E+05 -3.626238E+04 -1.293727E+06 -9.233610E-10 -1.580052E-09
       127  19 -2.980463E+06 -6.324313E+05 -4.288290E+04 -1.312511E+06 -2.056357E+04 -2.870535E+04
       127  20 -2.800229E+06 -5.448143E+05 -9.308077E+03 -1.238921E+06 -2.785623E+04 -1.358095E+04
       127  21 -2.587151E+06 -4.903794E+05  2.317105E+04 -1.203193E+06 -3.506530E+04  1.320812E+03
       127  22 -2.751094E+06 -5.493275E+05 -2.022794E+03 -1.248513E+06  5.550705E+03 -1.892420E+04
       127  23 -2.767464E+06 -5.327590E+05 -3.589631E+03 -1.229549E+06 -2.106105E+03 -3.936511E+03
       127  24 -2.751109E+06 -5.494518E+05 -6.545948E+03 -1.248466E+06 -9.678836E+03  1.082866E+04
       127  25 -2.521665E+06 -4.662171E+05  3.883917E+04 -1.184492E+06  3.167556E+04 -9.139055E+03
       127  26 -2.734696E+06 -5.207031E+05  2.131689E+03 -1.220177E+06  2.364560E+04  5.708546E+03
       127  27 -2.915037E+06 -6.085212E+05 -3.626113E+04 -1.293727E+06  1.570045E+04  2.033384E+04
       128   1 -2.458296E+06 -4.438980E+05  4.545696E+04 -1.168140E+06  4.003202E+04 -9.819787E+03
       128   2 -2.279166E+06 -3.559317E+05  7.495979E+04 -1.092736E+06  4.889886E+04 -2.266413E+04
       128   3 -2.068843E+06 -3.041963E+05  1.009061E+05 -1.054193E+06  5.675495E+04 -3.279555E+04
       128   4 -2.751532E+06 -5.493275E+05 -8.717019E+03 -1.248618E+06  1.428827E+04 -1.946297E+04
       128   5 -2.767127E+06 -5.337735E+05 -1.597498E+04 -1.229069E+06  2.764004E+04 -3.063264E+04
       128   6 -2.752463E+06 -5.553506E+05 -3.035981E+04 -1.246399E+06  3.997949E+04 -3.908863E+04
       128   7 -3.044673E+06 -6.547478E+05 -6.289060E+04 -1.329060E+06 -1.144220E+04 -2.910128E+04
       128   8 -3.254837E+06 -7.115925E+05 -1.069170E+05 -1.365301E+06  6.399144E+03 -3.859436E+04
       128   9 -3.435600E+06 -8.064626E+05 -1.616463E+05 -1.438409E+06  2.322370E+04 -4.537417E+04
       128  10 -2.458298E+06 -4.438985E+05  4.545375E+04 -1.168140E+06  7.053920E-10 -1.302006E-09
       128  11 -2.279169E+06 -3.559328E+05  7.495433E+04 -1.092735E+06  2.733822E-10 -1.462969E-09
       128  12 -2.068847E+06 -3.041983E+05  1.008980E+05 -1.054191E+06  1.256738E-10 -1.315245E-11
       128  13 -2.751532E+06 -5.493280E+05 -8.718113E+03 -1.248618E+06  7.790237E-10 -1.087866E-09
       128  14 -2.767128E+06 -5.337747E+05 -1.597817E+04 -1.229068E+06 -9.801413E-10 -8.647199E-10
       128  15 -2.752465E+06 -5.553527E+05 -3.036568E+04 -1.246398E+06  6.809609E-10  3.270395E-10
       128  16 -3.044674E+06 -6.547487E+05 -6.289244E+04 -1.329060E+06  6.683349E-10 -4.190779E-10
       128  17 -3.254837E+06 -7.115941E+05 -1.069199E+05 -1.365301E+06 -1.878977E-09 -7.461564E-10
       128  18 -3.435601E+06 -8.064649E+05 -1.616511E+05 -1.438408E+06  8.098021E-10  6.521650E-10
       128  19 -2.458296E+06 -4.438980E+05  4.545696E+04 -1.168140E+06 -4.003202E+04  9.819787E+03
       128  20 -2.279166E+06 -3.559317E+05  7.495979E+04 -1.092736E+06 -4.889886E+04  2.266413E+04
       128  21 -2.068843E+06 -3.041963E+05  1.009061E+05 -1.054193E+06 -5.675495E+04  3.279555E+04
       128  22 -2.751532E+06 -5.493275E+05 -8.717019E+03 -1.248618E+06 -1.428827E+04  1.946297E+04
       128  23 -2.767127E+06 -5.337735E+05 -1.597498E+04 -1.229069E+06 -2.764004E+04  3.063264E+04
       128  24 -2.752463E+06 -5.553506E+05 -3.035981E+04 -1.246399E+06 -3.997949E+04  3.908863E+04
       128  25 -3.044673E+06 -6.547478E+05 -6.289060E+04 -1.329060E+06  1.144220E+04  2.910128E+04
       128  26 -3.254837E+06 -7.115925E+05 -1.069170E+05 -1.365301E+06 -6.399144E+03  3.859436E+04
       128  27 -3.435600E+06 -8.064626E+05 -1.616463E+05 -1.438409E+06 -2.322370E+04  4.537417E+04
       129   1 -1.936392E+06 -2.625360E+05  1.172238E+05 -1.029315E+06  6.862904E+04 -3.735177E+04
       129   2 -1.785412E+06 -1.635169E+05  1.379551E+05 -9.079238E+05  5.388144E+04 -3.903935E+04
       129   3 -1.628301E+06 -1.665370E+05  1.491414E+05 -8.020164E+05  2.703736E+04 -8.547536E+03
       129   4 -2.757592E+06 -5.534790E+05 -4.023239E+04 -1.248670E+06  4.748077E+04 -4.528715E+04
       129   5 -2.764448E+06 -5.607849E+05 -7.641231E+04 -1.217104E+06  8.608163E+04 -2.697152E+04
       129   6 -2.775868E+06 -6.808353E+05 -1.645764E+05 -1.201046E+06  1.125770E+05  2.355227E+04
       129   7 -3.578093E+06 -8.443723E+05 -1.977168E+05 -1.467758E+06  2.636243E+04 -5.321201E+04
       129   8 -3.742475E+06 -9.579065E+05 -2.908272E+05 -1.525805E+06  1.182264E+05 -1.492943E+04
       129   9 -3.922065E+06 -1.194855E+06 -4.783680E+05 -1.599328E+06  1.979399E+05  5.555661E+04
       129  10 -1.936397E+06 -2.625388E+05  1.172123E+05 -1.029313E+06  8.029678E-10  5.138049E-10
       129  11 -1.785416E+06 -1.635193E+05  1.379468E+05 -9.079221E+05  6.905819E-10  9.419389E-10
       129  12 -1.628302E+06 -1.665373E+05  1.491399E+05 -8.020162E+05  9.659132E-10  2.208532E-10
       129  13 -2.757595E+06 -5.534818E+05 -4.024048E+04 -1.248668E+06 -5.671923E-10  6.463016E-11
       129  14 -2.764456E+06 -5.607877E+05 -7.642764E+04 -1.217102E+06  2.008963E-09  5.653683E-10
       129  15 -2.775882E+06 -6.808394E+05 -1.646014E+05 -1.201048E+06 -4.349366E-10  2.160053E-10
       129  16 -3.578094E+06 -8.443755E+05 -1.977234E+05 -1.467757E+06 -1.041802E-09  3.530023E-10
       129  17 -3.742490E+06 -9.579105E+05 -2.908540E+05 -1.525804E+06 -2.759764E-09 -2.539535E-10
       129  18 -3.922108E+06 -1.194869E+06 -4.784480E+05 -1.599337E+06 -1.315699E-09 -1.925640E-10
       129  19 -1.936392E+06 -2.625360E+05  1.172238E+05 -1.029315E+06 -6.862904E+04  3.735177E+04
       129  20 -1.785412E+06 -1.635169E+05  1.379551E+05 -9.079238E+05 -5.388144E+04  3.903935E+04
       129  21 -1.628301E+06 -1.665370E+05  1.491414E+05 -8.020164E+05 -2.703736E+04  8.547536E+03
       129  22 -2.757592E+06 -5.534790E+05 -4.023239E+04 -1.248670E+06 -4.748077E+04  4.528715E+04
       129  23 -2.764448E+06 -5.607849E+05 -7.641231E+04 -1.217104E+06 -8.608163E+04  2.697152E+04
       129  24 -2.775868E+06 -6.808353E+05 -1.645764E+05 -1.201046E+06 -1.125770E+05 -2.355227E+04
       129  25 -3.578093E+06 -8.443723E+05 -1.977168E+05 -1.467758E+06 -2.636243E+04  5.321201E+04
       129  26 -3.742475E+06 -9.579065E+05 -2.908272E+05 -1.525805E+06 -1.182264E+05  1.492943E+04
       129  27 -3.922065E+06 -1.194855E+06 -4.783680E+05 -1.599328E+06 -1.979399E+05 -5.555661E+04
       130   1  1.164373E+05  2.333619E+04  4.131835E+04  1.690700E+04  5.612406E+04  2.145169E+03
       130   2  1.222650E+05 -4.989254E+04 -1.605904E+03  3.853040E+03  3.809277E+04  6.429901E+03
       130   3  1.506725E+05 -4.232818E+04 -1.258614E+04 -1.937814E+04  2.006257E+04  6.109953E+03
       130   4  3.064952E+05  7.063482E+04  8.795507E+04 -9.221960E+03  6.025395E+04  2.144689E+03
       130   5  2.949652E+05 -7.256106E+03  3.895131E+04 -4.117622E+03  3.934265E+04  6.429772E+03
       130   6  3.065068E+05 -3.867616E+03  2.388401E+04 -9.189965E+03  1.843303E+04  6.109689E+03
       130   7  4.965875E+05  1.179333E+05  1.345896E+05 -3.535893E+04  6.438510E+04  2.143861E+03
       130   8  4.676930E+05  3.537845E+04  7.950653E+04 -1.209052E+04  4.059289E+04  6.429611E+03
       130   9  4.623637E+05  3.459161E+04  6.035257E+04  1.000783E+03  1.680309E+04  6.109372E+03
       130  10  1.164339E+05  2.333534E+04  4.131243E+04  1.690690E+04  1.731777E-09 -1.798955E-10
       130  11  1.222635E+05 -4.989298E+04 -1.608708E+03  3.852843E+03  2.450167E-09  9.075514E-10
       130  12  1.506720E+05 -4.232833E+04 -1.258697E+04 -1.937824E+04  3.680639E-10  2.844122E-10
       130  13  3.064913E+05  7.063384E+04  8.794824E+04 -9.222064E+03  1.021414E-10  4.523547E-10
       130  14  2.949635E+05 -7.256565E+03  3.894833E+04 -4.117826E+03  4.351373E-13  4.179089E-10
       130  15  3.065064E+05 -3.867747E+03  2.388330E+04 -9.190056E+03  1.902201E-09  1.628617E-10
       130  16  4.965830E+05  1.179322E+05  1.345818E+05 -3.535904E+04 -4.591223E-10  3.002567E-10
       130  17  4.676912E+05  3.537796E+04  7.950336E+04 -1.209073E+04  8.266096E-10  1.767151E-10
       130  18  4.623634E+05  3.459150E+04  6.035197E+04  1.000700E+03  1.291488E-09  1.101037E-09
       130  19  1.164373E+05  2.333619E+04  4.131835E+04  1.690700E+04 -5.612406E+04 -2.145169E+03
       130  20  1.222650E+05 -4.989254E+04 -1.605904E+03  3.853040E+03 -3.809277E+04 -6.429901E+03
       130  21  1.506725E+05 -4.232818E+04 -1.258614E+04 -1.937814E+04 -2.006257E+04 -6.109953E+03
       130  22  3.064952E+05  7.063482E+04  8.795507E+04 -9.221960E+03 -6.025395E+04 -2.144689E+03
       130  23  2.949652E+05 -7.256106E+03  3.895131E+04 -4.117622E+03 -3.934265E+04 -6.429772E+03
       130  24  3.065068E+05 -3.867616E+03  2.388401E+04 -9.189965E+03 -1.843303E+04 -6.109689E+03
       130  25  4.965875E+05  1.179333E+05  1.345896E+05 -3.535893E+04 -6.438510E+04 -2.143861E+03
       130  26  4.676930E+05  3.537845E+04  7.950653E+04 -1.209052E+04 -4.059289E+04 -6.429611E+03
       130  27  4.623637E+05  3.459161E+04  6.035257E+04  1.000783E+03 -1.680309E+04 -6.109372E+03
       131   1  1.644999E+05 -2.776389E+04 -1.294551E+04 -7.254096E+03  1.503879E+04  5.062887E+03
       131   2  1.801930E+05 -3.043800E+04 -1.819333E+04 -3.622344E+03  1.008628E+04  4.583299E+03
       131   3  1.983444E+05 -2.592424E+04 -1.841682E+04 -1.019946E+04  5.133573E+03  3.840217E+03
       131   4  3.019313E+05  6.172850E+03  1.934787E+04 -9.207185E+03  1.482468E+04  5.062708E+03
       131   5  3.006895E+05 -6.942537E+02  1.006156E+04 -4.102084E+03  9.706667E+03  4.583154E+03
       131   6  3.019338E+05 -3.455867E+02  5.913632E+03 -9.205683E+03  4.588593E+03  3.840105E+03
       131   7  4.393800E+05  4.010826E+04  5.163995E+04 -1.116071E+04  1.461052E+04  5.062530E+03
       131   8  4.211993E+05  2.904847E+04  3.831545E+04 -4.581919E+03  9.326983E+03  4.583009E+03
       131   9  4.055330E+05  2.523230E+04  3.024335E+04 -8.211742E+03  4.043523E+03  3.839991E+03
       131  10  1.644997E+05 -2.776398E+04 -1.294599E+04 -7.254158E+03  3.619082E-10 -2.433384E-10
       131  11  1.801929E+05 -3.043805E+04 -1.819356E+04 -3.622381E+03  1.412653E-10 -5.523681E-10
       131  12  1.983444E+05 -2.592426E+04 -1.841690E+04 -1.019947E+04  2.494413E-10 -2.950187E-10
       131  13  3.019310E+05  6.172763E+03  1.934740E+04 -9.207246E+03  1.178689E-09  5.531453E-10
       131  14  3.006894E+05 -6.943015E+02  1.006134E+04 -4.102120E+03  1.180712E-09 -2.297696E-10
       131  15  3.019337E+05 -3.456082E+02  5.913565E+03 -9.205697E+03 -6.443800E-10 -3.939871E-10
       131  16  4.393798E+05  4.010817E+04  5.163950E+04 -1.116077E+04 -3.614895E-10  6.308493E-10
       131  17  4.211992E+05  2.904842E+04  3.831525E+04 -4.581953E+03  9.760835E-10 -2.230575E-10
       131  18  4.055330E+05  2.523228E+04  3.024329E+04 -8.211755E+03  5.669652E-10 -2.040945E-10
       131  19  1.644999E+05 -2.776389E+04 -1.294551E+04 -7.254096E+03 -1.503879E+04 -5.062887E+03
       131  20  1.801930E+05 -3.043800E+04 -1.819333E+04 -3.622344E+03 -1.008628E+04 -4.583299E+03
       131  21  1.983444E+05 -2.592424E+04 -1.841682E+04 -1.019946E+04 -5.133573E+03 -3.840217E+03
       131  22  3.019313E+05  6.172850E+03  1.934787E+04 -9.207185E+03 -1.482468E+04 -5.062708E+03
       131  23  3.006895E+05 -6.942537E+02  1.006156E+04 -4.102084E+03 -9.706667E+03 -4.583154E+03
       131  24  3.019338E+05 -3.455867E+02  5.913632E+03 -9.205683E+03 -4.588593E+03 -3.840105E+03
       131  25  4.393800E+05  4.010826E+04  5.163995E+04 -1.116071E+04 -1.461052E+04 -5.062530E+03
       131  26  4.211993E+05  2.904847E+04  3.831545E+04 -4.581919E+03 -9.326983E+03 -4.583009E+03
       131  27  4.055330E+05  2.523230E+04  3.024335E+04 -8.211742E+03 -4.043523E+03 -3.839991E+03
       132   1  2.161103E+05 -2.053769E+04 -1.537332E+04 -9.114489E+03  4.125928E+03  3.359232E+03
       132   2  2.327787E+05 -1.698513E+04 -1.351355E+04 -4.127922E+03  2.862835E+03  2.609875E+03
       132   3  2.497764E+05 -1.279730E+04 -1.067163E+04 -9.304034E+03  1.599638E+03  1.846270E+03
       132   4  3.014555E+05  5.196358E+02  4.592383E+03 -9.195910E+03  3.663057E+03  3.359147E+03
       132   5  3.012906E+05 -7.422502E+01  2.549198E+03 -4.114581E+03  2.390907E+03  2.609815E+03
       132   6  3.014564E+05 -3.122769E+01  1.494413E+03 -9.195859E+03  1.118687E+03  1.846237E+03
       132   7  3.868075E+05  2.157645E+04  2.455759E+04 -9.277342E+03  3.200123E+03  3.359062E+03
       132   8  3.698068E+05  1.683635E+04  1.861163E+04 -4.101237E+03  1.918927E+03  2.609756E+03
       132   9  3.531388E+05  1.273465E+04  1.366027E+04 -9.087675E+03  6.376954E+02  1.846203E+03
       132  10  2.161102E+05 -2.053771E+04 -1.537338E+04 -9.114500E+03 -9.127216E-10  1.461269E-10
       132  11  2.327787E+05 -1.698514E+04 -1.351358E+04 -4.127928E+03 -7.048202E-12  9.124131E-11
       132  12  2.497764E+05 -1.279730E+04 -1.067164E+04 -9.304037E+03  1.708564E-10 -7.229218E-10
       132  13  3.014555E+05  5.196201E+02  4.592336E+03 -9.195920E+03  9.683669E-10  2.072841E-10
       132  14  3.012906E+05 -7.423387E+01  2.549174E+03 -4.114586E+03 -1.642242E-09  5.158514E-10
       132  15  3.014564E+05 -3.123169E+01  1.494404E+03 -9.195861E+03  9.985795E-10 -3.295270E-10
       132  16  3.868075E+05  2.157643E+04  2.455755E+04 -9.277351E+03  7.425623E-10  2.977524E-10
       132  17  3.698068E+05  1.683634E+04  1.861161E+04 -4.101242E+03  4.196409E-10  5.481291E-10
       132  18  3.531388E+05  1.273465E+04  1.366026E+04 -9.087676E+03 -1.147407E-09  2.195598E-10
       132  19  2.161103E+05 -2.053769E+04 -1.537332E+04 -9.114489E+03 -4.125928E+03 -3.359232E+03
       132  20  2.327787E+05 -1.698513E+04 -1.351355E+04 -4.127922E+03 -2.862835E+03 -2.609875E+03
       132  21  2.497764E+05 -1.279730E+04 -1.067163E+04 -9.304034E+03 -1.599638E+03 -1.846270E+03
       132  22  3.014555E+05  5.196358E+02  4.592383E+03 -9.195910E+03 -3.663057E+03 -3.359147E+03
       132  23  3.012906E+05 -7.422502E+01  2.549198E+03 -4.114581E+03 -2.390907E+03 -2.609815E+03
       132  24  3.014564E+05 -3.122769E+01  1.494413E+03 -9.195859E+03 -1.118687E+03 -1.846237E+03
       132  25  3.868075E+05  2.157645E+04  2.455759E+04 -9.277342E+03 -3.200123E+03 -3.359062E+03
       132  26  3.698068E+05  1.683635E+04  1.861163E+04 -4.101237E+03 -1.918927E+03 -2.609756E+03
       132  27  3.531388E+05  1.273465E+04  1.366027E+04 -9.087675E+03 -6.376954E+02 -1.846203E+03
       133   1  2.678921E+05 -8.221153E+03 -6.647524E+03 -9.204794E+03  1.356433E+03  1.399515E+03
       133   2  2.846558E+05 -4.134731E+03 -3.217819E+03 -4.133345E+03  1.009994E+03  6.366321E+02
       133   3  3.014805E+05  8.261642E+00  4.518057E+02 -9.202408E+03  6.635181E+02 -1.268307E+02
       133   4  3.013967E+05  3.864996E+01  1.157445E+03 -9.190962E+03  8.804540E+02  1.399493E+03
       133   5  3.013665E+05 -1.012837E+01  6.998847E+02 -4.120715E+03  5.336264E+02  6.366159E+02
       133   6  3.013969E+05 -2.318658E+00  4.824484E+02 -9.190962E+03  1.867710E+02 -1.268399E+02
       133   7  3.349024E+05  8.298374E+03  8.962340E+03 -9.177130E+03  4.044496E+02  1.399471E+03
       133   8  3.180775E+05  4.114454E+03  4.617570E+03 -4.108085E+03  5.724598E+01  6.365997E+02
       133   9  3.013134E+05 -1.289883E+01  5.130921E+02 -9.179517E+03 -2.899761E+02 -1.268492E+02
       133  10  2.678921E+05 -8.221156E+03 -6.647531E+03 -9.204795E+03 -8.724367E-10 -5.238473E-10
       133  11  2.846558E+05 -4.134731E+03 -3.217822E+03 -4.133346E+03 -8.482340E-10  7.197608E-10
       133  12  3.014805E+05  8.261506E+00  4.518048E+02 -9.202408E+03  7.836483E-10  1.771891E-10
       133  13  3.013967E+05  3.864765E+01  1.157440E+03 -9.190963E+03  1.085546E-09 -4.235188E-10
       133  14  3.013665E+05 -1.012888E+01  6.998834E+02 -4.120715E+03 -6.051247E-10 -1.417127E-11
       133  15  3.013969E+05 -2.318685E+00  4.824483E+02 -9.190962E+03  1.350764E-10  2.541625E-10
       133  16  3.349024E+05  8.298372E+03  8.962336E+03 -9.177131E+03 -6.672695E-10 -3.815216E-10
       133  17  3.180775E+05  4.114454E+03  4.617570E+03 -4.108085E+03  1.823133E-10 -7.884546E-10
       133  18  3.013134E+05 -1.289887E+01  5.130919E+02 -9.179517E+03  1.413982E-09  3.307672E-10
       133  19  2.678921E+05 -8.221153E+03 -6.647524E+03 -9.204794E+03 -1.356433E+03 -1.399515E+03
       133  20  2.846558E+05 -4.134731E+03 -3.217819E+03 -4.133345E+03 -1.009994E+03 -6.366321E+02
       133  21  3.014805E+05  8.261642E+00  4.518057E+02 -9.202408E+03 -6.635181E+02  1.268307E+02
       133  22  3.013967E+05  3.864996E+01  1.157445E+03 -9.190962E+03 -8.804540E+02 -1.399493E+03
       133  23  3.013665E+05 -1.012837E+01  6.998847E+02 -4.120715E+03 -5.336264E+02 -6.366159E+02
       133  24  3.013969E+05 -2.318658E+00  4.824484E+02 -9.190962E+03 -1.867710E+02  1.268399E+02
       133  25  3.349024E+05  8.298374E+03  8.962340E+03 -9.177130E+03 -4.044496E+02 -1.399471E+03
       133  26  3.180775E+05  4.114454E+03  4.617570E+03 -4.108085E+03 -5.724598E+01 -6.365997E+02
       133  27  3.013134E+05 -1.289883E+01  5.130921E+02 -9.179517E+03  2.899761E+02  1.268492E+02
       134   1  3.196346E+05  4.513038E+03  4.759622E+03 -9.192277E+03  5.808560E+02 -5.713978E+02
       134   2  3.364193E+05  8.643920E+03  8.645117E+03 -4.116490E+03  3.681171E+02 -1.335077E+03
       134   3  3.532410E+05  1.280207E+04  1.267631E+04 -9.186109E+03  1.554202E+02 -2.098376E+03
       134   4  3.013916E+05  2.955839E-01  4.325884E+02 -9.192062E+03  1.040138E+02 -5.714094E+02
       134   5  3.013730E+05 -6.036516E+00  4.290674E+02 -4.119341E+03 -1.084846E+02 -1.335103E+03
       134   6  3.013913E+05  1.488221E+01  5.711021E+02 -9.192062E+03 -3.209352E+02 -2.098415E+03
       134   7  2.831489E+05 -4.512470E+03 -3.894467E+03 -9.191846E+03 -3.728144E+02 -5.714210E+02
       134   8  2.663279E+05 -8.656080E+03 -7.787065E+03 -4.122192E+03 -5.850595E+02 -1.335129E+03
       134   9  2.495440E+05 -1.277250E+04 -1.153429E+04 -9.198015E+03 -7.972511E+02 -2.098454E+03
       134  10  3.196346E+05  4.513037E+03  4.759620E+03 -9.192277E+03 -6.569730E-10  1.057168E-10
       134  11  3.364193E+05  8.643918E+03  8.645113E+03 -4.116490E+03 -2.952964E-10  6.195555E-10
       134  12  3.532410E+05  1.280207E+04  1.267631E+04 -9.186109E+03 -6.416621E-11 -5.512998E-10
       134  13  3.013916E+05  2.952303E-01  4.325877E+02 -9.192062E+03  2.376157E-09  4.507751E-10
       134  14  3.013730E+05 -6.038433E+00  4.290641E+02 -4.119341E+03 -1.947496E-09  2.408154E-10
       134  15  3.013913E+05  1.487745E+01  5.710936E+02 -9.192063E+03  1.122175E-09 -3.877096E-10
       134  16  2.831489E+05 -4.512471E+03 -3.894468E+03 -9.191847E+03  1.158790E-10  5.477580E-10
       134  17  2.663279E+05 -8.656082E+03 -7.787069E+03 -4.122193E+03  1.671509E-09 -3.017946E-10
       134  18  2.495440E+05 -1.277250E+04 -1.153430E+04 -9.198017E+03  1.006922E-09 -3.438238E-10
       134  19  3.196346E+05  4.513038E+03  4.759622E+03 -9.192277E+03 -5.808560E+02  5.713978E+02
       134  20  3.364193E+05  8.643920E+03  8.645117E+03 -4.116490E+03 -3.681171E+02  1.335077E+03
       134  21  3.532410E+05  1.280207E+04  1.267631E+04 -9.186109E+03 -1.554202E+02  2.098376E+03
       134  22  3.013916E+05  2.955839E-01  4.325884E+02 -9.192062E+03 -1.040138E+02  5.714094E+02
       134  23  3.013730E+05 -6.036516E+00  4.290674E+02 -4.119341E+03  1.084846E+02  1.335103E+03
       134  24  3.013913E+05  1.488221E+01  5.711021E+02 -9.192062E+03  3.209352E+02  2.098415E+03
       134  25  2.831489E+05 -4.512470E+03 -3.894467E+03 -9.191846E+03  3.728144E+02  5.714210E+02
       134  26  2.663279E+05 -8.656080E+03 -7.787065E+03 -4.122192E+03  5.850595E+02  1.335129E+03
       134  27  2.495440E+05 -1.277250E+04 -1.153429E+04 -9.198015E+03  7.972511E+02  2.098454E+03
       135   1  3.714610E+05  1.728286E+04  1.716877E+04 -9.151686E+03  4.684537E+01 -2.545724E+03
       135   2  3.882443E+05  2.141463E+04  2.150003E+04 -4.098874E+03 -5.252347E+02 -3.310062E+03
       135   3  4.051795E+05  2.582035E+04  2.627384E+04 -9.225453E+03 -1.097206E+03 -4.058975E+03
       135   4  3.014159E+05 -1.496746E+01  6.983233E+02 -9.199616E+03 -4.350749E+02 -2.545779E+03
       135   5  3.013404E+05 -3.398927E+01  1.127174E+03 -4.109892E+03 -9.974575E+02 -3.310150E+03
       135   6  3.014151E+05  2.193639E+02  1.991979E+03 -9.199647E+03 -1.559716E+03 -4.059094E+03
       135   7  2.313753E+05 -1.731314E+04 -1.577246E+04 -9.247540E+03 -9.169410E+02 -2.545834E+03
       135   8  2.144434E+05 -2.148315E+04 -1.924620E+04 -4.120909E+03 -1.469615E+03 -3.310237E+03
       135   9  1.976606E+05 -2.538239E+04 -2.229062E+04 -9.173845E+03 -2.022150E+03 -4.059214E+03
       135  10  3.714610E+05  1.728285E+04  1.716876E+04 -9.151686E+03 -8.638786E-12 -3.565617E-10
       135  11  3.882443E+05  2.141462E+04  2.150001E+04 -4.098876E+03  6.251665E-10  3.407186E-10
       135  12  4.051795E+05  2.582033E+04  2.627381E+04 -9.225457E+03  6.839681E-10 -6.375713E-10
       135  13  3.014159E+05 -1.497447E+01  6.983107E+02 -9.199617E+03 -4.177999E-12 -2.824127E-10
       135  14  3.013404E+05 -3.400130E+01  1.127152E+03 -4.109895E+03  2.013742E-09  1.320784E-10
       135  15  3.014151E+05  2.193456E+02  1.991944E+03 -9.199652E+03  1.144738E-09 -2.658349E-10
       135  16  2.313753E+05 -1.731315E+04 -1.577248E+04 -9.247542E+03  5.602231E-10 -3.221920E-10
       135  17  2.144434E+05 -2.148316E+04 -1.924622E+04 -4.120913E+03 -2.419484E-09 -2.148591E-10
       135  18  1.976605E+05 -2.538241E+04 -2.229066E+04 -9.173851E+03  5.052091E-10  4.729972E-10
       135  19  3.714610E+05  1.728286E+04  1.716877E+04 -9.151686E+03 -4.684537E+01  2.545724E+03
       135  20  3.882443E+05  2.141463E+04  2.150003E+04 -4.098874E+03  5.252347E+02  3.310062E+03
       135  21  4.051795E+05  2.582035E+04  2.627384E+04 -9.225453E+03  1.097206E+03  4.058975E+03
       135  22  3.014159E+05 -1.496746E+01  6.983233E+02 -9.199616E+03  4.350749E+02  2.545779E+03
       135  23  3.013404E+05 -3.398927E+01  1.127174E+03 -4.109892E+03  9.974575E+02  3.310150E+03
       135  24  3.014151E+05  2.193639E+02  1.991979E+03 -9.199647E+03  1.559716E+03  4.059094E+03
       135  25  2.313753E+05 -1.731314E+04 -1.577246E+04 -9.247540E+03  9.169410E+02  2.545834E+03
       135  26  2.144434E+05 -2.148315E+04 -1.924620E+04 -4.120909E+03  1.469615E+03  3.310237E+03
       135  27  1.976606E+05 -2.538239E+04 -2.229062E+04 -9.173845E+03  2.022150E+03  4.059214E+03
       136   1  4.236706E+05  2.997858E+04  3.120976E+04 -8.771461E+03 -1.407900E+03 -4.543924E+03
       136   2  4.400802E+05  3.400356E+04  3.691992E+04 -4.282381E+03 -3.791475E+03 -5.285655E+03
       136   3  4.576039E+05  4.115829E+04  4.496801E+04 -1.002413E+04 -6.175067E+03 -5.738938E+03
       136   4  3.016213E+05 -1.522905E+02  2.555774E+03 -9.210825E+03 -1.960450E+03 -4.544088E+03
       136   5  3.010791E+05 -3.026552E+02  4.331191E+03 -4.095763E+03 -4.163499E+03 -5.285834E+03
       136   6  3.016195E+05  2.645776E+03  8.319564E+03 -9.211643E+03 -6.366498E+03 -5.739106E+03
       136   7  1.795857E+05 -3.028422E+04 -2.609923E+04 -9.650104E+03 -2.512892E+03 -4.544252E+03
       136   8  1.620957E+05 -3.461024E+04 -2.825885E+04 -3.909188E+03 -4.535440E+03 -5.286013E+03
       136   9  1.456573E+05 -3.586847E+04 -2.833055E+04 -8.399365E+03 -6.557882E+03 -5.739275E+03
       136  10  4.236706E+05  2.997856E+04  3.120971E+04 -8.771466E+03 -1.517555E-09 -6.336573E-10
       136  11  4.400802E+05  3.400353E+04  3.691984E+04 -4.282398E+03  1.999289E-09  3.481081E-10
       136  12  4.576039E+05  4.115825E+04  4.496788E+04 -1.002416E+04  2.535561E-10 -1.373136E-09
       136  13  3.016212E+05 -1.523137E+02  2.555728E+03 -9.210833E+03 -1.077088E-09 -1.563022E-10
       136  14  3.010791E+05 -3.026898E+02  4.331106E+03 -4.095781E+03  1.003109E-09  2.645645E-11
       136  15  3.016194E+05  2.645730E+03  8.319426E+03 -9.211673E+03  1.135986E-09 -1.310069E-09
       136  16  1.795856E+05 -3.028425E+04 -2.609928E+04 -9.650113E+03  1.082616E-09  5.338625E-10
       136  17  1.620957E+05 -3.461028E+04 -2.825894E+04 -3.909208E+03  5.206340E-10  5.026877E-10
       136  18  1.456573E+05 -3.586852E+04 -2.833069E+04 -8.399395E+03 -5.163611E-10 -7.456649E-10
       136  19  4.236706E+05  2.997858E+04  3.120976E+04 -8.771461E+03  1.407900E+03  4.543924E+03
       136  20  4.400802E+05  3.400356E+04  3.691992E+04 -4.282381E+03  3.791475E+03  5.285655E+03
       136  21  4.576039E+05  4.115829E+04  4.496801E+04 -1.002413E+04  6.175067E+03  5.738938E+03
       136  22  3.016213E+05 -1.522905E+02  2.555774E+03 -9.210825E+03  1.960450E+03  4.544088E+03
       136  23  3.010791E+05 -3.026552E+02  4.331191E+03 -4.095763E+03  4.163499E+03  5.285834E+03
       136  24  3.016195E+05  2.645776E+03  8.319564E+03 -9.211643E+03  6.366498E+03  5.739106E+03
       136  25  1.795857E+05 -3.028422E+04 -2.609923E+04 -9.650104E+03  2.512892E+03  4.544252E+03
       136  26  1.620957E+05 -3.461024E+04 -2.825885E+04 -3.909188E+03  4.535440E+03  5.286013E+03
       136  27  1.456573E+05 -3.586847E+04 -2.833055E+04 -8.399365E+03  6.557882E+03  5.739275E+03
       137   1  4.780441E+05  4.137360E+04  5.108508E+04 -4.781785E+03 -6.176715E+03 -6.842162E+03
       137   2  4.899742E+05  4.411057E+04  6.166865E+04 -7.493667E+03 -1.831271E+04 -7.117688E+03
       137   3  5.123889E+05  8.232150E+04  8.902534E+04 -2.038754E+04 -3.045185E+04 -2.352597E+03
       137   4  3.035874E+05 -1.669673E+03  1.026832E+04 -9.195499E+03 -7.917842E+03 -6.842896E+03
       137   5  2.986138E+05 -3.126547E+03  1.673920E+04 -4.112789E+03 -1.690423E+04 -7.117279E+03
       137   6  3.035812E+05  3.034967E+04  3.780023E+04 -9.211971E+03 -2.589335E+04 -2.350660E+03
       137   7  1.291588E+05 -4.471503E+04 -3.055050E+04 -1.360797E+04 -9.658482E+03 -6.843605E+03
       137   8  1.072872E+05 -5.036623E+04 -2.819274E+04 -7.329620E+02 -1.549617E+04 -7.116854E+03
       137   9  9.481355E+04 -2.162490E+04 -1.342794E+04  1.959831E+03 -2.133639E+04 -2.348558E+03
       137  10  4.780441E+05  4.137354E+04  5.108492E+04 -4.781819E+03  3.907166E-10 -1.870727E-09
       137  11  4.899738E+05  4.411043E+04  6.166793E+04 -7.493772E+03  7.868606E-10 -1.123530E-09
       137  12  5.123879E+05  8.232125E+04  8.902359E+04 -2.038760E+04 -1.349226E-10 -6.714009E-11
       137  13  3.035873E+05 -1.669740E+03  1.026811E+04 -9.195542E+03 -3.029862E-10 -2.965762E-09
       137  14  2.986135E+05 -3.126678E+03  1.673857E+04 -4.112886E+03  1.909007E-10  8.816251E-10
       137  15  3.035805E+05  3.034949E+04  3.779896E+04 -9.212020E+03  1.108793E-09  6.129343E-11
       137  16  1.291587E+05 -4.471511E+04 -3.055076E+04 -1.360802E+04  2.371699E-10 -1.146089E-09
       137  17  1.072869E+05 -5.036635E+04 -2.819329E+04 -7.330508E+02 -1.663682E-09  4.082681E-10
       137  18  9.481306E+04 -2.162503E+04 -1.342881E+04  1.959790E+03 -2.775428E-10 -5.229571E-10
       137  19  4.780441E+05  4.137360E+04  5.108508E+04 -4.781785E+03  6.176715E+03  6.842162E+03
       137  20  4.899742E+05  4.411057E+04  6.166865E+04 -7.493667E+03  1.831271E+04  7.117688E+03
       137  21  5.123889E+05  8.232150E+04  8.902534E+04 -2.038754E+04  3.045185E+04  2.352597E+03
       137  22  3.035874E+05 -1.669673E+03  1.026832E+04 -9.195499E+03  7.917842E+03  6.842896E+03
       137  23  2.986138E+05 -3.126547E+03  1.673920E+04 -4.112789E+03  1.690423E+04  7.117279E+03
       137  24  3.035812E+05  3.034967E+04  3.780023E+04 -9.211971E+03  2.589335E+04  2.350660E+03
       137  25  1.291588E+05 -4.471503E+04 -3.055050E+04 -1.360797E+04  9.658482E+03  6.843605E+03
       137  26  1.072872E+05 -5.036623E+04 -2.819274E+04 -7.329620E+02  1.549617E+04  7.116854E+03
       137  27  9.481355E+04 -2.162490E+04 -1.342794E+04  1.959831E+03  2.133639E+04  2.348558E+03
       138   1  2.572848E+06  1.037677E+07  2.554131E+06 -1.402935E+06  1.008568E+05  2.303437E+05
       138   2  1.873885E+06  7.853613E+06  1.831162E+06 -6.551397E+05  2.810968E+05  4.431613E+04
       138   3  1.306685E+06  5.415474E+06  1.265004E+06 -1.386244E+06  1.987471E+05 -1.424968E+05
       138   4  5.470057E+04  2.080216E+05  6.931519E+04 -1.350196E+06  1.017859E+05  3.386610E+04
       138   5 -1.112674E+04  1.869798E+05  3.800074E+04 -6.102238E+05  2.815487E+05  1.432531E+04
       138   6  2.711122E+04  2.170333E+05  4.978252E+04 -1.350266E+06  1.972890E+05 -6.751127E+03
       138   7 -2.471035E+06 -9.867436E+06 -2.422902E+06 -1.298120E+06  1.026927E+05 -1.594437E+05
       138   8 -1.900293E+06 -7.425939E+06 -1.759160E+06 -5.657395E+05  2.820000E+05 -1.530171E+04
       138   9 -1.254364E+06 -4.956606E+06 -1.167208E+06 -1.314494E+06  1.958397E+05  1.278728E+05
       138  10  2.572823E+06  1.037671E+07  2.554014E+06 -1.402953E+06 -1.830384E-09 -2.099408E-09
       138  11  1.873799E+06  7.853590E+06  1.831010E+06 -6.551498E+05 -6.230390E-09  6.695229E-09
       138  12  1.306638E+06  5.415442E+06  1.264892E+06 -1.386221E+06  6.654704E-09  3.013589E-09
       138  13  5.468912E+04  2.080176E+05  6.929353E+04 -1.350198E+06  1.966396E-10 -5.015788E-11
       138  14 -1.121193E+04  1.869583E+05  3.785136E+04 -6.102270E+05 -8.367120E-09 -3.875132E-11
       138  15  2.706941E+04  2.170228E+05  4.970930E+04 -1.350265E+06  5.222775E-09 -1.649664E-08
       138  16 -2.471053E+06 -9.867466E+06 -2.422970E+06 -1.298107E+06 -2.293876E-10  3.157952E-09
       138  17 -1.900379E+06 -7.425961E+06 -1.759309E+06 -5.657361E+05 -1.835232E-10 -1.025829E-08
       138  18 -1.254410E+06 -4.956634E+06 -1.167312E+06 -1.314514E+06 -1.227435E-10 -5.978774E-09
       138  19  2.572848E+06  1.037677E+07  2.554131E+06 -1.402935E+06 -1.008568E+05 -2.303437E+05
       138  20  1.873885E+06  7.853613E+06  1.831162E+06 -6.551397E+05 -2.810968E+05 -4.431613E+04
       138  21  1.306685E+06  5.415474E+06  1.265004E+06 -1.386244E+06 -1.987471E+05  1.424968E+05
       138  22  5.470057E+04  2.080216E+05  6.931519E+04 -1.350196E+06 -1.017859E+05 -3.386610E+04
       138  23 -1.112674E+04  1.869798E+05  3.800074E+04 -6.102238E+05 -2.815487E+05 -1.432531E+04
       138  24  2.711122E+04  2.170333E+05  4.978252E+04 -1.350266E+06 -1.972890E+05  6.751127E+03
       138  25 -2.471035E+06 -9.867436E+06 -2.422902E+06 -1.298120E+06 -1.026927E+05  1.594437E+05
       138  26 -1.900293E+06 -7.425939E+06 -1.759160E+06 -5.657395E+05 -2.820000E+05  1.530171E+04
       138  27 -1.254364E+06 -4.956606E+06 -1.167208E+06 -1.314494E+06 -1.958397E+05 -1.278728E+05
       139   1  6.516912E+05  2.729492E+06  6.433394E+05 -1.380062E+06  9.672302E+04 -7.615262E+04
       139   2  2.382184E+04  2.712652E+05  8.733942E+04 -6.062585E+05  3.523901E+03 -1.146326E+05
       139   3 -5.276180E+05 -2.195603E+06 -4.338358E+05 -1.317896E+06 -8.970825E+04 -1.529776E+05
       139   4  2.965570E+04  2.077975E+05  5.284569E+04 -1.351504E+06  9.600675E+04 -1.758923E+04
       139   5  1.001155E+04  2.150037E+05  7.414501E+04 -6.086068E+05  2.816655E+03 -5.614840E+04
       139   6  6.718536E+04  2.078657E+05  1.305843E+05 -1.351058E+06 -9.042334E+04 -9.471945E+04
       139   7 -5.928278E+05 -2.308048E+06 -5.380689E+05 -1.323039E+06  9.529418E+04  4.073869E+04
       139   8 -3.797112E+03  1.587525E+05  6.096323E+04 -6.109549E+05  2.108931E+03  2.330525E+03
       139   9  6.615809E+05  2.616673E+06  6.946217E+05 -1.384327E+06 -9.114311E+04 -3.623597E+04
       139  10  6.516796E+05  2.729483E+06  6.433111E+05 -1.380056E+06  3.936245E-09 -9.782836E-09
       139  11  2.381831E+04  2.712511E+05  8.731471E+04 -6.062582E+05  2.577854E-09  8.178110E-09
       139  12 -5.276330E+05 -2.195631E+06 -4.338952E+05 -1.317907E+06 -2.882639E-10  7.030623E-09
       139  13  2.964572E+04  2.077947E+05  5.282781E+04 -1.351503E+06  1.597294E-09 -9.567162E-11
       139  14  1.001069E+04  2.150003E+05  7.413907E+04 -6.086067E+05  8.115150E-09 -3.187694E-10
       139  15  6.717415E+04  2.078538E+05  1.305520E+05 -1.351065E+06  1.156609E-08 -1.852584E-08
       139  16 -5.928380E+05 -2.308052E+06 -5.380891E+05 -1.323042E+06 -1.252594E-09  1.536347E-08
       139  17 -3.797118E+03  1.587525E+05  6.096321E+04 -6.109549E+05 -6.827301E-09 -1.704201E-08
       139  18  6.615716E+05  2.616670E+06  6.946036E+05 -1.384329E+06 -1.758290E-09 -9.208511E-09
       139  19  6.516912E+05  2.729492E+06  6.433394E+05 -1.380062E+06 -9.672302E+04  7.615262E+04
       139  20  2.382184E+04  2.712652E+05  8.733942E+04 -6.062585E+05 -3.523901E+03  1.146326E+05
       139  21 -5.276180E+05 -2.195603E+06 -4.338358E+05 -1.317896E+06  8.970825E+04  1.529776E+05
       139  22  2.965570E+04  2.077975E+05  5.284569E+04 -1.351504E+06 -9.600675E+04  1.758923E+04
       139  23  1.001155E+04  2.150037E+05  7.414501E+04 -6.086068E+05 -2.816655E+03  5.614840E+04
       139  24  6.718536E+04  2.078657E+05  1.305843E+05 -1.351058E+06  9.042334E+04  9.471945E+04
       139  25 -5.928278E+05 -2.308048E+06 -5.380689E+05 -1.323039E+06 -9.529418E+04 -4.073869E+04
       139  26 -3.797112E+03  1.587525E+05  6.096323E+04 -6.109549E+05 -2.108931E+03 -2.330525E+03
       139  27  6.615809E+05  2.616673E+06  6.946217E+05 -1.384327E+06  9.114311E+04  3.623597E+04
       140   1 -1.249628E+06 -4.816106E+06 -1.028804E+06 -1.372881E+06 -1.897508E+05 -2.544469E+05
       140   2 -1.913618E+06 -7.348843E+06 -1.521345E+06 -5.199538E+05 -2.758291E+05 -2.258509E+05
       140   3 -2.039171E+06 -9.723393E+06 -1.894464E+06 -1.148012E+06 -9.987399E+04 -1.957722E+05
       140   4  2.447567E+03  2.457066E+05  1.614860E+05 -1.350851E+06 -1.912275E+05 -1.211143E+05
       140   5 -5.150428E+04  1.517188E+05  2.493230E+05 -6.099604E+05 -2.753602E+05 -2.559436E+05
       140   6  4.584694E+05  2.368342E+05  5.689610E+05 -1.348557E+06 -9.887483E+04 -3.892089E+05
       140   7  1.252710E+06  5.331267E+06  1.350088E+06 -1.328547E+06 -1.926878E+05  1.330846E+04
       140   8  1.806592E+06  7.704428E+06  2.016110E+06 -7.009509E+05 -2.748863E+05 -2.863862E+05
       140   9  2.948820E+06  1.028831E+07  3.025172E+06 -1.552173E+06 -9.776109E+04 -5.857414E+05
       140  10 -1.249684E+06 -4.816186E+06 -1.028995E+06 -1.372920E+06  4.089407E-09 -1.343955E-08
       140  11 -1.913714E+06 -7.348919E+06 -1.521585E+06 -5.200043E+05  5.497564E-10 -2.273118E-09
       140  12 -2.039193E+06 -9.723437E+06 -1.894556E+06 -1.148028E+06 -1.136801E-09  6.656552E-10
       140  13  2.404285E+03  2.456809E+05  1.613895E+05 -1.350870E+06 -4.170277E-09  3.534936E-11
       140  14 -5.160338E+04  1.516280E+05  2.490572E+05 -6.100171E+05  1.755377E-09 -6.183829E-12
       140  15  4.584181E+05  2.366689E+05  5.686577E+05 -1.348588E+06 -1.769887E-09 -3.763724E-09
       140  16  1.252670E+06  5.331256E+06  1.350018E+06 -1.328545E+06  3.922915E-09  1.860923E-08
       140  17  1.806489E+06  7.704320E+06  2.015816E+06 -7.010140E+05 -3.242740E-10 -3.540662E-09
       140  18  2.948720E+06  1.028794E+07  3.024519E+06 -1.552219E+06 -2.204914E-09 -1.158362E-09
       140  19 -1.249628E+06 -4.816106E+06 -1.028804E+06 -1.372881E+06  1.897508E+05  2.544469E+05
       140  20 -1.913618E+06 -7.348843E+06 -1.521345E+06 -5.199538E+05  2.758291E+05  2.258509E+05
       140  21 -2.039171E+06 -9.723393E+06 -1.894464E+06 -1.148012E+06  9.987399E+04  1.957722E+05
       140  22  2.447567E+03  2.457066E+05  1.614860E+05 -1.350851E+06  1.912275E+05  1.211143E+05
       140  23 -5.150428E+04  1.517188E+05  2.493230E+05 -6.099604E+05  2.753602E+05  2.559436E+05
       140  24  4.584694E+05  2.368342E+05  5.689610E+05 -1.348557E+06  9.887483E+04  3.892089E+05
       140  25  1.252710E+06  5.331267E+06  1.350088E+06 -1.328547E+06  1.926878E+05 -1.330846E+04
       140  26  1.806592E+06  7.704428E+06  2.016110E+06 -7.009509E+05  2.748863E+05  2.863862E+05
       140  27  2.948820E+06  1.028831E+07  3.025172E+06 -1.552173E+06  9.776109E+04  5.857414E+05
       141   1 -5.527994E+05 -2.423229E+05 -1.221868E+05 -2.361382E+05 -5.954766E+04 -1.765863E+04
       141   2 -5.220445E+05 -1.912302E+05 -7.388376E+04 -2.234685E+05 -3.667419E+04  1.920009E+03
       141   3 -4.982089E+05 -1.635494E+05 -5.054734E+04 -2.111853E+05 -1.117004E+04  1.450220E+04
       141   4 -2.607281E+05 -1.081755E+05 -4.350293E+04 -1.305775E+05 -3.006712E+04 -6.592338E+03
       141   5 -2.565520E+05 -8.192044E+04 -2.092033E+04 -1.364287E+05 -2.290183E+04  7.089101E+03
       141   6 -2.561785E+05 -7.595996E+04 -1.084809E+04 -1.426684E+05 -1.310810E+04  1.377388E+04
       141   7  3.142380E+04  2.598834E+04  3.517530E+04 -2.496935E+04 -5.721341E+02  4.482358E+03
       141   8  9.013126E+03  2.740072E+04  3.204016E+04 -4.935282E+04 -9.123275E+03  1.226123E+04
       141   9 -1.408316E+04  1.163650E+04  2.885044E+04 -7.412570E+04 -1.504698E+04  1.304526E+04
       141  10 -5.528033E+05 -2.423242E+05 -1.221941E+05 -2.361391E+05  1.005137E-09  1.961535E-10
       141  11 -5.220459E+05 -1.912305E+05 -7.388630E+04 -2.234684E+05 -1.022970E-09 -4.487355E-10
       141  12 -4.982091E+05 -1.635497E+05 -5.054797E+04 -2.111852E+05  6.226471E-10 -5.458959E-10
       141  13 -2.607290E+05 -1.081758E+05 -4.350471E+04 -1.305777E+05  2.902875E-11 -1.433144E-10
       141  14 -2.565526E+05 -8.192063E+04 -2.092141E+04 -1.364285E+05 -3.114551E-09 -5.127054E-10
       141  15 -2.561787E+05 -7.596021E+04 -1.084877E+04 -1.426682E+05 -4.140406E-10 -5.890320E-10
       141  16  3.142380E+04  2.598832E+04  3.517526E+04 -2.496935E+04 -5.387981E-10 -4.287692E-11
       141  17  9.012996E+03  2.740053E+04  3.203972E+04 -4.935273E+04 -1.398522E-09  5.012468E-10
       141  18 -1.408345E+04  1.163625E+04  2.884970E+04 -7.412555E+04 -1.013179E-09  9.511037E-10
       141  19 -5.527994E+05 -2.423229E+05 -1.221868E+05 -2.361382E+05  5.954766E+04  1.765863E+04
       141  20 -5.220445E+05 -1.912302E+05 -7.388376E+04 -2.234685E+05  3.667419E+04 -1.920009E+03
       141  21 -4.982089E+05 -1.635494E+05 -5.054734E+04 -2.111853E+05  1.117004E+04 -1.450220E+04
       141  22 -2.607281E+05 -1.081755E+05 -4.350293E+04 -1.305775E+05  3.006712E+04  6.592338E+03
       141  23 -2.565520E+05 -8.192044E+04 -2.092033E+04 -1.364287E+05  2.290183E+04 -7.089101E+03
       141  24 -2.561785E+05 -7.595996E+04 -1.084809E+04 -1.426684E+05  1.310810E+04 -1.377388E+04
       141  25  3.142380E+04  2.598834E+04  3.517530E+04 -2.496935E+04  5.721341E+02 -4.482358E+03
       141  26  9.013126E+03  2.740072E+04  3.204016E+04 -4.935282E+04  9.123275E+03 -1.226123E+04
       141  27 -1.408316E+04  1.163650E+04  2.885044E+04 -7.412570E+04  1.504698E+04 -1.304526E+04
       142   1 -4.749327E+05 -1.554268E+05 -4.312525E+04 -2.061610E+05 -9.611437E+03  1.420993E+04
       142   2 -4.434034E+05 -1.382890E+05 -3.212989E+04 -1.943784E+05 -5.152360E+03  1.439991E+04
       142   3 -4.089113E+05 -1.271414E+05 -2.457292E+04 -1.870489E+05 -3.802361E+02  1.375591E+04
       142   4 -2.549093E+05 -7.496409E+04 -8.023927E+03 -1.427195E+05 -1.159668E+04  1.346404E+04
       142   5 -2.563875E+05 -7.083026E+04 -4.152121E+03 -1.409889E+05 -9.009752E+03  1.295157E+04
       142   6 -2.545324E+05 -7.231523E+04 -2.234087E+03 -1.437120E+05 -6.110011E+03  1.160517E+04
       142   7 -3.483662E+04  5.503057E+03  2.707570E+04 -7.925752E+04 -1.358264E+04  1.271787E+04
       142   8 -6.933358E+04 -3.367471E+03  2.382532E+04 -8.758425E+04 -1.286837E+04  1.150275E+04
       142   9 -1.001253E+05 -1.748566E+04  2.010526E+04 -1.003644E+05 -1.184136E+04  9.453834E+03
       142  10 -4.749329E+05 -1.554270E+05 -4.312580E+04 -2.061609E+05  7.436962E-09  8.954239E-10
       142  11 -4.434035E+05 -1.382893E+05 -3.213033E+04 -1.943783E+05  4.320286E-09 -1.210322E-09
       142  12 -4.089114E+05 -1.271416E+05 -2.457327E+04 -1.870489E+05  8.207738E-10 -1.660338E-09
       142  13 -2.549095E+05 -7.496432E+04 -8.024520E+03 -1.427194E+05  4.018739E-10 -7.766801E-10
       142  14 -2.563876E+05 -7.083046E+04 -4.152588E+03 -1.409889E+05  3.852286E-09 -2.238201E-09
       142  15 -2.545324E+05 -7.231538E+04 -2.234410E+03 -1.437120E+05  2.390615E-09 -1.265709E-09
       142  16 -3.483686E+04  5.502834E+03  2.707505E+04 -7.925738E+04 -5.123766E-09 -1.671225E-09
       142  17 -6.933379E+04 -3.367657E+03  2.382476E+04 -8.758413E+04 -4.387984E-10 -2.205100E-09
       142  18 -1.001255E+05 -1.748580E+04  2.010483E+04 -1.003643E+05  7.349886E-10 -3.906141E-10
       142  19 -4.749327E+05 -1.554268E+05 -4.312525E+04 -2.061610E+05  9.611437E+03 -1.420993E+04
       142  20 -4.434034E+05 -1.382890E+05 -3.212989E+04 -1.943784E+05  5.152360E+03 -1.439991E+04
       142  21 -4.089113E+05 -1.271414E+05 -2.457292E+04 -1.870489E+05  3.802361E+02 -1.375591E+04
       142  22 -2.549093E+05 -7.496409E+04 -8.023927E+03 -1.427195E+05  1.159668E+04 -1.346404E+04
       142  23 -2.563875E+05 -7.083026E+04 -4.152121E+03 -1.409889E+05  9.009752E+03 -1.295157E+04
       142  24 -2.545324E+05 -7.231523E+04 -2.234087E+03 -1.437120E+05  6.110011E+03 -1.160517E+04
       142  25 -3.483662E+04  5.503057E+03  2.707570E+04 -7.925752E+04  1.358264E+04 -1.271787E+04
       142  26 -6.933358E+04 -3.367471E+03  2.382532E+04 -8.758425E+04  1.286837E+04 -1.150275E+04
       142  27 -1.001253E+05 -1.748566E+04  2.010526E+04 -1.003644E+05  1.184136E+04 -9.453834E+03
       143   1 -3.878377E+05 -1.197071E+05 -2.077201E+04 -1.812864E+05  4.912912E+02  1.235264E+04
       143   2 -3.564277E+05 -1.055189E+05 -1.509502E+04 -1.694867E+05  2.141491E+03  1.000156E+04
       143   3 -3.209709E+05 -9.569145E+04 -9.960899E+03 -1.624723E+05  3.828813E+03  7.551052E+03
       143   4 -2.543937E+05 -7.224834E+04 -1.666370E+03 -1.437014E+05 -5.244824E+03  1.019969E+04
       143   5 -2.564249E+05 -7.000159E+04 -8.985075E+02 -1.413412E+05 -3.817887E+03  7.765044E+03
       143   6 -2.543662E+05 -7.207135E+04 -4.966313E+02 -1.437667E+05 -2.353873E+03  5.230979E+03
       143   7 -1.209303E+05 -2.478760E+04  1.743928E+04 -1.061088E+05 -1.098224E+04  8.046255E+03
       143   8 -1.564117E+05 -3.448341E+04  1.329791E+04 -1.131917E+05 -9.778234E+03  5.528169E+03
       143   9 -1.877575E+05 -4.845108E+04  8.967523E+03 -1.250595E+05 -8.537175E+03  2.910675E+03
       143  10 -3.878377E+05 -1.197073E+05 -2.077230E+04 -1.812865E+05  1.807585E-09 -1.981464E-10
       143  11 -3.564278E+05 -1.055190E+05 -1.509522E+04 -1.694867E+05  1.094832E-09  3.043399E-10
       143  12 -3.209709E+05 -9.569151E+04 -9.961033E+03 -1.624723E+05  2.481740E-09  5.261953E-10
       143  13 -2.543938E+05 -7.224846E+04 -1.666617E+03 -1.437014E+05 -1.038682E-09 -7.965667E-10
       143  14 -2.564249E+05 -7.000166E+04 -8.986481E+02 -1.413412E+05 -1.757639E-09 -1.136299E-10
       143  15 -2.543662E+05 -7.207138E+04 -4.966931E+02 -1.437667E+05  1.655395E-10 -3.537171E-10
       143  16 -1.209304E+05 -2.478770E+04  1.743893E+04 -1.061087E+05 -4.950822E-10 -1.064198E-09
       143  17 -1.564118E+05 -3.448347E+04  1.329767E+04 -1.131916E+05  9.429802E-10 -1.875956E-09
       143  18 -1.877575E+05 -4.845110E+04  8.967370E+03 -1.250595E+05 -3.650445E-09 -8.811681E-10
       143  19 -3.878377E+05 -1.197071E+05 -2.077201E+04 -1.812864E+05 -4.912912E+02 -1.235264E+04
       143  20 -3.564277E+05 -1.055189E+05 -1.509502E+04 -1.694867E+05 -2.141491E+03 -1.000156E+04
       143  21 -3.209709E+05 -9.569145E+04 -9.960899E+03 -1.624723E+05 -3.828813E+03 -7.551052E+03
       143  22 -2.543937E+05 -7.224834E+04 -1.666370E+03 -1.437014E+05  5.244824E+03 -1.019969E+04
       143  23 -2.564249E+05 -7.000159E+04 -8.985075E+02 -1.413412E+05  3.817887E+03 -7.765044E+03
       143  24 -2.543662E+05 -7.207135E+04 -4.966313E+02 -1.437667E+05  2.353873E+03 -5.230979E+03
       143  25 -1.209303E+05 -2.478760E+04  1.743928E+04 -1.061088E+05  1.098224E+04 -8.046255E+03
       143  26 -1.564117E+05 -3.448341E+04  1.329791E+04 -1.131917E+05  9.778234E+03 -5.528169E+03
       143  27 -1.877575E+05 -4.845108E+04  8.967523E+03 -1.250595E+05  8.537175E+03 -2.910675E+03
       144   1 -3.001365E+05 -8.829221E+04 -6.767875E+03 -1.566336E+05  4.503187E+03  5.972081E+03
       144   2 -2.687709E+05 -7.432806E+04 -1.962595E+03 -1.448124E+05  5.669961E+03  3.263525E+03
       144   3 -2.332275E+05 -6.457453E+04  2.742051E+03 -1.377969E+05  6.840510E+03  5.448104E+02
       144   4 -2.543494E+05 -7.207048E+04 -3.760621E+02 -1.437625E+05 -1.680453E+03  3.651724E+03
       144   5 -2.564391E+05 -6.996636E+04 -2.181925E+02 -1.413594E+05 -5.367039E+02  9.345419E+02
       144   6 -2.543485E+05 -7.206880E+04 -1.431304E+02 -1.437628E+05  6.108102E+02 -1.792795E+03
       144   7 -2.085592E+05 -5.584825E+04  6.016081E+03 -1.308902E+05 -7.864655E+03  1.331157E+03
       144   8 -2.441069E+05 -6.560458E+04  1.526399E+03 -1.379063E+05 -6.743541E+03 -1.394505E+03
       144   9 -2.754689E+05 -7.956300E+04 -3.028149E+03 -1.497285E+05 -5.618670E+03 -4.130318E+03
       144  10 -3.001365E+05 -8.829225E+04 -6.767981E+03 -1.566336E+05  3.986757E-09  1.123762E-09
       144  11 -2.687709E+05 -7.432809E+04 -1.962676E+03 -1.448124E+05  3.087894E-08  1.179217E-08
       144  12 -2.332276E+05 -6.457454E+04  2.741962E+03 -1.377969E+05  6.752183E-08  2.267333E-08
       144  13 -2.543494E+05 -7.207049E+04 -3.760925E+02 -1.437625E+05 -3.435744E-09  1.069406E-09
       144  14 -2.564391E+05 -6.996637E+04 -2.181947E+02 -1.413594E+05 -5.125780E-09  7.634987E-09
       144  15 -2.543485E+05 -7.206881E+04 -1.431371E+02 -1.437628E+05  9.917839E-09  2.033536E-08
       144  16 -2.085593E+05 -5.584827E+04  6.015961E+03 -1.308902E+05 -7.883544E-09 -3.498080E-09
       144  17 -2.441069E+05 -6.560460E+04  1.526310E+03 -1.379063E+05 -3.029580E-08 -1.514885E-08
       144  18 -2.754690E+05 -7.956303E+04 -3.028240E+03 -1.497286E+05 -3.254589E-08 -1.817684E-08
       144  19 -3.001365E+05 -8.829221E+04 -6.767875E+03 -1.566336E+05 -4.503187E+03 -5.972081E+03
       144  20 -2.687709E+05 -7.432806E+04 -1.962595E+03 -1.448124E+05 -5.669961E+03 -3.263525E+03
       144  21 -2.332275E+05 -6.457453E+04  2.742051E+03 -1.377969E+05 -6.840510E+03 -5.448104E+02
       144  22 -2.543494E+05 -7.207048E+04 -3.760621E+02 -1.437625E+05  1.680453E+03 -3.651724E+03
       144  23 -2.564391E+05 -6.996636E+04 -2.181925E+02 -1.413594E+05  5.367039E+02 -9.345419E+02
       144  24 -2.543485E+05 -7.206880E+04 -1.431304E+02 -1.437628E+05 -6.108102E+02  1.792795E+03
       144  25 -2.085592E+05 -5.584825E+04  6.016081E+03 -1.308902E+05  7.864655E+03 -1.331157E+03
       144  26 -2.441069E+05 -6.560458E+04  1.526399E+03 -1.379063E+05  6.743541E+03  1.394505E+03
       144  27 -2.754689E+05 -7.956300E+04 -3.028149E+03 -1.497285E+05  5.618670E+03  4.130318E+03
       145   1 -2.124240E+05 -5.717247E+04  5.813988E+03 -1.319503E+05  7.468922E+03 -1.061702E+03
       145   2 -1.810706E+05 -4.321780E+04  1.044621E+04 -1.201247E+05  8.540686E+03 -3.815662E+03
       145   3 -1.455230E+05 -3.345811E+04  1.505420E+04 -1.131036E+05  9.607669E+03 -6.556606E+03
       145   4 -2.543478E+05 -7.206994E+04 -1.266049E+02 -1.437618E+05  1.239248E+03 -3.399333E+03
       145   5 -2.564428E+05 -6.997352E+04 -1.253734E+02 -1.413582E+05  2.340023E+03 -6.142566E+03
       145   6 -2.543502E+05 -7.207783E+04 -1.713685E+02 -1.437594E+05  3.436024E+03 -8.872804E+03
       145   7 -2.962691E+05 -8.696698E+04 -6.066887E+03 -1.555724E+05 -4.989904E+03 -5.736769E+03
       145   8 -3.318086E+05 -9.672856E+04 -1.069681E+04 -1.625892E+05 -3.859848E+03 -8.469174E+03
       145   9 -3.631658E+05 -1.106967E+05 -1.539721E+04 -1.744105E+05 -2.734562E+03 -1.118860E+04
       145  10 -2.124240E+05 -5.717249E+04  5.813881E+03 -1.319503E+05 -3.639270E-08 -1.757653E-08
       145  11 -1.810707E+05 -4.321784E+04  1.044604E+04 -1.201247E+05 -3.278689E-08 -1.494468E-08
       145  12 -1.455231E+05 -3.345818E+04  1.505394E+04 -1.131035E+05 -3.930637E-09 -5.644779E-09
       145  13 -2.543478E+05 -7.206996E+04 -1.266295E+02 -1.437618E+05  1.068477E-08  1.949933E-08
       145  14 -2.564428E+05 -6.997356E+04 -1.254546E+02 -1.413582E+05  1.085484E-09  6.988289E-09
       145  15 -2.543503E+05 -7.207792E+04 -1.715386E+02 -1.437594E+05  9.051119E-09  5.045951E-10
       145  16 -2.962691E+05 -8.696702E+04 -6.066996E+03 -1.555724E+05  7.042060E-08  2.127149E-08
       145  17 -3.318086E+05 -9.672865E+04 -1.069698E+04 -1.625892E+05  3.691259E-08  1.078200E-08
       145  18 -3.631659E+05 -1.106969E+05 -1.539746E+04 -1.744106E+05  1.368415E-08  2.876453E-09
       145  19 -2.124240E+05 -5.717247E+04  5.813988E+03 -1.319503E+05 -7.468922E+03  1.061702E+03
       145  20 -1.810706E+05 -4.321780E+04  1.044621E+04 -1.201247E+05 -8.540686E+03  3.815662E+03
       145  21 -1.455230E+05 -3.345811E+04  1.505420E+04 -1.131036E+05 -9.607669E+03  6.556606E+03
       145  22 -2.543478E+05 -7.206994E+04 -1.266049E+02 -1.437618E+05 -1.239248E+03  3.399333E+03
       145  23 -2.564428E+05 -6.997352E+04 -1.253734E+02 -1.413582E+05 -2.340023E+03  6.142566E+03
       145  24 -2.543502E+05 -7.207783E+04 -1.713685E+02 -1.437594E+05 -3.436024E+03  8.872804E+03
       145  25 -2.962691E+05 -8.696698E+04 -6.066887E+03 -1.555724E+05  4.989904E+03  5.736769E+03
       145  26 -3.318086E+05 -9.672856E+04 -1.069681E+04 -1.625892E+05  3.859848E+03  8.469174E+03
       145  27 -3.631658E+05 -1.106967E+05 -1.539721E+04 -1.744105E+05  2.734562E+03  1.118860E+04
       146   1 -1.247223E+05 -2.605272E+04  1.808700E+04 -1.072593E+05  1.023949E+04 -8.148288E+03
       146   2 -9.339699E+04 -1.208619E+04  2.268860E+04 -9.542627E+04  1.116471E+04 -1.086621E+04
       146   3 -5.786906E+04 -2.306235E+03  2.735265E+04 -8.838235E+04  1.204544E+04 -1.346498E+04
       146   4 -2.543590E+05 -7.207894E+04 -2.143689E+02 -1.437594E+05  4.069122E+03 -1.046417E+04
       146   5 -2.564413E+05 -6.999856E+04 -3.680254E+02 -1.413508E+05  5.261828E+03 -1.308206E+04
       146   6 -2.543750E+05 -7.215797E+04 -6.712201E+02 -1.437319E+05  6.410038E+03 -1.558077E+04
       146   7 -3.839772E+05 -1.181032E+05 -1.851564E+04 -1.802523E+05 -2.099893E+03 -1.277955E+04
       146   8 -4.194552E+05 -1.279075E+05 -2.342431E+04 -1.872636E+05 -6.393847E+02 -1.529729E+04
       146   9 -4.508359E+05 -1.420044E+05 -2.869444E+04 -1.990640E+05  7.765877E+02 -1.769583E+04
       146  10 -1.247224E+05 -2.605282E+04  1.808668E+04 -1.072592E+05 -5.239859E-08 -2.522885E-08
       146  11 -9.339716E+04 -1.208635E+04  2.268814E+04 -9.542618E+04  8.272156E-10 -5.694633E-09
       146  12 -5.786926E+04 -2.306468E+03  2.735204E+04 -8.838222E+04  6.251680E-08  1.924129E-08
       146  13 -2.543591E+05 -7.207906E+04 -2.146057E+02 -1.437594E+05  9.444570E-09 -1.784956E-09
       146  14 -2.564413E+05 -6.999875E+04 -3.683989E+02 -1.413507E+05 -5.669990E-11 -4.809661E-09
       146  15 -2.543751E+05 -7.215824E+04 -6.717535E+02 -1.437318E+05 -1.562333E-09 -3.075430E-09
       146  16 -3.839773E+05 -1.181034E+05 -1.851595E+04 -1.802523E+05  6.612964E-08  2.150878E-08
       146  17 -4.194553E+05 -1.279078E+05 -2.342475E+04 -1.872636E+05 -4.823275E-09 -4.129672E-09
       146  18 -4.508360E+05 -1.420047E+05 -2.869503E+04 -1.990640E+05 -6.355525E-08 -2.461714E-08
       146  19 -1.247223E+05 -2.605272E+04  1.808700E+04 -1.072593E+05 -1.023949E+04  8.148288E+03
       146  20 -9.339699E+04 -1.208619E+04  2.268860E+04 -9.542627E+04 -1.116471E+04  1.086621E+04
       146  21 -5.786906E+04 -2.306235E+03  2.735265E+04 -8.838235E+04 -1.204544E+04  1.346498E+04
       146  22 -2.543590E+05 -7.207894E+04 -2.143689E+02 -1.437594E+05 -4.069122E+03  1.046417E+04
       146  23 -2.564413E+05 -6.999856E+04 -3.680254E+02 -1.413508E+05 -5.261828E+03  1.308206E+04
       146  24 -2.543750E+05 -7.215797E+04 -6.712201E+02 -1.437319E+05 -6.410038E+03  1.558077E+04
       146  25 -3.839772E+05 -1.181032E+05 -1.851564E+04 -1.802523E+05  2.099893E+03  1.277955E+04
       146  26 -4.194552E+05 -1.279075E+05 -2.342431E+04 -1.872636E+05  6.393847E+02  1.529729E+04
       146  27 -4.508359E+05 -1.420044E+05 -2.869444E+04 -1.990640E+05 -7.765877E+02  1.769583E+04
       147   1 -3.703869E+04  5.104001E+03  3.039594E+04 -8.255941E+04  1.271853E+04 -1.491892E+04
       147   2 -6.028461E+03  1.919803E+04  3.547002E+04 -7.046482E+04  1.206904E+04 -1.745064E+04
       147   3  2.923882E+04  2.901734E+04  4.154063E+04 -6.298085E+04  1.104494E+04 -1.898423E+04
       147   4 -2.544379E+05 -7.217777E+04 -8.962951E+02 -1.437250E+05  7.090826E+03 -1.703208E+04
       147   5 -2.564221E+05 -7.035173E+04 -1.661782E+03 -1.412203E+05  8.683997E+03 -1.872240E+04
       147   6 -2.545952E+05 -7.324546E+04 -3.208046E+03 -1.433272E+05  9.902585E+03 -1.941429E+04
       147   7 -4.717885E+05 -1.494555E+05 -3.218955E+04 -2.048711E+05  1.465123E+03 -1.914449E+04
       147   8 -5.067493E+05 -1.598953E+05 -3.879468E+04 -2.119492E+05  5.300368E+03 -1.999363E+04
       147   9 -5.383426E+05 -1.754996E+05 -4.795818E+04 -2.236389E+05  8.760782E+03 -1.984415E+04
       147  10 -3.703892E+04  5.103719E+03  3.039522E+04 -8.255925E+04  4.095832E-09  1.021640E-11
       147  11 -6.028699E+03  1.919766E+04  3.546917E+04 -7.046465E+04  3.385158E-08  1.298160E-08
       147  12  2.923859E+04  2.901692E+04  4.153972E+04 -6.298068E+04  7.052874E-08  2.165683E-08
       147  13 -2.544381E+05 -7.217809E+04 -8.969347E+02 -1.437249E+05  5.255965E-10  6.001172E-10
       147  14 -2.564222E+05 -7.035213E+04 -1.662583E+03 -1.412201E+05 -5.034323E-09  8.062632E-09
       147  15 -2.545954E+05 -7.324589E+04 -3.208939E+03 -1.433270E+05  3.772374E-09  1.619840E-08
       147  16 -4.717886E+05 -1.494559E+05 -3.219025E+04 -2.048711E+05 -5.008688E-09 -2.600659E-09
       147  17 -5.067494E+05 -1.598957E+05 -3.879549E+04 -2.119492E+05 -3.384287E-08 -1.503204E-08
       147  18 -5.383428E+05 -1.755001E+05 -4.795907E+04 -2.236388E+05 -5.094329E-08 -2.289820E-08
       147  19 -3.703869E+04  5.104001E+03  3.039594E+04 -8.255941E+04 -1.271853E+04  1.491892E+04
       147  20 -6.028461E+03  1.919803E+04  3.547002E+04 -7.046482E+04 -1.206904E+04  1.745064E+04
       147  21  2.923882E+04  2.901734E+04  4.154063E+04 -6.298085E+04 -1.104494E+04  1.898423E+04
       147  22 -2.544379E+05 -7.217777E+04 -8.962951E+02 -1.437250E+05 -7.090826E+03  1.703208E+04
       147  23 -2.564221E+05 -7.035173E+04 -1.661782E+03 -1.412203E+05 -8.683997E+03  1.872240E+04
       147  24 -2.545952E+05 -7.324546E+04 -3.208046E+03 -1.433272E+05 -9.902585E+03  1.941429E+04
       147  25 -4.717885E+05 -1.494555E+05 -3.218955E+04 -2.048711E+05 -1.465123E+03  1.914449E+04
       147  26 -5.067493E+05 -1.598953E+05 -3.879468E+04 -2.119492E+05 -5.300368E+03  1.999363E+04
       147  27 -5.383426E+05 -1.754996E+05 -4.795818E+04 -2.236389E+05 -8.760782E+03  1.984415E+04
       148   1  5.034930E+04  3.632350E+04  4.531511E+04 -5.730672E+04  1.170210E+04 -1.942277E+04
       148   2  7.761946E+04  5.167386E+04  5.625713E+04 -4.127643E+04 -4.195718E+03 -2.116539E+04
       148   3  1.092783E+05  6.047702E+04  7.711125E+04 -2.788505E+04 -2.324088E+04 -1.453538E+04
       148   4 -2.551709E+05 -7.357802E+04 -4.336032E+03 -1.432291E+05  1.061683E+04 -1.983154E+04
       148   5 -2.564144E+05 -7.487656E+04 -8.362431E+03 -1.394950E+05  1.353772E+04 -1.450688E+04
       148   6 -2.569994E+05 -8.645225E+04 -1.738845E+04 -1.384008E+05  1.331167E+04 -8.067453E+02
       148   7 -5.605903E+05 -1.834696E+05 -5.398896E+04 -2.291116E+05  9.532129E+03 -2.024009E+04
       148   8 -5.903247E+05 -2.014115E+05 -7.298366E+04 -2.376616E+05  3.126063E+04 -7.852697E+03
       148   9 -6.231295E+05 -2.333608E+05 -1.118899E+05 -2.488507E+05  4.983937E+04  1.291108E+04
       148  10  5.034905E+04  3.632306E+04  4.531414E+04 -5.730654E+04 -1.103458E-07 -4.803666E-08
       148  11  7.761932E+04  5.167337E+04  5.625625E+04 -4.127650E+04 -3.373065E-08 -1.827295E-08
       148  12  1.092777E+05  6.047664E+04  7.710984E+04 -2.788532E+04  5.727852E-08  2.069743E-08
       148  13 -2.551711E+05 -7.357847E+04 -4.336983E+03 -1.432289E+05  5.570787E-09  1.492652E-08
       148  14 -2.564147E+05 -7.487684E+04 -8.363170E+03 -1.394949E+05 -3.272501E-09  5.834972E-09
       148  15 -2.569996E+05 -8.645230E+04 -1.738878E+04 -1.384008E+05 -2.424530E-09  9.980058E-10
       148  16 -5.605905E+05 -1.834700E+05 -5.398990E+04 -2.291114E+05  1.272114E-07  4.521070E-08
       148  17 -5.903258E+05 -2.014118E+05 -7.298562E+04 -2.376614E+05  2.767596E-08  1.063101E-08
       148  18 -6.231322E+05 -2.333617E+05 -1.118949E+05 -2.488512E+05 -6.134185E-08 -2.307018E-08
       148  19  5.034930E+04  3.632350E+04  4.531511E+04 -5.730672E+04 -1.170210E+04  1.942277E+04
       148  20  7.761946E+04  5.167386E+04  5.625713E+04 -4.127643E+04  4.195718E+03  2.116539E+04
       148  21  1.092783E+05  6.047702E+04  7.711125E+04 -2.788505E+04  2.324088E+04  1.453538E+04
       148  22 -2.551709E+05 -7.357802E+04 -4.336032E+03 -1.432291E+05 -1.061683E+04  1.983154E+04
       148  23 -2.564144E+05 -7.487656E+04 -8.362431E+03 -1.394950E+05 -1.353772E+04  1.450688E+04
       148  24 -2.569994E+05 -8.645225E+04 -1.738845E+04 -1.384008E+05 -1.331167E+04  8.067453E+02
       148  25 -5.605903E+05 -1.834696E+05 -5.398896E+04 -2.291116E+05 -9.532129E+03  2.024009E+04
       148  26 -5.903247E+05 -2.014115E+05 -7.298366E+04 -2.376616E+05 -3.126063E+04  7.852697E+03
       148  27 -6.231295E+05 -2.333608E+05 -1.118899E+05 -2.488507E+05 -4.983937E+04 -1.291108E+04
       149   1 -7.403187E+04 -7.515899E+03 -2.842706E+04 -1.990426E+04 -6.261746E+04 -3.384755E+03
       149   2 -8.010395E+04  7.652731E+04  2.018116E+04 -4.639263E+03 -4.302273E+04 -1.031169E+04
       149   3 -1.118106E+05  6.808372E+04  3.292415E+04  2.177769E+04 -2.343398E+04 -1.015333E+04
       149   4 -3.695270E+05 -8.108945E+04 -1.009504E+05  1.000858E+04 -6.913399E+04 -3.392193E+03
       149   5 -3.563117E+05  8.312690E+03 -4.470866E+04  4.401240E+03 -4.512911E+04 -1.031430E+04
       149   6 -3.695103E+05  4.438183E+03 -2.740785E+04  9.946563E+03 -2.112946E+04 -1.015103E+04
       149   7 -6.649406E+05 -1.546661E+05 -1.734795E+05  3.990715E+04 -7.564743E+04 -3.400262E+03
       149   8 -6.324490E+05 -5.990705E+04 -1.096036E+05  1.343768E+04 -4.723456E+04 -1.031698E+04
       149   9 -6.271485E+05 -5.921155E+04 -8.774429E+04 -1.879636E+03 -1.882588E+04 -1.014882E+04
       149  10 -7.403608E+04 -7.516964E+03 -2.843445E+04 -1.990443E+04 -4.762988E-10  5.716787E-10
       149  11 -8.010597E+04  7.652670E+04  2.017748E+04 -4.639620E+03  3.214189E-09  2.637235E-10
       149  12 -1.118112E+05  6.808346E+04  3.292293E+04  2.177750E+04  2.019038E-09 -1.814123E-09
       149  13 -3.695322E+05 -8.109074E+04 -1.009594E+05  1.000839E+04 -1.197133E-09  1.112292E-09
       149  14 -3.563139E+05  8.312028E+03 -4.471269E+04  4.400865E+03  3.230770E-10  4.959083E-10
       149  15 -3.695108E+05  4.437953E+03 -2.740888E+04  9.946390E+03 -2.223372E-09  2.754779E-10
       149  16 -6.649468E+05 -1.546676E+05 -1.734903E+05  3.990694E+04 -8.893960E-11  3.934024E-10
       149  17 -6.324515E+05 -5.990777E+04 -1.096080E+05  1.343729E+04  5.405798E-11 -1.581408E-09
       149  18 -6.271489E+05 -5.921176E+04 -8.774515E+04 -1.879790E+03 -1.290653E-09 -1.583829E-09
       149  19 -7.403187E+04 -7.515899E+03 -2.842706E+04 -1.990426E+04  6.261746E+04  3.384755E+03
       149  20 -8.010395E+04  7.652731E+04  2.018116E+04 -4.639263E+03  4.302273E+04  1.031169E+04
       149  21 -1.118106E+05  6.808372E+04  3.292415E+04  2.177769E+04  2.343398E+04  1.015333E+04
       149  22 -3.695270E+05 -8.108945E+04 -1.009504E+05  1.000858E+04  6.913399E+04  3.392193E+03
       149  23 -3.563117E+05  8.312690E+03 -4.470866E+04  4.401240E+03  4.512911E+04  1.031430E+04
       149  24 -3.695103E+05  4.438183E+03 -2.740785E+04  9.946563E+03  2.112946E+04  1.015103E+04
       149  25 -6.649406E+05 -1.546661E+05 -1.734795E+05  3.990715E+04  7.564743E+04  3.400262E+03
       149  26 -6.324490E+05 -5.990705E+04 -1.096036E+05  1.343768E+04  4.723456E+04  1.031698E+04
       149  27 -6.271485E+05 -5.921155E+04 -8.774429E+04 -1.879636E+03  1.882588E+04  1.014882E+04
       150   1 -1.271214E+05  5.150064E+04  3.355680E+04  7.952427E+03 -1.712743E+04 -8.731597E+03
       150   2 -1.447960E+05  5.464564E+04  3.960574E+04  3.899295E+03 -1.150806E+04 -8.310653E+03
       150   3 -1.652520E+05  4.957627E+04  3.994326E+04  1.135140E+04 -5.889472E+03 -7.476992E+03
       150   4 -3.642695E+05 -7.088596E+03 -2.220499E+04  1.004946E+04 -1.699265E+04 -8.731751E+03
       150   5 -3.628539E+05  7.918812E+02 -1.155256E+04  4.292760E+03 -1.111782E+04 -8.310432E+03
       150   6 -3.642654E+05  4.119920E+02 -6.790546E+03  1.004157E+04 -5.243605E+03 -7.476362E+03
       150   7 -6.013657E+05 -6.568183E+04 -7.797064E+04  1.214568E+04 -1.685792E+04 -8.731904E+03
       150   8 -5.808679E+05 -5.306527E+04 -6.271412E+04  4.686074E+03 -1.072772E+04 -8.310211E+03
       150   9 -5.632422E+05 -4.875510E+04 -5.352706E+04  8.732154E+03 -4.597943E+03 -7.475734E+03
       150  10 -1.271217E+05  5.150048E+04  3.355611E+04  7.952306E+03  1.014370E-09 -3.289858E-09
       150  11 -1.447961E+05  5.464553E+04  3.960537E+04  3.899218E+03 -1.257958E-09  7.033184E-10
       150  12 -1.652521E+05  4.957620E+04  3.994309E+04  1.135136E+04 -8.587795E-10  2.189036E-09
       150  13 -3.642698E+05 -7.088756E+03 -2.220567E+04  1.004935E+04 -1.066460E-09 -2.251181E-09
       150  14 -3.628540E+05  7.917738E+02 -1.155292E+04  4.292686E+03  7.855773E-10 -1.158832E-09
       150  15 -3.642654E+05  4.119246E+02 -6.790702E+03  1.004154E+04 -1.416417E-09 -7.869622E-10
       150  16 -6.013661E+05 -6.568199E+04 -7.797131E+04  1.214557E+04  1.647200E-09 -5.044596E-10
       150  17 -5.808681E+05 -5.306537E+04 -6.271446E+04  4.686002E+03  6.385854E-11 -1.066315E-09
       150  18 -5.632422E+05 -4.875517E+04 -5.352720E+04  8.732127E+03  2.076879E-09  1.088058E-09
       150  19 -1.271214E+05  5.150064E+04  3.355680E+04  7.952427E+03  1.712743E+04  8.731597E+03
       150  20 -1.447960E+05  5.464564E+04  3.960574E+04  3.899295E+03  1.150806E+04  8.310653E+03
       150  21 -1.652520E+05  4.957627E+04  3.994326E+04  1.135140E+04  5.889472E+03  7.476992E+03
       150  22 -3.642695E+05 -7.088596E+03 -2.220499E+04  1.004946E+04  1.699265E+04  8.731751E+03
       150  23 -3.628539E+05  7.918812E+02 -1.155256E+04  4.292760E+03  1.111782E+04  8.310432E+03
       150  24 -3.642654E+05  4.119920E+02 -6.790546E+03  1.004157E+04  5.243605E+03  7.476362E+03
       150  25 -6.013657E+05 -6.568183E+04 -7.797064E+04  1.214568E+04  1.685792E+04  8.731904E+03
       150  26 -5.808679E+05 -5.306527E+04 -6.271412E+04  4.686074E+03  1.072772E+04  8.310211E+03
       150  27 -5.632422E+05 -4.875510E+04 -5.352706E+04  8.732154E+03  4.597943E+03  7.475734E+03
       151   1 -1.854589E+05  4.343448E+04  3.649279E+04  1.013901E+04 -4.703905E+03 -6.915328E+03
       151   2 -2.045337E+05  3.935871E+04  3.435389E+04  4.423086E+03 -3.251859E+03 -6.064495E+03
       151   3 -2.239919E+05  3.458416E+04  3.109036E+04  1.034361E+04 -1.800135E+03 -5.187133E+03
       151   4 -3.637213E+05 -5.829220E+02 -5.279222E+03  1.007368E+04 -4.181732E+03 -6.914803E+03
       151   5 -3.635269E+05  9.020818E+01 -2.944889E+03  4.254940E+03 -2.713523E+03 -6.063880E+03
       151   6 -3.637194E+05  6.163889E+01 -1.746650E+03  1.007284E+04 -1.245592E+03 -5.186424E+03
       151   7 -5.419543E+05 -4.460259E+04 -4.705341E+04  1.000836E+04 -3.659707E+03 -6.914278E+03
       151   8 -5.224969E+05 -3.918009E+04 -4.024540E+04  4.086829E+03 -2.175324E+03 -6.063266E+03
       151   9 -5.034289E+05 -3.446228E+04 -3.458500E+04  9.802113E+03 -6.911732E+02 -5.185716E+03
       151  10 -1.854589E+05  4.343443E+04  3.649266E+04  1.013898E+04  6.057879E-11  2.818641E-09
       151  11 -2.045337E+05  3.935867E+04  3.435380E+04  4.423070E+03  1.965316E-09  1.616084E-09
       151  12 -2.239919E+05  3.458413E+04  3.109030E+04  1.034361E+04  1.497640E-09 -1.974575E-10
       151  13 -3.637213E+05 -5.829780E+02 -5.279345E+03  1.007366E+04  1.338100E-09 -6.202942E-10
       151  14 -3.635269E+05  9.016672E+01 -2.944972E+03  4.254927E+03  7.184994E-10  1.549128E-09
       151  15 -3.637194E+05  6.160959E+01 -1.746704E+03  1.007283E+04  6.608078E-10  3.389627E-09
       151  16 -5.419543E+05 -4.460264E+04 -4.705352E+04  1.000834E+04  9.677318E-11  2.725289E-09
       151  17 -5.224969E+05 -3.918013E+04 -4.024548E+04  4.086818E+03 -2.076354E-09  2.942949E-09
       151  18 -5.034289E+05 -3.446230E+04 -3.458505E+04  9.802110E+03  1.631316E-09  1.604263E-09
       151  19 -1.854589E+05  4.343448E+04  3.649279E+04  1.013901E+04  4.703905E+03  6.915328E+03
       151  20 -2.045337E+05  3.935871E+04  3.435389E+04  4.423086E+03  3.251859E+03  6.064495E+03
       151  21 -2.239919E+05  3.458416E+04  3.109036E+04  1.034361E+04  1.800135E+03  5.187133E+03
       151  22 -3.637213E+05 -5.829220E+02 -5.279222E+03  1.007368E+04  4.181732E+03  6.914803E+03
       151  23 -3.635269E+05  9.020818E+01 -2.944889E+03  4.254940E+03  2.713523E+03  6.063880E+03
       151  24 -3.637194E+05  6.163889E+01 -1.746650E+03  1.007284E+04  1.245592E+03  5.186424E+03
       151  25 -5.419543E+05 -4.460259E+04 -4.705341E+04  1.000836E+04  3.659707E+03  6.914278E+03
       151  26 -5.224969E+05 -3.918009E+04 -4.024540E+04  4.086829E+03  2.175324E+03  6.063266E+03
       151  27 -5.034289E+05 -3.446228E+04 -3.458500E+04  9.802113E+03  6.911732E+02  5.185716E+03
       152   1 -2.448634E+05  2.930909E+04  2.643866E+04  1.023462E+04 -1.514785E+03 -4.671396E+03
       152   2 -2.642211E+05  2.457005E+04  2.243362E+04  4.354291E+03 -1.081245E+03 -3.790231E+03
       152   3 -2.836796E+05  1.979741E+04  1.812989E+04  1.019565E+04 -6.478851E+02 -2.905922E+03
       152   4 -3.636546E+05 -1.953726E+01 -1.372278E+03  1.009207E+04 -9.663520E+02 -4.670658E+03
       152   5 -3.636033E+05  2.350873E+01 -8.814407E+02  4.231132E+03 -5.309350E+02 -3.789447E+03
       152   6 -3.636536E+05  3.256418E+01 -6.906882E+02  1.009199E+04 -9.568574E+01 -2.905090E+03
       152   7 -4.824329E+05 -2.934917E+04 -2.918418E+04  9.949544E+03 -4.180230E+02 -4.669921E+03
       152   8 -4.629764E+05 -2.452374E+04 -2.419717E+04  4.107990E+03  1.928704E+01 -3.788663E+03
       152   9 -4.436218E+05 -1.973274E+04 -1.951171E+04  9.988352E+03  4.564429E+02 -2.904258E+03
       152  10 -2.448634E+05  2.930907E+04  2.643862E+04  1.023461E+04 -5.100271E-09  4.858143E-11
       152  11 -2.642211E+05  2.457004E+04  2.243359E+04  4.354288E+03  2.390588E-09  4.475361E-09
       152  12 -2.836796E+05  1.979740E+04  1.812987E+04  1.019564E+04  7.149254E-09  3.611104E-09
       152  13 -3.636546E+05 -1.956094E+01 -1.372320E+03  1.009207E+04 -1.077907E-09  4.533052E-10
       152  14 -3.636033E+05  2.349324E+01 -8.814682E+02  4.231131E+03 -1.213879E-09  2.122813E-09
       152  15 -3.636536E+05  3.255511E+01 -6.907041E+02  1.009199E+04  1.910902E-09  4.395051E-10
       152  16 -4.824329E+05 -2.934919E+04 -2.918422E+04  9.949542E+03  3.668564E-09 -7.282029E-11
       152  17 -4.629764E+05 -2.452375E+04 -2.419720E+04  4.107990E+03 -2.593692E-09 -2.865693E-09
       152  18 -4.436218E+05 -1.973275E+04 -1.951172E+04  9.988353E+03 -3.505727E-09 -7.569749E-10
       152  19 -2.448634E+05  2.930909E+04  2.643866E+04  1.023462E+04  1.514785E+03  4.671396E+03
       152  20 -2.642211E+05  2.457005E+04  2.243362E+04  4.354291E+03  1.081245E+03  3.790231E+03
       152  21 -2.836796E+05  1.979741E+04  1.812989E+04  1.019565E+04  6.478851E+02  2.905922E+03
       152  22 -3.636546E+05 -1.953726E+01 -1.372278E+03  1.009207E+04  9.663520E+02  4.670658E+03
       152  23 -3.636033E+05  2.350873E+01 -8.814407E+02  4.231132E+03  5.309350E+02  3.789447E+03
       152  24 -3.636536E+05  3.256418E+01 -6.906882E+02  1.009199E+04  9.568574E+01  2.905090E+03
       152  25 -4.824329E+05 -2.934917E+04 -2.918418E+04  9.949544E+03  4.180230E+02  4.669921E+03
       152  26 -4.629764E+05 -2.452374E+04 -2.419717E+04  4.107990E+03 -1.928704E+01  3.788663E+03
       152  27 -4.436218E+05 -1.973274E+04 -1.951171E+04  9.988352E+03 -4.564429E+02  2.904258E+03
       153   1 -3.047335E+05  1.457287E+04  1.308689E+04  1.016512E+04 -5.254465E+02 -2.390217E+03
       153   2 -3.241652E+05  9.765591E+03  8.443402E+03  4.255913E+03 -1.262537E+02 -1.503658E+03
       153   3 -3.437004E+05  4.933517E+03  3.523699E+03  1.011630E+04  2.728700E+02 -6.170405E+02
       153   4 -3.636533E+05  3.151634E+01 -6.778334E+02  1.010263E+04  2.714671E+01 -2.389364E+03
       153   5 -3.636014E+05  2.489416E+01 -8.086292E+02  4.217840E+03  4.263475E+02 -1.502787E+03
       153   6 -3.636530E+05 -6.424742E+00 -1.215558E+03  1.010269E+04  8.254916E+02 -6.161516E+02
       153   7 -4.225698E+05 -1.451009E+04 -1.444279E+04  1.004014E+04  5.796878E+02 -2.388510E+03
       153   8 -4.030361E+05 -9.715913E+03 -1.006077E+04  4.179770E+03  9.789139E+02 -1.501917E+03
       153   9 -3.836052E+05 -4.946395E+03 -5.954843E+03  1.008908E+04  1.378096E+03 -6.152627E+02
       153  10 -3.047335E+05  1.457287E+04  1.308688E+04  1.016512E+04  4.356235E-09  1.013132E-09
       153  11 -3.241652E+05  9.765589E+03  8.443398E+03  4.255913E+03  1.921689E-09 -2.865833E-10
       153  12 -3.437004E+05  4.933517E+03  3.523699E+03  1.011630E+04  1.056146E-09 -2.387784E-09
       153  13 -3.636533E+05  3.151021E+01 -6.778441E+02  1.010263E+04  2.958838E-09  4.720307E-09
       153  14 -3.636014E+05  2.489169E+01 -8.086337E+02  4.217841E+03 -1.092678E-09  5.211388E-10
       153  15 -3.636530E+05 -6.425333E+00 -1.215560E+03  1.010269E+04 -3.768942E-10 -2.594908E-09
       153  16 -4.225698E+05 -1.451009E+04 -1.444280E+04  1.004014E+04 -2.629969E-09  2.339033E-09
       153  17 -4.030361E+05 -9.715916E+03 -1.006077E+04  4.179771E+03 -3.808571E-09 -5.438202E-10
       153  18 -3.836052E+05 -4.946396E+03 -5.954847E+03  1.008909E+04 -1.385327E-10 -2.257678E-09
       153  19 -3.047335E+05  1.457287E+04  1.308689E+04  1.016512E+04  5.254465E+02  2.390217E+03
       153  20 -3.241652E+05  9.765591E+03  8.443402E+03  4.255913E+03  1.262537E+02  1.503658E+03
       153  21 -3.437004E+05  4.933517E+03  3.523699E+03  1.011630E+04 -2.728700E+02  6.170405E+02
       153  22 -3.636533E+05  3.151634E+01 -6.778334E+02  1.010263E+04 -2.714671E+01  2.389364E+03
       153  23 -3.636014E+05  2.489416E+01 -8.086292E+02  4.217840E+03 -4.263475E+02  1.502787E+03
       153  24 -3.636530E+05 -6.424742E+00 -1.215558E+03  1.010269E+04 -8.254916E+02  6.161516E+02
       153  25 -4.225698E+05 -1.451009E+04 -1.444279E+04  1.004014E+04 -5.796878E+02  2.388510E+03
       153  26 -4.030361E+05 -9.715913E+03 -1.006077E+04  4.179770E+03 -9.789139E+02  1.501917E+03
       153  27 -3.836052E+05 -4.946395E+03 -5.954843E+03  1.008908E+04 -1.378096E+03  6.152627E+02
       154   1 -3.648579E+05 -2.320974E+02 -1.862243E+03  9.997623E+03  5.149347E+02 -9.853530E+01
       154   2 -3.841696E+05 -5.011557E+03 -7.406426E+03  4.184081E+03  1.800935E+03  7.893266E+02
       154   3 -4.038455E+05 -1.039254E+04 -1.394889E+04  1.014621E+04  3.086947E+03  1.663737E+03
       154   4 -3.637105E+05  6.335838E+01 -1.534832E+03  1.010371E+04  1.071629E+03 -9.763695E+01
       154   5 -3.635293E+05  8.686527E+01 -2.563652E+03  4.216330E+03  2.349272E+03  7.902015E+02
       154   6 -3.637111E+05 -4.896481E+02 -4.584876E+03  1.010460E+04  3.626967E+03  1.664589E+03
       154   7 -3.625632E+05  3.588143E+02 -1.207420E+03  1.020980E+04  1.628324E+03 -9.673841E+01
       154   8 -3.428885E+05  5.185258E+03  2.279094E+03  4.248579E+03  2.897627E+03  7.910765E+02
       154   9 -3.235751E+05  9.413129E+03  4.779026E+03  1.006298E+04  4.167021E+03  1.665442E+03
       154  10 -3.648579E+05 -2.320975E+02 -1.862244E+03  9.997623E+03  5.297367E-10  1.459097E-10
       154  11 -3.841696E+05 -5.011559E+03 -7.406433E+03  4.184080E+03  5.953910E-09 -2.536126E-10
       154  12 -4.038456E+05 -1.039254E+04 -1.394891E+04  1.014621E+04  5.103713E-09  3.186369E-09
       154  13 -3.637105E+05  6.335806E+01 -1.534834E+03  1.010371E+04 -3.212046E-09 -1.534245E-09
       154  14 -3.635293E+05  8.686312E+01 -2.563664E+03  4.216328E+03 -4.196245E-09  1.889374E-09
       154  15 -3.637111E+05 -4.896546E+02 -4.584906E+03  1.010459E+04 -2.679799E-09  8.109479E-09
       154  16 -3.625632E+05  3.588135E+02 -1.207425E+03  1.020980E+04 -1.052319E-09 -3.716813E-10
       154  17 -3.428886E+05  5.185255E+03  2.279077E+03  4.248577E+03 -4.960285E-09 -5.422411E-09
       154  18 -3.235751E+05  9.413121E+03  4.778988E+03  1.006297E+04 -5.085913E-09  1.585201E-09
       154  19 -3.648579E+05 -2.320974E+02 -1.862243E+03  9.997623E+03 -5.149347E+02  9.853530E+01
       154  20 -3.841696E+05 -5.011557E+03 -7.406426E+03  4.184081E+03 -1.800935E+03 -7.893266E+02
       154  21 -4.038455E+05 -1.039254E+04 -1.394889E+04  1.014621E+04 -3.086947E+03 -1.663737E+03
       154  22 -3.637105E+05  6.335838E+01 -1.534832E+03  1.010371E+04 -1.071629E+03  9.763695E+01
       154  23 -3.635293E+05  8.686527E+01 -2.563652E+03  4.216330E+03 -2.349272E+03 -7.902015E+02
       154  24 -3.637111E+05 -4.896481E+02 -4.584876E+03  1.010460E+04 -3.626967E+03 -1.664589E+03
       154  25 -3.625632E+05  3.588143E+02 -1.207420E+03  1.020980E+04 -1.628324E+03  9.673841E+01
       154  26 -3.428885E+05  5.185258E+03  2.279094E+03  4.248579E+03 -2.897627E+03 -7.910765E+02
       154  27 -3.235751E+05  9.413129E+03  4.779026E+03  1.006298E+04 -4.167021E+03 -1.665442E+03
       155   1 -4.253930E+05 -1.476103E+04 -2.030909E+04  9.043003E+03  3.939426E+03  2.210250E+03
       155   2 -4.435787E+05 -1.921851E+04 -2.894242E+04  4.631553E+03  9.175994E+03  3.080495E+03
       155   3 -4.642814E+05 -3.085495E+04 -4.279031E+04  1.196232E+04  1.441276E+04  3.721808E+03
       155   4 -3.641846E+05  3.727511E+02 -5.894767E+03  1.009361E+04  4.548794E+03  2.211204E+03
       155   5 -3.629397E+05  6.994868E+02 -1.001950E+04  4.227442E+03  9.643166E+03  3.081178E+03
       155   6 -3.641873E+05 -6.127515E+03 -1.925950E+04  1.010346E+04  1.473790E+04  3.722210E+03
       155   7 -3.029728E+05  1.550627E+04  8.519299E+03  1.114432E+04  5.158222E+03  2.212160E+03
       155   8 -2.822948E+05  2.061702E+04  8.902971E+03  3.823276E+03  1.011040E+04  3.081860E+03
       155   9 -2.640839E+05  1.859922E+04  4.270633E+03  8.244301E+03  1.506309E+04  3.722609E+03
       155  10 -4.253930E+05 -1.476104E+04 -2.030913E+04  9.042996E+03 -4.057935E-09  6.989721E-09
       155  11 -4.435788E+05 -1.921855E+04 -2.894260E+04  4.631530E+03 -1.479446E-08  2.812039E-09
       155  12 -4.642816E+05 -3.085502E+04 -4.279073E+04  1.196228E+04 -1.777106E-08  9.451698E-10
       155  13 -3.641847E+05  3.727403E+02 -5.894815E+03  1.009360E+04 -2.123477E-09  8.748343E-09
       155  14 -3.629398E+05  6.994516E+02 -1.001969E+04  4.227418E+03 -2.565127E-09  2.410677E-09
       155  15 -3.641875E+05 -6.127589E+03 -1.925993E+04  1.010342E+04  1.529318E-09 -7.384527E-09
       155  16 -3.029728E+05  1.550626E+04  8.519240E+03  1.114431E+04  5.288244E-09  2.168900E-09
       155  17 -2.822949E+05  2.061699E+04  8.902761E+03  3.823251E+03  1.353103E-08 -3.278964E-09
       155  18 -2.640842E+05  1.859915E+04  4.270180E+03  8.244256E+03  1.460054E-08 -7.941929E-09
       155  19 -4.253930E+05 -1.476103E+04 -2.030909E+04  9.043003E+03 -3.939426E+03 -2.210250E+03
       155  20 -4.435787E+05 -1.921851E+04 -2.894242E+04  4.631553E+03 -9.175994E+03 -3.080495E+03
       155  21 -4.642814E+05 -3.085495E+04 -4.279031E+04  1.196232E+04 -1.441276E+04 -3.721808E+03
       155  22 -3.641846E+05  3.727511E+02 -5.894767E+03  1.009361E+04 -4.548794E+03 -2.211204E+03
       155  23 -3.629397E+05  6.994868E+02 -1.001950E+04  4.227442E+03 -9.643166E+03 -3.081178E+03
       155  24 -3.641873E+05 -6.127515E+03 -1.925950E+04  1.010346E+04 -1.473790E+04 -3.722210E+03
       155  25 -3.029728E+05  1.550627E+04  8.519299E+03  1.114432E+04 -5.158222E+03 -2.212160E+03
       155  26 -2.822948E+05  2.061702E+04  8.902971E+03  3.823276E+03 -1.011040E+04 -3.081860E+03
       155  27 -2.640839E+05  1.859922E+04  4.270633E+03  8.244301E+03 -1.506309E+04 -3.722609E+03
       156   1 -4.898186E+05 -2.606908E+04 -5.214647E+04 -1.976364E+02  1.679183E+04  4.748020E+03
       156   2 -4.975345E+05 -2.740814E+04 -7.173637E+04  1.211519E+04  4.006138E+04  5.264578E+03
       156   3 -5.286445E+05 -1.100750E+05 -1.268213E+05  3.604039E+04  6.333587E+04  1.834823E+03
       156   4 -3.687344E+05  3.869883E+03 -2.377192E+04  1.003785E+04  1.832590E+04  4.750484E+03
       156   5 -3.572602E+05  7.226405E+03 -3.877166E+04  4.281869E+03  3.913785E+04  5.262693E+03
       156   6 -3.687483E+05 -7.030905E+04 -8.755340E+04  1.013877E+04  5.995554E+04  1.827628E+03
       156   7 -2.476365E+05  3.380820E+04  4.601686E+03  2.027534E+04  1.986026E+04  4.752999E+03
       156   8 -2.169678E+05  4.185978E+04 -5.808263E+03 -3.553240E+03  3.821411E+04  5.260831E+03
       156   9 -2.088274E+05 -3.054249E+04 -4.828701E+04 -1.576955E+04  5.657433E+04  1.820716E+03
       156  10 -4.898190E+05 -2.606918E+04 -5.214704E+04 -1.977006E+02  1.391528E-08  3.056503E-10
       156  11 -4.975362E+05 -2.740860E+04 -7.173944E+04  1.211502E+04  1.250912E-08  1.224335E-09
       156  12 -5.286488E+05 -1.100760E+05 -1.268288E+05  3.604030E+04  2.451484E-09  1.254124E-09
       156  13 -3.687348E+05  3.869769E+03 -2.377260E+04  1.003778E+04  7.957743E-10 -3.315624E-09
       156  14 -3.572619E+05  7.225964E+03 -3.877459E+04  4.281703E+03  2.571186E-09 -4.680327E-09
       156  15 -3.687522E+05 -7.031001E+04 -8.756017E+04  1.013868E+04 -6.889326E-10  2.900830E-09
       156  16 -2.476369E+05  3.380807E+04  4.600902E+03  2.027526E+04 -1.349161E-08 -1.338956E-09
       156  17 -2.169693E+05  4.185936E+04 -5.811061E+03 -3.553402E+03 -1.177959E-08  2.832724E-09
       156  18 -2.088308E+05 -3.054335E+04 -4.829303E+04 -1.576963E+04 -2.548659E-09 -9.179742E-12
       156  19 -4.898186E+05 -2.606908E+04 -5.214647E+04 -1.976364E+02 -1.679183E+04 -4.748020E+03
       156  20 -4.975345E+05 -2.740814E+04 -7.173637E+04  1.211519E+04 -4.006138E+04 -5.264578E+03
       156  21 -5.286445E+05 -1.100750E+05 -1.268213E+05  3.604039E+04 -6.333587E+04 -1.834823E+03
       156  22 -3.687344E+05  3.869883E+03 -2.377192E+04  1.003785E+04 -1.832590E+04 -4.750484E+03
       156  23 -3.572602E+05  7.226405E+03 -3.877166E+04  4.281869E+03 -3.913785E+04 -5.262693E+03
       156  24 -3.687483E+05 -7.030905E+04 -8.755340E+04  1.013877E+04 -5.995554E+04 -1.827628E+03
       156  25 -2.476365E+05  3.380820E+04  4.601686E+03  2.027534E+04 -1.986026E+04 -4.752999E+03
       156  26 -2.169678E+05  4.185978E+04 -5.808263E+03 -3.553240E+03 -3.821411E+04 -5.260831E+03
       156  27 -2.088274E+05 -3.054249E+04 -4.828701E+04 -1.576955E+04 -5.657433E+04 -1.820716E+03
       157   1  2.014776E+05  1.148837E+06  2.276239E+05 -9.126663E+04  3.696321E+03  9.464817E+04
       157   2  5.862416E+04  1.038793E+06  1.305827E+05 -3.575995E+04  1.037379E+04  5.425366E+04
       157   3  4.273609E+04  9.656806E+05  9.153804E+04 -3.512410E+04  7.277167E+03  1.385661E+04
       157   4  1.080467E+05  7.737675E+05  1.354803E+05 -5.062906E+04  3.707954E+03  8.741262E+04
       157   5 -1.121988E+04  7.558513E+05  6.414922E+04 -2.323830E+04  1.037614E+04  5.314252E+04
       157   6 -4.551610E+03  7.738190E+05  4.658995E+04 -5.071521E+04  7.271902E+03  1.886377E+04
       157   7  1.461158E+04  3.988299E+05  4.332754E+04 -1.001602E+04  3.718646E+03  8.018141E+04
       157   8 -8.106903E+04  4.729834E+05 -2.289673E+03 -1.072236E+04  1.037844E+04  5.203188E+04
       157   9 -5.184099E+04  5.819918E+05  1.639570E+03 -6.630147E+04  7.266386E+03  2.386940E+04
       157  10  2.014752E+05  1.148827E+06  2.276070E+05 -9.126691E+04  7.957638E-10  1.563921E-09
       157  11  5.862326E+04  1.038790E+06  1.305770E+05 -3.576040E+04 -2.977632E-09 -2.103576E-09
       157  12  4.273598E+04  9.656804E+05  9.153758E+04 -3.512418E+04  2.562164E-09 -5.025895E-09
       157  13  1.080446E+05  7.737593E+05  1.354660E+05 -5.062932E+04  7.109349E-10 -1.027224E-09
       157  14 -1.122075E+04  7.558482E+05  6.414372E+04 -2.323874E+04 -2.026639E-09 -6.694334E-10
       157  15 -4.551762E+03  7.738186E+05  4.658918E+04 -5.071532E+04 -3.223613E-09  2.063891E-09
       157  16  1.460984E+04  3.988230E+05  4.331544E+04 -1.001626E+04  1.874656E-09 -2.527296E-09
       157  17 -8.106987E+04  4.729804E+05 -2.294960E+03 -1.072280E+04  7.550468E-10  2.184393E-09
       157  18 -5.184120E+04  5.819912E+05  1.638401E+03 -6.630161E+04  2.069559E-09  5.289410E-09
       157  19  2.014776E+05  1.148837E+06  2.276239E+05 -9.126663E+04 -3.696321E+03 -9.464817E+04
       157  20  5.862416E+04  1.038793E+06  1.305827E+05 -3.575995E+04 -1.037379E+04 -5.425366E+04
       157  21  4.273609E+04  9.656806E+05  9.153804E+04 -3.512410E+04 -7.277167E+03 -1.385661E+04
       157  22  1.080467E+05  7.737675E+05  1.354803E+05 -5.062906E+04 -3.707954E+03 -8.741262E+04
       157  23 -1.121988E+04  7.558513E+05  6.414922E+04 -2.323830E+04 -1.037614E+04 -5.314252E+04
       157  24 -4.551610E+03  7.738190E+05  4.658995E+04 -5.071521E+04 -7.271902E+03 -1.886377E+04
       157  25  1.461158E+04  3.988299E+05  4.332754E+04 -1.001602E+04 -3.718646E+03 -8.018141E+04
       157  26 -8.106903E+04  4.729834E+05 -2.289673E+03 -1.072236E+04 -1.037844E+04 -5.203188E+04
       157  27 -5.184099E+04  5.819918E+05  1.639570E+03 -6.630147E+04 -7.266386E+03 -2.386940E+04
       158   1  3.170158E+04  8.610061E+05  6.479083E+04 -5.618452E+04  3.525820E+03  9.112643E+03
       158   2 -2.199139E+03  7.650317E+05  3.932820E+04 -2.279080E+04  8.088037E+01 -1.069190E+04
       158   3 -7.687447E+03  6.786095E+05  3.382161E+04 -4.438867E+04 -3.368697E+03 -3.049371E+04
       158   4  8.735627E+03  7.679647E+05  4.298582E+04 -5.071463E+04  3.523660E+03  1.127507E+04
       158   5 -2.652052E+03  7.631914E+05  3.889706E+04 -2.321638E+04  7.865494E+01 -8.525889E+03
       158   6  1.437251E+04  7.679615E+05  5.476259E+04 -5.070884E+04 -3.370640E+03 -2.832695E+04
       158   7 -1.423083E+04  6.749314E+05  2.118025E+04 -4.524556E+04  3.521538E+03  1.343717E+04
       158   8 -3.104963E+03  7.613511E+05  3.846593E+04 -2.364195E+04  7.642655E+01 -6.359879E+03
       158   9  3.643204E+04  8.573210E+05  7.570307E+04 -5.702993E+04 -3.372628E+03 -2.615987E+04
       158  10  3.170155E+04  8.610060E+05  6.479065E+04 -5.618455E+04  1.724986E-09  2.380891E-09
       158  11 -2.199169E+03  7.650316E+05  3.932799E+04 -2.279080E+04  5.017031E-10 -1.112153E-09
       158  12 -7.687709E+03  6.786085E+05  3.381985E+04 -4.438875E+04  1.060772E-09 -3.861482E-09
       158  13  8.735580E+03  7.679646E+05  4.298556E+04 -5.071466E+04 -2.451621E-09 -1.057398E-09
       158  14 -2.652072E+03  7.631913E+05  3.889692E+04 -2.321638E+04 -1.873168E-09 -1.032157E-09
       158  15  1.437228E+04  7.679607E+05  5.476107E+04 -5.070892E+04  9.591698E-10  2.058631E-09
       158  16 -1.423089E+04  6.749312E+05  2.117989E+04 -4.524559E+04  1.323226E-09 -3.832274E-09
       158  17 -3.104974E+03  7.613511E+05  3.846586E+04 -2.364195E+04 -1.208741E-09  1.624648E-09
       158  18  3.643185E+04  8.573202E+05  7.570176E+04 -5.703000E+04  8.901330E-10  4.122069E-09
       158  19  3.170158E+04  8.610061E+05  6.479083E+04 -5.618452E+04 -3.525820E+03 -9.112643E+03
       158  20 -2.199139E+03  7.650317E+05  3.932820E+04 -2.279080E+04 -8.088037E+01  1.069190E+04
       158  21 -7.687447E+03  6.786095E+05  3.382161E+04 -4.438867E+04  3.368697E+03  3.049371E+04
       158  22  8.735627E+03  7.679647E+05  4.298582E+04 -5.071463E+04 -3.523660E+03 -1.127507E+04
       158  23 -2.652052E+03  7.631914E+05  3.889706E+04 -2.321638E+04 -7.865494E+01  8.525889E+03
       158  24  1.437251E+04  7.679615E+05  5.476259E+04 -5.070884E+04  3.370640E+03  2.832695E+04
       158  25 -1.423083E+04  6.749314E+05  2.118025E+04 -4.524556E+04 -3.521538E+03 -1.343717E+04
       158  26 -3.104963E+03  7.613511E+05  3.846593E+04 -2.364195E+04 -7.642655E+01  6.359879E+03
       158  27  3.643204E+04  8.573210E+05  7.570307E+04 -5.702993E+04  3.372628E+03  2.615987E+04
       159   1 -5.470006E+04  5.900376E+05  1.943971E+04 -7.502327E+04 -7.099417E+03 -4.325491E+04
       159   2 -8.637234E+04  4.712140E+05  3.057434E+04 -3.812433E+03 -1.020993E+04 -8.870143E+04
       159   3  7.660451E+04  4.069318E+05  1.199440E+05  1.255964E+04 -3.642721E+03 -1.341317E+05
       159   4 -8.339211E+03  7.781912E+05  6.352666E+04 -5.072271E+04 -7.106025E+03 -3.827467E+04
       159   5 -1.742166E+04  7.503809E+05  9.614712E+04 -2.323799E+04 -1.020594E+04 -8.978814E+04
       159   6  1.691409E+05  7.781180E+05  2.111826E+05 -5.058573E+04 -3.623665E+03 -1.412924E+05
       159   7  3.802137E+04  9.663787E+05  1.076116E+05 -2.641474E+04 -7.112243E+03 -3.329293E+04
       159   8  5.152488E+04  1.029620E+06  1.617148E+05 -4.267231E+04 -1.020188E+04 -9.087533E+04
       159   9  2.616821E+05  1.149438E+06  3.024135E+05 -1.137689E+05 -3.603162E+03 -1.484573E+05
       159  10 -5.470062E+04  5.900356E+05  1.943610E+04 -7.502352E+04 -1.302731E-09 -3.216125E-09
       159  11 -8.637456E+04  4.712056E+05  3.055937E+04 -3.813162E+03  1.192554E-09 -2.171731E-09
       159  12  7.659967E+04  4.069125E+05  1.199102E+05  1.255924E+04 -9.446151E-10 -2.433418E-10
       159  13 -8.339658E+03  7.781896E+05  6.352381E+04 -5.072293E+04  7.095121E-10 -7.906883E-10
       159  14 -1.742393E+04  7.503722E+05  9.613179E+04 -2.323873E+04 -6.799806E-11 -9.779966E-10
       159  15  1.691356E+05  7.780966E+05  2.111451E+05 -5.058614E+04  9.778196E-10  1.617888E-09
       159  16  3.802102E+04  9.663775E+05  1.076094E+05 -2.641493E+04  1.383142E-09  1.568958E-09
       159  17  5.152256E+04  1.029611E+06  1.616991E+05 -4.267306E+04 -2.346347E-09  2.144400E-09
       159  18  2.616762E+05  1.149414E+06  3.023721E+05 -1.137693E+05 -1.856915E-09  5.201947E-10
       159  19 -5.470006E+04  5.900376E+05  1.943971E+04 -7.502327E+04  7.099417E+03  4.325491E+04
       159  20 -8.637234E+04  4.712140E+05  3.057434E+04 -3.812433E+03  1.020993E+04  8.870143E+04
       159  21  7.660451E+04  4.069318E+05  1.199440E+05  1.255964E+04  3.642721E+03  1.341317E+05
       159  22 -8.339211E+03  7.781912E+05  6.352666E+04 -5.072271E+04  7.106025E+03  3.827467E+04
       159  23 -1.742166E+04  7.503809E+05  9.614712E+04 -2.323799E+04  1.020594E+04  8.978814E+04
       159  24  1.691409E+05  7.781180E+05  2.111826E+05 -5.058573E+04  3.623665E+03  1.412924E+05
       159  25  3.802137E+04  9.663787E+05  1.076116E+05 -2.641474E+04  7.112243E+03  3.329293E+04
       159  26  5.152488E+04  1.029620E+06  1.617148E+05 -4.267231E+04  1.020188E+04  9.087533E+04
       159  27  2.616821E+05  1.149438E+06  3.024135E+05 -1.137689E+05  3.603162E+03  1.484573E+05
       160   1  2.565491E+04  3.523473E+04  1.272110E+04 -1.116110E+04 -6.187167E+04 -5.502249E+03
       160   2  1.216217E+03  1.184344E+05  5.755561E+04 -5.132411E+02 -4.396955E+04 -1.659601E+04
       160   3 -4.956644E+04  1.053156E+05  6.668409E+04  3.244638E+04 -2.608556E+04 -1.603471E+04
       160   4 -4.569616E+05 -8.490236E+04 -1.057391E+05  1.981722E+04 -7.240680E+04 -5.520348E+03
       160   5 -4.431348E+05  8.702136E+03 -4.683787E+04  8.593538E+03 -4.724918E+04 -1.660275E+04
       160   6 -4.569348E+05  4.688779E+03 -2.870312E+04  1.968329E+04 -2.210823E+04 -1.602765E+04
       160   7 -9.393636E+05 -2.050530E+05 -2.242154E+05  5.077133E+04 -8.293374E+04 -5.539507E+03
       160   8 -8.873038E+05 -1.010439E+05 -1.512448E+05  1.769369E+04 -5.052647E+04 -1.660959E+04
       160   9 -8.641498E+05 -9.594922E+04 -1.241015E+05  6.928567E+03 -1.813349E+04 -1.602075E+04
       160  10  2.565079E+04  3.523367E+04  1.271385E+04 -1.116137E+04 -1.594786E-09  1.365611E-09
       160  11  1.214067E+03  1.184336E+05  5.755146E+04 -5.138287E+02 -2.247187E-09  6.006691E-09
       160  12 -4.956724E+04  1.053151E+05  6.668232E+04  3.244604E+04  1.728773E-09  4.318357E-09
       160  13 -4.569672E+05 -8.490380E+04 -1.057490E+05  1.981689E+04 -7.449490E-10 -2.507418E-09
       160  14 -4.431373E+05  8.701240E+03 -4.684258E+04  8.592906E+03  3.656422E-10 -4.897884E-09
       160  15 -4.569354E+05  4.688372E+03 -2.870453E+04  1.968301E+04  1.561497E-10  1.675236E-09
       160  16 -9.393710E+05 -2.050549E+05 -2.242284E+05  5.077096E+04  2.842297E-09  9.280438E-10
       160  17 -8.873067E+05 -1.010449E+05 -1.512501E+05  1.769301E+04 -4.494029E-10  4.445021E-09
       160  18 -8.641502E+05 -9.594958E+04 -1.241026E+05  6.928333E+03 -1.128944E-09  8.580307E-10
       160  19  2.565491E+04  3.523473E+04  1.272110E+04 -1.116110E+04  6.187167E+04  5.502249E+03
       160  20  1.216217E+03  1.184344E+05  5.755561E+04 -5.132411E+02  4.396955E+04  1.659601E+04
       160  21 -4.956644E+04  1.053156E+05  6.668409E+04  3.244638E+04  2.608556E+04  1.603471E+04
       160  22 -4.569616E+05 -8.490236E+04 -1.057391E+05  1.981722E+04  7.240680E+04  5.520348E+03
       160  23 -4.431348E+05  8.702136E+03 -4.683787E+04  8.593538E+03  4.724918E+04  1.660275E+04
       160  24 -4.569348E+05  4.688779E+03 -2.870312E+04  1.968329E+04  2.210823E+04  1.602765E+04
       160  25 -9.393636E+05 -2.050530E+05 -2.242154E+05  5.077133E+04  8.293374E+04  5.539507E+03
       160  26 -8.873038E+05 -1.010439E+05 -1.512448E+05  1.769369E+04  5.052647E+04  1.660959E+04
       160  27 -8.641498E+05 -9.594922E+04 -1.241015E+05  6.928567E+03  1.813349E+04  1.602075E+04
       161   1 -8.499531E+04  8.315118E+04  6.290663E+04  1.801440E+04 -1.818881E+04 -1.351747E+04
       161   2 -1.215072E+05  8.196410E+04  6.496042E+04  8.317743E+03 -1.245786E+04 -1.252332E+04
       161   3 -1.609276E+05  7.227362E+04  6.114975E+04  2.152680E+04 -6.729567E+03 -1.084955E+04
       161   4 -4.514551E+05 -7.384136E+03 -2.325583E+04  1.986677E+04 -1.778043E+04 -1.351729E+04
       161   5 -4.499580E+05  8.437847E+02 -1.210023E+04  8.405538E+03 -1.162875E+04 -1.252205E+04
       161   6 -4.514463E+05  4.924380E+02 -7.104094E+03  1.985091E+04 -5.479396E+03 -1.084706E+04
       161   7 -8.177912E+05 -9.792901E+04 -1.094275E+05  2.171797E+04 -1.737229E+04 -1.351711E+04
       161   8 -7.783093E+05 -8.028421E+04 -8.916826E+04  8.493235E+03 -1.080008E+04 -1.252078E+04
       161   9 -7.418872E+05 -7.129475E+04 -7.536373E+04  1.817577E+04 -4.229806E+03 -1.084458E+04
       161  10 -8.499572E+04  8.315089E+04  6.290566E+04  1.801420E+04  1.300137E-09  2.289630E-10
       161  11 -1.215074E+05  8.196389E+04  6.495984E+04  8.317617E+03  3.013281E-10  2.887734E-09
       161  12 -1.609277E+05  7.227348E+04  6.114945E+04  2.152674E+04  2.651500E-09  5.729013E-09
       161  13 -4.514555E+05 -7.384417E+03 -2.325677E+04  1.986657E+04 -3.297747E-10  8.093914E-09
       161  14 -4.499581E+05  8.435800E+02 -1.210078E+04  8.405421E+03 -6.438083E-10 -1.152203E-08
       161  15 -4.514464E+05  4.923036E+02 -7.104372E+03  1.985086E+04  9.644086E-10  5.664071E-09
       161  16 -8.177915E+05 -9.792929E+04 -1.094284E+05  2.171778E+04  8.085737E-10 -3.587325E-09
       161  17 -7.783095E+05 -8.028441E+04 -8.916877E+04  8.493126E+03 -1.003069E-09 -6.998735E-10
       161  18 -7.418873E+05 -7.129488E+04 -7.536398E+04  1.817573E+04 -3.095781E-09  1.353213E-11
       161  19 -8.499531E+04  8.315118E+04  6.290663E+04  1.801440E+04  1.818881E+04  1.351747E+04
       161  20 -1.215072E+05  8.196410E+04  6.496042E+04  8.317743E+03  1.245786E+04  1.252332E+04
       161  21 -1.609276E+05  7.227362E+04  6.114975E+04  2.152680E+04  6.729567E+03  1.084955E+04
       161  22 -4.514551E+05 -7.384136E+03 -2.325583E+04  1.986677E+04  1.778043E+04  1.351729E+04
       161  23 -4.499580E+05  8.437847E+02 -1.210023E+04  8.405538E+03  1.162875E+04  1.252205E+04
       161  24 -4.514463E+05  4.924380E+02 -7.104094E+03  1.985091E+04  5.479396E+03  1.084706E+04
       161  25 -8.177912E+05 -9.792901E+04 -1.094275E+05  2.171797E+04  1.737229E+04  1.351711E+04
       161  26 -7.783093E+05 -8.028421E+04 -8.916826E+04  8.493235E+03  1.080008E+04  1.252078E+04
       161  27 -7.418872E+05 -7.129475E+04 -7.536373E+04  1.817577E+04  4.229806E+03  1.084458E+04
       162   1 -2.016651E+05  6.098449E+04  5.284932E+04  2.023640E+04 -5.417489E+03 -9.749677E+03
       162   2 -2.397500E+05  5.221266E+04  4.640673E+04  8.728413E+03 -3.915619E+03 -8.048185E+03
       162   3 -2.782992E+05  4.278900E+04  3.879968E+04  2.036629E+04 -2.414571E+03 -6.303107E+03
       162   4 -4.508818E+05 -5.511087E+02 -5.521404E+03  1.991008E+04 -4.370670E+03 -9.747503E+03
       162   5 -4.506447E+05  1.211768E+02 -3.071308E+03  8.336084E+03 -2.842190E+03 -8.045767E+03
       162   6 -4.508774E+05  1.370522E+02 -1.804313E+03  1.990844E+04 -1.314441E+03 -6.300433E+03
       162   7 -7.000413E+05 -6.209112E+04 -6.389637E+04  1.958386E+04 -3.324269E+03 -9.745329E+03
       162   8 -6.614983E+05 -5.197347E+04 -5.255238E+04  7.943864E+03 -1.769124E+03 -8.043349E+03
       162   9 -6.234282E+05 -4.251702E+04 -4.241035E+04  1.945070E+04 -2.146148E+02 -6.297760E+03
       162  10 -2.016651E+05  6.098438E+04  5.284909E+04  2.023635E+04  3.514981E-09 -4.018056E-09
       162  11 -2.397500E+05  5.221258E+04  4.640658E+04  8.728388E+03  1.317058E-09 -2.811906E-09
       162  12 -2.782992E+05  4.278896E+04  3.879959E+04  2.036628E+04  2.321131E-10 -3.867055E-09
       162  13 -4.508818E+05 -5.512159E+02 -5.521619E+03  1.991005E+04  1.049993E-09 -7.948198E-11
       162  14 -4.506447E+05  1.211051E+02 -3.071445E+03  8.336066E+03  1.679186E-09 -2.909812E-09
       162  15 -4.508774E+05  1.370091E+02 -1.804391E+03  1.990843E+04  1.135433E-09 -2.451601E-09
       162  16 -7.000413E+05 -6.209123E+04 -6.389657E+04  1.958384E+04 -3.951546E-09 -5.132105E-09
       162  17 -6.614983E+05 -5.197354E+04 -5.255251E+04  7.943853E+03 -1.789964E-10  3.546943E-09
       162  18 -6.234282E+05 -4.251706E+04 -4.241042E+04  1.945070E+04  1.765232E-09  7.785465E-09
       162  19 -2.016651E+05  6.098449E+04  5.284932E+04  2.023640E+04  5.417489E+03  9.749677E+03
       162  20 -2.397500E+05  5.221266E+04  4.640673E+04  8.728413E+03  3.915619E+03  8.048185E+03
       162  21 -2.782992E+05  4.278900E+04  3.879968E+04  2.036629E+04  2.414571E+03  6.303107E+03
       162  22 -4.508818E+05 -5.511087E+02 -5.521404E+03  1.991008E+04  4.370670E+03  9.747503E+03
       162  23 -4.506447E+05  1.211768E+02 -3.071308E+03  8.336084E+03  2.842190E+03  8.045767E+03
       162  24 -4.508774E+05  1.370522E+02 -1.804313E+03  1.990844E+04  1.314441E+03  6.300433E+03
       162  25 -7.000413E+05 -6.209112E+04 -6.389637E+04  1.958386E+04  3.324269E+03  9.745329E+03
       162  26 -6.614983E+05 -5.197347E+04 -5.255238E+04  7.943864E+03  1.769124E+03  8.043349E+03
       162  27 -6.234282E+05 -4.251702E+04 -4.241035E+04  1.945070E+04  2.146148E+02  6.297760E+03
       163   1 -3.198403E+05  3.238030E+04  2.920864E+04  2.020367E+04 -2.118921E+03 -5.279268E+03
       163   2 -3.582684E+05  2.289364E+04  2.082255E+04  8.496100E+03 -1.695703E+03 -3.529038E+03
       163   3 -3.968830E+05  1.345525E+04  1.214102E+04  2.005806E+04 -1.272811E+03 -1.774614E+03
       163   4 -4.508116E+05  5.120296E+01 -1.405778E+03  1.993645E+04 -1.029077E+03 -5.276531E+03
       163   5 -4.507165E+05  5.698867E+01 -8.680801E+02  8.301509E+03 -6.033547E+02 -3.526215E+03
       163   6 -4.508098E+05  1.106968E+02 -6.275423E+02  1.993630E+04 -1.779326E+02 -1.771700E+03
       163   7 -5.817671E+05 -3.227911E+04 -3.202136E+04  1.966929E+04  6.053838E+01 -5.273795E+03
       163   8 -5.431567E+05 -2.278027E+04 -2.255929E+04  8.106943E+03  4.888317E+02 -3.523393E+03
       163   9 -5.047339E+05 -1.323407E+04 -1.339630E+04  1.981455E+04  9.168515E+02 -1.768786E+03
       163  10 -3.198403E+05  3.238027E+04  2.920858E+04  2.020366E+04  2.167283E-09 -6.791432E-09
       163  11 -3.582684E+05  2.289362E+04  2.082252E+04  8.496095E+03  2.023454E-09  1.250511E-09
       163  12 -3.968830E+05  1.345525E+04  1.214101E+04  2.005806E+04 -1.120563E-09  1.515408E-09
       163  13 -4.508116E+05  5.117279E+01 -1.405832E+03  1.993645E+04  1.063443E-09  1.946121E-09
       163  14 -4.507165E+05  5.697522E+01 -8.681041E+02  8.301508E+03 -1.436416E-09 -6.945804E-09
       163  15 -4.508098E+05  1.106934E+02 -6.275482E+02  1.993630E+04 -1.125902E-09 -1.052916E-09
       163  16 -5.817671E+05 -3.227914E+04 -3.202141E+04  1.966929E+04 -9.383771E-10  3.680689E-09
       163  17 -5.431567E+05 -2.278028E+04 -2.255931E+04  8.106944E+03 -4.549481E-09  7.175548E-09
       163  18 -5.047339E+05 -1.323407E+04 -1.339631E+04  1.981455E+04 -1.573057E-09  6.433819E-10
       163  19 -3.198403E+05  3.238030E+04  2.920864E+04  2.020367E+04  2.118921E+03  5.279268E+03
       163  20 -3.582684E+05  2.289364E+04  2.082255E+04  8.496100E+03  1.695703E+03  3.529038E+03
       163  21 -3.968830E+05  1.345525E+04  1.214102E+04  2.005806E+04  1.272811E+03  1.774614E+03
       163  22 -4.508116E+05  5.120296E+01 -1.405778E+03  1.993645E+04  1.029077E+03  5.276531E+03
       163  23 -4.507165E+05  5.698867E+01 -8.680801E+02  8.301509E+03  6.033547E+02  3.526215E+03
       163  24 -4.508098E+05  1.106968E+02 -6.275423E+02  1.993630E+04  1.779326E+02  1.771700E+03
       163  25 -5.817671E+05 -3.227911E+04 -3.202136E+04  1.966929E+04 -6.053838E+01  5.273795E+03
       163  26 -5.431567E+05 -2.278027E+04 -2.255929E+04  8.106943E+03 -4.888317E+02  3.523393E+03
       163  27 -5.047339E+05 -1.323407E+04 -1.339630E+04  1.981455E+04 -9.168515E+02  1.768786E+03
       164   1 -4.386177E+05  3.095853E+03  2.160365E+03  1.996398E+04 -1.166446E+03 -7.522652E+02
       164   2 -4.770946E+05 -6.460288E+03 -6.817186E+03  8.237116E+03 -8.583291E+02  1.003310E+03
       164   3 -5.157442E+05 -1.594149E+04 -1.601042E+04  1.980745E+04 -5.501474E+02  2.756472E+03
       164   4 -4.508060E+05  1.080827E+02 -5.838900E+02  1.994241E+04 -7.132874E+01 -7.493311E+02
       164   5 -4.507190E+05  5.551916E+01 -6.283559E+02  8.293889E+03  2.352516E+02  1.006213E+03
       164   6 -4.508065E+05  7.812204E+01 -8.875051E+02  1.994249E+04  5.419162E+02  2.759351E+03
       164   7 -4.629941E+05 -2.879698E+03 -3.328150E+03  1.992084E+04  1.023767E+03 -7.463971E+02
       164   8 -4.243428E+05  6.571277E+03  5.560431E+03  8.350663E+03  1.328879E+03  1.009117E+03
       164   9 -3.858649E+05  1.609743E+04  1.423513E+04  2.007755E+04  1.634093E+03  2.762231E+03
       164  10 -4.386177E+05  3.095853E+03  2.160361E+03  1.996398E+04 -8.471344E-09  1.128746E-09
       164  11 -4.770946E+05 -6.460289E+03 -6.817189E+03  8.237117E+03 -3.916506E-09 -4.113793E-09
       164  12 -5.157442E+05 -1.594149E+04 -1.601044E+04  1.980745E+04 -3.240762E-09 -1.561806E-09
       164  13 -4.508060E+05  1.080821E+02 -5.838911E+02  1.994241E+04  7.282985E-10  4.672294E-09
       164  14 -4.507190E+05  5.551806E+01 -6.283579E+02  8.293888E+03 -7.011339E-10 -4.458666E-09
       164  15 -4.508065E+05  7.811378E+01 -8.875199E+02  1.994249E+04 -1.138681E-09 -6.267706E-09
       164  16 -4.629941E+05 -2.879699E+03 -3.328153E+03  1.992085E+04  6.532800E-09  2.350319E-09
       164  17 -4.243428E+05  6.571276E+03  5.560426E+03  8.350662E+03  1.844741E-09 -1.057471E-08
       164  18 -3.858649E+05  1.609742E+04  1.423511E+04  2.007754E+04  4.213475E-09 -6.471396E-09
       164  19 -4.386177E+05  3.095853E+03  2.160365E+03  1.996398E+04  1.166446E+03  7.522652E+02
       164  20 -4.770946E+05 -6.460288E+03 -6.817186E+03  8.237116E+03  8.583291E+02 -1.003310E+03
       164  21 -5.157442E+05 -1.594149E+04 -1.601042E+04  1.980745E+04  5.501474E+02 -2.756472E+03
       164  22 -4.508060E+05  1.080827E+02 -5.838900E+02  1.994241E+04  7.132874E+01  7.493311E+02
       164  23 -4.507190E+05  5.551916E+01 -6.283559E+02  8.293889E+03 -2.352516E+02 -1.006213E+03
       164  24 -4.508065E+05  7.812204E+01 -8.875051E+02  1.994249E+04 -5.419162E+02 -2.759351E+03
       164  25 -4.629941E+05 -2.879698E+03 -3.328150E+03  1.992084E+04 -1.023767E+03  7.463971E+02
       164  26 -4.243428E+05  6.571277E+03  5.560431E+03  8.350663E+03 -1.328879E+03 -1.009117E+03
       164  27 -3.858649E+05  1.609743E+04  1.423513E+04  2.007755E+04 -1.634093E+03 -2.762231E+03
       165   1 -5.574764E+05 -2.623927E+04 -2.623831E+04  1.964175E+04 -3.837232E+02  3.781927E+03
       165   2 -5.957535E+05 -3.574957E+04 -3.585665E+04  8.033011E+03  5.390848E+02  5.532051E+03
       165   3 -6.343652E+05 -4.559426E+04 -4.618916E+04  1.964851E+04  1.462393E+03  7.245097E+03
       165   4 -4.508432E+05  1.279434E+02 -1.101478E+03  1.992586E+04  7.177291E+02  3.784780E+03
       165   5 -4.506790E+05  9.198019E+01 -1.813260E+03  8.314413E+03  1.617586E+03  5.534714E+03
       165   6 -4.508462E+05 -2.740607E+02 -3.222893E+03  1.992687E+04  2.517999E+03  7.247578E+03
       165   7 -3.441995E+05  2.649434E+04  2.403458E+04  2.021001E+04  1.819370E+03  3.787634E+03
       165   8 -3.055851E+05  3.593203E+04  3.222870E+04  8.595870E+03  2.696338E+03  5.537377E+03
       165   9 -2.672961E+05  4.504374E+04  3.974108E+04  2.020530E+04  3.573915E+03  7.250060E+03
       165  10 -5.574764E+05 -2.623928E+04 -2.623834E+04  1.964175E+04 -1.049280E-08  3.298071E-10
       165  11 -5.957535E+05 -3.574960E+04 -3.585671E+04  8.033008E+03 -8.307372E-10 -4.911808E-09
       165  12 -6.343652E+05 -4.559431E+04 -4.618926E+04  1.964850E+04  7.170017E-09  2.067009E-09
       165  13 -4.508432E+05  1.279279E+02 -1.101505E+03  1.992586E+04 -1.084668E-09 -1.276325E-09
       165  14 -4.506790E+05  9.194660E+01 -1.813323E+03  8.314406E+03 -1.687578E-10 -1.018262E-09
       165  15 -4.508462E+05 -2.741188E+02 -3.223004E+03  1.992686E+04  1.001807E-10  4.370108E-09
       165  16 -3.441995E+05  2.649433E+04  2.403455E+04  2.021000E+04  1.059597E-08  2.582612E-09
       165  17 -3.055852E+05  3.593199E+04  3.222862E+04  8.595857E+03  1.169733E-09 -4.332886E-09
       165  18 -2.672961E+05  4.504368E+04  3.974096E+04  2.020528E+04 -9.690030E-09  4.660212E-09
       165  19 -5.574764E+05 -2.623927E+04 -2.623831E+04  1.964175E+04  3.837232E+02 -3.781927E+03
       165  20 -5.957535E+05 -3.574957E+04 -3.585665E+04  8.033011E+03 -5.390848E+02 -5.532051E+03
       165  21 -6.343652E+05 -4.559426E+04 -4.618916E+04  1.964851E+04 -1.462393E+03 -7.245097E+03
       165  22 -4.508432E+05  1.279434E+02 -1.101478E+03  1.992586E+04 -7.177291E+02 -3.784780E+03
       165  23 -4.506790E+05  9.198019E+01 -1.813260E+03  8.314413E+03 -1.617586E+03 -5.534714E+03
       165  24 -4.508462E+05 -2.740607E+02 -3.222893E+03  1.992687E+04 -2.517999E+03 -7.247578E+03
       165  25 -3.441995E+05  2.649434E+04  2.403458E+04  2.021001E+04 -1.819370E+03 -3.787634E+03
       165  26 -3.055851E+05  3.593203E+04  3.222870E+04  8.595870E+03 -2.696338E+03 -5.537377E+03
       165  27 -2.672961E+05  4.504374E+04  3.974108E+04  2.020530E+04 -3.573915E+03 -7.250060E+03
       166   1 -6.761697E+05 -5.528155E+04 -5.703813E+04  1.878602E+04  1.929995E+03  8.337280E+03
       166   2 -7.134217E+05 -6.450535E+04 -6.879150E+04  8.262990E+03  5.869424E+03  1.002715E+04
       166   3 -7.525156E+05 -7.872482E+04 -8.437890E+04  2.078603E+04  9.810662E+03  1.112492E+04
       166   4 -4.511719E+05  3.321887E+02 -4.136691E+03  1.988348E+04  3.163061E+03  8.340075E+03
       166   5 -4.502860E+05  5.077173E+02 -7.032056E+03  8.365830E+03  6.734706E+03  1.002884E+04
       166   6 -4.511784E+05 -4.247146E+03 -1.350459E+04  1.989370E+04  1.030840E+04  1.112562E+04
       166   7 -2.261276E+05  5.594231E+04  4.876128E+04  2.098131E+04  4.396571E+03  8.342874E+03
       166   8 -1.870865E+05  6.551585E+04  5.472265E+04  8.468678E+03  7.600353E+03  1.003053E+04
       166   9 -1.497576E+05  7.022405E+04  5.736348E+04  1.900090E+04  1.080638E+04  1.112631E+04
       166  10 -6.761697E+05 -5.528162E+04 -5.703827E+04  1.878601E+04  6.669540E-09  2.190430E-09
       166  11 -7.134218E+05 -6.450547E+04 -6.879175E+04  8.262942E+03 -1.881013E-09  7.723811E-09
       166  12 -7.525157E+05 -7.872498E+04 -8.437932E+04  2.078594E+04 -1.028837E-09 -3.767790E-10
       166  13 -4.511720E+05  3.321113E+02 -4.136841E+03  1.988346E+04 -7.616808E-10 -5.419708E-09
       166  14 -4.502861E+05  5.075971E+02 -7.032331E+03  8.365776E+03 -5.665501E-10  5.906828E-11
       166  15 -4.511786E+05 -4.247307E+03 -1.350502E+04  1.989361E+04  1.046462E-09 -2.957805E-09
       166  16 -2.261276E+05  5.594224E+04  4.876111E+04  2.098128E+04 -6.279468E-09 -1.868010E-09
       166  17 -1.870866E+05  6.551573E+04  5.472235E+04  8.468616E+03  1.172436E-10 -9.454624E-09
       166  18 -1.497577E+05  7.022389E+04  5.736303E+04  1.900080E+04  9.566145E-10  9.509323E-10
       166  19 -6.761697E+05 -5.528155E+04 -5.703813E+04  1.878602E+04 -1.929995E+03 -8.337280E+03
       166  20 -7.134217E+05 -6.450535E+04 -6.879150E+04  8.262990E+03 -5.869424E+03 -1.002715E+04
       166  21 -7.525156E+05 -7.872482E+04 -8.437890E+04  2.078603E+04 -9.810662E+03 -1.112492E+04
       166  22 -4.511719E+05  3.321887E+02 -4.136691E+03  1.988348E+04 -3.163061E+03 -8.340075E+03
       166  23 -4.502860E+05  5.077173E+02 -7.032056E+03  8.365830E+03 -6.734706E+03 -1.002884E+04
       166  24 -4.511784E+05 -4.247146E+03 -1.350459E+04  1.989370E+04 -1.030840E+04 -1.112562E+04
       166  25 -2.261276E+05  5.594231E+04  4.876128E+04  2.098131E+04 -4.396571E+03 -8.342874E+03
       166  26 -1.870865E+05  6.551585E+04  5.472265E+04  8.468678E+03 -7.600353E+03 -1.003053E+04
       166  27 -1.497576E+05  7.022405E+04  5.736348E+04  1.900090E+04 -1.080638E+04 -1.112631E+04
       167   1 -7.968638E+05 -8.187451E+04 -9.690796E+04  1.212803E+04  9.209334E+03  1.344229E+04
       167   2 -8.261594E+05 -8.878990E+04 -1.164771E+05  1.357979E+04  3.013676E+04  1.418221E+04
       167   3 -8.726207E+05 -1.534385E+05 -1.641172E+05  3.756136E+04  5.108015E+04  4.751480E+03
       167   4 -4.543558E+05  2.760967E+03 -1.666468E+04  1.974397E+04  1.281898E+04  1.344942E+04
       167   5 -4.463365E+05  5.061856E+03 -2.719461E+04  8.525628E+03  2.741421E+04  1.417621E+04
       167   6 -4.543740E+05 -4.925180E+04 -6.138441E+04  1.983742E+04  4.202698E+04  4.734256E+03
       167   7 -1.117393E+05  8.738831E+04  6.357068E+04  2.736409E+04  1.643060E+04  1.345662E+04
       167   8 -6.638054E+04  9.890343E+04  6.207799E+04  3.468288E+03  2.469000E+04  1.417025E+04
       167   9 -3.596690E+04  5.492319E+04  4.133604E+04  2.101429E+03  3.296771E+04  4.717557E+03
       167  10 -7.968640E+05 -8.187472E+04 -9.690846E+04  1.212793E+04  7.104620E-09 -2.460973E-09
       167  11 -8.261605E+05 -8.879036E+04 -1.164792E+05  1.357945E+04  3.955666E-09 -5.702273E-10
       167  12 -8.726235E+05 -1.534393E+05 -1.641222E+05  3.756117E+04  3.767731E-09  3.267206E-09
       167  13 -4.543560E+05  2.760729E+03 -1.666533E+04  1.974383E+04 -9.504688E-12 -1.942920E-09
       167  14 -4.463374E+05  5.061438E+03 -2.719640E+04  8.525315E+03 -1.586872E-09 -8.338126E-10
       167  15 -4.543759E+05 -4.925230E+04 -6.138777E+04  1.983726E+04 -1.415702E-09  4.515105E-09
       167  16 -1.117397E+05  8.738804E+04  6.356983E+04  2.736391E+04 -5.166324E-09  5.734268E-09
       167  17 -6.638124E+04  9.890305E+04  6.207647E+04  3.468006E+03 -5.140758E-09  1.095814E-08
       167  18 -3.596807E+04  5.492288E+04  4.133396E+04  2.101304E+03 -4.708182E-09  7.774750E-10
       167  19 -7.968638E+05 -8.187451E+04 -9.690796E+04  1.212803E+04 -9.209334E+03 -1.344229E+04
       167  20 -8.261594E+05 -8.878990E+04 -1.164771E+05  1.357979E+04 -3.013676E+04 -1.418221E+04
       167  21 -8.726207E+05 -1.534385E+05 -1.641172E+05  3.756136E+04 -5.108015E+04 -4.751480E+03
       167  22 -4.543558E+05  2.760967E+03 -1.666468E+04  1.974397E+04 -1.281898E+04 -1.344942E+04
       167  23 -4.463365E+05  5.061856E+03 -2.719461E+04  8.525628E+03 -2.741421E+04 -1.417621E+04
       167  24 -4.543740E+05 -4.925180E+04 -6.138441E+04  1.983742E+04 -4.202698E+04 -4.734256E+03
       167  25 -1.117393E+05  8.738831E+04  6.357068E+04  2.736409E+04 -1.643060E+04 -1.345662E+04
       167  26 -6.638054E+04  9.890343E+04  6.207799E+04  3.468288E+03 -2.469000E+04 -1.417025E+04
       167  27 -3.596690E+04  5.492319E+04  4.133604E+04  2.101429E+03 -3.296771E+04 -4.717557E+03
       168   1 -1.981274E+05 -7.668004E+05 -1.920478E+05  1.826406E+05 -8.069634E+03 -6.182882E+04
       168   2 -1.380429E+05 -6.021844E+05 -1.196792E+05  1.589409E+05 -2.481428E+04 -2.584580E+04
       168   3 -9.463691E+04 -4.462770E+05 -7.491644E+04  1.685648E+05 -2.415887E+04  1.017049E+04
       168   4 -2.074228E+04 -5.023088E+04 -2.221306E+04  1.693343E+05 -8.112060E+03 -1.675044E+04
       168   5 -5.301609E+03 -4.851916E+04 -9.923853E+03  1.526816E+05 -2.482506E+04 -1.163139E+04
       168   6 -1.168122E+03 -5.017263E+04 -3.785697E+03  1.693529E+05 -2.414430E+04 -6.489507E+03
       168   7  1.566077E+05  6.668154E+05  1.475937E+05  1.560125E+05 -8.156400E+03  2.837976E+04
       168   8  1.274212E+05  5.054399E+05  9.981707E+04  1.464167E+05 -2.483612E+04  2.595447E+03
       168   9  9.229208E+04  3.460854E+05  6.734004E+04  1.701416E+05 -2.412979E+04 -2.315984E+04
       168  10 -1.981285E+05 -7.668045E+05 -1.920551E+05  1.826402E+05  1.119326E-09  1.473486E-09
       168  11 -1.380437E+05 -6.021853E+05 -1.196816E+05  1.589404E+05  1.073819E-09  1.327793E-08
       168  12 -9.463756E+04 -4.462773E+05 -7.491773E+04  1.685650E+05  6.103845E-10  2.528588E-08
       168  13 -2.074242E+04 -5.023120E+04 -2.221372E+04  1.693342E+05 -2.095301E-09 -5.260691E-10
       168  14 -5.302307E+03 -4.851947E+04 -9.925265E+03  1.526814E+05 -6.276473E-09  6.551758E-09
       168  15 -1.168759E+03 -5.017283E+04 -3.786871E+03  1.693528E+05 -7.943871E-09 -1.779588E-09
       168  16  1.566074E+05  6.668145E+05  1.475920E+05  1.560127E+05 -1.031825E-09  4.376041E-10
       168  17  1.274206E+05  5.054398E+05  9.981590E+04  1.464167E+05 -1.527885E-09 -1.410726E-08
       168  18  9.229131E+04  3.460846E+05  6.733794E+04  1.701412E+05  1.089266E-09 -2.731500E-08
       168  19 -1.981274E+05 -7.668004E+05 -1.920478E+05  1.826406E+05  8.069634E+03  6.182882E+04
       168  20 -1.380429E+05 -6.021844E+05 -1.196792E+05  1.589409E+05  2.481428E+04  2.584580E+04
       168  21 -9.463691E+04 -4.462770E+05 -7.491644E+04  1.685648E+05  2.415887E+04 -1.017049E+04
       168  22 -2.074228E+04 -5.023088E+04 -2.221306E+04  1.693343E+05  8.112060E+03  1.675044E+04
       168  23 -5.301609E+03 -4.851916E+04 -9.923853E+03  1.526816E+05  2.482506E+04  1.163139E+04
       168  24 -1.168122E+03 -5.017263E+04 -3.785697E+03  1.693529E+05  2.414430E+04  6.489507E+03
       168  25  1.566077E+05  6.668154E+05  1.475937E+05  1.560125E+05  8.156400E+03 -2.837976E+04
       168  26  1.274212E+05  5.054399E+05  9.981707E+04  1.464167E+05  2.483612E+04 -2.595447E+03
       168  27  9.229208E+04  3.460854E+05  6.734004E+04  1.701416E+05  2.412979E+04  2.315984E+04
       169   1 -7.009380E+04 -3.411651E+05 -5.344923E+04  1.698768E+05 -1.822099E+04  9.054072E+03
       169   2 -3.079346E+04 -1.811258E+05 -1.909630E+04  1.529128E+05 -9.363251E+03  8.592802E+03
       169   3  9.053633E+03 -2.076925E+04  1.571595E+04  1.703745E+05  6.917943E+01  8.131139E+03
       169   4 -1.323792E+03 -4.930674E+04 -1.527683E+03  1.695945E+05 -1.820871E+04 -6.162077E+03
       169   5 -5.401902E+01 -4.953485E+04  2.987245E+03  1.523832E+05 -9.350924E+03 -7.645358E+03
       169   6  1.941384E+03 -4.929255E+04  8.671961E+03  1.695971E+05  8.145164E+01 -9.128927E+03
       169   7  6.744164E+04  2.426353E+05  5.039153E+04  1.693121E+05 -1.819643E+04 -2.138517E+04
       169   8  3.068466E+04  8.207374E+04  2.507124E+04  1.518536E+05 -9.338571E+03 -2.388685E+04
       169   9 -5.170764E+03 -7.781446E+04  1.629035E+03  1.688198E+05  9.376728E+01 -2.638820E+04
       169  10 -7.009418E+04 -3.411652E+05 -5.345000E+04  1.698769E+05 -1.801628E-09 -2.810890E-08
       169  11 -3.079358E+04 -1.811259E+05 -1.909660E+04  1.529128E+05  3.448803E-10 -2.001574E-08
       169  12  9.053615E+03 -2.076932E+04  1.571582E+04  1.703745E+05 -3.282538E-10 -6.192396E-09
       169  13 -1.324159E+03 -4.930687E+04 -1.528377E+03  1.695944E+05 -9.248087E-09 -1.067011E-09
       169  14 -5.412858E+01 -4.953493E+04  2.986971E+03  1.523832E+05 -3.250522E-09  4.684334E-09
       169  15  1.941361E+03 -4.929264E+04  8.671805E+03  1.695971E+05  1.156460E-09 -7.906873E-10
       169  16  6.744116E+04  2.426347E+05  5.039005E+04  1.693118E+05 -1.124514E-10  2.792044E-08
       169  17  3.068441E+04  8.207310E+04  2.507000E+04  1.518534E+05  1.136021E-09  1.908410E-08
       169  18 -5.170951E+03 -7.781521E+04  1.627727E+03  1.688198E+05 -4.806716E-10  4.730698E-09
       169  19 -7.009380E+04 -3.411651E+05 -5.344923E+04  1.698768E+05  1.822099E+04 -9.054072E+03
       169  20 -3.079346E+04 -1.811258E+05 -1.909630E+04  1.529128E+05  9.363251E+03 -8.592802E+03
       169  21  9.053633E+03 -2.076925E+04  1.571595E+04  1.703745E+05 -6.917943E+01 -8.131139E+03
       169  22 -1.323792E+03 -4.930674E+04 -1.527683E+03  1.695945E+05  1.820871E+04  6.162077E+03
       169  23 -5.401902E+01 -4.953485E+04  2.987245E+03  1.523832E+05  9.350924E+03  7.645358E+03
       169  24  1.941384E+03 -4.929255E+04  8.671961E+03  1.695971E+05 -8.145164E+01  9.128927E+03
       169  25  6.744164E+04  2.426353E+05  5.039153E+04  1.693121E+05  1.819643E+04  2.138517E+04
       169  26  3.068466E+04  8.207374E+04  2.507124E+04  1.518536E+05  9.338571E+03  2.388685E+04
       169  27 -5.170764E+03 -7.781446E+04  1.629035E+03  1.688198E+05 -9.376728E+01  2.638820E+04
       170   1  3.327358E+04  8.488573E+04  3.800715E+04  1.672628E+05  6.371905E+03  7.486315E+03
       170   2  8.083757E+04  2.394885E+05  8.387830E+04  1.655734E+05  1.093217E+04 -2.488808E+04
       170   3  1.569257E+05  4.055571E+05  1.579732E+05  1.976788E+05  4.154174E+03 -5.728357E+04
       170   4  1.615479E+03 -4.763253E+04  1.225147E+04  1.694507E+05  6.385091E+03 -1.063908E+04
       170   5  1.061876E+04 -5.162457E+04  2.373432E+04  1.525736E+05  1.093151E+04 -2.286894E+04
       170   6  4.465894E+04 -4.766185E+04  4.945981E+04  1.694884E+05  4.138813E+03 -3.511153E+04
       170   7 -3.004347E+04 -1.801332E+05 -1.350381E+04  1.716382E+05  6.398150E+03 -2.876070E+04
       170   8 -5.960475E+04 -3.426569E+05 -3.641415E+04  1.395800E+05  1.093077E+04 -2.085073E+04
       170   9 -6.761944E+04 -5.006899E+05 -5.906585E+04  1.413188E+05  4.121435E+03 -1.295559E+04
       170  10  3.327352E+04  8.488566E+04  3.800697E+04  1.672627E+05  7.819318E-10 -1.114888E-09
       170  11  8.083727E+04  2.394878E+05  8.387692E+04  1.655737E+05  2.550220E-10 -1.921041E-09
       170  12  1.569248E+05  4.055536E+05  1.579670E+05  1.976790E+05 -1.493088E-09 -4.802970E-09
       170  13  1.615405E+03 -4.763266E+04  1.225118E+04  1.694508E+05 -1.026957E-09 -5.510494E-10
       170  14  1.061850E+04 -5.162517E+04  2.373311E+04  1.525738E+05  4.076762E-10  3.791796E-09
       170  15  4.465859E+04 -4.766318E+04  4.945746E+04  1.694885E+05  2.990279E-10 -5.266062E-10
       170  16 -3.004374E+04 -1.801341E+05 -1.350544E+04  1.716384E+05  7.855526E-10  1.945139E-09
       170  17 -5.960500E+04 -3.426574E+05 -3.641519E+04  1.395802E+05  1.307574E-09  2.629882E-09
       170  18 -6.761950E+04 -5.006901E+05 -5.906620E+04  1.413188E+05 -3.745275E-11  2.288416E-09
       170  19  3.327358E+04  8.488573E+04  3.800715E+04  1.672628E+05 -6.371905E+03 -7.486315E+03
       170  20  8.083757E+04  2.394885E+05  8.387830E+04  1.655734E+05 -1.093217E+04  2.488808E+04
       170  21  1.569257E+05  4.055571E+05  1.579732E+05  1.976788E+05 -4.154174E+03  5.728357E+04
       170  22  1.615479E+03 -4.763253E+04  1.225147E+04  1.694507E+05 -6.385091E+03  1.063908E+04
       170  23  1.061876E+04 -5.162457E+04  2.373432E+04  1.525736E+05 -1.093151E+04  2.286894E+04
       170  24  4.465894E+04 -4.766185E+04  4.945981E+04  1.694884E+05 -4.138813E+03  3.511153E+04
       170  25 -3.004347E+04 -1.801332E+05 -1.350381E+04  1.716382E+05 -6.398150E+03  2.876070E+04
       170  26 -5.960475E+04 -3.426569E+05 -3.641415E+04  1.395800E+05 -1.093077E+04  2.085073E+04
       170  27 -6.761944E+04 -5.006899E+05 -5.906585E+04  1.413188E+05 -4.121435E+03  1.295559E+04
       171   1  9.210484E+05  3.399269E+05  2.214997E+05  3.244270E+05  9.002315E+04  2.919031E+04
       171   2  8.868512E+05  2.036926E+05  1.366460E+05  3.231119E+05  5.874157E+04  7.834193E+03
       171   3  8.865226E+05  1.910717E+05  1.078282E+05  3.075918E+05  2.408119E+04 -4.544334E+03
       171   4  5.960703E+05  1.845514E+05  1.272286E+05  2.020322E+05  8.246268E+04  2.633717E+04
       171   5  5.729603E+05  7.599946E+04  5.361682E+04  2.269428E+05  5.644675E+04  6.967943E+03
       171   6  5.826978E+05  9.005110E+04  3.189337E+04  2.376427E+05  2.704998E+04 -3.425095E+03
       171   7  2.712005E+05  2.920413E+04  3.294848E+04  7.970275E+04  7.490661E+04  2.348668E+04
       171   8  2.591663E+05 -5.168231E+04 -2.942058E+04  1.308195E+05  5.415320E+04  6.102262E+03
       171   9  2.789611E+05 -1.096870E+04 -4.404885E+04  1.677219E+05  3.001719E+04 -2.306294E+03
       171  10  9.210395E+05  3.399238E+05  2.214829E+05  3.244249E+05  4.901993E-10  1.775976E-09
       171  11  8.868475E+05  2.036916E+05  1.366394E+05  3.231115E+05 -6.215936E-10  6.836416E-10
       171  12  8.865220E+05  1.910715E+05  1.078271E+05  3.075919E+05 -3.926395E-09  6.005477E-09
       171  13  5.960629E+05  1.845489E+05  1.272145E+05  2.020305E+05 -7.074385E-10 -2.790859E-09
       171  14  5.729568E+05  7.599855E+04  5.361075E+04  2.269425E+05 -2.495389E-09 -2.209368E-09
       171  15  5.826970E+05  9.005089E+04  3.189198E+04  2.376427E+05 -3.008520E-09  2.676287E-09
       171  16  2.711943E+05  2.920203E+04  3.293690E+04  7.970134E+04  9.845454E-12  3.354995E-10
       171  17  2.591631E+05 -5.168314E+04 -2.942616E+04  1.308192E+05 -1.388604E-09  2.966623E-10
       171  18  2.789601E+05 -1.096895E+04 -4.405056E+04  1.677220E+05 -1.973539E-11  2.877063E-10
       171  19  9.210484E+05  3.399269E+05  2.214997E+05  3.244270E+05 -9.002315E+04 -2.919031E+04
       171  20  8.868512E+05  2.036926E+05  1.366460E+05  3.231119E+05 -5.874157E+04 -7.834193E+03
       171  21  8.865226E+05  1.910717E+05  1.078282E+05  3.075918E+05 -2.408119E+04  4.544334E+03
       171  22  5.960703E+05  1.845514E+05  1.272286E+05  2.020322E+05 -8.246268E+04 -2.633717E+04
       171  23  5.729603E+05  7.599946E+04  5.361682E+04  2.269428E+05 -5.644675E+04 -6.967943E+03
       171  24  5.826978E+05  9.005110E+04  3.189337E+04  2.376427E+05 -2.704998E+04  3.425095E+03
       171  25  2.712005E+05  2.920413E+04  3.294848E+04  7.970275E+04 -7.490661E+04 -2.348668E+04
       171  26  2.591663E+05 -5.168231E+04 -2.942058E+04  1.308195E+05 -5.415320E+04 -6.102262E+03
       171  27  2.789611E+05 -1.096870E+04 -4.404885E+04  1.677219E+05 -3.001719E+04  2.306294E+03
       172   1  8.401372E+05  2.033391E+05  9.406772E+04  3.049347E+05  2.168900E+04 -3.217399E+03
       172   2  8.183162E+05  1.761335E+05  7.393284E+04  2.919030E+05  1.459090E+04 -5.133975E+03
       172   3  7.889674E+05  1.718219E+05  6.175112E+04  2.904749E+05  7.284144E+03 -6.497753E+03
       172   4  5.786023E+05  1.023469E+05  2.577544E+04  2.303910E+05  2.191116E+04 -3.134083E+03
       172   5  5.817774E+05  8.654320E+04  1.263655E+04  2.262459E+05  1.513912E+04 -4.927483E+03
       172   6  5.773611E+05  9.357166E+04  7.195222E+03  2.337039E+05  8.158090E+03 -6.168145E+03
       172   7  3.171339E+05  1.360016E+03 -4.252262E+04  1.558761E+05  2.213321E+04 -3.050809E+03
       172   8  3.452933E+05 -3.043145E+03 -4.866429E+04  1.606115E+05  1.568710E+04 -4.721080E+03
       172   9  3.657989E+05  1.532419E+04 -4.736417E+04  1.769503E+05  9.031706E+03 -5.838656E+03
       172  10  8.401366E+05  2.033390E+05  9.406681E+04  3.049348E+05  2.813277E-10  3.986709E-09
       172  11  8.183160E+05  1.761334E+05  7.393240E+04  2.919031E+05  3.813080E-09  3.467656E-09
       172  12  7.889673E+05  1.718218E+05  6.175094E+04  2.904750E+05  5.972713E-09  6.027083E-09
       172  13  5.786018E+05  1.023467E+05  2.577452E+04  2.303911E+05 -3.782431E-09 -1.256056E-09
       172  14  5.817772E+05  8.654311E+04  1.263608E+04  2.262459E+05 -1.948059E-09 -5.464751E-09
       172  15  5.773610E+05  9.357160E+04  7.195025E+03  2.337039E+05  6.733430E-10  1.158717E-08
       172  16  3.171334E+05  1.359875E+03 -4.252356E+04  1.558761E+05 -3.537179E-09 -1.012733E-09
       172  17  3.452930E+05 -3.043235E+03 -4.866479E+04  1.606115E+05 -4.704041E-09  5.554294E-09
       172  18  3.657988E+05  1.532413E+04 -4.736438E+04  1.769503E+05 -2.792342E-09  1.068679E-09
       172  19  8.401372E+05  2.033391E+05  9.406772E+04  3.049347E+05 -2.168900E+04  3.217399E+03
       172  20  8.183162E+05  1.761335E+05  7.393284E+04  2.919030E+05 -1.459090E+04  5.133975E+03
       172  21  7.889674E+05  1.718219E+05  6.175112E+04  2.904749E+05 -7.284144E+03  6.497753E+03
       172  22  5.786023E+05  1.023469E+05  2.577544E+04  2.303910E+05 -2.191116E+04  3.134083E+03
       172  23  5.817774E+05  8.654320E+04  1.263655E+04  2.262459E+05 -1.513912E+04  4.927483E+03
       172  24  5.773611E+05  9.357166E+04  7.195222E+03  2.337039E+05 -8.158090E+03  6.168145E+03
       172  25  3.171339E+05  1.360016E+03 -4.252262E+04  1.558761E+05 -2.213321E+04  3.050809E+03
       172  26  3.452933E+05 -3.043145E+03 -4.866429E+04  1.606115E+05 -1.568710E+04  4.721080E+03
       172  27  3.657989E+05  1.532419E+04 -4.736417E+04  1.769503E+05 -9.031706E+03  5.838656E+03
       173   1  7.573334E+05  1.626225E+05  5.217452E+04  2.826899E+05  6.128926E+03 -6.013118E+03
       173   2  7.372458E+05  1.457833E+05  4.292327E+04  2.687489E+05  4.167294E+03 -5.370068E+03
       173   3  7.055370E+05  1.421469E+05  3.506086E+04  2.684815E+05  2.194443E+03 -4.698349E+03
       173   4  5.769249E+05  9.464207E+04  5.569543E+03  2.329540E+05  6.827994E+03 -5.749418E+03
       173   5  5.826824E+05  8.764886E+04  2.946138E+03  2.262661E+05  4.883591E+03 -5.099743E+03
       173   6  5.768152E+05  9.385562E+04  1.698433E+03  2.332520E+05  2.927901E+03 -4.421419E+03
       173   7  3.965473E+05  2.666352E+04 -4.103831E+04  1.832310E+05  7.526842E+03 -5.485801E+03
       173   8  4.281419E+05  2.951585E+04 -3.703306E+04  1.837929E+05  5.599693E+03 -4.829491E+03
       173   9  4.481094E+05  4.556534E+04 -3.166538E+04  1.980291E+05  3.661192E+03 -4.144551E+03
       173  10  7.573333E+05  1.626225E+05  5.217439E+04  2.826900E+05 -6.373678E-11  6.399420E-09
       173  11  7.372458E+05  1.457833E+05  4.292319E+04  2.687489E+05 -5.155958E-09  1.277294E-09
       173  12  7.055370E+05  1.421469E+05  3.506081E+04  2.684815E+05 -5.270360E-09  4.420897E-09
       173  13  5.769248E+05  9.464203E+04  5.569394E+03  2.329541E+05  9.114700E-10  5.169532E-09
       173  14  5.826824E+05  8.764882E+04  2.946045E+03  2.262662E+05 -1.424044E-09  6.075553E-09
       173  15  5.768152E+05  9.385560E+04  1.698380E+03  2.332520E+05 -8.055836E-10 -7.104416E-10
       173  16  3.965473E+05  2.666347E+04 -4.103847E+04  1.832311E+05  1.627954E-09  7.645353E-09
       173  17  4.281418E+05  2.951582E+04 -3.703316E+04  1.837929E+05  2.984507E-09  1.569693E-09
       173  18  4.481094E+05  4.556532E+04 -3.166544E+04  1.980291E+05  3.341387E-09 -1.883223E-09
       173  19  7.573334E+05  1.626225E+05  5.217452E+04  2.826899E+05 -6.128926E+03  6.013118E+03
       173  20  7.372458E+05  1.457833E+05  4.292327E+04  2.687489E+05 -4.167294E+03  5.370068E+03
       173  21  7.055370E+05  1.421469E+05  3.506086E+04  2.684815E+05 -2.194443E+03  4.698349E+03
       173  22  5.769249E+05  9.464207E+04  5.569543E+03  2.329540E+05 -6.827994E+03  5.749418E+03
       173  23  5.826824E+05  8.764886E+04  2.946138E+03  2.262661E+05 -4.883591E+03  5.099743E+03
       173  24  5.768152E+05  9.385562E+04  1.698433E+03  2.332520E+05 -2.927901E+03  4.421419E+03
       173  25  3.965473E+05  2.666352E+04 -4.103831E+04  1.832310E+05 -7.526842E+03  5.485801E+03
       173  26  4.281419E+05  2.951585E+04 -3.703306E+04  1.837929E+05 -5.599693E+03  4.829491E+03
       173  27  4.481094E+05  4.556534E+04 -3.166538E+04  1.980291E+05 -3.661192E+03  4.144551E+03
       174   1  6.756996E+05  1.311123E+05  2.682147E+04  2.603472E+05  1.684165E+03 -4.062620E+03
       174   2  6.560062E+05  1.153396E+05  1.979075E+04  2.464322E+05  7.951770E+02 -2.990112E+03
       174   3  6.243214E+05  1.117598E+05  1.310202E+04  2.462291E+05 -9.362436E+01 -1.918564E+03
       174   4  5.767766E+05  9.392149E+04  1.330790E+03  2.331519E+05  2.405113E+03 -3.790356E+03
       174   5  5.827692E+05  8.779670E+04  8.481273E+02  2.263069E+05  1.515631E+03 -2.717979E+03
       174   6  5.767697E+05  9.386497E+04  7.079310E+02  2.331738E+05  6.263140E+02 -1.646566E+03
       174   7  4.778636E+05  5.673147E+04 -2.416061E+04  2.059606E+05  3.125932E+03 -3.518140E+03
       174   8  5.095374E+05  6.025414E+04 -1.809494E+04  2.061838E+05  2.235992E+03 -2.445882E+03
       174   9  5.292201E+05  7.597024E+04 -1.168639E+04  2.201193E+05  1.346194E+03 -1.374590E+03
       174  10  6.756995E+05  1.311122E+05  2.682143E+04  2.603472E+05 -1.067088E-09 -1.698594E-11
       174  11  6.560062E+05  1.153396E+05  1.979073E+04  2.464322E+05 -5.447694E-10  2.323098E-09
       174  12  6.243214E+05  1.117598E+05  1.310202E+04  2.462291E+05 -6.452219E-09  7.120022E-09
       174  13  5.767766E+05  9.392147E+04  1.330752E+03  2.331519E+05 -4.245525E-10  2.197876E-09
       174  14  5.827692E+05  8.779670E+04  8.481091E+02  2.263069E+05  5.464854E-09  3.625299E-09
       174  15  5.767697E+05  9.386496E+04  7.079252E+02  2.331738E+05 -1.334611E-09  1.032176E-09
       174  16  4.778636E+05  5.673145E+04 -2.416065E+04  2.059606E+05 -3.308358E-10  5.223792E-09
       174  17  5.095374E+05  6.025413E+04 -1.809496E+04  2.061838E+05  4.701737E-09  3.827137E-12
       174  18  5.292201E+05  7.597024E+04 -1.168640E+04  2.201193E+05  2.799951E-09  3.337711E-09
       174  19  6.756996E+05  1.311123E+05  2.682147E+04  2.603472E+05 -1.684165E+03  4.062620E+03
       174  20  6.560062E+05  1.153396E+05  1.979075E+04  2.464322E+05 -7.951770E+02  2.990112E+03
       174  21  6.243214E+05  1.117598E+05  1.310202E+04  2.462291E+05  9.362436E+01  1.918564E+03
       174  22  5.767766E+05  9.392149E+04  1.330790E+03  2.331519E+05 -2.405113E+03  3.790356E+03
       174  23  5.827692E+05  8.779670E+04  8.481273E+02  2.263069E+05 -1.515631E+03  2.717979E+03
       174  24  5.767697E+05  9.386497E+04  7.079310E+02  2.331738E+05 -6.263140E+02  1.646566E+03
       174  25  4.778636E+05  5.673147E+04 -2.416061E+04  2.059606E+05 -3.125932E+03  3.518140E+03
       174  26  5.095374E+05  6.025414E+04 -1.809494E+04  2.061838E+05 -2.235992E+03  2.445882E+03
       174  27  5.292201E+05  7.597024E+04 -1.168639E+04  2.201193E+05 -1.346194E+03  1.374590E+03
       175   1  5.948102E+05  1.006382E+05  5.300511E+03  2.381464E+05 -4.825581E+02 -1.247120E+03
       175   2  5.751849E+05  8.496614E+04 -9.868821E+02  2.242459E+05 -1.431418E+03 -2.008491E+02
       175   3  5.436154E+05  8.147171E+04 -6.882503E+03  2.240119E+05 -2.379724E+03  8.441559E+02
       175   4  5.767797E+05  9.385514E+04  7.292800E+02  2.331662E+05  2.366466E+02 -9.753812E+02
       175   5  5.827577E+05  8.780578E+04  9.703293E+02  2.263182E+05 -7.129873E+02  7.058914E+01
       175   6  5.767908E+05  9.393408E+04  1.603748E+03  2.331363E+05 -1.662089E+03  1.115287E+03
       175   7  5.587495E+05  8.707208E+04 -3.841974E+03  2.281862E+05  9.558284E+02 -7.036511E+02
       175   8  5.903306E+05  9.064542E+04  2.927534E+03  2.283905E+05  5.451707E+00  3.420305E+02
       175   9  6.099672E+05  1.063965E+05  1.008988E+04  2.422612E+05 -9.444145E+02  1.386434E+03
       175  10  5.948102E+05  1.006382E+05  5.300508E+03  2.381464E+05 -5.973500E-09  2.886259E-09
       175  11  5.751849E+05  8.496614E+04 -9.868860E+02  2.242459E+05  1.938207E-10  1.566566E-09
       175  12  5.436154E+05  8.147171E+04 -6.882515E+03  2.240119E+05  1.240431E-09 -6.873431E-10
       175  13  5.767797E+05  9.385514E+04  7.292781E+02  2.331662E+05 -4.613996E-09  6.406283E-09
       175  14  5.827577E+05  8.780578E+04  9.703283E+02  2.263182E+05  3.410388E-09 -2.755139E-09
       175  15  5.767908E+05  9.393408E+04  1.603740E+03  2.331363E+05 -1.043458E-09  2.382767E-09
       175  16  5.587495E+05  8.707208E+04 -3.841977E+03  2.281862E+05 -1.014294E-10  1.884599E-09
       175  17  5.903306E+05  9.064542E+04  2.927534E+03  2.283905E+05 -1.321108E-09 -4.380125E-09
       175  18  6.099672E+05  1.063965E+05  1.008987E+04  2.422612E+05 -1.580124E-09 -6.291773E-09
       175  19  5.948102E+05  1.006382E+05  5.300511E+03  2.381464E+05  4.825581E+02  1.247120E+03
       175  20  5.751849E+05  8.496614E+04 -9.868821E+02  2.242459E+05  1.431418E+03  2.008491E+02
       175  21  5.436154E+05  8.147171E+04 -6.882503E+03  2.240119E+05  2.379724E+03 -8.441559E+02
       175  22  5.767797E+05  9.385514E+04  7.292800E+02  2.331662E+05 -2.366466E+02  9.753812E+02
       175  23  5.827577E+05  8.780578E+04  9.703293E+02  2.263182E+05  7.129873E+02 -7.058914E+01
       175  24  5.767908E+05  9.393408E+04  1.603748E+03  2.331363E+05  1.662089E+03 -1.115287E+03
       175  25  5.587495E+05  8.707208E+04 -3.841974E+03  2.281862E+05 -9.558284E+02  7.036511E+02
       175  26  5.903306E+05  9.064542E+04  2.927534E+03  2.283905E+05 -5.451707E+00 -3.420305E+02
       175  27  6.099672E+05  1.063965E+05  1.008988E+04  2.422612E+05  9.444145E+02 -1.386434E+03
       176   1  5.140351E+05  7.034948E+04 -1.424592E+04  2.161469E+05 -2.962871E+03  1.446701E+03
       176   2  4.942255E+05  5.438258E+04 -1.924131E+04  2.019831E+05 -5.246177E+03  1.991042E+03
       176   3  4.630121E+05  5.174197E+04 -2.255589E+04  2.013179E+05 -7.519755E+03  2.510465E+03
       176   4  5.768594E+05  9.382918E+04  2.068930E+03  2.332350E+05 -2.235817E+03  1.721367E+03
       176   5  5.826290E+05  8.765564E+04  3.631128E+03  2.262998E+05 -4.533997E+03  2.260018E+03
       176   6  5.769975E+05  9.481127E+04  6.885903E+03  2.328631E+05 -6.822529E+03  2.773726E+03
       176   7  6.396877E+05  1.173092E+05  1.838351E+04  2.503246E+05 -1.508679E+03  1.996063E+03
       176   8  6.710402E+05  1.209293E+05  2.650296E+04  2.506198E+05 -3.821704E+03  2.529038E+03
       176   9  6.909955E+05  1.378814E+05  3.632662E+04  2.644137E+05 -6.125163E+03  3.037040E+03
       176  10  5.140351E+05  7.034947E+04 -1.424594E+04  2.161469E+05 -6.780092E-09 -8.636611E-11
       176  11  4.942254E+05  5.438257E+04 -1.924137E+04  2.019831E+05 -5.693770E-09  9.967188E-09
       176  12  4.630121E+05  5.174194E+04 -2.255600E+04  2.013179E+05 -2.114729E-09 -5.484275E-09
       176  13  5.768594E+05  9.382917E+04  2.068915E+03  2.332350E+05 -1.599277E-09 -3.033485E-09
       176  14  5.826289E+05  8.765563E+04  3.631080E+03  2.262999E+05 -2.980579E-09 -3.121296E-09
       176  15  5.769975E+05  9.481125E+04  6.885801E+03  2.328632E+05 -1.716560E-09 -1.023278E-09
       176  16  6.396877E+05  1.173092E+05  1.838350E+04  2.503246E+05  7.068648E-09 -2.676670E-09
       176  17  6.710402E+05  1.209292E+05  2.650292E+04  2.506198E+05 -3.422748E-10  7.246590E-09
       176  18  6.909955E+05  1.378814E+05  3.632653E+04  2.644137E+05 -3.091218E-09  7.123649E-09
       176  19  5.140351E+05  7.034948E+04 -1.424592E+04  2.161469E+05  2.962871E+03 -1.446701E+03
       176  20  4.942255E+05  5.438258E+04 -1.924131E+04  2.019831E+05  5.246177E+03 -1.991042E+03
       176  21  4.630121E+05  5.174197E+04 -2.255589E+04  2.013179E+05  7.519755E+03 -2.510465E+03
       176  22  5.768594E+05  9.382918E+04  2.068930E+03  2.332350E+05  2.235817E+03 -1.721367E+03
       176  23  5.826290E+05  8.765564E+04  3.631128E+03  2.262998E+05  4.533997E+03 -2.260018E+03
       176  24  5.769975E+05  9.481127E+04  6.885903E+03  2.328631E+05  6.822529E+03 -2.773726E+03
       176  25  6.396877E+05  1.173092E+05  1.838351E+04  2.503246E+05  1.508679E+03 -1.996063E+03
       176  26  6.710402E+05  1.209293E+05  2.650296E+04  2.506198E+05  3.821704E+03 -2.529038E+03
       176  27  6.909955E+05  1.378814E+05  3.632662E+04  2.644137E+05  6.125163E+03 -3.037040E+03
       177   1  4.324909E+05  4.050412E+04 -2.840563E+04  1.955673E+05 -9.224972E+03  2.761251E+03
       177   2  4.122214E+05  2.180630E+04 -2.830473E+04  1.789244E+05 -1.749026E+04  1.024622E+03
       177   3  3.855933E+05  2.820428E+04 -1.888796E+04  1.730829E+05 -2.558561E+04 -1.160107E+03
       177   4  5.775612E+05  9.346084E+04  8.900433E+03  2.337642E+05 -8.386720E+03  3.077726E+03
       177   5  5.814861E+05  8.632400E+04  1.564465E+04  2.263103E+05 -1.691627E+04  1.241131E+03
       177   6  5.791025E+05  1.043324E+05  3.191199E+04  2.296572E+05 -2.527628E+04 -1.043712E+03
       177   7  7.226514E+05  1.464184E+05  4.620464E+04  2.719690E+05 -7.548255E+03  3.394275E+03
       177   8  7.507785E+05  1.508437E+05  5.959163E+04  2.737079E+05 -1.634212E+04  1.457707E+03
       177   9  7.726488E+05  1.804641E+05  8.270894E+04  2.862479E+05 -2.496683E+04 -9.272724E+02
       177  10  4.324908E+05  4.050409E+04 -2.840580E+04  1.955673E+05  3.050513E-09 -4.442511E-09
       177  11  4.122211E+05  2.180622E+04 -2.830531E+04  1.789244E+05  2.699775E-10 -5.194465E-09
       177  12  3.855926E+05  2.820410E+04 -1.888920E+04  1.730829E+05 -3.264630E-09 -1.162053E-08
       177  13  5.775611E+05  9.346081E+04  8.900283E+03  2.337642E+05  1.341294E-09 -7.007819E-09
       177  14  5.814858E+05  8.632392E+04  1.564411E+04  2.263103E+05  2.771418E-09  1.077511E-09
       177  15  5.791019E+05  1.043322E+05  3.191079E+04  2.296572E+05  1.357829E-09 -1.237743E-09
       177  16  7.226514E+05  1.464184E+05  4.620451E+04  2.719690E+05 -4.584256E-09  9.027472E-09
       177  17  7.507782E+05  1.508437E+05  5.959113E+04  2.737079E+05  2.914115E-09  9.037705E-09
       177  18  7.726481E+05  1.804640E+05  8.270776E+04  2.862479E+05  4.881904E-09  2.070027E-09
       177  19  4.324909E+05  4.050412E+04 -2.840563E+04  1.955673E+05  9.224972E+03 -2.761251E+03
       177  20  4.122214E+05  2.180630E+04 -2.830473E+04  1.789244E+05  1.749026E+04 -1.024622E+03
       177  21  3.855933E+05  2.820428E+04 -1.888796E+04  1.730829E+05  2.558561E+04  1.160107E+03
       177  22  5.775612E+05  9.346084E+04  8.900433E+03  2.337642E+05  8.386720E+03 -3.077726E+03
       177  23  5.814861E+05  8.632400E+04  1.564465E+04  2.263103E+05  1.691627E+04 -1.241131E+03
       177  24  5.791025E+05  1.043324E+05  3.191199E+04  2.296572E+05  2.527628E+04  1.043712E+03
       177  25  7.226514E+05  1.464184E+05  4.620464E+04  2.719690E+05  7.548255E+03 -3.394275E+03
       177  26  7.507785E+05  1.508437E+05  5.959163E+04  2.737079E+05  1.634212E+04 -1.457707E+03
       177  27  7.726488E+05  1.804641E+05  8.270894E+04  2.862479E+05  2.496683E+04  9.272724E+02
       178   1  3.462042E+05  1.585482E+04 -1.891430E+04  1.898820E+05 -3.390201E+04 -2.347602E+03
       178   2  3.269834E+05 -3.042374E+04  1.069780E+03  1.478572E+05 -6.602596E+04 -1.365328E+04
       178   3  3.507640E+05  7.107037E+04  8.193224E+04  8.456000E+04 -9.541064E+04 -3.221795E+04
       178   4  5.841782E+05  8.910122E+04  3.948670E+04  2.386235E+05 -3.137183E+04 -1.392145E+03
       178   5  5.705647E+05  7.329767E+04  6.639255E+04  2.271957E+05 -6.775427E+04 -1.430702E+04
       178   6  6.007711E+05  2.060716E+05  1.575308E+05  1.945012E+05 -1.013984E+05 -3.448317E+04
       178   7  8.222078E+05  1.623474E+05  9.788378E+04  2.873798E+05 -2.884057E+04 -4.364494E+02
       178   8  8.142029E+05  1.770272E+05  1.317097E+05  3.065636E+05 -6.948331E+04 -1.496111E+04
       178   9  8.508398E+05  3.410974E+05  2.331226E+05  3.044873E+05 -1.073886E+05 -3.675033E+04
       178  10  3.462030E+05  1.585451E+04 -1.891647E+04  1.898820E+05 -5.879732E-09 -4.653813E-09
       178  11  3.269786E+05 -3.042511E+04  1.061243E+03  1.478565E+05 -4.048874E-09 -5.882638E-09
       178  12  3.507539E+05  7.106682E+04  8.191319E+04  8.455753E+04  1.035383E-09 -1.738867E-09
       178  13  5.841771E+05  8.910095E+04  3.948485E+04  2.386234E+05 -1.415482E-09 -7.298080E-09
       178  14  5.705597E+05  7.329622E+04  6.638354E+04  2.271949E+05 -4.649008E-09 -7.538807E-09
       178  15  6.007597E+05  2.060676E+05  1.575092E+05  1.944983E+05 -1.359999E-09 -9.055034E-10
       178  16  8.222069E+05  1.623472E+05  9.788222E+04  2.873798E+05  3.627221E-09 -4.830015E-10
       178  17  8.141976E+05  1.770257E+05  1.317003E+05  3.065627E+05 -2.321494E-09 -8.751017E-10
       178  18  8.508271E+05  3.410929E+05  2.330984E+05  3.044842E+05 -5.338209E-09 -7.660635E-10
       178  19  3.462042E+05  1.585482E+04 -1.891430E+04  1.898820E+05  3.390201E+04  2.347602E+03
       178  20  3.269834E+05 -3.042374E+04  1.069780E+03  1.478572E+05  6.602596E+04  1.365328E+04
       178  21  3.507640E+05  7.107037E+04  8.193224E+04  8.456000E+04  9.541064E+04  3.221795E+04
       178  22  5.841782E+05  8.910122E+04  3.948670E+04  2.386235E+05  3.137183E+04  1.392145E+03
       178  23  5.705647E+05  7.329767E+04  6.639255E+04  2.271957E+05  6.775427E+04  1.430702E+04
       178  24  6.007711E+05  2.060716E+05  1.575308E+05  1.945012E+05  1.013984E+05  3.448317E+04
       178  25  8.222078E+05  1.623474E+05  9.788378E+04  2.873798E+05  2.884057E+04  4.364494E+02
       178  26  8.142029E+05  1.770272E+05  1.317097E+05  3.065636E+05  6.948331E+04  1.496111E+04
       178  27  8.508398E+05  3.410974E+05  2.331226E+05  3.044873E+05  1.073886E+05  3.675033E+04
       179   1 -1.762257E+05 -8.979126E+05 -1.783677E+05  9.493517E+04 -6.324750E+03 -2.640934E+04
       179   2 -1.154262E+05 -7.345629E+05 -1.219983E+05  4.220569E+04 -1.746629E+04 -1.041423E+04
       179   3 -7.725192E+04 -5.784563E+05 -8.162786E+04  8.532467E+04 -1.195913E+04  5.606692E+03
       179   4 -1.799124E+04 -2.634390E+05 -2.222033E+04  8.765435E+04 -6.340859E+03 -1.429763E+04
       179   5  1.696957E+03 -2.606901E+05 -1.056049E+04  3.974415E+04 -1.746743E+04 -8.673787E+03
       179   6  5.729674E+02 -2.634005E+05 -7.683141E+03  8.767924E+04 -1.195069E+04 -3.028506E+03
       179   7  1.402135E+05  3.714016E+05  1.338979E+05  8.036617E+04 -6.357245E+03 -2.173541E+03
       179   8  1.188041E+05  2.133896E+05  1.008619E+05  3.728077E+04 -1.746859E+04 -6.932023E+03
       179   9  7.839085E+04  5.174689E+04  6.625506E+04  9.003502E+04 -1.194232E+04 -1.166806E+04
       179  10 -1.762259E+05 -8.979134E+05 -1.783691E+05  9.493503E+04 -1.798599E-10 -1.316699E-09
       179  11 -1.154265E+05 -7.345631E+05 -1.219990E+05  4.220554E+04  1.259569E-09  3.263204E-09
       179  12 -7.725208E+04 -5.784563E+05 -8.162818E+04  8.532473E+04 -5.104503E-11  1.725576E-09
       179  13 -1.799134E+04 -2.634393E+05 -2.222079E+04  8.765427E+04 -1.153562E-09 -5.461039E-09
       179  14  1.696609E+03 -2.606903E+05 -1.056121E+04  3.974402E+04 -2.813731E-09 -1.522513E-09
       179  15  5.728116E+02 -2.634006E+05 -7.683427E+03  8.767921E+04 -2.392648E-09 -4.515395E-09
       179  16  1.402135E+05  3.714016E+05  1.338978E+05  8.036615E+04 -7.161747E-10  8.344319E-10
       179  17  1.188037E+05  2.133895E+05  1.008612E+05  3.728067E+04 -2.351427E-09 -3.703371E-09
       179  18  7.839066E+04  5.174671E+04  6.625454E+04  9.003491E+04 -3.072399E-09 -1.093556E-09
       179  19 -1.762257E+05 -8.979126E+05 -1.783677E+05  9.493517E+04  6.324750E+03  2.640934E+04
       179  20 -1.154262E+05 -7.345629E+05 -1.219983E+05  4.220569E+04  1.746629E+04  1.041423E+04
       179  21 -7.725192E+04 -5.784563E+05 -8.162786E+04  8.532467E+04  1.195913E+04 -5.606692E+03
       179  22 -1.799124E+04 -2.634390E+05 -2.222033E+04  8.765435E+04  6.340859E+03  1.429763E+04
       179  23  1.696957E+03 -2.606901E+05 -1.056049E+04  3.974415E+04  1.746743E+04  8.673787E+03
       179  24  5.729674E+02 -2.634005E+05 -7.683141E+03  8.767924E+04  1.195069E+04  3.028506E+03
       179  25  1.402135E+05  3.714016E+05  1.338979E+05  8.036617E+04  6.357245E+03  2.173541E+03
       179  26  1.188041E+05  2.133896E+05  1.008619E+05  3.728077E+04  1.746859E+04  6.932023E+03
       179  27  7.839085E+04  5.174689E+04  6.625506E+04  9.003502E+04  1.194232E+04  1.166806E+04
       180   1 -3.666633E+04 -4.044915E+05 -4.043271E+04  8.881381E+04 -5.435042E+03  2.053203E+03
       180   2  4.779027E+03 -2.439737E+05 -2.340986E+03  3.948859E+04  6.718901E+02  5.346388E+03
       180   3  4.124639E+04 -8.485757E+04  3.241040E+04  8.661786E+04  6.731374E+03  8.640557E+03
       180   4 -1.590631E+03 -2.624852E+05 -7.124387E+03  8.780737E+04 -5.431663E+03 -1.772782E+03
       180   5  3.833119E+02 -2.617708E+05 -6.516659E+03  3.957941E+04  6.753446E+02  1.549761E+03
       180   6 -2.624205E+03 -2.624868E+05 -9.268263E+03  8.780640E+04  6.734833E+03  4.872461E+03
       180   7  3.348365E+04 -1.204603E+05  2.618262E+04  8.680069E+04 -5.428272E+03 -5.599638E+03
       180   8 -4.012418E+03 -2.795675E+05 -1.069230E+04  3.967023E+04  6.787979E+02 -2.246757E+03
       180   9 -4.649704E+04 -4.400870E+05 -5.094903E+04  8.899460E+04  6.738277E+03  1.105436E+03
       180  10 -3.666637E+04 -4.044915E+05 -4.043278E+04  8.881382E+04  6.602728E-10  2.527474E-09
       180  11  4.779019E+03 -2.439738E+05 -2.341041E+03  3.948859E+04  1.798608E-09  4.317073E-09
       180  12  4.124632E+04 -8.485766E+04  3.241017E+04  8.661781E+04  1.278100E-09  1.189854E-09
       180  13 -1.590663E+03 -2.624853E+05 -7.124449E+03  8.780736E+04 -1.422480E-09 -5.457261E-09
       180  14  3.833107E+02 -2.617708E+05 -6.516664E+03  3.957941E+04  2.465929E-09 -3.198673E-09
       180  15 -2.624261E+03 -2.624869E+05 -9.268393E+03  8.780637E+04  1.592361E-09  3.409915E-09
       180  16  3.348361E+04 -1.204604E+05  2.618250E+04  8.680067E+04 -8.611381E-10 -2.499210E-09
       180  17 -4.012420E+03 -2.795675E+05 -1.069231E+04  3.967023E+04  6.081174E-10 -5.102045E-09
       180  18 -4.649709E+04 -4.400870E+05 -5.094912E+04  8.899459E+04  4.333743E-10  1.354656E-09
       180  19 -3.666633E+04 -4.044915E+05 -4.043271E+04  8.881381E+04  5.435042E+03 -2.053203E+03
       180  20  4.779027E+03 -2.439737E+05 -2.340986E+03  3.948859E+04 -6.718901E+02 -5.346388E+03
       180  21  4.124639E+04 -8.485757E+04  3.241040E+04  8.661786E+04 -6.731374E+03 -8.640557E+03
       180  22 -1.590631E+03 -2.624852E+05 -7.124387E+03  8.780737E+04  5.431663E+03  1.772782E+03
       180  23  3.833119E+02 -2.617708E+05 -6.516659E+03  3.957941E+04 -6.753446E+02 -1.549761E+03
       180  24 -2.624205E+03 -2.624868E+05 -9.268263E+03  8.780640E+04 -6.734833E+03 -4.872461E+03
       180  25  3.348365E+04 -1.204603E+05  2.618262E+04  8.680069E+04  5.428272E+03  5.599638E+03
       180  26 -4.012418E+03 -2.795675E+05 -1.069230E+04  3.967023E+04 -6.787979E+02  2.246757E+03
       180  27 -4.649704E+04 -4.400870E+05 -5.094903E+04  8.899460E+04 -6.738277E+03 -1.105436E+03
       181   1  8.785722E+04  8.656415E+04  7.150394E+04  9.157884E+04  1.334435E+04  1.540539E+04
       181   2  1.287016E+05  2.499091E+05  1.033825E+05  3.598578E+04  1.878566E+04  1.329318E+04
       181   3  1.379479E+05  4.061715E+05  1.288424E+05  7.617200E+04  6.762720E+03  1.115718E+04
       181   4  1.256105E+03 -2.641928E+05 -1.076400E+04  8.767109E+04  1.335320E+04  6.557007E+03
       181   5  2.815537E+03 -2.597118E+05 -1.638515E+04  3.975700E+04  1.878424E+04  1.534002E+04
       181   6 -2.912736E+04 -2.642355E+05 -3.599708E+04  8.762879E+04  6.744619E+03  2.409951E+04
       181   7 -8.535366E+04 -6.148362E+05 -9.304004E+04  8.376558E+04  1.336217E+04 -2.286410E+03
       181   8 -1.230890E+05 -7.690936E+05 -1.361706E+05  4.352516E+04  1.878284E+04  1.738519E+04
       181   9 -1.962355E+05 -9.342330E+05 -2.008690E+05  9.907331E+04  6.726987E+03  3.702788E+04
       181  10  8.785697E+04  8.656385E+04  7.150316E+04  9.157867E+04  1.617528E-09  4.288922E-09
       181  11  1.287012E+05  2.499088E+05  1.033815E+05  3.598558E+04 -2.196571E-10  5.363748E-09
       181  12  1.379479E+05  4.061713E+05  1.288421E+05  7.617194E+04 -1.020013E-09  2.299918E-09
       181  13  1.255903E+03 -2.641929E+05 -1.076441E+04  8.767102E+04  2.692437E-09  7.745860E-10
       181  14  2.815094E+03 -2.597121E+05 -1.638625E+04  3.975676E+04 -2.783047E-10 -1.425753E-09
       181  15 -2.912756E+04 -2.642361E+05 -3.599826E+04  8.762866E+04 -3.059635E-10  1.499046E-09
       181  16 -8.535386E+04 -6.148362E+05 -9.304039E+04  8.376561E+04  1.597197E-09  1.807211E-09
       181  17 -1.230895E+05 -7.690940E+05 -1.361718E+05  4.352490E+04  6.165113E-10 -3.731111E-09
       181  18 -1.962359E+05 -9.342344E+05 -2.008717E+05  9.907311E+04 -1.180671E-09 -1.565675E-09
       181  19  8.785722E+04  8.656415E+04  7.150394E+04  9.157884E+04 -1.334435E+04 -1.540539E+04
       181  20  1.287016E+05  2.499091E+05  1.033825E+05  3.598578E+04 -1.878566E+04 -1.329318E+04
       181  21  1.379479E+05  4.061715E+05  1.288424E+05  7.617200E+04 -6.762720E+03 -1.115718E+04
       181  22  1.256105E+03 -2.641928E+05 -1.076400E+04  8.767109E+04 -1.335320E+04 -6.557007E+03
       181  23  2.815537E+03 -2.597118E+05 -1.638515E+04  3.975700E+04 -1.878424E+04 -1.534002E+04
       181  24 -2.912736E+04 -2.642355E+05 -3.599708E+04  8.762879E+04 -6.744619E+03 -2.409951E+04
       181  25 -8.535366E+04 -6.148362E+05 -9.304004E+04  8.376558E+04 -1.336217E+04  2.286410E+03
       181  26 -1.230890E+05 -7.690936E+05 -1.361706E+05  4.352516E+04 -1.878284E+04 -1.738519E+04
       181  27 -1.962355E+05 -9.342330E+05 -2.008690E+05  9.907331E+04 -6.726987E+03 -3.702788E+04
       182   1  2.978015E+05  1.428148E+05  1.306225E+05  3.799233E+04  3.169571E+04 -9.748404E+03
       182   2  2.433057E+05  1.465301E+05  1.071034E+05  4.316397E+04  1.111553E+04 -3.274624E+04
       182   3  1.884966E+05  1.381699E+05  9.397661E+04  5.891093E+04 -9.471430E+03 -3.933878E+04
       182   4 -4.056121E+05 -3.075176E+04 -3.393499E+04  5.711985E+04 -2.369439E+04 -9.788965E+03
       182   5 -4.029075E+05 -7.441015E+03 -1.658464E+04  5.181887E+04 -1.512792E+04 -3.277106E+04
       182   6 -4.055839E+05 -1.274076E+03 -9.085447E+03  5.709383E+04 -6.570482E+03 -3.933934E+04
       182   7 -1.108562E+06 -2.043504E+05 -1.985145E+05  7.622546E+04 -7.902215E+04 -9.832964E+03
       182   8 -1.048717E+06 -1.614361E+05 -1.402891E+05  6.046447E+04 -4.134470E+04 -3.279663E+04
       182   9 -9.993183E+05 -1.407371E+05 -1.121598E+05  5.527842E+04 -3.672222E+03 -3.933991E+04
       182  10  2.978004E+05  1.428145E+05  1.306204E+05  3.799258E+04  2.971399E-08 -2.757654E-10
       182  11  2.433053E+05  1.465289E+05  1.071012E+05  4.316426E+04 -1.596877E-10 -1.172731E-09
       182  12  1.884961E+05  1.381682E+05  9.397353E+04  5.891063E+04 -3.223154E-08 -5.572146E-10
       182  13 -4.056127E+05 -3.075202E+04 -3.393623E+04  5.711966E+04 -8.930941E-10  3.998941E-10
       182  14 -4.029081E+05 -7.442230E+03 -1.658709E+04  5.181847E+04  2.133056E-10 -2.387036E-10
       182  15 -4.055844E+05 -1.275750E+03 -9.088436E+03  5.709362E+04  1.400650E-09  1.503182E-09
       182  16 -1.108569E+06 -2.043522E+05 -1.985264E+05  7.622483E+04 -3.201127E-08  9.507540E-11
       182  17 -1.048719E+06 -1.614378E+05 -1.402944E+05  6.046337E+04  5.202497E-10 -1.786377E-09
       182  18 -9.993187E+05 -1.407387E+05 -1.121627E+05  5.527830E+04  3.278290E-08 -1.149901E-09
       182  19  2.978015E+05  1.428148E+05  1.306225E+05  3.799233E+04 -3.169571E+04  9.748404E+03
       182  20  2.433057E+05  1.465301E+05  1.071034E+05  4.316397E+04 -1.111553E+04  3.274624E+04
       182  21  1.884966E+05  1.381699E+05  9.397661E+04  5.891093E+04  9.471430E+03  3.933878E+04
       182  22 -4.056121E+05 -3.075176E+04 -3.393499E+04  5.711985E+04  2.369439E+04  9.788965E+03
       182  23 -4.029075E+05 -7.441015E+03 -1.658464E+04  5.181887E+04  1.512792E+04  3.277106E+04
       182  24 -4.055839E+05 -1.274076E+03 -9.085447E+03  5.709383E+04  6.570482E+03  3.933934E+04
       182  25 -1.108562E+06 -2.043504E+05 -1.985145E+05  7.622546E+04  7.902215E+04  9.832964E+03
       182  26 -1.048717E+06 -1.614361E+05 -1.402891E+05  6.046447E+04  4.134470E+04  3.279663E+04
       182  27 -9.993183E+05 -1.407371E+05 -1.121598E+05  5.527842E+04  3.672222E+03  3.933991E+04
       183   1  1.535364E+05  1.292661E+05  8.870584E+04  5.710944E+04 -6.848335E+03 -3.799576E+04
       183   2  9.892581E+04  1.171873E+05  7.995417E+04  5.169296E+04 -7.753568E+03 -3.639164E+04
       183   3  4.431255E+04  1.046369E+05  7.167365E+04  5.796516E+04 -8.661365E+03 -3.321248E+04
       183   4 -4.044898E+05 -1.471526E+03 -6.893831E+03  5.734411E+04 -5.392460E+03 -3.799736E+04
       183   5 -4.042351E+05 -2.088223E+02 -3.788281E+03  5.149856E+04 -3.501177E+03 -3.638967E+04
       183   6 -4.044710E+05  9.659968E+01 -2.154193E+03  5.734231E+04 -1.612489E+03 -3.320629E+04
       183   7 -9.622100E+05 -1.322257E+05 -1.025039E+05  5.757848E+04 -3.937852E+03 -3.799896E+04
       183   8 -9.071459E+05 -1.176181E+05 -8.753836E+04  5.130425E+04  7.478830E+02 -3.638769E+04
       183   9 -8.530551E+05 -1.044541E+05 -7.598773E+04  5.671986E+04  5.431467E+03 -3.320010E+04
       183  10  1.535360E+05  1.292645E+05  8.870304E+04  5.710923E+04 -2.529851E-09 -6.206684E-10
       183  11  9.892539E+04  1.171859E+05  7.995157E+04  5.169273E+04 -2.741618E-09  1.101894E-09
       183  12  4.431217E+04  1.046357E+05  7.167144E+04  5.796493E+04 -2.699982E-09  1.521041E-09
       183  13 -4.044903E+05 -1.473084E+03 -6.896598E+03  5.734395E+04  5.010142E-10  1.467403E-10
       183  14 -4.042354E+05 -2.102473E+02 -3.790792E+03  5.149846E+04  1.882776E-09  3.218379E-10
       183  15 -4.044713E+05  9.541515E+01 -2.156270E+03  5.734227E+04  3.519978E-09 -1.347809E-09
       183  16 -9.622104E+05 -1.322273E+05 -1.025067E+05  5.757836E+04  4.353483E-09  1.496293E-09
       183  17 -9.071462E+05 -1.176195E+05 -8.754085E+04  5.130427E+04  5.802708E-10  9.338401E-10
       183  18 -8.530554E+05 -1.044553E+05 -7.598986E+04  5.672001E+04  5.580943E-09  8.107485E-11
       183  19  1.535364E+05  1.292661E+05  8.870584E+04  5.710944E+04  6.848335E+03  3.799576E+04
       183  20  9.892581E+04  1.171873E+05  7.995417E+04  5.169296E+04  7.753568E+03  3.639164E+04
       183  21  4.431255E+04  1.046369E+05  7.167365E+04  5.796516E+04  8.661365E+03  3.321248E+04
       183  22 -4.044898E+05 -1.471526E+03 -6.893831E+03  5.734411E+04  5.392460E+03  3.799736E+04
       183  23 -4.042351E+05 -2.088223E+02 -3.788281E+03  5.149856E+04  3.501177E+03  3.638967E+04
       183  24 -4.044710E+05  9.659968E+01 -2.154193E+03  5.734231E+04  1.612489E+03  3.320629E+04
       183  25 -9.622100E+05 -1.322257E+05 -1.025039E+05  5.757848E+04  3.937852E+03  3.799896E+04
       183  26 -9.071459E+05 -1.176181E+05 -8.753836E+04  5.130425E+04 -7.478830E+02  3.638769E+04
       183  27 -8.530551E+05 -1.044541E+05 -7.598773E+04  5.671986E+04 -5.431467E+03  3.320010E+04
       184   1  9.082875E+03  9.633281E+04  6.607493E+04  5.782955E+04 -8.197781E+03 -3.086460E+04
       184   2 -4.556971E+04  8.362363E+04  5.768762E+04  5.187364E+04 -8.008213E+03 -2.689637E+04
       184   3 -1.002612E+05  7.093784E+04  4.917640E+04  5.772530E+04 -7.819853E+03 -2.277569E+04
       184   4 -4.043759E+05  8.065344E+01 -1.636613E+03  5.736892E+04 -1.285075E+03 -3.085795E+04
       184   5 -4.043248E+05  1.296431E+02 -9.365386E+02  5.146488E+04 -8.253128E+02 -2.688851E+04
       184   6 -4.043626E+05  1.551617E+02 -5.483209E+02  5.736882E+04 -3.667432E+02 -2.276657E+04
       184   7 -8.176652E+05 -9.618024E+04 -6.935288E+04  5.690855E+04  5.623186E+03 -3.085131E+04
       184   8 -7.629522E+05 -8.337090E+04 -5.956417E+04  5.105633E+04  6.353580E+03 -2.688065E+04
       184   9 -7.083723E+05 -7.063222E+04 -5.027547E+04  5.701249E+04  7.082842E+03 -2.275745E+04
       184  10  9.082548E+03  9.633177E+04  6.607301E+04  5.782935E+04 -1.462885E-09  1.427615E-09
       184  11 -4.556997E+04  8.362284E+04  5.768614E+04  5.187346E+04 -1.612276E-08  5.767826E-10
       184  12 -1.002614E+05  7.093727E+04  4.917531E+04  5.772516E+04 -2.905062E-08  3.284353E-10
       184  13 -4.043761E+05  7.963068E+01 -1.638405E+03  5.736889E+04  3.049044E-09 -3.041890E-09
       184  14 -4.043250E+05  1.288667E+02 -9.378983E+02  5.146486E+04 -7.530903E-10 -4.101692E-09
       184  15 -4.043628E+05  1.546052E+02 -5.492949E+02  5.736882E+04  2.438005E-09 -5.063907E-09
       184  16 -8.176654E+05 -9.618127E+04 -6.935473E+04  5.690869E+04  2.496364E-09  6.826056E-10
       184  17 -7.629525E+05 -8.337169E+04 -5.956560E+04  5.105647E+04  1.631560E-08  1.881609E-09
       184  18 -7.083725E+05 -7.063279E+04 -5.027654E+04  5.701262E+04  2.893974E-08  2.202950E-09
       184  19  9.082875E+03  9.633281E+04  6.607493E+04  5.782955E+04  8.197781E+03  3.086460E+04
       184  20 -4.556971E+04  8.362363E+04  5.768762E+04  5.187364E+04  8.008213E+03  2.689637E+04
       184  21 -1.002612E+05  7.093784E+04  4.917640E+04  5.772530E+04  7.819853E+03  2.277569E+04
       184  22 -4.043759E+05  8.065344E+01 -1.636613E+03  5.736892E+04  1.285075E+03  3.085795E+04
       184  23 -4.043248E+05  1.296431E+02 -9.365386E+02  5.146488E+04  8.253128E+02  2.688851E+04
       184  24 -4.043626E+05  1.551617E+02 -5.483209E+02  5.736882E+04  3.667432E+02  2.276657E+04
       184  25 -8.176652E+05 -9.618024E+04 -6.935288E+04  5.690855E+04 -5.623186E+03  3.085131E+04
       184  26 -7.629522E+05 -8.337090E+04 -5.956417E+04  5.105633E+04 -6.353580E+03  2.688065E+04
       184  27 -7.083723E+05 -7.063222E+04 -5.027547E+04  5.701249E+04 -7.082842E+03  2.275745E+04
       185   1 -1.355334E+05  6.268227E+04  4.330471E+04  5.768406E+04 -7.723499E+03 -2.032906E+04
       185   2 -1.902324E+05  4.996051E+04  3.462895E+04  5.170459E+04 -7.619643E+03 -1.613088E+04
       185   3 -2.449675E+05  3.727333E+04  2.588438E+04  5.755283E+04 -7.516437E+03 -1.191802E+04
       185   4 -4.043489E+05  1.563802E+02 -4.264777E+02  5.737328E+04 -2.818162E+02 -2.031952E+04
       185   5 -4.043227E+05  1.474773E+02 -2.728511E+02  5.145930E+04 -1.522933E+02 -1.612077E+04
       185   6 -4.043410E+05  1.685673E+02 -2.062774E+02  5.737327E+04 -2.341182E+01 -1.190731E+04
       185   7 -6.730925E+05 -6.237316E+04 -4.415949E+04  5.706261E+04  7.156756E+03 -2.030999E+04
       185   8 -6.183675E+05 -4.966787E+04 -3.517574E+04  5.121408E+04  7.312570E+03 -1.611065E+04
       185   9 -5.636892E+05 -3.693746E+04 -2.629745E+04  5.719374E+04  7.467756E+03 -1.189662E+04
       185  10 -1.355336E+05  6.268181E+04  4.330383E+04  5.768393E+04  6.067667E-08  1.100967E-09
       185  11 -1.902325E+05  4.996021E+04  3.462835E+04  5.170449E+04  2.021694E-08  4.192355E-09
       185  12 -2.449676E+05  3.727316E+04  2.588401E+04  5.755276E+04 -2.674059E-08  4.171200E-09
       185  13 -4.043490E+05  1.559369E+02 -4.272536E+02  5.737327E+04  6.578965E-10 -6.323384E-09
       185  14 -4.043228E+05  1.471983E+02 -2.733394E+02  5.145930E+04 -4.658229E-10 -2.913921E-11
       185  15 -4.043410E+05  1.684151E+02 -2.065438E+02  5.737327E+04  1.986363E-09  9.558708E-10
       185  16 -6.730927E+05 -6.237362E+04 -4.416036E+04  5.706273E+04 -5.958791E-08  3.040131E-09
       185  17 -6.183676E+05 -4.966816E+04 -3.517632E+04  5.121418E+04 -1.700268E-08  3.524130E-09
       185  18 -5.636893E+05 -3.693763E+04 -2.629782E+04  5.719382E+04  2.862337E-08  1.645394E-09
       185  19 -1.355334E+05  6.268227E+04  4.330471E+04  5.768406E+04  7.723499E+03  2.032906E+04
       185  20 -1.902324E+05  4.996051E+04  3.462895E+04  5.170459E+04  7.619643E+03  1.613088E+04
       185  21 -2.449675E+05  3.727333E+04  2.588438E+04  5.755283E+04  7.516437E+03  1.191802E+04
       185  22 -4.043489E+05  1.563802E+02 -4.264777E+02  5.737328E+04  2.818162E+02  2.031952E+04
       185  23 -4.043227E+05  1.474773E+02 -2.728511E+02  5.145930E+04  1.522933E+02  1.612077E+04
       185  24 -4.043410E+05  1.685673E+02 -2.062774E+02  5.737327E+04  2.341182E+01  1.190731E+04
       185  25 -6.730925E+05 -6.237316E+04 -4.415949E+04  5.706261E+04 -7.156756E+03  2.030999E+04
       185  26 -6.183675E+05 -4.966787E+04 -3.517574E+04  5.121408E+04 -7.312570E+03  1.611065E+04
       185  27 -5.636892E+05 -3.693746E+04 -2.629745E+04  5.719374E+04 -7.467756E+03  1.189662E+04
       186   1 -2.802664E+05  2.901633E+04  1.990568E+04  5.751222E+04 -7.483426E+03 -9.460830E+03
       186   2 -3.349799E+05  1.629118E+04  1.106188E+04  5.152282E+04 -7.363360E+03 -5.243473E+03
       186   3 -3.897406E+05  3.594749E+03  2.135010E+03  5.736852E+04 -7.243494E+03 -1.033192E+03
       186   4 -4.043397E+05  1.710255E+02 -1.985270E+02  5.737487E+04  9.883016E+00 -9.449913E+03
       186   5 -4.043149E+05  1.600805E+02 -2.291597E+02  5.145729E+04  1.171160E+02 -5.232399E+03
       186   6 -4.043371E+05  1.804117E+02 -3.338371E+02  5.737486E+04  2.241588E+02 -1.021958E+03
       186   7 -5.283976E+05 -2.867503E+04 -2.030295E+04  5.723755E+04  7.501746E+03 -9.438998E+03
       186   8 -4.736449E+05 -1.597123E+04 -1.152012E+04  5.139176E+04  7.596785E+03 -5.221325E+03
       186   9 -4.189334E+05 -3.233907E+03 -2.802481E+03  5.738121E+04  7.691642E+03 -1.010725E+03
       186  10 -2.802665E+05  2.901622E+04  1.990541E+04  5.751216E+04  4.901933E-09  2.329515E-09
       186  11 -3.349800E+05  1.629113E+04  1.106173E+04  5.152279E+04  4.229952E-09  1.959827E-09
       186  12 -3.897406E+05  3.594734E+03  2.134909E+03  5.736851E+04 -1.795715E-09  6.585146E-10
       186  13 -4.043397E+05  1.709296E+02 -1.986948E+02  5.737487E+04  2.606714E-09  5.398126E-09
       186  14 -4.043149E+05  1.600511E+02 -2.292112E+02  5.145729E+04 -8.440980E-10  2.377055E-09
       186  15 -4.043371E+05  1.804106E+02 -3.338392E+02  5.737486E+04 -1.273544E-10 -4.696205E-10
       186  16 -5.283976E+05 -2.867515E+04 -2.030323E+04  5.723760E+04 -5.541056E-09  2.920526E-09
       186  17 -4.736450E+05 -1.597127E+04 -1.152028E+04  5.139179E+04 -3.751469E-09 -4.771953E-10
       186  18 -4.189335E+05 -3.233924E+03 -2.802595E+03  5.738122E+04  2.321648E-09 -6.419017E-10
       186  19 -2.802664E+05  2.901633E+04  1.990568E+04  5.751222E+04  7.483426E+03  9.460830E+03
       186  20 -3.349799E+05  1.629118E+04  1.106188E+04  5.152282E+04  7.363360E+03  5.243473E+03
       186  21 -3.897406E+05  3.594749E+03  2.135010E+03  5.736852E+04  7.243494E+03  1.033192E+03
       186  22 -4.043397E+05  1.710255E+02 -1.985270E+02  5.737487E+04 -9.883016E+00  9.449913E+03
       186  23 -4.043149E+05  1.600805E+02 -2.291597E+02  5.145729E+04 -1.171160E+02  5.232399E+03
       186  24 -4.043371E+05  1.804117E+02 -3.338371E+02  5.737486E+04 -2.241588E+02  1.021958E+03
       186  25 -5.283976E+05 -2.867503E+04 -2.030295E+04  5.723755E+04 -7.501746E+03  9.438998E+03
       186  26 -4.736449E+05 -1.597123E+04 -1.152012E+04  5.139176E+04 -7.596785E+03  5.221325E+03
       186  27 -4.189334E+05 -3.233907E+03 -2.802481E+03  5.738121E+04 -7.691642E+03  1.010725E+03
       187   1 -4.250554E+05 -4.665595E+03 -3.947436E+03  5.731538E+04 -7.186646E+03  1.420076E+03
       187   2 -4.797313E+05 -1.740501E+04 -1.310352E+04  5.132800E+04 -6.679085E+03  5.586354E+03
       187   3 -5.345202E+05 -3.018087E+04 -2.261128E+04  5.716954E+04 -6.171229E+03  9.660785E+03
       187   4 -4.043462E+05  1.834414E+02 -4.221885E+02  5.737344E+04  2.887325E+02  1.431316E+03
       187   5 -4.043038E+05  1.676125E+02 -7.077788E+02  5.145906E+04  6.329999E+02  5.597159E+03
       187   6 -4.043491E+05  1.438281E+02 -1.231671E+03  5.737350E+04  9.776060E+02  9.671163E+03
       187   7 -3.836364E+05  5.032485E+03  3.103255E+03  5.743151E+04  7.764352E+03  1.442558E+03
       187   8 -3.288706E+05  1.773998E+04  1.168800E+04  5.159013E+04  7.945944E+03  5.607967E+03
       187   9 -2.741611E+05  3.046768E+04  2.014764E+04  5.757751E+04  8.127889E+03  9.681544E+03
       187  10 -4.250555E+05 -4.665611E+03 -3.947536E+03  5.731538E+04 -7.013271E-10  1.620116E-09
       187  11 -4.797313E+05 -1.740506E+04 -1.310367E+04  5.132803E+04  2.670192E-10 -6.991063E-10
       187  12 -5.345202E+05 -3.018098E+04 -2.261153E+04  5.716959E+04 -2.850165E-09  2.628802E-09
       187  13 -4.043462E+05  1.834392E+02 -4.221926E+02  5.737344E+04  7.405237E-10  9.764283E-10
       187  14 -4.043038E+05  1.675788E+02 -7.078384E+02  5.145905E+04  1.456162E-09  1.966000E-10
       187  15 -4.043491E+05  1.437275E+02 -1.231849E+03  5.737350E+04  3.974056E-09  1.770399E-09
       187  16 -3.836365E+05  5.032466E+03  3.103137E+03  5.743150E+04 -1.140002E-09  2.023257E-09
       187  17 -3.288707E+05  1.773993E+04  1.168782E+04  5.159010E+04 -9.118252E-10 -3.146485E-09
       187  18 -2.741612E+05  3.046756E+04  2.014734E+04  5.757745E+04  4.202280E-09 -4.745555E-10
       187  19 -4.250554E+05 -4.665595E+03 -3.947436E+03  5.731538E+04  7.186646E+03 -1.420076E+03
       187  20 -4.797313E+05 -1.740501E+04 -1.310352E+04  5.132800E+04  6.679085E+03 -5.586354E+03
       187  21 -5.345202E+05 -3.018087E+04 -2.261128E+04  5.716954E+04  6.171229E+03 -9.660785E+03
       187  22 -4.043462E+05  1.834414E+02 -4.221885E+02  5.737344E+04 -2.887325E+02 -1.431316E+03
       187  23 -4.043038E+05  1.676125E+02 -7.077788E+02  5.145906E+04 -6.329999E+02 -5.597159E+03
       187  24 -4.043491E+05  1.438281E+02 -1.231671E+03  5.737350E+04 -9.776060E+02 -9.671163E+03
       187  25 -3.836364E+05  5.032485E+03  3.103255E+03  5.743151E+04 -7.764352E+03 -1.442558E+03
       187  26 -3.288706E+05  1.773998E+04  1.168800E+04  5.159013E+04 -7.945944E+03 -5.607967E+03
       187  27 -2.741611E+05  3.046768E+04  2.014764E+04  5.757751E+04 -8.127889E+03 -9.681544E+03
       188   1 -5.699282E+05 -3.845234E+04 -2.907110E+04  5.700865E+04 -6.009828E+03  1.205548E+04
       188   2 -6.242934E+05 -5.149707E+04 -3.978631E+04  5.140755E+04 -2.896990E+03  1.565648E+04
       188   3 -6.793463E+05 -6.554631E+04 -5.279046E+04  5.756763E+04  2.172999E+02  1.830057E+04
       188   4 -4.044196E+05  1.591397E+02 -1.619849E+03  5.735819E+04  1.222133E+03  1.206576E+04
       188   5 -4.042258E+05 -6.911673E+01 -2.844194E+03  5.147855E+04  2.637025E+03  1.566383E+04
       188   6 -4.044281E+05 -1.006762E+03 -5.177500E+03  5.735985E+04  4.053659E+03  1.830516E+04
       188   7 -2.388839E+05  3.876923E+04  2.583078E+04  5.770781E+04  8.455958E+03  1.207605E+04
       188   8 -1.841103E+05  5.135632E+04  3.409652E+04  5.154955E+04  8.172939E+03  1.567118E+04
       188   9 -1.294357E+05  6.352872E+04  4.243290E+04  5.715195E+04  7.891666E+03  1.830975E+04
       188  10 -5.699283E+05 -3.845251E+04 -2.907144E+04  5.700871E+04 -3.942634E-09  4.889793E-09
       188  11 -6.242935E+05 -5.149734E+04 -3.978679E+04  5.140759E+04  9.437062E-10  5.247518E-10
       188  12 -6.793464E+05 -6.554667E+04 -5.279109E+04  5.756763E+04  4.537747E-09  2.622591E-09
       188  13 -4.044197E+05  1.589830E+02 -1.620125E+03  5.735817E+04  3.946542E-09  3.200976E-09
       188  14 -4.042259E+05 -6.938202E+01 -2.844668E+03  5.147851E+04  1.970191E-09  3.095929E-09
       188  15 -4.044282E+05 -1.007126E+03 -5.178161E+03  5.735979E+04  3.377415E-09 -9.806206E-10
       188  16 -2.388840E+05  3.876905E+04  2.583037E+04  5.770772E+04  2.734131E-09  1.459678E-09
       188  17 -1.841105E+05  5.135604E+04  3.409593E+04  5.154945E+04 -1.214801E-10  1.072415E-09
       188  18 -1.294359E+05  6.352834E+04  4.243215E+04  5.715184E+04 -5.496328E-09 -3.865008E-09
       188  19 -5.699282E+05 -3.845234E+04 -2.907110E+04  5.700865E+04  6.009828E+03 -1.205548E+04
       188  20 -6.242934E+05 -5.149707E+04 -3.978631E+04  5.140755E+04  2.896990E+03 -1.565648E+04
       188  21 -6.793463E+05 -6.554631E+04 -5.279046E+04  5.756763E+04 -2.172999E+02 -1.830057E+04
       188  22 -4.044196E+05  1.591397E+02 -1.619849E+03  5.735819E+04 -1.222133E+03 -1.206576E+04
       188  23 -4.042258E+05 -6.911673E+01 -2.844194E+03  5.147855E+04 -2.637025E+03 -1.566383E+04
       188  24 -4.044281E+05 -1.006762E+03 -5.177500E+03  5.735985E+04 -4.053659E+03 -1.830516E+04
       188  25 -2.388839E+05  3.876923E+04  2.583078E+04  5.770781E+04 -8.455958E+03 -1.207605E+04
       188  26 -1.841103E+05  5.135632E+04  3.409652E+04  5.154955E+04 -8.172939E+03 -1.567118E+04
       188  27 -1.294357E+05  6.352872E+04  4.243290E+04  5.715195E+04 -7.891666E+03 -1.830975E+04
       189   1 -7.159490E+05 -7.394077E+04 -6.132836E+04  5.584521E+04  2.230847E+02  2.008395E+04
       189   2 -7.671246E+05 -9.240508E+04 -8.295926E+04  5.813124E+04  2.433667E+04  1.778520E+04
       189   3 -8.254530E+05 -1.268288E+05 -1.242935E+05  7.150960E+04  4.845897E+04  5.513145E+03
       189   4 -4.052497E+05 -8.557833E+02 -6.823720E+03  5.720790E+04  4.936770E+03  2.008946E+04
       189   5 -4.032199E+05 -5.493878E+03 -1.245333E+04  5.167583E+04  1.135799E+04  1.776734E+04
       189   6 -4.052670E+05 -2.301227E+04 -2.548762E+04  5.723651E+04  1.779020E+04  5.474001E+03
       189   7 -9.445585E+04  7.222395E+04  4.767753E+04  5.857127E+04  9.652746E+03  2.009498E+04
       189   8 -3.918732E+04  8.140967E+04  5.804705E+04  4.521650E+04 -1.628139E+03  1.774976E+04
       189   9  1.508415E+04  8.079291E+04  7.330976E+04  4.295363E+04 -1.289922E+04  5.436283E+03
       189  10 -7.159491E+05 -7.394120E+04 -6.132912E+04  5.584521E+04 -1.258467E-09  2.334141E-09
       189  11 -7.671253E+05 -9.240558E+04 -8.296096E+04  5.813089E+04  2.452030E-09  1.977475E-10
       189  12 -8.254555E+05 -1.268294E+05 -1.242979E+05  7.150939E+04  1.752143E-09 -1.074088E-10
       189  13 -4.052499E+05 -8.562231E+02 -6.824524E+03  5.720783E+04  1.462017E-09  1.254222E-09
       189  14 -4.032201E+05 -5.494252E+03 -1.245416E+04  5.167567E+04  1.689609E-09 -3.019829E-09
       189  15 -4.052674E+05 -2.301238E+04 -2.548827E+04  5.723643E+04  1.418173E-09  1.736813E-09
       189  16 -9.445606E+04  7.222350E+04  4.767659E+04  5.857111E+04  1.503238E-09 -6.088359E-10
       189  17 -3.918741E+04  8.140933E+04  5.804645E+04  4.521652E+04  1.115243E-09  4.748565E-10
       189  18  1.508396E+04  8.079283E+04  7.330939E+04  4.295368E+04 -1.012317E-09 -1.952259E-10
       189  19 -7.159490E+05 -7.394077E+04 -6.132836E+04  5.584521E+04 -2.230847E+02 -2.008395E+04
       189  20 -7.671246E+05 -9.240508E+04 -8.295926E+04  5.813124E+04 -2.433667E+04 -1.778520E+04
       189  21 -8.254530E+05 -1.268288E+05 -1.242935E+05  7.150960E+04 -4.845897E+04 -5.513145E+03
       189  22 -4.052497E+05 -8.557833E+02 -6.823720E+03  5.720790E+04 -4.936770E+03 -2.008946E+04
       189  23 -4.032199E+05 -5.493878E+03 -1.245333E+04  5.167583E+04 -1.135799E+04 -1.776734E+04
       189  24 -4.052670E+05 -2.301227E+04 -2.548762E+04  5.723651E+04 -1.779020E+04 -5.474001E+03
       189  25 -9.445585E+04  7.222395E+04  4.767753E+04  5.857127E+04 -9.652746E+03 -2.009498E+04
       189  26 -3.918732E+04  8.140967E+04  5.804705E+04  4.521650E+04  1.628139E+03 -1.774976E+04
       189  27  1.508415E+04  8.079291E+04  7.330976E+04  4.295363E+04  1.289922E+04 -5.436283E+03
       190   1 -1.737137E+05  6.172520E+04  4.318190E+04 -4.864604E+03 -4.658067E+04 -5.922614E+03
       190   2 -2.016288E+05  1.260207E+05  7.572659E+04  1.294177E+03 -3.424078E+04 -1.798186E+04
       190   3 -2.502517E+05  1.135275E+05  8.107214E+04  3.011576E+04 -2.191770E+04 -1.748594E+04
       190   4 -6.946441E+05 -6.801859E+04 -8.471406E+04  1.987152E+04 -5.799599E+04 -5.938796E+03
       190   5 -6.835851E+05  6.959240E+03 -3.753035E+04  8.491383E+03 -3.783789E+04 -1.798844E+04
       190   6 -6.946115E+05  3.756681E+03 -2.299534E+04  1.977576E+04 -1.769552E+04 -1.747930E+04
       190   7 -1.215326E+06 -1.977801E+05 -2.126291E+05  4.458677E+04 -6.940174E+04 -5.955896E+03
       190   8 -1.165327E+06 -1.121186E+05 -1.508032E+05  1.568289E+04 -4.143221E+04 -1.799512E+04
       190   9 -1.138789E+06 -1.060278E+05 -1.270762E+05  9.443125E+03 -1.347633E+04 -1.747280E+04
       190  10 -1.737160E+05  6.172458E+04  4.317775E+04 -4.864826E+03 -2.181108E-09  1.950378E-09
       190  11 -2.016302E+05  1.260201E+05  7.572378E+04  1.293681E+03  1.159573E-09  4.988731E-09
       190  12 -2.502523E+05  1.135270E+05  8.107066E+04  3.011545E+04  2.967868E-09  1.603949E-09
       190  13 -6.946477E+05 -6.801953E+04 -8.472046E+04  1.987124E+04 -1.650636E-09 -2.042997E-09
       190  14 -6.835867E+05  6.958508E+03 -3.753365E+04  8.490835E+03  8.417359E-10 -4.278552E-09
       190  15 -6.946119E+05  3.756269E+03 -2.299650E+04  1.977551E+04  1.137143E-09  3.379316E-10
       190  16 -1.215331E+06 -1.977815E+05 -2.126383E+05  4.458643E+04 -2.192917E-10  1.041134E-09
       190  17 -1.165329E+06 -1.121194E+05 -1.508070E+05  1.568229E+04 -3.732649E-09  4.302936E-09
       190  18 -1.138789E+06 -1.060281E+05 -1.270771E+05  9.442936E+03 -2.856992E-09 -6.669090E-10
       190  19 -1.737137E+05  6.172520E+04  4.318190E+04 -4.864604E+03  4.658067E+04  5.922614E+03
       190  20 -2.016288E+05  1.260207E+05  7.572659E+04  1.294177E+03  3.424078E+04  1.798186E+04
       190  21 -2.502517E+05  1.135275E+05  8.107214E+04  3.011576E+04  2.191770E+04  1.748594E+04
       190  22 -6.946441E+05 -6.801859E+04 -8.471406E+04  1.987152E+04  5.799599E+04  5.938796E+03
       190  23 -6.835851E+05  6.959240E+03 -3.753035E+04  8.491383E+03  3.783789E+04  1.798844E+04
       190  24 -6.946115E+05  3.756681E+03 -2.299534E+04  1.977576E+04  1.769552E+04  1.747930E+04
       190  25 -1.215326E+06 -1.977801E+05 -2.126291E+05  4.458677E+04  6.940174E+04  5.955896E+03
       190  26 -1.165327E+06 -1.121186E+05 -1.508032E+05  1.568289E+04  4.143221E+04  1.799512E+04
       190  27 -1.138789E+06 -1.060278E+05 -1.270762E+05  9.443125E+03  1.347633E+04  1.747280E+04
       191   1 -2.877422E+05  9.354908E+04  7.602506E+04  1.864051E+04 -1.461208E+04 -1.483173E+04
       191   2 -3.255887E+05  9.045847E+04  7.558849E+04  8.292458E+03 -1.013616E+04 -1.385286E+04
       191   3 -3.657266E+05  8.059640E+04  7.054132E+04  2.146936E+04 -5.662992E+03 -1.213771E+04
       191   4 -6.902273E+05 -5.915002E+03 -1.863385E+04  2.000477E+04 -1.422999E+04 -1.483173E+04
       191   5 -6.890349E+05  6.720970E+02 -9.703546E+03  8.235802E+03 -9.297678E+03 -1.385176E+04
       191   6 -6.902170E+05  4.059841E+02 -5.703341E+03  1.999276E+04 -4.367846E+03 -1.213532E+04
       191   7 -1.092563E+06 -1.053906E+05 -1.133039E+05  2.136807E+04 -1.384813E+04 -1.483173E+04
       191   8 -1.052359E+06 -8.912368E+04 -9.500462E+04  8.179120E+03 -8.459679E+03 -1.385066E+04
       191   9 -1.014610E+06 -7.979194E+04 -8.195522E+04  1.851688E+04 -3.073372E+03 -1.213294E+04
       191  10 -2.877424E+05  9.354878E+04  7.602425E+04  1.864033E+04  6.885300E-09 -1.550875E-09
       191  11 -3.255888E+05  9.045823E+04  7.558793E+04  8.292345E+03  4.072350E-10  2.793492E-09
       191  12 -3.657267E+05  8.059624E+04  7.054098E+04  2.146931E+04 -6.163129E-09  4.365660E-09
       191  13 -6.902276E+05 -5.915293E+03 -1.863465E+04  2.000460E+04 -5.227994E-10  4.536729E-09
       191  14 -6.890351E+05  6.718678E+02 -9.704069E+03  8.235699E+03  4.537299E-10 -1.209155E-08
       191  15 -6.902171E+05  4.058209E+02 -5.703653E+03  1.999272E+04  3.294193E-10  6.220435E-09
       191  16 -1.092563E+06 -1.053909E+05 -1.133047E+05  2.136790E+04 -4.506473E-09 -5.610507E-09
       191  17 -1.052360E+06 -8.912391E+04 -9.500512E+04  8.179025E+03 -7.898443E-10 -4.357163E-09
       191  18 -1.014610E+06 -7.979210E+04 -8.195551E+04  1.851685E+04  5.679924E-09  5.733956E-10
       191  19 -2.877422E+05  9.354908E+04  7.602506E+04  1.864051E+04  1.461208E+04  1.483173E+04
       191  20 -3.255887E+05  9.045847E+04  7.558849E+04  8.292458E+03  1.013616E+04  1.385286E+04
       191  21 -3.657266E+05  8.059640E+04  7.054132E+04  2.146936E+04  5.662992E+03  1.213771E+04
       191  22 -6.902273E+05 -5.915002E+03 -1.863385E+04  2.000477E+04  1.422999E+04  1.483173E+04
       191  23 -6.890349E+05  6.720970E+02 -9.703546E+03  8.235802E+03  9.297678E+03  1.385176E+04
       191  24 -6.902170E+05  4.059841E+02 -5.703341E+03  1.999276E+04  4.367846E+03  1.213532E+04
       191  25 -1.092563E+06 -1.053906E+05 -1.133039E+05  2.136807E+04  1.384813E+04  1.483173E+04
       191  26 -1.052359E+06 -8.912368E+04 -9.500462E+04  8.179120E+03  8.459679E+03  1.385066E+04
       191  27 -1.014610E+06 -7.979194E+04 -8.195522E+04  1.851688E+04  3.073372E+03  1.213294E+04
       192   1 -4.078627E+05  6.919557E+04  6.161269E+04  2.047433E+04 -4.555773E+03 -1.100029E+04
       192   2 -4.472834E+05  5.996114E+04  5.436310E+04  8.555513E+03 -3.346037E+03 -9.245568E+03
       192   3 -4.870819E+05  5.022978E+04  4.617992E+04  2.056698E+04 -2.137247E+03 -7.440677E+03
       192   4 -6.897684E+05 -4.309214E+02 -4.441523E+03  2.008724E+04 -3.477682E+03 -1.099821E+04
       192   5 -6.895737E+05  1.001690E+02 -2.494688E+03  8.121167E+03 -2.237191E+03 -9.243195E+03
       192   6 -6.897631E+05  1.290427E+02 -1.502925E+03  2.008595E+04 -9.975715E+02 -7.438004E+03
       192   7 -9.716008E+05 -7.006307E+04 -7.050116E+04  1.970030E+04 -2.400077E+03 -1.099612E+04
       192   8 -9.318098E+05 -5.976498E+04 -5.935649E+04  7.686958E+03 -1.128777E+03 -9.240822E+03
       192   9 -8.924065E+05 -4.997463E+04 -4.918859E+04  1.960506E+04  1.417340E+02 -7.435333E+03
       192  10 -4.078628E+05  6.919543E+04  6.161243E+04  2.047429E+04  8.517470E-10 -4.317841E-09
       192  11 -4.472835E+05  5.996105E+04  5.436292E+04  8.555488E+03 -1.549028E-10 -4.302442E-09
       192  12 -4.870819E+05  5.022972E+04  4.617981E+04  2.056697E+04 -1.402287E-09 -2.857282E-09
       192  13 -6.897684E+05 -4.310545E+02 -4.441773E+03  2.008721E+04  2.115240E-09 -1.249101E-09
       192  14 -6.895737E+05  1.000760E+02 -2.494858E+03  8.121150E+03 -2.533168E-09 -3.046247E-09
       192  15 -6.897632E+05  1.289831E+02 -1.503031E+03  2.008595E+04  1.536369E-09 -1.888926E-09
       192  16 -9.716008E+05 -7.006320E+04 -7.050140E+04  1.970027E+04 -1.464790E-09 -4.332862E-09
       192  17 -9.318098E+05 -5.976508E+04 -5.935665E+04  7.686950E+03 -2.674261E-10  4.044113E-09
       192  18 -8.924066E+05 -4.997468E+04 -4.918869E+04  1.960506E+04  1.498876E-09  7.388696E-09
       192  19 -4.078627E+05  6.919557E+04  6.161269E+04  2.047433E+04  4.555773E+03  1.100029E+04
       192  20 -4.472834E+05  5.996114E+04  5.436310E+04  8.555513E+03  3.346037E+03  9.245568E+03
       192  21 -4.870819E+05  5.022978E+04  4.617992E+04  2.056698E+04  2.137247E+03  7.440677E+03
       192  22 -6.897684E+05 -4.309214E+02 -4.441523E+03  2.008724E+04  3.477682E+03  1.099821E+04
       192  23 -6.895737E+05  1.001690E+02 -2.494688E+03  8.121167E+03  2.237191E+03  9.243195E+03
       192  24 -6.897631E+05  1.290427E+02 -1.502925E+03  2.008595E+04  9.975715E+02  7.438004E+03
       192  25 -9.716008E+05 -7.006307E+04 -7.050116E+04  1.970030E+04  2.400077E+03  1.099612E+04
       192  26 -9.318098E+05 -5.976498E+04 -5.935649E+04  7.686958E+03  1.128777E+03  9.240822E+03
       192  27 -8.924065E+05 -4.997463E+04 -4.918859E+04  1.960506E+04 -1.417340E+02  7.435333E+03
       193   1 -5.301576E+05  3.945872E+04  3.612309E+04  2.044919E+04 -1.887288E+03 -6.379396E+03
       193   2 -5.700528E+05  2.959787E+04  2.723009E+04  8.296364E+03 -1.484191E+03 -4.563538E+03
       193   3 -6.101283E+05  1.979898E+04  1.805813E+04  2.030100E+04 -1.081525E+03 -2.741264E+03
       193   4 -6.897143E+05  5.965308E+01 -1.203450E+03  2.013684E+04 -7.574535E+02 -6.376637E+03
       193   5 -6.896219E+05  5.449101E+01 -8.307866E+02  8.057903E+03 -3.504781E+02 -4.560662E+03
       193   6 -6.897119E+05  1.106955E+02 -7.397417E+02  2.013671E+04  5.609232E+01 -2.738265E+03
       193   7 -8.492474E+05 -3.934122E+04 -3.853172E+04  1.982456E+04  3.720920E+02 -6.373879E+03
       193   8 -8.091777E+05 -2.948991E+04 -2.889263E+04  7.819480E+03  7.830178E+02 -4.557787E+03
       193   9 -7.692896E+05 -1.957804E+04 -1.953805E+04  1.997244E+04  1.193565E+03 -2.735266E+03
       193  10 -5.301576E+05  3.945868E+04  3.612301E+04  2.044918E+04  7.798419E-09 -4.647723E-09
       193  11 -5.700528E+05  2.959785E+04  2.723004E+04  8.296358E+03 -1.597837E-09  9.910090E-10
       193  12 -6.101283E+05  1.979897E+04  1.805811E+04  2.030100E+04 -1.029467E-08  6.735590E-10
       193  13 -6.897143E+05  5.960928E+01 -1.203528E+03  2.013684E+04  1.069667E-09  3.773549E-09
       193  14 -6.896219E+05  5.446865E+01 -8.308259E+02  8.057902E+03 -7.065634E-10 -5.295846E-09
       193  15 -6.897119E+05  1.106875E+02 -7.397558E+02  2.013671E+04  3.415829E-09 -1.554179E-09
       193  16 -8.492474E+05 -3.934127E+04 -3.853180E+04  1.982456E+04 -7.960986E-09  3.389300E-09
       193  17 -8.091777E+05 -2.948993E+04 -2.889267E+04  7.819483E+03  5.686620E-10  9.752332E-09
       193  18 -7.692896E+05 -1.957805E+04 -1.953806E+04  1.997244E+04  1.157186E-08  2.876684E-09
       193  19 -5.301576E+05  3.945872E+04  3.612309E+04  2.044919E+04  1.887288E+03  6.379396E+03
       193  20 -5.700528E+05  2.959787E+04  2.723009E+04  8.296364E+03  1.484191E+03  4.563538E+03
       193  21 -6.101283E+05  1.979898E+04  1.805813E+04  2.030100E+04  1.081525E+03  2.741264E+03
       193  22 -6.897143E+05  5.965308E+01 -1.203450E+03  2.013684E+04  7.574535E+02  6.376637E+03
       193  23 -6.896219E+05  5.449101E+01 -8.307866E+02  8.057903E+03  3.504781E+02  4.560662E+03
       193  24 -6.897119E+05  1.106955E+02 -7.397417E+02  2.013671E+04 -5.609232E+01  2.738265E+03
       193  25 -8.492474E+05 -3.934122E+04 -3.853172E+04  1.982456E+04 -3.720920E+02  6.373879E+03
       193  26 -8.091777E+05 -2.948991E+04 -2.889263E+04  7.819480E+03 -7.830178E+02  4.557787E+03
       193  27 -7.692896E+05 -1.957804E+04 -1.953805E+04  1.997244E+04 -1.193565E+03  2.735266E+03
       194   1 -6.535243E+05  9.031431E+03  7.593841E+03  2.021048E+04 -9.479216E+02 -1.678358E+03
       194   2 -6.935197E+05 -9.038489E+02 -1.965196E+03  8.014247E+03 -4.325311E+02  1.478950E+02
       194   3 -7.337303E+05 -1.079879E+04 -1.188518E+04  2.004879E+04  8.283580E+01  1.972258E+03
       194   4 -6.897183E+05  1.121830E+02 -7.806578E+02  2.015292E+04  1.904730E+02 -1.675321E+03
       194   5 -6.896099E+05  6.238491E+01 -1.047505E+03  8.037626E+03  7.046447E+02  1.509220E+02
       194   6 -6.897185E+05  5.309536E+01 -1.674510E+03  2.015308E+04  1.218826E+03  1.975281E+03
       194   7 -7.259111E+05 -8.807156E+03 -9.155240E+03  2.009537E+04  1.328802E+03 -1.672284E+03
       194   8 -6.857000E+05  1.028618E+03 -1.298097E+02  8.061005E+03  1.841828E+03  1.539492E+02
       194   9 -6.457049E+05  1.090485E+04  8.536033E+03  2.025739E+04  2.354896E+03  1.978305E+03
       194  10 -6.535243E+05  9.031427E+03  7.593834E+03  2.021048E+04 -2.384445E-09  6.404544E-10
       194  11 -6.935197E+05 -9.038490E+02 -1.965197E+03  8.014247E+03  5.688387E-12 -6.346047E-09
       194  12 -7.337303E+05 -1.079880E+04 -1.188519E+04  2.004879E+04 -2.645049E-09 -2.576891E-09
       194  13 -6.897183E+05  1.121800E+02 -7.806632E+02  2.015292E+04  5.880969E-10  7.714935E-09
       194  14 -6.896099E+05  6.238475E+01 -1.047506E+03  8.037625E+03 -1.776807E-09 -4.007764E-09
       194  15 -6.897185E+05  5.309077E+01 -1.674521E+03  2.015308E+04  2.844418E-09 -3.941393E-09
       194  16 -7.259111E+05 -8.807160E+03 -9.155248E+03  2.009537E+04  1.421138E-09  2.416171E-10
       194  17 -6.857000E+05  1.028617E+03 -1.298161E+02  8.061004E+03 -2.266567E-09 -1.150716E-08
       194  18 -6.457049E+05  1.090484E+04  8.536016E+03  2.025739E+04  2.518778E-09 -6.237574E-09
       194  19 -6.535243E+05  9.031431E+03  7.593841E+03  2.021048E+04  9.479216E+02  1.678358E+03
       194  20 -6.935197E+05 -9.038489E+02 -1.965196E+03  8.014247E+03  4.325311E+02 -1.478950E+02
       194  21 -7.337303E+05 -1.079879E+04 -1.188518E+04  2.004879E+04 -8.283580E+01 -1.972258E+03
       194  22 -6.897183E+05  1.121830E+02 -7.806578E+02  2.015292E+04 -1.904730E+02  1.675321E+03
       194  23 -6.896099E+05  6.238491E+01 -1.047505E+03  8.037626E+03 -7.046447E+02 -1.509220E+02
       194  24 -6.897185E+05  5.309536E+01 -1.674510E+03  2.015308E+04 -1.218826E+03 -1.975281E+03
       194  25 -7.259111E+05 -8.807156E+03 -9.155240E+03  2.009537E+04 -1.328802E+03  1.672284E+03
       194  26 -6.857000E+05  1.028618E+03 -1.298097E+02  8.061005E+03 -1.841828E+03 -1.539492E+02
       194  27 -6.457049E+05  1.090485E+04  8.536033E+03  2.025739E+04 -2.354896E+03 -1.978305E+03
       195   1 -7.771876E+05 -2.146613E+04 -2.277530E+04  1.980811E+04  4.135712E+02  3.039285E+03
       195   2 -8.168624E+05 -3.132413E+04 -3.352690E+04  7.804379E+03  2.245478E+03  4.861812E+03
       195   3 -8.571161E+05 -4.197442E+04 -4.570218E+04  1.994731E+04  4.077798E+03  6.646669E+03
       195   4 -6.897996E+05  1.535209E+02 -2.144300E+03  2.013359E+04  1.558634E+03  3.042292E+03
       195   5 -6.895136E+05  1.463134E+02 -3.635281E+03  8.061439E+03  3.367373E+03  4.864638E+03
       195   6 -6.898030E+05 -6.487476E+02 -6.533340E+03  2.013565E+04  5.176642E+03  6.649323E+03
       195   7 -6.024047E+05  2.177262E+04  1.848618E+04  2.045912E+04  2.703858E+03  3.045300E+03
       195   8 -5.621498E+05  3.161560E+04  2.625523E+04  8.318542E+03  4.489498E+03  4.867464E+03
       195   9 -5.224641E+05  4.067493E+04  3.263359E+04  2.032402E+04  6.275781E+03  6.651977E+03
       195  10 -7.771876E+05 -2.146614E+04 -2.277532E+04  1.980811E+04 -4.263782E-09 -2.366777E-09
       195  11 -8.168624E+05 -3.132415E+04 -3.352695E+04  7.804371E+03  4.892000E-10 -9.604443E-09
       195  12 -8.571161E+05 -4.197447E+04 -4.570229E+04  1.994729E+04 -1.141279E-09 -1.743457E-09
       195  13 -6.897996E+05  1.535103E+02 -2.144321E+03  2.013359E+04 -1.097123E-09 -1.838827E-09
       195  14 -6.895136E+05  1.462849E+02 -3.635347E+03  8.061426E+03 -3.905555E-09  9.461013E-10
       195  15 -6.898031E+05 -6.488023E+02 -6.533474E+03  2.013562E+04  2.162337E-09  2.903676E-09
       195  16 -6.024047E+05  2.177261E+04  1.848615E+04  2.045911E+04  2.106511E-09  4.240169E-09
       195  17 -5.621498E+05  3.161557E+04  2.625515E+04  8.318524E+03  1.988073E-09 -8.709176E-09
       195  18 -5.224642E+05  4.067487E+04  3.263343E+04  2.032399E+04  5.192547E-10  4.787120E-09
       195  19 -7.771876E+05 -2.146613E+04 -2.277530E+04  1.980811E+04 -4.135712E+02 -3.039285E+03
       195  20 -8.168624E+05 -3.132413E+04 -3.352690E+04  7.804379E+03 -2.245478E+03 -4.861812E+03
       195  21 -8.571161E+05 -4.197442E+04 -4.570218E+04  1.994731E+04 -4.077798E+03 -6.646669E+03
       195  22 -6.897996E+05  1.535209E+02 -2.144300E+03  2.013359E+04 -1.558634E+03 -3.042292E+03
       195  23 -6.895136E+05  1.463134E+02 -3.635281E+03  8.061439E+03 -3.367373E+03 -4.864638E+03
       195  24 -6.898030E+05 -6.487476E+02 -6.533340E+03  2.013565E+04 -5.176642E+03 -6.649323E+03
       195  25 -6.024047E+05  2.177262E+04  1.848618E+04  2.045912E+04 -2.703858E+03 -3.045300E+03
       195  26 -5.621498E+05  3.161560E+04  2.625523E+04  8.318542E+03 -4.489498E+03 -4.867464E+03
       195  27 -5.224641E+05  4.067493E+04  3.263359E+04  2.032402E+04 -6.275781E+03 -6.651977E+03
       196   1 -9.008696E+05 -5.143996E+04 -5.789935E+04  1.828523E+04  5.215971E+03  7.778585E+03
       196   2 -9.386306E+05 -6.075647E+04 -7.298653E+04  8.404231E+03  1.285021E+04  9.543531E+03
       196   3 -9.800360E+05 -8.029707E+04 -9.562645E+04  2.242882E+04  2.048598E+04  1.072280E+04
       196   4 -6.904746E+05  5.848146E+02 -8.406064E+03  2.007426E+04  6.488544E+03  7.781566E+03
       196   5 -6.886891E+05  1.010466E+03 -1.430867E+04  8.132326E+03  1.376035E+04  9.545387E+03
       196   6 -6.904845E+05 -8.722417E+03 -2.750966E+04  2.009552E+04  2.103417E+04  1.072359E+04
       196   7 -4.800388E+05  5.260643E+04  4.108419E+04  2.186387E+04  7.761546E+03  7.784554E+03
       196   8 -4.386899E+05  6.277295E+04  4.436492E+04  7.860276E+03  1.467086E+04  9.547242E+03
       196   9 -4.008557E+05  6.284627E+04  4.060137E+04  1.776107E+04  2.158262E+04  1.072438E+04
       196  10 -9.008696E+05 -5.144003E+04 -5.789951E+04  1.828520E+04  3.510814E-09 -5.012260E-11
       196  11 -9.386308E+05 -6.075661E+04 -7.298701E+04  8.404132E+03  1.633979E-09  5.298523E-09
       196  12 -9.800364E+05 -8.029731E+04 -9.562746E+04  2.242864E+04 -1.191509E-10 -3.510303E-09
       196  13 -6.904747E+05  5.847383E+02 -8.406257E+03  2.007422E+04 -6.169552E-10 -3.973309E-09
       196  14 -6.886893E+05  1.010317E+03 -1.430920E+04  8.132220E+03 -8.354725E-10  4.697436E-09
       196  15 -6.904850E+05 -8.722660E+03 -2.751071E+04  2.009533E+04  1.649042E-09 -2.783296E-09
       196  16 -4.800389E+05  5.260635E+04  4.108396E+04  2.186382E+04 -5.330809E-09 -1.452739E-09
       196  17 -4.386902E+05  6.277279E+04  4.436434E+04  7.860163E+03 -2.729984E-09 -1.244767E-08
       196  18 -4.008562E+05  6.284603E+04  4.060027E+04  1.776088E+04  2.984655E-10  1.865972E-09
       196  19 -9.008696E+05 -5.143996E+04 -5.789935E+04  1.828523E+04 -5.215971E+03 -7.778585E+03
       196  20 -9.386306E+05 -6.075647E+04 -7.298653E+04  8.404231E+03 -1.285021E+04 -9.543531E+03
       196  21 -9.800360E+05 -8.029707E+04 -9.562645E+04  2.242882E+04 -2.048598E+04 -1.072280E+04
       196  22 -6.904746E+05  5.848146E+02 -8.406064E+03  2.007426E+04 -6.488544E+03 -7.781566E+03
       196  23 -6.886891E+05  1.010466E+03 -1.430867E+04  8.132326E+03 -1.376035E+04 -9.545387E+03
       196  24 -6.904845E+05 -8.722417E+03 -2.750966E+04  2.009552E+04 -2.103417E+04 -1.072359E+04
       196  25 -4.800388E+05  5.260643E+04  4.108419E+04  2.186387E+04 -7.761546E+03 -7.784554E+03
       196  26 -4.386899E+05  6.277295E+04  4.436492E+04  7.860276E+03 -1.467086E+04 -9.547242E+03
       196  27 -4.008557E+05  6.284627E+04  4.060137E+04  1.776107E+04 -2.158262E+04 -1.072438E+04
       197   1 -1.029087E+06 -7.656967E+04 -1.117965E+05  4.934328E+03  2.254597E+04  1.305824E+04
       197   2 -1.051287E+06 -8.126614E+04 -1.425485E+05  1.917832E+04  5.850343E+04  1.390196E+04
       197   3 -1.107357E+06 -2.025879E+05 -2.258975E+05  5.675551E+04  9.447603E+04  4.736017E+03
       197   4 -6.969703E+05  5.561568E+03 -3.395451E+04  1.989483E+04  2.615353E+04  1.306602E+04
       197   5 -6.806056E+05  1.032023E+04 -5.539691E+04  8.325865E+03  5.588730E+04  1.389522E+04
       197   6 -6.970120E+05 -1.004295E+05 -1.250895E+05  2.009201E+04  8.563897E+04  4.714413E+03
       197   7 -3.647512E+05  8.768577E+04  4.388013E+04  3.486335E+04  2.976300E+04  1.307397E+04
       197   8 -3.097975E+05  1.018973E+05  3.174538E+04 -2.533177E+03  5.326961E+04  1.388857E+04
       197   9 -2.865104E+05  1.721578E+03 -2.429284E+04 -1.659587E+04  7.679605E+04  4.693863E+03
       197  10 -1.029088E+06 -7.656999E+04 -1.117978E+05  4.934091E+03  1.332911E-09 -6.613017E-09
       197  11 -1.051290E+06 -8.126727E+04 -1.425554E+05  1.917766E+04  9.342351E-10 -1.274677E-09
       197  12 -1.107366E+06 -2.025903E+05 -2.259143E+05  5.675515E+04  1.885427E-09  5.453459E-09
       197  13 -6.969711E+05  5.561201E+03 -3.395612E+04  1.989456E+04 -1.078572E-09  9.242944E-10
       197  14 -6.806090E+05  1.031918E+04 -5.540315E+04  8.325239E+03 -5.286950E-10  2.787940E-09
       197  15 -6.970199E+05 -1.004315E+05 -1.251033E+05  2.009168E+04  2.561211E-09  4.328937E-10
       197  16 -3.647522E+05  8.768535E+04  4.387815E+04  3.486303E+04 -1.776771E-09  2.574730E-09
       197  17 -3.098006E+05  1.018963E+05  3.173969E+04 -2.533773E+03 -3.919508E-09  5.157364E-09
       197  18 -2.865168E+05  1.719970E+03 -2.430397E+04 -1.659616E+04 -2.683886E-09 -9.857262E-11
       197  19 -1.029087E+06 -7.656967E+04 -1.117965E+05  4.934328E+03 -2.254597E+04 -1.305824E+04
       197  20 -1.051287E+06 -8.126614E+04 -1.425485E+05  1.917832E+04 -5.850343E+04 -1.390196E+04
       197  21 -1.107357E+06 -2.025879E+05 -2.258975E+05  5.675551E+04 -9.447603E+04 -4.736017E+03
       197  22 -6.969703E+05  5.561568E+03 -3.395451E+04  1.989483E+04 -2.615353E+04 -1.306602E+04
       197  23 -6.806056E+05  1.032023E+04 -5.539691E+04  8.325865E+03 -5.588730E+04 -1.389522E+04
       197  24 -6.970120E+05 -1.004295E+05 -1.250895E+05  2.009201E+04 -8.563897E+04 -4.714413E+03
       197  25 -3.647512E+05  8.768577E+04  4.388013E+04  3.486335E+04 -2.976300E+04 -1.307397E+04
       197  26 -3.097975E+05  1.018973E+05  3.174538E+04 -2.533177E+03 -5.326961E+04 -1.388857E+04
       197  27 -2.865104E+05  1.721578E+03 -2.429284E+04 -1.659587E+04 -7.679605E+04 -4.693863E+03
