    1C
    1UUSER                                                              
    1UDATE              11.october.2022                                 
    1UTIME              17:50:12                                        
    1UHOST                                                              
    1UPGM               CalculiX                                        
    1UVERSION           Version 2.20                             
    1UCOMPILETIME       Sun Jul 31 18:08:37 CEST 2022                    
    1UDIR                                                               
    1UDBN                                                               
    1UMAT    1MESH_MATERIAL                                             
    2C                           382                                     1
 -1         1 0.00000E+00 0.00000E+00 0.00000E+00
 -1         3 3.33333E-02 0.00000E+00 0.00000E+00
 -1         5 6.66667E-02 0.00000E+00 0.00000E+00
 -1         8 0.00000E+00 6.25000E-03 0.00000E+00
 -1         9 1.66667E-02 6.25000E-03 0.00000E+00
 -1        10 3.33333E-02 6.25000E-03 0.00000E+00
 -1        12 6.66667E-02 6.25000E-03 0.00000E+00
 -1        16 1.66667E-02 1.25000E-02 0.00000E+00
 -1        17 3.33333E-02 1.25000E-02 0.00000E+00
 -1        18 5.00000E-02 1.25000E-02 0.00000E+00
 -1        19 6.66667E-02 1.25000E-02 0.00000E+00
 -1        20 8.33333E-02 1.25000E-02 0.00000E+00
 -1        21 1.00000E-01 1.25000E-02 0.00000E+00
 -1        24 3.33333E-02 1.87500E-02 0.00000E+00
 -1        25 5.00000E-02 1.87500E-02 0.00000E+00
 -1        26 6.66667E-02 1.87500E-02 0.00000E+00
 -1        27 8.33333E-02 1.87500E-02 0.00000E+00
 -1        28 1.00000E-01 1.87500E-02 0.00000E+00
 -1        32 5.00000E-02 2.50000E-02 0.00000E+00
 -1        33 6.66667E-02 2.50000E-02 0.00000E+00
 -1        34 8.33333E-02 2.50000E-02 0.00000E+00
 -1        35 1.00000E-01 2.50000E-02 0.00000E+00
 -1        51 0.00000E+00 1.04167E-03 0.00000E+00
 -1        52 0.00000E+00 2.08333E-03 0.00000E+00
 -1        53 0.00000E+00 3.12500E-03 0.00000E+00
 -1        54 0.00000E+00 4.16667E-03 0.00000E+00
 -1        55 0.00000E+00 5.20833E-03 0.00000E+00
 -1        56 1.04167E-03 3.90630E-04 0.00000E+00
 -1        57 2.08333E-03 7.81250E-04 0.00000E+00
 -1        58 3.12500E-03 1.17188E-03 0.00000E+00
 -1        59 4.16667E-03 1.56250E-03 0.00000E+00
 -1        60 5.20833E-03 1.95312E-03 0.00000E+00
 -1        61 6.25000E-03 2.34375E-03 0.00000E+00
 -1        62 7.29167E-03 2.73438E-03 0.00000E+00
 -1        63 8.33333E-03 3.12500E-03 0.00000E+00
 -1        64 9.37500E-03 3.51563E-03 0.00000E+00
 -1        65 1.04167E-02 3.90625E-03 0.00000E+00
 -1        66 1.14583E-02 4.29688E-03 0.00000E+00
 -1        67 1.25000E-02 4.68750E-03 0.00000E+00
 -1        68 1.35417E-02 5.07813E-03 0.00000E+00
 -1        69 1.45833E-02 5.46875E-03 0.00000E+00
 -1        70 1.56250E-02 5.85938E-03 0.00000E+00
 -1       121 3.33333E-02 1.04167E-03 0.00000E+00
 -1       122 3.33333E-02 2.08333E-03 0.00000E+00
 -1       123 3.33333E-02 3.12500E-03 0.00000E+00
 -1       124 3.33333E-02 4.16667E-03 0.00000E+00
 -1       125 3.33333E-02 5.20833E-03 0.00000E+00
 -1       191 6.66667E-02 1.04167E-03 0.00000E+00
 -1       192 6.66667E-02 2.08333E-03 0.00000E+00
 -1       193 6.66667E-02 3.12500E-03 0.00000E+00
 -1       194 6.66667E-02 4.16667E-03 0.00000E+00
 -1       195 6.66667E-02 5.20833E-03 0.00000E+00
 -1       271 1.04167E-03 6.64063E-03 0.00000E+00
 -1       272 2.08333E-03 7.03125E-03 0.00000E+00
 -1       273 3.12500E-03 7.42188E-03 0.00000E+00
 -1       274 4.16667E-03 7.81250E-03 0.00000E+00
 -1       275 5.20833E-03 8.20313E-03 0.00000E+00
 -1       276 6.25000E-03 8.59375E-03 0.00000E+00
 -1       277 7.29167E-03 8.98438E-03 0.00000E+00
 -1       278 8.33333E-03 9.37500E-03 0.00000E+00
 -1       279 9.37500E-03 9.76562E-03 0.00000E+00
 -1       280 1.04167E-02 1.01562E-02 0.00000E+00
 -1       281 1.14583E-02 1.05469E-02 0.00000E+00
 -1       282 1.25000E-02 1.09375E-02 0.00000E+00
 -1       283 1.35417E-02 1.13281E-02 0.00000E+00
 -1       284 1.45833E-02 1.17188E-02 0.00000E+00
 -1       285 1.56250E-02 1.21094E-02 0.00000E+00
 -1       301 1.66667E-02 7.29167E-03 0.00000E+00
 -1       302 1.66667E-02 8.33333E-03 0.00000E+00
 -1       303 1.66667E-02 9.37500E-03 0.00000E+00
 -1       304 1.66667E-02 1.04167E-02 0.00000E+00
 -1       305 1.66667E-02 1.14583E-02 0.00000E+00
 -1       306 1.77083E-02 6.64063E-03 0.00000E+00
 -1       307 1.87500E-02 7.03125E-03 0.00000E+00
 -1       308 1.97917E-02 7.42188E-03 0.00000E+00
 -1       309 2.08333E-02 7.81250E-03 0.00000E+00
 -1       310 2.18750E-02 8.20313E-03 0.00000E+00
 -1       311 2.29167E-02 8.59375E-03 0.00000E+00
 -1       312 2.39583E-02 8.98438E-03 0.00000E+00
 -1       313 2.50000E-02 9.37500E-03 0.00000E+00
 -1       314 2.60417E-02 9.76562E-03 0.00000E+00
 -1       315 2.70833E-02 1.01562E-02 0.00000E+00
 -1       316 2.81250E-02 1.05469E-02 0.00000E+00
 -1       317 2.91667E-02 1.09375E-02 0.00000E+00
 -1       318 3.02083E-02 1.13281E-02 0.00000E+00
 -1       319 3.12500E-02 1.17188E-02 0.00000E+00
 -1       320 3.22917E-02 1.21094E-02 0.00000E+00
 -1       336 3.33333E-02 7.29167E-03 0.00000E+00
 -1       337 3.33333E-02 8.33333E-03 0.00000E+00
 -1       338 3.33333E-02 9.37500E-03 0.00000E+00
 -1       339 3.33333E-02 1.04167E-02 0.00000E+00
 -1       340 3.33333E-02 1.14583E-02 0.00000E+00
 -1       406 6.66667E-02 7.29167E-03 0.00000E+00
 -1       407 6.66667E-02 8.33333E-03 0.00000E+00
 -1       408 6.66667E-02 9.37500E-03 0.00000E+00
 -1       409 6.66667E-02 1.04167E-02 0.00000E+00
 -1       410 6.66667E-02 1.14583E-02 0.00000E+00
 -1       521 1.77083E-02 1.28906E-02 0.00000E+00
 -1       522 1.87500E-02 1.32813E-02 0.00000E+00
 -1       523 1.97917E-02 1.36719E-02 0.00000E+00
 -1       524 2.08333E-02 1.40625E-02 0.00000E+00
 -1       525 2.18750E-02 1.44531E-02 0.00000E+00
 -1       526 2.29167E-02 1.48437E-02 0.00000E+00
 -1       527 2.39583E-02 1.52344E-02 0.00000E+00
 -1       528 2.50000E-02 1.56250E-02 0.00000E+00
 -1       529 2.60417E-02 1.60156E-02 0.00000E+00
 -1       530 2.70833E-02 1.64062E-02 0.00000E+00
 -1       531 2.81250E-02 1.67969E-02 0.00000E+00
 -1       532 2.91667E-02 1.71875E-02 0.00000E+00
 -1       533 3.02083E-02 1.75781E-02 0.00000E+00
 -1       534 3.12500E-02 1.79687E-02 0.00000E+00
 -1       535 3.22917E-02 1.83594E-02 0.00000E+00
 -1       536 3.43750E-02 1.25000E-02 0.00000E+00
 -1       537 3.54167E-02 1.25000E-02 0.00000E+00
 -1       538 3.64583E-02 1.25000E-02 0.00000E+00
 -1       539 3.75000E-02 1.25000E-02 0.00000E+00
 -1       540 3.85417E-02 1.25000E-02 0.00000E+00
 -1       541 3.95833E-02 1.25000E-02 0.00000E+00
 -1       542 4.06250E-02 1.25000E-02 0.00000E+00
 -1       543 4.16667E-02 1.25000E-02 0.00000E+00
 -1       544 4.27083E-02 1.25000E-02 0.00000E+00
 -1       545 4.37500E-02 1.25000E-02 0.00000E+00
 -1       546 4.47917E-02 1.25000E-02 0.00000E+00
 -1       547 4.58333E-02 1.25000E-02 0.00000E+00
 -1       548 4.68750E-02 1.25000E-02 0.00000E+00
 -1       549 4.79167E-02 1.25000E-02 0.00000E+00
 -1       550 4.89583E-02 1.25000E-02 0.00000E+00
 -1       551 3.33333E-02 1.35417E-02 0.00000E+00
 -1       552 3.33333E-02 1.45833E-02 0.00000E+00
 -1       553 3.33333E-02 1.56250E-02 0.00000E+00
 -1       554 3.33333E-02 1.66667E-02 0.00000E+00
 -1       555 3.33333E-02 1.77083E-02 0.00000E+00
 -1       556 3.43750E-02 1.28906E-02 0.00000E+00
 -1       557 3.54167E-02 1.32813E-02 0.00000E+00
 -1       558 3.64583E-02 1.36719E-02 0.00000E+00
 -1       559 3.75000E-02 1.40625E-02 0.00000E+00
 -1       560 3.85417E-02 1.44531E-02 0.00000E+00
 -1       561 3.95833E-02 1.48437E-02 0.00000E+00
 -1       562 4.06250E-02 1.52344E-02 0.00000E+00
 -1       563 4.16667E-02 1.56250E-02 0.00000E+00
 -1       564 4.27083E-02 1.60156E-02 0.00000E+00
 -1       565 4.37500E-02 1.64062E-02 0.00000E+00
 -1       566 4.47917E-02 1.67969E-02 0.00000E+00
 -1       567 4.58333E-02 1.71875E-02 0.00000E+00
 -1       568 4.68750E-02 1.75781E-02 0.00000E+00
 -1       569 4.79167E-02 1.79687E-02 0.00000E+00
 -1       570 4.89583E-02 1.83594E-02 0.00000E+00
 -1       571 5.10417E-02 1.25000E-02 0.00000E+00
 -1       572 5.20833E-02 1.25000E-02 0.00000E+00
 -1       573 5.31250E-02 1.25000E-02 0.00000E+00
 -1       574 5.41667E-02 1.25000E-02 0.00000E+00
 -1       575 5.52083E-02 1.25000E-02 0.00000E+00
 -1       576 5.62500E-02 1.25000E-02 0.00000E+00
 -1       577 5.72917E-02 1.25000E-02 0.00000E+00
 -1       578 5.83333E-02 1.25000E-02 0.00000E+00
 -1       579 5.93750E-02 1.25000E-02 0.00000E+00
 -1       580 6.04167E-02 1.25000E-02 0.00000E+00
 -1       581 6.14583E-02 1.25000E-02 0.00000E+00
 -1       582 6.25000E-02 1.25000E-02 0.00000E+00
 -1       583 6.35417E-02 1.25000E-02 0.00000E+00
 -1       584 6.45833E-02 1.25000E-02 0.00000E+00
 -1       585 6.56250E-02 1.25000E-02 0.00000E+00
 -1       586 5.00000E-02 1.35417E-02 0.00000E+00
 -1       587 5.00000E-02 1.45833E-02 0.00000E+00
 -1       588 5.00000E-02 1.56250E-02 0.00000E+00
 -1       589 5.00000E-02 1.66667E-02 0.00000E+00
 -1       590 5.00000E-02 1.77083E-02 0.00000E+00
 -1       591 5.10417E-02 1.28906E-02 0.00000E+00
 -1       592 5.20833E-02 1.32813E-02 0.00000E+00
 -1       593 5.31250E-02 1.36719E-02 0.00000E+00
 -1       594 5.41667E-02 1.40625E-02 0.00000E+00
 -1       595 5.52083E-02 1.44531E-02 0.00000E+00
 -1       596 5.62500E-02 1.48437E-02 0.00000E+00
 -1       597 5.72917E-02 1.52344E-02 0.00000E+00
 -1       598 5.83333E-02 1.56250E-02 0.00000E+00
 -1       599 5.93750E-02 1.60156E-02 0.00000E+00
 -1       600 6.04167E-02 1.64062E-02 0.00000E+00
 -1       601 6.14583E-02 1.67969E-02 0.00000E+00
 -1       602 6.25000E-02 1.71875E-02 0.00000E+00
 -1       603 6.35417E-02 1.75781E-02 0.00000E+00
 -1       604 6.45833E-02 1.79687E-02 0.00000E+00
 -1       605 6.56250E-02 1.83594E-02 0.00000E+00
 -1       606 6.77083E-02 1.25000E-02 0.00000E+00
 -1       607 6.87500E-02 1.25000E-02 0.00000E+00
 -1       608 6.97917E-02 1.25000E-02 0.00000E+00
 -1       609 7.08333E-02 1.25000E-02 0.00000E+00
 -1       610 7.18750E-02 1.25000E-02 0.00000E+00
 -1       611 7.29167E-02 1.25000E-02 0.00000E+00
 -1       612 7.39583E-02 1.25000E-02 0.00000E+00
 -1       613 7.50000E-02 1.25000E-02 0.00000E+00
 -1       614 7.60417E-02 1.25000E-02 0.00000E+00
 -1       615 7.70833E-02 1.25000E-02 0.00000E+00
 -1       616 7.81250E-02 1.25000E-02 0.00000E+00
 -1       617 7.91667E-02 1.25000E-02 0.00000E+00
 -1       618 8.02083E-02 1.25000E-02 0.00000E+00
 -1       619 8.12500E-02 1.25000E-02 0.00000E+00
 -1       620 8.22917E-02 1.25000E-02 0.00000E+00
 -1       621 6.66667E-02 1.35417E-02 0.00000E+00
 -1       622 6.66667E-02 1.45833E-02 0.00000E+00
 -1       623 6.66667E-02 1.56250E-02 0.00000E+00
 -1       624 6.66667E-02 1.66667E-02 0.00000E+00
 -1       625 6.66667E-02 1.77083E-02 0.00000E+00
 -1       626 6.77083E-02 1.28906E-02 0.00000E+00
 -1       627 6.87500E-02 1.32813E-02 0.00000E+00
 -1       628 6.97917E-02 1.36719E-02 0.00000E+00
 -1       629 7.08333E-02 1.40625E-02 0.00000E+00
 -1       630 7.18750E-02 1.44531E-02 0.00000E+00
 -1       631 7.29167E-02 1.48437E-02 0.00000E+00
 -1       632 7.39583E-02 1.52344E-02 0.00000E+00
 -1       633 7.50000E-02 1.56250E-02 0.00000E+00
 -1       634 7.60417E-02 1.60156E-02 0.00000E+00
 -1       635 7.70833E-02 1.64062E-02 0.00000E+00
 -1       636 7.81250E-02 1.67969E-02 0.00000E+00
 -1       637 7.91667E-02 1.71875E-02 0.00000E+00
 -1       638 8.02083E-02 1.75781E-02 0.00000E+00
 -1       639 8.12500E-02 1.79687E-02 0.00000E+00
 -1       640 8.22917E-02 1.83594E-02 0.00000E+00
 -1       656 8.33333E-02 1.35417E-02 0.00000E+00
 -1       657 8.33333E-02 1.45833E-02 0.00000E+00
 -1       658 8.33333E-02 1.56250E-02 0.00000E+00
 -1       659 8.33333E-02 1.66667E-02 0.00000E+00
 -1       660 8.33333E-02 1.77083E-02 0.00000E+00
 -1       661 8.43750E-02 1.28906E-02 0.00000E+00
 -1       662 8.54167E-02 1.32813E-02 0.00000E+00
 -1       663 8.64583E-02 1.36719E-02 0.00000E+00
 -1       664 8.75000E-02 1.40625E-02 0.00000E+00
 -1       665 8.85417E-02 1.44531E-02 0.00000E+00
 -1       666 8.95833E-02 1.48437E-02 0.00000E+00
 -1       667 9.06250E-02 1.52344E-02 0.00000E+00
 -1       668 9.16667E-02 1.56250E-02 0.00000E+00
 -1       669 9.27083E-02 1.60156E-02 0.00000E+00
 -1       670 9.37500E-02 1.64062E-02 0.00000E+00
 -1       671 9.47917E-02 1.67969E-02 0.00000E+00
 -1       672 9.58333E-02 1.71875E-02 0.00000E+00
 -1       673 9.68750E-02 1.75781E-02 0.00000E+00
 -1       674 9.79167E-02 1.79687E-02 0.00000E+00
 -1       675 9.89583E-02 1.83594E-02 0.00000E+00
 -1       676 1.00000E-01 1.35417E-02 0.00000E+00
 -1       677 1.00000E-01 1.45833E-02 0.00000E+00
 -1       678 1.00000E-01 1.56250E-02 0.00000E+00
 -1       679 1.00000E-01 1.66667E-02 0.00000E+00
 -1       680 1.00000E-01 1.77083E-02 0.00000E+00
 -1       771 3.43750E-02 1.91406E-02 0.00000E+00
 -1       772 3.54167E-02 1.95312E-02 0.00000E+00
 -1       773 3.64583E-02 1.99219E-02 0.00000E+00
 -1       774 3.75000E-02 2.03125E-02 0.00000E+00
 -1       775 3.85417E-02 2.07031E-02 0.00000E+00
 -1       776 3.95833E-02 2.10938E-02 0.00000E+00
 -1       777 4.06250E-02 2.14844E-02 0.00000E+00
 -1       778 4.16667E-02 2.18750E-02 0.00000E+00
 -1       779 4.27083E-02 2.22656E-02 0.00000E+00
 -1       780 4.37500E-02 2.26563E-02 0.00000E+00
 -1       781 4.47917E-02 2.30469E-02 0.00000E+00
 -1       782 4.58333E-02 2.34375E-02 0.00000E+00
 -1       783 4.68750E-02 2.38281E-02 0.00000E+00
 -1       784 4.79167E-02 2.42187E-02 0.00000E+00
 -1       785 4.89583E-02 2.46094E-02 0.00000E+00
 -1       786 5.10417E-02 1.87500E-02 0.00000E+00
 -1       787 5.20833E-02 1.87500E-02 0.00000E+00
 -1       788 5.31250E-02 1.87500E-02 0.00000E+00
 -1       789 5.41667E-02 1.87500E-02 0.00000E+00
 -1       790 5.52083E-02 1.87500E-02 0.00000E+00
 -1       791 5.62500E-02 1.87500E-02 0.00000E+00
 -1       792 5.72917E-02 1.87500E-02 0.00000E+00
 -1       793 5.83333E-02 1.87500E-02 0.00000E+00
 -1       794 5.93750E-02 1.87500E-02 0.00000E+00
 -1       795 6.04167E-02 1.87500E-02 0.00000E+00
 -1       796 6.14583E-02 1.87500E-02 0.00000E+00
 -1       797 6.25000E-02 1.87500E-02 0.00000E+00
 -1       798 6.35417E-02 1.87500E-02 0.00000E+00
 -1       799 6.45833E-02 1.87500E-02 0.00000E+00
 -1       800 6.56250E-02 1.87500E-02 0.00000E+00
 -1       801 5.00000E-02 1.97917E-02 0.00000E+00
 -1       802 5.00000E-02 2.08333E-02 0.00000E+00
 -1       803 5.00000E-02 2.18750E-02 0.00000E+00
 -1       804 5.00000E-02 2.29167E-02 0.00000E+00
 -1       805 5.00000E-02 2.39583E-02 0.00000E+00
 -1       806 5.10417E-02 1.91406E-02 0.00000E+00
 -1       807 5.20833E-02 1.95312E-02 0.00000E+00
 -1       808 5.31250E-02 1.99219E-02 0.00000E+00
 -1       809 5.41667E-02 2.03125E-02 0.00000E+00
 -1       810 5.52083E-02 2.07031E-02 0.00000E+00
 -1       811 5.62500E-02 2.10938E-02 0.00000E+00
 -1       812 5.72917E-02 2.14844E-02 0.00000E+00
 -1       813 5.83333E-02 2.18750E-02 0.00000E+00
 -1       814 5.93750E-02 2.22656E-02 0.00000E+00
 -1       815 6.04167E-02 2.26563E-02 0.00000E+00
 -1       816 6.14583E-02 2.30469E-02 0.00000E+00
 -1       817 6.25000E-02 2.34375E-02 0.00000E+00
 -1       818 6.35417E-02 2.38281E-02 0.00000E+00
 -1       819 6.45833E-02 2.42187E-02 0.00000E+00
 -1       820 6.56250E-02 2.46094E-02 0.00000E+00
 -1       821 6.77083E-02 1.87500E-02 0.00000E+00
 -1       822 6.87500E-02 1.87500E-02 0.00000E+00
 -1       823 6.97917E-02 1.87500E-02 0.00000E+00
 -1       824 7.08333E-02 1.87500E-02 0.00000E+00
 -1       825 7.18750E-02 1.87500E-02 0.00000E+00
 -1       826 7.29167E-02 1.87500E-02 0.00000E+00
 -1       827 7.39583E-02 1.87500E-02 0.00000E+00
 -1       828 7.50000E-02 1.87500E-02 0.00000E+00
 -1       829 7.60417E-02 1.87500E-02 0.00000E+00
 -1       830 7.70833E-02 1.87500E-02 0.00000E+00
 -1       831 7.81250E-02 1.87500E-02 0.00000E+00
 -1       832 7.91667E-02 1.87500E-02 0.00000E+00
 -1       833 8.02083E-02 1.87500E-02 0.00000E+00
 -1       834 8.12500E-02 1.87500E-02 0.00000E+00
 -1       835 8.22917E-02 1.87500E-02 0.00000E+00
 -1       836 6.66667E-02 1.97917E-02 0.00000E+00
 -1       837 6.66667E-02 2.08333E-02 0.00000E+00
 -1       838 6.66667E-02 2.18750E-02 0.00000E+00
 -1       839 6.66667E-02 2.29167E-02 0.00000E+00
 -1       840 6.66667E-02 2.39583E-02 0.00000E+00
 -1       856 8.43750E-02 1.87500E-02 0.00000E+00
 -1       857 8.54167E-02 1.87500E-02 0.00000E+00
 -1       858 8.64583E-02 1.87500E-02 0.00000E+00
 -1       859 8.75000E-02 1.87500E-02 0.00000E+00
 -1       860 8.85417E-02 1.87500E-02 0.00000E+00
 -1       861 8.95833E-02 1.87500E-02 0.00000E+00
 -1       862 9.06250E-02 1.87500E-02 0.00000E+00
 -1       863 9.16667E-02 1.87500E-02 0.00000E+00
 -1       864 9.27083E-02 1.87500E-02 0.00000E+00
 -1       865 9.37500E-02 1.87500E-02 0.00000E+00
 -1       866 9.47917E-02 1.87500E-02 0.00000E+00
 -1       867 9.58333E-02 1.87500E-02 0.00000E+00
 -1       868 9.68750E-02 1.87500E-02 0.00000E+00
 -1       869 9.79167E-02 1.87500E-02 0.00000E+00
 -1       870 9.89583E-02 1.87500E-02 0.00000E+00
 -1       871 8.33333E-02 1.97917E-02 0.00000E+00
 -1       872 8.33333E-02 2.08333E-02 0.00000E+00
 -1       873 8.33333E-02 2.18750E-02 0.00000E+00
 -1       874 8.33333E-02 2.29167E-02 0.00000E+00
 -1       875 8.33333E-02 2.39583E-02 0.00000E+00
 -1       876 8.43750E-02 1.91406E-02 0.00000E+00
 -1       877 8.54167E-02 1.95312E-02 0.00000E+00
 -1       878 8.64583E-02 1.99219E-02 0.00000E+00
 -1       879 8.75000E-02 2.03125E-02 0.00000E+00
 -1       880 8.85417E-02 2.07031E-02 0.00000E+00
 -1       881 8.95833E-02 2.10938E-02 0.00000E+00
 -1       882 9.06250E-02 2.14844E-02 0.00000E+00
 -1       883 9.16667E-02 2.18750E-02 0.00000E+00
 -1       884 9.27083E-02 2.22656E-02 0.00000E+00
 -1       885 9.37500E-02 2.26563E-02 0.00000E+00
 -1       886 9.47917E-02 2.30469E-02 0.00000E+00
 -1       887 9.58333E-02 2.34375E-02 0.00000E+00
 -1       888 9.68750E-02 2.38281E-02 0.00000E+00
 -1       889 9.79167E-02 2.42187E-02 0.00000E+00
 -1       890 9.89583E-02 2.46094E-02 0.00000E+00
 -1       891 1.00000E-01 1.97917E-02 0.00000E+00
 -1       892 1.00000E-01 2.08333E-02 0.00000E+00
 -1       893 1.00000E-01 2.18750E-02 0.00000E+00
 -1       894 1.00000E-01 2.29167E-02 0.00000E+00
 -1       895 1.00000E-01 2.39583E-02 0.00000E+00
 -1       956 6.77083E-02 2.50000E-02 0.00000E+00
 -1       957 6.87500E-02 2.50000E-02 0.00000E+00
 -1       958 6.97917E-02 2.50000E-02 0.00000E+00
 -1       959 7.08333E-02 2.50000E-02 0.00000E+00
 -1       960 7.18750E-02 2.50000E-02 0.00000E+00
 -1       961 7.29167E-02 2.50000E-02 0.00000E+00
 -1       962 7.39583E-02 2.50000E-02 0.00000E+00
 -1       963 7.50000E-02 2.50000E-02 0.00000E+00
 -1       964 7.60417E-02 2.50000E-02 0.00000E+00
 -1       965 7.70833E-02 2.50000E-02 0.00000E+00
 -1       966 7.81250E-02 2.50000E-02 0.00000E+00
 -1       967 7.91667E-02 2.50000E-02 0.00000E+00
 -1       968 8.02083E-02 2.50000E-02 0.00000E+00
 -1       969 8.12500E-02 2.50000E-02 0.00000E+00
 -1       970 8.22917E-02 2.50000E-02 0.00000E+00
 -1       971 8.43750E-02 2.50000E-02 0.00000E+00
 -1       972 8.54167E-02 2.50000E-02 0.00000E+00
 -1       973 8.64583E-02 2.50000E-02 0.00000E+00
 -1       974 8.75000E-02 2.50000E-02 0.00000E+00
 -1       975 8.85417E-02 2.50000E-02 0.00000E+00
 -1       976 8.95833E-02 2.50000E-02 0.00000E+00
 -1       977 9.06250E-02 2.50000E-02 0.00000E+00
 -1       978 9.16667E-02 2.50000E-02 0.00000E+00
 -1       979 9.27083E-02 2.50000E-02 0.00000E+00
 -1       980 9.37500E-02 2.50000E-02 0.00000E+00
 -1       981 9.47917E-02 2.50000E-02 0.00000E+00
 -1       982 9.58333E-02 2.50000E-02 0.00000E+00
 -1       983 9.68750E-02 2.50000E-02 0.00000E+00
 -1       984 9.79167E-02 2.50000E-02 0.00000E+00
 -1       985 9.89583E-02 2.50000E-02 0.00000E+00
 -3
    3C                           197                                     1
 -1         1   12    0    1
 -2         1        52        51
 -1         2   12    0    1
 -2        52        54        53
 -1         3   12    0    1
 -2        54         8        55
 -1         4   12    0    1
 -2         1        57        56
 -1         5   12    0    1
 -2        57        59        58
 -1         6   12    0    1
 -2        59        61        60
 -1         7   12    0    1
 -2        61        63        62
 -1         8   12    0    1
 -2        63        65        64
 -1         9   12    0    1
 -2        65        67        66
 -1        10   12    0    1
 -2        67        69        68
 -1        11   12    0    1
 -2        69         9        70
 -1        12   12    0    1
 -2         3       122       121
 -1        13   12    0    1
 -2       122       124       123
 -1        14   12    0    1
 -2       124        10       125
 -1        15   12    0    1
 -2         5       192       191
 -1        16   12    0    1
 -2       192       194       193
 -1        17   12    0    1
 -2       194        12       195
 -1        18   12    0    1
 -2         8       272       271
 -1        19   12    0    1
 -2       272       274       273
 -1        20   12    0    1
 -2       274       276       275
 -1        21   12    0    1
 -2       276       278       277
 -1        22   12    0    1
 -2       278       280       279
 -1        23   12    0    1
 -2       280       282       281
 -1        24   12    0    1
 -2       282       284       283
 -1        25   12    0    1
 -2       284        16       285
 -1        26   12    0    1
 -2         9       302       301
 -1        27   12    0    1
 -2       302       304       303
 -1        28   12    0    1
 -2       304        16       305
 -1        29   12    0    1
 -2         9       307       306
 -1        30   12    0    1
 -2       307       309       308
 -1        31   12    0    1
 -2       309       311       310
 -1        32   12    0    1
 -2       311       313       312
 -1        33   12    0    1
 -2       313       315       314
 -1        34   12    0    1
 -2       315       317       316
 -1        35   12    0    1
 -2       317       319       318
 -1        36   12    0    1
 -2       319        17       320
 -1        37   12    0    1
 -2        10       337       336
 -1        38   12    0    1
 -2       337       339       338
 -1        39   12    0    1
 -2       339        17       340
 -1        40   12    0    1
 -2        12       407       406
 -1        41   12    0    1
 -2       407       409       408
 -1        42   12    0    1
 -2       409        19       410
 -1        43   12    0    1
 -2        16       522       521
 -1        44   12    0    1
 -2       522       524       523
 -1        45   12    0    1
 -2       524       526       525
 -1        46   12    0    1
 -2       526       528       527
 -1        47   12    0    1
 -2       528       530       529
 -1        48   12    0    1
 -2       530       532       531
 -1        49   12    0    1
 -2       532       534       533
 -1        50   12    0    1
 -2       534        24       535
 -1        51   12    0    1
 -2        17       537       536
 -1        52   12    0    1
 -2       537       539       538
 -1        53   12    0    1
 -2       539       541       540
 -1        54   12    0    1
 -2       541       543       542
 -1        55   12    0    1
 -2       543       545       544
 -1        56   12    0    1
 -2       545       547       546
 -1        57   12    0    1
 -2       547       549       548
 -1        58   12    0    1
 -2       549        18       550
 -1        59   12    0    1
 -2        17       552       551
 -1        60   12    0    1
 -2       552       554       553
 -1        61   12    0    1
 -2       554        24       555
 -1        62   12    0    1
 -2        17       557       556
 -1        63   12    0    1
 -2       557       559       558
 -1        64   12    0    1
 -2       559       561       560
 -1        65   12    0    1
 -2       561       563       562
 -1        66   12    0    1
 -2       563       565       564
 -1        67   12    0    1
 -2       565       567       566
 -1        68   12    0    1
 -2       567       569       568
 -1        69   12    0    1
 -2       569        25       570
 -1        70   12    0    1
 -2        18       572       571
 -1        71   12    0    1
 -2       572       574       573
 -1        72   12    0    1
 -2       574       576       575
 -1        73   12    0    1
 -2       576       578       577
 -1        74   12    0    1
 -2       578       580       579
 -1        75   12    0    1
 -2       580       582       581
 -1        76   12    0    1
 -2       582       584       583
 -1        77   12    0    1
 -2       584        19       585
 -1        78   12    0    1
 -2        18       587       586
 -1        79   12    0    1
 -2       587       589       588
 -1        80   12    0    1
 -2       589        25       590
 -1        81   12    0    1
 -2        18       592       591
 -1        82   12    0    1
 -2       592       594       593
 -1        83   12    0    1
 -2       594       596       595
 -1        84   12    0    1
 -2       596       598       597
 -1        85   12    0    1
 -2       598       600       599
 -1        86   12    0    1
 -2       600       602       601
 -1        87   12    0    1
 -2       602       604       603
 -1        88   12    0    1
 -2       604        26       605
 -1        89   12    0    1
 -2        19       607       606
 -1        90   12    0    1
 -2       607       609       608
 -1        91   12    0    1
 -2       609       611       610
 -1        92   12    0    1
 -2       611       613       612
 -1        93   12    0    1
 -2       613       615       614
 -1        94   12    0    1
 -2       615       617       616
 -1        95   12    0    1
 -2       617       619       618
 -1        96   12    0    1
 -2       619        20       620
 -1        97   12    0    1
 -2        19       622       621
 -1        98   12    0    1
 -2       622       624       623
 -1        99   12    0    1
 -2       624        26       625
 -1       100   12    0    1
 -2        19       627       626
 -1       101   12    0    1
 -2       627       629       628
 -1       102   12    0    1
 -2       629       631       630
 -1       103   12    0    1
 -2       631       633       632
 -1       104   12    0    1
 -2       633       635       634
 -1       105   12    0    1
 -2       635       637       636
 -1       106   12    0    1
 -2       637       639       638
 -1       107   12    0    1
 -2       639        27       640
 -1       108   12    0    1
 -2        20       657       656
 -1       109   12    0    1
 -2       657       659       658
 -1       110   12    0    1
 -2       659        27       660
 -1       111   12    0    1
 -2        20       662       661
 -1       112   12    0    1
 -2       662       664       663
 -1       113   12    0    1
 -2       664       666       665
 -1       114   12    0    1
 -2       666       668       667
 -1       115   12    0    1
 -2       668       670       669
 -1       116   12    0    1
 -2       670       672       671
 -1       117   12    0    1
 -2       672       674       673
 -1       118   12    0    1
 -2       674        28       675
 -1       119   12    0    1
 -2        21       677       676
 -1       120   12    0    1
 -2       677       679       678
 -1       121   12    0    1
 -2       679        28       680
 -1       122   12    0    1
 -2        24       772       771
 -1       123   12    0    1
 -2       772       774       773
 -1       124   12    0    1
 -2       774       776       775
 -1       125   12    0    1
 -2       776       778       777
 -1       126   12    0    1
 -2       778       780       779
 -1       127   12    0    1
 -2       780       782       781
 -1       128   12    0    1
 -2       782       784       783
 -1       129   12    0    1
 -2       784        32       785
 -1       130   12    0    1
 -2        25       787       786
 -1       131   12    0    1
 -2       787       789       788
 -1       132   12    0    1
 -2       789       791       790
 -1       133   12    0    1
 -2       791       793       792
 -1       134   12    0    1
 -2       793       795       794
 -1       135   12    0    1
 -2       795       797       796
 -1       136   12    0    1
 -2       797       799       798
 -1       137   12    0    1
 -2       799        26       800
 -1       138   12    0    1
 -2        25       802       801
 -1       139   12    0    1
 -2       802       804       803
 -1       140   12    0    1
 -2       804        32       805
 -1       141   12    0    1
 -2        25       807       806
 -1       142   12    0    1
 -2       807       809       808
 -1       143   12    0    1
 -2       809       811       810
 -1       144   12    0    1
 -2       811       813       812
 -1       145   12    0    1
 -2       813       815       814
 -1       146   12    0    1
 -2       815       817       816
 -1       147   12    0    1
 -2       817       819       818
 -1       148   12    0    1
 -2       819        33       820
 -1       149   12    0    1
 -2        26       822       821
 -1       150   12    0    1
 -2       822       824       823
 -1       151   12    0    1
 -2       824       826       825
 -1       152   12    0    1
 -2       826       828       827
 -1       153   12    0    1
 -2       828       830       829
 -1       154   12    0    1
 -2       830       832       831
 -1       155   12    0    1
 -2       832       834       833
 -1       156   12    0    1
 -2       834        27       835
 -1       157   12    0    1
 -2        26       837       836
 -1       158   12    0    1
 -2       837       839       838
 -1       159   12    0    1
 -2       839        33       840
 -1       160   12    0    1
 -2        27       857       856
 -1       161   12    0    1
 -2       857       859       858
 -1       162   12    0    1
 -2       859       861       860
 -1       163   12    0    1
 -2       861       863       862
 -1       164   12    0    1
 -2       863       865       864
 -1       165   12    0    1
 -2       865       867       866
 -1       166   12    0    1
 -2       867       869       868
 -1       167   12    0    1
 -2       869        28       870
 -1       168   12    0    1
 -2        27       872       871
 -1       169   12    0    1
 -2       872       874       873
 -1       170   12    0    1
 -2       874        34       875
 -1       171   12    0    1
 -2        27       877       876
 -1       172   12    0    1
 -2       877       879       878
 -1       173   12    0    1
 -2       879       881       880
 -1       174   12    0    1
 -2       881       883       882
 -1       175   12    0    1
 -2       883       885       884
 -1       176   12    0    1
 -2       885       887       886
 -1       177   12    0    1
 -2       887       889       888
 -1       178   12    0    1
 -2       889        35       890
 -1       179   12    0    1
 -2        28       892       891
 -1       180   12    0    1
 -2       892       894       893
 -1       181   12    0    1
 -2       894        35       895
 -1       182   12    0    1
 -2        33       957       956
 -1       183   12    0    1
 -2       957       959       958
 -1       184   12    0    1
 -2       959       961       960
 -1       185   12    0    1
 -2       961       963       962
 -1       186   12    0    1
 -2       963       965       964
 -1       187   12    0    1
 -2       965       967       966
 -1       188   12    0    1
 -2       967       969       968
 -1       189   12    0    1
 -2       969        34       970
 -1       190   12    0    1
 -2        34       972       971
 -1       191   12    0    1
 -2       972       974       973
 -1       192   12    0    1
 -2       974       976       975
 -1       193   12    0    1
 -2       976       978       977
 -1       194   12    0    1
 -2       978       980       979
 -1       195   12    0    1
 -2       980       982       981
 -1       196   12    0    1
 -2       982       984       983
 -1       197   12    0    1
 -2       984        35       985
 -3
    1PSTEP                         1           1           1          
  100CL  101 1.000000000         382                     0    1           1
 -4  DISP        4    1
 -5  D1          1    2    1    0
 -5  D2          1    2    2    0
 -5  D3          1    2    3    0
 -5  ALL         1    2    0    0    1ALL
 -1         1 1.29568E-04 0.00000E+00 0.00000E+00
 -1         3 8.22906E-05-4.22478E-27 0.00000E+00
 -1         5 6.45083E-05 3.64570E-25 1.32349E-23
 -1         8 1.03655E-04-1.36917E-06 0.00000E+00
 -1         9 9.03814E-05-2.86423E-05 0.00000E+00
 -1        10 7.59505E-05-2.65387E-06 6.61744E-24
 -1        12 6.32110E-05 1.23826E-06 6.61744E-24
 -1        16 7.33840E-05-2.88084E-05 0.00000E+00
 -1        17 5.75986E-05-5.32087E-06 0.00000E+00
 -1        18 5.72895E-05-4.75355E-07 0.00000E+00
 -1        19 5.93167E-05 2.46687E-06 0.00000E+00
 -1        20 6.01089E-05 2.68332E-05 0.00000E+00
 -1        21 6.01325E-05 6.44197E-05-6.61744E-24
 -1        24 2.35462E-05-6.60868E-06 0.00000E+00
 -1        25 5.27609E-05-1.30065E-07 0.00000E+00
 -1        26 5.44295E-05 3.25912E-06 0.00000E+00
 -1        27 5.24036E-05 2.57874E-05 0.00000E+00
 -1        28 4.98599E-05 6.34114E-05 0.00000E+00
 -1        32 0.00000E+00 0.00000E+00 0.00000E+00
 -1        33 4.88321E-05 4.81904E-06 0.00000E+00
 -1        34 4.65666E-05 2.56761E-05 0.00000E+00
 -1        35 4.26920E-05 6.28640E-05 0.00000E+00
 -1        51 1.27561E-04-2.29220E-07 0.00000E+00
 -1        52 1.24292E-04-4.50707E-07 0.00000E+00
 -1        53 1.20007E-04-6.72024E-07 0.00000E+00
 -1        54 1.14966E-04-8.96067E-07 0.00000E+00
 -1        55 1.09428E-04-1.12532E-06 4.75629E-24
 -1        56 1.27081E-04-1.40181E-06-5.29396E-23
 -1        57 1.24798E-04-3.64220E-06 0.00000E+00
 -1        58 1.22781E-04-6.57945E-06 1.05879E-22
 -1        59 1.20954E-04-1.00763E-05 5.29396E-23
 -1        60 1.19257E-04-1.39228E-05 0.00000E+00
 -1        61 1.17602E-04-1.78951E-05 0.00000E+00
 -1        62 1.15906E-04-2.17549E-05 0.00000E+00
 -1        63 1.14081E-04-2.52712E-05 5.29396E-23
 -1        64 1.12055E-04-2.82494E-05-1.05879E-22
 -1        65 1.09769E-04-3.05265E-05 5.29396E-23
 -1        66 1.07187E-04-3.20143E-05-1.05879E-22
 -1        67 1.04297E-04-3.26700E-05 5.29396E-23
 -1        68 1.01112E-04-3.25405E-05-1.05879E-22
 -1        69 9.76823E-05-3.17127E-05 0.00000E+00
 -1        70 9.40484E-05-3.03599E-05 0.00000E+00
 -1       121 8.21130E-05-4.41640E-07 0.00000E+00
 -1       122 8.15806E-05-8.83394E-07 0.00000E+00
 -1       123 8.06950E-05-1.32539E-06 1.32349E-23
 -1       124 7.94589E-05-1.76773E-06 0.00000E+00
 -1       125 7.78758E-05-2.21053E-06-1.32349E-23
 -1       191 6.44723E-05 2.06416E-07 0.00000E+00
 -1       192 6.43642E-05 4.12825E-07 0.00000E+00
 -1       193 6.41841E-05 6.19224E-07 1.32349E-23
 -1       194 6.39318E-05 8.25604E-07-6.61744E-24
 -1       195 6.36075E-05 1.03195E-06 0.00000E+00
 -1       271 1.00117E-04 1.51173E-06 0.00000E+00
 -1       272 9.70686E-05 2.87805E-06-2.64698E-23
 -1       273 9.45305E-05 2.89330E-06 5.29396E-23
 -1       274 9.24284E-05 1.71618E-06 0.00000E+00
 -1       275 9.07018E-05-4.68700E-07 5.29396E-23
 -1       276 8.92746E-05-3.46127E-06 0.00000E+00
 -1       277 8.80683E-05-7.04803E-06 0.00000E+00
 -1       278 8.69992E-05-1.10047E-05 0.00000E+00
 -1       279 8.59821E-05-1.51012E-05 0.00000E+00
 -1       280 8.49306E-05-1.91047E-05 2.64698E-23
 -1       281 8.37590E-05-2.27840E-05 0.00000E+00
 -1       282 8.23844E-05-2.59137E-05 2.64698E-23
 -1       283 8.07254E-05-2.82776E-05 0.00000E+00
 -1       284 7.87130E-05-2.96708E-05 0.00000E+00
 -1       285 7.62666E-05-2.99099E-05 0.00000E+00
 -1       301 8.75050E-05-2.86826E-05 6.61744E-24
 -1       302 8.46252E-05-2.87000E-05 0.00000E+00
 -1       303 8.17574E-05-2.87139E-05-6.61744E-24
 -1       304 7.89176E-05-2.87293E-05-3.30872E-24
 -1       305 7.61214E-05-2.87510E-05 1.32349E-23
 -1       306 8.81228E-05-2.65341E-05 0.00000E+00
 -1       307 8.59814E-05-2.48370E-05-1.32349E-23
 -1       308 8.39680E-05-2.34772E-05-5.29396E-23
 -1       309 8.20525E-05-2.23918E-05-2.64698E-23
 -1       310 8.02136E-05-2.15115E-05 0.00000E+00
 -1       311 7.84248E-05-2.07665E-05-2.64698E-23
 -1       312 7.66599E-05-2.00857E-05 5.29396E-23
 -1       313 7.48920E-05-1.93971E-05 2.64698E-23
 -1       314 7.30941E-05-1.86288E-05 0.00000E+00
 -1       315 7.12397E-05-1.77101E-05 2.64698E-23
 -1       316 6.93027E-05-1.65714E-05 0.00000E+00
 -1       317 6.72587E-05-1.51454E-05-2.64698E-23
 -1       318 6.50829E-05-1.33678E-05-2.64698E-23
 -1       319 6.27577E-05-1.11763E-05-1.32349E-23
 -1       320 6.02547E-05-8.51650E-06 0.00000E+00
 -1       336 7.36886E-05-3.09784E-06-1.32349E-23
 -1       337 7.10969E-05-3.54241E-06 6.61744E-24
 -1       338 6.81829E-05-3.98769E-06 0.00000E+00
 -1       339 6.49553E-05-4.43304E-06 6.61744E-24
 -1       340 6.14237E-05-4.87939E-06 1.32349E-23
 -1       406 6.27423E-05 1.44451E-06 0.00000E+00
 -1       407 6.22015E-05 1.65064E-06 0.00000E+00
 -1       408 6.15884E-05 1.85655E-06 0.00000E+00
 -1       409 6.09030E-05 2.06192E-06 3.30872E-24
 -1       410 6.01456E-05 2.26620E-06 0.00000E+00
 -1       521 7.02436E-05-2.71692E-05 5.29396E-23
 -1       522 6.71595E-05-2.58671E-05-2.64698E-23
 -1       523 6.41743E-05-2.48244E-05 0.00000E+00
 -1       524 6.12559E-05-2.39852E-05 2.64698E-23
 -1       525 5.83883E-05-2.32845E-05 0.00000E+00
 -1       526 5.55467E-05-2.26571E-05 0.00000E+00
 -1       527 5.27072E-05-2.20365E-05-5.29396E-23
 -1       528 4.98450E-05-2.13563E-05 0.00000E+00
 -1       529 4.69355E-05-2.05508E-05-5.29396E-23
 -1       530 4.39554E-05-1.95571E-05 0.00000E+00
 -1       531 4.08820E-05-1.83150E-05 5.29396E-23
 -1       532 3.76955E-05-1.67689E-05-2.64698E-23
 -1       533 3.43763E-05-1.48684E-05 5.29396E-23
 -1       534 3.09153E-05-1.25671E-05 2.64698E-23
 -1       535 2.72885E-05-9.83110E-06-5.29396E-23
 -1       536 5.75605E-05-1.82249E-06 0.00000E+00
 -1       537 5.75370E-05 8.46919E-07-1.65436E-24
 -1       538 5.75152E-05 2.77281E-06 3.30872E-24
 -1       539 5.74961E-05 4.04169E-06 0.00000E+00
 -1       540 5.74779E-05 4.73993E-06 0.00000E+00
 -1       541 5.74603E-05 4.95404E-06 0.00000E+00
 -1       542 5.74428E-05 4.77057E-06-8.27181E-25
 -1       543 5.74253E-05 4.27612E-06 4.13590E-25
 -1       544 5.74077E-05 3.55734E-06 0.00000E+00
 -1       545 5.73901E-05 2.70089E-06 2.06795E-25
 -1       546 5.73724E-05 1.79344E-06 0.00000E+00
 -1       547 5.73548E-05 9.21687E-07-1.03398E-25
 -1       548 5.73374E-05 1.72310E-07 7.75482E-26
 -1       549 5.73205E-05-3.68044E-07 0.00000E+00
 -1       550 5.73037E-05-6.12661E-07 0.00000E+00
 -1       551 5.25120E-05-5.52803E-06-3.30872E-24
 -1       552 4.68343E-05-5.73332E-06-2.48154E-24
 -1       553 4.08299E-05-5.94026E-06 6.61744E-24
 -1       554 3.47681E-05-6.15038E-06 0.00000E+00
 -1       555 2.89184E-05-6.36557E-06 2.64698E-23
 -1       556 5.61608E-05-2.01138E-06 0.00000E+00
 -1       557 5.50173E-05 5.40447E-07 0.00000E+00
 -1       558 5.41347E-05 2.40521E-06 0.00000E+00
 -1       559 5.34826E-05 3.66075E-06 0.00000E+00
 -1       560 5.30307E-05 4.38505E-06 0.00000E+00
 -1       561 5.27491E-05 4.65684E-06-6.61744E-24
 -1       562 5.26078E-05 4.55497E-06 0.00000E+00
 -1       563 5.25770E-05 4.15843E-06-1.32349E-23
 -1       564 5.26271E-05 3.54629E-06 6.61744E-24
 -1       565 5.27284E-05 2.79765E-06-3.30872E-24
 -1       566 5.28512E-05 1.99168E-06 0.00000E+00
 -1       567 5.29659E-05 1.20756E-06-8.27181E-25
 -1       568 5.30429E-05 5.24439E-07 1.24077E-24
 -1       569 5.30531E-05 2.13588E-08 4.13590E-25
 -1       570 5.29673E-05-2.22716E-07 1.65436E-24
 -1       571 5.74114E-05-2.25106E-07-8.27181E-25
 -1       572 5.75369E-05-6.11433E-08 1.65436E-24
 -1       573 5.76634E-05 3.23704E-08 1.65436E-24
 -1       574 5.77904E-05 7.20791E-08 8.27181E-25
 -1       575 5.79176E-05 7.46972E-08-3.30872E-24
 -1       576 5.80448E-05 5.70467E-08 1.65436E-24
 -1       577 5.81721E-05 3.59581E-08-3.30872E-24
 -1       578 5.82994E-05 2.82762E-08 0.00000E+00
 -1       579 5.84267E-05 5.08475E-08 0.00000E+00
 -1       580 5.85540E-05 1.20520E-07 0.00000E+00
 -1       581 5.86813E-05 2.54139E-07 0.00000E+00
 -1       582 5.88086E-05 4.68538E-07 0.00000E+00
 -1       583 5.89358E-05 7.80532E-07 0.00000E+00
 -1       584 5.90630E-05 1.20677E-06 0.00000E+00
 -1       585 5.91900E-05 1.76379E-06 0.00000E+00
 -1       586 5.66587E-05-4.16763E-07-3.30872E-24
 -1       587 5.59290E-05-3.57699E-07 0.00000E+00
 -1       588 5.51370E-05-2.98693E-07-3.30872E-24
 -1       589 5.43201E-05-2.40230E-07 0.00000E+00
 -1       590 5.35157E-05-1.82996E-07 0.00000E+00
 -1       591 5.70932E-05-1.76447E-07 0.00000E+00
 -1       592 5.69122E-05 6.47149E-08 0.00000E+00
 -1       593 5.67475E-05 2.59614E-07 0.00000E+00
 -1       594 5.65955E-05 4.18577E-07 0.00000E+00
 -1       595 5.64529E-05 5.51941E-07 0.00000E+00
 -1       596 5.63160E-05 6.69957E-07 0.00000E+00
 -1       597 5.61809E-05 7.82868E-07 0.00000E+00
 -1       598 5.60440E-05 9.00907E-07-8.27181E-25
 -1       599 5.59012E-05 1.03431E-06-1.65436E-24
 -1       600 5.57489E-05 1.19329E-06-8.27181E-25
 -1       601 5.55831E-05 1.38809E-06-1.65436E-24
 -1       602 5.54002E-05 1.62894E-06 4.13590E-25
 -1       603 5.51964E-05 1.92608E-06 0.00000E+00
 -1       604 5.49682E-05 2.28980E-06 0.00000E+00
 -1       605 5.47123E-05 2.73041E-06 0.00000E+00
 -1       606 5.93712E-05 3.42589E-06 0.00000E+00
 -1       607 5.94225E-05 4.49425E-06 6.61744E-24
 -1       608 5.94728E-05 5.66551E-06 6.61744E-24
 -1       609 5.95226E-05 6.93228E-06 0.00000E+00
 -1       610 5.95721E-05 8.28714E-06 0.00000E+00
 -1       611 5.96214E-05 9.72249E-06 0.00000E+00
 -1       612 5.96706E-05 1.12308E-05 0.00000E+00
 -1       613 5.97197E-05 1.28044E-05 0.00000E+00
 -1       614 5.97687E-05 1.44357E-05 0.00000E+00
 -1       615 5.98176E-05 1.61171E-05-1.65436E-24
 -1       616 5.98664E-05 1.78411E-05-3.30872E-24
 -1       617 5.99152E-05 1.96000E-05 0.00000E+00
 -1       618 5.99639E-05 2.13863E-05 0.00000E+00
 -1       619 6.00125E-05 2.31923E-05 0.00000E+00
 -1       620 6.00609E-05 2.50105E-05 0.00000E+00
 -1       621 5.84229E-05 2.59973E-06 0.00000E+00
 -1       622 5.75448E-05 2.73298E-06 0.00000E+00
 -1       623 5.66944E-05 2.86618E-06 3.30872E-24
 -1       624 5.58838E-05 2.99900E-06 8.27181E-25
 -1       625 5.51250E-05 3.13105E-06 3.30872E-24
 -1       626 5.90521E-05 3.48466E-06 0.00000E+00
 -1       627 5.87433E-05 4.61699E-06-3.30872E-24
 -1       628 5.83952E-05 5.85301E-06 0.00000E+00
 -1       629 5.80126E-05 7.18063E-06 0.00000E+00
 -1       630 5.76000E-05 8.58773E-06 0.00000E+00
 -1       631 5.71621E-05 1.00620E-05 0.00000E+00
 -1       632 5.67035E-05 1.15911E-05 0.00000E+00
 -1       633 5.62289E-05 1.31627E-05 0.00000E+00
 -1       634 5.57430E-05 1.47646E-05 0.00000E+00
 -1       635 5.52502E-05 1.63843E-05-1.65436E-24
 -1       636 5.47554E-05 1.80096E-05 3.30872E-24
 -1       637 5.42630E-05 1.96281E-05-8.27181E-25
 -1       638 5.37776E-05 2.12276E-05-3.30872E-24
 -1       639 5.33036E-05 2.27955E-05 1.24077E-24
 -1       640 5.28450E-05 2.43197E-05-8.27181E-25
 -1       656 5.84993E-05 2.66646E-05 0.00000E+00
 -1       657 5.71338E-05 2.64873E-05-1.65436E-24
 -1       658 5.59272E-05 2.63105E-05 3.30872E-24
 -1       659 5.47938E-05 2.61336E-05 0.00000E+00
 -1       660 5.36478E-05 2.59565E-05 1.65436E-24
 -1       661 5.95913E-05 2.87753E-05 0.00000E+00
 -1       662 5.90241E-05 3.08690E-05 0.00000E+00
 -1       663 5.84090E-05 3.30892E-05 0.00000E+00
 -1       664 5.77555E-05 3.54142E-05 0.00000E+00
 -1       665 5.70711E-05 3.78212E-05-6.61744E-24
 -1       666 5.63642E-05 4.02882E-05 0.00000E+00
 -1       667 5.56430E-05 4.27932E-05 0.00000E+00
 -1       668 5.49159E-05 4.53143E-05 0.00000E+00
 -1       669 5.41909E-05 4.78294E-05 0.00000E+00
 -1       670 5.34764E-05 5.03166E-05 0.00000E+00
 -1       671 5.27806E-05 5.27541E-05 6.61744E-24
 -1       672 5.21118E-05 5.51195E-05 0.00000E+00
 -1       673 5.14782E-05 5.73909E-05 6.61744E-24
 -1       674 5.08870E-05 5.95453E-05 0.00000E+00
 -1       675 5.03484E-05 6.15610E-05 0.00000E+00
 -1       676 5.84091E-05 6.42504E-05 0.00000E+00
 -1       677 5.66877E-05 6.40811E-05 0.00000E+00
 -1       678 5.49701E-05 6.39119E-05 3.30872E-24
 -1       679 5.32584E-05 6.37435E-05 1.65436E-24
 -1       680 5.15543E-05 6.35750E-05 0.00000E+00
 -1       771 2.09866E-05-3.27210E-06 0.00000E+00
 -1       772 1.86842E-05-6.51719E-07 0.00000E+00
 -1       773 1.66249E-05 1.31919E-06 0.00000E+00
 -1       774 1.47833E-05 2.70978E-06 0.00000E+00
 -1       775 1.31336E-05 3.58972E-06-5.29396E-23
 -1       776 1.16494E-05 4.02959E-06 0.00000E+00
 -1       777 1.03039E-05 4.10036E-06 0.00000E+00
 -1       778 9.07020E-06 3.87354E-06 0.00000E+00
 -1       779 7.92123E-06 3.42090E-06 5.29396E-23
 -1       780 6.82997E-06 2.81455E-06 1.32349E-23
 -1       781 5.76935E-06 2.12673E-06 0.00000E+00
 -1       782 4.71238E-06 1.42985E-06-1.32349E-23
 -1       783 3.63209E-06 7.96296E-07 0.00000E+00
 -1       784 2.50235E-06 2.98485E-07 0.00000E+00
 -1       785 1.29704E-06 8.67215E-09 2.64698E-23
 -1       786 5.28585E-05 3.33445E-07 0.00000E+00
 -1       787 5.29624E-05 6.84140E-07-8.27181E-25
 -1       788 5.30664E-05 9.39044E-07 0.00000E+00
 -1       789 5.31713E-05 1.11523E-06 1.65436E-24
 -1       790 5.32763E-05 1.22970E-06 0.00000E+00
 -1       791 5.33815E-05 1.29940E-06 0.00000E+00
 -1       792 5.34868E-05 1.34129E-06 3.30872E-24
 -1       793 5.35920E-05 1.37225E-06 0.00000E+00
 -1       794 5.36973E-05 1.40921E-06-3.30872E-24
 -1       795 5.38026E-05 1.46905E-06-1.65436E-24
 -1       796 5.39079E-05 1.56872E-06 3.30872E-24
 -1       797 5.40131E-05 1.72515E-06 0.00000E+00
 -1       798 5.41182E-05 1.95534E-06 0.00000E+00
 -1       799 5.42229E-05 2.27632E-06 1.65436E-24
 -1       800 5.43276E-05 2.70523E-06 0.00000E+00
 -1       801 4.81885E-05-7.51587E-08 0.00000E+00
 -1       802 3.86253E-05-4.45334E-08 0.00000E+00
 -1       803 2.65454E-05-3.70278E-08-1.65436E-24
 -1       804 1.44289E-05-3.50952E-08 0.00000E+00
 -1       805 4.75534E-06-1.14192E-08-2.64698E-23
 -1       806 5.24785E-05 2.89354E-07 0.00000E+00
 -1       807 5.22140E-05 6.51615E-07 0.00000E+00
 -1       808 5.19666E-05 9.65986E-07 0.00000E+00
 -1       809 5.17333E-05 1.24156E-06 0.00000E+00
 -1       810 5.15110E-05 1.48740E-06 3.30872E-24
 -1       811 5.12964E-05 1.71259E-06 0.00000E+00
 -1       812 5.10861E-05 1.92617E-06 0.00000E+00
 -1       813 5.08767E-05 2.13720E-06-1.65436E-24
 -1       814 5.06650E-05 2.35475E-06 0.00000E+00
 -1       815 5.04473E-05 2.58786E-06 0.00000E+00
 -1       816 5.02205E-05 2.84558E-06 0.00000E+00
 -1       817 4.99810E-05 3.13697E-06 8.27181E-25
 -1       818 4.97256E-05 3.47106E-06-1.65436E-24
 -1       819 4.94509E-05 3.85684E-06-8.27181E-25
 -1       820 4.91538E-05 4.30331E-06 1.65436E-24
 -1       821 5.43108E-05 3.98800E-06-8.27181E-25
 -1       822 5.41848E-05 4.89745E-06 0.00000E+00
 -1       823 5.40586E-05 5.96865E-06-3.30872E-24
 -1       824 5.39313E-05 7.18242E-06-1.65436E-24
 -1       825 5.38037E-05 8.51953E-06-3.30872E-24
 -1       826 5.36757E-05 9.96060E-06-1.65436E-24
 -1       827 5.35475E-05 1.14862E-05 0.00000E+00
 -1       828 5.34192E-05 1.30767E-05 0.00000E+00
 -1       829 5.32908E-05 1.47127E-05 0.00000E+00
 -1       830 5.31625E-05 1.63745E-05 0.00000E+00
 -1       831 5.30341E-05 1.80424E-05 0.00000E+00
 -1       832 5.29060E-05 1.96968E-05 0.00000E+00
 -1       833 5.27780E-05 2.13181E-05-3.30872E-24
 -1       834 5.26511E-05 2.28866E-05 0.00000E+00
 -1       835 5.25242E-05 2.43828E-05 1.65436E-24
 -1       836 5.36525E-05 3.51469E-06 0.00000E+00
 -1       837 5.26909E-05 3.77920E-06-3.30872E-24
 -1       838 5.16362E-05 4.04319E-06 0.00000E+00
 -1       839 5.05804E-05 4.30640E-06 3.30872E-24
 -1       840 4.96151E-05 4.56998E-06 0.00000E+00
 -1       856 5.22540E-05 2.73025E-05-1.65436E-24
 -1       857 5.20965E-05 2.91080E-05-1.65436E-24
 -1       858 5.19385E-05 3.11665E-05 0.00000E+00
 -1       859 5.17789E-05 3.34398E-05 0.00000E+00
 -1       860 5.16188E-05 3.58896E-05 3.30872E-24
 -1       861 5.14581E-05 3.84772E-05 0.00000E+00
 -1       862 5.12972E-05 4.11641E-05 3.30872E-24
 -1       863 5.11360E-05 4.39115E-05 0.00000E+00
 -1       864 5.09748E-05 4.66804E-05-6.61744E-24
 -1       865 5.08136E-05 4.94322E-05 0.00000E+00
 -1       866 5.06526E-05 5.21278E-05 6.61744E-24
 -1       867 5.04920E-05 5.47285E-05 0.00000E+00
 -1       868 5.03318E-05 5.71957E-05 0.00000E+00
 -1       869 5.01726E-05 5.94907E-05 0.00000E+00
 -1       870 5.00139E-05 6.15752E-05-3.30872E-24
 -1       871 5.12724E-05 2.57716E-05 0.00000E+00
 -1       872 5.02697E-05 2.57542E-05 0.00000E+00
 -1       873 4.93470E-05 2.57364E-05 0.00000E+00
 -1       874 4.84550E-05 2.57181E-05-4.13590E-25
 -1       875 4.75445E-05 2.56990E-05 0.00000E+00
 -1       876 5.20675E-05 2.73602E-05 0.00000E+00
 -1       877 5.16476E-05 2.91832E-05 0.00000E+00
 -1       878 5.11466E-05 3.12206E-05 0.00000E+00
 -1       879 5.05782E-05 3.34408E-05 0.00000E+00
 -1       880 4.99532E-05 3.58114E-05 6.61744E-24
 -1       881 4.92836E-05 3.83010E-05 0.00000E+00
 -1       882 4.85809E-05 4.08781E-05 6.61744E-24
 -1       883 4.78571E-05 4.35115E-05 3.30872E-24
 -1       884 4.71236E-05 4.61702E-05 6.61744E-24
 -1       885 4.63924E-05 4.88230E-05 0.00000E+00
 -1       886 4.56750E-05 5.14389E-05 6.61744E-24
 -1       887 4.49830E-05 5.39867E-05 0.00000E+00
 -1       888 4.43283E-05 5.64352E-05 6.61744E-24
 -1       889 4.37213E-05 5.87525E-05-3.30872E-24
 -1       890 4.31757E-05 6.09075E-05-3.30872E-24
 -1       891 4.84263E-05 6.33206E-05 0.00000E+00
 -1       892 4.73026E-05 6.32287E-05 0.00000E+00
 -1       893 4.63283E-05 6.31370E-05 0.00000E+00
 -1       894 4.53423E-05 6.30455E-05-8.27181E-25
 -1       895 4.41837E-05 6.29537E-05-1.65436E-24
 -1       956 4.86939E-05 5.57935E-06 0.00000E+00
 -1       957 4.85531E-05 6.48979E-06-8.27181E-25
 -1       958 4.84117E-05 7.53465E-06 0.00000E+00
 -1       959 4.82700E-05 8.69717E-06-8.27181E-25
 -1       960 4.81279E-05 9.96059E-06 3.30872E-24
 -1       961 4.79858E-05 1.13080E-05 1.65436E-24
 -1       962 4.78435E-05 1.27224E-05 0.00000E+00
 -1       963 4.77012E-05 1.41870E-05 1.65436E-24
 -1       964 4.75588E-05 1.56847E-05-3.30872E-24
 -1       965 4.74164E-05 1.71987E-05 0.00000E+00
 -1       966 4.72740E-05 1.87120E-05 0.00000E+00
 -1       967 4.71317E-05 2.02076E-05 0.00000E+00
 -1       968 4.69895E-05 2.16686E-05 0.00000E+00
 -1       969 4.68476E-05 2.30782E-05 3.30872E-24
 -1       970 4.67062E-05 2.44194E-05 0.00000E+00
 -1       971 4.63319E-05 2.70201E-05 0.00000E+00
 -1       972 4.60907E-05 2.86794E-05 0.00000E+00
 -1       973 4.58490E-05 3.06155E-05 6.61744E-24
 -1       974 4.56060E-05 3.27893E-05 0.00000E+00
 -1       975 4.53624E-05 3.51615E-05 0.00000E+00
 -1       976 4.51183E-05 3.76921E-05 0.00000E+00
 -1       977 4.48738E-05 4.03413E-05 6.61744E-24
 -1       978 4.46292E-05 4.30686E-05 0.00000E+00
 -1       979 4.43844E-05 4.58339E-05 6.61744E-24
 -1       980 4.41397E-05 4.85965E-05 0.00000E+00
 -1       981 4.38952E-05 5.13162E-05 6.61744E-24
 -1       982 4.36511E-05 5.39526E-05 0.00000E+00
 -1       983 4.34075E-05 5.64654E-05 6.61744E-24
 -1       984 4.31656E-05 5.88147E-05 0.00000E+00
 -1       985 4.29241E-05 6.09606E-05 3.30872E-24
 -3
    1PSTEP                         2           1           1          
  100CL  101 1.000000000         382                     0    1           1
 -4  STRESS      6    1
 -5  SXX         1    4    1    1
 -5  SYY         1    4    2    2
 -5  SZZ         1    4    3    3
 -5  SXY         1    4    1    2
 -5  SYZ         1    4    2    3
 -5  SZX         1    4    3    1
 -1         1-3.56733E+06-1.53253E+06-7.91252E+05-1.86706E+06-4.29281E-10-6.49015E-09
 -1         3-5.93432E+01-1.26199E+06-3.28885E+01-3.52541E+02-1.65432E-11-1.39153E-08
 -1         5-3.87800E+01 5.90863E+05 2.05012E+01 1.88210E+00 2.23735E-10 2.62171E-08
 -1         8-2.77185E+06-1.27886E+06-5.07077E+05-1.72452E+06 4.14730E-10-5.19503E-09
 -1         9-3.43848E+06-1.12671E+06-6.03119E+05-1.08082E+06-3.43668E-09-4.47714E-09
 -1        10-1.19018E+02-1.26212E+06-1.24028E+03-2.05646E+03-2.59604E-09 4.56885E-09
 -1        12-3.05277E+01 5.90906E+05 6.65720E+02 1.20871E+01 6.20147E-10-1.19599E-09
 -1        16-3.68720E+06-1.17737E+06-4.99761E+05-1.26611E+06-4.57173E-10-7.13711E-09
 -1        17-7.37821E+05-5.77642E+05-9.14744E+04-4.94741E+05-4.17494E-09 4.00178E-09
 -1        18 3.11940E+04 1.34733E+04-1.68365E+04-1.20227E+05 8.34916E-10 1.23964E-09
 -1        19 1.56417E+05 1.99129E+05 6.31085E+02 9.90977E+03-1.31658E-09-4.21278E-10
 -1        20 1.61943E+05-1.13545E+05-1.29141E+04 9.12741E+04 1.20860E-08 1.55463E-09
 -1        21-1.25360E+02-4.80884E+05-2.02740E+03-6.44097E+02 7.65735E-09 1.43174E-09
 -1        24-2.73033E+06-9.98361E+05-2.48674E+05-1.34659E+06-1.48915E-09 4.22976E-09
 -1        25-5.76165E+03 3.53628E+04 2.51054E+04-5.07473E+05 1.34823E-09-8.07631E-11
 -1        26-7.47956E+03 1.93209E+05 1.30800E+04-3.71458E+04-9.74978E-11 3.87093E-09
 -1        27-3.10390E+04-7.40730E+04-3.22647E+04 1.01147E+05 3.92568E-09 3.20263E-09
 -1        28-1.30161E+04-1.47055E+05-7.38726E+02 7.20251E+04 1.95912E-08 1.96688E-09
 -1        32-1.03631E+06-1.78392E+05 2.49501E+05-1.52142E+06-1.48430E-09-2.79215E-10
 -1        33-1.34571E+05 2.21406E+05 6.61150E+04-4.89224E+04 4.41560E-10 4.01390E-10
 -1        34-3.49658E+05-5.99684E+04-2.52185E+04 8.97057E+04 2.63924E-09-4.80213E-10
 -1        35-4.48961E+04-4.95244E+04-8.89523E+02 1.09479E+05 2.41986E-08-1.75836E-09
 -1        51 4.11706E+04-5.74496E+05 6.44938E+04-1.49799E+06-2.61934E-10 1.19326E-09
 -1        52 2.27153E+04-5.73961E+05 4.09474E+04-1.64274E+06 6.76664E-10 4.70754E-09
 -1        53 1.83242E+04-5.92250E+05 3.49860E+04-1.49407E+06 1.60071E-10-3.79805E-09
 -1        54 4.02127E+04-5.89894E+05 5.61368E+04-1.64669E+06 1.14960E-09-4.19823E-09
 -1        55 8.38775E+04-6.08925E+05 1.03360E+05-1.49316E+06 3.34694E-10-1.31695E-09
 -1        56-6.74907E+06-7.54093E+05-5.64265E+05-2.60661E+06 1.21508E-09-3.78350E-10
 -1        57-7.00245E+06-1.22680E+06-3.78830E+05-2.55335E+06 2.11912E-09-3.37604E-09
 -1        58-6.86614E+06-9.25226E+05-1.32676E+05-2.56679E+06-7.78527E-10-1.30967E-10
 -1        59-6.86414E+06-1.02788E+06-7.86212E+04-2.60406E+06-6.66205E-11 5.58794E-09
 -1        60-6.88556E+06-9.45788E+05-3.09119E+04-2.55825E+06-1.14596E-09-7.69069E-09
 -1        61-6.84339E+06-1.00174E+06-1.74757E+04-2.61184E+06-1.79261E-09 3.84239E-09
 -1        62-6.88652E+06-9.50405E+05-8.49175E+03-2.55927E+06 1.24510E-09 2.70882E-09
 -1        63-6.84818E+06-9.90928E+05-7.02889E+03-2.60362E+06 4.73028E-09 1.84104E-09
 -1        64-6.88051E+06-9.56622E+05-8.25355E+03-2.56635E+06 1.17052E-09 4.18049E-09
 -1        65-6.86510E+06-9.79005E+05-1.65232E+04-2.58553E+06 6.26505E-09-3.75167E-11
 -1        66-6.86944E+06-9.62567E+05-2.93525E+04-2.57719E+06-1.28864E-09 4.89672E-09
 -1        67-6.90036E+06-9.88150E+05-7.42451E+04-2.56046E+06 2.10457E-09 9.18953E-09
 -1        68-6.84568E+06-9.48338E+05-1.25401E+05-2.59123E+06-1.29148E-09 6.11908E-09
 -1        69-7.03578E+06-1.17208E+06-3.57975E+05-2.50857E+06 6.05723E-10 1.34969E-09
 -1        70-6.73624E+06-7.85168E+05-5.33143E+05-2.62718E+06-4.36557E-10-4.94765E-09
 -1       121-7.91785E+01-1.26228E+06-8.11335E+01 1.76200E+02 3.44842E-10-1.04610E-08
 -1       122-5.75349E+01-1.26199E+06-7.55050E+01-6.98080E+02-9.88246E-10 7.23367E-09
 -1       123-7.60074E+01-1.26228E+06-1.84733E+02 5.21453E+02 1.09573E-09-3.06682E-09
 -1       124-5.70106E+01-1.26202E+06-3.01515E+02-1.38288E+03-1.88532E-09-5.09863E-09
 -1       125-6.46620E+01-1.26227E+06-6.28897E+02 8.60632E+02 1.39050E-09 1.40062E-10
 -1       191-4.13842E+01 5.90907E+05 2.32906E+01-9.52219E-01 3.41609E-10 2.85399E-09
 -1       192-4.06903E+01 5.90864E+05 4.34568E+01 4.92051E+00 5.90871E-10-1.83736E-08
 -1       193-4.64450E+01 5.90906E+05 7.96283E+01-4.03977E+00 7.20085E-10-1.37479E-08
 -1       194-4.68294E+01 5.90871E+05 1.64480E+02 1.06509E+01 4.07841E-10-7.24685E-09
 -1       195-5.61640E+01 5.90901E+05 3.20517E+02-6.77847E+00 1.11500E-09 3.58341E-10
 -1       271-5.47305E+06-7.21558E+05-4.23649E+05-2.13077E+06-3.52884E-10 5.32600E-09
 -1       272-5.59379E+06-9.86343E+05-2.61858E+05-2.15832E+06 8.21728E-10-2.39743E-09
 -1       273-5.54792E+06-7.99351E+05-9.98003E+04-2.11909E+06 2.18279E-10-2.52476E-09
 -1       274-5.50574E+06-8.78929E+05-5.35176E+04-2.18476E+06-1.98634E-09-6.54836E-10
 -1       275-5.55923E+06-8.03503E+05-2.31475E+04-2.11482E+06-5.98448E-10 1.98088E-09
 -1       276-5.49265E+06-8.73290E+05-1.19493E+04-2.19326E+06-1.26511E-09-8.72888E-09
 -1       277-5.56243E+06-8.01903E+05-6.14281E+03-2.11255E+06-8.78572E-10-5.88102E-09
 -1       278-5.48976E+06-8.74761E+05-4.61454E+03-2.19674E+06-2.85809E-10-5.49812E-09
 -1       279-5.56301E+06-8.01340E+05-5.40609E+03-2.11202E+06 8.06153E-10 7.75799E-09
 -1       280-5.49098E+06-8.74924E+05-1.00400E+04-2.19585E+06 3.98359E-09 2.82171E-09
 -1       281-5.56101E+06-8.01980E+05-1.90992E+04-2.11325E+06-2.29193E-09 2.69938E-09
 -1       282-5.50108E+06-8.80368E+05-4.41828E+04-2.18986E+06-3.39060E-09-2.28192E-09
 -1       283-5.55193E+06-7.98334E+05-8.22531E+04-2.11652E+06 1.26693E-09-7.71252E-10
 -1       284-5.57340E+06-9.69106E+05-2.15951E+05-2.16806E+06-1.95769E-10 6.27188E-09
 -1       285-5.49002E+06-7.34430E+05-3.49435E+05-2.12629E+06 1.25874E-09-2.09548E-09
 -1       301 7.23889E+04-2.27961E+04 1.70808E+05-4.82004E+04 7.56700E-10 6.28137E-09
 -1       302 2.49861E+04 1.00386E+04 1.07971E+05-5.74924E+04 4.19914E-09-2.57387E-09
 -1       303 6.93545E+03-1.13551E+04 9.12340E+04-4.83883E+04-6.83031E-10 3.01679E-09
 -1       304 3.69290E+04 1.76627E+04 1.41603E+05-5.73646E+04-4.36557E-11 1.93743E-08
 -1       305 1.10632E+05-3.03028E+04 2.52028E+05-4.82283E+04-2.24099E-09 1.49794E-08
 -1       306-3.26141E+06-4.36866E+05-1.93823E+05-1.25979E+06-7.42148E-10-2.98314E-09
 -1       307-3.31836E+06-5.57326E+05-1.19914E+05-1.27165E+06-8.65725E-10 4.46016E-09
 -1       308-3.29405E+06-4.74096E+05-4.56122E+04-1.25614E+06-2.25430E-09 4.41469E-09
 -1       309-3.28029E+06-5.05614E+05-2.45917E+04-1.28021E+06-9.31891E-10 7.87304E-09
 -1       310-3.29790E+06-4.77386E+05-1.06167E+04-1.25547E+06-5.19549E-10 1.52977E-09
 -1       311-3.27584E+06-5.01138E+05-5.63405E+03-1.28140E+06-7.36634E-10 2.24668E-09
 -1       312-3.29843E+06-4.77625E+05-3.07936E+03-1.25533E+06 2.31083E-09-7.71126E-09
 -1       313-3.27549E+06-5.00681E+05-2.70667E+03-1.28137E+06 2.71757E-09 3.36740E-10
 -1       314-3.29824E+06-4.77798E+05-3.66154E+03-1.25551E+06 1.77124E-09-4.42787E-09
 -1       315-3.27661E+06-5.00650E+05-7.20697E+03-1.28058E+06-1.53204E-09 1.31968E-09
 -1       316-3.29721E+06-4.77792E+05-1.38666E+04-1.25602E+06-1.62163E-09 3.46517E-09
 -1       317-3.28289E+06-5.06074E+05-3.22464E+04-1.27845E+06 8.39691E-10-6.58474E-10
 -1       318-3.29197E+06-4.73657E+05-5.98840E+04-1.25708E+06 1.12584E-09 3.55067E-09
 -1       319-3.33312E+06-5.73728E+05-1.57436E+05-1.26694E+06 3.83079E-09-2.16096E-09
 -1       320-3.24904E+06-4.24808E+05-2.54433E+05-1.26194E+06-5.66433E-09 3.78350E-10
 -1       336 1.01907E+00-1.26221E+06-2.41866E+03 1.19478E+03 2.25180E-09-3.41424E-09
 -1       337-9.39483E+02-1.26279E+06-5.19751E+03-2.71114E+03-3.91537E-09-8.87667E-10
 -1       338 5.92166E+02-1.26165E+06-9.51969E+03 1.51469E+03 2.27919E-09 1.12323E-09
 -1       339-1.03706E+04-1.26879E+06-2.30746E+04-3.42464E+03-5.10727E-09 1.45201E-09
 -1       340 6.80150E+03-1.25627E+06-3.68093E+04 1.89791E+03 3.34512E-09 1.76897E-09
 -1       406 1.91382E+01 5.90871E+05 1.31295E+03-5.55785E+00 1.45394E-09 6.26642E-09
 -1       407 4.27776E+02 5.91136E+05 2.79289E+03-8.93904E+00-2.21689E-12 1.80880E-08
 -1       408 1.40637E+03 5.90669E+05 5.57604E+03 1.56689E+01 1.35833E-09 1.05483E-08
 -1       409 6.00205E+03 5.92916E+05 1.25544E+04-1.92839E+02 5.72982E-11 6.01449E-09
 -1       410 1.72999E+04 5.89078E+05 2.56279E+04 2.01922E+02 1.92813E-09 2.00816E-09
 -1       521-5.62432E+06-7.39706E+05-3.61547E+05-2.16436E+06 3.91447E-09 1.17871E-09
 -1       522-5.75028E+06-9.45814E+05-2.23840E+05-2.16441E+06 2.38651E-09 2.97223E-09
 -1       523-5.68467E+06-8.09975E+05-8.49687E+04-2.15793E+06 9.81345E-10 6.76664E-09
 -1       524-5.67968E+06-8.48315E+05-4.57976E+04-2.17939E+06 1.84446E-09 6.40284E-10
 -1       525-5.69148E+06-8.16495E+05-1.96751E+04-2.15700E+06-3.25144E-10 1.77806E-09
 -1       526-5.67179E+06-8.39409E+05-1.03174E+04-2.18092E+06-2.20146E-09 5.47936E-09
 -1       527-5.69222E+06-8.17199E+05-5.38254E+03-2.15698E+06 1.92631E-09 1.64790E-09
 -1       528-5.67143E+06-8.38151E+05-4.28713E+03-2.18042E+06-7.18273E-10-2.88810E-09
 -1       529-5.69175E+06-8.17688E+05-5.29214E+03-2.15749E+06-6.21185E-10-2.20462E-09
 -1       530-5.67347E+06-8.37582E+05-1.00442E+04-2.17876E+06-3.88559E-09-1.69871E-09
 -1       531-5.69010E+06-8.17939E+05-1.91400E+04-2.15852E+06-3.65753E-09 5.55792E-09
 -1       532-5.68278E+06-8.44530E+05-4.44730E+04-2.17526E+06 7.52379E-10 3.56886E-09
 -1       533-5.68265E+06-8.12451E+05-8.25379E+04-2.16034E+06-7.60338E-10-4.87489E-10
 -1       534-5.75286E+06-9.37634E+05-2.17342E+05-2.15893E+06 2.36150E-09-4.35102E-09
 -1       535-5.62334E+06-7.44951E+05-3.51104E+05-2.16739E+06-3.72529E-09 1.96451E-09
 -1       536-6.14453E+04-1.45998E+04 7.50948E+04-2.15151E+04 9.73159E-10-4.68935E-09
 -1       537-3.44196E+04 2.07058E+04 4.72696E+04-6.40156E+04-5.18048E-09-1.75078E-09
 -1       538-5.05780E+04-1.67223E+03 1.93158E+04-2.12015E+04 3.18323E-10-5.89444E-09
 -1       539-4.72564E+04 1.59675E+03 1.06623E+04-6.43554E+04 1.39880E-09-2.85945E-09
 -1       540-4.95723E+04-3.05401E+02 4.81621E+03-2.11585E+04 1.43882E-09-1.33923E-09
 -1       541-4.90098E+04 8.43070E+01 2.52791E+03-6.44142E+04-8.08541E-10-4.70413E-09
 -1       542-4.95302E+04-6.30947E+01 1.13307E+03-2.11448E+04-1.91903E-10-3.02225E-09
 -1       543-4.94752E+04 6.05778E+01 4.96377E+02-6.44364E+04 5.49335E-10 1.62731E-09
 -1       544-4.95604E+04 2.24115E+01 3.68679E+01-2.11369E+04-2.19643E-10-1.83582E-09
 -1       545-4.96688E+04 7.24469E+01-3.96600E+02-6.44461E+04-1.96542E-09-3.51065E-10
 -1       546-4.95374E+04 6.67177E+01-9.89767E+02-2.11349E+04 7.22821E-10 1.18325E-09
 -1       547-4.99242E+04-3.15199E+02-2.28423E+03-6.44356E+04-1.06274E-09 6.03677E-11
 -1       548-4.92530E+04 2.90588E+02-4.24008E+03-2.11476E+04-1.60935E-09 3.44107E-09
 -1       549-5.23902E+04-4.61510E+03-1.03079E+04-6.42719E+04-2.16460E-10 1.84627E-10
 -1       550-4.67670E+04 2.96576E+03-1.65018E+04-2.12981E+04-3.00133E-11 1.85082E-10
 -1       551 2.24542E+04-5.40779E+05 4.21285E+04-8.29443E+05-6.88306E-09-9.45874E-11
 -1       552 1.69183E+04-5.36175E+05 3.95958E+04-9.82997E+05 4.65661E-09-1.13687E-09
 -1       553 1.33837E+04-5.43134E+05 5.34814E+04-8.27968E+05-7.73434E-09 7.46968E-09
 -1       554 4.12306E+04-5.21821E+05 1.06788E+05-9.83140E+05 4.77303E-09 1.90630E-08
 -1       555 9.96100E+04-5.57175E+05 2.04385E+05-8.28881E+05-6.99947E-09 2.25555E-10
 -1       556-2.51357E+05-1.83257E+05 3.97217E+04-3.12215E+05-4.67116E-09 1.23691E-10
 -1       557-2.17417E+05-2.18977E+05 1.97464E+04-3.37470E+05-2.36105E-09 6.41103E-09
 -1       558-2.52701E+05-1.95234E+05 8.19696E+03-3.05313E+05-2.32103E-09 4.42378E-09
 -1       559-2.22399E+05-2.24818E+05 4.07351E+03-3.39468E+05 4.76939E-09 2.10093E-09
 -1       560-2.53892E+05-1.94852E+05 1.76100E+03-3.05786E+05-5.95173E-09 5.19276E-09
 -1       561-2.23961E+05-2.24551E+05 8.72794E+02-3.40536E+05-1.05429E-08 7.36713E-09
 -1       562-2.54796E+05-1.94283E+05 3.15089E+02-3.06392E+05-6.65750E-09-4.43947E-09
 -1       563-2.24860E+05-2.24163E+05 5.93775E+01-3.41154E+05-9.27685E-11-2.16050E-09
 -1       564-2.55320E+05-1.93951E+05-2.37773E+02-3.06750E+05-3.89991E-09 9.54969E-11
 -1       565-2.25310E+05-2.23976E+05-6.60163E+02-3.41445E+05-8.78754E-09 1.01809E-08
 -1       566-2.55426E+05-1.93838E+05-1.46438E+03-3.06847E+05-3.80442E-09 4.14911E-09
 -1       567-2.25545E+05-2.24121E+05-3.25907E+03-3.41390E+05-3.31511E-10-2.10457E-09
 -1       568-2.54980E+05-1.94385E+05-6.73845E+03-3.06509E+05 1.64800E-09 3.15049E-09
 -1       569-2.28967E+05-2.28095E+05-1.58796E+04-3.40025E+05-9.74978E-10 1.59707E-09
 -1       570-2.52827E+05-2.06245E+05-3.22713E+04-3.01403E+05-4.08909E-09-6.99038E-09
 -1       571 3.62727E+05 1.70426E+04 2.53166E+04-9.65906E+04 1.68802E-09-1.53705E-10
 -1       572 3.66488E+05 5.90870E+03 1.24052E+04-1.05889E+05 8.76753E-10-8.85120E-09
 -1       573 3.64200E+05 1.39288E+03 5.51103E+03-9.63365E+04 9.98079E-09-7.49424E-10
 -1       574 3.64643E+05 4.45849E+02 2.76206E+03-1.06163E+05 1.95701E-08 3.01134E-09
 -1       575 3.64345E+05 5.35484E+01 1.30140E+03-9.63041E+04 1.00076E-08 4.26007E-09
 -1       576 3.64383E+05 1.03804E+01 6.61989E+02-1.06200E+05-6.10754E-10 4.13820E-09
 -1       577 3.64370E+05-1.83398E+01 3.23938E+02-9.62998E+04 1.32218E-09 2.38106E-09
 -1       578 3.64370E+05-1.79776E+01 1.72617E+02-1.06205E+05 2.10593E-09 1.98270E-10
 -1       579 3.64419E+05-3.54636E+01 9.65773E+01-9.62993E+04 8.25821E-10 1.38698E-09
 -1       580 3.64441E+05-5.23914E+01 7.66465E+01-1.06200E+05 3.10138E-10 3.95994E-09
 -1       581 3.64512E+05-8.13964E+01 8.57298E+01-9.63044E+04-2.16460E-10-2.34468E-09
 -1       582 3.64580E+05-9.63167E+01 1.53970E+02-1.06144E+05-1.14142E-09-5.80258E-10
 -1       583 3.64641E+05-9.06780E+01 2.81436E+02-9.63554E+04-2.49202E-09-6.05723E-10
 -1       584 3.64849E+05 9.92678E+01 6.33125E+02-1.05710E+05-5.32145E-09-5.68889E-09
 -1       585 3.64727E+05 6.34254E+02 1.27269E+03-9.67391E+04 3.96540E-10-4.80213E-09
 -1       586 3.41582E+03 1.70811E+05 5.77306E+03-2.16658E+05 1.26420E-09-2.72212E-09
 -1       587 1.99263E+03 1.71710E+05 5.45364E+03-2.38057E+05 2.07001E-09-5.01586E-09
 -1       588 2.35703E+03 1.70656E+05 7.70204E+03-2.16361E+05 1.37516E-09 1.55114E-09
 -1       589 7.83809E+03 1.73487E+05 1.57651E+04-2.38186E+05 2.56114E-09-5.47470E-09
 -1       590 2.14898E+04 1.68793E+05 3.14590E+04-2.16516E+05 1.60617E-09-5.04906E-09
 -1       591-1.84479E+05-5.92082E+04-3.52132E+04-9.11050E+04-9.00127E-09 4.59113E-09
 -1       592-1.86139E+05-5.53389E+04-1.73812E+04-1.01026E+05-1.76653E-08 1.39153E-09
 -1       593-1.85709E+05-4.70131E+04-7.37832E+03-9.68113E+04-1.47138E-08-6.86214E-09
 -1       594-1.82335E+05-5.07111E+04-3.61330E+03-1.01562E+05-2.47064E-09 1.06147E-08
 -1       595-1.85890E+05-4.66018E+04-1.66468E+03-9.70553E+04 1.13982E-09 1.02804E-08
 -1       596-1.82059E+05-5.05357E+04-8.42607E+02-1.01534E+05 2.58979E-09 7.78755E-09
 -1       597-1.85923E+05-4.66285E+04-4.55808E+02-9.70568E+04 3.06528E-10 2.85831E-09
 -1       598-1.82029E+05-5.05389E+04-3.59171E+02-1.01521E+05-2.90356E-10-3.98086E-09
 -1       599-1.85918E+05-4.66318E+04-4.49510E+02-9.70537E+04 4.32556E-09 1.90994E-11
 -1       600-1.82049E+05-5.05406E+04-8.25862E+02-1.01525E+05 9.66020E-09 2.37264E-09
 -1       601-1.85874E+05-4.66115E+04-1.62804E+03-9.70462E+04 6.67933E-09 9.16771E-10
 -1       602-1.82311E+05-5.07123E+04-3.53194E+03-1.01539E+05 7.48059E-10 3.96722E-09
 -1       603-1.85684E+05-4.70242E+04-7.21136E+03-9.68062E+04 8.32188E-10 1.82990E-09
 -1       604-1.86060E+05-5.51948E+04-1.69841E+04-1.00957E+05-1.95405E-09 5.98538E-09
 -1       605-1.84434E+05-5.89763E+04-3.44082E+04-9.12654E+04-8.06722E-10-4.04179E-09
 -1       606 1.45535E+05-1.51122E+04-2.23855E+04 4.39661E+04-6.79393E-09 2.17915E-09
 -1       607 1.42122E+05-5.23353E+03-1.09625E+04 4.77519E+04-1.39244E-09-1.74646E-09
 -1       608 1.44097E+05-1.22454E+03-4.87215E+03 4.36824E+04 4.96220E-09-4.35466E-09
 -1       609 1.43610E+05-3.38450E+02-2.43538E+03 4.80618E+04-2.80943E-09 1.63436E-09
 -1       610 1.43866E+05 1.77754E+01-1.14665E+03 4.36450E+04-8.14725E-09 2.47837E-09
 -1       611 1.43753E+05 9.22996E+01-5.74835E+02 4.81015E+04-1.45810E-08-3.92947E-09
 -1       612 1.43792E+05 1.11120E+02-2.71771E+02 4.36407E+04-6.64477E-09-2.00544E-09
 -1       613 1.43738E+05 1.31677E+02-1.21182E+02 4.81062E+04-1.08585E-08 1.79989E-09
 -1       614 1.43748E+05 1.23934E+02-2.87497E+01 4.36399E+04-4.23006E-09 4.58385E-09
 -1       615 1.43712E+05 1.48280E+02 5.12524E+01 4.81062E+04 4.18777E-09-5.41968E-09
 -1       616 1.43716E+05 1.45600E+02 1.53175E+02 4.36405E+04-7.77436E-09-5.72209E-09
 -1       617 1.43718E+05 2.19384E+02 3.54489E+02 4.81041E+04-4.06999E-10-7.14408E-10
 -1       618 1.43671E+05 3.35037E+02 7.20848E+02 4.36414E+04-7.34099E-09-8.60382E-10
 -1       619 1.43936E+05 9.50812E+02 1.63046E+03 4.80948E+04-1.56359E-08 2.62344E-09
 -1       620 1.43457E+05 2.40467E+03 3.33144E+03 4.36444E+04-5.08089E-09 4.21323E-09
 -1       621 1.49395E+03 3.82934E+05 4.36844E+03-3.73541E+04-1.53068E-09-6.49015E-09
 -1       622 6.77063E+02 3.83784E+05 4.60038E+03-4.43678E+04-2.72212E-09-1.67390E-08
 -1       623 5.53140E+02 3.83019E+05 6.84104E+03-3.73734E+04-1.73850E-09 9.76797E-10
 -1       624 4.04835E+03 3.85959E+05 1.41151E+04-4.42128E+04-2.30830E-09 4.15776E-09
 -1       625 1.22839E+04 3.80822E+05 2.73166E+04-3.75025E+04-1.47247E-09 4.74029E-09
 -1       626 2.14361E+05 7.34053E+04-6.19326E+03 1.44133E+05 1.68511E-08 5.30963E-09
 -1       627 2.09426E+05 7.99206E+04-2.92605E+03 1.47760E+05 1.22700E-08-1.67256E-08
 -1       628 2.14562E+05 7.64612E+04-1.22845E+03 1.42472E+05-9.49512E-10-1.22664E-08
 -1       629 2.09716E+05 8.13547E+04-5.83767E+02 1.47719E+05-3.52611E-09 5.31170E-09
 -1       630 2.14519E+05 7.67047E+04-2.53258E+02 1.42300E+05-1.35879E-09-1.86549E-09
 -1       631 2.09693E+05 8.14852E+04-1.02796E+02 1.47702E+05-8.34734E-09-3.16044E-09
 -1       632 2.14475E+05 7.67282E+04-6.71886E+00 1.42266E+05-5.35783E-09-3.80305E-09
 -1       633 2.09669E+05 8.15023E+04 8.34493E+01 1.47688E+05 3.61479E-09 8.02311E-09
 -1       634 2.14444E+05 7.67273E+04 2.15495E+02 1.42254E+05-3.22962E-09 7.50606E-09
 -1       635 2.09684E+05 8.15159E+04 4.90301E+02 1.47685E+05-1.01647E-08 2.73621E-09
 -1       636 2.14421E+05 7.67623E+04 1.01787E+03 1.42231E+05-7.81597E-09 1.01249E-08
 -1       637 2.09939E+05 8.18254E+04 2.27979E+03 1.47632E+05-2.37299E-09-2.28738E-09
 -1       638 2.14385E+05 7.76852E+04 4.73257E+03 1.41836E+05-4.02997E-09 9.70431E-10
 -1       639 2.12361E+05 8.62265E+04 1.12777E+04 1.46518E+05 5.87761E-10-2.69665E-10
 -1       640 2.14609E+05 9.02832E+04 2.38460E+04 1.36632E+05-3.00952E-09 1.79170E-10
 -1       656 1.07202E+04-5.01335E+05-6.01730E+04 2.16688E+04-6.89761E-09 2.11367E-09
 -1       657-1.76937E+04-5.22242E+05-4.30326E+04 6.41342E+04-9.12360E-09 6.93194E-09
 -1       658 1.89567E+03-5.09017E+05-2.79677E+04 2.15120E+04-4.57931E-09 4.75438E-09
 -1       659-1.63168E+04-5.21457E+05-4.04457E+04 6.42392E+04-4.20596E-09 4.59393E-09
 -1       660 9.79572E+03-5.02225E+05-5.51608E+04 2.15665E+04-5.27507E-09-9.62700E-10
 -1       661 4.76509E+05 6.37967E+04 3.86501E+04 1.87494E+05 1.21104E-08 1.10049E-09
 -1       662 4.84640E+05 9.10391E+04 2.39099E+04 1.93624E+05 2.62173E-09-3.43425E-09
 -1       663 4.82853E+05 7.13721E+04 9.11053E+03 1.86966E+05-6.82076E-09 4.98767E-09
 -1       664 4.77310E+05 8.04907E+04 4.92016E+03 1.94977E+05-1.60180E-08-1.81444E-09
 -1       665 4.83503E+05 7.21487E+04 2.13272E+03 1.86958E+05-9.74387E-09-1.40574E-09
 -1       666 4.76555E+05 7.94593E+04 1.14619E+03 1.95027E+05-1.90863E-09 4.13777E-09
 -1       667 4.83568E+05 7.22392E+04 6.51370E+02 1.86971E+05-3.37866E-09 4.87650E-09
 -1       668 4.76490E+05 7.93691E+04 6.14666E+02 1.95018E+05 5.26009E-10-4.41008E-09
 -1       669 4.83563E+05 7.22315E+04 8.75503E+02 1.86969E+05 2.11105E-09-3.34853E-09
 -1       670 4.76617E+05 7.95296E+04 1.75977E+03 1.95037E+05 4.56401E-09 2.21280E-09
 -1       671 4.83450E+05 7.20885E+04 3.39139E+03 1.86951E+05-7.05120E-09-8.00355E-11
 -1       672 4.77846E+05 8.11782E+04 7.89536E+03 1.94940E+05-7.48059E-09-3.54248E-10
 -1       673 4.82390E+05 7.08502E+04 1.46455E+04 1.86972E+05-6.52722E-09-1.55069E-09
 -1       674 4.89645E+05 9.81358E+04 3.84552E+04 1.92745E+05 5.27621E-09-5.83350E-09
 -1       675 4.72181E+05 5.86728E+04 6.21725E+04 1.87823E+05 1.56224E-08-4.03816E-10
 -1       676 6.30729E+01-4.80681E+05-2.43119E+03 3.22055E+02 1.44122E-08-4.12072E-10
 -1       677-7.45722E+02-4.81334E+05-4.48480E+03-6.42996E+02 1.46123E-08 3.41566E-09
 -1       678 5.32182E+02-4.80232E+05-7.85143E+03 3.20704E+02 1.55301E-08 1.62777E-09
 -1       679-8.43463E+03-4.86178E+05-1.88520E+04-6.39957E+02 9.11268E-09-3.48867E-09
 -1       680 5.57859E+03-4.75841E+05-2.99762E+04 3.15508E+02 1.91212E-08-5.17895E-09
 -1       771-2.75952E+06-5.64184E+05-7.92028E+04-1.21516E+06 7.03585E-09 1.78989E-09
 -1       772-2.74688E+06-5.71000E+05-3.89626E+04-1.25546E+06 1.42682E-08-2.60479E-09
 -1       773-2.76422E+06-5.35550E+05-1.66807E+04-1.22776E+06 9.11677E-09-3.69255E-09
 -1       774-2.73874E+06-5.61217E+05-8.10247E+03-1.25891E+06 5.19140E-09-4.95675E-09
 -1       775-2.76589E+06-5.33812E+05-3.80990E+03-1.22880E+06 4.17640E-09 5.72072E-09
 -1       776-2.73899E+06-5.60623E+05-1.88827E+03-1.25996E+06 5.20231E-10-2.07956E-09
 -1       777-2.76688E+06-5.33313E+05-1.05154E+03-1.22924E+06-7.78527E-10-2.83126E-09
 -1       778-2.73956E+06-5.60428E+05-7.84765E+02-1.26064E+06 1.15688E-09 1.96678E-09
 -1       779-2.76745E+06-5.32970E+05-9.94209E+02-1.22951E+06-1.22964E-09-8.30369E-10
 -1       780-2.73996E+06-5.60320E+05-1.80546E+03-1.26103E+06-3.21234E-09-3.59069E-09
 -1       781-2.76759E+06-5.32784E+05-3.58724E+03-1.22960E+06-1.50976E-10 9.45874E-10
 -1       782-2.74062E+06-5.60668E+05-7.80272E+03-1.26110E+06-9.91747E-10 3.80169E-10
 -1       783-2.76704E+06-5.33780E+05-1.59804E+04-1.22904E+06-7.72161E-10-7.02130E-10
 -1       784-2.74890E+06-5.70516E+05-3.76904E+04-1.25935E+06-1.24055E-09-3.94357E-09
 -1       785-2.76373E+06-5.60684E+05-7.64448E+04-1.21676E+06 7.49424E-10 3.01952E-10
 -1       786 2.95005E+05-7.25647E+03 3.89545E+04-4.11989E+03 9.00400E-10-2.94676E-09
 -1       787 3.08484E+05 1.09544E+04 2.44420E+04-1.25921E+04-1.10276E-11 8.43102E-10
 -1       788 3.00716E+05-6.95044E+02 1.00615E+04-4.10246E+03-5.50472E-10 2.17733E-09
 -1       789 3.02159E+05 9.61108E+02 5.52139E+03-1.25955E+04 1.99634E-10 2.16289E-09
 -1       790 3.01309E+05-7.45004E+01 2.54908E+03-4.11488E+03 6.16637E-10-4.66798E-10
 -1       791 3.01481E+05 8.20904E+01 1.35425E+03-1.25770E+04-5.04428E-10 2.21954E-09
 -1       792 3.01382E+05-1.01506E+01 6.99902E+02-4.12102E+03 1.71383E-10-3.02549E-09
 -1       793 3.01398E+05 8.92311E+00 4.62594E+02-1.25722E+04 4.69299E-10 8.08456E-10
 -1       794 3.01389E+05-6.11410E+00 4.29018E+02-4.11965E+03-9.78275E-11-6.23962E-09
 -1       795 3.01425E+05 3.36996E+01 6.47363E+02-1.25830E+04-4.26496E-10 5.47615E-09
 -1       796 3.01361E+05-3.44337E+01 1.12682E+03-4.11020E+03-3.02634E-10 3.39972E-09
 -1       797 3.01721E+05 4.08139E+02 2.38934E+03-1.26066E+04-4.25757E-10 5.39336E-09
 -1       798 3.01109E+05-3.03768E+02 4.33038E+03-4.09610E+03-1.77351E-11 1.01568E-09
 -1       799 3.04450E+05 4.69911E+03 1.05088E+04-1.26035E+04-3.25554E-09-4.91946E-09
 -1       800 2.98657E+05-3.12836E+03 1.67386E+04-4.11401E+03 4.15639E-10-1.48884E-09
 -1       801-1.47661E+04 2.33541E+05 3.45181E+04-6.10629E+05 9.97898E-09-3.04135E-09
 -1       802 5.31588E+04 2.28140E+05 5.67234E+04-1.84521E+06 4.92219E-08 7.96354E-09
 -1       803 9.87815E+03 2.16889E+05 7.40389E+04-6.08683E+05 2.02926E-08 7.34781E-09
 -1       804 1.10570E+05 2.63189E+05 1.66018E+05-1.84491E+06 4.62460E-08-4.49290E-09
 -1       805-5.49943E+04 1.97039E+05 2.46058E+05-6.10947E+05 1.13650E-08 4.26371E-09
 -1       806-2.56504E+05-8.19149E+04-2.09231E+04-1.36405E+05 1.19348E-09 3.44153E-09
 -1       807-2.55260E+05-7.76223E+04-9.89226E+03-1.44284E+05 2.74213E-10 8.91987E-10
 -1       808-2.56368E+05-7.08304E+04-4.15240E+03-1.40983E+05-1.30512E-09-3.00133E-10
 -1       809-2.53171E+05-7.37526E+04-2.00008E+03-1.45301E+05-3.31966E-10 3.87553E-09
 -1       810-2.56429E+05-7.00043E+04-8.98512E+02-1.41345E+05-8.78572E-10 1.07775E-10
 -1       811-2.52965E+05-7.34756E+04-4.42848E+02-1.45361E+05-2.12822E-10-3.34057E-09
 -1       812-2.56451E+05-6.99698E+04-2.18006E+02-1.41366E+05-8.27026E-09 9.07221E-10
 -1       813-2.52942E+05-7.34669E+04-1.36107E+02-1.45358E+05-9.63473E-09 3.33530E-08
 -1       814-2.56450E+05-6.99765E+04-1.25230E+02-1.41363E+05-8.75241E-09 4.84215E-09
 -1       815-2.52943E+05-7.34761E+04-1.95689E+02-1.45350E+05 4.47471E-10 3.90719E-09
 -1       816-2.56428E+05-6.99991E+04-3.67490E+02-1.41348E+05-5.42286E-09-2.49202E-10
 -1       817-2.53021E+05-7.35823E+04-8.03514E+02-1.45302E+05-7.26232E-10 4.50018E-09
 -1       818-2.56379E+05-7.03498E+04-1.66232E+03-1.41205E+05-7.85440E-09 4.93674E-09
 -1       819-2.53929E+05-7.50416E+04-3.95463E+03-1.44773E+05-1.55915E-08 2.15514E-08
 -1       820-2.56324E+05-7.48673E+04-8.36365E+03-1.39458E+05-1.03109E-08-7.45786E-10
 -1       821-3.56269E+05 8.30891E+03-4.47122E+04 4.39810E+03-3.22143E-09 3.53066E-09
 -1       822-3.71701E+05-1.25745E+04-2.80516E+04 1.37731E+04-1.97997E-09-2.81625E-09
 -1       823-3.62835E+05 7.89086E+02-1.15556E+04 4.29300E+03 3.72665E-09-4.47471E-10
 -1       824-3.64487E+05-1.08239E+03-6.34319E+03 1.39141E+04 5.18867E-10-3.85808E-09
 -1       825-3.63526E+05 8.87256E+01-2.94644E+03 4.25531E+03-7.10088E-09-1.46838E-09
 -1       826-3.63741E+05-5.94233E+01-1.59224E+03 1.39752E+04-1.31482E-08 3.61138E-09
 -1       827-3.63614E+05 2.29258E+01-8.82039E+02 4.23148E+03-8.15976E-09-2.01533E-09
 -1       828-3.63670E+05 2.85389E+01-6.91810E+02 1.40122E+04-8.59609E-09-8.48084E-09
 -1       829-3.63618E+05 2.47964E+01-8.08764E+02 4.21817E+03-1.67154E-09 1.11548E-09
 -1       830-3.63745E+05-3.81738E+01-1.40377E+03 1.40270E+04 6.22907E-09 2.57727E-09
 -1       831-3.63547E+05 8.68318E+01-2.56381E+03 4.21666E+03-7.89109E-09-2.32967E-09
 -1       832-3.64407E+05-9.18181E+02-5.50722E+03 1.40178E+04-6.63476E-10-3.20449E-09
 -1       833-3.62953E+05 6.99086E+02-1.00203E+04 4.22773E+03-1.53375E-09-1.97952E-09
 -1       834-3.70679E+05-1.08797E+04-2.43303E+04 1.39575E+04 4.68390E-10-2.80124E-10
 -1       835-3.57261E+05 7.22573E+03-3.87725E+04 4.28058E+03 4.77326E-09-2.47746E-09
 -1       836-1.12220E+04 7.55957E+05 6.41534E+04-2.32460E+04-4.40195E-10 6.15364E-09
 -1       837 1.92133E+04 7.78448E+05 4.97475E+04-6.90263E+04 2.09184E-10 7.69023E-09
 -1       838-2.65196E+03 7.63233E+05 3.88996E+04-2.32183E+04-4.79304E-10 1.44288E-09
 -1       839 2.78562E+04 7.83910E+05 6.63152E+04-6.90221E+04-3.63798E-12-2.93994E-10
 -1       840-1.74200E+04 7.50491E+05 9.61620E+04-2.32489E+04-4.80213E-10 5.85715E-10
 -1       856-4.43003E+05 8.69121E+03-4.68481E+04 8.58844E+03-8.38281E-09-6.14637E-09
 -1       857-4.59163E+05-1.31105E+04-2.93780E+04 2.73075E+04-4.84761E-09-2.63026E-09
 -1       858-4.49897E+05 8.37443E+02-1.21067E+04 8.40615E+03-8.17499E-09 1.88993E-09
 -1       859-4.51666E+05-1.04981E+03-6.63552E+03 2.75548E+04-2.52248E-09-1.22407E-09
 -1       860-4.50633E+05 1.18553E+02-3.07394E+03 8.33684E+03-3.95539E-09-1.82604E-09
 -1       861-4.50919E+05 3.71491E+01-1.63910E+03 2.76578E+04-8.71250E-09 7.08155E-10
 -1       862-4.50732E+05 5.64618E+01-8.68623E+02 8.30218E+03 7.76458E-09-3.87377E-09
 -1       863-4.50850E+05 1.36389E+02-6.12304E+02 2.76998E+04 3.05538E-08-2.26640E-09
 -1       864-4.50741E+05 5.54500E+01-6.28453E+02 8.29454E+03 1.09333E-08 4.38365E-09
 -1       865-4.50886E+05 8.72269E+01-1.01464E+03 2.76870E+04 1.78640E-08 2.15573E-09
 -1       866-4.50685E+05 9.07225E+01-1.81454E+03 8.31511E+03-6.90079E-10 2.71460E-09
 -1       867-4.51311E+05-5.46143E+02-3.86717E+03 2.76157E+04-3.72552E-09-1.43945E-09
 -1       868-4.50255E+05 5.03625E+02-7.03624E+03 8.36650E+03 6.21640E-09-4.39150E-09
 -1       869-4.55642E+05-7.55540E+03-1.70571E+04 2.74107E+04-4.72915E-09 4.80372E-09
 -1       870-4.46247E+05 5.05339E+03-2.72032E+04 8.52348E+03 7.00129E-09-3.58341E-10
 -1       871-5.31817E+03-4.82692E+04-9.93605E+03 1.52684E+05 3.45608E-09 2.43381E-09
 -1       872-1.82678E+03-5.01314E+04-2.88956E+03 1.80761E+05-3.20142E-09 4.87125E-09
 -1       873-5.50056E+01-4.95142E+04 2.98776E+03 1.52391E+05 3.01134E-09 6.21367E-09
 -1       874 3.17846E+03-4.70595E+04 1.10664E+04 1.80883E+05-2.42562E-09 3.36308E-09
 -1       875 1.06153E+04-5.15514E+04 2.37325E+04 1.52588E+05 3.78350E-09 4.43288E-09
 -1       876 5.73073E+05 7.60159E+04 5.36183E+04 2.26993E+05 9.33369E-09-2.62662E-09
 -1       877 5.84018E+05 1.14199E+05 3.31739E+04 2.35945E+05-2.24372E-09-3.10320E-09
 -1       878 5.81852E+05 8.65512E+04 1.26338E+04 2.26276E+05-8.86257E-09-4.49199E-09
 -1       879 5.73866E+05 9.95292E+04 6.82158E+03 2.37764E+05-1.54096E-08-9.77059E-09
 -1       880 5.82731E+05 8.76546E+04 2.94463E+03 2.26286E+05-4.54588E-09 3.11275E-10
 -1       881 5.72840E+05 9.80647E+04 1.56378E+03 2.37781E+05-3.45790E-09-3.08319E-09
 -1       882 5.82803E+05 8.78015E+04 8.47808E+02 2.26320E+05-1.51135E-09-5.18696E-10
 -1       883 5.72761E+05 9.79083E+04 7.32031E+02 2.37728E+05-7.10315E-09-9.68015E-09
 -1       884 5.82787E+05 8.78103E+04 9.70358E+02 2.26330E+05-7.30907E-10 2.50452E-10
 -1       885 5.72903E+05 9.80635E+04 1.89678E+03 2.37729E+05 9.64533E-09 2.39362E-09
 -1       886 5.82665E+05 8.76606E+04 3.63084E+03 2.26314E+05-8.45796E-09-6.05905E-09
 -1       887 5.74216E+05 9.98259E+04 8.43713E+03 2.37631E+05-1.33804E-08 6.44991E-09
 -1       888 5.81539E+05 8.63304E+04 1.56440E+04 2.26332E+05 2.52874E-09 6.11453E-09
 -1       889 5.86813E+05 1.17948E+05 4.10727E+04 2.35310E+05 5.54894E-09 6.57747E-09
 -1       890 5.70646E+05 7.33124E+04 6.63997E+04 2.27232E+05 1.85773E-08-1.58980E-09
 -1       891 1.68280E+03-2.60523E+05-1.05745E+04 3.97452E+04 1.58352E-08-1.18325E-09
 -1       892-3.38400E+03-2.64048E+05-8.21524E+03 1.19793E+05 4.27508E-09-7.27368E-10
 -1       893 3.82694E+02-2.61776E+05-6.51751E+03 3.95823E+04 6.44286E-09 4.64667E-09
 -1       894-4.96571E+03-2.65022E+05-1.12303E+04 1.19781E+05 4.41696E-09 1.33741E-09
 -1       895 2.79933E+03-2.59518E+05-1.64012E+04 3.97568E+04 1.09094E-08-1.73259E-09
 -1       956-4.02590E+05-7.46136E+03-1.65976E+04 5.18137E+04-4.36012E-09 3.85262E-09
 -1       957-4.05727E+05-2.37224E+03-8.42055E+03 6.09280E+04-1.28239E-10 1.60708E-09
 -1       958-4.04046E+05-2.19000E+02-3.79337E+03 5.15014E+04 4.77667E-09 6.00721E-10
 -1       959-4.04351E+05 2.67638E+01-1.92977E+03 6.12698E+04-1.88902E-09 1.24510E-09
 -1       960-4.04238E+05 1.24658E+02-9.38585E+02 5.14678E+04-4.98949E-09-2.30239E-09
 -1       961-4.04295E+05 1.58313E+02-4.91854E+02 6.13083E+04-4.83760E-09 2.77396E-10
 -1       962-4.04304E+05 1.45709E+02-2.73438E+02 5.14621E+04-7.56700E-10 1.62117E-09
 -1       963-4.04324E+05 1.79516E+02-2.03511E+02 6.13157E+04-6.32917E-09-5.95719E-11
 -1       964-4.04330E+05 1.59893E+02-2.29068E+02 5.14600E+04 1.20053E-09 1.18689E-09
 -1       965-4.04349E+05 1.89455E+02-3.80808E+02 6.13159E+04 7.56276E-09-6.14364E-10
 -1       966-4.04318E+05 1.67385E+02-7.07744E+02 5.14618E+04-5.45356E-09-1.94768E-09
 -1       967-4.04432E+05 1.13114E+02-1.45046E+03 6.12952E+04 1.44610E-09 1.53614E-09
 -1       968-4.04205E+05-7.11240E+01-2.84526E+03 5.14813E+04-1.13596E-09-1.68006E-09
 -1       969-4.05499E+05-1.67234E+03-6.32206E+03 6.10896E+04-1.11640E-09 9.56788E-10
 -1       970-4.03133E+05-5.50066E+03-1.24581E+04 5.16751E+04 2.17915E-09-1.34423E-09
 -1       971-6.83439E+05 6.94585E+03-3.75434E+04 8.48711E+03-6.89033E-09-2.76486E-09
 -1       972-6.96329E+05-1.04995E+04-2.35370E+04 2.75864E+04-7.37236E-09 3.50292E-09
 -1       973-6.88967E+05 6.64331E+02-9.71129E+03 8.23647E+03-6.36101E-09 1.99407E-09
 -1       974-6.90354E+05-8.24538E+02-5.33113E+03 2.79485E+04-1.30149E-09 6.57565E-09
 -1       975-6.89563E+05 9.67112E+01-2.49809E+03 8.12194E+03 1.41563E-09-4.79235E-09
 -1       976-6.89781E+05 5.60289E+01-1.38095E+03 2.81255E+04-1.12836E-08 8.68454E-10
 -1       977-6.89645E+05 5.36258E+01-8.31648E+02 8.05858E+03 9.02151E-09-1.98213E-09
 -1       978-6.89752E+05 1.36279E+02-7.68498E+02 2.82089E+04 2.73242E-08-1.88186E-09
 -1       979-6.89644E+05 6.23529E+01-1.04759E+03 8.03827E+03 1.02053E-08-6.88300E-09
 -1       980-6.89861E+05 3.26131E+01-1.94976E+03 2.82054E+04 1.62527E-08 1.36173E-09
 -1       981-6.89535E+05 1.45334E+02-3.63638E+03 8.06213E+03-9.34961E-10-4.92344E-09
 -1       982-6.90777E+05-1.23961E+03-7.85165E+03 2.81119E+04-1.90084E-10-1.05410E-09
 -1       983-6.88675E+05 1.00678E+03-1.43126E+04 8.13288E+03 3.50610E-09-2.00589E-09
 -1       984-6.99682E+05-1.54960E+04-3.47537E+04 2.78600E+04-7.67182E-09 1.28193E-09
 -1       985-6.80530E+05 1.03133E+04-5.54028E+04 8.32069E+03 5.50699E-09-5.56247E-09
 -3
 9999
