
 stresses (elem, integ.pnt.,sxx,syy,szz,sxy,sxz,syz) for set ELALL and time  0.1000000E+01

         1   1 -2.391242E+06 -1.239873E+05 -1.510912E+05 -5.398335E+04 -1.035223E+05  9.034764E+00
         1   2 -2.372754E+06  5.471335E+03 -6.799094E+04 -1.786052E+04 -6.732846E+04  1.944060E+00
         1   3 -2.391094E+06  6.656346E+03 -4.058654E+04  1.826419E+04 -3.113434E+04 -9.193272E-01
         1   4 -2.391246E+06 -1.239928E+05 -1.510920E+05  2.196420E-10 -1.035223E+05  6.037089E-11
         1   5 -2.372755E+06  5.470733E+03 -6.799102E+04 -8.757017E-10 -6.732846E+04 -1.499625E-10
         1   6 -2.391094E+06  6.655717E+03 -4.058663E+04  1.632193E-08 -3.113434E+04 -1.011980E-09
         1   7 -2.391242E+06 -1.239873E+05 -1.510912E+05  5.398335E+04 -1.035223E+05 -9.034764E+00
         1   8 -2.372754E+06  5.471335E+03 -6.799094E+04  1.786052E+04 -6.732846E+04 -1.944060E+00
         1   9 -2.391094E+06  6.656346E+03 -4.058654E+04 -1.826419E+04 -3.113434E+04  9.193272E-01
         1  10 -2.391254E+06 -1.239902E+05 -1.511114E+05 -5.398335E+04  2.934014E-10  2.151118E-10
         1  11 -2.372759E+06  5.470112E+03 -6.799949E+04 -1.786052E+04 -5.867722E-10  2.584085E-10
         1  12 -2.391095E+06  6.656085E+03 -4.058836E+04  1.826419E+04 -1.212565E-09 -8.214573E-10
         1  13 -2.391257E+06 -1.239957E+05 -1.511122E+05 -1.273937E-08 -1.679510E-11 -9.452573E-11
         1  14 -2.372760E+06  5.469510E+03 -6.799957E+04  1.199614E-08 -1.089217E-09 -4.727006E-10
         1  15 -2.391095E+06  6.655456E+03 -4.058845E+04  1.095051E-08  1.368208E-09 -6.061192E-10
         1  16 -2.391254E+06 -1.239902E+05 -1.511114E+05  5.398335E+04  3.361001E-10 -5.002313E-10
         1  17 -2.372759E+06  5.470112E+03 -6.799949E+04  1.786052E+04 -2.091286E-09 -1.133575E-09
         1  18 -2.391095E+06  6.656085E+03 -4.058836E+04 -1.826419E+04  1.702749E-09 -3.323177E-10
         1  19 -2.391242E+06 -1.239873E+05 -1.510912E+05 -5.398335E+04  1.035223E+05 -9.034764E+00
         1  20 -2.372754E+06  5.471335E+03 -6.799094E+04 -1.786052E+04  6.732846E+04 -1.944060E+00
         1  21 -2.391094E+06  6.656346E+03 -4.058654E+04  1.826419E+04  3.113434E+04  9.193272E-01
         1  22 -2.391246E+06 -1.239928E+05 -1.510920E+05 -4.212016E-09  1.035223E+05 -2.740500E-10
         1  23 -2.372755E+06  5.470733E+03 -6.799102E+04  7.664897E-09  6.732846E+04 -6.163994E-10
         1  24 -2.391094E+06  6.655717E+03 -4.058663E+04  2.490858E-08  3.113434E+04 -2.137957E-10
         1  25 -2.391242E+06 -1.239873E+05 -1.510912E+05  5.398335E+04  1.035223E+05  9.034764E+00
         1  26 -2.372754E+06  5.471335E+03 -6.799094E+04  1.786052E+04  6.732846E+04  1.944060E+00
         1  27 -2.391094E+06  6.656346E+03 -4.058654E+04 -1.826419E+04  3.113434E+04 -9.193272E-01
         2   1 -2.383681E+06 -8.243325E+03 -3.252403E+04 -2.852476E+03 -2.524565E+04  1.164216E-01
         2   2 -2.381999E+06  5.175868E+02 -1.735567E+04 -6.968896E+02 -1.650031E+04  1.859005E-02
         2   3 -2.383662E+06  4.770251E+02 -1.009731E+04  1.458687E+03 -7.754882E+03 -1.828787E-02
         2   4 -2.383681E+06 -8.243341E+03 -3.252404E+04  7.698361E-09 -2.524565E+04 -2.854078E-10
         2   5 -2.381999E+06  5.175859E+02 -1.735567E+04  3.883791E-09 -1.650031E+04  1.096290E-09
         2   6 -2.383662E+06  4.770211E+02 -1.009731E+04 -7.985656E-09 -7.754882E+03 -1.189092E-09
         2   7 -2.383681E+06 -8.243325E+03 -3.252403E+04  2.852476E+03 -2.524565E+04 -1.164216E-01
         2   8 -2.381999E+06  5.175868E+02 -1.735567E+04  6.968896E+02 -1.650031E+04 -1.859005E-02
         2   9 -2.383662E+06  4.770251E+02 -1.009731E+04 -1.458687E+03 -7.754882E+03  1.828786E-02
         2  10 -2.383682E+06 -8.243497E+03 -3.252524E+04 -2.852476E+03 -2.575595E-09 -9.802713E-10
         2  11 -2.381999E+06  5.175134E+02 -1.735618E+04 -6.968896E+02  1.315337E-09  2.392736E-10
         2  12 -2.383662E+06  4.770089E+02 -1.009742E+04  1.458687E+03 -5.549560E-10  4.766125E-10
         2  13 -2.383682E+06 -8.243513E+03 -3.252524E+04  7.860012E-09 -1.930121E-09 -2.375180E-10
         2  14 -2.381999E+06  5.175125E+02 -1.735618E+04 -2.565582E-09 -2.051048E-09  4.690336E-10
         2  15 -2.383662E+06  4.770049E+02 -1.009742E+04  5.249493E-09 -4.202802E-10  8.649717E-11
         2  16 -2.383682E+06 -8.243497E+03 -3.252524E+04  2.852476E+03  1.054100E-09  5.928626E-10
         2  17 -2.381999E+06  5.175134E+02 -1.735618E+04  6.968896E+02  2.615032E-09  6.836351E-10
         2  18 -2.383662E+06  4.770089E+02 -1.009742E+04 -1.458687E+03  2.165481E-09 -2.849775E-10
         2  19 -2.383681E+06 -8.243325E+03 -3.252403E+04 -2.852476E+03  2.524565E+04 -1.164216E-01
         2  20 -2.381999E+06  5.175868E+02 -1.735567E+04 -6.968896E+02  1.650031E+04 -1.859005E-02
         2  21 -2.383662E+06  4.770251E+02 -1.009731E+04  1.458687E+03  7.754882E+03  1.828787E-02
         2  22 -2.383681E+06 -8.243341E+03 -3.252404E+04  1.024704E-08  2.524565E+04 -1.393404E-10
         2  23 -2.381999E+06  5.175859E+02 -1.735567E+04  8.202292E-09  1.650031E+04 -8.069231E-11
         2  24 -2.383662E+06  4.770211E+02 -1.009731E+04  1.315113E-08  7.754882E+03  1.379437E-09
         2  25 -2.383681E+06 -8.243325E+03 -3.252403E+04  2.852476E+03  2.524565E+04  1.164216E-01
         2  26 -2.381999E+06  5.175868E+02 -1.735567E+04  6.968896E+02  1.650031E+04  1.859005E-02
         2  27 -2.383662E+06  4.770251E+02 -1.009731E+04 -1.458687E+03  7.754882E+03 -1.828787E-02
         3   1 -2.383017E+06 -5.031208E+02 -7.795424E+03  1.210663E+01 -6.183888E+03 -1.210362E-04
         3   2 -2.382795E+06  7.220834E+01 -4.452941E+03  7.814196E+01 -3.974085E+03 -5.020501E-04
         3   3 -2.383014E+06  3.981182E+01 -2.705158E+03  1.441762E+02 -1.764308E+03 -4.112384E-04
         3   4 -2.383017E+06 -5.031208E+02 -7.795424E+03 -1.318028E-08 -6.183888E+03 -1.633576E-09
         3   5 -2.382795E+06  7.220833E+01 -4.452941E+03 -4.734405E-09 -3.974085E+03  1.352671E-10
         3   6 -2.383014E+06  3.981178E+01 -2.705158E+03  1.862164E-09 -1.764308E+03 -8.642354E-11
         3   7 -2.383017E+06 -5.031208E+02 -7.795424E+03 -1.210663E+01 -6.183888E+03  1.210329E-04
         3   8 -2.382795E+06  7.220834E+01 -4.452941E+03 -7.814196E+01 -3.974085E+03  5.020501E-04
         3   9 -2.383014E+06  3.981182E+01 -2.705158E+03 -1.441762E+02 -1.764308E+03  4.112387E-04
         3  10 -2.383018E+06 -5.031312E+02 -7.795496E+03  1.210663E+01 -2.395943E-09 -1.555147E-10
         3  11 -2.382795E+06  7.220408E+01 -4.452971E+03  7.814196E+01 -1.751850E-09 -8.057121E-10
         3  12 -2.383014E+06  3.981098E+01 -2.705164E+03  1.441762E+02 -1.175038E-09 -6.209939E-10
         3  13 -2.383018E+06 -5.031312E+02 -7.795496E+03 -3.025762E-10 -9.885102E-10 -3.459124E-10
         3  14 -2.382795E+06  7.220407E+01 -4.452971E+03 -4.033461E-10 -4.015238E-27 -3.209553E-10
         3  15 -2.383014E+06  3.981094E+01 -2.705164E+03  1.698150E-09 -4.539271E-09 -4.142423E-11
         3  16 -2.383018E+06 -5.031312E+02 -7.795496E+03 -1.210663E+01  4.865415E-09 -4.246147E-10
         3  17 -2.382795E+06  7.220408E+01 -4.452971E+03 -7.814196E+01  1.398781E-09  1.306607E-10
         3  18 -2.383014E+06  3.981098E+01 -2.705164E+03 -1.441762E+02 -7.718789E-10  5.117836E-10
         3  19 -2.383017E+06 -5.031208E+02 -7.795424E+03  1.210663E+01  6.183888E+03  1.210357E-04
         3  20 -2.382795E+06  7.220834E+01 -4.452941E+03  7.814196E+01  3.974085E+03  5.020486E-04
         3  21 -2.383014E+06  3.981182E+01 -2.705158E+03  1.441762E+02  1.764308E+03  4.112375E-04
         3  22 -2.383017E+06 -5.031208E+02 -7.795424E+03  1.684952E-08  6.183888E+03  9.590406E-10
         3  23 -2.382795E+06  7.220833E+01 -4.452941E+03  1.684321E-08  3.974085E+03 -8.946580E-10
         3  24 -2.383014E+06  3.981178E+01 -2.705158E+03  6.359074E-09  1.764308E+03 -5.979989E-11
         3  25 -2.383017E+06 -5.031208E+02 -7.795424E+03 -1.210663E+01  6.183888E+03 -1.210340E-04
         3  26 -2.382795E+06  7.220834E+01 -4.452941E+03 -7.814196E+01  3.974085E+03 -5.020504E-04
         3  27 -2.383014E+06  3.981182E+01 -2.705158E+03 -1.441762E+02  1.764308E+03 -4.112380E-04
         4   1 -2.382941E+06 -1.823534E+01 -2.176742E+03  4.406314E+01 -1.325377E+03 -9.441448E-05
         4   2 -2.382884E+06  1.938435E+01 -1.570282E+03  1.846184E+01 -5.495328E+02 -1.640083E-05
         4   3 -2.382941E+06  8.367711E+00 -1.482550E+03 -7.139822E+00  2.263238E+02 -2.611665E-06
         4   4 -2.382941E+06 -1.823534E+01 -2.176742E+03  5.363780E-09 -1.325377E+03  4.803551E-11
         4   5 -2.382884E+06  1.938435E+01 -1.570282E+03  1.952008E-08 -5.495328E+02  8.845687E-10
         4   6 -2.382941E+06  8.367710E+00 -1.482550E+03  8.919269E-09  2.263238E+02  3.794767E-10
         4   7 -2.382941E+06 -1.823534E+01 -2.176742E+03 -4.406314E+01 -1.325377E+03  9.441490E-05
         4   8 -2.382884E+06  1.938435E+01 -1.570282E+03 -1.846184E+01 -5.495328E+02  1.640248E-05
         4   9 -2.382941E+06  8.367711E+00 -1.482550E+03  7.139822E+00  2.263238E+02  2.612820E-06
         4  10 -2.382941E+06 -1.823581E+01 -2.176746E+03  4.406314E+01 -1.647757E-09 -1.709192E-10
         4  11 -2.382884E+06  1.938427E+01 -1.570283E+03  1.846184E+01  1.085810E-09  3.036287E-10
         4  12 -2.382941E+06  8.367697E+00 -1.482550E+03 -7.139822E+00 -5.849605E-10  4.533757E-10
         4  13 -2.382941E+06 -1.823581E+01 -2.176746E+03 -3.224847E-09 -4.310670E-09  4.878666E-11
         4  14 -2.382884E+06  1.938426E+01 -1.570283E+03  2.334435E-09 -4.734028E-09  7.189833E-11
         4  15 -2.382941E+06  8.367697E+00 -1.482550E+03 -5.025963E-09 -1.459290E-09  3.279206E-10
         4  16 -2.382941E+06 -1.823581E+01 -2.176746E+03 -4.406314E+01 -2.881254E-09  1.366078E-10
         4  17 -2.382884E+06  1.938427E+01 -1.570283E+03 -1.846184E+01 -1.069263E-09 -8.329267E-11
         4  18 -2.382941E+06  8.367697E+00 -1.482550E+03  7.139822E+00 -1.126383E-09  1.964029E-10
         4  19 -2.382941E+06 -1.823534E+01 -2.176742E+03  4.406314E+01  1.325377E+03  9.441547E-05
         4  20 -2.382884E+06  1.938435E+01 -1.570282E+03  1.846184E+01  5.495328E+02  1.640173E-05
         4  21 -2.382941E+06  8.367711E+00 -1.482550E+03 -7.139822E+00 -2.263238E+02  2.612715E-06
         4  22 -2.382941E+06 -1.823534E+01 -2.176742E+03 -7.537006E-09  1.325377E+03  5.598554E-11
         4  23 -2.382884E+06  1.938435E+01 -1.570282E+03  2.338633E-09  5.495328E+02 -6.684838E-10
         4  24 -2.382941E+06  8.367710E+00 -1.482550E+03  4.672194E-09 -2.263238E+02  2.387764E-10
         4  25 -2.382941E+06 -1.823534E+01 -2.176742E+03 -4.406314E+01  1.325377E+03 -9.441468E-05
         4  26 -2.382884E+06  1.938435E+01 -1.570282E+03 -1.846184E+01  5.495328E+02 -1.640327E-05
         4  27 -2.382941E+06  8.367711E+00 -1.482550E+03  7.139822E+00 -2.263238E+02 -2.612490E-06
         5   1 -2.382952E+06  9.577467E+00 -1.609195E+03 -2.660963E+01  5.058143E+02 -2.176011E-05
         5   2 -2.382870E+06  2.828602E+01 -2.255142E+03 -5.977245E+01  1.620301E+03 -1.565766E-04
         5   3 -2.382954E+06 -3.506941E+01 -3.649272E+03 -9.293530E+01  2.734786E+03 -4.108933E-04
         5   4 -2.382952E+06  9.577466E+00 -1.609195E+03  1.081818E-08  5.058143E+02 -5.144247E-10
         5   5 -2.382870E+06  2.828602E+01 -2.255142E+03 -5.661027E-09  1.620301E+03 -1.005052E-09
         5   6 -2.382954E+06 -3.506942E+01 -3.649272E+03  5.584126E-09  2.734786E+03  4.410857E-10
         5   7 -2.382952E+06  9.577467E+00 -1.609195E+03  2.660963E+01  5.058143E+02  2.175942E-05
         5   8 -2.382870E+06  2.828602E+01 -2.255142E+03  5.977245E+01  1.620301E+03  1.565740E-04
         5   9 -2.382954E+06 -3.506941E+01 -3.649272E+03  9.293530E+01  2.734786E+03  4.108947E-04
         5  10 -2.382952E+06  9.577398E+00 -1.609196E+03 -2.660963E+01  3.109982E-10 -6.209018E-11
         5  11 -2.382870E+06  2.828532E+01 -2.255147E+03 -5.977245E+01 -8.313461E-10 -8.102216E-10
         5  12 -2.382954E+06 -3.507142E+01 -3.649286E+03 -9.293530E+01 -2.666163E-09 -4.195668E-10
         5  13 -2.382952E+06  9.577397E+00 -1.609196E+03 -1.007725E-10 -3.113214E-09  3.451637E-11
         5  14 -2.382870E+06  2.828531E+01 -2.255147E+03 -2.687267E-10 -1.506220E-09 -4.586313E-10
         5  15 -2.382954E+06 -3.507144E+01 -3.649286E+03  1.731996E-09 -3.765668E-09  1.258637E-10
         5  16 -2.382952E+06  9.577398E+00 -1.609196E+03  2.660963E+01 -1.978748E-09  2.057009E-10
         5  17 -2.382870E+06  2.828532E+01 -2.255147E+03  5.977245E+01 -1.545796E-09 -4.386394E-10
         5  18 -2.382954E+06 -3.507142E+01 -3.649286E+03  9.293530E+01 -7.633836E-10  2.946179E-10
         5  19 -2.382952E+06  9.577467E+00 -1.609195E+03 -2.660963E+01 -5.058143E+02  2.176046E-05
         5  20 -2.382870E+06  2.828602E+01 -2.255142E+03 -5.977245E+01 -1.620301E+03  1.565749E-04
         5  21 -2.382954E+06 -3.506941E+01 -3.649272E+03 -9.293530E+01 -2.734786E+03  4.108929E-04
         5  22 -2.382952E+06  9.577466E+00 -1.609195E+03  8.355589E-09 -5.058143E+02  5.902301E-10
         5  23 -2.382870E+06  2.828602E+01 -2.255142E+03 -1.208308E-08 -1.620301E+03 -9.632280E-11
         5  24 -2.382954E+06 -3.506942E+01 -3.649272E+03  4.068628E-09 -2.734786E+03 -2.215083E-10
         5  25 -2.382952E+06  9.577467E+00 -1.609195E+03  2.660963E+01 -5.058143E+02 -2.175973E-05
         5  26 -2.382870E+06  2.828602E+01 -2.255142E+03  5.977245E+01 -1.620301E+03 -1.565754E-04
         5  27 -2.382954E+06 -3.506941E+01 -3.649272E+03  9.293530E+01 -2.734786E+03 -4.108937E-04
         6   1 -2.383095E+06  7.084766E+01 -4.714470E+03 -2.766033E+02  3.486289E+03 -1.559000E-03
         6   2 -2.382697E+06  1.314971E+02 -8.060856E+03 -1.508330E+02  7.487043E+03 -1.825710E-03
         6   3 -2.383102E+06 -9.291217E+02 -1.429965E+04 -2.506412E+01  1.148771E+04 -4.654904E-04
         6   4 -2.383095E+06  7.084751E+01 -4.714470E+03  1.807121E-10  3.486289E+03  9.675016E-10
         6   5 -2.382697E+06  1.314971E+02 -8.060856E+03 -1.426413E-08  7.487043E+03  9.634671E-11
         6   6 -2.383102E+06 -9.291217E+02 -1.429965E+04 -2.331565E-09  1.148771E+04  6.789492E-11
         6   7 -2.383095E+06  7.084766E+01 -4.714470E+03  2.766033E+02  3.486289E+03  1.559001E-03
         6   8 -2.382697E+06  1.314971E+02 -8.060856E+03  1.508330E+02  7.487043E+03  1.825710E-03
         6   9 -2.383102E+06 -9.291217E+02 -1.429965E+04  2.506412E+01  1.148771E+04  4.654909E-04
         6  10 -2.383095E+06  7.084438E+01 -4.714493E+03 -2.766033E+02 -5.517922E-10  2.583161E-10
         6  11 -2.382697E+06  1.314820E+02 -8.060962E+03 -1.508330E+02 -3.233484E-09  4.892190E-10
         6  12 -2.383102E+06 -9.291573E+02 -1.429990E+04 -2.506412E+01 -4.295785E-10 -3.970534E-11
         6  13 -2.383095E+06  7.084423E+01 -4.714493E+03 -2.027858E-09 -4.451814E-09  4.998308E-10
         6  14 -2.382697E+06  1.314820E+02 -8.060962E+03 -3.356532E-10 -7.868096E-10  2.016287E-10
         6  15 -2.383102E+06 -9.291573E+02 -1.429990E+04 -7.259394E-09  3.301736E-09 -3.371227E-10
         6  16 -2.383095E+06  7.084438E+01 -4.714493E+03  2.766033E+02 -1.791682E-09  5.065132E-10
         6  17 -2.382697E+06  1.314820E+02 -8.060962E+03  1.508330E+02  5.941669E-11 -1.188775E-11
         6  18 -2.383102E+06 -9.291573E+02 -1.429990E+04  2.506412E+01  7.524132E-10 -6.034356E-10
         6  19 -2.383095E+06  7.084766E+01 -4.714470E+03 -2.766033E+02 -3.486289E+03  1.559001E-03
         6  20 -2.382697E+06  1.314971E+02 -8.060856E+03 -1.508330E+02 -7.487043E+03  1.825711E-03
         6  21 -2.383102E+06 -9.291217E+02 -1.429965E+04 -2.506412E+01 -1.148771E+04  4.654904E-04
         6  22 -2.383095E+06  7.084751E+01 -4.714470E+03  2.229720E-09 -3.486289E+03  4.037913E-11
         6  23 -2.382697E+06  1.314971E+02 -8.060856E+03 -3.628567E-09 -7.487043E+03  3.460003E-10
         6  24 -2.383102E+06 -9.291217E+02 -1.429965E+04  6.116441E-09 -1.148771E+04 -7.174966E-10
         6  25 -2.383095E+06  7.084766E+01 -4.714470E+03  2.766033E+02 -3.486289E+03 -1.559000E-03
         6  26 -2.382697E+06  1.314971E+02 -8.060856E+03  1.508330E+02 -7.487043E+03 -1.825710E-03
         6  27 -2.383102E+06 -9.291217E+02 -1.429965E+04  2.506412E+01 -1.148771E+04 -4.654918E-04
         7   1 -2.384293E+06  8.799559E+02 -1.857147E+04 -2.695583E+03  1.437355E+04 -6.263867E-02
         7   2 -2.381225E+06  9.550883E+02 -3.200043E+04  1.284972E+03  3.049912E+04  6.335843E-02
         7   3 -2.384329E+06 -1.521857E+04 -6.001863E+04  5.265619E+03  4.662464E+04  3.969074E-01
         7   4 -2.384293E+06  8.799422E+02 -1.857147E+04  3.166229E-09  1.437355E+04  3.937296E-10
         7   5 -2.381225E+06  9.550852E+02 -3.200043E+04 -4.778960E-09  3.049912E+04  4.645551E-10
         7   6 -2.384329E+06 -1.521862E+04 -6.001864E+04  9.072371E-09  4.662464E+04 -1.791739E-10
         7   7 -2.384293E+06  8.799559E+02 -1.857147E+04  2.695583E+03  1.437355E+04  6.263867E-02
         7   8 -2.381225E+06  9.550883E+02 -3.200043E+04 -1.284972E+03  3.049912E+04 -6.335843E-02
         7   9 -2.384329E+06 -1.521857E+04 -6.001863E+04 -5.265619E+03  4.662464E+04 -3.969074E-01
         7  10 -2.384293E+06  8.799002E+02 -1.857186E+04 -2.695583E+03 -2.042052E-09 -3.150668E-10
         7  11 -2.381226E+06  9.548374E+02 -3.200218E+04  1.284972E+03  4.305589E-10  2.425344E-11
         7  12 -2.384331E+06 -1.521915E+04 -6.002273E+04  5.265619E+03  2.634120E-09 -5.610312E-10
         7  13 -2.384293E+06  8.798865E+02 -1.857186E+04  1.238969E-09  2.332951E-09 -1.363130E-10
         7  14 -2.381226E+06  9.548343E+02 -3.200218E+04 -5.907413E-09  4.306078E-10  3.343192E-10
         7  15 -2.384331E+06 -1.521920E+04 -6.002274E+04  7.927401E-09  1.008284E-09 -8.686500E-10
         7  16 -2.384293E+06  8.799002E+02 -1.857186E+04  2.695583E+03 -6.813435E-10 -5.584175E-11
         7  17 -2.381226E+06  9.548374E+02 -3.200218E+04 -1.284972E+03  2.796569E-09  4.501310E-10
         7  18 -2.384331E+06 -1.521915E+04 -6.002273E+04 -5.265619E+03 -4.725028E-10 -1.278728E-09
         7  19 -2.384293E+06  8.799559E+02 -1.857147E+04 -2.695583E+03 -1.437355E+04  6.263867E-02
         7  20 -2.381225E+06  9.550883E+02 -3.200043E+04  1.284972E+03 -3.049912E+04 -6.335843E-02
         7  21 -2.384329E+06 -1.521857E+04 -6.001863E+04  5.265619E+03 -4.662464E+04 -3.969074E-01
         7  22 -2.384293E+06  8.799422E+02 -1.857147E+04  7.896209E-09 -1.437355E+04 -6.834181E-10
         7  23 -2.381225E+06  9.550852E+02 -3.200043E+04 -2.736238E-09 -3.049912E+04  2.073493E-10
         7  24 -2.384329E+06 -1.521862E+04 -6.001864E+04  4.111496E-09 -4.662464E+04 -1.485552E-09
         7  25 -2.384293E+06  8.799559E+02 -1.857147E+04  2.695583E+03 -1.437355E+04 -6.263867E-02
         7  26 -2.381225E+06  9.550883E+02 -3.200043E+04 -1.284972E+03 -3.049912E+04  6.335843E-02
         7  27 -2.384329E+06 -1.521857E+04 -6.001863E+04 -5.265619E+03 -4.662464E+04  3.969074E-01
         8   1 -2.398012E+06  1.228956E+04 -7.490665E+04 -3.371865E+04  5.749107E+04 -3.134039E+00
         8   2 -2.364156E+06  1.010151E+04 -1.254952E+05  3.297341E+04  1.243076E+05  6.626301E+00
         8   3 -2.398278E+06 -2.288844E+05 -2.788933E+05  9.966087E+04  1.911251E+05  3.079380E+01
         8   4 -2.398013E+06  1.228741E+04 -7.490696E+04  6.489444E-09  5.749107E+04 -6.056956E-10
         8   5 -2.364157E+06  1.009946E+04 -1.254955E+05  1.013235E-08  1.243076E+05 -5.944345E-10
         8   6 -2.398289E+06 -2.289032E+05 -2.788960E+05  7.057398E-09  1.911251E+05 -2.434617E-10
         8   7 -2.398012E+06  1.228956E+04 -7.490665E+04  3.371865E+04  5.749107E+04  3.134039E+00
         8   8 -2.364156E+06  1.010151E+04 -1.254952E+05 -3.297341E+04  1.243076E+05 -6.626301E+00
         8   9 -2.398278E+06 -2.288844E+05 -2.788933E+05 -9.966087E+04  1.911251E+05 -3.079380E+01
         8  10 -2.398015E+06  1.228867E+04 -7.491289E+04 -3.371865E+04  1.598483E-09 -5.658478E-10
         8  11 -2.364172E+06  1.009734E+04 -1.255243E+05  3.297341E+04  1.602353E-09 -2.265296E-10
         8  12 -2.398318E+06 -2.288943E+05 -2.789622E+05  9.966087E+04  6.065030E-11 -7.242209E-12
         8  13 -2.398017E+06  1.228652E+04 -7.491319E+04 -2.023859E-09 -1.075863E-09 -1.295519E-09
         8  14 -2.364173E+06  1.009529E+04 -1.255246E+05  3.762432E-09  1.719555E-09 -7.221629E-10
         8  15 -2.398328E+06 -2.289130E+05 -2.789649E+05  1.061485E-08  1.889772E-09 -1.427589E-10
         8  16 -2.398015E+06  1.228867E+04 -7.491289E+04  3.371865E+04 -5.747240E-10 -2.011983E-09
         8  17 -2.364172E+06  1.009734E+04 -1.255243E+05 -3.297341E+04 -1.381826E-09 -1.007725E-09
         8  18 -2.398318E+06 -2.288943E+05 -2.789622E+05 -9.966087E+04 -7.988423E-10 -1.400066E-10
         8  19 -2.398012E+06  1.228956E+04 -7.490665E+04 -3.371865E+04 -5.749107E+04  3.134039E+00
         8  20 -2.364156E+06  1.010151E+04 -1.254952E+05  3.297341E+04 -1.243076E+05 -6.626301E+00
         8  21 -2.398278E+06 -2.288844E+05 -2.788933E+05  9.966087E+04 -1.911251E+05 -3.079380E+01
         8  22 -2.398013E+06  1.228741E+04 -7.490696E+04 -4.070746E-09 -5.749107E+04 -1.987136E-09
         8  23 -2.364157E+06  1.009946E+04 -1.254955E+05 -6.911505E-09 -1.243076E+05 -8.647147E-10
         8  24 -2.398289E+06 -2.289032E+05 -2.788960E+05  1.280904E-09 -1.911251E+05 -6.211428E-11
         8  25 -2.398012E+06  1.228956E+04 -7.490665E+04  3.371865E+04 -5.749107E+04 -3.134039E+00
         8  26 -2.364156E+06  1.010151E+04 -1.254952E+05 -3.297341E+04 -1.243076E+05  6.626301E+00
         8  27 -2.398278E+06 -2.288844E+05 -2.788933E+05 -9.966087E+04 -1.911251E+05  3.079380E+01
         9   1  1.859825E+06  6.135982E+06  1.811015E+06 -1.131481E+06  8.447157E+04  5.956288E+05
         9   2  1.394712E+06  5.059881E+06  1.234620E+06 -9.459415E+05  2.725339E+05  2.710224E+05
         9   3  1.105641E+06  4.073481E+06  9.128875E+05 -9.936364E+05  2.952925E+05 -5.297264E+04
         9   4  2.037379E+05 -5.812302E+05  2.267938E+05 -9.947930E+05  8.551977E+04  1.574224E+05
         9   5  4.023699E+04 -6.008669E+05  1.093965E+05 -8.784750E+05  2.732584E+05  1.015533E+05
         9   6  7.257396E+03 -5.775658E+05  6.158213E+04 -9.953611E+05  2.950753E+05  4.569833E+04
         9   7 -1.455405E+06 -7.256744E+06 -1.359820E+06 -8.595306E+05  8.638523E+04 -2.761111E+05
         9   8 -1.316164E+06 -6.231067E+06 -1.017317E+06 -8.115912E+05  2.739509E+05 -6.641440E+04
         9   9 -1.092345E+06 -5.207663E+06 -7.905686E+05 -9.970366E+05  2.948564E+05  1.436525E+05
         9  10  1.859723E+06  6.135602E+06  1.810341E+06 -1.131521E+06 -3.699118E-10 -2.512900E-09
         9  11  1.394613E+06  5.059782E+06  1.234343E+06 -9.460008E+05 -1.002339E-09 -1.788936E-09
         9  12  1.105547E+06  4.073455E+06  9.127186E+05 -9.936239E+05 -2.579101E-09 -1.159690E-09
         9  13  2.037233E+05 -5.812588E+05  2.267333E+05 -9.948038E+05 -4.584277E-10  6.749164E-11
         9  14  4.015401E+04 -6.008981E+05  1.092366E+05 -8.784974E+05 -1.487980E-09  4.570781E-11
         9  15  7.163335E+03 -5.775915E+05  6.141452E+04 -9.953720E+05 -2.728534E-09 -2.916254E-11
         9  16 -1.455433E+06 -7.256828E+06 -1.359979E+06 -8.595114E+05 -4.563953E-10  2.547817E-09
         9  17 -1.316245E+06 -6.231091E+06 -1.017466E+06 -8.115766E+05 -4.456604E-09  1.807649E-09
         9  18 -1.092444E+06 -5.207708E+06 -7.907713E+05 -9.970709E+05 -3.894904E-09  1.037507E-09
         9  19  1.859825E+06  6.135982E+06  1.811015E+06 -1.131481E+06 -8.447157E+04 -5.956288E+05
         9  20  1.394712E+06  5.059881E+06  1.234620E+06 -9.459415E+05 -2.725339E+05 -2.710224E+05
         9  21  1.105641E+06  4.073481E+06  9.128875E+05 -9.936364E+05 -2.952925E+05  5.297264E+04
         9  22  2.037379E+05 -5.812302E+05  2.267938E+05 -9.947930E+05 -8.551977E+04 -1.574224E+05
         9  23  4.023699E+04 -6.008669E+05  1.093965E+05 -8.784750E+05 -2.732584E+05 -1.015533E+05
         9  24  7.257396E+03 -5.775658E+05  6.158213E+04 -9.953611E+05 -2.950753E+05 -4.569833E+04
         9  25 -1.455405E+06 -7.256744E+06 -1.359820E+06 -8.595306E+05 -8.638523E+04  2.761111E+05
         9  26 -1.316164E+06 -6.231067E+06 -1.017317E+06 -8.115912E+05 -2.739509E+05  6.641440E+04
         9  27 -1.092345E+06 -5.207663E+06 -7.905686E+05 -9.970366E+05 -2.948564E+05 -1.436525E+05
        10   1  9.487112E+05  3.378008E+06  7.676115E+05 -1.012998E+06  2.570417E+05 -3.949464E+04
        10   2  6.962398E+05  2.344018E+06  5.461747E+05 -8.862688E+05  2.037340E+05 -7.197015E+04
        10   3  4.557930E+05  1.317329E+06  3.485120E+05 -1.003272E+06  1.388649E+05 -1.045722E+05
        10   4  1.329985E+04 -5.852885E+05  4.741003E+04 -9.976551E+05  2.568282E+05  3.734551E+04
        10   5  7.113341E+03 -5.858368E+05  2.741526E+04 -8.757722E+05  2.033333E+05  2.355726E+04
        10   6  9.796184E+03 -5.833171E+05  1.831153E+04 -9.976872E+05  1.382480E+05  9.590864E+03
        10   7 -9.229915E+05 -4.533344E+06 -6.733971E+05 -9.823848E+05  2.566175E+05  1.137099E+05
        10   8 -6.824798E+05 -3.507302E+06 -4.916286E+05 -8.653110E+05  2.029346E+05  1.186480E+05
        10   9 -4.363888E+05 -2.480397E+06 -3.119666E+05 -9.921127E+05  1.376320E+05  1.234156E+05
        10  10  9.486399E+05  3.377989E+06  7.674846E+05 -1.012989E+06 -8.274655E-10 -2.487337E-08
        10  11  6.961939E+05  2.344002E+06  5.460871E+05 -8.862570E+05  1.209437E-09  1.723655E-09
        10  12  4.557694E+05  1.317312E+06  3.484554E+05 -1.003260E+06  1.359912E-09  2.796164E-08
        10  13  1.322864E+04 -5.853077E+05  4.728341E+04 -9.976628E+05 -1.740961E-09  1.055418E-10
        10  14  7.068798E+03 -5.858485E+05  2.733651E+04 -8.757761E+05  1.917494E-09 -3.247363E-11
        10  15  9.775638E+03 -5.833223E+05  1.827544E+04 -9.976882E+05 -2.843065E-10  7.546816E-11
        10  16 -9.230657E+05 -4.533376E+06 -6.735455E+05 -9.824084E+05 -2.140054E-09  2.459023E-08
        10  17 -6.825279E+05 -3.507328E+06 -4.917327E+05 -8.653305E+05 -1.068834E-09 -1.566274E-09
        10  18 -4.364133E+05 -2.480418E+06 -3.120310E+05 -9.921264E+05  1.513237E-09 -2.792423E-08
        10  19  9.487112E+05  3.378008E+06  7.676115E+05 -1.012998E+06 -2.570417E+05  3.949464E+04
        10  20  6.962398E+05  2.344018E+06  5.461747E+05 -8.862688E+05 -2.037340E+05  7.197015E+04
        10  21  4.557930E+05  1.317329E+06  3.485120E+05 -1.003272E+06 -1.388649E+05  1.045722E+05
        10  22  1.329985E+04 -5.852885E+05  4.741003E+04 -9.976551E+05 -2.568282E+05 -3.734551E+04
        10  23  7.113341E+03 -5.858368E+05  2.741526E+04 -8.757722E+05 -2.033333E+05 -2.355726E+04
        10  24  9.796184E+03 -5.833171E+05  1.831153E+04 -9.976872E+05 -1.382480E+05 -9.590864E+03
        10  25 -9.229915E+05 -4.533344E+06 -6.733971E+05 -9.823848E+05 -2.566175E+05 -1.137099E+05
        10  26 -6.824798E+05 -3.507302E+06 -4.916286E+05 -8.653110E+05 -2.029346E+05 -1.186480E+05
        10  27 -4.363888E+05 -2.480397E+06 -3.119666E+05 -9.921127E+05 -1.376320E+05 -1.234156E+05
        11   1  2.953647E+05  6.370419E+05  2.213638E+05 -1.002868E+06  9.567476E+04 -1.095320E+05
        11   2  5.341917E+04 -3.898666E+05  2.524261E+04 -8.710792E+05  3.672436E+04 -7.420124E+04
        11   3 -1.822943E+05 -1.421171E+06 -1.930465E+05 -9.823025E+05  4.520959E+03 -3.885148E+04
        11   4  1.020586E+04 -5.831324E+05  1.580165E+04 -9.975144E+05  9.500600E+04  6.468573E+03
        11   5  1.251032E+04 -5.840822E+05  1.465573E+04 -8.759728E+05  3.629971E+04 -1.276183E+03
        11   6  2.857438E+04 -5.829929E+05  2.125353E+04 -9.974242E+05  4.342176E+03 -8.943973E+03
        11   7 -2.750240E+05 -1.801811E+06 -1.897571E+05 -9.921688E+05  9.433837E+04  1.222487E+05
        11   8 -2.839635E+04 -7.782449E+05  4.090951E+03 -8.808646E+05  3.587382E+04  7.162783E+04
        11   9  2.393899E+05  2.558214E+05  2.355022E+05 -1.012565E+06  4.162077E+03  2.100409E+04
        11  10  2.953517E+05  6.370266E+05  2.213241E+05 -1.002859E+06  1.095245E-09  1.934503E-09
        11  11  5.341625E+04 -3.898728E+05  2.522974E+04 -8.710770E+05 -9.316955E-10  1.440555E-09
        11  12 -1.822947E+05 -1.421172E+06 -1.930494E+05 -9.823024E+05 -2.653536E-09  4.863987E-10
        11  13  1.019616E+04 -5.831349E+05  1.578461E+04 -9.975149E+05  1.475461E-09  4.667700E-11
        11  14  1.250890E+04 -5.840826E+05  1.465325E+04 -8.759727E+05 -1.195304E-09 -2.491792E-11
        11  15  2.857434E+04 -5.829930E+05  2.125334E+04 -9.974242E+05  7.546363E-10  7.486424E-11
        11  16 -2.750376E+05 -1.801829E+06 -1.898021E+05 -9.921781E+05  7.661185E-10 -2.016368E-09
        11  17 -2.839912E+04 -7.782508E+05  4.078862E+03 -8.808667E+05  1.587567E-09 -1.317345E-09
        11  18  2.393898E+05  2.558209E+05  2.355013E+05 -1.012565E+06 -1.005955E-09 -5.550338E-10
        11  19  2.953647E+05  6.370419E+05  2.213638E+05 -1.002868E+06 -9.567476E+04  1.095320E+05
        11  20  5.341917E+04 -3.898666E+05  2.524261E+04 -8.710792E+05 -3.672436E+04  7.420124E+04
        11  21 -1.822943E+05 -1.421171E+06 -1.930465E+05 -9.823025E+05 -4.520959E+03  3.885148E+04
        11  22  1.020586E+04 -5.831324E+05  1.580165E+04 -9.975144E+05 -9.500600E+04 -6.468573E+03
        11  23  1.251032E+04 -5.840822E+05  1.465573E+04 -8.759728E+05 -3.629971E+04  1.276183E+03
        11  24  2.857438E+04 -5.829929E+05  2.125353E+04 -9.974242E+05 -4.342176E+03  8.943973E+03
        11  25 -2.750240E+05 -1.801811E+06 -1.897571E+05 -9.921688E+05 -9.433837E+04 -1.222487E+05
        11  26 -2.839635E+04 -7.782449E+05  4.090951E+03 -8.808646E+05 -3.587382E+04 -7.162783E+04
        11  27  2.393899E+05  2.558214E+05  2.355022E+05 -1.012565E+06 -4.162077E+03 -2.100409E+04
        12   1 -3.178345E+06 -8.678527E+05 -4.235936E+05 -1.211870E+06 -2.484181E+05 -9.107180E+04
        12   2 -3.122464E+06 -4.896150E+05 -1.923885E+05 -1.221795E+06 -1.577855E+05 -5.349379E+04
        12   3 -3.181212E+06 -4.328026E+05 -1.140836E+05 -1.168063E+06 -6.548531E+04 -2.034363E+04
        12   4 -3.115583E+06 -7.258646E+05 -3.834340E+05 -1.072982E+06 -2.444342E+05 -8.963797E+04
        12   5 -3.037885E+06 -4.198242E+05 -1.640297E+05 -1.159307E+06 -1.570857E+05 -5.324368E+04
        12   6 -3.074146E+06 -4.345577E+05 -9.490189E+04 -1.181986E+06 -6.806568E+04 -2.130536E+04
        12   7 -3.052783E+06 -5.837923E+05 -3.432674E+05 -9.340690E+05 -2.404501E+05 -8.820207E+04
        12   8 -2.953294E+06 -3.500208E+05 -1.356710E+05 -1.096808E+06 -1.563857E+05 -5.299342E+04
        12   9 -2.967064E+06 -4.363090E+05 -7.571943E+04 -1.195913E+06 -7.064655E+04 -2.226684E+04
        12  10 -3.178414E+06 -8.678784E+05 -4.237259E+05 -1.211888E+06 -6.919812E-11 -1.513805E-11
        12  11 -3.122491E+06 -4.896248E+05 -1.924410E+05 -1.221802E+06  3.061384E-10  4.194774E-10
        12  12 -3.181217E+06 -4.328042E+05 -1.140924E+05 -1.168064E+06 -1.523693E-10 -2.035456E-10
        12  13 -3.115650E+06 -7.258894E+05 -3.835621E+05 -1.072999E+06  8.271002E-10  2.712029E-10
        12  14 -3.037912E+06 -4.198340E+05 -1.640817E+05 -1.159314E+06  9.207666E-10  4.681896E-10
        12  15 -3.074151E+06 -4.345594E+05 -9.491150E+04 -1.181988E+06 -1.142586E-09 -4.092989E-10
        12  16 -3.052847E+06 -5.838163E+05 -3.433913E+05 -9.340861E+05  1.976581E-09  4.614078E-10
        12  17 -2.953322E+06 -3.500305E+05 -1.357225E+05 -1.096815E+06  1.195656E-09  5.649542E-10
        12  18 -2.967070E+06 -4.363109E+05 -7.572980E+04 -1.195914E+06 -2.724081E-09 -6.507463E-10
        12  19 -3.178345E+06 -8.678527E+05 -4.235936E+05 -1.211870E+06  2.484181E+05  9.107180E+04
        12  20 -3.122464E+06 -4.896150E+05 -1.923885E+05 -1.221795E+06  1.577855E+05  5.349379E+04
        12  21 -3.181212E+06 -4.328026E+05 -1.140836E+05 -1.168063E+06  6.548531E+04  2.034363E+04
        12  22 -3.115583E+06 -7.258646E+05 -3.834340E+05 -1.072982E+06  2.444342E+05  8.963797E+04
        12  23 -3.037885E+06 -4.198242E+05 -1.640297E+05 -1.159307E+06  1.570857E+05  5.324368E+04
        12  24 -3.074146E+06 -4.345577E+05 -9.490189E+04 -1.181986E+06  6.806568E+04  2.130536E+04
        12  25 -3.052783E+06 -5.837923E+05 -3.432674E+05 -9.340690E+05  2.404501E+05  8.820207E+04
        12  26 -2.953294E+06 -3.500208E+05 -1.356710E+05 -1.096808E+06  1.563857E+05  5.299342E+04
        12  27 -2.967064E+06 -4.363090E+05 -7.571943E+04 -1.195913E+06  7.064655E+04  2.226684E+04
        13   1 -3.099182E+06 -4.882940E+05 -8.651841E+04 -1.180034E+06 -5.374858E+04 -1.784324E+04
        13   2 -3.066248E+06 -4.420507E+05 -3.977619E+04 -1.164498E+06 -3.340403E+04 -1.221347E+04
        13   3 -3.030985E+06 -4.323224E+05 -1.396352E+04 -1.159215E+06 -1.297691E+04 -6.798469E+03
        13   4 -3.061867E+06 -4.672478E+05 -7.587480E+04 -1.162509E+06 -5.496195E+04 -1.829879E+04
        13   5 -3.061534E+06 -4.384587E+05 -3.825160E+04 -1.161323E+06 -3.477540E+04 -1.272759E+04
        13   6 -3.058841E+06 -4.461529E+05 -2.143032E+04 -1.170389E+06 -1.450745E+04 -7.372010E+03
        13   7 -3.024550E+06 -4.462008E+05 -6.523130E+04 -1.144984E+06 -5.617539E+04 -1.875441E+04
        13   8 -3.056820E+06 -4.348668E+05 -3.672700E+04 -1.158147E+06 -3.614677E+04 -1.324172E+04
        13   9 -3.086696E+06 -4.599829E+05 -2.889710E+04 -1.181561E+06 -1.603791E+04 -7.945496E+03
        13  10 -3.099185E+06 -4.882951E+05 -8.652447E+04 -1.180034E+06 -2.945425E-09 -3.441779E-10
        13  11 -3.066249E+06 -4.420512E+05 -3.977858E+04 -1.164499E+06 -1.541327E-09 -1.346068E-10
        13  12 -3.030985E+06 -4.323225E+05 -1.396392E+04 -1.159215E+06  1.144080E-09  2.701470E-11
        13  13 -3.061870E+06 -4.672489E+05 -7.588114E+04 -1.162510E+06 -6.017284E-10 -4.220337E-10
        13  14 -3.061535E+06 -4.384592E+05 -3.825419E+04 -1.161323E+06  3.190765E-09  1.405132E-10
        13  15 -3.058841E+06 -4.461530E+05 -2.143082E+04 -1.170389E+06 -8.267177E-10  5.328456E-11
        13  16 -3.024554E+06 -4.462020E+05 -6.523793E+04 -1.144984E+06  2.080643E-10 -5.366855E-10
        13  17 -3.056822E+06 -4.348673E+05 -3.672980E+04 -1.158147E+06  1.632522E-09  1.640432E-10
        13  18 -3.086696E+06 -4.599830E+05 -2.889770E+04 -1.181561E+06 -2.149801E-09  3.556343E-10
        13  19 -3.099182E+06 -4.882940E+05 -8.651841E+04 -1.180034E+06  5.374858E+04  1.784324E+04
        13  20 -3.066248E+06 -4.420507E+05 -3.977619E+04 -1.164498E+06  3.340403E+04  1.221347E+04
        13  21 -3.030985E+06 -4.323224E+05 -1.396352E+04 -1.159215E+06  1.297691E+04  6.798469E+03
        13  22 -3.061867E+06 -4.672478E+05 -7.587480E+04 -1.162509E+06  5.496195E+04  1.829879E+04
        13  23 -3.061534E+06 -4.384587E+05 -3.825160E+04 -1.161323E+06  3.477540E+04  1.272759E+04
        13  24 -3.058841E+06 -4.461529E+05 -2.143032E+04 -1.170389E+06  1.450745E+04  7.372010E+03
        13  25 -3.024550E+06 -4.462008E+05 -6.523130E+04 -1.144984E+06  5.617539E+04  1.875441E+04
        13  26 -3.056820E+06 -4.348668E+05 -3.672700E+04 -1.158147E+06  3.614677E+04  1.324172E+04
        13  27 -3.086696E+06 -4.599829E+05 -2.889710E+04 -1.181561E+06  1.603791E+04  7.945496E+03
        14   1 -2.992974E+06 -4.243613E+05 -1.440758E+02 -1.151336E+06 -9.583469E+03 -6.881478E+03
        14   2 -2.963079E+06 -4.024727E+05  1.628465E+04 -1.134026E+06 -4.398951E+03 -7.189829E+03
        14   3 -2.921055E+06 -3.956727E+05  2.893979E+04 -1.131762E+06  7.837524E+02 -7.491536E+03
        14   4 -3.057660E+06 -4.484007E+05 -1.641987E+04 -1.168832E+06 -1.104261E+04 -7.428399E+03
        14   5 -3.063618E+06 -4.401345E+05 -8.873263E+03 -1.161577E+06 -5.853760E+03 -7.735264E+03
        14   6 -3.057449E+06 -4.469580E+05 -5.103428E+03 -1.169369E+06 -6.670105E+02 -8.035588E+03
        14   7 -3.122343E+06 -4.724401E+05 -3.269616E+04 -1.186326E+06 -1.250161E+04 -7.975264E+03
        14   8 -3.164149E+06 -4.777959E+05 -3.403217E+04 -1.189125E+06 -7.308322E+03 -8.280605E+03
        14   9 -3.193825E+06 -4.982423E+05 -3.914830E+04 -1.206969E+06 -2.117431E+03 -8.579510E+03
        14  10 -2.992974E+06 -4.243614E+05 -1.443387E+02 -1.151336E+06  1.302339E-09  2.713484E-11
        14  11 -2.963079E+06 -4.024728E+05  1.628451E+04 -1.134026E+06 -1.028501E-09  3.149191E-10
        14  12 -2.921055E+06 -3.956727E+05  2.893968E+04 -1.131762E+06  1.125617E-09 -6.491217E-10
        14  13 -3.057660E+06 -4.484008E+05 -1.642020E+04 -1.168832E+06 -1.294502E-09  4.239584E-10
        14  14 -3.063619E+06 -4.401346E+05 -8.873440E+03 -1.161577E+06  8.706153E-10  3.634047E-10
        14  15 -3.057449E+06 -4.469581E+05 -5.103551E+03 -1.169369E+06  8.490604E-10 -7.805058E-10
        14  16 -3.122343E+06 -4.724402E+05 -3.269657E+04 -1.186327E+06 -5.180690E-10  5.246814E-10
        14  17 -3.164149E+06 -4.777960E+05 -3.403240E+04 -1.189125E+06 -2.591855E-09  2.571419E-10
        14  18 -3.193825E+06 -4.982424E+05 -3.914844E+04 -1.206969E+06  5.712064E-10 -1.330380E-09
        14  19 -2.992974E+06 -4.243613E+05 -1.440758E+02 -1.151336E+06  9.583469E+03  6.881478E+03
        14  20 -2.963079E+06 -4.024727E+05  1.628465E+04 -1.134026E+06  4.398951E+03  7.189829E+03
        14  21 -2.921055E+06 -3.956727E+05  2.893979E+04 -1.131762E+06 -7.837524E+02  7.491536E+03
        14  22 -3.057660E+06 -4.484007E+05 -1.641987E+04 -1.168832E+06  1.104261E+04  7.428399E+03
        14  23 -3.063618E+06 -4.401345E+05 -8.873263E+03 -1.161577E+06  5.853760E+03  7.735264E+03
        14  24 -3.057449E+06 -4.469580E+05 -5.103428E+03 -1.169369E+06  6.670105E+02  8.035588E+03
        14  25 -3.122343E+06 -4.724401E+05 -3.269616E+04 -1.186326E+06  1.250161E+04  7.975264E+03
        14  26 -3.164149E+06 -4.777959E+05 -3.403217E+04 -1.189125E+06  7.308322E+03  8.280605E+03
        14  27 -3.193825E+06 -4.982423E+05 -3.914830E+04 -1.206969E+06  2.117431E+03  8.579510E+03
        15   1 -2.887441E+06 -3.833830E+05  3.864081E+04 -1.122637E+06  1.939702E+03 -8.355369E+03
        15   2 -2.858958E+06 -3.638472E+05  4.855501E+04 -1.105745E+06  3.966997E+03 -9.790808E+03
        15   3 -2.817784E+06 -3.573505E+05  5.746523E+04 -1.103634E+06  5.983746E+03 -1.119586E+04
        15   4 -3.057398E+06 -4.469964E+05 -4.006934E+03 -1.169127E+06  5.073907E+02 -8.892630E+03
        15   5 -3.063738E+06 -4.404433E+05 -2.664343E+03 -1.161748E+06  2.556589E+03 -1.032011E+04
        15   6 -3.057392E+06 -4.469339E+05 -2.343336E+03 -1.169152E+06  4.595168E+03 -1.171723E+04
        15   7 -3.227326E+06 -5.106075E+05 -4.665658E+04 -1.215605E+06 -9.244788E+02 -9.429724E+03
        15   8 -3.268476E+06 -5.170363E+05 -5.388684E+04 -1.217735E+06  1.146695E+03 -1.084922E+04
        15   9 -3.296944E+06 -5.365136E+05 -6.215658E+04 -1.234647E+06  3.207174E+03 -1.223838E+04
        15  10 -2.887441E+06 -3.833831E+05  3.864067E+04 -1.122637E+06 -6.183449E-10 -8.168038E-10
        15  11 -2.858958E+06 -3.638473E+05  4.855480E+04 -1.105745E+06 -8.242714E-10  1.068908E-09
        15  12 -2.817784E+06 -3.573506E+05  5.746493E+04 -1.103634E+06  1.346053E-09  1.378965E-10
        15  13 -3.057398E+06 -4.469965E+05 -4.007083E+03 -1.169127E+06 -8.275164E-10 -8.812233E-10
        15  14 -3.063738E+06 -4.404434E+05 -2.664555E+03 -1.161748E+06  2.358572E-09  3.302311E-10
        15  15 -3.057392E+06 -4.469340E+05 -2.343633E+03 -1.169152E+06  8.324087E-11  2.718640E-10
        15  16 -3.227326E+06 -5.106076E+05 -4.665675E+04 -1.215605E+06  2.846556E-09 -5.241214E-10
        15  17 -3.268476E+06 -5.170365E+05 -5.388707E+04 -1.217735E+06  1.824895E-09  7.264935E-11
        15  18 -3.296944E+06 -5.365138E+05 -6.215688E+04 -1.234646E+06 -2.075821E-09  8.202259E-10
        15  19 -2.887441E+06 -3.833830E+05  3.864081E+04 -1.122637E+06 -1.939702E+03  8.355369E+03
        15  20 -2.858958E+06 -3.638472E+05  4.855501E+04 -1.105745E+06 -3.966997E+03  9.790808E+03
        15  21 -2.817784E+06 -3.573505E+05  5.746523E+04 -1.103634E+06 -5.983746E+03  1.119586E+04
        15  22 -3.057398E+06 -4.469964E+05 -4.006934E+03 -1.169127E+06 -5.073907E+02  8.892630E+03
        15  23 -3.063738E+06 -4.404433E+05 -2.664343E+03 -1.161748E+06 -2.556589E+03  1.032011E+04
        15  24 -3.057392E+06 -4.469339E+05 -2.343336E+03 -1.169152E+06 -4.595168E+03  1.171723E+04
        15  25 -3.227326E+06 -5.106075E+05 -4.665658E+04 -1.215605E+06  9.244788E+02  9.429724E+03
        15  26 -3.268476E+06 -5.170363E+05 -5.388684E+04 -1.217735E+06 -1.146695E+03  1.084922E+04
        15  27 -3.296944E+06 -5.365136E+05 -6.215658E+04 -1.234647E+06 -3.207174E+03  1.223838E+04
        16   1 -2.786063E+06 -3.452499E+05  6.553809E+04 -1.094785E+06  6.765294E+03 -1.214007E+04
        16   2 -2.759235E+06 -3.268972E+05  7.260509E+04 -1.078819E+06  9.153710E+03 -1.332179E+04
        16   3 -2.720502E+06 -3.209045E+05  7.836195E+04 -1.076768E+06  1.152526E+04 -1.445556E+04
        16   4 -3.057569E+06 -4.467655E+05 -2.488167E+03 -1.168968E+06  5.402064E+03 -1.265213E+04
        16   5 -3.063533E+06 -4.406576E+05 -3.490792E+03 -1.161984E+06  7.824888E+03 -1.382130E+04
        16   6 -3.057598E+06 -4.469168E+05 -5.831306E+03 -1.168915E+06  1.023076E+04 -1.494254E+04
        16   7 -3.329002E+06 -5.482757E+05 -7.051992E+04 -1.243122E+06  4.039495E+03 -1.316394E+04
        16   8 -3.367739E+06 -5.544118E+05 -7.959396E+04 -1.245111E+06  6.496781E+03 -1.432054E+04
        16   9 -3.394584E+06 -5.729222E+05 -9.003387E+04 -1.261017E+06  8.937013E+03 -1.542924E+04
        16  10 -2.786063E+06 -3.452501E+05  6.553773E+04 -1.094785E+06 -1.369851E-11 -7.462049E-10
        16  11 -2.759235E+06 -3.268974E+05  7.260460E+04 -1.078819E+06 -1.170364E-09 -1.812387E-09
        16  12 -2.720502E+06 -3.209048E+05  7.836131E+04 -1.076768E+06 -5.916139E-09  1.975354E-10
        16  13 -3.057569E+06 -4.467657E+05 -2.488522E+03 -1.168968E+06 -2.866705E-09 -3.545309E-10
        16  14 -3.063533E+06 -4.406578E+05 -3.491265E+03 -1.161983E+06 -1.668662E-09 -9.213842E-10
        16  15 -3.057598E+06 -4.469171E+05 -5.831921E+03 -1.168915E+06 -2.419227E-09  7.269897E-10
        16  16 -3.329002E+06 -5.482759E+05 -7.052027E+04 -1.243122E+06 -4.692660E-09 -1.868782E-10
        16  17 -3.367739E+06 -5.544120E+05 -7.959442E+04 -1.245111E+06 -6.642550E-09 -5.890794E-10
        16  18 -3.394584E+06 -5.729224E+05 -9.003447E+04 -1.261016E+06  3.715962E-09  1.000601E-09
        16  19 -2.786063E+06 -3.452499E+05  6.553809E+04 -1.094785E+06 -6.765294E+03  1.214007E+04
        16  20 -2.759235E+06 -3.268972E+05  7.260509E+04 -1.078819E+06 -9.153710E+03  1.332179E+04
        16  21 -2.720502E+06 -3.209045E+05  7.836195E+04 -1.076768E+06 -1.152526E+04  1.445556E+04
        16  22 -3.057569E+06 -4.467655E+05 -2.488167E+03 -1.168968E+06 -5.402064E+03  1.265213E+04
        16  23 -3.063533E+06 -4.406576E+05 -3.490792E+03 -1.161984E+06 -7.824888E+03  1.382130E+04
        16  24 -3.057598E+06 -4.469168E+05 -5.831306E+03 -1.168915E+06 -1.023076E+04  1.494254E+04
        16  25 -3.329002E+06 -5.482757E+05 -7.051992E+04 -1.243122E+06 -4.039495E+03  1.316394E+04
        16  26 -3.367739E+06 -5.544118E+05 -7.959396E+04 -1.245111E+06 -6.496781E+03  1.432054E+04
        16  27 -3.394584E+06 -5.729222E+05 -9.003387E+04 -1.261017E+06 -8.937013E+03  1.542924E+04
        17   1 -2.691089E+06 -3.096270E+05  8.422494E+04 -1.068934E+06  1.298254E+04 -1.506165E+04
        17   2 -2.666262E+06 -2.923420E+05  8.567868E+04 -1.053781E+06  2.031888E+04 -1.420828E+04
        17   3 -2.632073E+06 -2.888407E+05  8.144820E+04 -1.050937E+06  2.761980E+04 -1.325670E+04
        17   4 -3.058063E+06 -4.464728E+05 -7.598260E+03 -1.168847E+06  1.171230E+04 -1.553977E+04
        17   5 -3.062907E+06 -4.407030E+05 -1.352182E+04 -1.162272E+06  1.911672E+04 -1.466126E+04
        17   6 -3.058404E+06 -4.487327E+05 -2.518647E+04 -1.168007E+06  2.648534E+04 -1.368465E+04
        17   7 -3.424903E+06 -5.833098E+05 -9.943204E+04 -1.268706E+06  1.044289E+04 -1.601758E+04
        17   8 -3.459396E+06 -5.890533E+05 -1.127344E+05 -1.270699E+06  1.791540E+04 -1.511392E+04
        17   9 -3.484554E+06 -6.086116E+05 -1.318349E+05 -1.285004E+06  2.535173E+04 -1.411228E+04
        17  10 -2.691089E+06 -3.096273E+05  8.422419E+04 -1.068934E+06  5.209363E-10  2.356071E-09
        17  11 -2.666263E+06 -2.923423E+05  8.567753E+04 -1.053781E+06  2.029811E-09  4.175602E-10
        17  12 -2.632074E+06 -2.888410E+05  8.144643E+04 -1.050937E+06  3.299487E-09 -3.251727E-10
        17  13 -3.058063E+06 -4.464731E+05 -7.598971E+03 -1.168847E+06  1.987908E-09  1.280282E-09
        17  14 -3.062907E+06 -4.407033E+05 -1.352291E+04 -1.162272E+06  6.208211E-11  3.657003E-10
        17  15 -3.058405E+06 -4.487331E+05 -2.518814E+04 -1.168007E+06  3.415972E-09  6.035376E-10
        17  16 -3.424904E+06 -5.833101E+05 -9.943273E+04 -1.268706E+06  1.779629E-09  4.686117E-10
        17  17 -3.459396E+06 -5.890536E+05 -1.127355E+05 -1.270699E+06 -8.445992E-10  5.410019E-10
        17  18 -3.484555E+06 -6.086120E+05 -1.318365E+05 -1.285003E+06 -2.436460E-10  1.538306E-09
        17  19 -2.691089E+06 -3.096270E+05  8.422494E+04 -1.068934E+06 -1.298254E+04  1.506165E+04
        17  20 -2.666262E+06 -2.923420E+05  8.567868E+04 -1.053781E+06 -2.031888E+04  1.420828E+04
        17  21 -2.632073E+06 -2.888407E+05  8.144820E+04 -1.050937E+06 -2.761980E+04  1.325670E+04
        17  22 -3.058063E+06 -4.464728E+05 -7.598260E+03 -1.168847E+06 -1.171230E+04  1.553977E+04
        17  23 -3.062907E+06 -4.407030E+05 -1.352182E+04 -1.162272E+06 -1.911672E+04  1.466126E+04
        17  24 -3.058404E+06 -4.487327E+05 -2.518647E+04 -1.168007E+06 -2.648534E+04  1.368465E+04
        17  25 -3.424903E+06 -5.833098E+05 -9.943204E+04 -1.268706E+06 -1.044289E+04  1.601758E+04
        17  26 -3.459396E+06 -5.890533E+05 -1.127344E+05 -1.270699E+06 -1.791540E+04  1.511392E+04
        17  27 -3.484554E+06 -6.086116E+05 -1.318349E+05 -1.285004E+06 -2.535173E+04  1.411228E+04
        18   1 -2.603528E+06 -2.790493E+05  8.055723E+04 -1.050231E+06  3.281834E+04 -1.243382E+04
        18   2 -2.581827E+06 -2.568145E+05  6.120434E+04 -1.028501E+06  6.275285E+04 -2.719795E+03
        18   3 -2.567163E+06 -2.795877E+05  1.039395E+04 -1.009898E+06  9.237140E+04  7.839175E+03
        18   4 -3.060546E+06 -4.449379E+05 -3.290868E+04 -1.170016E+06  3.149115E+04 -1.293429E+04
        18   5 -3.059312E+06 -4.385849E+05 -5.882775E+04 -1.162367E+06  6.202625E+04 -2.995263E+03
        18   6 -3.065248E+06 -4.773797E+05 -1.167012E+05 -1.157844E+06  9.224414E+04  7.787638E+03
        18   7 -3.517360E+06 -6.108166E+05 -1.463913E+05 -1.289722E+06  3.016502E+04 -1.343439E+04
        18   8 -3.536572E+06 -6.203385E+05 -1.788783E+05 -1.296138E+06  6.130024E+04 -3.270500E+03
        18   9 -3.563087E+06 -6.751467E+05 -2.438165E+05 -1.305679E+06  9.211697E+04  7.736137E+03
        18  10 -2.603529E+06 -2.790498E+05  8.055491E+04 -1.050231E+06  9.746694E-10  6.469083E-10
        18  11 -2.581831E+06 -2.568155E+05  6.119690E+04 -1.028501E+06 -7.401705E-11  6.638542E-10
        18  12 -2.567172E+06 -2.795901E+05  1.037773E+04 -1.009899E+06  9.574381E-10 -1.043640E-09
        18  13 -3.060547E+06 -4.449384E+05 -3.291086E+04 -1.170015E+06 -1.113521E-09  4.261697E-10
        18  14 -3.059316E+06 -4.385860E+05 -5.883503E+04 -1.162366E+06 -2.567119E-10  1.652456E-10
        18  15 -3.065257E+06 -4.773820E+05 -1.167174E+05 -1.157845E+06 -3.803838E-10 -9.725085E-10
        18  16 -3.517361E+06 -6.108170E+05 -1.463934E+05 -1.289721E+06 -1.750084E-09  6.700130E-10
        18  17 -3.536576E+06 -6.203395E+05 -1.788854E+05 -1.296138E+06  8.631560E-10 -3.467350E-10
        18  18 -3.563097E+06 -6.751490E+05 -2.438327E+05 -1.305680E+06 -1.407702E-09 -1.015256E-09
        18  19 -2.603528E+06 -2.790493E+05  8.055723E+04 -1.050231E+06 -3.281834E+04  1.243382E+04
        18  20 -2.581827E+06 -2.568145E+05  6.120434E+04 -1.028501E+06 -6.275285E+04  2.719795E+03
        18  21 -2.567163E+06 -2.795877E+05  1.039395E+04 -1.009898E+06 -9.237140E+04 -7.839175E+03
        18  22 -3.060546E+06 -4.449379E+05 -3.290868E+04 -1.170016E+06 -3.149115E+04  1.293429E+04
        18  23 -3.059312E+06 -4.385849E+05 -5.882775E+04 -1.162367E+06 -6.202625E+04  2.995263E+03
        18  24 -3.065248E+06 -4.773797E+05 -1.167012E+05 -1.157844E+06 -9.224414E+04 -7.787638E+03
        18  25 -3.517360E+06 -6.108166E+05 -1.463913E+05 -1.289722E+06 -3.016502E+04  1.343439E+04
        18  26 -3.536572E+06 -6.203385E+05 -1.788783E+05 -1.296138E+06 -6.130024E+04  3.270500E+03
        18  27 -3.563087E+06 -6.751467E+05 -2.438165E+05 -1.305679E+06 -9.211697E+04 -7.736137E+03
        19   1 -2.507992E+06 -2.753834E+05 -1.382675E+04 -1.095671E+06  1.173270E+05  1.428176E+04
        19   2 -2.514687E+06 -1.606215E+05 -1.135373E+05 -9.596583E+05  2.413873E+05  6.259762E+04
        19   3 -2.706924E+06 -5.236878E+05 -4.349914E+05 -7.108719E+05  3.594698E+05  1.267839E+05
        19   4 -3.084360E+06 -4.268619E+05 -1.459694E+05 -1.187543E+06  1.123917E+05  1.243383E+04
        19   5 -3.022544E+06 -4.103475E+05 -2.523056E+05 -1.159726E+06  2.480374E+05  6.507600E+04
        19   6 -3.148784E+06 -8.742770E+05 -5.897451E+05 -1.019072E+06  3.777150E+05  1.335374E+05
        19   7 -3.660393E+06 -5.783474E+05 -2.781306E+05 -1.279355E+06  1.074613E+05  1.058652E+04
        19   8 -3.530134E+06 -6.599954E+05 -3.910955E+05 -1.359625E+06  2.546815E+05  6.755049E+04
        19   9 -3.590367E+06 -1.224566E+06 -7.445057E+05 -1.327008E+06  3.959460E+05  1.402719E+05
        19  10 -2.508007E+06 -2.753873E+05 -1.385312E+04 -1.095672E+06 -5.471094E-10 -1.239337E-09
        19  11 -2.514751E+06 -1.606415E+05 -1.136547E+05 -9.596705E+05  2.046346E-09  4.279870E-10
        19  12 -2.707067E+06 -5.237400E+05 -4.352657E+05 -7.109087E+05  1.000044E-09  9.948189E-10
        19  13 -3.084374E+06 -4.268654E+05 -1.459936E+05 -1.187544E+06 -1.029508E-09 -6.052382E-10
        19  14 -3.022611E+06 -4.103687E+05 -2.524298E+05 -1.159739E+06 -1.130717E-09  3.897824E-10
        19  15 -3.148942E+06 -8.743348E+05 -5.900485E+05 -1.019113E+06  4.657030E-10  8.623217E-10
        19  16 -3.660405E+06 -5.783506E+05 -2.781527E+05 -1.279356E+06 -1.297437E-09 -4.283200E-10
        19  17 -3.530205E+06 -6.600179E+05 -3.912268E+05 -1.359639E+06 -1.706533E-09  2.938684E-10
        19  18 -3.590541E+06 -1.224630E+06 -7.448395E+05 -1.327052E+06 -1.739334E-09  5.498905E-11
        19  19 -2.507992E+06 -2.753834E+05 -1.382675E+04 -1.095671E+06 -1.173270E+05 -1.428176E+04
        19  20 -2.514687E+06 -1.606215E+05 -1.135373E+05 -9.596583E+05 -2.413873E+05 -6.259762E+04
        19  21 -2.706924E+06 -5.236878E+05 -4.349914E+05 -7.108719E+05 -3.594698E+05 -1.267839E+05
        19  22 -3.084360E+06 -4.268619E+05 -1.459694E+05 -1.187543E+06 -1.123917E+05 -1.243383E+04
        19  23 -3.022544E+06 -4.103475E+05 -2.523056E+05 -1.159726E+06 -2.480374E+05 -6.507600E+04
        19  24 -3.148784E+06 -8.742770E+05 -5.897451E+05 -1.019072E+06 -3.777150E+05 -1.335374E+05
        19  25 -3.660393E+06 -5.783474E+05 -2.781306E+05 -1.279355E+06 -1.074613E+05 -1.058652E+04
        19  26 -3.530134E+06 -6.599954E+05 -3.910955E+05 -1.359625E+06 -2.546815E+05 -6.755049E+04
        19  27 -3.590367E+06 -1.224566E+06 -7.445057E+05 -1.327008E+06 -3.959460E+05 -1.402719E+05
        20   1 -8.452983E+05  3.512020E+04  4.280272E+04  1.531504E+04  2.936190E+04  7.252650E-01
        20   2 -8.505169E+05 -1.543011E+03  1.926712E+04  5.067602E+03  1.910269E+04  1.561324E-01
        20   3 -8.453143E+05 -1.884726E+03  1.149812E+04 -5.179579E+03  8.843614E+03 -7.387824E-02
        20   4 -8.452986E+05  3.511976E+04  4.280266E+04  2.142730E-09  2.936190E+04  8.504887E-11
        20   5 -8.505170E+05 -1.543059E+03  1.926711E+04  8.516299E-10  1.910269E+04  1.812756E-10
        20   6 -8.453143E+05 -1.884777E+03  1.149811E+04 -4.207519E-09  8.843614E+03 -9.839460E-11
        20   7 -8.452983E+05  3.512020E+04  4.280272E+04 -1.531504E+04  2.936190E+04 -7.252650E-01
        20   8 -8.505169E+05 -1.543011E+03  1.926712E+04 -5.067602E+03  1.910269E+04 -1.561324E-01
        20   9 -8.453143E+05 -1.884726E+03  1.149812E+04  5.179579E+03  8.843614E+03  7.387824E-02
        20  10 -8.452993E+05  3.511996E+04  4.280110E+04  1.531504E+04  1.886291E-10 -4.701180E-12
        20  11 -8.505173E+05 -1.543109E+03  1.926643E+04  5.067602E+03 -5.888730E-10 -2.173277E-10
        20  12 -8.453144E+05 -1.884747E+03  1.149797E+04 -5.179579E+03 -6.985541E-10 -2.958400E-10
        20  13 -8.452995E+05  3.511952E+04  4.280104E+04 -4.365334E-09  1.120179E-09 -6.490647E-11
        20  14 -8.505174E+05 -1.543157E+03  1.926643E+04 -1.327839E-09  5.383113E-10 -3.074469E-10
        20  15 -8.453144E+05 -1.884798E+03  1.149797E+04 -4.213824E-09 -1.525888E-09 -3.945483E-10
        20  16 -8.452993E+05  3.511996E+04  4.280110E+04 -1.531504E+04 -8.476758E-10 -6.280538E-11
        20  17 -8.505173E+05 -1.543109E+03  1.926643E+04 -5.067602E+03  2.242207E-10 -3.086326E-10
        20  18 -8.453144E+05 -1.884747E+03  1.149797E+04  5.179579E+03 -2.264264E-10 -4.220458E-10
        20  19 -8.452983E+05  3.512020E+04  4.280272E+04  1.531504E+04 -2.936190E+04 -7.252650E-01
        20  20 -8.505169E+05 -1.543011E+03  1.926712E+04  5.067602E+03 -1.910269E+04 -1.561324E-01
        20  21 -8.453143E+05 -1.884726E+03  1.149812E+04 -5.179579E+03 -8.843614E+03  7.387824E-02
        20  22 -8.452986E+05  3.511976E+04  4.280266E+04  4.203484E-09 -2.936190E+04 -2.462327E-10
        20  23 -8.505170E+05 -1.543059E+03  1.926711E+04  7.959357E-10 -1.910269E+04 -7.657315E-10
        20  24 -8.453143E+05 -1.884777E+03  1.149811E+04  2.237377E-09 -8.843614E+03 -6.963057E-10
        20  25 -8.452983E+05  3.512020E+04  4.280272E+04 -1.531504E+04 -2.936190E+04  7.252650E-01
        20  26 -8.505169E+05 -1.543011E+03  1.926712E+04 -5.067602E+03 -1.910269E+04  1.561324E-01
        20  27 -8.453143E+05 -1.884726E+03  1.149812E+04  5.179579E+03 -8.843614E+03 -7.387825E-02
        21   1 -8.474172E+05  2.333045E+03  9.210698E+03  8.079538E+02  7.173168E+03  9.347411E-03
        21   2 -8.478909E+05 -1.459768E+02  4.906308E+03  1.966574E+02  4.699640E+03  1.490627E-03
        21   3 -8.474193E+05 -1.347456E+02  2.836568E+03 -4.146490E+02  2.226083E+03 -1.488730E-03
        21   4 -8.474172E+05  2.333044E+03  9.210698E+03  1.569051E-09  7.173168E+03 -7.115853E-11
        21   5 -8.478909E+05 -1.459768E+02  4.906308E+03  1.639894E-09  4.699640E+03 -6.297465E-12
        21   6 -8.474193E+05 -1.347459E+02  2.836568E+03  1.985139E-09  2.226083E+03 -8.058616E-10
        21   7 -8.474172E+05  2.333045E+03  9.210698E+03 -8.079538E+02  7.173168E+03 -9.347411E-03
        21   8 -8.478909E+05 -1.459768E+02  4.906308E+03 -1.966574E+02  4.699640E+03 -1.490627E-03
        21   9 -8.474193E+05 -1.347456E+02  2.836568E+03  4.146490E+02  2.226083E+03  1.488728E-03
        21  10 -8.474173E+05  2.333031E+03  9.210602E+03  8.079538E+02 -1.544382E-09  3.229770E-10
        21  11 -8.478909E+05 -1.459827E+02  4.906266E+03  1.966574E+02  1.661184E-09  1.054770E-09
        21  12 -8.474193E+05 -1.347469E+02  2.836559E+03 -4.146490E+02  2.273794E-09 -8.405798E-10
        21  13 -8.474173E+05  2.333030E+03  9.210601E+03 -3.750066E-10  1.221622E-09  3.033860E-11
        21  14 -8.478909E+05 -1.459828E+02  4.906266E+03 -4.841801E-09  7.697755E-10  5.702193E-10
        21  15 -8.474193E+05 -1.347473E+02  2.836559E+03 -1.772376E-09  2.631052E-10 -2.435537E-10
        21  16 -8.474173E+05  2.333031E+03  9.210602E+03 -8.079538E+02 -6.424771E-10 -2.862263E-10
        21  17 -8.478909E+05 -1.459827E+02  4.906266E+03 -1.966574E+02  3.919471E-10  1.850731E-10
        21  18 -8.474193E+05 -1.347469E+02  2.836559E+03  4.146490E+02 -1.362110E-10  3.416938E-10
        21  19 -8.474172E+05  2.333045E+03  9.210698E+03  8.079538E+02 -7.173168E+03 -9.347410E-03
        21  20 -8.478909E+05 -1.459768E+02  4.906308E+03  1.966574E+02 -4.699640E+03 -1.490625E-03
        21  21 -8.474193E+05 -1.347456E+02  2.836568E+03 -4.146490E+02 -2.226083E+03  1.488729E-03
        21  22 -8.474172E+05  2.333044E+03  9.210698E+03  1.999965E-09 -7.173168E+03  1.254566E-10
        21  23 -8.478909E+05 -1.459768E+02  4.906308E+03 -9.165038E-09 -4.699640E+03  1.279735E-09
        21  24 -8.474193E+05 -1.347459E+02  2.836568E+03 -2.823666E-09 -2.226083E+03  3.427842E-10
        21  25 -8.474172E+05  2.333045E+03  9.210698E+03 -8.079538E+02 -7.173168E+03  9.347410E-03
        21  26 -8.478909E+05 -1.459768E+02  4.906308E+03 -1.966574E+02 -4.699640E+03  1.490627E-03
        21  27 -8.474193E+05 -1.347456E+02  2.836568E+03  4.146490E+02 -2.226083E+03 -1.488728E-03
        22   1 -8.476024E+05  1.423579E+02  2.174710E+03 -4.753667E+00  1.785668E+03 -1.369210E-05
        22   2 -8.476629E+05 -1.970837E+01  1.199405E+03 -2.494087E+01  1.189969E+03 -4.786712E-05
        22   3 -8.476028E+05 -1.020800E+01  6.552179E+02 -4.512808E+01  5.942705E+02 -4.325362E-05
        22   4 -8.476024E+05  1.423579E+02  2.174710E+03  2.259363E-09  1.785668E+03 -5.602587E-10
        22   5 -8.476629E+05 -1.970837E+01  1.199405E+03  2.666790E-09  1.189969E+03  6.110183E-10
        22   6 -8.476028E+05 -1.020800E+01  6.552179E+02  1.167028E-10  5.942705E+02  3.710672E-10
        22   7 -8.476024E+05  1.423579E+02  2.174710E+03  4.753667E+00  1.785668E+03  1.369086E-05
        22   8 -8.476629E+05 -1.970837E+01  1.199405E+03  2.494087E+01  1.189969E+03  4.786826E-05
        22   9 -8.476028E+05 -1.020800E+01  6.552179E+02  4.512808E+01  5.942705E+02  4.325437E-05
        22  10 -8.476024E+05  1.423571E+02  2.174704E+03 -4.753667E+00  1.615523E-09 -1.326117E-09
        22  11 -8.476629E+05 -1.970875E+01  1.199403E+03 -2.494087E+01  2.061627E-09 -2.687723E-10
        22  12 -8.476028E+05 -1.020809E+01  6.552173E+02 -4.512808E+01  2.497230E-10 -4.905176E-10
        22  13 -8.476024E+05  1.423571E+02  2.174704E+03 -8.394234E-09  2.127992E-09 -5.356231E-10
        22  14 -8.476629E+05 -1.970875E+01  1.199403E+03 -7.004796E-09  1.844781E-09 -1.152591E-10
        22  15 -8.476028E+05 -1.020810E+01  6.552173E+02 -1.834623E-09 -7.747935E-10 -2.944353E-10
        22  16 -8.476024E+05  1.423571E+02  2.174704E+03  4.753667E+00  5.204016E-10  2.452114E-10
        22  17 -8.476629E+05 -1.970875E+01  1.199403E+03  2.494087E+01  3.649433E-10  6.189560E-11
        22  18 -8.476028E+05 -1.020809E+01  6.552173E+02  4.512808E+01  1.939713E-10 -1.067839E-10
        22  19 -8.476024E+05  1.423579E+02  2.174710E+03 -4.753667E+00 -1.785668E+03  1.368931E-05
        22  20 -8.476629E+05 -1.970837E+01  1.199405E+03 -2.494087E+01 -1.189969E+03  4.786667E-05
        22  21 -8.476028E+05 -1.020800E+01  6.552179E+02 -4.512808E+01 -5.942705E+02  4.325268E-05
        22  22 -8.476024E+05  1.423579E+02  2.174710E+03  2.476924E-09 -1.785668E+03 -5.149725E-10
        22  23 -8.476629E+05 -1.970837E+01  1.199405E+03  2.704627E-09 -1.189969E+03 -8.738017E-10
        22  24 -8.476028E+05 -1.020800E+01  6.552179E+02  2.313555E-10 -5.942705E+02 -9.537621E-10
        22  25 -8.476024E+05  1.423579E+02  2.174710E+03  4.753667E+00 -1.785668E+03 -1.369039E-05
        22  26 -8.476629E+05 -1.970837E+01  1.199405E+03  2.494087E+01 -1.189969E+03 -4.786836E-05
        22  27 -8.476028E+05 -1.020800E+01  6.552179E+02  4.512808E+01 -5.942705E+02 -4.325470E-05
        23   1 -8.476263E+05  5.697783E+00  4.690454E+02 -1.723435E+01  4.932299E+02 -1.371060E-05
        23   2 -8.476337E+05 -2.474647E+00  1.861876E+02 -1.564184E+01  4.010869E+02 -1.011920E-05
        23   3 -8.476265E+05 -1.551958E-03 -3.396084E+01 -1.404935E+01  3.089453E+02 -6.999622E-06
        23   4 -8.476263E+05  5.697783E+00  4.690454E+02 -9.526497E-09  4.932299E+02 -4.891270E-10
        23   5 -8.476337E+05 -2.474648E+00  1.861876E+02 -3.952549E-09  4.010869E+02 -8.723146E-10
        23   6 -8.476265E+05 -1.552324E-03 -3.396084E+01  8.882187E-09  3.089453E+02  8.558036E-10
        23   7 -8.476263E+05  5.697783E+00  4.690454E+02  1.723435E+01  4.932299E+02  1.370960E-05
        23   8 -8.476337E+05 -2.474647E+00  1.861876E+02  1.564184E+01  4.010869E+02  1.011734E-05
        23   9 -8.476265E+05 -1.551957E-03 -3.396084E+01  1.404935E+01  3.089453E+02  7.001442E-06
        23  10 -8.476263E+05  5.697718E+00  4.690449E+02 -1.723435E+01 -3.455047E-10 -3.938431E-10
        23  11 -8.476337E+05 -2.474690E+00  1.861873E+02 -1.564184E+01 -3.543751E-10  4.606273E-10
        23  12 -8.476265E+05 -1.577618E-03 -3.396102E+01 -1.404935E+01 -6.110920E-10  6.289974E-10
        23  13 -8.476263E+05  5.697717E+00  4.690449E+02 -7.274489E-09 -1.221405E-09 -2.923462E-10
        23  14 -8.476337E+05 -2.474691E+00  1.861873E+02 -1.719459E-09 -2.538311E-09  2.347361E-10
        23  15 -8.476265E+05 -1.577981E-03 -3.396102E+01 -4.624463E-10  9.098035E-10  7.523761E-10
        23  16 -8.476263E+05  5.697718E+00  4.690449E+02  1.723435E+01  5.197311E-10 -2.492944E-10
        23  17 -8.476337E+05 -2.474690E+00  1.861873E+02  1.564184E+01  2.130898E-09  2.878398E-11
        23  18 -8.476265E+05 -1.577597E-03 -3.396102E+01  1.404935E+01 -5.605410E-10  8.349274E-10
        23  19 -8.476263E+05  5.697783E+00  4.690454E+02 -1.723435E+01 -4.932299E+02  1.370987E-05
        23  20 -8.476337E+05 -2.474647E+00  1.861876E+02 -1.564184E+01 -4.010869E+02  1.012026E-05
        23  21 -8.476265E+05 -1.551967E-03 -3.396084E+01 -1.404935E+01 -3.089453E+02  7.001072E-06
        23  22 -8.476263E+05  5.697783E+00  4.690454E+02 -5.036144E-09 -4.932299E+02 -9.717361E-11
        23  23 -8.476337E+05 -2.474648E+00  1.861876E+02 -1.024718E-08 -4.010869E+02  1.343713E-09
        23  24 -8.476265E+05 -1.552316E-03 -3.396084E+01  4.736566E-09 -3.089453E+02  6.595839E-10
        23  25 -8.476263E+05  5.697783E+00  4.690454E+02  1.723435E+01 -4.932299E+02 -1.370998E-05
        23  26 -8.476337E+05 -2.474647E+00  1.861876E+02  1.564184E+01 -4.010869E+02 -1.011751E-05
        23  27 -8.476265E+05 -1.551944E-03 -3.396084E+01  1.404935E+01 -3.089453E+02 -6.999791E-06
        24   1 -8.476366E+05  1.033533E+00 -1.434295E+02 -1.516377E+01  3.250036E+02 -7.947534E-06
        24   2 -8.476213E+05  5.207141E+00 -4.056210E+02 -2.013675E+01  5.256369E+02 -1.707162E-05
        24   3 -8.476367E+05 -8.725575E+00 -8.030913E+02 -2.510980E+01  7.262731E+02 -2.941231E-05
        24   4 -8.476366E+05  1.033533E+00 -1.434295E+02  6.771894E-09  3.250036E+02  1.018132E-09
        24   5 -8.476213E+05  5.207140E+00 -4.056210E+02  6.257529E-09  5.256369E+02 -4.270179E-10
        24   6 -8.476367E+05 -8.725576E+00 -8.030913E+02  9.194538E-10  7.262731E+02 -4.027970E-10
        24   7 -8.476366E+05  1.033533E+00 -1.434295E+02  1.516377E+01  3.250036E+02  7.949716E-06
        24   8 -8.476213E+05  5.207141E+00 -4.056210E+02  2.013675E+01  5.256369E+02  1.707058E-05
        24   9 -8.476367E+05 -8.725575E+00 -8.030913E+02  2.510980E+01  7.262731E+02  2.941142E-05
        24  10 -8.476366E+05  1.033505E+00 -1.434297E+02 -1.516377E+01  1.132404E-09  3.083510E-10
        24  11 -8.476213E+05  5.207067E+00 -4.056215E+02 -2.013675E+01  1.386150E-10 -8.713801E-11
        24  12 -8.476367E+05 -8.725717E+00 -8.030923E+02 -2.510980E+01 -2.736548E-09  3.201432E-10
        24  13 -8.476366E+05  1.033504E+00 -1.434297E+02  2.235296E-09  5.885680E-11  4.752585E-10
        24  14 -8.476213E+05  5.207066E+00 -4.056215E+02  4.027592E-09 -2.921287E-09 -3.861390E-10
        24  15 -8.476367E+05 -8.725718E+00 -8.030923E+02  5.819888E-09 -5.505992E-09 -4.896550E-10
        24  16 -8.476366E+05  1.033505E+00 -1.434297E+02  1.516377E+01 -2.501644E-09  6.707468E-10
        24  17 -8.476213E+05  5.207067E+00 -4.056215E+02  2.013675E+01 -1.322783E-09 -7.113848E-10
        24  18 -8.476367E+05 -8.725717E+00 -8.030923E+02  2.510980E+01  1.066069E-09 -1.264586E-09
        24  19 -8.476366E+05  1.033533E+00 -1.434295E+02 -1.516377E+01 -3.250036E+02  7.948483E-06
        24  20 -8.476213E+05  5.207141E+00 -4.056210E+02 -2.013675E+01 -5.256369E+02  1.707143E-05
        24  21 -8.476367E+05 -8.725575E+00 -8.030913E+02 -2.510980E+01 -7.262731E+02  2.941312E-05
        24  22 -8.476366E+05  1.033533E+00 -1.434295E+02  4.182510E-09 -3.250036E+02 -6.219115E-11
        24  23 -8.476213E+05  5.207140E+00 -4.056210E+02  6.109336E-09 -5.256369E+02 -3.875691E-10
        24  24 -8.476367E+05 -8.725576E+00 -8.030913E+02  7.501012E-09 -7.262731E+02 -5.779728E-10
        24  25 -8.476366E+05  1.033533E+00 -1.434295E+02  1.516377E+01 -3.250036E+02 -7.948461E-06
        24  26 -8.476213E+05  5.207141E+00 -4.056210E+02  2.013675E+01 -5.256369E+02 -1.707217E-05
        24  27 -8.476367E+05 -8.725575E+00 -8.030913E+02  2.510980E+01 -7.262731E+02 -2.941426E-05
        25   1 -8.476725E+05  1.653877E+01 -1.080577E+03 -6.923584E+01  8.956546E+02 -1.000146E-04
        25   2 -8.475770E+05  3.135309E+01 -1.916533E+03 -3.812068E+01  1.847451E+03 -1.135874E-04
        25   3 -8.476731E+05 -2.241173E+02 -3.440350E+03 -7.005498E+00  2.799246E+03 -3.162799E-05
        25   4 -8.476725E+05  1.653876E+01 -1.080577E+03 -1.332267E-09  8.956546E+02 -3.506121E-10
        25   5 -8.475770E+05  3.135308E+01 -1.916533E+03  7.957076E-09  1.847451E+03 -5.290363E-10
        25   6 -8.476731E+05 -2.241173E+02 -3.440350E+03 -1.862308E-09  2.799246E+03  1.812046E-10
        25   7 -8.476725E+05  1.653877E+01 -1.080577E+03  6.923584E+01  8.956546E+02  1.000139E-04
        25   8 -8.475770E+05  3.135309E+01 -1.916533E+03  3.812068E+01  1.847451E+03  1.135862E-04
        25   9 -8.476731E+05 -2.241173E+02 -3.440350E+03  7.005498E+00  2.799246E+03  3.162845E-05
        25  10 -8.476725E+05  1.653855E+01 -1.080578E+03 -6.923584E+01 -2.353373E-09  2.596125E-10
        25  11 -8.475770E+05  3.135217E+01 -1.916539E+03 -3.812068E+01  1.613757E-09 -4.415093E-10
        25  12 -8.476731E+05 -2.241194E+02 -3.440365E+03 -7.005498E+00  2.679429E-12  1.317582E-10
        25  13 -8.476725E+05  1.653854E+01 -1.080578E+03 -5.620827E-09 -1.958051E-09 -3.418771E-10
        25  14 -8.475770E+05  3.135217E+01 -1.916539E+03 -1.682991E-09 -6.914219E-10 -1.696582E-10
        25  15 -8.476731E+05 -2.241194E+02 -3.440365E+03 -4.200594E-09 -2.511377E-09  2.621431E-10
        25  16 -8.476725E+05  1.653855E+01 -1.080578E+03  6.923584E+01 -1.460990E-09 -9.601964E-10
        25  17 -8.475770E+05  3.135217E+01 -1.916539E+03  3.812068E+01 -1.576669E-09  4.036109E-11
        25  18 -8.476731E+05 -2.241194E+02 -3.440365E+03  7.005498E+00 -6.677144E-10  3.491414E-10
        25  19 -8.476725E+05  1.653877E+01 -1.080577E+03 -6.923584E+01 -8.956546E+02  1.000153E-04
        25  20 -8.475770E+05  3.135309E+01 -1.916533E+03 -3.812068E+01 -1.847451E+03  1.135869E-04
        25  21 -8.476731E+05 -2.241173E+02 -3.440350E+03 -7.005498E+00 -2.799246E+03  3.162845E-05
        25  22 -8.476725E+05  1.653876E+01 -1.080577E+03 -3.449746E-09 -8.956546E+02 -3.604062E-10
        25  23 -8.475770E+05  3.135308E+01 -1.916533E+03 -7.017681E-09 -1.847451E+03  1.969165E-10
        25  24 -8.476731E+05 -2.241173E+02 -3.440350E+03 -1.701503E-09 -2.799246E+03  3.469684E-10
        25  25 -8.476725E+05  1.653877E+01 -1.080577E+03  6.923584E+01 -8.956546E+02 -1.000161E-04
        25  26 -8.475770E+05  3.135309E+01 -1.916533E+03  3.812068E+01 -1.847451E+03 -1.135863E-04
        25  27 -8.476731E+05 -2.241173E+02 -3.440350E+03  7.005498E+00 -2.799246E+03 -3.162777E-05
        26   1 -8.479612E+05  2.123166E+02 -4.478612E+03 -6.524763E+02  3.495280E+03 -3.678242E-03
        26   2 -8.472183E+05  2.299535E+02 -7.732333E+03  3.099725E+02  7.393650E+03  3.696368E-03
        26   3 -8.479643E+05 -3.673775E+03 -1.450692E+04  1.272409E+03  1.129194E+04  2.317335E-02
        26   4 -8.479612E+05  2.123158E+02 -4.478612E+03  1.444519E-09  3.495280E+03  7.161261E-10
        26   5 -8.472183E+05  2.299533E+02 -7.732333E+03  3.452387E-09  7.393650E+03  7.786310E-10
        26   6 -8.479643E+05 -3.673778E+03 -1.450692E+04 -4.744434E-09  1.129194E+04 -6.738150E-12
        26   7 -8.479612E+05  2.123166E+02 -4.478612E+03  6.524763E+02  3.495280E+03  3.678243E-03
        26   8 -8.472183E+05  2.299535E+02 -7.732333E+03 -3.099725E+02  7.393650E+03 -3.696366E-03
        26   9 -8.479643E+05 -3.673775E+03 -1.450692E+04 -1.272409E+03  1.129194E+04 -2.317335E-02
        26  10 -8.479612E+05  2.123133E+02 -4.478635E+03 -6.524763E+02 -3.780944E-10  4.588954E-10
        26  11 -8.472183E+05  2.299388E+02 -7.732436E+03  3.099725E+02  2.413664E-10  3.253640E-10
        26  12 -8.479644E+05 -3.673809E+03 -1.450716E+04  1.272409E+03 -5.429178E-10 -3.239771E-11
        26  13 -8.479612E+05  2.123125E+02 -4.478635E+03  1.424547E-09  1.920761E-27  4.300645E-10
        26  14 -8.472183E+05  2.299386E+02 -7.732436E+03  7.716782E-09 -1.309198E-09  2.524979E-10
        26  15 -8.479644E+05 -3.673812E+03 -1.450716E+04 -3.212550E-09 -3.050711E-10 -9.937952E-11
        26  16 -8.479612E+05  2.123133E+02 -4.478635E+03  6.524763E+02  4.117268E-10  4.677319E-10
        26  17 -8.472183E+05  2.299388E+02 -7.732436E+03 -3.099725E+02 -7.780052E-10  2.627100E-10
        26  18 -8.479644E+05 -3.673809E+03 -1.450716E+04 -1.272409E+03 -3.971010E-11 -8.761362E-11
        26  19 -8.479612E+05  2.123166E+02 -4.478612E+03 -6.524763E+02 -3.495280E+03  3.678243E-03
        26  20 -8.472183E+05  2.299535E+02 -7.732333E+03  3.099725E+02 -7.393650E+03 -3.696367E-03
        26  21 -8.479643E+05 -3.673775E+03 -1.450692E+04  1.272409E+03 -1.129194E+04 -2.317335E-02
        26  22 -8.479612E+05  2.123158E+02 -4.478612E+03  5.727827E-09 -3.495280E+03  1.500668E-10
        26  23 -8.472183E+05  2.299533E+02 -7.732333E+03  2.290641E-09 -7.393650E+03 -2.208254E-10
        26  24 -8.479643E+05 -3.673778E+03 -1.450692E+04 -5.734294E-11 -1.129194E+04 -1.941534E-10
        26  25 -8.479612E+05  2.123166E+02 -4.478612E+03  6.524763E+02 -3.495280E+03 -3.678243E-03
        26  26 -8.472183E+05  2.299535E+02 -7.732333E+03 -3.099725E+02 -7.393650E+03  3.696367E-03
        26  27 -8.479643E+05 -3.673775E+03 -1.450692E+04 -1.272409E+03 -1.129194E+04  2.317334E-02
        27   1 -8.512753E+05  2.968136E+03 -1.810735E+04 -8.156028E+03  1.392261E+04 -1.831450E-01
        27   2 -8.430828E+05  2.429939E+03 -3.033687E+04  7.980125E+03  3.007815E+04  3.871245E-01
        27   3 -8.512987E+05 -5.529997E+04 -6.739198E+04  2.411625E+04  4.623399E+04  1.798306E+00
        27   4 -8.512754E+05  2.968011E+03 -1.810737E+04  9.626102E-09  1.392261E+04 -3.389238E-10
        27   5 -8.430828E+05  2.429819E+03 -3.033689E+04  4.810572E-09  3.007815E+04 -8.756759E-11
        27   6 -8.512993E+05 -5.530106E+04 -6.739213E+04  9.408957E-09  4.623399E+04 -3.400015E-11
        27   7 -8.512753E+05  2.968136E+03 -1.810735E+04  8.156028E+03  1.392261E+04  1.831450E-01
        27   8 -8.430828E+05  2.429939E+03 -3.033687E+04 -7.980125E+03  3.007815E+04 -3.871245E-01
        27   9 -8.512987E+05 -5.529997E+04 -6.739198E+04 -2.411625E+04  4.623399E+04 -1.798306E+00
        27  10 -8.512755E+05  2.968084E+03 -1.810772E+04 -8.156028E+03 -4.936779E-10 -1.017104E-10
        27  11 -8.430837E+05  2.429696E+03 -3.033857E+04  7.980125E+03  2.715572E-10  6.712062E-11
        27  12 -8.513010E+05 -5.530054E+04 -6.739600E+04  2.411625E+04  5.248254E-10 -1.052899E-11
        27  13 -8.512756E+05  2.967959E+03 -1.810774E+04  1.099367E-09 -3.363561E-10 -5.401421E-11
        27  14 -8.430838E+05  2.429576E+03 -3.033859E+04  4.824237E-09 -4.230528E-09  2.691511E-10
        27  15 -8.513016E+05 -5.530163E+04 -6.739615E+04  8.551070E-09  4.835946E-10  1.261074E-10
        27  16 -8.512755E+05  2.968084E+03 -1.810772E+04  8.156028E+03  2.372074E-10 -1.997855E-11
        27  17 -8.430837E+05  2.429696E+03 -3.033857E+04 -7.980125E+03 -4.025523E-11  4.880090E-10
        27  18 -8.513010E+05 -5.530054E+04 -6.739600E+04 -2.411625E+04  1.113124E-09  2.297790E-10
        27  19 -8.512753E+05  2.968136E+03 -1.810735E+04 -8.156028E+03 -1.392261E+04  1.831450E-01
        27  20 -8.430828E+05  2.429939E+03 -3.033687E+04  7.980125E+03 -3.007815E+04 -3.871245E-01
        27  21 -8.512987E+05 -5.529997E+04 -6.739198E+04  2.411625E+04 -4.623399E+04 -1.798306E+00
        27  22 -8.512754E+05  2.968011E+03 -1.810737E+04  9.813185E-09 -1.392261E+04  2.091025E-10
        27  23 -8.430828E+05  2.429819E+03 -3.033689E+04  4.838937E-09 -3.007815E+04  6.210656E-10
        27  24 -8.512993E+05 -5.530106E+04 -6.739213E+04  7.413513E-09 -4.623399E+04  3.076717E-10
        27  25 -8.512753E+05  2.968136E+03 -1.810735E+04  8.156028E+03 -1.392261E+04 -1.831450E-01
        27  26 -8.430828E+05  2.429939E+03 -3.033687E+04 -7.980125E+03 -3.007815E+04  3.871245E-01
        27  27 -8.512987E+05 -5.529997E+04 -6.739198E+04 -2.411625E+04 -4.623399E+04  1.798306E+00
        28   1  6.235288E+05  1.993384E+06  6.805631E+05 -2.184569E+05  1.641877E+04  2.748438E+05
        28   2  2.817440E+05  1.793094E+06  4.364513E+05 -9.877831E+04  5.052344E+04  1.602274E+05
        28   3  2.420375E+05  1.683696E+06  3.424404E+05 -5.137119E+04  4.940162E+04  4.563130E+04
        28   4  2.861897E+05  6.354215E+05  3.501308E+05 -9.253811E+04  1.648902E+04  2.335281E+05
        28   5 -1.286386E+04  5.924247E+05  1.628202E+05 -5.649635E+04  5.055066E+04  1.470349E+05
        28   6 -1.441509E+04  6.356003E+05  1.063063E+05 -9.270706E+04  4.938624E+04  6.052899E+04
        28   7 -5.122480E+04 -7.208250E+05  1.957968E+04  3.310554E+04  1.654267E+04  1.923019E+05
        28   8 -3.075648E+05 -6.069067E+05 -1.109033E+05 -1.429639E+04  5.057612E+04  1.338675E+05
        28   9 -2.709362E+05 -4.114724E+05 -1.298961E+05 -1.339722E+05  4.936886E+04  7.540176E+04
        28  10  6.235083E+05  1.993303E+06  6.804211E+05 -2.184606E+05 -5.663733E-10  8.699789E-09
        28  11  2.817344E+05  1.793066E+06  4.363984E+05 -9.878482E+04  2.314363E-09 -1.084683E-09
        28  12  2.420343E+05  1.683693E+06  3.424319E+05 -5.137300E+04 -1.024471E-09 -9.141110E-09
        28  13  2.861748E+05  6.353629E+05  3.500279E+05 -9.254121E+04 -5.628201E-10 -4.385185E-11
        28  14 -1.287240E+04  5.924009E+05  1.627748E+05 -5.650233E+04  3.371160E-09 -8.180954E-12
        28  15 -1.441869E+04  6.355957E+05  1.062949E+05 -9.270946E+04 -3.173379E-10 -4.632831E-10
        28  16 -5.123504E+04 -7.208648E+05  1.950959E+04  3.310298E+04  1.597939E-09 -8.679572E-09
        28  17 -3.075723E+05 -6.069266E+05 -1.109418E+05 -1.430184E+04 -2.278507E-09  1.304813E-09
        28  18 -2.709403E+05 -4.114791E+05 -1.299113E+05 -1.339752E+05 -1.157820E-09  9.325426E-09
        28  19  6.235288E+05  1.993384E+06  6.805631E+05 -2.184569E+05 -1.641877E+04 -2.748438E+05
        28  20  2.817440E+05  1.793094E+06  4.364513E+05 -9.877831E+04 -5.052344E+04 -1.602274E+05
        28  21  2.420375E+05  1.683696E+06  3.424404E+05 -5.137119E+04 -4.940162E+04 -4.563130E+04
        28  22  2.861897E+05  6.354215E+05  3.501308E+05 -9.253811E+04 -1.648902E+04 -2.335281E+05
        28  23 -1.286386E+04  5.924247E+05  1.628202E+05 -5.649635E+04 -5.055066E+04 -1.470349E+05
        28  24 -1.441509E+04  6.356003E+05  1.063063E+05 -9.270706E+04 -4.938624E+04 -6.052899E+04
        28  25 -5.122480E+04 -7.208250E+05  1.957968E+04  3.310554E+04 -1.654267E+04 -1.923019E+05
        28  26 -3.075648E+05 -6.069067E+05 -1.109033E+05 -1.429639E+04 -5.057612E+04 -1.338675E+05
        28  27 -2.709362E+05 -4.114724E+05 -1.298961E+05 -1.339722E+05 -4.936886E+04 -7.540176E+04
        29   1  2.412495E+05  1.529443E+06  2.979821E+05 -1.029762E+05  4.097358E+04  4.018249E+04
        29   2  1.832487E+05  1.369102E+06  2.407658E+05 -5.760365E+04  3.494383E+04  3.508730E+03
        29   3  1.616333E+05  1.222615E+06  2.164800E+05 -8.523267E+04  2.721374E+04 -3.316672E+04
        29   4  1.824968E+04  6.195215E+05  9.194462E+04 -9.281015E+04  4.097250E+04  4.429244E+04
        29   5 -2.023142E+03  6.127500E+05  6.992018E+04 -5.631027E+04  3.493749E+04  9.009840E+03
        29   6  1.387580E+04  6.195879E+05  7.989247E+04 -9.281528E+04  2.720215E+04 -2.628327E+04
        29   7 -2.048067E+05 -2.896327E+05 -1.141461E+05 -8.265877E+04  4.097154E+04  4.839640E+04
        29   8 -1.873342E+05 -1.430710E+05 -1.009620E+05 -5.501824E+04  3.493117E+04  1.450432E+04
        29   9 -1.339065E+05  1.689856E+04 -5.671825E+04 -1.003903E+05  2.719039E+04 -1.940643E+04
        29  10  2.412473E+05  1.529441E+06  2.979759E+05 -1.029775E+05 -1.655970E-09  1.713276E-08
        29  11  1.832474E+05  1.369101E+06  2.407635E+05 -5.760375E+04 -1.038231E-09 -1.311853E-09
        29  12  1.616322E+05  1.222613E+06  2.164765E+05 -8.523194E+04  5.729497E-10 -1.855395E-08
        29  13  1.824735E+04  6.195189E+05  9.193778E+04 -9.281161E+04 -3.668464E-09 -3.761666E-10
        29  14 -2.024475E+03  6.127496E+05  6.991773E+04 -5.631052E+04 -2.063071E-09 -1.101541E-10
        29  15  1.387482E+04  6.195869E+05  7.988978E+04 -9.281471E+04  1.004396E-09 -7.993321E-10
        29  16 -2.048092E+05 -2.896357E+05 -1.141537E+05 -8.266036E+04 -1.611910E-09 -1.700589E-08
        29  17 -1.873356E+05 -1.430715E+05 -1.009647E+05 -5.501864E+04 -2.483494E-09  1.919474E-09
        29  18 -1.339074E+05  1.689795E+04 -5.672035E+04 -1.003899E+05 -3.775719E-09  1.887989E-08
        29  19  2.412495E+05  1.529443E+06  2.979821E+05 -1.029762E+05 -4.097358E+04 -4.018249E+04
        29  20  1.832487E+05  1.369102E+06  2.407658E+05 -5.760365E+04 -3.494383E+04 -3.508730E+03
        29  21  1.616333E+05  1.222615E+06  2.164800E+05 -8.523267E+04 -2.721374E+04  3.316672E+04
        29  22  1.824968E+04  6.195215E+05  9.194462E+04 -9.281015E+04 -4.097250E+04 -4.429244E+04
        29  23 -2.023142E+03  6.127500E+05  6.992018E+04 -5.631027E+04 -3.493749E+04 -9.009840E+03
        29  24  1.387580E+04  6.195879E+05  7.989247E+04 -9.281528E+04 -2.720215E+04  2.628327E+04
        29  25 -2.048067E+05 -2.896327E+05 -1.141461E+05 -8.265877E+04 -4.097154E+04 -4.839640E+04
        29  26 -1.873342E+05 -1.430710E+05 -1.009620E+05 -5.501824E+04 -3.493117E+04 -1.450432E+04
        29  27 -1.339065E+05  1.689856E+04 -5.671825E+04 -1.003903E+05 -2.719039E+04  1.940643E+04
        30   1  1.039533E+05  1.097577E+06  1.934555E+05 -1.260905E+05  2.267405E+04 -4.585553E+04
        30   2  6.714594E+04  9.119648E+05  1.995929E+05 -2.466276E+04  1.449932E+04 -1.159955E+05
        30   3  2.604153E+05  7.926851E+05  3.088090E+05  4.254724E+03  3.969749E+03 -1.861261E+05
        30   4 -1.035524E+04  6.312734E+05  8.860570E+04 -9.284628E+04  2.266071E+04 -4.017375E+04
        30   5 -9.567804E+03  5.982661E+05  1.286177E+05 -5.634111E+04  1.448898E+04 -1.084293E+05
        30   6  2.210094E+05  6.312403E+05  2.704202E+05 -9.233598E+04  3.976383E+03 -1.766915E+05
        30   7 -1.246746E+05  1.651740E+05 -1.625726E+04 -5.962714E+04  2.264797E+04 -3.449618E+04
        30   8 -8.628446E+04  2.846611E+05  5.763701E+04 -8.800328E+04  1.447786E+04 -1.008670E+05
        30   9  1.816368E+05  4.698397E+05  2.320350E+05 -1.889015E+05  3.980087E+03 -1.672593E+05
        30  10  1.039522E+05  1.097575E+06  1.934506E+05 -1.260897E+05 -1.983823E-10  1.524303E-10
        30  11  6.714211E+04  9.119503E+05  1.995673E+05 -2.466140E+04  1.211528E-09 -1.291286E-09
        30  12  2.604060E+05  7.926480E+05  3.087439E+05  4.255318E+03  4.264446E-10 -1.872942E-09
        30  13 -1.035622E+04  6.312715E+05  8.860170E+04 -9.284555E+04 -7.861818E-10 -6.108056E-10
        30  14 -9.571181E+03  5.982534E+05  1.285953E+05 -5.633985E+04  4.838686E-09 -1.230273E-10
        30  15  2.210010E+05  6.312068E+05  2.703616E+05 -9.233542E+04  1.911447E-09 -9.487192E-10
        30  16 -1.246754E+05  1.651726E+05 -1.626046E+04 -5.962651E+04 -1.409316E-09  3.620654E-11
        30  17 -8.628741E+04  2.846501E+05  5.761751E+04 -8.800211E+04  1.287606E-09  2.117206E-09
        30  18  1.816293E+05  4.698097E+05  2.319825E+05 -1.889010E+05  1.916756E-09  2.385582E-09
        30  19  1.039533E+05  1.097577E+06  1.934555E+05 -1.260905E+05 -2.267405E+04  4.585553E+04
        30  20  6.714594E+04  9.119648E+05  1.995929E+05 -2.466276E+04 -1.449932E+04  1.159955E+05
        30  21  2.604153E+05  7.926851E+05  3.088090E+05  4.254724E+03 -3.969749E+03  1.861261E+05
        30  22 -1.035524E+04  6.312734E+05  8.860570E+04 -9.284628E+04 -2.266071E+04  4.017375E+04
        30  23 -9.567804E+03  5.982661E+05  1.286177E+05 -5.634111E+04 -1.448898E+04  1.084293E+05
        30  24  2.210094E+05  6.312403E+05  2.704202E+05 -9.233598E+04 -3.976383E+03  1.766915E+05
        30  25 -1.246746E+05  1.651740E+05 -1.625726E+04 -5.962714E+04 -2.264797E+04  3.449618E+04
        30  26 -8.628446E+04  2.846611E+05  5.763701E+04 -8.800328E+04 -1.447786E+04  1.008670E+05
        30  27  1.816368E+05  4.698397E+05  2.320350E+05 -1.889015E+05 -3.980087E+03  1.672593E+05
        31   1 -1.447444E+06 -3.354932E+05 -1.310050E+05 -5.475076E+05 -7.048928E+04 -2.511005E+04
        31   2 -1.426211E+06 -2.269462E+05 -6.447640E+04 -5.468695E+05 -4.484123E+04 -1.296318E+04
        31   3 -1.434257E+06 -2.098812E+05 -4.100897E+04 -5.315810E+05 -1.817658E+04 -3.526294E+03
        31   4 -1.377944E+06 -2.765869E+05 -1.058961E+05 -4.948898E+05 -6.784743E+04 -2.412410E+04
        31   5 -1.357822E+06 -1.908379E+05 -4.533006E+04 -5.172779E+05 -4.420406E+04 -1.272526E+04
        31   6 -1.366577E+06 -1.961684E+05 -2.623071E+04 -5.250171E+05 -1.954405E+04 -4.038557E+03
        31   7 -1.308438E+06 -2.176724E+05 -8.078769E+04 -4.422656E+05 -6.520531E+04 -2.313770E+04
        31   8 -1.289428E+06 -1.547279E+05 -2.618428E+04 -4.876831E+05 -4.356682E+04 -1.248729E+04
        31   9 -1.298892E+06 -1.824557E+05 -1.145264E+04 -5.184529E+05 -2.091168E+04 -4.550817E+03
        31  10 -1.447450E+06 -3.354952E+05 -1.310156E+05 -5.475090E+05  1.575027E-09  5.986472E-11
        31  11 -1.426213E+06 -2.269469E+05 -6.448050E+04 -5.468700E+05  3.235497E-09  1.130954E-09
        31  12 -1.434257E+06 -2.098813E+05 -4.100962E+04 -5.315811E+05  2.692331E-09  1.314041E-09
        31  13 -1.377949E+06 -2.765888E+05 -1.059059E+05 -4.948911E+05  9.812589E-10  5.064476E-10
        31  14 -1.357824E+06 -1.908386E+05 -4.533404E+04 -5.172784E+05  5.645880E-09  1.185390E-09
        31  15 -1.366577E+06 -1.961685E+05 -2.623146E+04 -5.250172E+05 -1.076436E-09  4.744151E-10
        31  16 -1.308442E+06 -2.176741E+05 -8.079671E+04 -4.422668E+05  6.907287E-10  9.629855E-10
        31  17 -1.289430E+06 -1.547286E+05 -2.618815E+04 -4.876836E+05  5.915791E-09  1.263152E-09
        31  18 -1.298892E+06 -1.824558E+05 -1.145351E+04 -5.184530E+05 -2.557216E-10 -5.223114E-10
        31  19 -1.447444E+06 -3.354932E+05 -1.310050E+05 -5.475076E+05  7.048928E+04  2.511005E+04
        31  20 -1.426211E+06 -2.269462E+05 -6.447640E+04 -5.468695E+05  4.484123E+04  1.296318E+04
        31  21 -1.434257E+06 -2.098812E+05 -4.100897E+04 -5.315810E+05  1.817658E+04  3.526294E+03
        31  22 -1.377944E+06 -2.765869E+05 -1.058961E+05 -4.948898E+05  6.784743E+04  2.412410E+04
        31  23 -1.357822E+06 -1.908379E+05 -4.533006E+04 -5.172779E+05  4.420406E+04  1.272526E+04
        31  24 -1.366577E+06 -1.961684E+05 -2.623071E+04 -5.250171E+05  1.954405E+04  4.038557E+03
        31  25 -1.308438E+06 -2.176724E+05 -8.078769E+04 -4.422656E+05  6.520531E+04  2.313770E+04
        31  26 -1.289428E+06 -1.547279E+05 -2.618428E+04 -4.876831E+05  4.356682E+04  1.248729E+04
        31  27 -1.298892E+06 -1.824557E+05 -1.145264E+04 -5.184529E+05  2.091168E+04  4.550817E+03
        32   1 -1.404941E+06 -2.227601E+05 -3.178536E+04 -5.330969E+05 -1.523371E+04 -3.398292E+03
        32   2 -1.390077E+06 -2.060503E+05 -1.709332E+04 -5.253740E+05 -9.435379E+03 -2.120801E+03
        32   3 -1.371966E+06 -2.020342E+05 -8.221455E+03 -5.234739E+05 -3.586866E+03 -9.762462E+02
        32   4 -1.363164E+06 -2.052002E+05 -2.097275E+04 -5.196522E+05 -1.576663E+04 -3.598138E+03
        32   5 -1.364385E+06 -1.959540E+05 -1.058174E+04 -5.178295E+05 -1.006639E+04 -2.357359E+03
        32   6 -1.362339E+06 -1.993819E+05 -5.932711E+03 -5.218298E+05 -4.316190E+03 -1.249620E+03
        32   7 -1.321386E+06 -1.876400E+05 -1.016019E+04 -5.062066E+05 -1.629959E+04 -3.798005E+03
        32   8 -1.338692E+06 -1.858577E+05 -4.070231E+03 -5.102848E+05 -1.069744E+04 -2.593929E+03
        32   9 -1.352711E+06 -1.967296E+05 -3.644000E+03 -5.201857E+05 -5.045518E+03 -1.522991E+03
        32  10 -1.404941E+06 -2.227601E+05 -3.178582E+04 -5.330969E+05  7.526105E-09  3.398475E-09
        32  11 -1.390077E+06 -2.060503E+05 -1.709350E+04 -5.253740E+05  2.256877E-09  1.443258E-09
        32  12 -1.371966E+06 -2.020342E+05 -8.221481E+03 -5.234739E+05 -4.057721E-09 -2.159798E-09
        32  13 -1.363165E+06 -2.052003E+05 -2.097324E+04 -5.196523E+05 -2.044093E-09  8.753925E-10
        32  14 -1.364385E+06 -1.959540E+05 -1.058194E+04 -5.178296E+05  3.191065E-10  1.769142E-09
        32  15 -1.362339E+06 -1.993819E+05 -5.932749E+03 -5.218298E+05  2.235922E-09  4.198036E-10
        32  16 -1.321386E+06 -1.876401E+05 -1.016072E+04 -5.062066E+05 -4.582361E-09 -2.087398E-09
        32  17 -1.338692E+06 -1.858577E+05 -4.070459E+03 -5.102848E+05  4.703302E-09  1.715495E-09
        32  18 -1.352711E+06 -1.967296E+05 -3.644052E+03 -5.201857E+05  9.221793E-09  3.237074E-09
        32  19 -1.404941E+06 -2.227601E+05 -3.178536E+04 -5.330969E+05  1.523371E+04  3.398292E+03
        32  20 -1.390077E+06 -2.060503E+05 -1.709332E+04 -5.253740E+05  9.435379E+03  2.120801E+03
        32  21 -1.371966E+06 -2.020342E+05 -8.221455E+03 -5.234739E+05  3.586866E+03  9.762462E+02
        32  22 -1.363164E+06 -2.052002E+05 -2.097275E+04 -5.196522E+05  1.576663E+04  3.598138E+03
        32  23 -1.364385E+06 -1.959540E+05 -1.058174E+04 -5.178295E+05  1.006639E+04  2.357359E+03
        32  24 -1.362339E+06 -1.993819E+05 -5.932711E+03 -5.218298E+05  4.316190E+03  1.249620E+03
        32  25 -1.321386E+06 -1.876400E+05 -1.016019E+04 -5.062066E+05  1.629959E+04  3.798005E+03
        32  26 -1.338692E+06 -1.858577E+05 -4.070231E+03 -5.102848E+05  1.069744E+04  2.593929E+03
        32  27 -1.352711E+06 -1.967296E+05 -3.644000E+03 -5.201857E+05  5.045518E+03  1.522991E+03
        33   1 -1.354782E+06 -1.973489E+05 -2.695314E+03 -5.194862E+05 -2.578314E+03 -1.240378E+03
        33   2 -1.340660E+06 -1.873034E+05  3.607661E+03 -5.112169E+05 -9.894375E+02 -1.708876E+03
        33   3 -1.320539E+06 -1.840775E+05  8.861617E+03 -5.101445E+05  6.010259E+02 -2.181368E+03
        33   4 -1.362003E+06 -2.000114E+05 -4.547857E+03 -5.214117E+05 -3.267344E+03 -1.498652E+03
        33   5 -1.364975E+06 -1.964025E+05 -2.464148E+03 -5.178877E+05 -1.681464E+03 -1.968293E+03
        33   6 -1.361946E+06 -1.996125E+05 -1.426993E+03 -5.215607E+05 -9.402779E+01 -2.441941E+03
        33   7 -1.369225E+06 -2.026738E+05 -6.400413E+03 -5.233373E+05 -3.956368E+03 -1.756925E+03
        33   8 -1.389289E+06 -2.055016E+05 -8.536068E+03 -5.245583E+05 -2.373467E+03 -2.227702E+03
        33   9 -1.403352E+06 -2.151476E+05 -1.171589E+04 -5.329763E+05 -7.890405E+02 -2.702498E+03
        33  10 -1.354782E+06 -1.973489E+05 -2.695329E+03 -5.194862E+05  3.464357E-10 -8.795484E-10
        33  11 -1.340660E+06 -1.873034E+05  3.607654E+03 -5.112169E+05  2.348460E-10 -5.471815E-10
        33  12 -1.320539E+06 -1.840775E+05  8.861608E+03 -5.101445E+05  1.308816E-09  1.798718E-10
        33  13 -1.362003E+06 -2.000114E+05 -4.547881E+03 -5.214117E+05  1.998481E-09 -4.028721E-10
        33  14 -1.364975E+06 -1.964025E+05 -2.464161E+03 -5.178877E+05  1.382884E-09  7.246880E-11
        33  15 -1.361946E+06 -1.996125E+05 -1.427004E+03 -5.215607E+05  2.898540E-09  3.985733E-10
        33  16 -1.369225E+06 -2.026739E+05 -6.400449E+03 -5.233373E+05  1.241307E-09  5.725723E-10
        33  17 -1.389289E+06 -2.055016E+05 -8.536088E+03 -5.245583E+05  5.102357E-09  1.729154E-10
        33  18 -1.403352E+06 -2.151477E+05 -1.171591E+04 -5.329764E+05  2.986097E-09  6.195957E-10
        33  19 -1.354782E+06 -1.973489E+05 -2.695314E+03 -5.194862E+05  2.578314E+03  1.240378E+03
        33  20 -1.340660E+06 -1.873034E+05  3.607661E+03 -5.112169E+05  9.894375E+02  1.708876E+03
        33  21 -1.320539E+06 -1.840775E+05  8.861617E+03 -5.101445E+05 -6.010259E+02  2.181368E+03
        33  22 -1.362003E+06 -2.000114E+05 -4.547857E+03 -5.214117E+05  3.267344E+03  1.498652E+03
        33  23 -1.364975E+06 -1.964025E+05 -2.464148E+03 -5.178877E+05  1.681464E+03  1.968293E+03
        33  24 -1.361946E+06 -1.996125E+05 -1.426993E+03 -5.215607E+05  9.402779E+01  2.441941E+03
        33  25 -1.369225E+06 -2.026738E+05 -6.400413E+03 -5.233373E+05  3.956368E+03  1.756925E+03
        33  26 -1.389289E+06 -2.055016E+05 -8.536068E+03 -5.245583E+05  2.373467E+03  2.227702E+03
        33  27 -1.403352E+06 -2.151476E+05 -1.171589E+04 -5.329763E+05  7.890405E+02  2.702498E+03
        34   1 -1.304466E+06 -1.781634E+05  1.327517E+04 -5.057902E+05  1.011377E+03 -2.649354E+03
        34   2 -1.290602E+06 -1.686799E+05  1.780360E+04 -4.975608E+05  1.741267E+03 -3.437793E+03
        34   3 -1.270531E+06 -1.655113E+05  2.203856E+04 -4.965250E+05  2.469676E+03 -4.221955E+03
        34   4 -1.361920E+06 -1.996363E+05 -1.128084E+03 -5.215094E+05  3.205552E+02 -2.908360E+03
        34   5 -1.365022E+06 -1.964690E+05 -7.700484E+02 -5.179163E+05  1.053553E+03 -3.695675E+03
        34   6 -1.361918E+06 -1.996171E+05 -7.078805E+02 -5.215168E+05  1.785060E+03 -4.478718E+03
        34   7 -1.419369E+06 -2.211087E+05 -1.553140E+04 -5.372270E+05 -3.701881E+02 -3.167336E+03
        34   8 -1.439436E+06 -2.242576E+05 -1.934398E+04 -5.382695E+05  3.659332E+02 -3.953521E+03
        34   9 -1.453296E+06 -2.337223E+05 -2.345493E+04 -5.465053E+05  1.100555E+03 -4.735438E+03
        34  10 -1.304466E+06 -1.781634E+05  1.327515E+04 -5.057902E+05  3.052024E-09  5.584474E-10
        34  11 -1.290602E+06 -1.686799E+05  1.780357E+04 -4.975608E+05 -6.064678E-10 -1.529453E-10
        34  12 -1.270531E+06 -1.655114E+05  2.203852E+04 -4.965249E+05 -1.238949E-10 -6.663953E-10
        34  13 -1.361920E+06 -1.996363E+05 -1.128100E+03 -5.215094E+05  5.057261E-09  3.289366E-10
        34  14 -1.365022E+06 -1.964690E+05 -7.700762E+02 -5.179163E+05  3.526215E-09  2.271145E-10
        34  15 -1.361918E+06 -1.996171E+05 -7.079242E+02 -5.215168E+05 -1.565724E-09 -2.694215E-10
        34  16 -1.419369E+06 -2.211088E+05 -1.553141E+04 -5.372270E+05  2.825192E-09  3.183901E-10
        34  17 -1.439436E+06 -2.242576E+05 -1.934401E+04 -5.382695E+05 -1.341997E-09  3.875196E-10
        34  18 -1.453296E+06 -2.337223E+05 -2.345497E+04 -5.465053E+05  8.420131E-10  4.290681E-10
        34  19 -1.304466E+06 -1.781634E+05  1.327517E+04 -5.057902E+05 -1.011377E+03  2.649354E+03
        34  20 -1.290602E+06 -1.686799E+05  1.780360E+04 -4.975608E+05 -1.741267E+03  3.437793E+03
        34  21 -1.270531E+06 -1.655113E+05  2.203856E+04 -4.965250E+05 -2.469676E+03  4.221955E+03
        34  22 -1.361920E+06 -1.996363E+05 -1.128084E+03 -5.215094E+05 -3.205552E+02  2.908360E+03
        34  23 -1.365022E+06 -1.964690E+05 -7.700484E+02 -5.179163E+05 -1.053553E+03  3.695675E+03
        34  24 -1.361918E+06 -1.996171E+05 -7.078805E+02 -5.215168E+05 -1.785060E+03  4.478718E+03
        34  25 -1.419369E+06 -2.211087E+05 -1.553140E+04 -5.372270E+05  3.701881E+02  3.167336E+03
        34  26 -1.439436E+06 -2.242576E+05 -1.934398E+04 -5.382695E+05 -3.659332E+02  3.953521E+03
        34  27 -1.453296E+06 -2.337223E+05 -2.345493E+04 -5.465053E+05 -1.100555E+03  4.735438E+03
        35   1 -1.254773E+06 -1.595780E+05  2.603993E+04 -4.921976E+05  2.788926E+03 -4.714427E+03
        35   2 -1.241189E+06 -1.503067E+05  2.978302E+04 -4.841246E+05  3.677141E+03 -5.424149E+03
        35   3 -1.221551E+06 -1.472457E+05  3.310560E+04 -4.830930E+05  4.562097E+03 -6.124546E+03
        35   4 -1.361952E+06 -1.995871E+05 -7.674479E+02 -5.214859E+05  2.108693E+03 -4.969585E+03
        35   5 -1.364982E+06 -1.965040E+05 -1.107241E+03 -5.179569E+05  3.003658E+03 -5.676853E+03
        35   6 -1.361960E+06 -1.996326E+05 -1.873034E+03 -5.214696E+05  3.895346E+03 -6.374798E+03
        35   7 -1.469119E+06 -2.395957E+05 -2.757585E+04 -5.507699E+05  1.428586E+03 -5.224696E+03
        35   8 -1.488760E+06 -2.427003E+05 -3.199878E+04 -5.517832E+05  2.330320E+03 -5.929501E+03
        35   9 -1.502348E+06 -2.520183E+05 -3.685322E+04 -5.598383E+05  3.228760E+03 -6.624988E+03
        35  10 -1.254773E+06 -1.595780E+05  2.603987E+04 -4.921975E+05  2.430919E-10 -2.374955E-10
        35  11 -1.241189E+06 -1.503068E+05  2.978294E+04 -4.841246E+05 -3.811534E-10  9.197435E-12
        35  12 -1.221551E+06 -1.472457E+05  3.310550E+04 -4.830930E+05 -1.753635E-11 -1.004303E-09
        35  13 -1.361952E+06 -1.995871E+05 -7.675026E+02 -5.214859E+05 -1.288629E-10  3.555847E-11
        35  14 -1.364982E+06 -1.965040E+05 -1.107318E+03 -5.179569E+05  7.397729E-10  1.214926E-10
        35  15 -1.361960E+06 -1.996327E+05 -1.873139E+03 -5.214696E+05 -4.258225E-09 -1.151240E-09
        35  16 -1.469119E+06 -2.395957E+05 -2.757591E+04 -5.507699E+05 -1.395651E-10  4.224582E-10
        35  17 -1.488760E+06 -2.427003E+05 -3.199886E+04 -5.517832E+05 -6.482940E-10 -9.862263E-11
        35  18 -1.502348E+06 -2.520183E+05 -3.685332E+04 -5.598383E+05 -2.997666E-09 -1.561564E-09
        35  19 -1.254773E+06 -1.595780E+05  2.603993E+04 -4.921976E+05 -2.788926E+03  4.714427E+03
        35  20 -1.241189E+06 -1.503067E+05  2.978302E+04 -4.841246E+05 -3.677141E+03  5.424149E+03
        35  21 -1.221551E+06 -1.472457E+05  3.310560E+04 -4.830930E+05 -4.562097E+03  6.124546E+03
        35  22 -1.361952E+06 -1.995871E+05 -7.674479E+02 -5.214859E+05 -2.108693E+03  4.969585E+03
        35  23 -1.364982E+06 -1.965040E+05 -1.107241E+03 -5.179569E+05 -3.003658E+03  5.676853E+03
        35  24 -1.361960E+06 -1.996326E+05 -1.873034E+03 -5.214696E+05 -3.895346E+03  6.374798E+03
        35  25 -1.469119E+06 -2.395957E+05 -2.757585E+04 -5.507699E+05 -1.428586E+03  5.224696E+03
        35  26 -1.488760E+06 -2.427003E+05 -3.199878E+04 -5.517832E+05 -2.330320E+03  5.929501E+03
        35  27 -1.502348E+06 -2.520183E+05 -3.685322E+04 -5.598383E+05 -3.228760E+03  6.624988E+03
        36   1 -1.206217E+06 -1.414714E+05  3.648291E+04 -4.790194E+05  5.113008E+03 -6.516112E+03
        36   2 -1.192959E+06 -1.323316E+05  3.852464E+04 -4.710228E+05  7.611168E+03 -6.587481E+03
        36   3 -1.174327E+06 -1.300025E+05  3.873208E+04 -4.697169E+05  1.009855E+04 -6.629230E+03
        36   4 -1.362079E+06 -1.995217E+05 -2.446921E+03 -5.214841E+05  4.447220E+03 -6.766057E+03
        36   5 -1.364815E+06 -1.964762E+05 -4.360970E+03 -5.180037E+05  6.966650E+03 -6.829546E+03
        36   6 -1.362184E+06 -2.002458E+05 -8.126566E+03 -5.212139E+05  9.475254E+03 -6.863430E+03
        36   7 -1.517915E+06 -2.575702E+05 -4.137848E+04 -5.639390E+05  3.781618E+03 -7.015933E+03
        36   8 -1.536643E+06 -2.606188E+05 -4.724889E+04 -5.649727E+05  6.322328E+03 -7.071537E+03
        36   9 -1.550007E+06 -2.704870E+05 -5.498819E+04 -5.726970E+05  8.852157E+03 -7.097553E+03
        36  10 -1.206218E+06 -1.414714E+05  3.648278E+04 -4.790194E+05 -2.987145E-09 -1.682400E-09
        36  11 -1.192959E+06 -1.323316E+05  3.852445E+04 -4.710228E+05 -1.730969E-09 -8.606975E-10
        36  12 -1.174328E+06 -1.300026E+05  3.873181E+04 -4.697168E+05 -1.368319E-09  3.258967E-10
        36  13 -1.362079E+06 -1.995218E+05 -2.447044E+03 -5.214841E+05 -2.534992E-09 -1.588822E-09
        36  14 -1.364815E+06 -1.964762E+05 -4.361149E+03 -5.180036E+05  1.437031E-09 -9.443918E-10
        36  15 -1.362184E+06 -2.002459E+05 -8.126823E+03 -5.212139E+05  2.248134E-10  3.554403E-10
        36  16 -1.517915E+06 -2.575703E+05 -4.137859E+04 -5.639390E+05 -2.923827E-09 -1.481115E-09
        36  17 -1.536643E+06 -2.606189E+05 -4.724906E+04 -5.649727E+05 -3.024806E-09 -6.203047E-10
        36  18 -1.550007E+06 -2.704871E+05 -5.498843E+04 -5.726970E+05 -1.295871E-09  4.580613E-10
        36  19 -1.206217E+06 -1.414714E+05  3.648291E+04 -4.790194E+05 -5.113008E+03  6.516112E+03
        36  20 -1.192959E+06 -1.323316E+05  3.852464E+04 -4.710228E+05 -7.611168E+03  6.587481E+03
        36  21 -1.174327E+06 -1.300025E+05  3.873208E+04 -4.697169E+05 -1.009855E+04  6.629230E+03
        36  22 -1.362079E+06 -1.995217E+05 -2.446921E+03 -5.214841E+05 -4.447220E+03  6.766057E+03
        36  23 -1.364815E+06 -1.964762E+05 -4.360970E+03 -5.180037E+05 -6.966650E+03  6.829546E+03
        36  24 -1.362184E+06 -2.002458E+05 -8.126566E+03 -5.212139E+05 -9.475254E+03  6.863430E+03
        36  25 -1.517915E+06 -2.575702E+05 -4.137848E+04 -5.639390E+05 -3.781618E+03  7.015933E+03
        36  26 -1.536643E+06 -2.606188E+05 -4.724889E+04 -5.649727E+05 -6.322328E+03  7.071537E+03
        36  27 -1.550007E+06 -2.704870E+05 -5.498819E+04 -5.726970E+05 -8.852157E+03  7.097553E+03
        37   1 -1.158893E+06 -1.245694E+05  4.002375E+04 -4.678410E+05  1.190658E+04 -6.572415E+03
        37   2 -1.146285E+06 -1.136005E+05  3.547756E+04 -4.575158E+05  2.161451E+04 -3.828680E+03
        37   3 -1.133406E+06 -1.196374E+05  2.086496E+04 -4.511163E+05  3.117858E+04 -7.008349E+02
        37   4 -1.362842E+06 -1.990604E+05 -1.061940E+04 -5.219001E+05  1.117803E+04 -6.846168E+03
        37   5 -1.363692E+06 -1.957485E+05 -1.897551E+04 -5.179801E+05  2.116692E+04 -3.997120E+03
        37   6 -1.364330E+06 -2.095010E+05 -3.762377E+04 -5.179861E+05  3.101168E+04 -7.640877E+02
        37   7 -1.566749E+06 -2.735491E+05 -6.126576E+04 -5.759432E+05  1.044975E+04 -7.119827E+03
        37   8 -1.581053E+06 -2.778928E+05 -7.343218E+04 -5.784250E+05  2.071950E+04 -4.165495E+03
        37   9 -1.595200E+06 -2.993594E+05 -9.611651E+04 -5.848325E+05  3.084484E+04 -8.273131E+02
        37  10 -1.158893E+06 -1.245695E+05  4.002340E+04 -4.678410E+05 -1.010505E-09  9.370769E-10
        37  11 -1.146286E+06 -1.136007E+05  3.547666E+04 -4.575157E+05 -6.086170E-10  4.939646E-10
        37  12 -1.133408E+06 -1.196376E+05  2.086313E+04 -4.511163E+05 -4.473423E-09  4.061222E-10
        37  13 -1.362842E+06 -1.990605E+05 -1.061972E+04 -5.219000E+05  2.066316E-09  8.447777E-10
        37  14 -1.363693E+06 -1.957486E+05 -1.897639E+04 -5.179800E+05  4.075604E-10  2.891542E-10
        37  15 -1.364331E+06 -2.095012E+05 -3.762559E+04 -5.179860E+05 -8.196038E-10 -4.965630E-11
        37  16 -1.566749E+06 -2.735492E+05 -6.126606E+04 -5.759431E+05  4.188490E-10  6.449295E-10
        37  17 -1.581053E+06 -2.778929E+05 -7.343302E+04 -5.784249E+05 -1.916802E-10  3.754500E-10
        37  18 -1.595201E+06 -2.993597E+05 -9.611831E+04 -5.848325E+05  8.963795E-10 -9.523428E-10
        37  19 -1.158893E+06 -1.245694E+05  4.002375E+04 -4.678410E+05 -1.190658E+04  6.572415E+03
        37  20 -1.146285E+06 -1.136005E+05  3.547756E+04 -4.575158E+05 -2.161451E+04  3.828680E+03
        37  21 -1.133406E+06 -1.196374E+05  2.086496E+04 -4.511163E+05 -3.117858E+04  7.008349E+02
        37  22 -1.362842E+06 -1.990604E+05 -1.061940E+04 -5.219001E+05 -1.117803E+04  6.846168E+03
        37  23 -1.363692E+06 -1.957485E+05 -1.897551E+04 -5.179801E+05 -2.116692E+04  3.997120E+03
        37  24 -1.364330E+06 -2.095010E+05 -3.762377E+04 -5.179861E+05 -3.101168E+04  7.640877E+02
        37  25 -1.566749E+06 -2.735491E+05 -6.126576E+04 -5.759432E+05 -1.044975E+04  7.119827E+03
        37  26 -1.581053E+06 -2.778928E+05 -7.343218E+04 -5.784250E+05 -2.071950E+04  4.165495E+03
        37  27 -1.595200E+06 -2.993594E+05 -9.611651E+04 -5.848325E+05 -3.084484E+04  8.273131E+02
        38   1 -1.107696E+06 -1.158128E+05  1.461116E+04 -4.769746E+05  4.022289E+04  1.155634E+03
        38   2 -1.103865E+06 -7.488326E+04 -1.552935E+04 -4.295847E+05  7.834577E+04  1.598299E+04
        38   3 -1.156676E+06 -1.901930E+05 -1.155773E+05 -3.490096E+05  1.136070E+05  3.842932E+04
        38   4 -1.370498E+06 -1.932484E+05 -4.705911E+04 -5.275570E+05  3.771779E+04  2.155412E+02
        38   5 -1.351847E+06 -1.866483E+05 -8.133149E+04 -5.170753E+05  8.146179E+04  1.715081E+04
        38   6 -1.390982E+06 -3.374493E+05 -1.899944E+05 -4.734014E+05  1.223440E+05  4.170064E+04
        38   7 -1.633234E+06 -2.706852E+05 -1.087341E+05 -5.781230E+05  3.521384E+04 -7.243315E+02
        38   8 -1.599768E+06 -2.984010E+05 -1.471390E+05 -6.045314E+05  8.457646E+04  1.831789E+04
        38   9 -1.625226E+06 -4.846648E+05 -2.644158E+05 -5.977408E+05  1.310774E+05  4.496851E+04
        38  10 -1.107698E+06 -1.158133E+05  1.460811E+04 -4.769746E+05 -4.930122E-09  6.995785E-10
        38  11 -1.103872E+06 -7.488518E+04 -1.554139E+04 -4.295857E+05  5.121300E-09  2.641625E-09
        38  12 -1.156690E+06 -1.901981E+05 -1.156044E+05 -3.490131E+05  5.291822E-09  2.006081E-09
        38  13 -1.370500E+06 -1.932488E+05 -4.706179E+04 -5.275570E+05 -4.745023E-10  9.184955E-10
        38  14 -1.351854E+06 -1.866504E+05 -8.134455E+04 -5.170764E+05  7.981974E-09  1.714014E-09
        38  15 -1.390999E+06 -3.374552E+05 -1.900259E+05 -4.734055E+05  3.085052E-09  7.039457E-10
        38  16 -1.633235E+06 -2.706855E+05 -1.087365E+05 -5.781230E+05  5.736888E-09  1.052565E-09
        38  17 -1.599776E+06 -2.984033E+05 -1.471531E+05 -6.045327E+05  7.956269E-09  2.986381E-09
        38  18 -1.625245E+06 -4.846716E+05 -2.644520E+05 -5.977455E+05  1.313370E-09  2.564542E-10
        38  19 -1.107696E+06 -1.158128E+05  1.461116E+04 -4.769746E+05 -4.022289E+04 -1.155634E+03
        38  20 -1.103865E+06 -7.488326E+04 -1.552935E+04 -4.295847E+05 -7.834577E+04 -1.598299E+04
        38  21 -1.156676E+06 -1.901930E+05 -1.155773E+05 -3.490096E+05 -1.136070E+05 -3.842932E+04
        38  22 -1.370498E+06 -1.932484E+05 -4.705911E+04 -5.275570E+05 -3.771779E+04 -2.155412E+02
        38  23 -1.351847E+06 -1.866483E+05 -8.133149E+04 -5.170753E+05 -8.146179E+04 -1.715081E+04
        38  24 -1.390982E+06 -3.374493E+05 -1.899944E+05 -4.734014E+05 -1.223440E+05 -4.170064E+04
        38  25 -1.633234E+06 -2.706852E+05 -1.087341E+05 -5.781230E+05 -3.521384E+04  7.243315E+02
        38  26 -1.599768E+06 -2.984010E+05 -1.471390E+05 -6.045314E+05 -8.457646E+04 -1.831789E+04
        38  27 -1.625226E+06 -4.846648E+05 -2.644158E+05 -5.977408E+05 -1.310774E+05 -4.496851E+04
        39   1 -1.602715E+05  6.202635E+04  7.559672E+04  2.706743E+04  5.188296E+04  2.262602E+00
        39   2 -1.694736E+05 -2.720368E+03  3.403734E+04  8.957260E+03  3.375585E+04  4.871512E-01
        39   3 -1.602782E+05 -3.328449E+03  2.031772E+04 -9.152575E+03  1.562868E+04 -2.304616E-01
        39   4 -1.602723E+05  6.202497E+04  7.559652E+04  5.291332E-09  5.188296E+04  1.550692E-10
        39   5 -1.694737E+05 -2.720519E+03  3.403732E+04  9.276411E-11  3.375585E+04  3.194024E-10
        39   6 -1.602783E+05 -3.328606E+03  2.031770E+04  8.084237E-09  1.562868E+04 -6.538578E-10
        39   7 -1.602715E+05  6.202635E+04  7.559672E+04 -2.706743E+04  5.188296E+04 -2.262602E+00
        39   8 -1.694736E+05 -2.720368E+03  3.403734E+04 -8.957260E+03  3.375585E+04 -4.871512E-01
        39   9 -1.602782E+05 -3.328449E+03  2.031772E+04  9.152575E+03  1.562868E+04  2.304616E-01
        39  10 -1.602744E+05  6.202563E+04  7.559166E+04  2.706743E+04 -1.487795E-10 -5.184042E-11
        39  11 -1.694748E+05 -2.720674E+03  3.403520E+04  8.957260E+03  1.299892E-09 -2.620849E-10
        39  12 -1.602784E+05 -3.328514E+03  2.031727E+04 -9.152575E+03  2.023129E-09 -5.643471E-10
        39  13 -1.602752E+05  6.202425E+04  7.559146E+04 -3.292532E-09 -8.412820E-12  7.882131E-11
        39  14 -1.694749E+05 -2.720825E+03  3.403518E+04  3.295014E-09  6.337403E-10  8.039087E-11
        39  15 -1.602785E+05 -3.328672E+03  2.031724E+04  7.727740E-09 -1.484740E-09 -2.999342E-10
        39  16 -1.602744E+05  6.202563E+04  7.559166E+04 -2.706743E+04 -1.460331E-09  2.045291E-10
        39  17 -1.694748E+05 -2.720674E+03  3.403520E+04 -8.957260E+03  1.463887E-09  4.122167E-10
        39  18 -1.602784E+05 -3.328514E+03  2.031727E+04  9.152575E+03 -1.019022E-09 -4.681475E-11
        39  19 -1.602715E+05  6.202635E+04  7.559672E+04  2.706743E+04 -5.188296E+04 -2.262602E+00
        39  20 -1.694736E+05 -2.720368E+03  3.403734E+04  8.957260E+03 -3.375585E+04 -4.871512E-01
        39  21 -1.602782E+05 -3.328449E+03  2.031772E+04 -9.152575E+03 -1.562868E+04  2.304616E-01
        39  22 -1.602723E+05  6.202497E+04  7.559652E+04  3.201622E-09 -5.188296E+04 -9.196402E-13
        39  23 -1.694737E+05 -2.720519E+03  3.403732E+04  4.340880E-09 -3.375585E+04 -1.549883E-10
        39  24 -1.602783E+05 -3.328606E+03  2.031770E+04  1.714392E-09 -1.562868E+04  5.039083E-11
        39  25 -1.602715E+05  6.202635E+04  7.559672E+04 -2.706743E+04 -5.188296E+04  2.262602E+00
        39  26 -1.694736E+05 -2.720368E+03  3.403734E+04 -8.957260E+03 -3.375585E+04  4.871512E-01
        39  27 -1.602782E+05 -3.328449E+03  2.031772E+04  9.152575E+03 -1.562868E+04 -2.304616E-01
        40   1 -1.639946E+05  4.119052E+03  1.627886E+04  1.427451E+03  1.267494E+04  2.915028E-02
        40   2 -1.648296E+05 -2.575793E+02  8.681317E+03  3.477830E+02  8.297352E+03  4.649257E-03
        40   3 -1.639953E+05 -2.381449E+02  5.033381E+03 -7.318718E+02  3.919851E+03 -4.622103E-03
        40   4 -1.639946E+05  4.119048E+03  1.627886E+04  7.155999E-09  1.267494E+04 -1.471947E-10
        40   5 -1.648296E+05 -2.575796E+02  8.681317E+03  3.804752E-09  8.297352E+03  1.229281E-09
        40   6 -1.639953E+05 -2.381460E+02  5.033380E+03  2.337680E-09  3.919851E+03 -1.530563E-10
        40   7 -1.639946E+05  4.119052E+03  1.627886E+04 -1.427451E+03  1.267494E+04 -2.915028E-02
        40   8 -1.648296E+05 -2.575793E+02  8.681317E+03 -3.477830E+02  8.297352E+03 -4.649255E-03
        40   9 -1.639953E+05 -2.381449E+02  5.033381E+03  7.318718E+02  3.919851E+03  4.622103E-03
        40  10 -1.639947E+05  4.119009E+03  1.627856E+04  1.427451E+03 -6.966623E-10 -5.846055E-10
        40  11 -1.648296E+05 -2.575978E+02  8.681188E+03  3.477830E+02  6.113432E-10 -2.213378E-10
        40  12 -1.639953E+05 -2.381491E+02  5.033352E+03 -7.318718E+02 -2.538488E-09  2.121781E-10
        40  13 -1.639947E+05  4.119005E+03  1.627856E+04  5.148109E-09 -2.158037E-09 -1.844558E-10
        40  14 -1.648296E+05 -2.575981E+02  8.681187E+03  4.912401E-09 -1.615365E-09  3.753401E-10
        40  15 -1.639953E+05 -2.381501E+02  5.033352E+03  1.113706E-08 -9.130939E-10  2.108653E-10
        40  16 -1.639947E+05  4.119009E+03  1.627856E+04 -1.427451E+03  1.379002E-10  2.143513E-10
        40  17 -1.648296E+05 -2.575978E+02  8.681188E+03 -3.477830E+02 -1.673208E-09  9.625859E-10
        40  18 -1.639953E+05 -2.381491E+02  5.033352E+03  7.318718E+02 -1.699187E-09  2.087988E-10
        40  19 -1.639946E+05  4.119052E+03  1.627886E+04  1.427451E+03 -1.267494E+04 -2.915028E-02
        40  20 -1.648296E+05 -2.575793E+02  8.681317E+03  3.477830E+02 -8.297352E+03 -4.649258E-03
        40  21 -1.639953E+05 -2.381449E+02  5.033381E+03 -7.318718E+02 -3.919851E+03  4.622104E-03
        40  22 -1.639946E+05  4.119048E+03  1.627886E+04  9.899701E-10 -1.267494E+04 -2.227704E-10
        40  23 -1.648296E+05 -2.575796E+02  8.681317E+03  2.789497E-09 -8.297352E+03 -4.644126E-10
        40  24 -1.639953E+05 -2.381460E+02  5.033380E+03  8.629251E-09 -3.919851E+03  5.790641E-10
        40  25 -1.639946E+05  4.119052E+03  1.627886E+04 -1.427451E+03 -1.267494E+04  2.915028E-02
        40  26 -1.648296E+05 -2.575793E+02  8.681317E+03 -3.477830E+02 -8.297352E+03  4.649257E-03
        40  27 -1.639953E+05 -2.381449E+02  5.033381E+03  7.318718E+02 -3.919851E+03 -4.622103E-03
        41   1 -1.643182E+05  2.511374E+02  3.870361E+03 -7.766593E+00  3.136676E+03 -3.925034E-05
        41   2 -1.644263E+05 -3.533190E+01  2.167094E+03 -4.223344E+01  2.060253E+03 -1.401888E-04
        41   3 -1.643184E+05 -1.880742E+01  1.240533E+03 -7.670084E+01  9.838171E+02 -1.215761E-04
        41   4 -1.643182E+05  2.511374E+02  3.870361E+03 -8.575099E-09  3.136676E+03 -9.331251E-10
        41   5 -1.644263E+05 -3.533190E+01  2.167094E+03 -2.556362E-09  2.060253E+03 -5.104898E-10
        41   6 -1.643184E+05 -1.880743E+01  1.240533E+03  5.076157E-09  9.838171E+02 -1.415453E-10
        41   7 -1.643182E+05  2.511374E+02  3.870361E+03  7.766593E+00  3.136676E+03  3.924848E-05
        41   8 -1.644263E+05 -3.533190E+01  2.167094E+03  4.223344E+01  2.060253E+03  1.401877E-04
        41   9 -1.643184E+05 -1.880742E+01  1.240533E+03  7.670084E+01  9.838171E+02  1.215759E-04
        41  10 -1.643182E+05  2.511347E+02  3.870342E+03 -7.766593E+00 -2.075298E-09  2.110362E-12
        41  11 -1.644263E+05 -3.533304E+01  2.167086E+03 -4.223344E+01 -6.193995E-10 -3.749721E-10
        41  12 -1.643184E+05 -1.880767E+01  1.240531E+03 -7.670084E+01 -9.276216E-11  4.404455E-10
        41  13 -1.643182E+05  2.511347E+02  3.870342E+03  4.215877E-09 -4.303418E-09 -2.663948E-10
        41  14 -1.644263E+05 -3.533304E+01  2.167086E+03  2.844317E-09 -1.643044E-09 -6.431467E-10
        41  15 -1.643184E+05 -1.880769E+01  1.240531E+03 -3.910704E-09 -6.482423E-12 -5.366393E-11
        41  16 -1.643182E+05  2.511347E+02  3.870342E+03  7.766593E+00 -1.195726E-09 -5.372608E-10
        41  17 -1.644263E+05 -3.533304E+01  2.167086E+03  4.223344E+01  6.605206E-11 -9.196591E-10
        41  18 -1.643184E+05 -1.880768E+01  1.240531E+03  7.670084E+01  1.694960E-10 -5.607795E-10
        41  19 -1.643182E+05  2.511374E+02  3.870361E+03 -7.766593E+00 -3.136676E+03  3.925035E-05
        41  20 -1.644263E+05 -3.533190E+01  2.167094E+03 -4.223344E+01 -2.060253E+03  1.401880E-04
        41  21 -1.643184E+05 -1.880742E+01  1.240533E+03 -7.670084E+01 -9.838171E+02  1.215770E-04
        41  22 -1.643182E+05  2.511374E+02  3.870361E+03  4.083638E-09 -3.136676E+03  4.024048E-10
        41  23 -1.644263E+05 -3.533190E+01  2.167094E+03  6.092375E-09 -2.060253E+03 -7.752822E-10
        41  24 -1.643184E+05 -1.880743E+01  1.240533E+03  5.409512E-09 -9.838171E+02  3.438137E-11
        41  25 -1.643182E+05  2.511374E+02  3.870361E+03  7.766593E+00 -3.136676E+03 -3.924957E-05
        41  26 -1.644263E+05 -3.533190E+01  2.167094E+03  4.223344E+01 -2.060253E+03 -1.401896E-04
        41  27 -1.643184E+05 -1.880742E+01  1.240533E+03  7.670084E+01 -9.838171E+02 -1.215770E-04
        42   1 -1.643578E+05  9.623835E+00  9.377766E+02 -2.709365E+01  7.877790E+02 -3.438762E-05
        42   2 -1.643771E+05 -6.575065E+00  5.183572E+02 -2.011951E+01  5.313598E+02 -1.722427E-05
        42   3 -1.643578E+05 -1.734448E+00  2.711713E+02 -1.314537E+01  2.749408E+02 -5.822957E-06
        42   4 -1.643578E+05  9.623833E+00  9.377766E+02  5.087903E-09  7.877790E+02  2.090082E-11
        42   5 -1.643771E+05 -6.575065E+00  5.183572E+02 -1.624821E-10  5.313598E+02  2.910392E-10
        42   6 -1.643578E+05 -1.734449E+00  2.711713E+02 -8.369521E-10  2.749408E+02  5.972310E-10
        42   7 -1.643578E+05  9.623835E+00  9.377766E+02  2.709365E+01  7.877790E+02  3.438767E-05
        42   8 -1.643771E+05 -6.575065E+00  5.183572E+02  2.011951E+01  5.313598E+02  1.722482E-05
        42   9 -1.643578E+05 -1.734448E+00  2.711713E+02  1.314537E+01  2.749408E+02  5.824173E-06
        42  10 -1.643578E+05  9.623668E+00  9.377754E+02 -2.709365E+01  1.108504E-09  4.169998E-10
        42  11 -1.643771E+05 -6.575140E+00  5.183567E+02 -2.011951E+01 -1.013580E-09 -5.955818E-10
        42  12 -1.643578E+05 -1.734469E+00  2.711712E+02 -1.314537E+01 -1.740805E-09 -6.074934E-10
        42  13 -1.643578E+05  9.623667E+00  9.377754E+02 -1.488530E-09  1.140555E-09  5.902206E-11
        42  14 -1.643771E+05 -6.575141E+00  5.183567E+02  4.138687E-09  5.108322E-10 -3.264996E-10
        42  15 -1.643578E+05 -1.734469E+00  2.711712E+02 -4.771756E-09 -2.185632E-09 -2.784105E-11
        42  16 -1.643578E+05  9.623668E+00  9.377754E+02  2.709365E+01 -2.237353E-09 -3.136958E-10
        42  17 -1.643771E+05 -6.575140E+00  5.183567E+02  2.011951E+01 -2.157684E-09 -6.926457E-11
        42  18 -1.643578E+05 -1.734469E+00  2.711712E+02  1.314537E+01 -2.043778E-09  5.432015E-10
        42  19 -1.643578E+05  9.623835E+00  9.377766E+02 -2.709365E+01 -7.877790E+02  3.438848E-05
        42  20 -1.643771E+05 -6.575065E+00  5.183572E+02 -2.011951E+01 -5.313598E+02  1.722316E-05
        42  21 -1.643578E+05 -1.734448E+00  2.711713E+02 -1.314537E+01 -2.749408E+02  5.821811E-06
        42  22 -1.643578E+05  9.623833E+00  9.377766E+02  2.704851E-09 -7.877790E+02  9.798458E-11
        42  23 -1.643771E+05 -6.575065E+00  5.183572E+02 -8.791111E-09 -5.313598E+02 -9.424982E-10
        42  24 -1.643578E+05 -1.734449E+00  2.711713E+02 -2.788457E-09 -2.749408E+02 -6.545103E-10
        42  25 -1.643578E+05  9.623835E+00  9.377766E+02  2.709365E+01 -7.877790E+02 -3.438830E-05
        42  26 -1.643771E+05 -6.575065E+00  5.183572E+02  2.011951E+01 -5.313598E+02 -1.722497E-05
        42  27 -1.643578E+05 -1.734448E+00  2.711713E+02  1.314537E+01 -2.749408E+02 -5.823111E-06
        43   1 -1.643659E+05 -9.084376E-01  1.833980E+02 -1.029308E+01  2.337695E+02 -3.876613E-06
        43   2 -1.643670E+05 -4.197716E-01  4.389140E+01 -8.593959E+00  2.121349E+02 -2.936920E-06
        43   3 -1.643659E+05 -1.896581E+00 -8.201998E+01 -6.894865E+00  1.905007E+02 -2.115684E-06
        43   4 -1.643659E+05 -9.084378E-01  1.833980E+02  3.203044E-09  2.337695E+02  3.398808E-10
        43   5 -1.643670E+05 -4.197718E-01  4.389140E+01 -8.641802E-10  2.121349E+02 -2.807115E-11
        43   6 -1.643659E+05 -1.896581E+00 -8.201998E+01  9.916929E-10  1.905007E+02  8.509456E-10
        43   7 -1.643659E+05 -9.084376E-01  1.833980E+02  1.029308E+01  2.337695E+02  3.877281E-06
        43   8 -1.643670E+05 -4.197716E-01  4.389140E+01  8.593959E+00  2.121349E+02  2.936819E-06
        43   9 -1.643659E+05 -1.896581E+00 -8.201998E+01  6.894865E+00  1.905007E+02  2.117407E-06
        43  10 -1.643659E+05 -9.084523E-01  1.833979E+02 -1.029308E+01  1.258783E-09 -8.183406E-11
        43  11 -1.643670E+05 -4.197837E-01  4.389131E+01 -8.593959E+00  2.157967E-09  3.696667E-10
        43  12 -1.643659E+05 -1.896590E+00 -8.202005E+01 -6.894865E+00 -1.292699E-10 -2.303087E-10
        43  13 -1.643659E+05 -9.084525E-01  1.833979E+02 -5.447538E-09 -3.188126E-09  1.110743E-10
        43  14 -1.643670E+05 -4.197839E-01  4.389131E+01 -3.016540E-09 -3.173404E-09  5.730629E-12
        43  15 -1.643659E+05 -1.896591E+00 -8.202005E+01  3.184145E-09 -2.114613E-09  1.391461E-10
        43  16 -1.643659E+05 -9.084523E-01  1.833979E+02  1.029308E+01 -3.952092E-09  2.974711E-10
        43  17 -1.643670E+05 -4.197837E-01  4.389131E+01  8.593959E+00 -2.666714E-09 -3.670858E-10
        43  18 -1.643659E+05 -1.896590E+00 -8.202005E+01  6.894865E+00 -6.524367E-10  5.030665E-10
        43  19 -1.643659E+05 -9.084376E-01  1.833980E+02 -1.029308E+01 -2.337695E+02  3.876469E-06
        43  20 -1.643670E+05 -4.197716E-01  4.389140E+01 -8.593959E+00 -2.121349E+02  2.937675E-06
        43  21 -1.643659E+05 -1.896581E+00 -8.201998E+01 -6.894865E+00 -1.905007E+02  2.115277E-06
        43  22 -1.643659E+05 -9.084378E-01  1.833980E+02 -9.790115E-09 -2.337695E+02 -1.163506E-10
        43  23 -1.643670E+05 -4.197718E-01  4.389140E+01 -1.809042E-08 -2.121349E+02  4.542485E-11
        43  24 -1.643659E+05 -1.896581E+00 -8.201998E+01 -1.084295E-09 -1.905007E+02 -5.756449E-10
        43  25 -1.643659E+05 -9.084376E-01  1.833980E+02  1.029308E+01 -2.337695E+02 -3.876684E-06
        43  26 -1.643670E+05 -4.197716E-01  4.389140E+01  8.593959E+00 -2.121349E+02 -2.937595E-06
        43  27 -1.643659E+05 -1.896581E+00 -8.201998E+01  6.894865E+00 -1.905007E+02 -2.116430E-06
        44   1 -1.643740E+05  2.611317E+00 -1.509195E+02 -1.496540E+01  2.113693E+02 -5.096213E-06
        44   2 -1.643570E+05  5.546982E+00 -3.303821E+02 -8.410174E+00  3.755646E+02 -5.089241E-06
        44   3 -1.643740E+05 -4.210478E+01 -6.294092E+02 -1.854850E+00  5.397622E+02 -1.613038E-06
        44   4 -1.643740E+05  2.611317E+00 -1.509195E+02 -8.096510E-10  2.113693E+02  8.296913E-10
        44   5 -1.643570E+05  5.546982E+00 -3.303821E+02 -9.503620E-10  3.755646E+02 -3.023490E-10
        44   6 -1.643740E+05 -4.210478E+01 -6.294092E+02  1.602105E-09  5.397622E+02 -4.643543E-10
        44   7 -1.643740E+05  2.611317E+00 -1.509195E+02  1.496540E+01  2.113693E+02  5.097868E-06
        44   8 -1.643570E+05  5.546982E+00 -3.303821E+02  8.410174E+00  3.755646E+02  5.088621E-06
        44   9 -1.643740E+05 -4.210478E+01 -6.294092E+02  1.854850E+00  5.397622E+02  1.612134E-06
        44  10 -1.643740E+05  2.611305E+00 -1.509196E+02 -1.496540E+01 -1.903351E-09 -2.509168E-10
        44  11 -1.643570E+05  5.546944E+00 -3.303824E+02 -8.410174E+00 -1.827212E-09  5.154025E-10
        44  12 -1.643740E+05 -4.210486E+01 -6.294098E+02 -1.854850E+00 -1.148988E-09  5.928555E-10
        44  13 -1.643740E+05  2.611305E+00 -1.509196E+02  5.720909E-09 -2.200563E-09  3.731681E-10
        44  14 -1.643570E+05  5.546944E+00 -3.303824E+02  8.723494E-09 -1.165969E-09  5.294965E-10
        44  15 -1.643740E+05 -4.210486E+01 -6.294098E+02  1.011072E-08 -6.402813E-10  1.421183E-10
        44  16 -1.643740E+05  2.611305E+00 -1.509196E+02  1.496540E+01 -1.772843E-10  9.992879E-10
        44  17 -1.643570E+05  5.546944E+00 -3.303824E+02  8.410174E+00 -4.315554E-10  5.649213E-10
        44  18 -1.643740E+05 -4.210486E+01 -6.294098E+02  1.854850E+00 -8.204016E-10 -3.097176E-10
        44  19 -1.643740E+05  2.611317E+00 -1.509195E+02 -1.496540E+01 -2.113693E+02  5.095701E-06
        44  20 -1.643570E+05  5.546982E+00 -3.303821E+02 -8.410174E+00 -3.755646E+02  5.090283E-06
        44  21 -1.643740E+05 -4.210478E+01 -6.294092E+02 -1.854850E+00 -5.397622E+02  1.614245E-06
        44  22 -1.643740E+05  2.611317E+00 -1.509195E+02 -7.132653E-09 -2.113693E+02 -8.228246E-11
        44  23 -1.643570E+05  5.546982E+00 -3.303821E+02  1.166769E-09 -3.755646E+02  1.375052E-09
        44  24 -1.643740E+05 -4.210478E+01 -6.294092E+02 -2.263289E-10 -5.397622E+02  7.518833E-10
        44  25 -1.643740E+05  2.611317E+00 -1.509195E+02  1.496540E+01 -2.113693E+02 -5.095896E-06
        44  26 -1.643570E+05  5.546982E+00 -3.303821E+02  8.410174E+00 -3.755646E+02 -5.087514E-06
        44  27 -1.643740E+05 -4.210478E+01 -6.294092E+02  1.854850E+00 -5.397622E+02 -1.612758E-06
        45   1 -1.644284E+05  3.972264E+01 -8.286651E+02 -1.230725E+02  6.679142E+02 -1.324395E-04
        45   2 -1.642890E+05  4.304006E+01 -1.445487E+03  5.788718E+01  1.396904E+03  1.302811E-04
        45   3 -1.644285E+05 -6.896433E+02 -2.721005E+03  2.388469E+02  2.125893E+03  8.180816E-04
        45   4 -1.644284E+05  3.972261E+01 -8.286651E+02  5.730093E-10  6.679142E+02 -4.371278E-10
        45   5 -1.642890E+05  4.304005E+01 -1.445487E+03  5.931774E-09  1.396904E+03 -2.627512E-10
        45   6 -1.644285E+05 -6.896434E+02 -2.721005E+03  7.912544E-10  2.125893E+03  7.123482E-10
        45   7 -1.644284E+05  3.972264E+01 -8.286651E+02  1.230725E+02  6.679142E+02  1.324387E-04
        45   8 -1.642890E+05  4.304006E+01 -1.445487E+03 -5.788718E+01  1.396904E+03 -1.302817E-04
        45   9 -1.644285E+05 -6.896433E+02 -2.721005E+03 -2.388469E+02  2.125893E+03 -8.180801E-04
        45  10 -1.644284E+05  3.972252E+01 -8.286659E+02 -1.230725E+02 -1.858047E-09 -5.965736E-11
        45  11 -1.642890E+05  4.303954E+01 -1.445491E+03  5.788718E+01 -1.491653E-09 -7.363797E-10
        45  12 -1.644285E+05 -6.896445E+02 -2.721013E+03  2.388469E+02 -2.783012E-09  4.825918E-10
        45  13 -1.644284E+05  3.972249E+01 -8.286659E+02  4.818447E-09 -1.074799E-09 -2.220129E-10
        45  14 -1.642890E+05  4.303953E+01 -1.445491E+03  1.350743E-08 -5.680883E-10 -3.159145E-10
        45  15 -1.644285E+05 -6.896446E+02 -2.721013E+03  1.196688E-08 -2.531205E-09  2.362238E-10
        45  16 -1.644284E+05  3.972252E+01 -8.286659E+02  1.230725E+02 -2.503579E-09 -3.910099E-10
        45  17 -1.642890E+05  4.303954E+01 -1.445491E+03 -5.788718E+01  4.126480E-10  1.000713E-10
        45  18 -1.644285E+05 -6.896445E+02 -2.721013E+03 -2.388469E+02  8.148052E-10 -4.057445E-12
        45  19 -1.644284E+05  3.972264E+01 -8.286651E+02 -1.230725E+02 -6.679142E+02  1.324395E-04
        45  20 -1.642890E+05  4.304006E+01 -1.445487E+03  5.788718E+01 -1.396904E+03 -1.302826E-04
        45  21 -1.644285E+05 -6.896433E+02 -2.721005E+03  2.388469E+02 -2.125893E+03 -8.180806E-04
        45  22 -1.644284E+05  3.972261E+01 -8.286651E+02  4.754826E-09 -6.679142E+02 -1.095242E-11
        45  23 -1.642890E+05  4.304005E+01 -1.445487E+03  9.236360E-09 -1.396904E+03 -3.689870E-10
        45  24 -1.644285E+05 -6.896434E+02 -2.721005E+03  1.183278E-08 -2.125893E+03 -2.390436E-10
        45  25 -1.644284E+05  3.972264E+01 -8.286651E+02  1.230725E+02 -6.679142E+02 -1.324395E-04
        45  26 -1.642890E+05  4.304006E+01 -1.445487E+03 -5.788718E+01 -1.396904E+03  1.302819E-04
        45  27 -1.644285E+05 -6.896433E+02 -2.721005E+03 -2.388469E+02 -2.125893E+03  8.180801E-04
        46   1 -1.650508E+05  5.572806E+02 -3.398340E+03 -1.532543E+03  2.619680E+03 -6.468393E-03
        46   2 -1.635113E+05  4.554805E+02 -5.696666E+03  1.499620E+03  5.653950E+03  1.366054E-02
        46   3 -1.650517E+05 -1.038442E+04 -1.265533E+04  4.531729E+03  8.688177E+03  6.343479E-02
        46   4 -1.650508E+05  5.572762E+02 -3.398341E+03 -3.589054E-09  2.619680E+03  6.915197E-10
        46   5 -1.635113E+05  4.554763E+02 -5.696666E+03  2.242693E-09  5.653950E+03 -2.469748E-10
        46   6 -1.650517E+05 -1.038446E+04 -1.265533E+04  5.369015E-10  8.688177E+03 -2.071518E-10
        46   7 -1.650508E+05  5.572806E+02 -3.398340E+03  1.532543E+03  2.619680E+03  6.468395E-03
        46   8 -1.635113E+05  4.554805E+02 -5.696666E+03 -1.499620E+03  5.653950E+03 -1.366054E-02
        46   9 -1.650517E+05 -1.038442E+04 -1.265533E+04 -4.531729E+03  8.688177E+03 -6.343479E-02
        46  10 -1.650508E+05  5.572788E+02 -3.398353E+03 -1.532543E+03 -1.140918E-09  9.520569E-10
        46  11 -1.635113E+05  4.554720E+02 -5.696726E+03  1.499620E+03 -1.018150E-10  3.361640E-10
        46  12 -1.650517E+05 -1.038444E+04 -1.265547E+04  4.531729E+03 -7.610762E-10  4.276839E-11
        46  13 -1.650508E+05  5.572744E+02 -3.398354E+03 -1.526341E-09 -9.615692E-10  3.350137E-10
        46  14 -1.635113E+05  4.554677E+02 -5.696726E+03  2.210357E-09  5.405522E-10 -5.591776E-11
        46  15 -1.650518E+05 -1.038448E+04 -1.265547E+04  2.356024E-11 -3.776113E-10 -6.846719E-11
        46  16 -1.650508E+05  5.572788E+02 -3.398353E+03  1.532543E+03 -9.793172E-10 -2.838554E-10
        46  17 -1.635113E+05  4.554720E+02 -5.696726E+03 -1.499620E+03 -1.469494E-09 -4.515514E-10
        46  18 -1.650517E+05 -1.038444E+04 -1.265547E+04 -4.531729E+03  3.605951E-10 -1.822541E-10
        46  19 -1.650508E+05  5.572806E+02 -3.398340E+03 -1.532543E+03 -2.619680E+03  6.468395E-03
        46  20 -1.635113E+05  4.554805E+02 -5.696666E+03  1.499620E+03 -5.653950E+03 -1.366054E-02
        46  21 -1.650517E+05 -1.038442E+04 -1.265533E+04  4.531729E+03 -8.688177E+03 -6.343479E-02
        46  22 -1.650508E+05  5.572762E+02 -3.398341E+03  4.845307E-09 -2.619680E+03 -2.511797E-11
        46  23 -1.635113E+05  4.554763E+02 -5.696666E+03  1.101508E-09 -5.653950E+03  1.310393E-10
        46  24 -1.650517E+05 -1.038446E+04 -1.265533E+04  2.474318E-09 -8.688177E+03  7.133271E-11
        46  25 -1.650508E+05  5.572806E+02 -3.398340E+03  1.532543E+03 -2.619680E+03 -6.468395E-03
        46  26 -1.635113E+05  4.554805E+02 -5.696666E+03 -1.499620E+03 -5.653950E+03  1.366054E-02
        46  27 -1.650517E+05 -1.038442E+04 -1.265533E+04 -4.531729E+03 -8.688177E+03  6.343479E-02
        47   1  2.193037E+05  3.900433E+05  2.195673E+05 -8.514047E+04  9.521482E+03  3.759836E+04
        47   2  1.656067E+05  2.563139E+05  1.657327E+05 -4.950720E+04  2.841649E+04  1.478234E+04
        47   3  1.340103E+05  1.312505E+05  1.323051E+05 -7.460747E+04  2.585630E+04 -8.033795E+03
        47   4  1.816383E+04 -4.184565E+05  2.236062E+04 -7.698866E+04  9.527842E+03  1.412016E+04
        47   5 -8.761532E+02 -4.212884E+05  1.097764E+04 -4.662368E+04  2.842165E+04  8.314415E+03
        47   6 -7.536737E+02 -4.184121E+05  8.201260E+03 -7.699505E+04  2.585020E+04  2.503814E+03
        47   7 -1.830237E+05 -1.226359E+06 -1.748916E+05 -6.884741E+04  9.533592E+03 -9.327558E+03
        47   8 -1.673908E+05 -1.098465E+06 -1.438073E+05 -4.374328E+04  2.842675E+04  1.853482E+03
        47   9 -1.355383E+05 -9.677934E+05 -1.159216E+05 -7.938043E+04  2.584402E+04  1.303218E+04
        47  10  2.193032E+05  3.900417E+05  2.195645E+05 -8.514076E+04 -1.527404E-10 -5.052303E-10
        47  11  1.656057E+05  2.563135E+05  1.657307E+05 -4.950754E+04  2.505671E-10 -6.956390E-10
        47  12  1.340095E+05  1.312502E+05  1.323038E+05 -7.460731E+04  5.986796E-10  1.752785E-10
        47  13  1.816368E+04 -4.184568E+05  2.236007E+04 -7.698876E+04  9.312994E-10  2.095719E-11
        47  14 -8.770390E+02 -4.212886E+05  1.097599E+04 -4.662387E+04 -3.281521E-11 -1.958793E-10
        47  15 -7.543928E+02 -4.184122E+05  8.199993E+03 -7.699510E+04  2.931363E-09 -2.179186E-10
        47  16 -1.830239E+05 -1.226359E+06 -1.748919E+05 -6.884734E+04  3.852693E-10  5.835630E-10
        47  17 -1.673917E+05 -1.098465E+06 -1.438088E+05 -4.374332E+04 -8.043486E-10  6.962675E-10
        47  18 -1.355391E+05 -9.677938E+05 -1.159231E+05 -7.938070E+04 -4.702713E-11 -3.811525E-10
        47  19  2.193037E+05  3.900433E+05  2.195673E+05 -8.514047E+04 -9.521482E+03 -3.759836E+04
        47  20  1.656067E+05  2.563139E+05  1.657327E+05 -4.950720E+04 -2.841649E+04 -1.478234E+04
        47  21  1.340103E+05  1.312505E+05  1.323051E+05 -7.460747E+04 -2.585630E+04  8.033795E+03
        47  22  1.816383E+04 -4.184565E+05  2.236062E+04 -7.698866E+04 -9.527842E+03 -1.412016E+04
        47  23 -8.761532E+02 -4.212884E+05  1.097764E+04 -4.662368E+04 -2.842165E+04 -8.314415E+03
        47  24 -7.536737E+02 -4.184121E+05  8.201260E+03 -7.699505E+04 -2.585020E+04 -2.503814E+03
        47  25 -1.830237E+05 -1.226359E+06 -1.748916E+05 -6.884741E+04 -9.533592E+03  9.327558E+03
        47  26 -1.673908E+05 -1.098465E+06 -1.438073E+05 -4.374328E+04 -2.842675E+04 -1.853482E+03
        47  27 -1.355383E+05 -9.677934E+05 -1.159216E+05 -7.938043E+04 -2.584402E+04 -1.303218E+04
        48   1  1.075492E+05  1.431136E+04  1.061096E+05 -7.836014E+04  1.959583E+04 -2.928328E+03
        48   2  7.439707E+04 -1.160610E+05  7.666263E+04 -4.643150E+04  1.407581E+04 -7.468902E+03
        48   3  4.550227E+04 -2.448461E+05  5.121608E+04 -7.624219E+04  7.858334E+03 -1.201187E+04
        48   4  1.136268E+03 -4.193249E+05  7.780990E+03 -7.721641E+04  1.959333E+04  1.169712E+03
        48   5 -1.714089E+02 -4.200516E+05  7.897710E+03 -4.634516E+04  1.407193E+04 -2.816943E+03
        48   6  2.684201E+03 -4.193024E+05  1.163201E+04 -7.721488E+04  7.852890E+03 -6.806917E+03
        48   7 -1.052896E+05 -8.527865E+05 -9.055971E+04 -7.607344E+04  1.959083E+04  5.264917E+03
        48   8 -7.474623E+04 -7.239563E+05 -6.087307E+04 -4.625883E+04  1.406806E+04  1.832759E+03
        48   9 -4.013595E+04 -5.937304E+05 -2.795393E+04 -7.818729E+04  7.847428E+03 -1.603412E+03
        48  10  1.075488E+05  1.431125E+04  1.061089E+05 -7.836010E+04  5.702956E-10  1.742225E-09
        48  11  7.439684E+04 -1.160611E+05  7.666215E+04 -4.643142E+04 -1.673418E-09  2.711467E-10
        48  12  4.550216E+04 -2.448463E+05  5.121570E+04 -7.624212E+04 -4.615691E-11 -7.731441E-10
        48  13  1.135856E+03 -4.193250E+05  7.780266E+03 -7.721643E+04  1.683730E-09  3.429848E-11
        48  14 -1.716237E+02 -4.200517E+05  7.897323E+03 -4.634513E+04  1.052520E-09 -3.935084E-10
        48  15  2.684122E+03 -4.193025E+05  1.163181E+04 -7.721484E+04 -1.426520E-09 -3.467312E-10
        48  16 -1.052900E+05 -8.527866E+05 -9.056048E+04 -7.607352E+04  5.532926E-10 -1.389890E-09
        48  17 -7.474645E+04 -7.239563E+05 -6.087345E+04 -4.625885E+04 -1.397973E-09 -2.424250E-10
        48  18 -4.013602E+04 -5.937305E+05 -2.795405E+04 -7.818728E+04 -1.136260E-09  4.508428E-10
        48  19  1.075492E+05  1.431136E+04  1.061096E+05 -7.836014E+04 -1.959583E+04  2.928328E+03
        48  20  7.439707E+04 -1.160610E+05  7.666263E+04 -4.643150E+04 -1.407581E+04  7.468902E+03
        48  21  4.550227E+04 -2.448461E+05  5.121608E+04 -7.624219E+04 -7.858334E+03  1.201187E+04
        48  22  1.136268E+03 -4.193249E+05  7.780990E+03 -7.721641E+04 -1.959333E+04 -1.169712E+03
        48  23 -1.714089E+02 -4.200516E+05  7.897710E+03 -4.634516E+04 -1.407193E+04  2.816943E+03
        48  24  2.684201E+03 -4.193024E+05  1.163201E+04 -7.721488E+04 -7.852890E+03  6.806917E+03
        48  25 -1.052896E+05 -8.527865E+05 -9.055971E+04 -7.607344E+04 -1.959083E+04 -5.264917E+03
        48  26 -7.474623E+04 -7.239563E+05 -6.087307E+04 -4.625883E+04 -1.406806E+04 -1.832759E+03
        48  27 -4.013595E+04 -5.937304E+05 -2.795393E+04 -7.818729E+04 -7.847428E+03  1.603412E+03
        49   1  1.245723E+04 -3.585634E+05  2.685263E+04 -8.299344E+04  3.130343E+03 -1.574113E+04
        49   2 -1.909751E+04 -4.935759E+05  5.439959E+03 -4.067077E+04 -2.337751E+03 -2.235515E+04
        49   3 -1.088939E+04 -6.179050E+05 -1.755474E+03 -5.990553E+04 -1.430203E+03 -2.896162E+04
        49   4 -1.868291E+03 -4.170615E+05  1.382382E+04 -7.718576E+04  3.122634E+03 -8.883864E+03
        49   5 -1.630375E+03 -4.228287E+05  2.192087E+04 -4.638792E+04 -2.339436E+03 -2.054658E+04
        49   6  3.924401E+04 -4.170578E+05  4.774024E+04 -7.714457E+04 -1.425966E+03 -3.220304E+04
        49   7 -1.619390E+04 -4.755562E+05  7.949918E+02 -7.137863E+04  3.115052E+03 -2.027241E+03
        49   8  1.583653E+04 -3.520769E+05  3.840148E+04 -5.210572E+04 -2.341153E+03 -1.873780E+04
        49   9  8.937552E+04 -2.161732E+05  9.723318E+04 -9.438920E+04 -1.421549E+03 -3.544551E+04
        49  10  1.245716E+04 -3.585636E+05  2.685215E+04 -8.299340E+04 -2.913845E-09  2.426613E-09
        49  11 -1.909765E+04 -4.935764E+05  5.439009E+03 -4.067081E+04  2.452403E-10  4.176008E-10
        49  12 -1.088962E+04 -6.179060E+05 -1.757055E+03 -5.990556E+04 -4.836266E-10 -8.812299E-10
        49  13 -1.868322E+03 -4.170616E+05  1.382366E+04 -7.718574E+04 -8.036376E-10 -2.477383E-11
        49  14 -1.630494E+03 -4.228292E+05  2.192007E+04 -4.638796E+04  1.119656E-09 -5.462296E-10
        49  15  3.924373E+04 -4.170589E+05  4.773829E+04 -7.714461E+04 -1.699444E-10 -2.828234E-10
        49  16 -1.619391E+04 -4.755562E+05  7.949659E+02 -7.137863E+04 -2.978403E-09 -1.881349E-09
        49  17  1.583643E+04 -3.520773E+05  3.840080E+04 -5.210576E+04 -7.578640E-10 -3.784439E-10
        49  18  8.937518E+04 -2.161745E+05  9.723081E+04 -9.438924E+04  6.149666E-11  5.187472E-10
        49  19  1.245723E+04 -3.585634E+05  2.685263E+04 -8.299344E+04 -3.130343E+03  1.574113E+04
        49  20 -1.909751E+04 -4.935759E+05  5.439959E+03 -4.067077E+04  2.337751E+03  2.235515E+04
        49  21 -1.088939E+04 -6.179050E+05 -1.755474E+03 -5.990553E+04  1.430203E+03  2.896162E+04
        49  22 -1.868291E+03 -4.170615E+05  1.382382E+04 -7.718576E+04 -3.122634E+03  8.883864E+03
        49  23 -1.630375E+03 -4.228287E+05  2.192087E+04 -4.638792E+04  2.339436E+03  2.054658E+04
        49  24  3.924401E+04 -4.170578E+05  4.774024E+04 -7.714457E+04  1.425966E+03  3.220304E+04
        49  25 -1.619390E+04 -4.755562E+05  7.949918E+02 -7.137863E+04 -3.115052E+03  2.027241E+03
        49  26  1.583653E+04 -3.520769E+05  3.840148E+04 -5.210572E+04  2.341153E+03  1.873780E+04
        49  27  8.937552E+04 -2.161732E+05  9.723318E+04 -9.438920E+04  1.421549E+03  3.544551E+04
        50   1 -6.698046E+05 -1.517003E+05 -5.454494E+04 -2.519609E+05 -2.162485E+04 -6.739498E+03
        50   2 -6.552778E+05 -1.159852E+05 -3.249534E+04 -2.467790E+05 -1.379539E+04 -1.115133E+03
        50   3 -6.452210E+05 -1.093373E+05 -2.336998E+04 -2.419610E+05 -4.938833E+03  1.770758E+03
        50   4 -5.809294E+05 -1.093084E+05 -2.890891E+04 -2.185658E+05 -1.886560E+04 -5.705253E+03
        50   5 -5.773493E+05 -8.400081E+04 -1.237906E+04 -2.224974E+05 -1.306422E+04 -8.411123E+02
        50   6 -5.778359E+05 -8.735660E+04 -7.164352E+03 -2.267935E+05 -6.235945E+03  1.284485E+03
        50   7 -4.920475E+05 -6.691509E+04 -3.273952E+03 -1.851662E+05 -1.610595E+04 -4.670759E+03
        50   8 -4.994151E+05 -5.201574E+04  7.736649E+03 -1.982130E+05 -1.233296E+04 -5.670459E+02
        50   9 -5.104459E+05 -6.537576E+04  9.041065E+03 -2.116246E+05 -7.533218E+03  7.981676E+02
        50  10 -6.698052E+05 -1.517005E+05 -5.454590E+04 -2.519611E+05 -2.318357E-09 -1.074476E-10
        50  11 -6.552780E+05 -1.159853E+05 -3.249570E+04 -2.467790E+05 -1.341383E-09 -2.029658E-10
        50  12 -6.452211E+05 -1.093373E+05 -2.337003E+04 -2.419610E+05 -1.328526E-09 -5.252087E-10
        50  13 -5.809298E+05 -1.093085E+05 -2.890964E+04 -2.185659E+05  8.890022E-10  4.229163E-12
        50  14 -5.773495E+05 -8.400086E+04 -1.237938E+04 -2.224974E+05 -1.265013E-09 -1.820335E-10
        50  15 -5.778359E+05 -8.735662E+04 -7.164428E+03 -2.267935E+05  3.382506E-10 -4.629417E-10
        50  16 -4.920478E+05 -6.691519E+04 -3.274481E+03 -1.851663E+05  2.794656E-11  1.997392E-10
        50  17 -4.994152E+05 -5.201578E+04  7.736362E+03 -1.982130E+05  1.569225E-09  3.008475E-10
        50  18 -5.104459E+05 -6.537577E+04  9.040958E+03 -2.116246E+05  1.468634E-09 -6.245473E-10
        50  19 -6.698046E+05 -1.517003E+05 -5.454494E+04 -2.519609E+05  2.162485E+04  6.739498E+03
        50  20 -6.552778E+05 -1.159852E+05 -3.249534E+04 -2.467790E+05  1.379539E+04  1.115133E+03
        50  21 -6.452210E+05 -1.093373E+05 -2.336998E+04 -2.419610E+05  4.938833E+03 -1.770758E+03
        50  22 -5.809294E+05 -1.093084E+05 -2.890891E+04 -2.185658E+05  1.886560E+04  5.705253E+03
        50  23 -5.773493E+05 -8.400081E+04 -1.237906E+04 -2.224974E+05  1.306422E+04  8.411123E+02
        50  24 -5.778359E+05 -8.735660E+04 -7.164352E+03 -2.267935E+05  6.235945E+03 -1.284485E+03
        50  25 -4.920475E+05 -6.691509E+04 -3.273952E+03 -1.851662E+05  1.610595E+04  4.670759E+03
        50  26 -4.994151E+05 -5.201574E+04  7.736649E+03 -1.982130E+05  1.233296E+04  5.670459E+02
        50  27 -5.104459E+05 -6.537576E+04  9.041065E+03 -2.116246E+05  7.533218E+03 -7.981676E+02
        51   1 -6.273506E+05 -1.092029E+05 -1.844597E+04 -2.396961E+05 -4.540566E+03  1.011257E+03
        51   2 -6.147245E+05 -9.878201E+04 -1.179364E+04 -2.324954E+05 -2.709416E+03  9.264461E+02
        51   3 -5.973505E+05 -9.571308E+04 -6.787740E+03 -2.313250E+05 -8.280832E+02  7.077306E+02
        51   4 -5.768885E+05 -8.983614E+04 -5.729101E+03 -2.253460E+05 -4.992221E+03  8.419236E+02
        51   5 -5.791600E+05 -8.537583E+04 -2.893602E+03 -2.226283E+05 -3.260154E+03  7.199905E+02
        51   6 -5.766640E+05 -8.824763E+04 -1.625841E+03 -2.259409E+05 -1.477964E+03  4.641386E+02
        51   7 -5.264238E+05 -7.046916E+04  6.987598E+03 -2.109948E+05 -5.443916E+03  6.725741E+02
        51   8 -5.435944E+05 -7.196966E+04  6.006267E+03 -2.127608E+05 -3.810922E+03  5.135232E+02
        51   9 -5.559775E+05 -8.078227E+04  3.535932E+03 -2.205568E+05 -2.127857E+03  2.205424E+02
        51  10 -6.273506E+05 -1.092029E+05 -1.844601E+04 -2.396961E+05 -2.386336E-11 -7.205640E-10
        51  11 -6.147245E+05 -9.878201E+04 -1.179366E+04 -2.324954E+05 -1.717809E-09 -7.829684E-11
        51  12 -5.973505E+05 -9.571309E+04 -6.787742E+03 -2.313250E+05 -1.384271E-10  5.090852E-10
        51  13 -5.768885E+05 -8.983615E+04 -5.729149E+03 -2.253460E+05 -6.355235E-10 -4.827035E-10
        51  14 -5.791600E+05 -8.537583E+04 -2.893623E+03 -2.226283E+05 -2.862488E-09  1.924573E-10
        51  15 -5.766640E+05 -8.824763E+04 -1.625845E+03 -2.259409E+05 -8.531501E-10  5.808813E-10
        51  16 -5.264238E+05 -7.046917E+04  6.987541E+03 -2.109948E+05  4.919312E-10 -6.768322E-10
        51  17 -5.435944E+05 -7.196966E+04  6.006239E+03 -2.127608E+05 -1.391483E-09 -2.276928E-10
        51  18 -5.559775E+05 -8.078227E+04  3.535924E+03 -2.205568E+05 -4.877065E-10  6.459310E-10
        51  19 -6.273506E+05 -1.092029E+05 -1.844597E+04 -2.396961E+05  4.540566E+03 -1.011257E+03
        51  20 -6.147245E+05 -9.878201E+04 -1.179364E+04 -2.324954E+05  2.709416E+03 -9.264461E+02
        51  21 -5.973505E+05 -9.571308E+04 -6.787740E+03 -2.313250E+05  8.280832E+02 -7.077306E+02
        51  22 -5.768885E+05 -8.983614E+04 -5.729101E+03 -2.253460E+05  4.992221E+03 -8.419236E+02
        51  23 -5.791600E+05 -8.537583E+04 -2.893602E+03 -2.226283E+05  3.260154E+03 -7.199905E+02
        51  24 -5.766640E+05 -8.824763E+04 -1.625841E+03 -2.259409E+05  1.477964E+03 -4.641386E+02
        51  25 -5.264238E+05 -7.046916E+04  6.987598E+03 -2.109948E+05  5.443916E+03 -6.725741E+02
        51  26 -5.435944E+05 -7.196966E+04  6.006267E+03 -2.127608E+05  3.810922E+03 -5.135232E+02
        51  27 -5.559775E+05 -8.078227E+04  3.535932E+03 -2.205568E+05  2.127857E+03 -2.205424E+02
        52   1 -5.827969E+05 -9.074724E+04 -2.753002E+03 -2.275477E+05 -4.513917E+02  2.788423E+02
        52   2 -5.703660E+05 -8.214764E+04  1.548342E+03 -2.201858E+05  2.061204E+02 -4.155890E+02
        52   3 -5.524153E+05 -7.929338E+04  5.555994E+03 -2.192406E+05  8.658549E+02 -1.115826E+03
        52   4 -5.765709E+05 -8.842154E+04 -1.249286E+03 -2.258294E+05 -1.060524E+03  5.052854E+01
        52   5 -5.793232E+05 -8.549485E+04 -6.855706E+02 -2.226414E+05 -4.073281E+02 -6.455321E+02
        52   6 -5.765553E+05 -8.831281E+04 -4.121451E+02 -2.258701E+05  2.480796E+02 -1.347400E+03
        52   7 -5.703447E+05 -8.609579E+04  2.544529E+02 -2.241111E+05 -1.669672E+03 -1.777910E+02
        52   8 -5.882805E+05 -8.884210E+04 -2.919518E+03 -2.250969E+05 -1.020774E+03 -8.754743E+02
        52   9 -6.006950E+05 -9.733228E+04 -6.380393E+03 -2.324994E+05 -3.696756E+02 -1.578967E+03
        52  10 -5.827969E+05 -9.074724E+04 -2.753002E+03 -2.275477E+05 -4.988778E-10  3.630630E-10
        52  11 -5.703660E+05 -8.214764E+04  1.548342E+03 -2.201858E+05 -1.868759E-11 -4.021291E-10
        52  12 -5.524153E+05 -7.929338E+04  5.555990E+03 -2.192406E+05 -6.808926E-10 -1.977612E-10
        52  13 -5.765709E+05 -8.842154E+04 -1.249288E+03 -2.258294E+05 -2.175819E-09  9.007136E-10
        52  14 -5.793232E+05 -8.549485E+04 -6.855717E+02 -2.226414E+05 -2.923271E-09 -1.608690E-10
        52  15 -5.765553E+05 -8.831281E+04 -4.121486E+02 -2.258701E+05 -4.180922E-10 -9.499502E-10
        52  16 -5.703447E+05 -8.609579E+04  2.544476E+02 -2.241111E+05 -1.056150E-09  8.212581E-10
        52  17 -5.882805E+05 -8.884210E+04 -2.919521E+03 -2.250969E+05 -3.577964E-10  4.564467E-10
        52  18 -6.006950E+05 -9.733228E+04 -6.380398E+03 -2.324994E+05 -2.990580E-10 -1.242715E-09
        52  19 -5.827969E+05 -9.074724E+04 -2.753002E+03 -2.275477E+05  4.513917E+02 -2.788423E+02
        52  20 -5.703660E+05 -8.214764E+04  1.548342E+03 -2.201858E+05 -2.061204E+02  4.155890E+02
        52  21 -5.524153E+05 -7.929338E+04  5.555994E+03 -2.192406E+05 -8.658549E+02  1.115826E+03
        52  22 -5.765709E+05 -8.842154E+04 -1.249286E+03 -2.258294E+05  1.060524E+03 -5.052854E+01
        52  23 -5.793232E+05 -8.549485E+04 -6.855706E+02 -2.226414E+05  4.073281E+02  6.455321E+02
        52  24 -5.765553E+05 -8.831281E+04 -4.121451E+02 -2.258701E+05 -2.480796E+02  1.347400E+03
        52  25 -5.703447E+05 -8.609579E+04  2.544529E+02 -2.241111E+05  1.669672E+03  1.777910E+02
        52  26 -5.882805E+05 -8.884210E+04 -2.919518E+03 -2.250969E+05  1.020774E+03  8.754743E+02
        52  27 -6.006950E+05 -9.733228E+04 -6.380393E+03 -2.324994E+05  3.696756E+02  1.578967E+03
        53   1 -5.381715E+05 -7.399142E+04  9.285524E+03 -2.153629E+05  1.106806E+03 -1.578121E+03
        53   2 -5.258064E+05 -6.554315E+04  1.308158E+04 -2.080093E+05  1.548772E+03 -2.358871E+03
        53   3 -5.078654E+05 -6.270537E+04  1.677727E+04 -2.070737E+05  1.990391E+03 -3.138487E+03
        53   4 -5.765487E+05 -8.831974E+04 -3.378766E+02 -2.258568E+05  4.914925E+02 -1.808782E+03
        53   5 -5.793363E+05 -8.551250E+04 -2.641708E+02 -2.226486E+05  9.342702E+02 -2.589253E+03
        53   6 -5.765484E+05 -8.831577E+04 -2.914402E+02 -2.258583E+05  1.376699E+03 -3.368594E+03
        53   7 -6.149238E+05 -1.026477E+05 -9.961216E+03 -2.363498E+05 -1.237689E+02 -2.039424E+03
        53   8 -6.328631E+05 -1.054816E+05 -1.361008E+04 -2.372867E+05  3.198289E+02 -2.819612E+03
        53   9 -6.452272E+05 -1.139260E+05 -1.736064E+04 -2.446413E+05  7.630775E+02 -3.598675E+03
        53  10 -5.381715E+05 -7.399142E+04  9.285517E+03 -2.153629E+05 -1.730856E-09 -7.074947E-10
        53  11 -5.258064E+05 -6.554316E+04  1.308157E+04 -2.080093E+05  8.003222E-10 -6.289287E-10
        53  12 -5.078654E+05 -6.270538E+04  1.677724E+04 -2.070737E+05  1.837738E-09 -6.002391E-10
        53  13 -5.765487E+05 -8.831975E+04 -3.378832E+02 -2.258568E+05  9.052596E-11 -1.091724E-09
        53  14 -5.793363E+05 -8.551251E+04 -2.641850E+02 -2.226486E+05 -3.522605E-10 -5.074188E-10
        53  15 -5.765484E+05 -8.831579E+04 -2.914651E+02 -2.258583E+05 -9.041605E-10 -6.698972E-10
        53  16 -6.149238E+05 -1.026477E+05 -9.961223E+03 -2.363498E+05 -3.123924E-10 -1.041490E-09
        53  17 -6.328631E+05 -1.054816E+05 -1.361009E+04 -2.372867E+05  2.674586E-10 -5.393635E-10
        53  18 -6.452272E+05 -1.139261E+05 -1.736067E+04 -2.446413E+05 -7.470370E-10 -1.814873E-10
        53  19 -5.381715E+05 -7.399142E+04  9.285524E+03 -2.153629E+05 -1.106806E+03  1.578121E+03
        53  20 -5.258064E+05 -6.554315E+04  1.308158E+04 -2.080093E+05 -1.548772E+03  2.358871E+03
        53  21 -5.078654E+05 -6.270537E+04  1.677727E+04 -2.070737E+05 -1.990391E+03  3.138487E+03
        53  22 -5.765487E+05 -8.831974E+04 -3.378766E+02 -2.258568E+05 -4.914925E+02  1.808782E+03
        53  23 -5.793363E+05 -8.551250E+04 -2.641708E+02 -2.226486E+05 -9.342702E+02  2.589253E+03
        53  24 -5.765484E+05 -8.831577E+04 -2.914402E+02 -2.258583E+05 -1.376699E+03  3.368594E+03
        53  25 -6.149238E+05 -1.026477E+05 -9.961216E+03 -2.363498E+05  1.237689E+02  2.039424E+03
        53  26 -6.328631E+05 -1.054816E+05 -1.361008E+04 -2.372867E+05 -3.198289E+02  2.819612E+03
        53  27 -6.452272E+05 -1.139260E+05 -1.736064E+04 -2.446413E+05 -7.630775E+02  3.598675E+03
        54   1 -4.937181E+05 -5.739918E+04  2.036729E+04 -2.032052E+05  2.221961E+03 -3.600848E+03
        54   2 -4.814400E+05 -4.901641E+04  2.386126E+04 -1.959008E+05  2.797800E+03 -4.325308E+03
        54   3 -4.636499E+05 -4.622436E+04  2.714921E+04 -1.949650E+05  3.372474E+03 -5.046272E+03
        54   4 -5.765624E+05 -8.830575E+04 -3.403607E+02 -2.258499E+05  1.609689E+03 -3.830451E+03
        54   5 -5.793203E+05 -8.552225E+04 -5.396600E+02 -2.226611E+05  2.188056E+03 -4.554016E+03
        54   6 -5.765669E+05 -8.833005E+04 -9.469553E+02 -2.258412E+05  2.765249E+03 -5.274085E+03
        54   7 -6.594000E+05 -1.192119E+05 -2.104854E+04 -2.484918E+05  9.975061E+02 -4.060020E+03
        54   8 -6.771911E+05 -1.220274E+05 -2.494126E+04 -2.494176E+05  1.578418E+03 -4.782683E+03
        54   9 -6.894709E+05 -1.304347E+05 -2.904398E+04 -2.567122E+05  2.158147E+03 -5.501852E+03
        54  10 -4.937181E+05 -5.739920E+04  2.036725E+04 -2.032052E+05 -1.979801E-10 -2.932175E-10
        54  11 -4.814400E+05 -4.901643E+04  2.386121E+04 -1.959008E+05 -3.858148E-09  3.223010E-10
        54  12 -4.636499E+05 -4.622439E+04  2.714914E+04 -1.949650E+05 -1.007957E-09 -2.447853E-10
        54  13 -5.765624E+05 -8.830577E+04 -3.403931E+02 -2.258499E+05 -3.377375E-09 -3.730914E-10
        54  14 -5.793204E+05 -8.552227E+04 -5.397080E+02 -2.226611E+05  6.503033E-10 -3.569561E-11
        54  15 -5.765669E+05 -8.833008E+04 -9.470219E+02 -2.258412E+05  6.539892E-10 -5.730651E-10
        54  16 -6.594000E+05 -1.192119E+05 -2.104858E+04 -2.484918E+05 -6.778712E-10  2.662213E-11
        54  17 -6.771911E+05 -1.220274E+05 -2.494131E+04 -2.494176E+05  1.831341E-09 -3.459325E-10
        54  18 -6.894709E+05 -1.304347E+05 -2.904404E+04 -2.567122E+05  8.541523E-10 -8.551066E-10
        54  19 -4.937181E+05 -5.739918E+04  2.036729E+04 -2.032052E+05 -2.221961E+03  3.600848E+03
        54  20 -4.814400E+05 -4.901641E+04  2.386126E+04 -1.959008E+05 -2.797800E+03  4.325308E+03
        54  21 -4.636499E+05 -4.622436E+04  2.714921E+04 -1.949650E+05 -3.372474E+03  5.046272E+03
        54  22 -5.765624E+05 -8.830575E+04 -3.403607E+02 -2.258499E+05 -1.609689E+03  3.830451E+03
        54  23 -5.793203E+05 -8.552225E+04 -5.396600E+02 -2.226611E+05 -2.188056E+03  4.554016E+03
        54  24 -5.765669E+05 -8.833005E+04 -9.469553E+02 -2.258412E+05 -2.765249E+03  5.274085E+03
        54  25 -6.594000E+05 -1.192119E+05 -2.104854E+04 -2.484918E+05 -9.975061E+02  4.060020E+03
        54  26 -6.771911E+05 -1.220274E+05 -2.494126E+04 -2.494176E+05 -1.578418E+03  4.782683E+03
        54  27 -6.894709E+05 -1.304347E+05 -2.904398E+04 -2.567122E+05 -2.158147E+03  5.501852E+03
        55   1 -4.496330E+05 -4.097022E+04  3.045402E+04 -1.912042E+05  3.734927E+03 -5.456119E+03
        55   2 -4.374523E+05 -3.260715E+04  3.311392E+04 -1.838977E+05  5.147280E+03 -5.853475E+03
        55   3 -4.200760E+05 -3.017118E+04  3.483769E+04 -1.828123E+05  6.552441E+03 -6.230941E+03
        55   4 -5.766207E+05 -8.827973E+04 -1.245871E+03 -2.258559E+05  3.125140E+03 -5.684935E+03
        55   5 -5.792440E+05 -8.550102E+04 -2.235736E+03 -2.226755E+05  4.551928E+03 -6.076953E+03
        55   6 -5.766750E+05 -8.865265E+04 -4.173413E+03 -2.257168E+05  5.971493E+03 -6.449090E+03
        55   7 -7.035932E+05 -1.355884E+05 -3.294718E+04 -2.605013E+05  2.515486E+03 -5.913700E+03
        55   8 -7.210163E+05 -1.383937E+05 -3.758706E+04 -2.614455E+05  3.956723E+03 -6.300376E+03
        55   9 -7.332499E+05 -1.471325E+05 -4.318644E+04 -2.686114E+05  5.390705E+03 -6.667179E+03
        55  10 -4.496330E+05 -4.097026E+04  3.045394E+04 -1.912042E+05 -1.883843E-10 -6.382561E-10
        55  11 -4.374524E+05 -3.260719E+04  3.311381E+04 -1.838976E+05  8.225450E-10 -1.724268E-10
        55  12 -4.200761E+05 -3.017123E+04  3.483754E+04 -1.828123E+05  9.065924E-10 -4.434628E-10
        55  13 -5.766207E+05 -8.827976E+04 -1.245950E+03 -2.258559E+05  2.384711E-09 -6.412095E-10
        55  14 -5.792440E+05 -8.550107E+04 -2.235845E+03 -2.226755E+05 -3.245820E-10 -1.609469E-10
        55  15 -5.766750E+05 -8.865271E+04 -4.173558E+03 -2.257167E+05  1.464648E-09 -9.651083E-11
        55  16 -7.035932E+05 -1.355884E+05 -3.294726E+04 -2.605013E+05  1.031886E-09 -4.793163E-10
        55  17 -7.210163E+05 -1.383937E+05 -3.758716E+04 -2.614455E+05 -2.283186E-09 -3.525058E-10
        55  18 -7.332499E+05 -1.471326E+05 -4.318657E+04 -2.686114E+05  8.707618E-10 -3.472562E-12
        55  19 -4.496330E+05 -4.097022E+04  3.045402E+04 -1.912042E+05 -3.734927E+03  5.456119E+03
        55  20 -4.374523E+05 -3.260715E+04  3.311392E+04 -1.838977E+05 -5.147280E+03  5.853475E+03
        55  21 -4.200760E+05 -3.017118E+04  3.483769E+04 -1.828123E+05 -6.552441E+03  6.230941E+03
        55  22 -5.766207E+05 -8.827973E+04 -1.245871E+03 -2.258559E+05 -3.125140E+03  5.684935E+03
        55  23 -5.792440E+05 -8.550102E+04 -2.235736E+03 -2.226755E+05 -4.551928E+03  6.076953E+03
        55  24 -5.766750E+05 -8.865265E+04 -4.173413E+03 -2.257168E+05 -5.971493E+03  6.449090E+03
        55  25 -7.035932E+05 -1.355884E+05 -3.294718E+04 -2.605013E+05 -2.515486E+03  5.913700E+03
        55  26 -7.210163E+05 -1.383937E+05 -3.758706E+04 -2.614455E+05 -3.956723E+03  6.300376E+03
        55  27 -7.332499E+05 -1.471325E+05 -4.318644E+04 -2.686114E+05 -5.390705E+03  6.667179E+03
        56   1 -4.059171E+05 -2.506175E+04  3.708896E+04 -1.801572E+05  7.609658E+03 -6.412322E+03
        56   2 -3.939862E+05 -1.569778E+04  3.640582E+04 -1.716017E+05  1.263107E+04 -5.382791E+03
        56   3 -3.794175E+05 -1.751399E+04  3.063335E+04 -1.678918E+05  1.752956E+04 -4.024898E+03
        56   4 -5.770043E+05 -8.805276E+04 -5.455350E+03 -2.260786E+05  6.931882E+03 -6.666853E+03
        56   5 -5.786784E+05 -8.511884E+04 -9.750654E+03 -2.226505E+05  1.219512E+04 -5.546669E+03
        56   6 -5.777639E+05 -9.341423E+04 -1.932819E+04 -2.240678E+05  1.733534E+04 -4.098136E+03
        56   7 -7.480620E+05 -1.510418E+05 -4.800173E+04 -2.719885E+05  6.254314E+03 -6.921308E+03
        56   8 -7.633372E+05 -1.545375E+05 -5.590980E+04 -2.736854E+05  1.175932E+04 -5.710493E+03
        56   9 -7.760725E+05 -1.693117E+05 -6.929309E+04 -2.802275E+05  1.714119E+04 -4.171347E+03
        56  10 -4.059172E+05 -2.506181E+04  3.708877E+04 -1.801571E+05 -8.028822E-11 -5.055247E-10
        56  11 -3.939863E+05 -1.569785E+04  3.640546E+04 -1.716017E+05  3.413038E-09  5.697015E-10
        56  12 -3.794178E+05 -1.751409E+04  3.063274E+04 -1.678918E+05  6.858116E-10 -1.106998E-09
        56  13 -5.770043E+05 -8.805282E+04 -5.455523E+03 -2.260786E+05 -9.466543E-11  2.291478E-10
        56  14 -5.786786E+05 -8.511892E+04 -9.750991E+03 -2.226504E+05  1.791741E-09  7.084797E-10
        56  15 -5.777642E+05 -9.341433E+04 -1.932878E+04 -2.240677E+05 -1.999578E-09 -8.351127E-10
        56  16 -7.480620E+05 -1.510418E+05 -4.800189E+04 -2.719884E+05  2.630501E-09  9.565657E-10
        56  17 -7.633373E+05 -1.545376E+05 -5.591013E+04 -2.736853E+05  2.215157E-09  1.008795E-09
        56  18 -7.760728E+05 -1.693118E+05 -6.929367E+04 -2.802275E+05 -3.696202E-09 -1.869574E-10
        56  19 -4.059171E+05 -2.506175E+04  3.708896E+04 -1.801572E+05 -7.609658E+03  6.412322E+03
        56  20 -3.939862E+05 -1.569778E+04  3.640582E+04 -1.716017E+05 -1.263107E+04  5.382791E+03
        56  21 -3.794175E+05 -1.751399E+04  3.063335E+04 -1.678918E+05 -1.752956E+04  4.024898E+03
        56  22 -5.770043E+05 -8.805276E+04 -5.455350E+03 -2.260786E+05 -6.931882E+03  6.666853E+03
        56  23 -5.786784E+05 -8.511884E+04 -9.750654E+03 -2.226505E+05 -1.219512E+04  5.546669E+03
        56  24 -5.777639E+05 -9.341423E+04 -1.932819E+04 -2.240678E+05 -1.733534E+04  4.098136E+03
        56  25 -7.480620E+05 -1.510418E+05 -4.800173E+04 -2.719885E+05 -6.254314E+03  6.921308E+03
        56  26 -7.633372E+05 -1.545375E+05 -5.590980E+04 -2.736854E+05 -1.175932E+04  5.710493E+03
        56  27 -7.760725E+05 -1.693117E+05 -6.929309E+04 -2.802275E+05 -1.714119E+04  4.171347E+03
        57   1 -3.598555E+05 -1.319079E+04  2.888376E+04 -1.794160E+05  2.323085E+04 -3.280938E+03
        57   2 -3.524355E+05  1.158058E+04  1.528333E+04 -1.518397E+05  4.075216E+04  3.643743E+03
        57   3 -3.712248E+05 -4.591317E+04 -3.258892E+04 -1.100307E+05  5.577272E+04  1.722590E+04
        57   4 -5.809437E+05 -8.506445E+04 -2.417525E+04 -2.289749E+05  2.098262E+04 -4.125077E+03
        57   5 -5.725829E+05 -8.046034E+04 -4.177921E+04 -2.221886E+05  4.343049E+04  4.648742E+03
        57   6 -5.914199E+05 -1.591168E+05 -9.757015E+04 -2.011667E+05  6.337684E+04  2.007964E+04
        57   7 -8.019837E+05 -1.569375E+05 -7.723770E+04 -2.785190E+05  1.873527E+04 -4.968986E+03
        57   8 -7.926818E+05 -1.724943E+05 -9.884560E+04 -2.925134E+05  4.610777E+04  5.653241E+03
        57   9 -8.115644E+05 -2.723031E+05 -1.625554E+05 -2.922688E+05  7.097796E+04  2.293132E+04
        57  10 -3.598561E+05 -1.319095E+04  2.888273E+04 -1.794160E+05 -2.818980E-09 -2.574864E-09
        57  11 -3.524373E+05  1.158012E+04  1.528019E+04 -1.518398E+05 -5.167166E-09 -1.286687E-09
        57  12 -3.712282E+05 -4.591433E+04 -3.259533E+04 -1.100314E+05 -3.108414E-09 -1.161694E-09
        57  13 -5.809441E+05 -8.506458E+04 -2.417611E+04 -2.289748E+05 -4.379519E-09 -2.529424E-09
        57  14 -5.725849E+05 -8.046087E+04 -4.178279E+04 -2.221887E+05 -4.837015E-09 -3.117645E-09
        57  15 -5.914243E+05 -1.591184E+05 -9.757846E+04 -2.011677E+05 -9.875641E-10 -7.101808E-10
        57  16 -8.019841E+05 -1.569376E+05 -7.723840E+04 -2.785189E+05 -5.302753E-09 -1.654395E-09
        57  17 -7.926841E+05 -1.724950E+05 -9.884966E+04 -2.925136E+05 -2.788228E-09 -2.461150E-09
        57  18 -8.115699E+05 -2.723050E+05 -1.625659E+05 -2.922701E+05  8.619668E-10 -6.438459E-11
        57  19 -3.598555E+05 -1.319079E+04  2.888376E+04 -1.794160E+05 -2.323085E+04  3.280938E+03
        57  20 -3.524355E+05  1.158058E+04  1.528333E+04 -1.518397E+05 -4.075216E+04 -3.643743E+03
        57  21 -3.712248E+05 -4.591317E+04 -3.258892E+04 -1.100307E+05 -5.577272E+04 -1.722590E+04
        57  22 -5.809437E+05 -8.506445E+04 -2.417525E+04 -2.289749E+05 -2.098262E+04  4.125077E+03
        57  23 -5.725829E+05 -8.046034E+04 -4.177921E+04 -2.221886E+05 -4.343049E+04 -4.648742E+03
        57  24 -5.914199E+05 -1.591168E+05 -9.757015E+04 -2.011667E+05 -6.337684E+04 -2.007964E+04
        57  25 -8.019837E+05 -1.569375E+05 -7.723770E+04 -2.785190E+05 -1.873527E+04  4.968986E+03
        57  26 -7.926818E+05 -1.724943E+05 -9.884560E+04 -2.925134E+05 -4.610777E+04 -5.653241E+03
        57  27 -8.115644E+05 -2.723031E+05 -1.625554E+05 -2.922688E+05 -7.097796E+04 -2.293132E+04
        58   1  4.288177E+03  1.835354E+04  2.236738E+04  8.010660E+03  1.535943E+04  1.981831E-01
        58   2  1.566722E+03 -8.046128E+02  1.006728E+04  2.650792E+03  9.997164E+03  4.268513E-02
        58   3  4.288089E+03 -9.848452E+02  6.002881E+03 -2.709127E+03  4.634812E+03 -2.022478E-02
        58   4  4.288108E+03  1.835342E+04  2.236737E+04  2.804713E-08  1.535943E+04 -2.206170E-10
        58   5  1.566714E+03 -8.046260E+02  1.006727E+04 -1.935285E-10  9.997164E+03 -3.886977E-10
        58   6  4.288081E+03 -9.848590E+02  6.002879E+03 -2.520377E-08  4.634812E+03  1.145487E-10
        58   7  4.288177E+03  1.835354E+04  2.236738E+04 -8.010660E+03  1.535943E+04 -1.981831E-01
        58   8  1.566722E+03 -8.046128E+02  1.006728E+04 -2.650792E+03  9.997164E+03 -4.268513E-02
        58   9  4.288089E+03 -9.848452E+02  6.002881E+03  2.709127E+03  4.634812E+03  2.022478E-02
        58  10  4.287924E+03  1.835348E+04  2.236694E+04  8.010660E+03 -5.585083E-09 -6.040556E-11
        58  11  1.566615E+03 -8.046396E+02  1.006709E+04  2.650792E+03  1.163706E-09 -1.698148E-10
        58  12  4.288066E+03 -9.848510E+02  6.002841E+03 -2.709127E+03  7.172990E-09 -1.803452E-10
        58  13  4.287855E+03  1.835336E+04  2.236692E+04 -8.330000E-09  1.076884E-09 -1.210334E-10
        58  14  1.566607E+03 -8.046528E+02  1.006709E+04  3.019505E-09 -2.691511E-09 -3.689049E-10
        58  15  4.288058E+03 -9.848648E+02  6.002839E+03  1.059959E-08  1.211721E-09 -3.501950E-10
        58  16  4.287924E+03  1.835348E+04  2.236694E+04 -8.010660E+03  6.664649E-09 -1.910399E-10
        58  17  1.566615E+03 -8.046396E+02  1.006709E+04 -2.650792E+03 -8.947174E-10 -5.647551E-10
        58  18  4.288066E+03 -9.848510E+02  6.002841E+03  2.709127E+03 -9.532141E-09 -5.156326E-10
        58  19  4.288177E+03  1.835354E+04  2.236738E+04  8.010660E+03 -1.535943E+04 -1.981831E-01
        58  20  1.566722E+03 -8.046128E+02  1.006728E+04  2.650792E+03 -9.997164E+03 -4.268513E-02
        58  21  4.288089E+03 -9.848452E+02  6.002881E+03 -2.709127E+03 -4.634812E+03  2.022478E-02
        58  22  4.288108E+03  1.835342E+04  2.236737E+04 -4.901493E-08 -1.535943E+04 -2.081543E-11
        58  23  1.566714E+03 -8.046260E+02  1.006727E+04 -4.537292E-09 -9.997164E+03 -3.479115E-10
        58  24  4.288081E+03 -9.848590E+02  6.002879E+03  3.455587E-08 -4.634812E+03 -8.154341E-10
        58  25  4.288177E+03  1.835354E+04  2.236738E+04 -8.010660E+03 -1.535943E+04  1.981831E-01
        58  26  1.566722E+03 -8.046128E+02  1.006728E+04 -2.650792E+03 -9.997164E+03  4.268513E-02
        58  27  4.288089E+03 -9.848452E+02  6.002881E+03  2.709127E+03 -4.634812E+03 -2.022478E-02
        59   1  3.187978E+03  1.218780E+03  4.804235E+03  4.219802E+02  3.762699E+03  2.557494E-03
        59   2  2.941806E+03 -7.593468E+01  2.545588E+03  1.018976E+02  2.478747E+03  4.068363E-04
        59   3  3.187975E+03 -7.002098E+01  1.448013E+03 -2.181852E+02  1.194796E+03 -4.198955E-04
        59   4  3.187977E+03  1.218779E+03  4.804235E+03  1.208918E-08  3.762699E+03  4.407452E-10
        59   5  2.941806E+03 -7.593470E+01  2.545588E+03  2.613513E-10  2.478747E+03  5.164289E-10
        59   6  3.187975E+03 -7.002107E+01  1.448013E+03  2.164966E-09  1.194796E+03  3.891750E-10
        59   7  3.187978E+03  1.218780E+03  4.804235E+03 -4.219802E+02  3.762699E+03 -2.557493E-03
        59   8  2.941806E+03 -7.593468E+01  2.545588E+03 -1.018976E+02  2.478747E+03 -4.068353E-04
        59   9  3.187975E+03 -7.002098E+01  1.448013E+03  2.181852E+02  1.194796E+03  4.198963E-04
        59  10  3.187962E+03  1.218776E+03  4.804208E+03  4.219802E+02  4.563175E-10  1.647395E-11
        59  11  2.941799E+03 -7.593633E+01  2.545576E+03  1.018976E+02  3.614096E-10  3.150651E-10
        59  12  3.187974E+03 -7.002136E+01  1.448010E+03 -2.181852E+02  1.812349E-09  1.296933E-10
        59  13  3.187962E+03  1.218776E+03  4.804208E+03  3.601432E-09  1.078127E-09 -1.809809E-11
        59  14  2.941799E+03 -7.593635E+01  2.545576E+03 -1.911361E-09  3.231997E-09  3.302612E-10
        59  15  3.187974E+03 -7.002145E+01  1.448010E+03 -2.577752E-09 -1.211958E-09 -2.580581E-10
        59  16  3.187962E+03  1.218776E+03  4.804208E+03 -4.219802E+02 -2.610455E-09 -5.204771E-11
        59  17  2.941799E+03 -7.593633E+01  2.545576E+03 -1.018976E+02 -1.167684E-09  3.455058E-10
        59  18  3.187974E+03 -7.002136E+01  1.448010E+03  2.181852E+02 -2.619645E-09 -6.455320E-10
        59  19  3.187978E+03  1.218780E+03  4.804235E+03  4.219802E+02 -3.762699E+03 -2.557494E-03
        59  20  2.941806E+03 -7.593468E+01  2.545588E+03  1.018976E+02 -2.478747E+03 -4.068357E-04
        59  21  3.187975E+03 -7.002098E+01  1.448013E+03 -2.181852E+02 -1.194796E+03  4.198957E-04
        59  22  3.187977E+03  1.218779E+03  4.804235E+03 -2.732443E-09 -3.762699E+03 -4.766098E-10
        59  23  2.941806E+03 -7.593470E+01  2.545588E+03 -1.162294E-08 -2.478747E+03  1.439702E-10
        59  24  3.187975E+03 -7.002107E+01  1.448013E+03  6.680148E-09 -1.194796E+03 -9.050084E-10
        59  25  3.187978E+03  1.218780E+03  4.804235E+03 -4.219802E+02 -3.762699E+03  2.557493E-03
        59  26  2.941806E+03 -7.593468E+01  2.545588E+03 -1.018976E+02 -2.478747E+03  4.068360E-04
        59  27  3.187975E+03 -7.002098E+01  1.448013E+03  2.181852E+02 -1.194796E+03 -4.198975E-04
        60   1  3.091366E+03  7.447081E+01  1.090356E+03 -3.956664E+00  9.717748E+02 -6.192881E-06
        60   2  3.062566E+03 -9.360670E+00  5.451890E+02 -1.647822E+01  7.006860E+02 -1.859774E-05
        60   3  3.091367E+03 -3.970044E+00  1.988126E+02 -2.899959E+01  4.296014E+02 -2.006560E-05
        60   4  3.091366E+03  7.447081E+01  1.090356E+03 -9.848396E-09  9.717748E+02  7.702643E-11
        60   5  3.062566E+03 -9.360671E+00  5.451890E+02 -8.594325E-09  7.006860E+02  4.778703E-11
        60   6  3.091367E+03 -3.970046E+00  1.988126E+02 -7.069279E-11  4.296014E+02  1.250717E-09
        60   7  3.091366E+03  7.447081E+01  1.090356E+03  3.956664E+00  9.717748E+02  6.193040E-06
        60   8  3.062566E+03 -9.360670E+00  5.451890E+02  1.647822E+01  7.006860E+02  1.859784E-05
        60   9  3.091367E+03 -3.970044E+00  1.988126E+02  2.899959E+01  4.296014E+02  2.006811E-05
        60  10  3.091365E+03  7.447056E+01  1.090354E+03 -3.956664E+00 -8.783873E-10  6.002193E-11
        60  11  3.062566E+03 -9.360802E+00  5.451881E+02 -1.647822E+01  4.121397E-10  3.948465E-10
        60  12  3.091367E+03 -3.970094E+00  1.988123E+02 -2.899959E+01  2.251457E-10  8.498035E-10
        60  13  3.091365E+03  7.447056E+01  1.090354E+03 -1.182124E-08 -9.366250E-13 -2.418100E-10
        60  14  3.062566E+03 -9.360803E+00  5.451881E+02 -1.282102E-08  3.286673E-14  5.951744E-10
        60  15  3.091367E+03 -3.970095E+00  1.988123E+02 -1.220536E-08  2.017193E-09  7.947698E-10
        60  16  3.091365E+03  7.447056E+01  1.090354E+03  3.956664E+00  1.415339E-09 -5.436363E-10
        60  17  3.062566E+03 -9.360802E+00  5.451881E+02  1.647822E+01  6.613979E-10  7.955232E-10
        60  18  3.091367E+03 -3.970094E+00  1.988123E+02  2.899959E+01  1.659328E-09  7.396536E-10
        60  19  3.091366E+03  7.447081E+01  1.090356E+03 -3.956664E+00 -9.717748E+02  6.193010E-06
        60  20  3.062566E+03 -9.360670E+00  5.451890E+02 -1.647822E+01 -7.006860E+02  1.859853E-05
        60  21  3.091367E+03 -3.970044E+00  1.988126E+02 -2.899958E+01 -4.296014E+02  2.006731E-05
        60  22  3.091366E+03  7.447081E+01  1.090356E+03 -9.486258E-09 -9.717748E+02 -5.607460E-10
        60  23  3.062566E+03 -9.360671E+00  5.451890E+02 -1.489377E-08 -7.006860E+02  1.142473E-09
        60  24  3.091367E+03 -3.970046E+00  1.988126E+02  4.199859E-09 -4.296014E+02  3.387933E-10
        60  25  3.091366E+03  7.447081E+01  1.090356E+03  3.956664E+00 -9.717748E+02 -6.194102E-06
        60  26  3.062566E+03 -9.360670E+00  5.451890E+02  1.647822E+01 -7.006860E+02 -1.859626E-05
        60  27  3.091367E+03 -3.970044E+00  1.988126E+02  2.899958E+01 -4.296014E+02 -2.006663E-05
        61   1  3.075313E+03  3.693035E+00  5.520716E+01 -1.501732E+01  4.070217E+02 -9.844688E-06
        61   2  3.082634E+03  2.563884E+00 -2.340540E+02 -2.145360E+01  5.225794E+02 -1.805973E-05
        61   3  3.075313E+03  3.044009E+00 -5.981429E+02 -2.788997E+01  6.381388E+02 -2.866688E-05
        61   4  3.075313E+03  3.693034E+00  5.520716E+01 -7.058288E-09  4.070217E+02  6.531916E-10
        61   5  3.082634E+03  2.563883E+00 -2.340540E+02 -7.895279E-09  5.225794E+02 -1.001048E-09
        61   6  3.075313E+03  3.044008E+00 -5.981429E+02 -2.808853E-09  6.381388E+02  1.053547E-09
        61   7  3.075313E+03  3.693035E+00  5.520716E+01  1.501732E+01  4.070217E+02  9.845989E-06
        61   8  3.082634E+03  2.563884E+00 -2.340540E+02  2.145360E+01  5.225794E+02  1.805772E-05
        61   9  3.075313E+03  3.044009E+00 -5.981429E+02  2.788997E+01  6.381388E+02  2.866899E-05
        61  10  3.075313E+03  3.692990E+00  5.520685E+01 -1.501732E+01  1.522404E-09  3.396982E-10
        61  11  3.082634E+03  2.563810E+00 -2.340545E+02 -2.145360E+01 -2.063429E-09 -7.258872E-10
        61  12  3.075313E+03  3.043900E+00 -5.981437E+02 -2.788997E+01 -1.408277E-09  9.920440E-11
        61  13  3.075313E+03  3.692990E+00  5.520685E+01 -1.803103E-08  2.958005E-13  2.914417E-10
        61  14  3.082634E+03  2.563809E+00 -2.340545E+02 -2.473709E-09  1.614930E-09 -2.392116E-10
        61  15  3.075313E+03  3.043898E+00 -5.981437E+02  6.984580E-10 -2.691067E-09  7.598004E-10
        61  16  3.075313E+03  3.692990E+00  5.520685E+01  1.501732E+01  6.318493E-10  2.431859E-10
        61  17  3.082634E+03  2.563810E+00 -2.340545E+02  2.145360E+01  1.523876E-09  2.474327E-10
        61  18  3.075313E+03  3.043900E+00 -5.981437E+02  2.788997E+01  3.561923E-09  1.420116E-09
        61  19  3.075313E+03  3.693035E+00  5.520716E+01 -1.501732E+01 -4.070217E+02  9.845367E-06
        61  20  3.082634E+03  2.563884E+00 -2.340540E+02 -2.145360E+01 -5.225794E+02  1.805829E-05
        61  21  3.075313E+03  3.044009E+00 -5.981429E+02 -2.788997E+01 -6.381388E+02  2.866708E-05
        61  22  3.075313E+03  3.693034E+00  5.520716E+01 -3.156319E-09 -4.070217E+02 -7.027320E-11
        61  23  3.082634E+03  2.563883E+00 -2.340540E+02  7.939049E-10 -5.225794E+02  5.227992E-10
        61  24  3.075313E+03  3.044008E+00 -5.981429E+02  1.309079E-08 -6.381388E+02  4.661513E-10
        61  25  3.075313E+03  3.693035E+00  5.520716E+01  1.501732E+01 -4.070217E+02 -9.845509E-06
        61  26  3.082634E+03  2.563884E+00 -2.340540E+02  2.145360E+01 -5.225794E+02 -1.805724E-05
        61  27  3.075313E+03  3.044009E+00 -5.981429E+02  2.788997E+01 -6.381388E+02 -2.866614E-05
        62   1  3.053000E+03  5.325656E+00 -8.407958E+02 -3.691729E+01  7.684853E+02 -4.569646E-05
        62   2  3.110528E+03  1.957805E+01 -1.545693E+03 -5.794270E+01  1.533137E+03 -1.430887E-04
        62   3  3.053004E+03 -2.812873E+01 -2.763896E+03 -7.896813E+01  2.297788E+03 -2.922693E-04
        62   4  3.053000E+03  5.325653E+00 -8.407958E+02 -3.866012E-09  7.684853E+02  9.628875E-10
        62   5  3.110528E+03  1.957805E+01 -1.545693E+03  4.235372E-09  1.533137E+03 -1.252941E-09
        62   6  3.053004E+03 -2.812875E+01 -2.763896E+03  4.900211E-10  2.297788E+03  4.567464E-10
        62   7  3.053000E+03  5.325656E+00 -8.407958E+02  3.691729E+01  7.684853E+02  4.569839E-05
        62   8  3.110528E+03  1.957805E+01 -1.545693E+03  5.794270E+01  1.533137E+03  1.430862E-04
        62   9  3.053004E+03 -2.812873E+01 -2.763896E+03  7.896813E+01  2.297788E+03  2.922702E-04
        62  10  3.053000E+03  5.325497E+00 -8.407969E+02 -3.691729E+01  5.971401E-10  2.671501E-10
        62  11  3.110526E+03  1.957742E+01 -1.545697E+03 -5.794270E+01  9.455885E-10 -4.129519E-10
        62  12  3.052998E+03 -2.813015E+01 -2.763906E+03 -7.896813E+01 -1.131569E-09  1.255465E-10
        62  13  3.053000E+03  5.325495E+00 -8.407969E+02 -2.057595E-09 -1.074243E-09  6.254654E-10
        62  14  3.110526E+03  1.957742E+01 -1.545697E+03  5.228437E-09 -1.074505E-09 -7.447114E-10
        62  15  3.052998E+03 -2.813016E+01 -2.763906E+03 -3.640184E-09 -2.826723E-09 -4.454378E-10
        62  16  3.053000E+03  5.325497E+00 -8.407969E+02  3.691729E+01 -2.211854E-09  9.839837E-10
        62  17  3.110526E+03  1.957742E+01 -1.545697E+03  5.794270E+01 -6.757606E-10 -1.076466E-09
        62  18  3.052998E+03 -2.813015E+01 -2.763906E+03  7.896813E+01 -1.427276E-09 -1.017899E-09
        62  19  3.053000E+03  5.325656E+00 -8.407958E+02 -3.691729E+01 -7.684853E+02  4.569698E-05
        62  20  3.110528E+03  1.957805E+01 -1.545693E+03 -5.794270E+01 -1.533137E+03  1.430879E-04
        62  21  3.053004E+03 -2.812873E+01 -2.763896E+03 -7.896813E+01 -2.297788E+03  2.922696E-04
        62  22  3.053000E+03  5.325653E+00 -8.407958E+02  1.904774E-09 -7.684853E+02  2.881141E-10
        62  23  3.110528E+03  1.957805E+01 -1.545693E+03 -4.548254E-09 -1.533137E+03 -2.363671E-10
        62  24  3.053004E+03 -2.812875E+01 -2.763896E+03 -2.315307E-10 -2.297788E+03 -1.353053E-09
        62  25  3.053000E+03  5.325656E+00 -8.407958E+02  3.691729E+01 -7.684853E+02 -4.569644E-05
        62  26  3.110528E+03  1.957805E+01 -1.545693E+03  5.794270E+01 -1.533137E+03 -1.430884E-04
        62  27  3.053004E+03 -2.812873E+01 -2.763896E+03  7.896813E+01 -2.297788E+03 -2.922723E-04
        63   1  2.937854E+03  5.522967E+01 -3.647658E+03 -2.244014E+02  2.874903E+03 -1.039133E-03
        63   2  3.254489E+03  1.036161E+02 -6.358448E+03 -1.235744E+02  6.033491E+03 -1.200936E-03
        63   3  2.937897E+03 -7.358421E+02 -1.134751E+04 -2.274862E+01  9.192016E+03 -3.368130E-04
        63   4  2.937854E+03  5.522958E+01 -3.647658E+03  7.294807E-10  2.874903E+03  9.401584E-10
        63   5  3.254489E+03  1.036160E+02 -6.358448E+03 -2.601096E-10  6.033491E+03 -4.804991E-10
        63   6  2.937897E+03 -7.358421E+02 -1.134751E+04  4.404534E-09  9.192016E+03 -1.491487E-10
        63   7  2.937854E+03  5.522967E+01 -3.647658E+03  2.244014E+02  2.874903E+03  1.039135E-03
        63   8  3.254489E+03  1.036161E+02 -6.358448E+03  1.235744E+02  6.033491E+03  1.200935E-03
        63   9  2.937897E+03 -7.358421E+02 -1.134751E+04  2.274862E+01  9.192016E+03  3.368126E-04
        63  10  2.937845E+03  5.522745E+01 -3.647673E+03 -2.244014E+02  1.822726E-10  2.956829E-10
        63  11  3.254450E+03  1.036063E+02 -6.358517E+03 -1.235744E+02 -7.871796E-10 -1.594327E-10
        63  12  2.937806E+03 -7.358648E+02 -1.134767E+04 -2.274862E+01  1.283035E-09 -1.647644E-10
        63  13  2.937845E+03  5.522736E+01 -3.647673E+03  5.000329E-09 -2.103467E-12 -1.226143E-10
        63  14  3.254450E+03  1.036063E+02 -6.358517E+03 -3.495970E-09 -2.942922E-12 -2.578288E-10
        63  15  2.937806E+03 -7.358648E+02 -1.134767E+04 -5.530427E-09  4.030481E-10 -1.882570E-10
        63  16  2.937845E+03  5.522745E+01 -3.647673E+03  2.244014E+02 -7.214415E-10 -5.375209E-10
        63  17  3.254450E+03  1.036063E+02 -6.358517E+03  1.235744E+02  5.125265E-10 -3.527843E-10
        63  18  2.937806E+03 -7.358648E+02 -1.134767E+04  2.274862E+01 -1.399171E-10 -2.124287E-10
        63  19  2.937854E+03  5.522967E+01 -3.647658E+03 -2.244014E+02 -2.874903E+03  1.039133E-03
        63  20  3.254489E+03  1.036161E+02 -6.358448E+03 -1.235744E+02 -6.033491E+03  1.200936E-03
        63  21  2.937897E+03 -7.358421E+02 -1.134751E+04 -2.274862E+01 -9.192016E+03  3.368126E-04
        63  22  2.937854E+03  5.522958E+01 -3.647658E+03  6.550287E-10 -2.874903E+03 -1.184177E-09
        63  23  3.254489E+03  1.036160E+02 -6.358448E+03  1.883590E-09 -6.033491E+03 -3.289275E-11
        63  24  2.937897E+03 -7.358421E+02 -1.134751E+04 -2.811234E-09 -9.192016E+03 -2.066396E-10
        63  25  2.937854E+03  5.522967E+01 -3.647658E+03  2.244014E+02 -2.874903E+03 -1.039136E-03
        63  26  3.254489E+03  1.036161E+02 -6.358448E+03  1.235744E+02 -6.033491E+03 -1.200936E-03
        63  27  2.937897E+03 -7.358421E+02 -1.134751E+04  2.274862E+01 -9.192016E+03 -3.368130E-04
        64   1  1.991760E+03  6.979638E+02 -1.475508E+04 -2.144991E+03  1.148834E+04 -3.969228E-02
        64   2  4.437478E+03  7.547252E+02 -2.544370E+04  1.019343E+03  2.431992E+04  3.993042E-02
        64   3  1.992387E+03 -1.207041E+04 -4.770557E+04  4.183745E+03  3.715150E+04  2.503592E-01
        64   4  1.991755E+03  6.979551E+02 -1.475508E+04 -5.297510E-09  1.148834E+04  4.530993E-10
        64   5  4.437477E+03  7.547232E+02 -2.544370E+04 -7.635380E-09  2.431992E+04  7.609527E-10
        64   6  1.992368E+03 -1.207045E+04 -4.770557E+04 -9.434744E-09  3.715150E+04  4.677186E-10
        64   7  1.991760E+03  6.979638E+02 -1.475508E+04  2.144991E+03  1.148834E+04  3.969228E-02
        64   8  4.437478E+03  7.547252E+02 -2.544370E+04 -1.019343E+03  2.431992E+04 -3.993041E-02
        64   9  1.992387E+03 -1.207041E+04 -4.770557E+04 -4.183745E+03  3.715150E+04 -2.503591E-01
        64  10  1.991619E+03  6.979283E+02 -1.475533E+04 -2.144991E+03 -5.188578E-11  6.485125E-11
        64  11  4.436843E+03  7.545664E+02 -2.544481E+04  1.019343E+03 -7.672496E-10  1.892496E-10
        64  12  1.990905E+03 -1.207078E+04 -4.770816E+04  4.183745E+03 -2.763537E-10 -2.051658E-10
        64  13  1.991614E+03  6.979197E+02 -1.475533E+04 -1.163802E-08  1.080117E-09  1.325895E-10
        64  14  4.436842E+03  7.545644E+02 -2.544481E+04 -1.048821E-10 -1.078005E-09  4.981005E-10
        64  15  1.990886E+03 -1.207082E+04 -4.770816E+04  1.196826E-09 -4.084684E-10  3.088278E-11
        64  16  1.991619E+03  6.979283E+02 -1.475533E+04  2.144991E+03 -4.720173E-10  2.022186E-10
        64  17  4.436843E+03  7.545664E+02 -2.544481E+04 -1.019343E+03 -3.017603E-10  8.020648E-10
        64  18  1.990905E+03 -1.207078E+04 -4.770816E+04 -4.183745E+03  1.550673E-09  2.629727E-10
        64  19  1.991760E+03  6.979638E+02 -1.475508E+04 -2.144991E+03 -1.148834E+04  3.969227E-02
        64  20  4.437478E+03  7.547252E+02 -2.544370E+04  1.019343E+03 -2.431992E+04 -3.993041E-02
        64  21  1.992387E+03 -1.207041E+04 -4.770557E+04  4.183745E+03 -3.715150E+04 -2.503591E-01
        64  22  1.991755E+03  6.979551E+02 -1.475508E+04 -9.361840E-09 -1.148834E+04 -1.857200E-10
        64  23  4.437477E+03  7.547232E+02 -2.544370E+04  9.643032E-10 -2.431992E+04  2.399457E-10
        64  24  1.992368E+03 -1.207045E+04 -4.770557E+04  1.059240E-09 -3.715150E+04 -4.014234E-10
        64  25  1.991760E+03  6.979638E+02 -1.475508E+04  2.144991E+03 -1.148834E+04 -3.969228E-02
        64  26  4.437478E+03  7.547252E+02 -2.544370E+04 -1.019343E+03 -2.431992E+04  3.993042E-02
        64  27  1.992387E+03 -1.207041E+04 -4.770557E+04 -4.183745E+03 -3.715150E+04  2.503591E-01
        65   1 -8.897572E+03  9.756767E+03 -5.953789E+04 -2.682636E+04  4.580690E+04 -1.979348E+00
        65   2  1.805577E+04  7.970493E+03 -9.972149E+04  2.625757E+04  9.893814E+04  4.184355E+00
        65   3 -8.885718E+03 -1.817501E+05 -2.214692E+05  7.933861E+04  1.520700E+05  1.943333E+01
        65   4 -8.898345E+03  9.755414E+03 -5.953808E+04 -1.874230E-09  4.580690E+04  3.163566E-10
        65   5  1.805503E+04  7.969197E+03 -9.972168E+04 -4.688695E-09  9.893814E+04  3.103868E-10
        65   6 -8.892478E+03 -1.817619E+05 -2.214709E+05  5.421308E-09  1.520700E+05 -6.032331E-10
        65   7 -8.897572E+03  9.756767E+03 -5.953789E+04  2.682636E+04  4.580690E+04  1.979348E+00
        65   8  1.805577E+04  7.970493E+03 -9.972149E+04 -2.625757E+04  9.893814E+04 -4.184355E+00
        65   9 -8.885718E+03 -1.817501E+05 -2.214692E+05 -7.933861E+04  1.520700E+05 -1.943333E+01
        65  10 -8.899825E+03  9.756203E+03 -5.954183E+04 -2.682636E+04 -9.387513E-10 -2.067192E-11
        65  11  1.804526E+04  7.967865E+03 -9.973989E+04  2.625757E+04  1.517277E-09  5.973971E-10
        65  12 -8.910555E+03 -1.817563E+05 -2.215127E+05  7.933861E+04  5.408432E-10  3.123027E-10
        65  13 -8.900598E+03  9.754851E+03 -5.954203E+04  4.669297E-09  2.101746E-09 -8.166583E-11
        65  14  1.804452E+04  7.966569E+03 -9.974007E+04 -3.634999E-10  1.659006E-09  2.591136E-10
        65  15 -8.917315E+03 -1.817681E+05 -2.215144E+05 -1.213308E-11 -1.320105E-09  1.209418E-10
        65  16 -8.899825E+03  9.756203E+03 -5.954183E+04  2.682636E+04  4.647124E-10 -1.137139E-10
        65  17  1.804526E+04  7.967865E+03 -9.973989E+04 -2.625757E+04  1.447881E-09 -2.098660E-10
        65  18 -8.910555E+03 -1.817563E+05 -2.215127E+05 -7.933861E+04 -2.021156E-11 -4.164825E-11
        65  19 -8.897572E+03  9.756767E+03 -5.953789E+04 -2.682636E+04 -4.580690E+04  1.979348E+00
        65  20  1.805577E+04  7.970493E+03 -9.972149E+04  2.625757E+04 -9.893814E+04 -4.184355E+00
        65  21 -8.885718E+03 -1.817501E+05 -2.214692E+05  7.933861E+04 -1.520700E+05 -1.943333E+01
        65  22 -8.898345E+03  9.755414E+03 -5.953808E+04  4.749445E-09 -4.580690E+04 -4.771716E-10
        65  23  1.805503E+04  7.969197E+03 -9.972168E+04 -2.502951E-09 -9.893814E+04  1.615357E-10
        65  24 -8.892478E+03 -1.817619E+05 -2.214709E+05  4.513323E-09 -1.520700E+05  5.492921E-10
        65  25 -8.897572E+03  9.756767E+03 -5.953789E+04  2.682636E+04 -4.580690E+04 -1.979348E+00
        65  26  1.805577E+04  7.970493E+03 -9.972149E+04 -2.625757E+04 -9.893814E+04  4.184355E+00
        65  27 -8.885718E+03 -1.817501E+05 -2.214692E+05 -7.933861E+04 -1.520700E+05  1.943333E+01
        66   1  1.216454E+05  3.845988E+05  1.192155E+05 -3.892682E+04  5.901536E+03  1.384027E+04
        66   2  1.041854E+05  3.181872E+05  9.701589E+04 -2.372834E+04  1.787203E+04  3.549778E+03
        66   3  8.823919E+04  2.535628E+05  8.190619E+04 -3.918905E+04  1.696203E+04 -6.741246E+03
        66   4 -3.875977E+02 -1.060558E+05 -3.827935E+02 -3.901522E+04  5.903562E+03 -7.460015E+02
        66   5 -1.725629E+01 -1.060547E+05  1.857752E+02 -2.368498E+04  1.787406E+04 -8.291427E+02
        66   6  9.603262E+01 -1.060405E+05  7.586782E+02 -3.901511E+04  1.696014E+04 -9.137765E+02
        66   7 -1.224382E+05 -5.964905E+05 -1.199977E+05 -3.910354E+04  5.905594E+03 -1.532078E+04
        66   8 -1.042324E+05 -5.301298E+05 -9.665602E+04 -2.364163E+04  1.787609E+04 -5.205099E+03
        66   9 -8.805598E+04 -4.655235E+05 -8.039698E+04 -3.884126E+04  1.695825E+04  4.910351E+03
        66  10  1.216453E+05  3.845986E+05  1.192150E+05 -3.892689E+04  7.205540E-10  5.162604E-10
        66  11  1.041851E+05  3.181871E+05  9.701526E+04 -2.372840E+04 -2.661181E-10 -3.033225E-10
        66  12  8.823887E+04  2.535627E+05  8.190556E+04 -3.918896E+04 -1.988162E-09 -6.505316E-10
        66  13 -3.876353E+02 -1.060558E+05 -3.828600E+02 -3.901522E+04  1.261573E-09  5.228962E-12
        66  14 -1.759952E+01 -1.060548E+05  1.851736E+02 -2.368497E+04  2.426281E-09 -1.154956E-10
        66  15  9.572353E+01 -1.060406E+05  7.581362E+02 -3.901510E+04 -1.468356E-09 -6.587738E-10
        66  16 -1.224383E+05 -5.964907E+05 -1.199983E+05 -3.910347E+04 -8.994974E-10 -5.111684E-10
        66  17 -1.042328E+05 -5.301299E+05 -9.665668E+04 -2.364156E+04  5.458678E-10  6.112481E-10
        66  18 -8.805630E+04 -4.655236E+05 -8.039757E+04 -3.884132E+04  8.301218E-10  1.255288E-09
        66  19  1.216454E+05  3.845988E+05  1.192155E+05 -3.892682E+04 -5.901536E+03 -1.384027E+04
        66  20  1.041854E+05  3.181872E+05  9.701589E+04 -2.372834E+04 -1.787203E+04 -3.549778E+03
        66  21  8.823919E+04  2.535628E+05  8.190619E+04 -3.918905E+04 -1.696203E+04  6.741246E+03
        66  22 -3.875977E+02 -1.060558E+05 -3.827935E+02 -3.901522E+04 -5.903562E+03  7.460015E+02
        66  23 -1.725629E+01 -1.060547E+05  1.857752E+02 -2.368498E+04 -1.787406E+04  8.291427E+02
        66  24  9.603262E+01 -1.060405E+05  7.586782E+02 -3.901511E+04 -1.696014E+04  9.137765E+02
        66  25 -1.224382E+05 -5.964905E+05 -1.199977E+05 -3.910354E+04 -5.905594E+03  1.532078E+04
        66  26 -1.042324E+05 -5.301298E+05 -9.665602E+04 -2.364163E+04 -1.787609E+04  5.205099E+03
        66  27 -8.805598E+04 -4.655235E+05 -8.039698E+04 -3.884126E+04 -1.695825E+04 -4.910351E+03
        67   1  7.376264E+04  1.949855E+05  6.930589E+04 -3.941675E+04  1.359118E+04 -3.002436E+03
        67   2  5.768761E+04  1.292935E+05  5.529267E+04 -2.355367E+04  1.089556E+04 -4.466054E+03
        67   3  4.277851E+04  6.407134E+04  4.251980E+04 -3.887330E+04  7.660921E+03 -5.930883E+03
        67   4 -6.462222E+01 -1.059473E+05  1.084605E+03 -3.913156E+04  1.359065E+04 -1.079609E+03
        67   5 -4.568171E+01 -1.061387E+05  2.052688E+03 -2.353951E+04  1.089445E+04 -2.115985E+03
        67   6  1.065504E+03 -1.059386E+05  3.964815E+03 -3.913087E+04  7.659132E+03 -3.153721E+03
        67   7 -7.389813E+04 -4.067959E+05 -6.714251E+04 -3.884649E+04  1.359012E+04  8.422944E+02
        67   8 -5.778278E+04 -3.415195E+05 -5.119083E+04 -2.352535E+04  1.089335E+04  2.332023E+02
        67   9 -4.064949E+04 -2.759217E+05 -3.459201E+04 -3.938837E+04  7.657341E+03 -3.773128E+02
        67  10  7.376244E+04  1.949854E+05  6.930553E+04 -3.941672E+04 -2.847214E-09  5.672436E-10
        67  11  5.768747E+04  1.292935E+05  5.529241E+04 -2.355363E+04 -4.787296E-10 -7.009735E-10
        67  12  4.277844E+04  6.407128E+04  4.251963E+04 -3.887327E+04  1.529111E-10  2.412187E-11
        67  13 -6.482086E+01 -1.059473E+05  1.084255E+03 -3.913155E+04 -1.803563E-09 -2.672621E-12
        67  14 -4.581035E+01 -1.061388E+05  2.052457E+03 -2.353949E+04  3.542974E-10 -2.789234E-10
        67  15  1.065438E+03 -1.059386E+05  3.964686E+03 -3.913085E+04 -4.402067E-11 -1.109385E-09
        67  16 -7.389833E+04 -4.067960E+05 -6.714286E+04 -3.884650E+04 -1.230375E-09 -5.674763E-10
        67  17 -5.778291E+04 -3.415195E+05 -5.119106E+04 -2.352535E+04 -8.129892E-10  1.433020E-09
        67  18 -4.064955E+04 -2.759217E+05 -3.459212E+04 -3.938837E+04 -1.577902E-09  9.790253E-10
        67  19  7.376264E+04  1.949855E+05  6.930589E+04 -3.941675E+04 -1.359118E+04  3.002436E+03
        67  20  5.768761E+04  1.292935E+05  5.529267E+04 -2.355367E+04 -1.089556E+04  4.466054E+03
        67  21  4.277851E+04  6.407134E+04  4.251980E+04 -3.887330E+04 -7.660921E+03  5.930883E+03
        67  22 -6.462222E+01 -1.059473E+05  1.084605E+03 -3.913156E+04 -1.359065E+04  1.079609E+03
        67  23 -4.568171E+01 -1.061387E+05  2.052688E+03 -2.353951E+04 -1.089445E+04  2.115985E+03
        67  24  1.065504E+03 -1.059386E+05  3.964815E+03 -3.913087E+04 -7.659132E+03  3.153721E+03
        67  25 -7.389813E+04 -4.067959E+05 -6.714251E+04 -3.884649E+04 -1.359012E+04 -8.422944E+02
        67  26 -5.778278E+04 -3.415195E+05 -5.119083E+04 -2.352535E+04 -1.089335E+04 -2.332023E+02
        67  27 -4.064949E+04 -2.759217E+05 -3.459201E+04 -3.938837E+04 -7.657341E+03  3.773128E+02
        68   1  2.654675E+04  6.484017E+03  3.002624E+04 -4.144377E+04  5.479761E+03 -6.840361E+03
        68   2  1.064835E+04 -6.115930E+04  1.869623E+04 -2.136056E+04  2.330360E+03 -1.036371E+04
        68   3  1.042106E+04 -1.244722E+05  1.356633E+04 -3.244352E+04  3.622216E+02 -1.388608E+04
        68   4 -7.713444E+02 -1.050247E+05  4.969850E+03 -3.913045E+04  5.477642E+03 -3.876016E+03
        68   5 -6.361395E+02 -1.072671E+05  8.366652E+03 -2.354179E+04  2.328918E+03 -8.334847E+03
        68   6  1.533293E+04 -1.050221E+05  1.861310E+04 -3.911891E+04  3.615334E+02 -1.279304E+04
        68   7 -2.809026E+04 -2.165217E+05 -2.008730E+04 -3.681756E+04  5.475546E+03 -9.121992E+02
        68   8 -1.192076E+04 -1.533729E+05 -1.963040E+03 -2.572286E+04  2.327461E+03 -6.306134E+03
        68   9  2.024494E+04 -8.557154E+04  2.365988E+04 -4.579451E+04  3.608217E+02 -1.169997E+04
        68  10  2.654670E+04  6.483959E+03  3.002610E+04 -4.144374E+04  8.061541E-10  7.014698E-10
        68  11  1.064832E+04 -6.115942E+04  1.869602E+04 -2.136054E+04  1.622131E-09 -4.686235E-10
        68  12  1.042100E+04 -1.244724E+05  1.356597E+04 -3.244352E+04  9.300381E-10  4.627561E-10
        68  13 -7.713806E+02 -1.050247E+05  4.969765E+03 -3.913044E+04 -2.454889E-09  2.335238E-11
        68  14 -6.361640E+02 -1.072672E+05  8.366511E+03 -2.354178E+04  2.377057E-10 -3.457877E-10
        68  15  1.533288E+04 -1.050223E+05  1.861280E+04 -3.911891E+04  1.122127E-09 -1.227543E-09
        68  16 -2.809029E+04 -2.165217E+05 -2.008735E+04 -3.681756E+04  1.637252E-10 -6.875984E-10
        68  17 -1.192077E+04 -1.533729E+05 -1.963125E+03 -2.572285E+04  3.132554E-10  1.407110E-09
        68  18  2.024490E+04 -8.557168E+04  2.365962E+04 -4.579451E+04  1.859784E-10  6.242674E-10
        68  19  2.654675E+04  6.484017E+03  3.002624E+04 -4.144377E+04 -5.479761E+03  6.840361E+03
        68  20  1.064835E+04 -6.115930E+04  1.869623E+04 -2.136056E+04 -2.330360E+03  1.036371E+04
        68  21  1.042106E+04 -1.244722E+05  1.356633E+04 -3.244352E+04 -3.622216E+02  1.388608E+04
        68  22 -7.713444E+02 -1.050247E+05  4.969850E+03 -3.913045E+04 -5.477642E+03  3.876016E+03
        68  23 -6.361395E+02 -1.072671E+05  8.366652E+03 -2.354179E+04 -2.328918E+03  8.334847E+03
        68  24  1.533293E+04 -1.050221E+05  1.861310E+04 -3.911891E+04 -3.615334E+02  1.279304E+04
        68  25 -2.809026E+04 -2.165217E+05 -2.008730E+04 -3.681756E+04 -5.475546E+03  9.121992E+02
        68  26 -1.192076E+04 -1.533729E+05 -1.963040E+03 -2.572286E+04 -2.327461E+03  6.306134E+03
        68  27  2.024494E+04 -8.557154E+04  2.365988E+04 -4.579451E+04 -3.608217E+02  1.169997E+04
        69   1 -1.332119E+05 -3.279750E+04 -1.118620E+04 -5.402763E+04 -5.689365E+03 -2.066346E+03
        69   2 -1.266024E+05 -2.053163E+04 -4.177702E+03 -5.108746E+04 -3.418884E+03 -1.230401E+03
        69   3 -1.202219E+05 -1.800587E+04 -7.783159E+02 -4.945742E+04 -1.023022E+03 -7.286328E+02
        69   4 -1.260975E+05 -2.741766E+04 -8.718109E+03 -4.931347E+04 -5.575532E+03 -2.023691E+03
        69   5 -1.255419E+05 -1.926275E+04 -3.735706E+03 -4.989929E+04 -3.552826E+03 -1.280635E+03
        69   6 -1.251663E+05 -2.079890E+04 -2.166107E+03 -5.179531E+04 -1.404757E+03 -8.717770E+02
        69   7 -1.189831E+05 -2.203779E+04 -6.250040E+03 -4.459929E+04 -5.461699E+03 -1.981034E+03
        69   8 -1.244815E+05 -1.799386E+04 -3.293710E+03 -4.871111E+04 -3.686769E+03 -1.330869E+03
        69   9 -1.301107E+05 -2.359191E+04 -3.553904E+03 -5.413319E+04 -1.786489E+03 -1.014919E+03
        69  10 -1.332119E+05 -3.279751E+04 -1.118627E+04 -5.402764E+04  3.523810E-10 -2.981268E-11
        69  11 -1.266024E+05 -2.053164E+04 -4.177727E+03 -5.108746E+04 -1.981473E-09 -2.725082E-10
        69  12 -1.202219E+05 -1.800587E+04 -7.783189E+02 -4.945742E+04 -4.161518E-09  1.951658E-10
        69  13 -1.260975E+05 -2.741767E+04 -8.718175E+03 -4.931348E+04  5.451432E-11 -1.615620E-10
        69  14 -1.255419E+05 -1.926275E+04 -3.735732E+03 -4.989929E+04  1.193593E-09 -2.482983E-10
        69  15 -1.251663E+05 -2.079890E+04 -2.166112E+03 -5.179531E+04 -9.839439E-10  3.773114E-10
        69  16 -1.189832E+05 -2.203780E+04 -6.250103E+03 -4.459930E+04 -1.338827E-09 -2.943961E-10
        69  17 -1.244815E+05 -1.799386E+04 -3.293739E+03 -4.871112E+04 -4.582651E-10 -2.173206E-10
        69  18 -1.301108E+05 -2.359191E+04 -3.553911E+03 -5.413319E+04  3.033920E-09  4.528060E-10
        69  19 -1.332119E+05 -3.279750E+04 -1.118620E+04 -5.402763E+04  5.689365E+03  2.066346E+03
        69  20 -1.266024E+05 -2.053163E+04 -4.177702E+03 -5.108746E+04  3.418884E+03  1.230401E+03
        69  21 -1.202219E+05 -1.800587E+04 -7.783159E+02 -4.945742E+04  1.023022E+03  7.286328E+02
        69  22 -1.260975E+05 -2.741766E+04 -8.718109E+03 -4.931347E+04  5.575532E+03  2.023691E+03
        69  23 -1.255419E+05 -1.926275E+04 -3.735706E+03 -4.989929E+04  3.552826E+03  1.280635E+03
        69  24 -1.251663E+05 -2.079890E+04 -2.166107E+03 -5.179531E+04  1.404757E+03  8.717770E+02
        69  25 -1.189831E+05 -2.203779E+04 -6.250040E+03 -4.459929E+04  5.461699E+03  1.981034E+03
        69  26 -1.244815E+05 -1.799386E+04 -3.293710E+03 -4.871111E+04  3.686769E+03  1.330869E+03
        69  27 -1.301107E+05 -2.359191E+04 -3.553904E+03 -5.413319E+04  1.786489E+03  1.014919E+03
        70   1 -1.122388E+05 -1.698311E+04  1.402402E+03 -4.806068E+04 -7.380883E+02 -9.326054E+02
        70   2 -1.061738E+05 -1.230078E+04  4.066476E+03 -4.454295E+04 -1.297770E+02 -1.141776E+03
        70   3 -9.765073E+04 -1.085616E+04  6.243376E+03 -4.401659E+04  4.845906E+02 -1.367042E+03
        70   4 -1.248858E+05 -2.154121E+04 -1.735089E+03 -5.135262E+04 -1.016349E+03 -1.036952E+03
        70   5 -1.260824E+05 -1.968435E+04 -8.859807E+02 -4.994662E+04 -4.199838E+02 -1.250607E+03
        70   6 -1.248186E+05 -2.106288E+04 -5.145978E+02 -5.153204E+04  1.824304E+02 -1.480359E+03
        70   7 -1.375327E+05 -2.609929E+04 -4.872587E+03 -5.464450E+04 -1.294603E+03 -1.141297E+03
        70   8 -1.459905E+05 -2.706786E+04 -5.838441E+03 -5.535012E+04 -7.101789E+02 -1.359434E+03
        70   9 -1.519856E+05 -3.126946E+04 -7.272567E+03 -5.904713E+04 -1.197130E+02 -1.593669E+03
        70  10 -1.122388E+05 -1.698311E+04  1.402399E+03 -4.806068E+04 -5.066722E-10  7.248367E-10
        70  11 -1.061738E+05 -1.230078E+04  4.066474E+03 -4.454295E+04 -5.963800E-10 -1.488710E-10
        70  12 -9.765074E+04 -1.085616E+04  6.243372E+03 -4.401659E+04 -1.279070E-09 -4.002396E-10
        70  13 -1.248858E+05 -2.154121E+04 -1.735093E+03 -5.135262E+04 -2.267910E-09  3.261559E-10
        70  14 -1.260824E+05 -1.968435E+04 -8.859840E+02 -4.994662E+04 -4.842819E-10 -2.777215E-10
        70  15 -1.248186E+05 -2.106288E+04 -5.146019E+02 -5.153204E+04 -3.597996E-09 -1.617235E-10
        70  16 -1.375327E+05 -2.609929E+04 -4.872592E+03 -5.464450E+04  8.068611E-10 -7.827017E-11
        70  17 -1.459905E+05 -2.706786E+04 -5.838446E+03 -5.535012E+04 -6.897948E-10 -4.310019E-10
        70  18 -1.519856E+05 -3.126947E+04 -7.272572E+03 -5.904713E+04 -2.530453E-10  8.432313E-11
        70  19 -1.122388E+05 -1.698311E+04  1.402402E+03 -4.806068E+04  7.380883E+02  9.326054E+02
        70  20 -1.061738E+05 -1.230078E+04  4.066476E+03 -4.454295E+04  1.297770E+02  1.141776E+03
        70  21 -9.765073E+04 -1.085616E+04  6.243376E+03 -4.401659E+04 -4.845906E+02  1.367042E+03
        70  22 -1.248858E+05 -2.154121E+04 -1.735089E+03 -5.135262E+04  1.016349E+03  1.036952E+03
        70  23 -1.260824E+05 -1.968435E+04 -8.859807E+02 -4.994662E+04  4.199838E+02  1.250607E+03
        70  24 -1.248186E+05 -2.106288E+04 -5.145978E+02 -5.153204E+04 -1.824304E+02  1.480359E+03
        70  25 -1.375327E+05 -2.609929E+04 -4.872587E+03 -5.464450E+04  1.294603E+03  1.141297E+03
        70  26 -1.459905E+05 -2.706786E+04 -5.838441E+03 -5.535012E+04  7.101789E+02  1.359434E+03
        70  27 -1.519856E+05 -3.126946E+04 -7.272567E+03 -5.904713E+04  1.197130E+02  1.593669E+03
        71   1 -9.068184E+04 -8.390860E+03  8.116306E+03 -4.217005E+04  6.420022E+02 -1.576991E+03
        71   2 -8.468650E+04 -4.263389E+03  1.006194E+04 -3.861243E+04  9.255934E+02 -1.927824E+03
        71   3 -7.601115E+04 -2.886614E+03  1.189842E+04 -3.815558E+04  1.209394E+03 -2.279120E+03
        71   4 -1.247921E+05 -2.111405E+04 -4.089504E+02 -5.149675E+04  3.449922E+02 -1.688382E+03
        71   5 -1.261300E+05 -1.972231E+04 -2.653842E+02 -4.995253E+04  6.282287E+02 -2.039360E+03
        71   6 -1.247876E+05 -2.108119E+04 -2.306554E+02 -5.150914E+04  9.116723E+02 -2.390803E+03
        71   7 -1.589016E+05 -3.383729E+04 -8.934388E+03 -6.082308E+04  4.799723E+01 -1.799767E+03
        71   8 -1.675721E+05 -3.518122E+04 -1.059293E+04 -6.129204E+04  3.308835E+02 -2.150890E+03
        71   9 -1.735620E+05 -3.927571E+04 -1.235999E+04 -6.486182E+04  6.139746E+02 -2.502477E+03
        71  10 -9.068184E+04 -8.390862E+03  8.116301E+03 -4.217005E+04 -1.910758E-09 -1.765316E-10
        71  11 -8.468650E+04 -4.263393E+03  1.006193E+04 -3.861243E+04 -1.172598E-09  1.054965E-10
        71  12 -7.601115E+04 -2.886620E+03  1.189841E+04 -3.815557E+04  1.598316E-09  2.904467E-10
        71  13 -1.247921E+05 -2.111406E+04 -4.089560E+02 -5.149675E+04 -2.143239E-09  9.934527E-11
        71  14 -1.261300E+05 -1.972231E+04 -2.653927E+02 -4.995253E+04 -3.440884E-09  3.516425E-10
        71  15 -1.247876E+05 -2.108120E+04 -2.306678E+02 -5.150914E+04 -1.517184E-09  1.347788E-10
        71  16 -1.589016E+05 -3.383730E+04 -8.934394E+03 -6.082308E+04  1.965629E-10  3.968828E-10
        71  17 -1.675721E+05 -3.518123E+04 -1.059294E+04 -6.129204E+04 -3.246183E-10  4.541594E-10
        71  18 -1.735620E+05 -3.927572E+04 -1.236000E+04 -6.486182E+04 -1.574835E-10  8.507648E-11
        71  19 -9.068184E+04 -8.390860E+03  8.116306E+03 -4.217005E+04 -6.420022E+02  1.576991E+03
        71  20 -8.468650E+04 -4.263389E+03  1.006194E+04 -3.861243E+04 -9.255934E+02  1.927824E+03
        71  21 -7.601115E+04 -2.886614E+03  1.189842E+04 -3.815558E+04 -1.209394E+03  2.279120E+03
        71  22 -1.247921E+05 -2.111405E+04 -4.089504E+02 -5.149675E+04 -3.449922E+02  1.688382E+03
        71  23 -1.261300E+05 -1.972231E+04 -2.653842E+02 -4.995253E+04 -6.282287E+02  2.039360E+03
        71  24 -1.247876E+05 -2.108119E+04 -2.306554E+02 -5.150914E+04 -9.116723E+02  2.390803E+03
        71  25 -1.589016E+05 -3.383729E+04 -8.934388E+03 -6.082308E+04 -4.799723E+01  1.799767E+03
        71  26 -1.675721E+05 -3.518122E+04 -1.059293E+04 -6.129204E+04 -3.308835E+02  2.150890E+03
        71  27 -1.735620E+05 -3.927571E+04 -1.235999E+04 -6.486182E+04 -6.139746E+02  2.502477E+03
        72   1 -6.914155E+04 -3.232072E+02  1.364917E+04 -3.628202E+04  1.335899E+03 -2.498073E+03
        72   2 -6.315893E+04  3.757172E+03  1.535272E+04 -3.272991E+04  1.654242E+03 -2.835794E+03
        72   3 -5.449598E+04  5.122759E+03  1.692961E+04 -3.227969E+04  1.972488E+03 -3.173128E+03
        72   4 -1.247895E+05 -2.108360E+04 -2.440259E+02 -5.150565E+04  1.038611E+03 -2.609601E+03
        72   5 -1.261296E+05 -1.972592E+04 -3.378171E+02 -4.995484E+04  1.357213E+03 -2.947241E+03
        72   6 -1.247895E+05 -2.108307E+04 -5.585093E+02 -5.150590E+04  1.675719E+03 -3.284494E+03
        72   7 -1.804340E+05 -4.184362E+04 -1.413734E+04 -6.672792E+04  7.413545E+02 -2.721119E+03
        72   8 -1.890961E+05 -4.320869E+04 -1.602862E+04 -6.717814E+04  1.060218E+03 -3.058675E+03
        72   9 -1.950784E+05 -4.728866E+04 -1.804706E+04 -7.073019E+04  1.378985E+03 -3.395847E+03
        72  10 -6.914155E+04 -3.232144E+02  1.364916E+04 -3.628202E+04 -5.661149E-10  1.773317E-10
        72  11 -6.315894E+04  3.757163E+03  1.535270E+04 -3.272991E+04 -1.727518E-10  2.012303E-11
        72  12 -5.449599E+04  5.122747E+03  1.692958E+04 -3.227968E+04 -1.291414E-10 -4.745326E-10
        72  13 -1.247895E+05 -2.108361E+04 -2.440408E+02 -5.150565E+04 -1.863259E-11  5.756003E-11
        72  14 -1.261296E+05 -1.972593E+04 -3.378369E+02 -4.995484E+04 -1.060909E-09 -2.239025E-11
        72  15 -1.247895E+05 -2.108309E+04 -5.585349E+02 -5.150589E+04 -1.214636E-09  6.433738E-11
        72  16 -1.804340E+05 -4.184363E+04 -1.413736E+04 -6.672792E+04  5.435187E-12 -5.201903E-11
        72  17 -1.890961E+05 -4.320870E+04 -1.602864E+04 -6.717814E+04 -3.920593E-10  4.189688E-11
        72  18 -1.950784E+05 -4.728867E+04 -1.804709E+04 -7.073019E+04  2.078136E-09  4.505606E-11
        72  19 -6.914155E+04 -3.232072E+02  1.364917E+04 -3.628202E+04 -1.335899E+03  2.498073E+03
        72  20 -6.315893E+04  3.757172E+03  1.535272E+04 -3.272991E+04 -1.654242E+03  2.835794E+03
        72  21 -5.449598E+04  5.122759E+03  1.692961E+04 -3.227969E+04 -1.972488E+03  3.173128E+03
        72  22 -1.247895E+05 -2.108360E+04 -2.440259E+02 -5.150565E+04 -1.038611E+03  2.609601E+03
        72  23 -1.261296E+05 -1.972592E+04 -3.378171E+02 -4.995484E+04 -1.357213E+03  2.947241E+03
        72  24 -1.247895E+05 -2.108307E+04 -5.585093E+02 -5.150590E+04 -1.675719E+03  3.284494E+03
        72  25 -1.804340E+05 -4.184362E+04 -1.413734E+04 -6.672792E+04 -7.413545E+02  2.721119E+03
        72  26 -1.890961E+05 -4.320869E+04 -1.602862E+04 -6.717814E+04 -1.060218E+03  3.058675E+03
        72  27 -1.950784E+05 -4.728866E+04 -1.804706E+04 -7.073019E+04 -1.378985E+03  3.395847E+03
        73   1 -4.765874E+04  7.682064E+03  1.851688E+04 -3.042470E+04  2.166747E+03 -3.365886E+03
        73   2 -4.165376E+04  1.175987E+04  1.973735E+04 -2.687416E+04  2.965342E+03 -3.521928E+03
        73   3 -3.306467E+04  1.305152E+04  2.045494E+04 -2.641928E+04  3.763606E+03 -3.676907E+03
        73   4 -1.248085E+05 -2.107924E+04 -7.305587E+02 -5.151208E+04  1.870139E+03 -3.477204E+03
        73   5 -1.261044E+05 -1.971327E+04 -1.301518E+03 -4.995412E+04  2.669422E+03 -3.633009E+03
        73   6 -1.248164E+05 -2.113357E+04 -2.375953E+03 -5.149179E+04  3.468370E+03 -3.787755E+03
        73   7 -2.019522E+05 -4.984003E+04 -1.997838E+04 -7.259701E+04  1.573572E+03 -3.588506E+03
        73   8 -2.105480E+05 -5.118594E+04 -2.234094E+04 -7.303124E+04  2.373547E+03 -3.744074E+03
        73   9 -2.165603E+05 -5.531825E+04 -2.520761E+04 -7.656106E+04  3.173180E+03 -3.898584E+03
        73  10 -4.765875E+04  7.682051E+03  1.851685E+04 -3.042469E+04  5.570307E-10 -4.592664E-10
        73  11 -4.165377E+04  1.175985E+04  1.973731E+04 -2.687415E+04 -3.934529E-10 -4.148060E-10
        73  12 -3.306469E+04  1.305150E+04  2.045488E+04 -2.641927E+04 -3.644668E-09 -1.058821E-09
        73  13 -1.248085E+05 -2.107925E+04 -7.305880E+02 -5.151208E+04 -1.155017E-09  1.513890E-10
        73  14 -1.261044E+05 -1.971329E+04 -1.301556E+03 -4.995411E+04 -1.381774E-09 -6.406258E-10
        73  15 -1.248164E+05 -2.113359E+04 -2.376003E+03 -5.149178E+04 -4.329375E-09 -1.196199E-09
        73  16 -2.019522E+05 -4.984004E+04 -1.997840E+04 -7.259700E+04  3.424503E-09 -3.740614E-11
        73  17 -2.105481E+05 -5.118596E+04 -2.234098E+04 -7.303123E+04 -1.547950E-09 -8.610786E-10
        73  18 -2.165603E+05 -5.531827E+04 -2.520765E+04 -7.656105E+04 -7.139586E-09 -2.055896E-09
        73  19 -4.765874E+04  7.682064E+03  1.851688E+04 -3.042470E+04 -2.166747E+03  3.365886E+03
        73  20 -4.165376E+04  1.175987E+04  1.973735E+04 -2.687416E+04 -2.965342E+03  3.521928E+03
        73  21 -3.306467E+04  1.305152E+04  2.045494E+04 -2.641928E+04 -3.763606E+03  3.676907E+03
        73  22 -1.248085E+05 -2.107924E+04 -7.305587E+02 -5.151208E+04 -1.870139E+03  3.477204E+03
        73  23 -1.261044E+05 -1.971327E+04 -1.301518E+03 -4.995412E+04 -2.669422E+03  3.633009E+03
        73  24 -1.248164E+05 -2.113357E+04 -2.375953E+03 -5.149179E+04 -3.468370E+03  3.787755E+03
        73  25 -2.019522E+05 -4.984003E+04 -1.997838E+04 -7.259701E+04 -1.573572E+03  3.588506E+03
        73  26 -2.105480E+05 -5.118594E+04 -2.234094E+04 -7.303124E+04 -2.373547E+03  3.744074E+03
        73  27 -2.165603E+05 -5.531825E+04 -2.520761E+04 -7.656106E+04 -3.173180E+03  3.898584E+03
        74   1 -2.622555E+04  1.557488E+04  2.143189E+04 -2.477575E+04  4.308674E+03 -3.738196E+03
        74   2 -2.010119E+04  1.983780E+04  2.067830E+04 -2.101619E+04  7.305093E+03 -3.065502E+03
        74   3 -1.206649E+04  2.028446E+04  1.751325E+04 -2.017329E+04  1.029751E+04 -2.381945E+03
        74   4 -1.249217E+05 -2.104240E+04 -3.151164E+03 -5.157249E+04  4.010703E+03 -3.850085E+03
        74   5 -1.259426E+05 -1.960294E+04 -5.689051E+03 -4.993807E+04  7.014697E+03 -3.174576E+03
        74   6 -1.250548E+05 -2.198146E+04 -1.064471E+04 -5.122038E+04  1.001465E+04 -2.488220E+03
        74   7 -2.236083E+05 -5.765905E+04 -2.773497E+04 -7.836539E+04  3.712784E+03 -3.961954E+03
        74   8 -2.317729E+05 -5.904285E+04 -3.205721E+04 -7.885542E+04  6.724355E+03 -3.283629E+03
        74   9 -2.380302E+05 -6.424633E+04 -3.880353E+04 -8.226222E+04  9.731843E+03 -2.594473E+03
        74  10 -2.622558E+04  1.557486E+04  2.143183E+04 -2.477573E+04 -7.741038E-09 -1.429627E-09
        74  11 -2.010125E+04  1.983777E+04  2.067818E+04 -2.101617E+04 -8.839586E-10  1.739313E-10
        74  12 -1.206661E+04  2.028442E+04  1.751304E+04 -2.017327E+04  1.933958E-10  8.418837E-10
        74  13 -1.249217E+05 -2.104242E+04 -3.151222E+03 -5.157248E+04 -3.832047E-09 -1.206870E-09
        74  14 -1.259427E+05 -1.960296E+04 -5.689163E+03 -4.993805E+04 -1.650002E-10  8.247220E-10
        74  15 -1.250550E+05 -2.198150E+04 -1.064491E+04 -5.122036E+04 -2.206145E-09 -1.611834E-10
        74  16 -2.236083E+05 -5.765907E+04 -2.773503E+04 -7.836538E+04 -3.200617E-09 -1.017125E-09
        74  17 -2.317729E+05 -5.904288E+04 -3.205732E+04 -7.885540E+04 -1.511951E-09  2.108170E-10
        74  18 -2.380303E+05 -6.424636E+04 -3.880372E+04 -8.226220E+04  4.497802E-10 -3.796562E-10
        74  19 -2.622555E+04  1.557488E+04  2.143189E+04 -2.477575E+04 -4.308674E+03  3.738196E+03
        74  20 -2.010119E+04  1.983780E+04  2.067830E+04 -2.101619E+04 -7.305093E+03  3.065502E+03
        74  21 -1.206649E+04  2.028446E+04  1.751325E+04 -2.017329E+04 -1.029751E+04  2.381945E+03
        74  22 -1.249217E+05 -2.104240E+04 -3.151164E+03 -5.157249E+04 -4.010703E+03  3.850085E+03
        74  23 -1.259426E+05 -1.960294E+04 -5.689051E+03 -4.993807E+04 -7.014697E+03  3.174576E+03
        74  24 -1.250548E+05 -2.198146E+04 -1.064471E+04 -5.122038E+04 -1.001465E+04  2.488220E+03
        74  25 -2.236083E+05 -5.765905E+04 -2.773497E+04 -7.836539E+04 -3.712784E+03  3.961954E+03
        74  26 -2.317729E+05 -5.904285E+04 -3.205721E+04 -7.885542E+04 -6.724355E+03  3.283629E+03
        74  27 -2.380302E+05 -6.424633E+04 -3.880353E+04 -8.226222E+04 -9.731843E+03  2.594473E+03
        75   1 -4.361659E+03  2.260297E+04  1.597009E+04 -2.124472E+04  1.242258E+04 -1.874307E+03
        75   2  1.647619E+03  2.974598E+04  6.799396E+03 -1.400353E+04  2.512083E+04  2.481013E+03
        75   3  3.166180E+03  1.936045E+04 -1.573103E+04 -6.438655E+03  3.774123E+04  7.044531E+03
        75   4 -1.258449E+05 -2.050292E+04 -1.392039E+04 -5.220219E+04  1.207617E+04 -2.004408E+03
        75   5 -1.245478E+05 -1.855261E+04 -2.488050E+04 -4.979958E+04  2.492609E+04  2.407726E+03
        75   6 -1.277730E+05 -3.416324E+04 -4.932266E+04 -4.707334E+04  3.769803E+04  7.027857E+03
        75   7 -2.473143E+05 -6.360838E+04 -4.381213E+04 -8.315447E+04  1.172984E+04 -2.134484E+03
        75   8 -2.507279E+05 -6.685003E+04 -5.656173E+04 -8.558905E+04  2.473140E+04  2.334456E+03
        75   9 -2.586953E+05 -8.768484E+04 -8.291570E+04 -8.769992E+04  3.765485E+04  7.011187E+03
        75  10 -4.361825E+03  2.260293E+04  1.596979E+04 -2.124470E+04 -3.718465E-10 -5.882016E-10
        75  11  1.646940E+03  2.974580E+04  6.798198E+03 -1.400358E+04  1.231395E-09 -2.684329E-11
        75  12  3.164637E+03  1.936001E+04 -1.573380E+04 -6.438869E+03  5.342095E-09  3.110584E-09
        75  13 -1.258451E+05 -2.050296E+04 -1.392067E+04 -5.220217E+04 -4.485123E-11 -7.802821E-10
        75  14 -1.245485E+05 -1.855278E+04 -2.488168E+04 -4.979963E+04 -1.202686E-10  3.277579E-10
        75  15 -1.277746E+05 -3.416367E+04 -4.932542E+04 -4.707356E+04  3.577905E-09  1.432915E-09
        75  16 -2.473144E+05 -6.360842E+04 -4.381239E+04 -8.315445E+04  8.296305E-10 -4.295911E-10
        75  17 -2.507285E+05 -6.685020E+04 -5.656289E+04 -8.558909E+04 -1.415743E-10 -7.840659E-10
        75  18 -2.586969E+05 -8.768527E+04 -8.291846E+04 -8.770013E+04  2.442856E-09  1.461888E-09
        75  19 -4.361659E+03  2.260297E+04  1.597009E+04 -2.124472E+04 -1.242258E+04  1.874307E+03
        75  20  1.647619E+03  2.974598E+04  6.799396E+03 -1.400353E+04 -2.512083E+04 -2.481013E+03
        75  21  3.166180E+03  1.936045E+04 -1.573103E+04 -6.438655E+03 -3.774123E+04 -7.044531E+03
        75  22 -1.258449E+05 -2.050292E+04 -1.392039E+04 -5.220219E+04 -1.207617E+04  2.004408E+03
        75  23 -1.245478E+05 -1.855261E+04 -2.488050E+04 -4.979958E+04 -2.492609E+04 -2.407726E+03
        75  24 -1.277730E+05 -3.416324E+04 -4.932266E+04 -4.707334E+04 -3.769803E+04 -7.027857E+03
        75  25 -2.473143E+05 -6.360838E+04 -4.381213E+04 -8.315447E+04 -1.172984E+04  2.134484E+03
        75  26 -2.507279E+05 -6.685003E+04 -5.656173E+04 -8.558905E+04 -2.473140E+04 -2.334456E+03
        75  27 -2.586953E+05 -8.768484E+04 -8.291570E+04 -8.769992E+04 -3.765485E+04 -7.011187E+03
        76   1  2.519247E+04  1.984963E+04 -2.661201E+04 -4.374878E+04  4.746511E+04  9.876370E+03
        76   2  2.080084E+04  6.696828E+04 -6.943339E+04  1.286247E+04  1.017826E+05  3.063394E+04
        76   3 -6.284943E+04 -8.721482E+04 -2.071670E+05  1.177566E+05  1.545000E+05  5.565662E+04
        76   4 -1.357537E+05 -1.300075E+04 -6.169153E+04 -5.975659E+04  4.610511E+04  9.367896E+03
        76   5 -1.091373E+05 -6.484440E+03 -1.065888E+05 -4.841369E+04  1.035674E+05  3.129927E+04
        76   6 -1.624287E+05 -2.019307E+05 -2.489060E+05  1.121966E+04  1.594318E+05  5.748558E+04
        76   7 -2.966731E+05 -4.585155E+04 -9.677207E+04 -7.576264E+04  4.474550E+04  8.859418E+03
        76   8 -2.390561E+05 -7.992775E+04 -1.437452E+05 -1.096756E+05  1.053518E+05  3.196427E+04
        76   9 -2.619820E+05 -3.166024E+05 -2.906426E+05 -9.529258E+04  1.643626E+05  5.931266E+04
        76  10  2.519002E+04  1.984892E+04 -2.661643E+04 -4.374916E+04 -1.389593E-09  1.161668E-09
        76  11  2.078946E+04  6.696449E+04 -6.945462E+04  1.285996E+04 -9.631112E-10 -1.849484E-09
        76  12 -6.287590E+04 -8.722456E+04 -2.072177E+05  1.177497E+05  1.146307E-09  4.130760E-11
        76  13 -1.357560E+05 -1.300141E+04 -6.169569E+04 -5.975694E+04  4.441458E-09  1.817305E-09
        76  14 -1.091491E+05 -6.488373E+03 -1.066108E+05 -4.841630E+04  1.612274E-09 -2.223395E-10
        76  15 -1.624569E+05 -2.019411E+05 -2.489600E+05  1.121228E+04  2.735134E-10  8.159928E-10
        76  16 -2.966753E+05 -4.585218E+04 -9.677598E+04 -7.576296E+04  8.207954E-09  2.922164E-09
        76  17 -2.390683E+05 -7.993183E+04 -1.437680E+05 -1.096783E+05  2.215632E-09  9.513704E-10
        76  18 -2.620120E+05 -3.166135E+05 -2.907000E+05 -9.530044E+04  1.783421E-11 -9.728846E-10
        76  19  2.519247E+04  1.984963E+04 -2.661201E+04 -4.374878E+04 -4.746511E+04 -9.876370E+03
        76  20  2.080084E+04  6.696828E+04 -6.943339E+04  1.286247E+04 -1.017826E+05 -3.063394E+04
        76  21 -6.284943E+04 -8.721482E+04 -2.071670E+05  1.177566E+05 -1.545000E+05 -5.565662E+04
        76  22 -1.357537E+05 -1.300075E+04 -6.169153E+04 -5.975659E+04 -4.610511E+04 -9.367896E+03
        76  23 -1.091373E+05 -6.484440E+03 -1.065888E+05 -4.841369E+04 -1.035674E+05 -3.129927E+04
        76  24 -1.624287E+05 -2.019307E+05 -2.489060E+05  1.121966E+04 -1.594318E+05 -5.748558E+04
        76  25 -2.966731E+05 -4.585155E+04 -9.677207E+04 -7.576264E+04 -4.474550E+04 -8.859418E+03
        76  26 -2.390561E+05 -7.992775E+04 -1.437452E+05 -1.096756E+05 -1.053518E+05 -3.196427E+04
        76  27 -2.619820E+05 -3.166024E+05 -2.906426E+05 -9.529258E+04 -1.643626E+05 -5.931266E+04
        77   1  1.994069E+05  1.982673E+06  2.039705E+05 -5.171261E+04  7.052081E+03  1.017100E+05
        77   2  1.268943E+05  1.974653E+06  1.377119E+05 -2.276614E+04  2.431822E+04  5.907210E+04
        77   3  1.106902E+05  1.986260E+06  1.132376E+05  7.352338E+03  3.073431E+04  1.643568E+04
        77   4  8.642989E+04  1.523961E+06  9.690655E+04  1.790781E+03  7.061983E+03  6.511789E+04
        77   5  1.746759E+04  1.515689E+06  4.866431E+04  1.197595E+03  2.432405E+04  3.998036E+04
        77   6  1.800892E+03  1.524022E+06  3.009062E+04  1.776939E+03  3.073645E+04  1.484331E+04
        77   7 -2.655055E+04  1.065452E+06 -1.016515E+04  5.525450E+04  7.065602E+03  2.855251E+04
        77   8 -9.196929E+04  1.056928E+06 -4.039157E+04  2.514327E+04  2.432842E+04  2.090237E+04
        77   9 -1.071002E+05  1.061992E+06 -5.306466E+04 -3.794196E+03  3.073863E+04  1.325208E+04
        77  10  1.994041E+05  1.982662E+06  2.039511E+05 -5.171319E+04 -1.530614E-10 -5.398911E-10
        77  11  1.268927E+05  1.974649E+06  1.377043E+05 -2.276729E+04  7.324972E-10 -4.218542E-11
        77  12  1.106891E+05  1.986259E+06  1.132353E+05  7.351932E+03  4.313884E-10  7.001361E-10
        77  13  8.642870E+04  1.523957E+06  9.689851E+04  1.790410E+03 -1.181690E-10  8.008190E-11
        77  14  1.746652E+04  1.515687E+06  4.866021E+04  1.196813E+03 -1.234265E-09 -1.424902E-10
        77  15  1.799818E+03  1.524022E+06  3.008843E+04  1.776572E+03  1.478633E-09 -2.752278E-10
        77  16 -2.655083E+04  1.065452E+06 -1.016677E+04  5.525433E+04  8.995990E-10  5.269883E-10
        77  17 -9.197004E+04  1.056928E+06 -4.039350E+04  2.514286E+04  3.726165E-10 -3.221191E-10
        77  18 -1.071013E+05  1.061991E+06 -5.306677E+04 -3.794524E+03 -9.203148E-10 -5.922612E-10
        77  19  1.994069E+05  1.982673E+06  2.039705E+05 -5.171261E+04 -7.052081E+03 -1.017100E+05
        77  20  1.268943E+05  1.974653E+06  1.377119E+05 -2.276614E+04 -2.431822E+04 -5.907210E+04
        77  21  1.106902E+05  1.986260E+06  1.132376E+05  7.352338E+03 -3.073431E+04 -1.643568E+04
        77  22  8.642989E+04  1.523961E+06  9.690655E+04  1.790781E+03 -7.061983E+03 -6.511789E+04
        77  23  1.746759E+04  1.515689E+06  4.866431E+04  1.197595E+03 -2.432405E+04 -3.998036E+04
        77  24  1.800892E+03  1.524022E+06  3.009062E+04  1.776939E+03 -3.073645E+04 -1.484331E+04
        77  25 -2.655055E+04  1.065452E+06 -1.016515E+04  5.525450E+04 -7.065602E+03 -2.855251E+04
        77  26 -9.196929E+04  1.056928E+06 -4.039157E+04  2.514327E+04 -2.432842E+04 -2.090237E+04
        77  27 -1.071002E+05  1.061992E+06 -5.306466E+04 -3.794196E+03 -3.073863E+04 -1.325208E+04
        78   1  1.125714E+05  1.984036E+06  1.084604E+05 -5.360075E+02  3.120899E+04  1.373977E+04
        78   2  1.102109E+05  1.984616E+06  1.038180E+05  1.257888E+03  3.225601E+04  2.200074E+01
        78   3  1.136869E+05  1.988460E+06  1.095525E+05  3.575727E+03  3.147256E+04 -1.369639E+04
        78   4  3.562681E+03  1.520938E+06  2.559450E+04  1.634096E+03  3.121184E+04  1.057686E+04
        78   5  9.336066E+02  1.519561E+06  2.155665E+04  1.371898E+03  3.225819E+04 -1.828903E+02
        78   6  3.631252E+03  1.520937E+06  2.585007E+04  1.633661E+03  3.147350E+04 -1.094322E+04
        78   7 -1.054579E+05  1.058049E+06 -5.727951E+04  3.802552E+03  3.121468E+04  7.416230E+03
        78   8 -1.083555E+05  1.054716E+06 -6.071274E+04  1.485837E+03  3.226038E+04 -3.876328E+02
        78   9 -1.064364E+05  1.053627E+06 -5.786072E+04 -3.068849E+02  3.147442E+04 -8.192047E+03
        78  10  1.125703E+05  1.984036E+06  1.084582E+05 -5.363526E+02  6.910956E-10  1.328776E-10
        78  11  1.102098E+05  1.984616E+06  1.038161E+05  1.257888E+03  1.615284E-09 -1.505200E-10
        78  12  1.136858E+05  1.988460E+06  1.095503E+05  3.576074E+03 -3.705728E-10  1.104545E-09
        78  13  3.561605E+03  1.520938E+06  2.559246E+04  1.633830E+03 -8.872197E-10 -4.686897E-13
        78  14  9.324884E+02  1.519561E+06  2.155470E+04  1.371903E+03  1.301020E-10 -4.519192E-10
        78  15  3.630155E+03  1.520937E+06  2.584798E+04  1.633938E+03  1.464845E-09 -5.905237E-10
        78  16 -1.054590E+05  1.058048E+06 -5.728145E+04  3.802365E+03 -2.088399E-09 -1.236464E-10
        78  17 -1.083566E+05  1.054716E+06 -6.071469E+04  1.485848E+03 -9.626802E-10 -1.059071E-09
        78  18 -1.064375E+05  1.053627E+06 -5.786271E+04 -3.066773E+02  2.967189E-09 -8.060373E-10
        78  19  1.125714E+05  1.984036E+06  1.084604E+05 -5.360075E+02 -3.120899E+04 -1.373977E+04
        78  20  1.102109E+05  1.984616E+06  1.038180E+05  1.257888E+03 -3.225601E+04 -2.200074E+01
        78  21  1.136869E+05  1.988460E+06  1.095525E+05  3.575727E+03 -3.147256E+04  1.369639E+04
        78  22  3.562681E+03  1.520938E+06  2.559450E+04  1.634096E+03 -3.121184E+04 -1.057686E+04
        78  23  9.336066E+02  1.519561E+06  2.155665E+04  1.371898E+03 -3.225819E+04  1.828903E+02
        78  24  3.631252E+03  1.520937E+06  2.585007E+04  1.633661E+03 -3.147350E+04  1.094322E+04
        78  25 -1.054579E+05  1.058049E+06 -5.727951E+04  3.802552E+03 -3.121468E+04 -7.416230E+03
        78  26 -1.083555E+05  1.054716E+06 -6.071274E+04  1.485837E+03 -3.226038E+04  3.876328E+02
        78  27 -1.064364E+05  1.053627E+06 -5.786072E+04 -3.068849E+02 -3.147442E+04  8.192047E+03
        79   1  1.124731E+05  1.993672E+06  1.150218E+05 -4.450697E+03  3.117440E+04 -1.638775E+04
        79   2  1.300046E+05  1.986323E+06  1.409372E+05  2.572560E+04  2.486712E+04 -6.012648E+04
        79   3  2.049510E+05  1.999021E+06  2.096266E+05  5.577898E+04  7.296869E+03 -1.038748E+05
        79   4  1.831619E+03  1.524089E+06  3.048984E+04  1.482424E+03  3.117575E+04 -1.525592E+04
        79   5  1.779249E+04  1.515602E+06  4.949722E+04  1.566453E+03  2.486007E+04 -4.082892E+04
        79   6  8.804091E+04  1.524025E+06  9.870185E+04  1.526857E+03  7.281751E+03 -6.641011E+04
        79   7 -1.088220E+05  1.054719E+06 -5.405066E+04  7.410970E+03  3.117712E+04 -1.412491E+04
        79   8 -9.443039E+04  1.045094E+06 -4.195150E+04 -2.257399E+04  2.485152E+04 -2.154562E+04
        79   9 -2.887336E+04  1.049246E+06 -1.223135E+04 -5.268358E+04  7.260099E+03 -2.897382E+04
        79  10  1.124719E+05  1.993671E+06  1.150195E+05 -4.450286E+03  3.839585E-10  1.520878E-09
        79  11  1.300029E+05  1.986319E+06  1.409292E+05  2.572680E+04  5.256627E-09 -2.873726E-09
        79  12  2.049481E+05  1.999010E+06  2.096063E+05  5.577959E+04  1.589113E-09 -4.138386E-09
        79  13  1.830513E+03  1.524088E+06  3.048758E+04  1.482807E+03  9.099106E-10 -1.610025E-11
        79  14  1.779138E+04  1.515600E+06  4.949293E+04  1.567270E+03 -7.834395E-10 -4.114046E-10
        79  15  8.803967E+04  1.524021E+06  9.869348E+04  1.527246E+03  2.514650E-10 -9.396113E-10
        79  16 -1.088231E+05  1.054719E+06 -5.405286E+04  7.411324E+03  2.972780E-10 -1.496086E-09
        79  17 -9.443117E+04  1.045093E+06 -4.195353E+04 -2.257356E+04  2.382829E-09  1.134656E-09
        79  18 -2.887364E+04  1.049245E+06 -1.223302E+04 -5.268341E+04 -4.969214E-10  4.604260E-09
        79  19  1.124731E+05  1.993672E+06  1.150218E+05 -4.450697E+03 -3.117440E+04  1.638775E+04
        79  20  1.300046E+05  1.986323E+06  1.409372E+05  2.572560E+04 -2.486712E+04  6.012648E+04
        79  21  2.049510E+05  1.999021E+06  2.096266E+05  5.577898E+04 -7.296869E+03  1.038748E+05
        79  22  1.831619E+03  1.524089E+06  3.048984E+04  1.482424E+03 -3.117575E+04  1.525592E+04
        79  23  1.779249E+04  1.515602E+06  4.949722E+04  1.566453E+03 -2.486007E+04  4.082892E+04
        79  24  8.804091E+04  1.524025E+06  9.870185E+04  1.526857E+03 -7.281751E+03  6.641011E+04
        79  25 -1.088220E+05  1.054719E+06 -5.405066E+04  7.410970E+03 -3.117712E+04  1.412491E+04
        79  26 -9.443039E+04  1.045094E+06 -4.195150E+04 -2.257399E+04 -2.485152E+04  2.154562E+04
        79  27 -2.887336E+04  1.049246E+06 -1.223135E+04 -5.268358E+04 -7.260099E+03  2.897382E+04
        80   1 -2.153330E+06 -4.502453E+05 -3.989488E+05 -5.238625E+04  6.599260E+04  3.154714E+04
        80   2 -1.972786E+06 -5.720475E+05 -4.286960E+05 -5.316167E+04  6.642764E+04  9.754720E+04
        80   3 -1.746500E+06 -5.236464E+05 -4.156375E+05 -1.486208E+05  6.711203E+04  9.936588E+04
        80   4  3.444587E+05  1.709331E+05  2.099010E+05 -1.204171E+05  1.438703E+05  3.183054E+04
        80   5  3.174170E+05 -9.111955E+03  9.419794E+04 -7.279074E+04  9.346116E+04  9.760057E+04
        80   6  3.447356E+05 -1.046459E+04  5.647863E+04 -1.198167E+05  4.330478E+04  9.929513E+04
        80   7  2.847974E+06  7.916737E+05  8.183233E+05 -1.887280E+05  2.220604E+05  3.209630E+04
        80   8  2.612494E+06  5.534617E+05  6.167524E+05 -9.249641E+04  1.205933E+05  9.765215E+04
        80   9  2.440045E+06  5.024199E+05  5.283171E+05 -9.091622E+04  1.941775E+04  9.922230E+04
        80  10 -2.153335E+06 -4.502475E+05 -3.989589E+05 -5.238793E+04 -2.175746E-10 -1.343086E-10
        80  11 -1.972793E+06 -5.720589E+05 -4.287222E+05 -5.316690E+04  1.477014E-09 -3.849544E-10
        80  12 -1.746507E+06 -5.236582E+05 -4.156646E+05 -1.486262E+05  1.429901E-09 -5.903278E-10
        80  13  3.444362E+05  1.709265E+05  2.098602E+05 -1.204208E+05 -1.077182E-09  2.093142E-11
        80  14  3.174051E+05 -9.124530E+03  9.416363E+04 -7.279809E+04 -2.051557E-09  1.099370E-10
        80  15  3.447309E+05 -1.047568E+04  5.645657E+04 -1.198202E+05  7.733466E-10  4.015455E-11
        80  16  2.847921E+06  7.916595E+05  8.182291E+05 -1.887338E+05  2.414359E-10  1.647954E-10
        80  17  2.612476E+06  5.534476E+05  6.167072E+05 -9.250587E+04 -1.340143E-09  2.783133E-10
        80  18  2.440042E+06  5.024093E+05  5.282979E+05 -9.091777E+04 -1.697706E-09  1.539324E-10
        80  19 -2.153330E+06 -4.502453E+05 -3.989488E+05 -5.238625E+04 -6.599260E+04 -3.154714E+04
        80  20 -1.972786E+06 -5.720475E+05 -4.286960E+05 -5.316167E+04 -6.642764E+04 -9.754720E+04
        80  21 -1.746500E+06 -5.236464E+05 -4.156375E+05 -1.486208E+05 -6.711203E+04 -9.936588E+04
        80  22  3.444587E+05  1.709331E+05  2.099010E+05 -1.204171E+05 -1.438703E+05 -3.183054E+04
        80  23  3.174170E+05 -9.111955E+03  9.419794E+04 -7.279074E+04 -9.346116E+04 -9.760057E+04
        80  24  3.447356E+05 -1.046459E+04  5.647863E+04 -1.198167E+05 -4.330478E+04 -9.929513E+04
        80  25  2.847974E+06  7.916737E+05  8.183233E+05 -1.887280E+05 -2.220604E+05 -3.209630E+04
        80  26  2.612494E+06  5.534617E+05  6.167524E+05 -9.249641E+04 -1.205933E+05 -9.765215E+04
        80  27  2.440045E+06  5.024199E+05  5.283171E+05 -9.091622E+04 -1.941775E+04 -9.922230E+04
        81   1 -1.575990E+06 -4.586954E+05 -3.882354E+05 -1.188097E+05  3.940817E+04  8.630798E+04
        81   2 -1.377678E+06 -4.208025E+05 -3.626227E+05 -7.276557E+04  2.967303E+04  7.928323E+04
        81   3 -1.173466E+06 -3.711092E+05 -3.273421E+05 -1.226831E+05  1.991535E+04  6.932638E+04
        81   4  3.342119E+05  1.032209E+04  4.520686E+04 -1.202718E+05  3.509981E+04  8.628190E+04
        81   5  3.311807E+05 -1.477461E+03  2.400491E+04 -7.229226E+04  2.301287E+04  7.926089E+04
        81   6  3.344061E+05 -1.084666E+03  1.408310E+04 -1.202576E+05  1.090651E+04  6.931154E+04
        81   7  2.247807E+06  4.790879E+05  4.784134E+05 -1.217394E+05  3.077815E+04  8.625589E+04
        81   8  2.042756E+06  4.176467E+05  4.104449E+05 -7.181816E+04  1.633445E+04  7.923859E+04
        81   9  1.844392E+06  3.687833E+05  3.553622E+05 -1.178260E+05  1.875943E+03  6.929666E+04
        81  10 -1.575994E+06 -4.587039E+05 -3.882524E+05 -1.188125E+05 -1.235461E-09 -2.553456E-11
        81  11 -1.377681E+06 -4.208095E+05 -3.626362E+05 -7.276747E+04  1.008669E-09  8.143967E-10
        81  12 -1.173467E+06 -3.711145E+05 -3.273519E+05 -1.226842E+05  2.115959E-09 -1.574010E-10
        81  13  3.342086E+05  1.031377E+04  4.519055E+04 -1.202742E+05 -3.244255E-09  2.895148E-10
        81  14  3.311785E+05 -1.484350E+03  2.399210E+04 -7.229373E+04  8.997842E-10  8.729954E-10
        81  15  3.344047E+05 -1.089858E+03  1.407385E+04 -1.202582E+05 -1.226506E-09 -3.885145E-10
        81  16  2.247804E+06  4.790796E+05  4.783976E+05 -1.217416E+05 -1.981478E-09  1.917766E-10
        81  17  2.042754E+06  4.176399E+05  4.104326E+05 -7.181920E+04 -1.522693E-09  5.124781E-10
        81  18  1.844391E+06  3.687782E+05  3.553532E+05 -1.178261E+05 -8.355077E-10 -4.692795E-10
        81  19 -1.575990E+06 -4.586954E+05 -3.882354E+05 -1.188097E+05 -3.940817E+04 -8.630798E+04
        81  20 -1.377678E+06 -4.208025E+05 -3.626227E+05 -7.276557E+04 -2.967303E+04 -7.928323E+04
        81  21 -1.173466E+06 -3.711092E+05 -3.273421E+05 -1.226831E+05 -1.991535E+04 -6.932638E+04
        81  22  3.342119E+05  1.032209E+04  4.520686E+04 -1.202718E+05 -3.509981E+04 -8.628190E+04
        81  23  3.311807E+05 -1.477461E+03  2.400491E+04 -7.229226E+04 -2.301287E+04 -7.926089E+04
        81  24  3.344061E+05 -1.084666E+03  1.408310E+04 -1.202576E+05 -1.090651E+04 -6.931154E+04
        81  25  2.247807E+06  4.790879E+05  4.784134E+05 -1.217394E+05 -3.077815E+04 -8.625589E+04
        81  26  2.042756E+06  4.176467E+05  4.104449E+05 -7.181816E+04 -1.633445E+04 -7.923859E+04
        81  27  1.844392E+06  3.687833E+05  3.553622E+05 -1.178260E+05 -1.875943E+03 -6.929666E+04
        82   1 -9.953053E+05 -3.255496E+05 -2.890685E+05 -1.203154E+05  1.681586E+04  6.289888E+04
        82   2 -7.955343E+05 -2.770817E+05 -2.489851E+05 -7.226281E+04  1.390136E+04  5.258106E+04
        82   3 -5.945796E+05 -2.276991E+05 -2.066535E+05 -1.198008E+05  1.096890E+04  4.214126E+04
        82   4  3.333953E+05  2.822530E+02  1.081552E+04 -1.201803E+05  8.714448E+03  6.288921E+04
        82   5  3.328756E+05 -3.146750E+02  6.088907E+03 -7.239034E+04  5.696429E+03  5.257740E+04
        82   6  3.335215E+05  2.325995E+01  3.680964E+03 -1.201805E+05  2.661373E+03  4.214389E+04
        82   7  1.663738E+06  3.259930E+05  3.105867E+05 -1.200447E+05  5.958278E+02  6.287954E+04
        82   8  1.462470E+06  2.763649E+05  2.610814E+05 -7.251793E+04 -2.523296E+03  5.257376E+04
        82   9  1.262423E+06  2.276863E+05  2.139601E+05 -1.205604E+05 -5.658463E+03  4.214652E+04
        82  10 -9.953067E+05 -3.255539E+05 -2.890765E+05 -1.203163E+05 -1.740703E-09 -4.250643E-10
        82  11 -7.955352E+05 -2.770848E+05 -2.489906E+05 -7.226340E+04  8.650951E-11 -1.265774E-10
        82  12 -5.945802E+05 -2.277011E+05 -2.066571E+05 -1.198012E+05 -6.927680E-10 -3.039534E-10
        82  13  3.333941E+05  2.779848E+02  1.080794E+04 -1.201807E+05  1.078206E-09 -3.013248E-10
        82  14  3.328749E+05 -3.176527E+02  6.083650E+03 -7.239058E+04  5.655073E-10  3.090096E-10
        82  15  3.335210E+05  2.135049E+01  3.677613E+03 -1.201806E+05 -1.327515E-09  1.908451E-10
        82  16  1.663737E+06  3.259887E+05  3.105793E+05 -1.200447E+05  1.752417E-09 -5.781742E-10
        82  17  1.462469E+06  2.763619E+05  2.610762E+05 -7.251782E+04 -9.163377E-11  3.597171E-10
        82  18  1.262422E+06  2.276844E+05  2.139567E+05 -1.205602E+05 -2.160332E-10  1.314775E-11
        82  19 -9.953053E+05 -3.255496E+05 -2.890685E+05 -1.203154E+05 -1.681586E+04 -6.289888E+04
        82  20 -7.955343E+05 -2.770817E+05 -2.489851E+05 -7.226281E+04 -1.390136E+04 -5.258106E+04
        82  21 -5.945796E+05 -2.276991E+05 -2.066535E+05 -1.198008E+05 -1.096890E+04 -4.214126E+04
        82  22  3.333953E+05  2.822530E+02  1.081552E+04 -1.201803E+05 -8.714448E+03 -6.288921E+04
        82  23  3.328756E+05 -3.146750E+02  6.088907E+03 -7.239034E+04 -5.696429E+03 -5.257740E+04
        82  24  3.335215E+05  2.325995E+01  3.680964E+03 -1.201805E+05 -2.661373E+03 -4.214389E+04
        82  25  1.663738E+06  3.259930E+05  3.105867E+05 -1.200447E+05 -5.958278E+02 -6.287954E+04
        82  26  1.462470E+06  2.763649E+05  2.610814E+05 -7.251793E+04  2.523296E+03 -5.257376E+04
        82  27  1.262423E+06  2.276863E+05  2.139601E+05 -1.205604E+05  5.658463E+03 -4.214652E+04
        83   1 -4.161977E+05 -1.835806E+05 -1.659433E+05 -1.196627E+05  1.032383E+04  3.604310E+04
        83   2 -2.163845E+05 -1.347020E+05 -1.223310E+05 -7.203582E+04  9.386613E+03  2.560775E+04
        83   3 -1.645389E+04 -8.557688E+04 -7.807424E+04 -1.197469E+05  8.440751E+03  1.517293E+04
        83   4  3.333507E+05  1.039093E+02  2.868210E+03 -1.201255E+05  2.063469E+03  3.604859E+04
        83   5  3.333427E+05  8.279181E+01  1.885204E+03 -7.245902E+04  1.124422E+03  2.561615E+04
        83   6  3.334118E+05  3.101500E+02  1.548152E+03 -1.201253E+05  1.770257E+02  1.518440E+04
        83   7  1.083422E+06  1.837500E+05  1.716442E+05 -1.205886E+05 -6.206771E+03  3.605408E+04
        83   8  8.833509E+05  1.348469E+05  1.260823E+05 -7.288251E+04 -7.145017E+03  2.562456E+04
        83   9  6.833912E+05  8.618875E+04  8.116285E+04 -1.205040E+05 -8.091315E+03  1.519587E+04
        83  10 -4.161981E+05 -1.835821E+05 -1.659460E+05 -1.196630E+05 -1.616516E-09 -4.446845E-10
        83  11 -2.163847E+05 -1.347028E+05 -1.223324E+05 -7.203601E+04 -1.787855E-10 -1.112272E-10
        83  12 -1.645403E+04 -8.557715E+04 -7.807480E+04 -1.197470E+05 -1.131417E-09  2.955332E-10
        83  13  3.333504E+05  1.025125E+02  2.865760E+03 -1.201255E+05 -1.062641E-09 -6.617535E-10
        83  14  3.333426E+05  8.208673E+01  1.883968E+03 -7.245905E+04 -3.107953E-09  5.101932E-11
        83  15  3.334117E+05  3.099023E+02  1.547719E+03 -1.201253E+05 -1.220315E-09  4.366153E-10
        83  16  1.083421E+06  1.837486E+05  1.716416E+05 -1.205884E+05 -2.497128E-10 -6.268332E-10
        83  17  8.833507E+05  1.348462E+05  1.260810E+05 -7.288236E+04 -1.446645E-09 -7.057407E-10
        83  18  6.833910E+05  8.618849E+04  8.116229E+04 -1.205039E+05  4.279480E-10 -1.229552E-10
        83  19 -4.161977E+05 -1.835806E+05 -1.659433E+05 -1.196627E+05 -1.032383E+04 -3.604310E+04
        83  20 -2.163845E+05 -1.347020E+05 -1.223310E+05 -7.203582E+04 -9.386613E+03 -2.560775E+04
        83  21 -1.645389E+04 -8.557688E+04 -7.807424E+04 -1.197469E+05 -8.440751E+03 -1.517293E+04
        83  22  3.333507E+05  1.039093E+02  2.868210E+03 -1.201255E+05 -2.063469E+03 -3.604859E+04
        83  23  3.333427E+05  8.279181E+01  1.885204E+03 -7.245902E+04 -1.124422E+03 -2.561615E+04
        83  24  3.334118E+05  3.101500E+02  1.548152E+03 -1.201253E+05 -1.770257E+02 -1.518440E+04
        83  25  1.083422E+06  1.837500E+05  1.716442E+05 -1.205886E+05  6.206771E+03 -3.605408E+04
        83  26  8.833509E+05  1.348469E+05  1.260823E+05 -7.288251E+04  7.145017E+03 -2.562456E+04
        83  27  6.833912E+05  8.618875E+04  8.116285E+04 -1.205040E+05  8.091315E+03 -1.519587E+04
        84   1  1.618403E+05 -4.162638E+04 -3.663912E+04 -1.199232E+05  8.148185E+03  9.101547E+03
        84   2  3.616530E+05  7.095766E+03  8.269407E+03 -7.247421E+04  7.193465E+03 -1.323962E+03
        84   3  5.613888E+05  5.609358E+04  5.379192E+04 -1.202698E+05  6.238879E+03 -1.174509E+04
        84   4  3.333913E+05  3.102569E+02  1.537631E+03 -1.201058E+05 -1.140528E+02  9.113914E+03
        84   5  3.334470E+05  1.825274E+02  1.897794E+03 -7.248339E+04 -1.066501E+03 -1.311828E+03
        84   6  3.333880E+05  3.325873E+02  2.872046E+03 -1.201058E+05 -2.018518E+03 -1.173304E+04
        84   7  5.049698E+05  4.224494E+04  3.971280E+04 -1.202885E+05 -8.378548E+03  9.126284E+03
        84   8  3.052418E+05 -6.730729E+03 -4.473614E+03 -7.249256E+04 -9.326096E+03 -1.299694E+03
        84   9  1.054358E+05 -5.543190E+04 -4.805084E+04 -1.199417E+05 -1.027292E+04 -1.172099E+04
        84  10  1.618402E+05 -4.162649E+04 -3.663940E+04 -1.199233E+05 -7.179098E-10  1.141488E-10
        84  11  3.616530E+05  7.095750E+03  8.269307E+03 -7.247421E+04 -5.536088E-10 -1.736235E-10
        84  12  5.613888E+05  5.609342E+04  5.379159E+04 -1.202697E+05 -7.475433E-10  6.522665E-10
        84  13  3.333912E+05  3.101677E+02  1.537475E+03 -1.201058E+05 -2.158750E-09  4.037148E-10
        84  14  3.334470E+05  1.825253E+02  1.897789E+03 -7.248339E+04 -9.184676E-10  7.654257E-11
        84  15  3.333880E+05  3.324384E+02  2.871779E+03 -1.201058E+05  1.466450E-09  6.321599E-10
        84  16  5.049697E+05  4.224483E+04  3.971252E+04 -1.202884E+05 -9.159465E-10 -6.101958E-11
        84  17  3.052417E+05 -6.730754E+03 -4.473780E+03 -7.249257E+04 -1.109024E-09 -1.585985E-10
        84  18  1.054356E+05 -5.543208E+04 -4.805130E+04 -1.199418E+05  1.509140E-09 -5.711439E-11
        84  19  1.618403E+05 -4.162638E+04 -3.663912E+04 -1.199232E+05 -8.148185E+03 -9.101547E+03
        84  20  3.616530E+05  7.095766E+03  8.269407E+03 -7.247421E+04 -7.193465E+03  1.323962E+03
        84  21  5.613888E+05  5.609358E+04  5.379192E+04 -1.202698E+05 -6.238879E+03  1.174509E+04
        84  22  3.333913E+05  3.102569E+02  1.537631E+03 -1.201058E+05  1.140528E+02 -9.113914E+03
        84  23  3.334470E+05  1.825274E+02  1.897794E+03 -7.248339E+04  1.066501E+03  1.311828E+03
        84  24  3.333880E+05  3.325873E+02  2.872046E+03 -1.201058E+05  2.018518E+03  1.173304E+04
        84  25  5.049698E+05  4.224494E+04  3.971280E+04 -1.202885E+05  8.378548E+03 -9.126284E+03
        84  26  3.052418E+05 -6.730729E+03 -4.473614E+03 -7.249256E+04  9.326096E+03  1.299694E+03
        84  27  1.054358E+05 -5.543190E+04 -4.805084E+04 -1.199417E+05  1.027292E+04  1.172099E+04
        85   1  7.399472E+05  9.995990E+04  9.602080E+04 -1.203608E+05  5.675449E+03 -1.782519E+04
        85   2  9.396897E+05  1.485875E+05  1.430801E+05 -7.282632E+04  2.537240E+03 -2.823352E+04
        85   3  1.140068E+06  1.982464E+05  1.924130E+05 -1.206331E+05 -5.926725E+02 -3.854108E+04
        85   4  3.335173E+05  2.525154E+02  3.663132E+03 -1.201287E+05 -2.618562E+03 -1.781418E+04
        85   5  3.331894E+05 -1.467781E+01  6.123752E+03 -7.245483E+04 -5.675277E+03 -2.822598E+04
        85   6  3.334494E+05  7.392031E+02  1.080572E+04 -1.201279E+05 -8.722711E+03 -3.853682E+04
        85   7 -7.275929E+04 -9.946623E+04 -8.870499E+04 -1.198966E+05 -1.090720E+04 -1.780318E+04
        85   8 -2.729694E+05 -1.486421E+05 -1.308560E+05 -7.208359E+04 -1.387986E+04 -2.821845E+04
        85   9 -4.725644E+05 -1.968124E+05 -1.708428E+05 -1.196232E+05 -1.684230E+04 -3.853257E+04
        85  10  7.399471E+05  9.995955E+04  9.602014E+04 -1.203608E+05  1.307411E-09  8.268515E-11
        85  11  9.396895E+05  1.485867E+05  1.430786E+05 -7.282626E+04  1.991228E-09 -7.654576E-10
        85  12  1.140067E+06  1.982448E+05  1.924102E+05 -1.206331E+05 -2.956281E-10 -4.164150E-10
        85  13  3.335172E+05  2.521727E+02  3.662523E+03 -1.201287E+05 -1.038756E-09 -3.388300E-10
        85  14  3.331891E+05 -1.554213E+01  6.122194E+03 -7.245496E+04  1.605157E-10 -9.643359E-10
        85  15  3.334489E+05  7.375876E+02  1.080279E+04 -1.201282E+05 -1.063653E-09 -7.653382E-10
        85  16 -7.275951E+04 -9.946661E+04 -8.870580E+04 -1.198968E+05 -1.978167E-10 -7.138347E-11
        85  17 -2.729698E+05 -1.486430E+05 -1.308578E+05 -7.208390E+04 -2.557464E-09 -9.447698E-10
        85  18 -4.725651E+05 -1.968141E+05 -1.708461E+05 -1.196238E+05 -8.664394E-10 -5.258789E-10
        85  19  7.399472E+05  9.995990E+04  9.602080E+04 -1.203608E+05 -5.675449E+03  1.782519E+04
        85  20  9.396897E+05  1.485875E+05  1.430801E+05 -7.282632E+04 -2.537240E+03  2.823352E+04
        85  21  1.140068E+06  1.982464E+05  1.924130E+05 -1.206331E+05  5.926725E+02  3.854108E+04
        85  22  3.335173E+05  2.525154E+02  3.663132E+03 -1.201287E+05  2.618562E+03  1.781418E+04
        85  23  3.331894E+05 -1.467781E+01  6.123752E+03 -7.245483E+04  5.675277E+03  2.822598E+04
        85  24  3.334494E+05  7.392031E+02  1.080572E+04 -1.201279E+05  8.722711E+03  3.853682E+04
        85  25 -7.275929E+04 -9.946623E+04 -8.870499E+04 -1.198966E+05  1.090720E+04  1.780318E+04
        85  26 -2.729694E+05 -1.486421E+05 -1.308560E+05 -7.208359E+04  1.387986E+04  2.821845E+04
        85  27 -4.725644E+05 -1.968124E+05 -1.708428E+05 -1.196232E+05  1.684230E+04  3.853257E+04
        86   1  1.319965E+06  2.408956E+05  2.370576E+05 -1.186899E+05 -2.064275E+03 -4.487192E+04
        86   2  1.517905E+06  2.895950E+05  2.919748E+05 -7.352910E+04 -1.607110E+04 -5.487185E+04
        86   3  1.721476E+06  3.509033E+05  3.592743E+05 -1.238873E+05 -3.006623E+04 -6.254029E+04
        86   4  3.344160E+05 -6.224821E+02  1.404894E+04 -1.201694E+05 -1.091804E+04 -4.487020E+04
        86   5  3.317093E+05 -9.735206E+02  2.404722E+04 -7.240390E+04 -2.305456E+04 -5.487741E+04
        86   6  3.342809E+05  1.097621E+04  4.514834E+04 -1.201678E+05 -3.517492E+04 -6.255108E+04
        86   7 -6.502321E+05 -2.422073E+05 -2.090219E+05 -1.216463E+05 -1.975789E+04 -4.486844E+04
        86   8 -8.531807E+05 -2.916386E+05 -2.439705E+05 -7.128071E+04 -3.002480E+04 -5.488300E+04
        86   9 -1.051130E+06 -3.290832E+05 -2.691015E+05 -1.164565E+05 -4.027226E+04 -6.256194E+04
        86  10  1.319964E+06  2.408935E+05  2.370538E+05 -1.186900E+05  6.965960E-09  1.324334E-10
        86  11  1.517904E+06  2.895917E+05  2.919687E+05 -7.352981E+04 -4.002212E-10  7.071422E-10
        86  12  1.721473E+06  3.508989E+05  3.592653E+05 -1.238888E+05 -8.602589E-09  7.916143E-10
        86  13  3.344153E+05 -6.246766E+02  1.404493E+04 -1.201698E+05 -1.112669E-09  3.057992E-10
        86  14  3.317080E+05 -9.768977E+02  2.404056E+04 -7.240492E+04  3.261134E-09  1.003565E-09
        86  15  3.342785E+05  1.097167E+04  4.513866E+04 -1.201695E+05 -1.976372E-11  9.527983E-10
        86  16 -6.502330E+05 -2.422096E+05 -2.090264E+05 -1.216470E+05 -7.469884E-09  9.498084E-11
        86  17 -8.531825E+05 -2.916421E+05 -2.439778E+05 -7.128203E+04  8.189346E-10  1.520476E-09
        86  18 -1.051133E+06 -3.290879E+05 -2.691119E+05 -1.164586E+05  8.421888E-09  1.106529E-09
        86  19  1.319965E+06  2.408956E+05  2.370576E+05 -1.186899E+05  2.064275E+03  4.487192E+04
        86  20  1.517905E+06  2.895950E+05  2.919748E+05 -7.352910E+04  1.607110E+04  5.487185E+04
        86  21  1.721476E+06  3.509033E+05  3.592743E+05 -1.238873E+05  3.006623E+04  6.254029E+04
        86  22  3.344160E+05 -6.224821E+02  1.404894E+04 -1.201694E+05  1.091804E+04  4.487020E+04
        86  23  3.317093E+05 -9.735206E+02  2.404722E+04 -7.240390E+04  2.305456E+04  5.487741E+04
        86  24  3.342809E+05  1.097621E+04  4.514834E+04 -1.201678E+05  3.517492E+04  6.255108E+04
        86  25 -6.502321E+05 -2.422073E+05 -2.090219E+05 -1.216463E+05  1.975789E+04  4.486844E+04
        86  26 -8.531807E+05 -2.916386E+05 -2.439705E+05 -7.128071E+04  3.002480E+04  5.488300E+04
        86  27 -1.051130E+06 -3.290832E+05 -2.691015E+05 -1.164565E+05  4.027226E+04  6.256194E+04
        87   1  1.912474E+06  3.740698E+05  4.096002E+05 -9.375906E+04 -2.271909E+04 -7.409331E+04
        87   2  2.084974E+06  4.249159E+05  4.967252E+05 -9.606407E+04 -1.134391E+05 -7.481318E+04
        87   3  2.317235E+06  6.608144E+05  6.894050E+05 -1.926905E+05 -2.042891E+05 -2.461128E+04
        87   4  3.447328E+05 -9.740357E+03  5.638896E+04 -1.198324E+05 -4.338296E+04 -7.411550E+04
        87   5  3.181973E+05 -8.379118E+03  9.419518E+04 -7.280352E+04 -9.353878E+04 -7.480885E+04
        87   6  3.445130E+05  1.712800E+05  2.095911E+05 -1.200925E+05 -1.437902E+05 -2.453018E+04
        87   7 -1.220726E+06 -3.937161E+05 -2.969773E+05 -1.458394E+05 -6.399519E+04 -7.413599E+04
        87   8 -1.445689E+06 -4.418877E+05 -3.085363E+05 -4.961027E+04 -7.369412E+04 -7.480304E+04
        87   9 -1.624647E+06 -3.185181E+05 -2.704879E+05 -4.772628E+04 -8.348186E+04 -2.443488E+04
        87  10  1.912472E+06  3.740638E+05  4.095889E+05 -9.376041E+04 -9.691839E-10  5.908366E-10
        87  11  2.084959E+06  4.249064E+05  4.966905E+05 -9.607089E+04  3.182908E-10 -1.664586E-11
        87  12  2.317190E+06  6.608026E+05  6.893257E+05 -1.926946E+05 -4.178809E-11 -4.179870E-10
        87  13  3.447293E+05 -9.746762E+03  5.637510E+04 -1.198350E+05 -1.097438E-09  3.843926E-10
        87  14  3.181864E+05 -8.387476E+03  9.416823E+04 -7.280916E+04  1.962806E-09 -5.154132E-10
        87  15  3.444907E+05  1.712738E+05  2.095511E+05 -1.200953E+05 -1.511912E-09 -1.301910E-10
        87  16 -1.220732E+06 -3.937231E+05 -2.969953E+05 -1.458433E+05  1.887637E-10  2.603835E-10
        87  17 -1.445697E+06 -4.418952E+05 -3.085570E+05 -4.961471E+04 -1.251525E-10 -1.229854E-10
        87  18 -1.624655E+06 -3.185206E+05 -2.705022E+05 -4.772792E+04  5.616335E-10 -2.780977E-10
        87  19  1.912474E+06  3.740698E+05  4.096002E+05 -9.375906E+04  2.271909E+04  7.409331E+04
        87  20  2.084974E+06  4.249159E+05  4.967252E+05 -9.606407E+04  1.134391E+05  7.481318E+04
        87  21  2.317235E+06  6.608144E+05  6.894050E+05 -1.926905E+05  2.042891E+05  2.461128E+04
        87  22  3.447328E+05 -9.740357E+03  5.638896E+04 -1.198324E+05  4.338296E+04  7.411550E+04
        87  23  3.181973E+05 -8.379118E+03  9.419518E+04 -7.280352E+04  9.353878E+04  7.480885E+04
        87  24  3.445130E+05  1.712800E+05  2.095911E+05 -1.200925E+05  1.437902E+05  2.453018E+04
        87  25 -1.220726E+06 -3.937161E+05 -2.969773E+05 -1.458394E+05  6.399519E+04  7.413599E+04
        87  26 -1.445689E+06 -4.418877E+05 -3.085363E+05 -4.961027E+04  7.369412E+04  7.480304E+04
        87  27 -1.624647E+06 -3.185181E+05 -2.704879E+05 -4.772628E+04  8.348186E+04  2.443488E+04
        88   1  4.178191E+04 -3.533991E+05  6.037718E+04 -1.416163E+05 -4.267905E+03  6.057446E+04
        88   2 -8.982664E+04 -5.431930E+05 -3.487191E+04 -7.437823E+04 -1.628707E+04  3.834440E+04
        88   3 -1.343091E+05 -7.091125E+05 -9.406650E+04 -9.192303E+04 -2.584953E+04  1.613491E+04
        88   4  8.498056E+04 -1.773827E+05  1.022580E+05 -1.056018E+05 -4.311672E+03  7.116263E+04
        88   5 -3.151537E+03 -1.894976E+05  4.525211E+04 -6.340567E+04 -1.632287E+04  4.698112E+04
        88   6 -3.840041E+03 -1.774289E+05  2.565511E+04 -1.059819E+05 -2.587638E+04  2.281434E+04
        88   7  1.281820E+05 -1.334756E+03  1.441378E+05 -6.957711E+04 -4.354203E+03  8.175379E+04
        88   8  8.351548E+04  1.643145E+05  1.253684E+05 -5.242666E+04 -1.635837E+04  5.562271E+04
        88   9  1.266104E+05  3.545184E+05  1.453589E+05 -1.200527E+05 -2.590352E+04  2.949943E+04
        88  10  4.178090E+04 -3.534031E+05  6.037025E+04 -1.416161E+05  7.035640E-10  1.062616E-09
        88  11 -8.982732E+04 -5.431947E+05 -3.487517E+04 -7.437772E+04  1.319518E-09 -1.641941E-10
        88  12 -1.343099E+05 -7.091130E+05 -9.406824E+04 -9.192269E+04 -4.084581E-10 -1.358097E-09
        88  13  8.497918E+04 -1.773882E+05  1.022484E+05 -1.056016E+05 -1.522474E-10  2.534735E-11
        88  14 -3.152415E+03 -1.895001E+05  4.524746E+04 -6.340505E+04  2.491920E-09  9.767924E-11
        88  15 -3.840899E+03 -1.774296E+05  2.565287E+04 -1.059815E+05 -9.408340E-10  1.656172E-10
        88  16  1.281802E+05 -1.341937E+03  1.441252E+05 -6.957682E+04 -9.361600E-10 -9.247151E-10
        88  17  8.351436E+04  1.643111E+05  1.253621E+05 -5.242593E+04 -2.614506E-10  2.391028E-11
        88  18  1.266094E+05  3.545172E+05  1.453560E+05 -1.200521E+05 -9.043379E-10  1.335262E-09
        88  19  4.178191E+04 -3.533991E+05  6.037718E+04 -1.416163E+05  4.267905E+03 -6.057446E+04
        88  20 -8.982664E+04 -5.431930E+05 -3.487191E+04 -7.437823E+04  1.628707E+04 -3.834440E+04
        88  21 -1.343091E+05 -7.091125E+05 -9.406650E+04 -9.192303E+04  2.584953E+04 -1.613491E+04
        88  22  8.498056E+04 -1.773827E+05  1.022580E+05 -1.056018E+05  4.311672E+03 -7.116263E+04
        88  23 -3.151537E+03 -1.894976E+05  4.525211E+04 -6.340567E+04  1.632287E+04 -4.698112E+04
        88  24 -3.840041E+03 -1.774289E+05  2.565511E+04 -1.059819E+05  2.587638E+04 -2.281434E+04
        88  25  1.281820E+05 -1.334756E+03  1.441378E+05 -6.957711E+04  4.354203E+03 -8.175379E+04
        88  26  8.351548E+04  1.643145E+05  1.253684E+05 -5.242666E+04  1.635837E+04 -5.562271E+04
        88  27  1.266104E+05  3.545184E+05  1.453589E+05 -1.200527E+05  2.590352E+04 -2.949943E+04
        89   1 -1.630725E+05 -8.732881E+05 -1.371695E+05 -1.053068E+05 -3.118746E+04  1.120252E+04
        89   2 -2.130116E+05 -1.051566E+06 -1.892794E+05 -6.175711E+04 -4.023902E+04  9.091712E+03
        89   3 -2.588385E+05 -1.228920E+06 -2.390899E+05 -1.029820E+05 -4.730120E+04  6.999285E+03
        89   4  6.492963E+03 -1.825877E+05  1.955342E+04 -1.058616E+05 -3.121742E+04  1.917288E+04
        89   5  9.309499E+01 -1.832158E+05  7.236207E+03 -6.349373E+04 -4.025869E+04  1.548527E+04
        89   6 -1.920319E+03 -1.826753E+05 -1.684208E+03 -1.058928E+05 -4.731195E+04  1.181547E+04
        89   7  1.760256E+05  5.085563E+05  1.762457E+05 -1.064166E+05 -3.124738E+04  2.715203E+04
        89   8  2.131459E+05  6.858357E+05  2.037034E+05 -6.523214E+04 -4.027838E+04  2.188768E+04
        89   9  2.549223E+05  8.645876E+05  2.356507E+05 -1.088076E+05 -4.732274E+04  1.663970E+04
        89  10 -1.630736E+05 -8.732885E+05 -1.371715E+05 -1.053065E+05 -4.259211E-10  1.856706E-09
        89  11 -2.130133E+05 -1.051566E+06 -1.892826E+05 -6.175681E+04  3.086436E-10  9.003419E-10
        89  12 -2.588409E+05 -1.228921E+06 -2.390942E+05 -1.029817E+05  4.643860E-10 -3.331499E-10
        89  13  6.491818E+03 -1.825884E+05  1.955090E+04 -1.058611E+05  1.636366E-09  7.974064E-11
        89  14  9.129045E+01 -1.832165E+05  7.232711E+03 -6.349323E+04  5.293031E-10  9.539526E-11
        89  15 -1.922760E+03 -1.826760E+05 -1.688676E+03 -1.058923E+05  1.451492E-09  8.842304E-11
        89  16  1.760243E+05  5.085553E+05  1.762425E+05 -1.064159E+05 -1.215145E-09 -1.834803E-09
        89  17  2.131440E+05  6.858348E+05  2.036995E+05 -6.523143E+04  8.364673E-10 -9.776600E-10
        89  18  2.549198E+05  8.645867E+05  2.356460E+05 -1.088069E+05 -1.014925E-09  5.050752E-10
        89  19 -1.630725E+05 -8.732881E+05 -1.371695E+05 -1.053068E+05  3.118746E+04 -1.120252E+04
        89  20 -2.130116E+05 -1.051566E+06 -1.892794E+05 -6.175711E+04  4.023902E+04 -9.091712E+03
        89  21 -2.588385E+05 -1.228920E+06 -2.390899E+05 -1.029820E+05  4.730120E+04 -6.999285E+03
        89  22  6.492963E+03 -1.825877E+05  1.955342E+04 -1.058616E+05  3.121742E+04 -1.917288E+04
        89  23  9.309499E+01 -1.832158E+05  7.236207E+03 -6.349373E+04  4.025869E+04 -1.548527E+04
        89  24 -1.920319E+03 -1.826753E+05 -1.684208E+03 -1.058928E+05  4.731195E+04 -1.181547E+04
        89  25  1.760256E+05  5.085563E+05  1.762457E+05 -1.064166E+05  3.124738E+04 -2.715203E+04
        89  26  2.131459E+05  6.858357E+05  2.037034E+05 -6.523214E+04  4.027838E+04 -2.188768E+04
        89  27  2.549223E+05  8.645876E+05  2.356507E+05 -1.088076E+05  4.732274E+04 -1.663970E+04
        90   1 -2.933771E+05 -1.390431E+06 -2.776551E+05 -9.803178E+04 -5.700049E+04 -4.953197E+03
        90   2 -3.381786E+05 -1.561207E+06 -3.304366E+05 -6.575594E+04 -5.850363E+04  3.535198E+04
        90   3 -4.197412E+05 -1.746044E+06 -4.186125E+05 -1.165535E+05 -1.924984E+04  7.572805E+04
        90   4  2.454449E+03 -1.849005E+05 -5.379205E+03 -1.054809E+05 -5.704682E+04  1.226488E+04
        90   5  1.253127E+03 -1.807365E+05 -1.508235E+04 -6.398797E+04 -5.845551E+04  2.037791E+04
        90   6 -3.106802E+04 -1.850386E+05 -3.776940E+04 -1.055612E+05 -1.914651E+04  2.857483E+04
        90   7  2.981864E+05  1.021984E+06  2.668046E+05 -1.129435E+05 -5.709353E+04  2.951611E+04
        90   8  3.405526E+05  1.201504E+06  3.001481E+05 -6.221481E+04 -5.840754E+04  5.370728E+03
        90   9  3.574269E+05  1.378198E+06  3.429047E+05 -9.453972E+04 -1.904499E+04 -1.869699E+04
        90  10 -2.933806E+05 -1.390432E+06 -2.776612E+05 -9.803201E+04  1.995159E-10  8.965826E-10
        90  11 -3.381826E+05 -1.561209E+06 -3.304454E+05 -6.575427E+04 -5.440709E-10  2.939369E-10
        90  12 -4.197431E+05 -1.746050E+06 -4.186240E+05 -1.165524E+05  6.799302E-10  6.785776E-11
        90  13  2.450915E+03 -1.849016E+05 -5.385603E+03 -1.054803E+05 -2.195925E-09 -2.012706E-11
        90  14  1.249347E+03 -1.807378E+05 -1.508955E+04 -6.398701E+04 -7.807162E-10 -3.604329E-11
        90  15 -3.106863E+04 -1.850396E+05 -3.777163E+04 -1.055607E+05 -4.317862E-10 -5.258335E-11
        90  16  2.981827E+05  1.021982E+06  2.667968E+05 -1.129421E+05 -1.421652E-09 -7.664202E-10
        90  17  3.405489E+05  1.201503E+06  3.001416E+05 -6.221456E+04 -7.446722E-10 -3.304699E-10
        90  18  3.574264E+05  1.378198E+06  3.429034E+05 -9.454001E+04 -2.859201E-11 -1.741007E-10
        90  19 -2.933771E+05 -1.390431E+06 -2.776551E+05 -9.803178E+04  5.700049E+04  4.953197E+03
        90  20 -3.381786E+05 -1.561207E+06 -3.304366E+05 -6.575594E+04  5.850363E+04 -3.535198E+04
        90  21 -4.197412E+05 -1.746044E+06 -4.186125E+05 -1.165535E+05  1.924984E+04 -7.572805E+04
        90  22  2.454449E+03 -1.849005E+05 -5.379205E+03 -1.054809E+05  5.704682E+04 -1.226488E+04
        90  23  1.253127E+03 -1.807365E+05 -1.508235E+04 -6.398797E+04  5.845551E+04 -2.037791E+04
        90  24 -3.106802E+04 -1.850386E+05 -3.776940E+04 -1.055612E+05  1.914651E+04 -2.857483E+04
        90  25  2.981864E+05  1.021984E+06  2.668046E+05 -1.129435E+05  5.709353E+04 -2.951611E+04
        90  26  3.405526E+05  1.201504E+06  3.001481E+05 -6.221481E+04  5.840754E+04 -5.370728E+03
        90  27  3.574269E+05  1.378198E+06  3.429047E+05 -9.453972E+04  1.904499E+04  1.869699E+04
        91   1 -3.857371E+06 -1.401565E+06 -8.578717E+05 -1.361497E+06 -2.886841E+05 -8.035006E+04
        91   2 -3.718083E+06 -9.943270E+05 -5.910205E+05 -1.321948E+06 -1.902031E+05  1.841851E+04
        91   3 -3.650579E+06 -9.213147E+05 -4.905891E+05 -1.266188E+06 -7.163752E+04  6.438620E+04
        91   4 -2.040715E+06 -6.031944E+05 -3.467036E+05 -7.523519E+05 -2.300519E+05 -5.816686E+04
        91   5 -1.989763E+06 -3.088295E+05 -1.486276E+05 -8.100912E+05 -1.702880E+05  2.592727E+04
        91   6 -2.002572E+06 -3.405096E+05 -8.581528E+04 -8.517127E+05 -9.049345E+04  5.724927E+04
        91   7 -2.208266E+05  1.957109E+05  1.641628E+05 -1.414759E+05 -1.712296E+05 -3.588565E+04
        91   8 -2.584957E+05  3.769619E+05  2.935209E+05 -2.969002E+05 -1.503115E+05  3.346217E+04
        91   9 -3.518840E+05  2.404030E+05  3.187561E+05 -4.362660E+05 -1.094043E+05  5.009453E+04
        91  10 -3.857462E+06 -1.401595E+06 -8.580416E+05 -1.361516E+06  7.026978E-10  4.740000E-11
        91  11 -3.718122E+06 -9.943371E+05 -5.910894E+05 -1.321945E+06 -5.277350E-10  3.533574E-10
        91  12 -3.650586E+06 -9.213205E+05 -4.906065E+05 -1.266185E+06  2.144101E-09  7.099019E-10
        91  13 -2.040773E+06 -6.032123E+05 -3.468098E+05 -7.523628E+05  6.950029E-11 -2.495300E-11
        91  14 -1.989795E+06 -3.088381E+05 -1.486835E+05 -8.100876E+05  3.721072E-09  5.168552E-11
        91  15 -2.002582E+06 -3.405154E+05 -8.583684E+04 -8.517085E+05  3.571045E-09  1.112603E-09
        91  16 -2.208584E+05  1.957016E+05  1.641053E+05 -1.414809E+05 -6.314955E-10 -2.364980E-10
        91  17 -2.585202E+05  3.769546E+05  2.934763E+05 -2.968962E+05  7.149812E-10  6.291266E-11
        91  18 -3.518976E+05  2.403971E+05  3.187289E+05 -4.362616E+05  3.028647E-09  9.441219E-10
        91  19 -3.857371E+06 -1.401565E+06 -8.578717E+05 -1.361497E+06  2.886841E+05  8.035006E+04
        91  20 -3.718083E+06 -9.943270E+05 -5.910205E+05 -1.321948E+06  1.902031E+05 -1.841851E+04
        91  21 -3.650579E+06 -9.213147E+05 -4.905891E+05 -1.266188E+06  7.163752E+04 -6.438620E+04
        91  22 -2.040715E+06 -6.031944E+05 -3.467036E+05 -7.523519E+05  2.300519E+05  5.816686E+04
        91  23 -1.989763E+06 -3.088295E+05 -1.486276E+05 -8.100912E+05  1.702880E+05 -2.592727E+04
        91  24 -2.002572E+06 -3.405096E+05 -8.581528E+04 -8.517127E+05  9.049345E+04 -5.724927E+04
        91  25 -2.208266E+05  1.957109E+05  1.641628E+05 -1.414759E+05  1.712296E+05  3.588565E+04
        91  26 -2.584957E+05  3.769619E+05  2.935209E+05 -2.969002E+05  1.503115E+05 -3.346217E+04
        91  27 -3.518840E+05  2.404030E+05  3.187561E+05 -4.362660E+05  1.094043E+05 -5.009453E+04
        92   1 -3.473073E+06 -9.338333E+05 -4.421630E+05 -1.249036E+06 -7.250549E+04  5.200248E+04
        92   2 -3.352534E+06 -8.281485E+05 -3.706502E+05 -1.180143E+06 -5.096452E+04  5.448221E+04
        92   3 -3.187389E+06 -7.973035E+05 -3.192624E+05 -1.167655E+06 -2.841688E+04  5.425712E+04
        92   4 -1.990717E+06 -3.708773E+05 -6.864983E+04 -8.351482E+05 -7.523691E+04  5.095666E+04
        92   5 -2.011760E+06 -3.239257E+05 -3.472977E+04 -8.105830E+05 -5.564820E+04  5.270602E+04
        92   6 -1.987807E+06 -3.513880E+05 -1.934377E+04 -8.424273E+05 -3.505877E+04  5.175131E+04
        92   7 -5.062007E+05  1.922387E+05  3.046864E+05 -4.203552E+05 -7.797537E+04  4.990814E+04
        92   8 -6.692130E+05  1.804215E+05  3.010488E+05 -4.402940E+05 -6.034294E+04  5.092565E+04
        92   9 -7.868034E+05  9.462029E+04  2.804634E+05 -5.166277E+05 -4.171477E+04  4.924030E+04
        92  10 -3.473079E+06 -9.338376E+05 -4.421780E+05 -1.249033E+06  4.233687E-09  1.482038E-09
        92  11 -3.352538E+06 -8.281524E+05 -3.706606E+05 -1.180141E+06  7.684998E-10 -1.473337E-10
        92  12 -3.187391E+06 -7.973069E+05 -3.192695E+05 -1.167654E+06 -1.464085E-09 -3.389749E-10
        92  13 -1.990723E+06 -3.708816E+05 -6.866535E+04 -8.351452E+05  3.886088E-09  8.107557E-10
        92  14 -2.011764E+06 -3.239295E+05 -3.474081E+04 -8.105806E+05 -4.948008E-10  4.139155E-10
        92  15 -1.987809E+06 -3.513912E+05 -1.935110E+04 -8.424258E+05 -1.490044E-09  5.486345E-10
        92  16 -5.062079E+05  1.922344E+05  3.046703E+05 -4.203521E+05  2.285048E-09  6.597048E-10
        92  17 -6.692176E+05  1.804177E+05  3.010371E+05 -4.402915E+05  4.063382E-10  5.702714E-10
        92  18 -7.868059E+05  9.461722E+04  2.804556E+05 -5.166260E+05  4.476574E-10  8.960305E-10
        92  19 -3.473073E+06 -9.338333E+05 -4.421630E+05 -1.249036E+06  7.250549E+04 -5.200248E+04
        92  20 -3.352534E+06 -8.281485E+05 -3.706502E+05 -1.180143E+06  5.096452E+04 -5.448221E+04
        92  21 -3.187389E+06 -7.973035E+05 -3.192624E+05 -1.167655E+06  2.841688E+04 -5.425712E+04
        92  22 -1.990717E+06 -3.708773E+05 -6.864983E+04 -8.351482E+05  7.523691E+04 -5.095666E+04
        92  23 -2.011760E+06 -3.239257E+05 -3.472977E+04 -8.105830E+05  5.564820E+04 -5.270602E+04
        92  24 -1.987807E+06 -3.513880E+05 -1.934377E+04 -8.424273E+05  3.505877E+04 -5.175131E+04
        92  25 -5.062007E+05  1.922387E+05  3.046864E+05 -4.203552E+05  7.797537E+04 -4.990814E+04
        92  26 -6.692130E+05  1.804215E+05  3.010488E+05 -4.402940E+05  6.034294E+04 -5.092565E+04
        92  27 -7.868034E+05  9.462029E+04  2.804634E+05 -5.166277E+05  4.171477E+04 -4.924030E+04
        93   1 -3.044011E+06 -7.496937E+05 -2.788979E+05 -1.131293E+06 -2.450738E+04  4.996473E+04
        93   2 -2.920564E+06 -6.631775E+05 -2.346691E+05 -1.057826E+06 -1.726593E+04  4.341524E+04
        93   3 -2.741651E+06 -6.342359E+05 -1.938561E+05 -1.048181E+06 -9.955075E+03  3.664493E+04
        93   4 -1.986298E+06 -3.539673E+05 -1.484892E+04 -8.416577E+05 -3.043655E+04  4.773063E+04
        93   5 -2.013875E+06 -3.243704E+05 -8.046515E+03 -8.100382E+05 -2.335030E+04  4.112773E+04
        93   6 -1.985981E+06 -3.523102E+05 -4.531119E+03 -8.422424E+05 -1.619585E+04  3.430383E+04
        93   7 -9.274826E+05  4.183419E+04  2.491125E+05 -5.515724E+05 -3.637679E+04  4.549238E+04
        93   8 -1.106379E+06  1.449036E+04  2.185111E+05 -5.619213E+05 -2.944440E+04  3.883657E+04
        93   9 -1.229753E+06 -7.034863E+04  1.847481E+05 -6.360770E+05 -2.244493E+04  3.195963E+04
        93  10 -3.044013E+06 -7.496966E+05 -2.789037E+05 -1.131292E+06 -1.318091E-09 -2.135825E-10
        93  11 -2.920565E+06 -6.631797E+05 -2.346732E+05 -1.057825E+06 -9.711535E-10  6.589768E-10
        93  12 -2.741652E+06 -6.342374E+05 -1.938588E+05 -1.048180E+06 -1.852561E-09  1.097103E-10
        93  13 -1.986300E+06 -3.539700E+05 -1.485494E+04 -8.416565E+05 -1.734589E-10  3.120425E-10
        93  14 -2.013876E+06 -3.243724E+05 -8.050714E+03 -8.100374E+05 -4.502422E-10  5.223853E-10
        93  15 -1.985982E+06 -3.523115E+05 -4.533821E+03 -8.422419E+05 -1.118265E-09  4.251078E-10
        93  16 -9.274845E+05  4.183161E+04  2.491061E+05 -5.515710E+05  2.530196E-10  5.438670E-10
        93  17 -1.106380E+06  1.448851E+04  2.185066E+05 -5.619203E+05 -2.243661E-10  6.763377E-10
        93  18 -1.229753E+06 -7.034986E+04  1.847452E+05 -6.360764E+05  9.373208E-11  1.368486E-09
        93  19 -3.044011E+06 -7.496937E+05 -2.788979E+05 -1.131293E+06  2.450738E+04 -4.996473E+04
        93  20 -2.920564E+06 -6.631775E+05 -2.346691E+05 -1.057826E+06  1.726593E+04 -4.341524E+04
        93  21 -2.741651E+06 -6.342359E+05 -1.938561E+05 -1.048181E+06  9.955075E+03 -3.664493E+04
        93  22 -1.986298E+06 -3.539673E+05 -1.484892E+04 -8.416577E+05  3.043655E+04 -4.773063E+04
        93  23 -2.013875E+06 -3.243704E+05 -8.046515E+03 -8.100382E+05  2.335030E+04 -4.112773E+04
        93  24 -1.985981E+06 -3.523102E+05 -4.531119E+03 -8.422424E+05  1.619585E+04 -3.430383E+04
        93  25 -9.274826E+05  4.183419E+04  2.491125E+05 -5.515724E+05  3.637679E+04 -4.549238E+04
        93  26 -1.106379E+06  1.449036E+04  2.185111E+05 -5.619213E+05  2.944440E+04 -3.883657E+04
        93  27 -1.229753E+06 -7.034863E+04  1.847481E+05 -6.360770E+05  2.244493E+04 -3.195963E+04
        94   1 -2.596873E+06 -5.807547E+05 -1.557012E+05 -1.009295E+06 -7.440861E+03  3.196947E+04
        94   2 -2.470366E+06 -4.940629E+05 -1.162070E+05 -9.340265E+05 -3.091783E+03  2.392572E+04
        94   3 -2.286597E+06 -4.648231E+05 -7.759483E+04 -9.245665E+05  1.270364E+03  1.582781E+04
        94   4 -1.985605E+06 -3.527489E+05 -3.549568E+03 -8.424915E+05 -1.369044E+04  2.962752E+04
        94   5 -2.014184E+06 -3.238999E+05 -2.272383E+03 -8.096220E+05 -9.380218E+03  2.157170E+04
        94   6 -1.985526E+06 -3.524948E+05 -1.846236E+03 -8.425676E+05 -5.057314E+03  1.346177E+04
        94   7 -1.373964E+06 -1.247167E+05  1.485743E+05 -6.755370E+05 -1.994681E+04  2.728303E+04
        94   8 -1.557798E+06 -1.537237E+05  1.116458E+05 -6.851346E+05 -1.567370E+04  1.921580E+04
        94   9 -1.684368E+06 -2.401619E+05  7.389431E+04 -7.605336E+05 -1.138828E+04  1.109450E+04
        94  10 -2.596873E+06 -5.807558E+05 -1.557032E+05 -1.009295E+06 -7.364044E-09 -2.945091E-09
        94  11 -2.470366E+06 -4.940635E+05 -1.162081E+05 -9.340264E+05 -2.938210E-09 -1.708240E-09
        94  12 -2.286597E+06 -4.648234E+05 -7.759531E+04 -9.245665E+05  3.284888E-09  1.898594E-09
        94  13 -1.985605E+06 -3.527498E+05 -3.551568E+03 -8.424912E+05 -6.955303E-10 -4.996533E-10
        94  14 -2.014184E+06 -3.239004E+05 -2.273422E+03 -8.096218E+05 -1.589430E-09 -1.965221E-09
        94  15 -1.985526E+06 -3.524950E+05 -1.846624E+03 -8.425675E+05 -3.513482E-10 -4.436230E-10
        94  16 -1.373964E+06 -1.247176E+05  1.485721E+05 -6.755366E+05  5.471226E-09  2.335844E-09
        94  17 -1.557799E+06 -1.537242E+05  1.116446E+05 -6.851344E+05 -1.799528E-09 -1.397975E-09
        94  18 -1.684369E+06 -2.401621E+05  7.389384E+04 -7.605334E+05 -6.221206E-09 -3.082669E-09
        94  19 -2.596873E+06 -5.807547E+05 -1.557012E+05 -1.009295E+06  7.440861E+03 -3.196947E+04
        94  20 -2.470366E+06 -4.940629E+05 -1.162070E+05 -9.340265E+05  3.091783E+03 -2.392572E+04
        94  21 -2.286597E+06 -4.648231E+05 -7.759483E+04 -9.245665E+05 -1.270364E+03 -1.582781E+04
        94  22 -1.985605E+06 -3.527489E+05 -3.549568E+03 -8.424915E+05  1.369044E+04 -2.962752E+04
        94  23 -2.014184E+06 -3.238999E+05 -2.272383E+03 -8.096220E+05  9.380218E+03 -2.157170E+04
        94  24 -1.985526E+06 -3.524948E+05 -1.846236E+03 -8.425676E+05  5.057314E+03 -1.346177E+04
        94  25 -1.373964E+06 -1.247167E+05  1.485743E+05 -6.755370E+05  1.994681E+04 -2.728303E+04
        94  26 -1.557798E+06 -1.537237E+05  1.116458E+05 -6.851346E+05  1.567370E+04 -1.921580E+04
        94  27 -1.684368E+06 -2.401619E+05  7.389431E+04 -7.605336E+05  1.138828E+04 -1.109450E+04
        95   1 -2.139834E+06 -4.100899E+05 -3.989069E+04 -8.848441E+05  3.460908E+03  1.095858E+04
        95   2 -2.012137E+06 -3.229627E+05 -2.018840E+03 -8.089612E+05  7.925718E+03  2.851587E+03
        95   3 -1.826924E+06 -2.937446E+05  3.486588E+04 -7.994646E+05  1.238899E+04 -5.249860E+03
        95   4 -1.985453E+06 -3.525969E+05 -1.904504E+03 -8.426907E+05 -2.883153E+03  8.587253E+03
        95   5 -2.014206E+06 -3.236861E+05 -2.526957E+03 -8.094755E+05  1.584907E+03  4.813656E+02
        95   6 -1.985465E+06 -3.526869E+05 -4.137623E+03 -8.426567E+05  6.051059E+03 -7.619014E+03
        95   7 -1.831047E+06 -2.951020E+05  3.608027E+04 -8.005275E+05 -9.228974E+03  6.215266E+03
        95   8 -2.016274E+06 -3.244095E+05 -3.034907E+03 -8.099898E+05 -4.755942E+03 -1.888872E+03
        95   9 -2.143983E+06 -4.116284E+05 -4.314348E+04 -8.858394E+05 -2.851914E+02 -9.987542E+03
        95  10 -2.139834E+06 -4.100900E+05 -3.989094E+04 -8.848441E+05  1.687694E-10  9.770148E-10
        95  11 -2.012138E+06 -3.229628E+05 -2.018974E+03 -8.089612E+05 -7.849151E-10  6.830957E-10
        95  12 -1.826924E+06 -2.937447E+05  3.486554E+04 -7.994646E+05  6.482393E-10  1.187647E-10
        95  13 -1.985453E+06 -3.525970E+05 -1.904658E+03 -8.426907E+05 -1.606782E-10  4.850427E-10
        95  14 -2.014206E+06 -3.236861E+05 -2.526962E+03 -8.094755E+05  4.758141E-10  4.961828E-10
        95  15 -1.985465E+06 -3.526870E+05 -4.137801E+03 -8.426567E+05 -1.523870E-09  2.915918E-10
        95  16 -1.831048E+06 -2.951021E+05  3.608004E+04 -8.005274E+05 -5.677236E-10 -8.258493E-11
        95  17 -2.016274E+06 -3.244095E+05 -3.034957E+03 -8.099898E+05 -4.699506E-10  3.348961E-10
        95  18 -2.143983E+06 -4.116285E+05 -4.314367E+04 -8.858394E+05 -6.274154E-10  3.081858E-10
        95  19 -2.139834E+06 -4.100899E+05 -3.989069E+04 -8.848441E+05 -3.460908E+03 -1.095858E+04
        95  20 -2.012137E+06 -3.229627E+05 -2.018840E+03 -8.089612E+05 -7.925718E+03 -2.851587E+03
        95  21 -1.826924E+06 -2.937446E+05  3.486588E+04 -7.994646E+05 -1.238899E+04  5.249860E+03
        95  22 -1.985453E+06 -3.525969E+05 -1.904504E+03 -8.426907E+05  2.883153E+03 -8.587253E+03
        95  23 -2.014206E+06 -3.236861E+05 -2.526957E+03 -8.094755E+05 -1.584907E+03 -4.813656E+02
        95  24 -1.985465E+06 -3.526869E+05 -4.137623E+03 -8.426567E+05 -6.051059E+03  7.619014E+03
        95  25 -1.831047E+06 -2.951020E+05  3.608027E+04 -8.005275E+05  9.228974E+03 -6.215266E+03
        95  26 -2.016274E+06 -3.244095E+05 -3.034907E+03 -8.099898E+05  4.755942E+03  1.888872E+03
        95  27 -2.143983E+06 -4.116284E+05 -4.314348E+04 -8.858394E+05  2.851914E+02  9.987542E+03
        96   1 -1.680323E+06 -2.388609E+05  7.137292E+04 -7.598359E+05  1.505187E+04 -9.950525E+03
        96   2 -1.553525E+06 -1.520981E+05  1.053942E+05 -6.840740E+05  2.290818E+04 -1.671622E+04
        96   3 -1.370584E+06 -1.244986E+05  1.354670E+05 -6.738256E+05  3.071822E+04 -2.333503E+04
        96   4 -1.985718E+06 -3.524324E+05 -5.360463E+03 -8.426728E+05  8.698224E+03 -1.232639E+04
        96   5 -2.013915E+06 -3.237109E+05 -9.518557E+03 -8.095944E+05  1.665767E+04 -1.905610E+04
        96   6 -1.986011E+06 -3.541777E+05 -1.770758E+04 -8.420411E+05  2.456956E+04 -2.563927E+04
        96   7 -2.291018E+06 -4.659966E+05 -8.210000E+04 -9.254716E+05  2.348085E+03 -1.470095E+04
        96   8 -2.474093E+06 -4.953086E+05 -1.244468E+05 -9.350292E+05  1.041227E+04 -2.139407E+04
        96   9 -2.601064E+06 -5.838312E+05 -1.709112E+05 -1.010105E+06  1.842757E+04 -2.794102E+04
        96  10 -1.680323E+06 -2.388611E+05  7.137230E+04 -7.598358E+05 -7.467799E-10  1.678388E-10
        96  11 -1.553525E+06 -1.520985E+05  1.053926E+05 -6.840737E+05 -1.247644E-09  6.006160E-10
        96  12 -1.370585E+06 -1.244995E+05  1.354642E+05 -6.738250E+05 -1.050385E-09  7.699497E-10
        96  13 -1.985718E+06 -3.524326E+05 -5.360891E+03 -8.426727E+05 -2.204412E-09  1.710259E-10
        96  14 -2.013915E+06 -3.237113E+05 -9.519760E+03 -8.095941E+05 -8.119081E-10  1.213684E-09
        96  15 -1.986012E+06 -3.541786E+05 -1.770995E+04 -8.420406E+05  2.510584E-10  2.803313E-10
        96  16 -2.291018E+06 -4.659969E+05 -8.210042E+04 -9.254716E+05  5.616650E-11  3.850332E-10
        96  17 -2.474093E+06 -4.953091E+05 -1.244479E+05 -9.350290E+05  2.184901E-09  5.601728E-10
        96  18 -2.601065E+06 -5.838321E+05 -1.709133E+05 -1.010104E+06  5.732033E-10  2.737174E-10
        96  19 -1.680323E+06 -2.388609E+05  7.137292E+04 -7.598359E+05 -1.505187E+04  9.950525E+03
        96  20 -1.553525E+06 -1.520981E+05  1.053942E+05 -6.840740E+05 -2.290818E+04  1.671622E+04
        96  21 -1.370584E+06 -1.244986E+05  1.354670E+05 -6.738256E+05 -3.071822E+04  2.333503E+04
        96  22 -1.985718E+06 -3.524324E+05 -5.360463E+03 -8.426728E+05 -8.698224E+03  1.232639E+04
        96  23 -2.013915E+06 -3.237109E+05 -9.518557E+03 -8.095944E+05 -1.665767E+04  1.905610E+04
        96  24 -1.986011E+06 -3.541777E+05 -1.770758E+04 -8.420411E+05 -2.456956E+04  2.563927E+04
        96  25 -2.291018E+06 -4.659966E+05 -8.210000E+04 -9.254716E+05 -2.348085E+03  1.470095E+04
        96  26 -2.474093E+06 -4.953086E+05 -1.244468E+05 -9.350292E+05 -1.041227E+04  2.139407E+04
        96  27 -2.601064E+06 -5.838312E+05 -1.709112E+05 -1.010105E+06 -1.842757E+04  2.794102E+04
        97   1 -1.224905E+06 -7.045454E+04  1.671074E+05 -6.389058E+05  3.648585E+04 -2.703463E+04
        97   2 -1.101696E+06  1.920140E+04  1.862513E+05 -5.589562E+05  5.906865E+04 -2.770653E+04
        97   3 -9.336540E+05  2.852415E+04  1.843208E+05 -5.373461E+05  8.086861E+04 -2.624135E+04
        97   4 -1.987575E+06 -3.513959E+05 -2.310515E+04 -8.433019E+05  2.975254E+04 -2.956011E+04
        97   5 -2.011503E+06 -3.225954E+05 -4.136999E+04 -8.098219E+05  5.388318E+04 -2.965718E+04
        97   6 -1.990946E+06 -3.744716E+05 -8.196436E+04 -8.346981E+05  7.722530E+04 -2.761787E+04
        97   7 -2.749676E+06 -6.323043E+05 -2.133639E+05 -1.047472E+06  2.302825E+04 -3.208232E+04
        97   8 -2.920498E+06 -6.643356E+05 -2.690570E+05 -1.060353E+06  4.870598E+04 -3.160470E+04
        97   9 -3.047139E+06 -7.773816E+05 -3.483387E+05 -1.131585E+06  7.358872E+04 -2.899176E+04
        97  10 -1.224907E+06 -7.045568E+04  1.671035E+05 -6.389050E+05 -5.861347E-10  7.186632E-10
        97  11 -1.101700E+06  1.919964E+04  1.862433E+05 -5.589549E+05 -1.991557E-09 -3.616334E-10
        97  12 -9.336612E+05  2.852165E+04  1.843072E+05 -5.373444E+05  1.576573E-09  3.909729E-10
        97  13 -1.987576E+06 -3.513971E+05 -2.310845E+04 -8.433012E+05 -4.624155E-10  1.970543E-10
        97  14 -2.011506E+06 -3.225971E+05 -4.137711E+04 -8.098206E+05  4.265851E-10  5.502779E-11
        97  15 -1.990953E+06 -3.744740E+05 -8.197702E+04 -8.346964E+05  2.928024E-09  9.064770E-10
        97  16 -2.749677E+06 -6.323056E+05 -2.133668E+05 -1.047472E+06 -3.705339E-10 -1.667377E-10
        97  17 -2.920500E+06 -6.643373E+05 -2.690633E+05 -1.060352E+06  2.100767E-09  3.823662E-10
        97  18 -3.047145E+06 -7.773840E+05 -3.483504E+05 -1.131584E+06  3.650110E-09  1.489833E-09
        97  19 -1.224905E+06 -7.045454E+04  1.671074E+05 -6.389058E+05 -3.648585E+04  2.703463E+04
        97  20 -1.101696E+06  1.920140E+04  1.862513E+05 -5.589562E+05 -5.906865E+04  2.770653E+04
        97  21 -9.336540E+05  2.852415E+04  1.843208E+05 -5.373461E+05 -8.086861E+04  2.624135E+04
        97  22 -1.987575E+06 -3.513959E+05 -2.310515E+04 -8.433019E+05 -2.975254E+04  2.956011E+04
        97  23 -2.011503E+06 -3.225954E+05 -4.136999E+04 -8.098219E+05 -5.388318E+04  2.965718E+04
        97  24 -1.990946E+06 -3.744716E+05 -8.196436E+04 -8.346981E+05 -7.722530E+04  2.761787E+04
        97  25 -2.749676E+06 -6.323043E+05 -2.133639E+05 -1.047472E+06 -2.302825E+04  3.208232E+04
        97  26 -2.920498E+06 -6.643356E+05 -2.690570E+05 -1.060353E+06 -4.870598E+04  3.160470E+04
        97  27 -3.047139E+06 -7.773816E+05 -3.483387E+05 -1.131585E+06 -7.358872E+04  2.899176E+04
        98   1 -7.685069E+05  7.833721E+04  1.973710E+05 -5.628092E+05  1.108275E+05 -2.588903E+04
        98   2 -6.695566E+05  2.307415E+05  1.613709E+05 -4.048879E+05  1.760304E+05 -2.675747E+03
        98   3 -6.477249E+05  5.982968E+03 -1.166426E+04 -2.214930E+05  2.254063E+05  6.257131E+04
        98   4 -2.004779E+06 -3.385691E+05 -1.024810E+05 -8.549419E+05  9.429255E+04 -3.210521E+04
        98   5 -1.985523E+06 -3.037691E+05 -1.772993E+05 -8.086025E+05  1.904428E+05  2.726583E+03
        98   6 -2.049843E+06 -6.527668E+05 -4.139683E+05 -7.367427E+05  2.707338E+05  7.960849E+04
        98   7 -3.239543E+06 -7.554387E+05 -4.024423E+05 -1.146575E+06  7.779362E+04 -3.831090E+04
        98   8 -3.299779E+06 -8.380787E+05 -5.161117E+05 -1.211508E+06  2.048214E+05  8.113724E+03
        98   9 -3.450010E+06 -1.311063E+06 -8.164528E+05 -1.250832E+06  3.159483E+05  9.657930E+04
        98  10 -7.685203E+05  7.833319E+04  1.973467E+05 -5.628069E+05  3.348901E-09  1.375924E-09
        98  11 -6.695899E+05  2.307331E+05  1.613126E+05 -4.048875E+05  2.217586E-09  5.740838E-10
        98  12 -6.477805E+05  5.965099E+03 -1.176722E+04 -2.215043E+05  7.840760E-11  5.787088E-10
        98  13 -2.004788E+06 -3.385726E+05 -1.024997E+05 -8.549395E+05  2.896252E-09  1.243456E-09
        98  14 -1.985562E+06 -3.037789E+05 -1.773677E+05 -8.086030E+05  4.378026E-11  7.274622E-10
        98  15 -2.049923E+06 -6.527934E+05 -4.141185E+05 -7.367601E+05 -3.338146E-10  8.822265E-10
        98  16 -3.239550E+06 -7.554419E+05 -4.024565E+05 -1.146573E+06  5.923474E-10  9.708879E-10
        98  17 -3.299825E+06 -8.380901E+05 -5.161910E+05 -1.211509E+06 -2.359616E-09  8.853336E-10
        98  18 -3.450120E+06 -1.311100E+06 -8.166592E+05 -1.250857E+06 -3.425027E-10 -7.764965E-11
        98  19 -7.685069E+05  7.833721E+04  1.973710E+05 -5.628092E+05 -1.108275E+05  2.588903E+04
        98  20 -6.695566E+05  2.307415E+05  1.613709E+05 -4.048879E+05 -1.760304E+05  2.675747E+03
        98  21 -6.477249E+05  5.982968E+03 -1.166426E+04 -2.214930E+05 -2.254063E+05 -6.257131E+04
        98  22 -2.004779E+06 -3.385691E+05 -1.024810E+05 -8.549419E+05 -9.429255E+04  3.210521E+04
        98  23 -1.985523E+06 -3.037691E+05 -1.772993E+05 -8.086025E+05 -1.904428E+05 -2.726583E+03
        98  24 -2.049843E+06 -6.527668E+05 -4.139683E+05 -7.367427E+05 -2.707338E+05 -7.960849E+04
        98  25 -3.239543E+06 -7.554387E+05 -4.024423E+05 -1.146575E+06 -7.779362E+04  3.831090E+04
        98  26 -3.299779E+06 -8.380787E+05 -5.161117E+05 -1.211508E+06 -2.048214E+05 -8.113724E+03
        98  27 -3.450010E+06 -1.311063E+06 -8.164528E+05 -1.250832E+06 -3.159483E+05 -9.657930E+04
        99   1 -1.393553E+06 -2.323038E+05 -2.006791E+05 -1.848879E+04  4.984235E+04  1.740954E+04
        99   2 -1.299166E+06 -3.169751E+05 -2.285390E+05 -2.500707E+04  4.539253E+04  5.398330E+04
        99   3 -1.175628E+06 -2.912567E+05 -2.257356E+05 -8.206632E+04  4.101279E+04  5.514865E+04
        99   4 -1.422470E+04  1.107795E+05  1.354641E+05 -6.494993E+04  9.290671E+04  1.748873E+04
        99   5 -3.116418E+04 -5.338507E+03  6.089781E+04 -3.958538E+04  6.040618E+04  5.399722E+04
        99   6 -1.415305E+04 -6.318441E+03  3.642923E+04 -6.475273E+04  2.797858E+04  5.512918E+04
        99   7  1.366851E+06  4.537318E+05  4.714773E+05 -1.115155E+05  1.360665E+05  1.756138E+04
        99   8  1.238331E+06  3.061874E+05  3.502306E+05 -5.419430E+04  7.545017E+04  5.401043E+04
        99   9  1.148578E+06  2.785284E+05  2.985084E+05 -4.740663E+04  1.492015E+04  5.510901E+04
        99  10 -1.393556E+06 -2.323048E+05 -2.006843E+05 -1.848949E+04  6.660474E-10  3.600282E-10
        99  11 -1.299169E+06 -3.169788E+05 -2.285483E+05 -2.500905E+04 -3.581775E-10 -5.154920E-10
        99  12 -1.175630E+06 -2.912605E+05 -2.257445E+05 -8.206814E+04 -3.464301E-10 -6.482183E-10
        99  13 -1.423405E+04  1.107768E+05  1.354473E+05 -6.495124E+04  1.081226E-09 -5.535717E-10
        99  14 -3.116888E+04 -5.342618E+03  6.088548E+04 -3.958801E+04 -7.644719E-10 -1.868576E-10
        99  15 -1.415470E+04 -6.321915E+03  3.642205E+04 -6.475397E+04  7.813135E-13 -9.038216E-10
        99  16  1.366831E+06  4.537265E+05  4.714420E+05 -1.115174E+05 -3.147523E-10  7.324338E-10
        99  17  1.238325E+06  3.061828E+05  3.502144E+05 -5.419758E+04  1.796143E-10 -7.719585E-10
        99  18  1.148577E+06  2.785250E+05  2.985023E+05 -4.740729E+04  1.703212E-09 -1.026538E-09
        99  19 -1.393553E+06 -2.323038E+05 -2.006791E+05 -1.848879E+04 -4.984235E+04 -1.740954E+04
        99  20 -1.299166E+06 -3.169751E+05 -2.285390E+05 -2.500707E+04 -4.539253E+04 -5.398330E+04
        99  21 -1.175628E+06 -2.912567E+05 -2.257356E+05 -8.206632E+04 -4.101279E+04 -5.514865E+04
        99  22 -1.422470E+04  1.107795E+05  1.354641E+05 -6.494993E+04 -9.290671E+04 -1.748873E+04
        99  23 -3.116418E+04 -5.338507E+03  6.089781E+04 -3.958538E+04 -6.040618E+04 -5.399722E+04
        99  24 -1.415305E+04 -6.318441E+03  3.642923E+04 -6.475273E+04 -2.797858E+04 -5.512918E+04
        99  25  1.366851E+06  4.537318E+05  4.714773E+05 -1.115155E+05 -1.360665E+05 -1.756138E+04
        99  26  1.238331E+06  3.061874E+05  3.502306E+05 -5.419430E+04 -7.545017E+04 -5.401043E+04
        99  27  1.148578E+06  2.785284E+05  2.985084E+05 -4.740663E+04 -1.492015E+04 -5.510901E+04
       100   1 -1.084859E+06 -2.541558E+05 -2.122282E+05 -6.317811E+04  2.496167E+04  4.804815E+04
       100   2 -9.778966E+05 -2.350889E+05 -2.005927E+05 -3.891090E+04  1.843673E+04  4.431386E+04
       100   3 -8.676623E+05 -2.083484E+05 -1.826749E+05 -6.641265E+04  1.190452E+04  3.894894E+04
       100   4 -2.087289E+04  7.060211E+03  2.917613E+04 -6.508092E+04  2.268309E+04  4.804049E+04
       100   5 -2.258432E+04 -6.862788E+02  1.553190E+04 -3.919705E+04  1.485614E+04  4.430751E+04
       100   6 -2.081573E+04 -5.397512E+02  9.066207E+03 -6.507694E+04  7.023027E+03  3.894505E+04
       100   7  1.044166E+06  2.681981E+05  2.705073E+05 -6.698718E+04  2.040061E+04  4.803285E+04
       100   8  9.335768E+05  2.336536E+05  2.315979E+05 -3.948371E+04  1.127007E+04  4.430117E+04
       100   9  8.266976E+05  2.072195E+05  2.007612E+05 -6.373936E+04  2.134930E+03  3.894114E+04
       100  10 -1.084860E+06 -2.541584E+05 -2.122337E+05 -6.317908E+04 -2.502038E-09 -7.117138E-10
       100  11 -9.778975E+05 -2.350911E+05 -2.005970E+05 -3.891155E+04  1.862366E-09  3.217719E-11
       100  12 -8.676628E+05 -2.083501E+05 -1.826780E+05 -6.641303E+04  1.862029E-09 -5.083043E-10
       100  13 -2.087407E+04  7.057594E+03  2.917083E+04 -6.508180E+04  1.353241E-11 -1.085104E-09
       100  14 -2.258508E+04 -6.884461E+02  1.552780E+04 -3.919758E+04 -1.156170E-09  1.270456E-09
       100  15 -2.081619E+04 -5.413931E+02  9.063264E+03 -6.507716E+04  2.736611E-10 -6.539353E-11
       100  16  1.044165E+06  2.681955E+05  2.705022E+05 -6.698797E+04  8.900341E-10 -2.975161E-10
       100  17  9.335761E+05  2.336514E+05  2.315939E+05 -3.948411E+04 -1.330881E-09  1.091870E-09
       100  18  8.266972E+05  2.072179E+05  2.007583E+05 -6.373942E+04 -2.652925E-09 -1.582164E-10
       100  19 -1.084859E+06 -2.541558E+05 -2.122282E+05 -6.317811E+04 -2.496167E+04 -4.804815E+04
       100  20 -9.778966E+05 -2.350889E+05 -2.005927E+05 -3.891090E+04 -1.843673E+04 -4.431386E+04
       100  21 -8.676623E+05 -2.083484E+05 -1.826749E+05 -6.641265E+04 -1.190452E+04 -3.894894E+04
       100  22 -2.087289E+04  7.060211E+03  2.917613E+04 -6.508092E+04 -2.268309E+04 -4.804049E+04
       100  23 -2.258432E+04 -6.862788E+02  1.553190E+04 -3.919705E+04 -1.485614E+04 -4.430751E+04
       100  24 -2.081573E+04 -5.397512E+02  9.066207E+03 -6.507694E+04 -7.023027E+03 -3.894505E+04
       100  25  1.044166E+06  2.681981E+05  2.705073E+05 -6.698718E+04 -2.040061E+04 -4.803285E+04
       100  26  9.335768E+05  2.336536E+05  2.315979E+05 -3.948371E+04 -1.127007E+04 -4.430117E+04
       100  27  8.266976E+05  2.072195E+05  2.007612E+05 -6.373936E+04 -2.134930E+03 -3.894114E+04
       101   1 -7.712788E+05 -1.835543E+05 -1.622858E+05 -6.505317E+04  9.998054E+03  3.546973E+04
       101   2 -6.629141E+05 -1.574129E+05 -1.410246E+05 -3.909616E+04  8.105242E+03  2.988230E+04
       101   3 -5.539926E+05 -1.306920E+05 -1.183506E+05 -6.497220E+04  6.206829E+03  2.421956E+04
       101   4 -2.142873E+04  3.397730E+02  6.975561E+03 -6.509260E+04  5.610987E+03  3.546733E+04
       101   5 -2.168738E+04 -1.220630E+02  3.938141E+03 -3.917778E+04  3.656092E+03  2.988177E+04
       101   6 -2.139008E+04  6.612803E+00  2.355645E+03 -6.509275E+04  1.695923E+03  2.422098E+04
       101   7  7.289445E+05  1.841952E+05  1.762010E+05 -6.513203E+04  1.218664E+03  3.546493E+04
       101   8  6.199218E+05  1.571405E+05  1.488745E+05 -3.925945E+04 -7.976138E+02  2.988124E+04
       101   9  5.114761E+05  1.306857E+05  1.230436E+05 -6.521336E+04 -2.818819E+03  2.422240E+04
       101  10 -7.712792E+05 -1.835556E+05 -1.622884E+05 -6.505346E+04 -1.804709E-10 -7.272168E-10
       101  11 -6.629145E+05 -1.574139E+05 -1.410264E+05 -3.909635E+04 -1.303787E-09  1.626992E-10
       101  12 -5.539928E+05 -1.306927E+05 -1.183517E+05 -6.497232E+04  4.560466E-10  3.719254E-10
       101  13 -2.142910E+04  3.384137E+02  6.973138E+03 -6.509276E+04 -1.074873E-09 -5.503662E-10
       101  14 -2.168764E+04 -1.230254E+02  3.936438E+03 -3.917787E+04 -1.572514E-09  1.057291E-10
       101  15 -2.139024E+04  5.982065E+00  2.354538E+03 -6.509279E+04 -2.412408E-09  9.407487E-10
       101  16  7.289441E+05  1.841938E+05  1.761986E+05 -6.513206E+04 -1.180281E-10 -9.485076E-10
       101  17  6.199215E+05  1.571395E+05  1.488728E+05 -3.925943E+04 -1.937416E-09 -7.774727E-10
       101  18  5.114760E+05  1.306851E+05  1.230425E+05 -6.521331E+04  1.068908E-09  5.796262E-10
       101  19 -7.712788E+05 -1.835543E+05 -1.622858E+05 -6.505317E+04 -9.998054E+03 -3.546973E+04
       101  20 -6.629141E+05 -1.574129E+05 -1.410246E+05 -3.909616E+04 -8.105242E+03 -2.988230E+04
       101  21 -5.539926E+05 -1.306920E+05 -1.183506E+05 -6.497220E+04 -6.206829E+03 -2.421956E+04
       101  22 -2.142873E+04  3.397730E+02  6.975561E+03 -6.509260E+04 -5.610987E+03 -3.546733E+04
       101  23 -2.168738E+04 -1.220630E+02  3.938141E+03 -3.917778E+04 -3.656092E+03 -2.988177E+04
       101  24 -2.139008E+04  6.612803E+00  2.355645E+03 -6.509275E+04 -1.695923E+03 -2.422098E+04
       101  25  7.289445E+05  1.841952E+05  1.762010E+05 -6.513203E+04 -1.218664E+03 -3.546493E+04
       101  26  6.199218E+05  1.571405E+05  1.488745E+05 -3.925945E+04  7.976138E+02 -2.988124E+04
       101  27  5.114761E+05  1.306857E+05  1.230436E+05 -6.521336E+04  2.818819E+03 -2.422240E+04
       102   1 -4.570616E+05 -1.067123E+05 -9.630343E+04 -6.491063E+04  5.804036E+03  2.090722E+04
       102   2 -3.484089E+05 -8.014676E+04 -7.268429E+04 -3.900335E+04  5.209152E+03  1.523429E+04
       102   3 -2.396890E+05 -5.346609E+04 -4.866138E+04 -6.493671E+04  4.611476E+03  9.557773E+03
       102   4 -2.147837E+04  5.844313E+01  1.840994E+03 -6.509475E+04  1.315089E+03  2.090953E+04
       102   5 -2.149764E+04  2.781015E+01  1.204082E+03 -3.917525E+04  7.166667E+02  1.523755E+04
       102   6 -2.145864E+04  1.140598E+02  9.740791E+02 -6.509473E+04  1.155552E+02  9.562026E+03
       102   7  4.142814E+05  1.068161E+05  9.997338E+04 -6.527896E+04 -3.176980E+03  2.091184E+04
       102   8  3.055130E+05  8.019504E+04  7.508567E+04 -3.934723E+04 -3.778163E+03  1.524082E+04
       102   9  1.968159E+05  5.369093E+04  5.060652E+04 -6.525279E+04 -4.381932E+03  9.566280E+03
       102  10 -4.570617E+05 -1.067127E+05 -9.630431E+04 -6.491073E+04  1.963511E-09  2.987231E-10
       102  11 -3.484090E+05 -8.014701E+04 -7.268478E+04 -3.900341E+04  6.571191E-10  2.019233E-10
       102  12 -2.396890E+05 -5.346619E+04 -4.866159E+04 -6.493675E+04 -1.308692E-09  2.910733E-10
       102  13 -2.147849E+04  5.797319E+01  1.840169E+03 -6.509477E+04 -4.519272E-12 -1.590657E-10
       102  14 -2.149770E+04  2.756069E+01  1.203644E+03 -3.917526E+04  1.182196E-09  1.292230E-10
       102  15 -2.145866E+04  1.139616E+02  9.739072E+02 -6.509473E+04  1.470395E-10  2.789721E-10
       102  16  4.142813E+05  1.068157E+05  9.997254E+04 -6.527891E+04 -6.162647E-10  4.716434E-10
       102  17  3.055129E+05  8.019478E+04  7.508521E+04 -3.934718E+04 -2.052198E-09 -6.179697E-10
       102  18  1.968159E+05  5.369082E+04  5.060631E+04 -6.525276E+04 -6.959018E-12 -5.826592E-11
       102  19 -4.570616E+05 -1.067123E+05 -9.630343E+04 -6.491063E+04 -5.804036E+03 -2.090722E+04
       102  20 -3.484089E+05 -8.014676E+04 -7.268429E+04 -3.900335E+04 -5.209152E+03 -1.523429E+04
       102  21 -2.396890E+05 -5.346609E+04 -4.866138E+04 -6.493671E+04 -4.611476E+03 -9.557773E+03
       102  22 -2.147837E+04  5.844313E+01  1.840994E+03 -6.509475E+04 -1.315089E+03 -2.090953E+04
       102  23 -2.149764E+04  2.781015E+01  1.204082E+03 -3.917525E+04 -7.166667E+02 -1.523755E+04
       102  24 -2.145864E+04  1.140598E+02  9.740791E+02 -6.509473E+04 -1.155552E+02 -9.562026E+03
       102  25  4.142814E+05  1.068161E+05  9.997338E+04 -6.527896E+04  3.176980E+03 -2.091184E+04
       102  26  3.055130E+05  8.019504E+04  7.508567E+04 -3.934723E+04  3.778163E+03 -1.524082E+04
       102  27  1.968159E+05  5.369093E+04  5.060652E+04 -6.525279E+04  4.381932E+03 -9.566280E+03
       103   1 -1.426352E+05 -2.953579E+04 -2.610266E+04 -6.500370E+04  4.431857E+03  6.252982E+03
       103   2 -3.392088E+04 -2.991972E+03 -1.631057E+03 -3.914065E+04  3.839238E+03  5.771908E+02
       103   3  7.479488E+04  2.367790E+04  2.322917E+04 -6.512331E+04  3.246408E+03 -5.096087E+03
       103   4 -2.146633E+04  1.141819E+02  9.659207E+02 -6.509622E+04 -6.426313E+01  6.257555E+03
       103   5 -2.146018E+04  6.344400E+01  1.184570E+03 -3.917338E+04 -6.553042E+02  5.817760E+02
       103   6 -2.146557E+04  1.388236E+02  1.790805E+03 -6.509618E+04 -1.246455E+03 -5.091445E+03
       103   7  9.971629E+04  2.976316E+04  2.803365E+04 -6.518874E+04 -4.561252E+03  6.262128E+03
       103   8 -8.999292E+03  3.118860E+03  4.000263E+03 -3.920611E+04 -5.149935E+03  5.863617E+02
       103   9 -1.177173E+05 -2.340087E+04 -1.964806E+04 -6.506905E+04 -5.738628E+03 -5.086802E+03
       103  10 -1.426353E+05 -2.953584E+04 -2.610277E+04 -6.500373E+04 -5.493985E-11  3.830624E-10
       103  11 -3.392089E+04 -2.991977E+03 -1.631086E+03 -3.914066E+04  1.043919E-09  4.894757E-10
       103  12  7.479487E+04  2.367787E+04  2.322910E+04 -6.512329E+04 -2.683255E-10 -1.624390E-10
       103  13 -2.146634E+04  1.141398E+02  9.658471E+02 -6.509622E+04 -1.077558E-09  1.520776E-10
       103  14 -2.146018E+04  6.344352E+01  1.184569E+03 -3.917338E+04  6.553301E-10 -1.390683E-09
       103  15 -2.146558E+04  1.387954E+02  1.790753E+03 -6.509618E+04 -1.195552E-09  2.819740E-10
       103  16  9.971626E+04  2.976312E+04  2.803354E+04 -6.518872E+04 -2.095332E-09  5.547867E-10
       103  17 -8.999321E+03  3.118853E+03  4.000213E+03 -3.920611E+04 -2.681322E-09 -1.241412E-09
       103  18 -1.177174E+05 -2.340091E+04 -1.964817E+04 -6.506908E+04  1.701176E-09 -1.733755E-10
       103  19 -1.426352E+05 -2.953579E+04 -2.610266E+04 -6.500370E+04 -4.431857E+03 -6.252982E+03
       103  20 -3.392088E+04 -2.991972E+03 -1.631057E+03 -3.914065E+04 -3.839238E+03 -5.771908E+02
       103  21  7.479488E+04  2.367790E+04  2.322917E+04 -6.512331E+04 -3.246408E+03  5.096087E+03
       103  22 -2.146633E+04  1.141819E+02  9.659207E+02 -6.509622E+04  6.426313E+01 -6.257555E+03
       103  23 -2.146018E+04  6.344400E+01  1.184570E+03 -3.917338E+04  6.553042E+02 -5.817760E+02
       103  24 -2.146557E+04  1.388236E+02  1.790805E+03 -6.509618E+04  1.246455E+03  5.091445E+03
       103  25  9.971629E+04  2.976316E+04  2.803365E+04 -6.518874E+04  4.561252E+03 -6.262128E+03
       103  26 -8.999292E+03  3.118860E+03  4.000263E+03 -3.920611E+04  5.149935E+03 -5.863617E+02
       103  27 -1.177173E+05 -2.340087E+04 -1.964806E+04 -6.506905E+04  5.738628E+03  5.086802E+03
       104   1  1.719556E+05  4.755522E+04  4.627930E+04 -6.511539E+04  2.893293E+03 -8.405619E+03
       104   2  2.805085E+05  7.404367E+04  7.207863E+04 -3.929222E+04  9.421748E+02 -1.406886E+04
       104   3  3.894192E+05  1.011421E+05  9.928394E+04 -6.530821E+04 -1.006759E+03 -1.967462E+04
       104   4 -2.139430E+04  8.890827E+01  2.279028E+03 -6.509521E+04 -1.617112E+03 -8.401231E+03
       104   5 -2.157299E+04 -1.401376E+01  3.824192E+03 -3.917466E+04 -3.522199E+03 -1.406543E+04
       104   6 -2.141249E+04  4.860514E+02  6.744505E+03 -6.509481E+04 -5.424768E+03 -1.967209E+04
       104   7 -2.147094E+05 -4.737998E+04 -4.172360E+04 -6.507503E+04 -6.126125E+03 -8.396843E+03
       104   8 -3.235696E+05 -7.407795E+04 -6.443602E+04 -3.905714E+04 -7.984422E+03 -1.406200E+04
       104   9 -4.320873E+05 -1.001815E+05 -8.580563E+04 -6.488151E+04 -9.839883E+03 -1.966956E+04
       104  10  1.719555E+05  4.755514E+04  4.627915E+04 -6.511537E+04  9.452200E-10  4.796565E-11
       104  11  2.805084E+05  7.404345E+04  7.207825E+04 -3.929221E+04  4.293587E-10 -1.125012E-10
       104  12  3.894191E+05  1.011417E+05  9.928321E+04 -6.530823E+04  7.768082E-10 -7.213067E-11
       104  13 -2.139432E+04  8.883178E+01  2.278891E+03 -6.509522E+04 -1.075199E-09  7.494344E-10
       104  14 -2.157306E+04 -1.422954E+01  3.823797E+03 -3.917470E+04 -1.514745E-09 -4.057370E-10
       104  15 -2.141263E+04  4.856279E+02  6.743722E+03 -6.509489E+04  1.215542E-09 -3.892900E-10
       104  16 -2.147095E+05 -4.738007E+04 -4.172380E+04 -6.507507E+04 -1.385867E-09  4.478334E-10
       104  17 -3.235698E+05 -7.407818E+04 -6.443652E+04 -3.905723E+04 -5.931269E-10  1.125784E-09
       104  18 -4.320875E+05 -1.001820E+05 -8.580654E+04 -6.488167E+04 -5.848621E-10  1.810838E-10
       104  19  1.719556E+05  4.755522E+04  4.627930E+04 -6.511539E+04 -2.893293E+03  8.405619E+03
       104  20  2.805085E+05  7.404367E+04  7.207863E+04 -3.929222E+04 -9.421748E+02  1.406886E+04
       104  21  3.894192E+05  1.011421E+05  9.928394E+04 -6.530821E+04  1.006759E+03  1.967462E+04
       104  22 -2.139430E+04  8.890827E+01  2.279028E+03 -6.509521E+04  1.617112E+03  8.401231E+03
       104  23 -2.157299E+04 -1.401376E+01  3.824192E+03 -3.917466E+04  3.522199E+03  1.406543E+04
       104  24 -2.141249E+04  4.860514E+02  6.744505E+03 -6.509481E+04  5.424768E+03  1.967209E+04
       104  25 -2.147094E+05 -4.737998E+04 -4.172360E+04 -6.507503E+04  6.126125E+03  8.396843E+03
       104  26 -3.235696E+05 -7.407795E+04 -6.443602E+04 -3.905714E+04  7.984422E+03  1.406200E+04
       104  27 -4.320873E+05 -1.001815E+05 -8.580563E+04 -6.488151E+04  9.839883E+03  1.966956E+04
       105   1  4.871278E+05  1.242064E+05  1.237945E+05 -6.407337E+04 -1.995617E+03 -2.310993E+04
       105   2  5.942616E+05  1.506678E+05  1.544197E+05 -3.996508E+04 -1.057262E+04 -2.853996E+04
       105   3  7.046108E+05  1.849664E+05  1.926100E+05 -6.764268E+04 -1.914602E+04 -3.272737E+04
       105   4 -2.083394E+04 -3.627801E+02  8.757709E+03 -6.508426E+04 -6.791825E+03 -2.310800E+04
       105   5 -2.237132E+04 -4.939934E+02  1.503443E+04 -3.918854E+04 -1.437728E+04 -2.854037E+04
       105   6 -2.087076E+04  7.045897E+03  2.819426E+04 -6.508159E+04 -2.195768E+04 -3.272956E+04
       105   7 -5.285561E+05 -1.249498E+05 -1.062956E+05 -6.609426E+04 -1.158415E+04 -2.310606E+04
       105   8 -6.386511E+05 -1.516819E+05 -1.243753E+05 -3.841273E+04 -1.817820E+04 -2.854079E+04
       105   9 -7.458638E+05 -1.709108E+05 -1.362554E+05 -6.252348E+04 -2.476607E+04 -3.273178E+04
       105  10  4.871276E+05  1.242059E+05  1.237934E+05 -6.407341E+04 -8.966520E-10  2.066881E-10
       105  11  5.942613E+05  1.506669E+05  1.544180E+05 -3.996532E+04  5.104770E-10 -9.416570E-10
       105  12  7.046101E+05  1.849651E+05  1.926073E+05 -6.764318E+04  1.183267E-09 -8.428290E-10
       105  13 -2.083413E+04 -3.633659E+02  8.756619E+03 -6.508439E+04  5.400048E-12  3.265506E-10
       105  14 -2.237176E+04 -4.949236E+02  1.503251E+04 -3.918887E+04  5.276210E-11  3.891801E-10
       105  15 -2.087156E+04  7.044617E+03  2.819134E+04 -6.508217E+04 -1.316608E-10 -8.368003E-10
       105  16 -5.285564E+05 -1.249504E+05 -1.062968E+05 -6.609448E+04 -5.507304E-10  3.879016E-10
       105  17 -6.386517E+05 -1.516828E+05 -1.243774E+05 -3.841314E+04 -6.721017E-10  3.257715E-10
       105  18 -7.458648E+05 -1.709121E+05 -1.362585E+05 -6.252413E+04 -2.895236E-09 -7.727676E-10
       105  19  4.871278E+05  1.242064E+05  1.237945E+05 -6.407337E+04  1.995617E+03  2.310993E+04
       105  20  5.942616E+05  1.506678E+05  1.544197E+05 -3.996508E+04  1.057262E+04  2.853996E+04
       105  21  7.046108E+05  1.849664E+05  1.926100E+05 -6.764268E+04  1.914602E+04  3.272737E+04
       105  22 -2.083394E+04 -3.627801E+02  8.757709E+03 -6.508426E+04  6.791825E+03  2.310800E+04
       105  23 -2.237132E+04 -4.939934E+02  1.503443E+04 -3.918854E+04  1.437728E+04  2.854037E+04
       105  24 -2.087076E+04  7.045897E+03  2.819426E+04 -6.508159E+04  2.195768E+04  3.272956E+04
       105  25 -5.285561E+05 -1.249498E+05 -1.062956E+05 -6.609426E+04  1.158415E+04  2.310606E+04
       105  26 -6.386511E+05 -1.516819E+05 -1.243753E+05 -3.841273E+04  1.817820E+04  2.854079E+04
       105  27 -7.458638E+05 -1.709108E+05 -1.362554E+05 -6.252348E+04  2.476607E+04  3.273178E+04
       106   1  8.086789E+05  1.957885E+05  2.207995E+05 -4.898341E+04 -1.605417E+04 -3.891227E+04
       106   2  8.996787E+05  2.234515E+05  2.710327E+05 -5.475200E+04 -6.882959E+04 -3.937264E+04
       106   3  1.026695E+06  3.659519E+05  3.843953E+05 -1.113108E+05 -1.216355E+05 -1.287199E+04
       106   4 -1.439500E+04 -5.868590E+03  3.519793E+04 -6.484748E+04 -2.707957E+04 -3.891516E+04
       106   5 -3.059095E+04 -4.922315E+03  5.888568E+04 -3.948043E+04 -5.843643E+04 -3.937491E+04
       106   6 -1.444732E+04  1.072348E+05  1.308893E+05 -6.490094E+04 -8.981263E+04 -1.286090E+04
       106   7 -8.368388E+05 -2.075711E+05 -1.504464E+05 -8.069030E+04 -3.809050E+04 -3.891749E+04
       106   8 -9.600581E+05 -2.333552E+05 -1.533172E+05 -2.423196E+04 -4.805864E+04 -3.937667E+04
       106   9 -1.054595E+06 -1.515535E+05 -1.226904E+05 -1.856911E+04 -5.804281E+04 -1.284506E+04
       106  10  8.086782E+05  1.957868E+05  2.207961E+05 -4.898391E+04 -6.839796E-10 -1.475374E-10
       106  11  8.996732E+05  2.234486E+05  2.710209E+05 -5.475418E+04  2.194723E-10  9.577378E-10
       106  12  1.026679E+06  3.659477E+05  3.843673E+05 -1.113121E+05  9.431262E-11  2.715877E-10
       106  13 -1.439619E+04 -5.870414E+03  3.519370E+04 -6.484833E+04 -2.183713E-09 -4.697352E-10
       106  14 -3.059504E+04 -4.924896E+03  5.887635E+04 -3.948228E+04 -2.236345E-09  1.157114E-09
       106  15 -1.445602E+04  1.072324E+05  1.308739E+05 -6.490187E+04  5.309231E-10  1.992863E-10
       106  16 -8.368407E+05 -2.075732E+05 -1.504519E+05 -8.069149E+04 -1.290505E-09 -8.281568E-10
       106  17 -9.600610E+05 -2.333575E+05 -1.533245E+05 -2.423348E+04 -1.206477E-09  1.133995E-10
       106  18 -1.054598E+06 -1.515546E+05 -1.226970E+05 -1.856971E+04 -1.123956E-09 -1.253866E-10
       106  19  8.086789E+05  1.957885E+05  2.207995E+05 -4.898341E+04  1.605417E+04  3.891227E+04
       106  20  8.996787E+05  2.234515E+05  2.710327E+05 -5.475200E+04  6.882959E+04  3.937264E+04
       106  21  1.026695E+06  3.659519E+05  3.843953E+05 -1.113108E+05  1.216355E+05  1.287199E+04
       106  22 -1.439500E+04 -5.868590E+03  3.519793E+04 -6.484748E+04  2.707957E+04  3.891516E+04
       106  23 -3.059095E+04 -4.922315E+03  5.888568E+04 -3.948043E+04  5.843643E+04  3.937491E+04
       106  24 -1.444732E+04  1.072348E+05  1.308893E+05 -6.490094E+04  8.981263E+04  1.286090E+04
       106  25 -8.368388E+05 -2.075711E+05 -1.504464E+05 -8.069030E+04  3.809050E+04  3.891749E+04
       106  26 -9.600581E+05 -2.333552E+05 -1.533172E+05 -2.423196E+04  4.805864E+04  3.937667E+04
       106  27 -1.054595E+06 -1.515535E+05 -1.226904E+05 -1.856911E+04  5.804281E+04  1.284506E+04
       107   1  4.574857E+05  1.363837E+06  4.622945E+05 -4.149495E+05  1.281197E+04  1.825093E+05
       107   2  2.474821E+05  1.016681E+06  2.662956E+05 -3.247128E+05  3.878287E+04  8.878358E+04
       107   3  1.401663E+05  7.070920E+05  1.568510E+05 -3.103134E+05  3.348067E+04 -4.961424E+03
       107   4  1.533482E+05  1.375783E+05  1.698642E+05 -3.187258E+05  1.302982E+04  1.158416E+05
       107   5  3.215221E+04  1.232791E+05  8.393047E+04 -2.810283E+05  3.884142E+04  7.254974E+04
       107   6  4.988111E+03  1.377757E+05  4.964472E+04 -3.191460E+05  3.337509E+04  2.918614E+04
       107   7 -1.508617E+05 -1.087275E+06 -1.226503E+05 -2.226915E+05  1.322729E+04  4.930455E+04
       107   8 -1.832206E+05 -7.693604E+05 -9.847485E+04 -2.374071E+05  3.889773E+04  5.633874E+04
       107   9 -1.302079E+05 -4.312251E+05 -5.757131E+04 -3.279701E+05  3.326849E+04  6.330317E+04
       107  10  4.574766E+05  1.363801E+06  4.622317E+05 -4.149514E+05  1.144560E-09  1.624005E-09
       107  11  2.474784E+05  1.016672E+06  2.662780E+05 -3.247155E+05  1.420377E-09 -9.555253E-10
       107  12  1.401651E+05  7.070916E+05  1.568488E+05 -3.103133E+05  1.195213E-09 -2.006428E-09
       107  13  1.533444E+05  1.375638E+05  1.698387E+05 -3.187271E+05 -1.181474E-09  6.149180E-10
       107  14  3.214917E+04  1.232731E+05  8.391774E+04 -2.810306E+05  7.478747E-10 -6.589197E-10
       107  15  4.986685E+03  1.377744E+05  4.964102E+04 -3.191468E+05  2.896014E-10  4.620261E-10
       107  16 -1.508625E+05 -1.087277E+06 -1.226553E+05 -2.226920E+05 -1.003337E-09 -1.185195E-09
       107  17 -1.832231E+05 -7.693642E+05 -9.848367E+04 -2.374089E+05 -5.067542E-10  1.832961E-09
       107  18 -1.302102E+05 -4.312297E+05 -5.758094E+04 -3.279717E+05 -1.921483E-09  1.150320E-09
       107  19  4.574857E+05  1.363837E+06  4.622945E+05 -4.149495E+05 -1.281197E+04 -1.825093E+05
       107  20  2.474821E+05  1.016681E+06  2.662956E+05 -3.247128E+05 -3.878287E+04 -8.878358E+04
       107  21  1.401663E+05  7.070920E+05  1.568510E+05 -3.103134E+05 -3.348067E+04  4.961424E+03
       107  22  1.533482E+05  1.375783E+05  1.698642E+05 -3.187258E+05 -1.302982E+04 -1.158416E+05
       107  23  3.215221E+04  1.232791E+05  8.393047E+04 -2.810283E+05 -3.884142E+04 -7.254974E+04
       107  24  4.988111E+03  1.377757E+05  4.964472E+04 -3.191460E+05 -3.337509E+04 -2.918614E+04
       107  25 -1.508617E+05 -1.087275E+06 -1.226503E+05 -2.226915E+05 -1.322729E+04 -4.930455E+04
       107  26 -1.832206E+05 -7.693604E+05 -9.847485E+04 -2.374071E+05 -3.889773E+04 -5.633874E+04
       107  27 -1.302079E+05 -4.312251E+05 -5.757131E+04 -3.279701E+05 -3.326849E+04 -6.330317E+04
       108   1  9.180087E+04  4.836038E+05  1.069629E+05 -3.234552E+05  2.051255E+04 -7.978351E+03
       108   2  8.453277E+03  1.536009E+05  3.406262E+04 -2.809352E+05  1.680553E+03 -2.313034E+04
       108   3 -6.705156E+04 -1.728723E+05 -2.716006E+04 -3.161824E+05 -1.724377E+04 -3.827528E+04
       108   4  8.236505E+03  1.321699E+05  4.058124E+04 -3.195212E+05  2.041590E+04  2.231488E+04
       108   5  3.006231E+03  1.304716E+05  2.996216E+04 -2.806427E+05  1.583310E+03  7.309212E+03
       108   6  5.599819E+03  1.321750E+05  3.092358E+04 -3.195296E+05 -1.734167E+04 -7.696974E+03
       108   7 -7.533452E+04 -2.191429E+05 -2.580244E+04 -3.155893E+05  2.031959E+04  5.259139E+04
       108   8 -2.440346E+03  1.073448E+05  2.586517E+04 -2.803501E+05  1.486094E+03  3.774766E+04
       108   9  7.824627E+04  4.373141E+05  8.900654E+04 -3.228785E+05 -1.743988E+04  2.289600E+04
       108  10  9.180040E+04  4.836037E+05  1.069620E+05 -3.234551E+05  5.998243E-10  4.662555E-09
       108  11  8.453130E+03  1.536004E+05  3.406161E+04 -2.809352E+05  5.354030E-10  4.431532E-10
       108  12 -6.705228E+04 -1.728740E+05 -2.716337E+04 -3.161829E+05  2.716486E-10 -2.924103E-09
       108  13  8.235924E+03  1.321692E+05  4.057952E+04 -3.195216E+05  3.267133E-10  7.781097E-10
       108  14  3.006214E+03  1.304716E+05  2.996206E+04 -2.806427E+05  1.610148E-09 -6.966245E-10
       108  15  5.599480E+03  1.321749E+05  3.092290E+04 -3.195297E+05  4.926532E-10  4.503373E-10
       108  16 -7.533570E+04 -2.191460E+05 -2.580842E+04 -3.155902E+05 -3.914381E-10 -4.228689E-09
       108  17 -2.440731E+03  1.073433E+05  2.586249E+04 -2.803502E+05 -8.542912E-10  1.026096E-09
       108  18  7.824581E+04  4.373135E+05  8.900499E+04 -3.228782E+05 -1.078658E-09  2.095948E-09
       108  19  9.180087E+04  4.836038E+05  1.069629E+05 -3.234552E+05 -2.051255E+04  7.978351E+03
       108  20  8.453277E+03  1.536009E+05  3.406262E+04 -2.809352E+05 -1.680553E+03  2.313034E+04
       108  21 -6.705156E+04 -1.728723E+05 -2.716006E+04 -3.161824E+05  1.724377E+04  3.827528E+04
       108  22  8.236505E+03  1.321699E+05  4.058124E+04 -3.195212E+05 -2.041590E+04 -2.231488E+04
       108  23  3.006231E+03  1.304716E+05  2.996216E+04 -2.806427E+05 -1.583310E+03 -7.309212E+03
       108  24  5.599819E+03  1.321750E+05  3.092358E+04 -3.195296E+05  1.734167E+04  7.696974E+03
       108  25 -7.533452E+04 -2.191429E+05 -2.580244E+04 -3.155893E+05 -2.031959E+04 -5.259139E+04
       108  26 -2.440346E+03  1.073448E+05  2.586517E+04 -2.803501E+05 -1.486094E+03 -3.774766E+04
       108  27  7.824627E+04  4.373141E+05  8.900654E+04 -3.228785E+05  1.743988E+04 -2.289600E+04
       109   1 -1.205148E+05 -3.874454E+05 -6.430087E+04 -3.237058E+05 -3.023870E+04 -4.710071E+04
       109   2 -1.844704E+05 -7.200931E+05 -1.209716E+05 -2.540035E+05 -3.654030E+04 -2.560344E+04
       109   3 -2.002339E+05 -1.043741E+06 -1.796879E+05 -2.602669E+05 -1.263650E+04 -4.047146E+03
       109   4  3.772246E+03  1.352284E+05  3.456244E+04 -3.191578E+05 -3.034610E+04 -1.283312E+04
       109   5  1.977386E+04  1.264885E+05  5.244917E+04 -2.810599E+05 -3.649262E+04 -3.988654E+04
       109   6  9.236012E+04  1.350439E+05  1.019962E+05 -3.189054E+05 -1.245476E+04 -6.686988E+04
       109   7  1.280441E+05  6.581685E+05  1.334181E+05 -3.146056E+05 -3.045294E+04  2.146264E+04
       109   8  2.239758E+05  9.737532E+05  2.258329E+05 -3.081532E+05 -3.644373E+04 -5.418874E+04
       109   9  3.848681E+05  1.315119E+06  3.835989E+05 -3.776548E+05 -1.226135E+04 -1.298114E+05
       109  10 -1.205164E+05 -3.874480E+05 -6.430676E+04 -3.237070E+05 -2.533791E-10  2.337872E-09
       109  11 -1.844720E+05 -7.200941E+05 -1.209753E+05 -2.540043E+05  2.289569E-09  2.267827E-10
       109  12 -2.002341E+05 -1.043741E+06 -1.796882E+05 -2.602670E+05  1.580980E-09 -5.666694E-10
       109  13  3.771212E+03  1.352280E+05  3.456040E+04 -3.191581E+05 -1.349670E-09  7.167476E-10
       109  14  1.977200E+04  1.264864E+05  5.244367E+04 -2.810611E+05 -1.767472E-09 -7.429321E-10
       109  15  9.235875E+04  1.350390E+05  1.019875E+05 -3.189061E+05 -5.204506E-11  2.524918E-10
       109  16  1.280430E+05  6.581678E+05  1.334155E+05 -3.146051E+05 -1.055606E-09 -1.858778E-09
       109  17  2.239736E+05  9.737496E+05  2.258249E+05 -3.081548E+05 -1.048951E-09  9.849642E-10
       109  18  3.848634E+05  1.315101E+06  3.835670E+05 -3.776561E+05  4.674246E-10 -2.191320E-10
       109  19 -1.205148E+05 -3.874454E+05 -6.430087E+04 -3.237058E+05  3.023870E+04  4.710071E+04
       109  20 -1.844704E+05 -7.200931E+05 -1.209716E+05 -2.540035E+05  3.654030E+04  2.560344E+04
       109  21 -2.002339E+05 -1.043741E+06 -1.796879E+05 -2.602669E+05  1.263650E+04  4.047146E+03
       109  22  3.772246E+03  1.352284E+05  3.456244E+04 -3.191578E+05  3.034610E+04  1.283312E+04
       109  23  1.977386E+04  1.264885E+05  5.244917E+04 -2.810599E+05  3.649262E+04  3.988654E+04
       109  24  9.236012E+04  1.350439E+05  1.019962E+05 -3.189054E+05  1.245476E+04  6.686988E+04
       109  25  1.280441E+05  6.581685E+05  1.334181E+05 -3.146056E+05  3.045294E+04 -2.146264E+04
       109  26  2.239758E+05  9.737532E+05  2.258329E+05 -3.081532E+05  3.644373E+04  5.418874E+04
       109  27  3.848681E+05  1.315119E+06  3.835989E+05 -3.776548E+05  1.226135E+04  1.298114E+05
       110   1 -3.291968E+06 -1.149931E+06 -6.932914E+05 -1.191805E+06 -2.903428E+05 -9.246327E+04
       110   2 -3.193397E+06 -7.311955E+05 -4.266711E+05 -1.180279E+06 -1.884118E+05 -1.828965E+04
       110   3 -3.199182E+06 -6.630261E+05 -3.324727E+05 -1.122031E+06 -7.476421E+04  2.489612E+04
       110   4 -2.269385E+06 -6.406617E+05 -3.938936E+05 -7.871866E+05 -2.560816E+05 -7.960945E+04
       110   5 -2.198130E+06 -3.183677E+05 -1.686418E+05 -8.667561E+05 -1.768998E+05 -1.397259E+04
       110   6 -2.226504E+06 -3.418247E+05 -9.751694E+04 -8.996647E+05 -8.602082E+04  2.065970E+04
       110   7 -1.245740E+06 -1.310763E+05 -9.459082E+04 -3.818843E+05 -2.217579E+05 -6.671492E+04
       110   8 -1.201881E+06  9.458898E+04  8.930474E+04 -5.527528E+05 -1.653673E+05 -9.645952E+03
       110   9 -1.252898E+06 -2.060992E+04  1.373700E+05 -6.770043E+05 -9.729669E+04  1.641800E+04
       110  10 -3.292062E+06 -1.149963E+06 -6.934670E+05 -1.191827E+06  8.190926E-10 -8.434061E-10
       110  11 -3.193435E+06 -7.312054E+05 -4.267388E+05 -1.180282E+06  1.125853E-10 -4.287041E-10
       110  12 -3.199188E+06 -6.630283E+05 -3.324844E+05 -1.122029E+06  2.778115E-10  4.616895E-10
       110  13 -2.269457E+06 -6.406862E+05 -3.940293E+05 -7.872030E+05  9.832594E-11 -3.471222E-10
       110  14 -2.198163E+06 -3.183763E+05 -1.687012E+05 -8.667581E+05  1.063651E-09  2.702262E-10
       110  15 -2.226512E+06 -3.418271E+05 -9.753168E+04 -8.996633E+05  8.971177E-10  4.202975E-10
       110  16 -1.245794E+06 -1.310943E+05 -9.469182E+04 -3.818962E+05  8.022106E-11  9.246698E-10
       110  17 -1.201911E+06  9.458152E+04  8.925306E+04 -5.527541E+05 -2.470857E-09  9.005086E-10
       110  18 -1.252909E+06 -2.061276E+04  1.373517E+05 -6.770030E+05  9.583390E-10  5.996326E-10
       110  19 -3.291968E+06 -1.149931E+06 -6.932914E+05 -1.191805E+06  2.903428E+05  9.246327E+04
       110  20 -3.193397E+06 -7.311955E+05 -4.266711E+05 -1.180279E+06  1.884118E+05  1.828965E+04
       110  21 -3.199182E+06 -6.630261E+05 -3.324727E+05 -1.122031E+06  7.476421E+04 -2.489612E+04
       110  22 -2.269385E+06 -6.406617E+05 -3.938936E+05 -7.871866E+05  2.560816E+05  7.960945E+04
       110  23 -2.198130E+06 -3.183677E+05 -1.686418E+05 -8.667561E+05  1.768998E+05  1.397259E+04
       110  24 -2.226504E+06 -3.418247E+05 -9.751694E+04 -8.996647E+05  8.602082E+04 -2.065970E+04
       110  25 -1.245740E+06 -1.310763E+05 -9.459082E+04 -3.818843E+05  2.217579E+05  6.671492E+04
       110  26 -1.201881E+06  9.458898E+04  8.930474E+04 -5.527528E+05  1.653673E+05  9.645952E+03
       110  27 -1.252898E+06 -2.060992E+04  1.373700E+05 -6.770043E+05  9.729669E+04 -1.641800E+04
       111   1 -3.066938E+06 -7.028855E+05 -2.935343E+05 -1.121572E+06 -6.902619E+04  1.983126E+04
       111   2 -2.990606E+06 -6.257087E+05 -2.317448E+05 -1.080108E+06 -4.660475E+04  2.467233E+04
       111   3 -2.892295E+06 -6.055614E+05 -1.921653E+05 -1.071215E+06 -2.358735E+04  2.792250E+04
       111   4 -2.213415E+06 -3.758931E+05 -7.798058E+04 -8.802626E+05 -7.081477E+04  1.915304E+04
       111   5 -2.222939E+06 -3.366012E+05 -3.935494E+04 -8.680526E+05 -4.954074E+04  2.356538E+04
       111   6 -2.210251E+06 -3.540885E+05 -2.200271E+04 -8.884170E+05 -2.767438E+04  2.638612E+04
       111   7 -1.359169E+06 -4.884166E+04  1.375158E+05 -6.386461E+05 -7.260601E+04  1.847378E+04
       111   8 -1.454689E+06 -4.745165E+04  1.529889E+05 -6.557572E+05 -5.248069E+04  2.245692E+04
       111   9 -1.527749E+06 -1.025880E+05  1.481236E+05 -7.054372E+05 -3.176633E+04  2.484795E+04
       111  10 -3.066944E+06 -7.028872E+05 -2.935440E+05 -1.121571E+06 -4.408893E-10  4.807558E-10
       111  11 -2.990608E+06 -6.257099E+05 -2.317501E+05 -1.080107E+06 -1.318553E-09 -1.680773E-10
       111  12 -2.892296E+06 -6.055624E+05 -1.921679E+05 -1.071215E+06 -8.439422E-10 -4.458709E-10
       111  13 -2.213420E+06 -3.758949E+05 -7.799072E+04 -8.802615E+05 -1.851345E-09 -2.666931E-10
       111  14 -2.222941E+06 -3.366024E+05 -3.936060E+04 -8.680517E+05 -3.522791E-11 -2.836195E-10
       111  15 -2.210252E+06 -3.540894E+05 -2.200546E+04 -8.884164E+05 -9.711254E-10 -4.001978E-10
       111  16 -1.359175E+06 -4.884344E+04  1.375052E+05 -6.386450E+05  7.253218E-11 -2.203333E-10
       111  17 -1.454692E+06 -4.745293E+04  1.529828E+05 -6.557563E+05  3.231067E-09 -3.374410E-10
       111  18 -1.527750E+06 -1.025889E+05  1.481206E+05 -7.054366E+05  8.904150E-10  1.609828E-10
       111  19 -3.066938E+06 -7.028855E+05 -2.935343E+05 -1.121572E+06  6.902619E+04 -1.983126E+04
       111  20 -2.990606E+06 -6.257087E+05 -2.317448E+05 -1.080108E+06  4.660475E+04 -2.467233E+04
       111  21 -2.892295E+06 -6.055614E+05 -1.921653E+05 -1.071215E+06  2.358735E+04 -2.792250E+04
       111  22 -2.213415E+06 -3.758931E+05 -7.798058E+04 -8.802626E+05  7.081477E+04 -1.915304E+04
       111  23 -2.222939E+06 -3.366012E+05 -3.935494E+04 -8.680526E+05  4.954074E+04 -2.356538E+04
       111  24 -2.210251E+06 -3.540885E+05 -2.200271E+04 -8.884170E+05  2.767438E+04 -2.638612E+04
       111  25 -1.359169E+06 -4.884166E+04  1.375158E+05 -6.386461E+05  7.260601E+04 -1.847378E+04
       111  26 -1.454689E+06 -4.745165E+04  1.529889E+05 -6.557572E+05  5.248069E+04 -2.245692E+04
       111  27 -1.527749E+06 -1.025880E+05  1.481236E+05 -7.054372E+05  3.176633E+04 -2.484795E+04
       112   1 -2.801783E+06 -5.784895E+05 -1.648527E+05 -1.049496E+06 -1.973589E+04  2.581963E+04
       112   2 -2.725090E+06 -5.243306E+05 -1.339661E+05 -1.004233E+06 -1.320175E+04  2.254051E+04
       112   3 -2.614882E+06 -5.065759E+05 -1.069838E+05 -9.983623E+05 -6.623107E+03  1.913170E+04
       112   4 -2.208726E+06 -3.567448E+05 -1.686001E+04 -8.872221E+05 -2.340651E+04  2.444076E+04
       112   5 -2.225359E+06 -3.377486E+05 -9.090496E+03 -8.678193E+05 -1.696362E+04  2.112908E+04
       112   6 -2.208467E+06 -3.551362E+05 -5.149337E+03 -8.878103E+05 -1.047701E+04  1.768750E+04
       112   7 -1.615326E+06 -1.349776E+05  1.311045E+05 -7.248076E+05 -2.708095E+04  2.306045E+04
       112   8 -1.725382E+06 -1.511502E+05  1.157656E+05 -7.313056E+05 -2.072882E+04  1.971640E+04
       112   9 -1.801888E+06 -2.036853E+05  9.667262E+04 -7.771922E+05 -1.433370E+04  1.624227E+04
       112  10 -2.801783E+06 -5.784903E+05 -1.648547E+05 -1.049495E+06 -7.417411E-10  1.958085E-10
       112  11 -2.725091E+06 -5.243312E+05 -1.339674E+05 -1.004233E+06 -1.296742E-10  5.926884E-10
       112  12 -2.614882E+06 -5.065763E+05 -1.069846E+05 -9.983622E+05  2.029290E-10  2.615521E-10
       112  13 -2.208727E+06 -3.567456E+05 -1.686216E+04 -8.872216E+05  1.694696E-09  4.030165E-10
       112  14 -2.225360E+06 -3.377492E+05 -9.091875E+03 -8.678190E+05  1.840503E-09  7.948866E-10
       112  15 -2.208467E+06 -3.551366E+05 -5.150130E+03 -8.878102E+05  1.804306E-09  2.481506E-10
       112  16 -1.615327E+06 -1.349784E+05  1.311021E+05 -7.248071E+05 -3.164150E-10  3.518321E-10
       112  17 -1.725383E+06 -1.511508E+05  1.157641E+05 -7.313053E+05 -8.482705E-10  8.574441E-11
       112  18 -1.801888E+06 -2.036856E+05  9.667174E+04 -7.771920E+05  3.822288E-10 -5.279501E-10
       112  19 -2.801783E+06 -5.784895E+05 -1.648527E+05 -1.049496E+06  1.973589E+04 -2.581963E+04
       112  20 -2.725090E+06 -5.243306E+05 -1.339661E+05 -1.004233E+06  1.320175E+04 -2.254051E+04
       112  21 -2.614882E+06 -5.065759E+05 -1.069838E+05 -9.983623E+05  6.623107E+03 -1.913170E+04
       112  22 -2.208726E+06 -3.567448E+05 -1.686001E+04 -8.872221E+05  2.340651E+04 -2.444076E+04
       112  23 -2.225359E+06 -3.377486E+05 -9.090496E+03 -8.678193E+05  1.696362E+04 -2.112908E+04
       112  24 -2.208467E+06 -3.551362E+05 -5.149337E+03 -8.878103E+05  1.047701E+04 -1.768750E+04
       112  25 -1.615326E+06 -1.349776E+05  1.311045E+05 -7.248076E+05  2.708095E+04 -2.306045E+04
       112  26 -1.725382E+06 -1.511502E+05  1.157656E+05 -7.313056E+05  2.072882E+04 -1.971640E+04
       112  27 -1.801888E+06 -2.036853E+05  9.667262E+04 -7.771922E+05  1.433370E+04 -1.624227E+04
       113   1 -2.525296E+06 -4.737075E+05 -8.288467E+04 -9.743882E+05 -4.729809E+03  1.637371E+04
       113   2 -2.447164E+06 -4.202242E+05 -5.782839E+04 -9.279734E+05 -1.492941E+03  1.161767E+04
       113   3 -2.333854E+06 -4.022587E+05 -3.375609E+04 -9.221723E+05  1.752736E+03  6.832471E+03
       113   4 -2.208156E+06 -3.554547E+05 -4.001501E+03 -8.878825E+05 -8.587970E+03  1.492870E+04
       113   5 -2.225725E+06 -3.376292E+05 -2.519034E+03 -8.675976E+05 -5.372048E+03  1.016558E+04
       113   6 -2.208123E+06 -3.553164E+05 -2.003209E+03 -8.879283E+05 -2.147569E+03  5.373266E+03
       113   7 -1.890916E+06 -2.371951E+05  7.487412E+04 -8.013364E+05 -1.244830E+04  1.348289E+04
       113   8 -2.004240E+06 -2.550316E+05  5.278610E+04 -8.072026E+05 -9.252644E+03  8.712924E+03
       113   9 -2.082379E+06 -3.083738E+05  2.974789E+04 -8.536785E+05 -6.048676E+03  3.913761E+03
       113  10 -2.525296E+06 -4.737078E+05 -8.288522E+04 -9.743881E+05 -8.166455E-10  4.229384E-10
       113  11 -2.447164E+06 -4.202244E+05 -5.782865E+04 -9.279734E+05  7.788886E-10  1.363636E-09
       113  12 -2.333854E+06 -4.022587E+05 -3.375618E+04 -9.221723E+05 -4.591491E-10 -8.129657E-11
       113  13 -2.208156E+06 -3.554550E+05 -4.002057E+03 -8.878824E+05 -1.589113E-09 -4.408587E-10
       113  14 -2.225725E+06 -3.376293E+05 -2.519282E+03 -8.675975E+05  1.096194E-09  9.402662E-10
       113  15 -2.208123E+06 -3.553164E+05 -2.003272E+03 -8.879283E+05 -6.719684E-10 -4.258809E-10
       113  16 -1.890917E+06 -2.371953E+05  7.487349E+04 -8.013363E+05  2.306513E-09  6.090409E-12
       113  17 -2.004240E+06 -2.550317E+05  5.278580E+04 -8.072025E+05 -1.959447E-10  4.902758E-11
       113  18 -2.082379E+06 -3.083738E+05  2.974779E+04 -8.536785E+05  5.397175E-11 -9.185377E-10
       113  19 -2.525296E+06 -4.737075E+05 -8.288467E+04 -9.743882E+05  4.729809E+03 -1.637371E+04
       113  20 -2.447164E+06 -4.202242E+05 -5.782839E+04 -9.279734E+05  1.492941E+03 -1.161767E+04
       113  21 -2.333854E+06 -4.022587E+05 -3.375609E+04 -9.221723E+05 -1.752736E+03 -6.832471E+03
       113  22 -2.208156E+06 -3.554547E+05 -4.001501E+03 -8.878825E+05  8.587970E+03 -1.492870E+04
       113  23 -2.225725E+06 -3.376292E+05 -2.519034E+03 -8.675976E+05  5.372048E+03 -1.016558E+04
       113  24 -2.208123E+06 -3.553164E+05 -2.003209E+03 -8.879283E+05  2.147569E+03 -5.373266E+03
       113  25 -1.890916E+06 -2.371951E+05  7.487412E+04 -8.013364E+05  1.244830E+04 -1.348289E+04
       113  26 -2.004240E+06 -2.550316E+05  5.278610E+04 -8.072026E+05  9.252644E+03 -8.712924E+03
       113  27 -2.082379E+06 -3.083738E+05  2.974789E+04 -8.536785E+05  6.048676E+03 -3.913761E+03
       114   1 -2.243396E+06 -3.684918E+05 -1.049482E+04 -8.976555E+05  3.242187E+03  3.884321E+03
       114   2 -2.164843E+06 -3.148846E+05  1.259149E+04 -8.509742E+05  6.511914E+03 -9.100895E+02
       114   3 -2.050983E+06 -2.969694E+05  3.467185E+04 -8.451191E+05  9.778467E+03 -5.693373E+03
       114   4 -2.208092E+06 -3.553556E+05 -2.022776E+03 -8.879753E+05 -6.644086E+02  2.422946E+03
       114   5 -2.225749E+06 -3.375604E+05 -2.611476E+03 -8.675410E+05  2.612974E+03 -2.368873E+03
       114   6 -2.208110E+06 -3.554605E+05 -4.212128E+03 -8.879375E+05  5.886945E+03 -7.149602E+03
       114   7 -2.172787E+06 -3.422191E+05  6.449386E+03 -8.782946E+05 -4.571301E+03  9.614600E+02
       114   8 -2.286652E+06 -3.602362E+05 -1.781487E+04 -8.841065E+05 -1.285593E+03 -3.827518E+03
       114   9 -2.365214E+06 -4.139506E+05 -4.309838E+04 -9.307465E+05  1.996463E+03 -8.605442E+03
       114  10 -2.243396E+06 -3.684918E+05 -1.049487E+04 -8.976555E+05 -5.186005E-10  2.045091E-10
       114  11 -2.164843E+06 -3.148846E+05  1.259141E+04 -8.509742E+05  5.947421E-09  1.757356E-09
       114  12 -2.050983E+06 -2.969695E+05  3.467161E+04 -8.451190E+05  9.606626E-10  3.715411E-10
       114  13 -2.208092E+06 -3.553556E+05 -2.022788E+03 -8.879753E+05  3.160852E-09  1.712986E-10
       114  14 -2.225749E+06 -3.375604E+05 -2.611499E+03 -8.675410E+05  7.317243E-09  2.628958E-09
       114  15 -2.208110E+06 -3.554606E+05 -4.212289E+03 -8.879375E+05  4.621625E-10  6.648564E-10
       114  16 -2.172787E+06 -3.422191E+05  6.449344E+03 -8.782946E+05  4.380304E-09  6.702546E-10
       114  17 -2.286652E+06 -3.602362E+05 -1.781490E+04 -8.841065E+05  3.646578E-09  7.003079E-10
       114  18 -2.365214E+06 -4.139507E+05 -4.309852E+04 -9.307465E+05 -3.741769E-09 -4.010783E-10
       114  19 -2.243396E+06 -3.684918E+05 -1.049482E+04 -8.976555E+05 -3.242187E+03 -3.884321E+03
       114  20 -2.164843E+06 -3.148846E+05  1.259149E+04 -8.509742E+05 -6.511914E+03  9.100895E+02
       114  21 -2.050983E+06 -2.969694E+05  3.467185E+04 -8.451191E+05 -9.778467E+03  5.693373E+03
       114  22 -2.208092E+06 -3.553556E+05 -2.022776E+03 -8.879753E+05  6.644086E+02 -2.422946E+03
       114  23 -2.225749E+06 -3.375604E+05 -2.611476E+03 -8.675410E+05 -2.612974E+03  2.368873E+03
       114  24 -2.208110E+06 -3.554605E+05 -4.212128E+03 -8.879375E+05 -5.886945E+03  7.149602E+03
       114  25 -2.172787E+06 -3.422191E+05  6.449386E+03 -8.782946E+05  4.571301E+03 -9.614600E+02
       114  26 -2.286652E+06 -3.602362E+05 -1.781487E+04 -8.841065E+05  1.285593E+03  3.827518E+03
       114  27 -2.365214E+06 -4.139506E+05 -4.309838E+04 -9.307465E+05 -1.996463E+03  8.605442E+03
       115   1 -1.961047E+06 -2.632474E+05  5.660370E+04 -8.208869E+05  1.172484E+04 -8.462699E+03
       115   2 -1.883284E+06 -2.099447E+05  7.580950E+04 -7.743464E+05  1.843115E+04 -1.190068E+04
       115   3 -1.771650E+06 -1.936370E+05  9.099193E+04 -7.678176E+05  2.510323E+04 -1.523611E+04
       115   4 -2.208367E+06 -3.552114E+05 -5.443365E+03 -8.879640E+05  7.827697E+03 -9.921470E+03
       115   5 -2.225421E+06 -3.375374E+05 -9.620452E+03 -8.676503E+05  1.460626E+04 -1.333357E+04
       115   6 -2.208626E+06 -3.568747E+05 -1.787954E+04 -8.873525E+05  2.134984E+04 -1.664337E+04
       115   7 -2.455623E+06 -4.471699E+05 -6.749407E+04 -9.550158E+05  3.932318E+03 -1.137959E+04
       115   8 -2.567440E+06 -4.651218E+05 -9.505907E+04 -9.609071E+05  1.078369E+04 -1.476560E+04
       115   9 -2.645417E+06 -5.201007E+05 -1.267667E+05 -1.006812E+06  1.759933E+04 -1.804955E+04
       115  10 -1.961047E+06 -2.632475E+05  5.660331E+04 -8.208869E+05 -3.472571E-09 -1.237444E-09
       115  11 -1.883285E+06 -2.099450E+05  7.580860E+04 -7.743462E+05 -4.108400E-09 -2.084676E-09
       115  12 -1.771650E+06 -1.936375E+05  9.099031E+04 -7.678173E+05 -4.643684E-09 -1.780085E-09
       115  13 -2.208367E+06 -3.552115E+05 -5.443665E+03 -8.879640E+05 -3.882298E-09 -9.909165E-10
       115  14 -2.225421E+06 -3.375377E+05 -9.621187E+03 -8.676502E+05 -3.619278E-09 -1.001723E-09
       115  15 -2.208626E+06 -3.568751E+05 -1.788092E+04 -8.873522E+05 -5.449080E-09 -1.416689E-09
       115  16 -2.455623E+06 -4.471701E+05 -6.749434E+04 -9.550158E+05 -4.248913E-09 -9.315390E-10
       115  17 -2.567440E+06 -4.651220E+05 -9.505969E+04 -9.609069E+05 -5.438193E-09 -5.841612E-10
       115  18 -2.645417E+06 -5.201011E+05 -1.267679E+05 -1.006811E+06 -3.355208E-09 -1.057840E-09
       115  19 -1.961047E+06 -2.632474E+05  5.660370E+04 -8.208869E+05 -1.172484E+04  8.462699E+03
       115  20 -1.883284E+06 -2.099447E+05  7.580950E+04 -7.743464E+05 -1.843115E+04  1.190068E+04
       115  21 -1.771650E+06 -1.936370E+05  9.099193E+04 -7.678176E+05 -2.510323E+04  1.523611E+04
       115  22 -2.208367E+06 -3.552114E+05 -5.443365E+03 -8.879640E+05 -7.827697E+03  9.921470E+03
       115  23 -2.225421E+06 -3.375374E+05 -9.620452E+03 -8.676503E+05 -1.460626E+04  1.333357E+04
       115  24 -2.208626E+06 -3.568747E+05 -1.787954E+04 -8.873525E+05 -2.134984E+04  1.664337E+04
       115  25 -2.455623E+06 -4.471699E+05 -6.749407E+04 -9.550158E+05 -3.932318E+03  1.137959E+04
       115  26 -2.567440E+06 -4.651218E+05 -9.505907E+04 -9.609071E+05 -1.078369E+04  1.476560E+04
       115  27 -2.645417E+06 -5.201007E+05 -1.267667E+05 -1.006812E+06 -1.759933E+04  1.804955E+04
       116   1 -1.682167E+06 -1.607301E+05  1.081490E+05 -7.483962E+05  2.994636E+04 -1.701039E+04
       116   2 -1.607045E+06 -1.040756E+05  1.125363E+05 -6.972956E+05  5.207666E+04 -1.426719E+04
       116   3 -1.509513E+06 -1.062820E+05  9.513190E+04 -6.794954E+05  7.369299E+04 -1.013173E+04
       116   4 -2.210161E+06 -3.541520E+05 -2.334228E+04 -8.887298E+05  2.582024E+04 -1.855821E+04
       116   5 -2.222924E+06 -3.361626E+05 -4.173036E+04 -8.677610E+05  4.895794E+04 -1.543969E+04
       116   6 -2.213495E+06 -3.772555E+05 -8.272804E+04 -8.800984E+05  7.157824E+04 -1.092986E+04
       116   7 -2.737882E+06 -5.475582E+05 -1.548552E+05 -1.028956E+06  2.169796E+04 -2.010466E+04
       116   8 -2.838427E+06 -5.682222E+05 -1.960265E+05 -1.038072E+06  4.584260E+04 -1.661090E+04
       116   9 -2.916987E+06 -6.481869E+05 -2.606268E+05 -1.080490E+06  6.946609E+04 -1.172695E+04
       116  10 -1.682168E+06 -1.607306E+05  1.081467E+05 -7.483958E+05 -4.603725E-09 -1.177533E-09
       116  11 -1.607048E+06 -1.040766E+05  1.125308E+05 -6.972950E+05 -1.045844E-09 -2.175655E-10
       116  12 -1.509519E+06 -1.062836E+05  9.512149E+04 -6.794948E+05  3.089906E-09 -5.779136E-10
       116  13 -2.210162E+06 -3.541525E+05 -2.334418E+04 -8.887294E+05 -3.017502E-09 -8.419610E-10
       116  14 -2.222926E+06 -3.361635E+05 -4.173532E+04 -8.677604E+05  1.993579E-09 -4.179820E-10
       116  15 -2.213501E+06 -3.772570E+05 -8.273792E+04 -8.800977E+05 -3.062601E-10 -7.465747E-10
       116  16 -2.737882E+06 -5.475587E+05 -1.548568E+05 -1.028956E+06 -1.567081E-09 -1.058121E-09
       116  17 -2.838430E+06 -5.682231E+05 -1.960310E+05 -1.038071E+06  2.683382E-09 -4.740114E-10
       116  18 -2.916992E+06 -6.481884E+05 -2.606362E+05 -1.080490E+06 -1.341698E-09 -1.095797E-09
       116  19 -1.682167E+06 -1.607301E+05  1.081490E+05 -7.483962E+05 -2.994636E+04  1.701039E+04
       116  20 -1.607045E+06 -1.040756E+05  1.125363E+05 -6.972956E+05 -5.207666E+04  1.426719E+04
       116  21 -1.509513E+06 -1.062820E+05  9.513190E+04 -6.794954E+05 -7.369299E+04  1.013173E+04
       116  22 -2.210161E+06 -3.541520E+05 -2.334228E+04 -8.887298E+05 -2.582024E+04  1.855821E+04
       116  23 -2.222924E+06 -3.361626E+05 -4.173036E+04 -8.677610E+05 -4.895794E+04  1.543969E+04
       116  24 -2.213495E+06 -3.772555E+05 -8.272804E+04 -8.800984E+05 -7.157824E+04  1.092986E+04
       116  25 -2.737882E+06 -5.475582E+05 -1.548552E+05 -1.028956E+06 -2.169796E+04  2.010466E+04
       116  26 -2.838427E+06 -5.682222E+05 -1.960265E+05 -1.038072E+06 -4.584260E+04  1.661090E+04
       116  27 -2.916987E+06 -6.481869E+05 -2.606268E+05 -1.080490E+06 -6.946609E+04  1.172695E+04
       117   1 -1.399215E+06 -7.734313E+04  9.467006E+04 -7.211588E+05  9.789255E+04 -7.886139E+03
       117   2 -1.346118E+06  4.367899E+04  4.282099E+04 -5.901277E+05  1.745746E+05  2.048132E+04
       117   3 -1.395287E+06 -1.974101E+05 -1.565255E+05 -4.092035E+05  2.410159E+05  7.610830E+04
       117   4 -2.227285E+06 -3.412188E+05 -1.034582E+05 -9.008127E+05  8.743841E+04 -1.180926E+04
       117   5 -2.196721E+06 -3.166125E+05 -1.788771E+05 -8.661980E+05  1.841587E+05  2.406691E+04
       117   6 -2.272615E+06 -6.584320E+05 -4.178748E+05 -7.816544E+05  2.706234E+05  8.719144E+04
       117   7 -3.054684E+06 -6.050923E+05 -3.016355E+05 -1.080270E+06  7.699943E+04 -1.572863E+04
       117   8 -3.046603E+06 -6.767965E+05 -4.006350E+05 -1.141903E+06  1.937282E+05  2.764538E+04
       117   9 -3.149139E+06 -1.119157E+06 -6.792908E+05 -1.153552E+06  3.001844E+05  9.824143E+04
       117  10 -1.399225E+06 -7.734577E+04  9.465190E+04 -7.211582E+05 -2.158552E-10 -1.318165E-09
       117  11 -1.346151E+06  4.367033E+04  4.276279E+04 -5.901306E+05 -1.827086E-09 -1.390132E-09
       117  12 -1.395351E+06 -1.974319E+05 -1.566459E+05 -4.092183E+05 -2.030158E-09 -5.476660E-10
       117  13 -2.227293E+06 -3.412210E+05 -1.034729E+05 -9.008119E+05 -3.582079E-09 -8.757240E-10
       117  14 -2.196757E+06 -3.166223E+05 -1.789421E+05 -8.662016E+05 -2.514368E-09 -2.194261E-09
       117  15 -2.272696E+06 -6.584599E+05 -4.180274E+05 -7.816734E+05 -1.123934E-09 -9.500732E-10
       117  16 -3.054691E+06 -6.050941E+05 -3.016472E+05 -1.080269E+06 -3.200677E-09 -7.659073E-10
       117  17 -3.046644E+06 -6.768074E+05 -4.007073E+05 -1.141907E+06 -7.227764E-09  3.189352E-10
       117  18 -3.149239E+06 -1.119192E+06 -6.794793E+05 -1.153576E+06 -2.166882E-09  1.218356E-10
       117  19 -1.399215E+06 -7.734313E+04  9.467006E+04 -7.211588E+05 -9.789255E+04  7.886139E+03
       117  20 -1.346118E+06  4.367899E+04  4.282099E+04 -5.901277E+05 -1.745746E+05 -2.048132E+04
       117  21 -1.395287E+06 -1.974101E+05 -1.565255E+05 -4.092035E+05 -2.410159E+05 -7.610830E+04
       117  22 -2.227285E+06 -3.412188E+05 -1.034582E+05 -9.008127E+05 -8.743841E+04  1.180926E+04
       117  23 -2.196721E+06 -3.166125E+05 -1.788771E+05 -8.661980E+05 -1.841587E+05 -2.406691E+04
       117  24 -2.272615E+06 -6.584320E+05 -4.178748E+05 -7.816544E+05 -2.706234E+05 -8.719144E+04
       117  25 -3.054684E+06 -6.050923E+05 -3.016355E+05 -1.080270E+06 -7.699943E+04  1.572863E+04
       117  26 -3.046603E+06 -6.767965E+05 -4.006350E+05 -1.141903E+06 -1.937282E+05 -2.764538E+04
       117  27 -3.149139E+06 -1.119157E+06 -6.792908E+05 -1.153552E+06 -3.001844E+05 -9.824143E+04
       118   1 -4.254299E+05 -7.167521E+03  2.504635E+04  2.901271E+04  9.446731E+04  7.163301E+03
       118   2 -3.953865E+05 -1.331096E+05 -4.458708E+04  1.427048E+03  6.688564E+04  2.201653E+04
       118   3 -3.274136E+05 -1.224163E+05 -6.206045E+04 -4.894504E+04  3.931242E+04  2.227444E+04
       118   4  1.422783E+05  1.339260E+05  1.633214E+05 -2.912407E+04  1.120941E+05  7.167931E+03
       118   5  1.223373E+05 -5.951370E+03  7.352697E+04 -1.768481E+04  7.292564E+04  2.201680E+04
       118   6  1.422984E+05 -7.249475E+03  4.390544E+04 -2.902959E+04  3.376880E+04  2.227231E+04
       118   7  7.102886E+05  2.750087E+05  3.015761E+05 -8.731424E+04  1.297369E+05  7.169260E+03
       118   8  6.403107E+05  1.211897E+05  1.916239E+05 -3.681279E+04  7.897063E+04  2.201669E+04
       118   9  6.122164E+05  1.079037E+05  1.498575E+05 -9.098929E+03  2.822102E+04  2.226983E+04
       118  10 -4.254395E+05 -7.169974E+03  2.502947E+04  2.901217E+04 -7.075972E-10  2.986358E-10
       118  11 -3.953914E+05 -1.331113E+05 -4.459640E+04  1.425862E+03  1.800452E-10 -2.014035E-10
       118  12 -3.274154E+05 -1.224173E+05 -6.206429E+04 -4.894575E+04 -2.639729E-10 -1.857289E-10
       118  13  1.422648E+05  1.339226E+05  1.632977E+05 -2.912472E+04  8.265492E-12  1.897392E-10
       118  14  1.223315E+05 -5.953318E+03  7.351606E+04 -1.768610E+04  4.011311E-10 -6.920497E-10
       118  15  1.422970E+05 -7.250314E+03  4.390237E+04 -2.903020E+04  7.944365E-10 -2.715521E-10
       118  16  7.102705E+05  2.750041E+05  3.015444E+05 -8.731498E+04  1.733716E-10  7.542543E-11
       118  17  6.403038E+05  1.211875E+05  1.916112E+05 -3.681418E+04  3.017461E-11  5.393938E-11
       118  18  6.122155E+05  1.079030E+05  1.498551E+05 -9.099435E+03 -1.002117E-09 -5.379950E-10
       118  19 -4.254299E+05 -7.167521E+03  2.504635E+04  2.901271E+04 -9.446731E+04 -7.163301E+03
       118  20 -3.953865E+05 -1.331096E+05 -4.458708E+04  1.427048E+03 -6.688564E+04 -2.201653E+04
       118  21 -3.274136E+05 -1.224163E+05 -6.206045E+04 -4.894504E+04 -3.931242E+04 -2.227444E+04
       118  22  1.422783E+05  1.339260E+05  1.633214E+05 -2.912407E+04 -1.120941E+05 -7.167931E+03
       118  23  1.223373E+05 -5.951370E+03  7.352697E+04 -1.768481E+04 -7.292564E+04 -2.201680E+04
       118  24  1.422984E+05 -7.249475E+03  4.390544E+04 -2.902959E+04 -3.376880E+04 -2.227231E+04
       118  25  7.102886E+05  2.750087E+05  3.015761E+05 -8.731424E+04 -1.297369E+05 -7.169260E+03
       118  26  6.403107E+05  1.211897E+05  1.916239E+05 -3.681279E+04 -7.897063E+04 -2.201669E+04
       118  27  6.122164E+05  1.079037E+05  1.498575E+05 -9.098929E+03 -2.822102E+04 -2.226983E+04
       119   1 -2.916942E+05 -9.567101E+04 -6.140918E+04 -2.616668E+04  2.848511E+04  1.922863E+04
       119   2 -2.447810E+05 -9.309685E+04 -6.653070E+04 -1.684704E+04  1.956086E+04  1.748415E+04
       119   3 -1.942738E+05 -8.111656E+04 -6.347079E+04 -3.072899E+04  1.063505E+04  1.506943E+04
       119   4  1.342570E+05  8.843528E+03  3.517739E+04 -2.914822E+04  2.738395E+04  1.922724E+04
       119   5  1.324211E+05 -5.917598E+02  1.876270E+04 -1.754702E+04  1.792306E+04  1.748312E+04
       119   6  1.342681E+05 -5.310623E+02  1.089804E+04 -2.914638E+04  8.461314E+03  1.506888E+04
       119   7  5.603767E+05  1.133456E+05  1.317522E+05 -3.213183E+04  2.628203E+04  1.922585E+04
       119   8  5.097555E+05  9.190355E+04  1.040470E+05 -1.824743E+04  1.628428E+04  1.748209E+04
       119   9  4.629102E+05  8.004702E+04  8.525994E+04 -2.756292E+04  6.286439E+03  1.506832E+04
       119  10 -2.916952E+05 -9.567162E+04 -6.141140E+04 -2.616712E+04 -2.474099E-09 -2.967509E-10
       119  11 -2.447815E+05 -9.309728E+04 -6.653200E+04 -1.684732E+04 -1.479547E-09  6.587264E-10
       119  12 -1.942740E+05 -8.111684E+04 -6.347143E+04 -3.072912E+04 -1.479639E-09  5.868495E-10
       119  13  1.342561E+05  8.842930E+03  3.517528E+04 -2.914864E+04 -4.382603E-13 -2.482052E-10
       119  14  1.324207E+05 -5.921743E+02  1.876152E+04 -1.754727E+04 -2.184655E-09  5.627311E-10
       119  15  1.342679E+05 -5.313254E+02  1.089748E+04 -2.914648E+04 -5.702058E-10  7.173471E-10
       119  16  5.603759E+05  1.133450E+05  1.317503E+05 -3.213224E+04 -1.144680E-10 -1.240537E-10
       119  17  5.097551E+05  9.190315E+04  1.040459E+05 -1.824766E+04 -1.164261E-09  4.702030E-10
       119  18  4.629101E+05  8.004676E+04  8.525944E+04 -2.756300E+04  2.085340E-10  9.077794E-10
       119  19 -2.916942E+05 -9.567101E+04 -6.140918E+04 -2.616668E+04 -2.848511E+04 -1.922863E+04
       119  20 -2.447810E+05 -9.309685E+04 -6.653070E+04 -1.684704E+04 -1.956086E+04 -1.748415E+04
       119  21 -1.942738E+05 -8.111656E+04 -6.347079E+04 -3.072899E+04 -1.063505E+04 -1.506943E+04
       119  22  1.342570E+05  8.843528E+03  3.517739E+04 -2.914822E+04 -2.738395E+04 -1.922724E+04
       119  23  1.324211E+05 -5.917598E+02  1.876270E+04 -1.754702E+04 -1.792306E+04 -1.748312E+04
       119  24  1.342681E+05 -5.310623E+02  1.089804E+04 -2.914638E+04 -8.461314E+03 -1.506888E+04
       119  25  5.603767E+05  1.133456E+05  1.317522E+05 -3.213183E+04 -2.628203E+04 -1.922585E+04
       119  26  5.097555E+05  9.190355E+04  1.040470E+05 -1.824743E+04 -1.628428E+04 -1.748209E+04
       119  27  4.629102E+05  8.004702E+04  8.525994E+04 -2.756292E+04 -6.286439E+03 -1.506832E+04
       120   1 -1.515251E+05 -6.935379E+04 -5.591508E+04 -2.915236E+04  8.732458E+03  1.351814E+04
       120   2 -1.031454E+05 -5.806434E+04 -4.871203E+04 -1.761725E+04  6.410524E+03  1.101519E+04
       120   3 -5.427609E+04 -4.611765E+04 -3.982808E+04 -2.927348E+04  4.087515E+03  8.482494E+03
       120   4  1.335649E+05  5.262395E+02  8.388160E+03 -2.914468E+04  6.764151E+03  1.351782E+04
       120   5  1.333229E+05 -8.367383E+01  4.724337E+03 -1.754932E+04  4.417588E+03  1.101518E+04
       120   6  1.335715E+05 -3.236632E+01  2.757755E+03 -2.914478E+04  2.070126E+03  8.482808E+03
       120   7  4.187306E+05  7.040069E+04  7.268622E+04 -2.913698E+04  4.794949E+03  1.351751E+04
       120   8  3.698432E+05  5.789315E+04  5.815713E+04 -1.748137E+04  2.423899E+03  1.101518E+04
       120   9  3.214519E+05  4.605049E+04  4.534132E+04 -2.901603E+04  5.213313E+01  8.483122E+03
       120  10 -1.515252E+05 -6.935401E+04 -5.591557E+04 -2.915246E+04  4.711445E-10 -2.858476E-12
       120  11 -1.031455E+05 -5.806448E+04 -4.871233E+04 -1.761730E+04 -2.233021E-10 -6.014602E-10
       120  12 -5.427613E+04 -4.611774E+04 -3.982824E+04 -2.927351E+04 -3.312359E-09  6.316958E-10
       120  13  1.335649E+05  5.260310E+02  8.387730E+03 -2.914475E+04  1.079141E-09  1.367346E-10
       120  14  1.333229E+05 -8.380937E+01  4.724073E+03 -1.754936E+04 -5.010187E-10 -7.150751E-10
       120  15  1.335715E+05 -3.244475E+01  2.757612E+03 -2.914479E+04  2.835079E-10  6.023553E-10
       120  16  4.187305E+05  7.040049E+04  7.268583E+04 -2.913703E+04 -1.827517E-09  1.869054E-10
       120  17  3.698432E+05  5.789302E+04  5.815689E+04 -1.748139E+04 -2.171912E-09 -6.689483E-10
       120  18  3.214519E+05  4.605041E+04  4.534119E+04 -2.901603E+04  1.516271E-09  9.280710E-10
       120  19 -1.515251E+05 -6.935379E+04 -5.591508E+04 -2.915236E+04 -8.732458E+03 -1.351814E+04
       120  20 -1.031454E+05 -5.806434E+04 -4.871203E+04 -1.761725E+04 -6.410524E+03 -1.101519E+04
       120  21 -5.427609E+04 -4.611765E+04 -3.982808E+04 -2.927348E+04 -4.087515E+03 -8.482494E+03
       120  22  1.335649E+05  5.262395E+02  8.388160E+03 -2.914468E+04 -6.764151E+03 -1.351782E+04
       120  23  1.333229E+05 -8.367383E+01  4.724337E+03 -1.754932E+04 -4.417588E+03 -1.101518E+04
       120  24  1.335715E+05 -3.236632E+01  2.757755E+03 -2.914478E+04 -2.070126E+03 -8.482808E+03
       120  25  4.187306E+05  7.040069E+04  7.268622E+04 -2.913698E+04 -4.794949E+03 -1.351751E+04
       120  26  3.698432E+05  5.789315E+04  5.815713E+04 -1.748137E+04 -2.423899E+03 -1.101518E+04
       120  27  3.214519E+05  4.605049E+04  4.534132E+04 -2.901603E+04 -5.213313E+01 -8.483122E+03
       121   1 -1.097282E+04 -3.536062E+04 -3.037544E+04 -2.916735E+04  3.637408E+03  7.002206E+03
       121   2  3.756778E+04 -2.351351E+04 -2.037068E+04 -1.757148E+04  2.998636E+03  4.466870E+03
       121   3  8.619719E+04 -1.160814E+04 -9.938275E+03 -2.914453E+04  2.359463E+03  1.930617E+03
       121   4  1.334852E+05  2.940984E+01  2.125724E+03 -2.913983E+04  1.629872E+03  7.002657E+03
       121   5  1.334432E+05 -7.613726E+00  1.292234E+03 -1.755550E+04  9.901678E+02  4.467443E+03
       121   6  1.334878E+05  1.390082E+01  8.870368E+02 -2.913985E+04  3.501104E+02  1.931321E+03
       121   7  2.779626E+05  3.541801E+04  3.462557E+04 -2.911231E+04 -3.781259E+02  7.003108E+03
       121   8  2.293271E+05  2.349765E+04  2.295458E+04 -1.753951E+04 -1.018608E+03  4.468017E+03
       121   9  1.807805E+05  1.163579E+04  1.171222E+04 -2.913517E+04 -1.659394E+03  1.932026E+03
       121  10 -1.097285E+04 -3.536068E+04 -3.037556E+04 -2.916737E+04 -8.861180E-10  1.022813E-09
       121  11  3.756777E+04 -2.351353E+04 -2.037074E+04 -1.757149E+04  4.286296E-10  3.218602E-10
       121  12  8.619718E+04 -1.160815E+04 -9.938292E+03 -2.914453E+04  8.782822E-11 -1.185177E-09
       121  13  1.334852E+05  2.935647E+01  2.125627E+03 -2.913984E+04 -1.127032E-09  1.262436E-09
       121  14  1.334431E+05 -7.635422E+00  1.292195E+03 -1.755550E+04  4.367945E-09 -3.146094E-10
       121  15  1.334878E+05  1.389678E+01  8.870296E+02 -2.913985E+04  9.712789E-10 -1.164859E-09
       121  16  2.779626E+05  3.541796E+04  3.462548E+04 -2.911231E+04  9.597571E-10  7.443368E-10
       121  17  2.293271E+05  2.349763E+04  2.295454E+04 -1.753950E+04 -7.556367E-10 -3.072597E-10
       121  18  1.807805E+05  1.163579E+04  1.171220E+04 -2.913517E+04 -2.048040E-10 -8.904641E-10
       121  19 -1.097282E+04 -3.536062E+04 -3.037544E+04 -2.916735E+04 -3.637408E+03 -7.002206E+03
       121  20  3.756778E+04 -2.351351E+04 -2.037068E+04 -1.757148E+04 -2.998636E+03 -4.466870E+03
       121  21  8.619719E+04 -1.160814E+04 -9.938275E+03 -2.914453E+04 -2.359463E+03 -1.930617E+03
       121  22  1.334852E+05  2.940984E+01  2.125724E+03 -2.913983E+04 -1.629872E+03 -7.002657E+03
       121  23  1.334432E+05 -7.613726E+00  1.292234E+03 -1.755550E+04 -9.901678E+02 -4.467443E+03
       121  24  1.334878E+05  1.390082E+01  8.870368E+02 -2.913985E+04 -3.501104E+02 -1.931321E+03
       121  25  2.779626E+05  3.541801E+04  3.462557E+04 -2.911231E+04  3.781259E+02 -7.003108E+03
       121  26  2.293271E+05  2.349765E+04  2.295458E+04 -1.753951E+04  1.018608E+03 -4.468017E+03
       121  27  1.807805E+05  1.163579E+04  1.171222E+04 -2.913517E+04  1.659394E+03 -1.932026E+03
       122   1  1.295594E+05 -9.179557E+02  4.759342E+01 -2.914638E+04  2.206581E+03  4.542443E+02
       122   2  1.781193E+05  1.095050E+04  1.087431E+04 -1.756098E+04  1.817511E+03 -2.081633E+03
       122   3  2.267240E+05  2.285333E+04  2.195866E+04 -2.914113E+04  1.428582E+03 -4.616502E+03
       122   4  1.334787E+05  1.478900E+01  7.926307E+02 -2.913917E+04  1.972660E+02  4.549705E+02
       122   5  1.334565E+05  1.367371E+00  7.835983E+02 -1.755635E+04 -1.910461E+02 -2.080971E+03
       122   6  1.334775E+05  2.253111E+01  1.031981E+03 -2.913916E+04 -5.791877E+02 -4.615895E+03
       122   7  1.373980E+05  9.475350E+02  1.537682E+03 -2.913196E+04 -1.812061E+03  4.556967E+02
       122   8  8.879554E+04 -1.094790E+04 -9.307222E+03 -1.755171E+04 -2.199460E+03 -2.080309E+03
       122   9  4.023905E+04 -2.280886E+04 -1.989524E+04 -2.913720E+04 -2.586659E+03 -4.615287E+03
       122  10  1.295594E+05 -9.179573E+02  4.758388E+01 -2.914638E+04 -8.289304E-10 -1.202628E-09
       122  11  1.781193E+05  1.095049E+04  1.087429E+04 -1.756098E+04  9.668764E-10  1.004932E-10
       122  12  2.267240E+05  2.285331E+04  2.195862E+04 -2.914112E+04  5.223927E-10 -1.593296E-11
       122  13  1.334787E+05  1.478877E+01  7.926302E+02 -2.913917E+04 -1.123288E-09 -4.613625E-10
       122  14  1.334565E+05  1.362711E+00  7.835901E+02 -1.755635E+04  1.606625E-09  2.943232E-10
       122  15  1.334775E+05  2.250814E+01  1.031940E+03 -2.913917E+04  4.764905E-10 -4.736035E-10
       122  16  1.373980E+05  9.475339E+02  1.537676E+03 -2.913196E+04 -2.527141E-10 -4.504029E-10
       122  17  8.879554E+04 -1.094790E+04 -9.307240E+03 -1.755171E+04  6.142426E-10 -4.652891E-11
       122  18  4.023904E+04 -2.280888E+04 -1.989529E+04 -2.913721E+04 -1.341038E-09 -1.842051E-10
       122  19  1.295594E+05 -9.179557E+02  4.759342E+01 -2.914638E+04 -2.206581E+03 -4.542443E+02
       122  20  1.781193E+05  1.095050E+04  1.087431E+04 -1.756098E+04 -1.817511E+03  2.081633E+03
       122  21  2.267240E+05  2.285333E+04  2.195866E+04 -2.914113E+04 -1.428582E+03  4.616502E+03
       122  22  1.334787E+05  1.478900E+01  7.926307E+02 -2.913917E+04 -1.972660E+02 -4.549705E+02
       122  23  1.334565E+05  1.367371E+00  7.835983E+02 -1.755635E+04  1.910461E+02  2.080971E+03
       122  24  1.334775E+05  2.253111E+01  1.031981E+03 -2.913916E+04  5.791877E+02  4.615895E+03
       122  25  1.373980E+05  9.475350E+02  1.537682E+03 -2.913196E+04  1.812061E+03 -4.556967E+02
       122  26  8.879554E+04 -1.094790E+04 -9.307222E+03 -1.755171E+04  2.199460E+03  2.080309E+03
       122  27  4.023905E+04 -2.280886E+04 -1.989524E+04 -2.913720E+04  2.586659E+03  4.615287E+03
       123   1  2.701473E+05  3.351836E+04  3.227279E+04 -2.910792E+04  1.230040E+03 -6.095876E+03
       123   2  3.186578E+05  4.537870E+04  4.389903E+04 -1.754554E+04  1.909114E+02 -8.627638E+03
       123   3  3.673839E+05  5.752712E+04  5.627429E+04 -2.915980E+04 -8.476289E+02 -1.113198E+04
       123   4  1.335119E+05 -3.932702E+00  1.264876E+03 -2.914172E+04 -7.867988E+02 -6.095363E+03
       123   5  1.334049E+05 -3.270148E+01  2.046551E+03 -1.755316E+04 -1.804017E+03 -8.627379E+03
       123   6  1.335068E+05  2.228496E+02  3.562120E+03 -2.914166E+04 -2.820566E+03 -1.113197E+04
       123   7 -3.106115E+03 -3.352752E+04 -2.974423E+04 -2.917551E+04 -2.803198E+03 -6.094849E+03
       123   8 -5.181606E+04 -4.544646E+04 -3.980812E+04 -1.756077E+04 -3.798355E+03 -8.627120E+03
       123   9 -1.003193E+05 -5.708517E+04 -4.915353E+04 -2.912352E+04 -4.792768E+03 -1.113195E+04
       123  10  2.701473E+05  3.351832E+04  3.227272E+04 -2.910792E+04  4.910592E-10  3.759611E-12
       123  11  3.186578E+05  4.537862E+04  4.389889E+04 -1.754554E+04 -9.186982E-10 -2.912920E-10
       123  12  3.673838E+05  5.752699E+04  5.627406E+04 -2.915981E+04 -1.411055E-10 -1.847528E-10
       123  13  1.335119E+05 -3.972767E+00  1.264805E+03 -2.914172E+04  1.127111E-09 -6.434669E-10
       123  14  1.334049E+05 -3.278229E+01  2.046405E+03 -1.755317E+04 -2.058213E-09 -9.773038E-10
       123  15  1.335068E+05  2.227144E+02  3.561872E+03 -2.914169E+04  6.590235E-10  1.483965E-11
       123  16 -3.106133E+03 -3.352756E+04 -2.974431E+04 -2.917552E+04 -1.383504E-09 -3.490799E-10
       123  17 -5.181610E+04 -4.544655E+04 -3.980829E+04 -1.756080E+04 -1.472167E-09 -1.378518E-09
       123  18 -1.003194E+05 -5.708531E+04 -4.915381E+04 -2.912357E+04  1.348180E-09  1.136534E-10
       123  19  2.701473E+05  3.351836E+04  3.227279E+04 -2.910792E+04 -1.230040E+03  6.095876E+03
       123  20  3.186578E+05  4.537870E+04  4.389903E+04 -1.754554E+04 -1.909114E+02  8.627638E+03
       123  21  3.673839E+05  5.752712E+04  5.627429E+04 -2.915980E+04  8.476289E+02  1.113198E+04
       123  22  1.335119E+05 -3.932702E+00  1.264876E+03 -2.914172E+04  7.867988E+02  6.095363E+03
       123  23  1.334049E+05 -3.270148E+01  2.046551E+03 -1.755316E+04  1.804017E+03  8.627379E+03
       123  24  1.335068E+05  2.228496E+02  3.562120E+03 -2.914166E+04  2.820566E+03  1.113197E+04
       123  25 -3.106115E+03 -3.352752E+04 -2.974423E+04 -2.917551E+04  2.803198E+03  6.094849E+03
       123  26 -5.181606E+04 -4.544646E+04 -3.980812E+04 -1.756077E+04  3.798355E+03  8.627120E+03
       123  27 -1.003193E+05 -5.708517E+04 -4.915353E+04 -2.912352E+04  4.792768E+03  1.113195E+04
       124   1  4.111297E+05  6.777985E+04  6.738381E+04 -2.850057E+04 -1.379268E+03 -1.267544E+04
       124   2  4.589975E+05  7.965312E+04  8.158664E+04 -1.785358E+04 -5.852589E+03 -1.509711E+04
       124   3  5.085225E+05  9.560716E+04  9.973154E+04 -3.039453E+04 -1.032524E+04 -1.690619E+04
       124   4  1.338044E+05 -2.221927E+02  4.610482E+03 -2.914419E+04 -3.540127E+03 -1.267562E+04
       124   5  1.330140E+05 -2.577142E+02  7.903621E+03 -1.755001E+04 -7.526141E+03 -1.509773E+04
       124   6  1.337951E+05  3.704423E+03  1.480215E+04 -2.914444E+04 -1.151114E+04 -1.690711E+04
       124   7 -1.434495E+05 -6.822952E+04 -5.816777E+04 -2.978752E+04 -5.700029E+03 -1.267579E+04
       124   8 -1.928708E+05 -8.017585E+04 -6.578621E+04 -1.724659E+04 -9.198823E+03 -1.509835E+04
       124   9 -2.408019E+05 -8.820798E+04 -7.013630E+04 -2.789511E+04 -1.269633E+04 -1.690803E+04
       124  10  4.111297E+05  6.777968E+04  6.738350E+04 -2.850058E+04 -2.057426E-09 -2.445009E-10
       124  11  4.589974E+05  7.965287E+04  8.158615E+04 -1.785365E+04  1.717719E-09  1.199505E-10
       124  12  5.085223E+05  9.560683E+04  9.973080E+04 -3.039467E+04  5.420964E-09  4.616648E-10
       124  13  1.338043E+05 -2.223686E+02  4.610157E+03 -2.914422E+04  4.192155E-14  8.388383E-11
       124  14  1.330139E+05 -2.579741E+02  7.903087E+03 -1.755010E+04 -1.602002E-09  1.689313E-11
       124  15  1.337949E+05  3.704080E+03  1.480136E+04 -2.914460E+04  1.460569E-09  9.256899E-10
       124  16 -1.434496E+05 -6.822970E+04 -5.816814E+04 -2.978757E+04 -5.878993E-10  3.794192E-10
       124  17 -1.928709E+05 -8.017612E+04 -6.578680E+04 -1.724671E+04 -5.320693E-09 -7.083614E-11
       124  18 -2.408022E+05 -8.820833E+04 -7.013714E+04 -2.789528E+04 -5.461728E-09  1.716943E-09
       124  19  4.111297E+05  6.777985E+04  6.738381E+04 -2.850057E+04  1.379268E+03  1.267544E+04
       124  20  4.589975E+05  7.965312E+04  8.158664E+04 -1.785358E+04  5.852589E+03  1.509711E+04
       124  21  5.085225E+05  9.560716E+04  9.973154E+04 -3.039453E+04  1.032524E+04  1.690619E+04
       124  22  1.338044E+05 -2.221927E+02  4.610482E+03 -2.914419E+04  3.540127E+03  1.267562E+04
       124  23  1.330140E+05 -2.577142E+02  7.903621E+03 -1.755001E+04  7.526141E+03  1.509773E+04
       124  24  1.337951E+05  3.704423E+03  1.480215E+04 -2.914444E+04  1.151114E+04  1.690711E+04
       124  25 -1.434495E+05 -6.822952E+04 -5.816777E+04 -2.978752E+04  5.700029E+03  1.267579E+04
       124  26 -1.928708E+05 -8.017585E+04 -6.578621E+04 -1.724659E+04  9.198823E+03  1.509835E+04
       124  27 -2.408019E+05 -8.820798E+04 -7.013630E+04 -2.789511E+04  1.269633E+04  1.690803E+04
       125   1  5.556686E+05  9.947537E+04  1.128378E+05 -2.064009E+04 -8.951972E+03 -1.981011E+04
       125   2  5.952795E+05  1.120036E+05  1.373034E+05 -2.566995E+04 -3.598989E+04 -1.978264E+04
       125   3  6.535575E+05  1.846423E+05  1.944142E+05 -5.345809E+04 -6.303804E+04 -6.430857E+03
       125   4  1.371818E+05 -3.066572E+03  1.847195E+04 -2.904101E+04 -1.419780E+04 -1.981217E+04
       125   5  1.287515E+05 -2.531794E+03  3.091678E+04 -1.767650E+04 -3.066417E+04 -1.978189E+04
       125   6  1.371659E+05  5.630274E+04  6.868263E+04 -2.906989E+04 -4.713839E+04 -6.424253E+03
       125   7 -2.811422E+05 -1.056202E+05 -7.590496E+04 -3.743621E+04 -1.944013E+04 -1.981410E+04
       125   8 -3.375746E+05 -1.170820E+05 -7.548389E+04 -9.689125E+03 -2.534242E+04 -1.978101E+04
       125   9 -3.789808E+05 -7.205411E+04 -5.706701E+04 -4.702051E+03 -3.125191E+04 -6.416399E+03
       125  10  5.556684E+05  9.947493E+04  1.128369E+05 -2.064024E+04 -5.478519E-09  4.077980E-10
       125  11  5.952780E+05  1.120028E+05  1.373002E+05 -2.567052E+04 -1.915276E-09  9.336282E-11
       125  12  6.535532E+05  1.846412E+05  1.944067E+05 -5.345841E+04  2.399222E-09  2.510768E-10
       125  13  1.371814E+05 -3.067047E+03  1.847084E+04 -2.904123E+04 -1.170335E-09  4.977051E-10
       125  14  1.287504E+05 -2.532466E+03  3.091428E+04 -1.767699E+04 -6.014924E-10 -2.067294E-10
       125  15  1.371635E+05  5.630210E+04  6.867838E+04 -2.907014E+04  1.452081E-09 -4.527621E-10
       125  16 -2.811427E+05 -1.056208E+05 -7.590640E+04 -3.743652E+04  3.231670E-09  1.550300E-09
       125  17 -3.375754E+05 -1.170826E+05 -7.548583E+04 -9.689529E+03  1.667234E-09 -7.396815E-10
       125  18 -3.789818E+05 -7.205442E+04 -5.706892E+04 -4.702213E+03 -3.782813E-10  8.842627E-11
       125  19  5.556686E+05  9.947537E+04  1.128378E+05 -2.064009E+04  8.951972E+03  1.981011E+04
       125  20  5.952795E+05  1.120036E+05  1.373034E+05 -2.566995E+04  3.598989E+04  1.978264E+04
       125  21  6.535575E+05  1.846423E+05  1.944142E+05 -5.345809E+04  6.303804E+04  6.430857E+03
       125  22  1.371818E+05 -3.066572E+03  1.847195E+04 -2.904101E+04  1.419780E+04  1.981217E+04
       125  23  1.287515E+05 -2.531794E+03  3.091678E+04 -1.767650E+04  3.066417E+04  1.978189E+04
       125  24  1.371659E+05  5.630274E+04  6.868263E+04 -2.906989E+04  4.713839E+04  6.424253E+03
       125  25 -2.811422E+05 -1.056202E+05 -7.590496E+04 -3.743621E+04  1.944013E+04  1.981410E+04
       125  26 -3.375746E+05 -1.170820E+05 -7.548389E+04 -9.689125E+03  2.534242E+04  1.978101E+04
       125  27 -3.789808E+05 -7.205411E+04 -5.706701E+04 -4.702051E+03  3.125191E+04  6.416399E+03
       126   1  5.432235E+05  1.601004E+06  5.411596E+05 -2.971881E+05  2.255647E+04  8.470035E+04
       126   2  3.832422E+05  1.122157E+06  3.777938E+05 -1.761288E+05  6.470118E+04  3.005673E+04
       126   3  2.691909E+05  6.622779E+05  2.614706E+05 -2.762112E+05  5.127114E+04 -2.463530E+04
       126   4  3.602704E+04 -4.384369E+05  4.336917E+04 -2.791848E+05  2.265142E+04  2.923000E+04
       126   5 -1.429130E+03 -4.438199E+05  1.986706E+04 -1.686337E+05  6.473661E+04  1.873479E+04
       126   6 -5.317855E+02 -4.380399E+05  1.284654E+04 -2.792503E+05  5.118636E+04  8.149364E+03
       126   7 -4.714738E+05 -2.474083E+06 -4.547127E+05 -2.612385E+05  2.274335E+04 -2.605903E+04
       126   8 -3.862706E+05 -2.007526E+06 -3.382198E+05 -1.611563E+05  6.477182E+04  7.441088E+03
       126   9 -2.703371E+05 -1.537231E+06 -2.358512E+05 -2.822829E+05  5.110117E+04  4.087651E+04
       126  10  5.432210E+05  1.600996E+06  5.411452E+05 -2.971896E+05  5.567976E-10  2.593275E-10
       126  11  3.832375E+05  1.122155E+06  3.777842E+05 -1.761304E+05 -5.858999E-10  2.565361E-10
       126  12  2.691879E+05  6.622765E+05  2.614645E+05 -2.762102E+05  3.405464E-09  1.475175E-10
       126  13  3.602626E+04 -4.384379E+05  4.336659E+04 -2.791854E+05 -3.727277E-10 -3.664763E-12
       126  14 -1.433724E+03 -4.438214E+05  1.985852E+04 -1.686347E+05  3.312205E-09 -9.760369E-10
       126  15 -5.346165E+02 -4.380407E+05  1.284149E+04 -2.792506E+05  1.090322E-09 -7.641893E-10
       126  16 -4.714745E+05 -2.474084E+06 -4.547150E+05 -2.612380E+05  5.837599E-10  1.717881E-10
       126  17 -3.862752E+05 -2.007527E+06 -3.382278E+05 -1.611566E+05  1.177767E-09 -3.178574E-10
       126  18 -2.703403E+05 -1.537233E+06 -2.358593E+05 -2.822846E+05 -7.766837E-10 -9.753586E-10
       126  19  5.432235E+05  1.601004E+06  5.411596E+05 -2.971881E+05 -2.255647E+04 -8.470035E+04
       126  20  3.832422E+05  1.122157E+06  3.777938E+05 -1.761288E+05 -6.470118E+04 -3.005673E+04
       126  21  2.691909E+05  6.622779E+05  2.614706E+05 -2.762112E+05 -5.127114E+04  2.463530E+04
       126  22  3.602704E+04 -4.384369E+05  4.336917E+04 -2.791848E+05 -2.265142E+04 -2.923000E+04
       126  23 -1.429130E+03 -4.438199E+05  1.986706E+04 -1.686337E+05 -6.473661E+04 -1.873479E+04
       126  24 -5.317855E+02 -4.380399E+05  1.284654E+04 -2.792503E+05 -5.118636E+04 -8.149364E+03
       126  25 -4.714738E+05 -2.474083E+06 -4.547127E+05 -2.612385E+05 -2.274335E+04  2.605903E+04
       126  26 -3.862706E+05 -2.007526E+06 -3.382198E+05 -1.611563E+05 -6.477182E+04 -7.441088E+03
       126  27 -2.703371E+05 -1.537231E+06 -2.358512E+05 -2.822829E+05 -5.110117E+04 -4.087651E+04
       127   1  1.705277E+05  2.397301E+05  1.649953E+05 -2.822231E+05  3.080811E+04 -1.032673E+04
       127   2  5.238880E+04 -2.298417E+05  5.530141E+04 -1.684954E+05  9.789521E+03 -1.462423E+04
       127   3 -6.073024E+04 -6.988035E+05 -5.068927E+04 -2.783746E+05 -1.171240E+04 -1.892669E+04
       127   4  3.676702E+03 -4.402667E+05  1.085047E+04 -2.797713E+05  3.076127E+04  6.136577E+03
       127   5  7.306128E+02 -4.404094E+05  7.664997E+03 -1.679676E+05  9.739565E+03  2.219353E+03
       127   6  2.753779E+03 -4.402123E+05  7.931152E+03 -2.797742E+05 -1.176629E+04 -1.705972E+03
       127   7 -1.632060E+05 -1.119833E+06 -1.433232E+05 -2.773219E+05  3.071453E+04  2.258202E+04
       127   8 -5.093048E+04 -6.509352E+05 -3.997320E+04 -1.674400E+05  9.689628E+03  1.905727E+04
       127   9  6.623335E+04 -1.815583E+05  6.654838E+04 -2.811743E+05 -1.182024E+04  1.552186E+04
       127  10  1.705266E+05  2.397297E+05  1.649933E+05 -2.822228E+05  1.746653E-09  9.297744E-11
       127  11  5.238864E+04 -2.298420E+05  5.530083E+04 -1.684953E+05 -1.424221E-10 -1.559524E-10
       127  12 -6.073048E+04 -6.988039E+05 -5.069021E+04 -2.783747E+05 -3.651837E-10  2.625648E-10
       127  13  3.675676E+03 -4.402670E+05  1.084862E+04 -2.797715E+05  1.127027E-09  4.159788E-11
       127  14  7.305096E+02 -4.404094E+05  7.664810E+03 -1.679676E+05  1.017955E-09 -1.356068E-09
       127  15  2.753630E+03 -4.402123E+05  7.930887E+03 -2.797742E+05  1.325447E-10 -8.311951E-10
       127  16 -1.632072E+05 -1.119834E+06 -1.433259E+05 -2.773224E+05 -6.200025E-10  1.275212E-09
       127  17 -5.093068E+04 -6.509357E+05 -3.997406E+04 -1.674401E+05  1.267224E-09  3.486762E-10
       127  18  6.623313E+04 -1.815586E+05  6.654766E+04 -2.811742E+05  9.690732E-10 -1.168920E-09
       127  19  1.705277E+05  2.397301E+05  1.649953E+05 -2.822231E+05 -3.080811E+04  1.032673E+04
       127  20  5.238880E+04 -2.298417E+05  5.530141E+04 -1.684954E+05 -9.789521E+03  1.462423E+04
       127  21 -6.073024E+04 -6.988035E+05 -5.068927E+04 -2.783746E+05  1.171240E+04  1.892669E+04
       127  22  3.676702E+03 -4.402667E+05  1.085047E+04 -2.797713E+05 -3.076127E+04 -6.136577E+03
       127  23  7.306128E+02 -4.404094E+05  7.664997E+03 -1.679676E+05 -9.739565E+03 -2.219353E+03
       127  24  2.753779E+03 -4.402123E+05  7.931152E+03 -2.797742E+05  1.176629E+04  1.705972E+03
       127  25 -1.632060E+05 -1.119833E+06 -1.433232E+05 -2.773219E+05 -3.071453E+04 -2.258202E+04
       127  26 -5.093048E+04 -6.509352E+05 -3.997320E+04 -1.674400E+05 -9.689628E+03 -1.905727E+04
       127  27  6.623335E+04 -1.815583E+05  6.654838E+04 -2.811743E+05  1.182024E+04 -1.552186E+04
       128   1 -1.658910E+05 -1.117474E+06 -1.451461E+05 -2.807415E+05 -3.104672E+04 -3.334745E+04
       128   2 -2.819048E+05 -1.586153E+06 -2.506568E+05 -1.635534E+05 -4.671983E+04 -3.768242E+03
       128   3 -3.823543E+05 -2.055145E+06 -3.717285E+05 -2.681576E+05 -1.716603E+04  2.588595E+04
       128   4  6.226994E+02 -4.391180E+05  8.529439E+03 -2.793765E+05 -3.113643E+04 -3.147796E+03
       128   5 -3.495931E+02 -4.421078E+05  1.160165E+04 -1.684729E+05 -4.669980E+04 -9.327927E+03
       128   6  2.045487E+04 -4.394106E+05  2.397865E+04 -2.793317E+05 -1.707404E+04 -1.541030E+04
       128   7  1.671052E+05  2.396678E+05  1.621787E+05 -2.780097E+05 -3.122596E+04  2.708459E+04
       128   8  2.811144E+05  7.031519E+05  2.737741E+05 -1.734006E+05 -4.667969E+04 -1.489778E+04
       128   9  4.230717E+05  1.178712E+06  4.195010E+05 -2.905333E+05 -1.698071E+04 -5.681403E+04
       128  10 -1.658923E+05 -1.117475E+06 -1.451500E+05 -2.807423E+05 -1.014347E-09  3.437458E-10
       128  11 -2.819072E+05 -1.586153E+06 -2.506610E+05 -1.635536E+05 -3.766309E-10 -1.450504E-10
       128  12 -3.823548E+05 -2.055145E+06 -3.717303E+05 -2.681573E+05 -5.996094E-10  2.773230E-10
       128  13  6.216559E+02 -4.391182E+05  8.527598E+03 -2.793766E+05 -1.278829E-10  1.801888E-11
       128  14 -3.519580E+02 -4.421085E+05  1.159739E+04 -1.684732E+05 -3.195961E-10 -1.185711E-09
       128  15  2.045449E+04 -4.394109E+05  2.397765E+04 -2.793319E+05 -4.268275E-11 -5.751560E-10
       128  16  1.671039E+05  2.396667E+05  1.621755E+05 -2.780090E+05  1.421729E-09  1.069350E-09
       128  17  2.811120E+05  7.031510E+05  2.737696E+05 -1.734012E+05 -1.581674E-09  2.285041E-10
       128  18  4.230705E+05  1.178708E+06  4.194944E+05 -2.905341E+05  3.865719E-10 -1.051198E-09
       128  19 -1.658910E+05 -1.117474E+06 -1.451461E+05 -2.807415E+05  3.104672E+04  3.334745E+04
       128  20 -2.819048E+05 -1.586153E+06 -2.506568E+05 -1.635534E+05  4.671983E+04  3.768242E+03
       128  21 -3.823543E+05 -2.055145E+06 -3.717285E+05 -2.681576E+05  1.716603E+04 -2.588595E+04
       128  22  6.226994E+02 -4.391180E+05  8.529439E+03 -2.793765E+05  3.113643E+04  3.147796E+03
       128  23 -3.495931E+02 -4.421078E+05  1.160165E+04 -1.684729E+05  4.669980E+04  9.327927E+03
       128  24  2.045487E+04 -4.394106E+05  2.397865E+04 -2.793317E+05  1.707404E+04  1.541030E+04
       128  25  1.671052E+05  2.396678E+05  1.621787E+05 -2.780097E+05  3.122596E+04 -2.708459E+04
       128  26  2.811144E+05  7.031519E+05  2.737741E+05 -1.734006E+05  4.667969E+04  1.489778E+04
       128  27  4.230717E+05  1.178712E+06  4.195010E+05 -2.905333E+05  1.698071E+04  5.681403E+04
       129   1 -1.778643E+06 -5.571970E+05 -3.087628E+05 -6.538486E+05 -1.358475E+05 -4.428313E+04
       129   2 -1.732093E+06 -3.575670E+05 -1.829022E+05 -6.483362E+05 -8.771000E+04 -1.212391E+04
       129   3 -1.735318E+06 -3.252026E+05 -1.381577E+05 -6.205409E+05 -3.486723E+04  7.532466E+03
       129   4 -1.373448E+06 -3.459966E+05 -1.884146E+05 -4.834323E+05 -1.221540E+05 -3.915176E+04
       129   5 -1.339339E+06 -1.917959E+05 -8.066543E+04 -5.214159E+05 -8.324315E+04 -1.044981E+04
       129   6 -1.353136E+06 -2.029765E+05 -4.666987E+04 -5.371291E+05 -3.963024E+04  5.744197E+03
       129   7 -9.680848E+05 -1.347365E+05 -6.808153E+04 -3.129007E+05 -1.084509E+05 -3.401346E+04
       129   8 -9.464327E+05 -2.600232E+04  2.155855E+04 -3.944183E+05 -7.877320E+04 -8.774204E+03
       129   9 -9.708094E+05 -8.074891E+04  4.480822E+04 -4.536744E+05 -4.439648E+04  3.955115E+03
       129  10 -1.778664E+06 -5.572041E+05 -3.088013E+05 -6.538535E+05  6.974987E-10  2.992457E-10
       129  11 -1.732101E+06 -3.575693E+05 -1.829170E+05 -6.483371E+05  2.333253E-09  6.359332E-10
       129  12 -1.735319E+06 -3.252030E+05 -1.381601E+05 -6.205407E+05 -6.114655E-10 -1.068409E-10
       129  13 -1.373464E+06 -3.460023E+05 -1.884456E+05 -4.834361E+05  1.902788E-09  7.202428E-10
       129  14 -1.339347E+06 -1.917979E+05 -8.067869E+04 -5.214166E+05  1.105977E-09  1.131246E-09
       129  15 -1.353138E+06 -2.029770E+05 -4.667289E+04 -5.371289E+05 -1.617394E-09 -9.067652E-10
       129  16 -9.680978E+05 -1.347409E+05 -6.810585E+04 -3.129037E+05  2.342998E-09  5.232027E-10
       129  17 -9.464394E+05 -2.600407E+04  2.154673E+04 -3.944188E+05  8.038128E-10  1.993033E-10
       129  18 -9.708115E+05 -8.074945E+04  4.480448E+04 -4.536743E+05 -2.144179E-09 -1.542530E-09
       129  19 -1.778643E+06 -5.571970E+05 -3.087628E+05 -6.538486E+05  1.358475E+05  4.428313E+04
       129  20 -1.732093E+06 -3.575670E+05 -1.829022E+05 -6.483362E+05  8.771000E+04  1.212391E+04
       129  21 -1.735318E+06 -3.252026E+05 -1.381577E+05 -6.205409E+05  3.486723E+04 -7.532466E+03
       129  22 -1.373448E+06 -3.459966E+05 -1.884146E+05 -4.834323E+05  1.221540E+05  3.915176E+04
       129  23 -1.339339E+06 -1.917959E+05 -8.066543E+04 -5.214159E+05  8.324315E+04  1.044981E+04
       129  24 -1.353136E+06 -2.029765E+05 -4.666987E+04 -5.371291E+05  3.963024E+04 -5.744197E+03
       129  25 -9.680848E+05 -1.347365E+05 -6.808153E+04 -3.129007E+05  1.084509E+05  3.401346E+04
       129  26 -9.464327E+05 -2.600232E+04  2.155855E+04 -3.944183E+05  7.877320E+04  8.774204E+03
       129  27 -9.708094E+05 -8.074891E+04  4.480822E+04 -4.536744E+05  4.439648E+04 -3.955115E+03
       130   1 -1.673309E+06 -3.446427E+05 -1.197138E+05 -6.206208E+05 -3.153727E+04  5.670633E+03
       130   2 -1.638141E+06 -3.088423E+05 -9.068553E+04 -6.016800E+05 -2.088020E+04  7.909054E+03
       130   3 -1.593236E+06 -2.996351E+05 -7.222821E+04 -5.975991E+05 -9.988552E+03  9.521650E+03
       130   4 -1.346960E+06 -2.191563E+05 -3.731720E+04 -5.277126E+05 -3.245835E+04  5.323960E+03
       130   5 -1.351134E+06 -2.007194E+05 -1.883282E+04 -5.222251E+05 -2.225929E+04  7.390949E+03
       130   6 -1.345479E+06 -2.087804E+05 -1.055119E+04 -5.315978E+05 -1.182642E+04  8.831894E+03
       130   7 -1.020507E+06 -9.366130E+04  4.507091E+04 -4.347594E+05 -3.337995E+04  4.977076E+03
       130   8 -1.064046E+06 -9.259086E+04  5.301322E+04 -4.427369E+05 -2.363907E+04  6.872578E+03
       130   9 -1.097662E+06 -1.179226E+05  5.112077E+04 -4.655731E+05 -1.366507E+04  8.141853E+03
       130  10 -1.673310E+06 -3.446430E+05 -1.197158E+05 -6.206207E+05 -4.220049E-09 -9.419402E-10
       130  11 -1.638142E+06 -3.088425E+05 -9.068647E+04 -6.016799E+05  8.737654E-10  1.662251E-09
       130  12 -1.593237E+06 -2.996352E+05 -7.222857E+04 -5.975990E+05  4.595445E-09  1.547250E-09
       130  13 -1.346962E+06 -2.191567E+05 -3.731924E+04 -5.277125E+05 -1.342883E-09 -8.064733E-10
       130  14 -1.351134E+06 -2.007196E+05 -1.883386E+04 -5.222250E+05  4.633860E-09  1.338766E-09
       130  15 -1.345479E+06 -2.087805E+05 -1.055160E+04 -5.315977E+05  4.109548E-09  1.569516E-09
       130  16 -1.020508E+06 -9.366163E+04  4.506877E+04 -4.347592E+05  2.686558E-09 -1.432810E-10
       130  17 -1.064047E+06 -9.259106E+04  5.301208E+04 -4.427367E+05  4.267421E-09  9.951750E-10
       130  18 -1.097662E+06 -1.179227E+05  5.112029E+04 -4.655730E+05  4.200094E-09  1.566309E-09
       130  19 -1.673309E+06 -3.446427E+05 -1.197138E+05 -6.206208E+05  3.153727E+04 -5.670633E+03
       130  20 -1.638141E+06 -3.088423E+05 -9.068553E+04 -6.016800E+05  2.088020E+04 -7.909054E+03
       130  21 -1.593236E+06 -2.996351E+05 -7.222821E+04 -5.975991E+05  9.988552E+03 -9.521650E+03
       130  22 -1.346960E+06 -2.191563E+05 -3.731720E+04 -5.277126E+05  3.245835E+04 -5.323960E+03
       130  23 -1.351134E+06 -2.007194E+05 -1.883282E+04 -5.222251E+05  2.225929E+04 -7.390949E+03
       130  24 -1.345479E+06 -2.087804E+05 -1.055119E+04 -5.315978E+05  1.182642E+04 -8.831894E+03
       130  25 -1.020507E+06 -9.366130E+04  4.507091E+04 -4.347594E+05  3.337995E+04 -4.977076E+03
       130  26 -1.064046E+06 -9.259086E+04  5.301322E+04 -4.427369E+05  2.363907E+04 -6.872578E+03
       130  27 -1.097662E+06 -1.179226E+05  5.112077E+04 -4.655731E+05  1.366507E+04 -8.141853E+03
       131   1 -1.552189E+06 -2.874566E+05 -5.973668E+04 -5.877282E+05 -8.151121E+03  8.614741E+03
       131   2 -1.517701E+06 -2.631439E+05 -4.567224E+04 -5.674272E+05 -5.076500E+03  7.186838E+03
       131   3 -1.468266E+06 -2.552254E+05 -3.348749E+04 -5.647999E+05 -1.987229E+03  5.718503E+03
       131   4 -1.344821E+06 -2.099689E+05 -8.089008E+03 -5.309329E+05 -9.811861E+03  7.991622E+03
       131   5 -1.352242E+06 -2.014101E+05 -4.379271E+03 -5.222311E+05 -6.766444E+03  6.553006E+03
       131   6 -1.344712E+06 -2.092396E+05 -2.525667E+03 -5.312035E+05 -3.706549E+03  5.073911E+03
       131   7 -1.137411E+06 -1.324780E+05  4.355557E+04 -4.741201E+05 -1.147322E+04  7.368272E+03
       131   8 -1.186756E+06 -1.396743E+05  3.691167E+04 -4.770239E+05 -8.456884E+03  5.918989E+03
       131   9 -1.221143E+06 -1.632527E+05  2.843496E+04 -4.976011E+05 -5.426243E+03  4.429180E+03
       131  10 -1.552189E+06 -2.874567E+05 -5.973695E+04 -5.877282E+05  3.674449E-09  5.702249E-10
       131  11 -1.517701E+06 -2.631440E+05 -4.567238E+04 -5.674272E+05 -2.647345E-09 -1.498664E-09
       131  12 -1.468266E+06 -2.552255E+05 -3.348755E+04 -5.647999E+05 -2.827910E-09 -8.775817E-10
       131  13 -1.344821E+06 -2.099690E+05 -8.089309E+03 -5.309328E+05  2.888745E-10  5.932190E-10
       131  14 -1.352242E+06 -2.014101E+05 -4.379438E+03 -5.222311E+05 -3.867853E-09 -1.344480E-09
       131  15 -1.344712E+06 -2.092396E+05 -2.525742E+03 -5.312035E+05 -3.603025E-09 -1.237195E-09
       131  16 -1.137411E+06 -1.324781E+05  4.355522E+04 -4.741200E+05 -5.902154E-10  4.813645E-10
       131  17 -1.186756E+06 -1.396743E+05  3.691147E+04 -4.770239E+05 -4.185145E-09 -8.684370E-10
       131  18 -1.221143E+06 -1.632527E+05  2.843487E+04 -4.976011E+05 -3.343521E-09 -1.101052E-09
       131  19 -1.552189E+06 -2.874566E+05 -5.973668E+04 -5.877282E+05  8.151121E+03 -8.614741E+03
       131  20 -1.517701E+06 -2.631439E+05 -4.567224E+04 -5.674272E+05  5.076500E+03 -7.186838E+03
       131  21 -1.468266E+06 -2.552254E+05 -3.348749E+04 -5.647999E+05  1.987229E+03 -5.718503E+03
       131  22 -1.344821E+06 -2.099689E+05 -8.089008E+03 -5.309329E+05  9.811861E+03 -7.991622E+03
       131  23 -1.352242E+06 -2.014101E+05 -4.379271E+03 -5.222311E+05  6.766444E+03 -6.553006E+03
       131  24 -1.344712E+06 -2.092396E+05 -2.525667E+03 -5.312035E+05  3.706549E+03 -5.073911E+03
       131  25 -1.137411E+06 -1.324780E+05  4.355557E+04 -4.741201E+05  1.147322E+04 -7.368272E+03
       131  26 -1.186756E+06 -1.396743E+05  3.691167E+04 -4.770239E+05  8.456884E+03 -5.918989E+03
       131  27 -1.221143E+06 -1.632527E+05  2.843496E+04 -4.976011E+05  5.426243E+03 -4.429180E+03
       132   1 -1.428432E+06 -2.405708E+05 -2.275373E+04 -5.540687E+05 -1.113481E+03  4.504320E+03
       132   2 -1.393818E+06 -2.168953E+05 -1.167870E+04 -5.335104E+05  4.275428E+02  2.436738E+03
       132   3 -1.343652E+06 -2.089632E+05 -1.122278E+03 -5.309203E+05  1.970080E+03  3.647005E+02
       132   4 -1.344611E+06 -2.093387E+05 -1.991125E+03 -5.311771E+05 -2.828497E+03  3.861444E+03
       132   5 -1.352382E+06 -2.014451E+05 -1.340545E+03 -5.222008E+05 -1.290731E+03  1.792703E+03
       132   6 -1.344604E+06 -2.092942E+05 -1.205954E+03 -5.311933E+05  2.484902E+02 -2.805011E+02
       132   7 -1.260783E+06 -1.781062E+05  1.877092E+04 -5.082827E+05 -4.543762E+03  3.218473E+03
       132   8 -1.310945E+06 -1.859948E+05  8.997432E+03 -5.108905E+05 -3.009123E+03  1.148624E+03
       132   9 -1.345555E+06 -2.096252E+05 -1.289616E+03 -5.314662E+05 -1.473083E+03 -9.256965E+02
       132  10 -1.428432E+06 -2.405708E+05 -2.275377E+04 -5.540687E+05 -1.397040E-09 -3.313608E-10
       132  11 -1.393818E+06 -2.168953E+05 -1.167871E+04 -5.335104E+05 -1.219710E-09  3.815156E-10
       132  12 -1.343652E+06 -2.089632E+05 -1.122286E+03 -5.309203E+05  8.988521E-10  1.842959E-10
       132  13 -1.344611E+06 -2.093388E+05 -1.991168E+03 -5.311771E+05 -1.333894E-09 -7.994541E-10
       132  14 -1.352382E+06 -2.014451E+05 -1.340555E+03 -5.222008E+05 -1.154349E-09  2.699795E-10
       132  15 -1.344604E+06 -2.092942E+05 -1.205955E+03 -5.311933E+05 -2.317525E-10 -7.259731E-10
       132  16 -1.260783E+06 -1.781062E+05  1.877086E+04 -5.082827E+05  7.561183E-10 -2.596474E-10
       132  17 -1.310945E+06 -1.859948E+05  8.997412E+03 -5.108905E+05 -1.722148E-10 -1.047011E-10
       132  18 -1.345555E+06 -2.096252E+05 -1.289621E+03 -5.314662E+05 -1.754495E-09 -3.020928E-10
       132  19 -1.428432E+06 -2.405708E+05 -2.275373E+04 -5.540687E+05  1.113481E+03 -4.504320E+03
       132  20 -1.393818E+06 -2.168953E+05 -1.167870E+04 -5.335104E+05 -4.275428E+02 -2.436738E+03
       132  21 -1.343652E+06 -2.089632E+05 -1.122278E+03 -5.309203E+05 -1.970080E+03 -3.647005E+02
       132  22 -1.344611E+06 -2.093387E+05 -1.991125E+03 -5.311771E+05  2.828497E+03 -3.861444E+03
       132  23 -1.352382E+06 -2.014451E+05 -1.340545E+03 -5.222008E+05  1.290731E+03 -1.792703E+03
       132  24 -1.344604E+06 -2.092942E+05 -1.205954E+03 -5.311933E+05 -2.484902E+02  2.805011E+02
       132  25 -1.260783E+06 -1.781062E+05  1.877092E+04 -5.082827E+05  4.543762E+03 -3.218473E+03
       132  26 -1.310945E+06 -1.859948E+05  8.997432E+03 -5.108905E+05  3.009123E+03 -1.148624E+03
       132  27 -1.345555E+06 -2.096252E+05 -1.289616E+03 -5.314662E+05  1.473083E+03  9.256965E+02
       133   1 -1.303843E+06 -1.940669E+05  9.030490E+03 -5.200816E+05  2.683801E+03 -9.116986E+02
       133   2 -1.269278E+06 -1.704744E+05  1.888535E+04 -4.995365E+05  4.466636E+03 -2.890169E+03
       133   3 -1.219231E+06 -1.626365E+05  2.803300E+04 -4.969273E+05  6.247070E+03 -4.861022E+03
       133   4 -1.344618E+06 -2.092868E+05 -1.295126E+03 -5.311902E+05  9.631127E+02 -1.556583E+03
       133   5 -1.352365E+06 -2.014468E+05 -1.841714E+03 -5.222081E+05  2.751363E+03 -3.533166E+03
       133   6 -1.344631E+06 -2.093626E+05 -3.099590E+03 -5.311628E+05  4.537137E+03 -5.502146E+03
       133   7 -1.385392E+06 -2.245068E+05 -1.162097E+04 -5.422982E+05 -7.574683E+02 -2.201428E+03
       133   8 -1.435445E+06 -2.324189E+05 -2.256948E+04 -5.448772E+05  1.036328E+03 -4.176074E+03
       133   9 -1.470017E+06 -2.560879E+05 -3.423357E+04 -5.653922E+05  2.827574E+03 -6.143133E+03
       133  10 -1.303843E+06 -1.940669E+05  9.030475E+03 -5.200816E+05  1.079741E-09  8.893863E-11
       133  11 -1.269278E+06 -1.704744E+05  1.888530E+04 -4.995365E+05  6.726590E-10 -2.292441E-10
       133  12 -1.219231E+06 -1.626365E+05  2.803288E+04 -4.969272E+05 -9.005375E-11 -2.463268E-10
       133  13 -1.344618E+06 -2.092868E+05 -1.295132E+03 -5.311902E+05  1.248853E-09 -3.799484E-10
       133  14 -1.352365E+06 -2.014468E+05 -1.841752E+03 -5.222081E+05  1.822846E-09 -4.997945E-10
       133  15 -1.344631E+06 -2.093626E+05 -3.099686E+03 -5.311628E+05 -6.198513E-10  4.287508E-11
       133  16 -1.385392E+06 -2.245068E+05 -1.162098E+04 -5.422982E+05 -1.900896E-09 -9.459591E-10
       133  17 -1.435445E+06 -2.324189E+05 -2.256951E+04 -5.448772E+05  1.468079E-09 -6.982696E-10
       133  18 -1.470017E+06 -2.560880E+05 -3.423365E+04 -5.653922E+05 -9.204872E-11  1.292961E-10
       133  19 -1.303843E+06 -1.940669E+05  9.030490E+03 -5.200816E+05 -2.683801E+03  9.116986E+02
       133  20 -1.269278E+06 -1.704744E+05  1.888535E+04 -4.995365E+05 -4.466636E+03  2.890169E+03
       133  21 -1.219231E+06 -1.626365E+05  2.803300E+04 -4.969273E+05 -6.247070E+03  4.861022E+03
       133  22 -1.344618E+06 -2.092868E+05 -1.295126E+03 -5.311902E+05 -9.631127E+02  1.556583E+03
       133  23 -1.352365E+06 -2.014468E+05 -1.841714E+03 -5.222081E+05 -2.751363E+03  3.533166E+03
       133  24 -1.344631E+06 -2.093626E+05 -3.099590E+03 -5.311628E+05 -4.537137E+03  5.502146E+03
       133  25 -1.385392E+06 -2.245068E+05 -1.162097E+04 -5.422982E+05  7.574683E+02  2.201428E+03
       133  26 -1.435445E+06 -2.324189E+05 -2.256948E+04 -5.448772E+05 -1.036328E+03  4.176074E+03
       133  27 -1.470017E+06 -2.560879E+05 -3.423357E+04 -5.653922E+05 -2.827574E+03  6.143133E+03
       134   1 -1.179745E+06 -1.478417E+05  3.724829E+04 -4.863827E+05  7.342840E+03 -5.986413E+03
       134   2 -1.145441E+06 -1.242753E+05  4.436769E+04 -4.657922E+05  1.178154E+04 -6.935021E+03
       134   3 -1.096643E+06 -1.175775E+05  4.845605E+04 -4.626957E+05  1.620421E+04 -7.837626E+03
       134   4 -1.344799E+06 -2.092068E+05 -4.044107E+03 -5.312179E+05  5.629328E+03 -6.629018E+03
       134   5 -1.352130E+06 -2.013715E+05 -7.200517E+03 -5.222462E+05  1.010063E+04 -7.565712E+03
       134   6 -1.344977E+06 -2.104122E+05 -1.341474E+04 -5.307694E+05  1.455565E+04 -8.456487E+03
       134   7 -1.509825E+06 -2.705696E+05 -4.533827E+04 -5.760420E+05  3.916329E+03 -7.271432E+03
       134   8 -1.558777E+06 -2.784647E+05 -5.877191E+04 -5.786830E+05  8.420333E+03 -8.196172E+03
       134   9 -1.593251E+06 -3.032431E+05 -7.529053E+04 -5.988186E+05  1.290781E+04 -9.075079E+03
       134  10 -1.179745E+06 -1.478418E+05  3.724813E+04 -4.863827E+05  1.273426E-09  3.796450E-10
       134  11 -1.145441E+06 -1.242754E+05  4.436734E+04 -4.657922E+05  5.856532E-09  1.461392E-09
       134  12 -1.096643E+06 -1.175776E+05  4.845544E+04 -4.626956E+05  5.675443E-09  4.030736E-11
       134  13 -1.344799E+06 -2.092068E+05 -4.044249E+03 -5.312179E+05  1.875437E-09  7.055535E-10
       134  14 -1.352130E+06 -2.013716E+05 -7.200816E+03 -5.222462E+05  4.919122E-09  1.544683E-09
       134  15 -1.344977E+06 -2.104124E+05 -1.341527E+04 -5.307693E+05  1.425055E-09 -2.891340E-10
       134  16 -1.509825E+06 -2.705697E+05 -4.533840E+04 -5.760420E+05  1.753255E-09  8.407057E-10
       134  17 -1.558777E+06 -2.784648E+05 -5.877217E+04 -5.786829E+05  3.049724E-09  7.041566E-10
       134  18 -1.593251E+06 -3.032432E+05 -7.529100E+04 -5.988185E+05 -1.473381E-09 -3.832377E-10
       134  19 -1.179745E+06 -1.478417E+05  3.724829E+04 -4.863827E+05 -7.342840E+03  5.986413E+03
       134  20 -1.145441E+06 -1.242753E+05  4.436769E+04 -4.657922E+05 -1.178154E+04  6.935021E+03
       134  21 -1.096643E+06 -1.175775E+05  4.845605E+04 -4.626957E+05 -1.620421E+04  7.837626E+03
       134  22 -1.344799E+06 -2.092068E+05 -4.044107E+03 -5.312179E+05 -5.629328E+03  6.629018E+03
       134  23 -1.352130E+06 -2.013715E+05 -7.200517E+03 -5.222462E+05 -1.010063E+04  7.565712E+03
       134  24 -1.344977E+06 -2.104122E+05 -1.341474E+04 -5.307694E+05 -1.455565E+04  8.456487E+03
       134  25 -1.509825E+06 -2.705696E+05 -4.533827E+04 -5.760420E+05 -3.916329E+03  7.271432E+03
       134  26 -1.558777E+06 -2.784647E+05 -5.877191E+04 -5.786830E+05 -8.420333E+03  8.196172E+03
       134  27 -1.593251E+06 -3.032431E+05 -7.529053E+04 -5.988186E+05 -1.290781E+04  9.075079E+03
       135   1 -1.056733E+06 -1.032278E+05  5.429497E+04 -4.556851E+05  1.939189E+04 -8.232970E+03
       135   2 -1.023356E+06 -7.652023E+04  5.058964E+04 -4.311381E+05  3.569913E+04 -4.553889E+03
       135   3 -9.837959E+05 -8.357317E+04  3.030234E+04 -4.195971E+05  5.175302E+04 -1.941583E+02
       135   4 -1.346043E+06 -2.084712E+05 -1.752697E+04 -5.319197E+05  1.755187E+04 -8.923844E+03
       135   5 -1.350313E+06 -2.001643E+05 -3.132109E+04 -5.221839E+05  3.435419E+04 -5.059600E+03
       135   6 -1.348504E+06 -2.257239E+05 -6.209714E+04 -5.254549E+05  5.090213E+04 -5.151570E+02
       135   7 -1.635270E+06 -3.137097E+05 -8.935505E+04 -6.081222E+05  1.571278E+04 -9.614385E+03
       135   8 -1.677164E+06 -3.238007E+05 -1.132402E+05 -6.131859E+05  3.301001E+04 -5.565015E+03
       135   9 -1.713082E+06 -3.678632E+05 -1.545078E+05 -6.312555E+05  5.005178E+04 -8.359348E+02
       135  10 -1.056733E+06 -1.032279E+05  5.429414E+04 -4.556850E+05  1.819654E-09 -1.197792E-09
       135  11 -1.023358E+06 -7.652060E+04  5.058720E+04 -4.311379E+05 -1.598651E-10  1.769007E-10
       135  12 -9.837988E+05 -8.357389E+04  3.029730E+04 -4.195971E+05 -1.572879E-09  9.863499E-10
       135  13 -1.346043E+06 -2.084713E+05 -1.752770E+04 -5.319196E+05  1.307564E-09 -6.106555E-10
       135  14 -1.350314E+06 -2.001647E+05 -3.132336E+04 -5.221838E+05 -1.117188E-09  1.537963E-10
       135  15 -1.348506E+06 -2.257246E+05 -6.210202E+04 -5.254549E+05 -9.009640E-10  8.067273E-10
       135  16 -1.635270E+06 -3.137098E+05 -8.935569E+04 -6.081221E+05 -5.763610E-10 -2.117689E-10
       135  17 -1.677165E+06 -3.238010E+05 -1.132423E+05 -6.131858E+05 -2.200048E-10  1.168673E-10
       135  18 -1.713085E+06 -3.678639E+05 -1.545125E+05 -6.312555E+05 -5.506255E-12  1.213394E-09
       135  19 -1.056733E+06 -1.032278E+05  5.429497E+04 -4.556851E+05 -1.939189E+04  8.232970E+03
       135  20 -1.023356E+06 -7.652023E+04  5.058964E+04 -4.311381E+05 -3.569913E+04  4.553889E+03
       135  21 -9.837959E+05 -8.357317E+04  3.030234E+04 -4.195971E+05 -5.175302E+04  1.941583E+02
       135  22 -1.346043E+06 -2.084712E+05 -1.752697E+04 -5.319197E+05 -1.755187E+04  8.923844E+03
       135  23 -1.350313E+06 -2.001643E+05 -3.132109E+04 -5.221839E+05 -3.435419E+04  5.059600E+03
       135  24 -1.348504E+06 -2.257239E+05 -6.209714E+04 -5.254549E+05 -5.090213E+04  5.151570E+02
       135  25 -1.635270E+06 -3.137097E+05 -8.935505E+04 -6.081222E+05 -1.571278E+04  9.614385E+03
       135  26 -1.677164E+06 -3.238007E+05 -1.132402E+05 -6.131859E+05 -3.301001E+04  5.565015E+03
       135  27 -1.713082E+06 -3.678632E+05 -1.545078E+05 -6.312555E+05 -5.005178E+04  8.359348E+02
       136   1 -9.268311E+05 -7.181459E+04  2.366214E+04 -4.582915E+05  6.721121E+04  2.377044E+03
       136   2 -9.080047E+05  4.366265E+03 -2.220762E+04 -3.725696E+05  1.296855E+05  2.590783E+04
       136   3 -9.767501E+05 -1.827934E+05 -1.828498E+05 -2.385646E+05  1.870665E+05  6.300099E+04
       136   4 -1.358685E+06 -1.988967E+05 -7.766655E+04 -5.412463E+05  6.219511E+04  4.956427E+02
       136   5 -1.330781E+06 -1.851694E+05 -1.342277E+05 -5.206956E+05  1.346583E+05  2.776805E+04
       136   6 -1.392513E+06 -4.368928E+05 -3.135504E+05 -4.518443E+05  2.020251E+05  6.859032E+04
       136   7 -1.790356E+06 -3.259811E+05 -1.790076E+05 -6.241565E+05  5.718282E+04 -1.385028E+03
       136   8 -1.753374E+06 -3.746680E+05 -2.462620E+05 -6.687209E+05  1.396273E+05  2.962621E+04
       136   9 -1.808075E+06 -6.908716E+05 -4.442625E+05 -6.649627E+05  2.169724E+05  7.416949E+04
       136  10 -9.268360E+05 -7.181581E+04  2.365363E+04 -4.582916E+05 -8.755661E-10  1.079303E-09
       136  11 -9.080230E+05  4.361018E+03 -2.224054E+04 -3.725723E+05  2.938202E-09  2.574504E-09
       136  12 -9.767888E+05 -1.828071E+05 -1.829231E+05 -2.385741E+05  2.613026E-09  9.440598E-10
       136  13 -1.358689E+06 -1.988977E+05 -7.767384E+04 -5.412463E+05  2.524379E-09  8.870675E-10
       136  14 -1.330800E+06 -1.851751E+05 -1.342634E+05 -5.206986E+05  3.043394E-09  7.634092E-10
       136  15 -1.392558E+06 -4.369088E+05 -3.136361E+05 -4.518554E+05  2.035830E-09  6.476274E-10
       136  16 -1.790359E+06 -3.259820E+05 -1.790137E+05 -6.241564E+05  1.881238E-09  1.640068E-09
       136  17 -1.753395E+06 -3.746742E+05 -2.463004E+05 -6.687242E+05  1.494665E-09  1.897094E-09
       136  18 -1.808127E+06 -6.908902E+05 -4.443617E+05 -6.649757E+05 -4.397075E-10  6.832493E-10
       136  19 -9.268311E+05 -7.181459E+04  2.366214E+04 -4.582915E+05 -6.721121E+04 -2.377044E+03
       136  20 -9.080047E+05  4.366265E+03 -2.220762E+04 -3.725696E+05 -1.296855E+05 -2.590783E+04
       136  21 -9.767501E+05 -1.827934E+05 -1.828498E+05 -2.385646E+05 -1.870665E+05 -6.300099E+04
       136  22 -1.358685E+06 -1.988967E+05 -7.766655E+04 -5.412463E+05 -6.219511E+04 -4.956427E+02
       136  23 -1.330781E+06 -1.851694E+05 -1.342277E+05 -5.206956E+05 -1.346583E+05 -2.776805E+04
       136  24 -1.392513E+06 -4.368928E+05 -3.135504E+05 -4.518443E+05 -2.020251E+05 -6.859032E+04
       136  25 -1.790356E+06 -3.259811E+05 -1.790076E+05 -6.241565E+05 -5.718282E+04  1.385028E+03
       136  26 -1.753374E+06 -3.746680E+05 -2.462620E+05 -6.687209E+05 -1.396273E+05 -2.962621E+04
       136  27 -1.808075E+06 -6.908716E+05 -4.442625E+05 -6.649627E+05 -2.169724E+05 -7.416949E+04
       137   1 -1.452888E+05 -1.926676E+04 -2.615350E+03  1.077861E+04  4.599524E+04  4.391111E+03
       137   2 -1.231933E+05 -8.121666E+04 -3.537423E+04 -1.656565E+03  3.330258E+04  1.352560E+04
       137   3 -8.211883E+04 -7.414785E+04 -4.260044E+04 -2.877556E+04  2.061452E+04  1.362640E+04
       137   4  2.053631E+05  6.789446E+04  8.278725E+04 -1.870473E+04  5.683448E+04  4.395576E+03
       137   5  1.952641E+05 -3.009975E+03  3.726944E+04 -1.134359E+04  3.697839E+04  1.352648E+04
       137   6  2.053750E+05 -3.673046E+03  2.224788E+04 -1.866501E+04  1.712774E+04  1.362494E+04
       137   7  5.561293E+05  1.550500E+05  1.681818E+05 -4.820478E+04  6.767981E+04  4.399011E+03
       137   8  5.138158E+05  7.519004E+04  1.099066E+05 -2.103564E+04  4.065607E+04  1.352723E+04
       137   9  4.929458E+05  6.679647E+04  8.709102E+04 -8.549749E+03  1.363935E+04  1.362337E+04
       137  10 -1.452910E+05 -1.926735E+04 -2.619363E+03  1.077845E+04 -6.036540E-10 -5.167542E-10
       137  11 -1.231946E+05 -8.121715E+04 -3.537665E+04 -1.656928E+03 -6.033447E-10  3.719460E-10
       137  12 -8.211933E+04 -7.414816E+04 -4.260159E+04 -2.877578E+04 -3.497461E-09 -5.025353E-10
       137  13  2.053597E+05  6.789358E+04  8.278115E+04 -1.870493E+04  6.807476E-11  4.773815E-10
       137  14  1.952626E+05 -3.010538E+03  3.726653E+04 -1.134399E+04 -5.432500E-10  7.803145E-11
       137  15  2.053746E+05 -3.673324E+03  2.224698E+04 -1.866520E+04  8.589514E-10 -4.151296E-10
       137  16  5.561244E+05  1.550487E+05  1.681732E+05 -4.820502E+04 -2.871931E-10  3.945806E-10
       137  17  5.138140E+05  7.518940E+04  1.099031E+05 -2.103608E+04 -3.372166E-10  9.696793E-11
       137  18  4.929456E+05  6.679622E+04  8.709032E+04 -8.549899E+03  3.140363E-09  1.000634E-09
       137  19 -1.452888E+05 -1.926676E+04 -2.615350E+03  1.077861E+04 -4.599524E+04 -4.391111E+03
       137  20 -1.231933E+05 -8.121666E+04 -3.537423E+04 -1.656565E+03 -3.330258E+04 -1.352560E+04
       137  21 -8.211883E+04 -7.414785E+04 -4.260044E+04 -2.877556E+04 -2.061452E+04 -1.362640E+04
       137  22  2.053631E+05  6.789446E+04  8.278725E+04 -1.870473E+04 -5.683448E+04 -4.395576E+03
       137  23  1.952641E+05 -3.009975E+03  3.726944E+04 -1.134359E+04 -3.697839E+04 -1.352648E+04
       137  24  2.053750E+05 -3.673046E+03  2.224788E+04 -1.866501E+04 -1.712774E+04 -1.362494E+04
       137  25  5.561293E+05  1.550500E+05  1.681818E+05 -4.820478E+04 -6.767981E+04 -4.399011E+03
       137  26  5.138158E+05  7.519004E+04  1.099066E+05 -2.103564E+04 -4.065607E+04 -1.352723E+04
       137  27  4.929458E+05  6.679647E+04  8.709102E+04 -8.549749E+03 -1.363935E+04 -1.362337E+04
       138   1 -5.799712E+04 -5.912743E+04 -4.096575E+04 -1.723736E+04  1.462920E+04  1.170453E+04
       138   2 -2.752945E+04 -5.617951E+04 -4.203581E+04 -1.092665E+04  1.017397E+04  1.056158E+04
       138   3  4.741847E+03 -4.847903E+04 -3.900917E+04 -1.955814E+04  5.718179E+03  9.003921E+03
       138   4  2.012993E+05  4.484358E+03  1.782043E+04 -1.873401E+04  1.389327E+04  1.170391E+04
       138   5  2.003721E+05 -2.981315E+02  9.489799E+03 -1.126249E+04  9.107775E+03  1.056104E+04
       138   6  2.013041E+05 -2.717983E+02  5.483886E+03 -1.873275E+04  4.321939E+03  9.003519E+03
       138   7  4.606581E+05  6.809152E+04  7.660226E+04 -2.023130E+04  1.315702E+04  1.170330E+04
       138   8  4.283220E+05  5.557967E+04  6.101208E+04 -1.159845E+04  8.041188E+03  1.056050E+04
       138   9  3.979022E+05  4.793278E+04  4.997447E+04 -1.790710E+04  2.925261E+03  9.003113E+03
       138  10 -5.799739E+04 -5.912763E+04 -4.096641E+04 -1.723750E+04 -2.012751E-09 -5.542426E-10
       138  11 -2.752959E+04 -5.617965E+04 -4.203622E+04 -1.092674E+04  2.429236E-10 -1.361098E-10
       138  12  4.741790E+03 -4.847913E+04 -3.900939E+04 -1.955818E+04 -2.923133E-10 -4.707813E-10
       138  13  2.012990E+05  4.484160E+03  1.781981E+04 -1.873414E+04 -2.070890E-09  4.010858E-10
       138  14  2.003720E+05 -2.982735E+02  9.489433E+03 -1.126257E+04  6.076718E-10 -9.328011E-11
       138  15  2.013041E+05 -2.718904E+02  5.483699E+03 -1.873278E+04 -3.305903E-09 -7.012234E-10
       138  16  4.606579E+05  6.809133E+04  7.660168E+04 -2.023142E+04  3.903253E-10  3.987613E-10
       138  17  4.283219E+05  5.557954E+04  6.101175E+04 -1.159852E+04 -1.240522E-09 -5.306831E-10
       138  18  3.979022E+05  4.793269E+04  4.997430E+04 -1.790712E+04 -9.802639E-11 -5.166634E-10
       138  19 -5.799712E+04 -5.912743E+04 -4.096575E+04 -1.723736E+04 -1.462920E+04 -1.170453E+04
       138  20 -2.752945E+04 -5.617951E+04 -4.203581E+04 -1.092665E+04 -1.017397E+04 -1.056158E+04
       138  21  4.741847E+03 -4.847903E+04 -3.900917E+04 -1.955814E+04 -5.718179E+03 -9.003921E+03
       138  22  2.012993E+05  4.484358E+03  1.782043E+04 -1.873401E+04 -1.389327E+04 -1.170391E+04
       138  23  2.003721E+05 -2.981315E+02  9.489799E+03 -1.126249E+04 -9.107775E+03 -1.056104E+04
       138  24  2.013041E+05 -2.717983E+02  5.483886E+03 -1.873275E+04 -4.321939E+03 -9.003519E+03
       138  25  4.606581E+05  6.809152E+04  7.660226E+04 -2.023130E+04 -1.315702E+04 -1.170330E+04
       138  26  4.283220E+05  5.557967E+04  6.101208E+04 -1.159845E+04 -8.041188E+03 -1.056050E+04
       138  27  3.979022E+05  4.793278E+04  4.997447E+04 -1.790710E+04 -2.925261E+03 -9.003113E+03
       139   1  3.235510E+04 -4.105335E+04 -3.381568E+04 -1.875392E+04  4.738974E+03  8.007276E+03
       139   2  6.352780E+04 -3.370377E+04 -2.872103E+04 -1.132554E+04  3.610568E+03  6.395542E+03
       139   3  9.494165E+04 -2.602762E+04 -2.280754E+04 -1.881749E+04  2.481802E+03  4.765605E+03
       139   4  2.009474E+05  2.638516E+02  4.198630E+03 -1.872831E+04  3.470323E+03  8.006984E+03
       139   5  2.008271E+05 -4.331280E+01  2.301298E+03 -1.126823E+04  2.327191E+03  6.395363E+03
       139   6  2.009499E+05 -2.125055E+01  1.232996E+03 -1.872830E+04  1.183757E+03  4.765544E+03
       139   7  3.695661E+05  4.157911E+04  4.221113E+04 -1.870269E+04  2.201330E+03  8.006692E+03
       139   8  3.381438E+05  3.361585E+04  3.332242E+04 -1.121092E+04  1.043534E+03  6.395184E+03
       139   9  3.069686E+05  2.598434E+04  2.527281E+04 -1.863908E+04 -1.145087E+02  4.765483E+03
       139  10  3.235506E+04 -4.105343E+04 -3.381584E+04 -1.875395E+04 -1.388305E-09 -3.643393E-10
       139  11  6.352777E+04 -3.370382E+04 -2.872113E+04 -1.132555E+04 -2.209928E-09  2.966945E-10
       139  12  9.494164E+04 -2.602764E+04 -2.280759E+04 -1.881750E+04  3.710150E-10  6.412893E-10
       139  13  2.009473E+05  2.637796E+02  4.198487E+03 -1.872833E+04 -1.134712E-09 -3.962794E-10
       139  14  2.008270E+05 -4.335818E+01  2.301211E+03 -1.126825E+04 -5.527552E-10  2.279442E-10
       139  15  2.009499E+05 -2.127532E+01  1.232951E+03 -1.872830E+04 -8.731759E-12  4.863427E-10
       139  16  3.695660E+05  4.157904E+04  4.221100E+04 -1.870270E+04  1.698659E-10 -3.333394E-10
       139  17  3.381438E+05  3.361581E+04  3.332234E+04 -1.121092E+04 -4.333601E-10 -2.605884E-10
       139  18  3.069686E+05  2.598432E+04  2.527277E+04 -1.863908E+04  1.365466E-10  4.546332E-10
       139  19  3.235510E+04 -4.105335E+04 -3.381568E+04 -1.875392E+04 -4.738974E+03 -8.007276E+03
       139  20  6.352780E+04 -3.370377E+04 -2.872103E+04 -1.132554E+04 -3.610568E+03 -6.395542E+03
       139  21  9.494165E+04 -2.602762E+04 -2.280754E+04 -1.881749E+04 -2.481802E+03 -4.765605E+03
       139  22  2.009474E+05  2.638516E+02  4.198630E+03 -1.872831E+04 -3.470323E+03 -8.006984E+03
       139  23  2.008271E+05 -4.331280E+01  2.301298E+03 -1.126823E+04 -2.327191E+03 -6.395363E+03
       139  24  2.009499E+05 -2.125055E+01  1.232996E+03 -1.872830E+04 -1.183757E+03 -4.765544E+03
       139  25  3.695661E+05  4.157911E+04  4.221113E+04 -1.870269E+04 -2.201330E+03 -8.006692E+03
       139  26  3.381438E+05  3.361585E+04  3.332242E+04 -1.121092E+04 -1.043534E+03 -6.395184E+03
       139  27  3.069686E+05  2.598434E+04  2.527281E+04 -1.863908E+04  1.145087E+02 -4.765483E+03
       140   1  1.228109E+05 -1.911681E+04 -1.669319E+04 -1.875989E+04  2.287247E+03  3.813337E+03
       140   2  1.540558E+05 -1.148519E+04 -1.030557E+04 -1.130575E+04  2.151222E+03  2.182223E+03
       140   3  1.853256E+05 -3.834616E+03 -3.824449E+03 -1.875656E+04  2.015078E+03  5.505818E+02
       140   4  2.009023E+05  9.325984E+00  8.599123E+02 -1.872491E+04  9.954830E+02  3.813325E+03
       140   5  2.008910E+05 -3.738589E+00  2.756748E+02 -1.127247E+04  8.589764E+02  2.182249E+03
       140   6  2.009032E+05  2.155871E+00 -2.148384E+02 -1.872492E+04  7.223568E+02  5.506500E+02
       140   7  2.789994E+05  1.913505E+04  1.841264E+04 -1.868993E+04 -2.964414E+02  3.813313E+03
       140   8  2.477282E+05  1.147756E+04  1.085679E+04 -1.123920E+04 -4.333659E+02  2.182275E+03
       140   9  2.164810E+05  3.838911E+03  3.394762E+03 -1.869328E+04 -5.703966E+02  5.507180E+02
       140  10  1.228109E+05 -1.911683E+04 -1.669323E+04 -1.875990E+04 -2.507203E-09  2.349541E-10
       140  11  1.540558E+05 -1.148519E+04 -1.030559E+04 -1.130575E+04  2.979081E-10 -3.450676E-10
       140  12  1.853256E+05 -3.834617E+03 -3.824457E+03 -1.875656E+04 -4.960681E-10 -1.776893E-10
       140  13  2.009023E+05  9.310102E+00  8.598831E+02 -1.872492E+04 -8.423978E-12  2.999778E-10
       140  14  2.008910E+05 -3.743902E+00  2.756644E+02 -1.127248E+04 -3.611535E-11 -1.997545E-10
       140  15  2.009032E+05  2.155405E+00 -2.148400E+02 -1.872492E+04 -7.216102E-10  1.122327E-10
       140  16  2.789994E+05  1.913503E+04  1.841261E+04 -1.868993E+04 -1.748700E-09  4.108976E-10
       140  17  2.477282E+05  1.147755E+04  1.085678E+04 -1.123920E+04 -3.618321E-10  1.844727E-11
       140  18  2.164810E+05  3.838911E+03  3.394760E+03 -1.869328E+04 -7.890065E-10  4.993063E-10
       140  19  1.228109E+05 -1.911681E+04 -1.669319E+04 -1.875989E+04 -2.287247E+03 -3.813337E+03
       140  20  1.540558E+05 -1.148519E+04 -1.030557E+04 -1.130575E+04 -2.151222E+03 -2.182223E+03
       140  21  1.853256E+05 -3.834616E+03 -3.824449E+03 -1.875656E+04 -2.015078E+03 -5.505818E+02
       140  22  2.009023E+05  9.325984E+00  8.599123E+02 -1.872491E+04 -9.954830E+02 -3.813325E+03
       140  23  2.008910E+05 -3.738589E+00  2.756748E+02 -1.127247E+04 -8.589764E+02 -2.182249E+03
       140  24  2.009032E+05  2.155871E+00 -2.148384E+02 -1.872492E+04 -7.223568E+02 -5.506500E+02
       140  25  2.789994E+05  1.913505E+04  1.841264E+04 -1.868993E+04  2.964414E+02 -3.813313E+03
       140  26  2.477282E+05  1.147756E+04  1.085679E+04 -1.123920E+04  4.333659E+02 -2.182275E+03
       140  27  2.164810E+05  3.838911E+03  3.394762E+03 -1.869328E+04  5.703966E+02 -5.507180E+02
       141   1  2.132033E+05  3.043733E+03  2.399757E+03 -1.876246E+04  2.077468E+03 -3.991786E+02
       141   2  2.445037E+05  1.069810E+04  8.716663E+03 -1.132447E+04  2.635817E+03 -2.030722E+03
       141   3  2.757209E+05  1.830342E+04  1.465792E+04 -1.879066E+04  3.194296E+03 -3.661763E+03
       141   4  2.008793E+05  4.596687E+00 -4.747668E+02 -1.872478E+04  7.847248E+02 -3.991095E+02
       141   5  2.009211E+05  1.457995E+01 -1.129228E+03 -1.127265E+04  1.343401E+03 -2.030692E+03
       141   6  2.008786E+05 -2.449712E+01 -2.159572E+03 -1.872479E+04  1.902180E+03 -3.661768E+03
       141   7  1.885554E+05 -3.034550E+03 -3.349295E+03 -1.868710E+04 -5.079927E+02 -3.990406E+02
       141   8  1.573402E+05 -1.066907E+04 -1.097524E+04 -1.122085E+04  5.107472E+01 -2.030662E+03
       141   9  1.260416E+05 -1.835279E+04 -1.897741E+04 -1.865892E+04  6.102173E+02 -3.661773E+03
       141  10  2.132033E+05  3.043732E+03  2.399749E+03 -1.876246E+04 -3.401235E-10  1.143113E-10
       141  11  2.445037E+05  1.069809E+04  8.716643E+03 -1.132446E+04 -2.784814E-10  1.720522E-10
       141  12  2.757209E+05  1.830340E+04  1.465787E+04 -1.879065E+04 -2.232637E-09 -2.663085E-10
       141  13  2.008793E+05  4.596350E+00 -4.747683E+02 -1.872478E+04 -9.253657E-10  2.103260E-10
       141  14  2.009211E+05  1.457504E+01 -1.129240E+03 -1.127265E+04 -3.927579E-10 -1.767161E-10
       141  15  2.008786E+05 -2.451249E+01 -2.159604E+03 -1.872478E+04 -7.786563E-10 -3.419382E-10
       141  16  1.885554E+05 -3.034550E+03 -3.349296E+03 -1.868710E+04 -2.208593E-10  5.281149E-10
       141  17  1.573402E+05 -1.066907E+04 -1.097524E+04 -1.122085E+04  4.441121E-11 -2.904924E-10
       141  18  1.260416E+05 -1.835281E+04 -1.897744E+04 -1.865892E+04 -6.761168E-10 -3.920034E-10
       141  19  2.132033E+05  3.043733E+03  2.399757E+03 -1.876246E+04 -2.077468E+03  3.991786E+02
       141  20  2.445037E+05  1.069810E+04  8.716663E+03 -1.132447E+04 -2.635817E+03  2.030722E+03
       141  21  2.757209E+05  1.830342E+04  1.465792E+04 -1.879066E+04 -3.194296E+03  3.661763E+03
       141  22  2.008793E+05  4.596687E+00 -4.747668E+02 -1.872478E+04 -7.847248E+02  3.991095E+02
       141  23  2.009211E+05  1.457995E+01 -1.129228E+03 -1.127265E+04 -1.343401E+03  2.030692E+03
       141  24  2.008786E+05 -2.449712E+01 -2.159572E+03 -1.872479E+04 -1.902180E+03  3.661768E+03
       141  25  1.885554E+05 -3.034550E+03 -3.349295E+03 -1.868710E+04  5.079927E+02  3.990406E+02
       141  26  1.573402E+05 -1.066907E+04 -1.097524E+04 -1.122085E+04 -5.107472E+01  2.030662E+03
       141  27  1.260416E+05 -1.835279E+04 -1.897741E+04 -1.865892E+04 -6.102173E+02  3.661773E+03
       142   1  3.035482E+05  2.524983E+04  2.041743E+04 -1.891119E+04  3.654822E+03 -4.613832E+03
       142   2  3.350917E+05  3.293844E+04  2.519245E+04 -1.136128E+04  6.170988E+03 -6.243136E+03
       142   3  3.661413E+05  3.991279E+04  2.815374E+04 -1.873290E+04  8.687547E+03 -7.854243E+03
       142   4  2.007857E+05  4.236075E+01 -2.886882E+03 -1.872868E+04  2.356346E+03 -4.613885E+03
       142   5  2.010333E+05  7.793775E+01 -5.092735E+03 -1.126781E+04  4.886414E+03 -6.243304E+03
       142   6  2.007838E+05 -6.031338E+02 -9.122150E+03 -1.872866E+04  7.416749E+03 -7.854521E+03
       142   7  9.803304E+04 -2.516583E+04 -2.619187E+04 -1.854621E+04  1.058083E+03 -4.613937E+03
       142   8  6.699152E+04 -3.278380E+04 -3.537906E+04 -1.117436E+04  3.602113E+03 -6.243472E+03
       142   9  3.545171E+04 -4.112093E+04 -4.639978E+04 -1.872443E+04  6.146285E+03 -7.854800E+03
       142  10  3.035482E+05  2.524980E+04  2.041736E+04 -1.891117E+04 -1.383481E-09 -2.882506E-10
       142  11  3.350917E+05  3.293839E+04  2.519230E+04 -1.136125E+04 -2.298174E-09 -1.820803E-10
       142  12  3.661412E+05  3.991270E+04  2.815348E+04 -1.873284E+04  5.094498E-10 -9.510918E-10
       142  13  2.007857E+05  4.233640E+01 -2.886932E+03 -1.872867E+04 -2.149899E-09 -2.534234E-10
       142  14  2.010332E+05  7.788948E+01 -5.092854E+03 -1.126778E+04  1.535336E-09 -1.787388E-10
       142  15  2.007837E+05 -6.032148E+02 -9.122370E+03 -1.872861E+04  1.974445E-09 -6.134446E-10
       142  16  9.803303E+04 -2.516585E+04 -2.619191E+04 -1.854620E+04 -1.944461E-10 -2.584994E-10
       142  17  6.699150E+04 -3.278384E+04 -3.537916E+04 -1.117434E+04  1.103337E-10 -1.830663E-10
       142  18  3.545165E+04 -4.112100E+04 -4.639997E+04 -1.872439E+04 -8.604881E-10 -1.950460E-10
       142  19  3.035482E+05  2.524983E+04  2.041743E+04 -1.891119E+04 -3.654822E+03  4.613832E+03
       142  20  3.350917E+05  3.293844E+04  2.519245E+04 -1.136128E+04 -6.170988E+03  6.243136E+03
       142  21  3.661413E+05  3.991279E+04  2.815374E+04 -1.873290E+04 -8.687547E+03  7.854243E+03
       142  22  2.007857E+05  4.236075E+01 -2.886882E+03 -1.872868E+04 -2.356346E+03  4.613885E+03
       142  23  2.010333E+05  7.793775E+01 -5.092735E+03 -1.126781E+04 -4.886414E+03  6.243304E+03
       142  24  2.007838E+05 -6.031338E+02 -9.122150E+03 -1.872866E+04 -7.416749E+03  7.854521E+03
       142  25  9.803304E+04 -2.516583E+04 -2.619187E+04 -1.854621E+04 -1.058083E+03  4.613937E+03
       142  26  6.699152E+04 -3.278380E+04 -3.537906E+04 -1.117436E+04 -3.602113E+03  6.243472E+03
       142  27  3.545171E+04 -4.112093E+04 -4.639978E+04 -1.872443E+04 -6.146285E+03  7.854800E+03
       143   1  3.933609E+05  4.795527E+04  3.188485E+04 -2.043909E+04  1.066180E+04 -8.849570E+03
       143   2  4.266599E+05  5.566934E+04  3.029956E+04 -1.040093E+04  2.066985E+04 -1.040318E+04
       143   3  4.561134E+05  5.306716E+04  1.963101E+04 -1.529684E+04  3.067880E+04 -1.154388E+04
       143   4  2.000240E+05  5.508902E+02 -1.186929E+04 -1.873228E+04  9.263747E+03 -8.849934E+03
       143   5  2.019757E+05  5.914168E+02 -2.048530E+04 -1.126368E+04  1.959551E+04 -1.040372E+04
       143   6  2.000224E+05 -9.742886E+03 -3.841194E+04 -1.872965E+04  2.992768E+04 -1.154462E+04
       143   7  6.721757E+03 -4.685605E+04 -5.562583E+04 -1.702601E+04  7.866123E+03 -8.850306E+03
       143   8 -2.266165E+04 -5.448997E+04 -7.127339E+04 -1.212611E+04  1.852155E+04 -1.040426E+04
       143   9 -5.600771E+04 -7.255740E+04 -9.645912E+04 -2.216103E+04  2.917686E+04 -1.154535E+04
       143  10  3.933607E+05  4.795516E+04  3.188449E+04 -2.043901E+04 -2.009233E-09 -8.178622E-10
       143  11  4.266595E+05  5.566911E+04  3.029855E+04 -1.040076E+04  1.245509E-10  3.246674E-10
       143  12  4.561124E+05  5.306676E+04  1.962899E+04 -1.529655E+04  1.364431E-09 -3.604751E-10
       143  13  2.000238E+05  5.507831E+02 -1.186960E+04 -1.873222E+04 -1.085390E-09 -4.321674E-10
       143  14  2.019753E+05  5.911976E+02 -2.048622E+04 -1.126351E+04 -1.116693E-09  3.165712E-10
       143  15  2.000214E+05 -9.743269E+03 -3.841388E+04 -1.872937E+04 -1.718739E-09 -2.072504E-10
       143  16  6.721669E+03 -4.685615E+04 -5.562610E+04 -1.702596E+04  1.006941E-09 -1.351830E-11
       143  17 -2.266205E+04 -5.449018E+04 -7.127424E+04 -1.212595E+04 -2.726136E-10  1.010037E-09
       143  18 -5.600866E+04 -7.255777E+04 -9.646097E+04 -2.216076E+04 -1.665228E-10  2.147364E-10
       143  19  3.933609E+05  4.795527E+04  3.188485E+04 -2.043909E+04 -1.066180E+04  8.849570E+03
       143  20  4.266599E+05  5.566934E+04  3.029956E+04 -1.040093E+04 -2.066985E+04  1.040318E+04
       143  21  4.561134E+05  5.306716E+04  1.963101E+04 -1.529684E+04 -3.067880E+04  1.154388E+04
       143  22  2.000240E+05  5.508902E+02 -1.186929E+04 -1.873228E+04 -9.263747E+03  8.849934E+03
       143  23  2.019757E+05  5.914168E+02 -2.048530E+04 -1.126368E+04 -1.959551E+04  1.040372E+04
       143  24  2.000224E+05 -9.742886E+03 -3.841194E+04 -1.872965E+04 -2.992768E+04  1.154462E+04
       143  25  6.721757E+03 -4.685605E+04 -5.562583E+04 -1.702601E+04 -7.866123E+03  8.850306E+03
       143  26 -2.266165E+04 -5.448997E+04 -7.127339E+04 -1.212611E+04 -1.852155E+04  1.040426E+04
       143  27 -5.600771E+04 -7.255740E+04 -9.645912E+04 -2.216103E+04 -2.917686E+04  1.154535E+04
       144   1  4.755941E+05  7.747586E+04  1.617179E+04 -4.019857E+04  4.038285E+04 -1.345205E+04
       144   2  5.281757E+05  8.380733E+04 -8.414924E+03  9.927163E+03  7.608153E+04 -1.333086E+04
       144   3  5.386870E+05 -5.989656E+04 -9.371588E+04  4.547996E+04  1.117774E+05 -4.236582E+03
       144   4  1.912557E+05  7.827340E+03 -4.793989E+04 -1.867342E+04  3.689859E+04 -1.345239E+04
       144   5  2.129264E+05  6.380377E+03 -8.030644E+04 -1.134477E+04  7.968616E+04 -1.333212E+04
       144   6  1.912692E+05 -1.463804E+05 -1.783305E+05 -1.858966E+04  1.224685E+05 -4.241641E+03
       144   7 -9.300652E+04 -6.182497E+04 -1.120564E+05  2.841776E+03  3.341591E+04 -1.345297E+04
       144   8 -1.022299E+05 -7.105176E+04 -1.522042E+05 -3.260583E+04  8.328896E+04 -1.333362E+04
       144   9 -1.560296E+05 -2.328576E+05 -2.629513E+05 -8.262337E+04  1.331535E+05 -4.248910E+03
       144  10  4.755923E+05  7.747523E+04  1.616839E+04 -4.019813E+04 -6.720506E-10 -1.125401E-09
       144  11  5.281694E+05  8.380558E+04 -8.426127E+03  9.927980E+03 -1.171874E-09 -1.827796E-09
       144  12  5.386736E+05 -5.989993E+04 -9.373937E+04  4.548034E+04 -8.157535E-10 -5.871790E-10
       144  13  1.912542E+05  7.826781E+03 -4.794279E+04 -1.867302E+04 -2.670606E-10 -2.169539E-09
       144  14  2.129195E+05  6.378482E+03 -8.031871E+04 -1.134392E+04 -1.439927E-09  5.163806E-10
       144  15  1.912531E+05 -1.463844E+05 -1.783587E+05 -1.858924E+04 -1.603795E-09 -2.040178E-10
       144  16 -9.300777E+04 -6.182546E+04 -1.120589E+05  2.842138E+03  1.805698E-10 -5.876891E-10
       144  17 -1.022374E+05 -7.105382E+04 -1.522175E+05 -3.260493E+04  2.257715E-09  2.100997E-10
       144  18 -1.560486E+05 -2.328624E+05 -2.629847E+05 -8.262292E+04  1.027479E-09 -7.102782E-10
       144  19  4.755941E+05  7.747586E+04  1.617179E+04 -4.019857E+04 -4.038285E+04  1.345205E+04
       144  20  5.281757E+05  8.380733E+04 -8.414924E+03  9.927163E+03 -7.608153E+04  1.333086E+04
       144  21  5.386870E+05 -5.989656E+04 -9.371588E+04  4.547996E+04 -1.117774E+05  4.236582E+03
       144  22  1.912557E+05  7.827340E+03 -4.793989E+04 -1.867342E+04 -3.689859E+04  1.345239E+04
       144  23  2.129264E+05  6.380377E+03 -8.030644E+04 -1.134477E+04 -7.968616E+04  1.333212E+04
       144  24  1.912692E+05 -1.463804E+05 -1.783305E+05 -1.858966E+04 -1.224685E+05  4.241641E+03
       144  25 -9.300652E+04 -6.182497E+04 -1.120564E+05  2.841776E+03 -3.341591E+04  1.345297E+04
       144  26 -1.022299E+05 -7.105176E+04 -1.522042E+05 -3.260583E+04 -8.328896E+04  1.333362E+04
       144  27 -1.560296E+05 -2.328576E+05 -2.629513E+05 -8.262337E+04 -1.331535E+05  4.248910E+03
       145   1  3.615028E+05  1.280584E+06  3.574358E+05 -2.011487E+05  1.551352E+04  4.885551E+04
       145   2  2.632132E+05  9.497943E+05  2.517749E+05 -1.205858E+05  4.434592E+04  1.509307E+04
       145   3  1.837343E+05  6.282441E+05  1.727829E+05 -1.937349E+05  3.491856E+04 -1.869746E+04
       145   4  1.274114E+04 -1.218227E+05  1.510821E+04 -1.944856E+05  1.556083E+04  1.083295E+04
       145   5 -4.502263E+02 -1.236742E+05  6.421367E+03 -1.176309E+05  4.436299E+04  7.434259E+03
       145   6 -7.130804E+01 -1.216306E+05  3.360238E+03 -1.945025E+05  3.487631E+04  3.989790E+03
       145   7 -3.361648E+05 -1.522436E+06 -3.273572E+05 -1.878367E+05  1.560739E+04 -2.710408E+04
       145   8 -2.641936E+05 -1.196076E+06 -2.390074E+05 -1.146807E+05  4.438001E+04 -2.114502E+02
       145   9 -1.839153E+05 -8.709819E+05 -1.660966E+05 -1.952688E+05  3.483396E+04  2.664992E+04
       145  10  3.615019E+05  1.280582E+06  3.574309E+05 -2.011493E+05  6.169936E-10  6.911687E-10
       145  11  2.632110E+05  9.497935E+05  2.517708E+05 -1.205863E+05  2.789645E-10 -1.597983E-09
       145  12  1.837329E+05  6.282434E+05  1.727800E+05 -1.937343E+05  2.129177E-10  7.408673E-10
       145  13  1.274085E+04 -1.218229E+05  1.510753E+04 -1.944857E+05  1.071701E-09 -5.768279E-12
       145  14 -4.523545E+02 -1.236748E+05  6.417565E+03 -1.176312E+05  1.292857E-09 -6.392851E-10
       145  15 -7.261846E+01 -1.216309E+05  3.357923E+03 -1.945026E+05  1.147377E-09 -2.914482E-09
       145  16 -3.361653E+05 -1.522436E+06 -3.273591E+05 -1.878364E+05  4.678556E-10 -5.489317E-10
       145  17 -2.641957E+05 -1.196076E+06 -2.390111E+05 -1.146807E+05  9.433741E-10  3.473083E-09
       145  18 -1.839168E+05 -8.709830E+05 -1.661002E+05 -1.952696E+05  9.915595E-10  1.849143E-09
       145  19  3.615028E+05  1.280584E+06  3.574358E+05 -2.011487E+05 -1.551352E+04 -4.885551E+04
       145  20  2.632132E+05  9.497943E+05  2.517749E+05 -1.205858E+05 -4.434592E+04 -1.509307E+04
       145  21  1.837343E+05  6.282441E+05  1.727829E+05 -1.937349E+05 -3.491856E+04  1.869746E+04
       145  22  1.274114E+04 -1.218227E+05  1.510821E+04 -1.944856E+05 -1.556083E+04 -1.083295E+04
       145  23 -4.502263E+02 -1.236742E+05  6.421367E+03 -1.176309E+05 -4.436299E+04 -7.434259E+03
       145  24 -7.130804E+01 -1.216306E+05  3.360238E+03 -1.945025E+05 -3.487631E+04 -3.989790E+03
       145  25 -3.361648E+05 -1.522436E+06 -3.273572E+05 -1.878367E+05 -1.560739E+04  2.710408E+04
       145  26 -2.641936E+05 -1.196076E+06 -2.390074E+05 -1.146807E+05 -4.438001E+04  2.114502E+02
       145  27 -1.839153E+05 -8.709819E+05 -1.660966E+05 -1.952688E+05 -3.483396E+04 -2.664992E+04
       146   1  1.139571E+05  3.355901E+05  1.060767E+05 -1.956284E+05  2.075056E+04 -7.946020E+03
       146   2  3.291930E+04  1.003371E+04  2.982812E+04 -1.175609E+05  6.137706E+03 -8.166460E+03
       146   3 -4.761740E+04 -3.159718E+05 -4.632573E+04 -1.947054E+05 -8.778558E+03 -8.390346E+03
       146   4  1.575730E+03 -1.225435E+05  2.249765E+03 -1.948266E+05  2.072722E+04  3.509418E+03
       146   5  4.796162E+02 -1.222374E+05 -8.601700E+01 -1.172216E+05  6.112999E+03  3.527182E+03
       146   6 -1.495782E+02 -1.225198E+05 -2.486669E+03 -1.948303E+05 -8.805020E+03  3.541397E+03
       146   7 -1.108200E+05 -5.804819E+05 -1.015902E+05 -1.940253E+05  2.070389E+04  1.495648E+04
       146   8 -3.196120E+04 -2.544919E+05 -3.000076E+04 -1.168823E+05  6.088303E+03  1.521836E+04
       146   9  4.731574E+04  7.096716E+04  4.135051E+04 -1.949552E+05 -8.831483E+03  1.547682E+04
       146  10  1.139566E+05  3.355899E+05  1.060758E+05 -1.956282E+05  1.623658E-09  8.628183E-10
       146  11  3.291924E+04  1.003363E+04  2.982792E+04 -1.175609E+05  1.644295E-09 -1.998020E-09
       146  12 -4.761751E+04 -3.159719E+05 -4.632601E+04 -1.947055E+05 -4.892677E-10  8.399699E-10
       146  13  1.575265E+03 -1.225436E+05  2.248935E+03 -1.948267E+05 -1.070945E-09  7.958689E-14
       146  14  4.795727E+02 -1.222374E+05 -8.611062E+01 -1.172216E+05  2.944707E-10 -1.023300E-09
       146  15 -1.496648E+02 -1.225199E+05 -2.486838E+03 -1.948303E+05 -5.373220E-10 -3.341367E-09
       146  16 -1.108206E+05 -5.804823E+05 -1.015915E+05 -1.940256E+05 -6.722508E-10 -8.784089E-10
       146  17 -3.196130E+04 -2.544922E+05 -3.000127E+04 -1.168823E+05 -9.663170E-10  4.604680E-09
       146  18  4.731560E+04  7.096689E+04  4.134992E+04 -1.949551E+05 -5.611205E-10  2.195866E-09
       146  19  1.139571E+05  3.355901E+05  1.060767E+05 -1.956284E+05 -2.075056E+04  7.946020E+03
       146  20  3.291930E+04  1.003371E+04  2.982812E+04 -1.175609E+05 -6.137706E+03  8.166460E+03
       146  21 -4.761740E+04 -3.159718E+05 -4.632573E+04 -1.947054E+05  8.778558E+03  8.390346E+03
       146  22  1.575730E+03 -1.225435E+05  2.249765E+03 -1.948266E+05 -2.072722E+04 -3.509418E+03
       146  23  4.796162E+02 -1.222374E+05 -8.601700E+01 -1.172216E+05 -6.112999E+03 -3.527182E+03
       146  24 -1.495782E+02 -1.225198E+05 -2.486669E+03 -1.948303E+05  8.805020E+03 -3.541397E+03
       146  25 -1.108200E+05 -5.804819E+05 -1.015902E+05 -1.940253E+05 -2.070389E+04 -1.495648E+04
       146  26 -3.196120E+04 -2.544919E+05 -3.000076E+04 -1.168823E+05 -6.088303E+03 -1.521836E+04
       146  27  4.731574E+04  7.096716E+04  4.135051E+04 -1.949552E+05  8.831483E+03 -1.547682E+04
       147   1 -1.174567E+05 -6.081686E+05 -1.133689E+05 -1.918249E+05 -2.224491E+04 -1.708267E+04
       147   2 -1.979854E+05 -9.298293E+05 -1.922188E+05 -1.184305E+05 -3.305279E+04  1.175161E+04
       147   3 -2.959434E+05 -1.259785E+06 -2.942986E+05 -1.990834E+05 -1.212367E+04  4.061882E+04
       147   4  1.519554E+03 -1.233301E+05 -3.594100E+03 -1.945610E+05 -2.228907E+04  3.980607E+03
       147   5  8.377640E+02 -1.213909E+05 -7.015550E+03 -1.175539E+05 -3.304253E+04  7.712353E+03
       147   6 -1.289355E+04 -1.234766E+05 -1.620998E+04 -1.945838E+05 -1.207709E+04  1.149274E+04
       147   7  1.204799E+05  3.617280E+05  1.061672E+05 -1.972991E+05 -2.233339E+04  2.506019E+04
       147   8  1.996154E+05  6.876537E+05  1.781448E+05 -1.166758E+05 -3.303229E+04  3.667866E+03
       147   9  2.700613E+05  1.014012E+06  2.617874E+05 -1.900754E+05 -1.203098E+04 -1.768664E+04
       147  10 -1.174573E+05 -6.081691E+05 -1.133704E+05 -1.918252E+05 -8.402179E-10  8.466421E-11
       147  11 -1.979866E+05 -9.298298E+05 -1.922211E+05 -1.184301E+05 -1.667172E-09 -1.710240E-09
       147  12 -2.959441E+05 -1.259787E+06 -2.943020E+05 -1.990830E+05  2.158323E-10  1.448333E-09
       147  13  1.519017E+03 -1.233302E+05 -3.595063E+03 -1.945609E+05  8.849541E-10  6.869011E-12
       147  14  8.365757E+02 -1.213912E+05 -7.017713E+03 -1.175537E+05  1.229623E-09 -8.797462E-10
       147  15 -1.289374E+04 -1.234768E+05 -1.621050E+04 -1.945837E+05 -1.072026E-09 -2.149707E-09
       147  16  1.204792E+05  3.617272E+05  1.061651E+05 -1.972987E+05 -3.136097E-10 -6.178013E-11
       147  17  1.996142E+05  6.876534E+05  1.781427E+05 -1.166757E+05  1.748439E-09  3.874134E-09
       147  18  2.700610E+05  1.014012E+06  2.617865E+05 -1.900755E+05  3.214990E-10  4.694523E-10
       147  19 -1.174567E+05 -6.081686E+05 -1.133689E+05 -1.918249E+05  2.224491E+04  1.708267E+04
       147  20 -1.979854E+05 -9.298293E+05 -1.922188E+05 -1.184305E+05  3.305279E+04 -1.175161E+04
       147  21 -2.959434E+05 -1.259785E+06 -2.942986E+05 -1.990834E+05  1.212367E+04 -4.061882E+04
       147  22  1.519554E+03 -1.233301E+05 -3.594100E+03 -1.945610E+05  2.228907E+04 -3.980607E+03
       147  23  8.377640E+02 -1.213909E+05 -7.015550E+03 -1.175539E+05  3.304253E+04 -7.712353E+03
       147  24 -1.289355E+04 -1.234766E+05 -1.620998E+04 -1.945838E+05  1.207709E+04 -1.149274E+04
       147  25  1.204799E+05  3.617280E+05  1.061672E+05 -1.972991E+05  2.233339E+04 -2.506019E+04
       147  26  1.996154E+05  6.876537E+05  1.781448E+05 -1.166758E+05  3.303229E+04 -3.667866E+03
       147  27  2.700613E+05  1.014012E+06  2.617874E+05 -1.900754E+05  1.203098E+04  1.768664E+04
       148   1 -8.665097E+05 -3.093104E+05 -1.819443E+05 -3.181060E+05 -6.681538E+04 -1.977009E+04
       148   2 -8.254613E+05 -2.050577E+05 -1.161543E+05 -3.040952E+05 -4.316360E+04 -4.562006E+01
       148   3 -7.987931E+05 -1.858444E+05 -8.967836E+04 -2.900237E+05 -1.569342E+04  9.523941E+03
       148   4 -5.257460E+05 -1.544960E+05 -8.522360E+04 -1.980731E+05 -5.603825E+04 -1.572492E+04
       148   5 -5.147303E+05 -8.038346E+04 -3.650048E+04 -2.102451E+05 -3.989828E+04  1.179345E+03
       148   6 -5.165925E+05 -8.980124E+04 -2.111980E+04 -2.223613E+05 -1.994278E+04  7.928530E+03
       148   7 -1.848663E+05  3.422156E+02  1.148700E+04 -7.797481E+04 -4.525457E+04 -1.167614E+04
       148   8 -2.039035E+05  4.430153E+04  4.314563E+04 -1.163508E+05 -3.663116E+04  2.405098E+03
       148   9 -2.343137E+05  6.244041E+03  4.743300E+04 -1.546724E+05 -2.419427E+04  6.332487E+03
       148  10 -8.665146E+05 -3.093121E+05 -1.819534E+05 -3.181070E+05  2.873777E-10  2.310536E-10
       148  11 -8.254633E+05 -2.050582E+05 -1.161578E+05 -3.040952E+05 -2.595553E-10  6.035010E-11
       148  12 -7.987934E+05 -1.858446E+05 -8.967899E+04 -2.900236E+05  1.295081E-10 -4.991955E-10
       148  13 -5.257495E+05 -1.544971E+05 -8.522997E+04 -1.980738E+05  1.058808E-09  6.398596E-11
       148  14 -5.147320E+05 -8.038389E+04 -3.650347E+04 -2.102451E+05 -1.036490E-09 -7.996775E-11
       148  15 -5.165929E+05 -8.980141E+04 -2.112066E+04 -2.223611E+05 -1.685682E-09 -5.495565E-10
       148  16 -1.848686E+05  3.415191E+02  1.148289E+04 -7.797523E+04 -9.774786E-10  1.814207E-10
       148  17 -2.039050E+05  4.430116E+04  4.314310E+04 -1.163507E+05 -5.779931E-10 -5.305487E-10
       148  18 -2.343143E+05  6.243841E+03  4.743182E+04 -1.546723E+05 -1.744355E-09  3.998340E-10
       148  19 -8.665097E+05 -3.093104E+05 -1.819443E+05 -3.181060E+05  6.681538E+04  1.977009E+04
       148  20 -8.254613E+05 -2.050577E+05 -1.161543E+05 -3.040952E+05  4.316360E+04  4.562006E+01
       148  21 -7.987931E+05 -1.858444E+05 -8.967836E+04 -2.900237E+05  1.569342E+04 -9.523941E+03
       148  22 -5.257460E+05 -1.544960E+05 -8.522360E+04 -1.980731E+05  5.603825E+04  1.572492E+04
       148  23 -5.147303E+05 -8.038346E+04 -3.650048E+04 -2.102451E+05  3.989828E+04 -1.179345E+03
       148  24 -5.165925E+05 -8.980124E+04 -2.111980E+04 -2.223613E+05  1.994278E+04 -7.928530E+03
       148  25 -1.848663E+05  3.422156E+02  1.148700E+04 -7.797481E+04  4.525457E+04  1.167614E+04
       148  26 -2.039035E+05  4.430153E+04  4.314563E+04 -1.163508E+05  3.663116E+04 -2.405098E+03
       148  27 -2.343137E+05  6.244041E+03  4.743300E+04 -1.546724E+05  2.419427E+04 -6.332487E+03
       149   1 -7.482672E+05 -1.862824E+05 -7.584661E+04 -2.839218E+05 -1.509956E+04  6.880065E+03
       149   2 -7.129298E+05 -1.567934E+05 -5.672896E+04 -2.638021E+05 -9.716861E+03  6.903912E+03
       149   3 -6.644242E+05 -1.481540E+05 -4.252048E+04 -2.604720E+05 -4.147882E+03  6.430274E+03
       149   4 -5.137867E+05 -9.712726E+04 -1.689020E+04 -2.181160E+05 -1.621464E+04  6.461181E+03
       149   5 -5.200727E+05 -8.439067E+04 -8.531722E+03 -2.106008E+05 -1.119884E+04  6.347614E+03
       149   6 -5.131187E+05 -9.242987E+04 -4.789910E+03 -2.198757E+05 -5.997113E+03  5.736497E+03
       149   7 -2.792532E+05 -7.968311E+03  4.206156E+04 -1.522877E+05 -1.733017E+04  6.042119E+03
       149   8 -3.271792E+05 -1.198539E+04  3.966261E+04 -1.573844E+05 -1.268132E+04  5.791124E+03
       149   9 -3.617902E+05 -3.670411E+04  3.293906E+04 -1.792704E+05 -7.846844E+03  5.042539E+03
       149  10 -7.482675E+05 -1.862826E+05 -7.584713E+04 -2.839217E+05 -1.489183E-09 -4.447089E-10
       149  11 -7.129299E+05 -1.567935E+05 -5.672923E+04 -2.638021E+05 -3.370742E-09 -7.863166E-10
       149  12 -6.644242E+05 -1.481541E+05 -4.252059E+04 -2.604720E+05 -2.449657E-09  9.274300E-11
       149  13 -5.137870E+05 -9.712738E+04 -1.689078E+04 -2.181159E+05 -4.131150E-09 -5.303993E-10
       149  14 -5.200729E+05 -8.439075E+04 -8.532033E+03 -2.106007E+05 -3.936074E-09 -1.368274E-09
       149  15 -5.131188E+05 -9.242991E+04 -4.790040E+03 -2.198757E+05 -1.837508E-09 -8.257916E-11
       149  16 -2.792535E+05 -7.968431E+03  4.206093E+04 -1.522876E+05 -3.665773E-09 -3.469970E-10
       149  17 -3.271794E+05 -1.198547E+04  3.966224E+04 -1.573843E+05 -2.431050E-09 -7.948523E-10
       149  18 -3.617903E+05 -3.670415E+04  3.293890E+04 -1.792704E+05 -1.112948E-10 -2.926410E-10
       149  19 -7.482672E+05 -1.862824E+05 -7.584661E+04 -2.839218E+05  1.509956E+04 -6.880065E+03
       149  20 -7.129298E+05 -1.567934E+05 -5.672896E+04 -2.638021E+05  9.716861E+03 -6.903912E+03
       149  21 -6.644242E+05 -1.481540E+05 -4.252048E+04 -2.604720E+05  4.147882E+03 -6.430274E+03
       149  22 -5.137867E+05 -9.712726E+04 -1.689020E+04 -2.181160E+05  1.621464E+04 -6.461181E+03
       149  23 -5.200727E+05 -8.439067E+04 -8.531722E+03 -2.106008E+05  1.119884E+04 -6.347614E+03
       149  24 -5.131187E+05 -9.242987E+04 -4.789910E+03 -2.198757E+05  5.997113E+03 -5.736497E+03
       149  25 -2.792532E+05 -7.968311E+03  4.206156E+04 -1.522877E+05  1.733017E+04 -6.042119E+03
       149  26 -3.271792E+05 -1.198539E+04  3.966261E+04 -1.573844E+05  1.268132E+04 -5.791124E+03
       149  27 -3.617902E+05 -3.670411E+04  3.293906E+04 -1.792704E+05  7.846844E+03 -5.042539E+03
       150   1 -6.236562E+05 -1.343208E+05 -3.118210E+04 -2.499248E+05 -3.090214E+03  5.214843E+03
       150   2 -5.887857E+05 -1.101609E+05 -1.902663E+04 -2.292729E+05 -1.195028E+03  3.295446E+03
       150   3 -5.384331E+05 -1.021472E+05 -7.739742E+03 -2.266122E+05  7.095452E+02  1.350296E+03
       150   4 -5.128360E+05 -9.295321E+04 -3.680224E+03 -2.195588E+05 -4.789464E+03  4.577447E+03
       150   5 -5.205539E+05 -8.471740E+04 -2.015774E+03 -2.106244E+05 -2.913188E+03  2.651058E+03
       150   6 -5.127877E+05 -9.262376E+04 -1.204588E+03 -2.196815E+05 -1.027608E+03  6.988981E+02
       150   7 -4.020037E+05 -5.158482E+04  2.382070E+04 -1.891880E+05 -6.489044E+03  3.939927E+03
       150   8 -4.523177E+05 -5.927363E+04  1.499469E+04 -1.919740E+05 -4.631550E+03  2.006594E+03
       150   9 -4.871417E+05 -8.310033E+04  5.330495E+03 -2.127506E+05 -2.764833E+03  4.747443E+01
       150  10 -6.236562E+05 -1.343208E+05 -3.118217E+04 -2.499248E+05 -7.833271E-10  7.737183E-10
       150  11 -5.887857E+05 -1.101609E+05 -1.902666E+04 -2.292729E+05  2.506162E-11 -5.261203E-10
       150  12 -5.384331E+05 -1.021472E+05 -7.739747E+03 -2.266122E+05 -6.144570E-10 -3.308754E-10
       150  13 -5.128360E+05 -9.295324E+04 -3.680307E+03 -2.195588E+05 -9.360451E-10  1.481416E-10
       150  14 -5.205539E+05 -8.471741E+04 -2.015804E+03 -2.106244E+05  2.157108E-09 -4.255522E-10
       150  15 -5.127877E+05 -9.262376E+04 -1.204591E+03 -2.196815E+05  1.031328E-09  1.143605E-10
       150  16 -4.020038E+05 -5.158485E+04  2.382059E+04 -1.891879E+05 -4.242948E-10 -5.316671E-10
       150  17 -4.523177E+05 -5.927364E+04  1.499464E+04 -1.919740E+05 -8.986417E-10 -1.631181E-10
       150  18 -4.871417E+05 -8.310033E+04  5.330480E+03 -2.127506E+05  3.222437E-10  2.368011E-10
       150  19 -6.236562E+05 -1.343208E+05 -3.118210E+04 -2.499248E+05  3.090214E+03 -5.214843E+03
       150  20 -5.887857E+05 -1.101609E+05 -1.902663E+04 -2.292729E+05  1.195028E+03 -3.295446E+03
       150  21 -5.384331E+05 -1.021472E+05 -7.739742E+03 -2.266122E+05 -7.095452E+02 -1.350296E+03
       150  22 -5.128360E+05 -9.295321E+04 -3.680224E+03 -2.195588E+05  4.789464E+03 -4.577447E+03
       150  23 -5.205539E+05 -8.471740E+04 -2.015774E+03 -2.106244E+05  2.913188E+03 -2.651058E+03
       150  24 -5.127877E+05 -9.262376E+04 -1.204588E+03 -2.196815E+05  1.027608E+03 -6.988981E+02
       150  25 -4.020037E+05 -5.158482E+04  2.382070E+04 -1.891880E+05  6.489044E+03 -3.939927E+03
       150  26 -4.523177E+05 -5.927363E+04  1.499469E+04 -1.919740E+05  4.631550E+03 -2.006594E+03
       150  27 -4.871417E+05 -8.310033E+04  5.330495E+03 -2.127506E+05  2.764833E+03 -4.747443E+01
       151   1 -4.983623E+05 -8.724942E+04  2.761747E+03 -2.157180E+05  1.393320E+03  5.251553E+01
       151   2 -4.635650E+05 -6.346719E+04  1.346590E+04 -1.950225E+05  2.644823E+03 -2.140618E+03
       151   3 -4.130706E+05 -5.548106E+04  2.388120E+04 -1.923830E+05  3.896442E+03 -4.333315E+03
       151   4 -5.127561E+05 -9.265611E+04 -9.826555E+02 -2.196551E+05 -3.365842E+02 -5.961595E+02
       151   5 -5.206033E+05 -8.475170E+04 -7.548724E+02 -2.106291E+05  9.151162E+02 -2.789314E+03
       151   6 -5.127562E+05 -9.264417E+04 -8.163228E+02 -2.196603E+05  2.166894E+03 -4.982024E+03
       151   7 -5.271499E+05 -9.806282E+04 -4.727091E+03 -2.235921E+05 -2.066456E+03 -1.244823E+03
       151   8 -5.776383E+05 -1.060359E+05 -1.497584E+04 -2.262344E+05 -8.144119E+02 -3.437943E+03
       151   9 -6.124309E+05 -1.298062E+05 -2.551427E+04 -2.469334E+05  4.376714E+02 -5.630611E+03
       151  10 -4.983623E+05 -8.724942E+04  2.761744E+03 -2.157180E+05  1.770230E-09  3.233622E-10
       151  11 -4.635650E+05 -6.346720E+04  1.346588E+04 -1.950225E+05  1.075245E-09 -6.591966E-11
       151  12 -4.130706E+05 -5.548108E+04  2.388114E+04 -1.923830E+05 -2.123384E-09  1.377237E-10
       151  13 -5.127561E+05 -9.265611E+04 -9.826564E+02 -2.196551E+05  9.458100E-10  4.121713E-10
       151  14 -5.206033E+05 -8.475171E+04 -7.548886E+02 -2.106291E+05 -2.981494E-09  4.120199E-10
       151  15 -5.127562E+05 -9.264420E+04 -8.163783E+02 -2.196603E+05  4.373948E-10 -6.047358E-11
       151  16 -5.271499E+05 -9.806282E+04 -4.727102E+03 -2.235921E+05 -8.787848E-10  3.551738E-10
       151  17 -5.776383E+05 -1.060360E+05 -1.497587E+04 -2.262344E+05  1.187277E-09  6.516646E-10
       151  18 -6.124309E+05 -1.298062E+05 -2.551433E+04 -2.469334E+05  1.373561E-09 -2.321416E-10
       151  19 -4.983623E+05 -8.724942E+04  2.761747E+03 -2.157180E+05 -1.393320E+03 -5.251553E+01
       151  20 -4.635650E+05 -6.346719E+04  1.346590E+04 -1.950225E+05 -2.644823E+03  2.140618E+03
       151  21 -4.130706E+05 -5.548106E+04  2.388120E+04 -1.923830E+05 -3.896442E+03  4.333315E+03
       151  22 -5.127561E+05 -9.265611E+04 -9.826555E+02 -2.196551E+05  3.365842E+02  5.961595E+02
       151  23 -5.206033E+05 -8.475170E+04 -7.548724E+02 -2.106291E+05 -9.151162E+02  2.789314E+03
       151  24 -5.127562E+05 -9.264417E+04 -8.163228E+02 -2.196603E+05 -2.166894E+03  4.982024E+03
       151  25 -5.271499E+05 -9.806282E+04 -4.727091E+03 -2.235921E+05  2.066456E+03  1.244823E+03
       151  26 -5.776383E+05 -1.060359E+05 -1.497584E+04 -2.262344E+05  8.144119E+02  3.437943E+03
       151  27 -6.124309E+05 -1.298062E+05 -2.551427E+04 -2.469334E+05 -4.376714E+02  5.630611E+03
       152   1 -3.731522E+05 -4.052784E+04  3.401459E+04 -1.814844E+05  4.549935E+03 -5.636852E+03
       152   2 -3.384786E+05 -1.684102E+04  4.390552E+04 -1.608417E+05  6.160853E+03 -7.687681E+03
       152   3 -2.882089E+05 -8.950193E+03  5.322989E+04 -1.581803E+05  7.770020E+03 -9.731422E+03
       152   4 -5.127784E+05 -9.262865E+04 -9.453437E+02 -2.196504E+05  2.822154E+03 -6.285012E+03
       152   5 -5.205826E+05 -8.476851E+04 -1.488994E+03 -2.106457E+05  4.437930E+03 -8.334311E+03
       152   6 -5.127929E+05 -9.270567E+04 -2.602926E+03 -2.196231E+05  6.051902E+03 -1.037654E+04
       152   7 -6.523862E+05 -1.447285E+05 -3.590701E+04 -2.578089E+05  1.094788E+03 -6.933017E+03
       152   8 -7.026558E+05 -1.526945E+05 -4.688657E+04 -2.604369E+05  2.715543E+03 -8.980740E+03
       152   9 -7.373305E+05 -1.764590E+05 -5.844052E+04 -2.810467E+05  4.334440E+03 -1.102141E+04
       152  10 -3.731523E+05 -4.052788E+04  3.401449E+04 -1.814843E+05 -7.129477E-10  1.947052E-10
       152  11 -3.384786E+05 -1.684109E+04  4.390534E+04 -1.608417E+05 -8.047599E-11 -1.660246E-10
       152  12 -2.882090E+05 -8.950311E+03  5.322960E+04 -1.581802E+05  1.046782E-09  1.289210E-09
       152  13 -5.127784E+05 -9.262870E+04 -9.454329E+02 -2.196504E+05  1.010870E-09 -5.290315E-10
       152  14 -5.205826E+05 -8.476859E+04 -1.489162E+03 -2.106457E+05 -4.034857E-10 -3.900224E-10
       152  15 -5.127930E+05 -9.270579E+04 -2.603197E+03 -2.196231E+05  2.341798E-09  1.533271E-09
       152  16 -6.523862E+05 -1.447285E+05 -3.590710E+04 -2.578089E+05  8.485703E-10 -1.105854E-09
       152  17 -7.026559E+05 -1.526946E+05 -4.688674E+04 -2.604369E+05  1.042612E-09 -6.465072E-10
       152  18 -7.373305E+05 -1.764591E+05 -5.844078E+04 -2.810467E+05  4.469973E-09  1.974405E-09
       152  19 -3.731522E+05 -4.052784E+04  3.401459E+04 -1.814844E+05 -4.549935E+03  5.636852E+03
       152  20 -3.384786E+05 -1.684102E+04  4.390552E+04 -1.608417E+05 -6.160853E+03  7.687681E+03
       152  21 -2.882089E+05 -8.950193E+03  5.322989E+04 -1.581803E+05 -7.770020E+03  9.731422E+03
       152  22 -5.127784E+05 -9.262865E+04 -9.453437E+02 -2.196504E+05 -2.822154E+03  6.285012E+03
       152  23 -5.205826E+05 -8.476851E+04 -1.488994E+03 -2.106457E+05 -4.437930E+03  8.334311E+03
       152  24 -5.127929E+05 -9.270567E+04 -2.602926E+03 -2.196231E+05 -6.051902E+03  1.037654E+04
       152  25 -6.523862E+05 -1.447285E+05 -3.590701E+04 -2.578089E+05 -1.094788E+03  6.933017E+03
       152  26 -7.026558E+05 -1.526945E+05 -4.688657E+04 -2.604369E+05 -2.715543E+03  8.980740E+03
       152  27 -7.373305E+05 -1.764590E+05 -5.844052E+04 -2.810467E+05 -4.334440E+03  1.102141E+04
       153   1 -2.485357E+05  5.908600E+03  6.260670E+04 -1.475412E+05  8.781284E+03 -1.089568E+04
       153   2 -2.140187E+05  2.964188E+04  7.024080E+04 -1.268027E+05  1.269469E+04 -1.205516E+04
       153   3 -1.647011E+05  3.658409E+04  7.530305E+04 -1.237067E+05  1.659190E+04 -1.316748E+04
       153   4 -5.129288E+05 -9.258145E+04 -3.422387E+03 -2.196809E+05  7.055387E+03 -1.154395E+04
       153   5 -5.204024E+05 -8.470318E+04 -6.141707E+03 -2.106655E+05  1.100199E+04 -1.269142E+04
       153   6 -5.130837E+05 -9.362312E+04 -1.145991E+04 -2.192932E+05  1.493218E+04 -1.379181E+04
       153   7 -7.772500E+05 -1.910657E+05 -6.945603E+04 -2.917919E+05  5.330314E+03 -1.219192E+04
       153   8 -8.266919E+05 -1.990412E+05 -8.253094E+04 -2.944902E+05  9.310208E+03 -1.332734E+04
       153   9 -8.613465E+05 -2.238220E+05 -9.823217E+04 -3.148310E+05  1.327347E+04 -1.441575E+04
       153  10 -2.485358E+05  5.908452E+03  6.260633E+04 -1.475411E+05  4.847575E-09  2.572230E-09
       153  11 -2.140189E+05  2.964169E+04  7.024023E+04 -1.268026E+05  2.369253E-10 -1.161168E-09
       153  12 -1.647015E+05  3.658383E+04  7.530221E+04 -1.237065E+05 -2.507840E-09 -3.588294E-10
       153  13 -5.129289E+05 -9.258161E+04 -3.422731E+03 -2.196808E+05  2.547439E-09  1.696012E-09
       153  14 -5.204026E+05 -8.470338E+04 -6.142237E+03 -2.106654E+05  2.326809E-10  7.433281E-10
       153  15 -5.130840E+05 -9.362339E+04 -1.146069E+04 -2.192931E+05  1.167975E-09 -4.514668E-10
       153  16 -7.772501E+05 -1.910659E+05 -6.945636E+04 -2.917918E+05 -1.159175E-09  1.221274E-09
       153  17 -8.266920E+05 -1.990414E+05 -8.253144E+04 -2.944901E+05  2.736750E-10  9.526265E-10
       153  18 -8.613467E+05 -2.238222E+05 -9.823289E+04 -3.148308E+05  1.823121E-09  8.691473E-10
       153  19 -2.485357E+05  5.908600E+03  6.260670E+04 -1.475412E+05 -8.781284E+03  1.089568E+04
       153  20 -2.140187E+05  2.964188E+04  7.024080E+04 -1.268027E+05 -1.269469E+04  1.205516E+04
       153  21 -1.647011E+05  3.658409E+04  7.530305E+04 -1.237067E+05 -1.659190E+04  1.316748E+04
       153  22 -5.129288E+05 -9.258145E+04 -3.422387E+03 -2.196809E+05 -7.055387E+03  1.154395E+04
       153  23 -5.204024E+05 -8.470318E+04 -6.141707E+03 -2.106655E+05 -1.100199E+04  1.269142E+04
       153  24 -5.130837E+05 -9.362312E+04 -1.145991E+04 -2.192932E+05 -1.493218E+04  1.379181E+04
       153  25 -7.772500E+05 -1.910657E+05 -6.945603E+04 -2.917919E+05 -5.330314E+03  1.219192E+04
       153  26 -8.266919E+05 -1.990412E+05 -8.253094E+04 -2.944902E+05 -9.310208E+03  1.332734E+04
       153  27 -8.613465E+05 -2.238220E+05 -9.823217E+04 -3.148310E+05 -1.327347E+04  1.441575E+04
       154   1 -1.244566E+05  5.112325E+04  8.184038E+04 -1.160361E+05  1.948205E+04 -1.370875E+04
       154   2 -9.052611E+04  7.771310E+04  8.032432E+04 -9.177517E+04  3.338059E+04 -1.094103E+04
       154   3 -4.872752E+04  7.303844E+04  6.479647E+04 -8.141837E+04  4.697791E+04 -7.364872E+03
       154   4 -5.139665E+05 -9.198805E+04 -1.497632E+04 -2.202993E+05  1.758251E+04 -1.442348E+04
       154   5 -5.188892E+05 -8.366106E+04 -2.677704E+04 -2.105793E+05  3.207057E+04 -1.143493E+04
       154   6 -5.160681E+05 -1.067247E+05 -5.306483E+04 -2.147650E+05  4.625638E+04 -7.638190E+03
       154   7 -9.033295E+05 -2.350912E+05 -1.118053E+05 -3.245041E+05  1.568427E+04 -1.513775E+04
       154   8 -9.470733E+05 -2.450226E+05 -1.338931E+05 -3.293090E+05  3.076152E+04 -1.192846E+04
       154   9 -9.831944E+05 -2.864700E+05 -1.709436E+05 -3.480193E+05  4.553543E+04 -7.911275E+03
       154  10 -1.244571E+05  5.112295E+04  8.183932E+04 -1.160359E+05 -4.589747E-10  5.627947E-11
       154  11 -9.052734E+04  7.771267E+04  8.032200E+04 -9.177487E+04 -2.347666E-09 -2.284060E-09
       154  12 -4.872990E+04  7.303779E+04  6.479222E+04 -8.141809E+04 -4.425475E-09 -6.438216E-10
       154  13 -5.139669E+05 -9.198836E+04 -1.497729E+04 -2.202991E+05 -2.366543E-09 -6.799357E-10
       154  14 -5.188904E+05 -8.366148E+04 -2.677922E+04 -2.105790E+05 -3.053879E-09  3.046452E-10
       154  15 -5.160704E+05 -1.067254E+05 -5.306897E+04 -2.147647E+05 -1.861084E-09 -1.630177E-09
       154  16 -9.033298E+05 -2.350915E+05 -1.118061E+05 -3.245040E+05 -2.193075E-09 -2.985093E-10
       154  17 -9.470743E+05 -2.450230E+05 -1.338951E+05 -3.293087E+05 -3.884814E-09 -1.642040E-10
       154  18 -9.831966E+05 -2.864706E+05 -1.709476E+05 -3.480190E+05  8.457921E-10  1.254131E-09
       154  19 -1.244566E+05  5.112325E+04  8.184038E+04 -1.160361E+05 -1.948205E+04  1.370875E+04
       154  20 -9.052611E+04  7.771310E+04  8.032432E+04 -9.177517E+04 -3.338059E+04  1.094103E+04
       154  21 -4.872752E+04  7.303844E+04  6.479647E+04 -8.141837E+04 -4.697791E+04  7.364872E+03
       154  22 -5.139665E+05 -9.198805E+04 -1.497632E+04 -2.202993E+05 -1.758251E+04  1.442348E+04
       154  23 -5.188892E+05 -8.366106E+04 -2.677704E+04 -2.105793E+05 -3.207057E+04  1.143493E+04
       154  24 -5.160681E+05 -1.067247E+05 -5.306483E+04 -2.147650E+05 -4.625638E+04  7.638190E+03
       154  25 -9.033295E+05 -2.350912E+05 -1.118053E+05 -3.245041E+05 -1.568427E+04  1.513775E+04
       154  26 -9.470733E+05 -2.450226E+05 -1.338931E+05 -3.293090E+05 -3.076152E+04  1.192846E+04
       154  27 -9.831944E+05 -2.864700E+05 -1.709436E+05 -3.480193E+05 -4.553543E+04  7.911275E+03
       155   1  6.562609E+03  8.542644E+04  6.050269E+04 -1.126357E+05  6.198385E+04 -5.363563E+03
       155   2  2.817356E+04  1.545604E+05  2.343164E+04 -3.602046E+04  1.116579E+05  1.384128E+04
       155   3 -2.169619E+04 -2.901248E+03 -1.087844E+05  7.906715E+04  1.551627E+05  4.943237E+04
       155   4 -5.247454E+05 -8.384721E+04 -6.636780E+04 -2.282846E+05  5.620465E+04 -7.537316E+03
       155   5 -5.022174E+05 -7.086883E+04 -1.147013E+05 -2.092735E+05  1.179754E+05  1.621325E+04
       155   6 -5.536495E+05 -2.870137E+05 -2.678344E+05 -1.517725E+05  1.735725E+05  5.634501E+04
       155   7 -1.055776E+06 -2.531190E+05 -1.932577E+05 -3.438520E+05  5.043086E+04 -9.709723E+03
       155   8 -1.032326E+06 -2.962541E+05 -2.528566E+05 -3.823828E+05  1.242870E+05  1.858228E+04
       155   9 -1.085303E+06 -5.710079E+05 -4.269076E+05 -3.824020E+05  1.919647E+05  6.324481E+04
       155  10  6.558476E+03  8.542538E+04  6.049542E+04 -1.126354E+05  1.046096E-09  2.187851E-09
       155  11  2.816012E+04  1.545568E+05  2.340785E+04 -3.602170E+04 -1.021370E-10 -2.274886E-09
       155  12 -2.172270E+04 -2.910335E+03 -1.088342E+05  7.906097E+04  1.945608E-10 -1.923788E-10
       155  13 -5.247488E+05 -8.384812E+04 -6.637385E+04 -2.282842E+05 -2.423267E-10 -8.479346E-10
       155  14 -5.022325E+05 -7.087285E+04 -1.147280E+05 -2.092750E+05  8.726947E-10 -1.329144E-09
       155  15 -5.536827E+05 -2.870252E+05 -2.678971E+05 -1.517803E+05 -1.848352E-10  2.250679E-09
       155  16 -1.055778E+06 -2.531198E+05 -1.932627E+05 -3.438516E+05 -8.541941E-10 -2.598003E-09
       155  17 -1.032343E+06 -2.962586E+05 -2.528863E+05 -3.823846E+05  1.996451E-11 -8.247617E-10
       155  18 -1.085343E+06 -5.710221E+05 -4.269845E+05 -3.824118E+05  9.340699E-10 -1.700664E-09
       155  19  6.562609E+03  8.542644E+04  6.050269E+04 -1.126357E+05 -6.198385E+04  5.363563E+03
       155  20  2.817356E+04  1.545604E+05  2.343164E+04 -3.602046E+04 -1.116579E+05 -1.384128E+04
       155  21 -2.169619E+04 -2.901248E+03 -1.087844E+05  7.906715E+04 -1.551627E+05 -4.943237E+04
       155  22 -5.247454E+05 -8.384721E+04 -6.636780E+04 -2.282846E+05 -5.620465E+04  7.537316E+03
       155  23 -5.022174E+05 -7.086883E+04 -1.147013E+05 -2.092735E+05 -1.179754E+05 -1.621325E+04
       155  24 -5.536495E+05 -2.870137E+05 -2.678344E+05 -1.517725E+05 -1.735725E+05 -5.634501E+04
       155  25 -1.055776E+06 -2.531190E+05 -1.932577E+05 -3.438520E+05 -5.043086E+04  9.709723E+03
       155  26 -1.032326E+06 -2.962541E+05 -2.528566E+05 -3.823828E+05 -1.242870E+05 -1.858228E+04
       155  27 -1.085303E+06 -5.710079E+05 -4.269076E+05 -3.824020E+05 -1.919647E+05 -6.324481E+04
       156   1  2.337447E+05  2.107824E+06  2.354505E+05 -1.479993E+04  1.003732E+04  1.123999E+05
       156   2  1.722829E+05  2.136038E+06  1.735554E+05  7.914948E+03  3.554624E+04  6.471168E+04
       156   3  1.651766E+05  2.184098E+06  1.562582E+05  4.069718E+04  4.666032E+04  1.701443E+04
       156   4  8.143492E+04  1.489193E+06  9.167407E+04  3.615807E+04  1.008193E+04  5.969671E+04
       156   5  1.634299E+04  1.481295E+06  4.746542E+04  3.108880E+04  3.557493E+04  3.523242E+04
       156   6  1.609782E+03  1.489231E+06  3.177632E+04  3.608684E+04  4.667040E+04  1.076025E+04
       156   7 -7.089069E+04  8.709253E+05 -5.211638E+04  8.706514E+04  1.011794E+04  7.045469E+03
       156   8 -1.396198E+05  8.269663E+05 -7.864089E+04  5.423779E+04  3.560144E+04  5.783424E+03
       156   9 -1.619837E+05  7.948341E+05 -9.272398E+04  3.148187E+04  4.668058E+04  4.512847E+03
       156  10  2.337413E+05  2.107810E+06  2.354267E+05 -1.480084E+04 -6.447994E-10  3.640778E-09
       156  11  1.722804E+05  2.136033E+06  1.735452E+05  7.913097E+03  1.364932E-09 -1.122797E-08
       156  12  1.651742E+05  2.184097E+06  1.562536E+05  4.069655E+04 -7.722230E-10 -2.094600E-08
       156  13  8.143385E+04  1.489189E+06  9.166720E+04  3.615759E+04 -1.221392E-09 -1.351114E-10
       156  14  1.634130E+04  1.481294E+06  4.746071E+04  3.108779E+04  1.790292E-09 -9.789742E-10
       156  15  1.607411E+03  1.489231E+06  3.177200E+04  3.608643E+04  5.825265E-10 -1.690603E-09
       156  16 -7.089081E+04  8.709252E+05 -5.211666E+04  8.706508E+04 -1.198251E-09 -3.117014E-09
       156  17 -1.396212E+05  8.269659E+05 -7.864333E+04  5.423763E+04  4.853715E-10  8.811284E-09
       156  18 -1.619860E+05  7.948334E+05 -9.272812E+04  3.148170E+04  2.437263E-09  2.145423E-08
       156  19  2.337447E+05  2.107824E+06  2.354505E+05 -1.479993E+04 -1.003732E+04 -1.123999E+05
       156  20  1.722829E+05  2.136038E+06  1.735554E+05  7.914948E+03 -3.554624E+04 -6.471168E+04
       156  21  1.651766E+05  2.184098E+06  1.562582E+05  4.069718E+04 -4.666032E+04 -1.701443E+04
       156  22  8.143492E+04  1.489193E+06  9.167407E+04  3.615807E+04 -1.008193E+04 -5.969671E+04
       156  23  1.634299E+04  1.481295E+06  4.746542E+04  3.108880E+04 -3.557493E+04 -3.523242E+04
       156  24  1.609782E+03  1.489231E+06  3.177632E+04  3.608684E+04 -4.667040E+04 -1.076025E+04
       156  25 -7.089069E+04  8.709253E+05 -5.211638E+04  8.706514E+04 -1.011794E+04 -7.045469E+03
       156  26 -1.396198E+05  8.269663E+05 -7.864089E+04  5.423779E+04 -3.560144E+04 -5.783424E+03
       156  27 -1.619837E+05  7.948341E+05 -9.272398E+04  3.148187E+04 -4.668058E+04 -4.512847E+03
       157   1  1.724613E+05  2.206092E+06  1.571671E+05  3.282886E+04  4.882331E+04  1.444441E+04
       157   2  1.791803E+05  2.242548E+06  1.627890E+05  3.091412E+04  5.256364E+04 -4.721806E+03
       157   3  1.938217E+05  2.283566E+06  1.828638E+05  3.816759E+04  5.332250E+04 -2.389150E+04
       157   4  3.170459E+03  1.486530E+06  2.878568E+04  3.589611E+04  4.883660E+04  6.035414E+03
       157   5  1.116305E+03  1.484652E+06  2.874573E+04  3.131296E+04  5.257333E+04 -8.307284E+03
       157   6  6.154825E+03  1.486505E+06  3.982612E+04  3.589854E+04  5.332696E+04 -2.265229E+04
       157   7 -1.661489E+05  7.674710E+05 -9.961511E+04  3.895983E+04  4.884982E+04 -2.364149E+03
       157   8 -1.769792E+05  7.273161E+05 -1.053187E+05  3.171145E+04  5.258303E+04 -1.188852E+04
       157   9 -1.815473E+05  6.900613E+05 -1.032361E+05  3.363266E+04  5.333142E+04 -2.141462E+04
       157  10  1.724587E+05  2.206091E+06  1.571622E+05  3.282829E+04 -5.575498E-10  1.809778E-08
       157  11  1.791774E+05  2.242547E+06  1.627837E+05  3.091432E+04  5.984890E-10  4.924671E-09
       157  12  1.938185E+05  2.283564E+06  1.828574E+05  3.816861E+04  4.520008E-10 -4.733692E-09
       157  13  3.167886E+03  1.486529E+06  2.878112E+04  3.589588E+04  1.340374E-09 -2.556387E-11
       157  14  1.113317E+03  1.484652E+06  2.874040E+04  3.131332E+04 -9.527349E-10 -1.152345E-09
       157  15  6.151632E+03  1.486504E+06  3.981981E+04  3.589952E+04 -1.949683E-10 -2.008924E-09
       157  16 -1.661514E+05  7.674704E+05 -9.961961E+04  3.895993E+04  2.464466E-09 -1.756343E-08
       157  17 -1.769822E+05  7.273152E+05 -1.053242E+05  3.171195E+04 -5.336504E-10 -8.535498E-09
       157  18 -1.815505E+05  6.900600E+05 -1.032423E+05  3.363358E+04 -4.355893E-10  5.150421E-09
       157  19  1.724613E+05  2.206092E+06  1.571671E+05  3.282886E+04 -4.882331E+04 -1.444441E+04
       157  20  1.791803E+05  2.242548E+06  1.627890E+05  3.091412E+04 -5.256364E+04  4.721806E+03
       157  21  1.938217E+05  2.283566E+06  1.828638E+05  3.816759E+04 -5.332250E+04  2.389150E+04
       157  22  3.170459E+03  1.486530E+06  2.878568E+04  3.589611E+04 -4.883660E+04 -6.035414E+03
       157  23  1.116305E+03  1.484652E+06  2.874573E+04  3.131296E+04 -5.257333E+04  8.307284E+03
       157  24  6.154825E+03  1.486505E+06  3.982612E+04  3.589854E+04 -5.332696E+04  2.265229E+04
       157  25 -1.661489E+05  7.674710E+05 -9.961511E+04  3.895983E+04 -4.884982E+04  2.364149E+03
       157  26 -1.769792E+05  7.273161E+05 -1.053187E+05  3.171145E+04 -5.258303E+04  1.188852E+04
       157  27 -1.815473E+05  6.900613E+05 -1.032361E+05  3.363266E+04 -5.333142E+04  2.141462E+04
       158   1  1.971249E+05  2.315809E+06  1.977652E+05  2.461494E+04  5.422732E+04 -2.756255E+04
       158   2  2.355840E+05  2.337934E+06  2.514516E+05  7.236762E+04  4.465857E+04 -1.056159E+05
       158   3  3.731832E+05  2.395066E+06  3.806383E+05  1.281263E+05  1.346470E+04 -1.837189E+05
       158   4  2.962603E+03  1.492121E+06  4.902121E+04  3.560379E+04  5.423554E+04 -2.936538E+04
       158   5  3.043588E+04  1.477559E+06  8.344882E+04  3.171174E+04  4.461989E+04 -7.251080E+04
       158   6  1.510667E+05  1.491994E+06  1.692297E+05  3.582085E+04  1.337838E+04 -1.156968E+05
       158   7 -1.912371E+05  6.690918E+05 -9.974934E+04  4.657791E+04  5.424370E+04 -3.116588E+04
       158   8 -1.747497E+05  6.178984E+05 -8.458431E+04 -8.886518E+03  4.457686E+04 -3.945039E+04
       158   9 -7.107279E+04  5.897002E+05 -4.221253E+04 -5.634973E+04  1.327184E+04 -4.777262E+04
       158  10  1.971215E+05  2.315807E+06  1.977582E+05  2.461614E+04  1.759559E-10 -1.701216E-09
       158  11  2.355789E+05  2.337921E+06  2.514269E+05  7.237141E+04  1.211687E-11 -4.310206E-09
       158  12  3.731740E+05  2.395029E+06  3.805747E+05  1.281283E+05  4.091026E-10  1.013764E-10
       158  13  2.959211E+03  1.492120E+06  4.901406E+04  3.560507E+04  5.544691E-10  4.669369E-11
       158  14  3.043233E+04  1.477553E+06  8.343522E+04  3.171434E+04  4.025180E-10 -1.181989E-09
       158  15  1.510630E+05  1.491980E+06  1.692042E+05  3.582210E+04 -1.317457E-09 -2.319609E-09
       158  16 -1.912405E+05  6.690900E+05 -9.975669E+04  4.657927E+04 -1.604603E-09  2.442117E-09
       158  17 -1.747523E+05  6.178962E+05 -8.459097E+04 -8.885102E+03 -8.310803E-10 -5.109374E-10
       158  18 -7.107359E+04  5.896977E+05 -4.221715E+04 -5.634922E+04  1.635879E-09  3.120990E-10
       158  19  1.971249E+05  2.315809E+06  1.977652E+05  2.461494E+04 -5.422732E+04  2.756255E+04
       158  20  2.355840E+05  2.337934E+06  2.514516E+05  7.236762E+04 -4.465857E+04  1.056159E+05
       158  21  3.731832E+05  2.395066E+06  3.806383E+05  1.281263E+05 -1.346470E+04  1.837189E+05
       158  22  2.962603E+03  1.492121E+06  4.902121E+04  3.560379E+04 -5.423554E+04  2.936538E+04
       158  23  3.043588E+04  1.477559E+06  8.344882E+04  3.171174E+04 -4.461989E+04  7.251080E+04
       158  24  1.510667E+05  1.491994E+06  1.692297E+05  3.582085E+04 -1.337838E+04  1.156968E+05
       158  25 -1.912371E+05  6.690918E+05 -9.974934E+04  4.657791E+04 -5.424370E+04  3.116588E+04
       158  26 -1.747497E+05  6.178984E+05 -8.458431E+04 -8.886518E+03 -4.457686E+04  3.945039E+04
       158  27 -7.107279E+04  5.897002E+05 -4.221253E+04 -5.634973E+04 -1.327184E+04  4.777262E+04
       159   1 -1.581252E+05 -1.244236E+05 -7.809122E+04  8.151322E+03  1.148514E+05  1.545300E+04
       159   2 -6.364539E+04 -2.816216E+05 -1.536723E+05 -1.672513E+04  8.674617E+04  4.723740E+04
       159   3  8.146429E+04 -2.540408E+05 -1.646111E+05 -9.747231E+04  5.868059E+04  4.716525E+04
       159   4  1.077113E+06  1.823416E+05  2.226331E+05 -7.024124E+04  1.528783E+05  1.549290E+04
       159   5  1.049746E+06 -8.344890E+03  1.002060E+05 -4.219356E+04  9.945662E+04  4.724159E+04
       159   6  1.077281E+06 -1.005172E+04  5.989242E+04 -7.000353E+04  4.608229E+04  4.715442E+04
       159   7  2.313759E+06  4.890187E+05  5.232556E+05 -1.487906E+05  1.909804E+05  1.552317E+04
       159   8  2.164289E+06  2.648486E+05  3.540044E+05 -6.770833E+04  1.121895E+05  4.724474E+04
       159   9  2.074021E+06  2.338723E+05  2.843336E+05 -4.249036E+04  3.346394E+04  4.714248E+04
       159  10 -1.581395E+05 -1.244274E+05 -7.811647E+04  8.149892E+03 -6.718562E-09 -2.501442E-10
       159  11 -6.365407E+04 -2.816260E+05 -1.536906E+05 -1.672843E+04  5.940412E-10 -7.543324E-10
       159  12  8.146000E+04 -2.540441E+05 -1.646218E+05 -9.747454E+04  9.038153E-09 -4.180629E-10
       159  13  1.077088E+06  1.823350E+05  2.225888E+05 -7.024314E+04  5.349057E-10 -3.273712E-10
       159  14  1.049735E+06 -8.349937E+03  1.001832E+05 -4.219734E+04  8.460003E-10 -7.188278E-10
       159  15  1.077278E+06 -1.005468E+04  5.988425E+04 -7.000528E+04  3.734009E-10 -4.683491E-10
       159  16  2.313719E+06  4.890087E+05  5.231869E+05 -1.487930E+05  7.261833E-09 -2.656998E-10
       159  17  2.164275E+06  2.648428E+05  3.539766E+05 -6.771260E+04 -9.196367E-10 -7.340670E-10
       159  18  2.074020E+06  2.338696E+05  2.843273E+05 -4.249163E+04 -9.015406E-09 -4.110406E-10
       159  19 -1.581252E+05 -1.244236E+05 -7.809122E+04  8.151322E+03 -1.148514E+05 -1.545300E+04
       159  20 -6.364539E+04 -2.816216E+05 -1.536723E+05 -1.672513E+04 -8.674617E+04 -4.723740E+04
       159  21  8.146429E+04 -2.540408E+05 -1.646111E+05 -9.747231E+04 -5.868059E+04 -4.716525E+04
       159  22  1.077113E+06  1.823416E+05  2.226331E+05 -7.024124E+04 -1.528783E+05 -1.549290E+04
       159  23  1.049746E+06 -8.344890E+03  1.002060E+05 -4.219356E+04 -9.945662E+04 -4.724159E+04
       159  24  1.077281E+06 -1.005172E+04  5.989242E+04 -7.000353E+04 -4.608229E+04 -4.715442E+04
       159  25  2.313759E+06  4.890187E+05  5.232556E+05 -1.487906E+05 -1.909804E+05 -1.552317E+04
       159  26  2.164289E+06  2.648486E+05  3.540044E+05 -6.770833E+04 -1.121895E+05 -4.724474E+04
       159  27  2.074021E+06  2.338723E+05  2.843336E+05 -4.249036E+04 -3.346394E+04 -4.714248E+04
       160   1  1.764188E+05 -2.062744E+05 -1.536332E+05 -6.619383E+04  4.023520E+04  4.015463E+04
       160   2  2.912619E+05 -1.901761E+05 -1.489274E+05 -4.122342E+04  2.848225E+04  3.576154E+04
       160   3  4.111506E+05 -1.613204E+05 -1.333110E+05 -7.215075E+04  1.672150E+04  2.993026E+04
       160   4  1.066270E+06  1.189874E+04  4.798254E+04 -7.007564E+04  3.736424E+04  4.014908E+04
       160   5  1.063689E+06 -8.961236E+02  2.560013E+04 -4.212772E+04  2.445483E+04  3.575773E+04
       160   6  1.066333E+06 -7.424291E+02  1.491879E+04 -7.007270E+04  1.153979E+04  2.992894E+04
       160   7  1.956857E+06  2.300175E+05  2.495473E+05 -7.396309E+04  3.448918E+04  4.014357E+04
       160   8  1.836670E+06  1.883429E+05  2.000895E+05 -4.303316E+04  2.042243E+04  3.575394E+04
       160   9  1.721914E+06  1.598061E+05  1.631211E+05 -6.799239E+04  6.352675E+03  2.992759E+04
       160  10  1.764166E+05 -2.062766E+05 -1.536393E+05 -6.619514E+04  9.761933E-10  2.128124E-10
       160  11  2.912607E+05 -1.901777E+05 -1.489314E+05 -4.122424E+04  7.801763E-10  8.210490E-10
       160  12  4.111501E+05 -1.613215E+05 -1.333132E+05 -7.215116E+04  1.437102E-09  9.672244E-11
       160  13  1.066268E+06  1.189664E+04  4.797689E+04 -7.007684E+04 -5.206523E-10  1.795970E-10
       160  14  1.063688E+06 -8.976576E+02  2.559660E+04 -4.212843E+04 -2.595606E-10  8.512150E-10
       160  15  1.066333E+06 -7.434272E+02  1.491686E+04 -7.007297E+04  3.182883E-10  2.229505E-10
       160  16  1.956855E+06  2.300155E+05  2.495421E+05 -7.396420E+04 -9.356791E-10  2.105211E-10
       160  17  1.836670E+06  1.883414E+05  2.000863E+05 -4.303375E+04 -3.868130E-10  6.995775E-10
       160  18  1.721914E+06  1.598051E+05  1.631193E+05 -6.799254E+04 -1.674422E-09  3.343224E-10
       160  19  1.764188E+05 -2.062744E+05 -1.536332E+05 -6.619383E+04 -4.023520E+04 -4.015463E+04
       160  20  2.912619E+05 -1.901761E+05 -1.489274E+05 -4.122342E+04 -2.848225E+04 -3.576154E+04
       160  21  4.111506E+05 -1.613204E+05 -1.333110E+05 -7.215075E+04 -1.672150E+04 -2.993026E+04
       160  22  1.066270E+06  1.189874E+04  4.798254E+04 -7.007564E+04 -3.736424E+04 -4.014908E+04
       160  23  1.063689E+06 -8.961236E+02  2.560013E+04 -4.212772E+04 -2.445483E+04 -3.575773E+04
       160  24  1.066333E+06 -7.424291E+02  1.491879E+04 -7.007270E+04 -1.153979E+04 -2.992894E+04
       160  25  1.956857E+06  2.300175E+05  2.495473E+05 -7.396309E+04 -3.448918E+04 -4.014357E+04
       160  26  1.836670E+06  1.883429E+05  2.000895E+05 -4.303316E+04 -2.042243E+04 -3.575394E+04
       160  27  1.721914E+06  1.598061E+05  1.631211E+05 -6.799239E+04 -6.352675E+03 -2.992759E+04
       161   1  5.142114E+05 -1.342632E+05 -1.126413E+05 -6.986783E+04  1.393064E+04  2.623091E+04
       161   2  6.299470E+05 -1.066896E+05 -9.168911E+04 -4.227677E+04  1.072590E+04  2.024541E+04
       161   3  7.463822E+05 -7.819253E+04 -6.841293E+04 -7.001303E+04  7.516811E+03  1.420887E+04
       161   4  1.065355E+06  6.993824E+02  1.149828E+04 -6.994712E+04  9.211679E+03  2.623067E+04
       161   5  1.065023E+06 -1.096579E+02  6.537218E+03 -4.228483E+04  5.963475E+03  2.024652E+04
       161   6  1.065386E+06  1.299015E+01  3.929410E+03 -6.994750E+04  2.711508E+03  1.421140E+04
       161   7  1.616782E+06  1.356411E+05  1.356186E+05 -7.002643E+04  4.488567E+03  2.623043E+04
       161   8  1.500275E+06  1.064573E+05  1.047515E+05 -4.229288E+04  1.197744E+03  2.024763E+04
       161   9  1.384484E+06  7.821151E+04  7.626527E+04 -6.988192E+04 -2.096239E+03  1.421392E+04
       161  10  5.142110E+05 -1.342639E+05 -1.126430E+05 -6.986813E+04 -2.633724E-10 -2.277791E-10
       161  11  6.299468E+05 -1.066901E+05 -9.169010E+04 -4.227694E+04 -5.027915E-10  3.674102E-11
       161  12  7.463821E+05 -7.819276E+04 -6.841341E+04 -7.001312E+04 -6.031940E-10 -8.690501E-12
       161  13  1.065355E+06  6.986204E+02  1.149683E+04 -6.994731E+04 -2.402351E-11 -3.549984E-11
       161  14  1.065023E+06 -1.101078E+02  6.536381E+03 -4.228493E+04  7.168861E-10  1.019974E-10
       161  15  1.065386E+06  1.277119E+01  3.929016E+03 -6.994753E+04 -9.931101E-10 -1.408264E-10
       161  16  1.616781E+06  1.356404E+05  1.356173E+05 -7.002653E+04  7.587238E-12  1.074649E-10
       161  17  1.500275E+06  1.064569E+05  1.047507E+05 -4.229290E+04  1.160948E-09  1.377689E-10
       161  18  1.384484E+06  7.821129E+04  7.626488E+04 -6.988189E+04  3.407272E-10 -2.381308E-10
       161  19  5.142114E+05 -1.342632E+05 -1.126413E+05 -6.986783E+04 -1.393064E+04 -2.623091E+04
       161  20  6.299470E+05 -1.066896E+05 -9.168911E+04 -4.227677E+04 -1.072590E+04 -2.024541E+04
       161  21  7.463822E+05 -7.819253E+04 -6.841293E+04 -7.001303E+04 -7.516811E+03 -1.420887E+04
       161  22  1.065355E+06  6.993824E+02  1.149828E+04 -6.994712E+04 -9.211679E+03 -2.623067E+04
       161  23  1.065023E+06 -1.096579E+02  6.537218E+03 -4.228483E+04 -5.963475E+03 -2.024652E+04
       161  24  1.065386E+06  1.299015E+01  3.929410E+03 -6.994750E+04 -2.711508E+03 -1.421140E+04
       161  25  1.616782E+06  1.356411E+05  1.356186E+05 -7.002643E+04 -4.488567E+03 -2.623043E+04
       161  26  1.500275E+06  1.064573E+05  1.047515E+05 -4.229288E+04 -1.197744E+03 -2.024763E+04
       161  27  1.384484E+06  7.821151E+04  7.626527E+04 -6.988192E+04  2.096239E+03 -1.421392E+04
       162   1  8.494805E+05 -5.268826E+04 -4.526178E+04 -6.985667E+04  6.851184E+03  1.068879E+04
       162   2  9.649647E+05 -2.452594E+04 -2.049948E+04 -4.234501E+04  5.794294E+03  4.663317E+03
       162   3  1.080553E+06  3.761535E+03  4.962228E+03 -6.989391E+04  4.736319E+03 -1.361381E+03
       162   4  1.065264E+06  9.782018E+01  3.113101E+03 -6.988853E+04  2.073424E+03  1.069183E+04
       162   5  1.065223E+06  2.899701E+01  2.130083E+03 -4.235853E+04  1.016411E+03  4.666645E+03
       162   6  1.065271E+06  8.567145E+01  1.846403E+03 -6.988856E+04 -4.149376E+01 -1.357714E+03
       162   7  1.281092E+06  5.288074E+04  5.148512E+04 -6.992038E+04 -2.705978E+03  1.069487E+04
       162   8  1.165490E+06  2.458326E+04  2.475909E+04 -4.237206E+04 -3.762235E+03  4.669973E+03
       162   9  1.049990E+06 -3.590194E+03 -1.269349E+03 -6.988322E+04 -4.819191E+03 -1.354047E+03
       162  10  8.494804E+05 -5.268839E+04 -4.526208E+04 -6.985673E+04 -2.847023E-10 -6.010023E-11
       162  11  9.649646E+05 -2.452597E+04 -2.049959E+04 -4.234503E+04 -3.501771E-10 -1.244486E-10
       162  12  1.080553E+06  3.761527E+03  4.962182E+03 -6.989390E+04  2.180290E-10  2.032075E-10
       162  13  1.065264E+06  9.769621E+01  3.112878E+03 -6.988854E+04 -9.958124E-10 -3.322912E-10
       162  14  1.065223E+06  2.897334E+01  2.130040E+03 -4.235854E+04 -1.810012E-09  1.027043E-10
       162  15  1.065271E+06  8.566947E+01  1.846399E+03 -6.988856E+04 -2.006942E-10  2.273092E-10
       162  16  1.281092E+06  5.288062E+04  5.148489E+04 -6.992036E+04  2.439184E-10 -3.322342E-10
       162  17  1.165490E+06  2.458323E+04  2.475902E+04 -4.237205E+04  6.308991E-10 -1.590798E-10
       162  18  1.049990E+06 -3.590203E+03 -1.269396E+03 -6.988323E+04 -5.974454E-10  5.037708E-11
       162  19  8.494805E+05 -5.268826E+04 -4.526178E+04 -6.985667E+04 -6.851184E+03 -1.068879E+04
       162  20  9.649647E+05 -2.452594E+04 -2.049948E+04 -4.234501E+04 -5.794294E+03 -4.663317E+03
       162  21  1.080553E+06  3.761535E+03  4.962228E+03 -6.989391E+04 -4.736319E+03  1.361381E+03
       162  22  1.065264E+06  9.782018E+01  3.113101E+03 -6.988853E+04 -2.073424E+03 -1.069183E+04
       162  23  1.065223E+06  2.899701E+01  2.130083E+03 -4.235853E+04 -1.016411E+03 -4.666645E+03
       162  24  1.065271E+06  8.567145E+01  1.846403E+03 -6.988856E+04  4.149376E+01  1.357714E+03
       162  25  1.281092E+06  5.288074E+04  5.148512E+04 -6.992038E+04  2.705978E+03 -1.069487E+04
       162  26  1.165490E+06  2.458326E+04  2.475909E+04 -4.237206E+04  3.762235E+03 -4.669973E+03
       162  27  1.049990E+06 -3.590194E+03 -1.269349E+03 -6.988322E+04  4.819191E+03  1.354047E+03
       163   1  1.183620E+06  2.913099E+04  2.895957E+04 -6.995196E+04  4.393653E+03 -4.867788E+03
       163   2  1.299245E+06  5.731939E+04  5.533497E+04 -4.238360E+04  3.147709E+03 -1.089627E+04
       163   3  1.415030E+06  8.564612E+04  8.254087E+04 -6.994163E+04  1.903584E+03 -1.693041E+04
       163   4  1.065281E+06  8.500544E+01  1.920203E+03 -6.990359E+04 -3.864870E+02 -4.864252E+03
       163   5  1.065199E+06  9.148485E+00  2.518642E+03 -4.233974E+04 -1.636923E+03 -1.089349E+04
       163   6  1.065265E+06  7.329719E+01  3.951508E+03 -6.990355E+04 -2.885314E+03 -1.692834E+04
       163   7  9.469546E+05 -2.896193E+04 -2.511999E+04 -6.985523E+04 -5.165725E+03 -4.860717E+03
       163   8  8.312039E+05 -5.730484E+04 -5.030111E+04 -4.229589E+04 -6.419772E+03 -1.089071E+04
       163   9  7.156147E+05 -8.550787E+04 -7.464554E+04 -6.986548E+04 -7.671545E+03 -1.692626E+04
       163  10  1.183620E+06  2.913096E+04  2.895949E+04 -6.995194E+04  3.330810E-10  3.004869E-10
       163  11  1.299245E+06  5.731926E+04  5.533473E+04 -4.238357E+04 -8.328383E-10 -1.089409E-10
       163  12  1.415029E+06  8.564581E+04  8.254032E+04 -6.994160E+04 -8.929338E-10 -3.168073E-10
       163  13  1.065281E+06  8.497998E+01  1.920159E+03 -6.990359E+04 -5.504974E-10  4.137594E-10
       163  14  1.065199E+06  9.020273E+00  2.518414E+03 -4.233976E+04 -7.315246E-10  1.101243E-10
       163  15  1.065265E+06  7.298708E+01  3.950954E+03 -6.990359E+04 -8.496328E-10 -2.239318E-10
       163  16  9.469546E+05 -2.896197E+04 -2.512009E+04 -6.985525E+04 -3.769051E-10  1.936544E-10
       163  17  8.312038E+05 -5.730498E+04 -5.030141E+04 -4.229595E+04  9.679612E-10  4.727438E-10
       163  18  7.156145E+05 -8.550819E+04 -7.464619E+04 -6.986558E+04  9.496002E-10 -4.898090E-10
       163  19  1.183620E+06  2.913099E+04  2.895957E+04 -6.995196E+04 -4.393653E+03  4.867788E+03
       163  20  1.299245E+06  5.731939E+04  5.533497E+04 -4.238360E+04 -3.147709E+03  1.089627E+04
       163  21  1.415030E+06  8.564612E+04  8.254087E+04 -6.994163E+04 -1.903584E+03  1.693041E+04
       163  22  1.065281E+06  8.500544E+01  1.920203E+03 -6.990359E+04  3.864870E+02  4.864252E+03
       163  23  1.065199E+06  9.148485E+00  2.518642E+03 -4.233974E+04  1.636923E+03  1.089349E+04
       163  24  1.065265E+06  7.329719E+01  3.951508E+03 -6.990355E+04  2.885314E+03  1.692834E+04
       163  25  9.469546E+05 -2.896193E+04 -2.511999E+04 -6.985523E+04  5.165725E+03  4.860717E+03
       163  26  8.312039E+05 -5.730484E+04 -5.030111E+04 -4.229589E+04  6.419772E+03  1.089071E+04
       163  27  7.156147E+05 -8.550787E+04 -7.464554E+04 -6.986548E+04  7.671545E+03  1.692626E+04
       164   1  1.518734E+06  1.110115E+05  1.076877E+05 -6.986601E+04  1.121404E+03 -2.045873E+04
       164   2  1.634818E+06  1.393348E+05  1.371721E+05 -4.214526E+04 -3.193133E+03 -2.651098E+04
       164   3  1.751906E+06  1.688723E+05  1.697882E+05 -6.996044E+04 -7.503414E+03 -3.251059E+04
       164   4  1.065432E+06 -3.857529E+01  5.076751E+03 -6.999504E+04 -3.701673E+03 -2.045745E+04
       164   5  1.064919E+06 -1.878976E+02  8.586086E+03 -4.222537E+04 -7.971264E+03 -2.651153E+04
       164   6  1.065392E+06  8.714692E+02  1.519945E+04 -6.999474E+04 -1.223581E+04 -3.251290E+04
       164   7  6.123198E+05 -1.111027E+05 -9.754735E+04 -7.012395E+04 -8.521267E+03 -2.045616E+04
       164   8  4.953203E+05 -1.397328E+05 -1.200206E+05 -4.230537E+04 -1.274506E+04 -2.651208E+04
       164   9  3.793151E+05 -1.671616E+05 -1.394193E+05 -7.002897E+04 -1.696303E+04 -3.251522E+04
       164  10  1.518734E+06  1.110110E+05  1.076869E+05 -6.986599E+04 -4.863673E-10 -2.225377E-10
       164  11  1.634818E+06  1.393340E+05  1.371707E+05 -4.214532E+04 -5.869215E-10  5.837956E-10
       164  12  1.751906E+06  1.688712E+05  1.697861E+05 -6.996064E+04 -3.051860E-11  3.526360E-10
       164  13  1.065432E+06 -3.902860E+01  5.075938E+03 -6.999511E+04 -2.042077E-09 -3.032184E-10
       164  14  1.064918E+06 -1.886698E+02  8.584645E+03 -4.222554E+04 -1.018989E-09  2.074204E-10
       164  15  1.065391E+06  8.702933E+02  1.519718E+04 -6.999506E+04  1.247852E-09  9.781579E-12
       164  16  6.123196E+05 -1.111032E+05 -9.754827E+04 -7.012409E+04  7.169826E-10 -3.650238E-10
       164  17  4.953200E+05 -1.397336E+05 -1.200222E+05 -4.230565E+04  8.232113E-10  3.134822E-11
       164  18  3.793145E+05 -1.671628E+05 -1.394218E+05 -7.002941E+04 -6.748582E-10 -2.641641E-10
       164  19  1.518734E+06  1.110115E+05  1.076877E+05 -6.986601E+04 -1.121404E+03  2.045873E+04
       164  20  1.634818E+06  1.393348E+05  1.371721E+05 -4.214526E+04  3.193133E+03  2.651098E+04
       164  21  1.751906E+06  1.688723E+05  1.697882E+05 -6.996044E+04  7.503414E+03  3.251059E+04
       164  22  1.065432E+06 -3.857529E+01  5.076751E+03 -6.999504E+04  3.701673E+03  2.045745E+04
       164  23  1.064919E+06 -1.878976E+02  8.586086E+03 -4.222537E+04  7.971264E+03  2.651153E+04
       164  24  1.065392E+06  8.714692E+02  1.519945E+04 -6.999474E+04  1.223581E+04  3.251290E+04
       164  25  6.123198E+05 -1.111027E+05 -9.754735E+04 -7.012395E+04  8.521267E+03  2.045616E+04
       164  26  4.953203E+05 -1.397328E+05 -1.200206E+05 -4.230537E+04  1.274506E+04  2.651208E+04
       164  27  3.793151E+05 -1.671616E+05 -1.394193E+05 -7.002897E+04  1.696303E+04  3.251522E+04
       165   1  1.857883E+06  1.926938E+05  1.985244E+05 -6.720960E+04 -1.006553E+04 -3.624313E+04
       165   2  1.972489E+06  2.213800E+05  2.391604E+05 -4.302613E+04 -2.845784E+04 -4.208081E+04
       165   3  2.094290E+06  2.674148E+05  2.961791E+05 -7.506415E+04 -4.684789E+04 -4.633020E+04
       165   4  1.066686E+06 -1.039636E+03  1.974356E+04 -7.014478E+04 -1.531375E+04 -3.624694E+04
       165   5  1.063163E+06 -1.218068E+03  3.391809E+04 -4.203674E+04 -3.242277E+04 -4.208714E+04
       165   6  1.066610E+06  1.574550E+04  6.360338E+04 -7.015450E+04 -4.952607E+04 -4.633818E+04
       165   7  2.760690E+05 -1.948160E+05 -1.590773E+05 -7.307618E+04 -2.055535E+04 -3.625071E+04
       165   8  1.546034E+05 -2.238728E+05 -1.713771E+05 -4.104888E+04 -3.638193E+04 -4.209350E+04
       165   9  3.990888E+04 -2.359962E+05 -1.690402E+05 -6.525317E+04 -5.219982E+04 -4.634621E+04
       165  10  1.857883E+06  1.926924E+05  1.985217E+05 -6.720990E+04  8.718480E-11 -2.402489E-10
       165  11  1.972488E+06  2.213779E+05  2.391556E+05 -4.302709E+04  4.977832E-10 -2.031963E-10
       165  12  2.094287E+06  2.674119E+05  2.961710E+05 -7.506590E+04 -6.764364E-10  5.064977E-10
       165  13  1.066686E+06 -1.041110E+03  1.974065E+04 -7.014523E+04 -6.340198E-10 -3.886762E-10
       165  14  1.063161E+06 -1.220253E+03  3.391278E+04 -4.203784E+04 -6.203971E-11 -9.692503E-11
       165  15  1.066607E+06  1.574254E+04  6.359474E+04 -7.015634E+04  6.826897E-10  3.461779E-10
       165  16  2.760682E+05 -1.948175E+05 -1.590806E+05 -7.307678E+04  1.436710E-10 -5.671117E-10
       165  17  1.546015E+05 -2.238750E+05 -1.713829E+05 -4.105011E+04  9.317067E-10 -5.677930E-10
       165  18  3.990538E+04 -2.359992E+05 -1.690494E+05 -6.525512E+04 -5.051215E-10  5.407621E-10
       165  19  1.857883E+06  1.926938E+05  1.985244E+05 -6.720960E+04  1.006553E+04  3.624313E+04
       165  20  1.972489E+06  2.213800E+05  2.391604E+05 -4.302613E+04  2.845784E+04  4.208081E+04
       165  21  2.094290E+06  2.674148E+05  2.961791E+05 -7.506415E+04  4.684789E+04  4.633020E+04
       165  22  1.066686E+06 -1.039636E+03  1.974356E+04 -7.014478E+04  1.531375E+04  3.624694E+04
       165  23  1.063163E+06 -1.218068E+03  3.391809E+04 -4.203674E+04  3.242277E+04  4.208714E+04
       165  24  1.066610E+06  1.574550E+04  6.360338E+04 -7.015450E+04  4.952607E+04  4.633818E+04
       165  25  2.760690E+05 -1.948160E+05 -1.590773E+05 -7.307618E+04  2.055535E+04  3.625071E+04
       165  26  1.546034E+05 -2.238728E+05 -1.713771E+05 -4.104888E+04  3.638193E+04  4.209350E+04
       165  27  3.990888E+04 -2.359962E+05 -1.690402E+05 -6.525317E+04  5.219982E+04  4.634621E+04
       166   1  2.215813E+06  2.643314E+05  3.348413E+05 -3.332309E+04 -4.760250E+04 -5.373001E+04
       166   2  2.298075E+06  2.960793E+05  4.181962E+05 -7.567628E+04 -1.464909E+05 -5.327850E+04
       166   3  2.457831E+06  5.829436E+05  6.297469E+05 -1.744013E+05 -2.454751E+05 -1.755736E+04
       166   4  1.081200E+06 -1.335163E+04  7.939359E+04 -7.006223E+04 -6.108048E+04 -5.374839E+04
       166   5  1.044719E+06 -1.105588E+04  1.328582E+05 -4.210155E+04 -1.318411E+05 -5.327146E+04
       166   6  1.080993E+06  2.417432E+05  2.951759E+05 -7.050043E+04 -2.026737E+05 -1.751552E+04
       166   7 -5.221648E+04 -2.911176E+05 -1.761349E+05 -1.067340E+05 -7.453405E+04 -5.376519E+04
       166   8 -2.071811E+05 -3.182951E+05 -1.525804E+05 -8.595498E+03 -1.172204E+05 -5.326286E+04
       166   9 -2.940925E+05 -9.955407E+04 -3.951935E+04  3.316945E+04 -1.599663E+05 -1.745938E+04
       166  10  2.215810E+06  2.643277E+05  3.348317E+05 -3.332514E+04  8.445209E-10  9.853528E-10
       166  11  2.298051E+06  2.960705E+05  4.181507E+05 -7.568256E+04  3.787013E-10  2.699315E-10
       166  12  2.457767E+06  5.829271E+05  6.296335E+05 -1.744048E+05  3.340444E-11 -2.849294E-10
       166  13  1.081195E+06 -1.335573E+04  7.938116E+04 -7.006487E+04  1.093589E-09  6.941286E-10
       166  14  1.044700E+06 -1.106359E+04  1.328203E+05 -4.210720E+04  6.707706E-10 -5.919178E-12
       166  15  1.080949E+06  2.417319E+05  2.950982E+05 -7.050329E+04 -8.856576E-10  3.881639E-11
       166  16 -5.222323E+04 -2.911222E+05 -1.761507E+05 -1.067372E+05 -5.939738E-10  6.635240E-10
       166  17 -2.071966E+05 -3.183018E+05 -1.526115E+05 -8.600528E+03 -4.454473E-11  7.496748E-10
       166  18 -2.941201E+05 -9.956127E+04 -3.956803E+04  3.316720E+04  7.244504E-10 -1.689552E-11
       166  19  2.215813E+06  2.643314E+05  3.348413E+05 -3.332309E+04  4.760250E+04  5.373001E+04
       166  20  2.298075E+06  2.960793E+05  4.181962E+05 -7.567628E+04  1.464909E+05  5.327850E+04
       166  21  2.457831E+06  5.829436E+05  6.297469E+05 -1.744013E+05  2.454751E+05  1.755736E+04
       166  22  1.081200E+06 -1.335163E+04  7.939359E+04 -7.006223E+04  6.108048E+04  5.374839E+04
       166  23  1.044719E+06 -1.105588E+04  1.328582E+05 -4.210155E+04  1.318411E+05  5.327146E+04
       166  24  1.080993E+06  2.417432E+05  2.951759E+05 -7.050043E+04  2.026737E+05  1.751552E+04
       166  25 -5.221648E+04 -2.911176E+05 -1.761349E+05 -1.067340E+05  7.453405E+04  5.376519E+04
       166  26 -2.071811E+05 -3.182951E+05 -1.525804E+05 -8.595498E+03  1.172204E+05  5.326286E+04
       166  27 -2.940925E+05 -9.955407E+04 -3.951935E+04  3.316945E+04  1.599663E+05  1.745938E+04
       167   1  1.369498E+05  6.483651E+05  1.470215E+05 -1.027324E+05  3.115283E+03  5.176784E+04
       167   2  4.765553E+04  5.087159E+05  7.626843E+04 -5.598168E+04  7.951620E+03  2.824080E+04
       167   3  1.517936E+04  3.860729E+05  3.497282E+04 -7.127416E+04  3.091287E+03  4.700195E+03
       167   4  5.362333E+04  3.139888E+05  6.511172E+04 -7.892636E+04  3.131944E+03  4.411585E+04
       167   5 -2.171080E+03  3.061663E+05  2.977661E+04 -4.795898E+04  7.952072E+03  2.828184E+04
       167   6 -2.469437E+03  3.140113E+05  1.857139E+04 -7.903276E+04  3.075298E+03  1.242931E+04
       167   7 -2.970935E+04 -2.028447E+04 -1.680578E+04 -5.513309E+04  3.148024E+03  3.646797E+04
       167   8 -5.200031E+04  1.036548E+05 -1.671788E+04 -3.993889E+04  7.952525E+03  2.832287E+04
       167   9 -2.011833E+04  2.419549E+05  2.169886E+03 -8.679045E+04  3.059116E+03  2.015753E+04
       167  10  1.369491E+05  6.483622E+05  1.470165E+05 -1.027325E+05  4.227320E-11 -2.634211E-10
       167  11  4.765525E+04  5.087150E+05  7.626681E+04 -5.598186E+04 -8.247086E-10 -4.017422E-10
       167  12  1.517934E+04  3.860729E+05  3.497276E+04 -7.127417E+04 -6.666299E-10 -8.601484E-10
       167  13  5.362279E+04  3.139867E+05  6.510805E+04 -7.892647E+04  9.659212E-10 -6.237512E-11
       167  14 -2.171362E+03  3.061655E+05  2.977499E+04 -4.795916E+04  9.606641E-11  4.526140E-11
       167  15 -2.469489E+03  3.140112E+05  1.857109E+04 -7.903279E+04  2.386472E-10  4.151614E-11
       167  16 -2.970972E+04 -2.028591E+04 -1.680829E+04 -5.513318E+04 -3.598066E-10  2.582099E-10
       167  17 -5.200060E+04  1.036540E+05 -1.671951E+04 -3.993908E+04  1.364437E-09  3.957036E-10
       167  18 -2.011845E+04  2.419544E+05  2.169105E+03 -8.679050E+04 -6.486350E-10  8.948077E-10
       167  19  1.369498E+05  6.483651E+05  1.470215E+05 -1.027324E+05 -3.115283E+03 -5.176784E+04
       167  20  4.765553E+04  5.087159E+05  7.626843E+04 -5.598168E+04 -7.951620E+03 -2.824080E+04
       167  21  1.517936E+04  3.860729E+05  3.497282E+04 -7.127416E+04 -3.091287E+03 -4.700195E+03
       167  22  5.362333E+04  3.139888E+05  6.511172E+04 -7.892636E+04 -3.131944E+03 -4.411585E+04
       167  23 -2.171080E+03  3.061663E+05  2.977661E+04 -4.795898E+04 -7.952072E+03 -2.828184E+04
       167  24 -2.469437E+03  3.140113E+05  1.857139E+04 -7.903276E+04 -3.075298E+03 -1.242931E+04
       167  25 -2.970935E+04 -2.028447E+04 -1.680578E+04 -5.513309E+04 -3.148024E+03 -3.646797E+04
       167  26 -5.200031E+04  1.036548E+05 -1.671788E+04 -3.993889E+04 -7.952525E+03 -2.832287E+04
       167  27 -2.011833E+04  2.419549E+05  2.169886E+03 -8.679045E+04 -3.059116E+03 -2.015753E+04
       168   1 -7.290031E+03  2.657497E+05  5.224008E+03 -8.047525E+04 -2.020413E+03  4.626328E+03
       168   2 -4.332651E+04  1.338195E+05 -2.976664E+04 -4.780160E+04 -8.151200E+03 -1.499313E+02
       168   3 -7.401843E+04  3.585948E+03 -6.037826E+04 -7.757091E+04 -1.388090E+04 -4.922850E+03
       168   4  3.782959E+03  3.109147E+05  1.547346E+04 -7.908888E+04 -2.030779E+03  9.650799E+03
       168   5 -1.227167E+02  3.100406E+05  1.007473E+04 -4.787050E+04 -8.160328E+03  4.555904E+03
       168   6  1.372029E+03  3.109026E+05  9.277043E+03 -7.909368E+04 -1.388889E+04 -5.366284E+02
       168   7  1.485583E+04  3.560816E+05  2.572288E+04 -7.770241E+04 -2.041122E+03  1.467563E+04
       168   8  4.307896E+04  4.862906E+05  4.991418E+04 -4.793940E+04 -8.169456E+03  9.263061E+03
       168   9  7.675599E+04  6.183069E+05  7.892633E+04 -8.061716E+04 -1.389689E+04  3.851744E+03
       168  10 -7.290041E+03  2.657497E+05  5.223961E+03 -8.047524E+04 -1.714440E-09 -1.163787E-09
       168  11 -4.332658E+04  1.338194E+05 -2.976676E+04 -4.780160E+04 -1.137175E-09 -9.488484E-10
       168  12 -7.401864E+04  3.585871E+03 -6.037867E+04 -7.757097E+04 -3.990207E-10 -2.174859E-09
       168  13  3.782930E+03  3.109146E+05  1.547328E+04 -7.908886E+04 -1.587896E-09  1.006251E-10
       168  14 -1.227937E+02  3.100405E+05  1.007456E+04 -4.787047E+04 -1.325000E-09  1.281919E-11
       168  15  1.371822E+03  3.109025E+05  9.276680E+03 -7.909368E+04 -9.683797E-10  6.316122E-11
       168  16  1.485577E+04  3.560814E+05  2.572246E+04 -7.770239E+04 -1.574004E-09  1.142839E-09
       168  17  4.307886E+04  4.862905E+05  4.991389E+04 -4.793934E+04 -2.624892E-09  9.275880E-10
       168  18  7.675578E+04  6.183068E+05  7.892594E+04 -8.061712E+04 -8.992662E-10  2.183365E-09
       168  19 -7.290031E+03  2.657497E+05  5.224008E+03 -8.047525E+04  2.020413E+03 -4.626328E+03
       168  20 -4.332651E+04  1.338195E+05 -2.976664E+04 -4.780160E+04  8.151200E+03  1.499313E+02
       168  21 -7.401843E+04  3.585948E+03 -6.037826E+04 -7.757091E+04  1.388090E+04  4.922850E+03
       168  22  3.782959E+03  3.109147E+05  1.547346E+04 -7.908888E+04  2.030779E+03 -9.650799E+03
       168  23 -1.227167E+02  3.100406E+05  1.007473E+04 -4.787050E+04  8.160328E+03 -4.555904E+03
       168  24  1.372029E+03  3.109026E+05  9.277043E+03 -7.909368E+04  1.388889E+04  5.366284E+02
       168  25  1.485583E+04  3.560816E+05  2.572288E+04 -7.770241E+04  2.041122E+03 -1.467563E+04
       168  26  4.307896E+04  4.862906E+05  4.991418E+04 -4.793940E+04  8.169456E+03 -9.263061E+03
       168  27  7.675599E+04  6.183069E+05  7.892633E+04 -8.061716E+04  1.389689E+04 -3.851744E+03
       169   1 -1.046894E+05 -1.129111E+05 -8.640362E+04 -8.127826E+04 -1.987577E+04 -1.199857E+04
       169   2 -1.371505E+05 -2.460736E+05 -1.146147E+05 -4.447388E+04 -2.313219E+04 -3.807035E+03
       169   3 -1.512804E+05 -3.757905E+05 -1.435979E+05 -6.952249E+04 -7.909934E+03  4.409230E+03
       169   4 -5.796565E+02  3.118221E+05  9.507046E+03 -7.897000E+04 -1.989314E+04 -2.117429E+03
       169   5 -8.018588E+02  3.088190E+05  1.217823E+04 -4.803033E+04 -2.312306E+04 -8.560089E+03
       169   6  1.983908E+04  3.117791E+05  2.423561E+04 -7.893912E+04 -7.881810E+03 -1.497614E+04
       169   7  1.035177E+05  7.367231E+05  1.054065E+05 -7.666005E+04 -1.991043E+04  7.770405E+03
       169   8  1.355254E+05  8.639970E+05  1.389511E+05 -5.158985E+04 -2.311388E+04 -1.331735E+04
       169   9  1.909241E+05  9.997807E+05  1.920361E+05 -8.836602E+04 -7.853114E+03 -3.438294E+04
       169  10 -1.046898E+05 -1.129113E+05 -8.640463E+04 -8.127845E+04  2.910907E-11 -1.677452E-08
       169  11 -1.371510E+05 -2.460737E+05 -1.146157E+05 -4.447396E+04  1.853720E-09 -7.849715E-10
       169  12 -1.512804E+05 -3.757905E+05 -1.435980E+05 -6.952246E+04  4.800844E-10  1.376945E-08
       169  13 -5.800827E+02  3.118220E+05  9.506294E+03 -7.897003E+04  1.173410E-09  3.797108E-11
       169  14 -8.024527E+02  3.088188E+05  1.217709E+04 -4.803048E+04  1.536069E-09  1.134964E-11
       169  15  1.983895E+04  3.117788E+05  2.423508E+04 -7.893921E+04  4.314494E-10 -1.737296E-13
       169  16  1.035173E+05  7.367230E+05  1.054057E+05 -7.665992E+04 -4.634006E-10  1.690627E-08
       169  17  1.355248E+05  8.639967E+05  1.389497E+05 -5.159010E+04  1.706966E-09  7.031309E-10
       169  18  1.909237E+05  9.997794E+05  1.920338E+05 -8.836624E+04  9.532566E-10 -1.384519E-08
       169  19 -1.046894E+05 -1.129111E+05 -8.640362E+04 -8.127826E+04  1.987577E+04  1.199857E+04
       169  20 -1.371505E+05 -2.460736E+05 -1.146147E+05 -4.447388E+04  2.313219E+04  3.807035E+03
       169  21 -1.512804E+05 -3.757905E+05 -1.435979E+05 -6.952249E+04  7.909934E+03 -4.409230E+03
       169  22 -5.796565E+02  3.118221E+05  9.507046E+03 -7.897000E+04  1.989314E+04  2.117429E+03
       169  23 -8.018588E+02  3.088190E+05  1.217823E+04 -4.803033E+04  2.312306E+04  8.560089E+03
       169  24  1.983908E+04  3.117791E+05  2.423561E+04 -7.893912E+04  7.881810E+03  1.497614E+04
       169  25  1.035177E+05  7.367231E+05  1.054065E+05 -7.666005E+04  1.991043E+04 -7.770405E+03
       169  26  1.355254E+05  8.639970E+05  1.389511E+05 -5.158985E+04  2.311388E+04  1.331735E+04
       169  27  1.909241E+05  9.997807E+05  1.920361E+05 -8.836602E+04  7.853114E+03  3.438294E+04
       170   1 -1.640691E+06 -6.433276E+05 -4.186683E+05 -5.882524E+05 -1.782668E+05 -5.715037E+04
       170   2 -1.584097E+06 -3.879672E+05 -2.560958E+05 -5.834636E+05 -1.156875E+05 -1.251240E+04
       170   3 -1.593644E+06 -3.469077E+05 -1.992966E+05 -5.478662E+05 -4.627420E+04  1.401675E+04
       170   4 -1.042240E+06 -3.418059E+05 -2.430475E+05 -3.473811E+05 -1.580175E+05 -4.954717E+04
       170   5 -9.973949E+05 -1.438406E+05 -1.040781E+05 -3.974730E+05 -1.087922E+05 -9.923661E+03
       170   6 -1.015968E+06 -1.574225E+05 -6.020985E+04 -4.167803E+05 -5.273911E+04  1.158430E+04
       170   7 -4.434299E+05 -4.017239E+04 -6.746043E+04 -1.062729E+05 -1.377469E+05 -4.192970E+04
       170   8 -4.103534E+05  1.003314E+05  4.791075E+04 -2.113147E+05 -1.018898E+05 -7.331537E+03
       170   9 -4.379611E+05  3.206785E+04  7.885366E+04 -2.855914E+05 -5.921061E+04  9.150067E+03
       170  10 -1.640726E+06 -6.433397E+05 -4.187343E+05 -5.882607E+05  6.674369E-10  8.807319E-11
       170  11 -1.584111E+06 -3.879709E+05 -2.561213E+05 -5.834648E+05 -3.713909E-10  5.379069E-11
       170  12 -1.593647E+06 -3.469085E+05 -1.993010E+05 -5.478657E+05 -5.415558E-10 -1.851288E-10
       170  13 -1.042268E+06 -3.418153E+05 -2.430991E+05 -3.473874E+05 -5.466629E-11 -3.184294E-11
       170  14 -9.974076E+05 -1.438439E+05 -1.041006E+05 -3.974739E+05  1.136314E-09 -6.379351E-11
       170  15 -1.015971E+06 -1.574234E+05 -6.021534E+04 -4.167798E+05  8.496052E-10 -2.648452E-10
       170  16 -4.434508E+05 -4.017938E+04 -6.749942E+04 -1.062776E+05  4.309579E-10 -1.383350E-10
       170  17 -4.103646E+05  1.003286E+05  4.789112E+04 -2.113153E+05  1.414605E-09 -4.359331E-10
       170  18 -4.379649E+05  3.206682E+04  7.884691E+04 -2.855910E+05 -6.539500E-11 -4.759519E-10
       170  19 -1.640691E+06 -6.433276E+05 -4.186683E+05 -5.882524E+05  1.782668E+05  5.715037E+04
       170  20 -1.584097E+06 -3.879672E+05 -2.560958E+05 -5.834636E+05  1.156875E+05  1.251240E+04
       170  21 -1.593644E+06 -3.469077E+05 -1.992966E+05 -5.478662E+05  4.627420E+04 -1.401675E+04
       170  22 -1.042240E+06 -3.418059E+05 -2.430475E+05 -3.473811E+05  1.580175E+05  4.954717E+04
       170  23 -9.973949E+05 -1.438406E+05 -1.040781E+05 -3.974730E+05  1.087922E+05  9.923661E+03
       170  24 -1.015968E+06 -1.574225E+05 -6.020985E+04 -4.167803E+05  5.273911E+04 -1.158430E+04
       170  25 -4.434299E+05 -4.017239E+04 -6.746043E+04 -1.062729E+05  1.377469E+05  4.192970E+04
       170  26 -4.103534E+05  1.003314E+05  4.791075E+04 -2.113147E+05  1.018898E+05  7.331537E+03
       170  27 -4.379611E+05  3.206785E+04  7.885366E+04 -2.855914E+05  5.921061E+04 -9.150067E+03
       171   1 -1.517837E+06 -3.735562E+05 -1.767016E+05 -5.490203E+05 -4.255994E+04  1.130381E+04
       171   2 -1.476230E+06 -3.298403E+05 -1.403065E+05 -5.267691E+05 -2.887824E+04  1.458656E+04
       171   3 -1.423672E+06 -3.187641E+05 -1.175840E+05 -5.217247E+05 -1.485762E+04  1.696592E+04
       171   4 -1.008015E+06 -1.782761E+05 -4.814337E+04 -4.046170E+05 -4.345312E+04  1.096585E+04
       171   5 -1.012599E+06 -1.553283E+05 -2.429803E+04 -3.985251E+05 -3.042987E+04  1.400189E+04
       171   6 -1.006098E+06 -1.648818E+05 -1.359373E+04 -4.096411E+05 -1.706883E+04  1.613431E+04
       171   7 -4.979397E+05  1.702380E+04  8.039351E+04 -2.601052E+05 -4.434710E+04  1.062759E+04
       171   8 -5.487563E+05  1.919867E+04  9.169357E+04 -2.701937E+05 -3.198276E+04  1.341673E+04
       171   9 -5.883499E+05 -1.098854E+04  9.038346E+04 -2.974890E+05 -1.928168E+04  1.530211E+04
       171  10 -1.517838E+06 -3.735568E+05 -1.767052E+05 -5.490199E+05 -1.445599E-09 -2.138348E-10
       171  11 -1.476231E+06 -3.298407E+05 -1.403085E+05 -5.267688E+05 -1.004267E-09  2.253937E-10
       171  12 -1.423673E+06 -3.187645E+05 -1.175850E+05 -5.217245E+05  1.180551E-10 -8.166858E-11
       171  13 -1.008017E+06 -1.782767E+05 -4.814715E+04 -4.046166E+05 -8.216680E-10 -1.266471E-10
       171  14 -1.012600E+06 -1.553288E+05 -2.430014E+04 -3.985247E+05 -8.147890E-10 -3.553514E-11
       171  15 -1.006098E+06 -1.648822E+05 -1.359477E+04 -4.096408E+05 -7.903200E-10 -9.946611E-11
       171  16 -4.979418E+05  1.702315E+04  8.038960E+04 -2.601048E+05  6.009091E-10 -1.761421E-11
       171  17 -5.487574E+05  1.919820E+04  9.169131E+04 -2.701934E+05 -1.069121E-10 -3.718037E-11
       171  18 -5.883504E+05 -1.098889E+04  9.038232E+04 -2.974888E+05  1.085382E-10 -2.099060E-10
       171  19 -1.517837E+06 -3.735562E+05 -1.767016E+05 -5.490203E+05  4.255994E+04 -1.130381E+04
       171  20 -1.476230E+06 -3.298403E+05 -1.403065E+05 -5.267691E+05  2.887824E+04 -1.458656E+04
       171  21 -1.423672E+06 -3.187641E+05 -1.175840E+05 -5.217247E+05  1.485762E+04 -1.696592E+04
       171  22 -1.008015E+06 -1.782761E+05 -4.814337E+04 -4.046170E+05  4.345312E+04 -1.096585E+04
       171  23 -1.012599E+06 -1.553283E+05 -2.429803E+04 -3.985251E+05  3.042987E+04 -1.400189E+04
       171  24 -1.006098E+06 -1.648818E+05 -1.359373E+04 -4.096411E+05  1.706883E+04 -1.613431E+04
       171  25 -4.979397E+05  1.702380E+04  8.039351E+04 -2.601052E+05  4.434710E+04 -1.062759E+04
       171  26 -5.487563E+05  1.919867E+04  9.169357E+04 -2.701937E+05  3.198276E+04 -1.341673E+04
       171  27 -5.883499E+05 -1.098854E+04  9.038346E+04 -2.974890E+05  1.928168E+04 -1.530211E+04
       172   1 -1.375040E+06 -3.046498E+05 -1.025784E+05 -5.101386E+05 -1.257054E+04  1.591951E+04
       172   2 -1.334285E+06 -2.757746E+05 -8.552493E+04 -4.861305E+05 -8.716600E+03  1.432705E+04
       172   3 -1.275865E+06 -2.663730E+05 -7.087041E+04 -4.829746E+05 -4.841790E+03  1.267509E+04
       172   4 -1.005251E+06 -1.664143E+05 -1.041035E+04 -4.087824E+05 -1.452339E+04  1.518534E+04
       172   5 -1.014014E+06 -1.562037E+05 -5.604329E+03 -3.985335E+05 -1.071171E+04  1.357758E+04
       172   6 -1.005105E+06 -1.654571E+05 -3.162363E+03 -4.091367E+05 -6.879422E+03  1.191025E+04
       172   7 -6.353274E+05 -2.816965E+04  8.174697E+04 -3.073714E+05 -1.647751E+04  1.445070E+04
       172   8 -6.936422E+05 -3.662635E+04  7.430805E+04 -3.108957E+05 -1.270794E+04  1.282769E+04
       172   9 -7.342736E+05 -6.453682E+04  6.453961E+04 -3.352700E+05 -8.918017E+03  1.114505E+04
       172  10 -1.375040E+06 -3.046501E+05 -1.025791E+05 -5.101385E+05 -7.633995E-10 -3.968394E-10
       172  11 -1.334285E+06 -2.757749E+05 -8.552545E+04 -4.861304E+05  3.081310E-10 -2.671349E-12
       172  12 -1.275865E+06 -2.663732E+05 -7.087075E+04 -4.829745E+05  6.089938E-11  3.769379E-10
       172  13 -1.005251E+06 -1.664146E+05 -1.041118E+04 -4.087823E+05 -1.009339E-10 -2.021697E-10
       172  14 -1.014014E+06 -1.562040E+05 -5.604891E+03 -3.985334E+05 -8.558976E-10  1.091087E-11
       172  15 -1.005105E+06 -1.654572E+05 -3.162718E+03 -4.091367E+05 -9.037704E-10  2.334467E-10
       172  16 -6.353278E+05 -2.816995E+04  8.174607E+04 -3.073712E+05  3.510559E-10 -4.376277E-11
       172  17 -6.936425E+05 -3.662657E+04  7.430744E+04 -3.108956E+05 -7.744008E-10  8.114034E-11
       172  18 -7.342738E+05 -6.453698E+04  6.453923E+04 -3.352699E+05 -1.620824E-10  2.495221E-10
       172  19 -1.375040E+06 -3.046498E+05 -1.025784E+05 -5.101386E+05  1.257054E+04 -1.591951E+04
       172  20 -1.334285E+06 -2.757746E+05 -8.552493E+04 -4.861305E+05  8.716600E+03 -1.432705E+04
       172  21 -1.275865E+06 -2.663730E+05 -7.087041E+04 -4.829746E+05  4.841790E+03 -1.267509E+04
       172  22 -1.005251E+06 -1.664143E+05 -1.041035E+04 -4.087824E+05  1.452339E+04 -1.518534E+04
       172  23 -1.014014E+06 -1.562037E+05 -5.604329E+03 -3.985335E+05  1.071171E+04 -1.357758E+04
       172  24 -1.005105E+06 -1.654571E+05 -3.162363E+03 -4.091367E+05  6.879422E+03 -1.191025E+04
       172  25 -6.353274E+05 -2.816965E+04  8.174697E+04 -3.073714E+05  1.647751E+04 -1.445070E+04
       172  26 -6.936422E+05 -3.662635E+04  7.430805E+04 -3.108957E+05  1.270794E+04 -1.282769E+04
       172  27 -7.342736E+05 -6.453682E+04  6.453961E+04 -3.352700E+05  8.918017E+03 -1.114505E+04
       173   1 -1.228657E+06 -2.490425E+05 -5.807261E+04 -4.702767E+05 -3.785118E+03  1.124425E+04
       173   2 -1.187576E+06 -2.209041E+05 -4.475142E+04 -4.458568E+05 -1.997949E+03  8.776698E+03
       173   3 -1.127997E+06 -2.114653E+05 -3.201054E+04 -4.427597E+05 -2.075754E+02  6.298309E+03
       173   4 -1.004961E+06 -1.656011E+05 -2.442302E+03 -4.091213E+05 -5.817990E+03  1.048148E+04
       173   5 -1.014200E+06 -1.562152E+05 -1.499091E+03 -3.984721E+05 -4.038574E+03  8.011324E+03
       173   6 -1.004945E+06 -1.655274E+05 -1.130099E+03 -4.091464E+05 -2.256026E+03  5.530319E+03
       173   7 -7.812138E+05 -8.215598E+04  5.318440E+04 -3.479456E+05 -7.851672E+03  9.718409E+03
       173   8 -8.407944E+05 -9.152409E+04  4.175101E+04 -3.510752E+05 -6.079826E+03  7.245714E+03
       173   9 -8.818775E+05 -1.195886E+05  2.974917E+04 -3.755271E+05 -4.304921E+03  4.762161E+03
       173  10 -1.228657E+06 -2.490426E+05 -5.807287E+04 -4.702766E+05 -2.853940E-10  4.937228E-10
       173  11 -1.187576E+06 -2.209042E+05 -4.475157E+04 -4.458568E+05 -3.216142E-10  1.933716E-10
       173  12 -1.127997E+06 -2.114653E+05 -3.201061E+04 -4.427597E+05  3.396082E-10  2.567141E-11
       173  13 -1.004961E+06 -1.656012E+05 -2.442572E+03 -4.091212E+05 -8.796615E-10  2.695184E-10
       173  14 -1.014200E+06 -1.562152E+05 -1.499242E+03 -3.984720E+05 -2.002432E-10  2.482056E-10
       173  15 -1.004945E+06 -1.655275E+05 -1.130166E+03 -4.091464E+05  1.120357E-10 -1.816376E-11
       173  16 -7.812139E+05 -8.215610E+04  5.318410E+04 -3.479455E+05 -4.855034E-10  2.000080E-10
       173  17 -8.407945E+05 -9.152416E+04  4.175084E+04 -3.510751E+05  5.756637E-11 -8.071020E-11
       173  18 -8.818775E+05 -1.195887E+05  2.974909E+04 -3.755271E+05  1.561988E-10 -8.111267E-11
       173  19 -1.228657E+06 -2.490425E+05 -5.807261E+04 -4.702767E+05  3.785118E+03 -1.124425E+04
       173  20 -1.187576E+06 -2.209041E+05 -4.475142E+04 -4.458568E+05  1.997949E+03 -8.776698E+03
       173  21 -1.127997E+06 -2.114653E+05 -3.201054E+04 -4.427597E+05  2.075754E+02 -6.298309E+03
       173  22 -1.004961E+06 -1.656011E+05 -2.442302E+03 -4.091213E+05  5.817990E+03 -1.048148E+04
       173  23 -1.014200E+06 -1.562152E+05 -1.499091E+03 -3.984721E+05  4.038574E+03 -8.011324E+03
       173  24 -1.004945E+06 -1.655274E+05 -1.130099E+03 -4.091464E+05  2.256026E+03 -5.530319E+03
       173  25 -7.812138E+05 -8.215598E+04  5.318440E+04 -3.479456E+05  7.851672E+03 -9.718409E+03
       173  26 -8.407944E+05 -9.152409E+04  4.175101E+04 -3.510752E+05  6.079826E+03 -7.245714E+03
       173  27 -8.818775E+05 -1.195886E+05  2.974917E+04 -3.755271E+05  4.304921E+03 -4.762161E+03
       174   1 -1.080581E+06 -1.937612E+05 -1.979785E+04 -4.298765E+05  5.852044E+02  4.757041E+03
       174   2 -1.039269E+06 -1.655483E+05 -7.599494E+03 -4.053117E+05  2.295412E+03  2.237756E+03
       174   3 -9.793718E+05 -1.561181E+05  4.079001E+03 -4.021906E+05  4.005487E+03 -2.814615E+02
       174   4 -1.004923E+06 -1.655501E+05 -1.104653E+03 -4.091708E+05 -1.466652E+03  3.987892E+03
       174   5 -1.014217E+06 -1.561787E+05 -1.346327E+03 -3.984409E+05  2.435652E+02  1.468653E+03
       174   6 -1.004929E+06 -1.655902E+05 -2.107770E+03 -4.091556E+05  1.953591E+03 -1.050534E+03
       174   7 -9.292604E+05 -1.373388E+05  1.758804E+04 -3.884629E+05 -3.518774E+03  3.218643E+03
       174   8 -9.891647E+05 -1.468091E+05  4.906810E+03 -3.915698E+05 -1.808373E+03  6.995156E+02
       174   9 -1.030485E+06 -1.750623E+05 -8.294602E+03 -4.161204E+05 -9.822197E+01 -1.819576E+03
       174  10 -1.080581E+06 -1.937612E+05 -1.979790E+04 -4.298765E+05 -1.141627E-10 -2.256403E-10
       174  11 -1.039269E+06 -1.655483E+05 -7.599514E+03 -4.053117E+05  1.903669E-10  2.532754E-10
       174  12 -9.793719E+05 -1.561181E+05  4.078971E+03 -4.021906E+05  2.359677E-10  7.138278E-11
       174  13 -1.004923E+06 -1.655501E+05 -1.104686E+03 -4.091708E+05  4.160865E-11  3.054710E-11
       174  14 -1.014217E+06 -1.561787E+05 -1.346331E+03 -3.984409E+05 -2.443439E-10 -6.714999E-11
       174  15 -1.004929E+06 -1.655902E+05 -2.107780E+03 -4.091556E+05  7.284574E-10  1.308621E-10
       174  16 -9.292604E+05 -1.373388E+05  1.758800E+04 -3.884629E+05 -1.429108E-10  1.802499E-10
       174  17 -9.891648E+05 -1.468091E+05  4.906803E+03 -3.915698E+05 -2.091842E-10  1.848379E-10
       174  18 -1.030485E+06 -1.750623E+05 -8.294609E+03 -4.161204E+05 -1.496421E-10  1.114966E-10
       174  19 -1.080581E+06 -1.937612E+05 -1.979785E+04 -4.298765E+05 -5.852044E+02 -4.757041E+03
       174  20 -1.039269E+06 -1.655483E+05 -7.599494E+03 -4.053117E+05 -2.295412E+03 -2.237756E+03
       174  21 -9.793718E+05 -1.561181E+05  4.079001E+03 -4.021906E+05 -4.005487E+03  2.814615E+02
       174  22 -1.004923E+06 -1.655501E+05 -1.104653E+03 -4.091708E+05  1.466652E+03 -3.987892E+03
       174  23 -1.014217E+06 -1.561787E+05 -1.346327E+03 -3.984409E+05 -2.435652E+02 -1.468653E+03
       174  24 -1.004929E+06 -1.655902E+05 -2.107770E+03 -4.091556E+05 -1.953591E+03  1.050534E+03
       174  25 -9.292604E+05 -1.373388E+05  1.758804E+04 -3.884629E+05  3.518774E+03 -3.218643E+03
       174  26 -9.891647E+05 -1.468091E+05  4.906810E+03 -3.915698E+05  1.808373E+03 -6.995156E+02
       174  27 -1.030485E+06 -1.750623E+05 -8.294602E+03 -4.161204E+05  9.822197E+01  1.819576E+03
       175   1 -9.319114E+05 -1.383710E+05  1.568004E+04 -3.894192E+05  5.015456E+03 -1.747130E+03
       175   2 -8.906042E+05 -1.100723E+05  2.604529E+04 -3.647252E+05  8.407045E+03 -3.626297E+03
       175   3 -8.312832E+05 -1.013559E+05  3.441444E+04 -3.612735E+05  1.178555E+04 -5.468399E+03
       175   4 -1.005021E+06 -1.655051E+05 -2.707790E+03 -4.092105E+05  2.955715E+03 -2.519201E+03
       175   5 -1.014082E+06 -1.561064E+05 -4.749012E+03 -3.984417E+05  6.374090E+03 -4.388557E+03
       175   6 -1.005137E+06 -1.662958E+05 -8.807748E+03 -4.089165E+05  9.779161E+03 -6.220910E+03
       175   7 -1.078125E+06 -1.926388E+05 -2.109602E+04 -4.289996E+05  8.962406E+02 -3.291175E+03
       175   8 -1.137545E+06 -2.021394E+05 -3.554441E+04 -4.321520E+05  4.341582E+03 -5.150649E+03
       175   9 -1.178961E+06 -2.312335E+05 -5.203206E+04 -4.565472E+05  7.773396E+03 -6.973186E+03
       175  10 -9.319114E+05 -1.383710E+05  1.567998E+04 -3.894192E+05 -4.784366E-10 -2.072366E-11
       175  11 -8.906042E+05 -1.100723E+05  2.604513E+04 -3.647251E+05  1.001562E-09  1.139248E-10
       175  12 -8.312834E+05 -1.013559E+05  3.441412E+04 -3.612734E+05 -2.946840E-11  4.040444E-11
       175  13 -1.005021E+06 -1.655051E+05 -2.707818E+03 -4.092104E+05  4.464365E-10  2.919966E-11
       175  14 -1.014082E+06 -1.561064E+05 -4.749125E+03 -3.984416E+05  2.984820E-10  7.488426E-12
       175  15 -1.005138E+06 -1.662959E+05 -8.808000E+03 -4.089164E+05 -4.431036E-10  2.381294E-11
       175  16 -1.078125E+06 -1.926388E+05 -2.109604E+04 -4.289996E+05  1.603236E-10  2.345670E-10
       175  17 -1.137545E+06 -2.021394E+05 -3.554450E+04 -4.321520E+05 -6.780644E-10  2.441359E-10
       175  18 -1.178961E+06 -2.312336E+05 -5.203226E+04 -4.565471E+05 -3.930929E-10 -8.120789E-12
       175  19 -9.319114E+05 -1.383710E+05  1.568004E+04 -3.894192E+05 -5.015456E+03  1.747130E+03
       175  20 -8.906042E+05 -1.100723E+05  2.604529E+04 -3.647252E+05 -8.407045E+03  3.626297E+03
       175  21 -8.312832E+05 -1.013559E+05  3.441444E+04 -3.612735E+05 -1.178555E+04  5.468399E+03
       175  22 -1.005021E+06 -1.655051E+05 -2.707790E+03 -4.092105E+05 -2.955715E+03  2.519201E+03
       175  23 -1.014082E+06 -1.561064E+05 -4.749012E+03 -3.984417E+05 -6.374090E+03  4.388557E+03
       175  24 -1.005137E+06 -1.662958E+05 -8.807748E+03 -4.089165E+05 -9.779161E+03  6.220910E+03
       175  25 -1.078125E+06 -1.926388E+05 -2.109602E+04 -4.289996E+05 -8.962406E+02  3.291175E+03
       175  26 -1.137545E+06 -2.021394E+05 -3.554441E+04 -4.321520E+05 -4.341582E+03  5.150649E+03
       175  27 -1.178961E+06 -2.312335E+05 -5.203206E+04 -4.565472E+05 -7.773396E+03  6.973186E+03
       176   1 -7.834084E+05 -8.383518E+04  4.381398E+04 -3.507605E+05  1.422752E+04 -6.463882E+03
       176   2 -7.426514E+05 -5.343423E+04  4.710125E+04 -3.234318E+05  2.522890E+04 -5.346045E+03
       176   3 -6.892494E+05 -5.367161E+04  3.964574E+04 -3.144285E+05  3.598878E+04 -3.578266E+03
       176   4 -1.005828E+06 -1.650298E+05 -1.149708E+04 -4.096745E+05  1.203113E+04 -7.287834E+03
       176   5 -1.012905E+06 -1.553163E+05 -2.052992E+04 -3.983928E+05  2.350889E+04 -5.991878E+03
       176   6 -1.007439E+06 -1.763410E+05 -4.068758E+04 -4.054386E+05  3.474424E+04 -4.046257E+03
       176   7 -1.228199E+06 -2.462220E+05 -6.681223E+04 -4.685698E+05  9.835587E+03 -8.111484E+03
       176   8 -1.283088E+06 -2.571933E+05 -8.816699E+04 -4.733242E+05  2.178969E+04 -6.637399E+03
       176   9 -1.325529E+06 -2.990018E+05 -1.210290E+05 -4.964057E+05  3.350040E+04 -4.513968E+03
       176  10 -7.834087E+05 -8.383528E+04  4.381352E+04 -3.507604E+05  5.013381E-10  5.087700E-11
       176  11 -7.426520E+05 -5.343443E+04  4.709999E+04 -3.234317E+05  9.905125E-10 -3.903811E-10
       176  12 -6.892508E+05 -5.367198E+04  3.964328E+04 -3.144284E+05  4.969386E-10 -1.289209E-10
       176  13 -1.005828E+06 -1.650299E+05 -1.149745E+04 -4.096744E+05  6.772451E-10 -1.374586E-10
       176  14 -1.012906E+06 -1.553165E+05 -2.053102E+04 -3.983927E+05  5.872403E-11 -2.581699E-10
       176  15 -1.007440E+06 -1.763413E+05 -4.068989E+04 -4.054385E+05  5.284059E-11 -5.102916E-11
       176  16 -1.228199E+06 -2.462221E+05 -6.681254E+04 -4.685697E+05 -7.742092E-10 -1.866143E-10
       176  17 -1.283089E+06 -2.571935E+05 -8.816796E+04 -4.733241E+05 -9.546431E-11 -3.067352E-10
       176  18 -1.325530E+06 -2.990022E+05 -1.210312E+05 -4.964056E+05  4.231419E-11  5.654331E-11
       176  19 -7.834084E+05 -8.383518E+04  4.381398E+04 -3.507605E+05 -1.422752E+04  6.463882E+03
       176  20 -7.426514E+05 -5.343423E+04  4.710125E+04 -3.234318E+05 -2.522890E+04  5.346045E+03
       176  21 -6.892494E+05 -5.367161E+04  3.964574E+04 -3.144285E+05 -3.598878E+04  3.578266E+03
       176  22 -1.005828E+06 -1.650298E+05 -1.149708E+04 -4.096745E+05 -1.203113E+04  7.287834E+03
       176  23 -1.012905E+06 -1.553163E+05 -2.052992E+04 -3.983928E+05 -2.350889E+04  5.991878E+03
       176  24 -1.007439E+06 -1.763410E+05 -4.068758E+04 -4.054386E+05 -3.474424E+04  4.046257E+03
       176  25 -1.228199E+06 -2.462220E+05 -6.681223E+04 -4.685698E+05 -9.835587E+03  8.111484E+03
       176  26 -1.283088E+06 -2.571933E+05 -8.816699E+04 -4.733242E+05 -2.178969E+04  6.637399E+03
       176  27 -1.325529E+06 -2.990018E+05 -1.210290E+05 -4.964057E+05 -3.350040E+04  4.513968E+03
       177   1 -6.301621E+05 -3.781208E+04  4.063798E+04 -3.337744E+05  4.788782E+04 -2.627521E+03
       177   2 -5.991163E+05  2.490249E+04  1.658815E+04 -2.664923E+05  8.590618E+04  1.102009E+04
       177   3 -6.163064E+05 -9.269585E+04 -8.014150E+04 -1.772655E+05  1.190032E+05  3.777693E+04
       177   4 -1.014139E+06 -1.587405E+05 -5.088561E+04 -4.157459E+05  4.260622E+04 -4.609283E+03
       177   5 -1.000089E+06 -1.455496E+05 -8.794621E+04 -3.974517E+05  9.030524E+04  1.266807E+04
       177   6 -1.036246E+06 -3.146690E+05 -2.054032E+05 -3.572041E+05  1.330794E+05  4.305165E+04
       177   7 -1.397970E+06 -2.796681E+05 -1.424189E+05 -4.976756E+05  3.732822E+04 -6.590178E+03
       177   8 -1.400903E+06 -3.159772E+05 -1.924939E+05 -5.283295E+05  9.470118E+04  1.431450E+04
       177   9 -1.456004E+06 -5.365741E+05 -3.306811E+05 -5.370162E+05  1.471451E+05  4.831880E+04
       177  10 -6.301646E+05 -3.781270E+04  4.063366E+04 -3.337743E+05  1.014611E-10  2.727499E-10
       177  11 -5.991242E+05  2.490038E+04  1.657404E+04 -2.664930E+05  7.011082E-10  3.290648E-10
       177  12 -6.163221E+05 -9.270119E+04 -8.017083E+04 -1.772691E+05 -1.092113E-10  4.224209E-10
       177  13 -1.014141E+06 -1.587411E+05 -5.088906E+04 -4.157457E+05 -4.205941E-10  2.081957E-10
       177  14 -1.000098E+06 -1.455519E+05 -8.796186E+04 -3.974526E+05 -4.931217E-10  3.938699E-10
       177  15 -1.036265E+06 -3.146757E+05 -2.054400E+05 -3.572087E+05  2.535781E-10  3.587512E-10
       177  16 -1.397972E+06 -2.796685E+05 -1.424216E+05 -4.976754E+05  6.083797E-12  1.461994E-10
       177  17 -1.400913E+06 -3.159799E+05 -1.925112E+05 -5.283306E+05 -9.481509E-10  3.844881E-10
       177  18 -1.456028E+06 -5.365825E+05 -3.307263E+05 -5.370219E+05 -6.294250E-10  5.988596E-11
       177  19 -6.301621E+05 -3.781208E+04  4.063798E+04 -3.337744E+05 -4.788782E+04  2.627521E+03
       177  20 -5.991163E+05  2.490249E+04  1.658815E+04 -2.664923E+05 -8.590618E+04 -1.102009E+04
       177  21 -6.163064E+05 -9.269585E+04 -8.014150E+04 -1.772655E+05 -1.190032E+05 -3.777693E+04
       177  22 -1.014139E+06 -1.587405E+05 -5.088561E+04 -4.157459E+05 -4.260622E+04  4.609283E+03
       177  23 -1.000089E+06 -1.455496E+05 -8.794621E+04 -3.974517E+05 -9.030524E+04 -1.266807E+04
       177  24 -1.036246E+06 -3.146690E+05 -2.054032E+05 -3.572041E+05 -1.330794E+05 -4.305165E+04
       177  25 -1.397970E+06 -2.796681E+05 -1.424189E+05 -4.976756E+05 -3.732822E+04  6.590178E+03
       177  26 -1.400903E+06 -3.159772E+05 -1.924939E+05 -5.283295E+05 -9.470118E+04 -1.431450E+04
       177  27 -1.456004E+06 -5.365741E+05 -3.306811E+05 -5.370162E+05 -1.471451E+05 -4.831880E+04
       178   1 -1.121672E+06 -2.578312E+05 -2.189914E+05 -2.241367E+04  6.672589E+04  2.003023E+04
       178   2 -1.003509E+06 -3.641055E+05 -2.558247E+05 -3.040655E+04  5.859254E+04  6.185195E+04
       178   3 -8.483872E+05 -3.318346E+05 -2.524979E+05 -1.019202E+05  5.053827E+04  6.267026E+04
       178   4  4.725702E+05  1.385282E+05  1.694124E+05 -8.075490E+04  1.162365E+05  2.011795E+04
       178   5  4.513926E+05 -6.682630E+03  7.616496E+04 -4.888220E+04  7.559207E+04  6.186435E+04
       178   6  4.727088E+05 -7.883221E+03  4.557303E+04 -8.051636E+04  3.503138E+04  6.264921E+04
       178   7  2.069146E+06  5.347148E+05  5.576427E+05 -1.392475E+05  1.658738E+05  2.019625E+04
       178   8  1.908260E+06  3.505950E+05  4.080178E+05 -6.740222E+04  9.263098E+04  6.187572E+04
       178   9  1.795430E+06  3.159502E+05  3.435334E+05 -5.906676E+04  1.949172E+04  6.262712E+04
       178  10 -1.121677E+06 -2.578328E+05 -2.190005E+05 -2.241475E+04  8.431436E-10  2.685984E-10
       178  11 -1.003514E+06 -3.641106E+05 -2.558384E+05 -3.040947E+04 -2.995981E-10 -5.784787E-10
       178  12 -8.483910E+05 -3.318395E+05 -2.525101E+05 -1.019227E+05 -1.384310E-09 -1.138206E-11
       178  13  4.725556E+05  1.385241E+05  1.693862E+05 -8.075678E+04  5.079445E-10 -6.336231E-10
       178  14  4.513855E+05 -6.688273E+03  7.614703E+04 -4.888597E+04  9.632051E-10 -2.977025E-10
       178  15  4.727064E+05 -7.887766E+03  4.556335E+04 -8.051813E+04 -1.067406E-09 -2.356053E-10
       178  16  2.069116E+06  5.347070E+05  5.575904E+05 -1.392502E+05  1.755848E-10  6.389443E-10
       178  17  1.908249E+06  3.505886E+05  4.079945E+05 -6.740683E+04 -4.461467E-10 -5.126954E-10
       178  18  1.795428E+06  3.159459E+05  3.435254E+05 -5.906774E+04  7.444966E-10 -1.332060E-10
       178  19 -1.121672E+06 -2.578312E+05 -2.189914E+05 -2.241367E+04 -6.672589E+04 -2.003023E+04
       178  20 -1.003509E+06 -3.641055E+05 -2.558247E+05 -3.040655E+04 -5.859254E+04 -6.185195E+04
       178  21 -8.483872E+05 -3.318346E+05 -2.524979E+05 -1.019202E+05 -5.053827E+04 -6.267026E+04
       178  22  4.725702E+05  1.385282E+05  1.694124E+05 -8.075490E+04 -1.162365E+05 -2.011795E+04
       178  23  4.513926E+05 -6.682630E+03  7.616496E+04 -4.888220E+04 -7.559207E+04 -6.186435E+04
       178  24  4.727088E+05 -7.883221E+03  4.557303E+04 -8.051636E+04 -3.503138E+04 -6.264921E+04
       178  25  2.069146E+06  5.347148E+05  5.576427E+05 -1.392475E+05 -1.658738E+05 -2.019625E+04
       178  26  1.908260E+06  3.505950E+05  4.080178E+05 -6.740222E+04 -9.263098E+04 -6.187572E+04
       178  27  1.795430E+06  3.159502E+05  3.435334E+05 -5.906676E+04 -1.949172E+04 -6.262712E+04
       179   1 -7.352339E+05 -2.855066E+05 -2.355256E+05 -7.813934E+04  3.142837E+04  5.415211E+04
       179   2 -6.022887E+05 -2.618954E+05 -2.212690E+05 -4.802007E+04  2.312816E+04  4.934017E+04
       179   3 -4.652569E+05 -2.286424E+05 -1.990635E+05 -8.223678E+04  1.481704E+04  4.265796E+04
       179   4  4.642918E+05  8.848955E+03  3.649863E+04 -8.076326E+04  2.840127E+04  5.414283E+04
       179   5  4.621738E+05 -8.339040E+02  1.943871E+04 -4.859746E+04  1.860371E+04  4.933329E+04
       179   6  4.643755E+05 -6.245535E+02  1.135553E+04 -8.076036E+04  8.796993E+03  4.265494E+04
       179   7  1.665154E+06  3.031054E+05  3.084300E+05 -8.339240E+04  2.536833E+04  5.413358E+04
       179   8  1.527689E+06  2.601497E+05  2.600737E+05 -4.917585E+04  1.407154E+04  4.932642E+04
       179   9  1.394811E+06  2.273339E+05  2.217191E+05 -7.928161E+04  2.768005E+03  4.265190E+04
       179  10 -7.352357E+05 -2.855100E+05 -2.355330E+05 -7.814071E+04  1.089435E-10 -2.268783E-10
       179  11 -6.022899E+05 -2.618982E+05 -2.212746E+05 -4.802099E+04 -5.802690E-10 -6.158748E-10
       179  12 -4.652576E+05 -2.286444E+05 -1.990674E+05 -8.223729E+04 -1.187605E-09  4.072404E-10
       179  13  4.642901E+05  8.845590E+03  3.649160E+04 -8.076449E+04  9.819232E-10 -5.698103E-10
       179  14  4.621728E+05 -8.366109E+02  1.943349E+04 -4.859819E+04 -1.096639E-09  1.490627E-10
       179  15  4.643749E+05 -6.265285E+02  1.135196E+04 -8.076066E+04 -9.547263E-11  6.732929E-10
       179  16  1.665153E+06  3.031020E+05  3.084233E+05 -8.339351E+04  2.406244E-10  1.468303E-10
       179  17  1.527688E+06  2.601470E+05  2.600688E+05 -4.917641E+04  3.901626E-10  5.016169E-11
       179  18  1.394810E+06  2.273319E+05  2.217157E+05 -7.928170E+04  8.381215E-10  6.766164E-10
       179  19 -7.352339E+05 -2.855066E+05 -2.355256E+05 -7.813934E+04 -3.142837E+04 -5.415211E+04
       179  20 -6.022887E+05 -2.618954E+05 -2.212690E+05 -4.802007E+04 -2.312816E+04 -4.934017E+04
       179  21 -4.652569E+05 -2.286424E+05 -1.990635E+05 -8.223678E+04 -1.481704E+04 -4.265796E+04
       179  22  4.642918E+05  8.848955E+03  3.649863E+04 -8.076326E+04 -2.840127E+04 -5.414283E+04
       179  23  4.621738E+05 -8.339040E+02  1.943871E+04 -4.859746E+04 -1.860371E+04 -4.933329E+04
       179  24  4.643755E+05 -6.245535E+02  1.135553E+04 -8.076036E+04 -8.796993E+03 -4.265494E+04
       179  25  1.665154E+06  3.031054E+05  3.084300E+05 -8.339240E+04 -2.536833E+04 -5.413358E+04
       179  26  1.527689E+06  2.601497E+05  2.600737E+05 -4.917585E+04 -1.407154E+04 -4.932642E+04
       179  27  1.394811E+06  2.273339E+05  2.217191E+05 -7.928161E+04 -2.768005E+03 -4.265190E+04
       180   1 -3.459391E+05 -1.979484E+05 -1.738531E+05 -8.047765E+04  1.246196E+04  3.836511E+04
       180   2 -2.120608E+05 -1.656937E+05 -1.476483E+05 -4.847002E+04  1.006366E+04  3.145410E+04
       180   3 -7.754196E+04 -1.326840E+05 -1.196659E+05 -8.046737E+04  7.657980E+03  2.446760E+04
       180   4  4.636057E+05  4.750988E+02  8.741408E+03 -8.068803E+04  7.025710E+03  3.836393E+04
       180   5  4.633143E+05 -1.126692E+02  4.954492E+03 -4.868783E+04  4.564180E+03  3.145537E+04
       180   6  4.636567E+05  6.598179E+01  2.987781E+03 -8.068837E+04  2.095777E+03  2.447141E+04
       180   7  1.273760E+06  1.988536E+05  1.912941E+05 -8.089858E+04  1.582438E+03  3.836276E+04
       180   8  1.139113E+06  1.654370E+05  1.575281E+05 -4.890581E+04 -9.412269E+02  3.145663E+04
       180   9  1.005127E+06  1.327958E+05  1.256227E+05 -8.090949E+04 -3.471230E+03  2.447522E+04
       180  10 -3.459396E+05 -1.979500E+05 -1.738562E+05 -8.047803E+04  8.781021E-11  7.761123E-10
       180  11 -2.120612E+05 -1.656948E+05 -1.476503E+05 -4.847027E+04  4.582283E-10  1.579219E-10
       180  12 -7.754218E+04 -1.326846E+05 -1.196671E+05 -8.046752E+04 -7.959939E-10 -4.211139E-10
       180  13  4.636052E+05  4.735047E+02  8.738548E+03 -8.068824E+04 -1.611429E-09  3.903757E-10
       180  14  4.633140E+05 -1.137375E+02  4.952593E+03 -4.868795E+04 -8.076593E-10  1.118495E-10
       180  15  4.636565E+05  6.533740E+01  2.986647E+03 -8.068841E+04 -1.389816E-09  5.367424E-10
       180  16  1.273759E+06  1.988521E+05  1.912913E+05 -8.089863E+04 -6.938213E-10  3.948789E-10
       180  17  1.139113E+06  1.654360E+05  1.575262E+05 -4.890578E+04 -4.157332E-11 -6.156534E-10
       180  18  1.005127E+06  1.327951E+05  1.256216E+05 -8.090942E+04  7.543648E-12 -3.512792E-10
       180  19 -3.459391E+05 -1.979484E+05 -1.738531E+05 -8.047765E+04 -1.246196E+04 -3.836511E+04
       180  20 -2.120608E+05 -1.656937E+05 -1.476483E+05 -4.847002E+04 -1.006366E+04 -3.145410E+04
       180  21 -7.754196E+04 -1.326840E+05 -1.196659E+05 -8.046737E+04 -7.657980E+03 -2.446760E+04
       180  22  4.636057E+05  4.750988E+02  8.741408E+03 -8.068803E+04 -7.025710E+03 -3.836393E+04
       180  23  4.633143E+05 -1.126692E+02  4.954492E+03 -4.868783E+04 -4.564180E+03 -3.145537E+04
       180  24  4.636567E+05  6.598179E+01  2.987781E+03 -8.068837E+04 -2.095777E+03 -2.447141E+04
       180  25  1.273760E+06  1.988536E+05  1.912941E+05 -8.089858E+04 -1.582438E+03 -3.836276E+04
       180  26  1.139113E+06  1.654370E+05  1.575281E+05 -4.890581E+04  9.412269E+02 -3.145663E+04
       180  27  1.005127E+06  1.327958E+05  1.256227E+05 -8.090949E+04  3.471230E+03 -2.447522E+04
       181   1  4.188365E+04 -1.031545E+05 -9.251549E+04 -8.037785E+04  7.139822E+03  2.038802E+04
       181   2  1.756493E+05 -7.049547E+04 -6.343493E+04 -4.854036E+04  6.343572E+03  1.340595E+04
       181   3  3.094508E+05 -3.766353E+04 -3.382375E+04 -8.049151E+04  5.544247E+03  6.424749E+03
       181   4  4.635479E+05  1.307592E+02  2.356188E+03 -8.064073E+04  1.609147E+03  2.039291E+04
       181   5  4.635481E+05  7.148981E+01  1.598764E+03 -4.874731E+04  8.126326E+02  1.341185E+04
       181   6  4.635694E+05  1.867075E+02  1.373081E+03 -8.064072E+04  1.321079E+01  6.431734E+03
       181   7  8.853775E+05  1.034039E+05  9.721666E+04 -8.090374E+04 -3.925247E+03  2.039780E+04
       181   8  7.515239E+05  7.063277E+04  6.662726E+04 -4.895434E+04 -4.720846E+03  1.341776E+04
       181   9  6.177100E+05  3.803532E+04  3.656848E+04 -8.078995E+04 -5.519186E+03  6.438721E+03
       181  10  4.188349E+04 -1.031550E+05 -9.251636E+04 -8.037797E+04 -1.903830E-10 -8.451860E-11
       181  11  1.756492E+05 -7.049567E+04 -6.343534E+04 -4.854043E+04 -6.275306E-10 -2.339090E-10
       181  12  3.094508E+05 -3.766359E+04 -3.382389E+04 -8.049154E+04 -1.600979E-10 -2.163283E-10
       181  13  4.635478E+05  1.303119E+02  2.355402E+03 -8.064076E+04 -4.512498E-10 -6.469417E-10
       181  14  4.635480E+05  7.129643E+01  1.598425E+03 -4.874732E+04  4.475370E-10  1.211388E-10
       181  15  4.635694E+05  1.866631E+02  1.373003E+03 -8.064072E+04 -6.164286E-10 -3.300034E-10
       181  16  8.853774E+05  1.034034E+05  9.721584E+04 -8.090367E+04 -5.577999E-10  2.149090E-11
       181  17  7.515239E+05  7.063257E+04  6.662687E+04 -4.895429E+04  2.277532E-09 -8.735729E-11
       181  18  6.177099E+05  3.803526E+04  3.656834E+04 -8.078992E+04 -9.121858E-10 -4.620075E-10
       181  19  4.188365E+04 -1.031545E+05 -9.251549E+04 -8.037785E+04 -7.139822E+03 -2.038802E+04
       181  20  1.756493E+05 -7.049547E+04 -6.343493E+04 -4.854036E+04 -6.343572E+03 -1.340595E+04
       181  21  3.094508E+05 -3.766353E+04 -3.382375E+04 -8.049151E+04 -5.544247E+03 -6.424749E+03
       181  22  4.635479E+05  1.307592E+02  2.356188E+03 -8.064073E+04 -1.609147E+03 -2.039291E+04
       181  23  4.635481E+05  7.148981E+01  1.598764E+03 -4.874731E+04 -8.126326E+02 -1.341185E+04
       181  24  4.635694E+05  1.867075E+02  1.373081E+03 -8.064072E+04 -1.321079E+01 -6.431734E+03
       181  25  8.853775E+05  1.034039E+05  9.721666E+04 -8.090374E+04  3.925247E+03 -2.039780E+04
       181  26  7.515239E+05  7.063277E+04  6.662726E+04 -4.895434E+04  4.720846E+03 -1.341776E+04
       181  27  6.177100E+05  3.803532E+04  3.656848E+04 -8.078995E+04  5.519186E+03 -6.438721E+03
       182   1  4.287890E+05 -8.259898E+03 -6.054966E+03 -8.059111E+04  5.284557E+03  2.362658E+03
       182   2  5.625121E+05  2.433906E+04  2.418056E+04 -4.880410E+04  4.367511E+03 -4.613885E+03
       182   3  6.962465E+05  5.713039E+04  5.501840E+04 -8.076311E+04  3.451263E+03 -1.158868E+04
       182   4  4.635684E+05  1.863167E+02  1.413698E+03 -8.063180E+04 -2.457008E+02  2.369860E+03
       182   5  4.635683E+05  9.265231E+01  1.835137E+03 -4.875846E+04 -1.161825E+03 -4.607078E+03
       182   6  4.635608E+05  1.918522E+02  2.858560E+03 -8.063175E+04 -2.076959E+03 -1.158220E+04
       182   7  4.983489E+05  8.632469E+03  8.882406E+03 -8.067248E+04 -5.776264E+03  2.377062E+03
       182   8  3.646338E+05 -2.415441E+04 -2.051080E+04 -4.871282E+04 -6.690289E+03 -4.600271E+03
       182   9  2.309256E+05 -5.675036E+04 -4.930459E+04 -8.050042E+04 -7.603132E+03 -1.157572E+04
       182  10  4.287890E+05 -8.259912E+03 -6.055029E+03 -8.059112E+04  1.314181E-10  9.254276E-10
       182  11  5.625120E+05  2.433903E+04  2.418048E+04 -4.880409E+04 -6.573826E-10  2.032164E-09
       182  12  6.962464E+05  5.713024E+04  5.501812E+04 -8.076308E+04  1.819165E-09 -1.404136E-09
       182  13  4.635684E+05  1.863106E+02  1.413687E+03 -8.063180E+04 -1.640730E-09  2.924262E-10
       182  14  4.635683E+05  9.262915E+01  1.835095E+03 -4.875846E+04 -1.257726E-09 -6.815550E-10
       182  15  4.635608E+05  1.917069E+02  2.858300E+03 -8.063177E+04 -1.228145E-09 -1.964047E-10
       182  16  4.983489E+05  8.632454E+03  8.882333E+03 -8.067247E+04 -9.129352E-10  3.148053E-10
       182  17  3.646337E+05 -2.415444E+04 -2.051092E+04 -4.871284E+04  8.233925E-10 -8.422841E-10
       182  18  2.309255E+05 -5.675052E+04 -4.930495E+04 -8.050049E+04 -2.585996E-09 -1.581983E-10
       182  19  4.287890E+05 -8.259898E+03 -6.054966E+03 -8.059111E+04 -5.284557E+03 -2.362658E+03
       182  20  5.625121E+05  2.433906E+04  2.418056E+04 -4.880410E+04 -4.367511E+03  4.613885E+03
       182  21  6.962465E+05  5.713039E+04  5.501840E+04 -8.076311E+04 -3.451263E+03  1.158868E+04
       182  22  4.635684E+05  1.863167E+02  1.413698E+03 -8.063180E+04  2.457008E+02 -2.369860E+03
       182  23  4.635683E+05  9.265231E+01  1.835137E+03 -4.875846E+04  1.161825E+03  4.607078E+03
       182  24  4.635608E+05  1.918522E+02  2.858560E+03 -8.063175E+04  2.076959E+03  1.158220E+04
       182  25  4.983489E+05  8.632469E+03  8.882406E+03 -8.067248E+04  5.776264E+03 -2.377062E+03
       182  26  3.646338E+05 -2.415441E+04 -2.051080E+04 -4.871282E+04  6.690289E+03  4.600271E+03
       182  27  2.309256E+05 -5.675036E+04 -4.930459E+04 -8.050042E+04  7.603132E+03  1.157572E+04
       183   1  8.158317E+05  8.646922E+04  8.356751E+04 -8.075820E+04  2.884597E+03 -1.565984E+04
       183   2  9.495456E+05  1.190552E+05  1.159704E+05 -4.893231E+04 -2.550916E+02 -2.263039E+04
       183   3  1.083901E+06  1.526100E+05  1.506467E+05 -8.097833E+04 -3.390485E+03 -2.953244E+04
       183   4  4.636829E+05  1.110213E+02  3.667629E+03 -8.066048E+04 -2.670826E+03 -1.565401E+04
       183   5  4.633562E+05 -5.992274E+01  6.190838E+03 -4.872266E+04 -5.754541E+03 -2.262641E+04
       183   6  4.636458E+05  7.299782E+02  1.095101E+04 -8.065978E+04 -8.833300E+03 -2.953023E+04
       183   7  1.116492E+05 -8.625571E+04 -7.624016E+04 -8.056278E+04 -8.223129E+03 -1.564817E+04
       183   8 -2.261380E+04 -1.191913E+05 -1.036037E+05 -4.851310E+04 -1.124973E+04 -2.262244E+04
       183   9 -1.562525E+05 -1.511764E+05 -1.287692E+05 -8.034146E+04 -1.427073E+04 -2.952803E+04
       183  10  8.158316E+05  8.646895E+04  8.356704E+04 -8.075816E+04  1.273018E-10 -1.800677E-09
       183  11  9.495454E+05  1.190547E+05  1.159694E+05 -4.893232E+04  7.381367E-10 -6.150428E-11
       183  12  1.083901E+06  1.526091E+05  1.506451E+05 -8.097841E+04 -6.027051E-10  2.854206E-10
       183  13  4.636828E+05  1.107562E+02  3.667155E+03 -8.066052E+04 -6.311447E-10 -2.405768E-10
       183  14  4.633560E+05 -6.048150E+01  6.189813E+03 -4.872276E+04 -1.213416E-09 -6.196440E-10
       183  15  4.636455E+05  7.290206E+02  1.094923E+04 -8.065999E+04 -1.058688E-09 -1.653745E-10
       183  16  1.116490E+05 -8.625599E+04 -7.624074E+04 -8.056288E+04 -1.068651E-10  6.798181E-11
       183  17 -2.261408E+04 -1.191919E+05 -1.036049E+05 -4.851331E+04 -8.841407E-10  6.901545E-10
       183  18 -1.562530E+05 -1.511774E+05 -1.287712E+05 -8.034180E+04 -7.499210E-10  4.586341E-10
       183  19  8.158317E+05  8.646922E+04  8.356751E+04 -8.075820E+04 -2.884597E+03  1.565984E+04
       183  20  9.495456E+05  1.190552E+05  1.159704E+05 -4.893231E+04  2.550916E+02  2.263039E+04
       183  21  1.083901E+06  1.526100E+05  1.506467E+05 -8.097833E+04  3.390485E+03  2.953244E+04
       183  22  4.636829E+05  1.110213E+02  3.667629E+03 -8.066048E+04  2.670826E+03  1.565401E+04
       183  23  4.633562E+05 -5.992274E+01  6.190838E+03 -4.872266E+04  5.754541E+03  2.262641E+04
       183  24  4.636458E+05  7.299782E+02  1.095101E+04 -8.065978E+04  8.833300E+03  2.953023E+04
       183  25  1.116492E+05 -8.625571E+04 -7.624016E+04 -8.056278E+04  8.223129E+03  1.564817E+04
       183  26 -2.261380E+04 -1.191913E+05 -1.036037E+05 -4.851310E+04  1.124973E+04  2.262244E+04
       183  27 -1.562525E+05 -1.511764E+05 -1.287692E+05 -8.034146E+04  1.427073E+04  2.952803E+04
       184   1  1.204788E+06  1.807346E+05  1.816747E+05 -7.900502E+04 -5.094787E+03 -3.378692E+04
       184   2  1.336860E+06  2.134449E+05  2.220276E+05 -4.977669E+04 -1.874389E+04 -4.047763E+04
       184   3  1.474205E+06  2.588108E+05  2.744830E+05 -8.466590E+04 -3.238758E+04 -4.551799E+04
       184   4  4.645902E+05 -6.487985E+02  1.422878E+04 -8.071587E+04 -1.105353E+04 -3.378594E+04
       184   5  4.620359E+05 -8.588635E+02  2.442657E+04 -4.865346E+04 -2.337793E+04 -4.048041E+04
       184   6  4.645201E+05  1.136952E+04  4.582177E+04 -8.071360E+04 -3.569402E+04 -4.552351E+04
       184   7 -2.750994E+05 -1.820699E+05 -1.532523E+05 -8.242456E+04 -1.700524E+04 -3.378493E+04
       184   8 -4.120778E+05 -2.152151E+05 -1.732235E+05 -4.753176E+04 -2.800549E+04 -4.048320E+04
       184   9 -5.442201E+05 -2.361418E+05 -1.829050E+05 -7.676772E+04 -3.899512E+04 -4.552909E+04
       184  10  1.204788E+06  1.807334E+05  1.816725E+05 -7.900516E+04  2.163031E-10  3.990981E-10
       184  11  1.336859E+06  2.134430E+05  2.220238E+05 -4.977730E+04  9.706528E-10 -3.646857E-10
       184  12  1.474204E+06  2.588083E+05  2.744771E+05 -8.466709E+04  3.143568E-10 -2.280500E-10
       184  13  4.645898E+05 -6.500573E+02  1.422641E+04 -8.071617E+04  1.809895E-13  4.842882E-10
       184  14  4.620349E+05 -8.607702E+02  2.442246E+04 -4.865423E+04 -2.092558E-09  3.299565E-10
       184  15  4.645181E+05  1.136695E+04  4.581548E+04 -8.071491E+04 -1.468407E-09 -4.837247E-11
       184  16 -2.751000E+05 -1.820712E+05 -1.532550E+05 -8.242503E+04 -6.392808E-10  4.942541E-10
       184  17 -4.120790E+05 -2.152171E+05 -1.732280E+05 -4.753267E+04 -1.142610E-09 -4.297451E-11
       184  18 -5.442223E+05 -2.361445E+05 -1.829118E+05 -7.676915E+04 -5.366663E-10 -1.412284E-10
       184  19  1.204788E+06  1.807346E+05  1.816747E+05 -7.900502E+04  5.094787E+03  3.378692E+04
       184  20  1.336860E+06  2.134449E+05  2.220276E+05 -4.977669E+04  1.874389E+04  4.047763E+04
       184  21  1.474205E+06  2.588108E+05  2.744830E+05 -8.466590E+04  3.238758E+04  4.551799E+04
       184  22  4.645902E+05 -6.487985E+02  1.422878E+04 -8.071587E+04  1.105353E+04  3.378594E+04
       184  23  4.620359E+05 -8.588635E+02  2.442657E+04 -4.865346E+04  2.337793E+04  4.048041E+04
       184  24  4.645201E+05  1.136952E+04  4.582177E+04 -8.071360E+04  3.569402E+04  4.552351E+04
       184  25 -2.750994E+05 -1.820699E+05 -1.532523E+05 -8.242456E+04  1.700524E+04  3.378493E+04
       184  26 -4.120778E+05 -2.152151E+05 -1.732235E+05 -4.753176E+04  2.800549E+04  4.048320E+04
       184  27 -5.442201E+05 -2.361418E+05 -1.829050E+05 -7.676772E+04  3.899512E+04  4.552909E+04
       185   1  1.606032E+06  2.672930E+05  3.120283E+05 -5.444141E+04 -2.967199E+04 -5.348991E+04
       185   2  1.713381E+06  3.021560E+05  3.838633E+05 -7.339186E+04 -1.094144E+05 -5.359439E+04
       185   3  1.878299E+06  5.225056E+05  5.540706E+05 -1.557186E+05 -1.892249E+05 -1.754557E+04
       185   4  4.750523E+05 -9.615499E+03  5.720655E+04 -8.050279E+04 -4.402039E+04 -5.349946E+04
       185   5  4.486506E+05 -8.061384E+03  9.569338E+04 -4.890560E+04 -9.497977E+04 -5.359519E+04
       185   6  4.749214E+05  1.741842E+05  2.127038E+05 -8.067752E+04 -1.459858E+05 -1.751773E+04
       185   7 -6.547389E+05 -2.866089E+05 -1.976958E+05 -1.065163E+05 -5.834290E+04 -5.350782E+04
       185   8 -8.145974E+05 -3.183870E+05 -1.925796E+05 -2.446978E+04 -8.057405E+04 -5.359487E+04
       185   9 -9.266465E+05 -1.742595E+05 -1.287954E+05 -5.806478E+03 -1.028438E+05 -1.747945E+04
       185  10  1.606031E+06  2.672897E+05  3.120213E+05 -5.444268E+04 -3.218383E-11  2.233324E-10
       185  11  1.713367E+06  3.021497E+05  3.838355E+05 -7.339657E+04  9.367684E-11  4.221165E-10
       185  12  1.878260E+06  5.224957E+05  5.540029E+05 -1.557213E+05 -6.839701E-11 -1.274850E-10
       185  13  4.750495E+05 -9.619093E+03  5.719753E+04 -8.050469E+04 -9.324167E-10  4.936362E-10
       185  14  4.486401E+05 -8.066889E+03  9.567104E+04 -4.890970E+04  1.014243E-09  1.769627E-09
       185  15  4.748984E+05  1.741782E+05  2.126633E+05 -8.067958E+04 -1.004758E-09  1.880849E-10
       185  16 -6.547433E+05 -2.866129E+05 -1.977076E+05 -1.065189E+05 -9.713466E-10  3.289852E-10
       185  17 -8.146051E+05 -3.183918E+05 -1.925972E+05 -2.447326E+04  2.274136E-10  4.351090E-10
       185  18 -9.266579E+05 -1.742627E+05 -1.288159E+05 -5.807926E+03 -4.294998E-10 -3.022643E-10
       185  19  1.606032E+06  2.672930E+05  3.120283E+05 -5.444141E+04  2.967199E+04  5.348991E+04
       185  20  1.713381E+06  3.021560E+05  3.838633E+05 -7.339186E+04  1.094144E+05  5.359439E+04
       185  21  1.878299E+06  5.225056E+05  5.540706E+05 -1.557186E+05  1.892249E+05  1.754557E+04
       185  22  4.750523E+05 -9.615499E+03  5.720655E+04 -8.050279E+04  4.402039E+04  5.349946E+04
       185  23  4.486506E+05 -8.061384E+03  9.569338E+04 -4.890560E+04  9.497977E+04  5.359519E+04
       185  24  4.749214E+05  1.741842E+05  2.127038E+05 -8.067752E+04  1.459858E+05  1.751773E+04
       185  25 -6.547389E+05 -2.866089E+05 -1.976958E+05 -1.065163E+05  5.834290E+04  5.350782E+04
       185  26 -8.145974E+05 -3.183870E+05 -1.925796E+05 -2.446978E+04  8.057405E+04  5.359487E+04
       185  27 -9.266465E+05 -1.742595E+05 -1.287954E+05 -5.806478E+03  1.028438E+05  1.747945E+04
       186   1  2.736142E+05  9.214554E+05  2.904352E+05 -2.279875E+05  6.426164E+03  9.188962E+04
       186   2  9.714419E+04  5.961811E+05  1.467780E+05 -1.268673E+05  1.580543E+04  4.704780E+04
       186   3  2.087563E+04  3.010189E+05  5.715752E+04 -1.725838E+05  3.990382E+03  2.173343E+03
       186   4  9.393959E+04  2.005922E+05  1.137357E+05 -1.858131E+05  6.474742E+03  7.610376E+04
       186   5 -3.541894E+03  1.870577E+05  5.274577E+04 -1.125264E+05  1.580429E+04  4.809414E+04
       186   6 -3.693507E+03  2.006696E+05  3.415746E+04 -1.860685E+05  3.937196E+03  2.002942E+04
       186   7 -8.576695E+04 -5.197941E+05 -6.300003E+04 -1.436873E+05  6.521210E+03  6.033614E+04
       186   8 -1.042389E+05 -2.219104E+05 -4.129746E+04 -9.819498E+04  1.580320E+04  4.913979E+04
       186   9 -2.826248E+04  1.003308E+05  1.115804E+04 -1.995510E+05  3.883230E+03  3.788264E+04
       186  10  2.736119E+05  9.214463E+05  2.904193E+05 -2.279879E+05  5.092150E-10  1.197050E-09
       186  11  9.714333E+04  5.961786E+05  1.467734E+05 -1.268679E+05 -8.038210E-12 -1.386891E-09
       186  12  2.087561E+04  3.010188E+05  5.715748E+04 -1.725838E+05 -7.705363E-10 -1.755863E-09
       186  13  9.393799E+04  2.005859E+05  1.137248E+05 -1.858135E+05  1.771430E-09 -5.733504E-10
       186  14 -3.542783E+03  1.870552E+05  5.274095E+04 -1.125270E+05  1.161431E-09  1.446271E-10
       186  15 -3.693631E+03  2.006692E+05  3.415668E+04 -1.860685E+05  5.416842E-10 -1.010178E-09
       186  16 -8.576798E+04 -5.197980E+05 -6.300696E+04 -1.436876E+05  1.056319E-09 -8.130227E-10
       186  17 -1.042398E+05 -2.219131E+05 -4.130247E+04 -9.819560E+04  3.137039E-09  2.609577E-09
       186  18 -2.826288E+04  1.003292E+05  1.115532E+04 -1.995511E+05  1.465255E-10  2.333950E-09
       186  19  2.736142E+05  9.214554E+05  2.904352E+05 -2.279875E+05 -6.426164E+03 -9.188962E+04
       186  20  9.714419E+04  5.961811E+05  1.467780E+05 -1.268673E+05 -1.580543E+04 -4.704780E+04
       186  21  2.087563E+04  3.010189E+05  5.715752E+04 -1.725838E+05 -3.990382E+03 -2.173343E+03
       186  22  9.393959E+04  2.005922E+05  1.137357E+05 -1.858131E+05 -6.474742E+03 -7.610376E+04
       186  23 -3.541894E+03  1.870577E+05  5.274577E+04 -1.125264E+05 -1.580429E+04 -4.809414E+04
       186  24 -3.693507E+03  2.006696E+05  3.415746E+04 -1.860685E+05 -3.937196E+03 -2.002942E+04
       186  25 -8.576695E+04 -5.197941E+05 -6.300003E+04 -1.436873E+05 -6.521210E+03 -6.033614E+04
       186  26 -1.042389E+05 -2.219104E+05 -4.129746E+04 -9.819498E+04 -1.580320E+04 -4.913979E+04
       186  27 -2.826248E+04  1.003308E+05  1.115804E+04 -1.995510E+05 -3.883230E+03 -3.788264E+04
       187   1 -3.641228E+04  1.848146E+04 -1.078317E+04 -1.886838E+05 -7.927995E+03  2.785745E+03
       187   2 -1.195163E+05 -2.933032E+05 -8.836136E+04 -1.115422E+05 -2.250829E+04 -7.345334E+03
       187   3 -1.909052E+05 -6.015466E+05 -1.566131E+05 -1.821259E+05 -3.598035E+04 -1.745829E+04
       187   4  6.983780E+03  1.954312E+05  2.936188E+04 -1.861890E+05 -7.963502E+03  1.479854E+04
       187   5 -1.053652E+02  1.935877E+05  2.175372E+04 -1.123340E+05 -2.253735E+04  3.783020E+03
       187   6  4.676244E+03  1.953477E+05  2.408842E+04 -1.861955E+05 -3.600360E+04 -7.219274E+03
       187   7  5.037779E+04  3.724102E+05  6.950545E+04 -1.836935E+05 -7.998907E+03  2.681472E+04
       187   8  1.192894E+05  6.806991E+05  1.318540E+05 -1.131262E+05 -2.256643E+04  1.492002E+04
       187   9  2.002140E+05  9.928321E+05  2.047493E+05 -1.902699E+05 -3.602696E+04  3.032772E+03
       187  10 -3.641235E+04  1.848144E+04 -1.078330E+04 -1.886838E+05 -1.208305E-09  1.800684E-09
       187  11 -1.195169E+05 -2.933034E+05 -8.836242E+04 -1.115424E+05 -6.407779E-10 -1.036099E-09
       187  12 -1.909067E+05 -6.015473E+05 -1.566161E+05 -1.821265E+05  1.122565E-11 -1.423596E-09
       187  13  6.983654E+03  1.954309E+05  2.936135E+04 -1.861889E+05 -1.248332E-09 -6.829431E-10
       187  14 -1.059145E+02  1.935875E+05  2.175274E+04 -1.123339E+05 -6.850641E-10  5.967851E-11
       187  15  4.674838E+03  1.953473E+05  2.408589E+04 -1.861957E+05 -2.826493E-10 -9.580654E-10
       187  16  5.037753E+04  3.724094E+05  6.950398E+04 -1.836933E+05 -1.202310E-09 -1.331537E-09
       187  17  1.192888E+05  6.806988E+05  1.318527E+05 -1.131259E+05 -1.303735E-09  2.280535E-09
       187  18  2.002126E+05  9.928318E+05  2.047468E+05 -1.902698E+05 -3.273954E-10  1.926171E-09
       187  19 -3.641228E+04  1.848146E+04 -1.078317E+04 -1.886838E+05  7.927995E+03 -2.785745E+03
       187  20 -1.195163E+05 -2.933032E+05 -8.836136E+04 -1.115422E+05  2.250829E+04  7.345334E+03
       187  21 -1.909052E+05 -6.015466E+05 -1.566131E+05 -1.821259E+05  3.598035E+04  1.745829E+04
       187  22  6.983780E+03  1.954312E+05  2.936188E+04 -1.861890E+05  7.963502E+03 -1.479854E+04
       187  23 -1.053652E+02  1.935877E+05  2.175372E+04 -1.123340E+05  2.253735E+04 -3.783020E+03
       187  24  4.676244E+03  1.953477E+05  2.408842E+04 -1.861955E+05  3.600360E+04  7.219274E+03
       187  25  5.037779E+04  3.724102E+05  6.950545E+04 -1.836935E+05  7.998907E+03 -2.681472E+04
       187  26  1.192894E+05  6.806991E+05  1.318540E+05 -1.131262E+05  2.256643E+04 -1.492002E+04
       187  27  2.002140E+05  9.928321E+05  2.047493E+05 -1.902699E+05  3.602696E+04 -3.032772E+03
       188   1 -2.658958E+05 -8.756541E+05 -2.162360E+05 -1.935231E+05 -5.032838E+04 -3.521084E+04
       188   2 -3.426810E+05 -1.193158E+06 -2.781875E+05 -1.015429E+05 -5.770869E+04 -1.925030E+04
       188   3 -3.574854E+05 -1.496810E+06 -3.349848E+05 -1.557566E+05 -1.962495E+04 -3.235822E+03
       188   4 -2.400731E+03  1.988619E+05  2.649928E+04 -1.858828E+05 -5.037947E+04 -1.143987E+04
       188   5 -2.895410E+03  1.887579E+05  3.773644E+04 -1.127477E+05 -5.767743E+04 -3.146383E+04
       188   6  6.476937E+04  1.986197E+05  7.909836E+04 -1.857784E+05 -1.955740E+04 -5.142616E+04
       188   7  2.610156E+05  1.274453E+06  2.691626E+05 -1.782284E+05 -5.042993E+04  1.237190E+04
       188   8  3.367580E+05  1.572446E+06  3.535360E+05 -1.239769E+05 -5.764578E+04 -4.370430E+04
       188   9  4.868162E+05  1.896681E+06  4.929812E+05 -2.158813E+05 -1.948529E+04 -9.974788E+04
       188  10 -2.658988E+05 -8.756561E+05 -2.162431E+05 -1.935245E+05 -1.223209E-10  5.484208E-10
       188  11 -3.426847E+05 -1.193159E+06 -2.781945E+05 -1.015438E+05  8.138667E-10 -5.820977E-10
       188  12 -3.574858E+05 -1.496811E+06 -3.349856E+05 -1.557566E+05  2.481566E-10 -6.664561E-10
       188  13 -2.403493E+03  1.988611E+05  2.649426E+04 -1.858833E+05  1.678653E-10 -5.700120E-10
       188  14 -2.899249E+03  1.887559E+05  3.772832E+04 -1.127492E+05  2.410606E-10 -1.370464E-11
       188  15  6.476825E+04  1.986167E+05  7.909267E+04 -1.857792E+05  1.155224E-10 -4.901702E-10
       188  16  2.610128E+05  1.274452E+06  2.691576E+05 -1.782279E+05 -1.260932E-09 -1.768900E-10
       188  17  3.367539E+05  1.572443E+06  3.535261E+05 -1.239789E+05  5.631978E-10  1.250459E-09
       188  18  4.868131E+05  1.896670E+06  4.929618E+05 -2.158829E+05  7.227999E-10  7.706208E-10
       188  19 -2.658958E+05 -8.756541E+05 -2.162360E+05 -1.935231E+05  5.032838E+04  3.521084E+04
       188  20 -3.426810E+05 -1.193158E+06 -2.781875E+05 -1.015429E+05  5.770869E+04  1.925030E+04
       188  21 -3.574854E+05 -1.496810E+06 -3.349848E+05 -1.557566E+05  1.962495E+04  3.235822E+03
       188  22 -2.400731E+03  1.988619E+05  2.649928E+04 -1.858828E+05  5.037947E+04  1.143987E+04
       188  23 -2.895410E+03  1.887579E+05  3.773644E+04 -1.127477E+05  5.767743E+04  3.146383E+04
       188  24  6.476937E+04  1.986197E+05  7.909836E+04 -1.857784E+05  1.955740E+04  5.142616E+04
       188  25  2.610156E+05  1.274453E+06  2.691626E+05 -1.782284E+05  5.042993E+04 -1.237190E+04
       188  26  3.367580E+05  1.572446E+06  3.535360E+05 -1.239769E+05  5.764578E+04  4.370430E+04
       188  27  4.868162E+05  1.896681E+06  4.929812E+05 -2.158813E+05  1.948529E+04  9.974788E+04
       189   1 -3.026735E+06 -1.120615E+06 -6.999901E+05 -1.088451E+06 -2.845027E+05 -8.914294E+04
       189   2 -2.922963E+06 -7.100388E+05 -4.379041E+05 -1.072393E+06 -1.848801E+05 -1.350471E+04
       189   3 -2.916580E+06 -6.421406E+05 -3.441426E+05 -1.015427E+06 -7.274686E+04  2.904744E+04
       189   4 -1.925841E+06 -5.859384E+05 -3.804101E+05 -6.666107E+05 -2.479592E+05 -7.542370E+04
       189   5 -1.858983E+06 -2.728657E+05 -1.629029E+05 -7.413565E+05 -1.726352E+05 -8.911776E+03
       189   6 -1.884474E+06 -2.973371E+05 -9.419094E+04 -7.752559E+05 -8.482339E+04  2.450188E+04
       189   7 -8.237266E+05 -5.093379E+04 -6.094038E+04 -2.440107E+05 -2.113439E+05 -6.165976E+04
       189   8 -7.938835E+05  1.644468E+05  1.120043E+05 -4.097796E+05 -1.603672E+05 -4.308171E+03
       189   9 -8.513236E+05  4.748550E+04  1.556827E+05 -5.347452E+05 -9.692185E+04  1.995011E+04
       189  10 -3.026825E+06 -1.120646E+06 -7.001580E+05 -1.088472E+06  1.095713E-09 -8.758523E-10
       189  11 -2.923000E+06 -7.100482E+05 -4.379690E+05 -1.072395E+06 -8.728796E-10 -9.040762E-10
       189  12 -2.916586E+06 -6.421430E+05 -3.441542E+05 -1.015425E+06 -1.227348E-09 -3.078011E-10
       189  13 -1.925909E+06 -5.859611E+05 -3.805368E+05 -6.666258E+05  7.785910E-10 -3.888793E-10
       189  14 -1.859015E+06 -2.728739E+05 -1.629592E+05 -7.413577E+05 -4.760813E-10 -1.015664E-10
       189  15 -1.884482E+06 -2.973397E+05 -9.420561E+04 -7.752542E+05  6.742543E-10  2.619479E-10
       189  16 -8.237757E+05 -5.094989E+04 -6.103160E+04 -2.440212E+05 -3.821509E-10  6.625383E-10
       189  17 -7.939111E+05  1.644398E+05  1.119559E+05 -4.097801E+05 -5.379577E-10  4.352463E-10
       189  18 -8.513338E+05  4.748255E+04  1.556642E+05 -5.347436E+05 -2.672454E-10  7.532436E-10
       189  19 -3.026735E+06 -1.120615E+06 -6.999901E+05 -1.088451E+06  2.845027E+05  8.914294E+04
       189  20 -2.922963E+06 -7.100388E+05 -4.379041E+05 -1.072393E+06  1.848801E+05  1.350471E+04
       189  21 -2.916580E+06 -6.421406E+05 -3.441426E+05 -1.015427E+06  7.274686E+04 -2.904744E+04
       189  22 -1.925841E+06 -5.859384E+05 -3.804101E+05 -6.666107E+05  2.479592E+05  7.542370E+04
       189  23 -1.858983E+06 -2.728657E+05 -1.629029E+05 -7.413565E+05  1.726352E+05  8.911776E+03
       189  24 -1.884474E+06 -2.973371E+05 -9.419094E+04 -7.752559E+05  8.482339E+04 -2.450188E+04
       189  25 -8.237266E+05 -5.093379E+04 -6.094038E+04 -2.440107E+05  2.113439E+05  6.165976E+04
       189  26 -7.938835E+05  1.644468E+05  1.120043E+05 -4.097796E+05  1.603672E+05  4.308171E+03
       189  27 -8.513236E+05  4.748550E+04  1.556827E+05 -5.347452E+05  9.692185E+04 -1.995011E+04
       190   1 -2.779359E+06 -6.770715E+05 -3.042851E+05 -1.012354E+06 -6.792486E+04  2.310318E+04
       190   2 -2.697547E+06 -5.969362E+05 -2.420629E+05 -9.674569E+05 -4.601378E+04  2.745124E+04
       190   3 -2.590789E+06 -5.755594E+05 -2.013604E+05 -9.582176E+05 -2.347230E+04  3.011421E+04
       190   4 -1.871840E+06 -3.302267E+05 -7.532354E+04 -7.565157E+05 -6.987478E+04  2.236386E+04
       190   5 -1.882907E+06 -2.904384E+05 -3.802135E+04 -7.426266E+05 -4.918026E+04  2.625750E+04
       190   6 -1.868782E+06 -3.091438E+05 -2.124709E+04 -7.643984E+05 -2.785919E+04  2.846545E+04
       190   7 -9.635061E+05  1.668384E+04  1.535733E+05 -5.003317E+05 -7.182779E+04  2.162333E+04
       190   8 -1.067611E+06  1.610646E+04  1.659684E+05 -5.175263E+05 -5.235128E+04  2.506203E+04
       190   9 -1.146262E+06 -4.269704E+04  1.588255E+05 -5.703755E+05 -3.225167E+04  2.681466E+04
       190  10 -2.779364E+06 -6.770733E+05 -3.042948E+05 -1.012353E+06  1.490396E-10  4.166061E-11
       190  11 -2.697549E+06 -5.969376E+05 -2.420683E+05 -9.674559E+05  7.429403E-11 -6.540585E-10
       190  12 -2.590790E+06 -5.755605E+05 -2.013631E+05 -9.582170E+05  1.287595E-09 -4.205861E-10
       190  13 -1.871846E+06 -3.302285E+05 -7.533367E+04 -7.565144E+05  1.269418E-09 -6.073620E-11
       190  14 -1.882910E+06 -2.904398E+05 -3.802720E+04 -7.426255E+05  1.123716E-10 -2.213544E-10
       190  15 -1.868783E+06 -3.091448E+05 -2.125008E+04 -7.643978E+05  1.067472E-09 -2.768301E-10
       190  16 -9.635117E+05  1.668195E+04  1.535627E+05 -5.003304E+05  7.760014E-11  4.417353E-10
       190  17 -1.067614E+06  1.610505E+04  1.659620E+05 -5.175252E+05 -2.888203E-10  2.566970E-10
       190  18 -1.146263E+06 -4.269809E+04  1.588222E+05 -5.703748E+05  5.375901E-11  1.484628E-10
       190  19 -2.779359E+06 -6.770715E+05 -3.042851E+05 -1.012354E+06  6.792486E+04 -2.310318E+04
       190  20 -2.697547E+06 -5.969362E+05 -2.420629E+05 -9.674569E+05  4.601378E+04 -2.745124E+04
       190  21 -2.590789E+06 -5.755594E+05 -2.013604E+05 -9.582176E+05  2.347230E+04 -3.011421E+04
       190  22 -1.871840E+06 -3.302267E+05 -7.532354E+04 -7.565157E+05  6.987478E+04 -2.236386E+04
       190  23 -1.882907E+06 -2.904384E+05 -3.802135E+04 -7.426266E+05  4.918026E+04 -2.625750E+04
       190  24 -1.868782E+06 -3.091438E+05 -2.124709E+04 -7.643984E+05  2.785919E+04 -2.846545E+04
       190  25 -9.635061E+05  1.668384E+04  1.535733E+05 -5.003317E+05  7.182779E+04 -2.162333E+04
       190  26 -1.067611E+06  1.610646E+04  1.659684E+05 -5.175263E+05  5.235128E+04 -2.506203E+04
       190  27 -1.146262E+06 -4.269704E+04  1.588255E+05 -5.703755E+05  3.225167E+04 -2.681466E+04
       191   1 -2.494193E+06 -5.459486E+05 -1.726252E+05 -9.347052E+05 -1.967917E+04  2.773323E+04
       191   2 -2.412202E+06 -4.882233E+05 -1.403958E+05 -8.862692E+05 -1.317570E+04  2.403863E+04
       191   3 -2.294238E+06 -4.692318E+05 -1.119270E+05 -8.799931E+05 -6.628598E+03  2.021497E+04
       191   4 -1.867334E+06 -3.116899E+05 -1.627845E+04 -7.632241E+05 -2.361325E+04  2.625577E+04
       191   5 -1.885197E+06 -2.915472E+05 -8.765292E+03 -7.424298E+05 -1.720050E+04  2.252904E+04
       191   6 -1.867078E+06 -3.101179E+05 -4.937365E+03 -7.637976E+05 -1.074491E+04  1.867303E+04
       191   7 -1.240091E+06 -7.740593E+04  1.400369E+05 -5.915860E+05 -2.755167E+04  2.477669E+04
       191   8 -1.357919E+06 -9.485291E+04  1.228435E+05 -5.984794E+05 -2.122904E+04  2.101804E+04
       191   9 -1.439738E+06 -1.509916E+05  1.020385E+05 -6.475289E+05 -1.486434E+04  1.712993E+04
       191  10 -2.494194E+06 -5.459495E+05 -1.726274E+05 -9.347048E+05  1.099935E-09 -4.812172E-11
       191  11 -2.412202E+06 -4.882240E+05 -1.403972E+05 -8.862689E+05 -1.291736E-10 -1.291292E-10
       191  12 -2.294238E+06 -4.692322E+05 -1.119279E+05 -8.799930E+05 -5.445300E-10 -1.131493E-11
       191  13 -1.867335E+06 -3.116908E+05 -1.628079E+04 -7.632236E+05 -1.314750E-10 -1.334473E-10
       191  14 -1.885197E+06 -2.915479E+05 -8.766801E+03 -7.424295E+05  4.379742E-10  2.265751E-11
       191  15 -1.867079E+06 -3.101183E+05 -4.938237E+03 -7.637974E+05  4.446865E-11  3.446724E-10
       191  16 -1.240092E+06 -7.740680E+04  1.400343E+05 -5.915854E+05  2.311224E-10  8.931837E-12
       191  17 -1.357919E+06 -9.485350E+04  1.228418E+05 -5.984791E+05  3.427787E-10 -4.918920E-10
       191  18 -1.439738E+06 -1.509920E+05  1.020375E+05 -6.475287E+05  5.905671E-10 -2.014864E-10
       191  19 -2.494193E+06 -5.459486E+05 -1.726252E+05 -9.347052E+05  1.967917E+04 -2.773323E+04
       191  20 -2.412202E+06 -4.882233E+05 -1.403958E+05 -8.862692E+05  1.317570E+04 -2.403863E+04
       191  21 -2.294238E+06 -4.692318E+05 -1.119270E+05 -8.799931E+05  6.628598E+03 -2.021497E+04
       191  22 -1.867334E+06 -3.116899E+05 -1.627845E+04 -7.632241E+05  2.361325E+04 -2.625577E+04
       191  23 -1.885197E+06 -2.915472E+05 -8.765292E+03 -7.424298E+05  1.720050E+04 -2.252904E+04
       191  24 -1.867078E+06 -3.101179E+05 -4.937365E+03 -7.637976E+05  1.074491E+04 -1.867303E+04
       191  25 -1.240091E+06 -7.740593E+04  1.400369E+05 -5.915860E+05  2.755167E+04 -2.477669E+04
       191  26 -1.357919E+06 -9.485291E+04  1.228435E+05 -5.984794E+05  2.122904E+04 -2.101804E+04
       191  27 -1.439738E+06 -1.509916E+05  1.020385E+05 -6.475289E+05  1.486434E+04 -1.712993E+04
       192   1 -2.198708E+06 -4.341121E+05 -8.632808E+04 -8.543721E+05 -4.696182E+03  1.723944E+04
       192   2 -2.115430E+06 -3.771442E+05 -5.974085E+04 -8.049040E+05 -1.419850E+03  1.210464E+04
       192   3 -1.994652E+06 -3.579935E+05 -3.406938E+04 -7.987177E+05  1.863847E+03  6.943821E+03
       192   4 -1.866793E+06 -3.104133E+05 -3.817345E+03 -7.638531E+05 -8.812557E+03  1.569836E+04
       192   5 -1.885522E+06 -2.914363E+05 -2.344537E+03 -7.422341E+05 -5.554866E+03  1.055741E+04
       192   6 -1.866759E+06 -3.102722E+05 -1.771735E+03 -7.638995E+05 -2.290045E+03  5.390414E+03
       192   7 -1.534769E+06 -1.867073E+05  7.868487E+04 -6.732901E+05 -1.293134E+04  1.415639E+04
       192   8 -1.655563E+06 -2.057252E+05  5.504756E+04 -6.795432E+05 -9.691550E+03  9.009556E+03
       192   9 -1.738850E+06 -2.625500E+05  3.052452E+04 -7.290750E+05 -6.444856E+03  3.836664E+03
       192  10 -2.198708E+06 -4.341124E+05 -8.632868E+04 -8.543720E+05 -8.466085E-11  7.572285E-10
       192  11 -2.115430E+06 -3.771444E+05 -5.974113E+04 -8.049040E+05  2.520536E-10  1.185647E-09
       192  12 -1.994652E+06 -3.579935E+05 -3.406948E+04 -7.987177E+05 -2.383798E-10  2.573026E-10
       192  13 -1.866793E+06 -3.104136E+05 -3.817953E+03 -7.638530E+05 -2.767636E-10 -3.504059E-10
       192  14 -1.885522E+06 -2.914365E+05 -2.344804E+03 -7.422341E+05  1.050735E-10  8.144875E-10
       192  15 -1.866759E+06 -3.102722E+05 -1.771799E+03 -7.638995E+05 -7.459344E-10 -4.776515E-10
       192  16 -1.534770E+06 -1.867075E+05  7.868418E+04 -6.732899E+05 -3.770201E-11  4.296012E-10
       192  17 -1.655563E+06 -2.057253E+05  5.504723E+04 -6.795432E+05  1.133967E-11  3.187710E-10
       192  18 -1.738850E+06 -2.625500E+05  3.052442E+04 -7.290750E+05 -6.067539E-10 -1.253187E-09
       192  19 -2.198708E+06 -4.341121E+05 -8.632808E+04 -8.543721E+05  4.696182E+03 -1.723944E+04
       192  20 -2.115430E+06 -3.771442E+05 -5.974085E+04 -8.049040E+05  1.419850E+03 -1.210464E+04
       192  21 -1.994652E+06 -3.579935E+05 -3.406938E+04 -7.987177E+05 -1.863847E+03 -6.943821E+03
       192  22 -1.866793E+06 -3.104133E+05 -3.817345E+03 -7.638531E+05  8.812557E+03 -1.569836E+04
       192  23 -1.885522E+06 -2.914363E+05 -2.344537E+03 -7.422341E+05  5.554866E+03 -1.055741E+04
       192  24 -1.866759E+06 -3.102722E+05 -1.771735E+03 -7.638995E+05  2.290045E+03 -5.390414E+03
       192  25 -1.534769E+06 -1.867073E+05  7.868487E+04 -6.732901E+05  1.293134E+04 -1.415639E+04
       192  26 -1.655563E+06 -2.057252E+05  5.504756E+04 -6.795432E+05  9.691550E+03 -9.009556E+03
       192  27 -1.738850E+06 -2.625500E+05  3.052452E+04 -7.290750E+05  6.444856E+03 -3.836664E+03
       193   1 -1.898403E+06 -3.220702E+05 -9.274267E+03 -7.726176E+05  3.382703E+03  3.781644E+03
       193   2 -1.814775E+06 -2.650252E+05  1.553247E+04 -7.229208E+05  6.538114E+03 -1.442307E+03
       193   3 -1.693517E+06 -2.459187E+05  3.952002E+04 -7.166868E+05  9.690683E+03 -6.656111E+03
       193   4 -1.866728E+06 -3.103065E+05 -1.736264E+03 -7.639366E+05 -7.764388E+02  2.226464E+03
       193   5 -1.885545E+06 -2.913795E+05 -2.127353E+03 -7.421872E+05  2.385878E+03 -2.995202E+03
       193   6 -1.866745E+06 -3.103943E+05 -3.343261E+03 -7.639059E+05  5.545144E+03 -8.206740E+03
       193   7 -1.835053E+06 -2.985426E+05  5.801780E+03 -7.552551E+05 -4.935830E+03  6.711903E+02
       193   8 -1.956310E+06 -3.177334E+05 -1.978754E+04 -7.614516E+05 -1.765849E+03 -4.547906E+03
       193   9 -2.039944E+06 -3.748679E+05 -4.620879E+04 -8.111129E+05  1.400870E+03 -9.756896E+03
       193  10 -1.898403E+06 -3.220702E+05 -9.274315E+03 -7.726176E+05 -6.157325E-11 -2.339083E-10
       193  11 -1.814775E+06 -2.650252E+05  1.553239E+04 -7.229207E+05 -1.030002E-10 -6.488771E-10
       193  12 -1.693518E+06 -2.459187E+05  3.951976E+04 -7.166868E+05 -2.266727E-09  5.323956E-11
       193  13 -1.866728E+06 -3.103065E+05 -1.736274E+03 -7.639366E+05  7.876487E-10 -1.826584E-10
       193  14 -1.885545E+06 -2.913795E+05 -2.127381E+03 -7.421872E+05  2.015416E-10  1.646679E-09
       193  15 -1.866746E+06 -3.103944E+05 -3.343445E+03 -7.639058E+05 -2.698831E-09 -9.742268E-10
       193  16 -1.835053E+06 -2.985426E+05  5.801733E+03 -7.552551E+05  1.862530E-10 -5.194646E-11
       193  17 -1.956310E+06 -3.177335E+05 -1.978759E+04 -7.614516E+05 -2.576088E-10  6.632118E-10
       193  18 -2.039944E+06 -3.748680E+05 -4.620897E+04 -8.111129E+05 -3.109824E-09 -9.410045E-10
       193  19 -1.898403E+06 -3.220702E+05 -9.274267E+03 -7.726176E+05 -3.382703E+03 -3.781644E+03
       193  20 -1.814775E+06 -2.650252E+05  1.553247E+04 -7.229208E+05 -6.538114E+03  1.442307E+03
       193  21 -1.693517E+06 -2.459187E+05  3.952002E+04 -7.166868E+05 -9.690683E+03  6.656111E+03
       193  22 -1.866728E+06 -3.103065E+05 -1.736264E+03 -7.639366E+05  7.764388E+02 -2.226464E+03
       193  23 -1.885545E+06 -2.913795E+05 -2.127353E+03 -7.421872E+05 -2.385878E+03  2.995202E+03
       193  24 -1.866745E+06 -3.103943E+05 -3.343261E+03 -7.639059E+05 -5.545144E+03  8.206740E+03
       193  25 -1.835053E+06 -2.985426E+05  5.801780E+03 -7.552551E+05  4.935830E+03 -6.711903E+02
       193  26 -1.956310E+06 -3.177334E+05 -1.978754E+04 -7.614516E+05  1.765849E+03  4.547906E+03
       193  27 -2.039944E+06 -3.748679E+05 -4.620879E+04 -8.111129E+05 -1.400870E+03  9.756896E+03
       194   1 -1.597696E+06 -2.100079E+05  6.323456E+04 -6.907822E+05  1.154782E+04 -9.686075E+03
       194   2 -1.514856E+06 -1.532936E+05  8.490248E+04 -6.412596E+05  1.734237E+04 -1.385642E+04
       194   3 -1.395534E+06 -1.354659E+05  1.034345E+05 -6.344739E+05  2.310227E+04 -1.792188E+04
       194   4 -1.866955E+06 -3.101844E+05 -4.293309E+03 -7.639081E+05  7.394415E+03 -1.124016E+04
       194   5 -1.885290E+06 -2.913980E+05 -7.551750E+03 -7.422934E+05  1.326331E+04 -1.538406E+04
       194   6 -1.867167E+06 -3.115160E+05 -1.400610E+04 -7.634212E+05  1.909689E+04 -1.942326E+04
       194   7 -2.136141E+06 -4.103559E+05 -7.182651E+04 -8.370051E+05  3.242999E+03 -1.279351E+04
       194   8 -2.255589E+06 -4.294935E+05 -1.000167E+05 -8.432725E+05  9.186918E+03 -1.691071E+04
       194   9 -2.338584E+06 -4.875520E+05 -1.314646E+05 -8.922800E+05  1.509483E+04 -2.092340E+04
       194  10 -1.597696E+06 -2.100081E+05  6.323413E+04 -6.907821E+05 -4.031035E-09  1.606965E-10
       194  11 -1.514856E+06 -1.532938E+05  8.490155E+04 -6.412594E+05  9.784340E-11  3.376818E-10
       194  12 -1.395534E+06 -1.354664E+05  1.034329E+05 -6.344736E+05  8.015112E-10  4.653730E-10
       194  13 -1.866955E+06 -3.101846E+05 -4.293649E+03 -7.639081E+05 -3.533575E-09 -3.718982E-10
       194  14 -1.885290E+06 -2.913983E+05 -7.552525E+03 -7.422933E+05 -8.082195E-10  6.541193E-10
       194  15 -1.867168E+06 -3.115165E+05 -1.400749E+04 -7.634209E+05  1.976093E-10 -3.715441E-11
       194  16 -2.136141E+06 -4.103561E+05 -7.182684E+04 -8.370050E+05 -1.732502E-09 -9.244667E-10
       194  17 -2.255589E+06 -4.294938E+05 -1.000174E+05 -8.432723E+05  1.884757E-10  4.518432E-10
       194  18 -2.338584E+06 -4.875525E+05 -1.314658E+05 -8.922797E+05 -9.234280E-11  3.559832E-10
       194  19 -1.597696E+06 -2.100079E+05  6.323456E+04 -6.907822E+05 -1.154782E+04  9.686075E+03
       194  20 -1.514856E+06 -1.532936E+05  8.490248E+04 -6.412596E+05 -1.734237E+04  1.385642E+04
       194  21 -1.395534E+06 -1.354659E+05  1.034345E+05 -6.344739E+05 -2.310227E+04  1.792188E+04
       194  22 -1.866955E+06 -3.101844E+05 -4.293309E+03 -7.639081E+05 -7.394415E+03  1.124016E+04
       194  23 -1.885290E+06 -2.913980E+05 -7.551750E+03 -7.422934E+05 -1.326331E+04  1.538406E+04
       194  24 -1.867167E+06 -3.115160E+05 -1.400610E+04 -7.634212E+05 -1.909689E+04  1.942326E+04
       194  25 -2.136141E+06 -4.103559E+05 -7.182651E+04 -8.370051E+05 -3.242999E+03  1.279351E+04
       194  26 -2.255589E+06 -4.294935E+05 -1.000167E+05 -8.432725E+05 -9.186918E+03  1.691071E+04
       194  27 -2.338584E+06 -4.875520E+05 -1.314646E+05 -8.922800E+05 -1.509483E+04  2.092340E+04
       195   1 -1.300369E+06 -1.002655E+05  1.233096E+05 -6.123639E+05  2.734630E+04 -2.016569E+04
       195   2 -1.219980E+06 -4.111701E+04  1.332946E+05 -5.594343E+05  4.490818E+04 -1.952315E+04
       195   3 -1.112092E+06 -3.775684E+04  1.264793E+05 -5.437921E+05  6.192202E+04 -1.739610E+04
       195   4 -1.868393E+06 -3.093521E+05 -1.827522E+04 -7.644579E+05  2.293454E+04 -2.182041E+04
       195   5 -1.883336E+06 -2.904028E+05 -3.267564E+04 -7.424275E+05  4.157608E+04 -2.077575E+04
       195   6 -1.871014E+06 -3.274749E+05 -6.474804E+04 -7.576914E+05  5.966664E+04 -1.824702E+04
       195   7 -2.436101E+06 -5.184198E+05 -1.598851E+05 -9.164263E+05  1.852719E+04 -2.347353E+04
       195   8 -2.546259E+06 -5.396575E+05 -1.986801E+05 -9.252421E+05  3.824788E+04 -2.202687E+04
       195   9 -2.629366E+06 -6.171469E+05 -2.560204E+05 -9.713494E+05  5.741426E+04 -1.909677E+04
       195  10 -1.300370E+06 -1.002662E+05  1.233074E+05 -6.123635E+05 -4.337798E-10  2.066630E-11
       195  11 -1.219982E+06 -4.111796E+04  1.332901E+05 -5.594336E+05  2.088605E-10  1.988056E-10
       195  12 -1.112096E+06 -3.775820E+04  1.264715E+05 -5.437913E+05  1.398204E-09 -1.036077E-10
       195  13 -1.868394E+06 -3.093528E+05 -1.827710E+04 -7.644575E+05 -4.667113E-11  6.219364E-10
       195  14 -1.883338E+06 -2.904038E+05 -3.267970E+04 -7.424268E+05 -3.798488E-10  2.245543E-10
       195  15 -1.871018E+06 -3.274762E+05 -6.475537E+04 -7.576905E+05  6.920383E-10 -4.305600E-10
       195  16 -2.436101E+06 -5.184205E+05 -1.598868E+05 -9.164260E+05  6.033341E-10 -1.146317E-10
       195  17 -2.546261E+06 -5.396584E+05 -1.986838E+05 -9.252414E+05  2.517033E-10  2.540464E-10
       195  18 -2.629369E+06 -6.171482E+05 -2.560273E+05 -9.713486E+05  9.980202E-11 -4.303771E-11
       195  19 -1.300369E+06 -1.002655E+05  1.233096E+05 -6.123639E+05 -2.734630E+04  2.016569E+04
       195  20 -1.219980E+06 -4.111701E+04  1.332946E+05 -5.594343E+05 -4.490818E+04  1.952315E+04
       195  21 -1.112092E+06 -3.775684E+04  1.264793E+05 -5.437921E+05 -6.192202E+04  1.739610E+04
       195  22 -1.868393E+06 -3.093521E+05 -1.827522E+04 -7.644579E+05 -2.293454E+04  2.182041E+04
       195  23 -1.883336E+06 -2.904028E+05 -3.267564E+04 -7.424275E+05 -4.157608E+04  2.077575E+04
       195  24 -1.871014E+06 -3.274749E+05 -6.474804E+04 -7.576914E+05 -5.966664E+04  1.824702E+04
       195  25 -2.436101E+06 -5.184198E+05 -1.598851E+05 -9.164263E+05 -1.852719E+04  2.347353E+04
       195  26 -2.546259E+06 -5.396575E+05 -1.986801E+05 -9.252421E+05 -3.824788E+04  2.202687E+04
       195  27 -2.629366E+06 -6.171469E+05 -2.560204E+05 -9.713494E+05 -5.741426E+04  1.909677E+04
       196   1 -1.001043E+06 -5.777757E+03  1.320111E+05 -5.694235E+05  8.397327E+04 -1.646733E+04
       196   2 -9.387597E+05  1.033073E+05  9.838651E+04 -4.544554E+05  1.381619E+05  3.386448E+03
       196   3 -9.456999E+05 -7.904273E+04 -4.590394E+04 -3.111497E+05  1.813449E+05  5.251526E+04
       196   4 -1.881891E+06 -2.991893E+05 -8.096545E+04 -7.737803E+05  7.274024E+04 -2.068594E+04
       196   5 -1.862774E+06 -2.752970E+05 -1.400157E+05 -7.413368E+05  1.484998E+05  7.260086E+03
       196   6 -1.917334E+06 -5.473980E+05 -3.269942E+05 -6.805305E+05  2.132376E+05  6.448511E+04
       196   7 -2.761982E+06 -5.925882E+05 -2.939992E+05 -9.778919E+05  6.152455E+04 -2.489968E+04
       196   8 -2.785942E+06 -6.537962E+05 -3.784878E+05 -1.027812E+06  1.588206E+05  1.112595E+04
       196   9 -2.888014E+06 -1.015502E+06 -6.081676E+05 -1.049324E+06  2.450749E+05  7.642092E+04
       196  10 -1.001050E+06 -5.779942E+03  1.319973E+05 -5.694224E+05  9.794736E-11 -4.739552E-10
       196  11 -9.387802E+05  1.033021E+05  9.835056E+04 -4.544558E+05 -3.900864E-10  2.935626E-10
       196  12 -9.457360E+05 -7.905454E+04 -4.597104E+04 -3.111574E+05  1.017951E-10  3.979195E-10
       196  13 -1.881897E+06 -2.991912E+05 -8.097622E+04 -7.737791E+05  6.975807E-10 -7.285822E-11
       196  14 -1.862797E+06 -2.753030E+05 -1.400574E+05 -7.413377E+05 -1.724196E-09  3.915416E-10
       196  15 -1.917384E+06 -5.474148E+05 -3.270878E+05 -6.805416E+05  1.785176E-10 -5.559802E-10
       196  16 -2.761986E+06 -5.925899E+05 -2.940075E+05 -9.778907E+05 -1.930341E-11  5.529309E-10
       196  17 -2.785969E+06 -6.538032E+05 -3.785357E+05 -1.027814E+06 -2.247542E-09  1.285485E-09
       196  18 -2.888080E+06 -1.015524E+06 -6.082921E+05 -1.049339E+06 -1.238931E-10 -1.524524E-10
       196  19 -1.001043E+06 -5.777757E+03  1.320111E+05 -5.694235E+05 -8.397327E+04  1.646733E+04
       196  20 -9.387597E+05  1.033073E+05  9.838651E+04 -4.544554E+05 -1.381619E+05 -3.386448E+03
       196  21 -9.456999E+05 -7.904273E+04 -4.590394E+04 -3.111497E+05 -1.813449E+05 -5.251526E+04
       196  22 -1.881891E+06 -2.991893E+05 -8.096545E+04 -7.737803E+05 -7.274024E+04  2.068594E+04
       196  23 -1.862774E+06 -2.752970E+05 -1.400157E+05 -7.413368E+05 -1.484998E+05 -7.260086E+03
       196  24 -1.917334E+06 -5.473980E+05 -3.269942E+05 -6.805305E+05 -2.132376E+05 -6.448511E+04
       196  25 -2.761982E+06 -5.925882E+05 -2.939992E+05 -9.778919E+05 -6.152455E+04  2.489968E+04
       196  26 -2.785942E+06 -6.537962E+05 -3.784878E+05 -1.027812E+06 -1.588206E+05 -1.112595E+04
       196  27 -2.888014E+06 -1.015502E+06 -6.081676E+05 -1.049324E+06 -2.450749E+05 -7.642092E+04
       197   1 -1.869089E+04  1.709810E+04  7.639903E+04  6.046179E+04  1.796903E+05  1.192319E+04
       197   2  2.691233E+04 -2.203876E+05 -5.750579E+04  6.925753E+03  1.258483E+05  3.629366E+04
       197   3  1.437113E+05 -2.030284E+05 -9.254427E+04 -8.444141E+04  7.202862E+04  3.667280E+04
       197   4  9.167728E+05  2.492463E+05  3.040649E+05 -4.750739E+04  2.087821E+05  1.192964E+04
       197   5  8.796508E+05 -1.112507E+04  1.369071E+05 -2.844473E+04  1.358355E+05  3.629319E+04
       197   6  9.169170E+05 -1.354743E+04  8.176789E+04 -4.720677E+04  6.292093E+04  3.666754E+04
       197   7  1.853062E+06  4.813746E+05  5.316768E+05 -1.556399E+05  2.379175E+05  1.192599E+04
       197   8  1.733066E+06  1.980920E+05  3.312738E+05 -6.386436E+04  1.458361E+05  3.629159E+04
       197   9  1.690681E+06  1.758978E+05  2.560429E+05 -9.925392E+03  5.380198E+04  3.666119E+04
       197  10 -1.872560E+04  1.708928E+04  7.633808E+04  6.046007E+04 -6.745834E-10  4.974458E-10
       197  11  2.689497E+04 -2.203933E+05 -5.753802E+04  6.922074E+03  1.602849E-09 -4.836257E-10
       197  12  1.437054E+05 -2.030312E+05 -9.255655E+04 -8.444354E+04  1.308447E-10 -5.390784E-10
       197  13  9.167260E+05  2.492344E+05  3.039828E+05 -4.750940E+04 -5.390294E-10  2.146991E-10
       197  14  8.796306E+05 -1.113143E+04  1.368700E+05 -2.844870E+04 -4.340689E-10 -1.421355E-09
       197  15  9.169123E+05 -1.354994E+04  8.175794E+04 -4.720863E+04 -1.344895E-09 -5.311794E-10
       197  16  1.853001E+06  4.813594E+05  5.315705E+05 -1.556422E+05  8.742604E-10 -7.709650E-11
       197  17  1.733043E+06  1.980849E+05  3.312314E+05 -6.386862E+04 -7.879169E-10 -3.511365E-10
       197  18  1.690678E+06  1.758956E+05  2.560350E+05 -9.926980E+03 -6.989175E-10 -8.582815E-10
       197  19 -1.869089E+04  1.709810E+04  7.639903E+04  6.046179E+04 -1.796903E+05 -1.192319E+04
       197  20  2.691233E+04 -2.203876E+05 -5.750579E+04  6.925753E+03 -1.258483E+05 -3.629366E+04
       197  21  1.437113E+05 -2.030284E+05 -9.254427E+04 -8.444141E+04 -7.202862E+04 -3.667280E+04
       197  22  9.167728E+05  2.492463E+05  3.040649E+05 -4.750739E+04 -2.087821E+05 -1.192964E+04
       197  23  8.796508E+05 -1.112507E+04  1.369071E+05 -2.844473E+04 -1.358355E+05 -3.629319E+04
       197  24  9.169170E+05 -1.354743E+04  8.176789E+04 -4.720677E+04 -6.292093E+04 -3.666754E+04
       197  25  1.853062E+06  4.813746E+05  5.316768E+05 -1.556399E+05 -2.379175E+05 -1.192599E+04
       197  26  1.733066E+06  1.980920E+05  3.312738E+05 -6.386436E+04 -1.458361E+05 -3.629159E+04
       197  27  1.690681E+06  1.758978E+05  2.560429E+05 -9.925392E+03 -5.380198E+04 -3.666119E+04
       198   1  2.004838E+05 -1.555808E+05 -9.342757E+04 -4.185283E+04  5.280193E+04  3.166064E+04
       198   2  2.765740E+05 -1.535422E+05 -1.055750E+05 -2.713057E+04  3.605215E+04  2.881312E+04
       198   3  3.594462E+05 -1.339799E+05 -1.023895E+05 -5.025372E+04  1.929793E+04  2.488158E+04
       198   4  9.019270E+05  1.640712E+04  6.551342E+04 -4.729414E+04  5.102112E+04  3.165669E+04
       198   5  8.984874E+05 -1.132519E+03  3.495154E+04 -2.836967E+04  3.339422E+04  2.881020E+04
       198   6  9.019684E+05 -1.006720E+03  2.031845E+04 -4.728777E+04  1.576500E+04  2.487996E+04
       198   7  1.603827E+06  1.883613E+05  2.244227E+05 -5.274169E+04  4.923830E+04  3.165278E+04
       198   8  1.520760E+06  1.512506E+05  1.754533E+05 -2.961005E+04  3.073364E+04  2.880728E+04
       198   9  1.444764E+06  1.319463E+05  1.430076E+05 -4.431920E+04  1.222901E+04  2.487830E+04
       198  10  2.004805E+05 -1.555826E+05 -9.343470E+04 -4.185417E+04 -2.752454E-09 -1.063650E-09
       198  11  2.765724E+05 -1.535435E+05 -1.055790E+05 -2.713140E+04  6.631745E-09  4.985510E-10
       198  12  3.594457E+05 -1.339807E+05 -1.023914E+05 -5.025411E+04  1.206603E-08  1.968686E-09
       198  13  9.019239E+05  1.640535E+04  6.550666E+04 -4.729544E+04 -1.641730E-09 -7.883420E-10
       198  14  8.984860E+05 -1.133710E+03  3.494789E+04 -2.837045E+04 -1.682917E-10  3.086701E-10
       198  15  9.019680E+05 -1.007452E+03  2.031682E+04 -4.728809E+04  4.853383E-10  1.796329E-09
       198  16  1.603824E+06  1.883595E+05  2.244163E+05 -5.274295E+04  2.264778E-09 -2.962231E-10
       198  17  1.520759E+06  1.512495E+05  1.754500E+05 -2.961076E+04 -7.175460E-09  9.753945E-11
       198  18  1.444763E+06  1.319456E+05  1.430061E+05 -4.431945E+04 -1.217629E-08  1.656550E-09
       198  19  2.004838E+05 -1.555808E+05 -9.342757E+04 -4.185283E+04 -5.280193E+04 -3.166064E+04
       198  20  2.765740E+05 -1.535422E+05 -1.055750E+05 -2.713057E+04 -3.605215E+04 -2.881312E+04
       198  21  3.594462E+05 -1.339799E+05 -1.023895E+05 -5.025372E+04 -1.929793E+04 -2.488158E+04
       198  22  9.019270E+05  1.640712E+04  6.551342E+04 -4.729414E+04 -5.102112E+04 -3.165669E+04
       198  23  8.984874E+05 -1.132519E+03  3.495154E+04 -2.836967E+04 -3.339422E+04 -2.881020E+04
       198  24  9.019684E+05 -1.006720E+03  2.031845E+04 -4.728777E+04 -1.576500E+04 -2.487996E+04
       198  25  1.603827E+06  1.883613E+05  2.244227E+05 -5.274169E+04 -4.923830E+04 -3.165278E+04
       198  26  1.520760E+06  1.512506E+05  1.754533E+05 -2.961005E+04 -3.073364E+04 -2.880728E+04
       198  27  1.444764E+06  1.319463E+05  1.430076E+05 -4.431920E+04 -1.222901E+04 -2.487830E+04
       199   1  4.285854E+05 -1.146653E+05 -9.075423E+04 -4.722445E+04  1.578315E+04  2.236387E+04
       199   2  5.066732E+05 -9.658095E+04 -8.002554E+04 -2.859587E+04  1.142846E+04  1.831776E+04
       199   3  5.857013E+05 -7.726893E+04 -6.614266E+04 -4.741899E+04  7.070857E+03  1.423375E+04
       199   4  9.006550E+05  9.606844E+02  1.564526E+04 -4.720224E+04  1.259794E+04  2.236286E+04
       199   5  9.001959E+05 -1.650371E+02  8.832866E+03 -2.847725E+04  8.209959E+03  1.831758E+04
       199   6  9.006749E+05 -5.803870E+01  5.195666E+03 -4.720250E+04  3.819603E+03  1.423443E+04
       199   7  1.372932E+06  1.165714E+05  1.220306E+05 -4.717999E+04  9.410339E+03  2.236185E+04
       199   8  1.293862E+06  9.624025E+04  9.768139E+04 -2.835854E+04  4.989440E+03  1.831740E+04
       199   9  1.215740E+06  7.714603E+04  7.652765E+04 -4.698588E+04  5.667156E+02  1.423510E+04
       199  10  4.285850E+05 -1.146659E+05 -9.075563E+04 -4.722474E+04 -1.190165E-08  1.766875E-09
       199  11  5.066730E+05 -9.658134E+04 -8.002642E+04 -2.859604E+04 -7.021152E-09 -3.664733E-10
       199  12  5.857012E+05 -7.726916E+04 -6.614314E+04 -4.741907E+04  8.228323E-10 -4.720019E-10
       199  13  9.006547E+05  9.601046E+02  1.564403E+04 -4.720246E+04  5.303359E-10  1.595419E-09
       199  14  9.001958E+05 -1.654156E+02  8.832109E+03 -2.847737E+04 -4.106591E-10 -3.382395E-10
       199  15  9.006748E+05 -5.826029E+01  5.195258E+03 -4.720254E+04 -7.257288E-10 -9.206119E-10
       199  16  1.372931E+06  1.165709E+05  1.220295E+05 -4.718016E+04  1.264713E-08  1.379926E-09
       199  17  1.293862E+06  9.623989E+04  9.768072E+04 -2.835861E+04  7.845833E-09 -3.559743E-10
       199  18  1.215740E+06  7.714582E+04  7.652726E+04 -4.698589E+04 -1.081226E-09 -8.087709E-10
       199  19  4.285854E+05 -1.146653E+05 -9.075423E+04 -4.722445E+04 -1.578315E+04 -2.236387E+04
       199  20  5.066732E+05 -9.658095E+04 -8.002554E+04 -2.859587E+04 -1.142846E+04 -1.831776E+04
       199  21  5.857013E+05 -7.726893E+04 -6.614266E+04 -4.741899E+04 -7.070857E+03 -1.423375E+04
       199  22  9.006550E+05  9.606844E+02  1.564526E+04 -4.720224E+04 -1.259794E+04 -2.236286E+04
       199  23  9.001959E+05 -1.650371E+02  8.832866E+03 -2.847725E+04 -8.209959E+03 -1.831758E+04
       199  24  9.006749E+05 -5.803870E+01  5.195666E+03 -4.720250E+04 -3.819603E+03 -1.423443E+04
       199  25  1.372932E+06  1.165714E+05  1.220306E+05 -4.717999E+04 -9.410339E+03 -2.236185E+04
       199  26  1.293862E+06  9.624025E+04  9.768139E+04 -2.835854E+04 -4.989440E+03 -1.831740E+04
       199  27  1.215740E+06  7.714603E+04  7.652765E+04 -4.698588E+04 -5.667156E+02 -1.423510E+04
       200   1  6.553551E+05 -5.995730E+04 -5.109026E+04 -4.717849E+04  6.216119E+03  1.185207E+04
       200   2  7.333317E+05 -4.094653E+04 -3.519160E+04 -2.855319E+04  4.959549E+03  7.778899E+03
       200   3  8.114819E+05 -2.181886E+04 -1.845254E+04 -4.713582E+04  3.701838E+03  3.708843E+03
       200   4  9.005130E+05  5.705661E+01  4.033915E+03 -4.714845E+04  2.986604E+03  1.185311E+04
       200   5  9.004331E+05 -1.140257E+01  2.533708E+03 -2.854481E+04  1.731878E+03  7.780285E+03
       200   6  9.005207E+05  3.700816E+01  1.872554E+03 -4.714849E+04  4.761664E+02  3.710593E+03
       200   7  1.145727E+06  6.006731E+04  5.915430E+04 -4.711839E+04 -2.441727E+02  1.185416E+04
       200   8  1.067561E+06  4.092181E+04  4.025726E+04 -2.853643E+04 -1.496652E+03  7.781670E+03
       200   9  9.895669E+05  2.189233E+04  2.219717E+04 -4.716116E+04 -2.749963E+03  3.712343E+03
       200  10  6.553550E+05 -5.995746E+04 -5.109059E+04 -4.717854E+04 -7.373123E-10 -3.496071E-10
       200  11  7.333316E+05 -4.094660E+04 -3.519176E+04 -2.855322E+04 -1.106233E-10  4.285419E-11
       200  12  8.114819E+05 -2.181888E+04 -1.845259E+04 -4.713583E+04 -2.209054E-10  2.579411E-10
       200  13  9.005129E+05  5.690329E+01  4.033634E+03 -4.714848E+04  2.133890E-10 -2.366744E-10
       200  14  9.004331E+05 -1.146841E+01  2.533589E+03 -2.854482E+04  3.227028E-10 -6.803942E-10
       200  15  9.005207E+05  3.699330E+01  1.872528E+03 -4.714849E+04  3.520546E-11 -3.270544E-10
       200  16  1.145727E+06  6.006716E+04  5.915404E+04 -4.711839E+04  7.887598E-10 -1.345755E-09
       200  17  1.067561E+06  4.092175E+04  4.025715E+04 -2.853642E+04 -1.183272E-09 -5.456443E-10
       200  18  9.895669E+05  2.189232E+04  2.219713E+04 -4.716115E+04 -6.119043E-12 -5.892241E-10
       200  19  6.553551E+05 -5.995730E+04 -5.109026E+04 -4.717849E+04 -6.216119E+03 -1.185207E+04
       200  20  7.333317E+05 -4.094653E+04 -3.519160E+04 -2.855319E+04 -4.959549E+03 -7.778899E+03
       200  21  8.114819E+05 -2.181886E+04 -1.845254E+04 -4.713582E+04 -3.701838E+03 -3.708843E+03
       200  22  9.005130E+05  5.705661E+01  4.033915E+03 -4.714845E+04 -2.986604E+03 -1.185311E+04
       200  23  9.004331E+05 -1.140257E+01  2.533708E+03 -2.854481E+04 -1.731878E+03 -7.780285E+03
       200  24  9.005207E+05  3.700816E+01  1.872554E+03 -4.714849E+04 -4.761664E+02 -3.710593E+03
       200  25  1.145727E+06  6.006731E+04  5.915430E+04 -4.711839E+04  2.441727E+02 -1.185416E+04
       200  26  1.067561E+06  4.092181E+04  4.025726E+04 -2.853643E+04  1.496652E+03 -7.781670E+03
       200  27  9.895669E+05  2.189233E+04  2.219717E+04 -4.716116E+04  2.749963E+03 -3.712343E+03
       201   1  8.810295E+05 -4.688549E+03 -2.406741E+03 -4.713535E+04  3.369174E+03  1.341631E+03
       201   2  9.589492E+05  1.433189E+04  1.516555E+04 -2.855072E+04  2.397020E+03 -2.724617E+03
       201   3  1.036981E+06  3.344316E+04  3.338210E+04 -4.712665E+04  1.425105E+03 -6.790788E+03
       201   4  9.005093E+05  3.799740E+01  1.765574E+03 -4.713815E+04  1.446585E+02  1.343453E+03
       201   5  9.004539E+05  4.138054E+00  1.961168E+03 -2.855775E+04 -8.275389E+02 -2.722931E+03
       201   6  9.005066E+05  6.181009E+01  2.801653E+03 -4.713812E+04 -1.799377E+03 -6.789214E+03
       201   7  9.199896E+05  4.764525E+03  5.937907E+03 -4.714095E+04 -3.079957E+03  1.345275E+03
       201   8  8.419618E+05 -1.432384E+04 -1.124340E+04 -2.856477E+04 -4.051797E+03 -2.721244E+03
       201   9  7.640490E+05 -3.332080E+04 -2.777994E+04 -4.714958E+04 -5.023158E+03 -6.787640E+03
       201  10  8.810295E+05 -4.688554E+03 -2.406766E+03 -4.713535E+04 -6.046516E-12  2.285658E-10
       201  11  9.589492E+05  1.433188E+04  1.516553E+04 -2.855071E+04 -3.096758E-11  2.751245E-10
       201  12  1.036981E+06  3.344311E+04  3.338201E+04 -4.712665E+04  1.713500E-09 -3.588378E-10
       201  13  9.005093E+05  3.799545E+01  1.765571E+03 -4.713815E+04  7.692205E-10  8.914399E-10
       201  14  9.004539E+05  4.129905E+00  1.961153E+03 -2.855775E+04  8.189270E-11  1.034612E-09
       201  15  9.005065E+05  6.175970E+01  2.801560E+03 -4.713813E+04  2.918323E-10 -9.469027E-10
       201  16  9.199895E+05  4.764520E+03  5.937886E+03 -4.714094E+04 -1.438514E-10  2.602886E-10
       201  17  8.419618E+05 -1.432385E+04 -1.124344E+04 -2.856478E+04  1.334781E-09  9.118603E-10
       201  18  7.640489E+05 -3.332086E+04 -2.778007E+04 -4.714961E+04 -1.028517E-09 -4.728068E-10
       201  19  8.810295E+05 -4.688549E+03 -2.406741E+03 -4.713535E+04 -3.369174E+03 -1.341631E+03
       201  20  9.589492E+05  1.433189E+04  1.516555E+04 -2.855072E+04 -2.397020E+03  2.724617E+03
       201  21  1.036981E+06  3.344316E+04  3.338210E+04 -4.712665E+04 -1.425105E+03  6.790788E+03
       201  22  9.005093E+05  3.799740E+01  1.765574E+03 -4.713815E+04 -1.446585E+02 -1.343453E+03
       201  23  9.004539E+05  4.138054E+00  1.961168E+03 -2.855775E+04  8.275389E+02  2.722931E+03
       201  24  9.005066E+05  6.181009E+01  2.801653E+03 -4.713812E+04  1.799377E+03  6.789214E+03
       201  25  9.199896E+05  4.764525E+03  5.937907E+03 -4.714095E+04  3.079957E+03 -1.345275E+03
       201  26  8.419618E+05 -1.432384E+04 -1.124340E+04 -2.856477E+04  4.051797E+03  2.721244E+03
       201  27  7.640490E+05 -3.332080E+04 -2.777994E+04 -4.714958E+04  5.023158E+03  6.787640E+03
       202   1  1.106753E+06  5.051915E+04  5.026479E+04 -4.705372E+04  8.721673E+02 -9.165247E+03
       202   2  1.184750E+06  6.957100E+04  7.002021E+04 -2.848231E+04 -2.049669E+03 -1.323498E+04
       202   3  1.263347E+06  8.944115E+04  9.188058E+04 -4.721326E+04 -4.970233E+03 -1.726888E+04
       202   4  9.006078E+05 -1.357365E+01  3.512503E+03 -4.716989E+04 -2.370191E+03 -9.163895E+03
       202   5  9.003061E+05 -9.125830E+01  5.817861E+03 -2.851805E+04 -5.262606E+03 -1.323426E+04
       202   6  9.005937E+05  6.446866E+02  1.020855E+04 -4.716960E+04 -8.153388E+03 -1.726875E+04
       202   7  6.945025E+05 -5.054922E+04 -4.324249E+04 -4.728602E+04 -5.611484E+03 -9.162542E+03
       202   8  6.159377E+05 -6.975906E+04 -5.838963E+04 -2.855377E+04 -8.474088E+03 -1.323353E+04
       202   9  5.379622E+05 -8.816077E+04 -7.147182E+04 -4.712597E+04 -1.133470E+04 -1.726862E+04
       202  10  1.106753E+06  5.051906E+04  5.026463E+04 -4.705371E+04 -1.616910E-09  1.808654E-10
       202  11  1.184749E+06  6.957081E+04  7.001987E+04 -2.848233E+04 -2.596732E-09  2.022152E-10
       202  12  1.263347E+06  8.944082E+04  9.187997E+04 -4.721333E+04  3.891826E-10  5.347225E-10
       202  13  9.006078E+05 -1.366537E+01  3.512334E+03 -4.716991E+04  3.416055E-10 -6.597302E-10
       202  14  9.003060E+05 -9.145388E+01  5.817480E+03 -2.851811E+04 -2.822522E-09 -1.717634E-10
       202  15  9.005936E+05  6.443485E+02  1.020787E+04 -4.716972E+04 -7.470155E-10  1.512800E-10
       202  16  6.945024E+05 -5.054932E+04 -4.324271E+04 -4.728606E+04  1.667885E-09 -1.041347E-10
       202  17  6.159375E+05 -6.975927E+04 -5.839009E+04 -2.855386E+04  1.699809E-09 -2.208059E-10
       202  18  5.379620E+05 -8.816112E+04 -7.147262E+04 -4.712612E+04 -8.980662E-10 -3.939004E-10
       202  19  1.106753E+06  5.051915E+04  5.026479E+04 -4.705372E+04 -8.721673E+02  9.165247E+03
       202  20  1.184750E+06  6.957100E+04  7.002021E+04 -2.848231E+04  2.049669E+03  1.323498E+04
       202  21  1.263347E+06  8.944115E+04  9.188058E+04 -4.721326E+04  4.970233E+03  1.726888E+04
       202  22  9.006078E+05 -1.357365E+01  3.512503E+03 -4.716989E+04  2.370191E+03  9.163895E+03
       202  23  9.003061E+05 -9.125830E+01  5.817861E+03 -2.851805E+04  5.262606E+03  1.323426E+04
       202  24  9.005937E+05  6.446866E+02  1.020855E+04 -4.716960E+04  8.153388E+03  1.726875E+04
       202  25  6.945025E+05 -5.054922E+04 -4.324249E+04 -4.728602E+04  5.611484E+03  9.162542E+03
       202  26  6.159377E+05 -6.975906E+04 -5.838963E+04 -2.855377E+04  8.474088E+03  1.323353E+04
       202  27  5.379622E+05 -8.816077E+04 -7.147182E+04 -4.712597E+04  1.133470E+04  1.726862E+04
       203   1  1.334360E+06  1.054186E+05  1.111355E+05 -4.538204E+04 -6.728193E+03 -1.975879E+04
       203   2  1.411079E+06  1.246337E+05  1.383161E+05 -2.931519E+04 -1.896169E+04 -2.368287E+04
       203   3  1.492423E+06  1.554628E+05  1.763787E+05 -5.086075E+04 -3.119420E+04 -2.664610E+04
       203   4  9.014482E+05 -6.337471E+02  1.323425E+04 -4.723850E+04 -1.021858E+04 -1.975912E+04
       203   5  8.991866E+05 -7.292229E+02  2.272372E+04 -2.843199E+04 -2.168137E+04 -2.368437E+04
       203   6  9.014164E+05  1.066203E+04  4.256768E+04 -4.723946E+04 -3.314165E+04 -2.664849E+04
       203   7  4.687104E+05 -1.066990E+05 -8.467898E+04 -4.909364E+04 -1.370656E+04 -1.975943E+04
       203   8  3.875376E+05 -1.261101E+05 -9.288546E+04 -2.754951E+04 -2.439883E+04 -2.368588E+04
       203   9  3.107330E+05 -1.341627E+05 -9.126584E+04 -4.362165E+04 -3.508726E+04 -2.665091E+04
       203  10  1.334360E+06  1.054182E+05  1.111347E+05 -4.538215E+04  1.051419E-09 -2.014313E-11
       203  11  1.411078E+06  1.246330E+05  1.383144E+05 -2.931555E+04  1.773491E-10 -3.954848E-10
       203  12  1.492422E+06  1.554618E+05  1.763756E+05 -5.086142E+04 -1.237511E-09  2.241581E-11
       203  13  9.014480E+05 -6.341945E+02  1.323332E+04 -4.723866E+04 -1.590824E-09 -2.985288E-10
       203  14  8.991860E+05 -7.299515E+02  2.272179E+04 -2.843240E+04 -3.486358E-10 -2.088814E-10
       203  15  9.014150E+05  1.066097E+04  4.256428E+04 -4.724017E+04  6.849668E-10  2.529764E-10
       203  16  4.687101E+05 -1.066994E+05 -8.468007E+04 -4.909386E+04 -1.842334E-09 -6.839309E-10
       203  17  3.875368E+05 -1.261109E+05 -9.288764E+04 -2.754998E+04 -2.661881E-09 -2.406075E-10
       203  18  3.107315E+05 -1.341638E+05 -9.126949E+04 -4.362241E+04  1.006618E-09  7.592180E-10
       203  19  1.334360E+06  1.054186E+05  1.111355E+05 -4.538204E+04  6.728193E+03  1.975879E+04
       203  20  1.411079E+06  1.246337E+05  1.383161E+05 -2.931519E+04  1.896169E+04  2.368287E+04
       203  21  1.492423E+06  1.554628E+05  1.763787E+05 -5.086075E+04  3.119420E+04  2.664610E+04
       203  22  9.014482E+05 -6.337471E+02  1.323425E+04 -4.723850E+04  1.021858E+04  1.975912E+04
       203  23  8.991866E+05 -7.292229E+02  2.272372E+04 -2.843199E+04  2.168137E+04  2.368437E+04
       203  24  9.014164E+05  1.066203E+04  4.256768E+04 -4.723946E+04  3.314165E+04  2.664849E+04
       203  25  4.687104E+05 -1.066990E+05 -8.467898E+04 -4.909364E+04  1.370656E+04  1.975943E+04
       203  26  3.875376E+05 -1.261101E+05 -9.288546E+04 -2.754951E+04  2.439883E+04  2.368588E+04
       203  27  3.107330E+05 -1.341627E+05 -9.126584E+04 -4.362165E+04  3.508726E+04  2.665091E+04
       204   1  1.573501E+06  1.533455E+05  2.023268E+05 -2.303726E+04 -3.244006E+04 -3.133164E+04
       204   2  1.628281E+06  1.745591E+05  2.578161E+05 -5.157628E+04 -9.668643E+04 -3.141801E+04
       204   3  1.734295E+06  3.661835E+05  3.977261E+05 -1.175860E+05 -1.609616E+05 -1.029031E+04
       204   4  9.111588E+05 -8.799623E+03  5.312461E+04 -4.717226E+04 -4.087387E+04 -3.133575E+04
       204   5  8.869253E+05 -7.242860E+03  8.892600E+04 -2.850373E+04 -8.824043E+04 -3.141875E+04
       204   6  9.110546E+05  1.619012E+05  1.975039E+05 -4.730081E+04 -1.356259E+05 -1.028614E+04
       204   7  2.492250E+05 -1.709726E+05 -9.610497E+04 -7.128134E+04 -4.929878E+04 -3.133920E+04
       204   8  1.460795E+05 -1.890808E+05 -7.999935E+04 -5.458979E+03 -7.980435E+04 -3.141887E+04
       204   9  8.844277E+04 -4.241182E+04 -2.762198E+03  2.289107E+04 -1.103236E+05 -1.027626E+04
       204  10  1.573500E+06  1.533442E+05  2.023230E+05 -2.303808E+04  1.169715E-09  1.784621E-10
       204  11  1.628271E+06  1.745556E+05  2.577968E+05 -5.157872E+04  3.322449E-10 -3.353409E-11
       204  12  1.734268E+06  3.661765E+05  3.976774E+05 -1.175874E+05  7.723951E-10  3.751579E-10
       204  13  9.111568E+05 -8.801125E+03  5.311963E+04 -4.717329E+04 -1.706223E-09 -3.951250E-10
       204  14  8.869167E+05 -7.246007E+03  8.890953E+04 -2.850596E+04 -1.420704E-09 -8.725196E-11
       204  15  9.110349E+05  1.618962E+05  1.974692E+05 -4.730194E+04  1.009923E-09 -5.127948E-10
       204  16  2.492221E+05 -1.709743E+05 -9.611138E+04 -7.128258E+04 -5.839127E-11  4.384000E-10
       204  17  1.460724E+05 -1.890836E+05 -8.001317E+04 -5.460999E+03  3.707775E-10 -8.696127E-10
       204  18  8.842968E+04 -4.241520E+04 -2.785264E+03  2.289016E+04  7.663513E-10  5.799086E-10
       204  19  1.573501E+06  1.533455E+05  2.023268E+05 -2.303726E+04  3.244006E+04  3.133164E+04
       204  20  1.628281E+06  1.745591E+05  2.578161E+05 -5.157628E+04  9.668643E+04  3.141801E+04
       204  21  1.734295E+06  3.661835E+05  3.977261E+05 -1.175860E+05  1.609616E+05  1.029031E+04
       204  22  9.111588E+05 -8.799623E+03  5.312461E+04 -4.717226E+04  4.087387E+04  3.133575E+04
       204  23  8.869253E+05 -7.242860E+03  8.892600E+04 -2.850373E+04  8.824043E+04  3.141875E+04
       204  24  9.110546E+05  1.619012E+05  1.975039E+05 -4.730081E+04  1.356259E+05  1.028614E+04
       204  25  2.492250E+05 -1.709726E+05 -9.610497E+04 -7.128134E+04  4.929878E+04  3.133920E+04
       204  26  1.460795E+05 -1.890808E+05 -7.999935E+04 -5.458979E+03  7.980435E+04  3.141887E+04
       204  27  8.844277E+04 -4.241182E+04 -2.762198E+03  2.289107E+04  1.103236E+05  1.027626E+04
       205   1  5.316089E+05  1.677688E+06  5.216017E+05 -5.299994E+05  1.967565E+04  1.545206E+05
       205   2  3.395189E+05  1.166767E+06  3.150417E+05 -4.470282E+05  5.842086E+04  5.750589E+04
       205   3  2.060955E+05  6.830389E+05  1.861470E+05 -4.789845E+05  5.008526E+04 -3.950300E+04
       205   4  7.442353E+04 -1.685562E+05  8.141090E+04 -4.818374E+05  1.993171E+04  5.448405E+04
       205   5  1.634680E+04 -1.752792E+05  4.103725E+04 -4.244615E+05  5.849574E+04  3.339980E+04
       205   6  3.862181E+03 -1.681318E+05  2.574095E+04 -4.820079E+05  4.994026E+04  1.224136E+04
       205   7 -3.829945E+05 -2.011653E+06 -3.589807E+05 -4.338161E+05  2.017275E+04 -4.525718E+04
       205   8 -3.069361E+05 -1.515613E+06 -2.330599E+05 -4.019428E+05  5.856896E+04  9.344740E+03
       205   9 -1.984118E+05 -1.018597E+06 -1.346868E+05 -4.850263E+05  4.979462E+04  6.391657E+04
       205  10  5.316021E+05  1.677662E+06  5.215562E+05 -5.300019E+05  1.083356E-10 -1.594007E-09
       205  11  3.395144E+05  1.166762E+06  3.150291E+05 -4.470309E+05 -1.074364E-09 -2.033269E-09
       205  12  2.060924E+05  6.830366E+05  1.861394E+05 -4.789829E+05  5.175844E-10  1.126227E-09
       205  13  7.442230E+04 -1.685595E+05  8.140457E+04 -4.818383E+05  4.903380E-10  8.794470E-10
       205  14  1.634283E+04 -1.752813E+05  4.102872E+04 -4.244631E+05  6.967833E-10  1.141609E-09
       205  15  3.859462E+03 -1.681326E+05  2.573598E+04 -4.820084E+05  5.677980E-10  7.504482E-10
       205  16 -3.829955E+05 -2.011656E+06 -3.589853E+05 -4.338153E+05  1.312386E-10  1.053861E-09
       205  17 -3.069398E+05 -1.515614E+06 -2.330665E+05 -4.019432E+05  2.727851E-10  1.761226E-09
       205  18 -1.984155E+05 -1.018602E+06 -1.346992E+05 -4.850289E+05 -3.287811E-10 -8.599242E-10
       205  19  5.316089E+05  1.677688E+06  5.216017E+05 -5.299994E+05 -1.967565E+04 -1.545206E+05
       205  20  3.395189E+05  1.166767E+06  3.150417E+05 -4.470282E+05 -5.842086E+04 -5.750589E+04
       205  21  2.060955E+05  6.830389E+05  1.861470E+05 -4.789845E+05 -5.008526E+04  3.950300E+04
       205  22  7.442353E+04 -1.685562E+05  8.141090E+04 -4.818374E+05 -1.993171E+04 -5.448405E+04
       205  23  1.634680E+04 -1.752792E+05  4.103725E+04 -4.244615E+05 -5.849574E+04 -3.339980E+04
       205  24  3.862181E+03 -1.681318E+05  2.574095E+04 -4.820079E+05 -4.994026E+04 -1.224136E+04
       205  25 -3.829945E+05 -2.011653E+06 -3.589807E+05 -4.338161E+05 -2.017275E+04  4.525718E+04
       205  26 -3.069361E+05 -1.515613E+06 -2.330599E+05 -4.019428E+05 -5.856896E+04 -9.344740E+03
       205  27 -1.984118E+05 -1.018597E+06 -1.346868E+05 -4.850263E+05 -4.979462E+04 -6.391657E+04
       206   1  1.294748E+05  3.507367E+05  1.207192E+05 -4.854651E+05  3.042299E+04 -3.743507E+04
       206   2  8.823083E+03 -1.471528E+05  2.351253E+04 -4.237568E+05  1.843555E+03 -4.721064E+04
       206   3 -1.065523E+05 -6.428093E+05 -6.619188E+04 -4.797770E+05 -2.683214E+04 -5.697961E+04
       206   4  5.464772E+03 -1.706893E+05  2.210708E+04 -4.826095E+05  3.028737E+04  8.495229E+03
       206   5  3.049851E+03 -1.716689E+05  1.916285E+04 -4.237456E+05  1.707451E+03 -1.139102E+03
       206   6  5.898646E+03 -1.706812E+05  2.362354E+04 -4.826083E+05 -2.696919E+04 -1.077421E+04
       206   7 -1.185600E+05 -6.918483E+05 -7.650920E+04 -4.797562E+05  3.015210E+04  5.438790E+04
       206   8 -2.722273E+03 -1.961799E+05  1.482112E+04 -4.237344E+05  1.571345E+03  4.493067E+04
       206   9  1.183376E+05  3.016666E+05  1.134370E+05 -4.854417E+05 -2.710659E+04  3.546552E+04
       206  10  1.294734E+05  3.507349E+05  1.207149E+05 -4.854642E+05  4.198705E-10 -1.549418E-09
       206  11  8.822481E+03 -1.471551E+05  2.350834E+04 -4.237567E+05 -5.050551E-10 -2.125176E-09
       206  12 -1.065539E+05 -6.428130E+05 -6.619934E+04 -4.797782E+05  6.187636E-10  1.810575E-09
       206  13  5.463768E+03 -1.706896E+05  2.210522E+04 -4.826098E+05 -2.006767E-10  1.303610E-09
       206  14  3.049848E+03 -1.716689E+05  1.916284E+04 -4.237456E+05 -4.146001E-09  1.122791E-09
       206  15  5.897833E+03 -1.706815E+05  2.362195E+04 -4.826086E+05 -5.311926E-10  8.768862E-10
       206  16 -1.185617E+05 -6.918518E+05 -7.651648E+04 -4.797575E+05 -1.367526E-09  1.080084E-09
       206  17 -2.722818E+03 -1.961821E+05  1.481732E+04 -4.237344E+05 -3.132315E-09  1.063869E-09
       206  18  1.183365E+05  3.016651E+05  1.134332E+05 -4.854409E+05  1.631207E-10 -1.324867E-09
       206  19  1.294748E+05  3.507367E+05  1.207192E+05 -4.854651E+05 -3.042299E+04  3.743507E+04
       206  20  8.823083E+03 -1.471528E+05  2.351253E+04 -4.237568E+05 -1.843555E+03  4.721064E+04
       206  21 -1.065523E+05 -6.428093E+05 -6.619188E+04 -4.797770E+05  2.683214E+04  5.697961E+04
       206  22  5.464772E+03 -1.706893E+05  2.210708E+04 -4.826095E+05 -3.028737E+04 -8.495229E+03
       206  23  3.049851E+03 -1.716689E+05  1.916285E+04 -4.237456E+05 -1.707451E+03  1.139102E+03
       206  24  5.898646E+03 -1.706812E+05  2.362354E+04 -4.826083E+05  2.696919E+04  1.077421E+04
       206  25 -1.185600E+05 -6.918483E+05 -7.650920E+04 -4.797562E+05 -3.015210E+04 -5.438790E+04
       206  26 -2.722273E+03 -1.961799E+05  1.482112E+04 -4.237344E+05 -1.571345E+03 -4.493067E+04
       206  27  1.183376E+05  3.016666E+05  1.134370E+05 -4.854417E+05  2.710659E+04 -3.546552E+04
       207   1 -1.865911E+05 -9.691265E+05 -1.234629E+05 -4.858189E+05 -4.651491E+04 -6.661244E+04
       207   2 -2.932645E+05 -1.467187E+06 -2.185918E+05 -3.993953E+05 -5.595287E+04 -1.647683E+04
       207   3 -3.612754E+05 -1.962161E+06 -3.368298E+05 -4.280040E+05 -1.939120E+04  3.369262E+04
       207   4  4.082419E+03 -1.677222E+05  2.810762E+04 -4.820264E+05 -4.666254E+04 -1.479268E+04
       207   5  1.833297E+04 -1.757506E+05  4.598089E+04 -4.244314E+05 -5.588489E+04 -3.851726E+04
       207   6  8.403988E+04 -1.681302E+05  9.206363E+04 -4.818319E+05 -1.915604E+04 -6.216783E+04
       207   7  1.947200E+05  6.343086E+05  1.796598E+05 -4.782283E+05 -4.680941E+04  3.709243E+04
       207   8  3.298281E+05  1.117275E+06  3.104671E+05 -4.495190E+05 -5.581523E+04 -6.060273E+04
       207   9  5.291370E+05  1.628884E+06  5.207661E+05 -5.358136E+05 -1.890464E+04 -1.583045E+05
       207  10 -1.865946E+05 -9.691318E+05 -1.234753E+05 -4.858214E+05  7.578344E-10 -1.379469E-09
       207  11 -2.932680E+05 -1.467188E+06 -2.185982E+05 -3.993960E+05  6.835125E-10 -2.251572E-09
       207  12 -3.612761E+05 -1.962163E+06 -3.368327E+05 -4.280035E+05  2.409182E-10 -4.245645E-11
       207  13  4.080021E+03 -1.677230E+05  2.810311E+04 -4.820270E+05  1.679668E-09  1.348218E-09
       207  14  1.832922E+04 -1.757530E+05  4.597223E+04 -4.244331E+05 -1.723694E-09  1.145437E-09
       207  15  8.403844E+04 -1.681344E+05  9.205567E+04 -4.818328E+05  7.553128E-10  6.430038E-10
       207  16  1.947172E+05  6.343065E+05  1.796531E+05 -4.782269E+05 -2.593727E-11  1.169156E-09
       207  17  3.298237E+05  1.117270E+06  3.104543E+05 -4.495218E+05  7.127048E-10  1.366654E-09
       207  18  5.291299E+05  1.628857E+06  5.207184E+05 -5.358160E+05  3.532289E-10  2.612873E-10
       207  19 -1.865911E+05 -9.691265E+05 -1.234629E+05 -4.858189E+05  4.651491E+04  6.661244E+04
       207  20 -2.932645E+05 -1.467187E+06 -2.185918E+05 -3.993953E+05  5.595287E+04  1.647683E+04
       207  21 -3.612754E+05 -1.962161E+06 -3.368298E+05 -4.280040E+05  1.939120E+04 -3.369262E+04
       207  22  4.082419E+03 -1.677222E+05  2.810762E+04 -4.820264E+05  4.666254E+04  1.479268E+04
       207  23  1.833297E+04 -1.757506E+05  4.598089E+04 -4.244314E+05  5.588489E+04  3.851726E+04
       207  24  8.403988E+04 -1.681302E+05  9.206363E+04 -4.818319E+05  1.915604E+04  6.216783E+04
       207  25  1.947200E+05  6.343086E+05  1.796598E+05 -4.782283E+05  4.680941E+04 -3.709243E+04
       207  26  3.298281E+05  1.117275E+06  3.104671E+05 -4.495190E+05  5.581523E+04  6.060273E+04
       207  27  5.291370E+05  1.628884E+06  5.207661E+05 -5.358136E+05  1.890464E+04  1.583045E+05
       208   1 -2.305072E+06 -9.024277E+05 -4.909351E+05 -8.800190E+05 -1.903078E+05 -4.771894E+04
       208   2 -2.183789E+06 -7.210217E+05 -3.311258E+05 -8.320725E+05 -1.208689E+05  3.278911E+04
       208   3 -2.081198E+06 -6.415546E+05 -2.579242E+05 -7.922126E+05 -3.720141E+04  7.561558E+04
       208   4 -9.527685E+05 -3.319314E+05 -1.281811E+05 -4.462847E+05 -9.064421E+04 -1.023233E+04
       208   5 -9.419438E+05 -2.367789E+05 -5.890708E+04 -4.609375E+05 -7.769458E+04  4.900683E+04
       208   6 -9.385233E+05 -2.322547E+05 -3.128668E+04 -4.837025E+05 -5.055236E+04  7.058331E+04
       208   7  4.013204E+05  2.388113E+05  2.344445E+05 -1.164986E+04  9.255408E+03  2.736832E+04
       208   8  3.014750E+05  2.476388E+05  2.132248E+05 -8.909973E+04 -3.442701E+04  6.526437E+04
       208   9  2.055166E+05  1.771513E+05  1.952940E+05 -1.746670E+05 -6.392993E+04  6.554151E+04
       208  10 -2.305112E+06 -9.024399E+05 -4.910077E+05 -8.800263E+05 -3.115430E-09 -5.804712E-10
       208  11 -2.183805E+06 -7.210267E+05 -3.311554E+05 -8.320693E+05  8.764520E-09  3.838667E-09
       208  12 -2.081201E+06 -6.415611E+05 -2.579376E+05 -7.922104E+05  1.995307E-08  1.050602E-08
       208  13 -9.527774E+05 -3.319337E+05 -1.281967E+05 -4.462855E+05 -9.734761E-10 -5.152392E-10
       208  14 -9.419510E+05 -2.367831E+05 -5.892294E+04 -4.609345E+05  2.446669E-10  5.815366E-11
       208  15 -9.385274E+05 -2.322607E+05 -3.130084E+04 -4.836997E+05  3.208137E-09  2.604584E-09
       208  16  4.013201E+05  2.388105E+05  2.344429E+05 -1.165007E+04  1.608245E-09 -6.581898E-10
       208  17  3.014726E+05  2.476339E+05  2.132146E+05 -8.909792E+04 -1.004905E-08 -5.274362E-09
       208  18  2.055111E+05  1.771456E+05  1.952783E+05 -1.746637E+05 -1.318580E-08 -4.907958E-09
       208  19 -2.305072E+06 -9.024277E+05 -4.909351E+05 -8.800190E+05  1.903078E+05  4.771894E+04
       208  20 -2.183789E+06 -7.210217E+05 -3.311258E+05 -8.320725E+05  1.208689E+05 -3.278911E+04
       208  21 -2.081198E+06 -6.415546E+05 -2.579242E+05 -7.922126E+05  3.720141E+04 -7.561558E+04
       208  22 -9.527685E+05 -3.319314E+05 -1.281811E+05 -4.462847E+05  9.064421E+04  1.023233E+04
       208  23 -9.419438E+05 -2.367789E+05 -5.890708E+04 -4.609375E+05  7.769458E+04 -4.900683E+04
       208  24 -9.385233E+05 -2.322547E+05 -3.128668E+04 -4.837025E+05  5.055236E+04 -7.058331E+04
       208  25  4.013204E+05  2.388113E+05  2.344445E+05 -1.164986E+04 -9.255408E+03 -2.736832E+04
       208  26  3.014750E+05  2.476388E+05  2.132248E+05 -8.909973E+04  3.442701E+04 -6.526437E+04
       208  27  2.055166E+05  1.771513E+05  1.952940E+05 -1.746670E+05  6.392993E+04 -6.554151E+04
       209   1 -1.981351E+06 -6.192150E+05 -2.319455E+05 -7.735855E+05 -3.816033E+04  6.912125E+04
       209   2 -1.862486E+06 -5.543360E+05 -1.912416E+05 -7.239921E+05 -2.544871E+04  6.715873E+04
       209   3 -1.722353E+06 -5.174022E+05 -1.593696E+05 -7.011860E+05 -1.169852E+04  6.241760E+04
       209   4 -9.343561E+05 -2.352583E+05 -2.379734E+04 -4.813963E+05 -4.495573E+04  6.655535E+04
       209   5 -9.450492E+05 -2.195559E+05 -1.258026E+04 -4.687866E+05 -3.640402E+04  6.303540E+04
       209   6 -9.336630E+05 -2.309671E+05 -6.883812E+03 -4.829677E+05 -2.681695E+04  5.673822E+04
       209   7  1.137751E+05  1.487968E+05  1.842991E+05 -1.887489E+05 -5.176347E+04  6.398479E+04
       209   8 -2.674065E+04  1.152982E+05  1.660429E+05 -2.132314E+05 -4.737667E+04  5.890555E+04
       209   9 -1.443319E+05  5.552038E+04  1.455739E+05 -2.644939E+05 -4.195587E+04  5.105121E+04
       209  10 -1.981354E+06 -6.192205E+05 -2.319572E+05 -7.735834E+05  9.142316E-09  6.881567E-09
       209  11 -1.862488E+06 -5.543410E+05 -1.912513E+05 -7.239907E+05 -2.733268E-09  6.559006E-10
       209  12 -1.722354E+06 -5.174065E+05 -1.593772E+05 -7.011854E+05 -1.667863E-08 -6.722388E-09
       209  13 -9.343595E+05 -2.352636E+05 -2.380946E+04 -4.813939E+05  4.176788E-09  4.453326E-09
       209  14 -9.450516E+05 -2.195605E+05 -1.259021E+04 -4.687847E+05  4.569838E-09  3.860641E-09
       209  15 -9.336646E+05 -2.309707E+05 -6.891209E+03 -4.829665E+05  2.228389E-09  9.626689E-10
       209  16  1.137711E+05  1.487917E+05  1.842864E+05 -1.887462E+05  6.033235E-10  2.110483E-09
       209  17 -2.674399E+04  1.152939E+05  1.660322E+05 -2.132292E+05  1.227376E-08  7.133661E-09
       209  18 -1.443345E+05  5.551711E+04  1.455657E+05 -2.644921E+05  1.987613E-08  8.782292E-09
       209  19 -1.981351E+06 -6.192150E+05 -2.319455E+05 -7.735855E+05  3.816033E+04 -6.912125E+04
       209  20 -1.862486E+06 -5.543360E+05 -1.912416E+05 -7.239921E+05  2.544871E+04 -6.715873E+04
       209  21 -1.722353E+06 -5.174022E+05 -1.593696E+05 -7.011860E+05  1.169852E+04 -6.241760E+04
       209  22 -9.343561E+05 -2.352583E+05 -2.379734E+04 -4.813963E+05  4.495573E+04 -6.655535E+04
       209  23 -9.450492E+05 -2.195559E+05 -1.258026E+04 -4.687866E+05  3.640402E+04 -6.303540E+04
       209  24 -9.336630E+05 -2.309671E+05 -6.883812E+03 -4.829677E+05  2.681695E+04 -5.673822E+04
       209  25  1.137751E+05  1.487968E+05  1.842991E+05 -1.887489E+05  5.176347E+04 -6.398479E+04
       209  26 -2.674065E+04  1.152982E+05  1.660429E+05 -2.132314E+05  4.737667E+04 -5.890555E+04
       209  27 -1.443319E+05  5.552038E+04  1.455739E+05 -2.644939E+05  4.195587E+04 -5.105121E+04
       210   1 -1.634282E+06 -4.859325E+05 -1.400637E+05 -6.772554E+05 -8.992346E+03  5.672867E+04
       210   2 -1.515617E+06 -4.261704E+05 -1.126424E+05 -6.272057E+05 -3.541737E+03  4.752214E+04
       210   3 -1.373037E+06 -3.907603E+05 -8.655887E+04 -6.048150E+05  1.983954E+03  3.810104E+04
       210   4 -9.333305E+05 -2.311073E+05 -5.185650E+03 -4.828634E+05 -2.364853E+04  5.122598E+04
       210   5 -9.452667E+05 -2.188546E+05 -2.864304E+03 -4.690595E+05 -1.851904E+04  4.190322E+04
       210   6 -9.332460E+05 -2.308915E+05 -1.627194E+03 -4.829205E+05 -1.331492E+04  3.236591E+04
       210   7 -2.318606E+05  2.376444E+04  1.296740E+05 -2.882656E+05 -3.832261E+04  4.571660E+04
       210   8 -3.745743E+05 -1.150852E+04  1.069015E+05 -3.107774E+05 -3.351118E+04  3.627876E+04
       210   9 -4.932530E+05 -7.100520E+04  8.329711E+04 -3.609456E+05 -2.862544E+04  2.662642E+04
       210  10 -1.634283E+06 -4.859360E+05 -1.400699E+05 -6.772550E+05 -1.478026E-10 -1.624978E-09
       210  11 -1.515618E+06 -4.261729E+05 -1.126467E+05 -6.272056E+05 -1.433204E-09 -1.780581E-09
       210  12 -1.373037E+06 -3.907619E+05 -8.656161E+04 -6.048151E+05 -1.967074E-09 -1.150071E-09
       210  13 -9.333318E+05 -2.311102E+05 -5.191629E+03 -4.828624E+05 -3.941299E-10 -4.694140E-10
       210  14 -9.452675E+05 -2.188566E+05 -2.868246E+03 -4.690589E+05 -9.061590E-11 -9.098673E-10
       210  15 -9.332465E+05 -2.308926E+05 -1.629495E+03 -4.829202E+05 -7.775836E-10 -6.406714E-10
       210  16 -2.318627E+05  2.376180E+04  1.296673E+05 -2.882642E+05  1.382089E-09  7.726661E-10
       210  17 -3.745758E+05 -1.151024E+04  1.068969E+05 -3.107764E+05  1.278837E-09 -1.975809E-10
       210  18 -4.932541E+05 -7.100618E+04  8.329424E+04 -3.609450E+05  1.742540E-09 -2.014349E-10
       210  19 -1.634282E+06 -4.859325E+05 -1.400637E+05 -6.772554E+05  8.992346E+03 -5.672867E+04
       210  20 -1.515617E+06 -4.261704E+05 -1.126424E+05 -6.272057E+05  3.541737E+03 -4.752214E+04
       210  21 -1.373037E+06 -3.907603E+05 -8.655887E+04 -6.048150E+05 -1.983954E+03 -3.810104E+04
       210  22 -9.333305E+05 -2.311073E+05 -5.185650E+03 -4.828634E+05  2.364853E+04 -5.122598E+04
       210  23 -9.452667E+05 -2.188546E+05 -2.864304E+03 -4.690595E+05  1.851904E+04 -4.190322E+04
       210  24 -9.332460E+05 -2.308915E+05 -1.627194E+03 -4.829205E+05  1.331492E+04 -3.236591E+04
       210  25 -2.318606E+05  2.376444E+04  1.296740E+05 -2.882656E+05  3.832261E+04 -4.571660E+04
       210  26 -3.745743E+05 -1.150852E+04  1.069015E+05 -3.107774E+05  3.351118E+04 -3.627876E+04
       210  27 -4.932530E+05 -7.100520E+04  8.329711E+04 -3.609456E+05  2.862544E+04 -2.662642E+04
       211   1 -1.285375E+06 -3.588064E+05 -6.861488E+04 -5.805937E+05  4.422203E+03  3.225282E+04
       211   2 -1.166500E+06 -2.991690E+05 -4.336171E+04 -5.304053E+05  8.681263E+03  2.224685E+04
       211   3 -1.023470E+06 -2.637336E+05 -1.844015E+04 -5.079541E+05  1.294503E+04  1.222212E+04
       211   4 -9.331929E+05 -2.308926E+05 -1.269044E+03 -4.829234E+05 -1.085317E+04  2.652830E+04
       211   5 -9.452517E+05 -2.187730E+05 -8.379019E+02 -4.690552E+05 -6.623231E+03  1.651312E+04
       211   6 -9.331680E+05 -2.308511E+05 -7.160404E+02 -4.829307E+05 -2.388671E+03  6.479117E+03
       211   7 -5.808836E+05 -1.029686E+05  6.607171E+04 -3.852024E+05 -2.613771E+04  2.080036E+04
       211   8 -7.239518E+05 -1.383725E+05  4.168482E+04 -4.076847E+05 -2.193357E+04  1.077719E+04
       211   9 -8.428565E+05 -1.979674E+05  1.700892E+04 -4.579035E+05 -1.772490E+04  7.351708E+02
       211  10 -1.285376E+06 -3.588075E+05 -6.861687E+04 -5.805938E+05 -2.941421E-10 -8.480563E-11
       211  11 -1.166500E+06 -2.991695E+05 -4.336279E+04 -5.304054E+05 -1.369768E-09 -4.299281E-10
       211  12 -1.023470E+06 -2.637338E+05 -1.844075E+04 -5.079542E+05 -1.134085E-10 -5.741727E-10
       211  13 -9.331932E+05 -2.308934E+05 -1.270587E+03 -4.829232E+05 -1.479563E-09 -4.581774E-10
       211  14 -9.452518E+05 -2.187733E+05 -8.384965E+02 -4.690551E+05  5.314843E-11 -2.134552E-10
       211  15 -9.331680E+05 -2.308511E+05 -7.161300E+02 -4.829306E+05  2.682722E-10 -3.825838E-10
       211  16 -5.808845E+05 -1.029693E+05  6.606961E+04 -3.852020E+05  5.106374E-10 -7.285568E-10
       211  17 -7.239524E+05 -1.383728E+05  4.168369E+04 -4.076845E+05  7.833011E-10 -5.943094E-10
       211  18 -8.428568E+05 -1.979675E+05  1.700833E+04 -4.579035E+05  6.366503E-10 -1.046491E-10
       211  19 -1.285375E+06 -3.588064E+05 -6.861488E+04 -5.805937E+05 -4.422203E+03 -3.225282E+04
       211  20 -1.166500E+06 -2.991690E+05 -4.336171E+04 -5.304053E+05 -8.681263E+03 -2.224685E+04
       211  21 -1.023470E+06 -2.637336E+05 -1.844015E+04 -5.079541E+05 -1.294503E+04 -1.222212E+04
       211  22 -9.331929E+05 -2.308926E+05 -1.269044E+03 -4.829234E+05  1.085317E+04 -2.652830E+04
       211  23 -9.452517E+05 -2.187730E+05 -8.379019E+02 -4.690552E+05  6.623231E+03 -1.651312E+04
       211  24 -9.331680E+05 -2.308511E+05 -7.160404E+02 -4.829307E+05  2.388671E+03 -6.479117E+03
       211  25 -5.808836E+05 -1.029686E+05  6.607171E+04 -3.852024E+05  2.613771E+04 -2.080036E+04
       211  26 -7.239518E+05 -1.383725E+05  4.168482E+04 -4.076847E+05  2.193357E+04 -1.077719E+04
       211  27 -8.428565E+05 -1.979674E+05  1.700892E+04 -4.579035E+05  1.772490E+04 -7.351708E+02
       212   1 -9.357347E+05 -2.317377E+05 -8.759900E+02 -4.836908E+05  1.529348E+04  6.331031E+03
       212   2 -8.167833E+05 -1.721224E+05  2.364166E+04 -4.334807E+05  1.960829E+04 -3.674211E+03
       212   3 -6.736859E+05 -1.367094E+05  4.778921E+04 -4.110215E+05  2.391855E+04 -1.366399E+04
       212   4 -9.331693E+05 -2.308503E+05 -7.528667E+02 -4.829341E+05 -4.243611E+01  5.873947E+02
       212   5 -9.452383E+05 -2.187496E+05 -1.040083E+03 -4.690565E+05  4.293611E+03 -9.410869E+03
       212   6 -9.331831E+05 -2.308573E+05 -1.714605E+03 -4.829370E+05  8.624973E+03 -1.939366E+04
       212   7 -9.306034E+05 -2.299627E+05 -6.287333E+02 -4.821772E+05 -1.537842E+04 -5.156265E+03
       212   8 -1.073675E+06 -2.653749E+05 -2.572136E+04 -5.046251E+05 -1.101761E+04 -1.514623E+04
       212   9 -1.192607E+06 -3.249981E+05 -5.121959E+04 -5.548239E+05 -6.661620E+03 -2.512073E+04
       212  10 -9.357350E+05 -2.317378E+05 -8.765059E+02 -4.836909E+05 -4.559401E-10 -4.900227E-10
       212  11 -8.167837E+05 -1.721225E+05  2.364091E+04 -4.334807E+05  7.480615E-10  2.654088E-10
       212  12 -6.736866E+05 -1.367098E+05  4.778778E+04 -4.110213E+05 -2.906249E-10  2.240152E-10
       212  13 -9.331693E+05 -2.308503E+05 -7.528674E+02 -4.829341E+05  3.531503E-10  4.492733E-10
       212  14 -9.452384E+05 -2.187497E+05 -1.040284E+03 -4.690564E+05  4.473418E-10 -3.148175E-10
       212  15 -9.331832E+05 -2.308578E+05 -1.715452E+03 -4.829369E+05 -1.149677E-09 -4.894741E-10
       212  16 -9.306036E+05 -2.299628E+05 -6.292285E+02 -4.821773E+05  7.737983E-10  3.816011E-10
       212  17 -1.073675E+06 -2.653751E+05 -2.572202E+04 -5.046252E+05  1.576350E-09  7.667974E-10
       212  18 -1.192607E+06 -3.249988E+05 -5.122086E+04 -5.548240E+05  2.737552E-10 -5.953726E-11
       212  19 -9.357347E+05 -2.317377E+05 -8.759900E+02 -4.836908E+05 -1.529348E+04 -6.331031E+03
       212  20 -8.167833E+05 -1.721224E+05  2.364166E+04 -4.334807E+05 -1.960829E+04  3.674211E+03
       212  21 -6.736859E+05 -1.367094E+05  4.778921E+04 -4.110215E+05 -2.391855E+04  1.366399E+04
       212  22 -9.331693E+05 -2.308503E+05 -7.528667E+02 -4.829341E+05  4.243611E+01 -5.873947E+02
       212  23 -9.452383E+05 -2.187496E+05 -1.040083E+03 -4.690565E+05 -4.293611E+03  9.410869E+03
       212  24 -9.331831E+05 -2.308573E+05 -1.714605E+03 -4.829370E+05 -8.624973E+03  1.939366E+04
       212  25 -9.306034E+05 -2.299627E+05 -6.287333E+02 -4.821772E+05  1.537842E+04  5.156265E+03
       212  26 -1.073675E+06 -2.653749E+05 -2.572136E+04 -5.046251E+05  1.101761E+04  1.514623E+04
       212  27 -1.192607E+06 -3.249981E+05 -5.121959E+04 -5.548239E+05  6.661620E+03  2.512073E+04
       213   1 -5.860130E+05 -1.047423E+05  6.485489E+04 -3.867856E+05  2.649506E+04 -1.946097E+04
       213   2 -4.671539E+05 -4.521138E+04  8.794271E+04 -3.366138E+05  3.197812E+04 -2.890599E+04
       213   3 -3.243660E+05 -9.989619E+03  1.097366E+05 -3.141357E+05  3.739151E+04 -3.815128E+04
       213   4 -9.332477E+05 -2.308515E+05 -2.241770E+03 -4.829449E+05  1.117542E+04 -2.520178E+04
       213   5 -9.452109E+05 -2.187772E+05 -4.007814E+03 -4.690611E+05  1.695430E+04 -3.453961E+04
       213   6 -9.333239E+05 -2.310754E+05 -7.304144E+03 -4.828807E+05  2.266309E+04 -4.367771E+04
       213   7 -1.280360E+06 -3.569511E+05 -6.934355E+04 -5.790551E+05 -4.135162E+03 -3.093921E+04
       213   8 -1.423032E+06 -3.923235E+05 -9.596782E+04 -6.014143E+05  1.942816E+03 -4.016862E+04
       213   9 -1.541896E+06 -4.521281E+05 -1.243600E+05 -6.514722E+05  7.950133E+03 -4.919837E+04
       213  10 -5.860139E+05 -1.047428E+05  6.485286E+04 -3.867852E+05 -2.477034E-10 -1.602797E-12
       213  11 -4.671553E+05 -4.521255E+04  8.793922E+04 -3.366131E+05 -4.166508E-10 -2.236059E-10
       213  12 -3.243679E+05 -9.991556E+03  1.097313E+05 -3.141345E+05 -9.175073E-10 -1.864666E-10
       213  13 -9.332480E+05 -2.308522E+05 -2.243197E+03 -4.829447E+05 -8.451041E-10 -4.138265E-10
       213  14 -9.452115E+05 -2.187786E+05 -4.010594E+03 -4.690606E+05 -5.808077E-10  6.730568E-10
       213  15 -9.333249E+05 -2.310776E+05 -7.308692E+03 -4.828799E+05 -5.942249E-10  1.484385E-11
       213  16 -1.280360E+06 -3.569521E+05 -6.934538E+04 -5.790552E+05 -3.382588E-10  4.515510E-11
       213  17 -1.423032E+06 -3.923252E+05 -9.597086E+04 -6.014142E+05 -1.411187E-09 -3.863394E-10
       213  18 -1.541896E+06 -4.521308E+05 -1.243646E+05 -6.514719E+05  4.860942E-10  2.458123E-10
       213  19 -5.860130E+05 -1.047423E+05  6.485489E+04 -3.867856E+05 -2.649506E+04  1.946097E+04
       213  20 -4.671539E+05 -4.521138E+04  8.794271E+04 -3.366138E+05 -3.197812E+04  2.890599E+04
       213  21 -3.243660E+05 -9.989619E+03  1.097366E+05 -3.141357E+05 -3.739151E+04  3.815128E+04
       213  22 -9.332477E+05 -2.308515E+05 -2.241770E+03 -4.829449E+05 -1.117542E+04  2.520178E+04
       213  23 -9.452109E+05 -2.187772E+05 -4.007814E+03 -4.690611E+05 -1.695430E+04  3.453961E+04
       213  24 -9.333239E+05 -2.310754E+05 -7.304144E+03 -4.828807E+05 -2.266309E+04  4.367771E+04
       213  25 -1.280360E+06 -3.569511E+05 -6.934355E+04 -5.790551E+05  4.135162E+03  3.093921E+04
       213  26 -1.423032E+06 -3.923235E+05 -9.596782E+04 -6.014143E+05 -1.942816E+03  4.016862E+04
       213  27 -1.541896E+06 -4.521281E+05 -1.243600E+05 -6.514722E+05 -7.950133E+03  4.919837E+04
       214   1 -2.367128E+05  2.167538E+04  1.249407E+05 -2.906191E+05  4.139393E+04 -4.335762E+04
       214   2 -1.189484E+05  8.166640E+04  1.430072E+05 -2.387189E+05  4.972065E+04 -5.024304E+04
       214   3  2.085240E+04  1.139399E+05  1.563488E+05 -2.134428E+05  5.707970E+04 -5.452976E+04
       214   4 -9.337732E+05 -2.308881E+05 -9.712067E+03 -4.830685E+05  2.622827E+04 -4.905084E+04
       214   5 -9.448530E+05 -2.196166E+05 -1.774500E+04 -4.686521E+05  3.845230E+04 -5.448000E+04
       214   6 -9.346889E+05 -2.368427E+05 -3.359925E+04 -4.808689E+05  4.970686E+04 -5.730899E+04
       214   7 -1.630322E+06 -4.834068E+05 -1.443833E+05 -6.753161E+05  1.108100E+04 -5.473724E+04
       214   8 -1.770049E+06 -5.208382E+05 -1.785271E+05 -6.983014E+05  2.720002E+04 -5.871091E+04
       214   9 -1.889294E+06 -5.875457E+05 -2.235926E+05 -7.479151E+05  4.234612E+04 -6.008362E+04
       214  10 -2.367152E+05  2.167290E+04  1.249339E+05 -2.906177E+05  3.157151E-11 -2.703169E-10
       214  11 -1.189518E+05  8.166303E+04  1.429979E+05 -2.387169E+05 -1.191704E-09  4.794483E-10
       214  12  2.084811E+04  1.139359E+05  1.563371E+05 -2.134403E+05 -2.702181E-10 -2.589998E-11
       214  13 -9.337746E+05 -2.308909E+05 -9.717878E+03 -4.830675E+05 -2.502058E-10  4.677502E-11
       214  14 -9.448553E+05 -2.196202E+05 -1.775335E+04 -4.686505E+05  1.725020E-10  1.953218E-10
       214  15 -9.346924E+05 -2.368469E+05 -3.361006E+04 -4.808667E+05 -1.862864E-10 -2.556673E-11
       214  16 -1.630323E+06 -4.834101E+05 -1.443892E+05 -6.753156E+05  1.224508E-09  4.563834E-10
       214  17 -1.770051E+06 -5.208421E+05 -1.785349E+05 -6.983001E+05  4.938882E-10  6.018320E-10
       214  18 -1.889297E+06 -5.875501E+05 -2.236027E+05 -7.479131E+05  5.659846E-10  1.839632E-10
       214  19 -2.367128E+05  2.167538E+04  1.249407E+05 -2.906191E+05 -4.139393E+04  4.335762E+04
       214  20 -1.189484E+05  8.166640E+04  1.430072E+05 -2.387189E+05 -4.972065E+04  5.024304E+04
       214  21  2.085240E+04  1.139399E+05  1.563488E+05 -2.134428E+05 -5.707970E+04  5.452976E+04
       214  22 -9.337732E+05 -2.308881E+05 -9.712067E+03 -4.830685E+05 -2.622827E+04  4.905084E+04
       214  23 -9.448530E+05 -2.196166E+05 -1.774500E+04 -4.686521E+05 -3.845230E+04  5.448000E+04
       214  24 -9.346889E+05 -2.368427E+05 -3.359925E+04 -4.808689E+05 -4.970686E+04  5.730899E+04
       214  25 -1.630322E+06 -4.834068E+05 -1.443833E+05 -6.753161E+05 -1.108100E+04  5.473724E+04
       214  26 -1.770049E+06 -5.208382E+05 -1.785271E+05 -6.983014E+05 -2.720002E+04  5.871091E+04
       214  27 -1.889294E+06 -5.875457E+05 -2.235926E+05 -7.479151E+05 -4.234612E+04  6.008362E+04
       215   1  1.141073E+05  1.403522E+05  1.642133E+05 -2.039908E+05  7.032471E+04 -5.573197E+04
       215   2  2.032130E+05  2.150567E+05  1.694947E+05 -1.018263E+05  5.762136E+04 -5.060480E+04
       215   3  2.833038E+05  1.812119E+05  1.580018E+05 -9.419252E+02  3.164905E+04 -1.023387E+04
       215   4 -9.403723E+05 -2.327662E+05 -4.417915E+04 -4.843574E+05  5.679421E+04 -6.082571E+04
       215   5 -9.406013E+05 -2.435703E+05 -8.315339E+04 -4.573017E+05  9.712525E+04 -3.577125E+04
       215   6 -9.604420E+05 -3.735601E+05 -1.810000E+05 -4.315225E+05  1.241720E+05  2.456140E+04
       215   7 -1.993704E+06 -6.058050E+05 -2.526228E+05 -7.642905E+05  4.328838E+04 -6.591085E+04
       215   8 -2.083067E+06 -7.020183E+05 -3.358724E+05 -8.121466E+05  1.365504E+05 -2.097342E+04
       215   9 -2.202625E+06 -9.280300E+05 -5.200996E+05 -8.612487E+05  2.164912E+05  5.924703E+04
       215  10  1.141011E+05  1.403475E+05  1.641981E+05 -2.039876E+05 -1.033021E-09  3.335459E-10
       215  11  2.032087E+05  2.150530E+05  1.694837E+05 -1.018239E+05 -1.646089E-09  9.024458E-10
       215  12  2.833027E+05  1.812115E+05  1.579997E+05 -9.416644E+02 -3.454888E-10 -5.420035E-10
       215  13 -9.403768E+05 -2.327710E+05 -4.419216E+04 -4.843546E+05  3.337657E-10 -3.662246E-10
       215  14 -9.406118E+05 -2.435742E+05 -8.317353E+04 -4.572989E+05 -9.555559E-10  3.038042E-10
       215  15 -9.604587E+05 -3.735649E+05 -1.810301E+05 -4.315250E+05  1.351254E-10 -1.062549E-11
       215  16 -1.993707E+06 -6.058102E+05 -2.526344E+05 -7.642882E+05  1.314314E-09  1.222009E-10
       215  17 -2.083087E+06 -7.020238E+05 -3.359084E+05 -8.121443E+05 -7.239097E-10  4.703524E-10
       215  18 -2.202676E+06 -9.280465E+05 -5.201946E+05 -8.612590E+05 -5.078559E-10  1.238748E-10
       215  19  1.141073E+05  1.403522E+05  1.642133E+05 -2.039908E+05 -7.032471E+04  5.573197E+04
       215  20  2.032130E+05  2.150567E+05  1.694947E+05 -1.018263E+05 -5.762136E+04  5.060480E+04
       215  21  2.833038E+05  1.812119E+05  1.580018E+05 -9.419252E+02 -3.164905E+04  1.023387E+04
       215  22 -9.403723E+05 -2.327662E+05 -4.417915E+04 -4.843574E+05 -5.679421E+04  6.082571E+04
       215  23 -9.406013E+05 -2.435703E+05 -8.315339E+04 -4.573017E+05 -9.712525E+04  3.577125E+04
       215  24 -9.604420E+05 -3.735601E+05 -1.810000E+05 -4.315225E+05 -1.241720E+05 -2.456140E+04
       215  25 -1.993704E+06 -6.058050E+05 -2.526228E+05 -7.642905E+05 -4.328838E+04  6.591085E+04
       215  26 -2.083067E+06 -7.020183E+05 -3.358724E+05 -8.121466E+05 -1.365504E+05  2.097342E+04
       215  27 -2.202625E+06 -9.280300E+05 -5.200996E+05 -8.612487E+05 -2.164912E+05 -5.924703E+04
       216   1 -4.036820E+05 -1.399903E+05 -1.073084E+05 -3.291972E+04  4.132370E+04  1.648226E+04
       216   2 -2.787517E+05 -2.257517E+05 -1.262387E+05 -7.255122E+04  4.426839E+04  5.374087E+04
       216   3 -1.312278E+05 -2.205404E+05 -1.243175E+05 -1.425797E+05  4.724447E+04  6.121111E+04
       216   4  8.145140E+05  1.608190E+05  1.799266E+05 -1.312931E+05  1.253052E+05  1.654165E+04
       216   5  7.991737E+05  3.233949E+04  8.692556E+04 -1.160527E+05  8.031652E+04  5.375252E+04
       216   6  8.146695E+05  3.051037E+03  4.800709E+04 -1.311989E+05  3.536135E+04  6.119915E+04
       216   7  2.034111E+06  4.615626E+05  4.670911E+05 -2.298608E+05  2.094504E+05  1.657440E+04
       216   8  1.878217E+06  2.903680E+05  3.000386E+05 -1.596314E+05  1.164259E+05  5.375911E+04
       216   9  1.761437E+06  2.265926E+05  2.202964E+05 -1.198003E+05  2.346059E+04  6.118677E+04
       216  10 -4.036839E+05 -1.399910E+05 -1.073121E+05 -3.292027E+04  2.174357E-09 -7.528716E-10
       216  11 -2.787546E+05 -2.257553E+05 -1.262479E+05 -7.255313E+04 -1.173161E-09  6.979966E-10
       216  12 -1.312312E+05 -2.205450E+05 -1.243288E+05 -1.425821E+05 -2.533210E-09 -2.570448E-10
       216  13  8.144971E+05  1.608145E+05  1.798966E+05 -1.312947E+05 -2.608031E-10  7.000615E-10
       216  14  7.991660E+05  3.233466E+04  8.690802E+04 -1.160562E+05 -1.333182E-09  1.213706E-10
       216  15  8.146671E+05  3.046678E+03  4.799770E+04 -1.312007E+05 -8.547316E-11 -5.769952E-10
       216  16  2.034064E+06  4.615506E+05  4.670084E+05 -2.298636E+05 -1.352586E-11  5.338036E-10
       216  17  1.878202E+06  2.903613E+05  3.000078E+05 -1.596364E+05  2.047638E-09 -7.337182E-11
       216  18  1.761435E+06  2.265884E+05  2.202883E+05 -1.198014E+05  4.311013E-09  8.029802E-10
       216  19 -4.036820E+05 -1.399903E+05 -1.073084E+05 -3.291972E+04 -4.132370E+04 -1.648226E+04
       216  20 -2.787517E+05 -2.257517E+05 -1.262387E+05 -7.255122E+04 -4.426839E+04 -5.374087E+04
       216  21 -1.312278E+05 -2.205404E+05 -1.243175E+05 -1.425797E+05 -4.724447E+04 -6.121111E+04
       216  22  8.145140E+05  1.608190E+05  1.799266E+05 -1.312931E+05 -1.253052E+05 -1.654165E+04
       216  23  7.991737E+05  3.233949E+04  8.692556E+04 -1.160527E+05 -8.031652E+04 -5.375252E+04
       216  24  8.146695E+05  3.051037E+03  4.800709E+04 -1.311989E+05 -3.536135E+04 -6.119915E+04
       216  25  2.034111E+06  4.615626E+05  4.670911E+05 -2.298608E+05 -2.094504E+05 -1.657440E+04
       216  26  1.878217E+06  2.903680E+05  3.000386E+05 -1.596314E+05 -1.164259E+05 -5.375911E+04
       216  27  1.761437E+06  2.265926E+05  2.202964E+05 -1.198003E+05 -2.346059E+04 -6.118677E+04
       217   1 -4.677956E+04 -1.952885E+05 -1.179517E+05 -1.292770E+05  3.700324E+04  5.645665E+04
       217   2  8.780509E+04 -1.685035E+05 -1.069274E+05 -1.150335E+05  3.094452E+04  5.026875E+04
       217   3  2.243469E+05 -1.375057E+05 -9.087926E+04 -1.328882E+05  2.488118E+04  4.159313E+04
       217   4  8.084271E+05  6.607325E+03  3.666712E+04 -1.315973E+05  2.908410E+04  5.644738E+04
       217   5  8.071469E+05  7.213320E+02  2.019853E+04 -1.155493E+05  1.901193E+04  5.026149E+04
       217   6  8.084977E+05 -2.586100E+02  1.153174E+04 -1.315967E+05  8.936456E+03  4.158931E+04
       217   7  1.664345E+06  2.084623E+05  1.912575E+05 -1.339209E+05  2.115433E+04  5.643819E+04
       217   8  1.526994E+06  1.699179E+05  1.473060E+05 -1.160656E+05  7.065918E+03  5.025426E+04
       217   9  1.392983E+06  1.369700E+05  1.139314E+05 -1.303039E+05 -7.022821E+03  4.158542E+04
       217  10 -4.678189E+04 -1.952923E+05 -1.179603E+05 -1.292787E+05  1.848751E-09 -7.082752E-10
       217  11  8.780338E+04 -1.685065E+05 -1.069340E+05 -1.150348E+05 -1.846660E-09 -1.232546E-09
       217  12  2.243457E+05 -1.375077E+05 -9.088368E+04 -1.328891E+05 -1.467035E-09 -8.694295E-10
       217  13  8.084254E+05  6.603675E+03  3.665954E+04 -1.315987E+05 -7.199302E-10  3.169942E-10
       217  14  8.071459E+05  7.185212E+02  2.019310E+04 -1.155500E+05  4.269564E-10 -3.188867E-10
       217  15  8.084971E+05 -2.604896E+02  1.152834E+04 -1.315970E+05 -1.300079E-09 -4.566987E-10
       217  16  1.664344E+06  2.084587E+05  1.912506E+05 -1.339219E+05  4.853707E-10  4.440808E-10
       217  17  1.526994E+06  1.699152E+05  1.473011E+05 -1.160659E+05  1.019569E-09  4.035195E-11
       217  18  1.392982E+06  1.369682E+05  1.139281E+05 -1.303037E+05  1.504485E-09  2.959780E-10
       217  19 -4.677956E+04 -1.952885E+05 -1.179517E+05 -1.292770E+05 -3.700324E+04 -5.645665E+04
       217  20  8.780509E+04 -1.685035E+05 -1.069274E+05 -1.150335E+05 -3.094452E+04 -5.026875E+04
       217  21  2.243469E+05 -1.375057E+05 -9.087926E+04 -1.328882E+05 -2.488118E+04 -4.159313E+04
       217  22  8.084271E+05  6.607325E+03  3.666712E+04 -1.315973E+05 -2.908410E+04 -5.644738E+04
       217  23  8.071469E+05  7.213320E+02  2.019853E+04 -1.155493E+05 -1.901193E+04 -5.026149E+04
       217  24  8.084977E+05 -2.586100E+02  1.153174E+04 -1.315967E+05 -8.936456E+03 -4.158931E+04
       217  25  1.664345E+06  2.084623E+05  1.912575E+05 -1.339209E+05 -2.115433E+04 -5.643819E+04
       217  26  1.526994E+06  1.699179E+05  1.473060E+05 -1.160656E+05 -7.065918E+03 -5.025426E+04
       217  27  1.392983E+06  1.369700E+05  1.139314E+05 -1.303039E+05  7.022821E+03 -4.158542E+04
       218   1  3.131148E+05 -1.161759E+05 -7.742794E+04 -1.321011E+05  2.276577E+04  3.578615E+04
       218   2  4.482711E+05 -8.455797E+04 -5.764412E+04 -1.158710E+05  2.063406E+04  2.597921E+04
       218   3  5.837948E+05 -5.276124E+04 -3.642101E+04 -1.318362E+05  1.849928E+04  1.596718E+04
       218   4  8.080225E+05 -1.836905E+01  8.756434E+03 -1.316191E+05  7.158403E+03  3.578417E+04
       218   5  8.078350E+05 -1.697624E+02  4.983942E+03 -1.155220E+05  4.693430E+03  2.597932E+04
       218   6  8.080559E+05 -8.369533E+01  2.880750E+03 -1.316193E+05  2.225835E+03  1.596947E+04
       218   7  1.303171E+06  1.161261E+05  9.493308E+04 -1.311366E+05 -8.461020E+03  3.578216E+04
       218   8  1.167526E+06  8.421159E+04  6.760840E+04 -1.151728E+05 -1.125614E+04  2.597941E+04
       218   9  1.032367E+06  5.259125E+04  4.218169E+04 -1.314022E+05 -1.405331E+04  1.597174E+04
       218  10  3.131139E+05 -1.161774E+05 -7.743132E+04 -1.321018E+05 -1.870982E-10 -1.389917E-10
       218  11  4.482705E+05 -8.455881E+04 -5.764619E+04 -1.158714E+05 -1.049854E-09  3.507070E-10
       218  12  5.837944E+05 -5.276160E+04 -3.642213E+04 -1.318365E+05  6.512820E-10  2.728673E-10
       218  13  8.080221E+05 -1.975842E+01  8.753930E+03 -1.316193E+05  2.134404E-10 -5.570981E-11
       218  14  8.078348E+05 -1.704934E+02  4.982632E+03 -1.155221E+05 -1.068921E-09  7.821072E-11
       218  15  8.080558E+05 -8.397063E+01  2.880261E+03 -1.316193E+05  4.116766E-10  3.587871E-10
       218  16  1.303170E+06  1.161247E+05  9.493054E+04 -1.311363E+05  5.167353E-11  1.690043E-10
       218  17  1.167526E+06  8.421083E+04  6.760689E+04 -1.151726E+05 -6.441138E-10 -3.376548E-10
       218  18  1.032366E+06  5.259093E+04  4.218084E+04 -1.314020E+05  8.415071E-11  9.736965E-11
       218  19  3.131148E+05 -1.161759E+05 -7.742794E+04 -1.321011E+05 -2.276577E+04 -3.578615E+04
       218  20  4.482711E+05 -8.455797E+04 -5.764412E+04 -1.158710E+05 -2.063406E+04 -2.597921E+04
       218  21  5.837948E+05 -5.276124E+04 -3.642101E+04 -1.318362E+05 -1.849928E+04 -1.596718E+04
       218  22  8.080225E+05 -1.836905E+01  8.756434E+03 -1.316191E+05 -7.158403E+03 -3.578417E+04
       218  23  8.078350E+05 -1.697624E+02  4.983942E+03 -1.155220E+05 -4.693430E+03 -2.597932E+04
       218  24  8.080559E+05 -8.369533E+01  2.880750E+03 -1.316193E+05 -2.225835E+03 -1.596947E+04
       218  25  1.303171E+06  1.161261E+05  9.493308E+04 -1.311366E+05  8.461020E+03 -3.578216E+04
       218  26  1.167526E+06  8.421159E+04  6.760840E+04 -1.151728E+05  1.125614E+04 -2.597941E+04
       218  27  1.032367E+06  5.259125E+04  4.218169E+04 -1.314022E+05  1.405331E+04 -1.597174E+04
       219   1  6.727975E+05 -3.171393E+04 -2.101888E+04 -1.317780E+05  1.800969E+04  1.007867E+04
       219   2  8.080358E+05 -2.002682E+01  1.290012E+03 -1.156311E+05  1.739978E+04 -2.268345E+01
       219   3  9.433811E+05  3.167842E+04  2.399789E+04 -1.316751E+05  1.678974E+04 -1.013974E+04
       219   4  8.079917E+05 -5.469183E+01  2.196062E+03 -1.316185E+05  1.765206E+03  1.008159E+04
       219   5  8.079462E+05 -3.835145E+01  1.287633E+03 -1.155231E+05  1.128090E+03 -1.977401E+01
       219   6  8.079920E+05 -1.265833E+01  7.957142E+02 -1.316185E+05  4.909690E+02 -1.013682E+04
       219   7  9.432044E+05  3.160371E+04  2.541138E+04 -1.314589E+05 -1.448270E+04  1.008450E+04
       219   8  8.078572E+05 -5.653409E+01  1.286247E+03 -1.154151E+05 -1.514360E+04 -1.687021E+01
       219   9  6.726214E+05 -3.170457E+04 -2.240608E+04 -1.315620E+05 -1.580437E+04 -1.013390E+04
       219  10  6.727972E+05 -3.171413E+04 -2.101968E+04 -1.317781E+05  1.222707E-10  5.508158E-10
       219  11  8.080355E+05 -2.010797E+01  1.289443E+03 -1.156311E+05 -1.941189E-09  1.019750E-09
       219  12  9.433808E+05  3.167824E+04  2.399716E+04 -1.316749E+05 -8.306770E-11 -8.185946E-11
       219  13  8.079917E+05 -5.480185E+01  2.195865E+03 -1.316185E+05  4.965096E-10  4.613575E-10
       219  14  8.079462E+05 -3.835179E+01  1.287630E+03 -1.155231E+05  1.469990E-09  7.714071E-10
       219  15  8.079920E+05 -1.276878E+01  7.955206E+02 -1.316185E+05 -2.009577E-10  8.176527E-11
       219  16  9.432041E+05  3.160355E+04  2.541079E+04 -1.314588E+05  3.256397E-10  3.940632E-10
       219  17  8.078569E+05 -5.659556E+01  1.285817E+03 -1.154151E+05  1.489263E-09  6.133649E-10
       219  18  6.726211E+05 -3.170475E+04 -2.240674E+04 -1.315621E+05 -7.386979E-10  5.665714E-10
       219  19  6.727975E+05 -3.171393E+04 -2.101888E+04 -1.317780E+05 -1.800969E+04 -1.007867E+04
       219  20  8.080358E+05 -2.002682E+01  1.290012E+03 -1.156311E+05 -1.739978E+04  2.268345E+01
       219  21  9.433811E+05  3.167842E+04  2.399789E+04 -1.316751E+05 -1.678974E+04  1.013974E+04
       219  22  8.079917E+05 -5.469183E+01  2.196062E+03 -1.316185E+05 -1.765206E+03 -1.008159E+04
       219  23  8.079462E+05 -3.835145E+01  1.287633E+03 -1.155231E+05 -1.128090E+03  1.977401E+01
       219  24  8.079920E+05 -1.265833E+01  7.957142E+02 -1.316185E+05 -4.909690E+02  1.013682E+04
       219  25  9.432044E+05  3.160371E+04  2.541138E+04 -1.314589E+05  1.448270E+04 -1.008450E+04
       219  26  8.078572E+05 -5.653409E+01  1.286247E+03 -1.154151E+05  1.514360E+04  1.687021E+01
       219  27  6.726214E+05 -3.170457E+04 -2.240608E+04 -1.315620E+05  1.580437E+04  1.013390E+04
       220   1  1.032455E+06  5.268595E+04  3.992718E+04 -1.316769E+05  1.666161E+04 -1.603372E+04
       220   2  1.167816E+06  8.434253E+04  6.298404E+04 -1.155281E+05  1.639360E+04 -2.615023E+04
       220   3  1.303259E+06  1.160002E+05  8.622124E+04 -1.315876E+05  1.612827E+04 -3.624985E+04
       220   4  8.079786E+05 -1.758112E+01  6.490428E+02 -1.316227E+05  3.583106E+02 -1.603144E+04
       220   5  8.079331E+05 -5.118440E+01  4.894165E+02 -1.155180E+05  1.158921E+02 -2.615011E+04
       220   6  8.079466E+05 -8.741915E+01  4.918224E+02 -1.316227E+05 -1.237792E+02 -3.625188E+04
       220   7  5.835519E+05 -5.272371E+04 -3.862990E+04 -1.315684E+05 -1.593928E+04 -1.602915E+04
       220   8  4.481770E+05 -8.445174E+04 -6.200875E+04 -1.155078E+05 -1.615268E+04 -2.615000E+04
       220   9  3.128744E+05 -1.161881E+05 -8.524510E+04 -1.316576E+05 -1.636329E+04 -3.625391E+04
       220  10  1.032455E+06  5.268560E+04  3.992617E+04 -1.316767E+05 -2.544764E-09 -5.604019E-10
       220  11  1.167816E+06  8.434172E+04  6.298225E+04 -1.155278E+05 -9.089269E-10 -1.597496E-10
       220  12  1.303259E+06  1.159987E+05  8.621828E+04 -1.315872E+05 -1.887509E-09  1.764990E-13
       220  13  8.079785E+05 -1.785724E+01  6.485594E+02 -1.316227E+05  1.686384E-09 -1.436691E-10
       220  14  8.079329E+05 -5.191899E+01  4.881310E+02 -1.155180E+05 -4.935819E-10  3.131457E-10
       220  15  8.079462E+05 -8.883091E+01  4.893518E+02 -1.316227E+05 -1.054224E-09  3.267830E-10
       220  16  5.835516E+05 -5.272405E+04 -3.863086E+04 -1.315686E+05  1.157668E-09  4.475293E-10
       220  17  4.481766E+05 -8.445254E+04 -6.201052E+04 -1.155081E+05 -1.257826E-10  4.392603E-10
       220  18  3.128738E+05 -1.161896E+05 -8.524808E+04 -1.316581E+05  4.813306E-10  4.839471E-10
       220  19  1.032455E+06  5.268595E+04  3.992718E+04 -1.316769E+05 -1.666161E+04  1.603372E+04
       220  20  1.167816E+06  8.434253E+04  6.298404E+04 -1.155281E+05 -1.639360E+04  2.615023E+04
       220  21  1.303259E+06  1.160002E+05  8.622124E+04 -1.315876E+05 -1.612827E+04  3.624985E+04
       220  22  8.079786E+05 -1.758112E+01  6.490428E+02 -1.316227E+05 -3.583106E+02  1.603144E+04
       220  23  8.079331E+05 -5.118440E+01  4.894165E+02 -1.155180E+05 -1.158921E+02  2.615011E+04
       220  24  8.079466E+05 -8.741915E+01  4.918224E+02 -1.316227E+05  1.237792E+02  3.625188E+04
       220  25  5.835519E+05 -5.272371E+04 -3.862990E+04 -1.315684E+05  1.593928E+04  1.602915E+04
       220  26  4.481770E+05 -8.445174E+04 -6.200875E+04 -1.155078E+05  1.615268E+04  2.615000E+04
       220  27  3.128744E+05 -1.161881E+05 -8.524510E+04 -1.316576E+05  1.636329E+04  3.625391E+04
       221   1  1.392494E+06  1.370136E+05  1.023852E+05 -1.315620E+05  1.607973E+04 -4.214037E+04
       221   2  1.528043E+06  1.687012E+05  1.260189E+05 -1.153110E+05  1.527581E+04 -5.212631E+04
       221   3  1.663832E+06  2.004830E+05  1.502213E+05 -1.313093E+05  1.447703E+04 -6.185170E+04
       221   4  8.079482E+05 -1.137729E+02  5.501540E+02 -1.316320E+05 -2.173562E+02 -4.214432E+04
       221   5  8.078406E+05 -1.912528E+02  7.839184E+02 -1.155062E+05 -6.025699E+02 -5.213449E+04
       221   6  8.078838E+05 -2.458676E+02  1.296392E+03 -1.316320E+05 -9.824755E+02 -6.186394E+04
       221   7  2.237370E+05 -1.372595E+05 -1.012960E+05 -1.317020E+05 -1.649959E+04 -4.214827E+04
       221   8  8.814575E+04 -1.691116E+05 -1.244684E+05 -1.157012E+05 -1.646312E+04 -5.214267E+04
       221   9 -4.734757E+04 -2.010141E+05 -1.476534E+05 -1.319542E+05 -1.642136E+04 -6.187616E+04
       221  10  1.392493E+06  1.370116E+05  1.023814E+05 -1.315614E+05  8.362605E-09  2.065247E-10
       221  11  1.528042E+06  1.686982E+05  1.260134E+05 -1.153104E+05 -2.150726E-08 -1.161606E-09
       221  12  1.663831E+06  2.004788E+05  1.502137E+05 -1.313086E+05 -4.156745E-08 -2.163516E-09
       221  13  8.079477E+05 -1.156810E+02  5.468150E+02 -1.316320E+05  1.736121E-11  2.058669E-10
       221  14  8.078399E+05 -1.941726E+02  7.788081E+02 -1.155063E+05 -2.462992E-09 -9.373369E-10
       221  15  8.078827E+05 -2.499791E+02  1.289196E+03 -1.316320E+05  2.127063E-09 -2.339784E-09
       221  16  2.237362E+05 -1.372615E+05 -1.012998E+05 -1.317026E+05 -9.353964E-09  1.809718E-10
       221  17  8.814473E+04 -1.691146E+05 -1.244740E+05 -1.157019E+05  1.764341E-08 -1.069717E-09
       221  18 -4.734889E+04 -2.010183E+05 -1.476611E+05 -1.319550E+05  4.245747E-08 -1.944704E-09
       221  19  1.392494E+06  1.370136E+05  1.023852E+05 -1.315620E+05 -1.607973E+04  4.214037E+04
       221  20  1.528043E+06  1.687012E+05  1.260189E+05 -1.153110E+05 -1.527581E+04  5.212631E+04
       221  21  1.663832E+06  2.004830E+05  1.502213E+05 -1.313093E+05 -1.447703E+04  6.185170E+04
       221  22  8.079482E+05 -1.137729E+02  5.501540E+02 -1.316320E+05  2.173562E+02  4.214432E+04
       221  23  8.078406E+05 -1.912528E+02  7.839184E+02 -1.155062E+05  6.025699E+02  5.213449E+04
       221  24  8.078838E+05 -2.458676E+02  1.296392E+03 -1.316320E+05  9.824755E+02  6.186394E+04
       221  25  2.237370E+05 -1.372595E+05 -1.012960E+05 -1.317020E+05  1.649959E+04  4.214827E+04
       221  26  8.814575E+04 -1.691116E+05 -1.244684E+05 -1.157012E+05  1.646312E+04  5.214267E+04
       221  27 -4.734757E+04 -2.010141E+05 -1.476534E+05 -1.319542E+05  1.642136E+04  6.187616E+04
       222   1  1.753505E+06  2.215578E+05  1.669096E+05 -1.310794E+05  1.466253E+04 -6.763943E+04
       222   2  1.888881E+06  2.537292E+05  1.933113E+05 -1.150450E+05  8.071273E+03 -7.591000E+04
       222   3  2.025734E+06  2.874820E+05  2.244415E+05 -1.311392E+05  1.482239E+03 -8.098176E+04
       222   4  8.079443E+05 -3.173209E+02  1.687047E+03 -1.316053E+05 -1.239790E+03 -6.765494E+04
       222   5  8.076136E+05 -2.687419E+02  2.892111E+03 -1.155395E+05 -2.672988E+03 -7.592830E+04
       222   6  8.078472E+05  4.690201E+02  5.251839E+03 -1.316057E+05 -4.102489E+03 -8.100007E+04
       222   7 -1.367422E+05 -2.222408E+05 -1.635664E+05 -1.321304E+05 -1.711867E+04 -6.767044E+04
       222   8 -2.725134E+05 -2.543304E+05 -1.875694E+05 -1.160332E+05 -1.339913E+04 -7.594662E+04
       222   9 -4.085987E+05 -2.866266E+05 -2.139954E+05 -1.320715E+05 -9.676590E+03 -8.101840E+04
       222  10  1.753503E+06  2.215528E+05  1.669006E+05 -1.310786E+05  4.444680E-08 -1.957183E-09
       222  11  1.888880E+06  2.537230E+05  1.933004E+05 -1.150445E+05  1.943728E-08 -5.535562E-10
       222  12  2.025732E+06  2.874750E+05  2.244292E+05 -1.311391E+05 -7.759340E-09  5.926384E-11
       222  13  8.079431E+05 -3.222383E+02  1.678439E+03 -1.316054E+05  1.033148E-09 -2.071190E-09
       222  14  8.076121E+05 -2.749369E+02  2.881260E+03 -1.155397E+05  5.391362E-10 -5.545847E-10
       222  15  8.078454E+05  4.619674E+02  5.239473E+03 -1.316060E+05  1.748027E-10  1.941806E-10
       222  16 -1.367438E+05 -2.222457E+05 -1.635756E+05 -1.321313E+05 -4.282265E-08 -1.864453E-09
       222  17 -2.725152E+05 -2.543367E+05 -1.875805E+05 -1.160340E+05 -1.814259E-08  1.097491E-09
       222  18 -4.086006E+05 -2.866336E+05 -2.140079E+05 -1.320721E+05  8.731109E-09  9.459554E-10
       222  19  1.753505E+06  2.215578E+05  1.669096E+05 -1.310794E+05 -1.466253E+04  6.763943E+04
       222  20  1.888881E+06  2.537292E+05  1.933113E+05 -1.150450E+05 -8.071273E+03  7.591000E+04
       222  21  2.025734E+06  2.874820E+05  2.244415E+05 -1.311392E+05 -1.482239E+03  8.098176E+04
       222  22  8.079443E+05 -3.173209E+02  1.687047E+03 -1.316053E+05  1.239790E+03  6.765494E+04
       222  23  8.076136E+05 -2.687419E+02  2.892111E+03 -1.155395E+05  2.672988E+03  7.592830E+04
       222  24  8.078472E+05  4.690201E+02  5.251839E+03 -1.316057E+05  4.102489E+03  8.100007E+04
       222  25 -1.367422E+05 -2.222408E+05 -1.635664E+05 -1.321304E+05  1.711867E+04  6.767044E+04
       222  26 -2.725134E+05 -2.543304E+05 -1.875694E+05 -1.160332E+05  1.339913E+04  7.594662E+04
       222  27 -4.085987E+05 -2.866266E+05 -2.139954E+05 -1.320715E+05  9.676590E+03  8.101840E+04
       223   1  2.118241E+06  3.088415E+05  2.442751E+05 -1.284620E+05  5.718939E+03 -8.541053E+04
       223   2  2.247479E+06  3.484133E+05  2.957486E+05 -1.211375E+05 -6.249977E+04 -7.296888E+04
       223   3  2.392187E+06  4.130235E+05  3.978634E+05 -1.436699E+05 -1.308101E+05 -2.220533E+04
       223   4  8.087373E+05 -9.658439E+01  6.877362E+03 -1.310949E+05 -4.998985E+03 -8.543631E+04
       223   5  8.062886E+05  4.036486E+03  1.239960E+04 -1.161806E+05 -1.139270E+04 -7.291972E+04
       223   6  8.086044E+05  2.252480E+04  2.573282E+04 -1.311218E+05 -1.785973E+04 -2.204230E+04
       223   7 -4.991023E+05 -3.091308E+05 -2.305880E+05 -1.337223E+05 -1.569497E+04 -8.546204E+04
       223   8 -6.329129E+05 -3.404642E+05 -2.710405E+05 -1.112359E+05  3.959861E+04 -7.286970E+04
       223   9 -7.726498E+05 -3.681449E+05 -3.465219E+05 -1.186063E+05  9.480515E+04 -2.187454E+04
       223  10  2.118239E+06  3.088337E+05  2.442614E+05 -1.284616E+05  2.971560E-09 -1.238482E-09
       223  11  2.247474E+06  3.484065E+05  2.957312E+05 -1.211412E+05 -2.173756E-09 -4.622737E-09
       223  12  2.392169E+06  4.130184E+05  3.978305E+05 -1.436723E+05 -5.417613E-09 -1.554072E-09
       223  13  8.087354E+05 -1.044324E+02  6.863593E+03 -1.310952E+05 -8.571109E-10 -4.486580E-09
       223  14  8.062871E+05  4.030739E+03  1.238936E+04 -1.161813E+05  3.395254E-10  1.762282E-09
       223  15  8.086039E+05  2.252419E+04  2.573131E+04 -1.311221E+05 -1.099701E-10 -3.728703E-10
       223  16 -4.991046E+05 -3.091387E+05 -2.306022E+05 -1.337234E+05 -3.076870E-09 -3.647252E-10
       223  17 -6.329160E+05 -3.404703E+05 -2.710534E+05 -1.112336E+05  7.859513E-11  1.363562E-09
       223  18 -7.726596E+05 -3.681478E+05 -3.465397E+05 -1.186047E+05  3.985702E-09 -1.839642E-09
       223  19  2.118241E+06  3.088415E+05  2.442751E+05 -1.284620E+05 -5.718939E+03  8.541053E+04
       223  20  2.247479E+06  3.484133E+05  2.957486E+05 -1.211375E+05  6.249977E+04  7.296888E+04
       223  21  2.392187E+06  4.130235E+05  3.978634E+05 -1.436699E+05  1.308101E+05  2.220533E+04
       223  22  8.087373E+05 -9.658439E+01  6.877362E+03 -1.310949E+05  4.998985E+03  8.543631E+04
       223  23  8.062886E+05  4.036486E+03  1.239960E+04 -1.161806E+05  1.139270E+04  7.291972E+04
       223  24  8.086044E+05  2.252480E+04  2.573282E+04 -1.311218E+05  1.785973E+04  2.204230E+04
       223  25 -4.991023E+05 -3.091308E+05 -2.305880E+05 -1.337223E+05  1.569497E+04  8.546204E+04
       223  26 -6.329129E+05 -3.404642E+05 -2.710405E+05 -1.112359E+05 -3.959861E+04  7.286970E+04
       223  27 -7.726498E+05 -3.681449E+05 -3.465219E+05 -1.186063E+05 -9.480515E+04  2.187454E+04
       224   1  5.279802E+05  2.121451E+06  5.115817E+05 -5.136725E+05  2.208933E+04  1.332097E+05
       224   2  3.663346E+05  1.603819E+06  3.213669E+05 -4.443711E+05  6.618743E+04  4.189845E+04
       224   3  2.381429E+05  1.106506E+06  1.988050E+05 -4.921026E+05  5.934004E+04 -4.939467E+04
       224   4  3.129028E+04  1.136274E+05  3.367116E+04 -4.921406E+05  2.232158E+04  2.133668E+04
       224   5  7.324182E+03  1.109289E+05  1.790885E+04 -4.336497E+05  6.626685E+04  1.221193E+04
       224   6  2.631127E+03  1.141169E+05  1.287638E+04 -4.921995E+05  5.921370E+04  3.029228E+03
       224   7 -4.656820E+05 -1.890478E+06 -4.444747E+05 -4.706752E+05  2.254658E+04 -9.017729E+04
       224   8 -3.518242E+05 -1.379843E+06 -2.856624E+05 -4.229526E+05  6.634536E+04 -1.740470E+04
       224   9 -2.329361E+05 -8.773153E+05 -1.730846E+05 -4.922953E+05  5.908721E+04  5.537154E+04
       224  10  5.279749E+05  2.121432E+06  5.115476E+05 -5.136749E+05 -1.482642E-10 -3.017150E-10
       224  11  3.663294E+05  1.603816E+06  3.213554E+05 -4.443733E+05 -7.300957E-11 -1.913256E-09
       224  12  2.381384E+05  1.106503E+06  1.987939E+05 -4.921002E+05  4.873614E-10 -1.160121E-09
       224  13  3.128962E+04  1.136268E+05  3.366936E+04 -4.921410E+05  1.167733E-09 -2.217591E-11
       224  14  7.319425E+03  1.109276E+05  1.790031E+04 -4.336503E+05  1.092922E-09  8.240118E-10
       224  15  2.627360E+03  1.141160E+05  1.286977E+04 -4.921996E+05  3.355072E-10 -2.298371E-10
       224  16 -4.656847E+05 -1.890487E+06 -4.444910E+05 -4.706736E+05 -4.147826E-10 -1.677141E-09
       224  17 -3.518290E+05 -1.379844E+06 -2.856713E+05 -4.229517E+05  1.922903E-09  2.526233E-09
       224  18 -2.329407E+05 -8.773195E+05 -1.730969E+05 -4.922979E+05  7.361127E-11  9.935609E-10
       224  19  5.279802E+05  2.121451E+06  5.115817E+05 -5.136725E+05 -2.208933E+04 -1.332097E+05
       224  20  3.663346E+05  1.603819E+06  3.213669E+05 -4.443711E+05 -6.618743E+04 -4.189845E+04
       224  21  2.381429E+05  1.106506E+06  1.988050E+05 -4.921026E+05 -5.934004E+04  4.939467E+04
       224  22  3.129028E+04  1.136274E+05  3.367116E+04 -4.921406E+05 -2.232158E+04 -2.133668E+04
       224  23  7.324182E+03  1.109289E+05  1.790885E+04 -4.336497E+05 -6.626685E+04 -1.221193E+04
       224  24  2.631127E+03  1.141169E+05  1.287638E+04 -4.921995E+05 -5.921370E+04 -3.029228E+03
       224  25 -4.656820E+05 -1.890478E+06 -4.444747E+05 -4.706752E+05 -2.254658E+04  9.017729E+04
       224  26 -3.518242E+05 -1.379843E+06 -2.856624E+05 -4.229526E+05 -6.634536E+04  1.740470E+04
       224  27 -2.329361E+05 -8.773153E+05 -1.730846E+05 -4.922953E+05 -5.908721E+04 -5.537154E+04
       225   1  1.590174E+05  7.691520E+05  1.349810E+05 -4.951130E+05  3.939411E+04 -4.508499E+04
       225   2  3.763087E+04  2.615926E+05  3.986550E+04 -4.329037E+05  1.049412E+04 -5.279198E+04
       225   3 -7.982060E+04 -2.442356E+05 -4.940577E+04 -4.907388E+05 -1.899317E+04 -6.049763E+04
       225   4  3.330923E+03  1.132082E+05  1.219257E+04 -4.928604E+05  3.927511E+04  9.784472E+02
       225   5  2.552967E+03  1.125741E+05  1.345519E+04 -4.328353E+05  1.037037E+04 -5.798870E+03
       225   6  5.560523E+03  1.132575E+05  1.991514E+04 -4.928549E+05 -1.912224E+04 -1.258076E+04
       225   7 -1.523793E+05 -5.423152E+05 -1.106064E+05 -4.906099E+05  3.915636E+04  4.699448E+04
       225   8 -3.252497E+04 -3.641796E+04 -1.294766E+04 -4.327669E+05  1.024662E+04  4.118330E+04
       225   9  9.093526E+04  4.708783E+05  8.923867E+04 -4.949720E+05 -1.925158E+04  3.536308E+04
       225  10  1.590152E+05  7.691494E+05  1.349743E+05 -4.951115E+05 -8.030678E-12 -5.794274E-10
       225  11  3.763000E+04  2.615896E+05  3.986006E+04 -4.329032E+05  8.711705E-10 -3.698665E-09
       225  12 -7.982197E+04 -2.442396E+05 -4.941334E+04 -4.907398E+05  1.802166E-09 -2.410117E-09
       225  13  3.329266E+03  1.132078E+05  1.218966E+04 -4.928605E+05  2.781846E-11  5.788925E-11
       225  14  2.552842E+03  1.125740E+05  1.345492E+04 -4.328352E+05 -9.177757E-10  1.078011E-09
       225  15  5.560088E+03  1.132573E+05  1.991415E+04 -4.928550E+05 -1.642330E-09 -2.387836E-10
       225  16 -1.523815E+05 -5.423180E+05 -1.106135E+05 -4.906114E+05 -1.920852E-10 -2.327465E-09
       225  17 -3.252554E+04 -3.641981E+04 -1.295104E+04 -4.327673E+05 -1.139883E-09  3.659404E-09
       225  18  9.093452E+04  4.708769E+05  8.923563E+04 -4.949715E+05 -2.165281E-09  2.321270E-09
       225  19  1.590174E+05  7.691520E+05  1.349810E+05 -4.951130E+05 -3.939411E+04  4.508499E+04
       225  20  3.763087E+04  2.615926E+05  3.986550E+04 -4.329037E+05 -1.049412E+04  5.279198E+04
       225  21 -7.982060E+04 -2.442356E+05 -4.940577E+04 -4.907388E+05  1.899317E+04  6.049763E+04
       225  22  3.330923E+03  1.132082E+05  1.219257E+04 -4.928604E+05 -3.927511E+04 -9.784472E+02
       225  23  2.552967E+03  1.125741E+05  1.345519E+04 -4.328353E+05 -1.037037E+04  5.798870E+03
       225  24  5.560523E+03  1.132575E+05  1.991514E+04 -4.928549E+05  1.912224E+04  1.258076E+04
       225  25 -1.523793E+05 -5.423152E+05 -1.106064E+05 -4.906099E+05 -3.915636E+04 -4.699448E+04
       225  26 -3.252497E+04 -3.641796E+04 -1.294766E+04 -4.327669E+05 -1.024662E+04 -4.118330E+04
       225  27  9.093526E+04  4.708783E+05  8.923867E+04 -4.949720E+05  1.925158E+04 -3.536308E+04
       226   1 -1.612968E+05 -5.769874E+05 -1.072096E+05 -4.963565E+05 -3.916921E+04 -6.923894E+04
       226   2 -2.706209E+05 -1.084962E+06 -2.025987E+05 -4.099545E+05 -5.047360E+04 -2.090604E+04
       226   3 -3.430578E+05 -1.590005E+06 -3.203442E+05 -4.410791E+05 -1.783704E+04  2.744688E+04
       226   4  3.783251E+03  1.162111E+05  2.492718E+04 -4.923087E+05 -3.930752E+04 -1.601870E+04
       226   5  1.748347E+04  1.085573E+05  4.308362E+04 -4.334810E+05 -5.042394E+04 -3.827433E+04
       226   6  8.029682E+04  1.158160E+05  8.790886E+04 -4.921438E+05 -1.764232E+04 -6.047052E+04
       226   7  1.688367E+05  8.098792E+05  1.570530E+05 -4.882559E+05 -3.944503E+04  3.725960E+04
       226   8  3.055000E+05  1.303432E+06  2.886909E+05 -4.570524E+05 -5.037303E+04 -5.567541E+04
       226   9  5.034538E+05  1.824330E+06  4.959867E+05 -5.433474E+05 -1.743347E+04 -1.486287E+05
       226  10 -1.612998E+05 -5.769930E+05 -1.072215E+05 -4.963587E+05  4.269478E-10 -4.374616E-10
       226  11 -2.706237E+05 -1.084964E+06 -2.026043E+05 -4.099554E+05  2.029611E-09 -1.802831E-09
       226  12 -3.430583E+05 -1.590006E+06 -3.203462E+05 -4.410787E+05 -7.169933E-11 -3.480430E-10
       226  13  3.781522E+03  1.162104E+05  2.492379E+04 -4.923092E+05  4.278764E-10  1.578992E-11
       226  14  1.748035E+04  1.085551E+05  4.307608E+04 -4.334826E+05 -2.592543E-10  9.528789E-10
       226  15  8.029551E+04  1.158120E+05  8.790140E+04 -4.921447E+05  9.781872E-10 -1.932103E-10
       226  16  1.688346E+05  8.098773E+05  1.570474E+05 -4.882547E+05 -2.551802E-09 -2.455519E-09
       226  17  3.054965E+05  1.303428E+06  2.886803E+05 -4.570546E+05 -9.638857E-10  2.304910E-09
       226  18  5.034476E+05  1.824306E+06  4.959448E+05 -5.433494E+05 -5.414391E-10  4.751291E-10
       226  19 -1.612968E+05 -5.769874E+05 -1.072096E+05 -4.963565E+05  3.916921E+04  6.923894E+04
       226  20 -2.706209E+05 -1.084962E+06 -2.025987E+05 -4.099545E+05  5.047360E+04  2.090604E+04
       226  21 -3.430578E+05 -1.590005E+06 -3.203442E+05 -4.410791E+05  1.783704E+04 -2.744688E+04
       226  22  3.783251E+03  1.162111E+05  2.492718E+04 -4.923087E+05  3.930752E+04  1.601870E+04
       226  23  1.748347E+04  1.085573E+05  4.308362E+04 -4.334810E+05  5.042394E+04  3.827433E+04
       226  24  8.029682E+04  1.158160E+05  8.790886E+04 -4.921438E+05  1.764232E+04  6.047052E+04
       226  25  1.688367E+05  8.098792E+05  1.570530E+05 -4.882559E+05  3.944503E+04 -3.725960E+04
       226  26  3.055000E+05  1.303432E+06  2.886909E+05 -4.570524E+05  5.037303E+04  5.567541E+04
       226  27  5.034538E+05  1.824330E+06  4.959867E+05 -5.433474E+05  1.743347E+04  1.486287E+05
       227   1 -1.350719E+06 -6.137038E+05 -3.507935E+05 -5.467373E+05 -1.555059E+05 -4.566780E+04
       227   2 -1.272571E+06 -4.373347E+05 -2.160029E+05 -5.132869E+05 -9.723502E+04  4.886168E+03
       227   3 -1.220918E+06 -3.635265E+05 -1.553860E+05 -4.766573E+05 -3.113469E+04  3.467587E+04
       227   4 -6.379106E+05 -2.724272E+05 -1.517781E+05 -2.762042E+05 -1.022383E+05 -2.566124E+04
       227   5 -6.193963E+05 -1.652334E+05 -6.972262E+04 -2.999556E+05 -7.514605E+04  1.317917E+04
       227   6 -6.211542E+05 -1.543668E+05 -3.705803E+04 -3.205443E+05 -4.023857E+04  3.125179E+04
       227   7  7.540582E+04  6.897993E+04  4.720038E+04 -5.359643E+03 -4.890443E+04 -5.613842E+03
       227   8  3.421557E+04  1.069364E+05  7.653259E+04 -8.640598E+04 -5.303207E+04  2.148444E+04
       227   9 -2.101527E+04  5.481743E+04  8.125450E+04 -1.642941E+05 -4.935197E+04  2.782451E+04
       227  10 -1.350746E+06 -6.137126E+05 -3.508430E+05 -5.467430E+05 -8.317167E-11 -5.008529E-10
       227  11 -1.272581E+06 -4.373372E+05 -2.160207E+05 -5.132865E+05 -2.075757E-09 -8.562792E-10
       227  12 -1.220920E+06 -3.635281E+05 -1.553901E+05 -4.766564E+05 -1.502165E-09 -1.372572E-10
       227  13 -6.379220E+05 -2.724307E+05 -1.517991E+05 -2.762063E+05 -3.518804E-10  8.877308E-10
       227  14 -6.194024E+05 -1.652351E+05 -6.973356E+04 -2.999548E+05 -1.915029E-10 -7.688000E-10
       227  15 -6.211562E+05 -1.543683E+05 -3.706291E+04 -3.205433E+05 -3.581570E-10 -1.206151E-11
       227  16  7.540324E+04  6.897925E+04  4.719583E+04 -5.359864E+03  1.884039E-10 -6.263776E-10
       227  17  3.421243E+04  1.069352E+05  7.652644E+04 -8.640506E+04 -6.365581E-10  5.110033E-10
       227  18 -2.101809E+04  5.481594E+04  8.124847E+04 -1.642930E+05  6.823530E-10  1.242067E-09
       227  19 -1.350719E+06 -6.137038E+05 -3.507935E+05 -5.467373E+05  1.555059E+05  4.566780E+04
       227  20 -1.272571E+06 -4.373347E+05 -2.160029E+05 -5.132869E+05  9.723502E+04 -4.886168E+03
       227  21 -1.220918E+06 -3.635265E+05 -1.553860E+05 -4.766573E+05  3.113469E+04 -3.467587E+04
       227  22 -6.379106E+05 -2.724272E+05 -1.517781E+05 -2.762042E+05  1.022383E+05  2.566124E+04
       227  23 -6.193963E+05 -1.652334E+05 -6.972262E+04 -2.999556E+05  7.514605E+04 -1.317917E+04
       227  24 -6.211542E+05 -1.543668E+05 -3.705803E+04 -3.205443E+05  4.023857E+04 -3.125179E+04
       227  25  7.540582E+04  6.897993E+04  4.720038E+04 -5.359643E+03  4.890443E+04  5.613842E+03
       227  26  3.421557E+04  1.069364E+05  7.653259E+04 -8.640598E+04  5.303207E+04 -2.148444E+04
       227  27 -2.101527E+04  5.481743E+04  8.125450E+04 -1.642941E+05  4.935197E+04 -2.782451E+04
       228   1 -1.148932E+06 -3.538912E+05 -1.343289E+05 -4.671291E+05 -2.915154E+04  3.127551E+04
       228   2 -1.069631E+06 -3.086114E+05 -1.019883E+05 -4.341981E+05 -1.771938E+04  3.054619E+04
       228   3 -9.771876E+05 -2.835316E+05 -7.804200E+04 -4.188243E+05 -5.714504E+03  2.828987E+04
       228   4 -6.164948E+05 -1.577032E+05 -2.818213E+04 -3.174917E+05 -3.463240E+04  2.921338E+04
       228   5 -6.229311E+05 -1.453796E+05 -1.488434E+04 -3.096261E+05 -2.548945E+04  2.762599E+04
       228   6 -6.157749E+05 -1.527997E+05 -8.159741E+03 -3.193201E+05 -1.577537E+04  2.451164E+04
       228   7 -8.376890E+04  3.850917E+04  7.795000E+04 -1.677362E+05 -4.011825E+04  2.714933E+04
       228   8 -1.760234E+05  1.787027E+04  7.221098E+04 -1.849708E+05 -3.326551E+04  2.470353E+04
       228   9 -2.542231E+05 -2.205520E+04  6.171811E+04 -2.197614E+05 -2.584260E+04  2.073105E+04
       228  10 -1.148933E+06 -3.538925E+05 -1.343323E+05 -4.671283E+05  1.552871E-09  5.988350E-10
       228  11 -1.069632E+06 -3.086125E+05 -1.019907E+05 -4.341977E+05 -2.551638E-10 -5.590128E-10
       228  12 -9.771878E+05 -2.835325E+05 -7.804357E+04 -4.188242E+05 -1.037362E-10 -9.837195E-10
       228  13 -6.164963E+05 -1.577045E+05 -2.818599E+04 -3.174909E+05  1.385900E-10  6.277031E-10
       228  14 -6.229320E+05 -1.453806E+05 -1.488699E+04 -3.096256E+05  3.103525E-09 -8.841876E-10
       228  15 -6.157753E+05 -1.528004E+05 -8.161337E+03 -3.193198E+05 -5.990685E-11 -3.776372E-10
       228  16 -8.377082E+04  3.850795E+04  7.794559E+04 -1.677353E+05 -2.428331E-09  1.651904E-10
       228  17 -1.760248E+05  1.786932E+04  7.220776E+04 -1.849701E+05  2.640841E-10  4.522373E-10
       228  18 -2.542239E+05 -2.205584E+04  6.171605E+04 -2.197610E+05  4.249805E-10  3.958990E-10
       228  19 -1.148932E+06 -3.538912E+05 -1.343289E+05 -4.671291E+05  2.915154E+04 -3.127551E+04
       228  20 -1.069631E+06 -3.086114E+05 -1.019883E+05 -4.341981E+05  1.771938E+04 -3.054619E+04
       228  21 -9.771876E+05 -2.835316E+05 -7.804200E+04 -4.188243E+05  5.714504E+03 -2.828987E+04
       228  22 -6.164948E+05 -1.577032E+05 -2.818213E+04 -3.174917E+05  3.463240E+04 -2.921338E+04
       228  23 -6.229311E+05 -1.453796E+05 -1.488434E+04 -3.096261E+05  2.548945E+04 -2.762599E+04
       228  24 -6.157749E+05 -1.527997E+05 -8.159741E+03 -3.193201E+05  1.577537E+04 -2.451164E+04
       228  25 -8.376890E+04  3.850917E+04  7.795000E+04 -1.677362E+05  4.011825E+04 -2.714933E+04
       228  26 -1.760234E+05  1.787027E+04  7.221098E+04 -1.849708E+05  3.326551E+04 -2.470353E+04
       228  27 -2.542231E+05 -2.205520E+04  6.171811E+04 -2.197614E+05  2.584260E+04 -2.073105E+04
       229   1 -9.183823E+05 -2.629203E+05 -6.435278E+04 -4.030530E+05 -3.367858E+03  2.471744E+04
       229   2 -8.395518E+05 -2.232848E+05 -4.500011E+04 -3.698698E+05  9.602804E+02  1.884143E+04
       229   3 -7.450025E+05 -1.998930E+05 -2.708153E+04 -3.550426E+05  5.330102E+03  1.285098E+04
       229   4 -6.154203E+05 -1.529561E+05 -6.141452E+03 -3.191400E+05 -1.316858E+04  2.103782E+04
       229   5 -6.232771E+05 -1.447878E+05 -3.386391E+03 -3.099815E+05 -9.012075E+03  1.509847E+04
       229   6 -6.153888E+05 -1.528293E+05 -1.929013E+03 -3.191815E+05 -4.814182E+03  9.044618E+03
       229   7 -3.123626E+05 -4.298359E+04  5.206633E+04 -2.351889E+05 -2.297443E+04  1.735629E+04
       229   8 -4.069545E+05 -6.628699E+04  3.822546E+04 -2.500741E+05 -1.898811E+04  1.135413E+04
       229   9 -4.857586E+05 -1.057644E+05  2.322288E+04 -2.833136E+05 -1.496065E+04  5.237441E+03
       229  10 -9.183824E+05 -2.629210E+05 -6.435395E+04 -4.030529E+05  9.166341E-10  6.088495E-12
       229  11 -8.395519E+05 -2.232852E+05 -4.500078E+04 -3.698698E+05 -3.784363E-11 -4.916353E-11
       229  12 -7.450026E+05 -1.998932E+05 -2.708190E+04 -3.550427E+05 -2.897618E-11  7.905986E-11
       229  13 -6.154206E+05 -1.529566E+05 -6.142609E+03 -3.191397E+05 -5.977404E-10 -3.499475E-11
       229  14 -6.232772E+05 -1.447881E+05 -3.386972E+03 -3.099814E+05 -2.863897E-10 -1.968469E-10
       229  15 -6.153889E+05 -1.528294E+05 -1.929210E+03 -3.191814E+05  3.753382E-10  1.219818E-10
       229  16 -3.123633E+05 -4.298406E+04  5.206477E+04 -2.351886E+05  1.642330E-10 -4.257152E-10
       229  17 -4.069549E+05 -6.628722E+04  3.822454E+04 -2.500740E+05  4.142415E-10 -2.151822E-10
       229  18 -4.857589E+05 -1.057645E+05  2.322241E+04 -2.833136E+05  7.744732E-10  1.367111E-10
       229  19 -9.183823E+05 -2.629203E+05 -6.435278E+04 -4.030530E+05  3.367858E+03 -2.471744E+04
       229  20 -8.395518E+05 -2.232848E+05 -4.500011E+04 -3.698698E+05 -9.602804E+02 -1.884143E+04
       229  21 -7.450025E+05 -1.998930E+05 -2.708153E+04 -3.550426E+05 -5.330102E+03 -1.285098E+04
       229  22 -6.154203E+05 -1.529561E+05 -6.141452E+03 -3.191400E+05  1.316858E+04 -2.103782E+04
       229  23 -6.232771E+05 -1.447878E+05 -3.386391E+03 -3.099815E+05  9.012075E+03 -1.509847E+04
       229  24 -6.153888E+05 -1.528293E+05 -1.929013E+03 -3.191815E+05  4.814182E+03 -9.044618E+03
       229  25 -3.123626E+05 -4.298359E+04  5.206633E+04 -2.351889E+05  2.297443E+04 -1.735629E+04
       229  26 -4.069545E+05 -6.628699E+04  3.822546E+04 -2.500741E+05  1.898811E+04 -1.135413E+04
       229  27 -4.857586E+05 -1.057644E+05  2.322288E+04 -2.833136E+05  1.496065E+04 -5.237441E+03
       230   1 -6.868819E+05 -1.787348E+05 -1.500647E+04 -3.389704E+05  7.070690E+03  9.024645E+03
       230   2 -6.081448E+05 -1.392587E+05  1.933713E+03 -3.057160E+05  1.009941E+04  2.476405E+03
       230   3 -5.134368E+05 -1.158276E+05  1.849980E+04 -2.908216E+05  1.313091E+04 -4.078867E+03
       230   4 -6.153445E+05 -1.528366E+05 -1.500504E+03 -3.191652E+05 -3.056351E+03  5.225052E+03
       230   5 -6.233276E+05 -1.448232E+05 -9.834450E+02 -3.099802E+05 -3.902875E+01 -1.327571E+03
       230   6 -6.153474E+05 -1.528542E+05 -8.322735E+02 -3.191588E+05  2.980987E+03 -7.887230E+03
       230   7 -5.438010E+05 -1.269376E+05  1.200587E+04 -2.993578E+05 -1.318473E+04  1.424961E+03
       230   8 -6.385101E+05 -1.503876E+05 -3.900192E+03 -3.142442E+05 -1.017725E+04 -5.131464E+03
       230   9 -7.172470E+05 -1.898798E+05 -2.016434E+04 -3.474916E+05 -7.167151E+03 -1.169492E+04
       230  10 -6.868819E+05 -1.787349E+05 -1.500672E+04 -3.389704E+05  2.100083E-09  1.575035E-10
       230  11 -6.081449E+05 -1.392587E+05  1.933510E+03 -3.057161E+05 -1.192345E-09 -1.110586E-09
       230  12 -5.134370E+05 -1.158276E+05  1.849944E+04 -2.908215E+05 -2.223687E-09 -4.392959E-10
       230  13 -6.153445E+05 -1.528366E+05 -1.500573E+03 -3.191652E+05 -1.344985E-09 -3.335574E-10
       230  14 -6.233276E+05 -1.448232E+05 -9.834483E+02 -3.099802E+05 -4.177686E-10 -1.316949E-09
       230  15 -6.153474E+05 -1.528543E+05 -8.324071E+02 -3.191588E+05 -1.128740E-09  3.454536E-10
       230  16 -5.438012E+05 -1.269376E+05  1.200554E+04 -2.993577E+05 -1.450530E-09 -8.114124E-10
       230  17 -6.385102E+05 -1.503877E+05 -3.900436E+03 -3.142442E+05 -8.541125E-10 -2.252684E-10
       230  18 -7.172471E+05 -1.898799E+05 -2.016469E+04 -3.474917E+05  1.275622E-09  8.372494E-10
       230  19 -6.868819E+05 -1.787348E+05 -1.500647E+04 -3.389704E+05 -7.070690E+03 -9.024645E+03
       230  20 -6.081448E+05 -1.392587E+05  1.933713E+03 -3.057160E+05 -1.009941E+04 -2.476405E+03
       230  21 -5.134368E+05 -1.158276E+05  1.849980E+04 -2.908216E+05 -1.313091E+04  4.078867E+03
       230  22 -6.153445E+05 -1.528366E+05 -1.500504E+03 -3.191652E+05  3.056351E+03 -5.225052E+03
       230  23 -6.233276E+05 -1.448232E+05 -9.834450E+02 -3.099802E+05  3.902875E+01  1.327571E+03
       230  24 -6.153474E+05 -1.528542E+05 -8.322735E+02 -3.191588E+05 -2.980987E+03  7.887230E+03
       230  25 -5.438010E+05 -1.269376E+05  1.200587E+04 -2.993578E+05  1.318473E+04 -1.424961E+03
       230  26 -6.385101E+05 -1.503876E+05 -3.900192E+03 -3.142442E+05  1.017725E+04  5.131464E+03
       230  27 -7.172470E+05 -1.898798E+05 -2.016434E+04 -3.474916E+05  7.167151E+03  1.169492E+04
       231   1 -4.553912E+05 -9.464475E+04  3.010570E+04 -2.747349E+05  1.474525E+04 -7.952882E+03
       231   2 -3.766996E+05 -5.518679E+04  4.619214E+04 -2.414935E+05  1.784363E+04 -1.447714E+04
       231   3 -2.820488E+05 -3.176192E+04  6.185596E+04 -2.265992E+05  2.093845E+04 -2.098747E+04
       231   4 -6.153551E+05 -1.528557E+05 -8.674863E+02 -3.191564E+05  4.596552E+03 -1.176117E+04
       231   5 -6.233368E+05 -1.448433E+05 -1.182820E+03 -3.099818E+05  7.714478E+03 -1.827932E+04
       231   6 -6.153706E+05 -1.528687E+05 -1.936305E+03 -3.191575E+05  1.082878E+04 -2.478359E+04
       231   7 -7.752907E+05 -2.110639E+05 -3.184097E+04 -3.635668E+05 -5.549256E+03 -1.556837E+04
       231   8 -8.699104E+05 -2.344942E+05 -4.855995E+04 -3.784447E+05 -2.410360E+03 -2.207989E+04
       231   9 -9.485794E+05 -2.739664E+05 -6.573364E+04 -4.116705E+05  7.248331E+02 -2.857756E+04
       231  10 -4.553915E+05 -9.464488E+04  3.010517E+04 -2.747348E+05 -4.069556E-11  7.037103E-10
       231  11 -3.767000E+05 -5.518710E+04  4.619115E+04 -2.414933E+05 -1.318904E-09  8.751129E-10
       231  12 -2.820494E+05 -3.176251E+04  6.185431E+04 -2.265989E+05  5.702434E-10  4.512368E-10
       231  13 -6.153551E+05 -1.528559E+05 -8.677859E+02 -3.191563E+05 -6.253498E-10  1.022524E-09
       231  14 -6.233370E+05 -1.448437E+05 -1.183560E+03 -3.099817E+05  9.250369E-10  5.869303E-10
       231  15 -6.153709E+05 -1.528694E+05 -1.937679E+03 -3.191573E+05 -3.065670E-10  3.615983E-11
       231  16 -7.752908E+05 -2.110641E+05 -3.184148E+04 -3.635669E+05  2.938293E-11  7.042664E-10
       231  17 -8.699106E+05 -2.344948E+05 -4.856087E+04 -3.784448E+05 -2.238261E-09  1.042882E-09
       231  18 -9.485796E+05 -2.739673E+05 -6.573518E+04 -4.116705E+05 -8.692529E-10 -2.367068E-10
       231  19 -4.553912E+05 -9.464475E+04  3.010570E+04 -2.747349E+05 -1.474525E+04  7.952882E+03
       231  20 -3.766996E+05 -5.518679E+04  4.619214E+04 -2.414935E+05 -1.784363E+04  1.447714E+04
       231  21 -2.820488E+05 -3.176192E+04  6.185596E+04 -2.265992E+05 -2.093845E+04  2.098747E+04
       231  22 -6.153551E+05 -1.528557E+05 -8.674863E+02 -3.191564E+05 -4.596552E+03  1.176117E+04
       231  23 -6.233368E+05 -1.448433E+05 -1.182820E+03 -3.099818E+05 -7.714478E+03  1.827932E+04
       231  24 -6.153706E+05 -1.528687E+05 -1.936305E+03 -3.191575E+05 -1.082878E+04  2.478359E+04
       231  25 -7.752907E+05 -2.110639E+05 -3.184097E+04 -3.635668E+05  5.549256E+03  1.556837E+04
       231  26 -8.699104E+05 -2.344942E+05 -4.855995E+04 -3.784447E+05  2.410360E+03  2.207989E+04
       231  27 -9.485794E+05 -2.739664E+05 -6.573364E+04 -4.116705E+05 -7.248331E+02  2.857756E+04
       232   1 -2.241017E+05 -1.061549E+04  7.289253E+04 -2.105685E+05  2.280116E+04 -2.475954E+04
       232   2 -1.454403E+05  2.879692E+04  8.735658E+04 -1.773655E+05  2.731811E+04 -3.065422E+04
       232   3 -5.108251E+04  5.201167E+04  1.002807E+05 -1.624762E+05  3.178031E+04 -3.639414E+04
       232   4 -6.154401E+05 -1.528624E+05 -2.528540E+03 -3.191740E+05  1.267136E+04 -2.856431E+04
       232   5 -6.232914E+05 -1.448390E+05 -4.507350E+03 -3.099847E+05  1.741801E+04 -3.437512E+04
       232   6 -6.154989E+05 -1.530606E+05 -8.208984E+03 -3.191133E+05  2.210956E+04 -4.003119E+04
       232   7 -1.006619E+06 -2.950955E+05 -7.795576E+04 -4.277160E+05  2.548403E+03 -3.236652E+04
       232   8 -1.100903E+06 -3.184536E+05 -9.638005E+04 -4.425086E+05  7.526109E+03 -3.809295E+04
       232   9 -1.179579E+06 -3.581024E+05 -1.167105E+05 -4.756169E+05  1.244832E+04 -4.366469E+04
       232  10 -2.241024E+05 -1.061628E+04  7.289041E+04 -2.105681E+05  4.588216E-10  1.572889E-10
       232  11 -1.454413E+05  2.879571E+04  8.735342E+04 -1.773648E+05  2.306997E-09 -2.362052E-10
       232  12 -5.108395E+04  5.200998E+04  1.002763E+05 -1.624753E+05 -2.078987E-09 -3.257036E-10
       232  13 -6.154405E+05 -1.528633E+05 -2.530374E+03 -3.191737E+05  1.396196E-10  3.154586E-10
       232  14 -6.232920E+05 -1.448403E+05 -4.510139E+03 -3.099842E+05  8.313149E-10 -3.019657E-10
       232  15 -6.154999E+05 -1.530624E+05 -8.212912E+03 -3.191126E+05 -4.184931E-09 -1.669453E-09
       232  16 -1.006619E+06 -2.950967E+05 -7.795775E+04 -4.277159E+05  1.222036E-10  7.341450E-10
       232  17 -1.100903E+06 -3.184552E+05 -9.638288E+04 -4.425084E+05  3.680135E-10 -4.500394E-10
       232  18 -1.179579E+06 -3.581045E+05 -1.167144E+05 -4.756165E+05 -7.976788E-09 -2.457575E-09
       232  19 -2.241017E+05 -1.061549E+04  7.289253E+04 -2.105685E+05 -2.280116E+04  2.475954E+04
       232  20 -1.454403E+05  2.879692E+04  8.735658E+04 -1.773655E+05 -2.731811E+04  3.065422E+04
       232  21 -5.108251E+04  5.201167E+04  1.002807E+05 -1.624762E+05 -3.178031E+04  3.639414E+04
       232  22 -6.154401E+05 -1.528624E+05 -2.528540E+03 -3.191740E+05 -1.267136E+04  2.856431E+04
       232  23 -6.232914E+05 -1.448390E+05 -4.507350E+03 -3.099847E+05 -1.741801E+04  3.437512E+04
       232  24 -6.154989E+05 -1.530606E+05 -8.208984E+03 -3.191133E+05 -2.210956E+04  4.003119E+04
       232  25 -1.006619E+06 -2.950955E+05 -7.795576E+04 -4.277160E+05 -2.548403E+03  3.236652E+04
       232  26 -1.100903E+06 -3.184536E+05 -9.638005E+04 -4.425086E+05 -7.526109E+03  3.809295E+04
       232  27 -1.179579E+06 -3.581024E+05 -1.167105E+05 -4.756169E+05 -1.244832E+04  4.366469E+04
       233   1  6.929981E+03  7.282095E+04  1.092254E+05 -1.472755E+05  3.511219E+04 -3.957312E+04
       233   2  8.469814E+04  1.128143E+05  1.176476E+05 -1.120193E+05  4.421711E+04 -4.258262E+04
       233   3  1.758371E+05  1.324654E+05  1.196968E+05 -9.397960E+04  5.256445E+04 -4.356439E+04
       233   4 -6.159745E+05 -1.528512E+05 -1.091364E+04 -3.193469E+05  2.509698E+04 -4.334129E+04
       233   5 -6.228414E+05 -1.456639E+05 -1.992613E+04 -3.095103E+05  3.724222E+04 -4.521131E+04
       233   6 -6.169522E+05 -1.594290E+05 -3.772917E+04 -3.168960E+05  4.862837E+04 -4.505272E+04
       233   7 -1.238481E+06 -3.784916E+05 -1.310706E+05 -4.912600E+05  1.509245E+04 -4.710551E+04
       233   8 -1.329864E+06 -4.040978E+05 -1.575228E+05 -5.067933E+05  3.027581E+04 -4.783680E+04
       233   9 -1.409092E+06 -4.512653E+05 -1.951847E+05 -5.395480E+05  4.469766E+04 -4.653900E+04
       233  10  6.928237E+03  7.281894E+04  1.092201E+05 -1.472744E+05 -9.759202E-09 -2.243539E-09
       233  11  8.469555E+04  1.128118E+05  1.176405E+05 -1.120177E+05 -2.077142E-09  2.103448E-09
       233  12  1.758336E+05  1.324626E+05  1.196880E+05 -9.397775E+04  4.965447E-09  2.623460E-10
       233  13 -6.159757E+05 -1.528534E+05 -1.091835E+04 -3.193460E+05 -5.069701E-09 -7.976892E-10
       233  14 -6.228434E+05 -1.456664E+05 -1.993258E+04 -3.095089E+05  1.014721E-09  1.154359E-09
       233  15 -6.169553E+05 -1.594318E+05 -3.773743E+04 -3.168943E+05  4.205428E-09 -1.324846E-09
       233  16 -1.238482E+06 -3.784940E+05 -1.310752E+05 -4.912594E+05 -6.229832E-10  3.480330E-10
       233  17 -1.329866E+06 -4.041005E+05 -1.575288E+05 -5.067922E+05  1.406213E-09 -3.189105E-10
       233  18 -1.409094E+06 -4.512682E+05 -1.951926E+05 -5.395463E+05 -1.872674E-09 -1.138973E-09
       233  19  6.929981E+03  7.282095E+04  1.092254E+05 -1.472755E+05 -3.511219E+04  3.957312E+04
       233  20  8.469814E+04  1.128143E+05  1.176476E+05 -1.120193E+05 -4.421711E+04  4.258262E+04
       233  21  1.758371E+05  1.324654E+05  1.196968E+05 -9.397960E+04 -5.256445E+04  4.356439E+04
       233  22 -6.159745E+05 -1.528512E+05 -1.091364E+04 -3.193469E+05 -2.509698E+04  4.334129E+04
       233  23 -6.228414E+05 -1.456639E+05 -1.992613E+04 -3.095103E+05 -3.724222E+04  4.521131E+04
       233  24 -6.169522E+05 -1.594290E+05 -3.772917E+04 -3.168960E+05 -4.862837E+04  4.505272E+04
       233  25 -1.238481E+06 -3.784916E+05 -1.310706E+05 -4.912600E+05 -1.509245E+04  4.710551E+04
       233  26 -1.329864E+06 -4.040978E+05 -1.575228E+05 -5.067933E+05 -3.027581E+04  4.783680E+04
       233  27 -1.409092E+06 -4.512653E+05 -1.951847E+05 -5.395480E+05 -4.469766E+04  4.653900E+04
       234   1  2.399908E+05  1.470583E+05  1.201332E+05 -9.483437E+04  6.438479E+04 -4.313895E+04
       234   2  2.869413E+05  2.034327E+05  1.080592E+05 -1.902748E+03  6.886082E+04 -3.233024E+04
       234   3  3.095748E+05  1.447000E+05  6.276835E+04  1.015677E+05  6.295892E+04  6.021846E+03
       234   4 -6.231842E+05 -1.549682E+05 -4.961187E+04 -3.209859E+05  5.563200E+04 -4.643972E+04
       234   5 -6.181328E+05 -1.722345E+05 -9.334669E+04 -2.965546E+05  1.015425E+05 -2.003872E+04
       234   6 -6.456838E+05 -3.129350E+05 -2.031941E+05 -2.615761E+05  1.370628E+05  3.392288E+04
       234   7 -1.485589E+06 -4.569446E+05 -2.193907E+05 -5.468528E+05  4.689227E+04 -4.973607E+04
       234   8 -1.522350E+06 -5.477642E+05 -2.947943E+05 -5.907839E+05  1.341723E+05 -7.772369E+03
       234   9 -1.599988E+06 -7.703139E+05 -4.692078E+05 -6.241442E+05  2.110402E+05  6.174661E+04
       234  10  2.399858E+05  1.470552E+05  1.201220E+05 -9.483213E+04 -1.231920E-09 -1.882827E-09
       234  11  2.869359E+05  2.034303E+05  1.080483E+05 -1.900956E+03 -1.137741E-09 -6.591079E-11
       234  12  3.095705E+05  1.446989E+05  6.276084E+04  1.015674E+05  1.846303E-09  2.203669E-09
       234  13 -6.231881E+05 -1.549713E+05 -4.962173E+04 -3.209838E+05  1.698226E-09 -1.197479E-09
       234  14 -6.181440E+05 -1.722377E+05 -9.336683E+04 -2.965530E+05  5.888754E-10 -1.712731E-09
       234  15 -6.457043E+05 -3.129413E+05 -2.032316E+05 -2.615799E+05  1.579363E-09  2.854473E-09
       234  16 -1.485592E+06 -4.569478E+05 -2.193995E+05 -5.468509E+05  1.988265E-09  2.072016E-09
       234  17 -1.522369E+06 -5.477691E+05 -2.948283E+05 -5.907831E+05 -2.864344E-09  4.716217E-09
       234  18 -1.600037E+06 -7.703300E+05 -4.692989E+05 -6.241547E+05 -2.643066E-09 -1.679125E-09
       234  19  2.399908E+05  1.470583E+05  1.201332E+05 -9.483437E+04 -6.438479E+04  4.313895E+04
       234  20  2.869413E+05  2.034327E+05  1.080592E+05 -1.902748E+03 -6.886082E+04  3.233024E+04
       234  21  3.095748E+05  1.447000E+05  6.276835E+04  1.015677E+05 -6.295892E+04 -6.021846E+03
       234  22 -6.231842E+05 -1.549682E+05 -4.961187E+04 -3.209859E+05 -5.563200E+04  4.643972E+04
       234  23 -6.181328E+05 -1.722345E+05 -9.334669E+04 -2.965546E+05 -1.015425E+05  2.003872E+04
       234  24 -6.456838E+05 -3.129350E+05 -2.031941E+05 -2.615761E+05 -1.370628E+05 -3.392288E+04
       234  25 -1.485589E+06 -4.569446E+05 -2.193907E+05 -5.468528E+05 -4.689227E+04  4.973607E+04
       234  26 -1.522350E+06 -5.477642E+05 -2.947943E+05 -5.907839E+05 -1.341723E+05  7.772369E+03
       234  27 -1.599988E+06 -7.703139E+05 -4.692078E+05 -6.241442E+05 -2.110402E+05 -6.174661E+04
       235   1  1.274294E+06  1.719574E+05  1.495997E+05  7.760954E+03  1.124058E+04 -1.494312E+04
       235   2  1.218914E+06  2.160674E+05  1.455487E+05  3.031290E+04 -5.283912E+03 -5.028338E+04
       235   3  1.154559E+06  2.154159E+05  1.411095E+05  6.535347E+04 -2.185028E+04 -6.065940E+04
       235   4  2.349884E+05 -8.427030E+04 -9.428558E+04  5.814450E+04 -6.565596E+04 -1.509416E+04
       235   5  2.429855E+05 -1.706203E+04 -4.557374E+04  5.180862E+04 -4.199295E+04 -5.036837E+04
       235   6  2.350148E+05 -1.628910E+03 -2.514951E+04  5.796256E+04 -1.837278E+04 -6.065888E+04
       235   7 -8.033063E+05 -3.405619E+05 -3.382211E+05  1.084428E+05 -1.424247E+05 -1.525779E+04
       235   8 -7.320269E+05 -2.502462E+05 -2.367367E+05  7.326938E+04 -7.864557E+04 -5.045598E+04
       235   9 -6.837072E+05 -2.187209E+05 -1.914417E+05  5.058238E+04 -1.490027E+04 -6.065844E+04
       235  10  1.274294E+06  1.719571E+05  1.495991E+05  7.761090E+03  4.025094E-09 -6.091725E-10
       235  11  1.218913E+06  2.160647E+05  1.455439E+05  3.031268E+04  1.512592E-09 -4.887460E-09
       235  12  1.154557E+06  2.154118E+05  1.411017E+05  6.535241E+04 -3.430215E-10 -3.627536E-09
       235  13  2.349837E+05 -8.427170E+04 -9.429410E+04  5.814370E+04 -9.942778E-10  1.289936E-09
       235  14  2.429829E+05 -1.706523E+04 -4.558182E+04  5.180692E+04  5.429013E-10 -2.039263E-09
       235  15  2.350135E+05 -1.632952E+03 -2.515705E+04  5.796166E+04 -4.695730E-10  5.476115E-11
       235  16 -8.033282E+05 -3.405676E+05 -3.382597E+05  1.084411E+05 -2.600541E-09  3.202362E-10
       235  17 -7.320343E+05 -2.502506E+05 -2.367531E+05  7.326618E+04 -2.116074E-09 -6.401655E-09
       235  18 -6.837085E+05 -2.187249E+05 -1.914490E+05  5.058166E+04  8.516705E-11 -6.064223E-09
       235  19  1.274294E+06  1.719574E+05  1.495997E+05  7.760954E+03 -1.124058E+04  1.494312E+04
       235  20  1.218914E+06  2.160674E+05  1.455487E+05  3.031290E+04  5.283912E+03  5.028338E+04
       235  21  1.154559E+06  2.154159E+05  1.411095E+05  6.535347E+04  2.185028E+04  6.065940E+04
       235  22  2.349884E+05 -8.427030E+04 -9.428558E+04  5.814450E+04  6.565596E+04  1.509416E+04
       235  23  2.429855E+05 -1.706203E+04 -4.557374E+04  5.180862E+04  4.199295E+04  5.036837E+04
       235  24  2.350148E+05 -1.628910E+03 -2.514951E+04  5.796256E+04  1.837278E+04  6.065888E+04
       235  25 -8.033063E+05 -3.405619E+05 -3.382211E+05  1.084428E+05  1.424247E+05  1.525779E+04
       235  26 -7.320269E+05 -2.502462E+05 -2.367367E+05  7.326938E+04  7.864557E+04  5.045598E+04
       235  27 -6.837072E+05 -2.187209E+05 -1.914417E+05  5.058238E+04  1.490027E+04  6.065844E+04
       236   1  1.117509E+06  2.038248E+05  1.386639E+05  5.858127E+04 -1.522643E+04 -5.902759E+04
       236   2  1.058452E+06  1.922655E+05  1.335451E+05  5.256379E+04 -1.329544E+04 -5.790369E+04
       236   3  9.986627E+05  1.788067E+05  1.266979E+05  6.053967E+04 -1.137167E+04 -5.469225E+04
       236   4  2.382846E+05 -3.450471E+03 -1.921217E+04  5.832349E+04 -1.508957E+04 -5.903456E+04
       236   5  2.389588E+05 -3.366759E+02 -1.059132E+04  5.132123E+04 -9.803366E+03 -5.790144E+04
       236   6  2.383152E+05  2.939211E+02 -6.029922E+03  5.831354E+04 -4.524134E+03 -5.467941E+04
       236   7 -6.401875E+05 -2.107687E+05 -1.771181E+05  5.806561E+04 -1.495289E+04 -5.904154E+04
       236   8 -5.798780E+05 -1.929755E+05 -1.547521E+05  5.007993E+04 -6.315751E+03 -5.789920E+04
       236   9 -5.214665E+05 -1.782502E+05 -1.387781E+05  5.608982E+04  2.315284E+03 -5.466662E+04
       236  10  1.117508E+06  2.038210E+05  1.386570E+05  5.858055E+04 -3.817989E-09 -4.786641E-09
       236  11  1.058451E+06  1.922619E+05  1.335385E+05  5.256317E+04 -2.762728E-09  1.548401E-09
       236  12  9.986617E+05  1.788035E+05  1.266920E+05  6.053917E+04  1.529796E-09  2.159063E-09
       236  13  2.382834E+05 -3.454274E+03 -1.921915E+04  5.832277E+04 -1.071131E-09 -3.143128E-09
       236  14  2.389578E+05 -3.403021E+02 -1.059780E+04  5.132077E+04  5.388747E-10 -1.370484E-09
       236  15  2.383144E+05  2.907047E+02 -6.035579E+03  5.831334E+04 -9.902573E-10 -3.378585E-09
       236  16 -6.401887E+05 -2.107725E+05 -1.771251E+05  5.806490E+04  5.711238E-09  3.383177E-10
       236  17 -5.798789E+05 -1.929791E+05 -1.547585E+05  5.007963E+04  8.963541E-10  1.400169E-09
       236  18 -5.214673E+05 -1.782534E+05 -1.387838E+05  5.608992E+04 -1.625779E-09 -5.618600E-10
       236  19  1.117509E+06  2.038248E+05  1.386639E+05  5.858127E+04  1.522643E+04  5.902759E+04
       236  20  1.058452E+06  1.922655E+05  1.335451E+05  5.256379E+04  1.329544E+04  5.790369E+04
       236  21  9.986627E+05  1.788067E+05  1.266979E+05  6.053967E+04  1.137167E+04  5.469225E+04
       236  22  2.382846E+05 -3.450471E+03 -1.921217E+04  5.832349E+04  1.508957E+04  5.903456E+04
       236  23  2.389588E+05 -3.366759E+02 -1.059132E+04  5.132123E+04  9.803366E+03  5.790144E+04
       236  24  2.383152E+05  2.939211E+02 -6.029922E+03  5.831354E+04  4.524134E+03  5.467941E+04
       236  25 -6.401875E+05 -2.107687E+05 -1.771181E+05  5.806561E+04  1.495289E+04  5.904154E+04
       236  26 -5.798780E+05 -1.929755E+05 -1.547521E+05  5.007993E+04  6.315751E+03  5.789920E+04
       236  27 -5.214665E+05 -1.782502E+05 -1.387781E+05  5.608982E+04 -2.315284E+03  5.466662E+04
       237   1  9.597364E+05  1.694463E+05  1.209887E+05  6.011328E+04 -1.016404E+04 -5.218520E+04
       237   2  9.005238E+05  1.555855E+05  1.125063E+05  5.294093E+04 -9.163235E+03 -4.802067E+04
       237   3  8.411373E+05  1.417376E+05  1.033631E+05  5.986494E+04 -8.165174E+03 -4.368343E+04
       237   4  2.385692E+05  1.955032E+02 -4.576609E+03  5.833800E+04 -3.599845E+03 -5.217205E+04
       237   5  2.386949E+05  2.816303E+02 -2.598403E+03  5.128919E+04 -2.322596E+03 -4.800508E+04
       237   6  2.385949E+05  3.325632E+02 -1.473705E+03  5.833762E+04 -1.047998E+03 -4.366531E+04
       237   7 -4.820888E+05 -1.690834E+05 -1.301601E+05  5.656448E+04  2.956966E+03 -5.215894E+04
       237   8 -4.227051E+05 -1.550459E+05 -1.177184E+05  4.963895E+04  4.510981E+03 -4.798953E+04
       237   9 -3.635920E+05 -1.410920E+05 -1.063231E+05  5.681155E+04  6.062487E+03 -4.364721E+04
       237  10  9.597356E+05  1.694433E+05  1.209834E+05  6.011285E+04 -2.371404E-09  3.622440E-09
       237  11  9.005231E+05  1.555830E+05  1.125018E+05  5.294057E+04  1.521435E-09  3.338648E-09
       237  12  8.411367E+05  1.417355E+05  1.033594E+05  5.986465E+04  2.637465E-09  1.496506E-09
       237  13  2.385685E+05  1.925765E+02 -4.581749E+03  5.833785E+04 -1.225533E-09 -4.050220E-09
       237  14  2.386942E+05  2.791540E+02 -2.602744E+03  5.128910E+04  1.066653E-09  4.786925E-09
       237  15  2.385944E+05  3.305153E+02 -1.477291E+03  5.833758E+04 -5.132515E-10  8.342681E-09
       237  16 -4.820896E+05 -1.690863E+05 -1.301652E+05  5.656461E+04  3.913667E-09  2.218014E-09
       237  17 -4.227058E+05 -1.550484E+05 -1.177227E+05  4.963913E+04 -3.693905E-09  6.179960E-09
       237  18 -3.635925E+05 -1.410941E+05 -1.063268E+05  5.681177E+04 -3.965201E-09  3.039483E-09
       237  19  9.597364E+05  1.694463E+05  1.209887E+05  6.011328E+04  1.016404E+04  5.218520E+04
       237  20  9.005238E+05  1.555855E+05  1.125063E+05  5.294093E+04  9.163235E+03  4.802067E+04
       237  21  8.411373E+05  1.417376E+05  1.033631E+05  5.986494E+04  8.165174E+03  4.368343E+04
       237  22  2.385692E+05  1.955032E+02 -4.576609E+03  5.833800E+04  3.599845E+03  5.217205E+04
       237  23  2.386949E+05  2.816303E+02 -2.598403E+03  5.128919E+04  2.322596E+03  4.800508E+04
       237  24  2.385949E+05  3.325632E+02 -1.473705E+03  5.833762E+04  1.047998E+03  4.366531E+04
       237  25 -4.820888E+05 -1.690834E+05 -1.301601E+05  5.656448E+04 -2.956966E+03  5.215894E+04
       237  26 -4.227051E+05 -1.550459E+05 -1.177184E+05  4.963895E+04 -4.510981E+03  4.798953E+04
       237  27 -3.635920E+05 -1.410920E+05 -1.063231E+05  5.681155E+04 -6.062487E+03  4.364721E+04
       238   1  8.021469E+05  1.325292E+05  9.667839E+04  5.976275E+04 -7.912152E+03 -4.110776E+04
       238   2  7.429747E+05  1.186254E+05  8.700535E+04  5.258525E+04 -7.645248E+03 -3.669571E+04
       238   3  6.837131E+05  1.048140E+05  7.715952E+04  5.949483E+04 -7.380100E+03 -3.227095E+04
       238   4  2.386323E+05  3.328224E+02 -1.106993E+03  5.833562E+04 -8.213014E+02 -4.108881E+04
       238   5  2.386908E+05  2.997885E+02 -6.044668E+02  5.129174E+04 -5.345552E+02 -3.667538E+04
       238   6  2.386519E+05  3.555734E+02 -2.890297E+02  5.833560E+04 -2.495388E+02 -3.224923E+04
       238   7 -3.245712E+05 -1.318807E+05 -9.890327E+04  5.690957E+04  6.263316E+03 -4.106988E+04
       238   8 -2.653440E+05 -1.180395E+05 -8.822300E+04  4.999911E+04  6.570544E+03 -3.665507E+04
       238   9 -2.062152E+05 -1.041135E+05 -7.774436E+04  5.717706E+04  6.876070E+03 -3.222753E+04
       238  10  8.021464E+05  1.325274E+05  9.667510E+04  5.976249E+04  8.091717E-09  2.006453E-09
       238  11  7.429743E+05  1.186239E+05  8.700271E+04  5.258503E+04 -9.099110E-09  9.809056E-09
       238  12  6.837128E+05  1.048128E+05  7.715746E+04  5.949464E+04 -2.601783E-08  7.840007E-09
       238  13  2.386318E+05  3.310090E+02 -1.110167E+03  5.833559E+04 -2.136841E-09  3.975670E-09
       238  14  2.386904E+05  2.983438E+02 -6.069953E+02  5.129172E+04 -3.870042E-10  7.298652E-09
       238  15  2.386517E+05  3.544565E+02 -2.909844E+02  5.833559E+04 -2.253797E-09  1.549731E-09
       238  16 -3.245717E+05 -1.318825E+05 -9.890651E+04  5.690978E+04 -7.795165E-09  2.217720E-09
       238  17 -2.653444E+05 -1.180410E+05 -8.822561E+04  4.999930E+04  6.686871E-09  2.267128E-09
       238  18 -2.062155E+05 -1.041146E+05 -7.774640E+04  5.717724E+04  2.286957E-08 -7.760864E-10
       238  19  8.021469E+05  1.325292E+05  9.667839E+04  5.976275E+04  7.912152E+03  4.110776E+04
       238  20  7.429747E+05  1.186254E+05  8.700535E+04  5.258525E+04  7.645248E+03  3.669571E+04
       238  21  6.837131E+05  1.048140E+05  7.715952E+04  5.949483E+04  7.380100E+03  3.227095E+04
       238  22  2.386323E+05  3.328224E+02 -1.106993E+03  5.833562E+04  8.213014E+02  4.108881E+04
       238  23  2.386908E+05  2.997885E+02 -6.044668E+02  5.129174E+04  5.345552E+02  3.667538E+04
       238  24  2.386519E+05  3.555734E+02 -2.890297E+02  5.833560E+04  2.495388E+02  3.224923E+04
       238  25 -3.245712E+05 -1.318807E+05 -9.890327E+04  5.690957E+04 -6.263316E+03  4.106988E+04
       238  26 -2.653440E+05 -1.180395E+05 -8.822300E+04  4.999911E+04 -6.570544E+03  3.665507E+04
       238  27 -2.062152E+05 -1.041135E+05 -7.774436E+04  5.717706E+04 -6.876070E+03  3.222753E+04
       239   1  6.447510E+05  9.562383E+04  7.023916E+04  5.940376E+04 -7.342197E+03 -2.969234E+04
       239   2  5.856331E+05  8.173020E+04  6.029424E+04  5.222868E+04 -7.364509E+03 -2.526535E+04
       239   3  5.264401E+05  6.793421E+04  5.035899E+04  5.913302E+04 -7.387973E+03 -2.084117E+04
       239   4  2.386629E+05  3.614401E+02 -1.733708E+02  5.833387E+04 -2.154188E+02 -2.966998E+04
       239   5  2.387082E+05  3.212838E+02  2.680721E+01  5.129391E+04 -2.425343E+02 -2.524209E+04
       239   6  2.386765E+05  3.799615E+02  2.401328E+02  5.833385E+04 -2.708017E+02 -2.081702E+04
       239   7 -1.672634E+05 -9.490981E+04 -7.059145E+04  5.726455E+04  6.906844E+03 -2.964762E+04
       239   8 -1.080987E+05 -8.109410E+04 -6.024465E+04  5.035959E+04  6.875585E+03 -2.521884E+04
       239   9 -4.900593E+04 -6.717874E+04 -4.988146E+04  5.753499E+04  6.843173E+03 -2.079287E+04
       239  10  6.447507E+05  9.562287E+04  7.023740E+04  5.940359E+04  3.433518E-08  3.185446E-09
       239  11  5.856329E+05  8.172950E+04  6.029294E+04  5.222853E+04  1.036708E-08  1.020004E-10
       239  12  5.264399E+05  6.793373E+04  5.035807E+04  5.913290E+04 -1.164983E-08 -2.242542E-09
       239  13  2.386627E+05  3.604947E+02 -1.750254E+02  5.833386E+04  1.233394E-10  8.457080E-09
       239  14  2.387080E+05  3.205995E+02  2.560962E+01  5.129391E+04  1.702742E-09 -1.115863E-09
       239  15  2.386764E+05  3.794961E+02  2.393183E+02  5.833384E+04 -2.171675E-09 -1.966568E-09
       239  16 -1.672637E+05 -9.491077E+04 -7.059320E+04  5.726472E+04 -3.372885E-08  2.818065E-09
       239  17 -1.080990E+05 -8.109480E+04 -6.024593E+04  5.035973E+04 -1.450975E-08 -3.263807E-09
       239  18 -4.900610E+04 -6.717922E+04 -4.988236E+04  5.753510E+04  1.029565E-08 -3.150294E-09
       239  19  6.447510E+05  9.562383E+04  7.023916E+04  5.940376E+04  7.342197E+03  2.969234E+04
       239  20  5.856331E+05  8.173020E+04  6.029424E+04  5.222868E+04  7.364509E+03  2.526535E+04
       239  21  5.264401E+05  6.793421E+04  5.035899E+04  5.913302E+04  7.387973E+03  2.084117E+04
       239  22  2.386629E+05  3.614401E+02 -1.733708E+02  5.833387E+04  2.154188E+02  2.966998E+04
       239  23  2.387082E+05  3.212838E+02  2.680721E+01  5.129391E+04  2.425343E+02  2.524209E+04
       239  24  2.386765E+05  3.799615E+02  2.401328E+02  5.833385E+04  2.708017E+02  2.081702E+04
       239  25 -1.672634E+05 -9.490981E+04 -7.059145E+04  5.726455E+04 -6.906844E+03  2.964762E+04
       239  26 -1.080987E+05 -8.109410E+04 -6.024465E+04  5.035959E+04 -6.875585E+03  2.521884E+04
       239  27 -4.900593E+04 -6.717874E+04 -4.988146E+04  5.753499E+04 -6.843173E+03  2.079287E+04
       240   1  4.875154E+05  5.874625E+04  4.345513E+04  5.904024E+04 -7.454577E+03 -1.826533E+04
       240   2  4.284213E+05  4.484861E+04  3.365331E+04  5.186695E+04 -7.771849E+03 -1.385830E+04
       240   3  3.692841E+05  3.107722E+04  2.405638E+04  5.876138E+04 -8.089609E+03 -9.485493E+03
       240   4  2.386894E+05  3.815298E+02  3.679118E+02  5.833124E+04 -3.345253E+02 -1.824075E+04
       240   5  2.387116E+05  3.325230E+02  7.223242E+02  5.129720E+04 -7.071018E+02 -1.383342E+04
       240   6  2.386968E+05  4.194934E+02  1.319909E+03  5.833112E+04 -1.080193E+03 -9.460318E+03
       240   7 -1.007575E+04 -5.798649E+04 -4.272126E+04  5.762248E+04  6.782762E+03 -1.821618E+04
       240   8  4.903734E+04 -4.418548E+04 -3.220974E+04  5.072759E+04  6.355554E+03 -1.380855E+04
       240   9  1.081263E+05 -3.023913E+04 -2.141698E+04  5.790094E+04  5.927793E+03 -9.435149E+03
       240  10  4.875152E+05  5.874587E+04  4.345439E+04  5.904013E+04 -2.927091E-08  1.932012E-09
       240  11  4.284212E+05  4.484839E+04  3.365284E+04  5.186686E+04 -3.703208E-09  2.243811E-09
       240  12  3.692840E+05  3.107711E+04  2.405609E+04  5.876132E+04  1.894347E-08  3.771450E-09
       240  13  2.386893E+05  3.811724E+02  3.672863E+02  5.833124E+04 -1.089051E-09  3.848373E-10
       240  14  2.387116E+05  3.323173E+02  7.219636E+02  5.129719E+04 -1.120895E-09 -1.348144E-09
       240  15  2.386967E+05  4.193970E+02  1.319739E+03  5.833112E+04  9.301019E-11  4.034886E-09
       240  16 -1.007588E+04 -5.798686E+04 -4.272197E+04  5.762258E+04  2.883502E-08  1.334470E-09
       240  17  4.903724E+04 -4.418570E+04 -3.221017E+04  5.072767E+04 -9.334691E-10 -1.234610E-08
       240  18  1.081262E+05 -3.023924E+04 -2.141721E+04  5.790099E+04 -2.078319E-08 -2.581643E-09
       240  19  4.875154E+05  5.874625E+04  4.345513E+04  5.904024E+04  7.454577E+03  1.826533E+04
       240  20  4.284213E+05  4.484861E+04  3.365331E+04  5.186695E+04  7.771849E+03  1.385830E+04
       240  21  3.692841E+05  3.107722E+04  2.405638E+04  5.876138E+04  8.089609E+03  9.485493E+03
       240  22  2.386894E+05  3.815298E+02  3.679118E+02  5.833124E+04  3.345253E+02  1.824075E+04
       240  23  2.387116E+05  3.325230E+02  7.223242E+02  5.129720E+04  7.071018E+02  1.383342E+04
       240  24  2.386968E+05  4.194934E+02  1.319909E+03  5.833112E+04  1.080193E+03  9.460318E+03
       240  25 -1.007575E+04 -5.798649E+04 -4.272126E+04  5.762248E+04 -6.782762E+03  1.821618E+04
       240  26  4.903734E+04 -4.418548E+04 -3.220974E+04  5.072759E+04 -6.355554E+03  1.380855E+04
       240  27  1.081263E+05 -3.023913E+04 -2.141698E+04  5.790094E+04 -5.927793E+03  9.435149E+03
       241   1  3.304250E+05  2.185346E+04  1.743914E+04  5.876889E+04 -8.420640E+03 -6.925777E+03
       241   2  2.712376E+05  8.084435E+03  8.407952E+03  5.129301E+04 -9.330410E+03 -2.739847E+03
       241   3  2.122330E+05 -4.943386E+03  1.200245E+02  5.785458E+04 -1.023879E+04  1.044041E+03
       241   4  2.387713E+05  3.883488E+02  1.750940E+03  5.832502E+04 -1.358394E+03 -6.900236E+03
       241   5  2.386264E+05  5.011084E+02  3.090348E+03  5.130435E+04 -2.915189E+03 -2.716576E+03
       241   6  2.387723E+05  1.467249E+03  5.621776E+03  5.832112E+04 -4.470669E+03  1.065036E+03
       241   7  1.471259E+05 -2.107718E+04 -1.393735E+04  5.788121E+04  5.702843E+03 -6.874703E+03
       241   8  2.060164E+05 -7.082250E+03 -2.227132E+03  5.131569E+04  3.499707E+03 -2.693304E+03
       241   9  2.653123E+05  7.877858E+03  1.112361E+04  5.878767E+04  1.297697E+03  1.086040E+03
       241  10  3.304249E+05  2.185339E+04  1.743891E+04  5.876884E+04 -4.041611E-09  8.236216E-09
       241  11  2.712375E+05  8.084403E+03  8.407775E+03  5.129299E+04 -1.236198E-10  2.836293E-09
       241  12  2.122329E+05 -4.943416E+03  1.198255E+02  5.785459E+04  8.047829E-09  6.645524E-09
       241  13  2.387713E+05  3.882972E+02  1.750847E+03  5.832501E+04  1.053495E-09  6.040055E-09
       241  14  2.386264E+05  5.010982E+02  3.090318E+03  5.130435E+04 -1.683572E-11  4.799391E-09
       241  15  2.387722E+05  1.467242E+03  5.621736E+03  5.832112E+04 -5.943421E-11 -1.128216E-09
       241  16  1.471259E+05 -2.107724E+04 -1.393750E+04  5.788124E+04  4.669658E-09  4.973640E-09
       241  17  2.060164E+05 -7.082261E+03 -2.227169E+03  5.131570E+04 -5.724763E-09  9.038136E-10
       241  18  2.653123E+05  7.877856E+03  1.112361E+04  5.878767E+04 -9.905257E-09 -7.001832E-09
       241  19  3.304250E+05  2.185346E+04  1.743914E+04  5.876889E+04  8.420640E+03  6.925777E+03
       241  20  2.712376E+05  8.084435E+03  8.407952E+03  5.129301E+04  9.330410E+03  2.739847E+03
       241  21  2.122330E+05 -4.943386E+03  1.200245E+02  5.785458E+04  1.023879E+04 -1.044041E+03
       241  22  2.387713E+05  3.883488E+02  1.750940E+03  5.832502E+04  1.358394E+03  6.900236E+03
       241  23  2.386264E+05  5.011084E+02  3.090348E+03  5.130435E+04  2.915189E+03  2.716576E+03
       241  24  2.387723E+05  1.467249E+03  5.621776E+03  5.832112E+04  4.470669E+03 -1.065036E+03
       241  25  1.471259E+05 -2.107718E+04 -1.393735E+04  5.788121E+04 -5.702843E+03  6.874703E+03
       241  26  2.060164E+05 -7.082250E+03 -2.227132E+03  5.131569E+04 -3.499707E+03  2.693304E+03
       241  27  2.653123E+05  7.877858E+03  1.112361E+04  5.878767E+04 -1.297697E+03 -1.086040E+03
       242   1  1.740429E+05 -1.475130E+04 -5.419196E+03  5.977297E+04 -1.184890E+04  3.427376E+03
       242   2  1.133312E+05 -2.464410E+04 -1.239704E+04  4.427095E+04 -1.103441E+04  5.014715E+03
       242   3  5.589109E+04 -2.056348E+04 -1.643918E+04  4.246887E+04 -1.020318E+04  1.801413E+03
       242   4  2.397311E+05  9.258237E+02  7.362830E+03  5.825924E+04 -5.441474E+03  3.450678E+03
       242   5  2.374236E+05  5.376851E+03  1.334088E+04  5.136632E+04 -1.234857E+04  5.009776E+03
       242   6  2.397239E+05  2.513994E+04  2.761490E+04  5.817255E+04 -1.923902E+04  1.768695E+03
       242   7  3.054236E+05  1.660272E+04  2.014481E+04  5.674535E+04  9.666162E+02  3.473948E+03
       242   8  3.615308E+05  3.539701E+04  3.907800E+04  5.846313E+04 -1.366299E+04  5.004808E+03
       242   9  4.235883E+05  7.084185E+04  7.166702E+04  7.388087E+04 -2.827753E+04  1.735525E+03
       242  10  1.740427E+05 -1.475135E+04 -5.419482E+03  5.977301E+04 -4.866021E-11  3.998477E-09
       242  11  1.133310E+05 -2.464416E+04 -1.239732E+04  4.427099E+04 -2.123128E-09 -4.186475E-09
       242  12  5.589098E+04 -2.056352E+04 -1.643938E+04  4.246889E+04 -1.591829E-09 -1.670028E-09
       242  13  2.397311E+05  9.258029E+02  7.362752E+03  5.825926E+04  1.240212E-09  7.298877E-09
       242  14  2.374235E+05  5.376783E+03  1.334055E+04  5.136637E+04 -6.914004E-10 -9.137318E-09
       242  15  2.397235E+05  2.513984E+04  2.761420E+04  5.817258E+04  6.308806E-10  8.318404E-10
       242  16  3.054236E+05  1.660270E+04  2.014478E+04  5.674535E+04  1.105115E-09  1.853996E-09
       242  17  3.615306E+05  3.539693E+04  3.907761E+04  5.846318E+04 -1.711137E-09  2.072293E-09
       242  18  4.235874E+05  7.084163E+04  7.166551E+04  7.388091E+04  1.738368E-09  5.887808E-10
       242  19  1.740429E+05 -1.475130E+04 -5.419196E+03  5.977297E+04  1.184890E+04 -3.427376E+03
       242  20  1.133312E+05 -2.464410E+04 -1.239704E+04  4.427095E+04  1.103441E+04 -5.014715E+03
       242  21  5.589109E+04 -2.056348E+04 -1.643918E+04  4.246887E+04  1.020318E+04 -1.801413E+03
       242  22  2.397311E+05  9.258237E+02  7.362830E+03  5.825924E+04  5.441474E+03 -3.450678E+03
       242  23  2.374236E+05  5.376851E+03  1.334088E+04  5.136632E+04  1.234857E+04 -5.009776E+03
       242  24  2.397239E+05  2.513994E+04  2.761490E+04  5.817255E+04  1.923902E+04 -1.768695E+03
       242  25  3.054236E+05  1.660272E+04  2.014481E+04  5.674535E+04 -9.666162E+02 -3.473948E+03
       242  26  3.615308E+05  3.539701E+04  3.907800E+04  5.846313E+04  1.366299E+04 -5.004808E+03
       242  27  4.235883E+05  7.084185E+04  7.166702E+04  7.388087E+04  2.827753E+04 -1.735525E+03
       243   1  1.683632E+05  1.424030E+06  1.697766E+05 -1.792345E+05  4.775360E+03  5.807658E+04
       243   2  8.988618E+04  1.266407E+06  9.730621E+04 -1.451583E+05  1.363386E+04  2.301772E+04
       243   3  4.474065E+04  1.121537E+06  5.593348E+04 -1.461446E+05  1.002747E+04 -1.205544E+04
       243   4  4.852947E+04  9.405554E+05  5.416850E+04 -1.486020E+05  4.828451E+03  3.387681E+04
       243   5  1.016875E+04  9.359500E+05  2.910752E+04 -1.311199E+05  1.364363E+04  1.890438E+04
       243   6  1.669828E+03  9.406076E+05  2.122702E+04 -1.486977E+05  9.992752E+03  3.909095E+03
       243   7 -7.131743E+04  4.572974E+05 -6.145343E+04 -1.179933E+05  4.879182E+03  9.695755E+03
       243   8 -6.955485E+04  6.055970E+05 -3.909690E+04 -1.170891E+05  1.365321E+04  1.479318E+04
       243   9 -4.140277E+04  7.597105E+05 -1.347998E+04 -1.512499E+05  9.957892E+03  1.986909E+04
       243  10  1.683623E+05  1.424027E+06  1.697703E+05 -1.792347E+05  2.978003E-10 -2.698546E-09
       243  11  8.988583E+04  1.266406E+06  9.730486E+04 -1.451585E+05 -8.479722E-10 -4.823359E-09
       243  12  4.474051E+04  1.121537E+06  5.593302E+04 -1.461445E+05  9.470231E-10  7.138873E-10
       243  13  4.852914E+04  9.405541E+05  5.416630E+04 -1.486021E+05  1.754169E-11  8.265341E-12
       243  14  1.016845E+04  9.359495E+05  2.910650E+04 -1.311201E+05  1.564038E-10 -1.655049E-09
       243  15  1.669716E+03  9.406076E+05  2.122681E+04 -1.486977E+05 -6.402646E-11 -3.014073E-09
       243  16 -7.131748E+04  4.572973E+05 -6.145365E+04 -1.179933E+05 -1.623712E-09  3.629924E-09
       243  17 -6.955511E+04  6.055967E+05 -3.909767E+04 -1.170893E+05 -2.666918E-09 -8.794561E-10
       243  18 -4.140298E+04  7.597100E+05 -1.348091E+04 -1.512501E+05 -2.637682E-09 -2.257042E-10
       243  19  1.683632E+05  1.424030E+06  1.697766E+05 -1.792345E+05 -4.775360E+03 -5.807658E+04
       243  20  8.988618E+04  1.266407E+06  9.730621E+04 -1.451583E+05 -1.363386E+04 -2.301772E+04
       243  21  4.474065E+04  1.121537E+06  5.593348E+04 -1.461446E+05 -1.002747E+04  1.205544E+04
       243  22  4.852947E+04  9.405554E+05  5.416850E+04 -1.486020E+05 -4.828451E+03 -3.387681E+04
       243  23  1.016875E+04  9.359500E+05  2.910752E+04 -1.311199E+05 -1.364363E+04 -1.890438E+04
       243  24  1.669828E+03  9.406076E+05  2.122702E+04 -1.486977E+05 -9.992752E+03 -3.909095E+03
       243  25 -7.131743E+04  4.572974E+05 -6.145343E+04 -1.179933E+05 -4.879182E+03 -9.695755E+03
       243  26 -6.955485E+04  6.055970E+05 -3.909690E+04 -1.170891E+05 -1.365321E+04 -1.479318E+04
       243  27 -4.140277E+04  7.597105E+05 -1.347998E+04 -1.512499E+05 -9.957892E+03 -1.986909E+04
       244   1  2.188108E+04  1.019930E+06  3.641209E+04 -1.508548E+05  3.992476E+03 -1.387324E+04
       244   2 -1.496274E+04  8.674268E+05  1.071380E+04 -1.304770E+05 -4.828968E+03 -2.500504E+04
       244   3 -4.602543E+04  7.176679E+05 -6.345457E+03 -1.458859E+05 -1.337230E+04 -3.613335E+04
       244   4  2.533464E+03  9.391743E+05  2.039095E+04 -1.488470E+05  3.960535E+03  5.907870E+02
       244   5  1.584618E+03  9.377692E+05  2.316839E+04 -1.309497E+05 -4.859462E+03 -1.099119E+04
       244   6  6.495288E+03  9.391630E+05  3.489572E+04 -1.488383E+05 -1.340133E+04 -2.257222E+04
       244   7 -1.681442E+04  8.584250E+05  4.370268E+03 -1.468394E+05  3.928685E+03  1.505297E+04
       244   8  1.813181E+04  1.008117E+06  3.562352E+04 -1.314225E+05 -4.889976E+03  3.024211E+03
       244   9  5.901331E+04  1.160706E+06  7.613550E+04 -1.517917E+05 -1.343048E+04 -9.006382E+03
       244  10  2.188101E+04  1.019930E+06  3.641170E+04 -1.508548E+05  8.768000E-10 -3.850502E-09
       244  11 -1.496294E+04  8.674261E+05  1.071259E+04 -1.304771E+05  9.809540E-11 -6.302125E-09
       244  12 -4.602597E+04  7.176665E+05 -6.348244E+03 -1.458863E+05  8.670626E-10  4.310523E-10
       244  13  2.533447E+03  9.391743E+05  2.039091E+04 -1.488470E+05  8.605616E-10 -2.782992E-10
       244  14  1.584560E+03  9.377690E+05  2.316811E+04 -1.309498E+05 -1.473731E-09 -2.353134E-09
       244  15  6.494958E+03  9.391624E+05  3.489442E+04 -1.488385E+05 -8.605450E-11 -3.706278E-09
       244  16 -1.681450E+04  8.584248E+05  4.369813E+03 -1.468395E+05 -1.031036E-09  4.921542E-09
       244  17  1.813179E+04  1.008117E+06  3.562346E+04 -1.314225E+05 -1.818462E-09 -3.272799E-10
       244  18  5.901310E+04  1.160706E+06  7.613501E+04 -1.517918E+05  2.488186E-10 -9.386244E-11
       244  19  2.188108E+04  1.019930E+06  3.641209E+04 -1.508548E+05 -3.992476E+03  1.387324E+04
       244  20 -1.496274E+04  8.674268E+05  1.071380E+04 -1.304770E+05  4.828968E+03  2.500504E+04
       244  21 -4.602543E+04  7.176679E+05 -6.345457E+03 -1.458859E+05  1.337230E+04  3.613335E+04
       244  22  2.533464E+03  9.391743E+05  2.039095E+04 -1.488470E+05 -3.960535E+03 -5.907870E+02
       244  23  1.584618E+03  9.377692E+05  2.316839E+04 -1.309497E+05  4.859462E+03  1.099119E+04
       244  24  6.495288E+03  9.391630E+05  3.489572E+04 -1.488383E+05  1.340133E+04  2.257222E+04
       244  25 -1.681442E+04  8.584250E+05  4.370268E+03 -1.468394E+05 -3.928685E+03 -1.505297E+04
       244  26  1.813181E+04  1.008117E+06  3.562352E+04 -1.314225E+05  4.889976E+03 -3.024211E+03
       244  27  5.901331E+04  1.160706E+06  7.613550E+04 -1.517917E+05  1.343048E+04  9.006382E+03
       245   1 -7.277807E+04  6.226062E+05 -1.621335E+04 -1.575617E+05 -1.927649E+04 -4.403442E+04
       245   2 -8.459938E+04  4.603480E+05 -1.913658E+04 -9.212387E+04 -2.100924E+04 -5.806608E+04
       245   3 -1.472327E+04  3.202466E+05  7.471776E+03 -6.148486E+04 -6.931119E+03 -7.206572E+04
       245   4  3.502912E+03  9.444288E+05  4.387938E+04 -1.486555E+05 -1.930973E+04 -2.849858E+04
       245   5  2.877028E+04  9.311163E+05  7.638417E+04 -1.311259E+05 -2.098407E+04 -6.799485E+04
       245   6  1.401072E+05  9.443211E+05  1.560668E+05 -1.483834E+05 -6.850864E+03 -1.074635E+05
       245   7  7.977837E+04  1.266352E+06  1.039686E+05 -1.397445E+05 -1.934252E+04 -1.295490E+04
       245   8  1.421318E+05  1.402099E+06  1.718945E+05 -1.701579E+05 -2.095767E+04 -7.793099E+04
       245   9  2.949383E+05  1.568771E+06  3.046431E+05 -2.353696E+05 -6.760757E+03 -1.428966E+05
       245  10 -7.277899E+04  6.226040E+05 -1.621769E+04 -1.575624E+05  1.318820E-09 -3.564372E-09
       245  11 -8.460076E+04  4.603443E+05 -1.914374E+04 -9.212486E+04  9.165977E-10 -5.455895E-09
       245  12 -1.472472E+04  3.202411E+05  7.461931E+03 -6.148526E+04 -5.808842E-10  5.876585E-10
       245  13  3.502294E+03  9.444278E+05  4.387716E+04 -1.486559E+05  8.040153E-10 -3.759320E-10
       245  14  2.876857E+04  9.311112E+05  7.637467E+04 -1.311270E+05  6.372224E-10 -1.898478E-09
       245  15  1.401040E+05  9.443087E+05  1.560450E+05 -1.483840E+05 -6.989388E-10 -2.531543E-09
       245  16  7.977792E+04  1.266352E+06  1.039676E+05 -1.397447E+05  5.153986E-10  4.566336E-09
       245  17  1.421297E+05  1.402092E+06  1.718823E+05 -1.701592E+05 -1.371569E-09 -7.239641E-11
       245  18  2.949328E+05  1.568749E+06  3.046048E+05 -2.353703E+05 -9.238905E-10  1.362494E-11
       245  19 -7.277807E+04  6.226062E+05 -1.621335E+04 -1.575617E+05  1.927649E+04  4.403442E+04
       245  20 -8.459938E+04  4.603480E+05 -1.913658E+04 -9.212387E+04  2.100924E+04  5.806608E+04
       245  21 -1.472327E+04  3.202466E+05  7.471776E+03 -6.148486E+04  6.931119E+03  7.206572E+04
       245  22  3.502912E+03  9.444288E+05  4.387938E+04 -1.486555E+05  1.930973E+04  2.849858E+04
       245  23  2.877028E+04  9.311163E+05  7.638417E+04 -1.311259E+05  2.098407E+04  6.799485E+04
       245  24  1.401072E+05  9.443211E+05  1.560668E+05 -1.483834E+05  6.850864E+03  1.074635E+05
       245  25  7.977837E+04  1.266352E+06  1.039686E+05 -1.397445E+05  1.934252E+04  1.295490E+04
       245  26  1.421318E+05  1.402099E+06  1.718945E+05 -1.701579E+05  2.095767E+04  7.793099E+04
       245  27  2.949383E+05  1.568771E+06  3.046431E+05 -2.353696E+05  6.760757E+03  1.428966E+05
       246   1  1.404807E+06  4.478566E+05  2.218113E+05  4.971556E+05  5.622339E+04  4.065772E+03
       246   2  1.331018E+06  4.337601E+05  1.795331E+05  4.719317E+05  3.759832E+04 -4.247375E+04
       246   3  1.245099E+06  4.223145E+05  1.579185E+05  4.652558E+05  9.063989E+03 -6.271292E+04
       246   4  4.069849E+05  8.899700E+04 -3.314139E+04  2.396480E+05 -1.576877E+04 -2.309587E+04
       246   5  4.188364E+05  1.044569E+05 -1.524551E+04  2.255292E+05  5.283610E+03 -5.467961E+04
       246   6  4.106957E+05  1.147069E+05 -8.092652E+03  2.299611E+05  1.641394E+04 -5.994509E+04
       246   7 -5.898298E+05 -2.698039E+05 -2.881437E+05 -1.748439E+04 -8.763187E+04 -5.021351E+04
       246   8 -4.924835E+05 -2.247801E+05 -2.100628E+05 -2.054012E+04 -2.697931E+04 -6.686684E+04
       246   9 -4.229872E+05 -1.928356E+05 -1.741361E+05 -5.040148E+03  2.375330E+04 -5.718135E+04
       246  10  1.404804E+06  4.478557E+05  2.218054E+05  4.971554E+05  1.686747E-09 -8.915598E-10
       246  11  1.331016E+06  4.337578E+05  1.795271E+05  4.719330E+05  2.609881E-09 -4.482123E-09
       246  12  1.245098E+06  4.223103E+05  1.579110E+05  4.652563E+05  8.945102E-10 -4.978370E-10
       246  13  4.069845E+05  8.899636E+04 -3.314286E+04  2.396477E+05  1.976823E-11  2.043910E-09
       246  14  4.188356E+05  1.044537E+05 -1.525118E+04  2.255294E+05 -1.644093E-09 -5.983329E-09
       246  15  4.106945E+05  1.147029E+05 -8.099913E+03  2.299619E+05 -4.739404E-09  8.775659E-10
       246  16 -5.898387E+05 -2.698086E+05 -2.881629E+05 -1.748793E+04  1.308042E-10  1.097791E-09
       246  17 -4.924855E+05 -2.247851E+05 -2.100726E+05 -2.054157E+04 -1.394347E-09 -4.026553E-09
       246  18 -4.229887E+05 -1.928392E+05 -1.741433E+05 -5.039054E+03 -9.088389E-09 -5.187286E-09
       246  19  1.404807E+06  4.478566E+05  2.218113E+05  4.971556E+05 -5.622339E+04 -4.065772E+03
       246  20  1.331018E+06  4.337601E+05  1.795331E+05  4.719317E+05 -3.759832E+04  4.247375E+04
       246  21  1.245099E+06  4.223145E+05  1.579185E+05  4.652558E+05 -9.063989E+03  6.271292E+04
       246  22  4.069849E+05  8.899700E+04 -3.314139E+04  2.396480E+05  1.576877E+04  2.309587E+04
       246  23  4.188364E+05  1.044569E+05 -1.524551E+04  2.255292E+05 -5.283610E+03  5.467961E+04
       246  24  4.106957E+05  1.147069E+05 -8.092652E+03  2.299611E+05 -1.641394E+04  5.994509E+04
       246  25 -5.898298E+05 -2.698039E+05 -2.881437E+05 -1.748439E+04  8.763187E+04  5.021351E+04
       246  26 -4.924835E+05 -2.247801E+05 -2.100628E+05 -2.054012E+04  2.697931E+04  6.686684E+04
       246  27 -4.229872E+05 -1.928356E+05 -1.741361E+05 -5.040148E+03 -2.375330E+04  5.718135E+04
       247   1  1.197005E+06  4.014521E+05  1.492171E+05  4.500788E+05  1.347840E+04 -5.764513E+04
       247   2  1.129801E+06  3.683563E+05  1.348039E+05  4.218859E+05  1.117469E+04 -5.534816E+04
       247   3  1.049135E+06  3.486261E+05  1.212712E+05  4.092764E+05  8.141885E+03 -5.112990E+04
       247   4  4.114110E+05  1.143095E+05 -6.154853E+03  2.309699E+05  1.621646E+04 -5.661819E+04
       247   5  4.185294E+05  1.084849E+05 -3.254111E+03  2.229697E+05  1.680958E+04 -5.322465E+04
       247   6  4.116075E+05  1.154528E+05 -1.767678E+03  2.305522E+05  1.667305E+04 -4.790865E+04
       247   7 -3.735532E+05 -1.727811E+05 -1.615576E+05  1.211505E+04  1.895083E+04 -5.559264E+04
       247   8 -2.922212E+05 -1.513418E+05 -1.413353E+05  2.426344E+04  2.243758E+04 -5.110375E+04
       247   9 -2.254983E+05 -1.176832E+05 -1.248239E+05  5.199793E+04  2.519484E+04 -4.469094E+04
       247  10  1.197004E+06  4.014484E+05  1.492106E+05  4.500794E+05 -6.823508E-09 -3.783700E-09
       247  11  1.129800E+06  3.683530E+05  1.347980E+05  4.218864E+05  1.279707E-09  3.324346E-09
       247  12  1.049134E+06  3.486233E+05  1.212661E+05  4.092768E+05 -1.024105E-09 -2.589195E-09
       247  13  4.114099E+05  1.143060E+05 -6.161373E+03  2.309707E+05 -4.660807E-09  1.782754E-09
       247  14  4.185283E+05  1.084818E+05 -3.259967E+03  2.229704E+05  4.730934E-10 -2.346818E-09
       247  15  4.116066E+05  1.154502E+05 -1.772514E+03  2.305528E+05 -5.926854E-09 -7.358936E-10
       247  16 -3.735545E+05 -1.727846E+05 -1.615641E+05  1.211590E+04  8.835634E-10 -2.314640E-09
       247  17 -2.922224E+05 -1.513447E+05 -1.413412E+05  2.426437E+04  1.625732E-09  1.972758E-09
       247  18 -2.254995E+05 -1.176855E+05 -1.248289E+05  5.199884E+04 -7.163608E-09 -2.394551E-09
       247  19  1.197005E+06  4.014521E+05  1.492171E+05  4.500788E+05 -1.347840E+04  5.764513E+04
       247  20  1.129801E+06  3.683563E+05  1.348039E+05  4.218859E+05 -1.117469E+04  5.534816E+04
       247  21  1.049135E+06  3.486261E+05  1.212712E+05  4.092764E+05 -8.141885E+03  5.112990E+04
       247  22  4.114110E+05  1.143095E+05 -6.154853E+03  2.309699E+05 -1.621646E+04  5.661819E+04
       247  23  4.185294E+05  1.084849E+05 -3.254111E+03  2.229697E+05 -1.680958E+04  5.322465E+04
       247  24  4.116075E+05  1.154528E+05 -1.767678E+03  2.305522E+05 -1.667305E+04  4.790865E+04
       247  25 -3.735532E+05 -1.727811E+05 -1.615576E+05  1.211505E+04 -1.895083E+04  5.559264E+04
       247  26 -2.922212E+05 -1.513418E+05 -1.413353E+05  2.426344E+04 -2.243758E+04  5.110375E+04
       247  27 -2.254983E+05 -1.176832E+05 -1.248239E+05  5.199793E+04 -2.519484E+04  4.469094E+04
       248   1  9.999498E+05  3.304604E+05  1.117955E+05  3.954628E+05  7.486339E+03 -4.760513E+04
       248   2  9.332935E+05  2.968581E+05  9.826992E+04  3.671488E+05  5.556837E+03 -4.205265E+04
       248   3  8.530046E+05  2.769235E+05  8.464698E+04  3.543073E+05  3.573059E+03 -3.636432E+04
       248   4  4.116716E+05  1.154478E+05 -1.323780E+03  2.306045E+05  1.567232E+04 -4.451292E+04
       248   5  4.185322E+05  1.086781E+05 -7.074863E+02  2.228583E+05  1.394760E+04 -3.888085E+04
       248   6  4.117124E+05  1.155357E+05 -3.517963E+02  2.305837E+05  1.216859E+04 -3.311282E+04
       248   7 -1.762419E+05 -9.953081E+04 -1.144562E+05  6.589233E+04  2.384993E+04 -4.142389E+04
       248   8 -9.595356E+04 -7.947744E+04 -9.969598E+04  7.867872E+04  2.233091E+04 -3.571188E+04
       248   9 -2.938125E+04 -4.583557E+04 -8.535973E+04  1.069405E+05  2.075764E+04 -2.986378E+04
       248  10  9.999492E+05  3.304579E+05  1.117911E+05  3.954631E+05 -1.127930E-08 -3.013209E-09
       248  11  9.332930E+05  2.968562E+05  9.826654E+04  3.671489E+05  8.233666E-09  6.783564E-09
       248  12  8.530042E+05  2.769221E+05  8.464447E+04  3.543074E+05  1.453374E-08  1.090142E-08
       248  13  4.116708E+05  1.154457E+05 -1.327966E+03  2.306051E+05 -3.617947E-09 -1.487431E-09
       248  14  4.185316E+05  1.086764E+05 -7.106935E+02  2.228587E+05 -5.544420E-10 -3.607853E-09
       248  15  4.117119E+05  1.155345E+05 -3.541356E+02  2.305840E+05 -6.057657E-09  2.504489E-09
       248  16 -1.762429E+05 -9.953280E+04 -1.144605E+05  6.589312E+04  3.152498E-09 -4.533051E-09
       248  17 -9.595443E+04 -7.947894E+04 -9.969931E+04  7.867936E+04 -8.874273E-09 -1.061998E-08
       248  18 -2.938195E+04 -4.583664E+04 -8.536221E+04  1.069410E+05 -2.757284E-08 -9.356595E-09
       248  19  9.999498E+05  3.304604E+05  1.117955E+05  3.954628E+05 -7.486339E+03  4.760513E+04
       248  20  9.332935E+05  2.968581E+05  9.826992E+04  3.671488E+05 -5.556837E+03  4.205265E+04
       248  21  8.530046E+05  2.769235E+05  8.464698E+04  3.543073E+05 -3.573059E+03  3.636432E+04
       248  22  4.116716E+05  1.154478E+05 -1.323780E+03  2.306045E+05 -1.567232E+04  4.451292E+04
       248  23  4.185322E+05  1.086781E+05 -7.074863E+02  2.228583E+05 -1.394760E+04  3.888085E+04
       248  24  4.117124E+05  1.155357E+05 -3.517963E+02  2.305837E+05 -1.216859E+04  3.311282E+04
       248  25 -1.762419E+05 -9.953081E+04 -1.144562E+05  6.589233E+04 -2.384993E+04  4.142389E+04
       248  26 -9.595356E+04 -7.947744E+04 -9.969598E+04  7.867872E+04 -2.233091E+04  3.571188E+04
       248  27 -2.938125E+04 -4.583557E+04 -8.535973E+04  1.069405E+05 -2.075764E+04  2.986378E+04
       249   1  8.039082E+05  2.589132E+05  7.491475E+04  3.405711E+05  2.396306E+03 -3.301665E+04
       249   2  7.374185E+05  2.253497E+05  6.121482E+04  3.122901E+05  2.592586E+02 -2.732544E+04
       249   3  6.573005E+05  2.054353E+05  4.750811E+04  2.994530E+05 -1.882022E+03 -2.162763E+04
       249   4  4.117294E+05  1.155402E+05 -2.366239E+02  2.305802E+05  1.096173E+04 -2.977548E+04
       249   5  4.185578E+05  1.087330E+05 -4.924324E+01  2.228566E+05  8.834473E+03 -2.407922E+04
       249   6  4.117496E+05  1.155724E+05  1.229116E+02  2.305749E+05  6.702983E+03 -1.837637E+04
       249   7  1.971076E+04 -2.781844E+04 -7.539418E+04  1.206538E+05  1.952136E+04 -2.653651E+04
       249   8  9.980445E+04 -7.873640E+03 -6.131694E+04  1.334662E+05  1.740493E+04 -2.083481E+04
       249   9  1.662638E+05  2.571600E+04 -4.726397E+04  1.617227E+05  1.528427E+04 -1.512651E+04
       249  10  8.039079E+05  2.589120E+05  7.491269E+04  3.405711E+05 -2.862257E-08 -4.507142E-09
       249  11  7.374183E+05  2.253489E+05  6.121342E+04  3.122901E+05 -6.950039E-09  8.726285E-09
       249  12  6.573004E+05  2.054348E+05  4.750723E+04  2.994529E+05  8.495707E-09  1.431347E-09
       249  13  4.117290E+05  1.155392E+05 -2.385162E+02  2.305804E+05 -9.503228E-09  3.744765E-09
       249  14  4.185576E+05  1.087324E+05 -5.047979E+01  2.228568E+05  3.580875E-10  4.093692E-09
       249  15  4.117495E+05  1.155721E+05  1.221924E+02  2.305750E+05  1.357310E-09 -3.525343E-09
       249  16  1.971016E+04 -2.781930E+04 -7.539622E+04  1.206542E+05  1.396037E-08  4.740851E-09
       249  17  9.980401E+04 -7.874188E+03 -6.131832E+04  1.334665E+05  6.904206E-09  4.789831E-09
       249  18  1.662635E+05  2.571569E+04 -4.726484E+04  1.617229E+05 -6.524730E-09 -4.296330E-09
       249  19  8.039082E+05  2.589132E+05  7.491475E+04  3.405711E+05 -2.396306E+03  3.301665E+04
       249  20  7.374185E+05  2.253497E+05  6.121482E+04  3.122901E+05 -2.592586E+02  2.732544E+04
       249  21  6.573005E+05  2.054353E+05  4.750811E+04  2.994530E+05  1.882022E+03  2.162763E+04
       249  22  4.117294E+05  1.155402E+05 -2.366239E+02  2.305802E+05 -1.096173E+04  2.977548E+04
       249  23  4.185578E+05  1.087330E+05 -4.924324E+01  2.228566E+05 -8.834473E+03  2.407922E+04
       249  24  4.117496E+05  1.155724E+05  1.229116E+02  2.305749E+05 -6.702983E+03  1.837637E+04
       249  25  1.971076E+04 -2.781844E+04 -7.539418E+04  1.206538E+05 -1.952136E+04  2.653651E+04
       249  26  9.980445E+04 -7.873640E+03 -6.131694E+04  1.334662E+05 -1.740493E+04  2.083481E+04
       249  27  1.662638E+05  2.571600E+04 -4.726397E+04  1.617227E+05 -1.528427E+04  1.512651E+04
       250   1  6.082840E+05  1.874432E+05  3.776927E+04  2.857353E+05 -3.162302E+03 -1.832195E+04
       250   2  5.418585E+05  1.538931E+05  2.416857E+04  2.574895E+05 -5.545215E+03 -1.271679E+04
       250   3  4.618331E+05  1.339880E+05  1.073778E+04  2.446783E+05 -7.926337E+03 -7.118044E+03
       250   4  4.117632E+05  1.155755E+05  2.166013E+02  2.305743E+05  5.418748E+03 -1.507162E+04
       250   5  4.185669E+05  1.087506E+05  4.771450E+02  2.228595E+05  3.025904E+03 -9.469680E+03
       250   6  4.117683E+05  1.155729E+05  9.156382E+02  2.305777E+05  6.348251E+02 -3.874168E+03
       250   7  2.152811E+05  4.371074E+04 -3.733787E+04  1.754290E+05  1.399696E+04 -1.182236E+04
       250   8  2.952907E+05  6.360937E+04 -2.321478E+04  1.882357E+05  1.159524E+04 -6.223248E+03
       250   9  3.617064E+05  9.715805E+04 -8.906303E+03  2.164781E+05  9.195249E+03 -6.305743E+02
       250  10  6.082839E+05  1.874429E+05  3.776862E+04  2.857353E+05 -1.032223E-09 -4.000554E-09
       250  11  5.418584E+05  1.538929E+05  2.416821E+04  2.574894E+05 -4.689060E-09  5.767528E-09
       250  12  4.618330E+05  1.339879E+05  1.073756E+04  2.446783E+05 -7.649821E-09 -3.704013E-10
       250  13  4.117632E+05  1.155752E+05  2.161192E+02  2.305744E+05  3.939062E-11  3.205968E-09
       250  14  4.185669E+05  1.087505E+05  4.769592E+02  2.228595E+05 -9.728330E-10  2.592051E-09
       250  15  4.117683E+05  1.155728E+05  9.156093E+02  2.305777E+05 -1.113349E-09 -6.792197E-10
       250  16  2.152808E+05  4.371053E+04 -3.733850E+04  1.754291E+05  4.142096E-09  4.102978E-09
       250  17  2.952906E+05  6.360929E+04 -2.321510E+04  1.882357E+05  4.228768E-09 -3.884883E-09
       250  18  3.617063E+05  9.715803E+04 -8.906463E+03  2.164782E+05  3.962296E-09  4.895245E-09
       250  19  6.082840E+05  1.874432E+05  3.776927E+04  2.857353E+05  3.162302E+03  1.832195E+04
       250  20  5.418585E+05  1.538931E+05  2.416857E+04  2.574895E+05  5.545215E+03  1.271679E+04
       250  21  4.618331E+05  1.339880E+05  1.073778E+04  2.446783E+05  7.926337E+03  7.118044E+03
       250  22  4.117632E+05  1.155755E+05  2.166013E+02  2.305743E+05 -5.418748E+03  1.507162E+04
       250  23  4.185669E+05  1.087506E+05  4.771450E+02  2.228595E+05 -3.025904E+03  9.469680E+03
       250  24  4.117683E+05  1.155729E+05  9.156382E+02  2.305777E+05 -6.348251E+02  3.874168E+03
       250  25  2.152811E+05  4.371074E+04 -3.733787E+04  1.754290E+05 -1.399696E+04  1.182236E+04
       250  26  2.952907E+05  6.360937E+04 -2.321478E+04  1.882357E+05 -1.159524E+04  6.223248E+03
       250  27  3.617064E+05  9.715805E+04 -8.906303E+03  2.164781E+05 -9.195249E+03  6.305743E+02
       251   1  4.128600E+05  1.160129E+05  1.227725E+03  2.310029E+05 -9.372892E+03 -3.877977E+03
       251   2  3.463628E+05  8.244795E+04 -1.165283E+04  2.027758E+05 -1.251911E+04  1.393750E+03
       251   3  2.664067E+05  6.262674E+04 -2.376081E+04  1.899916E+05 -1.563510E+04  6.587352E+03
       251   4  4.118003E+05  1.155678E+05  1.233586E+03  2.305916E+05 -7.987334E+02 -6.291209E+02
       251   5  4.185224E+05  1.087098E+05  2.254842E+03  2.228609E+05 -4.063488E+03  4.597372E+03
       251   6  4.118033E+05  1.156181E+05  4.142240E+03  2.305706E+05 -7.298164E+03  9.745726E+03
       251   7  4.107408E+05  1.151228E+05  1.239766E+03  2.301803E+05  7.775337E+03  2.619699E+03
       251   8  4.906876E+05  1.349721E+05  1.616260E+04  2.429482E+05  4.393189E+03  7.801388E+03
       251   9  5.572232E+05  1.686118E+05  3.204503E+04  2.711588E+05  1.040939E+03  1.290491E+04
       251  10  4.128599E+05  1.160129E+05  1.227532E+03  2.310029E+05  4.636092E-09  3.781556E-09
       251  11  3.463626E+05  8.244791E+04 -1.165313E+04  2.027758E+05  7.489251E-10  1.737672E-09
       251  12  2.664065E+05  6.262662E+04 -2.376135E+04  1.899917E+05 -7.621797E-09 -2.020544E-09
       251  13  4.118003E+05  1.155678E+05  1.233584E+03  2.305916E+05  1.652862E-09  1.049868E-08
       251  14  4.185224E+05  1.087098E+05  2.254771E+03  2.228609E+05 -1.255586E-09 -5.804295E-09
       251  15  4.118032E+05  1.156179E+05  4.141961E+03  2.305706E+05 -8.974415E-10 -5.806645E-09
       251  16  4.107407E+05  1.151228E+05  1.239639E+03  2.301803E+05 -7.870300E-09  5.462947E-11
       251  17  4.906876E+05  1.349721E+05  1.616245E+04  2.429481E+05  3.743117E-09 -5.570243E-09
       251  18  5.572232E+05  1.686117E+05  3.204472E+04  2.711588E+05  6.624348E-09  9.443136E-10
       251  19  4.128600E+05  1.160129E+05  1.227725E+03  2.310029E+05  9.372892E+03  3.877977E+03
       251  20  3.463628E+05  8.244795E+04 -1.165283E+04  2.027758E+05  1.251911E+04 -1.393750E+03
       251  21  2.664067E+05  6.262674E+04 -2.376081E+04  1.899916E+05  1.563510E+04 -6.587352E+03
       251  22  4.118003E+05  1.155678E+05  1.233586E+03  2.305916E+05  7.987334E+02  6.291209E+02
       251  23  4.185224E+05  1.087098E+05  2.254842E+03  2.228609E+05  4.063488E+03 -4.597372E+03
       251  24  4.118033E+05  1.156181E+05  4.142240E+03  2.305706E+05  7.298164E+03 -9.745726E+03
       251  25  4.107408E+05  1.151228E+05  1.239766E+03  2.301803E+05 -7.775337E+03 -2.619699E+03
       251  26  4.906876E+05  1.349721E+05  1.616260E+04  2.429482E+05 -4.393189E+03 -7.801388E+03
       251  27  5.572232E+05  1.686118E+05  3.204503E+04  2.711588E+05 -1.040939E+03 -1.290491E+04
       252   1  2.172980E+05  4.480370E+04 -3.224511E+04  1.767426E+05 -1.784591E+04  9.523781E+03
       252   2  1.510396E+05  1.086374E+04 -4.216339E+04  1.474551E+05 -2.323223E+04  1.334405E+04
       252   3  7.249751E+04 -7.207366E+03 -4.890678E+04  1.331137E+05 -2.821049E+04  1.609154E+04
       252   4  4.120341E+05  1.155081E+05  5.517714E+03  2.307041E+05 -9.319767E+03  1.275343E+04
       252   5  4.182434E+05  1.090303E+05  1.007345E+04  2.226171E+05 -1.632486E+04  1.595942E+04
       252   6  4.124834E+05  1.187401E+05  1.908570E+04  2.294734E+05 -2.292241E+04  1.809273E+04
       252   7  6.068096E+05  1.862158E+05  4.327915E+04  2.846811E+05 -7.907551E+02  1.598415E+04
       252   8  6.855202E+05  2.072030E+05  6.230693E+04  2.978087E+05 -9.414340E+03  1.857600E+04
       252   9  7.525858E+05  2.446973E+05  8.707190E+04  3.258812E+05 -1.763126E+04  2.009511E+04
       252  10  2.172977E+05  4.480352E+04 -3.224587E+04  1.767428E+05  6.495507E-09 -4.187956E-09
       252  11  1.510389E+05  1.086340E+04 -4.216474E+04  1.474553E+05  2.990977E-09 -5.086739E-09
       252  12  7.249659E+04 -7.207857E+03 -4.890876E+04  1.331141E+05 -7.514487E-10 -7.424584E-09
       252  13  4.120340E+05  1.155079E+05  5.517245E+03  2.307041E+05 -1.767820E-09  3.478398E-11
       252  14  4.182431E+05  1.090299E+05  1.007247E+04  2.226173E+05  3.710726E-09 -9.723856E-09
       252  15  4.124828E+05  1.187396E+05  1.908410E+04  2.294737E+05  2.119477E-09 -4.144151E-09
       252  16  6.068096E+05  1.862155E+05  4.327867E+04  2.846811E+05 -6.306535E-09  1.554240E-09
       252  17  6.855200E+05  2.072026E+05  6.230612E+04  2.978089E+05 -2.793461E-10  8.252181E-09
       252  18  7.525854E+05  2.446968E+05  8.707055E+04  3.258815E+05  2.854112E-09  1.480877E-09
       252  19  2.172980E+05  4.480370E+04 -3.224511E+04  1.767426E+05  1.784591E+04 -9.523781E+03
       252  20  1.510396E+05  1.086374E+04 -4.216339E+04  1.474551E+05  2.323223E+04 -1.334405E+04
       252  21  7.249751E+04 -7.207366E+03 -4.890678E+04  1.331137E+05  2.821049E+04 -1.609154E+04
       252  22  4.120341E+05  1.155081E+05  5.517714E+03  2.307041E+05  9.319767E+03 -1.275343E+04
       252  23  4.182434E+05  1.090303E+05  1.007345E+04  2.226171E+05  1.632486E+04 -1.595942E+04
       252  24  4.124834E+05  1.187401E+05  1.908570E+04  2.294734E+05  2.292241E+04 -1.809273E+04
       252  25  6.068096E+05  1.862158E+05  4.327915E+04  2.846811E+05  7.907551E+02 -1.598415E+04
       252  26  6.855202E+05  2.072030E+05  6.230693E+04  2.978087E+05  9.414340E+03 -1.857600E+04
       252  27  7.525858E+05  2.446973E+05  8.707190E+04  3.258812E+05  1.763126E+04 -2.009511E+04
       253   1  2.004565E+04 -2.190127E+04 -5.314451E+04  1.279573E+05 -3.482914E+04  1.714863E+04
       253   2 -3.081220E+04 -6.436125E+04 -5.318196E+04  6.951625E+04 -3.664352E+04  1.404824E+04
       253   3 -7.498614E+04 -4.313187E+04 -3.727954E+04  1.198048E+04 -3.290952E+04 -3.717885E+03
       253   4  4.156156E+05  1.164813E+05  2.510131E+04  2.315662E+05 -2.697940E+04  2.011948E+04
       253   5  4.157870E+05  1.223262E+05  4.720461E+04  2.160149E+05 -5.088667E+04  8.653739E+03
       253   6  4.269999E+05  1.962099E+05  1.027501E+05  2.013703E+05 -6.924924E+04 -1.747298E+04
       253   7  8.113520E+05  2.548760E+05  1.033414E+05  3.352358E+05 -1.912418E+04  2.309220E+04
       253   8  8.625905E+05  3.090461E+05  1.475794E+05  3.626159E+05 -6.514084E+04  3.253827E+03
       253   9  9.292332E+05  4.356129E+05  2.427602E+05  3.909116E+05 -1.056205E+05 -3.124735E+04
       253  10  2.004427E+04 -2.190191E+04 -5.314734E+04  1.279578E+05  1.746258E-09 -5.555125E-09
       253  11 -3.081369E+04 -6.436182E+04 -5.318485E+04  6.951667E+04  2.280324E-10 -2.412823E-09
       253  12 -7.498731E+04 -4.313217E+04 -3.728160E+04  1.198038E+04 -9.260683E-10 -1.026054E-09
       253  13  4.156147E+05  1.164806E+05  2.509918E+04  2.315666E+05  4.360353E-09  3.596030E-09
       253  14  4.157842E+05  1.223254E+05  4.719961E+04  2.160152E+05 -1.839805E-09 -3.322453E-10
       253  15  4.269947E+05  1.962082E+05  1.027406E+05  2.013694E+05  1.655875E-09  3.860839E-09
       253  16  8.113514E+05  2.548753E+05  1.033398E+05  3.352362E+05 -1.943743E-09 -9.812502E-11
       253  17  8.625860E+05  3.090449E+05  1.475714E+05  3.626161E+05 -3.985366E-10  2.918338E-09
       253  18  9.292209E+05  4.356089E+05  2.427374E+05  3.909090E+05  1.666364E-09  4.142330E-09
       253  19  2.004565E+04 -2.190127E+04 -5.314451E+04  1.279573E+05  3.482914E+04 -1.714863E+04
       253  20 -3.081220E+04 -6.436125E+04 -5.318196E+04  6.951625E+04  3.664352E+04 -1.404824E+04
       253  21 -7.498614E+04 -4.313187E+04 -3.727954E+04  1.198048E+04  3.290952E+04  3.717885E+03
       253  22  4.156156E+05  1.164813E+05  2.510131E+04  2.315662E+05  2.697940E+04 -2.011948E+04
       253  23  4.157870E+05  1.223262E+05  4.720461E+04  2.160149E+05  5.088667E+04 -8.653739E+03
       253  24  4.269999E+05  1.962099E+05  1.027501E+05  2.013703E+05  6.924924E+04  1.747298E+04
       253  25  8.113520E+05  2.548760E+05  1.033414E+05  3.352358E+05  1.912418E+04 -2.309220E+04
       253  26  8.625905E+05  3.090461E+05  1.475794E+05  3.626159E+05  6.514084E+04 -3.253827E+03
       253  27  9.292332E+05  4.356129E+05  2.427602E+05  3.909116E+05  1.056205E+05  3.124735E+04
       254   1  8.130086E+04  1.077437E+03 -2.938926E+03 -1.132682E+03 -1.191223E+04 -9.029305E+02
       254   2  7.372228E+04  1.592135E+04  4.895700E+03  1.369025E+03 -8.497889E+03 -2.631110E+03
       254   3  6.139650E+04  1.370673E+04  6.239303E+03  8.557622E+03 -5.090242E+03 -2.468834E+03
       254   4  9.416701E+03 -1.674071E+04 -2.045230E+04  6.003585E+03 -1.403806E+04 -9.105264E+02
       254   5  1.192080E+04  7.606421E+02 -9.208590E+03  3.629016E+03 -9.126872E+03 -2.633379E+03
       254   6  9.417145E+03  9.425704E+02 -5.495895E+03  5.941416E+03 -4.222309E+03 -2.465746E+03
       254   7 -6.246262E+04 -3.455903E+04 -3.796600E+04  1.313902E+04 -1.616365E+04 -9.181716E+02
       254   8 -4.987712E+04 -1.440031E+04 -2.331312E+04  5.888776E+03 -9.755793E+03 -2.635652E+03
       254   9 -4.255968E+04 -1.182175E+04 -1.723126E+04  3.325429E+03 -3.354447E+03 -2.462665E+03
       254  10  8.130071E+04  1.077398E+03 -2.939194E+03 -1.132691E+03 -7.996432E-09  2.291786E-09
       254  11  7.372220E+04  1.592132E+04  4.895552E+03  1.369007E+03  2.121039E-09  1.125581E-08
       254  12  6.139647E+04  1.370672E+04  6.239243E+03  8.557612E+03  4.978606E-09  4.570101E-09
       254  13  9.416489E+03 -1.674076E+04 -2.045267E+04  6.003575E+03 -1.086498E-09 -4.164136E-09
       254  14  1.192071E+04  7.606122E+02 -9.208759E+03  3.628996E+03  3.839832E-10 -1.092365E-08
       254  15  9.417125E+03  9.425591E+02 -5.495940E+03  5.941408E+03 -3.498976E-09  2.298216E-09
       254  16 -6.246290E+04 -3.455911E+04 -3.796650E+04  1.313901E+04  7.617785E-09  1.296918E-09
       254  17 -4.987723E+04 -1.440034E+04 -2.331332E+04  5.888756E+03 -2.655903E-09  1.132638E-08
       254  18 -4.255969E+04 -1.182176E+04 -1.723129E+04  3.325422E+03 -7.387572E-09 -1.007011E-10
       254  19  8.130086E+04  1.077437E+03 -2.938926E+03 -1.132682E+03  1.191223E+04  9.029305E+02
       254  20  7.372228E+04  1.592135E+04  4.895700E+03  1.369025E+03  8.497889E+03  2.631110E+03
       254  21  6.139650E+04  1.370673E+04  6.239303E+03  8.557622E+03  5.090242E+03  2.468834E+03
       254  22  9.416701E+03 -1.674071E+04 -2.045230E+04  6.003585E+03  1.403806E+04  9.105264E+02
       254  23  1.192080E+04  7.606421E+02 -9.208590E+03  3.629016E+03  9.126872E+03  2.633379E+03
       254  24  9.417145E+03  9.425704E+02 -5.495895E+03  5.941416E+03  4.222309E+03  2.465746E+03
       254  25 -6.246262E+04 -3.455903E+04 -3.796600E+04  1.313902E+04  1.616365E+04  9.181716E+02
       254  26 -4.987712E+04 -1.440031E+04 -2.331312E+04  5.888776E+03  9.755793E+03  2.635652E+03
       254  27 -4.255968E+04 -1.182175E+04 -1.723126E+04  3.325429E+03  3.354447E+03  2.462665E+03
       255   1  5.354928E+04  9.505213E+03  5.373589E+03  5.697737E+03 -3.717679E+03 -1.961390E+03
       255   2  4.388526E+04  8.241359E+03  5.167833E+03  3.602416E+03 -2.605352E+03 -1.544710E+03
       255   3  3.374907E+04  5.833905E+03  3.942859E+03  6.225379E+03 -1.493392E+03 -1.040856E+03
       255   4  1.042247E+04 -1.072264E+03 -4.402641E+03  5.968140E+03 -3.425159E+03 -1.960360E+03
       255   5  1.066477E+04  9.527968E+01 -2.345262E+03  3.606879E+03 -2.243868E+03 -1.543424E+03
       255   6  1.042265E+04  1.071737E+02 -1.355088E+03  5.963926E+03 -1.062928E+03 -1.039314E+03
       255   7 -3.270262E+04 -1.164987E+04 -1.417899E+04  6.238523E+03 -3.132659E+03 -1.959329E+03
       255   8 -2.255469E+04 -8.050875E+03 -9.858427E+03  3.611340E+03 -1.882403E+03 -1.542139E+03
       255   9 -1.290326E+04 -5.619594E+03 -6.653070E+03  5.702481E+03 -6.324793E+02 -1.037772E+03
       255  10  5.354926E+04  9.505205E+03  5.373555E+03  5.697731E+03 -3.205391E-09 -1.411796E-09
       255  11  4.388525E+04  8.241354E+03  5.167815E+03  3.602413E+03  7.518189E-10  6.715830E-09
       255  12  3.374907E+04  5.833903E+03  3.942852E+03  6.225378E+03  4.493236E-09  6.734073E-09
       255  13  1.042245E+04 -1.072271E+03 -4.402671E+03  5.968135E+03 -2.170907E-09  1.396824E-08
       255  14  1.066476E+04  9.527577E+01 -2.345276E+03  3.606876E+03  2.042563E-09 -1.877666E-08
       255  15  1.042265E+04  1.071723E+02 -1.355093E+03  5.963925E+03  2.747193E-10  7.751418E-09
       255  16 -3.270263E+04 -1.164988E+04 -1.417902E+04  6.238518E+03  2.334637E-09 -7.638209E-09
       255  17 -2.255470E+04 -8.050879E+03 -9.858439E+03  3.611338E+03 -1.720533E-09 -3.651222E-10
       255  18 -1.290327E+04 -5.619596E+03 -6.653073E+03  5.702481E+03 -3.217372E-09  5.034527E-09
       255  19  5.354928E+04  9.505213E+03  5.373589E+03  5.697737E+03  3.717679E+03  1.961390E+03
       255  20  4.388526E+04  8.241359E+03  5.167833E+03  3.602416E+03  2.605352E+03  1.544710E+03
       255  21  3.374907E+04  5.833905E+03  3.942859E+03  6.225379E+03  1.493392E+03  1.040856E+03
       255  22  1.042247E+04 -1.072264E+03 -4.402641E+03  5.968140E+03  3.425159E+03  1.960360E+03
       255  23  1.066477E+04  9.527968E+01 -2.345262E+03  3.606879E+03  2.243868E+03  1.543424E+03
       255  24  1.042265E+04  1.071737E+02 -1.355088E+03  5.963926E+03  1.062928E+03  1.039314E+03
       255  25 -3.270262E+04 -1.164987E+04 -1.417899E+04  6.238523E+03  3.132659E+03  1.959329E+03
       255  26 -2.255469E+04 -8.050875E+03 -9.858427E+03  3.611340E+03  1.882403E+03  1.542139E+03
       255  27 -1.290326E+04 -5.619594E+03 -6.653070E+03  5.702481E+03  6.324793E+02  1.037772E+03
       256   1  2.499929E+04  3.522472E+03  2.210056E+03  6.007106E+03 -1.257459E+03 -7.299444E+02
       256   2  1.514813E+04  1.161622E+03  4.676559E+02  3.630246E+03 -9.790557E+02 -2.169616E+02
       256   3  5.206269E+03 -1.246875E+03 -1.477593E+03  5.972664E+03 -7.006703E+02  3.000327E+02
       256   4  1.051011E+04 -2.513648E+01 -1.038161E+03  5.965491E+03 -8.535447E+02 -7.284948E+02
       256   5  1.055572E+04  3.538370E+01 -5.704067E+02  3.605716E+03 -5.719711E+02 -2.154996E+02
       256   6  1.051013E+04  4.774817E+01 -3.076670E+02  5.965223E+03 -2.904108E+02  3.015076E+02
       256   7 -3.978874E+03 -3.572759E+03 -4.286391E+03  5.923877E+03 -4.496398E+02 -7.270453E+02
       256   8  5.963334E+03 -1.090856E+03 -1.608470E+03  3.581187E+03 -1.648894E+02 -2.140376E+02
       256   9  1.581403E+04  1.342369E+03  8.622578E+02  5.957781E+03  1.198521E+02  3.029824E+02
       256  10  2.499929E+04  3.522471E+03  2.210052E+03  6.007105E+03  6.620434E-09 -4.960489E-09
       256  11  1.514813E+04  1.161622E+03  4.676540E+02  3.630245E+03  1.913161E-09 -4.957739E-09
       256  12  5.206269E+03 -1.246875E+03 -1.477594E+03  5.972664E+03 -5.899318E-09 -2.173948E-10
       256  13  1.051011E+04 -2.513724E+01 -1.038163E+03  5.965491E+03  5.896838E-12 -1.648351E-09
       256  14  1.055572E+04  3.538356E+01 -5.704075E+02  3.605716E+03  2.055818E-09 -4.824419E-09
       256  15  1.051013E+04  4.774805E+01 -3.076673E+02  5.965223E+03  9.003506E-12 -8.303942E-10
       256  16 -3.978874E+03 -3.572760E+03 -4.286392E+03  5.923877E+03 -6.119692E-09 -7.141647E-09
       256  17  5.963334E+03 -1.090856E+03 -1.608470E+03  3.581187E+03 -2.589263E-09  2.321853E-09
       256  18  1.581403E+04  1.342369E+03  8.622576E+02  5.957781E+03  5.884537E-09  1.127650E-08
       256  19  2.499929E+04  3.522472E+03  2.210056E+03  6.007106E+03  1.257459E+03  7.299444E+02
       256  20  1.514813E+04  1.161622E+03  4.676559E+02  3.630246E+03  9.790557E+02  2.169616E+02
       256  21  5.206269E+03 -1.246875E+03 -1.477593E+03  5.972664E+03  7.006703E+02 -3.000327E+02
       256  22  1.051011E+04 -2.513648E+01 -1.038161E+03  5.965491E+03  8.535447E+02  7.284948E+02
       256  23  1.055572E+04  3.538370E+01 -5.704067E+02  3.605716E+03  5.719711E+02  2.154996E+02
       256  24  1.051013E+04  4.774817E+01 -3.076670E+02  5.965223E+03  2.904108E+02 -3.015076E+02
       256  25 -3.978874E+03 -3.572759E+03 -4.286391E+03  5.923877E+03  4.496398E+02  7.270453E+02
       256  26  5.963334E+03 -1.090856E+03 -1.608470E+03  3.581187E+03  1.648894E+02  2.140376E+02
       256  27  1.581403E+04  1.342369E+03  8.622578E+02  5.957781E+03 -1.198521E+02 -3.029824E+02
       257   1 -3.618801E+03 -3.432733E+03 -3.440531E+03  5.935499E+03 -6.533772E+02  6.013940E+02
       257   2 -1.349550E+04 -5.867054E+03 -5.507425E+03  3.548746E+03 -6.178039E+02  1.118091E+03
       257   3 -2.341168E+04 -8.272596E+03 -7.599877E+03  5.881429E+03 -5.822138E+02  1.634964E+03
       257   4  1.052156E+04  4.018124E+01 -2.167354E+02  5.965341E+03 -2.443402E+02  6.028627E+02
       257   5  1.054129E+04  2.684705E+01 -7.582133E+01  3.605622E+03 -2.086310E+02  1.119554E+03
       257   6  1.052142E+04  4.227415E+01  3.944336E+01  5.965326E+03 -1.729045E+02  1.636421E+03
       257   7  2.466211E+04  3.513082E+03  3.007048E+03  5.995184E+03  1.647060E+02  6.043315E+02
       257   8  3.457861E+04  5.920709E+03  5.355746E+03  3.662499E+03  2.005575E+02  1.121016E+03
       257   9  4.445559E+04  8.357066E+03  7.678691E+03  6.049228E+03  2.364271E+02  1.637877E+03
       257  10 -3.618802E+03 -3.432734E+03 -3.440533E+03  5.935499E+03  2.552011E-09 -7.545527E-09
       257  11 -1.349550E+04 -5.867056E+03 -5.507428E+03  3.548747E+03 -4.403219E-09  1.678676E-09
       257  12 -2.341168E+04 -8.272599E+03 -7.599883E+03  5.881430E+03 -8.757213E-09  6.914860E-09
       257  13  1.052156E+04  4.018084E+01 -2.167362E+02  5.965341E+03 -1.090295E-09  5.987917E-09
       257  14  1.054129E+04  2.684569E+01 -7.582377E+01  3.605622E+03  2.581088E-09 -1.127566E-08
       257  15  1.052142E+04  4.227126E+01  3.943827E+01  5.965327E+03 -1.187605E-10 -6.345245E-09
       257  16  2.466211E+04  3.513082E+03  3.007047E+03  5.995184E+03 -2.629074E-09  4.813929E-09
       257  17  3.457861E+04  5.920707E+03  5.355744E+03  3.662499E+03  2.080574E-09  1.405339E-08
       257  18  4.445559E+04  8.357063E+03  7.678686E+03  6.049227E+03  9.663601E-09  1.336701E-09
       257  19 -3.618801E+03 -3.432733E+03 -3.440531E+03  5.935499E+03  6.533772E+02 -6.013940E+02
       257  20 -1.349550E+04 -5.867054E+03 -5.507425E+03  3.548746E+03  6.178039E+02 -1.118091E+03
       257  21 -2.341168E+04 -8.272596E+03 -7.599877E+03  5.881429E+03  5.822138E+02 -1.634964E+03
       257  22  1.052156E+04  4.018124E+01 -2.167354E+02  5.965341E+03  2.443402E+02 -6.028627E+02
       257  23  1.054129E+04  2.684705E+01 -7.582133E+01  3.605622E+03  2.086310E+02 -1.119554E+03
       257  24  1.052142E+04  4.227415E+01  3.944336E+01  5.965326E+03  1.729045E+02 -1.636421E+03
       257  25  2.466211E+04  3.513082E+03  3.007048E+03  5.995184E+03 -1.647060E+02 -6.043315E+02
       257  26  3.457861E+04  5.920709E+03  5.355746E+03  3.662499E+03 -2.005575E+02 -1.121016E+03
       257  27  4.445559E+04  8.357066E+03  7.678691E+03  6.049228E+03 -2.364271E+02 -1.637877E+03
       258   1 -3.224288E+04 -1.045152E+04 -9.594218E+03  5.858869E+03 -5.959170E+02  1.935755E+03
       258   2 -4.213315E+04 -1.289244E+04 -1.165424E+04  3.476223E+03 -7.197539E+02  2.452066E+03
       258   3 -5.203669E+04 -1.528915E+04 -1.363182E+04  5.813888E+03 -8.435463E+02  2.968036E+03
       258   4  1.052706E+04  4.170954E+01  9.929114E+01  5.965530E+03 -1.865448E+02  1.937205E+03
       258   5  1.053365E+04  2.191640E+01  2.471750E+02  3.605375E+03 -3.106684E+02  2.453501E+03
       258   6  1.052676E+04  4.633437E+01  4.776499E+02  5.965506E+03 -4.347495E+02  2.969456E+03
       258   7  5.329871E+04  1.053481E+04  9.792683E+03  6.072197E+03  2.228553E+02  1.938656E+03
       258   8  6.320302E+04  1.293608E+04  1.214841E+04  3.734535E+03  9.845140E+01  2.454937E+03
       258   9  7.309386E+04  1.538156E+04  1.458687E+04  6.117136E+03 -2.591187E+01  2.970876E+03
       258  10 -3.224288E+04 -1.045153E+04 -9.594226E+03  5.858870E+03 -3.501216E-09  1.456114E-09
       258  11 -4.213315E+04 -1.289244E+04 -1.165425E+04  3.476224E+03 -3.695729E-09 -3.648882E-09
       258  12 -5.203669E+04 -1.528916E+04 -1.363184E+04  5.813890E+03 -9.397699E-09 -3.850473E-09
       258  13  1.052706E+04  4.170550E+01  9.928403E+01  5.965530E+03 -3.217964E-12  4.760508E-09
       258  14  1.053365E+04  2.190991E+01  2.471635E+02  3.605375E+03  3.115672E-09 -3.846747E-09
       258  15  1.052676E+04  4.632485E+01  4.776330E+02  5.965507E+03  1.357904E-09 -5.100506E-09
       258  16  5.329871E+04  1.053481E+04  9.792676E+03  6.072197E+03  3.460470E-09 -6.826600E-10
       258  17  6.320302E+04  1.293607E+04  1.214840E+04  3.734535E+03  3.849632E-09 -1.441282E-08
       258  18  7.309385E+04  1.538155E+04  1.458685E+04  6.117136E+03  1.100675E-08 -6.960907E-09
       258  19 -3.224288E+04 -1.045152E+04 -9.594218E+03  5.858869E+03  5.959170E+02 -1.935755E+03
       258  20 -4.213315E+04 -1.289244E+04 -1.165424E+04  3.476223E+03  7.197539E+02 -2.452066E+03
       258  21 -5.203669E+04 -1.528915E+04 -1.363182E+04  5.813888E+03  8.435463E+02 -2.968036E+03
       258  22  1.052706E+04  4.170954E+01  9.929114E+01  5.965530E+03  1.865448E+02 -1.937205E+03
       258  23  1.053365E+04  2.191640E+01  2.471750E+02  3.605375E+03  3.106684E+02 -2.453501E+03
       258  24  1.052676E+04  4.633437E+01  4.776499E+02  5.965506E+03  4.347495E+02 -2.969456E+03
       258  25  5.329871E+04  1.053481E+04  9.792683E+03  6.072197E+03 -2.228553E+02 -1.938656E+03
       258  26  6.320302E+04  1.293608E+04  1.214841E+04  3.734535E+03 -9.845140E+01 -2.454937E+03
       258  27  7.309386E+04  1.538156E+04  1.458687E+04  6.117136E+03  2.591187E+01 -2.970876E+03
       259   1 -6.085344E+04 -1.748242E+04 -1.552358E+04  5.816891E+03 -9.476577E+02  3.269356E+03
       259   2 -7.079281E+04 -1.993025E+04 -1.724255E+04  3.414888E+03 -1.504319E+03  3.782780E+03
       259   3 -8.065016E+04 -2.218734E+04 -1.856013E+04  5.732118E+03 -2.060892E+03  4.288182E+03
       259   4  1.054795E+04  3.147180E+01  6.399448E+02  5.965427E+03 -5.363916E+02  3.270773E+03
       259   5  1.050614E+04  5.342229E+00  1.129894E+03  3.605582E+03 -1.099471E+03  3.784152E+03
       259   6  1.054749E+04  1.710917E+02  2.025698E+03  5.964934E+03 -1.662471E+03  4.289511E+03
       259   7  8.195408E+04  1.754501E+04  1.680314E+04  6.113976E+03 -1.250788E+02  3.272191E+03
       259   8  9.181123E+04  1.994048E+04  1.950192E+04  3.796297E+03 -6.945705E+02  3.785525E+03
       259   9  1.017529E+05  2.252895E+04  2.261099E+04  6.197777E+03 -1.263992E+03  4.290840E+03
       259  10 -6.085344E+04 -1.748243E+04 -1.552360E+04  5.816893E+03  8.127253E-10 -1.355002E-09
       259  11 -7.079281E+04 -1.993026E+04 -1.724258E+04  3.414892E+03  7.097765E-10 -1.014505E-08
       259  12 -8.065017E+04 -2.218736E+04 -1.856017E+04  5.732125E+03 -2.784904E-09  3.978840E-09
       259  13  1.054795E+04  3.146024E+01  6.399241E+02  5.965428E+03 -1.108978E-11 -1.367607E-09
       259  14  1.050613E+04  5.326528E+00  1.129865E+03  3.605586E+03 -1.460637E-10  8.287981E-10
       259  15  1.054748E+04  1.710712E+02  2.025658E+03  5.964939E+03  8.124978E-10  1.083993E-09
       259  16  8.195407E+04  1.754500E+04  1.680312E+04  6.113976E+03 -5.841138E-10  6.104528E-09
       259  17  9.181122E+04  1.994046E+04  1.950189E+04  3.796299E+03 -2.431571E-09 -7.341936E-10
       259  18  1.017529E+05  2.252893E+04  2.261095E+04  6.197781E+03  2.814468E-09  7.350341E-09
       259  19 -6.085344E+04 -1.748242E+04 -1.552358E+04  5.816891E+03  9.476577E+02 -3.269356E+03
       259  20 -7.079281E+04 -1.993025E+04 -1.724255E+04  3.414888E+03  1.504319E+03 -3.782780E+03
       259  21 -8.065016E+04 -2.218734E+04 -1.856013E+04  5.732118E+03  2.060892E+03 -4.288182E+03
       259  22  1.054795E+04  3.147180E+01  6.399448E+02  5.965427E+03  5.363916E+02 -3.270773E+03
       259  23  1.050614E+04  5.342229E+00  1.129894E+03  3.605582E+03  1.099471E+03 -3.784152E+03
       259  24  1.054749E+04  1.710917E+02  2.025698E+03  5.964934E+03  1.662471E+03 -4.289511E+03
       259  25  8.195408E+04  1.754501E+04  1.680314E+04  6.113976E+03  1.250788E+02 -3.272191E+03
       259  26  9.181123E+04  1.994048E+04  1.950192E+04  3.796297E+03  6.945705E+02 -3.785525E+03
       259  27  1.017529E+05  2.252895E+04  2.261099E+04  6.197777E+03  1.263992E+03 -4.290840E+03
       260   1 -8.932476E+04 -2.461900E+04 -1.999529E+04  6.090342E+03 -2.525309E+03  4.606163E+03
       260   2 -9.963517E+04 -2.707346E+04 -2.030616E+04  3.144095E+03 -4.682270E+03  5.082018E+03
       260   3 -1.091207E+05 -2.721493E+04 -1.864209E+04  4.907566E+03 -6.838542E+03  5.383077E+03
       260   4  1.071720E+04 -8.537515E+01  2.636443E+03  5.965294E+03 -2.073667E+03  4.607660E+03
       260   5  1.029253E+04 -1.130103E+02  4.549190E+03  3.606615E+03 -4.369417E+03  5.083011E+03
       260   6  1.071660E+04  2.196199E+03  8.532996E+03  5.957593E+03 -6.664511E+03  5.383576E+03
       260   7  1.107685E+05  2.444756E+04  2.526753E+04  5.840219E+03 -1.621953E+03  4.609156E+03
       260   8  1.202315E+05  2.684661E+04  2.940376E+04  4.069209E+03 -4.056509E+03  5.084004E+03
       260   9  1.305672E+05  3.160634E+04  3.570716E+04  7.007813E+03 -6.490448E+03  5.384077E+03
       260  10 -8.932478E+04 -2.461903E+04 -1.999534E+04  6.090351E+03  9.579916E-09  2.455541E-09
       260  11 -9.963520E+04 -2.707349E+04 -2.030625E+04  3.144114E+03  6.513037E-10  3.167442E-09
       260  12 -1.091207E+05 -2.721497E+04 -1.864224E+04  4.907595E+03 -4.267954E-09 -1.504109E-09
       260  13  1.071719E+04 -8.539910E+01  2.636395E+03  5.965302E+03 -2.090546E-12 -1.131540E-08
       260  14  1.029251E+04 -1.130431E+02  4.549105E+03  3.606633E+03  9.112665E-10  2.296023E-09
       260  15  1.071654E+04  2.196156E+03  8.532858E+03  5.957622E+03 -9.238824E-10  1.514337E-09
       260  16  1.107685E+05  2.444754E+04  2.526749E+04  5.840225E+03 -1.024715E-08 -5.549540E-09
       260  17  1.202314E+05  2.684657E+04  2.940368E+04  4.069226E+03 -3.063970E-09 -1.342311E-08
       260  18  1.305671E+05  3.160630E+04  3.570702E+04  7.007842E+03  3.948554E-09 -2.350262E-09
       260  19 -8.932476E+04 -2.461900E+04 -1.999529E+04  6.090342E+03  2.525309E+03 -4.606163E+03
       260  20 -9.963517E+04 -2.707346E+04 -2.030616E+04  3.144095E+03  4.682270E+03 -5.082018E+03
       260  21 -1.091207E+05 -2.721493E+04 -1.864209E+04  4.907566E+03  6.838542E+03 -5.383077E+03
       260  22  1.071720E+04 -8.537515E+01  2.636443E+03  5.965294E+03  2.073667E+03 -4.607660E+03
       260  23  1.029253E+04 -1.130103E+02  4.549190E+03  3.606615E+03  4.369417E+03 -5.083011E+03
       260  24  1.071660E+04  2.196199E+03  8.532996E+03  5.957593E+03  6.664511E+03 -5.383576E+03
       260  25  1.107685E+05  2.444756E+04  2.526753E+04  5.840219E+03  1.621953E+03 -4.609156E+03
       260  26  1.202315E+05  2.684661E+04  2.940376E+04  4.069209E+03  4.056509E+03 -5.084004E+03
       260  27  1.305672E+05  3.160634E+04  3.570716E+04  7.007813E+03  6.490448E+03 -5.384077E+03
       261   1 -1.161184E+05 -3.323753E+04 -1.838831E+04  1.042134E+04 -9.543830E+03  6.080080E+03
       261   2 -1.305482E+05 -3.544080E+04 -1.373148E+04 -1.393686E+03 -1.603963E+04  5.841100E+03
       261   3 -1.358748E+05 -4.509043E+03  3.434358E+03 -8.713991E+03 -2.252301E+04  1.808732E+03
       261   4  1.266574E+04 -1.708137E+03  1.065054E+04  5.945268E+03 -8.215400E+03  6.084467E+03
       261   5  7.854267E+03 -1.405696E+03  1.784075E+04  3.642475E+03 -1.771699E+04  5.835419E+03
       261   6  1.266532E+04  3.254928E+04  3.962536E+04  5.834169E+03 -2.720628E+04  1.793162E+03
       261   7  1.414654E+05  2.982020E+04  3.968834E+04  1.468245E+03 -6.886697E+03  6.088834E+03
       261   8  1.462746E+05  3.262817E+04  4.941174E+04  8.679754E+03 -1.939472E+04  5.829711E+03
       261   9  1.612261E+05  6.960676E+04  7.581495E+04  2.038580E+04 -3.189068E+04  1.777374E+03
       261  10 -1.161185E+05 -3.323760E+04 -1.838855E+04  1.042139E+04  7.095864E-09  1.740666E-10
       261  11 -1.305485E+05 -3.544090E+04 -1.373202E+04 -1.393611E+03  7.549016E-09 -3.441769E-09
       261  12 -1.358754E+05 -4.509183E+03  3.433398E+03 -8.713958E+03  3.857064E-09  4.984131E-09
       261  13  1.266566E+04 -1.708195E+03  1.065034E+04  5.945309E+03  1.063241E-09  4.484189E-09
       261  14  7.853921E+03 -1.405817E+03  1.784009E+04  3.642558E+03  1.940761E-09  7.859475E-09
       261  15  1.266452E+04  3.254908E+04  3.962397E+04  5.834208E+03  2.857960E-10  2.723087E-09
       261  16  1.414653E+05  2.982015E+04  3.968818E+04  1.468279E+03 -4.570000E-09  8.512862E-09
       261  17  1.462742E+05  3.262803E+04  4.941097E+04  8.679845E+03 -6.811578E-09  7.457556E-09
       261  18  1.612250E+05  6.960649E+04  7.581304E+04  2.038585E+04 -4.144451E-09 -2.527661E-09
       261  19 -1.161184E+05 -3.323753E+04 -1.838831E+04  1.042134E+04  9.543830E+03 -6.080080E+03
       261  20 -1.305482E+05 -3.544080E+04 -1.373148E+04 -1.393686E+03  1.603963E+04 -5.841100E+03
       261  21 -1.358748E+05 -4.509043E+03  3.434358E+03 -8.713991E+03  2.252301E+04 -1.808732E+03
       261  22  1.266574E+04 -1.708137E+03  1.065054E+04  5.945268E+03  8.215400E+03 -6.084467E+03
       261  23  7.854267E+03 -1.405696E+03  1.784075E+04  3.642475E+03  1.771699E+04 -5.835419E+03
       261  24  1.266532E+04  3.254928E+04  3.962536E+04  5.834169E+03  2.720628E+04 -1.793162E+03
       261  25  1.414654E+05  2.982020E+04  3.968834E+04  1.468245E+03  6.886697E+03 -6.088834E+03
       261  26  1.462746E+05  3.262817E+04  4.941174E+04  8.679754E+03  1.939472E+04 -5.829711E+03
       261  27  1.612261E+05  6.960676E+04  7.581495E+04  2.038580E+04  3.189068E+04 -1.777374E+03
       262   1 -3.135094E+05 -1.317076E+06 -3.287013E+05  1.457271E+05 -9.886805E+03 -9.919093E+04
       262   2 -1.722342E+05 -1.130504E+06 -2.156263E+05  7.831639E+04 -2.966015E+04 -5.262419E+04
       262   3 -1.295288E+05 -9.737831E+05 -1.574308E+05  9.157870E+04 -2.549638E+04 -5.966352E+03
       262   4 -9.208255E+04 -4.294189E+05 -1.117485E+05  1.036166E+05 -9.959698E+03 -7.426963E+04
       262   5  3.557938E+03 -4.160972E+05 -5.221290E+04  6.342756E+04 -2.967458E+04 -4.659393E+04
       262   6  3.975604E+03 -4.293319E+05 -3.437803E+04  1.039148E+05 -2.546053E+04 -1.884128E+04
       262   7  1.292927E+05  4.589628E+05  1.051498E+05  6.144606E+04 -1.003593E+04 -4.931267E+04
       262   8  1.793153E+05  2.987834E+05  1.111673E+05  4.852176E+04 -2.968928E+04 -4.055677E+04
       262   9  1.374603E+05  1.153959E+05  8.865638E+04  1.162620E+05 -2.542521E+04 -3.172741E+04
       262  10 -3.135121E+05 -1.317087E+06 -3.287200E+05  1.457263E+05 -2.648106E-10 -5.399968E-09
       262  11 -1.722359E+05 -1.130507E+06 -2.156332E+05  7.831513E+04 -3.738757E-09  2.876223E-09
       262  12 -1.295295E+05 -9.737833E+05 -1.574321E+05  9.157858E+04 -6.205535E-10  6.537405E-09
       262  13 -9.208414E+04 -4.294248E+05 -1.117591E+05  1.036160E+05  7.719376E-10  7.377410E-09
       262  14  3.556409E+03 -4.160997E+05 -5.221863E+04  6.342645E+04 -3.524932E-09  3.882874E-09
       262  15  3.974813E+03 -4.293324E+05 -3.437992E+04  1.039144E+05  1.649472E-10  6.058791E-09
       262  16  1.292919E+05  4.589602E+05  1.051451E+05  6.144566E+04 -3.141653E-10  3.561822E-09
       262  17  1.793139E+05  2.987814E+05  1.111625E+05  4.852079E+04 -3.920094E-10 -3.541752E-09
       262  18  1.374593E+05  1.153946E+05  8.865328E+04  1.162613E+05 -1.236854E-09 -1.251321E-09
       262  19 -3.135094E+05 -1.317076E+06 -3.287013E+05  1.457271E+05  9.886805E+03  9.919093E+04
       262  20 -1.722342E+05 -1.130504E+06 -2.156263E+05  7.831639E+04  2.966015E+04  5.262419E+04
       262  21 -1.295288E+05 -9.737831E+05 -1.574308E+05  9.157870E+04  2.549638E+04  5.966352E+03
       262  22 -9.208255E+04 -4.294189E+05 -1.117485E+05  1.036166E+05  9.959698E+03  7.426963E+04
       262  23  3.557938E+03 -4.160972E+05 -5.221290E+04  6.342756E+04  2.967458E+04  4.659393E+04
       262  24  3.975604E+03 -4.293319E+05 -3.437803E+04  1.039148E+05  2.546053E+04  1.884128E+04
       262  25  1.292927E+05  4.589628E+05  1.051498E+05  6.144606E+04  1.003593E+04  4.931267E+04
       262  26  1.793153E+05  2.987834E+05  1.111673E+05  4.852176E+04  2.968928E+04  4.055677E+04
       262  27  1.374603E+05  1.153959E+05  8.865638E+04  1.162620E+05  2.542521E+04  3.172741E+04
       263   1 -1.022356E+05 -8.147395E+05 -1.185635E+05  1.079361E+05 -1.764404E+04 -7.776615E+03
       263   2 -5.322133E+04 -6.406643E+05 -7.290831E+04  6.362628E+04 -1.012383E+04  4.484187E+03
       263   3 -1.680437E+04 -4.707372E+05 -3.826783E+04  1.012880E+05 -2.099613E+03  1.674704E+04
       263   4 -6.358529E+03 -4.243126E+05 -2.998911E+04  1.041149E+05 -1.762838E+04 -1.355757E+04
       263   5  3.743354E+02 -4.222494E+05 -2.348489E+04  6.313082E+04 -1.010804E+04 -1.690955E+03
       263   6 -5.416905E+03 -4.242914E+05 -2.771623E+04  1.041174E+05 -2.083762E+03  1.017441E+04
       263   7  8.950808E+04 -3.374387E+04  5.857556E+04  1.002913E+05 -1.761265E+04 -1.934214E+04
       263   8  5.396674E+04 -2.037901E+05  2.593560E+04  6.263521E+04 -1.009225E+04 -7.868250E+03
       263   9  5.970461E+03 -3.778435E+05 -1.716460E+04  1.069471E+05 -2.067972E+03  3.601290E+03
       263  10 -1.022359E+05 -8.147397E+05 -1.185642E+05  1.079360E+05 -8.062955E-10 -3.534911E-09
       263  11 -5.322145E+04 -6.406644E+05 -7.290854E+04  6.362631E+04  1.377856E-10 -3.875044E-09
       263  12 -1.680445E+04 -4.707375E+05 -3.826836E+04  1.012880E+05  1.152141E-09 -4.336671E-09
       263  13 -6.358912E+03 -4.243129E+05 -2.999004E+04  1.041147E+05 -2.556650E-10  6.996858E-09
       263  14  3.742250E+02 -4.222495E+05 -2.348509E+04  6.313081E+04 -2.208993E-09  5.430604E-09
       263  15 -5.416937E+03 -4.242915E+05 -2.771643E+04  1.041175E+05  1.831116E-09  3.877970E-09
       263  16  8.950765E+04 -3.374436E+04  5.857427E+04  1.002910E+05 -9.530265E-11  3.158643E-09
       263  17  5.396661E+04 -2.037902E+05  2.593529E+04  6.263515E+04 -1.251038E-09  4.763560E-09
       263  18  5.970453E+03 -3.778435E+05 -1.716463E+04  1.069471E+05  2.877117E-09  7.861288E-09
       263  19 -1.022356E+05 -8.147395E+05 -1.185635E+05  1.079361E+05  1.764404E+04  7.776615E+03
       263  20 -5.322133E+04 -6.406643E+05 -7.290831E+04  6.362628E+04  1.012383E+04 -4.484187E+03
       263  21 -1.680437E+04 -4.707372E+05 -3.826783E+04  1.012880E+05  2.099613E+03 -1.674704E+04
       263  22 -6.358529E+03 -4.243126E+05 -2.998911E+04  1.041149E+05  1.762838E+04  1.355757E+04
       263  23  3.743354E+02 -4.222494E+05 -2.348489E+04  6.313082E+04  1.010804E+04  1.690955E+03
       263  24 -5.416905E+03 -4.242914E+05 -2.771623E+04  1.041174E+05  2.083762E+03 -1.017441E+04
       263  25  8.950808E+04 -3.374387E+04  5.857556E+04  1.002913E+05  1.761265E+04  1.934214E+04
       263  26  5.396674E+04 -2.037901E+05  2.593560E+04  6.263521E+04  1.009225E+04  7.868250E+03
       263  27  5.970461E+03 -3.778435E+05 -1.716460E+04  1.069471E+05  2.067972E+03 -3.601290E+03
       264   1  2.970824E+04 -3.209399E+05 -6.587291E+03  1.154909E+05  4.630822E+03  2.524612E+04
       264   2  7.180949E+04 -1.382073E+05  1.825904E+04  5.120818E+04  1.097688E+04  3.921171E+04
       264   3  3.314184E+04  2.313613E+04  1.394783E+04  6.827205E+04  4.255350E+03  5.314664E+04
       264   4  3.351072E+03 -4.285399E+05 -3.106582E+04  1.040447E+05  4.655008E+03  1.501661E+04
       264   5  3.170489E+03 -4.169473E+05 -4.575198E+04  6.325837E+04  1.097768E+04  3.931905E+04
       264   6 -7.959562E+04 -4.285830E+05 -9.678869E+04  1.038265E+05  4.231181E+03  6.358662E+04
       264   7 -2.300634E+04 -5.361286E+05 -5.554464E+04  9.260059E+04  4.679574E+03  4.788849E+03
       264   8 -6.547341E+04 -6.956150E+05 -1.097681E+05  7.530315E+04  1.097849E+04  3.942634E+04
       264   9 -1.923435E+05 -8.801133E+05 -2.075391E+05  1.393550E+05  4.208201E+03  7.401900E+04
       264  10  2.970804E+04 -3.209406E+05 -6.588530E+03  1.154908E+05  4.020395E-09 -6.527890E-09
       264  11  7.180894E+04 -1.382090E+05  1.825592E+04  5.120783E+04  3.081281E-09  2.745174E-09
       264  12  3.314106E+04  2.313309E+04  1.394249E+04  6.827187E+04  5.688371E-10  1.064305E-08
       264  13  3.350988E+03 -4.285402E+05 -3.106629E+04  1.040447E+05  4.004373E-09  6.683599E-09
       264  14  3.169945E+03 -4.169490E+05 -4.575512E+04  6.325803E+04 -2.451918E-09  2.198049E-09
       264  15 -7.959672E+04 -4.285873E+05 -9.679633E+04  1.038262E+05  2.671498E-10  2.230685E-09
       264  16 -2.300637E+04 -5.361287E+05 -5.554473E+04  9.260057E+04  1.695551E-09  5.583912E-09
       264  17 -6.547395E+04 -6.956167E+05 -1.097712E+05  7.530280E+04  1.974731E-09 -6.415605E-09
       264  18 -1.923450E+05 -8.801192E+05 -2.075495E+05  1.393548E+05 -1.693899E-11 -7.057559E-09
       264  19  2.970824E+04 -3.209399E+05 -6.587291E+03  1.154909E+05 -4.630822E+03 -2.524612E+04
       264  20  7.180949E+04 -1.382073E+05  1.825904E+04  5.120818E+04 -1.097688E+04 -3.921171E+04
       264  21  3.314184E+04  2.313613E+04  1.394783E+04  6.827205E+04 -4.255350E+03 -5.314664E+04
       264  22  3.351072E+03 -4.285399E+05 -3.106582E+04  1.040447E+05 -4.655008E+03 -1.501661E+04
       264  23  3.170489E+03 -4.169473E+05 -4.575198E+04  6.325837E+04 -1.097768E+04 -3.931905E+04
       264  24 -7.959562E+04 -4.285830E+05 -9.678869E+04  1.038265E+05 -4.231181E+03 -6.358662E+04
       264  25 -2.300634E+04 -5.361286E+05 -5.554464E+04  9.260059E+04 -4.679574E+03 -4.788849E+03
       264  26 -6.547341E+04 -6.956150E+05 -1.097681E+05  7.530315E+04 -1.097849E+04 -3.942634E+04
       264  27 -1.923435E+05 -8.801133E+05 -2.075391E+05  1.393550E+05 -4.208201E+03 -7.401900E+04
       265   1  3.982788E+05  1.328834E+05  7.535018E+04  1.540568E+05  4.215968E+04  1.539921E+04
       265   2  3.869129E+05  6.821376E+04  3.580469E+04  1.546558E+05  2.680685E+04  8.485486E+03
       265   3  3.938703E+05  5.812280E+04  2.205295E+04  1.455536E+05  1.099042E+04  2.795906E+03
       265   4  3.709633E+05  1.024967E+05  6.408360E+04  1.261304E+05  4.099492E+04  1.495607E+04
       265   5  3.584112E+05  5.103738E+04  2.744804E+04  1.401781E+05  2.655038E+04  8.387929E+03
       265   6  3.640034E+05  5.397727E+04  1.588718E+04  1.445241E+05  1.164209E+04  3.043057E+03
       265   7  3.436499E+05  7.211320E+04  5.281728E+04  9.820601E+04  3.983023E+04  1.451304E+04
       265   8  3.299105E+05  3.386159E+04  1.909137E+04  1.257012E+05  2.629391E+04  8.290384E+03
       265   9  3.341373E+05  4.983175E+04  9.721344E+03  1.434947E+05  1.229373E+04  3.290215E+03
       265  10  3.982768E+05  1.328827E+05  7.534640E+04  1.540562E+05 -5.163022E-09 -1.996444E-09
       265  11  3.869121E+05  6.821349E+04  3.580320E+04  1.546557E+05 -2.348468E-09  8.669208E-09
       265  12  3.938702E+05  5.812276E+04  2.205271E+04  1.455535E+05 -8.999710E-10 -1.303365E-09
       265  13  3.709614E+05  1.024960E+05  6.408002E+04  1.261299E+05 -1.927920E-09 -1.356362E-09
       265  14  3.584104E+05  5.103712E+04  2.744658E+04  1.401779E+05 -5.271998E-09 -7.636304E-09
       265  15  3.640033E+05  5.397723E+04  1.588690E+04  1.445241E+05 -1.628046E-09  7.292874E-09
       265  16  3.436481E+05  7.211255E+04  5.281390E+04  9.820555E+04  1.952759E-09  5.214853E-10
       265  17  3.299098E+05  3.386133E+04  1.908994E+04  1.257010E+05 -8.399956E-10  5.208032E-09
       265  18  3.341371E+05  4.983170E+04  9.721040E+03  1.434947E+05 -4.636871E-09  2.461933E-09
       265  19  3.982788E+05  1.328834E+05  7.535018E+04  1.540568E+05 -4.215968E+04 -1.539921E+04
       265  20  3.869129E+05  6.821376E+04  3.580469E+04  1.546558E+05 -2.680685E+04 -8.485486E+03
       265  21  3.938703E+05  5.812280E+04  2.205295E+04  1.455536E+05 -1.099042E+04 -2.795906E+03
       265  22  3.709633E+05  1.024967E+05  6.408360E+04  1.261304E+05 -4.099492E+04 -1.495607E+04
       265  23  3.584112E+05  5.103738E+04  2.744804E+04  1.401781E+05 -2.655038E+04 -8.387929E+03
       265  24  3.640034E+05  5.397727E+04  1.588718E+04  1.445241E+05 -1.164209E+04 -3.043057E+03
       265  25  3.436499E+05  7.211320E+04  5.281728E+04  9.820601E+04 -3.983023E+04 -1.451304E+04
       265  26  3.299105E+05  3.386159E+04  1.909137E+04  1.257012E+05 -2.629391E+04 -8.290384E+03
       265  27  3.341373E+05  4.983175E+04  9.721344E+03  1.434947E+05 -1.229373E+04 -3.290215E+03
       266   1  3.778246E+05  6.655594E+04  1.688742E+04  1.468417E+05  9.118100E+03  2.557600E+03
       266   2  3.703579E+05  5.745345E+04  8.464765E+03  1.430639E+05  5.649644E+03  1.697200E+03
       266   3  3.615825E+05  5.536167E+04  3.549756E+03  1.419990E+05  2.158815E+03  8.960780E+02
       266   4  3.619689E+05  5.940109E+04  1.270302E+04  1.412344E+05  9.390720E+03  2.660911E+03
       266   5  3.623763E+05  5.414710E+04  6.413685E+03  1.405426E+05  5.966295E+03  1.817220E+03
       266   6  3.614664E+05  5.589510E+04  3.597178E+03  1.425638E+05  2.519457E+03  1.032781E+03
       266   7  3.461134E+05  5.224630E+04  8.518595E+03  1.356271E+05  9.663333E+03  2.764218E+03
       266   8  3.543949E+05  5.084077E+04  4.362605E+03  1.380214E+05  6.282941E+03  1.937237E+03
       266   9  3.613503E+05  5.642853E+04  3.644601E+03  1.431287E+05  2.880098E+03  1.169483E+03
       266  10  3.778245E+05  6.655591E+04  1.688725E+04  1.468417E+05 -2.759553E-09  1.070910E-08
       266  11  3.703579E+05  5.745344E+04  8.464699E+03  1.430639E+05  8.167392E-10  1.307670E-08
       266  12  3.615825E+05  5.536166E+04  3.549746E+03  1.419990E+05  1.767315E-09  4.535205E-09
       266  13  3.619688E+05  5.940106E+04  1.270284E+04  1.412343E+05 -3.529038E-09  8.720282E-09
       266  14  3.623763E+05  5.414709E+04  6.413612E+03  1.405426E+05 -2.256493E-09 -1.586155E-08
       266  15  3.614664E+05  5.589509E+04  3.597165E+03  1.425638E+05 -3.536255E-10 -2.994323E-09
       266  16  3.461133E+05  5.224627E+04  8.518405E+03  1.356271E+05 -1.182020E-09 -5.000018E-09
       266  17  3.543948E+05  5.084076E+04  4.362524E+03  1.380214E+05 -3.560195E-09 -3.278282E-09
       266  18  3.613503E+05  5.642852E+04  3.644583E+03  1.431287E+05 -4.846913E-09  2.868735E-09
       266  19  3.778246E+05  6.655594E+04  1.688742E+04  1.468417E+05 -9.118100E+03 -2.557600E+03
       266  20  3.703579E+05  5.745345E+04  8.464765E+03  1.430639E+05 -5.649644E+03 -1.697200E+03
       266  21  3.615825E+05  5.536167E+04  3.549756E+03  1.419990E+05 -2.158815E+03 -8.960780E+02
       266  22  3.619689E+05  5.940109E+04  1.270302E+04  1.412344E+05 -9.390720E+03 -2.660911E+03
       266  23  3.623763E+05  5.414710E+04  6.413685E+03  1.405426E+05 -5.966295E+03 -1.817220E+03
       266  24  3.614664E+05  5.589510E+04  3.597178E+03  1.425638E+05 -2.519457E+03 -1.032781E+03
       266  25  3.461134E+05  5.224630E+04  8.518595E+03  1.356271E+05 -9.663333E+03 -2.764218E+03
       266  26  3.543949E+05  5.084077E+04  4.362605E+03  1.380214E+05 -6.282941E+03 -1.937237E+03
       266  27  3.613503E+05  5.642853E+04  3.644601E+03  1.431287E+05 -2.880098E+03 -1.169483E+03
       267   1  3.529617E+05  5.317596E+04  6.614140E+02  1.400418E+05  1.563321E+03  9.884028E+02
       267   2  3.459404E+05  4.809713E+04 -2.698753E+03  1.359226E+05  6.363986E+02  1.166535E+03
       267   3  3.359456E+05  4.648755E+04 -5.423616E+03  1.353532E+05 -2.917015E+02  1.347818E+03
       267   4  3.612654E+05  5.627345E+04  2.757580E+03  1.423087E+05  1.905669E+03  1.118168E+03
       267   5  3.627350E+05  5.441841E+04  1.494438E+03  1.405796E+05  9.810744E+02  1.297178E+03
       267   6  3.612308E+05  5.603224E+04  8.648119E+02  1.424002E+05  5.529220E+01  1.479334E+03
       267   7  3.695691E+05  5.937095E+04  4.853751E+03  1.445757E+05  2.248024E+03  1.247935E+03
       267   8  3.795299E+05  6.073973E+04  5.687619E+03  1.452367E+05  1.325761E+03  1.427824E+03
       267   9  3.865167E+05  6.557697E+04  7.153192E+03  1.494475E+05  4.023014E+02  1.610857E+03
       267  10  3.529617E+05  5.317596E+04  6.614075E+02  1.400418E+05 -5.306022E-10 -1.602600E-09
       267  11  3.459404E+05  4.809713E+04 -2.698757E+03  1.359226E+05 -1.424844E-09 -4.293603E-09
       267  12  3.359456E+05  4.648755E+04 -5.423620E+03  1.353532E+05  1.019112E-09 -3.911077E-09
       267  13  3.612654E+05  5.627345E+04  2.757571E+03  1.423087E+05  3.817818E-10 -6.938207E-10
       267  14  3.627350E+05  5.441841E+04  1.494433E+03  1.405796E+05  2.002055E-09  1.260286E-09
       267  15  3.612308E+05  5.603223E+04  8.648077E+02  1.424002E+05  9.851436E-10 -1.037781E-08
       267  16  3.695691E+05  5.937095E+04  4.853739E+03  1.445757E+05 -1.376815E-09  1.164046E-09
       267  17  3.795299E+05  6.073973E+04  5.687612E+03  1.452367E+05 -1.804618E-09  9.672675E-09
       267  18  3.865167E+05  6.557696E+04  7.153187E+03  1.494475E+05  1.221776E-09  7.111030E-10
       267  19  3.529617E+05  5.317596E+04  6.614140E+02  1.400418E+05 -1.563321E+03 -9.884028E+02
       267  20  3.459404E+05  4.809713E+04 -2.698753E+03  1.359226E+05 -6.363986E+02 -1.166535E+03
       267  21  3.359456E+05  4.648755E+04 -5.423616E+03  1.353532E+05  2.917015E+02 -1.347818E+03
       267  22  3.612654E+05  5.627345E+04  2.757580E+03  1.423087E+05 -1.905669E+03 -1.118168E+03
       267  23  3.627350E+05  5.441841E+04  1.494438E+03  1.405796E+05 -9.810744E+02 -1.297178E+03
       267  24  3.612308E+05  5.603224E+04  8.648119E+02  1.424002E+05 -5.529220E+01 -1.479334E+03
       267  25  3.695691E+05  5.937095E+04  4.853751E+03  1.445757E+05 -2.248024E+03 -1.247935E+03
       267  26  3.795299E+05  6.073973E+04  5.687619E+03  1.452367E+05 -1.325761E+03 -1.427824E+03
       267  27  3.865167E+05  6.557697E+04  7.153192E+03  1.494475E+05 -4.023014E+02 -1.610857E+03
       268   1  3.278978E+05  4.353517E+04 -7.660411E+03  1.331678E+05 -5.217500E+02  1.571795E+03
       268   2  3.209174E+05  3.871967E+04 -9.982331E+03  1.290068E+05 -9.304941E+02  1.951471E+03
       268   3  3.107898E+05  3.711956E+04 -1.212536E+04  1.284531E+05 -1.339522E+03  2.332026E+03
       268   4  3.612040E+05  5.605777E+04  6.830094E+02  1.423819E+05 -1.752500E+02  1.703118E+03
       268   5  3.627764E+05  5.444298E+04  4.635797E+02  1.405810E+05 -5.833629E+02  2.083020E+03
       268   6  3.612017E+05  5.604341E+04  4.225455E+02  1.423872E+05 -9.917650E+02  2.463800E+03
       268   7  3.945111E+05  6.858040E+04  9.026304E+03  1.515963E+05  1.712689E+02  1.834449E+03
       268   8  4.046372E+05  7.016642E+04  1.090935E+04  1.521558E+05 -2.362061E+02  2.214578E+03
       268   9  4.116162E+05  7.496752E+04  1.297031E+04  1.563224E+05 -6.439752E+02  2.595586E+03
       268  10  3.278978E+05  4.353517E+04 -7.660416E+03  1.331678E+05 -2.946306E-09 -8.007789E-09
       268  11  3.209174E+05  3.871966E+04 -9.982340E+03  1.290068E+05 -3.006484E-09  6.009427E-09
       268  12  3.107898E+05  3.711955E+04 -1.212537E+04  1.284531E+05 -2.837491E-11  1.050365E-08
       268  13  3.612040E+05  5.605777E+04  6.830039E+02  1.423819E+05  3.600863E-09  5.146419E-09
       268  14  3.627764E+05  5.444298E+04  4.635709E+02  1.405810E+05 -1.580674E-09 -5.270202E-09
       268  15  3.612017E+05  5.604340E+04  4.225323E+02  1.423872E+05 -1.949524E-10 -1.561597E-09
       268  16  3.945111E+05  6.858040E+04  9.026298E+03  1.515963E+05  5.122089E-09  2.549498E-09
       268  17  4.046372E+05  7.016641E+04  1.090934E+04  1.521558E+05  1.190812E-09 -8.127286E-09
       268  18  4.116162E+05  7.496751E+04  1.297030E+04  1.563224E+05  1.338443E-09 -7.969860E-09
       268  19  3.278978E+05  4.353517E+04 -7.660411E+03  1.331678E+05  5.217500E+02 -1.571795E+03
       268  20  3.209174E+05  3.871967E+04 -9.982331E+03  1.290068E+05  9.304941E+02 -1.951471E+03
       268  21  3.107898E+05  3.711956E+04 -1.212536E+04  1.284531E+05  1.339522E+03 -2.332026E+03
       268  22  3.612040E+05  5.605777E+04  6.830094E+02  1.423819E+05  1.752500E+02 -1.703118E+03
       268  23  3.627764E+05  5.444298E+04  4.635797E+02  1.405810E+05  5.833629E+02 -2.083020E+03
       268  24  3.612017E+05  5.604341E+04  4.225455E+02  1.423872E+05  9.917650E+02 -2.463800E+03
       268  25  3.945111E+05  6.858040E+04  9.026304E+03  1.515963E+05 -1.712689E+02 -1.834449E+03
       268  26  4.046372E+05  7.016642E+04  1.090935E+04  1.521558E+05  2.362061E+02 -2.214578E+03
       268  27  4.116162E+05  7.496752E+04  1.297031E+04  1.563224E+05  6.439752E+02 -2.595586E+03
       269   1  3.027575E+05  3.410585E+04 -1.415592E+04  1.262533E+05 -1.516714E+03  2.577186E+03
       269   2  2.957274E+05  2.927402E+04 -1.607423E+04  1.220619E+05 -2.020932E+03  2.923716E+03
       269   3  2.855518E+05  2.769246E+04 -1.773887E+04  1.215012E+05 -2.525369E+03  3.271034E+03
       269   4  3.612013E+05  5.604741E+04  4.566629E+02  1.423937E+05 -1.168241E+03  2.709221E+03
       269   5  3.627755E+05  5.443327E+04  6.532002E+02  1.405742E+05 -1.671925E+03  3.055932E+03
       269   6  3.612041E+05  5.606927E+04  1.102966E+03  1.423853E+05 -2.175833E+03  3.403429E+03
       269   7  4.196484E+05  7.798920E+04  1.506897E+04  1.585356E+05 -8.197331E+02  2.841269E+03
       269   8  4.298280E+05  7.959278E+04  1.738024E+04  1.590883E+05 -1.322879E+03  3.188163E+03
       269   9  4.368617E+05  8.444635E+04  1.994426E+04  1.632716E+05 -1.826252E+03  3.535841E+03
       269  10  3.027575E+05  3.410584E+04 -1.415594E+04  1.262533E+05 -1.502511E-09  1.697799E-10
       269  11  2.957274E+05  2.927401E+04 -1.607426E+04  1.220619E+05 -3.314031E-09  1.476607E-09
       269  12  2.855518E+05  2.769245E+04 -1.773890E+04  1.215012E+05  2.652874E-09 -3.528665E-09
       269  13  3.612013E+05  5.604740E+04  4.566465E+02  1.423937E+05 -2.152996E-09  1.938564E-09
       269  14  3.627755E+05  5.443326E+04  6.531773E+02  1.405742E+05 -6.177718E-10 -1.460611E-09
       269  15  3.612041E+05  5.606926E+04  1.102935E+03  1.423853E+05  2.158474E-09 -1.017461E-08
       269  16  4.196484E+05  7.798919E+04  1.506896E+04  1.585356E+05  1.401472E-09  5.871385E-09
       269  17  4.298280E+05  7.959277E+04  1.738022E+04  1.590883E+05  2.967155E-09  3.689214E-09
       269  18  4.368617E+05  8.444634E+04  1.994424E+04  1.632716E+05 -1.399614E-10 -7.507663E-09
       269  19  3.027575E+05  3.410585E+04 -1.415592E+04  1.262533E+05  1.516714E+03 -2.577186E+03
       269  20  2.957274E+05  2.927402E+04 -1.607423E+04  1.220619E+05  2.020932E+03 -2.923716E+03
       269  21  2.855518E+05  2.769246E+04 -1.773887E+04  1.215012E+05  2.525369E+03 -3.271034E+03
       269  22  3.612013E+05  5.604741E+04  4.566629E+02  1.423937E+05  1.168241E+03 -2.709221E+03
       269  23  3.627755E+05  5.443327E+04  6.532002E+02  1.405742E+05  1.671925E+03 -3.055932E+03
       269  24  3.612041E+05  5.606927E+04  1.102966E+03  1.423853E+05  2.175833E+03 -3.403429E+03
       269  25  4.196484E+05  7.798920E+04  1.506897E+04  1.585356E+05  8.197331E+02 -2.841269E+03
       269  26  4.298280E+05  7.959278E+04  1.738024E+04  1.590883E+05  1.322879E+03 -3.188163E+03
       269  27  4.368617E+05  8.444635E+04  1.994426E+04  1.632716E+05  1.826252E+03 -3.535841E+03
       270   1  2.774468E+05  2.466842E+04 -1.948149E+04  1.193789E+05 -2.843308E+03  3.466449E+03
       270   2  2.702896E+05  1.970614E+04 -2.049388E+04  1.150528E+05 -4.300681E+03  3.454725E+03
       270   3  2.602552E+05  1.848286E+04 -2.042166E+04  1.143134E+05 -5.754874E+03  3.434814E+03
       270   4  3.612431E+05  5.603569E+04  1.440387E+03  1.424293E+05 -2.489767E+03  3.600346E+03
       270   5  3.627105E+05  5.437360E+04  2.562181E+03  1.405570E+05 -3.953410E+03  3.586218E+03
       270   6  3.613021E+05  5.645174E+04  4.773480E+03  1.422714E+05 -5.413889E+03  3.563898E+03
       270   7  4.450467E+05  8.740357E+04  2.236181E+04  1.654827E+05 -2.136173E+03  3.734263E+03
       270   8  4.551401E+05  8.904171E+04  2.561763E+04  1.660646E+05 -3.606082E+03  3.717733E+03
       270   9  4.623590E+05  9.442135E+04  2.996783E+04  1.702335E+05 -5.072844E+03  3.693004E+03
       270  10  2.774468E+05  2.466840E+04 -1.948153E+04  1.193789E+05  4.719508E-09  8.756987E-11
       270  11  2.702896E+05  1.970613E+04 -2.049393E+04  1.150528E+05 -8.477231E-10  4.369035E-09
       270  12  2.602552E+05  1.848284E+04 -2.042175E+04  1.143134E+05 -7.793259E-09 -2.304213E-09
       270  13  3.612431E+05  5.603568E+04  1.440351E+03  1.424293E+05  3.088393E-09 -2.655329E-09
       270  14  3.627105E+05  5.437358E+04  2.562128E+03  1.405570E+05  6.302743E-09  2.695975E-10
       270  15  3.613021E+05  5.645172E+04  4.773401E+03  1.422714E+05 -3.867017E-10 -4.160152E-09
       270  16  4.450467E+05  8.740356E+04  2.236178E+04  1.654827E+05 -3.208620E-10 -7.611538E-09
       270  17  4.551400E+05  8.904169E+04  2.561758E+04  1.660646E+05  7.445032E-09  1.318411E-08
       270  18  4.623589E+05  9.442132E+04  2.996776E+04  1.702335E+05  7.370940E-09  5.827906E-09
       270  19  2.774468E+05  2.466842E+04 -1.948149E+04  1.193789E+05  2.843308E+03 -3.466449E+03
       270  20  2.702896E+05  1.970614E+04 -2.049388E+04  1.150528E+05  4.300681E+03 -3.454725E+03
       270  21  2.602552E+05  1.848286E+04 -2.042166E+04  1.143134E+05  5.754874E+03 -3.434814E+03
       270  22  3.612431E+05  5.603569E+04  1.440387E+03  1.424293E+05  2.489767E+03 -3.600346E+03
       270  23  3.627105E+05  5.437360E+04  2.562181E+03  1.405570E+05  3.953410E+03 -3.586218E+03
       270  24  3.613021E+05  5.645174E+04  4.773480E+03  1.422714E+05  5.413889E+03 -3.563898E+03
       270  25  4.450467E+05  8.740357E+04  2.236181E+04  1.654827E+05  2.136173E+03 -3.734263E+03
       270  26  4.551401E+05  8.904171E+04  2.561763E+04  1.660646E+05  3.606082E+03 -3.717733E+03
       270  27  4.623590E+05  9.442135E+04  2.996783E+04  1.702335E+05  5.072844E+03 -3.693004E+03
       271   1  2.516603E+05  1.552737E+04 -2.104609E+04  1.133827E+05 -6.814078E+03  3.378122E+03
       271   2  2.444666E+05  9.205715E+03 -1.831949E+04  1.074505E+05 -1.251901E+04  1.728062E+03
       271   3  2.372157E+05  1.277574E+04 -9.675606E+03  1.036978E+05 -1.814768E+04 -1.229849E+02
       271   4  3.616448E+05  5.580274E+04  6.237851E+03  1.427244E+05 -6.408859E+03  3.531522E+03
       271   5  3.620941E+05  5.388873E+04  1.113786E+04  1.404806E+05 -1.226398E+04  1.824528E+03
       271   6  3.625154E+05  6.189514E+04  2.207333E+04  1.404162E+05 -1.804295E+04 -8.350601E+01
       271   7  4.716407E+05  9.607863E+04  3.352073E+04  1.720707E+05 -6.003563E+03  3.684951E+03
       271   8  4.797352E+05  9.857280E+04  4.059413E+04  1.735164E+05 -1.200890E+04  1.921014E+03
       271   9  4.878311E+05  1.110162E+05  5.382116E+04  1.771415E+05 -1.793820E+04 -4.401718E+01
       271  10  2.516603E+05  1.552734E+04 -2.104620E+04  1.133827E+05 -2.429970E-09  2.427807E-09
       271  11  2.444664E+05  9.205670E+03 -1.831979E+04  1.074505E+05 -2.410213E-09  2.603116E-08
       271  12  2.372153E+05  1.277565E+04 -9.676225E+03  1.036978E+05  6.314230E-10  8.198795E-09
       271  13  3.616448E+05  5.580272E+04  6.237750E+03  1.427244E+05 -3.492685E-09 -4.356937E-09
       271  14  3.620940E+05  5.388869E+04  1.113758E+04  1.404806E+05 -1.254581E-09  1.745225E-08
       271  15  3.625151E+05  6.189505E+04  2.207272E+04  1.404162E+05 -5.690571E-10  1.055943E-08
       271  16  4.716407E+05  9.607861E+04  3.352064E+04  1.720707E+05 -1.461642E-09  4.068793E-09
       271  17  4.797351E+05  9.857275E+04  4.059385E+04  1.735164E+05 -2.315330E-09 -1.233783E-08
       271  18  4.878307E+05  1.110161E+05  5.382055E+04  1.771415E+05 -5.578283E-09  6.790221E-10
       271  19  2.516603E+05  1.552737E+04 -2.104609E+04  1.133827E+05  6.814078E+03 -3.378122E+03
       271  20  2.444666E+05  9.205715E+03 -1.831949E+04  1.074505E+05  1.251901E+04 -1.728062E+03
       271  21  2.372157E+05  1.277574E+04 -9.675606E+03  1.036978E+05  1.814768E+04  1.229849E+02
       271  22  3.616448E+05  5.580274E+04  6.237851E+03  1.427244E+05  6.408859E+03 -3.531522E+03
       271  23  3.620941E+05  5.388873E+04  1.113786E+04  1.404806E+05  1.226398E+04 -1.824528E+03
       271  24  3.625154E+05  6.189514E+04  2.207333E+04  1.404162E+05  1.804295E+04  8.350601E+01
       271  25  4.716407E+05  9.607863E+04  3.352073E+04  1.720707E+05  6.003563E+03 -3.684951E+03
       271  26  4.797352E+05  9.857280E+04  4.059413E+04  1.735164E+05  1.200890E+04 -1.921014E+03
       271  27  4.878311E+05  1.110162E+05  5.382116E+04  1.771415E+05  1.793820E+04  4.401718E+01
       272   1  2.219917E+05  1.068444E+04 -6.020415E+03  1.188992E+05 -2.337920E+04 -1.231024E+03
       272   2  2.195193E+05 -1.367099E+04  1.156924E+04  9.094280E+04 -4.592414E+04 -9.990216E+03
       272   3  2.502434E+05  5.366865E+04  7.027944E+04  4.358702E+04 -6.688233E+04 -2.294078E+04
       272   4  3.660620E+05  5.245964E+04  2.760898E+04  1.461232E+05 -2.197378E+04 -6.985728E+02
       272   5  3.551934E+05  4.848855E+04  4.770212E+04  1.398551E+05 -4.763460E+04 -1.063875E+04
       272   6  3.781287E+05  1.368149E+05  1.113787E+05  1.141907E+05 -7.170847E+04 -2.477177E+04
       272   7  5.101533E+05  9.423468E+04  6.123715E+04  1.733521E+05 -2.056800E+04 -1.660544E+02
       272   8  4.908850E+05  1.106517E+05  8.383318E+04  1.887776E+05 -4.934546E+04 -1.128751E+04
       272   9  5.060310E+05  2.199732E+05  1.524761E+05  1.848095E+05 -7.653561E+04 -2.660382E+04
       272  10  2.219911E+05  1.068429E+04 -6.021445E+03  1.188992E+05 -2.809801E-09  2.424917E-11
       272  11  2.195170E+05 -1.367167E+04  1.156509E+04  9.094243E+04  7.742756E-10 -4.794267E-10
       272  12  2.502385E+05  5.366688E+04  7.027004E+04  4.358578E+04  4.098713E-09  6.508730E-09
       272  13  3.660615E+05  5.245951E+04  2.760807E+04  1.461232E+05 -2.193184E-09 -2.466485E-10
       272  14  3.551909E+05  4.848782E+04  4.769765E+04  1.398547E+05 -5.769887E-09  3.527619E-10
       272  15  3.781230E+05  1.368128E+05  1.113679E+05  1.141892E+05 -1.238721E-09  7.336597E-09
       272  16  5.101528E+05  9.423457E+04  6.123636E+04  1.733521E+05 -4.183818E-09  3.879791E-09
       272  17  4.908824E+05  1.106509E+05  8.382837E+04  1.887772E+05 -5.122344E-09  7.011793E-10
       272  18  5.060245E+05  2.199709E+05  1.524638E+05  1.848079E+05 -7.128656E-09 -2.597157E-09
       272  19  2.219917E+05  1.068444E+04 -6.020415E+03  1.188992E+05  2.337920E+04  1.231024E+03
       272  20  2.195193E+05 -1.367099E+04  1.156924E+04  9.094280E+04  4.592414E+04  9.990216E+03
       272  21  2.502434E+05  5.366865E+04  7.027944E+04  4.358702E+04  6.688233E+04  2.294078E+04
       272  22  3.660620E+05  5.245964E+04  2.760898E+04  1.461232E+05  2.197378E+04  6.985728E+02
       272  23  3.551934E+05  4.848855E+04  4.770212E+04  1.398551E+05  4.763460E+04  1.063875E+04
       272  24  3.781287E+05  1.368149E+05  1.113787E+05  1.141907E+05  7.170847E+04  2.477177E+04
       272  25  5.101533E+05  9.423468E+04  6.123715E+04  1.733521E+05  2.056800E+04  1.660544E+02
       272  26  4.908850E+05  1.106517E+05  8.383318E+04  1.887776E+05  4.934546E+04  1.128751E+04
       272  27  5.060310E+05  2.199732E+05  1.524761E+05  1.848095E+05  7.653561E+04  2.660382E+04
       273   1 -6.960873E+04 -5.205327E+05 -7.626943E+04  2.745051E+04 -1.645783E+03 -3.108485E+04
       273   2 -2.937247E+04 -4.962626E+05 -4.810674E+04  1.323219E+04 -5.226517E+03 -1.774375E+04
       273   3 -2.453006E+04 -4.825060E+05 -3.747542E+04  7.861913E+03 -5.009201E+03 -4.390063E+03
       273   4 -3.353303E+04 -3.760524E+05 -4.100607E+04  1.243309E+04 -1.658558E+03 -2.678428E+04
       273   5  1.439435E+03 -3.710535E+05 -1.950431E+04  8.063584E+03 -5.230326E+03 -1.644737E+04
       273   6  1.543473E+03 -3.760446E+05 -1.344413E+04  1.254258E+04 -5.003961E+03 -6.098377E+03
       273   7  2.541974E+03 -2.315525E+05 -5.744044E+03 -2.587830E+03 -1.671540E+03 -2.248271E+04
       273   8  3.225035E+04 -2.458298E+05  9.097121E+03  2.893936E+03 -5.234156E+03 -1.515073E+04
       273   9  2.761632E+04 -2.695727E+05  1.058645E+04  1.722406E+04 -4.998748E+03 -7.806982E+03
       273  10 -6.960899E+04 -5.205338E+05 -7.627125E+04  2.745047E+04  3.703274E-10  3.365814E-09
       273  11 -2.937259E+04 -4.962629E+05 -4.810739E+04  1.323212E+04 -1.862991E-09  1.914860E-08
       273  12 -2.453009E+04 -4.825060E+05 -3.747550E+04  7.861895E+03  2.627937E-09  1.283886E-08
       273  13 -3.353322E+04 -3.760532E+05 -4.100742E+04  1.243305E+04  3.377981E-09  3.996963E-11
       273  14  1.439333E+03 -3.710538E+05 -1.950487E+04  8.063515E+03  3.218044E-09  5.500059E-09
       273  15  1.543437E+03 -3.760447E+05 -1.344425E+04  1.254255E+04  1.577082E-09 -9.635157E-09
       273  16  2.541835E+03 -2.315530E+05 -5.744999E+03 -2.587860E+03  2.539790E-09 -7.849636E-09
       273  17  3.225026E+04 -2.458300E+05  9.096638E+03  2.893872E+03  8.558073E-09 -9.665623E-09
       273  18  2.761627E+04 -2.695728E+05  1.058629E+04  1.722403E+04 -3.107464E-10 -1.575975E-08
       273  19 -6.960873E+04 -5.205327E+05 -7.626943E+04  2.745051E+04  1.645783E+03  3.108485E+04
       273  20 -2.937247E+04 -4.962626E+05 -4.810674E+04  1.323219E+04  5.226517E+03  1.774375E+04
       273  21 -2.453006E+04 -4.825060E+05 -3.747542E+04  7.861913E+03  5.009201E+03  4.390063E+03
       273  22 -3.353303E+04 -3.760524E+05 -4.100607E+04  1.243309E+04  1.658558E+03  2.678428E+04
       273  23  1.439435E+03 -3.710535E+05 -1.950431E+04  8.063584E+03  5.230326E+03  1.644737E+04
       273  24  1.543473E+03 -3.760446E+05 -1.344413E+04  1.254258E+04  5.003961E+03  6.098377E+03
       273  25  2.541974E+03 -2.315525E+05 -5.744044E+03 -2.587830E+03  1.671540E+03  2.248271E+04
       273  26  3.225035E+04 -2.458298E+05  9.097121E+03  2.893936E+03  5.234156E+03  1.515073E+04
       273  27  2.761632E+04 -2.695727E+05  1.058645E+04  1.722406E+04  4.998748E+03  7.806982E+03
       274   1 -2.406484E+04 -4.635858E+05 -3.238600E+04  1.406057E+04 -4.025254E+03 -3.432783E+03
       274   2 -1.695120E+04 -4.434708E+05 -2.651588E+04  8.120184E+03 -3.256005E+03  2.059808E+03
       274   3 -1.538126E+04 -4.253858E+05 -2.559362E+04  1.127619E+04 -2.325153E+03  7.552953E+03
       274   4 -2.131270E+03 -3.742713E+05 -1.212545E+04  1.256594E+04 -4.023513E+03 -3.991263E+03
       274   5  2.728413E+02 -3.732670E+05 -1.063243E+04  8.016696E+03 -3.253917E+03  1.373991E+03
       274   6 -2.844247E+03 -3.742708E+05 -1.399839E+04  1.256382E+04 -2.322703E+03  6.739634E+03
       274   7  1.980176E+04 -2.849494E+05  8.134595E+03  1.107110E+04 -4.021771E+03 -4.549822E+03
       274   8  1.749655E+04 -3.030587E+05  5.250705E+03  7.913200E+03 -3.251829E+03  6.880966E+02
       274   9  9.692595E+03 -3.231534E+05 -2.403330E+03  1.385157E+04 -2.320255E+03  5.926249E+03
       274  10 -2.406486E+04 -4.635858E+05 -3.238605E+04  1.406056E+04  6.327502E-10 -1.892879E-10
       274  11 -1.695122E+04 -4.434708E+05 -2.651591E+04  8.120189E+03 -1.178372E-09  7.255439E-09
       274  12 -1.538128E+04 -4.253859E+05 -2.559374E+04  1.127620E+04  3.404325E-09  1.225908E-08
       274  13 -2.131292E+03 -3.742713E+05 -1.212551E+04  1.256593E+04 -1.417315E-09  2.158911E-09
       274  14  2.728294E+02 -3.732670E+05 -1.063245E+04  8.016700E+03  2.257101E-11  8.654304E-09
       274  15 -2.844265E+03 -3.742709E+05 -1.399849E+04  1.256384E+04 -1.481194E-10 -1.802613E-08
       274  16  1.980173E+04 -2.849494E+05  8.134525E+03  1.107108E+04 -2.405119E-09 -9.345381E-10
       274  17  1.749654E+04 -3.030587E+05  5.250684E+03  7.913202E+03 -2.903279E-09 -4.002463E-09
       274  18  9.692579E+03 -3.231535E+05 -2.403406E+03  1.385158E+04 -2.430001E-09 -1.143131E-08
       274  19 -2.406484E+04 -4.635858E+05 -3.238600E+04  1.406057E+04  4.025254E+03  3.432783E+03
       274  20 -1.695120E+04 -4.434708E+05 -2.651588E+04  8.120184E+03  3.256005E+03 -2.059808E+03
       274  21 -1.538126E+04 -4.253858E+05 -2.559362E+04  1.127619E+04  2.325153E+03 -7.552953E+03
       274  22 -2.131270E+03 -3.742713E+05 -1.212545E+04  1.256594E+04  4.023513E+03  3.991263E+03
       274  23  2.728413E+02 -3.732670E+05 -1.063243E+04  8.016696E+03  3.253917E+03 -1.373991E+03
       274  24 -2.844247E+03 -3.742708E+05 -1.399839E+04  1.256382E+04  2.322703E+03 -6.739634E+03
       274  25  1.980176E+04 -2.849494E+05  8.134595E+03  1.107110E+04  4.021771E+03  4.549822E+03
       274  26  1.749655E+04 -3.030587E+05  5.250705E+03  7.913200E+03  3.251829E+03 -6.880966E+02
       274  27  9.692595E+03 -3.231534E+05 -2.403330E+03  1.385157E+04  2.320255E+03 -5.926249E+03
       275   1 -6.238466E+03 -4.106836E+05 -2.383400E+04  1.909797E+04 -1.698122E+03  1.006557E+04
       275   2 -1.723130E+03 -3.851464E+05 -2.816396E+04  1.706953E+03 -8.084482E+02  2.301268E+04
       275   3 -4.252622E+04 -3.725587E+05 -5.224061E+04 -6.663752E+03 -2.290371E+02  3.595908E+04
       275   4  2.134656E+03 -3.767098E+05 -1.618735E+04  1.258810E+04 -1.695677E+03  9.208205E+03
       275   5  1.887398E+03 -3.702176E+05 -2.482115E+04  8.009867E+03 -8.063981E+02  2.240075E+04
       275   6 -4.372103E+04 -3.767181E+05 -5.337214E+04  1.245196E+04 -2.268458E+02  3.559220E+04
       275   7  1.050786E+04 -3.427349E+05 -8.540755E+03  6.077875E+03 -1.693214E+03  8.350796E+03
       275   8  5.498061E+03 -3.552886E+05 -2.147833E+04  1.431293E+04 -8.043605E+02  2.178881E+04
       275   9 -4.491447E+04 -3.808768E+05 -5.450348E+04  3.156755E+04 -2.246771E+02  3.522532E+04
       275  10 -6.238497E+03 -4.106837E+05 -2.383420E+04  1.909798E+04  3.271408E-09  7.663693E-09
       275  11 -1.723273E+03 -3.851470E+05 -2.816496E+04  1.706968E+03 -1.054214E-10  7.845452E-09
       275  12 -4.252656E+04 -3.725600E+05 -5.224304E+04 -6.663745E+03 -5.845970E-10  5.342964E-09
       275  13  2.134630E+03 -3.767099E+05 -1.618752E+04  1.258811E+04  1.422934E-10  6.490445E-09
       275  14  1.887263E+03 -3.702182E+05 -2.482210E+04  8.009881E+03 -2.325566E-09  7.512867E-09
       275  15 -4.372137E+04 -3.767195E+05 -5.337452E+04  1.245197E+04  9.147297E-10 -1.174409E-08
       275  16  1.050784E+04 -3.427350E+05 -8.540892E+03  6.077886E+03 -4.306141E-09 -5.555818E-09
       275  17  5.497933E+03 -3.552891E+05 -2.147922E+04  1.431295E+04 -3.249304E-10 -8.284429E-10
       275  18 -4.491480E+04 -3.808781E+05 -5.450581E+04  3.156756E+04 -7.775138E-10 -2.550173E-09
       275  19 -6.238466E+03 -4.106836E+05 -2.383400E+04  1.909797E+04  1.698122E+03 -1.006557E+04
       275  20 -1.723130E+03 -3.851464E+05 -2.816396E+04  1.706953E+03  8.084482E+02 -2.301268E+04
       275  21 -4.252622E+04 -3.725587E+05 -5.224061E+04 -6.663752E+03  2.290371E+02 -3.595908E+04
       275  22  2.134656E+03 -3.767098E+05 -1.618735E+04  1.258810E+04  1.695677E+03 -9.208205E+03
       275  23  1.887398E+03 -3.702176E+05 -2.482115E+04  8.009867E+03  8.063981E+02 -2.240075E+04
       275  24 -4.372103E+04 -3.767181E+05 -5.337214E+04  1.245196E+04  2.268458E+02 -3.559220E+04
       275  25  1.050786E+04 -3.427349E+05 -8.540755E+03  6.077875E+03  1.693214E+03 -8.350796E+03
       275  26  5.498061E+03 -3.552886E+05 -2.147833E+04  1.431293E+04  8.043605E+02 -2.178881E+04
       275  27 -4.491447E+04 -3.808768E+05 -5.450348E+04  3.156755E+04  2.246771E+02 -3.522532E+04
       276   1 -1.874694E+05 -1.171452E+05 -1.034988E+05 -1.283303E+04  1.857798E+04  8.241466E+03
       276   2 -1.377463E+05 -1.499212E+05 -1.116573E+05 -1.340920E+04  1.834537E+04  2.555936E+04
       276   3 -7.627133E+04 -1.367338E+05 -1.081356E+05 -3.977299E+04  1.813133E+04  2.595142E+04
       276   4  4.710208E+05  4.654996E+04  5.685111E+04 -3.266622E+04  3.902001E+04  8.262623E+03
       276   5  4.640039E+05 -2.155247E+03  2.558199E+04 -1.975028E+04  2.537479E+04  2.556356E+04
       276   6  4.710501E+05 -2.593894E+03  1.529362E+04 -3.261952E+04  1.174830E+04  2.594597E+04
       276   7  1.129908E+06  2.102149E+05  2.171714E+05 -5.252061E+04  5.948365E+04  8.282464E+03
       276   8  1.066090E+06  1.455858E+05  1.627979E+05 -2.609764E+04  3.241097E+04  2.556761E+04
       276   9  1.018650E+06  1.315256E+05  1.387039E+05 -2.545971E+04  5.359698E+03  2.594037E+04
       276  10 -1.874698E+05 -1.171453E+05 -1.034996E+05 -1.283315E+04 -2.617660E-11  1.897500E-11
       276  11 -1.377469E+05 -1.499220E+05 -1.116592E+05 -1.340957E+04 -4.773694E-10  3.561225E-11
       276  12 -7.627186E+04 -1.367346E+05 -1.081375E+05 -3.977337E+04  2.607609E-10 -6.393018E-11
       276  13  4.710192E+05  4.654948E+04  5.684812E+04 -3.266648E+04  4.085945E-10  5.659945E-11
       276  14  4.640030E+05 -2.156121E+03  2.557955E+04 -1.975081E+04  1.705286E-11  1.698648E-10
       276  15  4.710497E+05 -2.594654E+03  1.529209E+04 -3.261976E+04  4.957944E-10  1.485176E-11
       276  16  1.129905E+06  2.102139E+05  2.171646E+05 -5.252101E+04 -4.815787E-10  6.161493E-11
       276  17  1.066089E+06  1.455848E+05  1.627947E+05 -2.609831E+04 -1.514706E-10  2.027952E-10
       276  18  1.018650E+06  1.315249E+05  1.387026E+05 -2.545982E+04 -2.164990E-10  1.552568E-12
       276  19 -1.874694E+05 -1.171452E+05 -1.034988E+05 -1.283303E+04 -1.857798E+04 -8.241466E+03
       276  20 -1.377463E+05 -1.499212E+05 -1.116573E+05 -1.340920E+04 -1.834537E+04 -2.555936E+04
       276  21 -7.627133E+04 -1.367338E+05 -1.081356E+05 -3.977299E+04 -1.813133E+04 -2.595142E+04
       276  22  4.710208E+05  4.654996E+04  5.685111E+04 -3.266622E+04 -3.902001E+04 -8.262623E+03
       276  23  4.640039E+05 -2.155247E+03  2.558199E+04 -1.975028E+04 -2.537479E+04 -2.556356E+04
       276  24  4.710501E+05 -2.593894E+03  1.529362E+04 -3.261952E+04 -1.174830E+04 -2.594597E+04
       276  25  1.129908E+06  2.102149E+05  2.171714E+05 -5.252061E+04 -5.948365E+04 -8.282464E+03
       276  26  1.066090E+06  1.455858E+05  1.627979E+05 -2.609764E+04 -3.241097E+04 -2.556761E+04
       276  27  1.018650E+06  1.315256E+05  1.387039E+05 -2.545971E+04 -5.359698E+03 -2.594037E+04
       277   1 -2.957595E+04 -1.190948E+05 -1.005915E+05 -3.184438E+04  1.074939E+04  2.246342E+04
       277   2  2.471590E+04 -1.088160E+05 -9.356368E+04 -1.950095E+04  8.067691E+03  2.052223E+04
       277   3  8.027517E+04 -9.534420E+04 -8.396542E+04 -3.331642E+04  5.384442E+03  1.780810E+04
       277   4  4.682395E+05  3.014043E+03  1.225386E+04 -3.271552E+04  9.524336E+03  2.246150E+04
       277   5  4.675619E+05 -2.489069E+02  6.538903E+03 -1.963604E+04  6.228068E+03  2.052054E+04
       277   6  4.682544E+05 -2.134439E+02  3.819447E+03 -3.271423E+04  2.930485E+03  1.780688E+04
       277   7  9.662850E+05  1.251058E+05  1.250833E+05 -3.358740E+04  8.298306E+03  2.245958E+04
       277   8  9.105901E+05  1.083047E+05  1.066289E+05 -1.977123E+04  4.387144E+03  2.051884E+04
       277   9  8.563735E+05  9.490696E+04  9.159466E+04 -3.211166E+04  4.750084E+02  1.780567E+04
       277  10 -2.957621E+04 -1.190954E+05 -1.005927E+05 -3.184457E+04  3.275721E-11 -7.401670E-12
       277  11  2.471572E+04 -1.088165E+05 -9.356459E+04 -1.950108E+04  3.756489E-10  8.249399E-11
       277  12  8.027505E+04 -9.534455E+04 -8.396607E+04 -3.331650E+04  1.774601E-10  1.310053E-10
       277  13  4.682393E+05  3.013477E+03  1.225274E+04 -3.271570E+04 -2.756063E-10 -7.009929E-11
       277  14  4.675618E+05 -2.493696E+02  6.538039E+03 -1.963614E+04  2.429355E-10  6.484275E-11
       277  15  4.682543E+05 -2.137867E+02  3.818835E+03 -3.271427E+04  1.034444E-10  1.081439E-10
       277  16  9.662848E+05  1.251053E+05  1.250822E+05 -3.358755E+04 -9.067924E-11 -2.402247E-11
       277  17  9.105899E+05  1.083043E+05  1.066281E+05 -1.977131E+04 -1.940982E-10  1.229970E-10
       277  18  8.563734E+05  9.490662E+04  9.159406E+04 -3.211167E+04 -3.374211E-10  6.345750E-11
       277  19 -2.957595E+04 -1.190948E+05 -1.005915E+05 -3.184438E+04 -1.074939E+04 -2.246342E+04
       277  20  2.471590E+04 -1.088160E+05 -9.356368E+04 -1.950095E+04 -8.067691E+03 -2.052223E+04
       277  21  8.027517E+04 -9.534420E+04 -8.396542E+04 -3.331642E+04 -5.384442E+03 -1.780810E+04
       277  22  4.682395E+05  3.014043E+03  1.225386E+04 -3.271552E+04 -9.524336E+03 -2.246150E+04
       277  23  4.675619E+05 -2.489069E+02  6.538903E+03 -1.963604E+04 -6.228068E+03 -2.052054E+04
       277  24  4.682544E+05 -2.134439E+02  3.819447E+03 -3.271423E+04 -2.930485E+03 -1.780688E+04
       277  25  9.662850E+05  1.251058E+05  1.250833E+05 -3.358740E+04 -8.298306E+03 -2.245958E+04
       277  26  9.105901E+05  1.083047E+05  1.066289E+05 -1.977123E+04 -4.387144E+03 -2.051884E+04
       277  27  8.563735E+05  9.490696E+04  9.159466E+04 -3.211166E+04 -4.750084E+02 -1.780567E+04
       278   1  1.288811E+05 -8.294242E+04 -7.352253E+04 -3.272000E+04  4.546843E+03  1.606148E+04
       278   2  1.833605E+05 -6.978899E+04 -6.258496E+04 -1.970773E+04  3.731758E+03  1.325208E+04
       278   3  2.380444E+05 -5.641134E+04 -5.105197E+04 -3.271680E+04  2.915446E+03  1.041148E+04
       278   4  4.680042E+05  1.551426E+02  2.949699E+03 -3.268413E+04  2.334675E+03  1.606065E+04
       278   5  4.679053E+05 -4.434570E+01  1.693114E+03 -1.967383E+04  1.494393E+03  1.325166E+04
       278   6  4.680131E+05 -1.495264E+01  1.049494E+03 -3.268414E+04  6.529530E+02  1.041149E+04
       278   7  8.072343E+05  8.324482E+04  7.941459E+04 -3.264825E+04  1.213115E+02  1.605982E+04
       278   8  7.525253E+05  6.969474E+04  6.596601E+04 -1.963991E+04 -7.439884E+02  1.325124E+04
       278   9  6.980309E+05  5.637780E+04  5.314757E+04 -3.265146E+04 -1.610370E+03  1.041149E+04
       278  10  1.288810E+05 -8.294270E+04 -7.352305E+04 -3.272006E+04 -1.692808E-10  3.647813E-11
       278  11  1.833604E+05 -6.978918E+04 -6.258531E+04 -1.970777E+04  5.605001E-11 -3.489057E-11
       278  12  2.380444E+05 -5.641146E+04 -5.105219E+04 -3.271683E+04  1.135917E-10 -2.899123E-11
       278  13  4.680042E+05  1.548640E+02  2.949203E+03 -3.268416E+04  6.269111E-12  2.636352E-11
       278  14  4.679052E+05 -4.453491E+01  1.692780E+03 -1.967385E+04  5.427961E-10  7.085532E-11
       278  15  4.680131E+05 -1.506918E+01  1.049290E+03 -3.268414E+04 -4.192680E-11 -3.693041E-11
       278  16  8.072342E+05  8.324455E+04  7.941410E+04 -3.264825E+04 -7.883178E-11  2.871496E-11
       278  17  7.525253E+05  6.969455E+04  6.596568E+04 -1.963991E+04 -2.493107E-10  3.456494E-11
       278  18  6.980308E+05  5.637768E+04  5.314736E+04 -3.265145E+04  1.450609E-10  2.455607E-11
       278  19  1.288811E+05 -8.294242E+04 -7.352253E+04 -3.272000E+04 -4.546843E+03 -1.606148E+04
       278  20  1.833605E+05 -6.978899E+04 -6.258496E+04 -1.970773E+04 -3.731758E+03 -1.325208E+04
       278  21  2.380444E+05 -5.641134E+04 -5.105197E+04 -3.271680E+04 -2.915446E+03 -1.041148E+04
       278  22  4.680042E+05  1.551426E+02  2.949699E+03 -3.268413E+04 -2.334675E+03 -1.606065E+04
       278  23  4.679053E+05 -4.434570E+01  1.693114E+03 -1.967383E+04 -1.494393E+03 -1.325166E+04
       278  24  4.680131E+05 -1.495264E+01  1.049494E+03 -3.268414E+04 -6.529530E+02 -1.041149E+04
       278  25  8.072343E+05  8.324482E+04  7.941459E+04 -3.264825E+04 -1.213115E+02 -1.605982E+04
       278  26  7.525253E+05  6.969474E+04  6.596601E+04 -1.963991E+04  7.439884E+02 -1.325124E+04
       278  27  6.980309E+05  5.637780E+04  5.314757E+04 -3.265146E+04  1.610370E+03 -1.041149E+04
       279   1  2.866262E+05 -4.441057E+04 -3.995123E+04 -3.266113E+04  2.729906E+03  8.752883E+03
       279   2  3.409942E+05 -3.112122E+04 -2.802767E+04 -1.968538E+04  2.407969E+03  5.914326E+03
       279   3  3.954113E+05 -1.780592E+04 -1.588890E+04 -3.264365E+04  2.085476E+03  3.076307E+03
       279   4  4.679820E+05  6.972306E+00  8.555220E+02 -3.266482E+04  4.808051E+02  8.753084E+03
       279   5  4.679612E+05 -3.575038E+00  6.500887E+02 -1.969798E+04  1.591140E+02  5.914709E+03
       279   6  4.679859E+05  1.175541E+01  6.595439E+02 -3.266482E+04 -1.631055E+02  3.076884E+03
       279   7  6.493684E+05  4.442226E+04  4.166020E+04 -3.266852E+04 -1.768946E+03  8.753285E+03
       279   8  5.949432E+05  3.111296E+04  2.932683E+04 -1.971058E+04 -2.090197E+03  5.915092E+03
       279   9  5.405653E+05  1.782907E+04  1.720766E+04 -3.268600E+04 -2.411948E+03  3.077460E+03
       279  10  2.866261E+05 -4.441065E+04 -3.995139E+04 -3.266114E+04 -4.101533E-11  1.011681E-10
       279  11  3.409942E+05 -3.112126E+04 -2.802774E+04 -1.968540E+04 -3.875535E-10  1.466416E-10
       279  12  3.954113E+05 -1.780593E+04 -1.588893E+04 -3.264366E+04  1.916920E-10  2.325385E-11
       279  13  4.679820E+05  6.889953E+00  8.553776E+02 -3.266483E+04  8.955811E-14 -7.442360E-12
       279  14  4.679612E+05 -3.612619E+00  6.500229E+02 -1.969798E+04 -1.515706E-10  9.035429E-11
       279  15  4.679858E+05  1.174523E+01  6.595260E+02 -3.266482E+04  1.627479E-10  2.140048E-11
       279  16  6.493684E+05  4.442218E+04  4.166005E+04 -3.266851E+04  3.276256E-10 -9.238357E-11
       279  17  5.949432E+05  3.111293E+04  2.932676E+04 -1.971057E+04  7.826267E-11 -3.999506E-11
       279  18  5.405653E+05  1.782905E+04  1.720764E+04 -3.268599E+04  5.263771E-10 -5.315425E-11
       279  19  2.866262E+05 -4.441057E+04 -3.995123E+04 -3.266113E+04 -2.729906E+03 -8.752883E+03
       279  20  3.409942E+05 -3.112122E+04 -2.802767E+04 -1.968538E+04 -2.407969E+03 -5.914326E+03
       279  21  3.954113E+05 -1.780592E+04 -1.588890E+04 -3.264365E+04 -2.085476E+03 -3.076307E+03
       279  22  4.679820E+05  6.972306E+00  8.555220E+02 -3.266482E+04 -4.808051E+02 -8.753084E+03
       279  23  4.679612E+05 -3.575038E+00  6.500887E+02 -1.969798E+04 -1.591140E+02 -5.914709E+03
       279  24  4.679859E+05  1.175541E+01  6.595439E+02 -3.266482E+04  1.631055E+02 -3.076884E+03
       279  25  6.493684E+05  4.442226E+04  4.166020E+04 -3.266852E+04  1.768946E+03 -8.753285E+03
       279  26  5.949432E+05  3.111296E+04  2.932683E+04 -1.971058E+04  2.090197E+03 -5.915092E+03
       279  27  5.405653E+05  1.782907E+04  1.720766E+04 -3.268600E+04  2.411948E+03 -3.077460E+03
       280   1  4.439296E+05 -5.854513E+03 -4.539820E+03 -3.264132E+04  1.957634E+03  1.425049E+03
       280   2  4.982472E+05  7.418797E+03  7.916622E+03 -1.967897E+04  1.424208E+03 -1.411160E+03
       280   3  5.526359E+05  2.073994E+04  2.072863E+04 -3.262759E+04  8.908613E+02 -4.246519E+03
       280   4  4.679920E+05  1.102295E+01  7.376412E+02 -3.265980E+04 -2.903515E+02  1.425670E+03
       280   5  4.679574E+05 -4.060192E+00  1.075706E+03 -1.970426E+04 -8.231694E+02 -1.410590E+03
       280   6  4.679910E+05  2.878434E+01  1.769063E+03 -3.265978E+04 -1.355863E+03 -4.245988E+03
       280   7  4.920550E+05  5.876523E+03  6.015086E+03 -3.267827E+04 -2.538423E+03  1.426292E+03
       280   8  4.376684E+05 -7.426977E+03 -5.765251E+03 -1.972956E+04 -3.070439E+03 -1.410019E+03
       280   9  3.833528E+05 -2.068286E+04 -1.719094E+04 -3.269197E+04 -3.602284E+03 -4.245456E+03
       280  10  4.439296E+05 -5.854516E+03 -4.539831E+03 -3.264132E+04  2.342483E-11 -4.317957E-11
       280  11  4.982472E+05  7.418794E+03  7.916614E+03 -1.967897E+04 -1.839223E-10 -9.383221E-11
       280  12  5.526359E+05  2.073992E+04  2.072859E+04 -3.262759E+04 -2.053262E-10 -2.296722E-11
       280  13  4.679920E+05  1.102074E+01  7.376373E+02 -3.265980E+04  2.396701E-10  6.988582E-11
       280  14  4.679574E+05 -4.062511E+00  1.075700E+03 -1.970426E+04  1.135305E-10  5.433467E-11
       280  15  4.679910E+05  2.876448E+01  1.769026E+03 -3.265979E+04 -3.378367E-10 -9.714416E-11
       280  16  4.920550E+05  5.876519E+03  6.015070E+03 -3.267827E+04  4.494080E-10  3.304075E-11
       280  17  4.376684E+05 -7.426982E+03 -5.765272E+03 -1.972956E+04 -6.942304E-12  1.858100E-10
       280  18  3.833527E+05 -2.068288E+04 -1.719099E+04 -3.269198E+04 -2.617718E-10 -2.738092E-10
       280  19  4.439296E+05 -5.854513E+03 -4.539820E+03 -3.264132E+04 -1.957634E+03 -1.425049E+03
       280  20  4.982472E+05  7.418797E+03  7.916622E+03 -1.967897E+04 -1.424208E+03  1.411160E+03
       280  21  5.526359E+05  2.073994E+04  2.072863E+04 -3.262759E+04 -8.908613E+02  4.246519E+03
       280  22  4.679920E+05  1.102295E+01  7.376412E+02 -3.265980E+04  2.903515E+02 -1.425670E+03
       280  23  4.679574E+05 -4.060192E+00  1.075706E+03 -1.970426E+04  8.231694E+02  1.410590E+03
       280  24  4.679910E+05  2.878434E+01  1.769063E+03 -3.265978E+04  1.355863E+03  4.245988E+03
       280  25  4.920550E+05  5.876523E+03  6.015086E+03 -3.267827E+04  2.538423E+03 -1.426292E+03
       280  26  4.376684E+05 -7.426977E+03 -5.765251E+03 -1.972956E+04  3.070439E+03  1.410019E+03
       280  27  3.833528E+05 -2.068286E+04 -1.719094E+04 -3.269197E+04  3.602284E+03  4.245456E+03
       281   1  6.012526E+05  3.264628E+04  3.252934E+04 -3.255818E+04  5.349750E+02 -5.901438E+03
       281   2  6.555096E+05  4.591621E+04  4.630967E+04 -1.963320E+04 -1.441090E+03 -8.735726E+03
       281   3  7.101733E+05  5.973886E+04  6.151493E+04 -3.266798E+04 -3.416527E+03 -1.154246E+04
       281   4  4.680625E+05 -2.255855E+01  2.294774E+03 -3.267074E+04 -1.722476E+03 -5.901006E+03
       281   5  4.678587E+05 -6.578351E+01  3.931340E+03 -1.969057E+04 -3.676234E+03 -8.735581E+03
       281   6  4.680562E+05  4.403980E+02  6.978079E+03 -3.267065E+04 -5.629194E+03 -1.154259E+04
       281   7  3.348887E+05 -3.269262E+04 -2.794092E+04 -3.278327E+04 -3.979448E+03 -5.900574E+03
       281   8  2.802405E+05 -4.605019E+04 -3.844923E+04 -1.974792E+04 -5.910709E+03 -8.735435E+03
       281   9  2.259935E+05 -5.886208E+04 -4.756250E+04 -3.267331E+04 -7.841008E+03 -1.154271E+04
       281  10  6.012526E+05  3.264624E+04  3.252927E+04 -3.255817E+04 -1.616583E-10 -6.640850E-11
       281  11  6.555096E+05  4.591613E+04  4.630953E+04 -1.963321E+04  2.092215E-10 -4.029351E-11
       281  12  7.101733E+05  5.973871E+04  6.151466E+04 -3.266801E+04  6.206002E-10  1.989553E-10
       281  13  4.680624E+05 -2.259674E+01  2.294703E+03 -3.267074E+04 -2.271207E-10 -2.004741E-10
       281  14  4.678587E+05 -6.586910E+01  3.931171E+03 -1.969060E+04  4.419337E-10  2.352899E-11
       281  15  4.680561E+05  4.402464E+02  6.977769E+03 -3.267070E+04  1.428932E-10  1.428734E-10
       281  16  3.348887E+05 -3.269266E+04 -2.794101E+04 -3.278329E+04  4.307665E-10 -2.642837E-10
       281  17  2.802405E+05 -4.605028E+04 -3.844944E+04 -1.974796E+04 -3.545158E-11  1.335406E-10
       281  18  2.259933E+05 -5.886224E+04 -4.756287E+04 -3.267338E+04 -3.130452E-10  1.695671E-10
       281  19  6.012526E+05  3.264628E+04  3.252934E+04 -3.255818E+04 -5.349750E+02  5.901438E+03
       281  20  6.555096E+05  4.591621E+04  4.630967E+04 -1.963320E+04  1.441090E+03  8.735726E+03
       281  21  7.101733E+05  5.973886E+04  6.151493E+04 -3.266798E+04  3.416527E+03  1.154246E+04
       281  22  4.680625E+05 -2.255855E+01  2.294774E+03 -3.267074E+04  1.722476E+03  5.901006E+03
       281  23  4.678587E+05 -6.578351E+01  3.931340E+03 -1.969057E+04  3.676234E+03  8.735581E+03
       281  24  4.680562E+05  4.403980E+02  6.978079E+03 -3.267065E+04  5.629194E+03  1.154259E+04
       281  25  3.348887E+05 -3.269262E+04 -2.794092E+04 -3.278327E+04  3.979448E+03  5.900574E+03
       281  26  2.802405E+05 -4.605019E+04 -3.844923E+04 -1.974792E+04  5.910709E+03  8.735435E+03
       281  27  2.259935E+05 -5.886208E+04 -4.756250E+04 -3.267331E+04  7.841008E+03  1.154271E+04
       282   1  7.594803E+05  7.085160E+04  7.488188E+04 -3.138010E+04 -4.622667E+03 -1.327083E+04
       282   2  8.126248E+05  8.417578E+04  9.367687E+04 -2.025442E+04 -1.302164E+04 -1.599483E+04
       282   3  8.689250E+05  1.054826E+05  1.199443E+05 -3.517854E+04 -2.142036E+04 -1.805819E+04
       282   4  4.686417E+05 -4.386725E+02  9.066180E+03 -3.269041E+04 -7.041620E+03 -1.327119E+04
       282   5  4.671034E+05 -4.920674E+02  1.560689E+04 -1.966574E+04 -1.491296E+04 -1.599569E+04
       282   6  4.686279E+05  7.348395E+03  2.925692E+04 -3.269158E+04 -2.278331E+04 -1.805942E+04
       282   7  1.778815E+05 -7.173475E+04 -5.675494E+04 -3.400010E+04 -9.459451E+03 -1.327154E+04
       282   8  1.216927E+05 -8.516811E+04 -6.247074E+04 -1.907740E+04 -1.680324E+04 -1.599656E+04
       282   9  6.847945E+04 -9.079684E+04 -6.144073E+04 -3.020624E+04 -2.414539E+04 -1.806066E+04
       282  10  7.594803E+05  7.085140E+04  7.488151E+04 -3.138015E+04  1.033657E-10  1.252518E-10
       282  11  8.126246E+05  8.417546E+04  9.367607E+04 -2.025459E+04 -9.342465E-11 -4.500688E-11
       282  12  8.689244E+05  1.054822E+05  1.199428E+05 -3.517885E+04  1.845810E-10  2.146173E-10
       282  13  4.686416E+05 -4.388749E+02  9.065756E+03 -3.269049E+04 -6.717705E-11  6.678284E-11
       282  14  4.671031E+05 -4.924019E+02  1.560599E+04 -1.966594E+04  5.595710E-10 -5.664316E-11
       282  15  4.686273E+05  7.347905E+03  2.925533E+04 -3.269191E+04  4.334589E-10  4.217987E-11
       282  16  1.778814E+05 -7.173496E+04 -5.675544E+04 -3.400020E+04 -1.687477E-10  2.423506E-11
       282  17  1.216924E+05 -8.516846E+04 -6.247175E+04 -1.907762E+04  3.164766E-11 -2.259557E-10
       282  18  6.847873E+04 -9.079735E+04 -6.144244E+04 -3.020659E+04  2.439512E-10 -7.399193E-11
       282  19  7.594803E+05  7.085160E+04  7.488188E+04 -3.138010E+04  4.622667E+03  1.327083E+04
       282  20  8.126248E+05  8.417578E+04  9.367687E+04 -2.025442E+04  1.302164E+04  1.599483E+04
       282  21  8.689250E+05  1.054826E+05  1.199443E+05 -3.517854E+04  2.142036E+04  1.805819E+04
       282  22  4.686417E+05 -4.386725E+02  9.066180E+03 -3.269041E+04  7.041620E+03  1.327119E+04
       282  23  4.671034E+05 -4.920674E+02  1.560689E+04 -1.966574E+04  1.491296E+04  1.599569E+04
       282  24  4.686279E+05  7.348395E+03  2.925692E+04 -3.269158E+04  2.278331E+04  1.805942E+04
       282  25  1.778815E+05 -7.173475E+04 -5.675494E+04 -3.400010E+04  9.459451E+03  1.327154E+04
       282  26  1.216927E+05 -8.516811E+04 -6.247074E+04 -1.907740E+04  1.680324E+04  1.599656E+04
       282  27  6.847945E+04 -9.079684E+04 -6.144073E+04 -3.020624E+04  2.414539E+04  1.806066E+04
       283   1  9.248661E+05  1.040848E+05  1.378490E+05 -1.602988E+04 -2.231975E+04 -2.127230E+04
       283   2  9.625688E+05  1.186889E+05  1.760061E+05 -3.566889E+04 -6.637567E+04 -2.135953E+04
       283   3  1.035435E+06  2.504708E+05  2.721417E+05 -8.106254E+04 -1.104468E+05 -6.984290E+03
       283   4  4.753193E+05 -6.033813E+03  3.651616E+04 -3.260580E+04 -2.809519E+04 -2.127472E+04
       283   5  4.587015E+05 -4.955013E+03  6.114513E+04 -1.976528E+04 -6.066250E+04 -2.135940E+04
       283   6  4.752790E+05  1.113566E+05  1.358093E+05 -3.267664E+04 -9.324023E+04 -6.980983E+03
       283   7  2.596078E+04 -1.161652E+05 -6.482933E+04 -4.916961E+04 -3.386648E+04 -2.127684E+04
       283   8 -4.493014E+04 -1.286155E+05 -5.373212E+04 -3.874707E+03 -5.495390E+04 -2.135898E+04
       283   9 -8.458552E+04 -2.777175E+04 -5.435416E+02  1.566550E+04 -7.604912E+04 -6.974999E+03
       283  10  9.248654E+05  1.040841E+05  1.378472E+05 -1.603026E+04  7.427569E-10  3.329272E-10
       283  11  9.625639E+05  1.186872E+05  1.759970E+05 -3.567003E+04  4.597214E-10  3.618384E-11
       283  12  1.035422E+06  2.504675E+05  2.721187E+05 -8.106316E+04  2.452859E-10 -1.393345E-10
       283  13  4.753183E+05 -6.034510E+03  3.651383E+04 -3.260628E+04  2.692304E-10  1.779806E-10
       283  14  4.586974E+05 -4.956490E+03  6.113736E+04 -1.976633E+04  2.532572E-10  5.050295E-11
       283  15  4.752696E+05  1.113542E+05  1.357928E+05 -3.267717E+04 -3.293050E-10  1.577721E-11
       283  16  2.595943E+04 -1.161660E+05 -6.483234E+04 -4.917019E+04 -1.345952E-10  1.360830E-10
       283  17 -4.493351E+04 -1.286168E+05 -5.373865E+04 -3.875653E+03 -4.967662E-10  4.529146E-10
       283  18 -8.459175E+04 -2.777336E+04 -5.545026E+02  1.566508E+04 -4.623245E-10  1.197908E-10
       283  19  9.248661E+05  1.040848E+05  1.378490E+05 -1.602988E+04  2.231975E+04  2.127230E+04
       283  20  9.625688E+05  1.186889E+05  1.760061E+05 -3.566889E+04  6.637567E+04  2.135953E+04
       283  21  1.035435E+06  2.504708E+05  2.721417E+05 -8.106254E+04  1.104468E+05  6.984290E+03
       283  22  4.753193E+05 -6.033813E+03  3.651616E+04 -3.260580E+04  2.809519E+04  2.127472E+04
       283  23  4.587015E+05 -4.955013E+03  6.114513E+04 -1.976528E+04  6.066250E+04  2.135940E+04
       283  24  4.752790E+05  1.113566E+05  1.358093E+05 -3.267664E+04  9.324023E+04  6.980983E+03
       283  25  2.596078E+04 -1.161652E+05 -6.482933E+04 -4.916961E+04  3.386648E+04  2.127684E+04
       283  26 -4.493014E+04 -1.286155E+05 -5.373212E+04 -3.874707E+03  5.495390E+04  2.135898E+04
       283  27 -8.458552E+04 -2.777175E+04 -5.435416E+02  1.566550E+04  7.604912E+04  6.974999E+03
       284   1  1.478111E+05  8.976217E+05  1.585818E+05 -9.040788E+04  3.701119E+03  5.821084E+04
       284   2  5.961534E+04  7.811688E+05  8.902458E+04 -4.811870E+04  1.022307E+04  3.355512E+04
       284   3  3.273467E+04  6.831113E+05  5.080508E+04 -5.647044E+04  6.661731E+03  8.889685E+03
       284   4  5.807889E+04  5.371773E+05  7.047945E+04 -6.477636E+04  3.716122E+03  4.905476E+04
       284   5 -2.429255E+03  5.286879E+05  3.124258E+04 -3.949890E+04  1.022547E+04  3.240215E+04
       284   6 -2.995297E+03  5.372079E+05  1.780308E+04 -6.486067E+04  6.651053E+03  1.573551E+04
       284   7 -3.166041E+04  1.768528E+05 -1.763170E+04 -3.915969E+04  3.730374E+03  3.990397E+04
       284   8 -6.447801E+04  2.762661E+05 -2.654356E+04 -3.088260E+04  1.022784E+04  3.124965E+04
       284   9 -3.872643E+04  3.913244E+05 -1.520007E+04 -7.324891E+04  6.640187E+03  2.257974E+04
       284  10  1.478101E+05  8.976180E+05  1.585754E+05 -9.040805E+04  4.635417E-11 -2.648932E-10
       284  11  5.961493E+04  7.811676E+05  8.902227E+04 -4.811898E+04 -3.479995E-10  1.241567E-10
       284  12  3.273460E+04  6.831112E+05  5.080484E+04 -5.647049E+04  7.794651E-10  5.038342E-10
       284  13  5.807823E+04  5.371748E+05  7.047491E+04 -6.477651E+04  3.846720E-10 -1.341024E-10
       284  14 -2.429649E+03  5.286868E+05  3.124041E+04 -3.949916E+04 -1.370049E-09  1.899254E-10
       284  15 -2.995411E+03  5.372076E+05  1.780253E+04 -6.486076E+04  5.962546E-10  2.657754E-11
       284  16 -3.166085E+04  1.768511E+05 -1.763472E+04 -3.915981E+04 -3.074367E-10  2.221927E-10
       284  17 -6.447838E+04  2.762651E+05 -2.654559E+04 -3.088286E+04  1.840772E-12 -6.133188E-11
       284  18 -3.872661E+04  3.913239E+05 -1.520111E+04 -7.324903E+04  9.732953E-11 -5.633260E-10
       284  19  1.478111E+05  8.976217E+05  1.585818E+05 -9.040788E+04 -3.701119E+03 -5.821084E+04
       284  20  5.961534E+04  7.811688E+05  8.902458E+04 -4.811870E+04 -1.022307E+04 -3.355512E+04
       284  21  3.273467E+04  6.831113E+05  5.080508E+04 -5.647044E+04 -6.661731E+03 -8.889685E+03
       284  22  5.807889E+04  5.371773E+05  7.047945E+04 -6.477636E+04 -3.716122E+03 -4.905476E+04
       284  23 -2.429255E+03  5.286879E+05  3.124258E+04 -3.949890E+04 -1.022547E+04 -3.240215E+04
       284  24 -2.995297E+03  5.372079E+05  1.780308E+04 -6.486067E+04 -6.651053E+03 -1.573551E+04
       284  25 -3.166041E+04  1.768528E+05 -1.763170E+04 -3.915969E+04 -3.730374E+03 -3.990397E+04
       284  26 -6.447801E+04  2.762661E+05 -2.654356E+04 -3.088260E+04 -1.022784E+04 -3.124965E+04
       284  27 -3.872643E+04  3.913244E+05 -1.520007E+04 -7.324891E+04 -6.640187E+03 -2.257974E+04
       285   1  1.639770E+04  5.837114E+05  2.495919E+04 -6.606605E+04  2.265122E+03  9.263107E+03
       285   2 -1.400969E+04  4.761831E+05 -7.597396E+03 -3.977997E+04 -2.646271E+03  6.690949E+03
       285   3 -4.158081E+04  3.695252E+05 -3.781527E+04 -6.449874E+04 -7.428701E+03  4.119846E+03
       285   4  4.114587E+03  5.336247E+05  1.362024E+04 -6.491424E+04  2.258914E+03  1.320978E+04
       285   5 -4.051116E+01  5.331852E+05  5.285736E+03 -3.941620E+04 -2.652162E+03  1.053571E+04
       285   6 -1.340638E+03  5.336240E+05 -6.377832E+02 -6.492260E+04 -7.434315E+03  7.862268E+03
       285   7 -8.168681E+03  4.835403E+05  2.281181E+03 -6.376251E+04  2.252721E+03  1.715614E+04
       285   8  1.392846E+04  5.901903E+05  1.816872E+04 -3.905240E+04 -2.658048E+03  1.438083E+04
       285   9  3.889769E+04  6.977479E+05  3.653802E+04 -6.534657E+04 -7.439932E+03  1.160567E+04
       285  10  1.639767E+04  5.837113E+05  2.495902E+04 -6.606607E+04  1.437406E-10 -5.625202E-10
       285  11 -1.400971E+04  4.761830E+05 -7.597493E+03 -3.977995E+04  2.915279E-10 -3.218692E-10
       285  12 -4.158087E+04  3.695252E+05 -3.781541E+04 -6.449871E+04 -7.944056E-10  1.301916E-10
       285  13  4.114535E+03  5.336245E+05  1.361990E+04 -6.491426E+04  2.993701E-10 -1.641187E-11
       285  14 -4.054848E+01  5.331850E+05  5.285515E+03 -3.941618E+04  8.228400E-10 -1.437481E-10
       285  15 -1.340714E+03  5.336240E+05 -6.380031E+02 -6.492255E+04  8.357179E-10 -1.067560E-10
       285  16 -8.168766E+03  4.835400E+05  2.280619E+03 -6.376255E+04  1.093628E-10  5.731392E-10
       285  17  1.392839E+04  5.901901E+05  1.816831E+04 -3.905237E+04 -9.124966E-10  3.405272E-10
       285  18  3.889759E+04  6.977477E+05  3.653767E+04 -6.534650E+04 -3.759877E-10 -1.288290E-11
       285  19  1.639770E+04  5.837114E+05  2.495919E+04 -6.606605E+04 -2.265122E+03 -9.263107E+03
       285  20 -1.400969E+04  4.761831E+05 -7.597396E+03 -3.977997E+04  2.646271E+03 -6.690949E+03
       285  21 -4.158081E+04  3.695252E+05 -3.781527E+04 -6.449874E+04  7.428701E+03 -4.119846E+03
       285  22  4.114587E+03  5.336247E+05  1.362024E+04 -6.491424E+04 -2.258914E+03 -1.320978E+04
       285  23 -4.051116E+01  5.331852E+05  5.285736E+03 -3.941620E+04  2.652162E+03 -1.053571E+04
       285  24 -1.340638E+03  5.336240E+05 -6.377832E+02 -6.492260E+04  7.434315E+03 -7.862268E+03
       285  25 -8.168681E+03  4.835403E+05  2.281181E+03 -6.376251E+04 -2.252721E+03 -1.715614E+04
       285  26  1.392846E+04  5.901903E+05  1.816872E+04 -3.905240E+04  2.658048E+03 -1.438083E+04
       285  27  3.889769E+04  6.977479E+05  3.653802E+04 -6.534657E+04  7.439932E+03 -1.160567E+04
       286   1 -6.225814E+04  2.721899E+05 -6.179430E+04 -6.163363E+04 -1.211059E+04  5.501426E+02
       286   2 -8.911354E+04  1.684910E+05 -9.300718E+04 -4.193732E+04 -1.519049E+04  1.576391E+04
       286   3 -1.376029E+05  5.731915E+04 -1.395541E+05 -7.289481E+04 -5.338147E+03  3.099041E+04
       286   4  1.466026E+03  5.321508E+05 -3.074257E+03 -6.483414E+04 -1.212147E+04  8.097899E+03
       286   5  9.049722E+02  5.349945E+05 -9.238843E+03 -3.952079E+04 -1.518621E+04  1.307030E+04
       286   6 -1.950526E+04  5.321351E+05 -2.362353E+04 -6.486051E+04 -5.321837E+03  1.805834E+04
       286   7  6.518562E+04  7.921746E+05  5.564167E+04 -6.803599E+04 -1.213243E+04  1.564878E+04
       286   8  9.091419E+04  9.016223E+05  7.452073E+04 -3.710277E+04 -1.518196E+04  1.037511E+04
       286   9  9.857611E+04  1.007157E+06  9.229124E+04 -5.681998E+04 -5.305868E+03  5.116403E+03
       286  10 -6.225829E+04  2.721898E+05 -6.179458E+04 -6.163362E+04  1.456816E-12 -8.136603E-12
       286  11 -8.911385E+04  1.684907E+05 -9.300808E+04 -4.193713E+04  3.217349E-10  7.424469E-11
       286  12 -1.376032E+05  5.731811E+04 -1.395559E+05 -7.289468E+04 -1.928508E-10  1.295293E-10
       286  13  1.465851E+03  5.321507E+05 -3.074657E+03 -6.483406E+04 -1.030013E-09  1.972154E-10
       286  14  9.046787E+02  5.349942E+05 -9.239597E+03 -3.952063E+04  4.917282E-10 -6.731037E-11
       286  15 -1.950538E+04  5.321348E+05 -2.362420E+04 -6.486043E+04 -2.843719E-10  5.194901E-11
       286  16  6.518539E+04  7.921743E+05  5.564093E+04 -6.803583E+04  3.035022E-10 -2.633171E-11
       286  17  9.091391E+04  9.016222E+05  7.452010E+04 -3.710265E+04  4.720171E-11 -1.316651E-10
       286  18  9.857607E+04  1.007157E+06  9.229114E+04 -5.681996E+04 -4.690536E-10 -1.461542E-11
       286  19 -6.225814E+04  2.721899E+05 -6.179430E+04 -6.163363E+04  1.211059E+04 -5.501426E+02
       286  20 -8.911354E+04  1.684910E+05 -9.300718E+04 -4.193732E+04  1.519049E+04 -1.576391E+04
       286  21 -1.376029E+05  5.731915E+04 -1.395541E+05 -7.289481E+04  5.338147E+03 -3.099041E+04
       286  22  1.466026E+03  5.321508E+05 -3.074257E+03 -6.483414E+04  1.212147E+04 -8.097899E+03
       286  23  9.049722E+02  5.349945E+05 -9.238843E+03 -3.952079E+04  1.518621E+04 -1.307030E+04
       286  24 -1.950526E+04  5.321351E+05 -2.362353E+04 -6.486051E+04  5.321837E+03 -1.805834E+04
       286  25  6.518562E+04  7.921746E+05  5.564167E+04 -6.803599E+04  1.213243E+04 -1.564878E+04
       286  26  9.091419E+04  9.016223E+05  7.452073E+04 -3.710277E+04  1.518196E+04 -1.037511E+04
       286  27  9.857611E+04  1.007157E+06  9.229124E+04 -5.681998E+04  5.305868E+03 -5.116403E+03
       287   1 -8.451813E+05 -3.732984E+05 -2.594076E+05 -2.979811E+05 -1.093704E+05 -3.479400E+04
       287   2 -8.111604E+05 -2.179570E+05 -1.602060E+05 -2.953219E+05 -7.107992E+04 -6.970329E+03
       287   3 -8.177589E+05 -1.930629E+05 -1.257074E+05 -2.736606E+05 -2.848115E+04  9.414672E+03
       287   4 -4.642784E+05 -1.836567E+05 -1.481607E+05 -1.467994E+05 -9.646579E+04 -2.994831E+04
       287   5 -4.368512E+05 -6.308276E+04 -6.345248E+04 -1.774335E+05 -6.663060E+04 -5.299814E+03
       287   6 -4.483386E+05 -7.123945E+04 -3.671448E+04 -1.890752E+05 -3.248944E+04  7.907768E+03
       287   7 -8.323174E+04  6.027533E+03 -3.692770E+04  4.475894E+03 -8.355263E+04 -2.509696E+04
       287   8 -6.240442E+04  9.180935E+04  3.328929E+04 -5.947774E+04 -6.217834E+04 -3.627928E+03
       287   9 -7.878334E+04  5.058646E+04  5.226900E+04 -1.044472E+05 -3.650035E+04  6.400143E+03
       287  10 -8.451944E+05 -3.733029E+05 -2.594324E+05 -2.979842E+05  6.893695E-10 -2.130169E-11
       287  11 -8.111659E+05 -2.179584E+05 -1.602156E+05 -2.953223E+05 -9.781827E-10 -2.647566E-10
       287  12 -8.177598E+05 -1.930632E+05 -1.257091E+05 -2.736604E+05  7.536583E-11 -3.863101E-11
       287  13 -4.642887E+05 -1.836602E+05 -1.481799E+05 -1.468017E+05 -7.367649E-10 -1.934780E-10
       287  14 -4.368560E+05 -6.308398E+04 -6.346088E+04 -1.774338E+05 -8.834196E-10 -2.494762E-10
       287  15 -4.483398E+05 -7.123980E+04 -3.671658E+04 -1.890750E+05 -4.820633E-10  3.041167E-11
       287  16 -8.323941E+04  6.024982E+03 -3.694200E+04  4.474205E+03 -5.281221E-10 -2.327952E-10
       287  17 -6.240858E+04  9.180830E+04  3.328200E+04 -5.947792E+04 -1.595871E-10 -2.954237E-10
       287  18 -7.878478E+04  5.058606E+04  5.226642E+04 -1.044470E+05 -1.462047E-10  9.550565E-11
       287  19 -8.451813E+05 -3.732984E+05 -2.594076E+05 -2.979811E+05  1.093704E+05  3.479400E+04
       287  20 -8.111604E+05 -2.179570E+05 -1.602060E+05 -2.953219E+05  7.107992E+04  6.970329E+03
       287  21 -8.177589E+05 -1.930629E+05 -1.257074E+05 -2.736606E+05  2.848115E+04 -9.414672E+03
       287  22 -4.642784E+05 -1.836567E+05 -1.481607E+05 -1.467994E+05  9.646579E+04  2.994831E+04
       287  23 -4.368512E+05 -6.308276E+04 -6.345248E+04 -1.774335E+05  6.663060E+04  5.299814E+03
       287  24 -4.483386E+05 -7.123945E+04 -3.671448E+04 -1.890752E+05  3.248944E+04 -7.907768E+03
       287  25 -8.323174E+04  6.027533E+03 -3.692770E+04  4.475894E+03  8.355263E+04  2.509696E+04
       287  26 -6.240442E+04  9.180935E+04  3.328929E+04 -5.947774E+04  6.217834E+04  3.627928E+03
       287  27 -7.878334E+04  5.058646E+04  5.226900E+04 -1.044472E+05  3.650035E+04 -6.400143E+03
       288   1 -7.723894E+05 -2.096051E+05 -1.121775E+05 -2.745781E+05 -2.633887E+04  7.692714E+03
       288   2 -7.478845E+05 -1.835901E+05 -9.025164E+04 -2.615470E+05 -1.801254E+04  9.777417E+03
       288   3 -7.171379E+05 -1.770635E+05 -7.667149E+04 -2.585520E+05 -9.475232E+03  1.129980E+04
       288   4 -4.435148E+05 -8.391624E+04 -2.935602E+04 -1.816219E+05 -2.681638E+04  7.512421E+03
       288   5 -4.460984E+05 -7.013923E+04 -1.481771E+04 -1.781329E+05 -1.890263E+04  9.442409E+03
       288   6 -4.423568E+05 -7.576585E+04 -8.294537E+03 -1.846806E+05 -1.077831E+04  1.081002E+04
       288   7 -1.145355E+05  4.178061E+04  5.345648E+04 -8.862089E+04 -2.729417E+04  7.332021E+03
       288   8 -1.442229E+05  4.331800E+04  6.060907E+04 -9.468193E+04 -1.979320E+04  9.107220E+03
       288   9 -1.675005E+05  2.553673E+04  6.007687E+04 -1.107795E+05 -1.208202E+04  1.032001E+04
       288  10 -7.723901E+05 -2.096054E+05 -1.121789E+05 -2.745780E+05 -9.764476E-11  2.256781E-10
       288  11 -7.478849E+05 -1.835903E+05 -9.025243E+04 -2.615469E+05 -1.043759E-10  2.031093E-10
       288  12 -7.171380E+05 -1.770636E+05 -7.667190E+04 -2.585520E+05 -2.382662E-10 -4.170555E-11
       288  13 -4.435156E+05 -8.391649E+04 -2.935748E+04 -1.816217E+05 -6.808589E-11  2.494276E-10
       288  14 -4.460988E+05 -7.013943E+04 -1.481855E+04 -1.781328E+05  1.659009E-10  1.960734E-10
       288  15 -4.423570E+05 -7.576600E+04 -8.294975E+03 -1.846805E+05  6.323626E-11  3.855784E-11
       288  16 -1.145363E+05  4.178035E+04  5.345498E+04 -8.862072E+04 -6.073152E-11  1.198568E-10
       288  17 -1.442233E+05  4.331780E+04  6.060818E+04 -9.468179E+04 -1.981455E-10  1.842828E-10
       288  18 -1.675007E+05  2.553658E+04  6.007639E+04 -1.107794E+05 -1.527675E-10 -1.585618E-10
       288  19 -7.723894E+05 -2.096051E+05 -1.121775E+05 -2.745781E+05  2.633887E+04 -7.692714E+03
       288  20 -7.478845E+05 -1.835901E+05 -9.025164E+04 -2.615470E+05  1.801254E+04 -9.777417E+03
       288  21 -7.171379E+05 -1.770635E+05 -7.667149E+04 -2.585520E+05  9.475232E+03 -1.129980E+04
       288  22 -4.435148E+05 -8.391624E+04 -2.935602E+04 -1.816219E+05  2.681638E+04 -7.512421E+03
       288  23 -4.460984E+05 -7.013923E+04 -1.481771E+04 -1.781329E+05  1.890263E+04 -9.442409E+03
       288  24 -4.423568E+05 -7.576585E+04 -8.294537E+03 -1.846806E+05  1.077831E+04 -1.081002E+04
       288  25 -1.145355E+05  4.178061E+04  5.345648E+04 -8.862089E+04  2.729417E+04 -7.332021E+03
       288  26 -1.442229E+05  4.331800E+04  6.060907E+04 -9.468193E+04  1.979320E+04 -9.107220E+03
       288  27 -1.675005E+05  2.553673E+04  6.007687E+04 -1.107795E+05  1.208202E+04 -1.032001E+04
       289   1 -6.887164E+05 -1.688927E+05 -6.784000E+04 -2.517891E+05 -8.103948E+03  1.069769E+04
       289   2 -6.650150E+05 -1.520965E+05 -5.779900E+04 -2.378432E+05 -5.782925E+03  9.804317E+03
       289   3 -6.310820E+05 -1.466423E+05 -4.922148E+04 -2.360069E+05 -3.450450E+03  8.878823E+03
       289   4 -4.418650E+05 -7.667218E+04 -6.352289E+03 -1.841259E+05 -9.239249E+03  1.027107E+04
       289   5 -4.469402E+05 -7.071647E+04 -3.422605E+03 -1.781780E+05 -6.941285E+03  9.369256E+03
       289   6 -4.417798E+05 -7.609772E+04 -1.937572E+03 -1.843396E+05 -4.631963E+03  8.435304E+03
       289   7 -1.949539E+05  1.555243E+04  5.513066E+04 -1.164383E+05 -1.037504E+04  9.844253E+03
       289   8 -2.288192E+05  1.066646E+04  5.094994E+04 -1.184940E+05 -8.100086E+03  8.934029E+03
       289   9 -2.524434E+05 -5.551130E+03  4.534330E+04 -1.326583E+05 -5.813865E+03  7.991640E+03
       289  10 -6.887165E+05 -1.688929E+05 -6.784033E+04 -2.517890E+05 -4.141494E-10 -1.543464E-10
       289  11 -6.650151E+05 -1.520966E+05 -5.779925E+04 -2.378431E+05  1.040821E-10  9.644003E-11
       289  12 -6.310820E+05 -1.466424E+05 -4.922165E+04 -2.360069E+05  3.416089E-10  3.757165E-11
       289  13 -4.418652E+05 -7.667231E+04 -6.352648E+03 -1.841258E+05  2.236915E-11 -1.837379E-10
       289  14 -4.469403E+05 -7.071658E+04 -3.422861E+03 -1.781779E+05  5.821035E-10  3.887197E-11
       289  15 -4.417799E+05 -7.609780E+04 -1.937746E+03 -1.843396E+05  4.043404E-11 -1.126222E-10
       289  16 -1.949541E+05  1.555230E+04  5.513027E+04 -1.164382E+05  4.075852E-10 -5.173098E-11
       289  17 -2.288193E+05  1.066636E+04  5.094967E+04 -1.184939E+05 -3.822641E-10 -4.111732E-11
       289  18 -2.524435E+05 -5.551208E+03  4.534312E+04 -1.326582E+05 -2.087150E-10 -2.426035E-10
       289  19 -6.887164E+05 -1.688927E+05 -6.784000E+04 -2.517891E+05  8.103948E+03 -1.069769E+04
       289  20 -6.650150E+05 -1.520965E+05 -5.779900E+04 -2.378432E+05  5.782925E+03 -9.804317E+03
       289  21 -6.310820E+05 -1.466423E+05 -4.922148E+04 -2.360069E+05  3.450450E+03 -8.878823E+03
       289  22 -4.418650E+05 -7.667218E+04 -6.352289E+03 -1.841259E+05  9.239249E+03 -1.027107E+04
       289  23 -4.469402E+05 -7.071647E+04 -3.422605E+03 -1.781780E+05  6.941285E+03 -9.369256E+03
       289  24 -4.417798E+05 -7.609772E+04 -1.937572E+03 -1.843396E+05  4.631963E+03 -8.435304E+03
       289  25 -1.949539E+05  1.555243E+04  5.513066E+04 -1.164383E+05  1.037504E+04 -9.844253E+03
       289  26 -2.288192E+05  1.066646E+04  5.094994E+04 -1.184940E+05  8.100086E+03 -8.934029E+03
       289  27 -2.524434E+05 -5.551130E+03  4.534330E+04 -1.326583E+05  5.813865E+03 -7.991640E+03
       290   1 -6.037728E+05 -1.366105E+05 -4.180107E+04 -2.286417E+05 -2.825635E+03  8.055897E+03
       290   2 -5.800400E+05 -1.203627E+05 -3.408983E+04 -2.145361E+05 -1.761473E+03  6.642661E+03
       290   3 -5.456310E+05 -1.149155E+05 -2.673746E+04 -2.127411E+05 -6.960872E+02  5.225128E+03
       290   4 -4.417070E+05 -7.616940E+04 -1.499966E+03 -1.843118E+05 -4.001460E+03  7.614630E+03
       290   5 -4.470405E+05 -7.074879E+04 -9.324433E+02 -1.781635E+05 -2.940352E+03  6.200382E+03
       290   6 -4.416987E+05 -7.612830E+04 -7.214570E+02 -1.843261E+05 -1.878047E+03  4.781833E+03
       290   7 -2.796147E+05 -1.572626E+04  3.879930E+04 -1.399712E+05 -5.177626E+03  7.173235E+03
       290   8 -3.140232E+05 -2.113361E+04  3.222365E+04 -1.417838E+05 -4.119510E+03  5.757998E+03
       290   9 -3.377558E+05 -3.734042E+04  2.529371E+04 -1.559068E+05 -3.060223E+03  4.338457E+03
       290  10 -6.037729E+05 -1.366106E+05 -4.180121E+04 -2.286416E+05  2.236066E-10 -6.701891E-11
       290  11 -5.800400E+05 -1.203627E+05 -3.408992E+04 -2.145361E+05  7.320066E-10  1.312568E-10
       290  12 -5.456310E+05 -1.149155E+05 -2.673751E+04 -2.127411E+05 -1.428871E-09 -5.935520E-10
       290  13 -4.417071E+05 -7.616947E+04 -1.500105E+03 -1.843118E+05  3.886395E-10  8.078637E-11
       290  14 -4.470405E+05 -7.074883E+04 -9.325317E+02 -1.781635E+05 -3.736784E-10  2.527134E-10
       290  15 -4.416987E+05 -7.612832E+04 -7.215066E+02 -1.843261E+05 -2.619163E-09 -8.486353E-10
       290  16 -2.796147E+05 -1.572632E+04  3.879915E+04 -1.399712E+05  7.557233E-10  1.093101E-10
       290  17 -3.140233E+05 -2.113365E+04  3.222356E+04 -1.417838E+05 -9.082677E-10  1.282317E-10
       290  18 -3.377558E+05 -3.734044E+04  2.529366E+04 -1.559068E+05 -3.536815E-09 -9.974850E-10
       290  19 -6.037728E+05 -1.366105E+05 -4.180107E+04 -2.286417E+05  2.825635E+03 -8.055897E+03
       290  20 -5.800400E+05 -1.203627E+05 -3.408983E+04 -2.145361E+05  1.761473E+03 -6.642661E+03
       290  21 -5.456310E+05 -1.149155E+05 -2.673746E+04 -2.127411E+05  6.960872E+02 -5.225128E+03
       290  22 -4.417070E+05 -7.616940E+04 -1.499966E+03 -1.843118E+05  4.001460E+03 -7.614630E+03
       290  23 -4.470405E+05 -7.074879E+04 -9.324433E+02 -1.781635E+05  2.940352E+03 -6.200382E+03
       290  24 -4.416987E+05 -7.612830E+04 -7.214570E+02 -1.843261E+05  1.878047E+03 -4.781833E+03
       290  25 -2.796147E+05 -1.572626E+04  3.879930E+04 -1.399712E+05  5.177626E+03 -7.173235E+03
       290  26 -3.140232E+05 -2.113361E+04  3.222365E+04 -1.417838E+05  4.119510E+03 -5.757998E+03
       290  27 -3.377558E+05 -3.734042E+04  2.529371E+04 -1.559068E+05  3.060223E+03 -4.338457E+03
       291   1 -5.183035E+05 -1.047091E+05 -1.971202E+04 -2.053069E+05 -2.272243E+02  4.341333E+03
       291   2 -4.944751E+05 -8.844233E+04 -1.272453E+04 -1.911402E+05  8.195649E+02  2.912386E+03
       291   3 -4.599412E+05 -8.301141E+04 -6.082923E+03 -1.893336E+05  1.866362E+03  1.483032E+03
       291   4 -4.416910E+05 -7.613738E+04 -7.161725E+02 -1.843361E+05 -1.410460E+03  3.897621E+03
       291   5 -4.470449E+05 -7.073239E+04 -8.975450E+02 -1.781509E+05 -3.639488E+02  2.468620E+03
       291   6 -4.416941E+05 -7.616325E+04 -1.424547E+03 -1.843262E+05  6.825497E+02  1.039203E+03
       291   7 -3.650731E+05 -4.756538E+04  1.827913E+04 -1.633631E+05 -2.593850E+03  3.453852E+03
       291   8 -3.996125E+05 -5.302229E+04  1.092927E+04 -1.651607E+05 -1.547561E+03  2.024817E+03
       291   9 -4.234465E+05 -6.931504E+04  3.233830E+03 -1.793185E+05 -5.013061E+02  5.953586E+02
       291  10 -5.183035E+05 -1.047091E+05 -1.971205E+04 -2.053069E+05 -3.665903E-09 -1.128498E-09
       291  11 -4.944751E+05 -8.844234E+04 -1.272455E+04 -1.911402E+05 -7.731460E-10  1.783800E-10
       291  12 -4.599412E+05 -8.301142E+04 -6.082934E+03 -1.893336E+05  3.239330E-10  1.463732E-10
       291  13 -4.416910E+05 -7.613740E+04 -7.162048E+02 -1.843361E+05 -2.577186E-09 -7.294161E-10
       291  14 -4.470449E+05 -7.073239E+04 -8.975567E+02 -1.781509E+05 -1.866447E-10 -7.078754E-11
       291  15 -4.416941E+05 -7.616325E+04 -1.424550E+03 -1.843262E+05  4.637794E-10  7.365287E-11
       291  16 -3.650731E+05 -4.756540E+04  1.827910E+04 -1.633631E+05 -1.421381E-09 -4.842898E-10
       291  17 -3.996125E+05 -5.302230E+04  1.092926E+04 -1.651607E+05  6.221596E-10 -1.282972E-10
       291  18 -4.234465E+05 -6.931504E+04  3.233829E+03 -1.793185E+05  1.632901E-10  9.781450E-11
       291  19 -5.183035E+05 -1.047091E+05 -1.971202E+04 -2.053069E+05  2.272243E+02 -4.341333E+03
       291  20 -4.944751E+05 -8.844233E+04 -1.272453E+04 -1.911402E+05 -8.195649E+02 -2.912386E+03
       291  21 -4.599412E+05 -8.301141E+04 -6.082923E+03 -1.893336E+05 -1.866362E+03 -1.483032E+03
       291  22 -4.416910E+05 -7.613738E+04 -7.161725E+02 -1.843361E+05  1.410460E+03 -3.897621E+03
       291  23 -4.470449E+05 -7.073239E+04 -8.975450E+02 -1.781509E+05  3.639488E+02 -2.468620E+03
       291  24 -4.416941E+05 -7.616325E+04 -1.424547E+03 -1.843262E+05 -6.825497E+02 -1.039203E+03
       291  25 -3.650731E+05 -4.756538E+04  1.827913E+04 -1.633631E+05  2.593850E+03 -3.453852E+03
       291  26 -3.996125E+05 -5.302229E+04  1.092927E+04 -1.651607E+05  1.547561E+03 -2.024817E+03
       291  27 -4.234465E+05 -6.931504E+04  3.233830E+03 -1.793185E+05  5.013061E+02 -5.953586E+02
       292   1 -4.325615E+05 -7.278806E+04  5.378215E+02 -1.819912E+05  2.489214E+03  6.531920E+02
       292   2 -4.086514E+05 -5.641069E+04  6.315652E+03 -1.676953E+05  4.695572E+03 -3.395095E+02
       292   3 -3.743988E+05 -5.144919E+04  1.073151E+04 -1.656664E+05  6.895857E+03 -1.315580E+03
       292   4 -4.417499E+05 -7.611340E+04 -1.836278E+03 -1.843727E+05  1.300449E+03  2.075090E+02
       292   5 -4.469575E+05 -7.066896E+04 -3.228556E+03 -1.781400E+05  3.518985E+03 -7.806682E+02
       292   6 -4.418257E+05 -7.664291E+04 -5.992480E+03 -1.841747E+05  5.731360E+03 -1.752241E+03
       292   7 -4.509382E+05 -7.943873E+04 -4.210379E+03 -1.867541E+05  1.117033E+02 -2.381672E+02
       292   8 -4.852620E+05 -8.492711E+04 -1.277285E+04 -1.885841E+05  2.342479E+03 -1.221796E+03
       292   9 -5.092478E+05 -1.018362E+05 -2.271673E+04 -2.026811E+05  4.567006E+03 -2.188848E+03
       292  10 -4.325615E+05 -7.278806E+04  5.378090E+02 -1.819912E+05 -2.920448E-11 -1.937366E-10
       292  11 -4.086514E+05 -5.641069E+04  6.315611E+03 -1.676953E+05  1.854148E-10  1.205884E-10
       292  12 -3.743988E+05 -5.144920E+04  1.073141E+04 -1.656664E+05  3.277045E-11  4.650427E-11
       292  13 -4.417499E+05 -7.611340E+04 -1.836282E+03 -1.843727E+05 -1.671951E-10 -2.661591E-11
       292  14 -4.469575E+05 -7.066897E+04 -3.228581E+03 -1.781400E+05  4.265432E-11 -1.830593E-11
       292  15 -4.418257E+05 -7.664292E+04 -5.992547E+03 -1.841747E+05 -2.245433E-10 -2.225443E-11
       292  16 -4.509382E+05 -7.943873E+04 -4.210379E+03 -1.867541E+05 -1.129478E-10  1.272238E-10
       292  17 -4.852620E+05 -8.492711E+04 -1.277286E+04 -1.885841E+05 -1.842510E-10 -4.148943E-11
       292  18 -5.092478E+05 -1.018362E+05 -2.271678E+04 -2.026811E+05 -2.756177E-10  5.851632E-11
       292  19 -4.325615E+05 -7.278806E+04  5.378215E+02 -1.819912E+05 -2.489214E+03 -6.531920E+02
       292  20 -4.086514E+05 -5.641069E+04  6.315652E+03 -1.676953E+05 -4.695572E+03  3.395095E+02
       292  21 -3.743988E+05 -5.144919E+04  1.073151E+04 -1.656664E+05 -6.895857E+03  1.315580E+03
       292  22 -4.417499E+05 -7.611340E+04 -1.836278E+03 -1.843727E+05 -1.300449E+03 -2.075090E+02
       292  23 -4.469575E+05 -7.066896E+04 -3.228556E+03 -1.781400E+05 -3.518985E+03  7.806682E+02
       292  24 -4.418257E+05 -7.664291E+04 -5.992480E+03 -1.841747E+05 -5.731360E+03  1.752241E+03
       292  25 -4.509382E+05 -7.943873E+04 -4.210379E+03 -1.867541E+05 -1.117033E+02  2.381672E+02
       292  26 -4.852620E+05 -8.492711E+04 -1.277285E+04 -1.885841E+05 -2.342479E+03  1.221796E+03
       292  27 -5.092478E+05 -1.018362E+05 -2.271673E+04 -2.026811E+05 -4.567006E+03  2.188848E+03
       293   1 -3.465599E+05 -4.133715E+04  1.590384E+04 -1.598389E+05  8.463822E+03 -1.829979E+03
       293   2 -3.227888E+05 -2.338870E+04  1.692908E+04 -1.436276E+05  1.593663E+04 -7.844646E+02
       293   3 -2.922607E+05 -2.449092E+04  1.057818E+04 -1.378238E+05  2.328660E+04  5.907612E+02
       293   4 -4.422756E+05 -7.580486E+04 -7.824602E+03 -1.847165E+05  7.199404E+03 -2.304144E+03
       293   5 -4.461716E+05 -7.009348E+04 -1.396847E+04 -1.780736E+05  1.491496E+04 -1.167762E+03
       293   6 -4.433610E+05 -8.348273E+04 -2.768233E+04 -1.818391E+05  2.250733E+04  2.981887E+02
       293   7 -5.379827E+05 -1.102723E+05 -3.155386E+04 -2.095907E+05  5.935193E+03 -2.778238E+03
       293   8 -5.695397E+05 -1.167972E+05 -4.486729E+04 -2.125134E+05  1.389352E+04 -1.550974E+03
       293   9 -5.944388E+05 -1.424725E+05 -6.594469E+04 -2.258444E+05  2.172827E+04  5.701791E+00
       293  10 -3.465600E+05 -4.133718E+04  1.590370E+04 -1.598389E+05  7.480348E-11  3.696514E-11
       293  11 -3.227891E+05 -2.338877E+04  1.692860E+04 -1.436276E+05 -3.549051E-10 -6.255335E-11
       293  12 -2.922613E+05 -2.449107E+04  1.057716E+04 -1.378238E+05 -1.634997E-10 -1.389067E-10
       293  13 -4.422756E+05 -7.580488E+04 -7.824709E+03 -1.847165E+05 -1.616015E-10  1.393108E-12
       293  14 -4.461718E+05 -7.009354E+04 -1.396889E+04 -1.780736E+05  4.399750E-11 -9.636608E-11
       293  15 -4.433616E+05 -8.348287E+04 -2.768329E+04 -1.818391E+05 -2.954023E-10 -6.518976E-11
       293  16 -5.379827E+05 -1.102723E+05 -3.155394E+04 -2.095907E+05 -6.394143E-11  2.614004E-12
       293  17 -5.695399E+05 -1.167973E+05 -4.486766E+04 -2.125134E+05  2.918041E-10  2.434425E-11
       293  18 -5.944394E+05 -1.424726E+05 -6.594558E+04 -2.258444E+05  8.190649E-11  6.998583E-11
       293  19 -3.465599E+05 -4.133715E+04  1.590384E+04 -1.598389E+05 -8.463822E+03  1.829979E+03
       293  20 -3.227888E+05 -2.338870E+04  1.692908E+04 -1.436276E+05 -1.593663E+04  7.844646E+02
       293  21 -2.922607E+05 -2.449092E+04  1.057818E+04 -1.378238E+05 -2.328660E+04 -5.907612E+02
       293  22 -4.422756E+05 -7.580486E+04 -7.824602E+03 -1.847165E+05 -7.199404E+03  2.304144E+03
       293  23 -4.461716E+05 -7.009348E+04 -1.396847E+04 -1.780736E+05 -1.491496E+04  1.167762E+03
       293  24 -4.433610E+05 -8.348273E+04 -2.768233E+04 -1.818391E+05 -2.250733E+04 -2.981887E+02
       293  25 -5.379827E+05 -1.102723E+05 -3.155386E+04 -2.095907E+05 -5.935193E+03  2.778238E+03
       293  26 -5.695397E+05 -1.167972E+05 -4.486729E+04 -2.125134E+05 -1.389352E+04  1.550974E+03
       293  27 -5.944388E+05 -1.424725E+05 -6.594469E+04 -2.258444E+05 -2.172827E+04 -5.701791E+00
       294   1 -2.564875E+05 -1.541162E+04  1.023375E+04 -1.522849E+05  3.057061E+04  1.387252E+03
       294   2 -2.388484E+05  2.477732E+04 -7.375402E+03 -1.085978E+05  5.808115E+04  1.116034E+04
       294   3 -2.559588E+05 -5.645240E+04 -7.570425E+04 -4.820726E+04  8.306483E+04  2.767193E+04
       294   4 -4.478813E+05 -7.155940E+04 -3.462207E+04 -1.889038E+05  2.771024E+04  3.147866E+02
       294   5 -4.374887E+05 -6.337865E+04 -5.982599E+04 -1.773584E+05  6.020441E+04  1.195531E+04
       294   6 -4.628511E+05 -1.776315E+05 -1.397128E+05 -1.491073E+05  9.017051E+04  3.033183E+04
       294   7 -6.392387E+05 -1.277076E+05 -7.948020E+04 -2.255141E+05  2.485083E+04 -7.574935E+02
       294   8 -6.360884E+05 -1.515266E+05 -1.122795E+05 -2.460970E+05  6.232691E+04  1.274986E+04
       294   9 -6.696943E+05 -2.987843E+05 -2.037241E+05 -2.499696E+05  9.727353E+04  3.298948E+04
       294  10 -2.564885E+05 -1.541187E+04  1.023199E+04 -1.522849E+05 -3.188333E-10 -8.399309E-11
       294  11 -2.388520E+05  2.477628E+04 -7.381979E+03 -1.085983E+05  8.696351E-11  1.375469E-10
       294  12 -2.559664E+05 -5.645508E+04 -7.571866E+04 -4.820912E+04 -3.839922E-12  1.559830E-10
       294  13 -4.478821E+05 -7.155961E+04 -3.462352E+04 -1.889038E+05  7.756021E-11 -1.966414E-11
       294  14 -4.374926E+05 -6.337978E+04 -5.983307E+04 -1.773590E+05  3.935178E-10 -3.767055E-11
       294  15 -4.628601E+05 -1.776347E+05 -1.397298E+05 -1.491095E+05 -2.308494E-11  2.293663E-10
       294  16 -6.392394E+05 -1.277077E+05 -7.948136E+04 -2.255140E+05  1.266015E-10  1.296442E-10
       294  17 -6.360926E+05 -1.515278E+05 -1.122871E+05 -2.460976E+05 -7.356726E-11  1.654091E-10
       294  18 -6.697048E+05 -2.987880E+05 -2.037440E+05 -2.499722E+05 -3.815017E-10 -1.919948E-11
       294  19 -2.564875E+05 -1.541162E+04  1.023375E+04 -1.522849E+05 -3.057061E+04 -1.387252E+03
       294  20 -2.388484E+05  2.477732E+04 -7.375402E+03 -1.085978E+05 -5.808115E+04 -1.116034E+04
       294  21 -2.559588E+05 -5.645240E+04 -7.570425E+04 -4.820726E+04 -8.306483E+04 -2.767193E+04
       294  22 -4.478813E+05 -7.155940E+04 -3.462207E+04 -1.889038E+05 -2.771024E+04 -3.147866E+02
       294  23 -4.374887E+05 -6.337865E+04 -5.982599E+04 -1.773584E+05 -6.020441E+04 -1.195531E+04
       294  24 -4.628511E+05 -1.776315E+05 -1.397128E+05 -1.491073E+05 -9.017051E+04 -3.033183E+04
       294  25 -6.392387E+05 -1.277076E+05 -7.948020E+04 -2.255141E+05 -2.485083E+04  7.574935E+02
       294  26 -6.360884E+05 -1.515266E+05 -1.122795E+05 -2.460970E+05 -6.232691E+04 -1.274986E+04
       294  27 -6.696943E+05 -2.987843E+05 -2.037241E+05 -2.499696E+05 -9.727353E+04 -3.298948E+04
       295   1 -5.312396E+05 -1.332854E+05 -1.067650E+05 -1.242716E+04  5.430890E+04  1.157377E+04
       295   2 -4.514568E+05 -2.107661E+05 -1.371918E+05 -1.948396E+04  4.449062E+04  3.558043E+04
       295   3 -3.451511E+05 -1.888301E+05 -1.362927E+05 -6.987639E+04  3.468592E+04  3.541635E+04
       295   4  4.030639E+05  9.904537E+04  1.208698E+05 -5.527472E+04  8.296645E+04  1.158719E+04
       295   5  3.881937E+05 -4.517694E+03  5.439169E+04 -3.358645E+04  5.398179E+04  3.557921E+04
       295   6  4.031255E+05 -5.412405E+03  3.251135E+04 -5.522780E+04  2.501352E+04  3.541418E+04
       295   7  1.338170E+06  3.313192E+05  3.484453E+05 -9.818705E+04  1.116670E+05  1.159664E+04
       295   8  1.228499E+06  2.016827E+05  2.459296E+05 -4.770822E+04  6.348566E+04  3.557756E+04
       295   9  1.151923E+06  1.779677E+05  2.012801E+05 -4.056135E+04  1.532957E+04  3.541155E+04
       295  10 -5.312428E+05 -1.332863E+05 -1.067708E+05 -1.242767E+04  3.349377E-10  1.406876E-10
       295  11 -4.514593E+05 -2.107680E+05 -1.371979E+05 -1.948523E+04 -1.929507E-10  3.558340E-11
       295  12 -3.451527E+05 -1.888318E+05 -1.362973E+05 -6.987738E+04 -3.038801E-10 -2.810002E-10
       295  13  4.030565E+05  9.904338E+04  1.208566E+05 -5.527549E+04 -5.305778E-11 -2.271093E-10
       295  14  3.881903E+05 -4.519835E+03  5.438383E+04 -3.358799E+04  2.693620E-10 -2.955032E-10
       295  15  4.031245E+05 -5.413920E+03  3.250782E+04 -5.522851E+04 -2.234054E-10 -2.885099E-10
       295  16  1.338156E+06  3.313157E+05  3.484216E+05 -9.818810E+04  2.884386E-10  1.246308E-10
       295  17  1.228494E+06  2.016802E+05  2.459196E+05 -4.771004E+04 -1.662108E-10 -5.412877E-10
       295  18  1.151923E+06  1.779663E+05  2.012773E+05 -4.056179E+04  5.993657E-10 -3.120559E-10
       295  19 -5.312396E+05 -1.332854E+05 -1.067650E+05 -1.242716E+04 -5.430890E+04 -1.157377E+04
       295  20 -4.514568E+05 -2.107661E+05 -1.371918E+05 -1.948396E+04 -4.449062E+04 -3.558043E+04
       295  21 -3.451511E+05 -1.888301E+05 -1.362927E+05 -6.987639E+04 -3.468592E+04 -3.541635E+04
       295  22  4.030639E+05  9.904537E+04  1.208698E+05 -5.527472E+04 -8.296645E+04 -1.158719E+04
       295  23  3.881937E+05 -4.517694E+03  5.439169E+04 -3.358645E+04 -5.398179E+04 -3.557921E+04
       295  24  4.031255E+05 -5.412405E+03  3.251135E+04 -5.522780E+04 -2.501352E+04 -3.541418E+04
       295  25  1.338170E+06  3.313192E+05  3.484453E+05 -9.818705E+04 -1.116670E+05 -1.159664E+04
       295  26  1.228499E+06  2.016827E+05  2.459296E+05 -4.770822E+04 -6.348566E+04 -3.557756E+04
       295  27  1.151923E+06  1.779677E+05  2.012801E+05 -4.056135E+04 -1.532957E+04 -3.541155E+04
       296   1 -2.681694E+05 -1.567172E+05 -1.247916E+05 -5.303196E+04  2.259320E+04  3.002336E+04
       296   2 -1.772613E+05 -1.409636E+05 -1.156599E+05 -3.270663E+04  1.646756E+04  2.653310E+04
       296   3 -8.369308E+04 -1.182848E+05 -1.007797E+05 -5.633139E+04  1.033707E+04  2.193714E+04
       296   4  3.971491E+05  6.509498E+03  2.604642E+04 -5.537543E+04  2.028111E+04  3.002138E+04
       296   5  3.957646E+05 -4.570756E+02  1.389757E+04 -3.340283E+04  1.327301E+04  2.653252E+04
       296   6  3.971808E+05 -3.491249E+02  8.104986E+03 -5.537754E+04  6.260930E+03  2.193841E+04
       296   7  1.062879E+06  1.697057E+05  1.768559E+05 -5.772141E+04  1.796657E+04  3.001942E+04
       296   8  9.690957E+05  1.400269E+05  1.434340E+05 -3.409964E+04  1.007554E+04  2.653194E+04
       296   9  8.782695E+05  1.175706E+05  1.169748E+05 -5.442290E+04  2.181666E+03  2.193967E+04
       296  10 -2.681702E+05 -1.567183E+05 -1.247943E+05 -5.303250E+04  1.468456E-11 -2.687061E-10
       296  11 -1.772618E+05 -1.409644E+05 -1.156618E+05 -3.270698E+04  6.380557E-10  2.913268E-12
       296  12 -8.369332E+04 -1.182853E+05 -1.007808E+05 -5.633157E+04  1.018893E-10  3.600353E-10
       296  13  3.971484E+05  6.508419E+03  2.604396E+04 -5.537593E+04  1.772472E-10 -2.427261E-10
       296  14  3.957643E+05 -4.578789E+02  1.389591E+04 -3.340311E+04  5.459478E-10 -2.211168E-10
       296  15  3.971807E+05 -3.496523E+02  8.104008E+03 -5.537765E+04  5.635023E-10  2.491958E-10
       296  16  1.062878E+06  1.697046E+05  1.768536E+05 -5.772185E+04  2.617737E-10 -1.073994E-10
       296  17  9.690954E+05  1.400261E+05  1.434325E+05 -3.409986E+04 -5.012723E-11 -9.465720E-11
       296  18  8.782694E+05  1.175701E+05  1.169739E+05 -5.442294E+04  3.524810E-10  1.129964E-10
       296  19 -2.681694E+05 -1.567172E+05 -1.247916E+05 -5.303196E+04 -2.259320E+04 -3.002336E+04
       296  20 -1.772613E+05 -1.409636E+05 -1.156599E+05 -3.270663E+04 -1.646756E+04 -2.653310E+04
       296  21 -8.369308E+04 -1.182848E+05 -1.007797E+05 -5.633139E+04 -1.033707E+04 -2.193714E+04
       296  22  3.971491E+05  6.509498E+03  2.604642E+04 -5.537543E+04 -2.028111E+04 -3.002138E+04
       296  23  3.957646E+05 -4.570756E+02  1.389757E+04 -3.340283E+04 -1.327301E+04 -2.653252E+04
       296  24  3.971808E+05 -3.491249E+02  8.104986E+03 -5.537754E+04 -6.260930E+03 -2.193841E+04
       296  25  1.062879E+06  1.697057E+05  1.768559E+05 -5.772141E+04 -1.796657E+04 -3.001942E+04
       296  26  9.690957E+05  1.400269E+05  1.434340E+05 -3.409964E+04 -1.007554E+04 -2.653194E+04
       296  27  8.782695E+05  1.175706E+05  1.169748E+05 -5.442290E+04 -2.181666E+03 -2.193967E+04
       297   1 -2.062446E+03 -9.726137E+04 -8.359476E+04 -5.516196E+04  8.728038E+03  1.902168E+04
       297   2  8.966668E+04 -7.523813E+04 -6.574954E+04 -3.332785E+04  6.991423E+03  1.428339E+04
       297   3  1.817298E+05 -5.267435E+04 -4.664723E+04 -5.531305E+04  5.252398E+03  9.498120E+03
       297   4  3.966493E+05  4.343076E+02  6.251464E+03 -5.534800E+04  4.994921E+03  1.902342E+04
       297   5  3.964912E+05 -2.525389E+01  3.568895E+03 -3.343918E+04  3.219801E+03  1.428590E+04
       297   6  3.966654E+05  6.264899E+01  2.169751E+03 -5.534834E+04  1.442523E+03  9.501451E+03
       297   7  7.955089E+05  9.811910E+04  9.608759E+04 -5.553413E+04  1.259431E+03  1.902516E+04
       297   8  7.034032E+05  7.518116E+04  7.288135E+04 -3.355055E+04 -5.536664E+02  1.428842E+04
       297   9  6.116439E+05  5.279647E+04  5.098379E+04 -5.538363E+04 -2.368658E+03  9.504782E+03
       297  10 -2.062625E+03 -9.726178E+04 -8.359558E+04 -5.516209E+04  2.755491E-10  8.031736E-11
       297  11  8.966657E+04 -7.523836E+04 -6.575002E+04 -3.332793E+04 -4.733713E-10  4.792163E-11
       297  12  1.817297E+05 -5.267446E+04 -4.664745E+04 -5.531309E+04 -6.456111E-10 -5.234696E-10
       297  13  3.966492E+05  4.339123E+02  6.250737E+03 -5.534808E+04  5.428325E-10  8.567808E-11
       297  14  3.964911E+05 -2.547587E+01  3.568492E+03 -3.343922E+04 -2.418374E-10  4.023556E-10
       297  15  3.966654E+05  6.255147E+01  2.169578E+03 -5.534835E+04  4.887322E-11  5.773151E-10
       297  16  7.955088E+05  9.811871E+04  9.608691E+04 -5.553415E+04  2.761215E-10  1.101327E-10
       297  17  7.034031E+05  7.518094E+04  7.288096E+04 -3.355054E+04 -3.559111E-10 -4.076672E-10
       297  18  6.116439E+05  5.279637E+04  5.098361E+04 -5.538361E+04  2.793662E-10 -2.755336E-10
       297  19 -2.062446E+03 -9.726137E+04 -8.359476E+04 -5.516196E+04 -8.728038E+03 -1.902168E+04
       297  20  8.966668E+04 -7.523813E+04 -6.574954E+04 -3.332785E+04 -6.991423E+03 -1.428339E+04
       297  21  1.817298E+05 -5.267435E+04 -4.664723E+04 -5.531305E+04 -5.252398E+03 -9.498120E+03
       297  22  3.966493E+05  4.343076E+02  6.251464E+03 -5.534800E+04 -4.994921E+03 -1.902342E+04
       297  23  3.964912E+05 -2.525389E+01  3.568895E+03 -3.343918E+04 -3.219801E+03 -1.428590E+04
       297  24  3.966654E+05  6.264899E+01  2.169751E+03 -5.534834E+04 -1.442523E+03 -9.501451E+03
       297  25  7.955089E+05  9.811910E+04  9.608759E+04 -5.553413E+04 -1.259431E+03 -1.902516E+04
       297  26  7.034032E+05  7.518116E+04  7.288135E+04 -3.355055E+04  5.536664E+02 -1.428842E+04
       297  27  6.116439E+05  5.279647E+04  5.098379E+04 -5.538363E+04  2.368658E+03 -9.504782E+03
       298   1  2.636078E+05 -3.243543E+04 -2.803783E+04 -5.527829E+04  4.879889E+03  6.703686E+03
       298   2  3.553719E+05 -1.005607E+04 -8.068436E+03 -3.344429E+04  4.262588E+03  1.916129E+03
       298   3  4.471533E+05  1.243192E+04  1.230640E+04 -5.536362E+04  3.644918E+03 -2.873152E+03
       298   4  3.966008E+05  1.089555E+02  1.739248E+03 -5.533383E+04  1.087077E+03  6.707277E+03
       298   5  3.965963E+05  4.770009E+01  1.243194E+03 -3.345727E+04  4.680837E+02  1.919808E+03
       298   6  3.966030E+05  9.621829E+01  1.154371E+03 -5.533385E+04 -1.511884E+02 -2.869353E+03
       298   7  5.296103E+05  3.265215E+04  3.151527E+04 -5.538937E+04 -2.706539E+03  6.710868E+03
       298   8  4.378224E+05  1.015136E+04  1.055477E+04 -3.347024E+04 -3.326670E+03  1.923487E+03
       298   9  3.460550E+05 -1.223965E+04 -9.997764E+03 -5.530408E+04 -3.946990E+03 -2.865554E+03
       298  10  2.636078E+05 -3.243549E+04 -2.803796E+04 -5.527832E+04  1.714884E-10 -1.505338E-10
       298  11  3.553719E+05 -1.005608E+04 -8.068477E+03 -3.344430E+04  6.780758E-10  5.680162E-11
       298  12  4.471533E+05  1.243191E+04  1.230636E+04 -5.536361E+04  1.975664E-10  2.470074E-10
       298  13  3.966008E+05  1.089069E+02  1.739161E+03 -5.533383E+04  7.954665E-11 -8.170875E-10
       298  14  3.965963E+05  4.769607E+01  1.243187E+03 -3.345727E+04  3.321920E-10  1.083948E-10
       298  15  3.966030E+05  9.620944E+01  1.154356E+03 -5.533385E+04  8.787371E-10 -2.549007E-10
       298  16  5.296102E+05  3.265210E+04  3.151517E+04 -5.538935E+04  1.095579E-10 -2.493927E-11
       298  17  4.378224E+05  1.015136E+04  1.055474E+04 -3.347024E+04 -1.167084E-09 -3.266029E-10
       298  18  3.460550E+05 -1.223966E+04 -9.997809E+03 -5.530409E+04  3.744705E-10 -7.493731E-10
       298  19  2.636078E+05 -3.243543E+04 -2.803783E+04 -5.527829E+04 -4.879889E+03 -6.703686E+03
       298  20  3.553719E+05 -1.005607E+04 -8.068436E+03 -3.344429E+04 -4.262588E+03 -1.916129E+03
       298  21  4.471533E+05  1.243192E+04  1.230640E+04 -5.536362E+04 -3.644918E+03  2.873152E+03
       298  22  3.966008E+05  1.089555E+02  1.739248E+03 -5.533383E+04 -1.087077E+03 -6.707277E+03
       298  23  3.965963E+05  4.770009E+01  1.243194E+03 -3.345727E+04 -4.680837E+02 -1.919808E+03
       298  24  3.966030E+05  9.621829E+01  1.154371E+03 -5.533385E+04  1.511884E+02  2.869353E+03
       298  25  5.296103E+05  3.265215E+04  3.151527E+04 -5.538937E+04  2.706539E+03 -6.710868E+03
       298  26  4.378224E+05  1.015136E+04  1.055477E+04 -3.347024E+04  3.326670E+03 -1.923487E+03
       298  27  3.460550E+05 -1.223965E+04 -9.997764E+03 -5.530408E+04  3.946990E+03  2.865554E+03
       299   1  5.290988E+05  3.261580E+04  3.143049E+04 -5.542135E+04  3.425615E+03 -5.661347E+03
       299   2  6.209171E+05  5.500233E+04  5.238286E+04 -3.354497E+04  2.572228E+03 -1.045227E+04
       299   3  7.128227E+05  7.751664E+04  7.390606E+04 -5.545382E+04  1.720266E+03 -1.524370E+04
       299   4  3.966143E+05  9.538248E+01  1.244045E+03 -5.534119E+04 -3.718274E+02 -5.657692E+03
       299   5  3.965694E+05  2.544928E+01  1.716682E+03 -3.344809E+04 -1.225632E+03 -1.044919E+04
       299   6  3.966028E+05  8.359642E+01  2.760586E+03 -5.534117E+04 -2.077888E+03 -1.524116E+04
       299   7  2.641461E+05 -3.242624E+04 -2.894349E+04 -5.526105E+04 -4.168467E+03 -5.654037E+03
       299   8  1.722685E+05 -5.495488E+04 -4.895267E+04 -3.335122E+04 -5.022133E+03 -1.044611E+04
       299   9  8.047578E+04 -7.735628E+04 -6.839120E+04 -5.522856E+04 -5.874128E+03 -1.523863E+04
       299  10  5.290988E+05  3.261576E+04  3.143041E+04 -5.542134E+04  1.026349E-09  5.375839E-10
       299  11  6.209170E+05  5.500221E+04  5.238265E+04 -3.354495E+04  5.878658E-10  2.318212E-10
       299  12  7.128226E+05  7.751639E+04  7.390562E+04 -5.545380E+04  1.666156E-09 -1.173435E-09
       299  13  3.966143E+05  9.534807E+01  1.243984E+03 -5.534120E+04  5.343464E-10 -2.215771E-11
       299  14  3.965694E+05  2.533161E+01  1.716474E+03 -3.344810E+04  5.106475E-10 -1.202626E-09
       299  15  3.966027E+05  8.334577E+01  2.760141E+03 -5.534120E+04 -5.062037E-10 -3.472714E-10
       299  16  2.641461E+05 -3.242628E+04 -2.894358E+04 -5.526107E+04 -3.055545E-11 -1.584984E-10
       299  17  1.722684E+05 -5.495500E+04 -4.895293E+04 -3.335127E+04 -1.324233E-09 -8.638209E-10
       299  18  8.047568E+04 -7.735654E+04 -6.839170E+04 -5.522863E+04 -1.980747E-09 -2.502775E-10
       299  19  5.290988E+05  3.261580E+04  3.143049E+04 -5.542135E+04 -3.425615E+03  5.661347E+03
       299  20  6.209171E+05  5.500233E+04  5.238286E+04 -3.354497E+04 -2.572228E+03  1.045227E+04
       299  21  7.128227E+05  7.751664E+04  7.390606E+04 -5.545382E+04 -1.720266E+03  1.524370E+04
       299  22  3.966143E+05  9.538248E+01  1.244045E+03 -5.534119E+04  3.718274E+02  5.657692E+03
       299  23  3.965694E+05  2.544928E+01  1.716682E+03 -3.344809E+04  1.225632E+03  1.044919E+04
       299  24  3.966028E+05  8.359642E+01  2.760586E+03 -5.534117E+04  2.077888E+03  1.524116E+04
       299  25  2.641461E+05 -3.242624E+04 -2.894349E+04 -5.526105E+04  4.168467E+03  5.654037E+03
       299  26  1.722685E+05 -5.495488E+04 -4.895267E+04 -3.335122E+04  5.022133E+03  1.044611E+04
       299  27  8.047578E+04 -7.735628E+04 -6.839120E+04 -5.522856E+04  5.874128E+03  1.523863E+04
       300   1  7.950545E+05  9.765870E+04  9.377912E+04 -5.538177E+04  1.170015E+03 -1.804280E+04
       300   2  8.868713E+05  1.200651E+05  1.168255E+05 -3.347453E+04 -1.891552E+03 -2.283423E+04
       300   3  9.793787E+05  1.433655E+05  1.420977E+05 -5.548726E+04 -4.950146E+03 -2.757200E+04
       300   4  3.967216E+05  4.260423E+00  3.567002E+03 -5.537149E+04 -2.650456E+03 -1.804081E+04
       300   5  3.963708E+05 -1.145803E+02  6.065754E+03 -3.341025E+04 -5.667587E+03 -2.283351E+04
       300   6  3.966957E+05  6.539930E+02  1.076120E+04 -5.537110E+04 -8.681300E+03 -2.757251E+04
       300   7 -1.464096E+03 -9.766109E+04 -8.665528E+04 -5.536118E+04 -6.468501E+03 -1.803883E+04
       300   8 -9.390635E+04 -1.203107E+05 -1.047094E+05 -3.334598E+04 -9.440669E+03 -2.283280E+04
       300   9 -1.856720E+05 -1.420807E+05 -1.205969E+05 -5.525500E+04 -1.240899E+04 -2.757301E+04
       300  10  7.950544E+05  9.765835E+04  9.377850E+04 -5.538176E+04  7.732660E-09 -2.460453E-10
       300  11  8.868712E+05  1.200645E+05  1.168245E+05 -3.347457E+04  1.600468E-10  1.685962E-09
       300  12  9.793785E+05  1.433647E+05  1.420962E+05 -5.548737E+04 -9.184544E-09  9.163197E-10
       300  13  3.967215E+05  3.908969E+00  3.566377E+03 -5.537153E+04 -7.745290E-11  7.349257E-10
       300  14  3.963706E+05 -1.151489E+02  6.064714E+03 -3.341035E+04 -4.744346E-10  1.335007E-09
       300  15  3.966954E+05  6.531562E+02  1.075963E+04 -5.537129E+04  2.924704E-10  7.008780E-10
       300  16 -1.464229E+03 -9.766145E+04 -8.665597E+04 -5.536128E+04 -7.800899E-09  7.991696E-10
       300  17 -9.390658E+04 -1.203113E+05 -1.047105E+05 -3.334616E+04  3.213620E-10  2.350262E-09
       300  18 -1.856724E+05 -1.420816E+05 -1.205987E+05 -5.525528E+04  9.289175E-09  1.049469E-09
       300  19  7.950545E+05  9.765870E+04  9.377912E+04 -5.538177E+04 -1.170015E+03  1.804280E+04
       300  20  8.868713E+05  1.200651E+05  1.168255E+05 -3.347453E+04  1.891552E+03  2.283423E+04
       300  21  9.793787E+05  1.433655E+05  1.420977E+05 -5.548726E+04  4.950146E+03  2.757200E+04
       300  22  3.967216E+05  4.260423E+00  3.567002E+03 -5.537149E+04  2.650456E+03  1.804081E+04
       300  23  3.963708E+05 -1.145803E+02  6.065754E+03 -3.341025E+04  5.667587E+03  2.283351E+04
       300  24  3.966957E+05  6.539930E+02  1.076120E+04 -5.537110E+04  8.681300E+03  2.757251E+04
       300  25 -1.464096E+03 -9.766109E+04 -8.665528E+04 -5.536118E+04  6.468501E+03  1.803883E+04
       300  26 -9.390635E+04 -1.203107E+05 -1.047094E+05 -3.334598E+04  9.440669E+03  2.283280E+04
       300  27 -1.856720E+05 -1.420807E+05 -1.205969E+05 -5.525500E+04  1.240899E+04  2.757301E+04
       301   1  1.062802E+06  1.623068E+05  1.644021E+05 -5.349283E+04 -6.719382E+03 -3.051847E+04
       301   2  1.152938E+06  1.848224E+05  1.952199E+05 -3.424467E+04 -1.989652E+04 -3.509181E+04
       301   3  1.248166E+06  2.197042E+05  2.377567E+05 -5.911242E+04 -3.307107E+04 -3.835317E+04
       301   4  3.976122E+05 -7.018249E+02  1.398334E+04 -5.541453E+04 -1.086024E+04 -3.051986E+04
       301   5  3.951366E+05 -8.390979E+02  2.403537E+04 -3.335609E+04 -2.298355E+04 -3.509514E+04
       301   6  3.975692E+05  1.121700E+04  4.508618E+04 -5.541651E+04 -3.510236E+04 -3.835782E+04
       301   7 -2.671670E+05 -1.637408E+05 -1.364637E+05 -5.733412E+04 -1.499670E+04 -3.052122E+04
       301   8 -3.621325E+05 -1.865400E+05 -1.471860E+05 -3.246860E+04 -2.606684E+04 -3.509849E+04
       301   9 -4.523562E+05 -1.973200E+05 -1.476309E+05 -5.172573E+04 -3.713087E+04 -3.836250E+04
       301  10  1.062802E+06  1.623058E+05  1.644002E+05 -5.349299E+04 -9.325086E-09 -1.660353E-10
       301  11  1.152938E+06  1.848210E+05  1.952169E+05 -3.424523E+04  1.041631E-10 -1.212421E-09
       301  12  1.248164E+06  2.197024E+05  2.377519E+05 -5.911344E+04  7.531148E-09 -5.708639E-10
       301  13  3.976118E+05 -7.028570E+02  1.398137E+04 -5.541480E+04 -7.906520E-10 -1.835020E-10
       301  14  3.951357E+05 -8.405624E+02  2.403207E+04 -3.335674E+04 -2.766568E-10 -1.605185E-09
       301  15  3.975675E+05  1.121509E+04  4.508110E+04 -5.541759E+04 -1.623773E-10 -6.244717E-10
       301  16 -2.671675E+05 -1.637419E+05 -1.364659E+05 -5.733449E+04  8.981018E-09 -3.824946E-10
       301  17 -3.621335E+05 -1.865415E+05 -1.471896E+05 -3.246934E+04 -1.756992E-10 -1.251219E-09
       301  18 -4.523580E+05 -1.973219E+05 -1.476363E+05 -5.172688E+04 -7.222844E-09 -5.814788E-10
       301  19  1.062802E+06  1.623068E+05  1.644021E+05 -5.349283E+04  6.719382E+03  3.051847E+04
       301  20  1.152938E+06  1.848224E+05  1.952199E+05 -3.424467E+04  1.989652E+04  3.509181E+04
       301  21  1.248166E+06  2.197042E+05  2.377567E+05 -5.911242E+04  3.307107E+04  3.835317E+04
       301  22  3.976122E+05 -7.018249E+02  1.398334E+04 -5.541453E+04  1.086024E+04  3.051986E+04
       301  23  3.951366E+05 -8.390979E+02  2.403537E+04 -3.335609E+04  2.298355E+04  3.509514E+04
       301  24  3.975692E+05  1.121700E+04  4.508618E+04 -5.541651E+04  3.510236E+04  3.835782E+04
       301  25 -2.671670E+05 -1.637408E+05 -1.364637E+05 -5.733412E+04  1.499670E+04  3.052122E+04
       301  26 -3.621325E+05 -1.865400E+05 -1.471860E+05 -3.246860E+04  2.606684E+04  3.509849E+04
       301  27 -4.523562E+05 -1.973200E+05 -1.476309E+05 -5.172573E+04  3.713087E+04  3.836250E+04
       302   1  1.342010E+06  2.193464E+05  2.667613E+05 -2.943984E+04 -3.248541E+04 -4.425356E+04
       302   2  1.408050E+06  2.438656E+05  3.279607E+05 -5.764670E+04 -1.055190E+05 -4.360621E+04
       302   3  1.529522E+06  4.498909E+05  4.821376E+05 -1.293808E+05 -1.786071E+05 -1.421677E+04
       302   4  4.079041E+05 -9.419649E+03  5.628029E+04 -5.523008E+04 -4.329008E+04 -4.426303E+04
       302   5  3.820915E+05 -7.811086E+03  9.419308E+04 -3.356983E+04 -9.345158E+04 -4.360372E+04
       302   6  4.078214E+05  1.714898E+05  2.093050E+05 -5.542992E+04 -1.436535E+05 -1.419284E+04
       302   7 -5.253905E+05 -2.382429E+05 -1.542556E+05 -8.098129E+04 -5.407864E+04 -4.427160E+04
       302   8 -6.428909E+05 -2.595583E+05 -1.396422E+05 -9.533219E+03 -8.140380E+04 -4.360030E+04
       302   9 -7.127190E+05 -1.069824E+05 -6.361106E+04  1.838689E+04 -1.087626E+05 -1.416059E+04
       302  10  1.342009E+06  2.193440E+05  2.667556E+05 -2.944100E+04  6.901191E-10  3.933577E-10
       302  11  1.408038E+06  2.438606E+05  3.279363E+05 -5.765041E+04  4.825187E-10  7.252142E-10
       302  12  1.529488E+06  4.498822E+05  4.820774E+05 -1.293828E+05  1.081749E-09  2.379304E-11
       302  13  4.079016E+05 -9.422256E+03  5.627309E+04 -5.523163E+04 -1.360669E-10  7.713156E-10
       302  14  3.820816E+05 -7.815470E+03  9.417311E+04 -3.357311E+04  6.990992E-11  2.432535E-09
       302  15  4.077992E+05  1.714840E+05  2.092659E+05 -5.543157E+04 -1.552431E-11  2.053790E-10
       302  16 -5.253942E+05 -2.382458E+05 -1.542648E+05 -8.098322E+04 -7.278811E-10  3.129980E-10
       302  17 -6.428985E+05 -2.595621E+05 -1.396583E+05 -9.536079E+03  6.188118E-11  1.032977E-09
       302  18 -7.127318E+05 -1.069858E+05 -6.363369E+04  1.838564E+04 -6.120250E-10 -2.655438E-10
       302  19  1.342010E+06  2.193464E+05  2.667613E+05 -2.943984E+04  3.248541E+04  4.425356E+04
       302  20  1.408050E+06  2.438656E+05  3.279607E+05 -5.764670E+04  1.055190E+05  4.360621E+04
       302  21  1.529522E+06  4.498909E+05  4.821376E+05 -1.293808E+05  1.786071E+05  1.421677E+04
       302  22  4.079041E+05 -9.419649E+03  5.628029E+04 -5.523008E+04  4.329008E+04  4.426303E+04
       302  23  3.820915E+05 -7.811086E+03  9.419308E+04 -3.356983E+04  9.345158E+04  4.360372E+04
       302  24  4.078214E+05  1.714898E+05  2.093050E+05 -5.542992E+04  1.436535E+05  1.419284E+04
       302  25 -5.253905E+05 -2.382429E+05 -1.542556E+05 -8.098129E+04  5.407864E+04  4.427160E+04
       302  26 -6.428909E+05 -2.595583E+05 -1.396422E+05 -9.533219E+03  8.140380E+04  4.360030E+04
       302  27 -7.127190E+05 -1.069824E+05 -6.361106E+04  1.838689E+04  1.087626E+05  1.416059E+04
       303   1  2.296354E+05  8.616429E+05  2.407522E+05 -1.537757E+05  6.747334E+03  7.058997E+04
       303   2  1.081574E+05  6.420472E+05  1.390547E+05 -8.539496E+04  1.822174E+04  3.678188E+04
       303   3  5.659080E+04  4.441844E+05  7.678654E+04 -1.156537E+05  1.107059E+04  2.964447E+03
       303   4  6.508081E+04  2.004915E+05  7.907723E+04 -1.248907E+05  6.769342E+03  5.410956E+04
       303   5 -2.709477E+03  1.909431E+05  3.574920E+04 -7.561048E+04  1.822533E+04  3.508689E+04
       303   6 -3.119998E+03  2.005494E+05  2.161785E+04 -1.249678E+05  1.105178E+04  1.604337E+04
       303   7 -9.950287E+04 -4.602595E+05 -8.262826E+04 -9.603632E+04  6.789834E+03  3.764661E+04
       303   8 -1.135902E+05 -2.599724E+05 -6.756957E+04 -6.583309E+04  1.822887E+04  3.339311E+04
       303   9 -6.283446E+04 -4.302997E+04 -3.355397E+04 -1.342781E+05  1.103258E+04  2.911721E+04
       303  10  2.296340E+05  8.616375E+05  2.407428E+05 -1.537761E+05  2.605732E-10 -1.317326E-10
       303  11  1.081567E+05  6.420456E+05  1.390515E+05 -8.539550E+04 -2.343085E-10 -6.956125E-10
       303  12  5.659067E+04  4.441843E+05  7.678629E+04 -1.156537E+05  9.105082E-10  2.619058E-11
       303  13  6.507998E+04  2.004884E+05  7.907164E+04 -1.248910E+05  8.672811E-11 -3.406249E-10
       303  14 -2.710164E+03  1.909417E+05  3.574626E+04 -7.561099E+04 -1.266383E-09  7.864618E-11
       303  15 -3.120198E+03  2.005491E+05  2.161714E+04 -1.249679E+05 -1.451632E-11 -5.472606E-10
       303  16 -9.950330E+04 -4.602611E+05 -8.263101E+04 -9.603653E+04 -4.029912E-10  2.528021E-10
       303  17 -1.135908E+05 -2.599737E+05 -6.757229E+04 -6.583358E+04 -4.810163E-10  1.110199E-09
       303  18 -6.283482E+04 -4.303091E+04 -3.355579E+04 -1.342783E+05 -3.544703E-10  1.980151E-10
       303  19  2.296354E+05  8.616429E+05  2.407522E+05 -1.537757E+05 -6.747334E+03 -7.058997E+04
       303  20  1.081574E+05  6.420472E+05  1.390547E+05 -8.539496E+04 -1.822174E+04 -3.678188E+04
       303  21  5.659080E+04  4.441844E+05  7.678654E+04 -1.156537E+05 -1.107059E+04 -2.964447E+03
       303  22  6.508081E+04  2.004915E+05  7.907723E+04 -1.248907E+05 -6.769342E+03 -5.410956E+04
       303  23 -2.709477E+03  1.909431E+05  3.574920E+04 -7.561048E+04 -1.822533E+04 -3.508689E+04
       303  24 -3.119998E+03  2.005494E+05  2.161785E+04 -1.249678E+05 -1.105178E+04 -1.604337E+04
       303  25 -9.950287E+04 -4.602595E+05 -8.262826E+04 -9.603632E+04 -6.789834E+03 -3.764661E+04
       303  26 -1.135902E+05 -2.599724E+05 -6.756957E+04 -6.583309E+04 -1.822887E+04 -3.339311E+04
       303  27 -6.283446E+04 -4.302997E+04 -3.355397E+04 -1.342781E+05 -1.103258E+04 -2.911721E+04
       304   1  1.862938E+04  2.537815E+05  3.043295E+04 -1.267178E+05  2.610014E+03  5.105482E+03
       304   2 -3.721092E+04  4.446705E+04 -2.429613E+04 -7.560924E+04 -7.002713E+03  3.575108E+02
       304   3 -8.778317E+04 -1.631622E+05 -7.469162E+04 -1.238196E+05 -1.627111E+04 -4.386284E+03
       304   4  4.622080E+03  1.966810E+05  1.751050E+04 -1.250941E+05  2.598474E+03  1.286265E+04
       304   5 -9.893479E+01  1.958261E+05  9.928048E+03 -7.543852E+04 -7.013021E+03  7.841367E+03
       304   6  4.983119E+02  1.966642E+05  6.872222E+03 -1.250998E+05 -1.628035E+04  2.822713E+03
       304   7 -9.385398E+03  1.395837E+05  4.588062E+03 -1.234706E+05  2.586973E+03  2.061911E+04
       304   8  3.701151E+04  3.472065E+05  4.415097E+04 -7.526774E+04 -7.023323E+03  1.532703E+04
       304   9  8.877090E+04  5.566110E+05  8.842790E+04 -1.263808E+05 -1.628962E+04  1.003585E+04
       304  10  1.862936E+04  2.537814E+05  3.043289E+04 -1.267178E+05  2.745046E-10 -5.097205E-10
       304  11 -3.721097E+04  4.446704E+04 -2.429623E+04 -7.560924E+04  7.621893E-11 -9.227215E-10
       304  12 -8.778345E+04 -1.631623E+05 -7.469215E+04 -1.238196E+05 -6.977533E-10  1.424647E-10
       304  13  4.622028E+03  1.966808E+05  1.751017E+04 -1.250941E+05 -6.754975E-12 -4.781240E-10
       304  14 -9.900409E+01  1.958260E+05  9.927840E+03 -7.543847E+04  8.380803E-10 -1.723231E-10
       304  15  4.980251E+02  1.966641E+05  6.871709E+03 -1.250998E+05  9.135464E-10 -6.015042E-10
       304  16 -9.385520E+03  1.395833E+05  4.587251E+03 -1.234706E+05 -2.136874E-10  6.554274E-10
       304  17  3.701139E+04  3.472062E+05  4.415043E+04 -7.526766E+04 -5.508069E-10  1.314350E-09
       304  18  8.877059E+04  5.566109E+05  8.842722E+04 -1.263807E+05 -6.737834E-10  4.311661E-11
       304  19  1.862938E+04  2.537815E+05  3.043295E+04 -1.267178E+05 -2.610014E+03 -5.105482E+03
       304  20 -3.721092E+04  4.446705E+04 -2.429613E+04 -7.560924E+04  7.002713E+03 -3.575108E+02
       304  21 -8.778317E+04 -1.631622E+05 -7.469162E+04 -1.238196E+05  1.627111E+04  4.386284E+03
       304  22  4.622080E+03  1.966810E+05  1.751050E+04 -1.250941E+05 -2.598474E+03 -1.286265E+04
       304  23 -9.893479E+01  1.958261E+05  9.928048E+03 -7.543852E+04  7.013021E+03 -7.841367E+03
       304  24  4.983119E+02  1.966642E+05  6.872222E+03 -1.250998E+05  1.628035E+04 -2.822713E+03
       304  25 -9.385398E+03  1.395837E+05  4.588062E+03 -1.234706E+05 -2.586973E+03 -2.061911E+04
       304  26  3.701151E+04  3.472065E+05  4.415097E+04 -7.526774E+04  7.023323E+03 -1.532703E+04
       304  27  8.877090E+04  5.566110E+05  8.842790E+04 -1.263808E+05  1.628962E+04 -1.003585E+04
       305   1 -1.338441E+05 -3.496365E+05 -1.174169E+05 -1.254235E+05 -2.548708E+04 -1.322337E+04
       305   2 -1.855039E+05 -5.578868E+05 -1.667402E+05 -7.409535E+04 -3.127018E+04  4.605552E+03
       305   3 -2.328623E+05 -7.672674E+05 -2.265936E+05 -1.212099E+05 -1.087110E+04  2.244677E+04
       305   4  1.442655E+02  1.967869E+05  6.052406E+03 -1.249041E+05 -2.550452E+04  1.700266E+03
       305   5 -3.260414E+02  1.955309E+05  5.537392E+03 -7.568392E+04 -3.126205E+04 -1.193587E+03
       305   6  7.102677E+03  1.966996E+05  8.887738E+03 -1.248986E+05 -1.085167E+04 -4.068777E+03
       305   7  1.341123E+05  7.434883E+05  1.295034E+05 -1.243841E+05 -2.552193E+04  1.663692E+04
       305   8  1.848124E+05  9.494748E+05  1.777779E+05 -7.727427E+04 -3.125390E+04 -6.999706E+03
       305   9  2.469994E+05  1.161516E+06  2.443039E+05 -1.285928E+05 -1.083194E+04 -3.062544E+04
       305  10 -1.338449E+05 -3.496368E+05 -1.174185E+05 -1.254237E+05 -9.146167E-11  3.445128E-10
       305  11 -1.855049E+05 -5.578870E+05 -1.667421E+05 -7.409524E+04  1.712570E-10 -1.220879E-10
       305  12 -2.328626E+05 -7.672679E+05 -2.265947E+05 -1.212097E+05 -1.803465E-10 -7.645568E-11
       305  13  1.435662E+02  1.967867E+05  6.051178E+03 -1.249040E+05 -8.080622E-10 -2.492721E-10
       305  14 -3.270913E+02  1.955306E+05  5.535553E+03 -7.568395E+04  4.228650E-10  3.223178E-11
       305  15  7.102546E+03  1.966995E+05  8.887486E+03 -1.248986E+05 -3.056336E-10 -1.088877E-10
       305  16  1.341115E+05  7.434878E+05  1.295017E+05 -1.243838E+05  1.770610E-10 -2.826259E-10
       305  17  1.848113E+05  9.494745E+05  1.777760E+05 -7.727445E+04  3.280517E-10  4.071931E-10
       305  18  2.469990E+05  1.161515E+06  2.443019E+05 -1.285930E+05 -2.665047E-10  4.095111E-11
       305  19 -1.338441E+05 -3.496365E+05 -1.174169E+05 -1.254235E+05  2.548708E+04  1.322337E+04
       305  20 -1.855039E+05 -5.578868E+05 -1.667402E+05 -7.409535E+04  3.127018E+04 -4.605552E+03
       305  21 -2.328623E+05 -7.672674E+05 -2.265936E+05 -1.212099E+05  1.087110E+04 -2.244677E+04
       305  22  1.442655E+02  1.967869E+05  6.052406E+03 -1.249041E+05  2.550452E+04 -1.700266E+03
       305  23 -3.260414E+02  1.955309E+05  5.537392E+03 -7.568392E+04  3.126205E+04  1.193587E+03
       305  24  7.102677E+03  1.966996E+05  8.887738E+03 -1.248986E+05  1.085167E+04  4.068777E+03
       305  25  1.341123E+05  7.434883E+05  1.295034E+05 -1.243841E+05  2.552193E+04 -1.663692E+04
       305  26  1.848124E+05  9.494748E+05  1.777779E+05 -7.727427E+04  3.125390E+04  6.999706E+03
       305  27  2.469994E+05  1.161516E+06  2.443039E+05 -1.285928E+05  1.083194E+04  3.062544E+04
       306   1 -1.404684E+06 -5.073571E+05 -3.154798E+05 -5.103678E+05 -1.428484E+05 -4.711048E+04
       306   2 -1.364033E+06 -3.014715E+05 -1.853558E+05 -5.095779E+05 -9.235163E+04 -1.434180E+04
       306   3 -1.379902E+06 -2.690994E+05 -1.405458E+05 -4.807061E+05 -3.737393E+04  6.516236E+03
       306   4 -1.020096E+06 -3.003731E+05 -2.000530E+05 -3.418281E+05 -1.295444E+05 -4.212821E+04
       306   5 -9.819644E+05 -1.385901E+05 -8.565674E+04 -3.843715E+05 -8.784104E+04 -1.265188E+04
       306   6 -9.985695E+05 -1.485215E+05 -4.955965E+04 -3.988447E+05 -4.165926E+04  4.907775E+03
       306   7 -6.353527E+05 -9.332694E+04 -8.463920E+04 -1.731784E+05 -1.162314E+05 -3.713917E+04
       306   8 -5.997515E+05  2.431343E+04  1.402990E+04 -2.590908E+05 -8.332742E+04 -1.096045E+04
       306   9 -6.170960E+05 -2.794358E+04  4.141599E+04 -3.169423E+05 -4.594744E+04  3.298620E+03
       306  10 -1.404707E+06 -5.073650E+05 -3.155224E+05 -5.103732E+05  5.193573E-10 -2.956306E-10
       306  11 -1.364042E+06 -3.014740E+05 -1.853722E+05 -5.095790E+05 -2.408689E-10 -2.047294E-10
       306  12 -1.379903E+06 -2.690998E+05 -1.405485E+05 -4.807059E+05  1.734391E-10 -8.070803E-11
       306  13 -1.020114E+06 -3.003795E+05 -2.000879E+05 -3.418325E+05  5.378975E-10 -1.600913E-10
       306  14 -9.819728E+05 -1.385923E+05 -8.567156E+04 -3.843724E+05 -5.129342E-10 -2.100989E-10
       306  15 -9.985713E+05 -1.485220E+05 -4.956296E+04 -3.988445E+05 -4.031143E-10  5.119660E-11
       306  16 -6.353676E+05 -9.333206E+04 -8.466721E+04 -1.731819E+05 -2.652510E-10  2.457045E-10
       306  17 -5.997590E+05  2.431143E+04  1.401662E+04 -2.590916E+05 -2.256245E-10  3.518322E-10
       306  18 -6.170982E+05 -2.794416E+04  4.141199E+04 -3.169422E+05 -3.996106E-10  1.731413E-10
       306  19 -1.404684E+06 -5.073571E+05 -3.154798E+05 -5.103678E+05  1.428484E+05  4.711048E+04
       306  20 -1.364033E+06 -3.014715E+05 -1.853558E+05 -5.095779E+05  9.235163E+04  1.434180E+04
       306  21 -1.379902E+06 -2.690994E+05 -1.405458E+05 -4.807061E+05  3.737393E+04 -6.516236E+03
       306  22 -1.020096E+06 -3.003731E+05 -2.000530E+05 -3.418281E+05  1.295444E+05  4.212821E+04
       306  23 -9.819644E+05 -1.385901E+05 -8.565674E+04 -3.843715E+05  8.784104E+04  1.265188E+04
       306  24 -9.985695E+05 -1.485215E+05 -4.955965E+04 -3.988447E+05  4.165926E+04 -4.907775E+03
       306  25 -6.353527E+05 -9.332694E+04 -8.463920E+04 -1.731784E+05  1.162314E+05  3.713917E+04
       306  26 -5.997515E+05  2.431343E+04  1.402990E+04 -2.590908E+05  8.332742E+04  1.096045E+04
       306  27 -6.170960E+05 -2.794358E+04  4.141599E+04 -3.169423E+05  4.594744E+04 -3.298620E+03
       307   1 -1.324223E+06 -2.934949E+05 -1.234867E+05 -4.835302E+05 -3.360916E+04  5.196523E+03
       307   2 -1.295816E+06 -2.616112E+05 -9.540218E+04 -4.687300E+05 -2.254221E+04  8.074465E+03
       307   3 -1.261111E+06 -2.539001E+05 -7.849557E+04 -4.650756E+05 -1.125262E+04  1.035944E+04
       307   4 -9.920462E+05 -1.656613E+05 -3.962582E+04 -3.888032E+05 -3.422825E+04  4.963198E+03
       307   5 -9.944558E+05 -1.481160E+05 -1.999333E+04 -3.852917E+05 -2.359493E+04  7.678833E+03
       307   6 -9.904798E+05 -1.546532E+05 -1.119006E+04 -3.929266E+05 -1.273964E+04  9.801304E+03
       307   7 -6.597591E+05 -3.781802E+04  4.422664E+04 -2.940291E+05 -3.484770E+04  4.729728E+03
       307   8 -6.930055E+05 -3.461416E+04  5.540856E+04 -3.018164E+05 -2.464822E+04  7.282987E+03
       307   9 -7.197771E+05 -5.540207E+04  5.610978E+04 -3.207493E+05 -1.422736E+04  9.242913E+03
       307  10 -1.324225E+06 -2.934952E+05 -1.234889E+05 -4.835300E+05  2.106420E-10  4.031291E-11
       307  11 -1.295817E+06 -2.616114E+05 -9.540326E+04 -4.687299E+05 -6.177284E-11 -7.382854E-11
       307  12 -1.261111E+06 -2.539003E+05 -7.849601E+04 -4.650755E+05 -2.311588E-10 -5.263228E-11
       307  13 -9.920475E+05 -1.656616E+05 -3.962807E+04 -3.888030E+05 -7.046154E-10 -1.427841E-10
       307  14 -9.944564E+05 -1.481163E+05 -1.999449E+04 -3.852916E+05  6.917495E-11 -1.943688E-10
       307  15 -9.904800E+05 -1.546533E+05 -1.119054E+04 -3.929265E+05 -6.229483E-10 -5.707517E-11
       307  16 -6.597604E+05 -3.781837E+04  4.422431E+04 -2.940289E+05 -2.572947E-10  1.004992E-10
       307  17 -6.930062E+05 -3.461438E+04  5.540732E+04 -3.018162E+05 -1.074999E-10 -2.009816E-10
       307  18 -7.197773E+05 -5.540221E+04  5.610924E+04 -3.207492E+05  1.858525E-10  8.701482E-11
       307  19 -1.324223E+06 -2.934949E+05 -1.234867E+05 -4.835302E+05  3.360916E+04 -5.196523E+03
       307  20 -1.295816E+06 -2.616112E+05 -9.540218E+04 -4.687300E+05  2.254221E+04 -8.074465E+03
       307  21 -1.261111E+06 -2.539001E+05 -7.849557E+04 -4.650756E+05  1.125262E+04 -1.035944E+04
       307  22 -9.920462E+05 -1.656613E+05 -3.962582E+04 -3.888032E+05  3.422825E+04 -4.963198E+03
       307  23 -9.944558E+05 -1.481160E+05 -1.999333E+04 -3.852917E+05  2.359493E+04 -7.678833E+03
       307  24 -9.904798E+05 -1.546532E+05 -1.119006E+04 -3.929266E+05  1.273964E+04 -9.801304E+03
       307  25 -6.597591E+05 -3.781802E+04  4.422664E+04 -2.940291E+05  3.484770E+04 -4.729728E+03
       307  26 -6.930055E+05 -3.461416E+04  5.540856E+04 -3.018164E+05  2.464822E+04 -7.282987E+03
       307  27 -7.197771E+05 -5.540207E+04  5.610978E+04 -3.207493E+05  1.422736E+04 -9.242913E+03
       308   1 -1.227957E+06 -2.448567E+05 -6.790477E+04 -4.574158E+05 -9.421681E+03  9.764035E+03
       308   2 -1.200423E+06 -2.252601E+05 -5.569619E+04 -4.412663E+05 -6.408883E+03  8.845479E+03
       308   3 -1.161130E+06 -2.189408E+05 -4.546161E+04 -4.391579E+05 -3.382298E+03  7.888585E+03
       308   4 -9.897949E+05 -1.558974E+05 -8.567453E+03 -3.922004E+05 -1.073856E+04  9.269875E+03
       308   5 -9.956193E+05 -1.488754E+05 -4.607879E+03 -3.853234E+05 -7.753242E+03  8.341261E+03
       308   6 -9.896811E+05 -1.551249E+05 -2.599862E+03 -3.924877E+05 -4.754261E+03  7.374268E+03
       308   7 -7.515782E+05 -6.693470E+04  5.076516E+04 -3.269625E+05 -1.205599E+04  8.775509E+03
       308   8 -7.907748E+05 -7.248793E+04  4.647716E+04 -3.293636E+05 -9.098085E+03  7.836861E+03
       308   9 -8.182023E+05 -9.130683E+04  4.025979E+04 -3.458056E+05 -6.126643E+03  6.859794E+03
       308  10 -1.227957E+06 -2.448568E+05 -6.790511E+04 -4.574157E+05 -5.346137E-12  4.462341E-11
       308  11 -1.200423E+06 -2.252602E+05 -5.569641E+04 -4.412663E+05 -4.943111E-10 -3.005348E-10
       308  12 -1.161130E+06 -2.189408E+05 -4.546175E+04 -4.391579E+05  1.276386E-10 -2.519269E-11
       308  13 -9.897950E+05 -1.558975E+05 -8.567831E+03 -3.922003E+05 -3.983294E-10 -1.021829E-10
       308  14 -9.956193E+05 -1.488755E+05 -4.608123E+03 -3.853233E+05  7.077174E-12 -1.419149E-10
       308  15 -9.896812E+05 -1.551249E+05 -2.600006E+03 -3.924877E+05 -2.791910E-10 -4.687866E-10
       308  16 -7.515784E+05 -6.693482E+04  5.076474E+04 -3.269624E+05  5.070505E-10  5.933216E-11
       308  17 -7.907749E+05 -7.248801E+04  4.647689E+04 -3.293636E+05 -1.587640E-10 -3.337227E-10
       308  18 -8.182023E+05 -9.130689E+04  4.025963E+04 -3.458056E+05 -2.298664E-10 -7.193026E-10
       308  19 -1.227957E+06 -2.448567E+05 -6.790477E+04 -4.574158E+05  9.421681E+03 -9.764035E+03
       308  20 -1.200423E+06 -2.252601E+05 -5.569619E+04 -4.412663E+05  6.408883E+03 -8.845479E+03
       308  21 -1.161130E+06 -2.189408E+05 -4.546161E+04 -4.391579E+05  3.382298E+03 -7.888585E+03
       308  22 -9.897949E+05 -1.558974E+05 -8.567453E+03 -3.922004E+05  1.073856E+04 -9.269875E+03
       308  23 -9.956193E+05 -1.488754E+05 -4.607879E+03 -3.853234E+05  7.753242E+03 -8.341261E+03
       308  24 -9.896811E+05 -1.551249E+05 -2.599862E+03 -3.924877E+05  4.754261E+03 -7.374268E+03
       308  25 -7.515782E+05 -6.693470E+04  5.076516E+04 -3.269625E+05  1.205599E+04 -8.775509E+03
       308  26 -7.907748E+05 -7.248793E+04  4.647716E+04 -3.293636E+05  9.098085E+03 -7.836861E+03
       308  27 -8.182023E+05 -9.130683E+04  4.025979E+04 -3.458056E+05  6.126643E+03 -6.859794E+03
       309   1 -1.129320E+06 -2.073121E+05 -3.673825E+04 -4.306230E+05 -2.603370E+03  6.950885E+03
       309   2 -1.101651E+06 -1.883864E+05 -2.762872E+04 -4.141986E+05 -1.295461E+03  5.329850E+03
       309   3 -1.061572E+06 -1.820460E+05 -1.899278E+04 -4.121296E+05  1.458413E+01  3.702097E+03
       309   4 -9.895706E+05 -1.552304E+05 -2.003845E+03 -3.924595E+05 -3.971754E+03  6.438028E+03
       309   5 -9.957712E+05 -1.489126E+05 -1.221904E+03 -3.852909E+05 -2.668666E+03  4.815314E+03
       309   6 -9.895610E+05 -1.551788E+05 -9.095376E+02 -3.924778E+05 -1.363482E+03  3.185875E+03
       309   7 -8.498025E+05 -1.031475E+05  3.272904E+04 -3.542882E+05 -5.340474E+03  5.925045E+03
       309   8 -8.898802E+05 -1.094381E+05  2.518398E+04 -3.563787E+05 -4.042124E+03  4.300683E+03
       309   9 -9.175449E+05 -1.283113E+05  1.717321E+04 -3.728241E+05 -2.741717E+03  2.669589E+03
       309  10 -1.129320E+06 -2.073121E+05 -3.673835E+04 -4.306230E+05 -2.934589E-10 -9.693723E-11
       309  11 -1.101651E+06 -1.883864E+05 -2.762878E+04 -4.141986E+05  1.351387E-10  5.263917E-11
       309  12 -1.061572E+06 -1.820460E+05 -1.899280E+04 -4.121296E+05  3.220939E-10 -4.756414E-11
       309  13 -9.895707E+05 -1.552305E+05 -2.003953E+03 -3.924595E+05 -1.123158E-11 -4.958506E-10
       309  14 -9.957712E+05 -1.489126E+05 -1.221961E+03 -3.852908E+05 -3.009315E-10  2.263061E-10
       309  15 -9.895610E+05 -1.551788E+05 -9.095601E+02 -3.924778E+05 -1.832450E-10 -9.449425E-11
       309  16 -8.498026E+05 -1.031475E+05  3.272892E+04 -3.542882E+05  6.202313E-10 -2.789697E-10
       309  17 -8.898802E+05 -1.094381E+05  2.518391E+04 -3.563787E+05 -4.588837E-11  2.566022E-10
       309  18 -9.175449E+05 -1.283114E+05  1.717318E+04 -3.728241E+05 -3.708649E-10 -2.017419E-10
       309  19 -1.129320E+06 -2.073121E+05 -3.673825E+04 -4.306230E+05  2.603370E+03 -6.950885E+03
       309  20 -1.101651E+06 -1.883864E+05 -2.762872E+04 -4.141986E+05  1.295461E+03 -5.329850E+03
       309  21 -1.061572E+06 -1.820460E+05 -1.899278E+04 -4.121296E+05 -1.458413E+01 -3.702097E+03
       309  22 -9.895706E+05 -1.552304E+05 -2.003845E+03 -3.924595E+05  3.971754E+03 -6.438028E+03
       309  23 -9.957712E+05 -1.489126E+05 -1.221904E+03 -3.852909E+05  2.668666E+03 -4.815314E+03
       309  24 -9.895610E+05 -1.551788E+05 -9.095376E+02 -3.924778E+05  1.363482E+03 -3.185875E+03
       309  25 -8.498025E+05 -1.031475E+05  3.272904E+04 -3.542882E+05  5.340474E+03 -5.925045E+03
       309  26 -8.898802E+05 -1.094381E+05  2.518398E+04 -3.563787E+05  4.042124E+03 -4.300683E+03
       309  27 -9.175449E+05 -1.283113E+05  1.717321E+04 -3.728241E+05  2.741717E+03 -2.669589E+03
       310   1 -1.029672E+06 -1.701416E+05 -1.076677E+04 -4.034671E+05  5.708837E+02  2.674246E+03
       310   2 -1.001889E+06 -1.511882E+05 -2.581816E+03 -3.869580E+05  1.795070E+03  1.008424E+03
       310   3 -9.616353E+05 -1.448594E+05  5.196305E+03 -3.848696E+05  3.018976E+03 -6.566330E+02
       310   4 -9.895478E+05 -1.551916E+05 -8.808459E+02 -3.924907E+05 -8.089694E+02  2.157399E+03
       310   5 -9.957847E+05 -1.488955E+05 -1.056434E+03 -3.852738E+05  4.157419E+02  4.917741E+02
       310   6 -9.895524E+05 -1.552247E+05 -1.639418E+03 -3.924783E+05  1.640139E+03 -1.173090E+03
       310   7 -9.494217E+05 -1.402414E+05  9.005010E+03 -3.815136E+05 -2.188926E+03  1.640512E+03
       310   8 -9.896801E+05 -1.466029E+05  4.689576E+02 -3.835897E+05 -9.636037E+02 -2.488223E+01
       310   9 -1.017469E+06 -1.655899E+05 -8.475192E+03 -4.000867E+05  2.613696E+02 -1.689521E+03
       310  10 -1.029672E+06 -1.701416E+05 -1.076678E+04 -4.034671E+05 -2.803381E-10  1.049629E-10
       310  11 -1.001889E+06 -1.511882E+05 -2.581824E+03 -3.869580E+05  1.808784E-10  1.264391E-10
       310  12 -9.616353E+05 -1.448594E+05  5.196287E+03 -3.848696E+05 -4.089196E-10  9.354132E-11
       310  13 -9.895478E+05 -1.551916E+05 -8.808558E+02 -3.924907E+05 -2.904485E-10 -1.660275E-10
       310  14 -9.957847E+05 -1.488955E+05 -1.056435E+03 -3.852738E+05  1.005615E-11 -2.576560E-10
       310  15 -9.895524E+05 -1.552247E+05 -1.639425E+03 -3.924783E+05  3.321437E-10  7.635011E-10
       310  16 -9.494217E+05 -1.402414E+05  9.004996E+03 -3.815136E+05 -5.945286E-12 -5.247502E-10
       310  17 -9.896801E+05 -1.466029E+05  4.689559E+02 -3.835897E+05 -2.545410E-10 -1.714797E-10
       310  18 -1.017469E+06 -1.655899E+05 -8.475198E+03 -4.000867E+05 -2.401051E-10  7.992713E-11
       310  19 -1.029672E+06 -1.701416E+05 -1.076677E+04 -4.034671E+05 -5.708837E+02 -2.674246E+03
       310  20 -1.001889E+06 -1.511882E+05 -2.581816E+03 -3.869580E+05 -1.795070E+03 -1.008424E+03
       310  21 -9.616353E+05 -1.448594E+05  5.196305E+03 -3.848696E+05 -3.018976E+03  6.566330E+02
       310  22 -9.895478E+05 -1.551916E+05 -8.808459E+02 -3.924907E+05  8.089694E+02 -2.157399E+03
       310  23 -9.957847E+05 -1.488955E+05 -1.056434E+03 -3.852738E+05 -4.157419E+02 -4.917741E+02
       310  24 -9.895524E+05 -1.552247E+05 -1.639418E+03 -3.924783E+05 -1.640139E+03  1.173090E+03
       310  25 -9.494217E+05 -1.402414E+05  9.005010E+03 -3.815136E+05  2.188926E+03 -1.640512E+03
       310  26 -9.896801E+05 -1.466029E+05  4.689576E+02 -3.835897E+05  9.636037E+02  2.488223E+01
       310  27 -1.017469E+06 -1.655899E+05 -8.475192E+03 -4.000867E+05 -2.613696E+02  1.689521E+03
       311   1 -9.297442E+05 -1.329404E+05  1.293108E+04 -3.763100E+05  3.739074E+03 -1.625997E+03
       311   2 -9.019699E+05 -1.139220E+05  1.968785E+04 -3.597061E+05  6.261247E+03 -2.797364E+03
       311   3 -8.621701E+05 -1.081448E+05  2.489727E+04 -3.573650E+05  8.774083E+03 -3.942672E+03
       311   4 -9.896242E+05 -1.551580E+05 -2.101880E+03 -3.925201E+05  2.354938E+03 -2.144470E+03
       311   5 -9.956787E+05 -1.488395E+05 -3.678641E+03 -3.852753E+05  4.896023E+03 -3.308869E+03
       311   6 -9.897126E+05 -1.557662E+05 -6.817924E+03 -3.922936E+05  7.427671E+03 -4.447242E+03
       311   7 -1.049501E+06 -1.773753E+05 -1.713505E+04 -4.087288E+05  9.709530E+02 -2.662888E+03
       311   8 -1.089379E+06 -1.837563E+05 -2.704582E+04 -4.108409E+05  3.531024E+03 -3.820289E+03
       311   9 -1.117240E+06 -2.033866E+05 -3.853453E+04 -4.272159E+05  6.081554E+03 -4.951701E+03
       311  10 -9.297442E+05 -1.329404E+05  1.293105E+04 -3.763100E+05  2.346892E-10  6.699976E-10
       311  11 -9.019699E+05 -1.139221E+05  1.968777E+04 -3.597061E+05 -4.238341E-10 -2.190078E-11
       311  12 -8.621702E+05 -1.081449E+05  2.489709E+04 -3.573649E+05 -3.393749E-10 -2.319271E-11
       311  13 -9.896243E+05 -1.551580E+05 -2.101899E+03 -3.925201E+05 -1.470742E-10  4.195783E-10
       311  14 -9.956787E+05 -1.488395E+05 -3.678707E+03 -3.852753E+05 -1.169398E-10  2.975514E-10
       311  15 -9.897127E+05 -1.557662E+05 -6.818065E+03 -3.922936E+05  8.657450E-11  6.073436E-12
       311  16 -1.049501E+06 -1.773753E+05 -1.713506E+04 -4.087288E+05 -5.435417E-10  1.931817E-10
       311  17 -1.089379E+06 -1.837564E+05 -2.704587E+04 -4.108409E+05  2.300540E-10  3.365430E-10
       311  18 -1.117240E+06 -2.033866E+05 -3.853464E+04 -4.272159E+05  4.860124E-10  3.696623E-10
       311  19 -9.297442E+05 -1.329404E+05  1.293108E+04 -3.763100E+05 -3.739074E+03  1.625997E+03
       311  20 -9.019699E+05 -1.139220E+05  1.968785E+04 -3.597061E+05 -6.261247E+03  2.797364E+03
       311  21 -8.621701E+05 -1.081448E+05  2.489727E+04 -3.573650E+05 -8.774083E+03  3.942672E+03
       311  22 -9.896242E+05 -1.551580E+05 -2.101880E+03 -3.925201E+05 -2.354938E+03  2.144470E+03
       311  23 -9.956787E+05 -1.488395E+05 -3.678641E+03 -3.852753E+05 -4.896023E+03  3.308869E+03
       311  24 -9.897126E+05 -1.557662E+05 -6.817924E+03 -3.922936E+05 -7.427671E+03  4.447242E+03
       311  25 -1.049501E+06 -1.773753E+05 -1.713505E+04 -4.087288E+05 -9.709530E+02  2.662888E+03
       311  26 -1.089379E+06 -1.837563E+05 -2.704582E+04 -4.108409E+05 -3.531024E+03  3.820289E+03
       311  27 -1.117240E+06 -2.033866E+05 -3.853453E+04 -4.272159E+05 -6.081554E+03  4.951701E+03
       312   1 -8.299553E+05 -9.640529E+04  3.092985E+04 -3.505611E+05  1.058471E+04 -4.549145E+03
       312   2 -8.025683E+05 -7.574477E+04  3.221340E+04 -3.319060E+05  1.903434E+04 -3.399635E+03
       312   3 -7.673179E+05 -7.690854E+04  2.514853E+04 -3.252823E+05  2.731622E+04 -1.800049E+03
       312   4 -9.902461E+05 -1.547900E+05 -8.899641E+03 -3.928847E+05  9.106834E+03 -5.103065E+03
       312   5 -9.947643E+05 -1.482165E+05 -1.588692E+04 -3.852322E+05  1.788715E+04 -3.829898E+03
       312   6 -9.914872E+05 -1.635353E+05 -3.148698E+04 -3.896119E+05  2.649925E+04 -2.106819E+03
       312   7 -1.150512E+06 -2.131734E+05 -4.873111E+04 -4.351984E+05  7.629377E+03 -5.656837E+03
       312   8 -1.186924E+06 -2.206854E+05 -6.399002E+04 -4.385433E+05  1.674036E+04 -4.260011E+03
       312   9 -1.215606E+06 -2.501574E+05 -8.812623E+04 -4.539198E+05  2.568260E+04 -2.413458E+03
       312  10 -8.299554E+05 -9.640534E+04  3.092961E+04 -3.505610E+05 -4.501417E-10 -2.259397E-10
       312  11 -8.025687E+05 -7.574488E+04  3.221269E+04 -3.319059E+05 -3.538092E-10 -2.358625E-10
       312  12 -7.673187E+05 -7.690874E+04  2.514712E+04 -3.252822E+05 -3.688280E-10 -9.642149E-11
       312  13 -9.902462E+05 -1.547901E+05 -8.899846E+03 -3.928846E+05  2.395526E-10  2.399723E-10
       312  14 -9.947647E+05 -1.482166E+05 -1.588755E+04 -3.852322E+05 -7.522822E-11  1.335454E-10
       312  15 -9.914880E+05 -1.635355E+05 -3.148831E+04 -3.896119E+05 -4.513695E-10 -1.328165E-10
       312  16 -1.150512E+06 -2.131734E+05 -4.873128E+04 -4.351984E+05  1.342179E-10  1.402150E-10
       312  17 -1.186924E+06 -2.206855E+05 -6.399058E+04 -4.385432E+05  1.592062E-10  2.563863E-10
       312  18 -1.215607E+06 -2.501575E+05 -8.812749E+04 -4.539198E+05  3.369819E-10  2.550274E-11
       312  19 -8.299553E+05 -9.640529E+04  3.092985E+04 -3.505611E+05 -1.058471E+04  4.549145E+03
       312  20 -8.025683E+05 -7.574477E+04  3.221340E+04 -3.319060E+05 -1.903434E+04  3.399635E+03
       312  21 -7.673179E+05 -7.690854E+04  2.514853E+04 -3.252823E+05 -2.731622E+04  1.800049E+03
       312  22 -9.902461E+05 -1.547900E+05 -8.899641E+03 -3.928847E+05 -9.106834E+03  5.103065E+03
       312  23 -9.947643E+05 -1.482165E+05 -1.588692E+04 -3.852322E+05 -1.788715E+04  3.829898E+03
       312  24 -9.914872E+05 -1.635353E+05 -3.148698E+04 -3.896119E+05 -2.649925E+04  2.106819E+03
       312  25 -1.150512E+06 -2.131734E+05 -4.873111E+04 -4.351984E+05 -7.629377E+03  5.656837E+03
       312  26 -1.186924E+06 -2.206854E+05 -6.399002E+04 -4.385433E+05 -1.674036E+04  4.260011E+03
       312  27 -1.215606E+06 -2.501574E+05 -8.812623E+04 -4.539198E+05 -2.568260E+04  2.413458E+03
       313   1 -7.263843E+05 -6.642189E+04  2.474932E+04 -3.415951E+05  3.609329E+04 -9.062119E+02
       313   2 -7.063581E+05 -2.072661E+04  4.824942E+03 -2.919450E+05  6.625463E+04  1.003673E+04
       313   3 -7.256732E+05 -1.129330E+05 -7.197604E+04 -2.232608E+05  9.300944E+04  3.006697E+04
       313   4 -9.966675E+05 -1.499214E+05 -3.937985E+04 -3.975953E+05  3.247820E+04 -2.261155E+03
       313   5 -9.848488E+05 -1.406325E+05 -6.805664E+04 -3.844871E+05  6.935384E+04  1.119684E+04
       313   6 -1.013730E+06 -2.706199E+05 -1.589560E+05 -3.523414E+05  1.028211E+05  3.373973E+04
       313   7 -1.266880E+06 -2.334215E+05 -1.035144E+05 -4.535763E+05  2.886480E+04 -3.615716E+03
       313   8 -1.263262E+06 -2.605256E+05 -1.409446E+05 -4.769888E+05  7.245153E+04  1.235618E+04
       313   9 -1.301697E+06 -4.282682E+05 -2.459424E+05 -4.813574E+05  1.126277E+05  3.740863E+04
       313  10 -7.263857E+05 -6.642224E+04  2.474687E+04 -3.415950E+05 -3.628142E-11 -7.233390E-11
       313  11 -7.063628E+05 -2.072790E+04  4.816493E+03 -2.919455E+05 -2.448550E-10 -3.296978E-11
       313  12 -7.256827E+05 -1.129363E+05 -7.199402E+04 -2.232630E+05  2.918742E-11 -1.504429E-11
       313  13 -9.966686E+05 -1.499217E+05 -3.938184E+04 -3.975953E+05 -3.989904E-11 -6.595982E-11
       313  14 -9.848540E+05 -1.406339E+05 -6.806593E+04 -3.844878E+05  9.097380E-10  3.070867E-11
       313  15 -1.013742E+06 -2.706240E+05 -1.589780E+05 -3.523442E+05  3.418501E-10 -1.138731E-10
       313  16 -1.266881E+06 -2.334217E+05 -1.035160E+05 -4.535762E+05 -1.011697E-10  4.731496E-11
       313  17 -1.263268E+06 -2.605272E+05 -1.409548E+05 -4.769896E+05 -7.401365E-10  1.949594E-10
       313  18 -1.301711E+06 -4.282731E+05 -2.459689E+05 -4.813608E+05 -9.020278E-12  7.113613E-11
       313  19 -7.263843E+05 -6.642189E+04  2.474932E+04 -3.415951E+05 -3.609329E+04  9.062119E+02
       313  20 -7.063581E+05 -2.072661E+04  4.824942E+03 -2.919450E+05 -6.625463E+04 -1.003673E+04
       313  21 -7.256732E+05 -1.129330E+05 -7.197604E+04 -2.232608E+05 -9.300944E+04 -3.006697E+04
       313  22 -9.966675E+05 -1.499214E+05 -3.937985E+04 -3.975953E+05 -3.247820E+04  2.261155E+03
       313  23 -9.848488E+05 -1.406325E+05 -6.805664E+04 -3.844871E+05 -6.935384E+04 -1.119684E+04
       313  24 -1.013730E+06 -2.706199E+05 -1.589560E+05 -3.523414E+05 -1.028211E+05 -3.373973E+04
       313  25 -1.266880E+06 -2.334215E+05 -1.035144E+05 -4.535763E+05 -2.886480E+04  3.615716E+03
       313  26 -1.263262E+06 -2.605256E+05 -1.409446E+05 -4.769888E+05 -7.245153E+04 -1.235618E+04
       313  27 -1.301697E+06 -4.282682E+05 -2.459424E+05 -4.813574E+05 -1.126277E+05 -3.740863E+04
       314   1  3.125654E+05  7.851165E+04  1.537810E+05  8.823222E+04  2.388632E+05  1.254635E+04
       314   2  3.543998E+05 -2.325919E+05 -2.626533E+04  1.528698E+04  1.648314E+05  3.788280E+04
       314   3  4.887320E+05 -2.143250E+05 -7.566445E+04 -9.876000E+04  9.081866E+04  3.810659E+04
       314   4  1.292202E+06  3.214127E+05  3.920962E+05 -5.123706E+04  2.692895E+05  1.253274E+04
       314   5  1.244419E+06 -1.428762E+04  1.765735E+05 -3.049279E+04  1.752148E+05  3.787754E+04
       314   6  1.292440E+06 -1.743233E+04  1.054553E+05 -5.084339E+04  8.117361E+04  3.810341E+04
       314   7  2.272757E+06  5.643172E+05  6.303559E+05 -1.909271E+05  2.997634E+05  1.250551E+04
       314   8  2.135176E+06  2.039699E+05  3.793624E+05 -7.633889E+04  1.856128E+05  3.787075E+04
       314   9  2.096753E+06  1.794247E+05  2.865355E+05 -2.864271E+03  7.151615E+04  3.809874E+04
       314  10  3.125042E+05  7.849617E+04  1.536735E+05  8.822981E+04 -1.802286E-10  4.125675E-10
       314  11  3.543702E+05 -2.326007E+05 -2.631905E+04  1.528195E+04 -1.308575E-10 -6.371147E-10
       314  12  4.887228E+05 -2.143288E+05 -7.568267E+04 -9.876279E+04  8.072047E-10  7.487212E-11
       314  13  1.292124E+06  3.213931E+05  3.919599E+05 -5.123978E+04 -1.088662E-13  7.277736E-11
       314  14  1.244385E+06 -1.429738E+04  1.765132E+05 -3.049813E+04 -1.464379E-09 -1.572444E-09
       314  15  1.292433E+06 -1.743565E+04  1.054403E+05 -5.084588E+04  4.207371E-10  1.867378E-10
       314  16  2.272661E+06  5.642930E+05  6.301873E+05 -1.909301E+05 -5.092683E-10 -2.530233E-10
       314  17  2.135139E+06  2.039591E+05  3.792952E+05 -7.634455E+04  1.610451E-10 -3.003017E-10
       314  18  2.096747E+06  1.794218E+05  2.865232E+05 -2.866463E+03 -6.036716E-10 -5.134986E-11
       314  19  3.125654E+05  7.851165E+04  1.537810E+05  8.823222E+04 -2.388632E+05 -1.254635E+04
       314  20  3.543998E+05 -2.325919E+05 -2.626533E+04  1.528698E+04 -1.648314E+05 -3.788280E+04
       314  21  4.887320E+05 -2.143250E+05 -7.566445E+04 -9.876000E+04 -9.081866E+04 -3.810659E+04
       314  22  1.292202E+06  3.214127E+05  3.920962E+05 -5.123706E+04 -2.692895E+05 -1.253274E+04
       314  23  1.244419E+06 -1.428762E+04  1.765735E+05 -3.049279E+04 -1.752148E+05 -3.787754E+04
       314  24  1.292440E+06 -1.743233E+04  1.054553E+05 -5.084339E+04 -8.117361E+04 -3.810341E+04
       314  25  2.272757E+06  5.643172E+05  6.303559E+05 -1.909271E+05 -2.997634E+05 -1.250551E+04
       314  26  2.135176E+06  2.039699E+05  3.793624E+05 -7.633889E+04 -1.856128E+05 -3.787075E+04
       314  27  2.096753E+06  1.794247E+05  2.865355E+05 -2.864271E+03 -7.151615E+04 -3.809874E+04
       315   1  5.468857E+05 -1.568072E+05 -7.999131E+04 -4.378581E+04  6.778069E+04  3.277563E+04
       315   2  6.281841E+05 -1.583421E+05 -9.957955E+04 -2.884403E+04  4.595364E+04  2.966221E+04
       315   3  7.182134E+05 -1.372502E+05 -9.925604E+04 -5.468273E+04  2.412125E+04  2.542238E+04
       315   4  1.273110E+06  2.118319E+04  8.449553E+04 -5.088169E+04  6.582006E+04  3.277111E+04
       315   5  1.268702E+06 -1.436172E+03  4.509322E+04 -3.048915E+04  4.307568E+04  2.965908E+04
       315   6  1.273166E+06 -1.283796E+03  2.622151E+04 -5.087377E+04  2.032894E+04  2.542082E+04
       315   7  1.999823E+06  1.991375E+05  2.489485E+05 -5.798598E+04  6.385711E+04  3.276664E+04
       315   8  1.909600E+06  1.554417E+05  1.897397E+05 -3.213601E+04  4.019477E+04  2.965597E+04
       315   9  1.828404E+06  1.346615E+05  1.516794E+05 -4.706137E+04  1.653327E+04  2.541922E+04
       315  10  5.468805E+05 -1.568096E+05 -8.000196E+04 -4.378760E+04 -1.372714E-11 -2.540116E-10
       315  11  6.281816E+05 -1.583437E+05 -9.958517E+04 -2.884512E+04  9.720806E-11  2.290372E-10
       315  12  7.182126E+05 -1.372511E+05 -9.925835E+04 -5.468322E+04  3.525598E-10 -1.098472E-10
       315  13  1.273105E+06  2.118088E+04  8.448539E+04 -5.088342E+04 -5.556823E-10  6.676713E-11
       315  14  1.268699E+06 -1.437614E+03  4.508809E+04 -3.049018E+04  1.346937E-10 -1.204687E-11
       315  15  1.273165E+06 -1.284601E+03  2.621952E+04 -5.087419E+04  1.115072E-10 -2.322845E-10
       315  16  1.999818E+06  1.991353E+05  2.489388E+05 -5.798767E+04  1.366813E-10  5.498436E-10
       315  17  1.909598E+06  1.554403E+05  1.897351E+05 -3.213697E+04  2.058229E-10 -3.541305E-10
       315  18  1.828403E+06  1.346608E+05  1.516776E+05 -4.706171E+04 -4.963263E-10 -2.558846E-10
       315  19  5.468857E+05 -1.568072E+05 -7.999131E+04 -4.378581E+04 -6.778069E+04 -3.277563E+04
       315  20  6.281841E+05 -1.583421E+05 -9.957955E+04 -2.884403E+04 -4.595364E+04 -2.966221E+04
       315  21  7.182134E+05 -1.372502E+05 -9.925604E+04 -5.468273E+04 -2.412125E+04 -2.542238E+04
       315  22  1.273110E+06  2.118319E+04  8.449553E+04 -5.088169E+04 -6.582006E+04 -3.277111E+04
       315  23  1.268702E+06 -1.436172E+03  4.509322E+04 -3.048915E+04 -4.307568E+04 -2.965908E+04
       315  24  1.273166E+06 -1.283796E+03  2.622151E+04 -5.087377E+04 -2.032894E+04 -2.542082E+04
       315  25  1.999823E+06  1.991375E+05  2.489485E+05 -5.798598E+04 -6.385711E+04 -3.276664E+04
       315  26  1.909600E+06  1.554417E+05  1.897397E+05 -3.213601E+04 -4.019477E+04 -2.965597E+04
       315  27  1.828404E+06  1.346615E+05  1.516794E+05 -4.706137E+04 -1.653327E+04 -2.541922E+04
       316   1  7.922572E+05 -1.160742E+05 -8.775251E+04 -5.076885E+04  1.966311E+04  2.271929E+04
       316   2  8.759952E+05 -9.691742E+04 -7.770221E+04 -3.080866E+04  1.401636E+04  1.837354E+04
       316   3  9.609284E+05 -7.617917E+04 -6.357053E+04 -5.104338E+04  8.366312E+03  1.399283E+04
       316   4  1.271476E+06  1.252066E+03  2.019998E+04 -5.074606E+04  1.623945E+04  2.271835E+04
       316   5  1.270892E+06 -2.048486E+02  1.142937E+04 -3.064959E+04  1.056074E+04  1.837349E+04
       316   6  1.271499E+06 -7.564078E+01  6.759539E+03 -5.074645E+04  4.879476E+03  1.399370E+04
       316   7  1.750908E+06  1.185626E+05  1.281379E+05 -5.072325E+04  1.281318E+04  2.271741E+04
       316   8  1.665933E+06  9.649704E+04  1.005510E+05 -3.049041E+04  7.102946E+03  1.837344E+04
       316   9  1.582160E+06  7.602127E+04  7.708345E+04 -5.044935E+04  1.390914E+03  1.399456E+04
       316  10  7.922566E+05 -1.160748E+05 -8.775421E+04 -5.076921E+04  4.061147E-10 -8.275969E-11
       316  11  8.759949E+05 -9.691784E+04 -7.770322E+04 -3.080887E+04  9.597091E-11  5.488489E-11
       316  12  9.609283E+05 -7.617940E+04 -6.357103E+04 -5.104348E+04 -6.403455E-10  4.843947E-10
       316  13  1.271475E+06  1.251441E+03  2.019852E+04 -5.074636E+04 -2.356910E-10 -1.233603E-10
       316  14  1.270892E+06 -2.052412E+02  1.142852E+04 -3.064975E+04 -4.442619E-10  5.280549E-11
       316  15  1.271499E+06 -7.585757E+01  6.759127E+03 -5.074650E+04  3.704439E-10  2.682811E-10
       316  16  1.750907E+06  1.185620E+05  1.281366E+05 -5.072348E+04 -4.933290E-11 -2.432642E-10
       316  17  1.665933E+06  9.649667E+04  1.005503E+05 -3.049051E+04 -3.264595E-10  1.693218E-10
       316  18  1.582159E+06  7.602106E+04  7.708308E+04 -5.044936E+04 -4.862530E-10  5.856372E-10
       316  19  7.922572E+05 -1.160742E+05 -8.775251E+04 -5.076885E+04 -1.966311E+04 -2.271929E+04
       316  20  8.759952E+05 -9.691742E+04 -7.770221E+04 -3.080866E+04 -1.401636E+04 -1.837354E+04
       316  21  9.609284E+05 -7.617917E+04 -6.357053E+04 -5.104338E+04 -8.366312E+03 -1.399283E+04
       316  22  1.271476E+06  1.252066E+03  2.019998E+04 -5.074606E+04 -1.623945E+04 -2.271835E+04
       316  23  1.270892E+06 -2.048486E+02  1.142937E+04 -3.064959E+04 -1.056074E+04 -1.837349E+04
       316  24  1.271499E+06 -7.564078E+01  6.759539E+03 -5.074645E+04 -4.879476E+03 -1.399370E+04
       316  25  1.750908E+06  1.185626E+05  1.281379E+05 -5.072325E+04 -1.281318E+04 -2.271741E+04
       316  26  1.665933E+06  9.649704E+04  1.005510E+05 -3.049041E+04 -7.102946E+03 -1.837344E+04
       316  27  1.582160E+06  7.602127E+04  7.708345E+04 -5.044935E+04 -1.390914E+03 -1.399456E+04
       317   1  1.035558E+06 -5.760563E+04 -4.767756E+04 -5.072849E+04  7.254554E+03  1.144046E+04
       317   2  1.119094E+06 -3.726063E+04 -3.092047E+04 -3.076720E+04  5.567269E+03  7.076824E+03
       317   3  1.202861E+06 -1.676902E+04 -1.303737E+04 -5.066622E+04  3.878802E+03  2.717711E+03
       317   4  1.271294E+06  7.289944E+01  5.280300E+03 -5.067221E+04  3.792601E+03  1.144172E+04
       317   5  1.271186E+06 -1.816738E+01  3.401618E+03 -3.074238E+04  2.108134E+03  7.078405E+03
       317   6  1.271302E+06  3.721147E+01  2.646867E+03 -5.067227E+04  4.227092E+02  2.719648E+03
       317   7  1.507082E+06  5.774764E+04  5.823467E+04 -5.061591E+04  3.293484E+02  1.144297E+04
       317   8  1.423300E+06  3.722272E+04  3.772227E+04 -3.071756E+04 -1.351838E+03  7.079985E+03
       317   9  1.339748E+06  1.684312E+04  1.833084E+04 -5.067832E+04 -3.033761E+03  2.721585E+03
       317  10  1.035558E+06 -5.760578E+04 -4.767790E+04 -5.072855E+04  5.855721E-11  4.015833E-10
       317  11  1.119094E+06 -3.726069E+04 -3.092062E+04 -3.076723E+04  6.406264E-10  2.519110E-10
       317  12  1.202861E+06 -1.676903E+04 -1.303741E+04 -5.066623E+04 -5.229478E-10  1.703336E-10
       317  13  1.271294E+06  7.275492E+01  5.280027E+03 -5.067225E+04 -7.788128E-10  6.095365E-10
       317  14  1.271186E+06 -1.822241E+01  3.401515E+03 -3.074240E+04  1.306868E-09 -5.565178E-10
       317  15  1.271302E+06  3.720347E+01  2.646853E+03 -5.067227E+04 -3.446930E-10 -3.912249E-10
       317  16  1.507082E+06  5.774750E+04  5.823443E+04 -5.061591E+04  3.771174E-10 -4.233369E-10
       317  17  1.423300E+06  3.722266E+04  3.772217E+04 -3.071755E+04 -4.067892E-10 -3.710881E-10
       317  18  1.339748E+06  1.684311E+04  1.833081E+04 -5.067832E+04  6.521663E-10 -5.311290E-10
       317  19  1.035558E+06 -5.760563E+04 -4.767756E+04 -5.072849E+04 -7.254554E+03 -1.144046E+04
       317  20  1.119094E+06 -3.726063E+04 -3.092047E+04 -3.076720E+04 -5.567269E+03 -7.076824E+03
       317  21  1.202861E+06 -1.676902E+04 -1.303737E+04 -5.066622E+04 -3.878802E+03 -2.717711E+03
       317  22  1.271294E+06  7.289944E+01  5.280300E+03 -5.067221E+04 -3.792601E+03 -1.144172E+04
       317  23  1.271186E+06 -1.816738E+01  3.401618E+03 -3.074238E+04 -2.108134E+03 -7.078405E+03
       317  24  1.271302E+06  3.721147E+01  2.646867E+03 -5.067227E+04 -4.227092E+02 -2.719648E+03
       317  25  1.507082E+06  5.774764E+04  5.823467E+04 -5.061591E+04 -3.293484E+02 -1.144297E+04
       317  26  1.423300E+06  3.722272E+04  3.772227E+04 -3.071756E+04  1.351838E+03 -7.079985E+03
       317  27  1.339748E+06  1.684312E+04  1.833084E+04 -5.067832E+04  3.033761E+03 -2.721585E+03
       318   1  1.277358E+06  1.570464E+03  4.192101E+03 -5.066129E+04  3.401796E+03  1.826865E+02
       318   2  1.360845E+06  2.193963E+04  2.328866E+04 -3.072947E+04  1.886444E+03 -4.173131E+03
       318   3  1.444526E+06  4.243920E+04  4.339192E+04 -5.061959E+04  3.714792E+02 -8.530831E+03
       318   4  1.271295E+06  3.779401E+01  2.583247E+03 -5.066395E+04 -5.344121E+01  1.846677E+02
       318   5  1.271199E+06 -8.754834E+00  3.061272E+03 -3.075278E+04 -1.570311E+03 -4.171365E+03
       318   6  1.271291E+06  7.615101E+01  4.547790E+03 -5.066391E+04 -3.086594E+03 -8.529254E+03
       318   7  1.265232E+06 -1.494873E+03  9.744339E+02 -5.066662E+04 -3.508644E+03  1.866490E+02
       318   8  1.181559E+06 -2.195769E+04 -1.716659E+04 -3.077609E+04 -5.026572E+03 -4.169600E+03
       318   9  1.098083E+06 -4.228894E+04 -3.429819E+04 -5.070821E+04 -6.543713E+03 -8.527677E+03
       318  10  1.277358E+06  1.570461E+03  4.192079E+03 -5.066129E+04  4.121092E-10 -7.426799E-11
       318  11  1.360845E+06  2.193961E+04  2.328862E+04 -3.072946E+04  9.853237E-10  1.054284E-10
       318  12  1.444526E+06  4.243912E+04  4.339178E+04 -5.061958E+04 -2.558188E-10  1.998971E-11
       318  13  1.271295E+06  3.779397E+01  2.583247E+03 -5.066395E+04  6.298454E-11  6.482332E-10
       318  14  1.271199E+06 -8.774191E+00  3.061235E+03 -3.075279E+04 -1.267062E-09  6.160138E-10
       318  15  1.271291E+06  7.607029E+01  4.547635E+03 -5.066393E+04  4.468700E-10 -7.208697E-10
       318  16  1.265232E+06 -1.494876E+03  9.744107E+02 -5.066662E+04 -1.537234E-10  1.470917E-10
       318  17  1.181559E+06 -2.195771E+04 -1.716667E+04 -3.077611E+04 -9.066397E-10  3.822392E-10
       318  18  1.098083E+06 -4.228903E+04 -3.429841E+04 -5.070825E+04  2.976956E-11 -3.149890E-10
       318  19  1.277358E+06  1.570464E+03  4.192101E+03 -5.066129E+04 -3.401796E+03 -1.826865E+02
       318  20  1.360845E+06  2.193963E+04  2.328866E+04 -3.072947E+04 -1.886444E+03  4.173131E+03
       318  21  1.444526E+06  4.243920E+04  4.339192E+04 -5.061959E+04 -3.714792E+02  8.530831E+03
       318  22  1.271295E+06  3.779401E+01  2.583247E+03 -5.066395E+04  5.344121E+01 -1.846677E+02
       318  23  1.271199E+06 -8.754834E+00  3.061272E+03 -3.075278E+04  1.570311E+03  4.171365E+03
       318  24  1.271291E+06  7.615101E+01  4.547790E+03 -5.066391E+04  3.086594E+03  8.529254E+03
       318  25  1.265232E+06 -1.494873E+03  9.744339E+02 -5.066662E+04  3.508644E+03 -1.866490E+02
       318  26  1.181559E+06 -2.195769E+04 -1.716659E+04 -3.077609E+04  5.026572E+03  4.169600E+03
       318  27  1.098083E+06 -4.228894E+04 -3.429819E+04 -5.070821E+04  6.543713E+03  8.527677E+03
       319   1  1.519421E+06  6.070190E+04  6.194027E+04 -5.048337E+04 -5.372613E+02 -1.107727E+04
       319   2  1.603057E+06  8.113702E+04  8.456244E+04 -3.057524E+04 -5.357592E+03 -1.544556E+04
       319   3  1.687688E+06  1.029139E+05  1.106565E+05 -5.073825E+04 -1.017655E+04 -1.977925E+04
       319   4  1.271459E+06 -4.881748E+01  5.758974E+03 -5.071960E+04 -4.017611E+03 -1.107598E+04
       319   5  1.270958E+06 -1.604437E+02  9.637344E+03 -3.068318E+04 -8.808393E+03 -1.544506E+04
       319   6  1.271440E+06  1.065353E+03  1.696869E+04 -5.071917E+04 -1.359717E+04 -1.977949E+04
       319   7  1.023554E+06 -6.080375E+04 -5.042624E+04 -5.095574E+04 -7.496585E+03 -1.107470E+04
       319   8  9.389611E+05 -8.146545E+04 -6.529476E+04 -3.079104E+04 -1.225737E+04 -1.544455E+04
       319   9  8.553520E+05 -1.007950E+05 -7.673012E+04 -5.070010E+04 -1.701551E+04 -1.977973E+04
       319  10  1.519421E+06  6.070176E+04  6.194004E+04 -5.048337E+04 -1.084636E-10  5.003293E-10
       319  11  1.603057E+06  8.113675E+04  8.456194E+04 -3.057531E+04  1.311089E-09  2.266901E-11
       319  12  1.687688E+06  1.029134E+05  1.106556E+05 -5.073841E+04 -2.465234E-10  3.991834E-10
       319  13  1.271459E+06 -4.895362E+01  5.758713E+03 -5.071964E+04  1.014098E-09 -4.340059E-10
       319  14  1.270958E+06 -1.607208E+02  9.636750E+03 -3.068329E+04  6.877256E-10 -3.180214E-10
       319  15  1.271440E+06  1.064884E+03  1.696761E+04 -5.071939E+04  6.438072E-10  1.399377E-10
       319  16  1.023554E+06 -6.080390E+04 -5.042658E+04 -5.095580E+04 -5.192669E-10  9.641632E-11
       319  17  9.389609E+05 -8.146575E+04 -6.529549E+04 -3.079119E+04 -3.633413E-10 -3.389180E-10
       319  18  8.553516E+05 -1.007955E+05 -7.673140E+04 -5.070037E+04  2.157690E-10 -1.629405E-10
       319  19  1.519421E+06  6.070190E+04  6.194027E+04 -5.048337E+04  5.372613E+02  1.107727E+04
       319  20  1.603057E+06  8.113702E+04  8.456244E+04 -3.057524E+04  5.357592E+03  1.544556E+04
       319  21  1.687688E+06  1.029139E+05  1.106565E+05 -5.073825E+04  1.017655E+04  1.977925E+04
       319  22  1.271459E+06 -4.881748E+01  5.758974E+03 -5.071960E+04  4.017611E+03  1.107598E+04
       319  23  1.270958E+06 -1.604437E+02  9.637344E+03 -3.068318E+04  8.808393E+03  1.544506E+04
       319  24  1.271440E+06  1.065353E+03  1.696869E+04 -5.071917E+04  1.359717E+04  1.977949E+04
       319  25  1.023554E+06 -6.080375E+04 -5.042624E+04 -5.095574E+04  7.496585E+03  1.107470E+04
       319  26  9.389611E+05 -8.146545E+04 -6.529476E+04 -3.079104E+04  1.225737E+04  1.544455E+04
       319  27  8.553520E+05 -1.007950E+05 -7.673012E+04 -5.070010E+04  1.701551E+04  1.977973E+04
       320   1  1.764620E+06  1.193514E+05  1.331564E+05 -4.768556E+04 -1.326599E+04 -2.246260E+04
       320   2  1.846138E+06  1.400525E+05  1.680639E+05 -3.197905E+04 -3.320163E+04 -2.668979E+04
       320   3  1.935228E+06  1.799923E+05  2.207691E+05 -5.686259E+04 -5.313724E+04 -2.986138E+04
       320   4  1.272857E+06 -1.061296E+03  2.201099E+04 -5.083379E+04 -1.703140E+04 -2.246340E+04
       320   5  1.269119E+06 -1.195691E+03  3.782615E+04 -3.053969E+04 -3.611338E+04 -2.669201E+04
       320   6  1.272808E+06  1.777220E+04  7.086009E+04 -5.083738E+04 -5.519265E+04 -2.986484E+04
       320   7  7.813182E+05 -1.214905E+05 -8.914990E+04 -5.397949E+04 -2.079387E+04 -2.246416E+04
       320   8  6.924085E+05 -1.424666E+05 -9.243290E+04 -2.910169E+04 -3.902245E+04 -2.669425E+04
       320   9  6.107939E+05 -1.444779E+05 -7.907708E+04 -4.481866E+04 -5.724586E+04 -2.986834E+04
       320  10  1.764620E+06  1.193508E+05  1.331552E+05 -4.768580E+04  6.023836E-10  1.850418E-10
       320  11  1.846136E+06  1.400514E+05  1.680605E+05 -3.197976E+04 -6.175200E-10 -3.427799E-10
       320  12  1.935225E+06  1.799906E+05  2.207621E+05 -5.686387E+04 -1.215229E-10 -5.207533E-10
       320  13  1.272857E+06 -1.061916E+03  2.200950E+04 -5.083409E+04 -5.556191E-10 -8.908875E-12
       320  14  1.269117E+06 -1.196805E+03  3.782237E+04 -3.054047E+04 -2.452873E-11 -3.265536E-10
       320  15  1.272804E+06  1.777043E+04  7.085270E+04 -5.083871E+04  9.954482E-10 -2.336030E-10
       320  16  7.813176E+05 -1.214912E+05 -8.915166E+04 -5.397987E+04 -9.708246E-11 -3.917054E-10
       320  17  6.924067E+05 -1.424678E+05 -9.243709E+04 -2.910253E+04 -6.095945E-11 -5.358698E-10
       320  18  6.107902E+05 -1.444797E+05 -7.908491E+04 -4.482004E+04 -1.677571E-10  4.150075E-10
       320  19  1.764620E+06  1.193514E+05  1.331564E+05 -4.768556E+04  1.326599E+04  2.246260E+04
       320  20  1.846138E+06  1.400525E+05  1.680639E+05 -3.197905E+04  3.320163E+04  2.668979E+04
       320  21  1.935228E+06  1.799923E+05  2.207691E+05 -5.686259E+04  5.313724E+04  2.986138E+04
       320  22  1.272857E+06 -1.061296E+03  2.201099E+04 -5.083379E+04  1.703140E+04  2.246340E+04
       320  23  1.269119E+06 -1.195691E+03  3.782615E+04 -3.053969E+04  3.611338E+04  2.669201E+04
       320  24  1.272808E+06  1.777220E+04  7.086009E+04 -5.083738E+04  5.519265E+04  2.986484E+04
       320  25  7.813182E+05 -1.214905E+05 -8.914990E+04 -5.397949E+04  2.079387E+04  2.246416E+04
       320  26  6.924085E+05 -1.424666E+05 -9.243290E+04 -2.910169E+04  3.902245E+04  2.669425E+04
       320  27  6.107939E+05 -1.444779E+05 -7.907708E+04 -4.481866E+04  5.724586E+04  2.986834E+04
       321   1  2.028619E+06  1.663905E+05  2.549577E+05 -1.065098E+04 -5.881491E+04 -3.499913E+04
       321   2  2.074240E+06  1.903255E+05  3.360182E+05 -6.906390E+04 -1.564209E+05 -3.502318E+04
       321   3  2.203354E+06  4.962022E+05  5.510526E+05 -1.682805E+05 -2.540683E+05 -1.153431E+04
       321   4  1.289019E+06 -1.461023E+04  8.843381E+04 -5.080942E+04 -6.806839E+04 -3.500288E+04
       321   5  1.248745E+06 -1.198169E+04  1.480584E+05 -3.054708E+04 -1.469291E+05 -3.502838E+04
       321   6  1.288814E+06  2.695214E+05  3.287736E+05 -5.107541E+04 -2.258145E+05 -1.155171E+04
       321   7  5.499304E+05 -1.956423E+05 -7.812375E+04 -9.091972E+04 -7.731093E+04 -3.500544E+04
       321   8  4.238840E+05 -2.143303E+05 -3.994453E+04  7.918102E+03 -1.374496E+05 -3.503242E+04
       321   9  3.750650E+05  4.283152E+04  1.064444E+05  6.595689E+04 -1.976018E+05 -1.155852E+04
       321  10  2.028615E+06  1.663882E+05  2.549489E+05 -1.065263E+04  8.918870E-10 -3.364921E-10
       321  11  2.074214E+06  1.903176E+05  3.359701E+05 -6.906831E+04  1.574071E-09  8.321349E-11
       321  12  2.203285E+06  4.961848E+05  5.509315E+05 -1.682828E+05  9.532005E-10  6.282446E-10
       321  13  1.289014E+06 -1.461278E+04  8.842282E+04 -5.081133E+04 -8.735622E-10 -1.015594E-09
       321  14  1.248722E+06 -1.198879E+04  1.480156E+05 -3.055123E+04 -1.605541E-13  1.452297E-10
       321  15  1.288759E+06  2.695076E+05  3.286777E+05 -5.107751E+04  5.943261E-10 -4.017082E-10
       321  16  5.499236E+05 -1.956452E+05 -7.813728E+04 -9.092190E+04 -7.360065E-10  3.553479E-10
       321  17  4.238634E+05 -2.143366E+05 -3.998231E+04  7.914225E+03 -1.775130E-09 -4.296412E-10
       321  18  3.750230E+05  4.282090E+04  1.063709E+05  6.595505E+04 -9.436076E-10  9.590115E-10
       321  19  2.028619E+06  1.663905E+05  2.549577E+05 -1.065098E+04  5.881491E+04  3.499913E+04
       321  20  2.074240E+06  1.903255E+05  3.360182E+05 -6.906390E+04  1.564209E+05  3.502318E+04
       321  21  2.203354E+06  4.962022E+05  5.510526E+05 -1.682805E+05  2.540683E+05  1.153431E+04
       321  22  1.289019E+06 -1.461023E+04  8.843381E+04 -5.080942E+04  6.806839E+04  3.500288E+04
       321  23  1.248745E+06 -1.198169E+04  1.480584E+05 -3.054708E+04  1.469291E+05  3.502838E+04
       321  24  1.288814E+06  2.695214E+05  3.287736E+05 -5.107541E+04  2.258145E+05  1.155171E+04
       321  25  5.499304E+05 -1.956423E+05 -7.812375E+04 -9.091972E+04  7.731093E+04  3.500544E+04
       321  26  4.238840E+05 -2.143303E+05 -3.994453E+04  7.918102E+03  1.374496E+05  3.503242E+04
       321  27  3.750650E+05  4.283152E+04  1.064444E+05  6.595689E+04  1.976018E+05  1.155852E+04
       322   1  2.165894E+05  5.934298E+05  2.549866E+05 -1.666479E+05  4.754006E+02  1.449617E+05
       322   2 -4.637844E+03  4.184723E+05  1.032113E+05 -7.987961E+04 -4.426014E+02  8.728418E+04
       322   3 -4.217380E+04  2.966666E+05  3.482412E+04 -6.349114E+04 -6.935129E+03  2.961030E+04
       322   4  1.763387E+05  4.333663E+05  2.153190E+05 -8.931305E+04  4.958266E+02  1.435593E+05
       322   5 -7.595290E+03  4.071927E+05  1.002232E+05 -5.428288E+04 -4.441529E+02  9.030583E+04
       322   6 -8.604110E+03  4.333997E+05  6.546401E+04 -8.961817E+04 -6.949158E+03  3.704250E+04
       322   7  1.361085E+05  2.733389E+05  1.756527E+05 -1.199816E+04  5.159078E+02  1.421572E+05
       322   8 -1.055028E+04  3.959146E+05  9.723557E+04 -2.868661E+04 -4.454554E+02  9.332743E+04
       322   9  2.496688E+04  5.701518E+05  9.610328E+04 -1.157510E+05 -6.963809E+03  4.447633E+04
       322  10  2.165838E+05  5.934072E+05  2.549471E+05 -1.666479E+05 -1.883123E-10  3.721895E-11
       322  11 -4.639888E+03  4.184641E+05  1.031970E+05 -7.987958E+04 -1.047614E-09  3.749684E-10
       322  12 -4.217409E+04  2.966656E+05  3.482239E+04 -6.349098E+04  6.514723E-10  1.032123E-09
       322  13  1.763332E+05  4.333442E+05  2.152803E+05 -8.931311E+04  9.790991E-10 -2.562111E-12
       322  14 -7.597477E+03  4.071839E+05  1.002079E+05 -5.428285E+04 -5.742175E-10 -9.466827E-10
       322  15 -8.604530E+03  4.333982E+05  6.546134E+04 -8.961797E+04  8.168002E-11 -5.041448E-10
       322  16  1.361031E+05  2.733172E+05  1.756147E+05 -1.199822E+04  1.303688E-10  7.504104E-10
       322  17 -1.055262E+04  3.959053E+05  9.721921E+04 -2.868658E+04 -3.069733E-10 -2.988908E-10
       322  18  2.496630E+04  5.701496E+05  9.609947E+04 -1.157508E+05 -3.341699E-11 -1.549108E-09
       322  19  2.165894E+05  5.934298E+05  2.549866E+05 -1.666479E+05 -4.754006E+02 -1.449617E+05
       322  20 -4.637844E+03  4.184723E+05  1.032113E+05 -7.987961E+04  4.426014E+02 -8.728418E+04
       322  21 -4.217380E+04  2.966666E+05  3.482412E+04 -6.349114E+04  6.935129E+03 -2.961030E+04
       322  22  1.763387E+05  4.333663E+05  2.153190E+05 -8.931305E+04 -4.958266E+02 -1.435593E+05
       322  23 -7.595290E+03  4.071927E+05  1.002232E+05 -5.428288E+04  4.441529E+02 -9.030583E+04
       322  24 -8.604110E+03  4.333997E+05  6.546401E+04 -8.961817E+04  6.949158E+03 -3.704250E+04
       322  25  1.361085E+05  2.733389E+05  1.756527E+05 -1.199816E+04 -5.159078E+02 -1.421572E+05
       322  26 -1.055028E+04  3.959146E+05  9.723557E+04 -2.868661E+04  4.454554E+02 -9.332743E+04
       322  27  2.496688E+04  5.701518E+05  9.610328E+04 -1.157510E+05  6.963809E+03 -4.447633E+04
       323   1 -5.463601E+04  1.540503E+05 -4.414589E+03 -9.496938E+04 -1.216210E+04  2.094279E+04
       323   2 -1.036803E+05  1.320109E+03 -5.128325E+04 -5.398674E+04 -1.933843E+04 -1.274074E+02
       323   3 -1.304416E+05 -1.432375E+05 -7.890608E+04 -8.381358E+04 -2.556915E+04 -2.118702E+04
       323   4  1.145162E+04  4.235795E+05  5.668855E+04 -8.962628E+04 -1.217184E+04  2.703953E+04
       323   5 -1.171342E+03  4.194230E+05  4.324630E+04 -5.422616E+04 -1.934552E+04  5.209422E+03
       323   6  8.614080E+03  4.235459E+05  4.957220E+04 -8.963127E+04 -2.557358E+04 -1.661500E+04
       323   7  7.753439E+04  6.931762E+05  1.177871E+05 -8.428080E+04 -1.218148E+04  3.313888E+04
       323   8  1.013256E+05  8.376883E+05  1.377647E+05 -5.446568E+04 -1.935261E+04  1.054981E+04
       323   9  1.476477E+05  9.906277E+05  1.780298E+05 -9.545420E+04 -2.557810E+04 -1.203884E+04
       323  10 -5.463629E+04  1.540498E+05 -4.415691E+03 -9.496917E+04  1.958406E-10 -4.891443E-10
       323  11 -1.036807E+05  1.320009E+03 -5.128395E+04 -5.398674E+04  7.679139E-11 -2.535603E-10
       323  12 -1.304424E+05 -1.432382E+05 -7.890816E+04 -8.381402E+04 -5.894231E-10  4.465572E-10
       323  13  1.145127E+04  4.235787E+05  5.668689E+04 -8.962601E+04  5.830274E-11 -3.736834E-11
       323  14 -1.171751E+03  4.194229E+05  4.324554E+04 -5.422608E+04  9.120345E-10 -7.826222E-10
       323  15  8.613304E+03  4.235454E+05  4.957045E+04 -8.963161E+04  7.867521E-10 -4.663620E-10
       323  16  7.753393E+04  6.931750E+05  1.177848E+05 -8.428048E+04  2.478102E-10  1.278050E-09
       323  17  1.013252E+05  8.376881E+05  1.377638E+05 -5.446552E+04 -1.105451E-09  2.368162E-10
       323  18  1.476470E+05  9.906274E+05  1.780283E+05 -9.545444E+04 -5.601103E-10 -8.971531E-10
       323  19 -5.463601E+04  1.540503E+05 -4.414589E+03 -9.496938E+04  1.216210E+04 -2.094279E+04
       323  20 -1.036803E+05  1.320109E+03 -5.128325E+04 -5.398674E+04  1.933843E+04  1.274074E+02
       323  21 -1.304416E+05 -1.432375E+05 -7.890608E+04 -8.381358E+04  2.556915E+04  2.118702E+04
       323  22  1.145162E+04  4.235795E+05  5.668855E+04 -8.962628E+04  1.217184E+04 -2.703953E+04
       323  23 -1.171342E+03  4.194230E+05  4.324630E+04 -5.422616E+04  1.934552E+04 -5.209422E+03
       323  24  8.614080E+03  4.235459E+05  4.957220E+04 -8.963127E+04  2.557358E+04  1.661500E+04
       323  25  7.753439E+04  6.931762E+05  1.177871E+05 -8.428080E+04  1.218148E+04 -3.313888E+04
       323  26  1.013256E+05  8.376883E+05  1.377647E+05 -5.446568E+04  1.935261E+04 -1.054981E+04
       323  27  1.476477E+05  9.906277E+05  1.780298E+05 -9.545420E+04  2.557810E+04  1.203884E+04
       324   1 -1.780871E+05 -2.692478E+05 -1.029433E+05 -1.091093E+05 -3.291809E+04 -3.777059E+04
       324   2 -2.144636E+05 -4.375771E+05 -1.135681E+05 -3.385650E+04 -3.556002E+04 -5.929486E+04
       324   3 -1.111227E+05 -5.679226E+05 -7.519012E+04 -2.866195E+04 -1.182880E+04 -8.079652E+04
       324   4 -6.519757E+03  4.309004E+05  5.506871E+04 -8.949624E+04 -3.293207E+04 -2.524416E+04
       324   5 -6.164643E+03  4.100877E+05  7.999982E+04 -5.442075E+04 -3.554735E+04 -6.769379E+04
       324   6  1.374304E+05  4.308046E+05  1.684091E+05 -8.938975E+04 -1.180276E+04 -1.101271E+05
       324   7  1.650155E+05  1.131505E+06  2.130501E+05 -6.986071E+04 -3.294525E+04 -1.270373E+04
       324   8  2.020860E+05  1.258420E+06  2.735212E+05 -7.501315E+04 -3.553414E+04 -7.610405E+04
       324   9  3.859241E+05  1.430451E+06  4.119409E+05 -1.502154E+05 -1.177100E+04 -1.395046E+05
       324  10 -1.780886E+05 -2.692496E+05 -1.029480E+05 -1.091103E+05  3.099128E-10  1.204015E-10
       324  11 -2.144659E+05 -4.375813E+05 -1.135771E+05 -3.385820E+04  1.739934E-10  1.475671E-10
       324  12 -1.111246E+05 -5.679297E+05 -7.520266E+04 -2.866272E+04  1.965638E-11  1.349487E-10
       324  13 -6.521093E+03  4.308994E+05  5.506548E+04 -8.949691E+04 -4.950852E-10  1.049126E-10
       324  14 -6.167230E+03  4.100824E+05  7.998884E+04 -5.442268E+04  6.149288E-10 -5.082495E-10
       324  15  1.374270E+05  4.307915E+05  1.683861E+05 -8.939079E+04 -1.495947E-10 -8.168699E-11
       324  16  1.650143E+05  1.131505E+06  2.130478E+05 -6.986104E+04  2.984774E-10  4.203049E-10
       324  17  2.020831E+05  1.258413E+06  2.735080E+05 -7.501533E+04 -2.006470E-10 -2.052714E-10
       324  18  3.859187E+05  1.430430E+06  4.119042E+05 -1.502167E+05 -2.372281E-10 -2.346134E-10
       324  19 -1.780871E+05 -2.692478E+05 -1.029433E+05 -1.091093E+05  3.291809E+04  3.777059E+04
       324  20 -2.144636E+05 -4.375771E+05 -1.135681E+05 -3.385650E+04  3.556002E+04  5.929486E+04
       324  21 -1.111227E+05 -5.679226E+05 -7.519012E+04 -2.866195E+04  1.182880E+04  8.079652E+04
       324  22 -6.519757E+03  4.309004E+05  5.506871E+04 -8.949624E+04  3.293207E+04  2.524416E+04
       324  23 -6.164643E+03  4.100877E+05  7.999982E+04 -5.442075E+04  3.554735E+04  6.769379E+04
       324  24  1.374304E+05  4.308046E+05  1.684091E+05 -8.938975E+04  1.180276E+04  1.101271E+05
       324  25  1.650155E+05  1.131505E+06  2.130501E+05 -6.986071E+04  3.294525E+04  1.270373E+04
       324  26  2.020860E+05  1.258420E+06  2.735212E+05 -7.501315E+04  3.553414E+04  7.610405E+04
       324  27  3.859241E+05  1.430451E+06  4.119409E+05 -1.502154E+05  1.177100E+04  1.395046E+05
       325   1 -2.691792E+06 -1.035020E+06 -5.668280E+05 -1.047025E+06 -2.717261E+05 -8.393284E+04
       325   2 -2.618741E+06 -7.359836E+05 -3.427512E+05 -1.013354E+06 -1.726258E+05 -4.558752E+03
       325   3 -2.608357E+06 -6.169175E+05 -2.480264E+05 -9.564902E+05 -6.282670E+04  4.650125E+04
       325   4 -1.741530E+06 -5.353820E+05 -2.934032E+05 -6.410091E+05 -1.953418E+05 -5.524904E+04
       325   5 -1.698179E+06 -3.355854E+05 -1.347333E+05 -6.954578E+05 -1.386577E+05  8.196222E+03
       325   6 -1.708963E+06 -3.072054E+05 -7.159837E+04 -7.267503E+05 -7.129499E+04  4.330863E+04
       325   7 -7.903366E+05 -3.539855E+04 -2.004055E+04 -2.343471E+05 -1.188312E+05 -2.647340E+04
       325   8 -7.767382E+05  6.498143E+04  7.323590E+04 -3.770931E+05 -1.046352E+05  2.098015E+04
       325   9 -8.087197E+05  2.558308E+03  1.047960E+05 -4.967081E+05 -7.977658E+04  4.011168E+04
       325  10 -2.691873E+06 -1.035048E+06 -5.669808E+05 -1.047043E+06  1.723621E-09  6.745860E-10
       325  11 -2.618773E+06 -7.359917E+05 -3.428075E+05 -1.013354E+06  2.890877E-10 -4.093482E-10
       325  12 -2.608362E+06 -6.169208E+05 -2.480379E+05 -9.564878E+05 -1.599062E-09 -1.401781E-10
       325  13 -1.741572E+06 -5.353956E+05 -2.934808E+05 -6.410178E+05  4.049396E-10 -4.085163E-10
       325  14 -1.698200E+06 -3.355907E+05 -1.347697E+05 -6.954569E+05  2.154208E-09 -3.601986E-10
       325  15 -1.708969E+06 -3.072088E+05 -7.161146E+04 -7.267478E+05 -1.037871E-10 -4.247133E-10
       325  16 -7.903520E+05 -3.540310E+04 -2.006845E+04 -2.343496E+05 -6.230977E-10 -1.582002E-09
       325  17 -7.767500E+05  6.497802E+04  7.321448E+04 -3.770914E+05  3.794948E-10 -2.095973E-09
       325  18 -8.087269E+05  2.554874E+03  1.047810E+05 -4.967055E+05  2.066318E-09 -2.402383E-10
       325  19 -2.691792E+06 -1.035020E+06 -5.668280E+05 -1.047025E+06  2.717261E+05  8.393284E+04
       325  20 -2.618741E+06 -7.359836E+05 -3.427512E+05 -1.013354E+06  1.726258E+05  4.558752E+03
       325  21 -2.608357E+06 -6.169175E+05 -2.480264E+05 -9.564902E+05  6.282670E+04 -4.650125E+04
       325  22 -1.741530E+06 -5.353820E+05 -2.934032E+05 -6.410091E+05  1.953418E+05  5.524904E+04
       325  23 -1.698179E+06 -3.355854E+05 -1.347333E+05 -6.954578E+05  1.386577E+05 -8.196222E+03
       325  24 -1.708963E+06 -3.072054E+05 -7.159837E+04 -7.267503E+05  7.129499E+04 -4.330863E+04
       325  25 -7.903366E+05 -3.539855E+04 -2.004055E+04 -2.343471E+05  1.188312E+05  2.647340E+04
       325  26 -7.767382E+05  6.498143E+04  7.323590E+04 -3.770931E+05  1.046352E+05 -2.098015E+04
       325  27 -8.087197E+05  2.558308E+03  1.047960E+05 -4.967081E+05  7.977658E+04 -4.011168E+04
       326   1 -2.525510E+06 -6.187683E+05 -2.188115E+05 -9.534996E+05 -5.828187E+04  4.430338E+04
       326   2 -2.447670E+06 -5.692826E+05 -1.734918E+05 -9.215653E+05 -3.942260E+04  4.752727E+04
       326   3 -2.359433E+06 -5.433022E+05 -1.433712E+05 -9.060824E+05 -1.977558E+04  4.865337E+04
       326   4 -1.700064E+06 -3.135824E+05 -5.444639E+04 -7.207270E+05 -6.182598E+04  4.296225E+04
       326   5 -1.704872E+06 -2.974173E+05 -2.874651E+04 -7.142622E+05 -4.609465E+04  4.501293E+04
       326   6 -1.698663E+06 -3.041273E+05 -1.574521E+04 -7.242497E+05 -2.957867E+04  4.496609E+04
       326   7 -8.739095E+05 -8.332307E+03  1.098864E+05 -4.876651E+05 -6.537515E+04  4.161918E+04
       326   8 -9.615031E+05 -2.550294E+04  1.159734E+05 -5.067287E+05 -5.277524E+04  4.249537E+04
       326   9 -1.037443E+06 -6.491690E+04  1.118605E+05 -5.422390E+05 -3.939289E+04  4.127470E+04
       326  10 -2.525514E+06 -6.187713E+05 -2.188216E+05 -9.534975E+05 -6.297683E-10  6.347852E-10
       326  11 -2.447672E+06 -5.692854E+05 -1.734990E+05 -9.215638E+05 -1.445681E-09  7.081913E-10
       326  12 -2.359434E+06 -5.433049E+05 -1.433764E+05 -9.060816E+05  8.871951E-10  1.673475E-10
       326  13 -1.700068E+06 -3.135854E+05 -5.445704E+04 -7.207249E+05 -5.360283E-10  2.544474E-10
       326  14 -1.704875E+06 -2.974200E+05 -2.875430E+04 -7.142605E+05 -8.998641E-10  1.779283E-10
       326  15 -1.698665E+06 -3.041297E+05 -1.575065E+04 -7.242487E+05  7.629900E-10 -3.913153E-10
       326  16 -8.739146E+05 -8.335312E+03  1.098752E+05 -4.876629E+05  6.836557E-10  1.277361E-12
       326  17 -9.615065E+05 -2.550563E+04  1.159648E+05 -5.067268E+05  1.023350E-09 -1.829586E-10
       326  18 -1.037446E+06 -6.491915E+04  1.118544E+05 -5.422377E+05 -3.720503E-10 -5.766771E-10
       326  19 -2.525510E+06 -6.187683E+05 -2.188115E+05 -9.534996E+05  5.828187E+04 -4.430338E+04
       326  20 -2.447670E+06 -5.692826E+05 -1.734918E+05 -9.215653E+05  3.942260E+04 -4.752727E+04
       326  21 -2.359433E+06 -5.433022E+05 -1.433712E+05 -9.060824E+05  1.977558E+04 -4.865337E+04
       326  22 -1.700064E+06 -3.135824E+05 -5.444639E+04 -7.207270E+05  6.182598E+04 -4.296225E+04
       326  23 -1.704872E+06 -2.974173E+05 -2.874651E+04 -7.142622E+05  4.609465E+04 -4.501293E+04
       326  24 -1.698663E+06 -3.041273E+05 -1.574521E+04 -7.242497E+05  2.957867E+04 -4.496609E+04
       326  25 -8.739095E+05 -8.332307E+03  1.098864E+05 -4.876651E+05  6.537515E+04 -4.161918E+04
       326  26 -9.615031E+05 -2.550294E+04  1.159734E+05 -5.067287E+05  5.277524E+04 -4.249537E+04
       326  27 -1.037443E+06 -6.491690E+04  1.118605E+05 -5.422390E+05  3.939289E+04 -4.127470E+04
       327   1 -2.301121E+06 -5.236553E+05 -1.280102E+05 -8.909459E+05 -1.647780E+04  4.553740E+04
       327   2 -2.223617E+06 -4.845713E+05 -1.062798E+05 -8.584270E+05 -1.058104E+04  4.046081E+04
       327   3 -2.130917E+06 -4.616397E+05 -8.724032E+04 -8.439645E+05 -4.623405E+03  3.521460E+04
       327   4 -1.697971E+06 -3.044438E+05 -1.184421E+04 -7.239170E+05 -2.594484E+04  4.197813E+04
       327   5 -1.705553E+06 -2.962632E+05 -6.510600E+03 -7.149282E+05 -2.029963E+04  3.680957E+04
       327   6 -1.697899E+06 -3.041852E+05 -3.667142E+03 -7.239982E+05 -1.459410E+04  3.147130E+04
       327   7 -1.094437E+06 -8.519772E+04  1.043080E+05 -5.567356E+05 -3.542185E+04  3.841514E+04
       327   8 -1.187207E+06 -1.079303E+05  9.324813E+04 -5.713174E+05 -3.002697E+04  3.315505E+04
       327   9 -1.264685E+06 -1.467140E+05  7.989837E+04 -6.039539E+05 -2.457227E+04  2.772520E+04
       327  10 -2.301121E+06 -5.236576E+05 -1.280146E+05 -8.909453E+05 -4.139507E-11 -1.907191E-10
       327  11 -2.223617E+06 -4.845730E+05 -1.062831E+05 -8.584266E+05  2.554175E-10 -5.478028E-10
       327  12 -2.130917E+06 -4.616410E+05 -8.724269E+04 -8.439644E+05 -1.910288E-10 -4.672633E-10
       327  13 -1.697972E+06 -3.044458E+05 -1.184878E+04 -7.239161E+05  3.289472E-10 -5.733155E-10
       327  14 -1.705554E+06 -2.962648E+05 -6.513917E+03 -7.149276E+05  5.382408E-11 -6.115029E-10
       327  15 -1.697900E+06 -3.041864E+05 -3.669402E+03 -7.239978E+05 -1.782259E-10 -3.788973E-10
       327  16 -1.094438E+06 -8.519964E+04  1.043028E+05 -5.567345E+05 -3.767943E-10 -5.582228E-10
       327  17 -1.187208E+06 -1.079317E+05  9.324437E+04 -5.713166E+05 -2.485387E-10 -4.724219E-10
       327  18 -1.264686E+06 -1.467150E+05  7.989579E+04 -6.039534E+05  6.348376E-10 -4.389590E-10
       327  19 -2.301121E+06 -5.236553E+05 -1.280102E+05 -8.909459E+05  1.647780E+04 -4.553740E+04
       327  20 -2.223617E+06 -4.845713E+05 -1.062798E+05 -8.584270E+05  1.058104E+04 -4.046081E+04
       327  21 -2.130917E+06 -4.616397E+05 -8.724032E+04 -8.439645E+05  4.623405E+03 -3.521460E+04
       327  22 -1.697971E+06 -3.044438E+05 -1.184421E+04 -7.239170E+05  2.594484E+04 -4.197813E+04
       327  23 -1.705553E+06 -2.962632E+05 -6.510600E+03 -7.149282E+05  2.029963E+04 -3.680957E+04
       327  24 -1.697899E+06 -3.041852E+05 -3.667142E+03 -7.239982E+05  1.459410E+04 -3.147130E+04
       327  25 -1.094437E+06 -8.519772E+04  1.043080E+05 -5.567356E+05  3.542185E+04 -3.841514E+04
       327  26 -1.187207E+06 -1.079303E+05  9.324813E+04 -5.713174E+05  3.002697E+04 -3.315505E+04
       327  27 -1.264685E+06 -1.467140E+05  7.989837E+04 -6.039539E+05  2.457227E+04 -2.772520E+04
       328   1 -2.073619E+06 -4.408245E+05 -7.490633E+04 -8.281788E+05 -2.641671E+03  3.154296E+04
       328   2 -1.995904E+06 -4.018436E+05 -5.760290E+04 -7.953971E+05  7.584949E+02  2.523688E+04
       328   3 -1.902464E+06 -3.787177E+05 -4.097441E+04 -7.807659E+05  4.164557E+03  1.890999E+04
       328   4 -1.697792E+06 -3.042081E+05 -2.820598E+03 -7.239849E+05 -1.260410E+04  2.780397E+04
       328   5 -1.705644E+06 -2.962783E+05 -1.759206E+03 -7.149066E+05 -9.234953E+03  2.148771E+04
       328   6 -1.697774E+06 -3.041978E+05 -1.348300E+03 -7.239816E+05 -5.860029E+03  1.515058E+04
       328   7 -1.321820E+06 -1.675802E+05  6.925864E+04 -6.197331E+05 -2.257292E+04  2.406259E+04
       328   8 -1.415296E+06 -1.907054E+05  5.408130E+04 -6.343811E+05 -1.923342E+04  1.773666E+04
       328   9 -1.493038E+06 -2.296734E+05  3.827690E+04 -6.671792E+05 -1.588825E+04  1.138981E+04
       328  10 -2.073619E+06 -4.408255E+05 -7.490821E+04 -8.281788E+05  7.829230E-10 -3.310114E-11
       328  11 -1.995904E+06 -4.018443E+05 -5.760410E+04 -7.953971E+05  3.880053E-10  2.201610E-10
       328  12 -1.902465E+06 -3.787181E+05 -4.097512E+04 -7.807660E+05 -1.978519E-10  1.648143E-10
       328  13 -1.697792E+06 -3.042090E+05 -2.822347E+03 -7.239846E+05 -3.885667E-11 -1.181695E-10
       328  14 -1.705644E+06 -2.962788E+05 -1.760233E+03 -7.149065E+05  1.664934E-10  2.128062E-10
       328  15 -1.697774E+06 -3.041981E+05 -1.348796E+03 -7.239815E+05  7.742416E-11  4.516150E-10
       328  16 -1.321821E+06 -1.675810E+05  6.925659E+04 -6.197327E+05 -2.048468E-10 -1.134036E-10
       328  17 -1.415297E+06 -1.907058E+05  5.408001E+04 -6.343808E+05 -6.500979E-10  1.232709E-10
       328  18 -1.493038E+06 -2.296736E+05  3.827618E+04 -6.671791E+05 -4.339118E-10  2.859624E-10
       328  19 -2.073619E+06 -4.408245E+05 -7.490633E+04 -8.281788E+05  2.641671E+03 -3.154296E+04
       328  20 -1.995904E+06 -4.018436E+05 -5.760290E+04 -7.953971E+05 -7.584949E+02 -2.523688E+04
       328  21 -1.902464E+06 -3.787177E+05 -4.097441E+04 -7.807659E+05 -4.164557E+03 -1.890999E+04
       328  22 -1.697792E+06 -3.042081E+05 -2.820598E+03 -7.239849E+05  1.260410E+04 -2.780397E+04
       328  23 -1.705644E+06 -2.962783E+05 -1.759206E+03 -7.149066E+05  9.234953E+03 -2.148771E+04
       328  24 -1.697774E+06 -3.041978E+05 -1.348300E+03 -7.239816E+05  5.860029E+03 -1.515058E+04
       328  25 -1.321820E+06 -1.675802E+05  6.925864E+04 -6.197331E+05  2.257292E+04 -2.406259E+04
       328  26 -1.415296E+06 -1.907054E+05  5.408130E+04 -6.343811E+05  1.923342E+04 -1.773666E+04
       328  27 -1.493038E+06 -2.296734E+05  3.827690E+04 -6.671792E+05  1.588825E+04 -1.138981E+04
       329   1 -1.845047E+06 -3.577659E+05 -2.942555E+04 -7.648981E+05  5.853326E+03  1.510866E+04
       329   2 -1.767111E+06 -3.186897E+05 -1.348711E+04 -7.320471E+05  9.174788E+03  8.737048E+03
       329   3 -1.673415E+06 -2.954984E+05  1.840610E+03 -7.173962E+05  1.249420E+04  2.369778E+03
       329   4 -1.697762E+06 -3.042013E+05 -1.330634E+03 -7.239922E+05 -4.178754E+03  1.134695E+04
       329   5 -1.705633E+06 -2.962381E+05 -1.654567E+03 -7.148977E+05 -8.512512E+02  4.977922E+03
       329   6 -1.697754E+06 -3.041615E+05 -2.594266E+03 -7.240060E+05  2.474068E+03 -1.386791E+03
       329   7 -1.550454E+06 -2.506347E+05  2.676380E+04 -6.830772E+05 -1.421338E+04  7.584295E+03
       329   8 -1.644151E+06 -2.737862E+05  1.017817E+04 -6.977467E+05 -1.087831E+04  1.218411E+03
       329   9 -1.722091E+06 -3.128244E+05 -7.028671E+03 -7.306154E+05 -7.545552E+03 -5.143175E+03
       329  10 -1.845048E+06 -3.577661E+05 -2.942605E+04 -7.648982E+05 -7.621437E-10  1.180808E-11
       329  11 -1.767111E+06 -3.186898E+05 -1.348742E+04 -7.320472E+05  2.775673E-10  3.406650E-10
       329  12 -1.673415E+06 -2.954984E+05  1.840305E+03 -7.173962E+05  4.651519E-10 -6.788491E-11
       329  13 -1.697762E+06 -3.042015E+05 -1.330909E+03 -7.239922E+05  2.744589E-10  4.503798E-10
       329  14 -1.705633E+06 -2.962381E+05 -1.654615E+03 -7.148977E+05 -8.984046E-10 -2.823274E-10
       329  15 -1.697754E+06 -3.041615E+05 -2.594281E+03 -7.240060E+05 -8.889969E-10 -8.122069E-10
       329  16 -1.550454E+06 -2.506348E+05  2.676331E+04 -6.830772E+05  5.752837E-10  6.318804E-10
       329  17 -1.644151E+06 -2.737862E+05  1.017795E+04 -6.977467E+05  2.150914E-10 -1.304252E-10
       329  18 -1.722091E+06 -3.128244E+05 -7.028828E+03 -7.306154E+05 -2.534951E-10 -7.610936E-10
       329  19 -1.845047E+06 -3.577659E+05 -2.942555E+04 -7.648981E+05 -5.853326E+03 -1.510866E+04
       329  20 -1.767111E+06 -3.186897E+05 -1.348711E+04 -7.320471E+05 -9.174788E+03 -8.737048E+03
       329  21 -1.673415E+06 -2.954984E+05  1.840610E+03 -7.173962E+05 -1.249420E+04 -2.369778E+03
       329  22 -1.697762E+06 -3.042013E+05 -1.330634E+03 -7.239922E+05  4.178754E+03 -1.134695E+04
       329  23 -1.705633E+06 -2.962381E+05 -1.654567E+03 -7.148977E+05  8.512512E+02 -4.977922E+03
       329  24 -1.697754E+06 -3.041615E+05 -2.594266E+03 -7.240060E+05 -2.474068E+03  1.386791E+03
       329  25 -1.550454E+06 -2.506347E+05  2.676380E+04 -6.830772E+05  1.421338E+04 -7.584295E+03
       329  26 -1.644151E+06 -2.737862E+05  1.017817E+04 -6.977467E+05  1.087831E+04 -1.218411E+03
       329  27 -1.722091E+06 -3.128244E+05 -7.028671E+03 -7.306154E+05  7.545552E+03  5.143175E+03
       330   1 -1.615967E+06 -2.745473E+05  1.262325E+04 -7.015771E+05  1.446214E+04 -1.328967E+03
       330   2 -1.537874E+06 -2.354909E+05  2.635097E+04 -6.687443E+05  1.973888E+04 -6.908301E+03
       330   3 -1.444387E+06 -2.125882E+05  3.793080E+04 -6.541173E+05  2.497623E+04 -1.237846E+04
       330   4 -1.697832E+06 -3.041473E+05 -3.357289E+03 -7.240385E+05  4.425900E+03 -5.091732E+03
       330   5 -1.705528E+06 -2.961472E+05 -5.926095E+03 -7.149013E+05  9.864547E+03 -1.061122E+04
       330   6 -1.697871E+06 -3.043352E+05 -1.077280E+04 -7.239740E+05  1.526338E+04 -1.602163E+04
       330   7 -1.779690E+06 -3.337468E+05 -1.933790E+04 -7.464974E+05 -5.609008E+03 -8.854006E+03
       330   8 -1.873153E+06 -3.568013E+05 -3.820417E+04 -7.610469E+05 -6.966352E+00 -1.431309E+04
       330   9 -1.951289E+06 -3.960767E+05 -5.947877E+04 -7.938042E+05  5.554781E+03 -1.966324E+04
       330  10 -1.615967E+06 -2.745474E+05  1.262285E+04 -7.015770E+05 -5.843895E-10 -5.109607E-10
       330  11 -1.537875E+06 -2.354910E+05  2.635015E+04 -6.687442E+05 -1.965052E-10 -1.666717E-10
       330  12 -1.444388E+06 -2.125885E+05  3.792934E+04 -6.541171E+05 -7.987231E-11 -2.641875E-10
       330  13 -1.697832E+06 -3.041473E+05 -3.357374E+03 -7.240385E+05 -4.540130E-10 -7.256584E-10
       330  14 -1.705528E+06 -2.961473E+05 -5.926489E+03 -7.149012E+05  1.475224E-09  4.827643E-10
       330  15 -1.697872E+06 -3.043356E+05 -1.077372E+04 -7.239738E+05 -7.300544E-11 -6.835232E-11
       330  16 -1.779690E+06 -3.337469E+05 -1.933811E+04 -7.464975E+05  7.977862E-10 -3.710080E-10
       330  17 -1.873153E+06 -3.568015E+05 -3.820456E+04 -7.610469E+05 -8.184993E-10 -5.148388E-10
       330  18 -1.951289E+06 -3.960771E+05 -5.947955E+04 -7.938041E+05  4.121933E-10  1.245058E-11
       330  19 -1.615967E+06 -2.745473E+05  1.262325E+04 -7.015771E+05 -1.446214E+04  1.328967E+03
       330  20 -1.537874E+06 -2.354909E+05  2.635097E+04 -6.687443E+05 -1.973888E+04  6.908301E+03
       330  21 -1.444387E+06 -2.125882E+05  3.793080E+04 -6.541173E+05 -2.497623E+04  1.237846E+04
       330  22 -1.697832E+06 -3.041473E+05 -3.357289E+03 -7.240385E+05 -4.425900E+03  5.091732E+03
       330  23 -1.705528E+06 -2.961472E+05 -5.926095E+03 -7.149013E+05 -9.864547E+03  1.061122E+04
       330  24 -1.697871E+06 -3.043352E+05 -1.077280E+04 -7.239740E+05 -1.526338E+04  1.602163E+04
       330  25 -1.779690E+06 -3.337468E+05 -1.933790E+04 -7.464974E+05  5.609008E+03  8.854006E+03
       330  26 -1.873153E+06 -3.568013E+05 -3.820417E+04 -7.610469E+05  6.966352E+00  1.431309E+04
       330  27 -1.951289E+06 -3.960767E+05 -5.947877E+04 -7.938042E+05 -5.554781E+03  1.966324E+04
       331   1 -1.386834E+06 -1.921109E+05  4.593485E+04 -6.394275E+05  2.866285E+04 -1.540142E+04
       331   2 -1.309731E+06 -1.523542E+05  5.108519E+04 -6.038149E+05  4.188831E+04 -1.717719E+04
       331   3 -1.220617E+06 -1.346171E+05  4.637073E+04 -5.850671E+05  5.458217E+04 -1.752676E+04
       331   4 -1.698484E+06 -3.040603E+05 -1.432042E+04 -7.243044E+05  1.871348E+04 -1.913407E+04
       331   5 -1.704895E+06 -2.971164E+05 -2.612890E+04 -7.142736E+05  3.407195E+04 -2.011162E+04
       331   6 -1.699729E+06 -3.126204E+05 -4.950146E+04 -7.211116E+05  4.889717E+04 -1.966314E+04
       331   7 -2.010029E+06 -4.160007E+05 -7.457876E+04 -8.091413E+05  8.769547E+03 -2.286474E+04
       331   8 -2.099896E+06 -4.418643E+05 -1.033497E+05 -8.246669E+05  2.626094E+04 -2.304402E+04
       331   9 -2.178608E+06 -4.906030E+05 -1.453857E+05 -8.570590E+05  4.321684E+04 -2.179771E+04
       331  10 -1.386835E+06 -1.921114E+05  4.593286E+04 -6.394271E+05 -9.024444E-10 -3.562265E-10
       331  11 -1.309733E+06 -1.523550E+05  5.108134E+04 -6.038143E+05 -1.358420E-09 -3.946163E-11
       331  12 -1.220621E+06 -1.346182E+05  4.636455E+04 -5.850664E+05 -4.122365E-10  1.416076E-10
       331  13 -1.698484E+06 -3.040608E+05 -1.432176E+04 -7.243041E+05  1.250100E-10 -9.793619E-11
       331  14 -1.704896E+06 -2.971172E+05 -2.613184E+04 -7.142731E+05  1.028571E-10  1.122550E-10
       331  15 -1.699732E+06 -3.126215E+05 -4.950668E+04 -7.211109E+05  3.280732E-10  5.194748E-10
       331  16 -2.010029E+06 -4.160013E+05 -7.457988E+04 -8.091411E+05  7.764683E-10  5.409458E-11
       331  17 -2.099897E+06 -4.418651E+05 -1.033520E+05 -8.246664E+05  1.867279E-09  5.237598E-10
       331  18 -2.178610E+06 -4.906041E+05 -1.453901E+05 -8.570583E+05  1.431026E-10  9.121324E-10
       331  19 -1.386834E+06 -1.921109E+05  4.593485E+04 -6.394275E+05 -2.866285E+04  1.540142E+04
       331  20 -1.309731E+06 -1.523542E+05  5.108519E+04 -6.038149E+05 -4.188831E+04  1.717719E+04
       331  21 -1.220617E+06 -1.346171E+05  4.637073E+04 -5.850671E+05 -5.458217E+04  1.752676E+04
       331  22 -1.698484E+06 -3.040603E+05 -1.432042E+04 -7.243044E+05 -1.871348E+04  1.913407E+04
       331  23 -1.704895E+06 -2.971164E+05 -2.612890E+04 -7.142736E+05 -3.407195E+04  2.011162E+04
       331  24 -1.699729E+06 -3.126204E+05 -4.950146E+04 -7.211116E+05 -4.889717E+04  1.966314E+04
       331  25 -2.010029E+06 -4.160007E+05 -7.457876E+04 -8.091413E+05 -8.769547E+03  2.286474E+04
       331  26 -2.099896E+06 -4.418643E+05 -1.033497E+05 -8.246669E+05 -2.626094E+04  2.304402E+04
       331  27 -2.178608E+06 -4.906030E+05 -1.453857E+05 -8.570590E+05 -4.321684E+04  2.179771E+04
       332   1 -1.155615E+06 -1.227562E+05  4.275855E+04 -5.918744E+05  6.674272E+04 -1.707369E+04
       332   2 -1.117520E+06 -6.225419E+04  1.221188E+04 -4.790302E+05  1.005465E+05 -1.954330E+02
       332   3 -1.120882E+06 -1.538431E+05 -8.215862E+04 -3.475104E+05  1.270955E+05  3.601317E+04
       332   4 -1.707746E+06 -3.068844E+05 -6.509655E+04 -7.266723E+05  5.769009E+04 -2.047299E+04
       332   5 -1.698856E+06 -3.317045E+05 -1.224868E+05 -6.970910E+05  1.204891E+05  7.279494E+03
       332   6 -1.737257E+06 -5.144868E+05 -2.667667E+05 -6.488297E+05  1.760231E+05  5.435873E+04
       332   7 -2.259565E+06 -4.909996E+05 -1.729659E+05 -8.613651E+05  4.864607E+04 -2.386971E+04
       332   8 -2.279826E+06 -6.010601E+05 -2.572019E+05 -9.149397E+05  1.404113E+05  1.474221E+04
       332   9 -2.353187E+06 -8.748928E+05 -4.513892E+05 -9.498108E+05  2.248961E+05  7.265798E+04
       332  10 -1.155620E+06 -1.227578E+05  4.274963E+04 -5.918735E+05  7.053066E-10  5.466016E-10
       332  11 -1.117531E+06 -6.225691E+04  1.219285E+04 -4.790302E+05 -6.483241E-10  4.850999E-10
       332  12 -1.120900E+06 -1.538489E+05 -8.219148E+04 -3.475141E+05 -1.219584E-10 -4.019018E-10
       332  13 -1.707749E+06 -3.068858E+05 -6.510360E+04 -7.266713E+05  8.372843E-10  4.597387E-10
       332  14 -1.698872E+06 -3.317084E+05 -1.225142E+05 -6.970918E+05  1.386917E-09 -3.440905E-10
       332  15 -1.737291E+06 -5.144983E+05 -2.668307E+05 -6.488374E+05  1.543749E-10 -7.888872E-11
       332  16 -2.259568E+06 -4.910009E+05 -1.729714E+05 -8.613642E+05 -8.900355E-10  4.281564E-10
       332  17 -2.279848E+06 -6.010656E+05 -2.572395E+05 -9.149414E+05 -5.940698E-10  6.324091E-11
       332  18 -2.353243E+06 -8.749122E+05 -4.514946E+05 -9.498240E+05 -6.888455E-10 -4.064934E-11
       332  19 -1.155615E+06 -1.227562E+05  4.275855E+04 -5.918744E+05 -6.674272E+04  1.707369E+04
       332  20 -1.117520E+06 -6.225419E+04  1.221188E+04 -4.790302E+05 -1.005465E+05  1.954330E+02
       332  21 -1.120882E+06 -1.538431E+05 -8.215862E+04 -3.475104E+05 -1.270955E+05 -3.601317E+04
       332  22 -1.707746E+06 -3.068844E+05 -6.509655E+04 -7.266723E+05 -5.769009E+04  2.047299E+04
       332  23 -1.698856E+06 -3.317045E+05 -1.224868E+05 -6.970910E+05 -1.204891E+05 -7.279494E+03
       332  24 -1.737257E+06 -5.144868E+05 -2.667667E+05 -6.488297E+05 -1.760231E+05 -5.435873E+04
       332  25 -2.259565E+06 -4.909996E+05 -1.729659E+05 -8.613651E+05 -4.864607E+04  2.386971E+04
       332  26 -2.279826E+06 -6.010601E+05 -2.572019E+05 -9.149397E+05 -1.404113E+05 -1.474221E+04
       332  27 -2.353187E+06 -8.748928E+05 -4.513892E+05 -9.498108E+05 -2.248961E+05 -7.265798E+04
       333   1  2.240576E+05  3.678599E+04  8.430757E+04  4.941601E+04  1.486373E+05  8.410261E+03
       333   2  2.606046E+05 -1.558937E+05 -2.563639E+04  5.933841E+03  1.032048E+05  2.544880E+04
       333   3  3.549847E+05 -1.419408E+05 -5.429408E+04 -6.811938E+04  5.778506E+04  2.533279E+04
       333   4  8.894513E+05  2.019034E+05  2.462628E+05 -3.821939E+04  1.691088E+05  8.412615E+03
       333   5  8.594408E+05 -8.958367E+03  1.108946E+05 -2.282584E+04  1.100248E+05  2.544877E+04
       333   6  8.895580E+05 -1.094177E+04  6.622336E+04 -3.799845E+04  5.095969E+04  2.532914E+04
       333   7  1.555266E+06  3.670176E+05  4.081917E+05 -1.259490E+05  1.896021E+05  8.409201E+03
       333   8  1.458611E+06  1.379553E+05  2.474028E+05 -5.161357E+04  1.168512E+05  2.544810E+04
       333   9  1.424399E+06  1.200411E+05  1.867232E+05 -7.851391E+03  4.412849E+04  2.532482E+04
       333  10  2.240339E+05  3.677999E+04  8.426594E+04  4.941501E+04  1.088208E-09 -1.291259E-09
       333  11  2.605930E+05 -1.558972E+05 -2.565761E+04  5.931725E+03 -1.606317E-09  1.415752E-10
       333  12  3.549810E+05 -1.419424E+05 -5.430156E+04 -6.812056E+04 -1.488929E-09 -6.224883E-10
       333  13  8.894206E+05  2.018957E+05  2.462090E+05 -3.822053E+04 -2.228347E-10  7.852053E-10
       333  14  8.594276E+05 -8.962307E+03  1.108707E+05 -2.282810E+04  1.642147E-09 -6.796147E-11
       333  15  8.895550E+05 -1.094316E+04  6.621728E+04 -3.799949E+04 -1.872100E-10 -9.198473E-10
       333  16  1.555228E+06  3.670079E+05  4.081242E+05 -1.259503E+05 -9.805957E-10  7.554088E-10
       333  17  1.458596E+06  1.379509E+05  2.473760E+05 -5.161596E+04  1.261208E-09  1.448925E-10
       333  18  1.424396E+06  1.200399E+05  1.867183E+05 -7.852291E+03  2.750460E-09  1.554072E-09
       333  19  2.240576E+05  3.678599E+04  8.430757E+04  4.941601E+04 -1.486373E+05 -8.410261E+03
       333  20  2.606046E+05 -1.558937E+05 -2.563639E+04  5.933841E+03 -1.032048E+05 -2.544880E+04
       333  21  3.549847E+05 -1.419408E+05 -5.429408E+04 -6.811938E+04 -5.778506E+04 -2.533279E+04
       333  22  8.894513E+05  2.019034E+05  2.462628E+05 -3.821939E+04 -1.691088E+05 -8.412615E+03
       333  23  8.594408E+05 -8.958367E+03  1.108946E+05 -2.282584E+04 -1.100248E+05 -2.544877E+04
       333  24  8.895580E+05 -1.094177E+04  6.622336E+04 -3.799845E+04 -5.095969E+04 -2.532914E+04
       333  25  1.555266E+06  3.670176E+05  4.081917E+05 -1.259490E+05 -1.896021E+05 -8.409201E+03
       333  26  1.458611E+06  1.379553E+05  2.474028E+05 -5.161357E+04 -1.168512E+05 -2.544810E+04
       333  27  1.424399E+06  1.200411E+05  1.867232E+05 -7.851391E+03 -4.412849E+04 -2.532482E+04
       334   1  4.007870E+05 -1.035371E+05 -5.492713E+04 -3.365043E+04  4.290944E+04  2.152375E+04
       334   2  4.623506E+05 -1.019288E+05 -6.484818E+04 -2.178054E+04  2.925667E+04  1.909863E+04
       334   3  5.293602E+05 -8.613451E+04 -6.231047E+04 -4.052617E+04  1.560133E+04  1.589613E+04
       334   4  8.774251E+05  1.331558E+04  5.306079E+04 -3.807254E+04  4.132339E+04  2.152131E+04
       334   5  8.746652E+05 -8.944437E+02  2.831285E+04 -2.276207E+04  2.704443E+04  1.909667E+04
       334   6  8.774510E+05 -8.157010E+02  1.645075E+04 -3.806549E+04  1.276430E+04  1.589475E+04
       334   7  1.354274E+06  1.301527E+05  1.610341E+05 -4.249809E+04  3.973613E+04  2.151890E+04
       334   8  1.287138E+06  1.001283E+05  1.214630E+05 -2.374427E+04  2.483074E+04  1.909471E+04
       334   9  1.225654E+06  8.449481E+04  9.520422E+04 -3.560342E+04  9.925693E+03  1.589334E+04
       334  10  4.007849E+05 -1.035381E+05 -5.493146E+04 -3.365118E+04  1.298642E-09 -3.735927E-10
       334  11  4.623496E+05 -1.019294E+05 -6.485047E+04 -2.178099E+04  1.076371E-09  2.406611E-10
       334  12  5.293599E+05 -8.613485E+04 -6.231141E+04 -4.052637E+04 -5.265525E-12 -2.022339E-10
       334  13  8.774232E+05  1.331463E+04  5.305671E+04 -3.807325E+04 -2.081834E-10  1.000969E-09
       334  14  8.746643E+05 -8.950315E+02  2.831080E+04 -2.276248E+04  1.287508E-09  4.307773E-10
       334  15  8.774508E+05 -8.160160E+02  1.644997E+04 -3.806565E+04 -5.171920E-11 -6.298067E-10
       334  16  1.354272E+06  1.301518E+05  1.610302E+05 -4.249878E+04 -4.848422E-10  8.256892E-10
       334  17  1.287137E+06  1.001277E+05  1.214612E+05 -2.374465E+04 -4.383336E-10 -5.826414E-14
       334  18  1.225654E+06  8.449451E+04  9.520356E+04 -3.560355E+04 -6.727052E-10 -2.151970E-10
       334  19  4.007870E+05 -1.035371E+05 -5.492713E+04 -3.365043E+04 -4.290944E+04 -2.152375E+04
       334  20  4.623506E+05 -1.019288E+05 -6.484818E+04 -2.178054E+04 -2.925667E+04 -1.909863E+04
       334  21  5.293602E+05 -8.613451E+04 -6.231047E+04 -4.052617E+04 -1.560133E+04 -1.589613E+04
       334  22  8.774251E+05  1.331558E+04  5.306079E+04 -3.807254E+04 -4.132339E+04 -2.152131E+04
       334  23  8.746652E+05 -8.944437E+02  2.831285E+04 -2.276207E+04 -2.704443E+04 -1.909667E+04
       334  24  8.774510E+05 -8.157010E+02  1.645075E+04 -3.806549E+04 -1.276430E+04 -1.589475E+04
       334  25  1.354274E+06  1.301527E+05  1.610341E+05 -4.249809E+04 -3.973613E+04 -2.151890E+04
       334  26  1.287138E+06  1.001283E+05  1.214630E+05 -2.374427E+04 -2.483074E+04 -1.909471E+04
       334  27  1.225654E+06  8.449481E+04  9.520422E+04 -3.560342E+04 -9.925693E+03 -1.589334E+04
       335   1  5.853655E+05 -7.049089E+04 -5.288142E+04 -3.809204E+04  1.279034E+04  1.386814E+04
       335   2  6.487129E+05 -5.582294E+04 -4.417575E+04 -2.299332E+04  9.264514E+03  1.058186E+04
       335   3  7.128037E+05 -4.018490E+04 -3.292521E+04 -3.826307E+04  5.737320E+03  7.266288E+03
       335   4  8.763920E+05  7.774919E+02  1.266694E+04 -3.801288E+04  1.020092E+04  1.386712E+04
       335   5  8.760250E+05 -1.337439E+02  7.148652E+03 -2.282895E+04  6.650239E+03  1.058122E+04
       335   6  8.764021E+05 -7.050845E+01  4.191791E+03 -3.801280E+04  3.098541E+03  7.266045E+03
       335   7  1.167497E+06  7.204008E+04  7.820993E+04 -3.793368E+04  7.610305E+03  1.386610E+04
       335   8  1.103385E+06  5.555191E+04  5.846977E+04 -2.266452E+04  4.035017E+03  1.058058E+04
       335   9  1.040025E+06  4.004205E+04  4.130709E+04 -3.776246E+04  4.590731E+02  7.265800E+03
       335  10  5.853653E+05 -7.049114E+04 -5.288209E+04 -3.809218E+04  6.753803E-10 -3.320811E-10
       335  11  6.487128E+05 -5.582308E+04 -4.417612E+04 -2.299340E+04 -6.081055E-10 -5.095298E-10
       335  12  7.128037E+05 -4.018497E+04 -3.292537E+04 -3.826310E+04 -1.503870E-10  9.700346E-11
       335  13  8.763918E+05  7.772574E+02  1.266639E+04 -3.801299E+04 -2.739191E-10 -2.582663E-10
       335  14  8.760249E+05 -1.338760E+02  7.148358E+03 -2.282900E+04  5.386608E-10  3.717967E-11
       335  15  8.764021E+05 -7.056774E+01  4.191674E+03 -3.801282E+04 -1.085629E-09  1.459429E-10
       335  16  1.167497E+06  7.203986E+04  7.820946E+04 -3.793376E+04 -7.629889E-10  7.046327E-11
       335  17  1.103385E+06  5.555179E+04  5.846953E+04 -2.266455E+04 -8.177606E-10  3.907514E-11
       335  18  1.040025E+06  4.004199E+04  4.130699E+04 -3.776247E+04  2.474222E-10  3.368026E-10
       335  19  5.853655E+05 -7.049089E+04 -5.288142E+04 -3.809204E+04 -1.279034E+04 -1.386814E+04
       335  20  6.487129E+05 -5.582294E+04 -4.417575E+04 -2.299332E+04 -9.264514E+03 -1.058186E+04
       335  21  7.128037E+05 -4.018490E+04 -3.292521E+04 -3.826307E+04 -5.737320E+03 -7.266288E+03
       335  22  8.763920E+05  7.774919E+02  1.266694E+04 -3.801288E+04 -1.020092E+04 -1.386712E+04
       335  23  8.760250E+05 -1.337439E+02  7.148652E+03 -2.282895E+04 -6.650239E+03 -1.058122E+04
       335  24  8.764021E+05 -7.050845E+01  4.191791E+03 -3.801280E+04 -3.098541E+03 -7.266045E+03
       335  25  1.167497E+06  7.204008E+04  7.820993E+04 -3.793368E+04 -7.610305E+03 -1.386610E+04
       335  26  1.103385E+06  5.555191E+04  5.846977E+04 -2.266452E+04 -4.035017E+03 -1.058058E+04
       335  27  1.040025E+06  4.004205E+04  4.130709E+04 -3.776246E+04 -4.590731E+02 -7.265800E+03
       336   1  7.693835E+05 -2.612573E+04 -2.070073E+04 -3.807538E+04  5.052695E+03  5.332466E+03
       336   2  8.327923E+05 -1.065958E+04 -7.780317E+03 -2.291339E+04  4.054633E+03  2.021060E+03
       336   3  8.963578E+05  4.871850E+03  5.806620E+03 -3.800974E+04  3.056250E+03 -1.290637E+03
       336   4  8.762742E+05  2.264860E+01  3.247953E+03 -3.798850E+04  2.427909E+03  5.332370E+03
       336   5  8.761992E+05 -2.658883E+01  2.018964E+03 -2.285940E+04  1.429320E+03  2.021031E+03
       336   6  8.762762E+05 -1.048340E+01  1.456637E+03 -3.798851E+04  4.305081E+02 -1.290584E+03
       336   7  9.831756E+05  2.617025E+04  2.719594E+04 -3.790160E+04 -1.973232E+02  5.332274E+03
       336   8  9.196079E+05  1.060628E+04  1.181815E+04 -2.280540E+04 -1.196175E+03  2.021002E+03
       336   9  8.561950E+05 -4.892840E+03 -2.893344E+03 -3.796728E+04 -2.195150E+03 -1.290531E+03
       336  10  7.693834E+05 -2.612576E+04 -2.070083E+04 -3.807540E+04  4.920059E-10  1.074787E-10
       336  11  8.327923E+05 -1.065959E+04 -7.780356E+03 -2.291340E+04  4.957339E-10 -1.254783E-10
       336  12  8.963578E+05  4.871846E+03  5.806599E+03 -3.800974E+04 -7.769488E-10 -9.428779E-11
       336  13  8.762742E+05  2.261648E+01  3.247888E+03 -3.798851E+04  5.134045E-10  1.873585E-10
       336  14  8.761992E+05 -2.659376E+01  2.018952E+03 -2.285940E+04  3.804715E-10 -3.503456E-10
       336  15  8.762762E+05 -1.048524E+01  1.456634E+03 -3.798851E+04 -4.973020E-10 -9.394801E-11
       336  16  9.831756E+05  2.617022E+04  2.719588E+04 -3.790160E+04 -1.213955E-10  2.064177E-10
       336  17  9.196079E+05  1.060627E+04  1.181814E+04 -2.280540E+04 -6.747536E-10 -3.796528E-10
       336  18  8.561949E+05 -4.892843E+03 -2.893356E+03 -3.796729E+04  1.119898E-09 -1.281184E-10
       336  19  7.693835E+05 -2.612573E+04 -2.070073E+04 -3.807538E+04 -5.052695E+03 -5.332466E+03
       336  20  8.327923E+05 -1.065958E+04 -7.780317E+03 -2.291339E+04 -4.054633E+03 -2.021060E+03
       336  21  8.963578E+05  4.871850E+03  5.806620E+03 -3.800974E+04 -3.056250E+03  1.290637E+03
       336  22  8.762742E+05  2.264860E+01  3.247953E+03 -3.798850E+04 -2.427909E+03 -5.332370E+03
       336  23  8.761992E+05 -2.658883E+01  2.018964E+03 -2.285940E+04 -1.429320E+03 -2.021031E+03
       336  24  8.762762E+05 -1.048340E+01  1.456637E+03 -3.798851E+04 -4.305081E+02  1.290584E+03
       336  25  9.831756E+05  2.617025E+04  2.719594E+04 -3.790160E+04  1.973232E+02 -5.332274E+03
       336  26  9.196079E+05  1.060628E+04  1.181815E+04 -2.280540E+04  1.196175E+03 -2.021002E+03
       336  27  8.561950E+05 -4.892840E+03 -2.893344E+03 -3.796728E+04  2.195150E+03  1.290531E+03
       337   1  9.529971E+05  1.882132E+04  1.885581E+04 -3.800395E+04  2.802615E+03 -3.218319E+03
       337   2  1.016515E+06  3.434150E+04  3.312403E+04 -2.282056E+04  2.086356E+03 -6.532610E+03
       337   3  1.080157E+06  4.989728E+04  4.787006E+04 -3.793540E+04  1.370700E+03 -9.849489E+03
       337   4  8.762678E+05 -9.509514E+00  1.352525E+03 -3.799750E+04  1.755725E+02 -3.218318E+03
       337   5  8.762052E+05 -2.512200E+01  1.452179E+03 -2.284817E+04 -5.427350E+02 -6.532860E+03
       337   6  8.762627E+05 -4.516464E+00  2.031295E+03 -3.799750E+04 -1.260367E+03 -9.849973E+03
       337   7  7.995439E+05 -1.884074E+04 -1.615112E+04 -3.799105E+04 -2.451149E+03 -3.218318E+03
       337   8  7.359133E+05 -3.439309E+04 -3.022091E+04 -2.287577E+04 -3.171238E+03 -6.533110E+03
       337   9  6.724068E+05 -4.990914E+04 -4.381009E+04 -3.805957E+04 -3.890579E+03 -9.850458E+03
       337  10  9.529971E+05  1.882130E+04  1.885577E+04 -3.800394E+04 -6.186371E-10  1.617193E-10
       337  11  1.016515E+06  3.434145E+04  3.312394E+04 -2.282055E+04  1.476209E-10  4.308362E-10
       337  12  1.080157E+06  4.989717E+04  4.786987E+04 -3.793539E+04 -7.403786E-10 -4.197480E-10
       337  13  8.762678E+05 -9.520649E+00  1.352505E+03 -3.799750E+04  6.498004E-10  2.190358E-10
       337  14  8.762052E+05 -2.516792E+01  1.452098E+03 -2.284817E+04 -4.444112E-10  3.504769E-10
       337  15  8.762627E+05 -4.621118E+00  2.031109E+03 -3.799751E+04  2.169129E-10 -9.038224E-11
       337  16  7.995439E+05 -1.884075E+04 -1.615115E+04 -3.799106E+04  2.969224E-10  1.760904E-10
       337  17  7.359132E+05 -3.439314E+04 -3.022101E+04 -2.287579E+04 -1.316472E-10  4.499247E-11
       337  18  6.724068E+05 -4.990925E+04 -4.381030E+04 -3.805960E+04  6.584247E-10 -3.946128E-12
       337  19  9.529971E+05  1.882132E+04  1.885581E+04 -3.800395E+04 -2.802615E+03  3.218319E+03
       337  20  1.016515E+06  3.434150E+04  3.312403E+04 -2.282056E+04 -2.086356E+03  6.532610E+03
       337  21  1.080157E+06  4.989728E+04  4.787006E+04 -3.793540E+04 -1.370700E+03  9.849489E+03
       337  22  8.762678E+05 -9.509514E+00  1.352525E+03 -3.799750E+04 -1.755725E+02  3.218318E+03
       337  23  8.762052E+05 -2.512200E+01  1.452179E+03 -2.284817E+04  5.427350E+02  6.532860E+03
       337  24  8.762627E+05 -4.516464E+00  2.031295E+03 -3.799750E+04  1.260367E+03  9.849973E+03
       337  25  7.995439E+05 -1.884074E+04 -1.615112E+04 -3.799105E+04  2.451149E+03  3.218318E+03
       337  26  7.359133E+05 -3.439309E+04 -3.022091E+04 -2.287577E+04  3.171238E+03  6.533110E+03
       337  27  6.724068E+05 -4.990914E+04 -4.381009E+04 -3.805957E+04  3.890579E+03  9.850458E+03
       338   1  1.137110E+06  6.384520E+04  6.157387E+04 -3.787527E+04  9.773413E+02 -1.178867E+04
       338   2  1.200861E+06  7.943632E+04  7.747260E+04 -2.264183E+04 -1.118912E+03 -1.511410E+04
       338   3  1.265101E+06  9.557979E+04  9.488767E+04 -3.790222E+04 -3.213797E+03 -1.840807E+04
       338   4  8.763366E+05 -5.853475E+01  2.533139E+03 -3.804104E+04 -1.671861E+03 -1.178941E+04
       338   5  8.760898E+05 -1.028038E+02  4.168154E+03 -2.279369E+04 -3.742291E+03 -1.511541E+04
       338   6  8.763239E+05  4.015633E+02  7.302662E+03 -3.804115E+04 -5.811141E+03 -1.840992E+04
       338   7  6.156262E+05 -6.396694E+04 -5.651194E+04 -3.820673E+04 -4.319962E+03 -1.179015E+04
       338   8  5.514161E+05 -7.964916E+04 -6.914302E+04 -2.294548E+04 -6.364312E+03 -1.511671E+04
       338   9  4.876875E+05 -9.478701E+04 -8.029197E+04 -3.818001E+04 -8.406876E+03 -1.841177E+04
       338  10  1.137110E+06  6.384505E+04  6.157360E+04 -3.787526E+04 -1.158900E-09 -1.713593E-10
       338  11  1.200861E+06  7.943608E+04  7.747217E+04 -2.264184E+04 -2.096573E-10 -3.659970E-10
       338  12  1.265100E+06  9.557943E+04  9.488702E+04 -3.790227E+04  8.253712E-10 -2.002793E-10
       338  13  8.763366E+05 -5.868482E+01  2.532872E+03 -3.804105E+04 -2.524967E-11 -4.047757E-11
       338  14  8.760897E+05 -1.030530E+02  4.167698E+03 -2.279373E+04  1.030414E-09 -2.115050E-10
       338  15  8.763238E+05  4.011901E+02  7.301961E+03 -3.804124E+04  6.858973E-10 -2.985181E-10
       338  16  6.156262E+05 -6.396710E+04 -5.651224E+04 -3.820677E+04  5.413587E-10 -1.056209E-10
       338  17  5.514160E+05 -7.964941E+04 -6.914352E+04 -2.294555E+04 -1.243815E-09 -1.983130E-10
       338  18  4.876874E+05 -9.478739E+04 -8.029274E+04 -3.818013E+04 -1.750390E-09  1.275109E-10
       338  19  1.137110E+06  6.384520E+04  6.157387E+04 -3.787527E+04 -9.773413E+02  1.178867E+04
       338  20  1.200861E+06  7.943632E+04  7.747260E+04 -2.264183E+04  1.118912E+03  1.511410E+04
       338  21  1.265101E+06  9.557979E+04  9.488767E+04 -3.790222E+04  3.213797E+03  1.840807E+04
       338  22  8.763366E+05 -5.853475E+01  2.533139E+03 -3.804104E+04  1.671861E+03  1.178941E+04
       338  23  8.760898E+05 -1.028038E+02  4.168154E+03 -2.279369E+04  3.742291E+03  1.511541E+04
       338  24  8.763239E+05  4.015633E+02  7.302662E+03 -3.804115E+04  5.811141E+03  1.840992E+04
       338  25  6.156262E+05 -6.396694E+04 -5.651194E+04 -3.820673E+04  4.319962E+03  1.179015E+04
       338  26  5.514161E+05 -7.964916E+04 -6.914302E+04 -2.294548E+04  6.364312E+03  1.511671E+04
       338  27  4.876875E+05 -9.478701E+04 -8.029197E+04 -3.818001E+04  8.406876E+03  1.841177E+04
       339   1  1.323126E+06  1.087882E+05  1.103248E+05 -3.657564E+04 -4.403776E+03 -2.045769E+04
       339   2  1.386167E+06  1.245509E+05  1.316023E+05 -2.307848E+04 -1.330542E+04 -2.365645E+04
       339   3  1.452620E+06  1.486076E+05  1.607778E+05 -4.038692E+04 -2.220662E+04 -2.596526E+04
       339   4  8.769363E+05 -5.123887E+02  9.464094E+03 -3.810872E+04 -7.286963E+03 -2.046013E+04
       339   5  8.752809E+05 -5.671385E+02  1.623911E+04 -2.270828E+04 -1.547657E+04 -2.365936E+04
       339   6  8.769114E+05  7.552789E+03  3.042293E+04 -3.811477E+04 -2.366482E+04 -2.596834E+04
       339   7  4.309316E+05 -1.098267E+05 -9.140936E+04 -3.964071E+04 -1.016810E+04 -2.046256E+04
       339   8  3.646366E+05 -1.257031E+05 -9.914081E+04 -2.233842E+04 -1.764595E+04 -2.366226E+04
       339   9  3.015104E+05 -1.335248E+05 -9.995327E+04 -3.584480E+04 -2.512167E+04 -2.597142E+04
       339  10  1.323126E+06  1.087878E+05  1.103240E+05 -3.657571E+04  1.440906E-10 -3.794963E-10
       339  11  1.386167E+06  1.245503E+05  1.316009E+05 -2.307874E+04 -2.094156E-10 -1.347105E-10
       339  12  1.452619E+06  1.486068E+05  1.607756E+05 -4.038738E+04  4.591801E-10 -1.246212E-09
       339  13  8.769362E+05 -5.128527E+02  9.463208E+03 -3.810884E+04 -5.385092E-10 -2.952023E-10
       339  14  8.752805E+05 -5.678040E+02  1.623760E+04 -2.270857E+04  2.779481E-10 -1.812959E-10
       339  15  8.769107E+05  7.551914E+03  3.042061E+04 -3.811526E+04 -5.873856E-10 -9.282960E-10
       339  16  4.309314E+05 -1.098271E+05 -9.141034E+04 -3.964088E+04  2.615794E-11  1.276584E-10
       339  17  3.646361E+05 -1.257038E+05 -9.914245E+04 -2.233876E+04 -8.369124E-10  1.597580E-09
       339  18  3.015095E+05 -1.335257E+05 -9.995573E+04 -3.584532E+04 -2.634968E-10  2.252663E-10
       339  19  1.323126E+06  1.087882E+05  1.103248E+05 -3.657564E+04  4.403776E+03  2.045769E+04
       339  20  1.386167E+06  1.245509E+05  1.316023E+05 -2.307848E+04  1.330542E+04  2.365645E+04
       339  21  1.452620E+06  1.486076E+05  1.607778E+05 -4.038692E+04  2.220662E+04  2.596526E+04
       339  22  8.769363E+05 -5.123887E+02  9.464094E+03 -3.810872E+04  7.286963E+03  2.046013E+04
       339  23  8.752809E+05 -5.671385E+02  1.623911E+04 -2.270828E+04  1.547657E+04  2.365936E+04
       339  24  8.769114E+05  7.552789E+03  3.042293E+04 -3.811477E+04  2.366482E+04  2.596834E+04
       339  25  4.309316E+05 -1.098267E+05 -9.140936E+04 -3.964071E+04  1.016810E+04  2.046256E+04
       339  26  3.646366E+05 -1.257031E+05 -9.914081E+04 -2.233842E+04  1.764595E+04  2.366226E+04
       339  27  3.015104E+05 -1.335248E+05 -9.995327E+04 -3.584480E+04  2.512167E+04  2.597142E+04
       340   1  1.518102E+06  1.489305E+05  1.808310E+05 -2.043209E+04 -2.171839E+04 -3.004770E+04
       340   2  1.565498E+06  1.661669E+05  2.227614E+05 -3.884477E+04 -7.119804E+04 -2.971190E+04
       340   3  1.650225E+06  3.057917E+05  3.275134E+05 -8.795821E+04 -1.207151E+05 -9.718413E+03
       340   4  8.838758E+05 -6.358158E+03  3.796734E+04 -3.804144E+04 -2.918804E+04 -3.005686E+04
       340   5  8.665096E+05 -5.230494E+03  6.354476E+04 -2.277707E+04 -6.303735E+04 -2.970557E+04
       340   6  8.838002E+05  1.156464E+05  1.411459E+05 -3.821065E+04 -9.691757E+04 -9.692090E+03
       340   7  2.500239E+05 -1.616732E+05 -1.049216E+05 -5.563274E+04 -3.665014E+04 -3.006561E+04
       340   8  1.679739E+05 -1.766607E+05 -9.570328E+04 -6.727710E+03 -5.488573E+04 -2.969883E+04
       340   9  1.179171E+05 -7.453243E+04 -4.526059E+04  1.147530E+04 -7.314922E+04 -9.661949E+03
       340  10  1.518101E+06  1.489294E+05  1.808284E+05 -2.043261E+04  6.306256E-10 -2.671429E-09
       340  11  1.565492E+06  1.661646E+05  2.227502E+05 -3.884647E+04 -1.242877E-09 -4.386908E-09
       340  12  1.650209E+06  3.057877E+05  3.274860E+05 -8.795916E+04 -2.057365E-09 -1.185634E-09
       340  13  8.838747E+05 -6.359356E+03  3.796405E+04 -3.804214E+04  1.390009E-10 -5.640345E-09
       340  14  8.665051E+05 -5.232507E+03  6.353564E+04 -2.277858E+04 -1.228105E-09  1.592405E-09
       340  15  8.837901E+05  1.156437E+05  1.411281E+05 -3.821140E+04 -1.255174E-09 -4.782645E-10
       340  16  2.500223E+05 -1.616745E+05 -1.049258E+05 -5.563363E+04 -1.147803E-09 -1.064247E-09
       340  17  1.679705E+05 -1.766624E+05 -9.571060E+04 -6.729023E+03  5.219900E-10  9.530974E-10
       340  18  1.179113E+05 -7.453396E+04 -4.527082E+04  1.147473E+04  1.549498E-09 -1.731491E-09
       340  19  1.518102E+06  1.489305E+05  1.808310E+05 -2.043209E+04  2.171839E+04  3.004770E+04
       340  20  1.565498E+06  1.661669E+05  2.227614E+05 -3.884477E+04  7.119804E+04  2.971190E+04
       340  21  1.650225E+06  3.057917E+05  3.275134E+05 -8.795821E+04  1.207151E+05  9.718413E+03
       340  22  8.838758E+05 -6.358158E+03  3.796734E+04 -3.804144E+04  2.918804E+04  3.005686E+04
       340  23  8.665096E+05 -5.230494E+03  6.354476E+04 -2.277707E+04  6.303735E+04  2.970557E+04
       340  24  8.838002E+05  1.156464E+05  1.411459E+05 -3.821065E+04  9.691757E+04  9.692090E+03
       340  25  2.500239E+05 -1.616732E+05 -1.049216E+05 -5.563274E+04  3.665014E+04  3.006561E+04
       340  26  1.679739E+05 -1.766607E+05 -9.570328E+04 -6.727710E+03  5.488573E+04  2.969883E+04
       340  27  1.179171E+05 -7.453243E+04 -4.526059E+04  1.147530E+04  7.314922E+04  9.661949E+03
       341   1  9.046241E+05  3.482889E+06  9.065600E+05 -5.787096E+05  3.511812E+04  1.497377E+05
       341   2  5.873145E+05  2.564192E+06  5.974378E+05 -3.423784E+05  9.821628E+04  5.158772E+04
       341   3  3.704280E+05  1.684000E+06  3.770254E+05 -5.300609E+05  6.984469E+04 -4.665456E+04
       341   4  8.205566E+04  1.715569E+05  9.881529E+04 -5.369173E+05  3.535998E+04  6.321661E+04
       341   5 -2.851770E+03  1.594939E+05  4.796442E+04 -3.249905E+05  9.828881E+04  3.797077E+04
       341   6  3.164239E+02  1.727531E+05  3.555961E+04 -5.371439E+05  6.959738E+04  1.248865E+04
       341   7 -7.413112E+05 -3.129795E+06 -7.096986E+05 -4.953370E+05  3.559107E+04 -2.284673E+04
       341   8 -5.934182E+05 -2.239860E+06 -5.018867E+05 -3.076646E+05  9.836076E+04  2.440573E+04
       341   9 -3.699498E+05 -1.336368E+06 -3.060396E+05 -5.442063E+05  6.934838E+04  7.148954E+04
       341  10  9.046168E+05  3.482865E+06  9.065157E+05 -5.787139E+05 -4.369157E-10  4.097985E-10
       341  11  5.873034E+05  2.564187E+06  5.974147E+05 -3.423824E+05 -9.706173E-10 -2.013254E-09
       341  12  3.704222E+05  1.683997E+06  3.770122E+05 -5.300583E+05  1.337418E-09  4.131149E-09
       341  13  8.205324E+04  1.715523E+05  9.880543E+04 -5.369191E+05  3.793014E-10 -2.135863E-11
       341  14 -2.862534E+03  1.594898E+05  4.794355E+04 -3.249935E+05 -3.360666E-10 -1.469722E-09
       341  15  3.111793E+02  1.727517E+05  3.555021E+04 -5.371446E+05  8.580428E-10 -6.160206E-09
       341  16 -7.413127E+05 -3.129796E+06 -7.097020E+05 -4.953364E+05 -6.774727E-11 -4.096524E-10
       341  17 -5.934288E+05 -2.239863E+06 -5.019060E+05 -3.076666E+05  3.522278E-10  6.145796E-09
       341  18 -3.699563E+05 -1.336375E+06 -3.060583E+05 -5.442103E+05 -7.517003E-10  9.907708E-10
       341  19  9.046241E+05  3.482889E+06  9.065600E+05 -5.787096E+05 -3.511812E+04 -1.497377E+05
       341  20  5.873145E+05  2.564192E+06  5.974378E+05 -3.423784E+05 -9.821628E+04 -5.158772E+04
       341  21  3.704280E+05  1.684000E+06  3.770254E+05 -5.300609E+05 -6.984469E+04  4.665456E+04
       341  22  8.205566E+04  1.715569E+05  9.881529E+04 -5.369173E+05 -3.535998E+04 -6.321661E+04
       341  23 -2.851770E+03  1.594939E+05  4.796442E+04 -3.249905E+05 -9.828881E+04 -3.797077E+04
       341  24  3.164239E+02  1.727531E+05  3.555961E+04 -5.371439E+05 -6.959738E+04 -1.248865E+04
       341  25 -7.413112E+05 -3.129795E+06 -7.096986E+05 -4.953370E+05 -3.559107E+04  2.284673E+04
       341  26 -5.934182E+05 -2.239860E+06 -5.018867E+05 -3.076646E+05 -9.836076E+04 -2.440573E+04
       341  27 -3.699498E+05 -1.336368E+06 -3.060396E+05 -5.442063E+05 -6.934838E+04 -7.148954E+04
       342   1  1.825879E+05  8.759673E+05  1.935099E+05 -5.436010E+05  3.221356E+04 -2.601141E+04
       342   2 -4.472662E+04 -2.284764E+04 -1.020991E+04 -3.231613E+05 -8.578690E+03 -4.226218E+04
       342   3 -2.527523E+05 -9.177899E+05 -1.995166E+05 -5.300179E+05 -4.893238E+04 -5.847698E+04
       342   4  9.026920E+03  1.682519E+05  3.323077E+04 -5.377890E+05  3.206468E+04  6.542610E+03
       342   5  1.739049E+03  1.666157E+05  3.263101E+04 -3.241387E+05 -8.720228E+03 -1.007436E+04
       342   6  1.385093E+04  1.681572E+05  4.673141E+04 -5.377678E+05 -4.906912E+04 -2.667806E+04
       342   7 -1.645679E+05 -5.389964E+05 -1.270767E+05 -5.319831E+05  3.191631E+04  3.905991E+04
       342   8  4.820281E+04  3.561147E+05  7.547352E+04 -3.251164E+05 -8.861842E+03  2.212318E+04
       342   9  2.803735E+05  1.255203E+06  2.929071E+05 -5.455298E+05 -4.920652E+04  5.176057E+03
       342  10  1.825866E+05  8.759663E+05  1.935067E+05 -5.436003E+05 -3.514572E-10  1.103516E-09
       342  11 -4.472718E+04 -2.284958E+04 -1.021341E+04 -3.231616E+05  4.650216E-10 -3.195260E-09
       342  12 -2.527558E+05 -9.177943E+05 -1.995275E+05 -5.300202E+05  5.137574E-11  4.108868E-09
       342  13  9.025804E+03  1.682516E+05  3.322876E+04 -5.377892E+05 -5.965219E-10  7.533159E-12
       342  14  1.738940E+03  1.666156E+05  3.263068E+04 -3.241388E+05  2.522646E-09 -2.049768E-09
       342  15  1.384815E+04  1.681558E+05  4.672554E+04 -5.377688E+05  4.187684E-09 -6.429917E-09
       342  16 -1.645694E+05 -5.389983E+05 -1.270814E+05 -5.319841E+05 -4.594155E-10 -1.096186E-09
       342  17  4.820260E+04  3.561141E+05  7.547245E+04 -3.251162E+05 -2.481213E-09  8.352677E-09
       342  18  2.803709E+05  1.255202E+06  2.929025E+05 -5.455296E+05 -3.916373E-10  1.487301E-09
       342  19  1.825879E+05  8.759673E+05  1.935099E+05 -5.436010E+05 -3.221356E+04  2.601141E+04
       342  20 -4.472662E+04 -2.284764E+04 -1.020991E+04 -3.231613E+05  8.578690E+03  4.226218E+04
       342  21 -2.527523E+05 -9.177899E+05 -1.995166E+05 -5.300179E+05  4.893238E+04  5.847698E+04
       342  22  9.026920E+03  1.682519E+05  3.323077E+04 -5.377890E+05 -3.206468E+04 -6.542610E+03
       342  23  1.739049E+03  1.666157E+05  3.263101E+04 -3.241387E+05  8.720228E+03  1.007436E+04
       342  24  1.385093E+04  1.681572E+05  4.673141E+04 -5.377678E+05  4.906912E+04  2.667806E+04
       342  25 -1.645679E+05 -5.389964E+05 -1.270767E+05 -5.319831E+05 -3.191631E+04 -3.905991E+04
       342  26  4.820281E+04  3.561147E+05  7.547352E+04 -3.251164E+05  8.861842E+03 -2.212318E+04
       342  27  2.803735E+05  1.255203E+06  2.929071E+05 -5.455298E+05  4.920652E+04 -5.176057E+03
       343   1 -4.674768E+05 -1.710178E+06 -3.717014E+05 -5.542168E+05 -8.731215E+04 -9.649014E+04
       343   2 -6.904113E+05 -2.624438E+06 -5.499588E+05 -2.970946E+05 -1.145161E+05 -6.236320E+04
       343   3 -7.628849E+05 -3.503352E+06 -7.126953E+05 -4.638983E+05 -4.051827E+04 -2.807082E+04
       343   4 -4.329323E+03  1.776168E+05  5.540337E+04 -5.371100E+05 -8.755220E+04 -3.524822E+04
       343   5 -6.707063E+03  1.527845E+05  8.626043E+04 -3.250478E+05 -1.144228E+05 -8.117432E+04
       343   6  1.549603E+05  1.762298E+05  1.881471E+05 -5.367349E+05 -4.029834E+04 -1.268889E+05
       343   7  4.585764E+05  2.068738E+06  4.822934E+05 -5.199458E+05 -8.778845E+04  2.617866E+04
       343   8  6.764623E+05  2.937173E+06  7.219745E+05 -3.531206E+05 -1.143280E+05 -1.000685E+05
       343   9  1.071826E+06  3.868224E+06  1.088038E+06 -6.099947E+05 -4.005604E+04 -2.262921E+05
       343  10 -4.674875E+05 -1.710190E+06 -3.717333E+05 -5.542236E+05  1.118862E-09 -3.925852E-10
       343  11 -6.904264E+05 -2.624446E+06 -5.499908E+05 -2.971004E+05 -7.180437E-10 -2.274275E-09
       343  12 -7.628869E+05 -3.503353E+06 -7.126999E+05 -4.638993E+05 -9.435729E-10  1.839674E-09
       343  13 -4.337892E+03  1.776134E+05  5.538662E+04 -5.371125E+05 -1.847725E-09  4.902369E-11
       343  14 -6.722898E+03  1.527739E+05  8.622343E+04 -3.250553E+05  3.679998E-10 -1.268269E-09
       343  15  1.549542E+05  1.762121E+05  1.881137E+05 -5.367390E+05 -9.237763E-10 -2.048060E-09
       343  16  4.585679E+05  2.068735E+06  4.822776E+05 -5.199439E+05  1.394702E-09  3.386177E-10
       343  17  6.764456E+05  2.937159E+06  7.219312E+05 -3.531298E+05 -1.883214E-11  5.255725E-09
       343  18  1.071810E+06  3.868168E+06  1.087939E+06 -6.100020E+05 -8.505081E-10 -1.495915E-10
       343  19 -4.674768E+05 -1.710178E+06 -3.717014E+05 -5.542168E+05  8.731215E+04  9.649014E+04
       343  20 -6.904113E+05 -2.624438E+06 -5.499588E+05 -2.970946E+05  1.145161E+05  6.236320E+04
       343  21 -7.628849E+05 -3.503352E+06 -7.126953E+05 -4.638983E+05  4.051827E+04  2.807082E+04
       343  22 -4.329323E+03  1.776168E+05  5.540337E+04 -5.371100E+05  8.755220E+04  3.524822E+04
       343  23 -6.707063E+03  1.527845E+05  8.626043E+04 -3.250478E+05  1.144228E+05  8.117432E+04
       343  24  1.549603E+05  1.762298E+05  1.881471E+05 -5.367349E+05  4.029834E+04  1.268889E+05
       343  25  4.585764E+05  2.068738E+06  4.822934E+05 -5.199458E+05  8.778845E+04 -2.617866E+04
       343  26  6.764623E+05  2.937173E+06  7.219745E+05 -3.531206E+05  1.143280E+05  1.000685E+05
       343  27  1.071826E+06  3.868224E+06  1.088038E+06 -6.099947E+05  4.005604E+04  2.262921E+05
       344   1 -1.734538E+06 -7.133258E+05 -3.906811E+05 -6.965690E+05 -1.806673E+05 -5.497819E+04
       344   2 -1.658681E+06 -5.050907E+05 -2.353423E+05 -6.631166E+05 -1.131903E+05 -4.692489E+02
       344   3 -1.618466E+06 -4.195212E+05 -1.667494E+05 -6.211205E+05 -3.779735E+04  3.306977E+04
       344   4 -1.027264E+06 -3.556053E+05 -1.895706E+05 -4.086753E+05 -1.266587E+05 -3.469007E+04
       344   5 -1.002099E+06 -2.237035E+05 -8.706874E+04 -4.406361E+05 -9.065143E+04  7.995756E+03
       344   6 -1.006282E+06 -2.081637E+05 -4.627548E+04 -4.640724E+05 -4.674385E+04  2.970266E+04
       344   7 -3.194629E+05  2.287911E+03  1.150961E+04 -1.204381E+05 -7.258226E+04 -1.435618E+04
       344   8 -3.450665E+05  5.776622E+04  6.118130E+04 -2.179214E+05 -6.808670E+04  1.647414E+04
       344   9 -3.937108E+05  3.216343E+03  7.418150E+04 -3.068849E+05 -5.569984E+04  2.633244E+04
       344  10 -1.734574E+06 -7.133379E+05 -3.907483E+05 -6.965770E+05 -7.350466E-09 -3.329368E-09
       344  11 -1.658695E+06 -5.050941E+05 -2.353664E+05 -6.631166E+05  1.606539E-08  6.252541E-09
       344  12 -1.618468E+06 -4.195228E+05 -1.667541E+05 -6.211195E+05  3.932572E-08  1.736293E-08
       344  13 -1.027281E+06 -3.556109E+05 -1.896031E+05 -4.086788E+05 -5.641527E-10  8.040843E-10
       344  14 -1.002108E+06 -2.237058E+05 -8.708432E+04 -4.406355E+05  5.461843E-10 -9.248430E-10
       344  15 -1.006285E+06 -2.081652E+05 -4.628125E+04 -4.640712E+05  1.722899E-09  1.791254E-09
       344  16 -3.194687E+05  2.286274E+03  1.149931E+04 -1.204390E+05  7.534862E-09  1.505431E-09
       344  17 -3.450715E+05  5.776469E+04  6.117208E+04 -2.179205E+05 -1.450298E-08 -6.706868E-09
       344  18 -3.937143E+05  3.214766E+03  7.417437E+04 -3.068837E+05 -3.580896E-08 -1.243738E-08
       344  19 -1.734538E+06 -7.133258E+05 -3.906811E+05 -6.965690E+05  1.806673E+05  5.497819E+04
       344  20 -1.658681E+06 -5.050907E+05 -2.353423E+05 -6.631166E+05  1.131903E+05  4.692489E+02
       344  21 -1.618466E+06 -4.195212E+05 -1.667494E+05 -6.211205E+05  3.779735E+04 -3.306977E+04
       344  22 -1.027264E+06 -3.556053E+05 -1.895706E+05 -4.086753E+05  1.266587E+05  3.469007E+04
       344  23 -1.002099E+06 -2.237035E+05 -8.706874E+04 -4.406361E+05  9.065143E+04 -7.995756E+03
       344  24 -1.006282E+06 -2.081637E+05 -4.627548E+04 -4.640724E+05  4.674385E+04 -2.970266E+04
       344  25 -3.194629E+05  2.287911E+03  1.150961E+04 -1.204381E+05  7.258226E+04  1.435618E+04
       344  26 -3.450665E+05  5.776622E+04  6.118130E+04 -2.179214E+05  6.808670E+04 -1.647414E+04
       344  27 -3.937108E+05  3.216343E+03  7.418150E+04 -3.068849E+05  5.569984E+04 -2.633244E+04
       345   1 -1.544093E+06 -4.131249E+05 -1.436477E+05 -6.134508E+05 -3.481702E+04  3.011209E+04
       345   2 -1.465792E+06 -3.670628E+05 -1.081960E+05 -5.810243E+05 -2.154604E+04  3.021070E+04
       345   3 -1.375163E+06 -3.419408E+05 -8.279827E+04 -5.657300E+05 -7.694929E+03  2.876440E+04
       345   4 -1.000514E+06 -2.122927E+05 -3.519091E+04 -4.602026E+05 -4.010735E+04  2.812001E+04
       345   5 -1.006458E+06 -1.990001E+05 -1.858200E+04 -4.527753E+05 -2.914959E+04  2.735101E+04
       345   6 -9.996185E+05 -2.061853E+05 -1.018449E+04 -4.624825E+05 -1.761353E+04  2.503705E+04
       345   7 -4.566330E+05 -1.143466E+04  7.325055E+04 -3.068306E+05 -4.540262E+04  2.612603E+04
       345   8 -5.469047E+05 -3.091802E+04  7.102276E+04 -3.244379E+05 -3.675918E+04  2.448904E+04
       345   9 -6.239238E+05 -7.041637E+04  6.242445E+04 -3.591762E+05 -2.753866E+04  2.130729E+04
       345  10 -1.544095E+06 -4.131262E+05 -1.436516E+05 -6.134499E+05 -3.638258E-08 -1.195654E-08
       345  11 -1.465793E+06 -3.670639E+05 -1.081985E+05 -5.810238E+05 -9.180561E-09 -3.701612E-09
       345  12 -1.375163E+06 -3.419417E+05 -8.279993E+04 -5.657298E+05  1.634788E-08  3.466534E-09
       345  13 -1.000516E+06 -2.122940E+05 -3.519542E+04 -4.602017E+05  4.801481E-09  3.968945E-09
       345  14 -1.006459E+06 -1.990011E+05 -1.858500E+04 -4.527746E+05  8.395587E-09  2.321869E-09
       345  15 -9.996190E+05 -2.061860E+05 -1.018625E+04 -4.624821E+05  3.637531E-09  2.829671E-10
       345  16 -4.566354E+05 -1.143595E+04  7.324539E+04 -3.068297E+05  4.670765E-08  1.928742E-08
       345  17 -5.469063E+05 -3.091903E+04  7.101909E+04 -3.244372E+05  2.266468E-08  1.048287E-08
       345  18 -6.239247E+05 -7.041706E+04  6.242217E+04 -3.591757E+05 -9.830862E-09 -2.300080E-09
       345  19 -1.544093E+06 -4.131249E+05 -1.436477E+05 -6.134508E+05  3.481702E+04 -3.011209E+04
       345  20 -1.465792E+06 -3.670628E+05 -1.081960E+05 -5.810243E+05  2.154604E+04 -3.021070E+04
       345  21 -1.375163E+06 -3.419408E+05 -8.279827E+04 -5.657300E+05  7.694929E+03 -2.876440E+04
       345  22 -1.000514E+06 -2.122927E+05 -3.519091E+04 -4.602026E+05  4.010735E+04 -2.812001E+04
       345  23 -1.006458E+06 -1.990001E+05 -1.858200E+04 -4.527753E+05  2.914959E+04 -2.735101E+04
       345  24 -9.996185E+05 -2.061853E+05 -1.018449E+04 -4.624825E+05  1.761353E+04 -2.503705E+04
       345  25 -4.566330E+05 -1.143466E+04  7.325055E+04 -3.068306E+05  4.540262E+04 -2.612603E+04
       345  26 -5.469047E+05 -3.091802E+04  7.102276E+04 -3.244379E+05  3.675918E+04 -2.448904E+04
       345  27 -6.239238E+05 -7.041637E+04  6.242445E+04 -3.591762E+05  2.753866E+04 -2.130729E+04
       346   1 -1.316956E+06 -3.217525E+05 -6.875706E+04 -5.502490E+05 -5.083968E+03  2.535095E+04
       346   2 -1.239132E+06 -2.825901E+05 -4.892118E+04 -5.175143E+05 -3.691378E+02  1.972210E+04
       346   3 -1.145860E+06 -2.595210E+05 -3.084304E+04 -5.029011E+05  4.388477E+03  1.397590E+04
       346   4 -9.991774E+05 -2.063817E+05 -7.663048E+03 -4.622553E+05 -1.474310E+04  2.172206E+04
       346   5 -1.006897E+06 -1.982768E+05 -4.219119E+03 -4.532185E+05 -1.020392E+04  1.602838E+04
       346   6 -9.991409E+05 -2.062302E+05 -2.393032E+03 -4.623054E+05 -5.622312E+03  1.021726E+04
       346   7 -6.812939E+05 -9.100188E+04  5.342700E+04 -3.742197E+05 -2.440753E+04  1.809119E+04
       346   8 -7.746072E+05 -1.139591E+05  4.048074E+04 -3.889006E+05 -2.004260E+04  1.233320E+04
       346   9 -8.524009E+05 -1.529380E+05  2.605609E+04 -4.217010E+05 -1.563555E+04  6.457720E+03
       346  10 -1.316956E+06 -3.217532E+05 -6.875831E+04 -5.502489E+05 -6.325224E-10 -1.453505E-09
       346  11 -1.239132E+06 -2.825905E+05 -4.892192E+04 -5.175143E+05 -8.755962E-10 -3.265403E-10
       346  12 -1.145860E+06 -2.595212E+05 -3.084344E+04 -5.029011E+05 -2.240273E-09  9.305561E-11
       346  13 -9.991777E+05 -2.063822E+05 -7.664342E+03 -4.622550E+05  2.246715E-09 -1.067179E-09
       346  14 -1.006898E+06 -1.982771E+05 -4.219798E+03 -4.532184E+05 -3.432147E-10 -9.206528E-11
       346  15 -9.991409E+05 -2.062303E+05 -2.393288E+03 -4.623053E+05  1.653296E-10  6.080182E-10
       346  16 -6.812946E+05 -9.100239E+04  5.342526E+04 -3.742193E+05  8.527317E-10  8.371951E-10
       346  17 -7.746077E+05 -1.139593E+05  4.047969E+04 -3.889004E+05  2.613134E-09 -3.209097E-10
       346  18 -8.524012E+05 -1.529381E+05  2.605555E+04 -4.217010E+05  2.842815E-09  9.661775E-10
       346  19 -1.316956E+06 -3.217525E+05 -6.875706E+04 -5.502490E+05  5.083968E+03 -2.535095E+04
       346  20 -1.239132E+06 -2.825901E+05 -4.892118E+04 -5.175143E+05  3.691378E+02 -1.972210E+04
       346  21 -1.145860E+06 -2.595210E+05 -3.084304E+04 -5.029011E+05 -4.388477E+03 -1.397590E+04
       346  22 -9.991774E+05 -2.063817E+05 -7.663048E+03 -4.622553E+05  1.474310E+04 -2.172206E+04
       346  23 -1.006897E+06 -1.982768E+05 -4.219119E+03 -4.532185E+05  1.020392E+04 -1.602838E+04
       346  24 -9.991409E+05 -2.062302E+05 -2.393032E+03 -4.623054E+05  5.622312E+03 -1.021726E+04
       346  25 -6.812939E+05 -9.100188E+04  5.342700E+04 -3.742197E+05  2.440753E+04 -1.809119E+04
       346  26 -7.746072E+05 -1.139591E+05  4.048074E+04 -3.889006E+05  2.004260E+04 -1.233320E+04
       346  27 -8.524009E+05 -1.529380E+05  2.605609E+04 -4.217010E+05  1.563555E+04 -6.457720E+03
       347   1 -1.088465E+06 -2.386299E+05 -1.879779E+04 -4.870345E+05  6.180254E+03  1.022462E+04
       347   2 -1.010734E+06 -1.996402E+05 -1.912790E+03 -4.542042E+05  9.282147E+03  3.799353E+03
       347   3 -9.172399E+05 -1.765064E+05  1.452059E+04 -4.395039E+05  1.238685E+04 -2.633324E+03
       347   4 -9.990841E+05 -2.062404E+05 -1.852799E+03 -4.622858E+05 -3.814483E+03  6.472367E+03
       347   5 -1.006963E+06 -1.983228E+05 -1.190204E+03 -4.532150E+05 -7.244749E+02  4.262470E+01
       347   6 -9.990861E+05 -2.062605E+05 -9.706009E+02 -4.622778E+05  2.368245E+03 -6.394535E+03
       347   7 -9.096943E+05 -1.738498E+05  1.509251E+04 -4.375335E+05 -1.381085E+04  2.719505E+03
       347   8 -1.003192E+06 -1.970054E+05 -4.671827E+02 -4.522257E+05 -1.073121E+04 -3.714143E+03
       347   9 -1.080925E+06 -2.360139E+05 -1.646164E+04 -4.850489E+05 -7.648949E+03 -1.015522E+04
       347  10 -1.088465E+06 -2.386301E+05 -1.879805E+04 -4.870345E+05  3.972731E-09  1.764883E-09
       347  11 -1.010734E+06 -1.996402E+05 -1.912980E+03 -4.542042E+05 -8.061851E-09 -4.343181E-09
       347  12 -9.172401E+05 -1.765065E+05  1.452029E+04 -4.395039E+05 -2.287408E-08 -9.882631E-09
       347  13 -9.990841E+05 -2.062405E+05 -1.852905E+03 -4.622858E+05  1.340782E-10  5.599107E-10
       347  14 -1.006963E+06 -1.983228E+05 -1.190205E+03 -4.532150E+05  7.675608E-10 -6.293993E-10
       347  15 -9.990861E+05 -2.062605E+05 -9.706883E+02 -4.622778E+05 -3.847989E-09 -2.094454E-09
       347  16 -9.096945E+05 -1.738499E+05  1.509214E+04 -4.375335E+05 -3.266925E-09 -6.081461E-10
       347  17 -1.003192E+06 -1.970055E+05 -4.674255E+02 -4.522258E+05  7.806616E-09  3.736874E-09
       347  18 -1.080925E+06 -2.360140E+05 -1.646195E+04 -4.850490E+05  1.499782E-08  5.284857E-09
       347  19 -1.088465E+06 -2.386299E+05 -1.879779E+04 -4.870345E+05 -6.180254E+03 -1.022462E+04
       347  20 -1.010734E+06 -1.996402E+05 -1.912790E+03 -4.542042E+05 -9.282147E+03 -3.799353E+03
       347  21 -9.172399E+05 -1.765064E+05  1.452059E+04 -4.395039E+05 -1.238685E+04  2.633324E+03
       347  22 -9.990841E+05 -2.062404E+05 -1.852799E+03 -4.622858E+05  3.814483E+03 -6.472367E+03
       347  23 -1.006963E+06 -1.983228E+05 -1.190204E+03 -4.532150E+05  7.244749E+02 -4.262470E+01
       347  24 -9.990861E+05 -2.062605E+05 -9.706009E+02 -4.622778E+05 -2.368245E+03  6.394535E+03
       347  25 -9.096943E+05 -1.738498E+05  1.509251E+04 -4.375335E+05  1.381085E+04 -2.719505E+03
       347  26 -1.003192E+06 -1.970054E+05 -4.671827E+02 -4.522257E+05  1.073121E+04  3.714143E+03
       347  27 -1.080925E+06 -2.360139E+05 -1.646164E+04 -4.850489E+05  7.648949E+03  1.015522E+04
       348   1 -8.599329E+05 -1.555795E+05  2.599993E+04 -4.236176E+05  1.400484E+04 -6.450676E+03
       348   2 -7.822680E+05 -1.166135E+05  4.187790E+04 -3.908091E+05  1.713448E+04 -1.286717E+04
       348   3 -6.888505E+05 -9.348591E+04  5.728659E+04 -3.761126E+05  2.026005E+04 -1.926878E+04
       348   4 -9.990931E+05 -2.062606E+05 -9.916472E+02 -4.622741E+05  3.988190E+03 -1.021147E+04
       348   5 -1.006970E+06 -1.983429E+05 -1.309924E+03 -4.532177E+05  7.138840E+03 -1.662118E+04
       348   6 -9.991067E+05 -2.062687E+05 -2.114203E+03 -4.622766E+05  1.028534E+04 -2.301606E+04
       348   7 -1.138232E+06 -2.569395E+05 -2.798331E+04 -5.009222E+05 -6.025965E+03 -1.397133E+04
       348   8 -1.231620E+06 -2.800678E+05 -4.449948E+04 -5.156053E+05 -2.852917E+03 -2.037373E+04
       348   9 -1.309265E+06 -3.190438E+05 -6.151940E+04 -5.484013E+05  3.158955E+02 -2.676136E+04
       348  10 -8.599331E+05 -1.555796E+05  2.599948E+04 -4.236176E+05  1.386175E-08  3.838574E-09
       348  11 -7.822683E+05 -1.166137E+05  4.187704E+04 -3.908089E+05  6.263538E-09  2.458122E-09
       348  12 -6.888510E+05 -9.348642E+04  5.728513E+04 -3.761123E+05 -4.403076E-09 -1.377032E-09
       348  13 -9.990932E+05 -2.062608E+05 -9.918729E+02 -4.622741E+05 -3.085589E-09 -2.023991E-09
       348  14 -1.006971E+06 -1.983433E+05 -1.310538E+03 -4.532176E+05  6.887078E-10 -9.859894E-10
       348  15 -9.991070E+05 -2.062693E+05 -2.115397E+03 -4.622764E+05  7.969856E-10 -1.786908E-10
       348  16 -1.138232E+06 -2.569398E+05 -2.798375E+04 -5.009223E+05 -2.110484E-08 -9.096513E-09
       348  17 -1.231620E+06 -2.800683E+05 -4.450028E+04 -5.156054E+05 -7.121782E-09 -3.338986E-09
       348  18 -1.309265E+06 -3.190445E+05 -6.152075E+04 -5.484013E+05  5.368548E-09  1.398893E-09
       348  19 -8.599329E+05 -1.555795E+05  2.599993E+04 -4.236176E+05 -1.400484E+04  6.450676E+03
       348  20 -7.822680E+05 -1.166135E+05  4.187790E+04 -3.908091E+05 -1.713448E+04  1.286717E+04
       348  21 -6.888505E+05 -9.348591E+04  5.728659E+04 -3.761126E+05 -2.026005E+04  1.926878E+04
       348  22 -9.990931E+05 -2.062606E+05 -9.916472E+02 -4.622741E+05 -3.988190E+03  1.021147E+04
       348  23 -1.006970E+06 -1.983429E+05 -1.309924E+03 -4.532177E+05 -7.138840E+03  1.662118E+04
       348  24 -9.991067E+05 -2.062687E+05 -2.114203E+03 -4.622766E+05 -1.028534E+04  2.301606E+04
       348  25 -1.138232E+06 -2.569395E+05 -2.798331E+04 -5.009222E+05  6.025965E+03  1.397133E+04
       348  26 -1.231620E+06 -2.800678E+05 -4.449948E+04 -5.156053E+05  2.852917E+03  2.037373E+04
       348  27 -1.309265E+06 -3.190438E+05 -6.151940E+04 -5.484013E+05 -3.158955E+02  2.676136E+04
       349   1 -6.316805E+05 -7.260777E+04  6.812954E+04 -3.602959E+05  2.213385E+04 -2.297886E+04
       349   2 -5.541024E+05 -3.372430E+04  8.220898E+04 -3.275583E+05  2.681318E+04 -2.871284E+04
       349   3 -4.610763E+05 -1.085027E+04  9.459697E+04 -3.128853E+05  3.143828E+04 -3.429401E+04
       349   4 -9.991838E+05 -2.062576E+05 -2.752488E+03 -4.622919E+05  1.214267E+04 -2.673334E+04
       349   5 -1.006911E+06 -1.983314E+05 -4.891553E+03 -4.532259E+05  1.704864E+04 -3.238440E+04
       349   6 -9.992422E+05 -2.064615E+05 -8.902686E+03 -4.622285E+05  2.190002E+04 -3.788268E+04
       349   7 -1.366546E+06 -3.398952E+05 -7.363991E+04 -5.642318E+05  2.157837E+03 -3.048544E+04
       349   8 -1.459504E+06 -3.629194E+05 -9.199991E+04 -5.788078E+05  7.291785E+03 -3.605308E+04
       349   9 -1.537102E+06 -4.020449E+05 -1.124131E+05 -6.114501E+05  1.237071E+04 -4.146800E+04
       349  10 -6.316812E+05 -7.260847E+04  6.812763E+04 -3.602955E+05 -4.196916E-09 -4.336655E-10
       349  11 -5.541034E+05 -3.372537E+04  8.220608E+04 -3.275577E+05  8.237997E-09  4.192962E-09
       349  12 -4.610776E+05 -1.085180E+04  9.459290E+04 -3.128844E+05  2.191604E-08  9.989677E-09
       349  13 -9.991841E+05 -2.062584E+05 -2.754107E+03 -4.622917E+05  1.301039E-11  1.657731E-10
       349  14 -1.006912E+06 -1.983326E+05 -4.894069E+03 -4.532255E+05  1.524550E-09  1.618313E-11
       349  15 -9.992431E+05 -2.064631E+05 -8.906282E+03 -4.622278E+05  4.120160E-09  2.250112E-09
       349  16 -1.366546E+06 -3.398962E+05 -7.364167E+04 -5.642318E+05  2.919058E-09  1.493309E-09
       349  17 -1.459504E+06 -3.629208E+05 -9.200245E+04 -5.788076E+05 -6.809180E-09 -3.871108E-09
       349  18 -1.537102E+06 -4.020468E+05 -1.124166E+05 -6.114497E+05 -1.548694E-08 -4.982877E-09
       349  19 -6.316805E+05 -7.260777E+04  6.812954E+04 -3.602959E+05 -2.213385E+04  2.297886E+04
       349  20 -5.541024E+05 -3.372430E+04  8.220898E+04 -3.275583E+05 -2.681318E+04  2.871284E+04
       349  21 -4.610763E+05 -1.085027E+04  9.459697E+04 -3.128853E+05 -3.143828E+04  3.429401E+04
       349  22 -9.991838E+05 -2.062576E+05 -2.752488E+03 -4.622919E+05 -1.214267E+04  2.673334E+04
       349  23 -1.006911E+06 -1.983314E+05 -4.891553E+03 -4.532259E+05 -1.704864E+04  3.238440E+04
       349  24 -9.992422E+05 -2.064615E+05 -8.902686E+03 -4.622285E+05 -2.190002E+04  3.788268E+04
       349  25 -1.366546E+06 -3.398952E+05 -7.363991E+04 -5.642318E+05 -2.157837E+03  3.048544E+04
       349  26 -1.459504E+06 -3.629194E+05 -9.199991E+04 -5.788078E+05 -7.291785E+03  3.605308E+04
       349  27 -1.537102E+06 -4.020449E+05 -1.124131E+05 -6.114501E+05 -1.237071E+04  4.146800E+04
       350   1 -4.039023E+05  9.633128E+03  1.031507E+05 -2.979931E+05  3.486202E+04 -3.737580E+04
       350   2 -3.273706E+05  4.908233E+04  1.105295E+05 -2.630597E+05  4.487922E+04 -3.996741E+04
       350   3 -2.379973E+05  6.797074E+04  1.107148E+05 -2.449924E+05  5.416129E+04 -4.059204E+04
       350   4 -9.997600E+05 -2.062296E+05 -1.183479E+04 -4.624804E+05  2.499549E+04 -4.108947E+04
       350   5 -1.006411E+06 -1.992126E+05 -2.160475E+04 -4.527173E+05  3.795927E+04 -4.257615E+04
       350   6 -1.000817E+06 -2.133485E+05 -4.091319E+04 -4.598258E+05  5.018631E+04 -4.209513E+04
       350   7 -1.595254E+06 -4.220634E+05 -1.268367E+05 -6.268231E+05  1.513902E+04 -4.479941E+04
       350   8 -1.684975E+06 -4.474667E+05 -1.537601E+05 -6.421830E+05  3.104740E+04 -4.518183E+04
       350   9 -1.763034E+06 -4.946135E+05 -1.925687E+05 -6.744136E+05  4.621657E+04 -4.359621E+04
       350  10 -4.039040E+05  9.631303E+03  1.031457E+05 -2.979920E+05 -1.726290E-08 -4.402440E-09
       350  11 -3.273732E+05  4.908008E+04  1.105227E+05 -2.630583E+05 -7.753378E-09 -6.195662E-10
       350  12 -2.380009E+05  6.796818E+04  1.107062E+05 -2.449906E+05  7.881493E-09  3.521541E-10
       350  13 -9.997611E+05 -2.062316E+05 -1.183913E+04 -4.624796E+05  3.517739E-09  3.367149E-09
       350  14 -1.006413E+06 -1.992149E+05 -2.161087E+04 -4.527160E+05 -2.616123E-10  2.216746E-09
       350  15 -1.000820E+06 -2.133510E+05 -4.092125E+04 -4.598241E+05  1.003848E-09 -1.432669E-09
       350  16 -1.595255E+06 -4.220656E+05 -1.268409E+05 -6.268225E+05  2.386790E-08  1.102859E-08
       350  17 -1.684977E+06 -4.474691E+05 -1.537658E+05 -6.421819E+05  7.512905E-09  4.604384E-09
       350  18 -1.763037E+06 -4.946161E+05 -1.925762E+05 -6.744120E+05 -7.696566E-09 -1.543836E-09
       350  19 -4.039023E+05  9.633128E+03  1.031507E+05 -2.979931E+05 -3.486202E+04  3.737580E+04
       350  20 -3.273706E+05  4.908233E+04  1.105295E+05 -2.630597E+05 -4.487922E+04  3.996741E+04
       350  21 -2.379973E+05  6.797074E+04  1.107148E+05 -2.449924E+05 -5.416129E+04  4.059204E+04
       350  22 -9.997600E+05 -2.062296E+05 -1.183479E+04 -4.624804E+05 -2.499549E+04  4.108947E+04
       350  23 -1.006411E+06 -1.992126E+05 -2.160475E+04 -4.527173E+05 -3.795927E+04  4.257615E+04
       350  24 -1.000817E+06 -2.133485E+05 -4.091319E+04 -4.598258E+05 -5.018631E+04  4.209513E+04
       350  25 -1.595254E+06 -4.220634E+05 -1.268367E+05 -6.268231E+05 -1.513902E+04  4.479941E+04
       350  26 -1.684975E+06 -4.474667E+05 -1.537601E+05 -6.421830E+05 -3.104740E+04  4.518183E+04
       350  27 -1.763034E+06 -4.946135E+05 -1.925687E+05 -6.744136E+05 -4.621657E+04  4.359621E+04
       351   1 -1.743587E+05  8.158300E+04  1.099362E+05 -2.476150E+05  6.627919E+04 -3.999660E+04
       351   2 -1.311439E+05  1.386298E+05  9.337875E+04 -1.499155E+05  7.635490E+04 -2.748753E+04
       351   3 -1.167734E+05  7.129717E+04  3.694277E+04 -3.909760E+04  7.637983E+04  1.169097E+04
       351   4 -1.007547E+06 -2.085285E+05 -5.379970E+04 -4.642957E+05  5.764742E+04 -4.325246E+04
       351   5 -1.001337E+06 -2.279697E+05 -1.012301E+05 -4.386334E+05  1.078118E+05 -1.565281E+04
       351   6 -1.032000E+06 -3.798634E+05 -2.203906E+05 -3.998437E+05  1.479129E+05  3.863038E+04
       351   7 -1.840018E+06 -4.985949E+05 -2.175669E+05 -6.807136E+05  4.902810E+04 -4.650414E+04
       351   8 -1.870734E+06 -5.944327E+05 -2.958777E+05 -7.269501E+05  1.392206E+05 -3.842088E+03
       351   9 -1.946341E+06 -8.307587E+05 -4.777705E+05 -7.600349E+05  2.193290E+05  6.549458E+04
       351  10 -1.743638E+05  8.158010E+04  1.099250E+05 -2.476129E+05 -3.201033E-09 -2.795558E-09
       351  11 -1.311503E+05  1.386275E+05  9.336637E+04 -1.499138E+05 -1.109433E-09  2.606286E-09
       351  12 -1.167798E+05  7.129546E+04  3.693154E+04 -3.909832E+04  2.215747E-09  3.626680E-09
       351  13 -1.007551E+06 -2.085314E+05 -5.380946E+04 -4.642937E+05 -6.875795E-10 -1.192975E-09
       351  14 -1.001349E+06 -2.279731E+05 -1.012525E+05 -4.386320E+05 -1.096890E-09 -1.455141E-09
       351  15 -1.032024E+06 -3.798709E+05 -2.204346E+05 -3.998483E+05 -8.913279E-10  2.711248E-09
       351  16 -1.840021E+06 -4.985979E+05 -2.175755E+05 -6.807117E+05  3.458005E-09  2.783550E-09
       351  17 -1.870755E+06 -5.944380E+05 -2.959142E+05 -7.269497E+05 -1.817644E-09  3.895554E-09
       351  18 -1.946394E+06 -8.307763E+05 -4.778693E+05 -7.600465E+05 -2.906174E-09 -2.885094E-09
       351  19 -1.743587E+05  8.158300E+04  1.099362E+05 -2.476150E+05 -6.627919E+04  3.999660E+04
       351  20 -1.311439E+05  1.386298E+05  9.337875E+04 -1.499155E+05 -7.635490E+04  2.748753E+04
       351  21 -1.167734E+05  7.129717E+04  3.694277E+04 -3.909760E+04 -7.637983E+04 -1.169097E+04
       351  22 -1.007547E+06 -2.085285E+05 -5.379970E+04 -4.642957E+05 -5.764742E+04  4.325246E+04
       351  23 -1.001337E+06 -2.279697E+05 -1.012301E+05 -4.386334E+05 -1.078118E+05  1.565281E+04
       351  24 -1.032000E+06 -3.798634E+05 -2.203906E+05 -3.998437E+05 -1.479129E+05 -3.863038E+04
       351  25 -1.840018E+06 -4.985949E+05 -2.175669E+05 -6.807136E+05 -4.902810E+04  4.650414E+04
       351  26 -1.870734E+06 -5.944327E+05 -2.958777E+05 -7.269501E+05 -1.392206E+05  3.842088E+03
       351  27 -1.946341E+06 -8.307587E+05 -4.777705E+05 -7.600349E+05 -2.193290E+05 -6.549458E+04
       352   1  3.578524E+04  2.031966E+04 -1.163288E+04 -3.315478E+04 -9.124003E+04 -7.917046E+03
       352   2  1.265238E+04  1.459599E+05  5.769744E+04 -4.285431E+03 -6.497642E+04 -2.444197E+04
       352   3 -4.740007E+04  1.373120E+05  7.639993E+04  4.379976E+04 -3.874412E+04 -2.527264E+04
       352   4 -5.778495E+05 -1.320858E+05 -1.610345E+05  2.367539E+04 -1.105015E+05 -7.960857E+03
       352   5 -5.582677E+05  5.791192E+03 -7.252097E+04  1.393052E+04 -7.184205E+04 -2.445941E+04
       352   6 -5.777997E+05  7.154212E+03 -4.328300E+04  2.340389E+04 -3.321133E+04 -2.526052E+04
       352   7 -1.191133E+06 -2.845066E+05 -3.104603E+05  8.044908E+04 -1.297439E+05 -8.008221E+03
       352   8 -1.128885E+06 -1.343988E+05 -2.027603E+05  3.212941E+04 -7.870140E+04 -2.447726E+04
       352   9 -1.107937E+06 -1.230214E+05 -1.629836E+05  3.025475E+03 -2.768321E+04 -2.524876E+04
       352  10  3.577628E+04  2.031736E+04 -1.164864E+04 -3.315536E+04  6.883431E-10 -2.030764E-10
       352  11  1.264768E+04  1.459582E+05  5.768838E+04 -4.286710E+03 -8.019361E-10 -2.760012E-09
       352  12 -4.740185E+04  1.373109E+05  7.639591E+04  4.379897E+04  2.498680E-09 -3.546784E-09
       352  13 -5.778626E+05 -1.320892E+05 -1.610576E+05  2.367468E+04 -1.282020E-09  1.767576E-09
       352  14 -5.582734E+05  5.789163E+03 -7.253180E+04  1.392910E+04  2.710059E-10 -7.917153E-10
       352  15 -5.778011E+05  7.153230E+03 -4.328627E+04  2.340322E+04 -1.208742E-09  9.360176E-11
       352  16 -1.191151E+06 -2.845112E+05 -3.104921E+05  8.044824E+04 -2.874617E-10  1.093529E-09
       352  17 -1.128891E+06 -1.344011E+05 -2.027731E+05  3.212786E+04 -2.570649E-10 -4.901585E-09
       352  18 -1.107938E+06 -1.230223E+05 -1.629863E+05  3.024912E+03 -1.577449E-09 -5.367717E-09
       352  19  3.578524E+04  2.031966E+04 -1.163288E+04 -3.315478E+04  9.124003E+04  7.917046E+03
       352  20  1.265238E+04  1.459599E+05  5.769744E+04 -4.285431E+03  6.497642E+04  2.444197E+04
       352  21 -4.740007E+04  1.373120E+05  7.639993E+04  4.379976E+04  3.874412E+04  2.527264E+04
       352  22 -5.778495E+05 -1.320858E+05 -1.610345E+05  2.367539E+04  1.105015E+05  7.960857E+03
       352  23 -5.582677E+05  5.791192E+03 -7.252097E+04  1.393052E+04  7.184205E+04  2.445941E+04
       352  24 -5.777997E+05  7.154212E+03 -4.328300E+04  2.340389E+04  3.321133E+04  2.526052E+04
       352  25 -1.191133E+06 -2.845066E+05 -3.104603E+05  8.044908E+04  1.297439E+05  8.008221E+03
       352  26 -1.128885E+06 -1.343988E+05 -2.027603E+05  3.212941E+04  7.870140E+04  2.447726E+04
       352  27 -1.107937E+06 -1.230214E+05 -1.629836E+05  3.025475E+03  2.768321E+04  2.524876E+04
       353   1 -7.686542E+04  1.122817E+05  7.714271E+04  2.148694E+04 -2.769558E+04 -2.231059E+04
       353   2 -1.170195E+05  1.112331E+05  8.350831E+04  1.378090E+04 -1.893709E+04 -2.097286E+04
       353   3 -1.606309E+05  1.010340E+05  8.187817E+04  2.602922E+04 -1.018203E+04 -1.890102E+04
       353   4 -5.698977E+05 -8.709081E+03 -3.468587E+04  2.365825E+04 -2.692873E+04 -2.231017E+04
       353   5 -5.681094E+05  5.797251E+02 -1.851627E+04  1.366900E+04 -1.759562E+04 -2.097058E+04
       353   6 -5.698824E+05  6.143157E+02 -1.074622E+04  2.363513E+04 -8.265344E+03 -1.889668E+04
       353   7 -1.062704E+06 -1.297166E+05 -1.465302E+05  2.582768E+04 -2.616248E+04 -2.230974E+04
       353   8 -1.019010E+06 -1.100877E+05 -1.205539E+05  1.355705E+04 -1.625511E+04 -2.096829E+04
       353   9 -9.789782E+05 -9.981692E+04 -1.033814E+05  2.124252E+04 -6.349906E+03 -1.889236E+04
       353  10 -7.686638E+04  1.122810E+05  7.714033E+04  2.148644E+04 -2.452820E-09 -4.884168E-09
       353  11 -1.170200E+05  1.112325E+05  8.350681E+04  1.378058E+04 -1.734037E-09  2.892103E-09
       353  12 -1.606311E+05  1.010336E+05  8.187730E+04  2.602907E+04 -1.681301E-09  2.930507E-09
       353  13 -5.698986E+05 -8.709810E+03 -3.468817E+04  2.365776E+04 -1.077571E-09 -3.547581E-09
       353  14 -5.681098E+05  5.791698E+02 -1.851768E+04  1.366870E+04 -1.075827E-09 -8.472794E-11
       353  15 -5.698826E+05  6.139140E+02 -1.074702E+04  2.363500E+04 -2.185199E-09 -2.996503E-09
       353  16 -1.062705E+06 -1.297173E+05 -1.465324E+05  2.582721E+04  1.521528E-09 -6.813935E-10
       353  17 -1.019010E+06 -1.100882E+05 -1.205553E+05  1.355678E+04  6.741488E-10  1.580966E-10
       353  18 -9.789783E+05 -9.981731E+04 -1.033821E+05  2.124242E+04  8.091193E-10 -4.195045E-11
       353  19 -7.686542E+04  1.122817E+05  7.714271E+04  2.148694E+04  2.769558E+04  2.231059E+04
       353  20 -1.170195E+05  1.112331E+05  8.350831E+04  1.378090E+04  1.893709E+04  2.097286E+04
       353  21 -1.606309E+05  1.010340E+05  8.187817E+04  2.602922E+04  1.018203E+04  1.890102E+04
       353  22 -5.698977E+05 -8.709081E+03 -3.468587E+04  2.365825E+04  2.692873E+04  2.231017E+04
       353  23 -5.681094E+05  5.797251E+02 -1.851627E+04  1.366900E+04  1.759562E+04  2.097058E+04
       353  24 -5.698824E+05  6.143157E+02 -1.074622E+04  2.363513E+04  8.265344E+03  1.889668E+04
       353  25 -1.062704E+06 -1.297166E+05 -1.465302E+05  2.582768E+04  2.616248E+04  2.230974E+04
       353  26 -1.019010E+06 -1.100877E+05 -1.205539E+05  1.355705E+04  1.625511E+04  2.096829E+04
       353  27 -9.789782E+05 -9.981692E+04 -1.033814E+05  2.124252E+04  6.349906E+03  1.889236E+04
       354   1 -1.975780E+05  9.071285E+04  7.563187E+04  2.448565E+04 -8.297874E+03 -1.753918E+04
       354   2 -2.396264E+05  8.092046E+04  6.976222E+04  1.440817E+04 -6.006637E+03 -1.536655E+04
       354   3 -2.821970E+05  7.060954E+04  6.224913E+04  2.450938E+04 -3.716712E+03 -1.315357E+04
       354   4 -5.692020E+05 -4.278748E+02 -8.281694E+03  2.369251E+04 -6.595988E+03 -1.753517E+04
       354   5 -5.689329E+05  1.375210E+02 -4.686899E+03  1.360195E+04 -4.274103E+03 -1.536208E+04
       354   6 -5.691933E+05  1.788521E+02 -2.757560E+03  2.369074E+04 -1.953377E+03 -1.314862E+04
       354   7 -9.406976E+05 -9.157809E+04 -9.220411E+04  2.289975E+04 -4.895110E+03 -1.753116E+04
       354   8 -8.981385E+05 -8.065287E+04 -7.914298E+04  1.279609E+04 -2.542479E+03 -1.535761E+04
       354   9 -8.561131E+05 -7.025751E+04 -6.776954E+04  2.287243E+04 -1.908489E+02 -1.314367E+04
       354  10 -1.975781E+05  9.071250E+04  7.563116E+04  2.448553E+04 -4.330882E-09  5.038419E-09
       354  11 -2.396265E+05  8.092019E+04  6.976171E+04  1.440810E+04 -1.582128E-09  5.589461E-09
       354  12 -2.821971E+05  7.060935E+04  6.224877E+04  2.450934E+04  4.629570E-09 -8.730595E-10
       354  13 -5.692022E+05 -4.282166E+02 -8.282353E+03  2.369241E+04 -6.484532E-10 -4.122217E-09
       354  14 -5.689330E+05  1.372628E+02 -4.687377E+03  1.360190E+04 -1.620653E-09  5.128139E-09
       354  15 -5.691934E+05  1.786655E+02 -2.757892E+03  2.369072E+04 -2.660159E-11  6.521641E-09
       354  16 -9.406977E+05 -9.157842E+04 -9.220473E+04  2.289968E+04  2.627963E-09  2.541865E-09
       354  17 -8.981386E+05 -8.065313E+04 -7.914343E+04  1.279606E+04  1.192360E-10  5.738861E-09
       354  18 -8.561131E+05 -7.025770E+04 -6.776987E+04  2.287243E+04 -3.664685E-09  3.282548E-09
       354  19 -1.975780E+05  9.071285E+04  7.563187E+04  2.448565E+04  8.297874E+03  1.753918E+04
       354  20 -2.396264E+05  8.092046E+04  6.976222E+04  1.440817E+04  6.006637E+03  1.536655E+04
       354  21 -2.821970E+05  7.060954E+04  6.224913E+04  2.450938E+04  3.716712E+03  1.315357E+04
       354  22 -5.692020E+05 -4.278748E+02 -8.281694E+03  2.369251E+04  6.595988E+03  1.753517E+04
       354  23 -5.689329E+05  1.375210E+02 -4.686899E+03  1.360195E+04  4.274103E+03  1.536208E+04
       354  24 -5.691933E+05  1.788521E+02 -2.757560E+03  2.369074E+04  1.953377E+03  1.314862E+04
       354  25 -9.406976E+05 -9.157809E+04 -9.220411E+04  2.289975E+04  4.895110E+03  1.753116E+04
       354  26 -8.981385E+05 -8.065287E+04 -7.914298E+04  1.279609E+04  2.542479E+03  1.535761E+04
       354  27 -8.561131E+05 -7.025751E+04 -6.776954E+04  2.287243E+04  1.908489E+02  1.314367E+04
       355   1 -3.200730E+05  6.119019E+04  5.403017E+04  2.435658E+04 -3.272543E+03 -1.185725E+04
       355   2 -3.625824E+05  5.074319E+04  4.529327E+04  1.408547E+04 -2.602190E+03 -9.633379E+03
       355   3 -4.052972E+05  4.037802E+04  3.610824E+04  2.413791E+04 -1.932578E+03 -7.403749E+03
       355   4 -5.691171E+05  1.180083E+02 -2.153086E+03  2.372346E+04 -1.515446E+03 -1.185213E+04
       355   5 -5.690103E+05  1.002263E+02 -1.377654E+03  1.356140E+04 -8.408405E+02 -9.628005E+03
       355   6 -5.691121E+05  1.634445E+02 -1.053549E+03  2.372331E+04 -1.669301E+02 -7.398117E+03
       355   7 -8.181035E+05 -6.095843E+04 -5.834030E+04  2.309055E+04  2.409528E+02 -1.184700E+04
       355   8 -7.753986E+05 -5.054567E+04 -4.805130E+04  1.303748E+04  9.199288E+02 -9.622633E+03
       355   9 -7.329019E+05 -4.005298E+04 -3.821706E+04  2.330880E+04  1.598256E+03 -7.392487E+03
       355  10 -3.200731E+05  6.119004E+04  5.402988E+04  2.435655E+04  3.620010E-09 -1.419147E-09
       355  11 -3.625824E+05  5.074309E+04  4.529308E+04  1.408545E+04 -1.047797E-09  8.259348E-09
       355  12 -4.052972E+05  4.037796E+04  3.610813E+04  2.413789E+04 -1.074385E-09  8.171649E-09
       355  13 -5.691172E+05  1.178569E+02 -2.153354E+03  2.372345E+04 -5.678312E-10  1.390751E-09
       355  14 -5.690103E+05  1.001266E+02 -1.377830E+03  1.356140E+04 -9.610793E-10  7.925669E-09
       355  15 -5.691121E+05  1.633858E+02 -1.053652E+03  2.372330E+04 -6.937736E-10  2.579878E-09
       355  16 -8.181036E+05 -6.095858E+04 -5.834056E+04  2.309055E+04 -4.131734E-09  1.931608E-09
       355  17 -7.753986E+05 -5.054577E+04 -4.805148E+04  1.303749E+04  5.110542E-10  6.135498E-10
       355  18 -7.329020E+05 -4.005304E+04 -3.821717E+04  2.330881E+04  9.721100E-10 -1.762639E-09
       355  19 -3.200730E+05  6.119019E+04  5.403017E+04  2.435658E+04  3.272543E+03  1.185725E+04
       355  20 -3.625824E+05  5.074319E+04  4.529327E+04  1.408547E+04  2.602190E+03  9.633379E+03
       355  21 -4.052972E+05  4.037802E+04  3.610824E+04  2.413791E+04  1.932578E+03  7.403749E+03
       355  22 -5.691171E+05  1.180083E+02 -2.153086E+03  2.372346E+04  1.515446E+03  1.185213E+04
       355  23 -5.690103E+05  1.002263E+02 -1.377654E+03  1.356140E+04  8.408405E+02  9.628005E+03
       355  24 -5.691121E+05  1.634445E+02 -1.053549E+03  2.372331E+04  1.669301E+02  7.398117E+03
       355  25 -8.181035E+05 -6.095843E+04 -5.834030E+04  2.309055E+04 -2.409528E+02  1.184700E+04
       355  26 -7.753986E+05 -5.054567E+04 -4.805130E+04  1.303748E+04 -9.199288E+02  9.622633E+03
       355  27 -7.329019E+05 -4.005298E+04 -3.821706E+04  2.330880E+04 -1.598256E+03  7.392487E+03
       356   1 -4.434565E+05  3.096700E+04  2.726654E+04  2.405037E+04 -1.751015E+03 -6.104156E+03
       356   2 -4.861216E+05  2.044380E+04  1.754801E+04  1.372450E+04 -1.169735E+03 -3.868786E+03
       356   3 -5.290034E+05  1.001438E+04  7.436344E+03  2.380408E+04 -5.887591E+02 -1.632473E+03
       356   4 -5.691115E+05  1.632802E+02 -1.020629E+03  2.374146E+04  1.651556E+01 -6.098411E+03
       356   5 -5.690017E+05  1.095455E+02 -1.191460E+03  1.353867E+04  5.984244E+02 -3.862946E+03
       356   6 -5.691096E+05  1.497457E+02 -1.755645E+03  2.374150E+04  1.180069E+03 -1.626530E+03
       356   7 -6.947517E+05 -3.064152E+04 -2.930879E+04  2.343260E+04  1.783692E+03 -6.092667E+03
       356   8 -6.518753E+05 -2.022518E+04 -1.993136E+04  1.335287E+04  2.366350E+03 -3.857106E+03
       356   9 -6.092143E+05 -9.715000E+03 -1.094773E+04  2.367892E+04  2.948784E+03 -1.620588E+03
       356  10 -4.434565E+05  3.096696E+04  2.726646E+04  2.405036E+04  6.352676E-09  2.749413E-09
       356  11 -4.861217E+05  2.044379E+04  1.754798E+04  1.372450E+04  1.369451E-09 -7.206691E-10
       356  12 -5.290034E+05  1.001438E+04  7.436338E+03  2.380408E+04 -7.668145E-10 -3.888715E-09
       356  13 -5.691115E+05  1.632403E+02 -1.020699E+03  2.374146E+04 -4.463160E-10  1.138150E-08
       356  14 -5.690017E+05  1.095294E+02 -1.191489E+03  1.353868E+04 -4.746650E-10  4.125795E-10
       356  15 -5.691096E+05  1.497425E+02 -1.755653E+03  2.374150E+04  6.539269E-10 -3.962628E-09
       356  16 -6.947518E+05 -3.064156E+04 -2.930887E+04  2.343261E+04 -8.194641E-09  2.928378E-09
       356  17 -6.518753E+05 -2.022520E+04 -1.993139E+04  1.335288E+04 -2.906941E-09 -3.657714E-09
       356  18 -6.092143E+05 -9.715005E+03 -1.094775E+04  2.367893E+04  1.827241E-09 -4.836400E-09
       356  19 -4.434565E+05  3.096700E+04  2.726654E+04  2.405037E+04  1.751015E+03  6.104156E+03
       356  20 -4.861216E+05  2.044380E+04  1.754801E+04  1.372450E+04  1.169735E+03  3.868786E+03
       356  21 -5.290034E+05  1.001438E+04  7.436344E+03  2.380408E+04  5.887591E+02  1.632473E+03
       356  22 -5.691115E+05  1.632802E+02 -1.020629E+03  2.374146E+04 -1.651556E+01  6.098411E+03
       356  23 -5.690017E+05  1.095455E+02 -1.191460E+03  1.353867E+04 -5.984244E+02  3.862946E+03
       356  24 -5.691096E+05  1.497457E+02 -1.755645E+03  2.374150E+04 -1.180069E+03  1.626530E+03
       356  25 -6.947517E+05 -3.064152E+04 -2.930879E+04  2.343260E+04 -1.783692E+03  6.092667E+03
       356  26 -6.518753E+05 -2.022518E+04 -1.993136E+04  1.335287E+04 -2.366350E+03  3.857106E+03
       356  27 -6.092143E+05 -9.715000E+03 -1.094773E+04  2.367892E+04 -2.948784E+03  1.620588E+03
       357   1 -5.673055E+05  6.303580E+02 -1.919683E+03  2.362422E+04 -2.413982E+02 -3.276115E+02
       357   2 -6.098495E+05 -9.886375E+03 -1.296655E+04  1.336595E+04  1.608912E+03  1.911339E+03
       357   3 -6.528963E+05 -2.078071E+04 -2.535209E+04  2.352412E+04  3.459288E+03  4.131076E+03
       357   4 -5.691724E+05  1.980723E+02 -2.217981E+03  2.374338E+04  1.533294E+03 -3.216335E+02
       357   5 -5.689223E+05  1.566178E+02 -3.710518E+03  1.353597E+04  3.368463E+03  1.917215E+03
       357   6 -5.691741E+05 -2.596313E+02 -6.530993E+03  2.374492E+04  5.203824E+03  4.136859E+03
       357   7 -5.710392E+05 -2.342117E+02 -2.516267E+03  2.386254E+04  3.307981E+03 -3.156547E+02
       357   8 -5.279935E+05  1.019950E+04  5.545417E+03  1.370601E+04  5.128130E+03  1.923092E+03
       357   9 -4.854453E+05  2.026097E+04  1.228967E+04  2.396575E+04  6.948592E+03  4.142641E+03
       357  10 -5.673055E+05  6.303578E+02 -1.919683E+03  2.362422E+04 -4.322077E-09 -7.890447E-10
       357  11 -6.098495E+05 -9.886380E+03 -1.296656E+04  1.336595E+04 -2.841969E-09 -1.222838E-09
       357  12 -6.528963E+05 -2.078073E+04 -2.535214E+04  2.352411E+04 -1.127052E-09  3.255812E-09
       357  13 -5.691724E+05  1.980716E+02 -2.217986E+03  2.374338E+04  5.752187E-10 -2.056010E-09
       357  14 -5.689223E+05  1.566108E+02 -3.710546E+03  1.353597E+04 -2.745188E-10 -7.229760E-12
       357  15 -5.691741E+05 -2.596570E+02 -6.531076E+03  2.374490E+04 -1.363598E-09  2.411507E-09
       357  16 -5.710392E+05 -2.342147E+02 -2.516288E+03  2.386254E+04  3.145139E-09  1.808014E-09
       357  17 -5.279936E+05  1.019949E+04  5.545361E+03  1.370600E+04  2.686420E-09 -8.074695E-09
       357  18 -4.854454E+05  2.026093E+04  1.228954E+04  2.396573E+04  1.455229E-09 -1.510085E-09
       357  19 -5.673055E+05  6.303580E+02 -1.919683E+03  2.362422E+04  2.413982E+02  3.276115E+02
       357  20 -6.098495E+05 -9.886375E+03 -1.296655E+04  1.336595E+04 -1.608912E+03 -1.911339E+03
       357  21 -6.528963E+05 -2.078071E+04 -2.535209E+04  2.352412E+04 -3.459288E+03 -4.131076E+03
       357  22 -5.691724E+05  1.980723E+02 -2.217981E+03  2.374338E+04 -1.533294E+03  3.216335E+02
       357  23 -5.689223E+05  1.566178E+02 -3.710518E+03  1.353597E+04 -3.368463E+03 -1.917215E+03
       357  24 -5.691741E+05 -2.596313E+02 -6.530993E+03  2.374492E+04 -5.203824E+03 -4.136859E+03
       357  25 -5.710392E+05 -2.342117E+02 -2.516267E+03  2.386254E+04 -3.307981E+03  3.156547E+02
       357  26 -5.279935E+05  1.019950E+04  5.545417E+03  1.370601E+04 -5.128130E+03 -1.923092E+03
       357  27 -4.854453E+05  2.026097E+04  1.228967E+04  2.396575E+04 -6.948592E+03 -4.142641E+03
       358   1 -6.916281E+05 -2.938773E+04 -3.615424E+04  2.219517E+04  4.653389E+03  5.478024E+03
       358   2 -7.328332E+05 -3.986500E+04 -5.181523E+04  1.374014E+04  1.230942E+04  7.656768E+03
       358   3 -7.770106E+05 -5.763876E+04 -7.432376E+04  2.564547E+04  1.996655E+04  9.431913E+03
       358   4 -5.697126E+05  5.608410E+02 -8.467947E+03  2.372485E+04  6.518190E+03  5.484137E+03
       358   5 -5.682574E+05  5.205669E+02 -1.456873E+04  1.355656E+04  1.385656E+04  7.661629E+03
       358   6 -5.697205E+05 -6.759774E+03 -2.729484E+04  2.374845E+04  2.119655E+04  9.435535E+03
       358   7 -4.477833E+05  3.050840E+04  1.921740E+04  2.525483E+04  8.383354E+03  5.490259E+03
       358   8 -4.036564E+05  4.090427E+04  2.267604E+04  1.337292E+04  1.540411E+04  7.666490E+03
       358   9 -3.623904E+05  4.411627E+04  1.973130E+04  2.185075E+04  2.242696E+04  9.439149E+03
       358  10 -6.916282E+05 -2.938777E+04 -3.615434E+04  2.219515E+04 -6.757403E-09  6.200239E-09
       358  11 -7.328334E+05 -3.986511E+04 -5.181562E+04  1.374006E+04 -9.216281E-10  3.281400E-09
       358  12 -7.770110E+05 -5.763897E+04 -7.432467E+04  2.564532E+04  5.278461E-09  4.969997E-09
       358  13 -5.697127E+05  5.607973E+02 -8.468083E+03  2.372482E+04 -1.634685E-09  3.442542E-09
       358  14 -5.682576E+05  5.204523E+02 -1.456920E+04  1.355648E+04 -5.547489E-10  6.734979E-09
       358  15 -5.697210E+05 -6.759990E+03 -2.729585E+04  2.374829E+04 -6.454135E-10 -1.130480E-09
       358  16 -4.477834E+05  3.050835E+04  1.921721E+04  2.525479E+04  5.726809E-09  2.946930E-09
       358  17 -4.036567E+05  4.090415E+04  2.267548E+04  1.337283E+04  1.093097E-09 -1.097249E-09
       358  18 -3.623909E+05  4.411604E+04  1.973019E+04  2.185058E+04 -5.225179E-09 -7.684120E-09
       358  19 -6.916281E+05 -2.938773E+04 -3.615424E+04  2.219517E+04 -4.653389E+03 -5.478024E+03
       358  20 -7.328332E+05 -3.986500E+04 -5.181523E+04  1.374014E+04 -1.230942E+04 -7.656768E+03
       358  21 -7.770106E+05 -5.763876E+04 -7.432376E+04  2.564547E+04 -1.996655E+04 -9.431913E+03
       358  22 -5.697126E+05  5.608410E+02 -8.467947E+03  2.372485E+04 -6.518190E+03 -5.484137E+03
       358  23 -5.682574E+05  5.205669E+02 -1.456873E+04  1.355656E+04 -1.385656E+04 -7.661629E+03
       358  24 -5.697205E+05 -6.759774E+03 -2.729484E+04  2.374845E+04 -2.119655E+04 -9.435535E+03
       358  25 -4.477833E+05  3.050840E+04  1.921740E+04  2.525483E+04 -8.383354E+03 -5.490259E+03
       358  26 -4.036564E+05  4.090427E+04  2.267604E+04  1.337292E+04 -1.540411E+04 -7.666490E+03
       358  27 -3.623904E+05  4.411627E+04  1.973130E+04  2.185075E+04 -2.242696E+04 -9.439149E+03
       359   1 -8.213084E+05 -5.459188E+04 -8.949956E+04  7.672986E+03  2.227401E+04  1.165846E+04
       359   2 -8.479463E+05 -6.592203E+04 -1.226976E+05  2.805215E+04  5.951651E+04  1.231102E+04
       359   3 -9.067128E+05 -1.858590E+05 -2.073395E+05  6.853275E+04  9.678205E+04  4.285124E+03
       359   4 -5.759419E+05  5.724928E+03 -3.405940E+04  2.358654E+04  2.613925E+04  1.167081E+04
       359   5 -5.604984E+05  4.635400E+03 -5.705322E+04  1.369780E+04  5.652549E+04  1.230016E+04
       359   6 -5.759787E+05 -1.038451E+05 -1.267104E+05  2.391249E+04  8.693766E+04  4.249200E+03
       359   7 -3.305188E+05  6.603852E+04  2.137708E+04  3.950640E+04  3.000600E+04  1.168336E+04
       359   8 -2.729733E+05  7.518790E+04  8.585937E+03 -6.633147E+02  5.353309E+04  1.228943E+04
       359   9 -2.451401E+05 -2.183164E+04 -4.608770E+04 -2.073170E+04  7.708803E+04  4.214704E+03
       359  10 -8.213090E+05 -5.459216E+04 -8.950075E+04  7.672777E+03 -1.751001E-09  4.588172E-09
       359  11 -8.479501E+05 -6.592314E+04 -1.227046E+05  2.805156E+04 -1.068511E-09 -1.030421E-09
       359  12 -9.067228E+05 -1.858615E+05 -2.073571E+05  6.853242E+04  1.384093E-09  2.034328E-09
       359  13 -5.759427E+05  5.724599E+03 -3.406094E+04  2.358629E+04 -9.353871E-10  6.735117E-09
       359  14 -5.605019E+05  4.634379E+03 -5.705951E+04  1.369724E+04  1.485290E-09 -6.960836E-09
       359  15 -5.759868E+05 -1.038471E+05 -1.267246E+05  2.391219E+04 -8.723763E-10  4.739988E-09
       359  16 -3.305198E+05  6.603813E+04  2.137513E+04  3.950612E+04  7.974846E-10 -2.682239E-10
       359  17 -2.729764E+05  7.518697E+04  8.580265E+03 -6.638446E+02  2.526416E-11  3.068241E-10
       359  18 -2.451465E+05 -2.183325E+04 -4.609891E+04 -2.073196E+04 -7.791742E-10 -4.458368E-10
       359  19 -8.213084E+05 -5.459188E+04 -8.949956E+04  7.672986E+03 -2.227401E+04 -1.165846E+04
       359  20 -8.479463E+05 -6.592203E+04 -1.226976E+05  2.805215E+04 -5.951651E+04 -1.231102E+04
       359  21 -9.067128E+05 -1.858590E+05 -2.073395E+05  6.853275E+04 -9.678205E+04 -4.285124E+03
       359  22 -5.759419E+05  5.724928E+03 -3.405940E+04  2.358654E+04 -2.613925E+04 -1.167081E+04
       359  23 -5.604984E+05  4.635400E+03 -5.705322E+04  1.369780E+04 -5.652549E+04 -1.230016E+04
       359  24 -5.759787E+05 -1.038451E+05 -1.267104E+05  2.391249E+04 -8.693766E+04 -4.249200E+03
       359  25 -3.305188E+05  6.603852E+04  2.137708E+04  3.950640E+04 -3.000600E+04 -1.168336E+04
       359  26 -2.729733E+05  7.518790E+04  8.585937E+03 -6.633147E+02 -5.353309E+04 -1.228943E+04
       359  27 -2.451401E+05 -2.183164E+04 -4.608770E+04 -2.073170E+04 -7.708803E+04 -4.214704E+03
       360   1  5.138018E+05  2.570973E+06  5.433598E+05 -2.862663E+05  1.497985E+04  1.682438E+05
       360   2  2.515593E+05  2.192833E+06  3.359631E+05 -1.554169E+05  4.305451E+04  8.690640E+04
       360   3  1.655462E+05  1.868931E+06  2.253474E+05 -1.899137E+05  3.260117E+04  5.529773E+03
       360   4  1.640823E+05  1.164249E+06  2.002972E+05 -2.120631E+05  1.508424E+04  1.306195E+05
       360   5 -6.858909E+03  1.139930E+06  9.553488E+04 -1.295935E+05  4.308046E+04  7.999328E+04
       360   6 -6.714153E+03  1.164542E+06  6.641001E+04 -2.124581E+05  3.253220E+04  2.928029E+04
       360   7 -1.857622E+05 -2.406623E+05 -1.429012E+05 -1.380266E+05  1.517981E+04  9.307968E+04
       360   8 -2.653515E+05  8.805183E+04 -1.449652E+05 -1.038133E+05  4.310588E+04  7.309167E+04
       360   9 -1.790061E+05  4.606152E+05 -9.255669E+04 -2.349762E+05  3.246147E+04  5.300417E+04
       360  10  5.137940E+05  2.570942E+06  5.433064E+05 -2.862683E+05 -9.919636E-10  1.039974E-09
       360  11  2.515552E+05  2.192824E+06  3.359454E+05 -1.554199E+05 -7.988186E-10  1.085005E-09
       360  12  1.655450E+05  1.868931E+06  2.253453E+05 -1.899138E+05  1.418120E-09  3.163492E-09
       360  13  1.640774E+05  1.164231E+06  2.002648E+05 -2.120647E+05  3.698471E-10 -2.280771E-09
       360  14 -6.862618E+03  1.139922E+06  9.551939E+04 -1.295962E+05 -3.837982E-10  2.123668E-09
       360  15 -6.715521E+03  1.164541E+06  6.640641E+04 -2.124588E+05  8.909334E-10 -2.147271E-09
       360  16 -1.857648E+05 -2.406716E+05 -1.429179E+05 -1.380277E+05  3.621513E-10 -1.630976E-10
       360  17 -2.653549E+05  8.804560E+04 -1.449788E+05 -1.038158E+05 -1.937533E-10 -2.772001E-09
       360  18 -1.790080E+05  4.606119E+05 -9.256394E+04 -2.349776E+05 -1.289416E-09 -2.793087E-09
       360  19  5.138018E+05  2.570973E+06  5.433598E+05 -2.862663E+05 -1.497985E+04 -1.682438E+05
       360  20  2.515593E+05  2.192833E+06  3.359631E+05 -1.554169E+05 -4.305451E+04 -8.690640E+04
       360  21  1.655462E+05  1.868931E+06  2.253474E+05 -1.899137E+05 -3.260117E+04 -5.529773E+03
       360  22  1.640823E+05  1.164249E+06  2.002972E+05 -2.120631E+05 -1.508424E+04 -1.306195E+05
       360  23 -6.858909E+03  1.139930E+06  9.553488E+04 -1.295935E+05 -4.308046E+04 -7.999328E+04
       360  24 -6.714153E+03  1.164542E+06  6.641001E+04 -2.124581E+05 -3.253220E+04 -2.928029E+04
       360  25 -1.857622E+05 -2.406623E+05 -1.429012E+05 -1.380266E+05 -1.517981E+04 -9.307968E+04
       360  26 -2.653515E+05  8.805183E+04 -1.449652E+05 -1.038133E+05 -4.310588E+04 -7.309167E+04
       360  27 -1.790061E+05  4.606152E+05 -9.255669E+04 -2.349762E+05 -3.246147E+04 -5.300417E+04
       361   1  1.070952E+05  1.547194E+06  1.487375E+05 -2.198580E+05  1.768075E+04  6.316385E+03
       361   2  9.415407E+03  1.192965E+06  6.302457E+04 -1.291514E+05  1.998019E+03 -2.083738E+04
       361   3 -5.992752E+04  8.483135E+05  1.772977E+03 -2.047612E+05 -1.377693E+04 -4.797771E+04
       361   4  1.117727E+04  1.155832E+06  6.016675E+04 -2.125589E+05  1.764261E+04  1.878220E+04
       361   5 -8.332371E+02  1.151110E+06  5.357155E+04 -1.293958E+05  1.959454E+03 -8.294543E+03
       361   6  1.548870E+04  1.155836E+06  7.139332E+04 -2.125457E+05 -1.381573E+04 -3.537269E+04
       361   7 -8.475091E+04  7.646124E+05 -2.841328E+04 -2.052644E+05  1.760476E+04  3.124024E+04
       361   8 -1.108192E+04  1.109256E+06  4.411902E+04 -1.296402E+05  1.920877E+03  4.247453E+03
       361   9  9.089870E+04  1.463446E+06  1.410082E+05 -2.203339E+05 -1.385483E+04 -2.276148E+04
       361  10  1.070948E+05  1.547194E+06  1.487369E+05 -2.198581E+05  8.639208E-10  3.835753E-10
       361  11  9.415286E+03  1.192965E+06  6.302374E+04 -1.291513E+05  1.056563E-09  1.705778E-10
       361  12 -5.992834E+04  8.483110E+05  1.768299E+03 -2.047618E+05 -7.538103E-11  4.082196E-09
       361  13  1.117684E+04  1.155831E+06  6.016550E+04 -2.125592E+05  1.957861E-10 -3.261394E-09
       361  14 -8.332596E+02  1.151109E+06  5.357142E+04 -1.293958E+05  1.147950E-09  2.531958E-09
       361  15  1.548816E+04  1.155834E+06  7.139062E+04 -2.125461E+05  3.033777E-09 -2.623708E-09
       361  16 -8.475150E+04  7.646113E+05 -2.841569E+04 -2.052648E+05 -7.898691E-10  6.181816E-10
       361  17 -1.108193E+04  1.109255E+06  4.411898E+04 -1.296402E+05 -2.952797E-09 -3.010918E-09
       361  18  9.089836E+04  1.463445E+06  1.410069E+05 -2.203342E+05 -4.859643E-10 -3.227776E-09
       361  19  1.070952E+05  1.547194E+06  1.487375E+05 -2.198580E+05 -1.768075E+04 -6.316385E+03
       361  20  9.415407E+03  1.192965E+06  6.302457E+04 -1.291514E+05 -1.998019E+03  2.083738E+04
       361  21 -5.992752E+04  8.483135E+05  1.772977E+03 -2.047612E+05  1.377693E+04  4.797771E+04
       361  22  1.117727E+04  1.155832E+06  6.016675E+04 -2.125589E+05 -1.764261E+04 -1.878220E+04
       361  23 -8.332371E+02  1.151110E+06  5.357155E+04 -1.293958E+05 -1.959454E+03  8.294543E+03
       361  24  1.548870E+04  1.155836E+06  7.139332E+04 -2.125457E+05  1.381573E+04  3.537269E+04
       361  25 -8.475091E+04  7.646124E+05 -2.841328E+04 -2.052644E+05 -1.760476E+04 -3.124024E+04
       361  26 -1.108192E+04  1.109256E+06  4.411902E+04 -1.296402E+05 -1.920877E+03 -4.247453E+03
       361  27  9.089870E+04  1.463446E+06  1.410082E+05 -2.203339E+05  1.385483E+04  2.276148E+04
       362   1 -1.619059E+05  5.483417E+05 -5.723673E+04 -2.441848E+05 -2.840958E+04 -7.124381E+04
       362   2 -2.473955E+05  1.670106E+05 -9.397708E+04 -9.514260E+04 -3.940467E+04 -1.100133E+05
       362   3 -1.038371E+05 -1.523549E+05 -4.831806E+04 -1.113734E+05 -1.393737E+04 -1.486722E+05
       362   4 -1.020149E+04  1.168519E+06  8.284577E+04 -2.124787E+05 -2.848224E+04 -4.804646E+04
       362   5 -9.439935E+03  1.135002E+06  1.274201E+05 -1.295836E+05 -3.937945E+04 -1.157984E+05
       362   6  2.251827E+05  1.168209E+06  2.743873E+05 -2.119126E+05 -1.383137E+04 -1.834636E+05
       362   7  1.414808E+05  1.789057E+06  2.229062E+05 -1.807403E+05 -2.855249E+04 -2.482617E+04
       362   8  2.284548E+05  2.103864E+06  3.487567E+05 -1.640782E+05 -3.935362E+04 -1.215923E+05
       362   9  5.541117E+05  2.490385E+06  5.969752E+05 -3.126651E+05 -1.371425E+04 -2.183285E+05
       362  10 -1.619081E+05  5.483360E+05 -5.724779E+04 -2.441864E+05  9.368125E-10  6.331996E-10
       362  11 -2.474004E+05  1.669971E+05 -9.400274E+04 -9.514609E+04  1.128256E-10 -1.368183E-10
       362  12 -1.038433E+05 -1.523787E+05 -4.835997E+04 -1.113751E+05 -5.072913E-10  2.223080E-09
       362  13 -1.020298E+04  1.168517E+06  8.283992E+04 -2.124798E+05 -3.317582E-10 -2.959405E-09
       362  14 -9.445193E+03  1.134987E+06  1.273921E+05 -1.295873E+05  9.114079E-10  2.156130E-09
       362  15  2.251735E+05  1.168173E+06  2.743238E+05 -2.119147E+05 -8.224383E-10 -1.252526E-09
       362  16  1.414797E+05  1.789056E+06  2.229036E+05 -1.807409E+05  1.387302E-09 -6.279635E-11
       362  17  2.284492E+05  2.103847E+06  3.487261E+05 -1.640820E+05  4.875078E-10 -2.346528E-09
       362  18  5.540987E+05  2.490334E+06  5.968856E+05 -3.126675E+05 -7.804085E-10 -1.339471E-09
       362  19 -1.619059E+05  5.483417E+05 -5.723673E+04 -2.441848E+05  2.840958E+04  7.124381E+04
       362  20 -2.473955E+05  1.670106E+05 -9.397708E+04 -9.514260E+04  3.940467E+04  1.100133E+05
       362  21 -1.038371E+05 -1.523549E+05 -4.831806E+04 -1.113734E+05  1.393737E+04  1.486722E+05
       362  22 -1.020149E+04  1.168519E+06  8.284577E+04 -2.124787E+05  2.848224E+04  4.804646E+04
       362  23 -9.439935E+03  1.135002E+06  1.274201E+05 -1.295836E+05  3.937945E+04  1.157984E+05
       362  24  2.251827E+05  1.168209E+06  2.743873E+05 -2.119126E+05  1.383137E+04  1.834636E+05
       362  25  1.414808E+05  1.789057E+06  2.229062E+05 -1.807403E+05  2.855249E+04  2.482617E+04
       362  26  2.284548E+05  2.103864E+06  3.487567E+05 -1.640782E+05  3.935362E+04  1.215923E+05
       362  27  5.541117E+05  2.490385E+06  5.969752E+05 -3.126651E+05  1.371425E+04  2.183285E+05
       363   1  4.744842E+05  1.604221E+05  9.059670E+04  1.452634E+05 -1.535682E+04 -1.408821E+04
       363   2  4.455117E+05  1.885077E+05  1.027515E+05  1.234610E+05 -7.960607E+03 -2.879760E+04
       363   3  3.870393E+05  1.885733E+05  1.022514E+05  1.285218E+05 -6.203083E+03 -2.855384E+04
       363   4 -8.020796E+04 -3.185804E+04 -5.492130E+04  1.096543E+04 -3.224964E+04 -2.045925E+04
       363   5 -6.138180E+04  4.077837E+03 -2.353863E+04 -1.031870E+04 -1.376576E+04 -3.098979E+04
       363   6 -7.426906E+04  9.777520E+03 -1.360803E+04 -4.734720E+03 -9.224249E+02 -2.656131E+04
       363   7 -6.345953E+05 -2.241280E+05 -2.004614E+05 -1.232276E+05 -4.912558E+04 -2.682509E+04
       363   8 -5.680198E+05 -1.803369E+05 -1.498475E+05 -1.439999E+05 -1.956568E+04 -3.318014E+04
       363   9 -5.353676E+05 -1.689995E+05 -1.294840E+05 -1.378997E+05  4.353947E+03 -2.457053E+04
       363  10  4.744839E+05  1.604218E+05  9.059588E+04  1.452633E+05  4.555832E-10 -1.602287E-09
       363  11  4.455114E+05  1.885068E+05  1.027499E+05  1.234608E+05  4.994382E-10 -5.644559E-10
       363  12  3.870390E+05  1.885724E+05  1.022498E+05  1.285216E+05  1.903967E-09 -8.100723E-10
       363  13 -8.020919E+04 -3.185877E+04 -5.492404E+04  1.096489E+04  7.742920E-10  2.060936E-09
       363  14 -6.138226E+04  4.076755E+03 -2.354079E+04 -1.031904E+04 -6.456471E-10 -1.130920E-09
       363  15 -7.426925E+04  9.776762E+03 -1.360936E+04 -4.734740E+03 -1.352177E-09 -1.913419E-09
       363  16 -6.345981E+05 -2.241294E+05 -2.004673E+05 -1.232287E+05 -7.826752E-10  3.869808E-10
       363  17 -5.680205E+05 -1.803382E+05 -1.498503E+05 -1.440004E+05 -2.190824E-10 -8.718739E-10
       363  18 -5.353678E+05 -1.690001E+05 -1.294852E+05 -1.378996E+05 -2.559790E-09 -1.317831E-09
       363  19  4.744842E+05  1.604221E+05  9.059670E+04  1.452634E+05  1.535682E+04  1.408821E+04
       363  20  4.455117E+05  1.885077E+05  1.027515E+05  1.234610E+05  7.960607E+03  2.879760E+04
       363  21  3.870393E+05  1.885733E+05  1.022514E+05  1.285218E+05  6.203083E+03  2.855384E+04
       363  22 -8.020796E+04 -3.185804E+04 -5.492130E+04  1.096543E+04  3.224964E+04  2.045925E+04
       363  23 -6.138180E+04  4.077837E+03 -2.353863E+04 -1.031870E+04  1.376576E+04  3.098979E+04
       363  24 -7.426906E+04  9.777520E+03 -1.360803E+04 -4.734720E+03  9.224249E+02  2.656131E+04
       363  25 -6.345953E+05 -2.241280E+05 -2.004614E+05 -1.232276E+05  4.912558E+04  2.682509E+04
       363  26 -5.680198E+05 -1.803369E+05 -1.498475E+05 -1.439999E+05  1.956568E+04  3.318014E+04
       363  27 -5.353676E+05 -1.689995E+05 -1.294840E+05 -1.378997E+05 -4.353947E+03  2.457053E+04
       364   1  3.579793E+05  1.656119E+05  9.670743E+04  1.157321E+05 -8.845761E+02 -2.320358E+04
       364   2  3.273605E+05  1.479881E+05  9.227698E+04  9.698245E+04  9.186927E+02 -2.111169E+04
       364   3  2.812408E+05  1.413200E+05  8.532079E+04  9.500573E+04  2.446183E+03 -1.829387E+04
       364   4 -7.263001E+04  5.227919E+03 -1.088130E+04 -1.812252E+03 -2.336004E+02 -2.295894E+04
       364   5 -6.460405E+04  1.324931E+03 -5.496154E+03 -1.077195E+04  2.106601E+03 -2.066382E+04
       364   6 -7.218766E+04  8.270390E+03 -3.063734E+03 -2.958327E+03  4.171093E+03 -1.764249E+04
       364   7 -5.030596E+05 -1.551449E+05 -1.184851E+05 -1.192836E+05  4.168868E+02 -2.271449E+04
       364   8 -4.564188E+05 -1.453283E+05 -1.032816E+05 -1.184650E+05  3.293693E+03 -2.021626E+04
       364   9 -4.254937E+05 -1.247705E+05 -9.145808E+04 -1.008718E+05  5.894930E+03 -1.699151E+04
       364  10  3.579792E+05  1.656113E+05  9.670642E+04  1.157321E+05 -8.297592E-10  2.483871E-09
       364  11  3.273604E+05  1.479877E+05  9.227614E+04  9.698246E+04 -3.375906E-09  5.232256E-09
       364  12  2.812407E+05  1.413197E+05  8.532015E+04  9.500576E+04 -5.863029E-10 -4.877263E-10
       364  13 -7.263015E+04  5.227353E+03 -1.088229E+04 -1.812257E+03 -6.103958E-10 -5.770314E-10
       364  14 -6.460417E+04  1.324471E+03 -5.496965E+03 -1.077191E+04  3.658950E-09 -1.118728E-08
       364  15 -7.218776E+04  8.270051E+03 -3.064351E+03 -2.958267E+03  9.618516E-10  3.038295E-09
       364  16 -5.030598E+05 -1.551454E+05 -1.184861E+05 -1.192836E+05  2.376583E-11 -1.927625E-09
       364  17 -4.564190E+05 -1.453287E+05 -1.032823E+05 -1.184649E+05  1.174379E-09  3.032926E-09
       364  18 -4.254938E+05 -1.247708E+05 -9.145868E+04 -1.008717E+05  4.905787E-09  4.250447E-09
       364  19  3.579793E+05  1.656119E+05  9.670743E+04  1.157321E+05  8.845761E+02  2.320358E+04
       364  20  3.273605E+05  1.479881E+05  9.227698E+04  9.698245E+04 -9.186927E+02  2.111169E+04
       364  21  2.812408E+05  1.413200E+05  8.532079E+04  9.500573E+04 -2.446183E+03  1.829387E+04
       364  22 -7.263001E+04  5.227919E+03 -1.088130E+04 -1.812252E+03  2.336004E+02  2.295894E+04
       364  23 -6.460405E+04  1.324931E+03 -5.496154E+03 -1.077195E+04 -2.106601E+03  2.066382E+04
       364  24 -7.218766E+04  8.270390E+03 -3.063734E+03 -2.958327E+03 -4.171093E+03  1.764249E+04
       364  25 -5.030596E+05 -1.551449E+05 -1.184851E+05 -1.192836E+05 -4.168868E+02  2.271449E+04
       364  26 -4.564188E+05 -1.453283E+05 -1.032816E+05 -1.184650E+05 -3.293693E+03  2.021626E+04
       364  27 -4.254937E+05 -1.247705E+05 -9.145808E+04 -1.008718E+05 -5.894930E+03  1.699151E+04
       365   1  2.461425E+05  1.272417E+05  7.692587E+04  8.500890E+04  2.613098E+03 -1.675214E+04
       365   2  2.152343E+05  1.062043E+05  6.864939E+04  6.648046E+04  2.441570E+03 -1.448530E+04
       365   3  1.700486E+05  9.908573E+04  5.987391E+04  6.402908E+04  2.255443E+03 -1.218289E+04
       365   4 -7.203018E+04  7.952932E+03 -2.342981E+03 -2.733014E+03  4.113919E+03 -1.618520E+04
       365   5 -6.486772E+04  1.112208E+03 -1.248394E+03 -1.081417E+04  3.968579E+03 -1.390808E+04
       365   6 -7.199020E+04  8.185632E+03 -6.738279E+02 -2.818109E+03  3.808675E+03 -1.159535E+04
       365   7 -3.901022E+05 -1.113284E+05 -8.161935E+04 -9.043380E+04  5.613894E+03 -1.561858E+04
       365   8 -3.448928E+05 -1.039745E+05 -7.115231E+04 -8.807719E+04  5.494836E+03 -1.333115E+04
       365   9 -3.139725E+05 -8.271082E+04 -6.122645E+04 -6.964195E+04  5.361252E+03 -1.100807E+04
       365  10  2.461425E+05  1.272414E+05  7.692533E+04  8.500893E+04  7.663531E-11  6.355060E-09
       365  11  2.152343E+05  1.062040E+05  6.864899E+04  6.648049E+04 -2.684886E-09  6.603963E-09
       365  12  1.700485E+05  9.908557E+04  5.987362E+04  6.402910E+04 -2.023107E-09  2.769471E-09
       365  13 -7.203027E+04  7.952646E+03 -2.343505E+03 -2.732961E+03  1.842568E-09  4.203654E-09
       365  14 -6.486779E+04  1.111996E+03 -1.248787E+03 -1.081413E+04  2.488517E-09 -3.970888E-09
       365  15 -7.199025E+04  8.185484E+03 -6.741078E+02 -2.818073E+03 -9.530784E-10  3.814155E-09
       365  16 -3.901023E+05 -1.113287E+05 -8.161987E+04 -9.043373E+04  3.677020E-09  4.972055E-09
       365  17 -3.448929E+05 -1.039747E+05 -7.115270E+04 -8.807713E+04 -1.244333E-09  6.662193E-10
       365  18 -3.139726E+05 -8.271096E+04 -6.122673E+04 -6.964191E+04 -6.302617E-10 -1.527723E-09
       365  19  2.461425E+05  1.272417E+05  7.692587E+04  8.500890E+04 -2.613098E+03  1.675214E+04
       365  20  2.152343E+05  1.062043E+05  6.864939E+04  6.648046E+04 -2.441570E+03  1.448530E+04
       365  21  1.700486E+05  9.908573E+04  5.987391E+04  6.402908E+04 -2.255443E+03  1.218289E+04
       365  22 -7.203018E+04  7.952932E+03 -2.342981E+03 -2.733014E+03 -4.113919E+03  1.618520E+04
       365  23 -6.486772E+04  1.112208E+03 -1.248394E+03 -1.081417E+04 -3.968579E+03  1.390808E+04
       365  24 -7.199020E+04  8.185632E+03 -6.738279E+02 -2.818109E+03 -3.808675E+03  1.159535E+04
       365  25 -3.901022E+05 -1.113284E+05 -8.161935E+04 -9.043380E+04 -5.613894E+03  1.561858E+04
       365  26 -3.448928E+05 -1.039745E+05 -7.115231E+04 -8.807719E+04 -5.494836E+03  1.333115E+04
       365  27 -3.139725E+05 -8.271082E+04 -6.122645E+04 -6.964195E+04 -5.361252E+03  1.100807E+04
       366   1  1.344499E+05  8.562793E+04  5.088339E+04  5.420685E+04  1.902023E+03 -1.092670E+04
       366   2  1.034958E+05  6.431405E+04  4.178357E+04  3.567648E+04  1.233545E+03 -8.800934E+03
       366   3  5.835976E+04  5.715739E+04  3.259367E+04  3.318460E+04  5.636989E+02 -6.673271E+03
       366   4 -7.197431E+04  8.168002E+03 -4.987226E+02 -2.798092E+03  3.444691E+03 -1.034297E+04
       366   5 -6.487849E+04  1.103493E+03 -2.414982E+02 -1.082159E+04  2.777609E+03 -8.216451E+03
       366   6 -7.196676E+04  8.195863E+03 -7.554663E+01 -2.807072E+03  2.109165E+03 -6.088026E+03
       366   7 -2.783566E+05 -6.928897E+04 -5.188414E+04 -5.978584E+04  4.986797E+03 -9.759455E+03
       366   8 -2.332246E+05 -6.210496E+04 -4.226867E+04 -5.730813E+04  4.321211E+03 -7.632142E+03
       366   9 -2.022760E+05 -4.076428E+04 -3.274593E+04 -3.879174E+04  3.654270E+03 -5.502918E+03
       366  10  1.344499E+05  8.562780E+04  5.088316E+04  5.420687E+04  7.622112E-10  8.403190E-09
       366  11  1.034958E+05  6.431396E+04  4.178342E+04  3.567649E+04 -1.094075E-11  4.156595E-09
       366  12  5.835974E+04  5.715734E+04  3.259358E+04  3.318461E+04 -2.597320E-09  4.924484E-09
       366  13 -7.197435E+04  8.167883E+03 -4.989459E+02 -2.798063E+03 -2.204808E-09  3.366466E-09
       366  14 -6.487851E+04  1.103418E+03 -2.416396E+02 -1.082157E+04  3.605704E-10 -1.998571E-09
       366  15 -7.196677E+04  8.195822E+03 -7.562464E+01 -2.807061E+03 -2.641224E-09 -3.436271E-10
       366  16 -2.783567E+05 -6.928908E+04 -5.188437E+04 -5.978580E+04 -4.993094E-10  5.212264E-09
       366  17 -2.332246E+05 -6.210503E+04 -4.226881E+04 -5.730810E+04 -2.148487E-09 -6.958713E-09
       366  18 -2.022761E+05 -4.076431E+04 -3.274601E+04 -3.879172E+04 -1.546546E-10 -3.450477E-09
       366  19  1.344499E+05  8.562793E+04  5.088339E+04  5.420685E+04 -1.902023E+03  1.092670E+04
       366  20  1.034958E+05  6.431405E+04  4.178357E+04  3.567648E+04 -1.233545E+03  8.800934E+03
       366  21  5.835976E+04  5.715739E+04  3.259367E+04  3.318460E+04 -5.636989E+02  6.673271E+03
       366  22 -7.197431E+04  8.168002E+03 -4.987226E+02 -2.798092E+03 -3.444691E+03  1.034297E+04
       366  23 -6.487849E+04  1.103493E+03 -2.414982E+02 -1.082159E+04 -2.777609E+03  8.216451E+03
       366  24 -7.196676E+04  8.195863E+03 -7.554663E+01 -2.807072E+03 -2.109165E+03  6.088026E+03
       366  25 -2.783566E+05 -6.928897E+04 -5.188414E+04 -5.978584E+04 -4.986797E+03  9.759455E+03
       366  26 -2.332246E+05 -6.210496E+04 -4.226867E+04 -5.730813E+04 -4.321211E+03  7.632142E+03
       366  27 -2.022760E+05 -4.076428E+04 -3.274593E+04 -3.879174E+04 -3.654270E+03  5.502918E+03
       367   1  2.271124E+04  4.372696E+04  2.348480E+04  2.336272E+04  1.114342E+02 -5.457758E+03
       367   2 -8.253776E+03  2.237298E+04  1.426500E+04  4.821756E+03 -7.417135E+02 -3.398616E+03
       367   3 -5.339064E+04  1.521481E+04  5.095183E+03  2.321383E+03 -1.594739E+03 -1.340345E+03
       367   4 -7.196304E+04  8.196443E+03 -1.038517E+01 -2.802449E+03  1.656786E+03 -4.872457E+03
       367   5 -6.487531E+04  1.105056E+03  1.298417E+02 -1.082493E+04  8.029889E+02 -2.813484E+03
       367   6 -7.196006E+04  8.209877E+03  3.208350E+02 -2.807075E+03 -5.069185E+01 -7.553779E+02
       367   7 -1.666289E+05 -2.733361E+04 -2.350637E+04 -2.896411E+04  3.201887E+03 -4.287251E+03
       367   8 -1.214938E+05 -2.016270E+04 -1.400559E+04 -2.647035E+04  2.347541E+03 -2.228409E+03
       367   9 -9.052914E+04  1.204963E+03 -4.453532E+03 -7.935394E+03  1.493305E+03 -1.704304E+02
       367  10  2.271123E+04  4.372693E+04  2.348474E+04  2.336272E+04  1.315518E-09 -1.491390E-09
       367  11 -8.253780E+03  2.237297E+04  1.426498E+04  4.821754E+03  7.135827E-10 -3.813726E-09
       367  12 -5.339064E+04  1.521481E+04  5.095175E+03  2.321382E+03  2.236499E-09 -7.408639E-09
       367  13 -7.196305E+04  8.196416E+03 -1.043494E+01 -2.802442E+03 -2.829269E-10  7.505124E-10
       367  14 -6.487531E+04  1.105048E+03  1.298256E+02 -1.082492E+04 -1.603227E-09  4.841203E-09
       367  15 -7.196006E+04  8.209876E+03  3.208339E+02 -2.807075E+03  4.930313E-10  3.602407E-10
       367  16 -1.666290E+05 -2.733363E+04 -2.350642E+04 -2.896410E+04 -2.041560E-09  2.552097E-09
       367  17 -1.214938E+05 -2.016270E+04 -1.400561E+04 -2.647034E+04  2.204678E-09  9.415514E-10
       367  18 -9.052915E+04  1.204962E+03 -4.453536E+03 -7.935394E+03  1.482493E-09 -7.402634E-09
       367  19  2.271124E+04  4.372696E+04  2.348480E+04  2.336272E+04 -1.114342E+02  5.457758E+03
       367  20 -8.253776E+03  2.237298E+04  1.426500E+04  4.821756E+03  7.417135E+02  3.398616E+03
       367  21 -5.339064E+04  1.521481E+04  5.095183E+03  2.321383E+03  1.594739E+03  1.340345E+03
       367  22 -7.196304E+04  8.196443E+03 -1.038517E+01 -2.802449E+03 -1.656786E+03  4.872457E+03
       367  23 -6.487531E+04  1.105056E+03  1.298417E+02 -1.082493E+04 -8.029889E+02  2.813484E+03
       367  24 -7.196006E+04  8.209877E+03  3.208350E+02 -2.807075E+03  5.069185E+01  7.553779E+02
       367  25 -1.666289E+05 -2.733361E+04 -2.350637E+04 -2.896411E+04 -3.201887E+03  4.287251E+03
       367  26 -1.214938E+05 -2.016270E+04 -1.400559E+04 -2.647035E+04 -2.347541E+03  2.228409E+03
       367  27 -9.052914E+04  1.204963E+03 -4.453532E+03 -7.935394E+03 -1.493305E+03  1.704304E+02
       368   1 -8.904577E+04  1.784657E+03 -3.954409E+03 -7.474454E+03 -2.124677E+03 -1.514449E+02
       368   2 -1.200338E+05 -1.960506E+04 -1.292412E+04 -2.604483E+04 -3.317450E+03  1.775767E+03
       368   3 -1.650898E+05 -2.664425E+04 -2.154899E+04 -2.859893E+04 -4.501946E+03  3.681876E+03
       368   4 -7.194324E+04  8.196730E+03  4.463172E+02 -2.794328E+03 -5.742127E+02  4.359522E+02
       368   5 -6.490114E+04  1.087348E+03  8.384726E+02 -1.082789E+04 -1.782757E+03  2.357108E+03
       368   6 -7.192520E+04  8.331370E+03  1.588022E+03 -2.845910E+03 -2.983057E+03  4.257161E+03
       368   7 -5.484048E+04  1.460880E+04  4.847009E+03  1.885895E+03  9.762922E+02  1.023364E+03
       368   8 -9.765499E+03  2.177997E+04  1.460083E+04  4.390269E+03 -2.479142E+02  2.938505E+03
       368   9  2.124832E+04  4.330775E+04  2.472448E+04  2.291072E+04 -1.463912E+03  4.832543E+03
       368  10 -8.904577E+04  1.784656E+03 -3.954417E+03 -7.474454E+03 -4.618183E-09 -2.176941E-09
       368  11 -1.200338E+05 -1.960507E+04 -1.292414E+04 -2.604482E+04  6.378254E-10  5.559450E-09
       368  12 -1.650898E+05 -2.664427E+04 -2.154905E+04 -2.859891E+04  4.713458E-09  5.611961E-10
       368  13 -7.194324E+04  8.196729E+03  4.463162E+02 -2.794328E+03 -2.559872E-10 -3.353377E-09
       368  14 -6.490115E+04  1.087341E+03  8.384562E+02 -1.082789E+04 -2.370830E-09  4.849964E-09
       368  15 -7.192522E+04  8.331348E+03  1.587971E+03 -2.845900E+03  8.772069E-10 -1.718321E-09
       368  16 -5.484049E+04  1.460879E+04  4.847006E+03  1.885894E+03  7.266996E-09 -5.613992E-09
       368  17 -9.765502E+03  2.177996E+04  1.460082E+04  4.390269E+03 -1.683824E-09 -2.843805E-09
       368  18  2.124831E+04  4.330773E+04  2.472443E+04  2.291073E+04 -6.210465E-09 -1.653258E-09
       368  19 -8.904577E+04  1.784657E+03 -3.954409E+03 -7.474454E+03  2.124677E+03  1.514449E+02
       368  20 -1.200338E+05 -1.960506E+04 -1.292412E+04 -2.604483E+04  3.317450E+03 -1.775767E+03
       368  21 -1.650898E+05 -2.664425E+04 -2.154899E+04 -2.859893E+04  4.501946E+03 -3.681876E+03
       368  22 -7.194324E+04  8.196730E+03  4.463172E+02 -2.794328E+03  5.742127E+02 -4.359522E+02
       368  23 -6.490114E+04  1.087348E+03  8.384726E+02 -1.082789E+04  1.782757E+03 -2.357108E+03
       368  24 -7.192520E+04  8.331370E+03  1.588022E+03 -2.845910E+03  2.983057E+03 -4.257161E+03
       368  25 -5.484048E+04  1.460880E+04  4.847009E+03  1.885895E+03 -9.762922E+02 -1.023364E+03
       368  26 -9.765499E+03  2.177997E+04  1.460083E+04  4.390269E+03  2.479142E+02 -2.938505E+03
       368  27  2.124832E+04  4.330775E+04  2.472448E+04  2.291072E+04  1.463912E+03 -4.832543E+03
       369   1 -2.008740E+05 -4.003820E+04 -3.020381E+04 -3.798918E+04 -5.407648E+03  4.782443E+03
       369   2 -2.318372E+05 -6.184578E+04 -3.795044E+04 -5.705195E+04 -7.749263E+03  6.197071E+03
       369   3 -2.759247E+05 -6.731734E+04 -4.392731E+04 -6.059290E+04 -9.925865E+03  7.177939E+03
       369   4 -7.180125E+04  8.108419E+03  2.082525E+03 -2.700152E+03 -3.754823E+03  5.408365E+03
       369   5 -6.512634E+04  9.227093E+02  3.724904E+03 -1.084518E+04 -6.418669E+03  6.700728E+03
       369   6 -7.151374E+04  1.013604E+04  7.392229E+03 -3.469286E+03 -8.917626E+03  7.559355E+03
       369   7  5.728785E+04  5.625612E+04  3.436756E+04  3.259550E+04 -2.101621E+03  6.034427E+03
       369   8  1.016114E+05  6.369301E+04  4.539797E+04  3.537277E+04 -5.087688E+03  7.204533E+03
       369   9  1.329374E+05  8.759214E+04  5.870822E+04  5.367122E+04 -7.909027E+03  7.940910E+03
       369  10 -2.008741E+05 -4.003823E+04 -3.020391E+04 -3.798916E+04  3.406406E-09  5.153308E-09
       369  11 -2.318372E+05 -6.184584E+04 -3.795062E+04 -5.705191E+04 -2.643835E-09  3.614636E-09
       369  12 -2.759249E+05 -6.731742E+04 -4.392759E+04 -6.059285E+04 -6.699593E-09 -7.093091E-09
       369  13 -7.180127E+04  8.108384E+03  2.082444E+03 -2.700135E+03 -1.066793E-09  1.774554E-09
       369  14 -6.512639E+04  9.226500E+02  3.724743E+03 -1.084514E+04 -3.165713E-09  3.722193E-09
       369  15 -7.151384E+04  1.013596E+04  7.391972E+03 -3.469231E+03 -3.913501E-09 -3.711060E-09
       369  16  5.728784E+04  5.625608E+04  3.436748E+04  3.259551E+04 -1.038765E-09 -5.911357E-09
       369  17  1.016114E+05  6.369295E+04  4.539782E+04  3.537280E+04  3.887607E-09  4.084109E-09
       369  18  1.329373E+05  8.759206E+04  5.870798E+04  5.367127E+04  5.920123E-09  8.715928E-09
       369  19 -2.008740E+05 -4.003820E+04 -3.020381E+04 -3.798918E+04  5.407648E+03 -4.782443E+03
       369  20 -2.318372E+05 -6.184578E+04 -3.795044E+04 -5.705195E+04  7.749263E+03 -6.197071E+03
       369  21 -2.759247E+05 -6.731734E+04 -4.392731E+04 -6.059290E+04  9.925865E+03 -7.177939E+03
       369  22 -7.180125E+04  8.108419E+03  2.082525E+03 -2.700152E+03  3.754823E+03 -5.408365E+03
       369  23 -6.512634E+04  9.227093E+02  3.724904E+03 -1.084518E+04  6.418669E+03 -6.700728E+03
       369  24 -7.151374E+04  1.013604E+04  7.392229E+03 -3.469286E+03  8.917626E+03 -7.559355E+03
       369  25  5.728785E+04  5.625612E+04  3.436756E+04  3.259550E+04  2.101621E+03 -6.034427E+03
       369  26  1.016114E+05  6.369301E+04  4.539797E+04  3.537277E+04  5.087688E+03 -7.204533E+03
       369  27  1.329374E+05  8.759214E+04  5.870822E+04  5.367122E+04  7.909027E+03 -7.940910E+03
       370   1 -3.139380E+05 -8.040657E+04 -5.071436E+04 -6.466519E+04 -1.475965E+04  7.907982E+03
       370   2 -3.430149E+05 -1.080597E+05 -5.400627E+04 -9.078694E+04 -1.698038E+04  7.780032E+03
       370   3 -3.748514E+05 -9.323358E+04 -4.793644E+04 -1.088715E+05 -1.581760E+04 -1.292813E+03
       370   4 -7.026973E+04  6.920420E+03  9.249138E+03 -1.614835E+03 -1.098487E+04  9.336487E+03
       370   5 -6.752444E+04 -8.422611E+02  1.597441E+04 -1.098030E+04 -1.983866E+04  6.697961E+03
       370   6 -6.622894E+04  3.518132E+04  3.731885E+04 -1.230772E+04 -2.531001E+04 -4.883644E+03
       370   7  1.734583E+05  9.425075E+04  6.920860E+04  6.145781E+04 -7.208451E+03  1.076555E+04
       370   8  2.080402E+05  1.063817E+05  8.594890E+04  6.885894E+04 -2.269832E+04  5.615323E+03
       370   9  2.424833E+05  1.636066E+05  1.225650E+05  8.430056E+04 -3.480753E+04 -8.476854E+03
       370  10 -3.139382E+05 -8.040669E+04 -5.071489E+04 -6.466509E+04 -7.395590E-09 -9.418957E-10
       370  11 -3.430152E+05 -1.080598E+05 -5.400693E+04 -9.078684E+04 -4.735787E-09  3.333317E-09
       370  12 -3.748517E+05 -9.323365E+04 -4.793691E+04 -1.088715E+05  4.605673E-09  9.168656E-09
       370  13 -7.026988E+04  6.920294E+03  9.248748E+03 -1.614752E+03  1.298158E-09  3.115856E-09
       370  14 -6.752488E+04 -8.424149E+02  1.597359E+04 -1.098019E+04  5.694628E-10 -6.683168E-09
       370  15 -6.622963E+04  3.518112E+04  3.731760E+04 -1.230782E+04 -5.846209E-10  4.393250E-09
       370  16  1.734582E+05  9.425061E+04  6.920829E+04  6.145787E+04  4.329206E-09  1.195141E-08
       370  17  2.080396E+05  1.063816E+05  8.594787E+04  6.885905E+04 -6.136437E-09  1.084522E-08
       370  18  2.424820E+05  1.636062E+05  1.225625E+05  8.430033E+04 -7.260545E-09 -4.143427E-09
       370  19 -3.139380E+05 -8.040657E+04 -5.071436E+04 -6.466519E+04  1.475965E+04 -7.907982E+03
       370  20 -3.430149E+05 -1.080597E+05 -5.400627E+04 -9.078694E+04  1.698038E+04 -7.780032E+03
       370  21 -3.748514E+05 -9.323358E+04 -4.793644E+04 -1.088715E+05  1.581760E+04  1.292813E+03
       370  22 -7.026973E+04  6.920420E+03  9.249138E+03 -1.614835E+03  1.098487E+04 -9.336487E+03
       370  23 -6.752444E+04 -8.422611E+02  1.597441E+04 -1.098030E+04  1.983866E+04 -6.697961E+03
       370  24 -6.622894E+04  3.518132E+04  3.731885E+04 -1.230772E+04  2.531001E+04  4.883644E+03
       370  25  1.734583E+05  9.425075E+04  6.920860E+04  6.145781E+04  7.208451E+03 -1.076555E+04
       370  26  2.080402E+05  1.063817E+05  8.594890E+04  6.885894E+04  2.269832E+04 -5.615323E+03
       370  27  2.424833E+05  1.636066E+05  1.225650E+05  8.430056E+04  3.480753E+04  8.476854E+03
       371   1  1.027568E+05  4.557914E+04  2.966305E+04 -5.021646E+03 -3.895849E+04 -5.546698E+03
       371   2  7.379956E+04  1.003528E+05  5.622790E+04  4.424253E+03 -2.946580E+04 -1.696276E+04
       371   3  2.777025E+04  9.198089E+04  6.084040E+04  3.132091E+04 -2.000666E+04 -1.716084E+04
       371   4 -3.329165E+05 -6.259824E+04 -7.642720E+04  2.138960E+04 -5.244002E+04 -5.588064E+03
       371   5 -3.235935E+05  2.798385E+03 -3.442049E+04  1.256392E+04 -3.407257E+04 -1.697808E+04
       371   6 -3.328977E+05  3.485010E+03 -2.054205E+04  2.119032E+04 -1.573778E+04 -1.714747E+04
       371   7 -7.684147E+05 -1.707868E+05 -1.825301E+05  4.778214E+04 -6.591210E+04 -5.630591E+03
       371   8 -7.208399E+05 -9.476672E+04 -1.250791E+05  2.069822E+04 -3.867641E+04 -1.699353E+04
       371   9 -6.934444E+05 -8.501943E+04 -1.019327E+05  1.106557E+04 -1.147136E+04 -1.713424E+04
       371  10  1.027551E+05  4.557870E+04  2.966014E+04 -5.021820E+03 -7.096007E-09  7.405709E-10
       371  11  7.379855E+04  1.003523E+05  5.622573E+04  4.423851E+03  3.890343E-09  8.859199E-09
       371  12  2.776974E+04  9.198046E+04  6.083909E+04  3.132064E+04  1.377257E-08  6.635334E-09
       371  13 -3.329195E+05 -6.259901E+04 -7.643243E+04  2.138936E+04  7.706535E-10 -5.228946E-09
       371  14 -3.235948E+05  2.797763E+03 -3.442322E+04  1.256345E+04 -2.277627E-10 -8.095637E-09
       371  15 -3.328980E+05  3.484628E+03 -2.054306E+04  2.119010E+04 -6.137208E-10  7.418599E-09
       371  16 -7.684194E+05 -1.707880E+05 -1.825384E+05  4.778184E+04  5.475740E-09  1.914225E-09
       371  17 -7.208416E+05 -9.476743E+04 -1.250824E+05  2.069769E+04 -5.715105E-09  6.877770E-09
       371  18 -6.934446E+05 -8.501978E+04 -1.019335E+05  1.106542E+04 -1.435549E-08  2.415419E-09
       371  19  1.027568E+05  4.557914E+04  2.966305E+04 -5.021646E+03  3.895849E+04  5.546698E+03
       371  20  7.379956E+04  1.003528E+05  5.622790E+04  4.424253E+03  2.946580E+04  1.696276E+04
       371  21  2.777025E+04  9.198089E+04  6.084040E+04  3.132091E+04  2.000666E+04  1.716084E+04
       371  22 -3.329165E+05 -6.259824E+04 -7.642720E+04  2.138960E+04  5.244002E+04  5.588064E+03
       371  23 -3.235935E+05  2.798385E+03 -3.442049E+04  1.256392E+04  3.407257E+04  1.697808E+04
       371  24 -3.328977E+05  3.485010E+03 -2.054205E+04  2.119032E+04  1.573778E+04  1.714747E+04
       371  25 -7.684147E+05 -1.707868E+05 -1.825301E+05  4.778214E+04  6.591210E+04  5.630591E+03
       371  26 -7.208399E+05 -9.476672E+04 -1.250791E+05  2.069822E+04  3.867641E+04  1.699353E+04
       371  27 -6.934444E+05 -8.501943E+04 -1.019327E+05  1.106557E+04  1.147136E+04  1.713424E+04
       372   1 -2.022447E+03  7.622275E+04  5.772071E+04  2.071473E+04 -1.361819E+04 -1.480710E+04
       372   2 -3.868127E+04  7.135600E+04  5.670153E+04  1.279575E+04 -9.602489E+03 -1.345544E+04
       372   3 -7.703494E+04  6.224324E+04  5.198241E+04  2.274188E+04 -5.589560E+03 -1.158276E+04
       372   4 -3.291482E+05 -4.041781E+03 -1.646187E+04  2.134684E+04 -1.275999E+04 -1.480485E+04
       372   5 -3.282599E+05  3.315455E+02 -8.786335E+03  1.240651E+04 -8.333803E+03 -1.345157E+04
       372   6 -3.291407E+05  3.862087E+02 -5.097502E+03  2.133189E+04 -3.910149E+03 -1.157717E+04
       372   7 -6.561745E+05 -8.431369E+04 -9.065137E+04  2.197852E+04 -1.190225E+04 -1.480259E+04
       372   8 -6.177606E+05 -7.069868E+04 -7.427959E+04  1.201738E+04 -7.065703E+03 -1.344769E+04
       372   9 -5.811874E+05 -6.147519E+04 -6.218150E+04  1.992242E+04 -2.231414E+03 -1.157157E+04
       372  10 -2.022705E+03  7.622247E+04  5.771995E+04  2.071457E+04 -1.546761E-08 -3.224671E-10
       372  11 -3.868142E+04  7.135578E+04  5.670102E+04  1.279565E+04 -7.969365E-09  1.385571E-09
       372  12 -7.703501E+04  6.224308E+04  5.198210E+04  2.274183E+04  5.823817E-09  7.389121E-09
       372  13 -3.291484E+05 -4.042060E+03 -1.646259E+04  2.134669E+04 -2.211217E-10  1.541365E-08
       372  14 -3.282600E+05  3.313326E+02 -8.786805E+03  1.240642E+04 -6.083868E-10 -2.084995E-08
       372  15 -3.291408E+05  3.860607E+02 -5.097783E+03  2.133185E+04 -1.700115E-10  4.866180E-09
       372  16 -6.561747E+05 -8.431396E+04 -9.065205E+04  2.197838E+04  1.470468E-08 -5.857533E-09
       372  17 -6.177607E+05 -7.069889E+04 -7.428002E+04  1.201730E+04  7.809060E-09 -3.915741E-10
       372  18 -5.811875E+05 -6.147533E+04 -6.218176E+04  1.992240E+04 -6.572057E-09  7.930635E-10
       372  19 -2.022447E+03  7.622275E+04  5.772071E+04  2.071473E+04  1.361819E+04  1.480710E+04
       372  20 -3.868127E+04  7.135600E+04  5.670153E+04  1.279575E+04  9.602489E+03  1.345544E+04
       372  21 -7.703494E+04  6.224324E+04  5.198241E+04  2.274188E+04  5.589560E+03  1.158276E+04
       372  22 -3.291482E+05 -4.041781E+03 -1.646187E+04  2.134684E+04  1.275999E+04  1.480485E+04
       372  23 -3.282599E+05  3.315455E+02 -8.786335E+03  1.240651E+04  8.333803E+03  1.345157E+04
       372  24 -3.291407E+05  3.862087E+02 -5.097502E+03  2.133189E+04  3.910149E+03  1.157717E+04
       372  25 -6.561745E+05 -8.431369E+04 -9.065137E+04  2.197852E+04  1.190225E+04  1.480259E+04
       372  26 -6.177606E+05 -7.069868E+04 -7.427959E+04  1.201738E+04  7.065703E+03  1.344769E+04
       372  27 -5.811874E+05 -6.147519E+04 -6.218150E+04  1.992242E+04  2.231414E+03  1.157157E+04
       373   1 -1.102848E+05  5.347174E+04  4.537534E+04  2.195147E+04 -4.644554E+03 -1.038213E+04
       373   2 -1.477655E+05  4.448972E+04  3.867055E+04  1.291474E+04 -3.570671E+03 -8.441871E+03
       373   3 -1.855761E+05  3.533528E+04  3.118971E+04  2.183316E+04 -2.497443E+03 -6.475591E+03
       373   4 -3.288182E+05 -1.082099E+02 -3.926847E+03  2.135667E+04 -3.120741E+03 -1.037693E+04
       373   5 -3.286490E+05  1.237905E+02 -2.216472E+03  1.237841E+04 -2.026633E+03 -8.436422E+03
       373   6 -3.288141E+05  1.799894E+02 -1.296231E+03  2.135562E+04 -9.331148E+02 -6.469879E+03
       373   7 -5.473072E+05 -5.369144E+04 -5.323208E+04  2.076205E+04 -1.597459E+03 -1.037174E+04
       373   8 -5.095021E+05 -4.424439E+04 -4.310558E+04  1.184222E+04 -4.830400E+02 -8.430974E+03
       373   9 -4.720331E+05 -3.497672E+04 -3.378349E+04  2.087818E+04  6.308555E+02 -6.464169E+03
       373  10 -1.102849E+05  5.347162E+04  4.537509E+04  2.195143E+04  3.445518E-09 -4.177575E-09
       373  11 -1.477655E+05  4.448964E+04  3.867039E+04  1.291472E+04 -3.165974E-09 -1.592391E-10
       373  12 -1.855761E+05  3.533524E+04  3.118962E+04  2.183315E+04 -5.384074E-09  3.221733E-09
       373  13 -3.288182E+05 -1.083281E+02 -3.927068E+03  2.135665E+04 -5.068042E-10 -8.366769E-10
       373  14 -3.286491E+05  1.237129E+02 -2.216613E+03  1.237840E+04 -9.445564E-10 -8.986084E-09
       373  15 -3.288141E+05  1.799442E+02 -1.296311E+03  2.135562E+04 -3.924734E-11 -7.707637E-10
       373  16 -5.473072E+05 -5.369155E+04 -5.323229E+04  2.076203E+04 -4.680170E-09 -9.583427E-09
       373  17 -5.095021E+05 -4.424447E+04 -4.310572E+04  1.184221E+04  1.329447E-09  2.540898E-09
       373  18 -4.720331E+05 -3.497676E+04 -3.378357E+04  2.087818E+04  5.339631E-09  9.386120E-09
       373  19 -1.102848E+05  5.347174E+04  4.537534E+04  2.195147E+04  4.644554E+03  1.038213E+04
       373  20 -1.477655E+05  4.448972E+04  3.867055E+04  1.291474E+04  3.570671E+03  8.441871E+03
       373  21 -1.855761E+05  3.533528E+04  3.118971E+04  2.183316E+04  2.497443E+03  6.475591E+03
       373  22 -3.288182E+05 -1.082099E+02 -3.926847E+03  2.135667E+04  3.120741E+03  1.037693E+04
       373  23 -3.286490E+05  1.237905E+02 -2.216472E+03  1.237841E+04  2.026633E+03  8.436422E+03
       373  24 -3.288141E+05  1.799894E+02 -1.296231E+03  2.135562E+04  9.331148E+02  6.469879E+03
       373  25 -5.473072E+05 -5.369144E+04 -5.323208E+04  2.076205E+04  1.597459E+03  1.037174E+04
       373  26 -5.095021E+05 -4.424439E+04 -4.310558E+04  1.184222E+04  4.830400E+02  8.430974E+03
       373  27 -4.720331E+05 -3.497672E+04 -3.378349E+04  2.087818E+04 -6.308555E+02  6.464169E+03
       374   1 -2.192101E+05  2.700449E+04  2.365335E+04  2.169840E+04 -2.288433E+03 -5.326376E+03
       374   2 -2.568483E+05  1.772605E+04  1.561516E+04  1.258700E+04 -1.988525E+03 -3.356521E+03
       374   3 -2.946629E+05  8.558870E+03  7.371498E+03  2.146965E+04 -1.688849E+03 -1.384779E+03
       374   4 -3.287774E+05  1.511525E+02 -1.005095E+03  2.136456E+04 -7.303225E+02 -5.320604E+03
       374   5 -3.286876E+05  1.046761E+02 -6.238772E+02  1.236744E+04 -4.290122E+02 -3.350673E+03
       374   6 -3.287758E+05  1.692984E+02 -4.490841E+02  2.136449E+04 -1.279146E+02 -1.378850E+03
       374   7 -4.383334E+05 -2.670301E+04 -2.566430E+04  2.103078E+04  8.275154E+02 -5.314834E+03
       374   8 -4.005221E+05 -1.751705E+04 -1.686324E+04  1.214790E+04  1.130322E+03 -3.344826E+03
       374   9 -3.628876E+05 -8.220353E+03 -8.269734E+03  2.125933E+04  1.432934E+03 -1.372920E+03
       374  10 -2.192101E+05  2.700446E+04  2.365329E+04  2.169839E+04  5.160691E-09 -1.247043E-09
       374  11 -2.568483E+05  1.772604E+04  1.561513E+04  1.258700E+04 -3.770221E-09  2.125870E-09
       374  12 -2.946629E+05  8.558868E+03  7.371489E+03  2.146965E+04 -1.009363E-08 -2.081217E-09
       374  13 -3.287774E+05  1.511220E+02 -1.005149E+03  2.136456E+04 -5.651004E-10  4.949017E-09
       374  14 -3.286876E+05  1.046640E+02 -6.238987E+02  1.236744E+04 -2.872027E-10 -6.653994E-09
       374  15 -3.287758E+05  1.692964E+02 -4.490877E+02  2.136449E+04  3.026531E-10 -2.724083E-09
       374  16 -4.383334E+05 -2.670304E+04 -2.566435E+04  2.103078E+04 -6.879138E-09  5.700680E-09
       374  17 -4.005221E+05 -1.751706E+04 -1.686326E+04  1.214791E+04  3.404429E-09  1.234016E-08
       374  18 -3.628876E+05 -8.220356E+03 -8.269741E+03  2.125933E+04  9.773365E-09  6.554111E-09
       374  19 -2.192101E+05  2.700449E+04  2.365335E+04  2.169840E+04  2.288433E+03  5.326376E+03
       374  20 -2.568483E+05  1.772605E+04  1.561516E+04  1.258700E+04  1.988525E+03  3.356521E+03
       374  21 -2.946629E+05  8.558870E+03  7.371498E+03  2.146965E+04  1.688849E+03  1.384779E+03
       374  22 -3.287774E+05  1.511525E+02 -1.005095E+03  2.136456E+04  7.303225E+02  5.320604E+03
       374  23 -3.286876E+05  1.046761E+02 -6.238772E+02  1.236744E+04  4.290122E+02  3.350673E+03
       374  24 -3.287758E+05  1.692984E+02 -4.490841E+02  2.136449E+04  1.279146E+02  1.378850E+03
       374  25 -4.383334E+05 -2.670301E+04 -2.566430E+04  2.103078E+04 -8.275154E+02  5.314834E+03
       374  26 -4.005221E+05 -1.751705E+04 -1.686324E+04  1.214790E+04 -1.130322E+03  3.344826E+03
       374  27 -3.628876E+05 -8.220353E+03 -8.269734E+03  2.125933E+04 -1.432934E+03  1.372920E+03
       375   1 -3.283694E+05  2.461785E+02 -4.347187E+02  2.136804E+04 -1.614979E+03 -2.368584E+02
       375   2 -3.660217E+05 -9.054002E+03 -8.887323E+03  1.225408E+04 -1.399721E+03  1.735083E+03
       375   3 -4.038392E+05 -1.823430E+04 -1.748872E+04  2.114000E+04 -1.184367E+03  3.705620E+03
       375   4 -3.287731E+05  1.690060E+02 -4.167148E+02  2.136575E+04 -5.395585E+01 -2.309172E+02
       375   5 -3.286900E+05  1.036372E+02 -4.480294E+02  1.236587E+04  1.601448E+02  1.740979E+03
       375   6 -3.287739E+05  1.582964E+02 -6.274178E+02  2.136579E+04  3.743543E+02  3.711476E+03
       375   7 -3.291767E+05  9.183488E+01 -3.987017E+02  2.136346E+04  1.507067E+03 -2.249760E+02
       375   8 -2.913570E+05  9.261182E+03  7.991184E+03  1.247766E+04  1.720103E+03  1.746875E+03
       375   9 -2.537033E+05  1.855051E+04  1.623354E+04  2.159160E+04  1.933262E+03  3.717332E+03
       375  10 -3.283694E+05  2.461778E+02 -4.347237E+02  2.136804E+04 -7.665966E-09 -1.185846E-10
       375  11 -3.660217E+05 -9.054006E+03 -8.887332E+03  1.225409E+04 -1.636894E-09 -6.210355E-09
       375  12 -4.038392E+05 -1.823432E+04 -1.748875E+04  2.114000E+04  2.018878E-09 -2.097202E-09
       375  13 -3.287731E+05  1.690060E+02 -4.167149E+02  2.136575E+04  2.884394E-10  5.328175E-09
       375  14 -3.286900E+05  1.036339E+02 -4.480351E+02  1.236587E+04  7.997362E-10 -1.197840E-08
       375  15 -3.287739E+05  1.582815E+02 -6.274440E+02  2.136579E+04 -3.220112E-10 -3.395953E-09
       375  16 -3.291767E+05  9.183422E+01 -3.987060E+02  2.136346E+04  5.166197E-09  1.275602E-09
       375  17 -2.913570E+05  9.261178E+03  7.991173E+03  1.247765E+04  2.023397E-09 -1.699489E-08
       375  18 -2.537033E+05  1.855050E+04  1.623350E+04  2.159159E+04 -1.856227E-09 -1.325291E-08
       375  19 -3.283694E+05  2.461785E+02 -4.347187E+02  2.136804E+04  1.614979E+03  2.368584E+02
       375  20 -3.660217E+05 -9.054002E+03 -8.887323E+03  1.225408E+04  1.399721E+03 -1.735083E+03
       375  21 -4.038392E+05 -1.823430E+04 -1.748872E+04  2.114000E+04  1.184367E+03 -3.705620E+03
       375  22 -3.287731E+05  1.690060E+02 -4.167148E+02  2.136575E+04  5.395585E+01  2.309172E+02
       375  23 -3.286900E+05  1.036372E+02 -4.480294E+02  1.236587E+04 -1.601448E+02 -1.740979E+03
       375  24 -3.287739E+05  1.582964E+02 -6.274178E+02  2.136579E+04 -3.743543E+02 -3.711476E+03
       375  25 -3.291767E+05  9.183488E+01 -3.987017E+02  2.136346E+04 -1.507067E+03  2.249760E+02
       375  26 -2.913570E+05  9.261182E+03  7.991184E+03  1.247766E+04 -1.720103E+03 -1.746875E+03
       375  27 -2.537033E+05  1.855051E+04  1.623354E+04  2.159160E+04 -1.933262E+03 -3.717332E+03
       376   1 -4.375435E+05 -2.652504E+04 -2.547533E+04  2.100860E+04 -1.067780E+03  4.855156E+03
       376   2 -4.750903E+05 -3.580758E+04 -3.439473E+04  1.194571E+04 -4.151983E+02  6.822254E+03
       376   3 -5.128885E+05 -4.513730E+04 -4.378683E+04  2.085163E+04  2.378570E+02  8.765542E+03
       376   4 -3.287936E+05  1.749541E+02 -7.812004E+02  2.135864E+04  4.968186E+02  4.860973E+03
       376   5 -3.286707E+05  1.123669E+02 -1.291211E+03  1.237468E+04  1.130659E+03  6.827849E+03
       376   6 -3.287968E+05  6.127825E+00 -2.260612E+03  2.135926E+04  1.765012E+03  8.770922E+03
       376   7 -2.200327E+05  2.687413E+04  2.391218E+04  2.170874E+04  2.061689E+03  4.866792E+03
       376   8 -1.822312E+05  3.603084E+04  3.181093E+04  1.280373E+04  2.676878E+03  6.833445E+03
       376   9 -1.446736E+05  4.514723E+04  3.926345E+04  2.186701E+04  3.292616E+03  8.776304E+03
       376  10 -4.375435E+05 -2.652506E+04 -2.547538E+04  2.100860E+04  1.137684E-08  7.263378E-10
       376  11 -4.750903E+05 -3.580763E+04 -3.439481E+04  1.194571E+04 -7.433786E-09 -4.382185E-09
       376  12 -5.128885E+05 -4.513738E+04 -4.378698E+04  2.085163E+04 -2.195017E-08 -1.579281E-09
       376  13 -3.287936E+05  1.749287E+02 -7.812452E+02  2.135864E+04 -5.088786E-10  6.786518E-10
       376  14 -3.286707E+05  1.123165E+02 -1.291301E+03  1.237467E+04  5.873084E-10 -3.967296E-10
       376  15 -3.287968E+05  6.044393E+00 -2.260763E+03  2.135925E+04 -1.131013E-09  1.804275E-09
       376  16 -2.200327E+05  2.687410E+04  2.391212E+04  2.170873E+04 -1.274516E-08  7.456078E-09
       376  17 -1.822313E+05  3.603079E+04  3.181083E+04  1.280371E+04  7.202209E-09 -3.451374E-09
       376  18 -1.446736E+05  4.514714E+04  3.926328E+04  2.186699E+04  2.172056E-08  4.714626E-09
       376  19 -4.375435E+05 -2.652504E+04 -2.547533E+04  2.100860E+04  1.067780E+03 -4.855156E+03
       376  20 -4.750903E+05 -3.580758E+04 -3.439473E+04  1.194571E+04  4.151983E+02 -6.822254E+03
       376  21 -5.128885E+05 -4.513730E+04 -4.378683E+04  2.085163E+04 -2.378570E+02 -8.765542E+03
       376  22 -3.287936E+05  1.749541E+02 -7.812004E+02  2.135864E+04 -4.968186E+02 -4.860973E+03
       376  23 -3.286707E+05  1.123669E+02 -1.291211E+03  1.237468E+04 -1.130659E+03 -6.827849E+03
       376  24 -3.287968E+05  6.127825E+00 -2.260612E+03  2.135926E+04 -1.765012E+03 -8.770922E+03
       376  25 -2.200327E+05  2.687413E+04  2.391218E+04  2.170874E+04 -2.061689E+03 -4.866792E+03
       376  26 -1.822312E+05  3.603084E+04  3.181093E+04  1.280373E+04 -2.676878E+03 -6.833445E+03
       376  27 -1.446736E+05  4.514723E+04  3.926345E+04  2.186701E+04 -3.292616E+03 -8.776304E+03
       377   1 -5.466715E+05 -5.314031E+04 -5.224309E+04  2.032634E+04  5.460263E+02  9.961504E+03
       377   2 -5.836556E+05 -6.238871E+04 -6.277021E+04  1.192937E+04  3.458402E+03  1.184170E+04
       377   3 -6.217646E+05 -7.411990E+04 -7.584439E+04  2.142643E+04  6.372917E+03  1.324042E+04
       377   4 -3.289801E+05  2.890727E+02 -2.927072E+03  2.133976E+04  2.216927E+03  9.967271E+03
       377   5 -3.284534E+05  2.263290E+02 -5.035608E+03  1.239737E+04  4.749170E+03  1.184587E+04
       377   6 -3.289863E+05 -2.252425E+03 -9.426253E+03  2.134856E+04  7.283725E+03  1.324307E+04
       377   7 -1.112447E+05  5.371519E+04  4.638590E+04  2.235351E+04  3.888408E+03  9.973043E+03
       377   8 -7.319062E+04  6.283688E+04  5.269481E+04  1.286550E+04  6.040463E+03  1.185003E+04
       377   9 -3.612833E+04  6.960913E+04  5.698634E+04  2.127060E+04  8.194959E+03  1.324572E+04
       377  10 -5.466715E+05 -5.314042E+04 -5.224328E+04  2.032633E+04  1.626512E-08  2.540260E-09
       377  11 -5.836556E+05 -6.238886E+04 -6.277050E+04  1.192934E+04  3.827826E-09  1.213386E-08
       377  12 -6.217647E+05 -7.412010E+04 -7.584479E+04  2.142636E+04 -3.753673E-09 -3.157970E-09
       377  13 -3.289802E+05  2.889647E+02 -2.927268E+03  2.133975E+04 -3.011350E-10 -9.338969E-09
       377  14 -3.284535E+05  2.261723E+02 -5.035914E+03  1.239732E+04 -3.503830E-10  4.298687E-09
       377  15 -3.289864E+05 -2.252627E+03 -9.426682E+03  2.134849E+04 -1.042392E-09 -1.232362E-09
       377  16 -1.112447E+05  5.371508E+04  4.638569E+04  2.235348E+04 -1.803454E-08 -7.801608E-09
       377  17 -7.319070E+04  6.283672E+04  5.269448E+04  1.286544E+04 -4.431720E-09 -1.796224E-08
       377  18 -3.612845E+04  6.960893E+04  5.698589E+04  2.127051E+04  4.389631E-09  4.398789E-09
       377  19 -5.466715E+05 -5.314031E+04 -5.224309E+04  2.032634E+04 -5.460263E+02 -9.961504E+03
       377  20 -5.836556E+05 -6.238871E+04 -6.277021E+04  1.192937E+04 -3.458402E+03 -1.184170E+04
       377  21 -6.217646E+05 -7.411990E+04 -7.584439E+04  2.142643E+04 -6.372917E+03 -1.324042E+04
       377  22 -3.289801E+05  2.890727E+02 -2.927072E+03  2.133976E+04 -2.216927E+03 -9.967271E+03
       377  23 -3.284534E+05  2.263290E+02 -5.035608E+03  1.239737E+04 -4.749170E+03 -1.184587E+04
       377  24 -3.289863E+05 -2.252425E+03 -9.426253E+03  2.134856E+04 -7.283725E+03 -1.324307E+04
       377  25 -1.112447E+05  5.371519E+04  4.638590E+04  2.235351E+04 -3.888408E+03 -9.973043E+03
       377  26 -7.319062E+04  6.283688E+04  5.269481E+04  1.286550E+04 -6.040463E+03 -1.185003E+04
       377  27 -3.612833E+04  6.960913E+04  5.698634E+04  2.127060E+04 -8.194959E+03 -1.324572E+04
       378   1 -6.575027E+05 -7.803733E+04 -8.543596E+04  1.510432E+04  4.923139E+03  1.548086E+04
       378   2 -6.889488E+05 -8.758504E+04 -1.025971E+05  1.684919E+04  2.362449E+04  1.548416E+04
       378   3 -7.325161E+05 -1.355505E+05 -1.415622E+05  3.606818E+04  4.235580E+04  5.112364E+03
       378   4 -3.311302E+05  2.054658E+03 -1.176038E+04  2.121706E+04  8.985367E+03  1.549386E+04
       378   5 -3.257917E+05  1.630301E+03 -1.970691E+04  1.253918E+04  1.948213E+04  1.547013E+04
       378   6 -3.311440E+05 -3.577480E+04 -4.374940E+04  2.133576E+04  3.001030E+04  5.073370E+03
       378   7 -4.658499E+03  8.213946E+04  6.190844E+04  2.733296E+04  1.304971E+04  1.550695E+04
       378   8  3.748779E+04  9.083658E+04  6.317479E+04  8.226536E+03  1.533736E+04  1.545615E+04
       378   9  7.037595E+04  6.399001E+04  5.405243E+04  6.593675E+03  1.765683E+04  5.034977E+03
       378  10 -6.575028E+05 -7.803759E+04 -8.543645E+04  1.510426E+04  2.776737E-08 -3.355171E-09
       378  11 -6.889495E+05 -8.758545E+04 -1.025986E+05  1.684889E+04  4.407980E-09  2.923250E-09
       378  12 -7.325180E+05 -1.355511E+05 -1.415657E+05  3.606800E+04 -1.667016E-08  5.791985E-09
       378  13 -3.311304E+05  2.054378E+03 -1.176099E+04  2.121695E+04  1.911023E-11  4.117538E-09
       378  14 -3.257922E+05  1.629942E+03 -1.970807E+04  1.253894E+04 -2.136185E-10  7.486634E-10
       378  15 -3.311450E+05 -3.577507E+04 -4.375114E+04  2.133564E+04 -2.024587E-10  7.968201E-09
       378  16 -4.658746E+03  8.213915E+04  6.190767E+04  2.733280E+04 -2.837855E-08  8.197360E-09
       378  17  3.748748E+04  9.083626E+04  6.317390E+04  8.226345E+03 -4.510153E-09  1.589918E-08
       378  18  7.037561E+04  6.398990E+04  5.405180E+04  6.593604E+03  1.640669E-08 -8.086771E-10
       378  19 -6.575027E+05 -7.803733E+04 -8.543596E+04  1.510432E+04 -4.923139E+03 -1.548086E+04
       378  20 -6.889488E+05 -8.758504E+04 -1.025971E+05  1.684919E+04 -2.362449E+04 -1.548416E+04
       378  21 -7.325161E+05 -1.355505E+05 -1.415622E+05  3.606818E+04 -4.235580E+04 -5.112364E+03
       378  22 -3.311302E+05  2.054658E+03 -1.176038E+04  2.121706E+04 -8.985367E+03 -1.549386E+04
       378  23 -3.257917E+05  1.630301E+03 -1.970691E+04  1.253918E+04 -1.948213E+04 -1.547013E+04
       378  24 -3.311440E+05 -3.577480E+04 -4.374940E+04  2.133576E+04 -3.001030E+04 -5.073370E+03
       378  25 -4.658499E+03  8.213946E+04  6.190844E+04  2.733296E+04 -1.304971E+04 -1.550695E+04
       378  26  3.748779E+04  9.083658E+04  6.317479E+04  8.226536E+03 -1.533736E+04 -1.545615E+04
       378  27  7.037595E+04  6.399001E+04  5.405243E+04  6.593675E+03 -1.765683E+04 -5.034977E+03
       379   1 -1.936079E+05 -7.605344E+05 -1.876695E+05  1.843948E+05 -7.834759E+03 -5.332097E+04
       379   2 -1.320096E+05 -5.783627E+05 -1.159326E+05  1.579336E+05 -2.361806E+04 -2.017276E+04
       379   3 -8.557204E+04 -4.039619E+05 -6.955403E+04  1.726207E+05 -2.129497E+04  1.303709E+04
       379   4 -1.717625E+04 -4.875558E+04 -1.796840E+04  1.731532E+05 -7.933438E+03 -1.356000E+04
       379   5 -4.132391E+03 -4.735273E+04 -7.900228E+03  1.525991E+05 -2.364232E+04 -9.491820E+03
       379   6 -1.188546E+03 -4.869397E+04 -2.975742E+03  1.731931E+05 -2.125127E+04 -5.372473E+03
       379   7  1.592201E+05  6.634920E+05  1.517031E+05  1.618989E+05 -8.033505E+03  2.624639E+04
       379   8  1.237274E+05  4.839259E+05  1.001178E+05  1.472601E+05 -2.366676E+04  1.198091E+03
       379   9  8.318783E+04  3.066968E+05  6.359836E+04  1.737658E+05 -2.120762E+04 -2.379231E+04
       379  10 -1.936087E+05 -7.605375E+05 -1.876749E+05  1.843945E+05 -5.214149E-10 -2.636530E-09
       379  11 -1.320103E+05 -5.783633E+05 -1.159344E+05  1.579332E+05 -1.267351E-09  2.531719E-10
       379  12 -8.557257E+04 -4.039622E+05 -6.955520E+04  1.726209E+05  5.458601E-10 -4.871017E-10
       379  13 -1.717637E+04 -4.875579E+04 -1.796887E+04  1.731531E+05  1.110221E-09  4.983622E-09
       379  14 -4.133015E+03 -4.735298E+04 -7.901447E+03  1.525989E+05 -7.097555E-11 -1.841801E-09
       379  15 -1.189038E+03 -4.869412E+04 -2.976645E+03  1.731930E+05  1.690627E-09  5.997995E-10
       379  16  1.592198E+05  6.634912E+05  1.517017E+05  1.618991E+05  5.519025E-10 -1.474642E-09
       379  17  1.237268E+05  4.839258E+05  1.001167E+05  1.472601E+05  2.306786E-09 -1.428229E-09
       379  18  8.318719E+04  3.066960E+05  6.359645E+04  1.737654E+05  6.305138E-10 -5.837410E-09
       379  19 -1.936079E+05 -7.605344E+05 -1.876695E+05  1.843948E+05  7.834759E+03  5.332097E+04
       379  20 -1.320096E+05 -5.783627E+05 -1.159326E+05  1.579336E+05  2.361806E+04  2.017276E+04
       379  21 -8.557204E+04 -4.039619E+05 -6.955403E+04  1.726207E+05  2.129497E+04 -1.303709E+04
       379  22 -1.717625E+04 -4.875558E+04 -1.796840E+04  1.731532E+05  7.933438E+03  1.356000E+04
       379  23 -4.132391E+03 -4.735273E+04 -7.900228E+03  1.525991E+05  2.364232E+04  9.491820E+03
       379  24 -1.188546E+03 -4.869397E+04 -2.975742E+03  1.731931E+05  2.125127E+04  5.372473E+03
       379  25  1.592201E+05  6.634920E+05  1.517031E+05  1.618989E+05  8.033505E+03 -2.624639E+04
       379  26  1.237274E+05  4.839259E+05  1.001178E+05  1.472601E+05  2.366676E+04 -1.198091E+03
       379  27  8.318783E+04  3.066968E+05  6.359836E+04  1.737658E+05  2.120762E+04  2.379231E+04
       380   1 -5.785985E+04 -2.849699E+05 -4.550599E+04  1.738271E+05 -1.427628E+04  1.104515E+04
       380   2 -1.446339E+04 -1.069874E+05 -7.867785E+03  1.526286E+05 -4.108527E+03  1.017330E+04
       380   3  2.928126E+04  7.150706E+04  3.049420E+04  1.736698E+05  6.291398E+03  9.301326E+03
       380   4 -1.575576E+03 -4.794918E+04 -1.157986E+03  1.734284E+05 -1.423893E+04 -5.110911E+03
       380   5 -6.237671E+02 -4.821914E+04  2.549108E+03  1.523114E+05 -4.070658E+03 -6.357866E+03
       380   6  7.431220E+02 -4.794214E+04  7.241218E+03  1.734337E+05  6.329710E+03 -7.604710E+03
       380   7  5.470560E+04  1.891265E+05  4.318858E+04  1.730296E+05 -1.420157E+04 -2.127298E+04
       380   8  1.321581E+04  1.055314E+04  1.296690E+04  1.519941E+05 -4.032773E+03 -2.289055E+04
       380   9 -2.779571E+04 -1.673770E+05 -1.601137E+04  1.731978E+05  6.368039E+03 -2.450757E+04
       380  10 -5.786011E+04 -2.849701E+05 -4.550660E+04  1.738272E+05  1.215007E-09 -3.050902E-09
       380  11 -1.446343E+04 -1.069876E+05 -7.868011E+03  1.526286E+05 -5.307197E-10 -2.002890E-09
       380  12  2.928119E+04  7.150695E+04  3.049396E+04  1.736697E+05 -4.477214E-10 -5.066522E-09
       380  13 -1.575801E+03 -4.794926E+04 -1.158416E+03  1.734284E+05  1.670916E-09  4.477088E-09
       380  14 -6.237957E+02 -4.821918E+04  2.549001E+03  1.523114E+05  2.358377E-09 -4.895417E-09
       380  15  7.430634E+02 -4.794221E+04  7.241034E+03  1.734338E+05  2.320418E-09  3.007034E-09
       380  16  5.470526E+04  1.891260E+05  4.318735E+04  1.730294E+05  1.666922E-09 -8.004711E-10
       380  17  1.321565E+04  1.055257E+04  1.296588E+04  1.519941E+05  1.081298E-09 -4.169749E-10
       380  18 -2.779592E+04 -1.673777E+05 -1.601257E+04  1.731979E+05  8.882839E-10 -2.281426E-10
       380  19 -5.785985E+04 -2.849699E+05 -4.550599E+04  1.738271E+05  1.427628E+04 -1.104515E+04
       380  20 -1.446339E+04 -1.069874E+05 -7.867785E+03  1.526286E+05  4.108527E+03 -1.017330E+04
       380  21  2.928126E+04  7.150706E+04  3.049420E+04  1.736698E+05 -6.291398E+03 -9.301326E+03
       380  22 -1.575576E+03 -4.794918E+04 -1.157986E+03  1.734284E+05  1.423893E+04  5.110911E+03
       380  23 -6.237671E+02 -4.821914E+04  2.549108E+03  1.523114E+05  4.070658E+03  6.357866E+03
       380  24  7.431220E+02 -4.794214E+04  7.241218E+03  1.734337E+05 -6.329710E+03  7.604710E+03
       380  25  5.470560E+04  1.891265E+05  4.318858E+04  1.730296E+05  1.420157E+04  2.127298E+04
       380  26  1.321581E+04  1.055314E+04  1.296690E+04  1.519941E+05  4.032773E+03  2.289055E+04
       380  27 -2.779571E+04 -1.673770E+05 -1.601137E+04  1.731978E+05 -6.368039E+03  2.450757E+04
       381   1  5.650774E+04  1.911415E+05  5.548562E+04  1.702241E+05  1.340122E+04  9.908154E+03
       381   2  1.064428E+05  3.638364E+05  1.046708E+05  1.618240E+05  1.749816E+04 -2.477070E+04
       381   3  1.830872E+05  5.480461E+05  1.831659E+05  1.948282E+05  6.299928E+03 -5.950136E+04
       381   4 -9.457592E+01 -4.646632E+04  1.013883E+04  1.732331E+05  1.344447E+04 -8.851298E+03
       381   5  6.688062E+03 -5.010210E+04  1.947645E+04  1.525761E+05  1.748556E+04 -1.892031E+04
       381   6  3.592095E+04 -4.651287E+04  4.104536E+04  1.733218E+05  6.228189E+03 -2.903108E+04
       381   7 -5.670000E+04 -2.840190E+05 -3.520918E+04  1.762410E+05  1.348756E+04 -2.760374E+04
       381   8 -9.307714E+04 -4.638778E+05 -6.572695E+04  1.433345E+05  1.747279E+04 -1.307374E+04
       381   9 -1.112686E+05 -6.407449E+05 -1.010964E+05  1.518362E+05  6.154308E+03  1.410176E+03
       381  10  5.650752E+04  1.911413E+05  5.548510E+04  1.702240E+05  1.927319E-10 -1.796719E-09
       381  11  1.064423E+05  3.638357E+05  1.046691E+05  1.618243E+05 -1.126919E-09  2.776545E-09
       381  12  1.830862E+05  5.480423E+05  1.831592E+05  1.948285E+05 -1.244541E-09 -1.404484E-09
       381  13 -9.479110E+01 -4.646645E+04  1.013835E+04  1.732332E+05 -1.146148E-09  6.597229E-09
       381  14  6.687638E+03 -5.010257E+04  1.947520E+04  1.525763E+05  2.163087E-09 -3.917848E-09
       381  15  3.592068E+04 -4.651378E+04  4.104371E+04  1.733219E+05 -4.922444E-11  9.243264E-10
       381  16 -5.670040E+04 -2.840198E+05 -3.521096E+04  1.762413E+05  7.371408E-10 -2.034266E-09
       381  17 -9.307751E+04 -4.638781E+05 -6.572784E+04  1.433347E+05  3.048489E-09 -2.727941E-09
       381  18 -1.112686E+05 -6.407449E+05 -1.010964E+05  1.518362E+05  6.525546E-10 -2.752437E-09
       381  19  5.650774E+04  1.911415E+05  5.548562E+04  1.702241E+05 -1.340122E+04 -9.908154E+03
       381  20  1.064428E+05  3.638364E+05  1.046708E+05  1.618240E+05 -1.749816E+04  2.477070E+04
       381  21  1.830872E+05  5.480461E+05  1.831659E+05  1.948282E+05 -6.299928E+03  5.950136E+04
       381  22 -9.457592E+01 -4.646632E+04  1.013883E+04  1.732331E+05 -1.344447E+04  8.851298E+03
       381  23  6.688062E+03 -5.010210E+04  1.947645E+04  1.525761E+05 -1.748556E+04  1.892031E+04
       381  24  3.592095E+04 -4.651287E+04  4.104536E+04  1.733218E+05 -6.228189E+03  2.903108E+04
       381  25 -5.670000E+04 -2.840190E+05 -3.520918E+04  1.762410E+05 -1.348756E+04  2.760374E+04
       381  26 -9.307714E+04 -4.638778E+05 -6.572695E+04  1.433345E+05 -1.747279E+04  1.307374E+04
       381  27 -1.112686E+05 -6.407449E+05 -1.010964E+05  1.518362E+05 -6.154308E+03 -1.410176E+03
       382   1  7.176699E+05  2.770451E+05  1.760503E+05  2.593021E+05  7.193885E+04  2.270237E+04
       382   2  6.904955E+05  1.727221E+05  1.096235E+05  2.547730E+05  4.671779E+04  3.721240E+03
       382   3  6.876489E+05  1.553807E+05  8.567143E+04  2.403967E+05  1.838171E+04 -7.021002E+03
       382   4  4.418323E+05  1.427080E+05  9.615790E+04  1.529147E+05  6.273423E+04  1.921566E+04
       382   5  4.250655E+05  6.339917E+04  4.118097E+04  1.716244E+05  4.363741E+04  2.554182E+03
       382   6  4.314261E+05  6.987783E+04  2.383909E+04  1.804835E+05  2.142389E+04 -5.869394E+03
       382   7  1.660745E+05  8.393532E+03  1.625973E+04  4.657634E+04  5.353421E+04  1.573181E+04
       382   8  1.597059E+05 -4.591443E+04 -2.726710E+04  8.850977E+04  4.055848E+04  1.387790E+03
       382   9  1.752660E+05 -1.562432E+04 -3.799837E+04  1.205908E+05  2.446470E+04 -4.718169E+03
       382  10  7.176642E+05  2.770431E+05  1.760396E+05  2.593008E+05 -6.577071E-09 -3.457252E-09
       382  11  6.904931E+05  1.727215E+05  1.096194E+05  2.547729E+05 -1.329043E-09  7.319209E-09
       382  12  6.876485E+05  1.553806E+05  8.567070E+04  2.403968E+05  4.122899E-09  9.382341E-10
       382  13  4.418279E+05  1.427066E+05  9.614982E+04  1.529137E+05 -3.403105E-11  5.030461E-10
       382  14  4.250634E+05  6.339866E+04  4.117739E+04  1.716243E+05 -4.610033E-09 -6.539218E-09
       382  15  4.314256E+05  6.987767E+04  2.383816E+04  1.804836E+05 -2.330617E-09  3.393592E-09
       382  16  1.660714E+05  8.392497E+03  1.625388E+04  4.657567E+04  2.510240E-09  6.786912E-10
       382  17  1.597042E+05 -4.591487E+04 -2.727019E+04  8.850973E+04 -6.124841E-09  2.621744E-09
       382  18  1.752654E+05 -1.562450E+04 -3.799953E+04  1.205909E+05 -8.085809E-09 -1.498203E-09
       382  19  7.176699E+05  2.770451E+05  1.760503E+05  2.593021E+05 -7.193885E+04 -2.270237E+04
       382  20  6.904955E+05  1.727221E+05  1.096235E+05  2.547730E+05 -4.671779E+04 -3.721240E+03
       382  21  6.876489E+05  1.553807E+05  8.567143E+04  2.403967E+05 -1.838171E+04  7.021002E+03
       382  22  4.418323E+05  1.427080E+05  9.615790E+04  1.529147E+05 -6.273423E+04 -1.921566E+04
       382  23  4.250655E+05  6.339917E+04  4.118097E+04  1.716244E+05 -4.363741E+04 -2.554182E+03
       382  24  4.314261E+05  6.987783E+04  2.383909E+04  1.804835E+05 -2.142389E+04  5.869394E+03
       382  25  1.660745E+05  8.393532E+03  1.625973E+04  4.657634E+04 -5.353421E+04 -1.573181E+04
       382  26  1.597059E+05 -4.591443E+04 -2.726710E+04  8.850977E+04 -4.055848E+04 -1.387790E+03
       382  27  1.752660E+05 -1.562432E+04 -3.799837E+04  1.205908E+05 -2.446470E+04  4.718169E+03
       383   1  6.527345E+05  1.640628E+05  7.554314E+04  2.393660E+05  1.714266E+04 -5.524914E+03
       383   2  6.322624E+05  1.440320E+05  5.991542E+04  2.281987E+05  1.161269E+04 -6.639657E+03
       383   3  6.056843E+05  1.387761E+05  4.973424E+04  2.258708E+05  5.933051E+03 -7.359519E+03
       383   4  4.283468E+05  7.803915E+04  1.905941E+04  1.755702E+05  1.762836E+04 -5.341385E+03
       383   5  4.310547E+05  6.805511E+04  9.619242E+03  1.721460E+05  1.239323E+04 -6.344305E+03
       383   6  4.275985E+05  7.278884E+04  5.393493E+03  1.775607E+05  7.008201E+03 -6.952383E+03
       383   7  2.040085E+05 -7.980452E+03 -3.742832E+04  1.117955E+05  1.811386E+04 -5.157933E+03
       383   8  2.298872E+05 -7.918669E+03 -4.067998E+04  1.161098E+05  1.317349E+04 -6.049060E+03
       383   9  2.495446E+05  6.803885E+03 -3.894950E+04  1.292634E+05  8.083008E+03 -6.545372E+03
       383  10  6.527342E+05  1.640627E+05  7.554253E+04  2.393660E+05 -3.592391E-09  9.096032E-09
       383  11  6.322623E+05  1.440319E+05  5.991508E+04  2.281988E+05 -2.530252E-09  9.911581E-09
       383  12  6.056842E+05  1.387760E+05  4.973407E+04  2.258708E+05 -1.092483E-10  6.332073E-09
       383  13  4.283465E+05  7.803904E+04  1.905877E+04  1.755702E+05 -2.813703E-09  1.993458E-09
       383  14  4.310546E+05  6.805502E+04  9.618878E+03  1.721460E+05 -3.640391E-09 -1.814025E-08
       383  15  4.275985E+05  7.278878E+04  5.393310E+03  1.775608E+05 -3.946446E-09 -5.919783E-09
       383  16  2.040082E+05 -7.980569E+03 -3.742899E+04  1.117955E+05  6.301199E-11 -8.769930E-09
       383  17  2.298870E+05 -7.918755E+03 -4.068038E+04  1.161099E+05 -3.282488E-09 -7.102000E-09
       383  18  2.495445E+05  6.803821E+03 -3.894971E+04  1.292634E+05 -3.645764E-09  2.692748E-10
       383  19  6.527345E+05  1.640628E+05  7.554314E+04  2.393660E+05 -1.714266E+04  5.524914E+03
       383  20  6.322624E+05  1.440320E+05  5.991542E+04  2.281987E+05 -1.161269E+04  6.639657E+03
       383  21  6.056843E+05  1.387761E+05  4.973424E+04  2.258708E+05 -5.933051E+03  7.359519E+03
       383  22  4.283468E+05  7.803915E+04  1.905941E+04  1.755702E+05 -1.762836E+04  5.341385E+03
       383  23  4.310547E+05  6.805511E+04  9.619242E+03  1.721460E+05 -1.239323E+04  6.344305E+03
       383  24  4.275985E+05  7.278884E+04  5.393493E+03  1.775607E+05 -7.008201E+03  6.952383E+03
       383  25  2.040085E+05 -7.980452E+03 -3.742832E+04  1.117955E+05 -1.811386E+04  5.157933E+03
       383  26  2.298872E+05 -7.918669E+03 -4.067998E+04  1.161098E+05 -1.317349E+04  6.049060E+03
       383  27  2.495446E+05  6.803885E+03 -3.894950E+04  1.292634E+05 -8.083008E+03  6.545372E+03
       384   1  5.822457E+05  1.315313E+05  4.271494E+04  2.200224E+05  4.990096E+03 -6.790303E+03
       384   2  5.626488E+05  1.176732E+05  3.492326E+04  2.084220E+05  3.372167E+03 -5.930836E+03
       384   3  5.344518E+05  1.131717E+05  2.808894E+04  2.068382E+05  1.747740E+03 -5.054988E+03
       384   4  4.273091E+05  7.334258E+04  4.130996E+03  1.771622E+05  5.939154E+03 -6.430852E+03
       384   5  4.315861E+05  6.848873E+04  2.229341E+03  1.722212E+05  4.333686E+03 -5.566551E+03
       384   6  4.272604E+05  7.298943E+04  1.275524E+03  1.772969E+05  2.721676E+03 -4.685883E+03
       384   7  2.723955E+05  1.515525E+04 -3.445500E+04  1.343115E+05  6.887958E+03 -6.071499E+03
       384   8  3.005399E+05  1.930536E+04 -3.046600E+04  1.360273E+05  5.294986E+03 -5.202349E+03
       384   9  3.200801E+05  3.280789E+04 -2.553880E+04  1.477602E+05  3.695427E+03 -4.316847E+03
       384  10  5.822457E+05  1.315313E+05  4.271481E+04  2.200225E+05 -3.009922E-09 -1.105421E-09
       384  11  5.626488E+05  1.176731E+05  3.492317E+04  2.084221E+05  6.375173E-10 -5.624376E-09
       384  12  5.344518E+05  1.131717E+05  2.808889E+04  2.068383E+05  5.645534E-09 -2.728841E-09
       384  13  4.273091E+05  7.334252E+04  4.130852E+03  1.771622E+05  1.007404E-09  6.321581E-11
       384  14  4.315861E+05  6.848870E+04  2.229248E+03  1.722213E+05  3.854952E-09 -2.653967E-09
       384  15  4.272603E+05  7.298940E+04  1.275469E+03  1.772969E+05 -2.733234E-10 -8.599554E-09
       384  16  2.723954E+05  1.515520E+04 -3.445516E+04  1.343115E+05  1.291889E-09 -1.421071E-09
       384  17  3.005399E+05  1.930532E+04 -3.046610E+04  1.360273E+05 -9.147952E-10  5.758556E-09
       384  18  3.200801E+05  3.280787E+04 -2.553886E+04  1.477602E+05 -1.181115E-09 -2.401711E-09
       384  19  5.822457E+05  1.315313E+05  4.271494E+04  2.200224E+05 -4.990096E+03  6.790303E+03
       384  20  5.626488E+05  1.176732E+05  3.492326E+04  2.084220E+05 -3.372167E+03  5.930836E+03
       384  21  5.344518E+05  1.131717E+05  2.808894E+04  2.068382E+05 -1.747740E+03  5.054988E+03
       384  22  4.273091E+05  7.334258E+04  4.130996E+03  1.771622E+05 -5.939154E+03  6.430852E+03
       384  23  4.315861E+05  6.848873E+04  2.229341E+03  1.722212E+05 -4.333686E+03  5.566551E+03
       384  24  4.272604E+05  7.298943E+04  1.275524E+03  1.772969E+05 -2.721676E+03  4.685883E+03
       384  25  2.723955E+05  1.515525E+04 -3.445500E+04  1.343115E+05 -6.887958E+03  6.071499E+03
       384  26  3.005399E+05  1.930536E+04 -3.046600E+04  1.360273E+05 -5.294986E+03  5.202349E+03
       384  27  3.200801E+05  3.280789E+04 -2.553880E+04  1.477602E+05 -3.695427E+03  4.316847E+03
       385   1  5.120417E+05  1.048320E+05  2.206521E+04  2.006901E+05  1.279490E+03 -4.361371E+03
       385   2  4.926433E+05  9.144759E+04  1.585893E+04  1.890967E+05  4.670977E+02 -3.179793E+03
       385   3  4.644236E+05  8.697879E+04  9.898691E+03  1.875362E+05 -3.452450E+02 -1.998663E+03
       385   4  4.272303E+05  7.301463E+04  9.941855E+02  1.772544E+05  2.246093E+03 -3.994993E+03
       385   5  4.316405E+05  6.854844E+04  6.403656E+02  1.722415E+05  1.433408E+03 -2.813477E+03
       385   6  4.272289E+05  7.299803E+04  5.328815E+02  1.772612E+05  6.207556E+02 -1.632409E+03
       385   7  3.424263E+05  4.119788E+04 -2.007730E+04  1.538218E+05  3.212548E+03 -3.628671E+03
       385   8  3.706414E+05  4.564956E+04 -1.457848E+04  1.553877E+05  2.399615E+03 -2.447200E+03
       385   9  3.900355E+05  5.901731E+04 -8.833078E+03  1.669867E+05  1.586697E+03 -1.266178E+03
       385  10  5.120417E+05  1.048320E+05  2.206518E+04  2.006901E+05  1.437611E-10 -3.180741E-09
       385  11  4.926433E+05  9.144758E+04  1.585891E+04  1.890967E+05  3.644921E-09  9.510853E-09
       385  12  4.644236E+05  8.697879E+04  9.898683E+03  1.875362E+05  7.548434E-09  1.829384E-08
       385  13  4.272303E+05  7.301461E+04  9.941460E+02  1.772545E+05  1.290480E-09  4.383945E-09
       385  14  4.316405E+05  6.854843E+04  6.403469E+02  1.722415E+05  1.947504E-09 -3.008348E-09
       385  15  4.272289E+05  7.299803E+04  5.328758E+02  1.772612E+05  1.223694E-09  4.741201E-09
       385  16  3.424263E+05  4.119786E+04 -2.007734E+04  1.538218E+05  5.539726E-10  6.633944E-09
       385  17  3.706414E+05  4.564955E+04 -1.457850E+04  1.553877E+05 -3.165325E-09 -5.184449E-09
       385  18  3.900354E+05  5.901730E+04 -8.833085E+03  1.669867E+05 -2.733698E-09 -2.279469E-09
       385  19  5.120417E+05  1.048320E+05  2.206521E+04  2.006901E+05 -1.279490E+03  4.361371E+03
       385  20  4.926433E+05  9.144759E+04  1.585893E+04  1.890967E+05 -4.670977E+02  3.179793E+03
       385  21  4.644236E+05  8.697879E+04  9.898691E+03  1.875362E+05  3.452450E+02  1.998663E+03
       385  22  4.272303E+05  7.301463E+04  9.941855E+02  1.772544E+05 -2.246093E+03  3.994993E+03
       385  23  4.316405E+05  6.854844E+04  6.403656E+02  1.722415E+05 -1.433408E+03  2.813477E+03
       385  24  4.272289E+05  7.299803E+04  5.328815E+02  1.772612E+05 -6.207556E+02  1.632409E+03
       385  25  3.424263E+05  4.119788E+04 -2.007730E+04  1.538218E+05 -3.212548E+03  3.628671E+03
       385  26  3.706414E+05  4.564956E+04 -1.457848E+04  1.553877E+05 -2.399615E+03  2.447200E+03
       385  27  3.900355E+05  5.901731E+04 -8.833078E+03  1.669867E+05 -1.586697E+03  1.266178E+03
       386   1  4.421569E+05  7.859305E+04  4.188630E+03  1.813989E+05 -7.218233E+02 -1.275113E+03
       386   2  4.227850E+05  6.524164E+04 -1.470641E+03  1.698123E+05 -1.581029E+03 -1.129385E+02
       386   3  3.946109E+05  6.080250E+04 -6.847049E+03  1.682451E+05 -2.439983E+03  1.048753E+03
       386   4  4.272331E+05  7.299535E+04  5.497201E+02  1.772590E+05  2.436889E+02 -9.090293E+02
       386   5  4.316363E+05  6.855150E+04  7.353114E+02  1.722448E+05 -6.159159E+02  2.529843E+02
       386   6  4.272365E+05  7.301988E+04  1.204061E+03  1.772496E+05 -1.475283E+03  1.414510E+03
       386   7  4.123095E+05  6.739767E+04 -3.089202E+03  1.731192E+05  1.209176E+03 -5.429552E+02
       386   8  4.404875E+05  7.186137E+04  2.941256E+03  1.746773E+05  3.492102E+02  6.189119E+02
       386   9  4.598630E+05  8.523728E+04  9.255054E+03  1.862546E+05 -5.105329E+02  1.780287E+03
       386  10  4.421569E+05  7.859305E+04  4.188626E+03  1.813989E+05 -9.292902E-09 -3.642161E-09
       386  11  4.227850E+05  6.524164E+04 -1.470645E+03  1.698123E+05 -6.309107E-09 -4.887797E-09
       386  12  3.946109E+05  6.080250E+04 -6.847062E+03  1.682451E+05  1.046214E-08 -4.273573E-09
       386  13  4.272331E+05  7.299535E+04  5.497185E+02  1.772590E+05  2.493585E-10  2.968893E-09
       386  14  4.316363E+05  6.855150E+04  7.353106E+02  1.722448E+05 -6.093732E-09  7.495801E-09
       386  15  4.272365E+05  7.301987E+04  1.204053E+03  1.772496E+05 -1.929712E-09 -5.903141E-09
       386  16  4.123095E+05  6.739767E+04 -3.089205E+03  1.731192E+05  8.240861E-09  1.297625E-08
       386  17  4.404875E+05  7.186137E+04  2.941255E+03  1.746773E+05  3.565357E-09  6.259056E-09
       386  18  4.598630E+05  8.523727E+04  9.255048E+03  1.862546E+05 -9.158423E-09 -1.710846E-08
       386  19  4.421569E+05  7.859305E+04  4.188630E+03  1.813989E+05  7.218233E+02  1.275113E+03
       386  20  4.227850E+05  6.524164E+04 -1.470641E+03  1.698123E+05  1.581029E+03  1.129385E+02
       386  21  3.946109E+05  6.080250E+04 -6.847049E+03  1.682451E+05  2.439983E+03 -1.048753E+03
       386  22  4.272331E+05  7.299535E+04  5.497201E+02  1.772590E+05 -2.436889E+02  9.090293E+02
       386  23  4.316363E+05  6.855150E+04  7.353114E+02  1.722448E+05  6.159159E+02 -2.529843E+02
       386  24  4.272365E+05  7.301988E+04  1.204061E+03  1.772496E+05  1.475283E+03 -1.414510E+03
       386  25  4.123095E+05  6.739767E+04 -3.089202E+03  1.731192E+05 -1.209176E+03  5.429552E+02
       386  26  4.404875E+05  7.186137E+04  2.941256E+03  1.746773E+05 -3.492102E+02 -6.189119E+02
       386  27  4.598630E+05  8.523728E+04  9.255054E+03  1.862546E+05  5.105329E+02 -1.780287E+03
       387   1  3.723200E+05  5.242875E+04 -1.221805E+04  1.622109E+05 -2.961202E+03  1.719813E+03
       387   2  3.528376E+05  3.895343E+04 -1.687605E+04  1.504958E+05 -4.828766E+03  2.499350E+03
       387   3  3.248525E+05  3.490339E+04 -2.036895E+04  1.487406E+05 -6.690667E+03  3.264582E+03
       387   4  4.272811E+05  7.298130E+04  1.562678E+03  1.772942E+05 -1.990955E+03  2.087650E+03
       387   5  4.315626E+05  6.848998E+04  2.763303E+03  1.722297E+05 -3.869353E+03  2.863013E+03
       387   6  4.273435E+05  7.342612E+04  5.137654E+03  1.771249E+05 -5.742144E+03  3.624053E+03
       387   7  4.822454E+05  9.353414E+04  1.534324E+04  1.923788E+05 -1.020609E+03  2.455524E+03
       387   8  5.102939E+05  9.802701E+04  2.240223E+04  1.939661E+05 -2.909805E+03  3.226727E+03
       387   9  5.298448E+05  1.119496E+05  3.064345E+04  2.055134E+05 -4.793449E+03  3.983588E+03
       387  10  3.723200E+05  5.242875E+04 -1.221807E+04  1.622109E+05 -4.910960E-09 -5.525999E-09
       387  11  3.528375E+05  3.895342E+04 -1.687611E+04  1.504958E+05  3.698438E-09  3.930839E-09
       387  12  3.248525E+05  3.490336E+04 -2.036906E+04  1.487406E+05  9.736020E-09  3.154022E-09
       387  13  4.272811E+05  7.298130E+04  1.562663E+03  1.772942E+05  4.115510E-09 -4.469426E-09
       387  14  4.315626E+05  6.848996E+04  2.763260E+03  1.722297E+05  3.809346E-09  3.052985E-09
       387  15  4.273435E+05  7.342609E+04  5.137567E+03  1.771249E+05 -1.121236E-09  1.617801E-10
       387  16  4.822454E+05  9.353414E+04  1.534322E+04  1.923788E+05  1.225072E-08 -6.614722E-09
       387  17  5.102939E+05  9.802700E+04  2.240219E+04  1.939661E+05  5.687251E-09  7.846206E-09
       387  18  5.298448E+05  1.119496E+05  3.064338E+04  2.055134E+05 -5.465980E-09  1.630865E-09
       387  19  3.723200E+05  5.242875E+04 -1.221805E+04  1.622109E+05  2.961202E+03 -1.719813E+03
       387  20  3.528376E+05  3.895343E+04 -1.687605E+04  1.504958E+05  4.828766E+03 -2.499350E+03
       387  21  3.248525E+05  3.490339E+04 -2.036895E+04  1.487406E+05  6.690667E+03 -3.264582E+03
       387  22  4.272811E+05  7.298130E+04  1.562678E+03  1.772942E+05  1.990955E+03 -2.087650E+03
       387  23  4.315626E+05  6.848998E+04  2.763303E+03  1.722297E+05  3.869353E+03 -2.863013E+03
       387  24  4.273435E+05  7.342612E+04  5.137654E+03  1.771249E+05  5.742144E+03 -3.624053E+03
       387  25  4.822454E+05  9.353414E+04  1.534324E+04  1.923788E+05  1.020609E+03 -2.455524E+03
       387  26  5.102939E+05  9.802701E+04  2.240223E+04  1.939661E+05  2.909805E+03 -3.226727E+03
       387  27  5.298448E+05  1.119496E+05  3.064345E+04  2.055134E+05  4.793449E+03 -3.983588E+03
       388   1  3.020351E+05  2.661166E+04 -2.452618E+04  1.439945E+05 -8.045149E+03  3.664407E+03
       388   2  2.824931E+05  1.166518E+04 -2.517358E+04  1.305493E+05 -1.439247E+04  2.695340E+03
       388   3  2.574694E+05  1.274959E+04 -1.952131E+04  1.255591E+05 -2.061543E+04  1.399641E+03
       388   4  4.277117E+05  7.272981E+04  6.711968E+03  1.776139E+05 -6.992780E+03  4.063186E+03
       388   5  4.308964E+05  6.796306E+04  1.197919E+04  1.721457E+05 -1.358399E+04  3.001538E+03
       388   6  4.286463E+05  7.927397E+04  2.373817E+04  1.751319E+05 -2.005112E+04  1.613164E+03
       388   7  5.534033E+05  1.188487E+05  3.794875E+04  2.112392E+05 -5.940181E+03  4.462049E+03
       388   8  5.793212E+05  1.242626E+05  4.913024E+04  2.137511E+05 -1.277529E+04  3.307817E+03
       388   9  5.998526E+05  1.458012E+05  6.699550E+04  2.247176E+05 -1.948663E+04  1.826757E+03
       388  10  3.020350E+05  2.661163E+04 -2.452633E+04  1.439945E+05 -1.278806E-09  3.753070E-09
       388  11  2.824929E+05  1.166512E+04 -2.517398E+04  1.305493E+05  3.656658E-09  2.593025E-08
       388  12  2.574690E+05  1.274947E+04 -1.952211E+04  1.255592E+05  7.737929E-09  1.979265E-08
       388  13  4.277117E+05  7.272978E+04  6.711845E+03  1.776139E+05 -4.493553E-09 -4.728194E-09
       388  14  4.308962E+05  6.796300E+04  1.197883E+04  1.721457E+05 -2.359511E-09  2.142702E-08
       388  15  4.286458E+05  7.927386E+04  2.373741E+04  1.751320E+05  8.730720E-10  1.111422E-08
       388  16  5.534033E+05  1.188486E+05  3.794865E+04  2.112393E+05 -9.081366E-10  8.453114E-09
       388  17  5.793210E+05  1.242625E+05  4.912991E+04  2.137511E+05 -1.008922E-08 -2.059811E-09
       388  18  5.998522E+05  1.458011E+05  6.699478E+04  2.247176E+05 -8.360035E-09 -1.006854E-09
       388  19  3.020351E+05  2.661166E+04 -2.452618E+04  1.439945E+05  8.045149E+03 -3.664407E+03
       388  20  2.824931E+05  1.166518E+04 -2.517358E+04  1.305493E+05  1.439247E+04 -2.695340E+03
       388  21  2.574694E+05  1.274959E+04 -1.952131E+04  1.255591E+05  2.061543E+04 -1.399641E+03
       388  22  4.277117E+05  7.272981E+04  6.711968E+03  1.776139E+05  6.992780E+03 -4.063186E+03
       388  23  4.308964E+05  6.796306E+04  1.197919E+04  1.721457E+05  1.358399E+04 -3.001538E+03
       388  24  4.286463E+05  7.927397E+04  2.373817E+04  1.751319E+05  2.005112E+04 -1.613164E+03
       388  25  5.534033E+05  1.188487E+05  3.794875E+04  2.112392E+05  5.940181E+03 -4.462049E+03
       388  26  5.793212E+05  1.242626E+05  4.913024E+04  2.137511E+05  1.277529E+04 -3.307817E+03
       388  27  5.998526E+05  1.458012E+05  6.699550E+04  2.247176E+05  1.948663E+04 -1.826757E+03
       389   1  2.274467E+05  5.382954E+03 -1.895822E+04  1.381231E+05 -2.723029E+04  6.640692E+02
       389   2  2.130004E+05 -2.896095E+04 -3.806852E+03  1.010467E+05 -4.992427E+04 -7.689728E+03
       389   3  2.285694E+05  4.034283E+04  5.421734E+04  4.918004E+04 -7.004030E+04 -2.284901E+04
       389   4  4.324678E+05  6.912269E+04  2.969167E+04  1.812642E+05 -2.455447E+04  1.678071E+03
       389   5  4.234570E+05  6.215753E+04  5.129580E+04  1.714822E+05 -5.230705E+04 -8.593507E+03
       389   6  4.454480E+05  1.598181E+05  1.197710E+05  1.469134E+05 -7.748241E+04 -2.567173E+04
       389   7  6.375307E+05  1.328626E+05  7.833886E+04  2.244169E+05 -2.187767E+04  2.692300E+03
       389   8  6.339560E+05  1.532827E+05  1.063943E+05  2.419403E+05 -5.469069E+04 -9.497728E+03
       389   9  6.623725E+05  2.793129E+05  1.853193E+05  2.446814E+05 -8.492724E+04 -2.849660E+04
       389  10  2.274459E+05  5.382754E+03 -1.895961E+04  1.381231E+05 -2.900485E-09  7.304797E-10
       389  11  2.129977E+05 -2.896168E+04 -3.811645E+03  1.010464E+05 -4.280661E-09 -8.013655E-09
       389  12  2.285640E+05  4.034095E+04  5.420714E+04  4.917875E+04  4.619045E-09  4.036453E-09
       389  13  4.324671E+05  6.912253E+04  2.969053E+04  1.812642E+05  2.855569E-09  2.684671E-09
       389  14  4.234540E+05  6.215671E+04  5.129052E+04  1.714818E+05 -2.635364E-09 -4.054669E-09
       389  15  4.454414E+05  1.598158E+05  1.197585E+05  1.469118E+05 -2.285809E-11  1.087557E-08
       389  16  6.375302E+05  1.328625E+05  7.833795E+04  2.244170E+05  2.273394E-09  2.693148E-09
       389  17  6.339528E+05  1.532818E+05  1.063885E+05  2.419399E+05 -6.806606E-09 -1.446983E-09
       389  18  6.623646E+05  2.793101E+05  1.853043E+05  2.446794E+05 -7.143394E-09 -2.814239E-09
       389  19  2.274467E+05  5.382954E+03 -1.895822E+04  1.381231E+05  2.723029E+04 -6.640692E+02
       389  20  2.130004E+05 -2.896095E+04 -3.806852E+03  1.010467E+05  4.992427E+04  7.689728E+03
       389  21  2.285694E+05  4.034283E+04  5.421734E+04  4.918004E+04  7.004030E+04  2.284901E+04
       389  22  4.324678E+05  6.912269E+04  2.969167E+04  1.812642E+05  2.455447E+04 -1.678071E+03
       389  23  4.234570E+05  6.215753E+04  5.129580E+04  1.714822E+05  5.230705E+04  8.593507E+03
       389  24  4.454480E+05  1.598181E+05  1.197710E+05  1.469134E+05  7.748241E+04  2.567173E+04
       389  25  6.375307E+05  1.328626E+05  7.833886E+04  2.244169E+05  2.187767E+04 -2.692300E+03
       389  26  6.339560E+05  1.532827E+05  1.063943E+05  2.419403E+05  5.469069E+04  9.497728E+03
       389  27  6.623725E+05  2.793129E+05  1.853193E+05  2.446814E+05  8.492724E+04  2.849660E+04
       390   1 -1.435234E+05 -7.206463E+05 -1.440213E+05  9.278188E+04 -5.455974E+03 -2.501245E+04
       390   2 -9.129652E+04 -5.758725E+05 -9.393576E+04  5.470434E+04 -1.524278E+04 -9.143107E+03
       390   3 -5.660145E+04 -4.370045E+05 -5.848827E+04  8.361727E+04 -1.070266E+04  6.769949E+03
       390   4 -1.512289E+04 -2.052414E+05 -1.793922E+04  8.528582E+04 -5.492567E+03 -1.163933E+04
       390   5  3.437423E+02 -2.032496E+05 -8.606193E+03  5.181233E+04 -1.524753E+04 -7.102752E+03
       390   6  2.543021E+02 -2.052106E+05 -6.030641E+03  8.532798E+04 -1.067919E+04 -2.526348E+03
       390   7  1.132582E+05  3.104063E+05  1.081242E+05  7.778366E+04 -5.529468E+03  1.744877E+03
       390   8  9.197437E+04  1.695020E+05  7.671427E+04  4.891865E+04 -1.525231E+04 -5.061181E+03
       390   9  5.710642E+04  2.663342E+04  4.642386E+04  8.703936E+04 -1.065577E+04 -1.182609E+04
       390  10 -1.435236E+05 -7.206469E+05 -1.440226E+05  9.278177E+04  1.596724E-10  2.014716E-09
       390  11 -9.129680E+04 -5.758726E+05 -9.393636E+04  5.470423E+04  3.285600E-10  8.178670E-09
       390  12 -5.660159E+04 -4.370046E+05 -5.848857E+04  8.361733E+04  2.716701E-09  6.367136E-09
       390  13 -1.512296E+04 -2.052415E+05 -1.793953E+04  8.528576E+04  2.290723E-09 -4.262249E-09
       390  14  3.434791E+02 -2.032497E+05 -8.606725E+03  5.181225E+04 -2.048190E-09  1.855981E-09
       390  15  2.541779E+02 -2.052106E+05 -6.030867E+03  8.532796E+04  1.194853E-09 -1.033504E-08
       390  16  1.132582E+05  3.104063E+05  1.081241E+05  7.778367E+04  1.242926E-09 -5.163660E-09
       390  17  9.197411E+04  1.695019E+05  7.671379E+04  4.891859E+04  3.987536E-09 -6.075558E-09
       390  18  5.710626E+04  2.663324E+04  4.642338E+04  8.703926E+04 -6.580921E-11 -9.727572E-09
       390  19 -1.435234E+05 -7.206463E+05 -1.440213E+05  9.278188E+04  5.455974E+03  2.501245E+04
       390  20 -9.129652E+04 -5.758725E+05 -9.393576E+04  5.470434E+04  1.524278E+04  9.143107E+03
       390  21 -5.660145E+04 -4.370045E+05 -5.848827E+04  8.361727E+04  1.070266E+04 -6.769949E+03
       390  22 -1.512289E+04 -2.052414E+05 -1.793922E+04  8.528582E+04  5.492567E+03  1.163933E+04
       390  23  3.437423E+02 -2.032496E+05 -8.606193E+03  5.181233E+04  1.524753E+04  7.102752E+03
       390  24  2.543021E+02 -2.052106E+05 -6.030641E+03  8.532798E+04  1.067919E+04  2.526348E+03
       390  25  1.132582E+05  3.104063E+05  1.081242E+05  7.778366E+04  5.529468E+03 -1.744877E+03
       390  26  9.197437E+04  1.695020E+05  7.671427E+04  4.891865E+04  1.525231E+04  5.061181E+03
       390  27  5.710642E+04  2.663342E+04  4.642386E+04  8.703936E+04  1.065577E+04  1.182609E+04
       391   1 -2.706737E+04 -3.093519E+05 -2.928931E+04  8.624602E+04 -4.772022E+03  3.595891E+03
       391   2  8.944467E+03 -1.672405E+05  3.316057E+03  5.154764E+04  1.692993E+03  6.084656E+03
       391   3  4.201446E+04 -2.572325E+04  3.366184E+04  8.441942E+04  8.073427E+03  8.574112E+03
       391   4 -1.323864E+03 -2.044612E+05 -5.514040E+03  8.544518E+04 -4.759313E+03 -1.561284E+03
       391   5 -1.092390E+02 -2.041504E+05 -5.032727E+03  5.165922E+04  1.705703E+03  9.939964E+02
       391   6 -1.846809E+03 -2.044642E+05 -6.856329E+03  8.544387E+04  8.086074E+03  3.549417E+03
       391   7  2.441889E+04 -9.956027E+04  1.826063E+04  8.464421E+04 -4.746592E+03 -6.719322E+03
       391   8 -9.163025E+03 -2.410590E+05 -1.338150E+04  5.177079E+04  1.718412E+03 -4.096364E+03
       391   9 -4.571027E+04 -3.831755E+05 -4.737647E+04  8.646804E+04  8.098706E+03 -1.473845E+03
       391  10 -2.706739E+04 -3.093520E+05 -2.928938E+04  8.624604E+04  1.204829E-09  4.254224E-09
       391  11  8.944454E+03 -1.672405E+05  3.315982E+03  5.154763E+04 -1.176275E-10  4.323794E-09
       391  12  4.201437E+04 -2.572335E+04  3.366158E+04  8.441936E+04 -3.360098E-10  6.990890E-09
       391  13 -1.323889E+03 -2.044613E+05 -5.514087E+03  8.544518E+04 -2.092392E-10  2.244208E-12
       391  14 -1.092424E+02 -2.041504E+05 -5.032734E+03  5.165922E+04  1.649489E-09  1.801866E-09
       391  15 -1.846883E+03 -2.044643E+05 -6.856476E+03  8.544385E+04  2.572553E-09 -9.699074E-09
       391  16  2.441886E+04 -9.956033E+04  1.826050E+04  8.464419E+04 -1.172287E-09 -8.132182E-09
       391  17 -9.163033E+03 -2.410590E+05 -1.338154E+04  5.177080E+04 -1.146845E-09 -5.341809E-09
       391  18 -4.571034E+04 -3.831755E+05 -4.737660E+04  8.646805E+04  4.349836E-10 -1.121015E-08
       391  19 -2.706737E+04 -3.093519E+05 -2.928931E+04  8.624602E+04  4.772022E+03 -3.595891E+03
       391  20  8.944467E+03 -1.672405E+05  3.316057E+03  5.154764E+04 -1.692993E+03 -6.084656E+03
       391  21  4.201446E+04 -2.572325E+04  3.366184E+04  8.441942E+04 -8.073427E+03 -8.574112E+03
       391  22 -1.323864E+03 -2.044612E+05 -5.514040E+03  8.544518E+04  4.759313E+03  1.561284E+03
       391  23 -1.092390E+02 -2.041504E+05 -5.032727E+03  5.165922E+04 -1.705703E+03 -9.939964E+02
       391  24 -1.846809E+03 -2.044642E+05 -6.856329E+03  8.544387E+04 -8.086074E+03 -3.549417E+03
       391  25  2.441889E+04 -9.956027E+04  1.826063E+04  8.464421E+04  4.746592E+03  6.719322E+03
       391  26 -9.163025E+03 -2.410590E+05 -1.338150E+04  5.177079E+04 -1.718412E+03  4.096364E+03
       391  27 -4.571027E+04 -3.831755E+05 -4.737647E+04  8.646804E+04 -8.098706E+03  1.473845E+03
       392   1  7.561308E+04  1.000337E+05  6.111256E+04  8.794906E+04  1.416598E+04  1.452399E+04
       392   2  1.103804E+05  2.438086E+05  8.969990E+04  4.772143E+04  1.840919E+04  8.343192E+03
       392   3  1.243164E+05  3.837715E+05  1.172227E+05  7.437357E+04  6.498998E+03  2.114791E+03
       392   4  6.633929E+02 -2.056850E+05 -7.994014E+03  8.531086E+04  1.419113E+04  4.774626E+03
       392   5  6.397827E+02 -2.026762E+05 -1.241819E+04  5.183622E+04  1.840183E+04  1.138774E+04
       392   6 -2.244321E+04 -2.057223E+05 -2.679424E+04  8.524563E+04  6.453823E+03  1.795438E+04
       392   7 -7.429264E+04 -5.113167E+05 -7.710623E+04  8.267402E+04  1.421637E+04 -4.969981E+03
       392   8 -1.091147E+05 -6.489763E+05 -1.145493E+05  5.594814E+04  1.839451E+04  1.443012E+04
       392   9 -1.692280E+05 -7.948987E+05 -1.708356E+05  9.610756E+04  6.409181E+03  3.377896E+04
       392  10  7.561281E+04  1.000335E+05  6.111179E+04  8.794889E+04  8.349382E-10  7.709984E-09
       392  11  1.103801E+05  2.438084E+05  8.969913E+04  4.772131E+04 -1.213204E-09  1.242636E-08
       392  12  1.243164E+05  3.837715E+05  1.172226E+05  7.437356E+04 -1.402339E-09  5.931789E-09
       392  13  6.631706E+02 -2.056851E+05 -7.994436E+03  8.531080E+04 -1.475864E-09 -6.499653E-09
       392  14  6.393843E+02 -2.026765E+05 -1.241907E+04  5.183605E+04  1.021784E-09  3.119166E-09
       392  15 -2.244335E+04 -2.057227E+05 -2.679492E+04  8.524554E+04 -6.412051E-10 -8.209691E-09
       392  16 -7.429286E+04 -5.113168E+05 -7.710666E+04  8.267407E+04  7.585478E-10 -1.701891E-08
       392  17 -1.091151E+05 -6.489766E+05 -1.145503E+05  5.594793E+04  1.591337E-09 -7.873857E-09
       392  18 -1.692283E+05 -7.949000E+05 -1.708378E+05  9.610739E+04 -3.266134E-10 -4.610016E-09
       392  19  7.561308E+04  1.000337E+05  6.111256E+04  8.794906E+04 -1.416598E+04 -1.452399E+04
       392  20  1.103804E+05  2.438086E+05  8.969990E+04  4.772143E+04 -1.840919E+04 -8.343192E+03
       392  21  1.243164E+05  3.837715E+05  1.172227E+05  7.437357E+04 -6.498998E+03 -2.114791E+03
       392  22  6.633929E+02 -2.056850E+05 -7.994014E+03  8.531086E+04 -1.419113E+04 -4.774626E+03
       392  23  6.397827E+02 -2.026762E+05 -1.241819E+04  5.183622E+04 -1.840183E+04 -1.138774E+04
       392  24 -2.244321E+04 -2.057223E+05 -2.679424E+04  8.524563E+04 -6.453823E+03 -1.795438E+04
       392  25 -7.429264E+04 -5.113167E+05 -7.710623E+04  8.267402E+04 -1.421637E+04  4.969981E+03
       392  26 -1.091147E+05 -6.489763E+05 -1.145493E+05  5.594814E+04 -1.839451E+04 -1.443012E+04
       392  27 -1.692280E+05 -7.948987E+05 -1.708356E+05  9.610756E+04 -6.409181E+03 -3.377896E+04
       393   1  2.657485E+05 -1.047673E+05 -9.754393E+04 -1.372418E+04  1.686076E+03  6.342430E+03
       393   2  3.023477E+05 -1.152675E+05 -9.468119E+04 -1.075416E+04  5.829159E+03  1.978234E+04
       393   3  3.435041E+05 -1.059300E+05 -8.953405E+04 -2.575018E+04  9.985166E+03  2.028094E+04
       393   4  7.710955E+05  2.082335E+04  2.544861E+04 -2.248775E+04  1.746669E+04  6.357163E+03
       393   5  7.679395E+05 -9.817352E+02  1.145024E+04 -1.349598E+04  1.135418E+04  1.978561E+04
       393   6  7.711137E+05 -1.178009E+03  6.850151E+03 -2.246917E+04  5.254278E+03  2.027716E+04
       393   7  1.276676E+06  1.463956E+05  1.484236E+05 -3.125852E+04  3.326011E+04  6.371445E+03
       393   8  1.233732E+06  1.132891E+05  1.175677E+05 -1.623991E+04  1.688331E+04  1.978883E+04
       393   9  1.198893E+06  1.035615E+05  1.032228E+05 -1.918590E+04  5.201645E+02  2.027333E+04
       393  10  2.657485E+05 -1.047673E+05 -9.754401E+04 -1.372419E+04 -2.412485E-11 -8.781594E-11
       393  11  3.023476E+05 -1.152679E+05 -9.468199E+04 -1.075425E+04 -4.819407E-11 -8.015413E-11
       393  12  3.435039E+05 -1.059305E+05 -8.953501E+04 -2.575035E+04  1.844878E-10 -8.144393E-11
       393  13  7.710951E+05  2.082323E+04  2.544796E+04 -2.248784E+04 -5.483497E-10 -2.427652E-11
       393  14  7.679393E+05 -9.821903E+02  1.144926E+04 -1.349616E+04  4.333711E-12 -4.176219E-11
       393  15  7.711135E+05 -1.178458E+03  6.849327E+03 -2.246926E+04 -2.171481E-10 -1.296556E-10
       393  16  1.276675E+06  1.463953E+05  1.484215E+05 -3.125869E+04  8.854407E-10  1.040314E-11
       393  17  1.233732E+06  1.132886E+05  1.175664E+05 -1.624018E+04 -3.936997E-10  2.022137E-12
       393  18  1.198893E+06  1.035611E+05  1.032220E+05 -1.918591E+04 -9.747364E-11 -1.538000E-10
       393  19  2.657485E+05 -1.047673E+05 -9.754393E+04 -1.372418E+04 -1.686076E+03 -6.342430E+03
       393  20  3.023477E+05 -1.152675E+05 -9.468119E+04 -1.075416E+04 -5.829159E+03 -1.978234E+04
       393  21  3.435041E+05 -1.059300E+05 -8.953405E+04 -2.575018E+04 -9.985166E+03 -2.028094E+04
       393  22  7.710955E+05  2.082335E+04  2.544861E+04 -2.248775E+04 -1.746669E+04 -6.357163E+03
       393  23  7.679395E+05 -9.817352E+02  1.145024E+04 -1.349598E+04 -1.135418E+04 -1.978561E+04
       393  24  7.711137E+05 -1.178009E+03  6.850151E+03 -2.246917E+04 -5.254278E+03 -2.027716E+04
       393  25  1.276676E+06  1.463956E+05  1.484236E+05 -3.125852E+04 -3.326011E+04 -6.371445E+03
       393  26  1.233732E+06  1.132891E+05  1.175677E+05 -1.623991E+04 -1.688331E+04 -1.978883E+04
       393  27  1.198893E+06  1.035615E+05  1.032228E+05 -1.918590E+04 -5.201645E+02 -2.027333E+04
       394   1  3.767359E+05 -9.505647E+04 -8.358748E+04 -2.218899E+04  5.038712E+03  1.772948E+04
       394   2  4.145672E+05 -8.711314E+04 -7.727232E+04 -1.343125E+04  4.026421E+03  1.644779E+04
       394   3  4.529567E+05 -7.777662E+04 -6.993298E+04 -2.281597E+04  3.013413E+03  1.457880E+04
       394   4  7.698538E+05  1.333248E+03  5.490076E+03 -2.251380E+04  4.258075E+03  1.772829E+04
       394   5  7.695394E+05 -1.233680E+02  2.933263E+03 -1.344260E+04  2.779596E+03  1.644665E+04
       394   6  7.698623E+05 -1.063170E+02  1.723645E+03 -2.251320E+04  1.300460E+03  1.457787E+04
       394   7  1.163115E+06  9.771233E+04  9.455767E+04 -2.283884E+04  3.476948E+03  1.772710E+04
       394   8  1.124628E+06  8.685775E+04  8.313077E+04 -1.345397E+04  1.532064E+03  1.644551E+04
       394   9  1.086861E+06  7.755709E+04  7.337383E+04 -2.221028E+04 -4.133578E+02  1.457694E+04
       394  10  3.767358E+05 -9.505681E+04 -8.358811E+04 -2.218906E+04 -7.239936E-12  8.538217E-12
       394  11  4.145671E+05 -8.711343E+04 -7.727286E+04 -1.343131E+04 -6.197094E-11  1.233719E-10
       394  12  4.529566E+05 -7.777685E+04 -6.993340E+04 -2.281601E+04  2.504573E-10  1.712885E-10
       394  13  7.698536E+05  1.332905E+03  5.489451E+03 -2.251386E+04 -2.872866E-10 -3.039037E-11
       394  14  7.695393E+05 -1.236607E+02  2.932740E+03 -1.344264E+04 -7.712721E-11  7.330618E-11
       394  15  7.698622E+05 -1.065458E+02  1.723243E+03 -2.251322E+04 -1.498401E-10  1.161512E-10
       394  16  1.163115E+06  9.771198E+04  9.455705E+04 -2.283889E+04  5.149436E-10 -1.684012E-11
       394  17  1.124628E+06  8.685746E+04  8.313026E+04 -1.345399E+04 -2.139868E-10  1.496208E-10
       394  18  1.086861E+06  7.755686E+04  7.337343E+04 -2.221027E+04 -2.456814E-10  2.688691E-11
       394  19  3.767359E+05 -9.505647E+04 -8.358748E+04 -2.218899E+04 -5.038712E+03 -1.772948E+04
       394  20  4.145672E+05 -8.711314E+04 -7.727232E+04 -1.343125E+04 -4.026421E+03 -1.644779E+04
       394  21  4.529567E+05 -7.777662E+04 -6.993298E+04 -2.281597E+04 -3.013413E+03 -1.457880E+04
       394  22  7.698538E+05  1.333248E+03  5.490076E+03 -2.251380E+04 -4.258075E+03 -1.772829E+04
       394  23  7.695394E+05 -1.233680E+02  2.933263E+03 -1.344260E+04 -2.779596E+03 -1.644665E+04
       394  24  7.698623E+05 -1.063170E+02  1.723645E+03 -2.251320E+04 -1.300460E+03 -1.457787E+04
       394  25  1.163115E+06  9.771233E+04  9.455767E+04 -2.283884E+04 -3.476948E+03 -1.772710E+04
       394  26  1.124628E+06  8.685775E+04  8.313077E+04 -1.345397E+04 -1.532064E+03 -1.644551E+04
       394  27  1.086861E+06  7.755709E+04  7.337383E+04 -2.221028E+04  4.133578E+02 -1.457694E+04
       395   1  4.866253E+05 -6.929531E+04 -6.250309E+04 -2.251074E+04  2.556159E+03  1.336530E+04
       395   2  5.242153E+05 -6.017577E+04 -5.464644E+04 -1.352892E+04  2.182476E+03  1.142986E+04
       395   3  5.619121E+05 -5.095841E+04 -4.651490E+04 -2.248821E+04  1.808083E+03  9.473634E+03
       395   4  7.697496E+05  5.880930E+01  1.337954E+03 -2.246868E+04  1.030975E+03  1.336461E+04
       395   5  7.696978E+05 -2.745263E+01  7.870982E+02 -1.349834E+04  6.406367E+02  1.142941E+04
       395   6  7.697549E+05 -1.279733E+01  5.227985E+02 -2.246868E+04  2.496105E+02  9.473439E+03
       395   7  1.052948E+06  6.940743E+04  6.517388E+04 -2.242661E+04 -4.948978E+02  1.336392E+04
       395   8  1.015236E+06  6.011673E+04  5.621678E+04 -1.346775E+04 -9.018062E+02  1.142896E+04
       395   9  9.776377E+05  5.092984E+04  4.755773E+04 -2.244913E+04 -1.309378E+03  9.473244E+03
       395  10  4.866253E+05 -6.929550E+04 -6.250343E+04 -2.251077E+04 -1.164478E-10 -1.341941E-12
       395  11  5.242153E+05 -6.017591E+04 -5.464670E+04 -1.352894E+04 -6.337792E-11  3.459321E-11
       395  12  5.619121E+05 -5.095851E+04 -4.651508E+04 -2.248823E+04 -5.083216E-11  1.379484E-11
       395  13  7.697496E+05  5.861715E+01  1.337617E+03 -2.246869E+04 -2.150476E-10 -8.926744E-11
       395  14  7.696977E+05 -2.759306E+01  7.868519E+02 -1.349835E+04 -6.734485E-11  1.131751E-10
       395  15  7.697549E+05 -1.289375E+01  5.226296E+02 -2.246868E+04 -3.279675E-11 -1.641433E-11
       395  16  1.052948E+06  6.940724E+04  6.517354E+04 -2.242660E+04  5.076286E-11 -2.053323E-11
       395  17  1.015236E+06  6.011659E+04  5.621654E+04 -1.346774E+04  2.365304E-15  1.229422E-10
       395  18  9.776377E+05  5.092975E+04  4.755756E+04 -2.244912E+04  6.136490E-11  6.650552E-11
       395  19  4.866253E+05 -6.929531E+04 -6.250309E+04 -2.251074E+04 -2.556159E+03 -1.336530E+04
       395  20  5.242153E+05 -6.017577E+04 -5.464644E+04 -1.352892E+04 -2.182476E+03 -1.142986E+04
       395  21  5.619121E+05 -5.095841E+04 -4.651490E+04 -2.248821E+04 -1.808083E+03 -9.473634E+03
       395  22  7.697496E+05  5.880930E+01  1.337954E+03 -2.246868E+04 -1.030975E+03 -1.336461E+04
       395  23  7.696978E+05 -2.745263E+01  7.870982E+02 -1.349834E+04 -6.406367E+02 -1.142941E+04
       395  24  7.697549E+05 -1.279733E+01  5.227985E+02 -2.246868E+04 -2.496105E+02 -9.473439E+03
       395  25  1.052948E+06  6.940743E+04  6.517388E+04 -2.242661E+04  4.948978E+02 -1.336392E+04
       395  26  1.015236E+06  6.011673E+04  5.621678E+04 -1.346775E+04  9.018062E+02 -1.142896E+04
       395  27  9.776377E+05  5.092984E+04  4.755773E+04 -2.244913E+04  1.309378E+03 -9.473244E+03
       396   1  5.953358E+05 -4.271199E+04 -3.881964E+04 -2.243772E+04  1.707717E+03  8.332652E+03
       396   2  6.326665E+05 -3.358605E+04 -3.053552E+04 -1.352439E+04  1.502479E+03  6.382989E+03
       396   3  6.700344E+05 -2.444712E+04 -2.211342E+04 -2.241579E+04  1.296839E+03  4.435872E+03
       396   4  7.697415E+05 -2.753336E+00  4.523199E+02 -2.243842E+04  1.614891E+02  8.332580E+03
       396   5  7.697254E+05 -6.187689E+00  4.112781E+02 -1.353617E+04 -4.182842E+01  6.383054E+03
       396   6  7.697443E+05  2.974012E+00  5.067762E+02 -2.243842E+04 -2.455368E+02  4.436078E+03
       396   7  9.441754E+05  4.270440E+04  3.972235E+04 -2.243911E+04 -1.385168E+03  8.332508E+03
       396   8  9.068017E+05  3.357239E+04  3.135688E+04 -1.354795E+04 -1.586474E+03  6.383118E+03
       396   9  8.694634E+05  2.445239E+04  2.312634E+04 -2.246104E+04 -1.788158E+03  4.436285E+03
       396  10  5.953358E+05 -4.271206E+04 -3.881977E+04 -2.243773E+04  4.626180E-11 -3.334269E-11
       396  11  6.326665E+05 -3.358610E+04 -3.053560E+04 -1.352439E+04  7.540607E-11 -3.922291E-11
       396  12  6.700344E+05 -2.444715E+04 -2.211346E+04 -2.241580E+04  6.254648E-11 -1.502581E-10
       396  13  7.697415E+05 -2.827927E+00  4.521893E+02 -2.243842E+04  2.883141E-11  7.118296E-11
       396  14  7.697254E+05 -6.231457E+00  4.112015E+02 -1.353617E+04 -1.100216E-12 -4.068924E-11
       396  15  7.697443E+05  2.952857E+00  5.067391E+02 -2.243841E+04  1.946470E-10 -1.185144E-10
       396  16  9.441754E+05  4.270433E+04  3.972221E+04 -2.243910E+04  2.265653E-11  4.203668E-11
       396  17  9.068017E+05  3.357234E+04  3.135680E+04 -1.354794E+04  1.194485E-10 -7.742219E-11
       396  18  8.694634E+05  2.445237E+04  2.312630E+04 -2.246104E+04 -3.722884E-11 -1.702120E-10
       396  19  5.953358E+05 -4.271199E+04 -3.881964E+04 -2.243772E+04 -1.707717E+03 -8.332652E+03
       396  20  6.326665E+05 -3.358605E+04 -3.053552E+04 -1.352439E+04 -1.502479E+03 -6.382989E+03
       396  21  6.700344E+05 -2.444712E+04 -2.211342E+04 -2.241579E+04 -1.296839E+03 -4.435872E+03
       396  22  7.697415E+05 -2.753336E+00  4.523199E+02 -2.243842E+04 -1.614891E+02 -8.332580E+03
       396  23  7.697254E+05 -6.187689E+00  4.112781E+02 -1.353617E+04  4.182842E+01 -6.383054E+03
       396  24  7.697443E+05  2.974012E+00  5.067762E+02 -2.243842E+04  2.455368E+02 -4.436078E+03
       396  25  9.441754E+05  4.270440E+04  3.972235E+04 -2.243911E+04  1.385168E+03 -8.332508E+03
       396  26  9.068017E+05  3.357239E+04  3.135688E+04 -1.354795E+04  1.586474E+03 -6.383118E+03
       396  27  8.694634E+05  2.445239E+04  2.312634E+04 -2.246104E+04  1.788158E+03 -4.436285E+03
       397   1  7.032932E+05 -1.625844E+04 -1.428861E+04 -2.239925E+04  1.193654E+03  3.304142E+03
       397   2  7.404833E+05 -7.169996E+03 -5.634149E+03 -1.351880E+04  7.138631E+02  1.361543E+03
       397   3  7.777409E+05  1.959733E+03  3.341042E+03 -2.238053E+04  2.339614E+02 -5.794314E+02
       397   4  7.697525E+05  2.013528E+00  6.087745E+02 -2.242456E+04 -3.469354E+02  3.304401E+03
       397   5  7.697197E+05 -7.463058E+00  9.666768E+02 -1.355349E+04 -8.254987E+02  1.361829E+03
       397   6  7.697529E+05  2.422824E+01  1.644519E+03 -2.242455E+04 -1.304144E+03 -5.791136E+02
       397   7  8.362159E+05  1.626216E+04  1.550589E+04 -2.244987E+04 -1.887688E+03  3.304660E+03
       397   8  7.989568E+05  7.155013E+03  7.567457E+03 -1.358818E+04 -2.364932E+03  1.362115E+03
       397   9  7.617649E+05 -1.911280E+03 -5.199978E+01 -2.246857E+04 -2.842231E+03 -5.787956E+02
       397  10  7.032932E+05 -1.625845E+04 -1.428863E+04 -2.239926E+04 -2.294979E-10 -1.482196E-10
       397  11  7.404833E+05 -7.169999E+03 -5.634153E+03 -1.351880E+04  1.323656E-10 -1.167959E-11
       397  12  7.777409E+05  1.959733E+03  3.341041E+03 -2.238053E+04  1.703634E-10  3.351235E-11
       397  13  7.697525E+05  2.001766E+00  6.087537E+02 -2.242456E+04  3.324278E-11 -1.086654E-10
       397  14  7.697197E+05 -7.465232E+00  9.666720E+02 -1.355349E+04 -1.694120E-10 -3.820177E-11
       397  15  7.697529E+05  2.422743E+01  1.644515E+03 -2.242455E+04  9.821096E-11 -1.624411E-10
       397  16  8.362159E+05  1.626215E+04  1.550586E+04 -2.244986E+04  6.396203E-11 -1.256210E-10
       397  17  7.989568E+05  7.155009E+03  7.567443E+03 -1.358817E+04 -7.882283E-11 -1.671727E-11
       397  18  7.617649E+05 -1.911282E+03 -5.201558E+01 -2.246857E+04 -2.596542E-10 -1.427689E-10
       397  19  7.032932E+05 -1.625844E+04 -1.428861E+04 -2.239925E+04 -1.193654E+03 -3.304142E+03
       397  20  7.404833E+05 -7.169996E+03 -5.634149E+03 -1.351880E+04 -7.138631E+02 -1.361543E+03
       397  21  7.777409E+05  1.959733E+03  3.341042E+03 -2.238053E+04 -2.339614E+02  5.794314E+02
       397  22  7.697525E+05  2.013528E+00  6.087745E+02 -2.242456E+04  3.469354E+02 -3.304401E+03
       397  23  7.697197E+05 -7.463058E+00  9.666768E+02 -1.355349E+04  8.254987E+02 -1.361829E+03
       397  24  7.697529E+05  2.422824E+01  1.644519E+03 -2.242455E+04  1.304144E+03  5.791136E+02
       397  25  8.362159E+05  1.626216E+04  1.550589E+04 -2.244987E+04  1.887688E+03 -3.304660E+03
       397  26  7.989568E+05  7.155013E+03  7.567457E+03 -1.358818E+04  2.364932E+03 -1.362115E+03
       397  27  7.617649E+05 -1.911280E+03 -5.199978E+01 -2.246857E+04  2.842231E+03  5.787956E+02
       398   1  8.110210E+05  1.009061E+04  1.155692E+04 -2.230595E+04 -1.018893E+02 -1.711428E+03
       398   2  8.481003E+05  1.916474E+04  2.142361E+04 -1.348594E+04 -1.957581E+03 -3.650875E+03
       398   3  8.855486E+05  2.875923E+04  3.262618E+04 -2.242592E+04 -3.813137E+03 -5.574025E+03
       398   4  7.698192E+05 -2.418987E+01  2.148055E+03 -2.242857E+04 -1.646116E+03 -1.711124E+03
       398   5  7.696348E+05 -5.730731E+01  3.707708E+03 -1.354846E+04 -3.488700E+03 -3.650656E+03
       398   6  7.698165E+05  4.279702E+02  6.594536E+03 -2.242848E+04 -5.331039E+03 -5.573884E+03
       398   7  7.286189E+05 -1.013911E+04 -7.260909E+03 -2.255118E+04 -3.190241E+03 -1.710821E+03
       398   8  6.911750E+05 -1.927977E+04 -1.400858E+04 -1.361098E+04 -5.019627E+03 -3.650436E+03
       398   9  6.540969E+05 -2.790420E+04 -1.943795E+04 -2.243104E+04 -6.848660E+03 -5.573743E+03
       398  10  8.110210E+05  1.009061E+04  1.155691E+04 -2.230595E+04 -1.023313E-10 -6.131966E-12
       398  11  8.481002E+05  1.916472E+04  2.142358E+04 -1.348595E+04  1.333890E-10 -1.736758E-11
       398  12  8.855486E+05  2.875919E+04  3.262610E+04 -2.242594E+04  9.575761E-11 -4.253272E-11
       398  13  7.698192E+05 -2.419374E+01  2.148045E+03 -2.242857E+04 -6.274460E-11 -2.593225E-10
       398  14  7.696347E+05 -5.732489E+01  3.707660E+03 -1.354848E+04 -3.154090E-11  2.099461E-12
       398  15  7.698165E+05  4.279292E+02  6.594424E+03 -2.242850E+04  8.598882E-11 -1.386142E-10
       398  16  7.286189E+05 -1.013911E+04 -7.260934E+03 -2.255118E+04 -9.814726E-11 -4.847931E-11
       398  17  6.911749E+05 -1.927979E+04 -1.400865E+04 -1.361099E+04 -3.877610E-11 -2.391655E-11
       398  18  6.540968E+05 -2.790425E+04 -1.943810E+04 -2.243107E+04 -1.834033E-10  3.977981E-11
       398  19  8.110210E+05  1.009061E+04  1.155692E+04 -2.230595E+04  1.018893E+02  1.711428E+03
       398  20  8.481003E+05  1.916474E+04  2.142361E+04 -1.348594E+04  1.957581E+03  3.650875E+03
       398  21  8.855486E+05  2.875923E+04  3.262618E+04 -2.242592E+04  3.813137E+03  5.574025E+03
       398  22  7.698192E+05 -2.418987E+01  2.148055E+03 -2.242857E+04  1.646116E+03  1.711124E+03
       398  23  7.696348E+05 -5.730731E+01  3.707708E+03 -1.354846E+04  3.488700E+03  3.650656E+03
       398  24  7.698165E+05  4.279702E+02  6.594536E+03 -2.242848E+04  5.331039E+03  5.573884E+03
       398  25  7.286189E+05 -1.013911E+04 -7.260909E+03 -2.255118E+04  3.190241E+03  1.710821E+03
       398  26  6.911750E+05 -1.927977E+04 -1.400858E+04 -1.361098E+04  5.019627E+03  3.650436E+03
       398  27  6.540969E+05 -2.790420E+04 -1.943795E+04 -2.243104E+04  6.848660E+03  5.573743E+03
       399   1  9.194317E+05  3.613136E+04  4.231967E+04 -2.121442E+04 -5.024028E+03 -6.750414E+03
       399   2  9.554516E+05  4.525050E+04  5.690008E+04 -1.411961E+04 -1.278623E+04 -8.625168E+03
       399   3  9.943774E+05  6.188947E+04  7.841153E+04 -2.486475E+04 -2.054859E+04 -1.010534E+04
       399   4  7.703669E+05 -4.029568E+02  8.570046E+03 -2.244633E+04 -6.666325E+03 -6.750335E+03
       399   5  7.689370E+05 -4.434418E+02  1.476464E+04 -1.352620E+04 -1.411369E+04 -8.625319E+03
       399   6  7.703577E+05  6.982655E+03  2.767343E+04 -2.244622E+04 -2.156074E+04 -1.010571E+04
       399   7  6.213227E+05 -3.693879E+04 -2.518100E+04 -2.367794E+04 -8.308233E+03 -6.750249E+03
       399   8  5.824547E+05 -4.613977E+04 -2.737303E+04 -1.293297E+04 -1.544075E+04 -8.625472E+03
       399   9  5.463846E+05 -4.792759E+04 -2.306789E+04 -2.002858E+04 -2.257254E+04 -1.010608E+04
       399  10  9.194316E+05  3.613130E+04  4.231954E+04 -2.121445E+04 -9.872496E-11 -4.066403E-11
       399  11  9.554514E+05  4.525038E+04  5.689964E+04 -1.411970E+04  2.384962E-10 -3.535409E-11
       399  12  9.943769E+05  6.188924E+04  7.841055E+04 -2.486491E+04  1.926063E-11  1.419610E-11
       399  13  7.703668E+05 -4.030177E+02  8.569877E+03 -2.244637E+04  1.374227E-10  2.469971E-11
       399  14  7.689368E+05 -4.435751E+02  1.476413E+04 -1.352630E+04  1.271808E-10  8.731118E-11
       399  15  7.703572E+05  6.982421E+03  2.767237E+04 -2.244640E+04 -5.904206E-11 -3.694401E-11
       399  16  6.213226E+05 -3.693886E+04 -2.518121E+04 -2.367798E+04 -5.974597E-11  1.795768E-11
       399  17  5.824544E+05 -4.613992E+04 -2.737362E+04 -1.293308E+04 -2.569222E-10 -1.752396E-11
       399  18  5.463840E+05 -4.792783E+04 -2.306904E+04 -2.002876E+04 -2.561979E-11  3.593569E-11
       399  19  9.194317E+05  3.613136E+04  4.231967E+04 -2.121442E+04  5.024028E+03  6.750414E+03
       399  20  9.554516E+05  4.525050E+04  5.690008E+04 -1.411961E+04  1.278623E+04  8.625168E+03
       399  21  9.943774E+05  6.188947E+04  7.841153E+04 -2.486475E+04  2.054859E+04  1.010534E+04
       399  22  7.703669E+05 -4.029568E+02  8.570046E+03 -2.244633E+04  6.666325E+03  6.750335E+03
       399  23  7.689370E+05 -4.434418E+02  1.476464E+04 -1.352620E+04  1.411369E+04  8.625319E+03
       399  24  7.703577E+05  6.982655E+03  2.767343E+04 -2.244622E+04  2.156074E+04  1.010571E+04
       399  25  6.213227E+05 -3.693879E+04 -2.518100E+04 -2.367794E+04  8.308233E+03  6.750249E+03
       399  26  5.824547E+05 -4.613977E+04 -2.737303E+04 -1.293297E+04  1.544075E+04  8.625472E+03
       399  27  5.463846E+05 -4.792759E+04 -2.306789E+04 -2.002858E+04  2.257254E+04  1.010608E+04
       400   1  1.034438E+06  5.745248E+04  9.263420E+04 -6.826706E+03 -2.292737E+04 -1.217539E+04
       400   2  1.056126E+06  6.777509E+04  1.251192E+05 -2.876010E+04 -6.062499E+04 -1.246911E+04
       400   3  1.110285E+06  1.882275E+05  2.096611E+05 -6.840944E+04 -9.832793E+04 -4.093755E+03
       400   4  7.766817E+05 -5.669500E+03  3.453810E+04 -2.241104E+04 -2.658648E+04 -1.217548E+04
       400   5  7.610132E+05 -4.635215E+03  5.784364E+04 -1.356792E+04 -5.739904E+04 -1.247035E+04
       400   6  7.766351E+05  1.053600E+05  1.284453E+05 -2.243840E+04 -8.821416E+04 -4.098036E+03
       400   7  5.189877E+05 -6.879512E+04 -2.356206E+04 -3.798885E+04 -3.024408E+04 -1.217539E+04
       400   8  4.659815E+05 -7.705067E+04 -9.437442E+03  1.616987E+03 -5.417460E+04 -1.247143E+04
       400   9  4.430913E+05  2.249224E+04  4.722291E+04  2.350791E+04 -7.810579E+04 -4.100824E+03
       400  10  1.034437E+06  5.745218E+04  9.263293E+04 -6.826930E+03 -1.473164E-10  7.615554E-11
       400  11  1.056122E+06  6.777394E+04  1.251120E+05 -2.876071E+04 -1.148743E-10  2.309771E-11
       400  12  1.110275E+06  1.882249E+05  2.096430E+05 -6.840976E+04  1.925870E-10  6.739553E-11
       400  13  7.766809E+05 -5.669849E+03  3.453650E+04 -2.241130E+04 -3.370836E-13  7.032496E-11
       400  14  7.610096E+05 -4.636265E+03  5.783716E+04 -1.356850E+04  1.259958E-10  1.682304E-10
       400  15  7.766268E+05  1.053579E+05  1.284307E+05 -2.243869E+04 -3.793321E-10  8.107146E-13
       400  16  5.189867E+05 -6.879552E+04 -2.356406E+04 -3.798915E+04  3.585784E-10  9.972324E-11
       400  17  4.659783E+05 -7.705163E+04 -9.443245E+03  1.616443E+03  1.164977E-10  3.878348E-10
       400  18  4.430848E+05  2.249058E+04  4.721142E+04  2.350766E+04  8.574007E-11  1.715938E-10
       400  19  1.034438E+06  5.745248E+04  9.263420E+04 -6.826706E+03  2.292737E+04  1.217539E+04
       400  20  1.056126E+06  6.777509E+04  1.251192E+05 -2.876010E+04  6.062499E+04  1.246911E+04
       400  21  1.110285E+06  1.882275E+05  2.096611E+05 -6.840944E+04  9.832793E+04  4.093755E+03
       400  22  7.766817E+05 -5.669500E+03  3.453810E+04 -2.241104E+04  2.658648E+04  1.217548E+04
       400  23  7.610132E+05 -4.635215E+03  5.784364E+04 -1.356792E+04  5.739904E+04  1.247035E+04
       400  24  7.766351E+05  1.053600E+05  1.284453E+05 -2.243840E+04  8.821416E+04  4.098036E+03
       400  25  5.189877E+05 -6.879512E+04 -2.356206E+04 -3.798885E+04  3.024408E+04  1.217539E+04
       400  26  4.659815E+05 -7.705067E+04 -9.437442E+03  1.616987E+03  5.417460E+04  1.247143E+04
       400  27  4.430913E+05  2.249224E+04  4.722291E+04  2.350791E+04  7.810579E+04  4.100824E+03
       401   1 -2.257322E+05 -9.732641E+04 -9.399142E+04 -1.946338E+04 -8.216962E+03  5.140233E+03
       401   2 -1.892120E+05 -9.257114E+04 -8.273615E+04 -1.251860E+04 -1.379977E+03  1.594461E+04
       401   3 -1.524586E+05 -8.361618E+04 -7.486961E+04 -2.256362E+04  5.460705E+03  1.610277E+04
       401   4  1.873932E+05  5.426853E+03  6.641757E+03 -2.175336E+04  4.553136E+03  5.143913E+03
       401   5  1.865495E+05 -2.736164E+02  2.984237E+03 -1.325814E+04  2.960579E+03  1.594466E+04
       401   6  1.874013E+05 -3.120868E+02  1.791959E+03 -2.175212E+04  1.371441E+03  1.610209E+04
       401   7  6.006747E+05  1.081676E+05  1.072632E+05 -2.404487E+04  1.733171E+04  5.147498E+03
       401   8  5.624420E+05  9.201413E+04  8.869548E+04 -1.399813E+04  7.303739E+03  1.594469E+04
       401   9  5.273686E+05  8.298409E+04  7.844620E+04 -2.094016E+04 -2.720041E+03  1.610140E+04
       401  10 -2.257323E+05 -9.732646E+04 -9.399159E+04 -1.946334E+04 -4.217178E-11  3.505200E-11
       401  11 -1.892121E+05 -9.257142E+04 -8.273663E+04 -1.251858E+04  4.951093E-11 -2.191325E-10
       401  12 -1.524587E+05 -8.361647E+04 -7.487015E+04 -2.256369E+04 -8.679847E-11 -1.255223E-10
       401  13  1.873932E+05  5.426819E+03  6.641669E+03 -2.175338E+04 -2.750119E-10 -3.787506E-11
       401  14  1.865495E+05 -2.738918E+02  2.983743E+03 -1.325818E+04 -2.692707E-10 -9.088123E-14
       401  15  1.874012E+05 -3.123658E+02  1.791468E+03 -2.175214E+04 -2.497268E-10 -1.532657E-10
       401  16  6.006744E+05  1.081675E+05  1.072625E+05 -2.404495E+04  3.929354E-10  1.498085E-10
       401  17  5.624419E+05  9.201385E+04  8.869491E+04 -1.399822E+04 -2.539789E-10 -4.058608E-11
       401  18  5.273685E+05  8.298381E+04  7.844570E+04 -2.094013E+04 -2.350532E-10 -9.205830E-13
       401  19 -2.257322E+05 -9.732641E+04 -9.399142E+04 -1.946338E+04  8.216962E+03 -5.140233E+03
       401  20 -1.892120E+05 -9.257114E+04 -8.273615E+04 -1.251860E+04  1.379977E+03 -1.594461E+04
       401  21 -1.524586E+05 -8.361618E+04 -7.486961E+04 -2.256362E+04 -5.460705E+03 -1.610277E+04
       401  22  1.873932E+05  5.426853E+03  6.641757E+03 -2.175336E+04 -4.553136E+03 -5.143913E+03
       401  23  1.865495E+05 -2.736164E+02  2.984237E+03 -1.325814E+04 -2.960579E+03 -1.594466E+04
       401  24  1.874013E+05 -3.120868E+02  1.791959E+03 -2.175212E+04 -1.371441E+03 -1.610209E+04
       401  25  6.006747E+05  1.081676E+05  1.072632E+05 -2.404487E+04 -1.733171E+04 -5.147498E+03
       401  26  5.624420E+05  9.201413E+04  8.869548E+04 -1.399813E+04 -7.303739E+03 -1.594469E+04
       401  27  5.273686E+05  8.298409E+04  7.844620E+04 -2.094016E+04  2.720041E+03 -1.610140E+04
       402   1 -1.200449E+05 -7.500213E+04 -6.819372E+04 -2.169633E+04  1.958233E+03  1.385809E+04
       402   2 -8.368932E+04 -6.640570E+04 -6.042518E+04 -1.309952E+04  1.956422E+03  1.254190E+04
       402   3 -4.722110E+04 -5.748049E+04 -5.256677E+04 -2.184888E+04  1.953883E+03  1.073653E+04
       402   4  1.870690E+05  3.454371E+02  1.437271E+03 -2.183162E+04  1.110050E+03  1.385765E+04
       402   5  1.869827E+05 -3.415532E+01  7.726565E+02 -1.315879E+04  7.206696E+02  1.254171E+04
       402   6  1.870745E+05 -1.781593E+01  4.668729E+02 -2.183166E+04  3.305559E+02  1.073668E+04
       402   7  4.942705E+05  7.568650E+04  7.106218E+04 -2.196697E+04  2.614509E+02  1.385722E+04
       402   8  4.577228E+05  6.633236E+04  6.196579E+04 -1.321809E+04 -5.156164E+02  1.254151E+04
       402   9  4.214211E+05  5.744109E+04  5.349699E+04 -2.181443E+04 -1.293378E+03  1.073682E+04
       402  10 -1.200449E+05 -7.500233E+04 -6.819409E+04 -2.169635E+04 -1.680361E-10 -1.612902E-11
       402  11 -8.368937E+04 -6.640587E+04 -6.042548E+04 -1.309954E+04 -1.782934E-10 -2.042894E-11
       402  12 -4.722113E+04 -5.748062E+04 -5.256699E+04 -2.184890E+04 -1.306084E-12  3.158096E-11
       402  13  1.870689E+05  3.452306E+02  1.436908E+03 -2.183163E+04 -2.998197E-10 -1.284547E-10
       402  14  1.869827E+05 -3.432438E+01  7.723599E+02 -1.315880E+04 -1.894842E-12 -1.546268E-10
       402  15  1.870745E+05 -1.793976E+01  4.666560E+02 -2.183166E+04 -3.112026E-10 -9.928756E-11
       402  16  4.942704E+05  7.568629E+04  7.106181E+04 -2.196698E+04 -1.280818E-10  2.375231E-12
       402  17  4.577228E+05  6.633219E+04  6.196550E+04 -1.321808E+04 -1.613996E-10  1.254918E-10
       402  18  4.214211E+05  5.744096E+04  5.349677E+04 -2.181442E+04  1.672241E-11  5.794181E-11
       402  19 -1.200449E+05 -7.500213E+04 -6.819372E+04 -2.169633E+04 -1.958233E+03 -1.385809E+04
       402  20 -8.368932E+04 -6.640570E+04 -6.042518E+04 -1.309952E+04 -1.956422E+03 -1.254190E+04
       402  21 -4.722110E+04 -5.748049E+04 -5.256677E+04 -2.184888E+04 -1.953883E+03 -1.073653E+04
       402  22  1.870690E+05  3.454371E+02  1.437271E+03 -2.183162E+04 -1.110050E+03 -1.385765E+04
       402  23  1.869827E+05 -3.415532E+01  7.726565E+02 -1.315879E+04 -7.206696E+02 -1.254171E+04
       402  24  1.870745E+05 -1.781593E+01  4.668729E+02 -2.183166E+04 -3.305559E+02 -1.073668E+04
       402  25  4.942705E+05  7.568650E+04  7.106218E+04 -2.196697E+04 -2.614509E+02 -1.385722E+04
       402  26  4.577228E+05  6.633236E+04  6.196579E+04 -1.321809E+04  5.156164E+02 -1.254151E+04
       402  27  4.214211E+05  5.744109E+04  5.349699E+04 -2.181443E+04  1.293378E+03 -1.073682E+04
       403   1 -1.478097E+04 -4.943830E+04 -4.514163E+04 -2.178132E+04  1.729217E+03  9.579062E+03
       403   2  2.153660E+04 -4.057459E+04 -3.715195E+04 -1.312257E+04  1.625492E+03  7.708505E+03
       403   3  5.787596E+04 -3.167452E+04 -2.908621E+04 -2.178718E+04  1.521300E+03  5.816425E+03
       403   4  1.870435E+05  2.555314E+01  3.706092E+02 -2.182662E+04  2.563190E+02  9.579303E+03
       403   5  1.870335E+05  1.342090E-01  2.427422E+02 -1.316508E+04  1.354751E+02  7.708911E+03
       403   6  1.870469E+05  1.411766E+01  2.028517E+02 -2.182662E+04  1.417022E+01  5.817004E+03
       403   7  3.889059E+05  4.948662E+04  4.588025E+04 -2.187192E+04 -1.217053E+03  9.579544E+03
       403   8  3.525558E+05  4.057298E+04  3.763568E+04 -1.320760E+04 -1.354935E+03  7.709318E+03
       403   9  3.162333E+05  3.170161E+04  2.949084E+04 -2.186607E+04 -1.493270E+03  5.817583E+03
       403  10 -1.478100E+04 -4.943840E+04 -4.514181E+04 -2.178134E+04 -1.025930E-10 -2.690672E-11
       403  11  2.153659E+04 -4.057465E+04 -3.715206E+04 -1.312258E+04  5.033474E-11  1.760390E-10
       403  12  5.787595E+04 -3.167456E+04 -2.908628E+04 -2.178719E+04  5.455304E-11 -3.099759E-10
       403  13  1.870435E+05  2.545457E+01  3.704366E+02 -2.182662E+04 -1.321662E-10 -3.049504E-11
       403  14  1.870334E+05  7.038393E-02  2.426305E+02 -1.316508E+04 -1.831587E-10  1.272033E-10
       403  15  1.870469E+05  1.408132E+01  2.027881E+02 -2.182662E+04  8.215386E-11  2.247552E-10
       403  16  3.889059E+05  4.948652E+04  4.588008E+04 -2.187191E+04 -1.350029E-10 -2.719724E-11
       403  17  3.525557E+05  4.057291E+04  3.763557E+04 -1.320759E+04 -1.209882E-10 -3.144457E-10
       403  18  3.162333E+05  3.170157E+04  2.949078E+04 -2.186607E+04 -1.293100E-10 -1.944065E-10
       403  19 -1.478097E+04 -4.943830E+04 -4.514163E+04 -2.178132E+04 -1.729217E+03 -9.579062E+03
       403  20  2.153660E+04 -4.057459E+04 -3.715195E+04 -1.312257E+04 -1.625492E+03 -7.708505E+03
       403  21  5.787596E+04 -3.167452E+04 -2.908621E+04 -2.178718E+04 -1.521300E+03 -5.816425E+03
       403  22  1.870435E+05  2.555314E+01  3.706092E+02 -2.182662E+04 -2.563190E+02 -9.579303E+03
       403  23  1.870335E+05  1.342090E-01  2.427422E+02 -1.316508E+04 -1.354751E+02 -7.708911E+03
       403  24  1.870469E+05  1.411766E+01  2.028517E+02 -2.182662E+04 -1.417022E+01 -5.817004E+03
       403  25  3.889059E+05  4.948662E+04  4.588025E+04 -2.187192E+04  1.217053E+03 -9.579544E+03
       403  26  3.525558E+05  4.057298E+04  3.763568E+04 -1.320760E+04  1.354935E+03 -7.709318E+03
       403  27  3.162333E+05  3.170161E+04  2.949084E+04 -2.186607E+04  1.493270E+03 -5.817583E+03
       404   1  9.028258E+04 -2.368386E+04 -2.155225E+04 -2.178808E+04  1.476459E+03  4.710863E+03
       404   2  1.265687E+05 -1.481675E+04 -1.340391E+04 -1.314273E+04  1.348156E+03  2.817246E+03
       404   3  1.628591E+05 -5.930804E+03 -5.171672E+03 -2.180044E+04  1.219682E+03  9.230328E+02
       404   4  1.870442E+05  1.705011E+01  2.051200E+02 -2.182215E+04 -2.329051E+01  4.711510E+03
       404   5  1.870430E+05  8.637359E+00  2.590673E+02 -1.317067E+04 -1.521059E+02  2.817950E+03
       404   6  1.870454E+05  1.936766E+01  3.974693E+02 -2.182215E+04 -2.810860E+02  9.237992E+02
       404   7  2.838146E+05  2.371732E+04  2.196190E+04 -2.185623E+04 -1.523271E+03  4.712156E+03
       404   8  2.475206E+05  1.483377E+04  1.392182E+04 -1.319861E+04 -1.652513E+03  2.818655E+03
       404   9  2.112323E+05  5.969499E+03  5.966580E+03 -2.184386E+04 -1.781912E+03  9.245658E+02
       404  10  9.028257E+04 -2.368388E+04 -2.155230E+04 -2.178809E+04 -3.097455E-10 -1.396391E-10
       404  11  1.265687E+05 -1.481676E+04 -1.340393E+04 -1.314273E+04 -1.186152E-10  5.082424E-11
       404  12  1.628591E+05 -5.930805E+03 -5.171677E+03 -2.180044E+04  2.473902E-10 -4.043926E-11
       404  13  1.870442E+05  1.702627E+01  2.050783E+02 -2.182215E+04  5.282824E-10 -5.012404E-10
       404  14  1.870430E+05  8.628825E+00  2.590523E+02 -1.317067E+04 -1.010881E-10  9.825914E-11
       404  15  1.870454E+05  1.936672E+01  3.974675E+02 -2.182215E+04  1.591224E-10 -1.360386E-10
       404  16  2.838146E+05  2.371729E+04  2.196186E+04 -2.185622E+04 -2.494682E-10 -6.223970E-11
       404  17  2.475206E+05  1.483376E+04  1.392180E+04 -1.319861E+04  1.526091E-10 -1.025043E-10
       404  18  2.112323E+05  5.969497E+03  5.966573E+03 -2.184386E+04 -2.683805E-10 -2.993997E-10
       404  19  9.028258E+04 -2.368386E+04 -2.155225E+04 -2.178808E+04 -1.476459E+03 -4.710863E+03
       404  20  1.265687E+05 -1.481675E+04 -1.340391E+04 -1.314273E+04 -1.348156E+03 -2.817246E+03
       404  21  1.628591E+05 -5.930804E+03 -5.171672E+03 -2.180044E+04 -1.219682E+03 -9.230328E+02
       404  22  1.870442E+05  1.705011E+01  2.051200E+02 -2.182215E+04  2.329051E+01 -4.711510E+03
       404  23  1.870430E+05  8.637359E+00  2.590673E+02 -1.317067E+04  1.521059E+02 -2.817950E+03
       404  24  1.870454E+05  1.936766E+01  3.974693E+02 -2.182215E+04  2.810860E+02 -9.237992E+02
       404  25  2.838146E+05  2.371732E+04  2.196190E+04 -2.185623E+04  1.523271E+03 -4.712156E+03
       404  26  2.475206E+05  1.483377E+04  1.392182E+04 -1.319861E+04  1.652513E+03 -2.818655E+03
       404  27  2.112323E+05  5.969499E+03  5.966580E+03 -2.184386E+04  1.781912E+03 -9.245658E+02
       405   1  1.952617E+05  2.050962E+03  2.467566E+03 -2.180780E+04  1.136909E+03 -1.795561E+02
       405   2  2.315242E+05  1.090832E+04  1.091266E+04 -1.315719E+04  7.095993E+02 -2.073428E+03
       405   3  2.678371E+05  1.981425E+04  1.964357E+04 -2.180821E+04  2.823809E+02 -3.966628E+03
       405   4  1.870555E+05  1.832310E+01  5.087350E+02 -2.182187E+04 -3.638401E+02 -1.787847E+02
       405   5  1.870307E+05  1.389318E+00  8.608669E+02 -1.317102E+04 -7.906392E+02 -2.072703E+03
       405   6  1.870546E+05  3.290488E+01  1.498390E+03 -2.182186E+04 -1.217322E+03 -3.965945E+03
       405   7  1.788494E+05 -2.014320E+03 -1.450092E+03 -2.183595E+04 -1.864570E+03 -1.780131E+02
       405   8  1.425391E+05 -1.090567E+04 -9.191049E+03 -1.318484E+04 -2.290771E+03 -2.071978E+03
       405   9  1.062781E+05 -1.974889E+04 -1.664720E+04 -2.183551E+04 -2.716832E+03 -3.965262E+03
       405  10  1.952617E+05  2.050962E+03  2.467563E+03 -2.180780E+04 -6.195252E-11  2.790682E-10
       405  11  2.315242E+05  1.090831E+04  1.091266E+04 -1.315719E+04  1.153781E-10  6.907037E-10
       405  12  2.678371E+05  1.981424E+04  1.964354E+04 -2.180821E+04  3.618023E-10 -3.253364E-10
       405  13  1.870555E+05  1.832303E+01  5.087347E+02 -2.182187E+04  4.006969E-10 -2.108415E-12
       405  14  1.870307E+05  1.384536E+00  8.608576E+02 -1.317102E+04  1.852252E-10 -3.259201E-10
       405  15  1.870546E+05  3.288759E+01  1.498357E+03 -2.182186E+04 -7.692533E-11  7.038526E-11
       405  16  1.788494E+05 -2.014321E+03 -1.450099E+03 -2.183595E+04 -3.992460E-10  3.160720E-12
       405  17  1.425391E+05 -1.090568E+04 -9.191067E+03 -1.318485E+04  5.866713E-11 -2.801786E-10
       405  18  1.062781E+05 -1.974891E+04 -1.664724E+04 -2.183552E+04 -5.160020E-10  5.306772E-11
       405  19  1.952617E+05  2.050962E+03  2.467566E+03 -2.180780E+04 -1.136909E+03  1.795561E+02
       405  20  2.315242E+05  1.090832E+04  1.091266E+04 -1.315719E+04 -7.095993E+02  2.073428E+03
       405  21  2.678371E+05  1.981425E+04  1.964357E+04 -2.180821E+04 -2.823809E+02  3.966628E+03
       405  22  1.870555E+05  1.832310E+01  5.087350E+02 -2.182187E+04  3.638401E+02  1.787847E+02
       405  23  1.870307E+05  1.389318E+00  8.608669E+02 -1.317102E+04  7.906392E+02  2.072703E+03
       405  24  1.870546E+05  3.290488E+01  1.498390E+03 -2.182186E+04  1.217322E+03  3.965945E+03
       405  25  1.788494E+05 -2.014320E+03 -1.450092E+03 -2.183595E+04  1.864570E+03  1.780131E+02
       405  26  1.425391E+05 -1.090567E+04 -9.191049E+03 -1.318484E+04  2.290771E+03  2.071978E+03
       405  27  1.062781E+05 -1.974889E+04 -1.664720E+04 -2.183551E+04  2.716832E+03  3.965262E+03
       406   1  3.003100E+05  2.775547E+04  2.764251E+04 -2.174516E+04 -2.316957E+01 -5.071683E+03
       406   2  3.364661E+05  3.660046E+04  3.718793E+04 -1.314289E+04 -1.734688E+03 -6.962608E+03
       406   3  3.729633E+05  4.593600E+04  4.796819E+04 -2.185913E+04 -3.445892E+03 -8.832841E+03
       406   4  1.871172E+05 -1.175278E+01  1.967294E+03 -2.182571E+04 -1.529948E+03 -5.071057E+03
       406   5  1.869470E+05 -5.000105E+01  3.409866E+03 -1.316624E+04 -3.224739E+03 -6.962140E+03
       406   6  1.871140E+05  3.996036E+02  6.075984E+03 -2.182553E+04 -4.919118E+03 -8.832523E+03
       406   7  7.393628E+04 -2.777986E+04 -2.370874E+04 -2.190624E+04 -3.036454E+03 -5.070431E+03
       406   8  3.744872E+04 -3.670199E+04 -3.036962E+04 -1.318958E+04 -4.714435E+03 -6.961671E+03
       406   9  1.296739E+03 -4.513916E+04 -3.581843E+04 -2.179194E+04 -6.391907E+03 -8.832204E+03
       406  10  3.003100E+05  2.775544E+04  2.764246E+04 -2.174516E+04 -3.272508E-12 -4.080731E-10
       406  11  3.364661E+05  3.660040E+04  3.718783E+04 -1.314290E+04  2.891738E-11 -4.595401E-11
       406  12  3.729632E+05  4.593592E+04  4.796803E+04 -2.185915E+04 -2.992390E-10  1.067854E-10
       406  13  1.871172E+05 -1.178103E+01  1.967242E+03 -2.182571E+04  5.717699E-11  8.218640E-11
       406  14  1.869470E+05 -5.005590E+01  3.409755E+03 -1.316626E+04  3.360587E-11 -2.027185E-10
       406  15  1.871139E+05  3.995133E+02  6.075792E+03 -2.182557E+04  2.748061E-10 -1.297932E-10
       406  16  7.393626E+04 -2.777989E+04 -2.370880E+04 -2.190625E+04 -2.913858E-10  1.498768E-10
       406  17  3.744869E+04 -3.670205E+04 -3.036975E+04 -1.318961E+04  2.258084E-10  3.350971E-10
       406  18  1.296674E+03 -4.513926E+04 -3.581865E+04 -2.179199E+04  4.740902E-10  2.351424E-11
       406  19  3.003100E+05  2.775547E+04  2.764251E+04 -2.174516E+04  2.316957E+01  5.071683E+03
       406  20  3.364661E+05  3.660046E+04  3.718793E+04 -1.314289E+04  1.734688E+03  6.962608E+03
       406  21  3.729633E+05  4.593600E+04  4.796819E+04 -2.185913E+04  3.445892E+03  8.832841E+03
       406  22  1.871172E+05 -1.175278E+01  1.967294E+03 -2.182571E+04  1.529948E+03  5.071057E+03
       406  23  1.869470E+05 -5.000105E+01  3.409866E+03 -1.316624E+04  3.224739E+03  6.962140E+03
       406  24  1.871140E+05  3.996036E+02  6.075984E+03 -2.182553E+04  4.919118E+03  8.832523E+03
       406  25  7.393628E+04 -2.777986E+04 -2.370874E+04 -2.190624E+04  3.036454E+03  5.070431E+03
       406  26  3.744872E+04 -3.670199E+04 -3.036962E+04 -1.318958E+04  4.714435E+03  6.961671E+03
       406  27  1.296739E+03 -4.513916E+04 -3.581843E+04 -2.179194E+04  6.391907E+03  8.832204E+03
       407   1  4.059451E+05  5.316361E+04  5.731025E+04 -2.073151E+04 -4.531396E+03 -9.987581E+03
       407   2  4.409996E+05  6.202370E+04  7.118106E+04 -1.373985E+04 -1.177137E+04 -1.179418E+04
       407   3  4.787597E+05  7.784644E+04  9.150827E+04 -2.408678E+04 -1.901101E+04 -1.313102E+04
       407   4  1.876230E+05 -3.673915E+02  7.899254E+03 -2.183045E+04 -6.149153E+03 -9.987338E+03
       407   5  1.862992E+05 -4.121352E+02  1.361198E+04 -1.316040E+04 -1.301436E+04 -1.179429E+04
       407   6  1.876168E+05  6.442714E+03  2.552312E+04 -2.182929E+04 -1.987881E+04 -1.313144E+04
       407   7 -3.065496E+04 -5.390167E+04 -4.151480E+04 -2.292899E+04 -7.766345E+03 -9.987089E+03
       407   8 -6.834093E+04 -6.285242E+04 -4.396127E+04 -1.258118E+04 -1.425684E+04 -1.179441E+04
       407   9 -1.034475E+05 -6.496683E+04 -4.046749E+04 -1.957288E+04 -2.074620E+04 -1.313186E+04
       407  10  4.059451E+05  5.316350E+04  5.731002E+04 -2.073155E+04  7.006121E-11  1.389481E-10
       407  11  4.409994E+05  6.202351E+04  7.118054E+04 -1.373997E+04  8.822206E-11 -2.527751E-10
       407  12  4.787592E+05  7.784616E+04  9.150727E+04 -2.408698E+04  9.907940E-11 -4.479905E-11
       407  13  1.876229E+05 -3.675088E+02  7.898996E+03 -2.183050E+04  1.394360E-10  1.200268E-10
       407  14  1.862990E+05 -4.123300E+02  1.361140E+04 -1.316052E+04 -1.336917E-10  1.499605E-10
       407  15  1.876163E+05  6.442423E+03  2.552205E+04 -2.182950E+04  1.096428E-10 -9.496284E-11
       407  16 -3.065505E+04 -5.390179E+04 -4.151510E+04 -2.292905E+04 -2.649597E-10  9.271747E-11
       407  17 -6.834119E+04 -6.285263E+04 -4.396192E+04 -1.258131E+04  1.086985E-10 -1.766387E-11
       407  18 -1.034480E+05 -6.496713E+04 -4.046863E+04 -1.957310E+04  1.216665E-10 -1.283022E-10
       407  19  4.059451E+05  5.316361E+04  5.731025E+04 -2.073151E+04  4.531396E+03  9.987581E+03
       407  20  4.409996E+05  6.202370E+04  7.118106E+04 -1.373985E+04  1.177137E+04  1.179418E+04
       407  21  4.787597E+05  7.784644E+04  9.150827E+04 -2.408678E+04  1.901101E+04  1.313102E+04
       407  22  1.876230E+05 -3.673915E+02  7.899254E+03 -2.183045E+04  6.149153E+03  9.987338E+03
       407  23  1.862992E+05 -4.121352E+02  1.361198E+04 -1.316040E+04  1.301436E+04  1.179429E+04
       407  24  1.876168E+05  6.442714E+03  2.552312E+04 -2.182929E+04  1.987881E+04  1.313144E+04
       407  25 -3.065496E+04 -5.390167E+04 -4.151480E+04 -2.292899E+04  7.766345E+03  9.987089E+03
       407  26 -6.834093E+04 -6.285242E+04 -4.396127E+04 -1.258118E+04  1.425684E+04  1.179441E+04
       407  27 -1.034475E+05 -6.496683E+04 -4.046749E+04 -1.957288E+04  2.074620E+04  1.313186E+04
       408   1  5.173289E+05  7.412177E+04  1.048851E+05 -7.404991E+03 -2.052654E+04 -1.533279E+04
       408   2  5.388069E+05  8.404921E+04  1.354042E+05 -2.727409E+04 -5.706588E+04 -1.525601E+04
       408   3  5.905816E+05  1.959113E+05  2.151961E+05 -6.416156E+04 -9.361089E+04 -4.944383E+03
       408   4  1.934495E+05 -5.233060E+03  3.185626E+04 -2.175434E+04 -2.451249E+04 -1.533275E+04
       408   5  1.789912E+05 -4.290924E+03  5.335409E+04 -1.325441E+04 -5.292800E+04 -1.525746E+04
       408   6  1.934344E+05  9.720504E+04  1.185026E+05 -2.177050E+04 -8.134637E+04 -4.948024E+03
       408   7 -1.303320E+05 -8.459430E+04 -4.117913E+04 -3.609613E+04 -2.849638E+04 -1.533252E+04
       408   8 -1.807041E+05 -9.263928E+04 -2.870431E+04  7.570840E+02 -4.879248E+04 -1.525873E+04
       408   9 -2.035649E+05 -1.505990E+03  2.179919E+04  2.059340E+04 -6.908967E+04 -4.949993E+03
       408  10  5.173284E+05  7.412140E+04  1.048839E+05 -7.405245E+03 -5.886686E-11  6.776790E-11
       408  11  5.388033E+05  8.404809E+04  1.353977E+05 -2.727479E+04  1.215580E-10 -2.838939E-13
       408  12  5.905722E+05  1.959089E+05  2.151796E+05 -6.416193E+04 -1.052051E-10 -1.736684E-11
       408  13  1.934488E+05 -5.233473E+03  3.185469E+04 -2.175464E+04  5.836091E-11  2.897183E-11
       408  14  1.789881E+05 -4.291926E+03  5.334839E+04 -1.325506E+04  9.537491E-11  2.316620E-10
       408  15  1.934273E+05  9.720324E+04  1.184901E+05 -2.177082E+04 -1.862591E-11 -1.304137E-11
       408  16 -1.303329E+05 -8.459477E+04 -4.118110E+04 -3.609648E+04 -2.042698E-10 -5.503261E-11
       408  17 -1.807067E+05 -9.264017E+04 -2.870922E+04  7.564843E+02 -4.319547E-10  1.422078E-10
       408  18 -2.035700E+05 -1.507299E+03  2.179017E+04  2.059312E+04  5.631568E-13 -1.006190E-10
       408  19  5.173289E+05  7.412177E+04  1.048851E+05 -7.404991E+03  2.052654E+04  1.533279E+04
       408  20  5.388069E+05  8.404921E+04  1.354042E+05 -2.727409E+04  5.706588E+04  1.525601E+04
       408  21  5.905816E+05  1.959113E+05  2.151961E+05 -6.416156E+04  9.361089E+04  4.944383E+03
       408  22  1.934495E+05 -5.233060E+03  3.185626E+04 -2.175434E+04  2.451249E+04  1.533275E+04
       408  23  1.789912E+05 -4.290924E+03  5.335409E+04 -1.325441E+04  5.292800E+04  1.525746E+04
       408  24  1.934344E+05  9.720504E+04  1.185026E+05 -2.177050E+04  8.134637E+04  4.948024E+03
       408  25 -1.303320E+05 -8.459430E+04 -4.117913E+04 -3.609613E+04  2.849638E+04  1.533252E+04
       408  26 -1.807041E+05 -9.263928E+04 -2.870431E+04  7.570840E+02  4.879248E+04  1.525873E+04
       408  27 -2.035649E+05 -1.505990E+03  2.179919E+04  2.059340E+04  6.908967E+04  4.949993E+03
       409   1 -1.225586E+06 -1.648268E+05 -1.849626E+05 -6.009044E+04 -9.039674E+04  3.258298E+03
       409   2 -1.182023E+06 -5.407459E+04 -1.082462E+05 -2.473699E+04 -5.615752E+04  1.005136E+04
       409   3 -1.168606E+06 -4.611330E+04 -7.954393E+04 -2.636078E+03 -2.191467E+04  9.909247E+03
       409   4 -9.592540E+05 -9.847152E+04 -1.199800E+05 -1.711703E+04 -8.230747E+04  3.254080E+03
       409   5 -9.446372E+05  4.311725E+03 -5.401321E+04 -1.050076E+04 -5.354362E+04  1.005026E+04
       409   6 -9.592030E+05  5.274568E+03 -3.224069E+04 -1.713889E+04 -2.477806E+04  9.909289E+03
       409   7 -6.928535E+05 -3.211446E+04 -5.500123E+04  2.587490E+04 -7.421472E+04  3.250986E+03
       409   8 -7.071982E+05  6.269488E+04  2.162367E+02  3.740971E+03 -5.092872E+04  1.004929E+04
       409   9 -7.497585E+05  5.666022E+04  1.505987E+04 -3.164665E+04 -2.764241E+04  9.909466E+03
       409  10 -1.225594E+06 -1.648290E+05 -1.849780E+05 -6.009020E+04  1.073618E-10  6.960401E-11
       409  11 -1.182027E+06 -5.407555E+04 -1.082523E+05 -2.473653E+04  2.106223E-10 -1.917432E-10
       409  12 -1.168607E+06 -4.611354E+04 -7.954502E+04 -2.635903E+03 -3.196405E-10  6.025551E-11
       409  13 -9.592613E+05 -9.847335E+04 -1.199927E+05 -1.711681E+04 -1.417871E-10 -2.312224E-11
       409  14 -9.446403E+05  4.310845E+03 -5.401879E+04 -1.050032E+04  4.395578E-10 -4.390367E-10
       409  15 -9.592036E+05  5.274297E+03 -3.224203E+04 -1.713869E+04  1.092796E-10  7.389577E-11
       409  16 -6.928595E+05 -3.211595E+04 -5.501161E+04  2.587509E+04  1.452712E-10 -1.395535E-10
       409  17 -7.072010E+05  6.269408E+04  2.111672E+02  3.741383E+03 -3.502663E-11 -1.837346E-10
       409  18 -7.497594E+05  5.665991E+04  1.505825E+04 -3.164642E+04  3.661956E-10 -9.021560E-11
       409  19 -1.225586E+06 -1.648268E+05 -1.849626E+05 -6.009044E+04  9.039674E+04 -3.258298E+03
       409  20 -1.182023E+06 -5.407459E+04 -1.082462E+05 -2.473699E+04  5.615752E+04 -1.005136E+04
       409  21 -1.168606E+06 -4.611330E+04 -7.954393E+04 -2.636078E+03  2.191467E+04 -9.909247E+03
       409  22 -9.592540E+05 -9.847152E+04 -1.199800E+05 -1.711703E+04  8.230747E+04 -3.254080E+03
       409  23 -9.446372E+05  4.311725E+03 -5.401321E+04 -1.050076E+04  5.354362E+04 -1.005026E+04
       409  24 -9.592030E+05  5.274568E+03 -3.224069E+04 -1.713889E+04  2.477806E+04 -9.909289E+03
       409  25 -6.928535E+05 -3.211446E+04 -5.500123E+04  2.587490E+04  7.421472E+04 -3.250986E+03
       409  26 -7.071982E+05  6.269488E+04  2.162367E+02  3.740971E+03  5.092872E+04 -1.004929E+04
       409  27 -7.497585E+05  5.666022E+04  1.505987E+04 -3.164665E+04  2.764241E+04 -9.909466E+03
       410   1 -1.137010E+06 -5.167298E+04 -6.753333E+04 -1.950904E+04 -1.933348E+04  8.300112E+03
       410   2 -1.106880E+06 -3.762282E+04 -4.884582E+04 -1.092833E+04 -1.213121E+04  7.180129E+03
       410   3 -1.079435E+06 -3.059916E+04 -3.660775E+04 -1.606880E+04 -4.928969E+03  5.734977E+03
       410   4 -9.533114E+05 -6.549832E+03 -2.583393E+04 -1.723688E+04 -2.009470E+04  8.299839E+03
       410   5 -9.519869E+05  4.048381E+02 -1.377955E+04 -1.037638E+04 -1.314775E+04  7.180008E+03
       410   6 -9.533027E+05  3.787147E+02 -7.995431E+03 -1.723687E+04 -6.201151E+03  5.735008E+03
       410   7 -7.695809E+05  3.857100E+04  1.586330E+04 -1.496405E+04 -2.085614E+04  8.299561E+03
       410   8 -7.970716E+05  3.843085E+04  2.128519E+04 -9.824279E+03 -1.416454E+04  7.179886E+03
       410   9 -8.271559E+05  3.135550E+04  2.061587E+04 -1.840519E+04 -7.473588E+03  5.735044E+03
       410  10 -1.137011E+06 -5.167316E+04 -6.753416E+04 -1.950891E+04 -1.736691E-11  2.852094E-11
       410  11 -1.106880E+06 -3.762292E+04 -4.884620E+04 -1.092826E+04 -3.902126E-10  1.205386E-10
       410  12 -1.079435E+06 -3.059920E+04 -3.660786E+04 -1.606877E+04  8.680077E-11  3.294802E-11
       410  13 -9.533118E+05 -6.550015E+03 -2.583482E+04 -1.723675E+04 -1.167247E-11  1.063069E-10
       410  14 -9.519871E+05  4.047363E+02 -1.377997E+04 -1.037630E+04 -2.318687E-16  2.875326E-11
       410  15 -9.533028E+05  3.786691E+02 -7.995566E+03 -1.723685E+04  3.155524E-10  1.362526E-10
       410  16 -7.695814E+05  3.857081E+04  1.586235E+04 -1.496391E+04 -1.264388E-10  4.530940E-12
       410  17 -7.970718E+05  3.843074E+04  2.128471E+04 -9.824198E+03  3.151170E-10 -2.284256E-11
       410  18 -8.271559E+05  3.135545E+04  2.061570E+04 -1.840516E+04 -1.296418E-11  4.420800E-11
       410  19 -1.137010E+06 -5.167298E+04 -6.753333E+04 -1.950904E+04  1.933348E+04 -8.300112E+03
       410  20 -1.106880E+06 -3.762282E+04 -4.884582E+04 -1.092833E+04  1.213121E+04 -7.180129E+03
       410  21 -1.079435E+06 -3.059916E+04 -3.660775E+04 -1.606880E+04  4.928969E+03 -5.734977E+03
       410  22 -9.533114E+05 -6.549832E+03 -2.583393E+04 -1.723688E+04  2.009470E+04 -8.299839E+03
       410  23 -9.519869E+05  4.048381E+02 -1.377955E+04 -1.037638E+04  1.314775E+04 -7.180008E+03
       410  24 -9.533027E+05  3.787147E+02 -7.995431E+03 -1.723687E+04  6.201151E+03 -5.735008E+03
       410  25 -7.695809E+05  3.857100E+04  1.586330E+04 -1.496405E+04  2.085614E+04 -8.299561E+03
       410  26 -7.970716E+05  3.843085E+04  2.128519E+04 -9.824279E+03  1.416454E+04 -7.179886E+03
       410  27 -8.271559E+05  3.135550E+04  2.061587E+04 -1.840519E+04  7.473588E+03 -5.735044E+03
       411   1 -1.053080E+06 -2.500174E+04 -2.877010E+04 -1.724467E+04 -3.779668E+03  4.821065E+03
       411   2 -1.023907E+06 -1.744148E+04 -1.959394E+04 -1.027170E+04 -2.045559E+03  3.323983E+03
       411   3 -9.950811E+05 -1.036250E+04 -1.166885E+04 -1.713816E+04 -3.114987E+02  1.809733E+03
       411   4 -9.527917E+05 -3.984300E+02 -6.155222E+03 -1.726320E+04 -4.957393E+03  4.821136E+03
       411   5 -9.526179E+05  5.793971E+01 -3.465526E+03 -1.034350E+04 -3.236637E+03  3.324110E+03
       411   6 -9.527894E+05  3.537481E+01 -2.017490E+03 -1.726313E+04 -1.516009E+03  1.809920E+03
       411   7 -8.524936E+05  2.420419E+04  1.645901E+04 -1.728173E+04 -6.135306E+03  4.821207E+03
       411   8 -8.813235E+05  1.755701E+04  1.266256E+04 -1.041531E+04 -4.427850E+03  3.324238E+03
       411   9 -9.104961E+05  1.043313E+04  7.633754E+03 -1.738812E+04 -2.720600E+03  1.810107E+03
       411  10 -1.053081E+06 -2.500177E+04 -2.877017E+04 -1.724465E+04 -3.279225E-10 -1.711245E-10
       411  11 -1.023907E+06 -1.744150E+04 -1.959397E+04 -1.027169E+04 -5.167729E-11 -5.978433E-11
       411  12 -9.950811E+05 -1.036250E+04 -1.166885E+04 -1.713816E+04  2.886637E-10  2.019834E-11
       411  13 -9.527918E+05 -3.984616E+02 -6.155312E+03 -1.726318E+04 -2.652688E-11  4.637001E-11
       411  14 -9.526179E+05  5.792503E+01 -3.465567E+03 -1.034349E+04 -3.066285E-10 -1.278547E-10
       411  15 -9.527894E+05  3.537067E+01 -2.017501E+03 -1.726313E+04 -6.734875E-11 -1.129795E-10
       411  16 -8.524937E+05  2.420416E+04  1.645890E+04 -1.728171E+04  1.082447E-10  1.029644E-10
       411  17 -8.813236E+05  1.755700E+04  1.266251E+04 -1.041530E+04 -4.448077E-11  3.060595E-11
       411  18 -9.104961E+05  1.043312E+04  7.633734E+03 -1.738811E+04  5.730579E-11 -7.964933E-11
       411  19 -1.053080E+06 -2.500174E+04 -2.877010E+04 -1.724467E+04  3.779668E+03 -4.821065E+03
       411  20 -1.023907E+06 -1.744148E+04 -1.959394E+04 -1.027170E+04  2.045559E+03 -3.323983E+03
       411  21 -9.950811E+05 -1.036250E+04 -1.166885E+04 -1.713816E+04  3.114987E+02 -1.809733E+03
       411  22 -9.527917E+05 -3.984300E+02 -6.155222E+03 -1.726320E+04  4.957393E+03 -4.821136E+03
       411  23 -9.526179E+05  5.793971E+01 -3.465526E+03 -1.034350E+04  3.236637E+03 -3.324110E+03
       411  24 -9.527894E+05  3.537481E+01 -2.017490E+03 -1.726313E+04  1.516009E+03 -1.809920E+03
       411  25 -8.524936E+05  2.420419E+04  1.645901E+04 -1.728173E+04  6.135306E+03 -4.821207E+03
       411  26 -8.813235E+05  1.755701E+04  1.266256E+04 -1.041531E+04  4.427850E+03 -3.324238E+03
       411  27 -9.104961E+05  1.043313E+04  7.633754E+03 -1.738812E+04  2.720600E+03 -1.810107E+03
       412   1 -9.690588E+05 -4.001693E+03 -5.164449E+03 -1.722670E+04  5.859001E+00  9.242015E+02
       412   2 -9.399656E+05  3.138657E+03  1.939570E+03 -1.031028E+04  4.702154E+02 -5.938591E+02
       412   3 -9.109447E+05  1.024709E+04  8.731761E+03 -1.725997E+04  9.346214E+02 -2.112106E+03
       412   4 -9.527285E+05 -1.002045E+01 -1.554019E+03 -1.726911E+04 -1.194921E+03  9.244025E+02
       412   5 -9.526920E+05  1.493718E+01 -9.392232E+02 -1.033604E+04 -7.307240E+02 -5.936698E+02
       412   6 -9.527285E+05  8.067111E+00 -6.360896E+02 -1.726910E+04 -2.664985E+02 -2.111925E+03
       412   7 -9.363980E+05  3.981634E+03  2.056400E+03 -1.731152E+04 -2.395733E+03  9.246037E+02
       412   8 -9.654182E+05 -3.108793E+03 -3.818021E+03 -1.036180E+04 -1.931639E+03 -5.934803E+02
       412   9 -9.945106E+05 -1.023108E+04 -1.000405E+04 -1.727822E+04 -1.467538E+03 -2.111744E+03
       412  10 -9.690588E+05 -4.001693E+03 -5.164450E+03 -1.722670E+04  8.825694E-11 -3.483352E-11
       412  11 -9.399656E+05  3.138657E+03  1.939569E+03 -1.031028E+04  1.901308E-10  7.851932E-11
       412  12 -9.109447E+05  1.024709E+04  8.731751E+03 -1.725997E+04 -1.041731E-10  1.710370E-10
       412  13 -9.527285E+05 -1.002175E+01 -1.554023E+03 -1.726910E+04  5.022011E-10  7.870284E-11
       412  14 -9.526920E+05  1.493665E+01 -9.392248E+02 -1.033604E+04 -2.058074E-10 -1.418994E-10
       412  15 -9.527285E+05  8.062305E+00 -6.360981E+02 -1.726910E+04 -2.218296E-10  8.361384E-11
       412  16 -9.363980E+05  3.981632E+03  2.056388E+03 -1.731151E+04 -5.843722E-10 -4.399982E-10
       412  17 -9.654182E+05 -3.108795E+03 -3.818029E+03 -1.036180E+04  4.030280E-11 -2.166377E-11
       412  18 -9.945106E+05 -1.023108E+04 -1.000406E+04 -1.727823E+04 -1.557459E-10  1.872406E-11
       412  19 -9.690588E+05 -4.001693E+03 -5.164449E+03 -1.722670E+04 -5.859001E+00 -9.242015E+02
       412  20 -9.399656E+05  3.138657E+03  1.939570E+03 -1.031028E+04 -4.702154E+02  5.938591E+02
       412  21 -9.109447E+05  1.024709E+04  8.731761E+03 -1.725997E+04 -9.346214E+02  2.112106E+03
       412  22 -9.527285E+05 -1.002045E+01 -1.554019E+03 -1.726911E+04  1.194921E+03 -9.244025E+02
       412  23 -9.526920E+05  1.493718E+01 -9.392232E+02 -1.033604E+04  7.307240E+02  5.936698E+02
       412  24 -9.527285E+05  8.067111E+00 -6.360896E+02 -1.726910E+04  2.664985E+02  2.111925E+03
       412  25 -9.363980E+05  3.981634E+03  2.056400E+03 -1.731152E+04  2.395733E+03 -9.246037E+02
       412  26 -9.654182E+05 -3.108793E+03 -3.818021E+03 -1.036180E+04  1.931639E+03  5.934803E+02
       412  27 -9.945106E+05 -1.023108E+04 -1.000405E+04 -1.727822E+04  1.467538E+03  2.111744E+03
       413   1 -8.849958E+05  1.664713E+04  1.484152E+04 -1.725964E+04  1.041658E+03 -2.995418E+03
       413   2 -8.560246E+05  2.373575E+04  2.132412E+04 -1.035954E+04  1.307347E+03 -4.509887E+03
       413   3 -8.270894E+05  3.081127E+04  2.763036E+04 -1.727614E+04  1.573256E+03 -6.020150E+03
       413   4 -9.527211E+05  7.363959E+00 -5.627042E+02 -1.725815E+04 -1.581803E+02 -2.995265E+03
       413   5 -9.527035E+05  6.774141E+00 -5.445935E+02 -1.034973E+04  1.107875E+02 -4.509813E+03
       413   6 -9.527227E+05 -7.334683E+00 -7.049960E+02 -1.725815E+04  3.799643E+02 -6.020151E+03
       413   7 -1.020442E+06 -1.663272E+04 -1.596723E+04 -1.725665E+04 -1.357889E+03 -2.995112E+03
       413   8 -1.049374E+06 -2.372285E+04 -2.241391E+04 -1.033992E+04 -1.085587E+03 -4.509738E+03
       413   9 -1.078341E+06 -3.082702E+04 -2.904135E+04 -1.724016E+04 -8.130881E+02 -6.020151E+03
       413  10 -8.849959E+05  1.664712E+04  1.484151E+04 -1.725964E+04 -7.525428E-11  1.736982E-11
       413  11 -8.560247E+05  2.373573E+04  2.132408E+04 -1.035953E+04 -2.981406E-10 -4.296088E-11
       413  12 -8.270894E+05  3.081123E+04  2.763028E+04 -1.727614E+04 -2.326294E-10 -2.225883E-10
       413  13 -9.527211E+05  7.354322E+00 -5.627211E+02 -1.725815E+04  4.063121E-10  2.301054E-10
       413  14 -9.527035E+05  6.752307E+00 -5.446317E+02 -1.034973E+04  3.443465E-10  3.428294E-11
       413  15 -9.527227E+05 -7.373622E+00 -7.050643E+02 -1.725815E+04 -5.953034E-10 -1.315124E-10
       413  16 -1.020442E+06 -1.663273E+04 -1.596725E+04 -1.725666E+04 -8.812188E-11  1.330380E-10
       413  17 -1.049374E+06 -2.372287E+04 -2.241395E+04 -1.033992E+04  4.323323E-10 -6.107418E-14
       413  18 -1.078341E+06 -3.082706E+04 -2.904142E+04 -1.724016E+04 -1.033527E-10  5.779871E-11
       413  19 -8.849958E+05  1.664713E+04  1.484152E+04 -1.725964E+04 -1.041658E+03  2.995418E+03
       413  20 -8.560246E+05  2.373575E+04  2.132412E+04 -1.035954E+04 -1.307347E+03  4.509887E+03
       413  21 -8.270894E+05  3.081127E+04  2.763036E+04 -1.727614E+04 -1.573256E+03  6.020150E+03
       413  22 -9.527211E+05  7.363959E+00 -5.627042E+02 -1.725815E+04  1.581803E+02  2.995265E+03
       413  23 -9.527035E+05  6.774141E+00 -5.445935E+02 -1.034973E+04 -1.107875E+02  4.509813E+03
       413  24 -9.527227E+05 -7.334683E+00 -7.049960E+02 -1.725815E+04 -3.799643E+02  6.020151E+03
       413  25 -1.020442E+06 -1.663272E+04 -1.596723E+04 -1.725665E+04  1.357889E+03  2.995112E+03
       413  26 -1.049374E+06 -2.372285E+04 -2.241391E+04 -1.033992E+04  1.085587E+03  4.509738E+03
       413  27 -1.078341E+06 -3.082702E+04 -2.904135E+04 -1.724016E+04  8.130881E+02  6.020151E+03
       414   1 -8.013310E+05  3.718882E+04  3.347384E+04 -1.727707E+04  1.716645E+03 -6.899762E+03
       414   2 -7.725837E+05  4.421707E+04  3.935142E+04 -1.040294E+04  2.384271E+03 -8.397949E+03
       414   3 -7.439509E+05  5.106257E+04  4.475192E+04 -1.721532E+04  3.052324E+03 -9.869678E+03
       414   4 -9.527427E+05  1.054516E+01 -8.583298E+02 -1.722924E+04  5.206491E+02 -6.899832E+03
       414   5 -9.526847E+05  1.480319E+01 -1.386699E+03 -1.038587E+04  1.208999E+03 -8.398161E+03
       414   6 -9.527460E+05 -1.674031E+02 -2.406754E+03 -1.722924E+04  1.897746E+03 -9.870027E+03
       414   7 -1.104133E+06 -3.716931E+04 -3.519197E+04 -1.718142E+04 -6.750579E+02 -6.899902E+03
       414   8 -1.132755E+06 -4.418970E+04 -4.212690E+04 -1.036879E+04  3.406430E+01 -8.398374E+03
       414   9 -1.161501E+06 -5.140038E+04 -4.956823E+04 -1.724316E+04  7.435529E+02 -9.870375E+03
       414  10 -8.013310E+05  3.718876E+04  3.347374E+04 -1.727706E+04  1.190873E-10 -6.069493E-11
       414  11 -7.725837E+05  4.421699E+04  3.935128E+04 -1.040293E+04 -6.939013E-11  1.807014E-10
       414  12 -7.439510E+05  5.106246E+04  4.475172E+04 -1.721529E+04  3.301991E-10 -2.716528E-10
       414  13 -9.527428E+05  1.049399E+01 -8.584197E+02 -1.722924E+04 -4.398695E-10  3.572542E-11
       414  14 -9.526847E+05  1.472709E+01 -1.386834E+03 -1.038586E+04 -4.995967E-10  1.249113E-10
       414  15 -9.527461E+05 -1.675086E+02 -2.406944E+03 -1.722922E+04  9.009775E-11 -1.843860E-10
       414  16 -1.104133E+06 -3.716936E+04 -3.519206E+04 -1.718142E+04  2.633010E-10  1.176445E-10
       414  17 -1.132755E+06 -4.418977E+04 -4.212704E+04 -1.036879E+04 -5.671806E-10  1.227367E-10
       414  18 -1.161501E+06 -5.140048E+04 -4.956841E+04 -1.724315E+04 -5.220139E-10 -2.723596E-11
       414  19 -8.013310E+05  3.718882E+04  3.347384E+04 -1.727707E+04 -1.716645E+03  6.899762E+03
       414  20 -7.725837E+05  4.421707E+04  3.935142E+04 -1.040294E+04 -2.384271E+03  8.397949E+03
       414  21 -7.439509E+05  5.106257E+04  4.475192E+04 -1.721532E+04 -3.052324E+03  9.869678E+03
       414  22 -9.527427E+05  1.054516E+01 -8.583298E+02 -1.722924E+04 -5.206491E+02  6.899832E+03
       414  23 -9.526847E+05  1.480319E+01 -1.386699E+03 -1.038587E+04 -1.208999E+03  8.398161E+03
       414  24 -9.527460E+05 -1.674031E+02 -2.406754E+03 -1.722924E+04 -1.897746E+03  9.870027E+03
       414  25 -1.104133E+06 -3.716931E+04 -3.519197E+04 -1.718142E+04  6.750579E+02  6.899902E+03
       414  26 -1.132755E+06 -4.418970E+04 -4.212690E+04 -1.036879E+04 -3.406430E+01  8.398374E+03
       414  27 -1.161501E+06 -5.140038E+04 -4.956823E+04 -1.724316E+04 -7.435529E+02  9.870375E+03
       415   1 -7.186671E+05  5.764355E+04  4.995090E+04 -1.760285E+04  3.665713E+03 -1.078334E+04
       415   2 -6.899356E+05  6.457138E+04  5.406405E+04 -1.017945E+04  6.005942E+03 -1.217881E+04
       415   3 -6.621274E+05  6.885841E+04  5.600115E+04 -1.622408E+04  8.346639E+03 -1.312574E+04
       415   4 -9.529412E+05  1.331802E+02 -3.111356E+03 -1.718093E+04  2.382987E+03 -1.078381E+04
       415   5 -9.524513E+05  1.389020E+02 -5.344120E+03 -1.044635E+04  5.077140E+03 -1.217942E+04
       415   6 -9.529477E+05 -2.558331E+03 -9.999663E+03 -1.718019E+04  7.771657E+03 -1.312638E+04
       415   7 -1.187164E+06 -5.738097E+04 -5.617714E+04 -1.675918E+04  1.100741E+03 -1.078429E+04
       415   8 -1.214903E+06 -6.429833E+04 -6.475672E+04 -1.071314E+04  4.148728E+03 -1.218002E+04
       415   9 -1.243689E+06 -7.398091E+04 -7.600595E+04 -1.813584E+04  7.196940E+03 -1.312703E+04
       415  10 -7.186672E+05  5.764342E+04  4.995066E+04 -1.760282E+04 -2.224747E-11 -2.888540E-10
       415  11 -6.899356E+05  6.457121E+04  5.406370E+04 -1.017939E+04 -1.678622E-10 -2.018265E-10
       415  12 -6.621275E+05  6.885821E+04  5.600069E+04 -1.622400E+04 -5.788459E-10  2.749704E-10
       415  13 -9.529412E+05  1.330538E+02 -3.111585E+03 -1.718091E+04 -1.041503E-10 -2.354501E-10
       415  14 -9.524514E+05  1.387359E+02 -5.344447E+03 -1.044630E+04 -1.803182E-10 -2.095835E-11
       415  15 -9.529478E+05 -2.558532E+03 -1.000010E+04 -1.718011E+04  6.414778E-11  3.678163E-10
       415  16 -1.187164E+06 -5.738110E+04 -5.617736E+04 -1.675917E+04 -1.820417E-10 -2.566729E-10
       415  17 -1.214903E+06 -6.429849E+04 -6.475703E+04 -1.071310E+04 -7.656334E-11 -1.465708E-10
       415  18 -1.243690E+06 -7.398111E+04 -7.600637E+04 -1.813577E+04  4.233168E-10  6.323156E-10
       415  19 -7.186671E+05  5.764355E+04  4.995090E+04 -1.760285E+04 -3.665713E+03  1.078334E+04
       415  20 -6.899356E+05  6.457138E+04  5.406405E+04 -1.017945E+04 -6.005942E+03  1.217881E+04
       415  21 -6.621274E+05  6.885841E+04  5.600115E+04 -1.622408E+04 -8.346639E+03  1.312574E+04
       415  22 -9.529412E+05  1.331802E+02 -3.111356E+03 -1.718093E+04 -2.382987E+03  1.078381E+04
       415  23 -9.524513E+05  1.389020E+02 -5.344120E+03 -1.044635E+04 -5.077140E+03  1.217942E+04
       415  24 -9.529477E+05 -2.558331E+03 -9.999663E+03 -1.718019E+04 -7.771657E+03  1.312638E+04
       415  25 -1.187164E+06 -5.738097E+04 -5.617714E+04 -1.675918E+04 -1.100741E+03  1.078429E+04
       415  26 -1.214903E+06 -6.429833E+04 -6.475672E+04 -1.071314E+04 -4.148728E+03  1.218002E+04
       415  27 -1.243689E+06 -7.398091E+04 -7.600595E+04 -1.813584E+04 -7.196940E+03  1.312703E+04
       416   1 -6.391956E+05  7.953735E+04  5.886699E+04 -2.255580E+04  1.305021E+04 -1.499233E+04
       416   2 -6.064773E+05  8.599819E+04  5.742747E+04 -4.983991E+03  1.663900E+04 -1.459679E+04
       416   3 -5.836682E+05  5.440506E+04  4.415245E+04 -2.195553E+02  2.022141E+04 -4.665122E+03
       416   4 -9.552235E+05  2.013580E+03 -1.247554E+04 -1.704025E+04  9.584707E+03 -1.499421E+04
       416   5 -9.496221E+05  1.637281E+03 -2.090286E+04 -1.062433E+04  2.071586E+04 -1.459525E+04
       416   6 -9.552475E+05 -3.811540E+04 -4.641392E+04 -1.701631E+04  3.184020E+04 -4.657933E+03
       416   7 -1.271158E+06 -7.551694E+04 -8.382441E+04 -1.152754E+04  6.120955E+03 -1.499614E+04
       416   8 -1.292657E+06 -8.273168E+04 -9.924082E+04 -1.626153E+04  2.479049E+04 -1.459378E+04
       416   9 -1.326700E+06 -1.306449E+05 -1.369897E+05 -3.380300E+04  4.345205E+04 -4.651373E+03
       416  10 -6.391958E+05  7.953707E+04  5.886625E+04 -2.255564E+04  4.265313E-10  4.845884E-10
       416  11 -6.064777E+05  8.599788E+04  5.742655E+04 -4.983795E+03  1.463060E-10  2.766165E-10
       416  12 -5.836687E+05  5.440493E+04  4.415164E+04 -2.194793E+02 -3.526319E-11  4.225551E-10
       416  13 -9.552237E+05  2.013314E+03 -1.247613E+04 -1.704013E+04  4.766691E-10 -1.652047E-10
       416  14 -9.496226E+05  1.636937E+03 -2.090407E+04 -1.062408E+04  1.663105E-11  3.614630E-10
       416  15 -9.552486E+05 -3.811570E+04 -4.641587E+04 -1.701619E+04 -1.129982E-10 -1.918806E-10
       416  16 -1.271159E+06 -7.551719E+04 -8.382490E+04 -1.152747E+04  2.800917E-11  6.386790E-10
       416  17 -1.292658E+06 -8.273207E+04 -9.924237E+04 -1.626124E+04 -1.526169E-10 -3.477590E-11
       416  18 -1.326702E+06 -1.306455E+05 -1.369933E+05 -3.380283E+04 -2.884279E-10  5.708676E-10
       416  19 -6.391956E+05  7.953735E+04  5.886699E+04 -2.255580E+04 -1.305021E+04  1.499233E+04
       416  20 -6.064773E+05  8.599819E+04  5.742747E+04 -4.983991E+03 -1.663900E+04  1.459679E+04
       416  21 -5.836682E+05  5.440506E+04  4.415245E+04 -2.195553E+02 -2.022141E+04  4.665122E+03
       416  22 -9.552235E+05  2.013580E+03 -1.247554E+04 -1.704025E+04 -9.584707E+03  1.499421E+04
       416  23 -9.496221E+05  1.637281E+03 -2.090286E+04 -1.062433E+04 -2.071586E+04  1.459525E+04
       416  24 -9.552475E+05 -3.811540E+04 -4.641392E+04 -1.701631E+04 -3.184020E+04  4.657933E+03
       416  25 -1.271158E+06 -7.551694E+04 -8.382441E+04 -1.152754E+04 -6.120955E+03  1.499614E+04
       416  26 -1.292657E+06 -8.273168E+04 -9.924082E+04 -1.626153E+04 -2.479049E+04  1.459378E+04
       416  27 -1.326700E+06 -1.306449E+05 -1.369897E+05 -3.380300E+04 -4.345205E+04  4.651373E+03
       417   1  1.304023E+06  3.193444E+05  4.087155E+05  1.505961E+05  3.261051E+05  4.296609E+03
       417   2  1.287831E+06 -8.803993E+04  1.548063E+05  4.348018E+04  2.156254E+05  1.224464E+04
       417   3  1.389476E+06 -8.175882E+04  7.619949E+04 -8.369383E+04  1.051378E+05  1.162059E+04
       417   4  1.634902E+06  4.011600E+05  4.891788E+05 -2.459518E+04  3.360583E+05  4.211219E+03
       417   5  1.575592E+06 -1.754940E+04  2.203701E+05 -1.443488E+04  2.186894E+05  1.222587E+04
       417   6  1.635218E+06 -2.155769E+04  1.315688E+05 -2.433664E+04  1.013217E+05  1.162856E+04
       417   7  1.965947E+06  4.830827E+05  5.696510E+05 -1.998799E+05  3.460168E+05  4.120265E+03
       417   8  1.863437E+06  5.294800E+04  2.859303E+05 -7.237697E+04  2.217549E+05  1.220654E+04
       417   9  1.881024E+06  3.865251E+04  1.869363E+05  3.504424E+04  9.750421E+04  1.163580E+04
       417  10  1.303909E+06  3.193160E+05  4.085160E+05  1.505950E+05  7.184218E-10 -9.460881E-10
       417  11  1.287781E+06 -8.805253E+04  1.547188E+05  4.347805E+04  2.867190E-10 -1.696422E-10
       417  12  1.389464E+06 -8.176193E+04  7.617851E+04 -8.369482E+04 -1.733011E-09 -4.207584E-10
       417  13  1.634781E+06  4.011297E+05  4.889671E+05 -2.459632E+04  1.128011E-10  2.889450E-10
       417  14  1.575541E+06 -1.756236E+04  2.202802E+05 -1.443703E+04  5.844926E-10 -3.244348E-10
       417  15  1.635207E+06 -2.156059E+04  1.315493E+05 -2.433758E+04 -8.228334E-10 -4.310760E-10
       417  16  1.965818E+06  4.830507E+05  5.694267E+05 -1.998810E+05  3.080714E-10  2.060466E-10
       417  17  1.863384E+06  5.293469E+04  2.858379E+05 -7.237915E+04  7.151698E-10 -1.705710E-10
       417  18  1.881014E+06  3.864982E+04  1.869182E+05  3.504332E+04  2.376598E-09  1.248748E-09
       417  19  1.304023E+06  3.193444E+05  4.087155E+05  1.505961E+05 -3.261051E+05 -4.296609E+03
       417  20  1.287831E+06 -8.803993E+04  1.548063E+05  4.348018E+04 -2.156254E+05 -1.224464E+04
       417  21  1.389476E+06 -8.175882E+04  7.619949E+04 -8.369383E+04 -1.051378E+05 -1.162059E+04
       417  22  1.634902E+06  4.011600E+05  4.891788E+05 -2.459518E+04 -3.360583E+05 -4.211219E+03
       417  23  1.575592E+06 -1.754940E+04  2.203701E+05 -1.443488E+04 -2.186894E+05 -1.222587E+04
       417  24  1.635218E+06 -2.155769E+04  1.315688E+05 -2.433664E+04 -1.013217E+05 -1.162856E+04
       417  25  1.965947E+06  4.830827E+05  5.696510E+05 -1.998799E+05 -3.460168E+05 -4.120265E+03
       417  26  1.863437E+06  5.294800E+04  2.859303E+05 -7.237697E+04 -2.217549E+05 -1.220654E+04
       417  27  1.881024E+06  3.865251E+04  1.869363E+05  3.504424E+04 -9.750421E+04 -1.163580E+04
       418   1  1.402874E+06 -2.441062E+04  5.829637E+04 -1.519217E+04  8.333805E+04  9.424631E+03
       418   2  1.439171E+06 -4.245563E+04  1.868029E+04 -1.223529E+04  5.525906E+04  7.710465E+03
       418   3  1.486232E+06 -3.216417E+04  4.410577E+03 -2.911384E+04  2.717880E+04  5.609307E+03
       418   4  1.611131E+06  2.658845E+04  1.054273E+05 -2.436228E+04  8.215908E+04  9.422700E+03
       418   5  1.605747E+06 -1.676897E+03  5.628651E+04 -1.443992E+04  5.376368E+04  7.709605E+03
       418   6  1.611176E+06 -1.556301E+03  3.270436E+04 -2.435208E+04  2.536886E+04  5.608940E+03
       418   7  1.819429E+06  7.758486E+04  1.525554E+05 -3.353550E+04  8.097971E+04  9.420805E+03
       418   8  1.772349E+06  3.909996E+04  9.389096E+04 -1.664515E+04  5.226790E+04  7.708755E+03
       418   9  1.736134E+06  2.905058E+04  6.099716E+04 -1.958936E+04  2.355855E+04  5.608546E+03
       418  10  1.402866E+06 -2.441258E+04  5.828318E+04 -1.519280E+04  3.577986E-10 -4.799761E-11
       418  11  1.439167E+06 -4.245651E+04  1.867445E+04 -1.223563E+04  6.266737E-10  2.087185E-10
       418  12  1.486231E+06 -3.216440E+04  4.409133E+03 -2.911396E+04 -6.532789E-11 -1.894983E-10
       418  13  1.611124E+06  2.658655E+04  1.054144E+05 -2.436291E+04  2.681583E-10  8.431559E-10
       418  14  1.605744E+06 -1.677735E+03  5.628098E+04 -1.444025E+04  7.800334E-10  3.231529E-10
       418  15  1.611175E+06 -1.556507E+03  3.270309E+04 -2.435220E+04 -6.958630E-10 -6.096452E-10
       418  16  1.819422E+06  7.758301E+04  1.525430E+05 -3.353612E+04 -3.724607E-10  8.254071E-10
       418  17  1.772346E+06  3.909916E+04  9.388573E+04 -1.664547E+04 -2.087818E-11 -2.244493E-10
       418  18  1.736134E+06  2.905040E+04  6.099606E+04 -1.958947E+04 -3.513126E-11 -2.690454E-10
       418  19  1.402874E+06 -2.441062E+04  5.829637E+04 -1.519217E+04 -8.333805E+04 -9.424631E+03
       418  20  1.439171E+06 -4.245563E+04  1.868029E+04 -1.223529E+04 -5.525906E+04 -7.710465E+03
       418  21  1.486232E+06 -3.216417E+04  4.410577E+03 -2.911384E+04 -2.717880E+04 -5.609307E+03
       418  22  1.611131E+06  2.658845E+04  1.054273E+05 -2.436228E+04 -8.215908E+04 -9.422700E+03
       418  23  1.605747E+06 -1.676897E+03  5.628651E+04 -1.443992E+04 -5.376368E+04 -7.709605E+03
       418  24  1.611176E+06 -1.556301E+03  3.270436E+04 -2.435208E+04 -2.536886E+04 -5.608940E+03
       418  25  1.819429E+06  7.758486E+04  1.525554E+05 -3.353550E+04 -8.097971E+04 -9.420805E+03
       418  26  1.772349E+06  3.909996E+04  9.389096E+04 -1.664515E+04 -5.226790E+04 -7.708755E+03
       418  27  1.736134E+06  2.905058E+04  6.099716E+04 -1.958936E+04 -2.355855E+04 -5.608546E+03
       419   1  1.521086E+06 -1.991362E+04  5.454212E+03 -2.438837E+04  2.195263E+04  4.308524E+03
       419   2  1.561692E+06 -1.166677E+04  3.718350E+03 -1.475752E+04  1.488437E+04  2.173333E+03
       419   3  1.603717E+06 -1.477340E+03  7.064895E+03 -2.480446E+04  7.815679E+03  2.221487E+01
       419   4  1.609088E+06  1.604800E+03  2.519723E+04 -2.432043E+04  2.026770E+04  4.308062E+03
       419   5  1.608382E+06 -2.383761E+02  1.425142E+04 -1.448142E+04  1.318578E+04  2.172921E+03
       419   6  1.609097E+06 -1.366621E+02  8.396847E+03 -2.432009E+04  6.103898E+03  2.185486E+01
       419   7  1.697097E+06  2.312269E+04  4.493976E+04 -2.425249E+04  1.858253E+04  4.307599E+03
       419   8  1.655075E+06  1.118987E+04  2.478437E+04 -1.420529E+04  1.148707E+04  2.172507E+03
       419   9  1.614477E+06  1.204016E+03  9.728807E+03 -2.383571E+04  4.392102E+03  2.149220E+01
       419  10  1.521086E+06 -1.991377E+04  5.453274E+03 -2.438845E+04 -4.920958E-10 -4.140039E-10
       419  11  1.561692E+06 -1.166683E+04  3.717926E+03 -1.475755E+04 -1.442148E-09 -7.551004E-10
       419  12  1.603717E+06 -1.477356E+03  7.064781E+03 -2.480446E+04  2.629133E-11 -1.541312E-10
       419  13  1.609087E+06  1.604670E+03  2.519642E+04 -2.432050E+04 -7.049942E-10 -4.063785E-10
       419  14  1.608382E+06 -2.384277E+02  1.425109E+04 -1.448144E+04  1.683948E-10 -5.669622E-11
       419  15  1.609097E+06 -1.366721E+02  8.396777E+03 -2.432009E+04 -1.238695E-09 -5.609180E-10
       419  16  1.697097E+06  2.312258E+04  4.493908E+04 -2.425255E+04 -2.231645E-10 -2.448859E-11
       419  17  1.655074E+06  1.118983E+04  2.478411E+04 -1.420531E+04 -6.218291E-10 -2.505540E-10
       419  18  1.614477E+06  1.204011E+03  9.728771E+03 -2.383571E+04 -2.159921E-10  1.110523E-10
       419  19  1.521086E+06 -1.991362E+04  5.454212E+03 -2.438837E+04 -2.195263E+04 -4.308524E+03
       419  20  1.561692E+06 -1.166677E+04  3.718350E+03 -1.475752E+04 -1.488437E+04 -2.173333E+03
       419  21  1.603717E+06 -1.477340E+03  7.064895E+03 -2.480446E+04 -7.815679E+03 -2.221487E+01
       419  22  1.609088E+06  1.604800E+03  2.519723E+04 -2.432043E+04 -2.026770E+04 -4.308062E+03
       419  23  1.608382E+06 -2.383761E+02  1.425142E+04 -1.448142E+04 -1.318578E+04 -2.172921E+03
       419  24  1.609097E+06 -1.366621E+02  8.396847E+03 -2.432009E+04 -6.103898E+03 -2.185486E+01
       419  25  1.697097E+06  2.312269E+04  4.493976E+04 -2.425249E+04 -1.858253E+04 -4.307599E+03
       419  26  1.655075E+06  1.118987E+04  2.478437E+04 -1.420529E+04 -1.148707E+04 -2.172507E+03
       419  27  1.614477E+06  1.204016E+03  9.728807E+03 -2.383571E+04 -4.392102E+03 -2.149220E+01
       420   1  1.640281E+06  7.764274E+03  1.375314E+04 -2.448178E+04  6.463403E+03 -1.232119E+03
       420   2  1.681479E+06  1.775319E+04  2.058581E+04 -1.455939E+04  4.404905E+03 -3.385663E+03
       420   3  1.722997E+06  2.787437E+04  2.879279E+04 -2.433488E+04  2.346476E+03 -5.544333E+03
       420   4  1.608852E+06  4.835619E+01  6.545969E+03 -2.432476E+04  4.756506E+03 -1.232492E+03
       420   5  1.608693E+06 -6.074342E+01  4.168892E+03 -1.447575E+04  2.693966E+03 -3.386122E+03
       420   6  1.608852E+06 -3.694840E+01  3.168793E+03 -2.432476E+04  6.316290E+02 -5.544872E+03
       420   7  1.577423E+06 -7.667629E+03 -6.612524E+02 -2.416774E+04  3.049695E+03 -1.232865E+03
       420   8  1.535911E+06 -1.787504E+04 -1.224835E+04 -1.439211E+04  9.832247E+02 -3.386582E+03
       420   9  1.494718E+06 -2.794915E+04 -2.245602E+04 -2.431464E+04 -1.082907E+03 -5.545411E+03
       420  10  1.640281E+06  7.764261E+03  1.375306E+04 -2.448178E+04  3.759708E-10 -1.104103E-10
       420  11  1.681479E+06  1.775317E+04  2.058575E+04 -1.455938E+04 -1.196869E-10 -3.113393E-10
       420  12  1.722997E+06  2.787433E+04  2.879272E+04 -2.433487E+04 -4.841980E-10 -2.716458E-10
       420  13  1.608852E+06  4.834851E+01  6.545924E+03 -2.432475E+04 -2.420167E-10 -2.276045E-10
       420  14  1.608693E+06 -6.075768E+01  4.168857E+03 -1.447574E+04 -5.261183E-10 -3.293458E-10
       420  15  1.608852E+06 -3.698155E+01  3.168734E+03 -2.432475E+04  2.181158E-10  2.278029E-10
       420  16  1.577423E+06 -7.667633E+03 -6.612726E+02 -2.416773E+04  1.731085E-10  2.539933E-10
       420  17  1.535911E+06 -1.787505E+04 -1.224837E+04 -1.439211E+04 -5.953074E-10 -5.131719E-10
       420  18  1.494718E+06 -2.794918E+04 -2.245608E+04 -2.431465E+04  2.500177E-10  6.747346E-11
       420  19  1.640281E+06  7.764274E+03  1.375314E+04 -2.448178E+04 -6.463403E+03  1.232119E+03
       420  20  1.681479E+06  1.775319E+04  2.058581E+04 -1.455939E+04 -4.404905E+03  3.385663E+03
       420  21  1.722997E+06  2.787437E+04  2.879279E+04 -2.433488E+04 -2.346476E+03  5.544333E+03
       420  22  1.608852E+06  4.835619E+01  6.545969E+03 -2.432476E+04 -4.756506E+03  1.232492E+03
       420  23  1.608693E+06 -6.074342E+01  4.168892E+03 -1.447575E+04 -2.693966E+03  3.386122E+03
       420  24  1.608852E+06 -3.694840E+01  3.168793E+03 -2.432476E+04 -6.316290E+02  5.544872E+03
       420  25  1.577423E+06 -7.667629E+03 -6.612524E+02 -2.416774E+04 -3.049695E+03  1.232865E+03
       420  26  1.535911E+06 -1.787504E+04 -1.224835E+04 -1.439211E+04 -9.832247E+02  3.386582E+03
       420  27  1.494718E+06 -2.794915E+04 -2.245602E+04 -2.431464E+04  1.082907E+03  5.545411E+03
       421   1  1.760010E+06  3.698308E+04  3.726165E+04 -2.433218E+04  1.788526E+03 -6.803866E+03
       421   2  1.801654E+06  4.715890E+04  4.703582E+04 -1.430073E+04  5.598045E+01 -8.977165E+03
       421   3  1.843586E+06  5.743149E+04  5.796789E+04 -2.417180E+04 -1.676067E+03 -1.116018E+04
       421   4  1.608843E+06 -3.585062E+01  3.049591E+03 -2.437029E+04  6.782813E+01 -6.804502E+03
       421   5  1.608696E+06 -6.277124E+01  3.517391E+03 -1.441884E+04 -1.672029E+03 -8.978025E+03
       421   6  1.608837E+06  8.512134E+00  5.148477E+03 -2.437030E+04 -3.411275E+03 -1.116126E+04
       421   7  1.457697E+06 -3.705635E+04 -3.116392E+04 -2.440839E+04 -1.652456E+03 -6.805138E+03
       421   8  1.415773E+06 -4.728699E+04 -4.000341E+04 -1.453691E+04 -3.399508E+03 -8.978884E+03
       421   9  1.374140E+06 -5.741823E+04 -4.767444E+04 -2.456872E+04 -5.145834E+03 -1.116234E+04
       421  10  1.760010E+06  3.698303E+04  3.726155E+04 -2.433217E+04 -7.867499E-10 -5.059787E-11
       421  11  1.801654E+06  4.715882E+04  4.703567E+04 -1.430073E+04  5.910069E-10  6.460578E-10
       421  12  1.843586E+06  5.743136E+04  5.796765E+04 -2.417182E+04  1.570318E-10 -6.832696E-11
       421  13  1.608843E+06 -3.590038E+01  3.049504E+03 -2.437029E+04  7.892726E-10  7.741824E-10
       421  14  1.608696E+06 -6.285861E+01  3.517234E+03 -1.441885E+04  8.921128E-10  1.056637E-09
       421  15  1.608837E+06  8.375147E+00  5.148221E+03 -2.437033E+04 -2.014278E-10  1.109605E-10
       421  16  1.457697E+06 -3.705640E+04 -3.116401E+04 -2.440840E+04  8.460991E-10  6.646660E-10
       421  17  1.415773E+06 -4.728708E+04 -4.000358E+04 -1.453694E+04 -8.474822E-10  3.273350E-11
       421  18  1.374140E+06 -5.741837E+04 -4.767472E+04 -2.456877E+04 -6.234460E-10 -3.105230E-10
       421  19  1.760010E+06  3.698308E+04  3.726165E+04 -2.433218E+04 -1.788526E+03  6.803866E+03
       421  20  1.801654E+06  4.715890E+04  4.703582E+04 -1.430073E+04 -5.598045E+01  8.977165E+03
       421  21  1.843586E+06  5.743149E+04  5.796789E+04 -2.417180E+04  1.676067E+03  1.116018E+04
       421  22  1.608843E+06 -3.585062E+01  3.049591E+03 -2.437029E+04 -6.782813E+01  6.804502E+03
       421  23  1.608696E+06 -6.277124E+01  3.517391E+03 -1.441884E+04  1.672029E+03  8.978025E+03
       421  24  1.608837E+06  8.512134E+00  5.148477E+03 -2.437030E+04  3.411275E+03  1.116126E+04
       421  25  1.457697E+06 -3.705635E+04 -3.116392E+04 -2.440839E+04  1.652456E+03  6.805138E+03
       421  26  1.415773E+06 -4.728699E+04 -4.000341E+04 -1.453691E+04  3.399508E+03  8.978884E+03
       421  27  1.374140E+06 -5.741823E+04 -4.767444E+04 -2.456872E+04  5.145834E+03  1.116234E+04
       422   1  1.881354E+06  6.653543E+04  6.802718E+04 -2.399386E+04 -2.704784E+03 -1.244233E+04
       422   2  1.923388E+06  7.685552E+04  8.185465E+04 -1.395703E+04 -8.098401E+03 -1.465163E+04
       422   3  1.966567E+06  8.862987E+04  9.956644E+04 -2.421440E+04 -1.349134E+04 -1.684633E+04
       422   4  1.609022E+06 -1.317075E+02  6.492590E+03 -2.445711E+04 -4.460725E+03 -1.244360E+04
       422   5  1.608445E+06 -2.142641E+02  1.082736E+04 -1.431010E+04 -9.840371E+03 -1.465325E+04
       422   6  1.609009E+06  1.155933E+03  1.903852E+04 -2.445791E+04 -1.521898E+04 -1.684831E+04
       422   7  1.336760E+06 -6.680392E+04 -5.504674E+04 -2.492016E+04 -6.215904E+03 -1.244487E+04
       422   8  1.293594E+06 -7.729083E+04 -6.020626E+04 -1.466300E+04 -1.158147E+04 -1.465488E+04
       422   9  1.251570E+06 -8.632674E+04 -6.149754E+04 -2.470130E+04 -1.694563E+04 -1.685028E+04
       422  10  1.881353E+06  6.653526E+04  6.802687E+04 -2.399389E+04 -4.837313E-10  5.667409E-10
       422  11  1.923388E+06  7.685527E+04  8.185413E+04 -1.395712E+04 -1.429702E-09 -8.697545E-10
       422  12  1.966567E+06  8.862952E+04  9.956557E+04 -2.421458E+04  1.183898E-09  3.923138E-10
       422  13  1.609022E+06 -1.318793E+02  6.492261E+03 -2.445716E+04 -6.845477E-10  1.186681E-10
       422  14  1.608445E+06 -2.145208E+02  1.082678E+04 -1.431021E+04 -5.131330E-10 -1.747555E-10
       422  15  1.609009E+06  1.155566E+03  1.903755E+04 -2.445812E+04 -4.222140E-10 -5.048979E-10
       422  16  1.336760E+06 -6.680410E+04 -5.504711E+04 -2.492023E+04  7.514667E-10 -4.558880E-10
       422  17  1.293594E+06 -7.729110E+04 -6.020691E+04 -1.466313E+04 -8.880529E-10  6.061083E-11
       422  18  1.251569E+06 -8.632712E+04 -6.149861E+04 -2.470153E+04 -1.273083E-09 -2.864948E-11
       422  19  1.881354E+06  6.653543E+04  6.802718E+04 -2.399386E+04  2.704784E+03  1.244233E+04
       422  20  1.923388E+06  7.685552E+04  8.185465E+04 -1.395703E+04  8.098401E+03  1.465163E+04
       422  21  1.966567E+06  8.862987E+04  9.956644E+04 -2.421440E+04  1.349134E+04  1.684633E+04
       422  22  1.609022E+06 -1.317075E+02  6.492590E+03 -2.445711E+04  4.460725E+03  1.244360E+04
       422  23  1.608445E+06 -2.142641E+02  1.082736E+04 -1.431010E+04  9.840371E+03  1.465325E+04
       422  24  1.609009E+06  1.155933E+03  1.903852E+04 -2.445791E+04  1.521898E+04  1.684831E+04
       422  25  1.336760E+06 -6.680392E+04 -5.504674E+04 -2.492016E+04  6.215904E+03  1.244487E+04
       422  26  1.293594E+06 -7.729083E+04 -6.020626E+04 -1.466300E+04  1.158147E+04  1.465488E+04
       422  27  1.251570E+06 -8.632674E+04 -6.149754E+04 -2.470130E+04  1.694563E+04  1.685028E+04
       423   1  2.006643E+06  9.571476E+04  1.141016E+05 -2.075856E+04 -1.710762E+04 -1.823622E+04
       423   2  2.046296E+06  1.063149E+05  1.416656E+05 -1.551586E+04 -3.907253E+04 -2.039114E+04
       423   3  2.094304E+06  1.383736E+05  1.888929E+05 -3.112825E+04 -6.103925E+04 -2.185179E+04
       423   4  1.610587E+06 -1.226723E+03  2.468411E+04 -2.457578E+04 -1.907061E+04 -1.823857E+04
       423   5  1.606435E+06 -1.321808E+03  4.242350E+04 -1.415909E+04 -4.047095E+04 -2.039367E+04
       423   6  1.610545E+06  1.995286E+04  7.944494E+04 -2.459800E+04 -6.187157E+04 -2.185464E+04
       423   7  1.214676E+06 -9.817890E+04 -6.474336E+04 -2.839058E+04 -2.103236E+04 -1.824090E+04
       423   8  1.166753E+06 -1.089718E+05 -5.683099E+04 -1.280332E+04 -4.186838E+04 -2.039621E+04
       423   9  1.127003E+06 -9.848377E+04 -3.001805E+04 -1.807292E+04 -6.270323E+04 -2.185750E+04
       423  10  2.006643E+06  9.571432E+04  1.141004E+05 -2.075881E+04  3.130424E-10 -2.912110E-10
       423  11  2.046294E+06  1.063141E+05  1.416620E+05 -1.551650E+04  9.237686E-10 -1.013040E-09
       423  12  2.094299E+06  1.383721E+05  1.888850E+05 -3.112933E+04  1.495942E-09 -1.966640E-09
       423  13  1.610586E+06 -1.227178E+03  2.468280E+04 -2.457606E+04 -6.236213E-10 -6.035523E-10
       423  14  1.606433E+06 -1.322693E+03  4.241965E+04 -1.415975E+04  6.820226E-11 -8.096747E-10
       423  15  1.610541E+06  1.995132E+04  7.943686E+04 -2.459909E+04 -1.348838E-10 -1.159082E-09
       423  16  1.214675E+06 -9.817937E+04 -6.474482E+04 -2.839089E+04  5.967443E-10 -2.466252E-10
       423  17  1.166751E+06 -1.089727E+05 -5.683506E+04 -1.280401E+04 -3.552319E-10  2.147734E-09
       423  18  1.126999E+06 -9.848534E+04 -3.002632E+04 -1.807402E+04 -5.791302E-10 -2.015565E-10
       423  19  2.006643E+06  9.571476E+04  1.141016E+05 -2.075856E+04  1.710762E+04  1.823622E+04
       423  20  2.046296E+06  1.063149E+05  1.416656E+05 -1.551586E+04  3.907253E+04  2.039114E+04
       423  21  2.094304E+06  1.383736E+05  1.888929E+05 -3.112825E+04  6.103925E+04  2.185179E+04
       423  22  1.610587E+06 -1.226723E+03  2.468411E+04 -2.457578E+04  1.907061E+04  1.823857E+04
       423  23  1.606435E+06 -1.321808E+03  4.242350E+04 -1.415909E+04  4.047095E+04  2.039367E+04
       423  24  1.610545E+06  1.995286E+04  7.944494E+04 -2.459800E+04  6.187157E+04  2.185464E+04
       423  25  1.214676E+06 -9.817890E+04 -6.474336E+04 -2.839058E+04  2.103236E+04  1.824090E+04
       423  26  1.166753E+06 -1.089718E+05 -5.683099E+04 -1.280332E+04  4.186838E+04  2.039621E+04
       423  27  1.127003E+06 -9.848377E+04 -3.001805E+04 -1.807292E+04  6.270323E+04  2.185750E+04
       424   1  2.152350E+06  1.118938E+05  2.170030E+05  2.062604E+04 -7.067456E+04 -2.490083E+04
       424   2  2.152156E+06  1.258633E+05  2.953619E+05 -5.723546E+04 -1.715959E+05 -2.434804E+04
       424   3  2.243851E+06  4.543448E+05  5.179540E+05 -1.565241E+05 -2.725530E+05 -8.125733E+03
       424   4  1.628700E+06 -1.633020E+04  9.913804E+04 -2.457302E+04 -7.630821E+04 -2.490443E+04
       424   5  1.583679E+06 -1.331151E+04  1.660102E+05 -1.411682E+04 -1.647372E+05 -2.435133E+04
       424   6  1.628448E+06  3.021813E+05  3.685386E+05 -2.507464E+04 -2.531920E+05 -8.150943E+03
       424   7  1.105309E+06 -1.445653E+05 -1.874323E+04 -6.973376E+04 -8.193714E+04 -2.490722E+04
       424   8  1.015504E+06 -1.525015E+05  3.663866E+04  2.896201E+04 -1.578847E+05 -2.435368E+04
       424   9  1.013428E+06  1.500554E+05  2.191065E+05  1.062445E+05 -2.338500E+05 -8.168013E+03
       424  10  2.152344E+06  1.118918E+05  2.169925E+05  2.062462E+04  3.227325E-10 -2.827180E-09
       424  11  2.152125E+06  1.258548E+05  2.953056E+05 -5.723882E+04 -1.869257E-09 -5.429673E-09
       424  12  2.243771E+06  4.543249E+05  5.178148E+05 -1.565259E+05 -2.011947E-09 -1.382190E-09
       424  13  1.628694E+06 -1.633242E+04  9.912596E+04 -2.457455E+04 -2.390926E-09 -7.082981E-09
       424  14  1.583649E+06 -1.331941E+04  1.659582E+05 -1.412005E+04  1.480961E-09  2.078473E-09
       424  15  1.628380E+06  3.021641E+05  3.684183E+05 -2.507631E+04 -6.685083E-10 -4.410436E-11
       424  16  1.105302E+06 -1.445678E+05 -1.875699E+04 -6.973540E+04  8.294815E-10 -1.918069E-09
       424  17  1.015477E+06 -1.525088E+05  3.659078E+04  2.895891E+04  3.594615E-10  1.881418E-09
       424  18  1.013370E+06  1.500406E+05  2.190038E+05  1.062430E+05  1.610241E-09 -1.566951E-09
       424  19  2.152350E+06  1.118938E+05  2.170030E+05  2.062604E+04  7.067456E+04  2.490083E+04
       424  20  2.152156E+06  1.258633E+05  2.953619E+05 -5.723546E+04  1.715959E+05  2.434804E+04
       424  21  2.243851E+06  4.543448E+05  5.179540E+05 -1.565241E+05  2.725530E+05  8.125733E+03
       424  22  1.628700E+06 -1.633020E+04  9.913804E+04 -2.457302E+04  7.630821E+04  2.490443E+04
       424  23  1.583679E+06 -1.331151E+04  1.660102E+05 -1.411682E+04  1.647372E+05  2.435133E+04
       424  24  1.628448E+06  3.021813E+05  3.685386E+05 -2.507464E+04  2.531920E+05  8.150943E+03
       424  25  1.105309E+06 -1.445653E+05 -1.874323E+04 -6.973376E+04  8.193714E+04  2.490722E+04
       424  26  1.015504E+06 -1.525015E+05  3.663866E+04  2.896201E+04  1.578847E+05  2.435368E+04
       424  27  1.013428E+06  1.500554E+05  2.191065E+05  1.062445E+05  2.338500E+05  8.168013E+03
       425   1  5.042729E+05  1.772103E+05  1.611341E+05  3.491526E+04  3.025296E+04 -1.271010E+04
       425   2  4.410165E+05  1.902022E+05  1.391826E+05  4.342031E+04  7.972566E+03 -4.258284E+04
       425   3  3.752722E+05  1.815444E+05  1.263603E+05  6.574301E+04 -1.434352E+04 -5.069922E+04
       425   4 -3.963502E+05 -4.512127E+04 -5.060999E+04  6.140928E+04 -3.521328E+04 -1.283928E+04
       425   5 -3.920403E+05 -9.068937E+03 -2.446232E+04  5.445172E+04 -2.249111E+04 -4.265215E+04
       425   6 -3.963078E+05 -7.601898E+02 -1.349630E+04  6.131288E+04 -9.807238E+03 -5.069420E+04
       425   7 -1.296216E+06 -2.675057E+05 -2.623932E+05  8.786429E+04 -1.005852E+05 -1.297415E+04
       425   8 -1.224430E+06 -2.083810E+05 -1.881374E+05  6.546764E+04 -5.291480E+04 -4.272260E+04
       425   9 -1.167309E+06 -1.830982E+05 -1.533764E+05  5.688806E+04 -5.276429E+03 -5.068924E+04
       425  10  5.042719E+05  1.772099E+05  1.611321E+05  3.491557E+04  3.477678E-09 -7.892498E-10
       425  11  4.410159E+05  1.902002E+05  1.391791E+05  4.342059E+04  1.018349E-09 -5.243442E-09
       425  12  3.752713E+05  1.815416E+05  1.263551E+05  6.574242E+04  1.362661E-10 -3.735274E-09
       425  13 -3.963515E+05 -4.512178E+04 -5.061263E+04  6.140892E+04  8.756684E-10  9.632361E-10
       425  14 -3.920414E+05 -9.071026E+03 -2.446669E+04  5.445094E+04 -1.214157E-09 -3.306296E-09
       425  15 -3.963086E+05 -7.629747E+02 -1.350131E+04  6.131248E+04  2.626810E-09  4.260999E-11
       425  16 -1.296227E+06 -2.675086E+05 -2.624126E+05  8.786324E+04 -4.317872E-09  1.850112E-10
       425  17 -1.224434E+06 -2.083837E+05 -1.881461E+05  6.546582E+04 -1.575076E-09 -6.857254E-09
       425  18 -1.167309E+06 -1.831010E+05 -1.533813E+05  5.688784E+04  4.157892E-10 -6.804002E-09
       425  19  5.042729E+05  1.772103E+05  1.611341E+05  3.491526E+04 -3.025296E+04  1.271010E+04
       425  20  4.410165E+05  1.902022E+05  1.391826E+05  4.342031E+04 -7.972566E+03  4.258284E+04
       425  21  3.752722E+05  1.815444E+05  1.263603E+05  6.574301E+04  1.434352E+04  5.069922E+04
       425  22 -3.963502E+05 -4.512127E+04 -5.060999E+04  6.140928E+04  3.521328E+04  1.283928E+04
       425  23 -3.920403E+05 -9.068937E+03 -2.446232E+04  5.445172E+04  2.249111E+04  4.265215E+04
       425  24 -3.963078E+05 -7.601898E+02 -1.349630E+04  6.131288E+04  9.807238E+03  5.069420E+04
       425  25 -1.296216E+06 -2.675057E+05 -2.623932E+05  8.786429E+04  1.005852E+05  1.297415E+04
       425  26 -1.224430E+06 -2.083810E+05 -1.881374E+05  6.546764E+04  5.291480E+04  4.272260E+04
       425  27 -1.167309E+06 -1.830982E+05 -1.533764E+05  5.688806E+04  5.276429E+03  5.068924E+04
       426   1  3.336328E+05  1.701174E+05  1.207469E+05  6.221318E+04 -9.684449E+03 -4.873054E+04
       426   2  2.693249E+05  1.560220E+05  1.112206E+05  5.508648E+04 -9.779810E+03 -4.680656E+04
       426   3  2.047967E+05  1.411418E+05  1.015529E+05  6.316841E+04 -9.881320E+03 -4.305881E+04
       426   4 -3.945531E+05 -1.731725E+03 -1.031151E+04  6.163612E+04 -8.048976E+03 -4.873164E+04
       426   5 -3.941721E+05 -6.747831E+01 -5.687798E+03  5.402870E+04 -5.213168E+03 -4.679957E+04
       426   6 -3.945242E+05  3.027451E+02 -3.242119E+03  6.163095E+04 -2.383466E+03 -4.304277E+04
       426   7 -1.122222E+06 -1.736104E+05 -1.413905E+05  6.105944E+04 -6.415363E+03 -4.873274E+04
       426   8 -1.057239E+06 -1.561810E+05 -1.226122E+05  5.297182E+04 -6.512579E+02 -4.679260E+04
       426   9 -9.934931E+05 -1.405558E+05 -1.080498E+05  6.009478E+04  5.107370E+03 -4.302676E+04
       426  10  3.336321E+05  1.701148E+05  1.207423E+05  6.221280E+04 -7.142808E-09 -4.615289E-09
       426  11  2.693242E+05  1.560196E+05  1.112163E+05  5.508611E+04 -2.812229E-09  2.265214E-09
       426  12  2.047961E+05  1.411398E+05  1.015492E+05  6.316806E+04  1.077533E-09  2.988489E-09
       426  13 -3.945538E+05 -1.734292E+03 -1.031610E+04  6.163581E+04  9.797579E-10 -1.942219E-09
       426  14 -3.941727E+05 -6.983705E+01 -5.691964E+03  5.402851E+04 -1.056618E-10  1.081317E-09
       426  15 -3.945247E+05  3.007545E+02 -3.245610E+03  6.163087E+04  4.001854E-09 -2.063506E-09
       426  16 -1.122223E+06 -1.736130E+05 -1.413950E+05  6.105919E+04  6.355462E-09  7.308682E-10
       426  17 -1.057239E+06 -1.561834E+05 -1.226163E+05  5.297179E+04  1.066035E-09  2.887613E-09
       426  18 -9.934936E+05 -1.405578E+05 -1.080533E+05  6.009496E+04 -6.787761E-10 -4.735735E-10
       426  19  3.336328E+05  1.701174E+05  1.207469E+05  6.221318E+04  9.684449E+03  4.873054E+04
       426  20  2.693249E+05  1.560220E+05  1.112206E+05  5.508648E+04  9.779810E+03  4.680656E+04
       426  21  2.047967E+05  1.411418E+05  1.015529E+05  6.316841E+04  9.881320E+03  4.305881E+04
       426  22 -3.945531E+05 -1.731725E+03 -1.031151E+04  6.163612E+04  8.048976E+03  4.873164E+04
       426  23 -3.941721E+05 -6.747831E+01 -5.687798E+03  5.402870E+04  5.213168E+03  4.679957E+04
       426  24 -3.945242E+05  3.027451E+02 -3.242119E+03  6.163095E+04  2.383466E+03  4.304277E+04
       426  25 -1.122222E+06 -1.736104E+05 -1.413905E+05  6.105944E+04  6.415363E+03  4.873274E+04
       426  26 -1.057239E+06 -1.561810E+05 -1.226122E+05  5.297182E+04  6.512579E+02  4.679260E+04
       426  27 -9.934931E+05 -1.405558E+05 -1.080498E+05  6.009478E+04 -5.107370E+03  4.302676E+04
       427   1  1.623891E+05  1.310325E+05  9.456419E+04  6.291982E+04 -9.148315E+03 -4.031717E+04
       427   2  9.792871E+04  1.158940E+05  8.428779E+04  5.511460E+04 -8.708083E+03 -3.572627E+04
       427   3  3.335553E+04  1.008193E+05  7.372039E+04  6.265787E+04 -8.270068E+03 -3.098040E+04
       427   4 -3.943872E+05  2.546049E+02 -2.465717E+03  6.166281E+04 -1.889732E+03 -4.030082E+04
       427   5 -3.942966E+05  2.901945E+02 -1.412771E+03  5.398810E+04 -1.201137E+03 -3.570790E+04
       427   6 -3.943661E+05  3.463899E+02 -8.237616E+02  6.166258E+04 -5.147129E+02 -3.095993E+04
       427   7 -9.508597E+05 -1.305400E+05 -9.950638E+04  6.040675E+04  5.362540E+03 -4.028449E+04
       427   8 -8.862843E+05 -1.153267E+05 -8.712166E+04  5.286234E+04  6.300039E+03 -3.568955E+04
       427   9 -8.219083E+05 -1.001364E+05 -7.537415E+04  6.066786E+04  7.235461E+03 -3.093948E+04
       427  10  1.623886E+05  1.310307E+05  9.456098E+04  6.291952E+04 -5.156702E-09  4.634813E-09
       427  11  9.792829E+04  1.158926E+05  8.428525E+04  5.511435E+04 -8.119718E-12  3.676287E-09
       427  12  3.335520E+04  1.008182E+05  7.371846E+04  6.265767E+04  6.323477E-09  2.575493E-10
       427  13 -3.943877E+05  2.528602E+02 -2.468776E+03  6.166275E+04  1.819783E-09 -3.561804E-09
       427  14 -3.942969E+05  2.888252E+02 -1.415170E+03  5.398806E+04 -7.369955E-10  4.641422E-09
       427  15 -3.943664E+05  3.453607E+02 -8.255630E+02  6.166257E+04  3.767011E-09  4.762991E-09
       427  16 -9.508602E+05 -1.305418E+05 -9.950948E+04  6.040692E+04  4.380279E-09  1.017588E-09
       427  17 -8.862847E+05 -1.153281E+05 -8.712413E+04  5.286252E+04 -1.545081E-09  4.904492E-09
       427  18 -8.219086E+05 -1.001374E+05 -7.537605E+04  6.066804E+04 -5.652423E-09  8.877758E-10
       427  19  1.623891E+05  1.310325E+05  9.456419E+04  6.291982E+04  9.148315E+03  4.031717E+04
       427  20  9.792871E+04  1.158940E+05  8.428779E+04  5.511460E+04  8.708083E+03  3.572627E+04
       427  21  3.335553E+04  1.008193E+05  7.372039E+04  6.265787E+04  8.270068E+03  3.098040E+04
       427  22 -3.943872E+05  2.546049E+02 -2.465717E+03  6.166281E+04  1.889732E+03  4.030082E+04
       427  23 -3.942966E+05  2.901945E+02 -1.412771E+03  5.398810E+04  1.201137E+03  3.570790E+04
       427  24 -3.943661E+05  3.463899E+02 -8.237616E+02  6.166258E+04  5.147129E+02  3.095993E+04
       427  25 -9.508597E+05 -1.305400E+05 -9.950638E+04  6.040675E+04 -5.362540E+03  4.028449E+04
       427  26 -8.862843E+05 -1.153267E+05 -8.712166E+04  5.286234E+04 -6.300039E+03  3.568955E+04
       427  27 -8.219083E+05 -1.001364E+05 -7.537415E+04  6.066786E+04 -7.235461E+03  3.093948E+04
       428   1 -9.151750E+03  9.077888E+04  6.621577E+04  6.256394E+04 -8.127875E+03 -2.817059E+04
       428   2 -7.369955E+04  7.560350E+04  5.534521E+04  5.472683E+04 -7.964185E+03 -2.335119E+04
       428   3 -1.383405E+05  6.052000E+04  4.436367E+04  6.226676E+04 -7.801725E+03 -1.851776E+04
       428   4 -3.943464E+05  3.493525E+02 -6.384746E+02  6.166892E+04 -3.900365E+02 -2.814948E+04
       428   5 -3.942885E+05  3.172339E+02 -4.023575E+02  5.398015E+04 -2.043240E+02 -2.332910E+04
       428   6 -3.943327E+05  3.730518E+02 -2.930057E+02  6.166888E+04 -1.982510E+01 -1.849468E+04
       428   7 -7.793955E+05 -9.008816E+04 -6.749768E+04  6.077436E+04  7.343147E+03 -2.812839E+04
       428   8 -7.147766E+05 -7.497456E+04 -5.615331E+04  5.323379E+04  7.551651E+03 -2.330703E+04
       428   9 -6.502606E+05 -5.977741E+04 -4.495177E+04  6.107120E+04  7.758962E+03 -1.847162E+04
       428  10 -9.152034E+03  9.077801E+04  6.621416E+04  6.256376E+04  2.271670E-09  5.590865E-10
       428  11 -7.369977E+04  7.560290E+04  5.534407E+04  5.472668E+04 -1.467797E-09  8.987775E-09
       428  12 -1.383406E+05  6.051961E+04  4.436291E+04  6.226664E+04 -3.241719E-09  6.597622E-09
       428  13 -3.943467E+05  3.485017E+02 -6.399637E+02  6.166891E+04  1.518374E-09  2.283597E-10
       428  14 -3.942887E+05  3.166496E+02 -4.033801E+02  5.398015E+04 -1.346755E-09  8.127134E-09
       428  15 -3.943328E+05  3.726846E+02 -2.936483E+02  6.166888E+04  3.899489E-09  2.680504E-09
       428  16 -7.793957E+05 -9.008902E+04 -6.749926E+04  6.077452E+04 -3.124203E-09  5.067708E-10
       428  17 -7.147768E+05 -7.497516E+04 -5.615444E+04  5.323394E+04 -1.120607E-09  1.062570E-09
       428  18 -6.502608E+05 -5.977780E+04 -4.495253E+04  6.107132E+04  3.323672E-09  1.106503E-10
       428  19 -9.151750E+03  9.077888E+04  6.621577E+04  6.256394E+04  8.127875E+03  2.817059E+04
       428  20 -7.369955E+04  7.560350E+04  5.534521E+04  5.472683E+04  7.964185E+03  2.335119E+04
       428  21 -1.383405E+05  6.052000E+04  4.436367E+04  6.226676E+04  7.801725E+03  1.851776E+04
       428  22 -3.943464E+05  3.493525E+02 -6.384746E+02  6.166892E+04  3.900365E+02  2.814948E+04
       428  23 -3.942885E+05  3.172339E+02 -4.023575E+02  5.398015E+04  2.043240E+02  2.332910E+04
       428  24 -3.943327E+05  3.730518E+02 -2.930057E+02  6.166888E+04  1.982510E+01  1.849468E+04
       428  25 -7.793955E+05 -9.008816E+04 -6.749768E+04  6.077436E+04 -7.343147E+03  2.812839E+04
       428  26 -7.147766E+05 -7.497456E+04 -5.615331E+04  5.323379E+04 -7.551651E+03  2.330703E+04
       428  27 -6.502606E+05 -5.977741E+04 -4.495177E+04  6.107120E+04 -7.758962E+03  1.847162E+04
       429   1 -1.808978E+05  5.047266E+04  3.668952E+04  6.217018E+04 -7.759052E+03 -1.569975E+04
       429   2 -2.454807E+05  3.528553E+04  2.556309E+04  5.431203E+04 -7.615955E+03 -1.086049E+04
       429   3 -3.101707E+05  2.018742E+04  1.433379E+04  6.184582E+04 -7.473402E+03 -6.025623E+03
       429   4 -3.943303E+05  3.777200E+02 -2.755699E+02  6.167213E+04  2.345398E+01 -1.567627E+04
       429   5 -3.942727E+05  3.419360E+02 -3.037958E+02  5.397604E+04  1.591330E+02 -1.083661E+04
       429   6 -3.943240E+05  3.968744E+02 -4.295955E+02  6.167209E+04  2.942827E+02 -6.001338E+03
       429   7 -6.077180E+05 -4.971964E+04 -3.724202E+04  6.117422E+04  7.803366E+03 -1.565280E+04
       429   8 -5.430428E+05 -3.460282E+04 -2.617123E+04  5.364012E+04  7.932414E+03 -1.081274E+04
       429   9 -4.784702E+05 -1.939403E+04 -1.519301E+04  6.149838E+04  8.060946E+03 -5.977055E+03
       429  10 -1.808979E+05  5.047238E+04  3.668895E+04  6.217008E+04  1.176515E-08  1.139090E-09
       429  11 -2.454808E+05  3.528539E+04  2.556276E+04  5.431196E+04  1.618268E-09 -4.324724E-09
       429  12 -3.101708E+05  2.018737E+04  1.433362E+04  6.184578E+04 -7.248980E-09 -3.338569E-09
       429  13 -3.943304E+05  3.774561E+02 -2.760317E+02  6.167213E+04  1.293926E-09  9.048404E-09
       429  14 -3.942727E+05  3.418099E+02 -3.040165E+02  5.397604E+04 -1.216473E-09  5.771726E-10
       429  15 -3.943240E+05  3.968357E+02 -4.296633E+02  6.167209E+04  4.101317E-09 -3.703032E-09
       429  16 -6.077182E+05 -4.971992E+04 -3.724259E+04  6.117432E+04 -1.300344E-08  5.457203E-09
       429  17 -5.430429E+05 -3.460297E+04 -2.617157E+04  5.364019E+04 -3.953606E-09 -2.296254E-09
       429  18 -4.784703E+05 -1.939408E+04 -1.519320E+04  6.149842E+04  7.832903E-09 -2.558552E-09
       429  19 -1.808978E+05  5.047266E+04  3.668952E+04  6.217018E+04  7.759052E+03  1.569975E+04
       429  20 -2.454807E+05  3.528553E+04  2.556309E+04  5.431203E+04  7.615955E+03  1.086049E+04
       429  21 -3.101707E+05  2.018742E+04  1.433379E+04  6.184582E+04  7.473402E+03  6.025623E+03
       429  22 -3.943303E+05  3.777200E+02 -2.755699E+02  6.167213E+04 -2.345398E+01  1.567627E+04
       429  23 -3.942727E+05  3.419360E+02 -3.037958E+02  5.397604E+04 -1.591330E+02  1.083661E+04
       429  24 -3.943240E+05  3.968744E+02 -4.295955E+02  6.167209E+04 -2.942827E+02  6.001338E+03
       429  25 -6.077180E+05 -4.971964E+04 -3.724202E+04  6.117422E+04 -7.803366E+03  1.565280E+04
       429  26 -5.430428E+05 -3.460282E+04 -2.617123E+04  5.364012E+04 -7.932414E+03  1.081274E+04
       429  27 -4.784702E+05 -1.939403E+04 -1.519301E+04  6.149838E+04 -8.060946E+03  5.977055E+03
       430   1 -3.527559E+05  1.013401E+04  6.525629E+03  6.173130E+04 -7.404646E+03 -3.208095E+03
       430   2 -4.173106E+05 -5.066726E+03 -4.971173E+03  5.386308E+04 -6.854830E+03  1.595339E+03
       430   3 -4.820430E+05 -2.023800E+04 -1.685164E+04  6.138489E+04 -6.304764E+03  6.323829E+03
       430   4 -3.943345E+05  4.017047E+02 -5.394303E+02  6.167157E+04  3.730903E+02 -3.183671E+03
       430   5 -3.942546E+05  3.620907E+02 -8.970366E+02  5.397663E+04  8.020954E+02  1.619316E+03
       430   6 -3.943356E+05  3.730928E+02 -1.554460E+03  6.167167E+04  1.231406E+03  6.347366E+03
       430   7 -4.359112E+05 -9.330658E+03 -7.604319E+03  6.161185E+04  8.150323E+03 -3.159248E+03
       430   8 -3.711979E+05  5.790909E+03  3.177300E+03  5.409019E+04  8.459297E+03  1.643295E+03
       430   9 -3.066205E+05  2.098380E+04  1.374266E+04  6.195849E+04  8.768609E+03  6.370908E+03
       430  10 -3.527560E+05  1.013398E+04  6.525507E+03  6.173128E+04 -2.790289E-09  1.889532E-09
       430  11 -4.173106E+05 -5.066741E+03 -4.971266E+03  5.386309E+04 -4.331969E-09 -5.325113E-10
       430  12 -4.820431E+05 -2.023805E+04 -1.685179E+04  6.138493E+04 -5.986906E-09  2.068811E-09
       430  13 -3.943345E+05  4.016938E+02 -5.394496E+02  6.167157E+04  1.492426E-09 -4.855127E-11
       430  14 -3.942546E+05  3.620877E+02 -8.970427E+02  5.397663E+04 -6.134166E-10  4.760325E-10
       430  15 -3.943356E+05  3.730491E+02 -1.554539E+03  6.167167E+04  3.910936E-09  2.234636E-09
       430  16 -4.359113E+05 -9.330687E+03 -7.604463E+03  6.161187E+04  1.667332E-09  2.746773E-09
       430  17 -3.711980E+05  5.790887E+03  3.177161E+03  5.409018E+04  2.647890E-09 -8.068114E-09
       430  18 -3.066206E+05  2.098373E+04  1.374244E+04  6.195844E+04  6.307309E-09  4.424661E-10
       430  19 -3.527559E+05  1.013401E+04  6.525629E+03  6.173130E+04  7.404646E+03  3.208095E+03
       430  20 -4.173106E+05 -5.066726E+03 -4.971173E+03  5.386308E+04  6.854830E+03 -1.595339E+03
       430  21 -4.820430E+05 -2.023800E+04 -1.685164E+04  6.138489E+04  6.304764E+03 -6.323829E+03
       430  22 -3.943345E+05  4.017047E+02 -5.394303E+02  6.167157E+04 -3.730903E+02  3.183671E+03
       430  23 -3.942546E+05  3.620907E+02 -8.970366E+02  5.397663E+04 -8.020954E+02 -1.619316E+03
       430  24 -3.943356E+05  3.730928E+02 -1.554460E+03  6.167167E+04 -1.231406E+03 -6.347366E+03
       430  25 -4.359112E+05 -9.330658E+03 -7.604319E+03  6.161185E+04 -8.150323E+03  3.159248E+03
       430  26 -3.711979E+05  5.790909E+03  3.177300E+03  5.409019E+04 -8.459297E+03 -1.643295E+03
       430  27 -3.066205E+05  2.098380E+04  1.374266E+04  6.195849E+04 -8.768609E+03 -6.370908E+03
       431   1 -5.247305E+05 -3.027740E+04 -2.507939E+04  6.113146E+04 -6.117012E+03  9.109914E+03
       431   2 -5.889631E+05 -4.574756E+04 -3.822657E+04  5.366071E+04 -2.907809E+03  1.343496E+04
       431   3 -6.539760E+05 -6.224305E+04 -5.375109E+04  6.152022E+04  3.042699E+02  1.686318E+04
       431   4 -3.944205E+05  4.087912E+02 -2.041039E+03  6.165767E+04  1.537618E+03  9.133639E+03
       431   5 -3.941575E+05  1.674009E+02 -3.571386E+03  5.399462E+04  3.305961E+03  1.345372E+04
       431   6 -3.944294E+05 -8.488394E+02 -6.477757E+03  6.166154E+04  5.077523E+03  1.687712E+04
       431   7 -2.640937E+05  3.109408E+04  2.099690E+04  6.218398E+04  9.193809E+03  9.157374E+03
       431   8 -1.993148E+05  4.608028E+04  3.108252E+04  5.432860E+04  9.521626E+03  1.347248E+04
       431   9 -1.348172E+05  6.054158E+04  4.079296E+04  6.180287E+04  9.852719E+03  1.689105E+04
       431  10 -5.247306E+05 -3.027750E+04 -2.507961E+04  6.113151E+04 -1.772681E-09  5.778916E-09
       431  11 -5.889631E+05 -4.574775E+04 -3.822692E+04  5.366074E+04 -9.441876E-09 -1.002790E-10
       431  12 -6.539761E+05 -6.224335E+04 -5.375162E+04  6.152022E+04 -1.478411E-08  2.199691E-09
       431  13 -3.944205E+05  4.087010E+02 -2.041201E+03  6.165766E+04  1.212742E-09  2.509743E-09
       431  14 -3.941576E+05  1.672036E+02 -3.571747E+03  5.399458E+04 -1.413529E-09  4.516497E-09
       431  15 -3.944295E+05 -8.491521E+02 -6.478341E+03  6.166147E+04  4.474522E-09 -2.235781E-09
       431  16 -2.640938E+05  3.109397E+04  2.099659E+04  6.218392E+04  5.834871E-10  3.588173E-09
       431  17 -1.993150E+05  4.608007E+04  3.108201E+04  5.432850E+04  7.342426E-09 -3.577803E-10
       431  18 -1.348173E+05  6.054125E+04  4.079224E+04  6.180274E+04  1.463204E-08 -9.221812E-09
       431  19 -5.247305E+05 -3.027740E+04 -2.507939E+04  6.113146E+04  6.117012E+03 -9.109914E+03
       431  20 -5.889631E+05 -4.574756E+04 -3.822657E+04  5.366071E+04  2.907809E+03 -1.343496E+04
       431  21 -6.539760E+05 -6.224305E+04 -5.375109E+04  6.152022E+04 -3.042699E+02 -1.686318E+04
       431  22 -3.944205E+05  4.087912E+02 -2.041039E+03  6.165767E+04 -1.537618E+03 -9.133639E+03
       431  23 -3.941575E+05  1.674009E+02 -3.571386E+03  5.399462E+04 -3.305961E+03 -1.345372E+04
       431  24 -3.944294E+05 -8.488394E+02 -6.477757E+03  6.166154E+04 -5.077523E+03 -1.687712E+04
       431  25 -2.640937E+05  3.109408E+04  2.099690E+04  6.218398E+04 -9.193809E+03 -9.157374E+03
       431  26 -1.993148E+05  4.608028E+04  3.108252E+04  5.432860E+04 -9.521626E+03 -1.347248E+04
       431  27 -1.348172E+05  6.054158E+04  4.079296E+04  6.180287E+04 -9.852719E+03 -1.689105E+04
       432   1 -6.981016E+05 -7.190749E+04 -6.400536E+04  5.886566E+04 -2.157938E+01  1.926433E+04
       432   2 -7.585699E+05 -9.320328E+04 -8.825394E+04  6.117086E+04  2.513417E+04  1.784171E+04
       432   3 -8.275071E+05 -1.349106E+05 -1.340108E+05  7.814238E+04  5.031663E+04  5.708815E+03
       432   4 -3.955321E+05 -2.336014E+02 -8.478733E+03  6.150180E+04  6.177361E+03  1.928221E+04
       432   5 -3.928033E+05 -5.474688E+03 -1.536236E+04  5.420925E+04  1.413105E+04  1.780820E+04
       432   6 -3.955529E+05 -2.813184E+04 -3.179546E+04  6.158359E+04  2.211425E+04  5.626021E+03
       432   7 -9.287352E+04  7.143512E+04  4.704429E+04  6.413920E+04  1.237924E+04  1.930015E+04
       432   8 -2.690840E+04  8.224598E+04  5.752301E+04  4.724335E+04  3.121580E+03  1.777496E+04
       432   9  3.657537E+04  7.863501E+04  7.041005E+04  4.501308E+04 -6.107678E+03  5.544764E+03
       432  10 -6.981017E+05 -7.190788E+04 -6.400606E+04  5.886566E+04  1.847084E-08  2.898913E-09
       432  11 -7.585707E+05 -9.320379E+04 -8.825573E+04  6.117049E+04  6.861900E-09 -8.029255E-10
       432  12 -8.275099E+05 -1.349113E+05 -1.340156E+05  7.814215E+04 -5.508687E-09  5.642754E-10
       432  13 -3.955322E+05 -2.340108E+02 -8.479503E+03  6.150170E+04  1.142886E-09  3.783546E-09
       432  14 -3.928036E+05 -5.475082E+03 -1.536333E+04  5.420904E+04 -6.117142E-10 -8.750479E-09
       432  15 -3.955534E+05 -2.813201E+04 -3.179644E+04  6.158349E+04  3.608989E-09  2.688659E-09
       432  16 -9.287378E+04  7.143468E+04  4.704330E+04  6.413900E+04 -1.954482E-08 -1.014428E-09
       432  17 -2.690849E+04  8.224564E+04  5.752240E+04  4.724331E+04 -8.957404E-09  1.177429E-09
       432  18  3.657532E+04  7.863496E+04  7.040992E+04  4.501310E+04  6.036684E-09  5.531105E-10
       432  19 -6.981016E+05 -7.190749E+04 -6.400536E+04  5.886566E+04  2.157938E+01 -1.926433E+04
       432  20 -7.585699E+05 -9.320328E+04 -8.825394E+04  6.117086E+04 -2.513417E+04 -1.784171E+04
       432  21 -8.275071E+05 -1.349106E+05 -1.340108E+05  7.814238E+04 -5.031663E+04 -5.708815E+03
       432  22 -3.955321E+05 -2.336014E+02 -8.478733E+03  6.150180E+04 -6.177361E+03 -1.928221E+04
       432  23 -3.928033E+05 -5.474688E+03 -1.536236E+04  5.420925E+04 -1.413105E+04 -1.780820E+04
       432  24 -3.955529E+05 -2.813184E+04 -3.179546E+04  6.158359E+04 -2.211425E+04 -5.626021E+03
       432  25 -9.287352E+04  7.143512E+04  4.704429E+04  6.413920E+04 -1.237924E+04 -1.930015E+04
       432  26 -2.690840E+04  8.224598E+04  5.752301E+04  4.724335E+04 -3.121580E+03 -1.777496E+04
       432  27  3.657537E+04  7.863501E+04  7.041005E+04  4.501308E+04  6.107678E+03 -5.544764E+03
       433   1 -9.922838E+04  5.908467E+04  4.594358E+04 -1.374623E+03 -2.802316E+04 -5.565347E+03
       433   2 -1.278316E+05  1.009182E+05  6.434614E+04  4.882305E+03 -2.232945E+04 -1.714823E+04
       433   3 -1.696693E+05  9.293449E+04  6.660220E+04  2.749023E+04 -1.666803E+04 -1.747908E+04
       433   4 -5.371225E+05 -4.971195E+04 -6.070844E+04  1.942558E+04 -4.164324E+04 -5.605176E+03
       433   5 -5.297157E+05  2.223950E+03 -2.734307E+04  1.117265E+04 -2.704737E+04 -1.716333E+04
       433   6 -5.371008E+05  2.777975E+03 -1.631798E+04  1.927185E+04 -1.248322E+04 -1.746647E+04
       433   7 -9.748403E+05 -1.585209E+05 -1.673734E+05  4.021094E+04 -5.525373E+04 -5.645932E+03
       433   8 -9.314499E+05 -9.648137E+04 -1.190427E+05  1.745878E+04 -3.176225E+04 -1.717854E+04
       433   9 -9.044066E+05 -8.738758E+04 -9.924671E+04  1.105829E+04 -8.300849E+03 -1.745396E+04
       433  10 -9.922923E+04  5.908443E+04  4.594205E+04 -1.374748E+03 -7.892324E-09  1.638787E-09
       433  11 -1.278322E+05  1.009178E+05  6.434465E+04  4.881997E+03 -1.571796E-09  1.099264E-08
       433  12 -1.696697E+05  9.293409E+04  6.660111E+04  2.748999E+04  3.696510E-09  3.993119E-09
       433  13 -5.371244E+05 -4.971245E+04 -6.071176E+04  1.942539E+04 -9.699072E-10 -4.255141E-09
       433  14 -5.297166E+05  2.223437E+03 -2.734500E+04  1.117228E+04  8.102297E-10 -6.358679E-09
       433  15 -5.371011E+05  2.777606E+03 -1.631884E+04  1.927167E+04 -7.710097E-10  2.623303E-09
       433  16 -9.748435E+05 -1.585218E+05 -1.673792E+05  4.021069E+04  1.012059E-08  5.148117E-10
       433  17 -9.314510E+05 -9.648195E+04 -1.190452E+05  1.745834E+04 -4.555141E-10  1.068120E-08
       433  18 -9.044068E+05 -8.738792E+04 -9.924741E+04  1.105817E+04 -3.198827E-09  2.250029E-09
       433  19 -9.922838E+04  5.908467E+04  4.594358E+04 -1.374623E+03  2.802316E+04  5.565347E+03
       433  20 -1.278316E+05  1.009182E+05  6.434614E+04  4.882305E+03  2.232945E+04  1.714823E+04
       433  21 -1.696693E+05  9.293449E+04  6.660220E+04  2.749023E+04  1.666803E+04  1.747908E+04
       433  22 -5.371225E+05 -4.971195E+04 -6.070844E+04  1.942558E+04  4.164324E+04  5.605176E+03
       433  23 -5.297157E+05  2.223950E+03 -2.734307E+04  1.117265E+04  2.704737E+04  1.716333E+04
       433  24 -5.371008E+05  2.777975E+03 -1.631798E+04  1.927185E+04  1.248322E+04  1.746647E+04
       433  25 -9.748403E+05 -1.585209E+05 -1.673734E+05  4.021094E+04  5.525373E+04  5.645932E+03
       433  26 -9.314499E+05 -9.648137E+04 -1.190427E+05  1.745878E+04  3.176225E+04  1.717854E+04
       433  27 -9.044066E+05 -8.738758E+04 -9.924671E+04  1.105829E+04  8.300849E+03  1.745396E+04
       434   1 -1.983221E+05  7.921491E+04  6.309043E+04  1.910145E+04 -1.088628E+04 -1.518979E+04
       434   2 -2.330636E+05  7.395117E+04  6.095254E+04  1.146817E+04 -7.781630E+03 -1.395336E+04
       434   3 -2.691408E+05  6.534690E+04  5.593696E+04  2.070113E+04 -4.679636E+03 -1.219218E+04
       434   4 -5.341245E+05 -3.200044E+03 -1.307844E+04  1.943612E+04 -1.011924E+04 -1.518792E+04
       434   5 -5.334156E+05  2.675320E+02 -6.985727E+03  1.099692E+04 -6.600827E+03 -1.394991E+04
       434   6 -5.341168E+05  3.215989E+02 -4.059496E+03  1.942452E+04 -3.084903E+03 -1.218704E+04
       434   7 -8.698222E+05 -8.562278E+04 -8.925460E+04  1.977053E+04 -9.352606E+03 -1.518605E+04
       434   8 -8.336837E+05 -7.342231E+04 -7.492979E+04  1.052583E+04 -5.420590E+03 -1.394646E+04
       434   9 -7.990275E+05 -6.470854E+04 -6.406047E+04  1.814840E+04 -1.490845E+03 -1.218190E+04
       434  10 -1.983223E+05  7.921463E+04  6.308977E+04  1.910131E+04  2.156644E-09 -1.791405E-09
       434  11 -2.330637E+05  7.395094E+04  6.095206E+04  1.146809E+04  1.466546E-09  1.331307E-09
       434  12 -2.691408E+05  6.534674E+04  5.593664E+04  2.070108E+04  3.601672E-09  8.295418E-09
       434  13 -5.341247E+05 -3.200319E+03 -1.307907E+04  1.943600E+04 -2.247850E-09  1.199415E-08
       434  14 -5.334157E+05  2.673114E+02 -6.986175E+03  1.099685E+04  1.263014E-09 -2.199475E-08
       434  15 -5.341168E+05  3.214369E+02 -4.059793E+03  1.942449E+04 -1.505474E-09  7.185650E-09
       434  16 -8.698223E+05 -8.562305E+04 -8.925520E+04  1.977042E+04  1.659480E-09 -5.743674E-09
       434  17 -8.336838E+05 -7.342253E+04 -7.493021E+04  1.052577E+04 -2.813495E-09 -4.101098E-09
       434  18 -7.990276E+05 -6.470870E+04 -6.406075E+04  1.814838E+04 -3.466672E-09 -1.857948E-10
       434  19 -1.983221E+05  7.921491E+04  6.309043E+04  1.910145E+04  1.088628E+04  1.518979E+04
       434  20 -2.330636E+05  7.395117E+04  6.095254E+04  1.146817E+04  7.781630E+03  1.395336E+04
       434  21 -2.691408E+05  6.534690E+04  5.593696E+04  2.070113E+04  4.679636E+03  1.219218E+04
       434  22 -5.341245E+05 -3.200044E+03 -1.307844E+04  1.943612E+04  1.011924E+04  1.518792E+04
       434  23 -5.334156E+05  2.675320E+02 -6.985727E+03  1.099692E+04  6.600827E+03  1.394991E+04
       434  24 -5.341168E+05  3.215989E+02 -4.059496E+03  1.942452E+04  3.084903E+03  1.218704E+04
       434  25 -8.698222E+05 -8.562278E+04 -8.925460E+04  1.977053E+04  9.352606E+03  1.518605E+04
       434  26 -8.336837E+05 -7.342231E+04 -7.492979E+04  1.052583E+04  5.420590E+03  1.394646E+04
       434  27 -7.990275E+05 -6.470854E+04 -6.406047E+04  1.814840E+04  1.490845E+03  1.218190E+04
       435   1 -3.006485E+05  5.712304E+04  4.950425E+04  2.008026E+04 -3.896480E+03 -1.105355E+04
       435   2 -3.361740E+05  4.856931E+04  4.287569E+04  1.151669E+04 -3.036712E+03 -9.218283E+03
       435   3 -3.719737E+05  3.989786E+04  3.562729E+04  1.996494E+04 -2.177608E+03 -7.355278E+03
       435   4 -5.338618E+05 -7.108189E+01 -3.133872E+03  1.946058E+04 -2.456262E+03 -1.104879E+04
       435   5 -5.337202E+05  1.060528E+02 -1.787463E+03  1.095408E+04 -1.574859E+03 -9.213262E+03
       435   6 -5.338575E+05  1.618506E+02 -1.075943E+03  1.945974E+04 -6.940718E+02 -7.349984E+03
       435   7 -7.670244E+05 -5.726894E+04 -5.577547E+04  1.884109E+04 -1.016579E+03 -1.104404E+04
       435   8 -7.312301E+05 -4.835988E+04 -4.645312E+04  1.039162E+04 -1.134668E+02 -9.208243E+03
       435   9 -6.957169E+05 -3.957596E+04 -3.778086E+04  1.895465E+04  7.890809E+02 -7.344692E+03
       435  10 -3.006486E+05  5.712290E+04  4.950399E+04  2.008022E+04  8.109992E-09 -7.762428E-09
       435  11 -3.361740E+05  4.856921E+04  4.287552E+04  1.151666E+04 -7.699624E-09 -7.034689E-09
       435  12 -3.719737E+05  3.989780E+04  3.562718E+04  1.996493E+04 -1.721593E-08 -6.490609E-09
       435  13 -5.338618E+05 -7.121457E+01 -3.134112E+03  1.946056E+04 -1.843580E-09 -2.338940E-09
       435  14 -5.337202E+05  1.059610E+02 -1.787627E+03  1.095407E+04  1.469118E-10 -5.810985E-09
       435  15 -5.338575E+05  1.617925E+02 -1.076046E+03  1.945974E+04 -1.103588E-09  9.488571E-10
       435  16 -7.670244E+05 -5.726907E+04 -5.577570E+04  1.884108E+04 -5.021137E-09 -6.244897E-09
       435  17 -7.312302E+05 -4.835998E+04 -4.645328E+04  1.039162E+04  5.282336E-09  7.232457E-09
       435  18 -6.957169E+05 -3.957602E+04 -3.778096E+04  1.895465E+04  1.715192E-08  1.277767E-08
       435  19 -3.006485E+05  5.712304E+04  4.950425E+04  2.008026E+04  3.896480E+03  1.105355E+04
       435  20 -3.361740E+05  4.856931E+04  4.287569E+04  1.151669E+04  3.036712E+03  9.218283E+03
       435  21 -3.719737E+05  3.989786E+04  3.562729E+04  1.996494E+04  2.177608E+03  7.355278E+03
       435  22 -5.338618E+05 -7.108189E+01 -3.133872E+03  1.946058E+04  2.456262E+03  1.104879E+04
       435  23 -5.337202E+05  1.060528E+02 -1.787463E+03  1.095408E+04  1.574859E+03  9.213262E+03
       435  24 -5.338575E+05  1.618506E+02 -1.075943E+03  1.945974E+04  6.940718E+02  7.349984E+03
       435  25 -7.670244E+05 -5.726894E+04 -5.577547E+04  1.884109E+04  1.016579E+03  1.104404E+04
       435  26 -7.312301E+05 -4.835988E+04 -4.645312E+04  1.039162E+04  1.134668E+02  9.208243E+03
       435  27 -6.957169E+05 -3.957596E+04 -3.778086E+04  1.895465E+04 -7.890809E+02  7.344692E+03
       436   1 -4.038896E+05  3.199730E+04  2.841574E+04  1.985503E+04 -2.002097E+03 -6.264944E+03
       436   2 -4.396243E+05  2.318640E+04  2.067703E+04  1.120521E+04 -1.712615E+03 -4.395073E+03
       436   3 -4.755232E+05  1.448231E+04  1.274126E+04  1.964084E+04 -1.423416E+03 -2.522347E+03
       436   4 -5.338301E+05  1.388144E+02 -8.600812E+02  1.947633E+04 -5.238235E+02 -6.259579E+03
       436   5 -5.337463E+05  9.448975E+01 -6.035288E+02  1.093349E+04 -2.321712E+02 -4.389611E+03
       436   6 -5.338282E+05  1.566667E+02 -5.455248E+02  1.947625E+04  5.921476E+01 -2.516782E+03
       436   7 -6.637549E+05 -3.172082E+04 -3.013697E+04  1.909769E+04  9.541437E+02 -6.254215E+03
       436   8 -6.278600E+05 -2.299803E+04 -2.188465E+04  1.066180E+04  1.248050E+03 -4.384149E+03
       436   9 -5.921301E+05 -1.416921E+04 -1.383252E+04  1.931168E+04  1.541707E+03 -2.511218E+03
       436  10 -4.038896E+05  3.199725E+04  2.841566E+04  1.985502E+04  2.629654E-08 -1.006353E-08
       436  11 -4.396243E+05  2.318638E+04  2.067699E+04  1.120521E+04  1.743031E-09  1.957400E-09
       436  12 -4.755232E+05  1.448230E+04  1.274124E+04  1.964084E+04 -2.297108E-08  7.867085E-10
       436  13 -5.338301E+05  1.387723E+02 -8.601553E+02  1.947632E+04 -2.009663E-09  2.979633E-09
       436  14 -5.337463E+05  9.446905E+01 -6.035651E+02  1.093349E+04  6.435165E-10 -9.315241E-09
       436  15 -5.338282E+05  1.566599E+02 -5.455367E+02  1.947625E+04 -1.073388E-09 -4.723937E-09
       436  16 -6.637549E+05 -3.172087E+04 -3.013705E+04  1.909769E+04 -2.310660E-08  4.229349E-09
       436  17 -6.278600E+05 -2.299805E+04 -2.188469E+04  1.066180E+04 -4.501375E-09  6.293234E-09
       436  18 -5.921301E+05 -1.416922E+04 -1.383254E+04  1.931168E+04  2.298364E-08  2.601195E-09
       436  19 -4.038896E+05  3.199730E+04  2.841574E+04  1.985503E+04  2.002097E+03  6.264944E+03
       436  20 -4.396243E+05  2.318640E+04  2.067703E+04  1.120521E+04  1.712615E+03  4.395073E+03
       436  21 -4.755232E+05  1.448231E+04  1.274126E+04  1.964084E+04  1.423416E+03  2.522347E+03
       436  22 -5.338301E+05  1.388144E+02 -8.600812E+02  1.947633E+04  5.238235E+02  6.259579E+03
       436  23 -5.337463E+05  9.448975E+01 -6.035288E+02  1.093349E+04  2.321712E+02  4.389611E+03
       436  24 -5.338282E+05  1.566667E+02 -5.455248E+02  1.947625E+04 -5.921476E+01  2.516782E+03
       436  25 -6.637549E+05 -3.172082E+04 -3.013697E+04  1.909769E+04 -9.541437E+02  6.254215E+03
       436  26 -6.278600E+05 -2.299803E+04 -2.188465E+04  1.066180E+04 -1.248050E+03  4.384149E+03
       436  27 -5.921301E+05 -1.416921E+04 -1.383252E+04  1.931168E+04 -1.541707E+03  2.511218E+03
       437   1 -5.075567E+05  6.582862E+03  5.256744E+03  1.954706E+04 -1.326159E+03 -1.431487E+03
       437   2 -5.433241E+05 -2.252103E+03 -2.957621E+03  1.088044E+04 -9.414814E+02  4.432954E+02
       437   3 -5.792758E+05 -1.098874E+04 -1.143457E+04  1.932099E+04 -5.568018E+02  2.317057E+03
       437   4 -5.338320E+05  1.570405E+02 -5.804474E+02  1.948103E+04  1.569804E+02 -1.425893E+03
       437   5 -5.337392E+05  9.979100E+01 -7.902984E+02  1.092749E+04  5.408054E+02  4.488736E+02
       437   6 -5.338323E+05  1.409638E+02 -1.262222E+03  1.948109E+04  9.246543E+02  2.322625E+03
       437   7 -5.601067E+05 -6.268827E+03 -6.417674E+03  1.941500E+04  1.640058E+03 -1.420300E+03
       437   8 -5.241543E+05  2.451680E+03  1.377027E+03  1.097454E+04  2.023115E+03  4.544519E+02
       437   9 -4.883869E+05  1.127053E+04  8.910007E+03  1.964121E+04  2.406218E+03  2.328194E+03
       437  10 -5.075567E+05  6.582860E+03  5.256737E+03  1.954706E+04 -5.648106E-09 -3.675670E-09
       437  11 -5.433241E+05 -2.252104E+03 -2.957623E+03  1.088044E+04 -3.803979E-09 -7.956650E-09
       437  12 -5.792758E+05 -1.098875E+04 -1.143458E+04  1.932099E+04 -7.493690E-09 -2.218249E-09
       437  13 -5.338320E+05  1.570383E+02 -5.804513E+02  1.948103E+04 -2.388557E-09  1.086973E-08
       437  14 -5.337392E+05  9.979070E+01 -7.902994E+02  1.092749E+04 -1.255153E-10 -7.830841E-09
       437  15 -5.338323E+05  1.409577E+02 -1.262233E+03  1.948109E+04 -9.435199E-10 -1.381291E-09
       437  16 -5.601067E+05 -6.268830E+03 -6.417682E+03  1.941500E+04  8.199424E-09  5.180202E-09
       437  17 -5.241543E+05  2.451679E+03  1.377019E+03  1.097454E+04  2.376491E-09 -1.547344E-08
       437  18 -4.883869E+05  1.127052E+04  8.909986E+03  1.964120E+04  7.863064E-09 -8.513518E-09
       437  19 -5.075567E+05  6.582862E+03  5.256744E+03  1.954706E+04  1.326159E+03  1.431487E+03
       437  20 -5.433241E+05 -2.252103E+03 -2.957621E+03  1.088044E+04  9.414814E+02 -4.432954E+02
       437  21 -5.792758E+05 -1.098874E+04 -1.143457E+04  1.932099E+04  5.568018E+02 -2.317057E+03
       437  22 -5.338320E+05  1.570405E+02 -5.804474E+02  1.948103E+04 -1.569804E+02  1.425893E+03
       437  23 -5.337392E+05  9.979100E+01 -7.902984E+02  1.092749E+04 -5.408054E+02 -4.488736E+02
       437  24 -5.338323E+05  1.409638E+02 -1.262222E+03  1.948109E+04 -9.246543E+02 -2.322625E+03
       437  25 -5.601067E+05 -6.268827E+03 -6.417674E+03  1.941500E+04 -1.640058E+03  1.420300E+03
       437  26 -5.241543E+05  2.451680E+03  1.377027E+03  1.097454E+04 -2.023115E+03 -4.544519E+02
       437  27 -4.883869E+05  1.127053E+04  8.910007E+03  1.964121E+04 -2.406218E+03 -2.328194E+03
       438   1 -6.113411E+05 -1.885084E+04 -1.924460E+04  1.915939E+04 -3.061427E+02  3.410122E+03
       438   2 -6.469350E+05 -2.765844E+04 -2.838195E+04  1.057002E+04  1.080340E+03  5.282662E+03
       438   3 -6.829259E+05 -3.672732E+04 -3.852287E+04  1.905516E+04  2.467147E+03  7.133438E+03
       438   4 -5.338796E+05  1.771015E+02 -1.625318E+03  1.947337E+04  1.180377E+03  3.415671E+03
       438   5 -5.336837E+05  1.307773E+02 -2.771668E+03  1.093686E+04  2.549838E+03  5.288035E+03
       438   6 -5.338824E+05 -1.735832E+02 -4.909401E+03  1.947468E+04  3.919703E+03  7.138641E+03
       438   7 -4.564127E+05  1.920463E+04  1.599358E+04  1.978738E+04  2.667082E+03  3.421221E+03
       438   8 -4.204205E+05  2.791911E+04  2.283780E+04  1.130376E+04  4.019603E+03  5.293409E+03
       438   9 -3.848183E+05  3.637863E+04  2.870266E+04  1.989427E+04  5.372604E+03  7.143846E+03
       438  10 -6.113411E+05 -1.885085E+04 -1.924462E+04  1.915939E+04 -9.093426E-09  8.250155E-10
       438  11 -6.469350E+05 -2.765847E+04 -2.838200E+04  1.057002E+04 -9.637974E-10 -8.173714E-09
       438  12 -6.829260E+05 -3.672737E+04 -3.852298E+04  1.905515E+04  5.443967E-09 -3.246666E-09
       438  13 -5.338797E+05  1.770886E+02 -1.625343E+03  1.947336E+04 -2.133266E-09 -2.365249E-09
       438  14 -5.336837E+05  1.307455E+02 -2.771733E+03  1.093685E+04  6.095575E-11  3.886571E-09
       438  15 -5.338825E+05 -1.736420E+02 -4.909525E+03  1.947465E+04 -1.300181E-09  1.242845E-09
       438  16 -4.564127E+05  1.920461E+04  1.599355E+04  1.978737E+04  1.166652E-08  5.566482E-09
       438  17 -4.204206E+05  2.791907E+04  2.283771E+04  1.130375E+04 -1.738581E-10 -7.317664E-09
       438  18 -3.848183E+05  3.637856E+04  2.870251E+04  1.989424E+04 -5.183228E-09  3.820279E-09
       438  19 -6.113411E+05 -1.885084E+04 -1.924460E+04  1.915939E+04  3.061427E+02 -3.410122E+03
       438  20 -6.469350E+05 -2.765844E+04 -2.838195E+04  1.057002E+04 -1.080340E+03 -5.282662E+03
       438  21 -6.829259E+05 -3.672732E+04 -3.852287E+04  1.905516E+04 -2.467147E+03 -7.133438E+03
       438  22 -5.338796E+05  1.771015E+02 -1.625318E+03  1.947337E+04 -1.180377E+03 -3.415671E+03
       438  23 -5.336837E+05  1.307773E+02 -2.771668E+03  1.093686E+04 -2.549838E+03 -5.288035E+03
       438  24 -5.338824E+05 -1.735832E+02 -4.909401E+03  1.947468E+04 -3.919703E+03 -7.138641E+03
       438  25 -4.564127E+05  1.920463E+04  1.599358E+04  1.978738E+04 -2.667082E+03 -3.421221E+03
       438  26 -4.204205E+05  2.791911E+04  2.283780E+04  1.130376E+04 -4.019603E+03 -5.293409E+03
       438  27 -3.848183E+05  3.637863E+04  2.870266E+04  1.989427E+04 -5.372604E+03 -7.143846E+03
       439   1 -7.152383E+05 -4.398401E+04 -4.738803E+04  1.802971E+04  3.328224E+03  8.268148E+03
       439   2 -7.497332E+05 -5.273888E+04 -5.998053E+04  1.082972E+04  9.195463E+03  1.006958E+04
       439   3 -7.864945E+05 -6.698949E+04 -7.779962E+04  2.061623E+04  1.506437E+04  1.144216E+04
       439   4 -5.342877E+05  4.447963E+02 -6.373167E+03  1.944883E+04  4.907617E+03  8.273714E+03
       439   5 -5.331873E+05  4.005148E+02 -1.097997E+04  1.096544E+04  1.043724E+04  1.007372E+04
       439   6 -5.342948E+05 -5.079546E+03 -2.057726E+04  1.946825E+04  1.596886E+04  1.144492E+04
       439   7 -3.533067E+05  4.487135E+04  3.463959E+04  2.086835E+04  6.487467E+03  8.279287E+03
       439   8 -3.165978E+05  5.353668E+04  3.801759E+04  1.110117E+04  1.167944E+04  1.007786E+04
       439   9 -2.820360E+05  5.682601E+04  3.664100E+04  1.831975E+04  1.687371E+04  1.144768E+04
       439  10 -7.152383E+05 -4.398409E+04 -4.738818E+04  1.802969E+04  5.698123E-10  3.826174E-09
       439  11 -7.497333E+05 -5.273901E+04 -5.998088E+04  1.082965E+04 -1.665305E-10  6.772972E-09
       439  12 -7.864948E+05 -6.698969E+04 -7.780029E+04  2.061609E+04  4.336577E-09 -4.868597E-09
       439  13 -5.342878E+05  4.447163E+02 -6.373341E+03  1.944880E+04 -1.475616E-09 -3.774577E-09
       439  14 -5.331874E+05  4.003766E+02 -1.098036E+04  1.096536E+04 -7.918580E-10  8.673244E-09
       439  15 -5.342951E+05 -5.079755E+03 -2.057798E+04  1.946811E+04 -1.132509E-09 -4.837736E-09
       439  16 -3.533068E+05  4.487127E+04  3.463939E+04  2.086830E+04  2.552098E-09 -4.334033E-09
       439  17 -3.165980E+05  5.353654E+04  3.801714E+04  1.110107E+04 -1.778667E-09 -1.380631E-08
       439  18 -2.820364E+05  5.682580E+04  3.664022E+04  1.831960E+04 -4.066337E-09 -5.298589E-10
       439  19 -7.152383E+05 -4.398401E+04 -4.738803E+04  1.802971E+04 -3.328224E+03 -8.268148E+03
       439  20 -7.497332E+05 -5.273888E+04 -5.998053E+04  1.082972E+04 -9.195463E+03 -1.006958E+04
       439  21 -7.864945E+05 -6.698949E+04 -7.779962E+04  2.061623E+04 -1.506437E+04 -1.144216E+04
       439  22 -5.342877E+05  4.447963E+02 -6.373167E+03  1.944883E+04 -4.907617E+03 -8.273714E+03
       439  23 -5.331873E+05  4.005148E+02 -1.097997E+04  1.096544E+04 -1.043724E+04 -1.007372E+04
       439  24 -5.342948E+05 -5.079546E+03 -2.057726E+04  1.946825E+04 -1.596886E+04 -1.144492E+04
       439  25 -3.533067E+05  4.487135E+04  3.463959E+04  2.086835E+04 -6.487467E+03 -8.279287E+03
       439  26 -3.165978E+05  5.353668E+04  3.801759E+04  1.110117E+04 -1.167944E+04 -1.007786E+04
       439  27 -2.820360E+05  5.682601E+04  3.664100E+04  1.831975E+04 -1.687371E+04 -1.144768E+04
       440   1 -8.229642E+05 -6.543088E+04 -8.981352E+04  7.021592E+03  1.599396E+04  1.350582E+04
       440   2 -8.462492E+05 -7.480645E+04 -1.158218E+05  2.164051E+04  4.618234E+04  1.367182E+04
       440   3 -8.941230E+05 -1.664127E+05 -1.820777E+05  5.292333E+04  7.639725E+04  4.631318E+03
       440   4 -5.389848E+05  4.332671E+03 -2.567844E+04  1.931105E+04  1.969314E+04  1.351827E+04
       440   5 -5.273417E+05  3.498944E+03 -4.302037E+04  1.111165E+04  4.260659E+04  1.365878E+04
       440   6 -5.390127E+05 -7.828037E+04 -9.554123E+04  1.957780E+04  6.554878E+04  4.592688E+03
       440   7 -2.549300E+05  7.409123E+04  3.845158E+04  3.160612E+04  2.339400E+04  1.353086E+04
       440   8 -2.083394E+05  8.179773E+04  2.977458E+04  5.772401E+02  3.902902E+04  1.364587E+04
       440   9 -1.837845E+05  9.846986E+03 -9.012894E+03 -1.378696E+04  5.469411E+04  4.555237E+03
       440  10 -8.229646E+05 -6.543115E+04 -8.981434E+04  7.021418E+03  4.374525E-09 -6.009123E-09
       440  11 -8.462516E+05 -7.480723E+04 -1.158262E+05  2.164001E+04  3.880410E-09 -2.142397E-09
       440  12 -8.941292E+05 -1.664143E+05 -1.820887E+05  5.292304E+04  1.897810E-09  3.821289E-09
       440  13 -5.389853E+05  4.332371E+03 -2.567952E+04  1.931083E+04 -1.690511E-09  2.616221E-09
       440  14 -5.273437E+05  3.498256E+03 -4.302413E+04  1.111118E+04 -6.587416E-11  1.075840E-09
       440  15 -5.390173E+05 -7.828155E+04 -9.554935E+04  1.957755E+04 -1.357133E-09  4.496163E-09
       440  16 -2.549306E+05  7.409088E+04  3.845021E+04  3.160587E+04 -1.551352E-09  3.408603E-09
       440  17 -2.083411E+05  8.179712E+04  2.977137E+04  5.768112E+02 -5.683477E-09  1.199762E-08
       440  18 -1.837878E+05  9.846160E+03 -9.018556E+03 -1.378716E+04 -2.427688E-09  1.805661E-09
       440  19 -8.229642E+05 -6.543088E+04 -8.981352E+04  7.021592E+03 -1.599396E+04 -1.350582E+04
       440  20 -8.462492E+05 -7.480645E+04 -1.158218E+05  2.164051E+04 -4.618234E+04 -1.367182E+04
       440  21 -8.941230E+05 -1.664127E+05 -1.820777E+05  5.292333E+04 -7.639725E+04 -4.631318E+03
       440  22 -5.389848E+05  4.332671E+03 -2.567844E+04  1.931105E+04 -1.969314E+04 -1.351827E+04
       440  23 -5.273417E+05  3.498944E+03 -4.302037E+04  1.111165E+04 -4.260659E+04 -1.365878E+04
       440  24 -5.390127E+05 -7.828037E+04 -9.554123E+04  1.957780E+04 -6.554878E+04 -4.592688E+03
       440  25 -2.549300E+05  7.409123E+04  3.845158E+04  3.160612E+04 -2.339400E+04 -1.353086E+04
       440  26 -2.083394E+05  8.179773E+04  2.977458E+04  5.772401E+02 -3.902902E+04 -1.364587E+04
       440  27 -1.837845E+05  9.846986E+03 -9.012894E+03 -1.378696E+04 -5.469411E+04 -4.555237E+03
