    1C
    1UUSER                                                              
    1UDATE              11.october.2022                                 
    1UTIME              19:05:05                                        
    1UHOST                                                              
    1UPGM               CalculiX                                        
    1UVERSION           Version 2.20                             
    1UCOMPILETIME       Sun Jul 31 18:08:37 CEST 2022                    
    1UDIR                                                               
    1UDBN                                                               
    1UMAT    1MESH_MATERIAL                                             
    2C                           409                                     1
 -1         1 0.00000E+00 0.00000E+00 0.00000E+00
 -1         2 1.66667E-02 0.00000E+00 0.00000E+00
 -1         3 3.33333E-02 0.00000E+00 0.00000E+00
 -1         5 6.66667E-02 0.00000E+00 0.00000E+00
 -1         8 0.00000E+00 6.25000E-03 0.00000E+00
 -1         9 1.66667E-02 6.25000E-03 0.00000E+00
 -1        10 3.33333E-02 6.25000E-03 0.00000E+00
 -1        12 6.66667E-02 6.25000E-03 0.00000E+00
 -1        15 0.00000E+00 1.25000E-02 0.00000E+00
 -1        16 1.66667E-02 1.25000E-02 0.00000E+00
 -1        17 3.33333E-02 1.25000E-02 0.00000E+00
 -1        18 5.00000E-02 1.25000E-02 0.00000E+00
 -1        19 6.66667E-02 1.25000E-02 0.00000E+00
 -1        20 8.33333E-02 1.25000E-02 0.00000E+00
 -1        21 1.00000E-01 1.25000E-02 0.00000E+00
 -1        24 3.33333E-02 1.87500E-02 0.00000E+00
 -1        25 5.00000E-02 1.87500E-02 0.00000E+00
 -1        26 6.66667E-02 1.87500E-02 0.00000E+00
 -1        27 8.33333E-02 1.87500E-02 0.00000E+00
 -1        28 1.00000E-01 1.87500E-02 0.00000E+00
 -1        32 5.00000E-02 2.50000E-02 0.00000E+00
 -1        33 6.66667E-02 2.50000E-02 0.00000E+00
 -1        34 8.33333E-02 2.50000E-02 0.00000E+00
 -1        35 1.00000E-01 2.50000E-02 0.00000E+00
 -1        51 0.00000E+00 1.04167E-03 0.00000E+00
 -1        52 0.00000E+00 2.08333E-03 0.00000E+00
 -1        53 0.00000E+00 3.12500E-03 0.00000E+00
 -1        54 0.00000E+00 4.16667E-03 0.00000E+00
 -1        55 0.00000E+00 5.20833E-03 0.00000E+00
 -1        56 1.04167E-03 3.90630E-04 0.00000E+00
 -1        57 2.08333E-03 7.81250E-04 0.00000E+00
 -1        58 3.12500E-03 1.17188E-03 0.00000E+00
 -1        59 4.16667E-03 1.56250E-03 0.00000E+00
 -1        60 5.20833E-03 1.95312E-03 0.00000E+00
 -1        61 6.25000E-03 2.34375E-03 0.00000E+00
 -1        62 7.29167E-03 2.73438E-03 0.00000E+00
 -1        63 8.33333E-03 3.12500E-03 0.00000E+00
 -1        64 9.37500E-03 3.51563E-03 0.00000E+00
 -1        65 1.04167E-02 3.90625E-03 0.00000E+00
 -1        66 1.14583E-02 4.29688E-03 0.00000E+00
 -1        67 1.25000E-02 4.68750E-03 0.00000E+00
 -1        68 1.35417E-02 5.07813E-03 0.00000E+00
 -1        69 1.45833E-02 5.46875E-03 0.00000E+00
 -1        70 1.56250E-02 5.85938E-03 0.00000E+00
 -1        86 1.66667E-02 1.04167E-03 0.00000E+00
 -1        87 1.66667E-02 2.08333E-03 0.00000E+00
 -1        88 1.66667E-02 3.12500E-03 0.00000E+00
 -1        89 1.66667E-02 4.16667E-03 0.00000E+00
 -1        90 1.66667E-02 5.20833E-03 0.00000E+00
 -1       121 3.33333E-02 1.04167E-03 0.00000E+00
 -1       122 3.33333E-02 2.08333E-03 0.00000E+00
 -1       123 3.33333E-02 3.12500E-03 0.00000E+00
 -1       124 3.33333E-02 4.16667E-03 0.00000E+00
 -1       125 3.33333E-02 5.20833E-03 0.00000E+00
 -1       191 6.66667E-02 1.04167E-03 0.00000E+00
 -1       192 6.66667E-02 2.08333E-03 0.00000E+00
 -1       193 6.66667E-02 3.12500E-03 0.00000E+00
 -1       194 6.66667E-02 4.16667E-03 0.00000E+00
 -1       195 6.66667E-02 5.20833E-03 0.00000E+00
 -1       251 1.04167E-03 6.25000E-03 0.00000E+00
 -1       252 2.08333E-03 6.25000E-03 0.00000E+00
 -1       253 3.12500E-03 6.25000E-03 0.00000E+00
 -1       254 4.16667E-03 6.25000E-03 0.00000E+00
 -1       255 5.20833E-03 6.25000E-03 0.00000E+00
 -1       256 6.25000E-03 6.25000E-03 0.00000E+00
 -1       257 7.29167E-03 6.25000E-03 0.00000E+00
 -1       258 8.33333E-03 6.25000E-03 0.00000E+00
 -1       259 9.37500E-03 6.25000E-03 0.00000E+00
 -1       260 1.04167E-02 6.25000E-03 0.00000E+00
 -1       261 1.14583E-02 6.25000E-03 0.00000E+00
 -1       262 1.25000E-02 6.25000E-03 0.00000E+00
 -1       263 1.35417E-02 6.25000E-03 0.00000E+00
 -1       264 1.45833E-02 6.25000E-03 0.00000E+00
 -1       265 1.56250E-02 6.25000E-03 0.00000E+00
 -1       266 0.00000E+00 7.29167E-03 0.00000E+00
 -1       267 0.00000E+00 8.33333E-03 0.00000E+00
 -1       268 0.00000E+00 9.37500E-03 0.00000E+00
 -1       269 0.00000E+00 1.04167E-02 0.00000E+00
 -1       270 0.00000E+00 1.14583E-02 0.00000E+00
 -1       271 1.04167E-03 6.64063E-03 0.00000E+00
 -1       272 2.08333E-03 7.03125E-03 0.00000E+00
 -1       273 3.12500E-03 7.42188E-03 0.00000E+00
 -1       274 4.16667E-03 7.81250E-03 0.00000E+00
 -1       275 5.20833E-03 8.20313E-03 0.00000E+00
 -1       276 6.25000E-03 8.59375E-03 0.00000E+00
 -1       277 7.29167E-03 8.98438E-03 0.00000E+00
 -1       278 8.33333E-03 9.37500E-03 0.00000E+00
 -1       279 9.37500E-03 9.76562E-03 0.00000E+00
 -1       280 1.04167E-02 1.01562E-02 0.00000E+00
 -1       281 1.14583E-02 1.05469E-02 0.00000E+00
 -1       282 1.25000E-02 1.09375E-02 0.00000E+00
 -1       283 1.35417E-02 1.13281E-02 0.00000E+00
 -1       284 1.45833E-02 1.17188E-02 0.00000E+00
 -1       285 1.56250E-02 1.21094E-02 0.00000E+00
 -1       301 1.66667E-02 7.29167E-03 0.00000E+00
 -1       302 1.66667E-02 8.33333E-03 0.00000E+00
 -1       303 1.66667E-02 9.37500E-03 0.00000E+00
 -1       304 1.66667E-02 1.04167E-02 0.00000E+00
 -1       305 1.66667E-02 1.14583E-02 0.00000E+00
 -1       306 1.77083E-02 6.64063E-03 0.00000E+00
 -1       307 1.87500E-02 7.03125E-03 0.00000E+00
 -1       308 1.97917E-02 7.42188E-03 0.00000E+00
 -1       309 2.08333E-02 7.81250E-03 0.00000E+00
 -1       310 2.18750E-02 8.20313E-03 0.00000E+00
 -1       311 2.29167E-02 8.59375E-03 0.00000E+00
 -1       312 2.39583E-02 8.98438E-03 0.00000E+00
 -1       313 2.50000E-02 9.37500E-03 0.00000E+00
 -1       314 2.60417E-02 9.76562E-03 0.00000E+00
 -1       315 2.70833E-02 1.01562E-02 0.00000E+00
 -1       316 2.81250E-02 1.05469E-02 0.00000E+00
 -1       317 2.91667E-02 1.09375E-02 0.00000E+00
 -1       318 3.02083E-02 1.13281E-02 0.00000E+00
 -1       319 3.12500E-02 1.17188E-02 0.00000E+00
 -1       320 3.22917E-02 1.21094E-02 0.00000E+00
 -1       336 3.33333E-02 7.29167E-03 0.00000E+00
 -1       337 3.33333E-02 8.33333E-03 0.00000E+00
 -1       338 3.33333E-02 9.37500E-03 0.00000E+00
 -1       339 3.33333E-02 1.04167E-02 0.00000E+00
 -1       340 3.33333E-02 1.14583E-02 0.00000E+00
 -1       406 6.66667E-02 7.29167E-03 0.00000E+00
 -1       407 6.66667E-02 8.33333E-03 0.00000E+00
 -1       408 6.66667E-02 9.37500E-03 0.00000E+00
 -1       409 6.66667E-02 1.04167E-02 0.00000E+00
 -1       410 6.66667E-02 1.14583E-02 0.00000E+00
 -1       521 1.77083E-02 1.28906E-02 0.00000E+00
 -1       522 1.87500E-02 1.32813E-02 0.00000E+00
 -1       523 1.97917E-02 1.36719E-02 0.00000E+00
 -1       524 2.08333E-02 1.40625E-02 0.00000E+00
 -1       525 2.18750E-02 1.44531E-02 0.00000E+00
 -1       526 2.29167E-02 1.48437E-02 0.00000E+00
 -1       527 2.39583E-02 1.52344E-02 0.00000E+00
 -1       528 2.50000E-02 1.56250E-02 0.00000E+00
 -1       529 2.60417E-02 1.60156E-02 0.00000E+00
 -1       530 2.70833E-02 1.64062E-02 0.00000E+00
 -1       531 2.81250E-02 1.67969E-02 0.00000E+00
 -1       532 2.91667E-02 1.71875E-02 0.00000E+00
 -1       533 3.02083E-02 1.75781E-02 0.00000E+00
 -1       534 3.12500E-02 1.79687E-02 0.00000E+00
 -1       535 3.22917E-02 1.83594E-02 0.00000E+00
 -1       536 3.43750E-02 1.25000E-02 0.00000E+00
 -1       537 3.54167E-02 1.25000E-02 0.00000E+00
 -1       538 3.64583E-02 1.25000E-02 0.00000E+00
 -1       539 3.75000E-02 1.25000E-02 0.00000E+00
 -1       540 3.85417E-02 1.25000E-02 0.00000E+00
 -1       541 3.95833E-02 1.25000E-02 0.00000E+00
 -1       542 4.06250E-02 1.25000E-02 0.00000E+00
 -1       543 4.16667E-02 1.25000E-02 0.00000E+00
 -1       544 4.27083E-02 1.25000E-02 0.00000E+00
 -1       545 4.37500E-02 1.25000E-02 0.00000E+00
 -1       546 4.47917E-02 1.25000E-02 0.00000E+00
 -1       547 4.58333E-02 1.25000E-02 0.00000E+00
 -1       548 4.68750E-02 1.25000E-02 0.00000E+00
 -1       549 4.79167E-02 1.25000E-02 0.00000E+00
 -1       550 4.89583E-02 1.25000E-02 0.00000E+00
 -1       551 3.33333E-02 1.35417E-02 0.00000E+00
 -1       552 3.33333E-02 1.45833E-02 0.00000E+00
 -1       553 3.33333E-02 1.56250E-02 0.00000E+00
 -1       554 3.33333E-02 1.66667E-02 0.00000E+00
 -1       555 3.33333E-02 1.77083E-02 0.00000E+00
 -1       556 3.43750E-02 1.28906E-02 0.00000E+00
 -1       557 3.54167E-02 1.32813E-02 0.00000E+00
 -1       558 3.64583E-02 1.36719E-02 0.00000E+00
 -1       559 3.75000E-02 1.40625E-02 0.00000E+00
 -1       560 3.85417E-02 1.44531E-02 0.00000E+00
 -1       561 3.95833E-02 1.48437E-02 0.00000E+00
 -1       562 4.06250E-02 1.52344E-02 0.00000E+00
 -1       563 4.16667E-02 1.56250E-02 0.00000E+00
 -1       564 4.27083E-02 1.60156E-02 0.00000E+00
 -1       565 4.37500E-02 1.64062E-02 0.00000E+00
 -1       566 4.47917E-02 1.67969E-02 0.00000E+00
 -1       567 4.58333E-02 1.71875E-02 0.00000E+00
 -1       568 4.68750E-02 1.75781E-02 0.00000E+00
 -1       569 4.79167E-02 1.79687E-02 0.00000E+00
 -1       570 4.89583E-02 1.83594E-02 0.00000E+00
 -1       571 5.10417E-02 1.25000E-02 0.00000E+00
 -1       572 5.20833E-02 1.25000E-02 0.00000E+00
 -1       573 5.31250E-02 1.25000E-02 0.00000E+00
 -1       574 5.41667E-02 1.25000E-02 0.00000E+00
 -1       575 5.52083E-02 1.25000E-02 0.00000E+00
 -1       576 5.62500E-02 1.25000E-02 0.00000E+00
 -1       577 5.72917E-02 1.25000E-02 0.00000E+00
 -1       578 5.83333E-02 1.25000E-02 0.00000E+00
 -1       579 5.93750E-02 1.25000E-02 0.00000E+00
 -1       580 6.04167E-02 1.25000E-02 0.00000E+00
 -1       581 6.14583E-02 1.25000E-02 0.00000E+00
 -1       582 6.25000E-02 1.25000E-02 0.00000E+00
 -1       583 6.35417E-02 1.25000E-02 0.00000E+00
 -1       584 6.45833E-02 1.25000E-02 0.00000E+00
 -1       585 6.56250E-02 1.25000E-02 0.00000E+00
 -1       586 5.00000E-02 1.35417E-02 0.00000E+00
 -1       587 5.00000E-02 1.45833E-02 0.00000E+00
 -1       588 5.00000E-02 1.56250E-02 0.00000E+00
 -1       589 5.00000E-02 1.66667E-02 0.00000E+00
 -1       590 5.00000E-02 1.77083E-02 0.00000E+00
 -1       591 5.10417E-02 1.28906E-02 0.00000E+00
 -1       592 5.20833E-02 1.32813E-02 0.00000E+00
 -1       593 5.31250E-02 1.36719E-02 0.00000E+00
 -1       594 5.41667E-02 1.40625E-02 0.00000E+00
 -1       595 5.52083E-02 1.44531E-02 0.00000E+00
 -1       596 5.62500E-02 1.48437E-02 0.00000E+00
 -1       597 5.72917E-02 1.52344E-02 0.00000E+00
 -1       598 5.83333E-02 1.56250E-02 0.00000E+00
 -1       599 5.93750E-02 1.60156E-02 0.00000E+00
 -1       600 6.04167E-02 1.64062E-02 0.00000E+00
 -1       601 6.14583E-02 1.67969E-02 0.00000E+00
 -1       602 6.25000E-02 1.71875E-02 0.00000E+00
 -1       603 6.35417E-02 1.75781E-02 0.00000E+00
 -1       604 6.45833E-02 1.79687E-02 0.00000E+00
 -1       605 6.56250E-02 1.83594E-02 0.00000E+00
 -1       606 6.77083E-02 1.25000E-02 0.00000E+00
 -1       607 6.87500E-02 1.25000E-02 0.00000E+00
 -1       608 6.97917E-02 1.25000E-02 0.00000E+00
 -1       609 7.08333E-02 1.25000E-02 0.00000E+00
 -1       610 7.18750E-02 1.25000E-02 0.00000E+00
 -1       611 7.29167E-02 1.25000E-02 0.00000E+00
 -1       612 7.39583E-02 1.25000E-02 0.00000E+00
 -1       613 7.50000E-02 1.25000E-02 0.00000E+00
 -1       614 7.60417E-02 1.25000E-02 0.00000E+00
 -1       615 7.70833E-02 1.25000E-02 0.00000E+00
 -1       616 7.81250E-02 1.25000E-02 0.00000E+00
 -1       617 7.91667E-02 1.25000E-02 0.00000E+00
 -1       618 8.02083E-02 1.25000E-02 0.00000E+00
 -1       619 8.12500E-02 1.25000E-02 0.00000E+00
 -1       620 8.22917E-02 1.25000E-02 0.00000E+00
 -1       621 6.66667E-02 1.35417E-02 0.00000E+00
 -1       622 6.66667E-02 1.45833E-02 0.00000E+00
 -1       623 6.66667E-02 1.56250E-02 0.00000E+00
 -1       624 6.66667E-02 1.66667E-02 0.00000E+00
 -1       625 6.66667E-02 1.77083E-02 0.00000E+00
 -1       626 6.77083E-02 1.28906E-02 0.00000E+00
 -1       627 6.87500E-02 1.32813E-02 0.00000E+00
 -1       628 6.97917E-02 1.36719E-02 0.00000E+00
 -1       629 7.08333E-02 1.40625E-02 0.00000E+00
 -1       630 7.18750E-02 1.44531E-02 0.00000E+00
 -1       631 7.29167E-02 1.48437E-02 0.00000E+00
 -1       632 7.39583E-02 1.52344E-02 0.00000E+00
 -1       633 7.50000E-02 1.56250E-02 0.00000E+00
 -1       634 7.60417E-02 1.60156E-02 0.00000E+00
 -1       635 7.70833E-02 1.64062E-02 0.00000E+00
 -1       636 7.81250E-02 1.67969E-02 0.00000E+00
 -1       637 7.91667E-02 1.71875E-02 0.00000E+00
 -1       638 8.02083E-02 1.75781E-02 0.00000E+00
 -1       639 8.12500E-02 1.79687E-02 0.00000E+00
 -1       640 8.22917E-02 1.83594E-02 0.00000E+00
 -1       656 8.33333E-02 1.35417E-02 0.00000E+00
 -1       657 8.33333E-02 1.45833E-02 0.00000E+00
 -1       658 8.33333E-02 1.56250E-02 0.00000E+00
 -1       659 8.33333E-02 1.66667E-02 0.00000E+00
 -1       660 8.33333E-02 1.77083E-02 0.00000E+00
 -1       661 8.43750E-02 1.28906E-02 0.00000E+00
 -1       662 8.54167E-02 1.32813E-02 0.00000E+00
 -1       663 8.64583E-02 1.36719E-02 0.00000E+00
 -1       664 8.75000E-02 1.40625E-02 0.00000E+00
 -1       665 8.85417E-02 1.44531E-02 0.00000E+00
 -1       666 8.95833E-02 1.48437E-02 0.00000E+00
 -1       667 9.06250E-02 1.52344E-02 0.00000E+00
 -1       668 9.16667E-02 1.56250E-02 0.00000E+00
 -1       669 9.27083E-02 1.60156E-02 0.00000E+00
 -1       670 9.37500E-02 1.64062E-02 0.00000E+00
 -1       671 9.47917E-02 1.67969E-02 0.00000E+00
 -1       672 9.58333E-02 1.71875E-02 0.00000E+00
 -1       673 9.68750E-02 1.75781E-02 0.00000E+00
 -1       674 9.79167E-02 1.79687E-02 0.00000E+00
 -1       675 9.89583E-02 1.83594E-02 0.00000E+00
 -1       676 1.00000E-01 1.35417E-02 0.00000E+00
 -1       677 1.00000E-01 1.45833E-02 0.00000E+00
 -1       678 1.00000E-01 1.56250E-02 0.00000E+00
 -1       679 1.00000E-01 1.66667E-02 0.00000E+00
 -1       680 1.00000E-01 1.77083E-02 0.00000E+00
 -1       771 3.43750E-02 1.91406E-02 0.00000E+00
 -1       772 3.54167E-02 1.95312E-02 0.00000E+00
 -1       773 3.64583E-02 1.99219E-02 0.00000E+00
 -1       774 3.75000E-02 2.03125E-02 0.00000E+00
 -1       775 3.85417E-02 2.07031E-02 0.00000E+00
 -1       776 3.95833E-02 2.10938E-02 0.00000E+00
 -1       777 4.06250E-02 2.14844E-02 0.00000E+00
 -1       778 4.16667E-02 2.18750E-02 0.00000E+00
 -1       779 4.27083E-02 2.22656E-02 0.00000E+00
 -1       780 4.37500E-02 2.26563E-02 0.00000E+00
 -1       781 4.47917E-02 2.30469E-02 0.00000E+00
 -1       782 4.58333E-02 2.34375E-02 0.00000E+00
 -1       783 4.68750E-02 2.38281E-02 0.00000E+00
 -1       784 4.79167E-02 2.42187E-02 0.00000E+00
 -1       785 4.89583E-02 2.46094E-02 0.00000E+00
 -1       786 5.10417E-02 1.87500E-02 0.00000E+00
 -1       787 5.20833E-02 1.87500E-02 0.00000E+00
 -1       788 5.31250E-02 1.87500E-02 0.00000E+00
 -1       789 5.41667E-02 1.87500E-02 0.00000E+00
 -1       790 5.52083E-02 1.87500E-02 0.00000E+00
 -1       791 5.62500E-02 1.87500E-02 0.00000E+00
 -1       792 5.72917E-02 1.87500E-02 0.00000E+00
 -1       793 5.83333E-02 1.87500E-02 0.00000E+00
 -1       794 5.93750E-02 1.87500E-02 0.00000E+00
 -1       795 6.04167E-02 1.87500E-02 0.00000E+00
 -1       796 6.14583E-02 1.87500E-02 0.00000E+00
 -1       797 6.25000E-02 1.87500E-02 0.00000E+00
 -1       798 6.35417E-02 1.87500E-02 0.00000E+00
 -1       799 6.45833E-02 1.87500E-02 0.00000E+00
 -1       800 6.56250E-02 1.87500E-02 0.00000E+00
 -1       801 5.00000E-02 1.97917E-02 0.00000E+00
 -1       802 5.00000E-02 2.08333E-02 0.00000E+00
 -1       803 5.00000E-02 2.18750E-02 0.00000E+00
 -1       804 5.00000E-02 2.29167E-02 0.00000E+00
 -1       805 5.00000E-02 2.39583E-02 0.00000E+00
 -1       806 5.10417E-02 1.91406E-02 0.00000E+00
 -1       807 5.20833E-02 1.95312E-02 0.00000E+00
 -1       808 5.31250E-02 1.99219E-02 0.00000E+00
 -1       809 5.41667E-02 2.03125E-02 0.00000E+00
 -1       810 5.52083E-02 2.07031E-02 0.00000E+00
 -1       811 5.62500E-02 2.10938E-02 0.00000E+00
 -1       812 5.72917E-02 2.14844E-02 0.00000E+00
 -1       813 5.83333E-02 2.18750E-02 0.00000E+00
 -1       814 5.93750E-02 2.22656E-02 0.00000E+00
 -1       815 6.04167E-02 2.26563E-02 0.00000E+00
 -1       816 6.14583E-02 2.30469E-02 0.00000E+00
 -1       817 6.25000E-02 2.34375E-02 0.00000E+00
 -1       818 6.35417E-02 2.38281E-02 0.00000E+00
 -1       819 6.45833E-02 2.42187E-02 0.00000E+00
 -1       820 6.56250E-02 2.46094E-02 0.00000E+00
 -1       821 6.77083E-02 1.87500E-02 0.00000E+00
 -1       822 6.87500E-02 1.87500E-02 0.00000E+00
 -1       823 6.97917E-02 1.87500E-02 0.00000E+00
 -1       824 7.08333E-02 1.87500E-02 0.00000E+00
 -1       825 7.18750E-02 1.87500E-02 0.00000E+00
 -1       826 7.29167E-02 1.87500E-02 0.00000E+00
 -1       827 7.39583E-02 1.87500E-02 0.00000E+00
 -1       828 7.50000E-02 1.87500E-02 0.00000E+00
 -1       829 7.60417E-02 1.87500E-02 0.00000E+00
 -1       830 7.70833E-02 1.87500E-02 0.00000E+00
 -1       831 7.81250E-02 1.87500E-02 0.00000E+00
 -1       832 7.91667E-02 1.87500E-02 0.00000E+00
 -1       833 8.02083E-02 1.87500E-02 0.00000E+00
 -1       834 8.12500E-02 1.87500E-02 0.00000E+00
 -1       835 8.22917E-02 1.87500E-02 0.00000E+00
 -1       836 6.66667E-02 1.97917E-02 0.00000E+00
 -1       837 6.66667E-02 2.08333E-02 0.00000E+00
 -1       838 6.66667E-02 2.18750E-02 0.00000E+00
 -1       839 6.66667E-02 2.29167E-02 0.00000E+00
 -1       840 6.66667E-02 2.39583E-02 0.00000E+00
 -1       856 8.43750E-02 1.87500E-02 0.00000E+00
 -1       857 8.54167E-02 1.87500E-02 0.00000E+00
 -1       858 8.64583E-02 1.87500E-02 0.00000E+00
 -1       859 8.75000E-02 1.87500E-02 0.00000E+00
 -1       860 8.85417E-02 1.87500E-02 0.00000E+00
 -1       861 8.95833E-02 1.87500E-02 0.00000E+00
 -1       862 9.06250E-02 1.87500E-02 0.00000E+00
 -1       863 9.16667E-02 1.87500E-02 0.00000E+00
 -1       864 9.27083E-02 1.87500E-02 0.00000E+00
 -1       865 9.37500E-02 1.87500E-02 0.00000E+00
 -1       866 9.47917E-02 1.87500E-02 0.00000E+00
 -1       867 9.58333E-02 1.87500E-02 0.00000E+00
 -1       868 9.68750E-02 1.87500E-02 0.00000E+00
 -1       869 9.79167E-02 1.87500E-02 0.00000E+00
 -1       870 9.89583E-02 1.87500E-02 0.00000E+00
 -1       871 8.33333E-02 1.97917E-02 0.00000E+00
 -1       872 8.33333E-02 2.08333E-02 0.00000E+00
 -1       873 8.33333E-02 2.18750E-02 0.00000E+00
 -1       874 8.33333E-02 2.29167E-02 0.00000E+00
 -1       875 8.33333E-02 2.39583E-02 0.00000E+00
 -1       876 8.43750E-02 1.91406E-02 0.00000E+00
 -1       877 8.54167E-02 1.95312E-02 0.00000E+00
 -1       878 8.64583E-02 1.99219E-02 0.00000E+00
 -1       879 8.75000E-02 2.03125E-02 0.00000E+00
 -1       880 8.85417E-02 2.07031E-02 0.00000E+00
 -1       881 8.95833E-02 2.10938E-02 0.00000E+00
 -1       882 9.06250E-02 2.14844E-02 0.00000E+00
 -1       883 9.16667E-02 2.18750E-02 0.00000E+00
 -1       884 9.27083E-02 2.22656E-02 0.00000E+00
 -1       885 9.37500E-02 2.26563E-02 0.00000E+00
 -1       886 9.47917E-02 2.30469E-02 0.00000E+00
 -1       887 9.58333E-02 2.34375E-02 0.00000E+00
 -1       888 9.68750E-02 2.38281E-02 0.00000E+00
 -1       889 9.79167E-02 2.42187E-02 0.00000E+00
 -1       890 9.89583E-02 2.46094E-02 0.00000E+00
 -1       891 1.00000E-01 1.97917E-02 0.00000E+00
 -1       892 1.00000E-01 2.08333E-02 0.00000E+00
 -1       893 1.00000E-01 2.18750E-02 0.00000E+00
 -1       894 1.00000E-01 2.29167E-02 0.00000E+00
 -1       895 1.00000E-01 2.39583E-02 0.00000E+00
 -1       956 6.77083E-02 2.50000E-02 0.00000E+00
 -1       957 6.87500E-02 2.50000E-02 0.00000E+00
 -1       958 6.97917E-02 2.50000E-02 0.00000E+00
 -1       959 7.08333E-02 2.50000E-02 0.00000E+00
 -1       960 7.18750E-02 2.50000E-02 0.00000E+00
 -1       961 7.29167E-02 2.50000E-02 0.00000E+00
 -1       962 7.39583E-02 2.50000E-02 0.00000E+00
 -1       963 7.50000E-02 2.50000E-02 0.00000E+00
 -1       964 7.60417E-02 2.50000E-02 0.00000E+00
 -1       965 7.70833E-02 2.50000E-02 0.00000E+00
 -1       966 7.81250E-02 2.50000E-02 0.00000E+00
 -1       967 7.91667E-02 2.50000E-02 0.00000E+00
 -1       968 8.02083E-02 2.50000E-02 0.00000E+00
 -1       969 8.12500E-02 2.50000E-02 0.00000E+00
 -1       970 8.22917E-02 2.50000E-02 0.00000E+00
 -1       971 8.43750E-02 2.50000E-02 0.00000E+00
 -1       972 8.54167E-02 2.50000E-02 0.00000E+00
 -1       973 8.64583E-02 2.50000E-02 0.00000E+00
 -1       974 8.75000E-02 2.50000E-02 0.00000E+00
 -1       975 8.85417E-02 2.50000E-02 0.00000E+00
 -1       976 8.95833E-02 2.50000E-02 0.00000E+00
 -1       977 9.06250E-02 2.50000E-02 0.00000E+00
 -1       978 9.16667E-02 2.50000E-02 0.00000E+00
 -1       979 9.27083E-02 2.50000E-02 0.00000E+00
 -1       980 9.37500E-02 2.50000E-02 0.00000E+00
 -1       981 9.47917E-02 2.50000E-02 0.00000E+00
 -1       982 9.58333E-02 2.50000E-02 0.00000E+00
 -1       983 9.68750E-02 2.50000E-02 0.00000E+00
 -1       984 9.79167E-02 2.50000E-02 0.00000E+00
 -1       985 9.89583E-02 2.50000E-02 0.00000E+00
 -3
    3C                           211                                     1
 -1         1   12    0    1
 -2         1        52        51
 -1         2   12    0    1
 -2        52        54        53
 -1         3   12    0    1
 -2        54         8        55
 -1         4   12    0    1
 -2         1        57        56
 -1         5   12    0    1
 -2        57        59        58
 -1         6   12    0    1
 -2        59        61        60
 -1         7   12    0    1
 -2        61        63        62
 -1         8   12    0    1
 -2        63        65        64
 -1         9   12    0    1
 -2        65        67        66
 -1        10   12    0    1
 -2        67        69        68
 -1        11   12    0    1
 -2        69         9        70
 -1        12   12    0    1
 -2         2        87        86
 -1        13   12    0    1
 -2        87        89        88
 -1        14   12    0    1
 -2        89         9        90
 -1        15   12    0    1
 -2         3       122       121
 -1        16   12    0    1
 -2       122       124       123
 -1        17   12    0    1
 -2       124        10       125
 -1        18   12    0    1
 -2         5       192       191
 -1        19   12    0    1
 -2       192       194       193
 -1        20   12    0    1
 -2       194        12       195
 -1        21   12    0    1
 -2         8       252       251
 -1        22   12    0    1
 -2       252       254       253
 -1        23   12    0    1
 -2       254       256       255
 -1        24   12    0    1
 -2       256       258       257
 -1        25   12    0    1
 -2       258       260       259
 -1        26   12    0    1
 -2       260       262       261
 -1        27   12    0    1
 -2       262       264       263
 -1        28   12    0    1
 -2       264         9       265
 -1        29   12    0    1
 -2         8       267       266
 -1        30   12    0    1
 -2       267       269       268
 -1        31   12    0    1
 -2       269        15       270
 -1        32   12    0    1
 -2         8       272       271
 -1        33   12    0    1
 -2       272       274       273
 -1        34   12    0    1
 -2       274       276       275
 -1        35   12    0    1
 -2       276       278       277
 -1        36   12    0    1
 -2       278       280       279
 -1        37   12    0    1
 -2       280       282       281
 -1        38   12    0    1
 -2       282       284       283
 -1        39   12    0    1
 -2       284        16       285
 -1        40   12    0    1
 -2         9       302       301
 -1        41   12    0    1
 -2       302       304       303
 -1        42   12    0    1
 -2       304        16       305
 -1        43   12    0    1
 -2         9       307       306
 -1        44   12    0    1
 -2       307       309       308
 -1        45   12    0    1
 -2       309       311       310
 -1        46   12    0    1
 -2       311       313       312
 -1        47   12    0    1
 -2       313       315       314
 -1        48   12    0    1
 -2       315       317       316
 -1        49   12    0    1
 -2       317       319       318
 -1        50   12    0    1
 -2       319        17       320
 -1        51   12    0    1
 -2        10       337       336
 -1        52   12    0    1
 -2       337       339       338
 -1        53   12    0    1
 -2       339        17       340
 -1        54   12    0    1
 -2        12       407       406
 -1        55   12    0    1
 -2       407       409       408
 -1        56   12    0    1
 -2       409        19       410
 -1        57   12    0    1
 -2        16       522       521
 -1        58   12    0    1
 -2       522       524       523
 -1        59   12    0    1
 -2       524       526       525
 -1        60   12    0    1
 -2       526       528       527
 -1        61   12    0    1
 -2       528       530       529
 -1        62   12    0    1
 -2       530       532       531
 -1        63   12    0    1
 -2       532       534       533
 -1        64   12    0    1
 -2       534        24       535
 -1        65   12    0    1
 -2        17       537       536
 -1        66   12    0    1
 -2       537       539       538
 -1        67   12    0    1
 -2       539       541       540
 -1        68   12    0    1
 -2       541       543       542
 -1        69   12    0    1
 -2       543       545       544
 -1        70   12    0    1
 -2       545       547       546
 -1        71   12    0    1
 -2       547       549       548
 -1        72   12    0    1
 -2       549        18       550
 -1        73   12    0    1
 -2        17       552       551
 -1        74   12    0    1
 -2       552       554       553
 -1        75   12    0    1
 -2       554        24       555
 -1        76   12    0    1
 -2        17       557       556
 -1        77   12    0    1
 -2       557       559       558
 -1        78   12    0    1
 -2       559       561       560
 -1        79   12    0    1
 -2       561       563       562
 -1        80   12    0    1
 -2       563       565       564
 -1        81   12    0    1
 -2       565       567       566
 -1        82   12    0    1
 -2       567       569       568
 -1        83   12    0    1
 -2       569        25       570
 -1        84   12    0    1
 -2        18       572       571
 -1        85   12    0    1
 -2       572       574       573
 -1        86   12    0    1
 -2       574       576       575
 -1        87   12    0    1
 -2       576       578       577
 -1        88   12    0    1
 -2       578       580       579
 -1        89   12    0    1
 -2       580       582       581
 -1        90   12    0    1
 -2       582       584       583
 -1        91   12    0    1
 -2       584        19       585
 -1        92   12    0    1
 -2        18       587       586
 -1        93   12    0    1
 -2       587       589       588
 -1        94   12    0    1
 -2       589        25       590
 -1        95   12    0    1
 -2        18       592       591
 -1        96   12    0    1
 -2       592       594       593
 -1        97   12    0    1
 -2       594       596       595
 -1        98   12    0    1
 -2       596       598       597
 -1        99   12    0    1
 -2       598       600       599
 -1       100   12    0    1
 -2       600       602       601
 -1       101   12    0    1
 -2       602       604       603
 -1       102   12    0    1
 -2       604        26       605
 -1       103   12    0    1
 -2        19       607       606
 -1       104   12    0    1
 -2       607       609       608
 -1       105   12    0    1
 -2       609       611       610
 -1       106   12    0    1
 -2       611       613       612
 -1       107   12    0    1
 -2       613       615       614
 -1       108   12    0    1
 -2       615       617       616
 -1       109   12    0    1
 -2       617       619       618
 -1       110   12    0    1
 -2       619        20       620
 -1       111   12    0    1
 -2        19       622       621
 -1       112   12    0    1
 -2       622       624       623
 -1       113   12    0    1
 -2       624        26       625
 -1       114   12    0    1
 -2        19       627       626
 -1       115   12    0    1
 -2       627       629       628
 -1       116   12    0    1
 -2       629       631       630
 -1       117   12    0    1
 -2       631       633       632
 -1       118   12    0    1
 -2       633       635       634
 -1       119   12    0    1
 -2       635       637       636
 -1       120   12    0    1
 -2       637       639       638
 -1       121   12    0    1
 -2       639        27       640
 -1       122   12    0    1
 -2        20       657       656
 -1       123   12    0    1
 -2       657       659       658
 -1       124   12    0    1
 -2       659        27       660
 -1       125   12    0    1
 -2        20       662       661
 -1       126   12    0    1
 -2       662       664       663
 -1       127   12    0    1
 -2       664       666       665
 -1       128   12    0    1
 -2       666       668       667
 -1       129   12    0    1
 -2       668       670       669
 -1       130   12    0    1
 -2       670       672       671
 -1       131   12    0    1
 -2       672       674       673
 -1       132   12    0    1
 -2       674        28       675
 -1       133   12    0    1
 -2        21       677       676
 -1       134   12    0    1
 -2       677       679       678
 -1       135   12    0    1
 -2       679        28       680
 -1       136   12    0    1
 -2        24       772       771
 -1       137   12    0    1
 -2       772       774       773
 -1       138   12    0    1
 -2       774       776       775
 -1       139   12    0    1
 -2       776       778       777
 -1       140   12    0    1
 -2       778       780       779
 -1       141   12    0    1
 -2       780       782       781
 -1       142   12    0    1
 -2       782       784       783
 -1       143   12    0    1
 -2       784        32       785
 -1       144   12    0    1
 -2        25       787       786
 -1       145   12    0    1
 -2       787       789       788
 -1       146   12    0    1
 -2       789       791       790
 -1       147   12    0    1
 -2       791       793       792
 -1       148   12    0    1
 -2       793       795       794
 -1       149   12    0    1
 -2       795       797       796
 -1       150   12    0    1
 -2       797       799       798
 -1       151   12    0    1
 -2       799        26       800
 -1       152   12    0    1
 -2        25       802       801
 -1       153   12    0    1
 -2       802       804       803
 -1       154   12    0    1
 -2       804        32       805
 -1       155   12    0    1
 -2        25       807       806
 -1       156   12    0    1
 -2       807       809       808
 -1       157   12    0    1
 -2       809       811       810
 -1       158   12    0    1
 -2       811       813       812
 -1       159   12    0    1
 -2       813       815       814
 -1       160   12    0    1
 -2       815       817       816
 -1       161   12    0    1
 -2       817       819       818
 -1       162   12    0    1
 -2       819        33       820
 -1       163   12    0    1
 -2        26       822       821
 -1       164   12    0    1
 -2       822       824       823
 -1       165   12    0    1
 -2       824       826       825
 -1       166   12    0    1
 -2       826       828       827
 -1       167   12    0    1
 -2       828       830       829
 -1       168   12    0    1
 -2       830       832       831
 -1       169   12    0    1
 -2       832       834       833
 -1       170   12    0    1
 -2       834        27       835
 -1       171   12    0    1
 -2        26       837       836
 -1       172   12    0    1
 -2       837       839       838
 -1       173   12    0    1
 -2       839        33       840
 -1       174   12    0    1
 -2        27       857       856
 -1       175   12    0    1
 -2       857       859       858
 -1       176   12    0    1
 -2       859       861       860
 -1       177   12    0    1
 -2       861       863       862
 -1       178   12    0    1
 -2       863       865       864
 -1       179   12    0    1
 -2       865       867       866
 -1       180   12    0    1
 -2       867       869       868
 -1       181   12    0    1
 -2       869        28       870
 -1       182   12    0    1
 -2        27       872       871
 -1       183   12    0    1
 -2       872       874       873
 -1       184   12    0    1
 -2       874        34       875
 -1       185   12    0    1
 -2        27       877       876
 -1       186   12    0    1
 -2       877       879       878
 -1       187   12    0    1
 -2       879       881       880
 -1       188   12    0    1
 -2       881       883       882
 -1       189   12    0    1
 -2       883       885       884
 -1       190   12    0    1
 -2       885       887       886
 -1       191   12    0    1
 -2       887       889       888
 -1       192   12    0    1
 -2       889        35       890
 -1       193   12    0    1
 -2        28       892       891
 -1       194   12    0    1
 -2       892       894       893
 -1       195   12    0    1
 -2       894        35       895
 -1       196   12    0    1
 -2        33       957       956
 -1       197   12    0    1
 -2       957       959       958
 -1       198   12    0    1
 -2       959       961       960
 -1       199   12    0    1
 -2       961       963       962
 -1       200   12    0    1
 -2       963       965       964
 -1       201   12    0    1
 -2       965       967       966
 -1       202   12    0    1
 -2       967       969       968
 -1       203   12    0    1
 -2       969        34       970
 -1       204   12    0    1
 -2        34       972       971
 -1       205   12    0    1
 -2       972       974       973
 -1       206   12    0    1
 -2       974       976       975
 -1       207   12    0    1
 -2       976       978       977
 -1       208   12    0    1
 -2       978       980       979
 -1       209   12    0    1
 -2       980       982       981
 -1       210   12    0    1
 -2       982       984       983
 -1       211   12    0    1
 -2       984        35       985
 -3
    1PSTEP                         1           1           1          
  100CL  101 2.50000E-01         409                     0    1           1
 -4  DISP        4    1
 -5  D1          1    2    1    0
 -5  D2          1    2    2    0
 -5  D3          1    2    3    0
 -5  ALL         1    2    0    0    1ALL
 -1         1 6.52362E-05 0.00000E+00 0.00000E+00
 -1         2 6.02691E-05 1.76766E-29-1.65436E-24
 -1         3 5.54728E-05-2.32160E-27 0.00000E+00
 -1         5 4.00577E-05 4.98235E-26 0.00000E+00
 -1         8 5.20703E-05-4.68847E-07 0.00000E+00
 -1         9 5.28947E-05 3.10013E-07 0.00000E+00
 -1        10 5.14325E-05-7.59713E-07 1.65436E-24
 -1        12 3.97681E-05 2.72089E-07 0.00000E+00
 -1        15 3.64082E-05-5.01466E-07 0.00000E+00
 -1        16 3.76677E-05 2.49422E-07 0.00000E+00
 -1        17 3.83753E-05-1.59168E-06 0.00000E+00
 -1        18 3.83667E-05 7.99796E-08 0.00000E+00
 -1        19 3.88994E-05 5.42715E-07 0.00000E+00
 -1        20 3.89712E-05 8.12123E-06 0.00000E+00
 -1        21 3.87004E-05 1.53552E-05-8.27181E-25
 -1        24 9.81933E-06-2.11651E-06 0.00000E+00
 -1        25 3.74462E-05 1.41949E-07 0.00000E+00
 -1        26 3.79469E-05 7.57078E-07 0.00000E+00
 -1        27 3.71936E-05 6.90908E-06 0.00000E+00
 -1        28 3.69511E-05 1.51224E-05 0.00000E+00
 -1        32 0.00000E+00 0.00000E+00 0.00000E+00
 -1        33 3.63457E-05 1.01596E-06 0.00000E+00
 -1        34 3.56172E-05 6.89826E-06 0.00000E+00
 -1        35 3.49254E-05 1.49996E-05 0.00000E+00
 -1        51 6.43795E-05-7.81431E-08 0.00000E+00
 -1        52 6.27920E-05-1.53931E-07 0.00000E+00
 -1        53 6.06176E-05-2.29963E-07 0.00000E+00
 -1        54 5.80059E-05-3.06952E-07 0.00000E+00
 -1        55 5.51067E-05-3.85424E-07-1.75776E-24
 -1        56 6.46338E-05-3.64434E-07 0.00000E+00
 -1        57 6.40911E-05-9.55877E-07 0.00000E+00
 -1        58 6.36100E-05-1.70799E-06 0.00000E+00
 -1        59 6.31629E-05-2.56248E-06 0.00000E+00
 -1        60 6.27297E-05-3.45447E-06 0.00000E+00
 -1        61 6.22859E-05-4.32012E-06-1.32349E-23
 -1        62 6.18084E-05-5.09610E-06 0.00000E+00
 -1        63 6.12741E-05-5.72074E-06-1.32349E-23
 -1        64 6.06617E-05-6.13716E-06-2.64698E-23
 -1        65 5.99513E-05-6.29174E-06 0.00000E+00
 -1        66 5.91258E-05-6.13933E-06 2.64698E-23
 -1        67 5.81704E-05-5.63941E-06 0.00000E+00
 -1        68 5.70736E-05-4.76300E-06 1.32349E-23
 -1        69 5.58298E-05-3.48563E-06 0.00000E+00
 -1        70 5.44303E-05-1.79859E-06 0.00000E+00
 -1        86 6.00727E-05 5.52475E-08 1.65436E-24
 -1        87 5.94831E-05 1.10054E-07 0.00000E+00
 -1        88 5.84883E-05 1.64508E-07 8.27181E-25
 -1        89 5.70755E-05 2.16641E-07 0.00000E+00
 -1        90 5.52196E-05 2.68698E-07 0.00000E+00
 -1       121 5.53603E-05-1.26284E-07 0.00000E+00
 -1       122 5.50229E-05-2.52620E-07-1.65436E-24
 -1       123 5.44608E-05-3.79058E-07 0.00000E+00
 -1       124 5.36745E-05-5.05670E-07 0.00000E+00
 -1       125 5.26648E-05-6.32469E-07 0.00000E+00
 -1       191 4.00497E-05 4.53512E-08 0.00000E+00
 -1       192 4.00256E-05 9.07016E-08 8.27181E-25
 -1       193 3.99853E-05 1.36052E-07 0.00000E+00
 -1       194 3.99290E-05 1.81400E-07 0.00000E+00
 -1       195 3.98566E-05 2.26746E-07 0.00000E+00
 -1       251 5.21110E-05 1.69856E-06 0.00000E+00
 -1       252 5.21627E-05 2.99387E-06 5.16988E-26
 -1       253 5.22144E-05 3.56000E-06-8.27181E-25
 -1       254 5.22681E-05 3.53816E-06 0.00000E+00
 -1       255 5.23217E-05 3.05289E-06 0.00000E+00
 -1       256 5.23755E-05 2.22771E-06 0.00000E+00
 -1       257 5.24291E-05 1.17646E-06 0.00000E+00
 -1       258 5.24827E-05 1.24531E-08 8.27181E-25
 -1       259 5.25362E-05-1.15422E-06-1.65436E-24
 -1       260 5.25898E-05-2.21346E-06 8.27181E-25
 -1       261 5.26436E-05-3.05209E-06 0.00000E+00
 -1       262 5.26972E-05-3.55647E-06-8.27181E-25
 -1       263 5.27508E-05-3.60342E-06-8.27181E-25
 -1       264 5.28025E-05-3.06873E-06 0.00000E+00
 -1       265 5.28542E-05-1.81170E-06-1.65436E-24
 -1       266 4.94599E-05-4.80774E-07 0.00000E+00
 -1       267 4.68496E-05-4.85420E-07-8.27181E-25
 -1       268 4.42392E-05-4.90526E-07 0.00000E+00
 -1       269 4.16289E-05-4.94267E-07 0.00000E+00
 -1       270 3.90185E-05-4.97975E-07 0.00000E+00
 -1       271 5.04861E-05 1.47059E-06 1.32349E-23
 -1       272 4.91438E-05 2.69249E-06 0.00000E+00
 -1       273 4.80369E-05 3.29161E-06-2.64698E-23
 -1       274 4.71258E-05 3.35768E-06 1.32349E-23
 -1       275 4.63775E-05 2.98897E-06 2.64698E-23
 -1       276 4.57534E-05 2.28660E-06 0.00000E+00
 -1       277 4.52149E-05 1.35547E-06 2.64698E-23
 -1       278 4.47218E-05 3.02570E-07 0.00000E+00
 -1       279 4.42337E-05-7.63833E-07 2.64698E-23
 -1       280 4.37102E-05-1.73531E-06-1.32349E-23
 -1       281 4.31111E-05-2.50451E-06 0.00000E+00
 -1       282 4.23971E-05-2.96596E-06 0.00000E+00
 -1       283 4.15297E-05-3.01755E-06-2.64698E-23
 -1       284 4.04742E-05-2.56025E-06 0.00000E+00
 -1       285 3.91920E-05-1.50234E-06-1.32349E-23
 -1       301 5.03163E-05 2.96798E-07 0.00000E+00
 -1       302 4.77384E-05 2.91391E-07-8.27181E-25
 -1       303 4.51727E-05 2.86210E-07 1.65436E-24
 -1       304 4.26310E-05 2.80160E-07-1.65436E-24
 -1       305 4.01255E-05 2.72883E-07 0.00000E+00
 -1       306 5.12651E-05 2.18903E-06 0.00000E+00
 -1       307 4.98924E-05 3.30534E-06 0.00000E+00
 -1       308 4.87913E-05 3.70468E-06 0.00000E+00
 -1       309 4.79349E-05 3.43784E-06 0.00000E+00
 -1       310 4.72877E-05 2.61254E-06 2.64698E-23
 -1       311 4.68037E-05 1.34851E-06 0.00000E+00
 -1       312 4.64256E-05-1.98924E-07 2.64698E-23
 -1       313 4.60926E-05-1.86769E-06-1.32349E-23
 -1       314 4.57407E-05-3.48574E-06 0.00000E+00
 -1       315 4.53062E-05-4.88225E-06 0.00000E+00
 -1       316 4.47318E-05-5.90459E-06-2.64698E-23
 -1       317 4.39646E-05-6.40911E-06 0.00000E+00
 -1       318 4.29651E-05-6.29397E-06 2.64698E-23
 -1       319 4.17055E-05-5.47057E-06 0.00000E+00
 -1       320 4.01664E-05-3.91115E-06 1.32349E-23
 -1       336 4.99491E-05-8.97260E-07 3.30872E-24
 -1       337 4.81859E-05-1.03543E-06 0.00000E+00
 -1       338 4.61445E-05-1.17408E-06 3.30872E-24
 -1       339 4.38272E-05-1.31310E-06 0.00000E+00
 -1       340 4.12365E-05-1.45280E-06-3.30872E-24
 -1       406 3.96635E-05 3.17424E-07 1.65436E-24
 -1       407 3.95428E-05 3.62743E-07 0.00000E+00
 -1       408 3.94060E-05 4.08033E-07-1.65436E-24
 -1       409 3.92531E-05 4.53238E-07 8.27181E-25
 -1       410 3.90842E-05 4.98269E-07 0.00000E+00
 -1       521 3.54016E-05 1.64685E-06 0.00000E+00
 -1       522 3.34227E-05 2.13090E-06 0.00000E+00
 -1       523 3.17664E-05 1.76555E-06 0.00000E+00
 -1       524 3.03898E-05 6.27815E-07-2.64698E-23
 -1       525 2.92370E-05-1.10912E-06 5.29396E-23
 -1       526 2.82332E-05-3.24958E-06 2.64698E-23
 -1       527 2.72890E-05-5.55020E-06 0.00000E+00
 -1       528 2.63111E-05-7.76131E-06 0.00000E+00
 -1       529 2.52103E-05-9.64335E-06-5.29396E-23
 -1       530 2.39025E-05-1.09711E-05 2.64698E-23
 -1       531 2.23270E-05-1.15837E-05 5.29396E-23
 -1       532 2.04358E-05-1.13508E-05 0.00000E+00
 -1       533 1.82148E-05-1.02408E-05 0.00000E+00
 -1       534 1.56737E-05-8.25644E-06 2.64698E-23
 -1       535 1.28403E-05-5.50842E-06 0.00000E+00
 -1       536 3.83674E-05 1.07181E-06 0.00000E+00
 -1       537 3.83651E-05 3.07395E-06 4.13590E-25
 -1       538 3.83635E-05 4.48376E-06 0.00000E+00
 -1       539 3.83632E-05 5.37024E-06-1.03398E-25
 -1       540 3.83633E-05 5.80206E-06 0.00000E+00
 -1       541 3.83636E-05 5.84786E-06-1.29247E-26
 -1       542 3.83639E-05 5.57601E-06 0.00000E+00
 -1       543 3.83642E-05 5.05482E-06 0.00000E+00
 -1       544 3.83643E-05 4.35245E-06 0.00000E+00
 -1       545 3.83644E-05 3.53699E-06 0.00000E+00
 -1       546 3.83645E-05 2.67648E-06 2.58494E-26
 -1       547 3.83646E-05 1.83895E-06-2.58494E-26
 -1       548 3.83647E-05 1.09242E-06 0.00000E+00
 -1       549 3.83651E-05 5.04950E-07 5.16988E-26
 -1       550 3.83656E-05 1.44742E-07-2.06795E-25
 -1       551 3.45860E-05-1.67259E-06-3.30872E-24
 -1       552 3.00530E-05-1.75519E-06 1.65436E-24
 -1       553 2.50413E-05-1.84011E-06 0.00000E+00
 -1       554 1.98196E-05-1.92736E-06 0.00000E+00
 -1       555 1.46567E-05-2.01577E-06-6.61744E-24
 -1       556 3.73843E-05 9.81540E-07-6.61744E-24
 -1       557 3.66274E-05 2.94658E-06 0.00000E+00
 -1       558 3.60791E-05 4.35968E-06 0.00000E+00
 -1       559 3.57163E-05 5.28148E-06 0.00000E+00
 -1       560 3.55155E-05 5.77246E-06 0.00000E+00
 -1       561 3.54537E-05 5.89340E-06 0.00000E+00
 -1       562 3.55080E-05 5.70513E-06 0.00000E+00
 -1       563 3.56553E-05 5.26850E-06 0.00000E+00
 -1       564 3.58729E-05 4.64441E-06 0.00000E+00
 -1       565 3.61378E-05 3.89377E-06 0.00000E+00
 -1       566 3.64274E-05 3.07749E-06 0.00000E+00
 -1       567 3.67187E-05 2.25652E-06-2.06795E-25
 -1       568 3.69890E-05 1.49175E-06 0.00000E+00
 -1       569 3.72154E-05 8.44039E-07 0.00000E+00
 -1       570 3.73752E-05 3.74266E-07 0.00000E+00
 -1       571 3.83991E-05 1.30901E-07-6.20385E-25
 -1       572 3.84321E-05 1.59556E-07 2.06795E-25
 -1       573 3.84653E-05 1.69892E-07 4.13590E-25
 -1       574 3.84987E-05 1.66064E-07 4.13590E-25
 -1       575 3.85321E-05 1.52249E-07 8.27181E-25
 -1       576 3.85655E-05 1.32646E-07 4.13590E-25
 -1       577 3.85989E-05 1.11460E-07-8.27181E-25
 -1       578 3.86323E-05 9.28982E-08 0.00000E+00
 -1       579 3.86657E-05 8.11689E-08 0.00000E+00
 -1       580 3.86991E-05 8.04799E-08 0.00000E+00
 -1       581 3.87325E-05 9.50382E-08 0.00000E+00
 -1       582 3.87659E-05 1.29046E-07 0.00000E+00
 -1       583 3.87993E-05 1.86703E-07-1.65436E-24
 -1       584 3.88327E-05 2.72165E-07 0.00000E+00
 -1       585 3.88661E-05 3.89564E-07 0.00000E+00
 -1       586 3.82017E-05 9.09635E-08 0.00000E+00
 -1       587 3.80229E-05 1.01664E-07-1.03398E-25
 -1       588 3.78440E-05 1.12242E-07 0.00000E+00
 -1       589 3.76791E-05 1.22651E-07 0.00000E+00
 -1       590 3.75420E-05 1.32774E-07 0.00000E+00
 -1       591 3.83323E-05 1.47679E-07 5.16988E-26
 -1       592 3.83034E-05 1.97040E-07 0.00000E+00
 -1       593 3.82800E-05 2.31530E-07-2.06795E-25
 -1       594 3.82609E-05 2.54274E-07 0.00000E+00
 -1       595 3.82450E-05 2.68441E-07 0.00000E+00
 -1       596 3.82310E-05 2.77173E-07 1.03398E-25
 -1       597 3.82179E-05 2.83613E-07 0.00000E+00
 -1       598 3.82045E-05 2.90902E-07 0.00000E+00
 -1       599 3.81896E-05 3.02178E-07 0.00000E+00
 -1       600 3.81721E-05 3.20583E-07 0.00000E+00
 -1       601 3.81507E-05 3.49254E-07 2.06795E-25
 -1       602 3.81242E-05 3.91336E-07-5.16988E-26
 -1       603 3.80917E-05 4.49972E-07-1.03398E-25
 -1       604 3.80518E-05 5.28330E-07-5.16988E-26
 -1       605 3.80036E-05 6.29536E-07 0.00000E+00
 -1       606 3.89055E-05 7.71247E-07-1.65436E-24
 -1       607 3.89105E-05 1.04685E-06 0.00000E+00
 -1       608 3.89151E-05 1.36677E-06 0.00000E+00
 -1       609 3.89196E-05 1.72789E-06 0.00000E+00
 -1       610 3.89241E-05 2.12707E-06 0.00000E+00
 -1       611 3.89284E-05 2.56114E-06 0.00000E+00
 -1       612 3.89328E-05 3.02692E-06 0.00000E+00
 -1       613 3.89372E-05 3.52124E-06 0.00000E+00
 -1       614 3.89415E-05 4.04091E-06 0.00000E+00
 -1       615 3.89458E-05 4.58275E-06-4.13590E-25
 -1       616 3.89501E-05 5.14358E-06 0.00000E+00
 -1       617 3.89544E-05 5.72022E-06-2.06795E-25
 -1       618 3.89587E-05 6.30948E-06-4.13590E-25
 -1       619 3.89630E-05 6.90819E-06 4.13590E-25
 -1       620 3.89672E-05 7.51317E-06 0.00000E+00
 -1       621 3.87172E-05 5.78468E-07 0.00000E+00
 -1       622 3.85481E-05 6.14394E-07 0.00000E+00
 -1       623 3.83892E-05 6.50315E-07-8.27181E-25
 -1       624 3.82379E-05 6.86179E-07-4.13590E-25
 -1       625 3.80914E-05 7.21981E-07 0.00000E+00
 -1       626 3.88519E-05 7.82465E-07 0.00000E+00
 -1       627 3.87900E-05 1.06117E-06 0.00000E+00
 -1       628 3.87150E-05 1.37522E-06 0.00000E+00
 -1       629 3.86282E-05 1.72075E-06 0.00000E+00
 -1       630 3.85310E-05 2.09390E-06-1.65436E-24
 -1       631 3.84249E-05 2.49080E-06 0.00000E+00
 -1       632 3.83113E-05 2.90753E-06 0.00000E+00
 -1       633 3.81918E-05 3.34022E-06 0.00000E+00
 -1       634 3.80678E-05 3.78497E-06 0.00000E+00
 -1       635 3.79406E-05 4.23789E-06 0.00000E+00
 -1       636 3.78119E-05 4.69510E-06 0.00000E+00
 -1       637 3.76830E-05 5.15270E-06 4.13590E-25
 -1       638 3.75554E-05 5.60679E-06 0.00000E+00
 -1       639 3.74305E-05 6.05349E-06 0.00000E+00
 -1       640 3.73096E-05 6.48891E-06 0.00000E+00
 -1       656 3.84658E-05 7.92405E-06 0.00000E+00
 -1       657 3.81381E-05 7.71895E-06 1.65436E-24
 -1       658 3.79189E-05 7.51447E-06 0.00000E+00
 -1       659 3.77378E-05 7.31017E-06 1.65436E-24
 -1       660 3.75207E-05 7.10521E-06-3.30872E-24
 -1       661 3.87841E-05 8.71723E-06-4.13590E-25
 -1       662 3.86080E-05 9.28807E-06 0.00000E+00
 -1       663 3.84410E-05 9.83424E-06-8.27181E-25
 -1       664 3.82832E-05 1.03569E-05 0.00000E+00
 -1       665 3.81338E-05 1.08569E-05 0.00000E+00
 -1       666 3.79926E-05 1.13353E-05 4.13590E-25
 -1       667 3.78592E-05 1.17930E-05 0.00000E+00
 -1       668 3.77333E-05 1.22309E-05 0.00000E+00
 -1       669 3.76144E-05 1.26499E-05 8.27181E-25
 -1       670 3.75023E-05 1.30508E-05 0.00000E+00
 -1       671 3.73966E-05 1.34346E-05-8.27181E-25
 -1       672 3.72971E-05 1.38020E-05 4.13590E-25
 -1       673 3.72033E-05 1.41537E-05 0.00000E+00
 -1       674 3.71147E-05 1.44906E-05 0.00000E+00
 -1       675 3.70315E-05 1.48135E-05 2.06795E-25
 -1       676 3.84085E-05 1.53162E-05 0.00000E+00
 -1       677 3.81166E-05 1.52771E-05 0.00000E+00
 -1       678 3.78249E-05 1.52382E-05-8.27181E-25
 -1       679 3.75334E-05 1.51993E-05 4.13590E-25
 -1       680 3.72421E-05 1.51604E-05-8.27181E-25
 -1       771 7.87683E-06 1.55769E-06 0.00000E+00
 -1       772 6.18440E-06 4.55754E-06 0.00000E+00
 -1       773 4.73122E-06 6.92364E-06 0.00000E+00
 -1       774 3.50075E-06 8.69833E-06 0.00000E+00
 -1       775 2.47691E-06 9.92437E-06 2.64698E-23
 -1       776 1.64304E-06 1.06454E-05 6.61744E-24
 -1       777 9.82388E-07 1.09054E-05 0.00000E+00
 -1       778 4.77974E-07 1.07490E-05 6.61744E-24
 -1       779 1.12750E-07 1.02214E-05 1.32349E-23
 -1       780-1.30507E-07 9.36813E-06-6.61744E-24
 -1       781-2.69049E-07 8.23504E-06 0.00000E+00
 -1       782-3.20263E-07 6.86842E-06 0.00000E+00
 -1       783-3.01548E-07 5.31474E-06-1.32349E-23
 -1       784-2.30362E-07 3.62080E-06 0.00000E+00
 -1       785-1.24218E-07 1.83347E-06 0.00000E+00
 -1       786 3.74757E-05 1.42967E-07-4.13590E-25
 -1       787 3.75069E-05 1.44306E-07-4.13590E-25
 -1       788 3.75380E-05 1.46621E-07 0.00000E+00
 -1       789 3.75694E-05 1.50567E-07-4.13590E-25
 -1       790 3.76009E-05 1.56916E-07 0.00000E+00
 -1       791 3.76324E-05 1.66443E-07 4.13590E-25
 -1       792 3.76639E-05 1.80148E-07-8.27181E-25
 -1       793 3.76954E-05 1.99039E-07 4.13590E-25
 -1       794 3.77270E-05 2.24493E-07-8.27181E-25
 -1       795 3.77585E-05 2.57894E-07 0.00000E+00
 -1       796 3.77900E-05 3.01194E-07 0.00000E+00
 -1       797 3.78215E-05 3.56359E-07 4.13590E-25
 -1       798 3.78530E-05 4.26198E-07 0.00000E+00
 -1       799 3.78845E-05 5.13541E-07-4.13590E-25
 -1       800 3.79159E-05 6.22466E-07 0.00000E+00
 -1       801 3.49170E-05 1.43711E-07 4.13590E-25
 -1       802 2.73952E-05 1.21355E-07 4.13590E-25
 -1       803 1.75127E-05 8.01676E-08 0.00000E+00
 -1       804 7.90088E-06 3.79228E-08 0.00000E+00
 -1       805 1.18683E-06 1.82899E-08 6.61744E-24
 -1       806 3.74072E-05 1.22009E-07 8.27181E-25
 -1       807 3.73667E-05 1.02095E-07-4.13590E-25
 -1       808 3.73249E-05 8.46531E-08 0.00000E+00
 -1       809 3.72813E-05 7.17586E-08 4.13590E-25
 -1       810 3.72351E-05 6.54845E-08-8.27181E-25
 -1       811 3.71857E-05 6.78730E-08 0.00000E+00
 -1       812 3.71322E-05 8.09647E-08-8.27181E-25
 -1       813 3.70740E-05 1.06795E-07 4.13590E-25
 -1       814 3.70102E-05 1.47399E-07-8.27181E-25
 -1       815 3.69401E-05 2.04811E-07-8.27181E-25
 -1       816 3.68629E-05 2.81063E-07 0.00000E+00
 -1       817 3.67779E-05 3.78189E-07 0.00000E+00
 -1       818 3.66843E-05 4.98220E-07-8.27181E-25
 -1       819 3.65815E-05 6.43181E-07 8.27181E-25
 -1       820 3.64687E-05 8.15099E-07 0.00000E+00
 -1       821 3.79025E-05 9.21245E-07 4.13590E-25
 -1       822 3.78554E-05 1.11891E-06-4.13590E-25
 -1       823 3.78084E-05 1.35484E-06 0.00000E+00
 -1       824 3.77609E-05 1.63375E-06 0.00000E+00
 -1       825 3.77134E-05 1.95597E-06 1.65436E-24
 -1       826 3.76658E-05 2.32176E-06-8.27181E-25
 -1       827 3.76181E-05 2.72694E-06 1.65436E-24
 -1       828 3.75704E-05 3.16726E-06-8.27181E-25
 -1       829 3.75227E-05 3.63489E-06 0.00000E+00
 -1       830 3.74750E-05 4.12196E-06 8.27181E-25
 -1       831 3.74274E-05 4.61861E-06 0.00000E+00
 -1       832 3.73798E-05 5.11499E-06 0.00000E+00
 -1       833 3.73322E-05 5.60122E-06 1.65436E-24
 -1       834 3.72852E-05 6.06751E-06 4.13590E-25
 -1       835 3.72380E-05 6.50605E-06 4.13590E-25
 -1       836 3.77522E-05 8.00166E-07-8.27181E-25
 -1       837 3.75007E-05 8.44212E-07 0.00000E+00
 -1       838 3.72131E-05 8.88180E-07-8.27181E-25
 -1       839 3.69107E-05 9.31869E-07 0.00000E+00
 -1       840 3.66146E-05 9.75490E-07-2.06795E-25
 -1       856 3.71802E-05 7.32209E-06 1.03398E-25
 -1       857 3.71652E-05 7.78702E-06 1.03398E-25
 -1       858 3.71502E-05 8.29563E-06-4.13590E-25
 -1       859 3.71350E-05 8.83972E-06 2.06795E-25
 -1       860 3.71198E-05 9.41101E-06-4.13590E-25
 -1       861 3.71044E-05 1.00012E-05 0.00000E+00
 -1       862 3.70891E-05 1.06021E-05-4.13590E-25
 -1       863 3.70738E-05 1.12053E-05 2.06795E-25
 -1       864 3.70584E-05 1.18026E-05-4.13590E-25
 -1       865 3.70431E-05 1.23856E-05-2.06795E-25
 -1       866 3.70277E-05 1.29461E-05 0.00000E+00
 -1       867 3.70124E-05 1.34759E-05-2.06795E-25
 -1       868 3.69971E-05 1.39666E-05 0.00000E+00
 -1       869 3.69818E-05 1.44100E-05-2.06795E-25
 -1       870 3.69665E-05 1.47980E-05 4.13590E-25
 -1       871 3.68782E-05 6.90869E-06 2.06795E-25
 -1       872 3.66126E-05 6.90726E-06 0.00000E+00
 -1       873 3.63754E-05 6.90564E-06 0.00000E+00
 -1       874 3.61448E-05 6.90377E-06 2.58494E-26
 -1       875 3.58993E-05 6.90167E-06 2.06795E-25
 -1       876 3.70841E-05 7.32636E-06-1.65436E-24
 -1       877 3.69662E-05 7.76890E-06 0.00000E+00
 -1       878 3.68400E-05 8.23363E-06-1.65436E-24
 -1       879 3.67067E-05 8.71773E-06-8.27181E-25
 -1       880 3.65672E-05 9.21832E-06-1.65436E-24
 -1       881 3.64226E-05 9.73256E-06 0.00000E+00
 -1       882 3.62739E-05 1.02576E-05-1.65436E-24
 -1       883 3.61223E-05 1.07906E-05 0.00000E+00
 -1       884 3.59687E-05 1.13288E-05 0.00000E+00
 -1       885 3.58143E-05 1.18692E-05-8.27181E-25
 -1       886 3.56600E-05 1.24091E-05 0.00000E+00
 -1       887 3.55070E-05 1.29456E-05-8.27181E-25
 -1       888 3.53563E-05 1.34758E-05 0.00000E+00
 -1       889 3.52087E-05 1.39969E-05 0.00000E+00
 -1       890 3.50654E-05 1.45060E-05-4.13590E-25
 -1       891 3.66701E-05 1.51019E-05 0.00000E+00
 -1       892 3.63801E-05 1.50812E-05-2.06795E-25
 -1       893 3.60709E-05 1.50606E-05 0.00000E+00
 -1       894 3.57322E-05 1.50401E-05-1.03398E-25
 -1       895 3.53537E-05 1.50196E-05-4.13590E-25
 -1       956 3.63010E-05 1.27590E-06 8.27181E-25
 -1       957 3.62555E-05 1.56518E-06 4.13590E-25
 -1       958 3.62100E-05 1.88073E-06-8.27181E-25
 -1       959 3.61643E-05 2.21933E-06 4.13590E-25
 -1       960 3.61187E-05 2.57775E-06-8.27181E-25
 -1       961 3.60730E-05 2.95274E-06 0.00000E+00
 -1       962 3.60273E-05 3.34104E-06-1.65436E-24
 -1       963 3.59816E-05 3.73941E-06 0.00000E+00
 -1       964 3.59358E-05 4.14458E-06 1.65436E-24
 -1       965 3.58901E-05 4.55331E-06 0.00000E+00
 -1       966 3.58444E-05 4.96233E-06 0.00000E+00
 -1       967 3.57987E-05 5.36840E-06 0.00000E+00
 -1       968 3.57531E-05 5.76826E-06-1.65436E-24
 -1       969 3.57075E-05 6.15867E-06-8.27181E-25
 -1       970 3.56620E-05 6.53638E-06-1.65436E-24
 -1       971 3.55745E-05 7.26985E-06-8.27181E-25
 -1       972 3.55312E-05 7.67994E-06 8.27181E-25
 -1       973 3.54879E-05 8.12427E-06 1.65436E-24
 -1       974 3.54444E-05 8.59840E-06 0.00000E+00
 -1       975 3.54009E-05 9.09793E-06 0.00000E+00
 -1       976 3.53574E-05 9.61840E-06 0.00000E+00
 -1       977 3.53139E-05 1.01554E-05 1.65436E-24
 -1       978 3.52704E-05 1.07045E-05 8.27181E-25
 -1       979 3.52269E-05 1.12612E-05 0.00000E+00
 -1       980 3.51834E-05 1.18211E-05 8.27181E-25
 -1       981 3.51399E-05 1.23798E-05 0.00000E+00
 -1       982 3.50964E-05 1.29328E-05-8.27181E-25
 -1       983 3.50531E-05 1.34757E-05 1.65436E-24
 -1       984 3.50098E-05 1.40041E-05 0.00000E+00
 -1       985 3.49668E-05 1.45135E-05-8.27181E-25
 -3
    1PSTEP                         2           1           1          
  100CL  101 2.50000E-01         409                     0    1           1
 -4  STRESS      6    1
 -5  SXX         1    4    1    1
 -5  SYY         1    4    2    2
 -5  SZZ         1    4    3    3
 -5  SXY         1    4    1    2
 -5  SYZ         1    4    2    3
 -5  SZX         1    4    3    1
 -1         1-8.63896E+05-3.98583E+05-1.75231E+05-5.58305E+05 1.81899E-11-6.27915E-09
 -1         2 1.44473E+03 1.59929E+05 4.70699E+03 2.67258E+02-8.67431E-11 5.77427E-09
 -1         3-1.82517E+01-3.60994E+05 8.29993E+01-6.58711E+01-5.47589E-11 1.48730E-08
 -1         5-2.17807E+00 1.29754E+05 3.36860E+00-5.21280E-02 5.50902E-11 3.45940E-08
 -1         8-4.07002E+05-1.77336E+05-1.38762E+04-3.08518E+05 2.47383E-10-4.52201E-09
 -1         9-6.98505E+05-1.82656E+05-6.93929E+04-2.42743E+05 1.86847E-09-2.67755E-09
 -1        10-2.67812E+02-3.76083E+05-4.78163E+02-4.36380E+02-1.70780E-09-3.22713E-09
 -1        12-7.95228E-01 1.29761E+05 1.09193E+02-1.08685E-01 8.54357E-11 3.74166E-09
 -1        15 1.07554E+03 5.91062E+02 3.47665E+03 1.21406E+00-1.32308E-08-5.27784E-06
 -1        16-1.96251E+06-6.33016E+05-3.05152E+05-6.44108E+05 5.80136E-09-1.01863E-09
 -1        17-4.32361E+05-2.68008E+05-8.30952E+04-2.53398E+05-3.04935E-09 5.18630E-09
 -1        18 1.68446E+04 1.71527E+03-5.79255E+03-3.05851E+04 3.84432E-10 5.00222E-11
 -1        19 4.09100E+04 4.85925E+04-2.22804E+02 7.97859E+03-3.55067E-10 1.19981E-09
 -1        20-1.69810E+04-1.92625E+05-4.24763E+04 1.43055E+04 1.91623E-09-6.70298E-10
 -1        21-1.82249E+01-1.11628E+05-3.60476E+02-2.23529E+01-5.25616E-09 5.30683E-10
 -1        24-1.72166E+06-6.03030E+05-2.45944E+05-7.35750E+05-7.48817E-09-4.99616E-09
 -1        25 1.47849E+04-4.25238E+03 8.60219E+03-5.51317E+04 1.88993E-10 2.31503E-09
 -1        26-9.28269E+03 3.32935E+04-6.55638E+03-4.75377E+03 8.52742E-10 1.78961E-09
 -1        27-3.08055E+04-1.05692E+05-3.96340E+04 2.38057E+04 2.74421E-09-1.28618E-09
 -1        28 8.61976E+03-3.08487E+04 6.30064E+03 9.87960E+03 1.02378E-09-2.10266E-09
 -1        32-4.13349E+05-6.66409E+04 1.76341E+05-2.76999E+05-8.09814E-09 7.31054E-09
 -1        33-6.04018E+04 3.11301E+04 1.10267E+04-1.80703E+04 5.78524E-10 3.26812E-10
 -1        34-7.84448E+04-7.82559E+03 1.86794E+02 2.41506E+04 1.77332E-09 8.75313E-10
 -1        35-8.77255E+03-1.22715E+04-4.77992E+02 1.94404E+04 2.52667E-09-2.43532E-09
 -1        51 8.24124E+03-2.04645E+05 1.98527E+04-5.03532E+05 1.38243E-10 3.00497E-09
 -1        52 3.99433E+03-2.02594E+05 1.30352E+04-5.87273E+05 4.03816E-10-3.26327E-09
 -1        53 2.40206E+03-2.07361E+05 1.13524E+04-5.01828E+05 3.81988E-10 2.49565E-09
 -1        54 7.88666E+03-2.05270E+05 1.82959E+04-5.89090E+05-5.09317E-11 1.39153E-09
 -1        55 1.81378E+04-2.11870E+05 3.29160E+04-5.01619E+05 4.14730E-10-1.50976E-09
 -1        56-1.65947E+06-1.87753E+05-1.29605E+05-6.40146E+05-1.41881E-10-1.60799E-09
 -1        57-1.71216E+06-3.04310E+05-8.73483E+04-6.34456E+05 1.06411E-09 2.35377E-09
 -1        58-1.68524E+06-2.29054E+05-3.05150E+04-6.32348E+05-7.21684E-10-3.59250E-09
 -1        59-1.68236E+06-2.55892E+05-1.82170E+04-6.43828E+05 1.00692E-09 4.88399E-10
 -1        60-1.68903E+06-2.34791E+05-7.13377E+03-6.31272E+05-1.23305E-09-2.13231E-09
 -1        61-1.67825E+06-2.48899E+05-4.05751E+03-6.44758E+05 7.71422E-10 2.04966E-09
 -1        62-1.68930E+06-2.35874E+05-1.95507E+03-6.31473E+05-4.58840E-10-2.36095E-09
 -1        63-1.67858E+06-2.47154E+05-1.61161E+03-6.43814E+05-1.88720E-11-1.01238E-09
 -1        64-1.68868E+06-2.36529E+05-1.84668E+03-6.32206E+05 4.64524E-10-4.60307E-09
 -1        65-1.68059E+06-2.46308E+05-3.70625E+03-6.41860E+05-1.01795E-09-7.41113E-09
 -1        66-1.68726E+06-2.36757E+05-6.51011E+03-6.33400E+05-3.24690E-10-5.40649E-09
 -1        67-1.68652E+06-2.50398E+05-1.65339E+04-6.38398E+05 4.16463E-10-5.23869E-10
 -1        68-1.68276E+06-2.32617E+05-2.77413E+04-6.35595E+05 1.21690E-09 3.39605E-09
 -1        69-1.71549E+06-2.92458E+05-7.93192E+04-6.27703E+05 5.31145E-10 1.81535E-09
 -1        70-1.65850E+06-1.95952E+05-1.17747E+05-6.43639E+05-3.67436E-10 4.48199E-09
 -1        86-7.23815E+02 1.58529E+05 5.05322E+03-1.33636E+02 6.56883E-10 4.99804E-09
 -1        87 4.80652E+03 1.61565E+05 1.05283E+04 5.46871E+02 1.10310E-09 1.80421E-10
 -1        88-4.07569E+03 1.56894E+05 1.61345E+04-4.13249E+02 1.61890E-09-6.56550E-09
 -1        89 3.03761E+04 1.73461E+05 4.34889E+04 1.16558E+03 2.47064E-09-2.31481E-09
 -1        90-2.62096E+04 1.46638E+05 6.14525E+04-7.52169E+02 2.80124E-09 1.55842E-09
 -1       121-3.46490E+01-3.61111E+05 8.29727E+01 3.29162E+01 1.95865E-10 2.96041E-09
 -1       122 9.02891E+00-3.60975E+05 1.81864E+02-1.31890E+02-6.33600E-10-7.92170E-10
 -1       123-5.46965E+01-3.61130E+05 2.99036E+02 9.88604E+01 5.77927E-10 1.04501E-09
 -1       124 3.44648E+02-3.60768E+05 7.64451E+02-3.26965E+02-1.24140E-09 6.44991E-09
 -1       125-2.73402E+02-3.61320E+05 1.17693E+03 2.28013E+02 8.27640E-10 3.96722E-09
 -1       191-2.39844E+00 1.29765E+05 4.03958E+00 2.59004E-02 8.12747E-11 1.43050E-08
 -1       192-2.48724E+00 1.29754E+05 7.13219E+00 1.58637E-01 1.17195E-10-8.16271E-11
 -1       193-3.22078E+00 1.29765E+05 1.32771E+01-1.85682E-01 1.45162E-10 3.58341E-10
 -1       194-3.48240E+00 1.29755E+05 2.69777E+01 4.99869E-01 1.12156E-10-2.34104E-09
 -1       195-4.80156E+00 1.29764E+05 5.27842E+01-3.17366E-01 2.21675E-10-1.38334E-09
 -1       251 1.43097E+05-2.53700E+04 5.93137E+04 2.15022E+03 3.52884E-10-3.88900E-09
 -1       252 1.69658E+05 2.93668E+04 4.20058E+04-7.51067E+03 1.03000E-10-3.02271E-09
 -1       253 1.53206E+05-3.92948E+03 1.53551E+04 1.62189E+03-4.00064E-10-5.67798E-09
 -1       254 1.57792E+05 4.54306E+03 9.68428E+03-6.67124E+03 2.12879E-10 7.50867E-09
 -1       255 1.54931E+05-6.07525E+02 3.96762E+03 1.31091E+03 1.74083E-10 3.28419E-09
 -1       256 1.55742E+05 7.19807E+02 2.40772E+03-6.21028E+03 4.29061E-10 1.20355E-09
 -1       257 1.55240E+05-1.06561E+02 1.24113E+03 1.16092E+03 1.97900E-10-6.26102E-10
 -1       258 1.55428E+05 2.23310E+02 1.10075E+03-6.05845E+03-4.51356E-10-8.25500E-10
 -1       259 1.55239E+05-1.08822E+02 1.26251E+03 1.15908E+03-2.21547E-10-2.30710E-09
 -1       260 1.55750E+05 7.39627E+02 2.46855E+03-6.20346E+03 1.62196E-10 1.23711E-09
 -1       261 1.54923E+05-6.24867E+02 4.07874E+03 1.30592E+03 8.57426E-10-8.03084E-10
 -1       262 1.57851E+05 4.67389E+03 9.95865E+03-6.65651E+03-3.47654E-10-2.89583E-09
 -1       263 1.53153E+05-4.04221E+03 1.57974E+04 1.61215E+03-1.38982E-10-7.05677E-09
 -1       264 1.70044E+05 3.02109E+04 4.32077E+04-7.48708E+03-1.51235E-09-2.20325E-09
 -1       265 1.42763E+05-2.60975E+04 6.10232E+04 2.13637E+03-5.58657E-10 7.45786E-10
 -1       266-1.94709E+04-9.10524E+03 4.56814E+04-2.59762E+01-2.07310E-08-8.29912E-06
 -1       267 2.25720E+04 1.06114E+04 3.22885E+04 2.99729E+01-4.10760E-08-1.63994E-05
 -1       268-3.02687E+03-1.50292E+03 1.20014E+04-3.81895E+00-3.29142E-08-1.31519E-05
 -1       269 3.57383E+03 1.79861E+03 7.80079E+03 4.44862E+00-2.47992E-08-9.90397E-06
 -1       270-5.36437E+02-2.95529E+02 3.76555E+03-6.03685E-01-1.83754E-08-7.30196E-06
 -1       271-1.91283E+06-2.37685E+05-1.47081E+05-7.43910E+05 2.45564E-10 2.21189E-09
 -1       272-1.95255E+06-3.58189E+05-9.45800E+04-7.57839E+05 2.49315E-10 5.36602E-10
 -1       273-1.94049E+06-2.74338E+05-3.47399E+04-7.37403E+05-7.07587E-10 2.87400E-10
 -1       274-1.92039E+06-3.13125E+05-1.94647E+04-7.67750E+05-3.61979E-10-1.86492E-09
 -1       275-1.94458E+06-2.77865E+05-8.08126E+03-7.35971E+05-4.82032E-11 3.81215E-09
 -1       276-1.91559E+06-3.08939E+05-4.30278E+03-7.70040E+05 2.94676E-10 1.00613E-10
 -1       277-1.94543E+06-2.77909E+05-2.10399E+03-7.35443E+05-3.52429E-10-3.69488E-09
 -1       278-1.91476E+06-3.08809E+05-1.53161E+03-7.70673E+05 1.57092E-09-3.22416E-09
 -1       279-1.94548E+06-2.77901E+05-1.64248E+03-7.35413E+05-1.22600E-09-2.40379E-09
 -1       280-1.91532E+06-3.08814E+05-3.00977E+03-7.70189E+05-1.80080E-10-2.04886E-09
 -1       281-1.94481E+06-2.77972E+05-5.49666E+03-7.35869E+05-7.63066E-10-7.13499E-10
 -1       282-1.91882E+06-3.11323E+05-1.31357E+04-7.68249E+05-6.70070E-10 1.92995E-09
 -1       283-1.94183E+06-2.75845E+05-2.34290E+04-7.37088E+05 1.95541E-10 2.05728E-09
 -1       284-1.94098E+06-3.41105E+05-6.37147E+04-7.60844E+05-5.52461E-10 3.09683E-09
 -1       285-1.92283E+06-2.51546E+05-9.91395E+04-7.41877E+05 9.84983E-10-9.82254E-10
 -1       301 7.33917E+03-4.64633E+03 5.73866E+04-1.42749E+04-4.36557E-10 3.47129E-09
 -1       302 7.87864E+03 9.92598E+03 4.14453E+04-2.09911E+04 1.16870E-09-6.66319E-10
 -1       303 3.29871E+02 5.07458E+02 3.81583E+04-1.42963E+04-3.52884E-10 3.99723E-10
 -1       304 1.48778E+04 1.63792E+04 6.41952E+04-2.09359E+04 3.85626E-10 3.61104E-09
 -1       305 1.47496E+04-1.10696E+04 1.07725E+05-1.42998E+04-5.31145E-10 2.95813E-10
 -1       306-2.06380E+06-2.36041E+05-1.57191E+05-8.03049E+05 1.00408E-09-6.91216E-09
 -1       307-2.13858E+06-3.75280E+05-1.07202E+05-7.83180E+05 1.42518E-09 5.49335E-09
 -1       308-2.09858E+06-2.85761E+05-3.69772E+04-7.89331E+05-7.77163E-10 4.66025E-09
 -1       309-2.09623E+06-3.19514E+05-2.24322E+04-8.01752E+05 4.99085E-11 2.63753E-09
 -1       310-2.10599E+06-2.90850E+05-8.67582E+03-7.84828E+05-8.21597E-10 1.41881E-09
 -1       311-2.08683E+06-3.14517E+05-5.04248E+03-8.08125E+05 2.18708E-09 1.06684E-09
 -1       312-2.10801E+06-2.90582E+05-2.46339E+03-7.83048E+05-7.01348E-10 2.11406E-09
 -1       313-2.08507E+06-3.14525E+05-2.22278E+03-8.09635E+05-1.58639E-09-6.79847E-11
 -1       314-2.10776E+06-2.90810E+05-2.66808E+03-7.83340E+05-6.45542E-10 7.62498E-10
 -1       315-2.08785E+06-3.13785E+05-5.63879E+03-8.06994E+05 3.88667E-10 8.02186E-09
 -1       316-2.10520E+06-2.91368E+05-9.80029E+03-7.85653E+05 1.45489E-09 3.92765E-09
 -1       317-2.09873E+06-3.19251E+05-2.53860E+04-7.99562E+05-1.42876E-10-7.05268E-09
 -1       318-2.09685E+06-2.85541E+05-4.18618E+04-7.90673E+05-1.24419E-09 7.25777E-10
 -1       319-2.14634E+06-3.82820E+05-1.21399E+05-7.79052E+05-1.43882E-09-1.84264E-09
 -1       320-2.05778E+06-2.28865E+05-1.77963E+05-8.05780E+05 4.70027E-09 1.89175E-09
 -1       336 2.93853E+02-3.90926E+05-2.06916E+03 2.08193E+02-3.36149E-09-4.44015E-09
 -1       337-7.41721E+02-3.91527E+05-2.26773E+03-5.87347E+02-6.31258E-09-1.06047E-09
 -1       338 1.94786E+02-3.90988E+05-2.84162E+03 3.78348E+02-4.49108E-09-4.06726E-09
 -1       339-2.93733E+03-3.92867E+05-6.22826E+03-9.25244E+02-8.20091E-09-2.25555E-10
 -1       340 2.00989E+03-3.89596E+05-9.58753E+03 5.44360E+02-5.49539E-09 7.76708E-10
 -1       406 7.55589E+00 1.29759E+05 2.15594E+02 4.21374E-01 2.94207E-10 3.60251E-09
 -1       407 7.43681E+01 1.29799E+05 4.58203E+02-5.71720E+00 3.30118E-11-4.12228E-10
 -1       408 2.35066E+02 1.29726E+05 9.15163E+02 5.34466E+00 2.86832E-10 4.95675E-11
 -1       409 9.88798E+02 1.30091E+05 2.06036E+03-4.79633E+01-3.67208E-11-2.29909E-09
 -1       410 2.84242E+03 1.29466E+05 4.20620E+03 4.35311E+01 3.29237E-10-1.80921E-09
 -1       521-3.88771E+06-4.47702E+05-2.90909E+05-1.51038E+06 3.49610E-09-5.54428E-09
 -1       522-4.02707E+06-6.99872E+05-1.97745E+05-1.47277E+06-7.80346E-10-2.70666E-09
 -1       523-3.95245E+06-5.37715E+05-6.83948E+04-1.48461E+06 6.34827E-10-1.34241E-09
 -1       524-3.94830E+06-5.98673E+05-4.12846E+04-1.50754E+06 5.41149E-10 1.69257E-09
 -1       525-3.96599E+06-5.46699E+05-1.59845E+04-1.47636E+06-3.78577E-10-1.91994E-09
 -1       526-3.93218E+06-5.88671E+05-9.22053E+03-1.51783E+06 1.35246E-09-7.51243E-10
 -1       527-3.96856E+06-5.47338E+05-4.42583E+03-1.47449E+06 1.20718E-09 2.58592E-09
 -1       528-3.93223E+06-5.85206E+05-3.79488E+03-1.51647E+06-4.06601E-10-2.40243E-09
 -1       529-3.96589E+06-5.50153E+05-4.44467E+03-1.47771E+06-3.33785E-10-1.15506E-09
 -1       530-3.94192E+06-5.78431E+05-9.08498E+03-1.50586E+06-1.90994E-10-5.93445E-11
 -1       531-3.95873E+06-5.54254E+05-1.59371E+04-1.48497E+06-2.15954E-09 6.74845E-10
 -1       532-3.96513E+06-5.81222E+05-4.09099E+04-1.48757E+06-1.32985E-10-5.26916E-09
 -1       533-3.94272E+06-5.47718E+05-6.78879E+04-1.49585E+06 1.64619E-10-2.58296E-09
 -1       534-4.04570E+06-6.79786E+05-1.96246E+05-1.45132E+06 1.89448E-09 1.79716E-09
 -1       535-3.87886E+06-4.57729E+05-2.88605E+05-1.52064E+06-5.57338E-09 3.15777E-09
 -1       536-4.20296E+03-1.10682E+04 2.55160E+04 2.66264E+02-1.05885E-09 2.81943E-09
 -1       537 7.45848E+03 1.28078E+04 1.81537E+04-1.01004E+03-3.71980E-09-2.00089E-09
 -1       538 1.53911E+02-1.73451E+03 6.58647E+03 2.42917E+02 3.12923E-11 4.31464E-09
 -1       539 2.33151E+03 2.00312E+03 4.18966E+03-9.82607E+02 1.52927E-09 2.88321E-09
 -1       540 9.19560E+02-2.69983E+02 1.66593E+03 2.38837E+02-1.59332E-10-4.72028E-10
 -1       541 1.40235E+03 3.09419E+02 9.87416E+02-9.76665E+02 4.08562E-11-2.04214E-09
 -1       542 1.08042E+03-4.02212E+01 4.01993E+02 2.36970E+02-1.84446E-10-1.97332E-09
 -1       543 1.19244E+03 3.94434E+01 2.02900E+02-9.73812E+02 2.78362E-10-2.79086E-09
 -1       544 1.12780E+03 1.01744E+00 3.73617E+01 2.35983E+02-2.60648E-10-1.37585E-09
 -1       545 1.11573E+03-4.32973E+01-9.94421E+01-9.72610E+02-4.51681E-10-1.87892E-09
 -1       546 1.15637E+03 4.30154E+01-2.43385E+02 2.35769E+02 4.94564E-10 1.14773E-09
 -1       547 9.85502E+02-3.20170E+02-6.50257E+02-9.72903E+02-8.72336E-10 1.05366E-09
 -1       548 1.25818E+03 2.77579E+02-1.05652E+03 2.36276E+02-1.23788E-09 2.04125E-10
 -1       549 2.30443E+02-2.04695E+03-2.88564E+03-9.74135E+02-5.21922E-10 1.21321E-09
 -1       550 1.91254E+03 1.76767E+03-4.10721E+03 2.37001E+02-3.79359E-11-1.46292E-09
 -1       551 2.97878E+03-2.06459E+05 1.16043E+04-3.54328E+05-1.54650E-08 1.15324E-09
 -1       552 5.83905E+03-2.05794E+05 1.48393E+04-5.04101E+05-1.16088E-08 8.20728E-09
 -1       553 3.57788E+03-2.08512E+05 2.31335E+04-3.53219E+05-1.87429E-08 4.82214E-09
 -1       554 1.69034E+04-1.97803E+05 4.91092E+04-5.04581E+05-1.24346E-08 3.12582E-09
 -1       555 1.78837E+04-2.17986E+05 8.83668E+04-3.53727E+05-1.89793E-08-2.80670E-09
 -1       556 2.80171E+04-6.54581E+04 2.29910E+04-8.83030E+04-3.08501E-09-1.57161E-09
 -1       557 5.46600E+04-8.79801E+04 1.20056E+04-1.10208E+05-2.96859E-09-4.82669E-09
 -1       558 2.84914E+04-6.88442E+04 4.95458E+03-8.53531E+04-1.37516E-09 1.06229E-09
 -1       559 5.17019E+04-9.13328E+04 2.48118E+03-1.11356E+05 2.71575E-09 2.28465E-09
 -1       560 2.81373E+04-6.85902E+04 1.07789E+03-8.55374E+04 3.99814E-09 8.03311E-09
 -1       561 5.09917E+04-9.12454E+04 5.49010E+02-1.11796E+05 9.67702E-10-2.33172E-09
 -1       562 2.78186E+04-6.83610E+04 2.30455E+02-8.57721E+04 3.70710E-09-3.00429E-09
 -1       563 5.05994E+04-9.10800E+04 1.27175E+02-1.12045E+05 9.89530E-09 2.79908E-09
 -1       564 2.76192E+04-6.82278E+04 4.81229E+01-8.59162E+04 5.18048E-09-2.43290E-10
 -1       565 5.03985E+04-9.09961E+04 2.02720E+01-1.12170E+05 2.19916E-09 9.01264E-09
 -1       566 2.75522E+04-6.81804E+04-1.74679E+01-8.59667E+04-9.10404E-10-8.91305E-11
 -1       567 5.03661E+04-9.09796E+04-6.69649E+01-1.12157E+05 4.77678E-09 3.82261E-09
 -1       568 2.76350E+04-6.82367E+04-1.67287E+02-8.59395E+04-3.79259E-10 4.10273E-09
 -1       569 5.01643E+04-9.08666E+04-3.96659E+02-1.11718E+05-9.63155E-10 9.36780E-10
 -1       570 2.81483E+04-6.87548E+04-8.05494E+02-8.60326E+04 8.14907E-10 2.00089E-10
 -1       571 9.52423E+04 3.44473E+03 5.15792E+03-2.36323E+04-2.27601E-10-3.69937E-09
 -1       572 9.60176E+04 1.19100E+03 2.52895E+03-2.59523E+04 3.35604E-10-1.01636E-10
 -1       573 9.55583E+04 2.78624E+02 1.12399E+03-2.35696E+04 2.16232E-10-2.68778E-09
 -1       574 9.56502E+04 8.90799E+01 5.63404E+02-2.60227E+04 8.11269E-10-1.75851E-09
 -1       575 9.55951E+04 1.05143E+01 2.65820E+02-2.35614E+04 2.13277E-10-1.92267E-09
 -1       576 9.56018E+04 1.72907E+00 1.35349E+02-2.60320E+04 1.47224E-10 1.11595E-09
 -1       577 9.56005E+04-3.08199E+00 6.68430E+01-2.35603E+04 6.31189E-10 8.69932E-10
 -1       578 9.55960E+04-1.78795E+00 3.66840E+01-2.60331E+04 6.36646E-10 1.38107E-09
 -1       579 9.56039E+04-2.65917E+00 2.30355E+01-2.35603E+04 7.22821E-10-1.26101E-09
 -1       580 9.55997E+04-2.58226E+00 2.23685E+01-2.60316E+04-1.16142E-09-1.67847E-09
 -1       581 9.56089E+04-3.34609E+00 3.15784E+01-2.35618E+04-3.54066E-09-1.44701E-09
 -1       582 9.56118E+04 3.02447E+00 6.06862E+01-2.60174E+04-1.73168E-09-1.33036E-09
 -1       583 9.56130E+04 2.02223E+01 1.17381E+02-2.35745E+04 3.93811E-10 1.09617E-09
 -1       584 9.56600E+04 1.12682E+02 2.62843E+02-2.59110E+04 1.05797E-09 1.42330E-09
 -1       585 9.55895E+04 3.44643E+02 5.34395E+02-2.36683E+04 6.40284E-10-2.41926E-10
 -1       586-1.19939E+03 3.04892E+04-1.57738E+03-8.05451E+04 2.60798E-10 7.53516E-10
 -1       587-2.76675E+02 3.02803E+04-2.02265E+02-8.86339E+04 4.16094E-10 1.35066E-09
 -1       588 3.04151E+02 3.03214E+04 1.05984E+03-8.04963E+04 2.48292E-10 3.37263E-09
 -1       589 1.58542E+03 3.09004E+04 3.12230E+03-8.85599E+04 3.97904E-10 2.59570E-09
 -1       590 4.58643E+03 2.99188E+04 6.70087E+03-8.06193E+04 1.81899E-10 1.79944E-09
 -1       591-2.06000E+04-5.93183E+03-6.86128E+03-1.07266E+04 1.18712E-09 4.01133E-09
 -1       592-2.12298E+04-7.62978E+03-3.71635E+03-1.25306E+04-3.60728E-10-3.33898E-10
 -1       593-2.12937E+04-5.42617E+03-1.54714E+03-1.12215E+04-1.80108E-09-7.29904E-09
 -1       594-2.02730E+04-6.63290E+03-7.71654E+02-1.25781E+04-2.73303E-10 1.01824E-09
 -1       595-2.13466E+04-5.42402E+03-3.54629E+02-1.12441E+04-9.83846E-10 6.75485E-10
 -1       596-2.02081E+04-6.58728E+03-1.80789E+02-1.25712E+04 4.02849E-10 2.24112E-10
 -1       597-2.13533E+04-5.42845E+03-9.95326E+01-1.12450E+04-1.45313E-09-6.38676E-09
 -1       598-2.02020E+04-6.58552E+03-8.20049E+01-1.25694E+04 3.11886E-10 6.71832E-10
 -1       599-2.13529E+04-5.42838E+03-1.07204E+02-1.12449E+04 4.04953E-10-1.29398E-09
 -1       600-2.02092E+04-6.58779E+03-2.01161E+02-1.25713E+04 1.44496E-10-7.79551E-10
 -1       601-2.13448E+04-5.42338E+03-3.97814E+02-1.12437E+04-4.65093E-10 1.49612E-09
 -1       602-2.02824E+04-6.63893E+03-8.67662E+02-1.25785E+04 3.40151E-10 3.36308E-09
 -1       603-2.12848E+04-5.42646E+03-1.74021E+03-1.12185E+04-8.82210E-11 1.81535E-09
 -1       604-2.13622E+04-7.75647E+03-4.18049E+03-1.25203E+04-8.83347E-11-7.86258E-10
 -1       605-2.05002E+04-5.99842E+03-7.71801E+03-1.06656E+04 6.09532E-10 2.58069E-09
 -1       606 1.34500E+04-4.54835E+03-8.19555E+03 1.31565E+04-1.91494E-09-5.16138E-10
 -1       607 1.20468E+04-1.46691E+03-4.08118E+03 1.47689E+04-5.47516E-10-1.41921E-09
 -1       608 1.28487E+04-2.46279E+02-1.82700E+03 1.30514E+04 1.30058E-09 8.12861E-11
 -1       609 1.26922E+04-6.62301E+01-9.23015E+02 1.48851E+04-1.17416E-09 4.06226E-09
 -1       610 1.27810E+04 9.70104E+00-4.40461E+02 1.30397E+04-2.14277E-09 3.79612E-09
 -1       611 1.27535E+04 1.26536E+01-2.22316E+02 1.48978E+04-4.92923E-09 4.29191E-09
 -1       612 1.27664E+04 1.38667E+01-1.06117E+02 1.30386E+04-2.66618E-09-3.62206E-10
 -1       613 1.27575E+04 1.37883E+01-4.85019E+01 1.48994E+04-2.85149E-09-3.25781E-09
 -1       614 1.27597E+04 1.17296E+01-1.34471E+01 1.30381E+04-5.44787E-10 2.14573E-09
 -1       615 1.27559E+04 1.41420E+01 1.49639E+01 1.48997E+04 1.92563E-09 1.44598E-09
 -1       616 1.27546E+04 1.25750E+01 4.98879E+01 1.30383E+04-3.02452E-09-1.58059E-09
 -1       617 1.27618E+04 2.50748E+01 1.15591E+02 1.48994E+04-6.55064E-10-5.05224E-09
 -1       618 1.27442E+04 4.61272E+01 2.33751E+02 1.30383E+04-1.09376E-08 8.16271E-10
 -1       619 1.28442E+04 2.06091E+02 5.25345E+02 1.48992E+04-2.02899E-08-6.55746E-10
 -1       620 1.26664E+04 6.01057E+02 1.05611E+03 1.30381E+04-9.10507E-09 9.78162E-10
 -1       621 1.65594E+02 1.02904E+05 1.42664E+03 3.30531E+03-1.24501E-10-1.34901E-09
 -1       622 1.89202E+02 1.03258E+05 1.20955E+03 4.82220E+03-5.82077E-11-2.45404E-09
 -1       623 8.40828E+00 1.03007E+05 1.38937E+03 3.28950E+03-1.16046E-10-1.47190E-09
 -1       624 6.28861E+02 1.03661E+05 2.63694E+03 4.83796E+03-7.88987E-11-1.20937E-09
 -1       625 6.31024E+02 1.02499E+05 4.58353E+03 3.28966E+03-1.61435E-10 9.90923E-11
 -1       626 8.47328E+04 2.34654E+04 1.67398E+03 4.58060E+04-4.17231E-10 2.25009E-09
 -1       627 8.35716E+04 2.43229E+04 8.06256E+02 4.76571E+04-1.59980E-09 3.53663E-09
 -1       628 8.48008E+04 2.26711E+04 3.40860E+02 4.60597E+04-2.47292E-09 2.04625E-09
 -1       629 8.33337E+04 2.41319E+04 1.66896E+02 4.77712E+04 1.69325E-09 1.23697E-09
 -1       630 8.48085E+04 2.26315E+04 7.73588E+01 4.60685E+04 5.42059E-10-9.15179E-11
 -1       631 8.33077E+04 2.41265E+04 4.15327E+01 4.77749E+04 2.02385E-09 9.34009E-09
 -1       632 8.48070E+04 2.26331E+04 2.75693E+01 4.60663E+04-2.31148E-09-3.90673E-09
 -1       633 8.33037E+04 2.41281E+04 3.08195E+01 4.77734E+04-8.83233E-10 2.00998E-10
 -1       634 8.48038E+04 2.26326E+04 5.00630E+01 4.60651E+04 3.03976E-09-2.41926E-10
 -1       635 8.33069E+04 2.41284E+04 1.01575E+02 4.77740E+04 2.41317E-09 3.01497E-10
 -1       636 8.47989E+04 2.26319E+04 2.05285E+02 4.60639E+04 2.66027E-11 8.58222E-10
 -1       637 8.33486E+04 2.41611E+04 4.51249E+02 4.77718E+04-8.90896E-11 7.14863E-10
 -1       638 8.47805E+04 2.27329E+04 9.27563E+02 4.60172E+04 3.08404E-09 5.31713E-09
 -1       639 8.38325E+04 2.48403E+04 2.19442E+03 4.76268E+04 8.61519E-10-3.75917E-09
 -1       640 8.47137E+04 2.47540E+04 4.55425E+03 4.51590E+04-1.69052E-10 4.29168E-10
 -1       656 2.29696E+04-5.81500E+05-5.54652E+04-4.97031E+02-1.92813E-10-4.59070E-09
 -1       657-3.03497E+04-6.06559E+05-4.58696E+04 3.80541E+03-3.42880E-10 7.31683E-09
 -1       658 7.28174E+03-5.88653E+05-2.81508E+04-7.79756E+02 4.18311E-10 5.33589E-09
 -1       659-3.25368E+04-6.07586E+05-4.87418E+04 3.99113E+03-1.40972E-11-4.26194E-10
 -1       660 2.51504E+04-5.80474E+05-6.04126E+04-6.82746E+02-6.80302E-10-9.09537E-10
 -1       661 8.24933E+04 8.94811E+03 7.90940E+03 3.21916E+04 1.55819E-09-1.58343E-09
 -1       662 8.65829E+04 1.51814E+04 5.32958E+03 3.08494E+04 1.00522E-09-1.93944E-09
 -1       663 8.40395E+04 1.14924E+04 1.86434E+03 3.17487E+04-1.01670E-09-1.52988E-09
 -1       664 8.47964E+04 1.22003E+04 1.11453E+03 3.13849E+04 3.74030E-11-1.68478E-09
 -1       665 8.42682E+04 1.18456E+04 4.39702E+02 3.16875E+04-1.28651E-09-2.35758E-11
 -1       666 8.45305E+04 1.17916E+04 2.56314E+02 3.14609E+04-2.24421E-09 1.70381E-09
 -1       667 8.43038E+04 1.18905E+04 1.35188E+02 3.16767E+04-9.00258E-10 2.33457E-09
 -1       668 8.44950E+04 1.17527E+04 1.35306E+02 3.14749E+04 3.52991E-10-4.78410E-10
 -1       669 8.43035E+04 1.18835E+04 1.81363E+02 3.16739E+04 2.84075E-10 4.44383E-09
 -1       670 8.45460E+04 1.18433E+04 3.93017E+02 3.14685E+04 3.07058E-09-5.16877E-10
 -1       671 8.42531E+04 1.18018E+04 6.97338E+02 3.16823E+04-5.01124E-10 1.23595E-09
 -1       672 8.49576E+04 1.25165E+04 1.78362E+03 3.13645E+04-8.46551E-10 1.65790E-09
 -1       673 8.38942E+04 1.12273E+04 2.98895E+03 3.17714E+04-2.19075E-09-9.91690E-10
 -1       674 8.78081E+04 1.73138E+04 8.54814E+03 3.05228E+04 2.27629E-10 4.05748E-10
 -1       675 8.14212E+04 7.13879E+03 1.26876E+04 3.24736E+04 9.79071E-10-1.65164E-09
 -1       676 9.35140E+00-1.11598E+05-4.34462E+02 1.11767E+01-7.02158E-10-1.52899E-09
 -1       677-1.15327E+02-1.11703E+05-7.95075E+02-2.23523E+01-3.42550E-09-3.07200E-09
 -1       678 7.69917E+01-1.11523E+05-1.40546E+03 1.11679E+01 3.36854E-10-6.97875E-10
 -1       679-1.40559E+03-1.12551E+05-3.33849E+03-2.23095E+01-1.01318E-09 2.72859E-09
 -1       680 8.38761E+02-1.10750E+05-5.38059E+03 1.10054E+01-9.48148E-11-1.65284E-09
 -1       771-1.20096E+06-2.08276E+05-2.90872E+04-4.96864E+05-3.54339E-09-6.40284E-10
 -1       772-1.19331E+06-2.24804E+05-1.56585E+04-5.15266E+05-3.65981E-09 2.39697E-09
 -1       773-1.20469E+06-2.05396E+05-6.66730E+03-4.98492E+05-2.52840E-09 2.47201E-09
 -1       774-1.18901E+06-2.21228E+05-3.27108E+03-5.16620E+05 3.31784E-09-7.37600E-10
 -1       775-1.20534E+06-2.05026E+05-1.59351E+03-4.98584E+05 2.53931E-09 5.57066E-09
 -1       776-1.18884E+06-2.21171E+05-7.50771E+02-5.17184E+05-1.97906E-09 1.11868E-09
 -1       777-1.20573E+06-2.04765E+05-4.27271E+02-4.98616E+05-1.06593E-09 9.72250E-10
 -1       778-1.18892E+06-2.21241E+05-2.01267E+02-5.17644E+05 6.91216E-10-5.09317E-10
 -1       779-1.20603E+06-2.04541E+05-1.78284E+02-4.98641E+05-1.34605E-09-1.31649E-09
 -1       780-1.18902E+06-2.21307E+05-1.56296E+02-5.18018E+05-1.46701E-09 2.52840E-10
 -1       781-1.20624E+06-2.04358E+05-2.72984E+02-4.98657E+05-4.22187E-09-5.55474E-10
 -1       782-1.18913E+06-2.21384E+05-5.20334E+02-5.18293E+05-4.65388E-09-1.46434E-09
 -1       783-1.20636E+06-2.04242E+05-1.03854E+03-4.98656E+05-9.40418E-10-2.21434E-09
 -1       784-1.18980E+06-2.22080E+05-2.46984E+03-5.18433E+05-2.94949E-09-7.19638E-11
 -1       785-1.20598E+06-2.04510E+05-4.56422E+03-4.98327E+05-5.21641E-09 6.14818E-10
 -1       786 8.80598E+04-4.69959E+03 1.08718E+04 2.28810E+00 3.89010E-08 5.23869E-10
 -1       787 9.27709E+04 5.44062E+03 7.69178E+03-9.27727E+00 7.69257E-08 3.05170E-09
 -1       788 8.98774E+04-7.36709E+02 2.81387E+03 2.69697E+00 1.31406E-07 2.19086E-09
 -1       789 9.06535E+04 8.52415E+02 1.76801E+03-1.06970E+01 1.86121E-07 2.77529E-09
 -1       790 9.01774E+04-1.15087E+02 7.19416E+02 3.70788E+00 2.70958E-07-4.13698E-09
 -1       791 9.03035E+04 1.33727E+02 4.22472E+02-1.34631E+01 3.55845E-07 3.36268E-09
 -1       792 9.02276E+04-1.85595E+01 1.92970E+02 5.46314E+00 5.10105E-07-6.07999E-09
 -1       793 9.02469E+04 2.61438E+01 1.26778E+02-1.79778E+01 6.65421E-07 2.09707E-09
 -1       794 9.02339E+04-7.57365E+00 9.44135E+01 8.22266E+00 9.73802E-07-1.02872E-08
 -1       795 9.02528E+04 3.92711E+01 1.37295E+02-2.49015E+01 1.28057E-06 6.76281E-09
 -1       796 9.02217E+04-3.16778E+01 2.06105E+02 1.23869E+01 6.40236E-07-5.18572E-09
 -1       797 9.03463E+04 2.32251E+02 4.86324E+02-3.52399E+01 1.97346E-09 1.20897E-09
 -1       798 9.01403E+04-2.00411E+02 7.67804E+02 1.85612E+01-3.82085E-11-7.35099E-10
 -1       799 9.09221E+04 1.47973E+03 2.09322E+03-5.05970E+01-2.12211E-10 2.92744E-12
 -1       800 8.96459E+04-1.27815E+03 2.95703E+03 2.77442E+01 7.20535E-11-3.15345E-09
 -1       801-4.50190E+03 6.32082E+03 8.08925E+03 9.21399E+03 5.11068E-09-3.36127E-09
 -1       802 1.27233E+04 3.72413E+04 2.44653E+04-3.78969E+04 1.36697E-08-2.16403E-10
 -1       803-7.96953E+03 1.62275E+04 3.24671E+04 8.90844E+03 1.07684E-08 9.36453E-09
 -1       804 6.27678E+04 6.31014E+04 8.99531E+04-3.82151E+04 1.28339E-08 1.00771E-08
 -1       805-5.45504E+04-1.94484E+04 1.19196E+05 9.53163E+03 4.53292E-09 1.19294E-08
 -1       806-1.02728E+05-2.20483E+04-8.71790E+03-4.28391E+04-1.68598E-10-1.05956E-09
 -1       807-1.03233E+05-2.08084E+04-4.28288E+03-4.51605E+04-2.10889E-11-3.11229E-09
 -1       808-1.02976E+05-1.88985E+04-1.81686E+03-4.43179E+04-1.01409E-10 1.45084E-09
 -1       809-1.02319E+05-1.96194E+04-8.88235E+02-4.52845E+04-2.68017E-10 4.96806E-09
 -1       810-1.03015E+05-1.87871E+04-4.06704E+02-4.43833E+04 1.21031E-09-1.82592E-09
 -1       811-1.02249E+05-1.95723E+04-2.01717E+02-4.52746E+04 1.68529E-09-2.35997E-09
 -1       812-1.03022E+05-1.87950E+04-1.00623E+02-4.43834E+04-1.12323E-10 1.70633E-09
 -1       813-1.02241E+05-1.95733E+04-6.35216E+01-4.52698E+04-4.92264E-11 6.36248E-10
 -1       814-1.03022E+05-1.87975E+04-5.95180E+01-4.43824E+04 1.40903E-09 4.42321E-09
 -1       815-1.02243E+05-1.95742E+04-9.33288E+01-4.52691E+04-1.04296E-09 4.88336E-09
 -1       816-1.03017E+05-1.87962E+04-1.74793E+02-4.43817E+04-1.22100E-10 1.54523E-09
 -1       817-1.02273E+05-1.95907E+04-3.75059E+02-4.52670E+04 7.87395E-10 1.46372E-09
 -1       818-1.02996E+05-1.88481E+04-7.64232E+02-4.43573E+04 1.56706E-09-8.88122E-10
 -1       819-1.02697E+05-2.00491E+04-1.79910E+03-4.51658E+04 3.38991E-09 7.31063E-09
 -1       820-1.02851E+05-2.02083E+04-3.66125E+03-4.37783E+04 5.23414E-10 4.26866E-09
 -1       821-1.32795E+05 7.37615E+03-1.70610E+04-6.80153E-01-4.56560E-10 2.95040E-09
 -1       822-1.40187E+05-8.53914E+03-1.20724E+04-9.47484E+01-1.31896E-09 1.78943E-09
 -1       823-1.35648E+05 1.15632E+03-4.41887E+03-2.46706E+01 1.00192E-09-1.26670E-09
 -1       824-1.36864E+05-1.33839E+03-2.78093E+03-4.33687E+01-5.15933E-10 1.26556E-09
 -1       825-1.36118E+05 1.81067E+02-1.14229E+03-5.20616E+01-1.62474E-09-2.02533E-10
 -1       826-1.36317E+05-2.13550E+02-6.91106E+02 8.97703E+00-2.95347E-09 4.40453E-09
 -1       827-1.36194E+05 3.23061E+01-3.56360E+02-7.70175E+01-2.62116E-09 6.15572E-10
 -1       828-1.36241E+05-6.52735E+01-3.16495E+02 5.12627E+01 2.91633E-08 2.94646E-09
 -1       829-1.36194E+05 3.29057E+01-3.61619E+02-9.43480E+01 9.46528E-06-7.97219E-09
 -1       830-1.36321E+05-2.18651E+02-7.06839E+02 7.47021E+01 1.88401E-05-7.39416E-09
 -1       831-1.36115E+05 1.85591E+02-1.16994E+03-1.00457E+02-1.37322E-06-4.20738E-09
 -1       832-1.36882E+05-1.37197E+03-2.85076E+03 7.45970E+01-2.15783E-05 8.78708E-09
 -1       833-1.35633E+05 1.18538E+03-4.52967E+03-9.42426E+01-1.08378E-05 1.35476E-08
 -1       834-1.40288E+05-8.75385E+03-1.23761E+04 5.18279E+01-3.57011E-08-5.05679E-10
 -1       835-1.32709E+05 7.56165E+03-1.74902E+04-7.76856E+01 1.95034E-09-1.24146E-09
 -1       836-4.43897E+02 1.26157E+05 7.59441E+03-1.10957E+04 9.96351E-10 2.93630E-09
 -1       837 1.66592E+03 1.28512E+05 6.47878E+03-2.23061E+04 1.25510E-09 4.47130E-09
 -1       838-1.66158E+02 1.26815E+05 6.67561E+03-1.10565E+04 1.22486E-09-2.46263E-09
 -1       839 4.27618E+03 1.30463E+05 1.27020E+04-2.23208E+04 1.64050E-09-7.14698E-09
 -1       840-1.29111E+03 1.24196E+05 2.02849E+04-1.10804E+04 1.12232E-09-4.44345E-09
 -1       856-4.16204E+04 3.55836E+03-9.37598E+03-1.96601E+02-8.54044E-10-1.35742E-09
 -1       857-4.54945E+04-4.17436E+03-6.45556E+03 2.15948E+03-1.17200E-09-7.05541E-10
 -1       858-4.31510E+04 4.98813E+02-2.43329E+03-2.02379E+02-1.80049E-09 1.89561E-09
 -1       859-4.37357E+04-5.81325E+02-1.46985E+03 2.16844E+03-2.86974E-10 2.23258E-09
 -1       860-4.33801E+04 6.95378E+01-6.18008E+02-2.05598E+02 1.50550E-10 5.15456E-10
 -1       861-4.34714E+04-7.84686E+01-3.44375E+02 2.17277E+03-2.25357E-09-1.13471E-09
 -1       862-4.34158E+04 9.37102E+00-1.51889E+02-2.06715E+02 2.40662E-09 7.59627E-10
 -1       863-4.34292E+04-7.57222E+00-7.51612E+01 2.17328E+03 6.46883E-09-2.02330E-09
 -1       864-4.34223E+04 1.61323E-01-2.36714E+01-2.06106E+02 3.25883E-09-2.92725E-09
 -1       865-4.34176E+04 8.77516E+00 1.37770E+01 2.17008E+03 3.59191E-09-8.42260E-10
 -1       866-4.34271E+04-6.96799E+00 5.09483E+01-2.03514E+02-8.88278E-10-2.14203E-09
 -1       867-4.33889E+04 5.91010E+01 1.39636E+02 2.16309E+03 3.42737E-10 1.57595E-10
 -1       868-4.34503E+04-4.94245E+01 2.36214E+02-1.99114E+02-3.65873E-10-2.13640E-09
 -1       869-4.32135E+04 4.11654E+02 6.33182E+02 2.15080E+03-3.78023E-10-7.68351E-09
 -1       870-4.36013E+04-3.50173E+02 9.19393E+02-1.91226E+02 2.11935E-09 1.92637E-09
 -1       871-1.92543E+03-4.08375E+03-6.31036E+03 4.13770E+04 1.39198E-09-1.71167E-09
 -1       872-8.30898E+02-5.49186E+03-2.57095E+03 5.36413E+04 2.56614E-09-2.93846E-09
 -1       873-9.96556E+00-4.82210E+03 3.74436E+02 4.12849E+04 9.36893E-10-2.66641E-09
 -1       874 9.85033E+02-3.90508E+03 3.59703E+03 5.36608E+04 2.68210E-09 1.31428E-09
 -1       875 2.32170E+03-5.68329E+03 7.97477E+03 4.13598E+04 1.16233E-09-7.43512E-10
 -1       876 1.03594E+05 1.78361E+04 5.55526E+03 4.20092E+04-2.41300E-09 1.10094E-09
 -1       877 1.03911E+05 1.90564E+04 2.96652E+03 4.36547E+04-3.71767E-09-3.69653E-10
 -1       878 1.04115E+05 1.72202E+04 1.24292E+03 4.24650E+04 1.40301E-09 7.25322E-10
 -1       879 1.03155E+05 1.83041E+04 6.19077E+02 4.36956E+04-3.50155E-11 6.20417E-10
 -1       880 1.04154E+05 1.72127E+04 2.88255E+02 4.24836E+04 1.98384E-10 4.62705E-10
 -1       881 1.03105E+05 1.82724E+04 1.53456E+02 4.36888E+04 2.63026E-09 1.73571E-09
 -1       882 1.04158E+05 1.72167E+04 9.74440E+01 4.24842E+04 3.66197E-09 3.40308E-09
 -1       883 1.03102E+05 1.82710E+04 1.03527E+02 4.36872E+04 1.82374E-09 3.29428E-09
 -1       884 1.04156E+05 1.72154E+04 1.63617E+02 4.24842E+04-1.80037E-09-5.43173E-09
 -1       885 1.03115E+05 1.82734E+04 3.28299E+02 4.36915E+04 1.95170E-09 4.48122E-09
 -1       886 1.04143E+05 1.72058E+04 6.61401E+02 4.24830E+04 1.70535E-09-1.01670E-09
 -1       887 1.03231E+05 1.83495E+04 1.44470E+03 4.37079E+04-2.11287E-10 2.84410E-09
 -1       888 1.04052E+05 1.72222E+04 2.91118E+03 4.24368E+04 1.98921E-09 1.13209E-09
 -1       889 1.04966E+05 2.01506E+04 6.95492E+03 4.36521E+04-2.56286E-09-1.14187E-09
 -1       890 1.02864E+05 1.86320E+04 1.30257E+04 4.13273E+04 1.15324E-09 1.32241E-09
 -1       891-6.07803E+01-5.89200E+04-6.93008E+02 1.12001E+04 6.71832E-10-2.18171E-09
 -1       892-1.06112E+02-5.90892E+04-7.55168E+02 1.69541E+04 8.55039E-10-8.12406E-10
 -1       893-1.27784E+01-5.89441E+04-1.07988E+03 1.12021E+04 1.13698E-09 1.49112E-09
 -1       894-5.81739E+02-5.95105E+04-2.24362E+03 1.68945E+04-1.70530E-09 3.10479E-09
 -1       895-4.52173E+02-5.84826E+04-3.95280E+03 1.12593E+04-9.60000E-10 1.68393E-09
 -1       956-1.30110E+05-1.87899E+03-4.72958E+03 8.64159E+03-2.26714E-09-9.49967E-10
 -1       957-1.31044E+05-6.35348E+02-2.42819E+03 1.04001E+04-1.43223E-09-3.28885E-09
 -1       958-1.30527E+05-5.19402E+01-1.09378E+03 8.58575E+03-2.27692E-09 1.08105E-09
 -1       959-1.30600E+05-1.18929E+01-5.58785E+02 1.04605E+04-8.08723E-09-1.11311E-09
 -1       960-1.30562E+05 1.28057E+01-2.72265E+02 8.58073E+03-6.51153E-09-2.76361E-09
 -1       961-1.30566E+05 1.03151E+01-1.44411E+02 1.04661E+04-6.82701E-09 8.97899E-10
 -1       962-1.30568E+05 9.86716E+00-8.24038E+01 8.58014E+03-2.85650E-09-1.75214E-09
 -1       963-1.30563E+05 1.01162E+01-6.57763E+01 1.04669E+04-2.37907E-09-1.95905E-09
 -1       964-1.30569E+05 1.02945E+01-7.92949E+01 8.57994E+03-2.68244E-10-2.52129E-09
 -1       965-1.30568E+05 1.13198E+01-1.36561E+02 1.04668E+04 1.22158E-09-1.50931E-09
 -1       966-1.30565E+05 1.40379E+01-2.56006E+02 8.58019E+03-2.24389E-09-1.38925E-10
 -1       967-1.30602E+05-8.48788E+00-5.24896E+02 1.04637E+04-3.52429E-10 2.73712E-09
 -1       968-1.30534E+05-4.57722E+01-1.02699E+03 8.58308E+03 5.63318E-10-7.33706E-10
 -1       969-1.31020E+05-5.93019E+02-2.28016E+03 1.04285E+04 4.64297E-10 2.35910E-09
 -1       970-1.30144E+05-1.76081E+03-4.44101E+03 8.61613E+03 2.55000E-10 9.82254E-10
 -1       971-1.23653E+05-6.54132E+02-3.63722E+03 6.09853E+03-2.19279E-09 3.12910E-09
 -1       972-1.24537E+05-4.71348E+02-1.98117E+03 8.50478E+03-1.27727E-09-1.06263E-09
 -1       973-1.24055E+05-5.79579E+00-8.86742E+02 6.04916E+03-1.08616E-09 5.82190E-10
 -1       974-1.24115E+05-8.40753E+00-4.59536E+02 8.55758E+03 4.26553E-10-1.69132E-09
 -1       975-1.24084E+05 9.57951E+00-2.28965E+02 6.04538E+03-3.38105E-10 1.24305E-09
 -1       976-1.24087E+05 9.15857E+00-1.31197E+02 8.56186E+03-3.98398E-09-1.35066E-09
 -1       977-1.24088E+05 8.38792E+00-9.33384E+01 6.04485E+03-3.46006E-09-1.50067E-10
 -1       978-1.24087E+05 1.04122E+01-1.06813E+02 8.56258E+03-9.90894E-10 6.60236E-10
 -1       979-1.24088E+05 1.07572E+01-1.69410E+02 6.04466E+03-3.15652E-10 1.75771E-09
 -1       980-1.24099E+05 1.12258E+01-3.25727E+02 8.56262E+03 2.96978E-09-2.89515E-09
 -1       981-1.24077E+05 1.89390E+01-6.30032E+02 6.04481E+03-7.94955E-10-5.63347E-10
 -1       982-1.24186E+05-3.48636E+01-1.30179E+03 8.56043E+03-6.43468E-10-1.04119E-10
 -1       983-1.23999E+05-2.06801E+01-2.52896E+03 6.04690E+03 8.12065E-10-6.34543E-10
 -1       984-1.25404E+05-1.35437E+03-5.66306E+03 8.52692E+03-1.96906E-10-1.09424E-10
 -1       985-1.22856E+05-1.87043E+03-1.03991E+04 6.07970E+03 4.24961E-10 8.07631E-10
 -3
    1PSTEP                         3           2           1          
  100CL  102 3.12500E-01         409                     0    2           1
 -4  DISP        4    1
 -5  D1          1    2    1    0
 -5  D2          1    2    2    0
 -5  D3          1    2    3    0
 -5  ALL         1    2    0    0    1ALL
 -1         1 8.16628E-05 0.00000E+00 0.00000E+00
 -1         2 7.53888E-05 7.63589E-30 1.65436E-24
 -1         3 6.96235E-05-7.67285E-28-3.30872E-24
 -1         5 5.01659E-05 3.83541E-26-3.30872E-24
 -1         8 6.51893E-05-5.91549E-07 0.00000E+00
 -1         9 6.62412E-05 3.93768E-07 0.00000E+00
 -1        10 6.45284E-05-9.52200E-07-3.30872E-24
 -1        12 4.98071E-05 3.40347E-07 0.00000E+00
 -1        15 4.55891E-05-6.38530E-07 0.00000E+00
 -1        16 4.71607E-05 3.12514E-07 0.00000E+00
 -1        17 4.81111E-05-1.99898E-06 0.00000E+00
 -1        18 4.80650E-05 1.42451E-07 0.00000E+00
 -1        19 4.87310E-05 6.78849E-07 0.00000E+00
 -1        20 4.88203E-05 1.01149E-05 0.00000E+00
 -1        21 4.84835E-05 1.91185E-05 0.00000E+00
 -1        24 1.22977E-05-2.67559E-06 0.00000E+00
 -1        25 4.69275E-05 2.20089E-07 0.00000E+00
 -1        26 4.75552E-05 9.46955E-07 0.00000E+00
 -1        27 4.66127E-05 8.59917E-06 0.00000E+00
 -1        28 4.63092E-05 1.88275E-05 0.00000E+00
 -1        32 0.00000E+00 0.00000E+00 0.00000E+00
 -1        33 4.55676E-05 1.27061E-06 0.00000E+00
 -1        34 4.46566E-05 8.58555E-06 0.00000E+00
 -1        35 4.37912E-05 1.86739E-05 0.00000E+00
 -1        51 8.05911E-05-9.81373E-08 0.00000E+00
 -1        52 7.86049E-05-1.93470E-07 0.00000E+00
 -1        53 7.58844E-05-2.89325E-07 0.00000E+00
 -1        54 7.26166E-05-3.86612E-07 0.00000E+00
 -1        55 6.89889E-05-4.85935E-07-3.92911E-24
 -1        56 8.09140E-05-4.65319E-07-1.32349E-23
 -1        57 8.02471E-05-1.23340E-06-1.32349E-23
 -1        58 7.96627E-05-2.21718E-06 0.00000E+00
 -1        59 7.91244E-05-3.33849E-06-1.32349E-23
 -1        60 7.86045E-05-4.50961E-06 0.00000E+00
 -1        61 7.80699E-05-5.64386E-06 1.32349E-23
 -1        62 7.74893E-05-6.65560E-06 0.00000E+00
 -1        63 7.68317E-05-7.46194E-06-1.32349E-23
 -1        64 7.60691E-05-7.98811E-06 0.00000E+00
 -1        65 7.51756E-05-8.16483E-06 0.00000E+00
 -1        66 7.41303E-05-7.93690E-06 2.64698E-23
 -1        67 7.29159E-05-7.25684E-06 0.00000E+00
 -1        68 7.15207E-05-6.09573E-06 2.64698E-23
 -1        69 6.99411E-05-4.43233E-06 0.00000E+00
 -1        70 6.81712E-05-2.26908E-06 1.32349E-23
 -1        86 7.51480E-05 7.03973E-08 0.00000E+00
 -1        87 7.44249E-05 1.40204E-07-8.27181E-25
 -1        88 7.32007E-05 2.09487E-07 0.00000E+00
 -1        89 7.14553E-05 2.75723E-07-5.16988E-26
 -1        90 6.91492E-05 3.41642E-07 0.00000E+00
 -1       121 6.94815E-05-1.58186E-07 3.30872E-24
 -1       122 6.90557E-05-3.16453E-07-1.65436E-24
 -1       123 6.83466E-05-4.74882E-07 3.30872E-24
 -1       124 6.73549E-05-6.33576E-07 1.65436E-24
 -1       125 6.60816E-05-7.92570E-07 3.30872E-24
 -1       191 5.01559E-05 5.67288E-08-3.30872E-24
 -1       192 5.01261E-05 1.13457E-07 0.00000E+00
 -1       193 5.00762E-05 1.70184E-07 0.00000E+00
 -1       194 5.00065E-05 2.26909E-07 0.00000E+00
 -1       195 4.99168E-05 2.83631E-07 3.30872E-24
 -1       251 6.52410E-05 2.11595E-06 0.00000E+00
 -1       252 6.53068E-05 3.72337E-06 0.00000E+00
 -1       253 6.53730E-05 4.41715E-06 0.00000E+00
 -1       254 6.54416E-05 4.38094E-06-8.27181E-25
 -1       255 6.55101E-05 3.77196E-06 0.00000E+00
 -1       256 6.55788E-05 2.74576E-06 0.00000E+00
 -1       257 6.56472E-05 1.44268E-06-1.65436E-24
 -1       258 6.57154E-05 2.24410E-09-8.27181E-25
 -1       259 6.57837E-05-1.44107E-06 0.00000E+00
 -1       260 6.58521E-05-2.75276E-06 0.00000E+00
 -1       261 6.59207E-05-3.79350E-06 0.00000E+00
 -1       262 6.59892E-05-4.42323E-06-8.27181E-25
 -1       263 6.60578E-05-4.48686E-06 0.00000E+00
 -1       264 6.61239E-05-3.82765E-06 1.03398E-25
 -1       265 6.61898E-05-2.26265E-06-3.30872E-24
 -1       266 6.19227E-05-6.07494E-07 0.00000E+00
 -1       267 5.86560E-05-6.14335E-07 0.00000E+00
 -1       268 5.53892E-05-6.21753E-07-8.27181E-25
 -1       269 5.21225E-05-6.27462E-07 0.00000E+00
 -1       270 4.88558E-05-6.33132E-07 0.00000E+00
 -1       271 6.32043E-05 1.84011E-06 0.00000E+00
 -1       272 6.15205E-05 3.37869E-06 0.00000E+00
 -1       273 6.01318E-05 4.13758E-06 2.64698E-23
 -1       274 5.89895E-05 4.22573E-06 0.00000E+00
 -1       275 5.80530E-05 3.76461E-06 0.00000E+00
 -1       276 5.72739E-05 2.88062E-06 0.00000E+00
 -1       277 5.66033E-05 1.70610E-06 2.64698E-23
 -1       278 5.59906E-05 3.76719E-07-1.32349E-23
 -1       279 5.53842E-05-9.69802E-07 0.00000E+00
 -1       280 5.47328E-05-2.19550E-06 0.00000E+00
 -1       281 5.39852E-05-3.16408E-06 0.00000E+00
 -1       282 5.30921E-05-3.74230E-06-1.32349E-23
 -1       283 5.20048E-05-3.80220E-06 2.64698E-23
 -1       284 5.06804E-05-3.22099E-06 0.00000E+00
 -1       285 4.90716E-05-1.88673E-06 0.00000E+00
 -1       301 6.30088E-05 3.76315E-07 0.00000E+00
 -1       302 5.97778E-05 3.68609E-07 0.00000E+00
 -1       303 5.65628E-05 3.61194E-07 3.30872E-24
 -1       304 5.33785E-05 3.52710E-07-1.65436E-24
 -1       305 5.02397E-05 3.42719E-07 0.00000E+00
 -1       306 6.41945E-05 2.76913E-06-2.64698E-23
 -1       307 6.24615E-05 4.21222E-06 0.00000E+00
 -1       308 6.10720E-05 4.74945E-06 0.00000E+00
 -1       309 6.00015E-05 4.41937E-06 1.32349E-23
 -1       310 5.92074E-05 3.35112E-06-2.64698E-23
 -1       311 5.86321E-05 1.69445E-06-1.32349E-23
 -1       312 5.81984E-05-3.41835E-07 0.00000E+00
 -1       313 5.78241E-05-2.53752E-06 0.00000E+00
 -1       314 5.74210E-05-4.65617E-06 0.00000E+00
 -1       315 5.69020E-05-6.46377E-06 1.32349E-23
 -1       316 5.61912E-05-7.75775E-06 0.00000E+00
 -1       317 5.52195E-05-8.35111E-06 0.00000E+00
 -1       318 5.39411E-05-8.12689E-06 0.00000E+00
 -1       319 5.23273E-05-6.99086E-06 0.00000E+00
 -1       320 5.03675E-05-4.94441E-06 0.00000E+00
 -1       336 6.26595E-05-1.12485E-06-6.61744E-24
 -1       337 6.04393E-05-1.29842E-06 3.30872E-24
 -1       338 5.78707E-05-1.47275E-06-3.30872E-24
 -1       339 5.49571E-05-1.64774E-06 1.65436E-24
 -1       340 5.17024E-05-1.82376E-06-3.30872E-24
 -1       406 4.96775E-05 3.97055E-07 0.00000E+00
 -1       407 4.95280E-05 4.53741E-07 0.00000E+00
 -1       408 4.93586E-05 5.10391E-07 0.00000E+00
 -1       409 4.91692E-05 5.66933E-07-1.65436E-24
 -1       410 4.89600E-05 6.23258E-07-1.65436E-24
 -1       521 4.43444E-05 2.00758E-06-5.29396E-23
 -1       522 4.19363E-05 2.43130E-06 0.00000E+00
 -1       523 3.99842E-05 1.65215E-06 0.00000E+00
 -1       524 3.84312E-05-2.25905E-07 0.00000E+00
 -1       525 3.71872E-05-2.93256E-06 5.29396E-23
 -1       526 3.61339E-05-6.15695E-06 2.64698E-23
 -1       527 3.51292E-05-9.51246E-06 0.00000E+00
 -1       528 3.40267E-05-1.26062E-05 2.64698E-23
 -1       529 3.26940E-05-1.50827E-05 0.00000E+00
 -1       530 3.10107E-05-1.66199E-05 0.00000E+00
 -1       531 2.89058E-05-1.70315E-05 5.29396E-23
 -1       532 2.63323E-05-1.61911E-05 0.00000E+00
 -1       533 2.33074E-05-1.41536E-05-5.29396E-23
 -1       534 1.98850E-05-1.10338E-05-2.64698E-23
 -1       535 1.61533E-05-7.11057E-06 0.00000E+00
 -1       536 4.80982E-05 1.34790E-06 1.65436E-24
 -1       537 4.80926E-05 3.87608E-06 0.00000E+00
 -1       538 4.80882E-05 5.66658E-06 0.00000E+00
 -1       539 4.80858E-05 6.80050E-06 1.03398E-25
 -1       540 4.80838E-05 7.36136E-06 2.06795E-25
 -1       541 4.80821E-05 7.43271E-06 0.00000E+00
 -1       542 4.80805E-05 7.09982E-06 1.03398E-25
 -1       543 4.80787E-05 6.44798E-06 2.58494E-26
 -1       544 4.80767E-05 5.56359E-06-5.16988E-26
 -1       545 4.80747E-05 4.53303E-06 2.58494E-26
 -1       546 4.80726E-05 3.44322E-06 2.58494E-26
 -1       547 4.80705E-05 2.38107E-06 0.00000E+00
 -1       548 4.80686E-05 1.43338E-06 0.00000E+00
 -1       549 4.80670E-05 6.86953E-07 0.00000E+00
 -1       550 4.80655E-05 2.27944E-07 2.06795E-25
 -1       551 4.33606E-05-2.10236E-06 0.00000E+00
 -1       552 3.76784E-05-2.20870E-06 8.27181E-25
 -1       553 3.13955E-05-2.31857E-06 1.65436E-24
 -1       554 2.48477E-05-2.43166E-06-3.30872E-24
 -1       555 1.83707E-05-2.54613E-06 0.00000E+00
 -1       556 4.68666E-05 1.22961E-06 0.00000E+00
 -1       557 4.59158E-05 3.69648E-06 6.61744E-24
 -1       558 4.52266E-05 5.47195E-06 0.00000E+00
 -1       559 4.47700E-05 6.63188E-06 0.00000E+00
 -1       560 4.45166E-05 7.25191E-06 0.00000E+00
 -1       561 4.44375E-05 7.40812E-06 0.00000E+00
 -1       562 4.45039E-05 7.17660E-06 0.00000E+00
 -1       563 4.46871E-05 6.63353E-06 0.00000E+00
 -1       564 4.49584E-05 5.85514E-06 0.00000E+00
 -1       565 4.52893E-05 4.91766E-06 0.00000E+00
 -1       566 4.56511E-05 3.89734E-06 8.27181E-25
 -1       567 4.60155E-05 2.87047E-06-2.06795E-25
 -1       568 4.63537E-05 1.91330E-06 0.00000E+00
 -1       569 4.66374E-05 1.10199E-06 0.00000E+00
 -1       570 4.68380E-05 5.12751E-07 0.00000E+00
 -1       571 4.81055E-05 2.03565E-07 6.20385E-25
 -1       572 4.81468E-05 2.36776E-07 3.10193E-25
 -1       573 4.81883E-05 2.47030E-07-8.27181E-25
 -1       574 4.82300E-05 2.39535E-07 8.27181E-25
 -1       575 4.82718E-05 2.19521E-07 0.00000E+00
 -1       576 4.83135E-05 1.92253E-07-4.13590E-25
 -1       577 4.83553E-05 1.62998E-07 1.65436E-24
 -1       578 4.83971E-05 1.37030E-07-8.27181E-25
 -1       579 4.84389E-05 1.19618E-07-1.65436E-24
 -1       580 4.84806E-05 1.16037E-07-8.27181E-25
 -1       581 4.85224E-05 1.31557E-07 0.00000E+00
 -1       582 4.85642E-05 1.71445E-07 0.00000E+00
 -1       583 4.86059E-05 2.40962E-07 0.00000E+00
 -1       584 4.86477E-05 3.45316E-07 3.30872E-24
 -1       585 4.86894E-05 4.89684E-07 0.00000E+00
 -1       586 4.78611E-05 1.56208E-07 0.00000E+00
 -1       587 4.76398E-05 1.69612E-07-2.06795E-25
 -1       588 4.74184E-05 1.82865E-07 0.00000E+00
 -1       589 4.72144E-05 1.95906E-07 0.00000E+00
 -1       590 4.70451E-05 2.08590E-07 0.00000E+00
 -1       591 4.80229E-05 2.24596E-07-5.16988E-26
 -1       592 4.79877E-05 2.83775E-07-2.06795E-25
 -1       593 4.79594E-05 3.24326E-07 0.00000E+00
 -1       594 4.79364E-05 3.50163E-07 0.00000E+00
 -1       595 4.79174E-05 3.65249E-07 4.13590E-25
 -1       596 4.79009E-05 3.73520E-07 2.06795E-25
 -1       597 4.78855E-05 3.78910E-07 4.13590E-25
 -1       598 4.78697E-05 3.85350E-07 0.00000E+00
 -1       599 4.78521E-05 3.96769E-07 0.00000E+00
 -1       600 4.78311E-05 4.17097E-07-1.03398E-25
 -1       601 4.78053E-05 4.50265E-07 0.00000E+00
 -1       602 4.77732E-05 5.00207E-07-5.16988E-26
 -1       603 4.77334E-05 5.70857E-07-1.55096E-25
 -1       604 4.76846E-05 6.66181E-07-5.16988E-26
 -1       605 4.76252E-05 7.90093E-07-4.13590E-25
 -1       606 4.87387E-05 9.62342E-07 1.65436E-24
 -1       607 4.87449E-05 1.30465E-06 0.00000E+00
 -1       608 4.87507E-05 1.70232E-06 0.00000E+00
 -1       609 4.87563E-05 2.15146E-06 0.00000E+00
 -1       610 4.87618E-05 2.64816E-06 0.00000E+00
 -1       611 4.87672E-05 3.18846E-06 8.27181E-25
 -1       612 4.87727E-05 3.76837E-06 1.65436E-24
 -1       613 4.87781E-05 4.38394E-06-8.27181E-25
 -1       614 4.87834E-05 5.03118E-06 0.00000E+00
 -1       615 4.87888E-05 5.70611E-06 0.00000E+00
 -1       616 4.87941E-05 6.40478E-06-8.27181E-25
 -1       617 4.87995E-05 7.12320E-06 0.00000E+00
 -1       618 4.88048E-05 7.85738E-06 0.00000E+00
 -1       619 4.88100E-05 8.60338E-06 0.00000E+00
 -1       620 4.88153E-05 9.35720E-06 0.00000E+00
 -1       621 4.85056E-05 7.23564E-07 8.27181E-25
 -1       622 4.82965E-05 7.68497E-07 0.00000E+00
 -1       623 4.81004E-05 8.13424E-07 0.00000E+00
 -1       624 4.79138E-05 8.58280E-07 4.13590E-25
 -1       625 4.77333E-05 9.03058E-07-8.27181E-25
 -1       626 4.86724E-05 9.76365E-07-3.30872E-24
 -1       627 4.85959E-05 1.32254E-06 0.00000E+00
 -1       628 4.85030E-05 1.71286E-06-3.30872E-24
 -1       629 4.83953E-05 2.14251E-06 0.00000E+00
 -1       630 4.82746E-05 2.60666E-06 0.00000E+00
 -1       631 4.81429E-05 3.10045E-06 8.27181E-25
 -1       632 4.80018E-05 3.61901E-06 1.65436E-24
 -1       633 4.78533E-05 4.15750E-06-8.27181E-25
 -1       634 4.76991E-05 4.71105E-06-1.65436E-24
 -1       635 4.75411E-05 5.27480E-06-8.27181E-25
 -1       636 4.73810E-05 5.84388E-06-1.65436E-24
 -1       637 4.72208E-05 6.41345E-06 0.00000E+00
 -1       638 4.70622E-05 6.97863E-06 1.65436E-24
 -1       639 4.69069E-05 7.53457E-06-4.13590E-25
 -1       640 4.67567E-05 8.07639E-06-8.27181E-25
 -1       656 4.81905E-05 9.86829E-06-3.30872E-24
 -1       657 4.77825E-05 9.61182E-06-3.30872E-24
 -1       658 4.75105E-05 9.35615E-06 6.61744E-24
 -1       659 4.72871E-05 9.10069E-06 0.00000E+00
 -1       660 4.70189E-05 8.84441E-06 3.30872E-24
 -1       661 4.85873E-05 1.08574E-05 8.27181E-25
 -1       662 4.83680E-05 1.15683E-05 0.00000E+00
 -1       663 4.81603E-05 1.22484E-05-8.27181E-25
 -1       664 4.79639E-05 1.28990E-05 8.27181E-25
 -1       665 4.77782E-05 1.35214E-05 0.00000E+00
 -1       666 4.76027E-05 1.41167E-05 0.00000E+00
 -1       667 4.74368E-05 1.46863E-05-1.65436E-24
 -1       668 4.72803E-05 1.52311E-05 8.27181E-25
 -1       669 4.71326E-05 1.57524E-05-1.65436E-24
 -1       670 4.69933E-05 1.62513E-05 0.00000E+00
 -1       671 4.68620E-05 1.67287E-05 0.00000E+00
 -1       672 4.67384E-05 1.71857E-05-4.13590E-25
 -1       673 4.66220E-05 1.76232E-05 8.27181E-25
 -1       674 4.65121E-05 1.80422E-05 4.13590E-25
 -1       675 4.64089E-05 1.84436E-05 4.13590E-25
 -1       676 4.81205E-05 1.90697E-05 0.00000E+00
 -1       677 4.77576E-05 1.90209E-05 0.00000E+00
 -1       678 4.73950E-05 1.89722E-05-1.65436E-24
 -1       679 4.70326E-05 1.89236E-05 0.00000E+00
 -1       680 4.66706E-05 1.88750E-05 0.00000E+00
 -1       771 9.85628E-06 1.94468E-06 0.00000E+00
 -1       772 7.72884E-06 5.72061E-06-1.32349E-23
 -1       773 5.90206E-06 8.70185E-06 0.00000E+00
 -1       774 4.35543E-06 1.09405E-05 1.32349E-23
 -1       775 3.06892E-06 1.24894E-05 2.64698E-23
 -1       776 2.02173E-06 1.34026E-05 1.32349E-23
 -1       777 1.19292E-06 1.37350E-05 0.00000E+00
 -1       778 5.61179E-07 1.35423E-05 0.00000E+00
 -1       779 1.05121E-07 1.28811E-05-2.64698E-23
 -1       780-1.96934E-07 1.18084E-05 0.00000E+00
 -1       781-3.66708E-07 1.03821E-05 0.00000E+00
 -1       782-4.26132E-07 8.66052E-06 0.00000E+00
 -1       783-3.97165E-07 6.70225E-06-2.64698E-23
 -1       784-3.01862E-07 4.56645E-06 0.00000E+00
 -1       785-1.62355E-07 2.31244E-06 0.00000E+00
 -1       786 4.69645E-05 2.19473E-07-4.13590E-25
 -1       787 4.70036E-05 2.19910E-07-4.13590E-25
 -1       788 4.70426E-05 2.21962E-07-8.27181E-25
 -1       789 4.70820E-05 2.26197E-07 4.13590E-25
 -1       790 4.71215E-05 2.33377E-07 0.00000E+00
 -1       791 4.71610E-05 2.44271E-07 0.00000E+00
 -1       792 4.72005E-05 2.59981E-07 1.65436E-24
 -1       793 4.72400E-05 2.81615E-07 8.27181E-25
 -1       794 4.72795E-05 3.10816E-07-1.65436E-24
 -1       795 4.73191E-05 3.49240E-07 0.00000E+00
 -1       796 4.73586E-05 3.99369E-07-1.65436E-24
 -1       797 4.73981E-05 4.63709E-07 0.00000E+00
 -1       798 4.74376E-05 5.46038E-07 0.00000E+00
 -1       799 4.74770E-05 6.50167E-07 0.00000E+00
 -1       800 4.75164E-05 7.81868E-07 0.00000E+00
 -1       801 4.37577E-05 2.21759E-07 0.00000E+00
 -1       802 3.43268E-05 1.85594E-07 4.13590E-25
 -1       803 2.19369E-05 1.19891E-07 0.00000E+00
 -1       804 9.88873E-06 5.37171E-08-1.65436E-24
 -1       805 1.47700E-06 2.27032E-08-6.61744E-24
 -1       806 4.68797E-05 1.92872E-07 0.00000E+00
 -1       807 4.68299E-05 1.65596E-07-8.27181E-25
 -1       808 4.67786E-05 1.41327E-07 0.00000E+00
 -1       809 4.67250E-05 1.22671E-07-8.27181E-25
 -1       810 4.66683E-05 1.12229E-07 0.00000E+00
 -1       811 4.66075E-05 1.12565E-07 8.27181E-25
 -1       812 4.65417E-05 1.26240E-07 0.00000E+00
 -1       813 4.64699E-05 1.55809E-07 0.00000E+00
 -1       814 4.63911E-05 2.03825E-07 8.27181E-25
 -1       815 4.63045E-05 2.72842E-07 4.13590E-25
 -1       816 4.62091E-05 3.65409E-07-8.27181E-25
 -1       817 4.61039E-05 4.84078E-07-8.27181E-25
 -1       818 4.59880E-05 6.31397E-07-1.65436E-24
 -1       819 4.58604E-05 8.09907E-07 4.13590E-25
 -1       820 4.57204E-05 1.02215E-06-8.27181E-25
 -1       821 4.74997E-05 1.14462E-06-4.13590E-25
 -1       822 4.74408E-05 1.37425E-06 4.13590E-25
 -1       823 4.73820E-05 1.64626E-06 0.00000E+00
 -1       824 4.73226E-05 1.97097E-06 0.00000E+00
 -1       825 4.72632E-05 2.35208E-06 0.00000E+00
 -1       826 4.72036E-05 2.79311E-06 0.00000E+00
 -1       827 4.71440E-05 3.29006E-06-1.65436E-24
 -1       828 4.70843E-05 3.83878E-06-8.27181E-25
 -1       829 4.70246E-05 4.42859E-06 0.00000E+00
 -1       830 4.69649E-05 5.04871E-06-8.27181E-25
 -1       831 4.69052E-05 5.68456E-06 1.65436E-24
 -1       832 4.68456E-05 6.32148E-06 8.27181E-25
 -1       833 4.67861E-05 6.94469E-06 1.65436E-24
 -1       834 4.67273E-05 7.53948E-06 0.00000E+00
 -1       835 4.66682E-05 8.09466E-06 4.13590E-25
 -1       836 4.73143E-05 1.00083E-06 0.00000E+00
 -1       837 4.70021E-05 1.05590E-06 0.00000E+00
 -1       838 4.66449E-05 1.11087E-06 0.00000E+00
 -1       839 4.62692E-05 1.16548E-06 4.13590E-25
 -1       840 4.59013E-05 1.22002E-06 0.00000E+00
 -1       856 4.65958E-05 9.11300E-06 0.00000E+00
 -1       857 4.65771E-05 9.69170E-06 0.00000E+00
 -1       858 4.65584E-05 1.03250E-05 0.00000E+00
 -1       859 4.65393E-05 1.10027E-05 2.06795E-25
 -1       860 4.65202E-05 1.17144E-05 0.00000E+00
 -1       861 4.65010E-05 1.24498E-05 0.00000E+00
 -1       862 4.64818E-05 1.31985E-05 0.00000E+00
 -1       863 4.64626E-05 1.39501E-05-2.06795E-25
 -1       864 4.64434E-05 1.46943E-05-4.13590E-25
 -1       865 4.64242E-05 1.54208E-05 0.00000E+00
 -1       866 4.64050E-05 1.61190E-05 4.13590E-25
 -1       867 4.63858E-05 1.67788E-05 0.00000E+00
 -1       868 4.63667E-05 1.73898E-05-8.27181E-25
 -1       869 4.63475E-05 1.79417E-05 0.00000E+00
 -1       870 4.63284E-05 1.84243E-05 0.00000E+00
 -1       871 4.62208E-05 8.59866E-06-4.13590E-25
 -1       872 4.58912E-05 8.59686E-06 0.00000E+00
 -1       873 4.55971E-05 8.59482E-06 2.06795E-25
 -1       874 4.53113E-05 8.59246E-06-5.16988E-26
 -1       875 4.50068E-05 8.58982E-06-2.06795E-25
 -1       876 4.64767E-05 9.11835E-06 0.00000E+00
 -1       877 4.63301E-05 9.66910E-06-8.27181E-25
 -1       878 4.61733E-05 1.02476E-05 0.00000E+00
 -1       879 4.60075E-05 1.08503E-05 8.27181E-25
 -1       880 4.58340E-05 1.14736E-05 1.65436E-24
 -1       881 4.56541E-05 1.21140E-05 0.00000E+00
 -1       882 4.54691E-05 1.27679E-05-1.65436E-24
 -1       883 4.52804E-05 1.34318E-05 0.00000E+00
 -1       884 4.50893E-05 1.41021E-05 0.00000E+00
 -1       885 4.48971E-05 1.47752E-05 0.00000E+00
 -1       886 4.47052E-05 1.54477E-05 0.00000E+00
 -1       887 4.45148E-05 1.61159E-05 0.00000E+00
 -1       888 4.43272E-05 1.67763E-05-1.65436E-24
 -1       889 4.41436E-05 1.74252E-05-4.13590E-25
 -1       890 4.39653E-05 1.80592E-05 0.00000E+00
 -1       891 4.59602E-05 1.88017E-05 0.00000E+00
 -1       892 4.56001E-05 1.87760E-05 0.00000E+00
 -1       893 4.52159E-05 1.87502E-05 4.13590E-25
 -1       894 4.47949E-05 1.87245E-05-2.06795E-25
 -1       895 4.43242E-05 1.86988E-05-3.10193E-25
 -1       956 4.55117E-05 1.59300E-06 0.00000E+00
 -1       957 4.54549E-05 1.95210E-06-8.27181E-25
 -1       958 4.53979E-05 2.34408E-06-1.65436E-24
 -1       959 4.53409E-05 2.76490E-06-8.27181E-25
 -1       960 4.52837E-05 3.21053E-06 0.00000E+00
 -1       961 4.52266E-05 3.67689E-06-8.27181E-25
 -1       962 4.51694E-05 4.15992E-06 0.00000E+00
 -1       963 4.51123E-05 4.65554E-06-8.27181E-25
 -1       964 4.50551E-05 5.15969E-06-1.65436E-24
 -1       965 4.49979E-05 5.66828E-06 8.27181E-25
 -1       966 4.49408E-05 6.17726E-06 1.65436E-24
 -1       967 4.48836E-05 6.68254E-06 8.27181E-25
 -1       968 4.48265E-05 7.18005E-06-1.65436E-24
 -1       969 4.47695E-05 7.66574E-06 8.27181E-25
 -1       970 4.47126E-05 8.13554E-06-1.65436E-24
 -1       971 4.46032E-05 9.04765E-06 8.27181E-25
 -1       972 4.45491E-05 9.55788E-06-8.27181E-25
 -1       973 4.44948E-05 1.01109E-05 0.00000E+00
 -1       974 4.44405E-05 1.07012E-05 0.00000E+00
 -1       975 4.43861E-05 1.13232E-05 0.00000E+00
 -1       976 4.43317E-05 1.19713E-05 0.00000E+00
 -1       977 4.42773E-05 1.26402E-05 0.00000E+00
 -1       978 4.42228E-05 1.33241E-05 0.00000E+00
 -1       979 4.41684E-05 1.40176E-05 0.00000E+00
 -1       980 4.41140E-05 1.47151E-05 8.27181E-25
 -1       981 4.40595E-05 1.54111E-05-1.65436E-24
 -1       982 4.40052E-05 1.61000E-05 0.00000E+00
 -1       983 4.39509E-05 1.67762E-05 1.65436E-24
 -1       984 4.38968E-05 1.74343E-05-1.65436E-24
 -1       985 4.38430E-05 1.80686E-05 0.00000E+00
 -3
    1PSTEP                         4           2           1          
  100CL  102 3.12500E-01         409                     0    2           1
 -4  STRESS      6    1
 -5  SXX         1    4    1    1
 -5  SYY         1    4    2    2
 -5  SZZ         1    4    3    3
 -5  SXY         1    4    1    2
 -5  SYZ         1    4    2    3
 -5  SZX         1    4    3    1
 -1         1-1.07897E+06-4.96986E+05-2.19384E+05-6.97921E+05-2.18279E-11-2.96131E-09
 -1         2 1.81008E+03 2.03808E+05 5.90845E+03 4.17787E+02-1.05643E-10 1.07764E-09
 -1         3-3.09613E+01-4.52108E+05 1.04480E+02-1.03278E+02-4.51816E-11 5.56429E-09
 -1         5-3.24245E+00 1.62312E+05 4.21556E+00-2.32319E-02 5.78002E-11 1.97228E-08
 -1         8-5.08073E+05-2.21439E+05-1.71900E+04-3.85568E+05 1.03682E-10 3.98722E-09
 -1         9-8.72166E+05-2.25750E+05-8.63326E+04-3.01499E+05 2.20316E-09-4.27535E-09
 -1        10-3.43452E+02-4.71003E+05-6.01894E+02-6.89874E+02-2.26578E-09-1.85561E-08
 -1        12-1.51251E+00 1.62320E+05 1.36676E+02 1.11902E-01 1.52429E-10 3.08137E-09
 -1        15 1.34462E+03 7.38939E+02 4.34646E+03 1.89947E+00-2.09265E-09-6.73051E-07
 -1        16-2.45641E+06-7.89968E+05-3.81901E+05-8.02968E+05 7.03343E-09-3.53126E-09
 -1        17-5.41586E+05-3.34174E+05-1.04201E+05-3.15201E+05-3.42116E-09 1.62836E-09
 -1        18 1.95432E+04 1.78162E+03-7.61805E+03-3.82863E+04 4.82942E-10-6.52108E-10
 -1        19 5.11561E+04 6.07772E+04-2.79720E+02 9.96972E+03-4.29372E-10-2.94676E-10
 -1        20-2.12470E+04-2.40830E+05-5.31113E+04 1.78385E+04 3.20127E-09 3.18020E-10
 -1        21-2.27694E+01-1.39534E+05-4.50614E+02-3.47405E+01-7.44462E-09-4.74837E-09
 -1        24-2.15778E+06-7.49256E+05-3.07979E+05-9.13418E+05-9.97049E-09-5.99054E-09
 -1        25 1.91476E+04-3.21166E+03 1.12658E+04-6.90516E+04 2.48792E-10 2.77560E-09
 -1        26-1.15699E+04 4.16487E+04-8.18459E+03-5.96990E+03 1.01336E-09-1.36060E-10
 -1        27-3.85283E+04-1.32140E+05-4.95547E+04 2.97606E+04 3.60311E-09-2.42653E-09
 -1        28 1.07835E+04-3.85550E+04 7.87768E+03 1.23499E+04 2.12094E-09-2.63406E-09
 -1        32-5.15037E+05-7.72092E+04 2.21967E+05-3.46846E+05-1.02009E-08 9.23032E-09
 -1        33-7.54921E+04 3.89232E+04 1.37854E+04-2.26215E+04 7.60470E-10 1.66377E-09
 -1        34-9.80672E+04-9.78146E+03 2.32363E+02 3.01849E+04 2.19965E-09-3.76455E-10
 -1        35-1.09719E+04-1.53325E+04-5.98280E+02 2.43021E+04 2.55225E-09 2.26828E-09
 -1        51 9.89729E+03-2.54348E+05 2.43955E+04-6.29743E+05-1.01863E-10 4.07454E-10
 -1        52 5.22746E+03-2.52400E+05 1.61617E+04-7.34481E+05 2.47383E-10-6.33008E-10
 -1        53 3.43636E+03-2.59025E+05 1.41182E+04-6.27597E+05 1.56433E-10-1.78989E-09
 -1        54 1.07531E+04-2.56923E+05 2.28851E+04-7.36756E+05-1.45519E-10-4.87125E-09
 -1        55 2.35490E+04-2.65326E+05 4.11779E+04-6.27311E+05 3.85626E-10-1.54614E-09
 -1        56-2.07233E+06-2.34241E+05-1.61931E+05-7.99191E+05-1.07320E-09-1.76078E-09
 -1        57-2.13739E+06-3.80666E+05-1.09140E+05-7.92942E+05 1.03682E-09 8.60746E-09
 -1        58-2.10473E+06-2.85646E+05-3.81187E+04-7.89195E+05-8.73570E-10-3.39787E-09
 -1        59-2.09990E+06-3.20409E+05-2.27559E+04-8.04957E+05 5.45697E-10-2.26305E-09
 -1        60-2.10951E+06-2.92768E+05-8.90861E+03-7.87794E+05-1.73486E-10-7.15590E-09
 -1        61-2.09485E+06-3.11590E+05-5.06598E+03-8.06026E+05 1.22674E-09-6.79051E-09
 -1        62-2.10972E+06-2.94249E+05-2.44236E+03-7.88191E+05 6.14364E-10-7.73213E-10
 -1        63-2.09563E+06-3.09012E+05-2.00816E+03-8.04376E+05 6.90079E-11 1.60924E-09
 -1        64-2.10868E+06-2.95346E+05-2.31024E+03-7.89424E+05-4.49973E-10-6.81666E-10
 -1        65-2.09877E+06-3.07308E+05-4.62111E+03-8.01180E+05 2.18051E-10 2.58467E-09
 -1        66-2.10654E+06-2.96007E+05-8.13690E+03-7.91345E+05-3.11616E-10-1.14596E-09
 -1        67-2.10695E+06-3.11643E+05-2.06443E+04-7.95964E+05 2.08047E-11-6.50971E-09
 -1        68-2.10052E+06-2.91237E+05-3.46583E+04-7.94547E+05 7.31688E-10 2.83035E-09
 -1        69-2.14394E+06-3.63444E+05-9.90970E+04-7.81746E+05 5.08408E-10 5.03314E-09
 -1        70-2.06985E+06-2.45769E+05-1.47107E+05-8.05006E+05-5.92991E-10 3.42698E-09
 -1        86-9.07661E+02 2.01998E+05 6.33212E+03-2.08906E+02 7.95126E-10 2.81076E-09
 -1        87 6.02455E+03 2.05866E+05 1.32083E+04 8.58280E+02 1.34810E-09 6.10063E-09
 -1        88-5.11014E+03 1.99941E+05 2.02242E+04-6.49401E+02 2.00998E-09 8.80675E-10
 -1        89 3.80833E+04 2.20808E+05 5.45382E+04 1.84449E+03 3.02953E-09 2.97115E-09
 -1        90-3.28624E+04 1.87065E+05 7.70415E+04-1.19485E+03 3.48518E-09 3.57880E-09
 -1       121-5.42489E+01-4.52279E+05 9.90182E+01 5.16003E+01 2.51408E-10 6.79029E-09
 -1       122 3.39344E+00-4.52085E+05 2.28208E+02-2.06680E+02-8.61192E-10 7.89441E-10
 -1       123-7.91782E+01-4.52304E+05 3.69478E+02 1.54851E+02 6.41478E-10 2.07365E-10
 -1       124 4.24269E+02-4.51826E+05 9.57368E+02-4.92423E+02-1.62663E-09 2.24463E-09
 -1       125-3.52761E+02-4.52542E+05 1.46825E+03 3.37331E+02 1.08935E-09-3.31056E-09
 -1       191-3.54373E+00 1.62325E+05 5.02907E+00 1.13245E-02 1.05912E-10 1.33909E-08
 -1       192-3.62964E+00 1.62312E+05 8.92657E+00 2.78991E-01 1.74644E-10-5.18867E-09
 -1       193-4.57341E+00 1.62325E+05 1.65919E+01-2.92316E-01 1.80998E-10-5.04951E-09
 -1       194-4.87580E+00 1.62313E+05 3.37675E+01 7.84026E-01 8.09934E-11-9.64064E-10
 -1       195-6.55259E+00 1.62324E+05 6.60430E+01-4.97090E-01 2.51738E-10-2.18006E-09
 -1       251 1.83043E+05-3.18933E+04 7.45141E+04 2.93220E+03-2.85354E-11-3.10320E-09
 -1       252 2.16725E+05 3.69077E+04 5.28226E+04-9.77133E+03 5.51921E-10-5.66160E-09
 -1       253 1.95824E+05-4.93880E+03 1.92874E+04 2.08709E+03-3.43050E-10 9.99535E-10
 -1       254 2.01692E+05 5.70770E+03 1.21812E+04-8.43487E+03 8.83631E-11 3.14412E-09
 -1       255 1.98024E+05-7.63145E+02 4.98358E+03 1.59589E+03-6.37215E-11 4.12479E-09
 -1       256 1.99067E+05 9.05243E+02 3.02780E+03-7.70873E+03 3.34140E-10-2.27743E-09
 -1       257 1.98425E+05-1.33594E+02 1.55921E+03 1.36095E+03 3.62377E-12 1.54898E-09
 -1       258 1.98659E+05 2.82002E+02 1.38216E+03-7.47127E+03-2.13852E-10-1.19087E-09
 -1       259 1.98424E+05-1.36264E+02 1.58445E+03 1.35843E+03-3.31582E-10-2.47985E-09
 -1       260 1.99076E+05 9.28667E+02 3.09952E+03-7.69924E+03-1.55353E-10-7.78817E-09
 -1       261 1.98015E+05-7.83616E+02 5.11476E+03 1.58891E+03 1.10990E-09-1.74532E-09
 -1       262 2.01761E+05 5.86216E+03 1.25047E+04-8.41431E+03 1.08940E-10 5.48107E-09
 -1       263 1.95762E+05-5.07182E+03 1.98096E+04 2.07351E+03 1.44951E-11 4.43015E-09
 -1       264 2.17178E+05 3.79038E+04 5.42404E+04-9.73822E+03-1.83002E-09 1.20053E-10
 -1       265 1.82651E+05-3.27516E+04 7.65322E+04 2.91265E+03-9.08813E-10 3.63798E-12
 -1       266-2.43420E+04-1.13823E+04 5.71132E+04-4.06428E+01-3.22325E-09-1.04896E-06
 -1       267 2.82192E+04 1.32663E+04 4.03668E+04 4.68936E+01-6.45741E-09-2.07370E-06
 -1       268-3.78414E+03-1.87888E+03 1.50042E+04-5.97506E+00-5.18867E-09-1.66666E-06
 -1       269 4.46796E+03 2.24862E+03 9.75246E+03 6.96005E+00-3.87217E-09-1.25310E-06
 -1       270-6.70646E+02-3.69466E+02 4.70765E+03-9.44525E-01-2.91300E-09-9.26068E-07
 -1       271-2.39229E+06-2.97899E+05-1.84093E+05-9.31227E+05-7.73070E-10-3.79805E-09
 -1       272-2.44328E+06-4.47281E+05-1.18359E+05-9.46931E+05-1.53329E-09-7.14681E-09
 -1       273-2.42727E+06-3.43390E+05-4.34841E+04-9.22653E+05 2.68756E-10-3.32875E-09
 -1       274-2.40245E+06-3.91499E+05-2.43461E+04-9.60129E+05-2.63981E-10-5.38057E-09
 -1       275-2.43266E+06-3.47514E+05-1.01149E+04-9.20556E+05 9.54969E-10 5.89216E-09
 -1       276-2.39609E+06-3.86658E+05-5.37829E+03-9.63515E+05-3.27418E-10 7.24242E-09
 -1       277-2.43388E+06-3.47412E+05-2.63047E+03-9.19733E+05-9.77707E-12 2.15084E-09
 -1       278-2.39493E+06-3.86643E+05-1.91346E+03-9.64500E+05 8.60609E-11 1.47713E-09
 -1       279-2.43395E+06-3.47392E+05-2.05297E+03-9.19685E+05-1.16188E-10 2.07797E-09
 -1       280-2.39573E+06-3.86534E+05-3.76161E+03-9.63743E+05-6.26642E-10-2.57887E-09
 -1       281-2.43298E+06-3.47622E+05-6.88128E+03-9.20401E+05-1.68257E-10-3.88354E-10
 -1       282-2.40043E+06-3.89304E+05-1.64291E+04-9.60834E+05-8.71296E-10-3.63798E-12
 -1       283-2.42899E+06-3.45234E+05-2.93330E+04-9.22214E+05 1.06138E-09-4.69299E-10
 -1       284-2.42871E+06-4.25985E+05-7.97347E+04-9.50804E+05-6.68479E-10-7.15227E-09
 -1       285-2.40486E+06-3.15199E+05-1.24112E+05-9.28621E+05 2.71029E-10-1.30967E-09
 -1       301 9.18157E+03-5.60919E+03 7.16385E+04-1.76318E+04-5.02041E-10 2.25577E-09
 -1       302 9.86555E+03 1.25706E+04 5.17634E+04-2.59455E+04 1.24510E-09 6.97474E-09
 -1       303 4.32859E+02 8.20347E+02 4.77002E+04-1.76691E+04-6.93944E-10 1.99316E-09
 -1       304 1.86413E+04 2.06657E+04 8.02928E+04-2.58742E+04 4.18368E-10-3.71074E-09
 -1       305 1.84752E+04-1.36572E+04 1.34773E+05-1.76556E+04-7.78527E-10 3.33466E-09
 -1       306-2.57447E+06-2.96248E+05-1.96286E+05-1.00430E+06 9.78616E-10-5.96629E-09
 -1       307-2.67207E+06-4.65722E+05-1.33838E+05-9.74375E+05 2.17733E-09-2.95404E-09
 -1       308-2.61909E+06-3.57195E+05-4.61839E+04-9.85837E+05 1.00044E-11 3.15958E-09
 -1       309-2.61693E+06-3.98317E+05-2.79767E+04-1.00015E+06-1.24027E-09 3.21415E-09
 -1       310-2.62939E+06-3.62453E+05-1.08389E+04-9.78955E+05 4.36984E-10 2.70438E-09
 -1       311-2.60363E+06-3.93740E+05-6.28322E+03-1.01007E+06 3.22848E-09 4.15889E-09
 -1       312-2.63245E+06-3.61527E+05-3.07203E+03-9.76052E+05 4.13991E-10-2.46018E-09
 -1       313-2.60105E+06-3.94171E+05-2.76980E+03-1.01246E+06-1.91325E-09-9.93396E-10
 -1       314-2.63200E+06-3.61974E+05-3.33070E+03-9.76602E+05-1.25647E-09-4.91559E-09
 -1       315-2.60543E+06-3.92248E+05-7.01903E+03-1.00797E+06-1.20514E-09 1.26784E-09
 -1       316-2.62800E+06-3.63527E+05-1.22460E+04-9.80474E+05 1.92962E-09 1.46974E-09
 -1       317-2.62097E+06-3.97032E+05-3.16525E+04-9.96308E+05-9.96181E-10-4.36557E-09
 -1       318-2.61640E+06-3.57457E+05-5.22707E+04-9.88123E+05-3.32602E-09 2.79761E-09
 -1       319-2.68277E+06-4.74132E+05-1.51538E+05-9.68117E+05-2.34968E-09-7.85803E-10
 -1       320-2.56650E+06-2.87748E+05-2.22162E+05-1.00821E+06 4.35466E-09-4.58385E-09
 -1       336 3.54560E+02-4.89621E+05-2.60525E+03 3.52100E+02-4.38013E-09-5.52518E-09
 -1       337-9.38912E+02-4.90343E+05-2.85404E+03-9.49629E+02-7.99787E-09 3.75621E-09
 -1       338 2.33414E+02-4.89698E+05-3.59242E+03 5.96009E+02-5.67820E-09 3.43880E-09
 -1       339-3.71438E+03-4.92044E+05-7.86639E+03-1.43307E+03-1.03405E-08 2.94040E-09
 -1       340 2.52787E+03-4.87940E+05-1.21197E+04 8.32766E+02-6.80211E-09 4.87216E-09
 -1       406 8.91576E+00 1.62318E+05 2.69828E+02 3.77255E-01 4.46818E-10 4.04725E-10
 -1       407 9.25719E+01 1.62368E+05 5.73519E+02-6.75524E+00 9.25553E-11 3.48791E-09
 -1       408 2.93695E+02 1.62277E+05 1.14544E+03 6.45279E+00 4.06317E-10 1.37334E-10
 -1       409 1.23716E+03 1.62734E+05 2.57882E+03-5.89929E+01 1.50067E-11 6.59611E-10
 -1       410 3.55728E+03 1.61951E+05 5.26460E+03 5.39537E+01 4.21096E-10-9.29731E-10
 -1       521-4.86026E+06-5.61456E+05-3.63967E+05-1.89077E+06 3.49974E-09-6.33008E-09
 -1       522-5.03630E+06-8.74646E+05-2.47318E+05-1.84080E+06-6.33008E-10-5.01677E-09
 -1       523-4.94494E+06-6.70377E+05-8.55752E+04-1.85419E+06 1.90357E-09-1.98997E-09
 -1       524-4.93185E+06-7.54080E+05-5.15781E+04-1.89149E+06 2.30034E-09 9.63155E-10
 -1       525-4.96411E+06-6.79184E+05-1.99761E+04-1.84106E+06 7.83871E-10 1.60981E-09
 -1       526-4.90985E+06-7.43619E+05-1.15132E+04-1.90688E+06 1.10271E-09 3.24906E-09
 -1       527-4.96700E+06-6.80295E+05-5.52747E+03-1.83907E+06 2.63037E-09 1.45621E-09
 -1       528-4.91297E+06-7.35966E+05-4.69425E+03-1.90121E+06-1.62856E-09 5.86795E-10
 -1       529-4.96081E+06-6.86891E+05-5.61371E+03-1.84662E+06-1.55865E-09 9.38599E-10
 -1       530-4.93206E+06-7.20178E+05-1.12556E+04-1.87936E+06 1.10413E-09 1.79398E-09
 -1       531-4.94760E+06-6.96358E+05-2.00068E+04-1.86067E+06-1.07980E-09 1.08503E-09
 -1       532-4.96898E+06-7.15976E+05-5.10890E+04-1.84780E+06-4.21124E-10-4.78394E-09
 -1       533-4.92403E+06-6.91500E+05-8.49246E+04-1.87807E+06 7.22139E-10-4.96948E-09
 -1       534-5.07427E+06-8.35525E+05-2.45585E+05-1.79836E+06 2.85581E-10 5.68616E-09
 -1       535-4.84350E+06-5.79218E+05-3.61042E+05-1.90956E+06-7.38510E-09 5.45697E-09
 -1       536-1.10491E+04-1.36021E+04 3.13313E+04 2.99595E+02-1.30638E-09 4.36012E-09
 -1       537 3.45398E+03 1.57385E+04 2.23230E+04-1.20658E+03-4.94968E-09 2.45177E-09
 -1       538-5.67727E+03-2.13176E+03 8.08177E+03 2.83896E+02-2.91749E-10 5.67070E-10
 -1       539-2.88356E+03 2.46081E+03 5.16041E+03-1.20010E+03 1.45015E-09 2.78368E-09
 -1       540-4.71835E+03-3.31746E+02 2.04054E+03 2.93120E+02 5.10411E-10 2.53374E-09
 -1       541-4.05921E+03 3.79484E+02 1.21901E+03-1.21740E+03 1.74367E-11 4.12490E-09
 -1       542-4.50577E+03-4.91025E+01 4.88979E+02 3.01192E+02 1.54529E-10-4.61040E-09
 -1       543-4.34256E+03 4.69523E+01 2.46311E+02-1.23023E+03-1.17167E-10-2.99072E-09
 -1       544-4.43769E+03 2.49620E+00 3.53823E+01 3.05944E+02 3.23706E-10-6.14023E-10
 -1       545-4.45242E+03-6.08092E+01-1.45051E+02-1.23623E+03-3.70733E-10 3.10997E-09
 -1       546-4.39715E+03 5.94876E+01-3.38822E+02 3.07200E+02-7.38920E-12 8.18204E-10
 -1       547-4.62997E+03-4.40750E+02-8.96492E+02-1.23518E+03-1.63352E-09-5.14447E-10
 -1       548-4.25990E+03 3.81991E+02-1.45545E+03 3.04887E+02-1.56644E-09-3.85421E-09
 -1       549-5.65904E+03-2.81600E+03-3.96910E+03-1.22610E+03-7.68068E-10 3.16459E-09
 -1       550-3.36631E+03 2.43164E+03-5.65447E+03 2.98122E+02-1.07789E-11 9.73841E-10
 -1       551 4.25131E+03-2.57744E+05 1.43334E+04-4.42300E+05-1.91103E-08 0.00000E+00
 -1       552 8.66946E+03-2.57647E+05 1.85560E+04-6.29362E+05-1.43409E-08 8.36735E-09
 -1       553 5.52909E+03-2.61032E+05 2.89326E+04-4.40892E+05-2.29411E-08 3.77622E-09
 -1       554 2.27650E+04-2.48152E+05 6.14505E+04-6.29963E+05-1.46028E-08 2.98621E-09
 -1       555 2.33770E+04-2.72813E+05 1.10494E+05-4.41498E+05-2.32794E-08-3.67800E-09
 -1       556 3.57744E+04-8.22098E+04 2.85965E+04-1.10109E+05-3.77986E-09-2.31375E-09
 -1       557 6.91727E+04-1.10300E+05 1.49582E+04-1.37519E+05 2.81580E-09 6.20548E-09
 -1       558 3.61805E+04-8.63181E+04 6.13733E+03-1.06541E+05-1.81899E-09-8.34916E-10
 -1       559 6.52436E+04-1.14398E+05 3.08552E+03-1.39109E+05 5.00586E-09-6.21458E-09
 -1       560 3.55895E+04-8.59081E+04 1.32194E+03-1.06877E+05 4.36557E-11-4.26371E-09
 -1       561 6.41791E+04-1.14213E+05 6.81542E+02-1.39773E+05 4.36376E-09 6.85077E-09
 -1       562 3.50835E+04-8.55548E+04 2.78532E+02-1.07246E+05 4.66389E-09 6.50289E-11
 -1       563 6.35692E+04-1.13953E+05 1.59553E+02-1.40162E+05 1.28221E-08 1.10631E-08
 -1       564 3.47685E+04-8.53472E+04 5.93258E+01-1.07472E+05 7.51061E-09 6.78483E-10
 -1       565 6.32564E+04-1.13822E+05 2.82418E+01-1.40357E+05 3.90673E-09 1.90175E-09
 -1       566 3.46611E+04-8.52732E+04-1.97646E+01-1.07551E+05 2.51021E-10-3.89082E-09
 -1       567 6.32125E+04-1.13799E+05-8.09554E+01-1.40343E+05 4.93844E-09-2.79397E-09
 -1       568 3.47830E+04-8.53550E+04-2.10266E+02-1.07505E+05 3.52884E-10 2.07547E-09
 -1       569 6.30168E+04-1.13680E+05-4.96288E+02-1.39760E+05-1.04683E-09 2.63753E-09
 -1       570 3.54819E+04-8.60379E+04-1.02184E+03-1.07581E+05 3.92174E-09 8.33370E-09
 -1       571 1.19089E+05 4.30628E+03 6.44970E+03-2.96126E+04-2.83762E-10-5.40308E-09
 -1       572 1.20057E+05 1.48858E+03 3.16240E+03-3.25196E+04 4.46562E-10-1.51249E-09
 -1       573 1.19482E+05 3.48058E+02 1.40553E+03-2.95340E+04-1.04592E-10-5.07725E-10
 -1       574 1.19596E+05 1.11508E+02 7.04586E+02-3.26076E+04-3.15026E-10 5.12500E-09
 -1       575 1.19527E+05 1.34321E+01 3.32439E+02-2.95236E+04 5.29440E-10-3.73802E-09
 -1       576 1.19535E+05 2.66206E+00 1.69300E+02-3.26193E+04 4.62478E-10-5.31168E-09
 -1       577 1.19533E+05-3.46565E+00 8.36143E+01-2.95223E+04-6.58247E-10 3.18551E-10
 -1       578 1.19528E+05-1.91746E+00 4.59049E+01-3.26207E+04-3.35604E-10 2.75122E-09
 -1       579 1.19538E+05-3.39922E+00 2.87923E+01-2.95223E+04-3.59478E-10 4.01974E-09
 -1       580 1.19534E+05-3.67193E+00 2.79490E+01-3.26189E+04 3.39242E-10 3.62365E-09
 -1       581 1.19546E+05-5.29405E+00 3.93342E+01-2.95241E+04-4.41560E-10 1.03910E-10
 -1       582 1.19551E+05 1.97695E+00 7.56329E+01-3.26012E+04 4.27008E-10-7.78073E-10
 -1       583 1.19554E+05 2.24941E+01 1.46070E+02-2.95400E+04 1.31877E-10 4.02054E-09
 -1       584 1.19615E+05 1.36842E+02 3.27237E+02-3.24680E+04-1.66892E-10 1.46792E-09
 -1       585 1.19528E+05 4.24948E+02 6.65001E+02-2.96575E+04 4.36103E-10-9.14042E-10
 -1       586-1.48527E+03 3.82048E+04-1.96235E+03-1.00780E+05 2.98542E-10-3.46779E-09
 -1       587-3.34188E+02 3.79432E+04-2.48035E+02-1.10900E+05 5.58430E-10-9.04731E-09
 -1       588 3.87852E+02 3.79957E+04 1.32636E+03-1.00718E+05 3.04681E-10-1.24010E-09
 -1       589 1.98780E+03 3.87231E+04 3.90254E+03-1.10808E+05 4.76575E-10-3.68618E-09
 -1       590 5.73313E+03 3.75025E+04 8.37244E+03-1.00872E+05 2.31921E-10 1.72167E-09
 -1       591-2.58401E+04-7.43289E+03-8.58728E+03-1.34473E+04 1.34006E-09-1.09094E-09
 -1       592-2.66281E+04-9.55809E+03-4.65122E+03-1.57052E+04-9.62928E-11-3.26884E-09
 -1       593-2.67084E+04-6.79994E+03-1.93634E+03-1.40668E+04 2.96723E-10-1.13164E-09
 -1       594-2.54308E+04-8.31039E+03-9.65760E+02-1.57649E+04 5.30349E-11-3.63306E-09
 -1       595-2.67747E+04-6.79717E+03-4.43834E+02-1.40952E+04-1.02943E-10 1.43459E-10
 -1       596-2.53496E+04-8.25327E+03-2.26258E+02-1.57563E+04 1.09310E-10 7.03335E-09
 -1       597-2.67831E+04-6.80269E+03-1.24562E+02-1.40963E+04-3.97129E-10 7.28079E-10
 -1       598-2.53420E+04-8.25108E+03-1.02620E+02-1.57540E+04-7.06393E-10-1.78221E-09
 -1       599-2.67826E+04-6.80264E+03-1.34159E+02-1.40961E+04-1.78142E-09-6.22424E-09
 -1       600-2.53508E+04-8.25394E+03-2.51732E+02-1.57564E+04 4.09273E-12-9.14412E-10
 -1       601-2.67723E+04-6.79649E+03-4.97846E+02-1.40945E+04 3.26168E-10-4.18368E-10
 -1       602-2.54422E+04-8.31800E+03-1.08580E+03-1.57652E+04-3.85171E-10-2.08047E-10
 -1       603-2.66971E+04-6.80050E+03-2.17775E+03-1.40629E+04-4.56112E-10 4.39218E-09
 -1       604-2.67933E+04-9.71659E+03-5.23149E+03-1.56921E+04-6.16069E-10 1.46815E-09
 -1       605-2.57150E+04-7.51634E+03-9.65840E+03-1.33707E+04 1.47224E-11-4.66571E-09
 -1       606 1.68216E+04-5.68979E+03-1.02506E+04 1.64398E+04-1.71713E-09-1.91449E-09
 -1       607 1.50663E+04-1.83501E+03-5.10446E+03 1.84545E+04-4.14730E-10-9.91577E-10
 -1       608 1.60673E+04-3.08311E+02-2.28532E+03 1.63085E+04 1.25601E-09 1.13118E-10
 -1       609 1.58707E+04-8.18381E+01-1.15447E+03 1.85996E+04-1.92449E-09 2.41357E-09
 -1       610 1.59804E+04 1.32128E+01-5.51082E+02 1.62939E+04-2.95768E-09 1.47952E-09
 -1       611 1.59450E+04 1.81378E+01-2.78094E+02 1.86155E+04-4.82351E-09 2.43551E-09
 -1       612 1.59602E+04 1.96031E+01-1.32850E+02 1.62925E+04-1.78079E-09 4.32033E-09
 -1       613 1.59481E+04 2.06463E+01-6.06851E+01 1.86174E+04-2.48292E-09-9.00627E-10
 -1       614 1.59503E+04 1.78762E+01-1.68938E+01 1.62919E+04 8.51287E-10 3.69482E-11
 -1       615 1.59446E+04 2.19358E+01 1.87071E+01 1.86177E+04 4.24120E-09 5.61931E-09
 -1       616 1.59427E+04 1.96422E+01 6.23567E+01 1.62921E+04-1.95996E-10-1.49919E-09
 -1       617 1.59508E+04 3.62123E+01 1.44563E+02 1.86174E+04 9.66793E-10-2.53954E-09
 -1       618 1.59290E+04 6.20735E+01 2.92319E+02 1.62922E+04 9.64155E-09-2.01226E-10
 -1       619 1.60532E+04 2.62948E+02 6.56995E+02 1.86171E+04 1.88352E-08 3.81078E-09
 -1       620 1.58313E+04 7.56290E+02 1.32074E+03 1.62918E+04 1.16482E-08 3.55408E-09
 -1       621 2.07000E+02 1.28716E+05 1.78690E+03 4.16665E+03-2.34863E-10-2.10093E-09
 -1       622 2.36468E+02 1.29159E+05 1.51464E+03 6.08105E+03-9.18590E-11-2.95358E-10
 -1       623 1.01908E+01 1.28845E+05 1.73932E+03 4.14679E+03-1.48219E-10 4.29327E-09
 -1       624 7.86676E+02 1.29664E+05 3.30070E+03 6.10075E+03-1.13914E-10-7.31461E-10
 -1       625 7.89582E+02 1.28209E+05 5.73707E+03 4.14711E+03-5.61613E-11-6.60975E-10
 -1       626 1.05932E+05 2.93351E+04 2.08834E+03 5.72679E+04-1.18121E-09 2.44108E-09
 -1       627 1.04480E+05 3.04085E+04 1.00595E+03 5.95801E+04-1.15733E-09 4.93037E-09
 -1       628 1.06015E+05 2.83447E+04 4.25164E+02 5.75834E+04 1.14287E-08 1.68184E-08
 -1       629 1.04181E+05 3.01709E+04 2.08250E+02 5.97213E+04 5.30781E-09-1.13135E-09
 -1       630 1.06023E+05 2.82961E+04 9.64635E+01 5.75935E+04 9.21773E-10-1.71053E-09
 -1       631 1.04147E+05 3.01647E+04 5.18454E+01 5.97249E+04-3.73598E-09 1.78709E-09
 -1       632 1.06020E+05 2.82986E+04 3.44052E+01 5.75902E+04-1.08353E-08-8.46387E-09
 -1       633 1.04142E+05 3.01670E+04 3.85316E+01 5.97223E+04-4.05271E-09-3.86535E-09
 -1       634 1.06016E+05 2.82983E+04 6.25908E+01 5.75883E+04 2.81739E-09-1.95894E-09
 -1       635 1.04145E+05 3.01676E+04 1.27017E+02 5.97227E+04 2.53664E-09-3.20449E-09
 -1       636 1.06009E+05 2.82976E+04 2.56677E+02 5.75866E+04 4.58158E-10 3.04181E-09
 -1       637 1.04197E+05 3.02086E+04 5.64205E+02 5.97200E+04 1.13492E-09 4.32010E-09
 -1       638 1.05987E+05 2.84238E+04 1.15970E+03 5.75283E+04 2.77345E-09 2.04432E-09
 -1       639 1.04803E+05 3.10575E+04 2.74357E+03 5.95390E+04-2.27192E-09-1.88447E-09
 -1       640 1.05904E+05 3.09502E+04 5.69385E+03 5.64554E+04-1.03068E-09-1.43666E-09
 -1       656 2.87205E+04-7.27018E+05-6.93464E+04-5.08180E+02 9.24047E-10-3.64270E-09
 -1       657-3.79489E+04-7.58340E+05-5.73489E+04 4.74696E+03-3.26054E-10 9.58845E-10
 -1       658 9.10515E+03-7.35958E+05-3.51942E+04-9.51034E+02 4.09045E-10-5.59730E-11
 -1       659-4.06834E+04-7.59628E+05-6.09402E+04 5.03892E+03 1.25419E-09-5.33501E-09
 -1       660 3.14475E+04-7.25733E+05-7.55298E+04-8.00124E+02 2.40107E-10-2.30399E-09
 -1       661 1.03099E+05 1.11962E+04 9.88639E+03 4.02506E+04 1.20508E-10 8.89031E-10
 -1       662 1.08222E+05 1.89766E+04 6.66175E+03 3.85609E+04-3.08887E-10-8.16385E-10
 -1       663 1.05033E+05 1.43750E+04 2.33034E+03 3.96955E+04-2.45677E-10-1.87765E-09
 -1       664 1.05987E+05 1.52530E+04 1.39314E+03 3.92330E+04 7.27894E-10-1.32241E-09
 -1       665 1.05320E+05 1.48153E+04 5.49601E+02 3.96178E+04 2.09070E-10-4.90701E-11
 -1       666 1.05652E+05 1.47442E+04 3.20409E+02 3.93304E+04-3.06747E-09 3.78421E-09
 -1       667 1.05366E+05 1.48706E+04 1.68970E+02 3.96031E+04-7.11111E-10 1.68331E-09
 -1       668 1.05606E+05 1.46974E+04 1.69147E+02 3.93500E+04 1.08772E-09-7.30341E-09
 -1       669 1.05366E+05 1.48609E+04 2.26687E+02 3.95986E+04 1.34604E-09 2.30229E-09
 -1       670 1.05668E+05 1.48123E+04 4.91269E+02 3.93440E+04 1.43957E-09 4.20551E-09
 -1       671 1.05304E+05 1.47580E+04 8.71632E+02 3.96082E+04-1.23814E-09 3.21825E-09
 -1       672 1.06181E+05 1.56554E+04 2.22943E+03 3.92158E+04-3.70148E-09-3.27643E-09
 -1       673 1.04856E+05 1.40391E+04 3.73600E+03 3.97187E+04-2.70842E-09-1.99748E-09
 -1       674 1.09742E+05 2.16528E+04 1.06845E+04 3.81652E+04-8.94261E-10-1.15142E-09
 -1       675 1.01766E+05 8.92833E+03 1.58587E+04 4.05957E+04 6.87351E-10-3.47700E-09
 -1       676 1.16922E+01-1.39497E+05-5.43102E+02 1.73706E+01-1.16239E-09-4.89620E-09
 -1       677-1.44160E+02-1.39628E+05-9.93901E+02-3.47357E+01-3.32145E-09-7.35463E-09
 -1       678 9.62531E+01-1.39403E+05-1.75693E+03 1.73531E+01-7.29869E-10 1.83614E-09
 -1       679-1.75714E+03-1.40688E+05-4.17343E+03-3.46575E+01-2.20325E-09 2.23356E-09
 -1       680 1.04858E+03-1.38436E+05-6.72623E+03 1.70929E+01-6.29370E-10 5.05411E-10
 -1       771-1.50056E+06-2.60805E+05-3.64849E+04-6.21054E+05-7.43603E-09-8.49104E-09
 -1       772-1.49117E+06-2.81055E+05-1.96141E+04-6.43603E+05-3.98722E-09 1.51158E-09
 -1       773-1.50535E+06-2.57102E+05-8.39939E+03-6.23098E+05-2.70666E-09 2.78305E-09
 -1       774-1.48583E+06-2.76636E+05-4.10720E+03-6.45497E+05 3.84171E-09-1.07684E-09
 -1       775-1.50629E+06-2.56536E+05-2.03469E+03-6.23220E+05 2.52476E-09 5.56429E-09
 -1       776-1.48566E+06-2.76601E+05-9.49061E+02-6.46384E+05-1.06593E-09 1.10958E-09
 -1       777-1.50689E+06-2.56118E+05-5.62468E+02-6.23267E+05-3.01225E-09 2.51293E-09
 -1       778-1.48580E+06-2.76716E+05-2.57664E+02-6.47114E+05-1.00936E-08-3.54748E-09
 -1       779-1.50735E+06-2.55761E+05-2.40015E+02-6.23308E+05-4.08181E-09-4.57476E-10
 -1       780-1.48595E+06-2.76818E+05-1.98383E+02-6.47705E+05-9.60426E-10 3.13776E-11
 -1       781-1.50770E+06-2.55473E+05-3.50136E+02-6.23335E+05-5.01313E-09-7.15318E-10
 -1       782-1.48612E+06-2.76927E+05-6.52235E+02-6.48140E+05-7.06495E-09-1.93950E-09
 -1       783-1.50789E+06-2.55288E+05-1.30356E+03-6.23340E+05-1.42245E-09-2.67062E-09
 -1       784-1.48698E+06-2.77806E+05-3.09402E+03-6.48370E+05-3.96358E-09-7.04858E-11
 -1       785-1.50744E+06-2.55604E+05-5.71931E+03-6.22931E+05-6.47015E-09 4.98403E-10
 -1       786 1.10406E+05-5.88258E+03 1.36087E+04 1.72850E+00 8.74508E-08 6.53927E-10
 -1       787 1.16303E+05 6.81016E+03 9.62810E+03-8.02055E+00 1.73555E-07 5.38876E-09
 -1       788 1.12682E+05-9.22158E+02 3.52229E+03 2.58735E+00 2.58029E-07 2.50839E-09
 -1       789 1.13653E+05 1.06699E+03 2.21312E+03-1.04336E+01 3.42913E-07 4.65252E-09
 -1       790 1.13057E+05-1.44058E+02 9.00567E+02 4.14157E+00 4.74872E-07-3.84642E-09
 -1       791 1.13215E+05 1.67396E+02 5.28890E+02-1.45240E+01 6.07796E-07 4.71532E-09
 -1       792 1.13120E+05-2.32372E+01 2.41655E+02 6.67786E+00 8.50483E-07-7.31222E-09
 -1       793 1.13144E+05 3.27686E+01 1.58917E+02-2.10497E+01 1.09202E-06 2.59199E-09
 -1       794 1.13128E+05-9.51935E+00 1.18579E+02 1.06673E+01 5.46256E-07-4.98690E-09
 -1       795 1.13152E+05 4.94442E+01 1.72771E+02-3.12126E+01 1.87107E-09 3.91040E-09
 -1       796 1.13112E+05-3.99003E+01 2.59556E+02 1.68410E+01 3.64775E-11-2.99927E-09
 -1       797 1.13270E+05 2.92569E+02 6.12619E+02-4.68779E+01-3.63881E-10-6.08657E-09
 -1       798 1.13010E+05-2.52465E+02 9.67226E+02 2.63329E+01-1.70281E-10 2.47792E-09
 -1       799 1.13995E+05 1.86408E+03 2.63697E+03-7.10751E+01-4.51016E-10 7.58860E-09
 -1       800 1.12387E+05-1.61015E+03 3.72511E+03 4.10383E+01-1.76509E-10 7.09861E-10
 -1       801-6.17031E+03 6.42896E+03 9.49685E+03 1.16026E+04 6.40512E-09 5.29894E-10
 -1       802 1.63634E+04 5.28335E+04 3.15524E+04-4.77193E+04 1.72154E-08-4.17164E-09
 -1       803-9.79687E+03 2.29041E+04 4.07496E+04 1.10682E+04 1.35151E-08 8.53953E-09
 -1       804 7.90113E+04 8.61051E+04 1.13624E+05-4.82268E+04 1.59689E-08 1.50666E-08
 -1       805-6.88378E+04-2.66992E+04 1.48222E+05 1.21091E+04 5.66797E-09 1.55680E-08
 -1       806-1.28389E+05-2.75841E+04-1.09092E+04-5.35688E+04 3.69255E-10 4.77030E-10
 -1       807-1.29018E+05-2.60352E+04-5.35940E+03-5.64768E+04 2.31742E-09 3.21120E-09
 -1       808-1.28699E+05-2.36424E+04-2.27351E+03-5.54191E+04 2.57307E-09 8.24667E-09
 -1       809-1.27874E+05-2.45475E+04-1.11147E+03-5.66320E+04-1.52482E-09-1.84366E-09
 -1       810-1.28748E+05-2.35032E+04-5.08924E+02-5.55008E+04-3.09979E-09-2.53101E-09
 -1       811-1.27787E+05-2.44887E+04-2.52407E+02-5.66194E+04 9.03583E-10 3.56317E-09
 -1       812-1.28757E+05-2.35132E+04-1.25923E+02-5.55008E+04-2.61252E-10 2.73815E-09
 -1       813-1.27776E+05-2.44901E+04-7.94709E+01-5.66131E+04-8.12065E-10-2.13640E-09
 -1       814-1.28756E+05-2.35166E+04-7.44754E+01-5.54994E+04-8.93351E-10-4.02656E-09
 -1       815-1.27778E+05-2.44912E+04-1.16703E+02-5.66118E+04 2.43290E-10-1.21202E-09
 -1       816-1.28749E+05-2.35152E+04-2.18596E+02-5.54983E+04-5.31600E-10 3.69823E-09
 -1       817-1.27816E+05-2.45119E+04-4.68912E+02-5.66087E+04 1.14574E-09-5.62068E-10
 -1       818-1.28722E+05-2.35805E+04-9.55528E+02-5.54676E+04 2.39652E-10 3.50428E-09
 -1       819-1.28344E+05-2.50851E+04-2.24925E+03-5.64815E+04 2.36469E-11 1.29809E-08
 -1       820-1.28541E+05-2.52812E+04-4.57742E+03-5.47434E+04-1.34014E-09 1.09719E-09
 -1       821-1.66104E+05 9.22506E+03-2.13367E+04 9.60205E+00-4.22286E-10-9.19499E-10
 -1       822-1.75349E+05-1.06795E+04-1.50981E+04-1.86027E+02-1.38520E-09 3.30374E-10
 -1       823-1.69672E+05 1.44615E+03-5.52631E+03-2.34976E+01 1.00748E-09 7.36691E-11
 -1       824-1.71192E+05-1.67387E+03-3.47770E+03-1.08312E+02 3.01934E-10 5.36602E-10
 -1       825-1.70260E+05 2.26424E+02-1.42866E+03-6.81146E+01-2.41050E-09-1.12607E-10
 -1       826-1.70507E+05-2.67056E+02-8.64058E+02-1.93820E+01-4.03182E-09-2.22003E-09
 -1       827-1.70356E+05 4.03637E+01-4.45757E+02-1.12430E+02-2.95551E-09-4.33046E-09
 -1       828-1.70413E+05-8.15991E+01-3.95644E+02 5.75351E+01-2.51639E-09-2.66268E-09
 -1       829-1.70354E+05 4.11168E+01-4.52259E+02-1.45033E+02-5.86966E-11 1.79810E-10
 -1       830-1.70514E+05-2.73412E+02-8.83907E+02 1.02651E+02 1.38535E-09 1.22478E-08
 -1       831-1.70255E+05 2.32074E+02-1.46307E+03-1.57546E+02-1.56261E-09 1.76010E-09
 -1       832-1.71215E+05-1.71577E+03-3.56508E+03 1.04629E+02-9.33085E-10-2.92204E-09
 -1       833-1.69653E+05 1.48242E+03-5.66472E+03-1.47011E+02-7.34739E-10 8.28095E-10
 -1       834-1.75475E+05-1.09477E+04-1.54775E+04 6.42593E+01 1.02048E-10 1.15779E-09
 -1       835-1.65997E+05 9.45671E+03-2.18730E+04-1.17173E+02 3.43498E-09-3.03771E-10
 -1       836-5.54774E+02 1.57756E+05 9.49749E+03-1.39137E+04 1.20144E-09 3.31966E-11
 -1       837 2.08674E+03 1.60699E+05 8.10206E+03-2.79621E+04 1.67915E-09-3.79373E-09
 -1       838-2.05889E+02 1.58579E+05 8.34715E+03-1.38653E+04 1.53523E-09 1.13175E-09
 -1       839 5.35024E+03 1.63137E+05 1.58814E+04-2.79800E+04 2.05819E-09 4.88811E-10
 -1       840-1.61235E+03 1.55304E+05 2.53617E+04-1.38951E+04 1.32604E-09-4.30964E-09
 -1       856-5.19711E+04 4.44609E+03-1.17155E+04-2.51052E+02-4.51951E-09-1.08821E-09
 -1       857-5.68116E+04-5.21538E+03-8.06625E+03 2.68995E+03-2.03674E-09-1.42541E-09
 -1       858-5.38835E+04 6.23173E+02-3.04048E+03-2.59579E+02-3.87814E-09-1.14403E-09
 -1       859-5.46144E+04-7.25694E+02-1.83656E+03 2.70333E+03 1.19211E-09 2.83222E-10
 -1       860-5.41696E+04 8.68104E+01-7.72212E+02-2.64492E+02-3.02251E-10-2.03812E-09
 -1       861-5.42844E+04-9.72975E+01-4.30280E+02 2.70998E+03-4.81971E-09-2.01879E-09
 -1       862-5.42142E+04 1.16405E+01-1.89761E+02-2.66244E+02 2.21314E-09-1.92679E-09
 -1       863-5.42317E+04-8.69740E+00-9.38654E+01 2.71077E+03 4.88908E-09-8.92399E-10
 -1       864-5.42223E+04 1.22544E-01-2.94989E+01-2.65282E+02 2.43531E-09-1.52839E-09
 -1       865-5.42169E+04 1.17161E+01 1.74259E+01 2.70581E+03 3.02924E-09-2.08694E-10
 -1       866-5.42284E+04-8.84017E+00 6.39528E+01-2.61284E+02 2.42778E-10 2.08580E-10
 -1       867-5.41805E+04 7.47650E+01 1.75336E+02 2.69500E+03 1.04791E-10-2.39391E-09
 -1       868-5.42576E+04-6.21630E+01 2.96350E+02-2.54470E+02 1.77528E-09 2.98968E-10
 -1       869-5.39598E+04 5.17091E+02 7.94763E+02 2.67645E+03-4.01286E-09-6.53927E-10
 -1       870-5.44473E+04-4.39684E+02 1.15358E+03-2.42740E+02 8.04278E-10 1.79625E-10
 -1       871-2.41654E+03-5.11038E+03-7.89130E+03 5.17285E+04 1.86083E-09 4.42924E-10
 -1       872-1.04696E+03-6.87203E+03-3.21488E+03 6.70614E+04 3.01134E-09-3.22871E-10
 -1       873-1.81806E+01-6.03856E+03 4.67463E+02 5.16137E+04 1.98906E-09 6.04246E-10
 -1       874 1.22402E+03-4.88997E+03 4.49597E+03 6.70856E+04 2.69438E-09 6.73936E-10
 -1       875 2.89453E+03-7.11234E+03 9.96735E+03 5.17078E+04 1.24965E-09 7.34417E-10
 -1       876 1.29489E+05 2.23084E+04 6.94408E+03 5.25276E+04-2.52078E-09 1.27784E-10
 -1       877 1.29883E+05 2.38351E+04 3.70819E+03 5.45852E+04-2.62071E-09 1.99066E-09
 -1       878 1.30139E+05 2.15389E+04 1.55363E+03 5.30975E+04 3.65890E-09 8.22911E-09
 -1       879 1.28938E+05 2.28947E+04 7.73864E+02 5.46359E+04 1.43598E-09-4.57902E-09
 -1       880 1.30187E+05 2.15297E+04 3.60310E+02 5.31207E+04 5.86283E-10-7.18836E-09
 -1       881 1.28876E+05 2.28550E+04 1.91831E+02 5.46271E+04 3.14287E-09-6.94479E-09
 -1       882 1.30192E+05 2.15349E+04 1.21808E+02 5.31214E+04 4.16901E-09 1.45603E-09
 -1       883 1.28871E+05 2.28532E+04 1.29424E+02 5.46248E+04 1.90505E-09 4.11396E-09
 -1       884 1.30190E+05 2.15333E+04 2.04542E+02 5.31215E+04-2.04608E-10-1.62908E-09
 -1       885 1.28888E+05 2.28562E+04 4.10412E+02 5.46302E+04 4.90923E-09 4.57220E-09
 -1       886 1.30174E+05 2.15213E+04 8.26813E+02 5.31199E+04 1.09232E-09 1.68711E-10
 -1       887 1.29033E+05 2.29514E+04 1.80598E+03 5.46508E+04-1.27909E-09 2.51998E-09
 -1       888 1.30060E+05 2.15417E+04 3.63917E+03 5.30621E+04 1.28955E-09-3.84262E-11
 -1       889 1.31202E+05 2.52028E+04 8.69401E+03 5.45813E+04 1.18361E-09-2.75850E-09
 -1       890 1.28576E+05 2.33037E+04 1.62829E+04 5.16748E+04 8.27640E-11-2.13549E-09
 -1       891-7.79429E+01-7.36483E+04-8.66779E+02 1.40098E+04 1.19735E-09-3.39412E-09
 -1       892-1.35816E+02-7.38585E+04-9.44240E+02 2.12046E+04-4.81464E-10-6.92307E-09
 -1       893-1.85906E+01-7.36776E+04-1.35014E+03 1.40123E+04 2.02363E-10 3.38423E-09
 -1       894-7.31417E+02-7.43829E+04-2.80477E+03 2.11298E+04-1.42745E-09 5.77757E-10
 -1       895-5.69261E+02-7.30989E+04-4.94179E+03 1.40839E+04-1.17259E-09 3.52429E-10
 -1       956-1.62650E+05-2.34909E+03-5.91439E+03 1.07985E+04-3.17232E-09 8.01379E-10
 -1       957-1.63817E+05-7.93348E+02-3.03640E+03 1.29981E+04-2.41403E-09 3.69937E-10
 -1       958-1.63172E+05-6.39439E+01-1.36781E+03 1.07284E+04-1.08366E-09 2.60229E-10
 -1       959-1.63264E+05-1.31605E+01-6.98743E+02 1.30739E+04-6.57019E-09 5.57804E-10
 -1       960-1.63217E+05 1.75223E+01-3.40490E+02 1.07220E+04-5.59726E-09 2.00259E-09
 -1       961-1.63222E+05 1.50548E+01-1.80570E+02 1.30810E+04-5.74983E-09 5.30554E-09
 -1       962-1.63225E+05 1.41936E+01-1.03040E+02 1.07212E+04-3.37582E-09 2.23179E-09
 -1       963-1.63219E+05 1.50780E+01-8.22216E+01 1.30821E+04-3.12224E-09 5.79871E-09
 -1       964-1.63226E+05 1.49045E+01-9.91160E+01 1.07209E+04-1.21321E-09-3.32079E-10
 -1       965-1.63225E+05 1.66788E+01-1.70690E+02 1.30821E+04 9.26118E-10-6.57383E-09
 -1       966-1.63221E+05 1.95922E+01-3.20005E+02 1.07212E+04-1.70530E-09-1.77192E-09
 -1       967-1.63267E+05-8.16091E+00-6.56125E+02 1.30782E+04 4.56794E-10 1.87651E-09
 -1       968-1.63182E+05-5.53287E+01-1.28378E+03 1.07249E+04 4.62478E-10 1.83273E-09
 -1       969-1.63790E+05-7.39107E+02-2.85033E+03 1.30340E+04 1.92699E-10 5.45629E-09
 -1       970-1.62694E+05-2.19946E+03-5.55159E+03 1.07665E+04 1.49385E-10 4.89990E-09
 -1       971-1.54574E+05-8.17187E+02-4.54672E+03 7.60347E+03-1.21099E-09 7.07814E-10
 -1       972-1.55680E+05-5.87702E+02-2.47647E+03 1.06093E+04-1.82081E-09 5.18332E-09
 -1       973-1.55077E+05-6.22719E+00-1.10854E+03 7.54140E+03-5.43650E-09 2.13163E-09
 -1       974-1.55153E+05-8.44140E+00-5.74424E+02 1.06758E+04-3.69141E-10-4.69265E-09
 -1       975-1.55114E+05 1.34807E+01-2.86258E+02 7.53645E+03 2.58547E-09-3.24576E-10
 -1       976-1.55119E+05 1.39549E+01-1.63989E+02 1.06815E+04-1.06945E-09-2.19279E-09
 -1       977-1.55121E+05 1.23129E+01-1.16682E+02 7.53564E+03 5.20208E-09 1.22014E-09
 -1       978-1.55119E+05 1.57760E+01-1.33503E+02 1.06827E+04 1.18565E-08 3.49485E-09
 -1       979-1.55120E+05 1.54238E+01-2.11756E+02 7.53532E+03 6.61777E-09 1.79045E-09
 -1       980-1.55135E+05 1.68603E+01-4.07158E+02 1.06828E+04 6.58133E-09-3.23769E-09
 -1       981-1.55107E+05 2.56278E+01-7.87571E+02 7.53552E+03 1.31115E-09-1.45471E-09
 -1       982-1.55243E+05-4.08773E+01-1.62733E+03 1.06799E+04 2.85127E-10-2.61328E-09
 -1       983-1.55009E+05-2.40919E+01-3.16144E+03 7.53825E+03 1.76533E-09-1.43928E-09
 -1       984-1.56765E+05-1.69073E+03-7.07939E+03 1.06378E+04-1.19326E-09 2.54568E-09
 -1       985-1.53579E+05-2.33668E+03-1.30000E+04 7.57977E+03 1.26170E-09 3.74712E-09
 -3
    1PSTEP                         5           3           1          
  100CL  103 3.75000E-01         409                     0    3           1
 -4  DISP        4    1
 -5  D1          1    2    1    0
 -5  D2          1    2    2    0
 -5  D3          1    2    3    0
 -5  ALL         1    2    0    0    1ALL
 -1         1 9.81717E-05 0.00000E+00 0.00000E+00
 -1         2 9.05564E-05 2.94870E-30-1.65436E-24
 -1         3 8.39415E-05-1.72060E-27-6.61744E-24
 -1         5 6.03416E-05 4.01186E-26 0.00000E+00
 -1         8 7.83874E-05-7.16266E-07 0.00000E+00
 -1         9 7.96660E-05 4.79566E-07 0.00000E+00
 -1        10 7.77689E-05-1.14674E-06 0.00000E+00
 -1        12 5.99153E-05 4.08711E-07 0.00000E+00
 -1        15 5.48433E-05-7.80108E-07-2.06795E-25
 -1        16 5.67287E-05 3.75066E-07 0.00000E+00
 -1        17 5.79394E-05-2.41230E-06 0.00000E+00
 -1        18 5.78373E-05 2.26339E-07 0.00000E+00
 -1        19 5.86367E-05 8.15187E-07 0.00000E+00
 -1        20 5.87432E-05 1.20898E-05 0.00000E+00
 -1        21 5.83411E-05 2.28431E-05-1.65436E-24
 -1        24 1.47874E-05-3.24971E-06 0.00000E+00
 -1        25 5.64898E-05 3.19729E-07 0.00000E+00
 -1        26 5.72452E-05 1.13710E-06 0.00000E+00
 -1        27 5.61129E-05 1.02703E-05 0.00000E+00
 -1        28 5.57484E-05 2.24938E-05 0.00000E+00
 -1        32 0.00000E+00 0.00000E+00 0.00000E+00
 -1        33 5.48783E-05 1.52556E-06 0.00000E+00
 -1        34 5.37847E-05 1.02539E-05 0.00000E+00
 -1        35 5.27454E-05 2.23094E-05 0.00000E+00
 -1        51 9.68849E-05-1.18285E-07 0.00000E+00
 -1        52 9.44998E-05-2.33371E-07 0.00000E+00
 -1        53 9.12327E-05-3.49344E-07 0.00000E+00
 -1        54 8.73080E-05-4.67319E-07 0.00000E+00
 -1        55 8.29510E-05-5.87956E-07 0.00000E+00
 -1        56 9.72785E-05-5.71428E-07 0.00000E+00
 -1        57 9.64930E-05-1.53130E-06-1.32349E-23
 -1        58 9.58138E-05-2.76962E-06 0.00000E+00
 -1        59 9.51945E-05-4.18558E-06 0.00000E+00
 -1        60 9.45988E-05-5.66502E-06 2.64698E-23
 -1        61 9.39832E-05-7.09468E-06 0.00000E+00
 -1        62 9.33073E-05-8.36321E-06 0.00000E+00
 -1        63 9.25308E-05-9.36343E-06 1.32349E-23
 -1        64 9.16184E-05-1.00009E-05-2.64698E-23
 -1        65 9.05380E-05-1.01899E-05 1.32349E-23
 -1        66 8.92651E-05-9.86593E-06 2.64698E-23
 -1        67 8.77807E-05-8.97670E-06 1.32349E-23
 -1        68 8.60742E-05-7.49737E-06 0.00000E+00
 -1        69 8.41460E-05-5.41490E-06 1.32349E-23
 -1        70 8.19955E-05-2.74944E-06 0.00000E+00
 -1        86 9.02731E-05 8.59987E-08 0.00000E+00
 -1        87 8.94222E-05 1.71246E-07-8.27181E-25
 -1        88 8.79767E-05 2.55771E-07 0.00000E+00
 -1        89 8.59076E-05 3.36470E-07 0.00000E+00
 -1        90 8.31573E-05 4.16522E-07 0.00000E+00
 -1       121 8.37694E-05-1.90388E-07 0.00000E+00
 -1       122 8.32533E-05-3.80894E-07 3.30872E-24
 -1       123 8.23939E-05-5.71634E-07-6.61744E-24
 -1       124 8.11922E-05-7.62755E-07 3.30872E-24
 -1       125 7.96498E-05-9.54318E-07 6.61744E-24
 -1       191 6.03298E-05 6.81240E-08 0.00000E+00
 -1       192 6.02942E-05 1.36247E-07 0.00000E+00
 -1       193 6.02350E-05 2.04369E-07 0.00000E+00
 -1       194 6.01521E-05 2.72488E-07 0.00000E+00
 -1       195 6.00456E-05 3.40602E-07 3.30872E-24
 -1       251 7.84497E-05 2.53026E-06 0.00000E+00
 -1       252 7.85297E-05 4.44512E-06 0.00000E+00
 -1       253 7.86103E-05 5.26119E-06 0.00000E+00
 -1       254 7.86938E-05 5.20734E-06-8.27181E-25
 -1       255 7.87773E-05 4.47392E-06 1.65436E-24
 -1       256 7.88608E-05 3.24889E-06 1.65436E-24
 -1       257 7.89440E-05 1.69832E-06 3.30872E-24
 -1       258 7.90269E-05-1.28984E-08 0.00000E+00
 -1       259 7.91099E-05-1.72705E-06 0.00000E+00
 -1       260 7.91931E-05-3.28642E-06 0.00000E+00
 -1       261 7.92765E-05-4.52634E-06 0.00000E+00
 -1       262 7.93600E-05-5.28110E-06 8.27181E-25
 -1       263 7.94435E-05-5.36331E-06 0.00000E+00
 -1       264 7.95240E-05-4.58322E-06-1.03398E-25
 -1       265 7.96040E-05-2.71289E-06 0.00000E+00
 -1       266 7.44634E-05-7.36644E-07 0.00000E+00
 -1       267 7.05394E-05-7.46098E-07 8.27181E-25
 -1       268 6.66154E-05-7.56243E-07 0.00000E+00
 -1       269 6.26914E-05-7.64338E-07 2.06795E-25
 -1       270 5.87674E-05-7.72386E-07 0.00000E+00
 -1       271 7.59999E-05 2.21073E-06 0.00000E+00
 -1       272 7.39722E-05 4.07172E-06-1.32349E-23
 -1       273 7.22991E-05 4.99633E-06 0.00000E+00
 -1       274 7.09238E-05 5.11124E-06 0.00000E+00
 -1       275 6.97979E-05 4.56025E-06-2.64698E-23
 -1       276 6.88635E-05 3.49484E-06 0.00000E+00
 -1       277 6.80616E-05 2.07504E-06-2.64698E-23
 -1       278 6.73303E-05 4.65828E-07 0.00000E+00
 -1       279 6.66069E-05-1.16480E-06-2.64698E-23
 -1       280 6.58287E-05-2.64851E-06 0.00000E+00
 -1       281 6.49337E-05-3.81939E-06 0.00000E+00
 -1       282 6.38618E-05-4.51598E-06 0.00000E+00
 -1       283 6.25547E-05-4.58451E-06-2.64698E-23
 -1       284 6.09611E-05-3.87904E-06 0.00000E+00
 -1       285 5.90256E-05-2.26872E-06 0.00000E+00
 -1       301 7.57761E-05 4.57426E-07 3.30872E-24
 -1       302 7.18893E-05 4.46969E-07 0.00000E+00
 -1       303 6.80233E-05 4.36879E-07 0.00000E+00
 -1       304 6.41960E-05 4.25530E-07 0.00000E+00
 -1       305 6.04253E-05 4.12411E-07-6.61744E-24
 -1       306 7.71992E-05 3.36097E-06 2.64698E-23
 -1       307 7.51004E-05 5.14736E-06-1.32349E-23
 -1       308 7.34199E-05 5.83170E-06 0.00000E+00
 -1       309 7.21397E-05 5.42874E-06 1.32349E-23
 -1       310 7.12109E-05 4.08717E-06 2.64698E-23
 -1       311 7.05639E-05 1.98782E-06 2.64698E-23
 -1       312 7.00981E-05-5.98052E-07 0.00000E+00
 -1       313 6.97058E-05-3.38150E-06 0.00000E+00
 -1       314 6.92705E-05-6.04974E-06 0.00000E+00
 -1       315 6.86776E-05-8.29429E-06 0.00000E+00
 -1       316 6.78303E-05-9.85753E-06-2.64698E-23
 -1       317 6.66426E-05-1.05067E-05 1.32349E-23
 -1       318 6.50653E-05-1.01178E-05 2.64698E-23
 -1       319 6.30730E-05-8.60233E-06 0.00000E+00
 -1       320 6.06710E-05-6.01089E-06 2.64698E-23
 -1       336 7.55069E-05-1.35497E-06 0.00000E+00
 -1       337 7.28215E-05-1.56449E-06 3.30872E-24
 -1       338 6.97166E-05-1.77512E-06-6.61744E-24
 -1       339 6.61974E-05-1.98676E-06-3.30872E-24
 -1       340 6.22694E-05-2.19990E-06 6.61744E-24
 -1       406 5.97614E-05 4.76808E-07 0.00000E+00
 -1       407 5.95837E-05 5.44879E-07 0.00000E+00
 -1       408 5.93824E-05 6.12904E-07 0.00000E+00
 -1       409 5.91574E-05 6.80801E-07 1.65436E-24
 -1       410 5.89088E-05 7.48435E-07 0.00000E+00
 -1       521 5.34248E-05 2.19809E-06 0.00000E+00
 -1       522 5.07717E-05 2.06698E-06 0.00000E+00
 -1       523 4.88073E-05 1.12978E-07-5.29396E-23
 -1       524 4.74277E-05-3.44934E-06 0.00000E+00
 -1       525 4.64596E-05-8.11976E-06 0.00000E+00
 -1       526 4.56892E-05-1.33309E-05-2.64698E-23
 -1       527 4.48737E-05-1.84211E-05-5.29396E-23
 -1       528 4.37708E-05-2.27375E-05-2.64698E-23
 -1       529 4.21865E-05-2.57601E-05-5.29396E-23
 -1       530 3.99565E-05-2.70533E-05 0.00000E+00
 -1       531 3.70251E-05-2.64786E-05 5.29396E-23
 -1       532 3.33842E-05-2.40180E-05 0.00000E+00
 -1       533 2.91443E-05-1.99777E-05 5.29396E-23
 -1       534 2.44706E-05-1.47602E-05 0.00000E+00
 -1       535 1.95768E-05-8.97968E-06 0.00000E+00
 -1       536 5.79199E-05 1.63123E-06 1.65436E-24
 -1       537 5.79097E-05 4.70832E-06 8.27181E-25
 -1       538 5.79013E-05 6.90626E-06-8.27181E-25
 -1       539 5.78954E-05 8.31254E-06 0.00000E+00
 -1       540 5.78903E-05 9.02282E-06 0.00000E+00
 -1       541 5.78856E-05 9.13293E-06 0.00000E+00
 -1       542 5.78809E-05 8.74475E-06 0.00000E+00
 -1       543 5.78760E-05 7.96027E-06-1.03398E-25
 -1       544 5.78708E-05 6.88546E-06 0.00000E+00
 -1       545 5.78655E-05 5.62634E-06 0.00000E+00
 -1       546 5.78601E-05 4.29078E-06-1.03398E-25
 -1       547 5.78548E-05 2.98669E-06 0.00000E+00
 -1       548 5.78497E-05 1.82163E-06-2.58494E-26
 -1       549 5.78450E-05 9.03160E-07 0.00000E+00
 -1       550 5.78405E-05 3.36390E-07 4.13590E-25
 -1       551 5.22189E-05-2.53914E-06-3.30872E-24
 -1       552 4.53771E-05-2.67056E-06 0.00000E+00
 -1       553 3.78108E-05-2.80698E-06 3.30872E-24
 -1       554 2.99226E-05-2.94767E-06 0.00000E+00
 -1       555 2.21150E-05-3.08994E-06 1.32349E-23
 -1       556 5.64380E-05 1.47912E-06 0.00000E+00
 -1       557 5.52905E-05 4.45421E-06 0.00000E+00
 -1       558 5.44583E-05 6.59741E-06 0.00000E+00
 -1       559 5.39061E-05 7.99985E-06 0.00000E+00
 -1       560 5.35988E-05 8.75243E-06 0.00000E+00
 -1       561 5.35014E-05 8.94655E-06 0.00000E+00
 -1       562 5.35793E-05 8.67368E-06-6.61744E-24
 -1       563 5.37979E-05 8.02538E-06 0.00000E+00
 -1       564 5.41227E-05 7.09328E-06-3.30872E-24
 -1       565 5.45194E-05 5.96901E-06 0.00000E+00
 -1       566 5.49538E-05 4.74428E-06 0.00000E+00
 -1       567 5.53914E-05 3.51078E-06 2.06795E-25
 -1       568 5.57980E-05 2.36019E-06 0.00000E+00
 -1       569 5.61393E-05 1.38408E-06 0.00000E+00
 -1       570 5.63811E-05 6.74074E-07 0.00000E+00
 -1       571 5.78858E-05 2.96342E-07-6.20385E-25
 -1       572 5.79354E-05 3.32774E-07-6.20385E-25
 -1       573 5.79853E-05 3.41587E-07 8.27181E-25
 -1       574 5.80354E-05 3.29047E-07 4.13590E-25
 -1       575 5.80855E-05 3.01446E-07 8.27181E-25
 -1       576 5.81356E-05 2.65116E-07 8.27181E-25
 -1       577 5.81858E-05 2.26395E-07 0.00000E+00
 -1       578 5.82359E-05 1.91626E-07 0.00000E+00
 -1       579 5.82860E-05 1.67150E-07 0.00000E+00
 -1       580 5.83362E-05 1.59311E-07 0.00000E+00
 -1       581 5.83863E-05 1.74451E-07 0.00000E+00
 -1       582 5.84365E-05 2.18904E-07 0.00000E+00
 -1       583 5.84866E-05 2.99001E-07 0.00000E+00
 -1       584 5.85367E-05 4.21006E-07 0.00000E+00
 -1       585 5.85868E-05 5.91151E-07 0.00000E+00
 -1       586 5.75956E-05 2.42884E-07-8.27181E-25
 -1       587 5.73331E-05 2.59005E-07 2.06795E-25
 -1       588 5.70703E-05 2.74946E-07 0.00000E+00
 -1       589 5.68283E-05 2.90633E-07 0.00000E+00
 -1       590 5.66280E-05 3.05892E-07 0.00000E+00
 -1       591 5.77879E-05 3.21657E-07-5.16988E-26
 -1       592 5.77469E-05 3.89365E-07 0.00000E+00
 -1       593 5.77141E-05 4.34675E-07 0.00000E+00
 -1       594 5.76877E-05 4.62290E-07 0.00000E+00
 -1       595 5.76662E-05 4.76974E-07 0.00000E+00
 -1       596 5.76477E-05 4.83454E-07 0.00000E+00
 -1       597 5.76304E-05 4.86458E-07 0.00000E+00
 -1       598 5.76127E-05 4.90708E-07 0.00000E+00
 -1       599 5.75928E-05 5.00927E-07 0.00000E+00
 -1       600 5.75688E-05 5.21838E-07-1.03398E-25
 -1       601 5.75391E-05 5.58162E-07-4.13590E-25
 -1       602 5.75019E-05 6.14627E-07 2.06795E-25
 -1       603 5.74554E-05 6.95960E-07 1.03398E-25
 -1       604 5.73980E-05 8.06926E-07 0.00000E+00
 -1       605 5.73279E-05 9.52226E-07 0.00000E+00
 -1       606 5.86459E-05 1.15254E-06 0.00000E+00
 -1       607 5.86533E-05 1.56044E-06 0.00000E+00
 -1       608 5.86603E-05 2.03474E-06 0.00000E+00
 -1       609 5.86670E-05 2.57076E-06 0.00000E+00
 -1       610 5.86736E-05 3.16383E-06 0.00000E+00
 -1       611 5.86801E-05 3.80918E-06 0.00000E+00
 -1       612 5.86865E-05 4.50205E-06 0.00000E+00
 -1       613 5.86930E-05 5.23767E-06 0.00000E+00
 -1       614 5.86994E-05 6.01129E-06 1.65436E-24
 -1       615 5.87058E-05 6.81812E-06 0.00000E+00
 -1       616 5.87121E-05 7.65341E-06 8.27181E-25
 -1       617 5.87185E-05 8.51238E-06 0.00000E+00
 -1       618 5.87248E-05 9.39028E-06 0.00000E+00
 -1       619 5.87310E-05 1.02823E-05 0.00000E+00
 -1       620 5.87372E-05 1.11838E-05 0.00000E+00
 -1       621 5.83692E-05 8.68874E-07 0.00000E+00
 -1       622 5.81214E-05 9.22825E-07 8.27181E-25
 -1       623 5.78893E-05 9.76769E-07 0.00000E+00
 -1       624 5.76688E-05 1.03063E-06-8.27181E-25
 -1       625 5.74555E-05 1.08439E-06 0.00000E+00
 -1       626 5.85675E-05 1.16937E-06 0.00000E+00
 -1       627 5.84768E-05 1.58191E-06 0.00000E+00
 -1       628 5.83663E-05 2.04737E-06 0.00000E+00
 -1       629 5.82382E-05 2.55999E-06 0.00000E+00
 -1       630 5.80945E-05 3.11396E-06 0.00000E+00
 -1       631 5.79375E-05 3.70347E-06 0.00000E+00
 -1       632 5.77694E-05 4.32267E-06 0.00000E+00
 -1       633 5.75923E-05 4.96576E-06-8.27181E-25
 -1       634 5.74084E-05 5.62689E-06 0.00000E+00
 -1       635 5.72199E-05 6.30023E-06 0.00000E+00
 -1       636 5.70290E-05 6.97997E-06-1.65436E-24
 -1       637 5.68379E-05 7.66027E-06 0.00000E+00
 -1       638 5.66487E-05 8.33529E-06 0.00000E+00
 -1       639 5.64636E-05 8.99921E-06 0.00000E+00
 -1       640 5.62845E-05 9.64619E-06-8.27181E-25
 -1       656 5.79902E-05 1.17938E-05 0.00000E+00
 -1       657 5.75028E-05 1.14859E-05 0.00000E+00
 -1       658 5.71789E-05 1.11790E-05-6.61744E-24
 -1       659 5.69147E-05 1.08724E-05 0.00000E+00
 -1       660 5.65968E-05 1.05647E-05 3.30872E-24
 -1       661 5.84647E-05 1.29776E-05-8.27181E-25
 -1       662 5.82028E-05 1.38273E-05 0.00000E+00
 -1       663 5.79548E-05 1.46399E-05 0.00000E+00
 -1       664 5.77204E-05 1.54171E-05 0.00000E+00
 -1       665 5.74988E-05 1.61605E-05 1.65436E-24
 -1       666 5.72894E-05 1.68715E-05 0.00000E+00
 -1       667 5.70916E-05 1.75515E-05 0.00000E+00
 -1       668 5.69049E-05 1.82021E-05 0.00000E+00
 -1       669 5.67289E-05 1.88245E-05 1.65436E-24
 -1       670 5.65628E-05 1.94200E-05 8.27181E-25
 -1       671 5.64064E-05 1.99899E-05 1.65436E-24
 -1       672 5.62591E-05 2.05353E-05 0.00000E+00
 -1       673 5.61205E-05 2.10575E-05 0.00000E+00
 -1       674 5.59896E-05 2.15574E-05 0.00000E+00
 -1       675 5.58669E-05 2.20362E-05 0.00000E+00
 -1       676 5.79081E-05 2.27846E-05 0.00000E+00
 -1       677 5.74753E-05 2.27260E-05 0.00000E+00
 -1       678 5.70428E-05 2.26675E-05-1.65436E-24
 -1       679 5.66107E-05 2.26092E-05 0.00000E+00
 -1       680 5.61791E-05 2.25508E-05 0.00000E+00
 -1       771 1.18385E-05 2.33602E-06-2.64698E-23
 -1       772 9.26860E-06 6.90537E-06-1.32349E-23
 -1       773 7.06197E-06 1.05167E-05 0.00000E+00
 -1       774 5.19413E-06 1.32316E-05-1.32349E-23
 -1       775 3.64113E-06 1.51127E-05-2.64698E-23
 -1       776 2.37801E-06 1.62247E-05 1.32349E-23
 -1       777 1.37957E-06 1.66331E-05 0.00000E+00
 -1       778 6.20151E-07 1.64048E-05 0.00000E+00
 -1       779 7.39093E-08 1.56079E-05 0.00000E+00
 -1       780-2.85373E-07 1.43114E-05 1.32349E-23
 -1       781-4.83998E-07 1.25851E-05-2.64698E-23
 -1       782-5.48559E-07 1.04998E-05-1.32349E-23
 -1       783-5.05702E-07 8.12656E-06 0.00000E+00
 -1       784-3.82216E-07 5.53735E-06 1.32349E-23
 -1       785-2.04992E-07 2.80424E-06 2.64698E-23
 -1       786 5.65343E-05 3.16368E-07-4.13590E-25
 -1       787 5.65814E-05 3.14989E-07 4.13590E-25
 -1       788 5.66283E-05 3.15985E-07 1.65436E-24
 -1       789 5.66758E-05 3.19753E-07-8.27181E-25
 -1       790 5.67232E-05 3.26993E-07 0.00000E+00
 -1       791 5.67707E-05 3.38412E-07 0.00000E+00
 -1       792 5.68183E-05 3.55169E-07 1.65436E-24
 -1       793 5.68659E-05 3.78437E-07 8.27181E-25
 -1       794 5.69134E-05 4.10097E-07-1.65436E-24
 -1       795 5.69610E-05 4.52046E-07 0.00000E+00
 -1       796 5.70086E-05 5.07299E-07 0.00000E+00
 -1       797 5.70561E-05 5.78904E-07 0.00000E+00
 -1       798 5.71037E-05 6.71680E-07 0.00000E+00
 -1       799 5.71511E-05 7.90495E-07 8.27181E-25
 -1       800 5.71985E-05 9.43046E-07-8.27181E-25
 -1       801 5.26736E-05 3.20515E-07 8.27181E-25
 -1       802 4.13145E-05 2.66462E-07 0.00000E+00
 -1       803 2.63923E-05 1.69634E-07 0.00000E+00
 -1       804 1.18856E-05 7.33023E-08-3.30872E-24
 -1       805 1.76334E-06 2.76099E-08 0.00000E+00
 -1       806 5.64336E-05 2.83999E-07 1.65436E-24
 -1       807 5.63750E-05 2.48095E-07-8.27181E-25
 -1       808 5.63147E-05 2.15709E-07 0.00000E+00
 -1       809 5.62516E-05 1.89980E-07 8.27181E-25
 -1       810 5.61848E-05 1.74042E-07-1.65436E-24
 -1       811 5.61131E-05 1.70984E-07 8.27181E-25
 -1       812 5.60354E-05 1.83890E-07-1.65436E-24
 -1       813 5.59506E-05 2.15838E-07 0.00000E+00
 -1       814 5.58575E-05 2.69905E-07-1.65436E-24
 -1       815 5.57549E-05 3.49165E-07-8.27181E-25
 -1       816 5.56417E-05 4.56688E-07-8.27181E-25
 -1       817 5.55168E-05 5.95547E-07 8.27181E-25
 -1       818 5.53790E-05 7.68812E-07 0.00000E+00
 -1       819 5.52272E-05 9.79541E-07 0.00000E+00
 -1       820 5.50604E-05 1.23079E-06 8.27181E-25
 -1       821 5.71785E-05 1.36337E-06-8.27181E-25
 -1       822 5.71077E-05 1.61290E-06-8.27181E-25
 -1       823 5.70372E-05 1.90459E-06 0.00000E+00
 -1       824 5.69659E-05 2.25723E-06-8.27181E-25
 -1       825 5.68945E-05 2.68046E-06 0.00000E+00
 -1       826 5.68229E-05 3.18369E-06 0.00000E+00
 -1       827 5.67513E-05 3.76434E-06 0.00000E+00
 -1       828 5.66796E-05 4.41961E-06 8.27181E-25
 -1       829 5.66079E-05 5.13546E-06 0.00000E+00
 -1       830 5.65361E-05 5.89771E-06 8.27181E-25
 -1       831 5.64644E-05 6.68519E-06 0.00000E+00
 -1       832 5.63928E-05 7.47668E-06 0.00000E+00
 -1       833 5.63213E-05 8.25033E-06 1.65436E-24
 -1       834 5.62505E-05 8.98437E-06-8.27181E-25
 -1       835 5.61796E-05 9.66292E-06 0.00000E+00
 -1       836 5.69593E-05 1.20177E-06 1.65436E-24
 -1       837 5.65877E-05 1.26786E-06 0.00000E+00
 -1       838 5.61620E-05 1.33384E-06 0.00000E+00
 -1       839 5.57140E-05 1.39939E-06-4.13590E-25
 -1       840 5.52756E-05 1.46484E-06 2.06795E-25
 -1       856 5.60926E-05 1.08837E-05-2.06795E-25
 -1       857 5.60701E-05 1.15749E-05 0.00000E+00
 -1       858 5.60477E-05 1.23317E-05 0.00000E+00
 -1       859 5.60248E-05 1.31418E-05 0.00000E+00
 -1       860 5.60018E-05 1.39926E-05 0.00000E+00
 -1       861 5.59788E-05 1.48720E-05 0.00000E+00
 -1       862 5.59557E-05 1.57673E-05 0.00000E+00
 -1       863 5.59326E-05 1.66661E-05-4.13590E-25
 -1       864 5.59095E-05 1.75561E-05 0.00000E+00
 -1       865 5.58864E-05 1.84246E-05-4.13590E-25
 -1       866 5.58634E-05 1.92594E-05-8.27181E-25
 -1       867 5.58403E-05 2.00480E-05 0.00000E+00
 -1       868 5.58174E-05 2.07780E-05 0.00000E+00
 -1       869 5.57944E-05 2.14371E-05-4.13590E-25
 -1       870 5.57715E-05 2.20131E-05 0.00000E+00
 -1       871 5.56458E-05 1.02697E-05 0.00000E+00
 -1       872 5.52535E-05 1.02675E-05 0.00000E+00
 -1       873 5.49038E-05 1.02650E-05 0.00000E+00
 -1       874 5.45640E-05 1.02622E-05-5.16988E-26
 -1       875 5.42017E-05 1.02590E-05-2.06795E-25
 -1       876 5.59508E-05 1.08901E-05 0.00000E+00
 -1       877 5.57761E-05 1.15479E-05 0.00000E+00
 -1       878 5.55891E-05 1.22389E-05 1.65436E-24
 -1       879 5.53913E-05 1.29590E-05-8.27181E-25
 -1       880 5.51842E-05 1.37038E-05-1.65436E-24
 -1       881 5.49695E-05 1.44691E-05 8.27181E-25
 -1       882 5.47487E-05 1.52506E-05 0.00000E+00
 -1       883 5.45234E-05 1.60441E-05-8.27181E-25
 -1       884 5.42952E-05 1.68453E-05 1.65436E-24
 -1       885 5.40657E-05 1.76499E-05 8.27181E-25
 -1       886 5.38365E-05 1.84537E-05 1.65436E-24
 -1       887 5.36091E-05 1.92523E-05 0.00000E+00
 -1       888 5.33852E-05 2.00417E-05-1.65436E-24
 -1       889 5.31660E-05 2.08173E-05 0.00000E+00
 -1       890 5.29532E-05 2.15749E-05 8.27181E-25
 -1       891 5.53327E-05 2.24629E-05 0.00000E+00
 -1       892 5.49036E-05 2.24320E-05 4.13590E-25
 -1       893 5.44456E-05 2.24010E-05 4.13590E-25
 -1       894 5.39435E-05 2.23701E-05 0.00000E+00
 -1       895 5.33818E-05 2.23393E-05-4.13590E-25
 -1       956 5.48112E-05 1.90914E-06 1.65436E-24
 -1       957 5.47431E-05 2.33680E-06 0.00000E+00
 -1       958 5.46747E-05 2.80397E-06 0.00000E+00
 -1       959 5.46062E-05 3.30579E-06 8.27181E-25
 -1       960 5.45376E-05 3.83742E-06 1.65436E-24
 -1       961 5.44690E-05 4.39395E-06-8.27181E-25
 -1       962 5.44004E-05 4.97051E-06 1.65436E-24
 -1       963 5.43317E-05 5.56221E-06 0.00000E+00
 -1       964 5.42631E-05 6.16415E-06 0.00000E+00
 -1       965 5.41945E-05 6.77144E-06 8.27181E-25
 -1       966 5.41258E-05 7.37918E-06-1.65436E-24
 -1       967 5.40572E-05 7.98249E-06 8.27181E-25
 -1       968 5.39886E-05 8.57647E-06 1.65436E-24
 -1       969 5.39202E-05 9.15624E-06 8.27181E-25
 -1       970 5.38519E-05 9.71694E-06 0.00000E+00
 -1       971 5.37206E-05 1.08053E-05 0.00000E+00
 -1       972 5.36556E-05 1.14144E-05 0.00000E+00
 -1       973 5.35904E-05 1.20748E-05 1.65436E-24
 -1       974 5.35252E-05 1.27800E-05-8.27181E-25
 -1       975 5.34599E-05 1.35232E-05 0.00000E+00
 -1       976 5.33945E-05 1.42979E-05 8.27181E-25
 -1       977 5.33292E-05 1.50973E-05-1.65436E-24
 -1       978 5.32638E-05 1.59149E-05 0.00000E+00
 -1       979 5.31984E-05 1.67439E-05-1.65436E-24
 -1       980 5.31330E-05 1.75778E-05 0.00000E+00
 -1       981 5.30677E-05 1.84098E-05 1.65436E-24
 -1       982 5.30023E-05 1.92333E-05 0.00000E+00
 -1       983 5.29371E-05 2.00416E-05 0.00000E+00
 -1       984 5.28722E-05 2.08282E-05 0.00000E+00
 -1       985 5.28076E-05 2.15862E-05 1.65436E-24
 -3
    1PSTEP                         6           3           1          
  100CL  103 3.75000E-01         409                     0    3           1
 -4  STRESS      6    1
 -5  SXX         1    4    1    1
 -5  SYY         1    4    2    2
 -5  SZZ         1    4    3    3
 -5  SXY         1    4    1    2
 -5  SYZ         1    4    2    3
 -5  SZX         1    4    3    1
 -1         1-1.29408E+06-5.95017E+05-2.63779E+05-8.37616E+05 3.45608E-10-1.33150E-09
 -1         2 2.17684E+03 2.49000E+05 7.11882E+03 6.00649E+02-1.29262E-10 3.21273E-09
 -1         3-4.73551E+01-5.44043E+05 1.26357E+02-1.49861E+02-4.54783E-11 1.85264E-09
 -1         5-4.48452E+00 1.94922E+05 5.06464E+00 2.15857E-02 8.53741E-11 4.45543E-08
 -1         8-6.09124E+05-2.65454E+05-2.05262E+04-4.62466E+05 3.38332E-10-1.30967E-10
 -1         9-1.04581E+06-2.67877E+05-1.03151E+05-3.59553E+05 2.86673E-09 4.81668E-09
 -1        10-4.22862E+02-5.66778E+05-7.28903E+02-1.00615E+03-2.56068E-09 2.07145E-09
 -1        12-2.40727E+00 1.94932E+05 1.64237E+02 4.26218E-01 1.21588E-10 6.73208E-09
 -1        15 1.61343E+03 8.86670E+02 5.21540E+03 2.73782E+00-2.99053E-10-7.90405E-08
 -1        16-2.95001E+06-9.47549E+05-4.58772E+05-9.62451E+05 8.60988E-09-5.81106E-09
 -1        17-6.51318E+05-4.00009E+05-1.25441E+05-3.76203E+05-4.41432E-09 2.02854E-09
 -1        18 2.14535E+04 1.65859E+03-9.63996E+03-4.60162E+04 5.86397E-10-1.00295E-09
 -1        19 6.14114E+04 7.29775E+04-3.37220E+02 1.19595E+04-4.23279E-10 8.09450E-10
 -1        20-2.55261E+04-2.89061E+05-6.37546E+04 2.13520E+04 2.68847E-09 1.30361E-10
 -1        21-2.73056E+01-1.67440E+05-5.40755E+02-4.97265E+01-5.53203E-09 2.27892E-09
 -1        24-2.59868E+06-8.91590E+05-3.70294E+05-1.08617E+06-1.21072E-08-5.19988E-09
 -1        25 2.37107E+04-1.64003E+03 1.40609E+04-8.30548E+04 3.10229E-10 1.59034E-09
 -1        26-1.38463E+04 5.00165E+04-9.80894E+03-7.19665E+03 1.22764E-09 1.48657E-09
 -1        27-4.62584E+04-1.58601E+05-5.94812E+04 3.57184E+04 4.65108E-09-8.22183E-10
 -1        28 1.29505E+04-4.62597E+04 9.45547E+03 1.48195E+04 1.59275E-09-1.33792E-10
 -1        32-6.16199E+05-8.61032E+04 2.68047E+05-4.17036E+05-1.22745E-08 1.19914E-08
 -1        33-9.05812E+04 4.67211E+04 1.65453E+04-2.71843E+04 8.84124E-10 3.62888E-10
 -1        34-1.17696E+05-1.17377E+04 2.77509E+02 3.62194E+04 3.73191E-09 1.53977E-09
 -1        35-1.31735E+04-1.83910E+04-7.18894E+02 2.91644E+04 3.52401E-09 1.32786E-10
 -1        51 1.13955E+04-3.03372E+05 2.87801E+04-7.55960E+05 1.45519E-10-8.46921E-09
 -1        52 6.55566E+03-3.01771E+05 1.92398E+04-8.81698E+05 4.94765E-10-8.22183E-09
 -1        53 4.64430E+03-3.10522E+05 1.68556E+04-7.53365E+05 2.91038E-10-2.25555E-09
 -1        54 1.39776E+04-3.08615E+05 2.74777E+04-8.84432E+05 1.60071E-10-4.75848E-09
 -1        55 2.93084E+04-3.18883E+05 4.94457E+04-7.52990E+05 9.24047E-10 3.37241E-09
 -1        56-2.48520E+06-2.80612E+05-1.94303E+05-9.58118E+05-1.93177E-09-8.37463E-09
 -1        57-2.56226E+06-4.57347E+05-1.30963E+05-9.51749E+05-7.74889E-10 3.05590E-10
 -1        58-2.52435E+06-3.42021E+05-4.57305E+04-9.45780E+05-5.77529E-10 7.90351E-09
 -1        59-2.51693E+06-3.85369E+05-2.72992E+04-9.66583E+05-1.16950E-09 8.54925E-10
 -1        60-2.53015E+06-3.50505E+05-1.06841E+04-9.44026E+05 1.15688E-09 6.11362E-09
 -1        61-2.51096E+06-3.74669E+05-6.07406E+03-9.67729E+05-9.82197E-10 3.47814E-09
 -1        62-2.53023E+06-3.52463E+05-2.93083E+03-9.44706E+05-1.63936E-10 1.50960E-09
 -1        63-2.51242E+06-3.71024E+05-2.40179E+03-9.65097E+05 8.57995E-10 1.49430E-09
 -1        64-2.52861E+06-3.54162E+05-2.77708E+03-9.46621E+05 1.02182E-09 8.82346E-09
 -1        65-2.51703E+06-3.68108E+05-5.53151E+03-9.60245E+05-4.82942E-10 1.12368E-09
 -1        66-2.52555E+06-3.55455E+05-9.76815E+03-9.49495E+05-2.69210E-10-5.89534E-09
 -1        67-2.52784E+06-3.72312E+05-2.47531E+04-9.52846E+05 5.04997E-10 4.83851E-09
 -1        68-2.51782E+06-3.50232E+05-4.15818E+04-9.53909E+05 1.30876E-09-3.87081E-09
 -1        69-2.57318E+06-4.33576E+05-1.18895E+05-9.34785E+05 3.29237E-10-5.23869E-09
 -1        70-2.48062E+06-2.96053E+05-1.76492E+05-9.66910E+05-1.79716E-09-2.18279E-11
 -1        86-1.09244E+03 2.46762E+05 7.61753E+03-3.00342E+02 9.36097E-10-4.97073E-09
 -1        87 7.24859E+03 2.51488E+05 1.59067E+04 1.23912E+03 1.59071E-09 6.80382E-09
 -1        88-6.15039E+03 2.44276E+05 2.43359E+04-9.38829E+02 2.35923E-09 3.92299E-09
 -1        89 4.58342E+04 2.69511E+05 6.56576E+04 2.68584E+03 3.60251E-09-4.84991E-09
 -1        90-3.95547E+04 2.28754E+05 9.27177E+04-1.74668E+03 4.19823E-09-2.34104E-09
 -1       121-7.88099E+01-5.44281E+05 1.13014E+02 7.48616E+01 2.99572E-10 3.75621E-09
 -1       122-5.72785E+00-5.44016E+05 2.75103E+02-2.99783E+02-1.00639E-09-3.62706E-09
 -1       123-1.08537E+02-5.44310E+05 4.38252E+02 2.24513E+02 8.04107E-10-3.26509E-09
 -1       124 5.01563E+02-5.43707E+05 1.15180E+03-6.94507E+02-1.87072E-09 8.71569E-09
 -1       125-4.37249E+02-5.44597E+05 1.75933E+03 4.69498E+02 1.41972E-09 6.66569E-09
 -1       191-4.87555E+00 1.94938E+05 6.01218E+00-1.12600E-02 1.29952E-10 1.38521E-08
 -1       192-4.95007E+00 1.94922E+05 1.07258E+01 4.29594E-01 1.96280E-10-9.50763E-09
 -1       193-6.11339E+00 1.94938E+05 1.99071E+01-4.21495E-01 2.25516E-10-7.57518E-09
 -1       194-6.44829E+00 1.94924E+05 4.05766E+01 1.12760E+00 1.32613E-10-3.11275E-10
 -1       195-8.49247E+00 1.94937E+05 7.93304E+01-7.14392E-01 3.72239E-10 2.93039E-09
 -1       251 2.23028E+05-3.84202E+04 8.97007E+04 3.81026E+03 1.92131E-10 1.77897E-09
 -1       252 2.63962E+05 4.44483E+04 6.36522E+04-1.21791E+04-1.14855E-09-4.54747E-10
 -1       253 2.38518E+05-5.94789E+03 2.32156E+04 2.57324E+03 2.07251E-10-5.84714E-09
 -1       254 2.45706E+05 6.87124E+03 1.46815E+04-1.02320E+04-9.29219E-10-9.42237E-09
 -1       255 2.41206E+05-9.18467E+02 5.99866E+03 1.86339E+03 4.89422E-10-1.73554E-09
 -1       256 2.42488E+05 1.09078E+03 3.64842E+03-9.18556E+03 8.68567E-11-1.09731E-09
 -1       257 2.41702E+05-1.60455E+02 1.87721E+03 1.52676E+03 1.50777E-10 3.05801E-09
 -1       258 2.41983E+05 3.41167E+02 1.66338E+03-8.84579E+03-7.18642E-10 2.14509E-10
 -1       259 2.41701E+05-1.63516E+02 1.90615E+03 1.52363E+03-4.44061E-10 2.90470E-10
 -1       260 2.42498E+05 1.11765E+03 3.73056E+03-9.17367E+03 2.42906E-10-1.79875E-09
 -1       261 2.41197E+05-9.41932E+02 6.14901E+03 1.85462E+03 8.38327E-10-5.69480E-09
 -1       262 2.45784E+05 7.04828E+03 1.50521E+04-1.02061E+04 1.54017E-10 2.41812E-09
 -1       263 2.38448E+05-6.10030E+03 2.38141E+04 2.55612E+03-1.69962E-11 4.56475E-09
 -1       264 2.64478E+05 4.55896E+04 6.52763E+04-1.21371E+04-2.39459E-09 7.85167E-09
 -1       265 2.22581E+05-3.94035E+04 9.20137E+04 3.78541E+03-8.92555E-10 3.80169E-09
 -1       266-2.92081E+04-1.36568E+04 6.85346E+04-5.85839E+01-5.12955E-10-1.28451E-07
 -1       267 3.38607E+04 1.59186E+04 4.84371E+04 6.75902E+01-1.01591E-09-2.61781E-07
 -1       268-4.54063E+03-2.25445E+03 1.80040E+04-8.61239E+00-7.65795E-10-2.14530E-07
 -1       269 5.36117E+03 2.69817E+03 1.17022E+04 1.00319E+01-6.36987E-10-1.56320E-07
 -1       270-8.04719E+02-4.43328E+02 5.64881E+03-1.36141E+00-4.23597E-10-1.09266E-07
 -1       271-2.87146E+06-3.58333E+05-2.21137E+05-1.11877E+06 5.49335E-10-5.67525E-09
 -1       272-2.93430E+06-5.35975E+05-1.42150E+05-1.13549E+06-7.40329E-10-1.27184E-08
 -1       273-2.91393E+06-4.12517E+05-5.22374E+04-1.10796E+06 8.75843E-10-2.71393E-09
 -1       274-2.88456E+06-4.69720E+05-2.92249E+04-1.15230E+06 8.96762E-10-2.98314E-10
 -1       275-2.92073E+06-4.17117E+05-1.21509E+04-1.10507E+06 8.67658E-10-2.36923E-09
 -1       276-2.87650E+06-4.64395E+05-6.45162E+03-1.15700E+06 1.13141E-09-1.58059E-09
 -1       277-2.92237E+06-4.16799E+05-3.15620E+03-1.10388E+06-1.95087E-10 9.15179E-10
 -1       278-2.87495E+06-4.64561E+05-2.29392E+03-1.15843E+06 1.37823E-09 5.69264E-09
 -1       279-2.92247E+06-4.16762E+05-2.46224E+03-1.10381E+06-4.22460E-10-3.54999E-09
 -1       280-2.87603E+06-4.64291E+05-4.51085E+03-1.15733E+06-1.65051E-09 5.20595E-09
 -1       281-2.92114E+06-4.17209E+05-8.26616E+03-1.10484E+06-4.10182E-10 3.38969E-09
 -1       282-2.88206E+06-4.67169E+05-1.97160E+04-1.15326E+06-4.88399E-10 1.08230E-09
 -1       283-2.91604E+06-4.14675E+05-3.52378E+04-1.10737E+06 1.30831E-09-3.63616E-09
 -1       284-2.91667E+06-5.10501E+05-9.57421E+04-1.14030E+06 5.80485E-10-3.61979E-09
 -1       285-2.88663E+06-3.79054E+05-1.49080E+05-1.11556E+06 1.20781E-09-4.07454E-10
 -1       301 1.10306E+04-6.67130E+03 8.58555E+04-2.13703E+04-9.05857E-10 3.59000E-09
 -1       302 1.18641E+04 1.51013E+04 6.20640E+04-3.14682E+04 1.18303E-09 3.40731E-09
 -1       303 5.46697E+02 1.02994E+03 5.72392E+04-2.14279E+04-7.88532E-10-4.77030E-10
 -1       304 2.24236E+04 2.48478E+04 9.63995E+04-3.13771E+04 1.20781E-09 5.19094E-10
 -1       305 2.22155E+04-1.63475E+04 1.61848E+05-2.13931E+04-7.05768E-10-6.28461E-10
 -1       306-3.08204E+06-3.56903E+05-2.35190E+05-1.20544E+06 1.67711E-09-1.01136E-08
 -1       307-3.20425E+06-5.54473E+05-1.60331E+05-1.16322E+06 2.45200E-09 4.79849E-09
 -1       308-3.13700E+06-4.28519E+05-5.53554E+04-1.18168E+06 8.35826E-10 7.31961E-09
 -1       309-3.13526E+06-4.76581E+05-3.34737E+04-1.19741E+06-3.99694E-10-3.65617E-10
 -1       310-3.15074E+06-4.33356E+05-1.29976E+04-1.17175E+06-1.02929E-09 1.92904E-09
 -1       311-3.11726E+06-4.73310E+05-7.50990E+03-1.21191E+06 3.86132E-09 2.75850E-09
 -1       312-3.15512E+06-4.31459E+05-3.67563E+03-1.16736E+06-7.36151E-10 2.28772E-09
 -1       313-3.11373E+06-4.74319E+05-3.31037E+03-1.21537E+06-2.67272E-09 4.81663E-09
 -1       314-3.15432E+06-4.32278E+05-3.99237E+03-1.16835E+06-3.54555E-09-2.91925E-09
 -1       315-3.12033E+06-4.70532E+05-8.37740E+03-1.20822E+06-1.09327E-09 5.26586E-09
 -1       316-3.14840E+06-4.35370E+05-1.46923E+04-1.17440E+06 1.11459E-09 5.45606E-09
 -1       317-3.14164E+06-4.73458E+05-3.78655E+04-1.19097E+06-7.69262E-10-3.35240E-09
 -1       318-3.13291E+06-4.29701E+05-6.26380E+04-1.18540E+06-3.69982E-09 3.83079E-09
 -1       319-3.21866E+06-5.63023E+05-1.81530E+05-1.15403E+06-9.78616E-10-2.13913E-09
 -1       320-3.07180E+06-3.47364E+05-2.66140E+05-1.21085E+06 6.21731E-09-2.76486E-09
 -1       336 4.10295E+02-5.89218E+05-3.15366E+03 5.35759E+02-5.19253E-09-4.08181E-09
 -1       337-1.14193E+03-5.90051E+05-3.45531E+03-1.40495E+03-9.69203E-09 6.27597E-09
 -1       338 2.68868E+02-5.89308E+05-4.37078E+03 8.66620E+02-6.70775E-09 6.42103E-09
 -1       339-4.51993E+03-5.92131E+05-9.56391E+03-2.05948E+03-1.27211E-08 6.36101E-09
 -1       340 3.06139E+03-5.87172E+05-1.47480E+04 1.18617E+03-8.64384E-09 6.54654E-09
 -1       406 1.00956E+01 1.94929E+05 3.24206E+02 2.75927E-01 4.43094E-10-2.59479E-09
 -1       407 1.10653E+02 1.94989E+05 6.89158E+02-7.63744E+00 1.14511E-10-5.40058E-09
 -1       408 3.52307E+02 1.94880E+05 1.37635E+03 7.46706E+00 5.79348E-10-3.59159E-09
 -1       409 1.48604E+03 1.95429E+05 3.09872E+03-6.95919E+01-4.51337E-11-2.67028E-09
 -1       410 4.27397E+03 1.94488E+05 6.32591E+03 6.41414E+01 5.11136E-10-7.62248E-09
 -1       521-5.83624E+06-6.74153E+05-4.37402E+05-2.27031E+06 5.36966E-09-5.79166E-09
 -1       522-6.03940E+06-1.05639E+06-2.96845E+05-2.21686E+06-1.20690E-09-2.88128E-09
 -1       523-5.94549E+06-7.97127E+05-1.02879E+05-2.21725E+06 1.53977E-09-5.83532E-09
 -1       524-5.90372E+06-9.22710E+05-6.18345E+04-2.29131E+06 2.88082E-09 3.06318E-09
 -1       525-5.97151E+06-8.04109E+05-2.39422E+04-2.19731E+06 1.09071E-09 2.52930E-09
 -1       526-5.87738E+06-9.10388E+05-1.37789E+04-2.31034E+06 4.71118E-10-3.33000E-09
 -1       527-5.97201E+06-8.08686E+05-6.67744E+03-2.19863E+06 2.23690E-09 4.21409E-09
 -1       528-5.89159E+06-8.89603E+05-5.42695E+03-2.28955E+06 2.63617E-09 2.76486E-09
 -1       529-5.95663E+06-8.25278E+05-6.98364E+03-2.21765E+06 6.67114E-10-1.72804E-11
 -1       530-5.93166E+06-8.52823E+05-1.32033E+04-2.24250E+06-5.49835E-09-1.18871E-09
 -1       531-5.93130E+06-8.45993E+05-2.42264E+04-2.24517E+06-1.49385E-09-1.10776E-09
 -1       532-5.99148E+06-8.33459E+05-6.12106E+04-2.18898E+06 2.42247E-09-1.18671E-08
 -1       533-5.89746E+06-8.44822E+05-1.01952E+05-2.27137E+06 1.95905E-09-7.04313E-09
 -1       534-6.12110E+06-9.75254E+05-2.95097E+05-2.12815E+06 2.69210E-09 5.74801E-09
 -1       535-5.80369E+06-7.06775E+05-4.33657E+05-2.30575E+06-8.81846E-09 6.98492E-09
 -1       536-2.09078E+04-1.60168E+04 3.68651E+04 2.91942E+02-1.26093E-09 1.18234E-09
 -1       537-3.63522E+03 1.85312E+04 2.63020E+04-1.33584E+03-6.55553E-09 1.67347E-09
 -1       538-1.45712E+04-2.51081E+03 9.50118E+03 3.01920E+02-2.48392E-10 3.07182E-09
 -1       539-1.11297E+04 2.89716E+03 6.09224E+03-1.38442E+03 2.73525E-09-2.67755E-09
 -1       540-1.34226E+04-3.90849E+02 2.39365E+03 3.40521E+02 4.75836E-10 1.25704E-09
 -1       541-1.25541E+04 4.46152E+02 1.44357E+03-1.45296E+03-1.67947E-10-4.09273E-11
 -1       542-1.31527E+04-5.74953E+01 5.68743E+02 3.70449E+02-5.66175E-10 3.78191E-09
 -1       543-1.29225E+04 5.33392E+01 2.86424E+02-1.50047E+03 6.31218E-10 1.66276E-09
 -1       544-1.30583E+04 4.59941E+00 2.74184E+01 3.88024E+02 3.66740E-10-1.65961E-09
 -1       545-1.30744E+04-8.18159E+01-2.01380E+02-1.52273E+03-1.02592E-09 1.80108E-09
 -1       546-1.30026E+04 7.89637E+01-4.52295E+02 3.92711E+02 3.62601E-10-2.11770E-10
 -1       547-1.33074E+04-5.82495E+02-1.18639E+03-1.51905E+03-1.68063E-09-1.40597E-09
 -1       548-1.28250E+04 5.04675E+02-1.92481E+03 3.84347E+02-1.93527E-09-1.40449E-09
 -1       549-1.46544E+04-3.71937E+03-5.24148E+03-1.48797E+03-1.02778E-09 6.91625E-09
 -1       550-1.16530E+04 3.21153E+03-7.47361E+03 3.61623E+02 8.06466E-11 1.60935E-09
 -1       551 5.73254E+03-3.08983E+05 1.69872E+04-5.29872E+05-2.26282E-08 1.12777E-09
 -1       552 1.20528E+04-3.09751E+05 2.22730E+04-7.54089E+05-1.79498E-08 5.04951E-09
 -1       553 7.90868E+03-3.13805E+05 3.47373E+04-5.28153E+05-2.83544E-08 5.91535E-09
 -1       554 2.92971E+04-2.98969E+05 7.38199E+04-7.54813E+05-1.75205E-08 4.81145E-09
 -1       555 2.92979E+04-3.27885E+05 1.32642E+05-5.28843E+05-2.84417E-08-3.08864E-09
 -1       556 4.38822E+04-9.91613E+04 3.41486E+04-1.31848E+05-4.36557E-09 1.52795E-10
 -1       557 8.40908E+04-1.32807E+05 1.78935E+04-1.64789E+05-3.60160E-10-2.45564E-11
 -1       558 4.41432E+04-1.03941E+05 7.29797E+03-1.27711E+05-2.37924E-09 1.77170E-09
 -1       559 7.90948E+04-1.37615E+05 3.68381E+03-1.66886E+05 4.39104E-09-1.49612E-10
 -1       560 4.32538E+04-1.03337E+05 1.55557E+03-1.28242E+05 4.11819E-09 6.38465E-09
 -1       561 7.76025E+04-1.37299E+05 8.12196E+02-1.67822E+05-1.10595E-09-3.20256E-09
 -1       562 4.25158E+04-1.02832E+05 3.22592E+02-1.28777E+05 3.98359E-09 3.63912E-09
 -1       563 7.67249E+04-1.36924E+05 1.92166E+02-1.68383E+05 1.04228E-08 3.78554E-09
 -1       564 4.20574E+04-1.02533E+05 7.01355E+01-1.29104E+05 6.82667E-09-5.87579E-09
 -1       565 7.62739E+04-1.36733E+05 3.74235E+01-1.68665E+05 3.95994E-09-1.38698E-09
 -1       566 4.18994E+04-1.02426E+05-2.11626E+01-1.29220E+05 1.51704E-09 5.13410E-09
 -1       567 7.62163E+04-1.36704E+05-9.36998E+01-1.68652E+05 4.67548E-09 8.92032E-09
 -1       568 4.20674E+04-1.02537E+05-2.53453E+02-1.29149E+05-4.92946E-10 3.67982E-09
 -1       569 7.60491E+04-1.36587E+05-5.95603E+02-1.67911E+05-1.59343E-09 1.01863E-10
 -1       570 4.29751E+04-1.03399E+05-1.24329E+03-1.29193E+05-2.80124E-09-1.15838E-08
 -1       571 1.42954E+05 5.16846E+03 7.74300E+03-3.56265E+04 4.57476E-10 1.61458E-09
 -1       572 1.44116E+05 1.78633E+03 3.79665E+03-3.91237E+04-1.31877E-10-6.41285E-09
 -1       573 1.43424E+05 4.17525E+02 1.68742E+03-3.55318E+04-1.04183E-09-4.13456E-09
 -1       574 1.43561E+05 1.34114E+02 8.45967E+02-3.92296E+04-2.88082E-10-5.13637E-09
 -1       575 1.43477E+05 1.65631E+01 3.99155E+02-3.55194E+04 4.66116E-11-6.72617E-09
 -1       576 1.43486E+05 3.90396E+00 2.03314E+02-3.92436E+04 1.03739E-09-6.38056E-09
 -1       577 1.43484E+05-3.59787E+00 1.00419E+02-3.55178E+04-1.16643E-10-3.88991E-09
 -1       578 1.43478E+05-1.81456E+00 5.51519E+01-3.92453E+04 4.71118E-10 1.93495E-09
 -1       579 1.43491E+05-4.07905E+00 3.45532E+01-3.55177E+04-4.20187E-10-3.86126E-09
 -1       580 1.43487E+05-4.84399E+00 3.35323E+01-3.92432E+04-8.53106E-10 4.41332E-09
 -1       581 1.43503E+05-7.60955E+00 4.70460E+01-3.55199E+04-6.29370E-10-1.56138E-09
 -1       582 1.43511E+05 2.89089E-01 9.05144E+01-3.92220E+04 9.49512E-10-2.62048E-09
 -1       583 1.43516E+05 2.37199E+01 1.74544E+02-3.55389E+04 6.21185E-10-8.84825E-10
 -1       584 1.43591E+05 1.59504E+02 3.91210E+02-3.90618E+04-1.59343E-09 1.73623E-09
 -1       585 1.43489E+05 5.03092E+02 7.94621E+02-3.56803E+04-5.90262E-10 3.02771E-09
 -1       586-1.76543E+03 4.59629E+04-2.34294E+03-1.21071E+05 3.89264E-10-1.76362E-09
 -1       587-3.87141E+02 4.56485E+04-2.91455E+02-1.33229E+05 6.47560E-10-4.24518E-09
 -1       588 4.74496E+02 4.57128E+04 1.59396E+03-1.20997E+05 3.50155E-10 5.31008E-09
 -1       589 2.39270E+03 4.65902E+04 4.68346E+03-1.33118E+05 5.49335E-10-4.00178E-11
 -1       590 6.88062E+03 4.51329E+04 1.00441E+04-1.21182E+05 2.70120E-10 1.22691E-09
 -1       591-3.11189E+04-8.94127E+03-1.03178E+04-1.61841E+04 5.28928E-10-2.25691E-09
 -1       592-3.20657E+04-1.14947E+04-5.58854E+03-1.88972E+04 1.93950E-10 1.10322E-09
 -1       593-3.21624E+04-8.18067E+03-2.32656E+03-1.69287E+04-3.19233E-10-1.64482E-09
 -1       594-3.06273E+04-9.99550E+03-1.16037E+03-1.89691E+04 3.30147E-10 2.02235E-09
 -1       595-3.22423E+04-8.17724E+03-5.33271E+02-1.69628E+04 1.01409E-10 9.41827E-09
 -1       596-3.05299E+04-9.92684E+03-2.71842E+02-1.89589E+04 8.95227E-10-1.97673E-09
 -1       597-3.22524E+04-8.18385E+03-1.49652E+02-1.69642E+04 4.94879E-10 3.40060E-09
 -1       598-3.05207E+04-9.92421E+03-1.23283E+02-1.89561E+04-6.38465E-10 2.21041E-09
 -1       599-3.22517E+04-8.18383E+03-1.61180E+02-1.69640E+04 7.23219E-10-3.10388E-09
 -1       600-3.05312E+04-9.92769E+03-3.02420E+02-1.89588E+04-1.30854E-10-4.72585E-09
 -1       601-3.22392E+04-8.17656E+03-5.98121E+02-1.69620E+04 2.38174E-10 8.13088E-10
 -1       602-3.06408E+04-1.00047E+04-1.30445E+03-1.89691E+04 4.36387E-10-1.12590E-09
 -1       603-3.21485E+04-8.18156E+03-2.61633E+03-1.69238E+04-1.47088E-09-3.08137E-09
 -1       604-3.22635E+04-1.16851E+04-6.28497E+03-1.88810E+04-1.28836E-09 5.74664E-09
 -1       605-3.09684E+04-9.04166E+03-1.16034E+04-1.60920E+04-5.41377E-10-5.03405E-10
 -1       606 2.01955E+04-6.83328E+03-1.23087E+04 1.97194E+04-2.99860E-09-3.07409E-10
 -1       607 1.80876E+04-2.20380E+03-6.12919E+03 2.21360E+04-9.71795E-10-3.01077E-09
 -1       608 1.92871E+04-3.70580E+02-2.74439E+03 1.95620E+04 1.85355E-09-1.76760E-09
 -1       609 1.90501E+04-9.71169E+01-1.38627E+03 2.23098E+04-1.75714E-09 9.44738E-10
 -1       610 1.91801E+04 1.71181E+01-6.61930E+02 1.95444E+04-4.12729E-09-7.84667E-10
 -1       611 1.91364E+04 2.44999E+01-3.33965E+02 2.23288E+04-6.30644E-09 7.22503E-09
 -1       612 1.91536E+04 2.62026E+01-1.59672E+02 1.95427E+04-2.13095E-09-1.05524E-09
 -1       613 1.91378E+04 2.88144E+01-7.28937E+01 2.23311E+04-3.75621E-09-5.99994E-09
 -1       614 1.91399E+04 2.52602E+01-2.03741E+01 1.95421E+04 4.95675E-11-6.52881E-09
 -1       615 1.91317E+04 3.13757E+01 2.24542E+01 2.23315E+04 3.97176E-09-8.34461E-10
 -1       616 1.91294E+04 2.82281E+01 7.48315E+01 1.95422E+04-2.71484E-09-1.78261E-09
 -1       617 1.91379E+04 4.92391E+01 1.73580E+02 2.23311E+04-2.21917E-10-5.34283E-09
 -1       618 1.91121E+04 7.97374E+01 3.50970E+02 1.95423E+04-5.68434E-11-1.92699E-09
 -1       619 1.92601E+04 3.21903E+02 7.88840E+02 2.23306E+04 4.94765E-10 2.82125E-09
 -1       620 1.89943E+04 9.13535E+02 1.58576E+03 1.95417E+04 1.97599E-09-2.89310E-09
 -1       621 2.48381E+02 1.54565E+05 2.14840E+03 5.04635E+03-2.37783E-10-1.43177E-09
 -1       622 2.83697E+02 1.55097E+05 1.82073E+03 7.36747E+03-2.72507E-10-3.08637E-09
 -1       623 1.18483E+01 1.54718E+05 2.09033E+03 5.02239E+03-1.35174E-10 6.44150E-10
 -1       624 9.44762E+02 1.55704E+05 3.96634E+03 7.39115E+03-3.12696E-10 3.01580E-09
 -1       625 9.48491E+02 1.53955E+05 6.89385E+03 5.02290E+03-1.37561E-10 3.95619E-09
 -1       626 1.27142E+05 3.52060E+04 2.50117E+03 6.87347E+04-2.38924E-09 1.46247E-09
 -1       627 1.25399E+05 3.64958E+04 1.20497E+03 7.15073E+04-1.86901E-09-3.48291E-09
 -1       628 1.27240E+05 3.40204E+04 5.09130E+02 6.91115E+04 5.17684E-09 2.18370E-09
 -1       629 1.25039E+05 3.62121E+04 2.49468E+02 7.16749E+04 3.81579E-09 1.10140E-09
 -1       630 1.27248E+05 3.39632E+04 1.15481E+02 6.91224E+04-1.01772E-09-3.73205E-09
 -1       631 1.24997E+05 3.62052E+04 6.21331E+01 7.16780E+04-1.30217E-09-1.83722E-09
 -1       632 1.27243E+05 3.39669E+04 4.12205E+01 6.91177E+04-4.57885E-09-7.13425E-09
 -1       633 1.24989E+05 3.62085E+04 4.62484E+01 7.16740E+04-3.83397E-09-8.53237E-09
 -1       634 1.27237E+05 3.39670E+04 7.51260E+01 6.91150E+04 3.81146E-09-2.07399E-09
 -1       635 1.24993E+05 3.62095E+04 1.52484E+02 7.16741E+04 2.58433E-09 4.05339E-09
 -1       636 1.27229E+05 3.39663E+04 3.08109E+02 6.91128E+04-1.27977E-09 6.13841E-09
 -1       637 1.25055E+05 3.62586E+04 6.77240E+02 7.16708E+04 6.06285E-10 5.70287E-09
 -1       638 1.27202E+05 3.41176E+04 1.39197E+03 6.90429E+04-4.20937E-09-3.99814E-09
 -1       639 1.25782E+05 3.72773E+04 3.29305E+03 7.14539E+04-3.51378E-09 7.09861E-10
 -1       640 1.27103E+05 3.71494E+04 6.83410E+03 6.77552E+04-4.31555E-10 6.74959E-10
 -1       656 3.44754E+04-8.72614E+05-8.32351E+04-4.74550E+02 5.45697E-11 2.94057E-09
 -1       657-4.55538E+04-9.10199E+05-6.88344E+04 5.68295E+03 2.46018E-10 5.31383E-10
 -1       658 1.09300E+04-8.83339E+05-4.22407E+04-1.11388E+03-2.71257E-10-6.72109E-10
 -1       659-4.88361E+04-9.11748E+05-7.31453E+04 6.10598E+03-1.08230E-09-8.27778E-09
 -1       660 3.77491E+04-8.71068E+05-9.06548E+04-8.97568E+02-6.65750E-10-2.41128E-09
 -1       661 1.23690E+05 1.34475E+04 1.18626E+04 4.83107E+04 4.01337E-09-3.38514E-09
 -1       662 1.29850E+05 2.27701E+04 7.99342E+03 4.62687E+04 3.02407E-09 6.87578E-10
 -1       663 1.26013E+05 1.72602E+04 2.79617E+03 4.76428E+04-3.69482E-10-1.69678E-09
 -1       664 1.27165E+05 1.83052E+04 1.67168E+03 4.70786E+04 1.94916E-09 2.57000E-09
 -1       665 1.26358E+05 1.77871E+04 6.59458E+02 4.75481E+04-2.42133E-09-4.52303E-10
 -1       666 1.26761E+05 1.76973E+04 3.84491E+02 4.71983E+04-5.49289E-09-9.94534E-10
 -1       667 1.26414E+05 1.78522E+04 2.02736E+02 4.75291E+04-1.33478E-09-2.04183E-10
 -1       668 1.26703E+05 1.76434E+04 2.02985E+02 4.72244E+04 5.45014E-09 2.78422E-09
 -1       669 1.26416E+05 1.78395E+04 2.71993E+02 4.75225E+04 2.38607E-09 1.25982E-09
 -1       670 1.26776E+05 1.77834E+04 5.89495E+02 4.72195E+04 4.26072E-09-5.51267E-10
 -1       671 1.26342E+05 1.77151E+04 1.04587E+03 4.75329E+04-5.85427E-10 3.48393E-10
 -1       672 1.27389E+05 1.87967E+04 2.67510E+03 4.70677E+04-2.02189E-09-8.76764E-09
 -1       673 1.25806E+05 1.68517E+04 4.48281E+03 4.76645E+04-2.58854E-09 2.15482E-09
 -1       674 1.31661E+05 2.59943E+04 1.28201E+04 4.58089E+04-1.91244E-09 4.09841E-09
 -1       675 1.22098E+05 1.07188E+04 1.90288E+04 4.87159E+04 5.80712E-10-2.15095E-09
 -1       676 1.40345E+01-1.67395E+05-6.51747E+02 2.48639E+01 8.14651E-10 8.98360E-10
 -1       677-1.72988E+02-1.67553E+05-1.19274E+03-4.97142E+01-1.79456E-09-3.86429E-09
 -1       678 1.15519E+02-1.67283E+05-2.10843E+03 2.48331E+01-9.83391E-11-6.45855E-09
 -1       679-2.10874E+03-1.68826E+05-5.00845E+03-4.95856E+01-2.47041E-09-6.98892E-09
 -1       680 1.25845E+03-1.66123E+05-8.07199E+03 2.44500E+01 3.44698E-10-4.92262E-09
 -1       771-1.79986E+06-3.13601E+05-4.39270E+04-7.45321E+05-7.14135E-09-5.59521E-09
 -1       772-1.78878E+06-3.37427E+05-2.35825E+04-7.71860E+05-4.81668E-09 6.71571E-09
 -1       773-1.80575E+06-3.09032E+05-1.01582E+04-7.47781E+05-2.30648E-09 3.48882E-09
 -1       774-1.78241E+06-3.32192E+05-4.95062E+03-7.74379E+05 5.86442E-09-3.29237E-10
 -1       775-1.80704E+06-3.08226E+05-2.49488E+03-7.47935E+05-3.38332E-09-2.27010E-09
 -1       776-1.78225E+06-3.32196E+05-1.15210E+03-7.75667E+05-1.74623E-09 1.35424E-09
 -1       777-1.80790E+06-3.07612E+05-7.10741E+02-7.48003E+05-3.46699E-09 2.77032E-09
 -1       778-1.78246E+06-3.32367E+05-3.16910E+02-7.76735E+05-9.37689E-09 6.39375E-10
 -1       779-1.80858E+06-3.07089E+05-3.09762E+02-7.48063E+05-7.27960E-09-2.81943E-10
 -1       780-1.78269E+06-3.32513E+05-2.41801E+02-7.77598E+05-5.14956E-09-8.54698E-10
 -1       781-1.80908E+06-3.06670E+05-4.31245E+02-7.48106E+05-5.72254E-09-8.50378E-10
 -1       782-1.78293E+06-3.32659E+05-7.84379E+02-7.78234E+05-6.11180E-09-2.67380E-09
 -1       783-1.80938E+06-3.06397E+05-1.56984E+03-7.48119E+05-1.61162E-09-3.20955E-09
 -1       784-1.78398E+06-3.33725E+05-3.71822E+03-7.78579E+05-4.25553E-09-1.66438E-10
 -1       785-1.80887E+06-3.06751E+05-6.87517E+03-7.47633E+05-7.65976E-09 8.75843E-10
 -1       786 1.32876E+05-7.06880E+03 1.63533E+04 6.20837E-01 1.71699E-07 5.28053E-09
 -1       787 1.39962E+05 8.18344E+03 1.15698E+04-5.71575E+00 3.41158E-07 3.65162E-09
 -1       788 1.35610E+05-1.10811E+03 4.23267E+03 2.15129E+00 4.56323E-07 3.67686E-09
 -1       789 1.36778E+05 1.28216E+03 2.65947E+03-9.45164E+00 5.71365E-07 1.21628E-08
 -1       790 1.36062E+05-1.73109E+02 1.08223E+03 4.35676E+00 7.55830E-07-3.44181E-09
 -1       791 1.36251E+05 2.01160E+02 6.35625E+02-1.50422E+01 9.41303E-07 3.16078E-09
 -1       792 1.36137E+05-2.79298E+01 2.90514E+02 7.74200E+00 1.29365E-06-7.10189E-09
 -1       793 1.36166E+05 3.94278E+01 1.91225E+02-2.37517E+01 1.64313E-06 1.33172E-09
 -1       794 1.36147E+05-1.14836E+01 1.42957E+02 1.30663E+01 8.21768E-07-4.58942E-09
 -1       795 1.36175E+05 5.97496E+01 2.08678E+02-3.75211E+01 2.61764E-09 1.18499E-08
 -1       796 1.36128E+05-4.82367E+01 3.13725E+02 2.15117E+01-2.27414E-11 7.48202E-10
 -1       797 1.36318E+05 3.53727E+02 7.40671E+02-5.94126E+01-3.15460E-10-2.71429E-09
 -1       798 1.36004E+05-3.05245E+02 1.16943E+03 3.49582E+01-1.62950E-10-2.91334E-09
 -1       799 1.37195E+05 2.25381E+03 3.18835E+03-9.45117E+01 8.40039E-12 9.72932E-10
 -1       800 1.35250E+05-1.94679E+03 4.50391E+03 5.66110E+01 4.23350E-11 5.59908E-09
 -1       801-8.00351E+03 4.23029E+03 1.04858E+04 1.40507E+04 7.73252E-09-1.99816E-09
 -1       802 2.01129E+04 6.93448E+04 3.89243E+04-5.77375E+04 2.07178E-08-5.92206E-09
 -1       803-1.15331E+04 2.89922E+04 4.90278E+04 1.32253E+04 1.63400E-08 1.24586E-08
 -1       804 9.54080E+04 1.10446E+05 1.37676E+05-5.84778E+04 1.92649E-08 1.71540E-08
 -1       805-8.33404E+04-3.66625E+04 1.76766E+05 1.47892E+04 6.79574E-09 1.85090E-08
 -1       806-1.54047E+05-3.31284E+04-1.31047E+04-6.43065E+04 7.08724E-10 2.85581E-10
 -1       807-1.54799E+05-3.12710E+04-6.43803E+03-6.78032E+04 1.09480E-09 2.35008E-09
 -1       808-1.54419E+05-2.83934E+04-2.73105E+03-6.65289E+04-2.15596E-09-2.01652E-10
 -1       809-1.53424E+05-2.94840E+04-1.33514E+03-6.79897E+04-1.73691E-09 5.60681E-09
 -1       810-1.54478E+05-2.82262E+04-6.11342E+02-6.66270E+04-3.86603E-09-6.26028E-09
 -1       811-1.53319E+05-2.94134E+04-3.03192E+02-6.79743E+04-1.30854E-10 7.83064E-09
 -1       812-1.54488E+05-2.82384E+04-1.51277E+02-6.66269E+04-6.23686E-10-1.61276E-09
 -1       813-1.53306E+05-2.94151E+04-9.54461E+01-6.79664E+04 9.99535E-10-8.31551E-09
 -1       814-1.54487E+05-2.82428E+04-8.94638E+01-6.66250E+04-1.20508E-09-4.44925E-09
 -1       815-1.53308E+05-2.94166E+04-1.40096E+02-6.79645E+04-3.14276E-09-6.13170E-09
 -1       816-1.54478E+05-2.82415E+04-2.62444E+02-6.66234E+04-1.03955E-09 3.91924E-09
 -1       817-1.53353E+05-2.94416E+04-5.62812E+02-6.79601E+04 6.10498E-10 8.61417E-09
 -1       818-1.54445E+05-2.83202E+04-1.14694E+03-6.65862E+04-2.16278E-09-7.36350E-09
 -1       819-1.53987E+05-3.01295E+04-2.69960E+03-6.78067E+04 4.76348E-10 4.21915E-09
 -1       820-1.54227E+05-3.03616E+04-5.49404E+03-6.57168E+04-1.18325E-09 3.20802E-09
 -1       821-1.99457E+05 1.10760E+04-2.56166E+04 2.78580E+01-4.94082E-10-2.43745E-10
 -1       822-2.10558E+05-1.28223E+04-1.81270E+04-3.15745E+02-1.66687E-09 3.88400E-09
 -1       823-2.03741E+05 1.73632E+03-6.63484E+03-1.14134E+01 1.02871E-09 1.20963E-09
 -1       824-2.05565E+05-2.00974E+03-4.17505E+03-2.09394E+02 2.36638E-10 3.61553E-09
 -1       825-2.04449E+05 2.71810E+02-1.71540E+03-7.84970E+01-2.11613E-09 5.43537E-09
 -1       826-2.04742E+05-3.20601E+02-1.03693E+03-6.86315E+01-4.67848E-09 3.97398E-09
 -1       827-2.04564E+05 4.83897E+01-5.35376E+02-1.52178E+02-3.55091E-09-4.63100E-09
 -1       828-2.04630E+05-9.79039E+01-4.74662E+02 6.27645E+01-4.45811E-09-1.58038E-09
 -1       829-2.04561E+05 4.93046E+01-5.43046E+02-2.09896E+02 7.61524E-12 6.17462E-09
 -1       830-2.04752E+05-3.28198E+02-1.06109E+03 1.44584E+02 2.25774E-09 2.57408E-09
 -1       831-2.04442E+05 2.78584E+02-1.75648E+03-2.33999E+02-1.26908E-09 5.32623E-10
 -1       832-2.05595E+05-2.05989E+03-4.28008E+03 1.52180E+02-1.16273E-09 6.09043E-09
 -1       833-2.03719E+05 1.77975E+03-6.80094E+03-2.17491E+02-1.14787E-09-8.35826E-10
 -1       834-2.10707E+05-1.31437E+04-1.85818E+04 8.50041E+01-1.28163E-09-2.79147E-09
 -1       835-1.99330E+05 1.13537E+04-2.62604E+04-1.66818E+02 3.26610E-09 4.90945E-09
 -1       836-6.65661E+02 1.89381E+05 1.14025E+04-1.67474E+04 1.39971E-09-1.75942E-09
 -1       837 2.50927E+03 1.92912E+05 9.72693E+03-3.36464E+04 2.01294E-09-4.15230E-09
 -1       838-2.44926E+02 1.90367E+05 1.00199E+04-1.66900E+04 1.66619E-09-8.33234E-09
 -1       839 6.42634E+03 1.95836E+05 1.90625E+04-3.36671E+04 2.28010E-09-7.51236E-09
 -1       840-1.93304E+03 1.86436E+05 3.04414E+04-1.67257E+04 1.68438E-09 1.94473E-09
 -1       856-6.22925E+04 5.33292E+03-1.40528E+04-3.07524E+02-2.35332E-09-3.82897E-09
 -1       857-6.80984E+04-6.25517E+03-9.67536E+03 3.21673E+03-3.47814E-09-2.40789E-09
 -1       858-6.45863E+04 7.47369E+02-3.64709E+03-3.19320E+02-3.66910E-09-2.40743E-09
 -1       859-6.54635E+04-8.69660E+02-2.20289E+03 3.23541E+03 3.79075E-10 5.87306E-10
 -1       860-6.49294E+04 1.04033E+02-9.26266E+02-3.26281E+02-4.26525E-10 3.10138E-10
 -1       861-6.50680E+04-1.15816E+02-5.16091E+02 3.24488E+03-4.66967E-09-6.60738E-09
 -1       862-6.49828E+04 1.38783E+01-2.27582E+02-3.28809E+02 2.39807E-09-3.49519E-09
 -1       863-6.50049E+04-9.52303E+00-1.12525E+02 3.24601E+03 8.14121E-09-5.80883E-09
 -1       864-6.49926E+04 4.94721E-02-3.52761E+01-3.27415E+02 4.89140E-09-4.23102E-09
 -1       865-6.49868E+04 1.49526E+01 2.11849E+01 3.23891E+03 3.85521E-09-3.25889E-09
 -1       866-6.50000E+04-1.07713E+01 7.71134E+01-3.21709E+02-2.70791E-09-3.09361E-09
 -1       867-6.49424E+04 9.08198E+01 2.11467E+02 3.22345E+03 6.41322E-10-4.30416E-09
 -1       868-6.50354E+04-7.50944E+01 3.57110E+02-3.11958E+02 3.01014E-09 2.55081E-09
 -1       869-6.46755E+04 6.23853E+02 9.58166E+02 3.19739E+03-2.83404E-09-6.95712E-09
 -1       870-6.52643E+04-5.30260E+02 1.39025E+03-2.95648E+02 1.39499E-09-1.52085E-09
 -1       871-2.91151E+03-6.14050E+03-9.47393E+03 6.20856E+04 1.43700E-09-2.99997E-09
 -1       872-1.26622E+03-8.25643E+03-3.85946E+03 8.04891E+04 2.85263E-09-1.91267E-09
 -1       873-2.85410E+01-7.26065E+03 5.60212E+02 6.19483E+04 1.74191E-09 5.91740E-10
 -1       874 1.46031E+03-5.87960E+03 5.39483E+03 8.05180E+04 3.89673E-09 3.82806E-09
 -1       875 3.46450E+03-8.54596E+03 1.19596E+04 6.20617E+04 2.14550E-09 1.11686E-09
 -1       876 1.55384E+05 2.67862E+04 8.33295E+03 6.30532E+04-4.81469E-09-1.23600E-09
 -1       877 1.55855E+05 2.86199E+04 4.44990E+03 6.55233E+04-7.02994E-09-3.35751E-09
 -1       878 1.56163E+05 2.58633E+04 1.86435E+03 6.37372E+04 3.55044E-09 2.79567E-09
 -1       879 1.54722E+05 2.74913E+04 9.28664E+02 6.55835E+04 9.43146E-10 7.46584E-09
 -1       880 1.56221E+05 2.58525E+04 4.32364E+02 6.37651E+04 1.73759E-09-1.12266E-10
 -1       881 1.54647E+05 2.74435E+04 2.30212E+02 6.55725E+04 3.99655E-09-6.51198E-10
 -1       882 1.56227E+05 2.58590E+04 1.46175E+02 6.37659E+04 5.77802E-09 5.64597E-10
 -1       883 1.54641E+05 2.74414E+04 1.55330E+02 6.55696E+04 4.31987E-09 2.64878E-09
 -1       884 1.56224E+05 2.58571E+04 2.45480E+02 6.37660E+04-1.09014E-09-4.89763E-10
 -1       885 1.54661E+05 2.74449E+04 4.92547E+02 6.55759E+04 1.61012E-09-2.12566E-09
 -1       886 1.56205E+05 2.58427E+04 9.92264E+02 6.37640E+04-1.54871E-09 1.27852E-09
 -1       887 1.54835E+05 2.75592E+04 2.16735E+03 6.56008E+04-1.47186E-08-1.75487E-09
 -1       888 1.56068E+05 2.58670E+04 4.36730E+03 6.36947E+04-5.16479E-09 1.36424E-09
 -1       889 1.57438E+05 3.02609E+04 1.04334E+04 6.55176E+04 2.36356E-09 2.61775E-09
 -1       890 1.54287E+05 2.79812E+04 1.95406E+04 6.20293E+04 3.24007E-09-8.56744E-10
 -1       891-9.58566E+01-8.83770E+04-1.04077E+03 1.68229E+04 2.75406E-09-2.72962E-09
 -1       892-1.66736E+02-8.86275E+04-1.13344E+03 2.54592E+04 6.57110E-10-1.14835E-09
 -1       893-2.54118E+01-8.84111E+04-1.62055E+03 1.68260E+04-3.25826E-10 1.43291E-09
 -1       894-8.82745E+02-8.92540E+04-3.36607E+03 2.53692E+04 2.05955E-09-3.29078E-09
 -1       895-6.87939E+02-8.77144E+04-5.93117E+03 1.69119E+04-6.22549E-10-1.74987E-09
 -1       956-1.95199E+05-2.81941E+03-7.10024E+03 1.29551E+04-2.14914E-09-3.82897E-10
 -1       957-1.96601E+05-9.51064E+02-3.64513E+03 1.55964E+04-9.27685E-10-2.25464E-09
 -1       958-1.95827E+05-7.55883E+01-1.64210E+03 1.28706E+04 2.15368E-09-1.71030E-09
 -1       959-1.95938E+05-1.37824E+01-8.38817E+02 1.56877E+04-2.50952E-09 3.92674E-09
 -1       960-1.95881E+05 2.28155E+01-4.08784E+02 1.28628E+04-2.75577E-09-2.54022E-09
 -1       961-1.95888E+05 2.06253E+01-2.16755E+02 1.56965E+04-4.79668E-09 7.95364E-09
 -1       962-1.95891E+05 1.92363E+01-1.23693E+02 1.28617E+04-2.82398E-09 3.77065E-09
 -1       963-1.95885E+05 2.09810E+01-9.86691E+01 1.56979E+04-2.60184E-09 2.94483E-09
 -1       964-1.95893E+05 2.03028E+01-1.18939E+02 1.28613E+04 2.70006E-11 3.38810E-09
 -1       965-1.95892E+05 2.30181E+01-2.04819E+02 1.56980E+04 2.21617E-09-7.81029E-10
 -1       966-1.95887E+05 2.59383E+01-3.84012E+02 1.28617E+04-1.55740E-09-3.60728E-10
 -1       967-1.95943E+05-6.88689E+00-7.87377E+02 1.56932E+04-3.09228E-11 4.52565E-09
 -1       968-1.95840E+05-6.41601E+01-1.54064E+03 1.28662E+04-2.93085E-10-1.99555E-09
 -1       969-1.96569E+05-8.84383E+02-3.42065E+03 1.56401E+04-1.12959E-09-1.28550E-09
 -1       970-1.95253E+05-2.63759E+03-6.66247E+03 1.29164E+04 1.44360E-09-6.93944E-10
 -1       971-1.85501E+05-9.80070E+02-5.45626E+03 9.10062E+03-2.70029E-09 4.30774E-10
 -1       972-1.86828E+05-7.03495E+02-2.97174E+03 1.27052E+04-1.53432E-09 1.45951E-09
 -1       973-1.86106E+05-6.27864E+00-1.33037E+03 9.02570E+03-5.43423E-10-4.13945E-09
 -1       974-1.86197E+05-7.68503E+00-6.89308E+02 1.27856E+04 1.27307E-09-3.33011E-09
 -1       975-1.86151E+05 1.79566E+01-3.43569E+02 9.01948E+03 2.11958E-09-9.17112E-10
 -1       976-1.86158E+05 1.97166E+01-1.96778E+02 1.27929E+04-2.26294E-09-3.46677E-09
 -1       977-1.86159E+05 1.69411E+01-1.40030E+02 9.01833E+03 5.27371E-09 3.27987E-10
 -1       978-1.86159E+05 2.22068E+01-1.60187E+02 1.27945E+04 1.52618E-08-3.74297E-09
 -1       979-1.86158E+05 2.08533E+01-2.54103E+02 9.01786E+03 8.79788E-09-1.18746E-10
 -1       980-1.86177E+05 2.35888E+01-4.88594E+02 1.27947E+04 6.49953E-09-7.59030E-09
 -1       981-1.86143E+05 3.30706E+01-9.45137E+02 9.01812E+03 1.38812E-09 1.90215E-09
 -1       982-1.86307E+05-4.58482E+01-1.95292E+03 1.27912E+04 1.58252E-10 1.86676E-09
 -1       983-1.86024E+05-2.68288E+01-3.79406E+03 9.02152E+03 2.70802E-09 9.62928E-10
 -1       984-1.88133E+05-2.02625E+03-8.49606E+03 1.27404E+04-1.35890E-09 7.92375E-09
 -1       985-1.84308E+05-2.80244E+03-1.56015E+04 9.07196E+03 1.54955E-09-1.79170E-10
 -3
    1PSTEP                         7           4           1          
  100CL  104 4.68750E-01         409                     0    4           1
 -4  DISP        4    1
 -5  D1          1    2    1    0
 -5  D2          1    2    2    0
 -5  D3          1    2    3    0
 -5  ALL         1    2    0    0    1ALL
 -1         1 1.27100E-04 0.00000E+00 0.00000E+00
 -1         2 1.16523E-04 4.20303E-30 0.00000E+00
 -1         3 1.10146E-04-2.37855E-27 6.61744E-24
 -1         5 7.80305E-05 5.57118E-27-3.30872E-24
 -1         8 1.02693E-04-8.86054E-07 0.00000E+00
 -1         9 1.03387E-04 4.52910E-07 0.00000E+00
 -1        10 1.01920E-04-1.50236E-06 0.00000E+00
 -1        12 7.75368E-05 5.12050E-07 0.00000E+00
 -1        15 7.36285E-05-9.77558E-07 0.00000E+00
 -1        16 7.62705E-05 2.98154E-07 0.00000E+00
 -1        17 7.56397E-05-3.17273E-06 0.00000E+00
 -1        18 7.50531E-05 7.95315E-07 0.00000E+00
 -1        19 7.60557E-05 1.02129E-06 0.00000E+00
 -1        20 7.61873E-05 1.46447E-05 0.00000E+00
 -1        21 7.56864E-05 2.75686E-05 0.00000E+00
 -1        24 1.86444E-05-4.32002E-06 0.00000E+00
 -1        25 7.35640E-05 9.13173E-07 0.00000E+00
 -1        26 7.45019E-05 1.42398E-06 0.00000E+00
 -1        27 7.30820E-05 1.23650E-05 0.00000E+00
 -1        28 7.26307E-05 2.71318E-05 0.00000E+00
 -1        32 0.00000E+00 0.00000E+00 0.00000E+00
 -1        33 7.17378E-05 1.90969E-06 0.00000E+00
 -1        34 7.03676E-05 1.23441E-05 0.00000E+00
 -1        35 6.90660E-05 2.69010E-05 0.00000E+00
 -1        51 1.25514E-04-1.45655E-07 0.00000E+00
 -1        52 1.22572E-04-2.87396E-07 0.00000E+00
 -1        53 1.18542E-04-4.30625E-07 0.00000E+00
 -1        54 1.13701E-04-5.76779E-07 3.30872E-24
 -1        55 1.08325E-04-7.26584E-07 5.99706E-24
 -1        56 1.25957E-04-7.43482E-07 0.00000E+00
 -1        57 1.24959E-04-2.00579E-06-1.32349E-23
 -1        58 1.24104E-04-3.64115E-06-2.64698E-23
 -1        59 1.23328E-04-5.51282E-06 0.00000E+00
 -1        60 1.22581E-04-7.46333E-06 0.00000E+00
 -1        61 1.21804E-04-9.33597E-06-2.64698E-23
 -1        62 1.20941E-04-1.09782E-05 0.00000E+00
 -1        63 1.19937E-04-1.22448E-05-2.64698E-23
 -1        64 1.18746E-04-1.30137E-05 0.00000E+00
 -1        65 1.17329E-04-1.31778E-05-2.64698E-23
 -1        66 1.15659E-04-1.26673E-05 5.29396E-23
 -1        67 1.13717E-04-1.14323E-05 2.64698E-23
 -1        68 1.11500E-04-9.46837E-06 0.00000E+00
 -1        69 1.09021E-04-6.79004E-06-1.32349E-23
 -1        70 1.06293E-04-3.46127E-06 2.64698E-23
 -1        86 1.16181E-04 8.33942E-08 1.65436E-24
 -1        87 1.15152E-04 1.65797E-07 8.27181E-25
 -1        88 1.13407E-04 2.47161E-07 0.00000E+00
 -1        89 1.10909E-04 3.23606E-07 4.13590E-25
 -1        90 1.07593E-04 3.98898E-07-3.30872E-24
 -1       121 1.09916E-04-2.49124E-07-6.61744E-24
 -1       122 1.09228E-04-4.98456E-07-3.30872E-24
 -1       123 1.08082E-04-7.48200E-07 0.00000E+00
 -1       124 1.06480E-04-9.98602E-07 0.00000E+00
 -1       125 1.04425E-04-1.24979E-06 0.00000E+00
 -1       191 7.80168E-05 8.53489E-08 3.30872E-24
 -1       192 7.79757E-05 1.70696E-07-4.96308E-24
 -1       193 7.79071E-05 2.56042E-07 0.00000E+00
 -1       194 7.78111E-05 3.41385E-07-1.65436E-24
 -1       195 7.76877E-05 4.26721E-07 0.00000E+00
 -1       251 1.02716E-04 3.14224E-06-3.30872E-24
 -1       252 1.02759E-04 5.56395E-06 0.00000E+00
 -1       253 1.02804E-04 6.63844E-06 5.16988E-26
 -1       254 1.02852E-04 6.62207E-06 0.00000E+00
 -1       255 1.02900E-04 5.74360E-06-8.27181E-25
 -1       256 1.02947E-04 4.23000E-06 0.00000E+00
 -1       257 1.02994E-04 2.29194E-06 0.00000E+00
 -1       258 1.03041E-04 1.39243E-07 0.00000E+00
 -1       259 1.03088E-04-2.02384E-06 0.00000E+00
 -1       260 1.03134E-04-3.99304E-06 8.27181E-25
 -1       261 1.03182E-04-5.55909E-06 0.00000E+00
 -1       262 1.03230E-04-6.51195E-06 4.13590E-25
 -1       263 1.03278E-04-6.62580E-06-5.16988E-26
 -1       264 1.03322E-04-5.67312E-06-8.27181E-25
 -1       265 1.03365E-04-3.39935E-06 0.00000E+00
 -1       266 9.78491E-05-9.13254E-07 0.00000E+00
 -1       267 9.30050E-05-9.27049E-07 0.00000E+00
 -1       268 8.81609E-05-9.41692E-07 0.00000E+00
 -1       269 8.33167E-05-9.53820E-07 0.00000E+00
 -1       270 7.84726E-05-9.65889E-07 4.13590E-25
 -1       271 9.97448E-05 2.76631E-06 0.00000E+00
 -1       272 9.72224E-05 5.15484E-06 0.00000E+00
 -1       273 9.51265E-05 6.41911E-06 5.29396E-23
 -1       274 9.33933E-05 6.69839E-06-2.64698E-23
 -1       275 9.19678E-05 6.15622E-06 5.29396E-23
 -1       276 9.07829E-05 4.96831E-06 2.64698E-23
 -1       277 8.97687E-05 3.32335E-06 0.00000E+00
 -1       278 8.88516E-05 1.41790E-06 0.00000E+00
 -1       279 8.79564E-05-5.46405E-07 0.00000E+00
 -1       280 8.70077E-05-2.36686E-06-2.64698E-23
 -1       281 8.59306E-05-3.84365E-06 0.00000E+00
 -1       282 8.46533E-05-4.78299E-06 0.00000E+00
 -1       283 8.31062E-05-5.00163E-06 5.29396E-23
 -1       284 8.12290E-05-4.32763E-06-2.64698E-23
 -1       285 7.89570E-05-2.60970E-06 0.00000E+00
 -1       301 9.86887E-05 4.20119E-07 0.00000E+00
 -1       302 9.40121E-05 4.02505E-07 1.65436E-24
 -1       303 8.93945E-05 3.85580E-07 3.30872E-24
 -1       304 8.48735E-05 3.67440E-07 3.30872E-24
 -1       305 8.04866E-05 3.47467E-07 0.00000E+00
 -1       306 1.00343E-04 3.85338E-06 0.00000E+00
 -1       307 9.77776E-05 5.83731E-06-2.64698E-23
 -1       308 9.57708E-05 6.34810E-06 0.00000E+00
 -1       309 9.43111E-05 5.37456E-06-2.64698E-23
 -1       310 9.33250E-05 3.13387E-06-5.29396E-23
 -1       311 9.27072E-05-1.00184E-07 2.64698E-23
 -1       312 9.23013E-05-3.90424E-06-5.29396E-23
 -1       313 9.19397E-05-7.82845E-06 2.64698E-23
 -1       314 9.14486E-05-1.14044E-05 0.00000E+00
 -1       315 9.06601E-05-1.41802E-05 0.00000E+00
 -1       316 8.94495E-05-1.58248E-05 0.00000E+00
 -1       317 8.77131E-05-1.60600E-05 2.64698E-23
 -1       318 8.54215E-05-1.48191E-05 0.00000E+00
 -1       319 8.25835E-05-1.21011E-05 0.00000E+00
 -1       320 7.92672E-05-8.13294E-06 2.64698E-23
 -1       336 9.89112E-05-1.77595E-06 6.61744E-24
 -1       337 9.53427E-05-2.05168E-06-3.30872E-24
 -1       338 9.12219E-05-2.32937E-06 0.00000E+00
 -1       339 8.65577E-05-2.60893E-06-3.30872E-24
 -1       340 8.13599E-05-2.89107E-06 6.61744E-24
 -1       406 7.73585E-05 5.97364E-07 3.30872E-24
 -1       407 7.71527E-05 6.82645E-07 1.65436E-24
 -1       408 7.69195E-05 7.67869E-07 0.00000E+00
 -1       409 7.66589E-05 8.52930E-07 0.00000E+00
 -1       410 7.63709E-05 9.37664E-07-3.30872E-24
 -1       521 7.44573E-05-3.56025E-06-5.29396E-23
 -1       522 7.74262E-05-2.08180E-05 2.64698E-23
 -1       523 8.41022E-05-4.85680E-05 1.05879E-22
 -1       524 9.30712E-05-8.30624E-05-5.29396E-23
 -1       525 1.02564E-04-1.19100E-04 1.05879E-22
 -1       526 1.10769E-04-1.51355E-04 0.00000E+00
 -1       527 1.16095E-04-1.75313E-04-1.05879E-22
 -1       528 1.17099E-04-1.87160E-04 5.29396E-23
 -1       529 1.13153E-04-1.85656E-04 1.05879E-22
 -1       530 1.04003E-04-1.70644E-04 0.00000E+00
 -1       531 9.05352E-05-1.44785E-04 0.00000E+00
 -1       532 7.40666E-05-1.11581E-04 0.00000E+00
 -1       533 5.66333E-05-7.60426E-05 0.00000E+00
 -1       534 4.03961E-05-4.33455E-05 0.00000E+00
 -1       535 2.71903E-05-1.81071E-05-5.29396E-23
 -1       536 7.55842E-05 2.31438E-06 0.00000E+00
 -1       537 7.55399E-05 6.82306E-06-8.27181E-25
 -1       538 7.54990E-05 1.03217E-05-1.65436E-24
 -1       539 7.54623E-05 1.27802E-05 8.27181E-25
 -1       540 7.54275E-05 1.42434E-05 8.27181E-25
 -1       541 7.53939E-05 1.47576E-05 4.13590E-25
 -1       542 7.53603E-05 1.44375E-05 8.27181E-25
 -1       543 7.53264E-05 1.33987E-05 4.13590E-25
 -1       544 7.52918E-05 1.18087E-05 0.00000E+00
 -1       545 7.52566E-05 9.83571E-06 0.00000E+00
 -1       546 7.52211E-05 7.67545E-06 0.00000E+00
 -1       547 7.51857E-05 5.52397E-06-4.13590E-25
 -1       548 7.51506E-05 3.57663E-06 8.27181E-25
 -1       549 7.51168E-05 2.02853E-06 2.06795E-25
 -1       550 7.50834E-05 1.04621E-06 5.16988E-26
 -1       551 6.81220E-05-3.34370E-06 0.00000E+00
 -1       552 5.91320E-05-3.52322E-06 0.00000E+00
 -1       553 4.91759E-05-3.71126E-06 0.00000E+00
 -1       554 3.87674E-05-3.90591E-06 3.30872E-24
 -1       555 2.84202E-05-4.10266E-06-1.32349E-23
 -1       556 7.36527E-05 1.97255E-06 0.00000E+00
 -1       557 7.21292E-05 5.92140E-06 0.00000E+00
 -1       558 7.10187E-05 8.78311E-06 0.00000E+00
 -1       559 7.02754E-05 1.06757E-05 0.00000E+00
 -1       560 6.98532E-05 1.17168E-05 0.00000E+00
 -1       561 6.97068E-05 1.20250E-05 0.00000E+00
 -1       562 6.97911E-05 1.17188E-05 0.00000E+00
 -1       563 7.00611E-05 1.09168E-05 0.00000E+00
 -1       564 7.04722E-05 9.73789E-06 0.00000E+00
 -1       565 7.09798E-05 8.30086E-06 0.00000E+00
 -1       566 7.15395E-05 6.72461E-06 8.27181E-25
 -1       567 7.21067E-05 5.12809E-06 2.06795E-25
 -1       568 7.26371E-05 3.63016E-06 0.00000E+00
 -1       569 7.30863E-05 2.34960E-06 0.00000E+00
 -1       570 7.34097E-05 1.40522E-06 0.00000E+00
 -1       571 7.51139E-05 8.49267E-07-8.27181E-25
 -1       572 7.51761E-05 8.61050E-07 2.06795E-25
 -1       573 7.52387E-05 8.38193E-07-8.27181E-25
 -1       574 7.53015E-05 7.88621E-07 4.13590E-25
 -1       575 7.53643E-05 7.20292E-07 0.00000E+00
 -1       576 7.54272E-05 6.41212E-07 0.00000E+00
 -1       577 7.54901E-05 5.59397E-07 1.65436E-24
 -1       578 7.55530E-05 4.82866E-07 0.00000E+00
 -1       579 7.56159E-05 4.19641E-07 0.00000E+00
 -1       580 7.56788E-05 3.77741E-07 0.00000E+00
 -1       581 7.57417E-05 3.65188E-07 0.00000E+00
 -1       582 7.58046E-05 3.89993E-07 0.00000E+00
 -1       583 7.58675E-05 4.60159E-07 0.00000E+00
 -1       584 7.59303E-05 5.83613E-07 0.00000E+00
 -1       585 7.59931E-05 7.68232E-07 0.00000E+00
 -1       586 7.47822E-05 8.16182E-07 0.00000E+00
 -1       587 7.44852E-05 8.36528E-07 0.00000E+00
 -1       588 7.41885E-05 8.56650E-07 0.00000E+00
 -1       589 7.39184E-05 8.76452E-07 0.00000E+00
 -1       590 7.37017E-05 8.95713E-07 0.00000E+00
 -1       591 7.50035E-05 8.81676E-07-1.03398E-25
 -1       592 7.49642E-05 9.33849E-07 0.00000E+00
 -1       593 7.49352E-05 9.58307E-07-4.13590E-25
 -1       594 7.49141E-05 9.60885E-07 0.00000E+00
 -1       595 7.48989E-05 9.47494E-07 0.00000E+00
 -1       596 7.48874E-05 9.24001E-07-2.06795E-25
 -1       597 7.48776E-05 8.96271E-07 4.13590E-25
 -1       598 7.48671E-05 8.70166E-07-2.06795E-25
 -1       599 7.48538E-05 8.51544E-07 0.00000E+00
 -1       600 7.48355E-05 8.46266E-07-2.06795E-25
 -1       601 7.48100E-05 8.60192E-07-4.13590E-25
 -1       602 7.47752E-05 8.99186E-07-1.03398E-25
 -1       603 7.47288E-05 9.69113E-07-2.06795E-25
 -1       604 7.46689E-05 1.07589E-06-1.03398E-25
 -1       605 7.45933E-05 1.22534E-06 0.00000E+00
 -1       606 7.60672E-05 1.41659E-06 0.00000E+00
 -1       607 7.60764E-05 1.89950E-06 0.00000E+00
 -1       608 7.60850E-05 2.46487E-06 0.00000E+00
 -1       609 7.60933E-05 3.10690E-06 0.00000E+00
 -1       610 7.61015E-05 3.81977E-06 0.00000E+00
 -1       611 7.61095E-05 4.59758E-06 0.00000E+00
 -1       612 7.61175E-05 5.43439E-06 0.00000E+00
 -1       613 7.61255E-05 6.32430E-06 0.00000E+00
 -1       614 7.61334E-05 7.26139E-06 0.00000E+00
 -1       615 7.61412E-05 8.23973E-06 0.00000E+00
 -1       616 7.61491E-05 9.25341E-06 0.00000E+00
 -1       617 7.61569E-05 1.02965E-05-4.13590E-25
 -1       618 7.61646E-05 1.13631E-05 0.00000E+00
 -1       619 7.61723E-05 1.24473E-05 0.00000E+00
 -1       620 7.61799E-05 1.35431E-05 0.00000E+00
 -1       621 7.57488E-05 1.08845E-06 1.65436E-24
 -1       622 7.54685E-05 1.15594E-06-8.27181E-25
 -1       623 7.52093E-05 1.22342E-06 0.00000E+00
 -1       624 7.49656E-05 1.29079E-06 8.27181E-25
 -1       625 7.47317E-05 1.35805E-06 1.65436E-24
 -1       626 7.59792E-05 1.43774E-06 0.00000E+00
 -1       627 7.58761E-05 1.92654E-06-3.30872E-24
 -1       628 7.57485E-05 2.48094E-06 0.00000E+00
 -1       629 7.55990E-05 3.09373E-06 0.00000E+00
 -1       630 7.54303E-05 3.75772E-06 3.30872E-24
 -1       631 7.52452E-05 4.46565E-06 1.65436E-24
 -1       632 7.50462E-05 5.21024E-06 0.00000E+00
 -1       633 7.48362E-05 5.98427E-06 0.00000E+00
 -1       634 7.46178E-05 6.78047E-06-3.30872E-24
 -1       635 7.43938E-05 7.59157E-06-1.65436E-24
 -1       636 7.41670E-05 8.41034E-06 1.65436E-24
 -1       637 7.39400E-05 9.22952E-06 0.00000E+00
 -1       638 7.37154E-05 1.00418E-05 0.00000E+00
 -1       639 7.34961E-05 1.08401E-05-8.27181E-25
 -1       640 7.32844E-05 1.16169E-05 8.27181E-25
 -1       656 7.52757E-05 1.42737E-05-6.61744E-24
 -1       657 7.46945E-05 1.38880E-05-3.30872E-24
 -1       658 7.43186E-05 1.35034E-05 0.00000E+00
 -1       659 7.40197E-05 1.31193E-05 0.00000E+00
 -1       660 7.36548E-05 1.27338E-05 0.00000E+00
 -1       661 7.58504E-05 1.57230E-05 8.27181E-25
 -1       662 7.55346E-05 1.67531E-05 0.00000E+00
 -1       663 7.52362E-05 1.77363E-05 0.00000E+00
 -1       664 7.49551E-05 1.86751E-05 8.27181E-25
 -1       665 7.46900E-05 1.95713E-05-1.65436E-24
 -1       666 7.44402E-05 2.04270E-05 8.27181E-25
 -1       667 7.42049E-05 2.12441E-05 0.00000E+00
 -1       668 7.39835E-05 2.20243E-05 0.00000E+00
 -1       669 7.37752E-05 2.27695E-05-1.65436E-24
 -1       670 7.35795E-05 2.34812E-05 0.00000E+00
 -1       671 7.33957E-05 2.41611E-05 0.00000E+00
 -1       672 7.32232E-05 2.48107E-05 8.27181E-25
 -1       673 7.30615E-05 2.54314E-05 0.00000E+00
 -1       674 7.29095E-05 2.60244E-05-8.27181E-25
 -1       675 7.27675E-05 2.65913E-05 0.00000E+00
 -1       676 7.51758E-05 2.74954E-05 1.65436E-24
 -1       677 7.46655E-05 2.74222E-05 8.27181E-25
 -1       678 7.41557E-05 2.73490E-05 0.00000E+00
 -1       679 7.36464E-05 2.72761E-05 0.00000E+00
 -1       680 7.31380E-05 2.72032E-05 0.00000E+00
 -1       771 1.47362E-05 3.22108E-06 2.64698E-23
 -1       772 1.13402E-05 9.39823E-06 0.00000E+00
 -1       773 8.43507E-06 1.42865E-05-5.29396E-23
 -1       774 5.98840E-06 1.79664E-05 0.00000E+00
 -1       775 3.96815E-06 2.05200E-05 2.64698E-23
 -1       776 2.34092E-06 2.20328E-05 0.00000E+00
 -1       777 1.07283E-06 2.25920E-05 0.00000E+00
 -1       778 1.29309E-07 2.22871E-05-1.32349E-23
 -1       779-5.24524E-07 2.12092E-05 0.00000E+00
 -1       780-9.24164E-07 1.94516E-05-1.32349E-23
 -1       781-1.10524E-06 1.71085E-05 2.64698E-23
 -1       782-1.10388E-06 1.42760E-05-1.32349E-23
 -1       783-9.56260E-07 1.10508E-05-2.64698E-23
 -1       784-6.98856E-07 7.53066E-06 0.00000E+00
 -1       785-3.68248E-07 3.81399E-06 0.00000E+00
 -1       786 7.36192E-05 8.72977E-07 0.00000E+00
 -1       787 7.36777E-05 8.38330E-07 8.27181E-25
 -1       788 7.37359E-05 8.08857E-07 1.65436E-24
 -1       789 7.37948E-05 7.84195E-07-8.27181E-25
 -1       790 7.38537E-05 7.64636E-07 0.00000E+00
 -1       791 7.39127E-05 7.50485E-07-8.27181E-25
 -1       792 7.39718E-05 7.42783E-07-1.65436E-24
 -1       793 7.40309E-05 7.42589E-07 0.00000E+00
 -1       794 7.40899E-05 7.51983E-07-1.65436E-24
 -1       795 7.41490E-05 7.73072E-07 0.00000E+00
 -1       796 7.42081E-05 8.09553E-07-1.65436E-24
 -1       797 7.42671E-05 8.65168E-07 0.00000E+00
 -1       798 7.43261E-05 9.46259E-07 0.00000E+00
 -1       799 7.43850E-05 1.05924E-06 0.00000E+00
 -1       800 7.44439E-05 1.21486E-06-1.65436E-24
 -1       801 6.85933E-05 8.51327E-07 0.00000E+00
 -1       802 5.37129E-05 6.92954E-07 0.00000E+00
 -1       803 3.41824E-05 4.61822E-07 0.00000E+00
 -1       804 1.52719E-05 2.35409E-07 0.00000E+00
 -1       805 2.15530E-06 9.49871E-08 0.00000E+00
 -1       806 7.35073E-05 8.31576E-07 0.00000E+00
 -1       807 7.34474E-05 7.50742E-07 0.00000E+00
 -1       808 7.33849E-05 6.75223E-07 0.00000E+00
 -1       809 7.33187E-05 6.08878E-07 0.00000E+00
 -1       810 7.32475E-05 5.55557E-07 0.00000E+00
 -1       811 7.31699E-05 5.19052E-07 1.65436E-24
 -1       812 7.30846E-05 5.03152E-07 0.00000E+00
 -1       813 7.29901E-05 5.11635E-07 0.00000E+00
 -1       814 7.28851E-05 5.48278E-07 0.00000E+00
 -1       815 7.27681E-05 6.16853E-07 0.00000E+00
 -1       816 7.26377E-05 7.21131E-07 1.65436E-24
 -1       817 7.24925E-05 8.64882E-07-8.27181E-25
 -1       818 7.23312E-05 1.05187E-06 0.00000E+00
 -1       819 7.21523E-05 1.28585E-06-8.27181E-25
 -1       820 7.19546E-05 1.57056E-06 8.27181E-25
 -1       821 7.44183E-05 1.65346E-06 0.00000E+00
 -1       822 7.43296E-05 1.87086E-06 0.00000E+00
 -1       823 7.42413E-05 2.11613E-06-1.65436E-24
 -1       824 7.41519E-05 2.42912E-06 1.65436E-24
 -1       825 7.40625E-05 2.83711E-06 0.00000E+00
 -1       826 7.39728E-05 3.36699E-06-1.65436E-24
 -1       827 7.38830E-05 4.02304E-06 0.00000E+00
 -1       828 7.37931E-05 4.80902E-06 0.00000E+00
 -1       829 7.37032E-05 5.70461E-06 0.00000E+00
 -1       830 7.36131E-05 6.68902E-06-1.65436E-24
 -1       831 7.35231E-05 7.72500E-06-3.30872E-24
 -1       832 7.34332E-05 8.77509E-06 0.00000E+00
 -1       833 7.33434E-05 9.79918E-06 0.00000E+00
 -1       834 7.32546E-05 1.07573E-05-8.27181E-25
 -1       835 7.31656E-05 1.16217E-05 0.00000E+00
 -1       836 7.41776E-05 1.50484E-06 0.00000E+00
 -1       837 7.37464E-05 1.58749E-06 0.00000E+00
 -1       838 7.32475E-05 1.66998E-06 0.00000E+00
 -1       839 7.27202E-05 1.75194E-06-8.27181E-25
 -1       840 7.22039E-05 1.83377E-06 2.06795E-25
 -1       856 7.30570E-05 1.30996E-05 2.06795E-25
 -1       857 7.30291E-05 1.39314E-05 0.00000E+00
 -1       858 7.30014E-05 1.48451E-05 4.13590E-25
 -1       859 7.29730E-05 1.58254E-05 0.00000E+00
 -1       860 7.29446E-05 1.68568E-05 8.27181E-25
 -1       861 7.29160E-05 1.79238E-05 0.00000E+00
 -1       862 7.28874E-05 1.90108E-05 0.00000E+00
 -1       863 7.28588E-05 2.01022E-05-4.13590E-25
 -1       864 7.28302E-05 2.11825E-05 8.27181E-25
 -1       865 7.28016E-05 2.22362E-05 0.00000E+00
 -1       866 7.27731E-05 2.32476E-05 8.27181E-25
 -1       867 7.27445E-05 2.42014E-05-4.13590E-25
 -1       868 7.27161E-05 2.50820E-05 0.00000E+00
 -1       869 7.26876E-05 2.58741E-05 0.00000E+00
 -1       870 7.26593E-05 2.65624E-05 0.00000E+00
 -1       871 7.25308E-05 1.23641E-05 0.00000E+00
 -1       872 7.20732E-05 1.23613E-05 0.00000E+00
 -1       873 7.16689E-05 1.23582E-05 0.00000E+00
 -1       874 7.12770E-05 1.23546E-05-1.55096E-25
 -1       875 7.08567E-05 1.23506E-05 6.20385E-25
 -1       876 7.28916E-05 1.31077E-05-1.65436E-24
 -1       877 7.26853E-05 1.38978E-05 0.00000E+00
 -1       878 7.24636E-05 1.47295E-05 0.00000E+00
 -1       879 7.22285E-05 1.55975E-05-1.65436E-24
 -1       880 7.19817E-05 1.64964E-05 0.00000E+00
 -1       881 7.17254E-05 1.74209E-05 0.00000E+00
 -1       882 7.14615E-05 1.83657E-05 3.30872E-24
 -1       883 7.11920E-05 1.93255E-05 1.65436E-24
 -1       884 7.09188E-05 2.02948E-05 3.30872E-24
 -1       885 7.06441E-05 2.12685E-05-1.65436E-24
 -1       886 7.03696E-05 2.22411E-05 1.65436E-24
 -1       887 7.00975E-05 2.32075E-05 0.00000E+00
 -1       888 6.98296E-05 2.41621E-05 1.65436E-24
 -1       889 6.95676E-05 2.50997E-05 0.00000E+00
 -1       890 6.93137E-05 2.60148E-05 8.27181E-25
 -1       891 7.21424E-05 2.70932E-05 0.00000E+00
 -1       892 7.16373E-05 2.70545E-05 0.00000E+00
 -1       893 7.10964E-05 2.70158E-05 0.00000E+00
 -1       894 7.05002E-05 2.69771E-05-4.13590E-25
 -1       895 6.98297E-05 2.69385E-05-2.06795E-25
 -1       956 7.16537E-05 2.35982E-06 1.65436E-24
 -1       957 7.15684E-05 2.86516E-06 1.65436E-24
 -1       958 7.14827E-05 3.41996E-06-3.30872E-24
 -1       959 7.13968E-05 4.01810E-06 8.27181E-25
 -1       960 7.13109E-05 4.65351E-06 0.00000E+00
 -1       961 7.12250E-05 5.32002E-06 8.27181E-25
 -1       962 7.11390E-05 6.01150E-06 1.65436E-24
 -1       963 7.10530E-05 6.72180E-06 8.27181E-25
 -1       964 7.09670E-05 7.44478E-06 0.00000E+00
 -1       965 7.08810E-05 8.17426E-06 0.00000E+00
 -1       966 7.07950E-05 8.90412E-06-3.30872E-24
 -1       967 7.07090E-05 9.62819E-06 1.65436E-24
 -1       968 7.06231E-05 1.03403E-05 0.00000E+00
 -1       969 7.05373E-05 1.10344E-05 4.96308E-24
 -1       970 7.04518E-05 1.17043E-05 0.00000E+00
 -1       971 7.02873E-05 1.30016E-05-1.65436E-24
 -1       972 7.02059E-05 1.37312E-05 8.27181E-25
 -1       973 7.01243E-05 1.45248E-05 1.65436E-24
 -1       974 7.00426E-05 1.53743E-05 8.27181E-25
 -1       975 6.99609E-05 1.62713E-05-3.30872E-24
 -1       976 6.98790E-05 1.72076E-05 8.27181E-25
 -1       977 6.97971E-05 1.81748E-05-1.65436E-24
 -1       978 6.97153E-05 1.91646E-05 8.27181E-25
 -1       979 6.96334E-05 2.01687E-05-3.30872E-24
 -1       980 6.95515E-05 2.11789E-05 0.00000E+00
 -1       981 6.94696E-05 2.21868E-05 0.00000E+00
 -1       982 6.93878E-05 2.31840E-05-1.65436E-24
 -1       983 6.93061E-05 2.41623E-05 3.30872E-24
 -1       984 6.92248E-05 2.51134E-05-8.27181E-25
 -1       985 6.91439E-05 2.60290E-05 0.00000E+00
 -3
    1PSTEP                         8           4           1          
  100CL  104 4.68750E-01         409                     0    4           1
 -4  STRESS      6    1
 -5  SXX         1    4    1    1
 -5  SYY         1    4    2    2
 -5  SZZ         1    4    3    3
 -5  SXY         1    4    1    2
 -5  SYZ         1    4    2    3
 -5  SZX         1    4    3    1
 -1         1-1.66231E+06-7.54122E+05-3.41810E+05-1.05172E+06-3.63798E-11-2.76486E-10
 -1         2 2.65832E+03 2.42312E+05 8.71176E+03 7.05396E+02-1.28125E-10-6.04473E-10
 -1         3-8.82304E+01-7.11633E+05 1.66344E+02-2.59944E+02-1.42613E-10-1.48430E-09
 -1         5-5.96914E+00 2.44216E+05 6.34479E+00 1.11115E-01 1.12135E-10 3.74275E-08
 -1         8-7.84261E+05-3.32714E+05-3.40257E+04-5.65306E+05-1.60071E-10 1.25874E-09
 -1         9-1.37670E+06-3.63499E+05-1.40796E+05-4.61590E+05 3.15049E-09-1.25729E-09
 -1        10-5.77830E+02-7.41372E+05-9.84153E+02-1.75400E+03-3.21143E-09-3.13148E-09
 -1        12-3.36937E+00 2.44229E+05 2.05756E+02 1.00738E+00 1.86350E-10 1.07207E-09
 -1        15 1.97986E+03 1.08805E+03 6.39988E+03 4.14737E+00 2.11458E-11 5.85073E-09
 -1        16-3.52219E+06-1.21075E+06-5.55565E+05-1.24178E+06 1.17191E-08-6.82970E-09
 -1        17-8.48882E+05-5.15017E+05-1.64425E+05-4.75599E+05-5.72763E-09-2.63681E-09
 -1        18 6.51485E+03-2.85907E+03-1.70964E+04-5.82503E+04 6.83258E-10-9.65429E-10
 -1        19 7.69775E+04 9.13529E+04-4.36610E+02 1.49601E+04-4.66025E-10 2.43308E-09
 -1        20-3.24534E+04-3.62232E+05-7.99342E+04 2.64271E+04 4.40999E-09-9.32535E-10
 -1        21-3.40811E+01-2.09299E+05-6.75536E+02-7.32903E+01-2.65644E-09-6.07393E-09
 -1        24-3.25432E+06-1.02220E+06-4.49767E+05-1.25931E+06-2.00283E-08-1.07490E-08
 -1        25 2.29457E+04-3.40597E+04 9.96069E+03-1.05016E+05 3.42516E-10 8.90359E-09
 -1        26-1.77303E+04 6.24776E+04-1.23407E+04-8.83019E+03 1.47920E-09 6.00970E-09
 -1        27-5.77793E+04-1.98672E+05-7.44868E+04 4.47437E+04 5.62613E-09 2.56872E-09
 -1        28 1.62000E+04-5.78625E+04 1.18263E+04 1.84454E+04 4.09017E-09-1.29280E-09
 -1        32-7.85457E+05-1.85010E+05 3.18232E+05-5.24146E+05-1.67274E-08 9.14372E-09
 -1        33-1.13548E+05 5.84564E+04 2.07069E+04-3.38124E+04 1.15314E-09 6.48227E-09
 -1        34-1.47364E+05-1.47162E+04 3.47498E+02 4.54163E+04 2.40957E-09 1.91812E-09
 -1        35-1.64755E+04-2.29934E+04-9.01385E+02 3.64588E+04 5.50840E-09-6.45559E-09
 -1        51 1.40496E+04-3.66904E+05 3.63642E+04-9.31469E+05 3.05590E-10-2.76486E-10
 -1        52 8.82659E+03-3.65873E+05 2.43235E+04-1.08640E+06 4.14730E-10-1.02154E-08
 -1        53 6.64594E+03-3.78220E+05 2.10125E+04-9.28231E+05-1.01863E-10-5.13683E-09
 -1        54 1.90751E+04-3.76899E+05 3.40756E+04-1.08977E+06 7.20320E-10-2.39743E-09
 -1        55 3.79170E+04-3.89892E+05 6.10585E+04-9.27712E+05 1.19326E-09-5.42059E-09
 -1        56-3.19007E+06-3.59186E+05-2.51168E+05-1.22966E+06 5.34783E-10-7.14499E-09
 -1        57-3.28910E+06-5.88300E+05-1.69305E+05-1.22204E+06-1.29785E-09-2.29920E-09
 -1        58-3.24120E+06-4.38059E+05-5.90947E+04-1.21306E+06 4.09273E-10-3.79805E-09
 -1        59-3.22987E+06-4.95833E+05-3.52754E+04-1.24196E+06 1.25135E-09 5.74801E-10
 -1        60-3.24877E+06-4.48944E+05-1.37977E+04-1.21068E+06-8.56289E-10 1.59571E-09
 -1        61-3.22245E+06-4.81682E+05-7.83757E+03-1.24308E+06-1.30092E-09-1.73372E-09
 -1        62-3.24849E+06-4.51882E+05-3.78236E+03-1.21202E+06-7.50788E-10 6.33764E-09
 -1        63-3.22544E+06-4.75794E+05-3.07188E+03-1.23829E+06-1.65198E-09 3.39895E-09
 -1        64-3.24564E+06-4.54868E+05-3.56777E+03-1.21540E+06-1.40426E-09-2.73121E-09
 -1        65-3.23306E+06-4.70299E+05-7.04986E+03-1.23004E+06 2.11560E-09-1.47575E-08
 -1        66-3.24077E+06-4.57490E+05-1.24925E+04-1.22017E+06-2.91038E-10 1.51067E-09
 -1        67-3.24873E+06-4.73866E+05-3.16129E+04-1.21855E+06 3.32875E-10-1.40517E-09
 -1        68-3.23003E+06-4.51640E+05-5.31307E+04-1.22676E+06 2.36469E-10-7.01402E-09
 -1        69-3.30810E+06-5.50926E+05-1.51970E+05-1.19409E+06 8.96762E-10-1.36606E-09
 -1        70-3.18202E+06-3.82774E+05-2.25546E+05-1.24387E+06-2.42653E-09-1.73168E-09
 -1        86-1.33568E+03 2.39462E+05 9.30000E+03-3.52725E+02 1.13505E-09 7.93477E-09
 -1        87 8.85515E+03 2.45359E+05 1.94505E+04 1.45635E+03 1.90926E-09-1.95416E-09
 -1        88-7.51604E+03 2.36419E+05 2.97264E+04-1.10370E+03 2.88310E-09 1.63834E-09
 -1        89 5.60036E+04 2.67406E+05 8.02445E+04 3.17739E+03 4.36194E-09-1.02113E-08
 -1        90-4.83340E+04 2.17440E+05 1.13284E+05-2.07325E+03 4.93310E-09 2.10775E-09
 -1       121-1.38310E+02-7.12027E+05 1.31139E+02 1.29809E+02 3.81547E-10-4.73483E-09
 -1       122-3.28727E+01-7.11600E+05 3.59902E+02-5.19716E+02-1.34516E-09-7.66431E-09
 -1       123-1.76310E+02-7.12066E+05 5.54494E+02 3.88937E+02 1.02409E-09-7.64157E-09
 -1       124 6.33230E+02-7.11202E+05 1.50134E+03-1.16361E+03-2.78726E-09 1.20658E-08
 -1       125-6.04531E+02-7.12442E+05 2.27303E+03 7.73311E+02 1.74396E-09 4.69299E-09
 -1       191-6.47638E+00 2.44237E+05 7.51399E+00-5.62709E-02 1.46053E-10 1.67411E-08
 -1       192-6.55280E+00 2.44217E+05 1.34374E+01 6.69448E-01 2.10776E-10-3.69437E-09
 -1       193-8.02793E+00 2.44236E+05 2.49221E+01-6.17976E-01 2.33148E-10-1.18507E-09
 -1       194-8.43092E+00 2.44219E+05 5.08352E+01 1.64952E+00 1.18022E-10-3.12411E-09
 -1       195-1.10096E+01 2.44235E+05 9.93683E+01-1.04400E+00 3.87658E-10 9.01764E-10
 -1       251 1.19791E+05-4.12647E+04 9.61834E+04 3.90435E+03 1.26875E-10 7.97081E-09
 -1       252 1.64589E+05 4.77129E+04 6.84076E+04-1.37118E+04 1.31877E-10-4.02270E-09
 -1       253 1.36560E+05-6.39033E+03 2.48744E+04 2.96528E+03-3.00474E-10 6.36646E-12
 -1       254 1.44710E+05 7.37335E+03 1.58033E+04-1.22464E+04-5.80940E-11-7.55608E-09
 -1       255 1.39555E+05-9.87231E+02 6.42851E+03 2.43897E+03 2.84672E-10 6.50834E-09
 -1       256 1.41069E+05 1.17661E+03 3.93950E+03-1.14656E+04 1.01183E-09 2.86855E-09
 -1       257 1.40145E+05-1.73383E+02 2.03595E+03 2.18446E+03 1.80009E-10 1.78318E-10
 -1       258 1.40464E+05 3.83677E+02 1.83519E+03-1.12046E+04-9.94522E-10-4.13547E-09
 -1       259 1.40142E+05-1.83898E+02 2.13574E+03 2.17809E+03-1.60441E-10 1.08764E-09
 -1       260 1.41101E+05 1.26925E+03 4.22148E+03-1.14409E+04 2.82441E-10 3.55976E-09
 -1       261 1.39524E+05-1.06789E+03 6.94669E+03 2.42069E+03 1.52136E-09-3.37059E-09
 -1       262 1.44972E+05 7.98311E+03 1.70778E+04-1.21949E+04-4.60574E-10-9.55697E-09
 -1       263 1.36324E+05-6.91486E+03 2.69351E+04 2.93204E+03-5.54905E-10 3.09228E-11
 -1       264 1.66360E+05 5.16413E+04 7.39980E+04-1.36362E+04-2.05273E-09-5.92172E-09
 -1       265 1.18251E+05-4.46498E+04 1.04146E+05 3.86184E+03-1.23475E-09 6.67933E-09
 -1       266-3.58409E+04-1.67566E+04 8.41053E+04-8.87520E+01-7.27596E-11-5.94915E-09
 -1       267 4.15506E+04 1.95342E+04 5.94381E+04 1.02388E+02-1.41881E-10-1.15824E-08
 -1       268-5.57181E+03-2.76636E+03 2.20932E+04-1.30468E+01-1.88265E-10-1.32437E-08
 -1       269 6.57874E+03 3.31099E+03 1.43599E+04 1.51967E+01-8.73115E-11-1.50467E-08
 -1       270-9.87476E+02-5.44012E+02 6.93174E+03-2.06234E+00-7.59428E-11 9.81241E-09
 -1       271-3.50727E+06-4.38837E+05-2.69921E+05-1.36789E+06-6.43922E-10 4.17640E-09
 -1       272-3.58893E+06-6.50480E+05-1.73486E+05-1.38219E+06 3.12639E-10 1.52795E-10
 -1       273-3.55976E+06-5.04323E+05-6.37682E+04-1.35392E+06-2.09639E-10 1.00481E-08
 -1       274-3.52707E+06-5.70778E+05-3.56425E+04-1.40414E+06-1.03182E-09 4.29281E-10
 -1       275-3.56860E+06-5.09370E+05-1.48366E+04-1.34978E+06-6.96673E-10 3.17414E-10
 -1       276-3.51644E+06-5.65149E+05-7.85887E+03-1.41098E+06-5.43878E-10 6.67069E-09
 -1       277-3.57097E+06-5.08599E+05-3.84726E+03-1.34793E+06 6.45741E-11 5.15229E-10
 -1       278-3.51415E+06-5.65818E+05-2.78625E+03-1.41333E+06 1.08457E-09-1.77909E-09
 -1       279-3.57121E+06-5.08414E+05-2.98329E+03-1.34769E+06-3.51747E-10-8.63702E-09
 -1       280-3.51544E+06-5.65505E+05-5.46476E+03-1.41202E+06-3.31738E-10-3.32238E-09
 -1       281-3.56949E+06-5.09078E+05-1.00177E+04-1.34908E+06-2.47837E-09 1.17780E-08
 -1       282-3.52314E+06-5.68561E+05-2.38910E+04-1.40652E+06-5.62432E-09 6.51153E-09
 -1       283-3.56298E+06-5.06360E+05-4.27233E+04-1.35252E+06-2.83717E-09 9.82254E-10
 -1       284-3.56589E+06-6.20299E+05-1.16078E+05-1.38980E+06-1.63709E-10-1.11322E-09
 -1       285-3.52682E+06-4.63672E+05-1.80774E+05-1.36304E+06-7.34872E-10 2.25555E-09
 -1       301 1.44196E+04-1.74701E+04 1.10188E+05-4.48395E+04-8.11269E-10-1.65528E-09
 -1       302 1.55217E+04 1.03970E+04 7.88160E+04-6.60297E+04 1.11686E-09-6.71207E-10
 -1       303 8.64086E+02-7.44311E+03 7.14031E+04-4.49423E+04-1.27329E-09-1.42072E-08
 -1       304 2.78025E+04 2.18398E+04 1.18867E+05-6.58031E+04 4.72937E-10-2.69374E-08
 -1       305 2.74058E+04-2.86587E+04 1.98837E+05-4.49913E+04-1.17871E-09-1.45501E-08
 -1       306-3.92446E+06-4.58119E+05-2.98089E+05-1.53889E+06 3.13594E-09-1.12486E-08
 -1       307-4.08567E+06-7.01486E+05-2.03100E+05-1.47717E+06 9.36780E-10 1.80444E-09
 -1       308-3.99771E+06-5.45438E+05-7.02074E+04-1.50477E+06 7.23048E-10 9.92077E-09
 -1       309-3.99173E+06-6.09286E+05-4.23199E+04-1.52808E+06 2.53294E-10 3.06682E-09
 -1       310-4.01799E+06-5.48464E+05-1.64840E+04-1.48861E+06 7.40101E-11-3.91992E-09
 -1       311-3.96551E+06-6.08952E+05-9.49396E+03-1.55109E+06 5.75346E-09 4.52417E-09
 -1       312-4.02420E+06-5.45249E+05-4.64210E+03-1.48211E+06-3.93868E-10 1.15116E-08
 -1       313-3.96233E+06-6.08860E+05-4.16928E+03-1.55385E+06-3.31420E-09 8.89935E-09
 -1       314-4.02121E+06-5.48484E+05-5.11796E+03-1.48589E+06-4.31282E-09 3.89127E-09
 -1       315-3.97646E+06-5.97769E+05-1.05363E+04-1.53727E+06-1.63277E-09 1.02189E-08
 -1       316-4.00973E+06-5.56624E+05-1.88003E+04-1.49842E+06 1.69030E-09 8.22001E-09
 -1       317-4.01172E+06-5.93292E+05-4.80555E+04-1.50589E+06 4.43009E-09-6.20912E-09
 -1       318-3.98582E+06-5.53433E+05-7.97760E+04-1.51702E+06-4.43379E-09 4.68935E-09
 -1       319-4.11631E+06-7.01621E+05-2.31106E+05-1.45266E+06-4.60204E-09 6.69388E-09
 -1       320-3.90600E+06-4.50126E+05-3.38732E+05-1.55121E+06 9.12405E-09-2.88128E-09
 -1       336 4.96524E+02-7.70810E+05-4.20971E+03 9.78286E+02-6.81098E-09-1.56433E-10
 -1       337-1.53812E+03-7.71827E+05-4.65532E+03-2.48743E+03-1.27966E-08 4.65116E-09
 -1       338 3.34574E+02-7.70914E+05-5.98741E+03 1.50347E+03-9.27707E-09 5.08226E-09
 -1       339-6.20979E+03-7.74733E+05-1.31256E+04-3.52290E+03-1.66781E-08 9.32596E-09
 -1       340 4.18050E+03-7.67980E+05-2.02828E+04 2.00622E+03-1.09030E-08 8.44557E-09
 -1       406 1.22777E+01 2.44225E+05 4.06142E+02 1.82071E-02 6.12715E-10 4.38786E-09
 -1       407 1.38272E+02 2.44301E+05 8.63355E+02-8.16559E+00 1.30086E-10 8.84711E-10
 -1       408 4.40999E+02 2.44163E+05 1.72421E+03 8.29967E+00 6.37101E-10-1.97679E-09
 -1       409 1.86130E+03 2.44851E+05 3.88186E+03-7.97335E+01-1.05729E-10-8.74775E-09
 -1       410 5.35387E+03 2.43673E+05 7.92460E+03 7.43592E+01 6.23913E-10-6.73117E-09
 -1       521-7.36719E+06-7.74904E+05-5.67121E+05-2.72069E+06 1.63709E-09-9.86620E-09
 -1       522-7.08111E+06-1.58119E+06-3.49626E+05-3.07577E+06-2.67937E-08-7.78164E-09
 -1       523-7.58045E+06-7.77216E+05-1.31556E+05-2.48356E+06-3.78441E-09-1.75205E-08
 -1       524-6.87924E+06-1.54684E+06-7.23992E+04-3.37722E+06 2.56483E-08-3.34912E-08
 -1       525-7.60700E+06-7.76631E+05-2.94032E+04-2.44805E+06 3.26982E-08-2.08879E-08
 -1       526-6.89901E+06-1.42046E+06-4.17949E+03-3.23214E+06 2.19607E-08-1.79352E-09
 -1       527-7.53587E+06-9.20933E+05-2.67061E+04-2.61170E+06 1.35078E-08 8.85848E-09
 -1       528-7.12278E+06-1.09219E+06 2.03417E+04-2.79438E+06-3.81260E-09 2.10248E-08
 -1       529-7.34319E+06-1.13353E+06-3.22101E+04-2.85547E+06-5.09317E-09 6.98492E-09
 -1       530-7.56405E+06-7.08868E+05 2.83701E+03-2.38818E+06-1.21054E-08 2.16023E-08
 -1       531-7.11681E+06-1.28795E+06-3.49619E+04-3.03272E+06-3.67399E-08-4.19641E-09
 -1       532-7.90308E+06-5.19441E+05-7.10788E+04-2.20327E+06 1.81553E-08-3.33312E-08
 -1       533-7.04496E+06-1.29476E+06-1.24878E+05-3.07266E+06 1.07502E-08-4.96693E-08
 -1       534-7.89323E+06-8.10888E+05-3.52129E+05-2.23227E+06-1.24783E-08 3.64234E-08
 -1       535-7.11047E+06-1.01314E+06-5.54494E+05-2.98806E+06-9.08040E-09 2.82016E-08
 -1       536-1.03992E+05-1.75476E+04 4.04037E+04-6.29658E+02-1.34247E-09 1.04301E-08
 -1       537-8.49526E+04 2.03128E+04 2.88490E+04-5.92075E+00-8.97134E-09-1.20872E-09
 -1       538-9.72776E+04-2.76179E+03 1.03700E+04-2.39787E+02-4.23626E-10 4.70800E-09
 -1       539-9.28760E+04 3.18838E+03 6.75802E+03-8.32315E+02 2.94298E-09 5.07850E-09
 -1       540-9.60730E+04-4.37123E+02 2.56538E+03 1.96751E+02 1.87333E-09 1.23453E-09
 -1       541-9.44635E+04 4.94595E+02 1.64453E+03-1.63927E+03-8.49752E-10 4.66289E-09
 -1       542-9.56977E+04-6.48267E+01 5.56568E+02 5.67131E+02-9.21162E-10 5.63963E-09
 -1       543-9.50724E+04 4.47108E+01 2.80593E+02-2.25440E+03 1.22363E-09 4.37907E-09
 -1       544-9.54737E+04 1.94409E+01-1.14832E+02 8.11873E+02-1.83384E-10-1.00977E-09
 -1       545-9.54552E+04-1.90878E+02-5.24579E+02-2.58239E+03-6.76554E-10-5.64033E-09
 -1       546-9.53214E+04 1.75395E+02-1.03082E+03 8.95138E+02 8.26967E-10-3.47768E-09
 -1       547-9.59803E+04-1.27623E+03-2.61613E+03-2.57530E+03-3.15468E-09 1.38198E-09
 -1       548-9.49485E+04 1.10388E+03-4.22402E+03 8.04781E+02-3.11519E-09 1.44246E-09
 -1       549-9.88840E+04-8.13420E+03-1.14628E+04-2.22904E+03-1.86313E-09 4.78030E-09
 -1       550-9.24112E+04 7.02307E+03-1.63620E+04 5.48863E+02 5.62181E-11 8.54016E-10
 -1       551 8.69638E+03-3.98639E+05 2.08162E+04-6.75266E+05-3.07664E-08-1.00408E-09
 -1       552 1.91822E+04-4.01758E+05 2.77889E+04-9.61210E+05-2.34941E-08 9.03674E-09
 -1       553 1.30814E+04-4.06957E+05 4.31623E+04-6.72949E+05-3.77986E-08 1.07066E-08
 -1       554 4.15367E+04-3.90366E+05 9.17269E+04-9.62210E+05-2.40107E-08 8.99649E-09
 -1       555 3.97591E+04-4.24597E+05 1.64569E+05-6.73697E+05-3.68746E-08-6.42103E-09
 -1       556 6.10390E+04-1.29114E+05 4.36977E+04-1.68948E+05-6.77392E-09-9.86620E-09
 -1       557 1.13313E+05-1.72441E+05 2.29723E+04-2.11621E+05 1.49157E-09 2.35741E-09
 -1       558 6.08361E+04-1.34928E+05 9.26150E+03-1.63942E+05 2.28465E-09-5.98629E-09
 -1       559 1.06202E+05-1.78397E+05 4.71081E+03-2.14788E+05 1.34278E-08-1.63409E-08
 -1       560 5.92588E+04-1.33881E+05 1.93179E+03-1.64934E+05 8.55653E-09 7.41511E-09
 -1       561 1.03759E+05-1.77766E+05 1.03393E+03-2.16334E+05-1.80444E-09 5.02132E-09
 -1       562 5.79892E+04-1.33032E+05 3.85913E+02-1.65849E+05 4.87489E-10 2.94767E-09
 -1       563 1.02268E+05-1.77125E+05 2.49339E+02-2.17287E+05-1.33696E-09 2.33683E-10
 -1       564 5.71965E+04-1.32521E+05 8.74584E+01-1.66412E+05 4.47108E-09 2.32058E-09
 -1       565 1.01490E+05-1.76792E+05 5.93228E+01-2.17777E+05 6.01995E-09 1.27666E-08
 -1       566 5.69090E+04-1.32330E+05-1.48459E+01-1.66619E+05-2.44654E-10-4.50564E-09
 -1       567 1.01383E+05-1.76739E+05-9.80117E+01-2.17781E+05 3.56886E-09-9.66611E-09
 -1       568 5.71586E+04-1.32495E+05-2.98054E+02-1.66504E+05-8.54925E-10-5.80258E-10
 -1       569 1.01323E+05-1.76628E+05-6.97322E+02-2.16750E+05-2.23281E-09 7.10861E-09
 -1       570 5.84587E+04-1.33664E+05-1.50339E+03-1.66470E+05 1.98634E-09 2.91038E-10
 -1       571 1.79316E+05 6.50557E+03 9.74609E+03-4.50605E+04 6.67569E-10-2.37583E-09
 -1       572 1.80777E+05 2.24987E+03 4.77905E+03-4.94847E+04 8.37645E-10 1.03182E-09
 -1       573 1.79903E+05 5.27515E+02 2.12407E+03-4.49412E+04 3.86081E-10-1.06365E-09
 -1       574 1.80073E+05 1.72130E+02 1.06501E+03-4.96178E+04 6.48015E-11 1.19098E-09
 -1       575 1.79967E+05 2.42374E+01 5.02542E+02-4.49257E+04-3.08319E-10-2.04363E-09
 -1       576 1.79978E+05 9.04008E+00 2.56077E+02-4.96354E+04-3.98273E-10-8.56744E-10
 -1       577 1.79976E+05-1.01091E+00 1.26541E+02-4.49236E+04-5.06247E-10-1.31877E-10
 -1       578 1.79969E+05 1.27676E+00 6.96453E+01-4.96375E+04 2.95131E-10 4.26326E-09
 -1       579 1.79987E+05-2.86319E+00 4.37421E+01-4.49236E+04 6.69843E-10 2.45154E-09
 -1       580 1.79984E+05-4.48732E+00 4.27431E+01-4.96349E+04-1.03455E-09 5.27962E-09
 -1       581 1.80006E+05-9.87236E+00 6.00004E+01-4.49262E+04-1.87447E-09 7.58519E-10
 -1       582 1.80020E+05-1.05625E+00 1.15787E+02-4.96082E+04-9.25411E-10-2.39061E-09
 -1       583 1.80028E+05 2.65583E+01 2.22891E+02-4.49503E+04-6.10271E-10-7.80346E-10
 -1       584 1.80131E+05 1.98615E+02 5.00009E+02-4.94051E+04-1.60844E-09 1.48304E-09
 -1       585 1.80001E+05 6.35983E+02 1.01492E+03-4.51297E+04 2.45564E-10-1.43700E-10
 -1       586-2.15431E+03 5.80246E+04-2.85989E+03-1.53303E+05 3.42880E-10-1.33923E-09
 -1       587-4.53168E+02 5.76396E+04-3.16709E+02-1.68700E+05 7.20320E-10 3.73802E-09
 -1       588 6.13666E+02 5.77159E+04 2.03929E+03-1.53211E+05 3.92902E-10 3.30147E-09
 -1       589 3.03336E+03 5.88387E+04 5.93614E+03-1.68557E+05 7.03039E-10-4.08181E-09
 -1       590 8.69935E+03 5.70077E+04 1.27083E+04-1.53447E+05 3.31056E-10 2.33013E-09
 -1       591-3.92316E+04-1.11914E+04-1.29281E+04-2.03075E+04-2.66311E-10-4.73210E-09
 -1       592-4.04386E+04-1.43700E+04-7.00241E+03-2.36834E+04-5.10795E-10-1.49311E-08
 -1       593-4.05392E+04-1.02385E+04-2.91518E+03-2.12409E+04 8.16158E-10-7.28960E-10
 -1       594-3.86370E+04-1.24911E+04-1.45392E+03-2.37734E+04-2.49997E-10 7.34214E-09
 -1       595-4.06394E+04-1.02341E+04-6.68172E+02-2.12838E+04 5.57066E-11 4.74256E-09
 -1       596-3.85151E+04-1.24050E+04-3.40587E+02-2.37608E+04 1.40608E-09 8.52570E-09
 -1       597-4.06522E+04-1.02423E+04-1.87477E+02-2.12855E+04-1.59992E-09 2.21752E-09
 -1       598-3.85035E+04-1.24017E+04-1.54407E+02-2.37573E+04 9.84244E-11 7.94216E-10
 -1       599-4.06512E+04-1.02424E+04-2.01855E+02-2.12852E+04-3.75962E-10-9.63541E-09
 -1       600-3.85165E+04-1.24061E+04-3.78692E+02-2.37604E+04-1.35924E-09-1.75430E-09
 -1       601-4.06352E+04-1.02335E+04-7.49015E+02-2.12826E+04 3.80737E-10 5.11545E-09
 -1       602-3.86532E+04-1.25027E+04-1.63343E+03-2.37729E+04-5.07043E-10-4.01269E-09
 -1       603-4.05213E+04-1.02400E+04-3.27627E+03-2.12346E+04-3.33557E-10 2.42835E-10
 -1       604-4.06842E+04-1.46073E+04-7.87007E+03-2.36623E+04 1.88379E-10-9.22228E-10
 -1       605-3.90433E+04-1.13170E+04-1.45298E+04-2.01923E+04 1.95075E-09 7.44967E-09
 -1       606 2.51351E+04-8.57647E+03-1.54434E+04 2.44941E+04-2.44836E-09 1.44428E-09
 -1       607 2.24901E+04-2.76677E+03-7.68994E+03 2.74960E+04 5.32964E-10 2.01453E-09
 -1       608 2.39908E+04-4.66557E+02-3.44371E+03 2.42988E+04 2.46291E-09 1.46815E-09
 -1       609 2.36918E+04-1.20936E+02-1.73933E+03 2.77116E+04-1.96087E-09 7.83484E-09
 -1       610 2.38520E+04 2.27022E+01-8.30859E+02 2.42770E+04-4.88217E-09 3.30078E-09
 -1       611 2.37951E+04 3.43831E+01-4.19066E+02 2.77352E+04-8.01629E-09-3.29828E-09
 -1       612 2.38147E+04 3.65561E+01-2.00566E+02 2.42748E+04-4.45925E-09-1.60730E-09
 -1       613 2.37928E+04 4.20621E+01-9.14426E+01 2.77379E+04-4.62342E-09-2.37856E-09
 -1       614 2.37943E+04 3.73386E+01-2.56022E+01 2.42741E+04-1.22327E-09 2.68142E-09
 -1       615 2.37821E+04 4.70370E+01 2.83923E+01 2.77384E+04 3.97267E-09 3.26168E-09
 -1       616 2.37788E+04 4.25382E+01 9.42732E+01 2.42743E+04-2.90447E-09 3.83852E-09
 -1       617 2.37877E+04 7.07828E+01 2.18742E+02 2.77379E+04 1.94086E-09-3.14913E-09
 -1       618 2.37554E+04 1.08402E+02 4.42201E+02 2.42744E+04 3.54703E-10 3.75599E-09
 -1       619 2.39403E+04 4.15056E+02 9.93908E+02 2.77372E+04 4.24620E-10 1.99725E-09
 -1       620 2.36062E+04 1.15940E+03 1.99794E+03 2.42734E+04 2.92755E-09 1.53091E-09
 -1       621 3.05880E+02 1.93356E+05 2.66147E+03 6.78289E+03-1.56277E-10 4.26326E-09
 -1       622 3.50201E+02 1.94016E+05 2.26477E+03 9.90383E+03-4.58158E-11 7.93636E-09
 -1       623 1.41253E+01 1.93545E+05 2.61204E+03 6.75084E+03-1.69621E-10 7.52152E-10
 -1       624 1.18297E+03 1.94779E+05 4.96669E+03 9.93542E+03-2.45819E-10-7.88970E-09
 -1       625 1.18823E+03 1.92588E+05 8.63747E+03 6.75160E+03-2.16460E-10-4.29014E-09
 -1       626 1.59469E+05 4.40231E+04 3.13934E+03 8.60308E+04-1.80989E-09 6.44104E-09
 -1       627 1.57300E+05 4.56242E+04 1.51269E+03 8.94881E+04 2.08729E-10 3.51156E-09
 -1       628 1.59587E+05 4.25375E+04 6.38906E+02 8.65035E+04 5.27234E-09 1.10435E-08
 -1       629 1.56846E+05 4.52678E+04 3.13201E+02 8.96941E+04 5.45333E-09 3.21683E-09
 -1       630 1.59594E+05 4.24675E+04 1.44846E+02 8.65156E+04-1.83900E-09-5.22874E-09
 -1       631 1.56790E+05 4.52601E+04 7.80261E+01 8.96956E+04-2.27737E-09 9.25866E-10
 -1       632 1.59586E+05 4.24733E+04 5.16856E+01 8.65084E+04-4.12820E-09-3.21324E-09
 -1       633 1.56778E+05 4.52650E+04 5.80560E+01 8.96892E+04 2.67914E-09 8.54652E-09
 -1       634 1.59577E+05 4.24742E+04 9.42317E+01 8.65042E+04 4.81532E-09 5.01109E-09
 -1       635 1.56782E+05 4.52665E+04 1.91256E+02 8.96886E+04 3.39628E-09 5.35920E-09
 -1       636 1.59566E+05 4.24735E+04 3.86372E+02 8.65012E+04-1.82115E-09-9.31323E-10
 -1       637 1.56861E+05 4.53281E+04 8.49229E+02 8.96846E+04 3.59671E-09-7.88350E-09
 -1       638 1.59533E+05 4.26630E+04 1.74534E+03 8.64138E+04-6.37897E-09-9.49467E-09
 -1       639 1.57773E+05 4.66050E+04 4.12898E+03 8.94132E+04-7.48025E-09-5.02314E-09
 -1       640 1.59410E+05 4.64636E+04 8.56870E+03 8.47997E+04-2.07206E-09-5.55929E-10
 -1       656 4.31825E+04-1.09311E+06-1.04245E+05-3.60536E+02 2.18279E-10-5.39424E-09
 -1       657-5.70618E+04-1.14017E+06-8.62122E+04 7.03044E+03 2.59206E-10-5.49787E-09
 -1       658 1.36930E+04-1.10653E+06-5.29061E+04-1.36403E+03 1.36197E-09-3.86844E-09
 -1       659-6.11860E+04-1.14212E+06-9.16291E+04 7.70094E+03-1.00681E-09 7.76151E-09
 -1       660 4.72966E+04-1.09116E+06-1.13563E+05-1.03102E+03-2.91038E-11 9.84386E-10
 -1       661 1.53719E+05 1.67311E+04 1.47662E+04 6.00786E+04 2.33194E-09-7.45695E-09
 -1       662 1.61422E+05 2.83010E+04 9.94996E+03 5.74982E+04 1.36856E-09-5.38830E-09
 -1       663 1.56613E+05 2.14737E+04 3.48057E+03 5.92438E+04 2.14834E-09 1.57468E-09
 -1       664 1.58074E+05 2.27490E+04 2.08094E+03 5.85126E+04 4.77633E-09 1.86051E-09
 -1       665 1.57046E+05 2.21272E+04 8.20866E+02 5.91230E+04-4.44322E-09-3.95636E-09
 -1       666 1.57566E+05 2.19971E+04 4.78695E+02 5.86670E+04-6.08759E-09 2.54199E-09
 -1       667 1.57118E+05 2.22060E+04 2.52393E+02 5.90968E+04-2.09374E-09 5.47230E-09
 -1       668 1.57490E+05 2.19343E+04 2.52848E+02 5.87042E+04 5.35295E-09-2.78426E-09
 -1       669 1.57122E+05 2.21882E+04 3.38803E+02 5.90864E+04 2.84246E-10 2.67529E-09
 -1       670 1.57576E+05 2.21124E+04 7.34426E+02 5.87023E+04 2.28772E-09-2.27818E-09
 -1       671 1.57032E+05 2.20315E+04 1.30295E+03 5.90973E+04-5.81885E-10-5.62721E-09
 -1       672 1.58337E+05 2.33781E+04 3.33268E+03 5.85171E+04-2.62258E-09-2.10201E-09
 -1       673 1.56365E+05 2.09543E+04 5.58472E+03 5.92595E+04-2.41914E-09-5.13046E-09
 -1       674 1.63656E+05 3.23475E+04 1.59712E+04 5.69520E+04-4.93401E-10-3.18505E-09
 -1       675 1.51748E+05 1.33129E+04 2.37061E+04 6.05678E+04 8.99036E-10-4.85943E-09
 -1       676 1.75382E+01-2.09243E+05-8.14194E+02 3.66461E+01 3.41277E-09-6.73085E-09
 -1       677-2.16093E+02-2.09440E+05-1.49006E+03-7.32597E+01-2.44634E-09-3.68224E-09
 -1       678 1.44333E+02-2.09103E+05-2.63402E+03 3.65884E+01 2.86263E-10-3.06800E-09
 -1       679-2.63452E+03-2.11030E+05-6.25708E+03-7.30331E+01-2.86775E-09 6.17147E-10
 -1       680 1.57230E+03-2.07654E+05-1.00843E+04 3.60001E+01-3.86990E-10-3.17916E-09
 -1       771-2.24591E+06-3.98069E+05-5.57070E+04-9.36912E+05-1.15324E-08-1.40135E-08
 -1       772-2.23052E+06-4.28589E+05-2.98033E+04-9.71011E+05-7.18865E-09-7.23958E-10
 -1       773-2.25381E+06-3.91910E+05-1.30288E+04-9.40012E+05-3.44153E-09 4.15821E-09
 -1       774-2.22265E+06-4.22199E+05-6.29715E+03-9.74930E+05 6.24277E-09-4.45652E-10
 -1       775-2.25589E+06-3.90533E+05-3.30768E+03-9.40273E+05-1.32422E-09 1.07320E-09
 -1       776-2.22265E+06-4.22284E+05-1.49092E+03-9.77180E+05-3.97267E-09 2.28283E-09
 -1       777-2.25738E+06-3.89438E+05-1.00668E+03-9.40432E+05-7.05768E-10 2.11185E-09
 -1       778-2.22311E+06-4.22543E+05-4.19753E+02-9.79062E+05-1.89175E-10 3.58978E-09
 -1       779-2.25859E+06-3.88506E+05-4.52235E+02-9.40575E+05-5.24597E-09 3.99450E-09
 -1       780-2.22359E+06-4.22754E+05-3.01032E+02-9.80585E+05-1.45483E-08-1.47429E-09
 -1       781-2.25950E+06-3.87763E+05-5.47042E+02-9.40685E+05-1.20490E-08 9.38599E-10
 -1       782-2.22403E+06-4.22948E+05-9.24211E+02-9.81705E+05-1.16470E-08-2.69574E-09
 -1       783-2.26007E+06-3.87272E+05-1.85589E+03-9.40743E+05-2.91038E-09-4.08613E-09
 -1       784-2.22536E+06-4.24209E+05-4.36478E+03-9.82338E+05-5.35510E-09-2.18733E-10
 -1       785-2.25959E+06-3.87602E+05-8.07787E+03-9.40196E+05-1.06375E-08 1.28512E-09
 -1       786 1.64970E+05-8.82570E+03 2.04184E+04-8.82152E+00 9.05984E-07 1.09467E-08
 -1       787 1.73817E+05 1.02174E+04 1.44456E+04 4.36365E-01 1.80452E-06 1.45301E-08
 -1       788 1.68383E+05-1.38353E+03 5.28484E+03-4.53964E+00 1.92960E-06-2.35241E-09
 -1       789 1.69841E+05 1.60083E+03 3.32054E+03-7.89009E+00 2.05120E-06 5.75011E-09
 -1       790 1.68947E+05-2.16132E+02 1.35119E+03-4.95269E-01 2.30371E-06-1.33048E-09
 -1       791 1.69184E+05 2.51134E+02 7.93454E+02-1.70154E+01 2.55834E-06 1.44467E-08
 -1       792 1.69041E+05-3.48498E+01 3.62381E+02 4.58582E+00 3.15559E-06-1.21698E-08
 -1       793 1.69078E+05 4.90629E+01 2.37971E+02-2.96517E+01 3.74748E-06 7.11772E-09
 -1       794 1.69053E+05-1.41948E+01 1.77053E+02 1.21412E+01 1.87519E-06-1.32452E-08
 -1       795 1.69088E+05 7.35332E+01 2.57228E+02-4.93389E+01 5.66308E-09 6.36890E-09
 -1       796 1.69030E+05-5.93024E+01 3.85978E+02 2.42734E+01 2.71975E-10 3.23114E-09
 -1       797 1.69264E+05 4.34811E+02 9.10655E+02-8.15614E+01-6.07423E-10-7.80277E-09
 -1       798 1.68878E+05-3.75207E+02 1.43758E+03 4.43643E+01-1.79274E-10-2.80113E-09
 -1       799 1.70343E+05 2.77043E+03 3.91932E+03-1.35599E+02-1.11108E-09 4.30236E-09
 -1       800 1.67951E+05-2.39304E+03 5.53625E+03 7.83112E+01-6.75504E-11 1.52613E-09
 -1       801-4.71336E+03-1.80329E+05-5.86732E+03 1.88750E+04 1.01081E-08-6.14409E-09
 -1       802 1.74131E+04-8.03717E+04 3.81715E+04-7.26511E+04 2.70120E-08-1.15799E-08
 -1       803-1.18419E+04-1.37820E+05 5.37605E+04 2.12845E+04 2.14168E-08 1.57796E-08
 -1       804 1.12072E+05-2.59244E+04 1.62623E+05-7.29256E+04 2.51584E-08 2.11707E-08
 -1       805-9.94931E+04-2.34413E+05 2.02077E+05 1.91456E+04 8.90577E-09 2.09889E-08
 -1       806-1.93146E+05-4.13288E+04-1.63470E+04-8.04085E+04 1.93518E-09 6.24868E-09
 -1       807-1.94104E+05-3.89919E+04-8.03090E+03-8.47474E+04 1.20014E-09 1.40733E-09
 -1       808-1.93609E+05-3.54237E+04-3.40670E+03-8.31817E+04 4.62251E-10 2.26981E-09
 -1       809-1.92390E+05-3.67615E+04-1.66544E+03-8.49779E+04-1.85992E-10 4.51564E-10
 -1       810-1.93681E+05-3.52155E+04-7.62609E+02-8.33040E+04 4.43151E-10 2.70370E-09
 -1       811-1.92259E+05-3.66733E+04-3.78232E+02-8.49581E+04-1.59343E-09 4.01428E-09
 -1       812-1.93694E+05-3.52311E+04-1.88831E+02-8.33036E+04 6.88942E-10 6.16137E-09
 -1       813-1.92242E+05-3.66756E+04-1.19214E+02-8.49475E+04 5.68434E-11-3.30283E-09
 -1       814-1.93691E+05-3.52371E+04-1.11985E+02-8.33009E+04 1.84809E-09 4.53315E-09
 -1       815-1.92243E+05-3.66777E+04-1.75390E+02-8.49442E+04 1.36424E-10-9.24729E-10
 -1       816-1.93679E+05-3.52360E+04-3.28746E+02-8.32984E+04-9.09949E-10 4.96539E-09
 -1       817-1.92299E+05-3.67092E+04-7.04751E+02-8.49377E+04 2.05841E-09-3.38423E-09
 -1       818-1.93637E+05-3.53353E+04-1.43635E+03-8.32514E+04 1.37561E-09-2.08320E-09
 -1       819-1.93092E+05-3.75710E+04-3.38038E+03-8.47447E+04-5.21504E-09-1.72768E-08
 -1       820-1.93363E+05-3.78916E+04-6.87975E+03-8.21619E+04-3.00406E-09-7.75844E-09
 -1       821-2.49967E+05 1.38678E+04-3.20719E+04 8.70862E+01-1.59889E-10-4.36376E-09
 -1       822-2.63866E+05-1.60544E+04-2.26955E+04-6.10454E+02-1.67026E-09 2.13731E-10
 -1       823-2.55331E+05 2.17412E+03-8.30670E+03 5.55287E+01 1.25278E-09-3.70210E-09
 -1       824-2.57611E+05-2.51646E+03-5.22653E+03-4.65677E+02 3.44857E-10-2.17256E-09
 -1       825-2.56220E+05 3.40240E+02-2.14829E+03-5.76944E+01-3.35280E-09-3.34489E-09
 -1       826-2.56576E+05-4.01278E+02-1.29663E+03-2.01983E+02-5.55963E-09-2.39413E-09
 -1       827-2.56365E+05 6.03425E+01-6.71335E+02-2.08171E+02-3.16217E-09-1.30811E-10
 -1       828-2.56436E+05-1.22371E+02-5.93065E+02 7.92843E+01-5.31118E-09 5.23903E-10
 -1       829-2.56360E+05 6.15899E+01-6.80830E+02-3.38967E+02-1.80709E-11 5.72683E-09
 -1       830-2.56594E+05-4.11076E+02-1.32912E+03 2.71716E+02 2.12788E-09 1.27693E-08
 -1       831-2.56208E+05 3.49024E+02-2.20098E+03-4.00606E+02-2.35755E-09-1.34708E-09
 -1       832-2.57652E+05-2.58119E+03-5.36327E+03 3.03099E+02-1.91484E-09-2.81671E-09
 -1       833-2.55303E+05 2.23017E+03-8.52258E+03-3.70349E+02-1.00357E-09-1.50021E-09
 -1       834-2.64055E+05-1.64709E+04-2.32848E+04 1.63799E+02-1.40423E-09 3.71483E-09
 -1       835-2.49806E+05 1.42279E+04-3.29085E+04-2.61297E+02 5.30880E-09 2.76486E-10
 -1       836-8.33607E+02 2.36834E+05 1.42710E+04-2.07461E+04 1.63845E-09 6.88624E-09
 -1       837 3.14511E+03 2.41251E+05 1.21749E+04-4.16644E+04 2.34263E-09 7.26141E-09
 -1       838-3.03865E+02 2.38064E+05 1.25414E+04-2.06761E+04 2.07365E-09-1.99896E-09
 -1       839 8.04898E+03 2.44907E+05 2.38591E+04-4.16893E+04 2.70120E-09-5.20664E-09
 -1       840-2.41644E+03 2.33145E+05 3.81014E+04-2.07197E+04 1.78989E-09-2.67846E-10
 -1       856-7.69137E+04 6.64257E+03-1.75048E+04-3.92987E+02-2.96006E-09-2.69210E-10
 -1       857-8.41449E+04-7.79062E+03-1.20517E+04 3.99985E+03-2.37283E-09 9.68157E-09
 -1       858-7.97706E+04 9.30727E+02-4.54301E+03-4.10559E+02-7.27943E-09 3.11957E-10
 -1       859-8.08639E+04-1.08197E+03-2.74384E+03 4.02789E+03-1.91790E-09-4.81640E-09
 -1       860-8.01977E+04 1.29422E+02-1.15370E+03-4.21157E+02-1.63463E-09-2.84501E-09
 -1       861-8.03719E+04-1.42787E+02-6.42623E+02 4.04238E+03-4.49219E-09-7.23082E-09
 -1       862-8.02642E+04 1.71332E+01-2.83064E+02-4.25077E+02 5.53847E-09-4.92861E-10
 -1       863-8.02932E+04-1.02637E+01-1.39284E+02 4.04413E+03 7.33204E-09-1.61572E-09
 -1       864-8.02765E+04-1.92390E-01-4.23276E+01-4.22916E+02 6.16112E-09-4.91669E-09
 -1       865-8.02699E+04 2.08380E+01 3.00584E+01 4.03324E+03 6.55217E-09-5.14738E-10
 -1       866-8.02863E+04-1.43469E+01 1.02419E+02-4.14181E+02-2.44304E-09 8.42981E-10
 -1       867-8.02107E+04 1.20345E+02 2.78900E+02 4.00954E+03 6.43354E-10 2.44654E-10
 -1       868-8.03330E+04-9.90410E+01 4.69958E+02-3.99218E+02 3.12730E-09 7.03534E-09
 -1       869-7.98584E+04 8.21495E+02 1.26114E+03 3.97025E+03-2.85661E-09 7.64032E-10
 -1       870-8.06346E+04-6.98113E+02 1.82896E+03-3.74892E+02-3.63798E-10 2.63242E-09
 -1       871-3.66747E+03-7.78426E+03-1.18855E+04 7.79154E+04 1.91631E-09 1.15415E-09
 -1       872-1.60039E+03-1.04420E+04-4.84399E+03 1.01012E+05 4.69754E-09 6.69388E-09
 -1       873-4.43205E+01-9.20029E+03 6.94813E+02 7.77440E+04 1.34355E-09 3.05681E-09
 -1       874 1.81683E+03-7.46825E+03 6.74845E+03 1.01048E+05 3.55112E-09 6.56757E-09
 -1       875 4.32290E+03-1.08026E+04 1.49639E+04 7.78872E+04 2.18643E-09-3.35876E-09
 -1       876 1.94491E+05 3.35418E+04 1.04194E+04 7.89421E+04-2.67687E-09 1.04319E-09
 -1       877 1.95081E+05 3.58349E+04 5.56420E+03 8.20299E+04-6.96673E-09-4.92287E-09
 -1       878 1.95465E+05 3.23884E+04 2.33115E+03 7.97977E+04 3.58614E-09 5.73664E-10
 -1       879 1.93664E+05 3.44235E+04 1.16124E+03 8.21040E+04 3.42618E-09 2.57472E-09
 -1       880 1.95536E+05 3.23755E+04 5.40617E+02 7.98325E+04 2.35218E-09-4.39036E-09
 -1       881 1.93570E+05 3.43636E+04 2.87906E+02 8.20895E+04 4.20459E-09 5.59689E-09
 -1       882 1.95544E+05 3.23839E+04 1.82839E+02 7.98335E+04 3.66947E-09-6.66209E-09
 -1       883 1.93563E+05 3.43608E+04 1.94377E+02 8.20854E+04 3.12230E-09 1.73708E-09
 -1       884 1.95540E+05 3.23817E+04 3.07236E+02 7.98336E+04 2.12049E-09 7.90754E-09
 -1       885 1.93587E+05 3.43652E+04 6.16486E+02 8.20931E+04 7.90435E-09 6.92660E-09
 -1       886 1.95516E+05 3.23637E+04 1.24193E+03 7.98312E+04 8.26014E-09-9.97375E-10
 -1       887 1.93805E+05 3.45083E+04 2.71264E+03 8.21245E+04 2.49941E-09-1.36574E-08
 -1       888 1.95344E+05 3.23939E+04 5.46601E+03 7.97444E+04 2.72652E-09 2.32876E-09
 -1       889 1.97063E+05 3.78897E+04 1.30580E+04 8.20209E+04 4.01540E-09 5.58248E-09
 -1       890 1.93117E+05 3.50394E+04 2.44564E+04 7.76592E+04 4.89445E-09-5.45697E-11
 -1       891-1.23248E+02-1.10561E+05-1.30441E+03 2.10146E+04 4.86011E-10 2.87969E-09
 -1       892-2.14051E+02-1.10872E+05-1.41945E+03 3.17985E+04-3.69937E-10-9.06527E-09
 -1       893-3.64327E+01-1.10602E+05-2.02878E+03 2.10186E+04 8.53561E-10 1.32104E-09
 -1       894-1.11228E+03-1.11651E+05-4.21282E+03 3.16856E+04 1.51772E-09 1.35951E-08
 -1       895-8.68640E+02-1.09726E+05-7.42383E+03 2.11260E+04 8.13600E-10 1.45883E-09
 -1       956-2.44483E+05-3.52763E+03-8.88516E+03 1.62582E+04-3.31420E-09-1.07980E-09
 -1       957-2.46238E+05-1.18848E+03-4.56133E+03 1.95775E+04-1.43837E-09-8.89645E-09
 -1       958-2.45271E+05-9.30884E+01-2.05498E+03 1.61520E+04 3.74348E-09-1.15006E-09
 -1       959-2.45411E+05-1.43133E+01-1.04964E+03 1.96923E+04 1.33696E-10 3.56613E-09
 -1       960-2.45341E+05 3.12017E+01-5.11600E+02 1.61419E+04-3.25190E-09-1.00954E-10
 -1       961-2.45350E+05 2.97567E+01-2.71228E+02 1.97037E+04-5.05315E-09 1.02084E-08
 -1       962-2.45355E+05 2.75071E+01-1.54820E+02 1.61404E+04-5.11000E-09-4.82498E-09
 -1       963-2.45347E+05 3.08113E+01-1.23499E+02 1.97057E+04-4.27713E-09-5.90194E-09
 -1       964-2.45358E+05 2.92317E+01-1.48938E+02 1.61399E+04-2.71712E-10 3.15140E-10
 -1       965-2.45357E+05 3.35576E+01-2.56532E+02 1.97058E+04 4.20848E-09 9.47796E-09
 -1       966-2.45350E+05 3.62805E+01-4.81050E+02 1.61403E+04-1.14392E-09-3.01964E-09
 -1       967-2.45420E+05-4.12643E+00-9.86388E+02 1.96997E+04 8.54016E-10 2.82057E-10
 -1       968-2.45290E+05-7.69933E+01-1.93016E+03 1.61461E+04 2.09411E-10-4.72809E-09
 -1       969-2.46204E+05-1.10409E+03-4.28550E+03 1.96325E+04 1.04683E-09-8.99914E-09
 -1       970-2.44554E+05-3.30167E+03-8.34713E+03 1.62101E+04 1.45019E-09 2.29193E-10
 -1       971-2.32143E+05-1.22412E+03-6.81769E+03 1.13239E+04-2.74486E-09 1.99225E-09
 -1       972-2.33802E+05-8.76574E+02-3.71300E+03 1.58198E+04-2.63117E-09 7.73980E-10
 -1       973-2.32901E+05-6.22575E+00-1.66246E+03 1.12296E+04-3.78623E-09 2.30523E-09
 -1       974-2.33016E+05-5.90709E+00-8.61270E+02 1.59213E+04 1.30535E-09 3.20449E-09
 -1       975-2.32959E+05 2.51422E+01-4.29412E+02 1.12213E+04 2.10548E-10 3.12752E-09
 -1       976-2.32969E+05 2.93069E+01-2.45908E+02 1.59312E+04-2.23611E-09 5.13819E-09
 -1       977-2.32970E+05 2.45921E+01-1.75099E+02 1.12195E+04 2.91038E-09-1.34276E-09
 -1       978-2.32971E+05 3.29872E+01-2.00359E+02 1.59337E+04 1.53923E-08-5.39046E-09
 -1       979-2.32969E+05 2.98221E+01-3.17958E+02 1.12188E+04 5.11079E-09 6.43126E-09
 -1       980-2.32994E+05 3.48672E+01-6.11458E+02 1.59341E+04-1.81991E-09-1.04001E-09
 -1       981-2.32950E+05 4.50624E+01-1.18291E+03 1.12191E+04-4.60057E-09-1.92279E-09
 -1       982-2.33157E+05-5.23119E+01-2.44431E+03 1.59295E+04-5.33737E-09-4.48924E-09
 -1       983-2.32801E+05-3.03348E+01-4.74884E+03 1.12236E+04 2.66687E-09 7.71206E-09
 -1       984-2.35441E+05-2.53184E+03-1.06342E+04 1.58656E+04-3.06829E-09 1.51454E-09
 -1       985-2.30652E+05-3.50493E+03-1.95278E+04 1.12876E+04 3.93584E-09 4.19459E-09
 -3
    1PSTEP                         9           5           1          
  100CL  105 5.03906E-01         409                     0    5           1
 -4  DISP        4    1
 -5  D1          1    2    1    0
 -5  D2          1    2    2    0
 -5  D3          1    2    3    0
 -5  ALL         1    2    0    0    1ALL
 -1         1 1.53002E-04 0.00000E+00 0.00000E+00
 -1         2 1.37942E-04-1.09294E-30-4.13590E-25
 -1         3 1.35485E-04 6.69401E-28 6.61744E-24
 -1         5 9.22835E-05 1.22741E-26 0.00000E+00
 -1         8 1.28016E-04-8.82719E-07 0.00000E+00
 -1         9 1.25466E-04-6.63604E-08 0.00000E+00
 -1        10 1.25020E-04-1.83241E-06-6.61744E-24
 -1        12 9.18817E-05 5.52638E-07 0.00000E+00
 -1        15 9.82332E-05-9.77849E-07 0.00000E+00
 -1        16 1.02029E-04-2.43782E-07 0.00000E+00
 -1        17 9.17552E-05-3.88850E-06 0.00000E+00
 -1        18 8.95861E-05 2.54752E-06 0.00000E+00
 -1        19 9.06764E-05 1.10232E-06 0.00000E+00
 -1        20 9.08156E-05 1.41699E-05 0.00000E+00
 -1        21 9.02698E-05 2.62999E-05 1.65436E-24
 -1        24 2.04414E-05-5.36862E-06 0.00000E+00
 -1        25 8.86697E-05 2.67668E-06 0.00000E+00
 -1        26 8.96257E-05 1.53481E-06 0.00000E+00
 -1        27 8.80922E-05 1.17016E-05 0.00000E+00
 -1        28 8.76280E-05 2.58306E-05 0.00000E+00
 -1        32 0.00000E+00 0.00000E+00 0.00000E+00
 -1        33 8.73260E-05 2.05704E-06 0.00000E+00
 -1        34 8.58429E-05 1.16785E-05 0.00000E+00
 -1        35 8.44389E-05 2.55819E-05 0.00000E+00
 -1        51 1.51380E-04-1.45897E-07 0.00000E+00
 -1        52 1.48370E-04-2.86902E-07 0.00000E+00
 -1        53 1.44245E-04-4.29288E-07 0.00000E+00
 -1        54 1.39289E-04-5.74625E-07 0.00000E+00
 -1        55 1.33784E-04-7.23717E-07-5.99706E-24
 -1        56 1.51639E-04-8.02422E-07 0.00000E+00
 -1        57 1.50399E-04-2.08815E-06 1.32349E-23
 -1        58 1.49288E-04-3.71240E-06 0.00000E+00
 -1        59 1.48244E-04-5.54270E-06 0.00000E+00
 -1        60 1.47220E-04-7.42445E-06 5.29396E-23
 -1        61 1.46155E-04-9.20491E-06 2.64698E-23
 -1        62 1.44998E-04-1.07379E-05 0.00000E+00
 -1        63 1.43697E-04-1.18865E-05 0.00000E+00
 -1        64 1.42211E-04-1.25414E-05-5.29396E-23
 -1        65 1.40505E-04-1.26105E-05 0.00000E+00
 -1        66 1.38560E-04-1.20442E-05-5.29396E-23
 -1        67 1.36368E-04-1.08147E-05-2.64698E-23
 -1        68 1.33933E-04-8.94248E-06 0.00000E+00
 -1        69 1.31279E-04-6.46784E-06 0.00000E+00
 -1        70 1.28428E-04-3.48034E-06 0.00000E+00
 -1        86 1.37594E-04-3.57744E-09 0.00000E+00
 -1        87 1.36552E-04-8.15399E-09 4.13590E-25
 -1        88 1.34817E-04-1.37337E-08 0.00000E+00
 -1        89 1.32389E-04-2.40646E-08 1.65436E-24
 -1        90 1.29271E-04-3.50942E-08-6.61744E-24
 -1       121 1.35193E-04-3.03391E-07 0.00000E+00
 -1       122 1.34316E-04-6.07116E-07 0.00000E+00
 -1       123 1.32857E-04-9.11507E-07 6.61744E-24
 -1       124 1.30818E-04-1.21694E-06 0.00000E+00
 -1       125 1.28204E-04-1.52364E-06 0.00000E+00
 -1       191 9.22723E-05 9.21124E-08 3.30872E-24
 -1       192 9.22388E-05 1.84223E-07-1.65436E-24
 -1       193 9.21830E-05 2.76333E-07 0.00000E+00
 -1       194 9.21049E-05 3.68441E-07-1.65436E-24
 -1       195 9.20045E-05 4.60543E-07 0.00000E+00
 -1       251 1.27844E-04 3.39893E-06 0.00000E+00
 -1       252 1.27683E-04 6.31815E-06-3.30872E-24
 -1       253 1.27525E-04 7.94422E-06-6.61744E-24
 -1       254 1.27370E-04 8.35448E-06 0.00000E+00
 -1       255 1.27214E-04 7.72220E-06-6.61744E-24
 -1       256 1.27058E-04 6.22728E-06-3.30872E-24
 -1       257 1.26901E-04 4.11756E-06 6.61744E-24
 -1       258 1.26743E-04 1.64482E-06 0.00000E+00
 -1       259 1.26585E-04-9.10644E-07 0.00000E+00
 -1       260 1.26427E-04-3.26795E-06-3.30872E-24
 -1       261 1.26270E-04-5.16180E-06-6.61744E-24
 -1       262 1.26114E-04-6.32994E-06 3.30872E-24
 -1       263 1.25958E-04-6.56722E-06 0.00000E+00
 -1       264 1.25800E-04-5.67442E-06 0.00000E+00
 -1       265 1.25641E-04-3.54153E-06 6.61744E-24
 -1       266 1.23053E-04-9.10645E-07 6.61744E-24
 -1       267 1.18089E-04-9.25029E-07-1.65436E-24
 -1       268 1.13125E-04-9.40270E-07-1.65436E-24
 -1       269 1.08161E-04-9.52971E-07 4.13590E-25
 -1       270 1.03197E-04-9.65612E-07 0.00000E+00
 -1       271 1.25019E-04 2.93474E-06-2.64698E-23
 -1       272 1.22423E-04 5.55550E-06-1.32349E-23
 -1       273 1.20236E-04 7.09910E-06 0.00000E+00
 -1       274 1.18402E-04 7.68400E-06 0.00000E+00
 -1       275 1.16875E-04 7.45215E-06 0.00000E+00
 -1       276 1.15594E-04 6.55752E-06 0.00000E+00
 -1       277 1.14499E-04 5.16720E-06-5.29396E-23
 -1       278 1.13524E-04 3.45682E-06 0.00000E+00
 -1       279 1.12600E-04 1.60809E-06 0.00000E+00
 -1       280 1.11659E-04-1.94730E-07 2.64698E-23
 -1       281 1.10632E-04-1.76841E-06-5.29396E-23
 -1       282 1.09454E-04-2.93365E-06 0.00000E+00
 -1       283 1.08059E-04-3.51913E-06 0.00000E+00
 -1       284 1.06391E-04-3.36224E-06 2.64698E-23
 -1       285 1.04387E-04-2.31795E-06 0.00000E+00
 -1       301 1.21247E-04-1.06709E-07 0.00000E+00
 -1       302 1.17072E-04-1.28342E-07 3.30872E-24
 -1       303 1.13001E-04-1.48801E-07 0.00000E+00
 -1       304 1.09096E-04-1.69870E-07 0.00000E+00
 -1       305 1.05419E-04-1.92392E-07-1.32349E-23
 -1       306 1.22476E-04 2.24111E-06 0.00000E+00
 -1       307 1.20299E-04 2.20771E-06 0.00000E+00
 -1       308 1.18949E-04-2.07437E-08-5.29396E-23
 -1       309 1.18314E-04-4.20152E-06 2.64698E-23
 -1       310 1.18179E-04-9.73575E-06 0.00000E+00
 -1       311 1.18295E-04-1.59510E-05-2.64698E-23
 -1       312 1.18367E-04-2.20517E-05 0.00000E+00
 -1       313 1.18106E-04-2.72502E-05 0.00000E+00
 -1       314 1.17277E-04-3.09191E-05 0.00000E+00
 -1       315 1.15677E-04-3.25192E-05 2.64698E-23
 -1       316 1.13238E-04-3.18815E-05 0.00000E+00
 -1       317 1.09940E-04-2.89639E-05 0.00000E+00
 -1       318 1.05914E-04-2.41309E-05 0.00000E+00
 -1       319 1.01350E-04-1.78501E-05 0.00000E+00
 -1       320 9.65076E-05-1.08560E-05 0.00000E+00
 -1       336 1.21198E-04-2.16732E-06 1.32349E-23
 -1       337 1.16670E-04-2.50549E-06 0.00000E+00
 -1       338 1.11448E-04-2.84682E-06 6.61744E-24
 -1       339 1.05544E-04-3.19126E-06 0.00000E+00
 -1       340 9.89738E-05-3.53974E-06 0.00000E+00
 -1       406 9.17366E-05 6.44719E-07 0.00000E+00
 -1       407 9.15691E-05 7.36767E-07 0.00000E+00
 -1       408 9.13794E-05 8.28756E-07 3.30872E-24
 -1       409 9.11673E-05 9.20573E-07 0.00000E+00
 -1       410 9.09329E-05 1.01204E-06 0.00000E+00
 -1       521 1.03563E-04-1.34779E-05 0.00000E+00
 -1       522 1.15259E-04-5.63759E-05 0.00000E+00
 -1       523 1.34188E-04-1.21821E-04-1.05879E-22
 -1       524 1.57136E-04-2.00718E-04-5.29396E-23
 -1       525 1.80486E-04-2.80979E-04 0.00000E+00
 -1       526 2.00607E-04-3.50391E-04-5.29396E-23
 -1       527 2.14215E-04-3.99172E-04 0.00000E+00
 -1       528 2.18126E-04-4.19369E-04 5.29396E-23
 -1       529 2.10781E-04-4.09228E-04-1.05879E-22
 -1       530 1.91493E-04-3.69522E-04 0.00000E+00
 -1       531 1.62420E-04-3.07148E-04-1.05879E-22
 -1       532 1.26936E-04-2.30689E-04 0.00000E+00
 -1       533 9.02108E-05-1.51545E-04-1.05879E-22
 -1       534 5.76092E-05-8.12907E-05 0.00000E+00
 -1       535 3.32940E-05-2.97619E-05 5.29396E-23
 -1       536 9.16059E-05 4.53344E-06-6.61744E-24
 -1       537 9.14459E-05 1.47080E-05 0.00000E+00
 -1       538 9.12798E-05 2.54756E-05 0.00000E+00
 -1       539 9.11204E-05 3.56743E-05-1.65436E-24
 -1       540 9.09751E-05 4.42684E-05 3.30872E-24
 -1       541 9.08485E-05 5.02301E-05 0.00000E+00
 -1       542 9.07347E-05 5.31190E-05 0.00000E+00
 -1       543 9.06248E-05 5.25098E-05 1.65436E-24
 -1       544 9.05085E-05 4.87562E-05 3.30872E-24
 -1       545 9.03786E-05 4.22276E-05 0.00000E+00
 -1       546 9.02363E-05 3.39123E-05 3.30872E-24
 -1       547 9.00876E-05 2.48075E-05 1.65436E-24
 -1       548 8.99421E-05 1.60866E-05-3.30872E-24
 -1       549 8.98097E-05 8.92144E-06-8.27181E-25
 -1       550 8.96901E-05 4.13736E-06 8.27181E-25
 -1       551 8.23451E-05-4.10666E-06 6.61744E-24
 -1       552 7.11254E-05-4.33857E-06 0.00000E+00
 -1       553 5.87062E-05-4.58333E-06 4.96308E-24
 -1       554 4.57069E-05-4.83719E-06 0.00000E+00
 -1       555 3.27469E-05-5.09333E-06-1.32349E-23
 -1       556 8.92381E-05 2.62951E-06 0.00000E+00
 -1       557 8.72925E-05 7.67751E-06 0.00000E+00
 -1       558 8.58571E-05 1.13868E-05 0.00000E+00
 -1       559 8.48759E-05 1.38996E-05 0.00000E+00
 -1       560 8.42933E-05 1.53575E-05 0.00000E+00
 -1       561 8.40543E-05 1.59033E-05 0.00000E+00
 -1       562 8.41042E-05 1.56798E-05 0.00000E+00
 -1       563 8.43889E-05 1.48300E-05 0.00000E+00
 -1       564 8.48544E-05 1.34972E-05 0.00000E+00
 -1       565 8.54468E-05 1.18245E-05 0.00000E+00
 -1       566 8.61127E-05 9.95540E-06-1.65436E-24
 -1       567 8.67983E-05 8.03321E-06 2.06795E-25
 -1       568 8.74503E-05 6.20132E-06 0.00000E+00
 -1       569 8.80151E-05 4.60294E-06 0.00000E+00
 -1       570 8.84390E-05 3.38133E-06 0.00000E+00
 -1       571 8.96522E-05 2.49142E-06-8.27181E-25
 -1       572 8.97199E-05 2.39004E-06-4.13590E-25
 -1       573 8.97879E-05 2.25169E-06 0.00000E+00
 -1       574 8.98562E-05 2.08515E-06 4.13590E-25
 -1       575 8.99245E-05 1.89919E-06 0.00000E+00
 -1       576 8.99929E-05 1.70266E-06 0.00000E+00
 -1       577 9.00613E-05 1.50442E-06-3.30872E-24
 -1       578 9.01297E-05 1.31332E-06 0.00000E+00
 -1       579 9.01981E-05 1.13821E-06 0.00000E+00
 -1       580 9.02665E-05 9.87969E-07 0.00000E+00
 -1       581 9.03349E-05 8.71443E-07 0.00000E+00
 -1       582 9.04033E-05 7.97481E-07 0.00000E+00
 -1       583 9.04716E-05 7.74925E-07 0.00000E+00
 -1       584 9.05400E-05 8.12527E-07 0.00000E+00
 -1       585 9.06083E-05 9.18986E-07-3.30872E-24
 -1       586 8.94026E-05 2.57038E-06 8.27181E-25
 -1       587 8.91923E-05 2.59270E-06 2.06795E-25
 -1       588 8.89843E-05 2.61478E-06 0.00000E+00
 -1       589 8.88083E-05 2.63650E-06 0.00000E+00
 -1       590 8.86939E-05 2.65761E-06 0.00000E+00
 -1       591 8.95745E-05 2.52881E-06 5.16988E-26
 -1       592 8.95733E-05 2.47537E-06 0.00000E+00
 -1       593 8.95824E-05 2.39389E-06 4.13590E-25
 -1       594 8.95995E-05 2.29040E-06 0.00000E+00
 -1       595 8.96225E-05 2.17097E-06 8.27181E-25
 -1       596 8.96491E-05 2.04167E-06-4.13590E-25
 -1       597 8.96772E-05 1.90853E-06-4.13590E-25
 -1       598 8.97044E-05 1.77759E-06 0.00000E+00
 -1       599 8.97285E-05 1.65488E-06 4.13590E-25
 -1       600 8.97473E-05 1.54645E-06 0.00000E+00
 -1       601 8.97585E-05 1.45833E-06 4.13590E-25
 -1       602 8.97599E-05 1.39657E-06 1.03398E-25
 -1       603 8.97492E-05 1.36720E-06 2.06795E-25
 -1       604 8.97244E-05 1.37632E-06-5.16988E-26
 -1       605 8.96832E-05 1.42995E-06-4.13590E-25
 -1       606 9.06886E-05 1.43982E-06 3.30872E-24
 -1       607 9.06983E-05 1.86936E-06-1.65436E-24
 -1       608 9.07074E-05 2.38554E-06 3.30872E-24
 -1       609 9.07162E-05 2.98226E-06 0.00000E+00
 -1       610 9.07248E-05 3.65339E-06-3.30872E-24
 -1       611 9.07334E-05 4.39274E-06 0.00000E+00
 -1       612 9.07418E-05 5.19409E-06 0.00000E+00
 -1       613 9.07502E-05 6.05121E-06 0.00000E+00
 -1       614 9.07586E-05 6.95790E-06 0.00000E+00
 -1       615 9.07669E-05 7.90792E-06-8.27181E-25
 -1       616 9.07752E-05 8.89507E-06 1.65436E-24
 -1       617 9.07834E-05 9.91311E-06 0.00000E+00
 -1       618 9.07916E-05 1.09558E-05 0.00000E+00
 -1       619 9.07998E-05 1.20170E-05 0.00000E+00
 -1       620 9.08078E-05 1.30904E-05 0.00000E+00
 -1       621 9.04375E-05 1.17448E-06 1.65436E-24
 -1       622 9.02339E-05 1.24696E-06 8.27181E-25
 -1       623 9.00583E-05 1.31943E-06-1.65436E-24
 -1       624 8.99033E-05 1.39178E-06-8.27181E-25
 -1       625 8.97616E-05 1.46401E-06-1.65436E-24
 -1       626 9.06277E-05 1.46303E-06-3.30872E-24
 -1       627 9.05511E-05 1.89934E-06 0.00000E+00
 -1       628 9.04490E-05 2.40410E-06 0.00000E+00
 -1       629 9.03242E-05 2.96967E-06 0.00000E+00
 -1       630 9.01794E-05 3.58839E-06-3.30872E-24
 -1       631 9.00175E-05 4.25257E-06-1.65436E-24
 -1       632 8.98414E-05 4.95451E-06 3.30872E-24
 -1       633 8.96541E-05 5.68653E-06 0.00000E+00
 -1       634 8.94583E-05 6.44092E-06 0.00000E+00
 -1       635 8.92571E-05 7.20999E-06 0.00000E+00
 -1       636 8.90532E-05 7.98604E-06 1.65436E-24
 -1       637 8.88495E-05 8.76139E-06 8.27181E-25
 -1       638 8.86489E-05 9.52832E-06 0.00000E+00
 -1       639 8.84542E-05 1.02792E-05 0.00000E+00
 -1       640 8.82681E-05 1.10062E-05-1.65436E-24
 -1       656 8.99383E-05 1.37682E-05 6.61744E-24
 -1       657 8.94133E-05 1.33506E-05 3.30872E-24
 -1       658 8.91087E-05 1.29342E-05 1.32349E-23
 -1       659 8.88888E-05 1.25182E-05 3.30872E-24
 -1       660 8.86006E-05 1.21009E-05 0.00000E+00
 -1       661 9.04915E-05 1.52234E-05 8.27181E-25
 -1       662 9.01907E-05 1.62236E-05-8.27181E-25
 -1       663 8.99091E-05 1.71720E-05 0.00000E+00
 -1       664 8.96464E-05 1.80714E-05 8.27181E-25
 -1       665 8.94013E-05 1.89242E-05 1.65436E-24
 -1       666 8.91729E-05 1.97327E-05 0.00000E+00
 -1       667 8.89603E-05 2.04992E-05 0.00000E+00
 -1       668 8.87628E-05 2.12258E-05-8.27181E-25
 -1       669 8.85794E-05 2.19146E-05 0.00000E+00
 -1       670 8.84095E-05 2.25675E-05 8.27181E-25
 -1       671 8.82523E-05 2.31865E-05 1.65436E-24
 -1       672 8.81071E-05 2.37733E-05 0.00000E+00
 -1       673 8.79732E-05 2.43297E-05 0.00000E+00
 -1       674 8.78494E-05 2.48571E-05 8.27181E-25
 -1       675 8.77360E-05 2.53574E-05 0.00000E+00
 -1       676 8.98283E-05 2.62212E-05 0.00000E+00
 -1       677 8.93870E-05 2.61425E-05-8.27181E-25
 -1       678 8.89462E-05 2.60639E-05 0.00000E+00
 -1       679 8.85059E-05 2.59856E-05-8.27181E-25
 -1       680 8.80665E-05 2.59072E-05 0.00000E+00
 -1       771 1.56520E-05 4.24760E-06 5.29396E-23
 -1       772 1.15196E-05 1.21283E-05 0.00000E+00
 -1       773 8.01569E-06 1.83670E-05 0.00000E+00
 -1       774 5.09862E-06 2.30647E-05 2.64698E-23
 -1       775 2.72736E-06 2.63249E-05 0.00000E+00
 -1       776 8.59022E-07 2.82557E-05 0.00000E+00
 -1       777-5.49721E-07 2.89674E-05-5.29396E-23
 -1       778-1.54320E-06 2.85739E-05 0.00000E+00
 -1       779-2.16602E-06 2.71910E-05 0.00000E+00
 -1       780-2.46365E-06 2.49377E-05 0.00000E+00
 -1       781-2.48166E-06 2.19342E-05 2.64698E-23
 -1       782-2.26628E-06 1.83034E-05-1.32349E-23
 -1       783-1.86378E-06 1.41689E-05 2.64698E-23
 -1       784-1.32085E-06 9.65599E-06 0.00000E+00
 -1       785-6.84237E-07 4.89070E-06 2.64698E-23
 -1       786 8.87258E-05 2.50547E-06 0.00000E+00
 -1       787 8.87854E-05 2.34843E-06-8.27181E-25
 -1       788 8.88447E-05 2.20339E-06 0.00000E+00
 -1       789 8.89047E-05 2.06822E-06-8.27181E-25
 -1       790 8.89648E-05 1.94216E-06 1.65436E-24
 -1       791 8.90249E-05 1.82446E-06 8.27181E-25
 -1       792 8.90851E-05 1.71554E-06-1.65436E-24
 -1       793 8.91453E-05 1.61586E-06 0.00000E+00
 -1       794 8.92055E-05 1.52713E-06-1.65436E-24
 -1       795 8.92657E-05 1.45112E-06 8.27181E-25
 -1       796 8.93259E-05 1.39134E-06 1.65436E-24
 -1       797 8.93861E-05 1.35137E-06 0.00000E+00
 -1       798 8.94463E-05 1.33753E-06-1.65436E-24
 -1       799 8.95063E-05 1.35620E-06 0.00000E+00
 -1       800 8.95664E-05 1.41829E-06 0.00000E+00
 -1       801 8.26641E-05 2.36505E-06 0.00000E+00
 -1       802 6.43728E-05 1.89843E-06 3.30872E-24
 -1       803 4.04775E-05 1.32530E-06-1.32349E-23
 -1       804 1.77371E-05 7.70716E-07 0.00000E+00
 -1       805 2.24442E-06 3.43207E-07 0.00000E+00
 -1       806 8.86561E-05 2.46000E-06 0.00000E+00
 -1       807 8.86373E-05 2.24898E-06 0.00000E+00
 -1       808 8.86141E-05 2.04817E-06 3.30872E-24
 -1       809 8.85853E-05 1.86134E-06-1.65436E-24
 -1       810 8.85497E-05 1.69225E-06 0.00000E+00
 -1       811 8.85061E-05 1.54460E-06 0.00000E+00
 -1       812 8.84530E-05 1.42209E-06 3.30872E-24
 -1       813 8.83891E-05 1.32839E-06 8.27181E-25
 -1       814 8.83130E-05 1.26719E-06-1.65436E-24
 -1       815 8.82233E-05 1.24217E-06 8.27181E-25
 -1       816 8.81188E-05 1.25699E-06 0.00000E+00
 -1       817 8.79979E-05 1.31534E-06-8.27181E-25
 -1       818 8.78593E-05 1.42087E-06-1.65436E-24
 -1       819 8.77018E-05 1.57725E-06 8.27181E-25
 -1       820 8.75242E-05 1.78811E-06-1.65436E-24
 -1       821 8.95354E-05 1.65957E-06-8.27181E-25
 -1       822 8.94396E-05 1.74732E-06 0.00000E+00
 -1       823 8.93441E-05 1.85091E-06 0.00000E+00
 -1       824 8.92476E-05 2.02315E-06 0.00000E+00
 -1       825 8.91510E-05 2.30312E-06 0.00000E+00
 -1       826 8.90542E-05 2.72946E-06 0.00000E+00
 -1       827 8.89573E-05 3.31158E-06 0.00000E+00
 -1       828 8.88603E-05 4.05826E-06 0.00000E+00
 -1       829 8.87631E-05 4.94541E-06 0.00000E+00
 -1       830 8.86659E-05 5.94837E-06 0.00000E+00
 -1       831 8.85686E-05 7.01937E-06 0.00000E+00
 -1       832 8.84715E-05 8.11034E-06 1.65436E-24
 -1       833 8.83745E-05 9.16922E-06 0.00000E+00
 -1       834 8.82786E-05 1.01441E-05 0.00000E+00
 -1       835 8.81825E-05 1.09998E-05 0.00000E+00
 -1       836 8.93904E-05 1.62174E-06-1.65436E-24
 -1       837 8.90429E-05 1.71061E-06-8.27181E-25
 -1       838 8.86229E-05 1.79932E-06-1.65436E-24
 -1       839 8.81703E-05 1.88745E-06 0.00000E+00
 -1       840 8.77247E-05 1.97544E-06-4.13590E-25
 -1       856 8.80666E-05 1.23820E-05 0.00000E+00
 -1       857 8.80379E-05 1.31668E-05 0.00000E+00
 -1       858 8.80094E-05 1.40394E-05 8.27181E-25
 -1       859 8.79802E-05 1.49835E-05 0.00000E+00
 -1       860 8.79510E-05 1.59824E-05-8.27181E-25
 -1       861 8.79216E-05 1.70195E-05 0.00000E+00
 -1       862 8.78922E-05 1.80782E-05-8.27181E-25
 -1       863 8.78628E-05 1.91418E-05 0.00000E+00
 -1       864 8.78333E-05 2.01936E-05 8.27181E-25
 -1       865 8.78039E-05 2.12169E-05 4.13590E-25
 -1       866 8.77745E-05 2.21951E-05-8.27181E-25
 -1       867 8.77452E-05 2.31115E-05-4.13590E-25
 -1       868 8.77159E-05 2.39497E-05 0.00000E+00
 -1       869 8.76866E-05 2.46931E-05-4.13590E-25
 -1       870 8.76575E-05 2.53255E-05 8.27181E-25
 -1       871 8.76106E-05 1.17006E-05 4.13590E-25
 -1       872 8.72307E-05 1.16975E-05 0.00000E+00
 -1       873 8.69085E-05 1.16940E-05 0.00000E+00
 -1       874 8.65995E-05 1.16900E-05 1.55096E-25
 -1       875 8.62590E-05 1.16856E-05 0.00000E+00
 -1       876 8.79289E-05 1.23910E-05 3.30872E-24
 -1       877 8.77487E-05 1.31312E-05-1.65436E-24
 -1       878 8.75519E-05 1.39161E-05-3.30872E-24
 -1       879 8.73406E-05 1.47399E-05 0.00000E+00
 -1       880 8.71170E-05 1.55969E-05-3.30872E-24
 -1       881 8.68831E-05 1.64814E-05 1.65436E-24
 -1       882 8.66410E-05 1.73877E-05 3.30872E-24
 -1       883 8.63928E-05 1.83101E-05 1.65436E-24
 -1       884 8.61408E-05 1.92428E-05-3.30872E-24
 -1       885 8.58869E-05 2.01802E-05 0.00000E+00
 -1       886 8.56334E-05 2.11166E-05 3.30872E-24
 -1       887 8.53824E-05 2.20463E-05 8.27181E-25
 -1       888 8.51358E-05 2.29636E-05-1.65436E-24
 -1       889 8.48956E-05 2.38626E-05 0.00000E+00
 -1       890 8.46640E-05 2.47377E-05 0.00000E+00
 -1       891 8.72096E-05 2.57890E-05 1.65436E-24
 -1       892 8.67734E-05 2.57472E-05-8.27181E-25
 -1       893 8.62987E-05 2.57055E-05-8.27181E-25
 -1       894 8.57650E-05 2.56639E-05-2.06795E-25
 -1       895 8.51518E-05 2.56223E-05-2.06795E-25
 -1       956 8.72351E-05 2.44459E-06 1.65436E-24
 -1       957 8.71426E-05 2.89151E-06-8.27181E-25
 -1       958 8.70499E-05 3.39153E-06 1.65436E-24
 -1       959 8.69570E-05 3.93799E-06-8.27181E-25
 -1       960 8.68640E-05 4.52422E-06 1.65436E-24
 -1       961 8.67709E-05 5.14352E-06-8.27181E-25
 -1       962 8.66779E-05 5.78917E-06-3.30872E-24
 -1       963 8.65848E-05 6.45447E-06 1.65436E-24
 -1       964 8.64917E-05 7.13270E-06-3.30872E-24
 -1       965 8.63986E-05 7.81713E-06-1.65436E-24
 -1       966 8.63055E-05 8.50105E-06 0.00000E+00
 -1       967 8.62125E-05 9.17776E-06-1.65436E-24
 -1       968 8.61195E-05 9.84051E-06 3.30872E-24
 -1       969 8.60267E-05 1.04826E-05 0.00000E+00
 -1       970 8.59341E-05 1.10975E-05-3.30872E-24
 -1       971 8.57563E-05 1.22774E-05 1.65436E-24
 -1       972 8.56685E-05 1.29533E-05-8.27181E-25
 -1       973 8.55805E-05 1.36979E-05 1.65436E-24
 -1       974 8.54924E-05 1.45022E-05 0.00000E+00
 -1       975 8.54042E-05 1.53574E-05-1.65436E-24
 -1       976 8.53159E-05 1.62546E-05-8.27181E-25
 -1       977 8.52276E-05 1.71849E-05 0.00000E+00
 -1       978 8.51392E-05 1.81395E-05 0.00000E+00
 -1       979 8.50509E-05 1.91094E-05 3.30872E-24
 -1       980 8.49626E-05 2.00858E-05 0.00000E+00
 -1       981 8.48742E-05 2.10597E-05 0.00000E+00
 -1       982 8.47860E-05 2.20223E-05 1.65436E-24
 -1       983 8.46979E-05 2.29647E-05 0.00000E+00
 -1       984 8.46102E-05 2.38780E-05 1.65436E-24
 -1       985 8.45229E-05 2.47533E-05 0.00000E+00
 -3
    1PSTEP                        10           5           1          
  100CL  105 5.03906E-01         409                     0    5           1
 -4  STRESS      6    1
 -5  SXX         1    4    1    1
 -5  SYY         1    4    2    2
 -5  SZZ         1    4    3    3
 -5  SXY         1    4    1    2
 -5  SYZ         1    4    2    3
 -5  SZX         1    4    3    1
 -1         1-1.94899E+06-8.55091E+05-4.06926E+05-1.14604E+06 2.83762E-10-7.52334E-09
 -1         2 2.64707E+03-6.52312E+03 8.65546E+03-2.39697E+01-1.16614E-10-2.96581E-09
 -1         3-1.47505E+02-8.66297E+05 2.04849E+02-4.01648E+02-3.15859E-10-1.63109E-08
 -1         5-4.22562E+00 2.63564E+05 6.81852E+00 1.17937E-01 6.50986E-11-3.65953E-08
 -1         8-9.26669E+05-3.63490E+05-6.67385E+04-5.64436E+05-3.83807E-10-3.78350E-10
 -1         9-1.77023E+06-5.22848E+05-2.03604E+05-5.56408E+05 4.31028E-09-6.92671E-10
 -1        10-7.37231E+02-9.02500E+05-1.21964E+03-2.71582E+03-4.21460E-09-1.79850E-08
 -1        12-1.43047E+00 2.63578E+05 2.20959E+02 9.85094E-01 1.64050E-10-2.31250E-08
 -1        15 1.99990E+03 1.09907E+03 6.46469E+03 4.29293E+00 2.42864E-10-1.29328E-09
 -1        16-3.21317E+06-1.25162E+06-5.15973E+05-1.30615E+06 1.13699E-08 4.81183E-09
 -1        17-1.06757E+06-6.25649E+05-2.08873E+05-5.61883E+05-5.56320E-09 2.89874E-09
 -1        18-4.43801E+04-1.55738E+04-3.12043E+04-6.55819E+04 2.12549E-09 1.14096E-09
 -1        19 8.34617E+04 9.83632E+04-5.21430E+02 1.61864E+04-3.92356E-10 2.38360E-09
 -1        20-3.69943E+04-3.92750E+05-8.67973E+04 2.76850E+04 3.16019E-09 2.49808E-10
 -1        21-3.65771E+01-2.24996E+05-7.24326E+02-6.81284E+01-5.30488E-09-7.73369E-09
 -1        24-3.22547E+06-9.05648E+05-4.08899E+05-1.18626E+06-3.02025E-08-1.68123E-08
 -1        25-8.00955E+03-1.79885E+05-2.35602E+04-1.14225E+05 2.87218E-10 1.03006E-08
 -1        26-2.13527E+04 6.66379E+04-1.37683E+04-8.47302E+03 1.67893E-09 4.04640E-09
 -1        27-6.16699E+04-2.15090E+05-8.05156E+04 4.84555E+04 5.26848E-09-2.43926E-09
 -1        28 1.73908E+04-6.24102E+04 1.27268E+04 1.94944E+04 2.48170E-09 3.59815E-09
 -1        32-9.20662E+05-5.53286E+05 2.62220E+05-5.58402E+05-2.00744E-08 6.31212E-09
 -1        33-1.23523E+05 6.29881E+04 2.23521E+04-3.52715E+04 7.48040E-10 1.84718E-09
 -1        34-1.59345E+05-1.60054E+04 3.85774E+02 4.94425E+04 3.52487E-09-4.30752E-09
 -1        35-1.76949E+04-2.47958E+04-9.73859E+02 3.91942E+04 2.91706E-09-4.75241E-09
 -1        51 1.72830E+04-3.62514E+05 4.33949E+04-9.52231E+05 1.89175E-10-7.52334E-09
 -1        52 1.00473E+04-3.60454E+05 2.80266E+04-1.11058E+06 1.05501E-09-1.42609E-09
 -1        53 7.02395E+03-3.73923E+05 2.28997E+04-9.48900E+05 5.96629E-10-5.18048E-09
 -1        54 1.97841E+04-3.72590E+05 3.55823E+04-1.11404E+06 2.32831E-10-8.37827E-09
 -1        55 3.90456E+04-3.86011E+05 6.28092E+04-9.48359E+05 5.82077E-10-1.26238E-09
 -1        56-3.73278E+06-4.18893E+05-2.99231E+05-1.44036E+06-5.82077E-10 1.29949E-08
 -1        57-3.85643E+06-6.86475E+05-2.01752E+05-1.42490E+06 2.46928E-09 2.08674E-08
 -1        58-3.79343E+06-5.13214E+05-7.03867E+04-1.42090E+06-3.31966E-10 3.50701E-09
 -1        59-3.78626E+06-5.75766E+05-4.20181E+04-1.44806E+06-1.48430E-09-1.69948E-08
 -1        60-3.80225E+06-5.26393E+05-1.64247E+04-1.41829E+06-1.81353E-09-4.23552E-09
 -1        61-3.77768E+06-5.58608E+05-9.31904E+03-1.44906E+06 9.37689E-10-1.83536E-08
 -1        62-3.80182E+06-5.29980E+05-4.47226E+03-1.41999E+06 5.75710E-10-4.60491E-09
 -1        63-3.78130E+06-5.51578E+05-3.59988E+03-1.44339E+06 2.60161E-09 1.97615E-08
 -1        64-3.79850E+06-5.33446E+05-4.11113E+03-1.42390E+06 9.86120E-10-8.28754E-09
 -1        65-3.78998E+06-5.45396E+05-8.11712E+03-1.43414E+06-3.58079E-09-1.04014E-08
 -1        66-3.79307E+06-5.36262E+05-1.43097E+04-1.42916E+06-7.21343E-10-3.66708E-09
 -1        67-3.80736E+06-5.50173E+05-3.62947E+04-1.42178E+06 4.54179E-11-1.38743E-09
 -1        68-3.78124E+06-5.29029E+05-6.09132E+04-1.43615E+06 3.56704E-09 1.32459E-08
 -1        69-3.87415E+06-6.40032E+05-1.74412E+05-1.39530E+06 1.40972E-09 1.61472E-08
 -1        70-3.72706E+06-4.49086E+05-2.58748E+05-1.45480E+06-6.98492E-10 9.88075E-09
 -1        86-1.33042E+03-9.39965E+03 9.23276E+03 1.19636E+01 1.15369E-09 4.40195E-10
 -1        87 8.80628E+03-3.54795E+03 1.93124E+04-3.67135E+01 1.92267E-09 1.73083E-09
 -1        88-7.46997E+03-1.23738E+04 2.95310E+04 2.47018E+01 2.79033E-09-6.65364E-09
 -1        89 5.56425E+04 1.81729E+04 7.96663E+04 3.52290E+01 4.32465E-09-1.00175E-08
 -1        90-4.80063E+04-3.11015E+04 1.12561E+05-5.94770E+01 4.59113E-09 1.09281E-09
 -1       121-2.22113E+02-8.66901E+05 1.35089E+02 2.00488E+02 4.71992E-10-4.67298E-09
 -1       122-7.85401E+01-8.66260E+05 4.39783E+02-8.02765E+02-1.80358E-09 2.26646E-09
 -1       123-2.66869E+02-8.66950E+05 6.49454E+02 6.00275E+02 1.46309E-09-5.06225E-09
 -1       124 7.36851E+02-8.65785E+05 1.82568E+03-1.76031E+03-3.14731E-09 1.25228E-08
 -1       125-7.85274E+02-8.67410E+05 2.73600E+03 1.15698E+03 2.25600E-09 7.42693E-09
 -1       191-4.66277E+00 2.63586E+05 8.18575E+00-5.94146E-02 1.27095E-10-2.70957E-08
 -1       192-4.85183E+00 2.63564E+05 1.44350E+01 6.00072E-01 1.86113E-10-9.58448E-09
 -1       193-6.32786E+00 2.63586E+05 2.68798E+01-5.43785E-01 2.02438E-10-3.82897E-09
 -1       194-6.86710E+00 2.63566E+05 5.45952E+01 1.45284E+00 1.42450E-10-1.46781E-08
 -1       195-9.52784E+00 2.63584E+05 1.06825E+02-9.17810E-01 3.05540E-10-1.82808E-08
 -1       251-4.53051E+05-1.95857E+04 4.54578E+04-1.27540E+03-8.01492E-11 2.72848E-11
 -1       252-4.30750E+05 2.26315E+04 3.25364E+04-4.90298E+03-1.96877E-10 2.70211E-09
 -1       253-4.45256E+05-3.05845E+03 1.16835E+04 1.11207E+03 4.05748E-10-2.19643E-09
 -1       254-4.40202E+05 3.50696E+03 7.63093E+03-9.25764E+03 5.36772E-10 5.00950E-09
 -1       255-4.43665E+05-4.83833E+02 3.01197E+03 3.07909E+03-4.05578E-10 4.38831E-09
 -1       256-4.42354E+05 5.82089E+02 1.97650E+03-1.23878E+04 8.77662E-10 2.88969E-09
 -1       257-4.43175E+05-9.25988E+01 1.05682E+03 4.24225E+03 4.35165E-10 4.16500E-09
 -1       258-4.42902E+05 2.52156E+02 1.09863E+03-1.37070E+04-2.48662E-10-6.70126E-09
 -1       259-4.43153E+05-1.28675E+02 1.41920E+03 4.39834E+03-1.05118E-10-2.82887E-09
 -1       260-4.42340E+05 9.14551E+02 2.96385E+03-1.29875E+04-2.73474E-10-6.56314E-09
 -1       261-4.43717E+05-7.67869E+02 4.87292E+03 3.52271E+03 5.89012E-10-5.97538E-10
 -1       262-4.39337E+05 5.68169E+03 1.21635E+04-1.03564E+04 8.76895E-10 1.40813E-09
 -1       263-4.46089E+05-4.92710E+03 1.90363E+04 1.76722E+03-1.01102E-09-6.36646E-11
 -1       264-4.24288E+05 3.66503E+04 5.25116E+04-6.34021E+03-3.12494E-09 5.08589E-09
 -1       265-4.58680E+05-3.16791E+04 7.38332E+04-4.93546E+02-1.05194E-09-5.48971E-09
 -1       266-3.62038E+04-1.69262E+04 8.49573E+04-9.18674E+01 4.36557E-11-2.71464E-09
 -1       267 4.19714E+04 1.97320E+04 6.00401E+04 1.05982E+02 8.00355E-11 2.61771E-09
 -1       268-5.62824E+03-2.79438E+03 2.23170E+04-1.35048E+01 2.72848E-11-4.69569E-09
 -1       269 6.64536E+03 3.34453E+03 1.45053E+04 1.57301E+01 1.63709E-11 1.82598E-08
 -1       270-9.97476E+02-5.49522E+02 7.00194E+03-2.13472E+00 9.98170E-11 1.01791E-08
 -1       271-3.47701E+06-4.35054E+05-2.65959E+05-1.35543E+06-3.85626E-10 1.17143E-08
 -1       272-3.56275E+06-6.38512E+05-1.70969E+05-1.36366E+06 7.03039E-10-5.44242E-09
 -1       273-3.52859E+06-4.99767E+05-6.28336E+04-1.34181E+06 1.63573E-09-7.36327E-09
 -1       274-3.50178E+06-5.59861E+05-3.51255E+04-1.38505E+06 2.92675E-09-1.75351E-09
 -1       275-3.53731E+06-5.04762E+05-1.46283E+04-1.33772E+06 1.32241E-09-5.83441E-09
 -1       276-3.49110E+06-5.54473E+05-7.74172E+03-1.39193E+06 1.98224E-09-1.15024E-08
 -1       277-3.53978E+06-5.03860E+05-3.79818E+03-1.33573E+06-1.07002E-09-1.66915E-09
 -1       278-3.48846E+06-5.55542E+05-2.74046E+03-1.39474E+06 1.40972E-09 1.01239E-08
 -1       279-3.54030E+06-5.03384E+05-2.92527E+03-1.33519E+06 8.61917E-10 3.34944E-09
 -1       280-3.48920E+06-5.55862E+05-5.36410E+03-1.39429E+06 1.11766E-09 5.76438E-09
 -1       281-3.53900E+06-5.03620E+05-9.79386E+03-1.33613E+06 1.20281E-09 3.45608E-09
 -1       282-3.49607E+06-5.59660E+05-2.34247E+04-1.38996E+06-3.94721E-10 7.53244E-09
 -1       283-3.53308E+06-5.00454E+05-4.18102E+04-1.33899E+06 7.33053E-10-7.55790E-09
 -1       284-3.53714E+06-6.11315E+05-1.13752E+05-1.37479E+06-1.16121E-09-1.76242E-08
 -1       285-3.49819E+06-4.58063E+05-1.77033E+05-1.34872E+06 1.91358E-09-7.21047E-09
 -1       301 1.76963E+04-3.51570E+04 1.32234E+05-7.37266E+04-6.80302E-10 9.25957E-09
 -1       302 1.88201E+04-1.71145E+03 9.08649E+04-1.08512E+05 1.42609E-09 2.36214E-08
 -1       303 1.03395E+03-2.25404E+04 7.65281E+04-7.38489E+04-3.85626E-10 5.36238E-09
 -1       304 2.79750E+04 7.10189E+03 1.21029E+05-1.08126E+05 1.28603E-09 6.73845E-09
 -1       305 2.73007E+04-4.33417E+04 1.98976E+05-7.41040E+04-9.67702E-10 4.01269E-09
 -1       306-4.73071E+06-5.45001E+05-3.56693E+05-1.84313E+06 1.04046E-09-4.80213E-09
 -1       307-4.89325E+06-8.62342E+05-2.42408E+05-1.79931E+06 7.38510E-10 4.12911E-09
 -1       308-4.82552E+06-6.41128E+05-8.40211E+04-1.79278E+06 1.57343E-10 1.31258E-08
 -1       309-4.77416E+06-7.61029E+05-5.05387E+04-1.87166E+06 2.30580E-09 2.07519E-08
 -1       310-4.84992E+06-6.43595E+05-1.95661E+04-1.77203E+06-1.68825E-10 2.18461E-09
 -1       311-4.74968E+06-7.54011E+05-1.13529E+04-1.89176E+06 9.82550E-09-4.69299E-09
 -1       312-4.85039E+06-6.47456E+05-5.62378E+03-1.77313E+06 7.84439E-10 5.43878E-10
 -1       313-4.76400E+06-7.33369E+05-4.62278E+03-1.87021E+06-1.89539E-09 2.91175E-09
 -1       314-4.83486E+06-6.64705E+05-6.58720E+03-1.79306E+06-2.35877E-09-2.51748E-09
 -1       315-4.80516E+06-6.94702E+05-1.21079E+04-1.82065E+06-5.19231E-09 1.03282E-08
 -1       316-4.80844E+06-6.86738E+05-2.29528E+04-1.82207E+06-2.38470E-09-6.12999E-10
 -1       317-4.86726E+06-6.71952E+05-5.76121E+04-1.76439E+06 6.84670E-09-1.10595E-08
 -1       318-4.77337E+06-6.87504E+05-9.58670E+04-1.84956E+06-7.44876E-09 1.66074E-08
 -1       319-4.99448E+06-8.03292E+05-2.78282E+05-1.70270E+06-5.50790E-09-3.67436E-10
 -1       320-4.68307E+06-5.57085E+05-4.07407E+05-1.88384E+06 1.24419E-08-6.25732E-09
 -1       336 5.42563E+02-9.38468E+05-5.20318E+03 1.55352E+03-8.54789E-09-3.96358E-09
 -1       337-1.91435E+03-9.39583E+05-5.76381E+03-3.88275E+03-1.65167E-08-3.07227E-09
 -1       338 3.66464E+02-9.38589E+05-7.50065E+03 2.31821E+03-1.16231E-08-4.85670E-09
 -1       339-7.77419E+03-9.43280E+05-1.64269E+04-5.38546E+03-2.12658E-08 5.75528E-09
 -1       340 5.19373E+03-9.34918E+05-2.54308E+04 3.04426E+03-1.42536E-08 9.87711E-09
 -1       406 1.54802E+01 2.63574E+05 4.36262E+02-8.01802E-02 3.63116E-10-1.36843E-08
 -1       407 1.50661E+02 2.63654E+05 9.27132E+02-6.42586E+00 3.32534E-12-4.64070E-09
 -1       408 4.75839E+02 2.63507E+05 1.85171E+03 6.64336E+00 4.70209E-10 9.32505E-09
 -1       409 2.00079E+03 2.64246E+05 4.16865E+03-6.46051E+01 5.20686E-11 1.52622E-08
 -1       410 5.75117E+03 2.62981E+05 8.51016E+03 6.05233E+01 4.32919E-10 1.48821E-08
 -1       521-7.80681E+06-7.58582E+05-6.72488E+05-2.62919E+06-4.03816E-09 9.77889E-09
 -1       522-6.37738E+06-1.92455E+06-2.84340E+05-3.59816E+06-6.13127E-08-3.17596E-08
 -1       523-7.96713E+06-5.12353E+05-1.44116E+05-2.10665E+06 5.47516E-09-4.05562E-08
 -1       524-6.39515E+06-2.03074E+06-5.63075E+04-4.27698E+06 9.03257E-08-6.83535E-08
 -1       525-7.97661E+06-5.10902E+05-3.49599E+04-2.07158E+06 7.22939E-08-5.25288E-08
 -1       526-6.25399E+06-1.76300E+06 5.71753E+04-3.75874E+06 9.60426E-10-8.24457E-09
 -1       527-7.94931E+06-8.95369E+05-1.11381E+05-2.52524E+06 1.64437E-08 1.99143E-08
 -1       528-6.54724E+06-1.01151E+06 1.33860E+05-2.59419E+06-2.14204E-08 1.29967E-08
 -1       529-7.50231E+06-1.39004E+06-1.24546E+05-3.09172E+06-2.57423E-08 2.65572E-10
 -1       530-7.79090E+06-1.15159E+05 7.39310E+04-1.80537E+06-4.41796E-08 4.46798E-08
 -1       531-6.85518E+06-1.68257E+06-4.80447E+04-3.40892E+06-7.07369E-08 2.12822E-09
 -1       532-8.72672E+06 3.07897E+05-5.30986E+04-1.61055E+06 5.54783E-08-7.51697E-08
 -1       533-6.74653E+06-1.68914E+06-1.27348E+05-3.44363E+06 1.93031E-08-1.11791E-07
 -1       534-8.23328E+06-1.66727E+05-2.88826E+05-1.68187E+06-3.03407E-08 7.51279E-08
 -1       535-7.22911E+06-1.29481E+06-6.40603E+05-3.22810E+06-1.36497E-08 5.19212E-08
 -1       536-3.20034E+05-1.37601E+04 3.09735E+04-6.38745E+03-7.33706E-10 2.55932E-09
 -1       537-3.03690E+05 1.59088E+04 2.24312E+04 1.29055E+04-2.09850E-08 8.64929E-10
 -1       538-3.13360E+05-2.06223E+03 8.09239E+03-7.26161E+03 4.33420E-09 1.23237E-08
 -1       539-3.07925E+05 2.54618E+03 5.68881E+03 1.14785E+04 1.67485E-08 2.14897E-08
 -1       540-3.15750E+05-4.45962E+02 1.36862E+03-4.95977E+03-1.86731E-09 1.75618E-08
 -1       541-3.02903E+05 6.71917E+02 2.95573E+03 4.69983E+03-2.62006E-09 5.23848E-09
 -1       542-3.18229E+05-3.16620E+02-8.21768E+02-4.81904E+02 2.36304E-09 4.90047E-10
 -1       543-3.02706E+05 2.87063E+02 1.87279E+03-4.37057E+03-3.58673E-09 6.76891E-10
 -1       544-3.15940E+05-7.22401E+01-1.20172E+03 4.10921E+03-4.38774E-10-2.36412E-09
 -1       545-3.08810E+05-3.86828E+02-5.86188E+02-1.15454E+04-5.68058E-09-1.31595E-08
 -1       546-3.12276E+05 4.80860E+02-2.36236E+03 6.69326E+03 2.68730E-09-1.42583E-08
 -1       547-3.12631E+05-2.84568E+03-5.64840E+03-1.35790E+04-1.35002E-08-1.62064E-08
 -1       548-3.12186E+05 2.44320E+03-9.53831E+03 6.14356E+03-1.30584E-08-1.31377E-08
 -1       549-3.14674E+05-1.75414E+04-2.42480E+04-9.53507E+03-8.64236E-09 2.21462E-10
 -1       550-3.10113E+05 1.50624E+04-3.71498E+04 2.64809E+03 6.55803E-10-2.16460E-09
 -1       551 1.22581E+04-4.85798E+05 2.25439E+04-8.13000E+05-3.88900E-08 2.25555E-09
 -1       552 2.77097E+04-4.92510E+05 2.97455E+04-1.15756E+06-2.93658E-08 2.31958E-08
 -1       553 1.94234E+04-4.98220E+05 4.49519E+04-8.10066E+05-4.77812E-08 1.53232E-08
 -1       554 5.21462E+04-4.84286E+05 9.49209E+04-1.15882E+06-2.99187E-08 5.49426E-09
 -1       555 4.70466E+04-5.16566E+05 1.69559E+05-8.10882E+05-4.84069E-08-6.87578E-09
 -1       556 8.22755E+04-1.55722E+05 5.28821E+04-1.99945E+05-2.91766E-09 1.42609E-09
 -1       557 1.45681E+05-2.07623E+05 2.78879E+04-2.51173E+05 4.54020E-09 1.42836E-09
 -1       558 8.14397E+04-1.62433E+05 1.11083E+04-1.94213E+05 1.01863E-09 1.57415E-08
 -1       559 1.36254E+05-2.14609E+05 5.69260E+03-2.55548E+05 9.16771E-09-2.23554E-09
 -1       560 7.90294E+04-1.60854E+05 2.25726E+03-1.95778E+05 3.28146E-09 3.46154E-09
 -1       561 1.32674E+05-2.13581E+05 1.23981E+03-2.57825E+05-9.85892E-10-1.28712E-08
 -1       562 7.71050E+04-1.59585E+05 4.25159E+02-1.97162E+05 1.68802E-09-7.77800E-09
 -1       563 1.30415E+05-2.12605E+05 3.02688E+02-2.59271E+05-5.82077E-10-1.84059E-09
 -1       564 7.58775E+04-1.58800E+05 9.86431E+01-1.98032E+05 5.92991E-09 5.42059E-10
 -1       565 1.29186E+05-2.12076E+05 8.93665E+01-2.60046E+05 3.82715E-09 4.67298E-09
 -1       566 7.53837E+04-1.58478E+05 9.08453E+00-1.98385E+05-5.42877E-09-7.87804E-09
 -1       567 1.28946E+05-2.11961E+05-6.11437E+01-2.60127E+05 4.75893E-09 8.53470E-09
 -1       568 7.56588E+04-1.58660E+05-2.58101E+02-1.98261E+05 5.34601E-09 2.43381E-08
 -1       569 1.29014E+05-2.11820E+05-6.09634E+02-2.58880E+05-3.22325E-09-6.62840E-09
 -1       570 7.72684E+04-1.60025E+05-1.39658E+03-1.98171E+05 1.98634E-09-1.02500E-09
 -1       571 1.95019E+05 7.15218E+03 1.06995E+04-4.97854E+04-5.22959E-11-3.63343E-10
 -1       572 1.96621E+05 2.48177E+03 5.24665E+03-5.46798E+04-6.82576E-10 1.08148E-08
 -1       573 1.95662E+05 5.90120E+02 2.33194E+03-4.96574E+04-1.09367E-09 5.16138E-09
 -1       574 1.95847E+05 2.01439E+02 1.16933E+03-5.48235E+04-2.34195E-11-9.12769E-09
 -1       575 1.95731E+05 3.79037E+01 5.51848E+02-4.96407E+04-9.09495E-12-2.91993E-09
 -1       576 1.95743E+05 2.23201E+01 2.81362E+02-5.48425E+04-4.97053E-10-7.69796E-09
 -1       577 1.95742E+05 9.70987E+00 1.39278E+02-4.96385E+04-3.64025E-10 9.55879E-10
 -1       578 1.95735E+05 1.29109E+01 7.71668E+01-5.48448E+04-8.61746E-11-2.20416E-09
 -1       579 1.95756E+05 6.39356E+00 4.92846E+01-4.96384E+04 4.78849E-10-4.10455E-09
 -1       580 1.95754E+05 4.97373E+00 4.95905E+01-5.48420E+04 3.01952E-10 4.17276E-09
 -1       581 1.95781E+05-3.05804E+00 7.09411E+01-4.96413E+04-1.75532E-09-6.79120E-09
 -1       582 1.95799E+05 8.02330E+00 1.38067E+02-5.48121E+04-1.93040E-09 5.48607E-09
 -1       583 1.95809E+05 3.94577E+01 2.66196E+02-4.96683E+04-8.20364E-10 2.23736E-10
 -1       584 1.95933E+05 2.45731E+02 5.97645E+02-5.45845E+04 1.53159E-09 1.73372E-09
 -1       585 1.95778E+05 7.67387E+02 1.21308E+03-4.98693E+04 1.36788E-09 1.90084E-09
 -1       586-2.26353E+03 6.36454E+04-2.93655E+03-1.70906E+05 1.70985E-10 4.31146E-09
 -1       587-4.75752E+02 6.32591E+04-2.16872E+02-1.88083E+05 7.31234E-10-2.23918E-09
 -1       588 6.74691E+02 6.33207E+04 2.35867E+03-1.70809E+05 4.90218E-10 5.62341E-09
 -1       589 3.38310E+03 6.46038E+04 6.71665E+03-1.87913E+05 2.35559E-10 6.44832E-09
 -1       590 9.75852E+03 6.25435E+04 1.43256E+04-1.71079E+05 1.52795E-10 3.36513E-10
 -1       591-4.25039E+04-1.18704E+04-1.39320E+04-2.16755E+04 2.14300E-10-8.53379E-09
 -1       592-4.39042E+04-1.51964E+04-7.54617E+03-2.52005E+04-7.48628E-11-3.59148E-09
 -1       593-4.39116E+04-1.08450E+04-3.14152E+03-2.26829E+04 1.57866E-09 6.95991E-09
 -1       594-4.19643E+04-1.31699E+04-1.56681E+03-2.52956E+04-1.71764E-09-1.85148E-09
 -1       595-4.40195E+04-1.08403E+04-7.20014E+02-2.27292E+04-4.60295E-09-5.93650E-09
 -1       596-4.18329E+04-1.30771E+04-3.66972E+02-2.52818E+04 2.47132E-09 1.94234E-10
 -1       597-4.40332E+04-1.08492E+04-2.01901E+02-2.27310E+04 9.11548E-10 7.20433E-10
 -1       598-4.18204E+04-1.30735E+04-1.66109E+02-2.52780E+04 3.29771E-09 1.36057E-08
 -1       599-4.40321E+04-1.08493E+04-2.16943E+02-2.27307E+04 1.01022E-09-6.97059E-09
 -1       600-4.18343E+04-1.30783E+04-4.06818E+02-2.52813E+04-7.16227E-12-4.54827E-09
 -1       601-4.40149E+04-1.08398E+04-8.04571E+02-2.27278E+04 5.70253E-10-6.61328E-09
 -1       602-4.19811E+04-1.31821E+04-1.75452E+03-2.52948E+04-1.82195E-09-1.53454E-09
 -1       603-4.38926E+04-1.08468E+04-3.51913E+03-2.26763E+04-1.78193E-09 6.20480E-09
 -1       604-4.41613E+04-1.54440E+04-8.45343E+03-2.51774E+04 1.08696E-09 7.34235E-09
 -1       605-4.23061E+04-1.20025E+04-1.56068E+04-2.15556E+04 1.83206E-09 5.51154E-09
 -1       606 2.64834E+04-9.32204E+03-1.67787E+04 2.57344E+04-3.09228E-09 1.43154E-09
 -1       607 2.36102E+04-3.01038E+03-8.35483E+03 2.88894E+04-1.16415E-09-1.10476E-08
 -1       608 2.52396E+04-5.10773E+02-3.74150E+03 2.55299E+04 2.25555E-09-1.27372E-08
 -1       609 2.49152E+04-1.35558E+02-1.88970E+03 2.91158E+04-2.59479E-09-3.47382E-09
 -1       610 2.50883E+04 2.10547E+01-9.02701E+02 2.55070E+04-5.08408E-09 3.89423E-09
 -1       611 2.50270E+04 3.34384E+01-4.55243E+02 2.91406E+04-6.74754E-09 1.69950E-08
 -1       612 2.50475E+04 3.63285E+01-2.17806E+02 2.55048E+04-4.31555E-09-2.63412E-09
 -1       613 2.50241E+04 4.19819E+01-9.90974E+01 2.91435E+04-6.41467E-09-1.89038E-09
 -1       614 2.50250E+04 3.73403E+01-2.73275E+01 2.55040E+04 7.23048E-10 6.44081E-09
 -1       615 2.50122E+04 4.75405E+01 3.18764E+01 2.91439E+04 7.15863E-09-9.99762E-10
 -1       616 2.50079E+04 4.31284E+01 1.04445E+02 2.55043E+04-3.57750E-09 4.70254E-09
 -1       617 2.50184E+04 7.37990E+01 2.41903E+02 2.91434E+04-4.33829E-10-1.32507E-08
 -1       618 2.49821E+04 1.15935E+02 4.88832E+02 2.55044E+04 3.59250E-10-5.24028E-09
 -1       619 2.51872E+04 4.54329E+02 1.09861E+03 2.91427E+04-7.33053E-10 6.64522E-09
 -1       620 2.48172E+04 1.27762E+03 2.20837E+03 2.55033E+04 2.06933E-09 1.99316E-09
 -1       621 3.09228E+02 2.07610E+05 2.72486E+03 8.89742E+03-3.22245E-10 8.55403E-09
 -1       622 3.58079E+02 2.08284E+05 2.36020E+03 1.29777E+04-3.10706E-10-2.59354E-09
 -1       623 1.53304E+01 2.07796E+05 2.77597E+03 8.85528E+03-9.93055E-11-8.68704E-09
 -1       624 1.27265E+03 2.09120E+05 5.32527E+03 1.30197E+04-1.70530E-11-1.17739E-08
 -1       625 1.27889E+03 2.06765E+05 9.28312E+03 8.85557E+03 3.13776E-11-6.10413E-09
 -1       626 1.73555E+05 4.73707E+04 3.47433E+03 9.28673E+04-1.97088E-09-8.53106E-10
 -1       627 1.71268E+05 4.90301E+04 1.67420E+03 9.65653E+04-8.66294E-10-1.20233E-08
 -1       628 1.73679E+05 4.57337E+04 7.07135E+02 9.33982E+04-4.17549E-09-5.66433E-09
 -1       629 1.70772E+05 4.86280E+04 3.46595E+02 9.67846E+04 2.35605E-09 1.04419E-08
 -1       630 1.73685E+05 4.56568E+04 1.60246E+02 9.34125E+04-1.29967E-09-3.29516E-09
 -1       631 1.70712E+05 4.86188E+04 8.62103E+01 9.67855E+04-1.37015E-09-3.86804E-09
 -1       632 1.73676E+05 4.56632E+04 5.68153E+01 9.34046E+04-4.88490E-09-5.21777E-09
 -1       633 1.70699E+05 4.86239E+04 6.34234E+01 9.67785E+04-2.70666E-09 1.20917E-08
 -1       634 1.73667E+05 4.56642E+04 1.02567E+02 9.34002E+04 3.71801E-09-4.45880E-09
 -1       635 1.70703E+05 4.86255E+04 2.07904E+02 9.67779E+04 1.04524E-09-1.04781E-08
 -1       636 1.73656E+05 4.56633E+04 4.19874E+02 9.33971E+04-2.60070E-09-5.22050E-09
 -1       637 1.70789E+05 4.86923E+04 9.22813E+02 9.67739E+04 8.84484E-10 6.99265E-09
 -1       638 1.73620E+05 4.58689E+04 1.89647E+03 9.33025E+04-1.06124E-08-2.86536E-09
 -1       639 1.71781E+05 5.00791E+04 4.48652E+03 9.64791E+04-2.50237E-08-6.91307E-09
 -1       640 1.73487E+05 4.99989E+04 9.31060E+03 9.15495E+04-1.07109E-08 2.05091E-10
 -1       656 4.67159E+04-1.18361E+06-1.12772E+05-3.77393E+02 9.45874E-11-1.00565E-08
 -1       657-6.17382E+04-1.23451E+06-9.32798E+04 7.34757E+03-1.44064E-09-2.71769E-09
 -1       658 1.48217E+04-1.19812E+06-5.72631E+04-1.54179E+03 2.52157E-10 2.98655E-10
 -1       659-6.62558E+04-1.23665E+06-9.92134E+04 8.14004E+03 1.06684E-09-5.25049E-09
 -1       660 5.12226E+04-1.18147E+06-1.22978E+05-1.16985E+03 3.92902E-10 1.84009E-09
 -1       661 1.61644E+05 1.75640E+04 1.56156E+04 6.31898E+04 4.15639E-09-5.64796E-10
 -1       662 1.69843E+05 2.97468E+04 1.05224E+04 6.04008E+04 5.12244E-09-3.96767E-09
 -1       663 1.64706E+05 2.25782E+04 3.68078E+03 6.23055E+04 1.08253E-09-2.36946E-09
 -1       664 1.66300E+05 2.38779E+04 2.20073E+03 6.14764E+04 6.82803E-10 7.71468E-09
 -1       665 1.65165E+05 2.32681E+04 8.68121E+02 6.21765E+04-2.09451E-09 2.90535E-09
 -1       666 1.65761E+05 2.30848E+04 5.06395E+02 6.16420E+04-7.01323E-09 3.49667E-09
 -1       667 1.65242E+05 2.33505E+04 2.67140E+02 6.21477E+04-1.37516E-09 6.10755E-09
 -1       668 1.65679E+05 2.30202E+04 2.67984E+02 6.16833E+04 4.55680E-09-6.81950E-09
 -1       669 1.65247E+05 2.33308E+04 3.59358E+02 6.21358E+04-1.36590E-09 4.71206E-09
 -1       670 1.65769E+05 2.32105E+04 7.79276E+02 6.16828E+04 4.24949E-09 4.91329E-09
 -1       671 1.65152E+05 2.31639E+04 1.38259E+03 6.21467E+04 1.22805E-09-1.38675E-09
 -1       672 1.66575E+05 2.45547E+04 3.53646E+03 6.14873E+04-1.31175E-09-1.98770E-09
 -1       673 1.64445E+05 2.20205E+04 5.92622E+03 6.23184E+04-6.07315E-10 3.36945E-09
 -1       674 1.72218E+05 3.40732E+04 1.69477E+04 5.98275E+04 2.04909E-09 5.03519E-09
 -1       675 1.59545E+05 1.39115E+04 2.51558E+04 6.37061E+04 1.23055E-09 4.51382E-09
 -1       676 1.88016E+01-2.24936E+05-8.72999E+02 3.40650E+01-3.99979E-10-3.01079E-09
 -1       677-2.31741E+02-2.25147E+05-1.59769E+03-6.80956E+01-6.28492E-09-1.29819E-09
 -1       678 1.54761E+02-2.24785E+05-2.82429E+03 3.40071E+01-1.84298E-09-2.05904E-09
 -1       679-2.82491E+03-2.26852E+05-6.70910E+03-6.78711E+01-4.54941E-09-2.35623E-10
 -1       680 1.68593E+03-2.23232E+05-1.08128E+04 3.34520E+01-2.07365E-10 1.04233E-08
 -1       771-2.40609E+06-4.43682E+05-6.31968E+04-1.02261E+06-1.19617E-08-9.10950E-09
 -1       772-2.38412E+06-4.81084E+05-3.36389E+04-1.06467E+06-8.60018E-09 3.37423E-09
 -1       773-2.41571E+06-4.36131E+05-1.50212E+04-1.02617E+06-4.87489E-09 4.52565E-09
 -1       774-2.37571E+06-4.74091E+05-7.17486E+03-1.07015E+06 1.14233E-08-1.58616E-09
 -1       775-2.41870E+06-4.34079E+05-3.98498E+03-1.02669E+06-1.14960E-09 1.01136E-09
 -1       776-2.37623E+06-4.74139E+05-1.73773E+03-1.07351E+06-1.82627E-09 1.98452E-09
 -1       777-2.42098E+06-4.32402E+05-1.30767E+03-1.02709E+06 2.48838E-09 1.59707E-09
 -1       778-2.37724E+06-4.74356E+05-4.95547E+02-1.07634E+06 1.54250E-09 4.41105E-09
 -1       779-2.42284E+06-4.30978E+05-5.89846E+02-1.02743E+06-4.84579E-09-2.83580E-09
 -1       780-2.37818E+06-4.74520E+05-2.92196E+02-1.07862E+06-2.44836E-09 2.71029E-10
 -1       781-2.42426E+06-4.29845E+05-5.38550E+02-1.02770E+06-1.15833E-08-7.14863E-10
 -1       782-2.37897E+06-4.74660E+05-7.54355E+02-1.08030E+06-1.58470E-08-2.58683E-09
 -1       783-2.42520E+06-4.29088E+05-1.52499E+03-1.02788E+06-4.96220E-09-1.51317E-10
 -1       784-2.38032E+06-4.75658E+05-3.51201E+03-1.08128E+06-1.23855E-08 7.73957E-09
 -1       785-2.42505E+06-4.29171E+05-6.51527E+03-1.02751E+06-1.84355E-08 3.59887E-09
 -1       786 1.68015E+05-9.31682E+03 2.15547E+04-3.85997E+01 5.59416E-06 2.27428E-08
 -1       787 1.77355E+05 1.07860E+04 1.52494E+04 7.35348E+00 1.11455E-05 1.77406E-08
 -1       788 1.71619E+05-1.46051E+03 5.57877E+03-2.81235E+01 1.03267E-05-1.80776E-08
 -1       789 1.73158E+05 1.68988E+03 3.50496E+03-1.05397E+01 9.48416E-06 1.29794E-08
 -1       790 1.72213E+05-2.28131E+02 1.42566E+03-2.07077E+01 8.97715E-06-1.61971E-08
 -1       791 1.72464E+05 2.64910E+02 8.36068E+02-2.50202E+01 8.46217E-06 1.14477E-08
 -1       792 1.72313E+05-3.66151E+01 3.79642E+02-1.36429E+01 4.23464E-06-7.62680E-09
 -1       793 1.72351E+05 5.04810E+01 2.44828E+02-4.08877E+01 1.20978E-08-7.97209E-10
 -1       794 1.72326E+05-1.38417E+01 1.75321E+02-4.84004E+00 1.30323E-09-2.40231E-09
 -1       795 1.72359E+05 6.91166E+01 2.44876E+02-6.27341E+01-1.75058E-09 7.86200E-09
 -1       796 1.72305E+05-5.52337E+01 3.61523E+02 8.20393E+00 8.34700E-10-1.14697E-08
 -1       797 1.72521E+05 4.04377E+02 8.48065E+02-9.67612E+01-4.51742E-10-5.52473E-09
 -1       798 1.72163E+05-3.48858E+02 1.33720E+03 2.91877E+01-4.56386E-11 1.13238E-09
 -1       799 1.73524E+05 2.57578E+03 3.64425E+03-1.52853E+02-9.90145E-10 3.72438E-10
 -1       800 1.71302E+05-2.22489E+03 5.14726E+03 6.42964E+01-2.59556E-10-1.26147E-09
 -1       801 2.01173E+04-9.19146E+05-7.68398E+04 2.48074E+04 1.24346E-08-3.53475E-09
 -1       802-1.54638E+04-7.97446E+05-7.97790E+03-7.15148E+04 3.34157E-08-1.71553E-10
 -1       803-4.17289E+03-8.59221E+05 2.65235E+04 4.66506E+04 2.64336E-08 2.39142E-08
 -1       804 8.71483E+04-7.37725E+05 1.27235E+05-6.61021E+04 3.01479E-08 2.42892E-08
 -1       805-8.28100E+04-9.78345E+05 1.48778E+05 1.93890E+04 1.10886E-08 1.98415E-08
 -1       806-2.10360E+05-4.38834E+04-1.73123E+04-8.64017E+04 7.28960E-10-5.01086E-09
 -1       807-2.11481E+05-4.13014E+04-8.50524E+03-9.08742E+04 6.99595E-09 1.10786E-08
 -1       808-2.10845E+05-3.76357E+04-3.60793E+03-8.93448E+04 1.20508E-10-1.97375E-09
 -1       809-2.09673E+05-3.89323E+04-1.76390E+03-9.11097E+04-4.38240E-09-7.59610E-09
 -1       810-2.10920E+05-3.74160E+04-8.07790E+02-8.94748E+04 2.93085E-09 3.03658E-09
 -1       811-2.09535E+05-3.88383E+04-4.00810E+02-9.10874E+04-9.52241E-10 1.67074E-09
 -1       812-2.10933E+05-3.74330E+04-2.00484E+02-8.94743E+04 7.02130E-10 4.36671E-09
 -1       813-2.09516E+05-3.88405E+04-1.27116E+02-9.10757E+04-2.38470E-09-1.67018E-08
 -1       814-2.10930E+05-3.74395E+04-1.20394E+02-8.94714E+04-4.28827E-10-9.12269E-09
 -1       815-2.09518E+05-3.88426E+04-1.89415E+02-9.10719E+04 5.53655E-10 5.01439E-09
 -1       816-2.10917E+05-3.74384E+04-3.55648E+02-8.94688E+04-2.19370E-09 3.25235E-09
 -1       817-2.09579E+05-3.88767E+04-7.62565E+02-9.10648E+04 5.73527E-09 1.52913E-08
 -1       818-2.10871E+05-3.75457E+04-1.55436E+03-8.94180E+04 3.06682E-09 1.31645E-08
 -1       819-2.10435E+05-3.98106E+04-3.65798E+03-9.08579E+04-5.91172E-10 8.46012E-09
 -1       820-2.10576E+05-4.03104E+04-7.44480E+03-8.82378E+04 1.17325E-10 3.25190E-09
 -1       821-2.70050E+05 1.49480E+04-3.45696E+04 1.53278E+02-4.90541E-12 9.34415E-09
 -1       822-2.85031E+05-1.73049E+04-2.44630E+04-7.57738E+02-2.40324E-09 4.33329E-09
 -1       823-2.75832E+05 2.34360E+03-8.95354E+03 1.34430E+02 7.57282E-10-6.49698E-09
 -1       824-2.78287E+05-2.71251E+03-5.63315E+03-6.00038E+02 3.23264E-10-4.54281E-09
 -1       825-2.76793E+05 3.66703E+02-2.31621E+03-4.42573E+00-2.15147E-09-1.40108E-09
 -1       826-2.77167E+05-4.32383E+02-1.39648E+03-2.60447E+02-4.01915E-09-9.78844E-11
 -1       827-2.76951E+05 6.48976E+01-7.24980E+02-2.05167E+02-3.77598E-09 5.91120E-09
 -1       828-2.77017E+05-1.31911E+02-6.39051E+02 1.21378E+02-5.54347E-09 2.85050E-09
 -1       829-2.76943E+05 6.65130E+01-7.36360E+02-3.86257E+02-2.37296E-10-2.31643E-09
 -1       830-2.77192E+05-4.44525E+02-1.43693E+03 3.90271E+02 3.14432E-09 1.06800E-09
 -1       831-2.76776E+05 3.77576E+02-2.38053E+03-4.74066E+02-2.37973E-09 2.65447E-09
 -1       832-2.78337E+05-2.79191E+03-5.80095E+03 4.37502E+02-5.63180E-10 1.94234E-09
 -1       833-2.75798E+05 2.41227E+03-9.21863E+03-4.33488E+02-7.11227E-10-1.00408E-09
 -1       834-2.85259E+05-1.78157E+04-2.51852E+04 2.45501E+02 1.60625E-10 1.20453E-08
 -1       835-2.69856E+05 1.53896E+04-3.55964E+04-2.82053E+02 5.47942E-09 2.02454E-09
 -1       836-9.02578E+02 2.54561E+05 1.53746E+04-2.09948E+04 1.30694E-09 4.63524E-09
 -1       837 3.37925E+03 2.59324E+05 1.31239E+04-4.21715E+04 1.93882E-09-6.30951E-09
 -1       838-3.32429E+02 2.55885E+05 1.35296E+04-2.09226E+04 1.71167E-09 5.48778E-09
 -1       839 8.67863E+03 2.63273E+05 2.57492E+04-4.21998E+04 2.28829E-09 5.53791E-09
 -1       840-2.61147E+03 2.50574E+05 4.11249E+04-2.09650E+04 1.46429E-09 2.06091E-09
 -1       856-7.91448E+04 7.05755E+03-1.85986E+04-4.14199E+02-1.91227E-09-1.83081E-09
 -1       857-8.68267E+04-8.27773E+03-1.28046E+04 4.29055E+03-2.23017E-09-2.60115E-09
 -1       858-8.21800E+04 9.88867E+02-4.82683E+03-4.33776E+02-6.37556E-10 3.10956E-09
 -1       859-8.33412E+04-1.14981E+03-2.91505E+03 4.32174E+03 2.62429E-09 1.19599E-09
 -1       860-8.26337E+04 1.37517E+02-1.22542E+03-4.45509E+02 1.50160E-09-4.02679E-10
 -1       861-8.28186E+04-1.51827E+02-6.81967E+02 4.33780E+03-4.57933E-09-5.87590E-09
 -1       862-8.27043E+04 1.81780E+01-2.99214E+02-4.49864E+02 3.99101E-09 2.01702E-09
 -1       863-8.27349E+04-1.06332E+01-1.44701E+02 4.33978E+03 7.79141E-09 2.78378E-09
 -1       864-8.27177E+04-5.64981E-01-3.88443E+01-4.47497E+02 6.52098E-09 3.53140E-09
 -1       865-8.27082E+04 2.51214E+01 4.55999E+01 4.32781E+03 7.01097E-09-1.19046E-08
 -1       866-8.27296E+04-1.79927E+01 1.33154E+02-4.37883E+02 8.11980E-10-6.52048E-09
 -1       867-8.26345E+04 1.50543E+02 3.54297E+02 4.30170E+03 1.31854E-09-1.25660E-09
 -1       868-8.27884E+04-1.24930E+02 5.95047E+02-4.21391E+02 5.50017E-10 3.92939E-09
 -1       869-8.21901E+04 1.03688E+03 1.59429E+03 4.25849E+03-2.65777E-09-1.20502E-08
 -1       870-8.31692E+04-8.82016E+02 2.31224E+03-3.94677E+02 1.41392E-09-8.78811E-09
 -1       871-3.97774E+03-8.76107E+03-1.29282E+04 8.49918E+04 2.16369E-09-5.12409E-09
 -1       872-1.72395E+03-1.16586E+04-5.27911E+03 1.10188E+05 2.94222E-09-2.71211E-09
 -1       873-3.57462E+01-1.03051E+04 7.29433E+02 8.48052E+04 1.56774E-09-3.18630E-09
 -1       874 1.97845E+03-8.43852E+03 7.27859E+03 1.10226E+05 2.42085E-09-8.21194E-09
 -1       875 4.67915E+03-1.20325E+04 1.61570E+04 8.49616E+04 1.64891E-09-4.14138E-09
 -1       876 2.10214E+05 3.61915E+04 1.12140E+04 8.52532E+04-2.68585E-09 1.03319E-09
 -1       877 2.10859E+05 3.86496E+04 5.98857E+03 8.85655E+04-1.73441E-09 1.22450E-08
 -1       878 2.11262E+05 3.49504E+04 2.50892E+03 8.61741E+04 1.79693E-09-1.97360E-10
 -1       879 2.09333E+05 3.71303E+04 1.24984E+03 8.86447E+04-2.65572E-09 4.84590E-09
 -1       880 2.11338E+05 3.49367E+04 5.81891E+02 8.62116E+04 1.20053E-10 2.99667E-09
 -1       881 2.09232E+05 3.70658E+04 3.09986E+02 8.86287E+04 4.62751E-09-7.39733E-09
 -1       882 2.11346E+05 3.49459E+04 1.97020E+02 8.62127E+04-2.40630E-09 3.52678E-10
 -1       883 2.09225E+05 3.70627E+04 2.09718E+02 8.86241E+04-1.34060E-08 1.18256E-08
 -1       884 2.11341E+05 3.49436E+04 3.31720E+02 8.62128E+04-1.00760E-08-7.17046E-09
 -1       885 2.09251E+05 3.70674E+04 6.65762E+02 8.86324E+04-7.62270E-11-3.60387E-11
 -1       886 2.11316E+05 3.49241E+04 1.34126E+03 8.62102E+04 2.92589E-09 1.47315E-09
 -1       887 2.09487E+05 3.72219E+04 2.92962E+03 8.86663E+04 6.59691E-09 6.15842E-09
 -1       888 2.11131E+05 3.49568E+04 5.90322E+03 8.61164E+04 4.22742E-09-4.17594E-09
 -1       889 2.13005E+05 4.08740E+04 1.41023E+04 8.85549E+04 4.37646E-09 6.09248E-09
 -1       890 2.08726E+05 3.78137E+04 2.64125E+04 8.38644E+04 4.64206E-09-4.92582E-09
 -1       891-1.30345E+02-1.19242E+05-1.41234E+03 2.24505E+04 2.55477E-09-2.16642E-09
 -1       892-2.27032E+02-1.19580E+05-1.53469E+03 3.39752E+04-2.20280E-09-8.90122E-09
 -1       893-3.66734E+01-1.19286E+05-2.19134E+03 2.24550E+04-4.57021E-11-2.49020E-09
 -1       894-1.19700E+03-1.20419E+05-4.54867E+03 3.38541E+04-4.08977E-09 3.28782E-09
 -1       895-9.36081E+02-1.18339E+05-8.01530E+03 2.25700E+04-3.45153E-10 5.85715E-09
 -1       956-2.64752E+05-3.80159E+03-9.56885E+03 1.77656E+04-3.71483E-09 1.82013E-09
 -1       957-2.66641E+05-1.28251E+03-4.91224E+03 2.13936E+04-1.71030E-09 1.31240E-09
 -1       958-2.65601E+05-1.02281E+02-2.21312E+03 1.76514E+04-4.28463E-09-8.97239E-09
 -1       959-2.65752E+05-1.74351E+01-1.13040E+03 2.15175E+04-1.19430E-08 3.38764E-09
 -1       960-2.65677E+05 3.20781E+01-5.51015E+02 1.76404E+04-7.68296E-09 4.58522E-09
 -1       961-2.65687E+05 3.04444E+01-2.92180E+02 2.15299E+04-5.55337E-09 5.77529E-10
 -1       962-2.65693E+05 2.84019E+01-1.66928E+02 1.76388E+04-2.44836E-09-7.16454E-10
 -1       963-2.65685E+05 3.17820E+01-1.33412E+02 2.15322E+04-5.39433E-09 4.31328E-09
 -1       964-2.65696E+05 3.03615E+01-1.61237E+02 1.76382E+04-9.54628E-10 6.28063E-09
 -1       965-2.65695E+05 3.47247E+01-2.78009E+02 2.15322E+04 1.99293E-09 1.32148E-08
 -1       966-2.65688E+05 3.78645E+01-5.21523E+02 1.76387E+04-2.97814E-09 5.17821E-09
 -1       967-2.65763E+05-6.39162E+00-1.06947E+03 2.15254E+04-1.60071E-10 1.71121E-09
 -1       968-2.65622E+05-8.53025E+01-2.09284E+03 1.76452E+04-9.58607E-10-3.22001E-09
 -1       969-2.66612E+05-1.19950E+03-4.64670E+03 2.14501E+04 6.20275E-10 8.93579E-10
 -1       970-2.64823E+05-3.58220E+03-9.05078E+03 1.77163E+04 1.52068E-09 2.13458E-09
 -1       971-2.50608E+05-1.31579E+03-7.31676E+03 1.21230E+04-9.35188E-09-1.05337E-09
 -1       972-2.52388E+05-9.42994E+02-3.98473E+03 1.69318E+04-9.54901E-09 7.46718E-09
 -1       973-2.51421E+05-8.32626E+00-1.78424E+03 1.20219E+04-6.70798E-09 9.20431E-09
 -1       974-2.51545E+05-8.16102E+00-9.24360E+02 1.70409E+04 1.00567E-09 4.14479E-09
 -1       975-2.51484E+05 2.57358E+01-4.61002E+02 1.20128E+04 2.25555E-10-2.54533E-09
 -1       976-2.51495E+05 2.99862E+01-2.64152E+02 1.70520E+04-3.07409E-09 1.69086E-09
 -1       977-2.51496E+05 2.54168E+01-1.88423E+02 1.20108E+04 3.10774E-09-4.73165E-10
 -1       978-2.51498E+05 3.41526E+01-2.16037E+02 1.70548E+04 1.69946E-08-6.14409E-09
 -1       979-2.51496E+05 3.11903E+01-3.43242E+02 1.20099E+04 8.79515E-09 7.58155E-09
 -1       980-2.51523E+05 3.62385E+01-6.60339E+02 1.70553E+04 5.03093E-10 3.10138E-09
 -1       981-2.51475E+05 4.76406E+01-1.27763E+03 1.20103E+04-2.95279E-09 1.04740E-09
 -1       982-2.51698E+05-5.80105E+01-2.64012E+03 1.70502E+04-1.82899E-09 3.02180E-09
 -1       983-2.51314E+05-3.39342E+01-5.12935E+03 1.20152E+04-2.54659E-10-1.10492E-09
 -1       984-2.54165E+05-2.73647E+03-1.14864E+04 1.69817E+04-1.28057E-09 2.11355E-09
 -1       985-2.48993E+05-3.78709E+03-2.10927E+04 1.20835E+04 3.50519E-09 4.00087E-09
 -3
    1PSTEP                        11           6           1          
  100CL  106 5.39062E-01         409                     0    6           1
 -4  DISP        4    1
 -5  D1          1    2    1    0
 -5  D2          1    2    2    0
 -5  D3          1    2    3    0
 -5  ALL         1    2    0    0    1ALL
 -1         1 1.83163E-04 0.00000E+00 0.00000E+00
 -1         2 1.62694E-04-2.19850E-30 0.00000E+00
 -1         3 1.63629E-04 5.27483E-27 1.32349E-23
 -1         5 1.07242E-04 3.37447E-26 0.00000E+00
 -1         8 1.57752E-04-8.71082E-07 0.00000E+00
 -1         9 1.51559E-04-6.44718E-07 0.00000E+00
 -1        10 1.50565E-04-2.19921E-06-6.61744E-24
 -1        12 1.06971E-04 5.92077E-07 0.00000E+00
 -1        15 1.27433E-04-9.68850E-07 0.00000E+00
 -1        16 1.32478E-04-8.44188E-07 0.00000E+00
 -1        17 1.09272E-04-4.69354E-06 0.00000E+00
 -1        18 1.04976E-04 4.81122E-06 0.00000E+00
 -1        19 1.06159E-04 1.18109E-06 0.00000E+00
 -1        20 1.06305E-04 1.31779E-05 0.00000E+00
 -1        21 1.05709E-04 2.39078E-05 0.00000E+00
 -1        24 2.23272E-05-6.57137E-06 0.00000E+00
 -1        25 1.04894E-04 4.95044E-06 0.00000E+00
 -1        26 1.05807E-04 1.64224E-06 0.00000E+00
 -1        27 1.04167E-04 1.05129E-05 0.00000E+00
 -1        28 1.03701E-04 2.34061E-05 0.00000E+00
 -1        32 0.00000E+00 0.00000E+00 0.00000E+00
 -1        33 1.04216E-04 2.20144E-06 0.00000E+00
 -1        34 1.02615E-04 1.04873E-05 0.00000E+00
 -1        35 1.01106E-04 2.31392E-05 0.00000E+00
 -1        51 1.81514E-04-1.44911E-07 0.00000E+00
 -1        52 1.78455E-04-2.83858E-07 0.00000E+00
 -1        53 1.74261E-04-4.24033E-07 0.00000E+00
 -1        54 1.69220E-04-5.67139E-07-3.30872E-24
 -1        55 1.63621E-04-7.14066E-07-2.06795E-24
 -1        56 1.81559E-04-8.48028E-07-2.64698E-23
 -1        57 1.80041E-04-2.10835E-06 2.64698E-23
 -1        58 1.78629E-04-3.64280E-06 0.00000E+00
 -1        59 1.77263E-04-5.33058E-06 0.00000E+00
 -1        60 1.75900E-04-7.02958E-06 0.00000E+00
 -1        61 1.74488E-04-8.60159E-06 0.00000E+00
 -1        62 1.72980E-04-9.91807E-06-5.29396E-23
 -1        63 1.71332E-04-1.08616E-05-2.64698E-23
 -1        64 1.69512E-04-1.13454E-05 0.00000E+00
 -1        65 1.67494E-04-1.13015E-05 2.64698E-23
 -1        66 1.65268E-04-1.07057E-05 0.00000E+00
 -1        67 1.62836E-04-9.55582E-06 0.00000E+00
 -1        68 1.60211E-04-7.89644E-06 0.00000E+00
 -1        69 1.57428E-04-5.78928E-06 2.64698E-23
 -1        70 1.54511E-04-3.34021E-06 2.64698E-23
 -1        86 1.62360E-04-1.00662E-07-3.30872E-24
 -1        87 1.61360E-04-2.02279E-07 0.00000E+00
 -1        88 1.59729E-04-3.04766E-07-3.30872E-24
 -1        89 1.57506E-04-4.11670E-07 0.00000E+00
 -1        90 1.54759E-04-5.18695E-07-1.32349E-23
 -1       121 1.63263E-04-3.63447E-07 1.32349E-23
 -1       122 1.62168E-04-7.27415E-07 0.00000E+00
 -1       123 1.60345E-04-1.09241E-06 1.32349E-23
 -1       124 1.57799E-04-1.45901E-06 0.00000E+00
 -1       125 1.54536E-04-1.82759E-06 1.32349E-23
 -1       191 1.07234E-04 9.86842E-08 0.00000E+00
 -1       192 1.07212E-04 1.97367E-07-1.65436E-24
 -1       193 1.07174E-04 2.96050E-07 0.00000E+00
 -1       194 1.07121E-04 3.94730E-07 0.00000E+00
 -1       195 1.07054E-04 4.93407E-07-3.30872E-24
 -1       251 1.57360E-04 3.86197E-06 0.00000E+00
 -1       252 1.56969E-04 7.92281E-06 6.61744E-24
 -1       253 1.56582E-04 1.10109E-05 0.00000E+00
 -1       254 1.56197E-04 1.28409E-05 0.00000E+00
 -1       255 1.55814E-04 1.33637E-05 0.00000E+00
 -1       256 1.55430E-04 1.25506E-05 0.00000E+00
 -1       257 1.55045E-04 1.06239E-05 0.00000E+00
 -1       258 1.54659E-04 7.82325E-06 0.00000E+00
 -1       259 1.54270E-04 4.55236E-06 1.32349E-23
 -1       260 1.53882E-04 1.22243E-06 0.00000E+00
 -1       261 1.53494E-04-1.74429E-06 0.00000E+00
 -1       262 1.53108E-04-3.93131E-06 0.00000E+00
 -1       263 1.52724E-04-5.06852E-06 0.00000E+00
 -1       264 1.52339E-04-4.90225E-06 0.00000E+00
 -1       265 1.51954E-04-3.42373E-06-1.32349E-23
 -1       266 1.52699E-04-8.99480E-07 0.00000E+00
 -1       267 1.47646E-04-9.14299E-07-1.65436E-24
 -1       268 1.42593E-04-9.29979E-07 0.00000E+00
 -1       269 1.37539E-04-9.43111E-07 4.13590E-25
 -1       270 1.32486E-04-9.56183E-07 0.00000E+00
 -1       271 1.54730E-04 3.08638E-06 2.64698E-23
 -1       272 1.52085E-04 5.91588E-06 0.00000E+00
 -1       273 1.49831E-04 7.71764E-06 0.00000E+00
 -1       274 1.47919E-04 8.59002E-06 0.00000E+00
 -1       275 1.46311E-04 8.65387E-06 5.29396E-23
 -1       276 1.44955E-04 8.04164E-06 0.00000E+00
 -1       277 1.43798E-04 6.89894E-06 0.00000E+00
 -1       278 1.42781E-04 5.38031E-06 2.64698E-23
 -1       279 1.41844E-04 3.64734E-06 0.00000E+00
 -1       280 1.40926E-04 1.86540E-06 0.00000E+00
 -1       281 1.39964E-04 2.00662E-07-5.29396E-23
 -1       282 1.38897E-04-1.18263E-06 2.64698E-23
 -1       283 1.37667E-04-2.12569E-06-5.29396E-23
 -1       284 1.36219E-04-2.47581E-06 0.00000E+00
 -1       285 1.34495E-04-2.09477E-06 0.00000E+00
 -1       301 1.48026E-04-6.92427E-07 0.00000E+00
 -1       302 1.44521E-04-7.17712E-07 3.30872E-24
 -1       303 1.41129E-04-7.41480E-07 1.32349E-23
 -1       304 1.37935E-04-7.65405E-07-3.30872E-24
 -1       305 1.35024E-04-7.90618E-07 1.32349E-23
 -1       306 1.49640E-04-2.24947E-06 0.00000E+00
 -1       307 1.50691E-04-1.21110E-05 0.00000E+00
 -1       308 1.54133E-04-2.85637E-05-5.29396E-23
 -1       309 1.59161E-04-4.95144E-05 2.64698E-23
 -1       310 1.64699E-04-7.19099E-05 5.29396E-23
 -1       311 1.69633E-04-9.25994E-05-2.64698E-23
 -1       312 1.72964E-04-1.08795E-04-5.29396E-23
 -1       313 1.73772E-04-1.18022E-04-2.64698E-23
 -1       314 1.71627E-04-1.19280E-04 5.29396E-23
 -1       315 1.66288E-04-1.12112E-04 2.64698E-23
 -1       316 1.58191E-04-9.78233E-05-5.29396E-23
 -1       317 1.47987E-04-7.81891E-05 0.00000E+00
 -1       318 1.36802E-04-5.60922E-05 5.29396E-23
 -1       319 1.25864E-04-3.45677E-05 0.00000E+00
 -1       320 1.16311E-04-1.65486E-05 0.00000E+00
 -1       336 1.45802E-04-2.60288E-06-1.32349E-23
 -1       337 1.40166E-04-3.01144E-06 0.00000E+00
 -1       338 1.33674E-04-3.42485E-06 1.32349E-23
 -1       339 1.26345E-04-3.84318E-06 0.00000E+00
 -1       340 1.18203E-04-4.26760E-06-1.32349E-23
 -1       406 1.06873E-04 6.90734E-07 3.30872E-24
 -1       407 1.06761E-04 7.89358E-07 0.00000E+00
 -1       408 1.06633E-04 8.87922E-07 0.00000E+00
 -1       409 1.06490E-04 9.86306E-07 4.96308E-24
 -1       410 1.06332E-04 1.08432E-06 0.00000E+00
 -1       521 1.36473E-04-2.11490E-05 5.29396E-23
 -1       522 1.54175E-04-8.29898E-05 0.00000E+00
 -1       523 1.81212E-04-1.76197E-04 1.05879E-22
 -1       524 2.13172E-04-2.87730E-04 5.29396E-23
 -1       525 2.45431E-04-4.00397E-04 0.00000E+00
 -1       526 2.73364E-04-4.96900E-04-5.29396E-23
 -1       527 2.92557E-04-5.63624E-04 0.00000E+00
 -1       528 2.98464E-04-5.89688E-04 0.00000E+00
 -1       529 2.88513E-04-5.73063E-04 1.05879E-22
 -1       530 2.61393E-04-5.15353E-04 0.00000E+00
 -1       531 2.20057E-04-4.26536E-04 1.05879E-22
 -1       532 1.69459E-04-3.18827E-04 5.29396E-23
 -1       533 1.17356E-04-2.08103E-04 0.00000E+00
 -1       534 7.17642E-05-1.10423E-04-5.29396E-23
 -1       535 3.86757E-05-3.93587E-05-5.29396E-23
 -1       536 1.09060E-04 7.98382E-06 6.61744E-24
 -1       537 1.08750E-04 2.73455E-05 0.00000E+00
 -1       538 1.08364E-04 5.05714E-05 3.30872E-24
 -1       539 1.07955E-04 7.48212E-05 1.65436E-24
 -1       540 1.07591E-04 9.69866E-05 0.00000E+00
 -1       541 1.07325E-04 1.13971E-04 0.00000E+00
 -1       542 1.07147E-04 1.24007E-04-3.30872E-24
 -1       543 1.07017E-04 1.25366E-04 1.65436E-24
 -1       544 1.06866E-04 1.18518E-04 0.00000E+00
 -1       545 1.06636E-04 1.03977E-04-1.65436E-24
 -1       546 1.06322E-04 8.42153E-05-3.30872E-24
 -1       547 1.05953E-04 6.17329E-05 0.00000E+00
 -1       548 1.05594E-04 3.97327E-05 0.00000E+00
 -1       549 1.05308E-04 2.14151E-05-1.65436E-24
 -1       550 1.05107E-04 9.03468E-06-1.65436E-24
 -1       551 9.77296E-05-4.96759E-06-6.61744E-24
 -1       552 8.40332E-05-5.26225E-06 1.65436E-24
 -1       553 6.89086E-05-5.57530E-06-1.65436E-24
 -1       554 5.30925E-05-5.90040E-06 0.00000E+00
 -1       555 3.73214E-05-6.22763E-06 0.00000E+00
 -1       556 1.06144E-04 3.39425E-06 0.00000E+00
 -1       557 1.03709E-04 9.70748E-06 1.32349E-23
 -1       558 1.01892E-04 1.44014E-05 0.00000E+00
 -1       559 1.00628E-04 1.76443E-05 0.00000E+00
 -1       560 9.98496E-05 1.96040E-05 0.00000E+00
 -1       561 9.94915E-05 2.04495E-05 0.00000E+00
 -1       562 9.94887E-05 2.03501E-05 0.00000E+00
 -1       563 9.97765E-05 1.94753E-05 0.00000E+00
 -1       564 1.00291E-04 1.79950E-05 0.00000E+00
 -1       565 1.00968E-04 1.60790E-05 0.00000E+00
 -1       566 1.01745E-04 1.38973E-05 0.00000E+00
 -1       567 1.02557E-04 1.16199E-05 3.10193E-25
 -1       568 1.03341E-04 9.41705E-06 0.00000E+00
 -1       569 1.04034E-04 7.45846E-06 0.00000E+00
 -1       570 1.04573E-04 5.91412E-06 0.00000E+00
 -1       571 1.05048E-04 4.60585E-06-8.27181E-25
 -1       572 1.05122E-04 4.35319E-06 8.27181E-25
 -1       573 1.05195E-04 4.06233E-06 1.65436E-24
 -1       574 1.05269E-04 3.74282E-06 8.27181E-25
 -1       575 1.05344E-04 3.40426E-06 1.65436E-24
 -1       576 1.05418E-04 3.05628E-06 0.00000E+00
 -1       577 1.05492E-04 2.70854E-06 0.00000E+00
 -1       578 1.05566E-04 2.37070E-06-1.65436E-24
 -1       579 1.05640E-04 2.05242E-06 3.30872E-24
 -1       580 1.05714E-04 1.76336E-06 0.00000E+00
 -1       581 1.05789E-04 1.51318E-06 0.00000E+00
 -1       582 1.05863E-04 1.31153E-06 0.00000E+00
 -1       583 1.05937E-04 1.16806E-06 0.00000E+00
 -1       584 1.06011E-04 1.09230E-06 0.00000E+00
 -1       585 1.06085E-04 1.09373E-06 0.00000E+00
 -1       586 1.04923E-04 4.83592E-06 0.00000E+00
 -1       587 1.04842E-04 4.86004E-06 3.10193E-25
 -1       588 1.04767E-04 4.88388E-06 0.00000E+00
 -1       589 1.04729E-04 4.90732E-06 0.00000E+00
 -1       590 1.04761E-04 4.93004E-06 0.00000E+00
 -1       591 1.05018E-04 4.64896E-06-1.03398E-25
 -1       592 1.05069E-04 4.45340E-06 0.00000E+00
 -1       593 1.05130E-04 4.23124E-06 0.00000E+00
 -1       594 1.05198E-04 3.98841E-06 0.00000E+00
 -1       595 1.05271E-04 3.73095E-06 8.27181E-25
 -1       596 1.05348E-04 3.46483E-06-4.13590E-25
 -1       597 1.05426E-04 3.19603E-06 4.13590E-25
 -1       598 1.05502E-04 2.93052E-06-4.13590E-25
 -1       599 1.05576E-04 2.67427E-06-4.13590E-25
 -1       600 1.05643E-04 2.43324E-06 0.00000E+00
 -1       601 1.05702E-04 2.21341E-06 4.13590E-25
 -1       602 1.05752E-04 2.02074E-06 0.00000E+00
 -1       603 1.05789E-04 1.86122E-06 0.00000E+00
 -1       604 1.05811E-04 1.74088E-06-5.16988E-26
 -1       605 1.05817E-04 1.66564E-06 0.00000E+00
 -1       606 1.06172E-04 1.43388E-06 0.00000E+00
 -1       607 1.06182E-04 1.78214E-06 0.00000E+00
 -1       608 1.06192E-04 2.22025E-06 0.00000E+00
 -1       609 1.06201E-04 2.74189E-06 0.00000E+00
 -1       610 1.06210E-04 3.34073E-06 0.00000E+00
 -1       611 1.06219E-04 4.01030E-06 1.65436E-24
 -1       612 1.06228E-04 4.74417E-06 0.00000E+00
 -1       613 1.06237E-04 5.53589E-06 0.00000E+00
 -1       614 1.06245E-04 6.37901E-06 0.00000E+00
 -1       615 1.06254E-04 7.26707E-06 0.00000E+00
 -1       616 1.06263E-04 8.19362E-06 0.00000E+00
 -1       617 1.06271E-04 9.15222E-06 4.13590E-25
 -1       618 1.06280E-04 1.01364E-05 0.00000E+00
 -1       619 1.06288E-04 1.11397E-05 0.00000E+00
 -1       620 1.06297E-04 1.21557E-05 0.00000E+00
 -1       621 1.06016E-04 1.25805E-06-1.65436E-24
 -1       622 1.05920E-04 1.33534E-06 8.27181E-25
 -1       623 1.05860E-04 1.41261E-06 0.00000E+00
 -1       624 1.05828E-04 1.48975E-06 8.27181E-25
 -1       625 1.05813E-04 1.56675E-06 1.65436E-24
 -1       626 1.06149E-04 1.45936E-06 0.00000E+00
 -1       627 1.06110E-04 1.81552E-06 0.00000E+00
 -1       628 1.06044E-04 2.24200E-06 0.00000E+00
 -1       629 1.05955E-04 2.73076E-06 0.00000E+00
 -1       630 1.05846E-04 3.27376E-06 3.30872E-24
 -1       631 1.05720E-04 3.86292E-06 0.00000E+00
 -1       632 1.05579E-04 4.49013E-06 0.00000E+00
 -1       633 1.05427E-04 5.14732E-06 0.00000E+00
 -1       634 1.05267E-04 5.82640E-06-3.30872E-24
 -1       635 1.05102E-04 6.51925E-06 1.65436E-24
 -1       636 1.04934E-04 7.21783E-06-3.30872E-24
 -1       637 1.04768E-04 7.91401E-06-1.65436E-24
 -1       638 1.04605E-04 8.59972E-06 1.65436E-24
 -1       639 1.04449E-04 9.26685E-06 0.00000E+00
 -1       640 1.04303E-04 9.90732E-06 0.00000E+00
 -1       656 1.05496E-04 1.27443E-05-6.61744E-24
 -1       657 1.05060E-04 1.22934E-05 6.61744E-24
 -1       658 1.04859E-04 1.18438E-05 0.00000E+00
 -1       659 1.04752E-04 1.13947E-05 0.00000E+00
 -1       660 1.04575E-04 1.09441E-05-6.61744E-24
 -1       661 1.06006E-04 1.41713E-05 8.27181E-25
 -1       662 1.05733E-04 1.51052E-05 8.27181E-25
 -1       663 1.05481E-04 1.59817E-05 0.00000E+00
 -1       664 1.05250E-04 1.68043E-05 0.00000E+00
 -1       665 1.05039E-04 1.75757E-05 1.65436E-24
 -1       666 1.04845E-04 1.82986E-05 0.00000E+00
 -1       667 1.04669E-04 1.89758E-05 0.00000E+00
 -1       668 1.04509E-04 1.96099E-05 0.00000E+00
 -1       669 1.04365E-04 2.02034E-05 0.00000E+00
 -1       670 1.04234E-04 2.07586E-05-8.27181E-25
 -1       671 1.04117E-04 2.12778E-05 1.65436E-24
 -1       672 1.04013E-04 2.17632E-05 0.00000E+00
 -1       673 1.03921E-04 2.22169E-05 0.00000E+00
 -1       674 1.03839E-04 2.26408E-05 0.00000E+00
 -1       675 1.03767E-04 2.30371E-05 4.13590E-25
 -1       676 1.05374E-04 2.38237E-05 0.00000E+00
 -1       677 1.05038E-04 2.37396E-05 0.00000E+00
 -1       678 1.04703E-04 2.36556E-05 3.30872E-24
 -1       679 1.04368E-04 2.35718E-05 0.00000E+00
 -1       680 1.04034E-04 2.34880E-05 0.00000E+00
 -1       771 1.66085E-05 5.23009E-06 5.29396E-23
 -1       772 1.16996E-05 1.49081E-05 0.00000E+00
 -1       773 7.56448E-06 2.25745E-05 0.00000E+00
 -1       774 4.15181E-06 2.83514E-05 0.00000E+00
 -1       775 1.41093E-06 3.23642E-05 5.29396E-23
 -1       776-7.11001E-07 3.47441E-05 2.64698E-23
 -1       777-2.26737E-06 3.56254E-05 0.00000E+00
 -1       778-3.31279E-06 3.51473E-05 2.64698E-23
 -1       779-3.90218E-06 3.34515E-05 5.29396E-23
 -1       780-4.09150E-06 3.06838E-05 0.00000E+00
 -1       781-3.93683E-06 2.69918E-05-5.29396E-23
 -1       782-3.49504E-06 2.25264E-05 0.00000E+00
 -1       783-2.82304E-06 1.74397E-05 0.00000E+00
 -1       784-1.97828E-06 1.18861E-05-1.32349E-23
 -1       785-1.01821E-06 6.02077E-06 0.00000E+00
 -1       786 1.04947E-04 4.60755E-06-4.13590E-25
 -1       787 1.05004E-04 4.28997E-06-4.13590E-25
 -1       788 1.05061E-04 3.99335E-06 0.00000E+00
 -1       789 1.05118E-04 3.71341E-06 8.27181E-25
 -1       790 1.05175E-04 3.44804E-06 0.00000E+00
 -1       791 1.05233E-04 3.19520E-06-8.27181E-25
 -1       792 1.05290E-04 2.95448E-06-1.65436E-24
 -1       793 1.05348E-04 2.72553E-06-8.27181E-25
 -1       794 1.05405E-04 2.50954E-06-1.65436E-24
 -1       795 1.05463E-04 2.30773E-06 0.00000E+00
 -1       796 1.05520E-04 2.12321E-06-1.65436E-24
 -1       797 1.05578E-04 1.95913E-06 8.27181E-25
 -1       798 1.05635E-04 1.82135E-06 0.00000E+00
 -1       799 1.05693E-04 1.71579E-06 8.27181E-25
 -1       800 1.05750E-04 1.65265E-06 0.00000E+00
 -1       801 9.76315E-05 4.31581E-06 0.00000E+00
 -1       802 7.51436E-05 3.43970E-06 0.00000E+00
 -1       803 4.61741E-05 2.41463E-06-1.32349E-23
 -1       804 1.96531E-05 1.44682E-06 0.00000E+00
 -1       805 2.15344E-06 6.60685E-07 2.64698E-23
 -1       806 1.04938E-04 4.55802E-06-1.65436E-24
 -1       807 1.04974E-04 4.17816E-06-8.27181E-25
 -1       808 1.05004E-04 3.81521E-06-3.30872E-24
 -1       809 1.05025E-04 3.47267E-06-1.65436E-24
 -1       810 1.05037E-04 3.15404E-06-3.30872E-24
 -1       811 1.05039E-04 2.86275E-06 0.00000E+00
 -1       812 1.05029E-04 2.60220E-06-3.30872E-24
 -1       813 1.05007E-04 2.37582E-06-8.27181E-25
 -1       814 1.04970E-04 2.18698E-06 1.65436E-24
 -1       815 1.04918E-04 2.03910E-06 0.00000E+00
 -1       816 1.04850E-04 1.93557E-06 1.65436E-24
 -1       817 1.04763E-04 1.87977E-06 8.27181E-25
 -1       818 1.04658E-04 1.87510E-06 0.00000E+00
 -1       819 1.04532E-04 1.92492E-06 8.27181E-25
 -1       820 1.04385E-04 2.03260E-06 0.00000E+00
 -1       821 1.05711E-04 1.62210E-06 0.00000E+00
 -1       822 1.05608E-04 1.53102E-06 0.00000E+00
 -1       823 1.05506E-04 1.43807E-06 3.30872E-24
 -1       824 1.05403E-04 1.41233E-06 0.00000E+00
 -1       825 1.05300E-04 1.50858E-06 0.00000E+00
 -1       826 1.05196E-04 1.78104E-06 0.00000E+00
 -1       827 1.05092E-04 2.24648E-06 0.00000E+00
 -1       828 1.04989E-04 2.92083E-06-1.65436E-24
 -1       829 1.04885E-04 3.77560E-06 0.00000E+00
 -1       830 1.04781E-04 4.78149E-06 1.65436E-24
 -1       831 1.04677E-04 5.87714E-06 3.30872E-24
 -1       832 1.04573E-04 7.00071E-06 0.00000E+00
 -1       833 1.04469E-04 8.08446E-06 0.00000E+00
 -1       834 1.04367E-04 9.06085E-06 0.00000E+00
 -1       835 1.04264E-04 9.88503E-06 0.00000E+00
 -1       836 1.05700E-04 1.73532E-06 1.65436E-24
 -1       837 1.05479E-04 1.83048E-06 0.00000E+00
 -1       838 1.05182E-04 1.92548E-06 0.00000E+00
 -1       839 1.04847E-04 2.01987E-06 0.00000E+00
 -1       840 1.04512E-04 2.11410E-06-4.13590E-25
 -1       856 1.04142E-04 1.11019E-05-2.06795E-25
 -1       857 1.04113E-04 1.18021E-05 0.00000E+00
 -1       858 1.04084E-04 1.25960E-05-8.27181E-25
 -1       859 1.04055E-04 1.34662E-05-4.13590E-25
 -1       860 1.04026E-04 1.43949E-05 8.27181E-25
 -1       861 1.03996E-04 1.53644E-05 0.00000E+00
 -1       862 1.03967E-04 1.63571E-05 8.27181E-25
 -1       863 1.03937E-04 1.73551E-05-4.13590E-25
 -1       864 1.03907E-04 1.83407E-05 0.00000E+00
 -1       865 1.03878E-04 1.92961E-05 4.13590E-25
 -1       866 1.03848E-04 2.02036E-05-8.27181E-25
 -1       867 1.03819E-04 2.10454E-05-4.13590E-25
 -1       868 1.03789E-04 2.18041E-05 8.27181E-25
 -1       869 1.03760E-04 2.24620E-05 4.13590E-25
 -1       870 1.03730E-04 2.30017E-05-8.27181E-25
 -1       871 1.03794E-04 1.05118E-05 4.13590E-25
 -1       872 1.03530E-04 1.05083E-05 0.00000E+00
 -1       873 1.03329E-04 1.05044E-05 0.00000E+00
 -1       874 1.03142E-04 1.05000E-05-5.16988E-26
 -1       875 1.02920E-04 1.04951E-05-4.13590E-25
 -1       876 1.04046E-04 1.11118E-05 0.00000E+00
 -1       877 1.03906E-04 1.17649E-05 0.00000E+00
 -1       878 1.03748E-04 1.24655E-05 3.30872E-24
 -1       879 1.03575E-04 1.32077E-05 0.00000E+00
 -1       880 1.03389E-04 1.39853E-05 0.00000E+00
 -1       881 1.03192E-04 1.47923E-05 1.65436E-24
 -1       882 1.02986E-04 1.56225E-05 0.00000E+00
 -1       883 1.02773E-04 1.64699E-05-1.65436E-24
 -1       884 1.02557E-04 1.73285E-05 3.30872E-24
 -1       885 1.02338E-04 1.81921E-05 1.65436E-24
 -1       886 1.02120E-04 1.90548E-05 3.30872E-24
 -1       887 1.01904E-04 1.99105E-05 0.00000E+00
 -1       888 1.01693E-04 2.07530E-05 1.65436E-24
 -1       889 1.01489E-04 2.15763E-05 8.27181E-25
 -1       890 1.01294E-04 2.23742E-05 0.00000E+00
 -1       891 1.03389E-04 2.33614E-05 1.65436E-24
 -1       892 1.03057E-04 2.33166E-05 4.13590E-25
 -1       893 1.02685E-04 2.32718E-05-8.27181E-25
 -1       894 1.02250E-04 2.32271E-05 4.13590E-25
 -1       895 1.01731E-04 2.31825E-05 2.06795E-25
 -1       956 1.04118E-04 2.49595E-06-1.65436E-24
 -1       957 1.04018E-04 2.85391E-06-1.65436E-24
 -1       958 1.03918E-04 3.26847E-06-3.30872E-24
 -1       959 1.03817E-04 3.73237E-06-1.65436E-24
 -1       960 1.03717E-04 4.23834E-06-1.65436E-24
 -1       961 1.03617E-04 4.77906E-06 1.65436E-24
 -1       962 1.03516E-04 5.34721E-06 0.00000E+00
 -1       963 1.03416E-04 5.93548E-06 1.65436E-24
 -1       964 1.03315E-04 6.53655E-06 0.00000E+00
 -1       965 1.03215E-04 7.14307E-06 0.00000E+00
 -1       966 1.03114E-04 7.74773E-06 0.00000E+00
 -1       967 1.03014E-04 8.34321E-06 0.00000E+00
 -1       968 1.02913E-04 8.92218E-06-3.30872E-24
 -1       969 1.02813E-04 9.47734E-06 0.00000E+00
 -1       970 1.02713E-04 1.00014E-05-3.30872E-24
 -1       971 1.02522E-04 1.09907E-05 0.00000E+00
 -1       972 1.02427E-04 1.15760E-05 0.00000E+00
 -1       973 1.02333E-04 1.22343E-05 1.65436E-24
 -1       974 1.02238E-04 1.29561E-05 0.00000E+00
 -1       975 1.02143E-04 1.37321E-05-3.30872E-24
 -1       976 1.02048E-04 1.45527E-05 0.00000E+00
 -1       977 1.01953E-04 1.54087E-05 3.30872E-24
 -1       978 1.01858E-04 1.62904E-05 0.00000E+00
 -1       979 1.01763E-04 1.71885E-05 0.00000E+00
 -1       980 1.01669E-04 1.80935E-05 0.00000E+00
 -1       981 1.01574E-04 1.89960E-05 3.30872E-24
 -1       982 1.01479E-04 1.98864E-05 0.00000E+00
 -1       983 1.01384E-04 2.07553E-05 0.00000E+00
 -1       984 1.01290E-04 2.15934E-05 1.65436E-24
 -1       985 1.01196E-04 2.23911E-05 1.65436E-24
 -3
    1PSTEP                        12           6           1          
  100CL  106 5.39062E-01         409                     0    6           1
 -4  STRESS      6    1
 -5  SXX         1    4    1    1
 -5  SYY         1    4    2    2
 -5  SZZ         1    4    3    3
 -5  SXY         1    4    1    2
 -5  SYZ         1    4    2    3
 -5  SZX         1    4    3    1
 -1         1-2.25489E+06-9.61383E+05-4.76662E+05-1.24200E+06 2.83762E-10 3.05590E-10
 -1         2 2.61629E+03-2.84296E+05 8.52805E+03-8.14939E+02-9.12053E-11 8.45483E-09
 -1         3-2.35173E+02-1.03728E+06 2.48920E+02-5.99603E+02-2.54975E-10-1.93359E-09
 -1         5-2.34763E+00 2.82362E+05 7.22869E+00 9.74275E-02 3.53305E-11 1.68789E-08
 -1         8-1.07864E+06-3.95312E+05-1.02986E+05-5.57649E+05-1.27329E-11 9.48785E-09
 -1         9-2.17560E+06-7.10365E+05-2.71152E+05-6.72826E+05 4.60423E-09 6.78119E-09
 -1        10-9.26814E+02-1.08064E+06-1.48289E+03-4.05753E+03-5.30963E-09-1.97376E-08
 -1        12 6.17887E-01 2.82377E+05 2.34095E+02 7.71676E-01 2.00043E-10-7.23480E-09
 -1        15 2.00529E+03 1.10203E+03 6.48210E+03 4.38184E+00-3.34495E-10-3.25565E-08
 -1        16-2.84375E+06-1.24724E+06-4.62584E+05-1.32291E+06 1.12729E-08 2.25070E-09
 -1        17-1.27165E+06-7.17051E+05-2.45228E+05-6.36623E+05-6.32717E-09-1.97906E-09
 -1        18-3.98467E+04-1.46970E+04-3.18089E+04-7.36270E+04 5.15035E-09-2.07274E-09
 -1        19 9.02132E+04 1.05198E+05-6.26544E+02 1.75624E+04-3.67618E-10 5.85642E-09
 -1        20-4.25594E+04-4.24823E+05-9.40651E+04 2.85996E+04 3.41167E-09 1.12414E-09
 -1        21-3.90380E+01-2.40693E+05-7.72166E+02-5.54285E+01-6.58212E-09-1.36922E-08
 -1        24-3.10115E+06-7.88115E+05-3.53296E+05-1.12240E+06-3.94066E-08-1.88302E-08
 -1        25-5.12594E+04-3.64268E+05-6.65727E+04-1.20020E+05 4.04270E-10 4.65607E-09
 -1        26-2.68364E+04 7.03406E+04-1.56918E+04-7.40019E+03 1.61708E-09 4.98737E-09
 -1        27-6.49867E+04-2.32118E+05-8.66666E+04 5.23461E+04 6.17448E-09-5.35571E-09
 -1        28 1.85666E+04-6.70642E+04 1.36334E+04 2.03753E+04 1.58329E-09-2.96765E-09
 -1        32-1.08048E+06-1.02618E+06 1.81823E+05-5.74377E+05-2.39634E-08 4.52090E-09
 -1        33-1.34286E+05 6.76487E+04 2.40628E+04-3.59183E+04 8.00526E-10-1.35515E-10
 -1        34-1.71786E+05-1.73784E+04 4.30544E+02 5.37721E+04 2.28961E-09 3.74196E-09
 -1        35-1.89035E+04-2.66403E+04-1.04851E+03 4.19296E+04 4.17941E-09-1.24601E-09
 -1        51 2.08110E+04-3.54719E+05 5.09688E+04-9.67205E+05 3.78350E-10-1.41154E-09
 -1        52 1.13128E+04-3.51461E+05 3.19618E+04-1.12801E+06 8.14907E-10 1.23910E-08
 -1        53 7.34836E+03-3.66011E+05 2.48302E+04-9.63800E+05 4.29281E-10-2.16241E-08
 -1        54 2.03252E+04-3.64628E+05 3.69646E+04-1.13153E+06-3.20142E-10-2.76377E-08
 -1        55 3.98907E+04-3.78397E+05 6.42253E+04-9.63242E+05-4.36557E-11 8.26549E-09
 -1        56-4.31099E+06-4.82608E+05-3.50712E+05-1.66520E+06-6.83940E-10-2.49565E-08
 -1        57-4.46209E+06-7.90422E+05-2.36522E+05-1.64015E+06 4.27463E-11-7.53425E-09
 -1        58-4.38156E+06-5.93796E+05-8.24764E+04-1.64300E+06-4.91127E-11 5.00586E-09
 -1        59-4.38060E+06-6.59708E+05-4.92381E+04-1.66626E+06-1.75987E-09-8.28459E-09
 -1        60-4.39157E+06-6.09582E+05-1.92356E+04-1.64033E+06-2.64117E-09-1.66710E-08
 -1        61-4.37091E+06-6.39224E+05-1.09044E+04-1.66702E+06 7.90351E-10-1.23136E-08
 -1        62-4.39102E+06-6.13819E+05-5.20646E+03-1.64235E+06-1.92881E-09-1.96224E-08
 -1        63-4.37492E+06-6.31261E+05-4.16545E+03-1.66076E+06 8.42647E-10 1.21435E-09
 -1        64-4.38744E+06-6.17546E+05-4.68015E+03-1.64654E+06-2.56614E-09-1.70712E-09
 -1        65-4.38408E+06-6.25010E+05-9.25043E+03-1.65121E+06-2.52385E-11 1.23084E-08
 -1        66-4.38184E+06-6.20148E+05-1.62211E+04-1.65185E+06-3.38133E-09 2.52112E-09
 -1        67-4.40232E+06-6.32010E+05-4.12419E+04-1.63900E+06 2.09576E-09 5.07134E-09
 -1        68-4.36939E+06-6.10937E+05-6.91293E+04-1.65866E+06 1.28784E-09 1.92085E-09
 -1        69-4.47585E+06-7.36444E+05-1.98121E+05-1.61154E+06 1.59343E-09 1.83209E-08
 -1        70-4.30922E+06-5.18776E+05-2.93832E+05-1.67835E+06-3.05590E-10 1.41299E-08
 -1        86-1.31436E+03-2.87113E+05 9.10388E+03 4.07457E+02 1.11777E-09 5.87312E-09
 -1        87 8.69248E+03-2.81410E+05 1.90273E+04-1.57486E+03 1.84809E-09 9.49424E-09
 -1        88-7.36790E+03-2.90000E+05 2.91278E+04 1.16739E+03 2.59388E-09 1.61446E-08
 -1        89 5.48803E+04-2.60115E+05 7.85191E+04-2.88986E+03 3.88263E-09 3.16106E-09
 -1        90-4.73359E+04-3.08389E+05 1.11025E+05 1.72289E+03 3.84898E-09 1.66960E-09
 -1       121-3.44456E+02-1.03818E+06 1.26172E+02 2.99146E+02 6.87535E-10-6.39739E-09
 -1       122-1.49822E+02-1.03724E+06 5.29515E+02-1.19808E+03-2.08363E-09-1.03400E-08
 -1       123-3.95417E+02-1.03825E+06 7.41527E+02 8.95028E+02 1.81842E-09 1.45119E-08
 -1       124 8.34531E+02-1.03669E+06 2.18525E+03-2.58433E+03-4.18822E-09 1.44209E-08
 -1       125-1.01114E+03-1.03880E+06 3.23540E+03 1.68302E+03 2.68756E-09-1.57415E-08
 -1       191-2.70591E+00 2.82387E+05 8.78602E+00-4.89165E-02 6.20173E-11 1.03237E-08
 -1       192-3.01042E+00 2.82363E+05 1.52979E+01 4.40319E-01 8.68192E-11 8.75843E-10
 -1       193-4.46872E+00 2.82387E+05 2.85912E+01-3.92936E-01 1.08621E-10-1.93040E-09
 -1       194-5.14359E+00 2.82365E+05 5.78449E+01 1.05077E+00 1.72982E-11-6.21753E-09
 -1       195-7.85657E+00 2.82385E+05 1.13288E+02-6.62683E-01 2.49287E-10 5.83532E-09
 -1       251-1.09322E+06 5.00998E+03-1.19338E+04-9.27075E+03-6.80927E-10 5.92263E-09
 -1       252-1.09721E+06-5.76756E+03-8.19154E+03 1.14354E+04-1.85784E-09 1.11652E-08
 -1       253-1.09577E+06 7.18195E+02-3.22739E+03-4.71921E+03-6.54268E-10 3.24371E-09
 -1       254-1.09415E+06-8.54484E+02-1.58154E+03 7.80954E+02 3.03203E-10-1.72922E-08
 -1       255-1.09620E+06 5.93955E+01-9.24031E+02 1.38372E+03 4.31555E-10 1.19798E-09
 -1       256-1.09420E+06-8.01147E+01-1.28266E+02-1.05210E+04 3.64054E-09 2.11333E-08
 -1       257-1.09576E+06-2.12302E+01-1.07052E+02 6.58261E+03 6.77574E-11-1.03133E-08
 -1       258-1.09507E+06 1.21089E+02 3.07939E+02-1.79124E+04 2.72564E-10-1.08127E-08
 -1       259-1.09543E+06-6.93177E+01 6.10041E+02 8.77543E+03-1.14675E-09-1.20733E-09
 -1       260-1.09494E+06 5.34616E+02 1.51052E+03-1.84114E+04 2.92744E-12-1.18294E-09
 -1       261-1.09590E+06-4.26794E+02 2.51544E+03 7.08167E+03 1.58343E-09-1.42506E-09
 -1       262-1.09276E+06 3.06251E+03 6.55695E+03-1.18206E+04-3.98131E-10-2.37185E-09
 -1       263-1.09751E+06-2.65807E+03 9.97807E+03 2.18437E+03-8.49809E-10-4.48836E-09
 -1       264-1.08454E+06 1.95034E+04 2.80200E+04-8.37995E+02-1.24555E-09-1.79343E-08
 -1       265-1.10405E+06-1.68572E+04 3.90770E+04-3.90092E+03-2.00737E-09-4.20368E-09
 -1       266-3.63013E+04-1.69718E+04 8.51862E+04-9.37702E+01-1.30967E-10-3.25817E-08
 -1       267 4.20844E+04 1.97852E+04 6.02017E+04 1.08177E+02-1.87356E-10-5.44249E-08
 -1       268-5.64339E+03-2.80190E+03 2.23771E+04-1.37845E+01-2.28283E-10-4.86901E-08
 -1       269 6.66325E+03 3.35354E+03 1.45444E+04 1.60559E+01-6.54836E-11-4.19049E-08
 -1       270-1.00016E+03-5.51000E+02 7.02080E+03-2.17894E+00-1.30512E-10-2.70153E-08
 -1       271-3.41253E+06-4.27053E+05-2.59170E+05-1.32960E+06 1.32059E-09 5.15138E-09
 -1       272-3.50086E+06-6.20705E+05-1.66629E+05-1.33232E+06-6.72344E-10-1.16343E-08
 -1       273-3.46266E+06-4.90296E+05-6.12319E+04-1.31648E+06 6.53017E-10-1.46247E-09
 -1       274-3.44146E+06-5.43931E+05-3.42345E+04-1.35293E+06 1.37516E-09 3.89355E-09
 -1       275-3.47115E+06-4.95191E+05-1.42645E+04-1.31249E+06 2.75304E-09-1.23700E-08
 -1       276-3.43086E+06-5.38818E+05-7.54223E+03-1.35973E+06 9.19044E-10 5.34783E-10
 -1       277-3.47369E+06-4.94187E+05-3.71038E+03-1.31040E+06-1.20144E-09 8.08518E-09
 -1       278-3.42793E+06-5.40246E+05-2.66599E+03-1.36293E+06-6.50061E-10 6.43698E-09
 -1       279-3.47445E+06-4.93448E+05-2.84342E+03-1.30958E+06-1.15210E-09-7.05074E-09
 -1       280-3.42811E+06-5.41164E+05-5.21189E+03-1.36327E+06 1.15091E-09-6.43649E-09
 -1       281-3.47357E+06-4.93279E+05-9.48909E+03-1.31008E+06-4.25189E-10-7.42057E-09
 -1       282-3.43411E+06-5.45638E+05-2.27433E+04-1.36010E+06 1.01772E-09 4.50427E-09
 -1       283-3.46828E+06-4.89716E+05-4.05319E+04-1.31236E+06 9.54060E-10-2.08820E-09
 -1       284-3.47314E+06-5.96710E+05-1.10396E+05-1.34657E+06 5.26370E-10-7.40147E-09
 -1       285-3.43494E+06-4.48027E+05-1.71713E+05-1.32122E+06 1.83172E-09 2.01544E-09
 -1       301 2.11558E+04-5.27050E+04 1.56161E+05-1.01353E+05-5.16593E-10-4.69936E-09
 -1       302 2.22477E+04-1.31772E+04 1.03754E+05-1.49018E+05 1.20417E-09-2.26100E-09
 -1       303 1.12109E+03-3.72773E+04 8.16333E+04-1.01443E+05-5.45697E-10 9.61154E-09
 -1       304 2.77425E+04-7.49105E+03 1.22289E+05-1.48557E+05 7.74889E-10 1.60062E-08
 -1       305 2.68098E+04-5.73979E+04 1.97133E+05-1.01854E+05-7.13044E-10 6.83031E-09
 -1       306-5.67783E+06-6.12452E+05-4.29736E+05-2.14088E+06 2.26646E-09-4.86034E-09
 -1       307-5.63035E+06-1.15374E+06-2.79596E+05-2.28992E+06-2.46432E-08-8.78936E-09
 -1       308-5.82743E+06-6.63113E+05-1.00780E+05-2.00879E+06-3.28555E-11 1.22964E-09
 -1       309-5.46815E+06-1.09108E+06-5.84294E+04-2.45920E+06 9.94416E-09 4.32919E-10
 -1       310-5.85149E+06-6.63700E+05-2.27551E+04-1.98122E+06 6.43649E-09-1.43900E-08
 -1       311-5.47591E+06-1.02836E+06-9.34718E+03-2.40968E+06 2.47446E-08-3.94311E-09
 -1       312-5.81396E+06-7.29430E+05-1.23343E+04-2.05445E+06 9.91349E-10-1.96451E-10
 -1       313-5.59531E+06-8.64967E+05 4.33888E+03-2.20346E+06-5.24324E-09 1.36070E-08
 -1       314-5.71901E+06-8.36375E+05-1.60909E+04-2.17772E+06-2.10639E-09-8.82756E-09
 -1       315-5.80874E+06-6.68341E+05-6.72719E+03-1.98088E+06-2.49083E-08-3.36968E-09
 -1       316-5.60445E+06-9.23260E+05-2.96382E+04-2.27952E+06-1.24110E-08-2.40507E-08
 -1       317-5.99631E+06-5.66254E+05-6.68235E+04-1.85203E+06 2.58191E-08-1.17852E-08
 -1       318-5.54503E+06-9.29402E+05-1.12878E+05-2.31683E+06-3.21561E-08 9.42964E-09
 -1       319-6.08804E+06-7.70371E+05-3.27014E+05-1.82994E+06-8.56380E-09-7.60338E-10
 -1       320-5.51206E+06-7.23231E+05-4.88673E+05-2.29941E+06 1.68948E-08-1.35042E-08
 -1       336 5.61761E+02-1.12389E+06-6.32530E+03 2.36374E+03-1.08248E-08-6.84668E-09
 -1       337-2.33644E+03-1.12506E+06-7.00299E+03-5.83223E+03-2.02213E-08-2.25336E-08
 -1       338 3.78173E+02-1.12403E+06-9.21584E+03 3.44823E+03-1.41690E-08-4.86580E-09
 -1       339-9.52443E+03-1.12968E+06-2.01468E+04-7.95520E+03-2.62007E-08 1.19908E-08
 -1       340 6.31868E+03-1.11954E+06-3.12465E+04 4.46860E+03-1.77970E-08 1.11431E-08
 -1       406 1.86390E+01 2.82374E+05 4.62306E+02-1.16096E-01 2.97547E-10 1.45747E-09
 -1       407 1.61736E+02 2.82458E+05 9.82237E+02-4.18403E+00 9.23137E-11 9.88166E-09
 -1       408 5.06329E+02 2.82303E+05 1.96190E+03 4.40088E+00 2.41585E-10-3.71347E-09
 -1       409 2.12165E+03 2.83085E+05 4.41645E+03-4.33263E+01-2.67391E-10-1.81080E-08
 -1       410 6.09476E+03 2.81746E+05 9.01611E+03 4.07564E+01 3.24690E-10 9.31323E-10
 -1       521-8.17531E+06-7.90976E+05-7.90829E+05-2.55325E+06-8.92032E-09-1.68802E-09
 -1       522-5.66670E+06-2.10006E+06-2.02597E+05-3.95286E+06-8.65621E-08-4.05380E-08
 -1       523-8.17384E+06-3.37987E+05-1.55710E+05-1.79646E+06-9.34961E-09-5.77857E-08
 -1       524-6.03663E+06-2.27808E+06-3.55479E+04-4.96037E+06 9.20700E-08-1.20785E-07
 -1       525-8.17375E+06-3.37523E+05-4.32124E+04-1.76549E+06 7.32107E-08-4.85325E-08
 -1       526-5.58115E+06-1.94442E+06 1.34063E+05-4.10034E+06-2.15368E-09-1.37697E-09
 -1       527-8.29508E+06-9.17236E+05-2.15779E+05-2.46078E+06-5.31581E-08 3.61615E-09
 -1       528-5.75593E+06-8.97536E+05 2.71634E+05-2.31230E+06-3.82715E-08 3.22725E-08
 -1       529-7.65723E+06-1.62421E+06-2.34835E+05-3.26906E+06 1.78552E-08-1.31331E-08
 -1       530-7.76726E+06 4.03232E+05 1.58569E+05-1.32077E+06-7.70888E-08 3.23635E-08
 -1       531-6.59806E+06-1.98670E+06-6.21090E+04-3.64360E+06-1.29578E-07-1.54505E-08
 -1       532-9.30356E+06 9.99742E+05-3.02340E+04-1.23144E+06 8.37053E-08-1.07197E-07
 -1       533-6.45594E+06-1.99233E+06-1.30215E+05-3.67162E+06 4.28845E-08-1.54796E-07
 -1       534-8.31140E+06 4.05115E+05-2.06105E+05-1.23343E+06-4.54820E-08 1.17928E-07
 -1       535-7.34904E+06-1.55982E+06-7.40044E+05-3.40717E+06-1.33878E-08 7.19010E-08
 -1       536-3.90331E+05-1.90809E+04 3.32569E+04-1.33692E+04-4.37046E-09 2.68701E-08
 -1       537-3.31363E+05 2.14005E+04 3.13221E+04 3.20456E+04-3.62067E-08 2.68601E-08
 -1       538-3.61674E+05-2.06835E+03 9.95853E+03-1.95411E+04 8.02727E-09 2.70725E-08
 -1       539-3.48625E+05 3.04942E+03 8.20638E+03 3.49398E+04 3.81716E-08 3.50692E-08
 -1       540-3.73301E+05-5.38396E+02 4.07145E+01-1.62702E+04-4.23972E-09 2.98461E-08
 -1       541-3.12202E+05 1.98742E+03 1.10368E+04 1.99798E+04-1.24890E-08 1.81851E-08
 -1       542-3.97117E+05-1.82088E+03-6.87986E+03-4.56132E+03 5.59089E-09 6.70252E-09
 -1       543-2.95983E+05 2.21925E+03 1.29892E+04-5.98283E+03-2.92818E-09-1.38594E-08
 -1       544-3.89102E+05-1.13403E+03-6.22596E+03 9.67328E+03-8.12543E-09-5.02746E-09
 -1       545-3.30714E+05 1.13422E+02 4.50122E+03-2.88034E+04-6.75698E-10-2.46200E-08
 -1       546-3.63283E+05 1.02881E+03-3.10331E+03 1.82553E+04 4.21483E-09-3.32331E-08
 -1       547-3.55095E+05-3.39462E+03-5.29969E+03-3.66155E+04-2.97801E-08-3.16255E-08
 -1       548-3.65316E+05 2.88101E+03-1.17482E+04 1.75003E+04-2.97094E-08-2.71157E-08
 -1       549-3.32172E+05-1.72306E+04-2.09574E+04-2.59095E+04-2.21644E-08-7.77845E-09
 -1       550-3.85431E+05 1.42027E+04-4.80402E+04 7.53145E+03 1.35446E-09-5.83532E-09
 -1       551 1.72629E+04-5.80214E+05 2.43833E+04-9.65350E+05-4.67917E-08 5.54428E-09
 -1       552 3.92021E+04-5.91828E+05 3.18101E+04-1.37496E+06-3.60960E-08 1.80735E-08
 -1       553 2.79403E+04-5.97781E+05 4.65819E+04-9.61715E+05-5.82440E-08 1.59707E-08
 -1       554 6.58442E+04-5.87589E+05 9.75951E+04-1.37640E+06-3.76313E-08 1.03810E-08
 -1       555 5.61203E+04-6.16432E+05 1.73347E+05-9.62659E+05-5.77711E-08-7.28323E-09
 -1       556 1.00529E+05-1.86139E+05 6.21354E+04-2.35248E+05-1.40572E-08-8.70205E-09
 -1       557 1.76082E+05-2.47201E+05 3.28915E+04-2.95799E+05-1.35842E-08-5.49426E-09
 -1       558 9.87075E+04-1.93555E+05 1.29078E+04-2.28955E+05-1.45665E-08 5.43514E-09
 -1       559 1.63873E+05-2.55123E+05 6.67537E+03-3.01729E+05 8.84756E-09 9.81072E-09
 -1       560 9.51690E+04-1.91261E+05 2.53411E+03-2.31307E+05 2.66300E-09 3.90173E-09
 -1       561 1.58790E+05-2.53546E+05 1.43814E+03-3.04986E+05-1.44064E-09 1.12068E-08
 -1       562 9.23569E+04-1.89428E+05 4.35087E+02-2.33327E+05-4.14730E-09-6.20639E-09
 -1       563 1.55487E+05-2.52116E+05 3.52148E+02-3.07103E+05-3.95812E-09-4.60136E-09
 -1       564 9.05289E+04-1.88265E+05 9.60128E+01-2.34621E+05 3.71074E-10-1.41608E-09
 -1       565 1.53626E+05-2.51311E+05 1.14096E+02-3.08279E+05 1.41881E-09 1.17443E-08
 -1       566 8.97326E+04-1.87751E+05 1.73255E+01-2.35185E+05-8.73115E-11-4.10728E-09
 -1       567 1.53164E+05-2.51098E+05-5.66124E+01-3.08492E+05 1.23417E-08 5.77347E-09
 -1       568 9.00082E+04-1.87935E+05-2.90839E+02-2.35070E+05 3.73620E-09 9.19317E-09
 -1       569 1.53330E+05-2.50975E+05-6.99738E+02-3.07020E+05-7.82165E-10 5.26052E-09
 -1       570 9.19941E+04-1.89586E+05-1.64665E+03-2.34858E+05 8.24366E-09 3.92083E-09
 -1       571 2.11645E+05 7.77502E+03 1.16077E+04-5.43157E+04 2.35104E-09-3.10888E-09
 -1       572 2.13381E+05 2.71014E+03 5.69212E+03-5.96661E+04 3.03635E-09 1.95905E-09
 -1       573 2.12342E+05 6.56456E+02 2.53001E+03-5.41821E+04-9.00400E-10-6.25323E-09
 -1       574 2.12541E+05 2.36517E+02 1.26874E+03-5.98176E+04-4.96811E-10 5.56929E-09
 -1       575 2.12417E+05 5.71991E+01 5.98904E+02-5.41646E+04-4.90218E-10 3.47654E-09
 -1       576 2.12429E+05 4.16235E+01 3.05602E+02-5.98376E+04-2.19879E-09-7.08860E-09
 -1       577 2.12431E+05 2.56191E+01 1.51687E+02-5.41623E+04 5.56838E-10-1.54660E-09
 -1       578 2.12422E+05 2.99828E+01 8.49073E+01-5.98400E+04 2.57137E-09-8.27777E-09
 -1       579 2.12449E+05 2.01717E+01 5.56519E+01-5.41622E+04 3.93811E-10-2.53112E-09
 -1       580 2.12448E+05 1.92409E+01 5.84151E+01-5.98370E+04-1.33514E-09 7.24867E-09
 -1       581 2.12479E+05 7.79280E+00 8.58381E+01-5.41654E+04-7.04858E-10 1.76442E-09
 -1       582 2.12504E+05 2.25256E+01 1.68899E+02-5.98038E+04 2.07365E-10-2.22826E-10
 -1       583 2.12514E+05 5.97779E+01 3.26496E+02-5.41954E+04-9.54969E-10-3.63389E-09
 -1       584 2.12669E+05 3.14377E+02 7.33677E+02-5.95502E+04 1.10595E-09-7.00527E-09
 -1       585 2.12476E+05 9.53968E+02 1.48944E+03-5.44195E+04 2.64663E-10-9.59699E-09
 -1       586-2.53062E+03 6.87557E+04-3.20367E+03-1.86606E+05-9.32232E-11 1.00221E-08
 -1       587-5.64550E+02 6.83448E+04-1.82853E+02-2.05376E+05-7.56700E-10 1.65790E-08
 -1       588 7.19828E+02 6.84026E+04 2.70440E+03-1.86507E+05-5.82077E-11 1.56469E-08
 -1       589 3.78025E+03 6.98750E+04 7.63566E+03-2.05177E+05-5.36602E-10-6.11180E-09
 -1       590 1.10138E+04 6.75369E+04 1.62611E+04-1.86812E+05-1.27329E-10-1.12323E-09
 -1       591-4.49021E+04-1.22334E+04-1.49504E+04-2.24572E+04-1.29069E-09-7.37600E-09
 -1       592-4.65872E+04-1.56208E+04-8.09787E+03-2.60326E+04-1.81183E-09-3.44153E-09
 -1       593-4.64098E+04-1.11360E+04-3.37113E+03-2.35412E+04-1.31558E-09-1.19389E-08
 -1       594-4.45083E+04-1.34430E+04-1.68133E+03-2.61307E+04 5.76108E-10-2.52919E-09
 -1       595-4.65252E+04-1.11312E+04-7.72540E+02-2.35909E+04-1.76158E-10 2.58930E-09
 -1       596-4.43672E+04-1.33433E+04-3.93611E+02-2.61156E+04 2.39754E-09-6.35734E-09
 -1       597-4.65398E+04-1.11409E+04-2.16253E+02-2.35928E+04 2.20935E-09 6.87885E-09
 -1       598-4.43537E+04-1.33395E+04-1.77368E+02-2.61114E+04 2.63492E-09-3.39821E-09
 -1       599-4.65387E+04-1.11411E+04-2.30976E+02-2.35925E+04-7.45786E-11 2.66198E-09
 -1       600-4.43684E+04-1.33445E+04-4.32602E+02-2.61149E+04-4.30703E-10-6.25050E-09
 -1       601-4.65204E+04-1.11309E+04-8.55290E+02-2.35895E+04-1.37447E-09-5.61522E-09
 -1       602-4.45245E+04-1.34549E+04-1.86496E+03-2.61294E+04-7.86713E-10-2.16858E-09
 -1       603-4.63906E+04-1.11382E+04-3.74057E+03-2.35346E+04-6.09816E-10 4.66775E-09
 -1       604-4.68399E+04-1.58613E+04-8.98538E+03-2.60073E+04 1.70030E-09 3.06409E-09
 -1       605-4.47063E+04-1.23648E+04-1.65888E+04-2.23416E+04 1.69939E-09 1.59371E-08
 -1       606 2.75553E+04-1.00963E+04-1.81635E+04 2.66919E+04-3.20233E-09 5.36693E-09
 -1       607 2.44456E+04-3.26439E+03-9.04441E+03 2.99658E+04-2.13095E-09 5.06907E-09
 -1       608 2.62089E+04-5.57817E+02-4.05029E+03 2.64810E+04 1.14414E-09-8.89895E-09
 -1       609 2.58586E+04-1.52428E+02-2.04565E+03 3.02007E+04-8.91305E-10-1.25008E-08
 -1       610 2.60454E+04 1.77971E+01-9.77146E+02 2.64572E+04-4.01451E-09-9.27207E-09
 -1       611 2.59798E+04 3.03993E+01-4.92718E+02 3.02264E+04-5.56929E-09 4.26076E-09
 -1       612 2.60013E+04 3.42237E+01-2.35582E+02 2.64549E+04-1.79898E-09 2.17096E-09
 -1       613 2.59769E+04 3.95421E+01-1.06886E+02 3.02294E+04-3.98768E-09-6.40307E-09
 -1       614 2.59771E+04 3.52081E+01-2.88120E+01 2.64541E+04-1.43973E-09-8.79254E-10
 -1       615 2.59642E+04 4.54735E+01 3.60758E+01 3.02298E+04 5.60476E-09 7.65135E-09
 -1       616 2.59586E+04 4.14178E+01 1.16154E+02 2.64544E+04-1.04819E-09-3.71915E-09
 -1       617 2.59715E+04 7.43708E+01 2.68331E+02 3.02293E+04 2.72848E-12-4.64138E-09
 -1       618 2.59303E+04 1.21954E+02 5.41963E+02 2.64545E+04-1.97815E-10 1.32875E-08
 -1       619 2.61588E+04 4.96050E+02 1.21785E+03 3.02285E+04 2.04159E-09 1.63027E-09
 -1       620 2.57477E+04 1.40960E+03 2.44800E+03 2.64534E+04 2.70688E-10-7.41238E-11
 -1       621 3.02906E+02 2.21327E+05 2.71244E+03 1.15094E+04-2.30557E-10-4.82328E-09
 -1       622 3.57085E+02 2.21995E+05 2.40752E+03 1.67709E+04-1.14255E-10 1.31562E-08
 -1       623 1.73744E+01 2.21501E+05 2.90558E+03 1.14544E+04-9.94191E-11 4.30327E-09
 -1       624 1.35443E+03 2.22903E+05 5.63711E+03 1.68264E+04-1.46429E-10-2.84655E-09
 -1       625 1.36137E+03 2.20403E+05 9.85614E+03 1.14537E+04-1.00044E-10 3.71273E-09
 -1       626 1.88651E+05 5.07633E+04 3.89176E+03 9.98884E+04-7.98536E-10-2.00635E-09
 -1       627 1.86271E+05 5.24420E+04 1.87541E+03 1.03826E+05-8.44466E-10-5.43253E-09
 -1       628 1.88781E+05 4.89400E+04 7.92201E+02 1.00495E+05-4.34738E-10-1.52395E-08
 -1       629 1.85728E+05 5.19795E+04 3.88159E+02 1.04059E+05 2.04091E-09-7.79744E-09
 -1       630 1.88788E+05 4.88544E+04 1.79400E+02 1.00513E+05-1.99361E-09-3.80999E-09
 -1       631 1.85662E+05 5.19678E+04 9.62630E+01 1.04059E+05-1.87447E-09 1.03742E-08
 -1       632 1.88779E+05 4.88613E+04 6.28990E+01 1.00505E+05-4.68981E-09-6.71929E-09
 -1       633 1.85649E+05 5.19731E+04 6.94255E+01 1.04052E+05 4.67708E-10-1.12595E-09
 -1       634 1.88768E+05 4.88623E+04 1.11554E+02 1.00500E+05 8.08086E-09 9.10904E-09
 -1       635 1.85654E+05 5.19746E+04 2.25615E+02 1.04052E+05 4.33488E-09-4.77007E-09
 -1       636 1.88757E+05 4.88610E+04 4.55408E+02 1.00497E+05 3.29374E-09 5.72504E-09
 -1       637 1.85747E+05 5.20467E+04 1.00082E+03 1.04048E+05-1.10140E-09 8.76571E-09
 -1       638 1.88719E+05 4.90837E+04 2.05664E+03 1.00395E+05-4.23324E-09-1.31377E-09
 -1       639 1.86825E+05 5.35500E+04 4.86545E+03 1.03728E+05-2.58819E-09 4.30373E-09
 -1       640 1.88575E+05 5.35631E+04 1.00969E+04 9.84955E+04-1.86401E-09 6.32372E-09
 -1       656 5.03824E+04-1.27801E+06-1.21621E+05-4.26575E+02 1.13505E-09-1.01488E-09
 -1       657-6.65943E+04-1.33292E+06-1.00622E+05 7.56208E+03-1.97088E-09 8.81159E-09
 -1       658 1.59968E+04-1.29366E+06-6.17992E+04-1.76576E+03 7.43512E-11-2.64927E-09
 -1       659-7.15470E+04-1.33526E+06-1.07127E+05 8.49511E+03 4.58385E-10 6.33630E-09
 -1       660 5.53235E+04-1.27567E+06-1.32809E+05-1.35959E+03 0.00000E+00 7.82403E-09
 -1       661 1.67764E+05 1.81823E+04 1.63347E+04 6.55977E+04 2.19961E-09-1.88720E-09
 -1       662 1.76415E+05 3.08531E+04 1.10071E+04 6.25968E+04 2.56733E-09-1.42109E-09
 -1       663 1.70968E+05 2.34260E+04 3.85027E+03 6.46711E+04 1.43507E-09-5.41786E-09
 -1       664 1.72706E+05 2.47167E+04 2.30220E+03 6.37249E+04-1.93248E-09-4.38732E-09
 -1       665 1.71450E+05 2.41464E+04 9.08153E+02 6.45346E+04-1.57831E-09-2.72649E-10
 -1       666 1.72140E+05 2.38895E+04 5.29947E+02 6.39008E+04-6.14345E-09-3.02281E-09
 -1       667 1.71531E+05 2.42315E+04 2.79780E+02 6.45033E+04 5.62466E-11-4.26104E-09
 -1       668 1.72052E+05 2.38238E+04 2.81188E+02 6.39461E+04 1.07248E-09-4.59132E-09
 -1       669 1.71537E+05 2.42100E+04 3.77478E+02 6.44899E+04 1.15040E-09 2.03781E-09
 -1       670 1.72145E+05 2.40252E+04 8.18988E+02 6.39469E+04 3.02182E-09-9.37234E-10
 -1       671 1.71438E+05 2.40341E+04 1.45316E+03 6.45008E+04-5.39394E-10 2.29642E-09
 -1       672 1.72992E+05 2.54388E+04 3.71709E+03 6.37423E+04 1.51118E-10-5.77666E-09
 -1       673 1.70695E+05 2.28320E+04 6.22894E+03 6.46809E+04 9.21773E-10 5.80212E-09
 -1       674 1.78922E+05 3.54443E+04 1.78134E+04 6.19986E+04 3.22643E-10 6.36442E-09
 -1       675 1.65546E+05 1.43085E+04 2.64408E+04 6.61391E+04 3.34876E-09 1.60435E-09
 -1       676 2.00396E+01-2.40629E+05-9.30660E+02 2.77149E+01-1.71377E-09-2.10140E-09
 -1       677-2.47100E+02-2.40853E+05-1.70323E+03-5.53982E+01-2.02394E-09-5.30920E-09
 -1       678 1.64985E+02-2.40468E+05-3.01086E+03 2.76643E+01 4.94083E-10-8.45981E-09
 -1       679-3.01163E+03-2.42671E+05-7.15236E+03-5.52041E+01-1.43268E-09-1.42786E-08
 -1       680 1.79736E+03-2.38812E+05-1.15272E+04 2.72059E+01-6.88942E-10 4.68854E-09
 -1       771-2.56522E+06-4.90851E+05-7.15233E+04-1.10886E+06-1.38971E-08-1.15979E-08
 -1       772-2.53630E+06-5.35136E+05-3.78631E+04-1.15892E+06-9.37143E-09 5.45879E-09
 -1       773-2.57682E+06-4.81707E+05-1.72979E+04-1.11303E+06-5.99539E-09 5.64614E-09
 -1       774-2.52748E+06-5.27444E+05-8.16037E+03-1.16626E+06 9.45874E-09-1.64073E-09
 -1       775-2.58095E+06-4.78819E+05-4.79897E+03-1.11392E+06-4.61296E-09 1.21508E-09
 -1       776-2.52875E+06-5.27401E+05-2.02539E+03-1.17101E+06-4.01633E-09 2.12458E-09
 -1       777-2.58421E+06-4.76412E+05-1.68691E+03-1.11465E+06-3.46336E-09 2.31012E-09
 -1       778-2.53051E+06-5.27517E+05-5.87116E+02-1.17502E+06 1.34241E-09 4.10546E-09
 -1       779-2.58691E+06-4.74363E+05-7.66368E+02-1.11529E+06 3.07773E-09 8.33097E-10
 -1       780-2.53211E+06-5.27578E+05-2.75810E+02-1.17826E+06-5.12955E-10-9.44056E-10
 -1       781-2.58899E+06-4.72735E+05-5.20147E+02-1.11580E+06-1.14887E-08-5.45697E-10
 -1       782-2.53339E+06-5.27615E+05-5.14688E+02-1.18065E+06-1.66547E-08-3.33921E-09
 -1       783-2.59040E+06-4.71637E+05-1.05754E+03-1.11614E+06-2.93221E-09-6.48151E-09
 -1       784-2.53475E+06-5.28226E+05-2.31220E+03-1.18207E+06-8.92578E-09 2.72848E-11
 -1       785-2.59070E+06-4.71388E+05-4.31539E+03-1.11601E+06-1.61617E-08 3.08864E-09
 -1       786 1.60243E+05-9.52677E+03 2.20403E+04-7.42426E+01 1.27997E-09 3.62979E-09
 -1       787 1.69795E+05 1.10290E+04 1.55929E+04 1.64519E+01 2.22743E-09 2.09866E-10
 -1       788 1.63928E+05-1.49340E+03 5.70405E+03-5.64693E+01 7.59800E-10-6.17092E-10
 -1       789 1.65503E+05 1.72789E+03 3.58314E+03-1.27225E+01-3.01768E-10 3.07773E-09
 -1       790 1.64536E+05-2.33204E+02 1.45622E+03-4.50706E+01-8.04043E-10 1.12978E-08
 -1       791 1.64793E+05 2.70452E+02 8.51605E+02-3.34492E+01-1.59065E-09 3.90742E-09
 -1       792 1.64638E+05-3.70578E+01 3.81992E+02-3.57426E+01-4.54316E-10-2.09174E-09
 -1       793 1.64676E+05 4.88164E+01 2.36716E+02-5.27235E+01-3.82251E-10 7.59925E-09
 -1       794 1.64653E+05-1.17125E+01 1.54553E+02-2.57960E+01 6.26826E-10 6.42691E-09
 -1       795 1.64676E+05 5.25172E+01 1.93508E+02-7.59378E+01-8.80503E-10 6.77955E-10
 -1       796 1.64638E+05-4.07528E+01 2.71679E+02-1.25279E+01 3.49193E-10-4.93732E-09
 -1       797 1.64794E+05 2.96948E+02 6.25560E+02-1.09371E+02 1.40446E-10-2.42147E-09
 -1       798 1.64534E+05-2.55966E+02 9.82549E+02 7.63767E+00-1.21812E-10 3.32005E-09
 -1       799 1.65530E+05 1.88973E+03 2.67434E+03-1.62166E+02-3.33551E-10-2.42764E-09
 -1       800 1.63902E+05-1.63226E+03 3.77632E+03 4.02681E+01 1.50543E-10 9.56538E-09
 -1       801 5.13337E+04-1.87524E+06-1.69637E+05 3.42415E+04 1.49739E-08-1.43245E-09
 -1       802-5.72429E+04-1.71114E+06-6.62395E+04-6.15455E+04 4.07963E-08-3.30897E-09
 -1       803 5.23621E+03-1.78758E+06-1.01125E+04 8.74427E+04 3.18287E-08 2.48608E-08
 -1       804 5.18174E+04-1.65750E+06 7.73732E+04-4.15246E+04 3.44171E-08 3.10265E-08
 -1       805-5.84493E+04-1.92826E+06 7.64031E+04 1.42127E+04 1.29294E-08 2.59413E-08
 -1       806-2.29199E+05-4.61874E+04-1.80684E+04-9.25050E+04-1.60117E-09 4.29372E-09
 -1       807-2.30516E+05-4.33447E+04-8.87672E+03-9.70034E+04 2.29443E-09 1.36091E-08
 -1       808-2.29696E+05-3.96751E+04-3.76560E+03-9.55852E+04-1.08321E-09 9.62063E-09
 -1       809-2.28639E+05-4.08626E+04-1.84110E+03-9.72373E+04-9.33596E-09-1.08976E-08
 -1       810-2.29773E+05-3.94469E+04-8.43327E+02-9.57214E+04 3.41061E-10 1.24166E-08
 -1       811-2.28494E+05-4.07634E+04-4.18731E+02-9.72125E+04 2.53840E-09 1.39589E-08
 -1       812-2.29786E+05-3.94651E+04-2.10105E+02-9.57211E+04-2.60115E-10-4.44061E-09
 -1       813-2.28475E+05-4.07655E+04-1.34199E+02-9.71997E+04-1.77738E-09-5.91581E-09
 -1       814-2.29783E+05-3.94719E+04-1.28821E+02-9.57182E+04-1.55660E-09-1.15715E-08
 -1       815-2.28478E+05-4.07674E+04-2.04237E+02-9.71956E+04 1.23691E-10-3.54112E-09
 -1       816-2.29769E+05-3.94706E+04-3.84553E+02-9.57157E+04 1.61253E-09 3.72575E-09
 -1       817-2.28544E+05-4.08041E+04-8.24913E+02-9.71884E+04 2.79670E-10 8.32097E-09
 -1       818-2.29720E+05-3.95862E+04-1.68171E+03-9.56609E+04-1.63072E-09-1.29326E-08
 -1       819-2.29468E+05-4.18172E+04-3.95766E+03-9.69683E+04 7.12589E-10 2.05750E-09
 -1       820-2.29404E+05-4.25745E+04-8.05479E+03-9.43815E+04 5.54792E-11 4.29986E-09
 -1       821-2.88838E+05 1.59839E+04-3.69655E+04 2.44912E+02 1.16438E-09 5.13319E-09
 -1       822-3.04855E+05-1.85041E+04-2.61582E+04-9.30484E+02-1.39504E-09 1.34137E-08
 -1       823-2.95018E+05 2.50622E+03-9.57390E+03 2.48772E+02-4.80753E-11-2.48201E-09
 -1       824-2.97641E+05-2.90050E+03-6.02294E+03-7.66008E+02 2.74626E-10 1.51294E-09
 -1       825-2.96050E+05 3.92046E+02-2.47761E+03 8.04340E+01-1.47281E-09-1.63789E-09
 -1       826-2.96435E+05-4.62062E+02-1.49137E+03-3.31680E+02-3.44160E-09-1.11118E-09
 -1       827-2.96222E+05 6.91339E+01-7.77277E+02-1.85563E+02-2.92211E-09 1.13997E-09
 -1       828-2.96275E+05-1.40977E+02-6.82506E+02 1.83053E+02-4.55013E-09-6.00328E-09
 -1       829-2.96211E+05 7.12610E+01-7.90742E+02-4.34308E+02 3.26146E-10-5.99974E-09
 -1       830-2.96470E+05-4.77136E+02-1.54165E+03 5.55610E+02 2.47268E-09 5.63432E-09
 -1       831-2.96027E+05 4.05513E+02-2.55562E+03-5.58128E+02-2.45741E-09 4.92707E-09
 -1       832-2.97702E+05-2.99750E+03-6.22775E+03 6.25317E+02-9.40780E-10 9.46886E-09
 -1       833-2.94980E+05 2.58992E+03-9.89779E+03-5.04015E+02-1.19638E-09 9.63064E-09
 -1       834-3.05127E+05-1.91273E+04-2.70383E+04 3.62513E+02-1.66601E-10 7.18455E-09
 -1       835-2.88604E+05 1.65225E+04-3.82190E+04-2.95312E+02 4.98442E-09-1.80444E-09
 -1       836-9.73265E+02 2.72502E+05 1.64890E+04-2.01141E+04 7.29415E-10-4.65661E-09
 -1       837 3.61107E+03 2.77619E+05 1.40902E+04-4.04151E+04 1.30831E-09-3.84966E-09
 -1       838-3.64381E+02 2.73920E+05 1.45473E+04-2.00425E+04 1.27238E-09 9.92600E-09
 -1       839 9.32685E+03 2.81877E+05 2.77070E+04-4.04475E+04 1.85173E-09 7.16353E-09
 -1       840-2.81560E+03 2.68201E+05 4.42622E+04-2.00803E+04 1.10958E-09 1.85230E-09
 -1       856-7.96176E+04 7.43170E+03-1.95848E+04-4.30319E+02-3.66128E-09 9.65883E-09
 -1       857-8.77054E+04-8.71729E+03-1.34834E+04 4.57863E+03-5.64000E-10-3.57977E-09
 -1       858-8.28136E+04 1.04131E+03-5.08268E+03-4.51675E+02-3.42305E-09 2.78851E-09
 -1       859-8.40357E+04-1.21132E+03-3.06929E+03 4.61254E+03 7.81881E-11 6.91853E-09
 -1       860-8.32913E+04 1.44847E+02-1.28985E+03-4.64335E+02 1.14227E-10-9.29407E-09
 -1       861-8.34856E+04-1.60292E+02-7.16961E+02 4.62988E+03-4.95589E-09-8.27839E-09
 -1       862-8.33657E+04 1.91280E+01-3.12860E+02-4.69044E+02 3.99881E-09-9.30449E-09
 -1       863-8.33971E+04-1.10520E+01-1.47629E+02 4.63207E+03 8.74559E-09-1.77289E-09
 -1       864-8.33801E+04-1.09056E+00-3.20517E+01-4.66532E+02 3.07250E-09-2.45072E-09
 -1       865-8.33664E+04 3.05301E+01 6.77426E+01 4.61927E+03 2.70461E-09-1.97422E-09
 -1       866-8.33948E+04-2.28851E+01 1.75376E+02-4.56244E+02-1.50501E-09-4.24723E-09
 -1       867-8.32733E+04 1.91087E+02 4.56782E+02 4.59131E+03 1.00187E-10-4.15252E-09
 -1       868-8.34698E+04-1.59961E+02 7.64885E+02-4.38571E+02 1.20679E-10-2.91607E-11
 -1       869-8.27046E+04 1.32864E+03 2.04614E+03 4.54504E+03-2.65487E-10-1.27204E-08
 -1       870-8.39581E+04-1.13131E+03 2.96786E+03-4.09977E+02-7.55904E-10-5.35988E-09
 -1       871-4.30123E+03-9.90040E+03-1.40433E+04 9.26835E+04 1.28875E-09 1.09139E-11
 -1       872-1.84524E+03-1.30573E+04-5.74838E+03 1.20162E+05 1.86424E-09-4.04270E-09
 -1       873-1.85105E+01-1.15817E+04 7.56547E+02 9.24804E+04 1.06729E-09 3.78816E-09
 -1       874 2.15649E+03-9.57887E+03 7.82233E+03 1.20201E+05 3.27304E-09-6.70968E-09
 -1       875 5.05522E+03-1.34376E+04 1.73882E+04 9.26512E+04 2.17460E-09-1.18280E-08
 -1       876 2.26509E+05 3.89021E+04 1.20142E+04 9.17526E+04-2.73184E-09-1.11959E-09
 -1       877 2.27216E+05 4.15203E+04 6.41592E+03 9.52847E+04-6.86441E-09-2.81091E-09
 -1       878 2.27632E+05 3.75727E+04 2.68795E+03 9.27393E+04 1.73486E-10-1.45078E-08
 -1       879 2.25581E+05 3.98923E+04 1.33908E+03 9.53688E+04-2.41494E-09-3.21279E-09
 -1       880 2.27713E+05 3.75582E+04 6.23483E+02 9.27795E+04 1.79671E-09 1.85668E-09
 -1       881 2.25473E+05 3.98230E+04 3.32281E+02 9.53513E+04 4.46107E-09-6.29672E-09
 -1       882 2.27721E+05 3.75682E+04 2.11423E+02 9.27807E+04 3.33421E-09-9.01046E-10
 -1       883 2.25465E+05 3.98197E+04 2.25430E+02 9.53461E+04 5.88528E-09 1.40005E-08
 -1       884 2.27716E+05 3.75658E+04 3.56918E+02 9.27808E+04 1.90744E-09 5.87522E-09
 -1       885 2.25493E+05 3.98247E+04 7.16550E+02 9.53550E+04 2.44290E-09 4.04350E-09
 -1       886 2.27689E+05 3.75449E+04 1.44368E+03 9.27780E+04-2.29971E-09 3.20370E-09
 -1       887 2.25747E+05 3.99910E+04 3.15335E+03 9.53916E+04-1.31329E-08 4.12081E-09
 -1       888 2.27489E+05 3.75799E+04 6.35404E+03 9.26770E+04-6.54325E-10 1.34805E-08
 -1       889 2.29533E+05 4.39225E+04 1.51792E+04 9.52724E+04 7.15414E-10-5.86488E-09
 -1       890 2.24901E+05 4.06551E+04 2.84295E+04 9.02530E+04 1.69871E-09-5.12955E-10
 -1       891-1.35809E+02-1.28119E+05-1.52516E+03 2.38127E+04 4.49177E-10 7.50401E-09
 -1       892-2.37560E+02-1.28487E+05-1.65424E+03 3.60431E+04-1.87197E-09 1.48759E-08
 -1       893-3.48794E+01-1.28167E+05-2.35902E+03 2.38176E+04-9.02219E-10 1.94955E-08
 -1       894-1.28109E+03-1.29387E+05-4.89441E+03 3.59142E+04 1.74623E-10 1.02457E-08
 -1       895-1.00338E+03-1.27147E+05-8.62387E+03 2.39401E+04 1.06189E-09 9.33960E-09
 -1       956-2.85987E+05-4.07632E+03-1.02508E+04 1.93944E+04-3.84352E-09-1.09446E-08
 -1       957-2.88010E+05-1.37799E+03-5.26224E+03 2.33559E+04-3.17596E-09-2.04723E-08
 -1       958-2.86898E+05-1.12800E+02-2.37086E+03 1.92724E+04-1.39244E-09-7.06927E-09
 -1       959-2.87059E+05-2.21392E+01-1.21095E+03 2.34888E+04-8.59609E-09 6.37806E-09
 -1       960-2.86980E+05 3.16811E+01-5.90351E+02 1.92606E+04-6.60657E-09-3.11252E-09
 -1       961-2.86990E+05 2.95880E+01-3.13140E+02 2.35023E+04-2.65459E-09-1.18923E-08
 -1       962-2.86997E+05 2.80422E+01-1.79137E+02 1.92588E+04-1.11891E-09-1.67370E-09
 -1       963-2.86988E+05 3.11953E+01-1.43589E+02 2.35047E+04-3.12730E-09 4.08158E-09
 -1       964-2.87001E+05 3.02046E+01-1.74083E+02 1.92581E+04 2.14027E-09 1.44564E-09
 -1       965-2.86999E+05 3.42633E+01-3.00627E+02 2.35047E+04 6.18608E-09 9.22660E-09
 -1       966-2.86991E+05 3.80856E+01-5.64258E+02 1.92588E+04 2.07478E-09 1.51613E-09
 -1       967-2.87072E+05-1.06101E+01-1.15725E+03 2.34969E+04-1.51749E-09-2.53340E-09
 -1       968-2.86919E+05-9.56823E+01-2.26476E+03 1.92661E+04 1.10322E-09 3.11002E-09
 -1       969-2.87989E+05-1.30230E+03-5.02838E+03 2.34122E+04 3.20597E-09 4.63496E-09
 -1       970-2.86054E+05-3.88039E+03-9.79437E+03 1.93455E+04 2.95586E-09 3.92629E-09
 -1       971-2.69599E+05-1.40770E+03-7.81072E+03 1.29064E+04-5.21140E-09-6.75840E-10
 -1       972-2.71497E+05-1.01033E+03-4.25367E+03 1.80177E+04-7.66522E-09 5.46174E-09
 -1       973-2.70468E+05-1.15433E+01-1.90478E+03 1.27988E+04-9.34642E-09 6.91102E-09
 -1       974-2.70599E+05-1.19581E+01-9.86833E+02 1.81343E+04-5.10158E-09-9.77229E-09
 -1       975-2.70536E+05 2.52225E+01-4.92331E+02 1.27889E+04 1.91585E-09 9.83505E-10
 -1       976-2.70546E+05 2.91248E+01-2.82333E+02 1.81464E+04-3.54612E-09 8.23434E-09
 -1       977-2.70549E+05 2.51616E+01-2.01856E+02 1.27866E+04 3.37855E-09 4.13820E-10
 -1       978-2.70549E+05 3.37964E+01-2.32053E+02 1.81497E+04 1.66440E-08 7.11918E-09
 -1       979-2.70549E+05 3.15039E+01-3.69254E+02 1.27856E+04 1.36360E-08-9.46443E-10
 -1       980-2.70577E+05 3.60985E+01-7.10737E+02 1.81503E+04 1.24362E-08-7.69990E-09
 -1       981-2.70526E+05 4.92064E+01-1.37535E+03 1.27860E+04 8.70750E-09 4.11194E-09
 -1       982-2.70765E+05-6.54432E+01-2.84216E+03 1.81448E+04 4.51848E-09-8.35911E-10
 -1       983-2.70353E+05-3.87407E+01-5.52199E+03 1.27913E+04 5.21641E-09 6.74049E-09
 -1       984-2.73421E+05-2.94917E+03-1.23657E+04 1.80718E+04-2.61025E-09 6.76926E-09
 -1       985-2.67853E+05-4.07934E+03-2.27074E+04 1.28636E+04 4.28781E-09-5.62977E-09
 -3
    1PSTEP                        13           7           1          
  100CL  107 5.56641E-01         409                     0    7           1
 -4  DISP        4    1
 -5  D1          1    2    1    0
 -5  D2          1    2    2    0
 -5  D3          1    2    3    0
 -5  ALL         1    2    0    0    1ALL
 -1         1 2.43995E-04 0.00000E+00 0.00000E+00
 -1         2 2.17415E-04 1.19217E-31-6.61744E-24
 -1         3 1.83953E-04 1.99812E-27-1.32349E-23
 -1         5 1.16727E-04-8.18320E-27 0.00000E+00
 -1         8 2.18995E-04-8.34991E-07 0.00000E+00
 -1         9 2.09300E-04-1.14105E-06 0.00000E+00
 -1        10 1.68810E-04-2.46436E-06 0.00000E+00
 -1        12 1.16589E-04 6.11897E-07 0.00000E+00
 -1        15 1.89131E-04-9.29901E-07 0.00000E+00
 -1        16 1.95053E-04-1.40286E-06 0.00000E+00
 -1        17 1.21137E-04-5.28426E-06 0.00000E+00
 -1        18 1.14941E-04 6.82756E-06 0.00000E+00
 -1        19 1.16177E-04 1.22070E-06 0.00000E+00
 -1        20 1.16324E-04 1.18363E-05 0.00000E+00
 -1        21 1.15698E-04 2.09032E-05-3.30872E-24
 -1        24 2.34198E-05-7.42121E-06 0.00000E+00
 -1        25 1.15664E-04 6.97191E-06 0.00000E+00
 -1        26 1.16502E-04 1.69529E-06 0.00000E+00
 -1        27 1.14811E-04 9.06212E-06 0.00000E+00
 -1        28 1.14356E-04 2.03852E-05 0.00000E+00
 -1        32 0.00000E+00 0.00000E+00 0.00000E+00
 -1        33 1.15640E-04 2.27315E-06 0.00000E+00
 -1        34 1.13973E-04 9.03487E-06 0.00000E+00
 -1        35 1.12408E-04 2.01089E-05 0.00000E+00
 -1        51 2.42374E-04-1.40039E-07 0.00000E+00
 -1        52 2.39365E-04-2.73181E-07 0.00000E+00
 -1        53 2.35241E-04-4.07272E-07 0.00000E+00
 -1        54 2.30282E-04-5.44088E-07 0.00000E+00
 -1        55 2.24772E-04-6.84594E-07 4.96308E-24
 -1        56 2.42185E-04-8.28082E-07 0.00000E+00
 -1        57 2.40395E-04-1.91030E-06-2.64698E-23
 -1        58 2.38661E-04-3.13364E-06 5.29396E-23
 -1        59 2.36935E-04-4.41074E-06 2.64698E-23
 -1        60 2.35190E-04-5.63975E-06 5.29396E-23
 -1        61 2.33389E-04-6.72581E-06-2.64698E-23
 -1        62 2.31504E-04-7.58615E-06 5.29396E-23
 -1        63 2.29506E-04-8.14893E-06-2.64698E-23
 -1        64 2.27380E-04-8.36918E-06 5.29396E-23
 -1        65 2.25114E-04-8.21732E-06 0.00000E+00
 -1        66 2.22710E-04-7.69782E-06 0.00000E+00
 -1        67 2.20178E-04-6.83112E-06 0.00000E+00
 -1        68 2.17535E-04-5.67024E-06 0.00000E+00
 -1        69 2.14815E-04-4.27749E-06 0.00000E+00
 -1        70 2.12039E-04-2.74417E-06-5.29396E-23
 -1        86 2.17156E-04-1.84693E-07 0.00000E+00
 -1        87 2.16380E-04-3.70135E-07 0.00000E+00
 -1        88 2.15137E-04-5.56099E-07-6.61744E-24
 -1        89 2.13480E-04-7.45744E-07-3.30872E-24
 -1        90 2.11503E-04-9.34893E-07 1.32349E-23
 -1       121 1.83529E-04-4.06616E-07 0.00000E+00
 -1       122 1.82258E-04-8.13930E-07 0.00000E+00
 -1       123 1.80144E-04-1.22263E-06 0.00000E+00
 -1       124 1.77192E-04-1.63345E-06 0.00000E+00
 -1       125 1.73411E-04-2.04694E-06 1.32349E-23
 -1       191 1.16723E-04 1.01987E-07-3.30872E-24
 -1       192 1.16711E-04 2.03972E-07 0.00000E+00
 -1       193 1.16692E-04 3.05958E-07 0.00000E+00
 -1       194 1.16666E-04 4.07942E-07 1.65436E-24
 -1       195 1.16631E-04 5.09922E-07 0.00000E+00
 -1       251 2.18435E-04 6.64728E-06 0.00000E+00
 -1       252 2.17819E-04 1.90225E-05-6.61744E-24
 -1       253 2.17167E-04 3.42750E-05 0.00000E+00
 -1       254 2.16501E-04 5.03243E-05 0.00000E+00
 -1       255 2.15856E-04 6.48837E-05 0.00000E+00
 -1       256 2.15257E-04 7.56999E-05-6.61744E-24
 -1       257 2.14696E-04 8.14911E-05 0.00000E+00
 -1       258 2.14152E-04 8.10869E-05-6.61744E-24
 -1       259 2.13590E-04 7.49232E-05-1.32349E-23
 -1       260 2.12984E-04 6.35635E-05-6.61744E-24
 -1       261 2.12338E-04 4.89197E-05 0.00000E+00
 -1       262 2.11673E-04 3.29758E-05-6.61744E-24
 -1       263 2.11023E-04 1.80539E-05 0.00000E+00
 -1       264 2.10414E-04 6.45363E-06 6.61744E-24
 -1       265 2.09847E-04-3.88451E-07 0.00000E+00
 -1       266 2.14018E-04-8.62579E-07-6.61744E-24
 -1       267 2.09041E-04-8.76963E-07 0.00000E+00
 -1       268 2.04063E-04-8.92182E-07 0.00000E+00
 -1       269 1.99086E-04-9.04925E-07 0.00000E+00
 -1       270 1.94109E-04-9.17610E-07 0.00000E+00
 -1       271 2.16038E-04 3.12815E-06 0.00000E+00
 -1       272 2.13421E-04 6.06730E-06 1.32349E-23
 -1       273 2.11164E-04 8.06182E-06 2.64698E-23
 -1       274 2.09226E-04 9.18791E-06 2.64698E-23
 -1       275 2.07578E-04 9.54220E-06 0.00000E+00
 -1       276 2.06179E-04 9.23179E-06 2.64698E-23
 -1       277 2.04984E-04 8.37611E-06 0.00000E+00
 -1       278 2.03945E-04 7.10338E-06-2.64698E-23
 -1       279 2.03011E-04 5.54931E-06-5.29396E-23
 -1       280 2.02130E-04 3.85430E-06 2.64698E-23
 -1       281 2.01248E-04 2.16116E-06-5.29396E-23
 -1       282 2.00313E-04 6.12799E-07-2.64698E-23
 -1       283 1.99272E-04-6.50658E-07 0.00000E+00
 -1       284 1.98078E-04-1.49233E-06 1.32349E-23
 -1       285 1.96677E-04-1.78609E-06 2.64698E-23
 -1       301 2.06721E-04-1.20066E-06-6.61744E-24
 -1       302 2.04033E-04-1.23626E-06 0.00000E+00
 -1       303 2.01379E-04-1.27039E-06 0.00000E+00
 -1       304 1.98902E-04-1.30456E-06 0.00000E+00
 -1       305 1.96746E-04-1.33999E-06 1.32349E-23
 -1       306 2.12962E-04-1.87369E-05 5.29396E-23
 -1       307 2.29024E-04-7.33265E-05-2.64698E-23
 -1       308 2.53597E-04-1.55711E-04 5.29396E-23
 -1       309 2.82749E-04-2.54438E-04-2.64698E-23
 -1       310 3.12188E-04-3.54202E-04-5.29396E-23
 -1       311 3.37618E-04-4.39614E-04 0.00000E+00
 -1       312 3.55083E-04-4.98682E-04 5.29396E-23
 -1       313 3.60527E-04-5.21564E-04 2.64698E-23
 -1       314 3.51906E-04-5.06630E-04 0.00000E+00
 -1       315 3.28159E-04-4.55089E-04 2.64698E-23
 -1       316 2.92083E-04-3.76011E-04 0.00000E+00
 -1       317 2.48034E-04-2.80209E-04 0.00000E+00
 -1       318 2.02799E-04-1.81959E-04 0.00000E+00
 -1       319 1.63355E-04-9.56655E-05 0.00000E+00
 -1       320 1.34866E-04-3.32961E-05 0.00000E+00
 -1       336 1.63296E-04-2.91837E-06 0.00000E+00
 -1       337 1.56777E-04-3.37877E-06 0.00000E+00
 -1       338 1.49273E-04-3.84562E-06 1.32349E-23
 -1       339 1.40812E-04-4.31902E-06 0.00000E+00
 -1       340 1.31423E-04-4.80043E-06 1.32349E-23
 -1       406 1.16540E-04 7.13860E-07-3.30872E-24
 -1       407 1.16482E-04 8.15790E-07-1.65436E-24
 -1       408 1.16417E-04 9.17659E-07 3.30872E-24
 -1       409 1.16345E-04 1.01935E-06 0.00000E+00
 -1       410 1.16265E-04 1.12066E-06 0.00000E+00
 -1       521 2.02494E-04-3.20629E-05 0.00000E+00
 -1       522 2.28462E-04-1.22331E-04 5.29396E-23
 -1       523 2.66246E-04-2.57433E-04 0.00000E+00
 -1       524 3.09792E-04-4.18227E-04 0.00000E+00
 -1       525 3.53459E-04-5.79581E-04 1.05879E-22
 -1       526 3.91608E-04-7.16300E-04-5.29396E-23
 -1       527 4.18231E-04-8.08968E-04 1.05879E-22
 -1       528 4.26529E-04-8.42449E-04 5.29396E-23
 -1       529 4.11902E-04-8.14575E-04 1.05879E-22
 -1       530 3.71678E-04-7.28649E-04-5.29396E-23
 -1       531 3.09964E-04-5.99534E-04-1.05879E-22
 -1       532 2.34381E-04-4.45027E-04 0.00000E+00
 -1       533 1.57182E-04-2.87623E-04-1.05879E-22
 -1       534 9.09351E-05-1.49960E-04 0.00000E+00
 -1       535 4.44916E-05-5.10744E-05 0.00000E+00
 -1       536 1.20881E-04 1.02269E-05-6.61744E-24
 -1       537 1.20445E-04 3.52657E-05 0.00000E+00
 -1       538 1.19859E-04 6.60519E-05 0.00000E+00
 -1       539 1.19216E-04 9.87748E-05 0.00000E+00
 -1       540 1.18643E-04 1.29102E-04 0.00000E+00
 -1       541 1.18244E-04 1.52714E-04 0.00000E+00
 -1       542 1.18010E-04 1.67062E-04-3.30872E-24
 -1       543 1.17872E-04 1.69652E-04 0.00000E+00
 -1       544 1.17702E-04 1.61008E-04 3.30872E-24
 -1       545 1.17390E-04 1.41724E-04-1.65436E-24
 -1       546 1.16921E-04 1.15143E-04 0.00000E+00
 -1       547 1.16346E-04 8.46539E-05 1.65436E-24
 -1       548 1.15784E-04 5.46815E-05 0.00000E+00
 -1       549 1.15355E-04 2.96497E-05 0.00000E+00
 -1       550 1.15084E-04 1.26755E-05 1.65436E-24
 -1       551 1.08031E-04-5.59400E-06 0.00000E+00
 -1       552 9.26110E-05-5.92936E-06 0.00000E+00
 -1       553 7.56529E-05-6.28693E-06 0.00000E+00
 -1       554 5.79443E-05-6.65864E-06 0.00000E+00
 -1       555 4.02725E-05-7.03254E-06 0.00000E+00
 -1       556 1.17523E-04 4.04804E-06-2.64698E-23
 -1       557 1.14696E-04 1.13703E-05 0.00000E+00
 -1       558 1.12572E-04 1.68559E-05 0.00000E+00
 -1       559 1.11077E-04 2.06928E-05 1.32349E-23
 -1       560 1.10137E-04 2.30686E-05 0.00000E+00
 -1       561 1.09676E-04 2.41721E-05 0.00000E+00
 -1       562 1.09623E-04 2.41925E-05 0.00000E+00
 -1       563 1.09906E-04 2.33195E-05-6.61744E-24
 -1       564 1.10451E-04 2.17429E-05 0.00000E+00
 -1       565 1.11188E-04 1.96527E-05 0.00000E+00
 -1       566 1.12046E-04 1.72390E-05 0.00000E+00
 -1       567 1.12954E-04 1.46922E-05-2.06795E-25
 -1       568 1.13840E-04 1.22023E-05 0.00000E+00
 -1       569 1.14635E-04 9.95956E-06 0.00000E+00
 -1       570 1.15266E-04 8.15400E-06 0.00000E+00
 -1       571 1.15016E-04 6.48530E-06 1.24077E-24
 -1       572 1.15092E-04 6.09536E-06-4.13590E-25
 -1       573 1.15170E-04 5.66730E-06-1.65436E-24
 -1       574 1.15247E-04 5.21113E-06-8.27181E-25
 -1       575 1.15324E-04 4.73692E-06 0.00000E+00
 -1       576 1.15402E-04 4.25476E-06 1.65436E-24
 -1       577 1.15479E-04 3.77477E-06 0.00000E+00
 -1       578 1.15557E-04 3.30709E-06 0.00000E+00
 -1       579 1.15634E-04 2.86183E-06 0.00000E+00
 -1       580 1.15712E-04 2.44912E-06 0.00000E+00
 -1       581 1.15790E-04 2.07908E-06-6.61744E-24
 -1       582 1.15867E-04 1.76183E-06 0.00000E+00
 -1       583 1.15945E-04 1.50748E-06 0.00000E+00
 -1       584 1.16022E-04 1.32601E-06 0.00000E+00
 -1       585 1.16100E-04 1.22737E-06 0.00000E+00
 -1       586 1.15013E-04 6.85325E-06 0.00000E+00
 -1       587 1.15060E-04 6.87830E-06 1.55096E-25
 -1       588 1.15115E-04 6.90306E-06 0.00000E+00
 -1       589 1.15211E-04 6.92738E-06 0.00000E+00
 -1       590 1.15383E-04 6.95091E-06 0.00000E+00
 -1       591 1.15032E-04 6.53257E-06 9.04729E-26
 -1       592 1.15131E-04 6.20682E-06 0.00000E+00
 -1       593 1.15240E-04 5.85677E-06-4.13590E-25
 -1       594 1.15355E-04 5.48810E-06-4.13590E-25
 -1       595 1.15474E-04 5.10658E-06 0.00000E+00
 -1       596 1.15597E-04 4.71793E-06 0.00000E+00
 -1       597 1.15720E-04 4.32784E-06-8.27181E-25
 -1       598 1.15841E-04 3.94204E-06-2.06795E-25
 -1       599 1.15959E-04 3.56621E-06 4.13590E-25
 -1       600 1.16070E-04 3.20608E-06-2.06795E-25
 -1       601 1.16174E-04 2.86733E-06 0.00000E+00
 -1       602 1.16268E-04 2.55568E-06 1.03398E-25
 -1       603 1.16349E-04 2.27684E-06 0.00000E+00
 -1       604 1.16416E-04 2.03659E-06 0.00000E+00
 -1       605 1.16467E-04 1.84057E-06 0.00000E+00
 -1       606 1.16190E-04 1.38517E-06-3.30872E-24
 -1       607 1.16200E-04 1.64549E-06 1.65436E-24
 -1       608 1.16210E-04 1.99603E-06 0.00000E+00
 -1       609 1.16219E-04 2.43044E-06 0.00000E+00
 -1       610 1.16228E-04 2.94235E-06 3.30872E-24
 -1       611 1.16237E-04 3.52529E-06 0.00000E+00
 -1       612 1.16246E-04 4.17278E-06 0.00000E+00
 -1       613 1.16255E-04 4.87835E-06 0.00000E+00
 -1       614 1.16264E-04 5.63553E-06 0.00000E+00
 -1       615 1.16273E-04 6.43782E-06 0.00000E+00
 -1       616 1.16281E-04 7.27876E-06-1.65436E-24
 -1       617 1.16290E-04 8.15186E-06 0.00000E+00
 -1       618 1.16299E-04 9.05063E-06 0.00000E+00
 -1       619 1.16308E-04 9.96861E-06 0.00000E+00
 -1       620 1.16316E-04 1.08993E-05 0.00000E+00
 -1       621 1.16130E-04 1.29994E-06 0.00000E+00
 -1       622 1.16138E-04 1.37948E-06 8.27181E-25
 -1       623 1.16191E-04 1.45900E-06 1.65436E-24
 -1       624 1.16277E-04 1.53838E-06 8.27181E-25
 -1       625 1.16384E-04 1.61761E-06 1.65436E-24
 -1       626 1.16203E-04 1.41208E-06 3.30872E-24
 -1       627 1.16201E-04 1.68115E-06 1.65436E-24
 -1       628 1.16172E-04 2.02021E-06-3.30872E-24
 -1       629 1.16121E-04 2.42107E-06 0.00000E+00
 -1       630 1.16049E-04 2.87557E-06 0.00000E+00
 -1       631 1.15960E-04 3.37548E-06-1.65436E-24
 -1       632 1.15858E-04 3.91255E-06 0.00000E+00
 -1       633 1.15744E-04 4.47859E-06 1.65436E-24
 -1       634 1.15623E-04 5.06536E-06-3.30872E-24
 -1       635 1.15497E-04 5.66463E-06 0.00000E+00
 -1       636 1.15369E-04 6.26818E-06 3.30872E-24
 -1       637 1.15243E-04 6.86780E-06 1.65436E-24
 -1       638 1.15121E-04 7.45524E-06 0.00000E+00
 -1       639 1.15007E-04 8.02228E-06 8.27181E-25
 -1       640 1.14903E-04 8.56069E-06-1.65436E-24
 -1       656 1.15605E-04 1.13849E-05-6.61744E-24
 -1       657 1.15268E-04 1.09155E-05 0.00000E+00
 -1       658 1.15173E-04 1.04476E-05-1.32349E-23
 -1       659 1.15176E-04 9.97997E-06 0.00000E+00
 -1       660 1.15110E-04 9.51092E-06 0.00000E+00
 -1       661 1.16059E-04 1.27423E-05 0.00000E+00
 -1       662 1.15820E-04 1.35849E-05 8.27181E-25
 -1       663 1.15605E-04 1.43666E-05 0.00000E+00
 -1       664 1.15411E-04 1.50910E-05 0.00000E+00
 -1       665 1.15238E-04 1.57613E-05 1.65436E-24
 -1       666 1.15083E-04 1.63806E-05 0.00000E+00
 -1       667 1.14947E-04 1.69521E-05 1.65436E-24
 -1       668 1.14828E-04 1.74785E-05 0.00000E+00
 -1       669 1.14725E-04 1.79628E-05 0.00000E+00
 -1       670 1.14636E-04 1.84076E-05 8.27181E-25
 -1       671 1.14562E-04 1.88155E-05 0.00000E+00
 -1       672 1.14500E-04 1.91891E-05 0.00000E+00
 -1       673 1.14450E-04 1.95307E-05 1.65436E-24
 -1       674 1.14410E-04 1.98425E-05-8.27181E-25
 -1       675 1.14381E-04 2.01272E-05 0.00000E+00
 -1       676 1.15473E-04 2.08163E-05 0.00000E+00
 -1       677 1.15249E-04 2.07295E-05 0.00000E+00
 -1       678 1.15025E-04 2.06428E-05-3.30872E-24
 -1       679 1.14802E-04 2.05563E-05 0.00000E+00
 -1       680 1.14579E-04 2.04698E-05 0.00000E+00
 -1       771 1.70444E-05 5.95607E-06 0.00000E+00
 -1       772 1.15903E-05 1.69303E-05 0.00000E+00
 -1       773 7.01548E-06 2.56266E-05 0.00000E+00
 -1       774 3.26156E-06 3.21820E-05 0.00000E+00
 -1       775 2.70780E-07 3.67376E-05 0.00000E+00
 -1       776-2.01707E-06 3.94412E-05 0.00000E+00
 -1       777-3.66270E-06 4.04446E-05 0.00000E+00
 -1       778-4.72826E-06 3.99049E-05 2.64698E-23
 -1       779-5.27615E-06 3.79826E-05 0.00000E+00
 -1       780-5.36996E-06 3.48427E-05 0.00000E+00
 -1       781-5.07335E-06 3.06526E-05-5.29396E-23
 -1       782-4.45089E-06 2.55834E-05-2.64698E-23
 -1       783-3.56713E-06 1.98078E-05-5.29396E-23
 -1       784-2.48730E-06 1.35010E-05-1.32349E-23
 -1       785-1.27649E-06 6.83923E-06 2.64698E-23
 -1       786 1.15713E-04 6.47459E-06 0.00000E+00
 -1       787 1.15765E-04 6.01201E-06 0.00000E+00
 -1       788 1.15817E-04 5.57815E-06-1.65436E-24
 -1       789 1.15869E-04 5.16709E-06-8.27181E-25
 -1       790 1.15922E-04 4.77564E-06-1.65436E-24
 -1       791 1.15975E-04 4.40065E-06 8.27181E-25
 -1       792 1.16027E-04 4.04100E-06 1.65436E-24
 -1       793 1.16080E-04 3.69559E-06 0.00000E+00
 -1       794 1.16133E-04 3.36503E-06-1.65436E-24
 -1       795 1.16186E-04 3.04999E-06 8.27181E-25
 -1       796 1.16239E-04 2.75301E-06 0.00000E+00
 -1       797 1.16292E-04 2.47668E-06 0.00000E+00
 -1       798 1.16344E-04 2.22608E-06 0.00000E+00
 -1       799 1.16397E-04 2.00637E-06 0.00000E+00
 -1       800 1.16450E-04 1.82644E-06 1.65436E-24
 -1       801 1.07080E-04 6.04230E-06 0.00000E+00
 -1       802 8.02472E-05 4.76740E-06 0.00000E+00
 -1       803 4.68295E-05 3.31744E-06-2.64698E-23
 -1       804 1.87699E-05 2.01705E-06 0.00000E+00
 -1       805 1.49715E-06 9.42375E-07 2.64698E-23
 -1       806 1.15762E-04 6.42298E-06 0.00000E+00
 -1       807 1.15850E-04 5.89295E-06-1.65436E-24
 -1       808 1.15928E-04 5.38584E-06 3.30872E-24
 -1       809 1.15996E-04 4.90479E-06 8.27181E-25
 -1       810 1.16054E-04 4.45291E-06-1.65436E-24
 -1       811 1.16099E-04 4.03325E-06 0.00000E+00
 -1       812 1.16131E-04 3.64885E-06 1.65436E-24
 -1       813 1.16148E-04 3.30273E-06 0.00000E+00
 -1       814 1.16150E-04 2.99791E-06 1.65436E-24
 -1       815 1.16136E-04 2.73740E-06 0.00000E+00
 -1       816 1.16103E-04 2.52422E-06-3.30872E-24
 -1       817 1.16052E-04 2.36137E-06 8.27181E-25
 -1       818 1.15981E-04 2.25186E-06-1.65436E-24
 -1       819 1.15889E-04 2.19867E-06 8.27181E-25
 -1       820 1.15775E-04 2.20479E-06 0.00000E+00
 -1       821 1.16403E-04 1.54178E-06 0.00000E+00
 -1       822 1.16297E-04 1.29622E-06-8.27181E-25
 -1       823 1.16192E-04 1.03773E-06 3.30872E-24
 -1       824 1.16085E-04 8.45545E-07 0.00000E+00
 -1       825 1.15979E-04 7.84328E-07 0.00000E+00
 -1       826 1.15872E-04 9.18135E-07 0.00000E+00
 -1       827 1.15765E-04 1.26838E-06 3.30872E-24
 -1       828 1.15658E-04 1.85545E-06 0.00000E+00
 -1       829 1.15551E-04 2.64795E-06-3.30872E-24
 -1       830 1.15444E-04 3.61350E-06 1.65436E-24
 -1       831 1.15337E-04 4.68193E-06 3.30872E-24
 -1       832 1.15229E-04 5.78251E-06-1.65436E-24
 -1       833 1.15122E-04 6.83751E-06 0.00000E+00
 -1       834 1.15017E-04 7.76944E-06 0.00000E+00
 -1       835 1.14911E-04 8.52759E-06-8.27181E-25
 -1       836 1.16522E-04 1.79146E-06 0.00000E+00
 -1       837 1.16429E-04 1.88981E-06 0.00000E+00
 -1       838 1.16259E-04 1.98799E-06 0.00000E+00
 -1       839 1.16047E-04 2.08553E-06 8.27181E-25
 -1       840 1.15829E-04 2.18292E-06 4.13590E-25
 -1       856 1.14787E-04 9.54584E-06 4.13590E-25
 -1       857 1.14758E-04 1.01441E-05-1.03398E-25
 -1       858 1.14731E-04 1.08388E-05 0.00000E+00
 -1       859 1.14702E-04 1.16121E-05 4.13590E-25
 -1       860 1.14673E-04 1.24458E-05 8.27181E-25
 -1       861 1.14645E-04 1.33215E-05 0.00000E+00
 -1       862 1.14616E-04 1.42212E-05 8.27181E-25
 -1       863 1.14587E-04 1.51265E-05 0.00000E+00
 -1       864 1.14558E-04 1.60192E-05-8.27181E-25
 -1       865 1.14529E-04 1.68809E-05 4.13590E-25
 -1       866 1.14500E-04 1.76934E-05-8.27181E-25
 -1       867 1.14472E-04 1.84386E-05-4.13590E-25
 -1       868 1.14443E-04 1.90984E-05-8.27181E-25
 -1       869 1.14414E-04 1.96546E-05 0.00000E+00
 -1       870 1.14386E-04 2.00895E-05 0.00000E+00
 -1       871 1.14552E-04 9.06084E-06 0.00000E+00
 -1       872 1.14408E-04 9.05715E-06 0.00000E+00
 -1       873 1.14329E-04 9.05301E-06 0.00000E+00
 -1       874 1.14265E-04 9.04830E-06 1.55096E-25
 -1       875 1.14163E-04 9.04306E-06-4.13590E-25
 -1       876 1.14733E-04 9.55635E-06 3.30872E-24
 -1       877 1.14636E-04 1.01063E-05 1.65436E-24
 -1       878 1.14520E-04 1.07053E-05 3.30872E-24
 -1       879 1.14389E-04 1.13471E-05 0.00000E+00
 -1       880 1.14244E-04 1.20253E-05 3.30872E-24
 -1       881 1.14088E-04 1.27338E-05-1.65436E-24
 -1       882 1.13923E-04 1.34663E-05 3.30872E-24
 -1       883 1.13751E-04 1.42166E-05 0.00000E+00
 -1       884 1.13575E-04 1.49784E-05 3.30872E-24
 -1       885 1.13397E-04 1.57455E-05 1.65436E-24
 -1       886 1.13219E-04 1.65117E-05 3.30872E-24
 -1       887 1.13044E-04 1.72708E-05 0.00000E+00
 -1       888 1.12874E-04 1.80165E-05-3.30872E-24
 -1       889 1.12710E-04 1.87425E-05 0.00000E+00
 -1       890 1.12556E-04 1.94425E-05 1.65436E-24
 -1       891 1.14155E-04 2.03390E-05-8.27181E-25
 -1       892 1.13935E-04 2.02926E-05-8.27181E-25
 -1       893 1.13672E-04 2.02462E-05-8.27181E-25
 -1       894 1.13345E-04 2.01999E-05-4.13590E-25
 -1       895 1.12931E-04 2.01537E-05 6.20385E-25
 -1       956 1.15537E-04 2.47010E-06 0.00000E+00
 -1       957 1.15433E-04 2.73250E-06-8.27181E-25
 -1       958 1.15329E-04 3.05314E-06-1.65436E-24
 -1       959 1.15225E-04 3.42439E-06 0.00000E+00
 -1       960 1.15120E-04 3.83862E-06-3.30872E-24
 -1       961 1.15016E-04 4.28815E-06 0.00000E+00
 -1       962 1.14911E-04 4.76531E-06 3.30872E-24
 -1       963 1.14807E-04 5.26240E-06 0.00000E+00
 -1       964 1.14702E-04 5.77175E-06 0.00000E+00
 -1       965 1.14597E-04 6.28565E-06 0.00000E+00
 -1       966 1.14493E-04 6.79642E-06-3.30872E-24
 -1       967 1.14388E-04 7.29638E-06 0.00000E+00
 -1       968 1.14284E-04 7.77783E-06 0.00000E+00
 -1       969 1.14179E-04 8.23312E-06 0.00000E+00
 -1       970 1.14075E-04 8.65459E-06 0.00000E+00
 -1       971 1.13876E-04 9.43157E-06 1.65436E-24
 -1       972 1.13778E-04 9.91252E-06 0.00000E+00
 -1       973 1.13680E-04 1.04684E-05 3.30872E-24
 -1       974 1.13582E-04 1.10896E-05-1.65436E-24
 -1       975 1.13484E-04 1.17665E-05 0.00000E+00
 -1       976 1.13385E-04 1.24893E-05 0.00000E+00
 -1       977 1.13287E-04 1.32483E-05 3.30872E-24
 -1       978 1.13189E-04 1.40339E-05-1.65436E-24
 -1       979 1.13090E-04 1.48363E-05 0.00000E+00
 -1       980 1.12992E-04 1.56458E-05 0.00000E+00
 -1       981 1.12893E-04 1.64527E-05 3.30872E-24
 -1       982 1.12795E-04 1.72473E-05-1.65436E-24
 -1       983 1.12697E-04 1.80199E-05 0.00000E+00
 -1       984 1.12599E-04 1.87608E-05 0.00000E+00
 -1       985 1.12502E-04 1.94603E-05 0.00000E+00
 -3
    1PSTEP                        14           7           1          
  100CL  107 5.56641E-01         409                     0    7           1
 -4  STRESS      6    1
 -5  SXX         1    4    1    1
 -5  SYY         1    4    2    2
 -5  SZZ         1    4    3    3
 -5  SXY         1    4    1    2
 -5  SYZ         1    4    2    3
 -5  SZX         1    4    3    1
 -1         1-2.49031E+06-1.03815E+06-5.30923E+05-1.29706E+06 1.67347E-10 1.12486E-08
 -1         2 2.44777E+03-5.25005E+05 7.94409E+03-1.16536E+03-8.24798E-11 2.95202E-09
 -1         3-3.20083E+02-1.16001E+06 2.79355E+02-7.77042E+02-2.55543E-10-7.08678E-09
 -1         5-1.18223E+00 2.91809E+05 7.39529E+00 5.40809E-02 7.00850E-12-2.51223E-08
 -1         8-1.15479E+06-4.05497E+05-1.25614E+05-5.26753E+05 4.03816E-10 8.03266E-09
 -1         9-2.09004E+06-8.47573E+05-2.63610E+05-7.87829E+05 8.37899E-09 1.11992E-08
 -1        10-1.08354E+03-1.20853E+06-1.76521E+03-5.25818E+03-6.38192E-09-3.90855E-08
 -1        12 1.85316E+00 2.91824E+05 2.39402E+02 4.19635E-01 1.92166E-11 2.87737E-08
 -1        15 1.94995E+03 1.07162E+03 6.30323E+03 4.19701E+00 9.14326E-11 1.68835E-08
 -1        16-2.10167E+06-1.20880E+06-3.52409E+05-1.32851E+06 9.70128E-09-1.09818E-08
 -1        17-1.20562E+06-6.11342E+05-2.13364E+05-5.10790E+05-5.68543E-09 1.19733E-08
 -1        18-2.57925E+04-1.13309E+04-2.93488E+04-7.83954E+04 6.87976E-09 2.53749E-10
 -1        19 9.39887E+04 1.08568E+05-7.08968E+02 1.83698E+04-2.09002E-10 4.86762E-10
 -1        20-4.66638E+04-4.42915E+05-9.82315E+04 2.86193E+04 2.52582E-09-5.90383E-09
 -1        21-4.02222E+01-2.48541E+05-7.94874E+02-3.82230E+01-3.43877E-09-2.49234E-09
 -1        24-2.70835E+06-5.12072E+05-2.47373E+05-8.60539E+05-5.16447E-08-2.04503E-08
 -1        25-9.00827E+04-5.23734E+05-1.04299E+05-1.22716E+05 7.01220E-11 4.89599E-09
 -1        26-3.14406E+04 7.17390E+04-1.71106E+04-6.08932E+03 1.51413E-09-2.28772E-10
 -1        27-6.61669E+04-2.41512E+05-8.99672E+04 5.45152E+04 5.25195E-09 6.55139E-10
 -1        28 1.91335E+04-6.95273E+04 1.40942E+04 2.06016E+04 8.40771E-10 1.15229E-09
 -1        32-1.20629E+06-1.46543E+06 9.48813E+04-5.55871E+05-2.64317E-08-2.45257E-09
 -1        33-1.40634E+05 7.00990E+04 2.49866E+04-3.53940E+04 4.40764E-10-1.05623E-09
 -1        34-1.78592E+05-1.81792E+04 4.61296E+02 5.63307E+04 1.95914E-09-3.33042E-09
 -1        35-1.94936E+04-2.76167E+04-1.08853E+03 4.32970E+04 2.97648E-09-1.25874E-09
 -1        51 2.38244E+04-3.38823E+05 5.70608E+04-9.49854E+05 7.27596E-11 2.47092E-08
 -1        52 1.21165E+04-3.34228E+05 3.49086E+04-1.10773E+06 1.09139E-10-5.24597E-09
 -1        53 7.25939E+03-3.49127E+05 2.59685E+04-9.46496E+05 2.83762E-10-8.89122E-09
 -1        54 1.98413E+04-3.47545E+05 3.71046E+04-1.11121E+06 9.45874E-11-6.04268E-09
 -1        55 3.90604E+04-3.61145E+05 6.34701E+04-9.45948E+05 3.78350E-10 1.07902E-08
 -1        56-4.75299E+06-5.31705E+05-3.90916E+05-1.83816E+06-4.43833E-10-1.00554E-08
 -1        57-4.92930E+06-8.67271E+05-2.63695E+05-1.80135E+06 6.91216E-11-2.58296E-10
 -1        58-4.83049E+06-6.56916E+05-9.19167E+04-1.81478E+06-1.47702E-09-1.57888E-09
 -1        59-4.84006E+06-7.19788E+05-5.48776E+04-1.82845E+06 1.48793E-09-2.56096E-08
 -1        60-4.84114E+06-6.75045E+05-2.14318E+04-1.81238E+06-5.31600E-10-1.06393E-08
 -1        61-4.82951E+06-6.96706E+05-1.21490E+04-1.82904E+06 1.17598E-09 5.10454E-09
 -1        62-4.84078E+06-6.79473E+05-5.78147E+03-1.81430E+06 2.45859E-09 5.35874E-09
 -1        63-4.83273E+06-6.89172E+05-4.63538E+03-1.82367E+06-1.88845E-09-1.64424E-08
 -1        64-4.83784E+06-6.82543E+05-5.14694E+03-1.81773E+06 1.80967E-09-2.00369E-08
 -1        65-4.84026E+06-6.84921E+05-1.02337E+04-1.81623E+06-2.02044E-09-1.89439E-08
 -1        66-4.83326E+06-6.83779E+05-1.78570E+04-1.82173E+06 1.83809E-09-7.22139E-10
 -1        67-4.85686E+06-6.96187E+05-4.55152E+04-1.80678E+06-1.67665E-09-5.50608E-09
 -1        68-4.82147E+06-6.71710E+05-7.62176E+04-1.82708E+06 1.07866E-09 3.93266E-09
 -1        69-4.93415E+06-8.15184E+05-2.18582E+05-1.78068E+06 6.55746E-10-1.30094E-08
 -1        70-4.75696E+06-5.68197E+05-3.24118E+05-1.84677E+06-3.05590E-10-3.72529E-09
 -1        86-1.22660E+03-5.27450E+05 8.52325E+03 5.82679E+02 8.46057E-10-1.75083E-09
 -1        87 8.12817E+03-5.22312E+05 1.77581E+04-2.20695E+03 1.48975E-09 8.93947E-09
 -1        88-6.88538E+03-5.30142E+05 2.72437E+04 1.62430E+03 1.98997E-09-3.19227E-09
 -1        89 5.13085E+04-5.02398E+05 7.33781E+04-3.91885E+03 2.93403E-09 3.16474E-09
 -1        90-4.42518E+04-5.47338E+05 1.03811E+05 2.29486E+03 2.69938E-09 2.04511E-08
 -1       121-4.61728E+02-1.16120E+06 1.03268E+02 3.87499E+02 6.60393E-10 8.63474E-09
 -1       122-2.21690E+02-1.15997E+06 5.89558E+02-1.55241E+03-2.63696E-09 3.94084E-09
 -1       123-5.15816E+02-1.16127E+06 7.83926E+02 1.15883E+03 2.14675E-09-9.82254E-11
 -1       124 8.87211E+02-1.15938E+06 2.42218E+03-3.31826E+03-4.60022E-09-9.51331E-09
 -1       125-1.19844E+03-1.16190E+06 3.53839E+03 2.14938E+03 2.90675E-09-2.64663E-08
 -1       191-1.48861E+00 2.91834E+05 9.05020E+00-2.71118E-02 3.60219E-11-7.64749E-09
 -1       192-1.85964E+00 2.91809E+05 1.56474E+01 2.32901E-01 8.48683E-11 2.46609E-09
 -1       193-3.29060E+00 2.91834E+05 2.93042E+01-2.06382E-01 1.64793E-11-1.77579E-09
 -1       194-4.04000E+00 2.91811E+05 5.91584E+01 5.52207E-01 4.25899E-11-1.34867E-08
 -1       195-6.75379E+00 2.91832E+05 1.15921E+02-3.47936E-01 4.79332E-11 6.99993E-09
 -1       251-1.55107E+06 2.12924E+04-5.72303E+04-3.28839E+04 5.03405E-10-1.40062E-09
 -1       252-1.55403E+06-2.40843E+04-3.61443E+04 8.43749E+04 9.51900E-10-2.72917E-08
 -1       253-1.54814E+06 3.08415E+03-1.40060E+04-5.18093E+04-1.22441E-10-2.45254E-08
 -1       254-1.54933E+06-2.04360E+03-7.73678E+03 9.35143E+04-2.33808E-09 9.45147E-09
 -1       255-1.55628E+06-2.44029E+02-4.88928E+03-4.20340E+04 7.58291E-09 4.50200E-09
 -1       256-1.52666E+06 8.22257E+02 2.85834E+03 5.05714E+04 1.11456E-08 1.18714E-08
 -1       257-1.56875E+06-1.42006E+03-4.80775E+03-8.84152E+03 1.10804E-08-1.48798E-08
 -1       258-1.51913E+06 1.17855E+03 5.85035E+03-2.07807E+04 1.64073E-09-3.13613E-08
 -1       259-1.56310E+06-1.16618E+03-2.72967E+03 2.92901E+04 4.86125E-10-9.50983E-09
 -1       260-1.53940E+06 1.91147E+03 2.85253E+03-8.04899E+04-2.84592E-09 1.98432E-09
 -1       261-1.55048E+06-5.49970E+02 8.27144E+02 5.08709E+04 1.23313E-08-4.78883E-09
 -1       262-1.54778E+06 3.13200E+03 2.95489E+03-9.53572E+04-4.38948E-09 2.79465E-09
 -1       263-1.55557E+06-1.68622E+03 2.31649E+03 4.41732E+04-2.21121E-09 5.60112E-09
 -1       264-1.52519E+06 9.02977E+03 1.39190E+04-5.73249E+04 1.91443E-08-5.06452E-09
 -1       265-1.57115E+06-7.97196E+03 8.87555E+03 1.28125E+04 5.27552E-09-2.23918E-09
 -1       266-3.52997E+04-1.65037E+04 8.28346E+04-8.98139E+01 4.72937E-11-5.97777E-09
 -1       267 4.09231E+04 1.92392E+04 5.85404E+04 1.03614E+02 8.45830E-11-8.16739E-09
 -1       268-5.48767E+03-2.72460E+03 2.17596E+04-1.32030E+01-1.45519E-11 4.00016E-09
 -1       269 6.47938E+03 3.26099E+03 1.41430E+04 1.53787E+01-4.61569E-11 1.92591E-08
 -1       270-9.72563E+02-5.35797E+02 6.82706E+03-2.08703E+00 1.01863E-10 2.76671E-08
 -1       271-3.26360E+06-4.08034E+05-2.46389E+05-1.27047E+06 1.75714E-09-8.83301E-09
 -1       272-3.35233E+06-5.87597E+05-1.58442E+05-1.26789E+06 1.21236E-09 2.67028E-09
 -1       273-3.31101E+06-4.68449E+05-5.82107E+04-1.25828E+06-7.11680E-10-7.65795E-09
 -1       274-3.29608E+06-5.14274E+05-3.25559E+04-1.28699E+06-2.10321E-09-1.48543E-08
 -1       275-3.31898E+06-4.73233E+05-1.35658E+04-1.25460E+06 3.99177E-09-1.40790E-09
 -1       276-3.28596E+06-5.09389E+05-7.16628E+03-1.29335E+06 2.15869E-09 1.31922E-09
 -1       277-3.32145E+06-4.72231E+05-3.52821E+03-1.25254E+06-6.79393E-10 7.95467E-09
 -1       278-3.28288E+06-5.11028E+05-2.51067E+03-1.29672E+06 3.27418E-09 2.08798E-08
 -1       279-3.32240E+06-4.71301E+05-2.66213E+03-1.25152E+06-1.33741E-09-8.83574E-09
 -1       280-3.28252E+06-5.12457E+05-4.85100E+03-1.29776E+06 5.20527E-09-7.91442E-09
 -1       281-3.32195E+06-4.70759E+05-8.80673E+03-1.25157E+06-3.50576E-09 1.07648E-08
 -1       282-3.28741E+06-5.17406E+05-2.11307E+04-1.29584E+06-3.19278E-09 3.37859E-08
 -1       283-3.31750E+06-4.66952E+05-3.76069E+04-1.25317E+06 1.58650E-09-1.56761E-08
 -1       284-3.32279E+06-5.65811E+05-1.02520E+05-1.28452E+06 1.16063E-09-1.41445E-08
 -1       285-3.28709E+06-4.27661E+05-1.59381E+05-1.26079E+06-2.85581E-10 1.08412E-09
 -1       301 2.30231E+04-8.93208E+04 1.67989E+05-1.72565E+05-3.56522E-10-1.34050E-08
 -1       302 2.42378E+04-4.69581E+04 1.09669E+05-2.53074E+05 8.87553E-10 1.01204E-09
 -1       303 1.34894E+03-7.25350E+04 8.29860E+04-1.72416E+05-4.87489E-10 8.76389E-09
 -1       304 2.71362E+04-4.33369E+04 1.20118E+05-2.52658E+05 5.98448E-10 3.99696E-08
 -1       305 2.58267E+04-9.14495E+04 1.91026E+05-1.73037E+05-3.78350E-10 6.82849E-09
 -1       306-6.69638E+06-6.36509E+05-6.23698E+05-2.12130E+06-1.10304E-08 1.92085E-09
 -1       307-4.69008E+06-1.70186E+06-1.61030E+05-3.16981E+06-1.22731E-07-9.00764E-09
 -1       308-6.68142E+06-2.88471E+05-1.24868E+05-1.51265E+06-1.70621E-08 2.49420E-08
 -1       309-4.94086E+06-1.87297E+06-3.09272E+04-3.94907E+06 7.70913E-08-3.68800E-10
 -1       310-6.68054E+06-2.88670E+05-3.50750E+04-1.48665E+06 3.76895E-09-2.40807E-08
 -1       311-4.61689E+06-1.57819E+06 1.08798E+05-3.28840E+06 5.62832E-08 1.92194E-08
 -1       312-6.79293E+06-7.40207E+05-1.63887E+05-2.04486E+06 5.38421E-09 7.00165E-08
 -1       313-4.78757E+06-7.26892E+05 2.22650E+05-1.91188E+06-6.04414E-08 3.65690E-08
 -1       314-6.29075E+06-1.29550E+06-1.78447E+05-2.68205E+06 5.71017E-08 1.68657E-08
 -1       315-6.34177E+06 2.64894E+05 1.25466E+05-1.11734E+06-2.67173E-08-8.57108E-09
 -1       316-5.43993E+06-1.58328E+06-5.33099E+04-2.96572E+06-1.21581E-07-9.25429E-08
 -1       317-7.51667E+06 6.99747E+05-4.03424E+04-1.01071E+06 1.27765E-07-9.06621E-08
 -1       318-5.33130E+06-1.58116E+06-1.28338E+05-2.98593E+06-1.07575E-07 1.15688E-08
 -1       319-6.76060E+06 1.97293E+05-2.28466E+05-1.03517E+06-2.93949E-08 1.11759E-08
 -1       320-6.03602E+06-1.19466E+06-6.80172E+05-2.78941E+06 3.46045E-08-5.96629E-09
 -1       336 5.50194E+02-1.25706E+06-7.33223E+03 3.09174E+03-1.24041E-08-7.22866E-09
 -1       337-2.72521E+03-1.25827E+06-8.29994E+03-7.57671E+03-2.32512E-08-4.95675E-09
 -1       338 4.22391E+02-1.25717E+06-1.12011E+04 4.45455E+03-1.65046E-08-6.06451E-09
 -1       339-1.16369E+04-1.26406E+06-2.46381E+04-1.02392E+04-2.98537E-08 2.41853E-08
 -1       340 7.72536E+03-1.25166E+06-3.82989E+04 5.72900E+03-2.03727E-08 2.30266E-08
 -1       406 2.03429E+01 2.91821E+05 4.72849E+02-7.47784E-02 1.66324E-10 1.96637E-08
 -1       407 1.66615E+02 2.91907E+05 1.00450E+03-2.08849E+00 1.27187E-10 4.88978E-09
 -1       408 5.19067E+02 2.91749E+05 2.00644E+03 2.21641E+00 9.73159E-11 1.73859E-08
 -1       409 2.17084E+03 2.92548E+05 4.51656E+03-2.19604E+01-2.86491E-11 8.65157E-09
 -1       410 6.23389E+03 2.91179E+05 9.22052E+03 2.06960E+01 7.09406E-11 6.44036E-10
 -1       521-8.93841E+06-9.23531E+05-1.04714E+06-2.47153E+06-1.03901E-08 9.54606E-09
 -1       522-4.40228E+06-2.27906E+06-3.22336E+04-4.51136E+06-1.20512E-07-3.45572E-08
 -1       523-8.49898E+06-1.17523E+05-1.79162E+05-1.31506E+06-1.05283E-08-6.61530E-08
 -1       524-5.60665E+06-2.50711E+06 9.73606E+03-6.08991E+06 1.37977E-07-1.48436E-07
 -1       525-8.49619E+06-1.23175E+05-6.48455E+04-1.29809E+06 1.48277E-07-9.40690E-08
 -1       526-4.34183E+06-2.13929E+06 3.03811E+05-4.60248E+06 6.85177E-08 2.44836E-09
 -1       527-9.02565E+06-1.03598E+06-4.44777E+05-2.41322E+06-4.73228E-08-5.23141E-09
 -1       528-4.11674E+06-6.36446E+05 5.67035E+05-1.69702E+06-4.10510E-08 9.45147E-09
 -1       529-8.05828E+06-2.08756E+06-4.68007E+05-3.60946E+06-2.49129E-08 7.85803E-09
 -1       530-7.62949E+06 1.34587E+06 3.33767E+05-5.23709E+05-6.46978E-08 6.68115E-08
 -1       531-6.20943E+06-2.50025E+06-8.80149E+04-3.99080E+06-1.98575E-07 2.53931E-09
 -1       532-1.02781E+07 2.17656E+06 1.62226E+04-7.88731E+05 1.09014E-07-1.10768E-07
 -1       533-6.04048E+06-2.49692E+06-1.47280E+05-4.00080E+06 4.35539E-08-2.16984E-07
 -1       534-8.24652E+06 1.39540E+06-3.56636E+04-5.12401E+05-4.22733E-08 1.53843E-07
 -1       535-7.73792E+06-2.05588E+06-9.84169E+05-3.72657E+06-7.42148E-09 1.02606E-07
 -1       536-4.21792E+05-2.36498E+04 3.28336E+04-1.77571E+04-2.55704E-09 2.08693E-08
 -1       537-3.15719E+05 2.59695E+04 3.92973E+04 4.35590E+04-5.01303E-08 4.00123E-08
 -1       538-3.70262E+05-1.98550E+03 1.10476E+04-2.68389E+04 6.77628E-09 3.75630E-08
 -1       539-3.48751E+05 3.34255E+03 1.03633E+04 4.89904E+04 6.07167E-08 2.63485E-08
 -1       540-3.89382E+05-5.42521E+02-1.25875E+03-2.32125E+04 1.18628E-08 3.39701E-08
 -1       541-2.81860E+05 3.20377E+03 1.88388E+04 2.94839E+04-6.01887E-09 2.63326E-08
 -1       542-4.35351E+05-3.31417E+03-1.29513E+04-7.28144E+03 3.55590E-09 1.77399E-08
 -1       543-2.47415E+05 4.21162E+03 2.43712E+04-6.94891E+03-2.03445E-08-3.87558E-10
 -1       544-4.22914E+05-2.29195E+03-1.14553E+04 1.31749E+04 2.61571E-09-1.84264E-08
 -1       545-3.10190E+05 7.33217E+02 1.00941E+04-3.94930E+04-1.12531E-08-1.98947E-08
 -1       546-3.74226E+05 1.50219E+03-3.70110E+03 2.52494E+04 2.66823E-09-2.37725E-08
 -1       547-3.56492E+05-3.65701E+03-4.26785E+03-5.07452E+04-4.59267E-08-3.82150E-08
 -1       548-3.77804E+05 3.06453E+03-1.29240E+04 2.44664E+04-4.36496E-08-3.79482E-08
 -1       549-3.07898E+05-1.49471E+04-1.48650E+04-3.63287E+04-2.87805E-08-3.31111E-08
 -1       550-4.21369E+05 1.16011E+04-5.51475E+04 1.07881E+04 1.94586E-09-2.15041E-08
 -1       551 2.08369E+04-6.28554E+05 2.48339E+04-1.03071E+06-5.38785E-08 2.03727E-09
 -1       552 4.65752E+04-6.43236E+05 3.25444E+04-1.46843E+06-3.91883E-08 2.90092E-08
 -1       553 3.33908E+04-6.48811E+05 4.71685E+04-1.02671E+06-6.39266E-08 1.12268E-08
 -1       554 7.44051E+04-6.41180E+05 9.86155E+04-1.46995E+06-4.10946E-08 9.10018E-09
 -1       555 6.18849E+04-6.67720E+05 1.74756E+05-1.02766E+06-6.44868E-08-5.33691E-09
 -1       556 1.14517E+05-2.10244E+05 6.55259E+04-2.61342E+05-1.10595E-08 5.31145E-09
 -1       557 1.98652E+05-2.77943E+05 3.48344E+04-3.29310E+05-2.42289E-09 2.53203E-08
 -1       558 1.11535E+05-2.17441E+05 1.34429E+04-2.55151E+05-5.48607E-09 9.00764E-09
 -1       559 1.84524E+05-2.86046E+05 7.02489E+03-3.36596E+05 1.20490E-08-9.20954E-09
 -1       560 1.06966E+05-2.14497E+05 2.53416E+03-2.58230E+05 6.38829E-09 9.28594E-09
 -1       561 1.78134E+05-2.83955E+05 1.49508E+03-3.40723E+05-1.16415E-10 1.17279E-08
 -1       562 1.03352E+05-2.12162E+05 3.83224E+02-2.60825E+05 1.12050E-09-1.02773E-10
 -1       563 1.73892E+05-2.82114E+05 3.67076E+02-3.43447E+05 1.60071E-10 1.03743E-08
 -1       564 1.00974E+05-2.10655E+05 7.65742E+01-2.62506E+05 5.24597E-09-6.39420E-09
 -1       565 1.71445E+05-2.81054E+05 1.28057E+02-3.44997E+05 7.39237E-09-6.19184E-09
 -1       566 9.98860E+04-2.09956E+05 1.91469E+01-2.63273E+05-2.03545E-09-1.23528E-08
 -1       567 1.70752E+05-2.80739E+05-5.60453E+01-3.45348E+05 9.32778E-09-6.71207E-09
 -1       568 1.00134E+05-2.10123E+05-3.22249E+02-2.63185E+05 5.06589E-09 5.95537E-09
 -1       569 1.70976E+05-2.80632E+05-7.86935E+02-3.43723E+05 5.68434E-09 1.16124E-08
 -1       570 1.02407E+05-2.11998E+05-1.87684E+03-2.62868E+05 7.48696E-09-3.98904E-09
 -1       571 2.21273E+05 8.13227E+03 1.21180E+04-5.69494E+04-1.93359E-09-3.06954E-09
 -1       572 2.23084E+05 2.84636E+03 5.94241E+03-6.25689E+04 1.36242E-09 7.93534E-11
 -1       573 2.22001E+05 7.00826E+02 2.64132E+03-5.68149E+04 1.00817E-09-9.91895E-09
 -1       574 2.22207E+05 2.63831E+02 1.32463E+03-6.27228E+04 2.14186E-10 4.44970E-09
 -1       575 2.22080E+05 7.47337E+01 6.25405E+02-5.67972E+04 4.86352E-10-3.82806E-09
 -1       576 2.22091E+05 5.96117E+01 3.19339E+02-6.27431E+04-6.30394E-10 1.89448E-09
 -1       577 2.22096E+05 4.07384E+01 1.58877E+02-5.67949E+04-3.34921E-10 6.71844E-09
 -1       578 2.22087E+05 4.61496E+01 8.97187E+01-6.27457E+04-3.53111E-10 2.39197E-10
 -1       579 2.22117E+05 3.34807E+01 6.01046E+01-5.67948E+04 1.64800E-09 7.43603E-09
 -1       580 2.22117E+05 3.32338E+01 6.52342E+01-6.27425E+04-1.19235E-09 4.32010E-09
 -1       581 2.22152E+05 1.89815E+01 9.78274E+01-5.67981E+04 9.44056E-10 1.34150E-10
 -1       582 2.22181E+05 3.71588E+01 1.94002E+02-6.27071E+04-8.02174E-10-5.99493E-09
 -1       583 2.22192E+05 7.92999E+01 3.75801E+02-5.68301E+04 1.04046E-09 1.06256E-08
 -1       584 2.22370E+05 3.73980E+02 8.44952E+02-6.24364E+04 2.64390E-09 6.29552E-09
 -1       585 2.22146E+05 1.11020E+03 1.71567E+03-5.70693E+04 1.46065E-09 8.34916E-10
 -1       586-2.73782E+03 7.14746E+04-3.39325E+03-1.95629E+05-3.00133E-10 9.31652E-09
 -1       587-6.47810E+02 7.10496E+04-1.58662E+02-2.15322E+05-6.91216E-11-3.33193E-09
 -1       588 7.33297E+02 7.11036E+04 2.95016E+03-1.95533E+05 6.36646E-11 1.74896E-08
 -1       589 4.04197E+03 7.27126E+04 8.28894E+03-2.15101E+05-1.00772E-09 1.37243E-08
 -1       590 1.18880E+04 7.01744E+04 1.76372E+04-1.95861E+05-8.36735E-10 1.66710E-08
 -1       591-4.57184E+04-1.21797E+04-1.54768E+04-2.24611E+04 6.36760E-10 1.03946E-08
 -1       592-4.76327E+04-1.55170E+04-8.38308E+03-2.59692E+04 3.00133E-11-1.54967E-09
 -1       593-4.72764E+04-1.10463E+04-3.48979E+03-2.35860E+04 2.39845E-09-7.06905E-09
 -1       594-4.54832E+04-1.32597E+04-1.74052E+03-2.60671E+04 3.43653E-09 1.50597E-08
 -1       595-4.73956E+04-1.10417E+04-7.99643E+02-2.36375E+04 1.22662E-09 1.97489E-08
 -1       596-4.53371E+04-1.31564E+04-4.07294E+02-2.60511E+04 2.44894E-09 1.07553E-08
 -1       597-4.74106E+04-1.10518E+04-2.23480E+02-2.36394E+04-4.24461E-09 2.73207E-09
 -1       598-4.53229E+04-1.31525E+04-1.82766E+02-2.60466E+04 2.24054E-09-6.55461E-10
 -1       599-4.74095E+04-1.10520E+04-2.37353E+02-2.36391E+04 9.38371E-10-6.66296E-09
 -1       600-4.53380E+04-1.31576E+04-4.44031E+02-2.60502E+04 1.77243E-09-5.30122E-09
 -1       601-4.73909E+04-1.10416E+04-8.77610E+02-2.36361E+04-2.01021E-09-2.12617E-09
 -1       602-4.54983E+04-1.32708E+04-1.91349E+03-2.60653E+04 1.14323E-09 4.93401E-11
 -1       603-4.72580E+04-1.10488E+04-3.83781E+03-2.35798E+04-1.66369E-09-4.19595E-09
 -1       604-4.78722E+04-1.57417E+04-9.21901E+03-2.59427E+04 1.33105E-09 3.46427E-09
 -1       605-4.55318E+04-1.23055E+04-1.70201E+04-2.23540E+04 3.60842E-10 2.48292E-10
 -1       606 2.77407E+04-1.05349E+04-1.89457E+04 2.68005E+04-2.10366E-09-6.47742E-09
 -1       607 2.44978E+04-3.40964E+03-9.43400E+03 3.00892E+04-7.71252E-10-1.23518E-08
 -1       608 2.63374E+04-5.85930E+02-4.22463E+03 2.65897E+04 9.71340E-10-1.63709E-11
 -1       609 2.59730E+04-1.64263E+02-2.13373E+03 3.03251E+04-2.68483E-09 5.05611E-09
 -1       610 2.61677E+04 1.38523E+01-1.01911E+03 2.65659E+04-2.52658E-09 2.41516E-09
 -1       611 2.61005E+04 2.58257E+01-5.13838E+02 3.03509E+04-3.37559E-09 6.05746E-09
 -1       612 2.61227E+04 3.04320E+01-2.45497E+02 2.65636E+04-1.88629E-09-3.72847E-09
 -1       613 2.60984E+04 3.48448E+01-1.11126E+02 3.03539E+04-6.30644E-09-1.69889E-08
 -1       614 2.60981E+04 3.09920E+01-2.93233E+01 2.65628E+04-3.28873E-09 4.08454E-09
 -1       615 2.60860E+04 4.06260E+01 3.90589E+01 3.03543E+04 1.14824E-09-1.11609E-08
 -1       616 2.60793E+04 3.71441E+01 1.23980E+02 2.65631E+04-7.56245E-10-4.25575E-09
 -1       617 2.60945E+04 7.09639E+01 2.85769E+02 3.03538E+04 1.12686E-09-2.81716E-10
 -1       618 2.60497E+04 1.22533E+02 5.76949E+02 2.65632E+04 5.19321E-10 4.16071E-09
 -1       619 2.62944E+04 5.19537E+02 1.29631E+03 3.03530E+04 3.88684E-09 5.24324E-09
 -1       620 2.58556E+04 1.49293E+03 2.60566E+03 2.65621E+04 2.28295E-09 7.30824E-09
 -1       621 2.87788E+02 2.27774E+05 2.61376E+03 1.36624E+04-1.51203E-10 8.34552E-09
 -1       622 3.46053E+02 2.28415E+05 2.37683E+03 1.98947E+04 6.21867E-11 3.46631E-09
 -1       623 1.97379E+01 2.27932E+05 2.93914E+03 1.35968E+04 1.12948E-10 6.21503E-09
 -1       624 1.39242E+03 2.29364E+05 5.76111E+03 1.99617E+04 1.10049E-10 1.80792E-08
 -1       625 1.39934E+03 2.26803E+05 1.01000E+04 1.35950E+04 3.05135E-10 6.55086E-09
 -1       626 1.97522E+05 5.24988E+04 4.18297E+03 1.03635E+05-2.17688E-09-4.14911E-09
 -1       627 1.95125E+05 5.41430E+04 2.01575E+03 1.07686E+05 1.90630E-09-9.73159E-10
 -1       628 1.97655E+05 5.05481E+04 8.51596E+02 1.04299E+05 3.80169E-09 4.13502E-09
 -1       629 1.94553E+05 5.36350E+04 4.17117E+02 1.07926E+05 2.10412E-09 5.66990E-09
 -1       630 1.97663E+05 5.04563E+04 1.92749E+02 1.04320E+05 8.57654E-10-3.92305E-10
 -1       631 1.94486E+05 5.36210E+04 1.03178E+02 1.07926E+05-3.67891E-09 6.21004E-09
 -1       632 1.97653E+05 5.04632E+04 6.69333E+01 1.04312E+05-3.00179E-09-1.03861E-08
 -1       633 1.94472E+05 5.36261E+04 7.31379E+01 1.07919E+05-3.70846E-10-1.23882E-08
 -1       634 1.97644E+05 5.04639E+04 1.16859E+02 1.04308E+05 6.42035E-09 5.03860E-10
 -1       635 1.94478E+05 5.36273E+04 2.35875E+02 1.07919E+05 7.21002E-10-5.14160E-09
 -1       636 1.97632E+05 5.04623E+04 4.75910E+02 1.04305E+05-5.64523E-09-6.80302E-09
 -1       637 1.94576E+05 5.37025E+04 1.04580E+03 1.07915E+05-1.11140E-09-1.94336E-09
 -1       638 1.97593E+05 5.06947E+04 2.14896E+03 1.04198E+05-1.25056E-09-2.75259E-09
 -1       639 1.95703E+05 5.52727E+04 5.08389E+03 1.07581E+05 4.52701E-10 3.86990E-10
 -1       640 1.97442E+05 5.53759E+04 1.05501E+04 1.02215E+05 1.19176E-08 2.86677E-08
 -1       656 5.23929E+04-1.33041E+06-1.26475E+05-5.10579E+02 6.54836E-11-2.33479E-09
 -1       657-6.92612E+04-1.38751E+06-1.04658E+05 7.53514E+03 1.27056E-09-2.63741E-09
 -1       658 1.66458E+04-1.34667E+06-6.43050E+04-1.94392E+03 1.78261E-10 7.92248E-09
 -1       659-7.44849E+04-1.38998E+06-1.11519E+05 8.55366E+03-3.60160E-10 3.43632E-10
 -1       660 5.76045E+04-1.32794E+06-1.38274E+05-1.52908E+03-3.12866E-10 6.17027E-09
 -1       661 1.68528E+05 1.82167E+04 1.65291E+04 6.59048E+04 3.51974E-09-9.65520E-09
 -1       662 1.77347E+05 3.09744E+04 1.11382E+04 6.27950E+04 1.29415E-09-1.47290E-08
 -1       663 1.71772E+05 2.35220E+04 3.89606E+03 6.49662E+04 5.90830E-10 2.55227E-09
 -1       664 1.73592E+05 2.47665E+04 2.32969E+03 6.39383E+04 5.77387E-10 7.64118E-10
 -1       665 1.72260E+05 2.42503E+04 9.19006E+02 6.48273E+04-9.17964E-10-7.03997E-09
 -1       666 1.73017E+05 2.39308E+04 5.36458E+02 6.41177E+04-1.19047E-09 1.58895E-08
 -1       667 1.72343E+05 2.43358E+04 2.83428E+02 6.47949E+04-1.57846E-09 5.90039E-09
 -1       668 1.72927E+05 2.38655E+04 2.85332E+02 6.41646E+04 2.39163E-09-1.70077E-08
 -1       669 1.72349E+05 2.43136E+04 3.83441E+02 6.47809E+04 2.35316E-09 6.56883E-10
 -1       670 1.73022E+05 2.40708E+04 8.32303E+02 6.41660E+04 4.73811E-09 6.29986E-09
 -1       671 1.72248E+05 2.41346E+04 1.47691E+03 6.47919E+04-1.36171E-09-1.05200E-09
 -1       672 1.73882E+05 2.55077E+04 3.77794E+03 6.39582E+04-3.44979E-09 1.49229E-08
 -1       673 1.71493E+05 2.29128E+04 6.33095E+03 6.49749E+04-4.02940E-09 4.60386E-09
 -1       674 1.79910E+05 3.56771E+04 1.81051E+04 6.21861E+04 1.91739E-09 2.81398E-09
 -1       675 1.66260E+05 1.42496E+04 2.68739E+04 6.64568E+04 1.16324E-09-1.75896E-09
 -1       676 2.06247E+01-2.48475E+05-9.58030E+02 1.91119E+01 7.97172E-10-1.85011E-09
 -1       677-2.54406E+02-2.48706E+05-1.75332E+03-3.82009E+01-1.49194E-09-4.37161E-09
 -1       678 1.69836E+02-2.48310E+05-3.09942E+03 1.90759E+01-8.94261E-10 1.26358E-09
 -1       679-3.10028E+03-2.50577E+05-7.36276E+03-3.80628E+01-3.26793E-09 4.80562E-09
 -1       680 1.85026E+03-2.46605E+05-1.18663E+04 1.87575E+01-9.71340E-10 7.35927E-10
 -1       771-2.64199E+06-5.19779E+05-7.68282E+04-1.15660E+06-1.66183E-08-1.21508E-08
 -1       772-2.60762E+06-5.68869E+05-4.04954E+04-1.21231E+06-1.04192E-08 1.00554E-08
 -1       773-2.65503E+06-5.09483E+05-1.88341E+04-1.16124E+06-8.57108E-09 1.01427E-08
 -1       774-2.59879E+06-5.60748E+05-8.80025E+03-1.22111E+06 1.16488E-08 2.53021E-09
 -1       775-2.66008E+06-5.05925E+05-5.40070E+03-1.16248E+06-5.76256E-09-2.16460E-09
 -1       776-2.60077E+06-5.60582E+05-2.22578E+03-1.22697E+06-2.96131E-09 2.13913E-09
 -1       777-2.66414E+06-5.02928E+05-1.98815E+03-1.16354E+06 5.09317E-10 1.99725E-09
 -1       778-2.60322E+06-5.60564E+05-6.53361E+02-1.23193E+06-3.02680E-09 5.27143E-09
 -1       779-2.66753E+06-5.00371E+05-9.07704E+02-1.16445E+06-7.88714E-09-3.74166E-09
 -1       780-2.60542E+06-5.60500E+05-2.50451E+02-1.23594E+06-3.47791E-09-2.64663E-10
 -1       781-2.67015E+06-4.98339E+05-4.84397E+02-1.16517E+06-6.49743E-09 1.84718E-09
 -1       782-2.60713E+06-5.60418E+05-2.67796E+02-1.23889E+06-1.72586E-08-1.16711E-08
 -1       783-2.67195E+06-4.96962E+05-5.74078E+02-1.16567E+06-1.21145E-09-8.37122E-09
 -1       784-2.60847E+06-5.60625E+05-1.08492E+03-1.24067E+06-7.82529E-09-4.61569E-11
 -1       785-2.67266E+06-4.96408E+05-2.06223E+03-1.16579E+06-1.74423E-08 3.14139E-09
 -1       786 1.46968E+05-9.41084E+03 2.17719E+04-9.96524E+01 1.49616E-09-3.65526E-09
 -1       787 1.56406E+05 1.08948E+04 1.54030E+04 2.46982E+01 2.14269E-09-1.42063E-09
 -1       788 1.50608E+05-1.47520E+03 5.63417E+03-7.69962E+01 1.38933E-09 1.45496E-09
 -1       789 1.52165E+05 1.70679E+03 3.53872E+03-1.20931E+01 6.14673E-11-2.05108E-09
 -1       790 1.51209E+05-2.30296E+02 1.43693E+03-6.28645E+01-7.57336E-10-2.76657E-09
 -1       791 1.51463E+05 2.66731E+02 8.37959E+02-3.70708E+01-1.48658E-09 7.69575E-10
 -1       792 1.51310E+05-3.62259E+01 3.71178E+02-5.20186E+01-5.77415E-10 1.03492E-08
 -1       793 1.51346E+05 4.54376E+01 2.20307E+02-5.83998E+01-7.87334E-10 1.92685E-09
 -1       794 1.51326E+05-9.14432E+00 1.28136E+02-4.15353E+01 1.18427E-09-7.44685E-09
 -1       795 1.51338E+05 3.38535E+01 1.34689E+02-8.16193E+01-5.07498E-10 6.48754E-09
 -1       796 1.51318E+05-2.46453E+01 1.71110E+02-2.87986E+01 7.67542E-10-3.55540E-09
 -1       797 1.51407E+05 1.77655E+02 3.78123E+02-1.12483E+02 4.18754E-10-1.72277E-09
 -1       798 1.51256E+05-1.52842E+02 5.88672E+02-1.06706E+01 3.57632E-10 8.79169E-10
 -1       799 1.51847E+05 1.12816E+03 1.59757E+03-1.58659E+02 5.18236E-10-5.96503E-09
 -1       800 1.50879E+05-9.74391E+02 2.25451E+03 1.73774E+01 1.56535E-10-1.52818E-09
 -1       801 7.79656E+04-2.74872E+06-2.56532E+05 4.97025E+04 1.78261E-08-5.31190E-09
 -1       802-9.28956E+04-2.51006E+06-1.14765E+05-5.23350E+04 4.90963E-08-5.19981E-09
 -1       803 1.27648E+04-2.63102E+06-4.67750E+04 1.29088E+05 3.57031E-08 2.68226E-08
 -1       804 1.45367E+04-2.49701E+06 2.51809E+04-1.52869E+03 3.41861E-08 3.71861E-08
 -1       805-3.09257E+04-2.76142E+06 8.71951E+03-1.11094E+03 1.32059E-08 2.07222E-08
 -1       806-2.40507E+05-4.69982E+04-1.82420E+04-9.55921E+04-1.41927E-09-6.36646E-11
 -1       807-2.41974E+05-4.39889E+04-8.96204E+03-9.99740E+04 4.40718E-09 4.30919E-09
 -1       808-2.41001E+05-4.04312E+04-3.80191E+03-9.87101E+04-2.80124E-09 6.73049E-09
 -1       809-2.40088E+05-4.14739E+04-1.85896E+03-1.00199E+05-4.66821E-09-1.43882E-09
 -1       810-2.41077E+05-4.02017E+04-8.51698E+02-9.88484E+04-2.20552E-09-4.23734E-09
 -1       811-2.39943E+05-4.13727E+04-4.23157E+02-1.00173E+05 1.80739E-09-2.87673E-09
 -1       812-2.41090E+05-4.02203E+04-2.12947E+02-9.88483E+04-1.42882E-09-1.45310E-08
 -1       813-2.39924E+05-4.13744E+04-1.36938E+02-1.00160E+05 2.13913E-09-5.49892E-09
 -1       814-2.41087E+05-4.02271E+04-1.33049E+02-9.88456E+04-5.17048E-10-1.00886E-08
 -1       815-2.39928E+05-4.13760E+04-2.12394E+02-1.00156E+05-1.80034E-09 4.40423E-09
 -1       816-2.41073E+05-4.02254E+04-4.00883E+02-9.88434E+04 3.78714E-09 9.60063E-09
 -1       817-2.39997E+05-4.14141E+04-8.60329E+02-1.00149E+05 1.23046E-08 3.09205E-09
 -1       818-2.41023E+05-4.03455E+04-1.75414E+03-9.87865E+04 6.28552E-09-2.70802E-09
 -1       819-2.40959E+05-4.24732E+04-4.12816E+03-9.99228E+04-2.83035E-09-5.71526E-09
 -1       820-2.40697E+05-4.34598E+04-8.40182E+03-9.74499E+04-1.88993E-09 4.00621E-09
 -1       821-2.97997E+05 1.64915E+04-3.81399E+04 3.17154E+02 1.64163E-09 9.96442E-09
 -1       822-3.14520E+05-1.90916E+04-2.69888E+04-1.02256E+03-1.47426E-09 7.47286E-09
 -1       823-3.04372E+05 2.58591E+03-9.87791E+03 3.36275E+02-5.74443E-10 1.75805E-09
 -1       824-3.07075E+05-2.99253E+03-6.21380E+03-8.55072E+02-1.81840E-10 8.28095E-09
 -1       825-3.05439E+05 4.04421E+02-2.55700E+03 1.49665E+02-3.38964E-10-6.13966E-09
 -1       826-3.05826E+05-4.76483E+02-1.53740E+03-3.60683E+02-2.13105E-09-1.25912E-08
 -1       827-3.05619E+05 7.11396E+01-8.03614E+02-1.58122E+02-2.76046E-09-9.59093E-09
 -1       828-3.05660E+05-1.45462E+02-7.03772E+02 2.39276E+02-4.87648E-09-2.64516E-09
 -1       829-3.05605E+05 7.37057E+01-8.18766E+02-4.50304E+02 3.84976E-10-2.19814E-09
 -1       830-3.05868E+05-4.94014E+02-1.59537E+03 6.77835E+02 1.38245E-09-9.06994E-09
 -1       831-3.05412E+05 4.20032E+02-2.64594E+03-5.96689E+02-2.47787E-09-1.79523E-09
 -1       832-3.07145E+05-3.10370E+03-6.44793E+03 7.60113E+02-1.97392E-10-7.07996E-09
 -1       833-3.04329E+05 2.68166E+03-1.02485E+04-5.32583E+02-8.40348E-10 8.73479E-09
 -1       834-3.14828E+05-1.98042E+04-2.79944E+04 4.48841E+02-9.51669E-10 7.97399E-09
 -1       835-2.97731E+05 1.71072E+04-3.95733E+04-2.85403E+02 5.27246E-09 8.03084E-09
 -1       836-1.01099E+03 2.81554E+05 1.70626E+04-1.85666E+04 2.67391E-10 3.65662E-09
 -1       837 3.72551E+03 2.86855E+05 1.45946E+04-3.73228E+04 7.42148E-10 9.04515E-09
 -1       838-3.84031E+02 2.83020E+05 1.50888E+04-1.84976E+04 6.40739E-10 8.10837E-09
 -1       839 9.67056E+03 2.91285E+05 2.87582E+04-3.73584E+04 1.18189E-09-1.24470E-09
 -1       840-2.92758E+03 2.77081E+05 4.59513E+04-1.85299E+04 5.69344E-10 1.46940E-09
 -1       856-7.76239E+04 7.56682E+03-1.99410E+04-4.31536E+02-2.93943E-09 2.31466E-09
 -1       857-8.58576E+04-8.87663E+03-1.37284E+04 4.72048E+03-6.18428E-10 4.41764E-09
 -1       858-8.08780E+04 1.06029E+03-5.17500E+03-4.53421E+02-2.56443E-09 1.12400E-08
 -1       859-8.21214E+04-1.23414E+03-3.12482E+03 4.75507E+03-1.11812E-09 1.50196E-08
 -1       860-8.13643E+04 1.47546E+02-1.31281E+03-4.66223E+02-9.32204E-10-1.06646E-08
 -1       861-8.15615E+04-1.63899E+02-7.28926E+02 4.77261E+03-2.78304E-09-2.45049E-08
 -1       862-8.14401E+04 1.94888E+01-3.16501E+02-4.70983E+02 2.96298E-09-1.39281E-09
 -1       863-8.14710E+04-1.14324E+01-1.45932E+02 4.77487E+03 8.58281E-09 3.87994E-09
 -1       864-8.14551E+04-1.54023E+00-2.44534E+01-4.68487E+02 2.54863E-09-3.37067E-10
 -1       865-8.14375E+04 3.45589E+01 8.71898E+01 4.76206E+03 3.20358E-09 6.86285E-10
 -1       866-8.14719E+04-2.69039E+01 2.11070E+02-4.58169E+02-2.41889E-09-8.86062E-09
 -1       867-8.13285E+04 2.24397E+02 5.42400E+02 4.73400E+03 9.93282E-10-1.03215E-08
 -1       868-8.15604E+04-1.89065E+02 9.06614E+02-4.40432E+02 1.58781E-09-4.82351E-09
 -1       869-8.06565E+04 1.57139E+03 2.42270E+03 4.68750E+03-9.28253E-10 3.66060E-09
 -1       870-8.21382E+04-1.33894E+03 3.51444E+03-4.11672E+02-2.13504E-10-3.29305E-09
 -1       871-4.47842E+03-1.07014E+04-1.46945E+04 9.73127E+04 1.82081E-09 7.93716E-09
 -1       872-1.90139E+03-1.40135E+04-6.02744E+03 1.26165E+05 1.96087E-09-1.08002E-08
 -1       873 2.44432E+00-1.24627E+04 7.59826E+02 9.70995E+04 6.73026E-11-1.88970E-09
 -1       874 2.26790E+03-1.03901E+04 8.11050E+03 1.26204E+05 1.44246E-09 1.66067E-08
 -1       875 5.26962E+03-1.43872E+04 1.80509E+04 9.72788E+04 8.00355E-10 3.54339E-09
 -1       876 2.35387E+05 4.03342E+04 1.24222E+04 9.52413E+04 2.85149E-09 1.15688E-09
 -1       877 2.36131E+05 4.30269E+04 6.63379E+03 9.88777E+04-1.55728E-09-2.93198E-09
 -1       878 2.36547E+05 3.89598E+04 2.77924E+03 9.62616E+04 5.15911E-09 1.94859E-10
 -1       879 2.34442E+05 4.13432E+04 1.38459E+03 9.89642E+04 9.05709E-09-6.52790E-10
 -1       880 2.36631E+05 3.89449E+04 6.44722E+02 9.63032E+04 5.09704E-09 2.70296E-09
 -1       881 2.34330E+05 4.12715E+04 3.43720E+02 9.89460E+04 2.12606E-09 2.26675E-09
 -1       882 2.36639E+05 3.89553E+04 2.18916E+02 9.63044E+04 3.38810E-09 5.89987E-09
 -1       883 2.34321E+05 4.12680E+04 2.33762E+02 9.89405E+04-5.61613E-11 1.29959E-08
 -1       884 2.36634E+05 3.89528E+04 3.70425E+02 9.63045E+04-3.79043E-09-4.32721E-09
 -1       885 2.34351E+05 4.12733E+04 7.43864E+02 9.89497E+04-8.63631E-09-1.14460E-08
 -1       886 2.36605E+05 3.89311E+04 1.49880E+03 9.63016E+04 2.77475E-09 2.53181E-10
 -1       887 2.34614E+05 4.14460E+04 3.27380E+03 9.89878E+04 1.14099E-08 1.92949E-09
 -1       888 2.36399E+05 3.89674E+04 6.59676E+03 9.61967E+04 3.17576E-09-8.23411E-09
 -1       889 2.38544E+05 4.55279E+04 1.57589E+04 9.88645E+04-9.86923E-10-3.92015E-09
 -1       890 2.33711E+05 4.21602E+04 2.95155E+04 9.36802E+04 5.23346E-09 1.06593E-09
 -1       891-1.36132E+02-1.32808E+05-1.58772E+03 2.43983E+04-1.03250E-09 1.01911E-08
 -1       892-2.39181E+02-1.33193E+05-1.71946E+03 3.69366E+04-1.14596E-09 1.21627E-08
 -1       893-3.09999E+01-1.32857E+05-2.44934E+03 2.44035E+04-1.77101E-09 1.13178E-08
 -1       894-1.32170E+03-1.34126E+05-5.07985E+03 3.68041E+04 2.20552E-10 8.30369E-09
 -1       895-1.03632E+03-1.31798E+05-8.94988E+03 2.45294E+04-2.08502E-10-5.25870E-09
 -1       956-2.97832E+05-4.21763E+03-1.05963E+04 2.03826E+04-6.61203E-10-2.55250E-09
 -1       957-2.99924E+05-1.42885E+03-5.43958E+03 2.45458E+04-4.39013E-09 4.41287E-09
 -1       958-2.98775E+05-1.20140E+02-2.45078E+03 2.02570E+04-4.42469E-09 3.97904E-10
 -1       959-2.98941E+05-2.69542E+01-1.25178E+03 2.46833E+04-1.04758E-08-3.75530E-09
 -1       960-2.98860E+05 2.95119E+01-6.10304E+02 2.02448E+04-6.46742E-09-5.16934E-09
 -1       961-2.98870E+05 2.67342E+01-3.23829E+02 2.46973E+04-3.17232E-09 3.08864E-09
 -1       962-2.98878E+05 2.58799E+01-1.85467E+02 2.02429E+04-1.04205E-09-9.55652E-10
 -1       963-2.98868E+05 2.84372E+01-1.49058E+02 2.46998E+04-5.42832E-09 1.19412E-08
 -1       964-2.98882E+05 2.80905E+01-1.81219E+02 2.02423E+04 9.06596E-10 4.06362E-09
 -1       965-2.98879E+05 3.14777E+01-3.13380E+02 2.46997E+04 9.28307E-09-1.13378E-08
 -1       966-2.98872E+05 3.60737E+01-5.88469E+02 2.02430E+04 4.62910E-09-7.26288E-09
 -1       967-2.98955E+05-1.56613E+01-1.20702E+03 2.46912E+04 1.17188E-09-5.55815E-10
 -1       968-2.98796E+05-1.03854E+02-2.36229E+03 2.02509E+04 1.32695E-09-6.41009E-09
 -1       969-2.99911E+05-1.36342E+03-5.24489E+03 2.45999E+04 2.99315E-09-8.57909E-10
 -1       970-2.97893E+05-4.05197E+03-1.02162E+04 2.03358E+04 1.28284E-09 5.40149E-09
 -1       971-2.79764E+05-1.45394E+03-8.05036E+03 1.32791E+04-6.01267E-09-5.60760E-09
 -1       972-2.81719E+05-1.04531E+03-4.38415E+03 1.85279E+04-4.96220E-09-9.99535E-10
 -1       973-2.80660E+05-1.47489E+01-1.96328E+03 1.31687E+04-4.30055E-09-6.26392E-09
 -1       974-2.80794E+05-1.61364E+01-1.01718E+03 1.86479E+04-2.98496E-09 2.90572E-09
 -1       975-2.80730E+05 2.33251E+01-5.07611E+02 1.31584E+04-1.09139E-09-6.71696E-09
 -1       976-2.80739E+05 2.63659E+01-2.91319E+02 1.86606E+04-4.87307E-09-9.42748E-09
 -1       977-2.80743E+05 2.33928E+01-2.08700E+02 1.31559E+04 1.98793E-09 1.20019E-09
 -1       978-2.80743E+05 3.12868E+01-2.40489E+02 1.86641E+04 1.09677E-08 9.97193E-09
 -1       979-2.80743E+05 3.00355E+01-3.83184E+02 1.31549E+04 4.05566E-09 1.26929E-08
 -1       980-2.80771E+05 3.37022E+01-7.37869E+02 1.86647E+04 3.90222E-09 1.13259E-08
 -1       981-2.80720E+05 4.84200E+01-1.42803E+03 1.31553E+04-2.15471E-09 7.57325E-10
 -1       982-2.80967E+05-7.17565E+01-2.95112E+03 1.86590E+04-2.30773E-09-2.60381E-09
 -1       983-2.80540E+05-4.29405E+01-5.73373E+03 1.31607E+04 6.49084E-09-2.42721E-09
 -1       984-2.83724E+05-3.06616E+03-1.28400E+04 1.85839E+04 4.02724E-09-5.98448E-10
 -1       985-2.77944E+05-4.23853E+03-2.35783E+04 1.32344E+04 3.41061E-10 3.49974E-09
 -3
    1PSTEP                        15           8           1          
  100CL  108 5.74219E-01         409                     0    8           1
 -4  DISP        4    1
 -5  D1          1    2    1    0
 -5  D2          1    2    2    0
 -5  D3          1    2    3    0
 -5  ALL         1    2    0    0    1ALL
 -1         1 5.34394E-04 0.00000E+00 0.00000E+00
 -1         2 4.92514E-04 1.27092E-29 0.00000E+00
 -1         3 2.15271E-04 9.16450E-28 0.00000E+00
 -1         5 1.29587E-04 3.41401E-26 0.00000E+00
 -1         8 5.11676E-04-7.41879E-07 0.00000E+00
 -1         9 4.93281E-04-1.81995E-06 0.00000E+00
 -1        10 1.96777E-04-2.81420E-06 6.61744E-24
 -1        12 1.29751E-04 6.38074E-07 1.65436E-24
 -1        15 4.84441E-04-8.22383E-07 0.00000E+00
 -1        16 4.90688E-04-2.26330E-06 0.00000E+00
 -1        17 1.38863E-04-6.08547E-06 0.00000E+00
 -1        18 1.28942E-04 1.10650E-05 0.00000E+00
 -1        19 1.30245E-04 1.27294E-06 0.00000E+00
 -1        20 1.30391E-04 8.47057E-06 0.00000E+00
 -1        21 1.29723E-04 1.36412E-05 0.00000E+00
 -1        24 2.47575E-05-8.58595E-06 0.00000E+00
 -1        25 1.31316E-04 1.12191E-05 0.00000E+00
 -1        26 1.32048E-04 1.76577E-06 0.00000E+00
 -1        27 1.30292E-04 5.56517E-06 0.00000E+00
 -1        28 1.29870E-04 1.31070E-05 0.00000E+00
 -1        32 0.00000E+00 0.00000E+00 0.00000E+00
 -1        33 1.32755E-04 2.36805E-06 0.00000E+00
 -1        34 1.31012E-04 5.53462E-06 0.00000E+00
 -1        35 1.29387E-04 1.28204E-05 0.00000E+00
 -1        51 5.32926E-04-1.27586E-07 0.00000E+00
 -1        52 5.30196E-04-2.46196E-07 0.00000E+00
 -1        53 5.26451E-04-3.64904E-07 0.00000E+00
 -1        54 5.21946E-04-4.85565E-07 0.00000E+00
 -1        55 5.16935E-04-6.09312E-07 4.13590E-25
 -1        56 5.32141E-04-7.16933E-07 0.00000E+00
 -1        57 5.29719E-04-1.22872E-06 0.00000E+00
 -1        58 5.27210E-04-1.49703E-06 0.00000E+00
 -1        59 5.24599E-04-1.53576E-06 0.00000E+00
 -1        60 5.21911E-04-1.37185E-06-5.29396E-23
 -1        61 5.19161E-04-1.04893E-06 0.00000E+00
 -1        62 5.16373E-04-6.26740E-07-5.29396E-23
 -1        63 5.13572E-04-1.71167E-07 0.00000E+00
 -1        64 5.10785E-04 2.48612E-07-5.29396E-23
 -1        65 5.08036E-04 5.65337E-07 0.00000E+00
 -1        66 5.05348E-04 7.22758E-07 0.00000E+00
 -1        67 5.02740E-04 6.73824E-07-2.64698E-23
 -1        68 5.00219E-04 3.92611E-07 0.00000E+00
 -1        69 4.97803E-04-1.29457E-07 0.00000E+00
 -1        70 4.95469E-04-8.84750E-07 5.29396E-23
 -1        86 4.92541E-04-2.99559E-07-1.32349E-23
 -1        87 4.92621E-04-5.99538E-07 0.00000E+00
 -1        88 4.92746E-04-8.99586E-07 0.00000E+00
 -1        89 4.92907E-04-1.20228E-06 6.61744E-24
 -1        90 4.93090E-04-1.50408E-06 0.00000E+00
 -1       121 2.14752E-04-4.62969E-07 1.32349E-23
 -1       122 2.13199E-04-9.26976E-07 0.00000E+00
 -1       123 2.10615E-04-1.39304E-06 0.00000E+00
 -1       124 2.07009E-04-1.86225E-06-6.61744E-24
 -1       125 2.02391E-04-2.33541E-06 0.00000E+00
 -1       191 1.29592E-04 1.06350E-07 0.00000E+00
 -1       192 1.29605E-04 2.12698E-07-1.65436E-24
 -1       193 1.29628E-04 3.19047E-07 3.30872E-24
 -1       194 1.29660E-04 4.25394E-07 1.65436E-24
 -1       195 1.29701E-04 5.31737E-07-3.30872E-24
 -1       251 5.11031E-04 1.25684E-05 0.00000E+00
 -1       252 5.10013E-04 4.31571E-05 0.00000E+00
 -1       253 5.08592E-04 8.55950E-05 1.32349E-23
 -1       254 5.06899E-04 1.34180E-04-6.61744E-24
 -1       255 5.05261E-04 1.81559E-04 0.00000E+00
 -1       256 5.03976E-04 2.20409E-04 6.61744E-24
 -1       257 5.03096E-04 2.45691E-04 1.32349E-23
 -1       258 5.02500E-04 2.52680E-04 0.00000E+00
 -1       259 5.01868E-04 2.41477E-04-1.32349E-23
 -1       260 5.00896E-04 2.12609E-04-6.61744E-24
 -1       261 4.99516E-04 1.71270E-04 1.32349E-23
 -1       262 4.97834E-04 1.22940E-04 0.00000E+00
 -1       263 4.96169E-04 7.49746E-05 0.00000E+00
 -1       264 4.94830E-04 3.47258E-05 0.00000E+00
 -1       265 4.93901E-04 7.46752E-06 0.00000E+00
 -1       266 5.07137E-04-7.65867E-07 0.00000E+00
 -1       267 5.02598E-04-7.77996E-07 8.27181E-25
 -1       268 4.98058E-04-7.90876E-07 0.00000E+00
 -1       269 4.93519E-04-8.01531E-07-2.06795E-25
 -1       270 4.88980E-04-8.12134E-07 0.00000E+00
 -1       271 5.08952E-04 3.02426E-06 2.64698E-23
 -1       272 5.06446E-04 6.09995E-06 0.00000E+00
 -1       273 5.04196E-04 8.50539E-06 0.00000E+00
 -1       274 5.02188E-04 1.02537E-05 1.32349E-23
 -1       275 5.00416E-04 1.13727E-05 0.00000E+00
 -1       276 4.98866E-04 1.18976E-05 0.00000E+00
 -1       277 4.97523E-04 1.18735E-05 0.00000E+00
 -1       278 4.96366E-04 1.13531E-05 0.00000E+00
 -1       279 4.95372E-04 1.03972E-05 2.64698E-23
 -1       280 4.94516E-04 9.07307E-06 0.00000E+00
 -1       281 4.93770E-04 7.45355E-06 0.00000E+00
 -1       282 4.93107E-04 5.61610E-06 0.00000E+00
 -1       283 4.92495E-04 3.64144E-06-2.64698E-23
 -1       284 4.91907E-04 1.61363E-06 1.32349E-23
 -1       285 4.91307E-04-3.85305E-07 2.64698E-23
 -1       301 4.92850E-04-1.91115E-06-1.32349E-23
 -1       302 4.92031E-04-1.97715E-06-3.30872E-24
 -1       303 4.91113E-04-2.04160E-06-6.61744E-24
 -1       304 4.90389E-04-2.10596E-06 0.00000E+00
 -1       305 4.90152E-04-2.17190E-06-1.32349E-23
 -1       306 5.07681E-04-5.30092E-05 0.00000E+00
 -1       307 5.48540E-04-2.01451E-04 0.00000E+00
 -1       308 6.03633E-04-4.22599E-04 5.29396E-23
 -1       309 6.64298E-04-6.84664E-04 0.00000E+00
 -1       310 7.24756E-04-9.45128E-04-1.05879E-22
 -1       311 7.79087E-04-1.16161E-03 2.64698E-23
 -1       312 8.18352E-04-1.30324E-03 0.00000E+00
 -1       313 8.30134E-04-1.34661E-03 0.00000E+00
 -1       314 8.03818E-04-1.29067E-03 0.00000E+00
 -1       315 7.32315E-04-1.14353E-03 5.29396E-23
 -1       316 6.22187E-04-9.31009E-04-1.05879E-22
 -1       317 4.87563E-04-6.82177E-04 0.00000E+00
 -1       318 3.52377E-04-4.32531E-04 0.00000E+00
 -1       319 2.40697E-04-2.17574E-04 2.64698E-23
 -1       320 1.67149E-04-6.66632E-05 0.00000E+00
 -1       336 1.90054E-04-3.33615E-06 1.32349E-23
 -1       337 1.82114E-04-3.86729E-06 0.00000E+00
 -1       338 1.72986E-04-4.40792E-06-1.32349E-23
 -1       339 1.62707E-04-4.95811E-06 0.00000E+00
 -1       340 1.51318E-04-5.51995E-06 0.00000E+00
 -1       406 1.29811E-04 7.44398E-07 0.00000E+00
 -1       407 1.29879E-04 8.50689E-07-1.65436E-24
 -1       408 1.29957E-04 9.56917E-07 0.00000E+00
 -1       409 1.30044E-04 1.06296E-06 1.65436E-24
 -1       410 1.30140E-04 1.16861E-06 0.00000E+00
 -1       521 5.07079E-04-6.24950E-05 0.00000E+00
 -1       522 5.52037E-04-2.34105E-04-5.29396E-23
 -1       523 6.11237E-04-4.89359E-04-1.05879E-22
 -1       524 6.75215E-04-7.91088E-04-5.29396E-23
 -1       525 7.38970E-04-1.09047E-03 0.00000E+00
 -1       526 7.97261E-04-1.33892E-03-5.29396E-23
 -1       527 8.40093E-04-1.50057E-03 0.00000E+00
 -1       528 8.52751E-04-1.54940E-03 0.00000E+00
 -1       529 8.21241E-04-1.48393E-03 0.00000E+00
 -1       530 7.36345E-04-1.31494E-03-5.29396E-23
 -1       531 6.04864E-04-1.07177E-03 0.00000E+00
 -1       532 4.43689E-04-7.87837E-04 0.00000E+00
 -1       533 2.81602E-04-5.02683E-04 1.05879E-22
 -1       534 1.47611E-04-2.55858E-04 0.00000E+00
 -1       535 5.94181E-05-8.11565E-05 0.00000E+00
 -1       536 1.38527E-04 1.37250E-05 6.61744E-24
 -1       537 1.37850E-04 4.71426E-05 0.00000E+00
 -1       538 1.36875E-04 8.90106E-05 3.30872E-24
 -1       539 1.35765E-04 1.34127E-04-1.65436E-24
 -1       540 1.34772E-04 1.76383E-04 0.00000E+00
 -1       541 1.34105E-04 2.09686E-04-1.65436E-24
 -1       542 1.33757E-04 2.30373E-04 0.00000E+00
 -1       543 1.33605E-04 2.34857E-04 0.00000E+00
 -1       544 1.33405E-04 2.23733E-04 0.00000E+00
 -1       545 1.32938E-04 1.97695E-04 1.65436E-24
 -1       546 1.32171E-04 1.61331E-04 0.00000E+00
 -1       547 1.31190E-04 1.19290E-04 0.00000E+00
 -1       548 1.30230E-04 7.77788E-05 0.00000E+00
 -1       549 1.29518E-04 4.30061E-05 0.00000E+00
 -1       550 1.29109E-04 1.93359E-05 1.65436E-24
 -1       551 1.23373E-04-6.44225E-06-6.61744E-24
 -1       552 1.05391E-04-6.83311E-06 0.00000E+00
 -1       553 8.57217E-05-7.25249E-06 1.32349E-23
 -1       554 6.51821E-05-7.69013E-06-6.61744E-24
 -1       555 4.45899E-05-8.13146E-06 0.00000E+00
 -1       556 1.34464E-04 5.25470E-06 0.00000E+00
 -1       557 1.30994E-04 1.42288E-05 0.00000E+00
 -1       558 1.28357E-04 2.10363E-05 0.00000E+00
 -1       559 1.26467E-04 2.58930E-05 0.00000E+00
 -1       560 1.25237E-04 2.90147E-05 2.64698E-23
 -1       561 1.24580E-04 3.06185E-05 0.00000E+00
 -1       562 1.24413E-04 3.09222E-05 0.00000E+00
 -1       563 1.24653E-04 3.01440E-05 0.00000E+00
 -1       564 1.25216E-04 2.85022E-05 1.32349E-23
 -1       565 1.26019E-04 2.62157E-05 0.00000E+00
 -1       566 1.26981E-04 2.35035E-05 0.00000E+00
 -1       567 1.28020E-04 2.05846E-05 8.27181E-25
 -1       568 1.29055E-04 1.76782E-05-1.65436E-24
 -1       569 1.30003E-04 1.50031E-05 0.00000E+00
 -1       570 1.30783E-04 1.27785E-05 0.00000E+00
 -1       571 1.29021E-04 1.04400E-05 8.27181E-25
 -1       572 1.29101E-04 9.76613E-06-4.13590E-25
 -1       573 1.29183E-04 9.05385E-06 1.65436E-24
 -1       574 1.29264E-04 8.31400E-06-8.27181E-25
 -1       575 1.29346E-04 7.55751E-06 3.30872E-24
 -1       576 1.29427E-04 6.79533E-06 1.65436E-24
 -1       577 1.29509E-04 6.03843E-06-3.30872E-24
 -1       578 1.29591E-04 5.29780E-06 1.65436E-24
 -1       579 1.29673E-04 4.58441E-06-3.30872E-24
 -1       580 1.29754E-04 3.90924E-06-6.61744E-24
 -1       581 1.29836E-04 3.28329E-06 0.00000E+00
 -1       582 1.29918E-04 2.71750E-06 0.00000E+00
 -1       583 1.30000E-04 2.22285E-06 0.00000E+00
 -1       584 1.30081E-04 1.81018E-06 0.00000E+00
 -1       585 1.30163E-04 1.49025E-06 0.00000E+00
 -1       586 1.29282E-04 1.10925E-05 0.00000E+00
 -1       587 1.29598E-04 1.11193E-05-3.61892E-25
 -1       588 1.29923E-04 1.11457E-05 0.00000E+00
 -1       589 1.30294E-04 1.11717E-05 0.00000E+00
 -1       590 1.30747E-04 1.11968E-05 0.00000E+00
 -1       591 1.29135E-04 1.04947E-05 0.00000E+00
 -1       592 1.29335E-04 9.89761E-06 0.00000E+00
 -1       593 1.29543E-04 9.27994E-06-4.13590E-25
 -1       594 1.29756E-04 8.64687E-06-4.13590E-25
 -1       595 1.29972E-04 8.00373E-06 8.27181E-25
 -1       596 1.30191E-04 7.35575E-06 4.13590E-25
 -1       597 1.30409E-04 6.70820E-06-8.27181E-25
 -1       598 1.30625E-04 6.06631E-06 0.00000E+00
 -1       599 1.30837E-04 5.43534E-06 0.00000E+00
 -1       600 1.31044E-04 4.82052E-06 0.00000E+00
 -1       601 1.31242E-04 4.22710E-06-4.13590E-25
 -1       602 1.31430E-04 3.66032E-06 1.03398E-25
 -1       603 1.31606E-04 3.12545E-06 1.03398E-25
 -1       604 1.31769E-04 2.62778E-06 1.03398E-25
 -1       605 1.31916E-04 2.17253E-06 0.00000E+00
 -1       606 1.30258E-04 1.23492E-06 0.00000E+00
 -1       607 1.30268E-04 1.29062E-06 0.00000E+00
 -1       608 1.30277E-04 1.43453E-06 0.00000E+00
 -1       609 1.30287E-04 1.66046E-06-1.65436E-24
 -1       610 1.30296E-04 1.96215E-06 0.00000E+00
 -1       611 1.30304E-04 2.33329E-06 0.00000E+00
 -1       612 1.30313E-04 2.76755E-06 0.00000E+00
 -1       613 1.30322E-04 3.25859E-06 0.00000E+00
 -1       614 1.30331E-04 3.80007E-06 0.00000E+00
 -1       615 1.30340E-04 4.38566E-06-8.27181E-25
 -1       616 1.30349E-04 5.00902E-06 0.00000E+00
 -1       617 1.30357E-04 5.66381E-06 0.00000E+00
 -1       618 1.30366E-04 6.34369E-06 0.00000E+00
 -1       619 1.30375E-04 7.04234E-06 0.00000E+00
 -1       620 1.30383E-04 7.75341E-06 0.00000E+00
 -1       621 1.30412E-04 1.35528E-06-1.65436E-24
 -1       622 1.30652E-04 1.43790E-06 1.65436E-24
 -1       623 1.30951E-04 1.52047E-06 0.00000E+00
 -1       624 1.31293E-04 1.60289E-06 0.00000E+00
 -1       625 1.31664E-04 1.68514E-06 0.00000E+00
 -1       626 1.30351E-04 1.26365E-06-3.30872E-24
 -1       627 1.30430E-04 1.32925E-06-1.65436E-24
 -1       628 1.30484E-04 1.46200E-06 3.30872E-24
 -1       629 1.30516E-04 1.65373E-06 0.00000E+00
 -1       630 1.30529E-04 1.89625E-06 0.00000E+00
 -1       631 1.30526E-04 2.18134E-06-1.65436E-24
 -1       632 1.30510E-04 2.50079E-06 3.30872E-24
 -1       633 1.30484E-04 2.84637E-06-3.30872E-24
 -1       634 1.30452E-04 3.20986E-06-3.30872E-24
 -1       635 1.30416E-04 3.58305E-06-1.65436E-24
 -1       636 1.30379E-04 3.95771E-06 0.00000E+00
 -1       637 1.30345E-04 4.32562E-06-8.27181E-25
 -1       638 1.30316E-04 4.67857E-06-1.65436E-24
 -1       639 1.30296E-04 5.00831E-06 8.27181E-25
 -1       640 1.30288E-04 5.30662E-06-1.65436E-24
 -1       656 1.29894E-04 7.99793E-06 0.00000E+00
 -1       657 1.29785E-04 7.50636E-06 6.61744E-24
 -1       658 1.29924E-04 7.01622E-06 0.00000E+00
 -1       659 1.30167E-04 6.52646E-06 0.00000E+00
 -1       660 1.30346E-04 6.03517E-06 6.61744E-24
 -1       661 1.30208E-04 9.15402E-06-8.27181E-25
 -1       662 1.30054E-04 9.76866E-06 0.00000E+00
 -1       663 1.29924E-04 1.03175E-05 0.00000E+00
 -1       664 1.29818E-04 1.08047E-05 8.27181E-25
 -1       665 1.29734E-04 1.12340E-05 0.00000E+00
 -1       666 1.29670E-04 1.16092E-05 0.00000E+00
 -1       667 1.29626E-04 1.19336E-05-1.65436E-24
 -1       668 1.29599E-04 1.22109E-05 8.27181E-25
 -1       669 1.29588E-04 1.24444E-05-1.65436E-24
 -1       670 1.29593E-04 1.26371E-05 8.27181E-25
 -1       671 1.29612E-04 1.27924E-05 0.00000E+00
 -1       672 1.29643E-04 1.29131E-05 0.00000E+00
 -1       673 1.29686E-04 1.30023E-05 0.00000E+00
 -1       674 1.29740E-04 1.30626E-05 0.00000E+00
 -1       675 1.29803E-04 1.30972E-05 0.00000E+00
 -1       676 1.29747E-04 1.35517E-05 3.30872E-24
 -1       677 1.29772E-04 1.34621E-05 0.00000E+00
 -1       678 1.29796E-04 1.33727E-05 0.00000E+00
 -1       679 1.29821E-04 1.32835E-05-1.65436E-24
 -1       680 1.29846E-04 1.31943E-05-1.65436E-24
 -1       771 1.72942E-05 7.45187E-06 0.00000E+00
 -1       772 1.09430E-05 2.06123E-05 0.00000E+00
 -1       773 5.65182E-06 3.10426E-05 5.29396E-23
 -1       774 1.34968E-06 3.89054E-05-2.64698E-23
 -1       775-2.03349E-06 4.43683E-05 0.00000E+00
 -1       776-4.57062E-06 4.76072E-05 0.00000E+00
 -1       777-6.33508E-06 4.88032E-05 5.29396E-23
 -1       778-7.40190E-06 4.81438E-05 0.00000E+00
 -1       779-7.84628E-06 4.58211E-05 0.00000E+00
 -1       780-7.74480E-06 4.20327E-05 0.00000E+00
 -1       781-7.17396E-06 3.69792E-05 0.00000E+00
 -1       782-6.21134E-06 3.08659E-05 0.00000E+00
 -1       783-4.93441E-06 2.39002E-05 0.00000E+00
 -1       784-3.42141E-06 1.62925E-05 0.00000E+00
 -1       785-1.75035E-06 8.25475E-06-2.64698E-23
 -1       786 1.31358E-04 1.04246E-05 1.03398E-25
 -1       787 1.31403E-04 9.67506E-06-4.13590E-25
 -1       788 1.31448E-04 8.96289E-06 0.00000E+00
 -1       789 1.31494E-04 8.28066E-06 0.00000E+00
 -1       790 1.31540E-04 7.62406E-06-1.65436E-24
 -1       791 1.31586E-04 6.98882E-06 0.00000E+00
 -1       792 1.31632E-04 6.37298E-06-1.65436E-24
 -1       793 1.31679E-04 5.77457E-06-8.27181E-25
 -1       794 1.31725E-04 5.19349E-06 0.00000E+00
 -1       795 1.31771E-04 4.62967E-06 8.27181E-25
 -1       796 1.31817E-04 4.08488E-06 1.65436E-24
 -1       797 1.31863E-04 3.56089E-06 8.27181E-25
 -1       798 1.31910E-04 3.06171E-06 0.00000E+00
 -1       799 1.31956E-04 2.59139E-06-8.27181E-25
 -1       800 1.32002E-04 2.15702E-06 1.65436E-24
 -1       801 1.13659E-04 9.73966E-06-2.64698E-23
 -1       802 5.93864E-05 6.95353E-06 1.32349E-23
 -1       803 5.50361E-06 4.18650E-06 2.64698E-23
 -1       804-1.09789E-05 2.67088E-06-1.32349E-23
 -1       805-6.80812E-06 1.34316E-06 0.00000E+00
 -1       806 1.31520E-04 1.03706E-05 0.00000E+00
 -1       807 1.31712E-04 9.54815E-06-8.27181E-25
 -1       808 1.31891E-04 8.75537E-06 1.65436E-24
 -1       809 1.32058E-04 7.99504E-06 8.27181E-25
 -1       810 1.32212E-04 7.26989E-06-1.65436E-24
 -1       811 1.32352E-04 6.58256E-06-8.27181E-25
 -1       812 1.32476E-04 5.93571E-06 0.00000E+00
 -1       813 1.32585E-04 5.33197E-06 8.27181E-25
 -1       814 1.32676E-04 4.77397E-06 3.30872E-24
 -1       815 1.32749E-04 4.26432E-06 8.27181E-25
 -1       816 1.32803E-04 3.80565E-06 3.30872E-24
 -1       817 1.32837E-04 3.40056E-06-8.27181E-25
 -1       818 1.32850E-04 3.05167E-06-1.65436E-24
 -1       819 1.32841E-04 2.76158E-06 0.00000E+00
 -1       820 1.32809E-04 2.53286E-06-3.30872E-24
 -1       821 1.31945E-04 1.33284E-06-8.27181E-25
 -1       822 1.31835E-04 7.75039E-07-8.27181E-25
 -1       823 1.31725E-04 1.86744E-07-3.30872E-24
 -1       824 1.31614E-04-3.37522E-07 1.65436E-24
 -1       825 1.31504E-04-7.17808E-07-3.30872E-24
 -1       826 1.31393E-04-8.74862E-07 0.00000E+00
 -1       827 1.31282E-04-7.80004E-07-3.30872E-24
 -1       828 1.31171E-04-4.05804E-07-1.65436E-24
 -1       829 1.31059E-04 2.11889E-07 0.00000E+00
 -1       830 1.30948E-04 1.03602E-06-1.65436E-24
 -1       831 1.30837E-04 1.98279E-06 0.00000E+00
 -1       832 1.30726E-04 2.96776E-06 1.65436E-24
 -1       833 1.30615E-04 3.89785E-06 0.00000E+00
 -1       834 1.30505E-04 4.68024E-06 8.27181E-25
 -1       835 1.30395E-04 5.25549E-06 0.00000E+00
 -1       836 1.32335E-04 1.86597E-06 0.00000E+00
 -1       837 1.32513E-04 1.96846E-06 4.96308E-24
 -1       838 1.32613E-04 2.07080E-06 0.00000E+00
 -1       839 1.32666E-04 2.17250E-06 0.00000E+00
 -1       840 1.32703E-04 2.27402E-06 4.13590E-25
 -1       856 1.30269E-04 5.80474E-06 0.00000E+00
 -1       857 1.30243E-04 6.16205E-06 0.00000E+00
 -1       858 1.30217E-04 6.61864E-06-4.13590E-25
 -1       859 1.30191E-04 7.15602E-06-4.13590E-25
 -1       860 1.30164E-04 7.75557E-06-8.27181E-25
 -1       861 1.30138E-04 8.39860E-06 4.13590E-25
 -1       862 1.30111E-04 9.06643E-06-8.27181E-25
 -1       863 1.30084E-04 9.74030E-06 0.00000E+00
 -1       864 1.30058E-04 1.04015E-05 0.00000E+00
 -1       865 1.30031E-04 1.10312E-05 4.13590E-25
 -1       866 1.30004E-04 1.16108E-05 0.00000E+00
 -1       867 1.29977E-04 1.21217E-05 4.13590E-25
 -1       868 1.29951E-04 1.25451E-05 0.00000E+00
 -1       869 1.29924E-04 1.28628E-05 4.13590E-25
 -1       870 1.29897E-04 1.30561E-05-8.27181E-25
 -1       871 1.30288E-04 5.56354E-06 4.13590E-25
 -1       872 1.30405E-04 5.55933E-06 0.00000E+00
 -1       873 1.30590E-04 5.55464E-06 4.13590E-25
 -1       874 1.30789E-04 5.54934E-06 0.00000E+00
 -1       875 1.30948E-04 5.54351E-06-4.13590E-25
 -1       876 1.30309E-04 5.81605E-06 0.00000E+00
 -1       877 1.30307E-04 6.12430E-06 1.65436E-24
 -1       878 1.30287E-04 6.48299E-06 0.00000E+00
 -1       879 1.30250E-04 6.88572E-06 0.00000E+00
 -1       880 1.30199E-04 7.32606E-06-3.30872E-24
 -1       881 1.30137E-04 7.79758E-06 1.65436E-24
 -1       882 1.30065E-04 8.29389E-06-3.30872E-24
 -1       883 1.29986E-04 8.80861E-06 0.00000E+00
 -1       884 1.29903E-04 9.33535E-06 0.00000E+00
 -1       885 1.29818E-04 9.86774E-06 1.65436E-24
 -1       886 1.29733E-04 1.03994E-05 0.00000E+00
 -1       887 1.29650E-04 1.09239E-05-1.65436E-24
 -1       888 1.29573E-04 1.14349E-05 3.30872E-24
 -1       889 1.29502E-04 1.19258E-05 0.00000E+00
 -1       890 1.29441E-04 1.23903E-05 1.65436E-24
 -1       891 1.29916E-04 1.30590E-05 0.00000E+00
 -1       892 1.29941E-04 1.30109E-05 8.27181E-25
 -1       893 1.29924E-04 1.29627E-05 0.00000E+00
 -1       894 1.29841E-04 1.29147E-05-4.13590E-25
 -1       895 1.29669E-04 1.28669E-05 4.13590E-25
 -1       956 1.32648E-04 2.33646E-06-1.65436E-24
 -1       957 1.32539E-04 2.37340E-06 8.27181E-25
 -1       958 1.32430E-04 2.47114E-06-1.65436E-24
 -1       959 1.32321E-04 2.62152E-06 0.00000E+00
 -1       960 1.32212E-04 2.81632E-06-3.30872E-24
 -1       961 1.32102E-04 3.04732E-06 0.00000E+00
 -1       962 1.31993E-04 3.30628E-06 0.00000E+00
 -1       963 1.31884E-04 3.58494E-06-1.65436E-24
 -1       964 1.31774E-04 3.87507E-06-3.30872E-24
 -1       965 1.31665E-04 4.16841E-06 1.65436E-24
 -1       966 1.31556E-04 4.45671E-06 0.00000E+00
 -1       967 1.31446E-04 4.73172E-06-1.65436E-24
 -1       968 1.31337E-04 4.98520E-06 0.00000E+00
 -1       969 1.31228E-04 5.20893E-06 1.65436E-24
 -1       970 1.31119E-04 5.39470E-06 3.30872E-24
 -1       971 1.30912E-04 5.68831E-06-3.30872E-24
 -1       972 1.30810E-04 5.92799E-06-1.65436E-24
 -1       973 1.30708E-04 6.24418E-06-1.65436E-24
 -1       974 1.30606E-04 6.62703E-06 1.65436E-24
 -1       975 1.30504E-04 7.06668E-06 0.00000E+00
 -1       976 1.30401E-04 7.55323E-06 1.65436E-24
 -1       977 1.30299E-04 8.07681E-06 0.00000E+00
 -1       978 1.30197E-04 8.62749E-06 1.65436E-24
 -1       979 1.30095E-04 9.19539E-06 3.30872E-24
 -1       980 1.29993E-04 9.77058E-06 0.00000E+00
 -1       981 1.29890E-04 1.03432E-05 3.30872E-24
 -1       982 1.29788E-04 1.09032E-05-1.65436E-24
 -1       983 1.29686E-04 1.14408E-05 0.00000E+00
 -1       984 1.29585E-04 1.19461E-05 0.00000E+00
 -1       985 1.29484E-04 1.24092E-05 1.65436E-24
 -3
    1PSTEP                        16           8           1          
  100CL  108 5.74219E-01         409                     0    8           1
 -4  STRESS      6    1
 -5  SXX         1    4    1    1
 -5  SYY         1    4    2    2
 -5  SZZ         1    4    3    3
 -5  SXY         1    4    1    2
 -5  SYZ         1    4    2    3
 -5  SZX         1    4    3    1
 -1         1-2.96881E+06-1.19271E+06-6.41292E+05-1.37545E+06 4.00178E-10-2.16241E-08
 -1         2 2.07723E+03-8.54113E+05 6.70656E+03 1.95262E+02-7.75913E-12-3.54869E-09
 -1         3-4.84647E+02-1.31984E+06 3.16870E+02-1.07993E+03-3.85473E-10 9.63701E-09
 -1         5-1.38545E+00 3.04296E+05 7.64926E+00-7.19262E-02-7.53349E-11 2.48867E-08
 -1         8-1.01833E+06-3.53118E+05-1.07559E+05-4.44782E+05 6.65750E-10 2.44872E-08
 -1         9-5.07215E+05-8.13437E+05 6.08885E+03-8.37414E+05 1.29221E-08 1.07102E-09
 -1        10-1.33797E+03-1.37511E+06-2.33530E+03-7.30464E+03-7.19137E-09-1.07568E-08
 -1        12 1.75404E+00 3.04311E+05 2.47630E+02-5.45148E-01-2.72244E-11 1.24232E-08
 -1        15 1.75139E+03 9.62493E+02 5.66137E+03 3.43785E+00 1.31308E-11 2.01752E-08
 -1        16 1.19097E+06-9.38982E+05 1.47912E+05-1.20873E+06 9.38113E-09-6.71328E-09
 -1        17-3.18334E+03 8.91061E+04 8.32402E+04 2.07608E+05-7.01402E-10 2.16765E-08
 -1        18 2.80299E+03-4.06317E+03-2.36151E+04-8.53542E+04 8.91464E-09-7.81711E-10
 -1        19 9.87198E+04 1.12927E+05-8.01279E+02 1.92084E+04 7.40329E-11-2.05837E-09
 -1        20-5.31177E+04-4.65103E+05-1.03439E+05 2.78640E+04 1.62314E-09 7.88168E-09
 -1        21-4.12983E+01-2.56389E+05-8.15563E+02 4.33454E+00-9.12919E-07-1.92306E-08
 -1        24-5.25199E+05 8.20095E+05 2.64311E+05 4.84961E+05-7.42536E-08-3.39448E-08
 -1        25-1.01880E+05-5.76241E+05-1.15328E+05-1.84303E+05-2.24691E-10 9.60845E-09
 -1        26-3.78956E+04 7.36059E+04-1.89693E+04-3.94757E+03 1.35442E-09-6.02326E-09
 -1        27-6.71408E+04-2.52899E+05-9.38365E+04 5.70298E+04 5.44651E-09 4.51200E-09
 -1        28 1.96564E+04-7.22173E+04 1.45658E+04 2.04767E+04 7.19808E-10-4.38595E-09
 -1        32-1.39805E+06-2.21394E+06-6.36797E+04-3.81328E+05-2.85763E-08-6.02796E-09
 -1        33-1.48017E+05 7.33446E+04 2.61353E+04-3.44512E+04-6.58247E-11-5.17563E-09
 -1        34-1.86377E+05-1.92717E+04 5.05142E+02 5.96457E+04 7.34393E-10-6.12242E-10
 -1        35-2.00595E+04-2.86786E+04-1.13297E+03 4.46597E+04 2.17868E-09 6.16395E-09
 -1        51 3.04318E+04-3.02597E+05 6.97767E+04-8.58775E+05 4.22006E-10 7.23230E-09
 -1        52 1.34387E+04-2.94580E+05 4.06470E+04-1.00143E+06 4.87489E-10 2.50511E-08
 -1        53 6.47672E+03-3.09311E+05 2.75407E+04-8.55710E+05 2.54659E-10-4.35248E-08
 -1        54 1.71993E+04-3.07087E+05 3.55125E+04-1.00461E+06 5.45697E-10-1.41954E-08
 -1        55 3.45332E+04-3.19476E+05 5.82075E+04-8.55227E+05 1.43336E-09-1.35187E-08
 -1        56-5.64966E+06-6.32369E+05-4.72989E+05-2.19075E+06-2.54659E-10-1.21363E-08
 -1        57-5.88149E+06-1.02035E+06-3.19142E+05-2.12504E+06-4.07454E-09 2.17951E-08
 -1        58-5.73940E+06-7.88069E+05-1.11185E+05-2.16706E+06 9.00400E-10-3.48737E-08
 -1        59-5.77904E+06-8.36091E+05-6.63781E+04-2.15137E+06-3.32420E-09-1.70658E-08
 -1        60-5.75065E+06-8.11616E+05-2.59137E+04-2.16598E+06 3.69982E-09 3.05181E-08
 -1        61-5.76659E+06-8.07888E+05-1.47046E+04-2.15187E+06 2.92630E-09-8.70682E-09
 -1        62-5.75155E+06-8.15599E+05-6.99176E+03-2.16672E+06-3.82067E-09-4.09254E-08
 -1        63-5.76521E+06-8.04144E+05-5.66999E+03-2.15158E+06 3.77998E-09 5.72869E-09
 -1        64-5.75199E+06-8.15282E+05-6.29299E+03-2.16628E+06-2.24679E-09 1.63054E-08
 -1        65-5.76477E+06-8.08658E+05-1.26219E+04-2.15353E+06-7.92215E-09-1.14582E-08
 -1        66-5.75202E+06-8.11155E+05-2.19983E+04-2.16476E+06-8.48559E-10 4.78030E-09
 -1        67-5.77386E+06-8.33892E+05-5.61582E+04-2.15471E+06-4.28008E-09-1.91003E-08
 -1        68-5.74314E+06-7.90619E+05-9.40294E+04-2.16495E+06 1.09139E-11-3.49319E-08
 -1        69-5.85955E+06-9.90609E+05-2.69826E+05-2.13354E+06-9.23865E-09 2.77832E-08
 -1        70-5.66762E+06-6.58690E+05-4.00022E+05-2.18464E+06 4.62751E-09-6.82485E-09
 -1        86-1.03610E+03-8.55905E+05 7.26270E+03-9.76320E+01-7.16227E-11-1.37224E-08
 -1        87 6.90230E+03-8.51780E+05 1.50536E+04 3.58750E+02-1.27329E-10 8.57687E-09
 -1        88-5.84586E+03-8.58231E+05 2.31614E+04-2.61125E+02-9.73159E-11 4.45624E-08
 -1        89 4.35946E+04-8.34755E+05 6.23381E+04 5.99321E+02-2.48292E-10-1.11644E-08
 -1        90-3.76040E+04-8.72889E+05 8.82182E+04-3.38222E+02-4.00178E-10-7.18707E-09
 -1       121-6.86786E+02-1.32158E+06 3.39193E+01 5.38099E+02 8.46057E-10-1.96815E-09
 -1       122-3.66298E+02-1.31981E+06 6.58762E+02-2.15745E+03-3.07773E-09 1.04592E-08
 -1       123-7.41866E+02-1.32166E+06 7.84118E+02 1.60826E+03 2.47371E-09 4.42742E-09
 -1       124 9.12384E+02-1.31918E+06 2.68524E+03-4.56730E+03-6.20912E-09 8.17818E-09
 -1       125-1.50480E+03-1.32237E+06 3.80912E+03 2.94017E+03 3.86353E-09-4.94765E-10
 -1       191-1.71037E+00 3.04322E+05 9.35275E+00 3.60570E-02-6.56641E-11-2.13179E-08
 -1       192-2.08621E+00 3.04296E+05 1.61850E+01-2.92992E-01-4.80203E-11-3.28250E-08
 -1       193-3.57442E+00 3.04322E+05 3.03030E+01 2.57702E-01-1.15518E-10 7.08246E-09
 -1       194-4.34168E+00 3.04298E+05 6.11917E+01-6.89287E-01-5.49107E-11 2.04327E-08
 -1       195-7.15677E+00 3.04320E+05 1.19897E+02 4.34262E-01-1.15385E-10 6.82326E-09
 -1       251-1.71777E+06 6.64159E+03-9.95452E+04-7.72216E+04-2.06091E-09 1.85646E-08
 -1       252-1.45879E+06-5.98167E+03-1.38606E+04 2.33412E+05-3.52884E-09 1.53104E-08
 -1       253-1.59458E+06-1.53119E+03-1.95969E+04-1.55660E+05 5.18821E-09-2.11667E-08
 -1       254-1.57539E+06 1.57813E+04-3.40833E+03 3.03609E+05 1.74055E-10-2.56077E-08
 -1       255-1.61343E+06-5.10878E+03-1.02170E+04-1.48056E+05-2.06910E-09-7.66750E-09
 -1       256-1.40867E+06 1.45455E+04 3.48678E+04 2.05840E+05 1.40012E-08 3.09900E-08
 -1       257-1.74513E+06-1.33824E+04-3.53442E+04-5.71423E+04 2.91166E-08 2.04500E-08
 -1       258-1.27519E+06 1.17302E+04 6.14138E+04-1.33992E+04 1.53482E-08-1.62290E-08
 -1       259-1.73386E+06-1.28518E+04-3.17776E+04 7.06338E+04-1.66874E-08 1.96816E-08
 -1       260-1.43398E+06 1.62507E+04 3.33151E+04-2.24251E+05 4.94765E-10 1.08912E-09
 -1       261-1.60191E+06-5.29244E+03-1.81254E+03 1.53362E+05 3.11038E-08 6.84995E-08
 -1       262-1.57319E+06 2.26990E+04 1.07968E+04-3.03957E+05-1.16553E-08-6.13392E-08
 -1       263-1.60840E+06-8.15065E+03 1.15632E+03 1.51030E+05 1.02864E-08-1.57856E-08
 -1       264-1.41233E+06 3.77276E+04 5.39987E+04-2.16012E+05 6.91957E-08 3.69255E-10
 -1       265-1.74783E+06-3.23474E+04-1.27102E+04 6.46912E+04 2.32794E-08 4.73992E-08
 -1       266-3.17054E+04-1.48240E+04 7.43969E+04-7.35654E+01 1.16415E-10 3.78161E-08
 -1       267 3.67560E+04 1.72800E+04 5.25791E+04 8.48724E+01 2.66482E-10 1.32513E-08
 -1       268-4.92888E+03-2.44720E+03 1.95436E+04-1.08146E+01 9.18590E-11-2.17127E-08
 -1       269 5.81960E+03 2.92891E+03 1.27028E+04 1.25970E+01 9.18590E-11 1.94010E-09
 -1       270-8.73529E+02-4.81238E+02 6.13185E+03-1.70952E+00 8.20819E-11 2.83563E-08
 -1       271-2.91446E+06-3.61696E+05-2.19224E+05-1.13091E+06-3.43789E-09 1.23982E-08
 -1       272-3.00850E+06-5.07055E+05-1.41067E+05-1.11220E+06-6.84850E-09-3.73984E-09
 -1       273-2.95585E+06-4.16360E+05-5.17752E+04-1.12095E+06 2.09604E-09 1.68402E-08
 -1       274-2.95932E+06-4.40639E+05-2.89982E+04-1.12763E+06 1.16888E-08 1.29558E-09
 -1       275-2.96254E+06-4.21095E+05-1.20698E+04-1.11812E+06 8.61837E-09 1.26729E-08
 -1       276-2.95042E+06-4.35967E+05-6.37053E+03-1.13269E+06-5.96447E-09 5.29510E-08
 -1       277-2.96476E+06-4.20231E+05-3.14239E+03-1.11624E+06 1.23873E-09 5.65842E-09
 -1       278-2.94708E+06-4.37921E+05-2.17903E+03-1.13614E+06 2.27556E-09 2.59457E-08
 -1       279-2.96605E+06-4.18965E+05-2.29792E+03-1.11482E+06-5.86897E-09-1.81991E-08
 -1       280-2.94548E+06-4.40453E+05-4.08529E+03-1.13860E+06 1.63163E-09-1.66151E-08
 -1       281-2.96654E+06-4.17625E+05-7.41211E+03-1.11389E+06-2.89401E-09 7.77391E-09
 -1       282-2.94776E+06-4.46586E+05-1.77470E+04-1.13944E+06-1.61685E-09 3.71767E-08
 -1       283-2.96398E+06-4.13191E+05-3.15391E+04-1.11391E+06 6.58383E-09-5.85715E-10
 -1       284-2.97512E+06-4.89790E+05-8.60611E+04-1.13317E+06-8.34007E-09 6.93308E-09
 -1       285-2.93993E+06-3.78674E+05-1.33675E+05-1.11865E+06-4.23643E-09 7.21047E-09
 -1       301 2.30936E+04-1.84382E+05 1.72533E+05-3.51535E+05 8.73115E-11-7.13226E-09
 -1       302 2.45550E+04-1.41090E+05 1.10415E+05-5.14660E+05 1.45519E-11 4.29829E-08
 -1       303 9.95628E+02-1.67330E+05 7.94470E+04-3.50845E+05-7.82165E-11 3.53102E-08
 -1       304 2.36069E+04-1.39853E+05 1.09616E+05-5.14200E+05 3.27418E-10 3.54230E-08
 -1       305 2.14795E+04-1.82336E+05 1.70546E+05-3.52058E+05 4.36557E-11-1.66838E-08
 -1       306-9.96174E+06-1.29692E+06-1.65094E+06-2.03473E+06-2.34868E-08-1.60653E-08
 -1       307 1.91559E+05-1.88193E+06 6.19966E+05-4.79223E+06-2.94851E-07 4.76575E-09
 -1       308-7.60109E+06 2.27215E+05-2.12609E+05-2.13624E+04-5.10045E-08 9.57043E-08
 -1       309-3.73781E+06-2.09150E+06 1.74061E+05-7.45006E+06 1.62202E-07 3.85216E-08
 -1       310-7.68714E+06 1.97731E+05-1.48827E+05-6.51507E+04-3.57977E-08-6.41940E-08
 -1       311 4.03987E+05-1.88796E+06 8.94849E+05-4.58431E+06 2.00060E-07-7.27377E-08
 -1       312-9.98892E+06-1.33654E+06-1.13674E+06-2.14312E+06 1.89175E-09 1.15033E-08
 -1       313 2.19203E+06 5.23156E+05 1.55872E+06 7.76060E+05-1.48837E-07 2.96277E-08
 -1       314-8.23247E+06-3.07404E+06-1.13239E+06-4.07645E+06 1.54309E-07-7.96426E-08
 -1       315-5.24018E+06 3.70718E+06 8.85087E+05 1.62145E+06-2.05182E-07-7.29051E-08
 -1       316-4.21320E+06-3.25084E+06-1.46978E+05-3.90834E+06-2.92741E-07-1.53916E-07
 -1       317-1.04151E+07 4.57572E+06 1.62046E+05-1.33626E+04 3.46183E-07-2.28652E-07
 -1       318-4.14775E+06-3.24169E+06-2.38323E+05-3.89429E+06-3.05139E-07 8.44739E-09
 -1       319-5.45477E+06 3.75331E+06 5.70615E+05 1.56934E+06-5.78439E-08 3.85335E-08
 -1       320-8.13104E+06-3.09684E+06-1.74050E+06-4.08764E+06 8.17818E-08-1.00335E-08
 -1       336 4.69735E+02-1.43066E+06-9.08625E+03 4.33287E+03-1.56097E-08 1.02300E-08
 -1       337-3.42243E+03-1.43192E+06-1.08732E+04-1.05475E+04-2.87623E-08 3.52156E-09
 -1       338 5.48363E+02-1.43064E+06-1.54295E+04 6.16169E+03-2.05055E-08-7.84712E-09
 -1       339-1.62502E+04-1.44034E+06-3.44430E+04-1.41165E+04-3.65267E-08-2.19552E-09
 -1       340 1.08504E+04-1.42289E+06-5.37402E+04 7.85994E+03-2.41871E-08 2.19370E-08
 -1       406 2.08717E+01 3.04309E+05 4.89090E+02 1.14794E-01-1.91520E-10 8.51082E-09
 -1       407 1.72180E+02 3.04397E+05 1.03901E+03 2.43986E+00-8.38298E-11 7.37828E-11
 -1       408 5.36737E+02 3.04234E+05 2.07537E+03-2.62026E+00-1.66949E-10-1.34150E-09
 -1       409 2.24528E+03 3.05060E+05 4.67172E+03 2.61866E+01-1.38982E-10-1.10057E-08
 -1       410 6.44792E+03 3.03644E+05 9.53725E+03-2.47438E+01-2.85127E-10-9.88439E-09
 -1       521-1.21873E+07-1.76679E+06-2.24272E+06-2.27978E+06-1.67056E-08 5.66943E-08
 -1       522 6.78818E+05-2.20290E+06 7.65854E+05-6.30494E+06-2.17013E-07-5.34747E-08
 -1       523-9.18338E+06 2.40399E+05-2.72172E+05 2.12567E+05-3.91447E-08-1.03864E-07
 -1       524-4.88600E+06-2.06692E+06 2.43439E+05-9.73257E+06 2.54655E-07-2.42366E-07
 -1       525-9.32228E+06 1.87763E+05-1.99742E+05 1.46055E+05 2.32831E-07-1.79300E-07
 -1       526 1.07292E+06-2.22629E+06 1.14534E+06-5.95783E+06 1.58936E-07-6.14709E-08
 -1       527-1.22364E+07-1.84643E+06-1.56566E+06-2.45067E+06 2.30502E-08-1.22673E-08
 -1       528 3.66757E+06 7.28645E+05 1.96675E+06 1.37357E+06-1.50583E-07-5.24960E-08
 -1       529-9.95223E+06-4.09961E+06-1.55635E+06-4.93547E+06-4.21423E-08-4.43833E-08
 -1       530-6.44213E+06 5.21349E+06 1.13567E+06 2.20657E+06 5.81058E-08 1.89990E-07
 -1       531-4.86324E+06-4.23568E+06-1.87028E+05-4.73987E+06-2.96161E-07 4.99858E-08
 -1       532-1.33011E+07 6.35109E+06 2.49876E+05-4.38370E+05 2.52556E-07-2.34815E-07
 -1       533-4.75872E+06-4.22298E+06-2.70578E+05-4.71509E+06 6.77828E-08-4.29674E-07
 -1       534-6.78072E+06 5.36708E+06 8.09457E+05 2.08320E+06-8.73115E-08 2.97652E-07
 -1       535-9.81780E+06-4.19892E+06-2.20425E+06-4.94666E+06 4.07454E-09 1.87083E-07
 -1       536-4.74330E+05-2.91509E+04 2.30924E+04-2.48082E+04-4.26189E-09 3.37986E-08
 -1       537-2.74905E+05 3.09168E+04 4.95017E+04 6.10167E+04-6.78815E-08 6.04814E-08
 -1       538-3.78075E+05-1.27669E+03 1.08501E+04-3.75847E+04 1.29674E-08 6.59575E-08
 -1       539-3.39631E+05 3.32211E+03 1.32796E+04 6.98341E+04 9.46864E-08 6.47744E-08
 -1       540-4.11027E+05-4.18534E+02-4.27799E+03-3.37011E+04 6.32781E-10 6.46888E-08
 -1       541-2.13082E+05 5.49408E+03 3.37988E+04 4.41314E+04-4.12942E-08 5.35982E-08
 -1       542-5.01232E+05-6.22548E+03-2.50597E+04-1.17455E+04 2.75049E-08 2.33776E-08
 -1       543-1.40850E+05 8.17130E+03 4.70068E+04-8.36632E+03 1.88948E-08-1.48303E-08
 -1       544-4.81343E+05-4.65847E+03-2.20449E+04 1.86821E+04 4.10205E-09-1.73259E-08
 -1       545-2.58228E+05 2.07511E+03 2.15504E+04-5.57397E+04-8.55573E-09-3.46848E-08
 -1       546-3.86956E+05 2.40073E+03-4.94793E+03 3.55841E+04-4.83396E-10-4.75683E-08
 -1       547-3.49252E+05-4.02321E+03-1.96151E+03-7.18059E+04-6.11589E-08-5.57686E-08
 -1       548-3.92705E+05 3.38925E+03-1.49071E+04 3.48555E+04-6.35189E-08-5.44965E-08
 -1       549-2.50301E+05-9.84502E+03-2.07348E+03-5.24594E+04-3.91383E-08-2.29106E-08
 -1       550-4.83152E+05 5.95977E+03-6.81121E+04 1.61197E+04 4.02952E-09-1.86956E-08
 -1       551 2.46754E+04-6.71242E+05 2.06403E+04-1.06801E+06-6.42394E-08-1.85973E-08
 -1       552 5.48306E+04-6.90386E+05 3.03405E+04-1.52199E+06-4.83269E-08-1.74623E-09
 -1       553 3.99195E+04-6.94792E+05 4.56587E+04-1.06358E+06-7.53134E-08 1.10813E-08
 -1       554 8.44342E+04-6.91528E+05 9.69006E+04-1.52368E+06-4.63624E-08 7.10861E-09
 -1       555 6.89669E+04-7.14761E+05 1.72119E+05-1.06430E+06-7.82529E-08-1.40790E-08
 -1       556 1.36282E+05-2.46776E+05 6.30084E+04-2.96935E+05-4.96220E-09 5.79166E-09
 -1       557 2.31480E+05-3.23402E+05 3.38496E+04-3.76240E+05 1.54396E-08 1.04501E-08
 -1       558 1.30846E+05-2.52154E+05 1.25191E+04-2.91934E+05-2.03727E-10 1.91176E-08
 -1       559 2.15050E+05-3.30719E+05 6.71765E+03-3.85806E+05 1.56942E-08 6.96673E-10
 -1       560 1.24474E+05-2.48082E+05 2.10107E+03-2.96304E+05 2.66300E-09-3.82352E-09
 -1       561 2.06480E+05-3.27703E+05 1.38258E+03-3.91420E+05 5.00586E-09 2.36560E-09
 -1       562 1.19462E+05-2.44884E+05 1.80204E+02-2.99900E+05-3.88536E-09-1.83027E-08
 -1       563 2.00594E+05-3.25142E+05 3.37813E+02-3.95214E+05-7.31234E-10 3.27418E-09
 -1       564 1.16096E+05-2.42763E+05 4.56975E+00-3.02276E+05 8.17090E-09-5.90217E-09
 -1       565 1.97068E+05-3.23610E+05 1.30995E+02-3.97451E+05 4.56930E-09 3.86353E-09
 -1       566 1.14442E+05-2.41706E+05 3.86411E-01-3.03438E+05-3.15413E-09-4.34375E-09
 -1       567 1.95872E+05-3.23077E+05-8.16423E+01-3.98113E+05 1.13268E-08 1.25874E-09
 -1       568 1.14551E+05-2.41788E+05-4.17550E+02-3.03455E+05-1.48975E-09-4.56930E-09
 -1       569 1.96064E+05-3.23003E+05-1.04086E+03-3.96351E+05-3.19233E-09 4.91855E-09
 -1       570 1.17191E+05-2.43987E+05-2.45363E+03-3.02969E+05 2.93221E-09-2.78305E-09
 -1       571 2.33541E+05 8.56614E+03 1.27123E+04-6.18112E+04-7.50242E-09-5.19412E-09
 -1       572 2.35436E+05 3.02513E+03 6.23394E+03-6.79240E+04-1.50067E-08-2.15914E-09
 -1       573 2.34303E+05 7.70941E+02 2.77100E+03-6.16743E+04-9.21955E-09-9.18590E-09
 -1       574 2.34516E+05 3.16191E+02 1.38980E+03-6.80837E+04 9.84301E-10-7.24413E-10
 -1       575 2.34387E+05 1.13650E+02 6.56341E+02-6.16562E+04-3.16982E-09-5.56793E-09
 -1       576 2.34396E+05 1.00810E+02 3.35456E+02-6.81048E+04-3.43744E-09-1.01832E-08
 -1       577 2.34407E+05 7.61713E+01 1.67383E+02-6.16538E+04-2.77441E-09-1.67438E-09
 -1       578 2.34396E+05 8.41683E+01 9.56026E+01-6.81075E+04 1.45974E-10 2.26350E-08
 -1       579 2.34434E+05 6.53879E+01 6.57055E+01-6.16536E+04 3.15140E-09 9.72159E-09
 -1       580 2.34435E+05 6.69370E+01 7.41279E+01-6.81041E+04 3.68800E-10 2.05882E-08
 -1       581 2.34478E+05 4.63765E+01 1.13464E+02-6.16573E+04 3.23962E-09-3.93857E-09
 -1       582 2.34514E+05 6.96746E+01 2.27025E+02-6.80649E+04 1.67165E-09 1.12595E-09
 -1       583 2.34527E+05 1.15436E+02 4.40401E+02-6.16928E+04 2.08856E-08 1.17343E-08
 -1       584 2.34738E+05 4.63274E+02 9.91092E+02-6.77637E+04 4.00350E-08-1.67893E-09
 -1       585 2.34475E+05 1.32424E+03 2.01237E+03-6.19588E+04 2.07783E-08 3.26509E-09
 -1       586-2.96499E+03 7.66834E+04-3.50713E+03-2.06363E+05-1.82536E-09-4.24052E-09
 -1       587-7.76007E+02 7.62636E+04-6.12759E+01-2.27149E+05-2.61571E-09-6.29484E-09
 -1       588 7.13281E+02 7.62944E+04 3.30101E+03-2.06267E+05-1.16415E-09 1.31877E-10
 -1       589 4.33829E+03 7.80875E+04 9.15857E+03-2.26908E+05-1.93359E-09-8.41828E-09
 -1       590 1.29899E+04 7.52799E+04 1.94455E+04-2.06623E+05-1.59889E-09 1.56178E-08
 -1       591-4.81779E+04-1.22259E+04-1.63389E+04-2.28573E+04-1.14369E-09-1.34505E-08
 -1       592-5.04774E+04-1.54713E+04-8.85014E+03-2.62438E+04-3.58961E-09-4.66207E-09
 -1       593-4.98185E+04-1.10336E+04-3.68412E+03-2.40490E+04-3.55169E-09-2.49406E-09
 -1       594-4.82123E+04-1.30837E+04-1.83745E+03-2.63414E+04 1.17132E-09-6.21328E-09
 -1       595-4.99439E+04-1.10290E+04-8.44011E+02-2.41033E+04-3.75138E-10 1.58805E-08
 -1       596-4.80579E+04-1.29745E+04-4.29654E+02-2.63240E+04 3.32463E-09 1.38821E-08
 -1       597-4.99596E+04-1.10399E+04-2.35215E+02-2.41053E+04 2.32228E-09 6.75459E-09
 -1       598-4.80429E+04-1.29703E+04-1.91393E+02-2.63191E+04-1.86512E-09-7.18239E-09
 -1       599-4.99585E+04-1.10402E+04-2.47359E+02-2.41050E+04 1.22100E-10-8.25219E-09
 -1       600-4.80587E+04-1.29755E+04-4.61810E+02-2.63229E+04-9.71283E-10-2.52976E-09
 -1       601-4.99394E+04-1.10292E+04-9.12243E+02-2.41020E+04 3.47882E-10-1.52909E-09
 -1       602-4.82254E+04-1.30932E+04-1.98876E+03-2.63391E+04-1.50249E-09-1.08620E-08
 -1       603-4.98017E+04-1.10363E+04-3.98862E+03-2.40436E+04 2.15550E-10-3.09160E-09
 -1       604-5.06897E+04-1.56646E+04-9.58136E+03-2.62160E+04 7.46240E-10 8.19205E-09
 -1       605-4.80109E+04-1.23395E+04-1.76889E+04-2.27669E+04 2.05756E-09 2.12931E-08
 -1       606 2.73566E+04-1.11277E+04-1.99986E+04 2.62035E+04-4.57476E-10-3.57659E-09
 -1       607 2.39347E+04-3.60842E+03-9.95849E+03 2.94222E+04 1.84082E-09-4.09636E-09
 -1       608 2.58780E+04-6.26610E+02-4.45917E+03 2.59998E+04-1.18234E-10-3.89878E-09
 -1       609 2.54959E+04-1.84393E+02-2.25229E+03 2.96533E+04-9.60426E-10-1.40381E-09
 -1       610 2.57019E+04 4.71412E+00-1.07546E+03 2.59767E+04 1.34605E-09-4.39559E-09
 -1       611 2.56337E+04 1.45053E+01-5.42221E+02 2.96784E+04-3.40242E-09 7.14431E-09
 -1       612 2.56568E+04 2.06337E+01-2.58707E+02 2.59744E+04-1.21854E-08-1.96110E-09
 -1       613 2.56340E+04 2.25566E+01-1.16723E+02 2.96814E+04-2.31544E-08-7.30165E-09
 -1       614 2.56328E+04 1.99218E+01-2.97691E+01 2.59737E+04-6.70298E-10-4.05407E-10
 -1       615 2.56230E+04 2.75114E+01 4.34657E+01 2.96819E+04 2.24704E-08 2.73462E-09
 -1       616 2.56145E+04 2.54784E+01 1.35301E+02 2.59739E+04 5.31600E-09 6.36419E-10
 -1       617 2.56341E+04 5.94755E+01 3.10836E+02 2.96813E+04-9.97716E-10 1.04292E-08
 -1       618 2.55836E+04 1.17490E+02 6.27209E+02 2.59741E+04 7.83530E-10 3.34262E-09
 -1       619 2.58525E+04 5.46403E+02 1.40898E+03 2.96805E+04 1.56615E-09-6.00380E-09
 -1       620 2.53734E+04 1.60655E+03 2.83209E+03 2.59733E+04 2.67016E-09-3.48837E-09
 -1       621 2.81666E+02 2.36657E+05 2.56558E+03 1.79448E+04 1.38471E-10 1.06602E-08
 -1       622 3.49361E+02 2.37280E+05 2.38925E+03 2.61065E+04 1.17780E-10 2.01380E-08
 -1       623 2.78730E+01 2.36798E+05 3.02159E+03 1.78590E+04 1.86247E-10 4.59431E-09
 -1       624 1.46200E+03 2.38280E+05 5.97788E+03 2.61943E+04 1.84087E-10-9.81606E-09
 -1       625 1.46622E+03 2.35619E+05 1.05048E+04 1.78560E+04 3.78805E-10-9.99182E-09
 -1       626 2.08693E+05 5.41501E+04 4.49661E+03 1.07692E+05-1.37788E-10-6.78119E-09
 -1       627 2.06328E+05 5.57071E+04 2.16686E+03 1.11808E+05-2.96495E-09 6.26869E-10
 -1       628 2.08825E+05 5.20657E+04 9.15674E+02 1.08421E+05 1.46156E-09 5.52200E-09
 -1       629 2.05730E+05 5.51453E+04 4.48310E+02 1.12051E+05 2.82671E-09-4.88225E-09
 -1       630 2.08835E+05 5.19669E+04 2.07231E+02 1.08447E+05-8.02174E-10-1.82868E-09
 -1       631 2.05662E+05 5.51279E+04 1.10739E+02 1.12052E+05 1.73395E-09 6.87550E-10
 -1       632 2.08827E+05 5.19733E+04 7.14838E+01 1.08439E+05-3.83579E-09-1.22774E-08
 -1       633 2.05649E+05 5.51324E+04 7.75346E+01 1.12045E+05-2.40652E-09-6.01517E-09
 -1       634 2.08818E+05 5.19735E+04 1.23392E+02 1.08436E+05 1.47793E-10-8.77662E-11
 -1       635 2.05656E+05 5.51331E+04 2.48656E+02 1.12046E+05 4.61796E-10 2.63708E-09
 -1       636 2.08807E+05 5.19711E+04 5.01554E+02 1.08433E+05-7.21332E-09-1.01131E-08
 -1       637 2.05761E+05 5.52120E+04 1.10214E+03 1.12043E+05-1.83536E-08-2.11548E-09
 -1       638 2.08766E+05 5.22157E+04 2.26462E+03 1.08322E+05-9.58789E-09 1.59162E-10
 -1       639 2.06950E+05 5.68661E+04 5.35761E+03 1.11691E+05 4.20528E-10 2.73917E-09
 -1       640 2.08606E+05 5.71503E+04 1.11181E+04 1.06233E+05 2.35605E-09 2.10703E-08
 -1       656 5.47734E+04-1.39341E+06-1.32224E+05-7.54828E+02 1.01863E-10-1.50229E-09
 -1       657-7.24227E+04-1.45311E+06-1.09448E+05 7.21925E+03-2.86491E-10-7.07231E-09
 -1       658 1.74190E+04-1.41040E+06-6.72923E+04-2.28913E+03 5.09317E-10 2.05988E-09
 -1       659-7.80024E+04-1.45576E+06-1.16777E+05 8.34727E+03-4.78394E-10-2.62982E-09
 -1       660 6.03403E+04-1.39077E+06-1.44827E+05-1.88283E+03-4.22006E-10-4.68319E-09
 -1       661 1.65518E+05 1.77925E+04 1.64570E+04 6.47315E+04 2.52749E-09 4.33192E-09
 -1       662 1.74408E+05 3.03865E+04 1.10899E+04 6.15109E+04 3.50229E-09-6.17820E-09
 -1       663 1.68748E+05 2.30740E+04 3.87905E+03 6.37961E+04 2.14800E-09 8.32188E-10
 -1       664 1.70667E+05 2.42071E+04 2.31970E+03 6.26509E+04-5.13609E-10 4.48466E-09
 -1       665 1.69235E+05 2.37983E+04 9.15089E+02 6.36568E+04-1.70309E-09 8.55601E-09
 -1       666 1.70094E+05 2.33766E+04 5.34471E+02 6.28311E+04-3.24178E-09 6.61571E-09
 -1       667 1.69318E+05 2.38828E+04 2.82749E+02 6.36239E+04-1.97986E-10 7.16535E-09
 -1       668 1.70003E+05 2.33127E+04 2.85470E+02 6.28789E+04 2.70427E-09-1.05248E-08
 -1       669 1.69325E+05 2.38602E+04 3.84330E+02 6.36096E+04 1.66763E-09 2.73153E-09
 -1       670 1.70098E+05 2.35190E+04 8.34873E+02 6.28804E+04-7.99218E-11 2.43513E-09
 -1       671 1.69223E+05 2.36807E+04 1.48170E+03 6.36205E+04-3.10909E-09 1.08878E-09
 -1       672 1.70961E+05 2.49604E+04 3.79036E+03 6.26717E+04 1.77117E-09 7.15772E-10
 -1       673 1.68466E+05 2.24551E+04 6.35182E+03 6.38044E+04 3.93413E-09-1.44521E-08
 -1       674 1.77008E+05 3.51634E+04 1.81648E+04 6.08936E+04 1.62862E-09-6.60862E-09
 -1       675 1.63215E+05 1.37632E+04 2.69626E+04 6.52911E+04 5.97083E-10 2.81216E-09
 -1       676 2.11586E+01-2.56321E+05-9.82966E+02-2.16732E+00-1.01608E-10-2.13729E-08
 -1       677-2.61061E+02-2.56559E+05-1.79896E+03 4.33189E+00 1.12004E-09-6.63847E-09
 -1       678 1.74258E+02-2.56152E+05-3.18011E+03-2.16310E+00 5.04883E-10-4.89784E-09
 -1       679-3.18105E+03-2.58478E+05-7.55447E+03 4.31569E+00 8.48672E-10-4.56029E-09
 -1       680 1.89846E+03-2.54403E+05-1.21752E+04-2.12673E+00-1.10003E-09-1.59094E-08
 -1       771-2.71149E+06-5.60953E+05-8.80326E+04-1.21410E+06-1.76369E-08-1.66183E-08
 -1       772-2.66787E+06-6.18245E+05-4.60877E+04-1.27948E+06-1.23400E-08 5.61704E-09
 -1       773-2.72730E+06-5.48469E+05-2.20363E+04-1.21986E+06-8.10542E-09 6.25005E-09
 -1       774-2.65911E+06-6.08998E+05-1.01475E+04-1.29097E+06 1.94123E-08 2.57205E-09
 -1       775-2.73408E+06-5.43660E+05-6.63167E+03-1.22189E+06 2.16824E-09 9.96806E-10
 -1       776-2.66258E+06-6.08475E+05-2.64267E+03-1.29890E+06-8.94943E-10-5.01677E-09
 -1       777-2.73968E+06-5.39549E+05-2.59874E+03-1.22364E+06 8.20728E-09 1.25510E-09
 -1       778-2.66649E+06-6.08105E+05-7.96607E+02-1.30563E+06 7.63248E-09 1.83354E-09
 -1       779-2.74439E+06-5.36028E+05-1.20587E+03-1.22516E+06-8.29459E-10-4.50746E-09
 -1       780-2.66995E+06-6.07716E+05-2.32387E+02-1.31109E+06 9.31323E-10 8.18545E-10
 -1       781-2.74806E+06-5.33226E+05-4.78148E+02-1.22634E+06-1.90848E-08-5.82077E-09
 -1       782-2.67260E+06-6.07349E+05 8.38333E+01-1.31510E+06-2.20025E-08-4.19914E-09
 -1       783-2.75061E+06-5.31313E+05 1.07603E+02-1.22718E+06-5.29690E-09-8.77139E-09
 -1       784-2.67410E+06-6.06904E+05 6.85117E+02-1.31755E+06-1.39062E-08 4.65661E-10
 -1       785-2.75202E+06-5.30245E+05 1.18071E+03-1.22769E+06-2.17569E-08 4.28281E-09
 -1       786 1.28320E+05-9.14733E+03 2.11619E+04-1.35768E+02 2.34966E-09 4.91491E-09
 -1       787 1.37496E+05 1.05898E+04 1.49715E+04 2.03317E+01 3.70241E-09-3.66663E-09
 -1       788 1.31858E+05-1.43384E+03 5.47578E+03-1.09058E+02 1.63587E-09 1.41426E-08
 -1       789 1.33374E+05 1.65890E+03 3.43854E+03-2.26860E+01-7.23713E-10 8.47820E-10
 -1       790 1.32443E+05-2.23731E+02 1.39455E+03-9.27554E+01-9.71567E-10 3.50383E-09
 -1       791 1.32691E+05 2.58684E+02 8.10028E+02-5.10169E+01-1.35984E-09 8.23462E-10
 -1       792 1.32541E+05-3.46738E+01 3.52381E+02-8.07270E+01-1.82657E-09-4.40481E-09
 -1       793 1.32576E+05 4.03794E+01 1.95700E+02-7.37599E+01-2.68975E-10-2.61017E-09
 -1       794 1.32558E+05-5.56511E+00 9.11012E+01-7.00122E+01 1.57820E-09 3.58084E-09
 -1       795 1.32557E+05 8.34813E+00 5.39493E+01-9.62239E+01-1.84183E-09 1.46629E-08
 -1       796 1.32560E+05-2.65826E+00 3.37363E+01-5.82626E+01 1.26716E-09 2.60354E-09
 -1       797 1.32559E+05 1.50016E+01 4.06140E+01-1.23284E+02 1.57762E-09 3.06574E-09
 -1       798 1.32556E+05-1.22153E+01 5.15664E+01-4.29516E+01 9.69261E-10 1.86491E-09
 -1       799 1.32594E+05 8.97495E+01 1.29354E+02-1.60793E+02 5.22810E-10-6.98824E-09
 -1       800 1.32526E+05-7.73567E+01 1.79525E+02-2.07530E+01 8.74216E-11-5.34472E-09
 -1       801 7.54599E+04-4.36129E+06-4.63588E+05 2.24161E+05 3.69328E-08-1.66219E-08
 -1       802-5.19367E+04-2.54608E+06 4.30402E+04-2.11556E+05 1.00830E-07-8.85962E-09
 -1       803-2.57360E+04-4.43535E+06-2.32125E+05 2.22092E+05 4.47617E-08 2.54449E-08
 -1       804-2.46494E+04-3.14110E+06 5.31920E+04 1.73281E+05-7.26459E-09-3.25599E-10
 -1       805 3.88787E+04-3.77157E+06-5.62942E+04-1.60446E+05-3.62434E-09-3.80712E-09
 -1       806-2.53914E+05-4.80763E+04-1.84906E+04-9.93806E+04-1.80898E-09-3.09547E-09
 -1       807-2.55547E+05-4.48801E+04-9.08419E+03-1.03655E+05 7.22048E-09-7.67708E-09
 -1       808-2.54407E+05-4.14275E+04-3.85390E+03-1.02549E+05 1.51340E-09-6.80984E-11
 -1       809-2.53645E+05-4.23207E+04-1.88449E+03-1.03872E+05 5.06361E-10 9.51695E-09
 -1       810-2.54484E+05-4.11957E+04-8.63649E+02-1.02690E+05 4.26189E-09-7.99832E-09
 -1       811-2.53499E+05-4.22170E+04-4.29412E+02-1.03844E+05 9.85892E-09-8.20239E-09
 -1       812-2.54497E+05-4.12149E+04-2.16860E+02-1.02691E+05 4.93537E-09 1.39435E-08
 -1       813-2.53480E+05-4.22181E+04-1.40570E+02-1.03830E+05-2.64117E-09-4.96186E-09
 -1       814-2.54493E+05-4.12216E+04-1.38508E+02-1.02688E+05-6.70298E-10 3.03044E-09
 -1       815-2.53485E+05-4.22194E+04-2.22826E+02-1.03826E+05 6.84395E-10 7.83257E-09
 -1       816-2.54479E+05-4.12195E+04-4.21730E+02-1.02686E+05-4.93128E-09-6.64477E-09
 -1       817-2.53558E+05-4.22592E+04-9.05506E+02-1.03819E+05-8.45694E-09 3.31806E-09
 -1       818-2.54427E+05-4.13454E+04-1.84653E+03-1.02627E+05-4.67298E-09 9.48285E-09
 -1       819-2.54569E+05-4.33766E+04-4.34563E+03-1.03585E+05-1.31008E-08-1.20228E-08
 -1       820-2.54087E+05-4.46212E+04-8.84446E+03-1.01218E+05-5.75255E-09-1.32710E-08
 -1       821-3.09643E+05 1.71272E+04-3.96118E+04 4.54073E+02 3.59297E-07-2.08856E-08
 -1       822-3.26798E+05-1.98275E+04-2.80295E+04-1.13375E+03 7.20883E-07 1.66910E-08
 -1       823-3.16260E+05 2.68571E+03-1.02589E+04 4.98446E+02 3.58063E-07 2.62298E-09
 -1       824-3.19064E+05-3.10762E+03-6.45275E+03-9.64656E+02 5.68857E-10 1.67302E-08
 -1       825-3.17374E+05 4.19812E+02-2.65674E+03 2.84984E+02 1.44283E-09 7.18615E-09
 -1       826-3.17756E+05-4.94304E+02-1.59411E+03-3.78950E+02-4.27477E-10-1.37965E-09
 -1       827-3.17566E+05 7.35072E+01-8.37136E+02-8.72696E+01-7.63421E-10-1.03881E-09
 -1       828-3.17583E+05-1.50956E+02-7.29223E+02 3.53125E+02-3.84974E-09-1.00296E-08
 -1       829-3.17547E+05 7.67690E+01-8.53832E+02-4.47103E+02-2.11667E-10 3.40273E-09
 -1       830-3.17810E+05-5.15066E+02-1.66143E+03 8.94228E+02 1.31890E-09-4.45354E-09
 -1       831-3.17340E+05 4.38178E+02-2.75748E+03-6.28383E+02-2.76818E-09 2.99337E-10
 -1       832-3.19144E+05-3.23510E+03-6.71970E+03 9.94898E+02-2.33637E-09 8.85052E-10
 -1       833-3.16214E+05 2.79507E+03-1.06818E+04-5.47774E+02-1.90841E-09 3.89218E-09
 -1       834-3.27142E+05-2.06400E+04-2.91743E+04 6.05611E+02-1.39930E-09-4.28190E-09
 -1       835-3.09344E+05 1.78291E+04-4.12464E+04-2.39083E+02 5.35448E-09 5.15138E-09
 -1       836-1.06507E+03 2.93472E+05 1.78514E+04-1.63822E+04-9.49512E-10-4.02315E-09
 -1       837 3.87861E+03 2.99029E+05 1.52662E+04-3.29878E+04-7.37600E-10-4.29122E-09
 -1       838-4.11489E+02 2.95009E+05 1.57801E+04-1.63170E+04-4.36103E-10-9.05834E-09
 -1       839 1.00930E+04 3.03661E+05 3.00729E+04-3.30279E+04-9.09495E-11 8.80937E-09
 -1       840-3.06941E+03 2.88797E+05 4.80518E+04-1.63419E+04-3.54703E-10-8.21274E-10
 -1       856-7.20055E+04 7.61339E+03-2.00636E+04-4.20408E+02-2.43972E-10-5.23141E-09
 -1       857-8.02872E+04-8.93328E+03-1.38126E+04 4.86544E+03-1.53534E-09-7.97968E-09
 -1       858-7.52795E+04 1.06696E+03-5.20664E+03-4.42334E+02-1.86128E-09-3.67481E-09
 -1       859-7.65285E+04-1.24379E+03-3.14353E+03 4.89975E+03-7.92866E-10 2.70711E-09
 -1       860-7.57688E+04 1.48626E+02-1.31998E+03-4.54758E+02 4.52872E-10 7.00936E-09
 -1       861-7.59652E+04-1.66804E+02-7.31493E+02 4.91677E+03-2.84071E-09 1.00498E-08
 -1       862-7.58451E+04 1.96866E+01-3.14786E+02-4.59362E+02 2.13853E-09-1.38616E-08
 -1       863-7.58736E+04-1.24828E+01-1.38991E+02 4.91904E+03 6.75313E-09-6.77753E-09
 -1       864-7.58608E+04-2.26184E+00-9.96382E+00-4.57038E+02 3.77989E-09-1.21302E-09
 -1       865-7.58359E+04 4.03462E+01 1.20308E+02 4.90690E+03 3.14881E-09 7.23745E-09
 -1       866-7.58810E+04-3.34509E+01 2.70540E+02-4.47217E+02 4.80270E-10-1.04822E-09
 -1       867-7.57010E+04 2.78553E+02 6.84036E+02 4.88017E+03 4.47650E-09 5.62693E-09
 -1       868-7.59918E+04-2.37019E+02 1.14092E+03-4.30314E+02 2.45888E-09-9.19636E-09
 -1       869-7.48589E+04 1.97158E+03 3.04471E+03 4.83571E+03-1.40452E-09-1.95143E-08
 -1       870-7.67171E+04-1.68173E+03 4.41749E+03-4.02753E+02 1.69234E-09-1.76078E-09
 -1       871-4.67713E+03-1.22392E+04-1.55221E+04 1.03244E+05 8.18545E-11 7.05313E-09
 -1       872-1.94029E+03-1.57558E+04-6.39358E+03 1.33858E+05-3.19233E-10 6.63795E-09
 -1       873 5.30106E+01-1.41003E+04 7.35706E+02 1.03018E+05-2.44199E-10-1.03751E-09
 -1       874 2.42543E+03-1.19615E+04 8.41070E+03 1.33896E+05-5.76620E-10 1.97958E-08
 -1       875 5.53014E+03-1.60984E+04 1.87666E+04 1.03209E+05-2.00998E-10 7.84712E-09
 -1       876 2.45465E+05 4.19000E+04 1.28563E+04 9.91312E+04-4.86415E-09-3.59978E-09
 -1       877 2.46258E+05 4.46641E+04 6.86564E+03 1.02871E+05-9.95215E-10 7.59201E-10
 -1       878 2.46666E+05 4.04775E+04 2.87638E+03 1.00187E+05-4.47471E-10-3.30601E-09
 -1       879 2.44510E+05 4.29211E+04 1.43304E+03 1.02960E+05 3.69118E-09-2.15437E-10
 -1       880 2.46753E+05 4.04622E+04 6.67357E+02 1.00230E+05 7.41011E-10 6.38028E-09
 -1       881 2.44394E+05 4.28469E+04 3.55967E+02 1.02941E+05 3.15117E-09 1.79349E-08
 -1       882 2.46761E+05 4.04730E+04 2.27039E+02 1.00231E+05 3.18914E-09 2.97963E-09
 -1       883 2.44386E+05 4.28432E+04 2.42951E+02 1.02935E+05 2.04290E-09 7.06774E-09
 -1       884 2.46756E+05 4.04705E+04 3.85464E+02 1.00231E+05 5.07680E-09-3.14043E-09
 -1       885 2.44416E+05 4.28486E+04 7.74365E+02 1.02945E+05 7.36452E-09-1.11277E-08
 -1       886 2.46726E+05 4.04478E+04 1.56041E+03 1.00228E+05 6.45038E-09-4.53485E-09
 -1       887 2.44691E+05 4.30284E+04 3.40841E+03 1.02984E+05 1.60411E-08-8.57426E-09
 -1       888 2.46511E+05 4.04857E+04 6.86803E+03 1.00119E+05 3.76687E-09-3.74666E-09
 -1       889 2.48781E+05 4.72789E+04 1.64069E+04 1.02857E+05-1.89170E-09-1.01779E-08
 -1       890 2.43712E+05 4.38105E+04 3.07292E+04 9.74998E+04 5.86397E-09 7.09406E-10
 -1       891-1.30571E+02-1.37908E+05-1.65995E+03 2.48175E+04-2.02135E-10 2.17369E-09
 -1       892-2.31905E+02-1.38317E+05-1.79343E+03 3.75881E+04-3.50155E-10-3.65617E-10
 -1       893-2.03161E+01-1.37961E+05-2.55029E+03 2.48230E+04 8.58108E-10-5.52063E-10
 -1       894-1.35713E+03-1.39287E+05-5.28613E+03 3.74526E+04 2.11389E-09 1.04410E-09
 -1       895-1.06617E+03-1.36859E+05-9.31198E+03 2.49520E+04 9.09154E-10-4.16912E-09
 -1       956-3.11701E+05-4.39250E+03-1.10107E+04 2.19332E+04 9.22228E-10-3.90241E-09
 -1       957-3.13872E+05-1.49611E+03-5.65221E+03 2.64074E+04-2.05591E-09-6.28006E-10
 -1       958-3.12681E+05-1.34062E+02-2.54662E+03 2.18025E+04-7.52425E-09-6.05996E-09
 -1       959-3.12852E+05-3.87581E+01-1.30071E+03 2.65520E+04-1.14828E-08 3.13594E-09
 -1       960-3.12771E+05 2.20233E+01-6.34217E+02 2.17896E+04-4.48244E-09-1.72577E-09
 -1       961-3.12780E+05 1.74582E+01-3.36612E+02 2.65667E+04-1.28239E-09 2.88560E-09
 -1       962-3.12790E+05 1.85131E+01-1.93002E+02 2.17876E+04-2.50884E-09 5.46834E-10
 -1       963-3.12777E+05 1.93296E+01-1.55514E+02 2.65693E+04-5.26313E-09 4.76689E-09
 -1       964-3.12794E+05 2.07699E+01-1.89592E+02 2.17870E+04-3.80163E-09 2.51293E-09
 -1       965-3.12788E+05 2.22638E+01-3.28303E+02 2.65690E+04-7.81165E-09-1.82561E-08
 -1       966-3.12782E+05 2.87370E+01-6.16796E+02 2.17879E+04-3.85171E-09-6.76414E-09
 -1       967-3.12867E+05-2.77278E+01-1.26523E+03 2.65595E+04-7.71024E-10 7.79767E-09
 -1       968-3.12702E+05-1.18655E+02-2.47638E+03 2.17966E+04-5.53291E-09 5.55630E-09
 -1       969-3.13867E+05-1.44135E+03-5.49811E+03 2.64583E+04-9.00832E-09-3.91901E-09
 -1       970-3.11754E+05-4.25821E+03-1.07096E+04 2.18894E+04-4.89354E-09 9.18590E-09
 -1       971-2.91026E+05-1.49946E+03-8.26605E+03 1.36106E+04-1.15961E-09-1.29280E-08
 -1       972-2.93030E+05-1.08233E+03-4.50162E+03 1.89654E+04-1.87356E-09-8.24048E-09
 -1       973-2.91945E+05-2.15652E+01-2.01596E+03 1.34983E+04-2.59115E-09-6.06406E-10
 -1       974-2.92080E+05-2.55117E+01-1.04458E+03 1.90883E+04-3.29874E-09-1.99179E-10
 -1       975-2.92018E+05 1.76504E+01-5.21534E+02 1.34876E+04-2.21144E-09-3.62604E-09
 -1       976-2.92024E+05 1.82309E+01-2.99768E+02 1.91015E+04-1.00747E-08-1.93610E-08
 -1       977-2.92032E+05 1.78213E+01-2.15571E+02 1.34850E+04-3.82465E-09-1.01685E-08
 -1       978-2.92028E+05 2.33673E+01-2.49539E+02 1.91052E+04 3.60160E-09 1.07946E-09
 -1       979-2.92031E+05 2.47760E+01-3.98590E+02 1.34839E+04 3.63275E-09 1.08581E-08
 -1       980-2.92058E+05 2.58952E+01-7.68160E+02 1.91058E+04 3.13105E-09 1.01329E-08
 -1       981-2.92007E+05 4.39339E+01-1.48698E+03 1.34843E+04-1.18234E-09-5.54019E-09
 -1       982-2.92262E+05-8.39171E+01-3.07312E+03 1.91000E+04 2.78862E-09 3.46517E-09
 -1       983-2.91820E+05-5.11986E+01-5.97085E+03 1.34899E+04 1.50953E-09 6.51880E-10
 -1       984-2.95133E+05-3.20217E+03-1.33711E+04 1.90232E+04-4.48085E-09 4.74392E-09
 -1       985-2.89117E+05-4.42028E+03-2.45536E+04 1.35635E+04 3.70619E-10-3.47063E-09
 -3
    1PSTEP                        17           9           1          
  100CL  109 5.91797E-01         409                     0    9           1
 -4  DISP        4    1
 -5  D1          1    2    1    0
 -5  D2          1    2    2    0
 -5  D3          1    2    3    0
 -5  ALL         1    2    0    0    1ALL
 -1         1 9.08852E-04 0.00000E+00 0.00000E+00
 -1         2 8.51580E-04 3.12692E-29-1.32349E-23
 -1         3 2.43669E-04-1.28194E-27 1.32349E-23
 -1         5 1.40093E-04-6.47558E-27 1.65436E-24
 -1         8 8.87956E-04-6.69494E-07 0.00000E+00
 -1         9 8.62199E-04-2.66517E-06 0.00000E+00
 -1        10 2.22128E-04-3.05584E-06 6.61744E-24
 -1        12 1.40624E-04 6.73116E-07 1.65436E-24
 -1        15 8.62826E-04-7.39276E-07-2.06795E-25
 -1        16 8.69396E-04-3.29268E-06 0.00000E+00
 -1        17 1.54912E-04-6.66778E-06 0.00000E+00
 -1        18 1.40846E-04 1.61662E-05 0.00000E+00
 -1        19 1.42216E-04 1.34266E-06 0.00000E+00
 -1        20 1.42362E-04 4.41998E-06 0.00000E+00
 -1        21 1.41650E-04 5.01636E-06 0.00000E+00
 -1        24 2.60035E-05-9.52056E-06 0.00000E+00
 -1        25 1.45066E-04 1.63359E-05 0.00000E+00
 -1        26 1.45784E-04 1.86296E-06 0.00000E+00
 -1        27 1.43938E-04 1.37942E-06 0.00000E+00
 -1        28 1.43545E-04 4.46550E-06 0.00000E+00
 -1        32 0.00000E+00 0.00000E+00 0.00000E+00
 -1        33 1.48286E-04 2.49771E-06 0.00000E+00
 -1        34 1.46467E-04 1.34415E-06 0.00000E+00
 -1        35 1.44781E-04 4.16833E-06 0.00000E+00
 -1        51 9.07505E-04-1.18045E-07 0.00000E+00
 -1        52 9.04998E-04-2.25346E-07 0.00000E+00
 -1        53 9.01556E-04-3.32065E-07 0.00000E+00
 -1        54 8.97412E-04-4.40137E-07 0.00000E+00
 -1        55 8.92801E-04-5.50828E-07-1.65436E-24
 -1        56 9.06189E-04-5.59405E-07 0.00000E+00
 -1        57 9.03146E-04-3.93698E-07 0.00000E+00
 -1        58 8.99856E-04 4.46665E-07-5.29396E-23
 -1        59 8.96344E-04 1.82455E-06 0.00000E+00
 -1        60 8.92701E-04 3.55065E-06 1.05879E-22
 -1        61 8.89004E-04 5.40772E-06 0.00000E+00
 -1        62 8.85346E-04 7.16373E-06 0.00000E+00
 -1        63 8.81810E-04 8.59177E-06 5.29396E-23
 -1        64 8.78469E-04 9.50553E-06 0.00000E+00
 -1        65 8.75381E-04 9.74994E-06 0.00000E+00
 -1        66 8.72571E-04 9.25190E-06-1.05879E-22
 -1        67 8.70054E-04 7.98433E-06 0.00000E+00
 -1        68 8.67800E-04 6.01330E-06 0.00000E+00
 -1        69 8.65781E-04 3.45356E-06 2.64698E-23
 -1        70 8.63912E-04 4.80858E-07-5.29396E-23
 -1        86 8.51993E-04-4.39886E-07 0.00000E+00
 -1        87 8.53225E-04-8.80712E-07-6.61744E-24
 -1        88 8.55093E-04-1.32251E-06-1.32349E-23
 -1        89 8.57404E-04-1.76705E-06-6.61744E-24
 -1        90 8.59870E-04-2.21131E-06 1.32349E-23
 -1       121 2.43064E-04-5.01138E-07 0.00000E+00
 -1       122 2.41254E-04-1.00368E-06 6.61744E-24
 -1       123 2.38242E-04-1.50902E-06 0.00000E+00
 -1       124 2.34041E-04-2.01858E-06 6.61744E-24
 -1       125 2.28663E-04-2.53351E-06-1.32349E-23
 -1       191 1.40108E-04 1.12195E-07 1.65436E-24
 -1       192 1.40152E-04 2.24387E-07 1.65436E-24
 -1       193 1.40226E-04 3.36579E-07 1.65436E-24
 -1       194 1.40329E-04 4.48766E-07 0.00000E+00
 -1       195 1.40462E-04 5.60946E-07 3.30872E-24
 -1       251 8.87261E-04 1.53349E-05-1.32349E-23
 -1       252 8.85939E-04 5.46328E-05 0.00000E+00
 -1       253 8.83897E-04 1.10191E-04 1.32349E-23
 -1       254 8.81342E-04 1.74600E-04 0.00000E+00
 -1       255 8.78844E-04 2.38052E-04 0.00000E+00
 -1       256 8.76947E-04 2.90759E-04 0.00000E+00
 -1       257 8.75771E-04 3.25843E-04-1.32349E-23
 -1       258 8.75128E-04 3.36833E-04 0.00000E+00
 -1       259 8.74460E-04 3.23592E-04 0.00000E+00
 -1       260 8.73216E-04 2.86564E-04 0.00000E+00
 -1       261 8.71247E-04 2.32451E-04 0.00000E+00
 -1       262 8.68709E-04 1.68350E-04 6.61744E-24
 -1       263 8.66160E-04 1.04065E-04-1.32349E-23
 -1       264 8.64161E-04 4.94026E-05 6.61744E-24
 -1       265 8.62889E-04 1.15556E-05 0.00000E+00
 -1       266 8.83768E-04-6.90744E-07 0.00000E+00
 -1       267 8.79579E-04-7.01202E-07 0.00000E+00
 -1       268 8.75391E-04-7.12343E-07 8.27181E-25
 -1       269 8.71203E-04-7.21459E-07 0.00000E+00
 -1       270 8.67014E-04-7.30529E-07 0.00000E+00
 -1       271 8.85413E-04 2.94309E-06 0.00000E+00
 -1       272 8.82989E-04 6.13968E-06-1.32349E-23
 -1       273 8.80736E-04 8.88976E-06 0.00000E+00
 -1       274 8.78661E-04 1.11531E-05 1.32349E-23
 -1       275 8.76779E-04 1.29008E-05 0.00000E+00
 -1       276 8.75101E-04 1.41085E-05 0.00000E+00
 -1       277 8.73631E-04 1.47602E-05-2.64698E-23
 -1       278 8.72374E-04 1.48471E-05 0.00000E+00
 -1       279 8.71329E-04 1.43685E-05 0.00000E+00
 -1       280 8.70493E-04 1.33310E-05-1.32349E-23
 -1       281 8.69861E-04 1.17495E-05 0.00000E+00
 -1       282 8.69424E-04 9.64593E-06-1.32349E-23
 -1       283 8.69172E-04 7.04973E-06 0.00000E+00
 -1       284 8.69092E-04 3.99804E-06 0.00000E+00
 -1       285 8.69166E-04 5.31899E-07 2.64698E-23
 -1       301 8.63530E-04-2.78844E-06-6.61744E-24
 -1       302 8.64255E-04-2.88509E-06 3.30872E-24
 -1       303 8.64788E-04-2.97976E-06 6.61744E-24
 -1       304 8.65545E-04-3.07430E-06 0.00000E+00
 -1       305 8.66944E-04-3.17123E-06-1.32349E-23
 -1       306 8.83643E-04-7.93185E-05 0.00000E+00
 -1       307 9.37177E-04-2.97947E-04 0.00000E+00
 -1       308 1.00323E-03-6.23008E-04 1.05879E-22
 -1       309 1.07127E-03-1.00697E-03 2.64698E-23
 -1       310 1.13920E-03-1.38580E-03 0.00000E+00
 -1       311 1.20417E-03-1.69594E-03 0.00000E+00
 -1       312 1.25393E-03-1.89276E-03 1.05879E-22
 -1       313 1.26769E-03-1.94473E-03 0.00000E+00
 -1       314 1.22370E-03-1.85227E-03 0.00000E+00
 -1       315 1.10713E-03-1.63210E-03 0.00000E+00
 -1       316 9.26530E-04-1.32285E-03 1.05879E-22
 -1       317 7.05391E-04-9.66361E-04 2.64698E-23
 -1       318 4.85382E-04-6.11147E-04 0.00000E+00
 -1       319 3.07894E-04-3.05769E-04 2.64698E-23
 -1       320 1.95294E-04-9.16001E-05 5.29396E-23
 -1       336 2.14305E-04-3.62666E-06 0.00000E+00
 -1       337 2.05074E-04-4.20963E-06 6.61744E-24
 -1       338 1.94470E-04-4.80537E-06 0.00000E+00
 -1       339 1.82541E-04-5.41400E-06 0.00000E+00
 -1       340 1.69336E-04-6.03811E-06 0.00000E+00
 -1       406 1.40816E-04 7.85268E-07 0.00000E+00
 -1       407 1.41037E-04 8.97379E-07 1.65436E-24
 -1       408 1.41287E-04 1.00942E-06 0.00000E+00
 -1       409 1.41568E-04 1.12125E-06-1.65436E-24
 -1       410 1.41877E-04 1.23266E-06 1.65436E-24
 -1       521 8.92324E-04-8.83687E-05-1.05879E-22
 -1       522 9.47983E-04-3.27418E-04-5.29396E-23
 -1       523 1.01477E-03-6.82230E-04 0.00000E+00
 -1       524 1.08193E-03-1.10010E-03 5.29396E-23
 -1       525 1.14911E-03-1.51183E-03 1.05879E-22
 -1       526 1.21505E-03-1.84887E-03 0.00000E+00
 -1       527 1.26662E-03-2.06184E-03 1.05879E-22
 -1       528 1.28051E-03-2.11743E-03-5.29396E-23
 -1       529 1.23080E-03-2.01552E-03 1.05879E-22
 -1       530 1.10028E-03-1.77632E-03-5.29396E-23
 -1       531 8.97428E-04-1.44154E-03-1.05879E-22
 -1       532 6.48817E-04-1.05679E-03 0.00000E+00
 -1       533 4.01067E-04-6.72957E-04 0.00000E+00
 -1       534 2.00575E-04-3.40932E-04 5.29396E-23
 -1       535 7.30424E-05-1.06013E-04 0.00000E+00
 -1       536 1.54491E-04 1.69402E-05 0.00000E+00
 -1       537 1.53548E-04 5.76496E-05 0.00000E+00
 -1       538 1.52140E-04 1.09136E-04 0.00000E+00
 -1       539 1.50506E-04 1.65017E-04 0.00000E+00
 -1       540 1.49037E-04 2.17645E-04-3.30872E-24
 -1       541 1.48063E-04 2.59392E-04-1.65436E-24
 -1       542 1.47582E-04 2.85652E-04-3.30872E-24
 -1       543 1.47414E-04 2.91916E-04 1.65436E-24
 -1       544 1.47185E-04 2.78821E-04 0.00000E+00
 -1       545 1.46555E-04 2.47137E-04 0.00000E+00
 -1       546 1.45463E-04 2.02492E-04-3.30872E-24
 -1       547 1.44035E-04 1.50589E-04 1.65436E-24
 -1       548 1.42630E-04 9.91876E-05 0.00000E+00
 -1       549 1.41603E-04 5.60419E-05 1.65436E-24
 -1       550 1.41039E-04 2.65853E-05 1.65436E-24
 -1       551 1.37260E-04-7.06944E-06 0.00000E+00
 -1       552 1.16956E-04-7.51390E-06 3.30872E-24
 -1       553 9.48337E-05-7.99319E-06-3.30872E-24
 -1       554 7.17377E-05-8.49490E-06 6.61744E-24
 -1       555 4.85141E-05-9.00194E-06 2.64698E-23
 -1       556 1.49792E-04 6.51331E-06 0.00000E+00
 -1       557 1.45719E-04 1.70311E-05 0.00000E+00
 -1       558 1.42590E-04 2.51049E-05 0.00000E+00
 -1       559 1.40309E-04 3.09717E-05 0.00000E+00
 -1       560 1.38778E-04 3.48686E-05 0.00000E+00
 -1       561 1.37904E-04 3.70344E-05 0.00000E+00
 -1       562 1.37592E-04 3.77085E-05 0.00000E+00
 -1       563 1.37751E-04 3.71308E-05 0.00000E+00
 -1       564 1.38288E-04 3.55417E-05 0.00000E+00
 -1       565 1.39113E-04 3.31819E-05 0.00000E+00
 -1       566 1.40136E-04 3.02924E-05 6.61744E-24
 -1       567 1.41266E-04 2.71144E-05 0.00000E+00
 -1       568 1.42413E-04 2.38891E-05 1.65436E-24
 -1       569 1.43489E-04 2.08575E-05 0.00000E+00
 -1       570 1.44403E-04 1.82608E-05 0.00000E+00
 -1       571 1.40929E-04 1.52124E-05-8.27181E-25
 -1       572 1.41014E-04 1.42059E-05-8.27181E-25
 -1       573 1.41099E-04 1.31584E-05 1.65436E-24
 -1       574 1.41185E-04 1.20818E-05 8.27181E-25
 -1       575 1.41271E-04 1.09885E-05-3.30872E-24
 -1       576 1.41357E-04 9.89058E-06 0.00000E+00
 -1       577 1.41442E-04 8.80024E-06 0.00000E+00
 -1       578 1.41528E-04 7.72972E-06 0.00000E+00
 -1       579 1.41614E-04 6.69124E-06 0.00000E+00
 -1       580 1.41700E-04 5.69702E-06-6.61744E-24
 -1       581 1.41786E-04 4.75931E-06 0.00000E+00
 -1       582 1.41872E-04 3.89030E-06 0.00000E+00
 -1       583 1.41958E-04 3.10219E-06 6.61744E-24
 -1       584 1.42044E-04 2.40706E-06 0.00000E+00
 -1       585 1.42130E-04 1.81689E-06 0.00000E+00
 -1       586 1.41497E-04 1.61963E-05 1.65436E-24
 -1       587 1.42119E-04 1.62258E-05 3.10193E-25
 -1       588 1.42750E-04 1.62550E-05 0.00000E+00
 -1       589 1.43427E-04 1.62836E-05 0.00000E+00
 -1       590 1.44187E-04 1.63113E-05 0.00000E+00
 -1       591 1.41157E-04 1.52756E-05 1.03398E-25
 -1       592 1.41474E-04 1.43599E-05 0.00000E+00
 -1       593 1.41797E-04 1.34251E-05 8.27181E-25
 -1       594 1.42126E-04 1.24763E-05 4.13590E-25
 -1       595 1.42458E-04 1.15187E-05 0.00000E+00
 -1       596 1.42791E-04 1.05573E-05 0.00000E+00
 -1       597 1.43123E-04 9.59737E-06-8.27181E-25
 -1       598 1.43453E-04 8.64389E-06 4.13590E-25
 -1       599 1.43779E-04 7.70198E-06-8.27181E-25
 -1       600 1.44099E-04 6.77676E-06 0.00000E+00
 -1       601 1.44410E-04 5.87334E-06-8.27181E-25
 -1       602 1.44711E-04 4.99681E-06 2.06795E-25
 -1       603 1.45001E-04 4.15228E-06 4.13590E-25
 -1       604 1.45277E-04 3.34494E-06 0.00000E+00
 -1       605 1.45538E-04 2.57983E-06 0.00000E+00
 -1       606 1.42229E-04 1.05907E-06 0.00000E+00
 -1       607 1.42239E-04 8.66913E-07-1.65436E-24
 -1       608 1.42249E-04 7.60819E-07 0.00000E+00
 -1       609 1.42258E-04 7.34733E-07 0.00000E+00
 -1       610 1.42267E-04 7.82564E-07 0.00000E+00
 -1       611 1.42275E-04 8.98140E-07 0.00000E+00
 -1       612 1.42284E-04 1.07529E-06 0.00000E+00
 -1       613 1.42293E-04 1.30782E-06 0.00000E+00
 -1       614 1.42302E-04 1.58956E-06 0.00000E+00
 -1       615 1.42311E-04 1.91431E-06 0.00000E+00
 -1       616 1.42319E-04 2.27591E-06 0.00000E+00
 -1       617 1.42328E-04 2.66815E-06 0.00000E+00
 -1       618 1.42337E-04 3.08487E-06 8.27181E-25
 -1       619 1.42345E-04 3.51986E-06 0.00000E+00
 -1       620 1.42354E-04 3.96697E-06 0.00000E+00
 -1       621 1.42643E-04 1.42963E-06 1.65436E-24
 -1       622 1.43162E-04 1.51688E-06 0.00000E+00
 -1       623 1.43755E-04 1.60407E-06-1.65436E-24
 -1       624 1.44402E-04 1.69107E-06 0.00000E+00
 -1       625 1.45085E-04 1.77789E-06 1.65436E-24
 -1       626 1.42418E-04 1.08941E-06-3.30872E-24
 -1       627 1.42595E-04 9.07952E-07-1.65436E-24
 -1       628 1.42748E-04 7.90545E-07 3.30872E-24
 -1       629 1.42880E-04 7.29063E-07 1.65436E-24
 -1       630 1.42994E-04 7.15365E-07 3.30872E-24
 -1       631 1.43093E-04 7.41272E-07-1.65436E-24
 -1       632 1.43180E-04 7.98608E-07 3.30872E-24
 -1       633 1.43259E-04 8.79194E-07 0.00000E+00
 -1       634 1.43332E-04 9.74854E-07 0.00000E+00
 -1       635 1.43402E-04 1.07741E-06 0.00000E+00
 -1       636 1.43473E-04 1.17869E-06 3.30872E-24
 -1       637 1.43548E-04 1.27051E-06 8.27181E-25
 -1       638 1.43628E-04 1.34469E-06 0.00000E+00
 -1       639 1.43719E-04 1.39305E-06 8.27181E-25
 -1       640 1.43822E-04 1.40739E-06-1.65436E-24
 -1       656 1.42131E-04 3.92546E-06 0.00000E+00
 -1       657 1.42293E-04 3.41105E-06 6.61744E-24
 -1       658 1.42710E-04 2.89807E-06 0.00000E+00
 -1       659 1.43237E-04 2.38546E-06 6.61744E-24
 -1       660 1.43703E-04 1.87128E-06-6.61744E-24
 -1       661 1.42278E-04 4.83688E-06-8.27181E-25
 -1       662 1.42225E-04 5.17998E-06 0.00000E+00
 -1       663 1.42197E-04 5.45277E-06 1.65436E-24
 -1       664 1.42195E-04 5.66002E-06 8.27181E-25
 -1       665 1.42217E-04 5.80584E-06 0.00000E+00
 -1       666 1.42259E-04 5.89447E-06 0.00000E+00
 -1       667 1.42322E-04 5.92992E-06-1.65436E-24
 -1       668 1.42403E-04 5.91611E-06-8.27181E-25
 -1       669 1.42501E-04 5.85684E-06 1.65436E-24
 -1       670 1.42615E-04 5.75581E-06 0.00000E+00
 -1       671 1.42743E-04 5.61660E-06 0.00000E+00
 -1       672 1.42884E-04 5.44270E-06 8.27181E-25
 -1       673 1.43036E-04 5.23754E-06 1.65436E-24
 -1       674 1.43198E-04 5.00422E-06 0.00000E+00
 -1       675 1.43370E-04 4.74641E-06-4.13590E-25
 -1       676 1.41967E-04 4.92400E-06 0.00000E+00
 -1       677 1.42284E-04 4.83169E-06 0.00000E+00
 -1       678 1.42600E-04 4.73943E-06 0.00000E+00
 -1       679 1.42916E-04 4.64745E-06 1.65436E-24
 -1       680 1.43231E-04 4.55547E-06 1.65436E-24
 -1       771 1.75553E-05 8.90119E-06-5.29396E-23
 -1       772 1.03914E-05 2.40211E-05 0.00000E+00
 -1       773 4.45111E-06 3.60059E-05 0.00000E+00
 -1       774-3.48105E-07 4.50406E-05 0.00000E+00
 -1       775-4.08749E-06 5.13158E-05 0.00000E+00
 -1       776-6.85157E-06 5.50325E-05 0.00000E+00
 -1       777-8.72524E-06 5.63975E-05 0.00000E+00
 -1       778-9.79523E-06 5.56257E-05 0.00000E+00
 -1       779-1.01483E-05 5.29372E-05 0.00000E+00
 -1       780-9.87287E-06 4.85588E-05 0.00000E+00
 -1       781-9.05695E-06 4.27211E-05 0.00000E+00
 -1       782-7.78990E-06 3.56600E-05 0.00000E+00
 -1       783-6.16076E-06 2.76143E-05 0.00000E+00
 -1       784-4.25950E-06 1.88261E-05 0.00000E+00
 -1       785-2.17571E-06 9.53952E-06 0.00000E+00
 -1       786 1.45107E-04 1.52214E-05 0.00000E+00
 -1       787 1.45152E-04 1.41533E-05 0.00000E+00
 -1       788 1.45196E-04 1.31238E-05-8.27181E-25
 -1       789 1.45241E-04 1.21252E-05 8.27181E-25
 -1       790 1.45286E-04 1.11532E-05-1.65436E-24
 -1       791 1.45331E-04 1.02033E-05 0.00000E+00
 -1       792 1.45376E-04 9.27349E-06 0.00000E+00
 -1       793 1.45421E-04 8.36172E-06 0.00000E+00
 -1       794 1.45466E-04 7.46782E-06 1.65436E-24
 -1       795 1.45512E-04 6.59168E-06 0.00000E+00
 -1       796 1.45557E-04 5.73503E-06-1.65436E-24
 -1       797 1.45602E-04 4.89964E-06 8.27181E-25
 -1       798 1.45648E-04 4.08948E-06 1.65436E-24
 -1       799 1.45693E-04 3.30859E-06-8.27181E-25
 -1       800 1.45738E-04 2.56403E-06 0.00000E+00
 -1       801 1.18339E-04 1.43870E-05-2.64698E-23
 -1       802 3.69055E-05 9.56407E-06-1.32349E-23
 -1       803-3.68987E-05 5.22601E-06 5.29396E-23
 -1       804-4.12713E-05 3.47932E-06 2.64698E-23
 -1       805-1.51982E-05 1.63765E-06 0.00000E+00
 -1       806 1.45386E-04 1.51644E-05 1.65436E-24
 -1       807 1.45693E-04 1.40193E-05 0.00000E+00
 -1       808 1.45988E-04 1.29044E-05-1.65436E-24
 -1       809 1.46270E-04 1.18227E-05-1.65436E-24
 -1       810 1.46538E-04 1.07774E-05-1.65436E-24
 -1       811 1.46791E-04 9.77123E-06-8.27181E-25
 -1       812 1.47029E-04 8.80714E-06 1.65436E-24
 -1       813 1.47250E-04 7.88802E-06 8.27181E-25
 -1       814 1.47453E-04 7.01673E-06 3.30872E-24
 -1       815 1.47637E-04 6.19616E-06 0.00000E+00
 -1       816 1.47801E-04 5.42917E-06-3.30872E-24
 -1       817 1.47944E-04 4.71861E-06-1.65436E-24
 -1       818 1.48065E-04 4.06735E-06 1.65436E-24
 -1       819 1.48163E-04 3.47823E-06 0.00000E+00
 -1       820 1.48236E-04 2.95409E-06-3.30872E-24
 -1       821 1.45675E-04 1.08787E-06 0.00000E+00
 -1       822 1.45559E-04 1.23196E-07 0.00000E+00
 -1       823 1.45443E-04-9.11136E-07 0.00000E+00
 -1       824 1.45327E-04-1.89483E-06-1.65436E-24
 -1       825 1.45210E-04-2.71971E-06 0.00000E+00
 -1       826 1.45093E-04-3.27838E-06-1.65436E-24
 -1       827 1.44977E-04-3.52658E-06 3.30872E-24
 -1       828 1.44860E-04-3.42165E-06 0.00000E+00
 -1       829 1.44744E-04-3.00463E-06-3.30872E-24
 -1       830 1.44627E-04-2.31820E-06 0.00000E+00
 -1       831 1.44510E-04-1.46886E-06 0.00000E+00
 -1       832 1.44393E-04-5.64018E-07 1.65436E-24
 -1       833 1.44277E-04 2.75782E-07 0.00000E+00
 -1       834 1.44162E-04 9.30346E-07 0.00000E+00
 -1       835 1.44046E-04 1.32324E-06 0.00000E+00
 -1       836 1.46379E-04 1.96848E-06 0.00000E+00
 -1       837 1.46862E-04 2.07647E-06 1.65436E-24
 -1       838 1.47263E-04 2.18433E-06 0.00000E+00
 -1       839 1.47613E-04 2.29152E-06 0.00000E+00
 -1       840 1.47944E-04 2.39855E-06 0.00000E+00
 -1       856 1.43917E-04 1.33171E-06 0.00000E+00
 -1       857 1.43893E-04 1.40527E-06 0.00000E+00
 -1       858 1.43869E-04 1.58115E-06-4.13590E-25
 -1       859 1.43844E-04 1.84033E-06-4.13590E-25
 -1       860 1.43820E-04 2.16368E-06 8.27181E-25
 -1       861 1.43795E-04 2.53203E-06 0.00000E+00
 -1       862 1.43770E-04 2.92617E-06 8.27181E-25
 -1       863 1.43745E-04 3.32686E-06 4.13590E-25
 -1       864 1.43720E-04 3.71484E-06 0.00000E+00
 -1       865 1.43695E-04 4.07090E-06 0.00000E+00
 -1       866 1.43671E-04 4.37582E-06-8.27181E-25
 -1       867 1.43646E-04 4.61044E-06 0.00000E+00
 -1       868 1.43621E-04 4.75568E-06 0.00000E+00
 -1       869 1.43596E-04 4.79251E-06 0.00000E+00
 -1       870 1.43571E-04 4.70205E-06-8.27181E-25
 -1       871 1.44232E-04 1.37721E-06 0.00000E+00
 -1       872 1.44653E-04 1.37224E-06 0.00000E+00
 -1       873 1.45144E-04 1.36675E-06 0.00000E+00
 -1       874 1.45648E-04 1.36063E-06-1.55096E-25
 -1       875 1.46108E-04 1.35396E-06 2.06795E-25
 -1       876 1.44067E-04 1.34377E-06-3.30872E-24
 -1       877 1.44177E-04 1.36738E-06 0.00000E+00
 -1       878 1.44267E-04 1.44310E-06 0.00000E+00
 -1       879 1.44341E-04 1.56436E-06 0.00000E+00
 -1       880 1.44399E-04 1.72451E-06-3.30872E-24
 -1       881 1.44446E-04 1.91695E-06 1.65436E-24
 -1       882 1.44483E-04 2.13510E-06 0.00000E+00
 -1       883 1.44514E-04 2.37239E-06-1.65436E-24
 -1       884 1.44539E-04 2.62224E-06 0.00000E+00
 -1       885 1.44562E-04 2.87809E-06 0.00000E+00
 -1       886 1.44585E-04 3.13336E-06 0.00000E+00
 -1       887 1.44611E-04 3.38147E-06-1.65436E-24
 -1       888 1.44642E-04 3.61584E-06 0.00000E+00
 -1       889 1.44679E-04 3.82975E-06 0.00000E+00
 -1       890 1.44727E-04 4.01666E-06 0.00000E+00
 -1       891 1.43881E-04 4.41569E-06-1.65436E-24
 -1       892 1.44195E-04 4.36573E-06-8.27181E-25
 -1       893 1.44466E-04 4.31581E-06 8.27181E-25
 -1       894 1.44669E-04 4.26606E-06 4.13590E-25
 -1       895 1.44782E-04 4.21644E-06-4.13590E-25
 -1       956 1.48174E-04 2.18319E-06 3.30872E-24
 -1       957 1.48061E-04 1.94210E-06 8.27181E-25
 -1       958 1.47947E-04 1.76607E-06 1.65436E-24
 -1       959 1.47833E-04 1.64624E-06 0.00000E+00
 -1       960 1.47719E-04 1.57371E-06-3.30872E-24
 -1       961 1.47605E-04 1.53957E-06 0.00000E+00
 -1       962 1.47491E-04 1.53489E-06-3.30872E-24
 -1       963 1.47377E-04 1.55072E-06 0.00000E+00
 -1       964 1.47263E-04 1.57814E-06-3.30872E-24
 -1       965 1.47149E-04 1.60820E-06 0.00000E+00
 -1       966 1.47034E-04 1.63195E-06 0.00000E+00
 -1       967 1.46920E-04 1.64047E-06 1.65436E-24
 -1       968 1.46806E-04 1.62481E-06-3.30872E-24
 -1       969 1.46693E-04 1.57608E-06 0.00000E+00
 -1       970 1.46579E-04 1.48538E-06 3.30872E-24
 -1       971 1.46363E-04 1.21357E-06-1.65436E-24
 -1       972 1.46257E-04 1.17053E-06-8.27181E-25
 -1       973 1.46152E-04 1.20539E-06 3.30872E-24
 -1       974 1.46046E-04 1.30810E-06 0.00000E+00
 -1       975 1.45940E-04 1.46864E-06-3.30872E-24
 -1       976 1.45834E-04 1.67693E-06-1.65436E-24
 -1       977 1.45728E-04 1.92290E-06 3.30872E-24
 -1       978 1.45622E-04 2.19647E-06 0.00000E+00
 -1       979 1.45516E-04 2.48756E-06 0.00000E+00
 -1       980 1.45410E-04 2.78607E-06 0.00000E+00
 -1       981 1.45304E-04 3.08191E-06 0.00000E+00
 -1       982 1.45198E-04 3.36498E-06-1.65436E-24
 -1       983 1.45092E-04 3.62521E-06 0.00000E+00
 -1       984 1.44987E-04 3.85252E-06 0.00000E+00
 -1       985 1.44882E-04 4.03684E-06 0.00000E+00
 -3
    1PSTEP                        18           9           1          
  100CL  109 5.91797E-01         409                     0    9           1
 -4  STRESS      6    1
 -5  SXX         1    4    1    1
 -5  SYY         1    4    2    2
 -5  SZZ         1    4    3    3
 -5  SXY         1    4    1    2
 -5  SYZ         1    4    2    3
 -5  SZX         1    4    3    1
 -1         1-3.38637E+06-1.32823E+06-7.37407E+05-1.44740E+06-8.00355E-11-1.25438E-08
 -1         2 1.48370E+03-1.25472E+06 4.84550E+03 4.41844E+03 2.72649E-10-8.36797E-08
 -1         3-6.63965E+02-1.42763E+06 3.44544E+02-1.36136E+03-2.79641E-10 3.86353E-09
 -1         5-6.97616E+00 3.21045E+05 8.12318E+00-2.63627E-01-1.35949E-10 1.76096E-08
 -1         8-8.96926E+05-3.08281E+05-9.00303E+04-3.85625E+05-3.98359E-10 1.49557E-08
 -1         9 1.55676E+06-7.33772E+05 3.45302E+05-8.40998E+05 2.04309E-08 3.19676E-08
 -1        10-1.56057E+03-1.48748E+06-2.80676E+03-9.20471E+03-9.36780E-09-2.41303E-08
 -1        12-3.65146E+00 3.21062E+05 2.63345E+02-1.94412E+00-2.07450E-10 3.74675E-08
 -1        15 1.59393E+03 8.75954E+02 5.15236E+03 2.88694E+00-1.25411E-10 5.15133E-08
 -1        16 5.22669E+06-6.30522E+05 7.50664E+05-1.09156E+06 1.71907E-08 8.96398E-08
 -1        17 1.60296E+06 1.04872E+06 4.76675E+05 1.15357E+06 5.73345E-09 2.59955E-08
 -1        18 3.43702E+04 4.33576E+03-1.72364E+04-9.28604E+04 1.14094E-08 3.87490E-09
 -1        19 1.03781E+05 1.18857E+05-8.27256E+02 1.97832E+04 3.50155E-10 4.97384E-09
 -1        20-5.94886E+04-4.87809E+05-1.08751E+05 2.71273E+04 8.67052E-10-2.19916E-09
 -1        21-4.23013E+01-2.64237E+05-8.36515E+02 5.74145E+01-1.11613E-07-7.23102E-09
 -1        24 2.25557E+06 2.58268E+06 9.17270E+05 2.23510E+06-9.72165E-08-4.05804E-08
 -1        25-5.19523E+04-3.87568E+05-6.73668E+04-2.83261E+05 3.06591E-10 5.88789E-09
 -1        26-4.21438E+04 7.73798E+04-2.02765E+04-2.64762E+03 1.02118E-09 7.16361E-09
 -1        27-6.90306E+04-2.64845E+05-9.79237E+04 5.94572E+04 5.01374E-09-3.23477E-09
 -1        28 2.01674E+04-7.48776E+04 1.50324E+04 2.04083E+04-1.88749E-10-4.42879E-09
 -1        32-1.47967E+06-2.51004E+06-1.15091E+05-1.87423E+05-3.11702E-08-7.85730E-09
 -1        33-1.54334E+05 7.74626E+04 2.74372E+04-3.51422E+04-6.75110E-10 6.69813E-09
 -1        34-1.94030E+05-2.04900E+04 5.45608E+02 6.30215E+04-5.83408E-10-3.65935E-09
 -1        35-2.06267E+04-2.97221E+04-1.17681E+03 4.60152E+04 5.40240E-10-1.00481E-08
 -1        51 3.60750E+04-2.74003E+05 8.07419E+04-7.86270E+05 8.73115E-11-1.42463E-08
 -1        52 1.46703E+04-2.63185E+05 4.56492E+04-9.16813E+05 2.03727E-10-8.30041E-08
 -1        53 5.93839E+03-2.77964E+05 2.89824E+04-7.83439E+05 4.00178E-10-9.47184E-08
 -1        54 1.52292E+04-2.75284E+05 3.43408E+04-9.19759E+05 8.44011E-10-4.94474E-08
 -1        55 3.10480E+04-2.86732E+05 5.40521E+04-7.83004E+05 1.01136E-09 2.03690E-08
 -1        56-6.43062E+06-7.21527E+05-5.44432E+05-2.49969E+06 8.00355E-09-8.96107E-08
 -1        57-6.71453E+06-1.15073E+06-3.67318E+05-2.40388E+06 5.46061E-09 3.62343E-09
 -1        58-6.52870E+06-9.05916E+05-1.27952E+05-2.47817E+06-5.06407E-09-4.11164E-08
 -1        59-6.60369E+06-9.31678E+05-7.63585E+04-2.42660E+06-9.33915E-09-1.10140E-09
 -1        60-6.53985E+06-9.34702E+05-2.97970E+04-2.47883E+06 1.03319E-09 1.14014E-08
 -1        61-6.58873E+06-8.99884E+05-1.69129E+04-2.42802E+06 9.95669E-09 4.27174E-08
 -1        62-6.54332E+06-9.36903E+05-8.06925E+03-2.47696E+06-1.28387E-09 7.91133E-08
 -1        63-6.57875E+06-9.03706E+05-6.52582E+03-2.43676E+06-5.56747E-09 8.11706E-08
 -1        64-6.54962E+06-9.30888E+05-7.39500E+03-2.46999E+06 4.65252E-09 4.27060E-08
 -1        65-6.56539E+06-9.21591E+05-1.46778E+04-2.45323E+06 2.02181E-09-1.29361E-07
 -1        66-6.55657E+06-9.19196E+05-2.58163E+04-2.46037E+06-5.98175E-09-4.36285E-08
 -1        67-6.56378E+06-9.63537E+05-6.56855E+04-2.46886E+06-2.08138E-09-3.89264E-08
 -1        68-6.55160E+06-8.89581E+05-1.10129E+05-2.45425E+06-1.18616E-08 4.68572E-08
 -1        69-6.65696E+06-1.15481E+06-3.16067E+05-2.45303E+06-1.54396E-08 1.62690E-08
 -1        70-6.46518E+06-7.32782E+05-4.68502E+05-2.47486E+06 6.64295E-09 1.69384E-08
 -1        86-7.54863E+02-1.25701E+06 5.04106E+03-2.20923E+03-1.38300E-09-3.62285E-08
 -1        87 4.88952E+03-1.25334E+06 1.06723E+04 7.81663E+03-2.33695E-09 1.21360E-08
 -1        88-4.13020E+03-1.25841E+06 1.62800E+04-5.60748E+03-2.53749E-09 5.77933E-08
 -1        89 3.07392E+04-1.24171E+06 4.38907E+04 1.20196E+04-4.03634E-09 2.02248E-08
 -1        90-2.64905E+04-1.26864E+06 6.20836E+04-6.41252E+03-3.06318E-09 5.23577E-08
 -1       121-9.30176E+02-1.42994E+06-5.66547E+01 6.77734E+02 1.02038E-09-1.74841E-08
 -1       122-5.28410E+02-1.42762E+06 7.04872E+02-2.72012E+03-3.49537E-09 1.16488E-08
 -1       123-9.82261E+02-1.43004E+06 7.34896E+02 2.02484E+03 2.85434E-09 5.48243E-09
 -1       124 8.75128E+02-1.42698E+06 2.84648E+03-5.72704E+03-6.68933E-09 1.32295E-08
 -1       125-1.79197E+03-1.43082E+06 3.91536E+03 3.67181E+03 4.68026E-09-8.28004E-09
 -1       191-7.59285E+00 3.21072E+05 9.65365E+00 1.32725E-01-1.59518E-10 2.00353E-08
 -1       192-7.72360E+00 3.21046E+05 1.72013E+01-1.00756E+00-2.43247E-10 2.14059E-08
 -1       193-9.57938E+00 3.21072E+05 3.19348E+01 8.81008E-01-3.68670E-10 7.86258E-09
 -1       194-1.01285E+01 3.21048E+05 6.50672E+01-2.34856E+00-1.93771E-10 2.36923E-09
 -1       195-1.33965E+01 3.21070E+05 1.27218E+02 1.48383E+00-4.50058E-10 1.02264E-08
 -1       251-1.83268E+06-7.74135E+03-1.33315E+05-1.00219E+05 1.16415E-09-5.61777E-08
 -1       252-1.33389E+06 1.12780E+04 9.47812E+03 3.08059E+05 7.23458E-09 1.80717E-08
 -1       253-1.60579E+06-6.10302E+03-2.44488E+04-2.06405E+05-6.63385E-09-5.82750E-08
 -1       254-1.56432E+06 3.16698E+04 9.81013E+02 4.06981E+05 1.35122E-08 2.75668E-09
 -1       255-1.62550E+06-9.19121E+03-1.37209E+04-2.00720E+05 1.22182E-08 1.61444E-08
 -1       256-1.28346E+06 2.67674E+04 6.08277E+04 2.86358E+05-1.26252E-08 9.47398E-09
 -1       257-1.85926E+06-2.34256E+04-6.05861E+04-8.40484E+04-1.16888E-08-6.25727E-08
 -1       258-1.03241E+06 2.08161E+04 1.09214E+05-6.66363E+03-6.28370E-09 1.15904E-08
 -1       259-1.85194E+06-2.31888E+04-5.76797E+04 9.11404E+04 3.03589E-09 4.57656E-08
 -1       260-1.29982E+06 2.85326E+04 6.14997E+04-2.95121E+05 6.61385E-09-5.57216E-08
 -1       261-1.61811E+06-9.84516E+03-5.16588E+03 2.03431E+05 5.35783E-08-3.08537E-08
 -1       262-1.56124E+06 3.99249E+04 1.78502E+04-4.06746E+05-3.92313E-08-4.73423E-08
 -1       263-1.61632E+06-1.36175E+04 1.28117E+03 2.04458E+05 1.32122E-08-2.35582E-08
 -1       264-1.29286E+06 6.32432E+04 8.70104E+04-2.99689E+05 9.41391E-08 1.11948E-07
 -1       265-1.86147E+06-5.33579E+04-2.94124E+04 9.47132E+04 3.44899E-08 3.21561E-08
 -1       266-2.88550E+04-1.34918E+04 6.77059E+04-6.17746E+01 5.45697E-11 8.17455E-08
 -1       267 3.34513E+04 1.57262E+04 4.78516E+04 7.12717E+01 3.27418E-11 1.47279E-08
 -1       268-4.48575E+03-2.22721E+03 1.77863E+04-9.08147E+00 5.91172E-11-5.19453E-09
 -1       269 5.29637E+03 2.66557E+03 1.15607E+04 1.05783E+01-7.16227E-12-6.76028E-08
 -1       270-7.94992E+02-4.37970E+02 5.58053E+03-1.43556E+00-5.72982E-11-3.48442E-09
 -1       271-2.64195E+06-3.25341E+05-1.98148E+05-1.02170E+06 2.20825E-09-1.89902E-09
 -1       272-2.74134E+06-4.42726E+05-1.27556E+05-9.88926E+05-3.87558E-09-5.89134E-08
 -1       273-2.67877E+06-3.75403E+05-4.67838E+04-1.01338E+06 1.88197E-09-1.79170E-09
 -1       274-2.69760E+06-3.81817E+05-2.62289E+04-1.00173E+06-2.07365E-10 1.35105E-09
 -1       275-2.68451E+06-3.80023E+05-1.09072E+04-1.01113E+06 6.17911E-09 2.19252E-08
 -1       276-2.68962E+06-3.77370E+05-5.75156E+03-1.00588E+06 9.65110E-09-5.25224E-08
 -1       277-2.68654E+06-3.79262E+05-2.84909E+03-1.00940E+06 7.28232E-09-6.00030E-08
 -1       278-2.68605E+06-3.79545E+05-1.92754E+03-1.00932E+06-1.35387E-08-2.12049E-08
 -1       279-2.68805E+06-3.77807E+05-2.05678E+03-1.00770E+06-1.02318E-09-8.88213E-09
 -1       280-2.68348E+06-3.82834E+05-3.53597E+03-1.01263E+06 1.64873E-08 4.76297E-08
 -1       281-2.68916E+06-3.75977E+05-6.48699E+03-1.00611E+06-1.72622E-09-5.74414E-09
 -1       282-2.68380E+06-3.89788E+05-1.53797E+04-1.01524E+06 8.26549E-09 1.31692E-08
 -1       283-2.68789E+06-3.71171E+05-2.74116E+04-1.00503E+06-8.09723E-09-5.95937E-08
 -1       284-2.70546E+06-4.29403E+05-7.46473E+04-1.01234E+06-1.68911E-08-1.29588E-07
 -1       285-2.66824E+06-3.39999E+05-1.16007E+05-1.00775E+06 5.25688E-09 1.51340E-08
 -1       301 2.15181E+04-2.69951E+05 1.73229E+05-5.02120E+05 3.78350E-10 7.28833E-08
 -1       302 2.30529E+04-2.26455E+05 1.09160E+05-7.34687E+05-6.51198E-10 7.26368E-09
 -1       303-2.60176E+02-2.53357E+05 7.51310E+04-5.00993E+05-8.36735E-11 9.87711E-10
 -1       304 1.87596E+04-2.26924E+05 9.89777E+04-7.34148E+05-1.89175E-10-3.54103E-08
 -1       305 1.59577E+04-2.64069E+05 1.50326E+05-5.02692E+05 7.27596E-12-1.88447E-09
 -1       306-1.38869E+07-2.26504E+06-2.96770E+06-1.98210E+06-4.18513E-08-7.49133E-08
 -1       307 5.69155E+06-1.36482E+06 1.60173E+06-6.37630E+06-4.37067E-07 5.51954E-08
 -1       308-8.02643E+06 2.83857E+05-3.11742E+05 1.27160E+06-8.61182E-08 1.95618E-07
 -1       309-3.29774E+06-9.66617E+05 4.75469E+05-1.05269E+07 2.34459E-07-7.59246E-08
 -1       310-8.46314E+06 1.98863E+05-3.47996E+05 1.13914E+06-2.15368E-09-4.71609E-08
 -1       311 6.68477E+06-1.65116E+06 1.95910E+06-5.55631E+06 3.61979E-07-9.89021E-08
 -1       312-1.39719E+07-2.26319E+06-2.42968E+06-2.44094E+06 9.02219E-08 1.55909E-07
 -1       313 1.10975E+07 2.32817E+06 3.27506E+06 4.43028E+06-2.77156E-07 1.61242E-07
 -1       314-1.05950E+07-5.32832E+06-2.34763E+06-5.68666E+06 2.63914E-07-5.47443E-08
 -1       315-3.61009E+06 7.87503E+06 1.83735E+06 4.26801E+06-2.01922E-07 3.49391E-08
 -1       316-3.04494E+06-4.83006E+06-2.51277E+05-4.30273E+06-5.09244E-07-1.91445E-07
 -1       317-1.27387E+07 8.44856E+06 4.59690E+05-3.40919E+05 5.52576E-07-3.02516E-07
 -1       318-3.20572E+06-4.90186E+06-4.31970E+05-4.34542E+06-4.91462E-07-4.27826E-09
 -1       319-3.03494E+06 8.06430E+06 1.65686E+06 4.36540E+06-8.91741E-08 6.19621E-08
 -1       320-1.09139E+07-5.50851E+06-3.15030E+06-5.61317E+06 9.81963E-08-2.78305E-08
 -1       336 3.20264E+02-1.54796E+06-1.04972E+04 5.48244E+03-1.82108E-08 4.14730E-10
 -1       337-3.98758E+03-1.54912E+06-1.29909E+04-1.33026E+04-3.32329E-08-7.96899E-09
 -1       338 6.07459E+02-1.54782E+06-1.90294E+04 7.73916E+03-2.36396E-08 9.67339E-09
 -1       339-2.01591E+04-1.55986E+06-4.27857E+04-1.77052E+04-4.23643E-08 2.40798E-08
 -1       340 1.34793E+04-1.53816E+06-6.69219E+04 9.82544E+03-2.84326E-08 2.60043E-08
 -1       406 1.64091E+01 3.21058E+05 5.19842E+02 4.84350E-01-5.24594E-10 1.52295E-08
 -1       407 1.77625E+02 3.21153E+05 1.10495E+03 7.63393E+00-1.75021E-10-1.23032E-08
 -1       408 5.65100E+02 3.20978E+05 2.20671E+03-8.32941E+00-8.01094E-10 7.88259E-09
 -1       409 2.38269E+03 3.21858E+05 4.96795E+03 8.42347E+01-1.31209E-10 5.80280E-09
 -1       410 6.85237E+03 3.20350E+05 1.01418E+04-7.99316E+01-8.42192E-10 3.52838E-09
 -1       521-1.60274E+07-2.90730E+06-3.72475E+06-2.07297E+06-6.22822E-08 1.07102E-07
 -1       522 6.36532E+06-1.51030E+06 1.74345E+06-8.26209E+06-3.29223E-07-1.18482E-07
 -1       523-9.43381E+06 2.11909E+05-3.70645E+05 1.60834E+06 8.32079E-08-1.35537E-07
 -1       524-4.87864E+06-3.66452E+05 5.71568E+05-1.30959E+07 5.28335E-07-3.89839E-07
 -1       525-9.97286E+06 7.81509E+04-4.20171E+05 1.44955E+06 5.51983E-07-1.14082E-07
 -1       526 7.80018E+06-1.89337E+06 2.24064E+06-7.18926E+06 3.07482E-07-7.03294E-08
 -1       527-1.61644E+07-2.98001E+06-3.00719E+06-2.63651E+06 1.11235E-07-2.92930E-08
 -1       528 1.32369E+07 2.65937E+06 3.70491E+06 5.42443E+06 1.81026E-07-8.38190E-09
 -1       529-1.21665E+07-6.61509E+06-2.90314E+06-6.45144E+06 1.06054E-07-5.22123E-08
 -1       530-4.99190E+06 9.98942E+06 2.11051E+06 4.87973E+06-1.59853E-07 3.66243E-07
 -1       531-3.51199E+06-5.93710E+06-2.91784E+05-5.00088E+06-4.90967E-07 7.19010E-08
 -1       532-1.58625E+07 1.05985E+07 5.75938E+05-1.38192E+06 2.27468E-07-3.82337E-07
 -1       533-3.64515E+06-6.00611E+06-4.76640E+05-5.02668E+06 2.61934E-10-5.88625E-07
 -1       534-4.45625E+06 1.02613E+07 1.91337E+06 4.94335E+06-5.35001E-08 4.27666E-07
 -1       535-1.24826E+07-6.87198E+06-3.77838E+06-6.36368E+06 3.51574E-08 2.58355E-07
 -1       536-5.30041E+05-3.42883E+04 9.41529E+03-3.17168E+04-3.45381E-09 3.58887E-08
 -1       537-2.25027E+05 3.52947E+04 5.93879E+04 7.70454E+04-7.72177E-08 5.39012E-08
 -1       538-3.83874E+05-3.72344E+02 9.84123E+03-4.70796E+04 1.77554E-08 8.01560E-08
 -1       539-3.26107E+05 3.19196E+03 1.61446E+04 8.84641E+04 1.11959E-07 6.98221E-08
 -1       540-4.31326E+05-2.67616E+02-7.73195E+03-4.32905E+04 2.28263E-08 6.86811E-08
 -1       541-1.34140E+05 8.00541E+03 5.01637E+04 5.79201E+04-1.38459E-09 6.80719E-08
 -1       542-5.70696E+05-9.41936E+03-3.84758E+04-1.62740E+04 1.25069E-08 3.55759E-08
 -1       543-1.85727E+04 1.25750E+04 7.22403E+04-9.52500E+03-1.08573E-08-7.41397E-09
 -1       544-5.43822E+05-7.35368E+03-3.40046E+04 2.39437E+04 1.11118E-08-3.55749E-08
 -1       545-1.95457E+05 3.67196E+03 3.46333E+04-7.06499E+04 5.26404E-09-5.03561E-08
 -1       546-3.98507E+05 3.33102E+03-6.47475E+03 4.47577E+04 1.12942E-08-4.94977E-08
 -1       547-3.37415E+05-4.33361E+03 7.44717E+02-9.06554E+04-7.47541E-08-7.66776E-08
 -1       548-4.05619E+05 3.73977E+03-1.69768E+04 4.41566E+04-7.49228E-08-5.94241E-08
 -1       549-1.83548E+05-4.03141E+03 1.22147E+04-6.75654E+04-4.26198E-08-2.70516E-08
 -1       550-5.48186E+05-4.20939E+02-8.21648E+04 2.14453E+04 5.68843E-09-3.15686E-08
 -1       551 2.80256E+04-7.04001E+05 1.42254E+04-1.10319E+06-7.23230E-08 2.44472E-09
 -1       552 6.24908E+04-7.28023E+05 2.67557E+04-1.57250E+06-5.14992E-08 2.59024E-08
 -1       553 4.61911E+04-7.30907E+05 4.32253E+04-1.09834E+06-8.44739E-08 3.40151E-08
 -1       554 9.38197E+04-7.32078E+05 9.40118E+04-1.57431E+06-5.56756E-08 1.98997E-08
 -1       555 7.54290E+04-7.51641E+05 1.67690E+05-1.09886E+06-8.69186E-08-1.22018E-08
 -1       556 1.54280E+05-2.76089E+05 5.79119E+04-3.22937E+05-2.02126E-08-2.18279E-10
 -1       557 2.57641E+05-3.59198E+05 3.15088E+04-4.11107E+05-8.71660E-09 1.21781E-08
 -1       558 1.46472E+05-2.79356E+05 1.10309E+04-3.19397E+05-1.59489E-08 5.01313E-09
 -1       559 2.39398E+05-3.65425E+05 6.12358E+03-4.22754E+05 1.38389E-08 4.94401E-09
 -1       560 1.38419E+05-2.74236E+05 1.53050E+03-3.24991E+05 7.52334E-09 1.21727E-08
 -1       561 2.28810E+05-3.61535E+05 1.19804E+03-4.29767E+05-2.73576E-09 1.71531E-08
 -1       562 1.32080E+05-2.70225E+05-6.95483E+01-3.29545E+05-3.92902E-09 1.21909E-08
 -1       563 2.21341E+05-3.58280E+05 2.82101E+02-4.34596E+05-1.57743E-08-1.27238E-08
 -1       564 1.27738E+05-2.67499E+05-9.52798E+01-3.32611E+05-3.47791E-09 3.44107E-09
 -1       565 2.16712E+05-3.56268E+05 1.14267E+02-4.37539E+05 4.89672E-09-1.93813E-09
 -1       566 1.25469E+05-2.66055E+05-4.57807E+01-3.34202E+05-3.28146E-09-8.25275E-09
 -1       567 2.14905E+05-3.55473E+05-1.44427E+02-4.38583E+05 1.20672E-08-4.10000E-09
 -1       568 1.25331E+05-2.65983E+05-5.73156E+02-3.34393E+05-1.84627E-10 9.98989E-09
 -1       569 2.14876E+05-3.55429E+05-1.44160E+03-4.36851E+05-1.68802E-09 1.54650E-08
 -1       570 1.28161E+05-2.68424E+05-3.28398E+03-3.33774E+05 7.74162E-09 1.87542E-08
 -1       571 2.46148E+05 8.97892E+03 1.32539E+04-6.88735E+04-9.15497E-09-1.05449E-08
 -1       572 2.48116E+05 3.20828E+03 6.49983E+03-7.56904E+04-1.57074E-08-8.11406E-09
 -1       573 2.46938E+05 8.53754E+02 2.88926E+03-6.87275E+04-8.54470E-09-1.23050E-08
 -1       574 2.47153E+05 3.85693E+02 1.44930E+03-7.58642E+04 3.26963E-09-2.77032E-09
 -1       575 2.47024E+05 1.69096E+02 6.84544E+02-6.87081E+04-3.31681E-09-1.58643E-08
 -1       576 2.47029E+05 1.60656E+02 3.50095E+02-7.58872E+04-7.18364E-09-2.04718E-08
 -1       577 2.47048E+05 1.28352E+02 1.74881E+02-6.87055E+04 2.61434E-09-1.85901E-09
 -1       578 2.47034E+05 1.40398E+02 1.00403E+02-7.58902E+04 1.65287E-08 1.58589E-08
 -1       579 2.47083E+05 1.13041E+02 6.95228E+01-6.87052E+04 1.25883E-08-1.04137E-09
 -1       580 2.47084E+05 1.17165E+02 7.96239E+01-7.58864E+04-2.03909E-09-5.87625E-09
 -1       581 2.47139E+05 8.70453E+01 1.22294E+02-6.87094E+04 3.13048E-09 1.73122E-09
 -1       582 2.47181E+05 1.13795E+02 2.45839E+02-7.58424E+04 2.66482E-10-8.24048E-09
 -1       583 2.47204E+05 1.54922E+02 4.76256E+02-6.87494E+04-4.29281E-10-4.96584E-09
 -1       584 2.47439E+05 5.32778E+02 1.07292E+03-7.55027E+04 5.08589E-09 1.09926E-08
 -1       585 2.47161E+05 1.45836E+03 2.17729E+03-6.90491E+04 1.83900E-09 1.51413E-08
 -1       586-3.05616E+03 8.49982E+04-3.39519E+03-2.15658E+05-3.83261E-09-1.84411E-09
 -1       587-8.81426E+02 8.46122E+04 1.10955E+02-2.37372E+05-3.71801E-09-5.07907E-09
 -1       588 6.62405E+02 8.45983E+04 3.61290E+03-2.15553E+05-1.91721E-09 3.90173E-09
 -1       589 4.51932E+03 8.65363E+04 9.84566E+03-2.37131E+05-4.23461E-09 1.09139E-11
 -1       590 1.37909E+04 8.35140E+04 2.08393E+04-2.15925E+05-2.65572E-09 1.81899E-12
 -1       591-5.39717E+04-1.30219E+04-1.76564E+04-2.48095E+04-1.76442E-10-6.33190E-09
 -1       592-5.66603E+04-1.63254E+04-9.56387E+03-2.82376E+04-4.47321E-09-3.69664E-09
 -1       593-5.57424E+04-1.17357E+04-3.98116E+03-2.60994E+04 1.90255E-10 9.24729E-09
 -1       594-5.42154E+04-1.37423E+04-1.98557E+03-2.83394E+04-1.32917E-09 6.82107E-09
 -1       595-5.58776E+04-1.17310E+04-9.11914E+02-2.61582E+04-1.75098E-09 1.38461E-08
 -1       596-5.40485E+04-1.36242E+04-4.63990E+02-2.83203E+04 2.29119E-09 3.05030E-09
 -1       597-5.58946E+04-1.17428E+04-2.53526E+02-2.61604E+04 1.78181E-09 2.21434E-09
 -1       598-5.40322E+04-1.36196E+04-2.05406E+02-2.83149E+04-1.71858E-09-6.44917E-09
 -1       599-5.58934E+04-1.17431E+04-2.64375E+02-2.61600E+04 2.09377E-09-6.42137E-09
 -1       600-5.40491E+04-1.36251E+04-4.92716E+02-2.83190E+04 2.42017E-09-6.79120E-09
 -1       601-5.58731E+04-1.17314E+04-9.72848E+02-2.61569E+04 2.32239E-09-4.76871E-09
 -1       602-5.42269E+04-1.37507E+04-2.12065E+03-2.83364E+04-8.86757E-11 6.75891E-09
 -1       603-5.57265E+04-1.17388E+04-4.25301E+03-2.60947E+04 6.38465E-10 3.37423E-10
 -1       604-5.68522E+04-1.64952E+04-1.02165E+04-2.82086E+04 4.27349E-09 2.68778E-09
 -1       605-5.38191E+04-1.31264E+04-1.88614E+04-2.47315E+04 2.78698E-09 1.30522E-08
 -1       606 2.70717E+04-1.18080E+04-2.12063E+04 2.55603E+04-8.33916E-09 4.88717E-09
 -1       607 2.34446E+04-3.83666E+03-1.05601E+04 2.87045E+04-2.08674E-08-6.50834E-09
 -1       608 2.55066E+04-6.73495E+02-4.72821E+03 2.53649E+04-1.14978E-08-1.00931E-08
 -1       609 2.51041E+04-2.07662E+02-2.38830E+03 2.89303E+04 2.22644E-09 5.76574E-09
 -1       610 2.53230E+04-5.91108E+00-1.14013E+03 2.53426E+04 1.07138E-09 5.19321E-10
 -1       611 2.52536E+04 1.41905E+00-5.74835E+02 2.89548E+04-2.54340E-09-2.94813E-09
 -1       612 2.52778E+04 9.32479E+00-2.73977E+02 2.53404E+04 6.25096E-09 1.30062E-08
 -1       613 2.52567E+04 8.43100E+00-1.23371E+02 2.89577E+04 1.40826E-08-1.48232E-08
 -1       614 2.52545E+04 7.22715E+00-3.07319E+01 2.53396E+04-9.95988E-09 6.98310E-09
 -1       615 2.52471E+04 1.24954E+01 4.76031E+01 2.89582E+04-3.24039E-08 9.00036E-09
 -1       616 2.52365E+04 1.21391E+01 1.46481E+02 2.53399E+04-1.86660E-08-5.52495E-09
 -1       617 2.52609E+04 4.60540E+01 3.35810E+02 2.89577E+04 1.21690E-09-2.43517E-10
 -1       618 2.52045E+04 1.10746E+02 6.77382E+02 2.53401E+04-3.57250E-09 1.06068E-08
 -1       619 2.54977E+04 5.71282E+02 1.52152E+03 2.89569E+04-3.50656E-09 4.44106E-09
 -1       620 2.49781E+04 1.71834E+03 3.05826E+03 2.53397E+04-2.03715E-09 1.23600E-09
 -1       621 3.23260E+02 2.50231E+05 2.84246E+03 2.30659E+04 2.92175E-10 1.22982E-08
 -1       622 4.06244E+02 2.50917E+05 2.61191E+03 3.35355E+04 4.21096E-10-1.51247E-08
 -1       623 4.36204E+01 2.50386E+05 3.25900E+03 2.29575E+04 4.24450E-10-8.43784E-09
 -1       624 1.58940E+03 2.51967E+05 6.41372E+03 3.36450E+04 5.86205E-10-1.84355E-09
 -1       625 1.58656E+03 2.49120E+05 1.12547E+04 2.29544E+04 5.46606E-10 1.13482E-09
 -1       626 2.19697E+05 5.55702E+04 4.62415E+03 1.11563E+05 1.16925E-08-6.18456E-11
 -1       627 2.17355E+05 5.70808E+04 2.22831E+03 1.15697E+05 2.60425E-08 1.00099E-08
 -1       628 2.19828E+05 5.34340E+04 9.41857E+02 1.12323E+05 9.59972E-09-3.72211E-09
 -1       629 2.16752E+05 5.64935E+04 4.61082E+02 1.15938E+05 5.56020E-09 5.96032E-09
 -1       630 2.19839E+05 5.33322E+04 2.13359E+02 1.12351E+05 1.09958E-09 5.89449E-09
 -1       631 2.16684E+05 5.64742E+04 1.14234E+02 1.15939E+05 1.93586E-09 1.24402E-08
 -1       632 2.19832E+05 5.33380E+04 7.41525E+01 1.12345E+05 3.42470E-09-1.70805E-08
 -1       633 2.16672E+05 5.64780E+04 8.10391E+01 1.15933E+05-3.37241E-09-2.23054E-08
 -1       634 2.19824E+05 5.33374E+04 1.29556E+02 1.12342E+05 2.70393E-09 1.10940E-08
 -1       635 2.16681E+05 5.64781E+04 2.61376E+02 1.15935E+05-1.77647E-09-3.91924E-09
 -1       636 2.19814E+05 5.33342E+04 5.27406E+02 1.12340E+05 7.04290E-10-2.19734E-09
 -1       637 2.16792E+05 5.65607E+04 1.15912E+03 1.15933E+05 5.00677E-10 8.71205E-09
 -1       638 2.19771E+05 5.35912E+04 2.38168E+03 1.12223E+05 5.91535E-09-1.71649E-08
 -1       639 2.18043E+05 5.83004E+04 5.63471E+03 1.15563E+05 2.50006E-08-7.15886E-09
 -1       640 2.19601E+05 5.87823E+04 1.16931E+04 1.10028E+05 1.21699E-08-6.53336E-09
 -1       656 5.72232E+04-1.45808E+06-1.38137E+05-1.08879E+03-2.18279E-11 9.97906E-09
 -1       657-7.56717E+04-1.52047E+06-1.14368E+05 6.80890E+03 5.82077E-11 1.44702E-10
 -1       658 1.82101E+04-1.47583E+06-7.03500E+04-2.72694E+03 5.33646E-10 3.22009E-09
 -1       659-8.15897E+04-1.52328E+06-1.22143E+05 8.05172E+03-8.91305E-10 1.34292E-08
 -1       660 6.31276E+04-1.45529E+06-1.51505E+05-2.33159E+03-1.06957E-09 1.25156E-08
 -1       661 1.63100E+05 1.74288E+04 1.64355E+04 6.37805E+04 9.81345E-10 1.21408E-08
 -1       662 1.72076E+05 2.99103E+04 1.10756E+04 6.04533E+04-3.11957E-10-7.03596E-09
 -1       663 1.66327E+05 2.27030E+04 3.87393E+03 6.28458E+04-2.12026E-09-9.44738E-09
 -1       664 1.68339E+05 2.37401E+04 2.31680E+03 6.15931E+04 1.70314E-09-9.76024E-09
 -1       665 1.66814E+05 2.34256E+04 9.13961E+02 6.27058E+04-1.07207E-09-5.03661E-10
 -1       666 1.67764E+05 2.29120E+04 5.34078E+02 6.17746E+04-6.26557E-11 1.61098E-08
 -1       667 1.66897E+05 2.35094E+04 2.82858E+02 6.26723E+04-1.50072E-09 5.23696E-09
 -1       668 1.67673E+05 2.28493E+04 2.86295E+02 6.18232E+04 4.86864E-10-1.50255E-09
 -1       669 1.66904E+05 2.34864E+04 3.86043E+02 6.26576E+04 2.99849E-11 1.09724E-08
 -1       670 1.67768E+05 2.30570E+04 8.39148E+02 6.18249E+04-1.51397E-09-6.73053E-09
 -1       671 1.66803E+05 2.33060E+04 1.48948E+03 6.26687E+04-1.09133E-09-3.15407E-09
 -1       672 1.68636E+05 2.45059E+04 3.81041E+03 6.16148E+04 3.72552E-09 2.87599E-09
 -1       673 1.66041E+05 2.20740E+04 6.38549E+03 6.28538E+04 1.80535E-10-1.26679E-08
 -1       674 1.74715E+05 3.47633E+04 1.82611E+04 5.98276E+04-2.30699E-09-2.03311E-08
 -1       675 1.60763E+05 1.33357E+04 2.71057E+04 6.43479E+04-1.04183E-09-1.55414E-08
 -1       676 2.17094E+01-2.64168E+05-1.00822E+03-2.87079E+01 1.98384E-11-9.38480E-09
 -1       677-2.67714E+02-2.64411E+05-1.84519E+03 5.73775E+01 2.02090E-09-8.67208E-10
 -1       678 1.78745E+02-2.63994E+05-3.26182E+03-2.86502E+01 1.52681E-10-4.30890E-09
 -1       679-3.26276E+03-2.66380E+05-7.74861E+03 5.71560E+01 1.83809E-09 1.42444E-08
 -1       680 1.94728E+03-2.62200E+05-1.24881E+04-2.81650E+01 1.25056E-10-6.04938E-10
 -1       771-2.78094E+06-5.99821E+05-1.01580E+05-1.26775E+06-2.33849E-08-2.10421E-08
 -1       772-2.72953E+06-6.64404E+05-5.29288E+04-1.34173E+06-1.37952E-08 7.91988E-09
 -1       773-2.79969E+06-5.85036E+05-2.58036E+04-1.27494E+06-9.69158E-09 6.77392E-09
 -1       774-2.72065E+06-6.53626E+05-1.17649E+04-1.35592E+06 2.41562E-08 2.40834E-09
 -1       775-2.80827E+06-5.78959E+05-8.02144E+03-1.27783E+06-2.18279E-09 2.06637E-09
 -1       776-2.72570E+06-6.52681E+05-3.12981E+03-1.36597E+06-9.79344E-09 2.16460E-09
 -1       777-2.81546E+06-5.73706E+05-3.27132E+03-1.28035E+06 5.09317E-10 3.32511E-09
 -1       778-2.73119E+06-6.51905E+05-9.71834E+02-1.37453E+06 1.30967E-09-1.07866E-09
 -1       779-2.82153E+06-5.69189E+05-1.55375E+03-1.28251E+06-6.34464E-09-5.45333E-09
 -1       780-2.73602E+06-6.51142E+05-2.73731E+02-1.38148E+06-2.79397E-09 4.97494E-10
 -1       781-2.82629E+06-5.65584E+05-5.91533E+02-1.28421E+06-2.52330E-08-7.17955E-09
 -1       782-2.73971E+06-6.50463E+05 1.95911E+02-1.38659E+06-2.71430E-08-4.61387E-09
 -1       783-2.82962E+06-5.63112E+05 3.07155E+02-1.28540E+06-3.88536E-09-1.05190E-08
 -1       784-2.74172E+06-6.49652E+05 1.30419E+03-1.38972E+06-8.17818E-09 5.77757E-09
 -1       785-2.83154E+06-5.61667E+05 2.29693E+03-1.28617E+06-2.47164E-08 5.45515E-09
 -1       786 1.26192E+05-9.25140E+03 2.14029E+04-1.76562E+02 1.62734E-09 4.53565E-09
 -1       787 1.35473E+05 1.07103E+04 1.51419E+04-1.35505E+01 5.28958E-09-3.32147E-09
 -1       788 1.29770E+05-1.45009E+03 5.53793E+03-1.48125E+02 1.40147E-09 9.40736E-09
 -1       789 1.31303E+05 1.67778E+03 3.47731E+03-5.87957E+01-9.32128E-10-6.86799E-09
 -1       790 1.30361E+05-2.26185E+02 1.40967E+03-1.31325E+02-1.68518E-09 2.77765E-09
 -1       791 1.30613E+05 2.61459E+02 8.17649E+02-8.78827E+01-1.54816E-09-9.33608E-09
 -1       792 1.30461E+05-3.48285E+01 3.53384E+02-1.19039E+02-2.05047E-09-1.86172E-09
 -1       793 1.30495E+05 3.95275E+01 1.91315E+02-1.11054E+02-7.45119E-10 1.49819E-08
 -1       794 1.30479E+05-4.39361E+00 8.01455E+01-1.08153E+02 1.97349E-09-7.91374E-10
 -1       795 1.30472E+05-3.09456E-01 2.69606E+01-1.33795E+02-2.08881E-09 7.76240E-10
 -1       796 1.30485E+05 4.98780E+00-1.34282E+01-9.62981E+01 1.55923E-09-2.77344E-09
 -1       797 1.30451E+05-4.13122E+01-7.61643E+01-1.60991E+02 2.09201E-09 8.45473E-09
 -1       798 1.30500E+05 3.65772E+01-1.34564E+02-8.09555E+01 6.79948E-10 2.69766E-09
 -1       799 1.30346E+05-2.70227E+02-3.79667E+02-1.98488E+02 2.59140E-09 4.80651E-09
 -1       800 1.30590E+05 2.33706E+02-5.39974E+02-5.88006E+01-1.89933E-10 1.24501E-08
 -1       801 2.92943E+04-5.69639E+06-6.79252E+05 4.76951E+05 5.49771E-08-3.78386E-08
 -1       802 1.12818E+05-7.01457E+05 5.13697E+05-5.16733E+05 1.51369E-07-1.90385E-08
 -1       803-1.40772E+05-6.64858E+06-5.97252E+05 3.40433E+05 5.36565E-08 1.88447E-08
 -1       804 3.32221E+04-2.04312E+06 3.60763E+05 3.18497E+05-4.85379E-08-4.23699E-08
 -1       805 8.66373E+04-4.36556E+06-1.00454E+05-3.56997E+05-2.08238E-08-2.52644E-08
 -1       806-2.65376E+05-5.04637E+04-1.93475E+04-1.04150E+05-1.74623E-09 1.96314E-09
 -1       807-2.67040E+05-4.71631E+04-9.50518E+03-1.08674E+05 5.97356E-09 6.44546E-09
 -1       808-2.65895E+05-4.35035E+04-4.03249E+03-1.07461E+05-2.58296E-10 8.08927E-09
 -1       809-2.65048E+05-4.44864E+04-1.97182E+03-1.08902E+05-6.80052E-09-1.19503E-08
 -1       810-2.65975E+05-4.32610E+04-9.03718E+02-1.07608E+05 5.86351E-09-8.03311E-10
 -1       811-2.64895E+05-4.43781E+04-4.49387E+02-1.08872E+05 1.46529E-08 1.24079E-08
 -1       812-2.65988E+05-4.32813E+04-2.27100E+02-1.07609E+05 1.64709E-09-1.30444E-09
 -1       813-2.64875E+05-4.43794E+04-1.47429E+02-1.08858E+05-5.65979E-09-4.60932E-09
 -1       814-2.65984E+05-4.32885E+04-1.45670E+02-1.07606E+05-5.17412E-09 4.92992E-09
 -1       815-2.64880E+05-4.43809E+04-2.34640E+02-1.08853E+05 5.89353E-10 1.33241E-09
 -1       816-2.65968E+05-4.32866E+04-4.44360E+02-1.07604E+05 1.78807E-09-2.95813E-09
 -1       817-2.64957E+05-4.44229E+04-9.54068E+02-1.08845E+05-4.02088E-09 1.98474E-09
 -1       818-2.65913E+05-4.34197E+04-1.94567E+03-1.07541E+05-9.31595E-09-9.10495E-09
 -1       819-2.66022E+05-4.55998E+04-4.57877E+03-1.08598E+05 5.04770E-11 8.39100E-09
 -1       820-2.65553E+05-4.68729E+04-9.31908E+03-1.06058E+05-1.81899E-10-3.09342E-09
 -1       821-3.25244E+05 1.79684E+04-4.15622E+04 6.49707E+02 5.02012E-09 3.94357E-09
 -1       822-3.43226E+05-2.08014E+04-2.94066E+04-1.34296E+03-7.38190E-10-8.83574E-10
 -1       823-3.32175E+05 2.81791E+03-1.07631E+04 7.55669E+02-2.52811E-09 1.34883E-08
 -1       824-3.35113E+05-3.25993E+03-6.76881E+03-1.20124E+03 2.25979E-10 8.21183E-09
 -1       825-3.33354E+05 4.40057E+02-2.78907E+03 5.07994E+02 3.65863E-09 5.74323E-09
 -1       826-3.33718E+05-5.17435E+02-1.66655E+03-4.71666E+02 2.40428E-09 1.08210E-08
 -1       827-3.33568E+05 7.60987E+01-8.82340E+02 2.60808E+01 4.34852E-10 8.17019E-09
 -1       828-3.33531E+05-1.57371E+02-7.57932E+02 4.94618E+02-3.04637E-09-2.09437E-09
 -1       829-3.33541E+05 8.02151E+01-8.97909E+02-4.58307E+02-2.94236E-10 5.31682E-09
 -1       830-3.33789E+05-5.40343E+02-1.73928E+03 1.23183E+03 4.59345E-10 1.52233E-08
 -1       831-3.33312E+05 4.60104E+02-2.89083E+03-7.11145E+02-1.66454E-09-1.51090E-10
 -1       832-3.35196E+05-3.39224E+03-7.04379E+03 1.38397E+03-9.68146E-10-1.00408E-09
 -1       833-3.32136E+05 2.93047E+03-1.11994E+04-6.10448E+02-1.60570E-09 9.01991E-09
 -1       834-3.43562E+05-2.16369E+04-3.05803E+04 8.70982E+02-1.23038E-09 1.69643E-08
 -1       835-3.24947E+05 1.86897E+04-4.32454E+04-1.98143E+02 5.02401E-09 1.87738E-08
 -1       836-1.13866E+03 3.09495E+05 1.89158E+04-1.61763E+04-2.22462E-09 3.15549E-09
 -1       837 4.08956E+03 3.15393E+05 1.61298E+04-3.26613E+04-2.11514E-09 1.34783E-08
 -1       838-4.42467E+02 3.11133E+05 1.66079E+04-1.61101E+04-1.68484E-09 1.13055E-08
 -1       839 1.05775E+04 3.20228E+05 3.15878E+04-3.27042E+04-1.30012E-09 2.18336E-10
 -1       840-3.23041E+03 3.04614E+05 5.04453E+04-1.61342E+04-1.81535E-09-1.02645E-08
 -1       856-6.70376E+04 7.66911E+03-2.02102E+04-4.09653E+02 1.58877E-10 7.70797E-09
 -1       857-7.53766E+04-9.00119E+03-1.39134E+04 5.02076E+03 1.52465E-09 1.47311E-08
 -1       858-7.03354E+04 1.07494E+03-5.24455E+03-4.31914E+02-1.29756E-09 1.14790E-08
 -1       859-7.15908E+04-1.25545E+03-3.16605E+03 5.05521E+03-9.45818E-10 1.40394E-08
 -1       860-7.08282E+04 1.49919E+02-1.32881E+03-4.44071E+02 2.58737E-09-9.62928E-10
 -1       861-7.10236E+04-1.70447E+02-7.35081E+02 5.07184E+03-5.26718E-10-7.49770E-09
 -1       862-7.09052E+04 1.99522E+01-3.13728E+02-4.48560E+02 3.87787E-09-1.70292E-09
 -1       863-7.09307E+04-1.41539E+01-1.32818E+02 5.07416E+03 2.63803E-09-5.68517E-09
 -1       864-7.09214E+04-2.88163E+00 3.39288E+00-4.46394E+02 2.58339E-09 3.34083E-09
 -1       865-7.08890E+04 4.50711E+01 1.51076E+02 5.06261E+03 5.48241E-10 8.44305E-09
 -1       866-7.09450E+04-3.95022E+01 3.25876E+02-4.37006E+02-5.68491E-10-1.02523E-08
 -1       867-7.07300E+04 3.28309E+02 8.15905E+02 5.03705E+03 1.39406E-09-7.37292E-09
 -1       868-7.10764E+04-2.81631E+02 1.35906E+03-4.20836E+02 1.52738E-10-2.58069E-09
 -1       869-6.97295E+04 2.34351E+03 3.62388E+03 4.99446E+03-9.74751E-10-9.24291E-09
 -1       870-7.19392E+04-2.00088E+03 5.25830E+03-3.94404E+02-1.03137E-09 2.18529E-09
 -1       871-4.86291E+03-1.42469E+04-1.63587E+04 1.08994E+05-7.74889E-10 3.53339E-09
 -1       872-1.96111E+03-1.79743E+04-6.76885E+03 1.41317E+05-2.74031E-09 1.18221E-08
 -1       873 1.17825E+02-1.62079E+04 6.98738E+02 1.08756E+05-1.49157E-09 1.04069E-08
 -1       874 2.59564E+03-1.40126E+04 8.68484E+03 1.41353E+05-3.01316E-09-4.48404E-09
 -1       875 5.79112E+03-1.82739E+04 1.94340E+04 1.08957E+05-1.22418E-09 3.31511E-09
 -1       876 2.55360E+05 4.34548E+04 1.33081E+04 1.02969E+05 4.73148E-09-4.30828E-09
 -1       877 2.56196E+05 4.63009E+04 7.10693E+03 1.06826E+05 1.51203E-10-1.28409E-08
 -1       878 2.56603E+05 4.19819E+04 2.97747E+03 1.04062E+05 3.93356E-10-4.65661E-09
 -1       879 2.54386E+05 4.44965E+04 1.48344E+03 1.06918E+05 1.58252E-09-3.12980E-10
 -1       880 2.56693E+05 4.19662E+04 6.90870E+02 1.04106E+05-9.87256E-10 6.67433E-09
 -1       881 2.54266E+05 4.44195E+04 3.68626E+02 1.06898E+05-8.68567E-11 8.24824E-09
 -1       882 2.56701E+05 4.19775E+04 2.35314E+02 1.04107E+05-3.66072E-11 8.02696E-09
 -1       883 2.54258E+05 4.44157E+04 2.52132E+02 1.06892E+05 1.09929E-09 3.20027E-09
 -1       884 2.56696E+05 4.19749E+04 4.00327E+02 1.04108E+05-3.97893E-09-1.24288E-09
 -1       885 2.54290E+05 4.44213E+04 8.04410E+02 1.06902E+05-6.58275E-09-6.05212E-10
 -1       886 2.56665E+05 4.19514E+04 1.62104E+03 1.04104E+05 1.73309E-09-1.35856E-09
 -1       887 2.54574E+05 4.46081E+04 3.54088E+03 1.06943E+05 1.21296E-08-1.48561E-08
 -1       888 2.56441E+05 4.19907E+04 7.13497E+03 1.03991E+05 4.42776E-09-1.11477E-08
 -1       889 2.58824E+05 4.90242E+04 1.70445E+04 1.06811E+05-1.48760E-09-1.50999E-09
 -1       890 2.53533E+05 4.54459E+04 3.19235E+04 1.01271E+05-8.61519E-10 5.11136E-10
 -1       891-1.22289E+02-1.42947E+05-1.72981E+03 2.52444E+04-2.48065E-10 7.78164E-09
 -1       892-2.20529E+02-1.43381E+05-1.86563E+03 3.82556E+04 1.00977E-09 9.96624E-09
 -1       893-7.17384E+00-1.43002E+05-2.64954E+03 2.52503E+04 1.39153E-10 7.51243E-10
 -1       894-1.38815E+03-1.44387E+05-5.48943E+03 3.81169E+04 7.42148E-10-4.91673E-09
 -1       895-1.09305E+03-1.41859E+05-9.66909E+03 2.53826E+04-5.13978E-10-1.15679E-08
 -1       956-3.25252E+05-4.60754E+03-1.15141E+04 2.38514E+04 4.49108E-09-8.45989E-09
 -1       957-3.27520E+05-1.58066E+03-5.91049E+03 2.87043E+04 1.94268E-09-1.04812E-08
 -1       958-3.26280E+05-1.53344E+02-2.66309E+03 2.37125E+04 3.08319E-09-1.23732E-08
 -1       959-3.26456E+05-5.56479E+01-1.36012E+03 2.88597E+04 4.54111E-09 5.63023E-09
 -1       960-3.26375E+05 1.08664E+01-6.63197E+02 2.36988E+04 3.60842E-09 8.99672E-09
 -1       961-3.26382E+05 3.93394E+00-3.51911E+02 2.88756E+04 2.73576E-09 9.36643E-09
 -1       962-3.26396E+05 7.75483E+00-2.01707E+02 2.36966E+04-6.73458E-09 9.82027E-09
 -1       963-3.26380E+05 6.23786E+00-1.62393E+02 2.88784E+04-1.03693E-08 6.62180E-09
 -1       964-3.26400E+05 1.02217E+01-1.97866E+02 2.36959E+04-2.94449E-09 4.20641E-10
 -1       965-3.26391E+05 9.18908E+00-3.42540E+02 2.88781E+04 2.99224E-09-5.87193E-09
 -1       966-3.26388E+05 1.82028E+01-6.43558E+02 2.36970E+04 1.79125E-09-1.12755E-08
 -1       967-3.26472E+05-4.35367E+01-1.32009E+03 2.88675E+04 1.79352E-09-3.13503E-09
 -1       968-3.26302E+05-1.36353E+02-2.58385E+03 2.37066E+04-1.45064E-10 1.22745E-09
 -1       969-3.27515E+05-1.51937E+03-5.73658E+03 2.87560E+04 1.48066E-09-1.33477E-08
 -1       970-3.25311E+05-4.45647E+03-1.11744E+04 2.38071E+04-7.99901E-10 4.27644E-09
 -1       971-3.02108E+05-1.54350E+03-8.46607E+03 1.39353E+04-7.46240E-09-1.37877E-08
 -1       972-3.04157E+05-1.11919E+03-4.61056E+03 1.93870E+04-1.06957E-08-5.58020E-09
 -1       973-3.03050E+05-2.96887E+01-2.06483E+03 1.38214E+04-2.13913E-09 9.62405E-09
 -1       974-3.03185E+05-3.67488E+01-1.07002E+03 1.95124E+04-1.71894E-09 9.32960E-09
 -1       975-3.03124E+05 1.05835E+01-5.34495E+02 1.38105E+04-4.32010E-11-4.63228E-09
 -1       976-3.03128E+05 8.13826E+00-3.07706E+02 1.95261E+04 1.06184E-10-8.08734E-09
 -1       977-3.03139E+05 1.08498E+01-2.22145E+02 1.38077E+04-1.32923E-09 1.63595E-10
 -1       978-3.03132E+05 1.34726E+01-2.58346E+02 1.95300E+04 2.68938E-09 5.06816E-09
 -1       979-3.03138E+05 1.81044E+01-4.13693E+02 1.38065E+04 1.16006E-09-3.05261E-09
 -1       980-3.03163E+05 1.61038E+01-7.97918E+02 1.95308E+04 2.04282E-09 9.79981E-10
 -1       981-3.03113E+05 3.80189E+01-1.54492E+03 1.38070E+04 2.60798E-10 6.05723E-09
 -1       982-3.03375E+05-9.79902E+01-3.19306E+03 1.95248E+04 2.07592E-09-8.69885E-09
 -1       983-3.02919E+05-6.08213E+01-6.20399E+03 1.38126E+04 1.04296E-09 1.35628E-08
 -1       984-3.06359E+05-3.33800E+03-1.38933E+04 1.94464E+04-3.41515E-10 7.05791E-09
 -1       985-3.00110E+05-4.60048E+03-2.55125E+04 1.38857E+04-7.83530E-10-5.94082E-09
 -3
    1PSTEP                        19          10           1          
  100CL  110 6.09375E-01         409                     0   10           1
 -4  DISP        4    1
 -5  D1          1    2    1    0
 -5  D2          1    2    2    0
 -5  D3          1    2    3    0
 -5  ALL         1    2    0    0    1ALL
 -1         1 1.30339E-03 0.00000E+00 0.00000E+00
 -1         2 1.22714E-03 1.92645E-29 1.32349E-23
 -1         3 2.69135E-04-2.60242E-27 1.32349E-23
 -1         5 1.49583E-04-9.72216E-27 1.65436E-24
 -1         8 1.28398E-03-6.11096E-07 0.00000E+00
 -1         9 1.25182E-03-3.63708E-06 0.00000E+00
 -1        10 2.44871E-04-3.24183E-06 6.61744E-24
 -1        12 1.50442E-04 7.06971E-07 0.00000E+00
 -1        15 1.26056E-03-6.72679E-07 0.00000E+00
 -1        16 1.26750E-03-4.44767E-06 0.00000E+00
 -1        17 1.69364E-04-7.13595E-06 0.00000E+00
 -1        18 1.51586E-04 2.07686E-05 0.00000E+00
 -1        19 1.53019E-04 1.40988E-06 0.00000E+00
 -1        20 1.53164E-04 8.27826E-07 0.00000E+00
 -1        21 1.52410E-04-2.64094E-06 0.00000E+00
 -1        24 2.71939E-05-1.03276E-05 0.00000E+00
 -1        25 1.57458E-04 2.09527E-05 0.00000E+00
 -1        26 1.58170E-04 1.95650E-06 0.00000E+00
 -1        27 1.56237E-04-2.34308E-06 0.00000E+00
 -1        28 1.55866E-04-3.20883E-06 0.00000E+00
 -1        32 0.00000E+00 0.00000E+00 0.00000E+00
 -1        33 1.62275E-04 2.62228E-06 0.00000E+00
 -1        34 1.60382E-04-2.38314E-06 0.00000E+00
 -1        35 1.58636E-04-3.51673E-06 0.00000E+00
 -1        51 1.30214E-03-1.10454E-07 0.00000E+00
 -1        52 1.29982E-03-2.08616E-07 0.00000E+00
 -1        53 1.29662E-03-3.05636E-07 0.00000E+00
 -1        54 1.29277E-03-4.03526E-07 0.00000E+00
 -1        55 1.28849E-03-5.03667E-07 5.79026E-24
 -1        56 1.30033E-03-3.25086E-07 0.00000E+00
 -1        57 1.29663E-03 7.20516E-07 0.00000E+00
 -1        58 1.29248E-03 2.96721E-06 0.00000E+00
 -1        59 1.28797E-03 6.11288E-06 0.00000E+00
 -1        60 1.28327E-03 9.74924E-06 1.05879E-22
 -1        61 1.27856E-03 1.34275E-05 0.00000E+00
 -1        62 1.27400E-03 1.66945E-05-1.05879E-22
 -1        63 1.26975E-03 1.91236E-05 0.00000E+00
 -1        64 1.26595E-03 2.04022E-05 1.05879E-22
 -1        65 1.26266E-03 2.02950E-05 0.00000E+00
 -1        66 1.25991E-03 1.87546E-05 0.00000E+00
 -1        67 1.25769E-03 1.58315E-05 0.00000E+00
 -1        68 1.25589E-03 1.17627E-05-1.05879E-22
 -1        69 1.25441E-03 6.86923E-06 0.00000E+00
 -1        70 1.25308E-03 1.57211E-06-5.29396E-23
 -1        86 1.22822E-03-5.96247E-07 1.32349E-23
 -1        87 1.23145E-03-1.19707E-06 6.61744E-24
 -1        88 1.23618E-03-1.80350E-06 1.32349E-23
 -1        89 1.24176E-03-2.41504E-06 1.32349E-23
 -1        90 1.24727E-03-3.02592E-06 0.00000E+00
 -1       121 2.68454E-04-5.29989E-07-1.32349E-23
 -1       122 2.66413E-04-1.06176E-06 0.00000E+00
 -1       123 2.63020E-04-1.59708E-06 0.00000E+00
 -1       124 2.58287E-04-2.13772E-06-6.61744E-24
 -1       125 2.52229E-04-2.68518E-06-1.32349E-23
 -1       191 1.49607E-04 1.17845E-07 1.65436E-24
 -1       192 1.49678E-04 2.35687E-07-8.27181E-25
 -1       193 1.49798E-04 3.53525E-07 3.30872E-24
 -1       194 1.49965E-04 4.71355E-07 8.27181E-25
 -1       195 1.50179E-04 5.89171E-07 0.00000E+00
 -1       251 1.28324E-03 1.72262E-05 0.00000E+00
 -1       252 1.28167E-03 6.25387E-05 0.00000E+00
 -1       253 1.27910E-03 1.27196E-04 0.00000E+00
 -1       254 1.27580E-03 2.02620E-04 0.00000E+00
 -1       255 1.27255E-03 2.77291E-04 0.00000E+00
 -1       256 1.27012E-03 3.39709E-04 0.00000E+00
 -1       257 1.26867E-03 3.81714E-04 0.00000E+00
 -1       258 1.26799E-03 3.95617E-04 0.00000E+00
 -1       259 1.26729E-03 3.81091E-04-1.32349E-23
 -1       260 1.26582E-03 3.38501E-04 6.61744E-24
 -1       261 1.26336E-03 2.75566E-04-1.32349E-23
 -1       262 1.26008E-03 2.00470E-04-6.61744E-24
 -1       263 1.25676E-03 1.24718E-04 0.00000E+00
 -1       264 1.25417E-03 5.98293E-05 6.61744E-24
 -1       265 1.25258E-03 1.43434E-05 0.00000E+00
 -1       266 1.28007E-03-6.30205E-07 0.00000E+00
 -1       267 1.27617E-03-6.39391E-07-8.27181E-25
 -1       268 1.27227E-03-6.49205E-07 0.00000E+00
 -1       269 1.26837E-03-6.57158E-07 0.00000E+00
 -1       270 1.26446E-03-6.65066E-07-2.06795E-25
 -1       271 1.28158E-03 2.87969E-06 0.00000E+00
 -1       272 1.27922E-03 6.18174E-06-1.32349E-23
 -1       273 1.27696E-03 9.22109E-06 0.00000E+00
 -1       274 1.27483E-03 1.19126E-05 0.00000E+00
 -1       275 1.27285E-03 1.41793E-05 0.00000E+00
 -1       276 1.27107E-03 1.59478E-05 0.00000E+00
 -1       277 1.26949E-03 1.71516E-05 0.00000E+00
 -1       278 1.26816E-03 1.77306E-05 0.00000E+00
 -1       279 1.26707E-03 1.76331E-05 0.00000E+00
 -1       280 1.26626E-03 1.68155E-05-1.32349E-23
 -1       281 1.26573E-03 1.52435E-05 0.00000E+00
 -1       282 1.26549E-03 1.28922E-05 0.00000E+00
 -1       283 1.26554E-03 9.74654E-06-2.64698E-23
 -1       284 1.26590E-03 5.80243E-06 0.00000E+00
 -1       285 1.26655E-03 1.06365E-06 2.64698E-23
 -1       301 1.25468E-03-3.79239E-06-6.61744E-24
 -1       302 1.25674E-03-3.91929E-06-3.30872E-24
 -1       303 1.25853E-03-4.04357E-06-6.61744E-24
 -1       304 1.26057E-03-4.16778E-06 0.00000E+00
 -1       305 1.26339E-03-4.29548E-06-1.32349E-23
 -1       306 1.27829E-03-1.00879E-04 0.00000E+00
 -1       307 1.33845E-03-3.75200E-04 0.00000E+00
 -1       308 1.40620E-03-7.82540E-04 0.00000E+00
 -1       309 1.47061E-03-1.26250E-03 0.00000E+00
 -1       310 1.53553E-03-1.73343E-03 0.00000E+00
 -1       311 1.60317E-03-2.11456E-03 0.00000E+00
 -1       312 1.65836E-03-2.35048E-03 0.00000E+00
 -1       313 1.67198E-03-2.40473E-03 5.29396E-23
 -1       314 1.61047E-03-2.27931E-03-1.05879E-22
 -1       315 1.45140E-03-2.00038E-03 5.29396E-23
 -1       316 1.20462E-03-1.61697E-03-1.05879E-22
 -1       317 9.02541E-04-1.18036E-03-5.29396E-23
 -1       318 6.04028E-04-7.47083E-04-2.11758E-22
 -1       319 3.66988E-04-3.73934E-04 0.00000E+00
 -1       320 2.20162E-04-1.11470E-04 0.00000E+00
 -1       336 2.36067E-04-3.85160E-06-1.32349E-23
 -1       337 2.25683E-04-4.47653E-06-6.61744E-24
 -1       338 2.13763E-04-5.11757E-06-1.32349E-23
 -1       339 2.00362E-04-5.77488E-06-6.61744E-24
 -1       340 1.85540E-04-6.45156E-06 0.00000E+00
 -1       406 1.50752E-04 8.24743E-07 1.65436E-24
 -1       407 1.51110E-04 9.42463E-07-1.65436E-24
 -1       408 1.51516E-04 1.06010E-06-1.65436E-24
 -1       409 1.51969E-04 1.17750E-06-1.65436E-24
 -1       410 1.52470E-04 1.29444E-06 3.30872E-24
 -1       521 1.29519E-03-1.10077E-04 0.00000E+00
 -1       522 1.35627E-03-4.03862E-04 0.00000E+00
 -1       523 1.42263E-03-8.39158E-04-1.05879E-22
 -1       524 1.48352E-03-1.35021E-03 0.00000E+00
 -1       525 1.54527E-03-1.85101E-03 0.00000E+00
 -1       526 1.61217E-03-2.25662E-03 0.00000E+00
 -1       527 1.66823E-03-2.50670E-03 0.00000E+00
 -1       528 1.68147E-03-2.56334E-03-5.29396E-23
 -1       529 1.61344E-03-2.42797E-03 1.05879E-22
 -1       530 1.43918E-03-2.13106E-03 5.29396E-23
 -1       531 1.16842E-03-1.72466E-03 1.05879E-22
 -1       532 8.37167E-04-1.26363E-03 0.00000E+00
 -1       533 5.09309E-04-8.05551E-04 1.05879E-22
 -1       534 2.47783E-04-4.08336E-04-5.29396E-23
 -1       535 8.51342E-05-1.26346E-04 0.00000E+00
 -1       536 1.68862E-04 1.95818E-05-6.61744E-24
 -1       537 1.67678E-04 6.59730E-05 0.00000E+00
 -1       538 1.65878E-04 1.24836E-04 3.30872E-24
 -1       539 1.63771E-04 1.88902E-04 1.65436E-24
 -1       540 1.61873E-04 2.49371E-04-3.30872E-24
 -1       541 1.60623E-04 2.97459E-04 1.65436E-24
 -1       542 1.60023E-04 3.27886E-04 0.00000E+00
 -1       543 1.59840E-04 3.35479E-04-1.65436E-24
 -1       544 1.59586E-04 3.20912E-04-3.30872E-24
 -1       545 1.58813E-04 2.85015E-04 1.65436E-24
 -1       546 1.57437E-04 2.34180E-04 3.30872E-24
 -1       547 1.55612E-04 1.74892E-04 0.00000E+00
 -1       548 1.53813E-04 1.16073E-04 0.00000E+00
 -1       549 1.52504E-04 6.66458E-05-1.65436E-24
 -1       550 1.51803E-04 3.28355E-05-1.65436E-24
 -1       551 1.49779E-04-7.58036E-06 0.00000E+00
 -1       552 1.27395E-04-8.07618E-06 0.00000E+00
 -1       553 1.03070E-04-8.61305E-06-3.41212E-24
 -1       554 7.76803E-05-9.17650E-06 0.00000E+00
 -1       555 5.20985E-05-9.74698E-06 2.64698E-23
 -1       556 1.63598E-04 7.68254E-06 0.00000E+00
 -1       557 1.58987E-04 1.95741E-05 0.00000E+00
 -1       558 1.55419E-04 2.87753E-05 0.00000E+00
 -1       559 1.52787E-04 3.55422E-05 0.00000E+00
 -1       560 1.50989E-04 4.01306E-05 0.00000E+00
 -1       561 1.49919E-04 4.27983E-05 0.00000E+00
 -1       562 1.49478E-04 4.38039E-05 0.00000E+00
 -1       563 1.49563E-04 4.34066E-05 0.00000E+00
 -1       564 1.50078E-04 4.18662E-05 0.00000E+00
 -1       565 1.50921E-04 3.94429E-05 6.61744E-24
 -1       566 1.51997E-04 3.63970E-05 0.00000E+00
 -1       567 1.53208E-04 3.29895E-05 0.00000E+00
 -1       568 1.54456E-04 2.94810E-05 4.13590E-25
 -1       569 1.55645E-04 2.61323E-05 0.00000E+00
 -1       570 1.56677E-04 2.32041E-05 0.00000E+00
 -1       571 1.51673E-04 1.95192E-05 8.27181E-25
 -1       572 1.51762E-04 1.82134E-05 4.13590E-25
 -1       573 1.51851E-04 1.68638E-05 0.00000E+00
 -1       574 1.51941E-04 1.54838E-05 1.65436E-24
 -1       575 1.52031E-04 1.40867E-05 0.00000E+00
 -1       576 1.52120E-04 1.26858E-05 0.00000E+00
 -1       577 1.52210E-04 1.12944E-05 0.00000E+00
 -1       578 1.52300E-04 9.92609E-06-1.65436E-24
 -1       579 1.52389E-04 8.59411E-06 0.00000E+00
 -1       580 1.52479E-04 7.31190E-06 0.00000E+00
 -1       581 1.52569E-04 6.09285E-06 6.61744E-24
 -1       582 1.52659E-04 4.95032E-06-3.30872E-24
 -1       583 1.52749E-04 3.89769E-06 0.00000E+00
 -1       584 1.52839E-04 2.94818E-06-3.30872E-24
 -1       585 1.52929E-04 2.11490E-06-6.61744E-24
 -1       586 1.52515E-04 2.08012E-05-1.65436E-24
 -1       587 1.53413E-04 2.08332E-05 2.06795E-25
 -1       588 1.54317E-04 2.08648E-05-8.27181E-25
 -1       589 1.55266E-04 2.08959E-05 0.00000E+00
 -1       590 1.56301E-04 2.09259E-05 0.00000E+00
 -1       591 1.52003E-04 1.95902E-05 1.03398E-25
 -1       592 1.52424E-04 1.83879E-05 2.06795E-25
 -1       593 1.52852E-04 1.71675E-05 8.27181E-25
 -1       594 1.53284E-04 1.59342E-05 4.13590E-25
 -1       595 1.53720E-04 1.46930E-05 0.00000E+00
 -1       596 1.54156E-04 1.34489E-05 4.13590E-25
 -1       597 1.54591E-04 1.22069E-05 8.27181E-25
 -1       598 1.55024E-04 1.09722E-05-4.13590E-25
 -1       599 1.55452E-04 9.74963E-06-8.27181E-25
 -1       600 1.55874E-04 8.54430E-06 0.00000E+00
 -1       601 1.56287E-04 7.36122E-06 0.00000E+00
 -1       602 1.56691E-04 6.20539E-06 2.06795E-25
 -1       603 1.57082E-04 5.08186E-06 4.13590E-25
 -1       604 1.57460E-04 3.99572E-06 7.75482E-26
 -1       605 1.57822E-04 2.95194E-06 0.00000E+00
 -1       606 1.53032E-04 9.06411E-07 0.00000E+00
 -1       607 1.53042E-04 4.92686E-07 1.65436E-24
 -1       608 1.53051E-04 1.63433E-07 0.00000E+00
 -1       609 1.53060E-04-8.72887E-08 0.00000E+00
 -1       610 1.53069E-04-2.65465E-07 0.00000E+00
 -1       611 1.53078E-04-3.77152E-07 0.00000E+00
 -1       612 1.53087E-04-4.28411E-07 0.00000E+00
 -1       613 1.53096E-04-4.25313E-07 0.00000E+00
 -1       614 1.53104E-04-3.73928E-07 0.00000E+00
 -1       615 1.53113E-04-2.80329E-07 0.00000E+00
 -1       616 1.53122E-04-1.50584E-07 1.65436E-24
 -1       617 1.53130E-04 9.23352E-09 0.00000E+00
 -1       618 1.53139E-04 1.93052E-07-8.27181E-25
 -1       619 1.53148E-04 3.94805E-07 0.00000E+00
 -1       620 1.53156E-04 6.08419E-07 0.00000E+00
 -1       621 1.53679E-04 1.50129E-06 0.00000E+00
 -1       622 1.54448E-04 1.59299E-06-8.27181E-25
 -1       623 1.55305E-04 1.68460E-06 1.65436E-24
 -1       624 1.56226E-04 1.77599E-06 8.27181E-25
 -1       625 1.57189E-04 1.86718E-06 0.00000E+00
 -1       626 1.53308E-04 9.38240E-07 0.00000E+00
 -1       627 1.53572E-04 5.35899E-07 0.00000E+00
 -1       628 1.53813E-04 1.95109E-07-3.30872E-24
 -1       629 1.54034E-04-9.22478E-08 0.00000E+00
 -1       630 1.54239E-04-3.34309E-07 0.00000E+00
 -1       631 1.54429E-04-5.39238E-07 0.00000E+00
 -1       632 1.54609E-04-7.15201E-07-3.30872E-24
 -1       633 1.54780E-04-8.70365E-07 1.65436E-24
 -1       634 1.54947E-04-1.01290E-06 3.30872E-24
 -1       635 1.55113E-04-1.15096E-06 0.00000E+00
 -1       636 1.55279E-04-1.29272E-06-3.30872E-24
 -1       637 1.55451E-04-1.44634E-06-8.27181E-25
 -1       638 1.55629E-04-1.61999E-06-3.30872E-24
 -1       639 1.55818E-04-1.82186E-06 8.27181E-25
 -1       640 1.56020E-04-2.06013E-06-3.30872E-24
 -1       656 1.53169E-04 3.12195E-07 0.00000E+00
 -1       657 1.53574E-04-2.24230E-07 6.61744E-24
 -1       658 1.54239E-04-7.59238E-07 0.00000E+00
 -1       659 1.55021E-04-1.29387E-06-6.61744E-24
 -1       660 1.55744E-04-1.83014E-06-6.61744E-24
 -1       661 1.53168E-04 1.00887E-06 8.27181E-25
 -1       662 1.53204E-04 1.11149E-06 0.00000E+00
 -1       663 1.53268E-04 1.13965E-06-1.65436E-24
 -1       664 1.53358E-04 1.09856E-06 8.27181E-25
 -1       665 1.53473E-04 9.92777E-07 0.00000E+00
 -1       666 1.53611E-04 8.26977E-07-8.27181E-25
 -1       667 1.53769E-04 6.05585E-07-1.65436E-24
 -1       668 1.53946E-04 3.32971E-07-8.27181E-25
 -1       669 1.54141E-04 1.33406E-08 0.00000E+00
 -1       670 1.54352E-04-3.49183E-07 0.00000E+00
 -1       671 1.54578E-04-7.50596E-07 0.00000E+00
 -1       672 1.54816E-04-1.18700E-06 0.00000E+00
 -1       673 1.55066E-04-1.65454E-06 0.00000E+00
 -1       674 1.55326E-04-2.14971E-06 8.27181E-25
 -1       675 1.55595E-04-2.66840E-06 4.13590E-25
 -1       676 1.52988E-04-2.73614E-06 3.30872E-24
 -1       677 1.53566E-04-2.83131E-06 0.00000E+00
 -1       678 1.54142E-04-2.92642E-06-3.30872E-24
 -1       679 1.54718E-04-3.02125E-06 1.65436E-24
 -1       680 1.55293E-04-3.11607E-06 0.00000E+00
 -1       771 1.78593E-05 1.02162E-05 0.00000E+00
 -1       772 9.96338E-06 2.70816E-05 0.00000E+00
 -1       773 3.43776E-06 4.04521E-05 5.29396E-23
 -1       774-1.81048E-06 5.05318E-05 0.00000E+00
 -1       775-5.87270E-06 5.75319E-05 0.00000E+00
 -1       776-8.84390E-06 6.16750E-05 0.00000E+00
 -1       777-1.08193E-05 6.31907E-05 0.00000E+00
 -1       778-1.18963E-05 6.23182E-05-2.64698E-23
 -1       779-1.21720E-05 5.93025E-05 0.00000E+00
 -1       780-1.17454E-05 5.43963E-05 2.64698E-23
 -1       781-1.07149E-05 4.78569E-05 0.00000E+00
 -1       782-9.18034E-06 3.99480E-05-2.64698E-23
 -1       783-7.24123E-06 3.09360E-05 5.29396E-23
 -1       784-4.99799E-06 2.10918E-05 0.00000E+00
 -1       785-2.55052E-06 1.06883E-05 5.29396E-23
 -1       786 1.57498E-04 1.95517E-05 0.00000E+00
 -1       787 1.57542E-04 1.81978E-05 0.00000E+00
 -1       788 1.57586E-04 1.68832E-05 8.27181E-25
 -1       789 1.57631E-04 1.56000E-05 0.00000E+00
 -1       790 1.57675E-04 1.43438E-05 0.00000E+00
 -1       791 1.57720E-04 1.31102E-05-8.27181E-25
 -1       792 1.57765E-04 1.18970E-05 0.00000E+00
 -1       793 1.57810E-04 1.07022E-05-8.27181E-25
 -1       794 1.57855E-04 9.52562E-06 0.00000E+00
 -1       795 1.57900E-04 8.36719E-06 8.27181E-25
 -1       796 1.57945E-04 7.22868E-06 0.00000E+00
 -1       797 1.57990E-04 6.11188E-06 0.00000E+00
 -1       798 1.58035E-04 5.02089E-06 0.00000E+00
 -1       799 1.58080E-04 3.95983E-06 0.00000E+00
 -1       800 1.58125E-04 2.93592E-06 0.00000E+00
 -1       801 1.24841E-04 1.86064E-05 2.64698E-23
 -1       802 2.57570E-05 1.20310E-05 1.32349E-23
 -1       803-6.14562E-05 6.35396E-06 5.29396E-23
 -1       804-5.94573E-05 4.31165E-06 2.64698E-23
 -1       805-2.04621E-05 1.90224E-06 0.00000E+00
 -1       806 1.57881E-04 1.94917E-05 1.65436E-24
 -1       807 1.58291E-04 1.80568E-05 0.00000E+00
 -1       808 1.58688E-04 1.66523E-05-3.30872E-24
 -1       809 1.59073E-04 1.52816E-05 1.65436E-24
 -1       810 1.59444E-04 1.39478E-05-3.30872E-24
 -1       811 1.59800E-04 1.26541E-05 8.27181E-25
 -1       812 1.60140E-04 1.14038E-05 0.00000E+00
 -1       813 1.60462E-04 1.02001E-05 8.27181E-25
 -1       814 1.60765E-04 9.04600E-06 1.65436E-24
 -1       815 1.61049E-04 7.94473E-06 8.27181E-25
 -1       816 1.61312E-04 6.89945E-06 0.00000E+00
 -1       817 1.61553E-04 5.91328E-06-1.65436E-24
 -1       818 1.61771E-04 4.98936E-06 0.00000E+00
 -1       819 1.61964E-04 4.13083E-06-1.65436E-24
 -1       820 1.62132E-04 3.34079E-06 1.65436E-24
 -1       821 1.58056E-04 8.54636E-07-8.27181E-25
 -1       822 1.57934E-04-5.34202E-07-1.65436E-24
 -1       823 1.57813E-04-2.05503E-06-3.30872E-24
 -1       824 1.57690E-04-3.55209E-06 0.00000E+00
 -1       825 1.57568E-04-4.87569E-06 0.00000E+00
 -1       826 1.57445E-04-5.87702E-06 0.00000E+00
 -1       827 1.57323E-04-6.48690E-06-3.30872E-24
 -1       828 1.57201E-04-6.63832E-06-1.65436E-24
 -1       829 1.57079E-04-6.37750E-06 3.30872E-24
 -1       830 1.56957E-04-5.75292E-06 0.00000E+00
 -1       831 1.56835E-04-4.90290E-06 0.00000E+00
 -1       832 1.56713E-04-3.96702E-06 0.00000E+00
 -1       833 1.56591E-04-3.10609E-06-3.30872E-24
 -1       834 1.56471E-04-2.48049E-06 0.00000E+00
 -1       835 1.56350E-04-2.19263E-06 0.00000E+00
 -1       836 1.59041E-04 2.06710E-06-3.30872E-24
 -1       837 1.59796E-04 2.18035E-06-1.65436E-24
 -1       838 1.60466E-04 2.29348E-06 0.00000E+00
 -1       839 1.61081E-04 2.40593E-06-8.27181E-25
 -1       840 1.61674E-04 2.51822E-06 4.13590E-25
 -1       856 1.56217E-04-2.64645E-06 0.00000E+00
 -1       857 1.56194E-04-2.82497E-06 5.16988E-26
 -1       858 1.56172E-04-2.89811E-06 0.00000E+00
 -1       859 1.56149E-04-2.88544E-06-2.06795E-25
 -1       860 1.56125E-04-2.80657E-06 8.27181E-25
 -1       861 1.56102E-04-2.68121E-06-4.13590E-25
 -1       862 1.56079E-04-2.52907E-06-8.27181E-25
 -1       863 1.56055E-04-2.36993E-06 0.00000E+00
 -1       864 1.56032E-04-2.22353E-06 0.00000E+00
 -1       865 1.56009E-04-2.10962E-06-4.13590E-25
 -1       866 1.55985E-04-2.04793E-06-8.27181E-25
 -1       867 1.55962E-04-2.05814E-06 0.00000E+00
 -1       868 1.55938E-04-2.15985E-06 8.27181E-25
 -1       869 1.55915E-04-2.37260E-06 0.00000E+00
 -1       870 1.55891E-04-2.71582E-06-8.27181E-25
 -1       871 1.56797E-04-2.34590E-06-8.27181E-25
 -1       872 1.57489E-04-2.35163E-06 0.00000E+00
 -1       873 1.58253E-04-2.35793E-06 0.00000E+00
 -1       874 1.59030E-04-2.36489E-06-1.55096E-25
 -1       875 1.59760E-04-2.37241E-06 6.20385E-25
 -1       876 1.56466E-04-2.63370E-06-3.30872E-24
 -1       877 1.56675E-04-2.86319E-06 1.65436E-24
 -1       878 1.56864E-04-3.03887E-06 3.30872E-24
 -1       879 1.57035E-04-3.16753E-06 0.00000E+00
 -1       880 1.57192E-04-3.25602E-06 3.30872E-24
 -1       881 1.57336E-04-3.31111E-06-1.65436E-24
 -1       882 1.57470E-04-3.33958E-06 3.30872E-24
 -1       883 1.57597E-04-3.34820E-06-1.65436E-24
 -1       884 1.57718E-04-3.34374E-06 0.00000E+00
 -1       885 1.57838E-04-3.33294E-06-1.65436E-24
 -1       886 1.57957E-04-3.32257E-06 0.00000E+00
 -1       887 1.58079E-04-3.31940E-06 0.00000E+00
 -1       888 1.58207E-04-3.33022E-06-3.30872E-24
 -1       889 1.58341E-04-3.36194E-06-8.27181E-25
 -1       890 1.58485E-04-3.42127E-06 0.00000E+00
 -1       891 1.56460E-04-3.26047E-06-1.65436E-24
 -1       892 1.57033E-04-3.31226E-06-4.13590E-25
 -1       893 1.57561E-04-3.36400E-06-1.65436E-24
 -1       894 1.58019E-04-3.41555E-06 8.27181E-25
 -1       895 1.58386E-04-3.46693E-06 0.00000E+00
 -1       956 1.62159E-04 2.05409E-06 0.00000E+00
 -1       957 1.62041E-04 1.56405E-06 0.00000E+00
 -1       958 1.61922E-04 1.14316E-06 1.65436E-24
 -1       959 1.61803E-04 7.81923E-07-1.65436E-24
 -1       960 1.61685E-04 4.70804E-07 3.30872E-24
 -1       961 1.61566E-04 2.00235E-07 0.00000E+00
 -1       962 1.61447E-04-3.93599E-08-3.30872E-24
 -1       963 1.61329E-04-2.57572E-07 0.00000E+00
 -1       964 1.61210E-04-4.63986E-07 3.30872E-24
 -1       965 1.61091E-04-6.68190E-07-1.65436E-24
 -1       966 1.60973E-04-8.79778E-07-3.30872E-24
 -1       967 1.60854E-04-1.10833E-06 1.65436E-24
 -1       968 1.60735E-04-1.36344E-06 0.00000E+00
 -1       969 1.60617E-04-1.65465E-06 0.00000E+00
 -1       970 1.60499E-04-1.99149E-06-3.30872E-24
 -1       971 1.60274E-04-2.76690E-06 0.00000E+00
 -1       972 1.60165E-04-3.06144E-06-1.65436E-24
 -1       973 1.60055E-04-3.27660E-06 0.00000E+00
 -1       974 1.59946E-04-3.42262E-06 1.65436E-24
 -1       975 1.59836E-04-3.50972E-06 0.00000E+00
 -1       976 1.59726E-04-3.54816E-06 0.00000E+00
 -1       977 1.59616E-04-3.54820E-06 3.30872E-24
 -1       978 1.59507E-04-3.52013E-06-1.65436E-24
 -1       979 1.59397E-04-3.47421E-06 3.30872E-24
 -1       980 1.59287E-04-3.42074E-06-1.65436E-24
 -1       981 1.59178E-04-3.36999E-06 0.00000E+00
 -1       982 1.59068E-04-3.33227E-06 1.65436E-24
 -1       983 1.58958E-04-3.31783E-06 0.00000E+00
 -1       984 1.58849E-04-3.33696E-06 3.30872E-24
 -1       985 1.58741E-04-3.39992E-06 3.30872E-24
 -3
    1PSTEP                        20          10           1          
  100CL  110 6.09375E-01         409                     0   10           1
 -4  STRESS      6    1
 -5  SXX         1    4    1    1
 -5  SYY         1    4    2    2
 -5  SZZ         1    4    3    3
 -5  SXY         1    4    1    2
 -5  SYZ         1    4    2    3
 -5  SZX         1    4    3    1
 -1         1-3.76016E+06-1.44880E+06-8.23121E+05-1.51356E+06-2.25555E-10 1.17027E-07
 -1         2 9.03550E+02-1.69629E+06 3.21991E+03 1.56840E+04 5.11150E-10 8.50963E-08
 -1         3-8.47915E+02-1.50877E+06 3.67486E+02-1.62169E+03-3.52021E-10 1.18853E-08
 -1         5-1.69550E+01 3.37256E+05 8.57528E+00-4.75879E-01-2.91324E-10 6.25823E-09
 -1         8-7.94437E+05-2.70703E+05-7.48779E+04-3.38023E+05 8.34916E-10 1.31586E-07
 -1         9 3.70451E+06-6.95268E+05 6.83611E+05-8.92329E+05 2.46800E-08 3.30852E-08
 -1        10-1.76115E+03-1.57209E+06-3.20918E+03-1.09615E+04-1.00190E-08-7.62883E-08
 -1        12-1.34641E+01 3.37274E+05 2.78654E+02-3.43013E+00-3.93584E-10 2.61934E-09
 -1        15 1.46561E+03 8.05435E+02 4.73756E+03 2.47371E+00-1.34293E-10 9.44686E-08
 -1        16 9.34768E+06-3.92059E+05 1.34640E+06-1.08309E+06 1.13311E-08 8.89801E-08
 -1        17 3.22215E+06 2.11897E+06 8.84372E+05 2.18638E+06 1.05792E-08 3.23926E-08
 -1        18 6.26171E+04 1.18678E+04-1.16042E+04-9.96978E+04 1.35863E-08 4.87216E-09
 -1        19 1.08627E+05 1.24617E+05-8.49188E+02 2.03386E+04 6.37010E-10 1.10467E-08
 -1        20-6.52958E+04-5.09548E+05-1.13817E+05 2.65659E+04 1.73562E-10-3.01043E-09
 -1        21-4.32423E+01-2.72086E+05-8.57945E+02 1.07845E+02 1.98805E-08-4.33348E-09
 -1        24 5.03816E+06 4.52226E+06 1.58822E+06 4.12697E+06-1.21353E-07-4.04931E-08
 -1        25-7.37353E+03-2.21314E+05-2.49630E+04-3.70250E+05-1.34951E-09 5.06734E-09
 -1        26-4.58112E+04 8.11314E+04-2.14457E+04-1.59257E+03 6.85031E-10 3.36731E-09
 -1        27-7.09686E+04-2.76326E+05-1.01874E+05 6.18042E+04 4.65404E-09 4.45016E-09
 -1        28 2.06839E+04-7.74837E+04 1.54956E+04 2.04253E+04-1.20286E-09 4.48370E-09
 -1        32-1.53470E+06-2.69243E+06-1.39606E+05-2.94973E+04-3.31165E-08-7.84519E-09
 -1        33-1.60359E+05 8.14285E+04 2.86918E+04-3.59978E+04-1.26772E-09-4.33526E-11
 -1        34-2.01441E+05-2.16464E+04 5.82643E+02 6.62223E+04-1.45856E-09-8.16211E-09
 -1        35-2.11977E+04-3.07459E+04-1.21959E+03 4.73706E+04-1.19248E-10-3.42091E-09
 -1        51 4.10282E+04-2.50559E+05 9.04500E+04-7.27286E+05 3.05590E-10-2.13913E-09
 -1        52 1.58245E+04-2.37371E+05 5.01222E+04-8.47979E+05 8.94943E-10 1.47331E-07
 -1        53 5.56007E+03-2.52335E+05 3.03336E+04-7.24646E+05 1.12777E-10 3.77622E-08
 -1        54 1.37169E+04-2.49316E+05 3.34791E+04-8.50732E+05-8.73115E-10-1.31418E-07
 -1        55 2.82947E+04-2.60018E+05 5.07099E+04-7.24247E+05 2.18279E-11 4.84106E-08
 -1        56-7.12669E+06-8.03164E+05-6.08245E+05-2.77772E+06-5.23869E-09-4.88362E-08
 -1        57-7.46342E+06-1.26163E+06-4.10165E+05-2.64672E+06 1.94850E-08 2.93257E-08
 -1        58-7.22902E+06-1.01599E+06-1.42924E+05-2.76141E+06-1.56433E-08-1.14189E-07
 -1        59-7.34920E+06-1.00800E+06-8.52236E+04-2.66264E+06 8.57790E-09-3.55722E-08
 -1        60-7.23944E+06-1.04993E+06-3.32381E+04-2.76417E+06-1.27034E-08 4.71191E-08
 -1        61-7.33016E+06-9.74725E+05-1.88392E+04-2.66676E+06-2.38866E-08 1.10473E-07
 -1        62-7.24762E+06-1.04837E+06-9.09318E+03-2.75749E+06-2.23827E-09-6.37588E-08
 -1        63-7.30560E+06-9.91558E+05-7.16513E+03-2.69018E+06 8.13725E-09 4.17958E-09
 -1        64-7.26328E+06-1.03342E+06-8.53587E+03-2.74029E+06-1.13778E-08-1.67615E-08
 -1        65-7.27293E+06-1.02898E+06-1.63685E+04-2.72814E+06-3.28087E-08-1.71211E-07
 -1        66-7.27996E+06-1.01131E+06-2.93501E+04-2.71923E+06 4.56384E-09 3.28127E-08
 -1        67-7.25743E+06-1.09080E+06-7.41493E+04-2.76282E+06-3.57722E-08 1.91547E-07
 -1        68-7.27961E+06-9.72075E+05-1.24550E+05-2.70576E+06 2.49565E-09-1.77097E-08
 -1        69-7.35834E+06-1.31257E+06-3.57520E+05-2.75164E+06-4.26917E-09-7.39892E-08
 -1        70-7.18158E+06-7.94753E+05-5.29864E+05-2.72925E+06 2.91038E-10-1.46683E-08
 -1        86-5.53890E+02-1.70362E+06 2.06596E+03-7.84173E+03-3.61933E-09-2.42801E-08
 -1        87 2.65259E+03-1.69762E+06 5.74258E+03 2.65960E+04-6.33116E-09 5.67734E-08
 -1        88-2.12374E+03-1.70249E+06 8.04177E+03-1.87541E+04-6.38693E-09 9.63439E-09
 -1        89 1.56255E+04-1.69366E+06 2.19246E+04 3.70415E+04-9.36234E-09-4.90851E-08
 -1        90-1.33203E+04-1.70776E+06 3.07324E+04-1.82886E+04-5.66433E-09 3.50918E-08
 -1       121-1.17905E+03-1.51167E+06-1.55710E+02 8.06626E+02 1.14336E-09-1.26056E-08
 -1       122-6.96465E+02-1.50877E+06 7.40093E+02-3.24099E+03-4.14187E-09-1.37825E-08
 -1       123-1.22604E+03-1.51178E+06 6.64331E+02 2.40928E+03 3.22655E-09-8.54561E-09
 -1       124 8.09295E+02-1.50815E+06 2.95985E+03-6.79849E+03-7.65249E-09 2.56478E-10
 -1       125-2.06533E+03-1.51261E+06 3.94793E+03 4.34527E+03 5.01313E-09 1.76551E-08
 -1       191-1.80793E+01 3.37282E+05 9.70560E+00 2.41159E-01-2.49925E-10-2.06182E-09
 -1       192-1.77499E+01 3.37256E+05 1.81823E+01-1.72573E+00-2.80079E-10 8.10951E-09
 -1       193-2.01891E+01 3.37282E+05 3.32843E+01 1.50514E+00-5.16033E-10-1.98270E-10
 -1       194-2.03063E+01 3.37259E+05 6.88360E+01-3.99107E+00-2.43428E-10-2.15878E-08
 -1       195-2.42422E+01 3.37280E+05 1.34113E+02 2.53381E+00-6.77435E-10-5.84077E-09
 -1       251-1.93116E+06-2.04236E+04-1.62184E+05-1.17273E+05 6.34827E-10 9.17025E-08
 -1       252-1.22201E+06 2.64610E+04 3.03979E+04 3.61783E+05 2.88537E-09-2.27014E-08
 -1       253-1.61510E+06-1.02389E+04-2.88051E+04-2.42090E+05-1.67347E-10-3.03571E-08
 -1       254-1.55297E+06 4.56257E+04 4.91095E+03 4.79785E+05-7.18217E-11-1.94020E-08
 -1       255-1.63316E+06-1.27268E+04-1.64882E+04-2.37879E+05 1.59098E-08 3.75849E-08
 -1       256-1.17669E+06 3.75018E+04 8.27294E+04 3.44891E+05-5.78439E-10 4.27178E-08
 -1       257-1.95459E+06-3.20197E+04-8.20358E+04-1.04425E+05-1.39844E-08-2.90186E-09
 -1       258-8.21438E+05 2.86519E+04 1.50435E+05-7.15013E+02 3.79441E-08 7.06527E-08
 -1       259-1.95354E+06-3.21956E+04-8.03233E+04 1.05964E+05-9.57516E-09 6.90989E-09
 -1       260-1.17865E+06 3.91774E+04 8.65477E+04-3.45524E+05 1.98788E-08-2.04199E-07
 -1       261-1.63249E+06-1.40264E+04-8.51212E+03 2.38673E+05 6.80566E-08 2.73769E-08
 -1       262-1.54887E+06 5.50675E+04 2.41015E+04-4.79009E+05-1.32285E-08 2.64644E-08
 -1       263-1.61986E+06-1.83452E+04 1.78925E+03 2.42236E+05 6.25550E-09 9.20445E-08
 -1       264-1.19254E+06 8.56561E+04 1.14871E+05-3.60923E+05 1.11246E-07 7.85567E-08
 -1       265-1.95558E+06-7.15049E+04-4.30943E+04 1.17955E+05 3.76076E-08 1.02586E-07
 -1       266-2.65321E+04-1.24061E+04 6.22536E+04-5.29309E+01-1.78261E-10-6.52577E-08
 -1       267 3.07583E+04 1.44601E+04 4.39991E+04 6.10701E+01 1.05501E-10-1.19880E-07
 -1       268-4.12462E+03-2.04792E+03 1.63543E+04-7.78149E+00-2.41926E-10-9.36626E-08
 -1       269 4.86998E+03 2.45096E+03 1.06300E+04 9.06417E+00-3.75167E-12 7.01058E-08
 -1       270-7.30986E+02-4.02708E+02 5.13125E+03-1.23008E+00-2.95017E-10 5.56850E-08
 -1       271-2.42043E+06-2.95721E+05-1.81052E+05-9.32777E+05 1.23655E-08 6.82776E-08
 -1       272-2.52470E+06-3.89706E+05-1.16573E+05-8.87855E+05 1.07430E-08-1.23868E-07
 -1       273-2.45362E+06-3.41935E+05-4.27359E+04-9.25703E+05-2.59615E-09 8.57290E-08
 -1       274-2.48534E+06-3.33388E+05-2.39752E+04-8.98736E+05 1.06252E-09 7.41597E-08
 -1       275-2.45865E+06-3.46400E+05-9.96218E+03-9.23888E+05 6.52062E-09-2.46418E-08
 -1       276-2.47808E+06-3.29169E+05-5.24686E+03-9.02218E+05-1.78761E-08 4.38013E-09
 -1       277-2.46052E+06-3.45721E+05-2.61277E+03-9.22258E+05 1.04910E-08 5.24633E-08
 -1       278-2.47431E+06-3.31500E+05-1.72162E+03-9.05580E+05 2.10821E-09 2.26642E-07
 -1       279-2.46217E+06-3.44168E+05-1.87905E+03-9.20375E+05-9.34597E-09 5.74719E-08
 -1       280-2.47095E+06-3.35315E+05-3.09494E+03-9.09379E+05 6.47879E-09 4.18941E-08
 -1       281-2.46370E+06-3.42049E+05-5.79810E+03-9.18320E+05-1.09831E-08 3.84807E-09
 -1       282-2.46974E+06-3.42802E+05-1.35168E+04-9.13106E+05 6.95218E-09 7.54236E-08
 -1       283-2.46334E+06-3.37077E+05-2.42587E+04-9.16462E+05-1.23255E-08 1.35069E-08
 -1       284-2.48695E+06-3.79486E+05-6.57429E+04-9.12563E+05 1.76697E-08 5.98920E-08
 -1       285-2.44702E+06-3.08642E+05-1.02365E+05-9.17694E+05-7.66158E-09-1.50212E-08
 -1       301 1.91667E+04-3.48158E+05 1.73272E+05-6.32428E+05 5.74801E-10-4.49509E-08
 -1       302 2.06783E+04-3.04477E+05 1.07773E+05-9.24990E+05-1.73168E-09 2.77396E-08
 -1       303-2.04261E+03-3.32315E+05 7.11385E+04-6.30924E+05 8.36735E-11-7.03767E-09
 -1       304 1.33877E+04-3.06300E+05 8.93722E+04-9.24380E+05-8.00355E-11 3.57686E-08
 -1       305 1.00215E+04-3.38741E+05 1.32031E+05-6.33010E+05 1.92813E-10 3.68964E-08
 -1       306-1.78594E+07-3.25721E+06-4.32346E+06-1.84815E+06-4.87780E-08 4.82250E-08
 -1       307 1.10091E+07-5.61478E+05 2.59371E+06-8.08979E+06-6.29225E-07-7.57354E-08
 -1       308-8.16880E+06 1.07329E+05-4.04485E+05 2.38714E+06-9.78762E-08 1.98297E-07
 -1       309-3.22476E+06 8.20271E+05 8.27896E+05-1.32106E+07 5.03851E-07 1.48675E-07
 -1       310-9.18339E+06-5.67235E+04-6.05782E+05 2.19576E+06 1.98488E-07-5.31145E-08
 -1       311 1.33234E+07-1.25740E+06 3.09685E+06-6.49885E+06 3.27622E-07 1.09576E-08
 -1       312-1.81022E+07-3.24055E+06-3.79090E+06-2.79388E+06 1.07742E-07 1.14756E-07
 -1       313 2.00263E+07 4.43394E+06 5.03116E+06 8.39075E+06-2.69618E-07-6.68369E-08
 -1       314-1.28043E+07-7.79656E+06-3.59326E+06-7.33613E+06 3.07977E-07-8.46339E-08
 -1       315-2.25202E+06 1.24179E+07 2.80043E+06 6.61362E+06-8.55507E-08 4.16767E-08
 -1       316-1.97282E+06-6.26896E+06-3.49475E+05-4.34960E+06-6.21920E-07-3.37954E-07
 -1       317-1.45315E+07 1.20801E+07 8.07644E+05-1.43241E+06 5.03642E-07-4.49225E-07
 -1       318-2.46767E+06-6.54749E+06-6.82346E+05-4.54698E+06-5.71861E-07 7.75035E-08
 -1       319-5.21500E+05 1.27999E+07 2.81660E+06 7.16829E+06-8.30842E-08 1.18162E-07
 -1       320-1.37343E+07-8.09920E+06-4.63892E+06-7.20681E+06 1.21305E-07-8.81846E-09
 -1       336 1.40083E+02-1.63643E+06-1.16926E+04 6.54368E+03-2.03036E-08-2.42617E-08
 -1       337-4.46349E+03-1.63742E+06-1.47943E+04-1.58482E+04-3.75558E-08 2.04436E-08
 -1       338 6.26090E+02-1.63618E+06-2.21568E+04 9.19149E+03-2.65027E-08 8.25821E-10
 -1       339-2.35290E+04-1.65021E+06-5.00167E+04-2.10130E+04-4.85343E-08 3.80169E-09
 -1       340 1.57371E+04-1.62488E+06-7.83716E+04 1.16315E+04-3.12357E-08 3.58996E-08
 -1       406 7.29119E+00 3.37267E+05 5.49566E+02 9.67545E-01-9.53065E-10-4.28645E-09
 -1       407 1.78411E+02 3.37370E+05 1.16920E+03 1.19825E+01-3.48692E-10-1.30508E-08
 -1       408 5.88031E+02 3.37183E+05 2.33438E+03-1.32719E+01-1.12988E-09-3.02816E-08
 -1       409 2.51238E+03 3.38116E+05 5.25639E+03 1.35871E+02-1.47594E-10-3.85207E-08
 -1       410 7.24254E+03 3.36517E+05 1.07302E+04-1.29449E+02-1.36788E-09-3.09647E-08
 -1       521-1.98608E+07-4.07629E+06-5.23563E+06-1.79932E+06-6.82194E-08 8.78936E-09
 -1       522 1.17869E+07-5.05031E+05 2.72191E+06-1.03501E+07-3.45521E-07-2.06826E-07
 -1       523-9.38804E+06-3.98595E+04-4.56919E+05 2.79422E+06-2.27010E-08-2.08711E-07
 -1       524-5.26146E+06 1.99431E+06 9.45636E+05-1.59784E+07 4.85030E-07-3.22700E-07
 -1       525-1.05456E+07-2.86350E+05-6.98340E+05 2.57905E+06 4.61674E-07-1.67638E-08
 -1       526 1.48591E+07-1.41902E+06 3.39562E+06-8.39962E+06 2.54920E-07 3.94793E-08
 -1       527-2.01919E+07-4.16649E+06-4.51331E+06-2.88561E+06 1.94937E-07-7.12462E-08
 -1       528 2.27249E+07 4.91758E+06 5.46328E+06 9.79296E+06 1.00030E-07-1.28275E-07
 -1       529-1.42098E+07-9.31128E+06-4.27185E+06-7.96620E+06-4.14439E-08-8.06176E-08
 -1       530-3.87096E+06 1.51389E+07 3.08484E+06 7.16158E+06-2.22164E-07 4.83589E-07
 -1       531-2.28364E+06-7.44683E+06-3.84822E+05-4.89612E+06-5.18427E-07 1.89350E-07
 -1       532-1.77675E+07 1.44517E+07 9.46717E+05-3.14364E+06 2.79448E-07-4.26851E-07
 -1       533-2.75906E+06-7.72656E+06-7.38296E+05-5.06490E+06-7.80856E-08-6.77624E-07
 -1       534-2.08428E+06 1.55852E+07 3.07738E+06 7.77191E+06-3.82570E-08 4.89264E-07
 -1       535-1.51701E+07-9.69473E+06-5.42865E+06-7.81360E+06 4.80795E-08 3.19007E-07
 -1       536-5.77559E+05-3.84139E+04-3.67335E+03-3.76620E+04-4.70709E-09 2.31121E-08
 -1       537-1.79989E+05 3.87158E+04 6.73796E+04 8.99642E+04-8.86990E-08 8.68836E-08
 -1       538-3.87559E+05 4.75235E+02 8.68630E+03-5.43894E+04 2.18131E-08 7.89350E-08
 -1       539-3.12364E+05 3.11051E+03 1.86206E+04 1.02906E+05 1.23303E-07 7.47955E-08
 -1       540-4.48366E+05-2.03009E+02-1.09602E+04-5.08439E+04 8.30005E-09 7.14655E-08
 -1       541-6.24401E+04 1.02737E+04 6.47086E+04 6.89795E+04-2.09193E-08 4.80730E-08
 -1       542-6.30779E+05-1.22302E+04-5.03628E+04-2.00674E+04 2.16269E-08 2.22634E-08
 -1       543 9.12189E+04 1.64544E+04 9.45975E+04-1.05225E+04-5.29617E-08-1.82533E-08
 -1       544-5.97932E+05-9.74941E+03-4.46333E+04 2.83463E+04-1.77852E-08-4.34626E-08
 -1       545-1.37964E+05 5.13516E+03 4.63304E+04-8.25924E+04 1.02760E-08-6.21153E-08
 -1       546-4.07700E+05 4.10906E+03-7.89821E+03 5.18549E+04 1.54497E-08-6.18949E-08
 -1       547-3.25270E+05-4.52580E+03 3.22194E+03-1.05296E+05-7.00803E-08-9.76129E-08
 -1       548-4.15606E+05 4.02934E+03-1.87793E+04 5.13635E+04-7.52577E-08-8.45621E-08
 -1       549-1.23418E+05 1.16828E+03 2.48514E+04-7.97296E+04-5.05004E-08-4.10214E-08
 -1       550-6.04109E+05-6.08828E+03-9.44680E+04 2.59566E+04 2.00089E-10-2.31012E-08
 -1       551 3.11321E+04-7.30293E+05 7.43786E+03-1.13861E+06-7.97227E-08-1.58470E-08
 -1       552 6.98282E+04-7.59203E+05 2.29626E+04-1.62329E+06-5.88625E-08 2.00889E-08
 -1       553 5.22558E+04-7.60561E+05 4.06884E+04-1.13335E+06-9.32341E-08 1.82044E-08
 -1       554 1.02873E+05-7.66036E+05 9.10439E+04-1.62518E+06-5.78875E-08 9.89530E-09
 -1       555 8.16059E+04-7.81962E+05 1.63163E+05-1.13369E+06-9.63846E-08-1.90375E-08
 -1       556 1.70934E+05-3.02647E+05 5.20253E+04-3.45336E+05-8.19273E-09-1.06811E-08
 -1       557 2.81434E+05-3.91360E+05 2.87529E+04-4.41481E+05 4.56930E-09 6.40284E-09
 -1       558 1.60795E+05-3.03733E+05 9.37129E+03-3.43377E+05-1.05356E-08-5.05679E-09
 -1       559 2.61509E+05-3.96389E+05 5.44260E+03-4.55141E+05 1.57161E-08-1.98215E-08
 -1       560 1.51100E+05-2.97594E+05 9.19777E+02-3.50183E+05 8.67294E-09 4.64206E-09
 -1       561 2.48953E+05-3.91641E+05 9.92684E+02-4.63528E+05-1.02737E-08 4.32374E-09
 -1       562 1.43459E+05-2.92787E+05-3.31492E+02-3.55680E+05-8.81846E-09 1.31658E-08
 -1       563 2.39928E+05-3.87706E+05 2.19937E+02-4.69380E+05 4.19095E-09 6.17001E-09
 -1       564 1.38153E+05-2.89465E+05-2.00967E+02-3.59430E+05 4.40923E-09-4.18049E-09
 -1       565 2.34202E+05-3.85215E+05 9.58984E+01-4.73025E+05 1.48430E-09-3.76895E-09
 -1       566 1.35268E+05-2.87632E+05-9.29029E+01-3.61451E+05-4.23461E-09 5.42059E-09
 -1       567 2.31774E+05-3.84153E+05-2.00650E+02-4.74458E+05 1.55123E-08-1.33550E-08
 -1       568 1.34867E+05-2.87397E+05-7.13391E+02-3.61826E+05-2.21462E-09 2.43381E-09
 -1       569 2.31510E+05-3.84122E+05-1.80044E+03-4.72776E+05-1.06747E-08 1.89175E-09
 -1       570 1.37854E+05-2.90046E+05-4.02966E+03-3.61096E+05 7.86531E-09-8.46285E-09
 -1       571 2.58133E+05 9.37899E+03 1.37721E+04-7.54983E+04 3.84080E-09-2.92471E-09
 -1       572 2.60170E+05 3.38932E+03 6.75429E+03-8.29743E+04 1.71758E-09-3.81897E-09
 -1       573 2.58949E+05 9.38310E+02 3.00243E+03-7.53434E+04 1.40244E-09-2.07638E-08
 -1       574 2.59166E+05 4.58172E+02 1.50625E+03-8.31618E+04 6.59611E-10-1.25838E-08
 -1       575 2.59037E+05 2.27565E+02 7.11535E+02-7.53227E+04 5.35948E-09-3.18778E-09
 -1       576 2.59038E+05 2.23892E+02 3.64099E+02-8.31865E+04 1.08896E-08-7.74617E-09
 -1       577 2.59064E+05 1.83585E+02 1.82017E+02-7.53199E+04-6.11681E-09 1.18225E-08
 -1       578 2.59048E+05 1.99946E+02 1.04918E+02-8.31898E+04-1.64237E-08 1.54814E-08
 -1       579 2.59108E+05 1.63607E+02 7.29803E+01-7.53197E+04-1.99634E-09 6.81393E-09
 -1       580 2.59110E+05 1.70499E+02 8.45002E+01-8.31858E+04-8.68567E-10-2.58387E-09
 -1       581 2.59177E+05 1.30321E+02 1.29931E+02-7.53242E+04 1.39880E-09-7.19410E-09
 -1       582 2.59225E+05 1.60338E+02 2.62174E+02-8.31373E+04-6.33008E-10-9.06493E-09
 -1       583 2.59258E+05 1.95497E+02 5.07130E+02-7.53684E+04-9.60426E-10 9.20045E-09
 -1       584 2.59516E+05 5.99483E+02 1.14359E+03-8.27620E+04 3.94630E-09 2.46557E-08
 -1       585 2.59225E+05 1.57934E+03 2.31940E+03-7.56993E+04 6.69388E-10-4.00178E-11
 -1       586-3.14784E+03 9.28529E+04-3.29365E+03-2.24444E+05-4.01906E-09 8.93783E-09
 -1       587-9.86157E+02 9.24977E+04 2.68007E+02-2.47035E+05-3.35422E-09 2.61343E-09
 -1       588 6.08479E+02 9.24420E+04 3.89769E+03-2.24331E+05-3.08864E-09 7.27505E-09
 -1       589 4.67655E+03 9.45130E+04 1.04733E+04-2.46796E+05-7.05404E-09-2.57132E-08
 -1       590 1.45150E+04 9.12941E+04 2.21125E+04-2.24717E+05-5.47971E-09-3.65617E-09
 -1       591-5.95051E+04-1.38220E+04-1.89127E+04-2.67272E+04-5.44924E-09-1.43145E-08
 -1       592-6.25458E+04-1.72001E+04-1.02445E+04-3.02165E+04 3.37923E-09-7.43057E-09
 -1       593-6.14002E+04-1.24459E+04-4.26440E+03-2.81104E+04-4.35534E-09 1.92108E-09
 -1       594-5.99291E+04-1.44308E+04-2.12681E+03-3.03227E+04-8.06313E-09 6.51994E-11
 -1       595-6.15448E+04-1.24411E+04-9.76675E+02-2.81734E+04-4.94293E-09 1.33983E-08
 -1       596-5.97503E+04-1.43042E+04-4.96752E+02-3.03020E+04 3.21692E-09-4.51166E-10
 -1       597-6.15630E+04-1.24538E+04-2.71033E+02-2.81757E+04-2.60013E-09-2.42750E-09
 -1       598-5.97328E+04-1.42992E+04-2.18869E+02-3.02962E+04-4.90149E-09 8.88690E-09
 -1       599-6.15618E+04-1.24542E+04-2.80812E+02-2.81754E+04 4.73278E-10-8.55835E-10
 -1       600-5.97507E+04-1.43050E+04-5.22645E+02-3.03005E+04 2.37844E-09-9.27275E-09
 -1       601-6.15404E+04-1.24417E+04-1.03158E+03-2.81722E+04 4.08590E-10-2.27708E-08
 -1       602-5.99394E+04-1.44382E+04-2.24848E+03-3.03192E+04-1.57900E-09-9.63610E-09
 -1       603-6.13851E+04-1.24494E+04-4.50927E+03-2.81062E+04 2.01294E-09-3.87945E-09
 -1       604-6.27208E+04-1.73503E+04-1.08322E+04-3.01864E+04 1.27279E-08 1.75176E-08
 -1       605-5.93644E+04-1.39191E+04-1.99978E+04-2.66595E+04 8.28709E-09 7.41966E-09
 -1       606 2.69247E+04-1.24548E+04-2.23559E+04 2.50845E+04 1.35124E-08-1.33377E-09
 -1       607 2.31022E+04-4.05302E+03-1.11327E+04 2.81744E+04 2.10857E-08 1.97201E-09
 -1       608 2.52770E+04-7.17322E+02-4.98434E+03 2.48960E+04 9.52969E-09-4.01428E-09
 -1       609 2.48549E+04-2.28711E+02-2.51776E+03 2.83965E+04-4.92037E-10 1.67688E-08
 -1       610 2.50859E+04-1.50322E+01-1.20172E+03 2.48743E+04 8.54016E-10 1.47770E-08
 -1       611 2.50151E+04-9.75133E+00-6.05895E+02 2.84206E+04-5.43878E-10-1.63625E-08
 -1       612 2.50404E+04-2.79710E-01-2.88549E+02 2.48721E+04-8.47831E-09 3.68618E-09
 -1       613 2.50205E+04-3.57346E+00-1.29741E+02 2.84234E+04-1.88356E-08 8.13407E-09
 -1       614 2.50175E+04-3.55982E+00-3.17330E+01 2.48714E+04-7.56700E-09 8.88394E-09
 -1       615 2.50122E+04-2.35664E-01 5.13881E+01 2.84239E+04 2.28329E-09 2.12890E-08
 -1       616 2.49998E+04 8.38345E-01 1.56817E+02 2.48717E+04 5.27507E-11-8.28436E-09
 -1       617 2.50283E+04 3.48750E+01 3.58952E+02 2.84234E+04 4.19504E-10-5.65342E-09
 -1       618 2.49665E+04 1.05617E+02 7.23892E+02 2.48719E+04-4.28918E-09 1.31413E-08
 -1       619 2.52821E+04 5.95656E+02 1.62585E+03 2.84226E+04-3.46336E-09 5.96106E-09
 -1       620 2.47250E+04 1.82313E+03 3.26795E+03 2.48719E+04 1.26158E-09 7.93443E-09
 -1       621 3.67679E+02 2.63416E+05 3.12018E+03 2.77177E+04 4.63842E-10 1.33641E-08
 -1       622 4.67791E+02 2.64162E+05 2.83281E+03 4.02809E+04 6.17092E-10-6.81666E-10
 -1       623 6.25117E+01 2.63585E+05 3.49088E+03 2.75889E+04 6.99856E-10 2.45518E-09
 -1       624 1.71840E+03 2.65258E+05 6.83613E+03 4.04100E+04 6.34941E-10-7.37282E-09
 -1       625 1.70691E+03 2.62235E+05 1.19798E+04 2.75858E+04 8.18090E-10-7.51720E-09
 -1       626 2.30143E+05 5.69969E+04 4.73809E+03 1.15349E+05 9.43055E-09-1.69603E-08
 -1       627 2.27813E+05 5.84755E+04 2.28322E+03 1.19508E+05 1.68584E-08-3.08722E-08
 -1       628 2.30273E+05 5.48140E+04 9.65241E+02 1.16135E+05 1.82299E-08 5.73391E-09
 -1       629 2.27203E+05 5.78660E+04 4.72505E+02 1.19748E+05 1.04728E-09-7.44839E-09
 -1       630 2.30285E+05 5.47095E+04 2.18843E+02 1.16165E+05-4.06180E-09-5.09237E-09
 -1       631 2.27135E+05 5.78450E+04 1.17392E+02 1.19749E+05-1.84373E-08-8.35229E-09
 -1       632 2.30279E+05 5.47148E+04 7.66086E+01 1.16159E+05-6.03723E-09-1.70622E-08
 -1       633 2.27125E+05 5.78482E+04 8.43372E+01 1.19744E+05-3.66060E-09-6.83326E-09
 -1       634 2.30272E+05 5.47136E+04 1.35400E+02 1.16157E+05 4.30441E-09-4.48563E-09
 -1       635 2.27135E+05 5.78479E+04 2.73478E+02 1.19747E+05 2.29094E-08 1.83536E-09
 -1       636 2.30262E+05 5.47098E+04 5.52012E+02 1.16156E+05 1.80529E-08 4.45152E-09
 -1       637 2.27253E+05 5.79342E+04 1.21337E+03 1.19745E+05-3.72074E-09-7.50515E-09
 -1       638 2.30218E+05 5.49784E+04 2.49313E+03 1.16034E+05 1.06520E-08 9.06630E-09
 -1       639 2.28562E+05 5.97554E+04 5.89851E+03 1.19358E+05 2.86245E-08 1.87338E-08
 -1       640 2.30039E+05 6.04137E+04 1.22405E+04 1.13738E+05 1.20240E-08 1.35165E-08
 -1       656 5.95865E+04-1.52027E+06-1.43841E+05-1.41604E+03-4.36557E-11-1.38581E-08
 -1       657-7.88053E+04-1.58525E+06-1.19112E+05 6.43018E+03-7.27596E-12-7.62452E-09
 -1       658 1.89718E+04-1.53875E+06-7.32943E+04-3.16030E+03 2.11230E-10 8.86430E-09
 -1       659-8.50404E+04-1.58821E+06-1.27304E+05 7.78833E+03-1.24419E-09 1.66648E-09
 -1       660 6.58074E+04-1.51732E+06-1.57926E+05-2.77417E+03-1.28784E-09 9.72156E-09
 -1       661 1.61604E+05 1.71769E+04 1.64793E+04 6.31910E+04-1.16233E-09-1.20490E-08
 -1       662 1.70689E+05 2.96081E+04 1.11053E+04 5.97582E+04 1.56257E-09-2.20398E-08
 -1       663 1.64839E+05 2.24648E+04 3.88423E+03 6.22532E+04 7.57836E-10-7.62316E-09
 -1       664 1.66940E+05 2.34226E+04 2.32311E+03 6.09023E+04-1.81421E-09-6.70701E-09
 -1       665 1.65328E+05 2.31886E+04 9.16457E+02 6.21121E+04 1.04922E-09 5.57637E-09
 -1       666 1.66363E+05 2.25935E+04 5.35774E+02 6.10856E+04 1.81706E-09 1.17429E-09
 -1       667 1.65413E+05 2.32722E+04 2.84028E+02 6.20779E+04-2.14698E-10-1.14960E-08
 -1       668 1.66270E+05 2.25317E+04 2.88103E+02 6.11352E+04 7.45047E-10-1.20270E-08
 -1       669 1.65420E+05 2.32487E+04 3.88998E+02 6.20629E+04-1.31422E-09 3.51724E-09
 -1       670 1.66366E+05 2.27414E+04 8.46054E+02 6.11372E+04-7.13129E-10 7.98845E-09
 -1       671 1.65318E+05 2.30667E+04 1.50190E+03 6.20740E+04-7.86578E-10 8.28152E-10
 -1       672 1.67241E+05 2.42024E+04 3.84232E+03 6.09252E+04 2.17051E-09-1.22736E-09
 -1       673 1.64549E+05 2.18246E+04 6.43901E+03 6.22607E+04-1.69166E-10 5.79121E-10
 -1       674 1.73371E+05 3.45461E+04 1.84142E+04 5.91234E+04-2.74747E-09 5.38648E-09
 -1       675 1.59228E+05 1.30126E+04 2.73329E+04 6.37670E+04-2.23827E-09 9.15861E-09
 -1       676 2.22837E+01-2.72014E+05-1.03405E+03-5.39239E+01 4.56453E-10 4.11004E-09
 -1       677-2.74435E+02-2.72264E+05-1.89247E+03 1.07772E+02 3.97972E-09 4.92523E-10
 -1       678 1.83346E+02-2.71836E+05-3.34540E+03-5.38121E+01 3.65048E-10-3.30003E-09
 -1       679-3.34626E+03-2.74283E+05-7.94719E+03 1.07344E+02 3.71620E-09 5.90069E-09
 -1       680 1.99723E+03-2.69996E+05-1.28082E+04-5.28942E+01 1.70076E-10 2.69313E-09
 -1       771-2.85121E+06-6.36316E+05-1.15628E+05-1.31831E+06-2.43163E-08-2.09548E-08
 -1       772-2.79309E+06-7.07259E+05-6.00420E+04-1.39979E+06-1.72877E-08 8.96398E-09
 -1       773-2.87287E+06-6.19278E+05-2.96908E+04-1.32703E+06-1.41154E-08 8.89850E-09
 -1       774-2.78407E+06-6.94836E+05-1.34414E+04-1.41661E+06 2.29193E-08 1.83354E-09
 -1       775-2.88323E+06-6.11957E+05-9.44539E+03-1.33080E+06-7.56700E-10 2.70666E-09
 -1       776-2.79071E+06-6.93449E+05-3.63267E+03-1.42878E+06-2.85218E-09 2.24099E-09
 -1       777-2.89200E+06-6.05571E+05-3.95775E+03-1.33411E+06 3.41970E-09 2.44472E-09
 -1       778-2.79780E+06-6.92246E+05-1.15411E+03-1.43916E+06-1.45519E-11 7.34690E-09
 -1       779-2.89944E+06-6.00059E+05-1.91190E+03-1.33694E+06-4.01633E-09-5.55519E-09
 -1       780-2.80403E+06-6.91086E+05-3.25724E+02-1.44759E+06-2.63390E-09-8.73115E-11
 -1       781-2.90530E+06-5.95649E+05-7.25922E+02-1.33916E+06-2.34140E-08-2.17187E-09
 -1       782-2.80880E+06-6.90078E+05 2.67839E+02-1.45380E+06-3.20870E-08-4.83942E-09
 -1       783-2.90940E+06-5.92613E+05 4.25993E+02-1.34072E+06-5.10772E-09-1.11984E-08
 -1       784-2.81139E+06-6.88940E+05 1.73120E+03-1.45762E+06-1.62181E-08-2.73303E-10
 -1       785-2.91181E+06-5.90817E+05 3.05820E+03-1.34174E+06-2.81689E-08 6.18093E-09
 -1       786 1.26032E+05-9.40609E+03 2.17610E+04-2.14317E+02 1.57083E-09 1.42300E-08
 -1       787 1.35469E+05 1.08896E+04 1.53952E+04-4.57476E+01 4.39030E-09-5.60249E-10
 -1       788 1.29671E+05-1.47426E+03 5.63047E+03-1.84230E+02 1.49115E-09 8.24502E-09
 -1       789 1.31230E+05 1.70587E+03 3.53522E+03-9.31053E+01-1.24989E-09-5.55957E-09
 -1       790 1.30272E+05-2.29869E+02 1.43272E+03-1.66970E+02-3.62988E-09 1.09628E-08
 -1       791 1.30528E+05 2.65740E+02 8.30170E+02-1.22898E+02-5.33326E-09 2.22490E-08
 -1       792 1.30373E+05-3.52065E+01 3.57120E+02-1.54438E+02-2.05318E-09 9.15264E-09
 -1       793 1.30408E+05 3.92701E+01 1.89726E+02-1.46531E+02 1.13549E-09-5.48295E-09
 -1       794 1.30392E+05-3.54291E+00 7.28005E+01-1.43337E+02 3.70515E-09 1.00842E-08
 -1       795 1.30381E+05-6.62070E+00 7.41824E+00-1.69737E+02-2.97918E-09 8.68618E-09
 -1       796 1.30400E+05 1.06599E+01-4.80940E+01-1.31232E+02 2.03940E-09 2.71150E-09
 -1       797 1.30343E+05-8.28805E+01-1.62359E+02-1.97536E+02 3.37044E-09 1.81755E-08
 -1       798 1.30430E+05 7.26586E+01-2.72064E+02-1.15537E+02 1.60511E-09 2.15361E-09
 -1       799 1.30134E+05-5.36190E+02-7.55784E+02-2.35989E+02 4.19200E-09 2.35379E-09
 -1       800 1.30609E+05 4.63592E+02-1.07166E+03-9.27782E+01 3.73166E-10 1.48978E-08
 -1       801-1.43835E+04-6.81244E+06-8.62104E+05 6.99565E+05 6.69679E-08-3.90392E-08
 -1       802 2.65019E+05 9.99010E+05 9.39588E+05-7.99619E+05 1.85868E-07-1.31922E-08
 -1       803-2.44525E+05-8.61506E+06-9.29106E+05 4.61519E+05 6.04850E-08 2.06874E-08
 -1       804 9.67772E+04-9.19512E+05 6.60156E+05 4.20294E+05-7.36763E-08-5.99302E-08
 -1       805 1.18091E+05-4.90749E+06-1.47612E+05-5.17862E+05-3.06754E-08-3.85480E-08
 -1       806-2.76257E+05-5.28384E+04-2.02113E+04-1.08789E+05-2.58342E-09-4.18777E-09
 -1       807-2.77944E+05-4.94418E+04-9.92958E+03-1.13577E+05 8.78185E-09-4.26328E-09
 -1       808-2.76802E+05-4.55637E+04-4.21251E+03-1.12244E+05-2.80215E-09 1.19318E-08
 -1       809-2.75861E+05-4.66476E+04-2.05984E+03-1.13816E+05-6.42876E-09 2.13113E-08
 -1       810-2.76886E+05-4.53103E+04-9.44085E+02-1.12398E+05 3.45790E-09 2.19954E-08
 -1       811-2.75701E+05-4.65348E+04-4.69486E+02-1.13785E+05 4.33965E-09 4.82601E-09
 -1       812-2.76900E+05-4.53316E+04-2.37348E+02-1.12398E+05-4.49836E-09-6.98765E-09
 -1       813-2.75679E+05-4.65363E+04-1.54209E+02-1.13770E+05-2.33558E-09 4.02588E-09
 -1       814-2.76895E+05-4.53395E+04-1.52615E+02-1.12394E+05-5.52700E-09-9.32278E-09
 -1       815-2.75684E+05-4.65380E+04-2.45971E+02-1.13764E+05-1.35924E-09-2.81671E-09
 -1       816-2.76878E+05-4.53378E+04-4.65996E+02-1.12392E+05 5.19321E-09 1.05319E-08
 -1       817-2.75764E+05-4.65821E+04-1.00045E+03-1.13756E+05-5.44469E-09 2.15130E-08
 -1       818-2.76819E+05-4.54778E+04-2.04036E+03-1.12326E+05-3.12684E-09-1.05069E-08
 -1       819-2.76881E+05-4.78157E+04-4.80140E+03-1.13495E+05 3.15185E-09-4.24079E-08
 -1       820-2.76439E+05-4.91007E+04-9.77229E+03-1.10773E+05 1.79625E-09 1.31263E-08
 -1       821-3.40241E+05 1.87788E+04-4.34479E+04 8.74645E+02 6.25477E-09 4.80031E-09
 -1       822-3.58997E+05-2.17399E+04-3.07334E+04-1.66095E+03 1.53815E-10 1.59334E-08
 -1       823-3.47461E+05 2.94566E+03-1.12497E+04 1.08593E+03-4.16716E-09-1.22373E-09
 -1       824-3.50525E+05-3.40675E+03-7.07308E+03-1.58892E+03 1.44405E-10 6.51573E-09
 -1       825-3.48710E+05 4.59397E+02-2.91793E+03 8.02626E+02 5.76330E-09 4.73665E-09
 -1       826-3.49024E+05-5.38796E+02-1.73141E+03-6.70097E+02 5.39340E-09-1.46898E-08
 -1       827-3.48958E+05 7.75272E+01-9.29886E+02 1.67082E+02 3.42377E-09 5.87363E-10
 -1       828-3.48815E+05-1.62399E+02-7.78639E+02 6.34695E+02-9.81601E-10 1.49276E-08
 -1       829-3.48918E+05 8.29459E+01-9.43253E+02-5.02187E+02 9.09388E-10 1.29583E-08
 -1       830-3.49123E+05-5.64627E+02-1.81105E+03 1.66989E+03 5.83416E-10 1.08751E-08
 -1       831-3.48653E+05 4.81655E+02-3.01898E+03-8.68134E+02-2.58258E-09-7.98616E-09
 -1       832-3.50610E+05-3.54357E+03-7.35421E+03 1.91422E+03-1.53979E-09-6.87533E-09
 -1       833-3.47433E+05 3.06057E+03-1.16972E+04-7.46522E+02-1.49429E-09-3.58841E-09
 -1       834-3.59311E+05-2.25925E+04-3.19256E+04 1.23399E+03-1.36423E-09-1.14733E-09
 -1       835-3.39953E+05 1.95141E+04-4.51686E+04-1.87887E+02 4.92738E-09 2.04418E-08
 -1       836-1.20915E+03 3.25008E+05 1.99401E+04-1.61984E+04-3.36968E-09-5.94082E-09
 -1       837 4.29359E+03 3.31233E+05 1.69613E+04-3.27937E+04-3.14174E-09 1.03910E-08
 -1       838-4.71738E+02 3.26743E+05 1.74056E+04-1.61308E+04-2.70666E-09 1.07580E-08
 -1       839 1.10458E+04 3.36264E+05 3.30483E+04-3.28392E+04-2.98724E-09 8.12486E-09
 -1       840-3.38512E+03 3.19927E+05 5.27529E+04-1.61550E+04-2.52112E-09-2.99002E-09
 -1       856-6.29764E+04 7.74682E+03-2.04149E+04-4.03697E+02 8.73342E-10-1.04183E-08
 -1       857-7.13967E+04-9.09477E+03-1.40541E+04 5.17433E+03 3.33620E-09-1.41820E-08
 -1       858-6.63075E+04 1.08598E+03-5.29752E+03-4.26382E+02 2.63185E-11 5.49494E-09
 -1       859-6.75730E+04-1.27057E+03-3.19770E+03 5.20908E+03 7.83515E-10 2.38168E-09
 -1       860-6.68052E+04 1.51619E+02-1.34156E+03-4.38364E+02 1.12567E-09 8.86928E-09
 -1       861-6.70002E+04-1.74439E+02-7.41002E+02 5.22546E+03 2.41604E-09 1.27113E-09
 -1       862-6.68830E+04 2.02647E+01-3.14000E+02-4.42768E+02 1.40935E-09 1.20345E-08
 -1       863-6.69059E+04-1.58325E+01-1.27947E+02 5.22782E+03 3.10369E-09 2.03839E-09
 -1       864-6.68999E+04-3.42712E+00 1.50346E+01-4.40724E+02 1.37419E-10-1.51061E-08
 -1       865-6.68606E+04 4.91823E+01 1.78442E+02 5.21672E+03 3.45310E-10-9.30202E-09
 -1       866-6.69264E+04-4.49176E+01 3.75290E+02-4.31664E+02 2.24816E-10 1.11358E-08
 -1       867-6.66799E+04 3.72693E+02 9.33825E+02 5.19205E+03-9.26775E-10 1.48900E-08
 -1       868-6.70763E+04-3.21543E+02 1.55415E+03-4.16056E+02 2.01737E-10 8.77344E-09
 -1       869-6.55375E+04 2.67605E+03 4.14192E+03 5.15097E+03 4.01002E-10-1.44101E-08
 -1       870-6.80621E+04-2.28636E+03 6.01032E+03-3.90548E+02-1.37288E-09-1.69871E-08
 -1       871-5.03746E+03-1.61029E+04-1.71536E+04 1.14425E+05-1.75351E-09 7.63066E-09
 -1       872-1.97778E+03-2.00316E+04-7.12363E+03 1.48362E+05-4.71573E-09-5.62250E-09
 -1       873 1.81935E+02-1.81593E+04 6.67810E+02 1.14175E+05-2.39015E-09-3.82988E-09
 -1       874 2.76281E+03-1.59088E+04 8.95503E+03 1.48396E+05-5.35147E-09 1.49830E-08
 -1       875 6.04652E+03-2.02914E+04 2.00865E+04 1.14386E+05-2.08638E-09 5.28144E-09
 -1       876 2.64964E+05 4.49735E+04 1.37545E+04 1.06706E+05-3.23143E-09-9.65883E-10
 -1       877 2.65841E+05 4.79029E+04 7.34536E+03 1.10681E+05 7.99241E-09 9.53810E-09
 -1       878 2.66250E+05 4.34509E+04 3.07736E+03 1.07834E+05-2.63844E-09 1.95132E-09
 -1       879 2.63971E+05 4.60377E+04 1.53324E+03 1.10775E+05 1.44155E-09 9.88342E-09
 -1       880 2.66342E+05 4.34348E+04 7.14094E+02 1.07880E+05 6.52790E-10-1.41176E-09
 -1       881 2.63847E+05 4.59581E+04 3.81113E+02 1.10754E+05-9.77138E-10 1.63865E-10
 -1       882 2.66351E+05 4.34466E+04 2.43446E+02 1.07882E+05-1.46383E-09 2.35926E-09
 -1       883 2.63838E+05 4.59540E+04 2.61109E+02 1.10748E+05 1.30626E-09 2.51346E-08
 -1       884 2.66345E+05 4.34439E+04 4.14819E+02 1.07882E+05 2.08729E-10-3.05022E-10
 -1       885 2.63871E+05 4.59598E+04 8.33678E+02 1.10758E+05-5.89131E-09-2.24433E-08
 -1       886 2.66313E+05 4.34196E+04 1.68009E+03 1.07879E+05-3.23111E-09-4.89172E-09
 -1       887 2.64166E+05 4.61534E+04 3.66988E+03 1.10801E+05 5.86897E-09 2.20579E-08
 -1       888 2.66081E+05 4.34604E+04 7.39491E+03 1.07761E+05-2.70384E-09-1.68166E-09
 -1       889 2.68570E+05 5.07308E+04 1.76653E+04 1.10664E+05-2.91754E-09-1.29594E-08
 -1       890 2.63066E+05 4.70424E+04 3.30865E+04 1.04943E+05-1.91767E-09 1.16252E-08
 -1       891-1.14760E+02-1.47886E+05-1.79708E+03 2.57070E+04-3.79032E-10 6.97150E-09
 -1       892-2.10292E+02-1.48343E+05-1.93556E+03 3.89763E+04 1.22009E-09-6.12476E-09
 -1       893 4.94984E+00-1.47944E+05-2.74616E+03 2.57132E+04-3.21961E-10-2.34832E-09
 -1       894-1.41947E+03-1.49384E+05-5.68767E+03 3.88343E+04 9.79753E-10-9.39326E-09
 -1       895-1.12008E+03-1.46759E+05-1.00175E+04 2.58491E+04-5.35465E-10 3.52793E-09
 -1       956-3.38305E+05-4.81809E+03-1.20048E+04 2.56566E+04 3.04772E-09-5.64592E-09
 -1       957-3.40668E+05-1.66411E+03-6.16229E+03 3.08651E+04-5.67070E-10-2.53272E-09
 -1       958-3.39378E+05-1.72975E+02-2.77664E+03 2.55100E+04 2.80124E-10-1.02168E-08
 -1       959-3.39560E+05-7.30568E+01-1.41803E+03 3.10309E+04 3.85171E-09 8.83733E-09
 -1       960-3.39479E+05-7.77974E-01-6.91448E+02 2.54954E+04 1.71485E-09 1.44382E-10
 -1       961-3.39484E+05-1.01373E+01-3.66814E+02 3.10480E+04 2.82034E-09-3.03362E-09
 -1       962-3.39502E+05-3.45747E+00-2.10170E+02 2.54930E+04 4.41673E-09-3.77349E-09
 -1       963-3.39483E+05-7.37889E+00-1.69051E+02 3.10510E+04 1.29486E-08-1.48984E-08
 -1       964-3.39506E+05-7.67605E-01-2.05838E+02 2.54923E+04 1.83064E-09-2.32171E-09
 -1       965-3.39494E+05-4.40335E+00-3.56228E+02 3.10505E+04-2.00669E-09-2.39697E-09
 -1       966-3.39493E+05 7.21912E+00-6.69276E+02 2.54935E+04 2.91880E-09-1.18730E-08
 -1       967-3.39578E+05-5.97792E+01-1.37279E+03 3.10390E+04 2.58456E-09-3.74325E-09
 -1       968-3.39403E+05-1.54259E+02-2.68711E+03 2.55038E+04 1.79671E-09-4.66002E-09
 -1       969-3.40660E+05-1.59543E+03-5.96570E+03 3.09180E+04 3.57591E-09 5.00305E-09
 -1       970-3.38371E+05-4.64792E+03-1.16209E+04 2.56114E+04-6.88487E-10-4.52019E-09
 -1       971-3.12919E+05-1.58796E+03-8.67116E+03 1.42749E+04 6.70207E-09 4.86295E-10
 -1       972-3.15015E+05-1.15597E+03-4.72224E+03 1.98306E+04 1.26147E-08 1.62618E-09
 -1       973-3.13885E+05-3.73193E+01-2.11493E+03 1.41593E+04 6.50743E-09 1.06547E-08
 -1       974-3.14019E+05-4.72436E+01-1.09608E+03 1.99589E+04-3.45449E-09 1.19618E-08
 -1       975-3.13960E+05 4.05447E+00-5.47739E+02 1.41481E+04 4.49745E-10-4.01280E-09
 -1       976-3.13961E+05-1.16645E+00-3.15749E+02 1.99730E+04 6.53017E-10-1.31355E-08
 -1       977-3.13975E+05 4.42750E+00-2.28699E+02 1.41451E+04-2.03568E-09-1.21645E-10
 -1       978-3.13966E+05 4.37732E+00-2.66994E+02 1.99772E+04-8.30596E-10 5.81815E-09
 -1       979-3.13975E+05 1.19813E+01-4.28428E+02 1.41439E+04-1.47230E-09 1.20401E-08
 -1       980-3.13998E+05 7.11267E+00-8.26897E+02 1.99780E+04 9.79199E-10-4.31794E-09
 -1       981-3.13949E+05 3.26294E+01-1.60132E+03 1.41444E+04-1.32350E-08 3.24007E-09
 -1       982-3.14217E+05-1.11157E+02-3.30980E+03 1.99719E+04-2.45545E-08 4.67679E-10
 -1       983-3.13747E+05-6.98334E+01-6.43089E+03 1.41501E+04-1.35851E-08-2.66891E-09
 -1       984-3.17310E+05-3.46969E+03-1.44015E+04 1.98917E+04-4.23415E-09-3.11957E-09
 -1       985-3.10836E+05-4.77552E+03-2.64457E+04 1.42229E+04-4.73847E-10-9.88803E-09
 -3
    1PSTEP                        21          11           1          
  100CL  111 6.26953E-01         409                     0   11           1
 -4  DISP        4    1
 -5  D1          1    2    1    0
 -5  D2          1    2    2    0
 -5  D3          1    2    3    0
 -5  ALL         1    2    0    0    1ALL
 -1         1 1.70925E-03 0.00000E+00 0.00000E+00
 -1         2 1.59916E-03 5.85813E-28 0.00000E+00
 -1         3 2.93032E-04 4.12376E-27 0.00000E+00
 -1         5 1.58563E-04 7.82369E-27 2.48154E-24
 -1         8 1.69116E-03-5.59534E-07 0.00000E+00
 -1         9 1.65307E-03-4.87466E-06 0.00000E+00
 -1        10 2.66220E-04-3.39178E-06-6.61744E-24
 -1        12 1.59728E-04 7.39931E-07 1.24077E-24
 -1        15 1.66926E-03-6.14208E-07-2.06795E-25
 -1        16 1.67667E-03-5.87474E-06 0.00000E+00
 -1        17 1.82965E-04-7.53265E-06 0.00000E+00
 -1        18 1.61730E-04 2.50730E-05 0.00000E+00
 -1        19 1.63222E-04 1.47521E-06 0.00000E+00
 -1        20 1.63366E-04-2.49313E-06 0.00000E+00
 -1        21 1.62570E-04-9.72803E-06 0.00000E+00
 -1        24 2.83586E-05-1.10614E-05 0.00000E+00
 -1        25 1.69139E-04 2.52705E-05 0.00000E+00
 -1        26 1.69849E-04 2.04716E-06 0.00000E+00
 -1        27 1.67829E-04-5.79168E-06 0.00000E+00
 -1        28 1.67478E-04-1.03133E-05 0.00000E+00
 -1        32 0.00000E+00 0.00000E+00 0.00000E+00
 -1        33 1.75444E-04 2.74287E-06 0.00000E+00
 -1        34 1.73479E-04-5.83666E-06 0.00000E+00
 -1        35 1.71672E-04-1.06321E-05 0.00000E+00
 -1        51 1.70809E-03-1.03812E-07 0.00000E+00
 -1        52 1.70593E-03-1.93893E-07 0.00000E+00
 -1        53 1.70295E-03-2.82332E-07 0.00000E+00
 -1        54 1.69936E-03-3.71218E-07 0.00000E+00
 -1        55 1.69536E-03-4.62034E-07-4.96308E-24
 -1        56 1.70575E-03 5.00613E-08 0.00000E+00
 -1        57 1.70126E-03 2.37479E-06 5.29396E-23
 -1        58 1.69604E-03 6.62271E-06 1.05879E-22
 -1        59 1.69028E-03 1.22435E-05 0.00000E+00
 -1        60 1.68427E-03 1.85020E-05-1.05879E-22
 -1        61 1.67832E-03 2.46083E-05 5.29396E-23
 -1        62 1.67272E-03 2.97962E-05-1.05879E-22
 -1        63 1.66773E-03 3.33654E-05-5.29396E-23
 -1        64 1.66353E-03 3.48550E-05-1.05879E-22
 -1        65 1.66023E-03 3.39567E-05 0.00000E+00
 -1        66 1.65781E-03 3.07154E-05-1.05879E-22
 -1        67 1.65618E-03 2.53502E-05 0.00000E+00
 -1        68 1.65514E-03 1.83943E-05 1.05879E-22
 -1        69 1.65447E-03 1.05060E-05 5.29396E-23
 -1        70 1.65384E-03 2.46903E-06 0.00000E+00
 -1        86 1.60187E-03-7.72625E-07 0.00000E+00
 -1        87 1.60992E-03-1.57281E-06 0.00000E+00
 -1        88 1.62132E-03-2.40303E-06 0.00000E+00
 -1        89 1.63399E-03-3.24790E-06 0.00000E+00
 -1        90 1.64541E-03-4.07879E-06-2.64698E-23
 -1       121 2.92279E-04-5.52743E-07 0.00000E+00
 -1       122 2.90023E-04-1.10766E-06 0.00000E+00
 -1       123 2.86273E-04-1.66691E-06 1.32349E-23
 -1       124 2.81042E-04-2.23264E-06 0.00000E+00
 -1       125 2.74349E-04-2.80668E-06-1.32349E-23
 -1       191 1.58596E-04 1.23350E-07 1.65436E-24
 -1       192 1.58693E-04 2.46694E-07 4.13590E-25
 -1       193 1.58854E-04 3.70030E-07-2.48154E-24
 -1       194 1.59081E-04 4.93353E-07 8.27181E-25
 -1       195 1.59372E-04 6.16655E-07-2.48154E-24
 -1       251 1.69039E-03 1.87259E-05-1.32349E-23
 -1       252 1.68858E-03 6.88450E-05-6.61744E-24
 -1       253 1.68553E-03 1.40796E-04 1.32349E-23
 -1       254 1.68155E-03 2.25072E-04 6.61744E-24
 -1       255 1.67762E-03 3.08778E-04 1.32349E-23
 -1       256 1.67468E-03 3.79033E-04 6.61744E-24
 -1       257 1.67298E-03 4.26647E-04 0.00000E+00
 -1       258 1.67225E-03 4.42955E-04 0.00000E+00
 -1       259 1.67153E-03 4.27459E-04 0.00000E+00
 -1       260 1.66987E-03 3.80453E-04-6.61744E-24
 -1       261 1.66695E-03 3.10447E-04-1.32349E-23
 -1       262 1.66299E-03 2.26480E-04-6.61744E-24
 -1       263 1.65894E-03 1.41422E-04-1.32349E-23
 -1       264 1.65580E-03 6.81692E-05 0.00000E+00
 -1       265 1.65390E-03 1.63530E-05 2.64698E-23
 -1       266 1.68751E-03-5.76802E-07-3.30872E-24
 -1       267 1.68386E-03-5.84920E-07-8.27181E-25
 -1       268 1.68021E-03-5.93618E-07 0.00000E+00
 -1       269 1.67656E-03-6.00599E-07-2.06795E-25
 -1       270 1.67291E-03-6.07540E-07-2.06795E-25
 -1       271 1.68889E-03 2.82179E-06 0.00000E+00
 -1       272 1.68659E-03 6.21422E-06-1.32349E-23
 -1       273 1.68433E-03 9.50437E-06 0.00000E+00
 -1       274 1.68214E-03 1.25667E-05 0.00000E+00
 -1       275 1.68009E-03 1.52818E-05-2.64698E-23
 -1       276 1.67822E-03 1.75326E-05 0.00000E+00
 -1       277 1.67656E-03 1.92078E-05 2.64698E-23
 -1       278 1.67516E-03 2.02025E-05 1.32349E-23
 -1       279 1.67405E-03 2.04195E-05 0.00000E+00
 -1       280 1.67326E-03 1.97707E-05 0.00000E+00
 -1       281 1.67283E-03 1.81780E-05-2.64698E-23
 -1       282 1.67278E-03 1.55738E-05 0.00000E+00
 -1       283 1.67312E-03 1.19026E-05-2.64698E-23
 -1       284 1.67388E-03 7.12183E-06-1.32349E-23
 -1       285 1.67505E-03 1.19971E-06 0.00000E+00
 -1       301 1.65737E-03-5.06337E-06-6.61744E-24
 -1       302 1.66069E-03-5.22140E-06 3.30872E-24
 -1       303 1.66366E-03-5.37601E-06 0.00000E+00
 -1       304 1.66690E-03-5.53063E-06 0.00000E+00
 -1       305 1.67103E-03-5.69011E-06 0.00000E+00
 -1       306 1.68346E-03-1.20029E-04 0.00000E+00
 -1       307 1.74691E-03-4.41781E-04-5.29396E-23
 -1       308 1.81130E-03-9.18857E-04 1.05879E-22
 -1       309 1.86615E-03-1.47957E-03 0.00000E+00
 -1       310 1.92266E-03-2.02709E-03-1.05879E-22
 -1       311 1.98905E-03-2.46586E-03 5.29396E-23
 -1       312 2.04717E-03-2.73130E-03-1.05879E-22
 -1       313 2.05935E-03-2.78386E-03 5.29396E-23
 -1       314 1.97989E-03-2.62727E-03 0.00000E+00
 -1       315 1.77916E-03-2.29783E-03 5.29396E-23
 -1       316 1.46811E-03-1.85364E-03 0.00000E+00
 -1       317 1.08800E-03-1.35348E-03-5.29396E-23
 -1       318 7.14536E-04-8.58513E-04 1.05879E-22
 -1       319 4.21524E-04-4.30741E-04 0.00000E+00
 -1       320 2.43266E-04-1.28506E-04 0.00000E+00
 -1       336 2.56499E-04-4.03423E-06 0.00000E+00
 -1       337 2.45038E-04-4.69498E-06 6.61744E-24
 -1       338 2.31887E-04-5.37529E-06-1.32349E-23
 -1       339 2.17111E-04-6.07544E-06-6.61744E-24
 -1       340 2.00778E-04-6.79894E-06 0.00000E+00
 -1       406 1.60148E-04 8.63168E-07 8.27181E-25
 -1       407 1.60634E-04 9.86337E-07 0.00000E+00
 -1       408 1.61184E-04 1.10940E-06 1.65436E-24
 -1       409 1.61799E-04 1.23221E-06 0.00000E+00
 -1       410 1.62478E-04 1.35451E-06 1.65436E-24
 -1       521 1.70807E-03-1.29556E-04-1.05879E-22
 -1       522 1.77153E-03-4.70405E-04 0.00000E+00
 -1       523 1.83286E-03-9.74465E-04 0.00000E+00
 -1       524 1.88224E-03-1.56440E-03-5.29396E-23
 -1       525 1.93382E-03-2.13972E-03-1.05879E-22
 -1       526 1.99827E-03-2.60141E-03-5.29396E-23
 -1       527 2.05665E-03-2.87962E-03 1.05879E-22
 -1       528 2.06799E-03-2.93354E-03-5.29396E-23
 -1       529 1.98103E-03-2.76628E-03 0.00000E+00
 -1       530 1.76358E-03-2.41934E-03 0.00000E+00
 -1       531 1.42651E-03-1.95392E-03 0.00000E+00
 -1       532 1.01535E-03-1.43219E-03 0.00000E+00
 -1       533 6.10764E-04-9.15275E-04-1.05879E-22
 -1       534 2.91540E-04-4.65165E-04 0.00000E+00
 -1       535 9.63587E-05-1.44019E-04 0.00000E+00
 -1       536 1.82386E-04 2.19304E-05-6.61744E-24
 -1       537 1.80970E-04 7.31526E-05 3.30872E-24
 -1       538 1.78801E-04 1.38207E-04 0.00000E+00
 -1       539 1.76250E-04 2.09093E-04 0.00000E+00
 -1       540 1.73952E-04 2.76060E-04 0.00000E+00
 -1       541 1.72446E-04 3.29375E-04 1.65436E-24
 -1       542 1.71735E-04 3.63218E-04 0.00000E+00
 -1       543 1.71538E-04 3.71895E-04-1.65436E-24
 -1       544 1.71262E-04 3.56112E-04 0.00000E+00
 -1       545 1.70359E-04 3.16753E-04 0.00000E+00
 -1       546 1.68721E-04 2.60831E-04-3.30872E-24
 -1       547 1.66530E-04 1.95460E-04 1.65436E-24
 -1       548 1.64366E-04 1.30529E-04 3.30872E-24
 -1       549 1.62798E-04 7.59272E-05 0.00000E+00
 -1       550 1.61969E-04 3.85215E-05 0.00000E+00
 -1       551 1.61570E-04-8.01927E-06 0.00000E+00
 -1       552 1.37234E-04-8.56601E-06-3.30872E-24
 -1       553 1.10843E-04-9.16011E-06-8.27181E-24
 -1       554 8.32991E-05-9.78505E-06 0.00000E+00
 -1       555 5.55052E-05-1.04188E-05 0.00000E+00
 -1       556 1.76595E-04 8.81340E-06 0.00000E+00
 -1       557 1.71479E-04 2.19859E-05 0.00000E+00
 -1       558 1.67500E-04 3.22380E-05 0.00000E+00
 -1       559 1.64542E-04 3.98431E-05 0.00000E+00
 -1       560 1.62493E-04 4.50747E-05 0.00000E+00
 -1       561 1.61242E-04 4.82084E-05 0.00000E+00
 -1       562 1.60680E-04 4.95208E-05 0.00000E+00
 -1       563 1.60699E-04 4.92891E-05 0.00000E+00
 -1       564 1.61193E-04 4.77914E-05 0.00000E+00
 -1       565 1.62055E-04 4.53059E-05 0.00000E+00
 -1       566 1.63182E-04 4.21115E-05-6.61744E-24
 -1       567 1.64468E-04 3.84873E-05 0.00000E+00
 -1       568 1.65811E-04 3.47124E-05 8.27181E-25
 -1       569 1.67106E-04 3.10659E-05 0.00000E+00
 -1       570 1.68249E-04 2.78271E-05 0.00000E+00
 -1       571 1.61820E-04 2.35475E-05 8.27181E-25
 -1       572 1.61913E-04 2.19620E-05-8.27181E-25
 -1       573 1.62006E-04 2.03301E-05 3.30872E-24
 -1       574 1.62099E-04 1.86663E-05 1.65436E-24
 -1       575 1.62192E-04 1.69850E-05-3.30872E-24
 -1       576 1.62286E-04 1.53007E-05-1.65436E-24
 -1       577 1.62379E-04 1.36278E-05-3.30872E-24
 -1       578 1.62472E-04 1.19808E-05 3.30872E-24
 -1       579 1.62566E-04 1.03742E-05 0.00000E+00
 -1       580 1.62659E-04 8.82266E-06-6.61744E-24
 -1       581 1.62753E-04 7.34053E-06 0.00000E+00
 -1       582 1.62847E-04 5.94233E-06 0.00000E+00
 -1       583 1.62940E-04 4.64254E-06 0.00000E+00
 -1       584 1.63034E-04 3.45549E-06 0.00000E+00
 -1       585 1.63128E-04 2.39537E-06 0.00000E+00
 -1       586 1.62918E-04 2.51079E-05-1.65436E-24
 -1       587 1.64071E-04 2.51422E-05-4.13590E-25
 -1       588 1.65229E-04 2.51761E-05 8.27181E-25
 -1       589 1.66434E-04 2.52095E-05 0.00000E+00
 -1       590 1.67724E-04 2.52417E-05 0.00000E+00
 -1       591 1.62244E-04 2.36259E-05-1.03398E-25
 -1       592 1.62763E-04 2.21557E-05 0.00000E+00
 -1       593 1.63289E-04 2.06685E-05 8.27181E-25
 -1       594 1.63818E-04 1.91692E-05 4.13590E-25
 -1       595 1.64350E-04 1.76628E-05 0.00000E+00
 -1       596 1.64882E-04 1.61543E-05-4.13590E-25
 -1       597 1.65414E-04 1.46487E-05 0.00000E+00
 -1       598 1.65942E-04 1.31509E-05 4.13590E-25
 -1       599 1.66466E-04 1.16658E-05-8.27181E-25
 -1       600 1.66983E-04 1.01986E-05-4.13590E-25
 -1       601 1.67492E-04 8.75403E-06 0.00000E+00
 -1       602 1.67990E-04 7.33716E-06 0.00000E+00
 -1       603 1.68477E-04 5.95293E-06-8.27181E-25
 -1       604 1.68949E-04 4.60641E-06 9.37041E-26
 -1       605 1.69406E-04 3.30249E-06 0.00000E+00
 -1       606 1.63235E-04 7.67184E-07 0.00000E+00
 -1       607 1.63245E-04 1.47546E-07 1.65436E-24
 -1       608 1.63254E-04-3.88895E-07 0.00000E+00
 -1       609 1.63263E-04-8.47989E-07 0.00000E+00
 -1       610 1.63272E-04-1.23564E-06 0.00000E+00
 -1       611 1.63281E-04-1.55780E-06 0.00000E+00
 -1       612 1.63289E-04-1.82046E-06 0.00000E+00
 -1       613 1.63298E-04-2.02958E-06 0.00000E+00
 -1       614 1.63307E-04-2.19115E-06 0.00000E+00
 -1       615 1.63315E-04-2.31116E-06 0.00000E+00
 -1       616 1.63324E-04-2.39557E-06 0.00000E+00
 -1       617 1.63333E-04-2.45038E-06 0.00000E+00
 -1       618 1.63341E-04-2.48156E-06 0.00000E+00
 -1       619 1.63350E-04-2.49509E-06 0.00000E+00
 -1       620 1.63358E-04-2.49696E-06 0.00000E+00
 -1       621 1.64099E-04 1.57091E-06 0.00000E+00
 -1       622 1.65102E-04 1.66690E-06-8.27181E-25
 -1       623 1.66205E-04 1.76276E-06-3.30872E-24
 -1       624 1.67381E-04 1.85837E-06-8.27181E-25
 -1       625 1.68605E-04 1.95375E-06 0.00000E+00
 -1       626 1.63592E-04 8.00434E-07-3.30872E-24
 -1       627 1.63937E-04 1.92815E-07-1.65436E-24
 -1       628 1.64260E-04-3.55423E-07-6.61744E-24
 -1       629 1.64565E-04-8.52405E-07 0.00000E+00
 -1       630 1.64853E-04-1.30628E-06 3.30872E-24
 -1       631 1.65128E-04-1.72522E-06 1.65436E-24
 -1       632 1.65393E-04-2.11740E-06 0.00000E+00
 -1       633 1.65652E-04-2.49099E-06 1.65436E-24
 -1       634 1.65906E-04-2.85417E-06 3.30872E-24
 -1       635 1.66159E-04-3.21510E-06-1.65436E-24
 -1       636 1.66415E-04-3.58197E-06 0.00000E+00
 -1       637 1.66676E-04-3.96294E-06 1.65436E-24
 -1       638 1.66945E-04-4.36619E-06 0.00000E+00
 -1       639 1.67225E-04-4.79992E-06 0.00000E+00
 -1       640 1.67520E-04-5.27232E-06-3.30872E-24
 -1       656 1.63590E-04-3.02943E-06 0.00000E+00
 -1       657 1.64219E-04-3.58742E-06 0.00000E+00
 -1       658 1.65116E-04-4.14399E-06 0.00000E+00
 -1       659 1.66134E-04-4.70020E-06 0.00000E+00
 -1       660 1.67098E-04-5.25810E-06 0.00000E+00
 -1       661 1.63451E-04-2.52984E-06-8.27181E-25
 -1       662 1.63570E-04-2.64939E-06 8.27181E-25
 -1       663 1.63718E-04-2.84739E-06 1.65436E-24
 -1       664 1.63894E-04-3.11821E-06-8.27181E-25
 -1       665 1.64096E-04-3.45687E-06 0.00000E+00
 -1       666 1.64321E-04-3.85828E-06 0.00000E+00
 -1       667 1.64568E-04-4.31762E-06 1.65436E-24
 -1       668 1.64835E-04-4.83011E-06 0.00000E+00
 -1       669 1.65120E-04-5.39116E-06 0.00000E+00
 -1       670 1.65421E-04-5.99623E-06 0.00000E+00
 -1       671 1.65737E-04-6.64095E-06 0.00000E+00
 -1       672 1.66067E-04-7.32102E-06 0.00000E+00
 -1       673 1.66408E-04-8.03218E-06 1.65436E-24
 -1       674 1.66758E-04-8.77055E-06 8.27181E-25
 -1       675 1.67117E-04-9.53164E-06 0.00000E+00
 -1       676 1.63390E-04-9.82614E-06 3.30872E-24
 -1       677 1.64211E-04-9.92421E-06 1.65436E-24
 -1       678 1.65030E-04-1.00222E-05 0.00000E+00
 -1       679 1.65848E-04-1.01199E-05 1.65436E-24
 -1       680 1.66664E-04-1.02177E-05 0.00000E+00
 -1       771 1.81889E-05 1.14642E-05 0.00000E+00
 -1       772 9.60299E-06 2.99609E-05-5.29396E-23
 -1       773 2.52527E-06 4.46273E-05-5.29396E-23
 -1       774-3.14702E-06 5.56852E-05 2.64698E-23
 -1       775-7.51475E-06 6.33641E-05 5.29396E-23
 -1       776-1.06828E-05 6.79068E-05 0.00000E+00
 -1       777-1.27563E-05 6.95641E-05-5.29396E-23
 -1       778-1.38424E-05 6.85975E-05 0.00000E+00
 -1       779-1.40482E-05 6.52751E-05-1.05879E-22
 -1       780-1.34825E-05 5.98740E-05 2.64698E-23
 -1       781-1.22537E-05 5.26766E-05 5.29396E-23
 -1       782-1.04713E-05 4.39721E-05 0.00000E+00
 -1       783-8.24460E-06 3.40534E-05 5.29396E-23
 -1       784-5.68385E-06 2.32181E-05-2.64698E-23
 -1       785-2.89865E-06 1.17663E-05 0.00000E+00
 -1       786 1.69179E-04 2.36020E-05 5.16988E-26
 -1       787 1.69223E-04 2.19812E-05-4.13590E-25
 -1       788 1.69267E-04 2.04003E-05 8.27181E-25
 -1       789 1.69311E-04 1.88512E-05 0.00000E+00
 -1       790 1.69356E-04 1.73295E-05 1.65436E-24
 -1       791 1.69400E-04 1.58306E-05 0.00000E+00
 -1       792 1.69445E-04 1.43524E-05 1.65436E-24
 -1       793 1.69490E-04 1.28930E-05 0.00000E+00
 -1       794 1.69534E-04 1.14520E-05 1.65436E-24
 -1       795 1.69579E-04 1.00296E-05 8.27181E-25
 -1       796 1.69624E-04 8.62743E-06 0.00000E+00
 -1       797 1.69669E-04 7.24747E-06 8.27181E-25
 -1       798 1.69714E-04 5.89391E-06 0.00000E+00
 -1       799 1.69759E-04 4.57103E-06-8.27181E-25
 -1       800 1.69804E-04 3.28626E-06 1.65436E-24
 -1       801 1.31874E-04 2.25585E-05 2.64698E-23
 -1       802 1.88721E-05 1.43607E-05 0.00000E+00
 -1       803-7.91673E-05 7.44226E-06 0.00000E+00
 -1       804-7.29811E-05 5.10568E-06 2.64698E-23
 -1       805-2.45161E-05 2.14914E-06 0.00000E+00
 -1       806 1.69658E-04 2.35391E-05 0.00000E+00
 -1       807 1.70164E-04 2.18335E-05 1.65436E-24
 -1       808 1.70658E-04 2.01583E-05 3.30872E-24
 -1       809 1.71139E-04 1.85172E-05 0.00000E+00
 -1       810 1.71605E-04 1.69137E-05-3.30872E-24
 -1       811 1.72056E-04 1.53512E-05 0.00000E+00
 -1       812 1.72491E-04 1.38333E-05 0.00000E+00
 -1       813 1.72907E-04 1.23634E-05 0.00000E+00
 -1       814 1.73305E-04 1.09449E-05-1.65436E-24
 -1       815 1.73682E-04 9.58124E-06-8.27181E-25
 -1       816 1.74037E-04 8.27590E-06-1.65436E-24
 -1       817 1.74369E-04 7.03226E-06-8.27181E-25
 -1       818 1.74677E-04 5.85374E-06-1.65436E-24
 -1       819 1.74959E-04 4.74376E-06 1.65436E-24
 -1       820 1.75215E-04 3.70570E-06-1.65436E-24
 -1       821 1.69730E-04 6.08762E-07 0.00000E+00
 -1       822 1.69602E-04-1.27090E-06 1.65436E-24
 -1       823 1.69475E-04-3.38512E-06 3.30872E-24
 -1       824 1.69346E-04-5.52577E-06-1.65436E-24
 -1       825 1.69218E-04-7.47824E-06 0.00000E+00
 -1       826 1.69089E-04-9.02889E-06 0.00000E+00
 -1       827 1.68962E-04-1.00672E-05 0.00000E+00
 -1       828 1.68835E-04-1.04855E-05 0.00000E+00
 -1       829 1.68708E-04-1.03353E-05 0.00000E+00
 -1       830 1.68581E-04-9.67119E-06-1.65436E-24
 -1       831 1.68453E-04-8.67956E-06 3.30872E-24
 -1       832 1.68326E-04-7.54876E-06-1.65436E-24
 -1       833 1.68199E-04-6.50285E-06 3.30872E-24
 -1       834 1.68073E-04-5.76534E-06 0.00000E+00
 -1       835 1.67948E-04-5.48093E-06 8.27181E-25
 -1       836 1.70977E-04 2.16266E-06-3.30872E-24
 -1       837 1.71985E-04 2.28098E-06 0.00000E+00
 -1       838 1.72904E-04 2.39919E-06 0.00000E+00
 -1       839 1.73766E-04 2.51672E-06 0.00000E+00
 -1       840 1.74602E-04 2.63408E-06 0.00000E+00
 -1       856 1.67811E-04-6.33210E-06 0.00000E+00
 -1       857 1.67789E-04-6.74409E-06 0.00000E+00
 -1       858 1.67768E-04-7.04764E-06 0.00000E+00
 -1       859 1.67746E-04-7.26284E-06 2.06795E-25
 -1       860 1.67724E-04-7.40984E-06 0.00000E+00
 -1       861 1.67702E-04-7.50886E-06 0.00000E+00
 -1       862 1.67680E-04-7.58014E-06-8.27181E-25
 -1       863 1.67658E-04-7.64396E-06 0.00000E+00
 -1       864 1.67635E-04-7.72060E-06 0.00000E+00
 -1       865 1.67613E-04-7.83034E-06 4.13590E-25
 -1       866 1.67591E-04-7.99340E-06 0.00000E+00
 -1       867 1.67569E-04-8.23001E-06 0.00000E+00
 -1       868 1.67547E-04-8.56028E-06-8.27181E-25
 -1       869 1.67524E-04-9.00430E-06 0.00000E+00
 -1       870 1.67502E-04-9.58200E-06 8.27181E-25
 -1       871 1.68637E-04-5.79513E-06 0.00000E+00
 -1       872 1.69581E-04-5.80165E-06 0.00000E+00
 -1       873 1.70600E-04-5.80878E-06 0.00000E+00
 -1       874 1.71631E-04-5.81660E-06 2.06795E-25
 -1       875 1.72611E-04-5.82498E-06 0.00000E+00
 -1       876 1.68151E-04-6.31873E-06 0.00000E+00
 -1       877 1.68452E-04-6.78275E-06 1.65436E-24
 -1       878 1.68733E-04-7.19130E-06 3.30872E-24
 -1       879 1.68995E-04-7.55135E-06 0.00000E+00
 -1       880 1.69243E-04-7.86994E-06-3.30872E-24
 -1       881 1.69477E-04-8.15404E-06 0.00000E+00
 -1       882 1.69701E-04-8.41062E-06-3.30872E-24
 -1       883 1.69917E-04-8.64665E-06-1.65436E-24
 -1       884 1.70128E-04-8.86907E-06 3.30872E-24
 -1       885 1.70337E-04-9.08484E-06 1.65436E-24
 -1       886 1.70546E-04-9.30091E-06 0.00000E+00
 -1       887 1.70757E-04-9.52424E-06 1.65436E-24
 -1       888 1.70974E-04-9.76181E-06 3.30872E-24
 -1       889 1.71197E-04-1.00207E-05-1.65436E-24
 -1       890 1.71431E-04-1.03079E-05 1.65436E-24
 -1       891 1.68313E-04-1.03668E-05-1.65436E-24
 -1       892 1.69125E-04-1.04204E-05 8.27181E-25
 -1       893 1.69892E-04-1.04740E-05 1.65436E-24
 -1       894 1.70588E-04-1.05274E-05-4.13590E-25
 -1       895 1.71189E-04-1.05806E-05 8.27181E-25
 -1       956 1.75323E-04 1.93860E-06 1.65436E-24
 -1       957 1.75201E-04 1.21705E-06 1.65436E-24
 -1       958 1.75078E-04 5.68613E-07 0.00000E+00
 -1       959 1.74954E-04-1.68122E-08 0.00000E+00
 -1       960 1.74831E-04-5.49384E-07 3.30872E-24
 -1       961 1.74708E-04-1.03929E-06 0.00000E+00
 -1       962 1.74585E-04-1.49673E-06 3.30872E-24
 -1       963 1.74461E-04-1.93192E-06 1.65436E-24
 -1       964 1.74338E-04-2.35506E-06 3.30872E-24
 -1       965 1.74215E-04-2.77637E-06 0.00000E+00
 -1       966 1.74092E-04-3.20606E-06 3.30872E-24
 -1       967 1.73968E-04-3.65435E-06-1.65436E-24
 -1       968 1.73845E-04-4.13142E-06-3.30872E-24
 -1       969 1.73722E-04-4.64746E-06 1.65436E-24
 -1       970 1.73599E-04-5.21262E-06-3.30872E-24
 -1       971 1.73367E-04-6.45532E-06 3.30872E-24
 -1       972 1.73253E-04-6.98304E-06 1.65436E-24
 -1       973 1.73140E-04-7.42984E-06 3.30872E-24
 -1       974 1.73027E-04-7.80616E-06 0.00000E+00
 -1       975 1.72913E-04-8.12241E-06 3.30872E-24
 -1       976 1.72800E-04-8.38906E-06 0.00000E+00
 -1       977 1.72686E-04-8.61656E-06-3.30872E-24
 -1       978 1.72573E-04-8.81541E-06 0.00000E+00
 -1       979 1.72459E-04-8.99608E-06 0.00000E+00
 -1       980 1.72346E-04-9.16905E-06 0.00000E+00
 -1       981 1.72232E-04-9.34482E-06 3.30872E-24
 -1       982 1.72119E-04-9.53386E-06 0.00000E+00
 -1       983 1.72006E-04-9.74667E-06-3.30872E-24
 -1       984 1.71893E-04-9.99370E-06-1.65436E-24
 -1       985 1.71780E-04-1.02854E-05 3.30872E-24
 -3
    1PSTEP                        22          11           1          
  100CL  111 6.26953E-01         409                     0   11           1
 -4  STRESS      6    1
 -5  SXX         1    4    1    1
 -5  SYY         1    4    2    2
 -5  SZZ         1    4    3    3
 -5  SXY         1    4    1    2
 -5  SYZ         1    4    2    3
 -5  SZX         1    4    3    1
 -1         1-4.11390E+06-1.56011E+06-9.03725E+05-1.57454E+06 1.48430E-09-6.07979E-08
 -1         2 1.12221E+03-2.16562E+06 5.11170E+03 5.05977E+04 1.09355E-09-3.51947E-08
 -1         3-1.04022E+03-1.57245E+06 3.87840E+02-1.86890E+03-3.56959E-10 1.39844E-08
 -1         5-3.04643E+01 3.53062E+05 9.00702E+00-7.10104E-01-3.08992E-10 1.46829E-08
 -1         8-7.01397E+05-2.36751E+05-6.09589E+04-2.95850E+05 4.83851E-10-9.19099E-08
 -1         9 5.87488E+06-7.07665E+05 1.01226E+06-1.00473E+06 2.67755E-08-9.59029E-08
 -1        10-1.95041E+03-1.63852E+06-3.56209E+03-1.26298E+04-1.19016E-08-5.60464E-08
 -1        12-2.68265E+01 3.53081E+05 2.93544E+02-5.01922E+00-5.76424E-10 6.64477E-09
 -1        15 1.35136E+03 7.42646E+02 4.36823E+03 2.13234E+00-1.87711E-10-1.83655E-07
 -1        16 1.34783E+07-2.31979E+05 1.92296E+06-1.19653E+06 1.51534E-08 1.53785E-07
 -1        17 4.79578E+06 3.27332E+06 1.29342E+06 3.27971E+06 1.29134E-08 2.50875E-08
 -1        18 8.87347E+04 1.88413E+04-6.45428E+03-1.06169E+05 1.50719E-08-2.11685E-09
 -1        19 1.13345E+05 1.30243E+05-8.70972E+02 2.08900E+04 1.08303E-09 1.52875E-08
 -1        20-7.07957E+04-5.30737E+05-1.18744E+05 2.60966E+04-2.32224E-10 4.42803E-09
 -1        21-4.41220E+01-2.79934E+05-8.79624E+02 1.57589E+02 1.11997E-08 9.16437E-09
 -1        24 7.73610E+06 6.60209E+06 2.25898E+06 6.11941E+06-1.33354E-07-4.19871E-08
 -1        25 3.43825E+04-6.70377E+04 1.45060E+04-4.53880E+05-8.76025E-10-1.23146E-09
 -1        26-4.91370E+04 8.48398E+04-2.25349E+04-6.65007E+02 5.86078E-10 9.51976E-09
 -1        27-7.28448E+04-2.87519E+05-1.05727E+05 6.41204E+04 4.29372E-09-6.33099E-09
 -1        28 2.12022E+04-8.00614E+04 1.59568E+04 2.04872E+04-2.52228E-09 4.05622E-09
 -1        32-1.58347E+06-2.84854E+06-1.58012E+05 1.18448E+05-3.57686E-08-4.67395E-09
 -1        33-1.66252E+05 8.52883E+04 2.99164E+04-3.69019E+04-1.85582E-09 1.50452E-08
 -1        34-2.08721E+05-2.27666E+04 6.17846E+02 6.93272E+04-2.98584E-09 3.05345E-08
 -1        35-2.17702E+04-3.17598E+04-1.26184E+03 4.87256E+04-1.06938E-09-1.00008E-08
 -1        51 4.56439E+04-2.29589E+05 9.95460E+04-6.74812E+05 2.76486E-10 8.25385E-08
 -1        52 1.69458E+04-2.14245E+05 5.43380E+04-7.86745E+05-2.43745E-10 1.22454E-08
 -1        53 5.26593E+03-2.29470E+05 3.16401E+04-6.72342E+05 4.00178E-10 9.07239E-08
 -1        54 1.24387E+04-2.26176E+05 3.27671E+04-7.89325E+05 9.45874E-11 2.26428E-08
 -1        55 2.59071E+04-2.36227E+05 4.77601E+04-6.71974E+05 5.02041E-10-1.13883E-07
 -1        56-7.78029E+06-8.83434E+05-6.68636E+05-3.04316E+06 6.83940E-09-1.22091E-07
 -1        57-8.17760E+06-1.35612E+06-4.50297E+05-2.86442E+06 2.76195E-08-4.72937E-10
 -1        58-7.88153E+06-1.12735E+06-1.57077E+05-3.03672E+06-7.67250E-09 1.96305E-08
 -1        59-8.06668E+06-1.06470E+06-9.35123E+04-2.86892E+06-6.34009E-09-5.62632E-08
 -1        60-7.89052E+06-1.16659E+06-3.64482E+04-3.04199E+06 2.22230E-08-3.88372E-08
 -1        61-8.03994E+06-1.03344E+06-2.05386E+04-2.87909E+06-1.79716E-08-1.10031E-08
 -1        62-7.90747E+06-1.15783E+06-1.02393E+04-3.02655E+06-1.64746E-08 2.88692E-08
 -1        63-7.98991E+06-1.07286E+06-7.47107E+03-2.92696E+06-4.05635E-08 1.01364E-07
 -1        64-7.93857E+06-1.12835E+06-9.95278E+03-2.99271E+06 5.90990E-09-2.98157E-08
 -1        65-7.92749E+06-1.14023E+06-1.76561E+04-2.99839E+06-2.51894E-08-9.03540E-08
 -1        66-7.96933E+06-1.09098E+06-3.28373E+04-2.95468E+06 1.66292E-08 5.48271E-08
 -1        67-7.89396E+06-1.22720E+06-8.19635E+04-3.05966E+06-5.42968E-09 1.27794E-07
 -1        68-7.97421E+06-1.04112E+06-1.37984E+05-2.93248E+06 6.93035E-09-1.19253E-07
 -1        69-8.00483E+06-1.47529E+06-3.96266E+05-3.05079E+06-1.45883E-09 3.46336E-09
 -1        70-7.86204E+06-8.48214E+05-5.87319E+05-2.96279E+06 1.11904E-08 6.98492E-09
 -1        86-1.21255E+03-2.20645E+06-3.30686E+03-2.52932E+04-9.13391E-09-3.23162E-08
 -1        87 1.24991E+03-2.18074E+06 1.91470E+03 8.17970E+04-1.54002E-08-2.65240E-07
 -1        88-2.68349E+01-2.19285E+06-1.18905E+03-5.64982E+04-1.47584E-08-8.08743E-08
 -1        89 2.03678E+02-2.18938E+06-1.84387E+03 1.01307E+05-2.24643E-08-1.09352E-07
 -1        90 5.29638E+02-2.19864E+06-6.14335E+03-4.48131E+04-1.03839E-08 9.98243E-08
 -1       121-1.43866E+03-1.57595E+06-2.63332E+02 9.28754E+02 1.23353E-09 3.48882E-09
 -1       122-8.73443E+02-1.57247E+06 7.68834E+02-3.73610E+03-4.70909E-09 1.85682E-08
 -1       123-1.47889E+03-1.57607E+06 5.77251E+02 2.77350E+03 3.72791E-09-5.18048E-09
 -1       124 7.20558E+02-1.57188E+06 3.04328E+03-7.81592E+03-8.56608E-09-1.63709E-11
 -1       125-2.33600E+03-1.57695E+06 3.93149E+03 4.98262E+03 5.63341E-09-1.06520E-08
 -1       191-3.22700E+01 3.53087E+05 9.55379E+00 3.62612E-01-3.74833E-10 6.58110E-09
 -1       192-3.13076E+01 3.53063E+05 1.91289E+01-2.46316E+00-5.87578E-10-1.96178E-08
 -1       193-3.45036E+01 3.53087E+05 3.43952E+01 2.14774E+00-6.95547E-10-2.01162E-08
 -1       194-3.40173E+01 3.53066E+05 7.24958E+01-5.65774E+00-3.09818E-10 7.06950E-09
 -1       195-3.87934E+01 3.53085E+05 1.40620E+02 3.61405E+00-9.11768E-10 4.60932E-09
 -1       251-2.02155E+06-3.21988E+04-1.88600E+05-1.31759E+05 5.66070E-09-1.70872E-07
 -1       252-1.11746E+06 4.05699E+04 4.99978E+04 4.06363E+05 6.67706E-09-1.10214E-07
 -1       253-1.62384E+06-1.41614E+04-3.29225E+04-2.71081E+05 3.95539E-09-1.81010E-07
 -1       254-1.54190E+06 5.86248E+04 8.60614E+03 5.38989E+05-8.09973E-09-8.00101E-08
 -1       255-1.63910E+06-1.59994E+04-1.89024E+04-2.68077E+05-3.23780E-10-4.39013E-09
 -1       256-1.07972E+06 4.74940E+04 1.02576E+05 3.93675E+05-2.00598E-08 1.70099E-07
 -1       257-2.04078E+06-3.98799E+04-1.01552E+05-1.21917E+05-8.74206E-09-6.55339E-08
 -1       258-6.27145E+05 3.58488E+04 1.88304E+05 4.89358E+03 1.14369E-08-9.30518E-08
 -1       259-2.04719E+06-4.05239E+04-1.01295E+05 1.18342E+05 1.05738E-08 1.65128E-08
 -1       260-1.06439E+06 4.90278E+04 1.10054E+05-3.86931E+05-2.45491E-08-1.91186E-07
 -1       261-1.64656E+06-1.80744E+04-1.18590E+04 2.67385E+05 4.80813E-08-1.71519E-08
 -1       262-1.53665E+06 6.92623E+04 3.00629E+04-5.37632E+05-3.68897E-08-3.98819E-08
 -1       263-1.62155E+06-2.27574E+04 2.65582E+03 2.73000E+05 4.62023E-09 1.03664E-07
 -1       264-1.10265E+06 1.06836E+05 1.40459E+05-4.12179E+05 1.17752E-07-4.13183E-09
 -1       265-2.04006E+06-8.84515E+04-5.46136E+04 1.38298E+05 4.77121E-08 7.72670E-08
 -1       266-2.44639E+04-1.14393E+04 5.73993E+04-4.56255E+01 1.81899E-10 7.15445E-08
 -1       267 2.83605E+04 1.33328E+04 4.05690E+04 5.26426E+01-2.50111E-11-1.62594E-07
 -1       268-3.80308E+03-1.88829E+03 1.50793E+04-6.70759E+00 8.36735E-11-1.25387E-07
 -1       269 4.49033E+03 2.25989E+03 9.80130E+03 7.81333E+00-1.51772E-10-1.82474E-07
 -1       270-6.73999E+02-3.71312E+02 4.73123E+03-1.06033E+00-2.59206E-11-8.29257E-08
 -1       271-2.22341E+06-2.69359E+05-1.65872E+05-8.53622E+05 2.43745E-09 2.49565E-09
 -1       272-2.33216E+06-3.42294E+05-1.06801E+05-7.97644E+05-1.85396E-08-5.39840E-08
 -1       273-2.25344E+06-3.12056E+05-3.91426E+04-8.47577E+05 2.87855E-09 3.56522E-10
 -1       274-2.29664E+06-2.90160E+05-2.19681E+04-8.06981E+05-1.26429E-08 1.74395E-07
 -1       275-2.25788E+06-3.16334E+05-9.12140E+03-8.46103E+05 2.56055E-08-4.57076E-08
 -1       276-2.28999E+06-2.86183E+05-4.79582E+03-8.09930E+05 1.41636E-08-2.29866E-08
 -1       277-2.25962E+06-3.15724E+05-2.40249E+03-8.44562E+05 4.46562E-10 7.54931E-08
 -1       278-2.28605E+06-2.88628E+05-1.53349E+03-8.13168E+05 2.68396E-08 1.73176E-07
 -1       279-2.26134E+06-3.14134E+05-1.72728E+03-8.42551E+05-6.18093E-09 2.85750E-08
 -1       280-2.28201E+06-2.92822E+05-2.68947E+03-8.17229E+05 2.46473E-08 2.42023E-08
 -1       281-2.26318E+06-3.11856E+05-5.20073E+03-8.40154E+05 1.00499E-08-5.48166E-08
 -1       282-2.27946E+06-3.00634E+05-1.18256E+04-8.21684E+05-1.31658E-08-6.23650E-08
 -1       283-2.26353E+06-3.06876E+05-2.14676E+04-8.37706E+05 1.93886E-08-1.18193E-07
 -1       284-2.29275E+06-3.34466E+05-5.77160E+04-8.22898E+05-2.20180E-08-1.06593E-07
 -1       285-2.25007E+06-2.81080E+05-9.01806E+04-8.37728E+05-2.76632E-08 1.05712E-07
 -1       301 1.62213E+04-4.23941E+05 1.73500E+05-7.53005E+05 1.26602E-09-1.79818E-07
 -1       302 1.76475E+04-3.79920E+05 1.06658E+05-1.10098E+06-7.13044E-10 2.57860E-08
 -1       303-4.27663E+03-4.09057E+05 6.75328E+04-7.51148E+05 1.05138E-09 1.40595E-07
 -1       304 7.52803E+03-3.82959E+05 8.05676E+04-1.10031E+06 2.03727E-10-8.18982E-08
 -1       305 3.67664E+03-4.11155E+05 1.15097E+05-7.53558E+05 3.40151E-10 2.48110E-08
 -1       306-2.17956E+07-4.23038E+06-5.68200E+06-1.61167E+06-6.35628E-08-9.24338E-08
 -1       307 1.60706E+07 4.33425E+05 3.56971E+06-9.97876E+06-6.88888E-07-3.46918E-08
 -1       308-8.11395E+06-2.10156E+05-4.87407E+05 3.38245E+06-1.64349E-07 2.51181E-07
 -1       309-3.34579E+06 3.04271E+06 1.22211E+06-1.56397E+07 5.14359E-07 2.42489E-07
 -1       310-9.91451E+06-4.83231E+05-9.16146E+05 3.18379E+06 1.48430E-09-7.19083E-08
 -1       311 2.02012E+07-8.00943E+05 4.27364E+06-7.49701E+06 1.07801E-07-1.96233E-07
 -1       312-2.22793E+07-4.21806E+06-5.18020E+06-3.18341E+06 1.52213E-07 1.19064E-07
 -1       313 2.86681E+07 6.83325E+06 6.77621E+06 1.25633E+07-1.01427E-07 1.60537E-07
 -1       314-1.47663E+07-1.04573E+07-4.83769E+06-8.99063E+06 3.99887E-07 2.53203E-08
 -1       315-1.28432E+06 1.72986E+07 3.74949E+06 8.63505E+06-2.35857E-07-1.28726E-07
 -1       316-9.70754E+05-7.58847E+06-4.38887E+05-4.14066E+06-8.71994E-07-3.28990E-07
 -1       317-1.58854E+07 1.55110E+07 1.19696E+06-3.06547E+06 7.51563E-07-5.55581E-07
 -1       318-1.86513E+06-8.22834E+06-9.83404E+05-4.58226E+06-6.08532E-07 7.12753E-08
 -1       319 1.86181E+06 1.79628E+07 4.01429E+06 9.96017E+06-1.11097E-07 1.63767E-07
 -1       320-1.64791E+07-1.08220E+07-6.16312E+06-8.84500E+06 1.55065E-07-4.09491E-08
 -1       336-6.84653E+01-1.70603E+06-1.27429E+04 7.54898E+03-2.22954E-08-1.70039E-08
 -1       337-4.87874E+03-1.70677E+06-1.63733E+04-1.82641E+04-4.00260E-08 4.26917E-09
 -1       338 6.08805E+02-1.70567E+06-2.49461E+04 1.05656E+04-2.90593E-08 2.50657E-09
 -1       339-2.65060E+04-1.72144E+06-5.64402E+04-2.41485E+04-5.33182E-08 7.43603E-09
 -1       340 1.77194E+04-1.69291E+06-8.85660E+04 1.33388E+04-3.42698E-08 1.54214E-08
 -1       406-5.58421E+00 3.53071E+05 5.78279E+02 1.56044E+00-1.28868E-09 1.55433E-08
 -1       407 1.75377E+02 3.53183E+05 1.23169E+03 1.57585E+01-4.18922E-10 1.43727E-08
 -1       408 6.06384E+02 3.52982E+05 2.45831E+03-1.77076E+01-1.62936E-09 2.12913E-08
 -1       409 2.63502E+03 3.53968E+05 5.53682E+03 1.83589E+02-3.39185E-10 2.58497E-08
 -1       410 7.61880E+03 3.52280E+05 1.13020E+04-1.75582E+02-2.00635E-09 1.91030E-08
 -1       521-2.36281E+07-5.23120E+06-6.74441E+06-1.44199E+06-5.97211E-08-3.66708E-08
 -1       522 1.68879E+07 7.23248E+05 3.67940E+06-1.25986E+07-4.57832E-07-3.15296E-07
 -1       523-9.13583E+06-4.23996E+05-5.28550E+05 3.82529E+06 1.03260E-07-3.19254E-07
 -1       524-5.85505E+06 4.78563E+06 1.35695E+06-1.85187E+07 5.77234E-07-6.31728E-07
 -1       525-1.11101E+07-8.22099E+05-1.02874E+06 3.60844E+06 4.57745E-07-3.27782E-07
 -1       526 2.21471E+07-8.89774E+05 4.58119E+06-9.65718E+06 3.11527E-07 1.02271E-07
 -1       527-2.42444E+07-5.35586E+06-6.04800E+06-3.18369E+06 1.13389E-07 5.94155E-08
 -1       528 3.18522E+07 7.50795E+06 7.20030E+06 1.43948E+07-1.69384E-08-1.24288E-07
 -1       529-1.60091E+07-1.21695E+07-5.63468E+06-9.45545E+06-1.36148E-07-8.67876E-08
 -1       530-3.15970E+06 2.06087E+07 4.03866E+06 9.02634E+06-2.73554E-07 4.78933E-07
 -1       531-1.16034E+06-8.78280E+06-4.64114E+05-4.52160E+06-5.97734E-07 2.19268E-07
 -1       532-1.90966E+07 1.79432E+07 1.35399E+06-5.48525E+06 3.60109E-07-5.69351E-07
 -1       533-2.04232E+06-9.42918E+06-1.05003E+06-4.91579E+06-1.38127E-07-8.44127E-07
 -1       534 1.38696E+05 2.13383E+07 4.27149E+06 1.05489E+07-7.66595E-08 5.81844E-07
 -1       535-1.77877E+07-1.26270E+07-7.11600E+06-9.28518E+06 6.22822E-08 3.58559E-07
 -1       536-6.20296E+05-4.19297E+04-1.63177E+04-4.31331E+04-3.79487E-09 3.94793E-08
 -1       537-1.38636E+05 4.15665E+04 7.41804E+04 1.01281E+05-9.16239E-08 6.61289E-08
 -1       538-3.90266E+05 1.28806E+03 7.47463E+03-6.05478E+04 2.09650E-08 8.18918E-08
 -1       539-2.98839E+05 3.07952E+03 2.08823E+04 1.15171E+05 1.33987E-07 9.52175E-08
 -1       540-4.64010E+05-2.14544E+02-1.40856E+04-5.73502E+04-1.78920E-09 1.02006E-07
 -1       541 4.64168E+03 1.24115E+04 7.81904E+04 7.86401E+04-2.08968E-08 1.02037E-07
 -1       542-6.85595E+05-1.48084E+04-6.13240E+04-2.34820E+04 1.84264E-08 5.16266E-08
 -1       543 1.92925E+05 2.00072E+04 1.15189E+05-1.14404E+04 2.77657E-08-1.43086E-08
 -1       544-6.47268E+05-1.19557E+04-5.44324E+04 3.23138E+04 3.05863E-09-3.10994E-08
 -1       545-8.42130E+04 6.51547E+03 5.71602E+04-9.29987E+04 1.34256E-08-4.49891E-08
 -1       546-4.15858E+05 4.78975E+03-9.25933E+03 5.78709E+04 2.26521E-08-6.11885E-08
 -1       547-3.13341E+05-4.63706E+03 5.55880E+03-1.17733E+05-9.31777E-08-9.58956E-08
 -1       548-4.24256E+05 4.27641E+03-2.04358E+04 5.74726E+04-7.61981E-08-9.00682E-08
 -1       549-6.77588E+04 5.97905E+03 3.64544E+04-9.03584E+04-5.06761E-08-6.09612E-08
 -1       550-6.54847E+05-1.13020E+04-1.05734E+05 3.00508E+04 8.59700E-09-3.72802E-08
 -1       551 3.42044E+04-7.51972E+05 5.79465E+02-1.17418E+06-8.82283E-08-6.98492E-10
 -1       552 7.71586E+04-7.85800E+05 1.91531E+04-1.67426E+06-6.11035E-08 3.34403E-08
 -1       553 5.83190E+04-7.85642E+05 3.81765E+04-1.16850E+06-1.03100E-07 2.93949E-08
 -1       554 1.11951E+05-7.95383E+05 8.81661E+04-1.67620E+06-6.37665E-08 2.22462E-08
 -1       555 8.77902E+04-8.07702E+05 1.58803E+05-1.16869E+06-1.03377E-07-8.57108E-09
 -1       556 1.87138E+05-3.27968E+05 4.56834E+04-3.65847E+05-1.94268E-08-1.10886E-08
 -1       557 3.04324E+05-4.21847E+05 2.57663E+04-4.69543E+05 4.01633E-09-8.54925E-10
 -1       558 1.74651E+05-3.26816E+05 7.60196E+03-3.65577E+05-9.80799E-09-2.72121E-09
 -1       559 2.82721E+05-4.25600E+05 4.71009E+03-4.85232E+05 2.13331E-08-8.87667E-09
 -1       560 1.63292E+05-3.19648E+05 2.76445E+02-3.73622E+05 1.43482E-08 3.40879E-09
 -1       561 2.68170E+05-4.19981E+05 7.73413E+02-4.95019E+05 9.62609E-09 1.03646E-08
 -1       562 1.54328E+05-3.14034E+05-6.06352E+02-3.80084E+05-1.71713E-09-1.29421E-08
 -1       563 2.57559E+05-4.15354E+05 1.53178E+02-5.01915E+05 5.42059E-09 1.30422E-09
 -1       564 1.48038E+05-3.10102E+05-3.12701E+02-3.84532E+05 8.78936E-09-1.70444E-08
 -1       565 2.50711E+05-4.12373E+05 7.67466E+01-5.06280E+05 1.26420E-08-6.25596E-09
 -1       566 1.44519E+05-3.07869E+05-1.40979E+02-3.86996E+05-2.28465E-09 4.39104E-09
 -1       567 2.47640E+05-4.11034E+05-2.51945E+02-5.08115E+05 1.75387E-08 1.16561E-08
 -1       568 1.43840E+05-3.07462E+05-8.43475E+02-3.87566E+05 2.87037E-09-7.51606E-09
 -1       569 2.47131E+05-4.11001E+05-2.13175E+03-5.06498E+05-3.05226E-09-9.66975E-09
 -1       570 1.46966E+05-3.10302E+05-4.72195E+03-3.86738E+05 5.15865E-09-3.43971E-09
 -1       571 2.69763E+05 9.77483E+03 1.42788E+04-8.18273E+04-8.61837E-09-5.99039E-09
 -1       572 2.71867E+05 3.57159E+03 7.00310E+03-8.99321E+04-1.56160E-08 3.97449E-09
 -1       573 2.70603E+05 1.02582E+03 3.11309E+03-8.16639E+04-1.10122E-08-1.40917E-08
 -1       574 2.70822E+05 5.34439E+02 1.56196E+03-9.01329E+04 1.34560E-09 9.08676E-09
 -1       575 2.70694E+05 2.89612E+02 7.37933E+02-8.16420E+04-4.13763E-09 2.30830E-09
 -1       576 2.70690E+05 2.91081E+02 3.77799E+02-9.01593E+04-8.69068E-09-1.05611E-08
 -1       577 2.70724E+05 2.42335E+02 1.88982E+02-8.16391E+04-5.79985E-09-1.43700E-09
 -1       578 2.70706E+05 2.63301E+02 1.09309E+02-9.01629E+04-2.12322E-09-1.10576E-08
 -1       579 2.70777E+05 2.17478E+02 7.62827E+01-8.16387E+04 6.31735E-09-1.48793E-09
 -1       580 2.70780E+05 2.27358E+02 8.91280E+01-9.01587E+04-6.27278E-09-1.26965E-08
 -1       581 2.70859E+05 1.76547E+02 1.37071E+02-8.16437E+04 4.84033E-09-4.22006E-10
 -1       582 2.70914E+05 2.09857E+02 2.77508E+02-9.01060E+04 3.44244E-09 5.09408E-09
 -1       583 2.70958E+05 2.38114E+02 5.35954E+02-8.16918E+04 5.05679E-10 3.00633E-09
 -1       584 2.71238E+05 6.66731E+02 1.20972E+03-8.96969E+04 7.21320E-09 1.11636E-08
 -1       585 2.70937E+05 1.69634E+03 2.45215E+03-8.20524E+04 1.34241E-09 7.39965E-09
 -1       586-3.24649E+03 1.00376E+05-3.20385E+03-2.32993E+05-4.21369E-09-9.88848E-10
 -1       587-1.09456E+03 1.00049E+05 4.14421E+02-2.56438E+05-4.97130E-09 5.52836E-09
 -1       588 5.50391E+02 9.99535E+04 4.16784E+03-2.32872E+05-4.33647E-09 3.51611E-09
 -1       589 4.81944E+03 1.02152E+05 1.10711E+04-2.56200E+05-5.21322E-09-1.27329E-11
 -1       590 1.51989E+04 9.87457E+04 2.33264E+04-2.33272E+05-4.53383E-09 2.72485E-09
 -1       591-6.48020E+04-1.46034E+04-2.01227E+04-2.85821E+04-2.06296E-09-3.32693E-09
 -1       592-6.81741E+04-1.80609E+04-1.08999E+04-3.21393E+04-2.44933E-09-1.55841E-08
 -1       593-6.68171E+04-1.31405E+04-4.53719E+03-3.00550E+04 2.43602E-09-1.70987E-08
 -1       594-6.53918E+04-1.51125E+04-2.26284E+03-3.22497E+04 2.22579E-09 7.58544E-09
 -1       595-6.69709E+04-1.31354E+04-1.03905E+03-3.01220E+04-2.77154E-10 1.35116E-08
 -1       596-6.52016E+04-1.49776E+04-5.28315E+02-3.22276E+04 5.45374E-09 2.06468E-08
 -1       597-6.69902E+04-1.31491E+04-2.87916E+02-3.01245E+04 1.53722E-09 9.13820E-09
 -1       598-6.51829E+04-1.49724E+04-2.31885E+02-3.22213E+04-2.72581E-09 9.33318E-09
 -1       599-6.69890E+04-1.31495E+04-2.96745E+02-3.01242E+04 1.66744E-09 8.87667E-10
 -1       600-6.52019E+04-1.49784E+04-5.51689E+02-3.22258E+04 5.16957E-09-1.16083E-08
 -1       601-6.69664E+04-1.31363E+04-1.08859E+03-3.01208E+04 8.53834E-09-4.21892E-09
 -1       602-6.54010E+04-1.51189E+04-2.37258E+03-3.22457E+04 1.38225E-08-5.52882E-09
 -1       603-6.68028E+04-1.31443E+04-4.75808E+03-3.00512E+04 1.09449E-08 5.73118E-09
 -1       604-6.83341E+04-1.81937E+04-1.14299E+04-3.21080E+04 1.26051E-08-7.02039E-09
 -1       605-6.46717E+04-1.46940E+04-2.11012E+04-2.85237E+04 7.57916E-09-4.03634E-09
 -1       606 2.68497E+04-1.30808E+04-2.34695E+04 2.47023E+04-3.22416E-09 2.63935E-09
 -1       607 2.28377E+04-4.26202E+03-1.16874E+04 2.77495E+04-1.50021E-08-1.86417E-08
 -1       608 2.51219E+04-7.59271E+02-5.23246E+03 2.45201E+04-1.14960E-09 4.30464E-09
 -1       609 2.46805E+04-2.48420E+02-2.64317E+03 2.79687E+04 1.62736E-08 8.97694E-09
 -1       610 2.49233E+04-2.32550E+01-1.26140E+03 2.44990E+04 6.64659E-09 6.56655E-09
 -1       611 2.48509E+04-1.97853E+01-6.35987E+02 2.79925E+04 2.22053E-09 1.09785E-08
 -1       612 2.48773E+04-8.87550E+00-3.02683E+02 2.44968E+04-1.22582E-08 9.64678E-09
 -1       613 2.48584E+04-1.43272E+01-1.35929E+02 2.79953E+04-2.16996E-08-2.34008E-08
 -1       614 2.48547E+04-1.32237E+01-3.27421E+01 2.44961E+04-1.81635E-08-2.84763E-09
 -1       615 2.48512E+04-1.16245E+01 5.49853E+01 2.79957E+04-1.57088E-08-3.27054E-09
 -1       616 2.48371E+04-9.26638E+00 1.66692E+02 2.44964E+04-6.87032E-09-9.67611E-09
 -1       617 2.48694E+04 2.50153E+01 3.81086E+02 2.79952E+04 3.26281E-10-1.43111E-08
 -1       618 2.48026E+04 1.01451E+02 7.68385E+02 2.44966E+04-1.88538E-09 3.81760E-09
 -1       619 2.51395E+04 6.19837E+02 1.72566E+03 2.79945E+04-3.16959E-09 1.82081E-09
 -1       620 2.45467E+04 1.92415E+03 3.46856E+03 2.44971E+04 1.00567E-09-1.94450E-09
 -1       621 4.13271E+02 2.76262E+05 3.38964E+03 3.20929E+04 8.24002E-10-1.02282E-08
 -1       622 5.32207E+02 2.77065E+05 3.04711E+03 4.66228E+04 8.29004E-10-1.50494E-08
 -1       623 8.41634E+01 2.76442E+05 3.71542E+03 3.19452E+04 8.28322E-10 3.87035E-09
 -1       624 1.84865E+03 2.78203E+05 7.24496E+03 4.67699E+04 9.12792E-10-3.21756E-08
 -1       625 1.82715E+03 2.75010E+05 1.26814E+04 3.19420E+04 1.03046E-09-5.02791E-09
 -1       626 2.40283E+05 5.84319E+04 4.84908E+03 1.19089E+05 2.72757E-09-4.82396E-09
 -1       627 2.37957E+05 5.98856E+04 2.33672E+03 1.23280E+05-1.26465E-09-2.33322E-08
 -1       628 2.40412E+05 5.62031E+04 9.88004E+02 1.19901E+05-4.86307E-09-1.54841E-09
 -1       629 2.37341E+05 5.92550E+04 4.83632E+02 1.23520E+05-4.72301E-09 4.78789E-09
 -1       630 2.40425E+05 5.60961E+04 2.24173E+02 1.19933E+05-6.46014E-09-1.90792E-08
 -1       631 2.37274E+05 5.92325E+04 1.20464E+02 1.23521E+05 2.13072E-09 1.51546E-08
 -1       632 2.40419E+05 5.61009E+04 7.89904E+01 1.19928E+05 8.56107E-09 1.67369E-08
 -1       633 2.37264E+05 5.92352E+04 8.75395E+01 1.23516E+05 2.86070E-09-1.93586E-09
 -1       634 2.40413E+05 5.60992E+04 1.41069E+02 1.19926E+05-1.22635E-08-9.57402E-09
 -1       635 2.37276E+05 5.92344E+04 2.85229E+02 1.23520E+05-1.85383E-08 1.87133E-08
 -1       636 2.40403E+05 5.60947E+04 5.75899E+02 1.19925E+05-1.10656E-08 1.68893E-09
 -1       637 2.37399E+05 5.93243E+04 1.26604E+03 1.23519E+05 1.51886E-09 1.66822E-08
 -1       638 2.40358E+05 5.63747E+04 2.60132E+03 1.19798E+05-1.06406E-08 9.67202E-09
 -1       639 2.38765E+05 6.12246E+04 6.15462E+03 1.23116E+05-2.23065E-08 1.21258E-09
 -1       640 2.40171E+05 6.20471E+04 1.27720E+04 1.17404E+05-5.56611E-09 1.88734E-08
 -1       656 6.18997E+04-1.58103E+06-1.49424E+05-1.74614E+03-9.45874E-11-1.39034E-08
 -1       657-8.18723E+04-1.64853E+06-1.23754E+05 6.06012E+03-1.47338E-10 1.11254E-08
 -1       658 1.97166E+04-1.60021E+06-7.61735E+04-3.59923E+03 4.35193E-10-1.62132E-08
 -1       659-8.84134E+04-1.65164E+06-1.32348E+05 7.53598E+03-1.30240E-09-7.28045E-09
 -1       660 6.84260E+04-1.57793E+06-1.64201E+05-3.22199E+03-1.80444E-09 1.20675E-08
 -1       661 1.60594E+05 1.69844E+04 1.65573E+04 6.27926E+04 3.38787E-10 5.11591E-09
 -1       662 1.69800E+05 2.93979E+04 1.11581E+04 5.92547E+04 2.95813E-10-5.65956E-09
 -1       663 1.63845E+05 2.22969E+04 3.90260E+03 6.18498E+04 4.82032E-10-5.52200E-09
 -1       664 1.66032E+05 2.31842E+04 2.33425E+03 6.04055E+04 5.07214E-10-1.63343E-08
 -1       665 1.64337E+05 2.30236E+04 9.20851E+02 6.17072E+04-2.30631E-09-1.67250E-08
 -1       666 1.65451E+05 2.23523E+04 5.38565E+02 6.05908E+04 5.06947E-09 8.01906E-09
 -1       667 1.64423E+05 2.31071E+04 2.85754E+02 6.16723E+04-2.56333E-09-1.47674E-09
 -1       668 1.65357E+05 2.22911E+04 2.90428E+02 6.06416E+04-1.17545E-09-1.97436E-08
 -1       669 1.64430E+05 2.30830E+04 3.92609E+02 6.16569E+04-1.97838E-09 1.72422E-08
 -1       670 1.65453E+05 2.25034E+04 8.54349E+02 6.06439E+04-4.83026E-09 2.23851E-08
 -1       671 1.64327E+05 2.28992E+04 1.51678E+03 6.16681E+04-2.39383E-09 1.07181E-08
 -1       672 1.66337E+05 2.39789E+04 3.88049E+03 6.04297E+04 9.48262E-10 1.86892E-08
 -1       673 1.63551E+05 2.16448E+04 6.50302E+03 6.18567E+04 3.55919E-09 9.37189E-09
 -1       674 1.72527E+05 3.44257E+04 1.85972E+04 5.86104E+04-3.70653E-09 7.12566E-09
 -1       675 1.58177E+05 1.27448E+04 2.76047E+04 6.33775E+04 7.82165E-11 8.91123E-09
 -1       676 2.28727E+01-2.79861E+05-1.06018E+03-7.87965E+01 2.27999E-10 3.72427E-10
 -1       677-2.81161E+02-2.80117E+05-1.94029E+03 1.57477E+02 5.82449E-09-1.81223E-08
 -1       678 1.88007E+02-2.79678E+05-3.42995E+03-7.86282E+01 1.56865E-09-7.62989E-09
 -1       679-3.43066E+03-2.82187E+05-8.14808E+03 1.56833E+02 4.20641E-09 2.55679E-09
 -1       680 2.04776E+03-2.77791E+05-1.31319E+04-7.72774E+01-5.11136E-10 6.28638E-10
 -1       771-2.92179E+06-6.71619E+05-1.29913E+05-1.36704E+06-2.87109E-08-2.33122E-08
 -1       772-2.85748E+06-7.48336E+05-6.72718E+04-1.45536E+06-2.52767E-08 7.29779E-09
 -1       773-2.94636E+06-6.52344E+05-3.36571E+04-1.37737E+06-1.66183E-08 1.02737E-08
 -1       774-2.84833E+06-7.34219E+05-1.51501E+04-1.47484E+06 1.67638E-08 3.20142E-10
 -1       775-2.95851E+06-6.43767E+05-1.09080E+04-1.38207E+06-9.89530E-09 3.68163E-09
 -1       776-2.85663E+06-7.32370E+05-4.14836E+03-1.48916E+06-7.53789E-09 8.23638E-09
 -1       777-2.96890E+06-6.36227E+05-4.66785E+03-1.38621E+06 5.26779E-09 3.44880E-09
 -1       778-2.86538E+06-7.30715E+05-1.34332E+03-1.50141E+06 9.64064E-09 6.45741E-09
 -1       779-2.97775E+06-6.29693E+05-2.28540E+03-1.38975E+06-4.20550E-09-6.98492E-09
 -1       780-2.87307E+06-7.29130E+05-3.83341E+02-1.51137E+06-6.49015E-09-1.75169E-09
 -1       781-2.98474E+06-6.24454E+05-8.73054E+02-1.39252E+06-2.07656E-08-1.83172E-09
 -1       782-2.87897E+06-7.27769E+05 3.26818E+02-1.51871E+06-3.59141E-08-4.92128E-09
 -1       783-2.98965E+06-6.20835E+05 5.17860E+02-1.39446E+06-6.85395E-09-1.86315E-08
 -1       784-2.88220E+06-7.26302E+05 2.09923E+03-1.52323E+06-5.45333E-09 2.41516E-09
 -1       785-2.99254E+06-6.18684E+05 3.70961E+03-1.39572E+06-2.54367E-08 5.07134E-09
 -1       786 1.26549E+05-9.57871E+03 2.21607E+04-2.50706E+02 2.26378E-09-2.42562E-09
 -1       787 1.36159E+05 1.10896E+04 1.56779E+04-7.66574E+01 4.02659E-09-5.64160E-09
 -1       788 1.30254E+05-1.50123E+03 5.73376E+03-2.18940E+02 2.31478E-09 1.49641E-08
 -1       789 1.31842E+05 1.73723E+03 3.59990E+03-1.26175E+02 1.93186E-10-7.88987E-10
 -1       790 1.30866E+05-2.33982E+02 1.45857E+03-2.01201E+02-3.79633E-09-6.03023E-09
 -1       791 1.31127E+05 2.70562E+02 8.44434E+02-1.56709E+02-6.16255E-09 1.01303E-08
 -1       792 1.30970E+05-3.56566E+01 3.61834E+02-1.88408E+02-3.40727E-09 8.80347E-09
 -1       793 1.31004E+05 3.92367E+01 1.89154E+02-1.80844E+02 1.43664E-09-1.60945E-08
 -1       794 1.30989E+05-2.80311E+00 6.67823E+01-1.77066E+02 2.90796E-09-1.44835E-08
 -1       795 1.30975E+05-1.20571E+01-9.37543E+00-2.04594E+02-4.46799E-09 2.36696E-09
 -1       796 1.30999E+05 1.56094E+01-7.81411E+01-1.64657E+02 2.99926E-09 1.19420E-08
 -1       797 1.30922E+05-1.18989E+02-2.37248E+02-2.33162E+02 4.11716E-09 1.30167E-08
 -1       798 1.31042E+05 1.04048E+02-3.91584E+02-1.48498E+02 1.17558E-09-4.99932E-09
 -1       799 1.30623E+05-7.67385E+02-1.08276E+03-2.72919E+02 4.26267E-09 6.95843E-09
 -1       800 1.31299E+05 6.63470E+02-1.53390E+03-1.24899E+02 2.83299E-10 3.63787E-09
 -1       801-5.91861E+04-7.83054E+06-1.03039E+06 9.14773E+05 7.51461E-08-4.79631E-08
 -1       802 4.10311E+05 2.57473E+06 1.33411E+06-1.07969E+06 2.10130E-07-2.59715E-08
 -1       803-3.39047E+05-1.04224E+07-1.23555E+06 5.87221E+05 6.58474E-08 1.84518E-08
 -1       804 1.57396E+05 1.36409E+05 9.39997E+05 5.06272E+05-9.13678E-08-7.70406E-08
 -1       805 1.43173E+05-5.40710E+06-1.91865E+05-6.67567E+05-3.74057E-08-5.29444E-08
 -1       806-2.86871E+05-5.51717E+04-2.10663E+04-1.13331E+05-5.64660E-09 3.01861E-09
 -1       807-2.88580E+05-5.16809E+04-1.03496E+04-1.18379E+05 8.73592E-09-4.21150E-09
 -1       808-2.87443E+05-4.75857E+04-4.39068E+03-1.16927E+05-1.22009E-09-6.34077E-09
 -1       809-2.86407E+05-4.87705E+04-2.14695E+03-1.18631E+05-5.94264E-09 6.48288E-09
 -1       810-2.87531E+05-4.73214E+04-9.84032E+02-1.17087E+05-1.62981E-09 5.06679E-09
 -1       811-2.86239E+05-4.86533E+04-4.89367E+02-1.18598E+05-1.32563E-08-1.02195E-08
 -1       812-2.87544E+05-4.73438E+04-2.47470E+02-1.17086E+05-1.32541E-08 4.20687E-09
 -1       813-2.86217E+05-4.86550E+04-1.60878E+02-1.18582E+05-3.32511E-09 1.87579E-08
 -1       814-2.87539E+05-4.73523E+04-1.59405E+02-1.17083E+05-1.12777E-10 6.14182E-09
 -1       815-2.86221E+05-4.86569E+04-2.57003E+02-1.18576E+05-1.48930E-09 1.26900E-08
 -1       816-2.87520E+05-4.73509E+04-4.87042E+02-1.17080E+05 3.85262E-09 2.18524E-08
 -1       817-2.86304E+05-4.87032E+04-1.04554E+03-1.18566E+05-4.17458E-09 9.91577E-09
 -1       818-2.87458E+05-4.74977E+04-2.13241E+03-1.17011E+05-9.33142E-10 1.28466E-09
 -1       819-2.87472E+05-4.99918E+04-5.01781E+03-1.18291E+05-3.65799E-09-5.25870E-09
 -1       820-2.87059E+05-5.12856E+04-1.02129E+04-1.15389E+05-8.41283E-10 2.84149E-09
 -1       821-3.54524E+05 1.95523E+04-4.52642E+04 1.15459E+03 8.62406E-09-1.28784E-08
 -1       822-3.73958E+05-2.26367E+04-3.19995E+04-2.16529E+03 1.67843E-09-7.79028E-09
 -1       823-3.61989E+05 3.06855E+03-1.17164E+04 1.54844E+03-5.89866E-09-2.51930E-10
 -1       824-3.65164E+05-3.54724E+03-7.36317E+03-2.23859E+03-7.38495E-10 3.52657E-09
 -1       825-3.63315E+05 4.77743E+02-3.04382E+03 1.22791E+03 9.38391E-09 4.04884E-09
 -1       826-3.63516E+05-5.57208E+02-1.78250E+03-1.05149E+03 1.12293E-08 3.79475E-09
 -1       827-3.63630E+05 7.65222E+01-9.84495E+02 3.61309E+02 4.85997E-09-1.11396E-09
 -1       828-3.63260E+05-1.64422E+02-7.82315E+02 7.76754E+02-2.50592E-09 4.90762E-09
 -1       829-3.63570E+05 8.41069E+01-9.93920E+02-6.00360E+02 4.57234E-10 1.90846E-09
 -1       830-3.63658E+05-5.87651E+02-1.87245E+03 2.29218E+03-1.23885E-09-1.14778E-09
 -1       831-3.63237E+05 5.03406E+02-3.14222E+03-1.15414E+03-3.20987E-09-2.37844E-09
 -1       832-3.65251E+05-3.68953E+03-7.64996E+03 2.70237E+03-1.64937E-09-8.18636E-09
 -1       833-3.61980E+05 3.18558E+03-1.21760E+04-1.01055E+03-2.16779E-09 5.43196E-09
 -1       834-3.74231E+05-2.35046E+04-3.32043E+04 1.77694E+03-2.32114E-09 1.88520E-08
 -1       835-3.54255E+05 2.02998E+04-4.70211E+04-2.28688E+02 4.95676E-09-6.74481E-09
 -1       836-1.27752E+03 3.40135E+05 2.09344E+04-1.62948E+04-4.61478E-09 2.10548E-09
 -1       837 4.49193E+03 3.46678E+05 1.77698E+04-3.30776E+04-5.00870E-09-1.28784E-08
 -1       838-5.00090E+02 3.41963E+05 1.81831E+04-1.62257E+04-3.96267E-09-2.28461E-08
 -1       839 1.15032E+04 3.51901E+05 3.44735E+04-3.31254E+04-3.92538E-09 9.65883E-10
 -1       840-3.53597E+03 3.34858E+05 5.50058E+04-1.62502E+04-3.63070E-09 1.46458E-08
 -1       856-5.93985E+04 7.83647E+03-2.06510E+04-4.00746E+02 2.35906E-09-5.91535E-09
 -1       857-6.79132E+04-9.20232E+03-1.42164E+04 5.32636E+03 9.78730E-10 8.24161E-09
 -1       858-6.27680E+04 1.09869E+03-5.35868E+03-4.23888E+02 2.78118E-09 2.60002E-09
 -1       859-6.40457E+04-1.28759E+03-3.23431E+03 5.36149E+03-2.09083E-09 2.69393E-08
 -1       860-6.32715E+04 1.53541E+02-1.35643E+03-4.35730E+02-2.04102E-09 1.75260E-09
 -1       861-6.34664E+04-1.78656E+02-7.48189E+02 5.37767E+03-2.63007E-10-9.29262E-09
 -1       862-6.33502E+04 2.06032E+01-3.14991E+02-4.40061E+02-1.77566E-09 4.53042E-10
 -1       863-6.33706E+04-1.75487E+01-1.23777E+02 5.38006E+03 1.13299E-09 3.70885E-09
 -1       864-6.33677E+04-3.93258E+00 2.57604E+01-4.38121E+02-1.05057E-09 7.22432E-09
 -1       865-6.33219E+04 5.29330E+01 2.03994E+02 5.36933E+03 9.60370E-10 1.72250E-08
 -1       866-6.33970E+04-4.99943E+01 4.21551E+02-4.29339E+02-6.31474E-10-1.16901E-09
 -1       867-6.31208E+04 4.14183E+02 1.04432E+03 5.34543E+03 4.88853E-12-4.28588E-09
 -1       868-6.35642E+04-3.58954E+02 1.73696E+03-4.14220E+02 6.89568E-10 8.06722E-10
 -1       869-6.18454E+04 2.98758E+03 4.62742E+03 5.30571E+03-2.33143E-10-2.41114E-08
 -1       870-6.46653E+04-2.55392E+03 6.71507E+03-3.89560E+02-1.76453E-09-8.92396E-09
 -1       871-5.20445E+03-1.78648E+04-1.79253E+04 1.19687E+05-3.10501E-09 1.01500E-08
 -1       872-1.99025E+03-2.19900E+04-7.46692E+03 1.55187E+05-6.30280E-09 7.02175E-09
 -1       873 2.47130E+02-2.00144E+04 6.40546E+02 1.19425E+05-3.06318E-09 6.67433E-09
 -1       874 2.93036E+03-1.77094E+04 9.22377E+03 1.55219E+05-6.67569E-09-5.89353E-09
 -1       875 6.30058E+03-2.22116E+04 2.07322E+04 1.19645E+05-3.03771E-09 2.26973E-08
 -1       876 2.74417E+05 4.64717E+04 1.41975E+04 1.10387E+05 7.05813E-09 1.05838E-08
 -1       877 2.75333E+05 4.94844E+04 7.58200E+03 1.14480E+05 1.54851E-08-2.15550E-10
 -1       878 2.75744E+05 4.48996E+04 3.17649E+03 1.11551E+05-2.24645E-10-7.27732E-09
 -1       879 2.73403E+05 4.75589E+04 1.58266E+03 1.14577E+05 5.26211E-09 6.10902E-09
 -1       880 2.75840E+05 4.48831E+04 7.37138E+02 1.11599E+05-2.34195E-11-3.63161E-09
 -1       881 2.73275E+05 4.74767E+04 3.93497E+02 1.14555E+05 2.26839E-09 2.23417E-08
 -1       882 2.75849E+05 4.48954E+04 2.51497E+02 1.11600E+05 7.32143E-11-9.25678E-09
 -1       883 2.73266E+05 4.74725E+04 2.69975E+02 1.14549E+05 7.97513E-10 1.21373E-08
 -1       884 2.75842E+05 4.48927E+04 4.29113E+02 1.11600E+05-9.30072E-10 6.91534E-09
 -1       885 2.73300E+05 4.74785E+04 8.62533E+02 1.14559E+05-2.63623E-09-3.34717E-09
 -1       886 2.75809E+05 4.48675E+04 1.73830E+03 1.11597E+05-5.81534E-09-7.54153E-09
 -1       887 2.73605E+05 4.76788E+04 3.79705E+03 1.14603E+05-6.73515E-09-1.51271E-08
 -1       888 2.75569E+05 4.49098E+04 7.65116E+03 1.11475E+05-2.40439E-09 1.33755E-08
 -1       889 2.78161E+05 5.24151E+04 1.82774E+04 1.14463E+05-1.22487E-09-1.86433E-08
 -1       890 2.72448E+05 4.86170E+04 3.42329E+04 1.08561E+05-1.37175E-09-2.03363E-08
 -1       891-1.07511E+02-1.52773E+05-1.86294E+03 2.61874E+04-4.17458E-10 9.12792E-09
 -1       892-2.00478E+02-1.53252E+05-2.00429E+03 3.97237E+04 2.10275E-09 1.72868E-08
 -1       893 1.66402E+01-1.52832E+05-2.84139E+03 2.61940E+04-9.37234E-10 2.66891E-09
 -1       894-1.45078E+03-1.54328E+05-5.88323E+03 3.95783E+04 1.88015E-09-1.11299E-08
 -1       895-1.14710E+03-1.51607E+05-1.03613E+04 2.63334E+04-3.55499E-10-4.18822E-09
 -1       956-3.51093E+05-5.02576E+03-1.24866E+04 2.73922E+04 4.64115E-09-2.62328E-08
 -1       957-3.53548E+05-1.74717E+03-6.40942E+03 3.29418E+04 7.74435E-10-3.30292E-08
 -1       958-3.52211E+05-1.93200E+02-2.88810E+03 2.72383E+04-1.80080E-09-6.53677E-09
 -1       959-3.52398E+05-9.12411E+01-1.47486E+03 3.31177E+04 2.01908E-09 2.58365E-08
 -1       960-3.52318E+05-1.30993E+01-7.19177E+02 2.72227E+04 3.91537E-10 3.07029E-08
 -1       961-3.52321E+05-2.49933E+01-3.81437E+02 3.31359E+04 6.48242E-09 1.88179E-08
 -1       962-3.52342E+05-1.53165E+01-2.18474E+02 2.72202E+04 6.54063E-09 1.02239E-08
 -1       963-3.52320E+05-2.17633E+01-1.75576E+02 3.31391E+04 9.76581E-09-1.11563E-08
 -1       964-3.52347E+05-1.23967E+01-2.13649E+02 2.72195E+04 4.34991E-09 1.35140E-08
 -1       965-3.52332E+05-1.87663E+01-3.69636E+02 3.31386E+04 8.54357E-11 1.49209E-08
 -1       966-3.52333E+05-4.42093E+00-6.94467E+02 2.72207E+04 3.58477E-09 6.85191E-09
 -1       967-3.52418E+05-7.67686E+01-1.42441E+03 3.31262E+04 9.16771E-10 1.54046E-09
 -1       968-3.52238E+05-1.72722E+02-2.78826E+03 2.72319E+04 1.80216E-09-1.44883E-09
 -1       969-3.53538E+05-1.67106E+03-6.19014E+03 3.29961E+04 8.20114E-09 2.18674E-08
 -1       970-3.51165E+05-4.83644E+03-1.20583E+04 2.73461E+04-1.45246E-09 2.02735E-08
 -1       971-3.23586E+05-1.63282E+03-8.87941E+03 1.46248E+04 2.98860E-09-8.48810E-09
 -1       972-3.25730E+05-1.19289E+03-4.83565E+03 2.02887E+04 3.32648E-09-1.51340E-08
 -1       973-3.24575E+05-4.47680E+01-2.16579E+03 1.45073E+04 3.04954E-09-8.86098E-09
 -1       974-3.24710E+05-5.74460E+01-1.12252E+03 2.04198E+04-2.10434E-09-8.24480E-09
 -1       975-3.24653E+05-2.26234E+00-5.61163E+02 1.44957E+04-3.32693E-09 1.79015E-08
 -1       976-3.24651E+05-1.01481E+01-3.23863E+02 2.04345E+04 2.46996E-09 7.29563E-09
 -1       977-3.24669E+05-1.77362E+00-2.35250E+02 1.44927E+04-2.07569E-09-6.48163E-09
 -1       978-3.24656E+05-4.38643E+00-2.75563E+02 2.04389E+04 1.52909E-09 2.55773E-09
 -1       979-3.24668E+05 6.08038E+00-4.42971E+02 1.44913E+04 3.28424E-09-5.50108E-09
 -1       980-3.24689E+05-1.54575E+00-8.55464E+02 2.04397E+04-2.08939E-09 1.55728E-09
 -1       981-3.24641E+05 2.74497E+01-1.65691E+03 1.44918E+04 4.56566E-09 7.27061E-09
 -1       982-3.24916E+05-1.23937E+02-3.42483E+03 2.04334E+04 1.11263E-08 9.77423E-11
 -1       983-3.24433E+05-7.85921E+01-6.65447E+03 1.44977E+04 3.60637E-09-1.30685E-08
 -1       984-3.28117E+05-3.59928E+03-1.49023E+04 2.03515E+04-1.99725E-09 4.15753E-09
 -1       985-3.21420E+05-4.94789E+03-2.73653E+04 1.45702E+04 1.76033E-09-3.93266E-09
 -3
    1PSTEP                        23          12           1          
  100CL  112 6.44531E-01         409                     0   12           1
 -4  DISP        4    1
 -5  D1          1    2    1    0
 -5  D2          1    2    2    0
 -5  D3          1    2    3    0
 -5  ALL         1    2    0    0    1ALL
 -1         1 2.12622E-03 0.00000E+00 0.00000E+00
 -1         2 1.86721E-03-1.85597E-27-2.64698E-23
 -1         3 3.16073E-04 4.59667E-27 0.00000E+00
 -1         5 1.67266E-04-4.83244E-27 2.68834E-24
 -1         8 2.10945E-03-5.09683E-07 0.00000E+00
 -1         9 2.06653E-03-9.59103E-06 0.00000E+00
 -1        10 2.86815E-04-3.50986E-06 0.00000E+00
 -1        12 1.68725E-04 7.72427E-07-1.49926E-24
 -1        15 2.08911E-03-5.57745E-07 0.00000E+00
 -1        16 2.09824E-03-1.07977E-05 0.00000E+00
 -1        17 1.96112E-04-7.86796E-06 0.00000E+00
 -1        18 1.71552E-04 2.92282E-05 0.00000E+00
 -1        19 1.73102E-04 1.53951E-06 0.00000E+00
 -1        20 1.73245E-04-5.67830E-06 0.00000E+00
 -1        21 1.72405E-04-1.65299E-05 3.30872E-24
 -1        24 2.95094E-05-1.17378E-05 0.00000E+00
 -1        25 1.80443E-04 2.94385E-05 0.00000E+00
 -1        26 1.81152E-04 2.13615E-06 0.00000E+00
 -1        27 1.79046E-04-9.10322E-06 0.00000E+00
 -1        28 1.78711E-04-1.71328E-05 0.00000E+00
 -1        32 0.00000E+00 0.00000E+00 0.00000E+00
 -1        33 1.88181E-04 2.86111E-06 0.00000E+00
 -1        34 1.86142E-04-9.15330E-06 0.00000E+00
 -1        35 1.84275E-04-1.74627E-05 0.00000E+00
 -1        51 2.12514E-03-9.74195E-08 0.00000E+00
 -1        52 2.12314E-03-1.79687E-07 0.00000E+00
 -1        53 2.12038E-03-2.59827E-07 0.00000E+00
 -1        54 2.11706E-03-3.40004E-07 0.00000E+00
 -1        55 2.11335E-03-4.21800E-07 2.48154E-24
 -1        56 2.12217E-03 7.16138E-07-5.29396E-23
 -1        57 2.11656E-03 5.15424E-06 0.00000E+00
 -1        58 2.10981E-03 1.26257E-05-1.05879E-22
 -1        59 2.10224E-03 2.21372E-05 5.29396E-23
 -1        60 2.09438E-03 3.23909E-05 0.00000E+00
 -1        61 2.08676E-03 4.20217E-05 0.00000E+00
 -1        62 2.07987E-03 4.97647E-05-1.05879E-22
 -1        63 2.07413E-03 5.45027E-05 5.29396E-23
 -1        64 2.06977E-03 5.55977E-05-1.05879E-22
 -1        65 2.06691E-03 5.27015E-05 0.00000E+00
 -1        66 2.06543E-03 4.61053E-05 0.00000E+00
 -1        67 2.06509E-03 3.63987E-05 0.00000E+00
 -1        68 2.06549E-03 2.46713E-05 1.05879E-22
 -1        69 2.06619E-03 1.21840E-05 0.00000E+00
 -1        70 2.06666E-03 3.06373E-07 5.29396E-23
 -1        86 1.87886E-03-1.05126E-06-2.64698E-23
 -1        87 1.91334E-03-2.60889E-06-1.32349E-23
 -1        88 1.96038E-03-4.63333E-06 0.00000E+00
 -1        89 2.00924E-03-6.74039E-06 0.00000E+00
 -1        90 2.04834E-03-8.45584E-06 0.00000E+00
 -1       121 3.15251E-04-5.70068E-07 1.32349E-23
 -1       122 3.12789E-04-1.14273E-06 6.61744E-24
 -1       123 3.08695E-04-1.72053E-06 0.00000E+00
 -1       124 3.02986E-04-2.30605E-06 6.61744E-24
 -1       125 2.95683E-04-2.90146E-06 1.32349E-23
 -1       191 1.67307E-04 1.28779E-07-1.86116E-24
 -1       192 1.67429E-04 2.57550E-07-1.49926E-24
 -1       193 1.67631E-04 3.86310E-07 1.86116E-24
 -1       194 1.67915E-04 5.15048E-07 4.65289E-25
 -1       195 1.68279E-04 6.43757E-07 0.00000E+00
 -1       251 2.10866E-03 1.97507E-05 0.00000E+00
 -1       252 2.10667E-03 7.32771E-05 0.00000E+00
 -1       253 2.10325E-03 1.50429E-04 0.00000E+00
 -1       254 2.09874E-03 2.41018E-04 0.00000E+00
 -1       255 2.09426E-03 3.31150E-04 0.00000E+00
 -1       256 2.09094E-03 4.06940E-04 0.00000E+00
 -1       257 2.08905E-03 4.58455E-04 0.00000E+00
 -1       258 2.08829E-03 4.76325E-04-6.61744E-24
 -1       259 2.08755E-03 4.59924E-04-1.32349E-23
 -1       260 2.08571E-03 4.09486E-04 0.00000E+00
 -1       261 2.08241E-03 3.34079E-04 1.32349E-23
 -1       262 2.07788E-03 2.43348E-04-6.61744E-24
 -1       263 2.07323E-03 1.51155E-04-1.32349E-23
 -1       264 2.06960E-03 7.13915E-05-6.61744E-24
 -1       265 2.06744E-03 1.44994E-05 0.00000E+00
 -1       266 2.10606E-03-5.25175E-07 0.00000E+00
 -1       267 2.10267E-03-5.32273E-07-8.27181E-25
 -1       268 2.09928E-03-5.39903E-07-8.27181E-25
 -1       269 2.09589E-03-5.45959E-07-2.06795E-25
 -1       270 2.09250E-03-5.51977E-07-2.06795E-25
 -1       271 2.10733E-03 2.71776E-06 0.00000E+00
 -1       272 2.10513E-03 6.08538E-06-1.32349E-23
 -1       273 2.10293E-03 9.44891E-06 2.64698E-23
 -1       274 2.10078E-03 1.26518E-05-1.32349E-23
 -1       275 2.09876E-03 1.55426E-05 0.00000E+00
 -1       276 2.09691E-03 1.79715E-05 0.00000E+00
 -1       277 2.09528E-03 1.97938E-05-2.64698E-23
 -1       278 2.09394E-03 2.08710E-05 1.32349E-23
 -1       279 2.09293E-03 2.10724E-05 0.00000E+00
 -1       280 2.09229E-03 2.02763E-05 0.00000E+00
 -1       281 2.09206E-03 1.83718E-05 0.00000E+00
 -1       282 2.09229E-03 1.52590E-05-1.32349E-23
 -1       283 2.09300E-03 1.08511E-05 0.00000E+00
 -1       284 2.09421E-03 5.07542E-06 1.32349E-23
 -1       285 2.09595E-03-2.12803E-06-2.64698E-23
 -1       301 2.07232E-03-9.81654E-06 6.61744E-24
 -1       302 2.07695E-03-1.00084E-05 0.00000E+00
 -1       303 2.08113E-03-1.01957E-05 0.00000E+00
 -1       304 2.08559E-03-1.03832E-05 1.32349E-23
 -1       305 2.09106E-03-1.05772E-05 0.00000E+00
 -1       306 2.10014E-03-1.41108E-04 0.00000E+00
 -1       307 2.16472E-03-5.05058E-04 5.29396E-23
 -1       308 2.22248E-03-1.04364E-03 0.00000E+00
 -1       309 2.26403E-03-1.67478E-03-5.29396E-23
 -1       310 2.30889E-03-2.28822E-03-1.05879E-22
 -1       311 2.37185E-03-2.77528E-03 0.00000E+00
 -1       312 2.43144E-03-3.06310E-03-1.05879E-22
 -1       313 2.44100E-03-3.11050E-03-5.29396E-23
 -1       314 2.34243E-03-2.92312E-03-1.05879E-22
 -1       315 2.09947E-03-2.54816E-03 5.29396E-23
 -1       316 1.72427E-03-2.05205E-03 0.00000E+00
 -1       317 1.26718E-03-1.49963E-03 0.00000E+00
 -1       318 8.20488E-04-9.54103E-04 0.00000E+00
 -1       319 4.73447E-04-4.80338E-04-5.29396E-23
 -1       320 2.65406E-04-1.43775E-04-1.05879E-22
 -1       336 2.76212E-04-4.17957E-06 1.32349E-23
 -1       337 2.63715E-04-4.87088E-06-6.61744E-24
 -1       338 2.49383E-04-5.58538E-06-1.32349E-23
 -1       339 2.33285E-04-6.32350E-06 0.00000E+00
 -1       340 2.15499E-04-7.08919E-06 0.00000E+00
 -1       406 1.69252E-04 9.01044E-07 1.24077E-24
 -1       407 1.69860E-04 1.02958E-06-2.58494E-25
 -1       408 1.70549E-04 1.15798E-06-1.44757E-24
 -1       409 1.71320E-04 1.28609E-06 1.24077E-24
 -1       410 1.72171E-04 1.41366E-06 8.27181E-25
 -1       521 2.13267E-03-1.51033E-04 0.00000E+00
 -1       522 2.19648E-03-5.33978E-04-5.29396E-23
 -1       523 2.24975E-03-1.09895E-03 0.00000E+00
 -1       524 2.28424E-03-1.75789E-03 0.00000E+00
 -1       525 2.32279E-03-2.39750E-03 0.00000E+00
 -1       526 2.38289E-03-2.90634E-03 5.29396E-23
 -1       527 2.44228E-03-3.20581E-03 0.00000E+00
 -1       528 2.45057E-03-3.25356E-03 0.00000E+00
 -1       529 2.34334E-03-3.05466E-03 1.05879E-22
 -1       530 2.08184E-03-2.66240E-03 5.29396E-23
 -1       531 1.67835E-03-2.14652E-03 1.05879E-22
 -1       532 1.18817E-03-1.57499E-03 0.00000E+00
 -1       533 7.08469E-04-1.00992E-03 0.00000E+00
 -1       534 3.33314E-04-5.15166E-04 0.00000E+00
 -1       535 1.07109E-04-1.60016E-04 0.00000E+00
 -1       536 1.95454E-04 2.41315E-05 0.00000E+00
 -1       537 1.93812E-04 7.96876E-05 0.00000E+00
 -1       538 1.91284E-04 1.50238E-04-3.30872E-24
 -1       539 1.88305E-04 2.27141E-04-1.65436E-24
 -1       540 1.85622E-04 2.99815E-04 0.00000E+00
 -1       541 1.83870E-04 3.57695E-04 1.65436E-24
 -1       542 1.83053E-04 3.94510E-04 3.30872E-24
 -1       543 1.82843E-04 4.04124E-04 0.00000E+00
 -1       544 1.82546E-04 3.87276E-04 0.00000E+00
 -1       545 1.81520E-04 3.44898E-04 1.65436E-24
 -1       546 1.79633E-04 2.84539E-04 0.00000E+00
 -1       547 1.77093E-04 2.13855E-04-1.65436E-24
 -1       548 1.74580E-04 1.43582E-04 0.00000E+00
 -1       549 1.72764E-04 8.44566E-05 0.00000E+00
 -1       550 1.71813E-04 4.39028E-05 0.00000E+00
 -1       551 1.72973E-04-8.39694E-06 0.00000E+00
 -1       552 1.46754E-04-8.99499E-06 0.00000E+00
 -1       553 1.18367E-04-9.64692E-06 8.27181E-24
 -1       554 8.87449E-05-1.03341E-05 3.30872E-24
 -1       555 5.88170E-05-1.10321E-05-2.64698E-23
 -1       556 1.89158E-04 9.94647E-06 0.00000E+00
 -1       557 1.83556E-04 2.43499E-05 0.00000E+00
 -1       558 1.79181E-04 3.56113E-05-5.29396E-23
 -1       559 1.75909E-04 4.40208E-05 0.00000E+00
 -1       560 1.73619E-04 4.98690E-05 0.00000E+00
 -1       561 1.72195E-04 5.34487E-05 0.00000E+00
 -1       562 1.71517E-04 5.50538E-05 0.00000E+00
 -1       563 1.71473E-04 5.49790E-05 1.32349E-23
 -1       564 1.71947E-04 5.35196E-05 0.00000E+00
 -1       565 1.72828E-04 5.09718E-05 0.00000E+00
 -1       566 1.74005E-04 4.76319E-05-6.61744E-24
 -1       567 1.75365E-04 4.37969E-05 0.00000E+00
 -1       568 1.76799E-04 3.97636E-05-1.65436E-24
 -1       569 1.78197E-04 3.58289E-05 0.00000E+00
 -1       570 1.79447E-04 3.22897E-05 0.00000E+00
 -1       571 1.71646E-04 2.74364E-05 1.65436E-24
 -1       572 1.71742E-04 2.55810E-05 8.27181E-25
 -1       573 1.71839E-04 2.36767E-05 1.65436E-24
 -1       574 1.71936E-04 2.17390E-05 8.27181E-25
 -1       575 1.72032E-04 1.97834E-05 3.30872E-24
 -1       576 1.72129E-04 1.78253E-05 0.00000E+00
 -1       577 1.72226E-04 1.58805E-05-3.30872E-24
 -1       578 1.72323E-04 1.39645E-05-6.61744E-24
 -1       579 1.72420E-04 1.20929E-05 0.00000E+00
 -1       580 1.72517E-04 1.02813E-05 0.00000E+00
 -1       581 1.72615E-04 8.54518E-06-6.61744E-24
 -1       582 1.72712E-04 6.90022E-06 0.00000E+00
 -1       583 1.72809E-04 5.36196E-06-6.61744E-24
 -1       584 1.72907E-04 3.94580E-06 6.61744E-24
 -1       585 1.73005E-04 2.66699E-06 0.00000E+00
 -1       586 1.72990E-04 2.92653E-05 1.65436E-24
 -1       587 1.74390E-04 2.93018E-05-2.06795E-25
 -1       588 1.75793E-04 2.93380E-05-8.27181E-25
 -1       589 1.77242E-04 2.93735E-05 0.00000E+00
 -1       590 1.78779E-04 2.94078E-05 0.00000E+00
 -1       591 1.72161E-04 2.75219E-05 2.06795E-25
 -1       592 1.72775E-04 2.57935E-05 0.00000E+00
 -1       593 1.73394E-04 2.40488E-05 0.00000E+00
 -1       594 1.74016E-04 2.22927E-05 4.13590E-25
 -1       595 1.74641E-04 2.05304E-05 0.00000E+00
 -1       596 1.75267E-04 1.87666E-05 0.00000E+00
 -1       597 1.75891E-04 1.70064E-05-8.27181E-25
 -1       598 1.76512E-04 1.52546E-05 0.00000E+00
 -1       599 1.77128E-04 1.35162E-05 0.00000E+00
 -1       600 1.77737E-04 1.17961E-05 0.00000E+00
 -1       601 1.78337E-04 1.00992E-05 0.00000E+00
 -1       602 1.78928E-04 8.43036E-06 4.13590E-25
 -1       603 1.79505E-04 6.79459E-06-4.13590E-25
 -1       604 1.80070E-04 5.19688E-06-1.29247E-26
 -1       605 1.80618E-04 3.64206E-06 4.13590E-25
 -1       606 1.73116E-04 6.34604E-07 0.00000E+00
 -1       607 1.73125E-04-1.83107E-07 0.00000E+00
 -1       608 1.73135E-04-9.18738E-07 3.30872E-24
 -1       609 1.73143E-04-1.57806E-06 0.00000E+00
 -1       610 1.73152E-04-2.16689E-06 0.00000E+00
 -1       611 1.73160E-04-2.69113E-06 0.00000E+00
 -1       612 1.73169E-04-3.15666E-06 0.00000E+00
 -1       613 1.73177E-04-3.56938E-06 0.00000E+00
 -1       614 1.73186E-04-3.93520E-06 0.00000E+00
 -1       615 1.73195E-04-4.26001E-06 0.00000E+00
 -1       616 1.73203E-04-4.54972E-06 1.65436E-24
 -1       617 1.73212E-04-4.81023E-06 0.00000E+00
 -1       618 1.73220E-04-5.04745E-06 0.00000E+00
 -1       619 1.73229E-04-5.26726E-06 0.00000E+00
 -1       620 1.73237E-04-5.47558E-06 0.00000E+00
 -1       621 1.74188E-04 1.63941E-06-1.65436E-24
 -1       622 1.75416E-04 1.73958E-06-8.27181E-25
 -1       623 1.76756E-04 1.83959E-06-1.65436E-24
 -1       624 1.78179E-04 1.93931E-06-8.27181E-25
 -1       625 1.79654E-04 2.03878E-06 1.65436E-24
 -1       626 1.73550E-04 6.69237E-07 3.30872E-24
 -1       627 1.73974E-04-1.35850E-07 0.00000E+00
 -1       628 1.74376E-04-8.83555E-07 6.61744E-24
 -1       629 1.74760E-04-1.58202E-06 0.00000E+00
 -1       630 1.75129E-04-2.23942E-06-3.30872E-24
 -1       631 1.75486E-04-2.86395E-06 0.00000E+00
 -1       632 1.75833E-04-3.46378E-06-3.30872E-24
 -1       633 1.76175E-04-4.04712E-06 1.65436E-24
 -1       634 1.76513E-04-4.62215E-06 0.00000E+00
 -1       635 1.76851E-04-5.19706E-06 0.00000E+00
 -1       636 1.77192E-04-5.78006E-06 0.00000E+00
 -1       637 1.77539E-04-6.37932E-06 0.00000E+00
 -1       638 1.77895E-04-7.00304E-06 3.30872E-24
 -1       639 1.78264E-04-7.65944E-06 0.00000E+00
 -1       640 1.78647E-04-8.35673E-06 0.00000E+00
 -1       656 1.73678E-04-6.23507E-06 0.00000E+00
 -1       657 1.74523E-04-6.81440E-06-6.61744E-24
 -1       658 1.75642E-04-7.39231E-06-1.32349E-23
 -1       659 1.76890E-04-7.96988E-06-6.61744E-24
 -1       660 1.78084E-04-8.54919E-06 0.00000E+00
 -1       661 1.73408E-04-5.92370E-06-8.27181E-25
 -1       662 1.73606E-04-6.25627E-06 8.27181E-25
 -1       663 1.73835E-04-6.67119E-06 1.65436E-24
 -1       664 1.74094E-04-7.16243E-06 0.00000E+00
 -1       665 1.74379E-04-7.72461E-06 0.00000E+00
 -1       666 1.74688E-04-8.35223E-06 0.00000E+00
 -1       667 1.75020E-04-9.04009E-06-1.65436E-24
 -1       668 1.75373E-04-9.78301E-06-8.27181E-25
 -1       669 1.75744E-04-1.05760E-05 0.00000E+00
 -1       670 1.76132E-04-1.14142E-05 8.27181E-25
 -1       671 1.76536E-04-1.22928E-05 0.00000E+00
 -1       672 1.76952E-04-1.32071E-05 8.27181E-25
 -1       673 1.77381E-04-1.41525E-05-1.65436E-24
 -1       674 1.77818E-04-1.51248E-05-8.27181E-25
 -1       675 1.78264E-04-1.61191E-05 0.00000E+00
 -1       676 1.73460E-04-1.66310E-05 0.00000E+00
 -1       677 1.74514E-04-1.67320E-05 0.00000E+00
 -1       678 1.75566E-04-1.68329E-05 0.00000E+00
 -1       679 1.76617E-04-1.69336E-05-1.65436E-24
 -1       680 1.77666E-04-1.70343E-05 0.00000E+00
 -1       771 1.85304E-05 1.26948E-05 0.00000E+00
 -1       772 9.27576E-06 3.27620E-05 0.00000E+00
 -1       773 1.66280E-06 4.86768E-05 0.00000E+00
 -1       774-4.42076E-06 6.06773E-05 0.00000E+00
 -1       775-9.08504E-06 6.90106E-05 0.00000E+00
 -1       776-1.24446E-05 7.39386E-05-2.64698E-23
 -1       777-1.46140E-05 7.57321E-05 0.00000E+00
 -1       778-1.57102E-05 7.46740E-05-2.64698E-23
 -1       779-1.58498E-05 7.10549E-05 0.00000E+00
 -1       780-1.51511E-05 6.51750E-05-7.94093E-23
 -1       781-1.37320E-05 5.73408E-05-5.29396E-23
 -1       782-1.17117E-05 4.78666E-05 0.00000E+00
 -1       783-9.20875E-06 3.70704E-05 0.00000E+00
 -1       784-6.34294E-06 2.52760E-05 0.00000E+00
 -1       785-3.23319E-06 1.28097E-05 5.29396E-23
 -1       786 1.80483E-04 2.75120E-05 0.00000E+00
 -1       787 1.80527E-04 2.56338E-05 0.00000E+00
 -1       788 1.80570E-04 2.37960E-05-8.27181E-25
 -1       789 1.80615E-04 2.19903E-05-8.27181E-25
 -1       790 1.80659E-04 2.02124E-05 0.00000E+00
 -1       791 1.80704E-04 1.84575E-05 0.00000E+00
 -1       792 1.80748E-04 1.67237E-05 0.00000E+00
 -1       793 1.80793E-04 1.50087E-05-8.27181E-25
 -1       794 1.80838E-04 1.33126E-05 0.00000E+00
 -1       795 1.80882E-04 1.16352E-05 0.00000E+00
 -1       796 1.80927E-04 9.97856E-06 0.00000E+00
 -1       797 1.80972E-04 8.34456E-06 8.27181E-25
 -1       798 1.81017E-04 6.73757E-06 0.00000E+00
 -1       799 1.81062E-04 5.16203E-06 0.00000E+00
 -1       800 1.81107E-04 3.62562E-06 1.65436E-24
 -1       801 1.39172E-04 2.63757E-05 0.00000E+00
 -1       802 1.41994E-05 1.66129E-05 0.00000E+00
 -1       803-9.33176E-05 8.49311E-06 0.00000E+00
 -1       804-8.40867E-05 5.86970E-06-2.64698E-23
 -1       805-2.79464E-05 2.38636E-06 0.00000E+00
 -1       806 1.81055E-04 2.74461E-05-1.65436E-24
 -1       807 1.81653E-04 2.54793E-05 0.00000E+00
 -1       808 1.82240E-04 2.35429E-05 3.30872E-24
 -1       809 1.82813E-04 2.16408E-05-1.65436E-24
 -1       810 1.83371E-04 1.97769E-05 0.00000E+00
 -1       811 1.83914E-04 1.79550E-05 0.00000E+00
 -1       812 1.84440E-04 1.61787E-05 3.30872E-24
 -1       813 1.84948E-04 1.44519E-05 1.65436E-24
 -1       814 1.85435E-04 1.27782E-05 0.00000E+00
 -1       815 1.85902E-04 1.11613E-05-8.27181E-25
 -1       816 1.86346E-04 9.60500E-06 0.00000E+00
 -1       817 1.86766E-04 8.11297E-06 0.00000E+00
 -1       818 1.87160E-04 6.68889E-06 1.65436E-24
 -1       819 1.87528E-04 5.33647E-06-8.27181E-25
 -1       820 1.87868E-04 4.05934E-06 3.30872E-24
 -1       821 1.81028E-04 3.17518E-07 0.00000E+00
 -1       822 1.80895E-04-2.20248E-06 0.00000E+00
 -1       823 1.80761E-04-5.13455E-06 0.00000E+00
 -1       824 1.80625E-04-8.18686E-06 0.00000E+00
 -1       825 1.80490E-04-1.10361E-05 0.00000E+00
 -1       826 1.80355E-04-1.33601E-05-1.65436E-24
 -1       827 1.80222E-04-1.49760E-05 3.30872E-24
 -1       828 1.80090E-04-1.57051E-05 1.65436E-24
 -1       829 1.79959E-04-1.56036E-05 0.00000E+00
 -1       830 1.79827E-04-1.47330E-05 0.00000E+00
 -1       831 1.79694E-04-1.33584E-05 3.30872E-24
 -1       832 1.79561E-04-1.17479E-05 0.00000E+00
 -1       833 1.79429E-04-1.02323E-05-3.30872E-24
 -1       834 1.79299E-04-9.14173E-06-1.65436E-24
 -1       835 1.79168E-04-8.69404E-06-8.27181E-25
 -1       836 1.82528E-04 2.25645E-06-3.30872E-24
 -1       837 1.83779E-04 2.37972E-06 0.00000E+00
 -1       838 1.84938E-04 2.50290E-06 0.00000E+00
 -1       839 1.86037E-04 2.62539E-06 0.00000E+00
 -1       840 1.87107E-04 2.74771E-06 0.00000E+00
 -1       856 1.79028E-04-9.87138E-06 0.00000E+00
 -1       857 1.79008E-04-1.05075E-05-6.46235E-27
 -1       858 1.78987E-04-1.10322E-05 0.00000E+00
 -1       859 1.78967E-04-1.14659E-05-2.06795E-25
 -1       860 1.78946E-04-1.18295E-05 0.00000E+00
 -1       861 1.78925E-04-1.21436E-05 4.13590E-25
 -1       862 1.78904E-04-1.24290E-05 8.27181E-25
 -1       863 1.78883E-04-1.27065E-05-4.13590E-25
 -1       864 1.78862E-04-1.29969E-05 8.27181E-25
 -1       865 1.78841E-04-1.33211E-05 4.13590E-25
 -1       866 1.78820E-04-1.36997E-05 8.27181E-25
 -1       867 1.78798E-04-1.41535E-05 0.00000E+00
 -1       868 1.78777E-04-1.47031E-05 0.00000E+00
 -1       869 1.78756E-04-1.53693E-05 4.13590E-25
 -1       870 1.78734E-04-1.61723E-05 0.00000E+00
 -1       871 1.80091E-04-9.10733E-06 8.27181E-25
 -1       872 1.81278E-04-9.11467E-06 0.00000E+00
 -1       873 1.82542E-04-9.12267E-06 0.00000E+00
 -1       874 1.83817E-04-9.13138E-06 3.61892E-25
 -1       875 1.85039E-04-9.14065E-06-1.44757E-24
 -1       876 1.79457E-04-9.85741E-06 0.00000E+00
 -1       877 1.79846E-04-1.05467E-05-1.65436E-24
 -1       878 1.80215E-04-1.11789E-05 0.00000E+00
 -1       879 1.80565E-04-1.17610E-05 0.00000E+00
 -1       880 1.80899E-04-1.23005E-05-3.30872E-24
 -1       881 1.81220E-04-1.28043E-05 0.00000E+00
 -1       882 1.81531E-04-1.32798E-05 0.00000E+00
 -1       883 1.81833E-04-1.37340E-05 1.65436E-24
 -1       884 1.82130E-04-1.41741E-05 0.00000E+00
 -1       885 1.82424E-04-1.46072E-05 0.00000E+00
 -1       886 1.82719E-04-1.50405E-05-3.30872E-24
 -1       887 1.83016E-04-1.54811E-05 1.65436E-24
 -1       888 1.83318E-04-1.59362E-05 3.30872E-24
 -1       889 1.83628E-04-1.64132E-05 0.00000E+00
 -1       890 1.83948E-04-1.69190E-05-1.65436E-24
 -1       891 1.79778E-04-1.71882E-05 0.00000E+00
 -1       892 1.80821E-04-1.72437E-05 0.00000E+00
 -1       893 1.81817E-04-1.72992E-05-1.65436E-24
 -1       894 1.82741E-04-1.73544E-05 8.27181E-25
 -1       895 1.83569E-04-1.74094E-05-4.13590E-25
 -1       956 1.88055E-04 1.82960E-06-1.65436E-24
 -1       957 1.87928E-04 8.85279E-07 0.00000E+00
 -1       958 1.87800E-04 1.79918E-08 3.30872E-24
 -1       959 1.87673E-04-7.82983E-07 0.00000E+00
 -1       960 1.87545E-04-1.52841E-06-3.30872E-24
 -1       961 1.87417E-04-2.22908E-06 1.65436E-24
 -1       962 1.87289E-04-2.89580E-06 0.00000E+00
 -1       963 1.87161E-04-3.53940E-06 0.00000E+00
 -1       964 1.87033E-04-4.17070E-06 0.00000E+00
 -1       965 1.86906E-04-4.80051E-06-1.65436E-24
 -1       966 1.86778E-04-5.43967E-06 3.30872E-24
 -1       967 1.86650E-04-6.09899E-06-1.65436E-24
 -1       968 1.86522E-04-6.78928E-06 3.30872E-24
 -1       969 1.86395E-04-7.52133E-06 1.65436E-24
 -1       970 1.86268E-04-8.30590E-06 3.30872E-24
 -1       971 1.86026E-04-9.99776E-06 0.00000E+00
 -1       972 1.85909E-04-1.07495E-05 1.65436E-24
 -1       973 1.85792E-04-1.14188E-05-3.30872E-24
 -1       974 1.85675E-04-1.20162E-05 0.00000E+00
 -1       975 1.85557E-04-1.25523E-05-3.30872E-24
 -1       976 1.85440E-04-1.30379E-05 1.65436E-24
 -1       977 1.85323E-04-1.34836E-05 0.00000E+00
 -1       978 1.85206E-04-1.39001E-05-1.65436E-24
 -1       979 1.85088E-04-1.42981E-05 0.00000E+00
 -1       980 1.84971E-04-1.46882E-05 0.00000E+00
 -1       981 1.84854E-04-1.50812E-05 0.00000E+00
 -1       982 1.84737E-04-1.54877E-05 0.00000E+00
 -1       983 1.84620E-04-1.59185E-05 0.00000E+00
 -1       984 1.84503E-04-1.63842E-05 0.00000E+00
 -1       985 1.84387E-04-1.68955E-05 0.00000E+00
 -3
    1PSTEP                        24          12           1          
  100CL  112 6.44531E-01         409                     0   12           1
 -4  STRESS      6    1
 -5  SXX         1    4    1    1
 -5  SYY         1    4    2    2
 -5  SZZ         1    4    3    3
 -5  SXY         1    4    1    2
 -5  SYZ         1    4    2    3
 -5  SZX         1    4    3    1
 -1         1-4.46962E+06-1.66302E+06-9.83394E+05-1.62622E+06 2.76486E-10-2.73576E-09
 -1         2 2.30192E+04-2.24052E+06 9.65319E+04 2.81588E+05 3.88536E-09 1.40264E-07
 -1         3-1.24328E+03-1.62055E+06 4.06171E+02-2.10341E+03-5.21215E-10 7.15227E-09
 -1         5-4.73151E+01 3.68669E+05 9.42530E+00-9.69716E-01-3.60501E-10-1.89411E-08
 -1         8-6.17941E+05-2.06037E+05-4.92541E+04-2.56298E+05-4.01997E-10-9.97170E-08
 -1         9 8.06409E+06-7.00125E+05 1.34558E+06-1.15074E+06 2.55881E-08 1.16415E-08
 -1        10-2.13328E+03-1.68872E+06-3.87012E+03-1.42135E+04-1.26965E-08-2.99810E-08
 -1        12-4.35484E+01 3.68689E+05 3.08223E+02-6.73657E+00-4.98602E-10-9.42327E-09
 -1        15 1.23964E+03 6.81251E+02 4.00713E+03 1.81691E+00-9.09495E-13 1.69609E-07
 -1        16 1.76151E+07-1.49191E+05 2.47939E+06-1.43797E+06 1.57937E-08 1.05007E-07
 -1        17 6.31876E+06 4.50850E+06 1.70245E+06 4.42762E+06 1.82074E-08 2.99187E-08
 -1        18 1.13593E+05 2.54912E+04-1.59305E+03-1.12457E+05 1.28794E-08-3.31647E-09
 -1        19 1.17996E+05 1.35801E+05-8.93143E+02 2.14408E+04 1.33641E-09 5.12155E-09
 -1        20-7.61469E+04-5.51642E+05-1.23599E+05 2.56673E+04-1.05880E-09 4.63903E-09
 -1        21-4.49338E+01-2.87782E+05-9.01415E+02 2.08164E+02 1.07768E-08-6.05483E-09
 -1        24 1.03467E+07 8.82265E+06 2.92884E+06 8.20709E+06-1.53047E-07-5.03884E-08
 -1        25 7.50737E+04 8.22110E+04 5.27746E+04-5.37482E+05-2.51575E-09 1.05181E-08
 -1        26-5.20812E+04 8.85772E+04-2.35361E+04 1.72719E+02 2.97587E-10 1.70542E-08
 -1        27-7.45131E+04-2.98522E+05-1.09488E+05 6.64455E+04 4.02057E-09-2.45776E-09
 -1        28 2.17195E+04-8.26262E+04 1.64168E+04 2.05699E+04-2.65067E-09-1.56563E-08
 -1        32-1.62997E+06-2.99704E+06-1.74635E+05 2.64606E+05-3.91010E-08-7.83189E-09
 -1        33-1.72083E+05 8.90972E+04 3.11266E+04-3.78310E+04-2.52578E-09 5.48456E-09
 -1        34-2.15939E+05-2.38703E+04 6.52157E+02 7.23887E+04-4.10158E-09 1.98450E-08
 -1        35-2.23424E+04-3.27698E+04-1.30385E+03 5.00800E+04-1.95486E-09 8.18909E-09
 -1        51 5.02105E+04-2.09203E+05 1.08555E+05-6.22925E+05 0.00000E+00-2.60188E-08
 -1        52 1.80826E+04-1.91760E+05 5.85201E+04-7.26207E+05 1.78261E-10-3.78939E-07
 -1        53 5.00875E+03-2.07280E+05 3.29415E+04-6.20627E+05 7.85803E-10-1.06411E-07
 -1        54 1.12343E+04-2.03739E+05 3.20782E+04-7.28610E+05 2.25555E-10 1.09605E-07
 -1        55 2.36070E+04-2.13152E+05 4.48666E+04-6.20291E+05 2.40107E-10-2.87364E-08
 -1        56-8.42520E+06-9.70128E+05-7.29497E+05-3.31375E+06 1.05065E-08-1.07102E-07
 -1        57-8.90673E+06-1.42646E+06-4.89631E+05-3.05478E+06-1.26311E-08 1.10034E-07
 -1        58-8.51581E+06-1.25224E+06-1.71254E+05-3.32567E+06-2.42799E-08-3.00715E-08
 -1        59-8.81038E+06-1.08944E+06-1.01610E+05-3.04116E+06-1.80034E-08 4.38013E-09
 -1        60-8.52334E+06-1.29633E+06-3.96024E+04-3.33298E+06-9.38689E-09 8.19091E-09
 -1        61-8.76488E+06-1.06935E+06-2.18405E+04-3.06616E+06 2.60211E-08-9.11191E-08
 -1        62-8.55906E+06-1.27239E+06-1.20091E+04-3.29963E+06 2.09930E-08 3.36786E-09
 -1        63-8.66451E+06-1.15258E+06-6.92071E+03-3.15972E+06-6.28188E-09 5.37530E-08
 -1        64-8.61840E+06-1.21654E+06-1.22945E+04-3.23554E+06 5.45697E-11 2.74295E-08
 -1        65-8.55262E+06-1.27078E+06-1.82166E+04-3.28957E+06 3.05226E-09-1.17081E-07
 -1        66-8.67080E+06-1.15447E+06-3.65864E+04-3.16969E+06 2.02544E-08 2.18681E-07
 -1        67-8.49620E+06-1.39178E+06-8.94585E+04-3.39125E+06-2.14495E-08 2.48321E-07
 -1        68-8.68058E+06-1.09292E+06-1.51016E+05-3.13750E+06-2.65245E-08-2.82089E-08
 -1        69-8.62413E+06-1.65810E+06-4.34094E+05-3.37597E+06 1.89975E-08-1.51609E-07
 -1        70-8.54740E+06-8.93612E+05-6.44168E+05-3.18456E+06-6.30098E-09 3.05881E-08
 -1        86-2.37265E+04-2.98264E+06-5.73402E+04-1.40310E+05-3.70544E-08 1.31498E-07
 -1        87 2.82951E+04-2.53363E+06 3.86676E+04 4.22486E+05-6.35355E-08-1.95698E-07
 -1        88-6.53852E+02-2.72049E+06-7.82629E+03-2.81834E+05-6.14277E-08 2.88181E-08
 -1        89 2.46942E+04-2.58378E+06 9.91777E+03 4.55200E+05-8.82383E-08 6.42933E-08
 -1        90-1.55501E+04-2.93761E+06-9.28266E+04-1.73240E+05-2.65554E-08 3.79041E-08
 -1       121-1.71224E+03-1.62470E+06-3.80501E+02 1.04430E+03 1.33002E-09-3.58850E-08
 -1       122-1.06166E+03-1.62059E+06 7.92109E+02-4.20640E+03-5.06755E-09-3.00442E-08
 -1       123-1.74424E+03-1.62483E+06 4.73611E+02 3.11809E+03 4.11399E-09-4.20223E-08
 -1       124 6.08135E+02-1.62004E+06 3.10044E+03-8.78256E+03-9.50467E-09 3.83752E-08
 -1       125-2.60864E+03-1.62575E+06 3.86983E+03 5.58623E+03 5.95901E-09 1.09758E-08
 -1       191-4.99667E+01 3.68692E+05 9.21626E+00 4.99312E-01-4.67796E-10 1.41918E-08
 -1       192-4.82082E+01 3.68669E+05 2.00551E+01-3.23589E+00-6.18319E-10-8.12361E-09
 -1       193-5.23265E+01 3.68691E+05 3.53033E+01 2.82579E+00-8.88846E-10-1.14360E-08
 -1       194-5.10754E+01 3.68672E+05 7.60988E+01-7.38777E+00-4.62165E-10-1.70130E-08
 -1       195-5.68574E+01 3.68689E+05 1.46850E+02 4.75318E+00-1.20280E-09-2.06455E-08
 -1       251-2.09156E+06-4.12596E+04-2.10352E+05-1.42790E+05 5.24233E-09 9.49185E-08
 -1       252-1.03251E+06 5.14442E+04 6.51033E+04 4.40420E+05 1.14451E-08 3.45663E-07
 -1       253-1.62902E+06-1.71874E+04-3.63909E+04-2.92095E+05-9.11587E-09 5.83996E-08
 -1       254-1.53107E+06 6.88745E+04 1.14646E+04 5.82803E+05-1.27731E-08 1.79075E-08
 -1       255-1.64218E+06-1.85471E+04-2.08967E+04-2.89810E+05-1.12432E-08 6.04418E-08
 -1       256-1.00036E+06 5.53867E+04 1.18403E+05 4.30302E+05-3.50401E-08-1.26074E-08
 -1       257-2.10772E+06-4.61014E+04-1.17118E+05-1.34814E+05 5.19976E-08-1.01026E-07
 -1       258-4.69423E+05 4.15961E+04 2.18696E+05 9.53227E+03 9.98534E-09 1.38790E-07
 -1       259-2.12086E+06-4.72766E+04-1.18173E+05 1.28065E+05-2.84745E-08-6.30870E-08
 -1       260-9.69385E+05 5.71733E+04 1.29327E+05-4.17345E+05-9.54606E-09-1.39899E-07
 -1       261-1.65697E+06-2.16298E+04-1.46355E+04 2.88815E+05 1.13777E-07 4.00860E-10
 -1       262-1.52508E+06 8.12526E+04 3.52909E+04-5.80230E+05-5.03513E-08-9.55570E-08
 -1       263-1.62001E+06-2.65941E+04 4.19652E+03 2.95978E+05 1.97660E-08 3.63070E-09
 -1       264-1.03135E+06 1.25434E+05 1.62196E+05-4.50884E+05 1.33250E-07-9.96806E-10
 -1       265-2.10472E+06-1.03112E+05-6.10167E+04 1.54952E+05 5.05570E-08 9.80654E-08
 -1       266-2.24417E+04-1.04941E+04 5.26533E+04-3.88755E+01-4.36557E-11-1.53453E-07
 -1       267 2.60161E+04 1.22306E+04 3.72153E+04 4.48555E+01 4.91127E-11-2.23933E-07
 -1       268-3.48871E+03-1.73222E+03 1.38327E+04-5.71532E+00 1.03682E-10 7.57697E-08
 -1       269 4.11914E+03 2.07307E+03 8.99108E+03 6.65755E+00 4.40195E-10 1.90793E-07
 -1       270-6.18288E+02-3.40623E+02 4.34012E+03-9.03474E-01-1.06297E-10 8.97597E-08
 -1       271-2.02920E+06-2.43662E+05-1.50910E+05-7.75944E+05 2.51748E-08-8.48158E-08
 -1       272-2.13998E+06-2.98137E+05-9.71570E+04-7.11645E+05-1.33150E-08-1.35842E-07
 -1       273-2.05630E+06-2.82695E+05-3.56058E+04-7.70700E+05 3.65490E-08-4.03634E-09
 -1       274-2.10797E+06-2.50432E+05-1.99836E+04-7.19815E+05-3.38123E-08 1.11464E-07
 -1       275-2.06027E+06-2.86670E+05-8.29705E+03-7.69434E+05 4.41514E-08 1.81153E-08
 -1       276-2.10180E+06-2.46841E+05-4.34680E+03-7.22422E+05-3.24872E-09 7.37066E-08
 -1       277-2.06192E+06-2.86090E+05-2.19645E+03-7.67938E+05-3.09019E-08 1.87616E-07
 -1       278-2.09770E+06-2.49387E+05-1.34095E+03-7.25540E+05 2.91120E-08-9.46329E-08
 -1       279-2.06368E+06-2.84506E+05-1.57126E+03-7.65849E+05-3.50137E-08-1.79644E-07
 -1       280-2.09315E+06-2.53790E+05-2.26611E+03-7.29676E+05 1.17352E-08-2.52047E-07
 -1       281-2.06570E+06-2.82196E+05-4.57634E+03-7.63248E+05-2.49420E-08-1.13330E-07
 -1       282-2.08954E+06-2.61596E+05-1.00571E+04-7.34488E+05 2.83289E-08 5.45499E-08
 -1       283-2.06658E+06-2.77427E+05-1.85539E+04-7.60426E+05-5.19140E-09-1.02815E-07
 -1       284-2.09919E+06-2.91952E+05-4.93253E+04-7.36937E+05-1.22245E-08-2.89717E-08
 -1       285-2.05582E+06-2.54694E+05-7.74629E+04-7.59512E+05-1.12668E-08-3.50046E-08
 -1       301 1.24887E+04-5.01369E+05 1.74181E+05-8.72529E+05 1.79716E-09 4.09054E-08
 -1       302 1.37761E+04-4.56775E+05 1.05919E+05-1.27530E+06-2.44472E-09-2.41573E-07
 -1       303-7.09535E+03-4.87753E+05 6.42363E+04-8.70310E+05 4.36557E-10-2.77361E-07
 -1       304 9.07540E+02-4.61102E+05 7.22441E+04-1.27460E+06 4.36557E-11 3.85335E-08
 -1       305-3.32726E+03-4.85368E+05 9.88652E+04-8.73002E+05 5.34783E-10 1.28828E-07
 -1       306-2.56779E+07-5.17818E+06-7.03604E+06-1.26630E+06-8.50996E-08-1.39786E-07
 -1       307 2.08508E+07 1.59820E+06 4.52288E+06-1.20554E+07-7.50166E-07 1.54818E-07
 -1       308-7.88930E+06-6.23523E+05-5.55381E+05 4.28214E+06-1.67114E-07 4.18171E-07
 -1       309-3.57844E+06 5.60324E+06 1.65532E+06-1.78910E+07 3.53903E-07 2.32150E-07
 -1       310-1.06971E+07-1.04816E+06-1.28132E+06 4.14213E+06 2.54367E-08-1.25423E-07
 -1       311 2.73361E+07-3.13699E+05 5.48666E+06-8.55234E+06 5.99364E-07-1.03217E-07
 -1       312-2.64903E+07-5.19221E+06-6.59380E+06-3.62988E+06 2.23634E-07 2.08747E-07
 -1       313 3.69253E+07 9.58224E+06 8.50309E+06 1.69546E+07 2.08121E-07 1.29919E-07
 -1       314-1.64431E+07-1.33298E+07-6.07578E+06-1.06297E+07 3.07395E-07-5.35510E-08
 -1       315-7.37006E+05 2.25082E+07 4.67857E+06 1.02791E+07-1.89597E-07 3.60596E-08
 -1       316-2.60416E+04-8.78565E+06-5.15116E+05-3.70902E+06-9.95278E-07-2.24856E-07
 -1       317-1.68262E+07 1.87528E+07 1.62497E+06-5.15942E+06 5.75739E-07-5.63974E-07
 -1       318-1.36815E+06-9.98075E+06-1.33699E+06-4.48093E+06-8.29081E-07 2.40281E-07
 -1       319 4.06012E+06 2.35921E+07 5.24686E+06 1.27297E+07-3.49828E-08 1.67172E-07
 -1       320-1.91318E+07-1.36764E+07-7.71919E+06-1.05253E+07 1.80909E-07-3.37604E-08
 -1       336-3.08365E+02-1.75880E+06-1.36657E+04 8.49933E+03-2.42580E-08 1.99616E-08
 -1       337-5.24323E+03-1.75922E+06-1.77494E+04-2.05562E+04-4.46034E-08-2.37578E-08
 -1       338 5.53233E+02-1.75836E+06-2.74322E+04 1.18655E+04-3.12284E-08-1.98997E-09
 -1       339-2.91302E+04-1.77560E+06-6.21319E+04-2.71242E+04-5.70617E-08-1.70621E-09
 -1       340 1.94460E+04-1.74431E+06-9.76265E+04 1.49552E+04-3.76967E-08 1.49194E-08
 -1       406-2.20018E+01 3.68675E+05 6.06404E+02 2.26921E+00-1.51750E-09-1.85755E-08
 -1       407 1.68856E+02 3.68796E+05 1.29330E+03 1.91459E+01-4.37058E-10-4.38795E-08
 -1       408 6.20807E+02 3.68581E+05 2.58028E+03-2.18182E+01-1.79693E-09-1.22945E-08
 -1       409 2.75266E+03 3.69620E+05 5.81317E+03 2.29211E+02 5.18980E-11 1.23691E-10
 -1       410 7.98673E+03 3.67841E+05 1.18655E+04-2.20026E+02-2.31012E-09-2.12303E-08
 -1       521-2.73255E+07-6.36574E+06-8.24825E+06-9.93490E+05-8.21892E-08-1.11759E-08
 -1       522 2.16602E+07 2.15255E+06 4.61182E+06-1.50205E+07-4.89264E-07-2.30852E-07
 -1       523-8.71037E+06-8.92707E+05-5.81004E+05 4.73088E+06-2.44181E-08-2.58238E-07
 -1       524-6.56577E+06 7.90583E+06 1.80391E+06-2.08093E+07 6.68537E-07-5.73662E-07
 -1       525-1.17118E+07-1.49560E+06-1.41479E+06 4.57919E+06 4.73810E-07-2.63171E-07
 -1       526 2.97061E+07-3.40921E+05 5.79760E+06-1.09607E+07 2.87255E-07-6.63567E-08
 -1       527-2.83231E+07-6.54567E+06-7.61157E+06-3.54997E+06 1.92085E-07-1.27679E-07
 -1       528 4.05347E+07 1.05027E+07 8.91352E+06 1.92485E+07 1.33878E-09-2.33122E-08
 -1       529-1.75334E+07-1.52151E+07-6.98958E+06-1.09042E+07 3.95812E-09-4.28990E-08
 -1       530-2.87202E+06 2.63896E+07 4.96898E+06 1.04186E+07-2.42260E-07 4.17698E-07
 -1       531-1.28344E+05-9.94552E+06-5.25455E+05-3.91724E+06-6.75645E-07 3.10683E-07
 -1       532-1.98739E+07 2.10895E+07 1.79633E+06-8.31103E+06 3.37823E-07-6.57139E-07
 -1       533-1.46658E+06-1.11530E+07-1.41493E+06-4.61429E+06-1.94937E-07-8.69215E-07
 -1       534 2.16690E+06 2.75715E+07 5.49571E+06 1.32676E+07-3.62052E-08 6.49132E-07
 -1       535-2.03254E+07-1.56771E+07-8.84111E+06-1.07829E+07 8.02102E-08 3.92931E-07
 -1       536-6.60196E+05-4.50356E+04-2.88162E+04-4.83817E+04-6.63704E-09 4.90018E-08
 -1       537-9.97038E+04 4.40266E+04 8.01629E+04 1.11719E+05-1.03718E-07 8.00933E-08
 -1       538-3.92408E+05 2.08872E+03 6.20757E+03-6.60360E+04 3.13436E-08 1.01704E-07
 -1       539-2.85419E+05 3.09203E+03 2.30218E+04 1.26199E+05 1.55404E-07 1.05248E-07
 -1       540-4.79077E+05-2.93015E+02-1.71962E+04-6.32803E+04 5.53837E-09 1.03897E-07
 -1       541 6.91850E+04 1.44907E+04 9.10951E+04 8.75482E+04-2.44002E-08 7.98956E-08
 -1       542-7.37472E+05-1.72514E+04-7.17596E+04-2.67025E+04 4.01928E-08 4.42322E-08
 -1       543 2.89919E+05 2.33663E+04 1.34763E+05-1.23157E+04-2.56059E-08 3.42288E-09
 -1       544-6.93906E+05-1.40512E+04-6.37515E+04 3.60571E+04-8.63656E-09-3.89568E-08
 -1       545-3.26629E+04 7.85461E+03 6.74954E+04-1.02556E+05-5.27052E-09-5.10247E-08
 -1       546-4.23528E+05 5.40544E+03-1.05945E+04 6.32708E+04 6.31348E-09-9.65611E-08
 -1       547-3.01555E+05-4.68508E+03 7.82647E+03-1.28911E+05-9.87109E-08-1.08971E-07
 -1       548-4.32216E+05 4.49247E+03-2.20143E+04 6.29530E+04-9.62116E-08-1.05439E-07
 -1       549-1.47729E+04 1.05682E+04 4.74520E+04-1.00138E+05-6.29198E-08-7.99484E-08
 -1       550-7.02627E+05-1.62498E+04-1.16403E+05 3.39345E+04 6.79756E-09-4.82269E-08
 -1       551 3.73386E+04-7.69248E+05-6.29591E+03-1.20986E+06-9.64210E-08 2.38651E-09
 -1       552 8.46396E+04-8.08059E+05 1.53629E+04-1.72533E+06-6.83649E-08 3.35785E-08
 -1       553 6.44920E+04-8.06385E+05 3.57103E+04-1.20373E+06-1.09911E-07 3.35276E-08
 -1       554 1.21237E+05-8.20423E+05 8.54047E+04-1.72728E+06-6.64731E-08 2.42217E-08
 -1       555 9.41262E+04-8.29137E+05 1.54651E+05-1.20377E+06-1.13374E-07-1.21872E-08
 -1       556 2.03322E+05-3.52773E+05 3.88971E+04-3.85197E+05-2.03436E-08-3.17232E-09
 -1       557 3.26971E+05-4.51558E+05 2.25606E+04-4.96238E+05 2.79397E-09 5.70071E-09
 -1       558 1.88424E+05-3.49300E+05 5.71812E+03-3.86735E+05-2.04600E-08-9.09495E-09
 -1       559 3.03646E+05-4.53954E+05 3.92646E+03-5.14014E+05 2.43308E-08-1.23873E-08
 -1       560 1.75347E+05-3.41071E+05-4.05020E+02-3.96073E+05 1.35624E-08 5.27507E-10
 -1       561 2.87032E+05-4.47434E+05 5.39395E+02-5.25256E+05-2.38651E-09 1.17689E-09
 -1       562 1.65012E+05-3.34622E+05-8.97515E+02-4.03539E+05 1.45519E-10 1.73713E-09
 -1       563 2.74775E+05-4.42090E+05 8.14563E+01-5.33240E+05 6.84668E-09 8.22001E-09
 -1       564 1.57698E+05-3.30057E+05-4.31908E+02-4.08716E+05 8.45466E-09 5.30326E-09
 -1       565 2.66756E+05-4.38599E+05 5.66120E+01-5.38357E+05 8.65839E-09 2.03536E-08
 -1       566 1.53514E+05-3.27406E+05-1.90865E+02-4.11644E+05-5.84987E-09-1.95869E-08
 -1       567 2.63009E+05-4.36967E+05-3.00118E+02-5.40616E+05 1.53323E-08-3.30692E-09
 -1       568 1.52539E+05-3.26814E+05-9.67694E+02-4.12422E+05-2.93130E-09-4.05998E-09
 -1       569 2.62238E+05-4.36920E+05-2.44684E+03-5.39074E+05-6.94763E-09 1.59052E-08
 -1       570 1.55794E+05-3.29833E+05-5.38387E+03-4.11505E+05 6.00267E-09 3.80351E-09
 -1       571 2.81208E+05 1.01710E+04 1.47793E+04-8.80113E+04 1.08748E-08-4.30828E-09
 -1       572 2.83378E+05 3.75743E+03 7.24888E+03-9.67300E+04 2.24522E-08 1.80162E-08
 -1       573 2.82074E+05 1.11757E+03 3.22240E+03-8.78397E+04 6.39557E-09-8.97853E-09
 -1       574 2.82292E+05 6.15711E+02 1.61700E+03-9.69437E+04 2.15573E-09-1.69821E-08
 -1       575 2.82166E+05 3.56262E+02 7.64017E+02-8.78166E+04-3.29135E-09-1.27238E-09
 -1       576 2.82157E+05 3.63334E+02 3.91342E+02-9.69719E+04-4.45516E-09 1.50449E-08
 -1       577 2.82201E+05 3.05575E+02 1.95859E+02-8.78135E+04-4.64206E-09-1.09658E-08
 -1       578 2.82179E+05 3.31509E+02 1.13643E+02-9.69758E+04-2.86127E-09 7.99901E-09
 -1       579 2.82262E+05 2.75542E+02 7.95024E+01-8.78131E+04 1.29676E-08 1.25656E-08
 -1       580 2.82266E+05 2.88680E+02 9.36363E+01-9.69714E+04 1.46119E-08 1.50985E-08
 -1       581 2.82359E+05 2.26491E+02 1.43946E+02-8.78185E+04 1.66165E-08 1.13687E-09
 -1       582 2.82420E+05 2.63208E+02 2.92339E+02-9.69147E+04 4.08909E-09-1.26702E-08
 -1       583 2.82476E+05 2.83600E+02 5.63694E+02-8.78704E+04 1.23691E-09 9.41850E-09
 -1       584 2.82778E+05 7.36162E+02 1.27349E+03-9.64727E+04 7.02312E-09 2.08938E-08
 -1       585 2.82468E+05 1.81282E+03 2.58000E+03-8.82598E+04 1.43518E-09 1.28530E-08
 -1       586-3.35260E+03 1.07733E+05-3.12041E+03-2.41429E+05-6.60111E-09-5.07362E-09
 -1       587-1.20885E+03 1.07434E+05 5.55210E+02-2.65716E+05-3.74166E-09 1.98850E-09
 -1       588 4.86572E+02 1.07299E+05 4.43037E+03-2.41300E+05-4.60932E-09 1.56942E-08
 -1       589 4.95100E+03 1.09623E+05 1.16537E+04-2.65480E+05-5.81167E-09 1.68911E-08
 -1       590 1.58585E+04 1.06033E+05 2.45097E+04-2.41714E+05-4.30555E-09 2.29866E-08
 -1       591-6.99604E+04-1.53710E+04-2.13071E+04-3.03963E+04-9.17908E-10-1.36733E-08
 -1       592-7.36531E+04-1.89101E+04-1.15416E+04-3.40242E+04-5.01835E-09-2.32660E-08
 -1       593-7.20931E+04-1.38231E+04-4.80424E+03-3.19569E+04-5.07470E-09-1.09746E-08
 -1       594-7.07086E+04-1.57863E+04-2.39601E+03-3.41390E+04-6.64267E-09 8.95693E-09
 -1       595-7.22558E+04-1.38178E+04-1.10012E+03-3.20279E+04-2.59774E-09 8.85998E-09
 -1       596-7.05072E+04-1.56435E+04-5.59221E+02-3.41153E+04 9.36534E-09-6.87805E-11
 -1       597-7.22762E+04-1.38323E+04-3.04461E+02-3.20305E+04-3.18965E-09 1.28442E-08
 -1       598-7.04874E+04-1.56379E+04-2.44662E+02-3.41087E+04-4.99085E-09 4.93509E-09
 -1       599-7.22750E+04-1.38327E+04-3.12416E+02-3.20302E+04 5.41490E-09-1.06606E-08
 -1       600-7.05074E+04-1.56441E+04-5.80279E+02-3.41134E+04 2.07007E-09-1.14762E-08
 -1       601-7.22513E+04-1.38189E+04-1.14472E+03-3.20268E+04 2.41675E-09 1.05870E-08
 -1       602-7.07168E+04-1.57919E+04-2.49478E+03-3.41344E+04-2.68346E-09 2.16369E-09
 -1       603-7.20793E+04-1.38272E+04-5.00305E+03-3.19536E+04 5.87443E-09-3.84125E-09
 -1       604-7.37993E+04-1.90267E+04-1.20184E+04-3.39917E+04 4.08841E-09-3.37495E-08
 -1       605-6.98396E+04-1.54557E+04-2.21876E+04-3.03465E+04 6.71068E-09 2.83399E-09
 -1       606 2.68074E+04-1.36964E+04-2.45650E+04 2.43673E+04 5.37602E-09 2.04955E-09
 -1       607 2.26090E+04-4.46725E+03-1.22331E+04 2.73776E+04 1.26420E-10 1.55615E-09
 -1       608 2.50006E+04-8.00208E+02-5.47656E+03 2.41911E+04 5.79348E-09 8.30050E-09
 -1       609 2.45403E+04-2.67376E+02-2.76655E+03 2.75943E+04 1.79161E-08 1.26176E-08
 -1       610 2.47946E+04-3.09560E+01-1.32011E+03 2.41704E+04 1.44382E-08 3.45312E-09
 -1       611 2.47206E+04-2.91671E+01-6.65595E+02 2.76178E+04 1.03601E-08-1.77336E-08
 -1       612 2.47480E+04-1.68935E+01-3.16597E+02 2.41683E+04 6.61839E-09-2.89265E-09
 -1       613 2.47301E+04-2.43707E+01-1.42027E+02 2.76205E+04 3.75667E-09 1.22582E-08
 -1       614 2.47256E+04-2.22517E+01-3.37549E+01 2.41676E+04 6.97037E-09 3.34060E-08
 -1       615 2.47238E+04-2.22566E+01 5.84902E+01 2.76210E+04 1.34705E-08 1.43602E-08
 -1       616 2.47081E+04-1.86982E+01 1.76339E+02 2.41679E+04 4.49063E-09 4.28395E-09
 -1       617 2.47441E+04 1.59019E+01 4.02725E+02 2.76205E+04-5.37739E-10 7.79710E-09
 -1       618 2.46724E+04 9.78451E+01 8.11885E+02 2.41681E+04-7.61065E-09-6.97810E-10
 -1       619 2.50301E+04 6.44020E+02 1.82325E+03 2.76198E+04-1.99528E-08 7.46900E-09
 -1       620 2.44024E+04 2.02339E+03 3.66470E+03 2.41690E+04-7.63077E-09 1.02268E-08
 -1       621 4.60517E+02 2.88933E+05 3.65451E+03 3.63389E+04 6.92125E-10 5.06043E-09
 -1       622 6.00161E+02 2.89789E+05 3.25770E+03 5.27750E+04 1.07912E-09 1.55933E-09
 -1       623 1.08723E+02 2.89123E+05 3.93562E+03 3.61729E+04 1.02148E-09 6.88578E-09
 -1       624 1.98167E+03 2.90968E+05 7.64564E+03 5.29395E+04 1.02057E-09-1.66467E-08
 -1       625 1.94873E+03 2.87610E+05 1.33687E+04 3.61696E+04 1.18825E-09-9.04606E-09
 -1       626 2.50262E+05 5.98697E+04 4.95808E+03 1.22805E+05 2.09184E-11-4.58022E-09
 -1       627 2.47938E+05 6.13022E+04 2.38925E+03 1.27030E+05 3.91583E-09-8.70045E-09
 -1       628 2.50390E+05 5.75955E+04 1.01035E+03 1.23640E+05-2.69756E-09 1.91858E-09
 -1       629 2.47314E+05 6.06512E+04 4.94560E+02 1.27270E+05-2.87810E-09 4.65788E-09
 -1       630 2.50404E+05 5.74860E+04 2.29401E+02 1.23674E+05-2.10275E-09 3.70665E-09
 -1       631 2.47248E+05 6.06272E+04 1.23478E+02 1.27271E+05-2.95768E-09 3.20642E-09
 -1       632 2.50399E+05 5.74904E+04 8.13247E+01 1.23670E+05-1.36333E-09 1.08662E-08
 -1       633 2.47239E+05 6.06295E+04 9.06838E+01 1.27267E+05-1.18199E-08-7.61474E-10
 -1       634 2.50394E+05 5.74881E+04 1.46634E+02 1.23669E+05-1.03072E-08 1.80050E-08
 -1       635 2.47252E+05 6.06282E+04 2.96773E+02 1.27272E+05 8.66748E-10 1.42686E-08
 -1       636 2.50384E+05 5.74830E+04 5.99363E+02 1.23668E+05-2.53794E-09 1.20608E-08
 -1       637 2.47381E+05 6.07216E+04 1.31779E+03 1.27271E+05-1.04137E-09-1.00022E-09
 -1       638 2.50338E+05 5.77743E+04 2.70762E+03 1.23536E+05-1.18416E-09 7.03676E-09
 -1       639 2.48803E+05 6.26998E+04 6.40624E+03 1.26852E+05 2.39561E-09-6.03086E-09
 -1       640 2.50142E+05 6.36797E+04 1.32941E+04 1.21045E+05 1.20740E-08 1.50540E-08
 -1       656 6.41867E+04-1.64104E+06-1.54943E+05-2.08800E+03-6.18456E-10-1.55497E-08
 -1       657-8.49047E+04-1.71105E+06-1.28342E+05 5.68133E+03-4.77485E-10 3.44755E-11
 -1       658 2.04525E+04-1.66093E+06-7.90188E+04-4.05284E+03 3.92447E-10-9.97210E-09
 -1       659-9.17465E+04-1.71429E+06-1.37332E+05 7.27854E+03-5.12955E-10-1.02960E-08
 -1       660 7.10131E+04-1.63780E+06-1.70400E+05-3.68520E+03-2.19734E-09 7.12447E-10
 -1       661 1.59810E+05 1.68195E+04 1.66511E+04 6.24829E+04-2.94904E-09 1.31049E-08
 -1       662 1.69142E+05 2.92306E+04 1.12215E+04 5.88404E+04-2.60513E-10 9.27969E-09
 -1       663 1.63080E+05 2.21618E+04 3.92467E+03 6.15342E+04-1.15278E-10-1.00374E-08
 -1       664 1.65351E+05 2.29827E+04 2.34760E+03 5.99988E+04 6.46793E-10-3.53631E-09
 -1       665 1.63575E+05 2.28920E+04 9.26115E+02 6.13901E+04 1.56490E-10-2.35528E-09
 -1       666 1.64765E+05 2.21472E+04 5.41859E+02 6.01864E+04 6.32230E-09-5.19256E-09
 -1       667 1.63662E+05 2.29754E+04 2.87734E+02 6.13544E+04 6.47958E-10 1.03050E-10
 -1       668 1.64670E+05 2.20867E+04 2.92993E+02 6.02383E+04-4.38858E-09 2.12675E-08
 -1       669 1.63670E+05 2.29508E+04 3.96522E+02 6.13385E+04-2.49713E-09 1.30311E-08
 -1       670 1.64767E+05 2.23015E+04 8.63290E+02 6.02410E+04-9.53725E-09-1.28819E-08
 -1       671 1.63565E+05 2.27650E+04 1.53279E+03 6.13498E+04 2.25285E-09-2.54704E-09
 -1       672 1.65660E+05 2.37927E+04 3.92157E+03 6.00245E+04 1.95593E-09-1.16599E-08
 -1       673 1.62781E+05 2.14974E+04 6.57191E+03 6.15405E+04 3.23803E-09-7.64112E-09
 -1       674 1.71916E+05 3.43506E+04 1.87943E+04 5.81864E+04-5.86988E-09 5.30372E-09
 -1       675 1.57350E+05 1.25027E+04 2.78972E+04 6.30770E+04-2.13913E-09 1.62800E-08
 -1       676 2.34713E+01-2.87707E+05-1.08644E+03-1.04085E+02 7.55591E-10 3.07257E-09
 -1       677-2.87851E+02-2.87970E+05-1.98837E+03 2.08010E+02 6.61316E-09-9.13296E-09
 -1       678 1.92700E+02-2.87520E+05-3.51494E+03-1.03856E+02 8.88122E-10-2.40332E-08
 -1       679-3.51542E+03-2.90091E+05-8.35001E+03 2.07136E+02 6.42558E-09-8.37649E-09
 -1       680 2.09857E+03-2.85586E+05-1.34574E+04-1.02059E+02 3.87445E-10-3.12899E-09
 -1       771-2.99234E+06-7.06402E+05-1.44466E+05-1.41460E+06-2.75904E-08-2.13622E-08
 -1       772-2.92205E+06-7.88508E+05-7.46251E+04-1.50933E+06-2.15805E-08 1.23000E-08
 -1       773-3.01984E+06-6.84877E+05-3.77229E+04-1.42663E+06-1.20781E-08 9.10950E-09
 -1       774-2.91284E+06-7.72659E+05-1.68962E+04-1.53155E+06 2.34431E-08-1.57161E-09
 -1       775-3.03385E+06-6.75009E+05-1.24242E+04-1.43232E+06-3.92902E-09 1.03319E-09
 -1       776-2.92286E+06-7.70324E+05-4.68052E+03-1.54811E+06 1.16415E-10 5.58794E-09
 -1       777-3.04591E+06-6.66272E+05-5.41182E+03-1.43734E+06 8.14907E-10 3.34694E-09
 -1       778-2.93338E+06-7.68185E+05-1.54137E+03-1.56231E+06 1.72440E-09 1.21145E-09
 -1       779-3.05624E+06-6.58671E+05-2.67994E+03-1.44163E+06-1.27038E-08-5.69707E-09
 -1       780-2.94262E+06-7.66140E+05-4.46115E+02-1.57387E+06-9.85165E-09-7.93079E-10
 -1       781-3.06442E+06-6.52561E+05-1.03298E+03-1.44499E+06-2.89292E-08-5.45879E-09
 -1       782-2.94973E+06-7.64395E+05 3.79597E+02-1.58239E+06-3.40879E-08-6.24232E-09
 -1       783-3.07017E+06-6.48330E+05 5.95733E+02-1.44734E+06-1.12777E-09-9.48739E-09
 -1       784-2.95364E+06-7.62586E+05 2.44227E+03-1.58764E+06-1.40572E-08-6.22504E-09
 -1       785-3.07357E+06-6.45811E+05 4.31334E+03-1.44885E+06-3.03990E-08 4.83305E-09
 -1       786 1.27424E+05-9.76088E+03 2.25824E+04-2.86900E+02 1.59766E-09 8.64020E-10
 -1       787 1.37217E+05 1.13007E+04 1.59762E+04-1.07268E+02 5.44509E-09 5.48152E-09
 -1       788 1.31200E+05-1.52969E+03 5.84279E+03-2.53404E+02 5.68226E-09 1.36110E-08
 -1       789 1.32818E+05 1.77034E+03 3.66820E+03-1.59018E+02 3.32243E-09 1.70530E-08
 -1       790 1.31823E+05-2.38318E+02 1.48592E+03-2.35165E+02-1.05415E-09 2.57875E-08
 -1       791 1.32089E+05 2.75678E+02 8.59620E+02-1.90325E+02-6.78436E-09 2.19339E-08
 -1       792 1.31929E+05-3.61391E+01 3.67061E+02-2.22099E+02-3.51465E-09 2.41868E-08
 -1       793 1.31964E+05 3.93243E+01 1.89102E+02-2.14988E+02 2.00734E-09-2.82590E-10
 -1       794 1.31949E+05-2.11326E+00 6.14327E+01-2.10501E+02 3.50504E-09 8.97742E-10
 -1       795 1.31931E+05-1.70491E+01-2.47923E+01-2.39328E+02-3.13910E-09 5.44804E-09
 -1       796 1.31961E+05 2.02032E+01-1.05878E+02-1.97759E+02 3.28180E-09-1.14867E-08
 -1       797 1.31864E+05-1.52360E+02-3.06483E+02-2.68755E+02 3.56758E-09-1.42130E-08
 -1       798 1.32016E+05 1.33095E+02-5.02114E+02-1.81074E+02 1.47528E-09-6.60589E-09
 -1       799 1.31482E+05-9.81186E+02-1.38517E+03-3.10021E+02 5.15861E-09 6.15535E-09
 -1       800 1.32343E+05 8.48348E+02-1.96141E+03-1.56493E+02 3.80984E-10 1.98517E-08
 -1       801-1.06654E+05-8.79944E+06-1.19196E+06 1.13114E+06 8.21601E-08-5.30163E-08
 -1       802 5.53828E+05 4.07976E+06 1.71160E+06-1.36597E+06 2.33522E-07-3.04171E-08
 -1       803-4.27913E+05-1.21382E+07-1.52721E+06 7.19727E+05 7.19192E-08 2.06728E-08
 -1       804 2.15462E+05 1.14313E+06 1.20676E+06 5.83809E+05-1.05963E-07-7.78335E-08
 -1       805 1.64740E+05-5.87796E+06-2.33382E+05-8.14018E+05-4.35684E-08-5.72854E-08
 -1       806-2.97360E+05-5.74833E+04-2.19180E+04-1.17822E+05-9.01264E-09-1.96906E-10
 -1       807-2.99091E+05-5.38988E+04-1.07681E+04-1.23131E+05 7.61702E-09 2.72300E-08
 -1       808-2.97959E+05-4.95869E+04-4.56817E+03-1.21560E+05-1.36993E-08 1.00382E-08
 -1       809-2.96828E+05-5.08727E+04-2.23373E+03-1.23395E+05-2.75825E-08 2.19111E-08
 -1       810-2.98050E+05-4.93119E+04-1.02382E+03-1.21725E+05-3.98950E-09 3.86240E-09
 -1       811-2.96653E+05-5.07510E+04-5.09167E+02-1.23361E+05 9.74978E-10-5.24597E-09
 -1       812-2.98064E+05-4.93354E+04-2.57543E+02-1.21725E+05-8.07449E-09 1.17038E-08
 -1       813-2.96629E+05-5.07530E+04-1.67498E+02-1.23344E+05-1.27256E-08-5.75164E-09
 -1       814-2.98058E+05-4.93445E+04-1.66124E+02-1.21721E+05 9.91622E-09 7.34053E-09
 -1       815-2.96633E+05-5.07551E+04-2.67892E+02-1.23337E+05 1.02223E-08 1.44257E-08
 -1       816-2.98038E+05-4.93434E+04-5.07803E+02-1.21718E+05 6.37283E-09 2.14050E-08
 -1       817-2.96720E+05-5.08035E+04-1.09000E+03-1.23326E+05-1.34996E-08 5.38876E-09
 -1       818-2.97972E+05-4.94970E+04-2.22318E+03-1.21645E+05-8.65657E-09-8.89167E-09
 -1       819-2.97937E+05-5.21464E+04-5.23117E+03-1.23038E+05-3.43289E-09-7.79073E-09
 -1       820-2.97554E+05-5.34477E+04-1.06473E+04-1.19956E+05 2.04545E-09 8.05812E-10
 -1       821-3.67697E+05 2.02671E+04-4.69891E+04 1.53712E+03 1.07978E-08 4.85488E-09
 -1       822-3.87579E+05-2.34681E+04-3.31673E+04-3.01384E+03 3.03874E-09 1.11468E-08
 -1       823-3.75301E+05 3.18473E+03-1.21550E+04 2.25868E+03-8.68775E-09 6.18866E-09
 -1       824-3.78552E+05-3.67852E+03-7.63058E+03-3.37644E+03 5.91264E-10-6.10203E-09
 -1       825-3.76723E+05 4.94976E+02-3.16707E+03 1.89976E+03 1.36705E-08 2.30671E-09
 -1       826-3.76653E+05-5.69506E+02-1.80240E+03-1.77590E+03 1.69866E-08 1.92257E-08
 -1       827-3.77189E+05 6.95531E+01-1.05904E+03 6.58087E+02 5.54795E-09-6.33125E-09
 -1       828-3.76278E+05-1.58711E+02-7.42781E+02 9.22254E+02-2.49690E-09-2.34814E-09
 -1       829-3.77093E+05 8.10215E+01-1.06118E+03-7.98423E+02 8.44821E-10-5.09161E-09
 -1       830-3.76868E+05-6.07966E+02-1.90932E+03 3.26231E+03 3.20575E-09 1.48785E-08
 -1       831-3.76609E+05 5.26466E+02-3.25930E+03-1.68200E+03-2.56125E-09 2.02997E-08
 -1       832-3.78638E+05-3.82848E+03-7.92259E+03 3.97953E+03-2.09157E-09 9.89803E-09
 -1       833-3.75330E+05 3.30370E+03-1.26292E+04-1.51566E+03-1.31433E-09 1.31131E-08
 -1       834-3.87776E+05-2.43498E+04-3.43759E+04 2.66307E+03-1.55345E-09 6.54518E-09
 -1       835-3.67466E+05 2.10248E+04-4.87827E+04-3.65506E+02 5.12134E-09 1.79389E-08
 -1       836-1.34489E+03 3.55075E+05 2.19126E+04-1.64293E+04-5.83077E-09 3.18596E-09
 -1       837 4.68688E+03 3.61930E+05 1.85662E+04-3.34423E+04-6.10316E-09-2.09184E-10
 -1       838-5.28110E+02 3.56994E+05 1.89504E+04-1.63585E+04-5.18594E-09-5.28075E-09
 -1       839 1.19552E+04 3.67343E+05 3.58817E+04-3.34922E+04-5.27507E-09-1.96192E-08
 -1       840-3.68507E+03 3.49604E+05 5.72324E+04-1.63837E+04-4.65297E-09-1.69824E-08
 -1       856-5.60522E+04 7.93188E+03-2.09024E+04-3.99833E+02 3.09103E-09-8.70295E-09
 -1       857-6.46674E+04-9.31669E+03-1.43892E+04 5.47709E+03 5.97956E-09-2.37105E-09
 -1       858-5.94626E+04 1.11219E+03-5.42379E+03-4.23432E+02 1.62294E-09 2.04841E-09
 -1       859-6.07533E+04-1.30560E+03-3.27332E+03 5.51260E+03-1.80637E-09 2.45076E-08
 -1       860-5.99722E+04 1.55571E+02-1.37234E+03-4.35138E+02-8.43301E-10 9.60642E-09
 -1       861-6.01671E+04-1.83036E+02-7.55987E+02 5.52857E+03 2.59149E-10-1.11770E-08
 -1       862-6.00518E+04 2.09551E+01-3.16330E+02-4.39395E+02-1.41404E-09-2.55145E-08
 -1       863-6.00698E+04-1.93382E+01-1.19943E+02 5.53098E+03-2.84611E-09-1.40564E-08
 -1       864-6.00699E+04-4.41827E+00 3.60481E+01-4.37549E+02-2.96292E-09 6.76700E-09
 -1       865-6.00176E+04 5.64563E+01 2.28682E+02 5.52062E+03-2.28010E-09 5.85514E-09
 -1       866-6.01019E+04-5.49091E+01 4.66308E+02-4.29031E+02-1.79256E-09-1.65238E-09
 -1       867-5.97969E+04 4.54237E+02 1.15128E+03 5.49745E+03 2.85419E-09 4.69697E-10
 -1       868-6.02860E+04-3.95173E+02 1.91392E+03-4.14384E+02-1.88754E-09-8.13122E-09
 -1       869-5.83927E+04 3.28904E+03 5.09742E+03 5.45908E+03 2.92118E-09-1.51979E-08
 -1       870-6.14987E+04-2.81294E+03 7.39731E+03-3.90584E+02-3.35842E-09-2.03877E-08
 -1       871-5.36577E+03-1.95828E+04-1.86861E+04 1.24871E+05-3.42880E-09-6.88578E-09
 -1       872-1.99788E+03-2.39030E+04-7.80471E+03 1.61911E+05-8.56289E-09 3.97677E-09
 -1       873 3.15034E+02-2.18247E+04 6.15087E+02 1.24597E+05-4.18686E-09 1.35797E-08
 -1       874 3.10097E+03-1.94661E+04 9.49197E+03 1.61942E+05-8.55198E-09 2.00612E-09
 -1       875 6.55614E+03-2.40861E+04 2.13748E+04 1.24827E+05-3.37968E-09 3.13776E-10
 -1       876 2.83801E+05 4.79586E+04 1.46391E+04 1.14041E+05 6.06542E-09-1.11577E-08
 -1       877 2.84756E+05 5.10547E+04 7.81782E+03 1.18252E+05 1.42447E-08-2.68884E-08
 -1       878 2.85170E+05 4.63373E+04 3.27529E+03 1.15240E+05-5.29781E-10-8.15385E-09
 -1       879 2.82766E+05 4.90691E+04 1.63192E+03 1.18351E+05 2.04523E-09 8.83085E-09
 -1       880 2.85268E+05 4.63204E+04 7.60099E+02 1.15289E+05 9.73773E-09-4.78548E-09
 -1       881 2.82634E+05 4.89842E+04 4.05834E+02 1.18329E+05 1.22845E-08-1.03199E-08
 -1       882 2.85277E+05 4.63332E+04 2.59510E+02 1.15291E+05 9.52014E-09-5.33457E-09
 -1       883 2.82624E+05 4.89799E+04 2.78790E+02 1.18322E+05-2.58069E-10-3.71685E-09
 -1       884 2.85271E+05 4.63304E+04 4.43314E+02 1.15291E+05-3.76565E-09 3.18209E-10
 -1       885 2.82659E+05 4.89860E+04 8.91197E+02 1.18332E+05-2.63762E-09-8.69568E-09
 -1       886 2.85236E+05 4.63044E+04 1.79612E+03 1.15288E+05-1.40419E-09-1.69186E-08
 -1       887 2.82975E+05 4.91930E+04 3.92336E+03 1.18378E+05 7.32302E-09 5.89648E-09
 -1       888 2.84988E+05 4.63481E+04 7.90568E+03 1.15162E+05 1.48827E-09 8.31187E-09
 -1       889 2.87682E+05 5.40872E+04 1.88853E+04 1.18233E+05-1.21257E-09-1.45155E-09
 -1       890 2.81763E+05 5.01797E+04 3.53716E+04 1.12152E+05-4.81987E-09-3.93629E-09
 -1       891-1.00188E+02-1.57635E+05-1.92807E+03 2.66743E+04-1.17006E-09-2.31057E-09
 -1       892-1.90551E+02-1.58137E+05-2.07241E+03 4.04815E+04 1.32172E-09 1.38805E-08
 -1       893 2.83178E+01-1.57697E+05-2.93596E+03 2.66812E+04-1.14778E-09-1.16111E-08
 -1       894-1.48181E+03-1.59247E+05-6.07756E+03 4.03325E+04 1.59798E-09-1.17780E-08
 -1       895-1.17393E+03-1.56430E+05-1.07030E+04 2.68243E+04 3.37423E-10 4.86034E-09
 -1       956-3.63758E+05-5.23286E+03-1.29642E+04 2.90965E+04 1.08957E-09-1.15078E-08
 -1       957-3.66305E+05-1.83090E+03-6.65444E+03 3.49802E+04-1.23587E-08-1.55692E-08
 -1       958-3.64921E+05-2.14371E+02-2.99861E+03 2.89353E+04-1.05938E-08-3.72552E-09
 -1       959-3.65113E+05-1.10560E+02-1.53121E+03 3.51660E+04 1.58616E-09 4.53815E-09
 -1       960-3.65033E+05-2.63643E+01-7.46671E+02 2.89189E+04 3.41242E-09-6.40421E-09
 -1       961-3.65035E+05-4.09564E+01-3.95933E+02 3.51853E+04 9.47648E-09-2.75220E-08
 -1       962-3.65059E+05-2.80829E+01-2.26704E+02 2.89162E+04 8.56744E-09 8.74934E-10
 -1       963-3.65034E+05-3.72332E+01-1.82040E+02 3.51888E+04 1.30556E-08 3.50315E-09
 -1       964-3.65064E+05-2.49259E+01-2.21386E+02 2.89154E+04 4.66972E-09-6.63363E-09
 -1       965-3.65046E+05-3.42213E+01-3.82916E+02 3.51882E+04-5.95719E-09 4.40150E-09
 -1       966-3.65049E+05-1.69828E+01-7.19425E+02 2.89168E+04 2.15255E-09 3.42584E-09
 -1       967-3.65134E+05-9.48634E+01-1.47555E+03 3.51748E+04-3.63798E-10 2.11116E-09
 -1       968-3.64950E+05-1.92097E+02-2.88848E+03 2.89287E+04 2.17960E-09-1.29679E-08
 -1       969-3.66293E+05-1.74732E+03-6.41248E+03 3.50359E+04 2.93539E-09-1.65828E-08
 -1       970-3.63837E+05-5.02435E+03-1.24917E+04 2.90494E+04-2.77396E-11 8.86757E-09
 -1       971-3.34186E+05-1.67801E+03-9.08915E+03 1.49817E+04 9.87711E-10-5.80442E-09
 -1       972-3.36378E+05-1.23005E+03-4.94987E+03 2.07560E+04 4.68617E-09 7.56336E-09
 -1       973-3.35199E+05-5.22619E+01-2.21702E+03 1.48624E+04 2.07547E-09 1.29603E-10
 -1       974-3.35334E+05-6.76824E+01-1.14915E+03 2.08900E+04 3.81442E-09-4.53701E-09
 -1       975-3.35279E+05-8.60570E+00-5.74673E+02 1.48505E+04-1.34651E-09 1.75180E-09
 -1       976-3.35274E+05-1.91460E+01-3.32012E+02 2.09052E+04-5.54564E-10-6.58758E-09
 -1       977-3.35295E+05-7.99431E+00-2.41801E+02 1.48472E+04-9.43601E-10-4.03384E-09
 -1       978-3.35279E+05-1.31604E+01-2.84094E+02 2.09099E+04-1.50590E-09 9.70272E-09
 -1       979-3.35294E+05 1.61742E-01-4.57424E+02 1.48459E+04 1.89749E-09 3.00315E-09
 -1       980-3.35313E+05-1.02132E+01-8.83839E+02 2.09108E+04-1.06816E-09-6.15842E-10
 -1       981-3.35266E+05 2.22463E+01-1.71211E+03 1.48464E+04-1.33559E-09 1.27898E-11
 -1       982-3.35548E+05-1.36701E+02-3.53907E+03 2.09043E+04 1.78522E-09-7.46769E-09
 -1       983-3.35051E+05-8.73561E+01-6.87652E+03 1.48523E+04-4.46244E-09 7.69433E-09
 -1       984-3.38856E+05-3.72806E+03-1.53997E+04 2.08206E+04-1.00972E-08 2.90228E-08
 -1       985-3.31937E+05-5.11915E+03-2.82785E+04 1.49246E+04-5.83213E-09 1.73368E-08
 -3
    1PSTEP                        25          13           1          
  100CL  113 6.53320E-01         409                     0   13           1
 -4  DISP        4    1
 -5  D1          1    2    1    0
 -5  D2          1    2    2    0
 -5  D3          1    2    3    0
 -5  ALL         1    2    0    0    1ALL
 -1         1 2.36748E-03 0.00000E+00 0.00000E+00
 -1         2 1.58041E-03-3.46082E-27 2.64698E-23
 -1         3 3.28056E-04-1.64969E-27 1.32349E-23
 -1         5 1.71757E-04 8.67469E-28-2.27475E-24
 -1         8 2.35231E-03-4.75646E-07 0.00000E+00
 -1         9 2.32316E-03-6.15018E-05 0.00000E+00
 -1        10 2.97557E-04-3.50697E-06 0.00000E+00
 -1        12 1.73377E-04 7.89203E-07 1.03398E-24
 -1        15 2.33413E-03-5.16054E-07 2.06795E-25
 -1        16 2.36177E-03-6.28661E-05 0.00000E+00
 -1        17 2.02988E-04-7.91225E-06 0.00000E+00
 -1        18 1.76660E-04 3.14986E-05 0.00000E+00
 -1        19 1.78239E-04 1.57265E-06 0.00000E+00
 -1        20 1.78381E-04-7.44653E-06 0.00000E+00
 -1        21 1.77517E-04-2.03006E-05 0.00000E+00
 -1        24 3.00538E-05-1.19506E-05 0.00000E+00
 -1        25 1.86365E-04 3.17154E-05 0.00000E+00
 -1        26 1.87071E-04 2.18183E-06 0.00000E+00
 -1        27 1.84919E-04-1.09367E-05 0.00000E+00
 -1        28 1.84594E-04-2.09124E-05 0.00000E+00
 -1        32 0.00000E+00 0.00000E+00 0.00000E+00
 -1        33 1.94889E-04 2.92173E-06 0.00000E+00
 -1        34 1.92812E-04-1.09897E-05 0.00000E+00
 -1        35 1.90914E-04-2.12482E-05 0.00000E+00
 -1        51 2.36650E-03-9.32999E-08-6.61744E-24
 -1        52 2.36468E-03-1.70406E-07 0.00000E+00
 -1        53 2.36218E-03-2.44961E-07 0.00000E+00
 -1        54 2.35917E-03-3.19157E-07 0.00000E+00
 -1        55 2.35582E-03-3.94641E-07 3.10193E-24
 -1        56 2.36297E-03 1.38963E-06 0.00000E+00
 -1        57 2.35642E-03 7.74303E-06 5.29396E-23
 -1        58 2.34849E-03 1.77038E-05 0.00000E+00
 -1        59 2.33980E-03 2.95463E-05 0.00000E+00
 -1        60 2.33116E-03 4.12537E-05 0.00000E+00
 -1        61 2.32335E-03 5.08104E-05 5.29396E-23
 -1        62 2.31701E-03 5.65610E-05 0.00000E+00
 -1        63 2.31262E-03 5.71641E-05 0.00000E+00
 -1        64 2.31033E-03 5.21427E-05 0.00000E+00
 -1        65 2.31012E-03 4.14924E-05-5.29396E-23
 -1        66 2.31160E-03 2.61622E-05 0.00000E+00
 -1        67 2.31428E-03 7.50079E-06 5.29396E-23
 -1        68 2.31747E-03-1.25761E-05 0.00000E+00
 -1        69 2.32045E-03-3.20235E-05 0.00000E+00
 -1        70 2.32252E-03-4.89172E-05 0.00000E+00
 -1        86 1.62641E-03-2.50594E-06 2.64698E-23
 -1        87 1.76157E-03-1.28170E-05 0.00000E+00
 -1        88 1.94358E-03-2.99494E-05 2.64698E-23
 -1        89 2.12801E-03-4.75221E-05 1.32349E-23
 -1        90 2.26918E-03-5.86038E-05 2.64698E-23
 -1       121 3.27199E-04-5.68314E-07 1.32349E-23
 -1       122 3.24633E-04-1.13945E-06 6.61744E-24
 -1       123 3.20365E-04-1.71616E-06 0.00000E+00
 -1       124 3.14414E-04-2.30125E-06 6.61744E-24
 -1       125 3.06801E-04-2.89709E-06 0.00000E+00
 -1       191 1.71802E-04 1.31584E-07-2.06795E-25
 -1       192 1.71937E-04 2.63159E-07 7.23783E-25
 -1       193 1.72162E-04 3.94718E-07 6.20385E-25
 -1       194 1.72477E-04 5.26252E-07-1.55096E-24
 -1       195 1.72882E-04 6.57751E-07-2.68834E-24
 -1       251 2.35163E-03 1.51786E-05 1.32349E-23
 -1       252 2.35027E-03 5.56930E-05 0.00000E+00
 -1       253 2.34813E-03 1.13399E-04-1.32349E-23
 -1       254 2.34543E-03 1.80238E-04 0.00000E+00
 -1       255 2.34282E-03 2.45714E-04-1.32349E-23
 -1       256 2.34088E-03 2.99360E-04-6.61744E-24
 -1       257 2.33973E-03 3.33862E-04 0.00000E+00
 -1       258 2.33912E-03 3.42335E-04-6.61744E-24
 -1       259 2.33839E-03 3.24597E-04 0.00000E+00
 -1       260 2.33691E-03 2.81084E-04-6.61744E-24
 -1       261 2.33449E-03 2.18867E-04-1.32349E-23
 -1       262 2.33135E-03 1.45437E-04 0.00000E+00
 -1       263 2.32815E-03 7.12751E-05-1.32349E-23
 -1       264 2.32561E-03 6.87613E-06 6.61744E-24
 -1       265 2.32398E-03-3.98806E-05-2.64698E-23
 -1       266 2.34928E-03-4.89353E-07-3.30872E-24
 -1       267 2.34625E-03-4.95238E-07-8.27181E-25
 -1       268 2.34322E-03-5.01618E-07 8.27181E-25
 -1       269 2.34019E-03-5.06531E-07 0.00000E+00
 -1       270 2.33716E-03-5.11409E-07 2.06795E-25
 -1       271 2.35056E-03 1.96956E-06 0.00000E+00
 -1       272 2.34905E-03 3.72898E-06 0.00000E+00
 -1       273 2.34781E-03 4.74953E-06-2.64698E-23
 -1       274 2.34687E-03 4.97449E-06 0.00000E+00
 -1       275 2.34624E-03 4.35783E-06 2.64698E-23
 -1       276 2.34594E-03 2.86009E-06 0.00000E+00
 -1       277 2.34599E-03 4.50819E-07 0.00000E+00
 -1       278 2.34638E-03-2.89199E-06 1.32349E-23
 -1       279 2.34712E-03-7.18115E-06 2.64698E-23
 -1       280 2.34821E-03-1.24205E-05 0.00000E+00
 -1       281 2.34965E-03-1.86043E-05 0.00000E+00
 -1       282 2.35143E-03-2.57183E-05 0.00000E+00
 -1       283 2.35355E-03-3.37386E-05 2.64698E-23
 -1       284 2.35599E-03-4.26323E-05 0.00000E+00
 -1       285 2.35873E-03-5.23593E-05 0.00000E+00
 -1       301 2.33021E-03-6.17553E-05-6.61744E-24
 -1       302 2.33595E-03-6.19727E-05-6.61744E-24
 -1       303 2.34118E-03-6.21846E-05 0.00000E+00
 -1       304 2.34670E-03-6.23969E-05 0.00000E+00
 -1       305 2.35330E-03-6.26173E-05 2.64698E-23
 -1       306 2.35841E-03-2.01909E-04-1.05879E-22
 -1       307 2.42295E-03-5.87376E-04 5.29396E-23
 -1       308 2.47620E-03-1.15605E-03 0.00000E+00
 -1       309 2.50995E-03-1.82000E-03 0.00000E+00
 -1       310 2.54842E-03-2.46198E-03-1.05879E-22
 -1       311 2.60950E-03-2.96673E-03 5.29396E-23
 -1       312 2.66886E-03-3.25755E-03 0.00000E+00
 -1       313 2.67415E-03-3.29375E-03 5.29396E-23
 -1       314 2.56035E-03-3.08303E-03-1.05879E-22
 -1       315 2.28849E-03-2.67955E-03-5.29396E-23
 -1       316 1.87255E-03-2.15428E-03 0.00000E+00
 -1       317 1.36896E-03-1.57458E-03-5.29396E-23
 -1       318 8.79481E-04-1.00334E-03 0.00000E+00
 -1       319 5.01701E-04-5.05974E-04 5.29396E-23
 -1       320 2.77208E-04-1.51686E-04 0.00000E+00
 -1       336 2.86503E-04-4.17944E-06 1.32349E-23
 -1       337 2.73475E-04-4.87531E-06 6.61744E-24
 -1       338 2.58532E-04-5.59642E-06 0.00000E+00
 -1       339 2.41748E-04-6.34334E-06 0.00000E+00
 -1       340 2.23204E-04-7.12022E-06 0.00000E+00
 -1       406 1.73962E-04 9.20593E-07-2.48154E-24
 -1       407 1.74638E-04 1.05189E-06-2.06795E-25
 -1       408 1.75403E-04 1.18304E-06-8.27181E-25
 -1       409 1.76259E-04 1.31388E-06-3.10193E-25
 -1       410 1.77205E-04 1.44415E-06-8.27181E-25
 -1       521 2.39776E-03-2.12189E-04-1.05879E-22
 -1       522 2.46112E-03-6.16798E-04-5.29396E-23
 -1       523 2.50916E-03-1.21180E-03 1.05879E-22
 -1       524 2.53510E-03-1.90305E-03 0.00000E+00
 -1       525 2.56669E-03-2.57058E-03 0.00000E+00
 -1       526 2.62459E-03-3.09665E-03-5.29396E-23
 -1       527 2.68360E-03-3.39847E-03 0.00000E+00
 -1       528 2.68729E-03-3.43429E-03 0.00000E+00
 -1       529 2.56387E-03-3.21136E-03 2.11758E-22
 -1       530 2.27199E-03-2.79054E-03 0.00000E+00
 -1       531 1.82599E-03-2.24620E-03 1.05879E-22
 -1       532 1.28770E-03-1.64864E-03 0.00000E+00
 -1       533 7.63746E-04-1.05903E-03-1.05879E-22
 -1       534 3.56479E-04-5.41234E-04 0.00000E+00
 -1       535 1.12963E-04-1.68368E-04-1.05879E-22
 -1       536 2.02288E-04 2.53977E-05-6.61744E-24
 -1       537 2.00525E-04 8.31548E-05 3.30872E-24
 -1       538 1.97804E-04 1.56478E-04 0.00000E+00
 -1       539 1.94596E-04 2.36406E-04 0.00000E+00
 -1       540 1.91708E-04 3.11938E-04 0.00000E+00
 -1       541 1.89827E-04 3.72096E-04 1.65436E-24
 -1       542 1.88953E-04 4.10389E-04 3.30872E-24
 -1       543 1.88737E-04 4.20465E-04-1.65436E-24
 -1       544 1.88428E-04 4.03079E-04 0.00000E+00
 -1       545 1.87338E-04 3.59191E-04 0.00000E+00
 -1       546 1.85318E-04 2.96613E-04 0.00000E+00
 -1       547 1.82594E-04 2.23269E-04 1.65436E-24
 -1       548 1.79896E-04 1.50321E-04 0.00000E+00
 -1       549 1.77948E-04 8.89305E-05 1.65436E-24
 -1       550 1.76932E-04 4.67965E-05-1.65436E-24
 -1       551 1.78930E-04-8.46125E-06 0.00000E+00
 -1       552 1.51718E-04-9.08427E-06 0.00000E+00
 -1       553 1.22280E-04-9.76479E-06 3.30872E-24
 -1       554 9.15611E-05-1.04831E-05 0.00000E+00
 -1       555 6.05057E-05-1.12133E-05 0.00000E+00
 -1       556 1.95725E-04 1.06773E-05 0.00000E+00
 -1       557 1.89867E-04 2.57298E-05 0.00000E+00
 -1       558 1.85282E-04 3.75227E-05 0.00000E+00
 -1       559 1.81845E-04 4.63550E-05 0.00000E+00
 -1       560 1.79429E-04 5.25263E-05 0.00000E+00
 -1       561 1.77914E-04 5.63385E-05 0.00000E+00
 -1       562 1.77177E-04 5.80948E-05 0.00000E+00
 -1       563 1.77100E-04 5.80989E-05 0.00000E+00
 -1       564 1.77566E-04 5.66557E-05 0.00000E+00
 -1       565 1.78459E-04 5.40704E-05 0.00000E+00
 -1       566 1.79663E-04 5.06490E-05 0.00000E+00
 -1       567 1.81065E-04 4.66977E-05 0.00000E+00
 -1       568 1.82549E-04 4.25228E-05 0.00000E+00
 -1       569 1.84002E-04 3.84306E-05 0.00000E+00
 -1       570 1.85312E-04 3.47276E-05 0.00000E+00
 -1       571 1.76756E-04 2.95610E-05 8.27181E-25
 -1       572 1.76854E-04 2.75579E-05 8.27181E-25
 -1       573 1.76952E-04 2.55046E-05-3.30872E-24
 -1       574 1.77051E-04 2.34171E-05-8.27181E-25
 -1       575 1.77149E-04 2.13116E-05 0.00000E+00
 -1       576 1.77248E-04 1.92041E-05 1.65436E-24
 -1       577 1.77347E-04 1.71108E-05 3.30872E-24
 -1       578 1.77445E-04 1.50478E-05 0.00000E+00
 -1       579 1.77544E-04 1.30314E-05 6.61744E-24
 -1       580 1.77643E-04 1.10777E-05 0.00000E+00
 -1       581 1.77742E-04 9.20279E-06 6.61744E-24
 -1       582 1.77841E-04 7.42292E-06-3.30872E-24
 -1       583 1.77941E-04 5.75419E-06 0.00000E+00
 -1       584 1.78040E-04 4.21257E-06 0.00000E+00
 -1       585 1.78140E-04 2.81389E-06 0.00000E+00
 -1       586 1.78235E-04 3.15368E-05-1.65436E-24
 -1       587 1.79770E-04 3.15744E-05 0.00000E+00
 -1       588 1.81308E-04 3.16118E-05 0.00000E+00
 -1       589 1.82892E-04 3.16484E-05 0.00000E+00
 -1       590 1.84564E-04 3.16838E-05 0.00000E+00
 -1       591 1.77321E-04 2.96503E-05-2.06795E-25
 -1       592 1.77986E-04 2.77804E-05 0.00000E+00
 -1       593 1.78656E-04 2.58948E-05 0.00000E+00
 -1       594 1.79330E-04 2.39984E-05-4.13590E-25
 -1       595 1.80006E-04 2.20961E-05 8.27181E-25
 -1       596 1.80682E-04 2.01928E-05 4.13590E-25
 -1       597 1.81357E-04 1.82935E-05 8.27181E-25
 -1       598 1.82028E-04 1.64030E-05 0.00000E+00
 -1       599 1.82695E-04 1.45261E-05 0.00000E+00
 -1       600 1.83354E-04 1.26677E-05-4.13590E-25
 -1       601 1.84005E-04 1.08328E-05 8.27181E-25
 -1       602 1.84645E-04 9.02622E-06 4.13590E-25
 -1       603 1.85273E-04 7.25278E-06-4.13590E-25
 -1       604 1.85888E-04 5.51751E-06-1.80946E-25
 -1       605 1.86486E-04 3.82519E-06 0.00000E+00
 -1       606 1.78253E-04 5.59392E-07 0.00000E+00
 -1       607 1.78263E-04-3.67477E-07 0.00000E+00
 -1       608 1.78272E-04-1.21303E-06 0.00000E+00
 -1       609 1.78280E-04-1.98298E-06 0.00000E+00
 -1       610 1.78289E-04-2.68310E-06 0.00000E+00
 -1       611 1.78297E-04-3.31923E-06 0.00000E+00
 -1       612 1.78305E-04-3.89719E-06 0.00000E+00
 -1       613 1.78314E-04-4.42285E-06 0.00000E+00
 -1       614 1.78322E-04-4.90204E-06 0.00000E+00
 -1       615 1.78331E-04-5.34061E-06 8.27181E-25
 -1       616 1.78339E-04-5.74441E-06 0.00000E+00
 -1       617 1.78348E-04-6.11929E-06 0.00000E+00
 -1       618 1.78356E-04-6.47110E-06-8.27181E-25
 -1       619 1.78365E-04-6.80568E-06 0.00000E+00
 -1       620 1.78373E-04-7.12887E-06 0.00000E+00
 -1       621 1.79440E-04 1.67468E-06-1.65436E-24
 -1       622 1.80792E-04 1.77698E-06-8.27181E-25
 -1       623 1.82262E-04 1.87910E-06-1.65436E-24
 -1       624 1.83819E-04 1.98091E-06 8.27181E-25
 -1       625 1.85433E-04 2.08245E-06 1.65436E-24
 -1       626 1.78729E-04 5.94742E-07-3.30872E-24
 -1       627 1.79196E-04-3.19180E-07 3.30872E-24
 -1       628 1.79642E-04-1.17693E-06 0.00000E+00
 -1       629 1.80071E-04-1.98666E-06-4.96308E-24
 -1       630 1.80484E-04-2.75654E-06 3.30872E-24
 -1       631 1.80886E-04-3.49474E-06 0.00000E+00
 -1       632 1.81278E-04-4.20946E-06 0.00000E+00
 -1       633 1.81665E-04-4.90889E-06 0.00000E+00
 -1       634 1.82050E-04-5.60121E-06-3.30872E-24
 -1       635 1.82435E-04-6.29460E-06-1.65436E-24
 -1       636 1.82823E-04-6.99727E-06 3.30872E-24
 -1       637 1.83218E-04-7.71741E-06 0.00000E+00
 -1       638 1.83622E-04-8.46319E-06 0.00000E+00
 -1       639 1.84038E-04-9.24284E-06-1.65436E-24
 -1       640 1.84470E-04-1.00646E-05 0.00000E+00
 -1       656 1.78930E-04-8.01385E-06 0.00000E+00
 -1       657 1.79894E-04-8.60419E-06 0.00000E+00
 -1       658 1.81136E-04-9.19313E-06 0.00000E+00
 -1       659 1.82509E-04-9.78172E-06 0.00000E+00
 -1       660 1.83830E-04-1.03721E-05 6.61744E-24
 -1       661 1.78587E-04-7.80802E-06-8.27181E-25
 -1       662 1.78829E-04-8.25896E-06 0.00000E+00
 -1       663 1.79103E-04-8.79433E-06 0.00000E+00
 -1       664 1.79407E-04-9.40787E-06 0.00000E+00
 -1       665 1.79738E-04-1.00940E-05 1.65436E-24
 -1       666 1.80094E-04-1.08469E-05 0.00000E+00
 -1       667 1.80473E-04-1.16613E-05 1.65436E-24
 -1       668 1.80873E-04-1.25318E-05 8.27181E-25
 -1       669 1.81292E-04-1.34531E-05 1.65436E-24
 -1       670 1.81728E-04-1.44201E-05 8.27181E-25
 -1       671 1.82180E-04-1.54280E-05 1.65436E-24
 -1       672 1.82644E-04-1.64717E-05 8.27181E-25
 -1       673 1.83120E-04-1.75465E-05-1.65436E-24
 -1       674 1.83605E-04-1.86479E-05 4.13590E-25
 -1       675 1.84099E-04-1.97708E-05 4.13590E-25
 -1       676 1.78701E-04-2.04031E-05-3.30872E-24
 -1       677 1.79884E-04-2.05057E-05 0.00000E+00
 -1       678 1.81065E-04-2.06081E-05-3.30872E-24
 -1       679 1.82244E-04-2.07103E-05 0.00000E+00
 -1       680 1.83421E-04-2.08125E-05 1.65436E-24
 -1       771 1.86454E-05 1.34930E-05 0.00000E+00
 -1       772 9.03666E-06 3.43916E-05 0.00000E+00
 -1       773 1.14138E-06 5.09656E-05 0.00000E+00
 -1       774-5.15794E-06 6.34618E-05 0.00000E+00
 -1       775-9.97642E-06 7.21365E-05 0.00000E+00
 -1       776-1.34339E-05 7.72619E-05 2.64698E-23
 -1       777-1.56499E-05 7.91194E-05 0.00000E+00
 -1       778-1.67468E-05 7.80034E-05 0.00000E+00
 -1       779-1.68461E-05 7.42163E-05 5.29396E-23
 -1       780-1.60716E-05 6.80708E-05-5.29396E-23
 -1       781-1.45460E-05 5.98864E-05 0.00000E+00
 -1       782-1.23937E-05 4.99905E-05 2.64698E-23
 -1       783-9.73837E-06 3.87150E-05 5.29396E-23
 -1       784-6.70474E-06 2.63974E-05-2.64698E-23
 -1       785-3.41676E-06 1.33782E-05 0.00000E+00
 -1       786 1.86405E-04 2.96475E-05-5.16988E-26
 -1       787 1.86448E-04 2.76284E-05 0.00000E+00
 -1       788 1.86491E-04 2.56498E-05 0.00000E+00
 -1       789 1.86536E-04 2.37038E-05-8.27181E-25
 -1       790 1.86580E-04 2.17857E-05 0.00000E+00
 -1       791 1.86624E-04 1.98909E-05-8.27181E-25
 -1       792 1.86668E-04 1.80173E-05 0.00000E+00
 -1       793 1.86713E-04 1.61627E-05 0.00000E+00
 -1       794 1.86757E-04 1.43272E-05-1.65436E-24
 -1       795 1.86802E-04 1.25106E-05 0.00000E+00
 -1       796 1.86847E-04 1.07149E-05-1.65436E-24
 -1       797 1.86891E-04 8.94208E-06-8.27181E-25
 -1       798 1.86936E-04 7.19657E-06 0.00000E+00
 -1       799 1.86981E-04 5.48282E-06 0.00000E+00
 -1       800 1.87025E-04 3.80861E-06 0.00000E+00
 -1       801 1.43059E-04 2.84615E-05 0.00000E+00
 -1       802 1.20156E-05 1.78447E-05-2.64698E-23
 -1       803-1.00333E-04 9.06998E-06-5.29396E-23
 -1       804-8.96608E-05 6.28924E-06 0.00000E+00
 -1       805-2.96985E-05 2.51641E-06 0.00000E+00
 -1       806 1.87028E-04 2.95801E-05-1.65436E-24
 -1       807 1.87677E-04 2.74702E-05 1.65436E-24
 -1       808 1.88314E-04 2.53909E-05 0.00000E+00
 -1       809 1.88938E-04 2.33461E-05 1.65436E-24
 -1       810 1.89547E-04 2.13398E-05 3.30872E-24
 -1       811 1.90140E-04 1.93760E-05 0.00000E+00
 -1       812 1.90716E-04 1.74585E-05 0.00000E+00
 -1       813 1.91273E-04 1.55912E-05 1.65436E-24
 -1       814 1.91811E-04 1.37780E-05-3.30872E-24
 -1       815 1.92326E-04 1.20227E-05-1.65436E-24
 -1       816 1.92819E-04 1.03291E-05-1.65436E-24
 -1       817 1.93287E-04 8.70116E-06 8.27181E-25
 -1       818 1.93729E-04 7.14263E-06 0.00000E+00
 -1       819 1.94144E-04 5.65737E-06 8.27181E-25
 -1       820 1.94531E-04 4.24916E-06 3.30872E-24
 -1       821 1.86944E-04 1.26844E-07 0.00000E+00
 -1       822 1.86807E-04-2.82741E-06 1.65436E-24
 -1       823 1.86669E-04-6.33048E-06 0.00000E+00
 -1       824 1.86529E-04-1.00285E-05-1.65436E-24
 -1       825 1.86390E-04-1.35157E-05 3.30872E-24
 -1       826 1.86252E-04-1.63873E-05 0.00000E+00
 -1       827 1.86117E-04-1.84044E-05 3.30872E-24
 -1       828 1.85982E-04-1.93332E-05 0.00000E+00
 -1       829 1.85849E-04-1.92323E-05 3.30872E-24
 -1       830 1.85714E-04-1.81668E-05 0.00000E+00
 -1       831 1.85579E-04-1.64610E-05 0.00000E+00
 -1       832 1.85444E-04-1.44432E-05 1.65436E-24
 -1       833 1.85309E-04-1.25257E-05 3.30872E-24
 -1       834 1.85176E-04-1.11199E-05 0.00000E+00
 -1       835 1.85043E-04-1.05004E-05 0.00000E+00
 -1       836 1.88582E-04 2.30457E-06-3.30872E-24
 -1       837 1.89968E-04 2.43037E-06 0.00000E+00
 -1       838 1.91259E-04 2.55609E-06 0.00000E+00
 -1       839 1.92488E-04 2.68111E-06 8.27181E-25
 -1       840 1.93687E-04 2.80597E-06-8.27181E-25
 -1       856 1.84902E-04-1.18308E-05-8.27181E-25
 -1       857 1.84882E-04-1.25911E-05 0.00000E+00
 -1       858 1.84862E-04-1.32383E-05 4.13590E-25
 -1       859 1.84842E-04-1.37935E-05 0.00000E+00
 -1       860 1.84822E-04-1.42774E-05-4.13590E-25
 -1       861 1.84801E-04-1.47111E-05-2.06795E-25
 -1       862 1.84781E-04-1.51157E-05 0.00000E+00
 -1       863 1.84761E-04-1.55121E-05 0.00000E+00
 -1       864 1.84740E-04-1.59214E-05 0.00000E+00
 -1       865 1.84720E-04-1.63648E-05 0.00000E+00
 -1       866 1.84699E-04-1.68632E-05 0.00000E+00
 -1       867 1.84679E-04-1.74376E-05 0.00000E+00
 -1       868 1.84658E-04-1.81089E-05 0.00000E+00
 -1       869 1.84637E-04-1.88980E-05 0.00000E+00
 -1       870 1.84616E-04-1.98256E-05 0.00000E+00
 -1       871 1.86095E-04-1.09412E-05-8.27181E-25
 -1       872 1.87416E-04-1.09490E-05 0.00000E+00
 -1       873 1.88814E-04-1.09575E-05 0.00000E+00
 -1       874 1.90225E-04-1.09667E-05 5.16988E-26
 -1       875 1.91579E-04-1.09765E-05 2.06795E-25
 -1       876 1.85379E-04-1.18165E-05-3.30872E-24
 -1       877 1.85817E-04-1.26305E-05 0.00000E+00
 -1       878 1.86234E-04-1.33865E-05 3.30872E-24
 -1       879 1.86633E-04-1.40918E-05 0.00000E+00
 -1       880 1.87015E-04-1.47537E-05-3.30872E-24
 -1       881 1.87384E-04-1.53795E-05-1.65436E-24
 -1       882 1.87742E-04-1.59765E-05 0.00000E+00
 -1       883 1.88092E-04-1.65518E-05 0.00000E+00
 -1       884 1.88436E-04-1.71128E-05 3.30872E-24
 -1       885 1.88778E-04-1.76666E-05 1.65436E-24
 -1       886 1.89120E-04-1.82205E-05 3.30872E-24
 -1       887 1.89464E-04-1.87818E-05 0.00000E+00
 -1       888 1.89814E-04-1.93577E-05 0.00000E+00
 -1       889 1.90171E-04-1.99556E-05-1.65436E-24
 -1       890 1.90539E-04-2.05828E-05 0.00000E+00
 -1       891 1.85788E-04-2.09688E-05 0.00000E+00
 -1       892 1.86959E-04-2.10254E-05 0.00000E+00
 -1       893 1.88081E-04-2.10818E-05-1.65436E-24
 -1       894 1.89131E-04-2.11381E-05-4.13590E-25
 -1       895 1.90084E-04-2.11940E-05 0.00000E+00
 -1       956 1.94761E-04 1.76525E-06 0.00000E+00
 -1       957 1.94631E-04 6.98301E-07 8.27181E-25
 -1       958 1.94501E-04-2.89579E-07 0.00000E+00
 -1       959 1.94371E-04-1.20943E-06 0.00000E+00
 -1       960 1.94241E-04-2.07234E-06 0.00000E+00
 -1       961 1.94111E-04-2.88942E-06 0.00000E+00
 -1       962 1.93980E-04-3.67180E-06 0.00000E+00
 -1       963 1.93850E-04-4.43064E-06-1.65436E-24
 -1       964 1.93720E-04-5.17706E-06-3.30872E-24
 -1       965 1.93590E-04-5.92222E-06 1.65436E-24
 -1       966 1.93460E-04-6.67726E-06 0.00000E+00
 -1       967 1.93329E-04-7.45333E-06 0.00000E+00
 -1       968 1.93199E-04-8.26155E-06 3.30872E-24
 -1       969 1.93069E-04-9.11304E-06 1.65436E-24
 -1       970 1.92940E-04-1.00189E-05 0.00000E+00
 -1       971 1.92694E-04-1.19589E-05-3.30872E-24
 -1       972 1.92575E-04-1.28345E-05 1.65436E-24
 -1       973 1.92456E-04-1.36269E-05-3.30872E-24
 -1       974 1.92337E-04-1.43469E-05 0.00000E+00
 -1       975 1.92218E-04-1.50050E-05-3.30872E-24
 -1       976 1.92098E-04-1.56121E-05 0.00000E+00
 -1       977 1.91979E-04-1.61789E-05-3.30872E-24
 -1       978 1.91860E-04-1.67163E-05 0.00000E+00
 -1       979 1.91741E-04-1.72350E-05 0.00000E+00
 -1       980 1.91621E-04-1.77458E-05 0.00000E+00
 -1       981 1.91502E-04-1.82594E-05-3.30872E-24
 -1       982 1.91383E-04-1.87868E-05 0.00000E+00
 -1       983 1.91264E-04-1.93386E-05 0.00000E+00
 -1       984 1.91146E-04-1.99256E-05-1.65436E-24
 -1       985 1.91028E-04-2.05587E-05-3.30872E-24
 -3
    1PSTEP                        26          13           1          
  100CL  113 6.53320E-01         409                     0   13           1
 -4  STRESS      6    1
 -5  SXX         1    4    1    1
 -5  SYY         1    4    2    2
 -5  SZZ         1    4    3    3
 -5  SXY         1    4    1    2
 -5  SYZ         1    4    2    3
 -5  SZX         1    4    3    1
 -1         1-4.75201E+06-1.69951E+06-1.03865E+06-1.61335E+06 1.99361E-09 1.60973E-07
 -1         2 3.90888E+05 4.55382E+06 1.52139E+06 1.85668E+06 1.55051E-08 2.02854E-08
 -1         3-1.35324E+03-1.61481E+06 4.10224E+02-2.18592E+03-3.49043E-10-2.50147E-08
 -1         5-5.81810E+01 3.76740E+05 9.63703E+00-1.12324E+00-2.76914E-10-2.89292E-08
 -1         8-6.84772E+05-2.24257E+05-7.29738E+04-2.51087E+05-1.66438E-10 3.64780E-08
 -1         9 9.44309E+06 5.80745E+05 1.80131E+06-9.72220E+05 7.95117E-09-2.72412E-08
 -1        10-2.21750E+03-1.68277E+06-3.95592E+03-1.47760E+04-1.31731E-08-1.27253E-08
 -1        12-5.43567E+01 3.76760E+05 3.15812E+02-7.73684E+00-4.83141E-10 2.97350E-08
 -1        15 1.15528E+03 6.34885E+02 3.73440E+03 1.51395E+00-2.48448E-10 3.85639E-08
 -1        16 1.98817E+07-1.81033E+05 2.76519E+06-1.69336E+06 1.71907E-08 3.36595E-07
 -1        17 7.18857E+06 5.24469E+06 1.93860E+06 5.09410E+06 1.96509E-08 2.24798E-08
 -1        18 1.26678E+05 2.90106E+04 9.73570E+02-1.15758E+05 1.19283E-08 1.99088E-08
 -1        19 1.20401E+05 1.38665E+05-9.05721E+02 2.17203E+04 1.46429E-09 5.63159E-10
 -1        20-7.90323E+04-5.62443E+05-1.26116E+05 2.53795E+04-1.86856E-09 3.43971E-09
 -1        21-4.52782E+01-2.91706E+05-9.12120E+02 2.36798E+02 1.18449E-08-7.92196E-09
 -1        24 1.18551E+07 1.01436E+07 3.31910E+06 9.42610E+06-1.49885E-07-4.75363E-08
 -1        25 9.72115E+04 1.63425E+05 7.35887E+04-5.84408E+05-2.42471E-09 3.09938E-09
 -1        26-5.34878E+04 9.05402E+04-2.40232E+04 6.42589E+02 5.89353E-11 1.18917E-08
 -1        27-7.51391E+04-3.04146E+05-1.11371E+05 6.76592E+04 4.23491E-09-1.99543E-09
 -1        28 2.19723E+04-8.39298E+04 1.66475E+04 2.05788E+04-1.52693E-09 1.50165E-08
 -1        32-1.65350E+06-3.07747E+06-1.84123E+05 3.47495E+05-4.05926E-08-8.08700E-09
 -1        33-1.75095E+05 9.10724E+04 3.17518E+04-3.82594E+04-2.83580E-09 1.69860E-08
 -1        34-2.19636E+05-2.44496E+04 6.70484E+02 7.39903E+04-4.43928E-09 5.32054E-11
 -1        35-2.26255E+04-3.32832E+04-1.32526E+03 5.07564E+04-5.64918E-09-2.38288E-09
 -1        51 5.35764E+04-1.96862E+05 1.14938E+05-5.74281E+05 5.82077E-11 1.55203E-07
 -1        52 1.89016E+04-1.77840E+05 6.14292E+04-6.69556E+05 2.69210E-10 3.87045E-08
 -1        53 4.78829E+03-1.93347E+05 3.37759E+04-5.72194E+05 5.42059E-10-1.02722E-07
 -1        54 1.01535E+04-1.89533E+05 3.13686E+04-6.71709E+05 2.25555E-10-4.73810E-08
 -1        55 2.15797E+04-1.98306E+05 4.23829E+04-5.71929E+05 3.27418E-10 4.92582E-08
 -1        56-8.86890E+06-1.04055E+06-7.72741E+05-3.51317E+06 1.67493E-08-4.67408E-08
 -1        57-9.48782E+06-1.40339E+06-5.16848E+05-3.10894E+06-1.30931E-08-9.11168E-08
 -1        58-8.95139E+06-1.34631E+06-1.80673E+05-3.53548E+06 1.02591E-08 2.23008E-08
 -1        59-9.38482E+06-1.05214E+06-1.07101E+05-3.10229E+06 1.41486E-08-9.62791E-08
 -1        60-8.97570E+06-1.37899E+06-4.22961E+04-3.52722E+06-1.22491E-08-1.88418E-07
 -1        61-9.27852E+06-1.07849E+06-2.14375E+04-3.17494E+06 7.31143E-09 3.55903E-08
 -1        62-9.04930E+06-1.32413E+06-1.51757E+04-3.45720E+06-6.19548E-09 4.65407E-08
 -1        63-9.10225E+06-1.23038E+06-4.90194E+03-3.34363E+06-1.67929E-08-1.50801E-07
 -1        64-9.14270E+06-1.23330E+06-1.51649E+04-3.35191E+06-1.44028E-08-1.22303E-07
 -1        65-8.94895E+06-1.40006E+06-1.81837E+04-3.54239E+06-3.01006E-08-2.22024E-07
 -1        66-9.20788E+06-1.15101E+06-3.88269E+04-3.26243E+06 8.53834E-09 8.03884E-08
 -1        67-8.89542E+06-1.53115E+06-9.51394E+04-3.66207E+06-2.37942E-08 1.54456E-07
 -1        68-9.20754E+06-1.09580E+06-1.60500E+05-3.23967E+06-2.02581E-08-3.84898E-09
 -1        69-9.06346E+06-1.77451E+06-4.60997E+05-3.59325E+06-3.28146E-09 6.81976E-08
 -1        70-9.04019E+06-9.16621E+05-6.87939E+05-3.32764E+06 7.29779E-09 1.44471E-07
 -1        86-3.96372E+05-6.75491E+06-8.30196E+05-8.98142E+05-1.51173E-07-1.27773E-07
 -1        87 5.52036E+05 2.12908E+03 6.87198E+05 2.14622E+06-2.61432E-07 1.35336E-07
 -1        88-6.88751E+04-2.71687E+06 4.89401E+04-1.23173E+06-2.25406E-07-1.21602E-07
 -1        89 7.51694E+05-1.30815E+05 6.71028E+05 2.20660E+06-3.03844E-07-2.99096E-07
 -1        90-5.70483E+05-6.64646E+06-9.20491E+05-9.62648E+05-7.91406E-08 2.03967E-07
 -1       121-1.85946E+03-1.61930E+06-4.50642E+02 1.08458E+03 1.41716E-09-4.45289E-09
 -1       122-1.16705E+03-1.61486E+06 7.91449E+02-4.37289E+03-5.18206E-09 9.51877E-09
 -1       123-1.88624E+03-1.61944E+06 3.94563E+02 3.23846E+03 4.16549E-09 2.87218E-08
 -1       124 5.11243E+02-1.61435E+06 3.07370E+03-9.13149E+03-1.00094E-08-7.69069E-09
 -1       125-2.73729E+03-1.62036E+06 3.74898E+03 5.80398E+03 6.34827E-09-2.48947E-08
 -1       191-6.13763E+01 3.76761E+05 8.92717E+00 5.81242E-01-5.12311E-10-2.70156E-08
 -1       192-5.91011E+01 3.76740E+05 2.05297E+01-3.67949E+00-6.84508E-10-4.25371E-09
 -1       193-6.38036E+01 3.76760E+05 3.56586E+01 3.21888E+00-9.01926E-10 3.12502E-09
 -1       194-6.20533E+01 3.76743E+05 7.79582E+01-8.37637E+00-6.75318E-10-7.86076E-09
 -1       195-6.84636E+01 3.76758E+05 1.49959E+02 5.41334E+00-1.39822E-09 2.30611E-08
 -1       251-1.83114E+06-6.35517E+03-1.57237E+05-1.07287E+05 1.15324E-09 1.12024E-07
 -1       252-1.26799E+06 9.68172E+03 6.37141E+03 3.42154E+05 1.60799E-09 4.87707E-08
 -1       253-1.57131E+06-5.26618E+03-2.85300E+04-2.16705E+05-8.19728E-09-1.59308E-07
 -1       254-1.52405E+06 3.40521E+04 4.34011E+02 4.41984E+05 1.29752E-08-2.90276E-07
 -1       255-1.60095E+06-9.50177E+03-1.67800E+04-2.08916E+05 1.42636E-08 1.29365E-07
 -1       256-1.19287E+06 2.90910E+04 7.14541E+04 3.11754E+05 2.80488E-08 7.85442E-08
 -1       257-1.87022E+06-2.65603E+04-7.05870E+04-8.44438E+04-3.12593E-08-4.42357E-08
 -1       258-9.02760E+05 2.41419E+04 1.28015E+05-2.14983E+03-3.85226E-08-5.06320E-08
 -1       259-1.86257E+06-2.78023E+04-6.72992E+04 1.03319E+05-1.24419E-09-5.70340E-08
 -1       260-1.21144E+06 3.57497E+04 7.41933E+04-3.10062E+05-4.67326E-08-1.08448E-08
 -1       261-1.59159E+06-1.37863E+04-5.29651E+03 2.22355E+05 5.62140E-08 4.26194E-08
 -1       262-1.52575E+06 5.21489E+04 2.49610E+04-4.30637E+05-2.81597E-08 2.60547E-08
 -1       263-1.57912E+06-1.90369E+04 9.86275E+03 2.26300E+05 1.69139E-08 1.01927E-08
 -1       264-1.22274E+06 9.02202E+04 1.17388E+05-3.26700E+05 8.97662E-08 7.99082E-08
 -1       265-1.86708E+06-7.40525E+04-5.09888E+03 1.16189E+05 3.66890E-08 1.18089E-07
 -1       266-2.09144E+04-9.78005E+03 4.90688E+04-3.23926E+01 1.49157E-10 1.99545E-07
 -1       267 2.42454E+04 1.13981E+04 3.46823E+04 3.73761E+01-2.39652E-10-1.66530E-07
 -1       268-3.25127E+03-1.61433E+03 1.28912E+04-4.76229E+00-6.13909E-11 4.95402E-08
 -1       269 3.83879E+03 1.93197E+03 8.37912E+03 5.54744E+00-1.95996E-10 1.29347E-08
 -1       270-5.76203E+02-3.17435E+02 4.04472E+03-7.52823E-01-3.06954E-12 1.31247E-07
 -1       271-1.85705E+06-2.25436E+05-1.37514E+05-7.12738E+05 3.21434E-08-2.24609E-08
 -1       272-1.93432E+06-2.97755E+05-8.84116E+04-6.79637E+05-1.33086E-08-2.16878E-08
 -1       273-1.88314E+06-2.59593E+05-3.25524E+04-7.06313E+05 1.14214E-08 4.10910E-08
 -1       274-1.90265E+06-2.56766E+05-1.81370E+04-6.89766E+05-2.11003E-08-7.18192E-08
 -1       275-1.88774E+06-2.62224E+05-7.67529E+03-7.04038E+05 3.23780E-09-4.76439E-08
 -1       276-1.89571E+06-2.54986E+05-3.90412E+03-6.94041E+05 8.39646E-09-6.91070E-08
 -1       277-1.88980E+06-2.61064E+05-2.06039E+03-7.02050E+05 5.12591E-09-9.65952E-08
 -1       278-1.89179E+06-2.57867E+05-1.16635E+03-6.97978E+05 4.33056E-08-1.10358E-08
 -1       279-1.89153E+06-2.59376E+05-1.35425E+03-7.00039E+05-8.75116E-09-1.29600E-07
 -1       280-1.88850E+06-2.61503E+05-1.90983E+03-7.01965E+05 7.44221E-08-3.59039E-08
 -1       281-1.89309E+06-2.57442E+05-3.72948E+03-6.98066E+05-2.29520E-08-4.79295E-08
 -1       282-1.88686E+06-2.67174E+05-8.39108E+03-7.05666E+05-7.67614E-09 9.57110E-08
 -1       283-1.89333E+06-2.53838E+05-1.52036E+04-6.96356E+05 1.73586E-08 2.55795E-10
 -1       284-1.89695E+06-2.90813E+05-4.09515E+04-7.06481E+05-3.87790E-08-2.72004E-07
 -1       285-1.88353E+06-2.35718E+05-6.38718E+04-6.96677E+05-9.04038E-10-8.08359E-08
 -1       301 8.56994E+03-5.53904E+05 1.72295E+05-9.62989E+05-1.56433E-09-4.43251E-08
 -1       302 9.61905E+03-5.09303E+05 1.04253E+05-1.40717E+06-3.52156E-09 1.40355E-07
 -1       303-9.83742E+03-5.41730E+05 6.16165E+04-9.60503E+05 5.93718E-09-2.65482E-08
 -1       304-4.76597E+03-5.14049E+05 6.67092E+04-1.40643E+06-2.55386E-09 4.12692E-07
 -1       305-9.13412E+03-5.35967E+05 8.83156E+04-9.63393E+05 4.88762E-09 2.26093E-07
 -1       306-2.77187E+07-5.66341E+06-7.75417E+06-1.00502E+06-6.03031E-08-1.48953E-07
 -1       307 2.31301E+07 2.28620E+06 4.99815E+06-1.33433E+07-7.91901E-07 6.85104E-08
 -1       308-7.60726E+06-8.30110E+05-5.48154E+05 4.72116E+06-1.47178E-07 3.66650E-07
 -1       309-3.56575E+06 7.01633E+06 1.91740E+06-1.91098E+07 3.26603E-07 2.54280E-07
 -1       310-1.13393E+07-1.41248E+06-1.55501E+06 4.63116E+06 1.28115E-07-1.52490E-07
 -1       311 3.17936E+07-1.17613E+05 6.22097E+06-8.89118E+06 5.70290E-07 2.59752E-07
 -1       312-2.88555E+07-5.81208E+06-7.41537E+06-4.08471E+06 2.43308E-08-1.01500E-07
 -1       313 4.10101E+07 1.15838E+07 9.45219E+06 1.97220E+07 3.06463E-08-1.88302E-07
 -1       314-1.70210E+07-1.51385E+07-6.73156E+06-1.15102E+07 3.72471E-07 1.98022E-07
 -1       315-9.31464E+05 2.55927E+07 5.14500E+06 1.07320E+07-7.27057E-07-1.04686E-07
 -1       316 5.62680E+05-9.34017E+06-5.13643E+05-3.29864E+06-1.35037E-06-1.98663E-07
 -1       317-1.71076E+07 2.04345E+07 1.88274E+06-6.61105E+06 6.18784E-07-8.09898E-07
 -1       318-1.18546E+06-1.11005E+07-1.60005E+06-4.39095E+06-8.46980E-07 3.75439E-08
 -1       319 5.37294E+06 2.70339E+07 5.98952E+06 1.43555E+07-4.09054E-08 2.56812E-07
 -1       320-2.06258E+07-1.53527E+07-8.62483E+06-1.14992E+07 1.73808E-07-4.65952E-08
 -1       336-4.76821E+02-1.75296E+06-1.39122E+04 8.82633E+03-2.56005E-08-1.49194E-08
 -1       337-5.36252E+03-1.75308E+06-1.81264E+04-2.13693E+04-4.70945E-08 1.37461E-08
 -1       338 4.66748E+02-1.75248E+06-2.82324E+04 1.23266E+04-3.35785E-08-1.12050E-08
 -1       339-2.99651E+04-1.77005E+06-6.39187E+04-2.82060E+04-6.04523E-08 2.67319E-08
 -1       340 1.99306E+04-1.73803E+06-1.00527E+05 1.55422E+04-4.01633E-08 2.44472E-08
 -1       406-3.27598E+01 3.76744E+05 6.20832E+02 2.70621E+00-1.63489E-09 1.50612E-08
 -1       407 1.63332E+02 3.76869E+05 1.32516E+03 2.09332E+01-5.59233E-10 1.95623E-08
 -1       408 6.26024E+02 3.76647E+05 2.64320E+03-2.40222E+01-2.35718E-09 1.35806E-08
 -1       409 2.81150E+03 3.77714E+05 5.95597E+03 2.54190E+02-3.22188E-10 3.74348E-09
 -1       410 8.17511E+03 3.75888E+05 1.21565E+04-2.44458E+02-2.65209E-09 8.02174E-10
 -1       521-2.92680E+07-6.95454E+06-9.04920E+06-6.80620E+05-7.77654E-08-1.63796E-07
 -1       522 2.39126E+07 3.00886E+06 5.07939E+06-1.65098E+07-5.27361E-07-4.90574E-07
 -1       523-8.32082E+06-1.11799E+06-5.60237E+05 5.16324E+06 8.55071E-08-3.32875E-07
 -1       524-6.78963E+06 9.61258E+06 2.07477E+06-2.20523E+07 8.19527E-07-8.65282E-07
 -1       525-1.22536E+07-1.92572E+06-1.70741E+06 5.06486E+06 5.47152E-07-2.89292E-07
 -1       526 3.44975E+07-1.51504E+05 6.53627E+06-1.14078E+07-2.55182E-07-8.68167E-08
 -1       527-3.06305E+07-7.29529E+06-8.52881E+06-3.97000E+06 4.00469E-08 2.25395E-07
 -1       528 4.48075E+07 1.27318E+07 9.85921E+06 2.23352E+07 4.42378E-09-4.51982E-08
 -1       529-1.80288E+07-1.71210E+07-7.71028E+06-1.16687E+07 1.74041E-08-8.55653E-08
 -1       530-3.22144E+06 2.97979E+07 5.43870E+06 1.06340E+07-1.44806E-07 5.89469E-07
 -1       531 5.00303E+05-1.04617E+07-5.10250E+05-3.40635E+06-9.65039E-07 1.91503E-07
 -1       532-1.99796E+07 2.26389E+07 2.06245E+06-1.02020E+07 2.40092E-07-7.56860E-07
 -1       533-1.25494E+06-1.22449E+07-1.69066E+06-4.39831E+06-2.52185E-07-9.90578E-07
 -1       534 3.40135E+06 3.13892E+07 6.23631E+06 1.48702E+07-3.42261E-08 6.93311E-07
 -1       535-2.17723E+07-1.74737E+07-9.85455E+06-1.16535E+07 1.00932E-07 4.39468E-07
 -1       536-6.80835E+05-4.61724E+04-3.65539E+04-5.11741E+04-3.44653E-09 6.21549E-08
 -1       537-7.95477E+04 4.47526E+04 8.24627E+04 1.17140E+05-1.11812E-07 1.00954E-07
 -1       538-3.93374E+05 2.58840E+03 5.24867E+03-6.88192E+04 3.98783E-08 9.80845E-08
 -1       539-2.78189E+05 3.04081E+03 2.39930E+04 1.31837E+05 1.89879E-07 9.44504E-08
 -1       540-4.87141E+05-3.49992E+02-1.89553E+04-6.63397E+04 3.14612E-08 1.02562E-07
 -1       541 1.03517E+05 1.55952E+04 9.79062E+04 9.21828E+04-1.61890E-08 7.51181E-08
 -1       542-7.64803E+05-1.85361E+04-7.72903E+04-2.83995E+04 5.63805E-08 2.12859E-08
 -1       543 3.41200E+05 2.51307E+04 1.45086E+05-1.27790E+04 3.17154E-08-1.67479E-08
 -1       544-7.18458E+05-1.51565E+04-6.86757E+04 3.80338E+04-1.35869E-08-4.13332E-08
 -1       545-5.31728E+03 8.57310E+03 7.29642E+04-1.07507E+05-1.43084E-08-7.38091E-08
 -1       546-4.27577E+05 5.71832E+03-1.13151E+04 6.60272E+04 1.56565E-08-7.27206E-08
 -1       547-2.95197E+05-4.68514E+03 9.04264E+03-1.34616E+05-8.24822E-08-1.00060E-07
 -1       548-4.36356E+05 4.59859E+03-2.28479E+04 6.57485E+04-1.10457E-07-1.02362E-07
 -1       549 1.31974E+04 1.30023E+04 5.32513E+04-1.05211E+05-6.56879E-08-6.59013E-08
 -1       550-7.27715E+05-1.88620E+04-1.22013E+05 3.59930E+04 7.67886E-09-1.16725E-08
 -1       551 3.89689E+04-7.68521E+05-1.02820E+04-1.22788E+06-9.67411E-08-2.27592E-08
 -1       552 8.85991E+04-8.10058E+05 1.31413E+04-1.75102E+06-6.84668E-08 3.15122E-08
 -1       553 6.77906E+04-8.07537E+05 3.42541E+04-1.22152E+06-1.14858E-07 2.75322E-08
 -1       554 1.26179E+05-8.23930E+05 8.37502E+04-1.75297E+06-7.32689E-08 1.45083E-08
 -1       555 9.74991E+04-8.30671E+05 1.52162E+05-1.22148E+06-1.19042E-07-1.70512E-08
 -1       556 2.12205E+05-3.66262E+05 3.40130E+04-3.95151E+05-2.52039E-08-1.30967E-09
 -1       557 3.39085E+05-4.67568E+05 2.02033E+04-5.10239E+05-8.25094E-09 1.37843E-08
 -1       558 1.95907E+05-3.61309E+05 4.42512E+03-3.97844E+05-1.97906E-08-3.34694E-10
 -1       559 3.14928E+05-4.69061E+05 3.37021E+03-5.29177E+05 1.95869E-08-3.44880E-09
 -1       560 1.81866E+05-3.52488E+05-8.41363E+02-4.07912E+05 5.15138E-09 2.16096E-09
 -1       561 2.97170E+05-4.62034E+05 3.81671E+02-5.41232E+05 1.03319E-09-5.99903E-09
 -1       562 1.70765E+05-3.45573E+05-1.07403E+03-4.15940E+05-1.41154E-09 3.79077E-09
 -1       563 2.83994E+05-4.56289E+05 3.48370E+01-5.49825E+05-2.84490E-09 5.93536E-09
 -1       564 1.62877E+05-3.40654E+05-5.02516E+02-4.21526E+05 6.43195E-09-1.84659E-08
 -1       565 2.75318E+05-4.52511E+05 4.38797E+01-5.55365E+05 1.38243E-08-1.51849E-08
 -1       566 1.58319E+05-3.37768E+05-2.19558E+02-4.24715E+05-1.89175E-10 1.04865E-08
 -1       567 2.71188E+05-4.50714E+05-3.25790E+02-5.57864E+05 1.24710E-08 5.40240E-09
 -1       568 1.57174E+05-3.37069E+05-1.03387E+03-4.25612E+05-4.77576E-09-1.18089E-08
 -1       569 2.70268E+05-4.50655E+05-2.61386E+03-5.56369E+05-3.10774E-09-1.78989E-09
 -1       570 1.60494E+05-3.40182E+05-5.73563E+03-4.24651E+05 7.61065E-09 1.13396E-08
 -1       571 2.87154E+05 1.03789E+04 1.50366E+04-9.12998E+04-8.79209E-09-1.65360E-08
 -1       572 2.89356E+05 3.85786E+03 7.37523E+03-1.00345E+05-1.60285E-08-7.20183E-09
 -1       573 2.88031E+05 1.16922E+03 3.27860E+03-9.11241E+04-1.12068E-08-1.76042E-08
 -1       574 2.88250E+05 6.62462E+02 1.64531E+03-1.00566E+05-2.98542E-10-1.53414E-08
 -1       575 2.88125E+05 3.94997E+02 7.77439E+02-9.11004E+04-9.91332E-09-1.40099E-08
 -1       576 2.88112E+05 4.05370E+02 3.98325E+02-1.00595E+05-1.36461E-08 9.44056E-09
 -1       577 2.88162E+05 3.42404E+02 1.99412E+02-9.10972E+04-7.90169E-09 1.35969E-08
 -1       578 2.88138E+05 3.71231E+02 1.15911E+02-1.00599E+05 2.81534E-09 2.13413E-08
 -1       579 2.88228E+05 3.09402E+02 8.12077E+01-9.10968E+04 9.67339E-09 1.01363E-08
 -1       580 2.88232E+05 3.24475E+02 9.60791E+01-1.00594E+05-5.52609E-09 1.35733E-08
 -1       581 2.88333E+05 2.55730E+02 1.47683E+02-9.11024E+04 3.85444E-09-1.27075E-08
 -1       582 2.88398E+05 2.94442E+02 3.00445E+02-1.00535E+05 2.94494E-09-6.63567E-09
 -1       583 2.88460E+05 3.10187E+02 5.78833E+02-9.11564E+04-1.04046E-09 1.18205E-08
 -1       584 2.88775E+05 7.75963E+02 1.30834E+03-1.00076E+05 2.25373E-09 1.20881E-08
 -1       585 2.88461E+05 1.87807E+03 2.64982E+03-9.15612E+04-1.95359E-09 1.42427E-08
 -1       586-3.41168E+03 1.11627E+05-3.07275E+03-2.45803E+05-7.46877E-09 2.16421E-08
 -1       587-1.27443E+03 1.11344E+05 6.31124E+02-2.70528E+05-7.88532E-09-1.52249E-09
 -1       588 4.47456E+02 1.11187E+05 4.56929E+03-2.45670E+05-6.23913E-10 2.50202E-09
 -1       589 5.01395E+03 1.13578E+05 1.19605E+04-2.70293E+05-7.53062E-09-6.49015E-09
 -1       590 1.61998E+04 1.09891E+05 2.51324E+04-2.46093E+05-4.08545E-09-1.15779E-08
 -1       591-7.26598E+04-1.57586E+04-2.19259E+04-3.13271E+04-1.70621E-09 1.42973E-09
 -1       592-7.65258E+04-1.93344E+04-1.18768E+04-3.49851E+04-2.56207E-09 3.03999E-10
 -1       593-7.48539E+04-1.41663E+04-4.94374E+03-3.29335E+04 4.04872E-09-3.13344E-09
 -1       594-7.34968E+04-1.61189E+04-2.46557E+03-3.51020E+04-4.43833E-09 1.12874E-09
 -1       595-7.50212E+04-1.41609E+04-1.13201E+03-3.30065E+04-4.96268E-09 2.04948E-08
 -1       596-7.32895E+04-1.59719E+04-5.75361E+02-3.50776E+04-1.77512E-09 1.28684E-08
 -1       597-7.50422E+04-1.41758E+04-3.13093E+02-3.30093E+04 4.27531E-09-1.33638E-08
 -1       598-7.32691E+04-1.59661E+04-2.51313E+02-3.50707E+04-2.21007E-09-8.63525E-09
 -1       599-7.50410E+04-1.41763E+04-3.20553E+02-3.30089E+04-1.99861E-10-8.62110E-09
 -1       600-7.32896E+04-1.59725E+04-5.95107E+02-3.50755E+04 3.65566E-09-2.29133E-08
 -1       601-7.50168E+04-1.41621E+04-1.17383E+03-3.30054E+04 5.49403E-09-1.62822E-09
 -1       602-7.35045E+04-1.61240E+04-2.55813E+03-3.50971E+04-6.17524E-09 8.44966E-09
 -1       603-7.48405E+04-1.41706E+04-5.13006E+03-3.29304E+04-1.77192E-09 1.55792E-08
 -1       604-7.66644E+04-1.94419E+04-1.23236E+04-3.49520E+04 6.43695E-10-1.55169E-08
 -1       605-7.25445E+04-1.58399E+04-2.27509E+04-3.12821E+04 4.84880E-09 2.17415E-08
 -1       606 2.67331E+04-1.40173E+04-2.51362E+04 2.41386E+04 8.37827E-09-6.17774E-09
 -1       607 2.24375E+04-4.57422E+03-1.25177E+04 2.71234E+04 3.20779E-09-7.14795E-09
 -1       608 2.48853E+04-8.21519E+02-5.60382E+03 2.39662E+04 2.71575E-09-1.90050E-08
 -1       609 2.44150E+04-2.77284E+02-2.83087E+03 2.73383E+04 1.58843E-08-4.36103E-09
 -1       610 2.46754E+04-3.50021E+01-1.35072E+03 2.39458E+04 9.91986E-09 1.48466E-08
 -1       611 2.46007E+04-3.41447E+01-6.81028E+02 2.73616E+04 1.02091E-08 6.32417E-09
 -1       612 2.46287E+04-2.11604E+01-3.23839E+02 2.39438E+04 6.80484E-09-2.75804E-09
 -1       613 2.46113E+04-2.97447E+01-1.45192E+02 2.73643E+04 5.38785E-09 1.64755E-09
 -1       614 2.46064E+04-2.70905E+01-3.42544E+01 2.39431E+04 1.04346E-08 2.65641E-09
 -1       615 2.46056E+04-2.79776E+01 6.03689E+01 2.73648E+04 1.77079E-08 1.37543E-08
 -1       616 2.45890E+04-2.37806E+01 1.81471E+02 2.39434E+04 9.58653E-09-1.46042E-09
 -1       617 2.46270E+04 1.09616E+01 4.14216E+02 2.73643E+04-5.66615E-10-7.82529E-09
 -1       618 2.45527E+04 9.58354E+01 8.34981E+02 2.39436E+04-1.12323E-10 4.57635E-09
 -1       619 2.49215E+04 6.56741E+02 1.87506E+03 2.73636E+04-3.84944E-09 8.44648E-09
 -1       620 2.42753E+04 2.07596E+03 3.76883E+03 2.39448E+04 1.16745E-09 1.83509E-08
 -1       621 4.86427E+02 2.95471E+05 3.79068E+03 3.86568E+04 1.05956E-09 8.83028E-09
 -1       622 6.38319E+02 2.96355E+05 3.36622E+03 5.61326E+04 9.29049E-10 9.41509E-09
 -1       623 1.23640E+02 2.95666E+05 4.04919E+03 3.84809E+04 1.12959E-09-5.39512E-09
 -1       624 2.05401E+03 2.97553E+05 7.85251E+03 5.63065E+04 1.09856E-09-1.21388E-08
 -1       625 2.01407E+03 2.94111E+05 1.37236E+04 3.84775E+04 1.33150E-09-8.31915E-09
 -1       626 2.55444E+05 6.05798E+04 5.01401E+03 1.24686E+05 4.71755E-09 1.19508E-08
 -1       627 2.53124E+05 6.19976E+04 2.41621E+03 1.28925E+05 5.16593E-10 4.91127E-10
 -1       628 2.55571E+05 5.82826E+04 1.02182E+03 1.25534E+05-3.88263E-09 1.07812E-08
 -1       629 2.52497E+05 6.13357E+04 5.00167E+02 1.29164E+05-6.26142E-09 9.80621E-09
 -1       630 2.55585E+05 5.81718E+04 2.32086E+02 1.25570E+05-8.01219E-09-1.60173E-09
 -1       631 2.52431E+05 6.13109E+04 1.25027E+02 1.29166E+05 4.54725E-09-9.75774E-09
 -1       632 2.55581E+05 5.81759E+04 8.25250E+01 1.25565E+05 1.71281E-08 4.44311E-09
 -1       633 2.52422E+05 6.13129E+04 9.23051E+01 1.29162E+05 4.77712E-09-2.15796E-08
 -1       634 2.55576E+05 5.81734E+04 1.49504E+02 1.25564E+05-3.13787E-09-1.78857E-08
 -1       635 2.52436E+05 6.13114E+04 3.02732E+02 1.29167E+05-8.38793E-09-1.07998E-08
 -1       636 2.55567E+05 5.81679E+04 6.11475E+02 1.25564E+05-5.55019E-10 6.28461E-09
 -1       637 2.52568E+05 6.14066E+04 1.34450E+03 1.29166E+05 2.73587E-09 1.81271E-08
 -1       638 2.55519E+05 5.84650E+04 2.76250E+03 1.25430E+05 1.63527E-09-1.49930E-09
 -1       639 2.54019E+05 6.34249E+04 6.53616E+03 1.28739E+05 3.05408E-09 1.36533E-08
 -1       640 2.55319E+05 6.44908E+04 1.35637E+04 1.22889E+05 3.31056E-09-3.34376E-09
 -1       656 6.53610E+04-1.67194E+06-1.57777E+05-2.28506E+03 2.25555E-10 2.71888E-09
 -1       657-8.64624E+04-1.74323E+06-1.30699E+05 5.45285E+03 7.63976E-10 2.88111E-08
 -1       658 2.08308E+04-1.69219E+06-8.04820E+04-4.30721E+03 2.65345E-10-5.53794E-09
 -1       659-9.34622E+04-1.74655E+06-1.39898E+05 7.11483E+03-2.61480E-09-1.19275E-08
 -1       660 7.23452E+04-1.66862E+06-1.73592E+05-3.94702E+03-1.78989E-09 2.74114E-08
 -1       661 1.59070E+05 1.66955E+04 1.66733E+04 6.21924E+04-2.31785E-09-1.18780E-08
 -1       662 1.68456E+05 2.90824E+04 1.12365E+04 5.84977E+04 1.44547E-09-1.65525E-08
 -1       663 1.62345E+05 2.20447E+04 3.92988E+03 6.12422E+04-1.71406E-09 1.17886E-08
 -1       664 1.64660E+05 2.28267E+04 2.35080E+03 5.96582E+04 4.70664E-10 1.08350E-08
 -1       665 1.62841E+05 2.27756E+04 9.27378E+02 6.10976E+04 1.62248E-09-1.16560E-09
 -1       666 1.64072E+05 2.19907E+04 5.42720E+02 5.98467E+04 6.74575E-09 3.69771E-10
 -1       667 1.62928E+05 2.28589E+04 2.88324E+02 6.10615E+04-8.39947E-10 2.74640E-09
 -1       668 1.63977E+05 2.19305E+04 2.93906E+02 5.98991E+04-1.03378E-08-5.73311E-09
 -1       669 1.62936E+05 2.28341E+04 3.98013E+02 6.10455E+04-1.69766E-09-5.76225E-09
 -1       670 1.64074E+05 2.21464E+04 8.66773E+02 5.99018E+04-7.58244E-09 1.07757E-08
 -1       671 1.62831E+05 2.26475E+04 1.53906E+03 6.10568E+04 7.71720E-11-1.29376E-08
 -1       672 1.64971E+05 2.36436E+04 3.93766E+03 5.96845E+04 9.83169E-09-1.79543E-08
 -1       673 1.62043E+05 2.13747E+04 6.59890E+03 6.12483E+04 4.35512E-09-4.43515E-09
 -1       674 1.71251E+05 3.42451E+04 1.88715E+04 5.78389E+04-3.83022E-09-1.14869E-08
 -1       675 1.56591E+05 1.23429E+04 2.80119E+04 6.27909E+04-2.56932E-10-1.44646E-08
 -1       676 2.37725E+01-2.91630E+05-1.09935E+03-1.18402E+02 1.83661E-10-2.12363E-08
 -1       677-2.91083E+02-2.91896E+05-2.01199E+03 2.36618E+02 8.02353E-09-1.03234E-08
 -1       678 1.95012E+02-2.91441E+05-3.55669E+03-1.18138E+02-8.21046E-10 4.51173E-09
 -1       679-3.55701E+03-2.94043E+05-8.44921E+03 2.35611E+02 4.41423E-09 2.19164E-08
 -1       680 2.12354E+03-2.89484E+05-1.36172E+04-1.16087E+02-1.54978E-09 9.83499E-09
 -1       771-3.02680E+06-7.24739E+05-1.53164E+05-1.43863E+06-3.18250E-08-2.46800E-08
 -1       772-2.95342E+06-8.09745E+05-7.90373E+04-1.53680E+06-2.35741E-08 9.11677E-09
 -1       773-3.05598E+06-7.01936E+05-4.01306E+04-1.45168E+06-2.01981E-08 9.76434E-09
 -1       774-2.94413E+06-7.92833E+05-1.79371E+04-1.56055E+06 2.24682E-08-3.41970E-09
 -1       775-3.07103E+06-6.91348E+05-1.33087E+04-1.45794E+06-1.42027E-08 4.57658E-09
 -1       776-2.95514E+06-7.90210E+05-4.99409E+03-1.57837E+06-1.17579E-08 6.24641E-09
 -1       777-3.08404E+06-6.81938E+05-5.84061E+03-1.46347E+06-2.47383E-09 4.39468E-09
 -1       778-2.96666E+06-7.87786E+05-1.65676E+03-1.59367E+06 1.67347E-09 5.68252E-09
 -1       779-3.09520E+06-6.73736E+05-2.90611E+03-1.46819E+06-1.66474E-08-1.09358E-08
 -1       780-2.97680E+06-7.85471E+05-4.82612E+02-1.60612E+06-4.08181E-09 1.01863E-10
 -1       781-3.10406E+06-6.67134E+05-1.12468E+03-1.47189E+06-2.91620E-08 2.71029E-10
 -1       782-2.98461E+06-7.83499E+05 4.09289E+02-1.61531E+06-3.35713E-08-5.15638E-09
 -1       783-3.11029E+06-6.62555E+05 6.39560E+02-1.47448E+06-4.37285E-09-1.40235E-08
 -1       784-2.98892E+06-7.81491E+05 2.63677E+03-1.62098E+06-1.67347E-08 1.36833E-09
 -1       785-3.11397E+06-6.59827E+05 4.65567E+03-1.47613E+06-3.61470E-08 9.86438E-09
 -1       786 1.27412E+05-9.83764E+03 2.27602E+04-3.05939E+02-2.20308E-09 2.44745E-09
 -1       787 1.37282E+05 1.13897E+04 1.61019E+04-1.23251E+02 5.05128E-09-1.46797E-08
 -1       788 1.31218E+05-1.54166E+03 5.88872E+03-2.71544E+02 3.34184E-09 3.18369E-09
 -1       789 1.32849E+05 1.78431E+03 3.69694E+03-1.76152E+02-2.23271E-10 7.10628E-09
 -1       790 1.31846E+05-2.40121E+02 1.49735E+03-2.53053E+02-2.71105E-09 4.12797E-09
 -1       791 1.32114E+05 2.77828E+02 8.65839E+02-2.07843E+02-5.78982E-09-1.18801E-09
 -1       792 1.31953E+05-3.63024E+01 3.68922E+02-2.39855E+02-3.08194E-09-9.20025E-10
 -1       793 1.31987E+05 3.92246E+01 1.88329E+02-2.32751E+02 7.18577E-10-7.59754E-09
 -1       794 1.31973E+05-1.66947E+00 5.78151E+01-2.28145E+02 3.73601E-09-1.44069E-08
 -1       795 1.31953E+05-2.01353E+01-3.44270E+01-2.57334E+02-4.54652E-09-3.47676E-10
 -1       796 1.31986E+05 2.30245E+01-1.22972E+02-2.15272E+02 3.21188E-09 6.07182E-09
 -1       797 1.31878E+05-1.72832E+02-3.48988E+02-2.87082E+02 5.66284E-09 1.84077E-08
 -1       798 1.32048E+05 1.50912E+02-5.69921E+02-1.98396E+02 2.30019E-09-6.15336E-09
 -1       799 1.31445E+05-1.11231E+03-1.57065E+03-3.28920E+02 5.88119E-09-1.75323E-08
 -1       800 1.32420E+05 9.61736E+02-2.22360E+03-1.73435E+02 4.67343E-10-1.44735E-09
 -1       801-1.34130E+05-9.32387E+06-1.27990E+06 1.25325E+06 8.80682E-08-5.05861E-08
 -1       802 6.33604E+05 4.89702E+06 1.91689E+06-1.52913E+06 2.48721E-07-4.10037E-08
 -1       803-4.75656E+05-1.30685E+07-1.68577E+06 7.95930E+05 7.51061E-08 1.10958E-08
 -1       804 2.46930E+05 1.69008E+06 1.35140E+06 6.24901E+05-1.12301E-07-9.56564E-08
 -1       805 1.75727E+05-6.13182E+06-2.56227E+05-8.95663E+05-4.63988E-08-6.07324E-08
 -1       806-3.02797E+05-5.86626E+04-2.23567E+04-1.20128E+05-8.30005E-09-8.91396E-09
 -1       807-3.04542E+05-5.50277E+04-1.09836E+04-1.25568E+05 7.83280E-09 8.11805E-09
 -1       808-3.03410E+05-5.06064E+04-4.65959E+03-1.23938E+05-7.20138E-09 2.64686E-09
 -1       809-3.02232E+05-5.19419E+04-2.27843E+03-1.25839E+05-9.74342E-09-2.08865E-09
 -1       810-3.03503E+05-5.03258E+04-1.04432E+03-1.24107E+05 9.09495E-11 2.83421E-09
 -1       811-3.02054E+05-5.18179E+04-5.19367E+02-1.25804E+05 6.59020E-09 7.41875E-09
 -1       812-3.03517E+05-5.03499E+04-2.62738E+02-1.24106E+05-8.71387E-09 7.60110E-09
 -1       813-3.02029E+05-5.18201E+04-1.70918E+02-1.25786E+05-8.52515E-09-2.13649E-08
 -1       814-3.03510E+05-5.03593E+04-1.69608E+02-1.24102E+05-9.96806E-10-6.72890E-09
 -1       815-3.02033E+05-5.18223E+04-2.73544E+02-1.25779E+05 4.39468E-09 1.10092E-08
 -1       816-3.03490E+05-5.03584E+04-5.18587E+02-1.24098E+05 6.74299E-09 6.10089E-09
 -1       817-3.02121E+05-5.18717E+04-1.11309E+03-1.25767E+05-9.14042E-09 2.02317E-08
 -1       818-3.03422E+05-5.05155E+04-2.27032E+03-1.24024E+05 5.82077E-10 1.55878E-08
 -1       819-3.03364E+05-5.32429E+04-5.34199E+03-1.25473E+05 3.19096E-09 1.20615E-08
 -1       820-3.02994E+05-5.45508E+04-1.08729E+04-1.22300E+05 3.59523E-09 1.21825E-08
 -1       821-3.73696E+05 2.05925E+04-4.78170E+04 1.79918E+03 1.23698E-08 3.90537E-09
 -1       822-3.93610E+05-2.38488E+04-3.36958E+04-3.65590E+03 3.39020E-09 5.13182E-09
 -1       823-3.81282E+05 3.23992E+03-1.23617E+04 2.77767E+03-9.48168E-09-9.25866E-10
 -1       824-3.84543E+05-3.73973E+03-7.75170E+03-4.25548E+03 1.43159E-09 1.00732E-08
 -1       825-3.82766E+05 5.03349E+02-3.22897E+03 2.39883E+03 1.80133E-08 3.83500E-09
 -1       826-3.82426E+05-5.71118E+02-1.78756E+03-2.35465E+03 2.17619E-08 1.17357E-08
 -1       827-3.83382E+05 6.10563E+01-1.11445E+03 8.76760E+02 1.08807E-08 9.08966E-09
 -1       828-3.81926E+05-1.49202E+02-6.85908E+02 1.00221E+03-1.36648E-09 2.31918E-09
 -1       829-3.83257E+05 7.56906E+01-1.11071E+03-9.58069E+02 1.44792E-09 7.55540E-09
 -1       830-3.82700E+05-6.16121E+02-1.90761E+03 3.97726E+03-2.16323E-09-4.82066E-09
 -1       831-3.82623E+05 5.39546E+02-3.31587E+03-2.09831E+03-3.47037E-09 8.48706E-09
 -1       832-3.84626E+05-3.89549E+03-8.04642E+03 4.93911E+03-4.56721E-09-1.12750E-08
 -1       833-3.81342E+05 3.36002E+03-1.28456E+04-1.91995E+03-1.84511E-09-9.93896E-09
 -1       834-3.93745E+05-2.47379E+04-3.49019E+04 3.33219E+03-1.65755E-09 1.11277E-08
 -1       835-3.73495E+05 2.13550E+04-4.96316E+04-4.91343E+02 5.24767E-09 3.85626E-10
 -1       836-1.37991E+03 3.62799E+05 2.24188E+04-1.64411E+04-6.33190E-09 2.36960E-08
 -1       837 4.78736E+03 3.69816E+05 1.89782E+04-3.35202E+04-6.47208E-09-1.68347E-08
 -1       838-5.42804E+02 3.64765E+05 1.93470E+04-1.63696E+04-5.64842E-09-4.87489E-10
 -1       839 1.21883E+04 3.75328E+05 3.66091E+04-3.35712E+04-5.86078E-09 1.25913E-08
 -1       840-3.76227E+03 3.57228E+05 5.83825E+04-1.63950E+04-5.56247E-09-9.51977E-09
 -1       856-5.40522E+04 7.97166E+03-2.10072E+04-3.99407E+02 3.94118E-09-9.18499E-09
 -1       857-6.27089E+04-9.36473E+03-1.44613E+04 5.55165E+03 2.43608E-09-4.48745E-09
 -1       858-5.74797E+04 1.11785E+03-5.45092E+03-4.23165E+02 2.08610E-09 1.05917E-08
 -1       859-5.87754E+04-1.31347E+03-3.28953E+03 5.58721E+03-2.95847E-09 6.31485E-09
 -1       860-5.79917E+04 1.56443E+02-1.37888E+03-4.34737E+02 8.64560E-10 6.81553E-10
 -1       861-5.81863E+04-1.85213E+02-7.59043E+02 5.60299E+03 2.77738E-09 9.13053E-09
 -1       862-5.80718E+04 2.11176E+01-3.16517E+02-4.38928E+02-1.47188E-09 1.03992E-08
 -1       863-5.80883E+04-2.03423E+01-1.17553E+02 5.60539E+03 1.99208E-09 8.85989E-09
 -1       864-5.80902E+04-4.68452E+00 4.18149E+01-4.37143E+02-2.54097E-09-1.96309E-09
 -1       865-5.80343E+04 5.83281E+01 2.42262E+02 5.59528E+03-5.05609E-09-1.47599E-08
 -1       866-5.81236E+04-5.75940E+01 4.90838E+02-4.28814E+02-2.36446E-09-1.72892E-08
 -1       867-5.78028E+04 4.76100E+02 1.20983E+03 5.57264E+03 1.42927E-09 1.18741E-08
 -1       868-5.83169E+04-4.14986E+02 2.01077E+03-4.14505E+02-5.77813E-10-1.19826E-09
 -1       869-5.63282E+04 3.45396E+03 5.35463E+03 5.53523E+03-1.26670E-09-3.73329E-08
 -1       870-5.95907E+04-2.95468E+03 7.77068E+03-3.91314E+02-2.49986E-09 1.08503E-09
 -1       871-5.44603E+03-2.05093E+04-1.90824E+04 1.27584E+05-3.27782E-09-1.06293E-08
 -1       872-1.99699E+03-2.49322E+04-7.98143E+03 1.65430E+05-8.58563E-09-7.25140E-09
 -1       873 3.54081E+02-2.27992E+04 5.99953E+02 1.27304E+05-4.32146E-09-2.06691E-08
 -1       874 3.19359E+03-2.04147E+04 9.62731E+03 1.65460E+05-9.74160E-09-1.71801E-08
 -1       875 6.69045E+03-2.50930E+04 2.17012E+04 1.27538E+05-4.86398E-09-2.12294E-08
 -1       876 2.88605E+05 4.87126E+04 1.48623E+04 1.15902E+05 2.69608E-09-1.37734E-08
 -1       877 2.89580E+05 5.18500E+04 7.93704E+03 1.20172E+05 5.37693E-09 2.01783E-09
 -1       878 2.89995E+05 4.70665E+04 3.32523E+03 1.17120E+05-4.30964E-09 1.08621E-08
 -1       879 2.87560E+05 4.98340E+04 1.65682E+03 1.20273E+05 3.37786E-09-8.75025E-09
 -1       880 2.90095E+05 4.70494E+04 7.71711E+02 1.17170E+05 6.69752E-09-7.58860E-11
 -1       881 2.87426E+05 4.97478E+04 4.12077E+02 1.20250E+05-2.51009E-09 1.07518E-08
 -1       882 2.90104E+05 4.70624E+04 2.63574E+02 1.17172E+05 1.75783E-09-7.22248E-09
 -1       883 2.87417E+05 4.97433E+04 2.83276E+02 1.20243E+05 6.36362E-10 9.01537E-10
 -1       884 2.90097E+05 4.70596E+04 4.50555E+02 1.17172E+05 3.64423E-09-1.12922E-08
 -1       885 2.87452E+05 4.97496E+04 9.05821E+02 1.20254E+05-1.12524E-09 2.39436E-09
 -1       886 2.90062E+05 4.70332E+04 1.82562E+03 1.17168E+05-8.36106E-09-9.32891E-09
 -1       887 2.87773E+05 4.99600E+04 3.98782E+03 1.20300E+05 8.58788E-09-6.16046E-09
 -1       888 2.89810E+05 4.70776E+04 8.03556E+03 1.17041E+05 5.32205E-09 6.68888E-09
 -1       889 2.92557E+05 5.49347E+04 1.91955E+04 1.20153E+05 1.65410E-09-4.15412E-09
 -1       890 2.86531E+05 5.09728E+04 3.59527E+04 1.13982E+05-4.39650E-09-1.75023E-08
 -1       891-9.58532E+01-1.60104E+05-1.96146E+03 2.69008E+04-2.24532E-09 4.54406E-09
 -1       892-1.84566E+02-1.60618E+05-2.10724E+03 4.08362E+04 2.85581E-10-2.19711E-08
 -1       893 3.49040E+01-1.60167E+05-2.98421E+03 2.69080E+04-3.90764E-09-6.47151E-09
 -1       894-1.49667E+03-1.61746E+05-6.17664E+03 4.06856E+04 3.65230E-09-9.67657E-09
 -1       895-1.18694E+03-1.58880E+05-1.08772E+04 2.70529E+04 5.37852E-10-1.10776E-09
 -1       956-3.70276E+05-5.34036E+03-1.32094E+04 3.00011E+04 4.06726E-09 1.43971E-08
 -1       957-3.72870E+05-1.87522E+03-6.78025E+03 3.60617E+04-1.90539E-09-1.68998E-08
 -1       958-3.71463E+05-2.26336E+02-3.05536E+03 2.98362E+04-2.62662E-09 1.32902E-08
 -1       959-3.71657E+05-1.21766E+02-1.56015E+03 3.62527E+04 1.27693E-09 1.81869E-08
 -1       960-3.71578E+05-3.42217E+01-7.60789E+02 2.98194E+04 3.45426E-09 1.90651E-08
 -1       961-3.71578E+05-5.04026E+01-4.03375E+02 3.62726E+04 1.37106E-08 1.04383E-08
 -1       962-3.71605E+05-3.56608E+01-2.30930E+02 2.98165E+04 7.99992E-09 1.08093E-08
 -1       963-3.71578E+05-4.64151E+01-1.85363E+02 3.62762E+04 4.73585E-09 1.20492E-08
 -1       964-3.71610E+05-3.23834E+01-2.25370E+02 2.98158E+04-1.42015E-09 5.82281E-09
 -1       965-3.71590E+05-4.34100E+01-3.89759E+02 3.62755E+04-8.90714E-09-1.59819E-08
 -1       966-3.71594E+05-2.44831E+01-7.32291E+02 2.98172E+04-4.82646E-09 2.24281E-09
 -1       967-3.71679E+05-1.05452E+02-1.50192E+03 3.62616E+04-6.17911E-09 8.59518E-09
 -1       968-3.71493E+05-2.03159E+02-2.94015E+03 2.98295E+04-2.36969E-09 5.79786E-09
 -1       969-3.72858E+05-1.78794E+03-6.52712E+03 3.61179E+04 3.79259E-10 2.07406E-08
 -1       970-3.70359E+05-5.12237E+03-1.27151E+04 2.99536E+04-2.58933E-09 1.44928E-08
 -1       971-3.39587E+05-1.70063E+03-9.19184E+03 1.51588E+04 2.57842E-09 1.17369E-08
 -1       972-3.41801E+05-1.24894E+03-5.00579E+03 2.09856E+04 6.02040E-09-7.52652E-09
 -1       973-3.40611E+05-5.64326E+01-2.24210E+03 1.50387E+04 4.26917E-09-5.53428E-09
 -1       974-3.40746E+05-7.33978E+01-1.16220E+03 2.11210E+04 7.43967E-10 2.57833E-08
 -1       975-3.40692E+05-1.22149E+01-5.81304E+02 1.50265E+04 9.91804E-10 1.02337E-08
 -1       976-3.40685E+05-2.42576E+01-3.36037E+02 2.11364E+04-5.32964E-10-1.15615E-08
 -1       977-3.40708E+05-1.15437E+01-2.45078E+02 1.50232E+04-5.96947E-09 1.40244E-09
 -1       978-3.40690E+05-1.81625E+01-2.88416E+02 2.11412E+04-4.02224E-09 4.82248E-09
 -1       979-3.40708E+05-3.23511E+00-4.64785E+02 1.50218E+04-4.53400E-09 1.33826E-08
 -1       980-3.40725E+05-1.51621E+01-8.98315E+02 2.11421E+04-1.79322E-08-4.33420E-09
 -1       981-3.40679E+05 1.92154E+01-1.74028E+03 1.50223E+04-6.10601E-09-1.54841E-10
 -1       982-3.40964E+05-1.43739E+02-3.59738E+03 2.11356E+04 3.48894E-09 2.51536E-08
 -1       983-3.40460E+05-9.22007E+01-6.98986E+03 1.50283E+04-2.43426E-09 1.91353E-08
 -1       984-3.44326E+05-3.79431E+03-1.56535E+04 2.10510E+04-1.19044E-08 4.82942E-09
 -1       985-3.37295E+05-5.20693E+03-2.87447E+04 1.51002E+04-1.08480E-08 1.06393E-08
 -3
    1PSTEP                        27          14           1          
  100CL  114 6.62109E-01         409                     0   14           1
 -4  DISP        4    1
 -5  D1          1    2    1    0
 -5  D2          1    2    2    0
 -5  D3          1    2    3    0
 -5  ALL         1    2    0    0    1ALL
 -1         1 2.65443E-03 0.00000E+00 0.00000E+00
 -1         2 1.41278E-03-2.91916E-27 0.00000E+00
 -1         3 3.40757E-04 1.83158E-27 1.32349E-23
 -1         5 1.76479E-04-1.57669E-26-2.48154E-24
 -1         8 2.64238E-03-4.28159E-07 0.00000E+00
 -1         9 2.63507E-03-1.57893E-04 0.00000E+00
 -1        10 3.08977E-04-3.44137E-06-6.61744E-24
 -1        12 1.78281E-04 8.06691E-07 1.24077E-24
 -1        15 2.62841E-03-4.55874E-07 0.00000E+00
 -1        16 2.68918E-03-1.59537E-04 0.00000E+00
 -1        17 2.10325E-04-7.83198E-06 0.00000E+00
 -1        18 1.82076E-04 3.40210E-05 0.00000E+00
 -1        19 1.83686E-04 1.60713E-06 0.00000E+00
 -1        20 1.83825E-04-9.44413E-06 0.00000E+00
 -1        21 1.82936E-04-2.45538E-05-3.30872E-24
 -1        24 3.05710E-05-1.20385E-05 0.00000E+00
 -1        25 1.92691E-04 3.42447E-05 0.00000E+00
 -1        26 1.93389E-04 2.22919E-06 0.00000E+00
 -1        27 1.91189E-04-1.30021E-05 0.00000E+00
 -1        28 1.90877E-04-2.51749E-05 0.00000E+00
 -1        32 0.00000E+00 0.00000E+00 0.00000E+00
 -1        33 2.02092E-04 2.98449E-06 0.00000E+00
 -1        34 1.99976E-04-1.30584E-05 0.00000E+00
 -1        35 1.98045E-04-2.55169E-05 0.00000E+00
 -1        51 2.65363E-03-8.79530E-08 3.30872E-24
 -1        52 2.65216E-03-1.58038E-07 0.00000E+00
 -1        53 2.65015E-03-2.24871E-07 0.00000E+00
 -1        54 2.64776E-03-2.90681E-07-1.65436E-24
 -1        55 2.64512E-03-3.57206E-07 1.65436E-24
 -1        56 2.64826E-03 4.82893E-06 5.29396E-23
 -1        57 2.63754E-03 2.09897E-05-5.29396E-23
 -1        58 2.62380E-03 4.47660E-05 0.00000E+00
 -1        59 2.60876E-03 7.16897E-05 5.29396E-23
 -1        60 2.59446E-03 9.67651E-05 0.00000E+00
 -1        61 2.58284E-03 1.15146E-04 0.00000E+00
 -1        62 2.57526E-03 1.23174E-04 0.00000E+00
 -1        63 2.57263E-03 1.18108E-04-5.29396E-23
 -1        64 2.57490E-03 9.95709E-05 0.00000E+00
 -1        65 2.58158E-03 6.84210E-05 0.00000E+00
 -1        66 2.59146E-03 2.78455E-05 1.05879E-22
 -1        67 2.60311E-03-1.80805E-05 5.29396E-23
 -1        68 2.61485E-03-6.42808E-05 1.05879E-22
 -1        69 2.62503E-03-1.05645E-04-5.29396E-23
 -1        70 2.63214E-03-1.37979E-04-5.29396E-23
 -1        86 1.48954E-03-5.15576E-06 0.00000E+00
 -1        87 1.71252E-03-3.16713E-05 0.00000E+00
 -1        88 2.01223E-03-7.69864E-05 0.00000E+00
 -1        89 2.31553E-03-1.23406E-04 0.00000E+00
 -1        90 2.54726E-03-1.51807E-04 0.00000E+00
 -1       121 3.39864E-04-5.56016E-07 1.32349E-23
 -1       122 3.37190E-04-1.11509E-06 0.00000E+00
 -1       123 3.32745E-04-1.68022E-06 0.00000E+00
 -1       124 3.26544E-04-2.25442E-06 6.61744E-24
 -1       125 3.18611E-04-2.84032E-06 1.32349E-23
 -1       191 1.76529E-04 1.34509E-07-1.24077E-24
 -1       192 1.76680E-04 2.69008E-07-1.44757E-24
 -1       193 1.76930E-04 4.03487E-07 1.24077E-24
 -1       194 1.77280E-04 5.37936E-07 4.13590E-25
 -1       195 1.77730E-04 6.72341E-07 4.13590E-25
 -1       251 2.64202E-03 2.48798E-06 6.61744E-24
 -1       252 2.64165E-03 6.47196E-06 0.00000E+00
 -1       253 2.64128E-03 1.02469E-05 0.00000E+00
 -1       254 2.64091E-03 1.25388E-05-6.61744E-24
 -1       255 2.64055E-03 1.23397E-05-1.32349E-23
 -1       256 2.64018E-03 8.67893E-06-6.61744E-24
 -1       257 2.63978E-03 1.20614E-06-1.32349E-23
 -1       258 2.63935E-03-1.03721E-05 6.61744E-24
 -1       259 2.63888E-03-2.56144E-05 1.32349E-23
 -1       260 2.63835E-03-4.40240E-05 0.00000E+00
 -1       261 2.63778E-03-6.45369E-05-1.32349E-23
 -1       262 2.63719E-03-8.60583E-05 0.00000E+00
 -1       263 2.63661E-03-1.07312E-04 0.00000E+00
 -1       264 2.63606E-03-1.27026E-04-6.61744E-24
 -1       265 2.63555E-03-1.44206E-04-1.32349E-23
 -1       266 2.64005E-03-4.38825E-07 3.30872E-24
 -1       267 2.63772E-03-4.42707E-07 0.00000E+00
 -1       268 2.63539E-03-4.47019E-07 0.00000E+00
 -1       269 2.63307E-03-4.50058E-07 2.06795E-25
 -1       270 2.63074E-03-4.53067E-07 0.00000E+00
 -1       271 2.64130E-03 5.33478E-07-1.32349E-23
 -1       272 2.64102E-03-6.93710E-07 0.00000E+00
 -1       273 2.64152E-03-3.99376E-06-2.64698E-23
 -1       274 2.64273E-03-9.24148E-06 0.00000E+00
 -1       275 2.64461E-03-1.62925E-05 0.00000E+00
 -1       276 2.64709E-03-2.49886E-05 0.00000E+00
 -1       277 2.65011E-03-3.51569E-05-5.29396E-23
 -1       278 2.65359E-03-4.66123E-05 0.00000E+00
 -1       279 2.65747E-03-5.91587E-05 0.00000E+00
 -1       280 2.66168E-03-7.25905E-05 0.00000E+00
 -1       281 2.66612E-03-8.66943E-05-2.64698E-23
 -1       282 2.67072E-03-1.01252E-04-1.32349E-23
 -1       283 2.67541E-03-1.16040E-04 2.64698E-23
 -1       284 2.68011E-03-1.30833E-04 0.00000E+00
 -1       285 2.68472E-03-1.45407E-04 0.00000E+00
 -1       301 2.64490E-03-1.58197E-04 6.61744E-24
 -1       302 2.65321E-03-1.58460E-04 0.00000E+00
 -1       303 2.66090E-03-1.58714E-04 1.32349E-23
 -1       304 2.66886E-03-1.58970E-04 6.61744E-24
 -1       305 2.67799E-03-1.59237E-04 0.00000E+00
 -1       306 2.67230E-03-3.09172E-04-1.05879E-22
 -1       307 2.73631E-03-7.18224E-04-5.29396E-23
 -1       308 2.78404E-03-1.31808E-03 1.05879E-22
 -1       309 2.80919E-03-2.01402E-03-5.29396E-23
 -1       310 2.84122E-03-2.68146E-03 0.00000E+00
 -1       311 2.90071E-03-3.19829E-03 5.29396E-23
 -1       312 2.95902E-03-3.48421E-03 0.00000E+00
 -1       313 2.95671E-03-3.50050E-03 0.00000E+00
 -1       314 2.82113E-03-3.25824E-03 1.05879E-22
 -1       315 2.51134E-03-2.82021E-03-5.29396E-23
 -1       316 2.04466E-03-2.26228E-03 0.00000E+00
 -1       317 1.48536E-03-1.65369E-03-5.29396E-23
 -1       318 9.45921E-04-1.05563E-03-1.05879E-22
 -1       319 5.32937E-04-5.33305E-04 0.00000E+00
 -1       320 2.90027E-04-1.60116E-04 0.00000E+00
 -1       336 2.97456E-04-4.10559E-06 0.00000E+00
 -1       337 2.83873E-04-4.79519E-06 0.00000E+00
 -1       338 2.68290E-04-5.51233E-06 0.00000E+00
 -1       339 2.50781E-04-6.25778E-06-6.61744E-24
 -1       340 2.31429E-04-7.03595E-06 1.32349E-23
 -1       406 1.78931E-04 9.40968E-07-2.06795E-24
 -1       407 1.79682E-04 1.07513E-06-8.27181E-25
 -1       408 1.80533E-04 1.20914E-06-2.06795E-24
 -1       409 1.81485E-04 1.34281E-06 1.65436E-24
 -1       410 1.82536E-04 1.47589E-06 2.48154E-24
 -1       521 2.72706E-03-3.20054E-04-1.05879E-22
 -1       522 2.78943E-03-7.48866E-04-5.29396E-23
 -1       523 2.83103E-03-1.37569E-03 1.05879E-22
 -1       524 2.84740E-03-2.09928E-03-5.29396E-23
 -1       525 2.87185E-03-2.79238E-03 0.00000E+00
 -1       526 2.92789E-03-3.33055E-03 0.00000E+00
 -1       527 2.98576E-03-3.62688E-03 0.00000E+00
 -1       528 2.98132E-03-3.64169E-03 0.00000E+00
 -1       529 2.83444E-03-3.38595E-03-2.11758E-22
 -1       530 2.50196E-03-2.93002E-03-5.29396E-23
 -1       531 2.00191E-03-2.35337E-03-1.05879E-22
 -1       532 1.40471E-03-1.72789E-03 0.00000E+00
 -1       533 8.27887E-04-1.11233E-03 0.00000E+00
 -1       534 3.82931E-04-5.69666E-04-5.29396E-23
 -1       535 1.19537E-04-1.77466E-04 0.00000E+00
 -1       536 2.09578E-04 2.68713E-05 0.00000E+00
 -1       537 2.07681E-04 8.69453E-05 1.65436E-24
 -1       538 2.04751E-04 1.63176E-04-3.30872E-24
 -1       539 2.01295E-04 2.46267E-04 0.00000E+00
 -1       540 1.98185E-04 3.24784E-04-3.30872E-24
 -1       541 1.96163E-04 3.87314E-04 0.00000E+00
 -1       542 1.95229E-04 4.27141E-04-3.30872E-24
 -1       543 1.95005E-04 4.37693E-04 0.00000E+00
 -1       544 1.94684E-04 4.19743E-04 0.00000E+00
 -1       545 1.93523E-04 3.74279E-04 1.65436E-24
 -1       546 1.91362E-04 3.09385E-04-3.30872E-24
 -1       547 1.88437E-04 2.33264E-04 0.00000E+00
 -1       548 1.85539E-04 1.57522E-04 0.00000E+00
 -1       549 1.83447E-04 9.37651E-05 1.65436E-24
 -1       550 1.82361E-04 4.99778E-05-1.65436E-24
 -1       551 1.85280E-04-8.39992E-06 0.00000E+00
 -1       552 1.57002E-04-9.04738E-06 0.00000E+00
 -1       553 1.26434E-04-9.75638E-06-6.61744E-24
 -1       554 9.45345E-05-1.05060E-05 3.30872E-24
 -1       555 6.22622E-05-1.12689E-05 0.00000E+00
 -1       556 2.02730E-04 1.15917E-05 0.00000E+00
 -1       557 1.96594E-04 2.73423E-05 0.00000E+00
 -1       558 1.91785E-04 3.97061E-05 0.00000E+00
 -1       559 1.88169E-04 4.89920E-05 0.00000E+00
 -1       560 1.85619E-04 5.55092E-05 0.00000E+00
 -1       561 1.84006E-04 5.95694E-05 0.00000E+00
 -1       562 1.83206E-04 6.14855E-05 0.00000E+00
 -1       563 1.83096E-04 6.15715E-05 1.32349E-23
 -1       564 1.83554E-04 6.01422E-05 0.00000E+00
 -1       565 1.84461E-04 5.75129E-05 0.00000E+00
 -1       566 1.85697E-04 5.39996E-05 0.00000E+00
 -1       567 1.87144E-04 4.99187E-05 0.00000E+00
 -1       568 1.88684E-04 4.55867E-05 0.00000E+00
 -1       569 1.90200E-04 4.13200E-05 0.00000E+00
 -1       570 1.91574E-04 3.74354E-05 0.00000E+00
 -1       571 1.82174E-04 3.19210E-05 0.00000E+00
 -1       572 1.82274E-04 2.97536E-05 0.00000E+00
 -1       573 1.82374E-04 2.75346E-05-1.65436E-24
 -1       574 1.82474E-04 2.52808E-05 0.00000E+00
 -1       575 1.82575E-04 2.30087E-05-3.30872E-24
 -1       576 1.82675E-04 2.07351E-05 0.00000E+00
 -1       577 1.82776E-04 1.84769E-05 0.00000E+00
 -1       578 1.82876E-04 1.62507E-05 6.61744E-24
 -1       579 1.82977E-04 1.40735E-05-6.61744E-24
 -1       580 1.83078E-04 1.19619E-05 6.61744E-24
 -1       581 1.83179E-04 9.93278E-06 0.00000E+00
 -1       582 1.83280E-04 8.00289E-06-6.61744E-24
 -1       583 1.83381E-04 6.18900E-06 0.00000E+00
 -1       584 1.83483E-04 4.50768E-06 0.00000E+00
 -1       585 1.83584E-04 2.97537E-06 0.00000E+00
 -1       586 1.83804E-04 3.40604E-05 1.65436E-24
 -1       587 1.85491E-04 3.40992E-05 4.13590E-25
 -1       588 1.87180E-04 3.41377E-05 0.00000E+00
 -1       589 1.88914E-04 3.41755E-05 0.00000E+00
 -1       590 1.90737E-04 3.42121E-05 0.00000E+00
 -1       591 1.82795E-04 3.20146E-05 0.00000E+00
 -1       592 1.83517E-04 2.99872E-05 0.00000E+00
 -1       593 1.84245E-04 2.79449E-05 8.27181E-25
 -1       594 1.84975E-04 2.58923E-05 0.00000E+00
 -1       595 1.85708E-04 2.38345E-05 8.27181E-25
 -1       596 1.86441E-04 2.17762E-05-4.13590E-25
 -1       597 1.87172E-04 1.97222E-05 8.27181E-25
 -1       598 1.87900E-04 1.76775E-05 4.13590E-25
 -1       599 1.88622E-04 1.56467E-05 0.00000E+00
 -1       600 1.89338E-04 1.36348E-05 0.00000E+00
 -1       601 1.90044E-04 1.16464E-05 0.00000E+00
 -1       602 1.90740E-04 9.68654E-06 0.00000E+00
 -1       603 1.91424E-04 7.75989E-06-4.13590E-25
 -1       604 1.92094E-04 5.87143E-06-5.16988E-26
 -1       605 1.92749E-04 4.02587E-06 0.00000E+00
 -1       606 1.83699E-04 4.72575E-07 0.00000E+00
 -1       607 1.83709E-04-5.76681E-07 0.00000E+00
 -1       608 1.83718E-04-1.54565E-06 3.30872E-24
 -1       609 1.83726E-04-2.43997E-06 1.65436E-24
 -1       610 1.83734E-04-3.26535E-06 0.00000E+00
 -1       611 1.83743E-04-4.02755E-06 0.00000E+00
 -1       612 1.83751E-04-4.73232E-06 0.00000E+00
 -1       613 1.83759E-04-5.38545E-06 0.00000E+00
 -1       614 1.83768E-04-5.99271E-06 0.00000E+00
 -1       615 1.83776E-04-6.55987E-06-8.27181E-25
 -1       616 1.83784E-04-7.09271E-06 0.00000E+00
 -1       617 1.83793E-04-7.59700E-06 0.00000E+00
 -1       618 1.83801E-04-8.07851E-06 0.00000E+00
 -1       619 1.83809E-04-8.54302E-06 0.00000E+00
 -1       620 1.83818E-04-8.99630E-06-2.06795E-25
 -1       621 1.85015E-04 1.71136E-06 0.00000E+00
 -1       622 1.86504E-04 1.81586E-06 1.65436E-24
 -1       623 1.88120E-04 1.92014E-06 0.00000E+00
 -1       624 1.89828E-04 2.02409E-06-1.65436E-24
 -1       625 1.91596E-04 2.12775E-06-3.30872E-24
 -1       626 1.84223E-04 5.08679E-07-3.30872E-24
 -1       627 1.84738E-04-5.27280E-07 3.30872E-24
 -1       628 1.85233E-04-1.50856E-06 0.00000E+00
 -1       629 1.85711E-04-2.44330E-06-1.65436E-24
 -1       630 1.86174E-04-3.33964E-06 0.00000E+00
 -1       631 1.86625E-04-4.20575E-06 0.00000E+00
 -1       632 1.87069E-04-5.04979E-06 0.00000E+00
 -1       633 1.87507E-04-5.87996E-06-1.65436E-24
 -1       634 1.87944E-04-6.70440E-06 0.00000E+00
 -1       635 1.88381E-04-7.53129E-06 1.65436E-24
 -1       636 1.88822E-04-8.36881E-06 0.00000E+00
 -1       637 1.89270E-04-9.22512E-06-1.65436E-24
 -1       638 1.89728E-04-1.01084E-05-1.65436E-24
 -1       639 1.90199E-04-1.10269E-05-1.65436E-24
 -1       640 1.90686E-04-1.19887E-05-3.30872E-24
 -1       656 1.84505E-04-1.00224E-05 0.00000E+00
 -1       657 1.85604E-04-1.06242E-05 0.00000E+00
 -1       658 1.86982E-04-1.12246E-05-1.32349E-23
 -1       659 1.88495E-04-1.18247E-05-6.61744E-24
 -1       660 1.89958E-04-1.24265E-05 6.61744E-24
 -1       661 1.84080E-04-9.93703E-06-8.27181E-25
 -1       662 1.84372E-04-1.05218E-05 0.00000E+00
 -1       663 1.84696E-04-1.11933E-05 0.00000E+00
 -1       664 1.85051E-04-1.19449E-05 0.00000E+00
 -1       665 1.85434E-04-1.27708E-05 0.00000E+00
 -1       666 1.85842E-04-1.36650E-05-8.27181E-25
 -1       667 1.86274E-04-1.46220E-05 0.00000E+00
 -1       668 1.86727E-04-1.56360E-05-8.27181E-25
 -1       669 1.87200E-04-1.67017E-05 0.00000E+00
 -1       670 1.87689E-04-1.78138E-05 8.27181E-25
 -1       671 1.88194E-04-1.89669E-05-1.65436E-24
 -1       672 1.88713E-04-2.01560E-05 0.00000E+00
 -1       673 1.89243E-04-2.13761E-05 1.65436E-24
 -1       674 1.89782E-04-2.26225E-05 4.13590E-25
 -1       675 1.90329E-04-2.38897E-05 2.06795E-25
 -1       676 1.84264E-04-2.46580E-05 0.00000E+00
 -1       677 1.85591E-04-2.47620E-05 1.65436E-24
 -1       678 1.86917E-04-2.48661E-05 3.30872E-24
 -1       679 1.88240E-04-2.49698E-05-1.65436E-24
 -1       680 1.89560E-04-2.50735E-05 1.65436E-24
 -1       771 1.86964E-05 1.45036E-05 0.00000E+00
 -1       772 8.70438E-06 3.63038E-05 0.00000E+00
 -1       773 5.04664E-07 5.35910E-05 5.29396E-23
 -1       774-6.02600E-06 6.66212E-05 2.64698E-23
 -1       775-1.10083E-05 7.56611E-05 0.00000E+00
 -1       776-1.45678E-05 8.09939E-05 2.64698E-23
 -1       777-1.68297E-05 8.29126E-05 5.29396E-23
 -1       778-1.79221E-05 8.17242E-05 0.00000E+00
 -1       779-1.79723E-05 7.77440E-05 5.29396E-23
 -1       780-1.71095E-05 7.12986E-05-2.64698E-23
 -1       781-1.54622E-05 6.27214E-05 5.29396E-23
 -1       782-1.31604E-05 5.23545E-05 2.64698E-23
 -1       783-1.03331E-05 4.05446E-05-5.29396E-23
 -1       784-7.11078E-06 2.76445E-05 0.00000E+00
 -1       785-3.62269E-06 1.40103E-05 5.29396E-23
 -1       786 1.92730E-04 3.20192E-05 0.00000E+00
 -1       787 1.92773E-04 2.98430E-05 0.00000E+00
 -1       788 1.92816E-04 2.77079E-05-8.27181E-25
 -1       789 1.92860E-04 2.56056E-05 0.00000E+00
 -1       790 1.92903E-04 2.35317E-05-1.65436E-24
 -1       791 1.92947E-04 2.14813E-05 8.27181E-25
 -1       792 1.92991E-04 1.94523E-05-1.65436E-24
 -1       793 1.93035E-04 1.74427E-05-8.27181E-25
 -1       794 1.93079E-04 1.54522E-05 0.00000E+00
 -1       795 1.93123E-04 1.34810E-05 0.00000E+00
 -1       796 1.93167E-04 1.15308E-05 1.65436E-24
 -1       797 1.93211E-04 9.60380E-06-8.27181E-25
 -1       798 1.93256E-04 7.70429E-06-1.65436E-24
 -1       799 1.93300E-04 5.83680E-06 8.27181E-25
 -1       800 1.93345E-04 4.00912E-06 0.00000E+00
 -1       801 1.47229E-04 3.07789E-05 0.00000E+00
 -1       802 9.76480E-06 1.92144E-05 0.00000E+00
 -1       803-1.07703E-04 9.71388E-06 5.29396E-23
 -1       804-9.55547E-05 6.75799E-06 0.00000E+00
 -1       805-3.15727E-05 2.66153E-06 0.00000E+00
 -1       806 1.93410E-04 3.19502E-05-1.65436E-24
 -1       807 1.94116E-04 2.96812E-05 0.00000E+00
 -1       808 1.94810E-04 2.74428E-05 3.30872E-24
 -1       809 1.95490E-04 2.52393E-05 1.65436E-24
 -1       810 1.96156E-04 2.30747E-05 0.00000E+00
 -1       811 1.96805E-04 2.09532E-05 0.00000E+00
 -1       812 1.97437E-04 1.88787E-05 3.30872E-24
 -1       813 1.98050E-04 1.68553E-05 0.00000E+00
 -1       814 1.98642E-04 1.48870E-05 3.30872E-24
 -1       815 1.99212E-04 1.29777E-05 0.00000E+00
 -1       816 1.99759E-04 1.11314E-05 1.65436E-24
 -1       817 2.00281E-04 9.35217E-06 8.27181E-25
 -1       818 2.00776E-04 7.64391E-06-1.65436E-24
 -1       819 2.01244E-04 6.01061E-06-8.27181E-25
 -1       820 2.01683E-04 4.45618E-06-3.30872E-24
 -1       821 1.93260E-04-1.07509E-07 0.00000E+00
 -1       822 1.93120E-04-3.60007E-06 0.00000E+00
 -1       823 1.92978E-04-7.81969E-06 0.00000E+00
 -1       824 1.92833E-04-1.23330E-05 0.00000E+00
 -1       825 1.92689E-04-1.66274E-05 3.30872E-24
 -1       826 1.92547E-04-2.01913E-05-1.65436E-24
 -1       827 1.92408E-04-2.27122E-05-3.30872E-24
 -1       828 1.92272E-04-2.38840E-05 1.65436E-24
 -1       829 1.92136E-04-2.37678E-05 3.30872E-24
 -1       830 1.92000E-04-2.24327E-05 0.00000E+00
 -1       831 1.91862E-04-2.02793E-05-3.30872E-24
 -1       832 1.91724E-04-1.77136E-05-1.65436E-24
 -1       833 1.91585E-04-1.52538E-05-3.30872E-24
 -1       834 1.91450E-04-1.34174E-05 1.65436E-24
 -1       835 1.91316E-04-1.25527E-05 8.27181E-25
 -1       836 1.95053E-04 2.35445E-06 0.00000E+00
 -1       837 1.96588E-04 2.48285E-06 0.00000E+00
 -1       838 1.98028E-04 2.61119E-06 0.00000E+00
 -1       839 1.99404E-04 2.73882E-06-8.27181E-25
 -1       840 2.00748E-04 2.86630E-06-8.27181E-25
 -1       856 1.91173E-04-1.40379E-05 8.27181E-25
 -1       857 1.91154E-04-1.49381E-05 0.00000E+00
 -1       858 1.91135E-04-1.57237E-05 0.00000E+00
 -1       859 1.91116E-04-1.64160E-05-2.06795E-25
 -1       860 1.91096E-04-1.70361E-05 0.00000E+00
 -1       861 1.91077E-04-1.76052E-05 0.00000E+00
 -1       862 1.91057E-04-1.81446E-05 4.13590E-25
 -1       863 1.91037E-04-1.86757E-05 2.06795E-25
 -1       864 1.91018E-04-1.92197E-05-8.27181E-25
 -1       865 1.90998E-04-1.97980E-05 4.13590E-25
 -1       866 1.90979E-04-2.04318E-05 0.00000E+00
 -1       867 1.90959E-04-2.11424E-05 0.00000E+00
 -1       868 1.90939E-04-2.19509E-05 0.00000E+00
 -1       869 1.90919E-04-2.28785E-05 4.13590E-25
 -1       870 1.90898E-04-2.39462E-05-8.27181E-25
 -1       871 1.92513E-04-1.30071E-05-8.27181E-25
 -1       872 1.93983E-04-1.30154E-05 0.00000E+00
 -1       873 1.95533E-04-1.30245E-05 0.00000E+00
 -1       874 1.97094E-04-1.30343E-05-1.03398E-25
 -1       875 1.98597E-04-1.30446E-05 2.06795E-25
 -1       876 1.91705E-04-1.40233E-05 0.00000E+00
 -1       877 1.92198E-04-1.49777E-05 0.00000E+00
 -1       878 1.92670E-04-1.58733E-05 0.00000E+00
 -1       879 1.93122E-04-1.67175E-05 1.65436E-24
 -1       880 1.93558E-04-1.75176E-05 0.00000E+00
 -1       881 1.93981E-04-1.82811E-05 1.65436E-24
 -1       882 1.94393E-04-1.90152E-05 0.00000E+00
 -1       883 1.94796E-04-1.97274E-05 0.00000E+00
 -1       884 1.95194E-04-2.04249E-05 0.00000E+00
 -1       885 1.95589E-04-2.11152E-05 1.65436E-24
 -1       886 1.95984E-04-2.18054E-05-3.30872E-24
 -1       887 1.96382E-04-2.25031E-05 0.00000E+00
 -1       888 1.96785E-04-2.32154E-05 0.00000E+00
 -1       889 1.97196E-04-2.39500E-05 0.00000E+00
 -1       890 1.97617E-04-2.47140E-05 0.00000E+00
 -1       891 1.92214E-04-2.52324E-05 1.65436E-24
 -1       892 1.93527E-04-2.52900E-05 8.27181E-25
 -1       893 1.94792E-04-2.53475E-05-1.65436E-24
 -1       894 1.95983E-04-2.54047E-05-8.27181E-25
 -1       895 1.97076E-04-2.54617E-05-4.13590E-25
 -1       956 2.01962E-04 1.68821E-06 0.00000E+00
 -1       957 2.01830E-04 4.83916E-07-8.27181E-25
 -1       958 2.01697E-04-6.39162E-07 3.30872E-24
 -1       959 2.01564E-04-1.69241E-06 0.00000E+00
 -1       960 2.01432E-04-2.68725E-06 0.00000E+00
 -1       961 2.01299E-04-3.63516E-06 0.00000E+00
 -1       962 2.01166E-04-4.54760E-06 0.00000E+00
 -1       963 2.01034E-04-5.43607E-06 0.00000E+00
 -1       964 2.00901E-04-6.31206E-06 3.30872E-24
 -1       965 2.00768E-04-7.18704E-06 1.65436E-24
 -1       966 2.00636E-04-8.07253E-06 0.00000E+00
 -1       967 2.00503E-04-8.98000E-06 0.00000E+00
 -1       968 2.00370E-04-9.92093E-06 0.00000E+00
 -1       969 2.00238E-04-1.09068E-05 0.00000E+00
 -1       970 2.00106E-04-1.19490E-05 0.00000E+00
 -1       971 1.99856E-04-1.41679E-05-3.30872E-24
 -1       972 1.99735E-04-1.51830E-05 1.65436E-24
 -1       973 1.99613E-04-1.61141E-05-3.30872E-24
 -1       974 1.99492E-04-1.69722E-05 1.65436E-24
 -1       975 1.99371E-04-1.77679E-05 0.00000E+00
 -1       976 1.99250E-04-1.85122E-05 0.00000E+00
 -1       977 1.99128E-04-1.92159E-05 3.30872E-24
 -1       978 1.99007E-04-1.98899E-05-1.65436E-24
 -1       979 1.98886E-04-2.05451E-05 0.00000E+00
 -1       980 1.98765E-04-2.11922E-05 0.00000E+00
 -1       981 1.98643E-04-2.18423E-05-3.30872E-24
 -1       982 1.98522E-04-2.25062E-05 0.00000E+00
 -1       983 1.98401E-04-2.31948E-05 0.00000E+00
 -1       984 1.98281E-04-2.39189E-05 0.00000E+00
 -1       985 1.98161E-04-2.46894E-05 0.00000E+00
 -3
    1PSTEP                        28          14           1          
  100CL  114 6.62109E-01         409                     0   14           1
 -4  STRESS      6    1
 -5  SXX         1    4    1    1
 -5  SYY         1    4    2    2
 -5  SZZ         1    4    3    3
 -5  SXY         1    4    1    2
 -5  SYZ         1    4    2    3
 -5  SZX         1    4    3    1
 -1         1-5.22460E+06-1.68483E+06-1.12068E+06-1.49587E+06-3.37604E-09-1.49361E-07
 -1         2 1.16561E+06 1.71641E+07 4.12076E+06 5.15523E+06 2.92202E-08-6.27260E-08
 -1         3-1.47138E+03-1.57892E+06 4.09019E+02-2.22833E+03-7.95911E-10-4.69154E-08
 -1         5-7.16774E+01 3.85166E+05 9.85389E+00-1.30192E+00-3.72646E-10-6.89215E-09
 -1         8-6.32046E+05-2.19067E+05-7.45688E+04-2.59708E+05 3.79259E-10-3.15231E-08
 -1         9 1.12667E+07 2.97671E+06 2.54412E+06-5.16157E+05-1.06404E-08 7.73231E-08
 -1        10-2.29801E+03-1.64537E+06-3.97616E+03-1.50737E+04-1.30203E-08-4.04644E-08
 -1        12-6.78019E+01 3.85188E+05 3.23745E+02-8.88924E+00-5.56497E-10 1.19981E-08
 -1        15 1.00194E+03 5.50616E+02 3.23875E+03 1.00867E+00-1.22128E-10-1.64645E-08
 -1        16 2.24027E+07-2.83912E+05 3.06523E+06-2.11281E+06 1.96936E-08 3.59879E-07
 -1        17 8.18373E+06 6.11446E+06 2.21117E+06 5.86606E+06 2.44938E-08 2.84752E-08
 -1        18 1.40763E+05 3.28177E+04 3.75232E+03-1.19277E+05 1.50558E-08 8.21956E-09
 -1        19 1.22911E+05 1.41644E+05-9.19890E+02 2.20044E+04 1.63764E-09 3.91810E-10
 -1        20-8.21883E+04-5.73695E+05-1.28749E+05 2.49989E+04-2.02635E-09 1.02445E-08
 -1        21-4.55560E+01-2.95630E+05-9.22583E+02 2.69295E+02 1.52381E-08-1.27781E-09
 -1        24 1.36278E+07 1.17345E+07 3.78127E+06 1.08738E+07-1.61788E-07-5.82853E-08
 -1        25 1.21668E+05 2.53248E+05 9.65898E+04-6.37564E+05 8.83756E-10 1.96518E-08
 -1        26-5.48225E+04 9.26261E+04-2.44957E+04 1.18696E+03 1.80444E-10 2.40549E-08
 -1        27-7.55148E+04-3.09934E+05-1.13261E+05 6.89301E+04 4.24492E-09-1.04343E-08
 -1        28 2.22184E+04-8.52602E+04 1.68792E+04 2.05460E+04-2.27953E-09-1.54353E-08
 -1        32-1.67759E+06-3.16642E+06-1.95250E+05 4.42497E+05-4.23170E-08-9.87779E-09
 -1        33-1.78227E+05 9.31414E+04 3.24034E+04-3.86456E+04-2.84232E-09 1.90885E-08
 -1        34-2.23448E+05-2.50640E+04 6.90336E+02 7.56828E+04-4.98590E-09-1.44018E-08
 -1        35-2.29051E+04-3.38072E+04-1.34721E+03 5.14319E+04-3.46277E-09-9.27321E-09
 -1        51 5.89632E+04-1.80892E+05 1.25092E+05-4.78106E+05 4.36557E-11 1.17288E-07
 -1        52 2.01613E+04-1.59303E+05 6.59329E+04-5.57558E+05-1.40062E-10 3.74301E-07
 -1        53 4.35541E+03-1.74712E+05 3.48162E+04-4.76436E+05 3.43789E-10 6.74336E-08
 -1        54 8.13359E+03-1.70552E+05 2.95739E+04-5.59220E+05-3.63798E-12 5.72036E-08
 -1        55 1.76285E+04-1.78059E+05 3.71067E+04-4.76302E+05 4.00178E-10 5.45406E-08
 -1        56-9.55986E+06-1.21856E+06-8.56314E+05-3.89018E+06 9.22591E-09-3.12255E-07
 -1        57-1.05792E+07-1.15611E+06-5.52753E+05-2.98552E+06 5.79312E-08-1.47265E-07
 -1        58-9.54178E+06-1.60685E+06-1.95541E+05-3.98713E+06-3.79732E-08-2.33194E-08
 -1        59-1.05529E+07-7.30530E+05-1.12459E+05-2.95359E+06 1.58707E-10-1.77686E-07
 -1        60-9.61103E+06-1.61590E+06-5.03325E+04-3.94664E+06-5.75674E-08 2.75795E-08
 -1        61-1.01963E+07-9.19005E+05-9.12195E+03-3.15230E+06 1.60071E-10-5.32509E-08
 -1        62-9.84333E+06-1.45465E+06-3.72522E+04-3.74683E+06-2.14932E-08 1.32364E-07
 -1        63-9.69671E+06-1.34316E+06 1.49467E+04-3.60388E+06 1.35915E-08 1.25647E-07
 -1        64-1.00710E+07-1.21954E+06-3.40344E+04-3.46892E+06 7.06495E-09 4.60495E-08
 -1        65-9.40894E+06-1.72481E+06-9.26888E+03-4.12330E+06-2.55641E-08-8.51119E-08
 -1        66-1.01803E+07-1.03903E+06-4.31655E+04-3.26384E+06 1.43009E-08 2.49001E-08
 -1        67-9.36604E+06-1.91217E+06-1.01445E+05-4.36071E+06-5.81713E-08 2.44909E-07
 -1        68-1.01622E+07-9.99645E+05-1.78434E+05-3.26290E+06-2.90762E-08 1.41175E-07
 -1        69-9.59423E+06-2.06379E+06-4.95224E+05-4.09162E+06-3.34694E-08 1.55123E-08
 -1        70-9.91161E+06-9.26186E+05-7.78187E+05-3.50213E+06 8.00355E-10 5.82659E-08
 -1        86-1.18769E+06-1.32259E+07-2.25160E+06-2.43509E+06-2.53656E-07 3.75439E-09
 -1        87 1.81725E+06 4.63777E+06 1.87387E+06 4.73782E+06-4.09906E-07 6.03432E-08
 -1        88-3.16967E+05-2.21330E+06 1.70172E+05-2.24344E+06-3.48937E-07 6.99697E-08
 -1        89 2.43989E+06 4.42660E+06 1.91439E+06 4.87874E+06-5.41753E-07-3.60997E-08
 -1        90-1.74430E+06-1.30705E+07-2.44318E+06-2.59406E+06-1.41310E-07 5.09026E-08
 -1       121-2.01671E+03-1.58378E+06-5.32340E+02 1.10469E+03 1.34082E-09-3.69037E-08
 -1       122-1.28389E+03-1.57898E+06 7.78144E+02-4.46008E+03-5.46419E-09-3.38950E-08
 -1       123-2.03751E+03-1.58391E+06 2.87645E+02 3.29897E+03 4.41128E-09 3.03407E-09
 -1       124 3.71976E+02-1.57852E+06 2.99013E+03-9.32551E+03-1.01259E-08 5.61704E-09
 -1       125-2.85869E+03-1.58482E+06 3.53517E+03 5.92512E+03 6.26824E-09-1.99943E-08
 -1       191-7.55463E+01 3.85185E+05 8.51126E+00 6.77696E-01-5.33618E-10 7.45058E-09
 -1       192-7.26269E+01 3.85167E+05 2.10215E+01-4.18686E+00-8.37446E-10 2.99024E-08
 -1       193-7.80466E+01 3.85185E+05 3.59167E+01 3.67295E+00-1.05482E-09 2.41380E-09
 -1       194-7.56716E+01 3.85170E+05 7.98988E+01-9.50448E+00-4.47668E-10 3.25872E-09
 -1       195-8.28459E+01 3.85182E+05 1.53096E+02 6.17578E+00-1.36461E-09 2.06455E-09
 -1       251-1.03270E+06 2.11242E+04-4.98433E+04-1.84561E+04-2.10900E-09-1.76598E-07
 -1       252-1.05260E+06-2.43325E+04-3.48242E+04 6.22895E+04-4.41156E-09 2.49747E-09
 -1       253-1.04142E+06 3.34309E+03-1.30088E+04-1.75289E+04 1.29739E-09-5.20868E-08
 -1       254-1.03725E+06-3.78124E+03-6.71291E+03 5.02814E+04 2.53397E-09-2.20989E-07
 -1       255-1.04746E+06 2.04707E+02-4.35741E+03-6.44795E+03-3.95630E-11 1.05576E-07
 -1       256-1.02806E+06-3.94845E+02 1.08835E+03 2.22010E+04 4.60602E-09-2.59409E-08
 -1       257-1.04985E+06-6.29165E+02-2.06762E+03 1.05408E+04-5.63659E-09-2.08707E-07
 -1       258-1.02933E+06 8.71405E+02 3.12446E+03-1.10602E+04 6.63067E-09-3.20816E-07
 -1       259-1.04630E+06-9.84101E+02 7.05487E+02 2.68043E+04-6.56246E-09-6.39403E-08
 -1       260-1.03782E+06 2.85494E+03 5.20942E+03-3.65711E+04 1.56673E-08 1.37879E-09
 -1       261-1.04217E+06-1.96655E+03 7.47578E+03 3.60682E+04 1.03181E-08 3.62979E-09
 -1       262-1.03848E+06 1.06629E+04 1.87515E+04-4.45948E+04 1.16582E-08 3.77036E-08
 -1       263-1.04602E+06-8.45616E+03 2.95119E+04 3.48407E+04-1.33391E-08-3.16868E-08
 -1       264-1.00962E+06 5.86774E+04 8.24592E+04-3.20602E+04 4.54262E-08 4.33956E-08
 -1       265-1.07039E+06-5.02702E+04 1.13573E+05 2.35174E+04 2.06160E-09-1.93497E-07
 -1       266-1.81387E+04-8.48239E+03 4.25550E+04-2.15809E+01 6.18456E-11-2.14250E-08
 -1       267 2.10275E+04 9.88526E+03 3.00790E+04 2.49018E+01 2.32831E-10-1.00873E-07
 -1       268-2.81976E+03-1.40009E+03 1.11801E+04-3.17283E+00-2.00998E-10-2.43540E-07
 -1       269 3.32929E+03 1.67554E+03 7.26700E+03 3.69598E+00 3.03999E-10-1.32592E-08
 -1       270-4.99731E+02-2.75307E+02 3.50788E+03-5.01565E-01-2.18961E-10 6.57965E-08
 -1       271-1.59908E+06-2.00752E+05-1.19658E+05-6.20122E+05 2.63090E-08 3.58654E-07
 -1       272-1.61383E+06-3.08285E+05-7.58569E+04-6.43826E+05 1.60071E-08-1.66047E-07
 -1       273-1.62379E+06-2.27431E+05-2.87515E+04-6.12189E+05 1.51704E-09-1.95614E-08
 -1       274-1.58481E+06-2.76411E+05-1.53675E+04-6.57982E+05-8.42010E-09 7.34071E-08
 -1       275-1.62928E+06-2.27771E+05-7.01467E+03-6.08644E+05 2.38470E-08-1.28109E-07
 -1       276-1.57843E+06-2.76784E+05-3.19212E+03-6.65547E+05-8.08723E-09-2.29369E-07
 -1       277-1.63194E+06-2.25528E+05-1.90941E+03-6.06058E+05 2.70666E-09 6.95500E-08
 -1       278-1.57571E+06-2.79905E+05-8.73218E+02-6.71171E+05 4.18804E-08 1.35103E-07
 -1       279-1.63366E+06-2.23572E+05-1.00004E+03-6.04182E+05-7.36327E-09-1.87182E-07
 -1       280-1.57429E+06-2.82444E+05-1.31457E+03-6.75036E+05 2.56186E-08-4.72828E-07
 -1       281-1.63462E+06-2.22203E+05-2.42209E+03-6.03047E+05 1.93986E-08-1.11653E-07
 -1       282-1.57463E+06-2.85227E+05-5.65846E+03-6.76834E+05-2.14984E-08 2.86111E-07
 -1       283-1.63403E+06-2.20498E+05-1.00631E+04-6.02799E+05 7.37100E-09-8.46508E-08
 -1       284-1.58344E+06-2.98883E+05-2.74345E+04-6.74730E+05-1.67933E-08-4.68644E-08
 -1       285-1.62602E+06-2.09912E+05-4.26960E+04-6.04672E+05-7.58217E-09-3.65380E-08
 -1       301-1.37621E+02-6.23208E+05 1.68218E+05-1.08815E+06 1.28202E-08 3.99014E-08
 -1       302-3.46173E+02-5.77945E+05 1.01326E+05-1.58915E+06 2.50584E-08 2.20762E-07
 -1       303-1.62724E+04-6.13794E+05 5.79562E+04-1.08526E+06 1.19326E-08 1.09410E-07
 -1       304-1.62395E+04-5.83446E+05 5.95676E+04-1.58843E+06-7.81438E-09-8.65111E-08
 -1       305-1.96211E+04-6.03532E+05 7.48496E+04-1.08836E+06-1.22782E-09 3.45026E-08
 -1       306-2.98548E+07-6.16118E+06-8.51193E+06-6.29577E+05-9.31323E-08-4.72588E-07
 -1       307 2.52316E+07 3.10762E+06 5.46728E+06-1.49012E+07-6.89819E-07-3.55998E-07
 -1       308-7.12421E+06-1.01792E+06-4.87187E+05 5.15325E+06-1.23226E-07 4.81043E-07
 -1       309-3.36006E+06 8.53927E+06 2.23071E+06-2.04609E+07 2.53480E-07 6.24255E-07
 -1       310-1.23077E+07-1.85917E+06-1.94116E+06 5.14819E+06-1.01805E-07 3.35727E-07
 -1       311 3.73129E+07 2.01358E+04 7.10741E+06-8.94751E+06 1.88389E-07-2.10479E-07
 -1       312-3.15035E+07-6.60223E+06-8.36958E+06-4.82931E+06 1.29221E-08 1.99972E-07
 -1       313 4.49796E+07 1.43832E+07 1.05022E+07 2.31372E+07-1.62196E-07 1.60304E-07
 -1       314-1.73017E+07-1.73718E+07-7.42857E+06-1.24159E+07 3.09781E-07-1.81724E-07
 -1       315-1.58604E+06 2.91504E+07 5.61421E+06 1.07124E+07-4.18091E-07 4.90691E-08
 -1       316 1.25927E+06-9.81106E+06-4.65255E+05-2.67647E+06-1.12777E-06-2.27970E-07
 -1       317-1.71653E+07 2.21752E+07 2.18886E+06-8.47313E+06 5.85307E-07-6.06778E-07
 -1       318-1.06801E+06-1.25126E+07-1.96360E+06-4.26093E+06-1.07285E-06 1.09314E-07
 -1       319 6.91179E+06 3.12170E+07 6.87766E+06 1.62677E+07-5.53773E-08 2.14262E-07
 -1       320-2.23124E+07-1.73088E+07-9.67496E+06-1.26247E+07 1.73110E-07-6.91798E-08
 -1       336-6.95990E+02-1.71450E+06-1.39491E+04 8.98224E+03-2.61734E-08 9.89530E-09
 -1       337-5.42792E+03-1.71417E+06-1.82040E+04-2.17981E+04-4.97203E-08-1.11122E-08
 -1       338 3.19871E+02-1.71399E+06-2.86145E+04 1.25699E+04-3.39896E-08-8.11269E-09
 -1       339-3.03599E+04-1.73148E+06-6.47034E+04-2.88204E+04-6.13272E-08 2.11730E-08
 -1       340 2.00505E+04-1.69936E+06-1.01890E+05 1.58748E+04-4.07963E-08 2.04382E-08
 -1       406-4.62588E+01 3.85168E+05 6.35803E+02 3.22870E+00-1.75234E-09-3.55067E-09
 -1       407 1.55423E+02 3.85300E+05 1.35846E+03 2.28867E+01-7.29536E-10-5.79921E-08
 -1       408 6.29255E+02 3.85069E+05 2.70883E+03-2.64466E+01-2.45245E-09-1.50631E-08
 -1       409 2.87102E+03 3.86165E+05 6.10518E+03 2.82061E+02-9.18590E-11-1.57024E-08
 -1       410 8.37021E+03 3.84290E+05 1.24605E+04-2.71774E+02-2.53931E-09 4.00541E-09
 -1       521-3.13467E+07-7.58116E+06-9.91805E+06-2.48149E+05-7.39237E-08 8.16071E-08
 -1       522 2.60208E+07 4.06273E+06 5.55668E+06-1.83298E+07-4.62082E-07-3.41010E-07
 -1       523-7.71976E+06-1.32203E+06-4.80876E+05 5.59103E+06 1.69908E-07-2.31710E-07
 -1       524-6.82338E+06 1.14914E+07 2.40602E+06-2.34705E+07 7.53440E-07-5.28235E-07
 -1       525-1.31161E+07-2.46370E+06-2.12848E+06 5.58408E+06 5.69038E-07-1.40979E-07
 -1       526 4.05895E+07-5.87631E+04 7.44492E+06-1.15671E+07 3.97209E-07 7.63976E-08
 -1       527-3.32815E+07-8.25329E+06-9.62214E+06-4.68738E+06 3.52622E-07 4.18222E-08
 -1       528 4.90166E+07 1.59411E+07 1.09304E+07 2.62271E+07-3.42145E-07 1.92376E-08
 -1       529-1.82361E+07-1.95031E+07-8.49614E+06-1.24477E+07 4.95347E-08 2.29571E-07
 -1       530-4.04307E+06 3.37825E+07 5.92613E+06 1.02504E+07-2.94836E-07 6.63509E-07
 -1       531 1.24109E+06-1.08816E+07-4.41946E+05-2.65874E+06-9.80814E-07 2.92493E-07
 -1       532-1.97510E+07 2.41878E+07 2.38541E+06-1.26189E+07 4.37882E-07-6.80331E-07
 -1       533-1.11771E+06-1.36374E+07-2.08160E+06-4.10664E+06-1.67172E-07-9.22300E-07
 -1       534 4.88275E+06 3.61301E+07 7.14074E+06 1.67951E+07-8.16362E-08 7.58097E-07
 -1       535-2.34518E+07-1.96172E+07-1.10613E+07-1.26827E+07 5.77420E-08 4.67873E-07
 -1       536-7.02781E+05-4.69098E+04-4.60337E+04-5.42083E+04-2.15005E-09 3.95748E-08
 -1       537-5.81401E+04 4.49752E+04 8.41175E+04 1.22943E+05-1.22638E-07 7.53625E-08
 -1       538-3.94302E+05 3.20354E+03 3.92650E+03-7.17508E+04 2.81370E-08 1.10937E-07
 -1       539-2.70295E+05 2.92123E+03 2.48802E+04 1.37812E+05 1.37684E-07 1.16328E-07
 -1       540-4.95946E+05-4.21010E+02-2.09605E+04-6.96031E+04-1.53473E-08 1.17761E-07
 -1       541 1.40774E+05 1.67902E+04 1.05251E+05 9.71552E+04-1.57388E-08 9.09157E-08
 -1       542-7.94296E+05-1.99194E+04-8.32843E+04-3.02340E+04 2.18151E-08 3.94151E-08
 -1       543 3.96631E+05 2.70293E+04 1.56227E+05-1.32797E+04-1.90239E-08-1.48939E-08
 -1       544-7.44942E+05-1.63498E+04-7.39990E+04 4.01735E+04-3.60751E-09-2.82471E-08
 -1       545 2.43056E+04 9.35837E+03 7.88809E+04-1.12799E+05 7.32234E-09-5.26459E-08
 -1       546-4.31968E+05 6.04628E+03-1.21060E+04 6.89454E+04 4.04830E-08-7.69372E-08
 -1       547-2.88241E+05-4.66528E+03 1.03714E+04-1.40653E+05-1.11073E-07-1.09114E-07
 -1       548-4.40796E+05 4.70637E+03-2.37478E+04 6.87064E+04-1.02784E-07-7.95808E-08
 -1       549 4.33933E+04 1.56422E+04 5.95128E+04-1.10639E+05-6.74507E-08-5.18041E-08
 -1       550-7.54727E+05-2.16853E+04-1.28052E+05 3.82277E+04 8.07904E-09-3.15213E-08
 -1       551 4.06439E+04-7.57920E+05-1.49218E+04-1.24583E+06-1.04134E-07-2.29629E-08
 -1       552 9.27688E+04-8.02440E+05 1.05149E+04-1.77648E+06-7.25704E-08 1.43555E-08
 -1       553 7.13056E+04-7.98982E+05 3.24947E+04-1.23922E+06-1.16823E-07 2.03436E-08
 -1       554 1.31412E+05-8.17993E+05 8.16847E+04-1.77843E+06-7.17700E-08 2.78433E-08
 -1       555 1.01069E+05-8.22548E+05 1.49030E+05-1.23908E+06-1.23917E-07-7.99992E-09
 -1       556 2.22043E+05-3.81112E+05 2.74846E+04-4.05606E+05-2.83762E-08-2.76195E-08
 -1       557 3.52202E+05-4.85063E+05 1.70144E+04-5.25208E+05-2.11003E-09 1.32932E-08
 -1       558 2.04124E+05-3.74327E+05 2.74441E+03-4.09729E+05-2.22935E-08-6.06087E-09
 -1       559 3.27242E+05-4.85408E+05 2.63260E+03-5.45444E+05 2.47383E-08 1.78261E-09
 -1       560 1.89001E+05-3.64841E+05-1.38355E+03-4.20620E+05 1.57452E-08 1.46829E-08
 -1       561 3.08215E+05-4.77808E+05 1.78993E+02-5.58408E+05-5.58794E-09-1.82627E-08
 -1       562 1.77041E+05-3.57407E+05-1.28485E+03-4.29279E+05 3.95812E-09-1.11395E-08
 -1       563 2.94009E+05-4.71615E+05-2.36552E+01-5.67685E+05 4.73665E-09-2.02872E-08
 -1       564 1.68510E+05-3.52091E+05-5.85322E+02-4.35324E+05 7.63976E-09 5.59567E-09
 -1       565 2.84596E+05-4.67515E+05 2.81290E+01-5.73699E+05 1.08703E-08 2.23608E-08
 -1       566 1.63530E+05-3.48941E+05-2.52568E+02-4.38808E+05 2.09548E-09 7.37418E-09
 -1       567 2.80032E+05-4.65530E+05-3.53808E+02-5.76469E+05 1.85464E-08-1.46683E-08
 -1       568 1.62191E+05-3.48121E+05-1.10579E+03-4.39840E+05-2.72757E-09-9.89530E-10
 -1       569 2.78941E+05-4.65454E+05-2.79457E+03-5.75032E+05-4.79304E-09 4.89672E-09
 -1       570 1.65577E+05-3.51332E+05-6.11668E+03-4.38832E+05 1.08703E-08-3.33785E-09
 -1       571 2.93389E+05 1.05987E+04 1.53028E+04-9.48477E+04-9.99717E-09-4.16503E-09
 -1       572 2.95625E+05 3.96688E+03 7.50600E+03-1.04245E+05-2.07306E-08 1.72076E-08
 -1       573 2.94279E+05 1.22731E+03 3.33677E+03-9.46678E+04-1.24955E-08 6.61930E-09
 -1       574 2.94497E+05 7.16000E+02 1.67462E+03-1.04473E+05 2.77510E-09 6.36919E-09
 -1       575 2.94374E+05 4.39721E+02 7.91342E+02-9.46434E+04-6.47125E-09-1.60735E-08
 -1       576 2.94358E+05 4.53943E+02 4.05572E+02-1.04503E+05-1.28093E-08 4.43288E-09
 -1       577 2.94413E+05 3.84991E+02 2.03111E+02-9.46401E+04-1.41736E-08 1.21836E-08
 -1       578 2.94387E+05 4.17164E+02 1.18304E+02-1.04507E+05-1.92613E-08-7.06495E-09
 -1       579 2.94485E+05 3.48596E+02 8.30321E+01-9.46397E+04-5.11136E-10-7.71797E-09
 -1       580 2.94490E+05 3.65947E+02 9.87531E+01-1.04503E+05-6.23822E-09-2.03090E-09
 -1       581 2.94599E+05 2.89686E+02 1.51793E+02-9.46454E+04 4.64388E-09-1.45255E-08
 -1       582 2.94669E+05 3.30729E+02 3.09403E+02-1.04442E+05 1.84446E-09-2.83035E-09
 -1       583 2.94739E+05 3.41069E+02 5.95555E+02-9.47017E+04 6.51198E-10-3.74484E-09
 -1       584 2.95067E+05 8.21577E+02 1.34687E+03-1.03963E+05 6.13545E-09 1.50631E-08
 -1       585 2.94748E+05 1.95161E+03 2.72698E+03-9.51232E+04-3.81988E-10 2.38360E-08
 -1       586-3.47667E+03 1.15808E+05-3.01661E+03-2.50378E+05-8.20273E-09-2.61866E-09
 -1       587-1.34925E+03 1.15543E+05 7.14674E+02-2.75560E+05-6.41012E-09-7.61838E-09
 -1       588 4.00497E+02 1.15362E+05 4.71858E+03-2.50241E+05-4.13820E-09 8.55471E-09
 -1       589 5.07509E+03 1.17824E+05 1.22883E+04-2.75326E+05-6.94308E-09 7.38510E-09
 -1       590 1.65581E+04 1.14033E+05 2.57966E+04-2.50672E+05-2.58933E-09-1.61890E-09
 -1       591-7.55256E+04-1.61538E+04-2.25803E+04-3.22939E+04-6.96832E-09 1.41972E-08
 -1       592-7.95821E+04-1.97615E+04-1.22313E+04-3.59756E+04 1.43685E-09-1.50135E-09
 -1       593-7.77846E+04-1.45146E+04-5.09129E+03-3.39488E+04 1.92777E-10-3.87968E-09
 -1       594-7.64636E+04-1.64489E+04-2.53915E+03-3.60947E+04 8.93721E-10-4.19729E-09
 -1       595-7.79569E+04-1.45091E+04-1.16575E+03-3.40240E+04-2.34266E-09 1.92870E-10
 -1       596-7.62502E+04-1.62974E+04-5.92427E+02-3.60694E+04 6.41853E-09 4.13200E-09
 -1       597-7.79785E+04-1.45245E+04-3.22210E+02-3.40268E+04 1.52613E-09 1.34316E-08
 -1       598-7.62291E+04-1.62914E+04-2.58319E+02-3.60623E+04-5.34214E-09 2.87625E-08
 -1       599-7.79772E+04-1.45251E+04-3.29099E+02-3.40265E+04 6.02711E-09 1.11058E-08
 -1       600-7.62502E+04-1.62980E+04-6.10663E+02-3.60673E+04 1.96451E-09-2.15148E-08
 -1       601-7.79524E+04-1.45105E+04-1.20435E+03-3.40229E+04 3.81237E-09 1.15972E-08
 -1       602-7.64707E+04-1.64534E+04-2.62456E+03-3.60895E+04-9.72204E-09-1.66452E-08
 -1       603-7.77717E+04-1.45190E+04-5.26324E+03-3.39460E+04-3.08978E-09 1.25210E-08
 -1       604-7.97117E+04-1.98585E+04-1.26435E+04-3.59420E+04-3.67891E-10-1.41040E-09
 -1       605-7.54166E+04-1.62311E+04-2.33415E+04-3.22544E+04 6.08725E-09-2.45018E-09
 -1       606 2.65908E+04-1.43554E+04-2.57380E+04 2.38308E+04-3.27964E-09-1.58579E-08
 -1       607 2.21928E+04-4.68691E+03-1.28175E+04 2.67805E+04-1.76260E-08-1.13660E-08
 -1       608 2.46998E+04-8.43942E+02-5.73792E+03 2.36630E+04-2.17678E-08 3.63093E-09
 -1       609 2.42192E+04-2.87761E+02-2.89866E+03 2.69931E+04-2.00234E-08-8.26162E-09
 -1       610 2.44862E+04-3.93095E+01-1.38296E+03 2.36431E+04-1.12332E-08-1.84173E-10
 -1       611 2.44106E+04-3.95020E+01-6.97285E+02 2.70161E+04 4.63479E-09-4.07476E-09
 -1       612 2.44393E+04-2.57685E+01-3.31457E+02 2.36411E+04-1.82808E-10-4.54065E-10
 -1       613 2.44226E+04-3.55826E+01-1.48512E+02 2.70188E+04 2.79761E-09-1.07475E-08
 -1       614 2.44173E+04-3.23566E+01-3.47469E+01 2.36404E+04 2.24554E-09 5.55929E-10
 -1       615 2.44175E+04-3.42303E+01 6.24100E+01 2.70192E+04 6.29825E-10-1.41213E-08
 -1       616 2.44001E+04-2.93438E+01 1.87000E+02 2.36406E+04-3.25144E-10-1.77561E-08
 -1       617 2.44402E+04 5.51732E+00 4.26577E+02 2.70187E+04 1.14414E-09 6.15046E-09
 -1       618 2.43632E+04 9.35515E+01 8.59817E+02 2.36409E+04 6.24368E-10 9.14861E-09
 -1       619 2.47438E+04 6.70268E+02 1.93077E+03 2.70181E+04-3.68800E-10-6.64181E-09
 -1       620 2.40777E+04 2.13236E+03 3.88079E+03 2.36424E+04 1.20758E-09 3.76349E-09
 -1       621 5.15058E+02 3.02287E+05 3.93268E+03 4.12280E+04 1.05183E-09-3.83898E-09
 -1       622 6.81299E+02 3.03197E+05 3.47955E+03 5.98565E+04 1.38198E-09-2.35523E-08
 -1       623 1.41459E+02 3.02486E+05 4.16775E+03 4.10411E+04 1.27238E-09 5.11318E-09
 -1       624 2.13322E+03 3.04415E+05 8.06856E+03 6.00409E+04 1.14255E-09 1.94723E-09
 -1       625 2.08486E+03 3.00886E+05 1.40943E+04 4.10376E+04 1.39744E-09 2.55279E-08
 -1       626 2.60873E+05 6.12785E+04 5.07136E+03 1.26598E+05 4.72528E-09-1.32059E-09
 -1       627 2.58563E+05 6.26761E+04 2.44385E+03 1.30846E+05 2.79761E-09-1.14679E-08
 -1       628 2.61000E+05 5.89581E+04 1.03359E+03 1.27460E+05-3.04317E-09 1.02696E-08
 -1       629 2.57934E+05 6.20026E+04 5.05915E+02 1.31084E+05-9.17862E-09 1.93323E-08
 -1       630 2.61014E+05 5.88459E+04 2.34844E+02 1.27497E+05-2.40289E-09 1.31024E-09
 -1       631 2.57868E+05 6.19769E+04 1.26622E+02 1.31086E+05 2.16232E-10 9.25718E-09
 -1       632 2.61011E+05 5.88497E+04 8.37643E+01 1.27493E+05 4.33920E-09 1.97406E-09
 -1       633 2.57859E+05 6.19786E+04 9.39884E+01 1.31082E+05-1.13550E-09-2.33263E-09
 -1       634 2.61006E+05 5.88468E+04 1.52490E+02 1.27492E+05-3.92021E-09-3.70278E-09
 -1       635 2.57874E+05 6.19769E+04 3.08934E+02 1.31088E+05-5.76574E-09-5.68798E-09
 -1       636 2.60997E+05 5.88410E+04 6.24085E+02 1.27492E+05-2.48519E-10 7.18001E-09
 -1       637 2.58009E+05 6.20739E+04 1.37233E+03 1.31087E+05-2.75122E-09 1.68093E-08
 -1       638 2.60949E+05 5.91441E+04 2.81966E+03 1.27355E+05 2.79078E-09 1.42563E-08
 -1       639 2.59490E+05 6.41340E+04 6.67147E+03 1.30651E+05 9.57948E-09 2.98357E-08
 -1       640 2.60744E+05 6.52954E+04 1.38445E+04 1.24763E+05 3.44562E-09-3.47086E-09
 -1       656 6.65757E+04-1.70400E+06-1.60709E+05-2.51208E+03-5.45697E-10-6.05064E-09
 -1       657-8.80743E+04-1.77662E+06-1.33139E+05 5.17877E+03 2.91038E-11-3.93649E-09
 -1       658 2.12226E+04-1.72462E+06-8.19980E+04-4.59264E+03 1.14642E-09 8.97869E-09
 -1       659-9.52421E+04-1.78002E+06-1.42559E+05 6.90977E+03-1.50794E-09-2.92683E-09
 -1       660 7.37274E+04-1.70060E+06-1.76904E+05-4.24307E+03-2.30648E-09-1.91833E-08
 -1       661 1.57884E+05 1.65182E+04 1.66639E+04 6.17281E+04-9.12678E-10 6.18456E-10
 -1       662 1.67312E+05 2.88515E+04 1.12303E+04 5.79812E+04 1.89181E-09-8.77799E-09
 -1       663 1.61157E+05 2.18642E+04 3.92764E+03 6.07781E+04-1.70041E-09 7.75799E-10
 -1       664 1.63517E+05 2.25997E+04 2.34956E+03 5.91415E+04 8.00412E-10-1.09033E-08
 -1       665 1.61654E+05 2.25944E+04 9.26886E+02 6.06332E+04 8.34859E-10 1.37263E-09
 -1       666 1.62930E+05 2.17648E+04 5.42573E+02 5.93305E+04 2.31265E-09-8.99524E-10
 -1       667 1.61741E+05 2.26774E+04 2.88401E+02 6.05969E+04 1.23660E-09-3.69901E-09
 -1       668 1.62834E+05 2.17051E+04 2.94346E+02 5.93833E+04-6.91576E-09 4.19112E-09
 -1       669 1.61749E+05 2.26524E+04 3.98904E+02 6.05807E+04-2.16005E-09 1.06065E-08
 -1       670 1.62931E+05 2.19217E+04 8.68990E+02 5.93861E+04-1.09930E-08 1.41832E-08
 -1       671 1.61643E+05 2.24654E+04 1.54309E+03 6.05921E+04-1.22169E-09-1.06124E-08
 -1       672 1.63830E+05 2.34228E+04 3.94805E+03 5.91680E+04 4.34204E-09-1.85827E-09
 -1       673 1.60854E+05 2.11893E+04 6.61634E+03 6.07842E+04 2.15573E-09-4.64252E-09
 -1       674 1.70127E+05 3.40525E+04 1.89213E+04 5.73178E+04-5.36761E-09-1.86224E-08
 -1       675 1.55387E+05 1.21334E+04 2.80859E+04 6.23306E+04-2.03227E-09-1.35096E-08
 -1       676 2.40737E+01-2.95553E+05-1.11196E+03-1.34651E+02 1.99515E-09-6.27033E-09
 -1       677-2.94183E+02-2.95822E+05-2.03507E+03 2.69086E+02 9.38871E-09 1.21287E-09
 -1       678 1.97278E+02-2.95362E+05-3.59750E+03-1.34347E+02 2.53749E-09 1.11780E-09
 -1       679-3.59760E+03-2.97994E+05-8.54617E+03 2.67925E+02 7.45194E-09-1.70605E-08
 -1       680 2.14795E+03-2.93383E+05-1.37735E+04-1.32006E+02-7.18501E-11 1.76802E-09
 -1       771-3.06023E+06-7.44373E+05-1.63591E+05-1.46315E+06-3.48227E-08-2.79979E-08
 -1       772-2.98358E+06-8.32602E+05-8.43434E+04-1.56515E+06-2.53785E-08 1.04264E-08
 -1       773-3.09134E+06-7.20103E+05-4.29917E+04-1.47743E+06-1.65310E-08 9.79344E-09
 -1       774-2.97414E+06-8.14386E+05-1.91814E+04-1.59062E+06 1.99652E-08 3.97995E-09
 -1       775-3.10758E+06-7.08703E+05-1.43446E+04-1.48436E+06-1.28930E-08 4.49654E-09
 -1       776-2.98628E+06-8.11421E+05-5.36471E+03-1.60987E+06-2.89583E-09 4.54020E-09
 -1       777-3.12166E+06-6.98532E+05-6.33659E+03-1.49047E+06 7.62520E-09 2.93949E-09
 -1       778-2.99897E+06-8.08662E+05-1.79151E+03-1.62641E+06 6.05360E-09 6.91216E-09
 -1       779-3.13377E+06-6.89648E+05-3.16609E+03-1.49570E+06-1.49594E-08-1.21217E-08
 -1       780-3.01014E+06-8.06029E+05-5.24919E+02-1.63989E+06-1.04046E-08 1.13323E-09
 -1       781-3.14339E+06-6.82487E+05-1.22970E+03-1.49979E+06-3.62488E-08-5.16411E-09
 -1       782-3.01874E+06-8.03791E+05 4.43670E+02-1.64983E+06-3.90501E-08-6.32008E-09
 -1       783-3.15017E+06-6.77513E+05 6.90766E+02-1.50265E+06-1.14014E-08-1.36110E-08
 -1       784-3.02351E+06-8.01549E+05 2.86211E+03-1.65597E+06-1.97324E-08 2.07365E-09
 -1       785-3.15418E+06-6.74546E+05 5.05257E+03-1.50447E+06-3.37714E-08 1.34605E-08
 -1       786 1.26860E+05-9.89761E+03 2.28992E+04-3.25948E+02 6.24948E-09 7.79710E-09
 -1       787 1.36791E+05 1.14592E+04 1.62002E+04-1.39967E+02 7.32418E-09-3.03407E-09
 -1       788 1.30689E+05-1.55099E+03 5.92459E+03-2.90628E+02 4.82677E-09 1.82283E-08
 -1       789 1.32330E+05 1.79524E+03 3.71935E+03-1.94042E+02 8.83439E-10-1.01574E-09
 -1       790 1.31321E+05-2.41502E+02 1.50617E+03-2.71891E+02-4.42963E-09-1.86475E-09
 -1       791 1.31591E+05 2.79494E+02 8.70442E+02-2.26102E+02-1.02289E-08-9.66952E-09
 -1       792 1.31429E+05-3.63768E+01 3.69892E+02-2.58570E+02-3.89889E-09 3.08987E-10
 -1       793 1.31463E+05 3.89492E+01 1.86658E+02-2.51225E+02-1.74170E-09-1.58685E-08
 -1       794 1.31449E+05-1.10882E+00 5.30533E+01-2.46768E+02 3.42345E-09-1.35117E-10
 -1       795 1.31428E+05-2.39450E+01-4.64094E+01-2.75984E+02-5.47797E-09 5.86483E-09
 -1       796 1.31464E+05 2.64823E+01-1.44002E+02-2.33810E+02 3.54534E-09 7.35543E-09
 -1       797 1.31342E+05-1.97929E+02-4.01120E+02-3.05921E+02 4.10473E-09 2.33848E-09
 -1       798 1.31535E+05 1.72744E+02-6.53033E+02-2.16831E+02 1.83692E-09 1.32597E-08
 -1       799 1.30846E+05-1.27302E+03-1.79796E+03-3.48105E+02 4.95519E-09 4.28213E-09
 -1       800 1.31960E+05 1.10069E+03-2.54490E+03-1.91628E+02 4.55840E-10-1.15489E-08
 -1       801-1.65867E+05-9.90260E+06-1.37733E+06 1.39217E+06 9.21718E-08-5.32018E-08
 -1       802 7.23345E+05 5.80115E+06 2.14426E+06-1.71585E+06 2.56230E-07-4.08882E-08
 -1       803-5.28066E+05-1.40975E+07-1.86151E+06 8.83416E+05 7.69905E-08 2.01908E-08
 -1       804 2.81653E+05 2.29563E+06 1.51122E+06 6.69872E+05-1.18642E-07-1.06470E-07
 -1       805 1.87350E+05-6.41133E+06-2.81908E+05-9.87957E+05-4.96220E-08-6.55491E-08
 -1       806-3.08477E+05-5.98756E+04-2.28112E+04-1.22514E+05-3.79941E-09 1.12777E-09
 -1       807-3.10237E+05-5.61866E+04-1.12069E+04-1.28089E+05 1.17871E-08-4.85210E-09
 -1       808-3.09104E+05-5.16538E+04-4.75431E+03-1.26400E+05-5.47925E-09-8.10201E-09
 -1       809-3.07880E+05-5.30388E+04-2.32474E+03-1.28366E+05-1.03848E-08 1.68036E-08
 -1       810-3.09199E+05-5.13675E+04-1.06556E+03-1.26571E+05 6.59838E-09 1.60462E-08
 -1       811-3.07697E+05-5.29125E+04-5.29941E+02-1.28330E+05 1.88857E-09 4.08295E-09
 -1       812-3.09213E+05-5.13922E+04-2.68132E+02-1.26570E+05-2.08274E-09 2.53704E-09
 -1       813-3.07672E+05-5.29148E+04-1.74478E+02-1.28311E+05-3.38332E-09-1.80989E-08
 -1       814-3.09205E+05-5.14020E+04-1.73251E+02-1.26566E+05-6.50289E-10-1.24505E-08
 -1       815-3.07675E+05-5.29171E+04-2.79466E+02-1.28304E+05 2.63753E-10 4.78940E-09
 -1       816-3.09184E+05-5.14012E+04-5.29895E+02-1.26562E+05 5.46515E-09 1.11554E-08
 -1       817-3.07765E+05-5.29677E+04-1.13730E+03-1.28292E+05-8.55425E-09 1.38775E-08
 -1       818-3.09115E+05-5.15619E+04-2.31976E+03-1.26487E+05-7.91533E-09-5.46879E-09
 -1       819-3.09035E+05-5.43685E+04-5.45820E+03-1.27990E+05 1.13687E-10-1.28512E-09
 -1       820-3.08676E+05-5.56859E+04-1.11095E+04-1.24726E+05-3.05863E-09-2.58478E-09
 -1       821-3.79019E+05 2.08803E+04-4.86077E+04 2.12367E+03 1.38834E-08 3.61615E-09
 -1       822-3.98725E+05-2.41889E+04-3.41587E+04-4.48506E+03 5.75587E-09-2.86454E-08
 -1       823-3.86483E+05 3.29176E+03-1.25547E+04 3.43981E+03-1.32315E-08 7.05131E-09
 -1       824-3.89713E+05-3.79601E+03-7.85812E+03-5.40209E+03 2.89439E-09 3.08546E-09
 -1       825-3.88039E+05 5.11687E+02-3.29108E+03 3.04082E+03 2.13439E-08 1.13714E-08
 -1       826-3.87273E+05-5.67506E+02-1.74340E+03-3.12050E+03 2.62064E-08-5.37011E-09
 -1       827-3.88898E+05 4.65743E+01-1.19177E+03 1.15807E+03 1.03035E-08-2.08150E-08
 -1       828-3.86564E+05-1.31562E+02-5.83853E+02 1.08932E+03-2.40721E-09-8.35585E-09
 -1       829-3.88735E+05 6.55992E+01-1.18002E+03-1.16902E+03 1.60264E-09-7.90007E-09
 -1       830-3.87626E+05-6.21673E+02-1.88093E+03 4.89326E+03-5.57208E-10-3.21234E-09
 -1       831-3.87859E+05 5.54451E+02-3.37053E+03-2.64588E+03-4.91794E-09-9.94987E-09
 -1       832-3.89792E+05-3.95973E+03-8.15560E+03 6.17932E+03-5.28320E-09-1.80708E-08
 -1       833-3.86585E+05 3.41329E+03-1.30504E+04-2.45513E+03-1.13886E-09 2.55295E-09
 -1       834-3.98776E+05-2.50857E+04-3.53580E+04 4.19947E+03-9.69010E-10 3.47782E-08
 -1       835-3.78858E+05 2.16474E+04-5.04457E+04-6.65951E+02 6.05661E-09 2.69065E-08
 -1       836-1.41665E+03 3.70862E+05 2.29482E+04-1.63872E+04-6.70479E-09 2.73940E-09
 -1       837 4.89206E+03 3.78050E+05 1.94085E+04-3.34737E+04-7.54471E-09-1.24328E-08
 -1       838-5.58329E+02 3.72879E+05 1.97607E+04-1.63151E+04-6.34418E-09-6.70207E-09
 -1       839 1.24307E+04 3.83663E+05 3.73673E+04-3.35260E+04-6.67933E-09-1.28011E-08
 -1       840-3.84288E+03 3.65188E+05 5.95810E+04-1.63406E+04-6.08998E-09 7.75867E-09
 -1       856-5.16301E+04 8.00116E+03-2.10848E+04-3.98889E+02 4.60579E-09-1.24055E-08
 -1       857-6.03169E+04-9.40090E+03-1.45146E+04 5.62527E+03 5.51896E-09-1.10367E-08
 -1       858-5.50702E+04 1.12207E+03-5.47100E+03-4.22719E+02 2.18864E-09-4.48540E-09
 -1       859-5.63691E+04-1.31986E+03-3.30146E+03 5.66073E+03-1.06854E-09 1.46531E-08
 -1       860-5.55841E+04 1.57126E+02-1.38358E+03-4.34078E+02 2.51219E-10-1.05972E-08
 -1       861-5.57779E+04-1.87352E+02-7.61008E+02 5.67620E+03 1.53462E-09 2.74443E-09
 -1       862-5.56645E+04 2.12606E+01-3.16082E+02-4.38169E+02-2.09244E-10-1.27807E-08
 -1       863-5.56793E+04-2.14670E+01-1.14553E+02 5.67858E+03-6.05871E-09-2.87397E-08
 -1       864-5.56832E+04-4.98295E+00 4.83856E+01-4.36462E+02-3.99254E-09-6.02981E-09
 -1       865-5.56234E+04 6.03625E+01 2.57439E+02 5.66880E+03-7.12276E-09-2.84385E-09
 -1       866-5.57183E+04-6.05740E+01 5.18143E+02-4.28390E+02-5.81508E-10 1.92802E-09
 -1       867-5.53799E+04 5.00352E+02 1.27491E+03 5.64689E+03-1.47693E-09-5.99718E-09
 -1       868-5.59218E+04-4.36998E+02 2.11843E+03-4.14545E+02-1.47594E-09 5.71617E-10
 -1       869-5.38270E+04 3.63721E+03 5.64049E+03 5.61078E+03 2.59820E-09 3.92447E-09
 -1       870-5.72635E+04-3.11219E+03 8.18567E+03-3.92179E+02-3.86206E-09-1.01386E-08
 -1       871-5.52653E+03-2.15234E+04-1.94994E+04 1.30451E+05-4.75120E-09 3.47427E-09
 -1       872-1.99105E+03-2.60557E+04-8.16828E+03 1.69150E+05-1.09412E-08 1.13469E-08
 -1       873 3.98921E+02-2.38639E+04 5.81669E+02 1.30165E+05-5.25415E-09 5.92240E-09
 -1       874 3.29464E+03-2.14545E+04 9.76416E+03 1.69179E+05-1.10977E-08 3.26945E-08
 -1       875 6.83242E+03-2.61905E+04 2.20339E+04 1.30404E+05-4.59659E-09 4.17185E-09
 -1       876 2.93553E+05 4.94809E+04 1.50887E+04 1.17810E+05-5.35608E-08 1.96433E-08
 -1       877 2.94550E+05 5.26591E+04 8.05795E+03 1.22139E+05-1.54553E-07 6.38129E-08
 -1       878 2.94964E+05 4.78095E+04 3.37588E+03 1.19046E+05-4.68172E-07 1.83092E-07
 -1       879 2.92499E+05 5.06122E+04 1.68208E+03 1.22241E+05-1.20044E-06 4.58315E-07
 -1       880 2.95065E+05 4.77922E+04 7.83491E+02 1.19097E+05-3.34708E-06 1.26831E-06
 -1       881 2.92363E+05 5.05246E+04 4.18418E+02 1.22217E+05-7.42815E-06 2.77005E-06
 -1       882 2.95074E+05 4.78055E+04 2.67715E+02 1.19098E+05-1.79735E-05 6.73062E-06
 -1       883 2.92353E+05 5.05201E+04 2.87865E+02 1.22210E+05-1.93316E-05 7.25433E-06
 -1       884 2.95068E+05 4.78027E+04 4.57979E+02 1.19098E+05-9.61492E-05 3.59549E-05
 -1       885 2.92390E+05 5.05264E+04 9.20822E+02 1.22220E+05-1.79708E-04 6.72429E-05
 -1       886 2.95032E+05 4.77758E+04 1.85589E+03 1.19095E+05-9.61669E-05 3.59546E-05
 -1       887 2.92716E+05 5.07403E+04 4.05395E+03 1.22268E+05-1.93470E-05 7.25376E-06
 -1       888 2.94776E+05 4.78209E+04 8.16882E+03 1.18965E+05-1.80199E-05 6.73878E-06
 -1       889 2.97579E+05 5.57977E+04 1.95138E+04 1.22119E+05-7.46867E-06 2.81784E-06
 -1       890 2.91442E+05 5.17814E+04 3.65488E+04 1.15856E+05-3.33607E-06 1.26325E-06
 -1       891-9.07432E+01-1.62621E+05-1.99593E+03 2.71064E+04-1.40653E-09 1.11618E-08
 -1       892-1.77403E+02-1.63148E+05-2.14307E+03 4.11606E+04 3.03407E-09 2.56632E-08
 -1       893 4.23676E+01-1.62686E+05-3.03370E+03 2.71137E+04-2.31717E-09 1.69648E-08
 -1       894-1.51079E+03-1.64294E+05-6.27818E+03 4.10084E+04 1.34150E-10 1.53263E-08
 -1       895-1.19951E+03-1.61378E+05-1.10556E+04 2.72604E+04 5.74232E-10 2.90129E-10
 -1       956-3.77034E+05-5.45278E+03-1.34632E+04 3.09736E+04 9.15497E-09-2.60584E-08
 -1       957-3.79676E+05-1.92247E+03-6.91041E+03 3.72238E+04-1.71713E-09-3.03367E-08
 -1       958-3.78244E+05-2.39859E+02-3.11407E+03 3.08049E+04-6.75027E-09 2.63481E-09
 -1       959-3.78441E+05-1.34709E+02-1.59008E+03 3.74203E+04 6.36646E-11 1.25547E-08
 -1       960-3.78362E+05-4.34500E+01-7.75395E+02 3.07876E+04 2.64481E-09-5.84555E-09
 -1       961-3.78361E+05-6.14916E+01-4.11074E+02 3.74409E+04 1.20165E-08-2.60329E-08
 -1       962-3.78390E+05-4.45788E+01-2.35304E+02 3.07847E+04 7.80619E-09-1.29151E-08
 -1       963-3.78361E+05-5.72217E+01-1.88804E+02 3.74445E+04 8.45250E-09-1.23937E-08
 -1       964-3.78396E+05-4.11803E+01-2.29502E+02 3.07839E+04 1.08669E-09 1.05397E-08
 -1       965-3.78374E+05-5.42403E+01-3.96862E+02 3.74438E+04-3.86007E-09 1.11577E-08
 -1       966-3.78380E+05-3.33523E+01-7.45653E+02 3.07854E+04-2.80306E-09 3.31374E-09
 -1       967-3.78463E+05-1.17775E+02-1.52929E+03 3.74294E+04-1.47884E-09-1.73350E-09
 -1       968-3.78276E+05-2.15779E+02-2.99381E+03 3.07981E+04 2.44427E-09 1.53716E-09
 -1       969-3.79663E+05-1.83151E+03-6.64617E+03 3.72806E+04 1.02409E-09 6.90227E-09
 -1       970-3.77120E+05-5.22535E+03-1.29472E+04 3.09259E+04 6.12999E-10 4.21096E-10
 -1       971-3.45116E+05-1.72324E+03-9.29167E+03 1.53332E+04 7.66977E-09 2.79303E-09
 -1       972-3.47353E+05-1.26815E+03-5.06016E+03 2.12089E+04 3.11093E-09 4.37376E-09
 -1       973-3.46151E+05-6.10978E+01-2.26649E+03 1.52123E+04 1.84355E-09 4.52269E-09
 -1       974-3.46286E+05-7.98140E+01-1.17489E+03 2.13456E+04-4.48927E-09-1.01431E-09
 -1       975-3.46233E+05-1.63388E+01-5.87773E+02 1.52000E+04 2.25418E-09 3.01941E-09
 -1       976-3.46225E+05-3.00917E+01-3.39998E+02 2.13613E+04 9.22296E-09 2.12708E-09
 -1       977-3.46249E+05-1.56108E+01-2.48359E+02 1.51967E+04-6.37078E-09 2.07797E-09
 -1       978-3.46230E+05-2.38912E+01-2.92809E+02 2.13662E+04-1.05304E-08 2.85434E-09
 -1       979-3.46249E+05-7.14845E+00-4.72321E+02 1.51952E+04-1.90778E-09 1.56524E-09
 -1       980-3.46266E+05-2.08378E+01-9.13163E+02 2.13672E+04-2.31182E-10-5.01552E-09
 -1       981-3.46220E+05 1.56787E+01-1.76920E+03 1.51957E+04 3.12264E-09-8.44182E-09
 -1       982-3.46508E+05-1.51555E+02-3.65723E+03 2.13605E+04-1.78477E-09 1.55326E-08
 -1       983-3.45997E+05-9.75932E+01-7.10620E+03 1.52018E+04-2.45427E-09-2.22281E-09
 -1       984-3.49926E+05-3.86290E+03-1.59141E+04 2.12751E+04-1.99429E-09-2.26441E-09
 -1       985-3.42780E+05-5.29744E+03-2.92233E+04 1.52732E+04-4.50973E-09-1.01845E-08
 -3
    1PSTEP                        29          15           1          
  100CL  115 6.62659E-01         409                     0   15           1
 -4  DISP        4    1
 -5  D1          1    2    1    0
 -5  D2          1    2    2    0
 -5  D3          1    2    3    0
 -5  ALL         1    2    0    0    1ALL
 -1         1 2.67681E-03 0.00000E+00 0.00000E+00
 -1         2 1.40495E-03 1.23541E-27-5.29396E-23
 -1         3 3.41623E-04-1.51331E-27 1.32349E-23
 -1         5 1.76800E-04 8.25840E-27 2.48154E-24
 -1         8 2.66509E-03-4.22410E-07 0.00000E+00
 -1         9 2.65815E-03-1.65747E-04 0.00000E+00
 -1        10 3.09758E-04-3.43433E-06 0.00000E+00
 -1        12 1.78614E-04 8.07844E-07 1.24077E-24
 -1        15 2.65153E-03-4.48996E-07 2.06795E-25
 -1        16 2.71495E-03-1.67432E-04 0.00000E+00
 -1        17 2.10829E-04-7.82125E-06 0.00000E+00
 -1        18 1.82446E-04 3.41985E-05 0.00000E+00
 -1        19 1.84058E-04 1.60940E-06 0.00000E+00
 -1        20 1.84197E-04-9.58700E-06 0.00000E+00
 -1        21 1.83306E-04-2.48576E-05-3.30872E-24
 -1        24 3.06029E-05-1.20387E-05 0.00000E+00
 -1        25 1.93125E-04 3.44227E-05 0.00000E+00
 -1        26 1.93823E-04 2.23230E-06 0.00000E+00
 -1        27 1.91620E-04-1.31494E-05 0.00000E+00
 -1        28 1.91308E-04-2.54792E-05 0.00000E+00
 -1        32 0.00000E+00 0.00000E+00 0.00000E+00
 -1        33 2.02589E-04 2.98860E-06 0.00000E+00
 -1        34 2.00469E-04-1.32060E-05 0.00000E+00
 -1        35 1.98537E-04-2.58216E-05 0.00000E+00
 -1        51 2.67603E-03-8.72439E-08-3.30872E-24
 -1        52 2.67460E-03-1.56456E-07 3.30872E-24
 -1        53 2.67265E-03-2.22351E-07 0.00000E+00
 -1        54 2.67032E-03-2.87161E-07 1.65436E-24
 -1        55 2.66775E-03-3.52631E-07 1.65436E-24
 -1        56 2.67030E-03 5.65067E-06 0.00000E+00
 -1        57 2.65860E-03 2.41770E-05-5.29396E-23
 -1        58 2.64343E-03 5.14081E-05-1.05879E-22
 -1        59 2.62672E-03 8.23214E-05 0.00000E+00
 -1        60 2.61081E-03 1.11271E-04 0.00000E+00
 -1        61 2.59791E-03 1.32771E-04 5.29396E-23
 -1        62 2.58957E-03 1.42662E-04 1.05879E-22
 -1        63 2.58682E-03 1.37816E-04 0.00000E+00
 -1        64 2.58958E-03 1.17782E-04 0.00000E+00
 -1        65 2.59729E-03 8.35161E-05 0.00000E+00
 -1        66 2.60856E-03 3.86220E-05 1.05879E-22
 -1        67 2.62179E-03-1.22822E-05 5.29396E-23
 -1        68 2.63511E-03-6.34421E-05 1.05879E-22
 -1        69 2.64665E-03-1.09072E-04 5.29396E-23
 -1        70 2.65476E-03-1.44439E-04-1.05879E-22
 -1        86 1.48368E-03-5.36883E-06 0.00000E+00
 -1        87 1.71216E-03-3.31757E-05 0.00000E+00
 -1        88 2.01929E-03-8.07617E-05-2.64698E-23
 -1        89 2.33020E-03-1.29539E-04 0.00000E+00
 -1        90 2.56786E-03-1.59379E-04 0.00000E+00
 -1       121 3.40728E-04-5.54748E-07 0.00000E+00
 -1       122 3.38047E-04-1.11257E-06 0.00000E+00
 -1       123 3.33589E-04-1.67648E-06-1.32349E-23
 -1       124 3.27372E-04-2.24952E-06 6.61744E-24
 -1       125 3.19418E-04-2.83430E-06 1.32349E-23
 -1       191 1.76850E-04 1.34702E-07 8.27181E-25
 -1       192 1.77002E-04 2.69393E-07 1.24077E-24
 -1       193 1.77254E-04 4.04065E-07 8.27181E-25
 -1       194 1.77606E-04 5.38706E-07-4.13590E-25
 -1       195 1.78060E-04 6.73303E-07-2.48154E-24
 -1       251 2.66475E-03 2.16442E-06 6.61744E-24
 -1       252 2.66441E-03 5.30636E-06 0.00000E+00
 -1       253 2.66406E-03 7.87652E-06 0.00000E+00
 -1       254 2.66372E-03 8.75579E-06-6.61744E-24
 -1       255 2.66338E-03 7.10998E-06 0.00000E+00
 -1       256 2.66303E-03 2.14020E-06 0.00000E+00
 -1       257 2.66265E-03-6.39298E-06-1.32349E-23
 -1       258 2.66223E-03-1.86791E-05-6.61744E-24
 -1       259 2.66178E-03-3.42767E-05 1.32349E-23
 -1       260 2.66127E-03-5.26976E-05 0.00000E+00
 -1       261 2.66073E-03-7.29785E-05 0.00000E+00
 -1       262 2.66018E-03-9.41304E-05-6.61744E-24
 -1       263 2.65962E-03-1.15018E-04-1.32349E-23
 -1       264 2.65909E-03-1.34508E-04 0.00000E+00
 -1       265 2.65861E-03-1.51706E-04 0.00000E+00
 -1       266 2.66283E-03-4.32776E-07-3.30872E-24
 -1       267 2.66057E-03-4.36484E-07 0.00000E+00
 -1       268 2.65831E-03-4.40613E-07 0.00000E+00
 -1       269 2.65605E-03-4.43493E-07 2.06795E-25
 -1       270 2.65379E-03-4.46344E-07-2.06795E-25
 -1       271 2.66407E-03 4.21502E-07 1.32349E-23
 -1       272 2.66388E-03-1.02232E-06 0.00000E+00
 -1       273 2.66450E-03-4.62864E-06 0.00000E+00
 -1       274 2.66587E-03-1.02623E-05 0.00000E+00
 -1       275 2.66793E-03-1.77686E-05 2.64698E-23
 -1       276 2.67061E-03-2.69787E-05 0.00000E+00
 -1       277 2.67384E-03-3.77086E-05-2.64698E-23
 -1       278 2.67756E-03-4.97622E-05 0.00000E+00
 -1       279 2.68168E-03-6.29319E-05 0.00000E+00
 -1       280 2.68612E-03-7.70008E-05 0.00000E+00
 -1       281 2.69081E-03-9.17442E-05 2.64698E-23
 -1       282 2.69565E-03-1.06932E-04 1.32349E-23
 -1       283 2.70057E-03-1.22331E-04 0.00000E+00
 -1       284 2.70549E-03-1.37704E-04 0.00000E+00
 -1       285 2.71031E-03-1.52816E-04 0.00000E+00
 -1       301 2.66847E-03-1.66059E-04-6.61744E-24
 -1       302 2.67725E-03-1.66328E-04-6.61744E-24
 -1       303 2.68537E-03-1.66589E-04 1.32349E-23
 -1       304 2.69376E-03-1.66850E-04 0.00000E+00
 -1       305 2.70332E-03-1.67124E-04 0.00000E+00
 -1       306 2.69558E-03-3.18073E-04 0.00000E+00
 -1       307 2.75954E-03-7.28983E-04 0.00000E+00
 -1       308 2.80684E-03-1.33108E-03 0.00000E+00
 -1       309 2.83138E-03-2.02917E-03 0.00000E+00
 -1       310 2.86299E-03-2.69814E-03 1.05879E-22
 -1       311 2.92240E-03-3.21547E-03 5.29396E-23
 -1       312 2.98060E-03-3.50064E-03 1.05879E-22
 -1       313 2.97761E-03-3.51517E-03 0.00000E+00
 -1       314 2.84025E-03-3.27042E-03 1.05879E-22
 -1       315 2.52750E-03-2.82984E-03 0.00000E+00
 -1       316 2.05701E-03-2.26961E-03 0.00000E+00
 -1       317 1.49363E-03-1.65905E-03 5.29396E-23
 -1       318 9.50600E-04-1.05919E-03 0.00000E+00
 -1       319 5.35114E-04-5.35169E-04 5.29396E-23
 -1       320 2.90914E-04-1.60692E-04-1.05879E-22
 -1       336 2.98205E-04-4.09751E-06 1.32349E-23
 -1       337 2.84585E-04-4.78623E-06-6.61744E-24
 -1       338 2.68958E-04-5.50265E-06 1.32349E-23
 -1       339 2.51400E-04-6.24754E-06 0.00000E+00
 -1       340 2.31993E-04-7.02536E-06 0.00000E+00
 -1       406 1.79270E-04 9.42310E-07-8.27181E-25
 -1       407 1.80026E-04 1.07666E-06-4.13590E-25
 -1       408 1.80883E-04 1.21086E-06-2.89513E-24
 -1       409 1.81841E-04 1.34472E-06-1.34417E-24
 -1       410 1.82899E-04 1.47798E-06 2.89513E-24
 -1       521 2.75302E-03-3.29009E-04 1.05879E-22
 -1       522 2.81528E-03-7.59797E-04 0.00000E+00
 -1       523 2.85636E-03-1.38906E-03 0.00000E+00
 -1       524 2.87199E-03-2.11500E-03 0.00000E+00
 -1       525 2.89593E-03-2.80984E-03-1.05879E-22
 -1       526 2.95185E-03-3.34866E-03 0.00000E+00
 -1       527 3.00961E-03-3.64426E-03 0.00000E+00
 -1       528 3.00443E-03-3.65722E-03 0.00000E+00
 -1       529 2.85557E-03-3.39881E-03-2.11758E-22
 -1       530 2.51978E-03-2.94016E-03 5.29396E-23
 -1       531 2.01544E-03-2.36112E-03 0.00000E+00
 -1       532 1.41364E-03-1.73364E-03 5.29396E-23
 -1       533 8.32752E-04-1.11622E-03 0.00000E+00
 -1       534 3.84919E-04-5.71750E-04 5.29396E-23
 -1       535 1.20024E-04-1.78132E-04-2.11758E-22
 -1       536 2.10078E-04 2.69774E-05 0.00000E+00
 -1       537 2.08172E-04 8.72096E-05-1.65436E-24
 -1       538 2.05228E-04 1.63639E-04 3.30872E-24
 -1       539 2.01754E-04 2.46945E-04 0.00000E+00
 -1       540 1.98629E-04 3.25665E-04-3.30872E-24
 -1       541 1.96596E-04 3.88356E-04 0.00000E+00
 -1       542 1.95658E-04 4.28287E-04-3.30872E-24
 -1       543 1.95434E-04 4.38872E-04 0.00000E+00
 -1       544 1.95113E-04 4.20884E-04 0.00000E+00
 -1       545 1.93947E-04 3.75312E-04 0.00000E+00
 -1       546 1.91775E-04 3.10261E-04-3.30872E-24
 -1       547 1.88836E-04 2.33951E-04 0.00000E+00
 -1       548 1.85924E-04 1.58019E-04-3.30872E-24
 -1       549 1.83823E-04 9.41005E-05 1.65436E-24
 -1       550 1.82731E-04 5.02005E-05 0.00000E+00
 -1       551 1.85715E-04-8.39035E-06 0.00000E+00
 -1       552 1.57364E-04-9.03937E-06 0.00000E+00
 -1       553 1.26719E-04-9.75021E-06-6.61744E-24
 -1       554 9.47378E-05-1.05019E-05 0.00000E+00
 -1       555 6.23809E-05-1.12670E-05 1.32349E-23
 -1       556 2.03210E-04 1.16598E-05 0.00000E+00
 -1       557 1.97056E-04 2.74584E-05 0.00000E+00
 -1       558 1.92231E-04 3.98615E-05 0.00000E+00
 -1       559 1.88603E-04 4.91786E-05 0.00000E+00
 -1       560 1.86043E-04 5.57195E-05 0.00000E+00
 -1       561 1.84424E-04 5.97967E-05 0.00000E+00
 -1       562 1.83620E-04 6.17239E-05 0.00000E+00
 -1       563 1.83507E-04 6.18155E-05 0.00000E+00
 -1       564 1.83965E-04 6.03870E-05 0.00000E+00
 -1       565 1.84873E-04 5.77546E-05 0.00000E+00
 -1       566 1.86111E-04 5.42349E-05 0.00000E+00
 -1       567 1.87561E-04 5.01450E-05 6.61744E-24
 -1       568 1.89105E-04 4.58020E-05 0.00000E+00
 -1       569 1.90625E-04 4.15232E-05 0.00000E+00
 -1       570 1.92004E-04 3.76259E-05 0.00000E+00
 -1       571 1.82544E-04 3.20871E-05 8.27181E-25
 -1       572 1.82644E-04 2.99081E-05 4.13590E-25
 -1       573 1.82744E-04 2.76774E-05-1.65436E-24
 -1       574 1.82845E-04 2.54119E-05 8.27181E-25
 -1       575 1.82945E-04 2.31281E-05 3.30872E-24
 -1       576 1.83046E-04 2.08428E-05 0.00000E+00
 -1       577 1.83146E-04 1.85730E-05-3.30872E-24
 -1       578 1.83247E-04 1.63353E-05 6.61744E-24
 -1       579 1.83348E-04 1.41468E-05 0.00000E+00
 -1       580 1.83449E-04 1.20241E-05 0.00000E+00
 -1       581 1.83550E-04 9.98411E-06 0.00000E+00
 -1       582 1.83651E-04 8.04366E-06 0.00000E+00
 -1       583 1.83753E-04 6.21953E-06 0.00000E+00
 -1       584 1.83854E-04 4.52837E-06-3.30872E-24
 -1       585 1.83956E-04 2.98662E-06 0.00000E+00
 -1       586 1.84185E-04 3.42380E-05 1.65436E-24
 -1       587 1.85882E-04 3.42769E-05 0.00000E+00
 -1       588 1.87582E-04 3.43155E-05-8.27181E-25
 -1       589 1.89327E-04 3.43533E-05 0.00000E+00
 -1       590 1.91160E-04 3.43900E-05 0.00000E+00
 -1       591 1.83169E-04 3.21809E-05-1.03398E-25
 -1       592 1.83895E-04 3.01425E-05 0.00000E+00
 -1       593 1.84627E-04 2.80891E-05 0.00000E+00
 -1       594 1.85362E-04 2.60255E-05 0.00000E+00
 -1       595 1.86098E-04 2.39567E-05-8.27181E-25
 -1       596 1.86835E-04 2.18875E-05 4.13590E-25
 -1       597 1.87570E-04 1.98227E-05 0.00000E+00
 -1       598 1.88302E-04 1.77671E-05-4.13590E-25
 -1       599 1.89028E-04 1.57255E-05-8.27181E-25
 -1       600 1.89747E-04 1.37027E-05 4.13590E-25
 -1       601 1.90458E-04 1.17036E-05 0.00000E+00
 -1       602 1.91158E-04 9.73289E-06 2.06795E-25
 -1       603 1.91846E-04 7.79545E-06 4.13590E-25
 -1       604 1.92520E-04 5.89618E-06 0.00000E+00
 -1       605 1.93178E-04 4.03980E-06 0.00000E+00
 -1       606 1.84071E-04 4.66243E-07 0.00000E+00
 -1       607 1.84081E-04-5.91703E-07 0.00000E+00
 -1       608 1.84089E-04-1.56945E-06-3.30872E-24
 -1       609 1.84098E-04-2.47262E-06-1.65436E-24
 -1       610 1.84106E-04-3.30693E-06 0.00000E+00
 -1       611 1.84114E-04-4.07812E-06 0.00000E+00
 -1       612 1.84123E-04-4.79195E-06 0.00000E+00
 -1       613 1.84131E-04-5.45419E-06 0.00000E+00
 -1       614 1.84139E-04-6.07061E-06 0.00000E+00
 -1       615 1.84148E-04-6.64697E-06 0.00000E+00
 -1       616 1.84156E-04-7.18905E-06 0.00000E+00
 -1       617 1.84164E-04-7.70260E-06 0.00000E+00
 -1       618 1.84173E-04-8.19341E-06 0.00000E+00
 -1       619 1.84181E-04-8.66723E-06-2.06795E-25
 -1       620 1.84189E-04-9.12984E-06 0.00000E+00
 -1       621 1.85396E-04 1.71378E-06 0.00000E+00
 -1       622 1.86895E-04 1.81841E-06-8.27181E-25
 -1       623 1.88521E-04 1.92283E-06-1.65436E-24
 -1       624 1.90240E-04 2.02692E-06-8.27181E-25
 -1       625 1.92019E-04 2.13072E-06 1.65436E-24
 -1       626 1.84599E-04 5.02397E-07 3.30872E-24
 -1       627 1.85117E-04-5.42228E-07 0.00000E+00
 -1       628 1.85615E-04-1.53229E-06 0.00000E+00
 -1       629 1.86096E-04-2.47592E-06 1.65436E-24
 -1       630 1.86563E-04-3.38127E-06 3.30872E-24
 -1       631 1.87018E-04-4.25649E-06 0.00000E+00
 -1       632 1.87465E-04-5.10975E-06-3.30872E-24
 -1       633 1.87907E-04-5.94924E-06-1.65436E-24
 -1       634 1.88347E-04-6.78311E-06 0.00000E+00
 -1       635 1.88788E-04-7.61952E-06 0.00000E+00
 -1       636 1.89233E-04-8.46666E-06 3.30872E-24
 -1       637 1.89685E-04-9.33269E-06 1.65436E-24
 -1       638 1.90147E-04-1.02258E-05-1.65436E-24
 -1       639 1.90622E-04-1.11541E-05 1.65436E-24
 -1       640 1.91112E-04-1.21259E-05 1.65436E-24
 -1       656 1.84886E-04-1.01660E-05-6.61744E-24
 -1       657 1.85994E-04-1.07686E-05 0.00000E+00
 -1       658 1.87382E-04-1.13697E-05 1.32349E-23
 -1       659 1.88905E-04-1.19705E-05-6.61744E-24
 -1       660 1.90379E-04-1.25731E-05 6.61744E-24
 -1       661 1.84455E-04-1.00893E-05 0.00000E+00
 -1       662 1.84750E-04-1.06837E-05 8.27181E-25
 -1       663 1.85078E-04-1.13649E-05 0.00000E+00
 -1       664 1.85437E-04-1.21264E-05 0.00000E+00
 -1       665 1.85823E-04-1.29622E-05 0.00000E+00
 -1       666 1.86235E-04-1.38666E-05 0.00000E+00
 -1       667 1.86671E-04-1.48337E-05 1.65436E-24
 -1       668 1.87128E-04-1.58580E-05 0.00000E+00
 -1       669 1.87604E-04-1.69339E-05 1.65436E-24
 -1       670 1.88098E-04-1.80563E-05 0.00000E+00
 -1       671 1.88607E-04-1.92198E-05 0.00000E+00
 -1       672 1.89129E-04-2.04192E-05 8.27181E-25
 -1       673 1.89663E-04-2.16497E-05 1.65436E-24
 -1       674 1.90205E-04-2.29063E-05 4.13590E-25
 -1       675 1.90756E-04-2.41838E-05-2.06795E-25
 -1       676 1.84644E-04-2.49618E-05 3.30872E-24
 -1       677 1.85982E-04-2.50659E-05 0.00000E+00
 -1       678 1.87318E-04-2.51701E-05 3.30872E-24
 -1       679 1.88651E-04-2.52739E-05 0.00000E+00
 -1       680 1.89982E-04-2.53777E-05-1.65436E-24
 -1       771 1.86956E-05 1.45809E-05 0.00000E+00
 -1       772 8.67671E-06 3.64446E-05 0.00000E+00
 -1       773 4.55729E-07 5.37818E-05-5.29396E-23
 -1       774-6.09102E-06 6.68495E-05-2.64698E-23
 -1       775-1.10846E-05 7.59149E-05 5.29396E-23
 -1       776-1.46510E-05 8.12619E-05 2.64698E-23
 -1       777-1.69159E-05 8.31846E-05 0.00000E+00
 -1       778-1.80077E-05 8.19907E-05 0.00000E+00
 -1       779-1.80540E-05 7.79964E-05 5.29396E-23
 -1       780-1.71847E-05 7.15294E-05-2.64698E-23
 -1       781-1.55285E-05 6.29240E-05 0.00000E+00
 -1       782-1.32158E-05 5.25233E-05 0.00000E+00
 -1       783-1.03761E-05 4.06752E-05 0.00000E+00
 -1       784-7.14009E-06 2.77336E-05-2.64698E-23
 -1       785-3.63755E-06 1.40554E-05-5.29396E-23
 -1       786 1.93164E-04 3.21861E-05 0.00000E+00
 -1       787 1.93207E-04 2.99988E-05-4.13590E-25
 -1       788 1.93250E-04 2.78526E-05 0.00000E+00
 -1       789 1.93294E-04 2.57394E-05 8.27181E-25
 -1       790 1.93337E-04 2.36544E-05 0.00000E+00
 -1       791 1.93381E-04 2.15931E-05 0.00000E+00
 -1       792 1.93425E-04 1.95532E-05-1.65436E-24
 -1       793 1.93469E-04 1.75326E-05 8.27181E-25
 -1       794 1.93513E-04 1.55313E-05 1.65436E-24
 -1       795 1.93557E-04 1.35491E-05-8.27181E-25
 -1       796 1.93601E-04 1.15881E-05 0.00000E+00
 -1       797 1.93645E-04 9.65023E-06-8.27181E-25
 -1       798 1.93689E-04 7.73987E-06 0.00000E+00
 -1       799 1.93734E-04 5.86154E-06 0.00000E+00
 -1       800 1.93778E-04 4.02304E-06 0.00000E+00
 -1       801 1.47516E-04 3.09420E-05-2.64698E-23
 -1       802 9.61098E-06 1.93108E-05 0.00000E+00
 -1       803-1.08208E-04 9.75933E-06 5.29396E-23
 -1       804-9.59599E-05 6.79110E-06 2.64698E-23
 -1       805-3.17025E-05 2.67178E-06 0.00000E+00
 -1       806 1.93849E-04 3.21170E-05 1.65436E-24
 -1       807 1.94559E-04 2.98367E-05 0.00000E+00
 -1       808 1.95256E-04 2.75871E-05 0.00000E+00
 -1       809 1.95940E-04 2.53724E-05 0.00000E+00
 -1       810 1.96610E-04 2.31968E-05 0.00000E+00
 -1       811 1.97263E-04 2.10641E-05 0.00000E+00
 -1       812 1.97899E-04 1.89786E-05 3.30872E-24
 -1       813 1.98516E-04 1.69442E-05 0.00000E+00
 -1       814 1.99112E-04 1.49649E-05 3.30872E-24
 -1       815 1.99686E-04 1.30448E-05-8.27181E-25
 -1       816 2.00237E-04 1.11878E-05 0.00000E+00
 -1       817 2.00763E-04 9.39784E-06-8.27181E-25
 -1       818 2.01262E-04 7.67901E-06-1.65436E-24
 -1       819 2.01733E-04 6.03526E-06 1.65436E-24
 -1       820 2.02175E-04 4.47049E-06-1.65436E-24
 -1       821 1.93694E-04-1.24438E-07 0.00000E+00
 -1       822 1.93553E-04-3.65542E-06-1.65436E-24
 -1       823 1.93411E-04-7.92626E-06-3.30872E-24
 -1       824 1.93265E-04-1.24979E-05 0.00000E+00
 -1       825 1.93121E-04-1.68501E-05 0.00000E+00
 -1       826 1.92979E-04-2.04636E-05 1.65436E-24
 -1       827 1.92840E-04-2.30206E-05 0.00000E+00
 -1       828 1.92704E-04-2.42099E-05-1.65436E-24
 -1       829 1.92568E-04-2.40927E-05 0.00000E+00
 -1       830 1.92431E-04-2.27382E-05 0.00000E+00
 -1       831 1.92293E-04-2.05527E-05 3.30872E-24
 -1       832 1.92155E-04-1.79477E-05 0.00000E+00
 -1       833 1.92016E-04-1.54489E-05 3.30872E-24
 -1       834 1.91881E-04-1.35816E-05 0.00000E+00
 -1       835 1.91746E-04-1.26992E-05 8.27181E-25
 -1       836 1.95497E-04 2.35772E-06 0.00000E+00
 -1       837 1.97043E-04 2.48629E-06-1.65436E-24
 -1       838 1.98493E-04 2.61480E-06 0.00000E+00
 -1       839 1.99880E-04 2.74260E-06 8.27181E-25
 -1       840 2.01234E-04 2.87025E-06 0.00000E+00
 -1       856 1.91604E-04-1.41953E-05 8.27181E-25
 -1       857 1.91585E-04-1.51055E-05 0.00000E+00
 -1       858 1.91566E-04-1.59010E-05 0.00000E+00
 -1       859 1.91546E-04-1.66031E-05 0.00000E+00
 -1       860 1.91527E-04-1.72329E-05-4.13590E-25
 -1       861 1.91507E-04-1.78117E-05-2.06795E-25
 -1       862 1.91488E-04-1.83608E-05 0.00000E+00
 -1       863 1.91468E-04-1.89015E-05-2.06795E-25
 -1       864 1.91449E-04-1.94552E-05 0.00000E+00
 -1       865 1.91429E-04-2.00431E-05 0.00000E+00
 -1       866 1.91410E-04-2.06866E-05 0.00000E+00
 -1       867 1.91390E-04-2.14069E-05 0.00000E+00
 -1       868 1.91370E-04-2.22253E-05 8.27181E-25
 -1       869 1.91350E-04-2.31628E-05-4.13590E-25
 -1       870 1.91330E-04-2.42404E-05 0.00000E+00
 -1       871 1.92953E-04-1.31544E-05-8.27181E-25
 -1       872 1.94434E-04-1.31628E-05 0.00000E+00
 -1       873 1.95995E-04-1.31719E-05-4.13590E-25
 -1       874 1.97567E-04-1.31817E-05-2.58494E-26
 -1       875 1.99081E-04-1.31921E-05 1.24077E-24
 -1       876 1.92139E-04-1.41807E-05 0.00000E+00
 -1       877 1.92636E-04-1.51451E-05 0.00000E+00
 -1       878 1.93112E-04-1.60507E-05 0.00000E+00
 -1       879 1.93568E-04-1.69047E-05 0.00000E+00
 -1       880 1.94008E-04-1.77147E-05 0.00000E+00
 -1       881 1.94434E-04-1.84880E-05-1.65436E-24
 -1       882 1.94850E-04-1.92320E-05 3.30872E-24
 -1       883 1.95257E-04-1.99540E-05 0.00000E+00
 -1       884 1.95659E-04-2.06613E-05 0.00000E+00
 -1       885 1.96058E-04-2.13613E-05 1.65436E-24
 -1       886 1.96457E-04-2.20613E-05 3.30872E-24
 -1       887 1.96858E-04-2.27686E-05 0.00000E+00
 -1       888 1.97265E-04-2.34907E-05 3.30872E-24
 -1       889 1.97680E-04-2.42351E-05 1.65436E-24
 -1       890 1.98104E-04-2.50089E-05 0.00000E+00
 -1       891 1.92655E-04-2.55367E-05 1.65436E-24
 -1       892 1.93978E-04-2.55944E-05 8.27181E-25
 -1       893 1.95253E-04-2.56520E-05 8.27181E-25
 -1       894 1.96455E-04-2.57093E-05 8.27181E-25
 -1       895 1.97557E-04-2.57663E-05-8.27181E-25
 -1       956 2.02458E-04 1.68241E-06 1.65436E-24
 -1       957 2.02326E-04 4.68374E-07 0.00000E+00
 -1       958 2.02193E-04-6.64304E-07 3.30872E-24
 -1       959 2.02060E-04-1.72703E-06 0.00000E+00
 -1       960 2.01927E-04-2.73126E-06 3.30872E-24
 -1       961 2.01794E-04-3.68848E-06 0.00000E+00
 -1       962 2.01661E-04-4.61018E-06 3.30872E-24
 -1       963 2.01529E-04-5.50789E-06 0.00000E+00
 -1       964 2.01396E-04-6.39310E-06 0.00000E+00
 -1       965 2.01263E-04-7.27734E-06 0.00000E+00
 -1       966 2.01130E-04-8.17212E-06 0.00000E+00
 -1       967 2.00997E-04-9.08896E-06 1.65436E-24
 -1       968 2.00865E-04-1.00393E-05 0.00000E+00
 -1       969 2.00732E-04-1.10348E-05 0.00000E+00
 -1       970 2.00600E-04-1.20866E-05-3.30872E-24
 -1       971 2.00349E-04-1.43254E-05-3.30872E-24
 -1       972 2.00228E-04-1.53504E-05-1.65436E-24
 -1       973 2.00107E-04-1.62915E-05 0.00000E+00
 -1       974 1.99985E-04-1.71594E-05 0.00000E+00
 -1       975 1.99864E-04-1.79650E-05 3.30872E-24
 -1       976 1.99742E-04-1.87191E-05-1.65436E-24
 -1       977 1.99621E-04-1.94326E-05 0.00000E+00
 -1       978 1.99500E-04-2.01163E-05 0.00000E+00
 -1       979 1.99378E-04-2.07812E-05-3.30872E-24
 -1       980 1.99257E-04-2.14382E-05-1.65436E-24
 -1       981 1.99136E-04-2.20980E-05 0.00000E+00
 -1       982 1.99014E-04-2.27717E-05 1.65436E-24
 -1       983 1.98893E-04-2.34700E-05 3.30872E-24
 -1       984 1.98773E-04-2.42039E-05 0.00000E+00
 -1       985 1.98653E-04-2.49842E-05-3.30872E-24
 -3
    1PSTEP                        30          15           1          
  100CL  115 6.62659E-01         409                     0   15           1
 -4  STRESS      6    1
 -5  SXX         1    4    1    1
 -5  SYY         1    4    2    2
 -5  SZZ         1    4    3    3
 -5  SXY         1    4    1    2
 -5  SYZ         1    4    2    3
 -5  SZX         1    4    3    1
 -1         1-5.26606E+06-1.67082E+06-1.12678E+06-1.46929E+06 1.12050E-09-5.64614E-09
 -1         2 1.23229E+06 1.81524E+07 4.32498E+06 5.45080E+06 2.63099E-08 2.19661E-08
 -1         3-1.47944E+03-1.57525E+06 4.08700E+02-2.22923E+03-6.05624E-10 5.68980E-09
 -1         5-7.26871E+01 3.85722E+05 9.86800E+00-1.31472E+00-5.50790E-10 6.02777E-08
 -1         8-6.07925E+05-2.13261E+05-7.03751E+04-2.56469E+05-1.04592E-10-1.50663E-07
 -1         9 1.14175E+07 3.15838E+06 2.60320E+06-4.84323E+05-6.90343E-09 5.30854E-08
 -1        10-2.30320E+03-1.64154E+06-3.97488E+03-1.50808E+04-1.37552E-08-2.27957E-08
 -1        12-6.88087E+01 3.85743E+05 3.24270E+02-8.97135E+00-8.08043E-10 9.59062E-09
 -1        15 9.83476E+02 5.40469E+02 3.17906E+03 9.60930E-01-3.13946E-10 1.85509E-07
 -1        16 2.25881E+07-2.93928E+05 3.08650E+06-2.15463E+06 3.19754E-08 3.85645E-07
 -1        17 8.25441E+06 6.17732E+06 2.23062E+06 5.92127E+06 2.41504E-08 2.52388E-08
 -1        18 1.41735E+05 3.30815E+04 3.94590E+03-1.19515E+05 1.37825E-08 2.20807E-08
 -1        19 1.23076E+05 1.41839E+05-9.20862E+02 2.20224E+04 1.60853E-09-1.86010E-09
 -1        20-8.24062E+04-5.74434E+05-1.28923E+05 2.49681E+04-2.69741E-09-1.22066E-08
 -1        21-4.55692E+01-2.95876E+05-9.23219E+02 2.71600E+02 1.35458E-08-3.04001E-08
 -1        24 1.37632E+07 1.18584E+07 3.81676E+06 1.09859E+07-1.65969E-07-5.19600E-08
 -1        25 1.23382E+05 2.59553E+05 9.82025E+04-6.41340E+05 1.48948E-09 1.93451E-08
 -1        26-5.49080E+04 9.27647E+04-2.45258E+04 1.22712E+03-5.78439E-11 1.30219E-08
 -1        27-7.55264E+04-3.10311E+05-1.13382E+05 6.90132E+04 3.82594E-09 3.94387E-09
 -1        28 2.22333E+04-8.53454E+04 1.68938E+04 2.05408E+04-1.98898E-09 5.56397E-09
 -1        32-1.67915E+06-3.17267E+06-1.96078E+05 4.49318E+05-4.17131E-08-1.53796E-08
 -1        33-1.78431E+05 9.32782E+04 3.24462E+04-3.86671E+04-3.13882E-09-4.56233E-09
 -1        34-2.23695E+05-2.51051E+04 6.91692E+02 7.57955E+04-5.72754E-09 9.00855E-10
 -1        35-2.29224E+04-3.38408E+04-1.34862E+03 5.14740E+04-3.14919E-09 1.37152E-09
 -1        51 5.94855E+04-1.78759E+05 1.26086E+05-4.67392E+05 1.89175E-10 1.18707E-07
 -1        52 2.02794E+04-1.56919E+05 6.63639E+04-5.45074E+05 4.91127E-10-2.24129E-07
 -1        53 4.30730E+03-1.72325E+05 3.48928E+04-4.65764E+05 4.43833E-10 1.67980E-07
 -1        54 7.91927E+03-1.68148E+05 2.93407E+04-5.46688E+05-1.20053E-10 3.39211E-07
 -1        55 1.71904E+04-1.75517E+05 3.64753E+04-4.65642E+05 4.51109E-10 5.83459E-08
 -1        56-9.62723E+06-1.25090E+06-8.69169E+05-3.93893E+06-1.28057E-09-7.70960E-08
 -1        57-1.07084E+07-1.09360E+06-5.53904E+05-2.93803E+06 3.54739E-08 2.11701E-07
 -1        58-9.57674E+06-1.65682E+06-1.97133E+05-4.05582E+06-4.41214E-08 6.84959E-08
 -1        59-1.07183E+07-6.45491E+05-1.12150E+05-2.89536E+06-8.32188E-09-3.06665E-07
 -1        60-9.65115E+06-1.66461E+06-5.17611E+04-4.01338E+06 2.10057E-08-1.95494E-07
 -1        61-1.03057E+07-8.64262E+05-4.92264E+03-3.10887E+06 6.45377E-09-8.18181E-08
 -1        62-9.92021E+06-1.48399E+06-4.40054E+04-3.78953E+06 3.75658E-08-7.11225E-08
 -1        63-9.72779E+06-1.34785E+06 2.16316E+04-3.61542E+06-2.94094E-08 1.40226E-08
 -1        64-1.01781E+07-1.21698E+06-4.02289E+04-3.47343E+06 2.04382E-08-7.65685E-08
 -1        65-9.41516E+06-1.77764E+06-5.61469E+03-4.21279E+06-5.57957E-08-2.93452E-07
 -1        66-1.02952E+07-1.01102E+06-4.39823E+04-3.23857E+06-4.30373E-09 4.65188E-08
 -1        67-9.37780E+06-1.98117E+06-1.01189E+05-4.48780E+06-5.71899E-08-1.57959E-07
 -1        68-1.02766E+07-9.71679E+05-1.80533E+05-3.23793E+06-5.05447E-08 5.95464E-08
 -1        69-9.60304E+06-2.11737E+06-4.95842E+05-4.17985E+06-2.29946E-08 1.56026E-07
 -1        70-1.00168E+07-9.22743E+05-7.91733E+05-3.50773E+06-1.37225E-08 1.64728E-08
 -1        86-1.25600E+06-1.37263E+07-2.36400E+06-2.57146E+06-2.48829E-07-1.59998E-07
 -1        87 1.93317E+06 4.98932E+06 1.96730E+06 4.94666E+06-4.19634E-07-2.55888E-07
 -1        88-3.43083E+05-2.16148E+06 1.80349E+05-2.31238E+06-3.91121E-07-6.86250E-08
 -1        89 2.59378E+06 4.76234E+06 2.01156E+06 5.09754E+06-5.39796E-07-1.30925E-07
 -1        90-1.84531E+06-1.35590E+07-2.56203E+06-2.74238E+06-1.33827E-07 7.65431E-09
 -1       121-2.02740E+03-1.58013E+06-5.38187E+02 1.10506E+03 1.50216E-09 1.57015E-08
 -1       122-1.29202E+03-1.57531E+06 7.76700E+02-4.46207E+03-5.29359E-09-4.26371E-09
 -1       123-2.04779E+03-1.58026E+06 2.79405E+02 3.30014E+03 4.46960E-09 1.77897E-08
 -1       124 3.60992E+02-1.57486E+06 2.98210E+03-9.33095E+03-1.07179E-08 1.24783E-08
 -1       125-2.86630E+03-1.58117E+06 3.51697E+03 5.92852E+03 6.41558E-09-1.68839E-08
 -1       191-7.66063E+01 3.85741E+05 8.47755E+00 6.84656E-01-5.33963E-10 2.58660E-08
 -1       192-7.36386E+01 3.85723E+05 2.10539E+01-4.22296E+00-7.76797E-10 7.27414E-09
 -1       193-7.91116E+01 3.85741E+05 3.59276E+01 3.70549E+00-1.07905E-09 1.44664E-08
 -1       194-7.66896E+01 3.85726E+05 8.00271E+01-9.58471E+00-5.74154E-10 1.07475E-08
 -1       195-8.39203E+01 3.85738E+05 1.53297E+02 6.23042E+00-1.52842E-09 9.80799E-09
 -1       251-9.66613E+05 1.90199E+04-4.46246E+04-1.63583E+04 2.38009E-09 1.37055E-07
 -1       252-9.84585E+05-2.19413E+04-3.12188E+04 5.56925E+04-3.71506E-09 6.50907E-08
 -1       253-9.75221E+05 2.97624E+03-1.17626E+04-1.39760E+04-7.89225E-09-6.81016E-08
 -1       254-9.70296E+05-3.45507E+03-5.88731E+03 4.27894E+04 1.89613E-08-7.26326E-08
 -1       255-9.80328E+05 1.64157E+02-3.92442E+03-3.45636E+03-5.18958E-09-8.42305E-08
 -1       256-9.63126E+05-3.63048E+02 9.46967E+02 1.73976E+04 1.75605E-08-6.34635E-08
 -1       257-9.81803E+05-5.56618E+02-1.66970E+03 1.14058E+04-5.65160E-09 1.08745E-07
 -1       258-9.64964E+05 8.27356E+02 2.76912E+03-1.12222E+04-1.61924E-09 4.07512E-07
 -1       259-9.78648E+05-9.01541E+02 1.04325E+03 2.51580E+04-4.90127E-09 1.53563E-07
 -1       260-9.71977E+05 2.77175E+03 5.26325E+03-3.26270E+04-1.19451E-09-3.67721E-08
 -1       261-9.75481E+05-1.96381E+03 7.92409E+03 3.28255E+04 1.82663E-08-2.35842E-07
 -1       262-9.71509E+05 1.09402E+04 1.97668E+04-3.91401E+04-2.48245E-08-3.90050E-07
 -1       263-9.79416E+05-8.80410E+03 3.12349E+04 3.16813E+04-4.80622E-09 1.53161E-07
 -1       264-9.42529E+05 6.16647E+04 8.67969E+04-2.83678E+04 2.00819E-08-3.47609E-08
 -1       265-1.00391E+06-5.28821E+04 1.20345E+05 2.20402E+04 1.55887E-09 1.15084E-07
 -1       266-1.78044E+04-8.32610E+03 4.17706E+04-2.05595E+01 3.41970E-10 1.54007E-08
 -1       267 2.06400E+04 9.70307E+03 2.95247E+04 2.37233E+01 2.38288E-10 1.43538E-07
 -1       268-2.76779E+03-1.37429E+03 1.09741E+04-3.02266E+00 4.45652E-11 1.80380E-07
 -1       269 3.26793E+03 1.64466E+03 7.13307E+03 3.52106E+00 3.67208E-11 1.39293E-07
 -1       270-4.90521E+02-2.70233E+02 3.44323E+03-4.77828E-01-1.27329E-11 1.61254E-07
 -1       271-1.57160E+06-1.97808E+05-1.17816E+05-6.09882E+05-3.61779E-08-4.07308E-08
 -1       272-1.58228E+06-3.06601E+05-7.45623E+04-6.36778E+05 4.91127E-08 5.80767E-08
 -1       273-1.59604E+06-2.23834E+05-2.83568E+04-6.01931E+05 5.34055E-09 3.05388E-07
 -1       274-1.55373E+06-2.75470E+05-1.50821E+04-6.51124E+05 3.62634E-08 3.09420E-07
 -1       275-1.60155E+06-2.24015E+05-6.94520E+03-5.98342E+05-9.70249E-09 8.36126E-08
 -1       276-1.54750E+06-2.75961E+05-3.11756E+03-6.58890E+05-1.57115E-08 1.37452E-07
 -1       277-1.60424E+06-2.21699E+05-1.89572E+03-5.95730E+05-5.14374E-08 7.55263E-08
 -1       278-1.54489E+06-2.79092E+05-8.39009E+02-6.64642E+05 7.65112E-08-1.54138E-07
 -1       279-1.60597E+06-2.19712E+05-9.68180E+02-5.93852E+05-5.50590E-08-4.93947E-08
 -1       280-1.54356E+06-2.81592E+05-1.24269E+03-6.68549E+05 4.47239E-08 1.71699E-07
 -1       281-1.60692E+06-2.18356E+05-2.28903E+03-5.92738E+05-6.24277E-09 1.87613E-07
 -1       282-1.54391E+06-2.84229E+05-5.34446E+03-6.70308E+05 4.23915E-08 3.63259E-07
 -1       283-1.60634E+06-2.16763E+05-9.50480E+03-5.92524E+05-1.21943E-08 2.52410E-07
 -1       284-1.55228E+06-2.97035E+05-2.59104E+04-6.68175E+05-3.43187E-08 1.99158E-07
 -1       285-1.59870E+06-2.06871E+05-4.03456E+04-5.94386E+05-4.36194E-09 2.79890E-07
 -1       301-1.55672E+03-6.29732E+05 1.67945E+05-1.10052E+06 7.42148E-10 1.08208E-07
 -1       302-2.04557E+03-5.84194E+05 1.01126E+05-1.60704E+06-1.22891E-08 2.81623E-07
 -1       303-1.73672E+04-6.20734E+05 5.76481E+04-1.09758E+06 4.54020E-09 1.51140E-07
 -1       304-1.79883E+04-5.90010E+05 5.89158E+04-1.60634E+06-6.49015E-09 2.43133E-07
 -1       305-2.10138E+04-6.10161E+05 7.36060E+04-1.10068E+06 7.18137E-09-3.97704E-08
 -1       306-2.99916E+07-6.19229E+06-8.56050E+06-5.93576E+05-1.01048E-07 1.36788E-08
 -1       307 2.53404E+07 3.17209E+06 5.49538E+06-1.50212E+07-8.71543E-07-1.00670E-07
 -1       308-7.07662E+06-1.02827E+06-4.78797E+05 5.18066E+06-3.26429E-07 6.54807E-07
 -1       309-3.33559E+06 8.64318E+06 2.25357E+06-2.05533E+07 2.71219E-07 1.24655E-07
 -1       310-1.23917E+07-1.89341E+06-1.97365E+06 5.18316E+06-8.95816E-08-1.49972E-07
 -1       311 3.77336E+07 2.63810E+04 7.17391E+06-8.93076E+06 7.23492E-07-1.67202E-07
 -1       312-3.16884E+07-6.66366E+06-8.43849E+06-4.89444E+06 3.73810E-07 7.74598E-08
 -1       313 4.52256E+07 1.46097E+07 1.05752E+07 2.33925E+07-2.13768E-07 1.72586E-07
 -1       314-1.73019E+07-1.75371E+07-7.47494E+06-1.24734E+07 3.39875E-07 3.04426E-08
 -1       315-1.65220E+06 2.94012E+07 5.64401E+06 1.06835E+07-2.28800E-07-1.97644E-07
 -1       316 1.30985E+06-9.83488E+06-4.59323E+05-2.62511E+06-1.13498E-06-2.35857E-07
 -1       317-1.71567E+07 2.22893E+07 2.21082E+06-8.61254E+06 7.59406E-07-6.25703E-07
 -1       318-1.06376E+06-1.26185E+07-1.99237E+06-4.25047E+06-9.31788E-07 2.07860E-07
 -1       319 7.02337E+06 3.15252E+07 6.94250E+06 1.64066E+07-4.88653E-08 2.51835E-07
 -1       320-2.24304E+07-1.74487E+07-9.74987E+06-1.27045E+07 1.76020E-07-4.01924E-08
 -1       336-7.12549E+02-1.71055E+06-1.39428E+04 8.98443E+03-2.60970E-08-1.21508E-09
 -1       337-5.43022E+03-1.71018E+06-1.81971E+04-2.18082E+04-4.76309E-08 2.94822E-08
 -1       338 3.07741E+02-1.71004E+06-2.86234E+04 1.25756E+04-3.41897E-08-4.43470E-09
 -1       339-3.03692E+04-1.72751E+06-6.47160E+04-2.88386E+04-6.26342E-08 2.87910E-08
 -1       340 2.00441E+04-1.69541E+06-1.01920E+05 1.58845E+04-4.18404E-08 4.21169E-08
 -1       406-4.72749E+01 3.85724E+05 6.36789E+02 3.26660E+00-2.00959E-09 2.74667E-09
 -1       407 1.54783E+02 3.85856E+05 1.36067E+03 2.30244E+01-4.89891E-10 2.81634E-08
 -1       408 6.29349E+02 3.85624E+05 2.71317E+03-2.66172E+01-2.52794E-09-4.49290E-10
 -1       409 2.87486E+03 3.86722E+05 6.11506E+03 2.84033E+02-5.10227E-10-3.01552E-08
 -1       410 8.38303E+03 3.84844E+05 1.24807E+04-2.73709E+02-2.99951E-09-8.07995E-09
 -1       521-3.14937E+07-7.62545E+06-9.98038E+06-2.07891E+05-8.32370E-08 4.25498E-08
 -1       522 2.61473E+07 4.15081E+06 5.58917E+06-1.84761E+07-5.41215E-07-4.88973E-07
 -1       523-7.66372E+06-1.33503E+06-4.71542E+05 5.62054E+06 1.49012E-08-8.10833E-08
 -1       524-6.81679E+06 1.16322E+07 2.43201E+06-2.35759E+07 6.60977E-07-3.67581E-08
 -1       525-1.31939E+07-2.50766E+06-2.16523E+06 5.62250E+06 5.60482E-07-2.68104E-07
 -1       526 4.10817E+07-5.59909E+04 7.51715E+06-1.15615E+07 3.24741E-07-1.71363E-07
 -1       527-3.34819E+07-8.33077E+06-9.70701E+06-4.75212E+06 3.58210E-07-1.13432E-07
 -1       528 4.93034E+07 1.62152E+07 1.10110E+07 2.65361E+07 1.22993E-07-2.43192E-07
 -1       529-1.82357E+07-1.96908E+07-8.55361E+06-1.25004E+07-1.48080E-07-2.79397E-09
 -1       530-4.12010E+06 3.40840E+07 5.96074E+06 1.01928E+07-3.54485E-08 2.62284E-07
 -1       531 1.29679E+06-1.09040E+07-4.34581E+05-2.59545E+06-7.88175E-07 3.10305E-07
 -1       532-1.97174E+07 2.42942E+07 2.41049E+06-1.28101E+07 6.39717E-07-6.80986E-07
 -1       533-1.11163E+06-1.37480E+07-2.11431E+06-4.08224E+06-3.22674E-07-9.27132E-07
 -1       534 4.99589E+06 3.65057E+07 7.21139E+06 1.69442E+07-3.04426E-08 7.49424E-07
 -1       535-2.35787E+07-1.97825E+07-1.11543E+07-1.27614E+07 1.05007E-07 4.38245E-07
 -1       536-7.04290E+05-4.69388E+04-4.67421E+04-5.44191E+04-1.63664E-09 5.21559E-08
 -1       537-5.66701E+04 4.49653E+04 8.41954E+04 1.23343E+05-1.14398E-07 1.10555E-07
 -1       538-3.94364E+05 3.24956E+03 3.82168E+03-7.19514E+04 3.64763E-08 1.02986E-07
 -1       539-2.69746E+05 2.90981E+03 2.49341E+04 1.38222E+05 1.52630E-07 1.00693E-07
 -1       540-4.96560E+05-4.26109E+02-2.11038E+04-6.98280E+04 2.38992E-08 1.05827E-07
 -1       541 1.43361E+05 1.68729E+04 1.05759E+05 9.74991E+04-6.84076E-09 6.28597E-08
 -1       542-7.96340E+05-2.00151E+04-8.37006E+04-3.03615E+04 3.01397E-08 2.92715E-08
 -1       543 4.00474E+05 2.71606E+04 1.56999E+05-1.33141E+04-9.40508E-09-5.69935E-09
 -1       544-7.46778E+05-1.64326E+04-7.43683E+04 4.03219E+04-2.10725E-08-2.78827E-08
 -1       545 2.63624E+04 9.41321E+03 7.92916E+04-1.13164E+05 2.53976E-09-9.27644E-08
 -1       546-4.32274E+05 6.06860E+03-1.21614E+04 6.91457E+04 3.24517E-08-1.01685E-07
 -1       547-2.87756E+05-4.66310E+03 1.04642E+04-1.41067E+05-1.48393E-07-9.69670E-08
 -1       548-4.41104E+05 4.71357E+03-2.38100E+04 6.89094E+04-1.18820E-07-1.08654E-07
 -1       549 4.54848E+04 1.58258E+04 5.99471E+04-1.11014E+05-6.84242E-08-6.16487E-08
 -1       550-7.56597E+05-2.18813E+04-1.28469E+05 3.83832E+04 2.73121E-09-4.43688E-08
 -1       551 4.07475E+04-7.56704E+05-1.52570E+04-1.24688E+06-1.02576E-07-6.05360E-09
 -1       552 9.30386E+04-8.01425E+05 1.03202E+04-1.77796E+06-7.15372E-08 5.77929E-08
 -1       553 7.15365E+04-7.97906E+05 3.23573E+04-1.24025E+06-1.18482E-07 3.69910E-08
 -1       554 1.31752E+05-8.17103E+05 8.15126E+04-1.77991E+06-7.87404E-08 2.01762E-08
 -1       555 1.01302E+05-8.21504E+05 1.48763E+05-1.24010E+06-1.23437E-07-8.19819E-09
 -1       556 2.22728E+05-3.82143E+05 2.69769E+04-4.06308E+05-2.69210E-08-1.21363E-08
 -1       557 3.53102E+05-4.86272E+05 1.67649E+04-5.26227E+05-2.32831E-09 2.72375E-08
 -1       558 2.04693E+05-3.75221E+05 2.61557E+03-4.10538E+05-1.68220E-08 2.19006E-08
 -1       559 3.28091E+05-4.86529E+05 2.57545E+03-5.46554E+05 3.56231E-08 2.30502E-08
 -1       560 1.89494E+05-3.65688E+05-1.42410E+03-4.21487E+05 1.44937E-08-3.85626E-10
 -1       561 3.08976E+05-4.78889E+05 1.63545E+02-5.59581E+05-1.40280E-08-2.23554E-08
 -1       562 1.77474E+05-3.58218E+05-1.30027E+03-4.30190E+05-8.73115E-10-2.45200E-09
 -1       563 2.94698E+05-4.72664E+05-2.80612E+01-5.68906E+05-3.85626E-09-1.42209E-08
 -1       564 1.68898E+05-3.52875E+05-5.91318E+02-4.36268E+05 6.79574E-09 1.19417E-09
 -1       565 2.85233E+05-4.68542E+05 2.69424E+01-5.74953E+05 4.70027E-09 2.05910E-08
 -1       566 1.63888E+05-3.49705E+05-2.54942E+02-4.39772E+05-6.47560E-09-2.99406E-09
 -1       567 2.80639E+05-4.66544E+05-3.55766E+02-5.77743E+05 1.92376E-08 1.85901E-09
 -1       568 1.62535E+05-3.48876E+05-1.11077E+03-4.40814E+05-7.19774E-09-5.29326E-09
 -1       569 2.79536E+05-4.66467E+05-2.80706E+03-5.76309E+05-1.92967E-08 2.83762E-09
 -1       570 1.65925E+05-3.52094E+05-6.14299E+03-4.39803E+05 2.40107E-09-4.73847E-09
 -1       571 2.93802E+05 1.06133E+04 1.53201E+04-9.50903E+04 7.96263E-09-5.25324E-09
 -1       572 2.96040E+05 3.97429E+03 7.51452E+03-1.04512E+05 1.81913E-08 8.73115E-10
 -1       573 2.94692E+05 1.23138E+03 3.34056E+03-9.49101E+04 8.15908E-09-6.55746E-10
 -1       574 2.94910E+05 7.19804E+02 1.67653E+03-1.04740E+05 6.03472E-09-8.68840E-09
 -1       575 2.94787E+05 4.42918E+02 7.92248E+02-9.48857E+04 5.97367E-10-6.08725E-09
 -1       576 2.94771E+05 4.57418E+02 4.06045E+02-1.04770E+05-5.46606E-09 2.70666E-09
 -1       577 2.94827E+05 3.88039E+02 2.03353E+02-9.48824E+04 1.71622E-09-2.10166E-08
 -1       578 2.94801E+05 4.20452E+02 1.18463E+02-1.04775E+05 1.94123E-08 4.45652E-10
 -1       579 2.94899E+05 3.51404E+02 8.31548E+01-9.48820E+04 2.23172E-08 1.06820E-08
 -1       580 2.94904E+05 3.68920E+02 9.89367E+01-1.04770E+05-4.01906E-09 2.22108E-08
 -1       581 2.95014E+05 2.92125E+02 1.52077E+02-9.48877E+04 3.90901E-09-5.10681E-09
 -1       582 2.95084E+05 3.33337E+02 3.10024E+02-1.04709E+05-2.07001E-09 1.86519E-08
 -1       583 2.95154E+05 3.43289E+02 5.96713E+02-9.49442E+04-4.22733E-09 2.77139E-08
 -1       584 2.95483E+05 8.24825E+02 1.34954E+03-1.04229E+05 4.82214E-09 5.16957E-09
 -1       585 2.95164E+05 1.95678E+03 2.73232E+03-9.53668E+04-1.33696E-09 2.21808E-08
 -1       586-3.48103E+03 1.16093E+05-3.01233E+03-2.50679E+05-9.38780E-09 4.88285E-09
 -1       587-1.35452E+03 1.15829E+05 7.20554E+02-2.75891E+05-1.15269E-08-1.63417E-08
 -1       588 3.97052E+02 1.15646E+05 4.72876E+03-2.50541E+05-5.71163E-09-9.59972E-09
 -1       589 5.07890E+03 1.18113E+05 1.23105E+04-2.75657E+05-7.46877E-09-1.20099E-08
 -1       590 1.65820E+04 1.14316E+05 2.58415E+04-2.50973E+05-2.16369E-09 1.26529E-08
 -1       591-7.57198E+04-1.61796E+04-2.26243E+04-3.23580E+04-1.72645E-09-2.42471E-09
 -1       592-7.97895E+04-1.97889E+04-1.22551E+04-3.60409E+04 1.33031E-09-5.31668E-09
 -1       593-7.79831E+04-1.45372E+04-5.10120E+03-3.40162E+04 4.08058E-09-2.92857E-09
 -1       594-7.66650E+04-1.64698E+04-2.54409E+03-3.61601E+04-4.93489E-09-2.11830E-09
 -1       595-7.81557E+04-1.45317E+04-1.16801E+03-3.40916E+04 3.44479E-09 1.40410E-08
 -1       596-7.64512E+04-1.63180E+04-5.93572E+02-3.61348E+04 1.75201E-08 8.28911E-09
 -1       597-7.81774E+04-1.45472E+04-3.22821E+02-3.40944E+04 9.64059E-09 7.00396E-09
 -1       598-7.64301E+04-1.63120E+04-2.58787E+02-3.61277E+04-1.71440E-09-6.73009E-09
 -1       599-7.81761E+04-1.45477E+04-3.29669E+02-3.40941E+04 4.44481E-09-1.31338E-08
 -1       600-7.64512E+04-1.63186E+04-6.11697E+02-3.61326E+04 5.80803E-09-2.10963E-09
 -1       601-7.81513E+04-1.45331E+04-1.20638E+03-3.40905E+04 4.72210E-09-1.32088E-08
 -1       602-7.66720E+04-1.64742E+04-2.62898E+03-3.61549E+04 1.25851E-10-1.86354E-08
 -1       603-7.79702E+04-1.45417E+04-5.27209E+03-3.40135E+04 8.59700E-10-5.02723E-09
 -1       604-7.99184E+04-1.98852E+04-1.26648E+04-3.60072E+04-4.69299E-10 4.66207E-09
 -1       605-7.56113E+04-1.62565E+04-2.33807E+04-3.23190E+04 4.02684E-09 1.96633E-08
 -1       606 2.65768E+04-1.43779E+04-2.57781E+04 2.38055E+04 4.07636E-09-5.12546E-09
 -1       607 2.21720E+04-4.69441E+03-1.28374E+04 2.67522E+04 9.34961E-10 1.65187E-09
 -1       608 2.46829E+04-8.45435E+02-5.74684E+03 2.36380E+04-1.05556E-08-2.49133E-09
 -1       609 2.42017E+04-2.88464E+02-2.90317E+03 2.69646E+04-1.62163E-08 5.27552E-09
 -1       610 2.44690E+04-3.96019E+01-1.38510E+03 2.36181E+04-5.09044E-09 1.21308E-08
 -1       611 2.43935E+04-3.98695E+01-6.98367E+02 2.69876E+04 1.05028E-08-4.70459E-09
 -1       612 2.44222E+04-2.60858E+01-3.31963E+02 2.36161E+04 3.74257E-09-1.58911E-09
 -1       613 2.44055E+04-3.59868E+01-1.48732E+02 2.69902E+04 3.64889E-09-1.10310E-08
 -1       614 2.44002E+04-3.27219E+01-3.47774E+01 2.36154E+04-3.81988E-10-3.41151E-09
 -1       615 2.44005E+04-3.46657E+01 6.25500E+01 2.69907E+04-4.11683E-09 8.07677E-09
 -1       616 2.43830E+04-2.97318E+01 1.87377E+02 2.36156E+04 1.40517E-10 6.22322E-10
 -1       617 2.44233E+04 5.13453E+00 4.27417E+02 2.69902E+04 3.20415E-09-2.59183E-09
 -1       618 2.43460E+04 9.33844E+01 8.61503E+02 2.36159E+04-4.13365E-10-4.38672E-09
 -1       619 2.47275E+04 6.71171E+02 1.93455E+03 2.69896E+04-2.41062E-09-2.74877E-08
 -1       620 2.40600E+04 2.13618E+03 3.88839E+03 2.36175E+04-2.25464E-09-1.23932E-08
 -1       621 5.17050E+02 3.02737E+05 3.94214E+03 4.14083E+04 1.15233E-09 7.87441E-09
 -1       622 6.84326E+02 3.03648E+05 3.48710E+03 6.01176E+04 1.31513E-09-4.31282E-09
 -1       623 1.42761E+02 3.02935E+05 4.17564E+03 4.12206E+04 1.21986E-09 1.65146E-08
 -1       624 2.13868E+03 3.04868E+05 8.08292E+03 6.03027E+04 1.47429E-09 3.61138E-09
 -1       625 2.08970E+03 3.01333E+05 1.41189E+04 4.12171E+04 1.32968E-09 2.07772E-08
 -1       626 2.61232E+05 6.13213E+04 5.07500E+03 1.26720E+05 2.03909E-09 8.25730E-09
 -1       627 2.58923E+05 6.27172E+04 2.44560E+03 1.30968E+05 6.24323E-09-4.63729E-10
 -1       628 2.61358E+05 5.89994E+04 1.03434E+03 1.27583E+05-4.25462E-09-1.07782E-08
 -1       629 2.58293E+05 6.20429E+04 5.06279E+02 1.31206E+05-7.00493E-09-9.71681E-10
 -1       630 2.61373E+05 5.88871E+04 2.35020E+02 1.27620E+05 2.46928E-10 7.14590E-09
 -1       631 2.58227E+05 6.20171E+04 1.26724E+02 1.31208E+05 5.85487E-09 8.95557E-09
 -1       632 2.61369E+05 5.88909E+04 8.38443E+01 1.27616E+05 6.53654E-09 1.13585E-08
 -1       633 2.58219E+05 6.20188E+04 9.40984E+01 1.31204E+05 3.32079E-09 1.69939E-08
 -1       634 2.61365E+05 5.88880E+04 1.52686E+02 1.27615E+05 1.30257E-09 1.57206E-08
 -1       635 2.58234E+05 6.20171E+04 3.09342E+02 1.31210E+05-5.33038E-09 9.18590E-09
 -1       636 2.61356E+05 5.88821E+04 6.24914E+02 1.27615E+05-1.28928E-08-1.44391E-08
 -1       637 2.58369E+05 6.21142E+04 1.37416E+03 1.31209E+05-4.00382E-09 7.09497E-09
 -1       638 2.61307E+05 5.91856E+04 2.82342E+03 1.27478E+05 2.16278E-09-1.11640E-09
 -1       639 2.59852E+05 6.41771E+04 6.68037E+03 1.30773E+05 9.49603E-09 1.78557E-08
 -1       640 2.61102E+05 6.53452E+04 1.38629E+04 1.24882E+05 8.15407E-09-8.54334E-09
 -1       656 6.66548E+04-1.70609E+06-1.60900E+05-2.52837E+03 5.82077E-11-5.42821E-09
 -1       657-8.81794E+04-1.77880E+06-1.33298E+05 5.15840E+03-7.73070E-11-2.98358E-08
 -1       658 2.12481E+04-1.72674E+06-8.20969E+04-4.61263E+03 6.51880E-10-8.69154E-09
 -1       659-9.53583E+04-1.78221E+06-1.42732E+05 6.89398E+03-1.94086E-09-8.15147E-09
 -1       660 7.38177E+04-1.70269E+06-1.77120E+05-4.26394E+03-2.35013E-09 1.21974E-08
 -1       661 1.57776E+05 1.65031E+04 1.66609E+04 6.16859E+04-1.95587E-09-6.88487E-09
 -1       662 1.67206E+05 2.88308E+04 1.12283E+04 5.79358E+04 1.41199E-10-7.88850E-09
 -1       663 1.61049E+05 2.18482E+04 3.92694E+03 6.07361E+04-1.45178E-09 4.69527E-10
 -1       664 1.63412E+05 2.25802E+04 2.34915E+03 5.90960E+04-3.50337E-09 2.87315E-10
 -1       665 1.61545E+05 2.25782E+04 9.26724E+02 6.05912E+04 1.90937E-09-7.97826E-10
 -1       666 1.62824E+05 2.17454E+04 5.42488E+02 5.92849E+04 7.72820E-09 2.48449E-08
 -1       667 1.61632E+05 2.26612E+04 2.88368E+02 6.05549E+04-6.85219E-10 1.75931E-08
 -1       668 1.62728E+05 2.16858E+04 2.94338E+02 5.93377E+04-6.91603E-09-4.16156E-08
 -1       669 1.61640E+05 2.26362E+04 3.98915E+02 6.05387E+04-5.07683E-09 2.02389E-08
 -1       670 1.62826E+05 2.19024E+04 8.69034E+02 5.93405E+04-1.27243E-08 7.66907E-09
 -1       671 1.61535E+05 2.24491E+04 1.54317E+03 6.05501E+04 9.00556E-10-8.69278E-09
 -1       672 1.63725E+05 2.34036E+04 3.94827E+03 5.91224E+04 8.23657E-09-9.60654E-10
 -1       673 1.60745E+05 2.11730E+04 6.61671E+03 6.07423E+04 2.77373E-09-5.17957E-09
 -1       674 1.70023E+05 3.40339E+04 1.89224E+04 5.72721E+04-2.18586E-09 1.45883E-09
 -1       675 1.55278E+05 1.21165E+04 2.80875E+04 6.22887E+04-3.79760E-09 1.32459E-08
 -1       676 2.40925E+01-2.95798E+05-1.11272E+03-1.35804E+02 1.86449E-09-1.91446E-08
 -1       677-2.94368E+02-2.96068E+05-2.03647E+03 2.71389E+02 1.11295E-08-2.91684E-08
 -1       678 1.97417E+02-2.95607E+05-3.59998E+03-1.35497E+02 1.23396E-09-3.39686E-09
 -1       679-3.60007E+03-2.98241E+05-8.55206E+03 2.70217E+02 8.28709E-09-1.71136E-08
 -1       680 2.14943E+03-2.93627E+05-1.37830E+04-1.33135E+02 2.78760E-09-3.81245E-09
 -1       771-3.06223E+06-7.45720E+05-1.64378E+05-1.46474E+06-3.33239E-08-2.96859E-08
 -1       772-2.98535E+06-8.34182E+05-8.47451E+04-1.56702E+06-2.32831E-08 1.50139E-08
 -1       773-3.09348E+06-7.21342E+05-4.32062E+04-1.47911E+06-9.89530E-09 1.70694E-08
 -1       774-2.97590E+06-8.15866E+05-1.92751E+04-1.59261E+06 3.07482E-08-1.07684E-09
 -1       775-3.10980E+06-7.09883E+05-1.44213E+04-1.48609E+06-8.99308E-09 3.07045E-09
 -1       776-2.98812E+06-8.12875E+05-5.39235E+03-1.61197E+06-1.71713E-08 1.37225E-08
 -1       777-3.12397E+06-6.99658E+05-6.37289E+03-1.49225E+06 2.93949E-09 5.13683E-09
 -1       778-3.00089E+06-8.10091E+05-1.80145E+03-1.62860E+06 1.97906E-09 3.14321E-09
 -1       779-3.13614E+06-6.90725E+05-3.18500E+03-1.49751E+06-1.60071E-09-7.17773E-09
 -1       780-3.01214E+06-8.07434E+05-5.28015E+02-1.64214E+06-8.93488E-09 2.86673E-09
 -1       781-3.14582E+06-6.83524E+05-1.23730E+03-1.50163E+06-2.12749E-08 4.91855E-09
 -1       782-3.02080E+06-8.05176E+05 4.46191E+02-1.65214E+06-2.29120E-08 4.94992E-09
 -1       783-3.15264E+06-6.78521E+05 6.94551E+02-1.50451E+06-8.51287E-09-1.93181E-08
 -1       784-3.02560E+06-8.02917E+05 2.87862E+03-1.65831E+06-2.24682E-08 2.79078E-09
 -1       785-3.15667E+06-6.75537E+05 5.08167E+03-1.50634E+06-4.02142E-08 2.66300E-09
 -1       786 1.26790E+05-9.90027E+03 2.29053E+04-3.27278E+02 3.06453E-09 1.47702E-09
 -1       787 1.36724E+05 1.14623E+04 1.62046E+04-1.41084E+02 5.45579E-09 1.72372E-08
 -1       788 1.30620E+05-1.55140E+03 5.92618E+03-2.91900E+02 2.72810E-09 1.72879E-08
 -1       789 1.32261E+05 1.79573E+03 3.72034E+03-1.95232E+02-3.21413E-09-5.31804E-09
 -1       790 1.31252E+05-2.41561E+02 1.50656E+03-2.73148E+02-4.45671E-09 1.26578E-08
 -1       791 1.31522E+05 2.79567E+02 8.70624E+02-2.27313E+02-7.43723E-09 2.94231E-08
 -1       792 1.31359E+05-3.63756E+01 3.69894E+02-2.59821E+02-5.66864E-09 7.43007E-09
 -1       793 1.31394E+05 3.89202E+01 1.86494E+02-2.52447E+02-7.91817E-10-1.58933E-08
 -1       794 1.31380E+05-1.06592E+00 5.26784E+01-2.48014E+02 4.17464E-09-3.47188E-09
 -1       795 1.31358E+05-2.42324E+01-4.73177E+01-2.77213E+02-4.27583E-09-4.27470E-09
 -1       796 1.31395E+05 2.67417E+01-1.45584E+02-2.35054E+02 4.46006E-09-1.56898E-08
 -1       797 1.31272E+05-1.99813E+02-4.05033E+02-3.07153E+02 3.77129E-09 1.66506E-08
 -1       798 1.31467E+05 1.74382E+02-6.59269E+02-2.18074E+02 1.99505E-09 2.08913E-08
 -1       799 1.30771E+05-1.28507E+03-1.81501E+03-3.49343E+02 6.43152E-09-1.12976E-10
 -1       800 1.31896E+05 1.11111E+03-2.56900E+03-1.92865E+02-3.02077E-10 1.13747E-08
 -1       801-1.68147E+05-9.94316E+06-1.38418E+06 1.40207E+06 9.36561E-08-5.92299E-08
 -1       802 7.29703E+05 5.86462E+06 2.16023E+06-1.72920E+06 2.57896E-07-4.04661E-08
 -1       803-5.31729E+05-1.41698E+07-1.87386E+06 8.89678E+05 7.82384E-08 2.48765E-08
 -1       804 2.84081E+05 2.33815E+06 1.52243E+06 6.73014E+05-1.20432E-07-9.13401E-08
 -1       805 1.88151E+05-6.43088E+06-2.83739E+05-9.94519E+05-4.99640E-08-6.30253E-08
 -1       806-3.08850E+05-5.99545E+04-2.28408E+04-1.22670E+05-5.83896E-09 4.24870E-09
 -1       807-3.10611E+05-5.62619E+04-1.12215E+04-1.28254E+05 6.43217E-09-1.15901E-08
 -1       808-3.09478E+05-5.17218E+04-4.76048E+03-1.26560E+05-7.44421E-10 9.10632E-10
 -1       809-3.08250E+05-5.31101E+04-2.32776E+03-1.28530E+05-8.11588E-09 1.07680E-08
 -1       810-3.09572E+05-5.14352E+04-1.06694E+03-1.26732E+05 1.13127E-08 2.74374E-08
 -1       811-3.08068E+05-5.29836E+04-5.30630E+02-1.28495E+05 8.91123E-09 1.48475E-08
 -1       812-3.09586E+05-5.14599E+04-2.68484E+02-1.26731E+05-7.46695E-09-8.26822E-09
 -1       813-3.08042E+05-5.29859E+04-1.74711E+02-1.28476E+05-1.06638E-09-1.25765E-08
 -1       814-3.09579E+05-5.14697E+04-1.73491E+02-1.26727E+05-2.39834E-09-4.70709E-09
 -1       815-3.08046E+05-5.29882E+04-2.79857E+02-1.28469E+05-1.03137E-08 2.87218E-09
 -1       816-3.09558E+05-5.14690E+04-5.30643E+02-1.26723E+05-4.56384E-09 3.77213E-09
 -1       817-3.08135E+05-5.30389E+04-1.13890E+03-1.28457E+05-1.11404E-08 1.98552E-08
 -1       818-3.09489E+05-5.16300E+04-2.32303E+03-1.26647E+05-1.24419E-09 1.35997E-08
 -1       819-3.09407E+05-5.44417E+04-5.46588E+03-1.28154E+05 2.29784E-09-7.95626E-09
 -1       820-3.09049E+05-5.57598E+04-1.11251E+04-1.24884E+05-1.67893E-09-2.53635E-09
 -1       821-3.79331E+05 2.08971E+04-4.86567E+04 2.14672E+03 1.40732E-08 1.83718E-09
 -1       822-3.99014E+05-2.42089E+04-3.41855E+04-4.54426E+03 5.34563E-09 1.05229E-09
 -1       823-3.86783E+05 3.29493E+03-1.25665E+04 3.48717E+03-1.28246E-08-1.26211E-08
 -1       824-3.90009E+05-3.79939E+03-7.86429E+03-5.48430E+03 2.35433E-09-8.57631E-09
 -1       825-3.88344E+05 5.12221E+02-3.29506E+03 3.08688E+03 2.15103E-08 2.02532E-08
 -1       826-3.87544E+05-5.67054E+02-1.73934E+03-3.17563E+03 2.88662E-08 1.86590E-08
 -1       827-3.89222E+05 4.53934E+01-1.19764E+03 1.17835E+03 1.24095E-08 6.51553E-09
 -1       828-3.86818E+05-1.30086E+02-5.75393E+02 1.09532E+03-1.61521E-09 3.52481E-09
 -1       829-3.89056E+05 6.47482E+01-1.18530E+03-1.18410E+03 2.31620E-09 2.09738E-09
 -1       830-3.87902E+05-6.21916E+02-1.87814E+03 4.95884E+03 1.20474E-09 1.81516E-08
 -1       831-3.88161E+05 5.55482E+02-3.37394E+03-2.68519E+03-6.15360E-09-3.90605E-09
 -1       832-3.90088E+05-3.96372E+03-8.16195E+03 6.26831E+03-5.45847E-09-4.23870E-09
 -1       833-3.86888E+05 3.41657E+03-1.30630E+04-2.49362E+03-3.14141E-09 8.10269E-09
 -1       834-3.99058E+05-2.51062E+04-3.53842E+04 4.26178E+03-1.89387E-09-1.24164E-08
 -1       835-3.79173E+05 2.16645E+04-5.04962E+04-6.78581E+02 4.40033E-09 1.82954E-08
 -1       836-1.41909E+03 3.71394E+05 2.29833E+04-1.63795E+04-6.86032E-09 8.21137E-09
 -1       837 4.89897E+03 3.78592E+05 1.94369E+04-3.34625E+04-7.37367E-09 6.36646E-10
 -1       838-5.59365E+02 3.73414E+05 1.97879E+04-1.63073E+04-6.22504E-09 6.84440E-09
 -1       839 1.24466E+04 3.84213E+05 3.74171E+04-3.35149E+04-6.80348E-09 2.68779E-08
 -1       840-3.84819E+03 3.65713E+05 5.96597E+04-1.63328E+04-6.43195E-09 8.01465E-09
 -1       856-5.14469E+04 8.00222E+03-2.10876E+04-3.98835E+02 5.14092E-09 1.74668E-08
 -1       857-6.01346E+04-9.40225E+03-1.45165E+04 5.62983E+03 6.05561E-09-4.90945E-09
 -1       858-5.48874E+04 1.12222E+03-5.47171E+03-4.22662E+02 3.96511E-09 4.80509E-09
 -1       859-5.61863E+04-1.32014E+03-3.30188E+03 5.66526E+03-2.84450E-09 3.00724E-08
 -1       860-5.54014E+04 1.57154E+02-1.38374E+03-4.34003E+02 1.23100E-09-1.09611E-09
 -1       861-5.55950E+04-1.87481E+02-7.61048E+02 5.68070E+03 3.73348E-10 8.45841E-09
 -1       862-5.54818E+04 2.12681E+01-3.16008E+02-4.38085E+02-1.79058E-09 9.90909E-09
 -1       863-5.54964E+04-2.15456E+01-1.14319E+02 5.68309E+03-4.16725E-09-4.63429E-09
 -1       864-5.55005E+04-5.00405E+00 4.88571E+01-4.36384E+02-2.71027E-09-1.82519E-08
 -1       865-5.54403E+04 6.05027E+01 2.58508E+02 5.67333E+03-4.32419E-09-1.20784E-08
 -1       866-5.55357E+04-6.07826E+01 5.20059E+02-4.28333E+02-2.71206E-09 8.84418E-09
 -1       867-5.51960E+04 5.02049E+02 1.27947E+03 5.65148E+03 1.21912E-09-8.69164E-09
 -1       868-5.57399E+04-4.38540E+02 2.12598E+03-4.14526E+02-1.92415E-09-1.48394E-08
 -1       869-5.36376E+04 3.65005E+03 5.66052E+03 5.61548E+03 2.74159E-09-9.67475E-11
 -1       870-5.70863E+04-3.12323E+03 8.21475E+03-3.92228E+02-5.47311E-09 9.02764E-09
 -1       871-5.53162E+03-2.15937E+04-1.95270E+04 1.30642E+05-4.46380E-09 3.42880E-09
 -1       872-1.99034E+03-2.61332E+04-8.18074E+03 1.69398E+05-9.70977E-09 2.05564E-08
 -1       873 4.02122E+02-2.39375E+04 5.80279E+02 1.30355E+05-5.62522E-09-1.76351E-09
 -1       874 3.30154E+03-2.15266E+04 9.77282E+03 1.69427E+05-1.08348E-08 2.02215E-08
 -1       875 6.84183E+03-2.62662E+04 2.20551E+04 1.30595E+05-4.26553E-09 5.90262E-10
 -1       876 2.93873E+05 4.95300E+04 1.51031E+04 1.17933E+05 9.64656E-09 9.60972E-09
 -1       877 2.94872E+05 5.27107E+04 8.06564E+03 1.22265E+05 8.59291E-09 4.78849E-09
 -1       878 2.95285E+05 4.78570E+04 3.37910E+03 1.19170E+05-7.43194E-09 3.79418E-09
 -1       879 2.92819E+05 5.06618E+04 1.68368E+03 1.22367E+05 8.75843E-10-1.10488E-08
 -1       880 2.95387E+05 4.78397E+04 7.84240E+02 1.19220E+05-1.06920E-08 2.10527E-08
 -1       881 2.92682E+05 5.05742E+04 4.18822E+02 1.22343E+05-2.36828E-08 2.80376E-08
 -1       882 2.95396E+05 4.78530E+04 2.67979E+02 1.19222E+05-1.33982E-08 5.42568E-09
 -1       883 2.92673E+05 5.05696E+04 2.88159E+02 1.22336E+05 3.41601E-09 1.32213E-08
 -1       884 2.95389E+05 4.78502E+04 4.58456E+02 1.19222E+05 7.76220E-09-1.34586E-08
 -1       885 2.92709E+05 5.05760E+04 9.21788E+02 1.22347E+05 1.74964E-09-1.09420E-08
 -1       886 2.95353E+05 4.78233E+04 1.85784E+03 1.19219E+05 3.98721E-10-1.54971E-08
 -1       887 2.93036E+05 5.07901E+04 4.05820E+03 1.22394E+05 9.80975E-09-2.27532E-08
 -1       888 2.95097E+05 4.78685E+04 8.17740E+03 1.19089E+05-1.18477E-09 1.83431E-08
 -1       889 2.97904E+05 5.58529E+04 1.95343E+04 1.22245E+05-4.39551E-09 1.34860E-08
 -1       890 2.91759E+05 5.18331E+04 3.65872E+04 1.15977E+05-8.97853E-09-4.40377E-09
 -1       891-9.03678E+01-1.62782E+05-1.99817E+03 2.71176E+04-1.35515E-10 3.85444E-09
 -1       892-1.76870E+02-1.63310E+05-2.14538E+03 4.11786E+04 1.23464E-09-1.97399E-08
 -1       893 4.28980E+01-1.62847E+05-3.03689E+03 2.71250E+04-9.84528E-10-8.00856E-09
 -1       894-1.51162E+03-1.64457E+05-6.28471E+03 4.10263E+04 4.63115E-09 1.02777E-08
 -1       895-1.20027E+03-1.61538E+05-1.10671E+04 2.72718E+04-5.81622E-10 1.19207E-08
 -1       956-3.77474E+05-5.46018E+03-1.34797E+04 3.10397E+04 5.71708E-09 2.61275E-09
 -1       957-3.80119E+05-1.92564E+03-6.91889E+03 3.73027E+04-1.69030E-09 7.43739E-09
 -1       958-3.78686E+05-2.40812E+02-3.11790E+03 3.08708E+04-4.33101E-09 1.40112E-08
 -1       959-3.78883E+05-1.35636E+02-1.59203E+03 3.74996E+04 5.52973E-10 8.52197E-10
 -1       960-3.78804E+05-4.41196E+01-7.76347E+02 3.08534E+04 4.99313E-09-1.71576E-09
 -1       961-3.78803E+05-6.22959E+01-4.11575E+02 3.75202E+04 1.21936E-08-4.57680E-09
 -1       962-3.78832E+05-4.52269E+01-2.35589E+02 3.08504E+04 4.68117E-09 5.49971E-09
 -1       963-3.78803E+05-5.80072E+01-1.89028E+02 3.75239E+04 4.45243E-09 8.90645E-09
 -1       964-3.78838E+05-4.18207E+01-2.29771E+02 3.08497E+04 3.19332E-10-2.84876E-09
 -1       965-3.78816E+05-5.50283E+01-3.97325E+02 3.75232E+04-3.95585E-09-6.18525E-09
 -1       966-3.78822E+05-3.39992E+01-7.46525E+02 3.08512E+04 2.59797E-09-1.34116E-08
 -1       967-3.78905E+05-1.18663E+02-1.53108E+03 3.75088E+04-1.35697E-09-7.36645E-09
 -1       968-3.78718E+05-2.16673E+02-2.99732E+03 3.08639E+04 2.69665E-10 2.34593E-10
 -1       969-3.80106E+05-1.83444E+03-6.65393E+03 3.73595E+04 4.00723E-09-1.49928E-08
 -1       970-3.77561E+05-5.23215E+03-1.29623E+04 3.09919E+04 1.45610E-09 8.60746E-09
 -1       971-3.45471E+05-1.72464E+03-9.29769E+03 1.53439E+04 1.15188E-08 4.37724E-09
 -1       972-3.47710E+05-1.26937E+03-5.06343E+03 2.12223E+04 4.52610E-09-1.59307E-08
 -1       973-3.46507E+05-6.14250E+01-2.26796E+03 1.52229E+04-6.14637E-09 2.17847E-09
 -1       974-3.46642E+05-8.02657E+01-1.17566E+03 2.13591E+04 1.66801E-09-5.38046E-09
 -1       975-3.46589E+05-1.66337E+01-5.88165E+02 1.52106E+04 1.00454E-09-1.06570E-08
 -1       976-3.46581E+05-3.05087E+01-3.40240E+02 2.13749E+04 3.02043E-09 8.98035E-09
 -1       977-3.46605E+05-1.59025E+01-2.48564E+02 1.52072E+04-1.46156E-09 4.76723E-09
 -1       978-3.46586E+05-2.43021E+01-2.93089E+02 2.13797E+04-8.73922E-09 9.29072E-09
 -1       979-3.46605E+05-7.43047E+00-4.72805E+02 1.52058E+04-2.64896E-09 1.97603E-08
 -1       980-3.46622E+05-2.12453E+01-9.14119E+02 2.13807E+04-2.73614E-09-1.53489E-09
 -1       981-3.46576E+05 1.54210E+01-1.77106E+03 1.52063E+04 1.38084E-09 1.48037E-08
 -1       982-3.46865E+05-1.52100E+02-3.66109E+03 2.13741E+04 4.72937E-10 1.55098E-08
 -1       983-3.46353E+05-9.79700E+01-7.11370E+03 1.52123E+04 4.24734E-10-4.56430E-09
 -1       984-3.50286E+05-3.86736E+03-1.59309E+04 2.12886E+04-5.04838E-09-1.37288E-08
 -1       985-3.43132E+05-5.30331E+03-2.92541E+04 1.52837E+04-4.58840E-10 1.13141E-08
 -3
    1PSTEP                        31          16           1          
  100CL  116 6.62796E-01         409                     0   16           1
 -4  DISP        4    1
 -5  D1          1    2    1    0
 -5  D2          1    2    2    0
 -5  D3          1    2    3    0
 -5  ALL         1    2    0    0    1ALL
 -1         1 2.68333E-03 0.00000E+00 0.00000E+00
 -1         2 1.40129E-03-7.93402E-29 0.00000E+00
 -1         3 3.41857E-04-1.12257E-27-1.32349E-23
 -1         5 1.76886E-04 2.25796E-27 1.65436E-24
 -1         8 2.67170E-03-4.20524E-07 0.00000E+00
 -1         9 2.66485E-03-1.68426E-04 0.00000E+00
 -1        10 3.09969E-04-3.43170E-06 6.61744E-24
 -1        12 1.78704E-04 8.08146E-07-8.27181E-25
 -1        15 2.65827E-03-4.46756E-07 2.06795E-25
 -1        16 2.72261E-03-1.70125E-04 0.00000E+00
 -1        17 2.10965E-04-7.81685E-06 0.00000E+00
 -1        18 1.82546E-04 3.42478E-05 0.00000E+00
 -1        19 1.84158E-04 1.60999E-06 0.00000E+00
 -1        20 1.84297E-04-9.62728E-06 0.00000E+00
 -1        21 1.83405E-04-2.49431E-05 3.30872E-24
 -1        24 3.06106E-05-1.20370E-05 0.00000E+00
 -1        25 1.93243E-04 3.44722E-05 0.00000E+00
 -1        26 1.93940E-04 2.23312E-06 0.00000E+00
 -1        27 1.91736E-04-1.31909E-05 0.00000E+00
 -1        28 1.91425E-04-2.55649E-05 0.00000E+00
 -1        32 0.00000E+00 0.00000E+00 0.00000E+00
 -1        33 2.02724E-04 2.98968E-06 0.00000E+00
 -1        34 2.00604E-04-1.32475E-05 0.00000E+00
 -1        35 1.98671E-04-2.59073E-05 0.00000E+00
 -1        51 2.68255E-03-8.70059E-08 6.61744E-24
 -1        52 2.68113E-03-1.55930E-07 0.00000E+00
 -1        53 2.67920E-03-2.21518E-07 0.00000E+00
 -1        54 2.67689E-03-2.86000E-07-1.65436E-24
 -1        55 2.67434E-03-3.51126E-07 2.48154E-24
 -1        56 2.67669E-03 5.94126E-06-5.29396E-23
 -1        57 2.66465E-03 2.53032E-05 5.29396E-23
 -1        58 2.64896E-03 5.37554E-05-1.05879E-22
 -1        59 2.63166E-03 8.60802E-05 0.00000E+00
 -1        60 2.61518E-03 1.16403E-04-1.05879E-22
 -1        61 2.60182E-03 1.39012E-04 0.00000E+00
 -1        62 2.59321E-03 1.49571E-04-1.05879E-22
 -1        63 2.59041E-03 1.44814E-04 5.29396E-23
 -1        64 2.59335E-03 1.24265E-04 0.00000E+00
 -1        65 2.60141E-03 8.89091E-05-5.29396E-23
 -1        66 2.61317E-03 4.24997E-05-1.05879E-22
 -1        67 2.62696E-03-1.01548E-05-5.29396E-23
 -1        68 2.64082E-03-6.30604E-05-1.05879E-22
 -1        69 2.65285E-03-1.10192E-04 0.00000E+00
 -1        70 2.66130E-03-1.46627E-04 1.05879E-22
 -1        86 1.48068E-03-5.44142E-06 5.29396E-23
 -1        87 1.71100E-03-3.36878E-05 0.00000E+00
 -1        88 2.02062E-03-8.20474E-05 2.64698E-23
 -1        89 2.33407E-03-1.31629E-04 1.32349E-23
 -1        90 2.57373E-03-1.61961E-04 0.00000E+00
 -1       121 3.40961E-04-5.54286E-07 1.32349E-23
 -1       122 3.38278E-04-1.11165E-06 0.00000E+00
 -1       123 3.33818E-04-1.67511E-06 1.32349E-23
 -1       124 3.27596E-04-2.24771E-06 0.00000E+00
 -1       125 3.19636E-04-2.83207E-06-1.32349E-23
 -1       191 1.76936E-04 1.34753E-07-1.65436E-24
 -1       192 1.77088E-04 2.69495E-07 0.00000E+00
 -1       193 1.77340E-04 4.04217E-07 0.00000E+00
 -1       194 1.77694E-04 5.38908E-07 1.24077E-24
 -1       195 1.78148E-04 6.73555E-07 0.00000E+00
 -1       251 2.67137E-03 2.07856E-06 0.00000E+00
 -1       252 2.67103E-03 5.00298E-06-3.30872E-24
 -1       253 2.67070E-03 7.26208E-06-1.32349E-23
 -1       254 2.67036E-03 7.77411E-06 0.00000E+00
 -1       255 2.67003E-03 5.74639E-06-1.32349E-23
 -1       256 2.66968E-03 4.21059E-07-6.61744E-24
 -1       257 2.66930E-03-8.41476E-06 0.00000E+00
 -1       258 2.66889E-03-2.09257E-05 0.00000E+00
 -1       259 2.66844E-03-3.66696E-05 0.00000E+00
 -1       260 2.66794E-03-5.51596E-05 0.00000E+00
 -1       261 2.66741E-03-7.54549E-05-1.32349E-23
 -1       262 2.66686E-03-9.65907E-05 0.00000E+00
 -1       263 2.66631E-03-1.17463E-04 1.32349E-23
 -1       264 2.66579E-03-1.36970E-04 6.61744E-24
 -1       265 2.66531E-03-1.54239E-04 0.00000E+00
 -1       266 2.66946E-03-4.30796E-07-3.30872E-24
 -1       267 2.66722E-03-4.34449E-07-8.27181E-25
 -1       268 2.66499E-03-4.38521E-07 8.27181E-25
 -1       269 2.66275E-03-4.41351E-07 2.06795E-25
 -1       270 2.66051E-03-4.44153E-07 0.00000E+00
 -1       271 2.67070E-03 3.84843E-07 0.00000E+00
 -1       272 2.67054E-03-1.13120E-06-6.61744E-24
 -1       273 2.67121E-03-4.84029E-06 2.64698E-23
 -1       274 2.67263E-03-1.06040E-05 0.00000E+00
 -1       275 2.67475E-03-1.82640E-05 2.64698E-23
 -1       276 2.67750E-03-2.76481E-05-1.32349E-23
 -1       277 2.68080E-03-3.85685E-05 2.64698E-23
 -1       278 2.68460E-03-5.08254E-05 1.32349E-23
 -1       279 2.68880E-03-6.42073E-05 0.00000E+00
 -1       280 2.69332E-03-7.84936E-05 0.00000E+00
 -1       281 2.69809E-03-9.34557E-05-2.64698E-23
 -1       282 2.70302E-03-1.08860E-04 0.00000E+00
 -1       283 2.70802E-03-1.24468E-04 1.32349E-23
 -1       284 2.71301E-03-1.40041E-04 0.00000E+00
 -1       285 2.71790E-03-1.55340E-04 0.00000E+00
 -1       301 2.67535E-03-1.68740E-04 0.00000E+00
 -1       302 2.68429E-03-1.69012E-04 0.00000E+00
 -1       303 2.69257E-03-1.69275E-04 0.00000E+00
 -1       304 2.70111E-03-1.69538E-04 6.61744E-24
 -1       305 2.71082E-03-1.69814E-04 0.00000E+00
 -1       306 2.70234E-03-3.21078E-04-1.05879E-22
 -1       307 2.76629E-03-7.32529E-04 0.00000E+00
 -1       308 2.81347E-03-1.33525E-03 1.05879E-22
 -1       309 2.83785E-03-2.03391E-03 0.00000E+00
 -1       310 2.86936E-03-2.70325E-03 0.00000E+00
 -1       311 2.92876E-03-3.22065E-03 0.00000E+00
 -1       312 2.98691E-03-3.50552E-03 2.11758E-22
 -1       313 2.98370E-03-3.51946E-03 0.00000E+00
 -1       314 2.84578E-03-3.27394E-03-1.05879E-22
 -1       315 2.53215E-03-2.83259E-03 0.00000E+00
 -1       316 2.06054E-03-2.27168E-03-1.05879E-22
 -1       317 1.49598E-03-1.66056E-03-5.29396E-23
 -1       318 9.51915E-04-1.06019E-03 1.05879E-22
 -1       319 5.35720E-04-5.35690E-04-5.29396E-23
 -1       320 2.91157E-04-1.60851E-04 0.00000E+00
 -1       336 2.98408E-04-4.09448E-06-1.32349E-23
 -1       337 2.84777E-04-4.78283E-06 6.61744E-24
 -1       338 2.69139E-04-5.49891E-06 0.00000E+00
 -1       339 2.51568E-04-6.24354E-06 0.00000E+00
 -1       340 2.32146E-04-7.02113E-06 0.00000E+00
 -1       406 1.79360E-04 9.42662E-07-1.65436E-24
 -1       407 1.80118E-04 1.07707E-06-1.24077E-24
 -1       408 1.80977E-04 1.21131E-06-2.89513E-24
 -1       409 1.81937E-04 1.34522E-06 1.55096E-24
 -1       410 1.82997E-04 1.47852E-06-4.13590E-25
 -1       521 2.76073E-03-3.32033E-04 1.05879E-22
 -1       522 2.82297E-03-7.63405E-04 0.00000E+00
 -1       523 2.86389E-03-1.39337E-03 0.00000E+00
 -1       524 2.87932E-03-2.11995E-03-5.29396E-23
 -1       525 2.90312E-03-2.81525E-03-1.05879E-22
 -1       526 2.95902E-03-3.35419E-03 0.00000E+00
 -1       527 3.01674E-03-3.64950E-03 0.00000E+00
 -1       528 3.01132E-03-3.66185E-03 5.29396E-23
 -1       529 2.86184E-03-3.40260E-03 0.00000E+00
 -1       530 2.52504E-03-2.94313E-03 0.00000E+00
 -1       531 2.01941E-03-2.36337E-03 0.00000E+00
 -1       532 1.41625E-03-1.73530E-03 0.00000E+00
 -1       533 8.34163E-04-1.11734E-03 0.00000E+00
 -1       534 3.85492E-04-5.72348E-04 5.29396E-23
 -1       535 1.20162E-04-1.78321E-04 0.00000E+00
 -1       536 2.10214E-04 2.70078E-05-6.61744E-24
 -1       537 2.08305E-04 8.72833E-05 0.00000E+00
 -1       538 2.05356E-04 1.63767E-04 0.00000E+00
 -1       539 2.01878E-04 2.47132E-04 1.65436E-24
 -1       540 1.98748E-04 3.25907E-04 0.00000E+00
 -1       541 1.96714E-04 3.88643E-04 1.65436E-24
 -1       542 1.95774E-04 4.28603E-04 0.00000E+00
 -1       543 1.95550E-04 4.39197E-04 1.65436E-24
 -1       544 1.95228E-04 4.21197E-04-3.30872E-24
 -1       545 1.94061E-04 3.75597E-04 1.65436E-24
 -1       546 1.91887E-04 3.10502E-04-3.30872E-24
 -1       547 1.88944E-04 2.34140E-04 0.00000E+00
 -1       548 1.86028E-04 1.58156E-04 3.30872E-24
 -1       549 1.83924E-04 9.41932E-05-1.65436E-24
 -1       550 1.82831E-04 5.02623E-05-1.65436E-24
 -1       551 1.85833E-04-8.38623E-06 0.00000E+00
 -1       552 1.57463E-04-9.03562E-06 0.00000E+00
 -1       553 1.26796E-04-9.74692E-06-6.61744E-24
 -1       554 9.47925E-05-1.04991E-05 0.00000E+00
 -1       555 6.24125E-05-1.12648E-05 0.00000E+00
 -1       556 2.03340E-04 1.16798E-05-5.29396E-23
 -1       557 1.97181E-04 2.74915E-05 0.00000E+00
 -1       558 1.92351E-04 3.99053E-05 0.00000E+00
 -1       559 1.88720E-04 4.92308E-05 2.64698E-23
 -1       560 1.86158E-04 5.57783E-05 0.00000E+00
 -1       561 1.84537E-04 5.98601E-05 0.00000E+00
 -1       562 1.83732E-04 6.17902E-05 0.00000E+00
 -1       563 1.83618E-04 6.18833E-05 0.00000E+00
 -1       564 1.84076E-04 6.04551E-05 0.00000E+00
 -1       565 1.84984E-04 5.78218E-05-6.61744E-24
 -1       566 1.86223E-04 5.43003E-05 0.00000E+00
 -1       567 1.87674E-04 5.02079E-05 0.00000E+00
 -1       568 1.89219E-04 4.58619E-05-1.65436E-24
 -1       569 1.90740E-04 4.15797E-05 0.00000E+00
 -1       570 1.92120E-04 3.76789E-05 0.00000E+00
 -1       571 1.82644E-04 3.21333E-05 0.00000E+00
 -1       572 1.82744E-04 2.99510E-05 1.65436E-24
 -1       573 1.82844E-04 2.77172E-05 0.00000E+00
 -1       574 1.82944E-04 2.54483E-05-8.27181E-25
 -1       575 1.83045E-04 2.31613E-05 0.00000E+00
 -1       576 1.83146E-04 2.08728E-05 0.00000E+00
 -1       577 1.83246E-04 1.85997E-05 0.00000E+00
 -1       578 1.83347E-04 1.63589E-05 6.61744E-24
 -1       579 1.83448E-04 1.41672E-05 0.00000E+00
 -1       580 1.83549E-04 1.20414E-05-3.30872E-24
 -1       581 1.83650E-04 9.99838E-06 0.00000E+00
 -1       582 1.83751E-04 8.05499E-06 0.00000E+00
 -1       583 1.83853E-04 6.22802E-06 0.00000E+00
 -1       584 1.83955E-04 4.53410E-06 0.00000E+00
 -1       585 1.84056E-04 2.98972E-06 0.00000E+00
 -1       586 1.84287E-04 3.42874E-05 1.65436E-24
 -1       587 1.85988E-04 3.43263E-05 0.00000E+00
 -1       588 1.87690E-04 3.43649E-05-8.27181E-25
 -1       589 1.89438E-04 3.44028E-05 0.00000E+00
 -1       590 1.91275E-04 3.44395E-05 0.00000E+00
 -1       591 1.83270E-04 3.22272E-05 0.00000E+00
 -1       592 1.83997E-04 3.01856E-05-2.06795E-25
 -1       593 1.84730E-04 2.81292E-05 0.00000E+00
 -1       594 1.85466E-04 2.60625E-05-4.13590E-25
 -1       595 1.86204E-04 2.39907E-05 0.00000E+00
 -1       596 1.86941E-04 2.19185E-05-4.13590E-25
 -1       597 1.87678E-04 1.98506E-05 8.27181E-25
 -1       598 1.88410E-04 1.77920E-05 0.00000E+00
 -1       599 1.89138E-04 1.57474E-05 0.00000E+00
 -1       600 1.89858E-04 1.37216E-05-4.13590E-25
 -1       601 1.90570E-04 1.17195E-05 0.00000E+00
 -1       602 1.91271E-04 9.74576E-06 2.06795E-25
 -1       603 1.91960E-04 7.80531E-06-4.13590E-25
 -1       604 1.92635E-04 5.90303E-06-2.06795E-25
 -1       605 1.93295E-04 4.04364E-06-4.13590E-25
 -1       606 1.84171E-04 4.64431E-07 0.00000E+00
 -1       607 1.84181E-04-5.95951E-07-1.65436E-24
 -1       608 1.84190E-04-1.57616E-06-3.30872E-24
 -1       609 1.84198E-04-2.48182E-06 0.00000E+00
 -1       610 1.84206E-04-3.31864E-06 3.30872E-24
 -1       611 1.84215E-04-4.09236E-06 0.00000E+00
 -1       612 1.84223E-04-4.80874E-06 0.00000E+00
 -1       613 1.84231E-04-5.47354E-06 0.00000E+00
 -1       614 1.84240E-04-6.09254E-06 0.00000E+00
 -1       615 1.84248E-04-6.67150E-06 0.00000E+00
 -1       616 1.84256E-04-7.21618E-06 1.65436E-24
 -1       617 1.84265E-04-7.73236E-06 0.00000E+00
 -1       618 1.84273E-04-8.22578E-06 0.00000E+00
 -1       619 1.84281E-04-8.70224E-06 0.00000E+00
 -1       620 1.84289E-04-9.16748E-06 0.00000E+00
 -1       621 1.85499E-04 1.71441E-06-1.65436E-24
 -1       622 1.87000E-04 1.81908E-06 8.27181E-25
 -1       623 1.88629E-04 1.92354E-06 1.65436E-24
 -1       624 1.90351E-04 2.02767E-06 0.00000E+00
 -1       625 1.92133E-04 2.13150E-06-3.30872E-24
 -1       626 1.84700E-04 5.00598E-07 0.00000E+00
 -1       627 1.85219E-04-5.46456E-07 0.00000E+00
 -1       628 1.85718E-04-1.53898E-06 0.00000E+00
 -1       629 1.86200E-04-2.48511E-06 0.00000E+00
 -1       630 1.86668E-04-3.39298E-06 3.30872E-24
 -1       631 1.87124E-04-4.27077E-06 1.65436E-24
 -1       632 1.87572E-04-5.12662E-06 0.00000E+00
 -1       633 1.88015E-04-5.96873E-06-1.65436E-24
 -1       634 1.88456E-04-6.80525E-06 0.00000E+00
 -1       635 1.88898E-04-7.64434E-06 0.00000E+00
 -1       636 1.89344E-04-8.49419E-06 0.00000E+00
 -1       637 1.89797E-04-9.36295E-06 0.00000E+00
 -1       638 1.90260E-04-1.02588E-05-1.65436E-24
 -1       639 1.90736E-04-1.11899E-05 8.27181E-25
 -1       640 1.91228E-04-1.21645E-05 0.00000E+00
 -1       656 1.84989E-04-1.02065E-05 6.61744E-24
 -1       657 1.86100E-04-1.08092E-05 0.00000E+00
 -1       658 1.87491E-04-1.14106E-05-1.32349E-23
 -1       659 1.89016E-04-1.20116E-05 0.00000E+00
 -1       660 1.90492E-04-1.26144E-05 0.00000E+00
 -1       661 1.84556E-04-1.01323E-05 0.00000E+00
 -1       662 1.84853E-04-1.07294E-05-8.27181E-25
 -1       663 1.85182E-04-1.14133E-05 0.00000E+00
 -1       664 1.85541E-04-1.21775E-05 8.27181E-25
 -1       665 1.85929E-04-1.30162E-05-1.65436E-24
 -1       666 1.86342E-04-1.39234E-05 8.27181E-25
 -1       667 1.86778E-04-1.48934E-05-1.65436E-24
 -1       668 1.87236E-04-1.59205E-05 0.00000E+00
 -1       669 1.87714E-04-1.69994E-05 1.65436E-24
 -1       670 1.88208E-04-1.81246E-05 8.27181E-25
 -1       671 1.88718E-04-1.92910E-05 1.65436E-24
 -1       672 1.89242E-04-2.04934E-05-8.27181E-25
 -1       673 1.89776E-04-2.17267E-05 1.65436E-24
 -1       674 1.90320E-04-2.29862E-05-4.13590E-25
 -1       675 1.90872E-04-2.42666E-05 0.00000E+00
 -1       676 1.84747E-04-2.50473E-05 3.30872E-24
 -1       677 1.86087E-04-2.51515E-05 1.65436E-24
 -1       678 1.87426E-04-2.52556E-05 0.00000E+00
 -1       679 1.88762E-04-2.53595E-05 0.00000E+00
 -1       680 1.90096E-04-2.54633E-05-1.65436E-24
 -1       771 1.86943E-05 1.46039E-05 0.00000E+00
 -1       772 8.66802E-06 3.64851E-05 0.00000E+00
 -1       773 4.41214E-07 5.38361E-05 0.00000E+00
 -1       774-6.10992E-06 6.69141E-05 0.00000E+00
 -1       775-1.11066E-05 7.59864E-05 0.00000E+00
 -1       776-1.46748E-05 8.13373E-05 0.00000E+00
 -1       777-1.69404E-05 8.32609E-05 0.00000E+00
 -1       778-1.80320E-05 8.20654E-05-2.64698E-23
 -1       779-1.80772E-05 7.80671E-05 5.29396E-23
 -1       780-1.72060E-05 7.15940E-05 2.64698E-23
 -1       781-1.55472E-05 6.29807E-05-5.29396E-23
 -1       782-1.32314E-05 5.25706E-05-2.64698E-23
 -1       783-1.03882E-05 4.07117E-05 0.00000E+00
 -1       784-7.14835E-06 2.77585E-05-2.64698E-23
 -1       785-3.64174E-06 1.40680E-05 5.29396E-23
 -1       786 1.93282E-04 3.22325E-05 0.00000E+00
 -1       787 1.93325E-04 3.00421E-05 0.00000E+00
 -1       788 1.93368E-04 2.78928E-05 0.00000E+00
 -1       789 1.93411E-04 2.57766E-05 8.27181E-25
 -1       790 1.93455E-04 2.36885E-05 1.65436E-24
 -1       791 1.93499E-04 2.16241E-05 8.27181E-25
 -1       792 1.93543E-04 1.95812E-05 0.00000E+00
 -1       793 1.93587E-04 1.75576E-05 0.00000E+00
 -1       794 1.93631E-04 1.55533E-05 0.00000E+00
 -1       795 1.93675E-04 1.35681E-05-8.27181E-25
 -1       796 1.93719E-04 1.16040E-05 1.65436E-24
 -1       797 1.93763E-04 9.66312E-06 8.27181E-25
 -1       798 1.93807E-04 7.74974E-06-1.65436E-24
 -1       799 1.93851E-04 5.86839E-06 0.00000E+00
 -1       800 1.93896E-04 4.02688E-06-1.65436E-24
 -1       801 1.47593E-04 3.09873E-05-2.64698E-23
 -1       802 9.56576E-06 1.93377E-05 0.00000E+00
 -1       803-1.08350E-04 9.77206E-06 5.29396E-23
 -1       804-9.60735E-05 6.80038E-06 0.00000E+00
 -1       805-3.17389E-05 2.67464E-06 0.00000E+00
 -1       806 1.93968E-04 3.21633E-05 0.00000E+00
 -1       807 1.94678E-04 2.98800E-05 0.00000E+00
 -1       808 1.95377E-04 2.76273E-05-3.30872E-24
 -1       809 1.96063E-04 2.54095E-05 0.00000E+00
 -1       810 1.96733E-04 2.32307E-05-3.30872E-24
 -1       811 1.97388E-04 2.10950E-05 1.65436E-24
 -1       812 1.98025E-04 1.90064E-05 0.00000E+00
 -1       813 1.98643E-04 1.69689E-05-1.65436E-24
 -1       814 1.99240E-04 1.49866E-05-3.30872E-24
 -1       815 1.99815E-04 1.30634E-05 0.00000E+00
 -1       816 2.00367E-04 1.12034E-05 0.00000E+00
 -1       817 2.00893E-04 9.41052E-06-8.27181E-25
 -1       818 2.01394E-04 7.68874E-06 0.00000E+00
 -1       819 2.01866E-04 6.04207E-06-1.65436E-24
 -1       820 2.02309E-04 4.47442E-06 0.00000E+00
 -1       821 1.93811E-04-1.29064E-07-1.65436E-24
 -1       822 1.93671E-04-3.67031E-06 1.65436E-24
 -1       823 1.93528E-04-7.95478E-06 0.00000E+00
 -1       824 1.93382E-04-1.25420E-05 0.00000E+00
 -1       825 1.93238E-04-1.69095E-05 0.00000E+00
 -1       826 1.93096E-04-2.05362E-05 0.00000E+00
 -1       827 1.92957E-04-2.31029E-05 0.00000E+00
 -1       828 1.92820E-04-2.42969E-05 0.00000E+00
 -1       829 1.92685E-04-2.41795E-05 0.00000E+00
 -1       830 1.92548E-04-2.28201E-05 0.00000E+00
 -1       831 1.92410E-04-2.06264E-05 0.00000E+00
 -1       832 1.92271E-04-1.80112E-05 0.00000E+00
 -1       833 1.92133E-04-1.55024E-05 3.30872E-24
 -1       834 1.91997E-04-1.36270E-05-1.65436E-24
 -1       835 1.91863E-04-1.27402E-05-8.27181E-25
 -1       836 1.95618E-04 2.35857E-06-3.30872E-24
 -1       837 1.97167E-04 2.48719E-06 0.00000E+00
 -1       838 1.98620E-04 2.61574E-06 3.30872E-24
 -1       839 2.00009E-04 2.74359E-06 8.27181E-25
 -1       840 2.01366E-04 2.87128E-06-8.27181E-25
 -1       856 1.91720E-04-1.42396E-05 0.00000E+00
 -1       857 1.91701E-04-1.51526E-05 0.00000E+00
 -1       858 1.91682E-04-1.59509E-05-2.06795E-25
 -1       859 1.91663E-04-1.66557E-05 0.00000E+00
 -1       860 1.91644E-04-1.72883E-05 0.00000E+00
 -1       861 1.91624E-04-1.78698E-05 0.00000E+00
 -1       862 1.91605E-04-1.84216E-05 0.00000E+00
 -1       863 1.91585E-04-1.89651E-05 0.00000E+00
 -1       864 1.91566E-04-1.95215E-05 8.27181E-25
 -1       865 1.91546E-04-2.01121E-05 0.00000E+00
 -1       866 1.91526E-04-2.07584E-05 8.27181E-25
 -1       867 1.91507E-04-2.14814E-05-4.13590E-25
 -1       868 1.91487E-04-2.23025E-05 0.00000E+00
 -1       869 1.91467E-04-2.32428E-05-4.13590E-25
 -1       870 1.91447E-04-2.43233E-05 8.27181E-25
 -1       871 1.93073E-04-1.31959E-05-8.27181E-25
 -1       872 1.94557E-04-1.32043E-05 0.00000E+00
 -1       873 1.96121E-04-1.32134E-05 0.00000E+00
 -1       874 1.97695E-04-1.32232E-05 1.03398E-25
 -1       875 1.99212E-04-1.32336E-05-1.03398E-24
 -1       876 1.92257E-04-1.42250E-05 3.30872E-24
 -1       877 1.92755E-04-1.51922E-05 1.65436E-24
 -1       878 1.93231E-04-1.61005E-05-3.30872E-24
 -1       879 1.93689E-04-1.69574E-05 1.65436E-24
 -1       880 1.94130E-04-1.77702E-05-3.30872E-24
 -1       881 1.94558E-04-1.85463E-05-1.65436E-24
 -1       882 1.94974E-04-1.92930E-05 0.00000E+00
 -1       883 1.95382E-04-2.00177E-05 0.00000E+00
 -1       884 1.95785E-04-2.07278E-05 0.00000E+00
 -1       885 1.96185E-04-2.14305E-05 0.00000E+00
 -1       886 1.96585E-04-2.21333E-05 0.00000E+00
 -1       887 1.96988E-04-2.28434E-05-1.65436E-24
 -1       888 1.97396E-04-2.35682E-05 0.00000E+00
 -1       889 1.97811E-04-2.43153E-05 0.00000E+00
 -1       890 1.98237E-04-2.50919E-05-1.65436E-24
 -1       891 1.92775E-04-2.56224E-05 1.65436E-24
 -1       892 1.94101E-04-2.56801E-05 0.00000E+00
 -1       893 1.95379E-04-2.57377E-05-1.65436E-24
 -1       894 1.96583E-04-2.57950E-05 0.00000E+00
 -1       895 1.97688E-04-2.58521E-05 4.13590E-25
 -1       956 2.02593E-04 1.68071E-06 1.65436E-24
 -1       957 2.02461E-04 4.63949E-07 8.27181E-25
 -1       958 2.02328E-04-6.71421E-07 0.00000E+00
 -1       959 2.02195E-04-1.73681E-06-1.65436E-24
 -1       960 2.02062E-04-2.74367E-06 0.00000E+00
 -1       961 2.01929E-04-3.70351E-06 0.00000E+00
 -1       962 2.01796E-04-4.62781E-06 0.00000E+00
 -1       963 2.01663E-04-5.52811E-06-1.65436E-24
 -1       964 2.01530E-04-6.41592E-06 0.00000E+00
 -1       965 2.01398E-04-7.30276E-06 0.00000E+00
 -1       966 2.01265E-04-8.20016E-06-3.30872E-24
 -1       967 2.01132E-04-9.11962E-06 0.00000E+00
 -1       968 2.00999E-04-1.00727E-05 6.61744E-24
 -1       969 2.00866E-04-1.10708E-05-3.30872E-24
 -1       970 2.00734E-04-1.21254E-05 0.00000E+00
 -1       971 2.00484E-04-1.43697E-05-3.30872E-24
 -1       972 2.00362E-04-1.53975E-05-1.65436E-24
 -1       973 2.00241E-04-1.63413E-05 3.30872E-24
 -1       974 2.00120E-04-1.72120E-05 0.00000E+00
 -1       975 1.99998E-04-1.80204E-05-3.30872E-24
 -1       976 1.99877E-04-1.87772E-05 1.65436E-24
 -1       977 1.99755E-04-1.94935E-05 3.30872E-24
 -1       978 1.99634E-04-2.01800E-05 0.00000E+00
 -1       979 1.99512E-04-2.08477E-05 0.00000E+00
 -1       980 1.99391E-04-2.15074E-05 0.00000E+00
 -1       981 1.99270E-04-2.21700E-05 3.30872E-24
 -1       982 1.99148E-04-2.28464E-05 0.00000E+00
 -1       983 1.99027E-04-2.35475E-05-3.30872E-24
 -1       984 1.98907E-04-2.42841E-05 0.00000E+00
 -1       985 1.98786E-04-2.50672E-05 0.00000E+00
 -3
    1PSTEP                        32          16           1          
  100CL  116 6.62796E-01         409                     0   16           1
 -4  STRESS      6    1
 -5  SXX         1    4    1    1
 -5  SYY         1    4    2    2
 -5  SZZ         1    4    3    3
 -5  SXY         1    4    1    2
 -5  SYZ         1    4    2    3
 -5  SZX         1    4    3    1
 -1         1-5.27807E+06-1.66510E+06-1.12840E+06-1.45948E+06 1.42609E-09-2.01428E-07
 -1         2 1.25515E+06 1.84882E+07 4.39438E+06 5.55243E+06 2.68919E-08-5.11936E-08
 -1         3-1.48158E+03-1.57392E+06 4.08546E+02-2.22896E+03-7.59236E-10 2.82016E-08
 -1         5-7.29707E+01 3.85868E+05 9.87168E+00-1.31825E+00-5.06448E-10 3.34967E-08
 -1         8-6.00801E+05-2.11550E+05-6.91803E+04-2.55343E+05 2.07365E-10-2.01835E-07
 -1         9 1.14628E+07 3.21988E+06 2.62231E+06-4.72660E+05-6.53090E-09 5.81611E-08
 -1        10-2.30446E+03-1.64015E+06-3.97376E+03-1.50793E+04-1.33059E-08-5.65595E-08
 -1        12-6.90916E+01 3.85890E+05 3.24408E+02-8.99401E+00-7.83245E-10 3.42679E-08
 -1        15 9.77596E+02 5.37238E+02 3.16005E+03 9.45976E-01 1.21702E-10 1.57935E-07
 -1        16 2.26403E+07-2.97307E+05 3.09234E+06-2.16802E+06 1.91697E-08 7.12462E-08
 -1        17 8.27458E+06 6.19501E+06 2.23613E+06 5.93671E+06 2.17871E-08 1.77068E-08
 -1        18 1.42001E+05 3.31540E+04 3.99931E+03-1.19579E+05 1.40733E-08 6.14955E-09
 -1        19 1.23120E+05 1.41890E+05-9.21129E+02 2.20269E+04 1.68275E-09-8.62201E-11
 -1        20-8.24660E+04-5.74628E+05-1.28969E+05 2.49586E+04-1.73016E-09 1.51601E-08
 -1        21-4.55717E+01-2.95937E+05-9.23373E+02 2.72240E+02 1.70268E-08 1.01753E-09
 -1        24 1.38029E+07 1.18942E+07 3.82712E+06 1.10182E+07-1.64514E-07-5.70241E-08
 -1        25 1.23855E+05 2.61299E+05 9.86484E+04-6.42390E+05-5.85715E-10 1.35566E-08
 -1        26-5.49324E+04 9.28007E+04-2.45341E+04 1.23890E+03-2.10639E-10 5.48949E-09
 -1        27-7.55282E+04-3.10410E+05-1.13413E+05 6.90348E+04 4.17473E-09-3.40030E-09
 -1        28 2.22369E+04-8.53672E+04 1.68975E+04 2.05387E+04-4.71834E-09-8.82977E-10
 -1        32-1.67955E+06-3.17439E+06-1.96316E+05 4.51234E+05-4.14875E-08-7.04972E-09
 -1        33-1.78485E+05 9.33143E+04 3.24574E+04-3.86716E+04-2.75687E-09 3.03195E-09
 -1        34-2.23759E+05-2.51161E+04 6.92060E+02 7.58254E+04-5.08674E-09-1.26314E-09
 -1        35-2.29266E+04-3.38494E+04-1.34898E+03 5.14846E+04-2.40497E-09 4.14608E-09
 -1        51 5.96439E+04-1.78049E+05 1.26386E+05-4.64025E+05-1.45519E-10 5.01532E-08
 -1        52 2.03149E+04-1.56133E+05 6.64935E+04-5.41152E+05 1.62800E-10 7.98318E-08
 -1        53 4.29222E+03-1.71538E+05 3.49142E+04-4.62412E+05 4.69299E-10-6.98492E-08
 -1        54 7.85233E+03-1.67356E+05 2.92661E+04-5.42750E+05-2.54659E-11-1.28981E-07
 -1        55 1.70532E+04-1.74681E+05 3.62764E+04-4.62292E+05 4.58385E-10 1.08397E-07
 -1        56-9.64766E+06-1.26215E+06-8.73572E+05-3.95475E+06 1.42318E-08 3.99887E-08
 -1        57-1.07496E+07-1.07067E+06-5.53983E+05-2.92000E+06 8.27276E-09 5.94882E-08
 -1        58-9.58526E+06-1.67406E+06-1.97626E+05-4.07862E+06 1.69894E-08-3.59556E-07
 -1        59-1.07731E+07-6.14596E+05-1.11959E+05-2.87378E+06-7.61520E-09-2.79630E-07
 -1        60-9.66146E+06-1.68146E+06-5.22676E+04-4.03556E+06-1.01500E-08-1.95228E-07
 -1        61-1.03401E+07-8.44106E+05-3.31257E+03-3.09197E+06 3.83334E-08 5.35711E-08
 -1        62-9.94385E+06-1.49415E+06-4.65675E+04-3.80338E+06-3.87008E-08-2.50620E-08
 -1        63-9.73380E+06-1.34879E+06 2.41862E+04-3.61760E+06 3.39642E-08 1.67036E-07
 -1        64-1.02123E+07-1.21588E+06-4.25875E+04-3.47377E+06-3.06682E-08-1.05591E-07
 -1        65-9.41314E+06-1.79545E+06-4.20089E+03-4.24292E+06 3.78350E-09-1.38636E-07
 -1        66-1.03319E+07-1.00081E+06-4.42657E+04-3.22826E+06 2.42289E-08-9.37598E-08
 -1        67-9.37848E+06-2.00452E+06-1.01014E+05-4.53160E+06-5.00813E-08 1.98736E-07
 -1        68-1.03132E+07-9.61475E+05-1.81208E+05-3.22768E+06-3.77854E-08-1.54250E-09
 -1        69-9.60176E+06-2.13536E+06-4.95717E+05-4.20971E+06-5.26578E-08-1.13214E-08
 -1        70-1.00506E+07-9.21406E+05-7.96370E+05-3.50833E+06-9.57516E-09-3.84171E-08
 -1        86-1.27942E+06-1.38961E+07-2.40222E+06-2.61831E+06-2.49292E-07-6.61676E-08
 -1        87 1.97312E+06 5.10833E+06 1.99906E+06 5.01790E+06-4.28154E-07-1.37879E-09
 -1        88-3.52156E+05-2.14352E+06 1.83827E+05-2.33557E+06-4.09644E-07 1.99655E-07
 -1        89 2.64682E+06 4.87568E+06 2.04456E+06 5.17228E+06-5.60423E-07 4.64952E-08
 -1        90-1.87994E+06-1.37245E+07-2.60243E+06-2.79345E+06-1.42489E-07-5.11500E-08
 -1       121-2.03023E+03-1.57880E+06-5.39820E+02 1.10490E+03 1.30983E-09-6.14091E-09
 -1       122-1.29422E+03-1.57398E+06 7.76158E+02-4.46158E+03-5.27002E-09 1.88411E-08
 -1       123-2.05051E+03-1.57894E+06 2.76941E+02 3.29968E+03 4.40059E-09 6.04632E-09
 -1       124 3.57649E+02-1.57352E+06 2.97928E+03-9.33039E+03-9.58153E-09-1.95450E-08
 -1       125-2.86812E+03-1.57984E+06 3.51108E+03 5.92819E+03 6.85577E-09-5.82440E-09
 -1       191-7.69041E+01 3.85887E+05 8.46772E+00 6.86577E-01-5.94389E-10-5.44787E-09
 -1       192-7.39228E+01 3.85869E+05 2.10624E+01-4.23295E+00-7.67849E-10-3.75303E-08
 -1       193-7.94107E+01 3.85887E+05 3.59296E+01 3.71452E+00-1.13918E-09 2.83580E-09
 -1       194-7.69754E+01 3.85872E+05 8.00609E+01-9.60694E+00-5.74398E-10 4.02360E-09
 -1       195-8.42219E+01 3.85884E+05 1.53349E+02 6.24558E+00-1.41690E-09 2.16933E-08
 -1       251-9.48269E+05 1.84404E+04-4.32157E+04-1.58424E+04 5.20254E-09 2.10423E-07
 -1       252-9.65623E+05-2.12815E+04-3.02271E+04 5.41017E+04-9.16765E-09-1.31091E-07
 -1       253-9.56803E+05 2.87660E+03-1.14239E+04-1.31223E+04-8.13316E-10-6.44718E-08
 -1       254-9.51633E+05-3.36065E+03-5.65479E+03 4.09992E+04 8.47763E-10-8.80441E-08
 -1       255-9.61688E+05 1.51442E+02-3.81389E+03-2.74132E+03 1.81603E-09-6.32781E-08
 -1       256-9.44926E+05-3.49783E+02 9.32720E+02 1.62456E+04-7.61725E-09 2.24697E-07
 -1       257-9.62962E+05-5.43243E+02-1.57904E+03 1.16213E+04 3.77258E-09 1.02027E-07
 -1       258-9.46897E+05 8.22500E+02 2.70216E+03-1.12911E+04-9.58357E-09 8.02288E-08
 -1       259-9.59890E+05-8.86635E+02 1.12302E+03 2.47907E+04 1.33014E-09-1.71865E-07
 -1       260-9.53597E+05 2.76276E+03 5.29345E+03-3.17465E+04 7.31006E-10-3.48538E-07
 -1       261-9.56925E+05-1.96957E+03 8.04922E+03 3.20912E+04 2.33475E-08 2.18629E-08
 -1       262-9.52878E+05 1.10371E+04 2.00558E+04-3.79161E+04-4.79102E-08 2.23077E-07
 -1       263-9.60891E+05-8.90962E+03 3.17180E+04 3.09699E+04 2.49533E-08 1.10484E-07
 -1       264-9.23783E+05 6.25261E+04 8.80375E+04-2.75563E+04 8.65498E-10-1.31718E-07
 -1       265-9.85493E+05-5.36317E+04 1.22235E+05 2.17191E+04 1.42843E-08 2.70811E-08
 -1       266-1.76979E+04-8.27633E+03 4.15208E+04-2.02395E+01 3.45608E-11-1.92945E-07
 -1       267 2.05165E+04 9.64505E+03 2.93481E+04 2.33542E+01-8.50378E-11-4.56361E-07
 -1       268-2.75124E+03-1.36607E+03 1.09085E+04-2.97563E+00-1.99634E-10-1.32924E-07
 -1       269 3.24839E+03 1.63482E+03 7.09042E+03 3.46627E+00 1.63482E-10 3.22877E-07
 -1       270-4.87587E+02-2.68616E+02 3.42264E+03-4.70392E-01-1.13459E-10-6.21960E-08
 -1       271-1.56253E+06-1.96845E+05-1.17201E+05-6.06504E+05-1.52395E-08-3.40515E-08
 -1       272-1.57184E+06-3.06057E+05-7.41287E+04-6.34468E+05-5.31145E-10-7.13226E-09
 -1       273-1.58688E+06-2.22651E+05-2.82259E+04-5.98549E+05-2.38433E-08-1.82350E-07
 -1       274-1.54345E+06-2.75175E+05-1.49862E+04-6.48880E+05 8.11997E-09-2.20607E-08
 -1       275-1.59239E+06-2.22779E+05-6.92261E+03-5.94945E+05 1.21508E-08 3.50155E-08
 -1       276-1.53728E+06-2.75705E+05-3.09228E+03-6.56715E+05-4.77885E-08 2.87073E-08
 -1       277-1.59509E+06-2.20438E+05-1.89148E+03-5.92324E+05-1.24473E-08 7.49151E-09
 -1       278-1.53470E+06-2.78840E+05-8.27360E+02-6.62512E+05 9.05711E-08 5.35874E-08
 -1       279-1.59683E+06-2.18439E+05-9.57674E+02-5.90445E+05 4.78394E-10-1.68717E-07
 -1       280-1.53340E+06-2.81328E+05-1.21856E+03-6.66435E+05 4.73983E-08 1.64795E-07
 -1       281-1.59777E+06-2.17086E+05-2.24464E+03-5.89336E+05-2.48901E-08 5.76556E-08
 -1       282-1.53376E+06-2.83918E+05-5.23956E+03-6.68183E+05 5.80940E-09-1.44079E-07
 -1       283-1.59721E+06-2.15529E+05-9.31852E+03-5.89133E+05 6.59202E-09-1.06839E-07
 -1       284-1.54198E+06-2.96442E+05-2.54017E+04-6.66043E+05-3.03528E-08 3.00633E-09
 -1       285-1.58968E+06-2.05868E+05-3.95614E+04-5.90989E+05 2.27394E-08 1.38825E-07
 -1       301-2.05367E+03-6.31771E+05 1.67853E+05-1.10451E+06-2.03727E-09-6.38101E-09
 -1       302-2.64523E+03-5.86132E+05 1.01060E+05-1.61280E+06-3.20142E-09 3.09319E-08
 -1       303-1.77530E+04-6.22916E+05 5.75506E+04-1.10154E+06 8.68022E-09-1.87312E-07
 -1       304-1.85961E+04-5.92061E+05 5.87110E+04-1.61210E+06-1.37225E-08-2.70582E-07
 -1       305-2.14887E+04-6.12251E+05 7.32160E+04-1.10465E+06-5.59521E-09-8.39354E-08
 -1       306-3.00275E+07-6.20028E+06-8.57325E+06-5.82439E+05-8.23056E-08 1.08557E-07
 -1       307 2.53648E+07 3.19032E+06 5.50234E+06-1.50560E+07-7.42672E-07 2.51195E-07
 -1       308-7.06137E+06-1.03037E+06-4.75753E+05 5.18789E+06-2.28640E-07 7.09741E-07
 -1       309-3.32625E+06 8.67039E+06 2.26003E+06-2.05790E+07 4.58149E-07 4.95056E-07
 -1       310-1.24181E+07-1.90310E+06-1.98358E+06 5.19238E+06 5.77420E-08 1.33907E-07
 -1       311 3.78568E+07 2.71503E+04 7.19318E+06-8.92169E+06 7.25238E-07-1.90194E-07
 -1       312-3.17397E+07-6.68204E+06-8.45803E+06-4.91517E+06 2.07219E-07 7.74162E-08
 -1       313 4.52886E+07 1.46776E+07 1.05954E+07 2.34667E+07 4.39351E-07-1.80764E-07
 -1       314-1.72984E+07-1.75846E+07-7.48733E+06-1.24888E+07 6.98084E-07-2.40398E-08
 -1       315-1.67486E+06 2.94712E+07 5.65166E+06 1.06710E+07-6.27042E-07 1.84402E-07
 -1       316 1.32492E+06-9.84034E+06-4.57139E+05-2.60959E+06-1.28373E-06-3.33966E-07
 -1       317-1.71530E+07 2.23202E+07 2.21697E+06-8.65258E+06 7.29953E-07-9.26928E-07
 -1       318-1.06333E+06-1.26494E+07-2.00100E+06-4.24776E+06-9.24454E-07 7.43894E-08
 -1       319 7.05655E+06 3.16126E+07 6.96110E+06 1.64466E+07-9.79344E-08 2.25584E-07
 -1       320-2.24638E+07-1.74879E+07-9.77100E+06-1.27270E+07 1.88244E-07-5.24742E-08
 -1       336-7.17402E+02-1.70911E+06-1.39386E+04 8.98283E+03-2.64172E-08-1.60726E-08
 -1       337-5.43014E+03-1.70873E+06-1.81917E+04-2.18059E+04-4.86816E-08 1.05247E-08
 -1       338 3.03924E+02-1.70860E+06-2.86206E+04 1.25744E+04-3.47000E-08 2.40470E-09
 -1       339-3.03664E+04-1.72606E+06-6.47073E+04-2.88374E+04-6.38784E-08 2.60115E-08
 -1       340 2.00381E+04-1.69397E+06-1.01910E+05 1.58839E+04-4.23352E-08 3.36986E-08
 -1       406-4.75611E+01 3.85870E+05 6.37047E+02 3.27703E+00-1.96232E-09 1.35260E-08
 -1       407 1.54597E+02 3.86002E+05 1.36125E+03 2.30633E+01-5.10582E-10 3.17596E-09
 -1       408 6.29355E+02 3.85771E+05 2.71431E+03-2.66651E+01-2.36241E-09 2.05200E-08
 -1       409 2.87585E+03 3.86869E+05 6.11766E+03 2.84586E+02 3.27418E-11 1.99625E-08
 -1       410 8.38639E+03 3.84989E+05 1.24860E+04-2.74250E+02-2.78487E-09 6.37556E-09
 -1       521-3.15342E+07-7.63756E+06-9.99761E+06-1.95490E+05-1.17114E-07-8.03266E-08
 -1       522 2.61785E+07 4.17650E+06 5.59783E+06-1.85194E+07-6.54574E-07-3.76633E-07
 -1       523-7.64608E+06-1.33801E+06-4.68247E+05 5.62867E+06 2.11759E-07-2.40747E-07
 -1       524-6.81234E+06 1.16710E+07 2.43958E+06-2.36065E+07 8.21921E-07-7.62928E-07
 -1       525-1.32188E+07-2.52049E+06-2.17661E+06 5.63311E+06 4.54835E-07-4.55184E-07
 -1       526 4.12290E+07-5.64608E+04 7.53855E+06-1.15557E+07-2.01515E-07-1.26660E-07
 -1       527-3.35394E+07-8.35417E+06-9.73177E+06-4.77298E+06 2.93949E-07 7.72270E-08
 -1       528 4.93805E+07 1.62990E+07 1.10341E+07 2.66279E+07-1.87254E-07 5.97502E-08
 -1       529-1.82326E+07-1.97460E+07-8.56964E+06-1.25149E+07-7.27014E-08-4.52623E-07
 -1       530-4.14586E+06 3.41707E+07 5.97016E+06 1.01716E+07 1.13650E-08 7.25966E-07
 -1       531 1.31361E+06-1.09094E+07-4.31970E+05-2.57621E+06-7.41085E-07 3.53728E-07
 -1       532-1.97062E+07 2.43238E+07 2.41775E+06-1.28663E+07 3.39394E-07-5.92554E-07
 -1       533-1.11058E+06-1.37810E+07-2.12430E+06-4.07530E+06-3.73198E-07-9.20147E-07
 -1       534 5.03032E+06 3.66152E+07 7.23218E+06 1.69884E+07-4.48490E-08 7.87841E-07
 -1       535-2.36157E+07-1.98303E+07-1.11813E+07-1.27842E+07 1.21538E-07 4.73578E-07
 -1       536-7.04702E+05-4.69412E+04-4.69499E+04-5.44769E+04-8.58472E-09 5.47598E-08
 -1       537-5.62691E+04 4.49560E+04 8.42076E+04 1.23453E+05-1.13719E-07 7.87277E-08
 -1       538-3.94380E+05 3.26309E+03 3.78947E+03-7.20064E+04 1.79516E-08 1.11155E-07
 -1       539-2.69596E+05 2.90565E+03 2.49468E+04 1.38335E+05 1.64193E-07 1.36110E-07
 -1       540-4.96728E+05-4.27364E+02-2.11440E+04-6.98898E+04 1.22855E-08 1.24765E-07
 -1       541 1.44070E+05 1.68955E+04 1.05898E+05 9.75936E+04-1.45701E-09 5.62389E-08
 -1       542-7.96901E+05-2.00414E+04-8.38151E+04-3.03965E+04 4.05325E-08 4.07128E-08
 -1       543 4.01530E+05 2.71966E+04 1.57211E+05-1.33235E+04-8.17763E-08 2.56478E-09
 -1       544-7.47283E+05-1.64553E+04-7.44698E+04 4.03627E+04-1.45001E-08-4.05440E-08
 -1       545 2.69273E+04 9.42830E+03 7.94044E+04-1.13264E+05-6.45923E-09-7.41386E-08
 -1       546-4.32358E+05 6.07471E+03-1.21766E+04 6.92007E+04 2.03820E-08-9.21214E-08
 -1       547-2.87623E+05-4.66246E+03 1.04897E+04-1.41181E+05-1.25558E-07-1.20041E-07
 -1       548-4.41188E+05 4.71553E+03-2.38271E+04 6.89651E+04-1.10514E-07-1.15179E-07
 -1       549 4.60590E+04 1.58763E+04 6.00664E+04-1.11117E+05-4.98285E-08-6.17579E-08
 -1       550-7.57111E+05-2.19352E+04-1.28584E+05 3.84259E+04 9.59790E-09-2.81434E-08
 -1       551 4.07733E+04-7.56252E+05-1.53526E+04-1.24713E+06-1.01907E-07-1.44064E-08
 -1       552 9.31084E+04-8.01028E+05 1.02638E+04-1.77832E+06-7.02130E-08 5.49044E-08
 -1       553 7.15971E+04-7.97492E+05 3.23166E+04-1.24050E+06-1.16066E-07 2.65136E-08
 -1       554 1.31841E+05-8.16741E+05 8.14601E+04-1.78026E+06-7.41129E-08 1.32113E-08
 -1       555 1.01362E+05-8.21099E+05 1.48682E+05-1.24034E+06-1.21479E-07-6.59384E-09
 -1       556 2.22916E+05-3.82427E+05 2.68236E+04-4.06497E+05-2.37487E-08-1.14087E-08
 -1       557 3.53346E+05-4.86603E+05 1.66892E+04-5.26504E+05-1.16415E-09 8.15999E-09
 -1       558 2.04849E+05-3.75465E+05 2.57718E+03-4.10758E+05-1.28639E-08 2.53931E-09
 -1       559 3.28323E+05-4.86834E+05 2.55827E+03-5.46856E+05 2.06055E-08-1.54505E-08
 -1       560 1.89628E+05-3.65919E+05-1.43590E+03-4.21723E+05 1.11177E-08-1.13869E-08
 -1       561 3.09183E+05-4.79183E+05 1.58971E+02-5.59901E+05 1.33878E-09-3.91447E-09
 -1       562 1.77592E+05-3.58439E+05-1.30465E+03-4.30438E+05 3.20142E-10-1.72076E-09
 -1       563 2.94886E+05-4.72950E+05-2.93477E+01-5.69238E+05 1.33150E-09 6.67933E-09
 -1       564 1.69004E+05-3.53088E+05-5.92999E+02-4.36525E+05 3.78350E-09-3.67800E-09
 -1       565 2.85406E+05-4.68822E+05 2.65967E+01-5.75294E+05 4.42378E-09-4.79440E-09
 -1       566 1.63986E+05-3.49913E+05-2.55605E+02-4.40034E+05-2.07365E-09 5.85715E-10
 -1       567 2.80804E+05-4.66820E+05-3.56310E+02-5.78089E+05 2.06637E-08 5.77711E-09
 -1       568 1.62629E+05-3.49082E+05-1.11214E+03-4.41079E+05-2.81489E-09 1.11213E-08
 -1       569 2.79698E+05-4.66742E+05-2.81049E+03-5.76657E+05-1.52486E-08 1.23619E-08
 -1       570 1.66020E+05-3.52302E+05-6.15021E+03-4.40067E+05 5.58066E-09-1.95359E-09
 -1       571 2.93911E+05 1.06172E+04 1.53247E+04-9.51561E+04 3.45335E-09-5.05133E-09
 -1       572 2.96149E+05 3.97628E+03 7.51674E+03-1.04584E+05 4.38604E-09 2.25009E-09
 -1       573 2.94802E+05 1.23249E+03 3.34155E+03-9.49758E+04-4.47108E-09-2.48356E-08
 -1       574 2.95019E+05 7.20851E+02 1.67703E+03-1.04813E+05-2.49861E-09-2.31821E-08
 -1       575 2.94896E+05 4.43802E+02 7.92485E+02-9.49514E+04-3.67802E-09-2.27865E-08
 -1       576 2.94880E+05 4.58378E+02 4.06169E+02-1.04843E+05-1.01627E-08-2.21398E-08
 -1       577 2.94936E+05 3.88882E+02 2.03416E+02-9.49481E+04-1.63518E-08-1.01563E-08
 -1       578 2.94910E+05 4.21361E+02 1.18505E+02-1.04847E+05-1.86265E-08 7.22412E-09
 -1       579 2.95008E+05 3.52181E+02 8.31879E+01-9.49477E+04-1.32786E-10-6.73845E-09
 -1       580 2.95013E+05 3.69743E+02 9.89871E+01-1.04843E+05-9.08040E-09-3.23053E-09
 -1       581 2.95124E+05 2.92801E+02 1.52155E+02-9.49535E+04 1.95178E-09-1.19007E-08
 -1       582 2.95193E+05 3.34060E+02 3.10196E+02-1.04781E+05-1.73259E-09-1.08876E-08
 -1       583 2.95264E+05 3.43906E+02 5.97034E+02-9.50099E+04-1.29512E-09 1.73009E-09
 -1       584 2.95593E+05 8.25728E+02 1.35028E+03-1.04301E+05 1.04919E-08 2.60136E-08
 -1       585 2.95274E+05 1.95822E+03 2.73381E+03-9.54329E+04 1.46611E-09 1.17034E-08
 -1       586-3.48219E+03 1.16170E+05-3.01108E+03-2.50758E+05-7.01175E-09 1.95514E-08
 -1       587-1.35597E+03 1.15907E+05 7.22185E+02-2.75978E+05-7.18501E-09 1.92231E-08
 -1       588 3.96080E+02 1.15723E+05 4.73152E+03-2.50620E+05-3.70346E-09-9.91531E-09
 -1       589 5.07987E+03 1.18191E+05 1.23164E+04-2.75744E+05-8.38554E-09-2.20471E-08
 -1       590 1.65884E+04 1.14392E+05 2.58535E+04-2.51052E+05-7.02403E-09-1.18234E-10
 -1       591-7.57721E+04-1.61862E+04-2.26360E+04-3.23750E+04-4.69686E-09 7.41329E-09
 -1       592-7.98455E+04-1.97960E+04-1.22615E+04-3.60581E+04-2.97001E-09-2.13103E-08
 -1       593-7.80367E+04-1.45430E+04-5.10385E+03-3.40341E+04-4.03854E-09-3.25917E-09
 -1       594-7.67195E+04-1.64751E+04-2.54541E+03-3.61773E+04-3.19554E-09 3.54811E-09
 -1       595-7.82093E+04-1.45376E+04-1.16862E+03-3.41095E+04-2.99212E-09 2.31771E-08
 -1       596-7.65055E+04-1.63232E+04-5.93878E+02-3.61519E+04 1.94745E-08 1.72062E-08
 -1       597-7.82310E+04-1.45530E+04-3.22984E+02-3.41123E+04 3.44818E-09 1.51991E-08
 -1       598-7.64844E+04-1.63172E+04-2.58911E+02-3.61448E+04-5.54064E-09 9.79975E-09
 -1       599-7.82297E+04-1.45535E+04-3.29819E+02-3.41120E+04 7.09815E-09-2.76805E-09
 -1       600-7.65055E+04-1.63238E+04-6.11971E+02-3.61498E+04 6.38363E-09-4.08593E-08
 -1       601-7.82049E+04-1.45389E+04-1.20691E+03-3.41084E+04 2.60798E-10-2.97678E-08
 -1       602-7.67264E+04-1.64795E+04-2.63014E+03-3.61721E+04-1.76180E-09-2.11704E-08
 -1       603-7.80237E+04-1.45475E+04-5.27443E+03-3.40313E+04-2.90174E-09 3.71665E-09
 -1       604-7.99742E+04-1.98920E+04-1.26704E+04-3.60243E+04 5.96799E-09 2.03599E-08
 -1       605-7.56638E+04-1.62631E+04-2.33911E+04-3.23361E+04 4.70425E-09 2.29702E-08
 -1       606 2.65720E+04-1.43839E+04-2.57887E+04 2.37975E+04-2.02999E-09-1.13325E-08
 -1       607 2.21654E+04-4.69640E+03-1.28427E+04 2.67434E+04-1.93795E-08-1.36060E-08
 -1       608 2.46774E+04-8.45832E+02-5.74921E+03 2.36302E+04-2.77760E-09-8.35780E-09
 -1       609 2.41960E+04-2.88653E+02-2.90437E+03 2.69557E+04 2.37651E-08 8.15589E-09
 -1       610 2.44634E+04-3.96817E+01-1.38567E+03 2.36103E+04 1.35287E-08 1.18814E-08
 -1       611 2.43879E+04-3.99708E+01-6.98654E+02 2.69786E+04 4.13638E-09 1.18389E-08
 -1       612 2.44166E+04-2.61736E+01-3.32097E+02 2.36083E+04 4.33465E-09-2.35241E-09
 -1       613 2.43999E+04-3.60990E+01-1.48790E+02 2.69813E+04 1.89493E-09-1.73266E-08
 -1       614 2.43946E+04-3.28233E+01-3.47849E+01 2.36076E+04 2.94676E-10-1.22441E-09
 -1       615 2.43950E+04-3.47870E+01 6.25881E+01 2.69818E+04-6.03904E-10 2.13799E-09
 -1       616 2.43774E+04-2.98400E+01 1.87478E+02 2.36078E+04 1.20599E-09-3.96517E-09
 -1       617 2.44177E+04 5.02686E+00 4.27644E+02 2.69813E+04-2.25555E-10 1.86697E-09
 -1       618 2.43405E+04 9.33354E+01 8.61959E+02 2.36081E+04-2.20234E-09 3.61274E-09
 -1       619 2.47222E+04 6.71411E+02 1.93557E+03 2.69807E+04-8.09905E-10-1.85878E-09
 -1       620 2.40543E+04 2.13721E+03 3.89044E+03 2.36097E+04 2.95563E-09-9.07266E-09
 -1       621 5.17588E+02 3.02855E+05 3.94464E+03 4.14583E+04 8.85848E-10 4.23006E-09
 -1       622 6.85152E+02 3.03767E+05 3.48909E+03 6.01899E+04 1.20554E-09 9.63746E-09
 -1       623 1.43124E+02 3.03054E+05 4.17772E+03 4.12703E+04 1.20053E-09 5.80258E-10
 -1       624 2.14015E+03 3.04987E+05 8.08672E+03 6.03752E+04 1.19178E-09-1.71503E-08
 -1       625 2.09100E+03 3.01450E+05 1.41254E+04 4.12668E+04 1.64709E-09 1.09844E-09
 -1       626 2.61326E+05 6.13317E+04 5.07595E+03 1.26751E+05 6.58838E-09 8.38008E-09
 -1       627 2.59018E+05 6.27271E+04 2.44606E+03 1.30999E+05 2.16778E-09-1.11249E-08
 -1       628 2.61453E+05 5.90095E+04 1.03454E+03 1.27614E+05-3.76349E-09 5.82622E-09
 -1       629 2.58389E+05 6.20526E+04 5.06374E+02 1.31237E+05-8.72024E-09-3.35955E-09
 -1       630 2.61468E+05 5.88972E+04 2.35065E+02 1.27651E+05-3.84989E-09-6.06138E-09
 -1       631 2.58322E+05 6.20268E+04 1.26751E+02 1.31239E+05 2.22053E-09 3.75724E-09
 -1       632 2.61464E+05 5.89010E+04 8.38653E+01 1.27647E+05 6.07997E-09-2.21989E-08
 -1       633 2.58314E+05 6.20285E+04 9.41273E+01 1.31235E+05 2.56682E-09 4.04930E-09
 -1       634 2.61460E+05 5.88980E+04 1.52737E+02 1.27647E+05-2.83535E-10 6.10203E-09
 -1       635 2.58329E+05 6.20268E+04 3.09450E+02 1.31241E+05-1.47168E-10 3.55085E-08
 -1       636 2.61451E+05 5.88921E+04 6.25133E+02 1.27646E+05 4.81486E-09-4.18731E-09
 -1       637 2.58464E+05 6.21240E+04 1.37464E+03 1.31240E+05 1.26170E-09 1.34755E-08
 -1       638 2.61402E+05 5.91958E+04 2.82441E+03 1.27509E+05-5.64842E-09-1.16620E-08
 -1       639 2.59948E+05 6.41875E+04 6.68272E+03 1.30804E+05 2.04636E-11-7.76618E-09
 -1       640 2.61197E+05 6.53575E+04 1.38678E+04 1.24913E+05-2.82853E-09-2.22406E-08
 -1       656 6.66754E+04-1.70664E+06-1.60950E+05-2.53291E+03-5.52973E-10-3.35365E-09
 -1       657-8.82067E+04-1.77937E+06-1.33339E+05 5.15256E+03-1.07684E-09 1.19877E-08
 -1       658 2.12548E+04-1.72730E+06-8.21227E+04-4.61810E+03-4.67708E-10 5.10558E-09
 -1       659-9.53887E+04-1.78278E+06-1.42778E+05 6.88934E+03-4.80213E-10 6.30837E-09
 -1       660 7.38413E+04-1.70324E+06-1.77176E+05-4.26969E+03-2.61207E-09 2.41205E-08
 -1       661 1.57741E+05 1.64983E+04 1.66596E+04 6.16721E+04-4.51564E-10 7.21047E-09
 -1       662 1.67171E+05 2.88241E+04 1.12274E+04 5.79211E+04 1.74992E-09-1.53168E-08
 -1       663 1.61013E+05 2.18430E+04 3.92663E+03 6.07224E+04 1.35003E-09-2.39311E-09
 -1       664 1.63377E+05 2.25739E+04 2.34896E+03 5.90812E+04-1.98042E-09-4.20710E-09
 -1       665 1.61510E+05 2.25729E+04 9.26650E+02 6.05775E+04 4.06823E-09-1.60193E-08
 -1       666 1.62790E+05 2.17392E+04 5.42448E+02 5.92702E+04 9.22364E-09-1.06842E-08
 -1       667 1.61597E+05 2.26559E+04 2.88350E+02 6.05412E+04 2.17301E-09-1.74943E-08
 -1       668 1.62694E+05 2.16796E+04 2.94327E+02 5.93230E+04-5.15935E-09-1.66044E-08
 -1       669 1.61604E+05 2.26309E+04 3.98906E+02 6.05250E+04-2.58657E-09 1.03483E-08
 -1       670 1.62791E+05 2.18962E+04 8.69020E+02 5.93258E+04-1.02843E-08 7.39777E-09
 -1       671 1.61499E+05 2.24438E+04 1.54315E+03 6.05363E+04 3.51058E-10 6.64392E-09
 -1       672 1.63690E+05 2.33974E+04 3.94821E+03 5.91077E+04 8.75553E-09-1.71866E-08
 -1       673 1.60710E+05 2.11677E+04 6.61662E+03 6.07285E+04 6.13113E-10 5.42559E-09
 -1       674 1.69988E+05 3.40276E+04 1.89221E+04 5.72574E+04-4.11410E-09-5.65251E-09
 -1       675 1.55242E+05 1.21114E+04 2.80871E+04 6.22749E+04-2.31876E-09 1.19144E-09
 -1       676 2.40971E+01-2.95860E+05-1.11291E+03-1.36124E+02-1.64562E-11 1.61255E-09
 -1       677-2.94412E+02-2.96129E+05-2.03681E+03 2.72029E+02 5.71822E-09-4.58395E-09
 -1       678 1.97450E+02-2.95668E+05-3.60058E+03-1.35816E+02 2.61252E-10-1.87055E-08
 -1       679-3.60066E+03-2.98303E+05-8.55349E+03 2.70853E+02 1.14766E-08-8.89310E-09
 -1       680 2.14979E+03-2.93687E+05-1.37853E+04-1.33449E+02 9.01309E-10 1.50772E-08
 -1       771-3.06271E+06-7.46084E+05-1.64607E+05-1.46516E+06-3.42552E-08-2.99187E-08
 -1       772-2.98577E+06-8.34612E+05-8.48621E+04-1.56751E+06-2.33704E-08 1.19362E-08
 -1       773-3.09400E+06-7.21675E+05-4.32680E+04-1.47955E+06-1.53086E-08 1.00408E-08
 -1       774-2.97631E+06-8.16266E+05-1.93022E+04-1.59313E+06 2.87546E-08-8.00355E-09
 -1       775-3.11035E+06-7.10200E+05-1.44431E+04-1.48655E+06-1.28057E-09 1.36788E-09
 -1       776-2.98856E+06-8.13268E+05-5.40027E+03-1.61252E+06-2.91038E-09 7.85803E-10
 -1       777-3.12454E+06-6.99960E+05-6.38308E+03-1.49272E+06 8.49832E-09 2.33558E-09
 -1       778-3.00135E+06-8.10477E+05-1.80426E+03-1.62917E+06 8.00355E-09 5.74801E-09
 -1       779-3.13673E+06-6.91013E+05-3.19027E+03-1.49799E+06-9.56061E-09-1.08412E-09
 -1       780-3.01262E+06-8.07813E+05-5.28878E+02-1.64274E+06-9.00764E-09 3.34694E-09
 -1       781-3.14642E+06-6.83801E+05-1.23941E+03-1.50211E+06-2.54513E-08 4.75848E-09
 -1       782-3.02130E+06-8.05550E+05 4.46922E+02-1.65275E+06-3.88318E-08-4.91264E-09
 -1       783-3.15325E+06-6.78790E+05 6.95668E+02-1.50500E+06-8.84029E-09-1.37757E-08
 -1       784-3.02611E+06-8.03286E+05 2.88336E+03-1.65894E+06-1.97942E-08 1.70985E-09
 -1       785-3.15729E+06-6.75802E+05 5.09005E+03-1.50684E+06-3.59869E-08 8.55471E-09
 -1       786 1.26761E+05-9.90061E+03 2.29061E+04-3.27629E+02 1.71140E-09 1.59162E-10
 -1       787 1.36696E+05 1.14627E+04 1.62051E+04-1.41379E+02 2.88909E-09-1.10504E-08
 -1       788 1.30592E+05-1.55145E+03 5.92638E+03-2.92235E+02 2.09029E-09 1.70010E-08
 -1       789 1.32233E+05 1.79579E+03 3.72046E+03-1.95545E+02-2.52748E-09 5.69088E-09
 -1       790 1.31224E+05-2.41567E+02 1.50660E+03-2.73480E+02-4.26396E-09 3.64764E-10
 -1       791 1.31494E+05 2.79576E+02 8.70638E+02-2.27631E+02-6.93067E-09 2.32561E-08
 -1       792 1.31331E+05-3.63737E+01 3.69877E+02-2.60152E+02-4.56187E-09 4.81563E-09
 -1       793 1.31366E+05 3.89095E+01 1.86435E+02-2.52766E+02-1.70194E-09-9.65999E-09
 -1       794 1.31352E+05-1.05303E+00 5.25626E+01-2.48345E+02 5.21120E-09 7.37404E-09
 -1       795 1.31330E+05-2.43182E+01-4.75899E+01-2.77533E+02-5.35052E-09 1.37422E-08
 -1       796 1.31367E+05 2.68186E+01-1.46055E+02-2.35385E+02 3.71180E-09-1.13698E-08
 -1       797 1.31243E+05-2.00372E+02-4.06196E+02-3.07471E+02 2.59181E-09 8.99244E-09
 -1       798 1.31439E+05 1.74868E+02-6.61121E+02-2.18406E+02 1.29649E-09 9.29901E-10
 -1       799 1.30741E+05-1.28865E+03-1.82007E+03-3.49659E+02 6.91522E-09-2.07592E-09
 -1       800 1.31869E+05 1.11421E+03-2.57616E+03-1.93199E+02 5.39060E-10 3.60718E-08
 -1       801-1.68780E+05-9.95443E+06-1.38608E+06 1.40483E+06 9.03965E-08-6.62258E-08
 -1       802 7.31471E+05 5.88230E+06 2.16467E+06-1.73292E+06 2.56361E-07-3.11784E-08
 -1       803-5.32749E+05-1.41899E+07-1.87731E+06 8.91414E+05 7.67795E-08 1.48502E-08
 -1       804 2.84757E+05 2.35003E+06 1.52555E+06 6.73896E+05-1.19642E-07-1.06204E-07
 -1       805 1.88375E+05-6.43634E+06-2.84259E+05-9.96352E+05-4.94183E-08-6.70698E-08
 -1       806-3.08947E+05-5.99749E+04-2.28485E+04-1.22710E+05-9.30640E-09-9.30140E-09
 -1       807-3.10709E+05-5.62814E+04-1.12252E+04-1.28296E+05 1.52409E-08-1.29329E-09
 -1       808-3.09576E+05-5.17394E+04-4.76209E+03-1.26602E+05 6.76391E-09 1.21004E-08
 -1       809-3.08348E+05-5.31285E+04-2.32854E+03-1.28573E+05-9.87188E-09-4.79770E-09
 -1       810-3.09670E+05-5.14527E+04-1.06730E+03-1.26774E+05-2.50111E-11-1.02928E-08
 -1       811-3.08165E+05-5.30020E+04-5.30810E+02-1.28538E+05 9.41327E-09 5.97947E-09
 -1       812-3.09684E+05-5.14774E+04-2.68576E+02-1.26773E+05-5.17502E-09-1.59389E-09
 -1       813-3.08139E+05-5.30042E+04-1.74772E+02-1.28519E+05-6.26460E-09-1.49357E-08
 -1       814-3.09677E+05-5.14872E+04-1.73554E+02-1.26769E+05-8.09450E-09-8.06449E-09
 -1       815-3.08143E+05-5.30066E+04-2.79960E+02-1.28512E+05-6.22640E-09 3.23689E-09
 -1       816-3.09656E+05-5.14865E+04-5.30840E+02-1.26765E+05 4.92582E-09 2.49997E-08
 -1       817-3.08233E+05-5.30573E+04-1.13933E+03-1.28500E+05-1.62845E-09 1.82943E-08
 -1       818-3.09587E+05-5.16476E+04-2.32390E+03-1.26689E+05 3.09046E-09-2.66482E-09
 -1       819-3.09505E+05-5.44606E+04-5.46791E+03-1.28197E+05 1.06684E-09-4.68935E-09
 -1       820-3.09147E+05-5.57789E+04-1.11292E+04-1.24926E+05 1.47247E-09 2.60447E-08
 -1       821-3.79412E+05 2.09014E+04-4.86694E+04 2.15284E+03 1.39850E-08 2.25555E-09
 -1       822-3.99088E+05-2.42141E+04-3.41924E+04-4.55975E+03 6.01705E-09-1.43300E-08
 -1       823-3.86861E+05 3.29575E+03-1.25695E+04 3.49967E+03-1.32902E-08 1.28639E-08
 -1       824-3.90085E+05-3.80027E+03-7.86589E+03-5.50582E+03 1.28770E-09 1.09047E-08
 -1       825-3.88422E+05 5.12359E+02-3.29609E+03 3.09903E+03 2.17672E-08 4.55202E-10
 -1       826-3.87614E+05-5.66930E+02-1.73825E+03-3.19003E+03 2.53852E-08 1.80067E-08
 -1       827-3.89306E+05 4.50796E+01-1.19919E+03 1.18373E+03 1.10568E-08-1.33019E-08
 -1       828-3.86883E+05-1.29694E+02-5.73146E+02 1.09697E+03 6.99970E-10-1.94763E-08
 -1       829-3.89140E+05 6.45225E+01-1.18670E+03-1.18800E+03 6.71065E-10 1.03185E-09
 -1       830-3.87974E+05-6.21979E+02-1.87739E+03 4.97614E+03 2.82163E-09 1.06270E-08
 -1       831-3.88239E+05 5.55753E+02-3.37483E+03-2.69545E+03-6.99310E-09-1.58252E-10
 -1       832-3.90164E+05-3.96476E+03-8.16360E+03 6.29174E+03-3.19066E-09 2.05861E-08
 -1       833-3.86966E+05 3.41743E+03-1.30663E+04-2.50366E+03-1.98875E-09 3.95630E-10
 -1       834-3.99131E+05-2.51116E+04-3.53910E+04 4.27820E+03-2.62842E-09 1.63327E-08
 -1       835-3.79255E+05 2.16689E+04-5.05094E+04-6.81824E+02 5.69361E-09-1.41335E-08
 -1       836-1.41974E+03 3.71534E+05 2.29925E+04-1.63762E+04-7.15136E-09 3.74530E-09
 -1       837 4.90078E+03 3.78735E+05 1.94444E+04-3.34572E+04-7.70569E-09-9.47603E-09
 -1       838-5.59640E+02 3.73554E+05 1.97951E+04-1.63041E+04-6.16819E-09-1.63068E-08
 -1       839 1.24507E+04 3.84357E+05 3.74302E+04-3.35097E+04-6.72844E-09 5.78439E-10
 -1       840-3.84958E+03 3.65851E+05 5.96803E+04-1.63296E+04-6.19548E-09-2.30077E-08
 -1       856-5.13930E+04 8.00229E+03-2.10878E+04-3.98810E+02 3.26213E-09-1.94086E-09
 -1       857-6.00807E+04-9.40236E+03-1.45166E+04 5.63096E+03 3.95448E-09-2.86309E-09
 -1       858-5.48335E+04 1.12223E+03-5.47176E+03-4.22636E+02 4.40707E-09-1.49089E-09
 -1       859-5.61324E+04-1.32019E+03-3.30190E+03 5.66638E+03-8.93564E-10-8.43647E-09
 -1       860-5.53475E+04 1.57157E+02-1.38374E+03-4.33970E+02 2.79746E-09 4.60722E-09
 -1       861-5.55412E+04-1.87513E+02-7.61037E+02 5.68182E+03 3.01315E-09-1.76412E-08
 -1       862-5.54279E+04 2.12695E+01-3.15977E+02-4.38050E+02-8.80949E-10-8.15811E-09
 -1       863-5.54425E+04-2.15671E+01-1.14249E+02 5.68420E+03-5.96570E-09-6.09461E-09
 -1       864-5.54466E+04-5.00995E+00 4.89903E+01-4.36351E+02-7.38410E-10-6.13441E-09
 -1       865-5.53864E+04 6.05413E+01 2.58805E+02 5.67445E+03-7.51947E-09-8.89791E-09
 -1       866-5.54818E+04-6.08404E+01 5.20591E+02-4.28307E+02 1.34935E-09-6.19497E-09
 -1       867-5.51419E+04 5.02520E+02 1.28074E+03 5.65262E+03-1.39107E-09-3.96651E-09
 -1       868-5.56863E+04-4.38968E+02 2.12807E+03-4.14512E+02-1.64704E-09-4.50177E-09
 -1       869-5.35820E+04 3.65361E+03 5.66607E+03 5.61665E+03-6.10157E-10-3.99541E-09
 -1       870-5.70340E+04-3.12629E+03 8.22281E+03-3.92233E+02-3.00429E-09 6.65477E-09
 -1       871-5.53292E+03-2.16130E+04-1.95343E+04 1.30693E+05-6.53381E-09 2.34077E-08
 -1       872-1.99010E+03-2.61544E+04-8.18405E+03 1.69464E+05-1.18243E-08 2.09757E-08
 -1       873 4.03010E+02-2.39576E+04 5.79870E+02 1.30406E+05-5.97583E-09 1.64820E-08
 -1       874 3.30340E+03-2.15464E+04 9.77501E+03 1.69493E+05-1.17143E-08 2.52649E-08
 -1       875 6.84431E+03-2.62869E+04 2.20606E+04 1.30646E+05-4.88035E-09 4.33920E-09
 -1       876 2.93956E+05 4.95426E+04 1.51067E+04 1.17964E+05 1.10261E-08-7.04040E-09
 -1       877 2.94955E+05 5.27239E+04 8.06759E+03 1.22297E+05 1.58288E-08-5.41900E-09
 -1       878 2.95368E+05 4.78691E+04 3.37992E+03 1.19202E+05-4.39695E-09-4.92628E-09
 -1       879 2.92901E+05 5.06745E+04 1.68409E+03 1.22400E+05 8.00583E-10-3.44550E-08
 -1       880 2.95470E+05 4.78519E+04 7.84430E+02 1.19252E+05 9.86802E-10-2.42477E-09
 -1       881 2.92765E+05 5.05869E+04 4.18925E+02 1.22376E+05-8.16738E-09 1.35724E-08
 -1       882 2.95479E+05 4.78651E+04 2.68047E+02 1.19254E+05-2.01157E-09-5.95835E-09
 -1       883 2.92755E+05 5.05823E+04 2.88235E+02 1.22368E+05 1.74441E-09 6.61029E-09
 -1       884 2.95472E+05 4.78623E+04 4.58579E+02 1.19254E+05-8.34700E-09-1.01736E-08
 -1       885 2.92792E+05 5.05887E+04 9.22037E+02 1.22379E+05 6.83377E-09 2.17233E-09
 -1       886 2.95436E+05 4.78355E+04 1.85834E+03 1.19250E+05 3.87285E-09-2.02654E-08
 -1       887 2.93118E+05 5.08028E+04 4.05930E+03 1.22427E+05 8.15112E-09-1.73451E-08
 -1       888 2.95180E+05 4.78807E+04 8.17961E+03 1.19121E+05-8.58043E-09 2.67710E-09
 -1       889 2.97988E+05 5.58670E+04 1.95395E+04 1.22277E+05-1.55592E-08 4.18777E-09
 -1       890 2.91841E+05 5.18464E+04 3.65971E+04 1.16008E+05-3.76940E-09 1.37534E-08
 -1       891-9.02607E+01-1.62824E+05-1.99875E+03 2.71201E+04-2.54113E-09-4.03952E-09
 -1       892-1.76717E+02-1.63351E+05-2.14598E+03 4.11826E+04 2.22894E-09-3.04231E-08
 -1       893 4.30459E+01-1.62888E+05-3.03771E+03 2.71274E+04-3.21029E-09-1.82167E-08
 -1       894-1.51182E+03-1.64499E+05-6.28639E+03 4.10302E+04 9.62928E-10-1.24019E-08
 -1       895-1.20045E+03-1.61578E+05-1.10700E+04 2.72742E+04 9.83846E-10 1.95478E-08
 -1       956-3.77589E+05-5.46211E+03-1.34840E+04 3.10575E+04 8.58745E-09 6.83940E-09
 -1       957-3.80235E+05-1.92648E+03-6.92110E+03 3.73240E+04-6.17501E-09 2.79670E-09
 -1       958-3.78801E+05-2.41072E+02-3.11889E+03 3.08885E+04-4.44470E-09 2.47064E-09
 -1       959-3.78998E+05-1.35893E+02-1.59253E+03 3.75210E+04 6.99220E-09 1.90976E-08
 -1       960-3.78920E+05-4.43066E+01-7.76594E+02 3.08711E+04 3.48518E-09-1.21797E-08
 -1       961-3.78918E+05-6.25207E+01-4.11705E+02 3.75416E+04 8.86280E-09-2.10798E-09
 -1       962-3.78948E+05-4.54083E+01-2.35663E+02 3.08682E+04 2.41243E-09 1.64719E-08
 -1       963-3.78918E+05-5.82270E+01-1.89087E+02 3.75453E+04 8.77424E-09-5.96333E-09
 -1       964-3.78953E+05-4.20002E+01-2.29841E+02 3.08674E+04 5.70667E-09 1.22600E-08
 -1       965-3.78931E+05-5.52490E+01-3.97446E+02 3.75446E+04-4.94754E-09 1.09283E-08
 -1       966-3.78937E+05-3.41806E+01-7.46752E+02 3.08689E+04 6.65295E-10-7.11111E-09
 -1       967-3.79020E+05-1.18911E+02-1.53155E+03 3.75301E+04-9.66111E-10-2.21937E-08
 -1       968-3.78833E+05-2.16920E+02-2.99823E+03 3.08817E+04 1.70030E-09 3.85728E-09
 -1       969-3.80221E+05-1.83522E+03-6.65596E+03 3.73808E+04-4.38240E-09 6.57536E-10
 -1       970-3.77675E+05-5.23393E+03-1.29662E+04 3.10097E+04-1.42518E-09 6.99310E-09
 -1       971-3.45563E+05-1.72499E+03-9.29914E+03 1.53464E+04 7.30142E-09-7.16533E-09
 -1       972-3.47801E+05-1.26968E+03-5.06422E+03 2.12255E+04 1.15429E-08-1.25428E-08
 -1       973-3.46599E+05-6.15151E+01-2.26832E+03 1.52255E+04 2.28647E-09 1.65599E-08
 -1       974-3.46734E+05-8.03906E+01-1.17584E+03 2.13623E+04-2.06910E-09 2.78584E-08
 -1       975-3.46681E+05-1.67162E+01-5.88260E+02 1.52132E+04-4.67890E-09 7.92522E-09
 -1       976-3.46672E+05-3.06254E+01-3.40300E+02 2.13781E+04 3.16868E-09-5.97151E-09
 -1       977-3.46697E+05-1.59842E+01-2.48615E+02 1.52098E+04-1.39448E-09-2.34234E-08
 -1       978-3.46678E+05-2.44173E+01-2.93161E+02 2.13829E+04-5.59885E-09 2.99758E-09
 -1       979-3.46697E+05-7.50982E+00-4.72929E+02 1.52084E+04-1.53483E-09 4.58999E-09
 -1       980-3.46713E+05-2.13597E+01-9.14365E+02 2.13839E+04 3.75081E-10-5.21447E-09
 -1       981-3.46667E+05 1.53480E+01-1.77154E+03 1.52089E+04 1.60344E-09-3.03982E-09
 -1       982-3.46956E+05-1.52250E+02-3.66208E+03 2.13773E+04 2.26237E-09-1.11302E-08
 -1       983-3.46444E+05-9.80737E+01-7.11563E+03 1.52149E+04-4.37922E-09-1.30767E-08
 -1       984-3.50379E+05-3.86852E+03-1.59353E+04 2.12918E+04-1.50976E-10 2.13573E-08
 -1       985-3.43223E+05-5.30482E+03-2.92620E+04 1.52863E+04-2.20371E-09 1.41845E-08
 -3
    1PSTEP                        33          17           1          
  100CL  117 6.62933E-01         409                     0   17           1
 -4  DISP        4    1
 -5  D1          1    2    1    0
 -5  D2          1    2    2    0
 -5  D3          1    2    3    0
 -5  ALL         1    2    0    0    1ALL
 -1         1 2.69068E-03 0.00000E+00 0.00000E+00
 -1         2 1.39605E-03 5.41749E-28 0.00000E+00
 -1         3 3.42106E-04-4.23687E-28 0.00000E+00
 -1         5 1.76977E-04-5.50339E-27 0.00000E+00
 -1         8 2.67917E-03-4.18229E-07 0.00000E+00
 -1         9 2.67242E-03-1.71767E-04 0.00000E+00
 -1        10 3.10195E-04-3.42828E-06 6.61744E-24
 -1        12 1.78799E-04 8.08462E-07 8.27181E-25
 -1        15 2.66590E-03-4.44044E-07 0.00000E+00
 -1        16 2.73138E-03-1.73484E-04 0.00000E+00
 -1        17 2.11111E-04-7.81088E-06 0.00000E+00
 -1        18 1.82652E-04 3.43019E-05 0.00000E+00
 -1        19 1.84265E-04 1.61061E-06 0.00000E+00
 -1        20 1.84404E-04-9.67176E-06 0.00000E+00
 -1        21 1.83512E-04-2.50374E-05 0.00000E+00
 -1        24 3.06180E-05-1.20338E-05 0.00000E+00
 -1        25 1.93369E-04 3.45263E-05 0.00000E+00
 -1        26 1.94066E-04 2.23396E-06 0.00000E+00
 -1        27 1.91861E-04-1.32366E-05 0.00000E+00
 -1        28 1.91550E-04-2.56594E-05 0.00000E+00
 -1        32 0.00000E+00 0.00000E+00 0.00000E+00
 -1        33 2.02869E-04 2.99080E-06 0.00000E+00
 -1        34 2.00748E-04-1.32932E-05 0.00000E+00
 -1        35 1.98815E-04-2.60020E-05 0.00000E+00
 -1        51 2.68991E-03-8.67125E-08-3.30872E-24
 -1        52 2.68851E-03-1.55286E-07 3.30872E-24
 -1        53 2.68659E-03-2.20499E-07 0.00000E+00
 -1        54 2.68431E-03-2.84584E-07 0.00000E+00
 -1        55 2.68179E-03-3.49292E-07 2.48154E-24
 -1        56 2.68389E-03 6.30841E-06 0.00000E+00
 -1        57 2.67141E-03 2.67256E-05 0.00000E+00
 -1        58 2.65509E-03 5.67199E-05 0.00000E+00
 -1        59 2.63703E-03 9.08279E-05 5.29396E-23
 -1        60 2.61982E-03 1.22887E-04 0.00000E+00
 -1        61 2.60589E-03 1.46900E-04 0.00000E+00
 -1        62 2.59693E-03 1.58307E-04-1.05879E-22
 -1        63 2.59408E-03 1.53670E-04 0.00000E+00
 -1        64 2.59723E-03 1.32474E-04 0.00000E+00
 -1        65 2.60574E-03 9.57487E-05 0.00000E+00
 -1        66 2.61811E-03 4.74302E-05 0.00000E+00
 -1        67 2.63259E-03-7.43118E-06 0.00000E+00
 -1        68 2.64714E-03-6.25389E-05-1.05879E-22
 -1        69 2.65977E-03-1.11566E-04 5.29396E-23
 -1        70 2.66866E-03-1.49349E-04 5.29396E-23
 -1        86 1.47626E-03-5.53191E-06 5.29396E-23
 -1        87 1.70885E-03-3.43257E-05-2.64698E-23
 -1        88 2.02153E-03-8.36497E-05-2.64698E-23
 -1        89 2.33813E-03-1.34235E-04 1.32349E-23
 -1        90 2.58026E-03-1.65181E-04-5.29396E-23
 -1       121 3.41210E-04-5.53689E-07 0.00000E+00
 -1       122 3.38525E-04-1.11046E-06-6.61744E-24
 -1       123 3.34061E-04-1.67334E-06 0.00000E+00
 -1       124 3.27835E-04-2.24537E-06-6.61744E-24
 -1       125 3.19869E-04-2.82918E-06 0.00000E+00
 -1       191 1.77028E-04 1.34806E-07-3.30872E-24
 -1       192 1.77180E-04 2.69600E-07 0.00000E+00
 -1       193 1.77433E-04 4.04376E-07-2.48154E-24
 -1       194 1.77787E-04 5.39119E-07-1.24077E-24
 -1       195 1.78242E-04 6.73819E-07-2.48154E-24
 -1       251 2.67885E-03 1.98552E-06 0.00000E+00
 -1       252 2.67852E-03 4.67815E-06 3.30872E-24
 -1       253 2.67819E-03 6.60544E-06 0.00000E+00
 -1       254 2.67787E-03 6.72330E-06 6.61744E-24
 -1       255 2.67754E-03 4.28094E-06-1.32349E-23
 -1       256 2.67719E-03-1.43805E-06 0.00000E+00
 -1       257 2.67682E-03-1.06194E-05 0.00000E+00
 -1       258 2.67642E-03-2.34024E-05 0.00000E+00
 -1       259 2.67597E-03-3.93433E-05-1.32349E-23
 -1       260 2.67547E-03-5.79560E-05 0.00000E+00
 -1       261 2.67495E-03-7.83214E-05 1.32349E-23
 -1       262 2.67440E-03-9.94975E-05 0.00000E+00
 -1       263 2.67386E-03-1.20410E-04 1.32349E-23
 -1       264 2.67335E-03-1.39990E-04 0.00000E+00
 -1       265 2.67287E-03-1.57384E-04 1.32349E-23
 -1       266 2.67696E-03-4.28389E-07-3.30872E-24
 -1       267 2.67475E-03-4.31978E-07 0.00000E+00
 -1       268 2.67254E-03-4.35982E-07-8.27181E-25
 -1       269 2.67033E-03-4.38754E-07 2.06795E-25
 -1       270 2.66812E-03-4.41497E-07 2.06795E-25
 -1       271 2.67820E-03 3.40190E-07 1.32349E-23
 -1       272 2.67808E-03-1.26477E-06 0.00000E+00
 -1       273 2.67880E-03-5.10094E-06 0.00000E+00
 -1       274 2.68028E-03-1.10257E-05 0.00000E+00
 -1       275 2.68247E-03-1.88766E-05 0.00000E+00
 -1       276 2.68531E-03-2.84768E-05-1.32349E-23
 -1       277 2.68871E-03-3.96342E-05 2.64698E-23
 -1       278 2.69260E-03-5.21441E-05 2.64698E-23
 -1       279 2.69690E-03-6.57905E-05 0.00000E+00
 -1       280 2.70152E-03-8.03480E-05 0.00000E+00
 -1       281 2.70639E-03-9.55832E-05-2.64698E-23
 -1       282 2.71142E-03-1.11258E-04 1.32349E-23
 -1       283 2.71652E-03-1.27129E-04-1.32349E-23
 -1       284 2.72161E-03-1.42952E-04-6.61744E-24
 -1       285 2.72659E-03-1.58485E-04-1.32349E-23
 -1       301 2.68314E-03-1.72085E-04-6.61744E-24
 -1       302 2.69228E-03-1.72359E-04 0.00000E+00
 -1       303 2.70076E-03-1.72625E-04 1.32349E-23
 -1       304 2.70950E-03-1.72891E-04 0.00000E+00
 -1       305 2.71940E-03-1.73170E-04 0.00000E+00
 -1       306 2.70999E-03-3.24805E-04 0.00000E+00
 -1       307 2.77391E-03-7.36867E-04 5.29396E-23
 -1       308 2.82096E-03-1.34028E-03-1.05879E-22
 -1       309 2.84517E-03-2.03953E-03 0.00000E+00
 -1       310 2.87658E-03-2.70924E-03 1.05879E-22
 -1       311 2.93597E-03-3.22663E-03 0.00000E+00
 -1       312 2.99408E-03-3.51110E-03 1.05879E-22
 -1       313 2.99058E-03-3.52433E-03 0.00000E+00
 -1       314 2.85202E-03-3.27791E-03-1.05879E-22
 -1       315 2.53736E-03-2.83567E-03 0.00000E+00
 -1       316 2.06447E-03-2.27399E-03 0.00000E+00
 -1       317 1.49857E-03-1.66223E-03 0.00000E+00
 -1       318 9.53364E-04-1.06129E-03-1.05879E-22
 -1       319 5.36383E-04-5.36260E-04 0.00000E+00
 -1       320 2.91420E-04-1.61024E-04 0.00000E+00
 -1       336 2.98625E-04-4.09051E-06-1.32349E-23
 -1       337 2.84984E-04-4.77835E-06 0.00000E+00
 -1       338 2.69333E-04-5.49398E-06-1.32349E-23
 -1       339 2.51748E-04-6.23819E-06 6.61744E-24
 -1       340 2.32310E-04-7.01544E-06 0.00000E+00
 -1       406 1.79457E-04 9.43030E-07 3.30872E-24
 -1       407 1.80216E-04 1.07749E-06 0.00000E+00
 -1       408 1.81077E-04 1.21178E-06-8.27181E-25
 -1       409 1.82039E-04 1.34574E-06-4.13590E-25
 -1       410 1.83102E-04 1.47910E-06 1.65436E-24
 -1       521 2.76957E-03-3.35782E-04 0.00000E+00
 -1       522 2.83178E-03-7.67821E-04 0.00000E+00
 -1       523 2.87253E-03-1.39857E-03 0.00000E+00
 -1       524 2.88773E-03-2.12586E-03-5.29396E-23
 -1       525 2.91140E-03-2.82162E-03 0.00000E+00
 -1       526 2.96728E-03-3.36064E-03 0.00000E+00
 -1       527 3.02494E-03-3.65557E-03-2.11758E-22
 -1       528 3.01923E-03-3.66716E-03 5.29396E-23
 -1       529 2.86901E-03-3.40693E-03 0.00000E+00
 -1       530 2.53104E-03-2.94649E-03-5.29396E-23
 -1       531 2.02392E-03-2.36592E-03 0.00000E+00
 -1       532 1.41920E-03-1.73717E-03-5.29396E-23
 -1       533 8.35753E-04-1.11860E-03 0.00000E+00
 -1       534 3.86134E-04-5.73018E-04 5.29396E-23
 -1       535 1.20316E-04-1.78531E-04 0.00000E+00
 -1       536 2.10359E-04 2.70419E-05 6.61744E-24
 -1       537 2.08448E-04 8.73642E-05 0.00000E+00
 -1       538 2.05495E-04 1.63906E-04-3.30872E-24
 -1       539 2.02011E-04 2.47335E-04 0.00000E+00
 -1       540 1.98877E-04 3.26171E-04 3.30872E-24
 -1       541 1.96839E-04 3.88955E-04-1.65436E-24
 -1       542 1.95899E-04 4.28945E-04 3.30872E-24
 -1       543 1.95674E-04 4.39548E-04-1.65436E-24
 -1       544 1.95352E-04 4.21538E-04 0.00000E+00
 -1       545 1.94184E-04 3.75905E-04 0.00000E+00
 -1       546 1.92006E-04 3.10763E-04 3.30872E-24
 -1       547 1.89059E-04 2.34346E-04-1.65436E-24
 -1       548 1.86139E-04 1.58305E-04 0.00000E+00
 -1       549 1.84033E-04 9.42943E-05 1.65436E-24
 -1       550 1.82938E-04 5.03298E-05-1.65436E-24
 -1       551 1.85960E-04-8.38052E-06 0.00000E+00
 -1       552 1.57568E-04-9.03029E-06 0.00000E+00
 -1       553 1.26878E-04-9.74205E-06 9.92617E-24
 -1       554 9.48508E-05-1.04947E-05 0.00000E+00
 -1       555 6.24457E-05-1.12610E-05 0.00000E+00
 -1       556 2.03480E-04 1.17026E-05 0.00000E+00
 -1       557 1.97314E-04 2.75284E-05 0.00000E+00
 -1       558 1.92481E-04 3.99536E-05-5.29396E-23
 -1       559 1.88846E-04 4.92884E-05 2.64698E-23
 -1       560 1.86281E-04 5.58427E-05 0.00000E+00
 -1       561 1.84658E-04 5.99295E-05 0.00000E+00
 -1       562 1.83851E-04 6.18628E-05 0.00000E+00
 -1       563 1.83738E-04 6.19575E-05 0.00000E+00
 -1       564 1.84195E-04 6.05295E-05 0.00000E+00
 -1       565 1.85103E-04 5.78953E-05 6.61744E-24
 -1       566 1.86343E-04 5.43718E-05 0.00000E+00
 -1       567 1.87794E-04 5.02766E-05-3.30872E-24
 -1       568 1.89341E-04 4.59273E-05 1.65436E-24
 -1       569 1.90863E-04 4.16415E-05 0.00000E+00
 -1       570 1.92245E-04 3.77368E-05 0.00000E+00
 -1       571 1.82750E-04 3.21838E-05 8.27181E-25
 -1       572 1.82850E-04 2.99980E-05 1.24077E-24
 -1       573 1.82950E-04 2.77606E-05-3.30872E-24
 -1       574 1.83051E-04 2.54882E-05 0.00000E+00
 -1       575 1.83152E-04 2.31976E-05 0.00000E+00
 -1       576 1.83252E-04 2.09055E-05 0.00000E+00
 -1       577 1.83353E-04 1.86289E-05 0.00000E+00
 -1       578 1.83454E-04 1.63846E-05-6.61744E-24
 -1       579 1.83555E-04 1.41894E-05 0.00000E+00
 -1       580 1.83656E-04 1.20603E-05 0.00000E+00
 -1       581 1.83757E-04 1.00140E-05 0.00000E+00
 -1       582 1.83858E-04 8.06738E-06 0.00000E+00
 -1       583 1.83960E-04 6.23728E-06 0.00000E+00
 -1       584 1.84062E-04 4.54036E-06 3.30872E-24
 -1       585 1.84163E-04 2.99310E-06 6.61744E-24
 -1       586 1.84397E-04 3.43414E-05 0.00000E+00
 -1       587 1.86101E-04 3.43804E-05 4.13590E-25
 -1       588 1.87807E-04 3.44190E-05 0.00000E+00
 -1       589 1.89558E-04 3.44569E-05 0.00000E+00
 -1       590 1.91398E-04 3.44936E-05 0.00000E+00
 -1       591 1.83378E-04 3.22778E-05-1.03398E-25
 -1       592 1.84106E-04 3.02329E-05 0.00000E+00
 -1       593 1.84840E-04 2.81730E-05 8.27181E-25
 -1       594 1.85577E-04 2.61030E-05 0.00000E+00
 -1       595 1.86316E-04 2.40279E-05-8.27181E-25
 -1       596 1.87055E-04 2.19523E-05 0.00000E+00
 -1       597 1.87793E-04 1.98811E-05 8.27181E-25
 -1       598 1.88526E-04 1.78192E-05 0.00000E+00
 -1       599 1.89255E-04 1.57713E-05 8.27181E-25
 -1       600 1.89977E-04 1.37422E-05 0.00000E+00
 -1       601 1.90690E-04 1.17368E-05 0.00000E+00
 -1       602 1.91392E-04 9.75982E-06 0.00000E+00
 -1       603 1.92082E-04 7.81607E-06 4.13590E-25
 -1       604 1.92759E-04 5.91050E-06 1.29247E-25
 -1       605 1.93419E-04 4.04780E-06 0.00000E+00
 -1       606 1.84278E-04 4.62407E-07 0.00000E+00
 -1       607 1.84288E-04-6.00654E-07 0.00000E+00
 -1       608 1.84297E-04-1.58357E-06 0.00000E+00
 -1       609 1.84305E-04-2.49197E-06 0.00000E+00
 -1       610 1.84313E-04-3.33156E-06 0.00000E+00
 -1       611 1.84322E-04-4.10807E-06 0.00000E+00
 -1       612 1.84330E-04-4.82726E-06 0.00000E+00
 -1       613 1.84338E-04-5.49490E-06 0.00000E+00
 -1       614 1.84347E-04-6.11675E-06 0.00000E+00
 -1       615 1.84355E-04-6.69857E-06 0.00000E+00
 -1       616 1.84363E-04-7.24614E-06 0.00000E+00
 -1       617 1.84372E-04-7.76521E-06 0.00000E+00
 -1       618 1.84380E-04-8.26154E-06 8.27181E-25
 -1       619 1.84388E-04-8.74090E-06 0.00000E+00
 -1       620 1.84396E-04-9.20906E-06 0.00000E+00
 -1       621 1.85609E-04 1.71507E-06 1.65436E-24
 -1       622 1.87113E-04 1.81978E-06-8.27181E-25
 -1       623 1.88745E-04 1.92428E-06-1.65436E-24
 -1       624 1.90471E-04 2.02844E-06 0.00000E+00
 -1       625 1.92256E-04 2.13231E-06 3.30872E-24
 -1       626 1.84808E-04 4.98588E-07 0.00000E+00
 -1       627 1.85328E-04-5.51138E-07-3.30872E-24
 -1       628 1.85828E-04-1.54638E-06 0.00000E+00
 -1       629 1.86311E-04-2.49525E-06 1.65436E-24
 -1       630 1.86780E-04-3.40591E-06-3.30872E-24
 -1       631 1.87238E-04-4.28652E-06 1.65436E-24
 -1       632 1.87687E-04-5.14523E-06 3.30872E-24
 -1       633 1.88131E-04-5.99023E-06 0.00000E+00
 -1       634 1.88573E-04-6.82968E-06-3.30872E-24
 -1       635 1.89016E-04-7.67172E-06 1.65436E-24
 -1       636 1.89463E-04-8.52455E-06-3.30872E-24
 -1       637 1.89917E-04-9.39632E-06-1.65436E-24
 -1       638 1.90382E-04-1.02952E-05-3.30872E-24
 -1       639 1.90859E-04-1.12294E-05-8.27181E-25
 -1       640 1.91351E-04-1.22071E-05-3.30872E-24
 -1       656 1.85099E-04-1.02512E-05 0.00000E+00
 -1       657 1.86212E-04-1.08541E-05-6.61744E-24
 -1       658 1.87606E-04-1.14557E-05-1.32349E-23
 -1       659 1.89135E-04-1.20569E-05-6.61744E-24
 -1       660 1.90614E-04-1.26599E-05 0.00000E+00
 -1       661 1.84664E-04-1.01797E-05 0.00000E+00
 -1       662 1.84962E-04-1.07798E-05 0.00000E+00
 -1       663 1.85292E-04-1.14667E-05 0.00000E+00
 -1       664 1.85652E-04-1.22340E-05 0.00000E+00
 -1       665 1.86041E-04-1.30758E-05-1.65436E-24
 -1       666 1.86455E-04-1.39861E-05-8.27181E-25
 -1       667 1.86893E-04-1.49593E-05 0.00000E+00
 -1       668 1.87352E-04-1.59896E-05-8.27181E-25
 -1       669 1.87831E-04-1.70716E-05 1.65436E-24
 -1       670 1.88327E-04-1.82001E-05 8.27181E-25
 -1       671 1.88838E-04-1.93696E-05-1.65436E-24
 -1       672 1.89362E-04-2.05752E-05 8.27181E-25
 -1       673 1.89898E-04-2.18117E-05-1.65436E-24
 -1       674 1.90443E-04-2.30744E-05 0.00000E+00
 -1       675 1.90996E-04-2.43580E-05-2.06795E-25
 -1       676 1.84856E-04-2.51417E-05 0.00000E+00
 -1       677 1.86200E-04-2.52459E-05-1.65436E-24
 -1       678 1.87542E-04-2.53501E-05 3.30872E-24
 -1       679 1.88881E-04-2.54539E-05 0.00000E+00
 -1       680 1.90218E-04-2.55578E-05-1.65436E-24
 -1       771 1.86920E-05 1.46303E-05-5.29396E-23
 -1       772 8.65768E-06 3.65306E-05 5.29396E-23
 -1       773 4.24591E-07 5.38965E-05 0.00000E+00
 -1       774-6.13126E-06 6.69856E-05-2.64698E-23
 -1       775-1.11312E-05 7.60654E-05-5.29396E-23
 -1       776-1.47013E-05 8.14204E-05-2.64698E-23
 -1       777-1.69677E-05 8.33450E-05-5.29396E-23
 -1       778-1.80589E-05 8.21476E-05-2.64698E-23
 -1       779-1.81029E-05 7.81448E-05 0.00000E+00
 -1       780-1.72295E-05 7.16650E-05 2.64698E-23
 -1       781-1.55679E-05 6.30429E-05 0.00000E+00
 -1       782-1.32487E-05 5.26224E-05-2.64698E-23
 -1       783-1.04016E-05 4.07518E-05 0.00000E+00
 -1       784-7.15748E-06 2.77858E-05-2.64698E-23
 -1       785-3.64637E-06 1.40818E-05 5.29396E-23
 -1       786 1.93408E-04 3.22832E-05 2.58494E-26
 -1       787 1.93451E-04 3.00895E-05 0.00000E+00
 -1       788 1.93494E-04 2.79369E-05 0.00000E+00
 -1       789 1.93537E-04 2.58172E-05 0.00000E+00
 -1       790 1.93581E-04 2.37258E-05 0.00000E+00
 -1       791 1.93625E-04 2.16581E-05 0.00000E+00
 -1       792 1.93669E-04 1.96118E-05 0.00000E+00
 -1       793 1.93713E-04 1.75849E-05-8.27181E-25
 -1       794 1.93756E-04 1.55772E-05-1.65436E-24
 -1       795 1.93800E-04 1.35888E-05-8.27181E-25
 -1       796 1.93845E-04 1.16214E-05 0.00000E+00
 -1       797 1.93889E-04 9.67719E-06 0.00000E+00
 -1       798 1.93933E-04 7.76050E-06 0.00000E+00
 -1       799 1.93977E-04 5.87585E-06-8.27181E-25
 -1       800 1.94021E-04 4.03103E-06 1.65436E-24
 -1       801 1.47674E-04 3.10370E-05 0.00000E+00
 -1       802 9.51417E-06 1.93671E-05-2.64698E-23
 -1       803-1.08507E-04 9.78606E-06 0.00000E+00
 -1       804-9.61986E-05 6.81060E-06 0.00000E+00
 -1       805-3.17790E-05 2.67779E-06-5.29396E-23
 -1       806 1.94095E-04 3.22141E-05-1.65436E-24
 -1       807 1.94807E-04 2.99273E-05 1.65436E-24
 -1       808 1.95507E-04 2.76712E-05 0.00000E+00
 -1       809 1.96194E-04 2.54500E-05 0.00000E+00
 -1       810 1.96865E-04 2.32678E-05-3.30872E-24
 -1       811 1.97521E-04 2.11287E-05 0.00000E+00
 -1       812 1.98159E-04 1.90367E-05-3.30872E-24
 -1       813 1.98778E-04 1.69959E-05 0.00000E+00
 -1       814 1.99377E-04 1.50103E-05-3.30872E-24
 -1       815 1.99953E-04 1.30838E-05 0.00000E+00
 -1       816 2.00506E-04 1.12205E-05-1.65436E-24
 -1       817 2.01034E-04 9.42435E-06 8.27181E-25
 -1       818 2.01535E-04 7.69935E-06 1.65436E-24
 -1       819 2.02009E-04 6.04948E-06 0.00000E+00
 -1       820 2.02453E-04 4.47867E-06-1.65436E-24
 -1       821 1.93937E-04-1.34049E-07 0.00000E+00
 -1       822 1.93796E-04-3.68615E-06-1.65436E-24
 -1       823 1.93654E-04-7.98498E-06-3.30872E-24
 -1       824 1.93508E-04-1.25885E-05 1.65436E-24
 -1       825 1.93363E-04-1.69721E-05 0.00000E+00
 -1       826 1.93221E-04-2.06127E-05 0.00000E+00
 -1       827 1.93082E-04-2.31896E-05 3.30872E-24
 -1       828 1.92946E-04-2.43887E-05 0.00000E+00
 -1       829 1.92810E-04-2.42714E-05 3.30872E-24
 -1       830 1.92673E-04-2.29070E-05 0.00000E+00
 -1       831 1.92535E-04-2.07048E-05 3.30872E-24
 -1       832 1.92396E-04-1.80792E-05 1.65436E-24
 -1       833 1.92258E-04-1.55601E-05-3.30872E-24
 -1       834 1.92122E-04-1.36766E-05-1.65436E-24
 -1       835 1.91988E-04-1.27853E-05 0.00000E+00
 -1       836 1.95747E-04 2.35947E-06-3.30872E-24
 -1       837 1.97299E-04 2.48813E-06 1.65436E-24
 -1       838 1.98756E-04 2.61673E-06 3.30872E-24
 -1       839 2.00148E-04 2.74463E-06 0.00000E+00
 -1       840 2.01508E-04 2.87236E-06 0.00000E+00
 -1       856 1.91845E-04-1.42884E-05 0.00000E+00
 -1       857 1.91826E-04-1.52045E-05 2.58494E-26
 -1       858 1.91807E-04-1.60059E-05 0.00000E+00
 -1       859 1.91788E-04-1.67138E-05 0.00000E+00
 -1       860 1.91769E-04-1.73494E-05-4.13590E-25
 -1       861 1.91749E-04-1.79339E-05 0.00000E+00
 -1       862 1.91730E-04-1.84888E-05 4.13590E-25
 -1       863 1.91710E-04-1.90352E-05 0.00000E+00
 -1       864 1.91691E-04-1.95946E-05-8.27181E-25
 -1       865 1.91671E-04-2.01883E-05 0.00000E+00
 -1       866 1.91652E-04-2.08376E-05 0.00000E+00
 -1       867 1.91632E-04-2.15636E-05-4.13590E-25
 -1       868 1.91612E-04-2.23878E-05-8.27181E-25
 -1       869 1.91592E-04-2.33311E-05-4.13590E-25
 -1       870 1.91572E-04-2.44147E-05 0.00000E+00
 -1       871 1.93201E-04-1.32416E-05 0.00000E+00
 -1       872 1.94689E-04-1.32500E-05 0.00000E+00
 -1       873 1.96255E-04-1.32591E-05 0.00000E+00
 -1       874 1.97833E-04-1.32689E-05 0.00000E+00
 -1       875 1.99353E-04-1.32794E-05 2.06795E-25
 -1       876 1.92383E-04-1.42738E-05 0.00000E+00
 -1       877 1.92882E-04-1.52441E-05-1.65436E-24
 -1       878 1.93360E-04-1.61556E-05 0.00000E+00
 -1       879 1.93819E-04-1.70155E-05 0.00000E+00
 -1       880 1.94261E-04-1.78313E-05 0.00000E+00
 -1       881 1.94690E-04-1.86105E-05 1.65436E-24
 -1       882 1.95107E-04-1.93603E-05-3.30872E-24
 -1       883 1.95517E-04-2.00880E-05-1.65436E-24
 -1       884 1.95921E-04-2.08011E-05 3.30872E-24
 -1       885 1.96322E-04-2.15069E-05 1.65436E-24
 -1       886 1.96723E-04-2.22127E-05 0.00000E+00
 -1       887 1.97127E-04-2.29258E-05-1.65436E-24
 -1       888 1.97536E-04-2.36537E-05 0.00000E+00
 -1       889 1.97953E-04-2.44038E-05 0.00000E+00
 -1       890 1.98380E-04-2.51835E-05 1.65436E-24
 -1       891 1.92903E-04-2.57170E-05 0.00000E+00
 -1       892 1.94233E-04-2.57747E-05 0.00000E+00
 -1       893 1.95513E-04-2.58323E-05-8.27181E-25
 -1       894 1.96721E-04-2.58896E-05 0.00000E+00
 -1       895 1.97829E-04-2.59467E-05-4.13590E-25
 -1       956 2.02738E-04 1.67879E-06 0.00000E+00
 -1       957 2.02606E-04 4.59023E-07-8.27181E-25
 -1       958 2.02473E-04-6.79306E-07 0.00000E+00
 -1       959 2.02340E-04-1.74762E-06 0.00000E+00
 -1       960 2.02207E-04-2.75738E-06 0.00000E+00
 -1       961 2.02074E-04-3.72010E-06 0.00000E+00
 -1       962 2.01941E-04-4.64726E-06 0.00000E+00
 -1       963 2.01808E-04-5.55043E-06-1.65436E-24
 -1       964 2.01675E-04-6.44110E-06-3.30872E-24
 -1       965 2.01542E-04-7.33080E-06 0.00000E+00
 -1       966 2.01409E-04-8.23108E-06-3.30872E-24
 -1       967 2.01276E-04-9.15345E-06 0.00000E+00
 -1       968 2.01144E-04-1.01094E-05 6.61744E-24
 -1       969 2.01011E-04-1.11105E-05 0.00000E+00
 -1       970 2.00879E-04-1.21681E-05 0.00000E+00
 -1       971 2.00628E-04-1.44185E-05 0.00000E+00
 -1       972 2.00507E-04-1.54494E-05-1.65436E-24
 -1       973 2.00385E-04-1.63963E-05-3.30872E-24
 -1       974 2.00264E-04-1.72701E-05-1.65436E-24
 -1       975 2.00142E-04-1.80815E-05 3.30872E-24
 -1       976 2.00021E-04-1.88414E-05-1.65436E-24
 -1       977 1.99899E-04-1.95607E-05 0.00000E+00
 -1       978 1.99778E-04-2.02503E-05 0.00000E+00
 -1       979 1.99656E-04-2.09210E-05 0.00000E+00
 -1       980 1.99535E-04-2.15837E-05-1.65436E-24
 -1       981 1.99414E-04-2.22494E-05 0.00000E+00
 -1       982 1.99292E-04-2.29288E-05-1.65436E-24
 -1       983 1.99171E-04-2.36330E-05 0.00000E+00
 -1       984 1.99051E-04-2.43727E-05 1.65436E-24
 -1       985 1.98930E-04-2.51588E-05 0.00000E+00
 -3
    1PSTEP                        34          17           1          
  100CL  117 6.62933E-01         409                     0   17           1
 -4  STRESS      6    1
 -5  SXX         1    4    1    1
 -5  SYY         1    4    2    2
 -5  SZZ         1    4    3    3
 -5  SXY         1    4    1    2
 -5  SYZ         1    4    2    3
 -5  SZX         1    4    3    1
 -1         1-5.29154E+06-1.65735E+06-1.13010E+06-1.44680E+06-2.70666E-09-4.06581E-08
 -1         2 1.28374E+06 1.89059E+07 4.48076E+06 5.67976E+06 2.56987E-08 2.35741E-08
 -1         3-1.48384E+03-1.57220E+06 4.08323E+02-2.22823E+03-4.83421E-10 2.74158E-08
 -1         5-7.32828E+01 3.86021E+05 9.87550E+00-1.32208E+00-3.92517E-10-9.21682E-09
 -1         8-5.92703E+05-2.09610E+05-6.78575E+04-2.53939E+05 2.31921E-10 8.75225E-08
 -1         9 1.15149E+07 3.29628E+06 2.64544E+06-4.57509E+05-4.28408E-09 9.88599E-08
 -1        10-2.30569E+03-1.63836E+06-3.97190E+03-1.50747E+04-1.33714E-08-1.75422E-08
 -1        12-6.94030E+01 3.86042E+05 3.24553E+02-9.01860E+00-7.47544E-10-1.39289E-08
 -1        15 9.70567E+02 5.33374E+02 3.13733E+03 9.28255E-01 1.32871E-10 6.88108E-07
 -1        16 2.26979E+07-3.01488E+05 3.09867E+06-2.18410E+06 2.10130E-08 4.43698E-07
 -1        17 8.29705E+06 6.21450E+06 2.24224E+06 5.95366E+06 2.61760E-08 2.23401E-08
 -1        18 1.42289E+05 3.32324E+04 4.05736E+03-1.19648E+05 1.62436E-08 4.69072E-09
 -1        19 1.23165E+05 1.41944E+05-9.21418E+02 2.20315E+04 1.61835E-09 5.72691E-09
 -1        20-8.25306E+04-5.74830E+05-1.29017E+05 2.49476E+04-2.04788E-09 1.68742E-09
 -1        21-4.55734E+01-2.95998E+05-9.23524E+02 2.72938E+02 1.68172E-08 4.18085E-08
 -1        24 1.38481E+07 1.19345E+07 3.83885E+06 1.10546E+07-1.64825E-07-5.59376E-08
 -1        25 1.24369E+05 2.63202E+05 9.91339E+04-6.43539E+05-2.04936E-09-2.28520E-09
 -1        26-5.49599E+04 9.28380E+04-2.45431E+04 1.25229E+03-1.10231E-10 3.99456E-09
 -1        27-7.55290E+04-3.10512E+05-1.13446E+05 6.90572E+04 4.22718E-09 6.36010E-09
 -1        28 2.22404E+04-8.53895E+04 1.69012E+04 2.05359E+04-2.88063E-09-1.64551E-09
 -1        32-1.67997E+06-3.17627E+06-1.96583E+05 4.53346E+05-4.29791E-08-8.38577E-09
 -1        33-1.78540E+05 9.33520E+04 3.24691E+04-3.86754E+04-3.01895E-09 6.09422E-09
 -1        34-2.23825E+05-2.51277E+04 6.92454E+02 7.58568E+04-4.85023E-09 2.84930E-09
 -1        35-2.29308E+04-3.38581E+04-1.34935E+03 5.14951E+04-5.24738E-09 6.17244E-10
 -1        51 5.98277E+04-1.77180E+05 1.26734E+05-4.60035E+05-2.03727E-10-2.86454E-08
 -1        52 2.03559E+04-1.55175E+05 6.66428E+04-5.36503E+05 3.70164E-10-3.80242E-07
 -1        53 4.27435E+03-1.70577E+05 3.49378E+04-4.58437E+05 5.62068E-10-3.51843E-07
 -1        54 7.77322E+03-1.66389E+05 2.91769E+04-5.38083E+05-1.01863E-10-2.38242E-07
 -1        55 1.68908E+04-1.73663E+05 3.60404E+04-4.58322E+05 4.32919E-10-8.06467E-08
 -1        56-9.67140E+06-1.27629E+06-8.79067E+05-3.97384E+06-1.90048E-08 1.67202E-07
 -1        57-1.07989E+07-1.04112E+06-5.53866E+05-2.89640E+06 9.68284E-08-1.72586E-08
 -1        58-9.59361E+06-1.69560E+06-1.98212E+05-4.10648E+06-6.15764E-08-1.88942E-07
 -1        59-1.08400E+07-5.75005E+05-1.11670E+05-2.84591E+06 2.63913E-08-4.13002E-08
 -1        60-9.67207E+06-1.70251E+06-5.29155E+04-4.06268E+06-2.35159E-08-4.46125E-08
 -1        61-1.03807E+07-8.18110E+05-1.18755E+03-3.06964E+06 1.89175E-08 1.38934E-08
 -1        62-9.97154E+06-1.50687E+06-4.99365E+04-3.82008E+06-1.25510E-08 2.12276E-08
 -1        63-9.73812E+06-1.34952E+06 2.75565E+04-3.61910E+06-4.26226E-08-2.07079E-07
 -1        64-1.02534E+07-1.21439E+06-4.56960E+04-3.47339E+06-1.98488E-08 4.65770E-08
 -1        65-9.40790E+06-1.81738E+06-2.33024E+03-4.28005E+06-2.95367E-08-5.46879E-09
 -1        66-1.03757E+07-9.87748E+05-4.46295E+04-3.21434E+06 1.45956E-08 2.86149E-07
 -1        67-9.37722E+06-2.03333E+06-1.00745E+05-4.58626E+06-6.67314E-08 1.56375E-07
 -1        68-1.03569E+07-9.48412E+05-1.82029E+05-3.21382E+06-7.69705E-09 5.92845E-08
 -1        69-9.59734E+06-2.15745E+06-4.95335E+05-4.24659E+06-4.44597E-08-2.94443E-07
 -1        70-1.00912E+07-9.19669E+05-8.02158E+05-3.50822E+06 6.42467E-09 1.18394E-07
 -1        86-1.30873E+06-1.41074E+07-2.44982E+06-2.67699E+06-2.51141E-07-1.16153E-07
 -1        87 2.02319E+06 5.25606E+06 2.03858E+06 5.10676E+06-4.33531E-07-1.50530E-07
 -1        88-3.63647E+05-2.12096E+06 1.88146E+05-2.36427E+06-3.87945E-07 3.84098E-08
 -1        89 2.71331E+06 5.01616E+06 2.08561E+06 5.26557E+06-5.53584E-07-2.26655E-07
 -1        90-1.92329E+06-1.39303E+07-2.65274E+06-2.85748E+06-1.20341E-07-1.63622E-07
 -1       121-2.03320E+03-1.57709E+06-5.41609E+02 1.10452E+03 1.45529E-09 1.92376E-08
 -1       122-1.29658E+03-1.57226E+06 7.75451E+02-4.46018E+03-5.20474E-09-2.68847E-09
 -1       123-2.05335E+03-1.57723E+06 2.74105E+02 3.29854E+03 4.50984E-09-3.91228E-08
 -1       124 3.53759E+02-1.57181E+06 2.97572E+03-9.32808E+03-1.02377E-08-2.45636E-08
 -1       125-2.86985E+03-1.57813E+06 3.50396E+03 5.92676E+03 6.39920E-09-5.38057E-09
 -1       191-7.72317E+01 3.86040E+05 8.45663E+00 6.88666E-01-5.59374E-10 1.24110E-08
 -1       192-7.42354E+01 3.86022E+05 2.10712E+01-4.24383E+00-8.86938E-10-2.44872E-08
 -1       193-7.97397E+01 3.86039E+05 3.59308E+01 3.72437E+00-1.07473E-09-5.95537E-09
 -1       194-7.72899E+01 3.86025E+05 8.00962E+01-9.63116E+00-5.29259E-10 4.52110E-09
 -1       195-8.45536E+01 3.86037E+05 1.53403E+02 6.26211E+00-1.44145E-09-1.36260E-08
 -1       251-9.28296E+05 1.78172E+04-4.17115E+04-1.53170E+04-1.23231E-09-1.04577E-07
 -1       252-9.44947E+05-2.05724E+04-2.91602E+04 5.25088E+04 5.51665E-09-7.26072E-08
 -1       253-9.36738E+05 2.76930E+03-1.10626E+04-1.22532E+04-4.66571E-10-2.85320E-07
 -1       254-9.31273E+05-3.25864E+03-5.40047E+03 3.91981E+04 3.28578E-09 4.23861E-08
 -1       255-9.41403E+05 1.35858E+02-3.70046E+03-2.00813E+03-6.90738E-09 4.47719E-08
 -1       256-9.25026E+05-3.34376E+02 9.29800E+02 1.50768E+04 1.57254E-08 1.71635E-07
 -1       257-9.42477E+05-5.32799E+02-1.49047E+03 1.18582E+04-6.17683E-09 4.19624E-09
 -1       258-9.27135E+05 8.21029E+02 2.64420E+03-1.13843E+04 8.20955E-09 1.41819E-07
 -1       259-9.39479E+05-8.74847E+02 1.20353E+03 2.44490E+04-1.08548E-09-1.08203E-08
 -1       260-9.33543E+05 2.76114E+03 5.33358E+03-3.08978E+04 2.49992E-09-8.39331E-08
 -1       261-9.36706E+05-1.97949E+03 8.18647E+03 3.13860E+04 1.84356E-08 9.75342E-08
 -1       262-9.32580E+05 1.11544E+04 2.03752E+04-3.67287E+04-9.78955E-09-9.97670E-09
 -1       263-9.40708E+05-9.02960E+03 3.22482E+04 3.02890E+04 3.31022E-09 6.25805E-08
 -1       264-9.03318E+05 6.34843E+04 8.94108E+04-2.67805E+04 4.56077E-09 1.53275E-07
 -1       265-9.65460E+05-5.44632E+04 1.24305E+05 2.14261E+04 1.77424E-08 7.92570E-08
 -1       266-1.75707E+04-8.21685E+03 4.12222E+04-1.98604E+01 5.09317E-11 1.52473E-07
 -1       267 2.03691E+04 9.57571E+03 2.91371E+04 2.29167E+01 2.72848E-11-4.36141E-08
 -1       268-2.73146E+03-1.35625E+03 1.08300E+04-2.91989E+00-8.54925E-11-4.90480E-08
 -1       269 3.22504E+03 1.62307E+03 7.03945E+03 3.40134E+00 1.54614E-11 1.54589E-07
 -1       270-4.84083E+02-2.66687E+02 3.39804E+03-4.61581E-01-3.04340E-10 8.52487E-08
 -1       271-1.55145E+06-1.95676E+05-1.16447E+05-6.02383E+05 1.42572E-08-6.87942E-08
 -1       272-1.55907E+06-3.05407E+05-7.35947E+04-6.31664E+05 4.16949E-08 5.84987E-09
 -1       273-1.57570E+06-2.21212E+05-2.80656E+04-5.94421E+05-1.73895E-09 5.77693E-08
 -1       274-1.53088E+06-2.74831E+05-1.48679E+04-6.46159E+05 1.67674E-08-1.10842E-07
 -1       275-1.58122E+06-2.21273E+05-6.89543E+03-5.90798E+05 1.72076E-09-2.00143E-07
 -1       276-1.52477E+06-2.75410E+05-3.06105E+03-6.54082E+05-4.91063E-08-5.15138E-08
 -1       277-1.58393E+06-2.18899E+05-1.88667E+03-5.88166E+05 3.43243E-08 1.00442E-07
 -1       278-1.52224E+06-2.78550E+05-8.13026E+02-6.59937E+05-1.15815E-08 2.07543E-07
 -1       279-1.58567E+06-2.16885E+05-9.45014E+02-5.86285E+05-2.50056E-08 6.72394E-08
 -1       280-1.52097E+06-2.81024E+05-1.18898E+03-6.63881E+05 3.10702E-08 4.43629E-09
 -1       281-1.58661E+06-2.15536E+05-2.19027E+03-5.85183E+05-8.22820E-09 7.32644E-08
 -1       282-1.52134E+06-2.83557E+05-5.11077E+03-6.65618E+05-1.82031E-08 9.03660E-08
 -1       283-1.58605E+06-2.14024E+05-9.08982E+03-5.84992E+05 1.45277E-08 1.06868E-07
 -1       284-1.52937E+06-2.95736E+05-2.47767E+04-6.63469E+05 1.50483E-08-2.14000E-07
 -1       285-1.57868E+06-2.04645E+05-3.85982E+04-5.86841E+05-4.12729E-09-2.70429E-07
 -1       301-2.68125E+03-6.34182E+05 1.67739E+05-1.10930E+06-3.09956E-09 2.50970E-07
 -1       302-3.40575E+03-5.88413E+05 1.00981E+05-1.61971E+06 2.59752E-09 3.26547E-07
 -1       303-1.82421E+04-6.25506E+05 5.74339E+04-1.10631E+06 6.42467E-09-1.06324E-07
 -1       304-1.93611E+04-5.94484E+05 5.84676E+04-1.61903E+06-8.83301E-09 1.75860E-07
 -1       305-2.20805E+04-6.14736E+05 7.27537E+04-1.10942E+06 1.11813E-08 3.37561E-07
 -1       306-3.00651E+07-6.20849E+06-8.58656E+06-5.69349E+05-4.74975E-08-3.94357E-08
 -1       307 2.53867E+07 3.21048E+06 5.50927E+06-1.50953E+07-8.66130E-07 9.08040E-08
 -1       308-7.04303E+06-1.03201E+06-4.71840E+05 5.19549E+06-2.43133E-07 3.03073E-07
 -1       309-3.31393E+06 8.69870E+06 2.26716E+06-2.06072E+07 3.56245E-07 1.89964E-07
 -1       310-1.24495E+07-1.91382E+06-1.99516E+06 5.20204E+06 1.88535E-07-1.85493E-07
 -1       311 3.79965E+07 2.71940E+04 7.21489E+06-8.90813E+06 1.09349E-06-1.99361E-08
 -1       312-3.17957E+07-6.70320E+06-8.47970E+06-4.93999E+06 4.53088E-07 1.42943E-07
 -1       313 4.53531E+07 1.47560E+07 1.06174E+07 2.35503E+07-1.23197E-07 2.37895E-07
 -1       314-1.72918E+07-1.76377E+07-7.50046E+06-1.25050E+07 2.48954E-07 2.40398E-08
 -1       315-1.70313E+06 2.95478E+07 5.65950E+06 1.06537E+07-2.59519E-07-2.32831E-08
 -1       316 1.34224E+06-9.84537E+06-4.54312E+05-2.59164E+06-1.12131E-06-1.46450E-07
 -1       317-1.71480E+07 2.23534E+07 2.22372E+06-8.69736E+06 6.89266E-07-8.08854E-07
 -1       318-1.06348E+06-1.26844E+07-2.01093E+06-4.24498E+06-9.48930E-07 4.43542E-08
 -1       319 7.09463E+06 3.17094E+07 6.98189E+06 1.64916E+07-2.61934E-08 1.73197E-07
 -1       320-2.25008E+07-1.75311E+07-9.79433E+06-1.27516E+07 1.88011E-07-7.15372E-08
 -1       336-7.22910E+02-1.70726E+06-1.39319E+04 8.97927E+03-2.63663E-08-1.21508E-08
 -1       337-5.42947E+03-1.70687E+06-1.81829E+04-2.17992E+04-4.99431E-08-2.51766E-08
 -1       338 2.99387E+02-1.70674E+06-2.86133E+04 1.25706E+04-3.49855E-08-2.00671E-08
 -1       339-3.03589E+04-1.72419E+06-6.46877E+04-2.88309E+04-6.32290E-08 2.50766E-08
 -1       340 2.00281E+04-1.69212E+06-1.01883E+05 1.58803E+04-4.15712E-08 3.53975E-08
 -1       406-4.78767E+01 3.86022E+05 6.37317E+02 3.28833E+00-1.88979E-09-1.42445E-08
 -1       407 1.54387E+02 3.86155E+05 1.36185E+03 2.31064E+01-5.36168E-10-7.43512E-09
 -1       408 6.29346E+02 3.85923E+05 2.71551E+03-2.67179E+01-2.53135E-09 5.72800E-09
 -1       409 2.87688E+03 3.87022E+05 6.12038E+03 2.85193E+02-2.70461E-10-1.09449E-08
 -1       410 8.38990E+03 3.85142E+05 1.24915E+04-2.74844E+02-3.05590E-09-7.94898E-09
 -1       521-3.15782E+07-7.65063E+06-1.00164E+07-1.80946E+05-1.13272E-07 7.99191E-08
 -1       522 2.62094E+07 4.20553E+06 5.60698E+06-1.85687E+07-5.59929E-07-4.97792E-07
 -1       523-7.62512E+06-1.34074E+06-4.64067E+05 5.63750E+06-1.55414E-08-2.89176E-07
 -1       524-6.80529E+06 1.17130E+07 2.44811E+06-2.36410E+07 8.69826E-07-3.83647E-07
 -1       525-1.32487E+07-2.53501E+06-2.18999E+06 5.64464E+06 5.99422E-07-2.89554E-07
 -1       526 4.13987E+07-5.79985E+04 7.56301E+06-1.15460E+07 2.82133E-07-6.96746E-08
 -1       527-3.36038E+07-8.38130E+06-9.75978E+06-4.79814E+06 4.31901E-08 1.11278E-07
 -1       528 4.94626E+07 1.63968E+07 1.10599E+07 2.67330E+07 2.79630E-07-2.08092E-08
 -1       529-1.82268E+07-1.98087E+07-8.58721E+06-1.25305E+07 9.52859E-08-7.47386E-08
 -1       530-4.17761E+06 3.42677E+07 5.98029E+06 1.01442E+07-5.58357E-08 5.40807E-07
 -1       531 1.33313E+06-1.09146E+07-4.28653E+05-2.55384E+06-7.02203E-07 4.02331E-07
 -1       532-1.96925E+07 2.43561E+07 2.42590E+06-1.29302E+07 4.56814E-07-5.86413E-07
 -1       533-1.10995E+06-1.38190E+07-2.13597E+06-4.06759E+06-2.26952E-07-1.00548E-06
 -1       534 5.07045E+06 3.67392E+07 7.25584E+06 1.70390E+07-4.82250E-08 7.46979E-07
 -1       535-2.36576E+07-1.98842E+07-1.12118E+07-1.28099E+07 1.17579E-07 4.73345E-07
 -1       536-7.05147E+05-4.69389E+04-4.71859E+04-5.45394E+04-3.84489E-09 6.25969E-08
 -1       537-5.58370E+04 4.49405E+04 8.42132E+04 1.23572E+05-1.07284E-07 1.18447E-07
 -1       538-3.94398E+05 3.27848E+03 3.75173E+03-7.20661E+04 3.37391E-08 1.03975E-07
 -1       539-2.69434E+05 2.90027E+03 2.49587E+04 1.38457E+05 1.54829E-07 1.06558E-07
 -1       540-4.96910E+05-4.28597E+02-2.11882E+04-6.99566E+04-2.57792E-08 1.19948E-07
 -1       541 1.44839E+05 1.69197E+04 1.06048E+05 9.76960E+04 4.58567E-09 8.60555E-08
 -1       542-7.97508E+05-2.00698E+04-8.39393E+04-3.04344E+04-1.25519E-08 3.86818E-08
 -1       543 4.02672E+05 2.72357E+04 1.57440E+05-1.33336E+04-7.52948E-09-6.98492E-09
 -1       544-7.47829E+05-1.64799E+04-7.45798E+04 4.04069E+04-2.21953E-08-4.19980E-08
 -1       545 2.75392E+04 9.44465E+03 7.95265E+04-1.13373E+05 2.38210E-08-8.99690E-08
 -1       546-4.32450E+05 6.08131E+03-1.21931E+04 6.92602E+04 3.49544E-08-7.76224E-08
 -1       547-2.87479E+05-4.66174E+03 1.05173E+04-1.41304E+05-8.12189E-08-9.31083E-08
 -1       548-4.41280E+05 4.71764E+03-2.38455E+04 6.90254E+04-8.91180E-08-9.89680E-08
 -1       549 4.66807E+04 1.59311E+04 6.01957E+04-1.11228E+05-6.72123E-08-7.57429E-08
 -1       550-7.57667E+05-2.19937E+04-1.28707E+05 3.84722E+04 7.97081E-09-5.34546E-08
 -1       551 4.07990E+04-7.55664E+05-1.54590E+04-1.24738E+06-1.04134E-07-1.38243E-08
 -1       552 9.31803E+04-8.00499E+05 1.02003E+04-1.77866E+06-6.80884E-08 1.13723E-08
 -1       553 7.16603E+04-7.96945E+05 3.22700E+04-1.24074E+06-1.18016E-07 2.57278E-08
 -1       554 1.31933E+05-8.16250E+05 8.13989E+04-1.78060E+06-7.79110E-08 2.96859E-08
 -1       555 1.01425E+05-8.20562E+05 1.48585E+05-1.24058E+06-1.25496E-07-1.42936E-08
 -1       556 2.23120E+05-3.82734E+05 2.66460E+04-4.06699E+05-2.17697E-08-1.24855E-08
 -1       557 3.53606E+05-4.86960E+05 1.66012E+04-5.26801E+05 1.00117E-08 1.70985E-09
 -1       558 2.05016E+05-3.75727E+05 2.53310E+03-4.10995E+05-2.27592E-08-1.32568E-08
 -1       559 3.28572E+05-4.87163E+05 2.53842E+03-5.47180E+05 2.38651E-08-1.11722E-08
 -1       560 1.89773E+05-3.66167E+05-1.44924E+03-4.21976E+05 1.14087E-08 1.85391E-08
 -1       561 3.09407E+05-4.79500E+05 1.53741E+02-5.60244E+05-3.31784E-09 2.34104E-09
 -1       562 1.77719E+05-3.58677E+05-1.30951E+03-4.30705E+05-1.89175E-10-1.20745E-08
 -1       563 2.95088E+05-4.73258E+05-3.08043E+01-5.69595E+05 9.08767E-09-5.96992E-09
 -1       564 1.69118E+05-3.53317E+05-5.94849E+02-4.36801E+05 3.84171E-09 4.94674E-09
 -1       565 2.85593E+05-4.69122E+05 2.62059E+01-5.75661E+05 1.35624E-08 1.78188E-08
 -1       566 1.64091E+05-3.50137E+05-2.56332E+02-4.40317E+05-4.54020E-09-1.81881E-08
 -1       567 2.80982E+05-4.67116E+05-3.56906E+02-5.78462E+05 1.82772E-08-2.86673E-09
 -1       568 1.62730E+05-3.49303E+05-1.11363E+03-4.41364E+05-2.36287E-09 1.02009E-08
 -1       569 2.79872E+05-4.67038E+05-2.81421E+03-5.77031E+05-1.12714E-08 1.91576E-08
 -1       570 1.66122E+05-3.52525E+05-6.15802E+03-4.40352E+05 1.01063E-08 2.17697E-08
 -1       571 2.94025E+05 1.06212E+04 1.53294E+04-9.52267E+04 1.03410E-09 5.43059E-09
 -1       572 2.96264E+05 3.97839E+03 7.51905E+03-1.04662E+05 2.80352E-09 3.24962E-09
 -1       573 2.94916E+05 1.23369E+03 3.34258E+03-9.50463E+04-3.67709E-09 2.29593E-08
 -1       574 2.95134E+05 7.21986E+02 1.67755E+03-1.04890E+05 3.59933E-10-3.28237E-09
 -1       575 2.95011E+05 4.44762E+02 7.92731E+02-9.50219E+04-1.31422E-10-1.24055E-09
 -1       576 2.94994E+05 4.59423E+02 4.06297E+02-1.04921E+05-7.02653E-09 8.81664E-09
 -1       577 2.95051E+05 3.89799E+02 2.03483E+02-9.50186E+04 6.01449E-09-3.29419E-09
 -1       578 2.95025E+05 4.22350E+02 1.18549E+02-1.04925E+05 1.74782E-08 5.75346E-09
 -1       579 2.95123E+05 3.53026E+02 8.32232E+01-9.50182E+04 1.79116E-08 1.87856E-08
 -1       580 2.95128E+05 3.70638E+02 9.90416E+01-1.04920E+05-1.38680E-08 3.55521E-09
 -1       581 2.95239E+05 2.93537E+02 1.52241E+02-9.50239E+04-1.79352E-09-6.39102E-09
 -1       582 2.95308E+05 3.34848E+02 3.10383E+02-1.04859E+05 1.51886E-09-2.38160E-08
 -1       583 2.95379E+05 3.44580E+02 5.97384E+02-9.50805E+04 2.61571E-09 8.27299E-09
 -1       584 2.95709E+05 8.26715E+02 1.35108E+03-1.04378E+05 1.26456E-08 1.21938E-08
 -1       585 2.95389E+05 1.95979E+03 2.73543E+03-9.55038E+04 2.69029E-09 1.60908E-08
 -1       586-3.48340E+03 1.16252E+05-3.00965E+03-2.50840E+05-4.47017E-09-6.39307E-09
 -1       587-1.35754E+03 1.15989E+05 7.23965E+02-2.76069E+05-5.06589E-09-2.72643E-08
 -1       588 3.95008E+02 1.15806E+05 4.73447E+03-2.50702E+05-2.76668E-09-3.40024E-08
 -1       589 5.08085E+03 1.18275E+05 1.23228E+04-2.75835E+05-9.49149E-09-4.67862E-08
 -1       590 1.65951E+04 1.14474E+05 2.58664E+04-2.51134E+05-3.94175E-09-2.46291E-08
 -1       591-7.58280E+04-1.61932E+04-2.26485E+04-3.23929E+04-2.35104E-10-9.08403E-09
 -1       592-7.99053E+04-1.98031E+04-1.22682E+04-3.60760E+04 5.48006E-10-3.32478E-08
 -1       593-7.80938E+04-1.45491E+04-5.10666E+03-3.40529E+04-3.42660E-09 3.02748E-09
 -1       594-7.67776E+04-1.64804E+04-2.54681E+03-3.61952E+04 1.73060E-10 2.37512E-08
 -1       595-7.82666E+04-1.45436E+04-1.16926E+03-3.41283E+04 1.47631E-09 1.44336E-08
 -1       596-7.65635E+04-1.63285E+04-5.94203E+02-3.61699E+04 1.51731E-08 1.07235E-09
 -1       597-7.82882E+04-1.45591E+04-3.23157E+02-3.41311E+04 2.23577E-09-9.23751E-09
 -1       598-7.65424E+04-1.63225E+04-2.59043E+02-3.61627E+04-7.06092E-09 1.62486E-08
 -1       599-7.82870E+04-1.45596E+04-3.29978E+02-3.41308E+04 9.51923E-09 1.89743E-09
 -1       600-7.65636E+04-1.63290E+04-6.12258E+02-3.61677E+04 1.61332E-08-1.40835E-09
 -1       601-7.82621E+04-1.45450E+04-1.20748E+03-3.41273E+04 1.32445E-09 1.00420E-08
 -1       602-7.67846E+04-1.64848E+04-2.63137E+03-3.61900E+04-8.35610E-09-2.45609E-09
 -1       603-7.80809E+04-1.45536E+04-5.27689E+03-3.40501E+04-5.00449E-10 1.97679E-08
 -1       604-8.00339E+04-1.98989E+04-1.26763E+04-3.60422E+04 4.24001E-09 1.00899E-08
 -1       605-7.57198E+04-1.62700E+04-2.34020E+04-3.23541E+04 3.46336E-09 2.98896E-08
 -1       606 2.65661E+04-1.43902E+04-2.57999E+04 2.37882E+04-6.68479E-09 7.44126E-09
 -1       607 2.21576E+04-4.69850E+03-1.28483E+04 2.67329E+04-2.70729E-08-6.56837E-09
 -1       608 2.46707E+04-8.46251E+02-5.75171E+03 2.36209E+04-2.54895E-08 3.02794E-09
 -1       609 2.41890E+04-2.88854E+02-2.90563E+03 2.69452E+04-1.20999E-08 2.03418E-08
 -1       610 2.44566E+04-3.97679E+01-1.38627E+03 2.36010E+04 1.93813E-09-1.00918E-08
 -1       611 2.43810E+04-4.00809E+01-6.98956E+02 2.69681E+04 9.90303E-09-1.64482E-09
 -1       612 2.44097E+04-2.62691E+01-3.32238E+02 2.35990E+04 2.16733E-09-1.20447E-08
 -1       613 2.43931E+04-3.62215E+01-1.48851E+02 2.69708E+04-1.05047E-10-9.69294E-09
 -1       614 2.43878E+04-3.29342E+01-3.47924E+01 2.35983E+04 6.94854E-10 3.80055E-09
 -1       615 2.43882E+04-3.49199E+01 6.26292E+01 2.69712E+04-4.20914E-09 1.72608E-08
 -1       616 2.43706E+04-2.99587E+01 1.87587E+02 2.35986E+04-7.44876E-10-6.12022E-09
 -1       617 2.44110E+04 4.90806E+00 4.27886E+02 2.69707E+04-3.16504E-10 1.28002E-08
 -1       618 2.43336E+04 9.32797E+01 8.62446E+02 2.35989E+04 2.33740E-09-3.38468E-09
 -1       619 2.47156E+04 6.71663E+02 1.93666E+03 2.69701E+04-8.06040E-10-2.07820E-10
 -1       620 2.40473E+04 2.13830E+03 3.89264E+03 2.36004E+04-1.83832E-10 1.61190E-08
 -1       621 5.18164E+02 3.02978E+05 3.94726E+03 4.15127E+04 1.06229E-09-9.27685E-11
 -1       622 6.86041E+02 3.03891E+05 3.49119E+03 6.02687E+04 1.29057E-09-2.06237E-08
 -1       623 1.43522E+02 3.03177E+05 4.17992E+03 4.13245E+04 1.31968E-09-1.55314E-08
 -1       624 2.14173E+03 3.05111E+05 8.09073E+03 6.04542E+04 1.37646E-09 1.46656E-08
 -1       625 2.09239E+03 3.01573E+05 1.41323E+04 4.13210E+04 1.52113E-09-1.43884E-08
 -1       626 2.61426E+05 6.13420E+04 5.07692E+03 1.26783E+05 9.03583E-10 1.78807E-09
 -1       627 2.59118E+05 6.27367E+04 2.44653E+03 1.31030E+05 3.08864E-09-2.30841E-09
 -1       628 2.61553E+05 5.90194E+04 1.03474E+03 1.27646E+05-8.68658E-09 4.91582E-10
 -1       629 2.58488E+05 6.20620E+04 5.06472E+02 1.31268E+05-5.41604E-09 2.19247E-08
 -1       630 2.61567E+05 5.89070E+04 2.35113E+02 1.27683E+05-1.99088E-09-3.70915E-09
 -1       631 2.58422E+05 6.20362E+04 1.26779E+02 1.31270E+05 2.99769E-09-2.05243E-08
 -1       632 2.61564E+05 5.89108E+04 8.38871E+01 1.27679E+05 1.04583E-08-8.29959E-09
 -1       633 2.58414E+05 6.20379E+04 9.41575E+01 1.31267E+05 7.63180E-09 8.76753E-09
 -1       634 2.61559E+05 5.89079E+04 1.52791E+02 1.27679E+05-7.02249E-09 7.63089E-09
 -1       635 2.58429E+05 6.20361E+04 3.09562E+02 1.31273E+05-1.08807E-08-1.33141E-08
 -1       636 2.61550E+05 5.89020E+04 6.25362E+02 1.27678E+05-1.29876E-09 5.88898E-10
 -1       637 2.58564E+05 6.21334E+04 1.37515E+03 1.31272E+05 2.71939E-10 1.03137E-09
 -1       638 2.61502E+05 5.92057E+04 2.82544E+03 1.27541E+05 3.59887E-09-1.41363E-08
 -1       639 2.60048E+05 6.41977E+04 6.68518E+03 1.30835E+05-1.02409E-09 1.08657E-08
 -1       640 2.61296E+05 6.53697E+04 1.38729E+04 1.24944E+05 6.57656E-09 9.08881E-09
 -1       656 6.66967E+04-1.70721E+06-1.61001E+05-2.53789E+03 2.91038E-11-8.85149E-09
 -1       657-8.82351E+04-1.77996E+06-1.33382E+05 5.14603E+03-8.51287E-10 6.51062E-09
 -1       658 2.12617E+04-1.72787E+06-8.21495E+04-4.62402E+03-8.12861E-10 9.09269E-09
 -1       659-9.54202E+04-1.78338E+06-1.42825E+05 6.88407E+03-3.02680E-09-5.56076E-09
 -1       660 7.38659E+04-1.70381E+06-1.77235E+05-4.27592E+03-1.51340E-09 1.59142E-08
 -1       661 1.57697E+05 1.64925E+04 1.66577E+04 6.16552E+04-1.89129E-09 3.84534E-09
 -1       662 1.67128E+05 2.88159E+04 1.12262E+04 5.79034E+04 3.33688E-09 5.22118E-09
 -1       663 1.60969E+05 2.18366E+04 3.92618E+03 6.07056E+04-1.92358E-10 1.38698E-10
 -1       664 1.63334E+05 2.25665E+04 2.34870E+03 5.90634E+04-2.52101E-11-1.16745E-09
 -1       665 1.61466E+05 2.25665E+04 9.26546E+02 6.05607E+04 2.40902E-10 2.74193E-09
 -1       666 1.62747E+05 2.17319E+04 5.42390E+02 5.92524E+04 7.49492E-09 5.93320E-09
 -1       667 1.61553E+05 2.26495E+04 2.88323E+02 6.05244E+04 1.63965E-09 1.36351E-08
 -1       668 1.62651E+05 2.16722E+04 2.94308E+02 5.93051E+04-2.84312E-09-1.87981E-08
 -1       669 1.61561E+05 2.26244E+04 3.98887E+02 6.05082E+04-2.76046E-09-8.25338E-10
 -1       670 1.62748E+05 2.18889E+04 8.68985E+02 5.93079E+04-9.90360E-09 3.00186E-08
 -1       671 1.61456E+05 2.24374E+04 1.54309E+03 6.05196E+04-3.34506E-09 2.25850E-09
 -1       672 1.63647E+05 2.33900E+04 3.94806E+03 5.90899E+04 5.64576E-09 1.08844E-09
 -1       673 1.60666E+05 2.11613E+04 6.61636E+03 6.07117E+04 4.08068E-09-1.41563E-09
 -1       674 1.69945E+05 3.40197E+04 1.89214E+04 5.72397E+04-4.66014E-09 2.22940E-09
 -1       675 1.55199E+05 1.21053E+04 2.80860E+04 6.22581E+04-1.33332E-09-1.97724E-09
 -1       676 2.41017E+01-2.95921E+05-1.11309E+03-1.36473E+02 1.16484E-09 6.50849E-09
 -1       677-2.94455E+02-2.96190E+05-2.03715E+03 2.72726E+02 8.75241E-09-1.34179E-08
 -1       678 1.97483E+02-2.95729E+05-3.60117E+03-1.36164E+02 6.40284E-10-2.34370E-09
 -1       679-3.60124E+03-2.98364E+05-8.55489E+03 2.71547E+02 9.95033E-09-2.17765E-08
 -1       680 2.15014E+03-2.93748E+05-1.37876E+04-1.33791E+02 3.76531E-09 7.33154E-09
 -1       771-3.06317E+06-7.46472E+05-1.64864E+05-1.46558E+06-3.60305E-08-2.86091E-08
 -1       772-2.98617E+06-8.35074E+05-8.49942E+04-1.56802E+06-2.78087E-08 6.94854E-09
 -1       773-3.09451E+06-7.22030E+05-4.33373E+04-1.48001E+06-1.60944E-08 1.49448E-08
 -1       774-2.97670E+06-8.16694E+05-1.93328E+04-1.59368E+06 1.96742E-08-6.45741E-09
 -1       775-3.11088E+06-7.10538E+05-1.44673E+04-1.48702E+06-6.51926E-09 9.84437E-09
 -1       776-2.98898E+06-8.13688E+05-5.40912E+03-1.61310E+06-7.01402E-09 2.09548E-09
 -1       777-3.12509E+06-7.00281E+05-6.39430E+03-1.49320E+06 4.27826E-09 3.39787E-09
 -1       778-3.00180E+06-8.10889E+05-1.80738E+03-1.62978E+06 4.20550E-09 8.62565E-09
 -1       779-3.13731E+06-6.91319E+05-3.19604E+03-1.49848E+06-1.42609E-08-9.93168E-09
 -1       780-3.01309E+06-8.08218E+05-5.29823E+02-1.64337E+06-2.47019E-08-3.59069E-09
 -1       781-3.14702E+06-6.84095E+05-1.24169E+03-1.50262E+06-3.78641E-08-5.09317E-09
 -1       782-3.02179E+06-8.05949E+05 4.47747E+02-1.65340E+06-3.85116E-08 2.10548E-10
 -1       783-3.15386E+06-6.79075E+05 6.96944E+02-1.50551E+06-7.92352E-09-1.51167E-08
 -1       784-3.02661E+06-8.03679E+05 2.88868E+03-1.65959E+06-1.95541E-08 9.19954E-10
 -1       785-3.15790E+06-6.76082E+05 5.09945E+03-1.50735E+06-4.04943E-08 4.36376E-09
 -1       786 1.26723E+05-9.90064E+03 2.29062E+04-3.27996E+02 1.72480E-09-1.78306E-08
 -1       787 1.36657E+05 1.14628E+04 1.62052E+04-1.41688E+02 6.64330E-09-5.85624E-09
 -1       788 1.30553E+05-1.55146E+03 5.92640E+03-2.92587E+02 2.92861E-09 2.93146E-08
 -1       789 1.32195E+05 1.79580E+03 3.72047E+03-1.95872E+02-2.75829E-09 8.29061E-09
 -1       790 1.31186E+05-2.41566E+02 1.50660E+03-2.73830E+02-6.10833E-09 1.41555E-08
 -1       791 1.31456E+05 2.79576E+02 8.70623E+02-2.27962E+02-8.79705E-09 8.18416E-09
 -1       792 1.31293E+05-3.63702E+01 3.69844E+02-2.60500E+02-3.75165E-09-6.44837E-09
 -1       793 1.31328E+05 3.88955E+01 1.86361E+02-2.53099E+02 1.84251E-09-2.65615E-08
 -1       794 1.31314E+05-1.03816E+00 5.24266E+01-2.48692E+02 5.68893E-09-4.33616E-09
 -1       795 1.31292E+05-2.44169E+01-4.79036E+01-2.77865E+02-4.86748E-09 1.52590E-08
 -1       796 1.31329E+05 2.69068E+01-1.46595E+02-2.35734E+02 2.95350E-09 9.78374E-09
 -1       797 1.31205E+05-2.01014E+02-4.07529E+02-3.07799E+02 4.55230E-09-2.88033E-10
 -1       798 1.31401E+05 1.75426E+02-6.63244E+02-2.18758E+02 2.58110E-09 2.52049E-09
 -1       799 1.30701E+05-1.29276E+03-1.82588E+03-3.49979E+02 5.34873E-09 3.28640E-09
 -1       800 1.31833E+05 1.11776E+03-2.58437E+03-1.93554E+02-9.09033E-11 7.90715E-09
 -1       801-1.69469E+05-9.96675E+06-1.38816E+06 1.40785E+06 9.16189E-08-5.18812E-08
 -1       802 7.33404E+05 5.90165E+06 2.16954E+06-1.73699E+06 2.58144E-07-3.94029E-08
 -1       803-5.33865E+05-1.42120E+07-1.88109E+06 8.93307E+05 7.69141E-08 1.43373E-08
 -1       804 2.85496E+05 2.36306E+06 1.52897E+06 6.74866E+05-1.19588E-07-9.02974E-08
 -1       805 1.88621E+05-6.44232E+06-2.84837E+05-9.98364E+05-4.96875E-08-6.32726E-08
 -1       806-3.09049E+05-5.99960E+04-2.28565E+04-1.22753E+05-2.83671E-09-9.21909E-09
 -1       807-3.10811E+05-5.63014E+04-1.12292E+04-1.28341E+05 1.18198E-08 1.68121E-08
 -1       808-3.09678E+05-5.17576E+04-4.76375E+03-1.26645E+05-1.61299E-08-1.25150E-08
 -1       809-3.08449E+05-5.31475E+04-2.32935E+03-1.28618E+05-1.45226E-08 8.87474E-09
 -1       810-3.09773E+05-5.14708E+04-1.06768E+03-1.26817E+05 1.27957E-08-1.14828E-08
 -1       811-3.08266E+05-5.30209E+04-5.30995E+02-1.28582E+05 1.39712E-08-2.27797E-08
 -1       812-3.09787E+05-5.14955E+04-2.68671E+02-1.26817E+05 3.95630E-10-2.00484E-08
 -1       813-3.08241E+05-5.30232E+04-1.74835E+02-1.28564E+05-1.22964E-09-1.31674E-08
 -1       814-3.09779E+05-5.15053E+04-1.73620E+02-1.26812E+05-4.87580E-09 2.17915E-09
 -1       815-3.08244E+05-5.30255E+04-2.80068E+02-1.28556E+05-1.02432E-08-1.03073E-08
 -1       816-3.09758E+05-5.15046E+04-5.31046E+02-1.26808E+05-4.34738E-10 8.32188E-09
 -1       817-3.08334E+05-5.30762E+04-1.13977E+03-1.28544E+05-1.34587E-08 7.15590E-09
 -1       818-3.09689E+05-5.16657E+04-2.32480E+03-1.26733E+05-2.45655E-09-2.01544E-09
 -1       819-3.09607E+05-5.44801E+04-5.47003E+03-1.28241E+05 1.10776E-09 6.54313E-09
 -1       820-3.09249E+05-5.57987E+04-1.11336E+04-1.24968E+05 2.17369E-10 2.31757E-08
 -1       821-3.79496E+05 2.09059E+04-4.86826E+04 2.15928E+03 1.42282E-08-3.19051E-09
 -1       822-3.99165E+05-2.42194E+04-3.41995E+04-4.57584E+03 5.11189E-09 5.88398E-09
 -1       823-3.86941E+05 3.29660E+03-1.25727E+04 3.51276E+03-1.35900E-08 1.10936E-08
 -1       824-3.90165E+05-3.80117E+03-7.86753E+03-5.52819E+03 1.68073E-09 5.67661E-09
 -1       825-3.88504E+05 5.12501E+02-3.29717E+03 3.11175E+03 2.05811E-08 4.97255E-09
 -1       826-3.87687E+05-5.66798E+02-1.73711E+03-3.20497E+03 2.51930E-08 7.74321E-09
 -1       827-3.89393E+05 4.47509E+01-1.20081E+03 1.18939E+03 1.22910E-08 1.43604E-09
 -1       828-3.86951E+05-1.29284E+02-5.70795E+02 1.09877E+03-4.16445E-09 4.32500E-09
 -1       829-3.89226E+05 6.42867E+01-1.18815E+03-1.19202E+03 4.17231E-10 1.28578E-08
 -1       830-3.88048E+05-6.22045E+02-1.87661E+03 4.99423E+03-7.54220E-10 1.89889E-08
 -1       831-3.88320E+05 5.56037E+02-3.37575E+03-2.70609E+03-6.04633E-09 7.05177E-09
 -1       832-3.90244E+05-3.96584E+03-8.16530E+03 6.31622E+03-8.92392E-10 7.33598E-09
 -1       833-3.87047E+05 3.41831E+03-1.30697E+04-2.51406E+03-1.86266E-09 2.66482E-10
 -1       834-3.99206E+05-2.51171E+04-3.53980E+04 4.29535E+03-5.22524E-09 6.79120E-09
 -1       835-3.79340E+05 2.16735E+04-5.05230E+04-6.85134E+02 6.47520E-09-7.66158E-09
 -1       836-1.42041E+03 3.71679E+05 2.30022E+04-1.63718E+04-7.04131E-09 1.03137E-08
 -1       837 4.90269E+03 3.78884E+05 1.94523E+04-3.34496E+04-7.79983E-09-1.49603E-08
 -1       838-5.59930E+02 3.73701E+05 1.98025E+04-1.62997E+04-6.51198E-09 3.04067E-09
 -1       839 1.24550E+04 3.84508E+05 3.74438E+04-3.35021E+04-7.12498E-09 2.92870E-08
 -1       840-3.85104E+03 3.65995E+05 5.97018E+04-1.63251E+04-6.17001E-09 1.83546E-08
 -1       856-5.13316E+04 8.00218E+03-2.10875E+04-3.98776E+02 5.21084E-09 3.40424E-09
 -1       857-6.00192E+04-9.40226E+03-1.45164E+04 5.63208E+03 5.83861E-09-1.54228E-09
 -1       858-5.47721E+04 1.12222E+03-5.47168E+03-4.22599E+02 1.05808E-09 8.51401E-09
 -1       859-5.60710E+04-1.32020E+03-3.30185E+03 5.66749E+03-5.72315E-09 1.93559E-08
 -1       860-5.52861E+04 1.57158E+02-1.38371E+03-4.33926E+02-6.16609E-10 1.89211E-08
 -1       861-5.54797E+04-1.87543E+02-7.61006E+02 5.68292E+03 1.35817E-09 4.05350E-10
 -1       862-5.53665E+04 2.12707E+01-3.15936E+02-4.38002E+02-1.48020E-09-6.62172E-09
 -1       863-5.53811E+04-2.15903E+01-1.14168E+02 5.68530E+03-3.29815E-09 9.70560E-09
 -1       864-5.53852E+04-5.01644E+00 4.91377E+01-4.36305E+02-1.14872E-09 8.44940E-09
 -1       865-5.53249E+04 6.05832E+01 2.59131E+02 5.67556E+03-1.47159E-09 6.44906E-09
 -1       866-5.54205E+04-6.09034E+01 5.21172E+02-4.28269E+02 1.56450E-09-7.60025E-09
 -1       867-5.50801E+04 5.03032E+02 1.28212E+03 5.65375E+03-2.79860E-09 2.76461E-09
 -1       868-5.56251E+04-4.39434E+02 2.13036E+03-4.14487E+02-4.15116E-09-2.02317E-09
 -1       869-5.35186E+04 3.65749E+03 5.67213E+03 5.61782E+03 2.03642E-09-1.75568E-08
 -1       870-5.69743E+04-3.12962E+03 8.23161E+03-3.92232E+02-5.88091E-09-1.22354E-08
 -1       871-5.53424E+03-2.16338E+04-1.95420E+04 1.30746E+05-4.56203E-09 2.02253E-08
 -1       872-1.98980E+03-2.61773E+04-8.18754E+03 1.69533E+05-1.04892E-08-2.27192E-09
 -1       873 4.03980E+02-2.39793E+04 5.79403E+02 1.30459E+05-4.65388E-09-1.74336E-08
 -1       874 3.30537E+03-2.15678E+04 9.77722E+03 1.69562E+05-1.18962E-08 5.89534E-09
 -1       875 6.84690E+03-2.63092E+04 2.20661E+04 1.30699E+05-4.44379E-09 3.90264E-09
 -1       876 2.94041E+05 4.95554E+04 1.51104E+04 1.17997E+05 7.59132E-09-1.03337E-08
 -1       877 2.95040E+05 5.27374E+04 8.06958E+03 1.22331E+05 2.29743E-08-2.27437E-08
 -1       878 2.95454E+05 4.78816E+04 3.38075E+03 1.19234E+05-9.64974E-10-1.85257E-08
 -1       879 2.92986E+05 5.06875E+04 1.68451E+03 1.22433E+05 2.67642E-09-5.71748E-09
 -1       880 2.95555E+05 4.78643E+04 7.84624E+02 1.19285E+05 2.74667E-09 1.75634E-08
 -1       881 2.92850E+05 5.05998E+04 4.19029E+02 1.22409E+05 9.71795E-10 1.47322E-08
 -1       882 2.95564E+05 4.78776E+04 2.68116E+02 1.19287E+05-1.87242E-09-9.69703E-09
 -1       883 2.92840E+05 5.05952E+04 2.88312E+02 1.22402E+05 2.11287E-10 4.46818E-09
 -1       884 2.95558E+05 4.78748E+04 4.58705E+02 1.19287E+05 2.95813E-09-6.12789E-09
 -1       885 2.92877E+05 5.06016E+04 9.22292E+02 1.22413E+05-4.33033E-09-6.07611E-09
 -1       886 2.95522E+05 4.78479E+04 1.85886E+03 1.19283E+05-5.12456E-09 3.91083E-11
 -1       887 2.93203E+05 5.08158E+04 4.06043E+03 1.22460E+05 1.20654E-08 1.79818E-09
 -1       888 2.95265E+05 4.78931E+04 8.18188E+03 1.19153E+05 3.70248E-09-3.60342E-09
 -1       889 2.98074E+05 5.58813E+04 1.95450E+04 1.22311E+05 1.45989E-09-8.22183E-10
 -1       890 2.91926E+05 5.18599E+04 3.66073E+04 1.16039E+05 5.64796E-10 1.29476E-08
 -1       891-9.01414E+01-1.62866E+05-1.99935E+03 2.71222E+04-7.79664E-10 1.46706E-08
 -1       892-1.76545E+02-1.63394E+05-2.14660E+03 4.11860E+04 1.36629E-09-6.42103E-09
 -1       893 4.32079E+01-1.62930E+05-3.03855E+03 2.71295E+04-7.20092E-10-3.59796E-09
 -1       894-1.51200E+03-1.64541E+05-6.28812E+03 4.10336E+04 3.62979E-09 3.97677E-09
 -1       895-1.20062E+03-1.61620E+05-1.10730E+04 2.72764E+04 8.85734E-10-5.82349E-09
 -1       956-3.77708E+05-5.46413E+03-1.34884E+04 3.10765E+04-1.23600E-09-1.46704E-08
 -1       957-3.80354E+05-1.92736E+03-6.92338E+03 3.73467E+04-2.17610E-08-2.41835E-08
 -1       958-3.78920E+05-2.41354E+02-3.11992E+03 3.09075E+04-1.65446E-08-6.48424E-09
 -1       959-3.79117E+05-1.36173E+02-1.59306E+03 3.75438E+04 2.71939E-09 2.70024E-08
 -1       960-3.79039E+05-4.45118E+01-7.76850E+02 3.08900E+04 7.04404E-09 5.52905E-09
 -1       961-3.79037E+05-6.27672E+01-4.11840E+02 3.75644E+04 9.63428E-09 1.23903E-08
 -1       962-3.79067E+05-4.56073E+01-2.35740E+02 3.08871E+04 2.32512E-09 1.55644E-08
 -1       963-3.79038E+05-5.84683E+01-1.89147E+02 3.75681E+04 3.89718E-09-4.73142E-09
 -1       964-3.79072E+05-4.21973E+01-2.29914E+02 3.08864E+04-1.00535E-09 4.66821E-09
 -1       965-3.79050E+05-5.54915E+01-3.97571E+02 3.75674E+04-2.00811E-09 2.36805E-08
 -1       966-3.79056E+05-3.43801E+01-7.46988E+02 3.08879E+04 3.66163E-09 1.34219E-09
 -1       967-3.79139E+05-1.19181E+02-1.53203E+03 3.75530E+04-2.46700E-09 1.37911E-08
 -1       968-3.78952E+05-2.17187E+02-2.99917E+03 3.09006E+04-7.61247E-10 8.24446E-09
 -1       969-3.80341E+05-1.83605E+03-6.65806E+03 3.74035E+04 1.25647E-09 1.97991E-09
 -1       970-3.77794E+05-5.23579E+03-1.29703E+04 3.10288E+04-9.21318E-10 1.30385E-08
 -1       971-3.45656E+05-1.72534E+03-9.30054E+03 1.53490E+04 4.20005E-09-9.22370E-09
 -1       972-3.47895E+05-1.27000E+03-5.06498E+03 2.12286E+04-2.91038E-11-7.89623E-09
 -1       973-3.46692E+05-6.16130E+01-2.26866E+03 1.52280E+04 2.79488E-09-1.43452E-08
 -1       974-3.46827E+05-8.05265E+01-1.17602E+03 2.13654E+04 5.44605E-09-1.40358E-09
 -1       975-3.46774E+05-1.68068E+01-5.88352E+02 1.52157E+04 2.66755E-09 4.73835E-09
 -1       976-3.46766E+05-3.07535E+01-3.40358E+02 2.13812E+04 1.23252E-08 1.00816E-08
 -1       977-3.46791E+05-1.60742E+01-2.48667E+02 1.52123E+04 8.94943E-10-2.07749E-08
 -1       978-3.46771E+05-2.45441E+01-2.93233E+02 2.13860E+04-8.65657E-09-5.47902E-09
 -1       979-3.46790E+05-7.59735E+00-4.73056E+02 1.52109E+04-2.35860E-09 1.97455E-08
 -1       980-3.46807E+05-2.14857E+01-9.14618E+02 2.13870E+04-2.45606E-10 1.83616E-08
 -1       981-3.46761E+05 1.52669E+01-1.77203E+03 1.52114E+04 2.40902E-09-5.58447E-09
 -1       982-3.47050E+05-1.52412E+02-3.66310E+03 2.13804E+04 2.07319E-09 6.94872E-09
 -1       983-3.46538E+05-9.81860E+01-7.11761E+03 1.52174E+04-2.11048E-09-4.69890E-09
 -1       984-3.50473E+05-3.86971E+03-1.59397E+04 2.12949E+04-3.72461E-09 1.93006E-08
 -1       985-3.43316E+05-5.30638E+03-2.92702E+04 1.52888E+04-3.41106E-09-4.18368E-11
 -3
    1PSTEP                        35          18           1          
  100CL  118 6.63139E-01         409                     0   18           1
 -4  DISP        4    1
 -5  D1          1    2    1    0
 -5  D2          1    2    2    0
 -5  D3          1    2    3    0
 -5  ALL         1    2    0    0    1ALL
 -1         1 2.70742E-03 0.00000E+00 0.00000E+00
 -1         2 1.37750E-03-1.60798E-27 0.00000E+00
 -1         3 3.42589E-04-5.51108E-28 1.32349E-23
 -1         5 1.77150E-04-2.78314E-27 1.65436E-24
 -1         8 2.69622E-03-4.12067E-07 0.00000E+00
 -1         9 2.68960E-03-1.81276E-04 0.00000E+00
 -1        10 3.10634E-04-3.41776E-06 6.61744E-24
 -1        12 1.78980E-04 8.09028E-07-1.65436E-24
 -1        15 2.68336E-03-4.36816E-07-2.06795E-25
 -1        16 2.75210E-03-1.83044E-04 0.00000E+00
 -1        17 2.11396E-04-7.79126E-06 0.00000E+00
 -1        18 1.82857E-04 3.44142E-05 0.00000E+00
 -1        19 1.84471E-04 1.61172E-06 0.00000E+00
 -1        20 1.84610E-04-9.76705E-06 0.00000E+00
 -1        21 1.83717E-04-2.52390E-05 0.00000E+00
 -1        24 3.06271E-05-1.20183E-05 0.00000E+00
 -1        25 1.93616E-04 3.46390E-05 0.00000E+00
 -1        26 1.94312E-04 2.23547E-06 0.00000E+00
 -1        27 1.92105E-04-1.33340E-05 0.00000E+00
 -1        28 1.91795E-04-2.58612E-05 0.00000E+00
 -1        32 0.00000E+00 0.00000E+00 0.00000E+00
 -1        33 2.03155E-04 2.99278E-06 0.00000E+00
 -1        34 2.01033E-04-1.33908E-05 0.00000E+00
 -1        35 1.99099E-04-2.62040E-05 0.00000E+00
 -1        51 2.70667E-03-8.59044E-08 0.00000E+00
 -1        52 2.70530E-03-1.53530E-07 3.30872E-24
 -1        53 2.70344E-03-2.17737E-07 0.00000E+00
 -1        54 2.70121E-03-2.80760E-07-1.65436E-24
 -1        55 2.69877E-03-3.44355E-07 3.30872E-24
 -1        56 2.70019E-03 7.36668E-06 0.00000E+00
 -1        57 2.68646E-03 3.08218E-05-5.29396E-23
 -1        58 2.66827E-03 6.52554E-05 0.00000E+00
 -1        59 2.64804E-03 1.04499E-04 0.00000E+00
 -1        60 2.62872E-03 1.41563E-04-1.05879E-22
 -1        61 2.61311E-03 1.69632E-04 5.29396E-23
 -1        62 2.60315E-03 1.83502E-04-1.05879E-22
 -1        63 2.60013E-03 1.79230E-04 0.00000E+00
 -1        64 2.60389E-03 1.56198E-04 0.00000E+00
 -1        65 2.61368E-03 1.15547E-04 5.29396E-23
 -1        66 2.62778E-03 6.17449E-05 0.00000E+00
 -1        67 2.64423E-03 5.34955E-07-5.29396E-23
 -1        68 2.66075E-03-6.09131E-05 0.00000E+00
 -1        69 2.67510E-03-1.15400E-04 5.29396E-23
 -1        70 2.68526E-03-1.57070E-04 5.29396E-23
 -1        86 1.45997E-03-5.78919E-06-5.29396E-23
 -1        87 1.69890E-03-3.61371E-05 0.00000E+00
 -1        88 2.02012E-03-8.82024E-05 2.64698E-23
 -1        89 2.34550E-03-1.41646E-04-1.32349E-23
 -1        90 2.59451E-03-1.74343E-04 0.00000E+00
 -1       121 3.41691E-04-5.51889E-07 0.00000E+00
 -1       122 3.39003E-04-1.10687E-06 0.00000E+00
 -1       123 3.34533E-04-1.66797E-06 0.00000E+00
 -1       124 3.28298E-04-2.23825E-06 0.00000E+00
 -1       125 3.20321E-04-2.82034E-06 0.00000E+00
 -1       191 1.77201E-04 1.34901E-07 0.00000E+00
 -1       192 1.77353E-04 2.69790E-07 8.27181E-25
 -1       193 1.77608E-04 4.04660E-07-2.48154E-24
 -1       194 1.77963E-04 5.39498E-07 8.27181E-25
 -1       195 1.78421E-04 6.74291E-07 3.30872E-24
 -1       251 2.69592E-03 1.78935E-06 0.00000E+00
 -1       252 2.69560E-03 4.01322E-06 0.00000E+00
 -1       253 2.69529E-03 5.26583E-06 0.00000E+00
 -1       254 2.69498E-03 4.56585E-06 0.00000E+00
 -1       255 2.69466E-03 1.23513E-06 6.61744E-24
 -1       256 2.69432E-03-5.37076E-06 0.00000E+00
 -1       257 2.69396E-03-1.53880E-05-1.32349E-23
 -1       258 2.69356E-03-2.89090E-05-6.61744E-24
 -1       259 2.69311E-03-4.54830E-05 1.32349E-23
 -1       260 2.69263E-03-6.46197E-05 0.00000E+00
 -1       261 2.69210E-03-8.54311E-05-1.32349E-23
 -1       262 2.69157E-03-1.07008E-04 6.61744E-24
 -1       263 2.69103E-03-1.28323E-04 1.32349E-23
 -1       264 2.69052E-03-1.48351E-04-6.61744E-24
 -1       265 2.69005E-03-1.66268E-04-1.32349E-23
 -1       266 2.69408E-03-4.21940E-07 3.30872E-24
 -1       267 2.69194E-03-4.25364E-07 0.00000E+00
 -1       268 2.68979E-03-4.29197E-07 8.27181E-25
 -1       269 2.68765E-03-4.31819E-07 0.00000E+00
 -1       270 2.68550E-03-4.34414E-07 0.00000E+00
 -1       271 2.69531E-03 2.19157E-07-1.32349E-23
 -1       272 2.69530E-03-1.63252E-06 0.00000E+00
 -1       273 2.69616E-03-5.82420E-06 1.32349E-23
 -1       274 2.69782E-03-1.22017E-05-1.32349E-23
 -1       275 2.70023E-03-2.05907E-05 0.00000E+00
 -1       276 2.70330E-03-3.08018E-05-1.32349E-23
 -1       277 2.70695E-03-4.26302E-05-2.64698E-23
 -1       278 2.71112E-03-5.58582E-05 0.00000E+00
 -1       279 2.71570E-03-7.02565E-05 0.00000E+00
 -1       280 2.72062E-03-8.55863E-05 0.00000E+00
 -1       281 2.72578E-03-1.01601E-04 2.64698E-23
 -1       282 2.73110E-03-1.18049E-04 0.00000E+00
 -1       283 2.73648E-03-1.34674E-04-1.32349E-23
 -1       284 2.74184E-03-1.51219E-04 6.61744E-24
 -1       285 2.74707E-03-1.67427E-04 0.00000E+00
 -1       301 2.70097E-03-1.81604E-04-1.32349E-23
 -1       302 2.71072E-03-1.81887E-04 6.61744E-24
 -1       303 2.71979E-03-1.82160E-04-2.64698E-23
 -1       304 2.72909E-03-1.82434E-04 6.61744E-24
 -1       305 2.73956E-03-1.82721E-04 0.00000E+00
 -1       306 2.72737E-03-3.35295E-04-1.05879E-22
 -1       307 2.79126E-03-7.48751E-04 5.29396E-23
 -1       308 2.83803E-03-1.35360E-03 1.05879E-22
 -1       309 2.86193E-03-2.05396E-03 0.00000E+00
 -1       310 2.89320E-03-2.72415E-03 0.00000E+00
 -1       311 2.95262E-03-3.24115E-03-5.29396E-23
 -1       312 3.01057E-03-3.52429E-03 2.11758E-22
 -1       313 3.00633E-03-3.53557E-03 0.00000E+00
 -1       314 2.86613E-03-3.28686E-03-1.05879E-22
 -1       315 2.54899E-03-2.84248E-03-5.29396E-23
 -1       316 2.07310E-03-2.27902E-03 0.00000E+00
 -1       317 1.50420E-03-1.66583E-03-5.29396E-23
 -1       318 9.56448E-04-1.06363E-03 0.00000E+00
 -1       319 5.37762E-04-5.37459E-04-5.29396E-23
 -1       320 2.91952E-04-1.61380E-04 0.00000E+00
 -1       336 2.99047E-04-4.07823E-06 0.00000E+00
 -1       337 2.85386E-04-4.76438E-06-6.61744E-24
 -1       338 2.69712E-04-5.47842E-06 0.00000E+00
 -1       339 2.52099E-04-6.22115E-06-6.61744E-24
 -1       340 2.32630E-04-6.99703E-06 0.00000E+00
 -1       406 1.79641E-04 9.43688E-07-1.65436E-24
 -1       407 1.80404E-04 1.07824E-06 4.13590E-25
 -1       408 1.81268E-04 1.21262E-06-4.13590E-25
 -1       409 1.82235E-04 1.34667E-06 3.10193E-25
 -1       410 1.83303E-04 1.48012E-06-2.89513E-24
 -1       521 2.79048E-03-3.46337E-04 1.05879E-22
 -1       522 2.85261E-03-7.79942E-04 0.00000E+00
 -1       523 2.89298E-03-1.41242E-03 0.00000E+00
 -1       524 2.90773E-03-2.14117E-03 5.29396E-23
 -1       525 2.93115E-03-2.83774E-03-1.05879E-22
 -1       526 2.98702E-03-3.37662E-03-5.29396E-23
 -1       527 3.04454E-03-3.67030E-03 0.00000E+00
 -1       528 3.03803E-03-3.67984E-03 0.00000E+00
 -1       529 2.88594E-03-3.41710E-03 0.00000E+00
 -1       530 2.54505E-03-2.95429E-03 0.00000E+00
 -1       531 2.03435E-03-2.37174E-03-1.05879E-22
 -1       532 1.42595E-03-1.74142E-03 0.00000E+00
 -1       533 8.39358E-04-1.12144E-03-1.05879E-22
 -1       534 3.87570E-04-5.74510E-04 0.00000E+00
 -1       535 1.20652E-04-1.78990E-04 0.00000E+00
 -1       536 2.10642E-04 2.71177E-05 6.61744E-24
 -1       537 2.08725E-04 8.75337E-05-1.65436E-24
 -1       538 2.05764E-04 1.64194E-04-3.30872E-24
 -1       539 2.02270E-04 2.47751E-04 0.00000E+00
 -1       540 1.99126E-04 3.26708E-04-3.30872E-24
 -1       541 1.97083E-04 3.89588E-04 1.65436E-24
 -1       542 1.96140E-04 4.29641E-04-3.30872E-24
 -1       543 1.95915E-04 4.40263E-04 0.00000E+00
 -1       544 1.95592E-04 4.22229E-04 0.00000E+00
 -1       545 1.94421E-04 3.76532E-04-1.65436E-24
 -1       546 1.92238E-04 3.11296E-04 0.00000E+00
 -1       547 1.89282E-04 2.34765E-04 1.65436E-24
 -1       548 1.86354E-04 1.58610E-04-3.30872E-24
 -1       549 1.84241E-04 9.45021E-05 0.00000E+00
 -1       550 1.83144E-04 5.04697E-05 0.00000E+00
 -1       551 1.86206E-04-8.36119E-06 0.00000E+00
 -1       552 1.57772E-04-9.01147E-06 0.00000E+00
 -1       553 1.27037E-04-9.72392E-06 3.30872E-24
 -1       554 9.49623E-05-1.04774E-05 3.30872E-24
 -1       555 6.25072E-05-1.12446E-05 0.00000E+00
 -1       556 2.03752E-04 1.17556E-05 0.00000E+00
 -1       557 1.97575E-04 2.76092E-05 0.00000E+00
 -1       558 1.92732E-04 4.00573E-05 5.29396E-23
 -1       559 1.89091E-04 4.94101E-05 0.00000E+00
 -1       560 1.86520E-04 5.59782E-05 0.00000E+00
 -1       561 1.84893E-04 6.00747E-05 0.00000E+00
 -1       562 1.84084E-04 6.20142E-05 0.00000E+00
 -1       563 1.83969E-04 6.21120E-05 1.32349E-23
 -1       564 1.84427E-04 6.06842E-05 0.00000E+00
 -1       565 1.85336E-04 5.80478E-05 0.00000E+00
 -1       566 1.86576E-04 5.45203E-05 0.00000E+00
 -1       567 1.88030E-04 5.04195E-05 0.00000E+00
 -1       568 1.89579E-04 4.60634E-05 0.00000E+00
 -1       569 1.91104E-04 4.17700E-05 8.27181E-25
 -1       570 1.92489E-04 3.78573E-05 0.00000E+00
 -1       571 1.82955E-04 3.22889E-05 3.30872E-24
 -1       572 1.83055E-04 3.00958E-05 1.24077E-24
 -1       573 1.83156E-04 2.78509E-05 0.00000E+00
 -1       574 1.83256E-04 2.55711E-05-8.27181E-25
 -1       575 1.83357E-04 2.32730E-05 0.00000E+00
 -1       576 1.83458E-04 2.09736E-05 1.65436E-24
 -1       577 1.83558E-04 1.86897E-05 0.00000E+00
 -1       578 1.83659E-04 1.64381E-05 0.00000E+00
 -1       579 1.83760E-04 1.42358E-05 6.61744E-24
 -1       580 1.83861E-04 1.20996E-05 0.00000E+00
 -1       581 1.83963E-04 1.00464E-05 0.00000E+00
 -1       582 1.84064E-04 8.09310E-06-3.30872E-24
 -1       583 1.84166E-04 6.25649E-06 0.00000E+00
 -1       584 1.84267E-04 4.55328E-06-3.30872E-24
 -1       585 1.84369E-04 2.99998E-06 0.00000E+00
 -1       586 1.84609E-04 3.44538E-05-1.65436E-24
 -1       587 1.86320E-04 3.44928E-05-8.27181E-25
 -1       588 1.88033E-04 3.45315E-05 0.00000E+00
 -1       589 1.89791E-04 3.45695E-05 0.00000E+00
 -1       590 1.91638E-04 3.46062E-05 0.00000E+00
 -1       591 1.83585E-04 3.23831E-05 1.03398E-25
 -1       592 1.84316E-04 3.03311E-05 0.00000E+00
 -1       593 1.85053E-04 2.82642E-05 0.00000E+00
 -1       594 1.85793E-04 2.61872E-05 0.00000E+00
 -1       595 1.86534E-04 2.41051E-05 0.00000E+00
 -1       596 1.87276E-04 2.20226E-05 0.00000E+00
 -1       597 1.88016E-04 1.99446E-05 8.27181E-25
 -1       598 1.88752E-04 1.78758E-05 0.00000E+00
 -1       599 1.89483E-04 1.58210E-05 0.00000E+00
 -1       600 1.90207E-04 1.37851E-05 0.00000E+00
 -1       601 1.90923E-04 1.17728E-05 0.00000E+00
 -1       602 1.91628E-04 9.78894E-06-4.13590E-25
 -1       603 1.92320E-04 7.83832E-06 4.13590E-25
 -1       604 1.92999E-04 5.92586E-06-2.06795E-25
 -1       605 1.93662E-04 4.05625E-06-4.13590E-25
 -1       606 1.84484E-04 4.57935E-07 0.00000E+00
 -1       607 1.84494E-04-6.10791E-07 0.00000E+00
 -1       608 1.84503E-04-1.59945E-06 0.00000E+00
 -1       609 1.84511E-04-2.51367E-06-1.65436E-24
 -1       610 1.84519E-04-3.35915E-06 0.00000E+00
 -1       611 1.84528E-04-4.14161E-06 0.00000E+00
 -1       612 1.84536E-04-4.86681E-06 0.00000E+00
 -1       613 1.84544E-04-5.54052E-06 0.00000E+00
 -1       614 1.84553E-04-6.16848E-06 0.00000E+00
 -1       615 1.84561E-04-6.75645E-06 0.00000E+00
 -1       616 1.84569E-04-7.31020E-06 0.00000E+00
 -1       617 1.84578E-04-7.83548E-06 0.00000E+00
 -1       618 1.84586E-04-8.33804E-06 8.27181E-25
 -1       619 1.84594E-04-8.82366E-06 0.00000E+00
 -1       620 1.84602E-04-9.29808E-06 0.00000E+00
 -1       621 1.85821E-04 1.71625E-06 1.65436E-24
 -1       622 1.87331E-04 1.82102E-06 0.00000E+00
 -1       623 1.88970E-04 1.92559E-06 0.00000E+00
 -1       624 1.90702E-04 2.02982E-06 0.00000E+00
 -1       625 1.92494E-04 2.13375E-06-1.65436E-24
 -1       626 1.85016E-04 4.94141E-07-3.30872E-24
 -1       627 1.85539E-04-5.61236E-07 0.00000E+00
 -1       628 1.86041E-04-1.56222E-06 0.00000E+00
 -1       629 1.86526E-04-2.51693E-06 1.65436E-24
 -1       630 1.86997E-04-3.43351E-06 0.00000E+00
 -1       631 1.87457E-04-4.32013E-06 0.00000E+00
 -1       632 1.87909E-04-5.18493E-06-3.30872E-24
 -1       633 1.88355E-04-6.03609E-06 0.00000E+00
 -1       634 1.88800E-04-6.88176E-06-3.30872E-24
 -1       635 1.89245E-04-7.73011E-06 1.65436E-24
 -1       636 1.89695E-04-8.58931E-06 0.00000E+00
 -1       637 1.90151E-04-9.46751E-06-1.65436E-24
 -1       638 1.90618E-04-1.03729E-05-1.65436E-24
 -1       639 1.91098E-04-1.13136E-05 1.65436E-24
 -1       640 1.91593E-04-1.22979E-05 3.30872E-24
 -1       656 1.85311E-04-1.03468E-05 0.00000E+00
 -1       657 1.86431E-04-1.09501E-05-6.61744E-24
 -1       658 1.87831E-04-1.15520E-05 1.32349E-23
 -1       659 1.89366E-04-1.21536E-05 0.00000E+00
 -1       660 1.90852E-04-1.27570E-05 0.00000E+00
 -1       661 1.84872E-04-1.02813E-05 8.27181E-25
 -1       662 1.85172E-04-1.08878E-05-8.27181E-25
 -1       663 1.85505E-04-1.15812E-05 1.65436E-24
 -1       664 1.85868E-04-1.23551E-05 8.27181E-25
 -1       665 1.86259E-04-1.32035E-05 0.00000E+00
 -1       666 1.86675E-04-1.41205E-05 0.00000E+00
 -1       667 1.87116E-04-1.51004E-05 0.00000E+00
 -1       668 1.87577E-04-1.61374E-05 0.00000E+00
 -1       669 1.88058E-04-1.72262E-05 0.00000E+00
 -1       670 1.88557E-04-1.83615E-05 0.00000E+00
 -1       671 1.89070E-04-1.95378E-05 0.00000E+00
 -1       672 1.89597E-04-2.07502E-05-8.27181E-25
 -1       673 1.90136E-04-2.19935E-05 1.65436E-24
 -1       674 1.90683E-04-2.32629E-05-4.13590E-25
 -1       675 1.91238E-04-2.45532E-05 2.06795E-25
 -1       676 1.85068E-04-2.53433E-05-3.30872E-24
 -1       677 1.86418E-04-2.54476E-05 1.65436E-24
 -1       678 1.87767E-04-2.55518E-05 3.30872E-24
 -1       679 1.89113E-04-2.56557E-05-1.65436E-24
 -1       680 1.90456E-04-2.57596E-05 0.00000E+00
 -1       771 1.86814E-05 1.46932E-05 0.00000E+00
 -1       772 8.63103E-06 3.66321E-05 0.00000E+00
 -1       773 3.85376E-07 5.40284E-05 5.29396E-23
 -1       774-6.17980E-06 6.71398E-05 2.64698E-23
 -1       775-1.11860E-05 7.62344E-05 0.00000E+00
 -1       776-1.47598E-05 8.15973E-05 0.00000E+00
 -1       777-1.70274E-05 8.35234E-05 5.29396E-23
 -1       778-1.81175E-05 8.23215E-05-2.64698E-23
 -1       779-1.81584E-05 7.83090E-05 0.00000E+00
 -1       780-1.72803E-05 7.18146E-05 0.00000E+00
 -1       781-1.56125E-05 6.31740E-05 0.00000E+00
 -1       782-1.32859E-05 5.27315E-05 2.64698E-23
 -1       783-1.04303E-05 4.08361E-05 5.29396E-23
 -1       784-7.17704E-06 2.78432E-05 2.64698E-23
 -1       785-3.65627E-06 1.41109E-05 0.00000E+00
 -1       786 1.93655E-04 3.23888E-05 2.58494E-26
 -1       787 1.93698E-04 3.01880E-05-4.13590E-25
 -1       788 1.93740E-04 2.80283E-05-8.27181E-25
 -1       789 1.93784E-04 2.59017E-05 0.00000E+00
 -1       790 1.93827E-04 2.38033E-05-1.65436E-24
 -1       791 1.93871E-04 2.17286E-05 8.27181E-25
 -1       792 1.93915E-04 1.96754E-05 1.65436E-24
 -1       793 1.93959E-04 1.76416E-05 0.00000E+00
 -1       794 1.94003E-04 1.56270E-05 0.00000E+00
 -1       795 1.94047E-04 1.36316E-05 8.27181E-25
 -1       796 1.94090E-04 1.16574E-05-1.65436E-24
 -1       797 1.94135E-04 9.70630E-06 0.00000E+00
 -1       798 1.94179E-04 7.78273E-06 1.65436E-24
 -1       799 1.94223E-04 5.89120E-06 0.00000E+00
 -1       800 1.94267E-04 4.03947E-06 1.65436E-24
 -1       801 1.47828E-04 3.11402E-05 0.00000E+00
 -1       802 9.39322E-06 1.94284E-05-2.64698E-23
 -1       803-1.08844E-04 9.81566E-06 0.00000E+00
 -1       804-9.64648E-05 6.83221E-06 0.00000E+00
 -1       805-3.18640E-05 2.68440E-06 5.29396E-23
 -1       806 1.94344E-04 3.23196E-05-3.30872E-24
 -1       807 1.95059E-04 3.00256E-05 0.00000E+00
 -1       808 1.95761E-04 2.77624E-05 0.00000E+00
 -1       809 1.96450E-04 2.55341E-05 0.00000E+00
 -1       810 1.97125E-04 2.33449E-05 0.00000E+00
 -1       811 1.97783E-04 2.11988E-05-1.65436E-24
 -1       812 1.98424E-04 1.90998E-05 0.00000E+00
 -1       813 1.99045E-04 1.70520E-05 0.00000E+00
 -1       814 1.99646E-04 1.50594E-05 3.30872E-24
 -1       815 2.00225E-04 1.31261E-05-8.27181E-25
 -1       816 2.00781E-04 1.12559E-05 1.65436E-24
 -1       817 2.01311E-04 9.45297E-06 8.27181E-25
 -1       818 2.01815E-04 7.72122E-06 1.65436E-24
 -1       819 2.02291E-04 6.06466E-06-8.27181E-25
 -1       820 2.02738E-04 4.48722E-06 0.00000E+00
 -1       821 1.94182E-04-1.43928E-07 0.00000E+00
 -1       822 1.94042E-04-3.71627E-06 1.65436E-24
 -1       823 1.93899E-04-8.04148E-06 0.00000E+00
 -1       824 1.93753E-04-1.26747E-05-1.65436E-24
 -1       825 1.93608E-04-1.70879E-05 3.30872E-24
 -1       826 1.93466E-04-2.07540E-05 0.00000E+00
 -1       827 1.93327E-04-2.33499E-05-3.30872E-24
 -1       828 1.93190E-04-2.45590E-05-1.65436E-24
 -1       829 1.93055E-04-2.44427E-05 0.00000E+00
 -1       830 1.92918E-04-2.30706E-05-1.65436E-24
 -1       831 1.92780E-04-2.08546E-05 0.00000E+00
 -1       832 1.92641E-04-1.82116E-05 0.00000E+00
 -1       833 1.92502E-04-1.56754E-05 3.30872E-24
 -1       834 1.92367E-04-1.37787E-05 1.65436E-24
 -1       835 1.92232E-04-1.28806E-05 0.00000E+00
 -1       836 1.95999E-04 2.36105E-06 0.00000E+00
 -1       837 1.97559E-04 2.48979E-06-1.65436E-24
 -1       838 1.99022E-04 2.61847E-06 0.00000E+00
 -1       839 2.00421E-04 2.74645E-06 0.00000E+00
 -1       840 2.01788E-04 2.87427E-06-8.27181E-25
 -1       856 1.92090E-04-1.43925E-05 8.27181E-25
 -1       857 1.92070E-04-1.53151E-05 0.00000E+00
 -1       858 1.92052E-04-1.61231E-05-2.06795E-25
 -1       859 1.92032E-04-1.68375E-05 2.06795E-25
 -1       860 1.92013E-04-1.74797E-05 0.00000E+00
 -1       861 1.91994E-04-1.80707E-05 2.06795E-25
 -1       862 1.91974E-04-1.86320E-05 0.00000E+00
 -1       863 1.91955E-04-1.91850E-05 2.06795E-25
 -1       864 1.91935E-04-1.97508E-05-8.27181E-25
 -1       865 1.91916E-04-2.03510E-05 0.00000E+00
 -1       866 1.91896E-04-2.10067E-05 8.27181E-25
 -1       867 1.91877E-04-2.17393E-05 0.00000E+00
 -1       868 1.91857E-04-2.25700E-05 8.27181E-25
 -1       869 1.91837E-04-2.35198E-05 4.13590E-25
 -1       870 1.91817E-04-2.46099E-05 0.00000E+00
 -1       871 1.93452E-04-1.33390E-05 0.00000E+00
 -1       872 1.94946E-04-1.33474E-05 0.00000E+00
 -1       873 1.96520E-04-1.33566E-05 4.13590E-25
 -1       874 1.98105E-04-1.33665E-05-7.75482E-26
 -1       875 1.99632E-04-1.33769E-05 1.03398E-24
 -1       876 1.92630E-04-1.43778E-05 0.00000E+00
 -1       877 1.93132E-04-1.53548E-05-1.65436E-24
 -1       878 1.93612E-04-1.62728E-05 3.30872E-24
 -1       879 1.94073E-04-1.71393E-05 0.00000E+00
 -1       880 1.94518E-04-1.79617E-05 0.00000E+00
 -1       881 1.94949E-04-1.87474E-05 1.65436E-24
 -1       882 1.95369E-04-1.95037E-05 0.00000E+00
 -1       883 1.95781E-04-2.02380E-05-1.65436E-24
 -1       884 1.96188E-04-2.09576E-05-3.30872E-24
 -1       885 1.96591E-04-2.16699E-05 1.65436E-24
 -1       886 1.96995E-04-2.23822E-05 0.00000E+00
 -1       887 1.97401E-04-2.31018E-05-1.65436E-24
 -1       888 1.97813E-04-2.38362E-05 3.30872E-24
 -1       889 1.98232E-04-2.45928E-05 0.00000E+00
 -1       890 1.98662E-04-2.53790E-05 0.00000E+00
 -1       891 1.93155E-04-2.59188E-05-1.65436E-24
 -1       892 1.94491E-04-2.59765E-05 0.00000E+00
 -1       893 1.95778E-04-2.60342E-05-8.27181E-25
 -1       894 1.96992E-04-2.60916E-05 0.00000E+00
 -1       895 1.98107E-04-2.61487E-05-4.13590E-25
 -1       956 2.03025E-04 1.67435E-06 1.65436E-24
 -1       957 2.02892E-04 4.48251E-07 8.27181E-25
 -1       958 2.02759E-04-6.96340E-07 0.00000E+00
 -1       959 2.02626E-04-1.77085E-06-1.65436E-24
 -1       960 2.02493E-04-2.78677E-06 0.00000E+00
 -1       961 2.02360E-04-3.75560E-06-1.65436E-24
 -1       962 2.02227E-04-4.68886E-06 0.00000E+00
 -1       963 2.02094E-04-5.59811E-06-1.65436E-24
 -1       964 2.01961E-04-6.49487E-06 0.00000E+00
 -1       965 2.01828E-04-7.39068E-06 1.65436E-24
 -1       966 2.01695E-04-8.29709E-06 3.30872E-24
 -1       967 2.01562E-04-9.22564E-06 0.00000E+00
 -1       968 2.01429E-04-1.01878E-05 0.00000E+00
 -1       969 2.01296E-04-1.11952E-05 0.00000E+00
 -1       970 2.01164E-04-1.22592E-05 3.30872E-24
 -1       971 2.00913E-04-1.45227E-05 0.00000E+00
 -1       972 2.00792E-04-1.55601E-05-1.65436E-24
 -1       973 2.00670E-04-1.65135E-05 3.30872E-24
 -1       974 2.00549E-04-1.73938E-05 0.00000E+00
 -1       975 2.00427E-04-1.82118E-05 3.30872E-24
 -1       976 2.00306E-04-1.89782E-05 0.00000E+00
 -1       977 2.00184E-04-1.97040E-05-3.30872E-24
 -1       978 2.00063E-04-2.04001E-05-1.65436E-24
 -1       979 1.99941E-04-2.10773E-05 3.30872E-24
 -1       980 1.99820E-04-2.17466E-05 1.65436E-24
 -1       981 1.99698E-04-2.24187E-05-3.30872E-24
 -1       982 1.99577E-04-2.31047E-05 0.00000E+00
 -1       983 1.99456E-04-2.38154E-05 0.00000E+00
 -1       984 1.99335E-04-2.45616E-05 1.65436E-24
 -1       985 1.99215E-04-2.53543E-05-3.30872E-24
 -3
    1PSTEP                        36          18           1          
  100CL  118 6.63139E-01         409                     0   18           1
 -4  STRESS      6    1
 -5  SXX         1    4    1    1
 -5  SYY         1    4    2    2
 -5  SZZ         1    4    3    3
 -5  SXY         1    4    1    2
 -5  SYZ         1    4    2    3
 -5  SZX         1    4    3    1
 -1         1-5.32108E+06-1.63211E+06-1.13310E+06-1.40849E+06-3.20142E-09 1.11409E-07
 -1         2 1.36564E+06 2.00891E+07 4.72554E+06 6.04566E+06 2.43308E-08 1.13956E-07
 -1         3-1.48800E+03-1.56703E+06 4.07522E+02-2.22404E+03-5.87445E-10-3.91592E-08
 -1         5-7.39418E+01 3.86295E+05 9.88216E+00-1.32984E+00-4.01822E-10 8.94943E-09
 -1         8-5.74111E+05-2.05193E+05-6.50333E+04-2.49993E+05 2.32831E-10 9.65920E-08
 -1         9 1.16403E+07 3.51212E+06 2.70737E+06-4.10735E+05 4.06289E-09 5.86268E-08
 -1        10-2.30732E+03-1.63297E+06-3.96411E+03-1.50475E+04-1.34787E-08-6.81179E-08
 -1        12-7.00611E+01 3.86316E+05 3.24813E+02-9.06860E+00-4.69509E-10 3.59432E-09
 -1        15 9.52384E+02 5.23383E+02 3.07855E+03 8.83089E-01-4.16662E-11 3.68549E-08
 -1        16 2.28208E+07-3.13179E+05 3.11149E+06-2.22638E+06 2.92785E-08 1.95267E-07
 -1        17 8.34644E+06 6.25593E+06 2.25547E+06 5.98927E+06 2.37487E-08 2.96161E-08
 -1        18 1.42866E+05 3.33908E+04 4.17597E+03-1.19778E+05 1.55414E-08 1.72786E-08
 -1        19 1.23247E+05 1.42038E+05-9.22001E+02 2.20387E+04 1.65946E-09 6.60912E-09
 -1        20-8.26604E+04-5.75191E+05-1.29103E+05 2.49200E+04-1.44943E-09-1.38164E-08
 -1        21-4.55711E+01-2.96090E+05-9.23721E+02 2.74379E+02 1.59417E-08-5.56203E-09
 -1        24 1.39530E+07 1.20251E+07 3.86575E+06 1.11362E+07-1.67444E-07-5.36481E-08
 -1        25 1.25419E+05 2.67119E+05 1.00130E+05-6.45927E+05-1.21645E-09 1.17798E-08
 -1        26-5.50216E+04 9.29022E+04-2.45615E+04 1.28330E+03-1.30240E-10-5.80153E-09
 -1        27-7.55243E+04-3.10693E+05-1.13501E+05 6.90958E+04 4.06195E-09 8.70083E-10
 -1        28 2.22450E+04-8.54260E+04 1.69068E+04 2.05268E+04-2.79340E-09 8.38242E-09
 -1        32-1.68068E+06-3.18009E+06-1.97179E+05 4.57834E+05-4.27826E-08-8.91521E-09
 -1        33-1.78637E+05 9.34201E+04 3.24898E+04-3.86758E+04-2.98549E-09 4.38437E-09
 -1        34-2.23937E+05-2.51492E+04 6.93228E+02 7.59147E+04-4.88888E-09 5.44151E-09
 -1        35-2.29367E+04-3.38725E+04-1.34997E+03 5.15108E+04-4.35755E-09 1.71943E-08
 -1        51 6.02717E+04-1.74813E+05 1.27570E+05-4.49887E+05 2.91038E-11 1.45577E-07
 -1        52 2.04533E+04-1.52593E+05 6.69984E+04-5.24682E+05 5.21140E-10-6.15946E-08
 -1        53 4.22878E+03-1.67982E+05 3.49869E+04-4.48331E+05 4.56566E-10-1.23437E-07
 -1        54 7.57302E+03-1.63782E+05 2.89449E+04-5.26213E+05 9.45874E-11-2.60930E-07
 -1        55 1.64788E+04-1.70924E+05 3.54381E+04-4.48227E+05 4.76575E-10-1.39680E-08
 -1        56-9.72918E+06-1.31675E+06-8.94696E+05-4.02432E+06 2.09548E-09 3.87663E-08
 -1        57-1.09259E+07-9.52563E+05-5.52306E+05-2.82399E+06 1.18089E-08-7.50078E-08
 -1        58-9.60502E+06-1.75635E+06-1.99676E+05-4.18178E+06 2.32976E-08-6.70188E-08
 -1        59-1.10213E+07-4.57537E+05-1.10506E+05-2.76263E+06-6.22517E-08-1.28468E-07
 -1        60-9.69003E+06-1.76197E+06-5.48131E+04-4.13604E+06 2.04782E-08 9.97388E-08
 -1        61-1.04830E+07-7.40119E+05 5.52193E+03-2.99996E+06-1.16706E-08 3.48940E-07
 -1        62-1.00403E+07-1.54304E+06-6.04756E+04-3.86408E+06-2.81580E-08-1.80997E-07
 -1        63-9.73248E+06-1.34907E+06 3.81624E+04-3.61659E+06 1.36206E-08-1.37576E-07
 -1        64-1.03607E+07-1.20963E+06-5.54494E+04-3.46811E+06-1.12777E-08-1.81855E-07
 -1        65-9.37832E+06-1.87729E+06 3.62354E+03-4.38212E+06 7.42148E-09-4.55939E-08
 -1        66-1.04891E+07-9.49172E+05-4.56673E+04-3.16951E+06-2.98314E-09 2.23177E-07
 -1        67-9.36269E+06-2.11217E+06-9.96296E+04-4.74046E+06-7.39601E-08 1.70652E-07
 -1        68-1.04698E+07-9.09799E+05-1.84185E+05-3.16903E+06-1.45628E-08 2.30066E-08
 -1        69-9.56958E+06-2.21750E+06-4.92949E+05-4.34848E+06-4.69799E-08 1.31076E-07
 -1        70-1.01974E+07-9.14529E+05-8.18620E+05-3.50334E+06 2.01617E-08 2.98023E-08
 -1        86-1.39266E+06-1.47052E+07-2.58482E+06-2.84545E+06-2.59355E-07-7.84203E-08
 -1        87 2.16751E+06 5.67269E+06 2.15060E+06 5.35980E+06-4.63020E-07 3.25563E-08
 -1        88-3.97020E+05-2.05555E+06 2.00484E+05-2.44466E+06-4.00021E-07-1.74773E-08
 -1        89 2.90495E+06 5.41122E+06 2.20189E+06 5.53162E+06-5.82193E-07-2.38409E-07
 -1        90-2.04749E+06-1.45117E+07-2.79544E+06-3.04172E+06-1.40903E-07 8.24657E-08
 -1       121-2.03862E+03-1.57194E+06-5.45353E+02 1.10238E+03 1.39607E-09 1.38753E-08
 -1       122-1.30117E+03-1.56710E+06 7.73269E+02-4.45198E+03-5.82207E-09 3.78641E-08
 -1       123-2.05852E+03-1.57207E+06 2.67338E+02 3.29224E+03 3.94982E-09 3.66490E-08
 -1       124 3.44219E+02-1.56664E+06 2.96535E+03-9.31277E+03-1.08362E-08 1.36861E-08
 -1       125-2.87192E+03-1.57297E+06 3.48495E+03 5.91728E+03 6.39739E-09-2.77578E-09
 -1       191-7.79235E+01 3.86313E+05 8.43149E+00 6.92917E-01-5.87136E-10-1.10049E-09
 -1       192-7.48955E+01 3.86296E+05 2.10869E+01-4.26614E+00-8.71735E-10-3.74212E-08
 -1       193-8.04341E+01 3.86313E+05 3.59278E+01 3.74467E+00-1.11048E-09-1.87283E-08
 -1       194-7.79533E+01 3.86299E+05 8.01596E+01-9.68097E+00-6.05442E-10-7.53334E-09
 -1       195-8.52529E+01 3.86311E+05 1.53495E+02 6.29619E+00-1.54207E-09-9.58607E-09
 -1       251-8.87533E+05 1.66074E+04-3.88150E+04-1.44101E+04 1.29702E-09-5.39876E-08
 -1       252-9.02677E+05-1.91971E+04-2.70783E+04 4.99415E+04 9.71099E-09 3.14940E-08
 -1       253-8.95796E+05 2.56123E+03-1.03741E+04-1.06917E+04-1.35358E-08 5.69908E-08
 -1       254-8.89538E+05-3.06004E+03-4.87532E+03 3.61536E+04 2.07206E-08 1.58286E-07
 -1       255-9.00104E+05 9.87850E+01-3.50612E+03-6.24782E+02-4.10000E-09 1.68252E-07
 -1       256-8.84063E+05-2.98024E+02 9.81186E+02 1.30163E+04 1.19427E-08 3.18108E-07
 -1       257-9.00828E+05-5.27926E+02-1.35213E+03 1.24356E+04-2.51657E-09 1.54183E-07
 -1       258-8.86477E+05 8.38179E+02 2.58675E+03-1.16789E+04-1.11040E-08-1.29033E-07
 -1       259-8.97904E+05-8.71426E+02 1.34415E+03 2.40677E+04-1.28921E-09-2.12348E-07
 -1       260-8.92502E+05 2.79682E+03 5.44387E+03-2.96300E+04-3.23905E-09-3.79041E-08
 -1       261-8.95406E+05-2.02070E+03 8.47252E+03 3.04009E+04 1.52825E-08-1.22017E-07
 -1       262-8.91150E+05 1.14489E+04 2.10499E+04-3.49025E+04-3.98636E-09-1.33604E-07
 -1       263-8.99498E+05-9.30325E+03 3.33555E+04 2.93487E+04-1.19621E-08 2.63071E-07
 -1       264-8.61377E+05 6.55428E+04 9.23263E+04-2.56416E+04 4.55472E-08 2.30662E-07
 -1       265-9.24700E+05-5.62390E+04 1.28611E+05 2.11290E+04 1.19200E-08 6.34318E-08
 -1       266-1.72415E+04-8.06295E+03 4.04498E+04-1.88939E+01 1.63709E-10 1.09719E-08
 -1       267 1.99874E+04 9.39629E+03 2.85912E+04 2.18016E+01 1.97815E-10 1.03660E-07
 -1       268-2.68029E+03-1.33084E+03 1.06271E+04-2.77780E+00-6.32099E-11-1.16112E-07
 -1       269 3.16462E+03 1.59266E+03 6.90756E+03 3.23583E+00-9.32232E-12 1.52081E-08
 -1       270-4.75012E+02-2.61689E+02 3.33437E+03-4.39120E-01 1.75078E-11 1.13795E-07
 -1       271-1.52145E+06-1.92556E+05-1.14380E+05-5.91236E+05-1.43482E-08 1.88978E-07
 -1       272-1.52430E+06-3.03750E+05-7.21221E+04-6.24196E+05 8.38008E-09-2.76268E-08
 -1       273-1.54539E+06-2.17337E+05-2.76305E+04-5.83254E+05-1.38680E-08-1.33939E-07
 -1       274-1.49667E+06-2.74019E+05-1.45399E+04-6.38934E+05 3.09592E-08-3.41506E-08
 -1       275-1.55094E+06-2.17208E+05-6.82400E+03-5.79579E+05 5.73564E-08-1.30342E-07
 -1       276-1.49075E+06-2.74733E+05-2.97340E+03-6.47112E+05-7.41056E-08-9.26411E-08
 -1       277-1.55369E+06-2.14741E+05-1.87510E+03-5.76913E+05-1.65692E-08-5.89398E-08
 -1       278-1.48836E+06-2.77891E+05-7.72551E+02-6.53138E+05 7.78600E-08-8.23616E-08
 -1       279-1.55545E+06-2.12682E+05-9.10714E+02-5.75024E+05-3.64071E-08-6.07388E-08
 -1       280-1.48719E+06-2.80329E+05-1.10715E+03-6.57153E+05 6.31785E-08-1.04271E-07
 -1       281-1.55639E+06-2.11338E+05-2.04097E+03-5.73938E+05 1.28512E-09 1.29448E-07
 -1       282-1.48756E+06-2.82711E+05-4.75703E+03-6.58864E+05-3.92440E-08 3.10202E-07
 -1       283-1.55585E+06-2.09944E+05-8.46249E+03-5.73778E+05 3.07888E-08 2.68306E-07
 -1       284-1.49509E+06-2.93948E+05-2.30620E+04-6.56697E+05-8.31591E-09-5.37652E-08
 -1       285-1.54889E+06-2.01342E+05-3.59576E+04-5.75605E+05-8.56062E-09-2.97765E-07
 -1       301-4.50341E+03-6.40289E+05 1.67413E+05-1.12189E+06 1.15251E-08 1.44944E-07
 -1       302-5.63421E+03-5.94121E+05 1.00763E+05-1.63786E+06-1.51849E-08-4.99131E-08
 -1       303-1.96741E+04-6.32115E+05 5.71307E+04-1.11885E+06 1.50394E-08-4.32701E-08
 -1       304-2.15711E+04-6.00605E+05 5.78450E+04-1.63722E+06-2.22644E-09-6.76810E-08
 -1       305-2.37574E+04-6.21101E+05 7.15770E+04-1.12195E+06 6.78665E-09-1.53450E-07
 -1       306-3.01324E+07-6.22221E+06-8.61036E+06-5.36567E+05-1.01980E-07 5.39003E-08
 -1       307 2.54028E+07 3.25365E+06 5.51938E+06-1.51841E+07-7.84930E-07-1.24797E-07
 -1       308-6.99482E+06-1.03141E+06-4.60123E+05 5.20942E+06-1.43948E-07 3.10843E-07
 -1       309-3.27524E+06 8.74864E+06 2.28245E+06-2.06661E+07 6.05385E-07 2.98969E-08
 -1       310-1.25302E+07-1.93686E+06-2.02370E+06 5.21948E+06-2.03727E-07 1.52650E-08
 -1       311 3.83182E+07 2.23939E+04 7.26394E+06-8.85737E+06 3.11527E-07 2.37487E-08
 -1       312-3.19117E+07-6.75382E+06-8.52663E+06-5.00483E+06 1.43657E-07-7.77072E-09
 -1       313 4.54604E+07 1.49437E+07 1.06628E+07 2.37400E+07-1.27824E-07-2.38768E-07
 -1       314-1.72606E+07-1.77553E+07-7.52517E+06-1.25353E+07 2.03378E-07-3.08501E-08
 -1       315-1.78336E+06 2.97081E+07 5.67259E+06 1.05953E+07-1.41285E-07 1.00699E-07
 -1       316 1.38357E+06-9.85017E+06-4.45727E+05-2.54824E+06-1.16562E-06-3.12866E-07
 -1       317-1.71317E+07 2.24186E+07 2.23791E+06-8.79649E+06 6.43988E-07-9.54882E-07
 -1       318-1.06756E+06-1.27643E+07-2.03471E+06-4.24044E+06-9.59379E-07 1.50409E-07
 -1       319 7.18517E+06 3.19184E+07 7.02794E+06 1.65926E+07-7.76563E-08 2.98023E-07
 -1       320-2.25807E+07-1.76223E+07-9.84428E+06-1.28039E+07 2.06172E-07-5.53555E-08
 -1       336-7.35597E+02-1.70168E+06-1.39051E+04 8.96069E+03-2.62935E-08-2.71830E-08
 -1       337-5.42443E+03-1.70125E+06-1.81468E+04-2.17596E+04-4.91464E-08-2.07820E-08
 -1       338 2.87718E+02-1.70116E+06-2.85715E+04 1.25483E+04-3.50001E-08-1.04192E-08
 -1       339-3.03157E+04-1.71856E+06-6.45847E+04-2.87854E+04-6.41239E-08 1.49885E-08
 -1       340 1.99859E+04-1.68656E+06-1.01729E+05 1.58556E+04-4.20041E-08 3.30074E-08
 -1       406-4.85473E+01 3.86296E+05 6.37797E+02 3.31110E+00-1.84889E-09 8.29641E-09
 -1       407 1.53912E+02 3.86429E+05 1.36295E+03 2.31995E+01-5.33070E-10 1.60189E-08
 -1       408 6.29228E+02 3.86197E+05 2.71765E+03-2.68302E+01-2.38560E-09 1.93650E-08
 -1       409 2.87863E+03 3.87297E+05 6.12527E+03 2.86473E+02-3.05590E-10-2.43017E-09
 -1       410 8.39612E+03 3.85414E+05 1.25015E+04-2.76093E+02-2.89947E-09 1.52686E-08
 -1       521-3.16674E+07-7.67673E+06-1.00549E+07-1.44665E+05-8.19564E-08 3.15777E-07
 -1       522 2.62536E+07 4.27165E+06 5.62407E+06-1.86841E+07-5.27973E-07-1.21858E-07
 -1       523-7.57125E+06-1.34309E+06-4.51829E+05 5.65560E+06 1.31549E-07-3.37022E-07
 -1       524-6.77709E+06 1.17980E+07 2.46753E+06-2.37193E+07 9.89909E-07-6.69628E-07
 -1       525-1.33274E+07-2.56817E+06-2.22364E+06 5.66812E+06 4.83822E-07-1.72178E-07
 -1       526 4.18044E+07-6.74931E+04 7.62050E+06-1.15045E+07 4.86150E-07 2.00991E-07
 -1       527-3.37468E+07-8.44719E+06-9.82388E+06-4.86490E+06 1.15018E-07-1.56491E-07
 -1       528 4.96200E+07 1.66380E+07 1.11170E+07 2.69810E+07-2.53145E-07-1.02125E-07
 -1       529-1.81995E+07-1.99542E+07-8.62398E+06-1.25623E+07 1.75496E-07-1.94064E-07
 -1       530-4.26557E+06 3.44836E+07 6.00031E+06 1.00616E+07 3.22907E-08 4.04427E-07
 -1       531 1.38076E+06-1.09214E+07-4.18899E+05-2.49915E+06-8.03513E-07 1.90397E-07
 -1       532-1.96556E+07 2.44238E+07 2.44420E+06-1.30779E+07 5.54413E-07-6.94054E-07
 -1       533-1.11180E+06-1.39097E+07-2.16476E+06-4.05092E+06-1.65834E-07-9.89006E-07
 -1       534 5.16948E+06 3.70221E+07 7.31080E+06 1.71582E+07-5.84987E-09 7.63626E-07
 -1       535-2.37534E+07-2.00055E+07-1.12812E+07-1.28678E+07 8.70787E-08 4.64206E-07
 -1       536-7.06034E+05-4.69050E+04-4.77317E+04-5.46651E+04-3.97176E-09 5.39831E-08
 -1       537-5.49777E+04 4.48749E+04 8.41766E+04 1.23812E+05-1.09828E-07 1.27486E-07
 -1       538-3.94433E+05 3.31419E+03 3.65765E+03-7.21864E+04 3.53922E-08 1.07642E-07
 -1       539-2.69111E+05 2.88398E+03 2.49716E+04 1.38704E+05 1.43327E-07 1.24024E-07
 -1       540-4.97278E+05-4.30254E+02-2.12819E+04-7.00916E+04-1.07320E-09 1.01064E-07
 -1       541 1.46388E+05 1.69678E+04 1.06348E+05 9.79031E+04 1.02118E-08 6.60075E-08
 -1       542-7.98736E+05-2.01270E+04-8.41911E+04-3.05111E+04 5.86879E-08 3.78979E-08
 -1       543 4.04980E+05 2.73144E+04 1.57903E+05-1.33538E+04-1.82445E-08-5.96219E-09
 -1       544-7.48934E+05-1.65297E+04-7.48023E+04 4.04963E+04 6.57928E-09-1.93795E-08
 -1       545 2.87755E+04 9.47779E+03 7.97734E+04-1.13592E+05 3.31324E-08-7.56891E-08
 -1       546-4.32635E+05 6.09458E+03-1.22265E+04 6.93806E+04 6.06142E-08-1.00294E-07
 -1       547-2.87188E+05-4.66013E+03 1.05734E+04-1.41552E+05-9.78146E-08-1.09815E-07
 -1       548-4.41465E+05 4.72182E+03-2.38824E+04 6.91474E+04-1.09712E-07-9.58362E-08
 -1       549 4.79358E+04 1.60423E+04 6.04576E+04-1.11453E+05-6.53255E-08-6.64377E-08
 -1       550-7.58792E+05-2.21121E+04-1.28956E+05 3.85660E+04 4.96220E-09-4.12674E-08
 -1       551 4.08370E+04-7.53865E+05-1.56923E+04-1.24768E+06-1.01252E-07-4.07454E-09
 -1       552 9.33027E+04-7.98812E+05 1.00571E+04-1.77907E+06-7.40838E-08 3.62561E-08
 -1       553 7.17729E+04-7.95224E+05 3.21602E+04-1.24104E+06-1.21392E-07 2.92493E-08
 -1       554 1.32091E+05-8.14645E+05 8.12476E+04-1.78102E+06-7.97154E-08 9.54424E-09
 -1       555 1.01532E+05-8.18860E+05 1.48345E+05-1.24087E+06-1.22680E-07-1.55869E-08
 -1       556 2.23529E+05-3.83356E+05 2.62154E+04-4.07086E+05-1.74041E-08 3.75439E-09
 -1       557 3.54113E+05-4.87678E+05 1.63860E+04-5.27389E+05 6.08270E-09 2.08820E-09
 -1       558 2.05349E+05-3.76245E+05 2.42845E+03-4.11461E+05-1.89466E-08-7.74162E-09
 -1       559 3.29066E+05-4.87812E+05 2.49056E+03-5.47821E+05 2.42289E-08-7.38510E-09
 -1       560 1.90061E+05-3.66658E+05-1.47962E+03-4.22477E+05 3.34694E-09 1.72440E-08
 -1       561 3.09850E+05-4.80126E+05 1.41459E+02-5.60921E+05-7.31961E-09 2.62535E-08
 -1       562 1.77972E+05-3.59146E+05-1.32010E+03-4.31231E+05 1.74623E-09 2.07619E-08
 -1       563 2.95489E+05-4.73865E+05-3.41400E+01-5.70301E+05 1.97906E-09-4.75120E-09
 -1       564 1.69344E+05-3.53770E+05-5.98758E+02-4.37346E+05 3.55067E-09-1.18362E-08
 -1       565 2.85964E+05-4.69716E+05 2.53146E+01-5.76387E+05-6.40284E-10-1.73341E-08
 -1       566 1.64300E+05-3.50579E+05-2.57853E+02-4.40874E+05-1.37297E-08-2.09366E-09
 -1       567 2.81334E+05-4.67702E+05-3.58146E+02-5.79199E+05 5.82077E-09 2.91475E-08
 -1       568 1.62930E+05-3.49740E+05-1.11666E+03-4.41928E+05-3.94266E-09 1.84118E-08
 -1       569 2.80216E+05-4.67623E+05-2.82174E+03-5.77771E+05-4.38013E-09 1.08230E-08
 -1       570 1.66325E+05-3.52965E+05-6.17379E+03-4.40913E+05 5.95901E-09 2.57842E-09
 -1       571 2.94234E+05 1.06286E+04 1.53376E+04-9.53648E+04 6.11999E-09 1.01545E-08
 -1       572 2.96474E+05 3.98240E+03 7.52309E+03-1.04814E+05 6.71025E-09-3.51611E-09
 -1       573 2.95125E+05 1.23606E+03 3.34437E+03-9.51843E+04-1.30785E-09-2.49593E-08
 -1       574 2.95343E+05 7.24285E+02 1.67846E+03-1.05043E+05 2.80852E-09-7.94807E-09
 -1       575 2.95220E+05 4.46723E+02 7.93162E+02-9.51598E+04-5.11869E-09-1.38307E-08
 -1       576 2.95203E+05 4.61556E+02 4.06524E+02-1.05073E+05-1.25531E-08 6.83303E-09
 -1       577 2.95260E+05 3.91672E+02 2.03600E+02-9.51565E+04-6.91398E-09-8.67203E-09
 -1       578 2.95234E+05 4.24370E+02 1.18631E+02-1.05077E+05-5.20640E-09 7.22684E-09
 -1       579 2.95333E+05 3.54754E+02 8.32913E+01-9.51561E+04 8.19819E-09 3.79259E-09
 -1       580 2.95337E+05 3.72471E+02 9.91514E+01-1.05072E+05-5.42059E-09-5.89989E-09
 -1       581 2.95448E+05 2.95049E+02 1.52416E+02-9.51619E+04 5.52427E-09 2.40834E-09
 -1       582 2.95518E+05 3.36471E+02 3.10769E+02-1.05011E+05 3.92902E-10-1.32368E-08
 -1       583 2.95589E+05 3.45975E+02 5.98108E+02-9.52185E+04 2.12458E-09 6.29188E-09
 -1       584 2.95919E+05 8.28760E+02 1.35275E+03-1.04529E+05 7.47787E-09 1.09872E-08
 -1       585 2.95600E+05 1.96305E+03 2.73877E+03-9.56425E+04-1.71894E-09-1.66619E-09
 -1       586-3.48560E+03 1.16412E+05-3.00635E+03-2.50988E+05-5.45697E-09 1.12730E-08
 -1       587-1.36071E+03 1.16150E+05 7.27645E+02-2.76231E+05-7.68159E-09-1.76124E-09
 -1       588 3.92719E+02 1.15965E+05 4.74025E+03-2.50850E+05-4.87307E-09 6.11635E-09
 -1       589 5.08245E+03 1.18437E+05 1.23350E+04-2.75997E+05-7.05768E-09 5.36784E-09
 -1       590 1.66078E+04 1.14632E+05 2.58909E+04-2.51282E+05-6.07633E-09 2.64299E-09
 -1       591-7.59359E+04-1.62052E+04-2.26720E+04-3.24256E+04-6.57565E-10 1.83145E-08
 -1       592-8.00213E+04-1.98150E+04-1.22810E+04-3.61081E+04 3.89593E-09 7.21388E-09
 -1       593-7.82040E+04-1.45594E+04-5.11196E+03-3.40873E+04-3.62000E-09 6.21162E-09
 -1       594-7.68904E+04-1.64888E+04-2.54946E+03-3.62274E+04 5.50244E-11 2.62062E-08
 -1       595-7.83769E+04-1.45539E+04-1.17047E+03-3.41628E+04-3.15963E-09 1.94792E-08
 -1       596-7.66761E+04-1.63367E+04-5.94814E+02-3.62020E+04-1.36195E-09 1.26671E-08
 -1       597-7.83986E+04-1.45694E+04-3.23481E+02-3.41657E+04-1.03855E-08 1.07090E-08
 -1       598-7.66550E+04-1.63306E+04-2.59287E+02-3.61948E+04 1.21224E-09-4.87802E-09
 -1       599-7.83974E+04-1.45699E+04-3.30269E+02-3.41653E+04 7.98491E-09 5.41411E-09
 -1       600-7.66761E+04-1.63372E+04-6.12783E+02-3.61998E+04 6.75368E-09-2.24834E-08
 -1       601-7.83725E+04-1.45553E+04-1.20850E+03-3.41618E+04 3.75735E-09-1.09292E-08
 -1       602-7.68974E+04-1.64932E+04-2.63360E+03-3.62222E+04-3.00088E-09-1.47161E-08
 -1       603-7.81911E+04-1.45639E+04-5.28136E+03-3.40846E+04 1.43473E-09-5.54337E-09
 -1       604-8.01494E+04-1.99102E+04-1.26871E+04-3.60743E+04-7.29983E-10 5.74460E-09
 -1       605-7.58281E+04-1.62817E+04-2.34219E+04-3.23871E+04 2.72593E-09-5.68980E-09
 -1       606 2.65491E+04-1.44018E+04-2.58206E+04 2.37642E+04 5.47243E-09 8.81391E-09
 -1       607 2.21371E+04-4.70238E+03-1.28586E+04 2.67062E+04-1.26965E-09-2.68665E-09
 -1       608 2.46522E+04-8.47029E+02-5.75630E+03 2.35973E+04-5.54610E-09-4.04111E-09
 -1       609 2.41703E+04-2.89239E+02-2.90795E+03 2.69182E+04 4.74211E-09 1.66001E-08
 -1       610 2.44381E+04-3.99402E+01-1.38737E+03 2.35774E+04 5.06407E-09 1.15162E-08
 -1       611 2.43625E+04-4.03053E+01-6.99513E+02 2.69411E+04 1.01554E-08-5.53155E-09
 -1       612 2.43913E+04-2.64657E+01-3.32496E+02 2.35754E+04 1.78989E-09-4.17481E-09
 -1       613 2.43747E+04-3.64753E+01-1.48962E+02 2.69438E+04 3.11411E-09-1.18514E-08
 -1       614 2.43694E+04-3.31647E+01-3.48029E+01 2.35747E+04-1.13414E-09 1.71440E-10
 -1       615 2.43698E+04-3.51981E+01 6.27105E+01 2.69443E+04-1.58479E-09 1.30535E-08
 -1       616 2.43522E+04-3.02077E+01 1.87800E+02 2.35750E+04 3.86171E-09 5.27962E-09
 -1       617 2.43926E+04 4.65432E+00 4.28357E+02 2.69438E+04 2.90811E-10-1.17097E-08
 -1       618 2.43152E+04 9.31504E+01 8.63391E+02 2.35753E+04-5.42514E-10-1.23769E-08
 -1       619 2.46976E+04 6.72126E+02 1.93878E+03 2.69432E+04-5.46834E-11-1.95093E-08
 -1       620 2.40285E+04 2.14040E+03 3.89690E+03 2.35769E+04-2.85581E-10-2.41043E-08
 -1       621 5.19280E+02 3.03199E+05 3.95199E+03 4.16247E+04 9.54969E-10 1.65801E-09
 -1       622 6.87799E+02 3.04112E+05 3.49501E+03 6.04309E+04 1.53796E-09 1.00226E-08
 -1       623 1.44347E+02 3.03398E+05 4.18394E+03 4.14360E+04 1.28216E-09 3.22325E-09
 -1       624 2.14479E+03 3.05333E+05 8.09810E+03 6.06169E+04 1.12959E-09-1.63627E-08
 -1       625 2.09506E+03 3.01792E+05 1.41449E+04 4.14325E+04 1.08867E-09-2.77737E-09
 -1       626 2.61607E+05 6.13561E+04 5.07860E+03 1.26835E+05-1.04274E-09 3.79532E-09
 -1       627 2.59300E+05 6.27491E+04 2.44734E+03 1.31081E+05 4.70800E-09 7.48048E-09
 -1       628 2.61734E+05 5.90328E+04 1.03508E+03 1.27699E+05-6.78665E-09-1.45621E-08
 -1       629 2.58671E+05 6.20740E+04 5.06640E+02 1.31319E+05-6.68751E-09 6.29960E-09
 -1       630 2.61748E+05 5.89205E+04 2.35195E+02 1.27735E+05-6.03768E-09-1.51936E-08
 -1       631 2.58605E+05 6.20482E+04 1.26827E+02 1.31321E+05 1.06720E-08 3.28231E-09
 -1       632 2.61745E+05 5.89242E+04 8.39256E+01 1.27731E+05 8.24957E-09-2.12251E-08
 -1       633 2.58597E+05 6.20498E+04 9.42117E+01 1.31318E+05 7.06086E-09-1.84070E-08
 -1       634 2.61741E+05 5.89213E+04 1.52889E+02 1.27731E+05-2.09297E-09 3.30942E-09
 -1       635 2.58612E+05 6.20480E+04 3.09765E+02 1.31323E+05-1.28334E-08-2.63844E-09
 -1       636 2.61731E+05 5.89154E+04 6.25775E+02 1.27731E+05-6.67933E-09 5.58566E-09
 -1       637 2.58747E+05 6.21453E+04 1.37606E+03 1.31323E+05-3.22234E-09 1.36276E-08
 -1       638 2.61683E+05 5.92193E+04 2.82732E+03 1.27593E+05 5.09817E-09-1.82599E-08
 -1       639 2.60232E+05 6.42110E+04 6.68962E+03 1.30886E+05 6.06155E-09 4.45402E-09
 -1       640 2.61477E+05 6.53874E+04 1.38821E+04 1.24994E+05 7.50379E-09-1.52386E-09
 -1       656 6.67339E+04-1.70821E+06-1.61091E+05-2.54827E+03-4.36557E-10-4.03787E-09
 -1       657-8.82846E+04-1.78101E+06-1.33457E+05 5.13156E+03-2.91948E-10 2.99811E-09
 -1       658 2.12738E+04-1.72888E+06-8.21964E+04-4.63586E+03-3.42652E-10 9.30825E-10
 -1       659-9.54757E+04-1.78442E+06-1.42908E+05 6.87185E+03-1.54250E-09-3.56864E-08
 -1       660 7.39090E+04-1.70481E+06-1.77339E+05-4.28854E+03-1.64437E-09-1.41706E-08
 -1       661 1.57580E+05 1.64776E+04 1.66511E+04 6.16092E+04-5.98448E-10-3.69255E-09
 -1       662 1.67009E+05 2.87938E+04 1.12217E+04 5.78562E+04-3.05818E-09-1.26246E-08
 -1       663 1.60850E+05 2.18196E+04 3.92463E+03 6.06600E+04-1.02773E-10 1.33355E-09
 -1       664 1.63217E+05 2.25468E+04 2.34778E+03 5.90157E+04-5.39401E-09-2.99588E-09
 -1       665 1.61347E+05 2.25491E+04 9.26183E+02 6.05151E+04 1.89664E-09 3.29806E-10
 -1       666 1.62629E+05 2.17125E+04 5.42185E+02 5.92046E+04 8.81741E-09 1.32372E-08
 -1       667 1.61434E+05 2.26321E+04 2.88221E+02 6.04788E+04 9.14127E-10-1.95337E-08
 -1       668 1.62534E+05 2.16530E+04 2.94223E+02 5.92574E+04-5.12767E-09-3.78288E-08
 -1       669 1.61442E+05 2.26070E+04 3.98787E+02 6.04627E+04-3.19426E-09-1.96997E-09
 -1       670 1.62631E+05 2.18695E+04 8.68781E+02 5.92602E+04-8.65609E-09 1.03655E-09
 -1       671 1.61337E+05 2.24200E+04 1.54273E+03 6.04740E+04 7.92923E-10-1.84650E-08
 -1       672 1.63530E+05 2.33703E+04 3.94715E+03 5.90421E+04 9.94908E-09-2.01193E-08
 -1       673 1.60547E+05 2.11443E+04 6.61484E+03 6.06662E+04-3.81988E-11 2.36982E-08
 -1       674 1.69826E+05 3.39976E+04 1.89171E+04 5.71924E+04-6.25403E-09-1.00492E-08
 -1       675 1.55081E+05 1.20904E+04 2.80796E+04 6.22122E+04-9.80890E-10-1.50667E-08
 -1       676 2.41083E+01-2.96013E+05-1.11333E+03-1.37194E+02 3.98990E-09 1.41286E-09
 -1       677-2.94505E+02-2.96282E+05-2.03758E+03 2.74166E+02 1.07960E-08 2.58461E-09
 -1       678 1.97527E+02-2.95821E+05-3.60194E+03-1.36883E+02 1.54682E-09 5.76598E-09
 -1       679-3.60200E+03-2.98457E+05-8.55671E+03 2.72981E+02 8.36314E-09-7.11569E-09
 -1       680 2.15060E+03-2.93840E+05-1.37905E+04-1.34497E+02 2.81034E-10-8.81080E-09
 -1       771-3.06374E+06-7.47224E+05-1.65450E+05-1.46631E+06-4.01342E-08-2.72994E-08
 -1       772-2.98662E+06-8.35986E+05-8.52955E+04-1.56894E+06-3.51574E-08 9.95715E-09
 -1       773-3.09518E+06-7.22708E+05-4.34924E+04-1.48081E+06-2.67755E-08 8.65839E-09
 -1       774-2.97713E+06-8.17528E+05-1.94017E+04-1.59468E+06 1.59780E-08-1.36788E-09
 -1       775-3.11161E+06-7.11180E+05-1.45200E+04-1.48785E+06-9.28412E-09-8.29459E-10
 -1       776-2.98946E+06-8.14502E+05-5.42868E+03-1.61416E+06-4.45289E-09 6.31553E-09
 -1       777-3.12586E+06-7.00889E+05-6.41804E+03-1.49406E+06-8.14907E-10 3.54339E-09
 -1       778-3.00233E+06-8.11687E+05-1.81407E+03-1.63090E+06-1.07830E-08 8.09086E-09
 -1       779-3.13812E+06-6.91897E+05-3.20805E+03-1.49937E+06-1.84664E-08-1.06193E-08
 -1       780-3.01367E+06-8.09000E+05-5.31793E+02-1.64453E+06-6.28643E-09 4.55657E-09
 -1       781-3.14787E+06-6.84648E+05-1.24634E+03-1.50352E+06-2.80997E-08-8.36735E-11
 -1       782-3.02241E+06-8.06719E+05 4.49616E+02-1.65459E+06-3.52011E-08-6.98037E-09
 -1       783-3.15473E+06-6.79611E+05 6.99937E+02-1.50643E+06-5.95901E-09-1.52486E-08
 -1       784-3.02725E+06-8.04438E+05 2.90052E+03-1.66081E+06-1.89757E-08-3.73893E-09
 -1       785-3.15879E+06-6.76606E+05 5.12045E+03-1.50827E+06-3.65326E-08 9.44783E-09
 -1       786 1.26599E+05-9.89862E+03 2.29015E+04-3.28658E+02 1.16176E-09 9.18226E-09
 -1       787 1.36531E+05 1.14604E+04 1.62019E+04-1.42249E+02 5.13689E-09 1.26126E-08
 -1       788 1.30428E+05-1.55114E+03 5.92519E+03-2.93227E+02 2.76386E-09 2.37810E-08
 -1       789 1.32070E+05 1.79543E+03 3.71970E+03-1.96459E+02-1.98648E-09-6.09435E-09
 -1       790 1.31061E+05-2.41513E+02 1.50627E+03-2.74466E+02-4.85588E-09 9.59443E-09
 -1       791 1.31330E+05 2.79515E+02 8.70401E+02-2.28552E+02-4.65498E-09-1.34675E-08
 -1       792 1.31168E+05-3.63547E+01 3.69685E+02-2.61137E+02-3.83078E-09-2.35292E-09
 -1       793 1.31203E+05 3.88527E+01 1.86140E+02-2.53686E+02 6.24934E-10-1.03709E-08
 -1       794 1.31189E+05-1.00229E+00 5.20844E+01-2.49332E+02 5.11103E-09-2.85530E-09
 -1       795 1.31166E+05-2.46524E+01-4.86566E+01-2.78442E+02-4.10134E-09 6.49404E-09
 -1       796 1.31204E+05 2.71150E+01-1.47879E+02-2.36380E+02 3.91758E-09-2.07687E-09
 -1       797 1.31079E+05-2.02532E+02-4.10686E+02-3.08354E+02 4.83529E-09 9.94845E-09
 -1       798 1.31276E+05 1.76744E+02-6.68269E+02-2.19420E+02 2.50079E-09-6.54441E-09
 -1       799 1.30571E+05-1.30247E+03-1.83962E+03-3.50496E+02 6.14374E-09 1.12623E-08
 -1       800 1.31712E+05 1.12615E+03-2.60378E+03-1.94240E+02 4.85461E-11 2.05933E-08
 -1       801-1.70886E+05-9.99234E+06-1.39247E+06 1.41415E+06 8.96980E-08-4.44779E-08
 -1       802 7.37419E+05 5.94201E+06 2.17968E+06-1.74548E+06 2.57249E-07-3.98686E-08
 -1       803-5.36193E+05-1.42582E+07-1.88902E+06 8.97202E+05 7.69687E-08 2.18170E-08
 -1       804 2.87039E+05 2.39044E+06 1.53612E+06 6.76925E+05-1.19820E-07-1.05430E-07
 -1       805 1.89140E+05-6.45488E+06-2.86100E+05-1.00259E+06-5.00731E-08-6.93817E-08
 -1       806-3.09231E+05-6.00319E+04-2.28702E+04-1.22826E+05-8.86666E-09 1.13014E-08
 -1       807-3.10994E+05-5.63355E+04-1.12359E+04-1.28418E+05 5.69526E-09 1.74014E-08
 -1       808-3.09860E+05-5.17885E+04-4.76661E+03-1.26721E+05-6.87714E-09 7.36668E-09
 -1       809-3.08630E+05-5.31796E+04-2.33076E+03-1.28695E+05-1.56642E-08 1.48725E-08
 -1       810-3.09955E+05-5.15015E+04-1.06832E+03-1.26893E+05 8.33097E-10 2.79726E-08
 -1       811-3.08447E+05-5.30530E+04-5.31316E+02-1.28659E+05-1.70257E-09 1.91990E-08
 -1       812-3.09969E+05-5.15263E+04-2.68836E+02-1.26892E+05-6.70843E-09-1.40381E-09
 -1       813-3.08422E+05-5.30552E+04-1.74947E+02-1.28641E+05-9.16225E-09-1.35378E-08
 -1       814-3.09962E+05-5.15361E+04-1.73738E+02-1.26888E+05-7.88532E-09-7.19683E-09
 -1       815-3.08425E+05-5.30576E+04-2.80263E+02-1.28633E+05 1.48702E-10-4.22733E-09
 -1       816-3.09940E+05-5.15353E+04-5.31420E+02-1.26884E+05 1.13150E-08 2.95604E-08
 -1       817-3.08515E+05-5.31083E+04-1.14057E+03-1.28621E+05-1.49676E-08 3.75328E-08
 -1       818-3.09871E+05-5.16966E+04-2.32644E+03-1.26808E+05-8.35462E-09-3.42834E-09
 -1       819-3.09789E+05-5.45132E+04-5.47388E+03-1.28318E+05 1.41108E-09 6.27551E-09
 -1       820-3.09431E+05-5.58325E+04-1.11414E+04-1.25042E+05-8.14907E-10 9.20431E-09
 -1       821-3.79643E+05 2.09137E+04-4.87056E+04 2.17109E+03 1.38414E-08 1.81535E-09
 -1       822-3.99300E+05-2.42287E+04-3.42119E+04-4.60388E+03 5.07928E-09 1.79730E-08
 -1       823-3.87082E+05 3.29807E+03-1.25782E+04 3.53624E+03-1.29220E-08 2.52808E-08
 -1       824-3.90304E+05-3.80274E+03-7.87039E+03-5.56722E+03 2.37748E-10 2.00945E-08
 -1       825-3.88648E+05 5.12741E+02-3.29905E+03 3.13456E+03 2.19736E-08 9.01241E-09
 -1       826-3.87814E+05-5.66552E+02-1.73507E+03-3.23085E+03 2.75934E-08 1.84923E-09
 -1       827-3.89546E+05 4.41647E+01-1.20368E+03 1.19971E+03 1.20151E-08 4.44214E-09
 -1       828-3.87069E+05-1.28559E+02-5.66623E+02 1.10242E+03-3.73632E-10 7.41763E-09
 -1       829-3.89378E+05 6.38717E+01-1.19073E+03-1.19875E+03 1.25414E-09 7.55290E-09
 -1       830-3.88177E+05-6.22171E+02-1.87521E+03 5.02659E+03-6.55611E-10-1.44496E-08
 -1       831-3.88462E+05 5.56544E+02-3.37737E+03-2.72447E+03-7.98491E-09-9.74069E-10
 -1       832-3.90383E+05-3.96775E+03-8.16828E+03 6.35977E+03-3.46843E-09 2.01544E-09
 -1       833-3.87190E+05 3.41987E+03-1.30757E+04-2.53198E+03-2.26555E-09 1.18762E-08
 -1       834-3.99338E+05-2.51267E+04-3.54102E+04 4.32589E+03-2.70785E-09-5.51563E-09
 -1       835-3.79488E+05 2.16815E+04-5.05470E+04-6.90504E+02 4.97226E-09 8.89486E-09
 -1       836-1.42166E+03 3.71940E+05 2.30199E+04-1.63570E+04-7.01675E-09 1.65332E-08
 -1       837 4.90612E+03 3.79150E+05 1.94664E+04-3.34226E+04-7.47974E-09 1.75169E-08
 -1       838-5.60464E+02 3.73963E+05 1.98159E+04-1.62849E+04-6.20776E-09 2.55313E-08
 -1       839 1.24627E+04 3.84777E+05 3.74680E+04-3.34751E+04-6.89579E-09 3.30622E-08
 -1       840-3.85363E+03 3.66252E+05 5.97399E+04-1.63103E+04-6.24641E-09 3.59496E-09
 -1       856-5.11891E+04 8.00077E+03-2.10838E+04-3.98657E+02 4.72960E-09 2.22235E-08
 -1       857-5.98751E+04-9.40068E+03-1.45139E+04 5.63371E+03 3.39060E-09 3.33057E-08
 -1       858-5.46290E+04 1.12203E+03-5.47071E+03-4.22466E+02 2.46206E-09 3.30670E-09
 -1       859-5.59275E+04-1.32004E+03-3.30126E+03 5.66910E+03-3.89889E-09 1.63618E-09
 -1       860-5.51429E+04 1.57135E+02-1.38345E+03-4.33774E+02-2.27837E-09-2.20388E-09
 -1       861-5.53364E+04-1.87580E+02-7.60830E+02 5.68450E+03-7.70477E-10-6.52012E-09
 -1       862-5.52233E+04 2.12699E+01-3.15799E+02-4.37842E+02-1.31759E-09 1.24942E-08
 -1       863-5.52378E+04-2.16364E+01-1.13973E+02 5.68687E+03-3.96368E-09 1.16592E-08
 -1       864-5.52420E+04-5.03012E+00 4.94549E+01-4.36150E+02-3.18025E-09 2.70335E-09
 -1       865-5.51815E+04 6.06686E+01 2.59811E+02 5.67716E+03-3.63461E-09 3.70377E-09
 -1       866-5.52773E+04-6.10333E+01 5.22375E+02-4.28133E+02 8.47422E-10 4.58820E-09
 -1       867-5.49362E+04 5.04090E+02 1.28497E+03 5.65540E+03-1.96277E-09-1.57939E-08
 -1       868-5.54824E+04-4.40396E+02 2.13507E+03-4.14385E+02-1.90789E-09-5.05406E-09
 -1       869-5.33712E+04 3.66551E+03 5.68464E+03 5.61956E+03 2.02687E-09-2.40357E-08
 -1       870-5.68345E+04-3.13652E+03 8.24978E+03-3.92188E+02-4.55896E-09-1.21281E-09
 -1       871-5.53640E+03-2.16757E+04-1.95560E+04 1.30844E+05-4.44743E-09 1.27102E-08
 -1       872-1.98893E+03-2.62230E+04-8.19400E+03 1.69660E+05-9.46875E-09 2.79906E-08
 -1       873 4.05981E+02-2.40229E+04 5.78314E+02 1.30557E+05-4.02451E-09 6.37385E-09
 -1       874 3.30915E+03-2.16109E+04 9.78070E+03 1.69689E+05-1.22618E-08 1.73548E-08
 -1       875 6.85155E+03-2.63536E+04 2.20751E+04 1.30797E+05-5.35147E-09 1.78425E-08
 -1       876 2.94186E+05 4.95765E+04 1.51164E+04 1.18051E+05 7.79323E-09 8.84302E-09
 -1       877 2.95186E+05 5.27593E+04 8.07275E+03 1.22386E+05 9.47011E-09-5.32737E-10
 -1       878 2.95599E+05 4.79019E+04 3.38208E+03 1.19289E+05-6.36919E-09 6.54154E-09
 -1       879 2.93131E+05 5.07086E+04 1.68517E+03 1.22488E+05 1.33673E-09 1.73019E-08
 -1       880 2.95700E+05 4.78847E+04 7.84934E+02 1.19340E+05-3.40401E-09 7.67903E-09
 -1       881 2.92994E+05 5.06209E+04 4.19197E+02 1.22465E+05 2.43290E-09 5.38746E-09
 -1       882 2.95710E+05 4.78980E+04 2.68228E+02 1.19341E+05-1.48952E-09 5.82014E-09
 -1       883 2.92985E+05 5.06163E+04 2.88440E+02 1.22457E+05-2.96444E-09 2.23926E-08
 -1       884 2.95703E+05 4.78952E+04 4.58915E+02 1.19341E+05-6.55439E-09-5.82531E-10
 -1       885 2.93021E+05 5.06227E+04 9.22719E+02 1.22468E+05-6.33133E-09 6.57337E-10
 -1       886 2.95667E+05 4.78682E+04 1.85972E+03 1.19338E+05-9.79804E-09 9.53469E-09
 -1       887 2.93348E+05 5.08370E+04 4.06231E+03 1.22515E+05 4.99679E-09 1.41948E-08
 -1       888 2.95410E+05 4.79135E+04 8.18568E+03 1.19208E+05-8.24537E-09-7.60383E-09
 -1       889 2.98221E+05 5.59049E+04 1.95540E+04 1.22366E+05-1.48088E-08-1.07239E-08
 -1       890 2.92069E+05 5.18822E+04 3.66243E+04 1.16093E+05-8.24502E-09 4.73665E-09
 -1       891-8.98800E+01-1.62934E+05-2.00038E+03 2.71229E+04-5.17730E-10 8.82255E-09
 -1       892-1.76162E+02-1.63463E+05-2.14764E+03 4.11877E+04 1.62845E-09 9.67702E-10
 -1       893 4.35464E+01-1.62999E+05-3.03996E+03 2.71303E+04-1.91176E-09 1.04383E-08
 -1       894-1.51221E+03-1.64611E+05-6.29099E+03 4.10353E+04 3.77531E-09-3.16822E-09
 -1       895-1.20084E+03-1.61688E+05-1.10781E+04 2.72771E+04 6.43809E-10-1.14442E-08
 -1       956-3.77914E+05-5.46769E+03-1.34961E+04 3.11132E+04-1.45701E-09 9.00400E-11
 -1       957-3.80562E+05-1.92898E+03-6.92731E+03 3.73905E+04-2.08638E-08-1.09983E-08
 -1       958-3.79127E+05-2.41919E+02-3.12170E+03 3.09440E+04-1.46219E-08-1.13610E-08
 -1       959-3.79325E+05-1.36749E+02-1.59396E+03 3.75878E+04 9.42691E-10 1.34814E-08
 -1       960-3.79246E+05-4.49413E+01-7.77292E+02 3.09266E+04 2.36287E-09 2.11867E-09
 -1       961-3.79244E+05-6.32835E+01-4.12073E+02 3.76084E+04 7.00970E-09-1.04535E-08
 -1       962-3.79274E+05-4.60252E+01-2.35872E+02 3.09237E+04-2.25509E-09 1.11368E-09
 -1       963-3.79245E+05-5.89754E+01-1.89252E+02 3.76121E+04-2.87309E-09 2.35295E-08
 -1       964-3.79280E+05-4.26124E+01-2.30040E+02 3.09229E+04-6.00119E-09-4.47108E-09
 -1       965-3.79257E+05-5.60017E+01-3.97789E+02 3.76114E+04-5.84936E-09 1.37381E-08
 -1       966-3.79263E+05-3.48012E+01-7.47398E+02 3.09244E+04 6.61294E-09-4.26689E-09
 -1       967-3.79347E+05-1.19742E+02-1.53287E+03 3.75969E+04 1.01591E-09-1.49128E-08
 -1       968-3.79159E+05-2.17730E+02-3.00082E+03 3.09372E+04-2.69301E-09 9.96124E-10
 -1       969-3.80549E+05-1.83758E+03-6.66172E+03 3.74473E+04 2.86354E-09-9.90016E-09
 -1       970-3.78001E+05-5.23912E+03-1.29775E+04 3.10655E+04-1.55524E-10 2.70702E-08
 -1       971-3.45812E+05-1.72586E+03-9.30229E+03 1.53522E+04-4.85670E-10 1.59646E-08
 -1       972-3.48051E+05-1.27050E+03-5.06594E+03 2.12323E+04 5.40240E-10 1.15519E-08
 -1       973-3.46848E+05-6.18118E+01-2.26909E+03 1.52313E+04 3.81897E-09 1.07525E-09
 -1       974-3.46983E+05-8.08051E+01-1.17625E+03 2.13691E+04 3.93356E-09-2.24077E-09
 -1       975-3.46930E+05-1.69975E+01-5.88470E+02 1.52190E+04-5.93263E-09-1.92153E-09
 -1       976-3.46922E+05-3.10232E+01-3.40438E+02 2.13849E+04-6.34327E-09-4.28872E-09
 -1       977-3.46946E+05-1.62644E+01-2.48744E+02 1.52156E+04-9.04788E-09-2.52351E-09
 -1       978-3.46927E+05-2.48123E+01-2.93351E+02 2.13897E+04-4.11114E-09-3.33455E-09
 -1       979-3.46946E+05-7.78383E+00-4.73268E+02 1.52142E+04-4.67861E-09 8.02152E-09
 -1       980-3.46962E+05-2.17528E+01-9.15041E+02 2.13907E+04-5.15918E-09 1.86826E-08
 -1       981-3.46917E+05 1.50915E+01-1.77286E+03 1.52147E+04 1.92142E-09 6.48618E-09
 -1       982-3.47206E+05-1.52739E+02-3.66482E+03 2.13841E+04 4.69151E-09-5.34403E-09
 -1       983-3.46694E+05-9.84133E+01-7.12094E+03 1.52207E+04-2.34922E-09 1.41574E-08
 -1       984-3.50631E+05-3.87178E+03-1.59472E+04 2.12986E+04-3.96312E-09 2.02399E-08
 -1       985-3.43470E+05-5.30905E+03-2.92839E+04 1.52920E+04-4.94902E-09 9.02219E-09
 -3
    1PSTEP                        37          19           1          
  100CL  119 6.63159E-01         409                     0   19           1
 -4  DISP        4    1
 -5  D1          1    2    1    0
 -5  D2          1    2    2    0
 -5  D3          1    2    3    0
 -5  ALL         1    2    0    0    1ALL
 -1         1 2.71144E-03 0.00000E+00 0.00000E+00
 -1         2 1.37111E-03-1.41927E-27 0.00000E+00
 -1         3 3.42681E-04-5.90398E-28 1.32349E-23
 -1         5 1.77182E-04-2.30600E-27 1.65436E-24
 -1         8 2.70033E-03-4.10292E-07 0.00000E+00
 -1         9 2.69373E-03-1.84104E-04 0.00000E+00
 -1        10 3.10718E-04-3.41446E-06 0.00000E+00
 -1        12 1.79014E-04 8.09120E-07 0.00000E+00
 -1        15 2.68758E-03-4.34745E-07 0.00000E+00
 -1        16 2.75730E-03-1.85888E-04 0.00000E+00
 -1        17 2.11452E-04-7.78485E-06 0.00000E+00
 -1        18 1.82896E-04 3.44384E-05 0.00000E+00
 -1        19 1.84510E-04 1.61190E-06 0.00000E+00
 -1        20 1.84649E-04-9.78834E-06 0.00000E+00
 -1        21 1.83756E-04-2.52839E-05 3.30872E-24
 -1        24 3.06272E-05-1.20123E-05 0.00000E+00
 -1        25 1.93664E-04 3.46631E-05 0.00000E+00
 -1        26 1.94360E-04 2.23571E-06 0.00000E+00
 -1        27 1.92153E-04-1.33556E-05 0.00000E+00
 -1        28 1.91843E-04-2.59061E-05 0.00000E+00
 -1        32 0.00000E+00 0.00000E+00 0.00000E+00
 -1        33 2.03212E-04 2.99310E-06 0.00000E+00
 -1        34 2.01090E-04-1.34125E-05 0.00000E+00
 -1        35 1.99155E-04-2.62489E-05 0.00000E+00
 -1        51 2.71070E-03-8.56670E-08 0.00000E+00
 -1        52 2.70934E-03-1.53019E-07 0.00000E+00
 -1        53 2.70749E-03-2.16936E-07 0.00000E+00
 -1        54 2.70528E-03-2.79654E-07-1.65436E-24
 -1        55 2.70285E-03-3.42930E-07 3.30872E-24
 -1        56 2.70408E-03 7.68438E-06-5.29396E-23
 -1        57 2.68997E-03 3.20508E-05 5.29396E-23
 -1        58 2.67122E-03 6.78162E-05 1.05879E-22
 -1        59 2.65034E-03 1.08601E-04 5.29396E-23
 -1        60 2.63038E-03 1.47168E-04 1.05879E-22
 -1        61 2.61426E-03 1.76457E-04 0.00000E+00
 -1        62 2.60401E-03 1.91069E-04 0.00000E+00
 -1        63 2.60093E-03 1.86912E-04 0.00000E+00
 -1        64 2.60487E-03 1.63334E-04 0.00000E+00
 -1        65 2.61504E-03 1.21510E-04-5.29396E-23
 -1        66 2.62966E-03 6.60647E-05 0.00000E+00
 -1        67 2.64669E-03 2.95138E-06-5.29396E-23
 -1        68 2.66380E-03-6.03986E-05 0.00000E+00
 -1        69 2.67867E-03-1.16524E-04 5.29396E-23
 -1        70 2.68920E-03-1.59360E-04-5.29396E-23
 -1        86 1.45425E-03-5.86557E-06-5.29396E-23
 -1        87 1.69504E-03-3.66749E-05 7.94093E-23
 -1        88 2.01877E-03-8.95549E-05 0.00000E+00
 -1        89 2.34673E-03-1.43849E-04 0.00000E+00
 -1        90 2.59777E-03-1.77067E-04 5.29396E-23
 -1       121 3.41783E-04-5.51331E-07-1.32349E-23
 -1       122 3.39094E-04-1.10575E-06 6.61744E-24
 -1       123 3.34623E-04-1.66631E-06 1.32349E-23
 -1       124 3.28387E-04-2.23603E-06 0.00000E+00
 -1       125 3.20408E-04-2.81758E-06 0.00000E+00
 -1       191 1.77233E-04 1.34916E-07-2.48154E-24
 -1       192 1.77385E-04 2.69821E-07-4.13590E-25
 -1       193 1.77640E-04 4.04706E-07 2.48154E-24
 -1       194 1.77996E-04 5.39560E-07-1.24077E-24
 -1       195 1.78454E-04 6.74368E-07 0.00000E+00
 -1       251 2.70002E-03 1.74311E-06 0.00000E+00
 -1       252 2.69971E-03 3.86116E-06 0.00000E+00
 -1       253 2.69940E-03 4.96042E-06 0.00000E+00
 -1       254 2.69909E-03 4.07028E-06 0.00000E+00
 -1       255 2.69878E-03 5.26055E-07 6.61744E-24
 -1       256 2.69845E-03-6.30322E-06-3.30872E-24
 -1       257 2.69809E-03-1.65437E-05-1.32349E-23
 -1       258 2.69768E-03-3.02783E-05 6.61744E-24
 -1       259 2.69724E-03-4.70533E-05 1.32349E-23
 -1       260 2.69675E-03-6.63763E-05 6.61744E-24
 -1       261 2.69623E-03-8.73632E-05 0.00000E+00
 -1       262 2.69569E-03-1.09109E-04 0.00000E+00
 -1       263 2.69516E-03-1.30593E-04 0.00000E+00
 -1       264 2.69465E-03-1.50796E-04 6.61744E-24
 -1       265 2.69417E-03-1.68898E-04-1.32349E-23
 -1       266 2.69820E-03-4.20084E-07 0.00000E+00
 -1       267 2.69608E-03-4.23463E-07-8.27181E-25
 -1       268 2.69395E-03-4.27248E-07 0.00000E+00
 -1       269 2.69183E-03-4.29830E-07-2.06795E-25
 -1       270 2.68970E-03-4.32383E-07 0.00000E+00
 -1       271 2.69943E-03 1.84256E-07 0.00000E+00
 -1       272 2.69945E-03-1.73965E-06 0.00000E+00
 -1       273 2.70035E-03-6.03596E-06 0.00000E+00
 -1       274 2.70207E-03-1.25471E-05-1.32349E-23
 -1       275 2.70454E-03-2.10951E-05 2.64698E-23
 -1       276 2.70768E-03-3.14872E-05 0.00000E+00
 -1       277 2.71141E-03-4.35145E-05 2.64698E-23
 -1       278 2.71565E-03-5.69556E-05 1.32349E-23
 -1       279 2.72032E-03-7.15774E-05 0.00000E+00
 -1       280 2.72533E-03-8.71371E-05 0.00000E+00
 -1       281 2.73058E-03-1.03384E-04 0.00000E+00
 -1       282 2.73598E-03-1.20062E-04-6.61744E-24
 -1       283 2.74145E-03-1.36913E-04 0.00000E+00
 -1       284 2.74689E-03-1.53673E-04 6.61744E-24
 -1       285 2.75220E-03-1.70085E-04 1.32349E-23
 -1       301 2.70528E-03-1.84435E-04-6.61744E-24
 -1       302 2.71522E-03-1.84720E-04 0.00000E+00
 -1       303 2.72446E-03-1.84996E-04 1.32349E-23
 -1       304 2.73394E-03-1.85272E-04-6.61744E-24
 -1       305 2.74458E-03-1.85562E-04 0.00000E+00
 -1       306 2.73155E-03-3.38387E-04 0.00000E+00
 -1       307 2.79543E-03-7.52180E-04 5.29396E-23
 -1       308 2.84214E-03-1.35734E-03 0.00000E+00
 -1       309 2.86598E-03-2.05789E-03-5.29396E-23
 -1       310 2.89725E-03-2.72810E-03 0.00000E+00
 -1       311 2.95668E-03-3.24489E-03 5.29396E-23
 -1       312 3.01458E-03-3.52761E-03 0.00000E+00
 -1       313 3.01013E-03-3.53832E-03-5.29396E-23
 -1       314 2.86950E-03-3.28900E-03 1.05879E-22
 -1       315 2.55172E-03-2.84407E-03-5.29396E-23
 -1       316 2.07509E-03-2.28016E-03-1.05879E-22
 -1       317 1.50547E-03-1.66664E-03-5.29396E-23
 -1       318 9.57130E-04-1.06415E-03 1.05879E-22
 -1       319 5.38058E-04-5.37719E-04 5.29396E-23
 -1       320 2.92061E-04-1.61455E-04 1.05879E-22
 -1       336 2.99128E-04-4.07437E-06 1.32349E-23
 -1       337 2.85464E-04-4.75996E-06 0.00000E+00
 -1       338 2.69785E-04-5.47346E-06 0.00000E+00
 -1       339 2.52167E-04-6.21567E-06 6.61744E-24
 -1       340 2.32692E-04-6.99107E-06 1.32349E-23
 -1       406 1.79675E-04 9.43796E-07 0.00000E+00
 -1       407 1.80439E-04 1.07836E-06 4.13590E-25
 -1       408 1.81304E-04 1.21276E-06 1.24077E-24
 -1       409 1.82272E-04 1.34683E-06 3.10193E-25
 -1       410 1.83340E-04 1.48028E-06-1.24077E-24
 -1       521 2.79573E-03-3.49449E-04-1.05879E-22
 -1       522 2.85784E-03-7.83444E-04 0.00000E+00
 -1       523 2.89812E-03-1.41632E-03 1.05879E-22
 -1       524 2.91277E-03-2.14538E-03 0.00000E+00
 -1       525 2.93615E-03-2.84208E-03 1.05879E-22
 -1       526 2.99204E-03-3.38083E-03 0.00000E+00
 -1       527 3.04951E-03-3.67411E-03 2.11758E-22
 -1       528 3.04277E-03-3.68306E-03 1.05879E-22
 -1       529 2.89017E-03-3.41963E-03 0.00000E+00
 -1       530 2.54852E-03-2.95620E-03-5.29396E-23
 -1       531 2.03690E-03-2.37315E-03 0.00000E+00
 -1       532 1.42759E-03-1.74244E-03 0.00000E+00
 -1       533 8.40221E-04-1.12212E-03-1.05879E-22
 -1       534 3.87908E-04-5.74860E-04 5.29396E-23
 -1       535 1.20729E-04-1.79095E-04-2.11758E-22
 -1       536 2.10697E-04 2.71354E-05 0.00000E+00
 -1       537 2.08779E-04 8.75705E-05 0.00000E+00
 -1       538 2.05816E-04 1.64255E-04-3.30872E-24
 -1       539 2.02320E-04 2.47838E-04 0.00000E+00
 -1       540 1.99174E-04 3.26820E-04-3.30872E-24
 -1       541 1.97129E-04 3.89720E-04 0.00000E+00
 -1       542 1.96186E-04 4.29785E-04 0.00000E+00
 -1       543 1.95961E-04 4.40411E-04 0.00000E+00
 -1       544 1.95638E-04 4.22373E-04-3.30872E-24
 -1       545 1.94466E-04 3.76662E-04 1.65436E-24
 -1       546 1.92282E-04 3.11407E-04-3.30872E-24
 -1       547 1.89325E-04 2.34852E-04 0.00000E+00
 -1       548 1.86395E-04 1.58674E-04 3.30872E-24
 -1       549 1.84281E-04 9.45460E-05 0.00000E+00
 -1       550 1.83183E-04 5.04995E-05-1.65436E-24
 -1       551 1.86253E-04-8.35476E-06 0.00000E+00
 -1       552 1.57811E-04-9.00507E-06 0.00000E+00
 -1       553 1.27068E-04-9.71758E-06 6.61744E-24
 -1       554 9.49833E-05-1.04712E-05 3.30872E-24
 -1       555 6.25180E-05-1.12384E-05 0.00000E+00
 -1       556 2.03804E-04 1.17687E-05-5.29396E-23
 -1       557 1.97626E-04 2.76278E-05 0.00000E+00
 -1       558 1.92781E-04 4.00804E-05 0.00000E+00
 -1       559 1.89138E-04 4.94368E-05 0.00000E+00
 -1       560 1.86567E-04 5.60076E-05 0.00000E+00
 -1       561 1.84939E-04 6.01061E-05 0.00000E+00
 -1       562 1.84129E-04 6.20468E-05 0.00000E+00
 -1       563 1.84014E-04 6.21451E-05 0.00000E+00
 -1       564 1.84472E-04 6.07173E-05 0.00000E+00
 -1       565 1.85381E-04 5.80805E-05 0.00000E+00
 -1       566 1.86622E-04 5.45521E-05 0.00000E+00
 -1       567 1.88076E-04 5.04500E-05 0.00000E+00
 -1       568 1.89625E-04 4.60925E-05-1.65436E-24
 -1       569 1.91151E-04 4.17975E-05-8.27181E-25
 -1       570 1.92536E-04 3.78832E-05 0.00000E+00
 -1       571 1.82994E-04 3.23114E-05 1.65436E-24
 -1       572 1.83094E-04 3.01167E-05 0.00000E+00
 -1       573 1.83195E-04 2.78703E-05 0.00000E+00
 -1       574 1.83295E-04 2.55889E-05 8.27181E-25
 -1       575 1.83396E-04 2.32892E-05 0.00000E+00
 -1       576 1.83497E-04 2.09882E-05 1.65436E-24
 -1       577 1.83597E-04 1.87027E-05 3.30872E-24
 -1       578 1.83698E-04 1.64496E-05 0.00000E+00
 -1       579 1.83799E-04 1.42457E-05 0.00000E+00
 -1       580 1.83900E-04 1.21080E-05 0.00000E+00
 -1       581 1.84002E-04 1.00534E-05 6.61744E-24
 -1       582 1.84103E-04 8.09860E-06 0.00000E+00
 -1       583 1.84205E-04 6.26059E-06 6.61744E-24
 -1       584 1.84307E-04 4.55602E-06 0.00000E+00
 -1       585 1.84408E-04 3.00141E-06 6.61744E-24
 -1       586 1.84650E-04 3.44779E-05 0.00000E+00
 -1       587 1.86362E-04 3.45170E-05-4.13590E-25
 -1       588 1.88076E-04 3.45556E-05 8.27181E-25
 -1       589 1.89836E-04 3.45936E-05 0.00000E+00
 -1       590 1.91684E-04 3.46303E-05 0.00000E+00
 -1       591 1.83625E-04 3.24056E-05 2.06795E-25
 -1       592 1.84356E-04 3.03521E-05 0.00000E+00
 -1       593 1.85093E-04 2.82837E-05 0.00000E+00
 -1       594 1.85834E-04 2.62053E-05-4.13590E-25
 -1       595 1.86576E-04 2.41217E-05-8.27181E-25
 -1       596 1.87318E-04 2.20377E-05 0.00000E+00
 -1       597 1.88058E-04 1.99582E-05 8.27181E-25
 -1       598 1.88795E-04 1.78879E-05 0.00000E+00
 -1       599 1.89527E-04 1.58316E-05-8.27181E-25
 -1       600 1.90252E-04 1.37942E-05 0.00000E+00
 -1       601 1.90968E-04 1.17805E-05 0.00000E+00
 -1       602 1.91673E-04 9.79515E-06 0.00000E+00
 -1       603 1.92366E-04 7.84305E-06 0.00000E+00
 -1       604 1.93046E-04 5.92909E-06 2.58494E-26
 -1       605 1.93710E-04 4.05799E-06 0.00000E+00
 -1       606 1.84523E-04 4.56895E-07 0.00000E+00
 -1       607 1.84533E-04-6.13075E-07 0.00000E+00
 -1       608 1.84542E-04-1.60300E-06-3.30872E-24
 -1       609 1.84550E-04-2.51851E-06-1.65436E-24
 -1       610 1.84558E-04-3.36529E-06 0.00000E+00
 -1       611 1.84567E-04-4.14907E-06 0.00000E+00
 -1       612 1.84575E-04-4.87561E-06 0.00000E+00
 -1       613 1.84583E-04-5.55067E-06 0.00000E+00
 -1       614 1.84592E-04-6.17999E-06 1.65436E-24
 -1       615 1.84600E-04-6.76933E-06 0.00000E+00
 -1       616 1.84608E-04-7.32447E-06-1.65436E-24
 -1       617 1.84617E-04-7.85114E-06 0.00000E+00
 -1       618 1.84625E-04-8.35510E-06 0.00000E+00
 -1       619 1.84633E-04-8.84212E-06 2.06795E-25
 -1       620 1.84641E-04-9.31795E-06 0.00000E+00
 -1       621 1.85861E-04 1.71644E-06 1.65436E-24
 -1       622 1.87373E-04 1.82123E-06 0.00000E+00
 -1       623 1.89013E-04 1.92580E-06 3.30872E-24
 -1       624 1.90747E-04 2.03004E-06 8.27181E-25
 -1       625 1.92540E-04 2.13399E-06-1.65436E-24
 -1       626 1.85055E-04 4.93106E-07 3.30872E-24
 -1       627 1.85579E-04-5.63512E-07 6.61744E-24
 -1       628 1.86081E-04-1.56576E-06 0.00000E+00
 -1       629 1.86567E-04-2.52176E-06-1.65436E-24
 -1       630 1.87039E-04-3.43965E-06 0.00000E+00
 -1       631 1.87499E-04-4.32760E-06 0.00000E+00
 -1       632 1.87951E-04-5.19374E-06 3.30872E-24
 -1       633 1.88398E-04-6.04627E-06 0.00000E+00
 -1       634 1.88843E-04-6.89333E-06 0.00000E+00
 -1       635 1.89289E-04-7.74308E-06-1.65436E-24
 -1       636 1.89739E-04-8.60369E-06-3.30872E-24
 -1       637 1.90197E-04-9.48331E-06 0.00000E+00
 -1       638 1.90664E-04-1.03901E-05 0.00000E+00
 -1       639 1.91144E-04-1.13323E-05-8.27181E-25
 -1       640 1.91640E-04-1.23180E-05 3.30872E-24
 -1       656 1.85351E-04-1.03681E-05 0.00000E+00
 -1       657 1.86473E-04-1.09715E-05 6.61744E-24
 -1       658 1.87874E-04-1.15735E-05 1.32349E-23
 -1       659 1.89411E-04-1.21751E-05 0.00000E+00
 -1       660 1.90898E-04-1.27785E-05 0.00000E+00
 -1       661 1.84912E-04-1.03040E-05-8.27181E-25
 -1       662 1.85212E-04-1.09119E-05-8.27181E-25
 -1       663 1.85545E-04-1.16068E-05 1.65436E-24
 -1       664 1.85909E-04-1.23822E-05-8.27181E-25
 -1       665 1.86300E-04-1.32321E-05 0.00000E+00
 -1       666 1.86718E-04-1.41505E-05 8.27181E-25
 -1       667 1.87158E-04-1.51318E-05-1.65436E-24
 -1       668 1.87621E-04-1.61704E-05 0.00000E+00
 -1       669 1.88102E-04-1.72607E-05 0.00000E+00
 -1       670 1.88601E-04-1.83975E-05 0.00000E+00
 -1       671 1.89115E-04-1.95753E-05 1.65436E-24
 -1       672 1.89643E-04-2.07892E-05-8.27181E-25
 -1       673 1.90182E-04-2.20339E-05 0.00000E+00
 -1       674 1.90730E-04-2.33049E-05-4.13590E-25
 -1       675 1.91286E-04-2.45966E-05 2.06795E-25
 -1       676 1.85108E-04-2.53882E-05-3.30872E-24
 -1       677 1.86460E-04-2.54924E-05 1.65436E-24
 -1       678 1.87810E-04-2.55967E-05 0.00000E+00
 -1       679 1.89158E-04-2.57006E-05 0.00000E+00
 -1       680 1.90502E-04-2.58044E-05 0.00000E+00
 -1       771 1.86774E-05 1.47091E-05-5.29396E-23
 -1       772 8.62374E-06 3.66560E-05-5.29396E-23
 -1       773 3.75538E-07 5.40585E-05 0.00000E+00
 -1       774-6.19149E-06 6.71745E-05 0.00000E+00
 -1       775-1.11990E-05 7.62721E-05 0.00000E+00
 -1       776-1.47734E-05 8.16365E-05 0.00000E+00
 -1       777-1.70410E-05 8.35627E-05 5.29396E-23
 -1       778-1.81308E-05 8.23596E-05 2.64698E-23
 -1       779-1.81710E-05 7.83449E-05 0.00000E+00
 -1       780-1.72918E-05 7.18473E-05 0.00000E+00
 -1       781-1.56225E-05 6.32026E-05 0.00000E+00
 -1       782-1.32942E-05 5.27552E-05 0.00000E+00
 -1       783-1.04367E-05 4.08545E-05 5.29396E-23
 -1       784-7.18140E-06 2.78557E-05-2.64698E-23
 -1       785-3.65848E-06 1.41172E-05 0.00000E+00
 -1       786 1.93703E-04 3.24114E-05 0.00000E+00
 -1       787 1.93746E-04 3.02091E-05 0.00000E+00
 -1       788 1.93788E-04 2.80479E-05 0.00000E+00
 -1       789 1.93832E-04 2.59197E-05 0.00000E+00
 -1       790 1.93875E-04 2.38199E-05 0.00000E+00
 -1       791 1.93919E-04 2.17437E-05-8.27181E-25
 -1       792 1.93963E-04 1.96890E-05-1.65436E-24
 -1       793 1.94006E-04 1.76537E-05-8.27181E-25
 -1       794 1.94050E-04 1.56376E-05-1.65436E-24
 -1       795 1.94094E-04 1.36408E-05 0.00000E+00
 -1       796 1.94138E-04 1.16651E-05-1.65436E-24
 -1       797 1.94182E-04 9.71249E-06-8.27181E-25
 -1       798 1.94226E-04 7.78745E-06 0.00000E+00
 -1       799 1.94271E-04 5.89443E-06 0.00000E+00
 -1       800 1.94315E-04 4.04121E-06 0.00000E+00
 -1       801 1.47856E-04 3.11623E-05 0.00000E+00
 -1       802 9.36298E-06 1.94416E-05-2.64698E-23
 -1       803-1.08920E-04 9.82215E-06 0.00000E+00
 -1       804-9.65237E-05 6.83697E-06-2.64698E-23
 -1       805-3.18827E-05 2.68584E-06-5.29396E-23
 -1       806 1.94393E-04 3.23422E-05-1.65436E-24
 -1       807 1.95108E-04 3.00467E-05 0.00000E+00
 -1       808 1.95811E-04 2.77820E-05-3.30872E-24
 -1       809 1.96501E-04 2.55521E-05 0.00000E+00
 -1       810 1.97176E-04 2.33614E-05 0.00000E+00
 -1       811 1.97834E-04 2.12138E-05-1.65436E-24
 -1       812 1.98476E-04 1.91133E-05-3.30872E-24
 -1       813 1.99098E-04 1.70640E-05 0.00000E+00
 -1       814 1.99699E-04 1.50699E-05 0.00000E+00
 -1       815 2.00279E-04 1.31351E-05 1.65436E-24
 -1       816 2.00835E-04 1.12635E-05 0.00000E+00
 -1       817 2.01365E-04 9.45906E-06 0.00000E+00
 -1       818 2.01870E-04 7.72585E-06-1.65436E-24
 -1       819 2.02346E-04 6.06785E-06-1.65436E-24
 -1       820 2.02794E-04 4.48897E-06-3.30872E-24
 -1       821 1.94230E-04-1.45890E-07 0.00000E+00
 -1       822 1.94089E-04-3.72182E-06 0.00000E+00
 -1       823 1.93947E-04-8.05159E-06-3.30872E-24
 -1       824 1.93801E-04-1.26899E-05 0.00000E+00
 -1       825 1.93656E-04-1.71082E-05 0.00000E+00
 -1       826 1.93514E-04-2.07787E-05 0.00000E+00
 -1       827 1.93375E-04-2.33779E-05 3.30872E-24
 -1       828 1.93238E-04-2.45889E-05 0.00000E+00
 -1       829 1.93102E-04-2.44732E-05 3.30872E-24
 -1       830 1.92965E-04-2.31003E-05 0.00000E+00
 -1       831 1.92827E-04-2.08824E-05 0.00000E+00
 -1       832 1.92688E-04-1.82371E-05-1.65436E-24
 -1       833 1.92550E-04-1.56986E-05 0.00000E+00
 -1       834 1.92414E-04-1.38002E-05 1.65436E-24
 -1       835 1.92279E-04-1.29014E-05 8.27181E-25
 -1       836 1.96049E-04 2.36130E-06 0.00000E+00
 -1       837 1.97610E-04 2.49006E-06 1.65436E-24
 -1       838 1.99074E-04 2.61875E-06 3.30872E-24
 -1       839 2.00475E-04 2.74674E-06 8.27181E-25
 -1       840 2.01843E-04 2.87457E-06 8.27181E-25
 -1       856 1.92137E-04-1.44156E-05 8.27181E-25
 -1       857 1.92118E-04-1.53397E-05 0.00000E+00
 -1       858 1.92099E-04-1.61491E-05 0.00000E+00
 -1       859 1.92080E-04-1.68650E-05 2.06795E-25
 -1       860 1.92060E-04-1.75086E-05 0.00000E+00
 -1       861 1.92041E-04-1.81011E-05-2.06795E-25
 -1       862 1.92022E-04-1.86639E-05-4.13590E-25
 -1       863 1.92002E-04-1.92183E-05-2.06795E-25
 -1       864 1.91983E-04-1.97856E-05 0.00000E+00
 -1       865 1.91963E-04-2.03872E-05 0.00000E+00
 -1       866 1.91944E-04-2.10444E-05 0.00000E+00
 -1       867 1.91924E-04-2.17784E-05-4.13590E-25
 -1       868 1.91904E-04-2.26105E-05-8.27181E-25
 -1       869 1.91884E-04-2.35618E-05-4.13590E-25
 -1       870 1.91864E-04-2.46533E-05-8.27181E-25
 -1       871 1.93501E-04-1.33606E-05-8.27181E-25
 -1       872 1.94997E-04-1.33691E-05 0.00000E+00
 -1       873 1.96572E-04-1.33782E-05 0.00000E+00
 -1       874 1.98158E-04-1.33881E-05-1.80946E-25
 -1       875 1.99687E-04-1.33986E-05-4.13590E-25
 -1       876 1.92677E-04-1.44009E-05-3.30872E-24
 -1       877 1.93180E-04-1.53793E-05 1.65436E-24
 -1       878 1.93661E-04-1.62988E-05 0.00000E+00
 -1       879 1.94123E-04-1.71668E-05-1.65436E-24
 -1       880 1.94568E-04-1.79907E-05-3.30872E-24
 -1       881 1.95000E-04-1.87778E-05 0.00000E+00
 -1       882 1.95421E-04-1.95356E-05-3.30872E-24
 -1       883 1.95833E-04-2.02713E-05 0.00000E+00
 -1       884 1.96240E-04-2.09924E-05-3.30872E-24
 -1       885 1.96644E-04-2.17061E-05 1.65436E-24
 -1       886 1.97049E-04-2.24198E-05 3.30872E-24
 -1       887 1.97455E-04-2.31410E-05-1.65436E-24
 -1       888 1.97868E-04-2.38768E-05 3.30872E-24
 -1       889 1.98287E-04-2.46349E-05 1.65436E-24
 -1       890 1.98717E-04-2.54225E-05-1.65436E-24
 -1       891 1.93204E-04-2.59637E-05 1.65436E-24
 -1       892 1.94541E-04-2.60214E-05 8.27181E-25
 -1       893 1.95830E-04-2.60791E-05-8.27181E-25
 -1       894 1.97045E-04-2.61365E-05 8.27181E-25
 -1       895 1.98162E-04-2.61936E-05-8.27181E-25
 -1       956 2.03081E-04 1.67326E-06 1.65436E-24
 -1       957 2.02949E-04 4.45777E-07-1.65436E-24
 -1       958 2.02816E-04-7.00188E-07-3.30872E-24
 -1       959 2.02683E-04-1.77607E-06 0.00000E+00
 -1       960 2.02550E-04-2.79334E-06 0.00000E+00
 -1       961 2.02417E-04-3.76352E-06-1.65436E-24
 -1       962 2.02284E-04-4.69813E-06 0.00000E+00
 -1       963 2.02150E-04-5.60872E-06-1.65436E-24
 -1       964 2.02017E-04-6.50683E-06-3.30872E-24
 -1       965 2.01884E-04-7.40400E-06 1.65436E-24
 -1       966 2.01751E-04-8.31177E-06 3.30872E-24
 -1       967 2.01619E-04-9.24168E-06 1.65436E-24
 -1       968 2.01486E-04-1.02053E-05-6.61744E-24
 -1       969 2.01353E-04-1.12140E-05-3.30872E-24
 -1       970 2.01220E-04-1.22794E-05 3.30872E-24
 -1       971 2.00970E-04-1.45458E-05 3.30872E-24
 -1       972 2.00848E-04-1.55846E-05 1.65436E-24
 -1       973 2.00727E-04-1.65395E-05 0.00000E+00
 -1       974 2.00605E-04-1.74213E-05 1.65436E-24
 -1       975 2.00484E-04-1.82407E-05 0.00000E+00
 -1       976 2.00362E-04-1.90085E-05 1.65436E-24
 -1       977 2.00241E-04-1.97358E-05 3.30872E-24
 -1       978 2.00119E-04-2.04334E-05-1.65436E-24
 -1       979 1.99997E-04-2.11120E-05-3.30872E-24
 -1       980 1.99876E-04-2.17827E-05 1.65436E-24
 -1       981 1.99755E-04-2.24564E-05-3.30872E-24
 -1       982 1.99633E-04-2.31438E-05-1.65436E-24
 -1       983 1.99512E-04-2.38559E-05-3.30872E-24
 -1       984 1.99391E-04-2.46036E-05 1.65436E-24
 -1       985 1.99271E-04-2.53977E-05 0.00000E+00
 -3
    1PSTEP                        38          19           1          
  100CL  119 6.63159E-01         409                     0   19           1
 -4  FORC        4    1
 -5  F1          1    2    1    0
 -5  F2          1    2    2    0
 -5  F3          1    2    3    0
 -5  ALL         1    2    0    0    1ALL
 -1         1 5.21212E-04 0.00000E+00 0.00000E+00
 -1         2 0.00000E+00 0.00000E+00 0.00000E+00
 -1         3 0.00000E+00 0.00000E+00 0.00000E+00
 -1         5 0.00000E+00 0.00000E+00 0.00000E+00
 -1         8 2.96187E-05-2.50334E-05 0.00000E+00
 -1         9-1.41771E-03 8.43241E-05 0.00000E+00
 -1        10-4.45444E-09 2.61913E-08 0.00000E+00
 -1        12 0.00000E+00 0.00000E+00 0.00000E+00
 -1        15 0.00000E+00 0.00000E+00 0.00000E+00
 -1        16-2.06121E-04-2.03784E-03 0.00000E+00
 -1        17-3.11454E-05 1.74336E-05 0.00000E+00
 -1        18 2.86412E-07 2.38227E-07 0.00000E+00
 -1        19 8.28870E-08-1.85150E-08 0.00000E+00
 -1        20-1.35499E-07 1.50461E-08 0.00000E+00
 -1        21 0.00000E+00 5.39056E-08 0.00000E+00
 -1        24-8.42542E-05 2.72226E-05 0.00000E+00
 -1        25 1.58529E-07-1.47780E-07 0.00000E+00
 -1        26-8.77049E-08-6.26411E-08 0.00000E+00
 -1        27-4.50678E-08 8.60848E-08 0.00000E+00
 -1        28-4.20253E-08 2.56417E-08 0.00000E+00
 -1        32 0.00000E+00 0.00000E+00 0.00000E+00
 -1        33-5.88893E-09-1.10233E-07 0.00000E+00
 -1        34-3.20552E-08-1.13747E-07 0.00000E+00
 -1        35-1.90773E-07-1.22638E-07 0.00000E+00
 -1        51 0.00000E+00 0.00000E+00 0.00000E+00
 -1        52 0.00000E+00 0.00000E+00 0.00000E+00
 -1        53 0.00000E+00 0.00000E+00 0.00000E+00
 -1        54 0.00000E+00 0.00000E+00 0.00000E+00
 -1        55 0.00000E+00 0.00000E+00 0.00000E+00
 -1        56 0.00000E+00 0.00000E+00 0.00000E+00
 -1        57 0.00000E+00 0.00000E+00 0.00000E+00
 -1        58 0.00000E+00 0.00000E+00 0.00000E+00
 -1        59 0.00000E+00 0.00000E+00 0.00000E+00
 -1        60 0.00000E+00 0.00000E+00 0.00000E+00
 -1        61 0.00000E+00 0.00000E+00 0.00000E+00
 -1        62 0.00000E+00 0.00000E+00 0.00000E+00
 -1        63 0.00000E+00 0.00000E+00 0.00000E+00
 -1        64 0.00000E+00 0.00000E+00 0.00000E+00
 -1        65 0.00000E+00 0.00000E+00 0.00000E+00
 -1        66 0.00000E+00 0.00000E+00 0.00000E+00
 -1        67 0.00000E+00 0.00000E+00 0.00000E+00
 -1        68 0.00000E+00 0.00000E+00 0.00000E+00
 -1        69 0.00000E+00 0.00000E+00 0.00000E+00
 -1        70 0.00000E+00 0.00000E+00 0.00000E+00
 -1        86 0.00000E+00 0.00000E+00 0.00000E+00
 -1        87 0.00000E+00 0.00000E+00 0.00000E+00
 -1        88 0.00000E+00 0.00000E+00 0.00000E+00
 -1        89 0.00000E+00 0.00000E+00 0.00000E+00
 -1        90 0.00000E+00 0.00000E+00 0.00000E+00
 -1       121 0.00000E+00 0.00000E+00 0.00000E+00
 -1       122 0.00000E+00 0.00000E+00 0.00000E+00
 -1       123 0.00000E+00 0.00000E+00 0.00000E+00
 -1       124 0.00000E+00 0.00000E+00 0.00000E+00
 -1       125 0.00000E+00 0.00000E+00 0.00000E+00
 -1       191 0.00000E+00 0.00000E+00 0.00000E+00
 -1       192 0.00000E+00 0.00000E+00 0.00000E+00
 -1       193 0.00000E+00 0.00000E+00 0.00000E+00
 -1       194 0.00000E+00 0.00000E+00 0.00000E+00
 -1       195 0.00000E+00 0.00000E+00 0.00000E+00
 -1       251 0.00000E+00 0.00000E+00 0.00000E+00
 -1       252 0.00000E+00 0.00000E+00 0.00000E+00
 -1       253 0.00000E+00 0.00000E+00 0.00000E+00
 -1       254 0.00000E+00 0.00000E+00 0.00000E+00
 -1       255 0.00000E+00 0.00000E+00 0.00000E+00
 -1       256 0.00000E+00 0.00000E+00 0.00000E+00
 -1       257 0.00000E+00 0.00000E+00 0.00000E+00
 -1       258 0.00000E+00 0.00000E+00 0.00000E+00
 -1       259 0.00000E+00 0.00000E+00 0.00000E+00
 -1       260 0.00000E+00 0.00000E+00 0.00000E+00
 -1       261 0.00000E+00 0.00000E+00 0.00000E+00
 -1       262 0.00000E+00 0.00000E+00 0.00000E+00
 -1       263 0.00000E+00 0.00000E+00 0.00000E+00
 -1       264 0.00000E+00 0.00000E+00 0.00000E+00
 -1       265 0.00000E+00 0.00000E+00 0.00000E+00
 -1       266 0.00000E+00 0.00000E+00 0.00000E+00
 -1       267 0.00000E+00 0.00000E+00 0.00000E+00
 -1       268 0.00000E+00 0.00000E+00 0.00000E+00
 -1       269 0.00000E+00 0.00000E+00 0.00000E+00
 -1       270 0.00000E+00 0.00000E+00 0.00000E+00
 -1       271 0.00000E+00 0.00000E+00 0.00000E+00
 -1       272 0.00000E+00 0.00000E+00 0.00000E+00
 -1       273 0.00000E+00 0.00000E+00 0.00000E+00
 -1       274 0.00000E+00 0.00000E+00 0.00000E+00
 -1       275 0.00000E+00 0.00000E+00 0.00000E+00
 -1       276 0.00000E+00 0.00000E+00 0.00000E+00
 -1       277 0.00000E+00 0.00000E+00 0.00000E+00
 -1       278 0.00000E+00 0.00000E+00 0.00000E+00
 -1       279 0.00000E+00 0.00000E+00 0.00000E+00
 -1       280 0.00000E+00 0.00000E+00 0.00000E+00
 -1       281 0.00000E+00 0.00000E+00 0.00000E+00
 -1       282 0.00000E+00 0.00000E+00 0.00000E+00
 -1       283 0.00000E+00 0.00000E+00 0.00000E+00
 -1       284 0.00000E+00 0.00000E+00 0.00000E+00
 -1       285 0.00000E+00 0.00000E+00 0.00000E+00
 -1       301 0.00000E+00 0.00000E+00 0.00000E+00
 -1       302 0.00000E+00 0.00000E+00 0.00000E+00
 -1       303 0.00000E+00 0.00000E+00 0.00000E+00
 -1       304 0.00000E+00 0.00000E+00 0.00000E+00
 -1       305 0.00000E+00 0.00000E+00 0.00000E+00
 -1       306 0.00000E+00 0.00000E+00 0.00000E+00
 -1       307 0.00000E+00 0.00000E+00 0.00000E+00
 -1       308 0.00000E+00 0.00000E+00 0.00000E+00
 -1       309 0.00000E+00 0.00000E+00 0.00000E+00
 -1       310 0.00000E+00 0.00000E+00 0.00000E+00
 -1       311 0.00000E+00 0.00000E+00 0.00000E+00
 -1       312 0.00000E+00 0.00000E+00 0.00000E+00
 -1       313 0.00000E+00 0.00000E+00 0.00000E+00
 -1       314 0.00000E+00 0.00000E+00 0.00000E+00
 -1       315 0.00000E+00 0.00000E+00 0.00000E+00
 -1       316 0.00000E+00 0.00000E+00 0.00000E+00
 -1       317 0.00000E+00 0.00000E+00 0.00000E+00
 -1       318 0.00000E+00 0.00000E+00 0.00000E+00
 -1       319 0.00000E+00 0.00000E+00 0.00000E+00
 -1       320 0.00000E+00 0.00000E+00 0.00000E+00
 -1       336 0.00000E+00 0.00000E+00 0.00000E+00
 -1       337 0.00000E+00 0.00000E+00 0.00000E+00
 -1       338 0.00000E+00 0.00000E+00 0.00000E+00
 -1       339 0.00000E+00 0.00000E+00 0.00000E+00
 -1       340 0.00000E+00 0.00000E+00 0.00000E+00
 -1       406 0.00000E+00 0.00000E+00 0.00000E+00
 -1       407 0.00000E+00 0.00000E+00 0.00000E+00
 -1       408 0.00000E+00 0.00000E+00 0.00000E+00
 -1       409 0.00000E+00 0.00000E+00 0.00000E+00
 -1       410 0.00000E+00 0.00000E+00 0.00000E+00
 -1       521 0.00000E+00 0.00000E+00 0.00000E+00
 -1       522 0.00000E+00 0.00000E+00 0.00000E+00
 -1       523 0.00000E+00 0.00000E+00 0.00000E+00
 -1       524 0.00000E+00 0.00000E+00 0.00000E+00
 -1       525 0.00000E+00 0.00000E+00 0.00000E+00
 -1       526 0.00000E+00 0.00000E+00 0.00000E+00
 -1       527 0.00000E+00 0.00000E+00 0.00000E+00
 -1       528 0.00000E+00 0.00000E+00 0.00000E+00
 -1       529 0.00000E+00 0.00000E+00 0.00000E+00
 -1       530 0.00000E+00 0.00000E+00 0.00000E+00
 -1       531 0.00000E+00 0.00000E+00 0.00000E+00
 -1       532 0.00000E+00 0.00000E+00 0.00000E+00
 -1       533 0.00000E+00 0.00000E+00 0.00000E+00
 -1       534 0.00000E+00 0.00000E+00 0.00000E+00
 -1       535 0.00000E+00 0.00000E+00 0.00000E+00
 -1       536 0.00000E+00 0.00000E+00 0.00000E+00
 -1       537 0.00000E+00 0.00000E+00 0.00000E+00
 -1       538 0.00000E+00 0.00000E+00 0.00000E+00
 -1       539 0.00000E+00 0.00000E+00 0.00000E+00
 -1       540 0.00000E+00 0.00000E+00 0.00000E+00
 -1       541 0.00000E+00 0.00000E+00 0.00000E+00
 -1       542 0.00000E+00 0.00000E+00 0.00000E+00
 -1       543 0.00000E+00 0.00000E+00 0.00000E+00
 -1       544 0.00000E+00 0.00000E+00 0.00000E+00
 -1       545 0.00000E+00 0.00000E+00 0.00000E+00
 -1       546 0.00000E+00 0.00000E+00 0.00000E+00
 -1       547 0.00000E+00 0.00000E+00 0.00000E+00
 -1       548 0.00000E+00 0.00000E+00 0.00000E+00
 -1       549 0.00000E+00 0.00000E+00 0.00000E+00
 -1       550 0.00000E+00 0.00000E+00 0.00000E+00
 -1       551 0.00000E+00 0.00000E+00 0.00000E+00
 -1       552 0.00000E+00 0.00000E+00 0.00000E+00
 -1       553 0.00000E+00 0.00000E+00 0.00000E+00
 -1       554 0.00000E+00 0.00000E+00 0.00000E+00
 -1       555 0.00000E+00 0.00000E+00 0.00000E+00
 -1       556 0.00000E+00 0.00000E+00 0.00000E+00
 -1       557 0.00000E+00 0.00000E+00 0.00000E+00
 -1       558 0.00000E+00 0.00000E+00 0.00000E+00
 -1       559 0.00000E+00 0.00000E+00 0.00000E+00
 -1       560 0.00000E+00 0.00000E+00 0.00000E+00
 -1       561 0.00000E+00 0.00000E+00 0.00000E+00
 -1       562 0.00000E+00 0.00000E+00 0.00000E+00
 -1       563 0.00000E+00 0.00000E+00 0.00000E+00
 -1       564 0.00000E+00 0.00000E+00 0.00000E+00
 -1       565 0.00000E+00 0.00000E+00 0.00000E+00
 -1       566 0.00000E+00 0.00000E+00 0.00000E+00
 -1       567 0.00000E+00 0.00000E+00 0.00000E+00
 -1       568 0.00000E+00 0.00000E+00 0.00000E+00
 -1       569 0.00000E+00 0.00000E+00 0.00000E+00
 -1       570 0.00000E+00 0.00000E+00 0.00000E+00
 -1       571 0.00000E+00 0.00000E+00 0.00000E+00
 -1       572 0.00000E+00 0.00000E+00 0.00000E+00
 -1       573 0.00000E+00 0.00000E+00 0.00000E+00
 -1       574 0.00000E+00 0.00000E+00 0.00000E+00
 -1       575 0.00000E+00 0.00000E+00 0.00000E+00
 -1       576 0.00000E+00 0.00000E+00 0.00000E+00
 -1       577 0.00000E+00 0.00000E+00 0.00000E+00
 -1       578 0.00000E+00 0.00000E+00 0.00000E+00
 -1       579 0.00000E+00 0.00000E+00 0.00000E+00
 -1       580 0.00000E+00 0.00000E+00 0.00000E+00
 -1       581 0.00000E+00 0.00000E+00 0.00000E+00
 -1       582 0.00000E+00 0.00000E+00 0.00000E+00
 -1       583 0.00000E+00 0.00000E+00 0.00000E+00
 -1       584 0.00000E+00 0.00000E+00 0.00000E+00
 -1       585 0.00000E+00 0.00000E+00 0.00000E+00
 -1       586 0.00000E+00 0.00000E+00 0.00000E+00
 -1       587 0.00000E+00 0.00000E+00 0.00000E+00
 -1       588 0.00000E+00 0.00000E+00 0.00000E+00
 -1       589 0.00000E+00 0.00000E+00 0.00000E+00
 -1       590 0.00000E+00 0.00000E+00 0.00000E+00
 -1       591 0.00000E+00 0.00000E+00 0.00000E+00
 -1       592 0.00000E+00 0.00000E+00 0.00000E+00
 -1       593 0.00000E+00 0.00000E+00 0.00000E+00
 -1       594 0.00000E+00 0.00000E+00 0.00000E+00
 -1       595 0.00000E+00 0.00000E+00 0.00000E+00
 -1       596 0.00000E+00 0.00000E+00 0.00000E+00
 -1       597 0.00000E+00 0.00000E+00 0.00000E+00
 -1       598 0.00000E+00 0.00000E+00 0.00000E+00
 -1       599 0.00000E+00 0.00000E+00 0.00000E+00
 -1       600 0.00000E+00 0.00000E+00 0.00000E+00
 -1       601 0.00000E+00 0.00000E+00 0.00000E+00
 -1       602 0.00000E+00 0.00000E+00 0.00000E+00
 -1       603 0.00000E+00 0.00000E+00 0.00000E+00
 -1       604 0.00000E+00 0.00000E+00 0.00000E+00
 -1       605 0.00000E+00 0.00000E+00 0.00000E+00
 -1       606 0.00000E+00 0.00000E+00 0.00000E+00
 -1       607 0.00000E+00 0.00000E+00 0.00000E+00
 -1       608 0.00000E+00 0.00000E+00 0.00000E+00
 -1       609 0.00000E+00 0.00000E+00 0.00000E+00
 -1       610 0.00000E+00 0.00000E+00 0.00000E+00
 -1       611 0.00000E+00 0.00000E+00 0.00000E+00
 -1       612 0.00000E+00 0.00000E+00 0.00000E+00
 -1       613 0.00000E+00 0.00000E+00 0.00000E+00
 -1       614 0.00000E+00 0.00000E+00 0.00000E+00
 -1       615 0.00000E+00 0.00000E+00 0.00000E+00
 -1       616 0.00000E+00 0.00000E+00 0.00000E+00
 -1       617 0.00000E+00 0.00000E+00 0.00000E+00
 -1       618 0.00000E+00 0.00000E+00 0.00000E+00
 -1       619 0.00000E+00 0.00000E+00 0.00000E+00
 -1       620 0.00000E+00 0.00000E+00 0.00000E+00
 -1       621 0.00000E+00 0.00000E+00 0.00000E+00
 -1       622 0.00000E+00 0.00000E+00 0.00000E+00
 -1       623 0.00000E+00 0.00000E+00 0.00000E+00
 -1       624 0.00000E+00 0.00000E+00 0.00000E+00
 -1       625 0.00000E+00 0.00000E+00 0.00000E+00
 -1       626 0.00000E+00 0.00000E+00 0.00000E+00
 -1       627 0.00000E+00 0.00000E+00 0.00000E+00
 -1       628 0.00000E+00 0.00000E+00 0.00000E+00
 -1       629 0.00000E+00 0.00000E+00 0.00000E+00
 -1       630 0.00000E+00 0.00000E+00 0.00000E+00
 -1       631 0.00000E+00 0.00000E+00 0.00000E+00
 -1       632 0.00000E+00 0.00000E+00 0.00000E+00
 -1       633 0.00000E+00 0.00000E+00 0.00000E+00
 -1       634 0.00000E+00 0.00000E+00 0.00000E+00
 -1       635 0.00000E+00 0.00000E+00 0.00000E+00
 -1       636 0.00000E+00 0.00000E+00 0.00000E+00
 -1       637 0.00000E+00 0.00000E+00 0.00000E+00
 -1       638 0.00000E+00 0.00000E+00 0.00000E+00
 -1       639 0.00000E+00 0.00000E+00 0.00000E+00
 -1       640 0.00000E+00 0.00000E+00 0.00000E+00
 -1       656 0.00000E+00 0.00000E+00 0.00000E+00
 -1       657 0.00000E+00 0.00000E+00 0.00000E+00
 -1       658 0.00000E+00 0.00000E+00 0.00000E+00
 -1       659 0.00000E+00 0.00000E+00 0.00000E+00
 -1       660 0.00000E+00 0.00000E+00 0.00000E+00
 -1       661 0.00000E+00 0.00000E+00 0.00000E+00
 -1       662 0.00000E+00 0.00000E+00 0.00000E+00
 -1       663 0.00000E+00 0.00000E+00 0.00000E+00
 -1       664 0.00000E+00 0.00000E+00 0.00000E+00
 -1       665 0.00000E+00 0.00000E+00 0.00000E+00
 -1       666 0.00000E+00 0.00000E+00 0.00000E+00
 -1       667 0.00000E+00 0.00000E+00 0.00000E+00
 -1       668 0.00000E+00 0.00000E+00 0.00000E+00
 -1       669 0.00000E+00 0.00000E+00 0.00000E+00
 -1       670 0.00000E+00 0.00000E+00 0.00000E+00
 -1       671 0.00000E+00 0.00000E+00 0.00000E+00
 -1       672 0.00000E+00 0.00000E+00 0.00000E+00
 -1       673 0.00000E+00 0.00000E+00 0.00000E+00
 -1       674 0.00000E+00 0.00000E+00 0.00000E+00
 -1       675 0.00000E+00 0.00000E+00 0.00000E+00
 -1       676 0.00000E+00 0.00000E+00 0.00000E+00
 -1       677 0.00000E+00 0.00000E+00 0.00000E+00
 -1       678 0.00000E+00 0.00000E+00 0.00000E+00
 -1       679 0.00000E+00 0.00000E+00 0.00000E+00
 -1       680 0.00000E+00 0.00000E+00 0.00000E+00
 -1       771 0.00000E+00 0.00000E+00 0.00000E+00
 -1       772 0.00000E+00 0.00000E+00 0.00000E+00
 -1       773 0.00000E+00 0.00000E+00 0.00000E+00
 -1       774 0.00000E+00 0.00000E+00 0.00000E+00
 -1       775 0.00000E+00 0.00000E+00 0.00000E+00
 -1       776 0.00000E+00 0.00000E+00 0.00000E+00
 -1       777 0.00000E+00 0.00000E+00 0.00000E+00
 -1       778 0.00000E+00 0.00000E+00 0.00000E+00
 -1       779 0.00000E+00 0.00000E+00 0.00000E+00
 -1       780 0.00000E+00 0.00000E+00 0.00000E+00
 -1       781 0.00000E+00 0.00000E+00 0.00000E+00
 -1       782 0.00000E+00 0.00000E+00 0.00000E+00
 -1       783 0.00000E+00 0.00000E+00 0.00000E+00
 -1       784 0.00000E+00 0.00000E+00 0.00000E+00
 -1       785 0.00000E+00 0.00000E+00 0.00000E+00
 -1       786 0.00000E+00 0.00000E+00 0.00000E+00
 -1       787 0.00000E+00 0.00000E+00 0.00000E+00
 -1       788 0.00000E+00 0.00000E+00 0.00000E+00
 -1       789 0.00000E+00 0.00000E+00 0.00000E+00
 -1       790 0.00000E+00 0.00000E+00 0.00000E+00
 -1       791 0.00000E+00 0.00000E+00 0.00000E+00
 -1       792 0.00000E+00 0.00000E+00 0.00000E+00
 -1       793 0.00000E+00 0.00000E+00 0.00000E+00
 -1       794 0.00000E+00 0.00000E+00 0.00000E+00
 -1       795 0.00000E+00 0.00000E+00 0.00000E+00
 -1       796 0.00000E+00 0.00000E+00 0.00000E+00
 -1       797 0.00000E+00 0.00000E+00 0.00000E+00
 -1       798 0.00000E+00 0.00000E+00 0.00000E+00
 -1       799 0.00000E+00 0.00000E+00 0.00000E+00
 -1       800 0.00000E+00 0.00000E+00 0.00000E+00
 -1       801 0.00000E+00 0.00000E+00 0.00000E+00
 -1       802 0.00000E+00 0.00000E+00 0.00000E+00
 -1       803 0.00000E+00 0.00000E+00 0.00000E+00
 -1       804 0.00000E+00 0.00000E+00 0.00000E+00
 -1       805 0.00000E+00 0.00000E+00 0.00000E+00
 -1       806 0.00000E+00 0.00000E+00 0.00000E+00
 -1       807 0.00000E+00 0.00000E+00 0.00000E+00
 -1       808 0.00000E+00 0.00000E+00 0.00000E+00
 -1       809 0.00000E+00 0.00000E+00 0.00000E+00
 -1       810 0.00000E+00 0.00000E+00 0.00000E+00
 -1       811 0.00000E+00 0.00000E+00 0.00000E+00
 -1       812 0.00000E+00 0.00000E+00 0.00000E+00
 -1       813 0.00000E+00 0.00000E+00 0.00000E+00
 -1       814 0.00000E+00 0.00000E+00 0.00000E+00
 -1       815 0.00000E+00 0.00000E+00 0.00000E+00
 -1       816 0.00000E+00 0.00000E+00 0.00000E+00
 -1       817 0.00000E+00 0.00000E+00 0.00000E+00
 -1       818 0.00000E+00 0.00000E+00 0.00000E+00
 -1       819 0.00000E+00 0.00000E+00 0.00000E+00
 -1       820 0.00000E+00 0.00000E+00 0.00000E+00
 -1       821 0.00000E+00 0.00000E+00 0.00000E+00
 -1       822 0.00000E+00 0.00000E+00 0.00000E+00
 -1       823 0.00000E+00 0.00000E+00 0.00000E+00
 -1       824 0.00000E+00 0.00000E+00 0.00000E+00
 -1       825 0.00000E+00 0.00000E+00 0.00000E+00
 -1       826 0.00000E+00 0.00000E+00 0.00000E+00
 -1       827 0.00000E+00 0.00000E+00 0.00000E+00
 -1       828 0.00000E+00 0.00000E+00 0.00000E+00
 -1       829 0.00000E+00 0.00000E+00 0.00000E+00
 -1       830 0.00000E+00 0.00000E+00 0.00000E+00
 -1       831 0.00000E+00 0.00000E+00 0.00000E+00
 -1       832 0.00000E+00 0.00000E+00 0.00000E+00
 -1       833 0.00000E+00 0.00000E+00 0.00000E+00
 -1       834 0.00000E+00 0.00000E+00 0.00000E+00
 -1       835 0.00000E+00 0.00000E+00 0.00000E+00
 -1       836 0.00000E+00 0.00000E+00 0.00000E+00
 -1       837 0.00000E+00 0.00000E+00 0.00000E+00
 -1       838 0.00000E+00 0.00000E+00 0.00000E+00
 -1       839 0.00000E+00 0.00000E+00 0.00000E+00
 -1       840 0.00000E+00 0.00000E+00 0.00000E+00
 -1       856 0.00000E+00 0.00000E+00 0.00000E+00
 -1       857 0.00000E+00 0.00000E+00 0.00000E+00
 -1       858 0.00000E+00 0.00000E+00 0.00000E+00
 -1       859 0.00000E+00 0.00000E+00 0.00000E+00
 -1       860 0.00000E+00 0.00000E+00 0.00000E+00
 -1       861 0.00000E+00 0.00000E+00 0.00000E+00
 -1       862 0.00000E+00 0.00000E+00 0.00000E+00
 -1       863 0.00000E+00 0.00000E+00 0.00000E+00
 -1       864 0.00000E+00 0.00000E+00 0.00000E+00
 -1       865 0.00000E+00 0.00000E+00 0.00000E+00
 -1       866 0.00000E+00 0.00000E+00 0.00000E+00
 -1       867 0.00000E+00 0.00000E+00 0.00000E+00
 -1       868 0.00000E+00 0.00000E+00 0.00000E+00
 -1       869 0.00000E+00 0.00000E+00 0.00000E+00
 -1       870 0.00000E+00 0.00000E+00 0.00000E+00
 -1       871 0.00000E+00 0.00000E+00 0.00000E+00
 -1       872 0.00000E+00 0.00000E+00 0.00000E+00
 -1       873 0.00000E+00 0.00000E+00 0.00000E+00
 -1       874 0.00000E+00 0.00000E+00 0.00000E+00
 -1       875 0.00000E+00 0.00000E+00 0.00000E+00
 -1       876 0.00000E+00 0.00000E+00 0.00000E+00
 -1       877 0.00000E+00 0.00000E+00 0.00000E+00
 -1       878 0.00000E+00 0.00000E+00 0.00000E+00
 -1       879 0.00000E+00 0.00000E+00 0.00000E+00
 -1       880 0.00000E+00 0.00000E+00 0.00000E+00
 -1       881 0.00000E+00 0.00000E+00 0.00000E+00
 -1       882 0.00000E+00 0.00000E+00 0.00000E+00
 -1       883 0.00000E+00 0.00000E+00 0.00000E+00
 -1       884 0.00000E+00 0.00000E+00 0.00000E+00
 -1       885 0.00000E+00 0.00000E+00 0.00000E+00
 -1       886 0.00000E+00 0.00000E+00 0.00000E+00
 -1       887 0.00000E+00 0.00000E+00 0.00000E+00
 -1       888 0.00000E+00 0.00000E+00 0.00000E+00
 -1       889 0.00000E+00 0.00000E+00 0.00000E+00
 -1       890 0.00000E+00 0.00000E+00 0.00000E+00
 -1       891 0.00000E+00 0.00000E+00 0.00000E+00
 -1       892 0.00000E+00 0.00000E+00 0.00000E+00
 -1       893 0.00000E+00 0.00000E+00 0.00000E+00
 -1       894 0.00000E+00 0.00000E+00 0.00000E+00
 -1       895 0.00000E+00 0.00000E+00 0.00000E+00
 -1       956 0.00000E+00 0.00000E+00 0.00000E+00
 -1       957 0.00000E+00 0.00000E+00 0.00000E+00
 -1       958 0.00000E+00 0.00000E+00 0.00000E+00
 -1       959 0.00000E+00 0.00000E+00 0.00000E+00
 -1       960 0.00000E+00 0.00000E+00 0.00000E+00
 -1       961 0.00000E+00 0.00000E+00 0.00000E+00
 -1       962 0.00000E+00 0.00000E+00 0.00000E+00
 -1       963 0.00000E+00 0.00000E+00 0.00000E+00
 -1       964 0.00000E+00 0.00000E+00 0.00000E+00
 -1       965 0.00000E+00 0.00000E+00 0.00000E+00
 -1       966 0.00000E+00 0.00000E+00 0.00000E+00
 -1       967 0.00000E+00 0.00000E+00 0.00000E+00
 -1       968 0.00000E+00 0.00000E+00 0.00000E+00
 -1       969 0.00000E+00 0.00000E+00 0.00000E+00
 -1       970 0.00000E+00 0.00000E+00 0.00000E+00
 -1       971 0.00000E+00 0.00000E+00 0.00000E+00
 -1       972 0.00000E+00 0.00000E+00 0.00000E+00
 -1       973 0.00000E+00 0.00000E+00 0.00000E+00
 -1       974 0.00000E+00 0.00000E+00 0.00000E+00
 -1       975 0.00000E+00 0.00000E+00 0.00000E+00
 -1       976 0.00000E+00 0.00000E+00 0.00000E+00
 -1       977 0.00000E+00 0.00000E+00 0.00000E+00
 -1       978 0.00000E+00 0.00000E+00 0.00000E+00
 -1       979 0.00000E+00 0.00000E+00 0.00000E+00
 -1       980 0.00000E+00 0.00000E+00 0.00000E+00
 -1       981 0.00000E+00 0.00000E+00 0.00000E+00
 -1       982 0.00000E+00 0.00000E+00 0.00000E+00
 -1       983 0.00000E+00 0.00000E+00 0.00000E+00
 -1       984 0.00000E+00 0.00000E+00 0.00000E+00
 -1       985 0.00000E+00 0.00000E+00 0.00000E+00
 -3
